##TITLE=Sulfur Hexafluoride
##JCAMP-DX=4.24
##DATA TYPE=INFRARED SPECTRUM
##CLASS=IUPAC A
##ORIGIN=NIST, Analytical Chemistry Division, 301-975-3108
##OWNER=COPYRIGHT (C) 2000 by the U.S. Secretary of Commerce
##DATE=00/02/01
##$SPECTRA VERSION=1.10
##$UNCERTAINTY IN Y=2.0 % relative (B=1.0E-04,C=2.6E-08,D=5.6E-11)
##CAS NAME=Sulfur hexafluoride
##CAS REGISTRY NO=2551-62-4
##MOLFORM=S F6
##MP=-50.5 C
##BP=-63.9 C (sublimes)
##$NIST SOURCE=QUANT-IR
##SPECTROMETER/DATA SYSTEM=IFS66V (Bruker)
##INSTRUMENT PARAMETERS=KBr Beam Splitter; MCT Detector; Multipass cell
##STATE=gas
##SAMPLE DESCRIPTION=Sulfur Hexafluoride Primary Gas Standard
##PRESSURE=101.3 Pa
##TEMPERATURE=23 C
##SAMPLING PROCEDURE=1 L/min Flow
##RESOLUTION=1.9290
##DATA PROCESSING=Happ Genzel Apodization
##XUNITS=cm-1
##YUNITS=(micromol/mol)-1m-1 (base 10)
##XFACTOR=1.0
##YFACTOR=2.9103E-11
##DELTAX=0.9645
##FIRSTX=575.652
##LASTX=3974.604
##FIRSTY=-9.41E-07
##MAXX=3973.64
##MINX=575.65
##MAXY=.024915
##MINY=-.0000122
##NPOINTS=3526
##XYDATA=(X++(Y..Y))
575.65-32356 41534 258066 35863 218553 360686
580.47 428414 215850 190747-22236 201388 225884
586.26 451324 449703 729474 789473 1239552 1393721
592.04 2024251 2520097 3511987 4176512 5350505 6277082
597.83 7638797 8440748 9737419 10463675 11491724 11632538
603.62 12074560 11364997 10978000 9413540 8591979 6604840
609.40 6173266 6780773 10471038 21658985 63917945 65801186
615.19 15455586 2651903 4188500 6737154 8219483 10931269
620.97 12231236 14281591 14900056 15866408 15532001 15506104
626.76 14313461 13439529 11794013 10618968 8765545 7473394
632.54 5875001 4916833 3649657 2969250 1974852 1540696
638.33 947778 833280 423970 400764 123739 215493
644.11-15278 95244-62405 60610-82077 43322
649.90-97995 43232-87890 76582-7843 100175
655.68-40330 64386-44687 33769-76330 68218
661.47-20183 108858 10456 46424-68942-124965
667.25-279983-53877-102989 56344-14347 80928
673.04-27786 73085-39263 35365-23837 62212
678.83-36115 36907-51849 35510-53499 57929
684.61-37547 47092 13243 66385-62170-21247
690.40-61812 73942 11657 81748-6225 72922
696.18 24689 100490-5408 62228-24239 23412
701.97-22695 88478 24969 77077-37192 30640
707.75 5637 63558-19478 73878-3863 43193
713.54-25735 54507-4353 61669 22540 78092
719.32-8663 45789-52971 11532 7431 94889
725.11-8205 52986 3922 69619-2421 38580
730.89-25989 35229-24682 50160-17237 35872
736.68 3842 63838 5461 26083-59384 18024
742.47-43224 4297-46011 44888-22816 40043
748.25 11082 60845-21821-3878-51657 31222
754.04-26673 21367-40726 11269-62245 3411
759.82-27969 16042-53509 21910-22788 26468
765.61-45578-8912-52120-7941-87225-40607
771.39-79748-9106-40750 23647-39838 20341
777.18-55320-11073-50649 1078-77311-17430
782.96-61644-4107-54872 8337-44294 1626
788.75-60069-23389-52986 23957-38819 12615
794.53-32801 19083-79915-53243-72267 4467
800.32-52028 2263-46351 4563-47556 20173
806.11-34119 16905-38383 20002-38994 21340
811.89-14564 50779-10208 19397-53976-6662
817.68-19259 85530 86 31303-13509 47849
823.46-31099 34842-24593 13079-50582 49657
829.25 12656 54572-18451 8116-63325 32040
835.03-9062 66907 19184 68103-1999 36366
840.82-43977 47317 6317 103450 96196 194965
846.60 111071 172015 142455 236859 220912 329703
852.39 258579 331336 290922 361060 300293 372468
858.17 321890 395022 306485 350165 267986 356974
863.96 370818 602129 860344 1442508 1900957 2217350
869.75 1214032 347084 154901 276094 285810 442018
875.53 479810 643217 657024 799211 790527 914174
881.32 865315 930004 857406 915517 794078 816333
887.10 664462 657781 494688 506883 365290 389136
892.89 241395 244163 105680 165058 52629 126994
898.67 26049 110993 9423 80158-31713 91405
904.46 23113 136489 44714 176791 90964 229921
910.24 154443 304404 241023 450384 440531 715407
916.03 870628 1431570 1972123 3184714 4652386 7133085
921.81 10141578 14250907 18623147 23450422 27713829 32051059
927.60 34983631 38825675 39923338 33096560 30931228 31024085
933.39 29097600 31882007 42445883 63306310 95955302 143828414
939.17 210765906 300762233 407199848 521108271 627377423 715873351
944.96 773425420 856084411 848440631 625438448 502488545 376267026
950.74 173675402 44314774 10654026 5593214 4301874 2865032
956.53 2448683 1689990 1626989 1158245 1232890 915293
962.31 1019199 774417 912885 748506 902528 772188
968.10 926444 844660 1027454 993812 1200439 1211392
973.88 1455821 1555547 1884692 2091333 2538431 2913139
979.67 3531387 4003098 4578644 4888051 5068114 4795259
985.45 4418382 3757534 3309638 3294835 3836370 4274567
991.24 3952137 3616475 3582725 3150799 2583243 1863908
997.03 1372610 969803 780503 575044 498538 359864
1002.81 319338 209656 191541 123071 131824 63349
1008.60 66178 23697 53026 13113 39116 12929
1014.38 52944 12393 28382 295 33256 15659
1020.17 47277 17382 46418 24294 39623 6173
1025.95 28607 18887 54716 32604 46534 22214
1031.74 41290 17884 25695 11284 26663 8935
1037.52 31082 18558 15649-3420 22943 8092
1043.31 15197-3933 12299-2963-603-19173
1049.09-4499 3952 29303 6709 12303 10561
1054.88 23472 5198 5374-20685-15530-13122
1060.67 13543-533 2982-8802-1290-11103
1066.45-2470-34691-45372-22896 19635 10922
1072.24-5113-16825-7691-13633-16067-22901
1078.02 7908 6383 1476 3204 14507 8127
1083.81 12501 913 9088-3822-20853-37018
1089.59-37333-13697 13852-8688-24371-23553
1095.38-9238-11040-11773-14751-565-16827
1101.16-27485-36308-29926-30055-37429-32317
1106.95-19788-14323-14876-17194-13369-12143
1112.73-6604-1020-5503-11571-255 6380
1118.52-3564-11855 1264 3574-5980-6049
1124.31 3 1399 1787 9438 20864 28875
1130.09 27726 29102 32364 45296 52330 48482
1135.88 45876 38430 18356 21454 25472 8359
1141.66-2585 255-3022-3118 4497 5757
1147.45-8112-14211-18223-20783-28203-25039
1153.23-25342-27167-29360-10423-3826-5538
1159.02-6348-18214-28890-24805-30881-19724
1164.80-19995-25312-25375-20850-25699-16680
1170.59-14198-10067-8928-9644-19330-8833
1176.37-8889-13124-21449-12732-13684-550
1182.16 853-2940-13852-6941-14279-1146
1187.95 8654 4100 1238 11760 2875 709
1193.73-2577 2904 881-1249-17136 637
1199.52 6207-5681-19675-1810-2448 2943
1205.30 10653 11582 698 14535 9469 6747
1211.09 6430 16433 6240 17182 21374 28522
1216.87 15347 11748-217 4520 5535 24697
1222.66 24561 26663 11800 12834-4835-17389
1228.44-3644 30246 24051 18485 10628 25702
1234.23 23970 31166 37970 58284 64820 90442
1240.01 106364 141029 170074 191632 205962 248264
1245.80 281208 300703 300001 316638 339357 386460
1251.59 440200 502466 547043 559535 532183 454464
1257.37 339081 330149 320822 331579 326455 347295
1263.16 343438 326811 272688 235031 180993 149488
1268.94 102253 78948 41358 34787 17143 18532
1274.73 24383 38411 29932 47025 53889 63044
1280.51 54236 96595 96722 64036 54096 46511
1286.30 16999-4560-24720-23519-19332-2479
1292.08-8904-12207-22937-13617-17150-5308
1297.87-12403-520-5914-5822-9497-2472
1303.65-16147-8795-7133 5802 5455 16790
1309.44 1471-2346-9289-185-5469-894
1315.23-20681-13148-17247-14516-15315-8772
1321.01-5741 12825 8196 14929 1519 4566
1326.80-3358 590-10421 3892 14369 21052
1332.58 2340 8015 8518 17549 10754 11001
1338.37-12942-8077-29020-40203-59184-46956
1344.15-39625-36673-50406-51712-80946-84037
1349.94-68115-7413 94121 253832 362342 372704
1355.72 271908 146933 17259-72927-137575-124637
1361.51-109541-75688-41879 4542 21577 29117
1367.29 9178 22691 34527 65240 69659 73964
1373.08 64428 74762 55342 46250 46007 60582
1378.87 41260 46885 49338 67076 84939 115610
1384.65 136816 191502 203343 140629 17156-3460
1390.44 4098 25441-6055-29336-12692 32571
1396.22 26376 14221-10085 24145 30332 32588
1402.01 9997-6351-28413-4056-7421 7640
1407.79 620 2330-15426-10930-13604-5537
1413.58-12257-16000-41064-46439-105528-173608
1419.36-100643-21693-30697-29734-47799-23409
1425.15-17980-3915-23815-32369-54422-24789
1430.93-23470-20298-17192-5901-77694-147071
1436.72-80214 892-3185 2315-9831 2539
1442.51-6571-3340-13315-4205-41723-36823
1448.29-7867 7924-8140 1803-72-3490
1454.08-32112-142903-237976-118149-57101-12922
1459.86-16985-6446-2418-15224-77385-42139
1465.65-2227 7259 4955 7283-28863-94658
1471.43-147718-116904-59704-24282-54650-6975
1477.22 4287 13202 4234 14165 3171 14664
1483.00-5666-145-17639-31784-40668-30709
1488.79-79973-64166-29822 9009 579-3708
1494.57-106772-135095-62094-55622-49873 1563
1500.36-9812-3297-10081-26048-166218-256736
1506.15-253794-113535-45113-20981-19976-31561
1511.93-42165-9762-21935-24347-79156-66861
1517.72-41724-61778-180377-199271-119220-44588
1523.50-50139-80848-56737-29139-41655-16759
1529.29-14571-18347-43789-85274-95840-23163
1535.07-16850-9373-104271-264498-279933-167522
1540.86-156989-106262-45348-46248-29261 32048
1546.64 40354 52017 35272 54670 83741 110652
1552.43 68513 31156 107120 168151 74094-23757
1558.21 4932 79694 270568 452895 483829 515760
1564.00 567508 660610 709381 770962 761603 793883
1569.79 921654 1006863 1045165 1114317 1121807 1018229
1575.57 1028408 1261086 1331468 1365695 1375121 1412591
1581.36 1432662 1493517 1491980 1470275 1409447 1733717
1587.14 1774689 1226254 1087261 1143091 1200714 1217634
1592.93 1156744 1136263 1103524 1045585 954242 857961
1598.71 747968 665744 582070 513760 439835 404863
1604.50 357071 321140 274611 243444 194668 183071
1610.28 161998 137745 96500 88534 45299-100460
1616.07-163607-9647 35598 48306 38730 39466
1621.85-24751-42354 3926 38039 19373 5075
1627.64 11182 50137 53903 62387 57674 63239
1633.43-30109-144763-79875 22389 27268 49540
1639.21 31608 44179 37197 34089 6788-56192
1645.00-147841-93884-61113-17771-534-14127
1650.78-210032-426309-348203-134943-42255-3135
1656.57-13741 7488 5120 7073-29443-73065
1662.35-80648-18970-31270-14833-14400-39898
1668.14-125116-90574-72843-51523-33293-47554
1673.92-148983-118706-44508-18141-35236-47018
1679.71-48725-33212-96771-199336-347505-222746
1685.49-49893-27161-38046-28790-26961-12095
1691.28-13573-415-15868-175352-266600-54582
1697.07 39523-33954-220003-137495 51124 92844
1702.85 66984 96562 123308 182200 297312 427118
1708.64 550142 730382 951005 1206053 1428186 1605099
1714.42 1824038 1942846 1890510 2078227 2072165 1511538
1720.21 1307296 1043970 301326 5562-20844-9293
1725.99-30794-26974-54732-60161-63445-51707
1731.78-150043-244816-236267-95498-41314-31273
1737.56-65507-111139-101833-33658-55460-53658
1743.35-48331-24809-29644-27372-57041-47171
1749.13-65788-119542-88284-11686-16664-4184
1754.92-40311-51097-32713 465-2011-9375
1760.71-71541-26746-2515-549-11355-8241
1766.49-57913-69058-30479-26162-88186-140332
1772.28-122460-24105-29305-26089-30628-12910
1778.06-19822-16676-30004-728-6618-12831
1783.85-45835-13430-5396 10757 6037 9262
1789.63-26722-46614-102620-52322-13449-7294
1795.42-14936 6771-8807-21487-28662-10755
1801.20-24207-4970-9714 6915-596-2903
1806.99-19357 1386-13809-5788-10492-3996
1812.77-5774 2647-7859 7581 3980 14426
1818.56-9723-2878-5767 5862-1093-9113
1824.35-38400-6870-8955-10071-41759-48679
1830.13-28299 304-13848-1069-8441-1761
1835.92-17539-3818-5976-1890-23342-14414
1841.70-32250-87910-113056-39086-36061-30439
1847.49-40381-33449-45797-28932-42159-38632
1853.27-47931-34997-54645-53770-69973-67398
1859.06-78476-43494-40107-31332-47714-47024
1864.84-61530-52543-73184-83327-102690-63189
1870.63-65570-69858-103337-105004-125680-129585
1876.41-151760-152929-183940-182927-192824-210918
1882.20-244837-242071-270242-266196-286694-290976
1887.98-325825-317078-310091-292938-307684-298410
1893.77-319537-309047-292580-273077-328064-343336
1899.56-277866-180306-169354-123017-66167-45147
1905.34-86196-79101-77538-63006-71074-47591
1911.13-47346-37866-50528-34062-37434-40327
1916.91-78375-54682-42729-28823-42073-35242
1922.70-31587-12470-27159-33361-49144-35320
1928.48-45365-32788-40193-30205-39858-28194
1934.27-44111-30385-37948-22548-25884-24740
1940.05-44122-41775-50285-22402-36229-34720
1945.84-43588-22562-22089-13825-19988-2440
1951.62-11082-8975-24620-7996-16603-14808
1957.41-28167-14343-25538-17741-27951-22967
1963.20-34476-17704-24551-21890-37517-16883
1968.98-24327-23028-36545-16498-12092-4482
1974.77-14806-3388-21294-7474-18569-12925
1980.55-25271-5460-6819-263-18173-11256
1986.34-26679-16937-22843-5812-20550-21164
1992.12-18449-646-15769-142-13802-7803
1997.91-11741 5899-7928 3251-3389 9019
2003.69-7173-3321-26689-23286-23259-767
2009.48-7705 965-14664-5666-12985-3516
2015.26-18130-8540-17815-12040-31413-15553
2021.05-16207-1393-13466-6773-17595-909
2026.84-5115-7474-23885-7970-14891-5686
2032.62-21181-12174-27885-18606-23753-11946
2038.41-27396-17536-33091-25962-38398-17976
2044.19-22660-10987-18035-16557-31780-12290
2049.98-23019-19486-29018-18865-36094-29712
2055.76-42624-33794-39666-17341-21314-16177
2061.55-30428-23382-30330-19538-36609-20204
2067.33-21983-18302-34964-23932-35154-22556
2073.12-36566-26361-37170-22893-35366-38504
2078.90-45154-22516-17761-15068-41370-28245
2084.69-22070-5725-32996-29058-28126-7226
2090.48-28047-22242-23509 6059-4957-10011
2096.26-26751-8845-5325-14240-32238-8475
2102.05 8417 10022-26909-14347 1576 12859
2107.83-26402-12348 7429 28729-22264-21839
2113.62-4112 40281-5357-19278-14210 34698
2119.40 9388-12436-14219 37995 22142-6802
2125.19-25082 16272 19327-579-15949 14415
2130.97 12521-1707-15645 5450-6027-2386
2136.76-21608-14228-13397-3052-17390-8487
2142.54-17435-5229-15799 7437 9680 8094
2148.33-14931 4675-305 478-1817 24536
2154.12 9514 3330 2490 43076 26577 449
2159.90-3320 34499 12506 4136 14843 40251
2165.69 1142-1179 29292 50510-6533-3110
2171.47 27492 39400-4444 25398 49334 28159
2177.26-7732 31139 23806-914-9370 30395
2183.04 14016 25527 41870 35988-20486-18276
2188.83 3042 19750 7905 33629 17073-2848
2194.61-16503 10784-2247 2671 8295 24633
2200.40-1479 16672 14218 3544-18094 6015
2206.18-1363 1369-2263 16325 4244 11282
2211.97-1062 12894 8808 18649 1064 9841
2217.76 8752 20548 12660 30444 17265 19515
2223.54 9910 26194 18997 27926 23326 31240
2229.33 7257-329-17179 975-5333-3226
2235.11-21957-20621-29648-7564-26576-27488
2240.90-24575-2003-10990-6716-19462-14695
2246.68-26433-16152-22433-7412-27870-15402
2252.47-15752-711-17211-15235-28872-16324
2258.25-25239-12129-19708-8736-23832-11195
2264.04-25044-18961-32641-22449-28872-19974
2269.82-30309-13822-15473-6831-26336-21680
2275.61-31840-21451-37862-20646-22886-11801
2281.40-30100-19879-30807-22365-32128-34314
2287.18-51488-27120-24510-13454-24814-16397
2292.97-29050-19644-36014-37488-51975-35889
2298.75-41907-41397-62157-39513-32107-31912
2304.54-42904-43816-65670-55470-67621-58971
2310.32-72691-60265-85800-70722-107592-95263
2316.11-115982-102135-132861-116250-143396-138423
2321.89-174173-156423-176926-175357-210870-213130
2327.68-239803-219629-237708-236200-254057-230191
2333.46-256657-262604-278503-261072-263217-240967
2339.25-252019-232741-225944-198059-200706-178712
2345.04-165249-118739-94484-63889-83260-96328
2350.82-127385-146402-200718-225674-263642-271914
2356.61-302874-311331-338495-331358-346717-341462
2362.39-348914-323582-314941-285683-285883-257334
2368.18-244615-220543-206433-174281-166916-128442
2373.96-116784-91465-85633-62504-62368-46489
2379.75-51772-35834-44444-32107-37632-24247
2385.53-36985-29801-34800-26832-42365-28737
2391.32-34744-21142-33732-14179-20899-16253
2397.10-38294-22361-27811-24828-40031-23124
2402.89-25910-17714-28620-21387-38432-24335
2408.68-35454-34471-40389-19845-33670-18489
2414.46-23684-13887-27836-21677-34157-27881
2420.25-43144-24704-33863-29174-43614-30458
2426.03-32034-23142-35722-24009-40238-32140
2431.82-38032-28235-43191-27895-35868-23998
2437.60-33460-36764-53438-39691-48962-39775
2443.39-47919-28528-34117-30687-41422-29842
2449.17-48283-36668-41399-25486-36552-31529
2454.96-43635-34516-48129-27782-27345-19388
2460.74-37712-30057-32582-20200-36500-29027
2466.53-40460-24821-32630-28474-38917-27102
2472.32-38357-30238-37543-24650-34723-33468
2478.10-55900-41274-43383-33055-31941-20184
2483.89-37403-23941-27540-15068-28374-22143
2489.67-32354-28000-34564-14329-25006-23354
2495.46-36800-23545-36825-27587-36288-20264
2501.24-23188-16321-27364-14550-27569-30339
2507.03-48843-38431-40097-25588-25750-12888
2512.81-32963-28898-37991-34735-48565-24615
2518.60-19709-20997-47256-35877-40378-29849
2524.38-37326-23843-25643-10892-24929-26657
2530.17-40795-23293-37226-34345-47248-36319
2535.96-42616-20889-25487-22350-34918-18232
2541.74-31595-25975-31855-21718-41431-25528
2547.53-28783-23360-43340-30029-37576-31623
2553.31-41449-27323-31665-22045-35118-28108
2559.10-43210-40496-44633-27184-48239-42567
2564.88-49163-39362-53129-41792-56561-41760
2570.67-43156-26539-40024-37193-53635-36550
2576.45-47100-38422-40046-30426-48124-38063
2582.24-49951-33906-41505-46312-66250-50427
2588.02-58631-49383-56777-44161-50837-39270
2593.81-57790-52273-58985-42300-58117-52965
2599.60-64283-51682-56667-52819-67126-52558
2605.38-62223-56690-67433-53619-58869-50152
2611.17-72436-58167-57105-44223-62532-57756
2616.95-69771-56575-59367-48658-64151-54304
2622.74-60171-56865-67798-48516-60029-54272
2628.52-61587-45793-59766-51880-63720-49861
2634.31-61301-50428-53684-42285-56996-42184
2640.09-52809-48992-59055-48018-44794-21651
2645.88-42398-44231-52534-45137-61933-43320
2651.66-62087-59005-58569-38917-47923-45779
2657.45-59679-30176-34208-38608-48665-42372
2663.24-63258-46747-51603-40412-45109-26215
2669.02-47132-50475-60731-38132-50762-49822
2674.81-62096-36157-37050-43180-59308-42223
2680.59-56886-48477-52024-39708-60149-44662
2686.38-52789-50870-52877-39522-51358-44001
2692.16-52197-37755-49212-48661-69486-60114
2697.95-62900-44195-48325-9218 3810 15565
2703.73-3173-29773-83612-81831-80924-58577
2709.52-46082-20428-37217-43516-71295-73306
2715.30-74458-53471-60005-45204-44554-33515
2721.09-53239-47090-55564-42837-54152-47226
2726.88-56747-40340-50495-41319-46462-32537
2732.66-41141-35462-56408-53915-63695-36627
2738.45-22955-16522-33978-32057-55990-49037
2744.23-55304-40754-49514-37109-52412-42472
2750.02-48249-42292-54828-41264-40491-29821
2755.80-51749-57058-59549-39765-40915-34525
2761.59-46343-30983-43799-32631-43031-46370
2767.37-71395-60127-54623-34891-50610-44386
2773.16-54299-38655-48775-39435-53129-50255
2778.94-67050-51174-54676-46627-54724-43072
2784.73-52811-39366-42186-30654-55140-61954
2790.52-65221-48707-66558-51181-50100-36381
2796.30-37825-32390-63912-60840-53579-39325
2802.09-59782-45741-53279-44412-52140-47166
2807.87-61034-45357-49685-39300-42100-27247
2813.66-44601-41020-53569-45373-56144-43042
2819.44-51244-47924-62014-53594-64276-51585
2825.23-54169-48922-48866-24355-37267-29365
2831.01-45564-46637-46848-36202-47340-25088
2836.80-30012-36095-63857-71839-89881-72662
2842.58-67671-27687-8239 27932 23394 1936
2848.37-38710-42268-62858-64486-66692-16245
2854.16 2387-3128-59301-81335-95097-62962
2859.94-40051-9670-22780-22525-40442-37591
2865.73-47391-29935-35709-31530-41636-27878
2871.51-37718-25336-29534-15108-27405-19328
2877.30-29674-24841-33681-24884-39537-30286
2883.08-41514-30172-40464-27483-32540-9621
2888.87-18779-23808-40123-25861-41604-22550
2894.65-29469-25262-29799-8673-23625-21199
2900.44-30736-20224-26597-28414-46625-28441
2906.22-34799-18034-43822-38087-30658-12234
2912.01-29191-21260-18442-630-18395-27351
2917.80-49337-39743-44116-18144-23804-15407
2923.58-26245-11099-26093-14249-31318-25075
2929.37-38237-32141-29540-8760-15545-21556
2935.15-43577-16679-20712-19871-43656-30329
2940.94-30012-17040-33051-25878-27475-13027
2946.72-32470-31586-32264-21409-35534-18497
2952.51-31272-19580-25688-13336-21849-9424
2958.29-11556-17861-62827-36124-14016-3051
2964.08-26565-23142-25344-10827-23047-27881
2969.86-33680-15185-36762-30932-37459-17455
2975.65-5766 12906-6897-2519-16534-4654
2981.44-17321-15530-18519-9819-16925-11364
2987.22-37224-20139-15709-11182-34385-29237
2993.01-32537-20048-35559-19303-16398-7363
2998.79-22367-21682-26847-11752-22106-17453
3004.58-33849-17782-18175-9751-21722-10655
3010.36-28961-15663-13793-9424-29783-25524
3016.15-26177-12394-25446-23341-32850-14797
3021.93-30908-19276-21863-14284-20585-8093
3027.72-20094-12450-17548-11792-28127-18377
3033.50-20913-6854-12122-5710-22029 3302
3039.29-3408-2511-18461-15413-23128-5457
3045.07-10266 4870-4669-1898-12500-1458
3050.86-26747-41550-49015-13243-17715-13247
3056.65-25569-10685-25697-19163-20812-27639
3062.43-52467-32011-38502-37345-39324-29838
3068.22-44173-19990-25918-27701-38277-22834
3074.00-34780-23430-28460-16618-28395-24623
3079.79-43995-35547-38121-28534-36078-33367
3085.57-52054-34110-27237-18071-37771-22404
3091.36-31643-19153-35637-38996-45656-24575
3097.14-27654-18363-34199-34499-54742-45016
3102.93-52023-33080-34755-27099-43514-35169
3108.71-39861-30880-32899-13707-21944-18029
3114.50-37027-21133-26379-35469-35004-3607
3120.29-22256-18952-25503-14806-37134-38998
3126.07-41689-24774-42350-30243-28588-27594
3131.86-47916-35425-41926-19655-8810 5268
3137.64-14772-18774-44878-32924-21349 2165
3143.43-1469-1327-23292-17166-30582-23604
3149.21-31464-13485-16858-11490-23037-8722
3155.00-28258-24046-26065-15473-8703 1591
3160.78-18675-4665-12052-16568-23999-6971
3166.57-22613-4162-17166-12669-32805-23431
3172.35-20286-12026-24597 3389-2707 9010
3178.14-992 49-13093-1795-19130-4831
3183.93-17840-12376-14445-1294-22706-16942
3189.71-29061-24651-20149-2754-4039 3922
3195.50-29188-41303-49694-19032-15401-3874
3201.28-29192-17299-16824-12320-42626-34836
3207.07-36158-32096-45692-22836-14126-16523
3212.85-30757-8599-16798-13410-40526-36937
3218.64-45858-54122-79649-56090-43951-8206
3224.42 39 8808-2440-16709-57868-48380
3230.21-50510-31208-33544-31068-43738-21106
3235.99-27419-12538-5814 9745-8151-9305
3241.78-22054-18526-52465-56193-80679-75819
3247.57-71500-51499-45574-17526-15689-10640
3253.35-35015-35169-21397 30589 30884 36121
3259.14 6992-16768-42881-36686-51603-47617
3264.92-52421-21888-25747-15039-19944 2036
3270.71-4600 7462-7387-4215-28119-21032
3276.49-31244-23839-34657-19128-12517 10705
3282.28 11305 24885 7901 23264 19803 9049
3288.06-22368-12250-12128 7854-4286 2052
3293.85-14656 6724-22-3318-5919 1900
3299.63-12322 10269 1030 1580 7192 25205
3305.42 7707 15873 5323 17995 4931 23925
3311.21 13097 16791 1778 16418 2731 1348
3316.99-5394 3449 10728 22356-8183-7328
3322.78-7918 19707 29377 44262 17148 7517
3328.56-2889 8687-512 6310-8599 5643
3334.35 4791 19189 13460 19240 5469 8904
3340.13-4233 3313-337 16729 7019 14802
3345.92-9391-4814-10006 5344 2440 10703
3351.70-12402-12847-20241-12360-30145-17724
3357.49-23132-19862-22419-16349-37377-31512
3363.27-42901-35621-44289-28698-27177-10490
3369.06-21280-24129-39753-26928-32567-15908
3374.85-20145-12213-31033-29843-49281-36240
3380.63-47815-47649-51452-27232-33103-32229
3386.42-50478-30762-41787-34761-44129-44450
3392.20-44756-27847-44183-37555-49973-30890
3397.99-34670-23573-24286-10203-31984-34710
3403.77-46296-31046-40654-27243-43569-51310
3409.56-61564-32190-31767-23266-34541-26946
3415.34-29649-12087-20499-17429-38760-36895
3421.13-44016-20710-20207-10163-25849-19904
3426.91-34026-36208-38034-17204-32349-27214
3432.70-24658-9024-23720-26630-34512-8862
3438.49-16666-15265-28656-25333-43631-32783
3444.27-15448-5330-29905-15849-16998-2406
3450.06-5061 16125 10077 1944-13292 8056
3455.84-11229-5042-3478-3183-20998-11256
3461.63-16404-13517-29477 5192 18488 4649
3467.41-40027-26139-799 22913-11281-29264
3473.20-31097 25 1622 20646-4652-18159
3478.98-34394-10264 3516 11479-20969-20172
3484.77-16200 6535-1631-8443-20557-7040
3490.55-13359-14566-31892-9623-18151-21711
3496.34-35168-13345-12819-9107-39913-23843
3502.13-22837-18856-34280-12724-18988-4143
3507.91-22996-21822-18098-17046-29663-20197
3513.70-29439-11820-22917-17092-22282-26908
3519.48-53058-42014-38908-32780-44121-38834
3525.27-52650-38014-39422-18705-9549-10395
3531.05-35885-32296-30375-8164-33905-41610
3536.84-39184-32093-51332-29778-28723-22754
3542.62-29945-13660-22729-26744-36790-18569
3548.41-29420-34268-58221-43433-53251-54618
3554.19-69581-39753-33792-9039-21200-19351
3559.98-26712-11906-28565-33279-38900-42165
3565.77-61865-56756-57800-19626-17784-550
3571.55-4348 5662-16298-3025-3357-4405
3577.34-20768-14155-4218 12980 6296 27439
3583.12 22566-2567-64200-50892-49319-41363
3588.91-10375 554-1717 6310-9489-8790
3594.69-28676-15688-24540-1000 14158 5198
3600.48-11790 4364-1302 17876 18175 3201
3606.26-35979-31238-63399-22288 367-26225
3612.05-38293-14289-22233-4351-24788-32318
3617.83-61505-61436-25452-2256-3376 11726
3623.62 6597 1301-26513-54767-139666-164983
3629.41-88278-17482-22714-29199-31796 15641
3635.19 10669 2597-19619-10922-4168 1656
3640.98-24497-13120-20380-22953-41763-70062
3646.76-82312-100683-134150-92521-76189-11398
3652.55-11409-15030-78864-97221-56206-19746
3658.33-19090 4272-2424 12911 6149 6089
3664.12-21393-10641-5100-48133-123305-150619
3669.90-195415-76915-38818-62199-155547-200179
3675.69-138680-45708-50516-52288-63805-35988
3681.47-35833-26227-35868-8014-21135-75877
3687.26-229630-178802-101425-84714-45961-12238
3693.05-35618-26015-28381-12830-35046-35120
3698.83-23991-19816-68816-39473-32595-32445
3704.62-51096-43157-42254-60536-114493-81325
3710.40-117439-156939-82631-26518-29288-23929
3716.19-46338-49732-62431-38571-36133-58695
3721.97-87924-60316-60822-60904-91354-45090
3727.76-31191-26670-62628-137168-144067-55246
3733.54-99226-117431-146531-106419-64924-31218
3739.33-46748-42778-57242-119767-338854-306898
3745.11-94803-41806-93654-216255-197700-98388
3750.90-251413-217039-78165-36172-48848-48244
3756.69-26708-21116-65679-39065-25843-18694
3762.47-21215-24068-68387-42529-28143-23462
3768.26-65043-67308-34658-1579-3465-3954
3774.04-12229-10218-26319-15664-33968-31138
3779.83-7353 29275 8749-14316-30335-9000
3785.61-24083-33336-39342 1736 18056 19097
3791.40-1156 4230-20237-52151-82459-49390
3797.18-37377-21314-69212-205953-181031-50706
3802.97-63325-60067-63898-96531-85004-35975
3808.75-36825-539-2009-1050-39730-69999
3814.54-212896-215966-82153-28044-53309-120595
3820.33-164558-104076-58543-39212-38628-37048
3826.11-52815-41874-44237-27876-72996-99323
3831.90-60123-45015-91616-69274-127904-261220
3837.68-194050-85476-107265-90066-93700-107064
3843.47-85580-47210-55530-48628-58857-52170
3849.25-83466-175218-262879-267252-422031-276050
3855.04-95565-62060-69452-66074-86833-87520
3860.82-107577-86181-96866-134114-137219-69924
3866.61-74672-106643-208587-196162-105694-61821
3872.39-95132-109206-97693-77059-85435-80728
3878.18-109229-142912-133817-82918-86383-85554
3883.97-164317-207081-129193-77779-86162-84047
3889.75-133996-129227-94336-86526-98829-83441
3895.54-86253-83866-112181-137253-117226-130865
3901.32-150133-129007-165815-121944-93655-75456
3907.11-77914-66812-76216-70905-69336-65636
3912.89-80401-78851-102859-117250-109810-61015
3918.68-70983-66496-68625-69927-81818-74331
3924.46-90639-65983-58180-44371-65511-63220
3930.25-77432-88632-98489-84006-72933-37993
3936.03-40100-32105-44366-51571-54704-65460
3941.82-90395-54463-27021-13676-50235-55672
3947.61-49055-57719-79241-60951-57238-40395
3953.39-45995-48497-53744-33638-47212-41412
3959.18-55633-61966-72539-49047-46167-53439
3964.96-71436-51578-44417-42217-51248-31528
3970.75-42016-36868-36212-40978
##END=
