##TITLE=Sulfur Hexafluoride
##JCAMP-DX=4.24
##DATA TYPE=INFRARED SPECTRUM
##CLASS=IUPAC A
##ORIGIN=NIST, Analytical Chemistry Division, 301-975-3108
##OWNER=COPYRIGHT (C) 2000 by the U.S. Secretary of Commerce
##DATE=00/02/01
##$SPECTRA VERSION=1.10
##$UNCERTAINTY IN Y=2.0 % relative (B=1.0E-04,C=2.6E-08,D=5.6E-11)
##CAS NAME=Sulfur hexafluoride
##CAS REGISTRY NO=2551-62-4
##MOLFORM=S F6
##MP=-50.5 C
##BP=-63.9 C (sublimes)
##$NIST SOURCE=QUANT-IR
##SPECTROMETER/DATA SYSTEM=IFS66V (Bruker)
##INSTRUMENT PARAMETERS=KBr Beam Splitter; MCT Detector; Multipass cell
##STATE=gas
##SAMPLE DESCRIPTION=Sulfur Hexafluoride Primary Gas Standard
##PRESSURE=101.3 Pa
##TEMPERATURE=23 C
##SAMPLING PROCEDURE=1 L/min Flow
##RESOLUTION=0.9640
##DATA PROCESSING=Happ Genzel Apodization
##XUNITS=cm-1
##YUNITS=(micromol/mol)-1m-1 (base 10)
##XFACTOR=1.0
##YFACTOR=2.9103E-11
##DELTAX=0.4820
##FIRSTX=575.17
##LASTX=3974.604
##FIRSTY=-5.10E-07
##MAXX=3974.12
##MINX=575.17
##MAXY=.029936
##MINY=-.0000181
##NPOINTS=7052
##XYDATA=(X++(Y..Y))
575.17-17530-179732-38961 34838 289647 294656
577.58 242544-41485-24384 40766 469821 476622
580.47 475413 359445 320748 182116 360289 104450
583.37 18167-57177 74775 94566 332018 206960
586.26 392283 368683 446579 443540 686740 620972
589.15 750812 714388 1104488 1183674 1329816 1304674
592.04 1776870 1845220 2230619 2537360 3064364 3334845
594.94 3942691 4160569 4774682 5109495 5899527 6284866
597.83 7054236 7503584 8158377 8436602 9160149 9499564
600.72 10273772 10555357 11185369 11259777 11750761 11774870
603.62 12061964 11839869 12053301 11463770 11437996 10670284
606.51 10464747 9477358 9209385 8187202 7859526 6625669
609.40 6398015 5312147 5545725 5625149 9823853 10386748
612.29 10778499 16038142 24394717 57204775 125893436 88964537
615.19 13170092 1832048 2029254 3259895 3102078 4724126
618.08 5075532 6635900 7144858 8818364 9446450 10862165
620.97 11447081 12750782 13223696 14239592 14603523 15384551
623.86 15427708 15836527 15709326 15918055 15557237 15510753
626.76 14943930 14641371 13870564 13361199 12558240 12060999
629.65 11146570 10593154 9671801 8947010 7996151 7365040
632.54 6550106 6049240 5275985 4837623 4195768 3784170
635.44 3190546 2897946 2445381 2086977 1611583 1438540
638.33 1147938 1098385 819576 743149 606137 544605
641.22 353301 334728 198550 221309 146906 186219
644.11 53964 86328 4256 17334-5118 65354
647.01-33096-1533-52907 30077-22547-10661
649.90-77684-1074-41465-8223-29729-1275
652.79-78911 25884 67427 96905-5991 74049
655.68 24682 30493-21247 10568-626 60755
658.58-21007-18389-57766-23247-23978 56944
661.47 13281 44942 8331 59851 83783 128138
664.36 5387-30962-76379 54640 46633-183450
667.26-444750-275713-89240-22547-133485-69953
670.15-27790 58676 13454 26044 42110 61413
673.04 7370 8105 10475 47400 33600 20388
675.93-41707-21426-12084 58587 36722 11931
678.83-19631 33905 17729-27178-29632 13324
681.72-14300 879-3013-32234-31386 52445
684.61 48682 14459-74609-9443 72174 71473
687.50 57294 34699-21133-4697-45583-84085
690.40-90472-16909 32387 40001 55179 56821
693.29 28246 69431 38211 8293 32864 42324
696.18 30894 55129 102942 82019 18951 44909
699.08-1849 26566 55488 8810-15509-18926
701.97-30272 18760 41783 56311 81807 49748
704.86 50391 63908 30251-9619-56151-11970
707.75 36226 47910 57671 51115-14122-13140
710.65 27944 75127 48424 22040 72 25180
713.54 1854-3348 9042 24532 39740 28588
716.43 29108 8152 28683 79673 83092 33763
719.32 21248 19882 19900 31506 3239-27609
722.22-50458-46281 13019 44455 76207 85343
725.11 73399-16788-21714 46160 60111 1487
728.00 39090 56206 35123 34927 13559-7463
730.90 17910-7339 8953 3043 19712-13809
733.79-5014 42442 43485 468-4107-16110
736.68 23241 53301 50425 17874 15850 59885
739.57 57317-19998-50100-52764 254-7370
742.47-5769-17300-10233-38467-25262-26881
745.36-17090 41720 55679-22665-22539 5169
748.25 42775 57991 41379 17375 36632 16271
751.14-10275-54411-56487-24781 11305 6714
754.04 8043-8767 14570-18050-11020-16642
756.93-3847-20816-13645-41914-48705-43721
759.82 13718 4902 14237-23484-22410-33802
762.72-34438-2351 29794-2410-1151-10803
765.61 23207-29514-32759-48945-43125-15926
768.50 7896-51811-56129-60816-49602-98633
771.39-67375-40547-26122-59894-32860-10539
774.29 25086-7960-21127-21156 11900-29511
777.18 16069-24312-59639-63369-7393-22761
780.07-14055-30612-18149-70541-61435-62398
782.96 1184-38359-50890-40028 6988-47992
785.86-33275-27759 23978-29122-32588-36450
788.75 2381-42123-36642-74132-49796-34534
791.64 18218-7701 13562-35983-10133-19970
794.53 3763-31198 18603-6278 9439-80666
797.43-81043-108385-59632-58502 3614-23501
800.32-21932-43654-3824-36908-21332-29294
803.21 7338-31128-32329-43239 21282-17034
806.11-2856-17648 13833-26518-6262-28536
809.00 15862-19033-3577-19575 644-30664
811.89 14097 5832 46527-1220 39654 9952
814.78 40513-41993-20262-28027-1687-72710
817.68-38140-16898 94192 72917 60668-1048
820.57 35254-23314-3210 1124 75782 866
823.46 9277-20641 8554-14625 41240-1552
826.35 3493-43075 15624-76776-7623 32527
829.25 72867 16946 67756-387 20290 6580
832.14 41917-58323-33458-65764-3281-4956
835.03 53002-11689 36842 25296 69205 32551
837.93 79710 7410 46562 2553 67421-8241
840.82-13327-53559 18393 4159 71216-4649
843.71 56041 62661 120783 87416 195304 163192
846.60 192110 107319 138678 103364 193399 147692
849.50 219633 175639 235010 228369 316204 287499
852.39 340268 259471 288218 264354 362057 303065
855.28 350643 292867 363854 307037 364667 305033
858.17 365348 336289 400516 326474 399013 303988
861.07 355688 286823 329307 268892 340671 266961
863.96 360565 374448 514747 494813 672032 810265
866.85 1157678 1424562 1734363 1791417 2190623 2653092
869.75 2377110 966153 328279 156396 208116 144148
872.64 245334 198925 320691 274266 402114 358262
875.53 495939 491528 598508 564845 702492 651638
878.42 773616 710875 854114 790838 881348 836755
881.32 963221 871958 928889 842319 941940 846473
884.21 950031 841519 902850 782138 851621 742065
887.10 797994 650776 708837 574174 624156 476868
889.99 547449 409088 495290 354710 424243 290680
892.89 378039 241096 300711 131824 212922 85972
895.78 200861 63461 159700 34362 156113 14465
898.67 134333 12370 136921-5747 115622 8542
901.57 129820-57072 83522-51601 84125-40822
904.46 144702 14001 150998 5081 173446 5025
907.35 187238 51235 218730 59540 236954 84917
910.24 280141 133268 314612 142300 363919 206530
913.14 419972 273477 564149 411728 639291 511251
916.03 855417 811104 1221097 1214954 1705640 1851128
918.92 2569289 2902905 3861029 4459883 5778063 6788046
921.81 8518625 9916014 12146321 13917510 16425392 18512124
924.71 21316486 23300750 25690466 27619297 30513739 31628160
927.60 33702251 36339375 36711194 34251061 43275145 48215050
930.49 34944838 28085960 30327057 31616599 32475221 31251175
933.39 30025495 28035150 28413913 29972606 34791467 40627995
936.28 50209107 60606519 75560170 93231760 116587359 139735795
939.17 169437841 206689995 251435159 296156448 349249156 406831052
942.06 466900001 518937748 578763129 632300617 680718737 713213219
944.96 767347026 775058737 779347551 827743294 928844098 1028608331
947.85 719831611 513386963 524506784 532857164 488573347 399798119
950.74 273589116 149505437 64881897 26792290 12215931 8730180
953.63 6389109 5958202 4438033 4314313 3163917 3257549
956.53 2311875 2490276 1759018 2047309 1419213 1686914
959.42 1150004 1474317 972399 1313258 887486 1188576
962.31 782991 1098008 718642 1021287 669458 976461
965.21 684984 974656 668411 970083 705859 978250
968.10 700191 989005 751999 1032865 804451 1084310
970.99 889073 1167371 971134 1256784 1095850 1365646
973.88 1209772 1504913 1381647 1701966 1612497 1924500
976.78 1864246 2225747 2201700 2568825 2601469 3023497
979.67 3110927 3592467 3691353 4127467 4222305 4642441
982.56 4709879 5059333 4990036 5178480 4951345 4956186
985.45 4549020 4473925 4113646 3883835 3305639 3227987
988.35 2958617 3408138 3568969 3485792 4039331 5147803
991.24 4227763 3610017 3546439 3739600 3619644 3688191
994.13 3390770 3279777 2861572 2632047 2141374 1913117
997.03 1499737 1379765 1056310 1028016 798692 808705
999.92 595762 641880 479267 535062 359672 435338
1002.81 280117 353171 209171 282217 135777 223432
1005.70 94258 197000 78324 163030 55106 129138
1008.60 5760 100948-14066 77684 3850 91889
1011.49-24188 74888-22976 80647-30627 58797
1014.38-4645 103487-10025 61441-26072 64077
1017.27-38709 54023-25098 68162-23286 65267
1020.17-4833 89453-10776 56543-7617 81373
1023.06-8368 85245-10776 68763-13251 54116
1025.95-36831 64301-14518 56203 770 96007
1028.85 11525 73693 247 79761-7003 70775
1031.74-9034 62493 6135 72377-27301 44999
1034.63-15211 60690-14053 49013-16391 52403
1037.52-23007 61502-8612 69313-3872 33871
1040.42-48418 37209-19000 57886-19200 44378
1043.31-12859 44529-41348 38179-26525 37358
1046.20-28831 43855-29010 16102-47368 25228
1049.09-45471 15141-48074 46650 5737 55042
1051.99-13104 45809-26337 31766-28982 53727
1054.88 3373 38470-15296 42941-24521 38593
1057.77-42536 6938-45434 7972-58985 19495
1060.67-19261 45907-18020 27690-27046 27213
1063.56-34556 25221-32956 25298-39486 20948
1066.45-34759 28399-33089-186-79638-46191
1069.34-75771 18894-19828 40685 7504 52683
1072.24-26124 2781-45974 20965-33827 5195
1075.13-37570 28378-40192 4799-53026-5823
1078.02-37651 37314-243 41156-28988 11042
1080.91-23702 36022-14809 40187-12143 28044
1083.81-10029 38383-13612 20290-30082 37419
1086.70-5347 27077-47031-224-53944-10480
1089.59-59573-28405-68093 12105 805 42419
1092.49-9715 15812-53742-2317-56964-1963
1095.38-32615 14728-28557 4182-26025 18716
1098.27-52503-504-21795 30451-19815 3126
1101.16-57834-2708-49186-19321-60140-13823
1104.06-44939 9893-62222-31667-61046 114
1106.95-46773-8787-32256 14101-31501-2933
1109.84-38290 9691-40278 6671-33594 10380
1112.73-27176 3413-24246 32710-20381 8833
1115.63-29091 3157-31805 22875-14716 33780
1118.52-10768 14261-37879 2906-26241 19376
1121.41-8205 34859-22316-3323-24500 26264
1124.31-36191 15958-1653 19517-30233 22637
1127.20-7716 21935-7254 43365 10620 49383
1130.09 11841 40760 10363 53918 3551 47327
1132.98 26289 56337 33316 85389 30441 57823
1135.88 29962 66485 30129 59003 13951 29992
1138.77-16077 38228 20709 51472 467 23161
1141.66-24757 12772-16437 20029-20955 17716
1144.55-17999 1531-19635 31573-7298 24819
1147.45-17064 5922-29521 1192-35970 2052
1150.34-35138-2706-43111-15043-43951-7438
1153.23-42981-7439-35534-13623-53344-12823
1156.13-39989-1500-10304 30889-34937-3014
1159.02-10166 18726-27522-2312-48403-20001
1161.91-39235 1436-46268-25754-44223-744
1164.80-26316-1994-38170-16071-48190-3397
1167.70-36556-3603-39199-15244-41052 3541
1170.59-28591-2556-19856 849-32061 13311
1173.48-17141 8316-39075-8029-31059 8794
1176.37-19600 4947-17709 1770-42272-10831
1179.27-25291-595-25183-1306-29113 18022
1182.16-9240 19546-16820 17729-27873-9355
1185.05-23827 16570-23700-5570-28899 4262
1187.95-3416 42163-7880 9285-20119 15768
1190.84 89 25993-4578 18204-11056 7237
1193.73-16834 14863-10994 13773-15506 16226
1196.62-3608 17857-32846-9496-32512 16177
1199.52-460 27045-1153 1412-42382-4934
1202.41-28478 8967-1910 18193-25315 4251
1205.30 845 31110 3236 28395-14519 3389
1208.19-3309 31512 4620 26007-7719 15992
1211.09-11598 15654 5727 39498-5476 9867
1213.98-3487 35352 3389 31293 23596 44172
1216.87 2914 31567 4225 21465-12524 15836
1219.77-10711 13225-12065 18384 2647 35861
1222.66 20487 38444 12055 41943 8787 22521
1225.55-3219 20980 1395 21076-32189-23382
1228.44-36797 8807 12816 50705 16072 45095
1231.34 10138 17653 1988 28459-5423 36726
1234.23 26683 36881 8808 35998 23375 55143
1237.12 28921 74106 54286 70407 60814 101320
1240.01 92696 121308 98582 143818 156285 192875
1242.91 166395 202697 184606 208840 215056 256463
1245.80 252954 306948 291113 304849 285446 319533
1248.69 292730 316209 311126 359250 346006 381916
1251.59 402793 458978 461389 511656 511823 565549
1254.48 577591 579045 511291 531716 575921 482252
1257.37 309271 330159 322099 339327 315723 334765
1260.26 306383 346114 319671 335995 316611 359479
1263.16 345714 360847 333732 341652 289825 284629
1266.05 240201 244964 199887 190555 151069 154982
1268.94 123680 115445 62932 89660 66138 45797
1271.83 3842 47675 30958 32003-9526 13453
1274.73 21062 42795 15252 50748 30848 38396
1277.62 13693 55631 49738 69269 45874 73658
1280.51 56248 55664 33445 94130 157729 130798
1283.41 28959 59453 51505 76993 43752 51836
1286.30 24825 31937-1126-4723-36960-694
1289.19-37407-26834-36221-2814-15421 3807
1292.08-14384 10482-18089-9112-33124-11487
1294.98-26556-3669-30768-4216-19098 1593
1297.87-15254 2404-28007 5307 760 11562
1300.76-24055-3925-14415 109-11202 8811
1303.65-19342-6614-26497-5573-15054 5430
1306.55-9166 14165-8835 20363 2156 27974
1309.44 5552 13356-12062-1795-16475 2969
1312.33-12083 6868-14552 6277-9040 12131
1315.23-17368-15993-35624-7419-17891 5012
1318.12-30631-20165-25318 9018-16852-12512
1321.01-29202 14282 3225 13650 2564 25840
1323.90-493 19401 9041 10197-14068 14862
1326.80-9311 10112-9669 4654-10447-1285
1329.69-19604 4430 814 34743 16354 32436
1332.58-3868 11791-4008 9924-6431 25730
1335.47 13753 20311-4365 25013 18265 17707
1338.37-16951-6744-20057-201-20635-7538
1341.26-53609-42956-50628-45039-79734-49413
1344.15-41361-18539-41422-35459-60402-31082
1347.05-51604-59235-56482-66621-116186-82156
1349.94-91556-57179-55699-19193 13924 101239
1352.83 153905 264220 329485 401243 398957 390178
1355.72 336750 291885 199300 154255 59691 23490
1358.62-36754-72674-137612-136821-163643-118373
1361.51-111626-99863-116527-68404-67490-34901
1364.40-20534 13709 7991 36021 29091 39694
1367.29 8163 12263-4268 34713 18720 37156
1370.19 44267 77330 62332 84021 64808 87088
1373.08 49466 70090 70325 81223 63658 68459
1375.97 41001 43816 23783 55439 63328 71257
1378.87 38743 48567 37444 40900 35066 75800
1381.76 49196 53569 66645 104286 90976 127586
1384.65 110679 127963 154304 227106 190421 198109
1387.54 254938 163928 18485 6574-14698-9956
1390.44-17586 26355 13274 29013 16630 21775
1393.33-29383-65521-50346 18113 6735 40769
1396.22 31054 48044 12765 17290-1461-28521
1399.11-14927 45428 34405 43541 18882 39976
1402.01 19680 22013-4143 1022-33713-36147
1404.90-31237 19317-5510-6580-15213 16147
1407.79 8934 12114-14020 6621-1893-7304
1410.69-34967-7733-13848 753-20008-4517
1413.58-13824 868-12490-10183-48930-17834
1416.47-49504-65459-50445-39581-156382-285758
1419.36-202039-31070-21611-13671-39904-23631
1422.26-27194-12900-62555-53375-38506-13854
1425.15-31796-4465-14054 4573-14407-16828
1428.04-39052-14617-56548-67743-54902-12060
1430.93-15432-6401-37033-24575-33161 417
1433.83-6026-3111-23628-15410-140563-255607
1436.72-160349-20560-13824 7171-472 8093
1439.61-11829 10707-10081-7789-10608 10488
1442.51-8071 4384-9914 1723-23721-4511
1445.40-11849 7159-12736-28223-88034-52804
1448.29-13468 18414-1581 10413-3099 1664
1451.18-21989 1526 3032 19651-7356-8273
1454.08-16178-14082-37434-71449-314634-370701
1456.97-141459-59554-93834-45653-45569-679
1459.86 1602-8013-35191-10243-3407 15466
1462.75-3099 4868-34773-113809-122931-21523
1465.65-857 19695-3702 6358-8992 18824
1468.54 16722 9998-19949-8078-31674-84608
1471.43-209883-145976-86970-169478-136338-2854
1474.33-8857-8146-59220-84251-46689 17199
1477.22 6100 17167 708 14245-1017 15054
1480.11 11242 14467-5944 16382 5682 18569
1483.00 3473 4413-20175 2676-5776-4592
1485.90-21527-30815-82624-27241-9183-13427
1488.79-66713-90343-87485-81719-61726 2831
1491.68-8691 12809 209 13309 783 5496
1494.57-15853-58693-242656-212231-57089-3511
1497.47-23572-82872-120891-23007-2539 5187
1500.36-3359 1654-18698-1519-16069-481
1503.25-7292 3188-28212-182838-334193-185433
1506.15-278000-373463-179251-49473-65730-23917
1509.04-37804-30163-20622 345-3982-42802
1511.93-85583-23141-20484-3144-14246-19849
1514.82-27111-1830-45493-80747-123330-83063
1517.72-30837-18013-33754-46056-106757-139586
1520.61-320936-256202-91758-118607-100256-24848
1523.50-16221-14689-77591-138542-93107-13457
1526.39-28676-38506-32206-42427-51301-7054
1529.29-9398 3691-19092-28568-35288-15022
1532.18-49001-94689-147714-119941-40419-1493
1535.07-9993-9614-23294-10575-7808-29140
1537.97-172462-404900-321359-235599-307694-111554
1540.86-57197-205491-236580-64289-42562-31297
1543.75-29199-44745-99194-25022 18548 49995
1546.64 35863 42645 40960 64683 43695 40202
1549.54 17685 47289 69137 102153 99140 108869
1552.43 107333 124429 22317-70262 46336 157254
1555.32 165867 185027 177337 88479 9415-101821
1558.21-111491 131695 64914-65021 107742 355202
1561.11 408685 469599 487680 497715 475648 517161
1564.00 519656 559434 617670 683126 682572 707910
1566.89 734148 784873 793679 793431 723024 706408
1569.79 860820 990985 982688 999734 1006825 1056776
1572.68 1071987 1123478 1131807 1155245 1144393 1044001
1575.57 793258 952767 1233901 1313013 1320681 1342193
1578.46 1349326 1356095 1360762 1396050 1393023 1399483
1581.36 1413453 1439225 1451264 1517670 1510618 1460344
1584.25 1529682 1513041 1394833 1344393 1389777 1521147
1587.14 2312916 2212939 1213361 995060 1040109 1152714
1590.03 1121338 1116154 1140994 1232073 1251508 1244514
1592.93 1171580 1149670 1121523 1147751 1128103 1122915
1595.82 1071876 1053734 997659 968703 903174 864087
1598.71 790595 753320 695140 669869 614253 587488
1601.61 544334 526734 454233 438626 413887 413412
1604.50 374054 368653 329515 326417 289952 279085
1607.39 254791 255029 212043 193192 166437 191876
1610.28 177148 170217 144839 148188 110990 94721
1613.18 71598 100186 82250 67394 30926-51525
1616.07-323046-256665-26961 45265 26798 39917
1618.96 43448 50108 35395 47471 43100 48145
1621.85 20102 6809-91350-95400-10190 39470
1624.75 31564 30433 31272 42104 13315-20728
1627.64-18879 31228 29803 51405 53668 69192
1630.53 50623 63103 53645 60492 65933 73891
1633.43 51994 18734-94447-244033-238938-9294
1636.32 42180 17481 2424 43726 40037 58318
1639.21 37469 37570 23886 41425 43019 58675
1642.10 30586 28475 14224 29664-5804-15379
1645.00-130471-243771-137258-39317-84087-60335
1647.89-53283-6906-11622 19826 3742 6830
1650.78-29762-129112-424185-506989-545716-337646
1653.67-157663-151151-65222-10753-9902-1607
1656.57-12204-11063-12361 8095 9039 16677
1659.46 9400 5029-12573-11568-29706-84720
1662.35-155594-76878-21164-6268-20725-25187
1665.25-41531-21499-10691 4258-6674-24056
1668.14-73470-169607-178977-57318-43641-63685
1671.03-100225-54462-36339-15692-21805-26760
1673.92-65421-178994-254811-110296-34038-22553
1676.82-34006-20108-20115-16513-48200-57481
1679.71-71315-39825-27545-18167-45504-82633
1682.60-160211-161791-218638-463334-506829-142902
1685.49-39134-27223-31225-15014-46859-38633
1688.39-39298-14674-41240-23725-23744-2902
1691.28-16407-6322-19952-489-83 16983
1694.17-11742-99905-427229-431814-101449 16714
1697.07 19135 63801 59700 30080-135249-310461
1699.96-317580-178547 23949 135495 98103 73079
1702.85 80147 81638 37454 84713 145399 139865
1705.74 95119 165747 234620 304849 367881 426958
1708.64 477336 548006 611272 723936 828276 956578
1711.53 1062845 1202162 1350189 1457015 1491936 1633535
1714.42 1660778 1757511 2052116 2106046 1794108 1740530
1717.31 2043675 1967729 2166444 2592708 1833981 1149550
1720.21 1173915 1342643 1516641 1288660 566366 88856
1723.10-12947-7157-19062-6283-18217-13103
1725.99-20009-21105-32944-29277-44349-36849
1728.89-58182-80453-82074-43424-47688-41940
1731.78-62342-105106-273864-253053-263200-323079
1734.67-155231-47238-40642-31458-35054-33141
1737.56-39382-48960-66981-134473-191799-89327
1740.46-29549-22635-35595-42907-79205-70220
1743.35-45316-31879-47692-24829-26287-14568
1746.24-29365-34582-30957-48440-85232-54169
1749.13-35755-22984-68995-182639-198067-45286
1752.03-5091-8800-23498-8784-7638-3515
1754.92-16598-13913-66113-91906-47533-7948
1757.81-10414-493-8676 3853 8192 21797
1760.71-35928-126454-98197 5005 11568 11110
1763.60-9783-7205-10461 1197-11748-6476
1766.49-16693-29551-116654-109551-41808-2371
1769.38-1660-12355-67199-101799-71126-147644
1772.28-257448-110116-28373-9561-9882-20951
1775.17-47351-28650-31867-19627-24241-16508
1778.06-21337-6143-12310-16754-43867-29630
1780.95-13399 763-1706 5624-6387-5553
1783.85-35567-65029-47686-2773-636 5162
1786.74-4057 4700 8267 19579 7199 14261
1789.63-1276-30551-53681-11119-54433-165305
1792.53-135140-16274-7231-3988-9167-3849
1795.42-29743-12162-609 10956-1457 7341
1798.31-9388-37645-54033-9244-9081-15136
1801.20-21023-20894-27681 3438-6467-4536
1804.10-10491 6719 6460 12137-3101-2509
1806.99-22103-22510-14254 13087-3026-4129
1809.88-27393-16341 1648 9078-20188-15119
1812.77-6957 7619 2788 880-17174 850
1815.67 520 6845-2604 10992 15091 17605
1818.56 1398-4009-22471-5385-4040 5348
1821.45-2248 1175-4043 13237 3293 3222
1824.35-44289-59664-24002 1125 1329 3902
1827.24-17343-13425-18891-24119-58842-83471
1830.13-47714-6563-5731 7768-11646-15472
1833.02-12694 6109-10092-4081-2074 114
1835.92-15964-13340-19225-3735-7719 5801
1838.81-2152 386-18158-19755-27195-17315
1841.70-18734-9714-29547-81972-193700-133012
1844.59-46419-22029-28413-29393-37421-35617
1847.49-43572-24122-36015-39136-48440-37546
1850.38-41736-27910-33715-32755-43973-44169
1853.27-51673-39254-40576-32618-47276-44657
1856.17-60068-59163-62559-62353-71950-63186
1859.06-83551-85413-71598-33192-33028-35678
1861.95-37786-29663-42891-38510-50086-48557
1864.84-61373-57847-59185-44180-62577-78197
1867.74-72010-61766-129292-120385-76104-52879
1870.63-55339-62601-64305-63698-92463-103391
1873.52-110850-102715-117631-119491-126733-130619
1876.41-149520-147390-147856-148735-176819-174624
1879.31-190657-197186-190891-168281-185000-220302
1882.20-255856-237953-233110-240689-264078-267046
1885.09-274237-263413-278285-279076-289272-290699
1887.99-307306-317887-349271-323545-306810-302614
1890.88-299587-292807-298148-305582-311965-292440
1893.77-302331-313426-338203-310617-310334-284570
1896.66-269106-258921-285679-320536-366823-377060
1899.56-347936-269963-204607-158855-163313-169299
1902.45-173995-138274-95145-38006-25615-39678
1905.34-75048-87782-98333-82254-79318-67326
1908.23-68473-64065-76008-63766-64145-53935
1911.13-44907-30293-47040-42680-45944-42389
1914.02-51963-38105-33086-24902-38234-30421
1916.91-53997-99931-93692-42981-41176-33061
1919.81-38752-31238-33319-30712-46733-45011
1922.70-44129-15827-17507-16224-23089-8316
1925.59-30196-43351-53560-40063-43024-36343
1928.48-43373-38074-43518-34305-41107-28009
1931.38-37942-34249-36621-34744-40627-17526
1934.27-37478-48161-45176-24793-33271-33574
1937.16-38359-25298-24674-10661-22653-28321
1940.05-43809-38235-38768-39058-66597-51827
1942.95-31716-17813-21214-28271-47384-38563
1945.84-39597-39760-40631-25520-21546-7526
1948.73-15894-22873-27363-8376-10191-6506
1951.62-10295 2923-6900-15692-24946-18161
1954.52-21609-10324-10458-1939-19185-21563
1957.41-25643-22423-26565-11437-21585-18102
1960.30-23436-24220-26809-13698-26128-28528
1963.20-36784-25626-30951-21035-17588-17617
1966.09-20581-20989-40748-36646-33147-13693
1968.98-17154-13774-25414-28305-36199-30030
1971.87-32877-25151-13768 4392-4176-7415
1974.77-23624-12387 1710 2909-24003-21839
1977.66-16159-4068-13873-15301-12811-15048
1980.55-28230-18580-21512-8329-6284 5200
1983.44-218-2354-16573-13064-12151-15836
1986.34-21993-17733-28055-21011-23707-13252
1989.23-19171-8377-7089-5862-26793-36858
1992.12-34292-4508 3097 472-18626-14525
1995.02-8277 934-4764-6639-16242-11753
1997.91-20355-2636 199 6207-1561-3757
2000.80-7995 2346-3903 3660 3234 8653
2003.69 790-1195-9238-2750-14097-18249
2006.59-33972-35523-26977-12695-14475-1087
2009.48-3467 546-6181 712-9046-8783
2012.37-12311-13445-13207 1509-9792-9387
2015.26-11256-8776-20338-13619-11696-10357
2018.16-14952-11498-24478-27939-37193-17171
2021.05-9620-10893-14024 1385-8037-4290
2023.94-16569-10151-13610-8960-18704-7733
2026.84 1243 14019-7059-14926-22315-24302
2029.73-15466-6726-13873-11139-9467 279
2032.62-21260-19914-16724-8437-23822-24030
2035.51-27247-20100-28057-17286-12631-10960
2038.41-24210-26546-24926-10971-28151-34886
2041.30-26929-24550-39988-35034-34945-18886
2044.19-15782-12587-22413-18395-17203-1058
2047.08-12735-24614-36558-23150-26285-16630
2049.98-10852-7458-32221-28265-23866-19793
2052.87-26888-20573-24149-30897-41992-30969
2055.76-33693-36325-46425-33596-40703-36461
2058.66-33010-18929-15870-8799-19572-24616
2061.55-25949-18950-28979-32251-31524-20699
2064.44-24365-16459-32525-33255-38149-24733
2067.33-17025-9830-17117-22344-35687-28668
2070.23-30337-25849-30490-30764-35477-19044
2073.12-24816-36487-40514-22878-30529-32699
2076.01-37523-31443-14874-18731-50822-47509
2078.90-47392-35648-39455-27806-23825-1183
2081.80-6178-17166-33968-43695-44177-24446
2084.69-34605-23404 4871 2534-27558-28925
2087.58-38766-34321-36928-22517-16596 5236
2090.48-16023-31622-30236-23951-30639-19697
2093.37-13884 4698 22155 1506-18263-13278
2096.26-22111-17398-27539-27165-2618 32851
2099.15-11739-31498-31701-26840-26018-13633
2102.05-17420 31559 40631 3676-24171-27512
2104.94-26075-19515-24075 5654 49934 17647
2107.83-30781-24198-26577-22297-13591 7990
2110.72 44393 58423-8682-33161-34759-24874
2113.62-27650-14919 27220 83392 30337-20374
2116.51-28816-23878-31182-13624-1892 53060
2119.40 59939 10511-19996-25370-23509-16589
2122.30-3879 46775 76655 31456-12594-15205
2125.19-25474-23729-24716 6248 53243 48754
2128.08-2966-19680-18489-4741-14119 3070
2130.97 36761 34615 736-13173-25976-11067
2133.87 1598 780 3218 6093-12077-8129
2136.76-6554-9051-35857-23607-11678-1532
2139.65-3679-8775-15998-6001-17198-13403
2142.54-15845-8963-13252-8736-9820-10396
2145.44-16815-1349 18249 30816 6936 2118
2148.33-6551-11514-19323-4784 21599 16826
2151.22-13494-10330-6928 10825 1463 20686
2154.12 43372 16789-11166-2114-2208 2031
2157.01 3732 55739 72230 33568-1019-14214
2159.90-10653-8313-1468 68826 49192-3569
2162.79-8253 6846 720-4106 44767 80583
2165.69 14202-11652-11950-4371-15748 25188
2168.58 97561 70626 3349-12391-22712-15166
2171.47-13672 51460 81902 30629 2442-2788
2174.36-11060-3246 50313 105540 49167 5952
2177.26-6534-8913-10286 26454 71515 43445
2180.15-9651-9622-17962-16884-2646 57783
2183.04 49002-2599-5341 25987 36148 45716
2185.94 70024 49901-12077-21351-34852-35304
2188.83-23132 30647 34752 4481 276 17366
2191.72 15886 24477 50666 35274-7057-10827
2194.61-21413-18942-10892 28683 12034-6336
2197.51-4883 1973-11798 11430 39382 29930
2200.40 3045-1615-6952 9428 29589 33619
2203.29 8647-4687-15677-19290-20511 14544
2206.18 16018 1280-7533-418-7532-2680
2209.08 13359 20694 6820 8108 6440 10141
2211.97 4687-508 1806 12444 9102 14631
2214.86 16921 16543 10636 7539-5089 4020
2217.76 9580 16136 16510 21611 9878 9222
2220.65 25545 35957 20995 25704 15918 14590
2223.54 9432 12467 19359 24085 20370 29197
2226.43 23282 19699 18679 33792 34676 30946
2229.33 13275 16726 6761-7414-21440-13094
2232.22-7868-4416-161 7216-3089-8948
2235.11-17629-13599-19743-24163-36860-30752
2238.00-15967-1249-11154-17764-36595-40826
2240.90-34664-13848-7249-5256-9067 517
2243.79-5993-15796-20731-6798-12141-23207
2246.68-29437-19877-14073-19494-32506-19723
2249.58-5692 522-24484-28443-25238-20688
2252.47-19104-6337-4897-3630-8262-8321
2255.36-19843-19834-25850-25295-22535-19011
2258.25-22311-21460-18224-14364-20578-12897
2261.15-13204-7917-16683-26053-20949-7951
2264.04-15704-21125-26096-22699-24987-24682
2266.93-34276-30026-23268-19127-25815-24609
2269.82-27366-26746-23621-18954-17864-3761
2272.72-7127-9134-18723-22369-26465-23466
2275.61-31901-31187-21119-16760-35786-39512
2278.50-34741-20274-20132-19495-15512-8102
2281.40-22179-29749-30709-22843-20371-23111
2284.29-32854-30340-24839-19960-28596-41303
2287.18-51175-51266-47958-26282-21930-16985
2290.07-16999-15646-24913-19394-14440-22923
2292.97-28860-18911-24362-27221-25349-22993
2295.86-39432-47196-49421-43212-49428-45027
2298.75-31953-28831-43346-43838-55464-59104
2301.64-63572-56181-21039-8751-29339-51043
2304.54-46309-28401-28059-49014-72857-63232
2307.43-53761-52733-71832-70808-51254-49140
2310.32-84075-88119-44847-38434-87457-116782
2313.22-65793-41845-78207-144685-117858-69177
2316.11-77910-155268-129769-61547-84623-184723
2319.00-159421-68321-84271-194409-185656-80056
2321.89-104302-245628-225986-85706-102558-250536
2324.79-232748-85698-141169-312265-255128-99376
2327.68-202706-366881-251134-80482-229713-371298
2330.57-206314-99736-314670-385897-155601-108600
2333.46-349791-337026-125584-225023-434586-264485
2336.36-119130-324006-395910-154304-165465-369277
2339.25-278122-112631-274015-356840-157167-145121
2342.14-310956-217536-105481-221246-260007-131835
2345.04-154085-211724-140846-87089-124408-100662
2347.93-60733-50773-72430-91645-73719-83742
2350.82-155115-117336-78633-190008-195048-130142
2353.71-263112-260070-164373-315528-308986-168641
2356.61-355487-341586-192284-390731-361823-226744
2359.50-432658-331138-252834-442034-299931-311904
2362.39-441365-258345-368724-371213-236998-381271
2365.28-279618-250754-350859-216163-314989-274094
2368.18-208169-276646-195143-254053-221275-178899
2371.07-209235-151003-197120-153878-154449-128729
2373.96-117621-113855-94794-109443-84621-77066
2376.86-70269-74247-60480-52261-54073-51969
2379.75-51240-47756-41210-37253-45251-35857
2382.64-37162-40951-37925-28165-28215-31929
2385.53-29180-27860-33681-41098-40989-18238
2388.43-24109-34212-39288-40958-35748-26898
2391.32-37974-36314-18020-16006-40643-33633
2394.21-20038-18299-17940-10307-15622-20725
2397.10-26293-37002-44474-24494-14686-20777
2400.00-25987-29217-39472-33167-35636-31869
2402.89-22459-11814-19994-27461-29144-17182
2405.78-21479-25061-35025-33765-35369-29676
2408.68-27256-17978-39837-45750-45051-36898
2411.57-24480-18873-24522-31563-36678-20306
2414.46-15109-17220-21076-18015-19855-19531
2417.35-28604-26645-28839-28324-30390-27305
2420.25-40964-42110-41754-23094-21385-27768
2423.14-36819-32641-35235-40133-40671-39785
2426.03-31982-19154-22475-29948-37232-27655
2428.92-28660-27958-29761-33495-42105-40217
2431.82-37724-24485-33582-33401-34762-38454
2434.71-46204-30940-21431-30482-38158-33466
2437.60-19176-19879-36934-43620-52970-48032
2440.50-48385-43373-42077-42410-47261-43683
2443.39-46039-43104-43359-33451-23664-24390
2446.28-34719-33155-45263-39139-28233-28274
2449.17-41846-46061-50198-40084-34010-39957
2452.07-37603-22938-29355-30192-36572-35336
2454.96-39461-40135-40872-29603-44225-53808
2457.85-39720-31217-26760-15406-19347-27622
2460.74-27075-29530-41461-38388-33554-24010
2463.64-21821-22923-28593-32407-37394-31533
2466.53-30813-42413-37310-25503-24720-25916
2469.42-28201-35761-42883-28493-28892-37005
2472.32-34150-24036-38859-40516-33768-29175
2475.21-31330-30493-30371-25039-29718-37371
2478.10-48460-52339-58025-51265-34113-27658
2480.99-44899-46981-34048-21395-19523-18757
2483.89-35807-36401-31836-28249-29274-16759
2486.78-19469-23389-19748-15685-31058-35414
2489.67-21280-20777-34310-32647-37881-35646
2492.56-20224-9859-23227-19441-15516-32339
2495.46-39520-30274-29171-24889-29627-33024
2498.35-34312-32596-33868-27469-31861-32068
2501.24-17523-8713-18525-27481-25143-16586
2504.14-24540-21852-14609-16263-29948-39149
2507.03-43075-39429-51492-45307-40880-32439
2509.92-25159-37347-36078-11675-11006-16848
2512.81-23755-28080-30918-40124-38192-21975
2515.71-32379-43725-47983-45492-40525-34808
2518.60-18640-2157-8933-27975-44052-43572
2521.49-45471-41944-40281-27682-33267-41007
2524.38-36156-27744-28544-32559-33809-13070
2527.28-10842-18794-21540-10799-21068-35990
2530.17-46127-34840-31056-25421-23771-33741
2533.06-37007-39363-44864-41627-41791-39580
2535.96-43569-41607-31903-22398-22151-17032
2538.85-16792-27715-41162-33098-20219-17394
2541.74-30362-22387-24953-37659-40910-17677
2544.63-17137-26453-37897-34428-42521-33229
2547.53-20985-18204-23835-28506-34548-38387
2550.42-45999-37485-25268-24498-42091-40752
2553.31-34092-34575-38769-34049-28206-23167
2556.20-24121-28130-30182-29138-29819-33747
2559.10-36941-36771-35905-49237-61655-34514
2561.99-23646-29102-38033-41947-53670-48076
2564.88-46707-46102-34440-43544-54576-48769
2567.78-43732-43636-51405-52628-52954-50706
2570.67-40533-33590-38638-27715-27855-36363
2573.56-39208-40288-45986-53492-56470-31334
2576.45-33572-44923-46009-50422-40394-27542
2579.35-32029-32590-39926-49560-45557-36745
2582.24-42731-49505-49102-36078-30986-33237
2585.13-37199-51454-67665-66993-56793-50360
2588.02-57728-51186-49326-61027-57933-45484
2590.92-46985-53488-52903-40697-41772-42706
2593.81-46767-54127-57618-57795-60880-55596
2596.70-45931-44616-47560-50304-60684-62424
2599.60-56323-54538-62739-64206-51163-41311
2602.49-52556-60631-68124-59898-59053-60917
2605.38-54035-52528-58894-64769-68901-58260
2608.27-57301-63574-61888-44455-51601-54859
2611.17-55542-73715-79716-59591-53959-52233
2614.06-46674-46160-51870-56268-66561-62574
2616.95-64112-61071-68739-66593-56112-47369
2619.84-54028-54529-55108-54694-68082-63728
2622.74-52599-50825-53009-62000-77124-63732
2625.63-51163-53183-54246-47576-60322-65275
2628.52-58859-56721-53146-46433-49571-56429
2631.42-61326-53318-54038-66460-59345-48559
2634.31-53309-56896-59678-58896-51914-46436
2637.20-43332-45639-51591-52881-57293-44966
2640.09-39653-42692-57212-58226-53645-52261
2642.99-49598-60061-58178-34957-25814-22344
2645.88-24540-34788-51975-53802-49474-51064
2648.77-36906-43993-65419-64567-53217-39107
2651.66-43506-56859-69542-74704-58662-47176
2654.56-48820-43536-43977-35517-42997-54779
2657.45-58294-57818-55812-36675-10889-16707
2660.34-47141-49561-50973-38649-36836-44848
2663.24-56877-65970-60690-48481-43497-46738
2666.13-48963-40698-51225-41330-32096-27657
2669.02-24086-43206-59001-53395-58600-64050
2671.91-52508-33370-35412-46153-55858-54698
2674.81-56118-60228-63354-39198-22114-23539
2677.70-35246-54943-64189-51984-51709-45390
2680.59-38166-55138-64742-49374-49613-52251
2683.48-39380-37363-48856-58032-70719-47634
2686.38-31981-39159-62995-69194-48420-40347
2689.27-47586-44307-43823-44812-49568-50664
2692.16-48309-48901-46221-39238-39776-44751
2695.06-47916-47768-63898-69544-66534-63953
2697.95-65270-60709-51849-41525-46143-57854
2700.84-40730-7451 10790 14208 8676 9237
2703.73 11782 9690-4934-30427-65170-88393
2706.63-99104-88706-77411-74493-72340-69078
2709.52-55929-37704-26523-21538-20234-30519
2712.41-43470-49011-54892-62838-79419-88448
2715.30-78304-65620-61798-58585-52136-56094
2718.20-56922-50761-46076-38336-32995-30321
2721.09-47036-53476-50776-49143-56750-51763
2723.98-45291-46172-50427-48409-47526-54638
2726.88-53843-57570-45301-40713-49129-38549
2729.77-49154-52284-44511-36990-38094-40561
2732.66-37775-29829-37951-39308-45021-51242
2735.55-56531-64834-59579-54625-64143-50427
2738.45-21344-2440-12515-26357-31631-28205
2741.34-25343-34084-49240-52384-58033-52825
2744.23-54133-51454-46262-42547-46630-47244
2747.12-42139-38215-42444-47510-52959-53570
2750.02-42749-31498-46213-56923-46686-41628
2752.91-56272-57539-33968-26547-36653-36948
2755.80-32356-39198-60517-76605-64853-45177
2758.70-48203-47242-47480-26461-23861-48946
2761.59-49022-39216-38817-30529-34644-43295
2764.48-42639-34365-35693-36663-37020-48107
2767.37-70472-66450-67862-72288-61899-47910
2770.27-33505-36474-45443-44848-46558-53992
2773.16-49019-50123-49438-41718-36233-48258
2776.05-47086-38725-48259-46573-48008-58809
2778.94-58667-63496-66008-59910-45971-42103
2781.84-51907-59555-50750-44168-49316-51446
2784.73-46597-44754-50796-46496-41351-33854
2787.62-31876-36669-36975-40144-66652-81647
2790.52-68450-55416-51618-50831-52428-65413
2793.41-74027-56157-40948-43107-45477-43359
2796.30-41806-28659-22133-34437-51521-54658
2799.19-73918-80290-56608-43645-33837-40877
2802.09-51996-61306-58650-50176-41943-43226
2804.98-57447-52662-43575-45181-45415-54410
2807.87-59115-54275-56944-54718-41953-38093
2810.76-48567-48441-41702-38872-27827-28420
2813.66-36375-36723-46972-49887-45081-45248
2816.55-52561-54605-45667-49022-59421-48201
2819.44-37471-45818-50119-53292-58552-54108
2822.34-59014-61948-56814-54812-64565-63773
2825.23-48785-39151-47860-62767-61582-42731
2828.12-29755-21782-27728-36402-34235-39313
2831.01-28374-30099-55918-63466-51246-36769
2833.91-26775-42838-53997-44952-32882-32631
2836.80-24456-14064-23399-49108-57487-51822
2839.69-60807-83841-94197-81950-81457-80475
2842.58-74781-64165-53963-33765-9020-3768
2845.48 4271 26183 41371 38889 21537-5295
2848.37-29595-37755-39398-48350-54089-56718
2851.26-59540-73289-79268-74492-44569-15223
2854.16-384 19457 16307 452-34491-54724
2857.05-79761-94970-94910-93779-83984-75293
2859.94-52917-23045-22797-14140-1317-18572
2862.83-28833-28180-29262-31142-44801-46248
2865.73-40387-45081-42053-36378-25358-26306
2868.62-35223-37685-40489-38961-33322-28093
2871.51-34087-35040-32632-28720-30042-25386
2874.40-19238-18610-17666-23845-27365-23101
2877.30-23245-24688-22532-32635-36587-30610
2880.19-16442-28054-42459-35904-28995-32715
2883.08-43086-38660-30085-33019-40576-38429
2885.98-28470-32476-34721-32491-18036-13799
2888.87-7361-9224-16138-30447-44170-43882
2891.76-21899-22468-38465-44038-37574-24904
2894.65-17441-20917-26778-38964-32707-22699
2897.55-19113-10326-6722-18328-25929-34632
2900.44-25265-17724-27059-33749-24427-11402
2903.33-17457-34046-53972-47317-32580-25264
2906.22-35510-40416-21272-9327-26143-40347
2909.12-55319-53583-34179-15463-17379-20631
2912.01-12023-22209-35134-32556-22427-8964
2914.90-758-10793-1920-9163-19323-34431
2917.80-52000-42154-39194-51045-47681-38485
2920.69-32005-24581-9397-16205-27420-18494
2923.58-14206-33094-21492-2480-13282-33666
2926.47-26258-9602-13582-28989-40124-32640
2929.37-19204-27657-45910-49257-28395-17383
2932.26-20941-16562-6295-5532-9884-25604
2935.15-41322-55350-35846-8537-8900-21962
2938.04-13518-21591-35364-39979-47249-42934
2940.94-18275-21502-28875-20790-16065-25272
2943.83-42271-38494-15918-24000-25168-11391
2946.72-9006-33212-41249-37812-36747-29158
2949.62-14774-15581-43667-40372-19821-16406
2952.51-23228-30954-28882-26797-15995-21765
2955.40-22365-16693-16910-17355-12603-20319
2958.29-19283 6860 3041-21496-37733-73684
2961.19-86903-39514 1567-8507-7027-1132
2964.08-9252-28354-30227-31280-29509-13224
2966.97-13551-24813-11124-7631-22971-41223
2969.86-49404-24817-13475-14978-22445-36319
2972.76-39205-41389-30061-26708-39188-30090
2975.65-5510-380 9458 18628 5032-10445
2978.54-7179-3425-8026-14845-15328-11545
2981.44-1492-3569-24130-34546-15067-7407
2984.33-3564-23452-24096-6721 480-13637
2987.22-32994-32351-39272-36735-5145-642
2990.11-8965-24436-16683-25405-45219-38106
2993.01-27566-26624-24489-23235-23884-31912
2995.90-38468-33897-4982-1469-17233-15857
2998.79-9531-11248-22605-40208-24975-19681
3001.68-13810-21364-12703-15173-21699-19701
3004.58-22999-36832-32661-22232-12799-10292
3007.47-13207-11985-18758-21014-15221-11456
3010.36-10613-28403-40258-23372 680-8772
3013.26-9952-11386-18991-28216-27034-39186
3016.15-30307-14458-18190-11673-19426-28245
3019.04-13172-24482-46140-34360-10126-15188
3021.93-24002-25225-30928-35900-10828-5358
3024.83-23891-25366-18856-10048-13316-18563
3027.72-7274-11730-21682-25327-10031-9141
3030.61-11266-18024-18429-29349-21518-26273
3033.50-24939-9057-13471-13054-7952-15497
3036.40 4423-1043-24830-33241-11028 10016
3039.29 6728 3168-2888-13646-7332-11084
3042.18-18240-23894-21658-22187-13276-6940
3045.08-3690-15232 208 7271-3286 718
3047.97 4777-9462-18613-6239-299-3570
3050.86-8254-22163-28360-49752-73533-48030
3053.75-20427-17727-4164-10508-19793-17298
3056.65-19764-23069-24809-10913-4815-22659
3059.54-34867-28741-17015-9742-5785-33986
3062.43-58647-53138-42788-37797-26073-25556
3065.32-40561-50514-48656-32015-14009-33755
3068.22-53909-44228-28437-25845-16719-13568
3071.11-19539-44122-45761-24481-28466-29680
3074.00-25299-30454-30915-33829-22588-22192
3076.90-20223-22882-23274-19591-24215-30355
3079.79-37108-34806-42458-54463-34982-18550
3082.68-32456-45064-37146-14765-31132-45846
3085.57-42703-48430-50170-47256-24796-17979
3088.47-14151-17785-30026-49109-28615-17795
3091.36-28644-26888-29544-25964-13428-27123
3094.25-43159-53063-44424-41032-35309-30163
3097.14-21694-22076-20114-23213-25338-29666
3100.04-28934-41982-46341-50757-55056-53133
3102.93-40301-50238-50714-40385-21088-29256
3105.82-34662-28364-31026-42129-43950-44208
3108.71-35996-27104-36549-41857-34382-28690
3111.61-21645-13395-16173-19598-17251-16746
3114.50-27442-43825-32901-25983-20825-5852
3117.39-21255-57884-58652-32477-1736 2480
3120.29-9328-23509-23836-24449-26186-21238
3123.18-10705-22952-20110-28228-42363-56154
3126.07-44131-32609-30151-27544-22643-45911
3128.96-45553-38476-27076-14217-19382-32858
3131.86-47380-46722-40320-42012-33763-41368
3134.75-38944-22996-17371-1255 15360 393
3137.64-13130-1198-13781-31048-24398-43718
3140.53-52716-44268-28940-7162-2543-13976
3143.43 5405 12789 6353-15031-9678-21728
3146.32-24098-21087-17857-31263-26926-28537
3149.21-29546-27227-26700-18329-8324-12911
3152.11-9694-14970-21962-26707-11760-7046
3155.00-9425-28382-32492-39160-21860-10506
3157.89-18842-34254-23829 8624 16332-6850
3160.78-16545-15671-15245-11542-1154-3721
3163.68-4782-27245-37690-29050 5445 3491
3166.57-28474-37767-1786 1983-11830-20004
3169.46-7549-16636-23292-28282-32731-36214
3172.35-25420-10131 1610-17003-35396-27483
3175.25-6530 3085 8675 1478-3039 1382
3178.14 14887 1532 3624-3971-16936-12092
3181.03 763-1080-8949-28775-11670-4038
3183.93-6566-12633-14781-29305-15774-2716
3186.82-2033-10015-1662-17926-33188-27697
3189.71-8254-17830-34680-45369-25234-1926
3192.60-6004-17566-5459 4346 8320 7855
3195.50-10428-30427-31979-51558-59054-53773
3198.39-28902-17847-17453-14903 995-277
3201.28-13325-36813-31904-22194-13237-9543
3204.17-7387-12452-23907-44035-52742-45858
3207.07-23058-29525-28518-41924-41558-41344
3209.96-41554-37172-11443 3115 2860-30475
3212.85-44031-28734-9491-11516-13228-10997
3215.75-11974-11537-25676-43327-40600-46562
3218.64-44520-30943-31182-71150-76930-77323
3221.53-76475-64766-45483-37608-29361-21186
3224.42 7842 18802 6583-11241 4926 15103
3227.32 6973-28733-40924-60010-67811-55619
3230.21-36122-46161-54898-32867-21485-29837
3233.10-27609-34527-43326-50614-30736-22327
3235.99-12970-27051-27722-21364-6620-1488
3238.89 11736 7124 3101-6036-6470-12605
3241.78-24771-24160-3109-15047-39740-52247
3244.67-59776-61084-60018-74421-90267-97390
3247.57-64628-58084-66787-62180-44536-43302
3250.46-34765-17167-10863-14799-2643-9799
3253.35-27372-35092-27206-48870-52116-25516
3256.24 18913 37045 40307 32468 37691 28349
3259.14 32421 20384-5826-32087-36291-41851
3262.03-37211-37181-49247-48059-43372-53300
3264.92-58501-63706-28555-15713-21392-29793
3267.81-11229-18906-27638-18195-4857 3164
3270.71-581-7340 9681 3329-223-2413
3273.60-3898-10241-5696-33253-32628-24609
3276.49-20471-24214-31151-34477-20651-31837
3279.39-34119-27875-15718-7178 7066-1538
3282.28 15784 13599 21988 29524 15688 3634
3285.17 13191 14389 25195 37910 25503-6
3288.06-15389-24359-18611-18460-14131-12572
3290.96 4112 11772-50-4326 3416 569
3293.85-7557-15293-13144-3535 22642 18747
3296.74-7842-29671-8107 14337 5842-9053
3299.63-9495-11037-5750 4582 19548 14611
3302.53-135-28432 1391 23423 24052 21526
3305.42 19842 3650 13496 13306 9443 5520
3308.31 12674 18390 14364 3467 2479 23613
3311.21 39777 11903 4706 12827 21508 2653
3314.10-10877 14834 35848 7736-12468-17207
3316.99 11123 8843-11782-10822 6909 16797
3319.88 28064 29834 9063-15694-12674-15573
3322.78-4830-11266 1344 22367 24894 28137
3325.67 49821 48268 33059 21237 11516-6361
3328.56-3569 1826 12114 628-1610 7757
3331.45 10998-3999-1730-1895-9035-4223
3334.35 13136 10363 13685 5698 24284 19123
3337.24 21888 9723 7400 18549 11312-8616
3340.13 5994 5852-6387-901-2719-1379
3343.03 18370 13026 12964 6381 12469 20098
3345.92 6641-10816-16891-12062 2072-12969
3348.81-1358 284 4035 8855 10895 8502
3351.70 3180-8298-15076-32253-5851-17290
3354.60-20153-5302-20543-36519-26491-24586
3357.49-13986-11475-20514-36012-27236-12134
3360.38-4981-21023-32170-41215-26239-36534
3363.27-44212-37342-28548-48424-48232-33052
3366.17-28780-52534-26801-7221-22691-24347
3369.06-2937-10870-24964-31029-35688-38847
3371.95-34086-28171-28992-36371-18772-21020
3374.85-16392-18092-11555-8339-24829-35757
3377.74-22475-29399-42168-58913-38329-39330
3380.63-41127-34228-48423-62836-53048-52729
3383.52-33243-27532-28612-32683-16995-37087
3386.42-53470-51506-40947-34706-23164-36971
3389.31-44928-49866-31546-25805-42796-69040
3392.20-54547-26770-31091-33215-29850-46876
3395.09-41709-40462-37362-56295-50544-24922
3397.99-27224-33307-28595-30553-28226-20848
3400.88-5905-15494-12790-31774-34528-42310
3403.77-41811-48238-39097-26264-35050-46609
3406.67-29577-29593-32231-31117-44570-68446
3409.56-62963-60816-48598-39513-18254-22285
3412.45-33555-28017-29805-23982-27841-47893
3415.34-25962-19029-21002-23033-8652-8155
3418.24-25288-22724-17852-39560-43641-41405
3421.13-41340-44657-34591-28963-7985-14229
3424.02-19799-12612-8518-26311-28621-25447
3426.91-21569-21061-35637-57294-40074-32203
3429.81-22415-22342-15131-22182-42352-46381
3432.70-12885-22877-14515-12364-6516-24750
3435.59-20243-33712-41075-35758-20844-9582
3438.49 578-13740-18279-24139-18089-23661
3441.38-26711-32801-28306-40071-42726-56854
3444.27-29421 8125 6157-12437-16820-38792
3447.16-29450-13266-14644-17079-4870-9400
3450.06-3558-1965 1564 11858 25755 13424
3452.95 16903-3730-22249-18217-102 19047
3455.84 7569-14435-17712-19351 2681 9017
3458.73 7788-14577-19817-15332-15196-17667
3461.63-16200-14651 2652-17701-32434-36980
3464.52-18581 203 19348 36756 34896-1596
3467.41-30976-43575-39358-49307-17554 17499
3470.31 26855 19157 18367-3138-25898-50503
3473.20-42655-26058-9855-1677 2937 3422
3476.09 7115 26738 27165-5439-19979-24787
3478.98-26359-36638-33613-14784 1027 8089
3481.88 26415 12020-8996-17149-25407-40969
3484.77-18194-4143-839-10934 15402 17920
3487.66-5605-29692-16356-12462-12998-14546
3490.55-12777-1048-4601-21654-29497-40754
3493.45-21758-4447-6879-17188-9754-29674
3496.34-43457-29008-25466-19509-7113-12440
3499.23 1582-4638-24402-51376-47296-20283
3502.13-15477-20534-12695-20215-34360-40438
3505.02-22226-15376-5428-15284-23025-13647
3507.91 17692-15733-47015-43368-8963 8227
3510.80-19469-35406-18183-28917-23743-20669
3513.70-27196-30344-22332-18694 1702-17771
3516.59-37618-24062-7847-17262-18077-31264
3519.48-39790-56501-54904-54608-30558-30413
3522.37-31378-40467-39640-44171-34549-37596
3525.27-54436-53314-40878-50365-32935-32497
3528.16-33098-36266-9455 9939 4041-21126
3531.05-30972-31197-29937-46415-39489-27837
3533.95-8381-9809-6721-25819-47854-68549
3536.84-37194-27380-22510-38473-45105-51520
3539.73-57310-29786-9202-32684-25756-21686
3542.62-31517-34962-13409-17278-17473-15814
3545.52-11507-41892-43883-34729-19155-22389
3548.41-19436-30245-20069-33305-56388-66921
3551.30-50721-41209-40838-58390-44417-52964
3554.19-72984-82166-55928-36556-24589-44420
3557.09-23677-4596 4112-23587-31336-24538
3559.98-13036-30877-25919-10973-1456-25751
3562.87-42485-44494-30561-40064-21491-43640
3565.77-67718-73840-33199-56406-88702-64405
3568.66-20011-21495-14411-16428-9029-5922
3571.55 5691-8911 5140 9355 2551-24070
3574.44-22042-9131 6272 10103 4874-28685
3577.34-10906-622-26714-36422-10616 6058
3580.23 21904 2303 2707 9662 17427 25300
3583.12 24176 32889 44238-12162-41435-66198
3586.01-92573-67748-17581-9933-80022-98229
3588.91 1105 25961 1110-23708-4943 4480
3591.80 21992-1361-8254-12167 2916-3110
3594.69-31399-35579-17384-19552-12728-23249
3597.59-26096-18878 16918 41227 28882-18834
3600.48-19157-6515 3614 5 810-2997
3603.37 12201 6386 24062 25799 33590 6320
3606.26-33010-55949-28999-18444-13692-112142
3609.16-87981 59 19329 10845 12625-41018
3612.05-82395-34287 11037-21543-34616-18307
3614.94-5289-10230-3246-12136-35601-59319
3617.83-22942-29485-100976-113677-19964-992
3620.73-6411-11933-6668-870 14150 1154
3623.62 13209 12145 11241 3044-11440-40824
3626.51-24989-19266-100872-171804-127127-242628
3629.41-187533-27980-3236-36120-22997-5969
3632.30-10541-39502-59561-45195 10308 18819
3635.19 26589 18861 8307-11498-1078-21152
3638.08-22085-18599-10637-1673 21802 2116
3640.98-17951-33358-22043-15641-7239-15277
3643.87-17076-38073-31825-22214-37643-87319
3646.76-116501-91093-13639-71757-227590-153018
3649.65-44600-104026-110447-98334-20997 2125
3652.55 459-14620-380-14974-34301-55175
3655.44-120001-168576-64995-24986-17303-37906
3658.33-25754-10958-121-5077 10430-2985
3661.23 690 9418 20521 520 18751 4911
3664.12-8544-25195-20661-27762-3860 9721
3667.01 19814-28985-126854-181848-94103-73272
3669.90-228371-326904-123507-18412-16686-52039
3672.80-29069-50843-84367-180175-174405-243926
3675.69-264321-90109-38289-62773-36938-26840
3678.58-51563-80453-52639-60186-54648-46137
3681.47-23602-30322-23979-35087-34452-42450
3684.37-22030-382-2611-28437-18182-27414
3687.26-100804-352849-332991-124772-82201-88689
3690.15-84772-122932-91309-16886 4137-15963
3693.05-27599-36456-35263-32815-23123-27253
3695.94-19354-15041-9247-28722-49151-54929
3698.83-26485-24394-2020 12140-49895-117716
3701.72-66085-27954-15347-29027-32399-41771
3704.62-36366-46528-53715-56707-40289-33512
3707.51-25258-46799-99489-158195-110707-71692
3710.40-53114-63109-183617-266267-118220-37929
3713.29-13033-41931-41051-18328-2941-39266
3716.19-39555-38963-41184-61138-61056-68057
3719.08-42712-51299-38891-15009-9184-79478
3721.97-111463-87712-58920-70899-54100-63496
3724.87-47250-39668-91190-131914-65242-46195
3727.76-20604-11262-28918-50962-23846-36362
3730.65-60145-160129-257760-154177-41713-34646
3733.54-37559-108851-147704-128090-76509-172878
3736.44-191311-93036-55464-70139-44775-23484
3739.33-26151-50782-44889-57117-39687-49035
3742.22-60410-77680-136411-400075-577193-346461
3745.11-99145-40480-21389-57742-64886-56044
3748.01-74156-268869-401652-200830-31077-30660
3750.90-82198-331602-444210-196542-68875-52986
3753.79-43632-46677-32709-31393-51740-89655
3756.69-38240-8641 1062-10639-42997-95232
3759.58-81664-23974-15903-22492-17639-33220
3762.47-17581-23316-2806-12753-43936-93172
3765.36-88819-35479-6573-27757-30795-22826
3768.26-15211-54475-122020-90222-24209-35047
3771.15-14078-3700 10553 1236-4445-11569
3774.04-7892-14849 93-7215-27128-35220
3776.93-11272-21851-13090-23998-51743-48821
3779.83-19636-10467 24518 35033 40254 8133
3782.72-7944-13699-33713-50418-7291-2308
3785.61-6558-27487-24804-41533-40667-54772
3788.51-25318 7214 23419 17737 37918 12522
3791.40 3545-4074 3556 564 8684-17695
3794.29-31011-55619-70091-118324-73197-31188
3797.18-36926-37707-26641-36604-11356-17174
3800.08-72624-293005-374906-145016-33887-44272
3802.97-32622-60998-76644-88008-56091-20055
3805.86-32872-175828-153737-32629-34227-50536
3808.75-45413-31310-15687-13204 16862 3199
3811.65 4115 101-18605-40848-46906-61240
3814.54-71746-187628-412501-283773-54301-47646
3817.43-46626-39357-8733-33452-68903-140513
3820.33-179327-171147-174219-100356-41059-61667
3823.22-39188-45842-43312-31179-22535-40576
3826.11-59248-53226-35207-55443-41994-41978
3829.00-35303-34162-10832-45089-137729-150775
3831.90-65876-49621-21236-32056-52105-140608
3834.79-106993-48084-44372-72026-158686-414934
3837.68-350626-121562-65895-83174-88459-106270
3840.57-128487-102281-55709-71943-110921-140636
3843.47-116577-72497-46053-44226-49354-66317
3846.36-36797-51971-65000-52529-49096-54004
3849.25-59655-79620-81638-125176-297871-398733
3852.15-177629-113994-326472-624775-501288-214550
3855.04-86334-65308-68151-75002-57495-68565
3857.93-65205-63094-72461-97866-86249-79269
3860.82-88681-136993-99391-80388-75212-89874
3863.72-89750-143119-205925-144360-77694-58156
3866.61-55533-73724-75446-93467-136975-204520
3869.50-314157-237438-89491-102394-62887-53799
3872.39-58394-92986-117508-140642-97915-86169
3875.29-81839-85293-71072-83837-85270-88018
3878.18-76523-98190-110045-187271-169401-125162
3881.07-96580-76767-68241-93198-84908-85777
3883.97-79161-121063-262187-301541-151000-90549
3886.86-76645-81076-77286-99140-74003-72368
3889.75-88044-136878-187146-151394-76940-86463
3892.64-77246-92784-97881-99830-93907-92024
3895.54-65591-85572-90119-91990-79488-86416
3898.43-134047-196737-129746-89896-75128-135488
3901.32-198192-170998-100007-91432-146728-235163
3904.21-151506-101301-94640-95815-75775-83376
3907.11-71468-76736-69537-76111-61401-72830
3910.00-74395-88335-66736-61338-54414-75147
3912.89-77063-78558-73854-81677-82959-108647
3915.79-98587-120886-153463-121971-54167-63556
3918.68-43220-68989-93764-67953-50463-76083
3921.57-59255-66759-88609-96926-54559-65663
3924.46-94079-109878-72019-66874-57014-60350
3927.36-45958-39580-43972-74423-69457-71349
3930.25-57557-67242-80127-112954-90940-95676
3933.14-89881-93384-80170-78856-53742-31803
3936.03-21961-46536-40138-38927-23623-33612
3938.93-54166-70615-51786-49661-34829-67568
3941.82-92022-117078-73000-48714-43153-25546
3944.71 3653-10319-22051-58254-63523-72619
3947.61-50573-42972-15030-72229-97677-74758
3950.50-62258-68744-60161-57961-34825-52157
3953.39-40348-40487-33611-57126-68820-63910
3956.28-15996-35941-45360-45879-37206-55615
3959.18-41500-44821-55156-80714-64764-77402
3962.07-59931-59686-37980-33589-33943-72372
3964.96-68331-70937-61665-67492-38261-36231
3967.85-25404-58910-56013-49111-36556-40361
3970.75-18999-40401-46739-52333-31245-25920
3973.64-17390-58623
##END=
