##TITLE=Sulfur Hexafluoride
##JCAMP-DX=4.24
##DATA TYPE=INFRARED SPECTRUM
##CLASS=IUPAC A
##ORIGIN=NIST, Analytical Chemistry Division, 301-975-3108
##OWNER=COPYRIGHT (C) 2000 by the U.S. Secretary of Commerce
##DATE=00/02/01
##$SPECTRA VERSION=1.10
##$UNCERTAINTY IN Y=2.0 % relative (B=1.0E-04,C=2.6E-08,D=5.6E-11)
##CAS NAME=Sulfur hexafluoride
##CAS REGISTRY NO=2551-62-4
##MOLFORM=S F6
##MP=-50.5 C
##BP=-63.9 C (sublimes)
##$NIST SOURCE=QUANT-IR
##SPECTROMETER/DATA SYSTEM=IFS66V (Bruker)
##INSTRUMENT PARAMETERS=KBr Beam Splitter; MCT Detector; Multipass cell
##STATE=gas
##SAMPLE DESCRIPTION=Sulfur Hexafluoride Primary Gas Standard
##PRESSURE=101.3 Pa
##TEMPERATURE=23 C
##SAMPLING PROCEDURE=1 L/min Flow
##RESOLUTION=1.9290
##DATA PROCESSING=NB Strong Apodization
##XUNITS=cm-1
##YUNITS=(micromol/mol)-1m-1 (base 10)
##XFACTOR=1.0
##YFACTOR=2.9103E-11
##DELTAX=0.9645
##FIRSTX=575.652
##LASTX=3974.604
##FIRSTY=-6.64E-07
##MAXX=3973.64
##MINX=575.65
##MAXY=.02483
##MINY=-.0000122
##NPOINTS=3526
##XYDATA=(X++(Y..Y))
575.65-22839 31538 264242 29868 228609 349793
580.47 433758 206905 201413-29320 212849 214853
586.26 462230 438909 742753 777922 1254095 1382108
592.04 2042789 2507313 3529195 4162090 5370675 6258661
597.83 7657139 8419531 9758385 10435529 11511879 11597514
603.62 12097437 11321866 11010844 9364931 8641649 6550574
609.40 6305114 6659802 10931533 21846034 63251840 65253162
615.19 15542438 3322765 4013782 6839468 8147135 10985280
620.97 12175040 14316744 14850799 15892725 15490566 15527825
626.76 14278997 13462656 11766906 10640410 8744096 7497617
632.54 5858335 4938831 3633936 2988985 1961376 1560308
638.33 935053 848944 410763 415953 110967 228860
644.11-27626 108126-74336 72384-93581 54794
649.90-109146 54438-98216 87026-18666 109591
655.68-49489 73643-54069 43180-84728 76951
661.47-28656 116153 2593 53074-77438-115583
667.25-286154-44862-112826 65043-23686 89276
673.04-35870 80704-46680 43129-31165 68926
678.83-43207 44287-59151 43053-60712 64751
684.61-44099 53906 6217 71757-67837-13872
690.40-67758 79761 4675 88094-12239 79512
696.18 17959 106398-11503 68345-30273 30046
701.97-28353 94013 18294 82761-42266 36838
707.75-587 69149-24911 79449-9977 49209
713.54-31022 59806-9595 67026 16911 83194
719.32-14149 51136-57826 17810 1408 99554
725.11-13444 58876-1568 74508-7616 43848
730.89-30964 40440-29711 54899-21960 40807
736.68-767 67979 378 31118-63830 23028
742.47-48629 9918-51038 49624-27679 45071
748.25 6105 64754-26264 1299-55962 35605
754.04-31712 26292-45645 16036-66617 8261
759.82-33094 20677-57790 26595-27753 30728
765.61-49847-4289-56674-3833-91363-35797
771.39-84077-4550-45630 28222-44704 24949
777.18-59955-6033-55583 5539-81715-12540
782.96-66405 483-59345 12685-48802 5777
788.75-64222-18609-57337 28022-43419 17476
794.53-37734 23051-84043-47985-76638 8417
800.32-56492 6810-50949 9210-52046 24682
806.11-38896 21639-43018 24582-43443 26087
811.89-19164 54876-14902 23818-58074-1227
817.68-24141 89436-5020 36862-18607 52648
823.46-35951 39894-29995 18494-54976 54366
829.25 7227 59154-23437 13501-67816 37180
835.03-14343 71798 13933 72971-7308 41889
840.82-48845 52951 1015 109234 90293 199642
846.60 105841 177901 137328 242428 215227 334638
852.39 253090 337043 285356 366283 295009 378050
858.17 316131 400256 300645 356128 262900 363923
863.96 366378 611967 855760 1452669 1882311 2209859
869.75 1204729 365180 156135 280451 281315 447399
875.53 474291 648548 651094 804863 784406 919529
881.32 858940 935973 851009 921341 787349 822579
887.10 657618 664506 488207 513821 358545 395762
892.89 234375 251557 98990 172529 45289 134664
898.67 18473 118661 1312 88422-39310 99921
904.46 14327 145138 36041 185853 81864 239368
910.24 144986 314438 231776 460812 431346 727991
916.03 862901 1447514 1967874 3207265 4653464 7161669
921.81 10143126 14275795 18610087 23464213 27688512 32048508
927.60 34996528 38726998 39870490 33099298 30994081 31017404
933.39 29151837 32054998 42618173 63555433 96213755 144232324
939.17 211125984 301138829 407217361 521106807 626782521 715615311
944.96 773862687 853154855 846964419 624741134 503471454 375024614
950.74 174635726 46070283 11359331 5605436 4340545 2846455
956.53 2476890 1671286 1648982 1140923 1251170 899358
962.31 1034998 760656 926861 736007 914629 761089
968.10 937570 834842 1037497 984872 1209607 1203591
973.88 1464707 1548760 1893113 2085540 2547128 2907855
979.67 3538143 3996025 4582061 4877359 5067789 4785471
985.45 4419861 3756667 3321148 3302866 3833636 4263761
991.24 3951348 3617156 3582482 3141480 2586762 1862019
997.03 1379944 968390 785609 572219 502520 356727
1002.81 322855 206783 195002 120209 134614 60615
1008.60 69265 21123 55659 10476 41970 10315
1014.38 55248 9829 30983-1887 35592 13306
1020.17 49408 15269 48517 22079 41566 4419
1025.95 30739 17022 56323 30695 48287 20647
1031.74 42734 16422 27184 9964 27955 7796
1037.52 32179 17124 17016-4411 24069 6679
1043.31 16472-5005 13349-4145 436-19923
1049.09-3272 2835 29941 5778 13464 9570
1054.88 24215 4167 6269-21440-14277-14037
1060.67 14203-1548 3927-9628-415-11995
1066.45-2071-35173-44070-23300 19542 10065
1072.24-4428-17092-7264-14311-15266-23222
1078.02 8241 5655 2102 2822 14867 7547
1083.81 13032 471 9353-4340-20544-36935
1089.59-36634-14111 13602-9154-23631-23739
1095.38-9042-11534-11225-15161-373-17348
1101.16-26983-36377-29849-30213-37230-32204
1106.95-19849-14509-14812-17215-13279-12157
1112.73-6571-1235-5416-11430-224 6019
1118.52-3401-11696 1239 3342-5857-5928
1124.31-65 1401 1872 9560 20721 28836
1130.09 27618 29298 32391 45271 52123 48515
1135.88 45649 38479 18508 21552 25169 8426
1141.66-2424 290-3051-2936 4282 5683
1147.45-8212-13958-18413-20609-28296-24835
1153.23-25633-26841-29355-10352-4097-5535
1159.02-6556-18033-28984-24483-31080-19537
1164.80-20330-25028-25554-20647-25861-16426
1170.59-14472-9848-9294-9358-19486-8538
1176.37-9396-12733-21694-12296-14016-249
1182.16 283-2538-14165-6530-14458-868
1187.95 8200 4373 1069 11917 2510 1126
1193.73-2848 3231 321-798-17265 1009
1199.52 5434-5190-19781-1463-2848 3344
1205.30 10148 11919 447 14876 8942 7323
1211.09 5986 16823 5849 17771 20748 28841
1216.87 14820 12291-610 5185 5099 25117
1222.66 23845 27104 11355 13103-5166-16494
1228.44-3893 30302 23290 19174 10285 26146
1234.23 23468 31786 37545 58785 64393 91008
1240.01 106071 141426 169499 192015 205891 248618
1245.80 280489 300838 299787 317252 339371 386967
1251.59 440034 502390 546190 559153 530477 455206
1257.37 339167 331911 319757 332575 325738 347907
1263.16 342184 327185 271853 235872 180258 150363
1268.94 101529 79850 40827 35564 16690 19327
1274.73 23769 38902 29439 47774 52949 63875
1280.51 53963 96661 95844 64443 54012 46454
1286.30 16702-4053-24839-22894-19740-2211
1292.08-9550-11610-23382-12969-17796-4702
1297.87-12978-18-6515-5225-10041-2017
1303.65-16603-8107-7695 6364 4800 17181
1309.44 859-1633-9785 407-6231-325
1315.23-21167-12530-17767-14042-15711-8212
1321.01-6227 13287 7465 15497 914 5226
1326.80-3986 1174-10765 4539 13583 21401
1332.58 1928 8726 7897 18089 9923 11671
1338.37-13620-7404-29855-39419-59453-46327
1344.15-40357-36249-51059-51282-81315-82940
1349.94-67954-5868 94290 253675 359805 371429
1355.72 270580 147676 17075-71350-137324-123475
1361.51-110084-74891-42460 4843 20498 29614
1367.29 8734 23678 33903 65685 68776 74606
1373.08 63818 75164 54721 47162 45402 60988
1378.87 40722 47671 48913 67760 84420 116362
1384.65 136403 191631 200940 140991 17315-1442
1390.44 3117 25559-6705-27935-13050 32755
1396.22 25052 15340-10483 24996 29126 33129
1402.01 9090-5274-28933-3141-8390 8394
1407.79-278 2972-15947-10228-14169-5068
1413.58-12978-15564-41489-47111-105162-171861
1419.36-100388-22450-31849-28656-48471-22372
1425.15-19131-3254-24922-31209-54927-24022
1430.93-24425-19447-17962-6753-77576-145036
1436.72-80042 271-4282 3233-10599 3319
1442.51-7481-2396-14300-3684-42038-35690
1448.29-8674 8062-8465 2245-553-3688
1454.08-34247-140739-237064-116155-59721-12093
1459.86-18085-5434-4011-14462-77267-40940
1465.65-3326 7437 4549 7030-29837-93786
1471.43-147030-115472-61338-23636-55404-5716
1477.22 2751 14132 3335 15084 2208 15479
1483.00-6507 553-18540-30640-41753-30004
1488.79-80505-62393-31096 9717-1225-3743
1494.57-106285-133528-62648-55580-50065 1970
1500.36-11118-1893-12279-26024-167411-253033
1506.15-253385-112923-47160-20688-20893-30581
1511.93-42779-8866-23638-23364-79643-65309
1517.72-43895-61961-179858-196845-119640-45742
1523.50-50635-79990-56917-29047-42056-16215
1529.29-15409-18210-44645-83679-96000-22398
1535.07-18572-10304-105583-261589-278944-167288
1540.86-157826-105523-46471-45686-29341 32366
1546.64 39079 52734 34877 55688 82954 109897
1552.43 68699 32808 106743 165813 74123-22404
1558.21 7083 81044 270098 451438 482317 517486
1564.00 566772 661476 707925 771009 761863 795329
1569.79 921212 1006254 1045129 1113410 1119742 1021510
1575.57 1029467 1261774 1327906 1367357 1373690 1414341
1581.36 1431054 1495062 1488209 1474186 1412231 1728406
1587.14 1769428 1226903 1094938 1141784 1200012 1216985
1592.93 1156382 1136897 1102424 1045558 953485 858450
1598.71 747676 666532 581516 514621 439507 405652
1604.50 356354 321867 273909 244196 194300 183795
1610.28 161171 138186 96480 88052 43371-97769
1616.07-162304-8582 32699 49580 37312 39755
1621.85-24853-40794 3404 37602 18837 6124
1627.64 10901 50527 52976 63134 56841 61975
1633.43-30063-142260-79277 21888 25820 50524
1639.21 30624 45092 36211 34620 4820-54638
1645.00-147768-91862-62747-16755-2627-16503
1650.78-210037-421764-345912-135794-44747-2644
1656.57-14598 8349 4069 7311-30417-71267
1662.35-81125-18202-32703-13470-16684-38656
1668.14-125471-88778-74205-50429-35406-47060
1673.92-148546-116762-45890-18445-35809-45936
1679.71-49767-32887-99813-197099-345369-220545
1685.49-52493-28050-37904-28463-27250-11916
1691.28-13535-1197-18456-172443-264498-53155
1697.07 33444-32866-217834-134463 48518 91845
1702.85 67175 97292 123527 183378 297362 427541
1708.64 550594 731655 951261 1205524 1427708 1605575
1714.42 1821180 1942335 1892591 2072995 2067784 1512563
1720.21 1305988 1041036 302853 14631-22104-8219
1725.99-31957-26034-55710-58713-64848-52023
1731.78-151310-241570-235668-95155-43512-31278
1737.56-66276-109343-102223-33378-56773-52231
1743.35-49201-24131-30746-26724-57362-47210
1749.13-66318-117993-88270-11575-18166-3484
1754.92-41043-49646-33425 1114-3862-8128
1760.71-71923-25298-4127 216-12232-8089
1766.49-57908-67932-31317-26872-88683-137989
1772.28-122774-23784-31101-24718-31550-12089
1778.06-20923-15565-30780 195-8197-11603
1783.85-46452-12213-6656 11678 4773 10151
1789.63-28331-45072-102801-50963-15042-6647
1795.42-15473 7172-9707-20445-29348-9939
1801.20-25091-3969-10660 7693-1682-1877
1806.99-20124 2202-14691-4945-11190-3302
1812.77-6495 3343-8544 8461 2934 15152
1818.56-10460-1898-6543 6539-2259-8063
1824.35-38942-5915-10260-9543-42146-47474
1830.13-29012 696-14675-155-9428-926
1835.92-18218-2974-6950-1258-23814-14155
1841.70-33563-86259-113059-38317-37756-29328
1847.49-41371-32465-46656-28107-43147-37608
1853.27-48836-34237-55599-52802-70930-66221
1859.06-79153-42611-41319-30584-48592-46090
1864.84-62371-51781-74344-81958-103338-62263
1870.63-67129-68958-104171-104012-126636-128660
1876.41-152689-152142-184574-182113-193916-210079
1882.20-245584-241039-271268-265087-287926-290001
1887.98-326468-315821-311146-292184-308674-297560
1893.77-320218-307780-293807-273077-328397-340997
1899.56-278465-180279-170154-121832-67793-44990
1905.34-86803-77836-78557-62121-71832-46727
1911.13-48416-37017-51279-33150-38796-39395
1916.91-78870-53484-43867-28244-42724-34322
1922.70-32329-12014-28084-32419-49825-34459
1928.48-46240-31899-41117-29287-40821-27276
1934.27-44995-29419-38763-21783-26851-24027
1940.05-44920-40623-51121-21643-37336-33647
1945.84-44243-21807-23004-13017-20703-1739
1951.62-12073-8059-25326-7193-17604-13892
1957.41-28920-13535-26406-16914-28815-22080
1963.20-35195-16906-25600-20930-38223-16074
1968.98-25381-22125-37086-15706-13061-3701
1974.77-15697-2488-22199-6500-19617-11919
1980.55-26005-4584-7894 539-19033-10333
1986.34-27526-15938-23690-5203-21332-20128
1992.12-19285 93-16676 756-14765-6718
1997.91-12662 6711-8859 4273-4388 9865
2003.69-8188-2474-27455-22154-24062-34
2009.48-8712 1806-15478-4735-13905-2697
2015.26-18961-7620-18834-11132-32156-14524
2021.05-17197-631-14365-5870-18274-203
2026.84-6109-6632-24526-7090-15909-4795
2032.62-22110-11257-28744-17597-24736-11076
2038.41-28361-16564-34104-24881-39228-17079
2044.19-23591-10204-19001-15633-32496-11492
2049.98-24008-18532-29893-18068-36973-28785
2055.76-43477-32803-40419-16598-22300-15413
2061.55-31169-22473-31253-18704-37338-19304
2067.33-23042-17465-35773-22954-36137-21614
2073.12-37530-25379-38013-22208-36221-37596
2078.90-45612-21836-18864-14393-41940-27090
2084.69-23220-5083-33851-27754-29168-6494
2090.48-29032-20948-24372 6687-6070-9121
2096.26-27125-8278-6255-13627-32353-7732
2102.05 7196 10485-27273-13089 213 13465
2107.83-27028-10724 5804 29319-23246-19687
2113.62-5628 40804-6767-17153-15238 35151
2119.40 7913-10645-14821 38320 20615-5431
2125.19-25243 16689 18069 326-16110 14809
2130.97 11452-803-16142 6145-7038-1577
2136.76-22255-13308-14259-2376-18174-7562
2142.54-18345-4297-16500 8247 8478 8932
2148.33-15482 5471-1283 1502-2511 25043
2154.12 8494 4633 1896 43324 25378 1840
2159.90-3825 34817 11551 5526 13895 40472
2165.69 596 393 27957 50625-6920-1479
2171.47 26026 39857-4623 26392 47669 29026
2177.26-7895 31737 22390 472-9908 30955
2183.04 13197 26585 40495 36272-20642-16931
2188.83 2032 20398 7207 34162 15906-1637
2194.61-17045 11430-3163 3823 7222 25348
2200.40-2184 17576 12970 4522-18611 6789
2206.18-2370 2375-3053 17047 3292 12213
2211.97-1843 13794 7839 19381 355 10774
2217.76 7886 21378 11841 31171 16322 20480
2223.54 9194 26939 18181 28751 22437 31825
2229.33 6371 717-17797 1763-6343-2468
2235.11-22766-19538-30467-6932-27447-26367
2240.90-25280-1452-11870-5941-20235-13863
2246.68-27221-15174-23450-6560-28735-14278
2252.47-16776 14-18162-14246-29686-15404
2258.25-26144-11195-20719-7803-24769-10267
2264.04-26023-18042-33428-21581-29744-19145
2269.82-31018-12971-16478-6104-27170-20662
2275.61-32810-20508-38696-19605-24009-10947
2281.40-30968-18955-31653-21590-33091-33376
2287.18-52039-26235-25554-12685-25668-15537
2292.97-29908-18882-36933-36532-52632-35098
2298.75-42966-40559-62561-38800-33017-31364
2304.54-43638-43058-66402-54469-68714-57775
2310.32-74042-58856-87423-69152-109222-93406
2316.11-117790-100456-134523-114562-145255-136722
2321.89-175601-154862-178623-174017-212262-211554
2327.68-240978-218370-239189-234716-255218-229223
2333.46-257973-261262-279370-259927-264307-240022
2339.25-252954-231566-226935-197232-201602-177547
2345.04-165965-117821-95716-63473-84423-95449
2350.82-128455-145650-201618-224492-264508-270913
2356.61-303870-310239-339313-330364-347669-340379
2362.39-349641-322539-315928-284844-286663-256466
2368.18-245441-219692-207252-173433-167726-127595
2373.96-117779-90642-86491-61748-63273-45656
2379.75-52643-35013-45312-31209-38509-23517
2385.53-37775-28919-35702-26014-43165-27728
2391.32-35791-20147-34648-13200-22120-15281
2397.10-39058-21406-28888-23935-40692-22280
2402.89-26855-16908-29528-20498-39226-23509
2408.68-36414-33401-41245-19004-34602-17500
2414.46-24691-13071-28714-20768-35111-26888
2420.25-43968-23813-34911-28282-44308-29585
2426.03-32973-22330-36585-23176-41094-31153
2431.82-39000-27356-44014-26986-36736-23276
2437.60-34403-35899-54097-38846-49878-38834
2443.39-48677-27777-35096-29778-42305-28990
2449.17-49145-35609-42334-24701-37502-30606
2454.96-44536-33572-48867-26871-28413-18670
2460.74-38426-29083-33502-19449-37389-28047
2466.53-41263-24026-33552-27620-39670-26338
2472.32-39173-29365-38339-23890-35739-32607
2478.10-56523-40394-44188-32240-32825-19486
2483.89-38140-22987-28471-14339-29173-21353
2489.67-33150-27077-35297-13633-26015-22388
2495.46-37621-22683-37732-26646-37044-19477
2501.24-24097-15534-28095-13868-28493-29525
2507.03-49414-37583-40830-24803-26659-12264
2512.81-33739-28002-38880-33859-49087-23841
2518.60-20894-20289-47830-34939-41248-29062
2524.38-38054-23005-26488-10254-25880-25647
2530.17-41560-22494-38227-33380-48064-35347
2535.96-43399-20127-26532-21416-35700-17444
2541.74-32512-24971-32844-20861-42211-24530
2547.53-29916-22496-44085-29131-38506-30771
2553.31-42154-26523-32547-21302-35928-27357
2559.10-44003-39466-45530-26479-49132-41506
2564.88-50125-38466-54075-40827-57430-40702
2570.67-44158-25753-41078-36155-54449-35681
2576.45-47983-37480-41000-29649-48985-37081
2582.24-50765-33133-42584-45400-66893-49554
2588.02-59552-48496-57603-43286-51793-38486
2593.81-58675-51186-59904-41521-59059-52020
2599.60-65018-50897-57594-51995-67837-51754
2605.38-63148-55796-68201-52716-59940-49301
2611.17-73188-57078-58172-43490-63415-56798
2616.95-70523-55693-60295-47934-64872-53485
2622.74-61078-55961-68543-47738-61004-53244
2628.52-62486-44958-60753-50865-64623-48979
2634.31-62165-49474-54652-41445-57814-41361
2640.09-53715-48154-59741-47025-45702-21104
2645.88-43333-43165-53485-44166-62839-42480
2651.66-63023-57878-59369-38247-48963-44726
2657.45-60301-29495-35284-37726-49491-41538
2663.24-64002-45751-52615-39386-46083-25509
2669.02-48183-49254-61539-37352-51870-48739
2674.81-62702-35470-38190-42266-59987-41416
2680.59-57805-47408-53076-38859-60937-43825
2686.38-53648-50006-53581-38899-52147-43114
2692.16-52992-37007-50220-47795-70219-59032
2697.95-63864-43142-49018-8364 2643 16038
2703.73-4426-28989-83959-80580-81642-57659
2709.52-47029-19951-38271-42742-71911-72235
2715.30-75157-52792-60790-44327-45537-32825
2721.09-54050-46098-56422-42031-55058-46269
2726.88-57567-39535-51369-40410-47277-31766
2732.66-42098-34702-57228-52907-64169-35869
2738.45-24011-15951-34810-31227-56751-47979
2744.23-56208-39864-50477-36271-53224-41598
2750.02-49126-41538-55440-40440-41364-29375
2755.80-52406-56112-60061-39166-41818-33705
2761.59-47140-30139-44681-31803-44082-45549
2767.37-71963-59022-55604-34215-51561-43342
2773.16-55179-37778-49738-38577-54095-49321
2778.94-67742-50316-55583-45824-55504-42278
2784.73-53578-38480-43131-30121-55916-60838
2790.52-66028-48001-67289-50241-50939-35619
2796.30-38836-31829-64474-59681-54575-38648
2802.09-60558-44803-54180-43602-53016-46342
2807.87-61706-44541-50535-38421-42980-26563
2813.66-45488-40091-54393-44509-56906-42282
2819.44-52136-47139-62735-52808-64926-50884
2825.23-54944-48016-49615-23708-38195-28653
2831.01-46253-45757-47583-35482-47956-24420
2836.80-31100-35448-64601-70825-90517-71522
2842.58-68403-26717-9203 28302 22060 2655
2848.37-39235-41349-63707-63202-67109-15511
2854.16 685-2748-60014-79899-95484-61912
2859.94-41147-9195-23796-21670-41219-36653
2865.73-48074-29210-36624-30680-42387-27068
2871.51-38547-24420-30422-14361-28233-18538
2877.30-30467-24018-34498-24087-40382-29356
2883.08-42415-29245-41367-26464-33384-8925
2888.87-19901-22780-40965-24869-42499-21636
2894.65-30492-24229-30606-8022-24532-20312
2900.44-31405-19534-27554-27505-47370-27346
2906.22-35987-17227-44648-36864-31604-11673
2912.01-29919-20241-19292-124-19394-26403
2917.80-50028-38633-44985-17296-24933-14367
2923.58-27241-10111-27150-13295-32254-24219
2929.37-38943-31219-30210-8222-16653-20539
2935.15-44176-15755-22016-18951-44335-29285
2940.94-31005-16350-33810-24903-28337-12474
2946.72-33189-30607-33127-20597-36395-17575
2952.51-32218-18614-26570-12540-22597-8580
2958.29-12903-17012-63128-34863-15325-2587
2964.08-27180-22201-26043-10340-23848-26893
2969.86-34457-14520-37649-29884-38127-16504
2975.65-6811 13503-7821-1522-17332-3945
2981.44-18048-14744-19182-9119-17871-10582
2987.22-37812-19146-16823-10548-35036-28239
2993.01-33433-19301-36211-18442-17290-6830
2998.79-23039-20815-27533-11069-23040-16580
3004.58-34514-16891-19159-8923-22611-9834
3010.36-29653-14772-14750-8864-30347-24625
3016.15-26930-11800-26304-22336-33696-14002
3021.93-31733-18378-22708-13521-21315-7433
3027.72-20810-11661-18379-11107-28764-17508
3033.50-21690-6090-13133-4733-22766 4135
3039.29-4507-1708-19197-14492-23842-4642
3045.07-11121 5588-5565-1012-13307-922
3050.86-27680-40239-49580-12536-18913-12251
3056.65-26393-9954-26414-18393-21812-26866
3062.43-52917-31281-39381-36480-40145-29026
3068.22-44841-19246-26981-26757-39004-22051
3074.00-35621-22518-29337-15865-29311-23844
3079.79-44636-34698-38874-27872-36942-32596
3085.57-52583-33165-28359-17282-38585-21392
3091.36-32633-18421-36521-37981-46274-23840
3097.14-28612-17636-35136-33596-55495-44021
3102.93-52801-32271-35729-26400-44177-34364
3108.71-40601-30054-33628-13024-22946-17194
3114.50-37598-20508-27265-34399-35652-3078
3120.29-23262-17856-26432-14174-37916-37906
3126.07-42515-24120-43034-29371-29605-26866
3131.86-48568-34488-42598-18764-9846 5814
3137.64-15732-17908-45371-31869-22118 2666
3143.43-2453-597-24000-16289-31411-22682
3149.21-32176-12729-17821-10616-23857-8038
3155.00-28977-23220-26616-14782-9543 2152
3160.78-19265-3947-12974-15600-24805-6066
3166.57-23604-3166-18314-11759-33491-22447
3172.35-21302-11099-25360 4290-3776 9852
3178.14-1957 997-13985-854-20042-3933
3183.93-18745-11357-15380-625-23487-16146
3189.71-29688-23826-20759-2129-5003 4402
3195.50-30029-40003-50292-18136-16692-3064
3201.28-29958-16201-18015-11625-43238-33856
3207.07-37090-31360-46075-22184-15160-15756
3212.85-31327-7798-17958-12613-41240-36040
3218.64-46928-53210-80104-54949-44757-7608
3224.42-925 9355-3539-15924-58362-47216
3230.21-51352-30473-34557-30148-44421-20295
3235.99-28238-11605-6737 10275-9012-8329
3241.78-23071-17758-53392-55201-81322-74805
3247.57-72170-50741-46252-16914-16727-10079
3253.35-35657-33745-22070 31134 29571 36688
3259.14 6034-15777-43416-35868-52473-46480
3264.92-53186-21073-26856-13982-20838 2932
3270.71-5675 8370-8471-3284-28945-20046
3276.49-32136-22997-35303-18202-13306 11443
3282.28 10298 25641 7209 24040 18628 9817
3288.06-22886-11110-13111 8667-5387 3093
3293.85-15379 7426-900-2492-6653 2657
3299.63-12953 10913 204 2571 6387 25805
3305.42 6806 16933 4301 19042 3974 24859
3311.21 11980 17785 1006 17099 1960 2075
3316.99-5850 4204 9829 22783-8863-6163
3322.78-8540 20514 28300 44678 16351 8531
3328.56-3527 9418-1386 7128-9277 6516
3334.35 3993 19854 12650 19907 4740 9661
3340.13-4927 4225-1159 17535 5967 15611
3345.92-10194-3772-10772 6136 1484 11316
3351.70-13139-11881-21080-11630-30783-16995
3357.49-23865-19132-23200-15745-38076-30646
3363.27-43701-34784-44955-27865-27980-9931
3369.06-22182-23278-40397-26048-33375-15089
3374.85-21138-11446-31980-28864-50039-35437
3380.63-48714-46631-52112-26553-34235-31235
3386.42-51229-29917-42685-34047-44831-43572
3392.20-45492-27207-45110-36529-50754-30031
3397.99-35560-22669-25205-9605-32882-33641
3403.77-47083-30165-41560-26555-44542-50203
3409.56-62092-31457-32783-22545-35250-26073
3415.34-30387-11414-21461-16692-39525-35854
3421.13-44682-19917-21212-9469-26593-19229
3426.91-34742-35254-38701-16687-33080-26268
3432.70-25414-8540-24560-25601-35133-8222
3438.49-17647-14478-29399-24697-44001-31891
3444.27-16431-4848-30488-14867-17885-1563
3450.06-5773 16695 9027 2938-13973 8737
3455.84-11998-4163-4353-2587-21520-10471
3461.63-17370-12603-29848 5918 16987 5209
3467.41-40151-24834-1918 23022-12095-27923
3473.20-31661 838 501 21221-5690-17054
3478.98-34761-9405 2347 11902-21524-19059
3484.77-16850 6918-2477-7679-21030-6407
3490.55-14317-13661-32504-8881-19245-20718
3496.34-35765-12457-14102-8263-40563-22761
3502.13-24024-17892-35063-11734-20036-3490
3507.91-23629-21046-18799-16505-30256-19376
3513.70-30194-11130-23685-16366-23186-26288
3519.48-53428-41204-39724-32187-44839-38066
3525.27-53276-37213-39975-18109-10515-9948
3531.05-36372-31227-31217-7802-34626-40578
3536.84-39996-31437-51854-28967-29677-21985
3542.62-30560-13110-23590-25864-37389-17916
3548.41-30523-33320-58896-42528-54397-53485
3554.19-70263-38656-34925-8339-22185-18379
3559.98-27429-11427-29223-32583-39577-41589
3565.77-62472-55602-58522-18794-18918 392
3571.55-5438 6447-16935-2221-4227-3897
3577.34-21098-13362-4907 13552 5682 28057
3583.12 21009-1793-64343-49973-49703-40865
3588.91-10774 607-2175 6785-10292-7918
3594.69-29392-14818-24984-447 13183 5731
3600.48-12151 5093-1952 18530 16845 4108
3606.26-36922-29962-63753-21598-976-25503
3612.05-38539-13575-23209-3661-25767-31776
3617.83-61510-60565-25886-2228-3790 12132
3623.62 5775 1784-27599-54729-139174-162965
3629.41-88682-18072-23801-27906-32347 16173
3635.19 9332 3426-20039-10048-5144 2204
3640.98-25003-12450-21018-22821-42151-69547
3646.76-83038-99644-134697-90713-77647-10372
3652.55-13458-14505-79100-95585-56795-19519
3658.33-19872 5023-3305 13705 5112 6732
3664.12-21697-10007-6774-47367-124654-147819
3669.90-195908-75408-42057-62010-155582-197582
3675.69-139117-45951-52074-50984-64566-35032
3681.47-37093-25045-36904-6868-24343-74483
3687.26-228984-176506-102965-84221-46602-12189
3693.05-36363-24905-29357-12268-35726-33932
3698.83-25375-19027-69339-38231-33961-31734
3704.62-51596-42345-43762-59524-114847-81187
3710.40-117709-155414-82640-27185-30041-23395
3716.19-47079-48797-62813-38088-37378-57795
3721.97-88255-59307-62420-59628-91870-44070
3727.76-32473-26787-63786-134876-144558-54705
3733.54-101533-115341-147129-104891-66393-30724
3739.33-47897-41458-60528-119540-336374-303716
3745.11-96221-45171-94004-213392-198895-98571
3750.90-251686-213586-80092-37103-48882-47508
3756.69-27739-20708-65952-37980-26944-17942
3762.47-22431-23232-68816-41254-29580-23157
3768.26-65218-66097-35144-1606-4115-3399
3774.04-12866-9549-26955-15104-34470-29973
3779.83-8027 29256 7723-13215-30776-8487
3785.61-25053-32208-39594 2316 16868 19642
3791.40-1726 4670-21294-51071-82492-48702
3797.18-37930-22697-69862-203560-180056-51284
3802.97-64792-59354-64676-95380-85271-35312
3808.75-37969 565-3771 204-41993-69539
3814.54-211870-213400-83006-29827-54201-119549
3820.33-163699-103332-59708-38982-39320-36473
3826.11-53387-40935-45164-27894-73228-97958
3831.90-61013-45006-91684-70380-128217-258876
3837.68-193260-86439-108267-89300-94437-106026
3843.47-85958-47032-56393-47852-59578-51959
3849.25-85743-172865-265480-264415-421558-272640
3855.04-99020-62498-69965-65537-87624-86602
3860.82-108055-85818-98039-132549-137479-69337
3866.61-77186-105904-208038-193998-106956-62587
3872.39-95499-108174-98136-76797-86059-80629
3878.18-109815-141538-134096-82454-87877-85793
3883.97-164002-205258-129454-78304-87178-83624
3889.75-134073-128122-95147-86381-99080-82988
3895.54-86833-84027-112082-136800-117665-130388
3901.32-150887-127946-166474-120557-95020-74866
3907.11-78602-66311-76716-70305-69973-65194
3912.89-80986-78444-103497-115898-110331-60639
3918.68-71977-65675-69421-69228-82564-73458
3924.46-91264-64985-59312-43792-66218-62597
3930.25-78114-87906-98826-83130-73579-37544
3936.03-40931-31685-44847-51043-55430-64787
3941.82-90426-53520-28317-13539-50568-54863
3947.61-49829-57232-79476-60190-57962-39927
3953.39-46767-47645-54373-33034-48044-40733
3959.18-56420-61114-72863-48560-47124-52809
3964.96-71651-50958-45292-41540-51769-31018
3970.75-42621-36273-36937-40251
##END=
