##TITLE=Sulfur Hexafluoride
##JCAMP-DX=4.24
##DATA TYPE=INFRARED SPECTRUM
##CLASS=IUPAC A
##ORIGIN=NIST, Analytical Chemistry Division, 301-975-3108
##OWNER=COPYRIGHT (C) 2000 by the U.S. Secretary of Commerce
##DATE=00/02/01
##$SPECTRA VERSION=1.10
##$UNCERTAINTY IN Y=2.0 % relative (B=1.0E-04,C=2.6E-08,D=5.6E-11)
##CAS NAME=Sulfur hexafluoride
##CAS REGISTRY NO=2551-62-4
##MOLFORM=S F6
##MP=-50.5 C
##BP=-63.9 C (sublimes)
##$NIST SOURCE=QUANT-IR
##SPECTROMETER/DATA SYSTEM=IFS66V (Bruker)
##INSTRUMENT PARAMETERS=KBr Beam Splitter; MCT Detector; Multipass cell
##STATE=gas
##SAMPLE DESCRIPTION=Sulfur Hexafluoride Primary Gas Standard
##PRESSURE=101.3 Pa
##TEMPERATURE=23 C
##SAMPLING PROCEDURE=1 L/min Flow
##RESOLUTION=1.9290
##DATA PROCESSING=3-Term B-H Apodization
##XUNITS=cm-1
##YUNITS=(micromol/mol)-1m-1 (base 10)
##XFACTOR=1.0
##YFACTOR=2.9103E-11
##DELTAX=0.9645
##FIRSTX=575.652
##LASTX=3974.604
##FIRSTY=-1.55E-06
##MAXX=3973.64
##MINX=575.65
##MAXY=.024479
##MINY=-.00001
##NPOINTS=3526
##XYDATA=(X++(Y..Y))
575.65-53561 78412 167173 120173 201068 356830
580.47 368444 260922 144166 69350 151821 275499
586.26 396629 514834 674061 876307 1168200 1497426
592.04 1980436 2628810 3431826 4289484 5283037 6379398
597.83 7512251 8557391 9606181 10549570 11299410 11724979
603.62 11828049 11469523 10716640 9605517 8316096 6959916
609.40 6254371 7470717 11543844 27478194 56682896 56170664
615.19 22610029 4857404 4535920 6425370 8534863 10599558
620.97 12434593 13966625 15016648 15586700 15632562 15257509
626.76 14408911 13266858 11911710 10466225 8895384 7390538
632.54 6015621 4835663 3778814 2889321 2096770 1491055
638.33 1053102 760899 511722 336904 207635 140053
644.11 62845 30806 3596-2342-18947-19463
649.90-32486-20318-20626 18261 39874 42848
655.68 16123 13954 738-11842-18871 14703
661.47 30106 57620 44275 10344-49090-153183
667.25-200086-115716-53357 3471 26734 33366
673.04 20622 24387 4187 1889 11466 19891
678.83 3986-1565-10702-5865-7779 11288
684.61 3702 17520 36921 25825-23749-44102
690.40-21873 29920 43977 45002 32004 41885
696.18 55186 59570 34092 26458 7600-1148
701.97 13292 49259 53731 39351 3072 6654
707.75 27722 30817 19953 35372 26158 14951
713.54 8301 22398 24961 36067 46346 45558
719.32 23970 10947-16600-7770 30944 53418
725.11 28668 26007 31446 38160 24525 13027
730.89 3202 6754 6252 18023 10695 14578
736.68 26207 36787 25695 675-23512-13647
742.47-16990-20009-13836 9602 7163 17403
748.25 31167 31292 2029-21600-22145-308
754.04-1318-4696-13900-17639-31028-20078
759.82-8430-10445-21267-5860 167-1181
765.61-20342-28872-30773-35877-58801-61859
771.39-54261-33345-17445-5535-11221-10412
777.18-27606-32168-28202-28457-46259-42289
782.96-37348-29524-28463-18318-20835-23287
788.75-36935-40851-28121-7068-12272-10788
794.53-9239-14020-51540-67138-49458-25223
800.32-26242-22066-22624-19883-19994-7823
806.11-9119-8250-11889-7162-11566-1881
811.89 9506 22289 11894-4879-26555-23474
817.68 8175 44846 27591 11256 11980 16018
823.46 1658 5682-600-11746-14538 18493
829.25 33182 27803 5696-16050-26648 666
835.03 18694 38184 43014 40277 24155 8058
840.82-6015 16284 38198 77670 122397 155005
846.60 144201 148809 171483 210089 250545 290061
852.39 291742 303912 317741 330591 331210 343273
858.17 351430 358591 337759 319976 306202 335616
863.96 417497 597932 927754 1409307 1890102 1968172
869.75 1249115 461106 215351 249793 318702 413835
875.53 509493 609059 687606 764525 822061 875527
881.32 893474 897609 888917 875071 828385 776560
887.10 699175 620991 534925 470398 403876 349444
892.89 277360 209654 150524 124565 95907 85627
898.67 69400 67423 50634 36808 21201 46102
904.46 66776 88382 96469 125837 143298 179262
910.24 207245 253417 302818 397857 504630 680179
916.03 956846 1412552 2106714 3213151 4848154 7208974
921.81 10353704 14279091 18722297 23329933 27747946 31784156
927.60 35148380 38378583 38440216 33992749 31314039 30639698
933.39 29957016 33234686 44280917 65354413 98648421 147115840
939.17 214824462 303492501 408456133 519511134 624266891 710140346
944.96 777808449 841123405 807874463 644955608 500809001 362264190
950.74 186540267 61252941 15527136 6309372 4225300 3088437
956.53 2350224 1846694 1524531 1282358 1137735 1013574
962.31 935450 862777 840106 822805 835304 838439
968.10 869667 905704 975606 1049214 1153514 1264359
973.88 1419108 1606738 1852762 2143690 2516061 2965563
979.67 3496469 4030023 4523628 4872948 4980395 4784093
985.45 4361790 3799762 3383034 3395951 3818113 4137415
991.24 3949824 3674687 3505813 3132783 2550593 1909988
997.03 1382958 1012672 772519 602789 482676 381921
1002.81 302547 230205 178453 140821 114134 79830
1008.60 54422 40124 37046 28437 26268 28273
1014.38 35095 25817 17336 14261 21195 27462
1020.17 33297 30844 34477 33683 28281 18718
1025.95 20335 29511 41926 41414 37442 32140
1031.74 31650 25359 19940 18348 18991 17783
1037.52 23278 21807 11197 6359 13871 13681
1043.31 8899 3957 5177 1589-5678-11971
1049.09-6881 8295 19373 13072 9774 14363
1054.88 16690 9762-574-13895-17244-7545
1060.67 5000 3839-884-4266-5478-6690
1066.45-10795-30032-40163-18593 9733 10314
1072.24-4934-12491-11045-12314-17657-15298
1078.02 1316 6416 2152 5453 10722 10749
1083.81 8923 5152 4744-4124-21011-33967
1089.59-33353-12547 4349-6927-21855-20736
1095.38-12573-10367-12711-11050-6641-15273
1101.16-27585-33281-31284-31292-35213-30959
1106.95-21117-15318-15279-15981-13956-11287
1112.73-6636-2771-5893-8322-1195 3489
1118.52-3387-7849-805 1483-4258-4965
1124.31-840 1197 3123 10059 20332 27133
1130.09 28311 29295 34217 44166 50420 48683
1135.88 45142 35948 22707 21539 21661 9479
1141.66-47-967-2373-1796 3468 2883
1147.45-6510-14039-17764-21891-26058-25905
1153.23-25372-27532-25266-12886-5173-5399
1159.02-8271-18167-25939-27057-27367-22116
1164.80-20652-24575-24303-22864-22855-18190
1170.59-13610-10871-8937-11656-15260-11163
1176.37-9223-14292-17905-15013-10635-3120
1182.16 383-4701-10106-10080-10132-2073
1187.95 6318 4146 4013 7839 4522 94
1193.73-602 1125 1381-4332-10477-2086
1199.52 3543-6556-13383-5728-892 2992
1205.30 9833 8961 5738 10543 10426 6662
1211.09 8860 12141 10712 15319 22540 24261
1216.87 17710 9605 3406 3171 9473 20552
1222.66 25661 22958 15310 8925-3499-13138
1228.44 522 22396 24875 17403 15409 22012
1234.23 26185 30498 41002 55137 68921 88034
1240.01 110290 139546 169173 189856 211478 246110
1245.80 279268 296641 303575 317243 344097 387255
1251.59 442052 499045 541675 552081 523995 446489
1257.37 359634 328496 325686 327553 332199 341894
1263.16 342154 319148 276687 231054 186067 145609
1268.94 107579 75332 47885 31894 21296 18622
1274.73 26573 33559 35373 44338 55191 58818
1280.51 64404 88326 91201 68012 54697 42265
1286.30 18834-4768-20446-23529-16483-7264
1292.08-7688-14215-18618-16719-13567-9547
1297.87-8179-4358-4264-7134-6892-6929
1303.65-11628-10552-4404 2685 8342 11237
1309.44 4289-3635-5688-3544-2848-6148
1315.23-14925-15990-15410-15685-13478-10004
1321.01-2255 7885 11080 10488 5286 1811
1326.80-456-2872-5158 2522 14382 15772
1332.58 7480 6331 10779 13946 12904 5684
1338.37-6725-13709-26349-42460-52842-48525
1344.15-39763-40334-47376-57543-75518-81385
1349.94-59541-925 105292 244013 345638 352257
1355.72 268471 145316 25116-69424-122741-125298
1361.51-105380-76468-38852-1477 20747 23306
1367.29 16098 21447 38787 59696 70474 70666
1373.08 68868 68589 57950 47100 49463 53612
1378.87 46610 45523 52739 66421 87943 113050
1384.65 143744 183026 191086 128497 36974 182
1390.44 7680 15013-3797-22931-6742 22365
1396.22 26444 10833 1655 17905 30709 27211
1402.01 12092-8479-18909-10282-2947 2642
1407.79 3166-2065-10598-12994-10973-8857
1413.58-11019-20515-36862-56315-107488-147954
1419.36-99613-38112-27746-34369-38954-28043
1425.15-15231-11144-20581-36055-43923-30999
1430.93-22221-21095-14884-21315-77232-122593
1436.72-77515-15114-344-1923-4363-2365
1442.51-3318-6780-8711-13737-33176-33233
1448.29-9630 1559-2747-953 188-8347
1454.08-46034-141822-197163-131284-58037-23088
1459.86-13048-8713-4190-25509-58582-42350
1465.65-7071 4726 6312-28-33669-93047
1471.43-131994-113140-62428-37634-38837-15175
1477.22 5260 8820 8792 9214 8453 7711
1483.00 164-5317-16087-31871-35989-42864
1488.79-66841-62213-27755-808 2985-22831
1494.57-92643-117004-74323-55947-40769-11008
1500.36-5138-7158-9854-50197-155495-241961
1506.15-227501-128075-51781-25853-21452-32354
1511.93-33202-19242-18503-35410-65658-65804
1517.72-48513-80755-161480-182299-119831-59198
1523.50-54481-71065-55840-37022-34042-21658
1529.29-14924-22757-46056-80750-79562-36673
1535.07-15081-28472-115640-239125-256012-187464
1540.86-148466-105010-56210-43388-20537 21482
1546.64 42132 45872 42642 55633 84036 97897
1552.43 69330 51621 104567 140177 73340-526
1558.21 12069 100887 269358 424865 485341 518092
1564.00 576181 651262 713136 757154 769517 810989
1569.79 913912 998223 1051286 1103036 1102248 1037281
1575.57 1070589 1229050 1327630 1359323 1381984 1407523
1581.36 1442111 1480027 1491255 1459527 1481419 1683475
1587.14 1665472 1304581 1118522 1144535 1193300 1203285
1592.93 1164795 1133393 1099615 1039116 953994 854837
1598.71 753645 664721 585575 511865 447710 401634
1604.50 360053 318390 278254 239324 202238 180546
1610.28 162163 133999 103081 81976 27268-86910
1616.07-122701-31627 31849 42828 42055 26554
1621.85-15548-31455 2130 28108 20758 8056
1627.64 17831 42947 55650 59181 60421 45118
1633.43-34156-112337-73061 3920 31907 40891
1639.21 38431 39505 38945 28808 1707-63170
1645.00-119686-99795-57589-23747-4593-47458
1650.78-213829-373466-323933-157616-50430-13202
1656.57-6763 2100 6976-704-29839-67774
1662.35-66735-34048-24354-19232-17313-52632
1668.14-101548-95500-70825-53212-37634-64927
1673.92-123807-111995-52432-26443-33555-46130
1679.71-44363-48868-101666-210103-296544-215437
1685.49-76555-33042-34144-30571-24141-15481
1691.28-10630-5447-41343-164778-209701-78640
1697.07 12360-56719-169829-119729 25104 80492
1702.85 77639 95326 129380 191982 300152 425390
1708.64 560822 737072 957467 1200072 1419950 1612800
1714.42 1807060 1910390 1935112 2045130 1969121 1579262
1720.21 1297155 953894 386202 49871-12347-16863
1725.99-24693-34065-49413-61125-59198-72853
1731.78-148149-227748-211127-112629-47851-39961
1737.56-66893-102191-90021-51374-49695-54288
1743.35-43962-30969-27245-34167-49039-52761
1749.13-71998-104568-79434-27612-11951-14250
1754.92-34675-46841-29094-7113-1271-21115
1760.71-50460-32058-5328-3784-7810-18667
1766.49-50371-60518-36258-38510-85740-128898
1772.28-106562-44474-26056-28866-25397-18518
1778.06-16798-20942-20975-8443-5208-19182
1783.85-32542-19314-2606 5784 8813 791
1789.63-22128-55013-81822-55813-18282-10647
1795.42-8671-894-7362-21428-23119-17615
1801.20-17040-10559-4665 1468 1452-6620
1806.99-11416-6349-8474-9071-7619-6303
1812.77-3078-1709-2160 3057 7681 7027
1818.56-3004-5704-2178 1572-192-14216
1824.35-26098-14265-7561-16541-36522-44554
1830.13-25992-8392-7844-5830-4791-6911
1835.92-11159-7705-3842-7463-16947-19938
1841.70-38311-83540-93806-53541-34018-34510
1847.49-36141-38143-39297-35571-37958-42104
1853.27-42742-42059-49746-58017-65412-71156
1859.06-68888-50463-37914-36952-43538-50881
1864.84-56145-59046-70045-86394-90648-72186
1870.63-64491-76387-96350-109646-121503-134022
1876.41-146799-159477-177094-185854-193346-214817
1882.20-236995-249040-263033-271998-282393-297837
1887.98-316729-318618-307104-299864-302084-305123
1893.77-312733-309080-290839-287592-319991-329848
1899.56-271054-197173-161727-122100-71579-57389
1905.34-76263-81352-74056-68244-64214-52932
1911.13-44533-42988-44135-38791-36072-48019
1916.91-65924-58076-41274-34681-37522-36749
1922.70-27858-19498-24625-36119-42740-40770
1928.48-40143-37517-35930-34895-34807-34412
1934.27-37526-35429-32702-26938-24070-29437
1940.05-39129-44962-42439-31210-32219-37748
1945.84-37139-27292-19691-17412-14687-8203
1951.62-8055-13288-17678-13661-13632-18624
1957.41-22165-19972-21021-22034-24168-27019
1963.20-28288-23057-21713-26347-29804-23102
1968.98-21636-26770-29486-20313-10529-8729
1974.77-9734-9927-14287-13228-14330-17374
1980.55-18314-10415-4256-5790-12530-16469
1986.34-20989-20917-17581-12585-17035-21525
1992.12-14704-7747-8950-6673-9068-10766
1997.91-6667-991-2186-1178 1259 2657
2003.69-2321-9418-20748-25022-18118-7193
2009.48-3719-4556-9098-9726-8843-8982
2015.26-12629-13082-13927-17784-23863-19730
2021.05-12264-7349-8966-11034-11590-5661
2026.84-3796-11022-16981-13241-10799-11328
2032.62-15543-17847-22205-22374-19517-18073
2038.41-21565-23391-27730-30778-31231-23707
2044.19-18586-15394-15444-20685-24353-18917
2049.98-19309-22936-24354-24947-30675-34340
2055.76-37589-37589-33468-23164-18602-20687
2061.55-25567-26972-26011-25738-29411-24597
2067.33-19908-23064-28808-29177-29606-28608
2073.12-30960-31362-31498-28755-32723-40070
2078.90-38990-26662-17113-21353-33156-30680
2084.69-19015-14814-26119-30866-23263-16029
2090.48-21951-24818-16708-2420-2757-13127
2096.26-19633-12212-6835-16621-23965-10535
2102.05 6603 2076-16923-14882 1958 2446
2107.83-15430-12761 9249 14105-11342-20474
2113.62 2479 22285 2120-17563-4714 19817
2119.40 11459-10222-3140 24441 21026-6018
2125.19-13308 8405 16066-577-6870 7743
2130.97 11148-2520-8355-1525-2156-7588
2136.76-15813-16386-10714-8506-12124-12828
2142.54-12473-10526-8562 2580 10074 3131
2148.33-6117-861 1748-1098 4420 16000
2154.12 12193 3154 11106 31725 25850 3477
2159.90 5253 22562 16057 6535 18599 27482
2165.69 8830 3707 28751 35178 5590 644
2171.47 25234 28128 10059 23295 42154 24462
2177.26 6963 21593 21760 934 509 18967
2183.04 20206 25454 38860 25860-8907-15840
2188.83 3116 13576 15864 24905 17525-2780
2194.61-8020 2331 2113 1712 11391 15715
2200.40 7781 11809 13810 475-8702-838
2206.18 1557-830 2818 9673 8856 6637
2211.97 4793 8533 12431 12619 6872 7028
2217.76 12089 15930 18422 23741 21153 16298
2223.54 15627 20915 22916 24503 26611 24473
2229.33 11283-3114-9786-4529-2737-8011
2235.11-17281-23648-22841-16144-22233-27813
2240.90-20065-8679-7570-10771-15309-18706
2246.68-21394-20296-17344-15100-20661-18950
2252.47-11788-7543-12711-19213-23002-21374
2258.25-20093-17041-15145-14681-17563-17215
2264.04-20247-23677-27243-26515-25056-24510
2269.82-24410-18163-12515-13003-20841-25526
2275.61-26930-27547-30539-25405-19240-18318
2281.40-23737-24865-26226-26661-29729-38121
2287.18-42887-32185-21881-18550-20153-21307
2292.97-23950-25381-32247-40925-45401-40937
2298.75-39648-46317-53327-43172-32607-34663
2304.54-40205-48629-58729-60777-62523-64471
2310.32-66322-68967-76401-82274-96511-103426
2316.11-107559-112383-122092-126346-135407-147937
2321.89-162423-165338-171020-183857-203072-219370
2327.68-229577-228267-232494-241367-244849-240892
2333.46-251421-265824-271174-265977-257440-248339
2339.25-245232-236284-220896-204792-195059-181478
2345.04-158132-123938-92086-74013-80922-100671
2350.82-124022-153983-194160-229315-257047-277275
2356.61-297558-315998-331053-336675-341805-344963
2362.39-341843-327812-310008-292197-279553-261248
2368.18-241598-223314-202137-179898-160113-134447
2373.96-113188-96042-81446-67702-58443-51394
2379.75-46822-41384-39550-36430-33123-30028
2385.53-32348-33022-31408-32186-35933-33506
2391.32-29948-27167-26621-20208-17545-22354
2397.10-30188-27424-25147-29221-33148-27764
2402.89-22867-22207-24229-26943-31628-30027
2408.68-32179-36837-34432-27313-27163-23381
2414.46-19810-19291-23080-26172-29605-33000
2420.25-35821-30905-30184-33745-37573-34166
2426.03-29095-28096-30183-30227-34698-35797
2431.82-34064-33877-36540-33270-31183-28849
2437.60-31351-40198-46889-44965-44513-44032
2443.39-41844-34109-31423-34313-36244-36479
2449.17-41635-40838-36500-31486-32516-35742
2454.96-38655-39824-40831-32514-24870-25192
2460.74-31969-32966-28806-26490-31044-33618
2466.53-34441-30138-29422-32132-33866-32317
2472.32-33814-34069-32854-29840-31568-38876
2478.10-48111-45364-40185-35643-29022-26480
2483.89-30748-28149-23541-20774-23809-26103
2489.67-28752-31005-28655-21001-21657-27200
2495.46-30835-29512-31599-31959-30760-24705
2501.24-20414-20555-22029-20221-24703-34173
2507.03-42669-41592-36244-29194-22359-19881
2512.81-27538-32305-34747-38886-40716-29058
2518.60-19792-26527-39393-39845-36632-34106
2524.38-32548-27617-21615-17107-21632-30023
2530.17-33923-30154-33016-38329-41835-40589
2535.96-36423-26738-22986-26293-28487-24822
2541.74-27030-29170-27802-28329-33773-30191
2547.53-26029-29117-36162-34934-34066-35510
2553.31-36109-31681-28109-27168-30439-33131
2559.10-38979-42809-39588-35332-42202-45957
2564.88-45056-44799-47356-47774-49991-45909
2570.67-38699-33146-35856-41914-46353-42746
2576.45-42514-41337-36939-36480-41920-43246
2582.24-43750-39248-39930-50126-58683-55922
2588.02-54365-53468-52090-48747-46384-45863
2593.81-52280-55673-53571-49353-53155-57061
2599.60-58921-55864-54058-57138-60832-58031
2605.38-58390-60711-61918-58186-55149-56977
2611.17-64623-61758-53800-50987-57207-61927
2616.95-64149-60527-55860-54445-58530-58151
2622.74-57512-60499-61216-55239-55750-57787
2628.52-56240-52371-54589-56668-57873-55617
2634.31-56137-54089-49914-48155-50489-47907
2640.09-49135-52506-54276-50487-40062-30705
2645.88-37832-46507-48574-50752-54214-51365
2651.66-56956-60596-54050-45145-44772-49879
2657.45-50657-37346-33243-40574-44682-48448
2663.24-55291-51836-47525-44473-39601-34627
2669.02-42722-52968-53577-45720-47087-53409
2674.81-54079-42047-36970-46009-52197-49156
2680.59-51536-51808-47955-46864-52435-50044
2686.38-50004-52481-49195-45030-46874-47864
2692.16-47039-43503-45924-53642-62914-63500
2697.95-57821-49611-39276-15092 4682 9155
2703.73-3507-35810-72472-83175-76066-61375
2709.52-42624-29133-34190-48429-65686-74162
2715.30-69482-59474-55109-48789-41601-40153
2721.09-47442-50867-50629-48280-49747-51326
2726.88-50932-46265-45908-44970-41972-37654
2732.66-37460-41354-51083-57246-56067-39972
2738.45-23339-21733-29418-37862-49272-52599
2744.23-50404-46123-44500-43279-46738-46358
2750.02-45130-46612-49164-44532-37740-36594
2755.80-47881-57420-54707-44425-38587-38840
2761.59-40315-37243-38311-37610-40660-51374
2767.37-63786-62296-50925-42429-45447-48503
2773.16-48500-44494-44080-44728-48993-54961
2778.94-60041-55759-51561-50541-50135-47987
2784.73-47575-43363-38505-38175-50955-62327
2790.52-60610-56050-59420-54848-46834-40068
2796.30-35528-40114-56642-61128-51273-46713
2802.09-52355-50808-49236-48419-48829-51616
2807.87-54649-50025-46011-42703-37832-34155
2813.66-39697-45031-48755-49878-50779-47908
2819.44-48155-52057-56954-58052-59107-55240
2825.23-51890-50800-43409-32222-32367-34723
2831.01-41949-47330-44021-41123-40269-31001
2836.80-29205-40943-59292-74756-82428-76101
2842.58-60190-32581-4075 19643 21382-2493
2848.37-30983-46454-58370-65804-56053-23124
2854.16-715-13348-51986-81074-85792-65754
2859.94-37565-18583-19222-26869-35661-40943
2865.73-41438-35149-32898-35122-36280-33231
2871.51-32615-29422-25075-21010-22657-23669
2877.30-25953-28297-29467-30203-34090-35144
2883.08-36276-35255-35088-31949-26299-16532
2888.87-16900-26986-33383-32613-34011-28462
2894.65-26330-27948-24039-16307-19388-24377
2900.44-26173-24197-24781-32472-38848-34218
2906.22-29220-27050-36914-38919-27609-19666
2912.01-23648-23225-14707-8049-15727-30792
2917.80-42534-43503-37399-25097-20004-20130
2923.58-20256-17879-19897-20757-25904-29670
2929.37-33796-33723-25334-14664-14339-25623
2935.15-33509-23547-18554-25524-35793-33845
2940.94-26609-23340-27814-28508-23533-20156
2946.72-27816-32837-29186-27037-28677-25143
2952.51-25634-23952-21255-18166-17040-13073
2958.29-11107-26156-48626-38187-14948-10219
2964.08-20725-25133-21413-16518-20827-29013
2969.86-28224-23590-30617-34317-31653-19987
2975.65-3414 4860-1339-7016-10753-10104
2981.44-13800-17238-15580-13577-13575-18195
2987.22-28330-23528-14636-17188-28244-31823
2993.01-28626-26191-28770-22713-14351-12566
2998.79-18657-23655-22246-17350-18314-22361
3004.58-26908-21828-15525-14501-16414-17126
3010.36-22167-18730-12390-14786-24441-27341
3016.15-22642-18191-21683-26540-26710-22169
3021.93-24749-22890-19072-17723-16229-13486
3027.72-15589-15683-14642-16745-22442-21596
3033.50-16936-11350-8900-11032-13255-3697
3039.29-895-6565-14049-18390-17510-10597
3045.07-5580-614-1419-5342-7520-9046
3050.86-23816-41359-40073-21726-14865-17439
3056.65-19506-17189-20813-21513-20851-31877
3062.43-43239-37936-36172-38798-36302-35233
3068.22-36065-26541-24105-30313-32522-28899
3074.00-29460-27475-24348-21926-24509-29858
3079.79-37973-38505-35023-32516-33256-38263
3085.57-44421-37163-25729-24427-30199-28119
3091.36-26498-25484-32235-40615-39657-29979
3097.14-24339-23943-30291-39228-48208-49201
3102.93-46244-37858-32019-32448-38062-38480
3108.71-36484-33813-28077-19684-18652-23258
3114.50-29699-25861-26251-34647-28370-13823
3120.29-17063-21886-21273-21837-32402-40196
3126.07-37094-32098-35927-33111-27739-32439
3131.86-40921-39992-35693-22728-7193-1889
3137.64-10756-23879-37009-34001-18279-3614
3143.43 204-6320-17163-21788-25839-27359
3149.21-25761-18361-14244-15599-17249-15934
3155.00-22966-26056-23050-16910-7207-4882
3160.78-11455-9513-10600-18073-18474-14159
3166.57-15082-11190-12697-18322-26392-25604
3172.35-18308-16959-16002-4068 1757 3975
3178.14 2091-3622-7495-8237-12135-10983
3183.93-13386-14814-10600-8642-16693-21175
3189.71-25228-25450-17026-6999-1326-4522
3195.50-24311-41801-41528-25130-12669-11790
3201.28-21236-20552-14921-19747-34638-37535
3207.07-34222-36241-38216-26235-15281-19571
3212.85-23136-15240-13478-20081-33874-40232
3218.64-44708-58345-69679-59368-38605-14136
3224.42 1084 4362-1975-22675-47567-51716
3230.21-45547-36129-31636-34886-36233-27492
3235.99-22521-15019-3204 2716-4067-12484
3241.78-17937-26517-45744-61150-74357-76903
3247.57-67789-54974-40618-23210-14078-16912
3253.35-29680-33798-13341 20043 33061 28895
3259.14 8964-18186-36067-41581-47100-50396
3264.92-44830-29341-21872-19074-13865-4375
3270.71 48 1373-2865-10353-21315-25328
3276.49-26969-28193-28904-21755-8523 5598
3282.28 14774 18236 14848 18856 19511 4285
3288.06-13788-15264-7345 848 324-3385
3293.85-6580 583 1509-4006-3169-3101
3299.63-4580 3473 3734 1597 10392 17719
3305.42 13544 11245 10790 12020 12051 17258
3311.21 16963 12224 8268 10262 5870-417
3316.99-1880 2397 12433 13754-1450-8692
3322.78-1841 15451 31402 35696 21308 6401
3328.56 2005 3946 3423 1320-2295 1885
3334.35 8516 14633 16477 14794 9517 4954
3340.13 458 266 4470 10768 11396 7836
3345.92-3045-7697-5275 1034 5518 4018
3351.70-7293-15112-16479-18035-23674-21887
3357.49-20728-21715-19984-22194-31494-35674
3363.27-38520-39514-38936-32225-23460-16377
3369.06-18872-27425-33606-31349-27466-20750
3374.85-16837-18142-26254-34765-42255-41792
3380.63-44668-49400-45359-33737-30729-36870
3386.42-42406-37519-37433-38651-41663-45314
3392.20-40691-34919-38859-42206-43120-36148
3397.99-30925-26737-20531-17752-27428-37441
3403.77-40335-36704-35329-33683-40973-52847
3409.56-53354-38511-29239-27806-30183-29786
3415.34-25001-17780-17359-22874-33526-39621
3421.13-37471-25892-17410-15822-20936-24458
3426.91-31006-37052-32994-24688-27716-28613
3432.70-21386-15399-20629-28560-27413-15962
3438.49-13959-18884-24701-30151-37582-32394
3444.27-15904-12540-21854-19711-13109-6555
3450.06 259 10270 10676-373-5552-463
3455.84-5559-6787-2869-7298-15123-14900
3461.63-13939-18030-19281 347 14625-1891
3467.41-28502-25137-60 11523-7346-27395
3473.20-24145-6474 6041 11498-1388-19736
3478.98-26174-13102 3488 3215-13981-20598
3484.77-11928 139-549-10217-15100-11514
3490.55-11458-18546-23622-16307-16152-24584
3496.34-27723-18331-11000-16604-30189-27793
3502.13-21134-23545-26360-19038-13926-11308
3507.91-18480-22103-17903-20255-24797-24593
3513.70-23528-18039-18901-19933-21309-31688
3519.48-45468-44329-37537-36754-40209-43261
3525.27-46543-41881-34584-21541-10559-15635
3531.05-29759-33611-25657-17825-29708-40634
3536.84-37491-37835-42917-34518-26869-26049
3542.62-24783-19129-20917-28763-30712-24848
3548.41-27217-38873-50050-49074-50529-58328
3554.19-60235-45405-29090-16874-17545-22059
3559.98-21717-18495-25590-34156-37756-45944
3565.77-56454-59025-49516-27452-13743-5516
3571.55-651-1279-8852-6434-2655-7900
3577.34-15945-14288-2137 7788 12290 21806
3583.12 20050-10338-49546-54011-47678-37443
3588.91-13802-2134 744 1237-5554-13570
3594.69-21655-20720-17818-3191 10436 3092
3600.48-4986-563 4149 13564 16471-2346
3606.26-26613-39525-48858-26554-7872-24164
3612.05-31003-21150-16350-12396-21398-37041
3617.83-55762-55335-27466-7057 180 7415
3623.62 7328-3504-25623-65814-128499-147093
3629.41-88977-31769-21949-29610-21586 4985
3635.19 11293-937-13181-12142-3428-5065
3640.98-16744-17361-18844-26309-43136-67535
3646.76-82751-104601-119086-99037-65495-24881
3652.55-10252-27232-69737-87293-56448-26984
3658.33-13932-2262 2679 7868 8434 123
3664.12-13599-12352-12874-55169-112781-156490
3669.90-163354-93839-47794-76060-145907-182072
3675.69-132072-64535-48477-55400-55414-42301
3681.47-32775-31122-27556-17052-26335-96283
3687.26-190566-175767-111672-81065-46217-23430
3693.05-28513-29358-23989-20724-30058-34096
3698.83-24040-30864-53142-44967-32621-36812
3704.62-45393-45326-44587-68341-97319-94896
3710.40-117771-136378-86016-37419-27011-29793
3716.19-41975-52399-54949-43230-39788-60868
3721.97-76543-66717-59284-67956-75992-52322
3727.76-31756-34579-68903-126217-125028-81470
3733.54-92185-121444-132489-107635-64999-41326
3739.33-41826-47555-63689-150250-292416-274923
3745.11-124145-59443-106809-191507-181081-146969
3750.90-214985-199861-95093-46129-46080-44940
3756.69-28819-31230-51622-42664-25969-21321
3762.47-20133-32885-54379-45911-28712-32756
3768.26-57201-61691-34066-8404-2553-6009
3774.04-9622-14358-20539-21816-29375-28170
3779.83-4204 18158 9222-13976-22654-16564
3785.61-22049-33757-29939-3631 16206 14435
3791.40 4375-1992-20707-52820-70149-54075
3797.18-36053-32608-85698-176861-161450-77853
3802.97-58986-62112-68670-89125-77407-46284
3808.75-28573-8880 82-9856-36119-92218
3814.54-186679-191826-96684-41996-60574-117025
3820.33-145075-107649-62555-43107-37757-40963
3826.11-47104-45291-39781-39806-69085-87904
3831.90-63972-56953-78219-84036-141967-224601
3837.68-186649-109874-98876-94769-94871-101324
3843.47-81887-56485-51747-52722-54787-59905
3849.25-92968-176609-244484-298803-364257-272449
3855.04-120796-69834-66704-71340-82170-92145
3860.82-99048-92820-100867-128981-123277-84425
3866.61-77728-120870-186864-183038-113513-76193
3872.39-91006-105213-95482-82955-82303-87309
3878.18-109644-135903-125439-93848-84254-100781
3883.97-157544-185438-133982-88958-83233-94484
3889.75-123317-124413-98806-90604-93214-87372
3895.54-84720-89718-111549-129037-123245-132449
3901.32-141634-141144-149624-126207-94346-80055
3907.11-74601-71297-72853-72230-68291-69664
3912.89-76663-84229-100369-114271-101298-72767
3918.68-67257-68571-67672-72680-77339-79766
3924.46-82105-70176-55967-51704-60288-67034
3930.25-76172-89093-93410-85492-67704-45596
3936.03-37370-36453-42884-51329-55474-68853
3941.82-78542-56967-28579-23505-43851-54120
3947.61-51259-60706-71273-64487-54009-45216
3953.39-44647-49842-48227-40736-42681-45940
3959.18-53353-63598-65594-53530-47233-56129
3964.96-63856-54642-44551-45039-45176-37870
3970.75-38399-38334-36547-42616
##END=
