##TITLE=Sulfur Hexafluoride
##JCAMP-DX=4.24
##DATA TYPE=INFRARED SPECTRUM
##CLASS=IUPAC A
##ORIGIN=NIST, Analytical Chemistry Division, 301-975-3108
##OWNER=COPYRIGHT (C) 2000 by the U.S. Secretary of Commerce
##DATE=00/02/01
##$SPECTRA VERSION=1.10
##$UNCERTAINTY IN Y=2.0 % relative (B=1.0E-04,C=2.6E-08,D=5.6E-11)
##CAS NAME=Sulfur hexafluoride
##CAS REGISTRY NO=2551-62-4
##MOLFORM=S F6
##MP=-50.5 C
##BP=-63.9 C (sublimes)
##$NIST SOURCE=QUANT-IR
##SPECTROMETER/DATA SYSTEM=IFS66V (Bruker)
##INSTRUMENT PARAMETERS=KBr Beam Splitter; MCT Detector; Multipass cell
##STATE=gas
##SAMPLE DESCRIPTION=Sulfur Hexafluoride Primary Gas Standard
##PRESSURE=101.3 Pa
##TEMPERATURE=23 C
##SAMPLING PROCEDURE=1 L/min Flow
##RESOLUTION=1.9290
##DATA PROCESSING=Triangular Apodization
##XUNITS=cm-1
##YUNITS=(micromol/mol)-1m-1 (base 10)
##XFACTOR=1.0
##YFACTOR=2.9103E-11
##DELTAX=0.9645
##FIRSTX=575.652
##LASTX=3974.604
##FIRSTY=-4.83E-08
##MAXX=3973.64
##MINX=575.65
##MAXY=.023441
##MINY=-.0000114
##NPOINTS=3526
##XYDATA=(X++(Y..Y))
575.65-1660 131180 272450 135400 226266 456248
580.47 416330 332928 235761 141690 262043 398138
586.26 504174 641217 800871 1003078 1325279 1630588
592.04 2108824 2745556 3546118 4353887 5305484 6371160
597.83 7480866 8440860 9463594 10374211 11110317 11502243
603.62 11678993 11335819 10739144 9691626 8728811 7476509
609.40 6951031 8110957 12447225 19095663 58962819 61166865
615.19 13687745 5076107 6449154 7069969 9164133 10696086
620.97 12507403 13740439 14814798 15204645 15310160 14878762
626.76 14122239 12957964 11723188 10317240 8842420 7351095
632.54 6077468 4911173 3909671 3029221 2269609 1634411
638.33 1236839 914936 679435 465826 348396 261580
644.11 180761 124733 111726 74915 72542 50133
649.90 41556 45824 38730 68066 102981 85049
655.68 65896 51082 58038 23056 20817 55404
661.47 63600 84759 90823 18120 22670-127372
667.25-179945-55590-25877 32468 56407 55359
673.04 42770 51431 33551 14794 46780 39679
678.83 31849 18567 16055 19599 10355 41239
684.61 25683 25940 72178 44762 3654-30489
690.40 2387 55753 65311 62289 51764 54162
696.18 78584 80558 48711 46652 35526 10496
701.97 34625 69773 73808 61035 20078 17156
707.75 60610 47580 32345 59703 47648 30768
713.54 28590 41897 48106 45805 72009 62186
719.32 40864 36653 3995 2516 57482 79660
725.11 40088 42482 53668 56093 47607 28783
730.89 26147 27715 24788 41903 32763 26676
736.68 52875 50515 53368 19462-7012 13820
742.47 8860 11 5016 39030 26107 31693
748.25 58267 50324 29336-6064 1510 26834
754.04 22235 16729 10218 9581-8778 765
759.82 23511 13203-1657 20057 26150 22975
765.61 7027-9467 1196-6888-30963-35572
771.39-22336-8116 11880 22747 11628 21473
777.18 486-8509 5767 4561-19569-11109
782.96-3675 859 2006 13136 12264 7398
788.75 1093-14373 6744 30731 18721 20132
794.53 24653 28008-14961-37749-6013 15705
800.32 10461 14554 18562 18265 17964 34092
806.11 31639 32030 29427 37153 30695 38985
811.89 53886 65975 59390 39645 24623 18015
817.68 54017 103666 72871 53862 65228 72255
823.46 48542 61493 58655 44284 35636 78776
829.25 95142 82041 71096 46446 31546 71845
835.03 82893 102260 112837 105773 97844 84261
840.82 63242 99838 114849 151871 199673 241570
846.60 219697 227059 258483 291580 331960 383865
852.39 372554 390605 411767 423832 426921 441292
858.17 453245 469614 449709 440825 433887 464023
863.96 553169 705045 1006302 1458418 1896742 2172524
869.75 1315445 488480 415372 440379 497559 585884
875.53 674631 776252 845160 930143 978758 1046598
881.32 1060946 1072274 1065597 1071415 1017397 991583
887.10 911509 858599 769003 732993 663108 637545
892.89 566375 522933 461573 472998 435256 462443
898.67 439129 477852 459019 489721 463328 545993
904.46 563643 641840 643431 748591 760901 881646
910.24 913606 1059523 1113619 1336814 1461808 1775216
916.03 2083317 2708749 3404173 4688633 6264691 8760061
921.81 11748889 15772318 19982316 24759988 28788434 33340793
927.60 35980711 39970744 41746580 35876351 34851890 36347324
933.39 35431223 40063839 51469019 73107143 105298462 152261265
939.17 215511162 300751568 398500026 505300918 600159231 686997226
944.96 729006745 805451866 803235679 590310003 483889670 374265119
950.74 179259838 65387584 29247550 20472006 13869613 11370446
956.53 8362286 7357431 5706113 5245262 4234163 4020119
962.31 3330346 3226553 2753817 2738587 2405011 2425188
968.10 2181483 2244296 2093091 2195080 2118115 2257176
973.88 2255460 2471832 2580585 2889051 3130958 3580085
979.67 3994200 4515179 4897796 5259548 5303334 5128348
985.45 4699824 4179420 3683145 3711586 4073453 4534758
991.24 4112064 3856276 3755720 3376838 2785744 2172079
997.03 1644066 1310763 1049880 892668 742777 650396
1002.81 542261 479391 397129 372330 320094 295434
1008.60 242044 240874 215387 215025 189989 200596
1014.38 192023 188755 160326 168679 156801 172401
1020.17 162671 165149 155125 164434 143390 141497
1025.95 128650 145853 147050 151610 135123 136786
1031.74 126356 128047 107729 117110 105582 109273
1037.52 105217 114566 88021 89742 92386 95932
1043.31 81799 81520 76387 79361 62147 62436
1049.09 56204 79237 84906 78724 66857 80472
1054.88 74732 72128 57116 47421 36315 51203
1060.67 60588 59641 48879 50828 43691 45289
1066.45 41874 24127 1195 32233 58510 59886
1072.24 34434 34650 31909 35998 24024 25014
1078.02 44757 51229 36295 47610 48215 49552
1083.81 45953 41142 41260 36461 12839 6888
1089.59-2930 24355 42821 27389 7029 14613
1095.38 20017 24209 16879 18787 26876 16006
1101.16 1557-1871-1504 3355-9165 93
1106.95 6817 15133 10917 12098 12529 16356
1112.73 17596 26198 18915 15671 23099 31984
1118.52 19939 14249 24453 28465 16826 19405
1124.31 22927 25797 24396 32816 41513 50199
1130.09 47688 50758 51949 64545 69951 66165
1135.88 63225 58188 37307 41071 44323 27797
1141.66 17400 20829 16451 15700 22265 23236
1147.45 9860 4492 774-2019-9065-6639
1153.23-6514-8516-11183 6049 11996 8371
1159.02 10164-2408-11231-7354-13882-4195
1164.80-3240-10411-8230-5516-9234-2148
1170.59 1612 2789 6357 3847-3614 4205
1176.37 6402-148-5124 907 1554 10717
1182.16 14990 8647 1254 6396 935 10002
1187.95 22712 14284 14840 22341 16253 11632
1193.73 11844 13021 14434 10170-2568 10778
1199.52 19631 4753-4673 9525 11452 11748
1205.30 23842 20571 13647 23731 22724 15686
1211.09 20039 25511 19429 25566 33357 35315
1216.87 27826 20636 14523 14428 19147 32091
1222.66 35747 33742 24095 21606 11401-5835
1228.44 11541 38087 35949 27710 25537 35790
1234.23 39114 41509 53424 68641 79268 100431
1240.01 119742 147856 180700 197328 215653 251619
1245.80 286824 302113 307651 321468 347803 386956
1251.59 440633 490540 536976 539293 523428 449533
1257.37 348430 337845 332220 332572 333251 342223
1263.16 344838 320393 277514 235469 191859 154903
1268.94 116911 88176 58581 45388 35132 27712
1274.73 39608 45360 42841 52473 64392 68257
1280.51 61854 97095 102090 64129 62820 49928
1286.30 27020 3268-10692-14989-7588 2349
1292.08 1066-7022-11405-8053-6691-781
1297.87-2731 2905 3946-2479 462 1490
1303.65-5725-4403 2902 8334 13273 18320
1309.44 10131 795 817 2607 3091 2465
1315.23-10999-8930-6771-11139-4622-5478
1321.01 3127 14486 15182 16372 9840 6964
1326.80 5846 3871-383 5952 21858 21598
1332.58 10617 9913 16796 17383 17652 11888
1338.37-4994-5726-19072-35260-46161-42313
1344.15-28853-33589-39493-44409-63700-70078
1349.94-46202 3104 99154 234964 337078 339200
1355.72 256393 139310 30602-57077-111801-107026
1361.51-89010-67276-29902 4372 27170 28692
1367.29 18054 25137 42308 63193 74354 71565
1373.08 69670 73430 62942 47237 54450 61693
1378.87 49878 49475 59674 67766 92410 112579
1384.65 137175 176725 195924 133241 28069 4850
1390.44 16407 26070 6387-25095-697 30737
1396.22 32266 14707-550 23581 35910 28326
1402.01 18060-4987-17733-2293 109 6187
1407.79 7101 1492-7692-10597-6822-6835
1413.58-7799-16238-37065-44217-87763-162634
1419.36-85030-22345-28704-29208-40126-23755
1425.15-12439-7429-17259-31139-45327-24278
1430.93-17017-22449-14730-7975-62985-137575
1436.72-65215-916-2242-155-4557 219
1442.51-530-5412-7845-4293-32254-36126
1448.29-711 3864-3733-2735 3832-13990
1454.08-22471-131423-213173-105775-49687-20488
1459.86-11320-14164 2391-15948-66420-40607
1465.65 4021-109 7122 18-22026-89314
1471.43-127254-109800-49409-25618-48088-9150
1477.22 9481 6783 10521 9374 8832 10420
1483.00 392-4400-8869-34218-31903-29994
1488.79-67655-62314-21912 1560-917-5696
1494.57-92289-129846-45744-58576-43835-3461
1500.36-8019-12852-10730-31732-147420-236071
1506.15-225464-108902-40505-32264-14353-36840
1511.93-35288-14774-19020-26961-69580-69032
1517.72-37669-61103-161775-185038-105095-48052
1523.50-44576-81092-48305-29354-37812-18818
1529.29-11226-23092-34378-80539-85291-23699
1535.07-20181-18755-88837-246015-249667-149366
1540.86-143117-102650-33440-45561-20229 32575
1546.64 43817 53260 44085 58072 88433 111368
1552.43 80900 39858 113883 170479 88784 1818
1558.21 45059 101344 281029 446677 478823 512171
1564.00 569482 653769 703500 763140 765569 788058
1569.79 920354 989023 1031804 1089639 1119185 1015765
1575.57 1034425 1247231 1311927 1335670 1363205 1386138
1581.36 1417265 1462944 1470048 1460917 1375600 1675894
1587.14 1732719 1198580 1109481 1149793 1185776 1202742
1592.93 1137964 1119027 1086710 1025621 943614 848156
1598.71 749101 664836 590129 517793 451515 409885
1604.50 368456 324962 286381 249096 207510 187528
1610.28 172668 140512 107143 86566 64138-80844
1616.07-134137 3808 41924 43613 44796 39770
1621.85-9921-36149 16186 36126 27168 7631
1627.64 19856 48918 56336 58011 55798 58075
1633.43-14283-132648-59939 22451 26803 44625
1639.21 34442 37362 40606 23592 12440-52696
1645.00-130649-86326-53459-27824-8567-24594
1650.78-183816-394381-307572-127393-44472-13728
1656.57-13601-684 6695-1867-20304-72246
1662.35-68557-21254-25825-23713-9301-41942
1668.14-111276-87122-60777-59209-28705-48024
1673.92-133542-113979-35287-28143-29722-52939
1679.71-44398-41910-89851-179989-314349-206423
1685.49-39963-38957-33704-30870-21650-14945
1691.28-8933-11826-2837-157885-237012-46953
1697.07 39194-27199-186935-117017 69446 91064
1702.85 82185 112106 148764 199952 319189 438686
1708.64 562294 730748 941222 1173953 1389596 1542148
1714.42 1751585 1870491 1798241 1966937 1988859 1418930
1720.21 1263478 1033015 326073 67664 42020 17574
1725.99 2614-13131-29568-51838-47862-48214
1731.78-125154-222279-206188-88895-36509-38815
1737.56-52642-107035-88222-33191-48414-54271
1743.35-39314-28321-24566-29307-50259-49010
1749.13-51742-115559-75402-13891-16144-8663
1754.92-31475-52365-23095-6548 1160-10869
1760.71-62354-27690 2949-8334-8015-11798
1766.49-48527-70583-24039-32408-75598-132392
1772.28-108551-25706-26366-31515-23170-18860
1778.06-12832-21009-22524-6699-973-16534
1783.85-36427-16738 1089 2019 10454 1128
1789.63-20157-44532-88806-51988-5989-14532
1795.42-9659 691-2808-25059-20482-13367
1801.20-17729-8391-4015 1115 4980-6919
1806.99-12976-1654-7862-9428-3524-8304
1812.77 478-1390-2048 3199 8142 9687
1818.56-3981-6501 448-300 4104-11904
1824.35-31467-9834-4920-14534-32214-49739
1830.13-20536-4503-9986-5806-3918-6346
1835.92-12212-8882-2135-7637-19103-21756
1841.70-23874-86321-100731-39756-32253-36943
1847.49-33937-38446-39680-34172-36234-43691
1853.27-41983-40339-48525-57926-61674-69301
1859.06-70621-48384-36326-39166-42917-53105
1864.84-56060-58863-66662-86162-95290-69222
1870.63-63080-77828-97938-110054-119105-134183
1876.41-145191-156179-176044-186852-184795-213907
1882.20-235008-241965-259926-266520-275913-289538
1887.98-311553-314453-297736-293409-297331-297113
1893.77-306222-307388-282644-271978-309823-333615
1899.56-262413-181804-164978-131737-66905-57203
1905.34-84123-84058-72124-68587-66079-53895
1911.13-43490-44556-45791-41021-33727-44422
1916.91-70788-57091-37304-34976-36435-40006
1922.70-27079-19298-23087-37730-42509-38699
1928.48-39290-37155-34208-34921-34148-32301
1934.27-38066-34145-31984-28229-20778-30183
1940.05-37005-44124-43644-26417-30546-37974
1945.84-36203-26808-16510-18926-14894-8108
1951.62-6638-13601-18967-12658-11327-19242
1957.41-22062-18393-19813-22184-21608-26586
1963.20-27934-22063-18808-25549-31017-20831
1968.98-18496-26499-29093-20736-6564-10349
1974.77-9654-7881-15722-11828-12388-16807
1980.55-18444-10425-1865-5996-12448-15063
1986.34-19803-20294-16809-10533-13682-25144
1992.12-11694-5338-10759-4685-7501-12227
1997.91-5540 710-2451-1971 1769 3102
2003.69-2210-7690-18853-25900-15948-5796
2009.48-2917-4205-8726-10236-7105-8311
2015.26-12040-13101-11733-15694-24187-18934
2021.05-10350-6676-8027-10974-11627-6377
2026.84 116-12261-17306-12137-9495-10686
2032.62-15392-16395-21003-22915-17387-16950
2038.41-21396-21846-26214-29135-31214-22095
2044.19-16878-16912-12304-21022-25654-16750
2049.98-17441-24307-22952-23260-29805-33073
2055.76-35174-36581-32985-22131-16412-21439
2061.55-24154-27549-24333-23371-30359-24805
2067.33-16410-23460-28583-27752-29048-26637
2073.12-30430-30049-31186-27355-28642-41377
2078.90-37328-27214-13216-19885-34246-31552
2084.69-16772-11201-26443-32312-21581-12107
2090.48-21672-25291-17654 178-970-14055
2096.26-19974-13390 68-17809-24453-12823
2102.05 12008 4376-19650-18028 6934 6960
2107.83-18309-16710 12525 20957-13877-24875
2113.62 2298 31711 1230-22419-6322 26672
2119.40 15222-16109-6951 30354 25791-10304
2125.19-16903 11121 23511-5057-9288 9451
2130.97 16813-6155-9354 1740-1550-6079
2136.76-14592-17454-7024-7402-11245-11825
2142.54-10962-8248-9581 2124 14119 3358
2148.33-8647 1039 6064-3470 3841 19105
2154.12 14905 171 7614 36124 30939-3232
2159.90 3309 29701 17857 64 19846 34782
2165.69 7957-4955 33420 44197 61-5888
2171.47 32893 34199 1369 19694 53235 22331
2177.26-1701 26638 29309-4297-2018 26900
2183.04 18539 18410 44329 29992-12373-19036
2188.83 10537 14659 11386 27143 21801-6325
2194.61-8838 7417 4086-1961 13564 19525
2200.40 3313 11159 19550-740-10878 2625
2206.18 4809-2962 3872 11327 9256 6971
2211.97 5026 8310 13786 13786 7104 5733
2217.76 14666 15616 17109 24917 21812 14927
2223.54 15391 21116 23455 21701 26712 24602
2229.33 12034-3564-10328-3128-270-8184
2235.11-15165-23293-23461-11366-20058-30538
2240.90-17960-7354-6647-11974-13570-18938
2246.68-19746-20294-16898-11840-21696-19746
2252.47-10342-6990-11867-19823-22054-20619
2258.25-18996-17319-14265-14015-18494-16192
2264.04-19361-23462-25988-26824-22583-24400
2269.82-24174-19171-10987-13012-20761-26269
2275.61-25563-25635-31422-25492-17913-17670
2281.40-24904-24817-25137-28077-26072-37873
2287.18-44275-31300-19955-20087-20476-22284
2292.97-24678-25573-30789-41761-45604-40858
2298.75-36985-45486-55742-44907-27730-40314
2304.54-38035-50079-59247-61452-60706-66656
2310.32-65938-68544-79369-78493-99239-102817
2316.11-107002-110474-124035-124648-134601-145590
2321.89-164072-163503-167805-182607-199728-216639
2327.68-227695-223747-226715-239797-243577-234196
2333.46-246090-264247-265034-262106-252267-243084
2339.25-241478-234846-216717-201958-192478-182541
2345.04-159008-127878-96105-78926-85994-108991
2350.82-126319-154492-194442-227804-253016-272117
2356.61-290808-309429-324714-328582-332407-337995
2362.39-334151-320996-303209-285223-275421-258083
2368.18-234846-222918-198385-177394-161078-133601
2373.96-112853-98592-82375-70248-59604-53969
2379.75-48752-42830-40931-38773-34080-31034
2385.53-32675-36130-29989-32663-36892-33988
2391.32-29588-26825-28834-20798-16852-22205
2397.10-32643-27703-22476-30051-33822-28277
2402.89-20910-24008-23683-26344-32929-29320
2408.68-29091-38956-34059-24592-28594-24046
2414.46-18873-20265-22605-27184-28274-32151
2420.25-37137-29474-28534-33891-37001-35235
2426.03-26519-28696-30681-28794-34401-36747
2431.82-32180-32821-37579-32359-30847-30032
2437.60-28175-41207-46671-43173-42684-43523
2443.39-41902-33791-28956-36133-35818-34163
2449.17-42103-40575-35589-31015-31167-36463
2454.96-37377-38092-41703-32564-22761-25167
2460.74-31864-34558-27184-25463-31273-32971
2466.53-34709-29640-27336-33248-33219-31522
2472.32-32785-34604-32146-29907-29939-37037
2478.10-49082-44051-36741-37875-26853-25007
2483.89-32240-28129-22861-20448-23522-26967
2489.67-26294-31990-29079-19598-20436-28030
2495.46-31024-27558-31127-31326-30390-25199
2501.24-18494-21627-22937-19878-22977-34010
2507.03-41834-41132-33791-30346-21825-18377
2512.81-28363-33105-31934-37741-42106-29553
2518.60-15923-26249-41153-38750-34225-34011
2524.38-31445-28612-21252-17219-20317-31089
2530.17-34955-27769-31692-38413-40155-39680
2535.96-36476-26358-20633-27710-29483-23275
2541.74-26076-31161-26248-26399-35555-30373
2547.53-23722-28458-37413-34249-31672-36113
2553.31-35345-32179-26855-27618-30275-33096
2559.10-36835-44661-38977-32143-42586-46893
2564.88-42591-44111-46890-45725-49682-46186
2570.67-37609-32872-34934-41788-47358-40876
2576.45-40942-43826-34586-35985-42766-42224
2582.24-44421-39756-36348-50827-59293-53834
2588.02-52362-53847-50578-49195-45832-44523
2593.81-51878-56319-53162-47246-52720-57083
2599.60-57809-56497-50971-57339-61069-56809
2605.38-56358-60977-60889-58347-53636-54553
2611.17-65859-62137-51744-49907-57019-61580
2616.95-62954-60856-53939-53543-58416-58953
2622.74-53977-61079-61702-53026-54320-58850
2628.52-55602-50795-54148-56228-57487-54206
2634.31-54945-55226-48014-47209-51719-46942
2640.09-47078-53457-51875-52342-40321-28260
2645.88-37979-49446-46101-49383-56305-47345
2651.66-55336-62695-51719-44584-42627-49609
2657.45-53840-35763-29740-45004-42631-46395
2663.24-56674-50515-45291-45691-40334-32573
2669.02-41657-54449-53964-43068-45146-53589
2674.81-55445-41915-32223-48671-53060-46227
2680.59-50841-52951-46506-44132-54754-48829
2686.38-46555-55492-46840-44465-46070-48330
2692.16-46841-43031-44105-52635-61689-62444
2697.95-55320-46998-42880-16315 4303 3723
2703.73-2174-34587-74415-80676-71120-61944
2709.52-41990-27872-34708-48338-63607-74892
2715.30-66667-56878-54307-50176-40217-39146
2721.09-48055-51045-49635-47413-48339-51199
2726.88-50848-44679-44961-45931-41130-38052
2732.66-36850-40240-50209-55824-56287-41605
2738.45-19513-24212-30325-36493-49725-52050
2744.23-48889-45071-44495-41525-46967-46795
2750.02-42736-46363-48927-45462-36608-35214
2755.80-46135-59638-52582-44232-36396-39478
2761.59-41720-35603-39437-38342-38189-50349
2767.37-63420-62791-48661-40447-45601-48794
2773.16-48489-43625-43801-44780-47548-53903
2778.94-60275-54881-48782-51317-49054-47390
2784.73-47419-44336-38444-36539-49278-65062
2790.52-58339-51874-60549-54711-44565-42555
2796.30-34411-37618-57328-63818-47499-43974
2802.09-54671-49531-47729-49332-46479-51049
2807.87-54816-49175-44045-44309-37760-32890
2813.66-40190-45359-47739-49147-50533-47496
2819.44-46105-51980-55991-56417-57907-55201
2825.23-47795-52729-44120-29373-34344-34362
2831.01-39817-50628-40760-40131-42929-30877
2836.80-26919-41781-56756-72464-79593-72164
2842.58-59617-32062-6785 16200 22453-6437
2848.37-33033-44663-53738-64559-58679-23201
2854.16 1977-12171-52539-80067-82964-64400
2859.94-35327-17355-20218-28343-34586-41050
2865.73-41066-34409-30354-36053-35766-31940
2871.51-32145-29855-24752-20500-22868-24548
2877.30-24202-29786-28056-29449-33681-34286
2883.08-35219-34258-34018-31660-27299-16287
2888.87-14143-29202-33564-29312-35610-27197
2894.65-23423-30158-24478-14350-19065-26167
2900.44-24671-25943-20893-32784-39702-32012
2906.22-30010-22641-36998-41706-24498-17932
2912.01-23715-26154-13946-7939-14113-31686
2917.80-41172-42003-37145-23286-18721-21235
2923.58-20907-16500-21303-19304-25652-29334
2929.37-30838-36054-23479-15508-11186-25853
2935.15-37165-21176-16321-24754-36684-33925
2940.94-24375-22236-27221-30203-22401-18351
2946.72-26583-35749-25759-25791-30138-22493
2952.51-25736-24142-20074-18653-16505-16223
2958.29-7731-21052-54564-38186-9415-9904
2964.08-21472-26938-19950-16363-17531-31825
2969.86-27887-18934-30984-33316-29848-22030
2975.65-2025 5857-3682-7183-11762-9338
2981.44-11816-20143-12656-15060-12588-14971
2987.22-31232-23925-11169-16485-28292-32277
2993.01-26553-23456-29797-23338-12026-13064
2998.79-17128-25527-21212-16381-17453-21111
3004.58-27715-21832-13154-14959-17147-14514
3010.36-23464-20137-9315-14630-23836-28894
3016.15-20567-17327-20178-26894-27284-18283
3021.93-25583-23286-16241-19019-15677-12683
3027.72-15188-17042-12569-16004-22107-21858
3033.50-15106-12089-7356-9855-17129-1772
3039.29 445-8215-12285-19001-16893-9787
3045.07-5962-1161-530-7565-8381-7197
3050.86-20230-43184-41057-17323-13699-18455
3056.65-20763-15397-20645-24854-15677-31363
3062.43-46017-34755-32352-41606-32989-33225
3068.22-38884-24610-21145-32415-32327-26833
3074.00-29471-27916-23613-22047-23987-28736
3079.79-37788-38954-32136-33450-30745-36709
3085.57-45055-37988-22359-23455-32811-26548
3091.36-27086-24529-29622-42451-38755-29255
3097.14-23504-24340-29350-38197-47707-47235
3102.93-45347-37326-29995-31754-37685-38690
3108.71-33482-34817-27844-19037-18305-22244
3114.50-31735-25754-19948-39295-29431-8672
3120.29-18694-23802-20768-19945-30963-42104
3126.07-35314-28450-36614-34660-23185-31829
3131.86-41254-37320-35141-24425-5520-2066
3137.64-11398-21964-37091-35013-15727-4622
3143.43 1269-7097-18301-20617-24359-26664
3149.21-25330-18056-12104-16222-18555-12583
3155.00-22736-27184-19185-20312-4476-3569
3160.78-14481-9530-6453-21248-17754-11063
3166.57-17851-9063-12269-17114-25242-27540
3172.35-13350-16364-18881-1545 1274 2079
3178.14 3947-5745-7521-6239-13853-9328
3183.93-11809-17182-9410-6338-17829-20465
3189.71-21992-28315-14108-8882-1511-2444
3195.50-23130-42714-41053-23123-11614-9625
3201.28-23835-22268-12344-17366-36282-37815
3207.07-29509-35183-38880-27603-9488-21993
3212.85-25806-13751-13814-18708-34804-40980
3218.64-38716-55535-69785-56115-37658-14845
3224.42 2009-752-13-21232-50233-48968
3230.21-43011-35655-27662-34866-37403-24612
3235.99-21936-18212-2382 1927-4860-15514
3241.78-17965-23307-46490-57211-70573-75858
3247.57-61906-53843-39639-23190-12498-16209
3253.35-27446-36730-15838 22695 29609 25814
3259.14 10271-21256-34596-38701-42804-48962
3264.92-44339-25733-19987-20017-14249-4008
3270.71-590 651-3015-9159-21548-24272
3276.49-23866-26697-26574-22214-6420 4704
3282.28 14439 18629 11548 16174 23428 3744
3288.06-14796-14517-5875 2720 470-1727
3293.85-9063 2067 5624-8413 441-1615
3299.63-7078 6184 6857-3256 12589 19292
3305.42 12145 11139 10763 13404 9860 18446
3311.21 17558 11934 6835 11875 8190-2498
3316.99 1781-989 14679 17389-2535-8734
3322.78-920 14638 31176 36571 20766 3670
3328.56 3587 4843 4703 2949-2610 2207
3334.35 9679 13663 17288 13755 10195 4716
3340.13 1848-493 4857 11348 10484 9845
3345.92-3782-8142-3862 121 6069 5006
3351.70-7363-16542-14491-15707-24560-21218
3357.49-17421-24591-17500-20571-31949-34114
3363.27-36353-38100-37541-32148-22521-16356
3369.06-16936-28244-33277-30127-27022-21186
3374.85-16130-18163-26172-33421-42861-39707
3380.63-40667-50663-44547-32234-28500-36390
3386.42-44693-34311-36531-39389-37158-48375
3392.20-38590-32288-38903-40518-43508-34765
3397.99-28986-29047-20180-16448-27018-38351
3403.77-39609-34778-35599-32184-37100-53351
3409.56-53715-35570-27188-28353-28823-30996
3415.34-24574-17604-16774-22234-32491-39022
3421.13-37223-24813-16374-15596-21565-24189
3426.91-27631-38974-32156-20893-27125-30765
3432.70-19706-14314-18795-29487-28905-13169
3438.49-12992-19881-23352-27806-35929-35884
3444.27-10451-10005-24715-18421-11510-6752
3450.06-1038 9391 13610-2894-8555 4399
3455.84-6555-9708 1653-7876-15094-14761
3461.63-10721-15764-23365-588 20445-556
3467.41-31873-27718 3064 15391-6290-31093
3473.20-22947-4065 3935 13709-441-20657
3478.98-26138-14151 6667 5627-15514-22237
3484.77-10700 828 2146-12885-14771-11497
3490.55-8477-18064-26118-13795-12869-25510
3496.34-28113-18154-8653-13778-33347-27394
3502.13-16663-23203-28219-16477-15196-9130
3507.91-17690-26431-12302-21678-24274-23092
3513.70-25023-15824-18869-22236-18017-30140
3519.48-46391-43999-33225-36652-38702-40848
3525.27-46389-39738-33901-24094-6768-16028
3531.05-30444-34679-26395-13015-29011-44851
3536.84-32583-34770-45400-32740-23889-27313
3542.62-25337-18989-18169-31030-31301-23726
3548.41-24987-38023-51167-46453-45895-56457
3554.19-60946-42238-29331-15374-17276-24390
3559.98-22280-17155-23705-37743-32276-45008
3565.77-53258-56558-50230-22964-14014-6715
3571.55-1305 617-11903-7479 968-8785
3577.34-14267-17144 472 7816 8152 19347
3583.12 22502-5363-56770-47836-40129-43980
3588.91-4987-5474 413 1619-6525-10996
3594.69-23482-16533-18937-6134 17525-455
3600.48-7014 1044 2233 10316 20216-2475
3606.26-30457-29522-55720-26235 5335-31985
3612.05-31712-16949-20065-8749-22124-33731
3617.83-52248-61535-19585-7886-2988 4837
3623.62 5777-5930-26100-53760-123256-155900
3629.41-76746-23556-21597-32338-28339 9275
3635.19 10734-3585-14473-15701-1245-3738
3640.98-21634-17493-17581-29602-35596-74292
3646.76-72060-98621-121263-89394-70592-19555
3652.55-12785-22299-68114-96885-45651-26013
3658.33-16538-2825-556 4160 7718-2063
3664.12-17068-21954-1861-56957-110657-141424
3669.90-180350-80427-39482-72677-137852-194097
3675.69-123638-53221-48794-59364-57025-43671
3681.47-30872-35579-31982-21879-21857-74483
3687.26-210490-169264-86298-93219-41171-21206
3693.05-33514-31875-25053-19819-29529-41751
3698.83-19843-24579-63204-42853-28316-39324
3704.62-45492-49997-38925-62411-109368-79670
3710.40-104400-154781-72495-34082-31043-30173
3716.19-43512-52558-57182-44993-32187-63177
3721.97-80008-63784-55734-63850-84661-50804
3727.76-29888-40321-53292-137509-132954-58833
3733.54-95348-118243-132412-110121-60037-44371
3739.33-46601-57113-61758-113375-312138-291870
3745.11-85529-64827-87875-214246-189480-89856
3750.90-239379-208961-68964-50279-46682-56259
3756.69-24997-26477-61519-42229-21848-27067
3762.47-18570-27723-62088-44752-25063-27918
3768.26-56916-67281-28479-8193-2188-9863
3774.04-9109-13914-22536-18046-27267-33354
3779.83-4328 20962 9808-18136-24908-12368
3785.61-18977-34414-32909-3494 18143 10843
3791.40-609-2395-17221-52227-75505-49803
3797.18-38586-31866-58294-197198-165558-48922
3802.97-65742-65981-55813-98630-76266-39801
3808.75-36005-10414-4008-12674-42428-67248
3814.54-193539-206136-72809-42084-53387-117629
3820.33-152253-100819-56011-47009-37895-42401
3826.11-50442-45719-44800-33033-67765-101475
3831.90-57191-49143-95064-73823-114346-252517
3837.68-177914-85026-109512-93400-87749-110754
3843.47-80625-55148-55470-58850-57879-68736
3849.25-78180-179847-247227-245002-392460-265669
3855.04-87551-83412-68977-76615-83572-92510
3860.82-102577-92930-89456-135991-129385-76938
3866.61-76910-107718-192893-190639-98724-71069
3872.39-92924-111792-92971-81874-84590-85843
3878.18-102473-141806-126698-86205-89625-88451
3883.97-152297-201910-118968-83891-88755-85573
3889.75-127935-128731-89232-90563-96555-86125
3895.54-85727-87670-106088-139379-108667-131977
3901.32-143445-124721-157687-121167-88881-81651
3907.11-74739-71701-72175-75412-65616-70267
3912.89-76627-81804-94620-115957-102552-64021
3918.68-68211-71499-63268-74082-75784-75755
3924.46-84142-68768-54959-49681-61924-66731
3930.25-70749-89384-89346-83741-68024-42045
3936.03-38872-37507-40487-55861-49058-65349
3941.82-82624-55780-26142-19884-46686-58573
3947.61-43220-59595-72378-61272-52510-44442
3953.39-41424-51493-49059-36933-43873-44919
3959.18-50026-62941-65783-51798-41824-55565
3964.96-64782-53424-39690-45206-46941-34238
3970.75-37925-40942-31119-44112
##END=
