##TITLE=Sulfur Hexafluoride
##JCAMP-DX=4.24
##DATA TYPE=INFRARED SPECTRUM
##CLASS=IUPAC A
##ORIGIN=NIST, Analytical Chemistry Division, 301-975-3108
##OWNER=COPYRIGHT (C) 2000 by the U.S. Secretary of Commerce
##DATE=00/02/01
##$SPECTRA VERSION=1.10
##$UNCERTAINTY IN Y=2.0 % relative (B=1.0E-04,C=2.6E-08,D=5.6E-11)
##CAS NAME=Sulfur hexafluoride
##CAS REGISTRY NO=2551-62-4
##MOLFORM=S F6
##MP=-50.5 C
##BP=-63.9 C (sublimes)
##$NIST SOURCE=QUANT-IR
##SPECTROMETER/DATA SYSTEM=IFS66V (Bruker)
##INSTRUMENT PARAMETERS=KBr Beam Splitter; MCT Detector; Multipass cell
##STATE=gas
##SAMPLE DESCRIPTION=Sulfur Hexafluoride Primary Gas Standard
##PRESSURE=101.3 Pa
##TEMPERATURE=23 C
##SAMPLING PROCEDURE=1 L/min Flow
##RESOLUTION=0.9640
##DATA PROCESSING=NB Strong Apodization
##XUNITS=cm-1
##YUNITS=(micromol/mol)-1m-1 (base 10)
##XFACTOR=1.0
##YFACTOR=2.9103E-11
##DELTAX=0.4820
##FIRSTX=575.17
##LASTX=3974.604
##FIRSTY=-3.95E-07
##MAXX=3974.12
##MINX=575.17
##MAXY=.029863
##MINY=-.000018
##NPOINTS=7052
##XYDATA=(X++(Y..Y))
575.17-13573-184192-30171 28490 294284 284391
577.58 248191-46660-11905 34912 474304 466139
580.47 482049 351822 329763 174869 365906 95614
583.37 28648-63470 84076 85438 339850 198349
586.26 401184 359274 456347 435579 694728 610266
589.15 762932 706318 1114364 1169785 1343028 1295477
592.04 1788177 1834070 2244514 2526128 3076514 3322166
594.94 3956039 4146490 4791525 5095395 5914605 6270252
597.83 7068973 7486842 8173120 8421530 9177576 9482157
600.72 10290701 10535274 11201864 11240773 11768368 11752913
603.62 12081454 11815440 12074179 11436106 11463631 10639854
606.51 10492733 9446398 9241593 8150866 7896294 6585490
609.40 6447701 5261160 5636460 5593769 9853299 10316855
612.29 10943925 15916957 25369220 56895335 124814842 88100011
615.19 13894457 2514408 1787162 3401424 3009452 4802054
618.08 5012557 6691472 7098677 8860335 9405669 10897278
620.97 11413556 12778654 13193983 14264073 14576767 15403408
623.86 15403879 15855174 15688110 15933904 15537569 15525288
626.76 14925790 14654389 13854819 13375684 12543709 12073806
629.65 11133109 10605056 9658324 8959008 7986167 7377603
632.54 6539753 6060546 5266346 4848735 4186152 3794071
635.44 3183652 2906270 2436769 2095370 1606025 1447913
638.33 1140859 1105246 813550 750301 600001 549910
641.22 348470 340658 193558 227326 141086 191162
644.11 49126 91345-268 22639-9749 69152
647.01-37761 3875-57240 34117-27541-6022
649.90-81184 2655-45422-4299-33928 2448
652.79-81393 30164 61837 100523-9258 77939
655.68 20295 34186-24193 14318-4157 63201
658.58-24292-14788-60519-19654-27095 59551
661.47 9851 48192 5793 63340 79812 129898
664.36 2040-26286-77678 55578 39593-179776
667.26-442294-270512-95571-21098-135474-65570
670.15-31297 60232 11234 28583 39975 62337
673.04 6171 10140 9160 48486 31424 21976
675.93-42917-18796-13828 59595 34310 14023
678.83-20298 34448 16067-25443-30217 13871
681.72-15226 1733-4372-30432-31825 53164
684.61 45714 16010-74038-7946 70425 71394
687.50 56375 35560-21741-3930-46891-82361
690.40-90063-16615 31362 40302 54310 57581
693.29 27739 69647 37525 9292 32691 42088
696.18 31368 55607 101287 82639 18201 46183
699.08-2384 27294 54276 8977-15386-18268
701.97-30151 18981 41581 55902 81639 49742
704.86 50554 63654 29229-8589-55631-11170
707.75 35296 48131 56647 51241-14175-11319
710.65 26929 75069 47137 23406-481 25634
713.54 1302-2679 9157 24153 39898 27991
716.43 29518 8391 29394 78651 82592 33867
719.32 21719 20051 19665 31285 2878-27477
722.22-49513-46123 13560 43445 76809 83649
725.11 73508-16440-19785 44545 60125 1607
728.00 39762 55297 35318 34512 14226-8002
730.90 18840-8513 10369 1747 20285-13984
733.79-3954 41316 43388 54-3011-16240
736.68 23801 52243 50233 18262 16675 58729
739.57 56909-20496-48076-53465 955-8814
742.47-4598-18374-9428-38999-24664-26977
745.36-16134 40371 55279-22726-20937 4675
748.25 42831 56956 41952 17098 37053 15135
751.14-9697-54371-55266-25398 11544 5574
754.04 9244-9911 15594-19247-9574-17846
756.93-2853-21943-12763-42989-46878-44713
759.82 14694 3078 15321-24393-21492-34295
762.72-33251-3315 30130-3665 755-12453
765.61 24233-30931-31254-49758-41662-17417
768.50 8301-52882-54175-62565-48412-99386
771.39-65614-42410-25228-60645-31167-12074
774.29 25646-9345-19061-22893 13559-31222
777.18 17395-26400-57200-64366-6352-24631
780.07-12258-32535-16629-72219-58730-64270
782.96 2281-40399-48192-41989 8239-49911
785.86-30367-30088 25316-31222-29858-38502
788.75 3917-44290-34506-75715-47313-36687
791.64 19956-10278 15794-38049-7513-22639
794.53 6275-33569 21321-9757 11808-83190
797.43-77664-110643-56892-60958 5368-26062
800.32-19428-45566-2059-38961-18964-31322
803.21 8867-33319-29486-45278 23056-19555
806.11-158-20036 15893-28847-3571-30841
809.00 17875-21316-1198-21876 2920-32760
811.89 16827 2756 49224-4147 42987 6309
814.78 43256-44637-16681-31421 773-75085
817.68-34087-19641 96105 68982 63841-3639
820.57 38024-26169 743-2187 77954-2299
823.46 12765-23491 11638-17472 43881-5241
826.35 7514-46846 19035-79585-3318 28175
829.25 75786 13676 70894-3742 24357 2554
832.14 44838-61569-29217-69016 446-8927
835.03 56055-14867 40674 21535 72723 28637
837.93 83366 3425 51111-1540 70716-12350
840.82-8834-56769 22414-315 74814-8171
843.71 60596 58205 124948 83642 199191 158014
846.60 196227 103220 143818 99025 197790 143026
849.50 224022 171429 239640 224249 320081 282793
852.39 344094 255251 293552 259912 366225 297903
855.28 355807 288067 368691 302043 369475 300428
858.17 370477 330945 405611 320971 404340 298471
861.07 361270 281391 334891 263589 345998 262077
863.96 366961 368761 520139 490206 679311 806414
866.85 1163833 1417292 1738352 1790135 2197540 2630448
869.75 2371233 964321 348425 152120 214563 138245
872.64 251949 192373 327492 267467 408901 351965
875.53 502516 484610 605155 558173 709384 644079
878.42 781234 703534 861200 783248 889031 829596
881.32 969633 864343 936626 834998 949547 838675
884.21 957572 833367 910634 774554 859398 733908
887.10 805717 642873 717054 565692 632673 468397
889.99 556380 400259 504126 345633 433425 281758
892.89 386980 231497 309987 122695 223013 76307
895.78 210503 53421 170079 24169 166302 4123
898.67 145051 1672 147339-16237 126849-3178
901.57 140841-68215 95604-63638 96502-52605
904.46 156578 1139 163886-7834 186533-8064
907.35 200888 37350 232351 45830 251069 70888
910.24 294506 118288 329699 127351 379561 190410
913.14 436848 257392 580408 394372 657283 494949
916.03 873796 793535 1239863 1197336 1726707 1833508
918.92 2591421 2884542 3885175 4441995 5804270 6768863
921.81 8546485 9896236 12174016 13894764 16454844 18486834
924.71 21340776 23267747 25726527 27585878 30533382 31601614
927.60 33751376 36234319 36769404 34361551 43181271 48013317
930.49 34946827 28268448 30353872 31558315 32487266 31198145
933.39 30067791 28020084 28498726 29966293 34886841 40615325
936.28 50314788 60599462 75712227 93223842 116704130 139755024
939.17 169675948 206705981 251591022 296146267 349501726 406649347
942.06 467053973 518714923 579036353 631712321 681085811 712833768
944.96 767012870 775119569 779243457 830820162 924696310 1026103058
947.85 718264946 518164403 524678934 531828836 487644325 399191345
950.74 273554609 150255381 65660383 27345209 12344851 8839958
953.63 6344536 6014884 4390421 4365939 3119056 3303796
956.53 2269958 2533646 1720021 2086096 1382219 1723872
959.42 1115341 1508597 939765 1345663 855991 1219165
962.31 753662 1126875 690575 1048791 643209 1002664
965.21 659391 999366 644526 993987 682125 1001235
968.10 677990 1011336 730222 1054151 783808 1104924
970.99 868967 1187031 952118 1275827 1077095 1384138
973.88 1192001 1523022 1364408 1719315 1595555 1941613
976.78 1848326 2241981 2186110 2585035 2586542 3039394
979.67 3096191 3607153 3676345 4141895 4207889 4656149
982.56 4694833 5071813 4974609 5190703 4935805 4968139
985.45 4536197 4486591 4098115 3896666 3294370 3245314
988.35 2953115 3416537 3555476 3510333 4024739 5141923
991.24 4207896 3635811 3538875 3747416 3608339 3696643
994.13 3378934 3289033 2850317 2641823 2131700 1924196
997.03 1490628 1390647 1047268 1038597 789035 818637
999.92 586595 651836 469543 544685 350325 444973
1002.81 270649 362654 199783 291572 126680 232800
1005.70 85332 205814 69596 171591 46494 137546
1008.60-2367 109147-21990 86027-4531 99783
1011.49-32167 83308-31297 88567-38450 67171
1014.38-12636 110625-17720 69424-33710 71538
1017.27-46100 61707-32644 75390-30456 72678
1020.17-12084 96067-17644 63870-14654 88284
1023.06-15479 92286-17893 75866-20435 61206
1025.95-43373 70881-21249 63089-5675 101980
1028.85 5015 80338-6177 86084-13360 77081
1031.74-15158 68816-310 78224-33088 51346
1034.63-21317 66431-19933 55012-22383 58433
1037.52-28932 67549-14626 74983-10063 39936
1040.42-53787 43143-25055 63470-24856 50214
1043.31-18841 50232-46833 43993-32434 43113
1046.20-34363 49125-34593 21796-52686 30557
1049.09-51060 20884-53109 51812 46 60163
1051.99-18195 50955-31534 37159-33797 58397
1054.88-1773 43427-20068 47838-29627 43525
1057.77-47546 12235-50593 13000-63629 24557
1060.67-24409 50464-22809 32553-31795 31972
1063.56-39341 30150-37970 30236-44378 25939
1066.45-39584 32927-37964 4168-83815-41108
1069.34-79885 22935-24319 45037 2895 56536
1072.24-30303 7521-50103 25022-38306 9908
1075.13-42016 32547-44706 9285-57225-1269
1078.02-41688 41246-4774 45075-32873 15498
1080.91-27841 40005-18920 44136-16131 32109
1083.81-13912 42066-17648 24522-33879 41405
1086.70-9978 31219-50980 3986-57971-6628
1089.59-63466-24347-71264 15667-3316 45838
1092.49-13699 19819-57550 1818-60823 2012
1095.38-36441 18114-32074 7962-29883 22185
1098.27-55914 3620-25743 33834-23793 7043
1101.16-61281 911-53012-15552-63627-9982
1104.06-48899 13271-65933-27390-64681 3372
1106.95-50228-5161-35646 17106-34842 662
1109.84-41741 13104-43783 10259-37050 13669
1112.73-30547 6997-27563 35701-23776 12291
1115.63-32403 6633-35077 26262-18246 37085
1118.52-14386 17671-40946 6306-29462 22622
1121.41-11567 37679-25450 430-27943 29306
1124.31-39189 19395-5363 22695-32984 25685
1127.20-10998 25176-10197 46314 7481 52344
1130.09 8768 44007 7200 56876 678 50450
1132.98 23144 59510 30251 88068 27405 61107
1135.88 26990 69281 27181 61789 10887 33169
1138.77-18643 41260 17329 54271-2571 26304
1141.66-27616 15921-19568 22953-23787 20456
1144.55-20874 4653-22385 34210-10320 27674
1147.45-19956 8861-32350 4094-38833 4949
1150.34-38106 122-45912-12108-46730-4754
1153.23-45640-4752-38420-10873-55854-10089
1156.13-42656 1496-13482 33270-37395 155
1159.02-13210 21172-30212 422-50997-16988
1161.91-42057 3768-48835-22832-46663 1570
1164.80-28970 472-40760-13242-50790-721
1167.70-39398-940-41897-12409-43537 5858
1170.59-31035-64-22436 3383-34445 15900
1173.48-20139 11017-41623-5159-33633 11128
1176.37-22031 7334-20197 3967-44247-8472
1179.27-27627 1566-27518 1232-31490 20548
1182.16-12135 22311-19530 20190-30387-6468
1185.05-26315 18637-26083-3032-31102 6869
1187.95-6064 44246-10450 12033-22332 18077
1190.84-2294 28072-6706 20307-13195 9492
1193.73-18926 17003-13305 16060-17690 18599
1196.62-6274 20124-35168-6679-34798 18448
1199.52-2915 29103-3653 3805-44355-2537
1202.41-30718 11244-4442 20182-27102 6622
1205.30-1457 33089 1001 30376-16474 5829
1208.19-5430 33390 2387 28165-9845 18189
1211.09-13649 18015 3364 41339-7607 12474
1213.98-5695 37284 1362 33583 21168 46185
1216.87 882 33839 1812 23757-14640 18062
1219.77-12942 15416-14075 20495 676 37752
1222.66 18339 40482 10084 43836 6682 24666
1225.55-5144 23063-899 22854-34098-20881
1228.44-38554 10936 10392 52626 13897 47099
1231.34 8019 19973-96 30448-7175 38693
1234.23 24385 38797 7104 38110 21183 57297
1237.12 26924 76055 52110 72585 59080 103141
1240.01 90586 123244 96967 145969 153971 194635
1242.91 164537 204562 182806 210902 213258 258327
1245.80 251103 308582 288865 306987 283567 321351
1248.69 290784 318493 309275 360929 344303 384063
1251.59 400993 460610 459534 513452 510260 567033
1254.48 575286 579834 511288 532988 572422 483119
1257.37 309337 333126 319588 341363 313634 336969
1260.26 304392 348127 317385 338310 314815 361274
1263.16 343573 362660 331714 343298 287922 286623
1266.05 238437 246619 198123 192314 149594 156612
1268.94 121714 117269 61623 91318 63830 47906
1271.83 2631 49364 28675 33711-10713 15377
1274.73 19106 44377 13679 52456 28734 40434
1277.62 12223 57388 47697 70938 44403 75052
1280.51 54551 57158 33348 95364 154751 131689
1283.41 28260 61964 49167 78684 41907 53616
1286.30 23127 33502-2970-2611-38647 993
1289.19-39335-24670-37853-1260-17221 5537
1292.08-16098 12032-19879-7289-34717-9687
1294.98-28412-1936-32449-2402-20910 3336
1297.87-17130 4149-29461 7065-1275 13037
1300.76-25348-2327-15948 1607-12718 10147
1303.65-20851-4994-27904-4018-16628 7014
1306.55-10873 15899-10574 22194 349 29542
1309.44 3836 14863-13428-269-17854 4415
1312.33-13627 8381-16080 7931-10696 13487
1315.23-19003-14197-37008-5761-19741 6436
1318.12-32196-18138-26941 10311-18654-10532
1321.01-30536 15653 1458 15305 1059 27169
1323.90-1832 20848 7337 11809-15456 16410
1326.80-10986 11701-11162 6074-11895 154
1329.69-20874 6096-821 36251 14419 34066
1332.58-5425 13549-5665 11574-7779 27098
1335.47 12004 21829-5470 26316 16536 18954
1338.37-18097-5146-21561 1318-22453-6104
1341.26-54957-41167-52403-43638-80729-47762
1344.15-43040-17402-42949-33900-61521-30155
1347.05-52729-57995-57991-65422-117127-80338
1349.94-93189-55571-57071-17237 12745 102990
1352.83 152538 265695 327438 401879 396945 391172
1355.72 334924 293247 197669 155953 58262 25348
1358.62-38507-70865-138926-134683-164882-116755
1361.51-113650-98197-117695-66955-68965-33404
1364.40-21958 14838 6691 37280 27489 40914
1367.29 6730 14104-5610 36061 17215 38905
1370.19 42738 78641 60644 85755 62957 88621
1373.08 48134 71708 68843 82284 62439 69562
1375.97 39801 45212 22947 56654 61751 72163
1378.87 37828 49773 36188 42429 33914 76680
1381.76 47872 55429 65245 105553 89476 128951
1384.65 109200 130175 152922 227194 190113 198863
1387.54 252508 163760 19003 8551-16160-8186
1390.44-18825 27560 11711 30365 15209 22289
1393.33-30372-63256-51254 19137 4926 42455
1396.22 29217 49214 11714 18106-2412-26883
1399.11-15525 46084 32649 45063 17554 41308
1402.01 18136 23373-5452 2141-34872-34208
1404.90-32456 20133-7104-4896-16254 17188
1407.79 7417 13317-14928 7744-3418-6000
1410.69-35860-6406-15351 1962-21169-3218
1413.58-15093 2106-14153-8678-50064-16878
1416.47-50652-63930-51503-41168-156554-281995
1419.36-201535-31668-24176-12076-41191-21999
1422.26-28948-11882-63512-51540-39983-12767
1425.15-33015-3092-15499 5734-15911-15276
1428.04-40307-13759-57693-65890-55803-11258
1430.93-16998-5228-38217-22976-34339 1538
1433.83-7615-1717-25107-16294-140715-252029
1436.72-160061-21279-15607 8474-1925 9391
1439.61-12960 11753-11287-6386-11734 11476
1442.51-9295 5707-11318 3019-24902-3060
1445.40-13237 8292-14625-26845-88443-50924
1448.29-15169 19100-2720 11619-4427 2880
1451.18-22891 2822 1675 20439-8354-7032
1454.08-17484-12602-40451-72242-312536-366424
1456.97-142883-61214-94326-44127-46981 371
1459.86-129-6872-35777-9057-4642 16211
1462.75-3924 4888-36042-111599-122712-20676
1465.65-3093 20936-5070 7796-9974 19834
1468.54 15222 11060-20846-6962-34341-83238
1471.43-208852-145185-88940-167665-135801-2979
1474.33-11165-7264-59947-82168-47448 17541
1477.22 4643 18444-466 15379-1991 16104
1480.11 9983 15562-6857 17511 4451 19641
1483.00 2176 5629-21045 3742-7089-3420
1485.90-23219-29251-83193-25768-11219-13052
1488.79-67113-89253-87992-80441-62602 3604
1491.68-10305 14197-1140 14535-610 6970
1494.57-18944-57927-241370-209046-58744-4935
1497.47-24849-81039-120708-22007-4641 6319
1500.36-4500 2708-19660-434-17068 469
1503.25-8112 3301-31924-179389-333917-185328
1506.15-279377-369234-179691-51080-66824-22856
1509.04-39001-29005-21281 633-5538-41318
1511.93-85890-21876-22185-2131-15449-18524
1514.82-28149-1323-47017-79323-123127-81951
1517.72-32215-17594-35336-44442-109821-138138
1520.61-319418-253995-93745-119007-99322-25111
1523.50-17479-15086-77766-136558-93040-14119
1526.39-29489-37736-32940-41547-51712-6266
1529.29-10707 4431-20057-27373-36031-14796
1532.18-50292-93866-146895-118756-41269-1955
1535.07-10526-9127-23461-10355-8316-32339
1537.97-171614-401704-321191-235150-307492-110907
1540.86-62127-202115-235624-63614-45445-29611
1543.75-31351-43095-99519-23202 16464 50750
1546.64 34758 43929 39900 65470 42408 41451
1549.54 17105 48551 68045 102765 98113 109966
1552.43 106258 123174 22884-67707 47019 155624
1555.32 165592 184401 176467 88048 8589-97702
1558.21-111183 130164 62221-59556 108235 354060
1561.11 406159 470936 485643 499095 474698 518437
1564.00 518759 561060 616458 683440 681559 709258
1566.89 733294 785397 792265 793062 723942 709084
1569.79 860187 989827 981227 1001460 1005658 1058186
1572.68 1070596 1124661 1130188 1156635 1139626 1045962
1575.57 796333 956960 1230389 1311390 1320626 1342422
1578.46 1348740 1356827 1360316 1396411 1392297 1400389
1581.36 1412814 1440070 1451166 1516673 1510820 1460598
1584.25 1529778 1510017 1398005 1341748 1399851 1522785
1587.14 2301216 2202149 1216697 1008717 1035708 1154500
1590.03 1118461 1119278 1139833 1233043 1248849 1245475
1592.93 1170290 1151753 1120324 1149090 1126253 1124157
1595.82 1070389 1055074 996174 969964 901748 865346
1598.71 789413 754732 693980 671060 613066 588955
1601.61 542836 527898 453137 440415 412468 414623
1604.50 372695 370012 328254 327606 288777 280405
1607.39 253626 255911 210822 194751 165619 192860
1610.28 175735 171379 143774 149087 109747 96301
1613.18 70690 101229 80420 69206 26645-50270
1616.07-320872-252055-29836 43845 26526 40658
1618.96 42579 50752 34732 48397 41905 49158
1621.85 18388 7324-91044-93269-10991 38828
1624.75 31083 31075 30775 42053 12637-19332
1627.64-19189 31847 28653 52498 52488 70016
1630.53 49788 63917 52984 61238 65237 74137
1633.43 50890 17989-95686-239731-237752-9246
1636.32 38434 19315 1680 44831 38568 59315
1639.21 36301 38750 23077 42522 41805 59446
1642.10 29451 29901 12970 30656-7172-16240
1645.00-130103-240736-137462-40161-85399-58103
1647.89-55018-5377-13397 21296 1769 8666
1650.78-34605-127585-425957-500999-544873-336799
1653.67-159802-151560-64673-11892-10209-1334
1656.57-12664-10381-12752 8543 8410 17090
1659.46 8772 5510-12999-11154-31429-83252
1662.35-155039-75478-23065-5929-21465-24419
1665.25-41847-20791-11345 4359-7193-24561
1668.14-74301-167341-178382-56982-46322-62074
1671.03-100673-53236-37610-15206-22513-26943
1673.92-67405-176618-253460-109035-36789-21919
1676.82-34579-19331-21135-15981-49025-56289
1679.71-71760-38983-28698-17755-46924-81976
1682.60-159979-162666-221784-457838-504193-142062
1685.49-44736-25143-32880-13899-48038-36974
1688.39-40716-13608-42391-22265-25023-1900
1691.28-17596-5141-20972 843-1652 18446
1694.17-16217-100254-423542-426581-103204 13885
1697.07 19050 64242 57736 28708-135656-307696
1699.96-314539-177545 22046 133631 97278 74446
1702.85 79092 82218 37698 85933 143351 140517
1705.74 95471 167215 233701 305350 367240 427480
1708.64 476817 549005 610910 725086 827464 957384
1711.53 1062391 1203308 1347985 1458081 1490864 1633862
1714.42 1661583 1759965 2048097 2100417 1799231 1742913
1717.31 2041847 1972908 2161882 2582987 1828512 1162354
1720.21 1179295 1340781 1508956 1282321 568066 96661
1723.10-11098-6662-19673-5653-18889-12473
1725.99-20680-20499-33559-28622-44962-36466
1728.89-58959-79219-82532-42718-49144-40526
1731.78-65432-103892-273651-252303-262771-321546
1734.67-154345-49623-40902-31291-35311-33034
1737.56-39598-49024-68303-132971-190876-88328
1740.46-31592-22238-36395-42397-79333-69177
1743.35-46272-31387-48245-24020-27152-14171
1746.24-29793-34034-31844-47875-85184-53313
1749.13-36635-23727-70354-179999-197007-44976
1752.03-7632-7819-24012-8063-8505-2842
1754.92-17427-13915-66133-90541-47798-8114
1757.81-11062 107-9216 4590 7511 20991
1760.71-36477-124253-97699 4802 9903 11994
1763.60-10470-6269-11240 1868-12594-5483
1766.49-18323-29089-116377-107757-42571-2759
1769.38-2356-12805-66726-101105-73284-146161
1772.28-256159-108311-31212-9024-10901-20208
1775.17-47765-27787-32725-18911-24976-15782
1778.06-21948-5563-13267-16127-44095-28799
1780.95-14087 1128-2283 6073-6946-5504
1783.85-35883-63891-47751-2685-1487 5738
1786.74-4531 5381 7589 20045 6645 14633
1789.63-2263-29480-53642-12018-55448-162938
1792.53-134342-16631-8914-2892-10207-3086
1795.42-30241-11175-1564 11478-2037 7710
1798.31-10345-36486-54154-8823-10118-14443
1801.20-21654-20019-28262 4035-7462-3612
1804.10-11075 7365 5630 12704-3792-1921
1806.99-22638-21442-14990 13555-4046-3340
1809.88-27760-15431 686 9333-20520-14236
1812.77-7575 8022 1985 1588-17620 1579
1815.67-318 7462-3032 11569 14356 18019
1818.56 720-3238-22899-4641-4823 5913
1821.45-2928 1975-4716 13916 2253 3429
1824.35-44328-58559-24292 1035 725 4273
1827.24-17720-12868-19489-24246-58743-82420
1830.13-47849-6581-6508 8196-12288-14491
1833.02-13349 6516-10660-3354-2801 570
1835.92-16494-12556-19838-3034-8464 6441
1838.81-2960 957-18747-19013-27716-16640
1841.70-19519-9115-31759-80751-192871-131089
1844.59-48109-22239-28805-28948-37938-34911
1847.49-44121-23618-36834-38346-48982-36878
1850.38-42340-27398-34381-32247-44495-43540
1853.27-52125-38645-41312-32079-47927-44081
1856.17-60556-58569-63141-61782-72510-62778
1859.06-84049-84345-71995-33033-33801-35046
1861.95-38305-29214-43480-37897-50723-47969
1864.84-61897-57107-59753-43970-63208-77066
1867.74-73125-61559-129326-118961-76799-53127
1870.63-55659-62226-64735-63566-92863-102615
1873.52-111316-102345-118126-118947-127301-130210
1876.41-149839-146742-148648-148276-177299-174050
1879.31-191170-196350-191267-168303-186014-219530
1882.20-255788-237351-234026-240290-264474-266285
1885.09-274818-262934-278923-278436-289903-290135
1887.99-308179-317100-349377-322866-307502-302343
1890.88-299824-292683-298604-304965-312332-291986
1893.77-303445-312382-338738-309629-311115-283784
1896.66-270030-258859-286526-320085-366765-375710
1899.56-347717-269470-205706-159008-164122-168502
1902.45-174048-137320-95719-38048-26806-39380
1905.34-75391-86944-98658-81685-79911-66836
1908.23-69137-63528-76432-63192-64649-53284
1911.13-45588-29953-47578-41992-46592-41829
1914.02-52347-37487-33805-24479-38626-30509
1916.91-54550-98763-93561-42823-42101-32427
1919.81-39297-30687-33970-30259-47251-44108
1922.70-44637-15352-18409-15418-23747-7932
1925.59-30958-42479-53948-39525-43657-35809
1928.48-43935-37454-44126-33647-41738-27470
1931.38-38540-33621-37290-33972-41213-17194
1934.27-38209-47183-45616-24491-33921-32895
1937.16-38819-24683-25316-10259-23367-27714
1940.05-44189-37594-39590-38601-66730-51057
1942.95-32309-17681-21806-27855-47574-38112
1945.84-40096-39266-40917-25071-22048-7280
1948.73-16469-22203-27662-7980-10830-5916
1951.62-10738 3211-7489-15136-25268-17658
1954.52-22069-9771-11110-1587-19667-20943
1957.41-26139-21831-27064-11007-22146-17591
1960.30-23942-23627-27269-13340-26756-27847
1963.20-37226-25154-31327-20667-18021-17292
1966.09-21057-20651-41083-35870-33660-13298
1968.98-17800-13358-25881-27809-36511-29651
1971.87-33171-24595-14232 4600-4827-6910
1974.77-23786-11793 925 3089-24222-21106
1977.66-16644-3903-14181-14885-13274-14696
1980.55-28537-18010-22002-7788-6818 5552
1983.44-783-1985-16769-12715-12554-15505
1986.34-22330-17327-28486-20412-24259-12752
1989.23-19620-7881-7720-5656-27163-36048
1992.12-34442-4252 2292 783-18801-13962
1995.02-8701 1162-5242-6160-16717-11146
1997.91-20750-2109-422 6544-2007-3228
2000.80-8370 2743-4330 4132 2764 8970
2003.69 334-706-9634-2395-14608-17893
2006.59-34175-34932-27339-12376-14907-661
2009.48-4042 1036-6632 1072-9429-8399
2012.37-12670-12941-13576 1758-10253-8853
2015.26-11731-8440-20580-13220-12124-10022
2018.16-15344-11176-24979-27314-37388-16779
2021.05-10288-10362-14444 1834-8737-3666
2023.94-17093-9532-14224-8458-19065-7063
2026.84 574 14158-7461-14501-22440-23941
2029.73-15711-6626-14184-10576-10063 585
2032.62-21693-19143-17340-8119-24281-23403
2035.51-27733-19676-28370-16847-13170-10750
2038.41-24505-25943-25325-10896-28439-34321
2041.30-27354-24368-40259-34444-35311-18505
2044.19-16368-12226-22792-17769-17672-825
2047.08-13421-23932-36855-22666-26754-16068
2049.98-11588-7166-32489-27624-24384-19490
2052.87-27160-20285-24653-30458-42205-30582
2055.76-34318-35765-46801-33160-41185-35891
2058.66-33358-18593-16335-8622-19905-24153
2061.55-26231-18787-29307-31726-31881-20280
2064.44-24957-16052-33044-32620-38431-24308
2067.33-17508-9626-17589-21921-35931-28231
2070.23-30762-25514-30923-30259-35744-18853
2073.12-25397-35872-40726-22679-30979-32365
2076.01-37549-31103-15550-18617-51025-46711
2078.90-47987-35118-39988-27122-24304-971
2081.80-6835-16863-34220-43047-44455-24280
2084.69-34711-22889 4106 2523-27793-28270
2087.58-39277-33675-37421-21792-17270 5346
2090.48-16556-30923-30509-23719-30814-19379
2093.37-13858 4624 21602 1588-18228-12900
2096.26-22536-17047-27881-26082-3453 32703
2099.15-12418-30422-32131-26299-26641-12826
2102.05-17610 31608 39499 3941-23917-27140
2104.94-26306-19370-23573 5629 48904 17438
2107.83-30372-23678-26943-21873-13619 8615
2110.72 43216 58129-9096-31891-35169-24521
2113.62-27912-13666 26307 82759 29382-19091
2116.51-29031-23396-31625-12686-2108 52768
2119.40 58852 10706-19521-25114-23602-16165
2122.30-3486 46377 75535 31428-12225-14753
2125.19-25813-23284-24426 6590 52195 48331
2128.08-2982-18734-18863-4534-14069 3514
2130.97 35995 34379 544-12567-25951-10810
2133.87 1225 983 2878 6275-12325-7540
2136.76-7323-8648-36004-22933-12191-1367
2139.65-4130-8317-16348-5623-17664-12859
2142.54-16266-8623-13574-8422-10210-10058
2145.44-16877-806 17546 30875 6544 2631
2148.33-6920-11203-19148-4478 20868 16832
2151.22-13621-9509-7505 11149 1426 20863
2154.12 42568 16885-10973-1627-2829 2826
2157.01 3789 55601 71154 33558-656-13739
2159.90-11099-7258-1753 68455 48025-2651
2162.79-7928 6563 792-3097 43879 79998
2165.69 13637-10282-12476-4097-15038 25409
2168.58 96208 69974 3610-11425-23293-14228
2171.47-13437 51142 80753 30567 3027-2766
2174.36-10858-2105 49468 104779 48339 7069
2177.26-6672-8557-9774 26474 70335 43280
2180.15-9460-8895-18581-15740-2849 57302
2183.04 48018-1786-4813 25835 36069 45892
2185.94 69054 49822-12156-20431-35429-34229
2188.83-23279 30426 33869 5008 482 17296
2191.72 15981 24664 49929 35178-7113-10114
2194.61-21977-17915-11430 28733 11257-5520
2197.51-5262 2228-11678 11779 38588 29858
2200.40 3005-1129-6967 9811 28964 33528
2203.29 8364-4180-16041-18566-20672 14664
2206.18 15238 1744-7656-236-7640-2264
2209.08 12946 20709 6619 8484 6181 10257
2211.97 4482-160 1658 12572 8895 14866
2214.86 16617 16727 10306 7854-5213 4417
2217.76 9213 16400 16181 21707 9786 9748
2220.65 25101 36074 20628 26123 15520 14936
2223.54 9286 12765 19068 24294 20132 29402
2226.43 22898 20176 18487 34049 34052 31294
2229.33 13022 17029 6258-7014-21429-12814
2232.22-8144-4161-435 7303-3445-8555
2235.11-17863-13321-20161-23865-36926-30223
2238.00-16384-1189-11652-17463-36781-40225
2240.90-34808-13693-7724-4950-9289 659
2243.79-6415-15337-20830-6727-12552-22874
2246.68-29394-19717-14524-19269-32491-19234
2249.58-6359 572-24683-27895-25523-20407
2252.47-19287-6153-5267-3375-8588-8076
2255.36-20082-19559-26014-25047-22704-18943
2258.25-22425-21217-18486-14156-20793-12576
2261.15-13521-7853-16891-25624-21075-7961
2264.04-16023-20797-26264-22463-25304-24477
2266.93-34374-29702-23569-19038-25973-24422
2269.82-27504-26519-23824-18668-18095-3582
2272.72-7555-8887-18958-22045-26684-23328
2275.61-32004-30808-21506-16773-35946-38969
2278.50-34931-20179-20421-19158-15800-8092
2281.40-22411-29363-30771-22734-20670-23006
2284.29-32871-30077-25044-20022-28838-41071
2287.18-51251-50820-48112-26089-22355-16715
2290.07-17332-15470-24954-19236-14770-22709
2292.97-28894-18815-24622-26881-25648-22956
2295.86-39647-46757-49615-43080-49506-44692
2298.75-32356-28774-43584-43575-55658-58956
2301.64-63272-55932-21251-9410-29330-50604
2304.54-46118-28595-28619-48762-72681-62810
2307.43-54301-52708-71764-70317-51759-49532
2310.32-83598-87507-45250-39598-86686-116120
2313.22-65482-43676-77775-144094-116603-71064
2316.11-77933-154577-128405-63670-85050-183438
2319.00-157901-70417-85331-192826-184054-82304
2321.89-105682-243444-224020-88198-104441-247977
2324.79-231100-88551-142852-308826-253985-102843
2327.68-203819-362387-250956-84507-230016-366602
2330.57-207641-103732-313023-381253-158666-112099
2333.46-346746-334070-130128-225868-430146-264296
2336.36-124147-321821-392359-156972-168459-365188
2339.25-277513-116364-273319-353149-159539-147049
2342.14-308424-216636-108652-220130-258398-132791
2345.04-155294-209748-141200-87814-124421-99716
2347.93-61542-51230-72381-91005-74641-83835
2350.82-153983-117659-80077-188663-195153-131215
2353.71-261975-259683-166161-313704-308983-170276
2356.61-354239-340923-194277-389226-361861-227443
2359.50-431965-330982-253654-441418-300196-311570
2362.39-441845-257517-369323-371013-236640-381877
2365.28-279302-250284-352525-214071-316532-273174
2368.18-207804-278470-193233-255254-220609-178444
2371.07-210929-148999-199151-151818-155841-128069
2373.96-117840-114189-94341-109913-83915-77861
2376.86-69841-74408-60314-52491-54078-51892
2379.75-51288-47574-41488-37095-45380-35688
2382.64-37421-40691-37938-28229-28321-31824
2385.53-29230-27899-33879-40635-41081-18238
2388.43-24534-33956-39322-40692-35934-26937
2391.32-37977-35896-18518-16064-40543-33222
2394.21-20374-18192-18034-10294-15813-20613
2397.10-26518-36690-44310-24418-15092-20675
2400.00-26155-28993-39605-32912-35836-31514
2402.89-22718-11836-20295-27025-29307-17017
2405.78-21911-24753-35242-33396-35670-29226
2408.68-27774-17843-40136-45255-45103-36725
2411.57-24693-18942-24756-31223-36667-20162
2414.46-15493-17037-21202-17813-20149-19323
2417.35-28793-26363-29120-28010-30749-27076
2420.25-41288-41532-41961-22937-21884-27519
2423.14-36868-32543-35378-40034-40649-39590
2426.03-32070-19198-22826-29623-37315-27460
2428.92-28934-27773-30024-33301-42267-39767
2431.82-38067-24309-33919-33058-35117-38181
2434.71-46115-30871-21773-30500-37896-33336
2437.60-19483-19969-37103-43253-53126-47743
2440.50-48602-43188-42340-42230-47414-43471
2443.39-46248-42877-43412-33273-24054-24245
2446.28-34972-32883-45357-38780-28642-28259
2449.17-41995-45741-50198-40009-34290-39668
2452.07-37719-22839-29743-29858-36825-35076
2454.96-39741-39744-41119-29660-44310-53428
2457.85-39739-31233-26817-15505-19511-27439
2460.74-27227-29469-41486-38074-33707-23942
2463.64-22052-22855-28718-32260-37328-31622
2466.53-30895-42259-37162-25622-24850-25864
2469.42-28418-35495-42863-28428-29236-36615
2472.32-34359-24030-39012-40128-33960-29133
2475.21-31463-30298-30511-24988-29989-37221
2478.10-48555-52151-57949-50977-34470-27812
2480.99-44893-46530-34222-21325-19931-18626
2483.89-35930-35988-32126-27995-29431-16675
2486.78-19727-23091-19949-15791-30996-35087
2489.67-21545-20828-34376-32449-37945-35271
2492.56-20536-9940-23230-19349-15817-32182
2495.46-39384-30138-29409-24797-29802-32824
2498.35-34435-32420-33992-27442-31879-31802
2501.24-17663-8935-18640-27136-25266-16560
2504.14-24627-21605-14899-16311-30087-38776
2507.03-43329-39213-51641-44997-40954-32500
2509.92-25399-37068-35940-11734-11393-16738
2512.81-23756-28070-31006-39820-38237-22075
2515.71-32677-43460-47917-45433-40477-34624
2518.60-18732-2424-9317-27735-44020-43294
2521.49-45697-41617-40474-27683-33482-40708
2524.38-36181-27760-28812-32187-33840-13003
2527.28-11318-18424-21672-10775-21503-35564
2530.17-46108-34639-31220-25465-23897-33715
2533.06-36991-39296-44905-41465-41965-39499
2535.96-43598-41371-32023-22394-22242-16998
2538.85-17109-27574-41013-32778-20676-17269
2541.74-30471-22187-25414-37148-40921-17569
2544.63-17752-26079-38111-34124-42612-32938
2547.53-21284-18244-23959-28372-34709-38200
2550.42-45953-37218-25702-24513-42069-40457
2553.31-34324-34530-38740-33915-28304-23220
2556.20-24205-28080-30143-29161-29870-33743
2559.10-36873-36766-36252-48880-61475-34321
2561.99-24252-28931-38245-41718-53697-47961
2564.88-46679-46126-34590-43640-54371-48638
2567.78-43963-43621-51442-52505-52951-50515
2570.67-40741-33505-38716-27649-28117-36232
2573.56-39234-40251-46228-53029-56488-31372
2576.45-33923-44811-45897-50262-40411-27639
2579.35-32203-32564-40004-49299-45565-36846
2582.24-42903-49225-49038-36092-31158-33306
2585.13-37370-51423-67475-66694-57030-50351
2588.02-57729-51180-49497-60837-57812-45604
2590.92-47203-53206-52932-40661-41985-42653
2593.81-46867-54028-57624-57746-60799-55510
2596.70-46066-44662-47671-50288-60647-62222
2599.60-56456-54634-62679-63896-51362-41422
2602.49-52830-60287-68150-59813-59162-60801
2605.38-54111-52615-59021-64522-68903-58191
2608.27-57619-63186-61995-44469-51804-54785
2611.17-55780-73445-79486-59560-54200-52107
2614.06-46828-46136-52090-56031-66710-62255
2616.95-64429-60900-68840-66236-56366-47358
2619.84-54229-54235-55419-54576-68056-63470
2622.74-52789-50869-53277-61813-76953-63514
2625.63-51531-53032-54380-47608-60387-65027
2628.52-58902-56684-53180-46488-49762-56257
2631.42-61230-53442-54123-66262-59260-48722
2634.31-53424-56806-59622-58814-51903-46492
2637.20-43474-45579-51737-52607-57354-44770
2640.09-40079-42643-57167-58060-53625-52404
2642.99-49673-59844-57981-34946-26120-22332
2645.88-24799-34781-51780-53765-49310-51124
2648.77-37086-44202-65223-64156-53369-39274
2651.66-43756-56864-69299-74445-58723-47242
2654.56-49008-43270-44195-35511-43230-54575
2657.45-58275-57683-55573-36558-11547-16812
2660.34-47180-48993-51163-38543-37167-44874
2663.24-56810-65729-60588-48537-43765-46485
2666.13-49198-40489-51341-41066-32223-27807
2669.02-24350-43137-58814-53356-58724-63659
2671.91-52534-33533-35768-45961-55857-54541
2674.81-56384-59902-63202-39094-22528-23738
2677.70-35403-54629-64070-51888-51767-45420
2680.59-38478-54987-64514-49412-49718-52052
2683.48-39551-37459-49158-57586-70612-47373
2686.38-32627-39307-62720-68800-48573-40523
2689.27-47612-44162-43992-44780-49555-50604
2692.16-48333-48832-46214-39278-39955-44579
2695.06-48103-47752-63964-69240-66633-63917
2697.95-65267-60540-51907-41778-46162-57449
2700.84-40443-7617 10406 14155 8667 9363
2703.73 11609 9559-5272-30417-65159-87958
2706.63-98889-88593-77552-74566-72249-68946
2709.52-55834-37816-26622-21669-20396-30556
2712.41-43415-48917-55037-62899-79297-88148
2715.30-78220-65776-61777-58642-52190-56101
2718.20-56837-50669-46175-38183-33325-30340
2721.09-47137-53117-50973-49079-56740-51611
2723.98-45474-46198-50329-48511-47461-54793
2726.88-53600-57521-45431-40640-49323-38389
2729.77-49389-51898-44631-37031-38233-40314
2732.66-37939-29781-38148-39179-45113-51253
2735.55-56485-64654-59676-54620-63987-49978
2738.45-21686-2775-12743-26125-31521-28177
2741.34-25623-34026-49312-52080-58181-52643
2744.23-54271-51273-46404-42573-46652-47093
2747.12-42215-38283-42541-47458-52903-53299
2750.02-42911-31747-46253-56563-46793-41889
2752.91-56038-57234-34129-26844-36567-36829
2755.80-32577-39436-60410-76091-64880-45223
2758.70-48563-46832-47461-26673-24192-48731
2761.59-48800-39201-38947-30532-34848-43042
2764.48-42635-34368-35827-36549-37396-47970
2767.37-70405-66266-67959-72123-61677-48072
2770.27-33685-36629-45291-44933-46485-54024
2773.16-48894-50237-49205-41922-36330-48145
2776.05-47061-38769-48318-46550-48055-58838
2778.94-58547-63585-65753-59868-46082-42385
2781.84-51808-59356-50746-44334-49320-51283
2784.73-46731-44727-50815-46303-41430-33896
2787.62-32007-36564-37172-40364-66526-81209
2790.52-68351-55615-51659-50927-52607-65242
2793.41-73716-56103-41249-43126-45473-43208
2796.30-41772-28668-22561-34350-51575-54674
2799.19-73700-80005-56414-44065-33860-41164
2802.09-51809-61197-58485-50173-42220-43251
2804.98-57309-52529-43661-45332-45433-54366
2807.87-59030-54279-56913-54544-42132-38249
2810.76-48469-48348-41619-38913-27936-28493
2813.66-36445-36665-46994-49698-45178-45367
2816.55-52430-54505-45835-49057-59175-48189
2819.44-37692-45873-50095-53194-58597-54063
2822.34-59102-61747-56951-54893-64465-63502
2825.23-48895-39448-47989-62438-61380-42665
2828.12-29989-21984-27685-36468-34007-39335
2831.01-28504-30419-55719-63111-51063-37086
2833.91-26984-42919-53570-44978-32934-32623
2836.80-24384-14454-23592-48889-57258-52016
2839.69-61098-83507-94038-81856-81664-80257
2842.58-74793-64081-53791-33804-9194-3807
2845.48 4489 26098 41044 38597 21362-5222
2848.37-29326-37677-39407-48425-53902-56897
2851.26-59510-73378-78845-74195-44583-15241
2854.16-712 19486 15605 589-34702-54458
2857.05-79723-94729-94734-93793-83863-75034
2859.94-53013-23238-22846-14182-1567-18676
2862.83-28594-28113-29452-31150-44700-46173
2865.73-40374-45174-41794-36462-25470-26438
2868.62-35211-37571-40506-38789-33471-28107
2871.51-34176-34839-32733-28682-30024-25355
2874.40-19262-18720-17695-23832-27252-23162
2877.30-23194-24816-22501-32760-36171-30749
2880.19-16652-28178-42174-35784-29280-32706
2883.08-42945-38546-30263-33134-40334-38465
2885.98-28462-32709-34364-32592-17876-14065
2888.87-7284-9493-16140-30557-43718-43784
2891.76-22050-22834-38298-43799-37453-25051
2894.65-17513-21170-26631-38860-32529-22795
2897.55-19051-10498-6797-18532-25657-34538
2900.44-25209-17990-27056-33423-24474-11555
2903.33-17887-33820-53780-46952-32867-25461
2906.22-35436-40028-21475-9595-26421-40093
2909.12-55174-53176-34275-15754-17365-20630
2912.01-12134-22361-34850-32427-22259-9331
2914.90-622-11018-1744-9482-19385-34286
2917.80-51773-42140-39373-50949-47440-38632
2920.69-31824-24698-9566-16369-27051-18738
2923.58-14241-32915-21223-3014-13383-33287
2926.47-26082-9883-13869-28858-39805-32610
2929.37-19469-27927-45535-48985-28443-17649
2932.26-20821-16527-6313-5828-9866-25872
2935.15-40964-55023-35571-9110-8904-21972
2938.04-13477-21833-35215-40005-46890-42909
2940.94-18414-21749-28613-20809-16339-25397
2943.83-41792-38497-16001-24216-24733-11787
2946.72-9187-33194-40938-37818-36678-28978
2949.62-15246-15702-43435-39969-20033-16726
2952.51-23086-31009-28569-27008-15941-21903
2955.40-22173-16815-16854-17390-12729-20063
2958.29-19124 6553 2704-21649-37788-73304
2961.19-85924-39708 1062-8769-6685-1560
2964.08-9226-28292-30065-31192-29386-13470
2966.97-13577-24667-11114-7974-23168-40749
2969.86-49204-24722-13845-15137-22391-36367
2972.76-38921-41356-30146-26895-38861-29945
2975.65-5591-488 9447 18287 5007-10215
2978.54-7075-3617-8016-14814-15138-11551
2981.44-1640-3956-23753-34414-14754-8019
2984.33-3489-23446-23653-6913 58-13593
2987.22-32872-32334-38943-36665-5083-1375
2990.11-8619-24482-16708-25572-44917-37933
2993.01-27706-26693-24415-23380-23883-32050
2995.90-38004-33807-5183-1839-17030-15742
2998.79-9571-11683-22240-40262-24486-20277
3001.68-13473-21600-12537-15409-21500-19891
3004.58-22978-36742-32387-22316-12930-10306
3007.47-13288-11980-18738-20915-15127-11706
3010.36-10748-28416-39623-23535 555-9084
3013.26-9659-11713-18756-28400-26865-39058
3016.15-30223-14514-18363-11741-19339-28157
3019.04-13347-24728-45568-34257-10397-15453
3021.93-23786-25418-30630-35731-10970-5713
3024.83-23809-25031-18935-10235-13208-18579
3027.72-7216-12118-21258-25383-9862-9585
3030.61-10968-18362-18085-29545-21353-26273
3033.50-24836-9179-13467-13193-7662-15642
3036.40 4451-1609-24422-32803-11037 9704
3039.29 6602 3078-2746-13676-7193-11384
3042.18-18006-23989-21420-22321-13001-7389
3045.08-3459-15222 300 6989-3156 745
3047.97 4500-9342-18361-6242-442-3755
3050.86-8192-22255-28567-49578-72947-47912
3053.75-20594-17982-4174-10691-19654-17238
3056.65-19930-22869-24677-11036-5138-22660
3059.54-34491-28710-16911-10109-6073-34043
3062.43-58148-53009-42794-37814-26216-25805
3065.32-40522-50292-48294-32237-14394-33914
3068.22-53363-44183-28450-26009-16576-13997
3071.11-19619-43793-45547-24594-28625-29615
3074.00-25260-30674-30587-33985-22399-22455
3076.90-20133-22892-23266-19614-24387-30211
3079.79-37092-34949-42375-54112-34997-18935
3082.68-32644-44443-37291-15016-31322-45626
3085.57-42589-48671-49704-47357-24625-18401
3088.47-13999-18281-29666-48904-28515-18117
3091.36-28654-26794-29401-26064-13532-27514
3094.25-42729-53062-44188-41256-35086-30349
3097.14-21595-22290-19973-23428-25112-29911
3100.04-28810-42157-46097-50948-54678-53349
3102.93-40211-50516-50126-40647-21169-29460
3105.82-34393-28546-31078-42118-43783-44100
3108.71-36065-27286-36558-41656-34347-28673
3111.61-21693-13506-16226-19520-17231-17074
3114.50-27274-43677-32733-26016-20811-6335
3117.39-21460-57525-57912-32616-1987 1988
3120.29-9195-23458-23664-24608-25852-21533
3123.18-10553-23271-19836-28700-41998-56041
3126.07-43865-32959-29901-27958-22543-46042
3128.96-45085-38505-27111-14413-19667-32772
3131.86-47147-46719-40183-42217-33698-41350
3134.75-38767-22990-17297-1321 14921 463
3137.64-12945-1415-13754-31077-24318-43895
3140.53-52262-44139-28831-7616-2413-14036
3143.43 5786 11971 6745-15328-9254-22112
3146.32-23580-21503-17659-31439-26667-28711
3149.21-29437-27246-26525-18467-8283-13134
3152.11-9520-15301-21569-26777-11494-7642
3155.00-9204-28688-31963-39203-21668-11020
3157.89-18838-33855-23477 8184 15937-6839
3160.78-16217-15756-15032-11706-981-4199
3163.68-4644-27500-36870-29103 5215 2688
3166.57-27735-37532-1734 1200-11327-20135
3169.46-7414-16987-23020-28449-32517-36165
3172.35-25110-10476 1334-17152-34858-27363
3175.25-6512 2747 8704 1266-2555 1057
3178.14 15030 1221 3819-4206-16544-12121
3181.03 821-1662-8526-28813-11266-4607
3183.93-6297-12997-14450-29344-15364-3276
3186.82-1774-10267-1592-18256-32538-27806
3189.71-8359-18322-34260-45056-25074-2438
3192.60-6016-17383-5299 4167 8219 7506
3195.50-10253-30532-31768-51807-58412-53803
3198.39-28820-18285-17162-15010 1063-885
3201.28-13070-36748-31470-22422-13170-9725
3204.17-7375-12749-23833-44104-52075-46140
3207.07-22856-30142-28120-42200-41185-41637
3209.96-41132-37202-11202 2367 2748-30484
3212.85-43310-28828-9663-11659-13147-10975
3215.75-12059-11775-25577-43295-40385-46688
3218.64-44073-31626-31206-71264-76331-77539
3221.53-76110-64844-45403-37930-28964-21259
3224.42 7899 18050 6902-11164 5339 14246
3227.32 7100-28996-40487-60145-67211-55749
3230.21-36409-46176-54488-33001-21651-30007
3233.10-27401-34942-42813-50730-30279-22974
3235.99-12756-27362-27140-21642-6312-1862
3238.89 11903 6709 3358-6167-6376-12846
3241.78-24320-24174-3329-15455-39524-52132
3244.67-59605-61215-60025-74802-89589-97323
3247.57-64534-58669-66359-62208-44512-43393
3250.46-34503-17491-10768-14930-2609-10275
3253.35-26872-35324-27116-49033-51192-25592
3256.24 18887 36325 40582 32119 38060 28006
3259.14 32558 19822-5526-32045-35960-41905
3262.03-37219-37335-49059-48123-43302-53717
3264.92-57807-63775-28253-16588-20903-29949
3267.81-11139-19217-27238-18140-4897 2792
3270.71-274-7486 9876 2886 170-2779
3273.60-3464-10782-5419-33482-32021-24946
3276.49-20414-24497-30739-34689-20514-32160
3279.39-33605-28111-15324-7726 7496-1986
3282.28 16222 13275 22178 29075 15862 3727
3285.17 13379 14358 25252 37478 25334-17
3288.06-15004-24404-18370-18713-13855-12574
3290.96 4071 11438 74-4220 3394 315
3293.85-7382-15337-12673-3669 22495 18027
3296.74-7433-29221-7915 13771 5775-8981
3299.63-9272-11140-5396 4305 19657 13799
3302.53 472-28291 1918 22692 24243 21150
3305.42 20143 3500 13823 12903 9682 5534
3308.31 12763 18145 14306 3594 2990 23173
3311.21 39575 11692 5395 12505 21288 2656
3314.10-10160 14513 35493 7258-11574-17236
3316.99 11057 8320-11346-10633 6972 16640
3319.88 27988 29300 9296-15723-12123-15996
3322.78-4525-11336 1648 22005 25051 28148
3325.67 49722 47817 33257 21040 11748-6430
3328.56-3068 1451 12173 457-1189 7410
3331.45 11022-4063-1525-2148-8631-4390
3334.35 13372 9737 14338 5227 24777 18488
3337.24 22180 9596 7744 18090 11443-8496
3340.13 6074 5608-6231-936-2491-1502
3343.03 18507 12571 13268 6357 12553 19753
3345.92 6596-10774-16354-12475 2356-13322
3348.81-891-74 4271 8658 10969 8210
3351.70 3453-8836-14335-32587-5546-17652
3354.60-19808-5713-20494-36378-26193-24822
3357.49-13840-11942-20321-35913-26811-12605
3360.38-4988-21433-31550-41450-26062-36931
3363.27-43622-37724-28519-48564-47566-33739
3366.17-28542-52400-26505-7907-22378-24239
3369.06-3078-11225-24744-31038-35584-38813
3371.95-33921-28543-28647-36579-18432-21484
3374.85-16071-18218-11513-8740-24531-35759
3377.74-22281-30095-41547-59015-38071-39656
3380.63-40957-34582-48242-62861-52579-53035
3383.52-32921-28162-28091-33051-16936-37502
3386.42-52859-51603-40654-35115-23057-37411
3389.31-44362-49915-31416-26495-42652-68556
3392.20-54306-27159-31116-33387-29673-47115
3395.09-41175-40997-37246-56130-50239-25216
3397.99-27376-33241-28477-30749-27770-21262
3400.88-5604-16134-12327-32246-33985-42678
3403.77-41505-48242-38919-26728-34848-46546
3406.67-29439-29906-32047-31557-44370-68474
3409.56-62433-61159-48146-39778-18379-22473
3412.45-33439-27904-29783-24341-27572-47901
3415.34-25563-19636-20668-23027-8768-8413
3418.24-25006-22846-17929-39672-43212-41700
3421.13-41068-44864-34107-29317-7911-14588
3424.02-19352-12931-8538-26398-28276-25572
3426.91-21519-21560-35288-57266-39562-32728
3429.81-22112-22642-15057-22733-41509-46656
3432.70-12473-23668-13688-13181-6034-25241
3435.59-19839-34075-40539-35851-20575-10050
3438.49 671-14120-17783-24425-17816-24073
3441.38-26283-33182-27943-40617-42209-56643
3444.27-29020 7351 6077-12706-16474-38779
3447.16-29022-13721-14445-17223-4662-9685
3450.06-3271-2206 1997 11437 25956 12970
3452.95 17040-3972-21785-17895-214 18582
3455.84 7491-14463-17142-19531 2994 8325
3458.73 7909-14662-19421-15534-15074-17886
3461.63-15718-15059 2725-18226-31778-36931
3464.52-18287 40 19436 36176 34614-1858
3467.41-30262-43816-38878-49226-17066 16777
3470.31 26851 18817 18488-3648-25440-50357
3473.20-42165-26258-9871-1825 2875 3557
3476.09 7295 26324 26873-5505-19493-24977
3478.98-26268-36571-33218-14992 1208 7783
3481.88 26301 11590-8579-17443-24982-40980
3484.77-17673-4976-337-11097 15626 16991
3487.66-5153-29568-16046-12809-12921-14459
3490.55-12691-1310-4671-21858-29066-40676
3493.45-21454-5048-6683-17367-9806-29708
3496.34-43090-29008-25409-19702-6881-12734
3499.23 1754-5290-24212-50990-46909-20588
3502.13-15578-20578-12667-20607-33878-40468
3505.02-21873-15880-5276-15717-22127-14117
3507.91 17457-16346-46034-43018-9222 7489
3510.80-19145-35325-17952-29255-23404-21051
3513.70-26911-30507-21856-19084 1594-18099
3516.59-36900-24229-7858-17689-17720-31765
3519.48-39314-56845-54173-54978-30233-31070
3522.37-30993-40784-39263-44319-34536-37929
3525.27-53982-53518-40551-50723-32479-33147
3528.16-32557-36257-9210 9210 3978-21179
3531.05-30470-31576-29703-46595-38816-28295
3533.95-8101-10427-6450-26581-46949-68640
3536.84-36595-28255-22298-38707-44948-51429
3539.73-56780-30161-9356-32870-25301-22253
3542.62-31014-35101-13189-17821-16868-16474
3545.52-11284-42185-43024-35204-18851-22988
3548.41-18929-30618-19899-33874-55824-66842
3551.30-50371-41922-40449-58642-44131-53669
3554.19-72299-82125-55355-37498-24187-44693
3557.09-22856-5543 4209-23910-30505-25050
3559.98-12868-31105-25236-11566-1515-26165
3562.87-41646-44971-29931-40773-21099-44622
3565.77-66427-74138-33325-57101-87428-64502
3568.66-20056-22179-13854-16911-8429-6569
3571.55 6144-9301 5703 8525 2819-24132
3574.44-21383-9474 6515 9283 5237-28610
3577.34-10570-1385-26275-36191-10159 5312
3580.23 22027 2025 3205 9518 17484 25065
3583.12 24656 32178 44058-12580-40950-66137
3586.01-91851-67166-18537-11128-78702-97327
3588.91 1170 24050 1911-23851-4073 3550
3591.80 22316-1994-7466-12381 2850-3588
3594.69-30877-35517-17165-20045-12439-23621
3597.59-25427-18831 17124 40081 28928-18749
3600.48-18316-6999 3814-448 1391-3493
3603.37 12804 5800 24725 25028 33696 5445
3606.26-31913-56181-27765-20576-13202-111765
3609.16-86110-1179 18960 10474 12148-40867
3612.05-80971-34474 10256-21817-33752-18624
3614.94-5212-10520-3056-12919-34861-59115
3617.83-23150-30861-99369-113024-19821-2491
3620.73-5790-12257-6076-1445 14541 702
3623.62 13713 11594 11558 2417-11050-40643
3626.51-24801-21389-98980-173062-125951-242393
3629.41-184839-30088-4368-35693-22557-6623
3632.30-10704-39677-58402-45302 10503 17857
3635.19 27064 18074 9004-11990-573-21661
3638.08-21386-19017-10032-2182 21848 1376
3640.98-17237-33480-21531-16192-6911-15866
3643.87-16698-38189-31364-23007-37867-87348
3646.76-114987-90815-16085-72211-224977-152422
3649.65-45802-105448-107946-99085-20354 460
3652.55 1199-15047-118-15542-34088-56474
3655.44-118282-168049-63912-27221-16601-38317
3658.33-24926-11709 378-5656 10887-3547
3661.23 1569 8548 21137-117 19374 3947
3664.12-7755-25687-19914-28139-3191 8881
3667.01 19312-30379-125169-180543-94439-77067
3669.90-225489-324785-121964-22540-15559-53025
3672.80-27748-53351-82887-180976-174059-242768
3675.69-262645-90471-40270-62271-36701-27977
3678.58-50835-80634-51972-61041-53675-46805
3681.47-23150-31063-23399-35697-33842-42581
3684.37-21502-1371-2168-29035-16921-31122
3687.26-100689-350311-329466-126471-83876-88822
3690.15-84693-122331-90396-17744 3462-16102
3693.05-27244-36570-34895-33103-22879-27540
3695.94-18938-15512-9214-29211-48321-55056
3698.83-26143-24599-2007 10583-49206-116905
3701.72-65040-29307-15118-29535-31846-42139
3704.62-36074-46957-53172-56866-39908-34058
3707.51-25253-48070-98485-157599-109833-72452
3710.40-53770-65221-181532-264735-116713-40891
3713.29-12625-42473-39843-19325-2785-39723
3716.19-38652-39768-40689-61722-60090-68678
3719.08-42142-51867-37926-16238-9494-79666
3721.97-109873-88265-58638-71605-53435-63857
3724.87-47009-41082-90055-131607-64331-47397
3727.76-20086-12395-28163-51212-23397-37504
3730.65-61269-159271-255360-153533-42847-36315
3733.54-37267-109629-145233-129465-76956-172816
3736.44-189106-93847-56177-70058-44255-24491
3739.33-25767-51295-44006-57779-39120-49954
3742.22-59615-79813-139018-397851-571699-345025
3745.11-101874-42701-21025-58413-63552-57795
3748.01-76432-267070-397466-200259-33418-33631
3750.90-84125-328670-440327-195844-72208-53047
3753.79-43529-46876-32363-32579-50817-89534
3756.69-37364-9808 1172-11511-42799-94378
3759.58-80971-24560-16163-22814-17084-33816
3762.47-16726-24004-2427-13881-43621-92622
3765.36-87768-36097-7043-27946-30229-23080
3768.26-16091-54556-120560-90030-24365-35873
3771.15-13127-4538 10874 668-3904-11979
3774.04-7386-15178 298-7928-26331-35499
3776.93-10872-22397-12911-24513-50980-48851
3779.83-19136-11005 25051 34008 40404 7788
3782.72-7365-14357-32872-50503-6737-3571
3785.61-5841-28140-24038-42332-39821-54961
3788.51-24494 6218 23932 16994 38366 11709
3791.40 4471-4619 4241-233 9144-18579
3794.29-30052-56819-69034-118166-72339-32350
3797.18-36617-38072-26035-37204-10590-19711
3800.08-74203-290243-371296-145103-36529-44722
3802.97-32241-61821-75566-88193-54944-22573
3805.86-33043-174436-151929-33798-35358-49887
3808.75-45149-31672-15166-13778 17198 2566
3811.65 4553-471-18389-40880-46786-61134
3814.54-74886-186787-408760-281503-56585-49863
3817.43-44913-40369-8414-34781-68782-140144
3820.33-178908-170418-173567-100696-41482-62346
3823.22-38466-46498-42651-31621-22675-40869
3826.11-58456-53673-34865-55978-41225-42702
3829.00-34606-34522-11465-46208-135883-150300
3831.90-65156-51405-20057-34321-50980-140510
3834.79-105187-49918-43756-75664-157940-412255
3837.68-346777-123919-67845-82964-88647-106229
3840.57-127637-102253-56265-72897-110283-140078
3843.47-115912-73044-46139-44983-48625-66654
3846.36-36568-52483-64431-52675-49152-54290
3849.25-59515-79677-82323-127880-294534-396502
3852.15-177142-121651-324822-620332-496796-217314
3855.04-88424-66094-67701-75315-57171-69022
3857.93-64689-63839-72034-98063-85411-80708
3860.82-87806-137209-98241-81696-74729-90345
3863.72-90460-142726-204657-143600-78588-58767
3866.61-55527-73783-75670-93606-138315-203889
3869.50-311585-237025-89954-104136-61415-55513
3872.39-57754-93972-116161-140881-97166-87316
3875.29-81111-85893-70611-84550-84343-88915
3878.18-75659-99877-109111-187385-167781-125977
3881.07-96341-77563-68021-93513-84312-86091
3883.97-80152-122518-259831-299857-150475-92963
3886.86-75886-82062-76472-99563-73424-73346
3889.75-88334-136908-185444-151498-77003-87668
3892.64-76474-93490-97136-100358-93123-92680
3895.54-65250-86317-89271-92403-79214-88047
3898.43-132752-196439-128326-91788-75567-135918
3901.32-196385-170703-100211-93991-145155-234683
3904.21-149944-103372-93879-96433-75164-84138
3907.11-70728-77521-68755-76813-60779-73731
3910.00-73516-88801-65989-62267-54017-75611
3912.89-76378-79080-73370-82435-82355-109069
3915.79-98395-121441-151866-122351-53927-64723
3918.68-42836-69534-92660-68497-50346-76457
3921.57-58722-67780-87494-97159-54350-66953
3924.46-92880-110071-71390-67838-56377-60791
3927.36-45432-40502-43536-74825-68539-72063
3930.25-56991-68391-79175-113440-90023-96634
3933.14-89084-93967-79534-79188-53125-32758
3936.03-21677-46976-39300-39491-23394-34408
3938.93-53393-70900-50956-50700-34382-68714
3941.82-90702-117108-72369-49623-42464-26055
3944.71 3838-11394-21322-58911-62329-73379
3947.61-49338-44317-14926-72758-96345-75187
3950.50-62152-69176-59344-58765-34208-52948
3953.39-39406-41417-33161-57884-67394-64562
3956.28-15691-37019-44238-46654-36606-56164
3959.18-40780-45947-54262-81376-63753-78314
3962.07-58914-60487-37197-34835-33328-72956
3964.96-67207-71884-60683-68234-37320-37546
3967.85-24743-59557-54883-49959-35773-41172
3970.75-18476-41295-45685-52868-30456-27048
3973.64-17065-58995
##END=
