##TITLE=Sulfur Hexafluoride
##JCAMP-DX=4.24
##DATA TYPE=INFRARED SPECTRUM
##CLASS=IUPAC A
##ORIGIN=NIST, Analytical Chemistry Division, 301-975-3108
##OWNER=COPYRIGHT (C) 2000 by the U.S. Secretary of Commerce
##DATE=00/02/01
##$SPECTRA VERSION=1.10
##$UNCERTAINTY IN Y=2.0 % relative (B=1.0E-04,C=2.6E-08,D=5.6E-11)
##CAS NAME=Sulfur hexafluoride
##CAS REGISTRY NO=2551-62-4
##MOLFORM=S F6
##MP=-50.5 C
##BP=-63.9 C (sublimes)
##$NIST SOURCE=QUANT-IR
##SPECTROMETER/DATA SYSTEM=IFS66V (Bruker)
##INSTRUMENT PARAMETERS=KBr Beam Splitter; MCT Detector; Multipass cell
##STATE=gas
##SAMPLE DESCRIPTION=Sulfur Hexafluoride Primary Gas Standard
##PRESSURE=101.3 Pa
##TEMPERATURE=23 C
##SAMPLING PROCEDURE=1 L/min Flow
##RESOLUTION=0.9640
##DATA PROCESSING=Boxcar Apodization
##XUNITS=cm-1
##YUNITS=(micromol/mol)-1m-1 (base 10)
##XFACTOR=1.0
##YFACTOR=5.8207E-11
##DELTAX=0.4820
##FIRSTX=575.17
##LASTX=3974.604
##FIRSTY=.0000131
##MAXX=3974.12
##MINX=575.17
##MAXY=.039396
##MINY=-.0006566
##NPOINTS=7052
##XYDATA=(X++(Y..Y))
575.17 226519-354901 212440-225402 389227-55432
577.58 378725-302961 238595-306795 565943 3925
580.47 457803-42250 419788-242512 541016-239540
583.37 244521-291830 312794-276230 536975-257648
586.26 513006-89675 495318-98691 696298-38352
589.15 738993-59491 948118 239962 1056950 174783
592.04 1362552 495445 1479843 884325 1954747 1193733
594.94 2485896 1547951 2917382 1989581 3511484 2598860
597.83 4042331 3252846 4626001 3629237 5185754 4117234
600.72 5790489 4631013 6274495 4962994 6542131 5231563
603.62 6763837 5119922 6943675 4793087 6711788 4327824
606.51 6310173 3621478 5775437 2855588 5302106 1801231
609.40 4852794 737420 4939209-246831 7830988 3260078
612.29 7069562 3597719 19300495 4234358 95184123 46813177
615.19-11280866 8223632-3925580 5346163-1484398 4844654
618.08 415662 5185993 1860960 5954927 3350086 6697461
620.97 4556595 7474068 5630017 8041821 6457630 8532373
623.86 6966145 8640870 7183801 8634572 7157501 8372647
626.76 6912503 7877325 6429632 7173658 5780738 6548033
629.65 5072300 5768078 4420329 4873856 3592237 4069707
632.54 2869079 3428120 2238347 2780816 1754313 2216987
635.44 1271494 1729391 971913 1301388 513091 993472
638.33 285417 828055 162048 569835 118329 467538
641.22-29438 366843-101454 300276-119847 297857
644.11-171855 220263-155201 151245-160266 211771
647.01-192424 165686-197644 181023-159721 142950
649.90-197056 148691-152350 117075-138749 142375
652.79-196349 144958-85918 201721-174937 193661
655.68-116638 132099-125625 115100-120139 163981
658.58-130970 96215-133469 90151-127341 155137
661.47-111382 133645-103181 125265-59510 195219
664.36-118488 93046-165801 128464-15651 9116
667.26-403179-31791-120109 118754-205959 72743
670.15-115436 136492-76014 70103-31178 93932
673.04-54993 50411-45109 77587-33276 72904
675.93-92714 53134-77746 102161-33760 56225
678.83-71624 68426-14623 4127-53904 57484
681.72-51404 31517-20257 9234-71148 88831
684.61-22554 69316-107914 20906 38651 45274
687.50 10561 54235-61962 44608-52346-21203
690.40-80380 12770 13926 24904 14631 60519
693.29-32762 77177 3073-1543 18507 29561
696.18 4210 27562 50928 76641-52084 86014
699.08-51376 29908 39137-1020-17657 8625
701.97-43493 27299 20424 15573 65259 9375
704.86 20669 51581-2578 19996-64945 9921
707.75 15845 31594 14234 60158-43889 11690
710.65-11874 76587-4094 37911-36637 47770
713.54-20305 3648 4532 5366 36105-3527
716.43 34085-12957 13829 42838 58834-104
719.32 14583 12112 229 30479-3101-16218
722.22-18875-49071 33126-40 63308 17412
725.11 80996-47416-6692 15984 69412-47746
728.00 45269 26789 14001 16648 22824-40540
730.90 55635-50516 46378-38341 49717-34994
733.79 2044 19359 44737-29550 25259-38313
736.68 29262 20374 38687-1403 3324 27998
739.57 61094-46397 3872-71215 48017-40320
742.47 30129-42511 31612-53458 9812-24194
745.36-11594 14228 68791-54143 8480-14496
748.25 36559 21858 38089-21095 48809-13451
751.14 17850-50482-17925-30086 34451-25831
754.04 40397-51033 59730-56818 33783-45922
756.93 37343-49585 33290-57693 10546-72473
759.82 63879-46908 56243-53525 17806-36603
762.72-5618-24907 58661-47456 46891-64493
765.61 80242-72523 25088-57030 1963-41007
768.50 59241-80167 15612-77913 34460-110023
771.39 8614-56095 34451-80932 24668-47860
774.29 64209-47656 29782-67644 82268-98603
777.18 83949-62534 9330-88487 59892-67339
780.07 47968-75090 60972-106565 34910-108059
782.96 82106-81032 23914-85071 87916-105005
785.86 53190-91263 99686-89467 46044-88630
788.75 81851-97269 53916-107992 37513-87483
791.64 91855-87447 95581-106272 74508-89608
794.53 91382-115543 110720-102587 115142-145728
797.43 50217-147119 58316-118235 90895-86103
800.32 59161-99520 78541-92103 56469-85937
803.21 80645-86405 53587-108738 106535-93822
806.11 75558-88735 93328-99136 80615-102610
809.00 97064-89585 70806-83442 81547-105509
811.89 98288-93368 132299-114620 132615-108999
814.78 143391-137913 87536-110326 109255-148359
817.68 79488-119835 163624-57976 129729-113362
820.57 132622-119807 96518-112443 168394-116401
823.46 105200-109051 104623-116623 135914-111258
826.35 120430-162280 165033-189088 109978-84143
829.25 156923-124239 169817-125318 121873-115185
832.14 161262-170398 110107-159124 118815-125326
835.03 162990-140267 139106-104594 159866-118591
837.93 187505-146346 170176-149975 185447-136790
840.82 116001-162860 148093-142958 194629-157016
843.71 161822-99260 205676-119079 261740-68634
846.60 252136-103583 222238-114635 269366-95007
849.50 272485-65063 260029-32605 310992-8068
852.39 330898-26921 294259-35338 361131-23002
855.28 349354-32582 361395-22478 356478-19340
858.17 349725-5239 391295-40165 409991-52137
861.07 370508-41890 348869-58796 371115-69191
863.96 368951-10629 467353 35242 522725 200977
866.85 764109 524249 1099379 668114 1223327 1223725
869.75 1669742 30236 353631-144239 322005-156368
872.64 355404-141546 406120-111445 448416-63822
875.53 476986 25198 529411 36082 610476 61320
878.42 658596 77894 700168 138730 689869 160954
881.32 747802 180927 719534 152539 749839 138472
884.21 761379 143136 728210 113650 701521 94415
887.10 686264 33048 646939-7000 613743-72976
889.99 590075-117986 571922-143637 532103-179004
892.89 515719-205523 486548-278490 449245-308695
895.78 457686-324331 436960-349512 453410-370501
898.67 442836-372029 452434-387295 439210-387314
901.57 483447-459782 466191-447366 466314-458762
904.46 516157-432429 523652-462613 567296-485649
907.35 577313-456103 598465-466774 620228-467405
910.24 654937-454198 694184-484309 744812-465512
913.14 789506-467155 893748-396381 923905-374705
916.03 1058845-242982 1266257-66372 1521801 210591
918.92 1998451 692664 2675885 1428679 3654618 2562549
921.81 5074621 4053233 6953789 6037859 9113792 8284581
924.71 11666574 10678712 13902775 12543663 16672512 14666331
927.60 17635297 17205965 20954238 13441761 21901130 29226424
930.49 14374592 12962280 16234941 14864181 17585861 14464381
933.39 16376384 12378768 15485204 13052012 19004355 17986249
936.28 27061385 27659558 39724155 43372313 61098086 66689639
939.17 86081188 99605642 129405381 143289675 178016149 198147606
942.06 241255195 250645340 298415642 307163860 354996811 339492662
944.96 398330577 393807943 362131009 450197262 381278607 676824124
947.85 277045493 245059665 263563065 276419441 246016229 208270357
950.74 134679131 70889979 24258962 13226670 2945385 6376662
953.63 1090992 4924153 328385 3928246-147082 3272651
956.53-431607 2745766-580140 2421126-633895 2134736
959.42-692755 1975051-721933 1817909-675049 1681522
962.31-673829 1588572-654393 1496669-625606 1414755
965.21-560366 1377990-543727 1339990-481596 1314090
968.10-465589 1290336-402859 1279913-346229 1271803
970.99-272453 1291074-211222 1306702-115178 1337142
973.88-46368 1392965 56317 1469913 201042 1555408
976.78 339001 1693451 531648 1837017 747367 2056251
979.67 1005229 2339166 1319999 2579343 1604000 2826869
982.56 1858219 3042561 2003976 3093769 1996890 2975248
985.45 1798891 2684066 1631457 2422542 1130563 2102283
988.35 957710 2073991 1587003 1955907 1401647 3526275
991.24 1523259 2080354 1444108 2234333 1444628 2237806
994.13 1324592 2018533 1071380 1682025 706377 1309788
997.03 382261 1048087 161409 864349 48865 752493
999.92-52767 661814-100997 612610-169401 562313
1002.81-199707 510944-227557 473571-266239 442184
1005.70-281689 419656-270936 382549-268688 364088
1008.60-301294 351726-300924 320253-278244 337608
1011.49-310653 335146-309342 337175-302909 303546
1014.38-278196 335793-281333 299210-283921 307055
1017.27-293934 295201-278041 299447-273206 287843
1020.17-257227 302136-254157 267799-248393 295525
1023.06-265069 305103-262360 283980-251480 274340
1025.95-271601 279852-242276 254237-229358 282830
1028.85-222761 262144-229429 273956-237182 264531
1031.74-226903 245557-210841 259909-238988 238803
1034.63-220902 243889-216857 231869-218149 241839
1037.52-232784 251696-221438 246550-203845 220896
1040.42-238363 230592-219245 240020-215561 221560
1043.31-205428 230105-235180 229276-217255 220382
1046.20-216199 221813-206518 197394-219341 211963
1049.09-220751 204798-224473 215011-176308 208978
1051.99-192203 211287-201706 202483-202088 206448
1054.88-163369 182215-178585 201507-198714 209215
1057.77-205999 179469-197881 183981-214289 188409
1060.67-183245 197600-178507 180038-181729 185558
1063.56-192427 188738-193466 191453-198598 186567
1066.45-191489 185100-179027 161095-197405 127122
1069.34-199421 174181-166206 170825-144363 182424
1072.24-167282 151448-180199 169560-170156 154325
1075.13-178810 181653-183707 160075-179540 144110
1078.02-169461 169868-146181 170835-163392 147750
1080.91-157556 168667-158084 168256-147571 149901
1083.81-141553 158789-145914 152319-165657 169183
1086.70-148161 165080-178491 149651-171312 133339
1089.59-162643 117212-172511 137915-123177 151361
1092.49-138204 150193-178111 149109-174963 135860
1095.38-146419 135242-137347 123476-141807 151142
1098.27-170433 132918-140918 148793-140406 136014
1101.16-170304 136195-153473 115462-157910 122813
1104.06-158718 150293-170660 113235-162281 133281
1106.95-148578 112180-132316 126779-133054 115540
1109.84-142997 135275-151762 131696-141186 125070
1112.73-128259 115427-133775 144298-132163 120040
1115.63-128893 117787-139205 138231-133883 142400
1118.52-125304 126759-139673 117188-127571 123731
1121.41-119251 136854-124654 105761-129416 143239
1124.31-148019 123853-106495 121153-134005 126135
1127.20-111365 117101-114435 134303-105080 134001
1130.09-100688 126696-106714 144865-114588 130314
1132.98-87028 129805-93875 161529-98123 133491
1135.88-88164 137242-88107 133720-96157 120974
1138.77-121224 127160-92748 134222-109010 121252
1141.66-123828 114147-114936 118527-118326 112269
1144.55-105341 94619-112200 124737-110542 117485
1147.45-109908 102091-115558 103678-123864 107505
1150.34-122630 102599-122725 90448-121001 96753
1153.23-120963 92463-110988 89605-127695 92867
1156.13-116867 93271-104100 127397-126334 91791
1159.02-94457 106665-113941 99663-123705 84204
1161.91-116189 101985-118757 74959-112025 90702
1164.80-101306 88744-110164 85689-124682 100922
1167.70-118255 95897-113401 83862-115389 96522
1170.59-102241 80176-90447 87919-112934 106222
1173.48-106167 104454-119630 90116-108123 94962
1176.37-94483 83110-88792 85775-107591 73764
1179.27-88064 76990-92937 85374-109177 106385
1182.16-100094 107238-107866 108102-106047 79036
1185.05-98714 99752-98220 78160-96294 83989
1187.95-90518 119901-97988 91754-96064 88885
1190.84-77242 91612-80271 85841-80651 78460
1193.73-86808 87693-85677 88475-90995 90329
1196.62-84690 99541-108963 83629-106827 95278
1199.52-80514 91667-74847 80545-110102 84618
1202.41-98112 82686-75463 89323-93612 74332
1205.30-70682 92491-77794 96115-85026 70894
1208.19-73111 92596-74737 91877-83363 85988
1211.09-82695 81911-74580 104590-83963 79537
1213.98-80310 100371-77369 87576-59235 101830
1216.87-82733 97609-76700 90587-88232 88231
1219.77-83400 83234-82228 82562-70649 88091
1222.66-57258 89964-69424 98220-68947 81767
1225.55-73110 81915-72630 90648-93288 57356
1228.44-91265 75938-66905 108011-75333 102670
1231.34-66597 74756-69643 92120-83712 91536
1234.23-50365 83853-65441 87993-61944 107259
1237.12-68921 116302-41960 99288-37219 119384
1240.01-21879 132575-24691 138704 12595 170584
1242.91 7203 173205 27764 162051 46554 195334
1245.80 53277 228491 78562 219004 70874 234156
1248.69 75014 225127 84748 251300 107193 248323
1251.59 140821 295869 163209 323049 191535 339046
1254.48 242663 346227 204018 285579 281671 305012
1257.37 51456 245118 91872 238458 86870 242976
1260.26 71441 254237 85177 239707 83430 251685
1263.16 108110 245166 101612 240887 76499 208632
1266.05 53329 187432 40024 152322 17375 134505
1268.94 4523 122967-41374 110000-21086 82551
1271.83-72357 94681-45333 78230-67919 59669
1274.73-42205 84491-62276 93935-47014 82662
1277.62-62729 93441-34825 95639-38305 93193
1280.51-19603 74462-33577 76398 59242 127126
1283.41-72530 104945-43597 108442-42680 86003
1286.30-45735 74554-59078 60908-93332 76859
1289.19-87583 46516-79148 59742-66403 61842
1292.08-69698 69680-70235 55065-78048 55334
1294.98-76009 64541-82598 61589-70302 61127
1297.87-68928 66711-81583 63031-54045 64770
1300.76-72088 51373-56335 48887-57541 61152
1303.65-66107 51241-67835 49681-60210 58238
1306.55-63962 71203-71545 76658-63263 75691
1309.44-52796 59581-57335 48114-58866 53590
1312.33-59790 59790-64890 60144-61896 64748
1315.23-62952 44560-75720 54989-68717 66642
1318.12-75980 44334-71205 67010-65669 49759
1321.01-77595 68085-50382 56509-51941 70293
1323.90-56141 59688-41139 55936-67327 70737
1326.80-65584 62175-57633 51400-52260 47946
1329.69-62442 55325-57100 79726-53708 81086
1332.58-65274 62900-55997 59125-60507 68178
1335.47-42876 61710-57155 62244-33932 56543
1338.37-59678 46026-62375 56106-69028 60305
1341.26-88077 29115-72975 31509-98179 24875
1344.15-66971 41816-70816 33720-84741 33190
1347.05-60093-4752-57178 15813-124112 22110
1349.94-105542 25841-78692 37140-49594 108804
1352.83 15017 189676 114830 256316 156407 243176
1355.72 121523 202935 37327 141844-34136 67201
1358.62-71819 20793-134208-5735-148911-1299
1361.51-104584 3517-120042 24166-84609 27075
1364.40-54224 54997-44442 66061-31697 70974
1367.29-47950 58647-62370 77694-43759 65023
1370.19-27495 95092-26888 102756-30885 109789
1373.08-36658 82983-5150 81440-8929 77358
1375.97-23285 65851-35472 68494-4265 78700
1378.87-25017 63660-18329 60270-33717 94432
1381.76-22442 64572-12190 108312-14636 123014
1384.65 3986 107537 22309 174786 61856 93491
1387.54 149245 110602-52165 51232-53178 41046
1390.44-64210 70729-43774 60221-33920 54998
1393.33-47269-8339-75252 74893-60315 80499
1396.22-39239 78395-39638 41796-20453 2777
1399.11-47833 76529-32360 73569-45009 72416
1402.01-37395 57526-49177 48289-61327 21803
1404.90-67900 69000-51304 38815-53560 53240
1407.79-35721 49504-53580 45183-37539 38337
1410.69-67779 44098-51918 47081-56346 41086
1413.58-49349 44148-51822 49750-86376 45841
1416.47-59280-14748-48148 17815-79220-171800
1419.36-139013 58451-64768 45900-72002 35696
1422.26-62533 51339-85264 12128-58714 41475
1425.15-68124 48638-55087 49492-50529 37232
1428.04-72849 48188-71313-4270-65524 38240
1430.93-49876 44739-68431 34741-65922 47275
1433.83-43525 41263-59536 46506-82423-158729
1436.72-100978 46942-53159 47188-41448 48539
1439.61-54314 52609-45286 31253-44545 49736
1442.51-48821 46732-50762 50273-62854 45040
1445.40-52056 50794-50995 40640-105034 13761
1448.29-41520 53967-44547 46590-41639 43888
1451.18-57198 41975-37473 52069-41481 28818
1454.08-43716 38164-75888 57856-214015-240132
1456.97-28788 759-102049 34107-76504 45722
1459.86-31696 31736-59748 31467-35903 44956
1462.75-35516 31232-26835-43955-117193 51114
1465.65-48768 60864-50622 49279-50627 49413
1468.54-23920 42662-53996 40147-57225 24785
1471.43-183992-50131-15334-102563-112524 69768
1474.33-56526 42983-61465-27845-56112 57642
1477.22-41169 51679-42258 48497-40075 42844
1480.11-27309 45264-46996 51556-37846 49101
1483.00-36525 43684-55879 43030-38764 34936
1485.90-52735 41508-110937 38398-37729 29769
1488.79-60857-32288-59554-18292-74841 59223
1491.68-57267 55620-44804 49418-41707 49635
1494.57-62240 61292-208035-101538-14872 12523
1497.47-21968-12332-128837 51094-40293 37456
1500.36-35895 39051-51674 41050-47441 34865
1503.25-34987 30997-30456-21052-316632 35943
1506.15-169139-243593-71571 22189-87445 39488
1509.04-56565 10622-33596 23107-19592 13990
1511.93-105822 47562-55353 37255-38424 21561
1514.82-54919 47881-60818-4505-103654-20808
1517.72-27780 18820-55187 36850-130640 36748
1520.61-257648-130821 7805-86268-63461 17138
1523.50-30395 18659-44996-81778-64342 30196
1526.39-35312-9912-24994-1543-63348 38241
1529.29-41206 37579-38515 10950-48955 26849
1532.18-46276-25022-100516-60458-18281 15535
1535.07-21219 12339-28422 3522-2720-14096
1537.97-27531-295395-160383-26655-287977 32084
1540.86-28671-89125-208602 63372-78655 27991
1543.75-54507 35961-126405 44143-30863 68093
1546.64-19737 55701-17863 74762-16473 58387
1549.54-32693 56257 3858 84566 20121 83315
1552.43 21332 99496 16064-88632 38575 99001
1555.32 71116 94453 109384 34520 1786-18291
1558.21-179744 196271 6985-71900 19962 258799
1561.11 145693 286790 202545 297282 182135 308360
1564.00 218825 307007 276911 385180 304398 383496
1566.89 334555 426559 370666 428214 349236 323464
1569.79 426605 546234 445929 542466 454369 578841
1572.68 484637 613026 519122 627979 518578 641570
1575.57 246310 502603 645265 665190 647479 685511
1578.46 661067 695552 654170 726396 675652 715317
1581.36 687474 743077 696978 775078 782772 671431
1584.25 814699 741863 732548 570970 848146 461061
1587.14 1372237 1348155 276547 635935 395447 695047
1590.03 480211 614103 505169 679384 579032 681181
1592.93 527935 625448 503592 629525 514259 614806
1595.82 484125 578013 450222 533108 404671 479579
1598.71 348455 420360 302859 379148 263805 336229
1601.61 224512 319343 171558 264580 161403 255608
1604.50 137858 233219 116666 208554 103901 177276
1607.39 87105 171563 65104 135992 36127 140369
1610.28 52035 122068 31909 117330 15354 87359
1613.18-13997 100481-3433 85777-50738 99681
1616.07-293612-114370 4367 45731-13021 42738
1618.96-235 51966-12476 53863-10375 63759
1621.85-34118 59448-89898-47564-5810 39039
1624.75 219 28852-1612 42682-6773 1984
1627.64-42777 56956-22498 60151-6508 71348
1630.53-10088 61909 2329 48909 14598 59898
1633.43 5715 39437-57173-110664-213349 90882
1636.32-18943 44742-47608 71645-24870 73175
1639.21-19556 53675-24313 54845-13932 70906
1642.10-24424 52391-36160 62842-46244 32528
1645.00-63018-168178-72673 40358-106745 26590
1647.89-86076 58864-66296 70701-55771 67594
1650.78-87205 71464-359417-151730-385113-131935
1653.67-38634-119575-9798 1098-16069 14952
1656.57-22319 10697-26626 24667-13409 26222
1659.46-11657 21359-27302 15121-33065-2321
1662.35-145117 3880-30547 21555-33352 11382
1665.25-47799 10190-22579 19344-13345-2659
1668.14-32578-80518-147022 35850-60883 11689
1671.03-104416 14849-48275 19082-30275 4332
1673.92-37829-57810-215125 7775-42053 16618
1676.82-45612 16156-35677 23529-55034 478
1679.71-70650 9888-38738 20842-49283-4416
1682.60-119484-63872-82042-218453-412118 82116
1685.49-89258 41423-66428 45966-73407 23836
1688.39-65952 44950-70775 30886-52735 40756
1691.28-48689 37339-52172 41206-45072 63823
1694.17-67100 67361-306656-277382 18368 14637
1697.07-16315 64918 3042 57357-71748-182982
1699.96-173922-99270 18715 107480 24026 49038
1702.85 19879 78245-25605 62699 62834 105721
1705.74-6510 115618 95823 169155 169971 231331
1708.64 215316 300513 270810 392054 382899 509144
1711.53 501655 623187 648910 788121 668948 883610
1714.42 808551 828144 1067117 1128117 863620 744051
1717.31 1171562 950098 875008 1702430 769786 475236
1720.21 612162 639839 803980 770200 190855 11720
1723.10-25629 20047-36677 24257-33563 14608
1725.99-28932 9562-39127 10376-48541 6820
1728.89-47237-22646-74249 18099-62106 23526
1731.78-83700 36747-229864-93666-99894-243549
1734.67-31733-18788-26785-6764-25599-9447
1737.56-24169-19482-36455-40582-160234-1031
1740.46-30943 9221-39635 6158-67726-19714
1743.35-38428 11209-56824 18080-39188 16428
1746.24-30732-8332-24759-963-77969-1740
1749.13-35359 6791-30304-85582-165720 43191
1752.03-33246 23378-40397 19997-25316 22544
1754.92-34926 23013-48948-52032-28761 16155
1757.81-26177 22380-27133 22154-16229 33484
1760.71-14695-77048-79489 49794-25900 35735
1763.60-33437 21114-31463 29659-35173 26985
1766.49-41851 34531-102799-47370-24032 12859
1769.38-11125 9511-37853-66783-26860-24665
1772.28-235527 16546-41736 19384-24231 15757
1775.17-57955 16908-43604 15814-35844 15322
1778.06-35698 21767-28425 17905-49680 2996
1780.95-21524 18207-19321 23196-22634 15797
1783.85-26276-31542-41019 23950-20899 23456
1786.74-22666 20658-15370 33136-19546 28092
1789.63-15123 4439-61447 22664-15559-104316
1792.53-99166 42934-36327 26192-33455 32034
1795.42-49665 19440-22070 30756-25978 26725
1798.31-20495 769-62880 28917-24653 8949
1801.20-29036 13268-47216 36958-31604 22798
1804.10-31443 27863-19035 30569-26018 23442
1806.99-34140 8347-34125 40420-31866 27406
1809.88-41055 9065-15516 30726-36533 10804
1812.77-21451 24188-18499 25037-38036 26530
1815.67-22050 26068-23965 24230-8771 28947
1818.56-20645 22276-40042 22494-24137 25091
1821.45-22841 23352-29121 35861-25902 31740
1824.35-41205-31535-14478 13313-14158 22616
1827.24-30176 10238-22817 2082-34315-49500
1830.13-31026 18518-26425 30745-28509 10564
1833.02-29679 31205-29923 16772-18071 20915
1835.92-30501 15687-35026 24407-30044 28993
1838.81-25061 24842-32088 10709-35721 13738
1841.70-33872 24727-44900 16045-170201-38512
1844.59-28154 3631-28062 295-36325 3401
1847.49-48801 16087-41029 1636-47602 4504
1850.38-44280 8410-35836 2175-40227-3572
1853.27-47154 1660-41792 7959-47475 405
1856.17-50248-13286-46949-12695-58542-6575
1859.06-63041-27335-58248 8141-32688-3414
1861.95-36659 7098-44195 3114-46530-3042
1864.84-51597-9519-51543 1573-47876-25432
1867.74-62219 14612-105751-47950-43209-16120
1870.63-33758-25008-43529-12740-64775-36436
1873.52-74232-30512-77141-44341-78305-47522
1876.41-93834-57473-91420-49552-115240-64633
1879.31-112321-86358-113423-62570-105211-92760
1882.20-155683-98305-130521-102205-152508-114092
1885.09-159893-106981-161236-119731-164074-124167
1887.99-176069-130814-207478-141788-162714-143293
1890.88-158603-135731-159114-138981-178702-119949
1893.77-175060-126606-208642-119295-186040-118971
1896.66-152948-107195-157946-143221-202380-179322
1899.56-196171-116784-116268-55228-99076-67424
1902.45-110430-51870-68147 4753-25315-1177
1905.34-57924-26250-71036-21033-58122-15186
1908.23-52332-11046-60720-11935-49609-11274
1911.13-40958 9559-47008-1771-41351-1272
1914.02-47542-363-34189 8466-39542 977
1916.91-28667-51082-68652 8294-43858 4848
1919.81-39106 2453-34318 5446-44952-1792
1922.70-48408 19158-30612 14356-38058 24444
1925.59-37025-3456-48852 1417-41280 1702
1928.48-41452 1062-43540 6260-45418 10672
1931.38-40195 929-36195 4195-48894 21893
1934.27-40194-9289-42491 10570-35913 1157
1937.16-39547 8027-34013 17896-30866 5061
1940.05-42325-1204-37724 5245-59165-11462
1942.95-26394 4338-22335 1823-43190-3692
1945.84-31761-7980-35774 3435-27549 14178
1948.73-21859 2400-33314 16063-22336 13989
1951.62-24417 20696-17557 5331-28893 8052
1954.52-29260 13419-24437 20959-28692 4438
1957.41-28397 6276-34846 17493-30776 7569
1960.30-26122 2616-32474 15089-32433 3996
1963.20-38720 6670-32386 1852-17522 932
1966.09-22831 7758-40766-904-36538 14362
1968.98-26663 10700-28166-29-33104-1143
1971.87-29307-1695-21239 21435-19278 14513
1974.77-30670 5883-9905 20945-32681 3324
1977.66-22407 13959-18995 313-14897 6695
1980.55-33345 9962-30177 13858-20223 19731
1983.44-14563 13789-22726 3343-13389 1575
1986.34-24606 8201-32967 7955-31137 13349
1989.23-28743 12199-17889 14195-27950-7016
1992.12-35547 15678-10821 16293-26187 4468
1995.02-15721 14288-15606 11815-26360 14518
1997.91-33001 18404-15673 18613-14322 11435
2000.80-20513 19122-19037 16856-12376 19043
2003.69-13323 13770-21411 16189-22339 5404
2006.59-29824-9409-25194 9754-25088 17438
2009.48-17974 17003-20531 17526-18835 6837
2012.37-16158 4199-22781 20356-21465 8528
2015.26-18785 10928-25743 5087-15645 6085
2018.16-21004 10540-28518 2980-38985 7419
2021.05-15547 8020-26781 24103-26480 20292
2023.94-30183 14256-25093 14821-28923 12157
2026.84-16214 28386-19666 2220-17863-8885
2029.73-14061 8190-19633 7574-22187 23699
2032.62-32529 6159-25005 15965-30546 3710
2035.51-30192 7717-31382 4735-17130 7878
2038.41-25012-1960-27940 13160-26557-12175
2041.30-20623 1954-37144-1910-34320 6292
2044.19-21295 9214-27492 6386-27278 20007
2047.08-21719 3091-38837 8340-30801 6593
2049.98-20630 18043-37652 19-23648 3459
2052.87-27322 2047-22041-2932-38071 799
2055.76-30908-1669-43915 3571-37230-4876
2058.66-30404 4311-20681 9571-20730-3598
2061.55-24216 3889-25931-6159-29581 6894
2064.44-31369 13529-35881-257-35585 648
2067.33-19527 8036-20534 2800-34425 217
2070.23-28209-115-27539-1676-35215 6995
2073.12-22384-8526-36784 6591-28184-6962
2076.01-26425-12671-12135 8762-48913-4722
2078.90-43022 2441-39933 5268-32624 19254
2081.80-14886 2105-27227-12162-39074 7636
2084.69-31730-8563 1001 16780-34679 4449
2087.58-38393 1158-38689 9123-31404 28217
2090.48-23116-8982-24442 511-28658-12
2093.37-13997 2599 18114 3125-22146 8991
2096.26-27617 7557-27729-2512-25274 55836
2099.15-33873-2206-29235 1746-33007 18914
2102.05-40690 38318 19635 3895-20759-7820
2104.94-20607-585-20318-4159 42284 13667
2107.83-35942 3526-24730-3393-15667 10510
2110.72 8450 65968-35830-1143-33364 3696
2113.62-29171 4474-13603 86271-7061-4044
2116.51-27649 6134-38418 15969-28384 46188
2119.40 35555 708-14426-10368-16351-2411
2122.30-13970 26616 53208 15298-20748 5841
2125.19-25839-730-23880 2911 30626 40981
2128.08-20631 751-23772 14671-20751 3171
2130.97 20006 29793-14536 5736-27402 1933
2133.87-1095 4086-6751 18647-23571 10202
2136.76-17862 17288-42109 3301-16756 10502
2139.65-11079 7385-25178 16716-26850 8689
2142.54-22478 9441-18985 6157-14321 5988
2145.44-22188 9365-2595 36242-15222 14322
2148.33-13617 3267-18962-880 10650 22825
2151.22-27468 12050-23047 26734-15898 13548
2154.12 29102 12507-21912 14444-16386 19021
2157.01-23613 44189 41256 16036-5941-4375
2159.90-14646 15477-39499 73546 16973-6563
2162.79-9386 10587-488-7886 10002 81556
2165.69-25745 9323-21269 14425-21878 2519
2168.58 70588 44129-20541 11083-32184 14823
2171.47-35286 37918 58295 3492-65 1954
2174.36-10538-1323 6596 94963 448 10544
2177.26-12161 3680-15746 10784 47905 32371
2180.15-29315 15146-26893 8702-30010 55617
2183.04 25405-8729-10656 22030 15549 20009
2185.94 36818 45796-35576 11079-36557-1275
2188.83-36974 37455 15958 603-7651 17857
2191.72 3602 8160 30398 30678-25567 13711
2194.61-29903 9686-33757 45508-10312 4643
2197.51-14258 18056-23614 11498 21546 23551
2200.40-11658 10262-15798 11548 9273 30926
2203.29-8608 7908-20011 4827-33061 27898
2206.18-541 8078-15540 11870-13076 2330
2209.08 1828 22352-9157 13805-5496 12982
2211.97-2829 3781-7099 16704-4925 14519
2214.86 2741 15750-3654 15830-16960 12729
2217.76-4040 17465-1756 22415-3733 7707
2220.65 5729 34277-7818 29475-5280 17347
2223.54-3595 11486 3801 21593-2010 27244
2226.43 1689 19269-3975 30493 6027 30586
2229.33-10357 22362-5595 5351-22962 1786
2232.22-9584 3532-8230 15330-11915 5787
2235.11-20987 4996-20149-750-30463-8020
2238.00-17458 14169-18325 4431-30518-12500
2240.90-28778 4554-11864 7429-16868 12296
2243.79-10712-280-22864 8723-12231-6484
2246.68-22924-3799-11283-363-30115 216
2249.58-13132 18101-27990-5824-20054-2059
2252.47-19970 7274-10746 7194-13914 7381
2255.36-21348-551-20348-7971-15862-3840
2258.25-16373-6292-15444 2847-22333 4688
2261.15-16562 5357-13103-10926-17850 7192
2264.04-16172-3476-21493-2906-20915-2422
2266.93-26919-9021-17093-1505-20845-5779
2269.82-18994-9189-17518-1108-20969 11341
2272.72-13658 5095-18029-3585-22079-2228
2275.61-23573-11879-16283 4119-29657-12445
2278.50-26919-6-17003-3932-16064 7813
2281.40-19734-9813-21828-5783-14176-5274
2284.29-23597-10842-16845-3666-17852-16634
2287.18-32828-17640-37095 301-20566 179
2290.07-16660 1870-21614-5405-7797-7690
2292.97-23929 1005-19402-8512-19717-397
2295.86-29184-16931-33572-11804-32518-19406
2298.75-19760-3715-34049-10740-35884-25695
2301.64-32224-36853-3500-573-14127-30032
2304.54-26385-8734-14776-17584-50398-22661
2307.43-33736-15096-45307-34813-26877-13522
2310.32-48053-56510-10999-15005-37270-87526
2313.22-11498-28217-13323-110169-43059-44731
2316.11-2446-118403-57648-28253-9786-132295
2319.00-81712-22447-13956-127605-109483-19165
2321.89-19278-161877-135155-12368-21720-159194
2324.79-149613 4044-45558-203637-155801 14429
2327.68-93257-236034-150835 43891-126051-247471
2330.57-100915 35922-199097-253097-46376 24133
2333.46-245323-209507 4005-72019-323552-114501
2336.36 17658-184911-288178-370-45368-252323
2339.25-165892 36838-164204-247361-31687-19286
2342.14-237800-99488-1393-125865-184264-7469
2345.04-84011-130351-70537-10230-94321-39204
2347.93-32313-16985-38070-51114-41219-12430
2350.82-111248-64033 6436-121410-134796 13373
2353.71-178470-166964 4612-200041-221439 47341
2356.61-254555-223509 36038-277343-235389 42699
2359.50-355687-150024-11734-370528-81262-89785
2362.39-385099 32247-250060-247601 23575-321055
2365.28-100382-50601-324926 48734-257301-130729
2368.18-31536-246798 8119-195068-103334-43255
2371.07-183399 17929-185702-11626-120635-41488
2373.96-61494-69869-22148-83866-19257-54567
2376.86-20379-50145-23471-26134-28781-23866
2379.75-28131-21510-25151-9086-34372-8745
2382.64-22921-18285-23141-9885-14821-16664
2385.53-15472-10455-20497-14688-34280 5881
2388.43-18973-13840-22861-17937-24028-3445
2391.32-26223-17638-11301 4965-34977-11395
2394.21-11308-5635-15194 2223-12333-7289
2397.10-15564-13360-33437-4966-8053-8065
2400.00-18147-5892-31417-6312-25726-10865
2402.89-17976 4153-17322-7049-25733 3959
2405.78-20747-2078-28712-6803-28580-3131
2408.68-28422 10406-34834-15427-28300-16144
2411.57-13978-4280-16930-9342-29664-897
2414.46-12246-3259-17463-1651-17723-6
2417.35-24588-4588-22445-5517-26058 482
2420.25-34244-9322-35252 1124-17420-6805
2423.14-26870-10261-19913-19616-21269-18875
2426.03-20890-1671-16719-8008-29489-3841
2428.92-21477-8135-20122-9390-30547-10551
2431.82-31977 3442-29122-8237-24033-10996
2434.71-33633-10622-8622-15696-20794-18456
2437.60-8647-2917-27623-12645-37390-14867
2440.50-31996-15301-26282-14537-31693-13904
2443.39-30517-14633-28737-12252-15155-3657
2446.28-29166-3501-34513-14025-17567-6154
2449.17-29342-16039-33037-15629-17347-17582
2452.07-28201 1921-25994-4859-28092-8822
2454.96-27891-11589-32034-2210-26961-30696
2457.85-17991-13387-18411-1628-11175-14214
2460.74-15505-8269-29190-13445-22617-6476
2463.64-14298-7439-18015-12474-23097-14647
2466.53-11049-26337-19385-9267-14252-11037
2469.42-16147-12386-32438-4825-18047-15660
2472.32-25590 1388-29742-16174-20306-9607
2475.21-20493-10452-21190-5902-19296-13458
2478.10-30275-20890-34385-24591-19308-4265
2480.99-30675-21432-21110-3078-18071 2952
2483.89-29471-11756-21972-5949-25359 1704
2486.78-14939-9024-14682 500-20478-20007
2489.67-9565-3782-26631-8406-24498-16503
2492.56-14228 5886-20879-7483-3785-17309
2495.46-25892-7894-21288-5631-19504-13045
2498.35-21612-10866-23662-7295-18838-17778
2501.24-9156 1176-12471-12210-18580 1093
2504.14-19918-7779-9278-2224-20775-14182
2507.03-30961-6896-38391-15078-24600-16091
2509.92-8137-19440-27418 5257-10157-5399
2512.81-13752-13981-14464-19259-27533 761
2515.71-21871-19879-26483-22286-20080-18664
2518.60-11786 5782-6387-10233-30351-14385
2521.49-30495-12973-30120-4011-20508-20210
2524.38-21182-8700-18634-9661-29372 4955
2527.28-10522-3889-21128 6526-17511-11309
2530.17-34085-9087-20204-11053-9084-19258
2533.06-19081-16399-27943-15599-25854-14617
2535.96-25801-19575-18671-5979-15911-4883
2538.85-9602-9094-29231-11874-14778 2553
2541.74-28878-942-17438-12430-35156 5837
2544.63-16781-3805-31663-4412-32650-11523
2547.53-12463-4863-15636-10291-22116-12954
2550.42-30835-14753-15961-2748-30715-16770
2553.31-18452-14040-23703-14648-15893-9379
2556.20-12419-13903-16086-13954-14487-16851
2559.10-19312-18126-18065-17518-47745-4645
2561.99-16209-8764-26402-12029-36422-19259
2564.88-22809-28719-10061-22433-31937-21289
2567.78-24056-17331-30053-23917-28169-25087
2570.67-23157-8700-29329-6569-15399-17852
2573.56-21733-16386-27325-19487-43112-2253
2576.45-19535-24902-19688-28848-22242-6772
2579.35-21637-12131-20673-26137-25717-12558
2582.24-24600-22622-29878-14046-15521-16874
2585.13-17117-23786-38868-32125-31325-17831
2588.02-36188-22798-21522-33859-31694-17707
2590.92-25544-24489-33205-12647-25469-18426
2593.81-24068-26741-30809-26207-33264-28078
2596.70-21676-20864-26311-20786-34183-30933
2599.60-28892-23685-34013-32883-28371-11766
2602.49-33689-23488-42878-24054-30778-32078
2605.38-26358-23497-32629-27969-42446-22267
2608.27-31834-27604-41502-9636-32346-26685
2611.17-24248-37080-48945-21421-30194-25034
2614.06-24562-18780-31634-19787-44119-21472
2616.95-41366-20907-42179-29599-33042-14874
2619.84-34892-20764-34811-17403-43096-29541
2622.74-26052-23635-28920-23734-50039-26597
2625.63-25991-23611-34148-14234-35729-33088
2628.52-28492-27959-29166-19133-26800-25735
2631.42-35418-24490-22963-39015-29989-19591
2634.31-29514-27043-30659-30719-25269-22801
2637.20-22139-19426-31419-19036-38745-14683
2640.09-24428-14227-34880-28337-25155-29201
2642.99-19936-31748-36114-10029-16233-8022
2645.88-13465-13728-29880-29160-18649-34525
2648.77-11421-18795-40044-29500-31019-13421
2651.66-22401-28571-34126-42476-28616-17855
2654.56-31943-13380-31174-9154-24429-27003
2657.45-31249-26382-32466-18785-3164 2571
2660.34-39046-13586-36645-11339-20644-20301
2663.24-29160-34892-32358-21098-23458-18409
2666.13-34856-6335-38555-14675-16755-15770
2669.02-6369-21563-36929-20095-31878-32487
2671.91-31089-8733-20844-19356-33993-22346
2674.81-32383-23678-42866-13554-10441-9999
2677.70-17230-26164-40763-17788-30372-23374
2680.59-13430-27988-40728-17242-26024-29528
2683.48-18283-13137-32023-17990-51746-14475
2686.38-17694-13530-35585-39921-21178-15576
2689.27-29899-17755-24676-19615-26652-25593
2692.16-23402-24472-25446-16297-21546-19610
2695.06-29660-14995-38857-32776-35343-28910
2697.95-35767-29049-27988-17981-20028-35266
2700.84-23027 749 5127 10665 768 6345
2703.73 4439 8826-4040-10088-38350-41625
2706.63-56046-42318-37407-38123-35039-36856
2709.52-28629-17522-12180-11524-7595-14596
2712.41-24471-22484-29257-28180-41140-47896
2715.30-38733-31384-30214-32012-22021-29570
2718.20-30518-22550-26849-14628-22083-5328
2721.09-31189-23800-29144-18206-34857-23411
2723.98-22671-21819-26458-25702-18453-34218
2726.88-20079-35598-21587-12186-38198-5117
2729.77-33399-23442-25185-14231-21757-17537
2732.66-25206-5486-26631-14594-24488-25809
2735.55-26312-35281-31835-19522-40975-23835
2738.45-12668 7149-9310-12540-18537-12736
2741.34-12856-12177-32583-18473-37819-19013
2744.23-32279-22953-25649-17431-25869-23236
2747.12-22274-16090-22984-22238-28065-27019
2750.02-24957-7367-26107-31840-22929-15811
2752.91-30377-35227-12086-10173-21698-18608
2755.80-14936-16645-31156-41777-37336-11616
2758.70-33454-14754-34485-7641-5023-32345
2761.59-25544-14265-26143-8830-19404-20952
2764.48-25513-11898-21187-15995-20927-15382
2767.37-47421-26644-34390-40146-28553-27347
2770.27-11438-18564-24274-23254-18637-34140
2773.16-18678-28491-23438-23934-11099-28680
2776.05-26534-11422-30728-21433-20171-35521
2778.94-24358-34760-32106-33342-19896-19840
2781.84-25035-34209-24174-19343-26393-25922
2784.73-24587-17667-31160-19678-23668-14686
2787.62-15416-18409-21077-12521-36694-46268
2790.52-32243-26810-25270-26067-24039-31438
2793.41-44334-25498-17845-21586-25186-18178
2796.30-26347-10919-10272-13068-33853-19561
2799.19-38937-49737-18960-28682-8671-24407
2802.09-22940-34725-28859-25012-21494-15710
2804.98-35510-25893-18172-26120-18769-28488
2807.87-32645-23418-30313-29229-20037-14915
2810.76-27698-25679-17337-24224-10357-11905
2813.66-23444-12198-27667-25012-22058-21194
2816.55-26528-30788-19939-21634-35796-23578
2819.44-13624-25826-25383-23537-35166-21264
2822.34-32459-30859-29757-22804-35797-33556
2825.23-24076-15967-23498-32900-35726-17159
2828.12-16821-8058-11575-25013-8924-28348
2831.01-10098-9571-32790-35067-22892-22553
2833.91-4147-25793-28479-24746-11173-20431
2836.80-11850-4906-7178-29048-31438-22148
2839.69-29168-41544-55549-32925-45191-38114
2842.58-40239-30016-28747-19825 1851-4047
2845.48-572 14639 23143 20994 12129-2634
2848.37-17455-20755-15916-27475-24731-32011
2851.26-23460-42258-36724-43801-22464-347
2854.16-9714 22191 80 12960-29354-19187
2857.05-44453-49900-44878-51025-39247-39365
2859.94-32033-539-16650-9997 9342-14666
2862.83-15355-11974-17764-9973-26445-25386
2865.73-14523-28237-17259-22609-8798-11807
2868.62-20648-16326-22909-17940-19646-8413
2871.51-21596-15046-19218-10812-17784-12779
2874.40-7400-11639-5761-13197-15107-10842
2877.30-9647-17014-4138-22155-14870-22424
2880.19 878-15260-26055-15932-14564-12908
2883.08-26202-19299-12528-16656-20147-24246
2885.98-6537-22193-12035-24958-118-13853
2888.87 2549-8051-3746-18177-19806-31311
2891.76-2203-11003-20804-23793-19093-13067
2894.65-4377-14512-7076-27001-14335-10417
2897.55-10541-6395 3091-15389-6888-24724
2900.44-10450-5634-14807-18440-15286 1185
2903.33-12194-10553-36953-20151-18552-7150
2906.22-19510-24264-11437 4861-20125-14539
2909.12-33373-27441-18691-2999-7819-16411
2912.01 1416-12953-19309-18111-8967-9558
2914.90 11851-19750 10862-9768-7918-13622
2917.80-34899-17603-15365-31470-21795-20986
2920.69-12620-18914 3501-9626-16151-12094
2923.58 4304-28741-8932 3014-3480-23675
2926.47-14212-52-6476-14264-23050-18884
2929.37-3604-14321-22902-31710-9821-6900
2932.26-11743-11069 1689-6517 1535-18486
2935.15-13870-38687-15773-2174 2344-22588
2938.04 2787-13216-18728-19704-21916-31531
2940.94 2475-13853-16735-9655-5782-11663
2943.83-21762-29144 6372-20230-11159-8261
2946.72 5758-24700-20076-17828-20252-14533
2949.62-9012 3553-33051-21033-5343-9449
2952.51-8154-21854-7912-22266 1814-16635
2955.40-10150-8137-7031-12094-2347-9738
2958.29-18955 12197 5348-18092-9699-41042
2961.19-54181-20811 17127-15773 1257-2391
2964.08 1868-22022-11908-15687-19262-3300
2966.97-1694-22114-455-929-13912-16375
2969.86-37198-3856-7582-7645-7030-24584
2972.76-14290-27021-12328-9348-23732-20177
2975.65 5623-4892 4972 13782 3224-10402
2978.54-1577-1473-2408-10299-5723-9560
2981.44 3019-723-9067-30403 5171-14322
2984.33 12206-21896-11916-2506 3200-3923
2987.22-23595-12499-17337-32137 12745-8766
2990.11 6326-25430 78-10910-29668-17829
2993.01-11294-15546-10115-13912-7763-19726
2995.90-15348-27812 6811 1113-12595-9057
2998.79-627-10132-98-38626 3127-22800
3001.68 7443-24505 3459-11099-10433-11571
3004.58-5252-26012-13847-12445-5280-2965
3007.47-10102-2074-11030-12828-4563-9505
3010.36 1924-17989-21487-19097 15413-15409
3013.26 1545-9765-3426-23390-3121-27912
3016.15-16645 1089-17232-283-7405-24530
3019.04 3456-12086-28301-21841 4821-11360
3021.93-11218-14468-9674-29974 1843 2203
3024.83-18601-10557-11727-2931-3208-18438
3027.72 6020-11381-4873-24229 6543-12785
3030.61 3489-19775 3611-28592-472-16940
3033.50-16922 2397-8304-12206 8506-24886
3036.40 16000-2879-11542-23988-4500 10594
3039.29 1476 540 4127-16433 4660-10335
3042.18-4555-18560-3902-19267 794-11357
3045.08 10675-21560 6644 6501-6064 532
3047.97 6377-5065-15058-121 1819-4775
3050.86 1589-16825-10344-20488-49650-22966
3053.75-827-19372 7630-7466-12974-5141
3056.65-12512-8482-17681-4008 3388-14337
3059.54-19026-16813-4013-10693 7862-20199
3062.43-34363-26682-18510-22837-10092-10107
3065.32-21700-27139-24419-21303 4765-20183
3068.22-30804-24737-7302-19845-2382-10826
3071.11-1752-27428-29838-2089-18340-16788
3074.00-6793-22182-7426-27479-1740-17409
3076.90-5714-13078-13345-6207-14622-12138
3079.79-22827-14994-17602-35929-16556-1235
3082.68-20762-20636-28728 7195-20069-27814
3085.57-14359-31213-17736-36110-381-16735
3088.47 484-15063-3867-40981-6895-4936
3091.36-20149-10103-14537-19988 4928-20620
3094.25-15575-36554-14090-26829-12205-21200
3097.14-3677-17230-3946-17149-6328-22989
3100.04-4298-29682-17394-30141-22246-37243
3102.93-5962-36177-18461-30630 2440-20769
3105.82-17362-13820-11846-25765-19308-24408
3108.71-19520-8035-20462-23407-15609-14667
3111.61-12330-3459-8625-11456-7105-9342
3114.50-7378-32904-10788-13214-14674 2340
3117.39-3472-40298-27900-21681 8126-1053
3120.29-292-18480-7517-15628-8988-20137
3123.18 9968-26332 1759-21355-13084-39909
3126.07-15448-19666-9314-23933 5490-37953
3128.96-16390-22506-14458-2421-10702-14601
3131.86-26422-26398-13210-30144-7467-25594
3134.75-22437-6427-12396-2278 14994 563
3137.64-15456 7064-3632-28452 2764-30877
3140.53-25433-23996-14489-4898 10401-24892
3143.43 17417-4050 19752-28289 13709-24688
3146.32-3168-20138 4478-29015-4500-18833
3149.21-13384-13953-13051-13443 4708-15590
3152.11 3702-14062-3322-25777 5615-12817
3155.00 9031-28691-3566-33399-3333-6193
3157.89-4979-23017-15523 7615 16435-10586
3160.78-6569-9933-4206-13284 10202-13034
3163.68 12158-25711-11184-29859 17929-192
3166.57-9915-38367 17631-6661 2214-24146
3169.46 10796-17418-6192-18604-11673-25080
3172.35-8265-10715 11320-12221-19640-18639
3175.25 3588-3890 12178-5736 4416-11159
3178.14 24628-14068 11533-5000-8470-11929
3181.03 10111-10017 10930-34892 8160-9448
3183.93 5141-16782 6653-30783 1694-7356
3186.82 9587-19430 14065-17005-13219-24057
3189.71 9351-15662-11431-32809-10301 2170
3192.60 1057-17651 2078 966 5082 5201
3195.50-201-27331-1938-37449-22379-38289
3198.39-4777-13195-3100-17391 11398-7058
3201.28 4474-32266-8934-16018-1771-8533
3204.17 1007-9828-5053-30185-19916-37623
3207.07 8357-31859 2023-34670-11950-27497
3209.96-13464-31126 5564-6662 16739-26212
3212.85-21596-18795 3197-9238-6591-4041
3215.75-7809-3679-8605-31876-10881-30709
3218.64-18340-22959 4873-55996-28353-44537
3221.53-35255-38899-14301-26285-5843-23702
3224.42 15260 5076 13634-22635 14843-1334
3227.32 21001-32578-7223-39249-31209-34854
3230.21-7966-24833-34105-14525-3218-24525
3233.10-4193-25520-11062-42552 704-25702
3235.99 10904-27861-4491-21729 8914-13426
3238.89 19202-5962 10155-11020 2489-8812
3241.78-9238-23306 11282-9769-21087-27129
3244.67-28814-35152-21506-44713-35400-68273
3247.57-16286-33770-30762-39157-12585-27982
3250.46-15936-10157 2441-19083 10033-10066
3253.35-7773-31106 4335-37975-21598-24549
3256.24 23605 10434 32317 1478 34596-553
3259.14 28133 5144 4032-27182-10117-27850
3262.03-15570-16446-26619-28139-11845-38202
3264.92-14487-54758 4251-17051 1496-32802
3267.81 10507-16060-13991-11174 642-850
3270.71 8199-19549 21527-9721 8378-10319
3273.60 10479-22589 20058-36578-6738-18403
3276.49-3638-17467-8064-31214 6211-28038
3279.39-9756-23126 3328-18708 24786-23836
3282.28 27520-6199 16422 15517 11337-7981
3285.17 15172 1152 13322 22352 16656-5962
3288.06-2752-20963-1103-16796 302-14536
3290.96 6384 8545-821-6737 7173-2603
3293.85 138-14095-378-13505 24241 5987
3296.74 2407-28603 60 10892 5582-11261
3299.63 1084-11849 2655-6810 23173-4919
3302.53 19972-41997 16446 6621 18856 1488
3305.42 24318-15253 19198-312 10366-3419
3308.31 9579 8525 10372-1607 894 4895
3311.21 38851-9384 8853-1081 21468-2421
3314.10-10065 2348 36731-10402 4319-26700
3316.99 20716 2446-7265-11019 9533 3739
3319.88 18138 14740 12105-23355 8401-23723
3322.78 13225-17619 3487 12393 16052 4085
3325.67 35389 21274 19552 4728 15433-15797
3328.56 7656-9810 19202-8761 2610-822
3331.45 16120-12973 5495-3603-1191-13195
3334.35 22840-11652 26819-21292 35234-8328
3337.24 25650-4109 5015 8441 15476-20052
3340.13 12661 3488-8123 1631 2359-13031
3343.03 25070-5678 16416-4547 8026 12834
3345.92 5567-11438-2308-19779 22337-27874
3348.81 14625-9209 7486 479 10583-1571
3351.70 11509-18401 13460-45693 23306-21393
3354.60-10839 3021-7707-29548-2459-22120
3357.49 813-10087-2138-29379-7326-12542
3360.38 10306-22311-3786-38566 4491-28783
3363.27-16477-28564 2228-38505-17287-25665
3366.17 5568-49704-3388-467-11174-22622
3369.06 11219-9935-11585-17120-15695-23580
3371.95-13448-18896-3494-35776 8186-24015
3374.85 2317-16919-2032-3376-8160-31381
3377.74 3923-26484-5815-51325-2048-26957
3380.63-20259-14878-19190-45264-11325-43262
3383.52-1960-24204-1207-34983 12040-29953
3386.42-22493-33415-11126-29349 4423-31175
3389.31-11772-38710-5933-15802-13104-46354
3392.20-28310-5771-16234-23710-400-40044
3395.09-7711-32344-4475-38178-28404-5053
3397.99-13812-21703-7708-22272-6514-23689
3400.88 16631-27931 14991-34782-2657-33840
3403.77-10042-33329-16696-12423-11223-37335
3406.67-2633-20615-13376-18008-12023-50514
3409.56-18393-43000-13030-31901 1867-12018
3412.45-22109-9087-17396-14894 189-45884
3415.34 3128-17683-3089-20619 1304-1176
3418.24-16234-15729 3703-31605-15660-26414
3421.13-12412-34202-4528-30190 12234-15673
3424.02-6485-12092 7379-23594-9322-16669
3426.91-6915-13930-6209-48805-4026-28641
3429.81 1095-22492 2987-17272-10742-49433
3432.70 25620-38299 14202-26310 20416-35469
3435.59 8741-28805-14561-26217-1732-14909
3438.49 15768-20644 2643-25139 3724-22757
3441.38-1881-30737 2545-36548-4072-46540
3444.27-10498 7289 11088-19829 8245-35870
3447.16-8581-7921-1680-19891 11099-16571
3450.06 7211-7973 7142-5306 30941-11107
3452.95 24079-8469-12393-10817-1836 14882
3455.84 8373-18023 2415-25998 16337-6327
3458.73 17973-18750-5794-10668-2529-16358
3461.63 2425-24411 22804-23076-7300-30171
3464.52-2413-4463 13272 15413 30403-10757
3467.41-8750-35945-1777-45202 437 6138
3470.31 23154-1988 23002-11902-2022-39501
3473.20-15215-17419-594-2550 2911 2120
3476.09-443 14337 24922-13641-4865-18298
3478.98-6139-24495-16080-10810 9275-8612
3481.88 28362-348-1499-15647 858-41418
3484.77 7038-14442 17692-28675 25549 2414
3487.66 7647-32415 3671-11600-3602-8159
3490.55-8877 1191 3822-20087-3860-34826
3493.45-3163-4942 5061-21781 8533-19279
3496.34-27838-9914-11884-17532 10529-22463
3499.23 14947-9001-3990-34567-26657-5702
3502.13-3990-18524 2730-15360-10684-34161
3505.02 2790-20520 11786-18757-1125-28513
3507.91 38108-22102-20611-31671 557 10945
3510.80-8280-33806 10464-30028-3038-14334
3513.70-8294-25239 1450-26543 19995-16445
3516.59-20121-18107 10241-22807 5585-29407
3519.48-4695-45863-10693-48159 4767-29194
3522.37-2529-32902-8365-33475-9219-19876
3525.27-25861-37723-1620-47081 2376-29841
3528.16-3145-34545 5192 1935 11828-20787
3531.05-9088-25117 109-40018-7282-28559
3533.95 13619-21396 15066-28338-4871-63996
3536.84 5703-29921 4805-30077-17972-25718
3539.73-33645-19939 15637-36507-1249-16394
3542.62-7480-34445 12117-22899 3891-24049
3545.52 17973-42845-8744-31842 7809-27898
3548.41 8792-34746 6770-24551-21639-47134
3551.30-13362-31594-2194-51785-3461-36394
3554.19-26366-60225-11118-35026 13655-50138
3557.09 7117-17787 24439-30348-4714-26555
3559.98 13522-33262-2794-16382 17251-27046
3562.87-9925-41854 11200-50520 19903-42517
3565.77-15232-68680 15531-39524-45513-46461
3568.66 14391-30501 10222-24591 11577-22001
3571.55 26946-28564 20419-7958 18429-29531
3574.44-1657-14367 15405-7999 25163-40175
3577.34 6455 1472-11244-33115 9613-12332
3580.23 32302-15603 9113 199 11359 11054
3583.12 17665 103 53367-28812-12466-31883
3586.01-56573-36675-4635 9395-38828-92174
3588.91 41119-1418 18451-39244 21776-22301
3591.80 39989-23385 11648-21692 12619-1445
3594.69-15989-29274 7219-25251 9352-24162
3597.59-3335-24605 19860 14910 34677-33264
3600.48 2155-13284 14732-13271 16257-22921
3603.37 30751-22419 35422-8118 39438-11147
3606.26 275-61032 20942-50697 57428-113033
3609.16-36595 7795 18521-9138 26314-24929
3612.05-57015-20536 30646-27085-14108-14997
3614.94 9439-18501 11576-15557-1563-57945
3617.83 8272-11086-46299-99663 32591-19685
3620.73 11207-20368 10475-18534 30900-22930
3623.62 25128-7098 17760-9998 12174-43212
3626.51 222-11459-15234-171580 43436-205323
3629.41-89953 8897 8535-35836-3160-6624
3632.30 5684-29490-22454-47170 34620-11305
3635.19 32554-7062 24805-32838 26931-32363
3638.08 2774-21973 8207-20238 35406-15163
3640.98 4576-34419 3477-21469 12739-23957
3643.87 10075-36568-7223-15537-4651-55185
3646.76-55762-67121 15034 2461-176295-84140
3649.65 41092-108443-13387-99658 32919-22688
3652.55 24646-33847 22679-19916-8642-34242
3655.44-31002-153445 23868-43127 22651-47244
3658.33 5482-21364 20637-27072 31553-23980
3661.23 17950-16423 40796-34333 40477-19516
3664.12 15721-35698 13006-39437 18885-13011
3667.01 32554-20037-48600-141423-15360-26656
3669.90-81220-278658 23261-43298 37901-81333
3672.80 39177-73115 21307-159458-39542-126202
3675.69-194487 7386-18041-48252-5359-19287
3678.58-7788-74276 6819-55720-7185-45934
3681.47 14422-38881 10626-37889 1779-40925
3684.37 1756-10914 22888-48172 27931-56430
3687.26 44380-265630-188980-14862-46736-54181
3690.15-18992-85201-48532 613 10500-16158
3693.05-7376-26434-9923-26819 1412-26588
3695.94 1588-19063 10312-25050-14086-48585
3698.83 8459-28560 5342 11713-6378-104953
3701.72-3733-29548 12125-32015-301-37495
3704.62-2698-35015-16399-43112-5857-30528
3707.51 4493-34698-24919-122739-31399-43883
3710.40-21534-20952-66331-222132 7827-52341
3713.29 32149-50949-4092-28458 30800-49813
3716.19 384-36805 1087-54985-5233-65116
3719.08 9745-50196-3747-25334 30358-65435
3721.97-49852-59747-768-66148 1530-54666
3724.87-11528-20818-25846-116469 11846-52575
3727.76 10766-17208 4991-57111 17881-36310
3730.65-11926-66195-180579-70870 11886-47278
3733.54 23390-88721-52184-109556 30332-127060
3736.44-108385-34527-12644-56155-8271-21569
3739.33 7722-53132 6252-58744 7092-43818
3742.22-11073-61248-14298-201007-383505-154613
3745.11-6412-45289 24404-58034-14071-49735
3748.01 8713-131319-284850-74173 22764-46323
3750.90 18923-175998-326712-24004-43194-24435
3753.79-14594-36055-2397-29235 2604-88974
3756.69 10796-19100 15059-13749-6024-65369
3759.58-47763-111-3937-25161 13927-45578
3762.47 20473-40315 23105-19700-4757-64409
3765.36-46809-18805 13815-27689-9334-17258
3768.26 151-16063-80715-59952 25138-51196
3771.15 18419-22308 25634-14660 11265-21268
3774.04 13307-26899 17302-13287-1924-41009
3776.93 21324-33198 8816-15751-24058-40223
3779.83 12146-30685 36798-2078 43975-13335
3782.72 4780-15037 629-59492 28982-23962
3785.61 21948-41481 15313-48018 6766-55906
3788.51 5036-10715 35609-21653 53376-20767
3791.40 22238-23457 23687-24125 33851-36072
3794.29 12004-59154 5542-105681-15273-17291
3797.18-11956-34820 11519-49803 25409-34122
3800.08 17022-163007-271493-15703-6127-43435
3802.97 11574-54281-17057-71999-5601-36480
3805.86 47292-145158-89487 20883-29980-25074
3808.75-21008-24302 9883-32764 37984-19360
3811.65 14143-4735-2870-28884-18227-30222
3814.54-43939-22697-309701-148294 40894-64854
3817.43 7240-53093 31402-39137-12539-80916
3820.33-103089-67067-111259-50774 12291-66902
3823.22 10239-41927-11716-24585 1534-27832
3826.11-24502-43367 10385-57175 2926-40663
3829.00 1018-38222 14168-18324-69112-118819
3831.90 19722-69984 36105-60317 35220-134816
3834.79-25232-38150 10074-81524 24130-318705
3837.68-179380-22414-31754-46265-40498-50903
3840.57-70984-61847-6302-44172-46499-87666
3843.47-53639-39761-10659-35161-3110-64535
3846.36 10039-38646-32457-26448-19643-34094
3849.25-17806-53621-29575-54260-115048-322705
3852.15 4244-72153-82874-441902-239548-85273
3855.04-26370-40270-21161-58024-5933-52724
3857.93-19581-42872-17077-74297-21581-62238
3860.82-4925-118451-15455-60867-16677-63199
3863.72-30567-59949-139654-60317-32398-32432
3866.61-17927-46068-34306-37354-81056-70281
3869.50-198116-148070 29196-114031 15087-57472
3872.39 2477-74859-29250-111519-15221-65144
3875.29-19455-66795-9467-65127-20195-72520
3878.18-1271-90348-620-146687-62809-73813
3881.07-36136-51135-10866-71387-24466-55507
3883.97-31854-41688-133202-215569-17068-71831
3886.86-11493-67440-6786-84208-11497-49329
3889.75-30188-71006-100700-99496 4860-78591
3892.64-8782-68311-32838-67156-26746-73918
3895.54-136-67908-26792-64850-21184-57958
3898.43-30803-160636-20575-72511-4982-78673
3901.32-104996-105737-18760-67202-22520-198208
3904.21-24425-73109-24454-74902-8347-69828
3907.11-9342-63244-9327-65680-2301-62012
3910.00-10778-74050-7800-52367-2889-58811
3912.89-22684-55242-18611-61365-15150-83055
3915.79-26427-68908-74701-89289 18797-71982
3918.68 11496-48519-47749-43213 1355-69312
3921.57-4442-48732-26481-81478 6624-52224
3924.46-27022-88578-4330-57390-6629-50691
3927.36-5830-35295 2442-65699-10367-60624
3930.25-2742-57707-8276-96620-10968-74858
3933.14-21636-69420-18695-60679-10555-31148
3936.03 14339-49917 1332-40176 8090-29904
3938.93-11128-61501 1657-54596 18162-63281
3941.82-16876-96748-11007-35757-11099-31850
3944.71 30083-30457 18647-60859-2828-70200
3947.61 9320-61155 40306-65506-43927-43629
3950.50-16245-53371-8149-57982 17885-59239
3953.39 7364-45389 10844-52765-11476-69586
3956.28 35408-47735-1873-46191 10269-58410
3959.18 5551-44483 1148-77726 5369-75160
3962.07 2334-60167 8764-42600 17880-72698
3964.96-5022-63661-107-69724 16599-51941
3967.85 26128-64105-4155-47582 8792-52164
3970.75 25504-48545 258-53347 10856-39706
3973.64 25655-57869
##END=
