##TITLE=Sulfur Hexafluoride
##JCAMP-DX=4.24
##DATA TYPE=INFRARED SPECTRUM
##CLASS=IUPAC A
##ORIGIN=NIST, Analytical Chemistry Division, 301-975-3108
##OWNER=COPYRIGHT (C) 2000 by the U.S. Secretary of Commerce
##DATE=00/02/01
##$SPECTRA VERSION=1.10
##$UNCERTAINTY IN Y=2.0 % relative (B=1.0E-04,C=2.6E-08,D=5.6E-11)
##CAS NAME=Sulfur hexafluoride
##CAS REGISTRY NO=2551-62-4
##MOLFORM=S F6
##MP=-50.5 C
##BP=-63.9 C (sublimes)
##$NIST SOURCE=QUANT-IR
##SPECTROMETER/DATA SYSTEM=IFS66V (Bruker)
##INSTRUMENT PARAMETERS=KBr Beam Splitter; MCT Detector; Multipass cell
##STATE=gas
##SAMPLE DESCRIPTION=Sulfur Hexafluoride Primary Gas Standard
##PRESSURE=101.3 Pa
##TEMPERATURE=23 C
##SAMPLING PROCEDURE=1 L/min Flow
##RESOLUTION=0.9640
##DATA PROCESSING=3-Term B-H Apodization
##XUNITS=cm-1
##YUNITS=(micromol/mol)-1m-1 (base 10)
##XFACTOR=1.0
##YFACTOR=2.9103E-11
##DELTAX=0.4820
##FIRSTX=575.17
##LASTX=3974.604
##FIRSTY=-2.10E-06
##MAXX=3974.12
##MINX=575.17
##MAXY=.027688
##MINY=-.0000159
##NPOINTS=7052
##XYDATA=(X++(Y..Y))
575.17-72224-116657-60140 76048 236561 293315
577.58 191983 21990-26605 116895 383514 485033
580.47 446524 381977 292762 250427 270718 145738
583.37 10216-10601 44023 145437 254300 275319
586.26 343190 397547 421329 499190 618967 669115
589.15 707091 805004 1034587 1209858 1284045 1409987
592.04 1687749 1917480 2201896 2591216 3002684 3412533
594.94 3854263 4250812 4704606 5211233 5806600 6373481
597.83 6977786 7559679 8070902 8537639 9068918 9600609
600.72 10161916 10642167 11061526 11359131 11642779 11847398
603.62 11943959 11948036 11877176 11599743 11269183 10808845
606.51 10285532 9647497 9031034 8358109 7646670 6861506
609.40 6181648 5618756 5428832 6459965 9077781 10438079
612.29 11543884 16753821 28290059 64351407 106397207 82155976
615.19 24952825 3506620 2412945 2866444 3534355 4402365
618.08 5371662 6377419 7416214 8574360 9638978 10666669
620.97 11619182 12562290 13357894 14089176 14710364 15222811
623.86 15521696 15714344 15795002 15792081 15637128 15395658
626.76 15012651 14537748 13936551 13290210 12631524 11967771
629.65 11229453 10510301 9722886 8891480 8067977 7317314
632.54 6620965 5985630 5350155 4787574 4249635 3739355
635.44 3255737 2858777 2472013 2056125 1675705 1406911
638.33 1201364 1047387 864661 724472 626807 514177
641.22 391557 306211 234214 196713 174497 148219
644.11 90525 59290 27158 5282 17417 28879
647.01-3434-22720-22695-131-5275-30397
649.90-46422-27389-23330-22681-15980-25457
652.79-41043 9514 70350 67782 32591 45295
655.68 39539 15735-2102-1399 16834 30604
658.58-1493-29999-40714-33547-5145 30269
661.47 31139 28581 27942 51135 91523 93976
664.36 25278-37050-40763 26551 10137-193019
667.26-363328-277148-106651-58469-97722-78119
670.15-15946 31596 26833 24258 44847 46182
673.04 19223 6450 18509 36442 35792 9378
675.93-24566-25969 1437 39659 38395 8670
678.83-2441 19789 13778-20630-20204-913
681.72-5104-3692-6578-28130-14825 34794
684.61 45411 2451-45184-7689 57935 68761
687.50 56604 27453-6581-16498-43940-79442
690.40-75280-21960 25326 41095 53396 50293
693.29 42179 55229 39104 17885 30183 38387
696.18 37486 59177 91165 73296 36804 29772
699.08 13161 25959 42034 12875-11507-21042
701.97-18723 13547 40344 58719 70910 56009
704.86 52790 54990 29923-11798-39040-11945
707.75 30053 47261 55480 39597-1217-7018
710.65 30070 60814 49661 21675 9685 15397
713.54 5852-550 9573 24771 34537 31336
716.43 24606 15985 33933 71382 73315 40792
719.32 22997 20029 22295 24046 2992-26135
722.22-46084-35736 7124 45439 71272 82779
725.11 58118-522-9390 37199 46009 20030
728.00 34499 49704 38857 31326 12948 2038
730.90 7271 1747 3392 8583 9431-5372
733.79 1432 34552 34962 8311-6522-6031
736.68 20909 47909 44768 23546 23949 51966
739.57 43131-10373-46597-41334-12155-4257
742.47-9401-12693-17826-29924-28744-24474
745.36-8547 34297 38124-7407-18629 7581
748.25 38298 52825 39384 26045 28558 16110
751.14-14254-46219-51119-23290 3120 8949
754.04 3411 72 2774-9248-14832-11911
756.93-10596-15036-21403-36694-48141-32603
759.82-35 10079 4108-15080-25761-31133
762.72-29305-1350 16920 5264-5006-841
765.61 5452-18609-36712-43808-40437-15126
768.50-8751-40037-58016-56103-62418-82316
771.39-69902-41181-36379-47327-35385-6477
774.29 11140-2724-20556-13094-4069-11077
777.18-1857-21341-55849-50748-22295-16292
780.07-20688-23134-32206-57007-65903-48109
782.96-19922-31140-48935-31106-14046-32646
785.86-37770-16594 2319-17474-35258-26181
788.75-15292-30361-47035-60557-53959-25167
791.64 1258 3888-2300-19355-19582-10883
794.53-10049-12475 1548 4842-13337-60863
797.43-89460-91442-71487-44318-15423-15473
800.32-28858-29844-19700-25480-28176-18662
803.21-8767-21773-36907-26653-375-4461
806.11-11043-6368-2105-12528-17059-13402
809.00-1470-7046-12007-10283-11592-13840
811.89 1185 18257 26792 18753 22830 25056
814.78 15962-19218-29403-18151-22997-49907
817.68-44543 3175 66605 78409 48027 20489
820.57 14167-5293-10013 17914 44657 20048
823.46-1500-6371-4626 3507 19490 11272
826.35-10321-19128-16878-42751-17352 36751
829.25 51312 40809 41660 20083 9723 19946
832.14 12785-30950-48568-44222-19323 10409
835.03 26249 13359 21490 39710 50145 52569
837.93 53039 32807 26154 27558 36962 9413
840.82-24481-28620-2200 24169 40042 25250
843.71 41173 76954 99012 118461 164420 179941
846.60 166074 133823 120849 131826 162888 174938
849.50 192940 199766 217728 250716 289815 307824
852.39 310627 284816 272918 292217 327639 328646
855.28 325292 322445 334422 334032 337267 332799
858.17 343032 359542 368804 360129 361460 337698
861.07 326948 313674 303952 299653 307313 304144
863.96 339003 404409 478474 537515 657544 854697
866.85 1136118 1439779 1681280 1859654 2196138 2530617
869.75 2162175 1117759 400360 204067 179158 182036
872.64 210281 237857 281557 314560 362312 399568
875.53 461987 519858 564756 604537 659310 692350
878.42 730559 757822 807261 827954 847752 876867
881.32 914731 908046 893605 885496 896808 892528
884.21 901671 882266 860044 826370 809376 782022
887.10 751128 698220 663541 618149 577698 527270
889.99 498374 461104 442822 404180 376020 342146
892.89 325895 288452 247450 189117 162897 142170
895.78 142637 118434 106754 92088 95226 75129
898.67 77135 70478 75018 55628 60483 64092
901.57 59445 17150 18471 12494 21664 30775
904.46 71889 78301 83722 78452 95569 85598
907.35 112418 123447 142231 138054 159452 165817
910.24 199920 211356 231488 233114 275359 293935
913.14 333990 373736 462549 502102 553020 618629
916.03 762380 916168 1122286 1328375 1618453 1979284
918.92 2473474 3041786 3768231 4616808 5693180 6946439
921.81 8427363 10096733 12030697 14082370 16315417 18675807
924.71 21133543 23410864 25567147 27837849 30149023 31840791
927.60 33766109 35990697 36116540 36376002 42562441 44874568
930.49 36173582 29693024 30118933 31582031 32061410 31299359
933.39 29837273 28510251 28563091 30612892 34898684 41367297
936.28 50266401 61497172 75942516 94338056 116428513 140985428
939.17 170664065 208113002 251254113 297765879 349842974 407438175
942.06 465159400 520607139 577269802 631767210 677355516 717621053
944.96 758751835 774208745 788060060 835207941 931989708 951354684
947.85 740100492 551024270 523975334 523396197 480808896 392887221
950.74 273862121 156312638 73164755 30826724 14250699 8842600
953.63 6804826 5690005 4756689 4064128 3449665 3010509
956.53 2571124 2271473 1994984 1831657 1629085 1494883
959.42 1350778 1280804 1167517 1133174 1058975 1021876
962.31 951173 935407 878044 867773 822653 835043
965.21 822443 835175 809424 837246 832820 849317
968.10 831560 865516 873418 913565 922953 972291
970.99 1000298 1056378 1082949 1151803 1197476 1265257
973.88 1314386 1406347 1484286 1605780 1706683 1835833
976.78 1961409 2135323 2292615 2488335 2691415 2943325
979.67 3201554 3504111 3771190 4047355 4299320 4560784
982.56 4779029 4966035 5054783 5086077 5011157 4864703
985.45 4625882 4406303 4153801 3803963 3413368 3174689
988.35 3103802 3343135 3535324 3586201 4160389 4759810
991.24 4304309 3693652 3604251 3670630 3667251 3608930
994.13 3438254 3211230 2908966 2571935 2201630 1866590
997.03 1565452 1329879 1122290 978880 854410 755896
999.92 654873 591817 530981 480969 417350 381314
1002.81 333489 301952 260297 230659 189913 172413
1005.70 147798 145582 126184 117395 98710 82745
1008.60 55980 52287 33697 37511 43335 44673
1011.49 25210 28651 24047 31363 15832 21110
1014.38 36325 53580 33265 22941 15735 19475
1017.27 6318 13325 15577 25375 18533 27377
1020.17 34024 45314 28372 23973 28884 40052
1023.06 33999 41733 30089 30609 22614 16615
1025.95 6712 23068 20964 25106 36226 55352
1028.85 46240 41007 36088 41444 30999 34156
1031.74 26229 31593 36112 34554 11629 13221
1034.63 17059 25914 18363 18301 15411 18645
1037.52 13684 25734 25866 34526 23599 4751
1040.42-10651 4010 12604 22642 13545 15314
1043.31 15125 11258-3998 4644 4065 6608
1046.20 3433 10523-741-10442-15841-7693
1049.09-14662-14349-12593 15363 28705 27304
1051.99 16458 15446 3893 3572 3476 23387
1054.88 24933 16411 11067 13846 5678 5902
1057.77-12403-17893-19962-20204-26303-8089
1060.67 5827 16454 7876 3508-1313 116
1063.56-6378-2380-5579-3288-10523-6340
1066.45-7085-133-10102-26203-53678-63282
1069.34-47698-10881 3732 18318 27139 24882
1072.24-1195-16814-19549-6573-11325-15179
1075.13-12227-1705-13867-19433-28607-25528
1078.02-13030 11685 19409 15735-3858-7731
1080.91-1402 10753 9648 15577 9646 8936
1083.81 10517 15318 6941-111-3559 12207
1086.70 13634 2462-19804-23733-31235-32155
1089.59-40249-46055-41732-9106 15048 20892
1092.49 9183-6450-26660-26800-32026-22380
1095.38-13794-6168-10368-11691-7782-7109
1098.27-25331-18645-3743 7276-1799-16890
1101.16-32003-25892-30700-36679-39845-32531
1104.06-24496-17967-38771-47344-40003-23996
1106.95-26977-24204-15418-6683-13871-18791
1109.84-18813-12568-18145-13659-13940-8620
1112.73-10690-11333-4641 8477-1159-7519
1115.63-12271-13232-11269 1742 5344 12567
1118.52 6182-3980-16886-13930-8628 2049
1121.41 8729 12665-4502-14703-7258 1396
1124.31-11092-854 9416 2692-7653 3556
1127.20 7073 7403 11072 24352 27504 31720
1130.09 27701 26139 27730 32872 24570 31748
1132.98 39241 42984 50821 62055 49306 43974
1135.88 45321 49632 45634 41962 28744 14905
1138.77 5879 21388 33302 32906 17680 6460
1141.66-5436-3183-707 2203-2778 629
1144.55-4493-9373-2936 11561 9351 7728
1147.45-1696-8246-13956-14763-18643-15304
1150.34-18800-19549-27133-28914-28586-24002
1153.23-26625-22379-23058-28229-35352-28587
1156.13-24674-13544 2409 7843-13612-13617
1159.02-247 1764-11073-18761-31461-32111
1161.91-24920-17962-30565-36113-29835-16400
1164.80-14071-16126-24363-29291-30787-21063
1167.70-21033-19450-25060-27606-25006-13585
1170.59-14934-13396-9970-12007-14577-3862
1173.48-3468-8376-21431-21242-16399-6702
1176.37-6976-6522-7138-12678-25704-22016
1179.27-15421-12282-13509-13770-12297 1185
1182.16 4367 4292-493-172-13020-18513
1185.05-10784-1096-10069-16067-15785-6166
1187.95 9433 21622 7583-2346-5320 3534
1190.84 10454 13016 7836 6066 243-3159
1193.73-3987 1632 1043 1089-1557 3941
1196.62 6941 1685-16270-21145-16421 1323
1199.52 10469 14220 7228-9879-24723-19040
1202.41-14507-2592 6518 3923-9391-4423
1205.30 9594 17918 15655 13289-831-3723
1208.19 6801 17710 16125 13253 5460 3929
1211.09 1026 6178 16461 22438 8269 1826
1213.98 8752 19745 16967 22179 31415 30228
1216.87 18430 18538 15168 9337 1601 3057
1219.77 1213 1575 684 7392 14055 24591
1222.66 29027 27878 24866 27896 19899 12801
1225.55 8338 10482 11197 5209-18310-30080
1228.44-23623-1319 21693 34805 30480 30767
1231.34 20421 10921 12170 14846 11010 24712
1234.23 32817 27581 21211 26241 34070 41862
1237.12 44660 59638 63341 63318 72238 90017
1240.01 101937 109493 113337 135404 163162 178953
1242.91 180345 190360 194566 203341 223643 245951
1245.80 265882 291829 298986 296381 297628 305975
1248.69 304341 308508 323216 345723 357192 376941
1251.59 411383 446976 472421 500249 523705 556044
1254.48 577699 564797 528584 534975 552515 465970
1257.37 346859 321848 329328 329445 326007 323468
1260.26 321489 331365 330129 326871 330424 346753
1263.16 353378 350891 342471 328471 300686 275126
1266.05 251433 233696 208525 182997 160947 146557
1268.94 130033 105120 79576 78313 68945 39596
1271.83 21670 34323 36546 22096 4184 8604
1274.73 25688 31702 28992 38376 38167 30210
1277.62 28038 44681 56595 59353 57217 63547
1280.51 61129 50003 49777 93406 143007 115362
1283.41 55309 49713 60140 63991 53541 43303
1286.30 33110 22595 6374-12281-22075-16445
1289.19-26414-32762-26326-13266-7505-5118
1292.08-4383-1381-9088-17264-22721-20338
1294.98-17421-15021-18752-13988-10455-7369
1297.87-6771-8582-14246-3712 5667 1130
1300.76-11978-11408-8070-6364-3656-1826
1303.65-9968-14489-17213-12983-7711-2909
1306.55-176 3534 2928 9450 12400 17117
1309.44 13061 5444-3794-8124-8503-5127
1312.33-4002-2414-4894-2307-380 982
1315.23-9802-21793-24995-16509-9666-7715
1318.12-20183-25118-16095-3926-9276-18461
1321.01-16242 2375 9083 7883 10685 14928
1323.90 9776 12120 12924 3711-2419 3102
1326.80 716 997-1610-2445-4318-8031
1329.69-10136-2533 9660 23159 24855 20734
1332.58 7696 4010 3349 2463 4289 15843
1335.47 19012 12796 7208 16735 21125 9862
1338.37-7111-12844-12178-9464-12427-20370
1341.26-41313-48214-46362-54210-66139-55306
1344.15-36893-28518-34379-42913-48810-41673
1347.05-47960-58490-57487-75440-99079-92250
1349.94-81546-65099-47564-21726 25589 92862
1352.83 166387 254083 332683 386207 399641 380506
1355.72 340176 281314 210063 143053 72381 17047
1358.62-30347-80040-123598-144178-148467-127403
1361.51-108729-106975-102826-78945-59929-39888
1364.40-15287 4839 15807 28013 34031 30326
1367.29 16452 6529 7776 22757 26848 33273
1370.19 50794 66724 71054 74464 74573 74039
1373.08 62028 64588 73838 74632 69199 61120
1375.97 48026 38059 34633 49656 64835 62516
1378.87 47864 43327 41493 37643 45200 61881
1381.76 56478 53485 72762 93195 102056 115927
1384.65 118692 127700 164570 205754 199431 206777
1387.54 228650 153388 43972 2965-8319-14002
1390.44-6419 14164 20326 22277 21402 10268
1393.33-25445-57732-39108 1659 17189 30749
1396.22 37925 36801 21519 11910-2064-22253
1399.11-5214 30928 39935 35577 29009 30682
1402.01 25537 15180 3200-7822-26312-36551
1404.90-21219 3899 594-9636-6429 7639
1407.79 12396 5268-4046-131 166-12877
1410.69-23444-15461-8413-7267-11850-10584
1413.58-7932-5772-7898-19520-34355-30895
1416.47-45365-60893-50200-63067-158498-247970
1419.36-185475-61885-19619-21739-30434-29020
1422.26-22086-26291-50201-54019-35179-23187
1425.15-21844-12927-7204-3853-9756-22134
1428.04-28816-28327-49475-64853-48162-21842
1430.93-11542-15211-27552-30151-23863-8418
1433.83-2728-8921-16703-40569-138321-218214
1436.72-151836-45790-9445 434 4031 1345
1439.61-2520 1296-4438-10133-4864 1823
1442.51-877-2068-3550-6705-13926-11043
1445.40-5400-1490-10116-38118-69171-53776
1448.29-13295 7640 5737 4306 1711-5011
1451.18-11963-3972 7254 10398-1299-10849
1454.08-12974-20338-36877-111264-280146-319436
1456.97-168503-80774-77376-56286-35634-9916
1459.86 916-12520-24483-14880 86 7485
1462.75 2873-4506-41141-102348-101630-37967
1465.65 1141 10020 4077 71 344 12018
1468.54 17276 4439-10932-16011-34982-99828
1471.43-174106-147771-112439-148881-117260-29772
1474.33-5530-19001-53420-74102-40802 2278
1477.22 11751 10643 7636 7573 6013 10166
1480.11 13825 8821 3230 8902 11430 12103
1483.00 7823-1700-10119-4437-2624-9257
1485.90-18462-40491-61316-35820-11628-23369
1488.79-60474-86334-86326-80219-52240-12642
1491.68-812 4900 6495 7124 5500-934
1494.57-17275-86703-202233-191013-75095-16748
1497.47-29883-80434-94706-38910-3097 938
1500.36 396-4296-10488-8712-9251-5792
1503.25-3016-5228-48683-185215-276430-232233
1506.15-277239-321362-191067-76501-53483-35627
1509.04-32536-30910-17688-4954-9169-44960
1511.93-64889-35873-16080-9648-11996-21448
1514.82-19798-15703-42460-83503-107355-81876
1517.72-37085-24079-31564-56864-98747-169530
1520.61-274635-238972-126838-109722-89905-37546
1523.50-16509-26836-76997-119757-86491-31285
1526.39-26875-36127-34671-43017-40608-16796
1529.29-5224-3958-15598-29148-29348-25769
1532.18-50102-96880-132731-111037-47468-10314
1535.07-7791-12744-18062-12651-11994-50102
1537.97-190212-346777-320990-266503-256047-139562
1540.86-91982-185940-197896-94124-41963-34693
1543.75-30562-53859-73907-32640 18142 40372
1546.64 41026 39756 46922 55237 48298 35338
1549.54 28366 44596 72336 94570 102557 105730
1552.43 111882 102408 23748-32119 44717 138841
1555.32 168172 180337 162539 90566 4014-85748
1558.21-62907 73039 55136-11413 121980 318512
1561.11 412409 460075 488023 490182 488887 508384
1564.00 527768 561463 620242 669973 688556 706831
1566.89 739709 776253 793218 780072 732770 737009
1569.79 856816 965097 988935 996247 1016230 1048706
1572.68 1080359 1113928 1136354 1147257 1131261 1013198
1575.57 869960 972550 1198038 1300386 1323594 1339123
1578.46 1349831 1355004 1367113 1388288 1395522 1400122
1581.36 1416283 1435888 1461793 1504381 1502052 1483330
1584.25 1512841 1496217 1405000 1365068 1398139 1647017
1587.14 2150822 2048413 1361258 1034489 1056908 1123042
1590.03 1129194 1118969 1155092 1217129 1248922 1230734
1592.93 1182754 1146486 1133244 1137552 1132664 1112817
1595.82 1079686 1045087 1004344 960389 909672 856196
1598.71 798768 747907 702656 662814 621015 582901
1601.61 550710 514972 466319 435168 419954 404695
1604.50 381936 360820 337710 318796 296061 275205
1607.39 260685 245770 217895 190190 177363 183126
1610.28 180012 165507 151461 139422 116259 91874
1613.18 82554 90096 84639 61510 25796-89219
1616.07-259526-229212-54740 28732 33323 37320
1618.96 44902 45315 41254 43390 46049 40808
1621.85 24478-10099-73348-80083-16263 28782
1624.75 33377 30202 33707 34400 12974-15082
1627.64-9203 20656 35318 46647 57336 61805
1630.53 57431 58070 57467 59471 67132 67808
1633.43 50890 3759-100281-217954-196471-43868
1636.32 30775 17633 14137 33924 45682 49763
1639.21 42664 33747 30760 37263 46913 49430
1642.10 36704 24798 21127 18921 450-35172
1645.00-130256-204104-138561-66322-69623-65571
1647.89-44051-18279-2889 9129 9440-2660
1650.78-37516-168390-381595-503671-498663-344008
1653.67-189121-135681-71575-20228-8160-5508
1656.57-9512-12159-7773 3884 10936 13370
1659.46 10582 1971-8502-15727-35276-89114
1662.35-127104-82594-27338-12338-18049-28227
1665.25-34158-23957-9261-903-7363-29946
1668.14-81664-154891-154082-78548-47799-68334
1671.03-83829-60964-34649-21410-20797-33286
1673.92-78067-173836-213326-124641-44112-27655
1676.82-28460-23590-18426-23898-43062-59482
1679.71-62074-44367-27001-25719-46077-91117
1682.60-145521-171989-252025-429346-430263-193975
1685.49-51994-32252-25634-25496-37894-41961
1688.39-33024-25645-31579-28520-18457-10560
1691.28-10667-12084-12509-5491 4656 6812
1694.17-19389-145859-367942-371748-140762-3417
1697.07 27468 54051 56438 5016-136773-280447
1699.96-291859-167236 8054 108268 101271 78066
1702.85 80033 72234 55003 86168 134443 131639
1705.74 117182 164079 235750 302915 367785 424719
1708.64 481794 545628 621206 721251 833694 951507
1711.53 1069761 1202734 1344209 1442182 1513464 1611113
1714.42 1673619 1793592 2009086 2040103 1839855 1807036
1717.31 1972346 2016289 2214199 2372329 1852875 1275380
1720.21 1197644 1344862 1445729 1198546 612238 154716
1723.10 6321-11181-13691-11669-14269-16050
1725.99-18222-23789-29336-33538-39373-42853
1728.89-57585-77642-73775-52453-44372-48286
1731.78-63988-130463-237441-259739-273061-280562
1734.67-167422-64846-39928-34026-33771-34838
1737.56-39768-50618-75349-133841-161681-98478
1740.46-37949-26904-33714-49036-70258-68130
1743.35-46626-38033-39675-30277-22938-20110
1746.24-27051-33438-34193-52726-72107-57398
1749.13-35994-33838-80781-166018-166407-67362
1752.03-11346-11846-17253-12131-6230-7483
1754.92-12779-24586-60917-79607-48147-16007
1757.81-7412-4545-4169 1602 10631 8609
1760.71-41696-105486-84063-13558 11686 6342
1763.60-4562-9239-6805-4239-7397-10397
1766.49-15747-44355-98625-99450-46537-9605
1769.38-3188-20589-63546-89930-89890-155410
1772.28-208847-124365-38026-13854-10922-24678
1775.17-38178-33717-28059-23590-21131-19649
1778.06-16855-10847-11084-21743-35610-30031
1780.95-13135-2836 747 1453-3370-11624
1783.85-35118-57035-42236-11174 851 1712
1786.74-109 3044 10410 14537 11503 9506
1789.63-3030-30319-40959-27040-66518-140190
1792.53-118594-37259-6861-6610-6160-10625
1795.42-20828-14262 301 5785 3238 1996
1798.31-10707-36426-42034-18305-9308-15796
1801.20-19217-23072-19781-5075-3250-6936
1804.10-5420 2697 8408 7523 637-7005
1806.99-17846-21841-9850 4213 817-9164
1809.88-20360-15869 518 1685-13190-15355
1812.77-5106 3436 4121-2918-9751-3390
1815.67 2594 3191 2297 8579 15500 13550
1818.56 4143-7264-15166-9139-1736 1496
1821.45 550-1258 950 7342 6138-6179
1824.35-37976-50831-25707-3685 2355-1049
1827.24-12126-15744-18292-29773-56905-72781
1830.13-46489-14395-2573 996-8023-15102
1833.02-8969-1075-5240-5554-1331-3892
1835.92-11813-15734-14495-8175-3621 1025
1838.81 650-4261-14288-21618-23298-20190
1841.70-15919-15902-33884-94533-161039-129734
1844.59-56891-27923-26907-31229-34997-38178
1847.49-37739-30678-33548-41082-43996-41107
1850.38-37666-32213-31761-35620-41320-46197
1853.27-47363-42502-38085-37513-43315-48701
1856.17-56423-60581-61286-64807-67856-69231
1859.06-79487-83363-66439-40790-32836-36187
1861.95-35288-34244-38918-42183-46939-51906
1864.84-57695-59492-55463-50902-61408-75024
1867.74-70219-77016-114455-114824-79504-57719
1870.63-55909-61910-63433-69538-88627-103433
1873.52-107388-107542-114624-121058-125533-133939
1876.41-145113-148513-147197-154441-170501-178700
1879.31-188316-195495-187340-175933-187660-221071
1882.20-245520-241058-234660-244160-259718-268582
1885.09-270193-268856-274945-281517-286955-294189
1887.99-305336-322632-338096-325923-308574-303149
1890.88-298575-295334-298088-305978-306569-298586
1893.77-301540-317031-327563-316808-304671-287311
1896.66-269244-266193-286439-323210-359843-370688
1899.56-338623-272888-207389-168484-162848-169797
1902.45-166078-137723-91881-46679-29634-44114
1905.34-70310-88144-92849-85349-76992-70353
1908.23-66764-67748-70908-66765-61595-54793
1911.13-43176-36708-42436-44806-44006-45475
1914.02-47040-40403-31806-29469-33751-36485
1916.91-57765-90928-85147-52620-39121-36323
1919.81-35661-33640-31777-34778-42786-46020
1922.70-38322-22104-16086-18561-18268-15802
1925.59-27783-43606-48569-43784-40544-39526
1928.48-40431-40758-40093-38032-36653-32993
1931.38-34717-36044-35145-36977-34458-26197
1934.27-34991-46432-41359-30706-31063-35093
1937.16-34445-28296-21471-16095-20751-30810
1940.05-39341-40032-37961-44770-58254-51514
1942.95-32342-21336-21352-31007-41775-40906
1945.84-38948-40378-37242-28108-19121-12118
1948.73-15075-23023-22513-12793-8527-8509
1951.62-6571-1835-6134-16321-21507-20633
1954.52-18309-13060-8170-7277-15835-22490
1957.41-23739-24416-22357-16745-18411-20309
1960.30-22054-25145-23317-18998-23598-30296
1963.20-32603-29269-27629-22662-17820-18527
1966.09-19619-25073-35800-37477-29575-18512
1968.98-15225-17087-23267-29753-33158-32157
1971.87-30525-24977-12005-999-2544-10402
1974.77-18125-12400-54-2729-18148-21830
1977.66-14461-8495-11932-14961-13268-17521
1980.55-23507-21544-17935-10994-3950 1583
1983.44 948-5053-12927-13922-12635-16657
1986.34-19636-20949-24283-23454-20645-16897
1989.23-15502-10693-6500-10381-24320-35166
1992.12-28852-9064 1857-3025-13939-14646
1995.02-7285-2201-3555-8597-13061-14852
1997.91-14884-6014 1402 3195-39-4664
2000.80-4803-1251-819 1661 4822 5759
2003.69 2372-2835-6042-6545-12224-20842
2006.59-31003-34139-25504-16125-11126-4545
2009.48-1691-1995-3114-2863-6728-9902
2012.37-11482-13665-10046-3775-7091-10330
2015.26-9960-11826-16550-14939-11387-11846
2018.16-13005-14999-22164-29641-31316-19980
2021.05-10687-11774-10016-3854-4838-7978
2023.94-12445-12653-11455-12237-14331-8744
2026.84 2598 7315-4118-15248-21108-22580
2029.73-15218-9935-11646-11870-7352-6074
2032.62-16417-20270-15154-13343-20439-25203
2035.51-24776-23434-24117-18894-12692-14079
2038.41-21798-26339-22162-17094-25837-32584
2041.30-27588-28203-35771-36520-31500-21766
2044.19-15207-15470-19357-19531-13856-6692
2047.08-12129-25268-31347-26821-23352-17918
2049.98-10626-13201-26392-28780-23433-22268
2052.87-24007-22786-24277-32166-37482-34008
2055.76-33090-38295-41624-37869-38050-37154
2058.66-30605-21396-14649-12446-18132-24343
2061.55-24049-22431-27341-31980-29213-23907
2064.44-21577-21483-29073-34653-34317-26256
2067.33-16653-12857-16263-24320-31499-30767
2070.23-28736-27951-29227-32098-31117-23545
2073.12-25412-35580-36105-27972-29049-33546
2076.01-35331-29769-18184-24335-43763-48852
2078.90-44589-39164-35958-29922-19757-6756
2081.80-6714-18610-32326-42512-39998-30407
2084.69-30336-20604-323-2877-21754-31169
2087.58-35520-36296-33162-24825-12900-3229
2090.48-14420-28991-29006-26700-27055-20988
2093.37-11397 4494 15319 1557-13470-16303
2096.26-19094-20627-25151-23477 257 17462
2099.15-6307-28706-30273-28166-23198-17484
2102.05-7027 23767 32758 5154-19602-26940
2104.94-24880-21807-17843 8443 36067 14674
2107.83-20480-26389-24956-21861-11010 10262
2110.72 41126 42960-50-29878-32120-27721
2113.62-24347-10369 30765 62780 31667-13374
2116.51-25967-26734-25961-15575 6672 43987
2119.40 50040 13949-15496-24225-22448-15841
2122.30 3136 43074 63145 31671-4877-17081
2125.19-22864-24663-18750 9008 44238 39953
2128.08 3842-17049-15727-9423-8987 5834
2130.97 30541 28646 4786-13497-20617-11764
2133.87-636 1185 3642 1829-7548-9132
2136.76-6644-14135-28143-24293-11528-4113
2139.65-3799-9632-12325-10463-13862-15116
2142.54-13637-11462-11224-10137-9340-11866
2145.44-12482-1058 17531 23689 10988 903
2148.33-5483-12379-15098-2814 16256 11838
2151.22-6880-11008-3647 5280 7064 21146
2154.12 34604 16382-4131-4331-826 843
2157.01 13432 48961 62548 34298 2879-11452
2159.90-10473-8359 11042 51755 43823 4883
2162.79-4637 2903 978 5355 43043 61317
2165.69 22531-7897-9960-8319-6183 31005
2168.58 79603 63333 13124-12182-18775-17140
2171.47-1559 44996 67150 35086 6437-3449
2174.36-8089 4594 51374 84620 52433 10911
2177.26-4428-9080-3301 27984 58454 38705
2180.15 491-11892-15598-15341 6480 44786
2183.04 41613 6098 840 21976 36151 48365
2185.94 62321 41846-1796-22985-31814-33821
2188.83-14928 21196 28910 9024 4257 13795
2191.72 17796 27668 43316 30105 482-12796
2194.61-18370-18784-4298 17730 12420-3259
2197.51-3462-2280-4707 11999 32884 26579
2200.40 7410-2193-2709 9792 27050 28051
2203.29 11185-4712-13902-19484-13331 7918
2206.18 13592 1986-4307-3365-5089-913
2209.08 12067 16552 9948 7193 7725 8239
2211.97 4948 612 3569 9606 11021 13774
2214.86 16702 15282 11493 5399-755 2963
2217.76 10120 14683 17739 18237 12142 12007
2220.65 24824 30921 25137 22522 17923 13513
2223.54 11186 12910 19233 22237 23032 26138
2226.43 24098 19746 22005 30782 34356 27922
2229.33 17611 13838 6413-7766-17089-13978
2232.22-7937-4518 715 3691-1893-9861
2235.11-14939-15838-19018-26057-33129-29570
2238.00-15583-6093-10056-20418-33578-39372
2240.90-31670-16768-7696-6672-6253-2748
2243.79-6236-15278-16970-10613-12866-22590
2246.68-26384-20778-15823-21189-27499-19929
2249.58-6604-5581-20213-27564-24697-21543
2252.47-16749-8718-4581-5019-7068-10770
2255.36-17386-21259-24412-25112-22212-20419
2258.25-21381-21236-17853-16512-17690-14733
2261.15-11828-10718-16588-23656-19286-11980
2264.04-14957-21344-24307-24028-24190-26796
2266.93-31491-29846-23490-21323-24128-25561
2269.82-26564-26491-23118-19917-15128-7312
2272.72-6472-10839-17341-22764-24877-25826
2275.61-30013-29737-21860-21296-32668-38358
2278.50-32678-23156-19757-19163-14577-12286
2281.40-20701-28826-28923-24004-21099-24575
2284.29-30451-30008-24761-22544-29147-40984
2287.18-49194-51016-44257-29817-21428-18198
2290.07-16424-17874-21993-19671-16723-22644
2292.97-25736-21992-23616-26622-24972-26683
2295.86-37547-46523-47603-45754-47280-43668
2298.75-33503-32305-40422-46216-53753-59407
2301.64-61518-51051-25255-14553-29553-46316
2304.54-43913-31645-31684-49799-66529-63633
2307.43-54924-56659-67985-67652-54196-55961
2310.32-78521-79476-51651-48127-84345-101779
2313.22-71329-51894-84454-127089-114769-78610
2316.11-91215-135909-122737-77325-99203-161529
2319.00-148042-87187-101616-172731-168335-103217
2321.89-125773-216364-204351-113953-126302-220663
2324.79-209170-122422-162063-271102-237021-146529
2327.68-213489-316632-240653-138907-227933-316089
2330.57-216434-158511-288257-331625-188379-161348
2333.46-303255-301209-181741-245618-364974-269474
2336.36-182477-300223-338324-200902-200097-315815
2339.25-264241-172634-259394-305467-191335-177882
2342.14-263014-214724-146734-207391-229085-160098
2345.04-159869-188639-143781-104115-112585-98349
2347.93-65796-56551-71934-85048-78335-95503
2350.82-134971-116954-106307-170652-181484-167386
2353.71-237804-242622-210374-286691-283221-230306
2356.61-317819-316141-257500-348279-341322-291797
2359.50-374064-335773-303544-378918-329250-334836
2362.39-380858-315451-347460-345157-290737-333609
2365.28-293759-276015-304310-262798-286836-270061
2368.18-234270-246371-223660-235473-219932-193310
2371.07-190741-172817-178142-164126-148123-132192
2373.96-118769-110689-101635-101450-88547-76527
2376.86-72735-70657-61715-53983-53328-52293
2379.75-50662-47329-41464-39704-41775-38077
2382.64-37407-39872-36595-30024-28815-30790
2385.53-29388-29231-33802-40051-36526-23777
2388.43-24547-33485-38569-39883-34866-30736
2391.32-35486-33480-20719-21122-34598-32729
2394.21-22019-18683-16432-12838-15397-20933
2397.10-27075-36661-39294-26544-17386-20723
2400.00-25432-30787-36141-35102-34236-31112
2402.89-21966-15465-19566-26747-26336-20497
2405.78-20938-26593-32630-34677-33661-30726
2408.68-25461-24133-36477-44926-43530-36262
2411.57-25577-21021-24566-31502-32517-22611
2414.46-16168-17743-19599-19163-19158-21551
2417.35-26281-27723-28039-29128-29052-30770
2420.25-38242-42342-38012-26533-22493-28521
2423.14-34194-34056-35535-39403-40387-38640
2426.03-30915-22256-22959-30207-33884-29888
2428.92-28068-28632-29874-34639-39906-40512
2431.82-35332-28974-31474-34019-34884-39494
2434.71-41814-32130-24704-30227-35963-31746
2437.60-21789-22979-34772-44460-50062-49322
2440.50-47138-44277-42138-43464-45478-45033
2443.39-44818-43941-41320-33658-25330-26395
2446.28-32184-36048-41637-38550-29968-30930
2449.17-39888-46339-47420-40962-36059-38632
2452.07-35097-27116-27924-31571-34855-36625
2454.96-38528-40500-38327-34573-43158-49586
2457.85-40757-32004-25366-18285-20028-26091
2460.74-27508-31428-38533-38326-32502-25503
2463.64-22245-23875-28119-32764-35348-32462
2466.53-33110-39331-36128-27541-24981-26183
2469.42-29021-35915-38731-31425-30066-35241
2472.32-32548-28877-36168-39244-33995-30541
2475.21-30615-30816-29226-27034-30043-38179
2478.10-46970-52869-55664-49524-35855-32125
2480.99-41953-44489-33925-23564-19366-22330
2483.89-32499-35784-31751-29382-26502-19793
2486.78-19459-22202-19474-19370-28960-32144
2489.67-23665-23462-31306-34162-36367-33438
2492.56-20920-14384-19895-19511-19244-30636
2495.46-36444-31974-28345-26721-29201-32807
2498.35-33611-33335-32270-29590-31021-29463
2501.24-18491-12140-18244-25606-23824-19812
2504.14-22394-21201-16054-18575-28936-38469
2507.03-41382-42661-47832-45925-40017-32643
2509.92-28686-35005-31715-16212-11929-17157
2512.81-23234-27827-32053-38246-35388-27036
2515.71-32304-42591-46721-45086-40404-32962
2518.60-18483-6436-10958-27623-40862-44289
2521.49-44216-42598-37987-31214-33475-38858
2524.38-35415-29542-28914-32360-29514-16728
2527.28-12376-18130-18793-14904-21576-35448
2530.17-41989-36476-30543-26174-25883-32490
2533.06-36826-40040-43134-42428-41176-40860
2535.96-42380-40329-31824-24205-21112-18021
2538.85-18658-28347-37108-32467-21750-20575
2541.74-26195-24625-26487-36303-35750-22186
2544.63-18486-27212-34806-36948-39061-32935
2547.53-22527-19825-23515-28907-33968-39295
2550.42-42903-37016-27094-28047-38437-39989
2553.31-35260-35348-37058-33955-28269-24288
2556.20-24630-27800-29609-29460-30394-33622
2559.10-36328-36663-38338-49377-54158-37834
2561.99-26265-29940-36864-43661-50297-49001
2564.88-46861-43967-38304-43847-51491-49030
2567.78-44489-45174-50100-52574-52441-49357
2570.67-40967-35986-35478-29918-29230-35405
2573.56-38816-41238-46116-53018-51022-36593
2576.45-35022-43059-46719-47791-39824-30811
2579.35-31120-33927-40291-47162-44609-39528
2582.24-42731-48362-46713-37606-32245-33520
2585.13-39028-51871-64557-65414-57317-53036
2588.02-55034-52107-51785-58348-56213-48089
2590.92-47758-52365-50626-43298-41557-43365
2593.81-47305-53476-56966-58407-59325-54832
2596.70-47419-45408-47420-51797-59041-61090
2599.60-57034-56402-61473-61683-51594-45304
2602.49-51702-60816-65057-61411-59466-59348
2605.38-54986-53995-58677-64654-66031-60209
2608.27-58410-62382-58744-49200-50660-54448
2611.17-58691-71616-74851-62428-54495-51620
2614.06-47489-47408-51407-57629-63657-63932
2616.95-62937-63311-66728-65316-56202-50381
2619.84-52642-54814-54634-57479-64658-62662
2622.74-54215-51578-54076-63356-71750-64093
2625.63-53651-53143-52625-51308-58751-63304
2628.52-59633-56491-52499-48295-50126-56196
2631.42-58912-54907-56216-62864-58702-51422
2634.31-52990-56816-59032-57778-52201-46861
2637.20-44241-46406-50556-53726-53998-46495
2640.09-40895-44960-54631-57298-54264-51913
2642.99-52054-57870-54221-37685-26649-23448
2645.88-25872-36132-49176-52651-50744-47985
2648.77-40847-46588-61289-62881-52559-42540
2651.66-45016-56738-68278-70850-59474-49670
2654.56-47317-44869-42065-38613-43613-53376
2657.45-57521-57661-52681-35515-16409-21389
2660.34-41686-49855-48149-40787-38430-45627
2663.24-56343-63423-59416-49852-44838-46770
2666.13-46729-44509-47179-41693-32889-27725
2669.02-28218-42637-55017-55527-58535-61114
2671.91-51002-37338-36774-46130-53739-55349
2674.81-56399-60328-58204-40665-25317-25378
2677.70-36634-53204-60145-54375-50483-45206
2680.59-42555-53856-60106-52364-49974-49447
2683.48-41302-39914-48141-59095-63894-49300
2686.38-35829-42271-59796-64341-50727-43167
2689.27-45525-44970-43960-45576-48862-50061
2692.16-48846-48338-45385-40668-40469-44556
2695.06-47109-50934-61810-68141-66521-64750
2697.95-64131-60026-51511-44206-47487-52639
2700.84-37846-10219 8256 12523 9871 9506
2703.73 11047 7372-6734-32229-62952-86353
2706.63-95209-88637-78903-74588-72197-67284
2709.52-55030-38969-27632-22139-22329-31004
2712.41-42084-49154-55171-64455-78063-85003
2715.30-77885-67201-61931-57916-54092-55493
2718.20-55636-51132-45392-38938-33220-34060
2721.09-44952-52030-50802-50995-54317-51611
2723.98-46552-46804-49298-48541-49120-52992
2726.88-54905-54540-46664-43286-45299-42777
2729.77-47503-50525-44432-38648-38215-39774
2732.66-36625-32981-36470-40267-45025-51074
2735.55-57130-62387-59545-57435-59783-47847
2738.45-23008-7764-13034-24913-30024-28359
2741.34-27327-35388-46845-53136-55802-54253
2744.23-53231-51138-46410-44046-45928-46278
2747.12-42291-39740-42514-47639-52062-51598
2750.02-42526-36306-45400-53186-47592-45219
2752.91-53882-53006-36945-29685-34828-36104
2755.80-34371-41807-59582-71681-63288-49532
2758.70-47128-47818-43382-29856-28902-44324
2761.59-47283-41054-37182-32927-35336-41726
2764.48-41156-36234-35492-36655-38761-50405
2767.37-65434-67658-68360-69577-61381-47697
2770.27-36709-37491-43736-45209-47735-51564
2773.16-50306-49673-48284-41973-39532-45802
2776.05-45727-42129-46058-47186-49776-56675
2778.94-59728-62972-64567-58422-47829-44501
2781.84-51575-56546-51182-46296-48725-50240
2784.73-47059-46304-48780-46500-40822-34895
2787.62-33060-35896-37359-44466-64535-76580
2790.52-68561-57039-52158-51213-54474-64716
2793.41-69175-56721-44039-43142-44605-43602
2796.30-39589-29938-25399-35431-48789-57750
2799.19-71623-74730-58838-43900-37074-41411
2802.09-51813-59082-57671-50221-43555-45693
2804.98-53901-51942-45562-44798-47084-53620
2807.87-57347-55719-56027-52831-43521-40726
2810.76-46604-47245-42520-37262-29974-29780
2813.66-34849-38680-45539-48559-45955-46535
2816.55-51646-52574-47898-50351-55455-48307
2819.44-40959-45002-49912-53780-56640-55955
2822.34-58552-60568-57295-57022-62608-61266
2825.23-49717-42450-48942-59941-58343-43915
2828.12-30533-24290-28292-34257-35821-36200
2831.01-30718-34464-52580-59933-50972-37365
2833.91-31634-41813-50467-44338-35131-31099
2836.80-24091-17539-26399-45945-54964-54494
2839.69-63271-81680-89964-84304-81187-79755
2842.58-73817-64322-52173-32862-12632-3200
2845.48 6765 24964 38235 36272 19852-4860
2848.37-26713-36558-40811-47661-53651-56599
2851.26-61680-71721-77543-69902-44661-18016
2854.16 871 14990 14463-3355-31460-55890
2857.05-77883-92248-94834-92119-84288-72872
2859.94-51398-28589-21134-13303-6898-17147
2862.83-26920-28566-29268-33398-42536-44899
2865.73-42436-43517-41756-35275-27574-27730
2868.62-33988-37849-39634-38319-33268-30254
2871.51-33031-34566-32253-29767-28900-25126
2874.40-20278-18458-19017-23335-25969-23887
2877.30-23551-23875-24934-31335-35026-28907
2880.19-21247-28482-38659-35928-30817-34001
2883.08-40351-37949-32166-33806-38916-36878
2885.98-31189-31925-34175-30029-20162-13131
2888.87-9046-9948-17588-30223-41860-39767
2891.76-26135-25126-36610-41898-36496-25772
2894.65-19500-21157-28127-35484-32147-23840
2897.55-18179-11164-9602-17381-26372-31221
2900.44-25670-20756-26551-30935-23663-14965
2903.33-19121-34889-48993-46076-33760-28508
2906.22-34520-36118-22475-14662-25400-40714
2909.12-52212-50523-34230-19203-17645-18340
2912.01-15559-22602-32400-31183-21948-9654
2914.90-4400-6948-5181-9447-20245-35003
2917.80-46922-43481-41913-48185-46766-38879
2920.69-31984-22972-13515-16898-23861-19171
2923.58-18661-27351-20296-7776-15059-28609
2926.47-24625-13343-15557-28265-36803-31511
2929.37-23212-29319-43354-44805-30268-19959
2932.26-19525-15435-8128-6253-12106-25366
2935.15-41315-49134-34596-13375-11364-17786
2938.04-16752-22468-33748-40446-45331-39021
2940.94-23547-22084-26125-21398-18551-26650
2943.83-38678-34854-21780-22469-22662-13239
2946.72-13999-30099-39302-38264-35548-27993
2949.62-17314-20737-37812-37374-22953-18111
2952.51-23528-29006-29152-24931-19250-20637
2955.40-21331-17713-17008-16320-14908-18834
2958.29-14584 1350-675-19764-41500-69607
2961.19-76051-40553-7896-6042-6469-3462
2964.08-11409-25069-30220-30793-26829-16214
2966.97-15641-20124-13087-10984-23369-39671
2969.86-43257-27448-15644-15995-23719-34164
2972.76-39306-38805-31543-29594-35311-27218
2975.65-9199 624 9333 14533 4680-7011
2978.54-7179-4869-8474-13637-14677-10310
2981.44-3731-6786-22513-28866-17626-7619
2984.33-8222-19724-21008-8503-3303-14657
2987.22-29264-33803-37744-31173-10434-2491
2990.11-10643-19898-19863-27384-40302-37569
2993.01-29317-26326-24729-23466-25325-31502
2995.90-36720-29265-9731-4855-14124-14960
2998.79-11084-12715-24145-33798-27333-19041
3001.68-16714-18004-15023-15723-20253-20538
3004.58-25068-33424-31691-22347-14034-11313
3007.47-12351-13521-17913-19535-15696-11800
3010.36-14114-27226-35268-21832-5700-6892
3013.26-10268-12275-19522-26042-29757-35229
3016.15-29048-18167-16091-14355-19705-23709
3019.04-18120-26265-40181-32028-15568-15675
3021.93-22732-25916-31044-30240-14496-9682
3024.83-20685-24084-18365-12208-13800-15342
3027.72-10380-12443-20848-21593-12987-9315
3030.61-12442-16484-20769-25549-24108-25069
3033.50-22255-12830-12576-12012-10644-10067
3036.40-510-4090-22227-27677-11271 5606
3039.29 6760 2783-3927-10314-9408-11468
3042.18-18173-22263-22422-20225-14028-7140
3045.08-6752-10018-1502 4126-602 720
3047.97 1469-8574-14678-7469-1962-3688
3050.86-10077-20599-31128-50345-64534-47713
3053.75-25094-15424-7987-10920-17642-18296
3056.65-19798-22928-21905-12312-9167-21566
3059.54-31653-27678-17967-10068-11755-33244
3062.43-53257-52302-43828-36477-28120-28332
3065.32-39635-48408-46114-31560-20982-33687
3068.22-48627-43070-30991-24434-17994-14965
3071.11-23069-39959-41536-29242-27819-28638
3074.00-27180-29358-31671-30958-24848-21658
3076.90-21201-22424-22503-21167-24371-30587
3079.79-35375-36615-43357-48695-35544-24094
3082.68-32044-41620-34239-22026-30660-42576
3085.57-44518-47454-49678-43379-27983-18169
3088.47-15748-19005-31666-41629-30585-21680
3091.36-26237-27785-28483-24134-18417-27230
3094.25-42357-49461-45664-40368-35636-29337
3097.14-23513-21415-21238-22815-25981-28457
3100.04-31724-40127-46592-50538-54209-50815
3102.93-44802-48152-49147-38410-26345-28526
3105.82-32652-29917-32628-40339-43793-42657
3108.71-35816-30482-35748-39559-34754-28444
3111.61-21375-15424-16262-18538-17631-18628
3114.50-28683-38679-33825-26276-18962-11286
3117.39-25197-51254-54087-31466-6665-174
3120.29-9918-20850-24069-24500-25210-19882
3123.18-15255-19741-22484-28958-42642-51228
3126.07-44493-34025-30366-26726-28180-41229
3128.96-44666-37597-26787-17507-20767-33114
3131.86-44660-45609-41999-39924-36878-39442
3134.75-36499-24980-15415-1100 9633 626
3137.64-8389-5726-14721-26402-29481-41570
3140.53-49760-43009-27832-10052-5786-7939
3143.43 2731 10853 3095-9574-13440-19489
3146.32-23545-20649-21272-27658-28321-28243
3149.21-29033-27521-25366-17870-11200-11190
3152.11-11509-14990-21896-22808-13996-7876
3155.00-12844-25228-33461-34468-23198-13847
3157.89-20242-29573-19897 4238 10684-4236
3160.78-14802-15660-14825-10081-3828-2996
3163.68-9063-24677-34734-23972-1446-1579
3166.57-24762-29181-8089-715-11201-15873
3169.46-11855-15839-23234-28003-32761-33472
3172.35-24834-10504-4039-16810-30799-25040
3175.25-8763 2621 6152 2208-1752 3436
3178.14 9559 4803 1555-4767-13879-10471
3181.03-2166-1719-11645-21579-13881-5472
3183.93-7525-11524-17492-23816-16255-4590
3186.82-3963-6608-6510-17418-29766-24876
3189.71-13798-18797-33869-39655-24786-6758
3192.60-7458-13132-6055 3395 7519 4743
3195.50-10932-26754-35660-48997-57159-49934
3198.39-31678-19499-17318-12197-2407-2010
3201.28-15583-31360-31373-22118-14343-9650
3204.17-8823-13399-25684-41734-50335-42512
3207.07-28913-27529-31672-38988-41953-41132
3209.96-41071-32983-13831 916-3457-26621
3212.85-39095-27872-13474-11317-12552-11609
3215.75-11655-14126-26455-39402-42485-44878
3218.64-42703-33002-38856-64428-76427-76864
3221.53-74735-63194-47794-37232-29742-17058
3224.42 4267 15003 5189-4695 3381 12331
3227.32 1508-23936-42660-57687-64492-54071
3230.21-41614-45865-49339-34775-25187-27620
3233.10-29580-34505-43509-45230-33376-21558
3235.99-17719-24150-26906-19464-8781 430
3238.89 8117 7623 1864-4208-7688-13536
3241.78-22709-20183-9308-17142-37597-51351
3244.67-58753-60484-63029-74355-89176-89726
3247.57-69798-60504-64612-59605-47757-41784
3250.46-33270-19040-12950-11549-6433-11372
3253.35-25928-31847-33028-45143-47179-21963
3256.24 13807 34830 37893 35327 34533 31267
3259.14 29158 18161-6124-27835-36859-39811
3262.03-38129-39347-46888-47287-46291-52006
3264.92-59118-55822-33159-18509-22368-24417
3267.81-16407-18812-24511-17440-5898 1245
3270.71-1453-2594 4972 4285-343-1911
3273.60-5251-7642-12163-27582-31759-25021
3276.49-22099-24538-30845-30949-25635-29802
3279.39-32960-26476-16806-5567 2256 3875
3282.28 11615 15957 21615 25823 15848 7753
3285.17 11398 16291 25493 33456 23091 1980
3288.06-14495-21466-19915-17427-14914-9631
3290.96 2382 8316 1277-2072 1370-216
3293.85-7653-13327-12122-201 16940 14992
3296.74-7289-21647-8127 8870 4632-6290
3299.63-9927-9600-5114 5758 15572 13437
3302.53-3298-17295-603 19961 23225 22058
3305.42 16751 8833 11253 12966 9197 7680
3308.31 12292 16746 13052 5308 6291 23049
3311.21 31426 16093 7065 13236 16334 3723
3314.10-3947 14239 26630 9690-10254-10775
3316.99 5235 5776-8019-7709 5309 17228
3319.88 26262 25972 8062-10278-14306-12566
3322.78-8432-7496 2671 19141 24867 31720
3325.67 45395 46043 33514 21843 9712-2286
3328.56-3516 3113 7827 2594 239 6902
3331.45 7423-577-2413-2981-7122-1606
3334.35 9000 12112 10910 11268 19243 21230
3337.24 18711 11787 9658 15427 8723-2029
3340.13 3058 3752-3138-2242-2332 2296
3343.03 13399 14442 11430 8879 12659 16362
3345.92 5860-8610-15275-9890-3825-7501
3348.81-3708 1036 3990 8543 9920 8242
3351.70 1709-6896-17738-23537-13442-15286
3354.60-17080-10704-20776-31584-28336-22683
3357.49-15700-13276-21962-31370-26412-13228
3360.38-9497-19690-32322-36342-31312-35646
3363.27-41949-36599-34159-44383-45944-34543
3366.17-34424-43060-28275-13369-20327-19951
3369.06-8504-11740-23623-30721-35520-37314
3371.95-34038-29127-30577-31349-22913-19276
3374.85-17917-16349-12281-11755-24052-31037
3377.74-26576-29910-43488-51592-42749-39162
3380.63-39647-37942-48670-58104-55308-48733
3383.52-36220-28262-29672-28513-23994-35974
3386.42-50497-49710-42079-33295-28184-35437
3389.31-44856-45298-34116-29586-44731-61553
3392.20-52223-32598-30685-31976-33957-42373
3395.09-42931-39638-41737-51639-47002-30025
3397.99-27865-31243-30015-29525-27676-18996
3400.88-10934-12541-17406-28199-36001-40359
3403.77-43454-45181-38582-30005-35789-41115
3406.67-33011-29800-31701-33515-46787-62726
3409.56-64082-58562-49606-36916-23054-23491
3412.45-30447-29480-28394-25523-31210-39770
3415.34-29209-20217-21321-19836-11270-11303
3418.24-21757-22146-22942-36041-42814-41539
3421.13-42266-41864-35886-25672-13336-13756
3424.02-17751-12902-12761-23217-27888-25161
3426.91-22309-23508-37337-49778-42347-31350
3429.81-24596-20644-18020-24176-40017-38844
3432.70-21689-18605-16477-10889-11639-19882
3435.59-24116-32165-39148-33762-21834-9349
3438.49-4270-11486-18998-21549-20617-22772
3441.38-27712-30386-31794-37818-45418-48963
3444.27-27860 1207 2968-9429-20535-32729
3447.16-28532-16227-15061-14091-8308-7124
3450.06-4663-1340 2460 12945 20498 16882
3452.95 12111-3091-18325-15728 149 13566
3455.84 5571-10769-17901-14606-639 8171
3458.73 3571-11159-18319-15953-15855-16677
3461.63-16625-11233-4709-16142-31057-32553
3464.52-18802 455 18900 33572 28410 40
3467.41-28377-40097-42537-41291-17372 13197
3470.31 23522 20826 14234-2922-26671-44337
3473.20-41408-25942-11413-2217 2168 3956
3476.09 10017 23403 21021-1882-18522-23985
3478.98-28148-34096-30930-15159-840 10551
3481.88 20165 11149-6913-16872-27227-33514
3484.77-20365-5472-3895-3711 10568 13722
3487.66-6138-22535-18471-12998-13293-13940
3490.55-10963-3743-7174-19686-30538-34957
3493.45-22369-7723-8586-13592-15010-28435
3496.34-38356-31072-25087-18079-10744-8440
3499.23-2483-6684-25983-45674-43234-24281
3502.13-17327-17975-15710-21133-33246-35686
3505.02-24757-14309-9433-14457-20520-8971
3507.91 5352-14771-41140-37671-12129 236
3510.80-17511-29041-23799-25536-24472-22150
3513.70-26837-28008-23609-15099-5941-17520
3516.59-31829-23352-12838-15194-20811-29889
3519.48-41829-52623-55827-49660-35499-30020
3522.37-33322-38236-41038-41266-37060-39919
3525.27-51409-50910-45427-44830-36639-32108
3528.16-34098-30434-11142 5724 324-18069
3531.05-29588-30545-33612-41695-39198-25886
3533.95-12709-8345-11299-25679-48419-58373
3536.84-41906-27551-26757-36419-45259-51415
3539.73-51383-30767-17611-26622-26732-23840
3542.62-30766-29963-18559-16052-17682-14685
3545.52-18453-36103-42521-33023-23110-20630
3548.41-22571-25823-24790-34666-54507-61761
3551.30-52370-42319-44676-52035-49066-54520
3554.19-71546-75287-57810-37128-31131-36289
3557.09-24753-5730-3072-19387-29296-23134
3559.98-18910-26219-24629-11450-8011-23861
3562.87-40430-40938-35689-33972-29761-43107
3565.77-65413-64486-45501-57494-78939-60360
3568.66-28905-19200-16701-14128-10438-3666
3571.55 185-2985 2706 7991-1566-18421
3574.44-20565-8294 3773 9093-937-18793
3577.34-12690-6941-23990-29703-12806 6557
3580.23 14927 6437 3508 9994 17335 23822
3583.12 25632 34023 31303-6556-41005-66526
3586.01-83354-63281-25053-23877-71165-76253
3588.91-13373 18029 368-15083-7559 6893
3591.80 13767 2412-8401-8254-1173-6936
3594.69-27248-31259-21544-17362-16361-21408
3597.59-24774-13339 14470 35173 21965-9703
3600.48-17421-6527 716 1317-643 1159
3603.37 7564 11488 20349 27716 26626 4847
3606.26-30897-46005-33293-17709-34092-88715
3609.16-77324-12070 14195 13215 2275-38728
3612.05-66373-34623-3385-17513-29706-18628
3614.94-8877-7624-6522-14242-36323-47822
3617.83-31134-40787-91058-93622-34572-4378
3620.73-7030-9480-7153 1468 8346 6436
3623.62 10184 12722 9482 2446-14745-32110
3626.51-27256-34182-100510-148381-159092-209835
3629.41-169760-52078-13553-27480-22675-9525
3632.30-15185-37567-53957-37107 1011 19557
3635.19 23124 19065 5856-5178-7459-16956
3638.08-21903-17302-11030 1627 13369 2728
3640.98-17716-28030-23492-14728-10744-13525
3643.87-21148-32664-31610-26327-44114-83320
3646.76-107234-81257-37824-90132-185428-146889
3649.65-76060-92571-109012-85029-32116-1138
3652.55-2862-8479-6284-15267-34921-62442
3655.44-118422-139569-78262-29256-23465-31102
3658.33-26066-10974-3696-540 4365 886
3661.23 822 10708 13907 8527 11947 5894
3664.12-9927-20594-23633-21373-6500 9868
3667.01 8759-37177-120113-155236-106913-103890
3669.90-220037-270263-143932-34733-24982-39718
3672.80-38993-50869-97709-159841-189320-235316
3675.69-228312-113309-51434-53431-40187-32573
3678.58-53030-69298-60093-56870-54978-42775
3681.47-29719-27089-27919-32221-36727-36749
3684.37-22352-4033-7672-20825-23072-36644
3687.26-135431-302449-299718-155193-90387-86492
3690.15-92972-109962-83841-26431-3274-14168
3693.05-27390-34388-35369-31137-26037-24647
3695.94-20440-14305-14208-28440-47074-48172
3698.83-31915-20229-3695-1175-51663-95286
3701.72-69626-31685-20686-26527-34093-38541
3704.62-39685-45526-53432-52759-42541-32683
3707.51-31088-51674-101558-138143-113162-74865
3710.40-58229-82523-178182-222948-132646-46045
3713.29-23882-35568-37987-18782-13165-31820
3716.19-40246-38723-45133-56679-63328-61206
3719.08-49835-46670-37576-17364-23710-71829
3721.97-102140-86184-67117-64677-59790-58137
3724.87-49242-49773-90161-111369-75274-43841
3727.76-24273-15414-30483-41202-31894-37539
3730.65-73984-160304-221060-152912-61173-35109
3733.54-51058-101851-138572-120702-104770-157803
3736.44-170745-103957-65063-62385-46063-27187
3739.33-30790-44384-49198-50766-45408-48577
3742.22-62220-83861-173842-385178-503217-344392
3745.11-133333-46227-32372-51510-62909-59764
3748.01-106384-258368-340875-207259-61745-38285
3750.90-118671-307693-377996-220243-87698-54193
3753.79-46062-43225-35464-34547-55945-72477
3756.69-43234-11440-3218-13833-47055-83194
3759.58-73800-32988-18587-19947-22097-26651
3762.47-22472-17614-9057-15842-47753-83229
3765.36-80310-39629-15886-24065-29159-22643
3768.26-23583-59797-104144-83729-38957-28181
3771.15-16959-2180 5657 2498-5256-9069
3774.04-10438-10277-4447-8974-25584-28743
3776.93-18325-17601-17108-26732-46555-43653
3779.83-23989-4972 19293 34943 32848 11614
3782.72-6537-15805-33875-38715-15201-2941
3785.61-10474-22275-29293-37375-44368-46104
3788.51-25528 5009 18664 23451 28657 16469
3791.40 2924-562 818 3490 1529-14316
3794.29-34098-52570-77581-100355-74622-39314
3797.18-36347-35007-31288-29245-17987-24628
3800.08-103164-268544-317874-167775-55198-39600
3802.97-40657-57820-76797-79409-56321-27337
3805.86-57873-145106-136213-55246-36215-46865
3808.75-43943-30688-18682-7376 8122 6577
3811.65 2764-2220-19480-37716-48545-60599
3814.54-89498-209308-347481-266211-95392-46900
3817.43-46829-33953-19727-34359-76025-134438
3820.33-170699-173851-160004-102832-56146-52764
3823.22-45435-43472-42078-31403-27650-40369
3826.11-55222-50467-42943-48431-45299-40013
3829.00-37033-29470-21535-55287-124055-132148
3831.90-79858-45652-29917-31791-66414-116951
3834.79-103831-56971-51103-80256-192119-355261
3837.68-322173-152931-78467-80919-90765-107119
3840.57-119893-98338-67390-75505-109705-130681
3843.47-113334-75378-50795-44875-52286-57027
3846.36-45657-51074-60624-54073-50732-53835
3849.25-62614-75963-89235-147696-286955-338313
3852.15-208546-160761-344561-546961-473727-242682
3855.04-105436-69087-69378-69964-63353-65318
3857.93-65963-64591-76014-90452-87945-81139
3860.82-97005-120159-104013-81898-79492-86574
3863.72-99530-145224-183043-143980-86053-60919
3866.61-59517-70513-78387-98234-140577-213081
3869.50-280453-223985-120191-90774-70051-54871
3872.39-64866-90073-118502-127616-104642-86521
3875.29-84071-81251-76793-80923-86432-84383
3878.18-83760-94783-123538-168732-165789-127381
3881.07-98593-78172-74960-86455-87231-83965
3883.97-87812-138883-244629-266237-168905-97431
3886.86-80913-78542-83018-89627-79102-74791
3889.75-94313-137017-172082-143757-93165-81770
3892.64-82741-90077-98013-97759-95444-86645
3895.54-74922-81873-90422-88735-83598-92787
3898.43-138144-171875-136254-93051-89386-135434
3901.32-182513-162635-112026-101499-154539-202254
3904.21-159391-107838-96940-91046-81754-78852
3907.11-75518-73557-72964-71304-67074-70068
3910.00-77622-80986-70584-60170-60177-71030
3912.89-77652-76827-76769-79697-88248-101311
3915.79-105097-122297-142549-114556-69334-56775
3918.68-52517-68233-85044-68996-58973-67490
3921.57-64484-68581-87030-86847-65153-67825
3924.46-92749-99262-78958-65064-60193-56450
3927.36-48050-40781-49465-67154-71652-67615
3930.25-62674-66786-84878-101864-96973-92740
3933.14-92450-89566-83106-73883-54969-33243
3936.03-28926-40106-41921-35643-28796-34879
3938.93-54127-63465-55804-46237-44481-64915
3941.82-93342-103615-77462-51453-41522-22759
3944.71-4937-8878-27491-51619-65388-65858
3947.61-54498-37824-31642-65552-89579-76286
3950.50-66139-65364-62172-53157-43246-45770
3953.39-43549-38233-39983-54086-66927-54957
3956.28-29457-32892-44701-43330-43060-48754
3959.18-45591-45103-58968-72028-71247-70711
3962.07-64237-54736-42111-33326-41934-63557
3964.96-70689-67721-65540-59972-44422-33309
3967.85-34636-51215-56322-47179-40495-34705
3970.75-27801-36631-47598-46618-35056-24253
3973.64-27366-51220
##END=
