##TITLE=Sulfur Hexafluoride
##JCAMP-DX=4.24
##DATA TYPE=INFRARED SPECTRUM
##CLASS=IUPAC A
##ORIGIN=NIST, Analytical Chemistry Division, 301-975-3108
##OWNER=COPYRIGHT (C) 2000 by the U.S. Secretary of Commerce
##DATE=00/02/01
##$SPECTRA VERSION=1.10
##$UNCERTAINTY IN Y=2.0 % relative (B=1.0E-04,C=2.6E-08,D=5.6E-11)
##CAS NAME=Sulfur hexafluoride
##CAS REGISTRY NO=2551-62-4
##MOLFORM=S F6
##MP=-50.5 C
##BP=-63.9 C (sublimes)
##$NIST SOURCE=QUANT-IR
##SPECTROMETER/DATA SYSTEM=IFS66V (Bruker)
##INSTRUMENT PARAMETERS=KBr Beam Splitter; MCT Detector; Multipass cell
##STATE=gas
##SAMPLE DESCRIPTION=Sulfur Hexafluoride Primary Gas Standard
##PRESSURE=101.3 Pa
##TEMPERATURE=23 C
##SAMPLING PROCEDURE=1 L/min Flow
##RESOLUTION=0.9640
##DATA PROCESSING=Triangular Apodization
##XUNITS=cm-1
##YUNITS=(micromol/mol)-1m-1 (base 10)
##XFACTOR=1.0
##YFACTOR=2.9103E-11
##DELTAX=0.4820
##FIRSTX=575.17
##LASTX=3974.604
##FIRSTY=-5.37E-07
##MAXX=3974.12
##MINX=575.17
##MAXY=.028662
##MINY=-.0000156
##NPOINTS=7052
##XYDATA=(X++(Y..Y))
575.17-18475-99763-31817 100926 251351 338170
577.58 217552 52181-2906 123380 437106 519100
580.47 426480 431930 303572 257912 348530 199216
583.37 29823 74437 88225 202586 335066 310604
586.26 392013 489026 449066 570158 688919 751066
589.15 772215 861752 1110733 1324667 1346184 1465941
592.04 1802894 2010854 2241505 2702666 3050775 3474608
594.94 3915217 4294380 4738970 5231775 5828478 6376996
597.83 6933478 7567703 8008905 8490522 8994609 9526693
600.72 10058360 10546682 10929916 11246123 11466820 11764705
603.62 11759429 11839348 11756839 11506855 11173260 10801874
606.51 10252912 9733718 9068707 8596216 7818563 7268204
609.40 6527273 6297828 5963803 6784851 9978662 12099974
612.29 11086286 18972459 25097728 50551802 116569806 81700984
615.19 11785180 6871389 4324890 4659973 4404879 5327464
618.08 5900002 6897197 7674113 8872867 9755301 10772065
620.97 11601369 12556264 13256124 13967031 14541812 15056881
623.86 15309806 15495911 15567732 15575564 15401782 15182739
626.76 14799866 14347565 13767116 13122749 12492297 11869318
629.65 11109132 10441436 9677719 8849672 8059563 7324555
632.54 6641809 6040405 5386077 4851066 4320672 3816635
635.44 3328262 2938080 2585970 2143817 1768325 1513724
638.33 1291318 1161150 953470 796877 731096 591048
641.22 470382 384710 309633 262858 242899 219558
644.11 143162 118183 94118 44101 73967 85000
647.01 38653 21028 16381 43858 39857 4531
649.90-14359 12486 16946-171 26018 10994
652.79-22014 31338 109806 95679 36250 77777
655.68 67124 32607 26887 14635 38963 60749
658.58 18442-12305-10857-17142 14614 56366
661.47 46077 45007 45198 54699 108145 117102
664.36 35072-23581-41795 38324 70623-167903
667.26-375632-247686-55445-28120-101292-62858
670.15-1710 52970 36238 22889 64635 58194
673.04 31567 11811 34627 45671 52937 23524
675.93-14721-11832 9563 57643 53487 16037
678.83 1387 36164 37656-21741-7251 19760
681.72 3197 4663 18915-24136-11272 53836
684.61 58354 23214-50619-1093 86153 64958
687.50 68326 39215-6373 4722-25040-67417
690.40-65366-7536 45898 40018 66073 62040
693.29 37364 75672 51303 15593 49180 49040
696.18 45448 57128 110976 84272 28673 57529
699.08 11449 32078 68515 13491 1772-3795
701.97-15048 29895 51483 58123 91043 52821
704.86 59247 68618 39816 4721-36573 202
707.75 48820 48719 65306 57044 1955-1214
710.65 40160 76605 56649 29897 12839 35232
713.54 14350 7798 21920 32398 48816 36084
716.43 40631 20726 36639 85058 86550 41343
719.32 32035 31849 26583 42077 11226-10623
722.22-33766-28103 23085 53148 75945 88987
725.11 78051 690-11066 59592 65177 12620
728.00 46100 67933 36152 49640 20221 7341
730.90 27061 6516 17060 16135 27231 3263
733.79 940 55082 46203 13804 7963 185
736.68 29750 62864 53488 32580 20122 69496
739.57 58933-4423-35662-33282 8176 6222
742.47 4-2044-1671-21563-15096-6902
745.36-11972 52222 59375-8026-9600 21723
748.25 44972 68426 44811 29779 41804 28906
751.14-1431-31982-44088-5544 15507 20919
754.04 13212 6514 20653-1050-4520 1787
756.93 995-3054-7818-19915-38792-23272
759.82 18450 18183 18402-5111-14958-10117
762.72-28084 16276 31823 14171 4726 5738
765.61 27961-11205-24941-23659-37679 2771
768.50 10671-31636-47698-38008-40132-72917
771.39-58163-18350-20839-36082-25854 9069
774.29 25481 13278-16525 1725 17163-10667
777.18 19358 268-51998-34843-2983-404
780.07-11498-6884-13322-42051-51714-36017
782.96 4114-11726-45899-12552 10066-21012
785.86-26926-2060 25041-2527-27510-7940
788.75 5210-14825-29540-39823-42446-4683
791.64 19009 17412 16325-5322-6390 11208
794.53 6266-1086 19441 19737 11434-45872
797.43-69361-68326-50532-26497 5749 6441
800.32-16904-11163 2101-4655-14508 2617
803.21 11852 2415-23080-9500 27354 14331
806.11 3375 16045 19622 7851 2383 6086
809.00 22550 16085 3103 18146 8351 8026
811.89 20812 41107 50582 34683 44203 44836
814.78 45953-286-11202 14405 7056-25429
817.68-23648 24242 93362 105459 62954 40346
820.57 44358 22815 7375 42636 80451 41574
823.46 18556 27622 17693 30795 46688 43898
826.35 13006 4525 30695-24315 3620 79785
829.25 75137 60913 75534 48970 29153 55477
832.14 51691-4564-14862-6788 10025 46567
835.03 63306 41490 48687 79355 77381 84418
837.93 90303 62482 61294 58135 79249 52220
840.82 5877 14665 36858 64046 88002 59671
843.71 73907 127284 135268 147632 205614 219151
846.60 203292 174629 159629 172737 212390 213271
849.50 237596 245000 252848 295797 328579 349411
852.39 353671 330200 309487 336714 378827 372372
855.28 369647 367104 383864 382436 385596 385227
858.17 386176 415659 421010 405261 423902 388781
861.07 384463 380239 362845 367469 381367 373618
863.96 406291 481489 560102 606577 720152 913044
866.85 1169074 1477972 1708373 1821342 2079112 2570981
869.75 2274818 1040468 437766 351420 293303 297553
872.64 312516 335314 378553 402448 455181 483997
875.53 541467 613379 639482 684460 743126 768800
878.42 815127 828741 893106 910713 920499 957222
881.32 999629 993961 971781 972035 988745 975666
884.21 996584 974408 953388 923511 906220 887299
887.10 857193 804000 775148 735652 696809 646961
889.99 627176 584827 578029 537050 511931 480486
892.89 468875 436797 400141 341086 323117 302560
895.78 313255 286644 278334 265829 280565 253962
898.67 265238 260409 273346 253846 258849 275759
901.57 282661 224906 250688 245996 259734 267942
904.46 325780 333094 343703 341421 382596 358848
907.35 410051 422999 455663 453251 494210 501849
910.24 555569 574690 614797 614755 691794 712324
913.14 779885 814961 954755 995533 1076437 1153298
916.03 1341822 1503736 1757298 1973376 2306459 2679456
918.92 3229822 3793386 4576731 5408350 6528674 7764018
921.81 9271945 10878396 12857008 14828220 17057554 19332109
924.71 21831572 24045643 26169912 28284248 30940495 32321136
927.60 34035734 36873023 37635829 34830933 43121029 48467389
930.49 35620074 30353943 32628713 33587205 34451369 33734715
933.39 32828961 31714968 32345282 34670187 39467290 45925802
936.28 55362320 66374975 81002404 98954186 121759718 145277865
939.17 173999991 210803575 253630475 297294124 347748906 403252061
942.06 460532767 510116722 567640105 617464802 666756676 691830998
944.96 751481896 751827604 765807229 799000153 881730597 984839892
947.85 696185753 507802492 530022807 515682366 476083127 388129151
950.74 275829274 158498811 81871248 41955068 26558159 18713182
953.63 15634971 12410111 10975867 8953846 8154079 6800979
956.53 6295081 5304128 5033733 4333458 4168583 3587040
959.42 3501355 3080237 3008834 2684797 2673044 2373332
962.31 2366387 2134750 2133777 1936249 1946622 1786755
965.21 1840647 1696758 1722385 1618469 1670559 1563781
968.10 1591320 1522272 1575988 1517466 1570631 1527457
970.99 1602265 1573912 1638345 1630942 1721716 1711894
973.88 1800132 1828027 1937051 1998946 2135375 2199394
976.78 2357091 2477681 2663708 2797076 3032300 3223619
979.67 3499183 3753722 4034651 4250858 4525154 4727192
982.56 4966424 5107382 5212204 5209047 5163717 4997861
985.45 4782174 4534587 4366812 3988861 3610331 3403759
988.35 3278927 3518589 3866299 3557416 4185766 5107830
991.24 4341478 3662878 3788079 3768770 3782494 3694623
994.13 3538349 3293810 3027570 2676276 2341705 1993478
997.03 1724209 1477276 1285641 1124775 1020603 898462
999.92 810208 724978 683361 610853 555781 506739
1002.81 469439 418690 392634 344891 314279 284203
1005.70 266099 251960 243694 212663 215651 177850
1008.60 162422 149264 139747 120920 151257 130984
1011.49 118944 114394 115411 116630 106508 92523
1014.38 126033 131099 116938 90926 100399 92661
1017.27 84876 81644 94715 92691 93939 88394
1020.17 107632 109127 101107 76973 102635 99469
1023.06 96626 102811 93121 84883 90405 71622
1025.95 65380 80627 85277 70289 96978 106309
1028.85 104362 85203 92828 91276 83206 82195
1031.74 81288 71585 92950 81249 59983 56052
1034.63 70300 68043 69964 56323 66832 59921
1037.52 57964 68085 69380 72027 74410 39953
1040.42 32530 43705 56532 60542 55930 46414
1043.31 61294 47472 32578 41888 45640 39215
1046.20 41944 44340 41692 18368 23796 27527
1049.09 23818 19187 20509 45885 69288 51877
1051.99 51073 45805 38006 33807 34229 51453
1054.88 64509 35215 46643 41232 34533 37643
1057.77 18483 6701 16489 8224 2138 18369
1060.67 37254 40607 38395 23904 30254 23935
1063.56 21833 22031 22263 21932 15387 17728
1066.45 18353 22962 19077-3103-21298-43451
1069.34-19714 15853 28989 33028 53960 44789
1072.24 23675 787 5324 16642 15833 1036
1075.13 11076 23310 7200 1560-2125-8402
1078.02 10730 30009 42816 33939 17933 7307
1080.91 22578 30251 28401 33922 31965 21628
1083.81 33838 30699 29903 15127 13663 29727
1086.70 34812 19883-3843-4152-10085-15362
1089.59-14394-30528-23117 5102 38520 30371
1092.49 28418 9440-12583-5361-15379-7425
1095.38 7134 6121 11382-3786 12209 12210
1098.27-13001-6058 15658 19519 16480-3710
1101.16-18902-8876-10460-26005-19886-20810
1104.06-9209 1930-24587-35970-22857-7050
1106.95-10444-16175 3243 4756 3641-10138
1109.84-2937 2863-6063 126 810 2234
1112.73 8016-4121 8884 23779 11870 1055
1115.63 6188-3719 2269 15071 16310 23975
1118.52 20589 6632-3321-3276 7201 10640
1121.41 21824 25004 10456-10082 7859 19402
1124.31-4785 8156 29148 11194 1825 15678
1127.20 23205 14207 23402 34806 38971 39893
1130.09 41420 32351 39306 46296 32775 39184
1132.98 55811 46512 59815 75087 56835 49105
1135.88 57877 56090 56633 48849 42084 23720
1138.77 14106 30049 46493 40272 27439 15892
1141.66 4715 5813 11500 11985 6313 9305
1144.55 10616-6100 7814 22224 17026 15314
1147.45 9431-2482-1925-6498-9191-5796
1150.34-9125-10645-15918-22231-17048-15062
1153.23-16931-15860-9632-20918-26185-19294
1156.13-13174-10653 12067 20949-10381-11116
1159.02 14037 7660-3955-9692-22047-26571
1161.91-14841-7021-21297-31997-18750-9865
1164.80-3557-11337-13644-22933-23680-10921
1167.70-13747-11979-14839-22224-17181-4669
1170.59-5565-11904 3735-7716-9204 4592
1173.48 3682 77-15488-14390-8188 75
1176.37 2064-4298 3684-5583-19074-17247
1179.27-2574-9353-2529-8517-7123 9335
1182.16 10749 10224 3570 9197-4977-16411
1185.05-1575 7577-2074-12549-4910-3701
1187.95 15591 31965 11062 2608 1959 7696
1190.84 19662 16686 14871 10050 9566 119
1193.73 3917 7124 8754 5988 4910 7340
1196.62 15147 9479-11374-14125-10858 7869
1199.52 17692 15684 17885-5576-20347-9494
1202.41-7848 732 16262 10169-4655-2269
1205.30 19690 21631 19966 20786 5490-2740
1208.19 16197 22498 21828 18183 11189 9412
1211.09 8689 8232 23260 30571 13442 3765
1213.98 15863 27420 21725 22225 40783 34617
1216.87 20597 23815 22435 14170 6898 9429
1219.77 8516 6968 7455 11874 20784 26968
1222.66 37136 29786 28523 33842 25844 15491
1225.55 15614 13449 18111 14316-11426-25494
1228.44-13809 2635 29168 41334 30993 37008
1231.34 28594 11239 21608 23501 13238 30325
1234.23 44324 29882 29014 30996 42185 50211
1237.12 46618 68205 72634 64870 80407 94908
1240.01 109718 115746 117196 137210 171162 183754
1242.91 180727 195612 201640 201690 231744 247793
1245.80 265242 295346 302554 294654 299482 311161
1248.69 308084 309889 326504 351593 360854 373478
1251.59 414970 446523 468221 497584 515576 545406
1254.48 575272 559781 516429 508359 575663 467230
1257.37 326601 333643 340464 331869 332101 327537
1260.26 321042 337108 333112 326730 329646 346906
1263.16 354703 345675 341829 327885 299835 274750
1266.05 252590 236032 213655 183569 167052 148129
1268.94 139048 111486 80289 84923 83117 43265
1271.83 23550 44685 46553 28387 10678 10581
1274.73 38175 37160 30267 45019 45714 34025
1277.62 30201 50152 62644 62332 58762 66886
1280.51 69632 52385 50525 81583 162557 117351
1283.41 41712 57349 63885 67909 56112 43465
1286.30 38906 23891 14771-8830-20545-4631
1289.19-20975-30591-19070-9462-1326-3590
1292.08-1128 2882-4269-15052-17235-17263
1294.98-12081-9724-16343-10411-4994-5918
1297.87-1852-3472-13915-1570 12474 4118
1300.76-10369-9344-577-6779 1211 2106
1303.65-6596-11569-12024-11260-1354-1478
1306.55 3473 7635 3275 13639 13184 19632
1309.44 16817 6022 1587-7505-2747-3271
1312.33 319 483-2180-268 2330 4399
1315.23-4423-21075-20623-13221-6224-1952
1318.12-16782-24925-11865 1462-4261-17133
1321.01-15401 7512 14443 5740 13942 18554
1323.90 10680 11525 20861 3407-1662 9375
1326.80 1941 3938 2717-2021 2751-6930
1329.69-5433-1162 12169 26061 25303 24656
1332.58 7925 5700 9002 3997 5648 18103
1335.47 23839 13415 7024 17026 27537 9610
1338.37-4531-11984-7960-7175-10749-13227
1341.26-40389-47110-36797-48501-64414-52638
1344.15-29803-25987-30795-39319-48718-35784
1347.05-38432-65202-41697-67716-98261-78139
1349.94-73091-55965-35333-17999 31560 96743
1352.83 160358 245915 321111 369531 385614 359491
1355.72 329681 270999 201771 144682 72169 20039
1358.62-18176-70805-113735-129532-140268-117041
1361.51-93628-100723-99125-69605-53108-40186
1364.40-9084 5577 16882 26730 37143 31049
1367.29 19679 8415 8470 29617 30748 30433
1370.19 55067 67883 70519 75258 72481 79962
1373.08 59322 63204 79720 72029 72369 61790
1375.97 51628 40977 35886 50040 71188 64063
1378.87 48699 44136 49695 37461 45587 70766
1381.76 60326 49342 78055 97762 98012 120739
1384.65 119580 121853 156257 214123 189749 176349
1387.54 251508 149443 30313 12698 2215-8603
1390.44-4322 22753 21819 22165 24395 14856
1393.33-13465-63879-33875 14480 13313 33273
1396.22 36653 40092 20880 10856 12858-30787
1399.11-2281 38505 39213 35875 26442 32405
1402.01 27556 14861 5563-3906-19915-37704
1404.90-19889 12869 2693-11568-4674 8904
1407.79 16308 5489-4717 61 6921-12453
1410.69-24021-12174-5378-5653-11001-10802
1413.58-5328-7256-5643-15320-42149-22425
1416.47-40739-70862-46018-47248-133408-269779
1419.36-176976-35077-23416-23306-32317-31060
1422.26-20381-19410-51059-56793-27389-20801
1425.15-23587-11337-7013-4378-6495-23042
1428.04-30749-19699-44528-69553-42289-19268
1430.93-9475-13498-28149-28625-24884-7564
1433.83-1468-11959-23196-21526-117970-241690
1436.72-136116-24909-13976-2254 4322 618
1439.61-5376 4059-1833-13808-1846 3413
1442.51-490-2355-1835-4250-14507-10450
1445.40-3915-1927-5454-30513-72671-53643
1448.29-4594 8600 4090 2603 4001-4207
1451.18-13466-4731 8177 10224-1662-17193
1454.08-10889-25313-41422-67156-280813-350126
1456.97-116260-68866-91206-47320-41907-9763
1459.86 4978-15343-27023-15364 1169 6954
1462.75-281-5063-22659-109911-105159-23207
1465.65 1595 9789 1733-273-2224 9278
1468.54 21098 233-14208-17973-27878-80387
1471.43-191279-142152-67834-168925-121780-7834
1474.33-12393-16186-46985-84506-35329 9480
1477.22 8868 9657 6811 8024 6233 7883
1480.11 18059 8028 1542 10515 12027 10896
1483.00 10316-1225-11858-3726 1565-12983
1485.90-13626-32256-71789-30841-5215-22016
1488.79-55363-91064-70716-82308-52333-3645
1491.68-5859 3632 5225 2353 5614-7570
1494.57-15424-54845-217207-200638-43444-21459
1497.47-18913-82455-108240-25115-166-6109
1500.36 1702-6728-13117-9055-11347-11450
1503.25-5109-17911-23135-175187-315752-169494
1506.15-248767-362520-154653-59872-69002-31190
1509.04-34600-37868-15444-11687 948-46006
1511.93-75459-25188-16380-12417-8119-27299
1514.82-22583-10118-39837-80085-107862-85655
1517.72-24555-31931-31870-54778-104907-126300
1520.61-295205-244000-74828-126454-94214-29990
1523.50-22121-21736-68148-133019-82937-17080
1526.39-27867-43372-25180-44305-45206-10297
1529.29-8273-2778-14849-32138-31363-20343
1532.18-44675-89996-130751-114521-35002-9446
1535.07-12227-14119-24664-17871-16993-41308
1537.97-150267-387466-287100-214835-298020-114534
1540.86-50066-205230-213942-63575-39513-43558
1543.75-19910-46262-83811-25489 25283 39696
1546.64 42653 36508 48222 58798 51167 39411
1549.54 29697 47072 76320 96774 102846 104656
1552.43 106095 122089 40038-57007 62892 153111
1555.32 159830 173017 178479 82973 35107-74228
1558.21-89041 142160 88821-47313 137653 347778
1561.11 400859 452265 486716 487178 481920 513534
1564.00 529551 554172 621789 671942 683740 699664
1566.89 735363 773232 790527 787822 740779 710232
1569.79 868236 973882 974815 987309 1007202 1043266
1572.68 1069729 1104306 1127211 1129661 1137989 1053550
1575.57 824920 967601 1236532 1282096 1308482 1323188
1578.46 1341382 1342103 1353675 1382908 1385952 1388159
1581.36 1406804 1430131 1436871 1502697 1496884 1445628
1584.25 1511873 1505792 1388887 1359007 1421245 1459543
1587.14 2221538 2126725 1190780 1048330 1078830 1151620
1590.03 1137547 1109612 1152225 1211469 1245164 1220746
1592.93 1172118 1136316 1124588 1130328 1124874 1102711
1595.82 1069141 1035825 996797 952994 905065 852528
1598.71 797046 745926 704141 663547 624676 582131
1601.61 554290 523131 467332 437593 426952 409365
1604.50 384945 365254 340590 322995 301905 275925
1607.39 265964 251274 224277 193298 179869 188852
1610.28 186784 165038 154788 143218 122575 92395
1613.18 83959 92744 90381 54813 35351-36254
1616.07-282497-231303-6337 30733 30494 33942
1618.96 49322 44596 42022 42257 48138 42105
1621.85 23364 9429-73283-87081 2129 32779
1624.75 34644 26320 35432 37100 21861-18890
1627.64-7660 30236 34675 46325 57600 63141
1630.53 54664 57724 58557 52983 68007 62078
1633.43 50885 9245-72389-221314-210352-8062
1636.32 40987 5913 10680 36188 43828 49027
1639.21 43132 30950 31660 34139 47160 49260
1642.10 34878 21333 17592 21542-6886-21129
1645.00-107744-234511-115843-43866-79330-63718
1647.89-45525-18201-8377 1804 4758-18715
1650.78-34102-132609-392642-461776-497707-323540
1653.67-142337-165298-61537-23036-14176-9160
1656.57-11232-15422-9627 2512 10136 9290
1659.46 11071-1495-9172-19169-24027-79744
1662.35-140249-73126-17350-15725-17264-28741
1665.25-35648-25203-8819-4455-6718-33305
1668.14-61212-160952-162022-57694-42289-67428
1671.03-90709-57113-32594-26188-20269-40002
1673.92-55595-167987-231673-104144-31459-34433
1676.82-29769-28416-17113-24241-42252-59851
1679.71-63153-46034-25804-30728-44861-88355
1682.60-151278-170548-188643-431902-464403-132602
1685.49-44281-48096-26365-27502-38270-45816
1688.39-30717-21730-32770-29460-15709-10725
1691.28-9323-13312-12325-9617 2743 1413
1694.17-18956-86429-382040-398823-76329-76
1697.07 10161 51566 47005 22159-116733-278933
1699.96-271943-160350 26856 121735 94837 70634
1702.85 88983 86939 53148 89912 157616 146543
1705.74 115125 179276 251269 307558 380256 428553
1708.64 489678 552022 622981 723994 832682 947144
1711.53 1059923 1179701 1332139 1428963 1465735 1607338
1714.42 1641043 1709999 1993572 2047697 1768681 1703755
1717.31 2033263 1902428 2058750 2496166 1770953 1151765
1720.21 1212718 1292818 1448435 1233475 575811 143597
1723.10 58202 33681 17986 15610 6760-258
1725.99-629-12766-17044-23031-31270-33581
1728.89-43725-75600-68242-44056-41372-48539
1731.78-61257-96991-257931-232505-230920-309472
1734.67-137894-52433-46245-34977-35274-36868
1737.56-37136-54360-59566-124742-175765-84043
1740.46-27647-31516-32753-44622-70341-69963
1743.35-38720-34841-43307-27144-23568-19133
1746.24-24928-39353-25965-49040-77729-54529
1749.13-34295-32860-57922-171003-179300-43059
1752.03-7001-17488-19392-14300-4853-9096
1754.92-15391-16282-56319-88782-38616-11978
1757.81-9390-4172-6392-621 6667 13706
1760.71-26371-119678-84799 2487 9124 4195
1763.60-5819-11689-6147-4532-8400-12894
1766.49-15652-29508-104348-104674-34822-11924
1769.38-4814-19641-59785-107214-60572-137049
1772.28-238776-101120-26594-23133-7461-27131
1775.17-41475-31203-26913-23914-19458-20472
1778.06-17164-10993-9280-19042-37190-30708
1780.95-8988-4204 69 1105-5028-9032
1783.85-28039-62902-39744-5401 395 1008
1786.74-723 732 10324 14236 8098 7983
1789.63 1409-31436-50575-15898-43419-157312
1792.53-119084-17050-8842-10879-6237-7671
1795.42-24235-15374 3011 4854 958 1182
1798.31-4192-37953-46389-11475-5505-20016
1801.20-14490-22962-22532-61-2867-8183
1804.10-5375 1999 9512 6702 601-5883
1806.99-15181-24248-9286 8277-625-6745
1809.88-20589-19140 5413 4586-15143-16797
1812.77-1992 2661 6068-1989-12205-1627
1815.67 4266 3260 1634 6546 17719 12032
1818.56 4999-5904-16757-7402-26 975
1821.45 1739-2330-943 8758 3482 593
1824.35-36572-58216-17183-3758 1492 319
1827.24-15383-15695-16895-25910-49797-80511
1830.13-39996-9888-6070 3290-8542-17991
1833.02-8976 2318-7017-8112 1364-4418
1835.92-11501-15839-14490-7327-4732 459
1838.81 132-4828-13878-23505-21959-22841
1841.70-15995-19228-27954-76896-176575-125403
1844.59-39875-32030-26364-34894-33403-38717
1847.49-40045-28034-32731-42234-43357-40213
1850.38-38081-32076-30785-36890-39660-46717
1853.27-46971-42495-37820-36791-44496-47656
1856.17-55509-61848-57603-64820-67638-64649
1859.06-76892-84847-66455-37850-31827-41088
1861.95-35340-34364-40783-42460-47082-51964
1864.84-57151-60818-56481-49425-58682-81923
1867.74-69825-62532-122382-118046-71351-60188
1870.63-54894-68463-63849-68392-90102-104947
1873.52-107161-105383-114616-122497-123310-133211
1876.41-144943-149885-144809-151532-173101-175619
1879.31-184557-198215-187091-174000-183168-220902
1882.20-247959-237659-228441-242950-257500-266643
1885.09-268046-264438-272813-280307-283054-291858
1887.99-300600-314441-339493-320687-299853-304423
1890.88-293850-294935-292155-305805-305345-293915
1893.77-296446-311952-328889-307785-303042-286866
1896.66-266041-264361-280756-317052-349903-364299
1899.56-331457-267658-203271-166738-162591-170862
1902.45-166930-139461-95279-49547-31725-49471
1905.34-73434-89576-93260-84470-76166-71630
1908.23-66029-67391-72412-66338-60233-57982
1911.13-43196-35333-45202-46322-42834-45530
1914.02-48409-41644-31735-29617-37837-35620
1916.91-47999-98280-85313-44287-40239-37258
1919.81-35852-35616-30469-34556-41897-46480
1922.70-39832-20410-15653-21332-21221-13532
1925.59-27047-45556-47604-42374-38900-39662
1928.48-39055-41033-39251-37153-37630-31401
1931.38-34101-37929-32025-37583-37688-21261
1934.27-33607-50046-39991-28295-29949-36318
1937.16-33875-28396-22482-15529-20549-31371
1940.05-39090-40638-35312-39989-60636-52074
1942.95-28238-23031-19696-30687-43296-39508
1945.84-35181-41082-36154-27504-19557-11563
1948.73-13307-24863-23478-11081-8008-9776
1951.62-8280-1235-4622-18347-20463-19883
1954.52-17982-13293-8641-5693-16142-23862
1957.41-21052-24441-23269-14101-18880-21075
1960.30-19411-26654-23491-16634-23136-30036
1963.20-32576-26916-27420-23902-14618-21442
1966.09-17965-22983-36205-36763-29353-16624
1968.98-15514-17059-22189-29716-31630-30882
1971.87-28068-26818-11445 177-3289-9514
1974.77-19558-14959 3154-625-20659-22384
1977.66-13108-6985-11142-18046-9486-16949
1980.55-24366-19129-18086-10500-4422 1279
1983.44 1006-5086-13401-15269-8814-18312
1986.34-18498-19076-24319-22120-20306-15151
1989.23-16238-11460-5395-9133-22223-36090
1992.12-29186-7299 3705-2912-15064-15914
1995.02-5222-2638-2395-9080-12610-12528
1997.91-16663-4745 2219 2365 1257-6043
2000.80-4758 192-1374 862 5230 4987
2003.69 2940-3742-6742-5138-11568-19394
2006.59-28421-35407-22202-14435-12137-3867
2009.48-1676-2388-4163-1883-6384-11088
2012.37-8466-15177-10562-971-7710-11643
2015.26-8451-10682-17036-15508-8741-13233
2018.16-12373-13813-20902-27906-32252-19078
2021.05-6459-14130-11116-1729-6081-6923
2023.94-13045-12450-10146-11052-14719-10110
2026.84 2257 9801-5551-16481-17356-25641
2029.73-11970-9406-11207-13466-7753-2455
2032.62-18333-21505-13708-11349-20634-25461
2035.51-23465-21527-24664-19684-10646-14170
2038.41-20986-27731-22587-13325-25117-36483
2041.30-23220-26354-36146-35025-31140-21334
2044.19-13748-15731-19213-20406-15081-5163
2047.08-10672-26339-31936-24254-22777-19886
2049.98-9372-10529-29011-29488-20536-22445
2052.87-24191-23416-21391-32564-38084-32576
2055.76-30510-37578-42569-34358-36874-37519
2058.66-29488-21631-14729-12367-17408-26584
2061.55-23116-21201-25744-33578-27891-22905
2064.44-22681-18790-29541-33810-33800-26763
2067.33-15108-13900-15455-24240-32241-29784
2070.23-27357-28073-27393-31949-32798-21642
2073.12-22349-37725-37129-24416-28453-34115
2076.01-33193-34564-13449-21682-47024-46649
2078.90-42697-36738-35590-29320-22106-5800
2081.80-5815-20769-29396-43367-39916-24709
2084.69-30937-26833 5569-2608-25394-29219
2087.58-34058-34725-32338-24004-15772 1209
2090.48-14057-32846-25592-24339-27302-19779
2093.37-11646-236 21963-2619-15621-13600
2096.26-19179-18426-21888-28372-2258 27538
2099.15-10719-32079-24728-27848-21395-13150
2102.05-16222 25690 38283-879-19341-25888
2104.94-22055-17715-20447 731 47557 12845
2107.83-27685-21164-21638-21925-8437 3332
2110.72 40628 51178-7380-31306-26804-24661
2113.62-20033-16244 24816 73656 28419-21722
2116.51-20475-22634-25294-11695-1458 45635
2119.40 56338 6141-14457-22464-18131-13680
2122.30-2391 39877 71504 25799-9742-12116
2125.19-20932-20550-19423 2845 49932 42022
2128.08-1664-17461-14063-3863-10465 167
2130.97 35611 28923 1602-11633-21243-11456
2133.87 4198-2514 4584 3875-9666-9747
2136.76-4414-9761-31319-23234-8481-5170
2139.65-1376-10926-13151-7243-14374-14413
2142.54-12637-10501-10254-10502-6637-11091
2145.44-12560-3219 18123 26326 7224 752
2148.33-3142-11261-14224-7061 22354 13445
2151.22-10459-9036-4117 10368 3496 16008
2154.12 43582 13156-7063-959 1612 3474
2157.01 5120 49542 68558 27680 4177-13031
2159.90-4068-5773-1744 63365 47147-5538
2162.79-1948 6596 6697-5922 42768 74097
2165.69 13318-9479-5836-1458-9795 19546
2168.58 93030 61417 5006-8343-16331-10017
2171.47-10909 45755 78235 24670 7002-256
2174.36-3653-2540 46921 97009 45137 5799
2177.26 246-6022-4857 21543 68758 37630
2180.15-6666-6684-11621-13912-1216 52198
2183.04 48106-3764 423 25163 36657 38427
2185.94 66660 44735-9435-17756-27019-31366
2188.83-19273 26791 34258 1864 3903 16563
2191.72 17775 19415 49453 30499-4493-9327
2194.61-15402-17631-8485 25191 13152-8260
2197.51-613 2068-8147 8599 38923 25138
2200.40 5156-625-2872 7342 29137 28734
2203.29 9778-5313-10635-17489-17179 12280
2206.18 16421-980-4375-606-4097-3861
2209.08 14627 17961 7751 7194 8128 8541
2211.97 7140-1055 4236 11377 10385 12663
2214.86 18089 14096 12209 7172-1988 3855
2217.76 11765 14091 17518 19762 12777 7739
2220.65 26911 32805 21068 24110 17665 13472
2223.54 12672 11007 21483 21877 21379 26777
2226.43 24788 18036 20503 30397 34204 27715
2229.33 14174 14563 8774-7616-17048-12861
2232.22-4910-6266 977 4465-2051-10164
2235.11-15135-14707-17328-24227-32271-30696
2238.00-14116-4535-10876-18886-32276-39317
2240.90-30562-15435-6346-7722-8256-2142
2243.79-4764-16805-18648-8508-10767-23855
2246.68-26054-21091-12384-20340-29203-20625
2249.58-5608-2197-22589-28309-21642-21493
2252.47-17123-8440-4375-6311-7566-9886
2255.36-18276-20232-23226-25779-20374-20119
2258.25-20249-22451-16585-15429-19300-13917
2261.15-12694-10024-14731-26681-19108-9846
2264.04-15086-22137-23955-23588-23452-25137
2266.93-31714-30382-21694-20617-24430-25304
2269.82-25008-27534-21394-19968-17158-6133
2272.72-7457-11499-17250-23326-24579-24142
2275.61-29273-32139-20043-18479-33606-38666
2278.50-32120-21645-19072-21410-15347-10412
2281.40-21320-29998-28464-24183-19790-24312
2284.29-31105-30901-24183-22324-27588-41484
2287.18-47241-49499-45228-27128-21775-19536
2290.07-16900-17356-23964-21416-13630-24622
2292.97-27849-20208-23727-28990-25001-24918
2295.86-38060-46916-47039-43193-47191-46134
2298.75-31721-31070-43567-43671-53885-57386
2301.64-59728-56382-22668-13307-30587-50696
2304.54-45396-31061-29973-49478-70598-62172
2307.43-54015-53356-70487-70600-52944-49601
2310.32-82843-86471-48521-40473-87437-112306
2313.22-68764-45129-80496-137913-117684-70047
2316.11-80737-149678-130987-63842-87901-177848
2319.00-158159-71760-88926-188338-184266-84164
2321.89-106473-237511-220961-91006-106623-244891
2324.79-229977-92030-141819-304841-250471-105215
2327.68-199224-356635-247591-88333-226835-364688
2330.57-205198-105807-306080-378164-157297-115930
2333.46-343154-334564-125740-224036-423748-262785
2336.36-118692-321428-387205-155826-165121-367079
2339.25-273158-114404-269330-353740-152875-147728
2342.14-308442-216584-103874-223914-254722-130199
2345.04-152847-212883-136968-91727-127300-104531
2347.93-65310-60999-75180-98439-78169-85693
2350.82-156159-124170-77737-194607-197093-125426
2353.71-261735-263677-152999-316524-310206-158450
2356.61-355502-345038-176090-396338-358684-210713
2359.50-438120-327467-236667-454924-284876-304125
2362.39-448315-240312-367671-375244-216989-393804
2365.28-269286-245864-358979-201692-317232-272595
2368.18-198737-287253-182865-257745-216432-176910
2371.07-212206-147726-196911-152741-152133-132038
2373.96-115859-118239-92773-111946-84344-79126
2376.86-71624-75213-62015-53833-55886-53042
2379.75-51534-49395-42020-38795-45948-37205
2382.64-37092-42153-37586-30146-28515-33964
2385.53-29019-29959-32744-40990-40483-20073
2388.43-24888-35797-36940-41403-34797-27827
2391.32-36369-37617-18113-17666-39400-33574
2394.21-18944-20615-18193-12660-15991-22742
2397.10-24770-36250-42063-25457-14762-23617
2400.00-24974-29691-37615-33060-33302-32886
2402.89-21681-14773-19293-28676-27485-19254
2405.78-20916-26791-32611-34557-32781-31185
2408.68-26956-19811-38109-45093-41189-37913
2411.57-23388-21628-23567-31700-34639-21543
2414.46-14816-19586-19998-19885-19137-21140
2417.35-27108-27860-26939-29945-29013-28533
2420.25-38527-41542-39479-25038-21220-29498
2423.14-35228-33331-33440-40608-37832-39968
2426.03-30946-21359-22420-30825-35590-28461
2428.92-27724-29893-28371-34599-39486-40241
2431.82-36385-25882-32822-34688-33032-38316
2434.71-44112-32001-21171-32030-36049-34741
2437.60-19448-22488-36383-43030-50381-47478
2440.50-46241-44234-40498-43221-45377-43895
2443.39-44041-43217-41254-35247-23388-26810
2446.28-34168-33280-43075-40014-27438-30389
2449.17-40329-45366-47489-40876-32075-41044
2452.07-36316-24508-29314-31504-35057-36244
2454.96-37480-40323-40050-30178-42000-53148
2457.85-36836-32029-27130-17398-19633-29128
2460.74-26202-29689-39681-37477-32358-25263
2463.64-22059-24368-28103-32173-36323-31910
2466.53-29346-42200-35732-26220-24978-27447
2469.42-27356-35457-41380-29026-27806-37865
2472.32-33186-24763-37631-40463-32031-30484
2475.21-30406-31436-29885-26775-29474-37993
2478.10-46218-50873-54324-50944-33408-29025
2480.99-42988-46363-32084-23624-20242-20305
2483.89-34190-36358-29617-28862-28442-18205
2486.78-18927-24891-19472-16899-29408-35834
2489.67-20132-22047-33438-31871-35249-35726
2492.56-19952-11507-23627-21144-14645-32936
2495.46-37219-29823-28679-25775-28613-33314
2498.35-32580-32456-32817-27519-30088-32503
2501.24-17286-11083-18314-27815-24140-17262
2504.14-23966-23250-14649-18595-28756-38948
2507.03-40986-38386-49224-44031-38867-33985
2509.92-23624-37420-35031-12956-12694-18841
2512.81-23127-29054-28985-39626-37343-22669
2515.71-32230-43090-45008-44427-37967-35173
2518.60-19377-6003-10666-29034-41583-42386
2521.49-42932-41365-39130-28678-31908-41339
2524.38-33989-28979-27254-32509-32517-14935
2527.28-11104-20843-21195-13049-20706-35682
2530.17-43334-34156-30275-27253-23202-34956
2533.06-35430-38984-43165-41034-40398-39288
2535.96-41355-41298-30696-23702-22359-19375
2538.85-16737-28294-38435-33330-19611-19158
2541.74-29744-23898-23142-37792-38552-19473
2544.63-17270-28180-35904-33839-40034-33932
2547.53-20384-20932-23511-29677-33083-37847
2550.42-43472-37845-25236-25718-40838-40362
2553.31-32670-34943-37387-34065-27944-24556
2556.20-24269-28901-29704-29839-29433-34312
2559.10-35840-37875-34577-47731-59230-34608
2561.99-24472-31632-37511-41483-52080-47182
2564.88-45025-47347-33825-44044-53123-48083
2567.78-43316-43939-50166-51871-50566-50627
2570.67-39706-34244-38998-29160-28039-37902
2573.56-38050-41061-44222-51889-55275-31814
2576.45-33960-45894-43344-50173-39720-28703
2579.35-33240-33665-38828-49263-44403-37308
2582.24-42182-48774-47912-36888-31917-35645
2585.13-37380-51123-64816-65157-55468-50168
2588.02-57310-51530-48025-60819-56428-45982
2590.92-46628-53340-52090-41314-42398-43968
2593.81-46179-54190-56156-56850-59259-55579
2596.70-45719-46040-47893-50417-59297-61867
2599.60-55278-54763-60867-63935-50778-43120
2602.49-52749-60001-66334-59519-57613-61700
2605.38-53170-53814-57932-64113-67101-58548
2608.27-55955-63567-61106-45398-51972-56632
2611.17-53557-72629-76707-58863-53439-54014
2614.06-46343-48296-51407-56645-64734-62339
2616.95-62591-61202-66186-66698-54866-49143
2619.84-53516-55550-54386-54836-66064-63701
2622.74-51430-53023-52508-61229-74560-63156
2625.63-50270-54582-54273-48056-59293-64766
2628.52-56890-57031-52913-47460-49683-56066
2631.42-60484-53418-52812-66031-58159-48783
2634.31-53496-56447-58100-58426-50970-47546
2637.20-43426-46572-50788-52129-56126-45570
2640.09-40336-43512-56007-57326-52040-52903
2642.99-47874-58718-56622-35235-27830-25243
2645.88-26358-35332-50987-52553-47659-52130
2648.77-37248-44265-63819-62242-52799-40580
2651.66-44347-56733-66077-72901-56536-47699
2654.56-48877-43919-44456-37009-42555-54736
2657.45-55454-56272-53313-38988-13225-20117
2660.34-46817-47994-49511-39851-36967-46086
2663.24-54284-64558-57961-49072-42792-47445
2666.13-48321-40228-50457-41609-32129-31229
2669.02-24678-44067-57328-52072-56095-62891
2671.91-51238-35312-36349-47055-54092-54364
2674.81-54034-58515-61192-40144-23979-27556
2677.70-35188-54161-61843-50559-51000-47032
2680.59-37618-55030-62973-48511-48518-53367
2683.48-38958-39481-48400-56121-68284-47875
2686.38-33280-40863-60283-67834-46749-41420
2689.27-47767-44556-43685-45214-48592-50599
2692.16-47044-48994-45764-40354-39943-45694
2695.06-47865-47648-62158-67830-63886-62689
2697.95-63029-59426-51105-41842-44087-55729
2700.84-38817-9433 6889 9908 5797 5662
2703.73 8346 4856-7925-31467-62285-83307
2706.63-93392-84890-74602-73038-69772-67289
2709.52-55024-38712-28708-24780-22638-32334
2712.41-43836-48896-54626-61595-76294-85048
2715.30-75426-64513-61206-58838-51482-56049
2718.20-55740-50452-45764-39706-34453-31968
2721.09-46628-53127-49431-48816-55563-51495
2723.98-44965-46494-50110-48402-46819-54614
2726.88-51582-57495-44525-41004-49710-38351
2729.77-48143-52054-43063-38340-37485-41386
2732.66-37704-31006-38499-40009-44187-51359
2735.55-53825-63725-57221-52741-61292-49592
2738.45-22635-6758-14832-27804-30837-29823
2741.34-25714-35235-47908-51051-56025-51949
2744.23-52391-51428-45431-43143-45771-47394
2747.12-41754-39183-42325-47344-51011-52894
2750.02-42990-32536-45812-56246-45833-41331
2752.91-54528-56672-33924-28348-37640-37964
2755.80-33311-40161-57730-73797-61941-44927
2758.70-48146-46393-47426-28691-24126-49831
2761.59-46855-38828-39347-31647-34534-43569
2764.48-41781-35233-36032-38545-37493-47655
2767.37-68759-63863-65100-70289-59779-48519
2770.27-35023-37510-46297-44322-46211-53351
2773.16-48248-49142-49436-42140-36565-48375
2776.05-47358-38179-49324-46366-47665-58415
2778.94-57221-61688-64272-58784-46647-42782
2781.84-51563-58560-50116-44309-49096-51207
2784.73-46159-44604-50212-46003-41413-35355
2787.62-32724-38377-38444-40375-64527-78462
2790.52-65583-55170-51945-51689-51852-63438
2793.41-71581-55162-41133-44301-45152-43053
2796.30-42095-30785-24301-35920-51954-52383
2799.19-70835-77123-54665-44983-35810-41814
2802.09-51585-59413-57215-49886-42975-42940
2804.98-57045-51762-43440-46292-45141-53698
2807.87-58092-52741-55682-54187-42186-38429
2810.76-48413-47603-40801-39958-28737-29835
2813.66-37518-36492-46426-49313-44584-45184
2816.55-51505-54257-45179-48266-58621-48052
2819.44-37799-47077-49560-52558-57927-53304
2822.34-57826-61293-55896-54121-62778-62507
2825.23-48567-40417-47419-60735-59340-41924
2828.12-31666-23529-29062-36896-33518-39959
2831.01-29919-29933-55093-59965-49815-37666
2833.91-28079-42355-52770-43459-33047-33396
2836.80-26720-16850-25227-48909-56375-51474
2839.69-59495-80839-90110-78292-78551-77588
2842.58-71577-61487-52052-34088-10031-5745
2845.48 1761 22111 35115 32697 17360-6138
2848.37-28713-35984-38117-46878-52614-55096
2851.26-57338-69969-73816-70802-42730-17183
2854.16-4686 13386 10469-3684-35292-52978
2857.05-75247-90499-88781-89869-79096-72525
2859.94-52644-23760-25402-17335-3360-20871
2862.83-28828-27932-30069-30470-44022-44861
2865.73-38952-44246-40759-36453-26154-27063
2868.62-35314-36743-39222-38333-33037-28288
2871.51-33726-34472-32002-28332-29792-25469
2874.40-19677-19701-18253-23621-27556-22474
2877.30-23873-24897-22759-31629-35619-30608
2880.19-17420-27892-41823-34522-29407-31961
2883.08-42334-37471-30302-32277-40023-37102
2885.98-28561-31502-34183-31188-18844-14695
2888.87-10011-10372-17948-28677-42248-42035
2891.76-22458-22595-38249-41106-36842-24588
2894.65-19038-21542-26277-37215-31790-21575
2897.55-20605-11329-8589-19013-24894-33436
2900.44-25136-17850-26776-32920-24419-13301
2903.33-18772-33098-50951-45166-31896-25969
2906.22-34034-40195-21619-11527-27296-38584
2909.12-51643-50625-33363-16294-18630-21830
2912.01-12745-21767-34240-29794-22821-9749
2914.90-2549-12742-3597-10631-20543-31806
2917.80-50776-39539-37987-48933-45778-36463
2920.69-31870-25035-11143-16153-28297-18059
2923.58-14021-32267-22034-3337-14433-32309
2926.47-25921-10253-15356-27787-38647-31670
2929.37-20026-27108-43808-46315-27854-17158
2932.26-22205-16516-8424-7195-11972-24726
2935.15-38800-51047-35349-8822-11445-22870
2938.04-14563-21204-35687-36598-45223-41414
2940.94-18590-21672-29804-20301-17979-23904
2943.83-40985-36843-15909-23874-26302-12206
2946.72-10636-32591-39519-35277-35648-29081
2949.62-16596-15273-42725-38108-19893-17336
2952.51-23692-29619-27985-26341-16274-21392
2955.40-22815-15947-17502-17611-12605-19277
2958.29-20920 5085-520-23137-35067-66451
2961.19-81300-36557-706-11357-9429-2347
2964.08-10656-27374-28756-28795-29752-13018
2966.97-13934-25456-11733-9204-23097-37989
2969.86-47194-23455-15142-16488-22386-35142
2972.76-36760-39528-29576-24628-37778-28259
2975.65-5516-2015 6273 16591 3137-9947
2978.54-7208-3265-8672-13630-14992-11111
2981.44-3767-3208-23660-31702-14672-8400
2984.33-4663-22005-23971-6720-2416-13122
2987.22-33091-28501-37205-35035-6459-2765
2990.11-10569-24311-17265-23366-44389-34974
2993.01-27424-26034-25065-22714-24381-29761
2995.90-36457-32485-6690-2185-19289-14424
2998.79-11728-10879-22479-37448-24300-18799
3001.68-14983-20732-14087-14131-23173-18459
3004.58-22751-34569-31183-21165-13985-10497
3007.47-14670-11386-19013-19936-15668-12075
3010.36-11611-25803-38672-21821-994-10011
3013.26-11769-10804-19723-27028-25370-36991
3016.15-29867-13280-20565-11353-19501-28473
3019.04-13401-22911-44595-32194-11110-15852
3021.93-24827-23453-29251-34767-11578-5750
3024.83-24741-23035-19396-9614-14070-18218
3027.72-8376-11029-21773-23320-11102-8881
3030.61-13023-16930-18280-27820-20829-23828
3033.50-25917-7114-15322-12222-7769-16027
3036.40 2649-976-23890-29517-11316 9418
3039.29 3193 2770-3593-13033-7773-10133
3042.18-18444-21448-21000-20068-13855-6704
3045.08-3973-14873-875 7195-5283 339
3047.97 3646-8837-18351-5664-2087-5216
3050.86-9018-22737-27420-44877-69449-43930
3053.75-20015-19972-5522-11480-20508-16549
3056.65-19930-21740-24871-11791-6305-22352
3059.54-33595-26997-17963-12322-7877-32892
3062.43-56129-49149-41371-37547-27324-25781
3065.32-40396-47329-47074-32407-15749-33077
3068.22-52342-41236-28389-26307-18502-15353
3071.11-19927-41971-44760-22652-29764-29196
3074.00-25448-29934-30227-33004-22707-22501
3076.90-21040-22693-24192-19763-25071-29643
3079.79-36937-33886-40147-52923-34368-19590
3082.68-32672-43362-37603-15116-32437-44642
3085.57-41113-46150-48220-45164-25637-18752
3088.47-17378-17979-29453-47001-28539-17168
3091.36-30859-24964-30268-26164-15407-27035
3094.25-42433-49626-43316-38823-35871-29178
3097.14-23441-22000-22174-22712-26944-29140
3100.04-29948-40373-46351-47400-54398-50794
3102.93-40282-47958-50001-39288-22784-29221
3105.82-36023-27549-31797-40853-42492-42459
3108.71-36379-26578-36462-40285-33239-28181
3111.61-22740-13938-17592-19689-18606-16989
3114.50-26798-41939-31487-24798-23648-7005
3117.39-21868-53769-54552-30490-5024 96
3120.29-11824-22264-24272-22280-27118-20553
3123.18-12409-23171-21854-26711-41718-51971
3126.07-43554-30518-32066-27569-23177-44221
3128.96-43858-36120-28848-14930-21888-31449
3131.86-46232-44006-38971-41158-32553-39299
3134.75-38124-20946-18601-3356 12245-950
3137.64-15468-650-14971-30569-22993-40641
3140.53-50167-39210-29985-6488-4800-13562
3143.43 2393 11655 2956-14101-10539-19200
3146.32-25161-18922-18853-29331-26970-26001
3149.21-30153-24218-27442-17020-10088-12776
3152.11-11602-13451-22383-24260-13467-7084
3155.00-11555-26341-30983-35855-22651-9775
3157.89-19445-30531-24206 7741 12313-7069
3160.78-16757-12969-16009-10285-3398-4199
3163.68-6534-23926-35816-26374 1740 3881
3166.57-28749-34087-3339 1734-14034-18338
3169.46-8868-15495-24169-25151-31980-32530
3172.35-25471-10281-1069-15284-34124-23675
3175.25-7595 2675 5723 2453-4457 1883
3178.14 12755 1111 1597-1526-17863-9328
3181.03-1750-672-9438-25968-12362-2674
3183.93-9495-10821-15011-26092-16796-1582
3186.82-4907-9858-3730-15658-32872-25160
3189.71-10061-16926-33382-40894-25477-1584
3192.60-8035-16597-6525 3719 3762 6950
3195.50-12544-28824-30781-47214-55859-49121
3198.39-29452-16721-19521-14403-2492-1322
3201.28-14610-33750-30986-20079-15543-9488
3204.17-10793-12294-25382-39893-51093-42572
3207.07-24310-29189-29672-39038-41763-37305
3209.96-41153-34393-14163 627-658-28257
3212.85-42471-26063-11297-11948-15345-10645
3215.75-15079-11500-26707-41236-39740-43497
3218.64-45908-30859-32519-68187-73776-70895
3221.53-74493-60110-45794-35435-30138-20407
3224.42 3110 16687 2685-10320 1302 12840
3227.32 2586-27851-39827-54377-65335-52033
3230.21-36627-43218-55109-30521-23878-29563
3233.10-29196-32130-42801-46633-31143-21574
3235.99-15377-24749-28291-18606-8817-1772
3238.89 7827 6159 92-5498-8832-10913
3241.78-25310-23706-6005-15839-41013-48482
3244.67-59093-58227-60009-70404-86282-92141
3247.57-63351-55526-66647-58672-44440-41125
3250.46-36393-16418-13752-15392-5980-9181
3253.35-28582-32327-26293-43265-48990-21403
3256.24 14747 34141 34140 30529 33389 26426
3259.14 27181 19555-7596-28544-34499-38361
3262.03-37545-33833-49594-44461-43502-49564
3264.92-55789-59346-29497-15054-23513-28256
3267.81-12556-16824-28411-15003-7696 3790
3270.71-2758-6662 7380 3745-3230-513
3273.60-6403-9460-6606-30200-32302-21155
3276.49-22723-21217-31520-31540-20985-28474
3279.39-33919-23334-16958-5585 5381-1094
3282.28 14103 14021 17914 29794 13347 5373
3285.17 13034 14924 21475 36010 21691 1266
3288.06-13864-20653-17121-15853-13233-10984
3290.96 2283 11897-1714-3052 2339 1426
3293.85-7828-12078-12110-2908 19084 17621
3296.74-7572-25436-8103 14700 3190-6952
3299.63-9008-7739-6358 5893 15829 14686
3302.53 560-24086 1458 24360 19356 22005
3305.42 18235 5134 12618 14725 8345 7674
3308.31 11185 19176 12843 6610 1922 23350
3311.21 36816 12145 4547 14048 19428 5858
3314.10-11158 15828 32071 8042-10719-14041
3316.99 9972 10328-11959-6919 6309 16727
3319.88 23481 29049 7323-12336-10588-12535
3322.78-3653-7894 448 23978 22229 27389
3325.67 45467 46162 29160 22285 11182-3062
3328.56-2797 3627 10791 2695-2706 9351
3331.45 9350-2181-2487 1668-9667-1114
3334.35 11189 11430 12197 7002 22148 19141
3337.24 19305 12040 4895 19971 10136-7023
3340.13 5725 7824-7835 2486-2963-246
3343.03 17030 12506 11564 7634 9603 20513
3345.92 4068-7377-16281-9601 1776-11572
3348.81-2051 2129 1239 10144 7043 9419
3351.70 140-6259-14401-30163-5809-15370
3354.60-22992-2778-22220-33215-25666-22794
3357.49-16276-10631-21643-32526-27939-11362
3360.38-8719-19834-32408-38486-27086-33596
3363.27-45083-34639-29686-44912-48467-30627
3366.17-28709-49927-27942-6043-25328-23457
3369.06-5332-11369-26578-28290-35663-35688
3371.95-34805-26097-29485-34649-19465-20398
3374.85-18274-16974-15265-7341-26867-33580
3377.74-24139-28107-41837-55641-38207-37182
3380.63-44042-31475-49401-58625-51608-49845
3383.52-35233-26305-31200-32262-19666-35028
3386.42-53671-46747-41995-33769-25741-35649
3389.31-44826-47113-33698-25642-42851-64420
3392.20-54063-24825-34439-32611-30585-45316
3395.09-41595-39271-37198-52742-50793-22848
3397.99-29893-31826-29545-28305-29690-19952
3400.88-9138-16241-15208-30175-35250-39221
3403.77-41793-44696-40789-24542-36344-44705
3406.67-30407-28773-35298-29745-44906-64288
3409.56-60353-56838-47965-38717-20717-21911
3412.45-35592-25316-31983-22899-27543-45918
3415.34-25764-18282-22566-22143-11549-7465
3418.24-27648-21573-18915-37587-43108-37763
3421.13-41295-41194-34357-27984-10498-13550
3424.02-22346-11756-10881-24759-29327-23016
3426.91-24584-19391-35730-52899-39121-29704
3429.81-24958-20783-19245-18695-42872-42072
3432.70-14201-21379-17814-10796-10008-22943
3435.59-21964-29359-41397-30817-23050-8966
3438.49-3314-12779-20005-21573-20171-21221
3441.38-28337-29969-29243-36931-40633-51248
3444.27-30955 8168 529-12291-16493-34981
3447.16-29393-10364-16531-15132-5880-7923
3450.06-5109 392-718 11937 22377 11639
3452.95 14560-1560-21301-13884-2675 18574
3455.84 4430-12149-16230-16754 879 8123
3458.73 5018-12403-20228-11984-16657-14750
3461.63-16884-13862 680-15878-30986-31530
3464.52-18309 1731 14004 33231 28641-776
3467.41-29824-37685-35448-43797-18086 17094
3470.31 20613 16926 14307-2508-24435-44526
3473.20-39459-22639-11010-1286 1007 4434
3476.09 3962 24467 23230-5388-19082-21523
3478.98-25078-31971-32409-11944-1051 6433
3481.88 21793 11484-11465-13426-24167-36231
3484.77-18338-2586-2832-10041 11355 17225
3487.66-7557-26256-15851-10658-14387-12175
3490.55-14924-580-7033-20148-27654-37074
3493.45-22244-4040-9432-17435-10485-26919
3496.34-42882-24664-26364-18429-8281-13309
3499.23-1419-5343-24479-46141-45928-17681
3502.13-17803-20144-14671-18424-34104-36466
3505.02-22668-14495-8583-12874-24123-13728
3507.91 13841-14675-45282-37988-12447 8217
3510.80-22213-32815-17765-27318-25259-17998
3513.70-28798-27083-23094-18671-1548-15806
3516.59-38809-20880-11128-17114-20943-28982
3519.48-40562-51448-53703-50753-32495-29169
3522.37-33979-37758-40564-41538-36915-34194
3525.27-55395-48968-40719-47835-33975-30072
3528.16-33825-33188-13238 8489-1437-19237
3531.05-32186-27947-30705-42058-39670-25168
3533.95-12572-10048-11832-23322-47103-62767
3536.84-37294-26449-25898-35984-45955-45215
3539.73-57825-27562-11959-32090-27731-18792
3542.62-33323-31932-15912-15773-21169-14754
3545.52-14324-38113-44079-30737-22567-21079
3548.41-22385-28969-23707-30405-56907-60725
3551.30-51830-38769-42921-55630-46409-48572
3554.19-72450-74403-56502-34186-27353-41173
3557.09-26664-4375-1676-20968-33269-21268
3559.98-15876-27555-28633-9548-7032-22771
3562.87-44130-39338-32526-38187-25454-39378
3565.77-67214-68518-35123-50312-87514-56875
3568.66-22768-20579-18035-13453-12609-4151
3571.55 2352-7186 1106 10134-750-19595
3574.44-22515-5564 1689 9872 2992-25847
3577.34-12619 2744-27746-30522-10967 5933
3580.23 18397 3197 966 11981 13089 26152
3583.12 18781 28956 39003-13020-39901-56617
3586.01-87441-61003-22675-7222-76214-89949
3588.91-207 22952-4596-19266-6965 5061
3591.80 16985-54-10087-9364-1265-111
3594.69-32562-30244-17866-17500-14266-19046
3597.59-25657-14738 11463 38481 23542-15324
3600.48-18816-2209-121 3044-2026 155
3603.37 9137 8239 18585 25313 24978 9478
3606.26-34726-47018-31093-18564-12842-101555
3609.16-84488 4813 9022 7166 7958-34568
3612.05-79621-29427 7170-21095-35552-14980
3614.94-9118-9846-8237-10564-36050-55335
3617.83-26974-23839-96748-103170-19957-2093
3620.73-12794-8345-10908 854 9387 1861
3623.62 7734 12825 3739 4123-16236-36803
3626.51-34793-15186-102013-162894-111896-223527
3629.41-180800-21554-16667-36028-27880-5779
3632.30-16333-33878-57724-39645 6204 16951
3635.19 18519 19191 3585-9159-3426-17223
3638.08-24016-13560-13930-1016 15648 2460
3640.98-20310-28405-23982-13640-11764-14785
3643.87-19892-35656-35578-22402-41183-80803
3646.76-110673-90314-21958-62795-221672-138404
3649.65-45049-102806-105642-90961-27272 539
3652.55-9369-13985-8721-13275-43220-46774
3655.44-113722-154262-62544-24094-25056-32959
3658.33-30619-6999-6570-3064 4741 254
3661.23-5040 11751 14231 1406 12284 6814
3664.12-13838-20188-23798-24029-11153 6711
3667.01 5419-26351-123872-167899-101117-65153
3669.90-218044-301063-118862-21327-34970-51500
3672.80-41405-51987-87505-173459-164159-219884
3675.69-257524-79749-48653-66626-42966-28009
3678.58-55389-76575-53632-56361-57775-42869
3681.47-29116-29222-29293-32299-38053-38170
3684.37-29264-478-12902-28888-30531-35449
3687.26-92631-325135-311547-109092-93501-90106
3690.15-83005-116593-90796-17796-5325-18583
3693.05-30641-34201-37007-30970-25722-25935
3695.94-22871-15053-14208-26274-49243-50335
3698.83-27725-23757-11572 11481-50445-108315
3701.72-62815-26540-22254-27907-36111-39185
3704.62-39784-43117-55780-52665-44423-33617
3707.51-33908-45413-97107-147143-108141-68818
3710.40-67238-57228-174395-245738-111109-39384
3713.29-25198-39172-47987-16714-11028-37146
3716.19-44137-34944-46050-55780-62495-63094
3719.08-45634-47320-45331-16429-16702-73510
3721.97-109695-79145-61635-68449-56898-60339
3724.87-55158-35705-91054-122676-63657-45298
3727.76-29962-11741-35539-50972-29787-41751
3730.65-64489-143083-246104-139638-49039-44091
3733.54-45906-103499-145359-124078-76122-162545
3736.44-186712-84267-62743-70230-51238-25443
3739.33-34325-51166-49344-58073-47664-52903
3742.22-71990-89377-134685-363853-537741-314276
3745.11-104787-58917-35512-65449-73998-68047
3748.01-77378-246876-379679-185979-44341-58318
3750.90-81253-306853-416455-175899-77317-63597
3753.79-48678-50615-38499-33182-51721-85925
3756.69-39115-11097-8319-12667-43381-86842
3759.58-79962-20540-22463-22505-20258-32173
3762.47-19641-23531-8787-13461-44547-83664
3765.36-85697-32585-11627-28510-33104-23671
3768.26-20432-47215-117185-80962-23944-35458
3771.15-17043-3480 4380 2121-8623-8775
3774.04-10561-12876-4382-4581-29018-31173
3776.93-12748-20534-16895-18756-51903-41233
3779.83-20044-8831 18446 32090 32231 9448
3782.72-12465-7863-34038-44325-10127-1093
3785.61-11988-23331-27236-35638-40406-46591
3788.51-28103 10063 15644 16992 30778 13669
3791.40-1423 125-2158 2006 1631-15450
3794.29-35350-50474-67045-108633-73256-27247
3797.18-44645-35664-31699-38674-21116-28570
3800.08-69859-264873-351848-126585-44241-53667
3802.97-38013-61038-77148-82225-61427-25883
3805.86-32366-164971-146740-26765-43108-48736
3808.75-46788-30332-18657-16080 11725-898
3811.65-2365-2720-23195-43132-48956-68532
3814.54-77104-164950-387041-259370-52733-60069
3817.43-53235-43933-18412-39474-71884-132250
3820.33-172170-154123-169955-95752-44972-65391
3823.22-42204-45075-48013-30576-28967-37951
3826.11-61993-49725-38135-53510-45228-39590
3829.00-40623-34869-21809-39423-135522-136810
3831.90-66963-49819-33446-33648-56782-130573
3834.79-111247-44966-63691-77565-147278-384232
3837.68-329056-110221-82319-87204-93635-101833
3840.57-128349-100101-61621-73394-110404-131681
3843.47-115116-70077-53570-45707-53497-66881
3846.36-41180-51684-70600-51024-57243-55584
3849.25-68458-81696-97591-117897-284530-377811
3852.15-183360-121767-314367-576710-467764-199559
3855.04-107435-73543-80266-77015-65054-68901
3857.93-72749-62135-77904-93896-90876-77434
3860.82-90442-131860-100105-79777-81114-91608
3863.72-92669-133464-199325-135103-81480-64448
3866.61-61556-78183-80831-95463-140090-185188
3869.50-299320-221442-88845-107987-71189-55509
3872.39-68805-88413-118103-132007-100377-82466
3875.29-88302-81816-77482-80003-91217-84334
3878.18-83543-96820-109700-175922-165378-116387
3881.07-103744-76289-75051-92534-89782-86709
3883.97-90913-111937-249940-280043-145043-91745
3886.86-87314-80316-82648-97060-80025-72588
3889.75-94521-125888-182754-141797-80262-87919
3892.64-82680-88900-101926-93776-97404-89259
3895.54-71046-83083-94913-87695-88369-82871
3898.43-132869-185466-128748-90409-85424-126616
3901.32-195838-158594-108424-90799-145042-221441
3904.21-147913-95911-103097-91092-81664-79775
3907.11-77026-72638-74575-72349-66714-69060
3910.00-77574-82993-70734-59157-60085-71381
3912.89-80684-73964-78390-78463-85437-104267
3915.79-100419-110336-151123-113807-57609-65873
3918.68-49355-63997-97485-62504-55060-73964
3921.57-63564-62064-90402-91294-59125-62133
3924.46-95398-101793-73582-63366-61670-56399
3927.36-52306-37725-49405-69636-71777-66538
3930.25-63163-63358-82116-105660-91122-89075
3933.14-91760-86272-81648-72665-58459-30380
3936.03-28367-43913-43556-36126-30342-30406
3938.93-57613-63983-54664-47286-40607-62642
3941.82-90105-106594-73573-42983-49482-23341
3944.71-5453-10777-28049-52157-64742-64799
3947.61-53791-42289-20874-66384-98401-65240
3950.50-66178-62725-62929-53808-38961-48457
3953.39-45058-36736-39535-50204-70186-58393
3956.28-21523-33097-50630-40174-41906-50568
3959.18-46954-39890-59211-73374-66147-70248
3962.07-62991-53626-44880-30699-39907-65665
3964.96-70435-62688-64610-60764-43372-33507
3967.85-31151-52684-59139-42091-41537-36714
3970.75-24662-35819-49965-45567-36212-23997
3973.64-22737-52327
##END=
