##TITLE=AMINOGUANIDINE BICARBONATE
##JCAMP-DX=4.24
##DATA TYPE=INFRARED SPECTRUM
##CLASS=COBLENTZ
##OWNER=COBLENTZ SOCIETY
Collection (C) 2018 copyright by the U.S. Secretary of Commerce
on behalf of the United States of America. All rights reserved.
##DATE=Not specified, most likely prior to 1970
##NAMES=carbonic acid compound with hydrazinecarboximidamide (1:1)
##CAS REGISTRY NO=2582-30-1
##MOLFORM=C H6 N4  * H2 C O3
##SOURCE REFERENCE=COBLENTZ NO. 3652
##$NIST SOURCE=COBLENTZ
##$NIST IMAGE=cob3652
##SPECTROMETER/DATA SYSTEM=PERKIN-ELMER
##STATE=SOLID (ARNEEL C MULL)
##SAMPLING PROCEDURE=TRANSMISSION
##RESOLUTION=4
##DATA PROCESSING=DIGITIZED BY NIST FROM HARD COPY
##XUNITS=MICROMETERS
##YUNITS=TRANSMITTANCE
##XFACTOR=1.000000
##YFACTOR=1
##DELTAX=000.006118
##FIRSTX=2.018
##LASTX=15.4588
##FIRSTY=0.66
##MAXX=15.4588
##MINX=2.018
##MAXY=0.932
##MINY=0.134
##NPOINTS=2198
##XYDATA=(X++(Y..Y))
2.018000 0.6600 0.6600 0.6640 0.6660 0.6670
2.048602 0.6690 0.6730 0.6750 0.6760 0.6780
2.080000 0.6780 0.6790 0.6810 0.6830 0.6860
2.110602 0.6870 0.6870 0.6890 0.6890 0.6900
2.141000 0.6930 0.6950 0.6980 0.7010 0.7020
2.171602 0.7050 0.7090 0.7090 0.7090 0.7100
2.202000 0.7120 0.7150 0.7160 0.7190 0.7220
2.232602 0.7240 0.7250 0.7250 0.7280 0.7320
2.263000 0.7320 0.7330 0.7330 0.7330 0.7390
2.293602 0.7410 0.7450 0.7500 0.7500 0.7510
2.324000 0.7560 0.7580 0.7590 0.7700 0.7740
2.354602 0.7740 0.7760 0.7770 0.7810 0.7820
2.385000 0.7850 0.7870 0.7910 0.7940 0.7940
2.415602 0.7940 0.7960 0.7970 0.8000 0.8020
2.447000 0.8070 0.8100 0.8100 0.8110 0.8130
2.477602 0.8140 0.8160 0.8190 0.8220 0.8250
2.508000 0.8310 0.8330 0.8340 0.8340 0.8340
2.538602 0.8340 0.8340 0.8340 0.8340 0.8360
2.569000 0.8360 0.8400 0.8420 0.8430 0.8460
2.599602 0.8480 0.8490 0.8490 0.8520 0.8570
2.630000 0.8600 0.8620 0.8630 0.8660 0.8690
2.660602 0.8690 0.8690 0.8690 0.8690 0.8710
2.691000 0.8720 0.8750 0.8770 0.8790 0.8800
2.721602 0.8800 0.8800 0.8800 0.8800 0.8800
2.752000 0.8790 0.8740 0.8710 0.8620 0.8590
2.782602 0.8490 0.8390 0.8260 0.8110 0.7940
2.814000 0.7850 0.7640 0.7480 0.7280 0.7090
2.844602 0.6720 0.6230 0.5970 0.5660 0.5510
2.875000 0.5350 0.5140 0.4900 0.4560 0.3960
2.905602 0.3720 0.3520 0.3300 0.3030 0.2890
2.936000 0.2720 0.2570 0.2480 0.2320 0.2180
2.966602 0.2110 0.1990 0.1890 0.1850 0.1760
2.997000 0.1740 0.1740 0.1740 0.1760 0.1910
3.027602 0.2000 0.2050 0.2080 0.2090 0.2110
3.058000 0.2090 0.2080 0.2030 0.1990 0.1920
3.088602 0.1910 0.1910 0.1890 0.1890 0.1910
3.120000 0.1910 0.1940 0.1940 0.1960 0.1940
3.150602 0.1910 0.1880 0.1830 0.1800 0.1770
3.181000 0.1740 0.1730 0.1690 0.1680 0.1690
3.211602 0.1710 0.1740 0.1790 0.1800 0.1830
3.242000 0.1850 0.1860 0.1880 0.1880 0.1860
3.272602 0.1860 0.1860 0.1860 0.1850 0.1850
3.303000 0.1850 0.1860 0.1860 0.1880 0.1890
3.333602 0.1910 0.1920 0.1990 0.2000 0.2020
3.364000 0.2080 0.2170 0.2200 0.2220 0.2230
3.394602 0.2250 0.2280 0.2310 0.2310 0.2320
3.425000 0.2370 0.2400 0.2430 0.2460 0.2480
3.455602 0.2490 0.2490 0.2510 0.2550 0.2610
3.487000 0.2640 0.2660 0.2670 0.2690 0.2800
3.517602 0.2970 0.3320 0.3720 0.3880 0.3960
3.548000 0.4250 0.4310 0.4390 0.4570 0.4620
3.578602 0.4710 0.4760 0.4790 0.4820 0.4900
3.609000 0.4960 0.5000 0.5020 0.5090 0.5160
3.639602 0.5230 0.5290 0.5310 0.5400 0.5480
3.670000 0.5620 0.5620 0.5620 0.5650 0.5710
3.700602 0.5800 0.5810 0.5890 0.5940 0.5970
3.731000 0.5980 0.5980 0.6010 0.6040 0.6070
3.761602 0.6150 0.6230 0.6300 0.6330 0.6370
3.792000 0.6410 0.6440 0.6470 0.6490 0.6520
3.822602 0.6550 0.6610 0.6660 0.6670 0.6700
3.854000 0.6720 0.6760 0.6790 0.6860 0.6920
3.884602 0.6930 0.6960 0.7010 0.7040 0.7070
3.915000 0.7070 0.7090 0.7090 0.7100 0.7130
3.945602 0.7160 0.7190 0.7210 0.7220 0.7250
3.976000 0.7270 0.7270 0.7280 0.7280 0.7300
4.006602 0.7300 0.7300 0.7320 0.7350 0.7390
4.037000 0.7420 0.7420 0.7420 0.7440 0.7440
4.067602 0.7440 0.7470 0.7500 0.7510 0.7530
4.098000 0.7530 0.7580 0.7590 0.7620 0.7650
4.128602 0.7670 0.7680 0.7700 0.7730 0.7740
4.160000 0.7740 0.7740 0.7770 0.7810 0.7840
4.190602 0.7840 0.7850 0.7850 0.7850 0.7850
4.221000 0.7840 0.7840 0.7840 0.7820 0.7810
4.251602 0.7810 0.7790 0.7790 0.7790 0.7810
4.282000 0.7820 0.7820 0.7840 0.7850 0.7880
4.312602 0.7900 0.7930 0.7940 0.7970 0.8050
4.343000 0.8100 0.8130 0.8140 0.8140 0.8140
4.373602 0.8140 0.8130 0.8130 0.8140 0.8160
4.404000 0.8160 0.8160 0.8160 0.8140 0.8130
4.434602 0.8110 0.8110 0.8110 0.8110 0.8110
4.465000 0.8130 0.8130 0.8140 0.8140 0.8140
4.495602 0.8130 0.8130 0.8100 0.8100 0.8100
4.527000 0.8110 0.8130 0.8130 0.8160 0.8190
4.557602 0.8200 0.8220 0.8220 0.8220 0.8250
4.588000 0.8260 0.8300 0.8310 0.8330 0.8340
4.618602 0.8340 0.8360 0.8390 0.8420 0.8430
4.649000 0.8450 0.8460 0.8460 0.8460 0.8480
4.679602 0.8480 0.8490 0.8510 0.8520 0.8540
4.710000 0.8560 0.8570 0.8570 0.8590 0.8600
4.740602 0.8600 0.8620 0.8650 0.8660 0.8680
4.771000 0.8680 0.8680 0.8690 0.8710 0.8710
4.801602 0.8720 0.8740 0.8740 0.8750 0.8750
4.832000 0.8770 0.8790 0.8800 0.8850 0.8860
4.862602 0.8880 0.8890 0.8890 0.8860 0.8860
4.894000 0.8880 0.8890 0.8910 0.8920 0.8920
4.924602 0.8920 0.8920 0.8920 0.8940 0.8940
4.955000 0.8940 0.8950 0.8970 0.8970 0.8970
4.985602 0.8970 0.8980 0.8980 0.8980 0.9000
5.016000 0.9010 0.9030 0.9050 0.9060 0.9080
5.046602 0.9080 0.9090 0.9090 0.9110 0.9120
5.077000 0.9140 0.9150 0.9150 0.9170 0.9170
5.107602 0.9170 0.9180 0.9210 0.9230 0.9230
5.138000 0.9230 0.9240 0.9240 0.9260 0.9260
5.168602 0.9260 0.9260 0.9260 0.9260 0.9260
5.200000 0.9280 0.9290 0.9310 0.9310 0.9310
5.230602 0.9320 0.9320 0.9310 0.9310 0.9310
5.261000 0.9310 0.9290 0.9290 0.9310 0.9310
5.291602 0.9310 0.9290 0.9290 0.9290 0.9290
5.322000 0.9290 0.9280 0.9280 0.9280 0.9260
5.352602 0.9260 0.9240 0.9240 0.9210 0.9210
5.383000 0.9200 0.9180 0.9140 0.9120 0.9120
5.413602 0.9120 0.9120 0.9110 0.9080 0.9060
5.444000 0.9030 0.9010 0.9000 0.8980 0.8970
5.474602 0.8970 0.8950 0.8940 0.8920 0.8890
5.505000 0.8830 0.8800 0.8770 0.8720 0.8710
5.535602 0.8690 0.8660 0.8620 0.8570 0.8570
5.567000 0.8540 0.8510 0.8490 0.8430 0.8370
5.597602 0.8360 0.8330 0.8310 0.8280 0.8250
5.628000 0.8200 0.8160 0.8070 0.8000 0.7960
5.658602 0.7940 0.7900 0.7840 0.7770 0.7710
5.689000 0.7640 0.7590 0.7480 0.7410 0.7330
5.719602 0.7220 0.7090 0.6980 0.6870 0.6810
5.750000 0.6720 0.6560 0.6320 0.5940 0.5630
5.780602 0.5520 0.5400 0.5310 0.5060 0.4880
5.811000 0.4830 0.4680 0.4500 0.4040 0.3810
5.841602 0.3240 0.2950 0.2870 0.2750 0.2690
5.872000 0.2630 0.2550 0.2520 0.2460 0.2280
5.902602 0.2140 0.1990 0.1920 0.1890 0.1880
5.934000 0.1860 0.1850 0.1850 0.1860 0.1880
5.964602 0.1920 0.2000 0.2080 0.2280 0.2410
5.995000 0.2780 0.3180 0.3410 0.3610 0.3670
6.025602 0.3700 0.3720 0.3720 0.3720 0.3670
6.056000 0.3560 0.3440 0.2870 0.2580 0.2340
6.086602 0.2120 0.1920 0.1760 0.1660 0.1530
6.117000 0.1450 0.1370 0.1340 0.1340 0.1360
6.147602 0.1390 0.1430 0.1530 0.1590 0.1600
6.178000 0.1620 0.1650 0.1650 0.1650 0.1630
6.208602 0.1620 0.1600 0.1600 0.1600 0.1620
6.240000 0.1620 0.1680 0.1740 0.1960 0.2080
6.270602 0.2120 0.2250 0.2550 0.2600 0.2740
6.301000 0.2890 0.3030 0.3180 0.3270 0.3360
6.331602 0.3380 0.3390 0.3530 0.3750 0.3840
6.362000 0.3880 0.3930 0.4010 0.4070 0.4150
6.392602 0.4190 0.4250 0.4310 0.4370 0.4420
6.423000 0.4470 0.4500 0.4570 0.4640 0.4700
6.453602 0.4770 0.4820 0.4850 0.4900 0.4960
6.484000 0.5000 0.5020 0.5030 0.5080 0.5130
6.514602 0.5160 0.5190 0.5190 0.5190 0.5190
6.545000 0.5170 0.5170 0.5170 0.5160 0.5140
6.575602 0.5060 0.5020 0.4910 0.4770 0.4620
6.607000 0.4390 0.4250 0.4160 0.4020 0.3980
6.637602 0.3850 0.3730 0.3520 0.3150 0.3060
6.668000 0.2870 0.2750 0.2720 0.2720 0.2720
6.698602 0.2740 0.2740 0.2750 0.2800 0.2940
6.729000 0.3030 0.3270 0.3320 0.3360 0.3410
6.759602 0.3430 0.3470 0.3490 0.3490 0.3490
6.790000 0.3470 0.3460 0.3410 0.3390 0.3360
6.820602 0.3350 0.3330 0.3330 0.3300 0.3240
6.851000 0.3230 0.3200 0.3200 0.3210 0.3230
6.881602 0.3230 0.3240 0.3260 0.3290 0.3390
6.912000 0.3460 0.3490 0.3620 0.3720 0.3790
6.942602 0.3840 0.3900 0.3980 0.3990 0.4010
6.974000 0.4040 0.4070 0.4130 0.4190 0.4220
7.004602 0.4270 0.4280 0.4310 0.4330 0.4340
7.035000 0.4390 0.4470 0.4500 0.4510 0.4540
7.065602 0.4570 0.4640 0.4710 0.4760 0.4770
7.096000 0.4790 0.4790 0.4800 0.4800 0.4800
7.126602 0.4800 0.4790 0.4790 0.4790 0.4760
7.157000 0.4760 0.4710 0.4680 0.4650 0.4620
7.187602 0.4600 0.4590 0.4480 0.4330 0.4280
7.218000 0.4190 0.4020 0.3930 0.3880 0.3820
7.248602 0.3700 0.3620 0.3550 0.3410 0.3330
7.280000 0.3210 0.3060 0.2980 0.2750 0.2610
7.310602 0.2340 0.2260 0.2150 0.2030 0.2000
7.341000 0.1920 0.1830 0.1770 0.1680 0.1620
7.371602 0.1590 0.1540 0.1510 0.1510 0.1500
7.402000 0.1470 0.1470 0.1450 0.1430 0.1430
7.432602 0.1430 0.1450 0.1500 0.1590 0.1660
7.463000 0.1740 0.1820 0.1910 0.2020 0.2110
7.493602 0.2170 0.2290 0.2450 0.2510 0.2540
7.524000 0.2610 0.2690 0.2810 0.2900 0.3010
7.554602 0.3070 0.3210 0.3260 0.3360 0.3380
7.585000 0.3430 0.3490 0.3550 0.3590 0.3730
7.615602 0.3810 0.3840 0.3900 0.3990 0.3990
7.647000 0.4070 0.4110 0.4180 0.4190 0.4210
7.677602 0.4270 0.4300 0.4330 0.4340 0.4410
7.708000 0.4500 0.4510 0.4560 0.4570 0.4620
7.738602 0.4640 0.4670 0.4700 0.4710 0.4740
7.769000 0.4760 0.4790 0.4820 0.4850 0.4880
7.799602 0.4930 0.4960 0.4970 0.5000 0.5000
7.830000 0.5000 0.5020 0.5020 0.5030 0.5030
7.860602 0.5050 0.5050 0.5060 0.5050 0.5050
7.891000 0.5030 0.5030 0.4960 0.4910 0.4860
7.921602 0.4800 0.4740 0.4680 0.4620 0.4600
7.952000 0.4600 0.4600 0.4600 0.4600 0.4620
7.982602 0.4650 0.4710 0.4800 0.4910 0.4970
8.014000 0.5030 0.5030 0.5080 0.5140 0.5170
8.044602 0.5190 0.5220 0.5280 0.5310 0.5340
8.075000 0.5390 0.5400 0.5450 0.5460 0.5480
8.105602 0.5490 0.5520 0.5540 0.5540 0.5550
8.136000 0.5580 0.5630 0.5650 0.5690 0.5710
8.166602 0.5720 0.5720 0.5770 0.5770 0.5770
8.197000 0.5780 0.5800 0.5810 0.5810 0.5830
8.227602 0.5830 0.5830 0.5830 0.5830 0.5840
8.258000 0.5840 0.5860 0.5890 0.5910 0.5920
8.288602 0.5920 0.5920 0.5940 0.5940 0.5950
8.320000 0.5950 0.5950 0.5970 0.5970 0.6000
8.350602 0.6040 0.6070 0.6070 0.6070 0.6070
8.381000 0.6070 0.6070 0.6090 0.6110 0.6110
8.411602 0.6120 0.6120 0.6120 0.6120 0.6120
8.442000 0.6110 0.6110 0.6110 0.6120 0.6140
8.472602 0.6150 0.6170 0.6170 0.6150 0.6200
8.503000 0.6210 0.6210 0.6230 0.6230 0.6240
8.533602 0.6240 0.6240 0.6260 0.6260 0.6270
8.564000 0.6300 0.6300 0.6300 0.6320 0.6320
8.594602 0.6320 0.6320 0.6320 0.6320 0.6320
8.625000 0.6320 0.6320 0.6330 0.6330 0.6330
8.655602 0.6350 0.6380 0.6400 0.6410 0.6430
8.687000 0.6430 0.6440 0.6440 0.6440 0.6440
8.717602 0.6440 0.6440 0.6440 0.6440 0.6440
8.748000 0.6440 0.6440 0.6440 0.6440 0.6440
8.778602 0.6440 0.6440 0.6430 0.6400 0.6370
8.809000 0.6350 0.6330 0.6320 0.6300 0.6300
8.839602 0.6210 0.6200 0.6180 0.6170 0.6060
8.870000 0.6010 0.5970 0.5920 0.5840 0.5750
8.900602 0.5710 0.5630 0.5540 0.5520 0.5490
8.931000 0.5370 0.5310 0.5290 0.5190 0.5140
8.961602 0.5110 0.5080 0.5080 0.5060 0.5060
8.992000 0.5060 0.5090 0.5110 0.5140 0.5170
9.022602 0.5190 0.5220 0.5320 0.5420 0.5570
9.054000 0.5650 0.5740 0.5750 0.5780 0.5800
9.084602 0.5840 0.5910 0.5980 0.6040 0.6110
9.115000 0.6170 0.6240 0.6320 0.6330 0.6380
9.145602 0.6410 0.6440 0.6470 0.6500 0.6560
9.176000 0.6610 0.6630 0.6630 0.6660 0.6690
9.206602 0.6730 0.6760 0.6790 0.6830 0.6830
9.237000 0.6840 0.6900 0.6920 0.6930 0.6950
9.267602 0.6980 0.6990 0.7010 0.7020 0.7090
9.298000 0.7100 0.7120 0.7130 0.7150 0.7160
9.328602 0.7180 0.7180 0.7190 0.7210 0.7220
9.360000 0.7220 0.7210 0.7210 0.7190 0.7090
9.390602 0.6960 0.6790 0.6610 0.6320 0.6300
9.421000 0.6320 0.6440 0.6470 0.6610 0.6790
9.451602 0.6960 0.7010 0.7090 0.7180 0.7250
9.482000 0.7300 0.7320 0.7330 0.7360 0.7380
9.512602 0.7390 0.7390 0.7410 0.7410 0.7410
9.543000 0.7410 0.7390 0.7380 0.7390 0.7410
9.573602 0.7420 0.7440 0.7450 0.7470 0.7480
9.604000 0.7500 0.7510 0.7510 0.7530 0.7540
9.634602 0.7540 0.7560 0.7560 0.7560 0.7560
9.665000 0.7560 0.7560 0.7560 0.7560 0.7560
9.695602 0.7540 0.7530 0.7530 0.7510 0.7480
9.727000 0.7450 0.7420 0.7360 0.7330 0.7280
9.757602 0.7240 0.7150 0.7090 0.6950 0.6890
9.788000 0.6810 0.6500 0.6350 0.6260 0.6090
9.818602 0.5940 0.5860 0.5840 0.5860 0.5860
9.849000 0.5890 0.5980 0.6030 0.6120 0.6240
9.879602 0.6320 0.6370 0.6470 0.6550 0.6810
9.910000 0.6840 0.6920 0.6990 0.7020 0.7090
9.940602 0.7130 0.7160 0.7180 0.7180 0.7210
9.971000 0.7220 0.7240 0.7240 0.7240 0.7250
10.001602 0.7250 0.7240 0.7240 0.7220 0.7190
10.032000 0.7160 0.7150 0.7090 0.7020 0.6990
10.062602 0.6990 0.6960 0.6930 0.6890 0.6890
10.094000 0.6830 0.6810 0.6790 0.6790 0.6780
10.124602 0.6780 0.6780 0.6790 0.6790 0.6840
10.155000 0.6900 0.6950 0.7010 0.7090 0.7120
10.185602 0.7160 0.7190 0.7210 0.7280 0.7280
10.216000 0.7320 0.7350 0.7360 0.7410 0.7440
10.246602 0.7450 0.7500 0.7530 0.7560 0.7590
10.277000 0.7590 0.7610 0.7610 0.7620 0.7670
10.307602 0.7670 0.7680 0.7710 0.7740 0.7760
10.338000 0.7770 0.7770 0.7770 0.7770 0.7770
10.368602 0.7770 0.7770 0.7770 0.7770 0.7770
10.400000 0.7770 0.7790 0.7810 0.7820 0.7840
10.430602 0.7850 0.7850 0.7850 0.7850 0.7850
10.461000 0.7850 0.7850 0.7850 0.7850 0.7850
10.491602 0.7850 0.7840 0.7840 0.7840 0.7820
10.522000 0.7820 0.7820 0.7840 0.7840 0.7840
10.552602 0.7840 0.7840 0.7850 0.7850 0.7850
10.583000 0.7850 0.7850 0.7850 0.7870 0.7880
10.613602 0.7880 0.7880 0.7900 0.7900 0.7900
10.644000 0.7910 0.7910 0.7910 0.7900 0.7900
10.674602 0.7900 0.7900 0.7900 0.7910 0.7930
10.705000 0.7930 0.7930 0.7940 0.7940 0.7940
10.735602 0.7940 0.7940 0.7940 0.7960 0.7960
10.767000 0.7960 0.7960 0.7960 0.7960 0.7960
10.797602 0.7960 0.7960 0.7960 0.7960 0.7960
10.828000 0.7940 0.7940 0.7940 0.7960 0.7960
10.858602 0.7970 0.7970 0.7990 0.7990 0.7990
10.889000 0.7990 0.7970 0.7970 0.7970 0.7970
10.919602 0.7970 0.7970 0.7970 0.7990 0.7990
10.950000 0.8000 0.8000 0.7990 0.7990 0.7990
10.980602 0.7990 0.7990 0.7970 0.7970 0.7960
11.011000 0.7960 0.7960 0.7960 0.7970 0.7970
11.041602 0.7970 0.7990 0.7990 0.7990 0.7990
11.072000 0.7990 0.7990 0.7970 0.7960 0.7940
11.102602 0.7930 0.7910 0.7900 0.7900 0.7900
11.134000 0.7900 0.7900 0.7900 0.7900 0.7900
11.164602 0.7900 0.7900 0.7900 0.7900 0.7900
11.195000 0.7880 0.7870 0.7870 0.7870 0.7850
11.225602 0.7850 0.7850 0.7850 0.7850 0.7850
11.256000 0.7850 0.7850 0.7850 0.7850 0.7850
11.286602 0.7850 0.7850 0.7850 0.7850 0.7850
11.317000 0.7850 0.7850 0.7850 0.7850 0.7840
11.347602 0.7820 0.7810 0.7810 0.7790 0.7790
11.378000 0.7790 0.7790 0.7790 0.7790 0.7770
11.408602 0.7770 0.7770 0.7770 0.7770 0.7770
11.440000 0.7760 0.7740 0.7740 0.7730 0.7700
11.470602 0.7670 0.7670 0.7670 0.7670 0.7680
11.501000 0.7680 0.7680 0.7680 0.7670 0.7650
11.531602 0.7640 0.7590 0.7590 0.7580 0.7580
11.562000 0.7580 0.7580 0.7580 0.7560 0.7560
11.592602 0.7540 0.7540 0.7530 0.7510 0.7500
11.623000 0.7480 0.7450 0.7420 0.7410 0.7390
11.653602 0.7380 0.7380 0.7360 0.7360 0.7330
11.684000 0.7300 0.7300 0.7270 0.7250 0.7250
11.714602 0.7250 0.7240 0.7240 0.7240 0.7210
11.745000 0.7210 0.7160 0.7150 0.7130 0.7120
11.775602 0.7100 0.7090 0.7070 0.7020 0.6990
11.807000 0.6960 0.6930 0.6930 0.6930 0.6930
11.837602 0.6930 0.6900 0.6870 0.6860 0.6810
11.868000 0.6760 0.6720 0.6670 0.6640 0.6630
11.898602 0.6600 0.6550 0.6530 0.6520 0.6490
11.929000 0.6460 0.6440 0.6410 0.6330 0.6300
11.959602 0.6300 0.6260 0.6210 0.6170 0.6110
11.990000 0.6070 0.6040 0.6010 0.5970 0.5910
12.020602 0.5840 0.5780 0.5750 0.5710 0.5660
12.051000 0.5620 0.5550 0.5490 0.5420 0.5350
12.081602 0.5290 0.5250 0.5190 0.5170 0.5160
12.112000 0.5140 0.5110 0.5050 0.5020 0.5000
12.142602 0.5000 0.5000 0.4990 0.4860 0.4850
12.174000 0.4860 0.4860 0.4880 0.4860 0.4860
12.204602 0.4860 0.4880 0.4900 0.4910 0.4930
12.235000 0.4930 0.4930 0.4940 0.4930 0.4930
12.265602 0.4930 0.4910 0.4910 0.4910 0.4930
12.296000 0.4930 0.4930 0.4930 0.4930 0.4930
12.326602 0.4930 0.4910 0.4900 0.4900 0.4880
12.357000 0.4860 0.4850 0.4850 0.4830 0.4830
12.387602 0.4830 0.4820 0.4820 0.4800 0.4820
12.418000 0.4800 0.4800 0.4790 0.4770 0.4770
12.448602 0.4770 0.4770 0.4770 0.4770 0.4770
12.480000 0.4770 0.4760 0.4760 0.4760 0.4740
12.510602 0.4740 0.4730 0.4730 0.4710 0.4710
12.541000 0.4710 0.4700 0.4700 0.4700 0.4710
12.571602 0.4710 0.4710 0.4700 0.4700 0.4700
12.602000 0.4700 0.4700 0.4710 0.4710 0.4710
12.632602 0.4700 0.4700 0.4700 0.4700 0.4680
12.663000 0.4680 0.4700 0.4700 0.4700 0.4700
12.693602 0.4680 0.4670 0.4650 0.4640 0.4640
12.724000 0.4640 0.4640 0.4640 0.4620 0.4620
12.754602 0.4600 0.4600 0.4590 0.4540 0.4480
12.785000 0.4470 0.4450 0.4420 0.4370 0.4360
12.815602 0.4280 0.4250 0.4250 0.4220 0.4210
12.847000 0.4190 0.4190 0.4180 0.4180 0.4150
12.877602 0.4130 0.4100 0.4070 0.4070 0.4010
12.908000 0.3990 0.3980 0.3980 0.3980 0.3950
12.938602 0.3920 0.3920 0.3900 0.3880 0.3880
12.969000 0.3880 0.3850 0.3820 0.3790 0.3790
12.999602 0.3760 0.3760 0.3750 0.3730 0.3730
13.030000 0.3730 0.3730 0.3730 0.3730 0.3720
13.060602 0.3700 0.3700 0.3700 0.3700 0.3670
13.091000 0.3640 0.3640 0.3640 0.3640 0.3660
13.121602 0.3660 0.3660 0.3660 0.3660 0.3660
13.152000 0.3660 0.3660 0.3660 0.3660 0.3670
13.182602 0.3670 0.3670 0.3660 0.3660 0.3660
13.214000 0.3660 0.3670 0.3690 0.3700 0.3690
13.244602 0.3690 0.3670 0.3670 0.3670 0.3660
13.275000 0.3660 0.3660 0.3660 0.3660 0.3660
13.305602 0.3660 0.3640 0.3640 0.3620 0.3610
13.336000 0.3590 0.3590 0.3560 0.3560 0.3550
13.366602 0.3550 0.3550 0.3560 0.3560 0.3580
13.397000 0.3580 0.3590 0.3610 0.3640 0.3660
13.427602 0.3660 0.3690 0.3700 0.3730 0.3750
13.458000 0.3820 0.3900 0.3920 0.3980 0.4040
13.488602 0.4100 0.4130 0.4180 0.4250 0.4330
13.520000 0.4390 0.4450 0.4500 0.4570 0.4670
13.550602 0.4680 0.4770 0.4830 0.4900 0.4900
13.581000 0.4930 0.5020 0.5090 0.5140 0.5190
13.611602 0.5260 0.5310 0.5320 0.5350 0.5370
13.642000 0.5390 0.5420 0.5480 0.5570 0.5620
13.672602 0.5620 0.5630 0.5650 0.5660 0.5660
13.703000 0.5660 0.5680 0.5680 0.5690 0.5710
13.733602 0.5710 0.5710 0.5690 0.5680 0.5660
13.764000 0.5650 0.5650 0.5650 0.5630 0.5630
13.794602 0.5630 0.5620 0.5570 0.5570 0.5570
13.825000 0.5570 0.5550 0.5550 0.5550 0.5550
13.855602 0.5550 0.5540 0.5540 0.5540 0.5520
13.887000 0.5520 0.5510 0.5510 0.5490 0.5480
13.917602 0.5480 0.5480 0.5480 0.5480 0.5480
13.948000 0.5480 0.5460 0.5450 0.5450 0.5430
13.978602 0.5430 0.5400 0.5370 0.5350 0.5350
14.009000 0.5340 0.5340 0.5340 0.5320 0.5290
14.039602 0.5260 0.5250 0.5230 0.5200 0.5190
14.070000 0.5160 0.5140 0.5110 0.5060 0.5050
14.100602 0.5030 0.5020 0.4960 0.4910 0.4880
14.131000 0.4820 0.4770 0.4740 0.4710 0.4670
14.161602 0.4670 0.4650 0.4650 0.4620 0.4590
14.192000 0.4540 0.4500 0.4450 0.4390 0.4340
14.222602 0.4280 0.4270 0.4240 0.4190 0.4160
14.254000 0.4040 0.4010 0.3960 0.3920 0.3920
14.284602 0.3900 0.3900 0.3870 0.3840 0.3780
14.315000 0.3780 0.3750 0.3720 0.3690 0.3660
14.345602 0.3580 0.3560 0.3560 0.3560 0.3560
14.376000 0.3560 0.3560 0.3560 0.3550 0.3530
14.406602 0.3520 0.3520 0.3500 0.3500 0.3520
14.437000 0.3530 0.3530 0.3550 0.3560 0.3580
14.467602 0.3610 0.3620 0.3640 0.3640 0.3640
14.498000 0.3640 0.3640 0.3660 0.3690 0.3700
14.528602 0.3700 0.3750 0.3790 0.3810 0.3840
14.560000 0.3850 0.3880 0.3900 0.3920 0.3950
14.590602 0.3950 0.3960 0.3980 0.3980 0.4010
14.621000 0.4010 0.4050 0.4070 0.4080 0.4100
14.651602 0.4100 0.4130 0.4150 0.4150 0.4150
14.682000 0.4160 0.4190 0.4210 0.4240 0.4240
14.712602 0.4250 0.4270 0.4280 0.4300 0.4310
14.743000 0.4310 0.4310 0.4330 0.4340 0.4340
14.773602 0.4340 0.4340 0.4360 0.4370 0.4390
14.804000 0.4410 0.4420 0.4450 0.4450 0.4450
14.834602 0.4470 0.4470 0.4470 0.4480 0.4510
14.865000 0.4560 0.4570 0.4600 0.4620 0.4620
14.895602 0.4620 0.4620 0.4620 0.4620 0.4620
14.927000 0.4640 0.4640 0.4650 0.4650 0.4650
14.957602 0.4640 0.4640 0.4640 0.4640 0.4640
14.988000 0.4650 0.4640 0.4650 0.4680 0.4700
15.018602 0.4700 0.4680 0.4680 0.4680 0.4680
15.049000 0.4680 0.4680 0.4700 0.4700 0.4700
15.079602 0.4700 0.4700 0.4710 0.4710 0.4710
15.110000 0.4710 0.4700 0.4700 0.4730 0.4730
15.140602 0.4730 0.4740 0.4740 0.4770 0.4790
15.171000 0.4800 0.4800 0.4790 0.4770 0.4770
15.201602 0.4770 0.4770 0.4760 0.4760 0.4760
15.232000 0.4760 0.4760 0.4760 0.4760 0.4760
15.262602 0.4770 0.4770 0.4790 0.4790 0.4790
15.294000 0.4790 0.4790 0.4800 0.4820 0.4820
15.324602 0.4800 0.4800 0.4800 0.4800 0.4800
15.355000 0.4800 0.4800 0.4800 0.4800 0.4800
15.385602 0.4790 0.4790 0.4790 0.4800 0.4800
15.416000 0.4790 0.4770 0.4770 0.4770 0.4770
15.446602 0.4790 0.4770 0.4770
##END=
