##TITLE=BENZOSELENADIAZOLE, 5,6-DIMETHYL-2,1,3-
##JCAMP-DX=4.24
##DATA TYPE=INFRARED SPECTRUM
##CLASS=COBLENTZ III
##ORIGIN=DOW CHEMICAL COMPANY
##OWNER=COBLENTZ SOC.
Collection (C) 2018 copyright by the U.S. Secretary of Commerce
on behalf of the United States of America. All rights reserved.
##DATE=1965/02/06
##NAMES=5,6-dimethyl-2,1,3-benzoselenadiazole
##CAS REGISTRY NO=2626-34-8
##MOLFORM=C8 H8 N2 Se
##MP=145 C
##SOURCE REFERENCE=COBLENTZ NO. 07973
##$NIST SOURCE=COBLENTZ
##$NIST IMAGE=cob7973
##SPECTROMETER/DATA SYSTEM=BECKMAN IR-9 (GRATING)
##INSTRUMENT PARAMETERS=ORDER CHANGES: 670, 1200, 2000 CM^-^1
##STATE=SOLID (SPLIT MULL), FLUOROLUBE FOR 3800-1330 CM^-^1, NUJOL FOR 1330-400 CM^-^1, VS SCREEN
$$ SPECTRAL FEATURE AT 1328 CM^-^1 IS AN ARTIFACT CAUSED BY A CHANGE IN SOLVENT
##SAMPLING PROCEDURE=TRANSMISSION
##RESOLUTION=2
##DATA PROCESSING=DIGITIZED BY COBLENTZ SOCIETY (BATCH I) FROM HARD COPY
##XUNITS=1/CM
##YUNITS=TRANSMITTANCE
##XLABEL=Wavenumbers (cm-1)
##YLABEL=% Transmission
##XFACTOR=1
##YFACTOR=1
##DELTAX=1
##FIRSTX=401
##LASTX=3798
##FIRSTY=0.4223
##MAXX=3798
##MINX=401
##MAXY=0.8991
##MINY=0.1056
##NPOINTS=3398
##XYDATA=(X++(Y..Y))
401.000000 0.4223 0.4117 0.3996 0.3853 0.3726
406.000000 0.3643 0.3559 0.3504 0.3452 0.3400
411.000000 0.3339 0.3234 0.3193 0.3355 0.4082
416.000000 0.4766 0.4833 0.4903 0.4982 0.5093
421.000000 0.5212 0.5398 0.5568 0.5737 0.5940
426.000000 0.6123 0.6276 0.6346 0.6415 0.6484
431.000000 0.6548 0.6608 0.6669 0.6730 0.6781
436.000000 0.6826 0.6871 0.6918 0.6962 0.7008
441.000000 0.7050 0.7088 0.7125 0.7162 0.7201
446.000000 0.7239 0.7275 0.7311 0.7349 0.7385
451.000000 0.7421 0.7457 0.7492 0.7525 0.7560
456.000000 0.7594 0.7628 0.7661 0.7693 0.7722
461.000000 0.7751 0.7781 0.7810 0.7839 0.7867
466.000000 0.7893 0.7919 0.7946 0.7972 0.7999
471.000000 0.8025 0.8051 0.8075 0.8097 0.8119
476.000000 0.8143 0.8165 0.8186 0.8203 0.8221
481.000000 0.8238 0.8256 0.8273 0.8290 0.8308
486.000000 0.8317 0.8327 0.8336 0.8367 0.8340
491.000000 0.8341 0.8336 0.8327 0.8318 0.8304
496.000000 0.8288 0.8260 0.8191 0.7134 0.6078
501.000000 0.5946 0.5931 0.6560 0.6955 0.7350
506.000000 0.7746 0.8141 0.8343 0.8364 0.8378
511.000000 0.8397 0.8387 0.8380 0.8295 0.8147
516.000000 0.7999 0.7850 0.7761 0.7811 0.7757
521.000000 0.8100 0.8244 0.8362 0.8449 0.8484
526.000000 0.8516 0.8542 0.8558 0.8568 0.8574
531.000000 0.8578 0.8585 0.8590 0.8594 0.8597
536.000000 0.8600 0.8603 0.8606 0.8643 0.8613
541.000000 0.8616 0.8618 0.8621 0.8621 0.8621
546.000000 0.8621 0.8620 0.8618 0.8617 0.8616
551.000000 0.8614 0.8613 0.8613 0.8612 0.8612
556.000000 0.8611 0.8610 0.8610 0.8609 0.8608
561.000000 0.8608 0.8607 0.8606 0.8605 0.8603
566.000000 0.8601 0.8600 0.8596 0.8591 0.8586
571.000000 0.8581 0.8577 0.8571 0.8559 0.8541
576.000000 0.8524 0.8483 0.8388 0.8334 0.8296
581.000000 0.8345 0.8431 0.8518 0.8604 0.8636
586.000000 0.8652 0.8662 0.8662 0.8662 0.8662
591.000000 0.8660 0.8657 0.8653 0.8655 0.8663
596.000000 0.8667 0.8671 0.8675 0.8678 0.8678
601.000000 0.8681 0.8681 0.8681 0.8681 0.8681
606.000000 0.8681 0.8681 0.8678 0.8678 0.8677
611.000000 0.8675 0.8674 0.8673 0.8671 0.8670
616.000000 0.8667 0.8664 0.8661 0.8658 0.8655
621.000000 0.8652 0.8648 0.8645 0.8636 0.8625
626.000000 0.8616 0.8606 0.8575 0.8610 0.8631
631.000000 0.8647 0.8662 0.8678 0.8692 0.8701
636.000000 0.8710 0.8718 0.8720 0.8720 0.8720
641.000000 0.8720 0.8718 0.8718 0.8716 0.8713
646.000000 0.8711 0.8708 0.8705 0.8704 0.8704
651.000000 0.8704 0.8704 0.8704 0.8704 0.8704
656.000000 0.8704 0.8704 0.8704 0.8704 0.8704
661.000000 0.8705 0.8705 0.8705 0.8705 0.8704
666.000000 0.8700 0.8696 0.8692 0.8688 0.8684
671.000000 0.8680 0.8667 0.8662 0.8663 0.8664
676.000000 0.8671 0.8683 0.8694 0.8705 0.8706
681.000000 0.8707 0.8708 0.8709 0.8705 0.8699
686.000000 0.8693 0.8682 0.8668 0.8655 0.8641
691.000000 0.8624 0.8605 0.8586 0.8564 0.8528
696.000000 0.8493 0.8457 0.8413 0.8361 0.8308
701.000000 0.8249 0.8174 0.8099 0.8024 0.7930
706.000000 0.7832 0.7701 0.7086 0.6168 0.5036
711.000000 0.3904 0.3062 0.3144 0.3630 0.4117
716.000000 0.4604 0.5090 0.5577 0.6062 0.6550
721.000000 0.7036 0.7254 0.7265 0.7272 0.7290
726.000000 0.7312 0.7360 0.7407 0.7446 0.7482
731.000000 0.7514 0.7541 0.7584 0.7592 0.7590
736.000000 0.7575 0.7538 0.7490 0.7442 0.7390
741.000000 0.7301 0.7206 0.7101 0.6974 0.6825
746.000000 0.6009 0.5885 0.5140 0.3810 0.2483
751.000000 0.1155 0.1056 0.1059 0.2611 0.3436
756.000000 0.4260 0.5086 0.6110 0.6110 0.5096
761.000000 0.4032 0.3806 0.3802 0.7608 0.7726
766.000000 0.7846 0.7967 0.8075 0.8158 0.8225
771.000000 0.8265 0.8286 0.8294 0.8300 0.8303
776.000000 0.8303 0.8303 0.8303 0.8303 0.8303
781.000000 0.8305 0.8315 0.8328 0.8345 0.8362
786.000000 0.8378 0.8397 0.8416 0.8433 0.8445
791.000000 0.8456 0.8468 0.8473 0.8477 0.8480
796.000000 0.8452 0.8477 0.8474 0.8471 0.8467
801.000000 0.8461 0.8456 0.8450 0.8443 0.8434
806.000000 0.8425 0.8418 0.8409 0.8402 0.8396
811.000000 0.8389 0.8383 0.8377 0.8371 0.8366
816.000000 0.8361 0.8360 0.8359 0.8358 0.8356
821.000000 0.8353 0.8350 0.8348 0.8332 0.8306
826.000000 0.8273 0.8239 0.8192 0.8139 0.8048
831.000000 0.7930 0.7774 0.7465 0.7118 0.6658
836.000000 0.5318 0.3977 0.2637 0.1296 0.1105
841.000000 0.1571 0.2366 0.3162 0.3957 0.4752
846.000000 0.5548 0.6343 0.6553 0.6597 0.6630
851.000000 0.7142 0.7258 0.7408 0.7511 0.7589
856.000000 0.7638 0.7686 0.7722 0.7760 0.7796
861.000000 0.7831 0.7862 0.7896 0.7928 0.7944
866.000000 0.7961 0.7975 0.7988 0.8000 0.8011
871.000000 0.8022 0.8030 0.8038 0.8046 0.8048
876.000000 0.8048 0.8048 0.8048 0.8049 0.8045
881.000000 0.8071 0.8039 0.8035 0.8032 0.8028
886.000000 0.8026 0.8024 0.8021 0.8018 0.8017
891.000000 0.8011 0.8007 0.8001 0.7997 0.7997
896.000000 0.7996 0.7995 0.7994 0.7998 0.8007
901.000000 0.8015 0.8024 0.8032 0.8038 0.8035
906.000000 0.8031 0.8026 0.8024 0.8018 0.8012
911.000000 0.8007 0.8001 0.7994 0.7987 0.7980
916.000000 0.7972 0.7965 0.7958 0.7951 0.7945
921.000000 0.7938 0.7931 0.7925 0.7918 0.7911
926.000000 0.7905 0.7897 0.7889 0.7880 0.7871
931.000000 0.7864 0.7856 0.7848 0.7841 0.7835
936.000000 0.7828 0.7821 0.7815 0.7808 0.7805
941.000000 0.7804 0.7804 0.7803 0.7803 0.7801
946.000000 0.7801 0.7803 0.7804 0.7806 0.7808
951.000000 0.7808 0.7806 0.7804 0.7801 0.7799
956.000000 0.7795 0.7789 0.7783 0.7776 0.7771
961.000000 0.7765 0.7758 0.7751 0.7744 0.7737
966.000000 0.7728 0.7721 0.7714 0.7707 0.7699
971.000000 0.7690 0.7681 0.7671 0.7662 0.7654
976.000000 0.7645 0.7636 0.7626 0.7618 0.7608
981.000000 0.7599 0.7589 0.7578 0.7568 0.7558
986.000000 0.7548 0.7537 0.7526 0.7510 0.7490
991.000000 0.7471 0.7451 0.7431 0.7398 0.7358
996.000000 0.7318 0.7258 0.6996 0.6667 0.6339
1001.000000 0.6010 0.5683 0.5355 0.5026 0.4698
1006.000000 0.4606 0.4606 0.4808 0.5133 0.5458
1011.000000 0.5782 0.6107 0.6431 0.6756 0.7081
1016.000000 0.7154 0.7162 0.7119 0.6914 0.6707
1021.000000 0.6501 0.6294 0.6087 0.5881 0.5682
1026.000000 0.5808 0.6156 0.6504 0.6851 0.7119
1031.000000 0.7180 0.7201 0.7212 0.7221 0.7225
1036.000000 0.7225 0.7225 0.7222 0.7218 0.7208
1041.000000 0.7196 0.7184 0.7171 0.7175 0.7193
1046.000000 0.7230 0.7285 0.7322 0.7356 0.7371
1051.000000 0.7380 0.7380 0.7380 0.7380 0.7374
1056.000000 0.7368 0.7362 0.7358 0.7353 0.7349
1061.000000 0.7340 0.7330 0.7319 0.7310 0.7300
1066.000000 0.7290 0.7278 0.7271 0.7261 0.7254
1071.000000 0.7245 0.7237 0.7228 0.7218 0.7210
1076.000000 0.7201 0.7193 0.7184 0.7175 0.7165
1081.000000 0.7157 0.7151 0.7147 0.7143 0.7138
1086.000000 0.7134 0.7132 0.7130 0.7128 0.7121
1091.000000 0.7110 0.7099 0.7097 0.7094 0.7091
1096.000000 0.7088 0.7084 0.7080 0.7075 0.7071
1101.000000 0.7068 0.7064 0.7060 0.7056 0.7054
1106.000000 0.7053 0.7051 0.7049 0.7047 0.7045
1111.000000 0.7043 0.7042 0.7039 0.7037 0.7035
1116.000000 0.7033 0.7031 0.7028 0.7026 0.7025
1121.000000 0.7022 0.7021 0.7019 0.7018 0.7017
1126.000000 0.7015 0.7014 0.7012 0.7011 0.7010
1131.000000 0.7010 0.7010 0.7011 0.7011 0.7011
1136.000000 0.7011 0.7012 0.7015 0.7018 0.7019
1141.000000 0.7021 0.7021 0.7014 0.7007 0.7001
1146.000000 0.6995 0.6988 0.6978 0.6967 0.6956
1151.000000 0.6945 0.6933 0.6919 0.6908 0.6895
1156.000000 0.6881 0.6862 0.6846 0.6828 0.6811
1161.000000 0.6792 0.6772 0.6753 0.6734 0.6714
1166.000000 0.6694 0.6672 0.6639 0.6604 0.6568
1171.000000 0.6521 0.6478 0.6481 0.6481 0.6480
1176.000000 0.6528 0.6575 0.6680 0.6775 0.6908
1181.000000 0.6964 0.6974 0.6982 0.6989 0.6998
1186.000000 0.7007 0.7014 0.7012 0.7011 0.7011
1191.000000 0.7010 0.7008 0.7007 0.7005 0.7003
1196.000000 0.6997 0.6992 0.6987 0.6981 0.6975
1201.000000 0.6971 0.6965 0.6958 0.6953 0.6946
1206.000000 0.6940 0.6934 0.6928 0.6922 0.6917
1211.000000 0.6911 0.6907 0.6901 0.6901 0.6901
1216.000000 0.6900 0.6899 0.6899 0.6896 0.6885
1221.000000 0.6874 0.6862 0.6848 0.6828 0.6807
1226.000000 0.6787 0.6767 0.6747 0.6745 0.6750
1231.000000 0.6755 0.6761 0.6768 0.6775 0.6781
1236.000000 0.6786 0.6790 0.6793 0.6793 0.6787
1241.000000 0.6776 0.6767 0.6745 0.6725 0.6705
1246.000000 0.6686 0.6667 0.6648 0.6642 0.6637
1251.000000 0.6636 0.6636 0.6637 0.6638 0.6639
1256.000000 0.6640 0.6640 0.6640 0.6634 0.6626
1261.000000 0.6619 0.6605 0.6587 0.6568 0.6546
1266.000000 0.6524 0.6501 0.6476 0.6451 0.6428
1271.000000 0.6404 0.6374 0.6344 0.6314 0.6274
1276.000000 0.6231 0.6179 0.6125 0.6060 0.5998
1281.000000 0.5841 0.5657 0.5239 0.4930 0.4620
1286.000000 0.4310 0.4184 0.4219 0.4595 0.5002
1291.000000 0.5199 0.5221 0.5083 0.4959 0.4834
1296.000000 0.4710 0.4585 0.4496 0.4697 0.4516
1301.000000 0.5990 0.6178 0.6401 0.6571 0.6637
1306.000000 0.6682 0.6699 0.6717 0.6755 0.6712
1311.000000 0.6697 0.6684 0.6669 0.6660 0.6650
1316.000000 0.6640 0.6632 0.6622 0.6615 0.6607
1321.000000 0.6599 0.6591 0.6581 0.6571 0.6561
1326.000000 0.6550 0.6538 0.6607 0.6697 0.6787
1331.000000 0.6875 0.6925 0.6926 0.6926 0.6922
1336.000000 0.6918 0.6911 0.6901 0.6887 0.6858
1341.000000 0.6812 0.6745 0.6668 0.6615 0.6583
1346.000000 0.6558 0.6547 0.6538 0.6528 0.6521
1351.000000 0.6507 0.6415 0.6130 0.5844 0.5558
1356.000000 0.5272 0.4986 0.4700 0.4601 0.4598
1361.000000 0.7799 0.7880 0.7901 0.7908 0.7890
1366.000000 0.7824 0.7747 0.7626 0.7261 0.7091
1371.000000 0.6900 0.6818 0.6789 0.6690 0.6500
1376.000000 0.6493 0.7028 0.7443 0.7649 0.7285
1381.000000 0.6815 0.6344 0.6310 0.7011 0.7435
1386.000000 0.7787 0.7858 0.7964 0.8038 0.8088
1391.000000 0.8111 0.8136 0.8118 0.8110 0.8095
1396.000000 0.8080 0.8060 0.8034 0.8001 0.7967
1401.000000 0.7925 0.7880 0.7845 0.7810 0.7772
1406.000000 0.7732 0.7691 0.7651 0.7614 0.7575
1411.000000 0.7537 0.7498 0.7458 0.7421 0.7382
1416.000000 0.7344 0.7291 0.7235 0.7178 0.7118
1421.000000 0.7053 0.6988 0.6878 0.6762 0.6656
1426.000000 0.6545 0.6432 0.6277 0.6016 0.5825
1431.000000 0.5749 0.5697 0.5683 0.5676 0.5660
1436.000000 0.5646 0.5632 0.5460 0.4852 0.4242
1441.000000 0.3632 0.3108 0.3115 0.3527 0.3914
1446.000000 0.4300 0.4686 0.5073 0.5459 0.5815
1451.000000 0.5829 0.5537 0.5172 0.4806 0.4440
1456.000000 0.4074 0.3709 0.3343 0.2977 0.2962
1461.000000 0.6154 0.8162 0.8570 0.8686 0.8717
1466.000000 0.8760 0.8730 0.8723 0.8706 0.8683
1471.000000 0.8609 0.8543 0.8466 0.8389 0.8313
1476.000000 0.8185 0.8050 0.7938 0.7780 0.7462
1481.000000 0.7325 0.7142 0.6818 0.6481 0.6143
1486.000000 0.5806 0.5469 0.5310 0.5293 0.6226
1491.000000 0.7181 0.7976 0.8101 0.8141 0.8164
1496.000000 0.8183 0.8168 0.8046 0.7760 0.7475
1501.000000 0.7189 0.6903 0.6618 0.6365 0.6343
1506.000000 0.6911 0.7328 0.7746 0.8162 0.8580
1511.000000 0.8957 0.8973 0.8984 0.8991 0.8978
1516.000000 0.8974 0.8964 0.8952 0.8938 0.8923
1521.000000 0.8906 0.8889 0.8877 0.8864 0.8852
1526.000000 0.8841 0.8830 0.8820 0.8812 0.8805
1531.000000 0.8798 0.8791 0.8784 0.8777 0.8770
1536.000000 0.8763 0.8756 0.8749 0.8742 0.8735
1541.000000 0.8727 0.8720 0.8713 0.8705 0.8698
1546.000000 0.8690 0.8681 0.8671 0.8663 0.8654
1551.000000 0.8645 0.8636 0.8627 0.8618 0.8609
1556.000000 0.8600 0.8590 0.8581 0.8571 0.8563
1561.000000 0.8554 0.8545 0.8536 0.8527 0.8518
1566.000000 0.8509 0.8500 0.8491 0.8482 0.8471
1571.000000 0.8463 0.8454 0.8445 0.8436 0.8427
1576.000000 0.8417 0.8408 0.8399 0.8390 0.8381
1581.000000 0.8371 0.8363 0.8355 0.8347 0.8339
1586.000000 0.8331 0.8318 0.8304 0.8289 0.8274
1591.000000 0.8258 0.8241 0.8224 0.8207 0.8184
1596.000000 0.8154 0.8124 0.8089 0.8050 0.8012
1601.000000 0.7978 0.7945 0.7921 0.7899 0.7893
1606.000000 0.7893 0.7892 0.7906 0.7926 0.7961
1611.000000 0.7992 0.8014 0.8033 0.8041 0.8044
1616.000000 0.8045 0.8045 0.8041 0.8026 0.8012
1621.000000 0.7996 0.7975 0.7956 0.7938 0.7919
1626.000000 0.7903 0.7884 0.7864 0.7844 0.7824
1631.000000 0.7825 0.7832 0.7854 0.7890 0.7928
1636.000000 0.7947 0.7958 0.7957 0.7953 0.7949
1641.000000 0.7943 0.7934 0.7925 0.7915 0.7907
1646.000000 0.7899 0.7890 0.7883 0.7875 0.7869
1651.000000 0.7862 0.7857 0.7850 0.7843 0.7836
1656.000000 0.7828 0.7821 0.7811 0.7801 0.7791
1661.000000 0.7780 0.7768 0.7758 0.7748 0.7738
1666.000000 0.7728 0.7718 0.7710 0.7701 0.7704
1671.000000 0.7708 0.7714 0.7718 0.7725 0.7732
1676.000000 0.7738 0.7739 0.7740 0.7741 0.7735
1681.000000 0.7728 0.7722 0.7711 0.7701 0.7692
1686.000000 0.7669 0.7647 0.7621 0.7594 0.7565
1691.000000 0.7539 0.7511 0.7471 0.7432 0.7368
1696.000000 0.7301 0.7225 0.7149 0.6994 0.6853
1701.000000 0.6835 0.6826 0.6841 0.6912 0.6988
1706.000000 0.7064 0.7139 0.7215 0.7291 0.7365
1711.000000 0.7442 0.7517 0.7594 0.7642 0.7665
1716.000000 0.7684 0.7695 0.7680 0.7671 0.7655
1721.000000 0.7643 0.7639 0.7634 0.7635 0.7637
1726.000000 0.7640 0.7643 0.7646 0.7649 0.7651
1731.000000 0.7657 0.7662 0.7669 0.7675 0.7675
1736.000000 0.7674 0.7671 0.7665 0.7658 0.7653
1741.000000 0.7645 0.7637 0.7630 0.7621 0.7617
1746.000000 0.7611 0.7607 0.7603 0.7599 0.7594
1751.000000 0.7590 0.7586 0.7582 0.7578 0.7574
1756.000000 0.7569 0.7565 0.7561 0.7556 0.7551
1761.000000 0.7546 0.7541 0.7536 0.7531 0.7525
1766.000000 0.7521 0.7517 0.7512 0.7508 0.7504
1771.000000 0.7500 0.7495 0.7491 0.7486 0.7482
1776.000000 0.7476 0.7472 0.7468 0.7464 0.7458
1781.000000 0.7455 0.7451 0.7446 0.7442 0.7437
1786.000000 0.7433 0.7428 0.7424 0.7419 0.7415
1791.000000 0.7411 0.7407 0.7403 0.7399 0.7393
1796.000000 0.7388 0.7383 0.7378 0.7372 0.7368
1801.000000 0.7362 0.7358 0.7354 0.7349 0.7345
1806.000000 0.7341 0.7337 0.7332 0.7328 0.7324
1811.000000 0.7319 0.7315 0.7311 0.7308 0.7304
1816.000000 0.7301 0.7297 0.7293 0.7289 0.7285
1821.000000 0.7282 0.7278 0.7274 0.7268 0.7262
1826.000000 0.7258 0.7251 0.7246 0.7241 0.7235
1831.000000 0.7230 0.7221 0.7214 0.7206 0.7198
1836.000000 0.7190 0.7182 0.7174 0.7165 0.7158
1841.000000 0.7150 0.7142 0.7135 0.7126 0.7119
1846.000000 0.7111 0.7105 0.7097 0.7090 0.7082
1851.000000 0.7075 0.7067 0.7060 0.7051 0.7045
1856.000000 0.7037 0.7028 0.7021 0.7012 0.7005
1861.000000 0.6997 0.6988 0.6980 0.6971 0.6964
1866.000000 0.6956 0.6948 0.6939 0.6928 0.6918
1871.000000 0.6908 0.6898 0.6888 0.6878 0.6868
1876.000000 0.6858 0.6850 0.6841 0.6832 0.6822
1881.000000 0.6814 0.6808 0.6804 0.6798 0.6793
1886.000000 0.6788 0.6783 0.6778 0.6774 0.6768
1891.000000 0.6765 0.6761 0.6757 0.6756 0.6755
1896.000000 0.6754 0.6754 0.6753 0.6751 0.6751
1901.000000 0.6749 0.6747 0.6745 0.6743 0.6740
1906.000000 0.6738 0.6736 0.6734 0.6731 0.6728
1911.000000 0.6726 0.6724 0.6721 0.6718 0.6715
1916.000000 0.6711 0.6708 0.6704 0.6699 0.6694
1921.000000 0.6689 0.6684 0.6675 0.6668 0.6660
1926.000000 0.6651 0.6644 0.6639 0.6634 0.6628
1931.000000 0.6624 0.6618 0.6612 0.6608 0.6604
1936.000000 0.6599 0.6594 0.6590 0.6585 0.6581
1941.000000 0.6575 0.6571 0.6564 0.6556 0.6549
1946.000000 0.6541 0.6533 0.6525 0.6518 0.6511
1951.000000 0.6505 0.6499 0.6491 0.6483 0.6475
1956.000000 0.6465 0.6457 0.6446 0.6424 0.6395
1961.000000 0.6388 0.6393 0.6399 0.6403 0.6406
1966.000000 0.6410 0.6412 0.6412 0.6411 0.6410
1971.000000 0.6407 0.6404 0.6401 0.6400 0.6397
1976.000000 0.6393 0.6389 0.6385 0.6381 0.6377
1981.000000 0.6373 0.6368 0.6362 0.6358 0.6353
1986.000000 0.6346 0.6338 0.6331 0.6323 0.6316
1991.000000 0.6308 0.6302 0.6296 0.6289 0.6282
1996.000000 0.6271 0.6260 0.6249 0.6236 0.6214
2001.000000 0.6188 0.6162 0.6155 0.6147 0.6139
2006.000000 0.6132 0.6126 0.6121 0.6116 0.6110
2011.000000 0.6105 0.6100 0.6095 0.6090 0.6085
2016.000000 0.6080 0.6075 0.6070 0.6065 0.6060
2021.000000 0.6055 0.6051 0.6046 0.6042 0.6038
2026.000000 0.6034 0.6029 0.6025 0.6020 0.6016
2031.000000 0.6010 0.6007 0.6002 0.5997 0.5992
2036.000000 0.5987 0.5982 0.5977 0.5972 0.5967
2041.000000 0.5962 0.5957 0.5951 0.5946 0.5941
2046.000000 0.5936 0.5931 0.5926 0.5920 0.5915
2051.000000 0.5910 0.5905 0.5899 0.5894 0.5889
2056.000000 0.5884 0.5879 0.5874 0.5869 0.5865
2061.000000 0.5860 0.5855 0.5850 0.5845 0.5840
2066.000000 0.5836 0.5831 0.5826 0.5821 0.5816
2071.000000 0.5810 0.5807 0.5802 0.5797 0.5792
2076.000000 0.5788 0.5783 0.5778 0.5773 0.5768
2081.000000 0.5762 0.5759 0.5754 0.5749 0.5744
2086.000000 0.5740 0.5736 0.5732 0.5728 0.5724
2091.000000 0.5720 0.5716 0.5710 0.5707 0.5703
2096.000000 0.5699 0.5695 0.5691 0.5686 0.5682
2101.000000 0.5678 0.5674 0.5670 0.5666 0.5662
2106.000000 0.5659 0.5655 0.5652 0.5648 0.5645
2111.000000 0.5641 0.5637 0.5632 0.5628 0.5623
2116.000000 0.5618 0.5612 0.5609 0.5604 0.5599
2121.000000 0.5594 0.5590 0.5585 0.5580 0.5575
2126.000000 0.5571 0.5566 0.5562 0.5557 0.5552
2131.000000 0.5547 0.5543 0.5538 0.5533 0.5528
2136.000000 0.5523 0.5518 0.5512 0.5508 0.5503
2141.000000 0.5498 0.5493 0.5488 0.5483 0.5478
2146.000000 0.5473 0.5467 0.5462 0.5457 0.5452
2151.000000 0.5447 0.5442 0.5437 0.5432 0.5427
2156.000000 0.5422 0.5417 0.5412 0.5407 0.5402
2161.000000 0.5397 0.5392 0.5387 0.5382 0.5377
2166.000000 0.5372 0.5366 0.5360 0.5356 0.5351
2171.000000 0.5346 0.5341 0.5336 0.5331 0.5325
2176.000000 0.5320 0.5314 0.5309 0.5303 0.5298
2181.000000 0.5292 0.5286 0.5280 0.5275 0.5269
2186.000000 0.5264 0.5258 0.5253 0.5247 0.5241
2191.000000 0.5235 0.5230 0.5224 0.5219 0.5212
2196.000000 0.5207 0.5201 0.5196 0.5190 0.5185
2201.000000 0.5179 0.5173 0.5168 0.5162 0.5159
2206.000000 0.5155 0.5151 0.5147 0.5143 0.5139
2211.000000 0.5135 0.5131 0.5127 0.5123 0.5118
2216.000000 0.5114 0.5109 0.5105 0.5100 0.5095
2221.000000 0.5088 0.5082 0.5076 0.5070 0.5062
2226.000000 0.5057 0.5050 0.5043 0.5035 0.5028
2231.000000 0.5020 0.5012 0.5005 0.4998 0.4991
2236.000000 0.4984 0.4977 0.4971 0.4964 0.4957
2241.000000 0.4950 0.4944 0.4938 0.4932 0.4926
2246.000000 0.4920 0.4914 0.4908 0.4902 0.4896
2251.000000 0.4889 0.4883 0.4877 0.4871 0.4865
2256.000000 0.4859 0.4853 0.4847 0.4841 0.4835
2261.000000 0.4829 0.4823 0.4817 0.4812 0.4807
2266.000000 0.4802 0.4797 0.4792 0.4787 0.4782
2271.000000 0.4777 0.4772 0.4767 0.4762 0.4755
2276.000000 0.4748 0.4740 0.4733 0.4726 0.4719
2281.000000 0.4712 0.4705 0.4697 0.4690 0.4683
2286.000000 0.4676 0.4669 0.4662 0.4657 0.4652
2291.000000 0.4646 0.4641 0.4635 0.4630 0.4625
2296.000000 0.4620 0.4616 0.4612 0.4609 0.4605
2301.000000 0.4601 0.4598 0.4594 0.4590 0.4586
2306.000000 0.4583 0.4579 0.4576 0.4573 0.4571
2311.000000 0.4569 0.4568 0.4567 0.4566 0.4565
2316.000000 0.4565 0.4565 0.4565 0.4565 0.4565
2321.000000 0.4565 0.4565 0.4565 0.4565 0.4565
2326.000000 0.4565 0.4564 0.4564 0.4564 0.4564
2331.000000 0.4562 0.4562 0.4562 0.4562 0.4562
2336.000000 0.4562 0.4560 0.4559 0.4558 0.4557
2341.000000 0.4556 0.4555 0.4554 0.4553 0.4552
2346.000000 0.4551 0.4549 0.4548 0.4547 0.4546
2351.000000 0.4545 0.4544 0.4543 0.4542 0.4541
2356.000000 0.4540 0.4539 0.4538 0.4537 0.4536
2361.000000 0.4535 0.4535 0.4534 0.4533 0.4532
2366.000000 0.4531 0.4530 0.4530 0.4529 0.4528
2371.000000 0.4527 0.4527 0.4523 0.4519 0.4509
2376.000000 0.4500 0.4485 0.4471 0.4455 0.4440
2381.000000 0.4427 0.4414 0.4401 0.4389 0.4377
2386.000000 0.4365 0.4352 0.4340 0.4327 0.4314
2391.000000 0.4297 0.4280 0.4262 0.4247 0.4245
2396.000000 0.4244 0.4242 0.4241 0.4239 0.4238
2401.000000 0.4236 0.4235 0.4234 0.4234 0.4234
2406.000000 0.4234 0.4234 0.4234 0.4234 0.4234
2411.000000 0.4234 0.4234 0.4235 0.4236 0.4237
2416.000000 0.4238 0.4239 0.4240 0.4240 0.4241
2421.000000 0.4241 0.4241 0.4241 0.4241 0.4241
2426.000000 0.4241 0.4241 0.4241 0.4238 0.4235
2431.000000 0.4232 0.4229 0.4226 0.4223 0.4220
2436.000000 0.4217 0.4212 0.4210 0.4207 0.4204
2441.000000 0.4200 0.4196 0.4192 0.4188 0.4184
2446.000000 0.4180 0.4176 0.4173 0.4169 0.4165
2451.000000 0.4160 0.4158 0.4154 0.4151 0.4147
2456.000000 0.4144 0.4140 0.4137 0.4133 0.4130
2461.000000 0.4126 0.4122 0.4118 0.4115 0.4110
2466.000000 0.4108 0.4104 0.4101 0.4097 0.4094
2471.000000 0.4090 0.4087 0.4082 0.4079 0.4075
2476.000000 0.4072 0.4068 0.4064 0.4059 0.4057
2481.000000 0.4053 0.4049 0.4045 0.4041 0.4038
2486.000000 0.4036 0.4032 0.4030 0.4028 0.4025
2491.000000 0.4022 0.4020 0.4016 0.4014 0.4012
2496.000000 0.4009 0.4007 0.4004 0.4002 0.4000
2501.000000 0.3997 0.3995 0.3993 0.3991 0.3989
2506.000000 0.3987 0.3984 0.3982 0.3980 0.3979
2511.000000 0.3977 0.3975 0.3973 0.3971 0.3968
2516.000000 0.3966 0.3964 0.3962 0.3959 0.3957
2521.000000 0.3953 0.3950 0.3946 0.3943 0.3939
2526.000000 0.3936 0.3932 0.3930 0.3926 0.3923
2531.000000 0.3918 0.3916 0.3912 0.3908 0.3904
2536.000000 0.3900 0.3895 0.3891 0.3887 0.3884
2541.000000 0.3880 0.3876 0.3872 0.3868 0.3864
2546.000000 0.3862 0.3858 0.3854 0.3850 0.3847
2551.000000 0.3843 0.3840 0.3836 0.3832 0.3830
2556.000000 0.3827 0.3824 0.3821 0.3818 0.3814
2561.000000 0.3812 0.3809 0.3806 0.3803 0.3799
2566.000000 0.3796 0.3793 0.3790 0.3787 0.3784
2571.000000 0.3780 0.3778 0.3775 0.3772 0.3768
2576.000000 0.3766 0.3762 0.3759 0.3756 0.3753
2581.000000 0.3750 0.3747 0.3744 0.3741 0.3738
2586.000000 0.3734 0.3732 0.3729 0.3726 0.3723
2591.000000 0.3720 0.3716 0.3712 0.3709 0.3707
2596.000000 0.3704 0.3700 0.3697 0.3693 0.3690
2601.000000 0.3687 0.3684 0.3680 0.3677 0.3673
2606.000000 0.3670 0.3666 0.3662 0.3659 0.3656
2611.000000 0.3652 0.3649 0.3646 0.3643 0.3639
2616.000000 0.3636 0.3632 0.3629 0.3625 0.3622
2621.000000 0.3618 0.3614 0.3612 0.3609 0.3605
2626.000000 0.3602 0.3598 0.3595 0.3591 0.3588
2631.000000 0.3584 0.3580 0.3577 0.3574 0.3571
2636.000000 0.3568 0.3564 0.3560 0.3557 0.3554
2641.000000 0.3550 0.3546 0.3542 0.3539 0.3534
2646.000000 0.3530 0.3527 0.3523 0.3518 0.3516
2651.000000 0.3512 0.3508 0.3504 0.3500 0.3496
2656.000000 0.3492 0.3488 0.3484 0.3480 0.3476
2661.000000 0.3472 0.3468 0.3464 0.3459 0.3456
2666.000000 0.3452 0.3448 0.3445 0.3442 0.3439
2671.000000 0.3434 0.3432 0.3429 0.3426 0.3423
2676.000000 0.3420 0.3416 0.3412 0.3409 0.3407
2681.000000 0.3404 0.3400 0.3397 0.3394 0.3391
2686.000000 0.3388 0.3384 0.3382 0.3378 0.3375
2691.000000 0.3372 0.3368 0.3366 0.3362 0.3359
2696.000000 0.3357 0.3354 0.3352 0.3349 0.3346
2701.000000 0.3343 0.3340 0.3337 0.3334 0.3332
2706.000000 0.3329 0.3326 0.3323 0.3320 0.3318
2711.000000 0.3314 0.3312 0.3309 0.3306 0.3303
2716.000000 0.3300 0.3298 0.3295 0.3292 0.3289
2721.000000 0.3286 0.3282 0.3279 0.3276 0.3273
2726.000000 0.3270 0.3266 0.3264 0.3259 0.3257
2731.000000 0.3254 0.3250 0.3247 0.3244 0.3241
2736.000000 0.3238 0.3234 0.3232 0.3228 0.3225
2741.000000 0.3222 0.3218 0.3216 0.3212 0.3209
2746.000000 0.3206 0.3203 0.3200 0.3198 0.3196
2751.000000 0.3194 0.3192 0.3189 0.3187 0.3184
2756.000000 0.3182 0.3180 0.3178 0.3175 0.3173
2761.000000 0.3171 0.3169 0.3166 0.3164 0.3161
2766.000000 0.3159 0.3157 0.3155 0.3152 0.3150
2771.000000 0.3148 0.3146 0.3142 0.3139 0.3134
2776.000000 0.3132 0.3128 0.3124 0.3120 0.3117
2781.000000 0.3113 0.3110 0.3106 0.3103 0.3099
2786.000000 0.3096 0.3092 0.3089 0.3084 0.3081
2791.000000 0.3077 0.3074 0.3070 0.3067 0.3063
2796.000000 0.3060 0.3056 0.3053 0.3049 0.3045
2801.000000 0.3041 0.3038 0.3034 0.3031 0.3027
2806.000000 0.3024 0.3020 0.3017 0.3013 0.3010
2811.000000 0.3006 0.3003 0.2999 0.2996 0.2991
2816.000000 0.2985 0.2980 0.2975 0.2969 0.2964
2821.000000 0.2958 0.2952 0.2946 0.2941 0.2934
2826.000000 0.2929 0.2922 0.2915 0.2905 0.2896
2831.000000 0.2885 0.2877 0.2868 0.2859 0.2849
2836.000000 0.2840 0.2830 0.2821 0.2806 0.2791
2841.000000 0.2772 0.2754 0.2741 0.2729 0.2724
2846.000000 0.2720 0.2719 0.2718 0.2717 0.2717
2851.000000 0.2717 0.2717 0.2716 0.2716 0.2715
2856.000000 0.2715 0.2715 0.2716 0.2717 0.2719
2861.000000 0.2720 0.2722 0.2723 0.2725 0.2726
2866.000000 0.2728 0.2730 0.2732 0.2733 0.2734
2871.000000 0.2735 0.2737 0.2737 0.2737 0.2735
2876.000000 0.2735 0.2734 0.2732 0.2729 0.2727
2881.000000 0.2723 0.2719 0.2715 0.2711 0.2706
2886.000000 0.2702 0.2696 0.2690 0.2683 0.2677
2891.000000 0.2670 0.2664 0.2655 0.2647 0.2634
2896.000000 0.2624 0.2612 0.2600 0.2587 0.2574
2901.000000 0.2560 0.2546 0.2527 0.2508 0.2485
2906.000000 0.2465 0.2434 0.2404 0.2374 0.2345
2911.000000 0.2328 0.2312 0.2309 0.2309 0.2310
2916.000000 0.2313 0.2321 0.2329 0.2344 0.2360
2921.000000 0.2388 0.2416 0.2444 0.2472 0.2487
2926.000000 0.2502 0.2511 0.2520 0.2524 0.2529
2931.000000 0.2530 0.2518 0.2527 0.2523 0.2516
2936.000000 0.2510 0.2500 0.2490 0.2456 0.2422
2941.000000 0.2370 0.2318 0.2261 0.2205 0.2188
2946.000000 0.2171 0.2164 0.2158 0.2154 0.2150
2951.000000 0.2149 0.2149 0.2150 0.2151 0.2153
2956.000000 0.2156 0.2133 0.2111 0.2052 0.1994
2961.000000 0.1934 0.1876 0.1817 0.1759 0.1700
2966.000000 0.1641 0.1617 0.1589 0.1592 0.1592
2971.000000 0.1651 0.1710 0.1831 0.1953 0.2074
2976.000000 0.2196 0.2305 0.2415 0.2446 0.2477
2981.000000 0.2493 0.2509 0.2519 0.2529 0.2538
2986.000000 0.2548 0.2555 0.2562 0.2568 0.2574
2991.000000 0.2574 0.2574 0.2574 0.2574 0.2573
2996.000000 0.2572 0.2569 0.2566 0.2563 0.2560
3001.000000 0.2554 0.2549 0.2543 0.2537 0.2523
3006.000000 0.2509 0.2457 0.2405 0.2351 0.2298
3011.000000 0.2244 0.2190 0.2135 0.2083 0.2029
3016.000000 0.1975 0.1965 0.1927 0.2002 0.2049
3021.000000 0.2209 0.2370 0.2414 0.2459 0.2462
3026.000000 0.2465 0.2468 0.2469 0.2469 0.2487
3031.000000 0.2463 0.2460 0.2450 0.2440 0.2420
3036.000000 0.2400 0.2390 0.2380 0.2377 0.2375
3041.000000 0.2375 0.2375 0.2379 0.2383 0.2390
3046.000000 0.2397 0.2420 0.2443 0.2468 0.2494
3051.000000 0.2505 0.2516 0.2523 0.2531 0.2531
3056.000000 0.2531 0.2528 0.2526 0.2522 0.2519
3061.000000 0.2515 0.2511 0.2507 0.2503 0.2498
3066.000000 0.2493 0.2488 0.2483 0.2478 0.2474
3071.000000 0.2470 0.2466 0.2462 0.2458 0.2453
3076.000000 0.2449 0.2444 0.2440 0.2434 0.2431
3081.000000 0.2426 0.2422 0.2418 0.2415 0.2412
3086.000000 0.2409 0.2406 0.2403 0.2401 0.2399
3091.000000 0.2398 0.2397 0.2396 0.2396 0.2395
3096.000000 0.2394 0.2393 0.2393 0.2393 0.2394
3101.000000 0.2395 0.2396 0.2397 0.2398 0.2399
3106.000000 0.2399 0.2399 0.2399 0.2398 0.2398
3111.000000 0.2398 0.2398 0.2397 0.2397 0.2397
3116.000000 0.2397 0.2396 0.2396 0.2396 0.2396
3121.000000 0.2396 0.2396 0.2396 0.2396 0.2396
3126.000000 0.2396 0.2394 0.2392 0.2390 0.2388
3131.000000 0.2385 0.2384 0.2383 0.2381 0.2379
3136.000000 0.2377 0.2374 0.2372 0.2369 0.2367
3141.000000 0.2364 0.2362 0.2360 0.2358 0.2355
3146.000000 0.2353 0.2350 0.2348 0.2346 0.2344
3151.000000 0.2341 0.2339 0.2335 0.2334 0.2332
3156.000000 0.2330 0.2327 0.2325 0.2323 0.2321
3161.000000 0.2319 0.2317 0.2314 0.2312 0.2310
3166.000000 0.2308 0.2306 0.2304 0.2302 0.2300
3171.000000 0.2297 0.2295 0.2293 0.2291 0.2289
3176.000000 0.2287 0.2284 0.2283 0.2280 0.2278
3181.000000 0.2276 0.2274 0.2272 0.2270 0.2267
3186.000000 0.2264 0.2261 0.2258 0.2255 0.2253
3191.000000 0.2250 0.2247 0.2244 0.2241 0.2238
3196.000000 0.2234 0.2232 0.2229 0.2226 0.2223
3201.000000 0.2220 0.2217 0.2214 0.2211 0.2208
3206.000000 0.2205 0.2202 0.2199 0.2196 0.2194
3211.000000 0.2191 0.2188 0.2184 0.2182 0.2179
3216.000000 0.2176 0.2173 0.2170 0.2167 0.2164
3221.000000 0.2161 0.2158 0.2155 0.2153 0.2150
3226.000000 0.2147 0.2144 0.2141 0.2138 0.2134
3231.000000 0.2132 0.2129 0.2126 0.2124 0.2121
3236.000000 0.2118 0.2115 0.2112 0.2109 0.2106
3241.000000 0.2103 0.2100 0.2097 0.2094 0.2091
3246.000000 0.2089 0.2085 0.2083 0.2080 0.2077
3251.000000 0.2074 0.2071 0.2068 0.2065 0.2062
3256.000000 0.2060 0.2057 0.2054 0.2051 0.2048
3261.000000 0.2044 0.2042 0.2039 0.2035 0.2033
3266.000000 0.2031 0.2028 0.2025 0.2022 0.2020
3271.000000 0.2018 0.2016 0.2013 0.2011 0.2009
3276.000000 0.2007 0.2004 0.2002 0.2000 0.1998
3281.000000 0.1994 0.1993 0.1991 0.1989 0.1985
3286.000000 0.1984 0.1981 0.1979 0.1977 0.1975
3291.000000 0.1972 0.1970 0.1968 0.1966 0.1963
3296.000000 0.1961 0.1959 0.1957 0.1954 0.1952
3301.000000 0.1950 0.1948 0.1944 0.1943 0.1941
3306.000000 0.1939 0.1935 0.1934 0.1932 0.1929
3311.000000 0.1928 0.1927 0.1925 0.1923 0.1921
3316.000000 0.1920 0.1918 0.1917 0.1915 0.1914
3321.000000 0.1912 0.1910 0.1908 0.1907 0.1904
3326.000000 0.1904 0.1902 0.1901 0.1899 0.1896
3331.000000 0.1894 0.1894 0.1892 0.1891 0.1889
3336.000000 0.1887 0.1885 0.1884 0.1882 0.1881
3341.000000 0.1879 0.1878 0.1876 0.1875 0.1873
3346.000000 0.1872 0.1870 0.1868 0.1866 0.1865
3351.000000 0.1863 0.1862 0.1860 0.1859 0.1857
3356.000000 0.1854 0.1854 0.1853 0.1851 0.1850
3361.000000 0.1849 0.1848 0.1845 0.1844 0.1844
3366.000000 0.1843 0.1842 0.1841 0.1839 0.1837
3371.000000 0.1836 0.1835 0.1834 0.1833 0.1832
3376.000000 0.1831 0.1829 0.1829 0.1827 0.1826
3381.000000 0.1825 0.1824 0.1822 0.1821 0.1820
3386.000000 0.1819 0.1817 0.1816 0.1815 0.1814
3391.000000 0.1813 0.1812 0.1810 0.1809 0.1808
3396.000000 0.1807 0.1804 0.1804 0.1803 0.1802
3401.000000 0.1800 0.1799 0.1798 0.1796 0.1795
3406.000000 0.1794 0.1793 0.1792 0.1791 0.1790
3411.000000 0.1787 0.1786 0.1785 0.1784 0.1784
3416.000000 0.1783 0.1781 0.1779 0.1779 0.1778
3421.000000 0.1777 0.1776 0.1775 0.1775 0.1774
3426.000000 0.1773 0.1772 0.1771 0.1770 0.1770
3431.000000 0.1769 0.1768 0.1767 0.1766 0.1765
3436.000000 0.1765 0.1764 0.1763 0.1762 0.1761
3441.000000 0.1760 0.1760 0.1759 0.1758 0.1757
3446.000000 0.1757 0.1756 0.1754 0.1754 0.1753
3451.000000 0.1752 0.1752 0.1751 0.1750 0.1749
3456.000000 0.1748 0.1746 0.1746 0.1745 0.1744
3461.000000 0.1744 0.1743 0.1742 0.1742 0.1741
3466.000000 0.1740 0.1739 0.1737 0.1736 0.1736
3471.000000 0.1735 0.1734 0.1734 0.1733 0.1732
3476.000000 0.1732 0.1731 0.1729 0.1729 0.1728
3481.000000 0.1727 0.1727 0.1726 0.1725 0.1724
3486.000000 0.1723 0.1721 0.1720 0.1719 0.1718
3491.000000 0.1717 0.1716 0.1714 0.1713 0.1712
3496.000000 0.1711 0.1709 0.1708 0.1707 0.1706
3501.000000 0.1704 0.1703 0.1702 0.1701 0.1699
3506.000000 0.1698 0.1696 0.1695 0.1694 0.1693
3511.000000 0.1692 0.1691 0.1689 0.1687 0.1686
3516.000000 0.1685 0.1684 0.1683 0.1682 0.1681
3521.000000 0.1679 0.1679 0.1677 0.1676 0.1675
3526.000000 0.1674 0.1672 0.1671 0.1670 0.1669
3531.000000 0.1667 0.1666 0.1665 0.1664 0.1662
3536.000000 0.1661 0.1660 0.1659 0.1658 0.1657
3541.000000 0.1654 0.1654 0.1653 0.1652 0.1651
3546.000000 0.1650 0.1648 0.1646 0.1645 0.1644
3551.000000 0.1644 0.1643 0.1642 0.1641 0.1639
3556.000000 0.1637 0.1636 0.1635 0.1634 0.1634
3561.000000 0.1632 0.1631 0.1629 0.1629 0.1628
3566.000000 0.1627 0.1625 0.1624 0.1622 0.1620
3571.000000 0.1618 0.1617 0.1615 0.1614 0.1612
3576.000000 0.1611 0.1609 0.1607 0.1604 0.1604
3581.000000 0.1602 0.1601 0.1599 0.1598 0.1596
3586.000000 0.1594 0.1592 0.1591 0.1589 0.1588
3591.000000 0.1586 0.1585 0.1583 0.1581 0.1579
3596.000000 0.1578 0.1576 0.1575 0.1573 0.1572
3601.000000 0.1570 0.1569 0.1567 0.1565 0.1563
3606.000000 0.1562 0.1560 0.1559 0.1557 0.1556
3611.000000 0.1554 0.1553 0.1552 0.1551 0.1550
3616.000000 0.1550 0.1549 0.1548 0.1546 0.1546
3621.000000 0.1545 0.1544 0.1542 0.1542 0.1541
3626.000000 0.1541 0.1540 0.1539 0.1538 0.1537
3631.000000 0.1536 0.1535 0.1534 0.1533 0.1532
3636.000000 0.1531 0.1530 0.1530 0.1529 0.1528
3641.000000 0.1527 0.1526 0.1525 0.1524 0.1523
3646.000000 0.1522 0.1521 0.1520 0.1519 0.1519
3651.000000 0.1517 0.1516 0.1515 0.1514 0.1513
3656.000000 0.1512 0.1510 0.1509 0.1508 0.1507
3661.000000 0.1506 0.1505 0.1504 0.1503 0.1501
3666.000000 0.1500 0.1499 0.1498 0.1496 0.1496
3671.000000 0.1494 0.1492 0.1492 0.1491 0.1490
3676.000000 0.1489 0.1487 0.1486 0.1485 0.1484
3681.000000 0.1483 0.1482 0.1480 0.1479 0.1478
3686.000000 0.1477 0.1476 0.1475 0.1474 0.1473
3691.000000 0.1472 0.1471 0.1470 0.1469 0.1468
3696.000000 0.1467 0.1466 0.1465 0.1464 0.1463
3701.000000 0.1462 0.1461 0.1460 0.1459 0.1458
3706.000000 0.1457 0.1456 0.1455 0.1454 0.1453
3711.000000 0.1452 0.1451 0.1450 0.1449 0.1446
3716.000000 0.1446 0.1444 0.1442 0.1441 0.1440
3721.000000 0.1439 0.1438 0.1436 0.1435 0.1433
3726.000000 0.1432 0.1431 0.1430 0.1428 0.1427
3731.000000 0.1425 0.1424 0.1423 0.1422 0.1420
3736.000000 0.1419 0.1417 0.1416 0.1415 0.1414
3741.000000 0.1411 0.1409 0.1407 0.1405 0.1403
3746.000000 0.1454 0.1399 0.1396 0.1395 0.1392
3751.000000 0.1391 0.1389 0.1387 0.1385 0.1383
3756.000000 0.1381 0.1379 0.1377 0.1375 0.1373
3761.000000 0.1371 0.1370 0.1368 0.1367 0.1365
3766.000000 0.1364 0.1362 0.1361 0.1359 0.1358
3771.000000 0.1356 0.1355 0.1353 0.1352 0.1350
3776.000000 0.1349 0.1346 0.1346 0.1344 0.1342
3781.000000 0.1341 0.1340 0.1338 0.1337 0.1335
3786.000000 0.1334 0.1332 0.1331 0.1330 0.1329
3791.000000 0.1327 0.1326 0.1324 0.1323 0.1321
3796.000000 0.1320 0.1319 0.1319
##END=
