##TITLE=BENZENE, (3-CHLOROPROPENYL)-
##JCAMP-DX=4.24
##DATA TYPE=INFRARED SPECTRUM
##CLASS=COBLENTZ III
##ORIGIN=STANDARD OIL OF OHIO
##OWNER=COBLENTZ SOCIETY
Collection (C) 2018 copyright by the U.S. Secretary of Commerce
on behalf of the United States of America. All rights reserved.
##DATE=1974/11/06
##NAMES=[(1E)-3-chloro-1-propenyl]benzene
##CAS REGISTRY NO=2687-12-9
##MOLFORM=C9 H9 Cl
##SOURCE REFERENCE=COBLENTZ NO. 10078
##$NIST SOURCE=COBLENTZ
##$NIST IMAGE=cob10078
##SPECTROMETER/DATA SYSTEM=PERKIN-ELMER 521 (GRATING)
##INSTRUMENT PARAMETERS=FILTERS AT 3150, 2500, 2000, 1150, 700, 410 AND GRATING CHANGES AT 2000, 630 CM^-^1
##STATE=LIQUID (NEAT)
##PATH LENGTH=CAPILLARY, KBr PLATES
##SAMPLING PROCEDURE=TRANSMISSION
##RESOLUTION=4
##DATA PROCESSING=DIGITIZED BY NIST FROM HARD COPY (FROM TWO SEGMENTS)
##XUNITS=1/CM
##YUNITS=TRANSMITTANCE
##XFACTOR=1.000000
##YFACTOR=1
##DELTAX=1.002509
##FIRSTX=407.018
##LASTX=3994
##FIRSTY=0.731
##MAXX=3994
##MINX=407.018
##MAXY=0.913
##MINY=0.113
##NPOINTS=3579
##XYDATA=(X++(Y..Y))
407.018000 0.7310 0.7360 0.7390 0.7420 0.7470
412.030546 0.7470 0.7500 0.7550 0.7600 0.7610
417.043093 0.7650 0.7670 0.7690 0.7700 0.7700
422.055639 0.7710 0.7710 0.7720 0.7720 0.7720
427.068186 0.7720 0.7720 0.7720 0.7720 0.7720
432.080732 0.7720 0.7740 0.7750 0.7770 0.7800
437.093278 0.7840 0.7850 0.7900 0.7910 0.7920
442.105825 0.7950 0.7970 0.8020 0.8050 0.8080
447.118371 0.8110 0.8150 0.8160 0.8200 0.8200
452.130917 0.8210 0.8210 0.8220 0.8250 0.8300
457.143464 0.8370 0.8420 0.8470 0.8480 0.8530
462.156010 0.8570 0.8610 0.8660 0.8700 0.8700
467.168557 0.8700 0.8720 0.8730 0.8730 0.8750
472.181103 0.8750 0.8730 0.8710 0.8710 0.8700
477.193649 0.8700 0.8680 0.8670 0.8660 0.8630
482.206196 0.8600 0.8560 0.8530 0.8500 0.8460
487.218742 0.8330 0.8120 0.7960 0.7820 0.7700
492.231288 0.7590 0.7450 0.7271 0.7051 0.6771
497.243835 0.6400 0.5940 0.5650 0.5350 0.4811
502.256381 0.4551 0.4550 0.4739 0.4909 0.5905
507.268928 0.6701 0.7260 0.7810 0.8030 0.8220
512.281474 0.8420 0.8470 0.8500 0.8530 0.8570
517.294020 0.8600 0.8620 0.8650 0.8670 0.8680
522.306567 0.8750 0.8800 0.8820 0.8880 0.8900
527.319113 0.8910 0.8950 0.9000 0.9020 0.9030
532.331659 0.9060 0.9060 0.9070 0.9100 0.9100
537.344206 0.9100 0.9110 0.9110 0.9110 0.9120
542.356752 0.9130 0.9130 0.9130 0.9130 0.9130
547.369299 0.9130 0.9130 0.9130 0.9130 0.9130
552.381845 0.9130 0.9120 0.9120 0.9110 0.9110
557.394391 0.9110 0.9100 0.9100 0.9100 0.9070
562.406938 0.9030 0.9000 0.8970 0.8950 0.8920
567.419484 0.8910 0.8920 0.8960 0.8980 0.9010
572.432030 0.9030 0.9050 0.9060 0.9060 0.9060
577.444577 0.9060 0.9030 0.9010 0.9000 0.8970
582.457123 0.8920 0.8910 0.8900 0.8900 0.8880
587.469670 0.8850 0.8800 0.8750 0.8700 0.8570
592.482216 0.8370 0.8051 0.7592 0.7301 0.7121
597.494762 0.6650 0.6460 0.6460 0.6890 0.7319
602.507309 0.7659 0.7989 0.8120 0.8249 0.8369
607.519855 0.8450 0.8460 0.8460 0.8420 0.8410
612.532401 0.8400 0.8410 0.8430 0.8460 0.8500
617.544948 0.8550 0.8550 0.8510 0.8500 0.8480
622.557494 0.8480 0.8460 0.8410 0.8320 0.8250
627.570041 0.8210 0.8200 0.8160 0.8150 0.8150
632.582587 0.8120 0.8080 0.8020 0.7970 0.7910
637.595133 0.7850 0.7770 0.7720 0.7670 0.7640
642.607680 0.7600 0.7500 0.7400 0.7290 0.7190
647.620226 0.7050 0.6890 0.6720 0.6560 0.6420
652.632772 0.6310 0.6091 0.5861 0.5651 0.5540
657.645319 0.5430 0.5210 0.5010 0.4810 0.4630
662.657865 0.4440 0.4260 0.4110 0.3951 0.3821
667.670412 0.3690 0.3580 0.3390 0.3240 0.3240
672.682958 0.3370 0.3480 0.3500 0.3570 0.3650
677.695504 0.3690 0.3730 0.3780 0.3780 0.3720
682.708051 0.3620 0.3490 0.3291 0.3021 0.2622
687.720597 0.2080 0.2050 0.2080 0.2300 0.2350
692.733143 0.2530 0.2869 0.3099 0.3339 0.3619
697.745690 0.4011 0.4590 0.4990 0.5680 0.5980
702.758236 0.6250 0.6470 0.6689 0.6849 0.6989
707.770783 0.7100 0.7170 0.7190 0.7190 0.7190
712.783329 0.7170 0.7120 0.7090 0.7050 0.6990
717.795875 0.6900 0.6750 0.6470 0.6390 0.6240
722.808422 0.5990 0.5750 0.5630 0.5490 0.5311
727.820968 0.5210 0.5150 0.5130 0.5110 0.5060
732.833514 0.4980 0.4840 0.4601 0.4251 0.3772
737.846061 0.3389 0.2670 0.2200 0.1640 0.1430
742.858607 0.1161 0.1130 0.1130 0.1140 0.1240
747.871154 0.1330 0.1620 0.1810 0.2230 0.2789
752.883700 0.3149 0.3689 0.4298 0.4838 0.5696
757.896246 0.6050 0.6340 0.6560 0.6750 0.6890
762.908793 0.6990 0.7100 0.7240 0.7340 0.7410
767.921339 0.7490 0.7520 0.7560 0.7590 0.7610
772.933885 0.7650 0.7660 0.7670 0.7740 0.7770
777.946432 0.7950 0.8050 0.8200 0.8260 0.8350
782.958978 0.8400 0.8410 0.8420 0.8420 0.8410
787.971525 0.8400 0.8400 0.8420 0.8420 0.8430
792.984071 0.8430 0.8430 0.8430 0.8430 0.8400
797.996617 0.8350 0.8270 0.8180 0.8150 0.8120
803.009164 0.8110 0.8070 0.8030 0.8030 0.8050
808.021710 0.8110 0.8160 0.8230 0.8270 0.8310
813.034256 0.8380 0.8420 0.8470 0.8530 0.8570
818.046803 0.8580 0.8600 0.8600 0.8600 0.8570
823.059349 0.8550 0.8510 0.8480 0.8420 0.8400
828.071896 0.8370 0.8300 0.8180 0.7990 0.7860
833.084442 0.7750 0.7650 0.7620 0.7600 0.7600
838.096988 0.7570 0.7520 0.7470 0.7440 0.7420
843.109535 0.7440 0.7570 0.7710 0.7850 0.7970
848.122081 0.8110 0.8250 0.8370 0.8470 0.8510
853.134627 0.8550 0.8580 0.8700 0.8710 0.8730
858.147174 0.8760 0.8780 0.8800 0.8820 0.8830
863.159720 0.8850 0.8860 0.8870 0.8870 0.8870
868.172267 0.8880 0.8900 0.8900 0.8900 0.8900
873.184813 0.8900 0.8900 0.8900 0.8900 0.8900
878.197359 0.8880 0.8880 0.8880 0.8880 0.8880
883.209906 0.8880 0.8880 0.8870 0.8860 0.8830
888.222452 0.8820 0.8760 0.8730 0.8720 0.8700
893.234998 0.8680 0.8650 0.8630 0.8630 0.8620
898.247545 0.8620 0.8580 0.8550 0.8510 0.8500
903.260091 0.8400 0.8270 0.8180 0.8110 0.8000
908.272638 0.7990 0.7960 0.7940 0.7940 0.7950
913.285184 0.7960 0.7990 0.8070 0.8120 0.8160
918.297730 0.8250 0.8320 0.8400 0.8410 0.8410
923.310277 0.8410 0.8420 0.8420 0.8420 0.8430
928.322823 0.8430 0.8450 0.8450 0.8450 0.8420
933.335369 0.8410 0.8360 0.8310 0.8280 0.8280
938.347916 0.8210 0.8120 0.8010 0.7920 0.7860
943.360462 0.7720 0.7570 0.7291 0.7001 0.6861
948.373009 0.6669 0.6369 0.5780 0.5450 0.5110
953.385555 0.4431 0.3721 0.3042 0.2402 0.1942
958.398101 0.1570 0.1540 0.1560 0.1660 0.1710
963.410648 0.1920 0.2150 0.2479 0.2989 0.3428
968.423194 0.3772 0.4462 0.5550 0.5800 0.6120
973.435740 0.6370 0.6510 0.6520 0.6520 0.6510
978.448287 0.6450 0.6450 0.6470 0.6600 0.6720
983.460833 0.6950 0.7140 0.7340 0.7549 0.7660
988.473380 0.7890 0.7950 0.7970 0.7970 0.7940
993.485926 0.7910 0.7910 0.7940 0.8000 0.8020
998.498472 0.8070 0.8100 0.8120 0.8120 0.8150
1003.511019 0.8170 0.8250 0.8300 0.8310 0.8310
1008.523565 0.8310 0.8310 0.8300 0.8300 0.8270
1013.536111 0.8260 0.8220 0.8150 0.8030 0.7910
1018.548658 0.7750 0.7590 0.7400 0.7260 0.7020
1023.561204 0.6610 0.6470 0.6470 0.6600 0.6989
1028.573751 0.7411 0.7691 0.7960 0.8110 0.8200
1033.586297 0.8250 0.8260 0.8270 0.8270 0.8280
1038.598843 0.8280 0.8280 0.8270 0.8270 0.8270
1043.611390 0.8270 0.8280 0.8280 0.8300 0.8300
1048.623936 0.8280 0.8260 0.8230 0.8160 0.8150
1053.636482 0.8070 0.7910 0.7790 0.7700 0.7590
1058.649029 0.7439 0.7170 0.7000 0.6860 0.6820
1063.661575 0.6840 0.6890 0.7060 0.7120 0.7200
1068.674122 0.7240 0.7240 0.7200 0.7150 0.7100
1073.686668 0.7070 0.7000 0.6900 0.6790 0.6760
1078.699214 0.6770 0.6910 0.7050 0.7160 0.7340
1083.711761 0.7540 0.7610 0.7690 0.7810 0.7870
1088.724307 0.8020 0.8150 0.8170 0.8170 0.8160
1093.736853 0.8150 0.8120 0.8100 0.8070 0.8050
1098.749400 0.8020 0.8000 0.7990 0.7990 0.7970
1103.761946 0.7960 0.7960 0.7950 0.7920 0.7870
1108.774493 0.7850 0.7800 0.7770 0.7740 0.7700
1113.787039 0.7700 0.7710 0.7860 0.7960 0.8020
1118.799585 0.8160 0.8210 0.8310 0.8350 0.8370
1123.812132 0.8380 0.8400 0.8410 0.8420 0.8420
1128.824678 0.8420 0.8380 0.8380 0.8430 0.8500
1133.837224 0.8500 0.8470 0.8270 0.8200 0.8170
1138.849771 0.8130 0.8070 0.8000 0.7900 0.7790
1143.862317 0.7640 0.7470 0.7270 0.7120 0.6841
1148.874864 0.6610 0.6520 0.6490 0.6470 0.6460
1153.887410 0.6400 0.6390 0.6400 0.6450 0.6749
1158.899956 0.6971 0.7190 0.7400 0.7570 0.7700
1163.912503 0.7750 0.7760 0.7760 0.7710 0.7421
1168.925049 0.7370 0.7390 0.7420 0.7600 0.7700
1173.937595 0.7720 0.7720 0.7740 0.7750 0.7860
1178.950142 0.8081 0.8320 0.8420 0.8450 0.8460
1183.962688 0.8470 0.8470 0.8500 0.8500 0.8500
1188.975235 0.8480 0.8470 0.8460 0.8460 0.8450
1193.987781 0.8450 0.8430 0.8420 0.8380 0.8360
1199.000327 0.8320 0.8300 0.8260 0.8250 0.8250
1204.012874 0.8230 0.8230 0.8250 0.8310 0.8360
1209.025420 0.8420 0.8430 0.8450 0.8470 0.8480
1214.037966 0.8470 0.8470 0.8470 0.8460 0.8430
1219.050513 0.8410 0.8370 0.8310 0.8300 0.8260
1224.063059 0.8230 0.8130 0.8030 0.7950 0.7900
1229.075606 0.7790 0.7660 0.7540 0.7410 0.7250
1234.088152 0.7070 0.6860 0.6610 0.6311 0.5951
1239.100698 0.5509 0.5259 0.5009 0.4429 0.3750
1244.113245 0.2980 0.2471 0.2450 0.2470 0.3088
1249.125791 0.3331 0.3842 0.4552 0.5580 0.6010
1254.138337 0.6340 0.6650 0.6900 0.7139 0.7319
1259.150884 0.7490 0.7640 0.7750 0.7850 0.7940
1264.163430 0.7990 0.8100 0.8130 0.8150 0.8170
1269.175977 0.8180 0.8180 0.8160 0.8100 0.8030
1274.188523 0.7950 0.7870 0.7790 0.7670 0.7520
1279.201069 0.7370 0.7220 0.7060 0.6950 0.6940
1284.213616 0.6950 0.7070 0.7120 0.7210 0.7360
1289.226162 0.7400 0.7400 0.7360 0.7260 0.7140
1294.238708 0.7000 0.6810 0.6540 0.6360 0.6240
1299.251255 0.5930 0.5890 0.5900 0.6020 0.6290
1304.263801 0.6510 0.6690 0.6910 0.7110 0.7339
1309.276348 0.7551 0.7720 0.7850 0.7960 0.7990
1314.288894 0.7990 0.7970 0.7950 0.7910 0.7860
1319.301440 0.7790 0.7740 0.7720 0.7750 0.7770
1324.313987 0.7870 0.7970 0.8110 0.8220 0.8230
1329.326533 0.8230 0.8230 0.8210 0.8120 0.8110
1334.339079 0.8120 0.8130 0.8260 0.8370 0.8470
1339.351626 0.8520 0.8600 0.8650 0.8670 0.8710
1344.364172 0.8730 0.8760 0.8770 0.8770 0.8780
1349.376719 0.8780 0.8800 0.8800 0.8800 0.8800
1354.389265 0.8800 0.8800 0.8800 0.8780 0.8780
1359.401811 0.8780 0.8770 0.8770 0.8760 0.8760
1364.414358 0.8750 0.8730 0.8720 0.8710 0.8680
1369.426904 0.8660 0.8620 0.8610 0.8610 0.8620
1374.439450 0.8630 0.8650 0.8650 0.8650 0.8660
1379.451997 0.8630 0.8620 0.8630 0.8650 0.8660
1384.464543 0.8670 0.8700 0.8710 0.8730 0.8750
1389.477090 0.8750 0.8750 0.8750 0.8750 0.8750
1394.489636 0.8730 0.8730 0.8720 0.8710 0.8710
1399.502182 0.8700 0.8700 0.8700 0.8700 0.8710
1404.514729 0.8730 0.8730 0.8730 0.8750 0.8770
1409.527275 0.8760 0.8750 0.8720 0.8680 0.8630
1414.539821 0.8630 0.8620 0.8600 0.8560 0.8530
1419.552368 0.8520 0.8500 0.8480 0.8380 0.8280
1424.564914 0.8200 0.8100 0.8000 0.7870 0.7720
1429.577461 0.7539 0.7309 0.7019 0.6669 0.6249
1434.590007 0.5690 0.5280 0.4850 0.4780 0.4790
1439.602553 0.5592 0.6121 0.6550 0.6600 0.6570
1444.615100 0.6260 0.5900 0.5630 0.5340 0.5330
1449.627646 0.6102 0.6551 0.7020 0.7201 0.7510
1454.640192 0.7850 0.8080 0.8350 0.8450 0.8470
1459.652739 0.8530 0.8630 0.8650 0.8650 0.8650
1464.665285 0.8650 0.8650 0.8650 0.8630 0.8630
1469.677832 0.8630 0.8550 0.8520 0.8510 0.8450
1474.690378 0.8320 0.8220 0.8100 0.7920 0.7740
1479.702924 0.7539 0.7249 0.7059 0.6860 0.6650
1484.715471 0.6460 0.6360 0.6340 0.6320 0.6310
1489.728017 0.6249 0.6020 0.5899 0.5699 0.5430
1494.740563 0.5140 0.5110 0.5140 0.5999 0.6459
1499.753110 0.7172 0.7671 0.8070 0.8230 0.8400
1504.765656 0.8480 0.8580 0.8660 0.8700 0.8730
1509.778203 0.8780 0.8810 0.8820 0.8830 0.8850
1514.790749 0.8860 0.8860 0.8860 0.8860 0.8860
1519.803295 0.8860 0.8860 0.8850 0.8850 0.8850
1524.815842 0.8850 0.8850 0.8830 0.8820 0.8820
1529.828388 0.8820 0.8820 0.8820 0.8820 0.8820
1534.840934 0.8830 0.8830 0.8860 0.8860 0.8870
1539.853481 0.8870 0.8880 0.8910 0.8910 0.8930
1544.866027 0.8930 0.8930 0.8950 0.8950 0.8960
1549.878574 0.8960 0.8960 0.8960 0.8960 0.8950
1554.891120 0.8950 0.8930 0.8920 0.8920 0.8920
1559.903666 0.8910 0.8900 0.8870 0.8860 0.8850
1564.916213 0.8830 0.8830 0.8800 0.8750 0.8700
1569.928759 0.8619 0.8460 0.8310 0.8199 0.7900
1574.941305 0.7560 0.7220 0.7220 0.7669 0.8279
1579.953852 0.8510 0.8520 0.8520 0.8520 0.8510
1584.966398 0.8510 0.8510 0.8500 0.8480 0.8460
1589.978945 0.8419 0.8260 0.8149 0.7900 0.7750
1594.991491 0.7750 0.7770 0.7820 0.7960 0.8110
1600.004037 0.8320 0.8430 0.8500 0.8530 0.8570
1605.016584 0.8610 0.8660 0.8720 0.8750 0.8780
1610.029130 0.8800 0.8800 0.8810 0.8810 0.8810
1615.041676 0.8820 0.8820 0.8820 0.8820 0.8820
1620.054223 0.8820 0.8820 0.8820 0.8810 0.8810
1625.066769 0.8810 0.8810 0.8810 0.8810 0.8810
1630.079316 0.8800 0.8800 0.8780 0.8760 0.8730
1635.091862 0.8710 0.8680 0.8670 0.8630 0.8580
1640.104408 0.8530 0.8480 0.8419 0.8219 0.7970
1645.116955 0.7740 0.7470 0.7220 0.6920 0.6840
1650.129501 0.6840 0.6860 0.6991 0.7311 0.7521
1655.142047 0.7770 0.8000 0.8170 0.8270 0.8430
1660.154594 0.8470 0.8530 0.8580 0.8630 0.8660
1665.167140 0.8700 0.8730 0.8750 0.8760 0.8780
1670.179687 0.8800 0.8820 0.8820 0.8830 0.8850
1675.192233 0.8860 0.8870 0.8870 0.8880 0.8880
1680.204779 0.8880 0.8900 0.8900 0.8900 0.8910
1685.217326 0.8910 0.8910 0.8910 0.8910 0.8910
1690.229872 0.8910 0.8910 0.8910 0.8910 0.8910
1695.242418 0.8910 0.8910 0.8910 0.8910 0.8900
1700.254965 0.8900 0.8900 0.8900 0.8900 0.8900
1705.267511 0.8880 0.8880 0.8880 0.8870 0.8860
1710.280058 0.8850 0.8850 0.8850 0.8830 0.8830
1715.292604 0.8820 0.8820 0.8820 0.8820 0.8820
1720.305150 0.8820 0.8850 0.8850 0.8850 0.8830
1725.317697 0.8830 0.8830 0.8830 0.8830 0.8820
1730.330243 0.8820 0.8820 0.8810 0.8810 0.8800
1735.342789 0.8800 0.8780 0.8780 0.8770 0.8760
1740.355336 0.8760 0.8730 0.8720 0.8710 0.8680
1745.367882 0.8670 0.8660 0.8660 0.8650 0.8630
1750.380429 0.8630 0.8630 0.8650 0.8650 0.8660
1755.392975 0.8660 0.8670 0.8700 0.8710 0.8720
1760.405521 0.8730 0.8750 0.8760 0.8760 0.8760
1765.418068 0.8770 0.8780 0.8780 0.8780 0.8770
1770.430614 0.8770 0.8770 0.8760 0.8760 0.8760
1775.443160 0.8770 0.8770 0.8770 0.8780 0.8780
1780.455707 0.8800 0.8800 0.8800 0.8800 0.8800
1785.468253 0.8800 0.8800 0.8800 0.8780 0.8770
1790.480800 0.8760 0.8750 0.8730 0.8710 0.8670
1795.493346 0.8620 0.8570 0.8560 0.8530 0.8520
1800.505892 0.8500 0.8480 0.8460 0.8460 0.8450
1805.518439 0.8430 0.8430 0.8430 0.8450 0.8460
1810.530985 0.8470 0.8480 0.8500 0.8500 0.8510
1815.543531 0.8530 0.8570 0.8600 0.8620 0.8650
1820.556078 0.8660 0.8680 0.8700 0.8710 0.8720
1825.568624 0.8750 0.8770 0.8780 0.8800 0.8810
1830.581171 0.8830 0.8860 0.8880 0.8900 0.8900
1835.593717 0.8900 0.8910 0.8910 0.8920 0.8920
1840.606263 0.8930 0.8930 0.8950 0.8950 0.8950
1845.618810 0.8950 0.8950 0.8960 0.8960 0.8960
1850.631356 0.8960 0.8960 0.8960 0.8960 0.8960
1855.643902 0.8950 0.8950 0.8930 0.8920 0.8910
1860.656449 0.8900 0.8900 0.8880 0.8850 0.8810
1865.668995 0.8780 0.8770 0.8750 0.8720 0.8700
1870.681542 0.8660 0.8600 0.8570 0.8550 0.8520
1875.694088 0.8510 0.8500 0.8500 0.8510 0.8510
1880.706634 0.8520 0.8550 0.8570 0.8570 0.8580
1885.719181 0.8600 0.8610 0.8610 0.8620 0.8630
1890.731727 0.8650 0.8650 0.8650 0.8660 0.8670
1895.744273 0.8680 0.8700 0.8710 0.8720 0.8750
1900.756820 0.8760 0.8780 0.8800 0.8810 0.8820
1905.769366 0.8850 0.8880 0.8880 0.8900 0.8900
1910.781913 0.8910 0.8910 0.8920 0.8920 0.8920
1915.794459 0.8910 0.8910 0.8910 0.8910 0.8910
1920.807005 0.8910 0.8900 0.8900 0.8900 0.8900
1925.819552 0.8880 0.8870 0.8870 0.8860 0.8850
1930.832098 0.8830 0.8820 0.8820 0.8810 0.8800
1935.844644 0.8800 0.8800 0.8780 0.8750 0.8710
1940.857191 0.8660 0.8610 0.8580 0.8530 0.8500
1945.869737 0.8470 0.8450 0.8430 0.8420 0.8410
1950.882284 0.8420 0.8430 0.8450 0.8460 0.8480
1955.894830 0.8470 0.8430 0.8370 0.8350 0.8370
1960.907376 0.8480 0.8520 0.8610 0.8660 0.8660
1965.919923 0.8670 0.8670 0.8680 0.8700 0.8720
1970.932469 0.8750 0.8760 0.8760 0.8770 0.8780
1975.945015 0.8800 0.8810 0.8820 0.8820 0.8830
1980.957562 0.8870 0.8880 0.8900 0.8900 0.8910
1985.970108 0.8910 0.8910 0.8920 0.8920 0.8930
1990.982655 0.8950 0.8930 0.8950 0.8950 0.8950
1995.995201 0.8950 0.8950 0.8950 0.8950 0.8960
2001.007747 0.8960 0.8960 0.8965 0.8970 0.8970
2006.020294 0.8970 0.8970 0.8970 0.8970 0.8970
2011.032840 0.8970 0.8970 0.8970 0.8970 0.8970
2016.045386 0.8970 0.8975 0.8980 0.8980 0.8980
2021.057933 0.8970 0.8960 0.8955 0.8950 0.8950
2026.070479 0.8950 0.8955 0.8960 0.8970 0.8980
2031.083026 0.8980 0.8980 0.8990 0.9000 0.9000
2036.095572 0.9000 0.9005 0.9010 0.9005 0.9000
2041.108118 0.9000 0.9000 0.9000 0.9000 0.9000
2046.120665 0.9000 0.9000 0.9000 0.8990 0.8980
2051.133211 0.8990 0.9000 0.9000 0.9000 0.9000
2056.145757 0.9000 0.8990 0.8980 0.8980 0.8980
2061.158304 0.8990 0.9000 0.9005 0.9010 0.9010
2066.170850 0.9010 0.9010 0.9010 0.9010 0.9010
2071.183397 0.9010 0.9010 0.9010 0.9010 0.9010
2076.195943 0.9010 0.9010 0.9010 0.9010 0.9010
2081.208489 0.9005 0.9000 0.9000 0.9000 0.9000
2086.221036 0.9000 0.9000 0.9000 0.9000 0.9000
2091.233582 0.9000 0.9000 0.9000 0.9000 0.9000
2096.246128 0.9000 0.9000 0.9000 0.9000 0.9000
2101.258675 0.9000 0.9000 0.9000 0.9000 0.9000
2106.271221 0.9000 0.9000 0.9000 0.9005 0.9010
2111.283768 0.9010 0.9010 0.9010 0.9010 0.9005
2116.296314 0.9000 0.9000 0.9000 0.9000 0.9000
2121.308860 0.9000 0.9000 0.9000 0.9000 0.9000
2126.321407 0.9000 0.9000 0.9000 0.9000 0.9000
2131.333953 0.9000 0.9000 0.9000 0.9000 0.9000
2136.346499 0.9000 0.9000 0.9000 0.9000 0.9000
2141.359046 0.9000 0.9000 0.9000 0.9000 0.9000
2146.371592 0.9000 0.9005 0.9010 0.9010 0.9010
2151.384139 0.9010 0.9010 0.9010 0.9010 0.9010
2156.396685 0.9010 0.9010 0.9010 0.9010 0.9010
2161.409231 0.9010 0.9010 0.9010 0.9010 0.9010
2166.421778 0.9010 0.9010 0.9010 0.9010 0.9010
2171.434324 0.9010 0.9010 0.9010 0.9010 0.9015
2176.446870 0.9020 0.9020 0.9020 0.9015 0.9010
2181.459417 0.9005 0.9000 0.9000 0.9000 0.9000
2186.471963 0.9000 0.9000 0.9000 0.9005 0.9010
2191.484510 0.9010 0.9010 0.9010 0.9010 0.9010
2196.497056 0.9010 0.9010 0.9010 0.9005 0.9000
2201.509602 0.9000 0.8999 0.8989 0.8980 0.8980
2206.522149 0.8979 0.8974 0.8970 0.8970 0.8970
2211.534695 0.8965 0.8960 0.8955 0.8950 0.8950
2216.547241 0.8950 0.8950 0.8950 0.8956 0.8960
2221.559788 0.8960 0.8960 0.8960 0.8960 0.8960
2226.572334 0.8960 0.8960 0.8960 0.8960 0.8959
2231.584881 0.8954 0.8950 0.8950 0.8950 0.8950
2236.597427 0.8950 0.8950 0.8950 0.8950 0.8950
2241.609973 0.8950 0.8950 0.8950 0.8951 0.8956
2246.622520 0.8960 0.8960 0.8961 0.8966 0.8970
2251.635066 0.8970 0.8970 0.8970 0.8970 0.8970
2256.647612 0.8971 0.8976 0.8980 0.8980 0.8980
2261.660159 0.8980 0.8980 0.8980 0.8980 0.8980
2266.672705 0.8980 0.8980 0.8980 0.8980 0.8980
2271.685252 0.8980 0.8980 0.8980 0.8980 0.8980
2276.697798 0.8980 0.8980 0.8980 0.8980 0.8980
2281.710344 0.8980 0.8980 0.8980 0.8980 0.8980
2286.722891 0.8980 0.8980 0.8979 0.8974 0.8970
2291.735437 0.8970 0.8969 0.8964 0.8960 0.8960
2296.747983 0.8958 0.8943 0.8930 0.8930 0.8929
2301.760530 0.8924 0.8919 0.8914 0.8910 0.8910
2306.773076 0.8910 0.8910 0.8910 0.8910 0.8910
2311.785623 0.8910 0.8910 0.8910 0.8911 0.8916
2316.798169 0.8920 0.8920 0.8919 0.8914 0.8910
2321.810715 0.8910 0.8910 0.8910 0.8910 0.8910
2326.823262 0.8910 0.8910 0.8910 0.8910 0.8910
2331.835808 0.8910 0.8910 0.8910 0.8910 0.8910
2336.848354 0.8910 0.8910 0.8910 0.8910 0.8911
2341.860901 0.8916 0.8920 0.8920 0.8921 0.8926
2346.873447 0.8930 0.8930 0.8932 0.8942 0.8950
2351.885994 0.8950 0.8948 0.8938 0.8930 0.8930
2356.898540 0.8932 0.8942 0.8950 0.8950 0.8951
2361.911086 0.8956 0.8960 0.8960 0.8960 0.8960
2366.923633 0.8961 0.8966 0.8970 0.8970 0.8971
2371.936179 0.8976 0.8980 0.8980 0.8982 0.8992
2376.948726 0.9000 0.9000 0.9001 0.9006 0.9010
2381.961272 0.9010 0.9009 0.9004 0.8998 0.8988
2386.973818 0.8980 0.8980 0.8982 0.8992 0.9000
2391.986365 0.9000 0.9000 0.9000 0.9000 0.9000
2396.998911 0.9000 0.9000 0.8998 0.8988 0.8980
2402.011457 0.8980 0.8983 0.8998 0.9010 0.9010
2407.024004 0.9010 0.9010 0.9010 0.9010 0.9011
2412.036550 0.9016 0.9020 0.9020 0.9020 0.9020
2417.049097 0.9020 0.9020 0.9020 0.9020 0.9019
2422.061643 0.9014 0.9010 0.9010 0.9010 0.9010
2427.074189 0.9010 0.9010 0.9010 0.9010 0.9010
2432.086736 0.9010 0.9010 0.9010 0.9010 0.9010
2437.099282 0.9010 0.9010 0.9010 0.9010 0.9010
2442.111828 0.9010 0.9010 0.9010 0.9010 0.9010
2447.124375 0.9010 0.9010 0.9010 0.9010 0.9010
2452.136921 0.9010 0.9011 0.9016 0.9020 0.9020
2457.149468 0.9021 0.9026 0.9030 0.9030 0.9030
2462.162014 0.9030 0.9022 0.8987 0.8971 0.9016
2467.174560 0.9052 0.9062 0.9069 0.9064 0.9055
2472.187107 0.9035 0.9020 0.9020 0.9019 0.9014
2477.199653 0.9010 0.9010 0.9009 0.9004 0.9000
2482.212199 0.9000 0.9000 0.9000 0.9000 0.9000
2487.224746 0.9000 0.9000 0.9000 0.9000 0.9000
2492.237292 0.9000 0.9000 0.9000 0.9000 0.9000
2497.249839 0.8998 0.8988 0.8980 0.8980 0.8980
2502.262385 0.8980 0.8980 0.8980 0.8980 0.8980
2507.274931 0.8980 0.8980 0.8983 0.8993 0.9000
2512.287478 0.9000 0.9000 0.9000 0.9000 0.9000
2517.300024 0.9000 0.9000 0.9000 0.9000 0.9001
2522.312570 0.9006 0.9010 0.9010 0.9010 0.9010
2527.325117 0.9009 0.9004 0.9001 0.9006 0.9011
2532.337663 0.9016 0.9020 0.9020 0.9019 0.9014
2537.350210 0.9010 0.9010 0.9010 0.9010 0.9010
2542.362756 0.9010 0.9010 0.9010 0.9010 0.9010
2547.375302 0.9010 0.9010 0.9011 0.9016 0.9020
2552.387849 0.9020 0.9020 0.9020 0.9020 0.9020
2557.400395 0.9020 0.9020 0.9020 0.9020 0.9020
2562.412941 0.9020 0.9019 0.9014 0.9010 0.9010
2567.425488 0.9006 0.8991 0.8980 0.8980 0.8986
2572.438034 0.9006 0.9020 0.9020 0.9019 0.9014
2577.450581 0.9010 0.9010 0.9010 0.9010 0.9009
2582.463127 0.9004 0.9000 0.9000 0.9000 0.9000
2587.475673 0.9000 0.9000 0.9000 0.9000 0.9000
2592.488220 0.9000 0.9000 0.9000 0.9001 0.9006
2597.500766 0.9010 0.9010 0.9010 0.9010 0.9010
2602.513312 0.9010 0.9010 0.9010 0.9010 0.9010
2607.525859 0.9010 0.9010 0.9010 0.9010 0.9008
2612.538405 0.9003 0.9000 0.9000 0.9000 0.9000
2617.550952 0.8997 0.8987 0.8980 0.8980 0.8983
2622.563498 0.8993 0.9000 0.9000 0.9003 0.9013
2627.576044 0.9020 0.9020 0.9022 0.9027 0.9030
2632.588591 0.9030 0.9030 0.9030 0.9030 0.9030
2637.601137 0.9030 0.9030 0.9030 0.9030 0.9028
2642.613683 0.9023 0.9020 0.9020 0.9020 0.9020
2647.626230 0.9020 0.9020 0.9020 0.9020 0.9020
2652.638776 0.9020 0.9020 0.9020 0.9020 0.9020
2657.651323 0.9020 0.9020 0.9020 0.9020 0.9020
2662.663869 0.9020 0.9018 0.9013 0.9010 0.9010
2667.676415 0.9010 0.9010 0.9005 0.8990 0.8978
2672.688962 0.8973 0.8968 0.8963 0.8960 0.8960
2677.701508 0.8953 0.8933 0.8920 0.8920 0.8925
2682.714054 0.8940 0.8952 0.8957 0.8962 0.8967
2687.726601 0.8972 0.8977 0.8983 0.8993 0.9000
2692.739147 0.9000 0.9000 0.9000 0.9000 0.9000
2697.751694 0.9000 0.9000 0.9002 0.9007 0.9010
2702.764240 0.9010 0.9010 0.9010 0.9010 0.9010
2707.776786 0.9010 0.9010 0.9010 0.9010 0.9010
2712.789333 0.9010 0.9010 0.9010 0.9010 0.9010
2717.801879 0.9010 0.9010 0.9010 0.9010 0.9008
2722.814425 0.9003 0.9000 0.9000 0.9000 0.9000
2727.826972 0.9000 0.9000 0.9000 0.9000 0.9000
2732.839518 0.9000 0.9000 0.9000 0.9000 0.9000
2737.852065 0.9002 0.9007 0.9008 0.9003 0.9000
2742.864611 0.9000 0.9000 0.9000 0.9000 0.9000
2747.877157 0.9000 0.9000 0.9000 0.9000 0.9000
2752.889704 0.9000 0.9000 0.9000 0.9000 0.9000
2757.902250 0.9000 0.9000 0.8996 0.8986 0.8980
2762.914796 0.8980 0.8978 0.8973 0.8970 0.8970
2767.927343 0.8968 0.8963 0.8958 0.8953 0.8944
2772.939889 0.8929 0.8920 0.8920 0.8928 0.8948
2777.952436 0.8960 0.8960 0.8962 0.8967 0.8970
2782.964982 0.8970 0.8970 0.8970 0.8970 0.8970
2787.977528 0.8968 0.8963 0.8958 0.8953 0.8950
2792.990075 0.8950 0.8946 0.8936 0.8930 0.8930
2798.002621 0.8928 0.8923 0.8918 0.8913 0.8910
2803.015167 0.8910 0.8910 0.8910 0.8910 0.8910
2808.027714 0.8910 0.8910 0.8910 0.8910 0.8908
2813.040260 0.8903 0.8900 0.8900 0.8896 0.8886
2818.052807 0.8876 0.8866 0.8854 0.8839 0.8828
2823.065353 0.8823 0.8818 0.8813 0.8804 0.8789
2828.077899 0.8778 0.8773 0.8766 0.8756 0.8744
2833.090446 0.8729 0.8716 0.8706 0.8694 0.8679
2838.102992 0.8660 0.8635 0.8616 0.8606 0.8589
2843.115538 0.8564 0.8544 0.8529 0.8516 0.8506
2848.128085 0.8485 0.8450 0.8428 0.8423 0.8420
2853.140631 0.8420 0.8420 0.8420 0.8422 0.8427
2858.153178 0.8438 0.8458 0.8481 0.8506 0.8540
2863.165724 0.8585 0.8621 0.8646 0.8664 0.8674
2868.178270 0.8684 0.8694 0.8702 0.8707 0.8712
2873.190817 0.8717 0.8720 0.8720 0.8718 0.8713
2878.203363 0.8710 0.8710 0.8708 0.8703 0.8700
2883.215909 0.8700 0.8696 0.8686 0.8678 0.8673
2888.228456 0.8670 0.8670 0.8670 0.8670 0.8668
2893.241002 0.8663 0.8660 0.8660 0.8660 0.8660
2898.253549 0.8660 0.8660 0.8658 0.8653 0.8643
2903.266095 0.8628 0.8618 0.8613 0.8603 0.8588
2908.278641 0.8573 0.8558 0.8534 0.8499 0.8478
2913.291188 0.8473 0.8454 0.8419 0.8382 0.8342
2918.303734 0.8286 0.8211 0.8134 0.8053 0.7984
2923.316280 0.7929 0.7888 0.7863 0.7838 0.7813
2928.328827 0.7793 0.7778 0.7768 0.7763 0.7758
2933.341373 0.7753 0.7741 0.7721 0.7696 0.7666
2938.353920 0.7615 0.7541 0.7463 0.7382 0.7292
2943.366466 0.7192 0.7109 0.7044 0.6958 0.6848
2948.379012 0.6783 0.6768 0.6762 0.6767 0.6803
2953.391559 0.6873 0.6945 0.7020 0.7098 0.7178
2958.404105 0.7265 0.7360 0.7443 0.7514 0.7572
2963.416651 0.7617 0.7660 0.7699 0.7737 0.7772
2968.429198 0.7795 0.7805 0.7812 0.7817 0.7820
2973.441744 0.7820 0.7818 0.7813 0.7805 0.7795
2978.454291 0.7783 0.7768 0.7758 0.7753 0.7740
2983.466837 0.7720 0.7708 0.7703 0.7698 0.7693
2988.479383 0.7680 0.7660 0.7640 0.7620 0.7600
2993.491930 0.7580 0.7563 0.7548 0.7535 0.7525
2998.504476 0.7505 0.7475 0.7448 0.7422 0.7400
3003.517022 0.7380 0.7357 0.7332 0.7307 0.7282
3008.529569 0.7252 0.7217 0.7165 0.7095 0.7022
3013.542115 0.6947 0.6857 0.6752 0.6615 0.6445
3018.554662 0.6247 0.6022 0.5854 0.5743 0.5628
3023.567208 0.5508 0.5447 0.5442 0.5481 0.5561
3028.579754 0.5610 0.5630 0.5650 0.5670 0.5695
3033.592301 0.5725 0.5771 0.5831 0.5909 0.6004
3038.604847 0.6106 0.6216 0.6352 0.6514 0.6651
3043.617393 0.6766 0.6831 0.6851 0.6860 0.6860
3048.629940 0.6847 0.6822 0.6768 0.6688 0.6611
3053.642486 0.6536 0.6440 0.6325 0.6267 0.6262
3058.655033 0.6270 0.6290 0.6371 0.6507 0.6624
3063.667579 0.6724 0.6837 0.6962 0.7095 0.7235
3068.680125 0.7305 0.7315 0.7315 0.7305 0.7289
3073.692672 0.7269 0.7201 0.7091 0.6989 0.6894
3078.705218 0.6837 0.6812 0.6805 0.6815 0.6930
3083.717764 0.7130 0.7313 0.7483 0.7670 0.7869
3088.730311 0.8028 0.8153 0.8215 0.8225 0.8230
3093.742857 0.8230 0.8230 0.8230 0.8230 0.8230
3098.755404 0.8230 0.8230 0.8235 0.8246 0.8284
3103.767950 0.8344 0.8392 0.8432 0.8470 0.8505
3108.780496 0.8548 0.8598 0.8637 0.8667 0.8686
3113.793043 0.8696 0.8703 0.8708 0.8716 0.8726
3118.805589 0.8730 0.8730 0.8738 0.8753 0.8766
3123.818135 0.8776 0.8780 0.8780 0.8780 0.8780
3128.830682 0.8786 0.8796 0.8800 0.8800 0.8800
3133.843228 0.8800 0.8800 0.8800 0.8800 0.8800
3138.855775 0.8800 0.8800 0.8800 0.8800 0.8800
3143.868321 0.8800 0.8800 0.8800 0.8800 0.8800
3148.880867 0.8800 0.8800 0.8803 0.8808 0.8810
3153.893414 0.8810 0.8813 0.8818 0.8823 0.8828
3158.905960 0.8836 0.8846 0.8850 0.8850 0.8850
3163.918506 0.8850 0.8853 0.8858 0.8860 0.8860
3168.931053 0.8863 0.8868 0.8870 0.8870 0.8870
3173.943599 0.8870 0.8873 0.8878 0.8880 0.8880
3178.956146 0.8880 0.8880 0.8880 0.8880 0.8886
3183.968692 0.8896 0.8900 0.8900 0.8900 0.8900
3188.981238 0.8900 0.8900 0.8900 0.8900 0.8900
3193.993785 0.8900 0.8900 0.8900 0.8906 0.8916
3199.006331 0.8920 0.8920 0.8914 0.8904 0.8900
3204.018877 0.8900 0.8900 0.8900 0.8900 0.8900
3209.031424 0.8900 0.8900 0.8900 0.8900 0.8903
3214.043970 0.8908 0.8910 0.8910 0.8910 0.8910
3219.056517 0.8913 0.8918 0.8920 0.8920 0.8917
3224.069063 0.8912 0.8910 0.8910 0.8910 0.8910
3229.081609 0.8913 0.8918 0.8920 0.8920 0.8920
3234.094156 0.8920 0.8923 0.8928 0.8930 0.8930
3239.106702 0.8927 0.8922 0.8920 0.8920 0.8920
3244.119248 0.8920 0.8920 0.8920 0.8920 0.8920
3249.131795 0.8920 0.8920 0.8920 0.8920 0.8923
3254.144341 0.8928 0.8930 0.8930 0.8930 0.8930
3259.156888 0.8927 0.8922 0.8920 0.8920 0.8920
3264.169434 0.8920 0.8923 0.8928 0.8930 0.8930
3269.181980 0.8930 0.8930 0.8930 0.8930 0.8930
3274.194527 0.8930 0.8930 0.8930 0.8930 0.8930
3279.207073 0.8924 0.8914 0.8910 0.8910 0.8910
3284.219619 0.8910 0.8910 0.8910 0.8910 0.8910
3289.232166 0.8910 0.8910 0.8910 0.8910 0.8910
3294.244712 0.8910 0.8910 0.8910 0.8916 0.8926
3299.257259 0.8930 0.8930 0.8930 0.8930 0.8930
3304.269805 0.8930 0.8930 0.8930 0.8930 0.8930
3309.282351 0.8930 0.8930 0.8937 0.8947 0.8943
3314.294898 0.8933 0.8927 0.8922 0.8920 0.8920
3319.307444 0.8920 0.8920 0.8920 0.8920 0.8920
3324.319990 0.8920 0.8920 0.8920 0.8920 0.8920
3329.332537 0.8920 0.8920 0.8920 0.8920 0.8923
3334.345083 0.8928 0.8930 0.8930 0.8930 0.8930
3339.357630 0.8930 0.8930 0.8930 0.8930 0.8930
3344.370176 0.8930 0.8930 0.8930 0.8930 0.8930
3349.382722 0.8930 0.8930 0.8930 0.8930 0.8937
3354.395269 0.8947 0.8950 0.8950 0.8950 0.8950
3359.407815 0.8943 0.8933 0.8927 0.8922 0.8920
3364.420361 0.8920 0.8920 0.8920 0.8923 0.8928
3369.432908 0.8930 0.8930 0.8927 0.8922 0.8920
3374.445454 0.8920 0.8920 0.8920 0.8920 0.8920
3379.458001 0.8920 0.8920 0.8920 0.8920 0.8920
3384.470547 0.8920 0.8920 0.8920 0.8920 0.8920
3389.483093 0.8920 0.8920 0.8923 0.8928 0.8930
3394.495640 0.8930 0.8930 0.8930 0.8923 0.8913
3399.508186 0.8910 0.8910 0.8917 0.8927 0.8930
3404.520732 0.8930 0.8930 0.8930 0.8937 0.8947
3409.533279 0.8950 0.8950 0.8950 0.8950 0.8950
3414.545825 0.8950 0.8950 0.8950 0.8950 0.8950
3419.558372 0.8950 0.8950 0.8950 0.8950 0.8950
3424.570918 0.8950 0.8950 0.8950 0.8943 0.8933
3429.583464 0.8930 0.8930 0.8930 0.8930 0.8930
3434.596011 0.8930 0.8930 0.8930 0.8930 0.8930
3439.608557 0.8930 0.8930 0.8930 0.8930 0.8930
3444.621103 0.8930 0.8926 0.8921 0.8920 0.8920
3449.633650 0.8920 0.8920 0.8920 0.8920 0.8924
3454.646196 0.8929 0.8930 0.8930 0.8937 0.8947
3459.658743 0.8950 0.8950 0.8950 0.8950 0.8950
3464.671289 0.8950 0.8950 0.8950 0.8950 0.8950
3469.683835 0.8950 0.8950 0.8950 0.8950 0.8950
3474.696382 0.8950 0.8950 0.8950 0.8950 0.8950
3479.708928 0.8950 0.8950 0.8950 0.8950 0.8950
3484.721474 0.8950 0.8950 0.8950 0.8950 0.8950
3489.734021 0.8950 0.8950 0.8950 0.8950 0.8950
3494.746567 0.8950 0.8950 0.8950 0.8950 0.8950
3499.759114 0.8950 0.8950 0.8950 0.8950 0.8950
3504.771660 0.8950 0.8950 0.8950 0.8950 0.8950
3509.784206 0.8950 0.8950 0.8950 0.8950 0.8950
3514.796753 0.8950 0.8950 0.8950 0.8950 0.8950
3519.809299 0.8950 0.8950 0.8950 0.8950 0.8950
3524.821845 0.8950 0.8950 0.8950 0.8950 0.8950
3529.834392 0.8950 0.8950 0.8950 0.8950 0.8950
3534.846938 0.8950 0.8942 0.8932 0.8930 0.8930
3539.859485 0.8930 0.8930 0.8930 0.8930 0.8930
3544.872031 0.8930 0.8930 0.8930 0.8930 0.8930
3549.884577 0.8930 0.8930 0.8930 0.8930 0.8930
3554.897124 0.8930 0.8930 0.8930 0.8930 0.8930
3559.909670 0.8930 0.8930 0.8930 0.8930 0.8930
3564.922216 0.8930 0.8930 0.8930 0.8938 0.8948
3569.934763 0.8950 0.8950 0.8950 0.8950 0.8950
3574.947309 0.8950 0.8938 0.8923 0.8920 0.8920
3579.959856 0.8916 0.8911 0.8910 0.8910 0.8918
3584.972402 0.8928 0.8930 0.8930 0.8930 0.8930
3589.984948 0.8930 0.8930 0.8930 0.8930 0.8930
3594.997495 0.8930 0.8930 0.8930 0.8930 0.8930
3600.010041 0.8926 0.8921 0.8916 0.8911 0.8906
3605.022587 0.8901 0.8900 0.8900 0.8892 0.8882
3610.035134 0.8876 0.8871 0.8870 0.8870 0.8882
3615.047680 0.8897 0.8900 0.8900 0.8904 0.8909
3620.060227 0.8910 0.8910 0.8898 0.8883 0.8880
3625.072773 0.8880 0.8888 0.8898 0.8904 0.8909
3630.085319 0.8910 0.8910 0.8906 0.8901 0.8888
3635.097866 0.8873 0.8866 0.8861 0.8856 0.8851
3640.110412 0.8842 0.8832 0.8826 0.8821 0.8820
3645.122958 0.8820 0.8837 0.8857 0.8877 0.8897
3650.135505 0.8900 0.8900 0.8900 0.8900 0.8900
3655.148051 0.8900 0.8900 0.8900 0.8900 0.8900
3660.160598 0.8900 0.8900 0.8883 0.8863 0.8856
3665.173144 0.8851 0.8842 0.8832 0.8830 0.8830
3670.185690 0.8838 0.8848 0.8871 0.8896 0.8904
3675.198237 0.8909 0.8910 0.8910 0.8910 0.8910
3680.210783 0.8885 0.8855 0.8850 0.8850 0.8859
3685.223329 0.8869 0.8883 0.8898 0.8904 0.8909
3690.235876 0.8910 0.8910 0.8914 0.8919 0.8920
3695.248422 0.8920 0.8920 0.8920 0.8920 0.8920
3700.260969 0.8903 0.8883 0.8871 0.8861 0.8864
3705.273515 0.8869 0.8874 0.8879 0.8893 0.8908
3710.286061 0.8910 0.8910 0.8914 0.8919 0.8920
3715.298608 0.8920 0.8920 0.8920 0.8916 0.8911
3720.311154 0.8910 0.8910 0.8910 0.8910 0.8906
3725.323700 0.8901 0.8900 0.8900 0.8900 0.8900
3730.336247 0.8891 0.8881 0.8871 0.8861 0.8856
3735.348793 0.8851 0.8850 0.8850 0.8850 0.8850
3740.361340 0.8841 0.8831 0.8830 0.8830 0.8830
3745.373886 0.8830 0.8843 0.8858 0.8869 0.8879
3750.386432 0.8893 0.8908 0.8914 0.8919 0.8920
3755.398979 0.8920 0.8920 0.8920 0.8920 0.8920
3760.411525 0.8924 0.8929 0.8930 0.8930 0.8926
3765.424071 0.8921 0.8920 0.8920 0.8920 0.8920
3770.436618 0.8920 0.8920 0.8924 0.8929 0.8930
3775.449164 0.8930 0.8930 0.8930 0.8930 0.8930
3780.461711 0.8930 0.8930 0.8930 0.8930 0.8930
3785.474257 0.8930 0.8925 0.8921 0.8920 0.8920
3790.486803 0.8920 0.8920 0.8916 0.8911 0.8910
3795.499350 0.8910 0.8910 0.8910 0.8906 0.8901
3800.511896 0.8900 0.8900 0.8891 0.8881 0.8880
3805.524442 0.8880 0.8880 0.8880 0.8880 0.8880
3810.536989 0.8875 0.8870 0.8870 0.8870 0.8870
3815.549535 0.8870 0.8870 0.8870 0.8870 0.8870
3820.562082 0.8870 0.8870 0.8870 0.8870 0.8865
3825.574628 0.8860 0.8855 0.8850 0.8841 0.8831
3830.587174 0.8830 0.8830 0.8830 0.8830 0.8830
3835.599721 0.8830 0.8839 0.8849 0.8841 0.8831
3840.612267 0.8830 0.8830 0.8825 0.8820 0.8815
3845.624813 0.8810 0.8805 0.8800 0.8805 0.8810
3850.637360 0.8815 0.8820 0.8834 0.8849 0.8850
3855.649906 0.8850 0.8855 0.8860 0.8860 0.8860
3860.662453 0.8837 0.8812 0.8810 0.8810 0.8815
3865.674999 0.8820 0.8820 0.8820 0.8820 0.8820
3870.687545 0.8820 0.8820 0.8815 0.8810 0.8810
3875.700092 0.8810 0.8810 0.8810 0.8810 0.8810
3880.712638 0.8810 0.8810 0.8815 0.8820 0.8825
3885.725184 0.8830 0.8840 0.8850 0.8850 0.8850
3890.737731 0.8836 0.8821 0.8815 0.8810 0.8805
3895.750277 0.8800 0.8800 0.8800 0.8814 0.8829
3900.762824 0.8830 0.8830 0.8830 0.8830 0.8830
3905.775370 0.8830 0.8840 0.8850 0.8850 0.8850
3910.787916 0.8836 0.8821 0.8820 0.8820 0.8820
3915.800463 0.8820 0.8820 0.8820 0.8820 0.8820
3920.813009 0.8825 0.8830 0.8840 0.8850 0.8850
3925.825555 0.8850 0.8855 0.8860 0.8860 0.8860
3930.838102 0.8860 0.8860 0.8860 0.8860 0.8855
3935.850648 0.8850 0.8850 0.8850 0.8850 0.8850
3940.863195 0.8840 0.8830 0.8825 0.8820 0.8815
3945.875741 0.8810 0.8810 0.8810 0.8810 0.8810
3950.888287 0.8810 0.8810 0.8810 0.8810 0.8810
3955.900834 0.8810 0.8810 0.8810 0.8810 0.8810
3960.913380 0.8810 0.8810 0.8810 0.8810 0.8810
3965.925926 0.8810 0.8810 0.8810 0.8805 0.8800
3970.938473 0.8800 0.8800 0.8800 0.8800 0.8805
3975.951019 0.8810 0.8810 0.8810 0.8810 0.8810
3980.963566 0.8805 0.8800 0.8805 0.8810 0.8810
3985.976112 0.8810 0.8815 0.8820 0.8825 0.8830
3990.988658 0.8840 0.8850 0.8850 0.8850
##END=
