##TITLE=BENZONITRILE, 3,5-BIS(TRIFLUOROMETHYL)-
##JCAMP-DX=4.24
##DATA TYPE=INFRARED SPECTRUM
##CLASS=COBLENTZ
##ORIGIN=DOW CHEMICAL COMPANY
##OWNER=COBLENTZ SOC.
Collection (C) 2018 copyright by the U.S. Secretary of Commerce
on behalf of the United States of America. All rights reserved.
##DATE=1965/10/05
##NAMES=3,5-bis(trifluoromethyl)benzonitrile
##CAS REGISTRY NO=27126-93-8
##MOLFORM=C9 H3 F6 N
##SOURCE REFERENCE=COBLENTZ NO. 07652
##$NIST SOURCE=COBLENTZ
##$NIST IMAGE=cob7652
##SPECTROMETER/DATA SYSTEM=DOW KBr FOREPRISM-GRATING
##INSTRUMENT PARAMETERS=BLAZED AT 3.5, 12.0, 20.0 MICRON AND CHANGED AT 5.0, 7.5, 14.9 MICRON
##STATE=SOLUTION (10% CCl4 FOR 3800-460 CM^-^1)
$$ NOT SOLUBLE IN CS2
##PATH LENGTH=0.011 CM
$$SPECTRAL CONTAMINATION DUE TO CCl4 AROUND 1550, 1200-1260, 1000, 720-820 CM^-^1
##SAMPLING PROCEDURE=TRANSMISSION
##RESOLUTION=2
##DATA PROCESSING=DIGITIZED BY COBLENTZ SOCIETY (BATCH I) FROM HARD COPY
##XUNITS=1/CM
##YUNITS=TRANSMITTANCE
##XLABEL=Wavenumbers (cm-1)
##YLABEL=% Transmission
##XFACTOR=1
##YFACTOR=1
##DELTAX=1
##FIRSTX=460
##LASTX=3800
##FIRSTY=0.6419
##MAXX=3800
##MINX=460
##MAXY=0.9005
##MINY=0
##NPOINTS=3341
##XYDATA=(X++(Y..Y))
460.000000 0.6419 0.6421 0.6422 0.6425 0.6426
465.000000 0.6428 0.6428 0.6434 0.6440 0.6446
470.000000 0.6453 0.6458 0.6465 0.6469 0.6471
475.000000 0.6474 0.6494 0.6515 0.6536 0.6574
480.000000 0.6619 0.6665 0.6711 0.6754 0.6797
485.000000 0.6839 0.6881 0.6925 0.6974 0.7022
490.000000 0.7071 0.7119 0.7165 0.7208 0.7254
495.000000 0.7299 0.7344 0.7384 0.7421 0.7458
500.000000 0.7497 0.7522 0.7545 0.7565 0.7587
505.000000 0.7608 0.7625 0.7634 0.7643 0.7653
510.000000 0.7661 0.7665 0.7667 0.7668 0.7669
515.000000 0.7671 0.7672 0.7675 0.7675 0.7668
520.000000 0.7665 0.7661 0.7655 0.7644 0.7632
525.000000 0.7621 0.7608 0.7588 0.7568 0.7526
530.000000 0.7486 0.7442 0.7368 0.7289 0.7201
535.000000 0.7058 0.6905 0.6750 0.6596 0.6500
540.000000 0.6471 0.6483 0.6588 0.6754 0.6921
545.000000 0.7087 0.7208 0.7268 0.7325 0.7381
550.000000 0.7443 0.7496 0.7533 0.7565 0.7590
555.000000 0.7615 0.7636 0.7649 0.7662 0.7676
560.000000 0.7688 0.7700 0.7711 0.7719 0.7726
565.000000 0.7731 0.7733 0.7735 0.7737 0.7739
570.000000 0.7739 0.7739 0.7739 0.7739 0.7740
575.000000 0.7751 0.7762 0.7776 0.7793 0.7808
580.000000 0.7825 0.7843 0.7862 0.7883 0.7900
585.000000 0.7914 0.7928 0.7942 0.7956 0.7968
590.000000 0.7978 0.7989 0.8000 0.8011 0.8019
595.000000 0.8024 0.8028 0.8033 0.8037 0.8041
600.000000 0.8045 0.8046 0.8045 0.8044 0.8042
605.000000 0.8040 0.8035 0.8028 0.8019 0.8012
610.000000 0.8006 0.7993 0.7975 0.7958 0.7932
615.000000 0.7894 0.7857 0.7818 0.7765 0.7701
620.000000 0.7638 0.7562 0.7475 0.7389 0.7300
625.000000 0.7208 0.7092 0.6698 0.6160 0.5622
630.000000 0.5084 0.4660 0.4660 0.5017 0.5417
635.000000 0.5817 0.6216 0.6615 0.7015 0.7415
640.000000 0.7815 0.7931 0.7953 0.7962 0.7965
645.000000 0.7968 0.7971 0.7972 0.7971 0.7971
650.000000 0.7975 0.7968 0.7965 0.7960 0.7950
655.000000 0.7941 0.7932 0.7922 0.7915 0.7907
660.000000 0.7898 0.7882 0.7861 0.7842 0.7819
665.000000 0.7797 0.7774 0.7751 0.7715 0.7674
670.000000 0.7630 0.7585 0.7567 0.7571 0.7574
675.000000 0.7590 0.7635 0.7661 0.7674 0.7680
680.000000 0.6212 0.4667 0.3123 0.1578 0.0044
685.000000 0.0051 0.0572 0.1778 0.2984 0.4191
690.000000 0.5397 0.6411 0.6421 0.5916 0.5020
695.000000 0.4125 0.3229 0.2333 0.1437 0.0542
700.000000 0.0308 0.0758 0.1801 0.2844 0.3888
705.000000 0.4931 0.5980 0.6032 0.6032 0.6032
710.000000 0.6036 0.5945 0.5797 0.5648 0.5500
715.000000 0.5352 0.5179 0.5065 0.4968 0.4817
720.000000 0.4112 0.3396 0.2011 0.0437 0.0438
725.000000 0.0748 0.1079 0.1410 0.1741 0.1852
730.000000 0.1752 0.1459 0.1165 0.0872 0.0579
735.000000 0.0285 0.0001 0.0001 0.0001 0.0001
740.000000 0.0001 0.0001 0.0001 0.0001 0.0001
745.000000 0.0001 0.0001 0.0001 0.0001 0.0001
750.000000 0.0001 0.0001 0.0001 0.0001 0.0001
755.000000 0.0001 0.0001 0.0001 0.0001 0.0001
760.000000 0.0001 0.0001 0.0001 0.0001 0.0001
765.000000 0.0001 0.0001 0.0001 0.0001 0.0001
770.000000 0.0001 0.0000 0.0000 0.0000 0.0000
775.000000 0.0000 0.0000 0.0000 0.0000 0.0000
780.000000 0.0000 0.0000 0.0000 0.0000 0.0000
785.000000 0.0000 0.0000 0.0000 0.0000 0.0000
790.000000 0.0000 0.0000 0.0000 0.0000 0.0000
795.000000 0.0000 0.0000 0.0000 0.0000 0.0000
800.000000 0.0000 0.0000 0.0000 0.0000 0.0000
805.000000 0.0000 0.0000 0.0000 0.0000 0.0022
810.000000 0.0064 0.0105 0.0156 0.0222 0.0297
815.000000 0.0377 0.0489 0.0624 0.0766 0.0918
820.000000 0.1122 0.1430 0.1854 0.2144 0.2340
825.000000 0.2524 0.2744 0.3048 0.3352 0.3656
830.000000 0.3959 0.4264 0.4569 0.4789 0.4910
835.000000 0.5033 0.5245 0.5436 0.5580 0.5660
840.000000 0.5709 0.5733 0.5733 0.5723 0.5701
845.000000 0.5608 0.5177 0.4574 0.3972 0.3368
850.000000 0.2766 0.2339 0.2340 0.2347 0.3031
855.000000 0.3782 0.4535 0.5287 0.6039 0.6791
860.000000 0.7021 0.7112 0.7182 0.7218 0.7245
865.000000 0.7272 0.7301 0.7334 0.7368 0.7411
870.000000 0.7460 0.7494 0.7525 0.7546 0.7554
875.000000 0.7551 0.7565 0.7535 0.7524 0.7500
880.000000 0.7472 0.7430 0.7376 0.7305 0.7201
885.000000 0.6985 0.6485 0.6308 0.5752 0.4155
890.000000 0.2558 0.0961 0.0872 0.1939 0.2861
895.000000 0.3782 0.4704 0.5625 0.6390 0.6384
900.000000 0.6400 0.4488 0.3274 0.2060 0.0845
905.000000 0.0049 0.0059 0.0741 0.1696 0.2654
910.000000 0.3610 0.4567 0.5524 0.6349 0.6874
915.000000 0.7225 0.7368 0.7461 0.7522 0.7586
920.000000 0.7624 0.7668 0.7662 0.7658 0.7617
925.000000 0.7517 0.7454 0.7426 0.7418 0.7476
930.000000 0.7648 0.7818 0.7928 0.7983 0.8024
935.000000 0.8048 0.8071 0.8089 0.8107 0.8121
940.000000 0.8128 0.8137 0.8145 0.8148 0.8151
945.000000 0.8154 0.8158 0.8158 0.8160 0.8154
950.000000 0.8148 0.8141 0.8133 0.8121 0.8101
955.000000 0.8080 0.8051 0.8018 0.7981 0.7942
960.000000 0.7887 0.7831 0.7775 0.7718 0.7657
965.000000 0.7576 0.7497 0.7404 0.7301 0.7204
970.000000 0.7131 0.7058 0.6976 0.6889 0.6790
975.000000 0.6696 0.6637 0.6618 0.6611 0.6612
980.000000 0.6626 0.6657 0.6704 0.6754 0.6805
985.000000 0.6858 0.6908 0.6958 0.6968 0.6968
990.000000 0.6967 0.6965 0.6957 0.6948 0.6928
995.000000 0.6905 0.6874 0.6832 0.6762 0.6658
1000.000000 0.6551 0.6441 0.6299 0.6221 0.6181
1005.000000 0.6170 0.6177 0.6185 0.6203 0.6238
1010.000000 0.6285 0.6364 0.6451 0.6531 0.6611
1015.000000 0.6691 0.6769 0.6850 0.6942 0.7039
1020.000000 0.7221 0.7519 0.7698 0.7803 0.7895
1025.000000 0.7991 0.8093 0.8178 0.8234 0.8275
1030.000000 0.8300 0.8321 0.8331 0.8340 0.8349
1035.000000 0.8358 0.8358 0.8359 0.8359 0.8370
1040.000000 0.8355 0.8353 0.8350 0.8347 0.8343
1045.000000 0.8340 0.8336 0.8332 0.8327 0.8321
1050.000000 0.8312 0.8300 0.8288 0.8259 0.8221
1055.000000 0.8186 0.8149 0.8112 0.8075 0.8040
1060.000000 0.8003 0.7967 0.7932 0.7907 0.7881
1065.000000 0.7871 0.7861 0.7860 0.7858 0.7862
1070.000000 0.7867 0.7871 0.7875 0.7880 0.7884
1075.000000 0.7888 0.7891 0.7894 0.7897 0.7900
1080.000000 0.7901 0.7905 0.7908 0.7915 0.7928
1085.000000 0.7932 0.7921 0.7915 0.7890 0.7861
1090.000000 0.7825 0.7790 0.7753 0.7715 0.7655
1095.000000 0.7591 0.7526 0.7462 0.7403 0.7345
1100.000000 0.6696 0.6072 0.6001 0.5956 0.5909
1105.000000 0.5855 0.5785 0.5642 0.4360 0.2931
1110.000000 0.1503 0.0989 0.1391 0.2414 0.3436
1115.000000 0.4459 0.4710 0.4738 0.4762 0.4806
1120.000000 0.5379 0.5476 0.5510 0.5526 0.5527
1125.000000 0.5534 0.5458 0.5358 0.5259 0.5159
1130.000000 0.4856 0.4384 0.3959 0.3537 0.3113
1135.000000 0.2689 0.2266 0.1842 0.1418 0.0995
1140.000000 0.0571 0.0148 0.0000 0.0000 0.0000
1145.000000 0.0000 0.0000 0.0000 0.0000 0.0000
1150.000000 0.0000 0.0000 0.0001 0.0001 0.0001
1155.000000 0.0001 0.0001 0.0001 0.0001 0.0001
1160.000000 0.0001 0.0042 0.0090 0.0137 0.0184
1165.000000 0.0233 0.0271 0.0311 0.0366 0.0399
1170.000000 0.0407 0.0407 0.0407 0.0322 0.0214
1175.000000 0.0108 0.0002 0.0001 0.0001 0.0001
1180.000000 0.0001 0.0000 0.0000 0.0000 0.0000
1185.000000 0.0000 0.0000 0.0000 0.0000 0.0000
1190.000000 0.0000 0.0000 0.0000 0.0000 0.0002
1195.000000 0.0017 0.0048 0.0097 0.0148 0.0390
1200.000000 0.0843 0.1298 0.1893 0.2312 0.2430
1205.000000 0.2561 0.3298 0.3564 0.3780 0.3941
1210.000000 0.4068 0.4218 0.4398 0.4517 0.4526
1215.000000 0.4535 0.4537 0.4529 0.4530 0.4530
1220.000000 0.4531 0.4534 0.4545 0.4571 0.4607
1225.000000 0.4635 0.4642 0.4648 0.4655 0.4662
1230.000000 0.4677 0.4732 0.4857 0.5012 0.5244
1235.000000 0.5357 0.5415 0.5438 0.5462 0.5446
1240.000000 0.5443 0.5430 0.5402 0.5360 0.5316
1245.000000 0.5277 0.5238 0.5184 0.5127 0.5064
1250.000000 0.4993 0.4910 0.4823 0.4726 0.4631
1255.000000 0.4537 0.4410 0.4217 0.4087 0.3977
1260.000000 0.3926 0.3877 0.3832 0.3690 0.3384
1265.000000 0.3079 0.2774 0.2570 0.2481 0.2390
1270.000000 0.2322 0.2261 0.2137 0.1818 0.1498
1275.000000 0.1179 0.0860 0.0540 0.0221 0.0001
1280.000000 0.0000 0.0000 0.0000 0.0001 0.0001
1285.000000 0.0002 0.0082 0.0266 0.0448 0.0895
1290.000000 0.1568 0.2240 0.2913 0.3586 0.3984
1295.000000 0.4079 0.4158 0.4248 0.4318 0.4401
1300.000000 0.4495 0.4710 0.5035 0.5360 0.5666
1305.000000 0.6008 0.6298 0.6476 0.6634 0.6794
1310.000000 0.6997 0.6967 0.6965 0.6944 0.6922
1315.000000 0.6905 0.6888 0.6872 0.6841 0.6660
1320.000000 0.6478 0.6298 0.6241 0.6241 0.6417
1325.000000 0.6646 0.6874 0.7101 0.7321 0.7396
1330.000000 0.7505 0.7578 0.7615 0.7624 0.7628
1335.000000 0.7633 0.7601 0.7558 0.7497 0.7367
1340.000000 0.7228 0.7091 0.6937 0.6926 0.6925
1345.000000 0.6947 0.6982 0.7031 0.7131 0.7186
1350.000000 0.7184 0.7174 0.7068 0.6925 0.6782
1355.000000 0.6638 0.6494 0.6351 0.6173 0.5962
1360.000000 0.5393 0.4474 0.3554 0.3230 0.2980
1365.000000 0.2732 0.2639 0.2563 0.2469 0.2253
1370.000000 0.2146 0.1701 0.1578 0.1504 0.1417
1375.000000 0.1120 0.0736 0.0353 0.0000 0.0000
1380.000000 0.0001 0.0001 0.0473 0.0997 0.1522
1385.000000 0.2045 0.2599 0.3377 0.4185 0.4993
1390.000000 0.5801 0.6399 0.6591 0.7258 0.7319
1395.000000 0.7339 0.7358 0.7358 0.7356 0.7349
1400.000000 0.7349 0.7361 0.7396 0.7489 0.7605
1405.000000 0.7822 0.7965 0.8155 0.8196 0.8218
1410.000000 0.8068 0.7967 0.7865 0.7889 0.7858
1415.000000 0.8401 0.8413 0.8428 0.8416 0.8410
1420.000000 0.8400 0.8380 0.8362 0.8346 0.8330
1425.000000 0.8323 0.8323 0.8336 0.8346 0.8358
1430.000000 0.8370 0.8383 0.8394 0.8399 0.8405
1435.000000 0.8397 0.8394 0.8370 0.8347 0.8320
1440.000000 0.8283 0.8245 0.8206 0.8167 0.8134
1445.000000 0.8101 0.8043 0.7967 0.7876 0.7751
1450.000000 0.7482 0.6996 0.6938 0.6945 0.7094
1455.000000 0.7214 0.7262 0.7196 0.7001 0.6842
1460.000000 0.6410 0.5414 0.5140 0.5148 0.5644
1465.000000 0.5947 0.6251 0.6554 0.6858 0.7161
1470.000000 0.7465 0.7768 0.8031 0.8040 0.8045
1475.000000 0.8031 0.7997 0.7946 0.7908 0.7868
1480.000000 0.7822 0.7798 0.7801 0.7787 0.7839
1485.000000 0.7911 0.8008 0.8101 0.8143 0.8143
1490.000000 0.8143 0.8135 0.8122 0.8106 0.8072
1495.000000 0.8038 0.8001 0.7958 0.7915 0.7869
1500.000000 0.7808 0.7748 0.7688 0.7626 0.7565
1505.000000 0.7505 0.7445 0.7384 0.7322 0.7262
1510.000000 0.7201 0.7141 0.7080 0.7019 0.6958
1515.000000 0.6898 0.6831 0.6757 0.6686 0.6638
1520.000000 0.6594 0.6548 0.6490 0.6428 0.6408
1525.000000 0.6387 0.6362 0.6329 0.6288 0.6240
1530.000000 0.6183 0.6126 0.6062 0.5994 0.5921
1535.000000 0.5842 0.5760 0.5678 0.5588 0.5494
1540.000000 0.5399 0.5301 0.5203 0.5108 0.5031
1545.000000 0.4953 0.4884 0.4816 0.4743 0.4640
1550.000000 0.4555 0.4496 0.4482 0.4469 0.4470
1555.000000 0.4472 0.4479 0.4494 0.4533 0.4575
1560.000000 0.4621 0.4673 0.4731 0.4828 0.4936
1565.000000 0.5034 0.5131 0.5254 0.5376 0.5471
1570.000000 0.5566 0.5692 0.5788 0.5824 0.5843
1575.000000 0.5862 0.5885 0.5912 0.5953 0.6004
1580.000000 0.6042 0.6079 0.6112 0.6146 0.6180
1585.000000 0.6216 0.6253 0.6291 0.6324 0.6357
1590.000000 0.6390 0.6422 0.6460 0.6508 0.6556
1595.000000 0.6606 0.6669 0.6734 0.6798 0.6900
1600.000000 0.7038 0.7184 0.7261 0.7312 0.7346
1605.000000 0.7390 0.7471 0.7555 0.7599 0.7612
1610.000000 0.7621 0.7625 0.7607 0.7558 0.7497
1615.000000 0.7381 0.7214 0.7053 0.6758 0.6054
1620.000000 0.5342 0.4637 0.4639 0.4612 0.5120
1625.000000 0.5530 0.5940 0.6350 0.6760 0.7171
1630.000000 0.7507 0.7960 0.8178 0.8237 0.8260
1635.000000 0.8275 0.8292 0.8320 0.8348 0.8375
1640.000000 0.8404 0.8425 0.8442 0.8458 0.8475
1645.000000 0.8490 0.8502 0.8513 0.8525 0.8532
1650.000000 0.8539 0.8546 0.8553 0.8560 0.8566
1655.000000 0.8573 0.8578 0.8586 0.8605 0.8623
1660.000000 0.8642 0.8675 0.8708 0.8736 0.8749
1665.000000 0.8763 0.8775 0.8781 0.8786 0.8792
1670.000000 0.8797 0.8795 0.8792 0.8789 0.8786
1675.000000 0.8783 0.8780 0.8775 0.8771 0.8766
1680.000000 0.8762 0.8757 0.8748 0.8736 0.8723
1685.000000 0.8711 0.8698 0.8686 0.8694 0.8709
1690.000000 0.8725 0.8741 0.8753 0.8765 0.8771
1695.000000 0.8770 0.8768 0.8767 0.8765 0.8762
1700.000000 0.8759 0.8756 0.8754 0.8751 0.8749
1705.000000 0.8747 0.8744 0.8742 0.8739 0.8737
1710.000000 0.8735 0.8734 0.8718 0.8745 0.8762
1715.000000 0.8783 0.8803 0.8823 0.8825 0.8825
1720.000000 0.8825 0.8825 0.8825 0.8824 0.8823
1725.000000 0.8821 0.8821 0.8820 0.8817 0.8815
1730.000000 0.8813 0.8810 0.8808 0.8805 0.8803
1735.000000 0.8800 0.8797 0.8794 0.8791 0.8788
1740.000000 0.8786 0.8785 0.8784 0.8784 0.8783
1745.000000 0.8782 0.8781 0.8780 0.8780 0.8778
1750.000000 0.8778 0.8778 0.8778 0.8781 0.8784
1755.000000 0.8787 0.8790 0.8793 0.8796 0.8801
1760.000000 0.8805 0.8810 0.8815 0.8818 0.8823
1765.000000 0.8821 0.8821 0.8821 0.8817 0.8811
1770.000000 0.8805 0.8796 0.8786 0.8775 0.8766
1775.000000 0.8755 0.8745 0.8738 0.8731 0.8724
1780.000000 0.8717 0.8712 0.8711 0.8709 0.8708
1785.000000 0.8714 0.8720 0.8725 0.8732 0.8737
1790.000000 0.8742 0.8747 0.8747 0.8746 0.8746
1795.000000 0.8743 0.8739 0.8736 0.8732 0.8723
1800.000000 0.8713 0.8704 0.8695 0.8686 0.8671
1805.000000 0.8655 0.8638 0.8621 0.8601 0.8582
1810.000000 0.8563 0.8542 0.8514 0.8486 0.8459
1815.000000 0.8420 0.8371 0.8321 0.8271 0.8212
1820.000000 0.8145 0.8078 0.7995 0.7892 0.7789
1825.000000 0.7692 0.7597 0.7510 0.7442 0.7415
1830.000000 0.7418 0.7436 0.7533 0.7725 0.7919
1835.000000 0.8114 0.8308 0.8386 0.8405 0.8406
1840.000000 0.8413 0.8383 0.8344 0.8277 0.8210
1845.000000 0.8142 0.8075 0.8007 0.7940 0.7871
1850.000000 0.7815 0.7822 0.7880 0.8075 0.8255
1855.000000 0.8317 0.8383 0.8450 0.8505 0.8532
1860.000000 0.8559 0.8574 0.8589 0.8600 0.8608
1865.000000 0.8615 0.8618 0.8623 0.8625 0.8628
1870.000000 0.8624 0.8618 0.8615 0.8611 0.8611
1875.000000 0.8611 0.8618 0.8628 0.8639 0.8652
1880.000000 0.8668 0.8686 0.8706 0.8725 0.8733
1885.000000 0.8739 0.8745 0.8752 0.8753 0.8754
1890.000000 0.8756 0.8756 0.8755 0.8752 0.8750
1895.000000 0.8748 0.8745 0.8737 0.8728 0.8721
1900.000000 0.8713 0.8703 0.8692 0.8681 0.8668
1905.000000 0.8670 0.8671 0.8675 0.8692 0.8716
1910.000000 0.8742 0.8768 0.8781 0.8792 0.8803
1915.000000 0.8812 0.8820 0.8828 0.8836 0.8839
1920.000000 0.8843 0.8846 0.8849 0.8849 0.8849
1925.000000 0.8849 0.8849 0.8849 0.8849 0.8849
1930.000000 0.8844 0.8839 0.8834 0.8828 0.8824
1935.000000 0.8818 0.8814 0.8809 0.8805 0.8800
1940.000000 0.8795 0.8791 0.8786 0.8781 0.8777
1945.000000 0.8771 0.8767 0.8762 0.8758 0.8753
1950.000000 0.8748 0.8743 0.8738 0.8734 0.8735
1955.000000 0.8735 0.8738 0.8743 0.8753 0.8762
1960.000000 0.8771 0.8780 0.8789 0.8798 0.8806
1965.000000 0.8803 0.8802 0.8801 0.8800 0.8794
1970.000000 0.8789 0.8784 0.8778 0.8773 0.8768
1975.000000 0.8763 0.8758 0.8753 0.8748 0.8743
1980.000000 0.8738 0.8733 0.8728 0.8724 0.8720
1985.000000 0.8717 0.8714 0.8710 0.8707 0.8704
1990.000000 0.8697 0.8690 0.8683 0.8677 0.8670
1995.000000 0.8663 0.8656 0.8650 0.8643 0.8636
2000.000000 0.8628 0.8621 0.8616 0.8604 0.8593
2005.000000 0.8578 0.8564 0.8564 0.8564 0.8565
2010.000000 0.8566 0.8582 0.8599 0.8627 0.8655
2015.000000 0.8697 0.8739 0.8757 0.8775 0.8787
2020.000000 0.8798 0.8803 0.8809 0.8806 0.8804
2025.000000 0.8801 0.8799 0.8797 0.8795 0.8794
2030.000000 0.8794 0.8793 0.8792 0.8790 0.8789
2035.000000 0.8787 0.8786 0.8784 0.8783 0.8781
2040.000000 0.8780 0.8778 0.8775 0.8771 0.8768
2045.000000 0.8766 0.8763 0.8760 0.8758 0.8763
2050.000000 0.8768 0.8775 0.8782 0.8788 0.8795
2055.000000 0.8801 0.8808 0.8814 0.8821 0.8827
2060.000000 0.8833 0.8839 0.8845 0.8850 0.8856
2065.000000 0.8861 0.8867 0.8866 0.8865 0.8863
2070.000000 0.8862 0.8860 0.8858 0.8856 0.8855
2075.000000 0.8853 0.8851 0.8849 0.8849 0.8850
2080.000000 0.8853 0.8859 0.8865 0.8870 0.8875
2085.000000 0.8881 0.8886 0.8891 0.8897 0.8902
2090.000000 0.8907 0.8912 0.8917 0.8921 0.8927
2095.000000 0.8932 0.8937 0.8939 0.8942 0.8944
2100.000000 0.8947 0.8949 0.8952 0.8954 0.8957
2105.000000 0.8959 0.8962 0.8962 0.8962 0.8962
2110.000000 0.8962 0.8962 0.8962 0.8962 0.8962
2115.000000 0.8962 0.8962 0.8962 0.8962 0.8962
2120.000000 0.8962 0.8961 0.8961 0.8959 0.8958
2125.000000 0.8956 0.8954 0.8952 0.8951 0.8949
2130.000000 0.8948 0.8946 0.8944 0.8943 0.8943
2135.000000 0.8943 0.8943 0.8943 0.8936 0.8948
2140.000000 0.8953 0.8961 0.8968 0.8977 0.8986
2145.000000 0.8995 0.9004 0.9004 0.9005 0.9005
2150.000000 0.9005 0.9004 0.9004 0.9003 0.9003
2155.000000 0.9002 0.9002 0.9001 0.9001 0.8999
2160.000000 0.8998 0.8995 0.8993 0.8990 0.8987
2165.000000 0.8984 0.8982 0.8978 0.8975 0.8973
2170.000000 0.8971 0.8968 0.8965 0.8962 0.8959
2175.000000 0.8956 0.8954 0.8951 0.8948 0.8947
2180.000000 0.8946 0.8946 0.8947 0.8949 0.8952
2185.000000 0.8960 0.8968 0.8975 0.8983 0.8987
2190.000000 0.8992 0.8995 0.8999 0.9000 0.9001
2195.000000 0.9001 0.9001 0.9001 0.9001 0.9001
2200.000000 0.9001 0.8998 0.8996 0.8994 0.8992
2205.000000 0.8989 0.8987 0.8984 0.8982 0.8978
2210.000000 0.8974 0.8968 0.8965 0.8960 0.8956
2215.000000 0.8951 0.8946 0.8940 0.8935 0.8930
2220.000000 0.8925 0.8917 0.8910 0.8900 0.8891
2225.000000 0.8881 0.8871 0.8861 0.8851 0.8838
2230.000000 0.8825 0.8813 0.8800 0.8787 0.8774
2235.000000 0.8760 0.8747 0.8733 0.8720 0.8702
2240.000000 0.8685 0.8665 0.8645 0.8421 0.8200
2245.000000 0.7976 0.7755 0.7533 0.7311 0.7204
2250.000000 0.7204 0.7203 0.7308 0.7531 0.7754
2255.000000 0.7976 0.8200 0.8314 0.8428 0.8445
2260.000000 0.8462 0.8478 0.8494 0.8507 0.8521
2265.000000 0.8525 0.8525 0.8525 0.8521 0.8513
2270.000000 0.8504 0.8488 0.8473 0.8467 0.8461
2275.000000 0.8462 0.8462 0.8462 0.8462 0.8459
2280.000000 0.8457 0.8454 0.8452 0.8440 0.8428
2285.000000 0.8418 0.8410 0.8401 0.8393 0.8388
2290.000000 0.8384 0.8381 0.8381 0.8381 0.8383
2295.000000 0.8390 0.8397 0.8403 0.8410 0.8421
2300.000000 0.8433 0.8444 0.8456 0.8471 0.8489
2305.000000 0.8511 0.8533 0.8566 0.8600 0.8615
2310.000000 0.8630 0.8638 0.8646 0.8654 0.8662
2315.000000 0.8667 0.8671 0.8677 0.8682 0.8688
2320.000000 0.8694 0.8699 0.8705 0.8710 0.8716
2325.000000 0.8720 0.8725 0.8728 0.8734 0.8738
2330.000000 0.8743 0.8747 0.8751 0.8753 0.8755
2335.000000 0.8756 0.8758 0.8760 0.8762 0.8763
2340.000000 0.8765 0.8766 0.8768 0.8768 0.8771
2345.000000 0.8771 0.8771 0.8773 0.8774 0.8774
2350.000000 0.8775 0.8775 0.8777 0.8777 0.8778
2355.000000 0.8778 0.8780 0.8780 0.8781 0.8781
2360.000000 0.8782 0.8783 0.8784 0.8784 0.8785
2365.000000 0.8785 0.8786 0.8786 0.8787 0.8787
2370.000000 0.8788 0.8788 0.8789 0.8789 0.8789
2375.000000 0.8789 0.8790 0.8790 0.8790 0.8790
2380.000000 0.8791 0.8792 0.8793 0.8794 0.8795
2385.000000 0.8796 0.8797 0.8798 0.8799 0.8802
2390.000000 0.8805 0.8813 0.8821 0.8828 0.8837
2395.000000 0.8846 0.8856 0.8868 0.8880 0.8892
2400.000000 0.8904 0.8917 0.8930 0.8937 0.8944
2405.000000 0.8945 0.8945 0.8945 0.8945 0.8942
2410.000000 0.8939 0.8936 0.8933 0.8930 0.8928
2415.000000 0.8925 0.8923 0.8920 0.8918 0.8914
2420.000000 0.8911 0.8905 0.8900 0.8894 0.8889
2425.000000 0.8882 0.8875 0.8868 0.8863 0.8856
2430.000000 0.8850 0.8851 0.8852 0.8853 0.8854
2435.000000 0.8859 0.8865 0.8871 0.8880 0.8891
2440.000000 0.8903 0.8915 0.8928 0.8937 0.8947
2445.000000 0.8949 0.8950 0.8951 0.8951 0.8950
2450.000000 0.8949 0.8945 0.8942 0.8937 0.8933
2455.000000 0.8927 0.8921 0.8916 0.8911 0.8906
2460.000000 0.8901 0.8896 0.8891 0.8889 0.8888
2465.000000 0.8886 0.8885 0.8885 0.8885 0.8885
2470.000000 0.8885 0.8892 0.8900 0.8907 0.8915
2475.000000 0.8921 0.8930 0.8939 0.8948 0.8955
2480.000000 0.8963 0.8968 0.8974 0.8977 0.8981
2485.000000 0.8984 0.8988 0.8989 0.8991 0.8991
2490.000000 0.8992 0.8992 0.8992 0.8991 0.8991
2495.000000 0.8991 0.8991 0.8990 0.8990 0.8989
2500.000000 0.8988 0.8987 0.8987 0.8986 0.8985
2505.000000 0.8984 0.8984 0.8983 0.8982 0.8980
2510.000000 0.8978 0.8977 0.8975 0.8974 0.8971
2515.000000 0.8970 0.8968 0.8967 0.8965 0.8962
2520.000000 0.8960 0.8957 0.8955 0.8952 0.8949
2525.000000 0.8946 0.8944 0.8941 0.8939 0.8936
2530.000000 0.8933 0.8930 0.8928 0.8925 0.8923
2535.000000 0.8920 0.8917 0.8914 0.8912 0.8909
2540.000000 0.8906 0.8903 0.8901 0.8897 0.8893
2545.000000 0.8887 0.8882 0.8877 0.8871 0.8864
2550.000000 0.8857 0.8848 0.8840 0.8832 0.8824
2555.000000 0.8818 0.8812 0.8806 0.8801 0.8802
2560.000000 0.8803 0.8805 0.8807 0.8810 0.8814
2565.000000 0.8821 0.8828 0.8837 0.8846 0.8855
2570.000000 0.8864 0.8873 0.8882 0.8891 0.8900
2575.000000 0.8909 0.8918 0.8925 0.8935 0.8943
2580.000000 0.8951 0.8959 0.8968 0.8971 0.8975
2585.000000 0.8977 0.8978 0.8980 0.8982 0.8982
2590.000000 0.8984 0.8985 0.8986 0.8987 0.8988
2595.000000 0.8989 0.8990 0.8991 0.8992 0.8992
2600.000000 0.8993 0.8993 0.8993 0.8993 0.8994
2605.000000 0.8994 0.8994 0.8990 0.8986 0.8982
2610.000000 0.8978 0.8975 0.8971 0.8967 0.8963
2615.000000 0.8959 0.8956 0.8952 0.8948 0.8944
2620.000000 0.8941 0.8937 0.8933 0.8928 0.8925
2625.000000 0.8921 0.8918 0.8912 0.8907 0.8902
2630.000000 0.8897 0.8891 0.8886 0.8881 0.8875
2635.000000 0.8870 0.8865 0.8860 0.8855 0.8850
2640.000000 0.8845 0.8840 0.8835 0.8830 0.8825
2645.000000 0.8820 0.8815 0.8812 0.8809 0.8807
2650.000000 0.8805 0.8802 0.8800 0.8798 0.8796
2655.000000 0.8804 0.8812 0.8825 0.8838 0.8856
2660.000000 0.8874 0.8889 0.8904 0.8918 0.8932
2665.000000 0.8943 0.8954 0.8957 0.8960 0.8962
2670.000000 0.8965 0.8968 0.8971 0.8973 0.8975
2675.000000 0.8977 0.8980 0.8980 0.8981 0.8981
2680.000000 0.8982 0.8982 0.8982 0.8982 0.8983
2685.000000 0.8983 0.8983 0.8982 0.8982 0.8982
2690.000000 0.8982 0.8982 0.8982 0.8981 0.8981
2695.000000 0.8980 0.8978 0.8978 0.8977 0.8975
2700.000000 0.8975 0.8974 0.8973 0.8971 0.8971
2705.000000 0.8970 0.8968 0.8967 0.8966 0.8965
2710.000000 0.8964 0.8963 0.8962 0.8961 0.8960
2715.000000 0.8958 0.8957 0.8956 0.8955 0.8953
2720.000000 0.8952 0.8950 0.8949 0.8948 0.8947
2725.000000 0.8945 0.8944 0.8943 0.8942 0.8941
2730.000000 0.8940 0.8939 0.8939 0.8938 0.8937
2735.000000 0.8936 0.8936 0.8935 0.8934 0.8933
2740.000000 0.8933 0.8932 0.8932 0.8930 0.8928
2745.000000 0.8927 0.8925 0.8924 0.8921 0.8920
2750.000000 0.8918 0.8916 0.8914 0.8912 0.8910
2755.000000 0.8908 0.8906 0.8904 0.8903 0.8901
2760.000000 0.8899 0.8897 0.8895 0.8893 0.8891
2765.000000 0.8889 0.8887 0.8885 0.8884 0.8882
2770.000000 0.8881 0.8880 0.8878 0.8877 0.8875
2775.000000 0.8874 0.8873 0.8871 0.8871 0.8868
2780.000000 0.8868 0.8867 0.8866 0.8866 0.8866
2785.000000 0.8868 0.8870 0.8873 0.8875 0.8878
2790.000000 0.8882 0.8883 0.8885 0.8886 0.8888
2795.000000 0.8890 0.8892 0.8893 0.8895 0.8895
2800.000000 0.8895 0.8894 0.8894 0.8893 0.8893
2805.000000 0.8892 0.8892 0.8891 0.8891 0.8890
2810.000000 0.8890 0.8889 0.8889 0.8888 0.8888
2815.000000 0.8887 0.8887 0.8886 0.8886 0.8885
2820.000000 0.8885 0.8884 0.8884 0.8883 0.8883
2825.000000 0.8882 0.8882 0.8881 0.8881 0.8880
2830.000000 0.8880 0.8878 0.8878 0.8878 0.8878
2835.000000 0.8877 0.8877 0.8875 0.8875 0.8875
2840.000000 0.8875 0.8875 0.8875 0.8875 0.8875
2845.000000 0.8874 0.8874 0.8873 0.8873 0.8873
2850.000000 0.8873 0.8871 0.8871 0.8871 0.8871
2855.000000 0.8871 0.8871 0.8870 0.8870 0.8870
2860.000000 0.8870 0.8868 0.8866 0.8864 0.8862
2865.000000 0.8860 0.8858 0.8856 0.8854 0.8852
2870.000000 0.8850 0.8848 0.8847 0.8845 0.8843
2875.000000 0.8841 0.8839 0.8837 0.8835 0.8832
2880.000000 0.8828 0.8825 0.8821 0.8817 0.8813
2885.000000 0.8809 0.8806 0.8802 0.8798 0.8794
2890.000000 0.8790 0.8786 0.8783 0.8778 0.8775
2895.000000 0.8771 0.8767 0.8763 0.8760 0.8756
2900.000000 0.8752 0.8748 0.8744 0.8740 0.8737
2905.000000 0.8733 0.8728 0.8724 0.8718 0.8712
2910.000000 0.8706 0.8699 0.8693 0.8687 0.8681
2915.000000 0.8674 0.8668 0.8662 0.8656 0.8649
2920.000000 0.8643 0.8636 0.8630 0.8624 0.8618
2925.000000 0.8621 0.8624 0.8630 0.8637 0.8644
2930.000000 0.8651 0.8660 0.8670 0.8678 0.8688
2935.000000 0.8697 0.8707 0.8716 0.8725 0.8735
2940.000000 0.8745 0.8753 0.8762 0.8771 0.8780
2945.000000 0.8786 0.8793 0.8796 0.8799 0.8800
2950.000000 0.8800 0.8800 0.8800 0.8799 0.8799
2955.000000 0.8800 0.8801 0.8802 0.8803 0.8804
2960.000000 0.8805 0.8806 0.8807 0.8808 0.8808
2965.000000 0.8808 0.8807 0.8805 0.8804 0.8802
2970.000000 0.8801 0.8800 0.8799 0.8797 0.8796
2975.000000 0.8794 0.8793 0.8790 0.8787 0.8784
2980.000000 0.8781 0.8778 0.8775 0.8771 0.8768
2985.000000 0.8766 0.8763 0.8759 0.8755 0.8751
2990.000000 0.8747 0.8742 0.8738 0.8734 0.8730
2995.000000 0.8725 0.8721 0.8723 0.8725 0.8734
3000.000000 0.8742 0.8754 0.8766 0.8778 0.8792
3005.000000 0.8805 0.8818 0.8831 0.8844 0.8850
3010.000000 0.8857 0.8860 0.8864 0.8864 0.8865
3015.000000 0.8865 0.8865 0.8865 0.8865 0.8865
3020.000000 0.8865 0.8864 0.8863 0.8861 0.8860
3025.000000 0.8859 0.8858 0.8855 0.8852 0.8848
3030.000000 0.8845 0.8841 0.8837 0.8828 0.8821
3035.000000 0.8813 0.8805 0.8796 0.8788 0.8777
3040.000000 0.8767 0.8753 0.8740 0.8725 0.8712
3045.000000 0.8684 0.8657 0.8627 0.8597 0.8555
3050.000000 0.8514 0.8473 0.8432 0.8391 0.8351
3055.000000 0.8314 0.8278 0.8242 0.8206 0.8168
3060.000000 0.8133 0.8076 0.8021 0.8008 0.7998
3065.000000 0.8000 0.8003 0.8007 0.8011 0.8018
3070.000000 0.8025 0.8032 0.8039 0.8037 0.8035
3075.000000 0.8031 0.8026 0.8018 0.8010 0.7988
3080.000000 0.7967 0.7935 0.7903 0.7857 0.7811
3085.000000 0.7750 0.7690 0.7591 0.7493 0.7306
3090.000000 0.7118 0.6932 0.6745 0.6651 0.6558
3095.000000 0.6560 0.6581 0.6634 0.6707 0.6886
3100.000000 0.7065 0.7246 0.7425 0.7605 0.7785
3105.000000 0.7965 0.8145 0.8251 0.8358 0.8383
3110.000000 0.8409 0.8432 0.8456 0.8478 0.8502
3115.000000 0.8524 0.8547 0.8566 0.8586 0.8602
3120.000000 0.8618 0.8633 0.8649 0.8665 0.8681
3125.000000 0.8687 0.8694 0.8701 0.8708 0.8714
3130.000000 0.8721 0.8728 0.8735 0.8741 0.8748
3135.000000 0.8754 0.8761 0.8767 0.8774 0.8780
3140.000000 0.8786 0.8791 0.8796 0.8800 0.8804
3145.000000 0.8808 0.8812 0.8816 0.8821 0.8825
3150.000000 0.8828 0.8833 0.8837 0.8841 0.8845
3155.000000 0.8849 0.8854 0.8857 0.8861 0.8863
3160.000000 0.8866 0.8868 0.8871 0.8875 0.8878
3165.000000 0.8880 0.8883 0.8884 0.8886 0.8888
3170.000000 0.8890 0.8891 0.8893 0.8894 0.8896
3175.000000 0.8897 0.8910 0.8899 0.8901 0.8902
3180.000000 0.8903 0.8904 0.8905 0.8906 0.8907
3185.000000 0.8908 0.8910 0.8911 0.8912 0.8913
3190.000000 0.8914 0.8915 0.8916 0.8917 0.8918
3195.000000 0.8918 0.8918 0.8918 0.8918 0.8918
3200.000000 0.8918 0.8918 0.8918 0.8918 0.8918
3205.000000 0.8918 0.8918 0.8918 0.8918 0.8918
3210.000000 0.8918 0.8918 0.8918 0.8918 0.8918
3215.000000 0.8918 0.8918 0.8918 0.8918 0.8918
3220.000000 0.8918 0.8917 0.8917 0.8917 0.8917
3225.000000 0.8917 0.8917 0.8917 0.8917 0.8917
3230.000000 0.8917 0.8917 0.8917 0.8917 0.8917
3235.000000 0.8917 0.8917 0.8917 0.8917 0.8917
3240.000000 0.8917 0.8917 0.8917 0.8917 0.8917
3245.000000 0.8917 0.8917 0.8917 0.8917 0.8917
3250.000000 0.8917 0.8916 0.8916 0.8916 0.8916
3255.000000 0.8916 0.8916 0.8915 0.8915 0.8915
3260.000000 0.8915 0.8914 0.8914 0.8914 0.8914
3265.000000 0.8914 0.8914 0.8913 0.8913 0.8913
3270.000000 0.8913 0.8912 0.8912 0.8912 0.8912
3275.000000 0.8911 0.8911 0.8911 0.8911 0.8911
3280.000000 0.8911 0.8910 0.8910 0.8910 0.8910
3285.000000 0.8909 0.8909 0.8908 0.8908 0.8907
3290.000000 0.8907 0.8906 0.8906 0.8905 0.8905
3295.000000 0.8904 0.8904 0.8903 0.8903 0.8902
3300.000000 0.8902 0.8901 0.8901 0.8900 0.8900
3305.000000 0.8899 0.8899 0.8898 0.8898 0.8898
3310.000000 0.8898 0.8897 0.8897 0.8896 0.8896
3315.000000 0.8895 0.8895 0.8894 0.8893 0.8892
3320.000000 0.8891 0.8890 0.8889 0.8888 0.8888
3325.000000 0.8887 0.8886 0.8885 0.8884 0.8883
3330.000000 0.8883 0.8882 0.8881 0.8880 0.8878
3335.000000 0.8878 0.8878 0.8877 0.8875 0.8875
3340.000000 0.8874 0.8873 0.8871 0.8871 0.8871
3345.000000 0.8870 0.8868 0.8868 0.8867 0.8866
3350.000000 0.8866 0.8865 0.8864 0.8863 0.8862
3355.000000 0.8861 0.8861 0.8860 0.8859 0.8858
3360.000000 0.8857 0.8856 0.8855 0.8854 0.8853
3365.000000 0.8852 0.8852 0.8851 0.8850 0.8849
3370.000000 0.8848 0.8847 0.8846 0.8845 0.8844
3375.000000 0.8843 0.8842 0.8841 0.8841 0.8840
3380.000000 0.8839 0.8838 0.8837 0.8836 0.8835
3385.000000 0.8834 0.8833 0.8832 0.8831 0.8828
3390.000000 0.8827 0.8824 0.8821 0.8818 0.8817
3395.000000 0.8815 0.8813 0.8810 0.8808 0.8805
3400.000000 0.8803 0.8800 0.8798 0.8795 0.8793
3405.000000 0.8791 0.8789 0.8787 0.8785 0.8783
3410.000000 0.8781 0.8778 0.8777 0.8775 0.8773
3415.000000 0.8771 0.8768 0.8767 0.8765 0.8765
3420.000000 0.8765 0.8765 0.8765 0.8764 0.8764
3425.000000 0.8763 0.8763 0.8763 0.8763 0.8764
3430.000000 0.8765 0.8766 0.8767 0.8768 0.8768
3435.000000 0.8768 0.8770 0.8771 0.8771 0.8775
3440.000000 0.8780 0.8785 0.8790 0.8794 0.8799
3445.000000 0.8803 0.8807 0.8810 0.8814 0.8818
3450.000000 0.8821 0.8824 0.8827 0.8828 0.8832
3455.000000 0.8834 0.8837 0.8838 0.8840 0.8840
3460.000000 0.8840 0.8840 0.8841 0.8841 0.8841
3465.000000 0.8841 0.8842 0.8842 0.8842 0.8842
3470.000000 0.8843 0.8843 0.8843 0.8843 0.8843
3475.000000 0.8843 0.8843 0.8843 0.8843 0.8843
3480.000000 0.8843 0.8843 0.8843 0.8843 0.8843
3485.000000 0.8843 0.8843 0.8843 0.8843 0.8843
3490.000000 0.8843 0.8843 0.8843 0.8843 0.8843
3495.000000 0.8843 0.8843 0.8843 0.8843 0.8843
3500.000000 0.8843 0.8843 0.8844 0.8844 0.8844
3505.000000 0.8844 0.8844 0.8844 0.8844 0.8844
3510.000000 0.8845 0.8845 0.8846 0.8846 0.8846
3515.000000 0.8846 0.8847 0.8847 0.8848 0.8848
3520.000000 0.8848 0.8848 0.8849 0.8849 0.8850
3525.000000 0.8850 0.8850 0.8850 0.8851 0.8851
3530.000000 0.8852 0.8852 0.8852 0.8852 0.8853
3535.000000 0.8853 0.8854 0.8854 0.8854 0.8854
3540.000000 0.8855 0.8855 0.8856 0.8856 0.8856
3545.000000 0.8857 0.8858 0.8858 0.8859 0.8860
3550.000000 0.8861 0.8861 0.8862 0.8863 0.8864
3555.000000 0.8864 0.8865 0.8866 0.8867 0.8867
3560.000000 0.8868 0.8868 0.8870 0.8870 0.8871
3565.000000 0.8871 0.8871 0.8871 0.8873 0.8873
3570.000000 0.8873 0.8873 0.8874 0.8874 0.8874
3575.000000 0.8874 0.8875 0.8875 0.8875 0.8875
3580.000000 0.8875 0.8875 0.8875 0.8875 0.8877
3585.000000 0.8877 0.8877 0.8877 0.8878 0.8878
3590.000000 0.8878 0.8878 0.8878 0.8878 0.8878
3595.000000 0.8878 0.8878 0.8878 0.8878 0.8877
3600.000000 0.8877 0.8875 0.8875 0.8875 0.8875
3605.000000 0.8874 0.8874 0.8873 0.8873 0.8871
3610.000000 0.8871 0.8871 0.8871 0.8870 0.8870
3615.000000 0.8868 0.8868 0.8868 0.8868 0.8867
3620.000000 0.8867 0.8866 0.8866 0.8865 0.8865
3625.000000 0.8864 0.8864 0.8864 0.8864 0.8863
3630.000000 0.8863 0.8863 0.8863 0.8863 0.8863
3635.000000 0.8862 0.8862 0.8862 0.8862 0.8862
3640.000000 0.8862 0.8861 0.8861 0.8861 0.8862
3645.000000 0.8863 0.8865 0.8866 0.8868 0.8868
3650.000000 0.8871 0.8873 0.8875 0.8875 0.8878
3655.000000 0.8884 0.8890 0.8897 0.8905 0.8905
3660.000000 0.8905 0.8905 0.8906 0.8906 0.8906
3665.000000 0.8904 0.8903 0.8898 0.8893 0.8882
3670.000000 0.8871 0.8861 0.8851 0.8842 0.8833
3675.000000 0.8823 0.8814 0.8807 0.8800 0.8793
3680.000000 0.8787 0.8782 0.8777 0.8773 0.8771
3685.000000 0.8773 0.8774 0.8778 0.8783 0.8788
3690.000000 0.8793 0.8797 0.8802 0.8807 0.8812
3695.000000 0.8816 0.8820 0.8824 0.8828 0.8832
3700.000000 0.8836 0.8840 0.8844 0.8845 0.8847
3705.000000 0.8848 0.8849 0.8850 0.8851 0.8852
3710.000000 0.8853 0.8853 0.8854 0.8854 0.8855
3715.000000 0.8855 0.8855 0.8855 0.8855 0.8855
3720.000000 0.8855 0.8855 0.8855 0.8854 0.8854
3725.000000 0.8854 0.8854 0.8853 0.8852 0.8850
3730.000000 0.8849 0.8848 0.8847 0.8846 0.8845
3735.000000 0.8844 0.8843 0.8842 0.8841 0.8839
3740.000000 0.8838 0.8837 0.8836 0.8834 0.8833
3745.000000 0.8832 0.8831 0.8828 0.8828 0.8827
3750.000000 0.8825 0.8824 0.8823 0.8821 0.8820
3755.000000 0.8818 0.8818 0.8817 0.8816 0.8815
3760.000000 0.8815 0.8814 0.8814 0.8813 0.8813
3765.000000 0.8813 0.8813 0.8814 0.8815 0.8816
3770.000000 0.8817 0.8818 0.8818 0.8820 0.8821
3775.000000 0.8821 0.8821 0.8821 0.8823 0.8823
3780.000000 0.8824 0.8824 0.8825 0.8825 0.8825
3785.000000 0.8825 0.8825 0.8825 0.8827 0.8827
3790.000000 0.8828 0.8828 0.8828 0.8828 0.8828
3795.000000 0.8828 0.8830 0.8830 0.8831 0.8831
3800.000000 0.8831
##END=
