##TITLE=Pyrimidine
##JCAMP-DX=4.24
##DATA TYPE=INFRARED SPECTRUM
##CLASS=COBLENTZ III
##ORIGIN=SOUTHERN RESEARCH INSTITUTE
##OWNER=Copyright (C) 1987 by the Coblentz Society
Collection (C) 2018 copyright by the U.S. Secretary of Commerce
on behalf of the United States of America. All rights reserved.
##DATE=1965/04/31
##CAS REGISTRY NO=289-95-2
##MOLFORM=C4 H4 N2
##SOURCE REFERENCE=COBLENTZ NO. 6881
##$NIST SOURCE=COBLENTZ
##$NIST IMAGE=cob6881
##SPECTROMETER/DATA SYSTEM=PERKIN-ELMER 521 (GRATING)
##INSTRUMENT PARAMETERS=FILTERS AT 3150, 2500, 2000, 1150, 700, 410. GRATING CHANGES: 2000, 630
##STATE=LIQUID (NEAT)
##PATH LENGTH=0.0015 CM
##RESOLUTION=2
##DATA PROCESSING=(ADJUSTED \subtractcm-1\misc\)
##XUNITS=1/CM
##YUNITS=TRANSMITTANCE
##XFACTOR=1.0
##YFACTOR=1
##DELTAX=1.082234
##FIRSTX=241.3
##LASTX=3815.92
##FIRSTY=0.594
##MAXX=3815.92
##MINX=241.3
##MAXY=0.919296
##MINY=0.00896322
##NPOINTS=3304
##XYDATA=(X++(Y..Y))
241.300000 0.5940 0.5989 0.6041 0.6102 0.6162
246.711168 0.6217 0.6266 0.6315 0.6367 0.6426
252.122337 0.6485 0.6543 0.6598 0.6651 0.6704
257.533505 0.6760 0.6825 0.6890 0.6956 0.7011
262.944673 0.7057 0.7100 0.7143 0.7187 0.7230
268.355841 0.7280 0.7332 0.7383 0.7435 0.7486
273.767010 0.7537 0.7588 0.7638 0.7689 0.7737
279.178178 0.7783 0.7829 0.7874 0.7919 0.7964
284.589346 0.8006 0.8048 0.8090 0.8132 0.8165
290.000515 0.8194 0.8223 0.8253 0.8280 0.8295
295.411683 0.8309 0.8323 0.8338 0.8350 0.8359
300.822851 0.8365 0.8371 0.8377 0.8378 0.8378
306.234019 0.8377 0.8376 0.8375 0.8373 0.8370
311.645188 0.8362 0.8364 0.8358 0.8351 0.8342
317.056356 0.8330 0.8316 0.8300 0.8280 0.8260
322.467524 0.8226 0.8187 0.8145 0.8102 0.8056
327.878692 0.8006 0.7951 0.7896 0.7837 0.7779
333.289861 0.7692 0.7581 0.7460 0.7341 0.7203
338.701029 0.6943 0.6478 0.6007 0.5536 0.5066
344.112197 0.4595 0.4124 0.3653 0.3182 0.2878
349.523366 0.2845 0.2835 0.2831 0.2841 0.3291
354.934534 0.4896 0.7054 0.7448 0.7535 0.7614
360.345702 0.7732 0.7843 0.7923 0.7997 0.8056
365.756870 0.8116 0.8266 0.8388 0.8482 0.8549
371.168039 0.8599 0.8646 0.8677 0.8703 0.8719
376.579207 0.8732 0.8744 0.8751 0.8754 0.8757
381.990375 0.8759 0.8763 0.8762 0.8760 0.8757
387.401544 0.8754 0.8751 0.8748 0.8746 0.8742
392.812712 0.8739 0.8736 0.8733 0.8732 0.8733
398.223880 0.8734 0.8737 0.8743 0.8750 0.8761
403.635048 0.8777 0.8793 0.8805 0.8817 0.8828
409.046217 0.8835 0.8837 0.8839 0.8840 0.8841
414.457385 0.8841 0.8842 0.8843 0.8844 0.8845
419.868553 0.8849 0.8853 0.8858 0.8864 0.8870
425.279722 0.8878 0.8889 0.8900 0.8911 0.8918
430.690890 0.8926 0.8933 0.8941 0.8944 0.8946
436.102058 0.8948 0.8949 0.8951 0.8952 0.8951
441.513226 0.8950 0.8949 0.8948 0.8947 0.8945
446.924395 0.8944 0.8943 0.8942 0.8941 0.8940
452.335563 0.8940 0.8939 0.8938 0.8938 0.8937
457.746731 0.8936 0.8936 0.8935 0.8934 0.8934
463.157900 0.8934 0.8935 0.8936 0.8937 0.8939
468.569068 0.8940 0.8942 0.8943 0.8944 0.8946
473.980236 0.8947 0.8948 0.8952 0.8956 0.8960
479.391404 0.8964 0.8968 0.8972 0.8976 0.8981
484.802573 0.8986 0.8992 0.8997 0.9003 0.9010
490.213741 0.9015 0.9021 0.9026 0.9031 0.9035
495.624909 0.9038 0.9042 0.9046 0.9051 0.9055
501.036077 0.9059 0.9062 0.9066 0.9070 0.9073
506.447246 0.9077 0.9080 0.9083 0.9087 0.9091
511.858414 0.9094 0.9098 0.9101 0.9105 0.9108
517.269582 0.9110 0.9112 0.9113 0.9115 0.9117
522.680751 0.9119 0.9120 0.9122 0.9124 0.9126
528.091919 0.9128 0.9130 0.9109 0.9129 0.9134
533.503087 0.9132 0.9131 0.9130 0.9128 0.9127
538.914255 0.9126 0.9124 0.9123 0.9122 0.9120
544.325424 0.9119 0.9118 0.9116 0.9115 0.9113
549.736592 0.9107 0.9101 0.9095 0.9089 0.9084
555.147760 0.9078 0.9072 0.9066 0.9060 0.9054
560.558929 0.9048 0.9041 0.9035 0.9028 0.9021
565.970097 0.9015 0.9008 0.9001 0.8995 0.8987
571.381265 0.8978 0.8968 0.8958 0.8949 0.8939
576.792433 0.8929 0.8919 0.8909 0.8900 0.8889
582.203602 0.8878 0.8865 0.8852 0.8839 0.8826
587.614770 0.8813 0.8799 0.8786 0.8772 0.8755
593.025938 0.8736 0.8715 0.8695 0.8675 0.8655
598.437107 0.8635 0.8610 0.8575 0.8540 0.8504
603.848275 0.8469 0.8431 0.8390 0.8348 0.8307
609.259443 0.8266 0.8213 0.8148 0.8082 0.8016
614.670611 0.7942 0.7862 0.7782 0.7680 0.7547
620.081780 0.7330 0.6964 0.6650 0.6204 0.5871
625.492948 0.4892 0.3844 0.2794 0.1746 0.0709
630.904116 0.0231 0.0220 0.0227 0.0245 0.0547
636.315285 0.2520 0.4242 0.6951 0.7135 0.7288
641.726453 0.7422 0.7517 0.7612 0.7708 0.7806
647.137621 0.7906 0.7997 0.8071 0.8124 0.8155
652.548789 0.8183 0.8202 0.8215 0.8225 0.8229
657.959958 0.8230 0.8231 0.8247 0.8226 0.8204
663.371126 0.8185 0.8161 0.8135 0.8112 0.8096
668.782294 0.8144 0.8233 0.8325 0.8382 0.8387
674.193462 0.8063 0.7620 0.7221 0.7118 0.6981
679.604631 0.6803 0.5894 0.4876 0.3859 0.2842
685.015799 0.2044 0.2014 0.2023 0.2566 0.4157
690.426967 0.5256 0.5977 0.6024 0.6059 0.6062
695.838136 0.5991 0.5893 0.5786 0.5714 0.5636
701.249304 0.5545 0.5449 0.5350 0.5026 0.4504
706.660472 0.3946 0.3388 0.2830 0.2327 0.1952
712.071640 0.1728 0.1545 0.1432 0.1330 0.1227
717.482809 0.1065 0.0921 0.0827 0.0727 0.0559
722.893977 0.0233 0.0188 0.0185 0.0183 0.0183
728.305145 0.0189 0.0203 0.0234 0.0255 0.0281
733.716314 0.0309 0.0355 0.0471 0.1898 0.4164
739.127482 0.4446 0.4807 0.5336 0.5953 0.6174
744.538650 0.6279 0.6379 0.6462 0.6536 0.6612
749.949818 0.6687 0.6760 0.6832 0.6904 0.6976
755.360987 0.7048 0.7118 0.7187 0.7256 0.7325
760.772155 0.7395 0.7466 0.7537 0.7608 0.7672
766.183323 0.7704 0.7735 0.7767 0.7797 0.7817
771.594492 0.7829 0.7841 0.7852 0.7862 0.7861
777.005660 0.7854 0.7858 0.7848 0.7835 0.7820
782.416828 0.7802 0.7778 0.7745 0.7703 0.7650
787.827996 0.7573 0.7475 0.7373 0.7211 0.6987
793.239165 0.6760 0.6538 0.6396 0.6359 0.6353
798.650333 0.6362 0.6379 0.6396 0.6413 0.6404
804.061501 0.5715 0.4855 0.3994 0.3134 0.2274
809.472669 0.2075 0.1994 0.1920 0.1847 0.1782
814.883838 0.1768 0.1758 0.1776 0.1779 0.1829
820.295006 0.2256 0.2902 0.3548 0.4194 0.4839
825.706174 0.5473 0.6005 0.6544 0.6711 0.6859
831.117343 0.7003 0.7141 0.7252 0.7340 0.7435
836.528511 0.7560 0.7693 0.7806 0.7911 0.8008
841.939679 0.8086 0.8164 0.8231 0.8279 0.8325
847.350847 0.8371 0.8417 0.8457 0.8491 0.8525
852.762016 0.8556 0.8582 0.8603 0.8625 0.8646
858.173184 0.8667 0.8687 0.8705 0.8721 0.8736
863.584352 0.8751 0.8767 0.8783 0.8795 0.8801
868.995521 0.8807 0.8813 0.8819 0.8825 0.8831
874.406689 0.8837 0.8843 0.8849 0.8854 0.8860
879.817857 0.8866 0.8868 0.8869 0.8870 0.8871
885.229025 0.8872 0.8873 0.8874 0.8875 0.8876
890.640194 0.8877 0.8877 0.8877 0.8877 0.8877
896.051362 0.8877 0.8877 0.8878 0.8892 0.8877
901.462530 0.8877 0.8877 0.8877 0.8875 0.8873
906.873699 0.8870 0.8868 0.8865 0.8863 0.8861
912.284867 0.8858 0.8855 0.8853 0.8849 0.8843
917.696035 0.8837 0.8831 0.8824 0.8818 0.8812
923.107203 0.8806 0.8799 0.8786 0.8768 0.8750
928.518372 0.8730 0.8708 0.8690 0.8680 0.8675
933.929540 0.8669 0.8664 0.8658 0.8655 0.8655
939.340708 0.8656 0.8656 0.8647 0.8632 0.8617
944.751877 0.8602 0.8583 0.8565 0.8543 0.8519
950.163045 0.8496 0.8473 0.8449 0.8424 0.8399
955.574213 0.8375 0.8350 0.8323 0.8291 0.8259
960.985381 0.8227 0.8195 0.8173 0.8159 0.8148
966.396550 0.8149 0.8149 0.8149 0.8149 0.8150
971.807718 0.8150 0.8145 0.8111 0.8055 0.8013
977.218886 0.7957 0.7888 0.7794 0.7656 0.7492
982.630054 0.7402 0.7294 0.7108 0.6824 0.6265
988.041223 0.5221 0.4177 0.3133 0.2089 0.1046
993.452391 0.0379 0.0383 0.0399 0.1205 0.2851
998.863559 0.4030 0.5209 0.6387 0.7294 0.7640
1004.274728 0.7691 0.7718 0.7736 0.7747 0.7755
1009.685896 0.7759 0.7759 0.7757 0.7772 0.7758
1015.097064 0.7742 0.7733 0.7719 0.7697 0.7662
1020.508232 0.7602 0.7528 0.7442 0.7342 0.7246
1025.919401 0.7225 0.7209 0.7225 0.7234 0.7240
1031.330569 0.7257 0.7280 0.7306 0.7334 0.7355
1036.741737 0.7368 0.7381 0.7384 0.7386 0.7376
1042.152906 0.7373 0.7362 0.7350 0.7331 0.7306
1047.564074 0.7274 0.7232 0.7181 0.7124 0.7032
1052.975242 0.6889 0.6629 0.6425 0.6412 0.6401
1058.386410 0.6390 0.6378 0.6349 0.6186 0.5767
1063.797579 0.5319 0.4871 0.4423 0.3975 0.3527
1069.208747 0.3079 0.2631 0.2184 0.1924 0.1918
1074.619915 0.1921 0.2077 0.2646 0.3488 0.4330
1080.031084 0.5171 0.6085 0.6661 0.6976 0.7223
1085.442252 0.7364 0.7477 0.7579 0.7678 0.7775
1090.853420 0.7867 0.7952 0.8009 0.8044 0.8075
1096.264588 0.8105 0.8131 0.8145 0.8157 0.8170
1101.675757 0.8182 0.8193 0.8199 0.8205 0.8210
1107.086925 0.8215 0.8216 0.8214 0.8218 0.8210
1112.498093 0.8208 0.8203 0.8197 0.8191 0.8180
1117.909262 0.8161 0.8142 0.8123 0.8097 0.8066
1123.320430 0.8032 0.7994 0.7957 0.7919 0.7878
1128.731598 0.7832 0.7780 0.7706 0.7586 0.7265
1134.142766 0.6805 0.6390 0.5974 0.5558 0.5143
1139.553935 0.4826 0.4767 0.4933 0.5317 0.5699
1144.965103 0.6082 0.6439 0.6609 0.6594 0.6391
1150.376271 0.5859 0.5225 0.4592 0.3959 0.3325
1155.787439 0.2881 0.2706 0.2628 0.2585 0.2564
1161.198608 0.2558 0.2567 0.4735 0.6468 0.6876
1166.609776 0.7018 0.7146 0.7276 0.7408 0.7548
1172.020944 0.7696 0.7929 0.8054 0.8136 0.8179
1177.432113 0.8214 0.8226 0.8233 0.8230 0.8241
1182.843281 0.8242 0.8241 0.8236 0.8232 0.8226
1188.254449 0.8216 0.8204 0.8188 0.8170 0.8154
1193.665617 0.8134 0.8109 0.8084 0.8046 0.8007
1199.076786 0.7958 0.7880 0.7718 0.7524 0.7376
1204.487954 0.7113 0.7022 0.6926 0.6805 0.6657
1209.899122 0.6516 0.6383 0.6247 0.6106 0.5960
1215.310291 0.5771 0.5425 0.4878 0.4270 0.3661
1220.721459 0.3052 0.2443 0.1835 0.1294 0.1020
1226.132627 0.0979 0.0978 0.0990 0.1290 0.2158
1231.543795 0.3289 0.4420 0.5347 0.6235 0.6676
1236.954964 0.6878 0.7311 0.7566 0.7665 0.7750
1242.366132 0.7832 0.7939 0.8056 0.8167 0.8264
1247.777300 0.8325 0.8376 0.8428 0.8475 0.8516
1253.188469 0.8556 0.8595 0.8629 0.8658 0.8682
1258.599637 0.8689 0.8694 0.8699 0.8703 0.8704
1264.010805 0.8705 0.8706 0.8704 0.8708 0.8707
1269.421973 0.8707 0.8706 0.8706 0.8705 0.8703
1274.833142 0.8700 0.8697 0.8695 0.8692 0.8689
1280.244310 0.8686 0.8683 0.8680 0.8675 0.8667
1285.655478 0.8655 0.8639 0.8616 0.8585 0.8543
1291.066646 0.8514 0.8487 0.8466 0.8438 0.8389
1296.477815 0.8318 0.8240 0.8155 0.7997 0.7820
1301.888983 0.7726 0.7670 0.7629 0.7605 0.7589
1307.300151 0.7583 0.7578 0.7573 0.7570 0.7569
1312.711320 0.7567 0.7566 0.7567 0.7564 0.7554
1318.122488 0.7543 0.7517 0.7465 0.7431 0.7405
1323.533656 0.7393 0.7388 0.7386 0.7385 0.7385
1328.944824 0.7384 0.7381 0.7379 0.7375 0.7371
1334.355993 0.7366 0.7362 0.7350 0.7338 0.7324
1339.767161 0.7310 0.7293 0.7276 0.7253 0.7160
1345.178329 0.7056 0.6953 0.6849 0.6746 0.6642
1350.589498 0.6539 0.6434 0.6329 0.6240 0.6162
1356.000666 0.6093 0.6019 0.5936 0.5855 0.5780
1361.411834 0.5709 0.5638 0.5565 0.5492 0.5412
1366.823002 0.5322 0.5232 0.5140 0.5043 0.4944
1372.234171 0.4848 0.4756 0.4670 0.4518 0.4211
1377.645339 0.3842 0.3490 0.3138 0.2787 0.2435
1383.056507 0.2083 0.1731 0.1380 0.1028 0.0673
1388.467676 0.0462 0.0305 0.0195 0.0145 0.0127
1393.878844 0.0122 0.0125 0.0090 0.0129 0.0155
1399.290012 0.0175 0.0203 0.0239 0.0289 0.0346
1404.701180 0.0565 0.0881 0.1206 0.1529 0.1853
1410.112349 0.2178 0.2501 0.2825 0.3150 0.3473
1415.523517 0.3797 0.4122 0.4445 0.4769 0.5094
1420.934685 0.5417 0.5715 0.5829 0.5825 0.5786
1426.345854 0.5745 0.5705 0.5703 0.5844 0.6074
1431.757022 0.6305 0.6515 0.6644 0.6681 0.6696
1437.168190 0.6701 0.6706 0.6706 0.6700 0.6690
1442.579358 0.6676 0.6659 0.6636 0.6569 0.6425
1447.990527 0.6259 0.6093 0.5928 0.5762 0.5596
1453.401695 0.5433 0.5310 0.5245 0.5119 0.4587
1458.812863 0.3625 0.2662 0.1700 0.0783 0.0274
1464.224031 0.0250 0.0252 0.0254 0.0268 0.0506
1469.635200 0.1319 0.3231 0.4897 0.5100 0.5266
1475.046368 0.5566 0.5847 0.5943 0.6221 0.6522
1480.457536 0.6610 0.6794 0.7008 0.7131 0.7226
1485.868705 0.7308 0.7372 0.7435 0.7498 0.7553
1491.279873 0.7601 0.7646 0.7679 0.7701 0.7723
1496.691041 0.7738 0.7745 0.7751 0.7757 0.7754
1502.102209 0.7752 0.7753 0.7747 0.7737 0.7726
1507.513378 0.7715 0.7704 0.7691 0.7675 0.7659
1512.924546 0.7643 0.7621 0.7595 0.7567 0.7535
1518.335714 0.7498 0.7459 0.7414 0.7365 0.7316
1523.746883 0.7267 0.7218 0.7169 0.7119 0.7068
1529.158051 0.7013 0.6949 0.6882 0.6814 0.6743
1534.569219 0.6662 0.6577 0.6491 0.6297 0.6054
1539.980387 0.5855 0.5684 0.5531 0.5362 0.5152
1545.391556 0.4760 0.4251 0.3742 0.3234 0.2725
1550.802724 0.2216 0.1707 0.1322 0.1124 0.0957
1556.213892 0.0767 0.0603 0.0391 0.0209 0.0131
1561.625061 0.0101 0.0092 0.0091 0.0093 0.0097
1567.036229 0.0102 0.0107 0.0111 0.0117 0.0123
1572.447397 0.0132 0.0148 0.0174 0.0228 0.0448
1577.858565 0.0832 0.1260 0.1687 0.2115 0.2543
1583.269734 0.2971 0.3398 0.3826 0.4253 0.4620
1588.680902 0.4842 0.5007 0.5172 0.5337 0.5503
1594.092070 0.5668 0.5833 0.5999 0.6119 0.6246
1599.503238 0.6292 0.6276 0.6278 0.6276 0.6266
1604.914407 0.6242 0.6211 0.6160 0.5880 0.5234
1610.325575 0.4474 0.3713 0.3430 0.3405 0.4081
1615.736743 0.4778 0.5377 0.6136 0.6461 0.6574
1621.147912 0.6688 0.6836 0.7069 0.7241 0.7380
1626.559080 0.7510 0.7645 0.7807 0.7909 0.7985
1631.970248 0.8046 0.8094 0.8127 0.8155 0.8184
1637.381416 0.8202 0.8215 0.8229 0.8241 0.8250
1642.792585 0.8258 0.8266 0.8277 0.8292 0.8331
1648.203753 0.8376 0.8402 0.8414 0.8424 0.8433
1653.614921 0.8436 0.8447 0.8439 0.8429 0.8417
1659.026090 0.8404 0.8385 0.8334 0.8189 0.8023
1664.437258 0.7858 0.7711 0.7677 0.7686 0.7695
1669.848426 0.7775 0.7813 0.7835 0.7850 0.7861
1675.259594 0.7873 0.7883 0.7893 0.7912 0.7947
1680.670763 0.7993 0.8044 0.8138 0.8300 0.8344
1686.081931 0.8364 0.8376 0.8385 0.8394 0.8402
1691.493099 0.8405 0.8406 0.8408 0.8410 0.8414
1696.904268 0.8420 0.8440 0.8483 0.8590 0.8705
1702.315436 0.8755 0.8782 0.8806 0.8827 0.8846
1707.726604 0.8865 0.8885 0.8904 0.8930 0.8957
1713.137772 0.8984 0.9010 0.9024 0.9036 0.9049
1718.548941 0.9051 0.9050 0.9049 0.9048 0.9032
1723.960109 0.9045 0.9041 0.9032 0.9022 0.9011
1729.371277 0.9001 0.8983 0.8966 0.8948 0.8930
1734.782446 0.8913 0.8891 0.8865 0.8838 0.8812
1740.193614 0.8785 0.8757 0.8732 0.8726 0.8722
1745.604782 0.8717 0.8712 0.8708 0.8705 0.8702
1751.015950 0.8699 0.8654 0.8611 0.8570 0.8529
1756.427119 0.8488 0.8448 0.8408 0.8368 0.8327
1761.838287 0.8287 0.8247 0.8206 0.8165 0.8120
1767.249455 0.8075 0.8029 0.7984 0.7944 0.7906
1772.660623 0.7868 0.7832 0.7811 0.7810 0.7810
1778.071792 0.7801 0.7827 0.7921 0.8134 0.8221
1783.482960 0.8274 0.8291 0.8291 0.8294 0.8297
1788.894128 0.8299 0.8301 0.8302 0.8303 0.8305
1794.305297 0.8309 0.8325 0.8342 0.8359 0.8376
1799.716465 0.8402 0.8445 0.8514 0.8533 0.8543
1805.127633 0.8553 0.8563 0.8573 0.8582 0.8590
1810.538801 0.8599 0.8607 0.8615 0.8624 0.8634
1815.949970 0.8644 0.8654 0.8664 0.8674 0.8679
1821.361138 0.8664 0.8675 0.8660 0.8635 0.8608
1826.772306 0.8578 0.8547 0.8516 0.8483 0.8480
1832.183475 0.8467 0.8494 0.8505 0.8530 0.8572
1837.594643 0.8670 0.8747 0.8854 0.8919 0.8955
1843.005811 0.8987 0.9014 0.9029 0.9035 0.9040
1848.416979 0.9045 0.9049 0.9052 0.9052 0.9053
1853.828148 0.9053 0.9053 0.9054 0.9054 0.9054
1859.239316 0.9056 0.9059 0.9063 0.9068 0.9082
1864.650484 0.9099 0.9114 0.9128 0.9142 0.9155
1870.061653 0.9162 0.9156 0.9172 0.9173 0.9170
1875.472821 0.9167 0.9164 0.9161 0.9158 0.9155
1880.883989 0.9150 0.9145 0.9139 0.9132 0.9120
1886.295157 0.9107 0.9095 0.9082 0.9069 0.9056
1891.706326 0.9043 0.9030 0.9015 0.8997 0.8977
1897.117494 0.8956 0.8936 0.8916 0.8896 0.8876
1902.528662 0.8855 0.8829 0.8802 0.8778 0.8764
1907.939831 0.8758 0.8762 0.8767 0.8775 0.8794
1913.350999 0.8818 0.8840 0.8859 0.8873 0.8886
1918.762167 0.8896 0.8896 0.8896 0.8893 0.8884
1924.173335 0.8871 0.8859 0.8844 0.8826 0.8806
1929.584504 0.8784 0.8761 0.8738 0.8715 0.8687
1934.995672 0.8649 0.8611 0.8572 0.8527 0.8480
1940.406840 0.8433 0.8383 0.8328 0.8271 0.8206
1945.818008 0.8127 0.7999 0.7830 0.7690 0.7617
1951.229177 0.7545 0.7477 0.7414 0.7352 0.7289
1956.640345 0.7231 0.7184 0.7141 0.7109 0.7097
1962.051513 0.7084 0.7072 0.7063 0.7049 0.7046
1967.462682 0.7077 0.7097 0.7128 0.7165 0.7200
1972.873850 0.7233 0.7265 0.7296 0.7325 0.7353
1978.285018 0.7382 0.7410 0.7440 0.7472 0.7506
1983.696186 0.7539 0.7572 0.7607 0.7644 0.7682
1989.107355 0.7720 0.7757 0.7794 0.7831 0.7867
1994.518523 0.7902 0.7936 0.7969 0.8002 0.8035
1999.929691 0.8068 0.8099 0.8130 0.8158 0.8184
2005.340860 0.8210 0.8235 0.8255 0.8274 0.8293
2010.752028 0.8309 0.8319 0.8325 0.8331 0.8336
2016.163196 0.8342 0.8349 0.8355 0.8390 0.8448
2021.574364 0.8491 0.8523 0.8549 0.8576 0.8598
2026.985533 0.8616 0.8634 0.8651 0.8666 0.8676
2032.396701 0.8685 0.8694 0.8703 0.8711 0.8715
2037.807869 0.8719 0.8724 0.8731 0.8741 0.8754
2043.219038 0.8766 0.8785 0.8810 0.8829 0.8837
2048.630206 0.8839 0.8842 0.8844 0.8846 0.8849
2054.041374 0.8851 0.8853 0.8856 0.8858 0.8860
2059.452542 0.8863 0.8865 0.8873 0.8874 0.8872
2064.863711 0.8874 0.8877 0.8879 0.8881 0.8884
2070.274879 0.8886 0.8888 0.8890 0.8893 0.8895
2075.686047 0.8897 0.8900 0.8902 0.8902 0.8902
2081.097215 0.8902 0.8902 0.8902 0.8902 0.8901
2086.508384 0.8901 0.8901 0.8901 0.8902 0.8904
2091.919552 0.8906 0.8908 0.8910 0.8912 0.8915
2097.330720 0.8917 0.8922 0.8929 0.8936 0.8942
2102.741889 0.8948 0.8954 0.8960 0.8964 0.8966
2108.153057 0.8966 0.8964 0.8956 0.8944 0.8930
2113.564225 0.8917 0.8903 0.8888 0.8870 0.8850
2118.975393 0.8831 0.8812 0.8792 0.8772 0.8753
2124.386562 0.8733 0.8714 0.8694 0.8675 0.8656
2129.797730 0.8638 0.8619 0.8610 0.8607 0.8604
2135.208898 0.8607 0.8612 0.8620 0.8629 0.8654
2140.620067 0.8698 0.8733 0.8760 0.8785 0.8811
2146.031235 0.8837 0.8864 0.8889 0.8913 0.8936
2151.442403 0.8959 0.8979 0.8997 0.9015 0.9027
2156.853571 0.9034 0.9035 0.9034 0.9033 0.9039
2162.264740 0.9033 0.9030 0.9028 0.9026 0.9024
2167.675908 0.9022 0.9021 0.9019 0.9017 0.9015
2173.087076 0.9011 0.9005 0.9000 0.8995 0.8989
2178.498245 0.8979 0.8967 0.8954 0.8941 0.8928
2183.909413 0.8915 0.8906 0.8900 0.8896 0.8891
2189.320581 0.8887 0.8882 0.8877 0.8869 0.8862
2194.731749 0.8855 0.8848 0.8830 0.8801 0.8771
2200.142918 0.8742 0.8700 0.8649 0.8598 0.8550
2205.554086 0.8508 0.8504 0.8506 0.8482 0.8508
2210.965254 0.8517 0.8522 0.8529 0.8539 0.8545
2216.376423 0.8550 0.8555 0.8555 0.8554 0.8554
2221.787591 0.8554 0.8554 0.8564 0.8578 0.8593
2227.198759 0.8635 0.8686 0.8732 0.8777 0.8823
2232.609927 0.8871 0.8920 0.8956 0.8989 0.9021
2238.021096 0.9051 0.9066 0.9080 0.9093 0.9100
2243.432264 0.9105 0.9108 0.9111 0.9111 0.9110
2248.843432 0.9118 0.9109 0.9107 0.9106 0.9105
2254.254600 0.9104 0.9104 0.9103 0.9102 0.9101
2259.665769 0.9098 0.9091 0.9085 0.9079 0.9072
2265.076937 0.9066 0.9060 0.9053 0.9046 0.9038
2270.488105 0.9029 0.9021 0.9012 0.9004 0.8995
2275.899274 0.8981 0.8965 0.8949 0.8933 0.8907
2281.310442 0.8873 0.8839 0.8805 0.8777 0.8750
2286.721610 0.8723 0.8697 0.8671 0.8650 0.8628
2292.132778 0.8607 0.8601 0.8596 0.8591 0.8587
2297.543947 0.8585 0.8579 0.8562 0.8544 0.8526
2302.955115 0.8507 0.8484 0.8460 0.8436 0.8403
2308.366283 0.8370 0.8312 0.8252 0.8195 0.8126
2313.777452 0.8057 0.8033 0.8036 0.8041 0.8049
2319.188620 0.8061 0.8088 0.8164 0.8275 0.8385
2324.599788 0.8495 0.8604 0.8715 0.8824 0.8920
2330.010956 0.8954 0.8970 0.8985 0.8996 0.8975
2335.422125 0.8997 0.8996 0.8993 0.8988 0.8982
2340.833293 0.8976 0.8970 0.8964 0.8959 0.8953
2346.244461 0.8948 0.8942 0.8937 0.8932 0.8927
2351.655630 0.8923 0.8919 0.8915 0.8912 0.8908
2357.066798 0.8904 0.8900 0.8895 0.8891 0.8886
2362.477966 0.8882 0.8877 0.8873 0.8868 0.8862
2367.889134 0.8855 0.8848 0.8837 0.8816 0.8794
2373.300303 0.8772 0.8750 0.8726 0.8701 0.8676
2378.711471 0.8647 0.8615 0.8588 0.8574 0.8562
2384.122639 0.8556 0.8559 0.8551 0.8530 0.8625
2389.533808 0.8668 0.8713 0.8762 0.8809 0.8854
2394.944976 0.8905 0.8979 0.9044 0.9083 0.9097
2400.356144 0.9100 0.9101 0.9102 0.9103 0.9104
2405.767312 0.9105 0.9103 0.9102 0.9100 0.9099
2411.178481 0.9098 0.9096 0.9097 0.9098 0.9099
2416.589649 0.9100 0.9100 0.9101 0.9102 0.9103
2422.000817 0.9104 0.9105 0.9106 0.9107 0.9108
2427.411985 0.9106 0.9103 0.9110 0.9111 0.9112
2432.823154 0.9113 0.9114 0.9115 0.9116 0.9117
2438.234322 0.9117 0.9118 0.9119 0.9120 0.9121
2443.645490 0.9122 0.9123 0.9123 0.9123 0.9123
2449.056659 0.9122 0.9122 0.9122 0.9122 0.9121
2454.467827 0.9121 0.9121 0.9120 0.9120 0.9120
2459.878995 0.9119 0.9118 0.9117 0.9116 0.9115
2465.290163 0.9115 0.9114 0.9113 0.9112 0.9111
2470.701332 0.9110 0.9111 0.9118 0.9126 0.9134
2476.112500 0.9144 0.9162 0.9180 0.9193 0.9191
2481.523668 0.9173 0.9154 0.9137 0.9131 0.9131
2486.934837 0.9131 0.9129 0.9127 0.9125 0.9122
2492.346005 0.9118 0.9114 0.9108 0.9099 0.9089
2497.757173 0.9075 0.9057 0.9038 0.9020 0.9002
2503.168341 0.8985 0.8968 0.8951 0.8936 0.8926
2508.579510 0.8917 0.8907 0.8898 0.8890 0.8886
2513.990678 0.8881 0.8877 0.8872 0.8868 0.8862
2519.401846 0.8854 0.8845 0.8837 0.8818 0.8788
2524.813015 0.8751 0.8710 0.8679 0.8656 0.8634
2530.224183 0.8617 0.8605 0.8594 0.8590 0.8590
2535.635351 0.8590 0.8592 0.8593 0.8593 0.8587
2541.046519 0.8575 0.8551 0.8508 0.8439 0.8346
2546.457688 0.8244 0.8142 0.8042 0.7993 0.7993
2551.868856 0.7991 0.8116 0.8360 0.8496 0.8522
2557.280024 0.8539 0.8568 0.8618 0.8685 0.8756
2562.691192 0.8822 0.8889 0.8952 0.8992 0.9013
2568.102361 0.9023 0.9030 0.9036 0.9038 0.9038
2573.513529 0.9037 0.9043 0.9040 0.9034 0.9032
2578.924697 0.9028 0.9022 0.9013 0.9005 0.8995
2584.335866 0.8983 0.8970 0.8953 0.8932 0.8911
2589.747034 0.8889 0.8865 0.8841 0.8816 0.8783
2595.158202 0.8745 0.8707 0.8669 0.8631 0.8593
2600.569370 0.8563 0.8536 0.8510 0.8492 0.8480
2605.980539 0.8469 0.8458 0.8447 0.8436 0.8426
2611.391707 0.8415 0.8404 0.8393 0.8385 0.8379
2616.802875 0.8374 0.8380 0.8373 0.8406 0.8447
2622.214044 0.8488 0.8537 0.8577 0.8603 0.8626
2627.625212 0.8648 0.8671 0.8697 0.8724 0.8754
2633.036380 0.8783 0.8804 0.8821 0.8836 0.8851
2638.447548 0.8867 0.8883 0.8897 0.8910 0.8924
2643.858717 0.8940 0.8961 0.8986 0.9008 0.9022
2649.269885 0.9033 0.9043 0.9049 0.9054 0.9060
2654.681053 0.9065 0.9069 0.9070 0.9098 0.9082
2660.092222 0.9071 0.9071 0.9072 0.9071 0.9068
2665.503390 0.9065 0.9062 0.9059 0.9055 0.9050
2670.914558 0.9043 0.9037 0.9031 0.9024 0.9018
2676.325726 0.9012 0.9005 0.8999 0.8992 0.8985
2681.736895 0.8979 0.8972 0.8965 0.8959 0.8952
2687.148063 0.8947 0.8943 0.8938 0.8934 0.8929
2692.559231 0.8924 0.8920 0.8915 0.8918 0.8924
2697.970400 0.8930 0.8936 0.8943 0.8952 0.8960
2703.381568 0.8969 0.8969 0.8966 0.8964 0.8959
2708.792736 0.8954 0.8949 0.8942 0.8934 0.8927
2714.203904 0.8923 0.8919 0.8918 0.8922 0.8927
2719.615073 0.8932 0.8940 0.8949 0.8958 0.8975
2725.026241 0.8992 0.9009 0.9026 0.9042 0.9056
2730.437409 0.9071 0.9082 0.9092 0.9098 0.9099
2735.848577 0.9099 0.9098 0.9097 0.9096 0.9094
2741.259746 0.9092 0.9090 0.9087 0.9085 0.9083
2746.670914 0.9081 0.9079 0.9077 0.9075 0.9073
2752.082082 0.9071 0.9070 0.9068 0.9066 0.9064
2757.493251 0.9062 0.9061 0.9059 0.9057 0.9056
2762.904419 0.9054 0.9052 0.9050 0.9049 0.9047
2768.315587 0.9045 0.9042 0.9040 0.9037 0.9035
2773.726755 0.9032 0.9030 0.9028 0.9025 0.9023
2779.137924 0.9020 0.9018 0.9017 0.9016 0.9015
2784.549092 0.9014 0.9013 0.9012 0.9011 0.9010
2789.960260 0.9009 0.9008 0.9007 0.9006 0.9005
2795.371429 0.9004 0.9003 0.9003 0.9002 0.9001
2800.782597 0.9000 0.8999 0.8998 0.8992 0.8985
2806.193765 0.8978 0.8971 0.8965 0.8958 0.8954
2811.604933 0.8950 0.8946 0.8943 0.8939 0.8935
2817.016102 0.8932 0.8928 0.8926 0.8925 0.8925
2822.427270 0.8924 0.8924 0.8923 0.8922 0.8922
2827.838438 0.8921 0.8920 0.8920 0.8919 0.8917
2833.249607 0.8915 0.8913 0.8911 0.8909 0.8907
2838.660775 0.8905 0.8903 0.8902 0.8900 0.8898
2844.071943 0.8894 0.8889 0.8884 0.8879 0.8874
2849.483111 0.8869 0.8864 0.8859 0.8854 0.8850
2854.894280 0.8845 0.8840 0.8835 0.8830 0.8824
2860.305448 0.8818 0.8812 0.8805 0.8799 0.8793
2865.716616 0.8787 0.8781 0.8775 0.8769 0.8762
2871.127785 0.8756 0.8750 0.8744 0.8738 0.8732
2876.538953 0.8724 0.8714 0.8704 0.8694 0.8685
2881.950121 0.8675 0.8665 0.8655 0.8645 0.8635
2887.361289 0.8625 0.8613 0.8596 0.8579 0.8561
2892.772458 0.8544 0.8526 0.8508 0.8491 0.8473
2898.183626 0.8455 0.8428 0.8401 0.8373 0.8346
2903.594794 0.8312 0.8260 0.8208 0.8156 0.8100
2909.005962 0.8039 0.7970 0.7863 0.7699 0.7440
2914.417131 0.7167 0.6914 0.6763 0.6730 0.6721
2919.828299 0.6724 0.6781 0.6886 0.6991 0.7096
2925.239467 0.7200 0.7306 0.7406 0.7480 0.7530
2930.650636 0.7573 0.7601 0.7623 0.7627 0.7630
2936.061804 0.7632 0.7630 0.7628 0.7622 0.7604
2941.472972 0.7590 0.7576 0.7559 0.7537 0.7515
2946.884140 0.7491 0.7462 0.7429 0.7394 0.7355
2952.295309 0.7319 0.7291 0.7267 0.7252 0.7238
2957.706477 0.7176 0.7059 0.7052 0.7047 0.7046
2963.117645 0.7046 0.7046 0.7047 0.7048 0.7050
2968.528814 0.7052 0.7053 0.7047 0.7029 0.7008
2973.939982 0.6984 0.6955 0.6929 0.6903 0.6876
2979.351150 0.6843 0.6805 0.6763 0.6715 0.6668
2984.762318 0.6618 0.6568 0.6516 0.6460 0.6395
2990.173487 0.6315 0.6199 0.6068 0.5937 0.5809
2995.584655 0.5708 0.5647 0.5584 0.5516 0.5440
3000.995823 0.5366 0.5299 0.5234 0.5172 0.5112
3006.406992 0.5061 0.5028 0.4994 0.4962 0.4931
3011.818160 0.4904 0.4871 0.4808 0.4646 0.4408
3017.229328 0.4257 0.4189 0.4138 0.4115 0.4102
3022.640496 0.4090 0.4065 0.3933 0.3656 0.3355
3028.051665 0.3054 0.2752 0.2451 0.2216 0.2091
3033.462833 0.1985 0.1854 0.1726 0.1655 0.1641
3038.874001 0.1643 0.1643 0.1710 0.1860 0.1992
3044.285169 0.2082 0.2149 0.2198 0.2237 0.2278
3049.696338 0.2318 0.2363 0.2411 0.2457 0.2604
3055.107506 0.2868 0.3136 0.3402 0.3669 0.3936
3060.518674 0.4203 0.4469 0.4692 0.4897 0.5075
3065.929843 0.5180 0.5270 0.5355 0.5418 0.5459
3071.341011 0.5491 0.5512 0.5531 0.5549 0.5566
3076.752179 0.5580 0.5592 0.5603 0.5615 0.5625
3082.163347 0.5632 0.5637 0.5643 0.5649 0.5656
3087.574516 0.5672 0.5857 0.6067 0.6160 0.6247
3092.985684 0.6340 0.6436 0.6530 0.6612 0.6666
3098.396852 0.6706 0.6743 0.6770 0.6790 0.6809
3103.808021 0.6820 0.6825 0.6826 0.6823 0.6824
3109.219189 0.6817 0.6808 0.6801 0.6792 0.6783
3114.630357 0.6775 0.6756 0.6728 0.6685 0.6625
3120.041525 0.6550 0.6478 0.6407 0.6317 0.6242
3125.452694 0.6203 0.6190 0.6185 0.6178 0.6185
3130.863862 0.6208 0.6263 0.6332 0.6405 0.6471
3136.275030 0.6694 0.6883 0.6986 0.7064 0.7129
3141.686199 0.7194 0.7258 0.7323 0.7471 0.7613
3147.097367 0.7696 0.7747 0.7787 0.7825 0.7857
3152.508535 0.7886 0.7911 0.7933 0.7954 0.7975
3157.919703 0.7996 0.8017 0.8037 0.8057 0.8077
3163.330872 0.8097 0.8116 0.8135 0.8155 0.8172
3168.742040 0.8188 0.8203 0.8219 0.8235 0.8251
3174.153208 0.8267 0.8283 0.8299 0.8315 0.8331
3179.564377 0.8347 0.8363 0.8380 0.8396 0.8412
3184.975545 0.8428 0.8445 0.8462 0.8477 0.8492
3190.386713 0.8508 0.8523 0.8539 0.8554 0.8569
3195.797881 0.8584 0.8599 0.8613 0.8628 0.8641
3201.209050 0.8651 0.8662 0.8672 0.8683 0.8693
3206.620218 0.8703 0.8713 0.8723 0.8732 0.8740
3212.031386 0.8747 0.8754 0.8762 0.8769 0.8777
3217.442554 0.8784 0.8791 0.8799 0.8807 0.8812
3222.853723 0.8817 0.8822 0.8827 0.8832 0.8837
3228.264891 0.8843 0.8848 0.8853 0.8858 0.8863
3233.676059 0.8868 0.8873 0.8878 0.8883 0.8887
3239.087228 0.8891 0.8895 0.8900 0.8904 0.8908
3244.498396 0.8912 0.8917 0.8921 0.8925 0.8929
3249.909564 0.8933 0.8936 0.8939 0.8942 0.8945
3255.320732 0.8948 0.8951 0.8954 0.8957 0.8960
3260.731901 0.8963 0.8965 0.8967 0.8969 0.8971
3266.143069 0.8974 0.8976 0.8978 0.8980 0.8982
3271.554237 0.8980 0.8986 0.8989 0.8991 0.8993
3276.965406 0.8995 0.8997 0.8998 0.8999 0.9000
3282.376574 0.9001 0.9002 0.9003 0.9005 0.9006
3287.787742 0.9007 0.9008 0.9009 0.9010 0.9011
3293.198910 0.9011 0.9010 0.9010 0.9009 0.9008
3298.610079 0.9007 0.9007 0.9006 0.9005 0.9004
3304.021247 0.9004 0.9003 0.9002 0.9001 0.9000
3309.432415 0.8999 0.8997 0.8996 0.8994 0.8993
3314.843584 0.8992 0.8990 0.8989 0.8987 0.8986
3320.254752 0.8985 0.8983 0.8982 0.8980 0.8978
3325.665920 0.8975 0.8972 0.8969 0.8966 0.8963
3331.077088 0.8961 0.8958 0.8955 0.8952 0.8949
3336.488257 0.8946 0.8943 0.8941 0.8938 0.8934
3341.899425 0.8931 0.8927 0.8924 0.8920 0.8917
3347.310593 0.8913 0.8910 0.8906 0.8903 0.8899
3352.721762 0.8896 0.8892 0.8888 0.8885 0.8882
3358.132930 0.8879 0.8876 0.8873 0.8870 0.8867
3363.544098 0.8864 0.8861 0.8858 0.8855 0.8852
3368.955266 0.8849 0.8846 0.8843 0.8839 0.8833
3374.366435 0.8828 0.8822 0.8816 0.8811 0.8806
3379.777603 0.8800 0.8794 0.8788 0.8783 0.8777
3385.188771 0.8771 0.8765 0.8759 0.8753 0.8748
3390.599939 0.8744 0.8741 0.8738 0.8734 0.8731
3396.011108 0.8728 0.8725 0.8722 0.8719 0.8718
3401.422276 0.8717 0.8716 0.8715 0.8714 0.8713
3406.833444 0.8712 0.8711 0.8710 0.8711 0.8712
3412.244613 0.8711 0.8703 0.8714 0.8715 0.8715
3417.655781 0.8716 0.8717 0.8720 0.8724 0.8726
3423.066949 0.8729 0.8732 0.8735 0.8738 0.8741
3428.478117 0.8744 0.8746 0.8749 0.8752 0.8755
3433.889286 0.8758 0.8761 0.8764 0.8767 0.8769
3439.300454 0.8772 0.8775 0.8778 0.8781 0.8784
3444.711622 0.8787 0.8792 0.8796 0.8801 0.8806
3450.122791 0.8810 0.8815 0.8820 0.8824 0.8830
3455.533959 0.8835 0.8841 0.8846 0.8852 0.8857
3460.945127 0.8863 0.8868 0.8873 0.8877 0.8880
3466.356295 0.8884 0.8887 0.8891 0.8894 0.8898
3471.767464 0.8902 0.8906 0.8910 0.8914 0.8918
3477.178632 0.8921 0.8924 0.8927 0.8930 0.8933
3482.589800 0.8936 0.8939 0.8942 0.8945 0.8948
3488.000969 0.8951 0.8954 0.8955 0.8957 0.8958
3493.412137 0.8959 0.8960 0.8962 0.8963 0.8964
3498.823305 0.8966 0.8967 0.8968 0.8970 0.8971
3504.234473 0.8972 0.8974 0.8975 0.8976 0.8978
3509.645642 0.8979 0.8980 0.8982 0.8983 0.8984
3515.056810 0.8986 0.8988 0.8990 0.8993 0.8996
3520.467978 0.8998 0.9001 0.9004 0.9006 0.9009
3525.879146 0.9012 0.9014 0.9017 0.9020 0.9024
3531.290315 0.9029 0.9033 0.9037 0.9041 0.9045
3536.701483 0.9050 0.9054 0.9058 0.9062 0.9067
3542.112651 0.9070 0.9073 0.9076 0.9079 0.9082
3547.523820 0.9085 0.9088 0.9091 0.9094 0.9097
3552.934988 0.9100 0.9102 0.9104 0.9106 0.9109
3558.346156 0.9111 0.9113 0.9115 0.9117 0.9119
3563.757324 0.9122 0.9123 0.9125 0.9126 0.9127
3569.168493 0.9128 0.9130 0.9131 0.9132 0.9133
3574.579661 0.9134 0.9136 0.9137 0.9138 0.9139
3579.990829 0.9141 0.9142 0.9143 0.9143 0.9143
3585.401998 0.9144 0.9141 0.9140 0.9144 0.9145
3590.813166 0.9145 0.9145 0.9146 0.9146 0.9146
3596.224334 0.9147 0.9147 0.9147 0.9147 0.9148
3601.635502 0.9148 0.9148 0.9148 0.9148 0.9148
3607.046671 0.9148 0.9148 0.9148 0.9148 0.9149
3612.457839 0.9149 0.9149 0.9149 0.9149 0.9149
3617.869007 0.9149 0.9148 0.9148 0.9147 0.9146
3623.280176 0.9146 0.9145 0.9144 0.9144 0.9143
3628.691344 0.9142 0.9142 0.9141 0.9140 0.9139
3634.102512 0.9139 0.9138 0.9137 0.9137 0.9136
3639.513680 0.9134 0.9133 0.9132 0.9131 0.9129
3644.924849 0.9128 0.9127 0.9125 0.9124 0.9123
3650.336017 0.9121 0.9120 0.9118 0.9115 0.9111
3655.747185 0.9107 0.9103 0.9099 0.9094 0.9091
3661.158354 0.9086 0.9082 0.9077 0.9070 0.9064
3666.569522 0.9057 0.9050 0.9043 0.9036 0.9030
3671.980690 0.9023 0.9018 0.9012 0.9006 0.9000
3677.391858 0.8995 0.8989 0.8983 0.8977 0.8972
3682.803027 0.8967 0.8963 0.8959 0.8956 0.8952
3688.214195 0.8949 0.8950 0.8954 0.8958 0.8964
3693.625363 0.8972 0.8980 0.8995 0.9014 0.9034
3699.036531 0.9055 0.9076 0.9092 0.9105 0.9115
3704.447700 0.9122 0.9127 0.9130 0.9132 0.9133
3709.858868 0.9135 0.9136 0.9137 0.9139 0.9139
3715.270036 0.9138 0.9136 0.9135 0.9133 0.9132
3720.681205 0.9129 0.9124 0.9118 0.9113 0.9107
3726.092373 0.9101 0.9094 0.9086 0.9078 0.9070
3731.503541 0.9062 0.9054 0.9046 0.9038 0.9031
3736.914709 0.9023 0.9020 0.9021 0.9022 0.9023
3742.325878 0.9024 0.9025 0.9027 0.9028 0.9030
3747.737046 0.9031 0.9033 0.9033 0.9031 0.9029
3753.148214 0.9026 0.9024 0.9022 0.9019 0.9014
3758.559383 0.9009 0.9003 0.8995 0.8986 0.8978
3763.970551 0.8969 0.8959 0.8947 0.8935 0.8923
3769.381719 0.8910 0.8891 0.8870 0.8850 0.8830
3774.792887 0.8814 0.8813 0.8814 0.8819 0.8825
3780.204056 0.8830 0.8837 0.8844 0.8851 0.8862
3785.615224 0.8878 0.8894 0.8912 0.8931 0.8950
3791.026392 0.8969 0.8987 0.9005 0.9023 0.9039
3796.437561 0.9054 0.9068 0.9082 0.9095 0.9106
3801.848729 0.9112 0.9118 0.9124 0.9130 0.9134
3807.259897 0.9138 0.9140 0.9139 0.9139 0.9138
3812.671065 0.9137 0.9136 0.9135 0.9135
##END=
