##TITLE=Cyclooctane
##JCAMP-DX=4.24
##DATA TYPE=INFRARED SPECTRUM
##CLASS=COBLENTZ III
##ORIGIN=WESTERN REGIONAL RES. USDA
##OWNER=Copyright (C) 1987 by the Coblentz Society
Collection (C) 2018 copyright by the U.S. Secretary of Commerce
on behalf of the United States of America. All rights reserved.
##DATE=1966/11/30
##CAS REGISTRY NO=292-64-8
##MOLFORM=C8 H16
##SOURCE REFERENCE=COBLENTZ NO. 5856
##$NIST SOURCE=COBLENTZ
##$NIST IMAGE=cob5856
##SPECTROMETER/DATA SYSTEM=CARY 90 (GRATING)
##INSTRUMENT PARAMETERS=ORDER CHANGES: 3000, 2000, 1200 CM^-^1
##STATE=SOLUTION (10% CCl4 FOR 4000-1330, 10% CS2 FOR 1330-450 CM^-^1) VS SOLVENT
##PATH LENGTH=0.010 CM, AND 0.010 CM
##RESOLUTION=2
##XUNITS=1/CM
##YUNITS=TRANSMITTANCE
##XFACTOR=1.0
##YFACTOR=1
##FIRSTX=451
##LASTX=3998
##FIRSTY=0.8824
##MAXX=3998
##MINX=451
##MAXY=1.0434
##MINY=0.0044
##NPOINTS=3548
##XYDATA=(X++(Y..Y))
451.000000 0.8824 0.8837 0.8851 0.8866 0.8881
456.000000 0.8897 0.8912 0.8926 0.8939 0.8953
461.000000 0.8966 0.8980 0.8993 0.9007 0.9030
466.000000 0.9057 0.9084 0.9109 0.9130 0.9151
471.000000 0.9172 0.9193 0.9214 0.9233 0.9239
476.000000 0.9246 0.9253 0.9259 0.9266 0.9272
481.000000 0.9278 0.9284 0.9290 0.9296 0.9302
486.000000 0.9308 0.9313 0.9324 0.9338 0.9352
491.000000 0.9366 0.9380 0.9413 0.9447 0.9481
496.000000 0.9523 0.9565 0.9606 0.9648 0.9679
501.000000 0.9693 0.9707 0.9721 0.9736 0.9750
506.000000 0.9763 0.9758 0.9752 0.9746 0.9741
511.000000 0.9726 0.9711 0.9696 0.9681 0.9666
516.000000 0.9663 0.9662 0.9661 0.9660 0.9659
521.000000 0.9666 0.9680 0.9695 0.9710 0.9725
526.000000 0.9743 0.9763 0.9783 0.9803 0.9827
531.000000 0.9851 0.9875 0.9899 0.9923 0.9947
536.000000 0.9971 0.9995 1.0000 1.0001 1.0002
541.000000 1.0003 1.0004 1.0006 1.0007 1.0008
546.000000 1.0009 1.0010 1.0011 1.0013 1.0014
551.000000 1.0016 1.0017 1.0019 1.0020 1.0026
556.000000 1.0033 1.0040 1.0047 1.0054 1.0061
561.000000 1.0068 1.0075 1.0082 1.0089 1.0096
566.000000 1.0104 1.0111 1.0118 1.0125 1.0132
571.000000 1.0139 1.0147 1.0156 1.0166 1.0175
576.000000 1.0184 1.0193 1.0202 1.0211 1.0220
581.000000 1.0229 1.0238 1.0247 1.0257 1.0266
586.000000 1.0274 1.0281 1.0289 1.0296 1.0303
591.000000 1.0310 1.0317 1.0324 1.0332 1.0339
596.000000 1.0346 1.0353 1.0360 1.0368 1.0375
601.000000 1.0382 1.0389 1.0396 1.0399 1.0402
606.000000 1.0404 1.0407 1.0409 1.0412 1.0414
611.000000 1.0417 1.0419 1.0422 1.0424 1.0427
616.000000 1.0429 1.0432 1.0434 1.0432 1.0427
621.000000 1.0423 1.0418 1.0414 1.0409 1.0405
626.000000 1.0400 1.0396 1.0391 1.0387 1.0382
631.000000 1.0378 1.0373 1.0369 1.0364 1.0359
636.000000 1.0354 1.0348 1.0343 1.0338 1.0333
641.000000 1.0327 1.0322 1.0317 1.0312 1.0306
646.000000 1.0301 1.0296 1.0291 1.0285 1.0280
651.000000 1.0275 1.0270 1.0264 1.0258 1.0252
656.000000 1.0246 1.0240 1.0234 1.0229 1.0223
661.000000 1.0217 1.0211 1.0205 1.0199 1.0193
666.000000 1.0187 1.0181 1.0175 1.0169 1.0163
671.000000 1.0157 1.0151 1.0145 1.0139 1.0134
676.000000 1.0129 1.0123 1.0118 1.0113 1.0108
681.000000 1.0102 1.0097 1.0092 1.0087 1.0081
686.000000 1.0076 1.0071 1.0059 1.0039 1.0018
691.000000 0.9998 0.9978 0.9952 0.9922 0.9892
696.000000 0.9861 0.9828 0.9792 0.9756 0.9764
701.000000 0.9771 0.9776 0.9776 0.9782 0.9811
706.000000 0.9840 0.9874 0.9907 0.9923 0.9933
711.000000 0.9942 0.9952 0.9957 0.9959 0.9961
716.000000 0.9962 0.9962 0.9953 0.9944 0.9935
721.000000 0.9927 0.9922 0.9904 0.9912 0.9908
726.000000 0.9907 0.9907 0.9906 0.9906 0.9905
731.000000 0.9905 0.9911 0.9918 0.9924 0.9931
736.000000 0.9937 0.9944 0.9950 0.9957 0.9963
741.000000 0.9970 0.9979 0.9988 0.9997 1.0005
746.000000 0.9983 0.9943 0.9903 0.9863 0.9821
751.000000 0.9777 0.9733 0.9686 0.9626 0.9566
756.000000 0.9516 0.9471 0.9427 0.9248 0.8803
761.000000 0.8358 0.7912 0.7467 0.7022 0.6785
766.000000 0.6778 0.6772 0.6814 0.7458 0.7839
771.000000 0.8221 0.8603 0.8984 0.9340 0.9479
776.000000 0.9588 0.9640 0.9693 0.9745 0.9797
781.000000 0.9850 0.9868 0.9869 0.9866 0.9865
786.000000 0.9864 0.9788 0.9509 0.9230 0.8951
791.000000 0.8752 0.8725 0.8837 0.9026 0.9215
796.000000 0.9404 0.9594 0.9783 0.9911 0.9967
801.000000 1.0003 1.0040 1.0076 1.0107 1.0139
806.000000 1.0170 1.0191 1.0210 1.0229 1.0246
811.000000 1.0255 1.0263 1.0272 1.0281 1.0290
816.000000 1.0299 1.0307 1.0315 1.0318 1.0315
821.000000 1.0316 1.0316 1.0317 1.0317 1.0317
826.000000 1.0318 1.0318 1.0318 1.0318 1.0315
831.000000 1.0312 1.0310 1.0307 1.0304 1.0301
836.000000 1.0298 1.0295 1.0290 1.0266 1.0242
841.000000 1.0217 1.0187 1.0144 1.0101 1.0059
846.000000 1.0016 0.9964 0.9907 0.9851 0.9363
851.000000 0.8824 0.8285 0.8300 0.8278 0.8657
856.000000 0.8835 0.9013 0.9191 0.9370 0.9548
861.000000 0.9726 0.9806 0.9806 0.9806 0.9806
866.000000 0.9802 0.9787 0.9748 0.9657 0.9577
871.000000 0.9565 0.9569 0.9572 0.9574 0.9649
876.000000 0.9742 0.9814 0.9869 0.9913 0.9948
881.000000 0.9982 1.0010 1.0032 1.0052 1.0062
886.000000 1.0071 1.0080 1.0090 1.0099 1.0108
891.000000 1.0118 1.0122 1.0126 1.0130 1.0134
896.000000 1.0138 1.0141 1.0178 1.0149 1.0152
901.000000 1.0154 1.0156 1.0158 1.0160 1.0161
906.000000 1.0160 1.0157 1.0154 1.0151 1.0148
911.000000 1.0144 1.0141 1.0138 1.0135 1.0132
916.000000 1.0128 1.0124 1.0116 1.0109 1.0102
921.000000 1.0094 1.0087 1.0079 1.0072 1.0064
926.000000 1.0057 1.0049 1.0040 1.0028 1.0015
931.000000 1.0002 0.9990 0.9977 0.9964 0.9952
936.000000 0.9939 0.9917 0.9894 0.9871 0.9848
941.000000 0.9822 0.9795 0.9768 0.9741 0.9714
946.000000 0.9654 0.9582 0.9509 0.9426 0.9326
951.000000 0.9225 0.9115 0.9006 0.8896 0.8786
956.000000 0.8676 0.8644 0.8642 0.8646 0.8925
961.000000 0.9292 0.9446 0.9495 0.9542 0.9589
966.000000 0.9630 0.9672 0.9713 0.9734 0.9755
971.000000 0.9775 0.9779 0.9783 0.9788 0.9791
976.000000 0.9779 0.9765 0.9742 0.9720 0.9698
981.000000 0.9644 0.9603 0.9605 0.9635 0.9698
986.000000 0.9750 0.9792 0.9834 0.9861 0.9888
991.000000 0.9908 0.9916 0.9924 0.9927 0.9936
996.000000 0.9929 0.9931 0.9932 0.9933 0.9931
1001.000000 0.9929 0.9926 0.9923 0.9920 0.9918
1006.000000 0.9915 0.9912 0.9908 0.9903 0.9897
1011.000000 0.9892 0.9886 0.9880 0.9875 0.9869
1016.000000 0.9864 0.9852 0.9835 0.9819 0.9803
1021.000000 0.9786 0.9770 0.9752 0.9717 0.9683
1026.000000 0.9649 0.9614 0.9580 0.9539 0.9442
1031.000000 0.9346 0.9249 0.9113 0.8962 0.8815
1036.000000 0.8673 0.8530 0.8388 0.8246 0.8104
1041.000000 0.7961 0.7819 0.7677 0.7625 0.7630
1046.000000 0.7762 0.7994 0.8225 0.8456 0.8687
1051.000000 0.8918 0.9149 0.9343 0.9388 0.9443
1056.000000 0.9498 0.9549 0.9589 0.9628 0.9650
1061.000000 0.9662 0.9674 0.9685 0.9695 0.9693
1066.000000 0.9691 0.9689 0.9706 0.9685 0.9683
1071.000000 0.9681 0.9677 0.9669 0.9661 0.9653
1076.000000 0.9645 0.9637 0.9629 0.9621 0.9609
1081.000000 0.9594 0.9579 0.9564 0.9550 0.9533
1086.000000 0.9515 0.9496 0.9421 0.9462 0.9469
1091.000000 0.9478 0.9486 0.9497 0.9512 0.9526
1096.000000 0.9541 0.9546 0.9551 0.9555 0.9560
1101.000000 0.9564 0.9569 0.9576 0.9562 0.9554
1106.000000 0.9550 0.9546 0.9542 0.9537 0.9533
1111.000000 0.9529 0.9524 0.9520 0.9518 0.9522
1116.000000 0.9526 0.9530 0.9534 0.9525 0.9515
1121.000000 0.9504 0.9493 0.9481 0.9470 0.9458
1126.000000 0.9430 0.9401 0.9372 0.9343 0.9244
1131.000000 0.9102 0.8959 0.8917 0.8923 0.9000
1136.000000 0.9051 0.9102 0.9153 0.9204 0.9254
1141.000000 0.9305 0.9356 0.9407 0.9458 0.9546
1146.000000 0.9581 0.9609 0.9583 0.9600 0.9595
1151.000000 0.9591 0.9585 0.9579 0.9574 0.9568
1156.000000 0.9562 0.9556 0.9549 0.9543 0.9536
1161.000000 0.9530 0.9524 0.9515 0.9507 0.9498
1166.000000 0.9489 0.9481 0.9472 0.9470 0.9468
1171.000000 0.9466 0.9464 0.9463 0.9464 0.9469
1176.000000 0.9473 0.9478 0.9487 0.9498 0.9509
1181.000000 0.9520 0.9533 0.9547 0.9560 0.9559
1186.000000 0.9554 0.9554 0.9555 0.9557 0.9558
1191.000000 0.9560 0.9561 0.9562 0.9577 0.9606
1196.000000 0.9629 0.9643 0.9679 0.9735 0.9790
1201.000000 0.9843 0.9890 0.9889 0.9888 0.9886
1206.000000 0.9917 0.9877 0.9866 0.9855 0.9843
1211.000000 0.9809 0.9776 0.9733 0.9689 0.9645
1216.000000 0.9612 0.9580 0.9549 0.9518 0.9495
1221.000000 0.9479 0.9464 0.9449 0.9434 0.9429
1226.000000 0.9418 0.9393 0.9367 0.9344 0.9313
1231.000000 0.9253 0.9170 0.9169 0.9131 0.9176
1236.000000 0.9191 0.9221 0.9251 0.9272 0.9294
1241.000000 0.9304 0.9278 0.9302 0.9301 0.9280
1246.000000 0.9252 0.9222 0.9192 0.9162 0.9116
1251.000000 0.9036 0.8956 0.8876 0.8796 0.8716
1256.000000 0.8637 0.8557 0.8517 0.8517 0.8530
1261.000000 0.8592 0.8725 0.8858 0.8990 0.9123
1266.000000 0.9219 0.9249 0.9274 0.9277 0.9280
1271.000000 0.9283 0.9303 0.9277 0.9263 0.9248
1276.000000 0.9231 0.9211 0.9192 0.9165 0.9128
1281.000000 0.9031 0.8879 0.8728 0.8576 0.8424
1286.000000 0.8273 0.8140 0.8140 0.8193 0.8256
1291.000000 0.8350 0.8443 0.8536 0.8630 0.8723
1296.000000 0.8817 0.8910 0.9003 0.9097 0.9190
1301.000000 0.9283 0.9377 0.9408 0.9417 0.9425
1306.000000 0.9433 0.9439 0.9429 0.9431 0.9428
1311.000000 0.9424 0.9420 0.9417 0.9413 0.9409
1316.000000 0.9406 0.9402 0.9396 0.9388 0.9380
1321.000000 0.9371 0.9363 0.9353 0.9339 0.9326
1326.000000 0.9312 0.9299 0.9285 0.9272 0.9258
1331.000000 0.9239 0.9203 0.9167 0.9131 0.9095
1336.000000 0.9059 0.9019 0.8977 0.8934 0.8891
1341.000000 0.8936 0.8956 0.8977 0.8997 0.9013
1346.000000 0.9012 0.9011 0.9010 0.9009 0.9008
1351.000000 0.9007 0.9001 0.8992 0.8984 0.8976
1356.000000 0.8826 0.8632 0.8437 0.8243 0.8048
1361.000000 0.7988 0.8137 0.7953 0.8436 0.8585
1366.000000 0.8735 0.8884 0.9033 0.9146 0.9183
1371.000000 0.9206 0.9228 0.9248 0.9259 0.9270
1376.000000 0.9282 0.9293 0.9303 0.9307 0.9311
1381.000000 0.9315 0.9318 0.9322 0.9326 0.9330
1386.000000 0.9333 0.9335 0.9336 0.9338 0.9339
1391.000000 0.9341 0.9343 0.9344 0.9346 0.9347
1396.000000 0.9377 0.9350 0.9349 0.9348 0.9346
1401.000000 0.9345 0.9344 0.9343 0.9342 0.9339
1406.000000 0.9326 0.9314 0.9302 0.9290 0.9277
1411.000000 0.9265 0.9253 0.9237 0.9219 0.9201
1416.000000 0.9184 0.9166 0.9148 0.9120 0.9087
1421.000000 0.9054 0.9021 0.8988 0.8955 0.8922
1426.000000 0.8884 0.8834 0.8772 0.8695 0.8618
1431.000000 0.8542 0.8449 0.8302 0.8154 0.7960
1436.000000 0.7665 0.7378 0.7100 0.6205 0.5541
1441.000000 0.4878 0.4215 0.3552 0.2888 0.2519
1446.000000 0.2530 0.2516 0.2515 0.2514 0.4025
1451.000000 0.5707 0.6388 0.6449 0.6510 0.6550
1456.000000 0.6571 0.6610 0.6593 0.6594 0.6462
1461.000000 0.5745 0.5029 0.4312 0.4120 0.4125
1466.000000 0.4329 0.4580 0.4832 0.5084 0.5154
1471.000000 0.5183 0.4819 0.4455 0.4091 0.3747
1476.000000 0.3753 0.3743 0.5112 0.7242 0.7880
1481.000000 0.8011 0.8132 0.8221 0.8310 0.8396
1486.000000 0.8476 0.8556 0.8631 0.8697 0.8763
1491.000000 0.8829 0.8899 0.8973 0.9048 0.9105
1496.000000 0.9133 0.9160 0.9180 0.9189 0.9198
1501.000000 0.9208 0.9217 0.9226 0.9236 0.9243
1506.000000 0.9248 0.9289 0.9256 0.9260 0.9263
1511.000000 0.9263 0.9263 0.9263 0.9263 0.9263
1516.000000 0.9263 0.9263 0.9263 0.9264 0.9262
1521.000000 0.9260 0.9257 0.9255 0.9253 0.9250
1526.000000 0.9248 0.9245 0.9239 0.9228 0.9217
1531.000000 0.9204 0.9191 0.9179 0.9166 0.9154
1536.000000 0.9141 0.9128 0.9116 0.9103 0.9087
1541.000000 0.9065 0.9044 0.9036 0.9029 0.9022
1546.000000 0.9014 0.9007 0.9030 0.9013 0.9016
1551.000000 0.9017 0.9017 0.9026 0.9046 0.9065
1556.000000 0.9085 0.9109 0.9133 0.9148 0.9158
1561.000000 0.9169 0.9177 0.9177 0.9176 0.9176
1566.000000 0.9175 0.9175 0.9174 0.9171 0.9168
1571.000000 0.9166 0.9163 0.9161 0.9161 0.9160
1576.000000 0.9160 0.9160 0.9159 0.9159 0.9160
1581.000000 0.9161 0.9163 0.9165 0.9172 0.9186
1586.000000 0.9200 0.9215 0.9229 0.9243 0.9257
1591.000000 0.9271 0.9284 0.9298 0.9311 0.9321
1596.000000 0.9325 0.9329 0.9333 0.9337 0.9342
1601.000000 0.9346 0.9350 0.9354 0.9356 0.9358
1606.000000 0.9360 0.9362 0.9364 0.9366 0.9368
1611.000000 0.9370 0.9372 0.9374 0.9376 0.9378
1616.000000 0.9379 0.9380 0.9380 0.9381 0.9382
1621.000000 0.9383 0.9384 0.9385 0.9386 0.9386
1626.000000 0.9387 0.9388 0.9389 0.9390 0.9391
1631.000000 0.9392 0.9392 0.9395 0.9398 0.9400
1636.000000 0.9403 0.9405 0.9408 0.9410 0.9413
1641.000000 0.9415 0.9418 0.9421 0.9423 0.9426
1646.000000 0.9428 0.9431 0.9433 0.9435 0.9437
1651.000000 0.9439 0.9440 0.9442 0.9444 0.9446
1656.000000 0.9447 0.9449 0.9451 0.9452 0.9454
1661.000000 0.9456 0.9458 0.9459 0.9461 0.9463
1666.000000 0.9464 0.9466 0.9468 0.9469 0.9471
1671.000000 0.9472 0.9473 0.9475 0.9476 0.9477
1676.000000 0.9478 0.9480 0.9481 0.9482 0.9483
1681.000000 0.9485 0.9486 0.9487 0.9489 0.9490
1686.000000 0.9510 0.9486 0.9483 0.9481 0.9479
1691.000000 0.9477 0.9474 0.9472 0.9470 0.9468
1696.000000 0.9466 0.9462 0.9458 0.9454 0.9450
1701.000000 0.9446 0.9442 0.9438 0.9434 0.9430
1706.000000 0.9426 0.9422 0.9418 0.9414 0.9410
1711.000000 0.9406 0.9390 0.9374 0.9358 0.9341
1716.000000 0.9325 0.9309 0.9294 0.9282 0.9270
1721.000000 0.9258 0.9246 0.9234 0.9223 0.9211
1726.000000 0.9199 0.9185 0.9171 0.9157 0.9144
1731.000000 0.9144 0.9121 0.9151 0.9155 0.9159
1736.000000 0.9162 0.9166 0.9172 0.9184 0.9196
1741.000000 0.9208 0.9219 0.9232 0.9244 0.9257
1746.000000 0.9275 0.9295 0.9315 0.9333 0.9336
1751.000000 0.9339 0.9341 0.9342 0.9342 0.9342
1756.000000 0.9341 0.9341 0.9341 0.9341 0.9340
1761.000000 0.9340 0.9340 0.9340 0.9341 0.9341
1766.000000 0.9342 0.9342 0.9342 0.9343 0.9343
1771.000000 0.9344 0.9346 0.9351 0.9356 0.9361
1776.000000 0.9366 0.9371 0.9376 0.9381 0.9386
1781.000000 0.9391 0.9397 0.9403 0.9409 0.9414
1786.000000 0.9420 0.9426 0.9431 0.9437 0.9444
1791.000000 0.9451 0.9458 0.9465 0.9472 0.9478
1796.000000 0.9485 0.9492 0.9499 0.9506 0.9512
1801.000000 0.9519 0.9526 0.9528 0.9530 0.9533
1806.000000 0.9535 0.9537 0.9539 0.9541 0.9543
1811.000000 0.9545 0.9546 0.9547 0.9549 0.9550
1816.000000 0.9551 0.9553 0.9554 0.9557 0.9560
1821.000000 0.9564 0.9567 0.9570 0.9574 0.9577
1826.000000 0.9580 0.9584 0.9587 0.9590 0.9593
1831.000000 0.9597 0.9600 0.9603 0.9607 0.9610
1836.000000 0.9613 0.9616 0.9620 0.9623 0.9626
1841.000000 0.9630 0.9633 0.9636 0.9638 0.9641
1846.000000 0.9643 0.9645 0.9647 0.9650 0.9652
1851.000000 0.9654 0.9657 0.9660 0.9662 0.9665
1856.000000 0.9668 0.9671 0.9673 0.9676 0.9679
1861.000000 0.9682 0.9684 0.9687 0.9690 0.9693
1866.000000 0.9696 0.9698 0.9701 0.9695 0.9689
1871.000000 0.9684 0.9678 0.9672 0.9666 0.9660
1876.000000 0.9654 0.9649 0.9643 0.9637 0.9631
1881.000000 0.9629 0.9628 0.9628 0.9627 0.9627
1886.000000 0.9627 0.9626 0.9626 0.9625 0.9625
1891.000000 0.9625 0.9624 0.9624 0.9623 0.9624
1896.000000 0.9624 0.9625 0.9625 0.9625 0.9626
1901.000000 0.9626 0.9626 0.9627 0.9627 0.9627
1906.000000 0.9628 0.9628 0.9629 0.9629 0.9629
1911.000000 0.9630 0.9630 0.9630 0.9631 0.9631
1916.000000 0.9632 0.9632 0.9632 0.9633 0.9633
1921.000000 0.9634 0.9634 0.9635 0.9635 0.9636
1926.000000 0.9636 0.9637 0.9637 0.9638 0.9638
1931.000000 0.9639 0.9639 0.9640 0.9640 0.9641
1936.000000 0.9641 0.9642 0.9642 0.9643 0.9643
1941.000000 0.9643 0.9644 0.9643 0.9642 0.9642
1946.000000 0.9641 0.9640 0.9640 0.9639 0.9638
1951.000000 0.9637 0.9637 0.9636 0.9635 0.9635
1956.000000 0.9634 0.9633 0.9632 0.9632 0.9631
1961.000000 0.9630 0.9630 0.9629 0.9628 0.9627
1966.000000 0.9627 0.9626 0.9625 0.9625 0.9624
1971.000000 0.9624 0.9623 0.9622 0.9622 0.9621
1976.000000 0.9620 0.9620 0.9619 0.9618 0.9618
1981.000000 0.9617 0.9617 0.9616 0.9615 0.9615
1986.000000 0.9615 0.9618 0.9622 0.9625 0.9629
1991.000000 0.9632 0.9636 0.9639 0.9643 0.9646
1996.000000 0.9650 0.9653 0.9657 0.9660 0.9664
2001.000000 0.9667 0.9671 0.9682 0.9694 0.9713
2006.000000 0.9733 0.9750 0.9767 0.9783 0.9799
2011.000000 0.9815 0.9832 0.9847 0.9862 0.9862
2016.000000 0.9862 0.9862 0.9862 0.9861 0.9861
2021.000000 0.9861 0.9861 0.9861 0.9861 0.9860
2026.000000 0.9860 0.9860 0.9860 0.9860 0.9860
2031.000000 0.9859 0.9859 0.9858 0.9858 0.9858
2036.000000 0.9858 0.9857 0.9857 0.9856 0.9856
2041.000000 0.9856 0.9856 0.9855 0.9855 0.9855
2046.000000 0.9855 0.9854 0.9854 0.9853 0.9853
2051.000000 0.9853 0.9853 0.9852 0.9852 0.9851
2056.000000 0.9851 0.9850 0.9850 0.9849 0.9848
2061.000000 0.9847 0.9846 0.9845 0.9844 0.9843
2066.000000 0.9842 0.9841 0.9841 0.9840 0.9840
2071.000000 0.9839 0.9838 0.9837 0.9837 0.9836
2076.000000 0.9835 0.9834 0.9834 0.9833 0.9833
2081.000000 0.9832 0.9831 0.9830 0.9830 0.9829
2086.000000 0.9829 0.9828 0.9827 0.9826 0.9826
2091.000000 0.9825 0.9825 0.9824 0.9823 0.9822
2096.000000 0.9822 0.9821 0.9821 0.9820 0.9819
2101.000000 0.9818 0.9818 0.9817 0.9817 0.9816
2106.000000 0.9815 0.9814 0.9814 0.9813 0.9812
2111.000000 0.9811 0.9811 0.9810 0.9809 0.9808
2116.000000 0.9807 0.9806 0.9806 0.9805 0.9804
2121.000000 0.9803 0.9803 0.9802 0.9801 0.9800
2126.000000 0.9799 0.9798 0.9798 0.9797 0.9796
2131.000000 0.9795 0.9795 0.9794 0.9793 0.9792
2136.000000 0.9791 0.9790 0.9790 0.9789 0.9788
2141.000000 0.9788 0.9788 0.9789 0.9790 0.9790
2146.000000 0.9791 0.9791 0.9792 0.9793 0.9794
2151.000000 0.9794 0.9795 0.9795 0.9796 0.9797
2156.000000 0.9798 0.9798 0.9799 0.9799 0.9800
2161.000000 0.9801 0.9802 0.9802 0.9803 0.9803
2166.000000 0.9804 0.9804 0.9805 0.9805 0.9806
2171.000000 0.9806 0.9806 0.9806 0.9807 0.9807
2176.000000 0.9807 0.9807 0.9808 0.9808 0.9808
2181.000000 0.9808 0.9809 0.9809 0.9809 0.9809
2186.000000 0.9809 0.9809 0.9810 0.9810 0.9810
2191.000000 0.9810 0.9811 0.9811 0.9811 0.9811
2196.000000 0.9812 0.9812 0.9812 0.9812 0.9813
2201.000000 0.9813 0.9813 0.9811 0.9809 0.9807
2206.000000 0.9806 0.9804 0.9802 0.9800 0.9799
2211.000000 0.9797 0.9795 0.9793 0.9792 0.9790
2216.000000 0.9788 0.9786 0.9785 0.9783 0.9781
2221.000000 0.9779 0.9777 0.9775 0.9774 0.9772
2226.000000 0.9770 0.9768 0.9767 0.9765 0.9763
2231.000000 0.9761 0.9760 0.9759 0.9758 0.9757
2236.000000 0.9757 0.9756 0.9756 0.9755 0.9755
2241.000000 0.9754 0.9754 0.9753 0.9753 0.9753
2246.000000 0.9753 0.9752 0.9752 0.9751 0.9751
2251.000000 0.9750 0.9750 0.9749 0.9749 0.9748
2256.000000 0.9748 0.9748 0.9748 0.9747 0.9747
2261.000000 0.9746 0.9746 0.9745 0.9745 0.9744
2266.000000 0.9744 0.9743 0.9743 0.9742 0.9742
2271.000000 0.9741 0.9741 0.9740 0.9740 0.9739
2276.000000 0.9738 0.9737 0.9737 0.9736 0.9735
2281.000000 0.9734 0.9734 0.9733 0.9733 0.9732
2286.000000 0.9731 0.9730 0.9730 0.9729 0.9728
2291.000000 0.9727 0.9727 0.9726 0.9725 0.9724
2296.000000 0.9724 0.9723 0.9723 0.9722 0.9721
2301.000000 0.9720 0.9720 0.9719 0.9718 0.9717
2306.000000 0.9717 0.9716 0.9716 0.9715 0.9714
2311.000000 0.9713 0.9712 0.9711 0.9710 0.9709
2316.000000 0.9708 0.9707 0.9706 0.9705 0.9704
2321.000000 0.9703 0.9703 0.9702 0.9701 0.9700
2326.000000 0.9699 0.9698 0.9697 0.9696 0.9695
2331.000000 0.9694 0.9693 0.9692 0.9691 0.9690
2336.000000 0.9689 0.9688 0.9687 0.9686 0.9685
2341.000000 0.9684 0.9683 0.9682 0.9681 0.9680
2346.000000 0.9679 0.9677 0.9676 0.9675 0.9674
2351.000000 0.9672 0.9671 0.9670 0.9669 0.9668
2356.000000 0.9667 0.9665 0.9664 0.9663 0.9662
2361.000000 0.9661 0.9660 0.9658 0.9657 0.9656
2366.000000 0.9655 0.9653 0.9652 0.9651 0.9650
2371.000000 0.9649 0.9648 0.9647 0.9646 0.9644
2376.000000 0.9643 0.9642 0.9641 0.9640 0.9639
2381.000000 0.9638 0.9637 0.9635 0.9634 0.9633
2386.000000 0.9632 0.9631 0.9630 0.9629 0.9628
2391.000000 0.9627 0.9626 0.9624 0.9623 0.9622
2396.000000 0.9621 0.9620 0.9619 0.9619 0.9619
2401.000000 0.9619 0.9619 0.9619 0.9620 0.9620
2406.000000 0.9621 0.9621 0.9621 0.9621 0.9622
2411.000000 0.9622 0.9622 0.9622 0.9623 0.9623
2416.000000 0.9624 0.9624 0.9624 0.9624 0.9625
2421.000000 0.9625 0.9626 0.9626 0.9626 0.9626
2426.000000 0.9627 0.9627 0.9627 0.9627 0.9628
2431.000000 0.9628 0.9629 0.9629 0.9629 0.9629
2436.000000 0.9630 0.9630 0.9630 0.9630 0.9631
2441.000000 0.9631 0.9632 0.9632 0.9632 0.9632
2446.000000 0.9633 0.9633 0.9634 0.9633 0.9632
2451.000000 0.9631 0.9631 0.9630 0.9630 0.9629
2456.000000 0.9628 0.9627 0.9627 0.9626 0.9626
2461.000000 0.9625 0.9624 0.9623 0.9623 0.9622
2466.000000 0.9621 0.9620 0.9620 0.9619 0.9619
2471.000000 0.9618 0.9617 0.9616 0.9616 0.9615
2476.000000 0.9615 0.9614 0.9613 0.9612 0.9612
2481.000000 0.9611 0.9611 0.9610 0.9609 0.9608
2486.000000 0.9608 0.9607 0.9606 0.9605 0.9605
2491.000000 0.9604 0.9604 0.9603 0.9602 0.9601
2496.000000 0.9601 0.9600 0.9600 0.9599 0.9598
2501.000000 0.9597 0.9596 0.9595 0.9594 0.9593
2506.000000 0.9593 0.9592 0.9591 0.9590 0.9589
2511.000000 0.9588 0.9588 0.9587 0.9586 0.9585
2516.000000 0.9584 0.9583 0.9583 0.9582 0.9581
2521.000000 0.9580 0.9579 0.9578 0.9577 0.9576
2526.000000 0.9576 0.9575 0.9574 0.9573 0.9572
2531.000000 0.9571 0.9571 0.9570 0.9569 0.9568
2536.000000 0.9567 0.9566 0.9565 0.9564 0.9564
2541.000000 0.9563 0.9562 0.9561 0.9560 0.9559
2546.000000 0.9559 0.9557 0.9555 0.9552 0.9549
2551.000000 0.9546 0.9544 0.9541 0.9538 0.9535
2556.000000 0.9533 0.9530 0.9527 0.9524 0.9522
2561.000000 0.9519 0.9517 0.9514 0.9511 0.9508
2566.000000 0.9506 0.9503 0.9500 0.9497 0.9495
2571.000000 0.9492 0.9489 0.9486 0.9484 0.9481
2576.000000 0.9478 0.9475 0.9473 0.9470 0.9467
2581.000000 0.9464 0.9462 0.9459 0.9457 0.9454
2586.000000 0.9451 0.9448 0.9446 0.9443 0.9440
2591.000000 0.9437 0.9435 0.9432 0.9429 0.9426
2596.000000 0.9424 0.9421 0.9419 0.9417 0.9415
2601.000000 0.9413 0.9412 0.9410 0.9408 0.9406
2606.000000 0.9405 0.9403 0.9401 0.9399 0.9398
2611.000000 0.9396 0.9394 0.9392 0.9391 0.9389
2616.000000 0.9387 0.9385 0.9384 0.9382 0.9380
2621.000000 0.9378 0.9377 0.9375 0.9373 0.9371
2626.000000 0.9370 0.9368 0.9366 0.9364 0.9363
2631.000000 0.9361 0.9359 0.9357 0.9356 0.9354
2636.000000 0.9352 0.9350 0.9349 0.9347 0.9345
2641.000000 0.9342 0.9340 0.9325 0.9310 0.9295
2646.000000 0.9280 0.9265 0.9250 0.9235 0.9221
2651.000000 0.9207 0.9193 0.9179 0.9165 0.9151
2656.000000 0.9137 0.9123 0.9109 0.9095 0.9081
2661.000000 0.9067 0.9053 0.9038 0.9024 0.9007
2666.000000 0.8990 0.8973 0.8956 0.8939 0.8923
2671.000000 0.8906 0.8889 0.8872 0.8856 0.8839
2676.000000 0.8822 0.8805 0.8788 0.8771 0.8755
2681.000000 0.8738 0.8721 0.8704 0.8687 0.8632
2686.000000 0.8577 0.8513 0.8450 0.8419 0.8388
2691.000000 0.8363 0.8338 0.8315 0.8293 0.8293
2696.000000 0.8294 0.8294 0.8295 0.8296 0.8297
2701.000000 0.8298 0.8300 0.8301 0.8310 0.8304
2706.000000 0.8306 0.8307 0.8309 0.8329 0.8350
2711.000000 0.8397 0.8444 0.8478 0.8512 0.8546
2716.000000 0.8580 0.8626 0.8672 0.8730 0.8788
2721.000000 0.8912 0.9036 0.9045 0.9054 0.9063
2726.000000 0.9072 0.9081 0.9090 0.9098 0.9107
2731.000000 0.9114 0.9121 0.9128 0.9135 0.9142
2736.000000 0.9150 0.9157 0.9165 0.9185 0.9205
2741.000000 0.9224 0.9244 0.9258 0.9272 0.9279
2746.000000 0.9286 0.9292 0.9299 0.9304 0.9310
2751.000000 0.9310 0.9311 0.9311 0.9337 0.9312
2756.000000 0.9312 0.9312 0.9313 0.9311 0.9310
2761.000000 0.9308 0.9306 0.9304 0.9302 0.9299
2766.000000 0.9297 0.9292 0.9288 0.9283 0.9279
2771.000000 0.9274 0.9269 0.9264 0.9260 0.9254
2776.000000 0.9249 0.9238 0.9228 0.9217 0.9206
2781.000000 0.9185 0.9165 0.9144 0.9123 0.9101
2786.000000 0.9080 0.9042 0.9004 0.8957 0.8911
2791.000000 0.8875 0.8839 0.8804 0.8769 0.8734
2796.000000 0.8699 0.8663 0.8628 0.8593 0.8558
2801.000000 0.8522 0.8487 0.8451 0.8416 0.8380
2806.000000 0.8345 0.8329 0.8313 0.8299 0.8285
2811.000000 0.8271 0.8257 0.8243 0.8230 0.8216
2816.000000 0.8202 0.8133 0.8065 0.7998 0.7931
2821.000000 0.7868 0.7805 0.7739 0.7674 0.7606
2826.000000 0.7539 0.7471 0.7403 0.7333 0.7264
2831.000000 0.7171 0.7079 0.6240 0.5402 0.5301
2836.000000 0.5200 0.4934 0.4668 0.4370 0.4072
2841.000000 0.3774 0.3476 0.3178 0.2881 0.2583
2846.000000 0.2285 0.1987 0.1690 0.1392 0.1009
2851.000000 0.1042 0.0991 0.0993 0.0995 0.0998
2856.000000 0.1001 0.1018 0.1036 0.1200 0.1364
2861.000000 0.1528 0.1693 0.1817 0.1941 0.1977
2866.000000 0.2013 0.2040 0.2068 0.2193 0.2318
2871.000000 0.2474 0.2631 0.2787 0.2944 0.3017
2876.000000 0.3090 0.3088 0.3056 0.3085 0.3084
2881.000000 0.2961 0.2839 0.2636 0.2434 0.2231
2886.000000 0.2029 0.1826 0.1624 0.1421 0.1218
2891.000000 0.1019 0.0821 0.0757 0.0694 0.0641
2896.000000 0.0589 0.0536 0.0484 0.0414 0.0345
2901.000000 0.0286 0.0227 0.0197 0.0168 0.0159
2906.000000 0.0151 0.0142 0.0134 0.0125 0.0117
2911.000000 0.0108 0.0099 0.0094 0.0089 0.0085
2916.000000 0.0081 0.0077 0.0073 0.0068 0.0064
2921.000000 0.0062 0.0061 0.0061 0.0062 0.0062
2926.000000 0.0044 0.0063 0.0064 0.0070 0.0077
2931.000000 0.0093 0.0109 0.0128 0.0147 0.0170
2936.000000 0.0193 0.0239 0.0286 0.0331 0.0377
2941.000000 0.0449 0.0521 0.0657 0.0794 0.0930
2946.000000 0.1067 0.1203 0.1340 0.1476 0.1613
2951.000000 0.1750 0.1887 0.2023 0.2160 0.2252
2956.000000 0.2345 0.2399 0.2453 0.2593 0.2733
2961.000000 0.2964 0.3195 0.3426 0.3658 0.3889
2966.000000 0.4120 0.4351 0.4582 0.4813 0.5045
2971.000000 0.5276 0.5507 0.5738 0.5969 0.6200
2976.000000 0.6432 0.6663 0.6894 0.7011 0.7129
2981.000000 0.7161 0.7194 0.7292 0.7391 0.7452
2986.000000 0.7513 0.7604 0.7695 0.7779 0.7863
2991.000000 0.7896 0.7930 0.7969 0.8008 0.8062
2996.000000 0.8117 0.8171 0.8225 0.8258 0.8291
3001.000000 0.8323 0.8356 0.8388 0.8421 0.8496
3006.000000 0.8571 0.8636 0.8702 0.8723 0.8744
3011.000000 0.8765 0.8786 0.8807 0.8828 0.8849
3016.000000 0.8870 0.8888 0.8907 0.8926 0.8945
3021.000000 0.8963 0.8982 0.9000 0.9019 0.9030
3026.000000 0.9041 0.9049 0.9057 0.9065 0.9073
3031.000000 0.9081 0.9089 0.9097 0.9105 0.9113
3036.000000 0.9121 0.9127 0.9134 0.9141 0.9148
3041.000000 0.9154 0.9161 0.9167 0.9174 0.9181
3046.000000 0.9188 0.9195 0.9202 0.9209 0.9217
3051.000000 0.9224 0.9232 0.9239 0.9247 0.9254
3056.000000 0.9261 0.9268 0.9276 0.9283 0.9291
3061.000000 0.9298 0.9306 0.9313 0.9320 0.9325
3066.000000 0.9330 0.9335 0.9340 0.9344 0.9349
3071.000000 0.9353 0.9358 0.9363 0.9368 0.9372
3076.000000 0.9377 0.9381 0.9386 0.9389 0.9392
3081.000000 0.9393 0.9395 0.9396 0.9398 0.9399
3086.000000 0.9400 0.9401 0.9402 0.9402 0.9403
3091.000000 0.9404 0.9405 0.9406 0.9407 0.9407
3096.000000 0.9408 0.9409 0.9410 0.9410 0.9411
3101.000000 0.9412 0.9413 0.9414 0.9415 0.9415
3106.000000 0.9416 0.9417 0.9418 0.9419 0.9420
3111.000000 0.9420 0.9421 0.9422 0.9423 0.9424
3116.000000 0.9425 0.9426 0.9438 0.9427 0.9428
3121.000000 0.9429 0.9430 0.9431 0.9432 0.9433
3126.000000 0.9434 0.9434 0.9435 0.9436 0.9437
3131.000000 0.9438 0.9439 0.9440 0.9442 0.9444
3136.000000 0.9446 0.9447 0.9449 0.9450 0.9452
3141.000000 0.9453 0.9455 0.9457 0.9459 0.9460
3146.000000 0.9462 0.9463 0.9465 0.9466 0.9468
3151.000000 0.9470 0.9472 0.9473 0.9475 0.9476
3156.000000 0.9478 0.9478 0.9479 0.9479 0.9479
3161.000000 0.9479 0.9479 0.9478 0.9478 0.9478
3166.000000 0.9478 0.9478 0.9478 0.9478 0.9478
3171.000000 0.9478 0.9478 0.9477 0.9477 0.9477
3176.000000 0.9477 0.9477 0.9477 0.9477 0.9477
3181.000000 0.9477 0.9478 0.9478 0.9478 0.9478
3186.000000 0.9478 0.9478 0.9478 0.9478 0.9479
3191.000000 0.9479 0.9479 0.9479 0.9479 0.9479
3196.000000 0.9479 0.9479 0.9480 0.9480 0.9480
3201.000000 0.9480 0.9480 0.9480 0.9481 0.9481
3206.000000 0.9481 0.9481 0.9481 0.9481 0.9481
3211.000000 0.9481 0.9482 0.9482 0.9482 0.9482
3216.000000 0.9482 0.9482 0.9483 0.9483 0.9483
3221.000000 0.9483 0.9483 0.9483 0.9484 0.9484
3226.000000 0.9484 0.9484 0.9484 0.9484 0.9484
3231.000000 0.9484 0.9485 0.9485 0.9485 0.9485
3236.000000 0.9485 0.9485 0.9486 0.9486 0.9486
3241.000000 0.9486 0.9486 0.9486 0.9486 0.9486
3246.000000 0.9486 0.9486 0.9486 0.9485 0.9485
3251.000000 0.9485 0.9485 0.9485 0.9485 0.9485
3256.000000 0.9485 0.9485 0.9485 0.9484 0.9484
3261.000000 0.9484 0.9484 0.9484 0.9484 0.9484
3266.000000 0.9485 0.9486 0.9487 0.9488 0.9490
3271.000000 0.9491 0.9493 0.9494 0.9496 0.9497
3276.000000 0.9498 0.9499 0.9501 0.9502 0.9504
3281.000000 0.9505 0.9507 0.9508 0.9509 0.9510
3286.000000 0.9512 0.9513 0.9515 0.9516 0.9518
3291.000000 0.9519 0.9520 0.9521 0.9523 0.9524
3296.000000 0.9525 0.9525 0.9525 0.9525 0.9526
3301.000000 0.9526 0.9526 0.9526 0.9526 0.9526
3306.000000 0.9526 0.9526 0.9527 0.9527 0.9527
3311.000000 0.9527 0.9527 0.9527 0.9527 0.9527
3316.000000 0.9528 0.9528 0.9528 0.9528 0.9528
3321.000000 0.9528 0.9528 0.9528 0.9529 0.9529
3326.000000 0.9529 0.9529 0.9529 0.9529 0.9529
3331.000000 0.9529 0.9530 0.9530 0.9530 0.9529
3336.000000 0.9528 0.9527 0.9526 0.9525 0.9524
3341.000000 0.9523 0.9522 0.9521 0.9521 0.9520
3346.000000 0.9519 0.9518 0.9517 0.9516 0.9515
3351.000000 0.9514 0.9513 0.9512 0.9511 0.9508
3356.000000 0.9506 0.9501 0.9497 0.9493 0.9489
3361.000000 0.9485 0.9481 0.9477 0.9473 0.9468
3366.000000 0.9464 0.9460 0.9456 0.9452 0.9448
3371.000000 0.9444 0.9441 0.9440 0.9439 0.9438
3376.000000 0.9438 0.9437 0.9436 0.9435 0.9434
3381.000000 0.9433 0.9433 0.9432 0.9431 0.9430
3386.000000 0.9429 0.9428 0.9428 0.9427 0.9426
3391.000000 0.9425 0.9424 0.9423 0.9423 0.9423
3396.000000 0.9424 0.9424 0.9425 0.9425 0.9426
3401.000000 0.9426 0.9426 0.9426 0.9427 0.9427
3406.000000 0.9428 0.9428 0.9429 0.9429 0.9430
3411.000000 0.9430 0.9431 0.9431 0.9432 0.9432
3416.000000 0.9433 0.9433 0.9434 0.9434 0.9435
3421.000000 0.9435 0.9436 0.9436 0.9437 0.9438
3426.000000 0.9439 0.9439 0.9440 0.9440 0.9441
3431.000000 0.9441 0.9442 0.9443 0.9444 0.9444
3436.000000 0.9445 0.9445 0.9446 0.9447 0.9448
3441.000000 0.9448 0.9449 0.9449 0.9450 0.9450
3446.000000 0.9451 0.9452 0.9453 0.9453 0.9454
3451.000000 0.9454 0.9455 0.9455 0.9456 0.9456
3456.000000 0.9456 0.9456 0.9457 0.9457 0.9458
3461.000000 0.9458 0.9458 0.9458 0.9459 0.9459
3466.000000 0.9460 0.9460 0.9461 0.9461 0.9461
3471.000000 0.9461 0.9462 0.9462 0.9463 0.9463
3476.000000 0.9463 0.9463 0.9464 0.9464 0.9465
3481.000000 0.9465 0.9465 0.9465 0.9466 0.9466
3486.000000 0.9467 0.9467 0.9468 0.9468 0.9468
3491.000000 0.9468 0.9469 0.9469 0.9470 0.9470
3496.000000 0.9470 0.9470 0.9471 0.9471 0.9472
3501.000000 0.9472 0.9472 0.9472 0.9473 0.9473
3506.000000 0.9473 0.9472 0.9472 0.9471 0.9471
3511.000000 0.9471 0.9471 0.9470 0.9470 0.9469
3516.000000 0.9469 0.9468 0.9468 0.9467 0.9467
3521.000000 0.9466 0.9466 0.9465 0.9465 0.9464
3526.000000 0.9464 0.9464 0.9464 0.9463 0.9463
3531.000000 0.9462 0.9462 0.9461 0.9461 0.9460
3536.000000 0.9460 0.9459 0.9459 0.9458 0.9458
3541.000000 0.9458 0.9458 0.9457 0.9457 0.9456
3546.000000 0.9456 0.9455 0.9455 0.9454 0.9454
3551.000000 0.9453 0.9453 0.9452 0.9452 0.9452
3556.000000 0.9453 0.9453 0.9454 0.9455 0.9456
3561.000000 0.9456 0.9457 0.9457 0.9458 0.9458
3566.000000 0.9459 0.9459 0.9460 0.9460 0.9461
3571.000000 0.9461 0.9462 0.9463 0.9464 0.9464
3576.000000 0.9465 0.9465 0.9466 0.9466 0.9467
3581.000000 0.9467 0.9468 0.9468 0.9469 0.9469
3586.000000 0.9470 0.9470 0.9471 0.9472 0.9473
3591.000000 0.9473 0.9474 0.9474 0.9475 0.9475
3596.000000 0.9476 0.9476 0.9477 0.9477 0.9478
3601.000000 0.9478 0.9479 0.9480 0.9481 0.9481
3606.000000 0.9482 0.9482 0.9483 0.9483 0.9484
3611.000000 0.9484 0.9485 0.9485 0.9486 0.9486
3616.000000 0.9487 0.9487 0.9488 0.9489 0.9490
3621.000000 0.9490 0.9491 0.9491 0.9491 0.9491
3626.000000 0.9491 0.9490 0.9490 0.9489 0.9489
3631.000000 0.9488 0.9488 0.9487 0.9487 0.9487
3636.000000 0.9487 0.9486 0.9486 0.9485 0.9485
3641.000000 0.9484 0.9483 0.9483 0.9483 0.9483
3646.000000 0.9484 0.9484 0.9485 0.9485 0.9486
3651.000000 0.9486 0.9487 0.9487 0.9488 0.9488
3656.000000 0.9489 0.9489 0.9490 0.9490 0.9491
3661.000000 0.9491 0.9492 0.9492 0.9493 0.9493
3666.000000 0.9494 0.9494 0.9495 0.9495 0.9496
3671.000000 0.9496 0.9497 0.9497 0.9497 0.9497
3676.000000 0.9497 0.9497 0.9497 0.9497 0.9497
3681.000000 0.9497 0.9497 0.9497 0.9497 0.9497
3686.000000 0.9498 0.9498 0.9498 0.9498 0.9498
3691.000000 0.9498 0.9498 0.9498 0.9498 0.9498
3696.000000 0.9498 0.9498 0.9498 0.9498 0.9498
3701.000000 0.9498 0.9498 0.9498 0.9498 0.9498
3706.000000 0.9498 0.9498 0.9499 0.9499 0.9500
3711.000000 0.9500 0.9500 0.9500 0.9501 0.9501
3716.000000 0.9502 0.9502 0.9502 0.9502 0.9503
3721.000000 0.9503 0.9504 0.9504 0.9504 0.9504
3726.000000 0.9505 0.9505 0.9506 0.9506 0.9506
3731.000000 0.9506 0.9507 0.9507 0.9508 0.9508
3736.000000 0.9509 0.9509 0.9509 0.9510 0.9511
3741.000000 0.9512 0.9513 0.9514 0.9516 0.9517
3746.000000 0.9519 0.9520 0.9522 0.9523 0.9525
3751.000000 0.9526 0.9527 0.9527 0.9527 0.9527
3756.000000 0.9528 0.9528 0.9528 0.9528 0.9529
3761.000000 0.9529 0.9529 0.9529 0.9530 0.9530
3766.000000 0.9531 0.9531 0.9531 0.9531 0.9532
3771.000000 0.9532 0.9532 0.9532 0.9533 0.9533
3776.000000 0.9533 0.9533 0.9534 0.9534 0.9534
3781.000000 0.9534 0.9535 0.9535 0.9535 0.9535
3786.000000 0.9536 0.9536 0.9536 0.9536 0.9537
3791.000000 0.9537 0.9537 0.9537 0.9538 0.9538
3796.000000 0.9538 0.9538 0.9539 0.9538 0.9538
3801.000000 0.9538 0.9538 0.9537 0.9537 0.9537
3806.000000 0.9537 0.9536 0.9536 0.9536 0.9536
3811.000000 0.9536 0.9536 0.9535 0.9535 0.9535
3816.000000 0.9535 0.9534 0.9534 0.9534 0.9534
3821.000000 0.9533 0.9533 0.9532 0.9532 0.9531
3826.000000 0.9531 0.9530 0.9529 0.9528 0.9527
3831.000000 0.9526 0.9526 0.9525 0.9524 0.9523
3836.000000 0.9523 0.9522 0.9521 0.9520 0.9520
3841.000000 0.9519 0.9518 0.9517 0.9517 0.9516
3846.000000 0.9515 0.9514 0.9514 0.9513 0.9512
3851.000000 0.9511 0.9510 0.9509 0.9509 0.9508
3856.000000 0.9507 0.9506 0.9506 0.9505 0.9504
3861.000000 0.9502 0.9501 0.9499 0.9498 0.9497
3866.000000 0.9496 0.9494 0.9493 0.9491 0.9490
3871.000000 0.9488 0.9487 0.9485 0.9484 0.9482
3876.000000 0.9481 0.9479 0.9478 0.9476 0.9475
3881.000000 0.9474 0.9473 0.9471 0.9470 0.9468
3886.000000 0.9467 0.9465 0.9464 0.9462 0.9461
3891.000000 0.9459 0.9457 0.9454 0.9452 0.9449
3896.000000 0.9446 0.9443 0.9440 0.9437 0.9434
3901.000000 0.9431 0.9428 0.9425 0.9423 0.9420
3906.000000 0.9417 0.9414 0.9411 0.9408 0.9405
3911.000000 0.9402 0.9400 0.9399 0.9398 0.9396
3916.000000 0.9395 0.9394 0.9393 0.9392 0.9391
3921.000000 0.9389 0.9388 0.9387 0.9386 0.9385
3926.000000 0.9384 0.9382 0.9381 0.9380 0.9379
3931.000000 0.9378 0.9378 0.9379 0.9380 0.9380
3936.000000 0.9381 0.9381 0.9382 0.9383 0.9384
3941.000000 0.9384 0.9385 0.9384 0.9383 0.9382
3946.000000 0.9382 0.9381 0.9381 0.9380 0.9379
3951.000000 0.9378 0.9378 0.9377 0.9377 0.9376
3956.000000 0.9376 0.9375 0.9374 0.9373 0.9373
3961.000000 0.9372 0.9371 0.9369 0.9368 0.9367
3966.000000 0.9366 0.9364 0.9363 0.9361 0.9360
3971.000000 0.9359 0.9358 0.9356 0.9355 0.9353
3976.000000 0.9352 0.9351 0.9350 0.9348 0.9347
3981.000000 0.9345 0.9344 0.9343 0.9342 0.9340
3986.000000 0.9339 0.9337 0.9336 0.9335 0.9334
3991.000000 0.9332 0.9331 0.9329 0.9328 0.9327
3996.000000 0.9326 0.9325 0.9324
##END=
