##TITLE=CYCLODODECANE
##JCAMP-DX=4.24
##DATA TYPE=INFRARED SPECTRUM
##CLASS=COBLENTZ
##ORIGIN=TENNESSEE EASTMAN COMPANY, RESEARCH LABORATORIES
##OWNER=COBLENTZ SOCIETY
Collection (C) 2018 copyright by the U.S. Secretary of Commerce
on behalf of the United States of America. All rights reserved.
##DATE=1960
##CAS REGISTRY NO=294-62-2
##MOLFORM=C12 H24
##MP=56-57 C
##SOURCE REFERENCE=COBLENTZ NO. 958
##$NIST SOURCE=COBLENTZ
##$NIST IMAGE=cob958
##SPECTROMETER/DATA SYSTEM=Not specified, most likely a prism, grating, or hybrid spectrometer.
##STATE=SOLID (PELLET)
##SAMPLING PROCEDURE=TRANSMISSION
##RESOLUTION=4
##DATA PROCESSING=DIGITIZED BY NIST FROM HARD COPY
##XUNITS=MICROMETERS
##YUNITS=TRANSMITTANCE
##XFACTOR=1.000000
##YFACTOR=1
##DELTAX=000.006623
##FIRSTX=2.013
##LASTX=15.974
##FIRSTY=0.548
##MAXX=15.974
##MINX=2.013
##MAXY=0.955
##MINY=0
##NPOINTS=2109
##XYDATA=(X++(Y..Y))
2.013000 0.5480 0.5480 0.5500 0.5500 0.5500
2.046128 0.5530 0.5530 0.5580 0.5620 0.5620
2.079000 0.5630 0.5630 0.5650 0.5670 0.5680
2.112128 0.5700 0.5730 0.5750 0.5780 0.5820
2.146000 0.5850 0.5850 0.5870 0.5880 0.5920
2.179128 0.5920 0.5950 0.5980 0.5980 0.5980
2.212000 0.6000 0.6000 0.6010 0.6030 0.6030
2.245128 0.6010 0.6000 0.5980 0.5980 0.5980
2.278000 0.5970 0.5970 0.5970 0.5970 0.5970
2.311128 0.5970 0.5970 0.5970 0.5980 0.6000
2.344000 0.6010 0.6050 0.6080 0.6110 0.6130
2.377128 0.6150 0.6180 0.6200 0.6210 0.6250
2.411000 0.6260 0.6260 0.6260 0.6260 0.6260
2.444128 0.6280 0.6280 0.6300 0.6330 0.6350
2.477000 0.6360 0.6360 0.6380 0.6400 0.6430
2.510128 0.6480 0.6500 0.6510 0.6530 0.6550
2.543000 0.6550 0.6580 0.6600 0.6610 0.6630
2.576128 0.6630 0.6630 0.6650 0.6650 0.6660
2.609000 0.6680 0.6680 0.6680 0.6690 0.6710
2.642128 0.6740 0.6780 0.6790 0.6790 0.6790
2.675000 0.6790 0.6790 0.6790 0.6790 0.6790
2.708128 0.6790 0.6790 0.6790 0.6790 0.6780
2.742000 0.6760 0.6740 0.6730 0.6650 0.6610
2.775128 0.6550 0.6510 0.6500 0.6500 0.6460
2.808000 0.6410 0.6400 0.6360 0.6330 0.6300
2.841128 0.6280 0.6230 0.6200 0.6180 0.6130
2.874000 0.6100 0.6080 0.6060 0.6050 0.6050
2.907128 0.6010 0.6010 0.6010 0.6010 0.6050
2.940000 0.6110 0.6200 0.6280 0.6330 0.6380
2.973128 0.6430 0.6500 0.6530 0.6610 0.6630
3.007000 0.6660 0.6740 0.6780 0.6790 0.6830
3.040128 0.6830 0.6840 0.6880 0.6890 0.6910
3.073000 0.6940 0.6960 0.6940 0.6960 0.6960
3.106128 0.6960 0.6980 0.6990 0.6990 0.7010
3.139000 0.7040 0.7080 0.7110 0.7140 0.7180
3.172128 0.7180 0.7190 0.7210 0.7210 0.7230
3.205000 0.7240 0.7260 0.7280 0.7280 0.7290
3.238128 0.7310 0.7310 0.7310 0.7290 0.7290
3.272000 0.7280 0.7260 0.7240 0.7210 0.7130
3.305128 0.7030 0.6860 0.6690 0.6500 0.6210
3.338000 0.5820 0.5170 0.4440 0.3300 0.1270
3.371128 0.0040 0.0000 0.0000 0.0000 0.0090
3.404000 0.0160 0.0290 0.0310 0.0330 0.0510
3.437128 0.0720 0.1060 0.1110 0.1090 0.0840
3.470000 0.0640 0.0610 0.0630 0.1260 0.2220
3.503128 0.3050 0.3980 0.4820 0.5800 0.6350
3.536000 0.6480 0.6500 0.6550 0.6760 0.6960
3.569128 0.7040 0.7140 0.7240 0.7290 0.7370
3.603000 0.7420 0.7460 0.7470 0.7490 0.7510
3.636128 0.7520 0.7520 0.7540 0.7560 0.7570
3.669000 0.7590 0.7590 0.7590 0.7590 0.7610
3.702128 0.7610 0.7610 0.7610 0.7590 0.7560
3.735000 0.7520 0.7460 0.7360 0.7310 0.7190
3.768128 0.7130 0.7090 0.7090 0.7160 0.7330
3.801000 0.7340 0.7370 0.7520 0.7620 0.7640
3.834128 0.7670 0.7740 0.7790 0.7840 0.7890
3.868000 0.7920 0.7970 0.7990 0.8000 0.8000
3.901128 0.8020 0.8040 0.8040 0.8050 0.8050
3.934000 0.8070 0.8070 0.8090 0.8090 0.8090
3.967128 0.8090 0.8090 0.8090 0.8070 0.8070
4.000000 0.8070 0.8070 0.8100 0.8100 0.8150
4.033128 0.8170 0.8220 0.8250 0.8300 0.8340
4.066000 0.8370 0.8390 0.8390 0.8400 0.8400
4.099128 0.8400 0.8400 0.8400 0.8400 0.8400
4.132000 0.8400 0.8400 0.8400 0.8400 0.8400
4.165128 0.8400 0.8390 0.8390 0.8390 0.8390
4.199000 0.8400 0.8420 0.8440 0.8450 0.8450
4.232128 0.8490 0.8500 0.8500 0.8500 0.8490
4.265000 0.8490 0.8490 0.8490 0.8490 0.8500
4.298128 0.8500 0.8490 0.8490 0.8490 0.8470
4.331000 0.8470 0.8470 0.8470 0.8470 0.8450
4.364128 0.8450 0.8470 0.8490 0.8490 0.8490
4.397000 0.8490 0.8500 0.8470 0.8470 0.8490
4.430128 0.8500 0.8500 0.8490 0.8490 0.8490
4.464000 0.8490 0.8490 0.8490 0.8490 0.8500
4.497128 0.8520 0.8540 0.8540 0.8550 0.8570
4.530000 0.8590 0.8600 0.8620 0.8640 0.8640
4.563128 0.8640 0.8640 0.8640 0.8640 0.8640
4.596000 0.8620 0.8620 0.8640 0.8640 0.8640
4.629128 0.8640 0.8650 0.8650 0.8640 0.8640
4.662000 0.8640 0.8640 0.8650 0.8650 0.8670
4.695128 0.8650 0.8670 0.8670 0.8680 0.8680
4.728000 0.8680 0.8680 0.8670 0.8680 0.8680
4.761128 0.8680 0.8700 0.8700 0.8700 0.8700
4.795000 0.8700 0.8700 0.8700 0.8680 0.8680
4.828128 0.8680 0.8680 0.8680 0.8680 0.8680
4.861000 0.8680 0.8700 0.8700 0.8700 0.8720
4.894128 0.8720 0.8730 0.8730 0.8720 0.8720
4.927000 0.8720 0.8730 0.8730 0.8730 0.8730
4.960128 0.8730 0.8750 0.8770 0.8780 0.8820
4.993000 0.8870 0.8870 0.8870 0.8850 0.8850
5.026128 0.8830 0.8830 0.8820 0.8820 0.8830
5.060000 0.8830 0.8830 0.8830 0.8850 0.8830
5.093128 0.8850 0.8850 0.8870 0.8880 0.8880
5.126000 0.8900 0.8900 0.8900 0.8900 0.8900
5.159128 0.8900 0.8900 0.8880 0.8880 0.8900
5.192000 0.8920 0.8920 0.8900 0.8900 0.8900
5.225128 0.8920 0.8920 0.8920 0.8920 0.8900
5.258000 0.8920 0.8920 0.8900 0.8900 0.8920
5.291128 0.8920 0.8920 0.8920 0.8920 0.8930
5.325000 0.8930 0.8930 0.8930 0.8930 0.8920
5.358128 0.8930 0.8930 0.8930 0.8930 0.8950
5.391000 0.8950 0.9000 0.9000 0.9000 0.9000
5.424128 0.9000 0.9000 0.9000 0.9000 0.9000
5.457000 0.9000 0.9000 0.9000 0.8950 0.8950
5.490128 0.8970 0.8970 0.8970 0.8970 0.8980
5.523000 0.9000 0.9000 0.9000 0.9000 0.9000
5.556128 0.9000 0.9000 0.9000 0.9000 0.9000
5.589000 0.9000 0.9020 0.9020 0.9020 0.9000
5.622128 0.9000 0.9000 0.8980 0.8970 0.8950
5.656000 0.9000 0.9000 0.9000 0.9000 0.9000
5.689128 0.9000 0.9000 0.9000 0.9000 0.9000
5.722000 0.9000 0.9000 0.9000 0.9000 0.9000
5.755128 0.8950 0.8870 0.8850 0.8830 0.8850
5.788000 0.8870 0.8900 0.8920 0.8930 0.8930
5.821128 0.8920 0.8900 0.8900 0.8900 0.8900
5.854000 0.8920 0.8930 0.8930 0.8930 0.8920
5.887128 0.8920 0.8880 0.8870 0.8870 0.8870
5.921000 0.8870 0.8870 0.8850 0.8830 0.8820
5.954128 0.8780 0.8780 0.8780 0.8780 0.8770
5.987000 0.8750 0.8730 0.8720 0.8700 0.8700
6.020128 0.8680 0.8680 0.8680 0.8680 0.8650
6.053000 0.8600 0.8540 0.8490 0.8440 0.8440
6.086128 0.8440 0.8420 0.8440 0.8440 0.8400
6.119000 0.8390 0.8390 0.8390 0.8390 0.8390
6.152128 0.8400 0.8400 0.8400 0.8400 0.8400
6.185000 0.8420 0.8440 0.8450 0.8470 0.8500
6.218128 0.8540 0.8590 0.8620 0.8620 0.8640
6.252000 0.8670 0.8680 0.8720 0.8770 0.8800
6.285128 0.8820 0.8830 0.8870 0.8900 0.8930
6.318000 0.8930 0.8920 0.8920 0.8900 0.8900
6.351128 0.8900 0.8920 0.8920 0.8930 0.8930
6.384000 0.8930 0.8930 0.8930 0.8880 0.8830
6.417128 0.8830 0.8820 0.8870 0.8920 0.8930
6.450000 0.8920 0.8900 0.8850 0.8780 0.8720
6.483128 0.8720 0.8720 0.8750 0.8780 0.8800
6.517000 0.8820 0.8830 0.8830 0.8830 0.8800
6.550128 0.8750 0.8730 0.8730 0.8720 0.8730
6.583000 0.8730 0.8730 0.8730 0.8700 0.8650
6.616128 0.8600 0.8520 0.8520 0.8500 0.8490
6.649000 0.8400 0.8370 0.8320 0.8240 0.8070
6.682128 0.7920 0.7740 0.7660 0.7470 0.7230
6.715000 0.6660 0.6150 0.5400 0.4720 0.3880
6.748128 0.2850 0.1770 0.1740 0.1770 0.3110
6.781000 0.4160 0.5190 0.5880 0.6380 0.6580
6.814128 0.6730 0.6780 0.6780 0.6760 0.6380
6.848000 0.5980 0.5630 0.5300 0.5040 0.4740
6.881128 0.4570 0.4290 0.3990 0.3710 0.3390
6.914000 0.3360 0.3380 0.4160 0.4920 0.6430
6.947128 0.7090 0.7670 0.7890 0.8000 0.8070
6.980000 0.8140 0.8190 0.8290 0.8400 0.8450
7.013128 0.8490 0.8500 0.8540 0.8590 0.8640
7.046000 0.8680 0.8720 0.8730 0.8750 0.8750
7.079128 0.8770 0.8780 0.8770 0.8750 0.8750
7.113000 0.8750 0.8770 0.8770 0.8770 0.8780
7.146128 0.8800 0.8820 0.8830 0.8850 0.8870
7.179000 0.8870 0.8850 0.8850 0.8830 0.8800
7.212128 0.8800 0.8820 0.8820 0.8820 0.8830
7.245000 0.8830 0.8830 0.8830 0.8830 0.8830
7.278128 0.8820 0.8800 0.8800 0.8700 0.8570
7.311000 0.8470 0.8420 0.8340 0.8300 0.8270
7.344128 0.8250 0.8240 0.8240 0.8250 0.8270
7.377000 0.8270 0.8220 0.8150 0.7990 0.7720
7.410128 0.7410 0.7090 0.6580 0.6180 0.6130
7.444000 0.6180 0.6560 0.6940 0.7280 0.7740
7.477128 0.8090 0.8250 0.8370 0.8440 0.8490
7.510000 0.8490 0.8500 0.8520 0.8570 0.8620
7.543128 0.8640 0.8650 0.8670 0.8670 0.8680
7.576000 0.8680 0.8700 0.8490 0.8350 0.8240
7.609128 0.8170 0.7970 0.7690 0.7560 0.7540
7.642000 0.7560 0.8040 0.8350 0.8520 0.8600
7.675128 0.8670 0.8700 0.8750 0.8770 0.8770
7.709000 0.8750 0.8700 0.8670 0.8670 0.8670
7.742128 0.8700 0.8720 0.8770 0.8800 0.8820
7.775000 0.8830 0.8850 0.8880 0.8900 0.8920
7.808128 0.8920 0.8920 0.8920 0.8930 0.8950
7.841000 0.8950 0.8930 0.8930 0.8880 0.8830
7.874128 0.8770 0.8730 0.8720 0.8700 0.8700
7.907000 0.8720 0.8730 0.8730 0.8750 0.8780
7.940128 0.8780 0.8770 0.8750 0.8700 0.8540
7.974000 0.8420 0.8390 0.8350 0.7810 0.7230
8.007128 0.6710 0.6460 0.6110 0.6100 0.6110
8.040000 0.6790 0.7330 0.7890 0.8200 0.8420
8.073128 0.8520 0.8640 0.8720 0.8750 0.8800
8.106000 0.8820 0.8820 0.8830 0.8850 0.8880
8.139128 0.8920 0.8970 0.9030 0.9070 0.9080
8.172000 0.9100 0.9120 0.9150 0.9150 0.9150
8.205128 0.9150 0.9130 0.9130 0.9130 0.9130
8.238000 0.9120 0.9120 0.9120 0.9120 0.9120
8.271128 0.9120 0.9120 0.9130 0.9170 0.9170
8.305000 0.9170 0.9180 0.9200 0.9200 0.9200
8.338128 0.9200 0.9200 0.9200 0.9200 0.9200
8.371000 0.9200 0.9200 0.9200 0.9220 0.9220
8.404128 0.9200 0.9200 0.9200 0.9200 0.9220
8.437000 0.9220 0.9230 0.9230 0.9230 0.9200
8.470128 0.9200 0.9220 0.9220 0.9220 0.9220
8.503000 0.9200 0.9200 0.9200 0.9200 0.9180
8.536128 0.9180 0.9180 0.9180 0.9180 0.9180
8.570000 0.9180 0.9180 0.9180 0.9180 0.9200
8.603128 0.9200 0.9200 0.9180 0.9180 0.9180
8.636000 0.9200 0.9200 0.9200 0.9200 0.9200
8.669128 0.9200 0.9200 0.9200 0.9200 0.9220
8.702000 0.9220 0.9220 0.9220 0.9220 0.9220
8.735128 0.9230 0.9230 0.9220 0.9220 0.9220
8.768000 0.9220 0.9220 0.9220 0.9220 0.9220
8.801128 0.9220 0.9220 0.9220 0.9230 0.9230
8.834000 0.9230 0.9220 0.9220 0.9220 0.9230
8.867128 0.9230 0.9220 0.9220 0.9230 0.9220
8.901000 0.9220 0.9220 0.9220 0.9220 0.9220
8.934128 0.9220 0.9220 0.9220 0.9220 0.9220
8.967000 0.9220 0.9200 0.9200 0.9220 0.9220
9.000128 0.9200 0.9200 0.9220 0.9220 0.9220
9.033000 0.9220 0.9220 0.9220 0.9220 0.9200
9.066128 0.9200 0.9200 0.9220 0.9200 0.9200
9.099000 0.9200 0.9200 0.9180 0.9180 0.9180
9.132128 0.9180 0.9180 0.9180 0.9180 0.9150
9.166000 0.9130 0.9130 0.9130 0.9130 0.9130
9.199128 0.9120 0.9120 0.9120 0.9120 0.9120
9.232000 0.9120 0.9120 0.9100 0.9070 0.9020
9.265128 0.8980 0.8980 0.8980 0.9000 0.9000
9.298000 0.9000 0.9030 0.9030 0.9030 0.9070
9.331128 0.9070 0.9080 0.9080 0.9100 0.9100
9.364000 0.9100 0.9100 0.9100 0.9100 0.9100
9.397128 0.9100 0.9100 0.9100 0.9100 0.9100
9.430000 0.9100 0.9100 0.9070 0.9030 0.9020
9.463128 0.8970 0.8900 0.8870 0.8830 0.8830
9.497000 0.8830 0.8830 0.8820 0.8730 0.8540
9.530128 0.8350 0.8150 0.7840 0.7710 0.7510
9.563000 0.7420 0.7420 0.7510 0.7810 0.8090
9.596128 0.8250 0.8450 0.8490 0.8590 0.8620
9.629000 0.8680 0.8750 0.8820 0.8870 0.8880
9.662128 0.8900 0.8930 0.8950 0.8980 0.8980
9.695000 0.8980 0.8980 0.9000 0.9020 0.9020
9.728128 0.9020 0.9020 0.9020 0.9020 0.9030
9.762000 0.9030 0.9030 0.9030 0.9030 0.9050
9.795128 0.9050 0.9050 0.9050 0.9050 0.9050
9.828000 0.9050 0.9050 0.9080 0.9080 0.9080
9.861128 0.9100 0.9100 0.9120 0.9120 0.9120
9.894000 0.9120 0.9130 0.9130 0.9130 0.9130
9.927128 0.9130 0.9150 0.9150 0.9150 0.9150
9.960000 0.9150 0.9150 0.9150 0.9150 0.9150
9.993128 0.9150 0.9150 0.9150 0.9150 0.9150
10.026000 0.9170 0.9170 0.9170 0.9170 0.9180
10.059128 0.9180 0.9170 0.9170 0.9170 0.9180
10.093000 0.9180 0.9180 0.9180 0.9180 0.9180
10.126128 0.9180 0.9180 0.9200 0.9180 0.9180
10.159000 0.9180 0.9180 0.9180 0.9180 0.9180
10.192128 0.9170 0.9150 0.9120 0.9100 0.9080
10.225000 0.9080 0.9070 0.9030 0.9020 0.9030
10.258128 0.9030 0.9030 0.9000 0.8870 0.8800
10.291000 0.8640 0.8520 0.8320 0.8190 0.7820
10.324128 0.7510 0.7260 0.7030 0.6840 0.6830
10.358000 0.6840 0.6960 0.7180 0.7340 0.7760
10.391128 0.8170 0.8370 0.8540 0.8640 0.8750
10.424000 0.8800 0.8880 0.8950 0.9020 0.9030
10.457128 0.9050 0.9120 0.9130 0.9150 0.9170
10.490000 0.9170 0.9180 0.9180 0.9200 0.9220
10.523128 0.9220 0.9230 0.9250 0.9250 0.9250
10.556000 0.9250 0.9250 0.9250 0.9250 0.9270
10.589128 0.9270 0.9270 0.9270 0.9270 0.9280
10.623000 0.9280 0.9280 0.9280 0.9300 0.9280
10.656128 0.9300 0.9300 0.9280 0.9280 0.9280
10.689000 0.9280 0.9280 0.9280 0.9280 0.9280
10.722128 0.9280 0.9280 0.9280 0.9280 0.9270
10.755000 0.9270 0.9280 0.9280 0.9280 0.9280
10.788128 0.9300 0.9330 0.9330 0.9330 0.9330
10.821000 0.9350 0.9350 0.9350 0.9360 0.9360
10.854128 0.9350 0.9350 0.9360 0.9360 0.9360
10.887000 0.9380 0.9380 0.9380 0.9380 0.9380
10.920128 0.9380 0.9400 0.9400 0.9400 0.9400
10.954000 0.9400 0.9400 0.9400 0.9400 0.9410
10.987128 0.9430 0.9430 0.9430 0.9430 0.9450
11.020000 0.9460 0.9450 0.9460 0.9460 0.9460
11.053128 0.9460 0.9460 0.9460 0.9460 0.9460
11.086000 0.9460 0.9460 0.9460 0.9460 0.9480
11.119128 0.9480 0.9480 0.9480 0.9480 0.9480
11.152000 0.9480 0.9480 0.9480 0.9480 0.9480
11.185128 0.9500 0.9480 0.9500 0.9500 0.9500
11.219000 0.9500 0.9500 0.9500 0.9500 0.9510
11.252128 0.9510 0.9510 0.9530 0.9530 0.9530
11.285000 0.9530 0.9530 0.9530 0.9550 0.9550
11.318128 0.9530 0.9530 0.9550 0.9550 0.9530
11.351000 0.9530 0.9530 0.9530 0.9530 0.9530
11.384128 0.9530 0.9530 0.9530 0.9530 0.9550
11.417000 0.9550 0.9550 0.9550 0.9550 0.9550
11.450128 0.9550 0.9550 0.9550 0.9550 0.9550
11.483000 0.9550 0.9550 0.9550 0.9550 0.9550
11.516128 0.9550 0.9550 0.9550 0.9550 0.9550
11.550000 0.9550 0.9550 0.9550 0.9550 0.9550
11.583128 0.9550 0.9550 0.9550 0.9530 0.9530
11.616000 0.9530 0.9530 0.9530 0.9530 0.9530
11.649128 0.9530 0.9530 0.9530 0.9530 0.9550
11.682000 0.9530 0.9530 0.9530 0.9550 0.9550
11.715128 0.9550 0.9550 0.9550 0.9550 0.9550
11.748000 0.9550 0.9530 0.9530 0.9530 0.9550
11.781128 0.9550 0.9550 0.9530 0.9530 0.9530
11.815000 0.9530 0.9530 0.9530 0.9530 0.9530
11.848128 0.9530 0.9530 0.9530 0.9530 0.9530
11.881000 0.9530 0.9530 0.9530 0.9530 0.9530
11.914128 0.9530 0.9530 0.9530 0.9530 0.9530
11.947000 0.9530 0.9510 0.9510 0.9510 0.9510
11.980128 0.9510 0.9500 0.9480 0.9410 0.9380
12.013000 0.9380 0.9400 0.9360 0.9330 0.9300
12.046128 0.9250 0.9200 0.9170 0.9100 0.8980
12.079000 0.8870 0.8780 0.8670 0.8570 0.8440
12.112128 0.8340 0.8240 0.8120 0.8020 0.7970
12.146000 0.7910 0.7910 0.7920 0.7960 0.8070
12.179128 0.8250 0.8420 0.8590 0.8680 0.8770
12.212000 0.8880 0.8950 0.9020 0.9070 0.9170
12.245128 0.9220 0.9250 0.9280 0.9300 0.9320
12.278000 0.9330 0.9350 0.9360 0.9380 0.9400
12.311128 0.9410 0.9430 0.9430 0.9450 0.9460
12.344000 0.9480 0.9500 0.9500 0.9500 0.9510
12.377128 0.9510 0.9510 0.9530 0.9510 0.9510
12.411000 0.9510 0.9510 0.9510 0.9510 0.9530
12.444128 0.9510 0.9510 0.9510 0.9510 0.9510
12.477000 0.9510 0.9530 0.9510 0.9510 0.9510
12.510128 0.9510 0.9510 0.9510 0.9510 0.9510
12.543000 0.9510 0.9510 0.9510 0.9510 0.9510
12.576128 0.9510 0.9510 0.9480 0.9460 0.9410
12.609000 0.9330 0.9280 0.9230 0.9230 0.9200
12.642128 0.9180 0.9150 0.9100 0.9050 0.9020
12.675000 0.8970 0.8930 0.8900 0.8900 0.8900
12.708128 0.8900 0.8920 0.8930 0.9000 0.9030
12.742000 0.9070 0.9100 0.9150 0.9180 0.9220
12.775128 0.9230 0.9250 0.9280 0.9300 0.9300
12.808000 0.9320 0.9320 0.9320 0.9330 0.9320
12.841128 0.9320 0.9320 0.9330 0.9330 0.9330
12.874000 0.9330 0.9330 0.9330 0.9330 0.9330
12.907128 0.9330 0.9330 0.9330 0.9320 0.9330
12.940000 0.9330 0.9330 0.9330 0.9330 0.9330
12.973128 0.9350 0.9350 0.9350 0.9350 0.9350
13.007000 0.9350 0.9350 0.9330 0.9330 0.9330
13.040128 0.9330 0.9330 0.9320 0.9320 0.9320
13.073000 0.9320 0.9320 0.9320 0.9320 0.9320
13.106128 0.9320 0.9320 0.9320 0.9320 0.9320
13.139000 0.9320 0.9320 0.9320 0.9320 0.9320
13.172128 0.9320 0.9320 0.9320 0.9320 0.9320
13.205000 0.9320 0.9320 0.9320 0.9320 0.9320
13.238128 0.9320 0.9320 0.9320 0.9300 0.9300
13.272000 0.9300 0.9300 0.9280 0.9250 0.9230
13.305128 0.9220 0.9220 0.9220 0.9200 0.9200
13.338000 0.9200 0.9200 0.9180 0.9180 0.9180
13.371128 0.9180 0.9180 0.9170 0.9170 0.9150
13.404000 0.9130 0.9130 0.9130 0.9100 0.9080
13.437128 0.9070 0.9050 0.9030 0.9030 0.9030
13.470000 0.9030 0.9020 0.9020 0.9030 0.9030
13.503128 0.9020 0.9020 0.9000 0.9000 0.9000
13.536000 0.9000 0.8980 0.9000 0.8930 0.8920
13.569128 0.8870 0.8850 0.8830 0.8780 0.8680
13.603000 0.8570 0.8570 0.8570 0.8550 0.8540
13.636128 0.8540 0.8500 0.8420 0.8350 0.8270
13.669000 0.8200 0.8150 0.8040 0.8000 0.7890
13.702128 0.7720 0.7610 0.7420 0.7240 0.7060
13.735000 0.6910 0.6730 0.6460 0.6250 0.5970
13.768128 0.5670 0.5450 0.5330 0.4900 0.4510
13.801000 0.4160 0.3740 0.3530 0.3250 0.2900
13.834128 0.2620 0.2420 0.2230 0.2080 0.2000
13.868000 0.1950 0.1950 0.1970 0.2000 0.2150
13.901128 0.2400 0.2580 0.2900 0.3210 0.3510
13.934000 0.3840 0.4210 0.4540 0.4840 0.5090
13.967128 0.5380 0.5670 0.5800 0.6010 0.6360
14.000000 0.6510 0.6710 0.6790 0.6940 0.7030
14.033128 0.7210 0.7290 0.7390 0.7410 0.7510
14.066000 0.7610 0.7660 0.7740 0.7790 0.7870
14.099128 0.7990 0.8000 0.8000 0.8050 0.8100
14.132000 0.8120 0.8150 0.8190 0.8200 0.8250
14.165128 0.8290 0.8320 0.8340 0.8340 0.8370
14.199000 0.8390 0.8390 0.8420 0.8440 0.8440
14.232128 0.8450 0.8470 0.8490 0.8490 0.8500
14.265000 0.8500 0.8520 0.8520 0.8540 0.8550
14.298128 0.8570 0.8570 0.8590 0.8600 0.8620
14.331000 0.8640 0.8640 0.8650 0.8670 0.8670
14.364128 0.8700 0.8720 0.8730 0.8730 0.8750
14.397000 0.8770 0.8800 0.8800 0.8820 0.8820
14.430128 0.8830 0.8830 0.8850 0.8850 0.8870
14.464000 0.8880 0.8880 0.8880 0.8880 0.8880
14.497128 0.8900 0.8900 0.8900 0.8920 0.8920
14.530000 0.8920 0.8920 0.8930 0.8930 0.8930
14.563128 0.8930 0.8930 0.8930 0.8950 0.8950
14.596000 0.8950 0.8950 0.8950 0.8950 0.8950
14.629128 0.8950 0.8950 0.8970 0.8970 0.8970
14.662000 0.8980 0.8980 0.8980 0.8980 0.8980
14.695128 0.9000 0.9000 0.9000 0.9000 0.9000
14.728000 0.9000 0.9000 0.9020 0.9020 0.9020
14.761128 0.9030 0.9030 0.9030 0.9030 0.9050
14.795000 0.9050 0.9050 0.9070 0.9070 0.9070
14.828128 0.9080 0.9080 0.9080 0.9080 0.9100
14.861000 0.9100 0.9120 0.9120 0.9120 0.9130
14.894128 0.9130 0.9130 0.9130 0.9130 0.9130
14.927000 0.9130 0.9130 0.9130 0.9130 0.9130
14.960128 0.9130 0.9130 0.9130 0.9120 0.9120
14.993000 0.9100 0.9070 0.9030 0.9020 0.9000
15.026128 0.8980 0.8980 0.8970 0.8950 0.8930
15.060000 0.8930 0.8930 0.8930 0.8930 0.8930
15.093128 0.8930 0.8930 0.8950 0.8950 0.8950
15.126000 0.8950 0.8950 0.8950 0.8950 0.8950
15.159128 0.8950 0.8950 0.8950 0.8950 0.8950
15.192000 0.8950 0.8950 0.8950 0.8930 0.8930
15.225128 0.8930 0.8930 0.8920 0.8920 0.8920
15.258000 0.8900 0.8870 0.8870 0.8850 0.8830
15.291128 0.8820 0.8820 0.8820 0.8820 0.8820
15.325000 0.8820 0.8780 0.8780 0.8750 0.8730
15.358128 0.8720 0.8680 0.8650 0.8620 0.8590
15.391000 0.8570 0.8550 0.8550 0.8520 0.8520
15.424128 0.8520 0.8500 0.8500 0.8490 0.8490
15.457000 0.8490 0.8490 0.8470 0.8420 0.8420
15.490128 0.8400 0.8400 0.8400 0.8390 0.8390
15.523000 0.8370 0.8350 0.8350 0.8340 0.8340
15.556128 0.8320 0.8320 0.8320 0.8340 0.8320
15.589000 0.8300 0.8300 0.8300 0.8300 0.8300
15.622128 0.8300 0.8290 0.8270 0.8270 0.8250
15.656000 0.8250 0.8250 0.8250 0.8250 0.8240
15.689128 0.8220 0.8190 0.8190 0.8190 0.8170
15.722000 0.8170 0.8170 0.8150 0.8140 0.8120
15.755128 0.8100 0.8100 0.8120 0.8100 0.8090
15.788000 0.8090 0.8070 0.8070 0.8050 0.8050
15.821128 0.8040 0.8040 0.8040 0.8020 0.8020
15.854000 0.8000 0.8000 0.7990 0.7990 0.7970
15.887128 0.7970 0.7960 0.7960 0.7940 0.7940
15.921000 0.7920 0.7920 0.7920 0.7920 0.7920
15.954128 0.7910 0.7910 0.7910 0.7910
##END=
