##TITLE=2-bromo-1-chloropropane
##JCAMP-DX=4.24
##DATA TYPE=INFRARED SPECTRUM
##CLASS=COBLENTZ
##OWNER=COBLENTZ SOCIETY
Collection (C) 2018 copyright by the U.S. Secretary of Commerce
on behalf of the United States of America. All rights reserved.
##DATE=Not specified, most likely prior to 1970
##CAS REGISTRY NO=3017-95-6
##MOLFORM=C3 H6 Br Cl
##SOURCE REFERENCE=COBLENTZ NO. 279
##$NIST SOURCE=COBLENTZ
##$NIST IMAGE=cob279
##SPECTROMETER/DATA SYSTEM=Not specified, most likely a prism, grating, or hybrid spectrometer.
##DATA PROCESSING=(NO SPECTRUM, ONLY SCANNED IMAGE IS AVAILABLE)
##NPOINTS=0
##END=
