##TITLE=1,1-Ethanediol, 2,2,2-trichloro-,
##JCAMP-DX=4.24
##DATA TYPE=INFRARED SPECTRUM
##CLASS=COBLENTZ III
##ORIGIN=THE SQUIBB INSTITUTE FOR MEDICAL RESEARCH
##OWNER=Copyright (C) 1987 by the Coblentz Society
Collection (C) 2018 copyright by the U.S. Secretary of Commerce
on behalf of the United States of America. All rights reserved.
##DATE=1955/03/07
##NAMES=2,2,2-trichloro-1,1-ethanediol
CHLORAL HYDRATE
##CAS REGISTRY NO=302-17-0
##MOLFORM=C2 H3 Cl3 O2
##MP=57 C
##BP=98 C
##SOURCE REFERENCE=COBLENTZ NO. 5423
##$NIST SOURCE=COBLENTZ
##$NIST IMAGE=cob5423
##SPECTROMETER/DATA SYSTEM=PERKIN-ELMER 21 (GRATING)
$$SPECTRAL CONTAMINATION DUE TO OIL AROUND 2850 CM^-^1
##STATE=SOLID (NUJOL MULL)
##RESOLUTION=2
##XUNITS=1/CM
##YUNITS=TRANSMITTANCE
##XFACTOR=1.0
##YFACTOR=1
##FIRSTX=663
##LASTX=4000
##FIRSTY=0.3169
##MAXX=4000
##MINX=663
##MAXY=1.0059
##MINY=0.027
##NPOINTS=3338
##XYDATA=(X++(Y..Y))
663.000000 0.3169 0.3317 0.3628 0.3661 0.3601
668.000000 0.3308 0.3168 0.3120 0.3106 0.3110
673.000000 0.3114 0.3107 0.3097 0.3090 0.3081
678.000000 0.3070 0.3058 0.3040 0.3022 0.3005
683.000000 0.2989 0.2963 0.2931 0.2906 0.2882
688.000000 0.2857 0.2822 0.2797 0.2777 0.2777
693.000000 0.2778 0.2780 0.2793 0.2786 0.2797
698.000000 0.2815 0.2833 0.2858 0.2884 0.2920
703.000000 0.2959 0.3018 0.3071 0.3121 0.3200
708.000000 0.3316 0.3457 0.3487 0.3578 0.3787
713.000000 0.3887 0.3973 0.4063 0.4161 0.4263
718.000000 0.4391 0.4499 0.4588 0.4665 0.4742
723.000000 0.4811 0.4878 0.4944 0.5010 0.5086
728.000000 0.5177 0.5269 0.5364 0.5455 0.5543
733.000000 0.5632 0.5749 0.5864 0.5975 0.6050
738.000000 0.6125 0.6180 0.6232 0.6283 0.6326
743.000000 0.6369 0.6411 0.6447 0.6482 0.6517
748.000000 0.6552 0.6576 0.6599 0.6621 0.6641
753.000000 0.6661 0.6679 0.6693 0.6707 0.6708
758.000000 0.6727 0.6706 0.6697 0.6687 0.6675
763.000000 0.6665 0.6649 0.6630 0.6611 0.6591
768.000000 0.6563 0.6534 0.6507 0.6468 0.6427
773.000000 0.6385 0.6343 0.6298 0.6254 0.6208
778.000000 0.6145 0.6082 0.6019 0.5949 0.5878
783.000000 0.5798 0.5699 0.5589 0.5465 0.5315
788.000000 0.5154 0.4988 0.4813 0.4636 0.4270
793.000000 0.4033 0.3815 0.3581 0.3309 0.2916
798.000000 0.2627 0.2388 0.2215 0.1943 0.1525
803.000000 0.1234 0.1018 0.0840 0.0694 0.0560
808.000000 0.0474 0.0407 0.0363 0.0328 0.0311
813.000000 0.0300 0.0299 0.0298 0.0297 0.0297
818.000000 0.0297 0.0298 0.0299 0.0300 0.0301
823.000000 0.0270 0.0304 0.0305 0.0305 0.0306
828.000000 0.0307 0.0307 0.0308 0.0308 0.0309
833.000000 0.0314 0.0319 0.0324 0.0336 0.0350
838.000000 0.0363 0.0376 0.0391 0.0414 0.0470
843.000000 0.0601 0.0825 0.1004 0.1409 0.1834
848.000000 0.2258 0.2680 0.2988 0.3697 0.4045
853.000000 0.4406 0.4868 0.5343 0.6334 0.6799
858.000000 0.7016 0.7181 0.7330 0.7441 0.7547
863.000000 0.7640 0.7724 0.7807 0.7894 0.7986
868.000000 0.8076 0.8149 0.8222 0.8291 0.8352
873.000000 0.8413 0.8471 0.8523 0.8560 0.8591
878.000000 0.8623 0.8645 0.8663 0.8682 0.8701
883.000000 0.8716 0.8729 0.8742 0.8756 0.8769
888.000000 0.8781 0.8790 0.8799 0.8807 0.8815
893.000000 0.8823 0.8827 0.8829 0.8831 0.8839
898.000000 0.8832 0.8828 0.8824 0.8819 0.8815
903.000000 0.8810 0.8804 0.8796 0.8788 0.8780
908.000000 0.8771 0.8763 0.8752 0.8736 0.8721
913.000000 0.8705 0.8688 0.8670 0.8653 0.8635
918.000000 0.8617 0.8598 0.8575 0.8550 0.8526
923.000000 0.8503 0.8478 0.8446 0.8413 0.8380
928.000000 0.8347 0.8314 0.8281 0.8243 0.8206
933.000000 0.8168 0.8128 0.8070 0.8012 0.7954
938.000000 0.7897 0.7840 0.7776 0.7707 0.7639
943.000000 0.7569 0.7497 0.7411 0.7325 0.7240
948.000000 0.7146 0.7046 0.6945 0.6842 0.6703
953.000000 0.6565 0.6412 0.6254 0.6078 0.5861
958.000000 0.5553 0.5217 0.4933 0.4603 0.3886
963.000000 0.3421 0.2957 0.2494 0.2032 0.1719
968.000000 0.1496 0.1436 0.1422 0.1486 0.1804
973.000000 0.2122 0.2428 0.2578 0.2664 0.2678
978.000000 0.2682 0.2684 0.2700 0.2760 0.3231
983.000000 0.3779 0.4326 0.4873 0.5417 0.5958
988.000000 0.6697 0.7039 0.7285 0.7478 0.7579
993.000000 0.7659 0.7724 0.7751 0.7759 0.7761
998.000000 0.7796 0.7746 0.7728 0.7704 0.7678
1003.000000 0.7652 0.7619 0.7585 0.7552 0.7519
1008.000000 0.7486 0.7449 0.7404 0.7337 0.7258
1013.000000 0.7191 0.7131 0.7065 0.6997 0.6933
1018.000000 0.6872 0.6812 0.6749 0.6683 0.6617
1023.000000 0.6551 0.6486 0.6422 0.6358 0.6294
1028.000000 0.6227 0.6160 0.6093 0.6028 0.5962
1033.000000 0.5896 0.5833 0.5770 0.5702 0.5621
1038.000000 0.5539 0.5337 0.5087 0.4837 0.4726
1043.000000 0.4661 0.4570 0.4450 0.4338 0.4228
1048.000000 0.4087 0.3935 0.3803 0.3669 0.3518
1053.000000 0.3325 0.3116 0.2941 0.2776 0.2604
1058.000000 0.2404 0.2198 0.2005 0.1824 0.1668
1063.000000 0.1513 0.1352 0.1173 0.0897 0.0732
1068.000000 0.0549 0.0465 0.0406 0.0364 0.0331
1073.000000 0.0308 0.0297 0.0285 0.0278 0.0276
1078.000000 0.0274 0.0270 0.0270 0.0270 0.0270
1083.000000 0.0270 0.0291 0.0273 0.0275 0.0278
1088.000000 0.0281 0.0288 0.0296 0.0303 0.0309
1093.000000 0.0310 0.0311 0.0312 0.0312 0.0307
1098.000000 0.0303 0.0298 0.0290 0.0281 0.0274
1103.000000 0.0271 0.0271 0.0305 0.0356 0.0427
1108.000000 0.0530 0.0641 0.0846 0.1138 0.1432
1113.000000 0.1725 0.1988 0.2312 0.2592 0.2762
1118.000000 0.3078 0.3490 0.3802 0.4037 0.4313
1123.000000 0.4556 0.4760 0.4908 0.5048 0.5188
1128.000000 0.5330 0.5460 0.5577 0.5695 0.5809
1133.000000 0.5923 0.6036 0.6137 0.6235 0.6332
1138.000000 0.6414 0.6494 0.6564 0.6621 0.6678
1143.000000 0.6735 0.6796 0.6857 0.6917 0.6978
1148.000000 0.7035 0.7090 0.7146 0.7202 0.7256
1153.000000 0.7299 0.7340 0.7381 0.7423 0.7459
1158.000000 0.7482 0.7505 0.7529 0.7552 0.7576
1163.000000 0.7600 0.7622 0.7641 0.7662 0.7681
1168.000000 0.7701 0.7721 0.7741 0.7762 0.7783
1173.000000 0.7804 0.7825 0.7844 0.7860 0.7875
1178.000000 0.7891 0.7897 0.7901 0.7905 0.7909
1183.000000 0.7910 0.7909 0.7909 0.7918 0.7908
1188.000000 0.7906 0.7903 0.7899 0.7896 0.7892
1193.000000 0.7888 0.7881 0.7872 0.7864 0.7853
1198.000000 0.7841 0.7828 0.7811 0.7792 0.7775
1203.000000 0.7758 0.7740 0.7722 0.7701 0.7679
1208.000000 0.7655 0.7633 0.7610 0.7588 0.7565
1213.000000 0.7543 0.7524 0.7507 0.7490 0.7472
1218.000000 0.7455 0.7438 0.7421 0.7404 0.7387
1223.000000 0.7368 0.7350 0.7331 0.7313 0.7294
1228.000000 0.7276 0.7257 0.7239 0.7220 0.7200
1233.000000 0.7180 0.7160 0.7140 0.7120 0.7101
1238.000000 0.7082 0.7063 0.7045 0.7027 0.7008
1243.000000 0.6990 0.6973 0.6954 0.6933 0.6908
1248.000000 0.6884 0.6859 0.6834 0.6809 0.6784
1253.000000 0.6760 0.6734 0.6706 0.6677 0.6647
1258.000000 0.6618 0.6589 0.6555 0.6509 0.6462
1263.000000 0.6415 0.6369 0.6321 0.6265 0.6208
1268.000000 0.6151 0.6091 0.6016 0.5940 0.5864
1273.000000 0.5782 0.5699 0.5614 0.5506 0.5386
1278.000000 0.5262 0.5137 0.4980 0.4736 0.4180
1283.000000 0.3875 0.3592 0.3310 0.3028 0.2746
1288.000000 0.2465 0.2185 0.1905 0.1625 0.1256
1293.000000 0.1059 0.0931 0.0816 0.0668 0.0594
1298.000000 0.0565 0.0563 0.0569 0.0607 0.0661
1303.000000 0.0731 0.0803 0.0879 0.0975 0.1080
1308.000000 0.1203 0.1483 0.2043 0.2602 0.3160
1313.000000 0.3717 0.4273 0.4829 0.5383 0.5782
1318.000000 0.6039 0.6265 0.6463 0.6636 0.6790
1323.000000 0.6917 0.7027 0.7128 0.7224 0.7319
1328.000000 0.7416 0.7502 0.7563 0.7623 0.7677
1333.000000 0.7730 0.7777 0.7817 0.7856 0.7875
1338.000000 0.7889 0.7895 0.7896 0.7895 0.7895
1343.000000 0.7894 0.7894 0.7893 0.7889 0.7891
1348.000000 0.7891 0.7890 0.7889 0.7886 0.7879
1353.000000 0.7871 0.7851 0.7824 0.7787 0.7730
1358.000000 0.7671 0.7617 0.7562 0.7497 0.7423
1363.000000 0.7348 0.7270 0.7188 0.7106 0.7015
1368.000000 0.6908 0.6715 0.6408 0.6091 0.5775
1373.000000 0.5459 0.5144 0.4897 0.4763 0.4563
1378.000000 0.4254 0.3932 0.3609 0.3287 0.2966
1383.000000 0.2751 0.2644 0.2572 0.2551 0.2548
1388.000000 0.2549 0.2557 0.2584 0.2618 0.2635
1393.000000 0.2636 0.2631 0.2620 0.2631 0.2528
1398.000000 0.2374 0.2220 0.2066 0.1913 0.1760
1403.000000 0.1606 0.1462 0.1395 0.1388 0.1383
1408.000000 0.1378 0.1371 0.1359 0.1324 0.1223
1413.000000 0.1161 0.1121 0.1088 0.1063 0.1038
1418.000000 0.1025 0.1016 0.1008 0.1005 0.1007
1423.000000 0.1011 0.0984 0.1030 0.1045 0.1067
1428.000000 0.1185 0.1568 0.2158 0.2747 0.3335
1433.000000 0.3922 0.4509 0.5140 0.5336 0.5427
1438.000000 0.5490 0.5554 0.5609 0.5659 0.5691
1443.000000 0.5711 0.5732 0.5753 0.5765 0.5774
1448.000000 0.5782 0.5790 0.5799 0.5806 0.5812
1453.000000 0.5818 0.5825 0.5830 0.5836 0.5846
1458.000000 0.5859 0.5872 0.5884 0.5910 0.5946
1463.000000 0.5986 0.6040 0.6100 0.6217 0.6326
1468.000000 0.6405 0.6476 0.6533 0.6700 0.7100
1473.000000 0.7563 0.8025 0.8178 0.8242 0.8303
1478.000000 0.8350 0.8391 0.8435 0.8480 0.8532
1483.000000 0.8611 0.8686 0.8749 0.8819 0.8917
1488.000000 0.9010 0.9084 0.9121 0.9152 0.9179
1493.000000 0.9196 0.9211 0.9225 0.9245 0.9269
1498.000000 0.9293 0.9314 0.9331 0.9340 0.9350
1503.000000 0.9356 0.9360 0.9363 0.9365 0.9369
1508.000000 0.9372 0.9377 0.9386 0.9395 0.9404
1513.000000 0.9416 0.9430 0.9444 0.9458 0.9472
1518.000000 0.9484 0.9495 0.9507 0.9518 0.9528
1523.000000 0.9535 0.9542 0.9549 0.9556 0.9562
1528.000000 0.9566 0.9569 0.9573 0.9576 0.9579
1533.000000 0.9582 0.9585 0.9588 0.9590 0.9592
1538.000000 0.9594 0.9596 0.9597 0.9599 0.9601
1543.000000 0.9602 0.9604 0.9605 0.9605 0.9604
1548.000000 0.9603 0.9603 0.9602 0.9602 0.9601
1553.000000 0.9601 0.9600 0.9600 0.9599 0.9597
1558.000000 0.9595 0.9592 0.9590 0.9587 0.9585
1563.000000 0.9582 0.9580 0.9577 0.9575 0.9572
1568.000000 0.9570 0.9568 0.9565 0.9562 0.9558
1573.000000 0.9553 0.9549 0.9545 0.9541 0.9536
1578.000000 0.9532 0.9528 0.9523 0.9519 0.9515
1583.000000 0.9511 0.9506 0.9502 0.9498 0.9494
1588.000000 0.9489 0.9484 0.9478 0.9473 0.9468
1593.000000 0.9462 0.9457 0.9451 0.9446 0.9441
1598.000000 0.9435 0.9430 0.9425 0.9419 0.9413
1603.000000 0.9408 0.9403 0.9399 0.9395 0.9391
1608.000000 0.9387 0.9384 0.9380 0.9376 0.9372
1613.000000 0.9370 0.9370 0.9371 0.9371 0.9371
1618.000000 0.9372 0.9372 0.9372 0.9373 0.9376
1623.000000 0.9378 0.9384 0.9384 0.9387 0.9390
1628.000000 0.9392 0.9394 0.9397 0.9400 0.9403
1633.000000 0.9406 0.9409 0.9411 0.9413 0.9416
1638.000000 0.9418 0.9420 0.9422 0.9425 0.9427
1643.000000 0.9429 0.9431 0.9433 0.9436 0.9438
1648.000000 0.9440 0.9442 0.9445 0.9448 0.9450
1653.000000 0.9452 0.9455 0.9458 0.9461 0.9465
1658.000000 0.9473 0.9485 0.9499 0.9514 0.9528
1663.000000 0.9543 0.9556 0.9569 0.9580 0.9591
1668.000000 0.9603 0.9614 0.9624 0.9636 0.9647
1673.000000 0.9658 0.9669 0.9679 0.9689 0.9699
1678.000000 0.9709 0.9719 0.9728 0.9738 0.9748
1683.000000 0.9758 0.9767 0.9776 0.9783 0.9789
1688.000000 0.9794 0.9800 0.9806 0.9812 0.9818
1693.000000 0.9824 0.9830 0.9835 0.9841 0.9847
1698.000000 0.9853 0.9857 0.9861 0.9865 0.9869
1703.000000 0.9874 0.9877 0.9881 0.9885 0.9889
1708.000000 0.9893 0.9897 0.9901 0.9903 0.9905
1713.000000 0.9907 0.9909 0.9911 0.9914 0.9916
1718.000000 0.9918 0.9920 0.9923 0.9924 0.9925
1723.000000 0.9925 0.9925 0.9925 0.9925 0.9925
1728.000000 0.9999 0.9925 0.9925 0.9925 0.9923
1733.000000 0.9921 0.9919 0.9916 0.9914 0.9911
1738.000000 0.9909 0.9906 0.9904 0.9901 0.9895
1743.000000 0.9889 0.9882 0.9875 0.9868 0.9861
1748.000000 0.9850 0.9839 0.9827 0.9815 0.9804
1753.000000 0.9791 0.9773 0.9755 0.9736 0.9711
1758.000000 0.9643 0.9546 0.9446 0.9346 0.9246
1763.000000 0.9146 0.9046 0.8947 0.8847 0.8761
1768.000000 0.8723 0.8717 0.8712 0.8708 0.8728
1773.000000 0.8866 0.9043 0.9223 0.9402 0.9581
1778.000000 0.9760 0.9890 0.9951 0.9974 0.9995
1783.000000 1.0007 1.0014 1.0021 1.0026 1.0028
1788.000000 1.0028 1.0026 1.0025 1.0024 1.0023
1793.000000 1.0022 1.0021 1.0019 1.0017 1.0016
1798.000000 1.0014 1.0013 1.0011 1.0010 1.0009
1803.000000 1.0008 1.0006 1.0006 1.0059 1.0003
1808.000000 1.0002 1.0000 1.0000 0.9998 0.9997
1813.000000 0.9996 0.9996 0.9995 0.9995 0.9994
1818.000000 0.9994 0.9993 0.9992 0.9991 0.9991
1823.000000 0.9991 0.9990 0.9989 0.9989 0.9988
1828.000000 0.9988 0.9987 0.9987 0.9987 0.9987
1833.000000 0.9987 0.9987 0.9987 0.9987 0.9988
1838.000000 0.9988 0.9988 0.9988 0.9989 0.9989
1843.000000 0.9989 0.9989 0.9989 0.9989 0.9990
1848.000000 0.9990 0.9990 0.9989 0.9988 0.9987
1853.000000 0.9987 0.9986 0.9985 0.9985 0.9985
1858.000000 0.9984 0.9983 0.9983 0.9982 0.9981
1863.000000 0.9980 0.9979 0.9976 0.9973 0.9970
1868.000000 0.9966 0.9963 0.9959 0.9955 0.9952
1873.000000 0.9949 0.9946 0.9942 0.9939 0.9935
1878.000000 0.9932 0.9926 0.9921 0.9914 0.9908
1883.000000 0.9902 0.9896 0.9890 0.9884 0.9877
1888.000000 0.9872 0.9866 0.9860 0.9855 0.9851
1893.000000 0.9846 0.9842 0.9838 0.9834 0.9831
1898.000000 0.9827 0.9823 0.9821 0.9819 0.9817
1903.000000 0.9816 0.9814 0.9812 0.9810 0.9808
1908.000000 0.9806 0.9806 0.9806 0.9806 0.9806
1913.000000 0.9806 0.9806 0.9809 0.9810 0.9813
1918.000000 0.9816 0.9818 0.9821 0.9824 0.9827
1923.000000 0.9829 0.9832 0.9835 0.9838 0.9841
1928.000000 0.9844 0.9847 0.9850 0.9853 0.9856
1933.000000 0.9859 0.9862 0.9866 0.9869 0.9872
1938.000000 0.9876 0.9879 0.9882 0.9886 0.9889
1943.000000 0.9892 0.9896 0.9901 0.9905 0.9909
1948.000000 0.9914 0.9918 0.9922 0.9927 0.9931
1953.000000 0.9936 0.9941 0.9946 0.9952 0.9959
1958.000000 0.9967 0.9975 0.9977 0.9978 0.9978
1963.000000 0.9978 0.9978 0.9978 0.9978 0.9977
1968.000000 0.9975 0.9974 0.9972 0.9969 0.9967
1973.000000 0.9965 0.9962 0.9960 0.9958 0.9954
1978.000000 0.9950 0.9946 0.9942 0.9937 0.9934
1983.000000 0.9930 0.9925 0.9921 0.9917 0.9913
1988.000000 0.9909 0.9905 0.9900 0.9896 0.9891
1993.000000 0.9886 0.9882 0.9877 0.9873 0.9868
1998.000000 0.9863 0.9859 0.9855 0.9850 0.9845
2003.000000 0.9840 0.9836 0.9832 0.9827 0.9823
2008.000000 0.9820 0.9815 0.9811 0.9807 0.9803
2013.000000 0.9799 0.9795 0.9791 0.9787 0.9783
2018.000000 0.9778 0.9774 0.9770 0.9767 0.9764
2023.000000 0.9762 0.9759 0.9757 0.9755 0.9754
2028.000000 0.9751 0.9749 0.9747 0.9745 0.9743
2033.000000 0.9741 0.9739 0.9738 0.9737 0.9737
2038.000000 0.9736 0.9736 0.9736 0.9735 0.9735
2043.000000 0.9734 0.9734 0.9734 0.9733 0.9733
2048.000000 0.9732 0.9732 0.9732 0.9731 0.9731
2053.000000 0.9731 0.9733 0.9735 0.9738 0.9740
2058.000000 0.9742 0.9745 0.9747 0.9749 0.9752
2063.000000 0.9754 0.9757 0.9759 0.9761 0.9766
2068.000000 0.9770 0.9776 0.9781 0.9786 0.9790
2073.000000 0.9793 0.9793 0.9792 0.9792 0.9791
2078.000000 0.9791 0.9788 0.9784 0.9779 0.9775
2083.000000 0.9770 0.9765 0.9760 0.9754 0.9747
2088.000000 0.9741 0.9735 0.9728 0.9722 0.9715
2093.000000 0.9709 0.9702 0.9693 0.9685 0.9676
2098.000000 0.9667 0.9658 0.9650 0.9643 0.9642
2103.000000 0.9641 0.9639 0.9637 0.9634 0.9628
2108.000000 0.9621 0.9614 0.9608 0.9602 0.9594
2113.000000 0.9584 0.9574 0.9564 0.9554 0.9543
2118.000000 0.9533 0.9523 0.9512 0.9500 0.9486
2123.000000 0.9472 0.9458 0.9446 0.9434 0.9423
2128.000000 0.9414 0.9406 0.9403 0.9403 0.9402
2133.000000 0.9402 0.9402 0.9401 0.9401 0.9401
2138.000000 0.9401 0.9400 0.9400 0.9400 0.9401
2143.000000 0.9424 0.9405 0.9407 0.9409 0.9411
2148.000000 0.9413 0.9415 0.9417 0.9419 0.9421
2153.000000 0.9423 0.9425 0.9427 0.9429 0.9431
2158.000000 0.9434 0.9436 0.9438 0.9441 0.9445
2163.000000 0.9449 0.9453 0.9456 0.9460 0.9464
2168.000000 0.9468 0.9471 0.9475 0.9480 0.9484
2173.000000 0.9490 0.9496 0.9501 0.9507 0.9512
2178.000000 0.9518 0.9523 0.9529 0.9535 0.9541
2183.000000 0.9547 0.9556 0.9568 0.9579 0.9591
2188.000000 0.9602 0.9614 0.9629 0.9645 0.9660
2193.000000 0.9676 0.9681 0.9686 0.9689 0.9692
2198.000000 0.9695 0.9698 0.9698 0.9698 0.9698
2203.000000 0.9698 0.9698 0.9698 0.9698 0.9697
2208.000000 0.9697 0.9695 0.9693 0.9692 0.9690
2213.000000 0.9689 0.9687 0.9685 0.9683 0.9681
2218.000000 0.9680 0.9678 0.9677 0.9675 0.9673
2223.000000 0.9671 0.9668 0.9665 0.9663 0.9660
2228.000000 0.9658 0.9655 0.9652 0.9649 0.9647
2233.000000 0.9644 0.9642 0.9639 0.9636 0.9633
2238.000000 0.9631 0.9628 0.9626 0.9623 0.9621
2243.000000 0.9618 0.9615 0.9612 0.9609 0.9606
2248.000000 0.9602 0.9599 0.9596 0.9593 0.9590
2253.000000 0.9587 0.9584 0.9581 0.9578 0.9575
2258.000000 0.9573 0.9570 0.9567 0.9563 0.9560
2263.000000 0.9557 0.9553 0.9550 0.9546 0.9542
2268.000000 0.9537 0.9533 0.9528 0.9524 0.9520
2273.000000 0.9515 0.9512 0.9508 0.9503 0.9499
2278.000000 0.9495 0.9490 0.9486 0.9483 0.9478
2283.000000 0.9474 0.9470 0.9465 0.9461 0.9457
2288.000000 0.9451 0.9445 0.9438 0.9431 0.9424
2293.000000 0.9417 0.9410 0.9403 0.9396 0.9389
2298.000000 0.9382 0.9376 0.9369 0.9366 0.9364
2303.000000 0.9361 0.9359 0.9356 0.9353 0.9351
2308.000000 0.9348 0.9346 0.9343 0.9340 0.9338
2313.000000 0.9336 0.9335 0.9334 0.9333 0.9332
2318.000000 0.9332 0.9332 0.9331 0.9331 0.9330
2323.000000 0.9330 0.9329 0.9328 0.9327 0.9327
2328.000000 0.9326 0.9326 0.9325 0.9325 0.9325
2333.000000 0.9324 0.9324 0.9323 0.9322 0.9322
2338.000000 0.9322 0.9321 0.9321 0.9321 0.9321
2343.000000 0.9321 0.9320 0.9320 0.9320 0.9320
2348.000000 0.9319 0.9319 0.9319 0.9319 0.9319
2353.000000 0.9319 0.9319 0.9318 0.9318 0.9318
2358.000000 0.9318 0.9317 0.9317 0.9317 0.9317
2363.000000 0.9316 0.9316 0.9316 0.9316 0.9316
2368.000000 0.9316 0.9316 0.9315 0.9315 0.9315
2373.000000 0.9316 0.9318 0.9320 0.9321 0.9322
2378.000000 0.9324 0.9325 0.9327 0.9329 0.9330
2383.000000 0.9331 0.9333 0.9335 0.9337 0.9339
2388.000000 0.9341 0.9343 0.9345 0.9348 0.9351
2393.000000 0.9353 0.9356 0.9358 0.9361 0.9363
2398.000000 0.9362 0.9360 0.9358 0.9355 0.9352
2403.000000 0.9350 0.9348 0.9346 0.9343 0.9341
2408.000000 0.9339 0.9336 0.9334 0.9331 0.9328
2413.000000 0.9325 0.9321 0.9316 0.9312 0.9308
2418.000000 0.9304 0.9299 0.9295 0.9290 0.9284
2423.000000 0.9278 0.9272 0.9265 0.9260 0.9254
2428.000000 0.9247 0.9241 0.9235 0.9229 0.9223
2433.000000 0.9217 0.9210 0.9203 0.9196 0.9189
2438.000000 0.9181 0.9173 0.9165 0.9158 0.9150
2443.000000 0.9142 0.9134 0.9126 0.9118 0.9110
2448.000000 0.9103 0.9095 0.9085 0.9076 0.9067
2453.000000 0.9058 0.9049 0.9040 0.9031 0.9021
2458.000000 0.9012 0.9002 0.8993 0.8984 0.8975
2463.000000 0.8965 0.8956 0.8947 0.8939 0.8933
2468.000000 0.8926 0.8919 0.8913 0.8906 0.8900
2473.000000 0.8893 0.8887 0.8881 0.8875 0.8868
2478.000000 0.8862 0.8855 0.8849 0.8845 0.8842
2483.000000 0.8839 0.8837 0.8834 0.8831 0.8827
2488.000000 0.8824 0.8821 0.8819 0.8816 0.8813
2493.000000 0.8810 0.8807 0.8805 0.8803 0.8801
2498.000000 0.8800 0.8799 0.8798 0.8796 0.8795
2503.000000 0.8794 0.8793 0.8793 0.8791 0.8790
2508.000000 0.8789 0.8788 0.8788 0.8786 0.8785
2513.000000 0.8784 0.8783 0.8783 0.8783 0.8783
2518.000000 0.8783 0.8784 0.8784 0.8785 0.8787
2523.000000 0.8788 0.8789 0.8789 0.8789 0.8787
2528.000000 0.8786 0.8780 0.8775 0.8770 0.8765
2533.000000 0.8759 0.8751 0.8743 0.8734 0.8724
2538.000000 0.8714 0.8704 0.8694 0.8684 0.8674
2543.000000 0.8664 0.8654 0.8644 0.8635 0.8629
2548.000000 0.8624 0.8621 0.8619 0.8618 0.8616
2553.000000 0.8615 0.8614 0.8612 0.8611 0.8609
2558.000000 0.8608 0.8606 0.8605 0.8604 0.8603
2563.000000 0.8603 0.8603 0.8602 0.8602 0.8601
2568.000000 0.8601 0.8601 0.8600 0.8600 0.8600
2573.000000 0.8599 0.8599 0.8598 0.8598 0.8598
2578.000000 0.8598 0.8598 0.8597 0.8597 0.8597
2583.000000 0.8596 0.8596 0.8596 0.8596 0.8596
2588.000000 0.8596 0.8596 0.8596 0.8595 0.8595
2593.000000 0.8595 0.8595 0.8595 0.8595 0.8594
2598.000000 0.8594 0.8594 0.8594 0.8594 0.8594
2603.000000 0.8594 0.8594 0.8593 0.8593 0.8593
2608.000000 0.8593 0.8593 0.8592 0.8591 0.8591
2613.000000 0.8590 0.8589 0.8589 0.8588 0.8587
2618.000000 0.8586 0.8586 0.8586 0.8585 0.8584
2623.000000 0.8584 0.8583 0.8582 0.8581 0.8579
2628.000000 0.8578 0.8575 0.8570 0.8565 0.8558
2633.000000 0.8549 0.8541 0.8532 0.8523 0.8514
2638.000000 0.8504 0.8495 0.8486 0.8476 0.8466
2643.000000 0.8456 0.8446 0.8436 0.8426 0.8416
2648.000000 0.8406 0.8396 0.8387 0.8378 0.8372
2653.000000 0.8366 0.8361 0.8357 0.8352 0.8348
2658.000000 0.8348 0.8348 0.8347 0.8347 0.8347
2663.000000 0.8346 0.8346 0.8346 0.8346 0.8346
2668.000000 0.8346 0.8348 0.8349 0.8351 0.8352
2673.000000 0.8353 0.8354 0.8355 0.8357 0.8358
2678.000000 0.8359 0.8361 0.8363 0.8365 0.8368
2683.000000 0.8370 0.8373 0.8377 0.8380 0.8383
2688.000000 0.8386 0.8389 0.8392 0.8394 0.8397
2693.000000 0.8401 0.8404 0.8407 0.8410 0.8413
2698.000000 0.8416 0.8418 0.8421 0.8423 0.8426
2703.000000 0.8428 0.8430 0.8432 0.8434 0.8436
2708.000000 0.8438 0.8441 0.8443 0.8445 0.8448
2713.000000 0.8450 0.8452 0.8454 0.8456 0.8459
2718.000000 0.8461 0.8463 0.8465 0.8466 0.8466
2723.000000 0.8466 0.8466 0.8466 0.8466 0.8465
2728.000000 0.8465 0.8465 0.8464 0.8463 0.8462
2733.000000 0.8460 0.8458 0.8456 0.8454 0.8451
2738.000000 0.8449 0.8444 0.8439 0.8434 0.8427
2743.000000 0.8420 0.8413 0.8406 0.8399 0.8392
2748.000000 0.8382 0.8371 0.8360 0.8346 0.8333
2753.000000 0.8319 0.8303 0.8287 0.8270 0.8254
2758.000000 0.8238 0.8222 0.8203 0.8183 0.8162
2763.000000 0.8142 0.8121 0.8101 0.8080 0.8059
2768.000000 0.8039 0.8015 0.7986 0.7958 0.7928
2773.000000 0.7897 0.7865 0.7833 0.7798 0.7763
2778.000000 0.7726 0.7678 0.7630 0.7582 0.7534
2783.000000 0.7486 0.7438 0.7390 0.7342 0.7295
2788.000000 0.7247 0.7199 0.7151 0.7103 0.7055
2793.000000 0.7008 0.6960 0.6912 0.6865 0.6817
2798.000000 0.6769 0.6722 0.6674 0.6627 0.6579
2803.000000 0.6532 0.6484 0.6437 0.6390 0.6342
2808.000000 0.6295 0.6248 0.6201 0.6154 0.6106
2813.000000 0.6059 0.6012 0.5965 0.5918 0.5871
2818.000000 0.5824 0.5778 0.5731 0.5684 0.5635
2823.000000 0.5581 0.5528 0.5478 0.5457 0.5435
2828.000000 0.5414 0.5403 0.5394 0.5384 0.5379
2833.000000 0.5376 0.5373 0.5371 0.5370 0.5369
2838.000000 0.5369 0.5369 0.5369 0.5369 0.5369
2843.000000 0.5370 0.5370 0.5373 0.5376 0.5379
2848.000000 0.5383 0.5387 0.5392 0.5396 0.5401
2853.000000 0.5405 0.5411 0.5423 0.5435 0.5447
2858.000000 0.5468 0.5492 0.5515 0.5535 0.5553
2863.000000 0.5570 0.5587 0.5600 0.5613 0.5626
2868.000000 0.5638 0.5650 0.5661 0.5670 0.5678
2873.000000 0.5685 0.5693 0.5700 0.5707 0.5714
2878.000000 0.5722 0.5730 0.5737 0.5744 0.5751
2883.000000 0.5757 0.5763 0.5768 0.5773 0.5778
2888.000000 0.5783 0.5789 0.5794 0.5799 0.5804
2893.000000 0.5810 0.5815 0.5819 0.5823 0.5827
2898.000000 0.5830 0.5833 0.5837 0.5840 0.5843
2903.000000 0.5847 0.5850 0.5853 0.5856 0.5859
2908.000000 0.5861 0.5863 0.5866 0.5868 0.5870
2913.000000 0.5872 0.5874 0.5876 0.5878 0.5880
2918.000000 0.5882 0.5885 0.5887 0.5889 0.5891
2923.000000 0.5893 0.5896 0.5896 0.5897 0.5898
2928.000000 0.5899 0.5900 0.5901 0.5902 0.5902
2933.000000 0.5903 0.5903 0.5906 0.5909 0.5911
2938.000000 0.5915 0.5919 0.5923 0.5927 0.5931
2943.000000 0.5935 0.5939 0.5943 0.5948 0.5952
2948.000000 0.5957 0.5966 0.5975 0.5984 0.5993
2953.000000 0.6003 0.6012 0.6022 0.6031 0.6040
2958.000000 0.6049 0.6061 0.6077 0.6093 0.6109
2963.000000 0.6125 0.6141 0.6157 0.6173 0.6188
2968.000000 0.6203 0.6219 0.6232 0.6246 0.6260
2973.000000 0.6273 0.6287 0.6300 0.6314 0.6327
2978.000000 0.6340 0.6354 0.6366 0.6377 0.6388
2983.000000 0.6398 0.6409 0.6420 0.6431 0.6441
2988.000000 0.6447 0.6453 0.6459 0.6464 0.6467
2993.000000 0.6471 0.6474 0.6475 0.6475 0.6475
2998.000000 0.6476 0.6476 0.6476 0.6476 0.6476
3003.000000 0.6476 0.6476 0.6500 0.6476 0.6476
3008.000000 0.6476 0.6476 0.6476 0.6476 0.6476
3013.000000 0.6476 0.6476 0.6476 0.6475 0.6472
3018.000000 0.6468 0.6465 0.6462 0.6459 0.6456
3023.000000 0.6453 0.6450 0.6447 0.6444 0.6441
3028.000000 0.6437 0.6432 0.6428 0.6422 0.6415
3033.000000 0.6409 0.6402 0.6393 0.6383 0.6373
3038.000000 0.6363 0.6354 0.6344 0.6334 0.6324
3043.000000 0.6314 0.6304 0.6294 0.6284 0.6275
3048.000000 0.6265 0.6255 0.6245 0.6235 0.6225
3053.000000 0.6215 0.6204 0.6192 0.6181 0.6169
3058.000000 0.6157 0.6144 0.6132 0.6120 0.6108
3063.000000 0.6096 0.6084 0.6072 0.6060 0.6047
3068.000000 0.6034 0.6019 0.6005 0.5990 0.5976
3073.000000 0.5962 0.5947 0.5933 0.5918 0.5904
3078.000000 0.5889 0.5875 0.5861 0.5847 0.5833
3083.000000 0.5819 0.5806 0.5793 0.5780 0.5767
3088.000000 0.5754 0.5741 0.5728 0.5714 0.5701
3093.000000 0.5688 0.5675 0.5662 0.5649 0.5636
3098.000000 0.5623 0.5609 0.5595 0.5581 0.5567
3103.000000 0.5552 0.5538 0.5523 0.5509 0.5494
3108.000000 0.5480 0.5465 0.5450 0.5435 0.5420
3113.000000 0.5405 0.5380 0.5350 0.5319 0.5289
3118.000000 0.5259 0.5229 0.5199 0.5168 0.5138
3123.000000 0.5108 0.5078 0.5048 0.5017 0.4987
3128.000000 0.4957 0.4927 0.4897 0.4867 0.4837
3133.000000 0.4807 0.4777 0.4747 0.4717 0.4687
3138.000000 0.4657 0.4628 0.4598 0.4568 0.4538
3143.000000 0.4508 0.4478 0.4448 0.4419 0.4389
3148.000000 0.4360 0.4330 0.4300 0.4271 0.4241
3153.000000 0.4211 0.4182 0.4152 0.4122 0.4093
3158.000000 0.4063 0.4034 0.4004 0.3975 0.3945
3163.000000 0.3916 0.3887 0.3857 0.3828 0.3799
3168.000000 0.3769 0.3740 0.3710 0.3681 0.3652
3173.000000 0.3623 0.3594 0.3565 0.3535 0.3506
3178.000000 0.3478 0.3449 0.3420 0.3394 0.3375
3183.000000 0.3355 0.3336 0.3317 0.3298 0.3279
3188.000000 0.3259 0.3226 0.3143 0.3060 0.2977
3193.000000 0.2901 0.2866 0.2831 0.2796 0.2761
3198.000000 0.2726 0.2691 0.2656 0.2621 0.2591
3203.000000 0.2560 0.2529 0.2498 0.2471 0.2444
3208.000000 0.2416 0.2389 0.2362 0.2335 0.2308
3213.000000 0.2280 0.2254 0.2227 0.2200 0.2173
3218.000000 0.2139 0.2097 0.2055 0.2013 0.1967
3223.000000 0.1915 0.1862 0.1810 0.1759 0.1714
3228.000000 0.1669 0.1623 0.1579 0.1546 0.1513
3233.000000 0.1480 0.1448 0.1415 0.1382 0.1349
3238.000000 0.1317 0.1290 0.1266 0.1242 0.1218
3243.000000 0.1194 0.1172 0.1150 0.1128 0.1105
3248.000000 0.1080 0.1055 0.1030 0.1005 0.0973
3253.000000 0.0940 0.0908 0.0876 0.0843 0.0809
3258.000000 0.0775 0.0742 0.0716 0.0697 0.0679
3263.000000 0.0660 0.0642 0.0628 0.0614 0.0599
3268.000000 0.0585 0.0576 0.0567 0.0559 0.0550
3273.000000 0.0541 0.0532 0.0523 0.0514 0.0506
3278.000000 0.0497 0.0488 0.0480 0.0471 0.0462
3283.000000 0.0453 0.0444 0.0435 0.0425 0.0416
3288.000000 0.0406 0.0396 0.0389 0.0384 0.0379
3293.000000 0.0374 0.0370 0.0367 0.0365 0.0362
3298.000000 0.0360 0.0357 0.0354 0.0352 0.0349
3303.000000 0.0347 0.0347 0.0347 0.0347 0.0347
3308.000000 0.0347 0.0347 0.0347 0.0347 0.0361
3313.000000 0.0347 0.0347 0.0347 0.0347 0.0350
3318.000000 0.0352 0.0355 0.0357 0.0360 0.0363
3323.000000 0.0366 0.0368 0.0372 0.0378 0.0383
3328.000000 0.0389 0.0394 0.0402 0.0410 0.0417
3333.000000 0.0425 0.0433 0.0442 0.0450 0.0459
3338.000000 0.0468 0.0482 0.0495 0.0508 0.0521
3343.000000 0.0533 0.0545 0.0557 0.0568 0.0579
3348.000000 0.0588 0.0598 0.0607 0.0617 0.0626
3353.000000 0.0635 0.0645 0.0654 0.0663 0.0673
3358.000000 0.0682 0.0691 0.0700 0.0710 0.0719
3363.000000 0.0728 0.0737 0.0745 0.0752 0.0759
3368.000000 0.0766 0.0773 0.0779 0.0786 0.0792
3373.000000 0.0798 0.0805 0.0811 0.0817 0.0823
3378.000000 0.0829 0.0834 0.0839 0.0843 0.0847
3383.000000 0.0852 0.0856 0.0860 0.0865 0.0869
3388.000000 0.0874 0.0878 0.0882 0.0887 0.0891
3393.000000 0.0895 0.0900 0.0904 0.0908 0.0912
3398.000000 0.0915 0.0918 0.0921 0.0924 0.0927
3403.000000 0.0930 0.0933 0.0936 0.0940 0.0943
3408.000000 0.0946 0.0949 0.0952 0.0955 0.0957
3413.000000 0.0960 0.0963 0.0966 0.0969 0.0972
3418.000000 0.0975 0.0978 0.0981 0.0984 0.0987
3423.000000 0.0990 0.0993 0.0996 0.0999 0.1003
3428.000000 0.1007 0.1010 0.1015 0.1021 0.1027
3433.000000 0.1033 0.1039 0.1046 0.1054 0.1061
3438.000000 0.1069 0.1087 0.1146 0.1206 0.1265
3443.000000 0.1324 0.1389 0.1460 0.1531 0.1601
3448.000000 0.1672 0.1743 0.1813 0.1884 0.1954
3453.000000 0.2025 0.2095 0.2166 0.2236 0.2307
3458.000000 0.2378 0.2448 0.2518 0.2588 0.2658
3463.000000 0.2728 0.2798 0.2868 0.2938 0.3008
3468.000000 0.3078 0.3148 0.3217 0.3287 0.3357
3473.000000 0.3427 0.3497 0.3566 0.3636 0.3706
3478.000000 0.3775 0.3845 0.3914 0.3983 0.4053
3483.000000 0.4122 0.4191 0.4260 0.4330 0.4399
3488.000000 0.4468 0.4537 0.4606 0.4675 0.4744
3493.000000 0.4813 0.4882 0.4951 0.5020 0.5174
3498.000000 0.5415 0.5655 0.5896 0.6136 0.6276
3503.000000 0.6348 0.6420 0.6493 0.6565 0.6616
3508.000000 0.6658 0.6700 0.6742 0.6784 0.6813
3513.000000 0.6839 0.6864 0.6890 0.6915 0.6936
3518.000000 0.6956 0.6975 0.6995 0.7015 0.7035
3523.000000 0.7054 0.7074 0.7093 0.7113 0.7134
3528.000000 0.7156 0.7178 0.7199 0.7221 0.7244
3533.000000 0.7267 0.7290 0.7314 0.7337 0.7360
3538.000000 0.7383 0.7406 0.7429 0.7452 0.7465
3543.000000 0.7477 0.7490 0.7502 0.7514 0.7526
3548.000000 0.7537 0.7548 0.7560 0.7571 0.7582
3553.000000 0.7594 0.7605 0.7616 0.7627 0.7638
3558.000000 0.7650 0.7661 0.7672 0.7683 0.7694
3563.000000 0.7705 0.7716 0.7728 0.7739 0.7752
3568.000000 0.7767 0.7781 0.7796 0.7810 0.7826
3573.000000 0.7841 0.7857 0.7873 0.7889 0.7905
3578.000000 0.7921 0.7936 0.7952 0.7968 0.7991
3583.000000 0.8026 0.8062 0.8097 0.8133 0.8166
3588.000000 0.8186 0.8206 0.8226 0.8246 0.8266
3593.000000 0.8275 0.8283 0.8292 0.8301 0.8309
3598.000000 0.8317 0.8324 0.8332 0.8339 0.8346
3603.000000 0.8352 0.8356 0.8361 0.8366 0.8370
3608.000000 0.8374 0.8378 0.8382 0.8385 0.8389
3613.000000 0.8392 0.8395 0.8397 0.8400 0.8402
3618.000000 0.8405 0.8407 0.8409 0.8411 0.8413
3623.000000 0.8415 0.8416 0.8418 0.8419 0.8420
3628.000000 0.8421 0.8422 0.8423 0.8424 0.8425
3633.000000 0.8426 0.8427 0.8428 0.8430 0.8431
3638.000000 0.8432 0.8433 0.8436 0.8438 0.8441
3643.000000 0.8443 0.8446 0.8448 0.8451 0.8454
3648.000000 0.8457 0.8460 0.8463 0.8465 0.8468
3653.000000 0.8471 0.8474 0.8477 0.8479 0.8482
3658.000000 0.8484 0.8487 0.8490 0.8492 0.8493
3663.000000 0.8494 0.8496 0.8497 0.8499 0.8501
3668.000000 0.8502 0.8504 0.8506 0.8507 0.8508
3673.000000 0.8508 0.8508 0.8508 0.8508 0.8508
3678.000000 0.8508 0.8508 0.8508 0.8508 0.8507
3683.000000 0.8507 0.8507 0.8507 0.8507 0.8507
3688.000000 0.8507 0.8507 0.8507 0.8507 0.8507
3693.000000 0.8506 0.8506 0.8506 0.8506 0.8506
3698.000000 0.8506 0.8505 0.8505 0.8505 0.8505
3703.000000 0.8505 0.8505 0.8505 0.8505 0.8505
3708.000000 0.8505 0.8505 0.8509 0.8504 0.8504
3713.000000 0.8504 0.8504 0.8503 0.8503 0.8503
3718.000000 0.8503 0.8503 0.8503 0.8502 0.8502
3723.000000 0.8502 0.8502 0.8502 0.8501 0.8501
3728.000000 0.8501 0.8501 0.8501 0.8501 0.8500
3733.000000 0.8500 0.8500 0.8499 0.8499 0.8498
3738.000000 0.8498 0.8498 0.8497 0.8497 0.8497
3743.000000 0.8496 0.8496 0.8495 0.8495 0.8494
3748.000000 0.8494 0.8493 0.8493 0.8492 0.8492
3753.000000 0.8492 0.8491 0.8490 0.8490 0.8489
3758.000000 0.8488 0.8487 0.8486 0.8485 0.8484
3763.000000 0.8483 0.8482 0.8481 0.8479 0.8478
3768.000000 0.8477 0.8476 0.8474 0.8473 0.8472
3773.000000 0.8471 0.8470 0.8469 0.8468 0.8467
3778.000000 0.8466 0.8464 0.8463 0.8462 0.8461
3783.000000 0.8460 0.8459 0.8458 0.8456 0.8455
3788.000000 0.8454 0.8453 0.8452 0.8451 0.8449
3793.000000 0.8448 0.8447 0.8446 0.8445 0.8444
3798.000000 0.8443 0.8442 0.8441 0.8440 0.8439
3803.000000 0.8438 0.8438 0.8437 0.8435 0.8434
3808.000000 0.8432 0.8431 0.8429 0.8427 0.8424
3813.000000 0.8421 0.8418 0.8415 0.8412 0.8409
3818.000000 0.8406 0.8403 0.8400 0.8397 0.8393
3823.000000 0.8390 0.8388 0.8385 0.8382 0.8379
3828.000000 0.8376 0.8373 0.8370 0.8367 0.8364
3833.000000 0.8361 0.8358 0.8355 0.8352 0.8349
3838.000000 0.8346 0.8343 0.8340 0.8337 0.8335
3843.000000 0.8332 0.8329 0.8327 0.8324 0.8321
3848.000000 0.8319 0.8316 0.8313 0.8310 0.8308
3853.000000 0.8305 0.8302 0.8300 0.8297 0.8294
3858.000000 0.8292 0.8289 0.8286 0.8284 0.8281
3863.000000 0.8278 0.8275 0.8273 0.8270 0.8267
3868.000000 0.8264 0.8261 0.8258 0.8256 0.8253
3873.000000 0.8250 0.8248 0.8245 0.8242 0.8240
3878.000000 0.8237 0.8234 0.8232 0.8229 0.8226
3883.000000 0.8224 0.8221 0.8219 0.8216 0.8213
3888.000000 0.8211 0.8208 0.8205 0.8202 0.8199
3893.000000 0.8197 0.8194 0.8191 0.8188 0.8186
3898.000000 0.8183 0.8181 0.8178 0.8176 0.8174
3903.000000 0.8172 0.8171 0.8169 0.8167 0.8165
3908.000000 0.8164 0.8162 0.8160 0.8159 0.8157
3913.000000 0.8156 0.8154 0.8153 0.8151 0.8150
3918.000000 0.8148 0.8147 0.8145 0.8143 0.8142
3923.000000 0.8140 0.8139 0.8137 0.8135 0.8134
3928.000000 0.8132 0.8130 0.8129 0.8127 0.8126
3933.000000 0.8124 0.8123 0.8121 0.8120 0.8119
3938.000000 0.8117 0.8115 0.8114 0.8112 0.8110
3943.000000 0.8109 0.8107 0.8106 0.8104 0.8103
3948.000000 0.8102 0.8100 0.8099 0.8097 0.8095
3953.000000 0.8094 0.8092 0.8091 0.8089 0.8088
3958.000000 0.8086 0.8085 0.8083 0.8082 0.8080
3963.000000 0.8079 0.8078 0.8076 0.8075 0.8073
3968.000000 0.8072 0.8071 0.8070 0.8068 0.8067
3973.000000 0.8066 0.8065 0.8064 0.8063 0.8062
3978.000000 0.8061 0.8060 0.8058 0.8057 0.8056
3983.000000 0.8055 0.8054 0.8053 0.8052 0.8051
3988.000000 0.8050 0.8049 0.8047 0.8046 0.8045
3993.000000 0.8044 0.8043 0.8042 0.8041 0.8040
3998.000000 0.8039 0.8038 0.8037
##END=
