##TITLE=4-(DIETHOXYMETHYLSILYL)BUTYLAMINE
##JCAMP-DX=4.24
##DATA TYPE=INFRARED SPECTRUM
##CLASS=COBLENTZ III
##ORIGIN=DOW CHEMICAL COMPANY
##OWNER=COBLENTZ SOCIETY
Collection (C) 2018 copyright by the U.S. Secretary of Commerce
on behalf of the United States of America. All rights reserved.
##DATE=1965/08/31
##NAMES=4-[diethoxy(methyl)silyl]butylamine
4-[diethoxy(methyl)silyl]-1-butanamine
##CAS REGISTRY NO=3037-72-7
##MOLFORM=C9 H23 N O2 Si
##SOURCE REFERENCE=COBLENTZ NO. 8625
##$NIST SOURCE=COBLENTZ
##$NIST IMAGE=cob8625
##SPECTROMETER/DATA SYSTEM=DOW KBr FOREPRISM-GRATING
##INSTRUMENT PARAMETERS=BLAZED AT 3.5, 12.0, 20.0 MICRON AND CHANGED AT 5.0, 7.5, 14.9 MICRON
##STATE=SOLUTION (10% CCl4 FOR 3800-400 CM^-^1)
##PATH LENGTH=0.011 CM
$$SPECTRAL CONTAMINATION DUE TO H2O AROUND 3400, CCl4 AROUND 1550, AND 700-900 CM^-^1
##SAMPLING PROCEDURE=TRANSMISSION
##RESOLUTION=2
##DATA PROCESSING=DIGITIZED BY NIST FROM HARD COPY (FROM TWO SEGMENTS)
##XUNITS=1/CM
##YUNITS=TRANSMITTANCE
##XFACTOR=1.000000
##YFACTOR=1
##DELTAX=0.881059
##FIRSTX=408.811
##LASTX=3810.58
##FIRSTY=0.63
##MAXX=3810.58
##MINX=408.811
##MAXY=0.982
##MINY=0.001
##NPOINTS=3862
##XYDATA=(X++(Y..Y))
408.811000 0.6300 0.6290 0.6260 0.6220 0.6190
413.216294 0.6160 0.6150 0.6140 0.6120 0.6090
417.621588 0.6080 0.6080 0.6080 0.6070 0.6070
422.026883 0.6070 0.6070 0.6050 0.6050 0.6050
426.432177 0.6050 0.6050 0.6050 0.6050 0.6040
430.837471 0.6040 0.6040 0.6040 0.6040 0.6050
435.242765 0.6050 0.6070 0.6070 0.6080 0.6080
439.648060 0.6090 0.6110 0.6110 0.6120 0.6140
444.053354 0.6140 0.6150 0.6160 0.6180 0.6190
448.458648 0.6230 0.6330 0.6410 0.6510 0.6679
452.863942 0.6770 0.6840 0.6890 0.6930 0.6960
457.269236 0.6950 0.6990 0.7030 0.7060 0.7080
461.674531 0.7110 0.7120 0.7140 0.7150 0.7150
466.079825 0.7170 0.7170 0.7150 0.7150 0.7140
470.485119 0.7110 0.7110 0.7110 0.7120 0.7150
474.890413 0.7170 0.7190 0.7230 0.7280 0.7320
479.295708 0.7390 0.7450 0.7540 0.7600 0.7670
483.701002 0.7760 0.7780 0.7810 0.7870 0.7930
488.106296 0.7950 0.7980 0.8030 0.8110 0.8180
492.511590 0.8240 0.8260 0.8290 0.8320 0.8350
496.916884 0.8360 0.8370 0.8390 0.8420 0.8460
501.322179 0.8500 0.8550 0.8620 0.8660 0.8690
505.727473 0.8700 0.8720 0.8730 0.8750 0.8760
510.132767 0.8760 0.8790 0.8800 0.8840 0.8880
514.538061 0.8900 0.8910 0.8910 0.8920 0.8940
518.943356 0.8940 0.8940 0.8940 0.8940 0.8950
523.348650 0.8940 0.8940 0.8910 0.8900 0.8880
527.753944 0.8870 0.8850 0.8830 0.8800 0.8800
532.159238 0.8790 0.8770 0.8770 0.8790 0.8800
536.564532 0.8810 0.8900 0.8920 0.8950 0.8960
540.969827 0.8990 0.9010 0.9030 0.9050 0.9070
545.375121 0.9100 0.9120 0.9120 0.9130 0.9130
549.780415 0.9140 0.9140 0.9160 0.9170 0.9170
554.185709 0.9180 0.9180 0.9200 0.9200 0.9200
558.591003 0.9200 0.9200 0.9200 0.9200 0.9200
562.996298 0.9200 0.9200 0.9210 0.9210 0.9210
567.401592 0.9230 0.9230 0.9230 0.9240 0.9250
571.806886 0.9270 0.9270 0.9280 0.9290 0.9310
576.212180 0.9320 0.9340 0.9350 0.9360 0.9380
580.617475 0.9390 0.9390 0.9400 0.9420 0.9430
585.022769 0.9430 0.9450 0.9450 0.9450 0.9450
589.428063 0.9450 0.9450 0.9450 0.9450 0.9450
593.833357 0.9450 0.9450 0.9450 0.9430 0.9430
598.238651 0.9420 0.9420 0.9400 0.9390 0.9380
602.643946 0.9360 0.9340 0.9320 0.9310 0.9280
607.049240 0.9270 0.9240 0.9240 0.9230 0.9200
611.454534 0.9180 0.9160 0.9170 0.9160 0.9130
615.859828 0.9100 0.9070 0.9030 0.8980 0.8950
620.265123 0.8920 0.8880 0.8830 0.8770 0.8750
624.670417 0.8700 0.8650 0.8530 0.8510 0.8510
629.075711 0.8510 0.8540 0.8750 0.8850 0.8910
633.481005 0.8960 0.9020 0.9120 0.9120 0.9160
637.886299 0.9200 0.9200 0.9200 0.9200 0.9200
642.291594 0.9180 0.9180 0.9170 0.9160 0.9160
646.696888 0.9140 0.9140 0.9130 0.9130 0.9100
651.102182 0.9070 0.9050 0.9030 0.9010 0.8980
655.507476 0.8950 0.8880 0.8870 0.8850 0.8830
659.912771 0.8810 0.8760 0.8700 0.8640 0.8570
664.318065 0.8510 0.8500 0.8500 0.8500 0.8500
668.723359 0.8500 0.8500 0.8500 0.8500 0.8500
673.128653 0.8500 0.8480 0.8480 0.8470 0.8470
677.533947 0.8460 0.8460 0.8430 0.8430 0.8420
681.939242 0.8400 0.8390 0.8370 0.8330 0.8310
686.344536 0.8280 0.8210 0.8150 0.8100 0.8030
690.749830 0.7950 0.7850 0.7770 0.7730 0.7670
695.155124 0.7580 0.7480 0.7400 0.7300 0.7190
699.560419 0.7100 0.7000 0.6900 0.6790 0.6680
703.965713 0.6640 0.6590 0.6480 0.6380 0.6260
708.371007 0.6050 0.5830 0.5750 0.5630 0.5530
712.776301 0.5390 0.5240 0.5041 0.4861 0.4641
717.181595 0.4430 0.4240 0.4050 0.3650 0.3620
721.586890 0.3580 0.3371 0.3151 0.2781 0.2481
725.992184 0.2210 0.2100 0.1990 0.1780 0.1600
730.397478 0.1420 0.1250 0.1070 0.0960 0.0850
734.802772 0.0340 0.0310 0.0260 0.0190 0.0130
739.208067 0.0080 0.0050 0.0050 0.0040 0.0040
743.613361 0.0040 0.0040 0.0040 0.0040 0.0040
748.018655 0.0040 0.0040 0.0040 0.0040 0.0040
752.423949 0.0040 0.0040 0.0040 0.0020 0.0020
756.829243 0.0020 0.0020 0.0020 0.0020 0.0020
761.234538 0.0020 0.0020 0.0020 0.0020 0.0020
765.639832 0.0020 0.0020 0.0020 0.0010 0.0010
770.045126 0.0010 0.0010 0.0010 0.0010 0.0010
774.450420 0.0010 0.0010 0.0010 0.0010 0.0010
778.855714 0.0010 0.0010 0.0010 0.0010 0.0010
783.261009 0.0010 0.0010 0.0010 0.0010 0.0010
787.666303 0.0010 0.0010 0.0010 0.0010 0.0010
792.071597 0.0010 0.0010 0.0020 0.0020 0.0020
796.476891 0.0020 0.0020 0.0020 0.0040 0.0040
800.882186 0.0040 0.0050 0.0050 0.0060 0.0060
805.287480 0.0060 0.0060 0.0060 0.0060 0.0060
809.692774 0.0060 0.0060 0.0080 0.0090 0.0100
814.098068 0.0120 0.0120 0.0130 0.0170 0.0200
818.503362 0.0230 0.0280 0.0300 0.0350 0.0390
822.908657 0.0450 0.0480 0.0490 0.0520 0.0540
827.313951 0.0600 0.0650 0.0720 0.0810 0.0999
831.719245 0.1070 0.1180 0.1260 0.1370 0.1490
836.124539 0.1640 0.1790 0.1930 0.2219 0.2340
840.529834 0.2450 0.2510 0.2670 0.2810 0.2820
844.935128 0.3090 0.3110 0.3359 0.3370 0.3470
849.340422 0.3550 0.3640 0.3800 0.3810 0.3950
853.745716 0.4090 0.4200 0.4280 0.4430 0.4540
858.151010 0.4680 0.4760 0.4900 0.5040 0.5060
862.556305 0.5150 0.5280 0.5569 0.5640 0.5740
866.961599 0.5780 0.5810 0.5890 0.5920 0.5960
871.366893 0.6030 0.6040 0.6050 0.6050 0.6070
875.772187 0.6080 0.6080 0.6090 0.6090 0.6110
880.177482 0.6160 0.6200 0.6250 0.6300 0.6370
884.582776 0.6400 0.6420 0.6460 0.6490 0.6530
888.988070 0.6570 0.6640 0.6670 0.6730 0.6740
893.393364 0.6840 0.6850 0.6890 0.6920 0.6950
897.798658 0.6960 0.6960 0.6960 0.6900 0.6880
902.203953 0.6840 0.6810 0.6770 0.6730 0.6700
906.609247 0.6660 0.6630 0.6620 0.6600 0.6590
911.014541 0.6570 0.6520 0.6450 0.6400 0.6350
915.419835 0.6330 0.6300 0.6200 0.6050 0.5891
919.825130 0.5700 0.5500 0.5410 0.5310 0.5120
924.230424 0.4930 0.4730 0.4531 0.4430 0.4320
928.635718 0.4120 0.3920 0.3720 0.3510 0.3310
933.041012 0.3210 0.3100 0.2411 0.2280 0.2170
937.446306 0.2110 0.2040 0.1930 0.1810 0.1700
941.851601 0.1670 0.1570 0.1450 0.1380 0.1350
946.256895 0.1310 0.1290 0.1270 0.1260 0.1250
950.662189 0.1260 0.1300 0.1330 0.1370 0.1450
955.067483 0.1620 0.1780 0.1950 0.2260 0.2430
959.472778 0.2590 0.2770 0.3359 0.3649 0.3869
963.878072 0.3990 0.4140 0.4430 0.4540 0.4640
968.283366 0.4680 0.4710 0.4730 0.4750 0.4760
972.688660 0.4780 0.4780 0.4790 0.4790 0.4800
977.093954 0.4820 0.4830 0.4870 0.4900 0.4910
981.499249 0.4940 0.5000 0.5020 0.5040 0.5050
985.904543 0.5060 0.5080 0.5080 0.5090 0.5090
990.309837 0.5090 0.5090 0.5090 0.5080 0.5060
994.715131 0.5040 0.5010 0.4980 0.4950 0.4930
999.120426 0.4900 0.4870 0.4860 0.4830 0.4820
1003.525720 0.4690 0.4690 0.4690 0.4680 0.4680
1007.931014 0.4680 0.4680 0.4680 0.4690 0.4690
1012.336308 0.4710 0.4710 0.4710 0.4720 0.4780
1016.741602 0.4790 0.4800 0.4820 0.4820 0.4830
1021.146897 0.4830 0.4820 0.4800 0.4790 0.4780
1025.552191 0.4710 0.4680 0.4620 0.4600 0.4540
1029.957485 0.4470 0.4380 0.4340 0.4290 0.4230
1034.362779 0.4170 0.4130 0.4050 0.3950 0.3910
1038.768073 0.3830 0.3720 0.3590 0.3460 0.3291
1043.173368 0.3220 0.3140 0.2980 0.2800 0.2700
1047.578662 0.2580 0.2510 0.2370 0.2260 0.2170
1051.983956 0.2140 0.2100 0.2030 0.1960 0.1900
1056.389250 0.1840 0.1750 0.1680 0.1600 0.1510
1060.794545 0.1400 0.1290 0.1180 0.1070 0.0980
1065.199839 0.0890 0.0780 0.0610 0.0520 0.0410
1069.605133 0.0160 0.0130 0.0120 0.0120 0.0130
1074.010427 0.0130 0.0130 0.0130 0.0150 0.0150
1078.415721 0.0160 0.0160 0.0170 0.0170 0.0170
1082.821016 0.0190 0.0200 0.0210 0.0230 0.0240
1087.226310 0.0310 0.0390 0.0420 0.0450 0.0480
1091.631604 0.0560 0.0630 0.0630 0.0630 0.0630
1096.036898 0.0590 0.0560 0.0520 0.0480 0.0420
1100.442193 0.0380 0.0310 0.0130 0.0120 0.0130
1104.847487 0.0130 0.0150 0.0150 0.0160 0.0190
1109.252781 0.0200 0.0230 0.0240 0.0280 0.0310
1113.658075 0.0340 0.0380 0.0410 0.0420 0.0460
1118.063369 0.0520 0.0560 0.0600 0.0650 0.0750
1122.468664 0.1030 0.1140 0.1180 0.1330 0.1520
1126.873958 0.1600 0.1700 0.1770 0.2289 0.2410
1131.279252 0.2620 0.2840 0.3030 0.3040 0.3360
1135.684546 0.3510 0.3640 0.3730 0.3870 0.4059
1140.089841 0.4170 0.4270 0.4280 0.4470 0.4490
1144.495135 0.4510 0.4530 0.4530 0.4530 0.4530
1148.900429 0.4500 0.4470 0.4380 0.4310 0.4230
1153.305723 0.4100 0.3990 0.3900 0.3770 0.3611
1157.711017 0.3470 0.3280 0.3240 0.3180 0.2960
1162.116312 0.2700 0.2540 0.2260 0.1991 0.1930
1166.521606 0.1931 0.2210 0.2260 0.2560 0.2810
1170.926900 0.3250 0.3470 0.3660 0.4049 0.4229
1175.332194 0.4491 0.4710 0.4910 0.5020 0.5130
1179.737489 0.5210 0.5600 0.5720 0.5890 0.6030
1184.142783 0.6140 0.6160 0.6250 0.6350 0.6380
1188.548077 0.6380 0.6380 0.6350 0.6330 0.6310
1192.953371 0.6270 0.6270 0.6250 0.6200 0.6160
1197.358665 0.6080 0.6030 0.5960 0.5930 0.5850
1201.763960 0.5740 0.5720 0.5740 0.5720 0.5720
1206.169254 0.5740 0.5740 0.5740 0.5750 0.5760
1210.574548 0.5780 0.5790 0.5810 0.5830 0.5860
1214.979842 0.5890 0.5920 0.6070 0.6120 0.6180
1219.385137 0.6200 0.6260 0.6330 0.6340 0.6370
1223.790431 0.6380 0.6420 0.6460 0.6520 0.6530
1228.195725 0.6550 0.6550 0.6530 0.6510 0.6490
1232.601019 0.6480 0.6400 0.6350 0.6330 0.6300
1237.006313 0.6200 0.6160 0.6070 0.5940 0.5860
1241.411608 0.5710 0.5500 0.5410 0.5310 0.5150
1245.816902 0.4779 0.4460 0.4310 0.4160 0.3850
1250.222196 0.3420 0.2961 0.2251 0.2150 0.2040
1254.627490 0.1848 0.1220 0.1220 0.1270 0.1450
1259.032784 0.1490 0.1620 0.2279 0.2979 0.3319
1263.438079 0.3642 0.4580 0.4610 0.4830 0.5060
1267.843373 0.5780 0.5930 0.5980 0.6150 0.6330
1272.248667 0.6460 0.6660 0.6700 0.6780 0.6790
1276.653961 0.6840 0.6930 0.6950 0.6990 0.7000
1281.059256 0.7000 0.7000 0.7000 0.6970 0.6890
1285.464550 0.6810 0.6780 0.6710 0.6640 0.6560
1289.869844 0.6490 0.6380 0.6200 0.6180 0.6190
1294.275138 0.6300 0.6300 0.6330 0.6450 0.6699
1298.680432 0.6810 0.6920 0.7030 0.7150 0.7260
1303.085727 0.7330 0.7440 0.7450 0.7520 0.7590
1307.491021 0.7600 0.7630 0.7670 0.7700 0.7770
1311.896315 0.7810 0.7850 0.7880 0.7890 0.7910
1316.301609 0.7960 0.7980 0.7990 0.8000 0.8020
1320.706904 0.8030 0.8030 0.8030 0.8020 0.8000
1325.112198 0.8000 0.7990 0.7980 0.7960 0.7950
1329.517492 0.7920 0.7890 0.7850 0.7840 0.7810
1333.922786 0.7780 0.7770 0.7730 0.7670 0.7580
1338.328080 0.7520 0.7540 0.7540 0.7540 0.7540
1342.733375 0.7580 0.7590 0.7600 0.7600 0.7600
1347.138669 0.7600 0.7590 0.7590 0.7580 0.7580
1351.543963 0.7520 0.7480 0.7450 0.7430 0.7390
1355.949257 0.7360 0.7300 0.7250 0.7180 0.7120
1360.354552 0.6969 0.6740 0.6630 0.6510 0.6490
1364.759846 0.6520 0.6530 0.6570 0.6570 0.6560
1369.165140 0.6530 0.6520 0.6490 0.6450 0.6380
1373.570434 0.6340 0.6260 0.6180 0.6070 0.5940
1377.975728 0.5790 0.5700 0.5560 0.5420 0.5050
1382.381023 0.4710 0.4390 0.4270 0.4140 0.3791
1386.786317 0.3440 0.3280 0.3100 0.3070 0.3070
1391.191611 0.3090 0.3480 0.3850 0.4469 0.4729
1395.596905 0.5081 0.5520 0.5760 0.5970 0.6110
1400.002200 0.6220 0.6270 0.6290 0.6230 0.6190
1404.407494 0.6160 0.6120 0.6040 0.5920 0.5900
1408.812788 0.5920 0.5960 0.6040 0.6180 0.6310
1413.218082 0.6451 0.6770 0.6850 0.6920 0.6930
1417.623376 0.7030 0.7120 0.7300 0.7320 0.7320
1422.028671 0.7320 0.7300 0.7300 0.7300 0.7290
1426.433965 0.7280 0.7250 0.7230 0.7220 0.7150
1430.839259 0.7060 0.6920 0.6780 0.6640 0.6560
1435.244553 0.6480 0.6330 0.6180 0.6010 0.5890
1439.649848 0.5780 0.5600 0.5590 0.5600 0.5680
1444.055142 0.5780 0.5870 0.5940 0.6040 0.6050
1448.460436 0.6090 0.6090 0.5970 0.5890 0.5810
1452.865730 0.5720 0.5640 0.5610 0.5640 0.5820
1457.271024 0.6010 0.6120 0.6310 0.6670 0.6770
1461.676319 0.6850 0.6900 0.6960 0.6970 0.7030
1466.081613 0.7080 0.7080 0.7110 0.7120 0.7120
1470.486907 0.7120 0.7120 0.7120 0.7100 0.7080
1474.892201 0.7080 0.7070 0.7030 0.7000 0.6960
1479.297495 0.6710 0.6700 0.6700 0.6730 0.7029
1483.702790 0.7150 0.7300 0.7440 0.7480 0.7520
1488.108084 0.7550 0.7560 0.7590 0.7590 0.7590
1492.513378 0.7590 0.7590 0.7560 0.7550 0.7520
1496.918672 0.7450 0.7440 0.7410 0.7390 0.7330
1501.323967 0.7280 0.7220 0.7170 0.7100 0.7040
1505.729261 0.6990 0.6960 0.6930 0.6900 0.6890
1510.134555 0.6820 0.6750 0.6680 0.6640 0.6630
1514.539849 0.6620 0.6590 0.6490 0.6460 0.6450
1518.945143 0.6400 0.6340 0.6330 0.6310 0.6260
1523.350438 0.6220 0.6190 0.6150 0.6110 0.6010
1527.755732 0.5940 0.5900 0.5850 0.5710 0.5610
1532.161026 0.5500 0.5460 0.5420 0.5320 0.5240
1536.566320 0.5150 0.5040 0.4930 0.4900 0.4860
1540.971615 0.4780 0.4680 0.4610 0.4580 0.4530
1545.376909 0.4490 0.4490 0.4490 0.4490 0.4490
1549.782203 0.4530 0.4570 0.4640 0.4690 0.4730
1554.187497 0.4750 0.4820 0.4830 0.4900 0.4930
1558.592791 0.5010 0.5040 0.5150 0.5230 0.5350
1562.998086 0.5570 0.5610 0.5640 0.5670 0.5750
1567.403380 0.5750 0.5780 0.5790 0.5820 0.5820
1571.808674 0.5820 0.5820 0.5830 0.5820 0.5820
1576.213968 0.5820 0.5820 0.5820 0.5830 0.5830
1580.619263 0.5870 0.5890 0.5940 0.5940 0.6010
1585.024557 0.6040 0.6050 0.6110 0.6180 0.6220
1589.429851 0.6300 0.6310 0.6350 0.6460 0.6640
1593.835145 0.6740 0.6770 0.6810 0.6850 0.6930
1598.240439 0.7060 0.7100 0.7170 0.7230 0.7290
1602.645734 0.7360 0.7400 0.7440 0.7440 0.7480
1607.051028 0.7500 0.7520 0.7580 0.7590 0.7600
1611.456322 0.7650 0.7670 0.7700 0.7710 0.7710
1615.861616 0.7770 0.7780 0.7800 0.7810 0.7820
1620.266911 0.7870 0.7930 0.7960 0.7980 0.7990
1624.672205 0.8020 0.8040 0.8070 0.8140 0.8170
1629.077499 0.8210 0.8250 0.8280 0.8330 0.8360
1633.482793 0.8420 0.8440 0.8460 0.8510 0.8540
1637.888087 0.8580 0.8580 0.8590 0.8620 0.8640
1642.293382 0.8650 0.8680 0.8690 0.8720 0.8730
1646.698676 0.8750 0.8760 0.8770 0.8790 0.8800
1651.103970 0.8810 0.8830 0.8840 0.8850 0.8850
1655.509264 0.8850 0.8870 0.8870 0.8870 0.8880
1659.914559 0.8880 0.8880 0.8880 0.8880 0.8880
1664.319853 0.8880 0.8870 0.8840 0.8840 0.8840
1668.725147 0.8850 0.8900 0.8910 0.8910 0.8920
1673.130441 0.8920 0.8940 0.8960 0.8980 0.8990
1677.535735 0.9010 0.9020 0.9030 0.9050 0.9070
1681.941030 0.9070 0.9090 0.9100 0.9120 0.9130
1686.346324 0.9130 0.9140 0.9160 0.9170 0.9170
1690.751618 0.9180 0.9200 0.9210 0.9230 0.9240
1695.156912 0.9250 0.9250 0.9250 0.9250 0.9250
1699.562207 0.9270 0.9280 0.9280 0.9280 0.9280
1703.967501 0.9290 0.9290 0.9290 0.9310 0.9310
1708.372795 0.9310 0.9310 0.9320 0.9320 0.9320
1712.778089 0.9320 0.9340 0.9340 0.9340 0.9340
1717.183383 0.9340 0.9350 0.9350 0.9350 0.9350
1721.588678 0.9350 0.9350 0.9350 0.9350 0.9350
1725.993972 0.9350 0.9350 0.9350 0.9350 0.9350
1730.399266 0.9350 0.9350 0.9350 0.9350 0.9350
1734.804560 0.9350 0.9350 0.9350 0.9350 0.9350
1739.209854 0.9350 0.9350 0.9350 0.9340 0.9340
1743.615149 0.9340 0.9340 0.9340 0.9350 0.9350
1748.020443 0.9350 0.9350 0.9350 0.9350 0.9350
1752.425737 0.9360 0.9360 0.9360 0.9360 0.9350
1756.831031 0.9350 0.9350 0.9350 0.9350 0.9350
1761.236326 0.9350 0.9360 0.9350 0.9350 0.9350
1765.641620 0.9350 0.9350 0.9350 0.9350 0.9350
1770.046914 0.9350 0.9340 0.9350 0.9340 0.9340
1774.452208 0.9340 0.9340 0.9320 0.9320 0.9320
1778.857502 0.9320 0.9310 0.9310 0.9290 0.9290
1783.262797 0.9290 0.9280 0.9280 0.9270 0.9270
1787.668091 0.9250 0.9250 0.9240 0.9250 0.9250
1792.073385 0.9250 0.9240 0.9240 0.9240 0.9240
1796.478679 0.9240 0.9240 0.9240 0.9240 0.9240
1800.883974 0.9240 0.9240 0.9230 0.9230 0.9230
1805.289268 0.9230 0.9210 0.9210 0.9210 0.9210
1809.694562 0.9210 0.9210 0.9210 0.9230 0.9230
1814.099856 0.9230 0.9210 0.9210 0.9200 0.9200
1818.505150 0.9210 0.9210 0.9210 0.9210 0.9200
1822.910445 0.9200 0.9180 0.9180 0.9180 0.9170
1827.315739 0.9180 0.9180 0.9180 0.9180 0.9180
1831.721033 0.9200 0.9200 0.9200 0.9200 0.9200
1836.126327 0.9200 0.9210 0.9200 0.9200 0.9200
1840.531622 0.9200 0.9210 0.9240 0.9240 0.9230
1844.936916 0.9230 0.9230 0.9230 0.9230 0.9230
1849.342210 0.9230 0.9230 0.9230 0.9240 0.9240
1853.747504 0.9240 0.9240 0.9240 0.9240 0.9240
1858.152798 0.9240 0.9240 0.9240 0.9240 0.9240
1862.558093 0.9240 0.9240 0.9240 0.9240 0.9240
1866.963387 0.9240 0.9240 0.9240 0.9240 0.9240
1871.368681 0.9240 0.9240 0.9240 0.9240 0.9240
1875.773975 0.9240 0.9240 0.9240 0.9240 0.9240
1880.179270 0.9230 0.9240 0.9240 0.9240 0.9240
1884.584564 0.9230 0.9240 0.9240 0.9240 0.9240
1888.989858 0.9240 0.9240 0.9240 0.9240 0.9240
1893.395152 0.9240 0.9240 0.9240 0.9240 0.9240
1897.800446 0.9240 0.9240 0.9250 0.9250 0.9250
1902.205741 0.9250 0.9270 0.9270 0.9270 0.9270
1906.611035 0.9270 0.9280 0.9280 0.9280 0.9280
1911.016329 0.9280 0.9290 0.9290 0.9290 0.9290
1915.421623 0.9290 0.9310 0.9310 0.9310 0.9310
1919.826918 0.9310 0.9320 0.9320 0.9320 0.9320
1924.232212 0.9340 0.9340 0.9340 0.9340 0.9340
1928.637506 0.9350 0.9350 0.9360 0.9380 0.9380
1933.042800 0.9390 0.9390 0.9400 0.9400 0.9400
1937.448094 0.9400 0.9420 0.9420 0.9420 0.9430
1941.853389 0.9430 0.9430 0.9430 0.9430 0.9430
1946.258683 0.9430 0.9430 0.9430 0.9430 0.9430
1950.663977 0.9430 0.9430 0.9430 0.9430 0.9430
1955.069271 0.9430 0.9430 0.9430 0.9450 0.9450
1959.474565 0.9400 0.9400 0.9390 0.9390 0.9390
1963.879860 0.9390 0.9390 0.9390 0.9390 0.9390
1968.285154 0.9380 0.9380 0.9380 0.9380 0.9390
1972.690448 0.9390 0.9390 0.9390 0.9390 0.9390
1977.095742 0.9390 0.9390 0.9390 0.9390 0.9390
1981.501037 0.9390 0.9390 0.9390 0.9390 0.9390
1985.906331 0.9390 0.9390 0.9390 0.9390 0.9390
1990.311625 0.9390 0.9390 0.9390 0.9390 0.9390
1994.716919 0.9390 0.9390 0.9390 0.9390 0.9390
1999.122213 0.9390 0.9390 0.9390 0.9390 0.9390
2003.527508 0.9390 0.9390 0.9390 0.9390 0.9390
2007.932802 0.9390 0.9390 0.9390 0.9390 0.9395
2012.338096 0.9400 0.9400 0.9400 0.9400 0.9400
2016.743390 0.9400 0.9401 0.9411 0.9420 0.9420
2021.148685 0.9420 0.9420 0.9420 0.9420 0.9420
2025.553979 0.9425 0.9430 0.9430 0.9430 0.9430
2029.959273 0.9430 0.9430 0.9431 0.9441 0.9450
2034.364567 0.9450 0.9450 0.9450 0.9450 0.9450
2038.769861 0.9451 0.9456 0.9460 0.9460 0.9460
2043.175156 0.9460 0.9461 0.9466 0.9470 0.9470
2047.580450 0.9470 0.9470 0.9470 0.9470 0.9470
2051.985744 0.9470 0.9470 0.9470 0.9470 0.9470
2056.391038 0.9470 0.9470 0.9470 0.9470 0.9470
2060.796333 0.9470 0.9470 0.9470 0.9472 0.9482
2065.201627 0.9490 0.9490 0.9490 0.9490 0.9490
2069.606921 0.9490 0.9491 0.9496 0.9500 0.9500
2074.012215 0.9500 0.9500 0.9500 0.9500 0.9501
2078.417509 0.9506 0.9510 0.9510 0.9510 0.9510
2082.822804 0.9510 0.9510 0.9510 0.9510 0.9510
2087.228098 0.9510 0.9510 0.9510 0.9510 0.9510
2091.633392 0.9510 0.9510 0.9510 0.9510 0.9510
2096.038686 0.9510 0.9510 0.9510 0.9510 0.9510
2100.443981 0.9510 0.9510 0.9510 0.9510 0.9510
2104.849275 0.9510 0.9510 0.9510 0.9510 0.9510
2109.254569 0.9510 0.9510 0.9510 0.9510 0.9510
2113.659863 0.9510 0.9510 0.9510 0.9510 0.9510
2118.065157 0.9510 0.9510 0.9510 0.9510 0.9510
2122.470452 0.9510 0.9514 0.9524 0.9530 0.9530
2126.875746 0.9530 0.9530 0.9530 0.9530 0.9530
2131.281040 0.9530 0.9530 0.9530 0.9530 0.9530
2135.686334 0.9525 0.9515 0.9510 0.9510 0.9510
2140.091629 0.9510 0.9510 0.9510 0.9510 0.9510
2144.496923 0.9510 0.9510 0.9510 0.9510 0.9510
2148.902217 0.9510 0.9510 0.9510 0.9510 0.9510
2153.307511 0.9510 0.9510 0.9507 0.9502 0.9500
2157.712805 0.9500 0.9500 0.9500 0.9500 0.9500
2162.118100 0.9497 0.9492 0.9490 0.9490 0.9490
2166.523394 0.9490 0.9490 0.9490 0.9484 0.9474
2170.928688 0.9470 0.9470 0.9467 0.9462 0.9457
2175.333982 0.9452 0.9444 0.9434 0.9420 0.9405
2179.739277 0.9400 0.9400 0.9400 0.9400 0.9400
2184.144571 0.9400 0.9400 0.9400 0.9400 0.9400
2188.549865 0.9400 0.9400 0.9400 0.9400 0.9407
2192.955159 0.9417 0.9420 0.9420 0.9424 0.9429
2197.360453 0.9437 0.9447 0.9454 0.9459 0.9460
2201.765748 0.9460 0.9464 0.9469 0.9470 0.9470
2206.171042 0.9477 0.9487 0.9490 0.9490 0.9494
2210.576336 0.9499 0.9500 0.9500 0.9500 0.9500
2214.981630 0.9500 0.9500 0.9500 0.9500 0.9500
2219.386924 0.9500 0.9500 0.9500 0.9500 0.9500
2223.792219 0.9504 0.9509 0.9510 0.9510 0.9510
2228.197513 0.9510 0.9518 0.9528 0.9530 0.9530
2232.602807 0.9530 0.9530 0.9530 0.9530 0.9530
2237.008101 0.9530 0.9530 0.9530 0.9530 0.9530
2241.413396 0.9521 0.9511 0.9510 0.9510 0.9506
2245.818690 0.9501 0.9496 0.9491 0.9490 0.9490
2250.223984 0.9481 0.9471 0.9466 0.9460 0.9460
2254.629278 0.9460 0.9442 0.9422 0.9411 0.9401
2259.034572 0.9400 0.9400 0.9409 0.9419 0.9425
2263.439867 0.9430 0.9430 0.9430 0.9430 0.9430
2267.845161 0.9430 0.9430 0.9425 0.9420 0.9420
2272.250455 0.9420 0.9410 0.9400 0.9400 0.9400
2276.655749 0.9390 0.9380 0.9380 0.9380 0.9370
2281.061044 0.9360 0.9360 0.9360 0.9355 0.9350
2285.466338 0.9345 0.9340 0.9340 0.9340 0.9340
2289.871632 0.9340 0.9340 0.9340 0.9340 0.9340
2294.276926 0.9340 0.9340 0.9340 0.9340 0.9345
2298.682220 0.9350 0.9350 0.9350 0.9355 0.9361
2303.087515 0.9371 0.9380 0.9385 0.9390 0.9395
2307.492809 0.9400 0.9400 0.9401 0.9411 0.9420
2311.898103 0.9420 0.9420 0.9420 0.9420 0.9420
2316.303397 0.9420 0.9420 0.9420 0.9420 0.9421
2320.708692 0.9426 0.9432 0.9447 0.9462 0.9477
2325.113986 0.9492 0.9502 0.9512 0.9527 0.9542
2329.519280 0.9552 0.9562 0.9572 0.9582 0.9592
2333.924574 0.9600 0.9600 0.9600 0.9600 0.9600
2338.329868 0.9600 0.9600 0.9600 0.9601 0.9606
2342.735163 0.9610 0.9610 0.9610 0.9610 0.9611
2347.140457 0.9616 0.9620 0.9620 0.9620 0.9620
2351.545751 0.9620 0.9620 0.9623 0.9633 0.9640
2355.951045 0.9640 0.9640 0.9640 0.9640 0.9640
2360.356340 0.9640 0.9640 0.9640 0.9640 0.9640
2364.761634 0.9640 0.9640 0.9640 0.9640 0.9640
2369.166928 0.9640 0.9640 0.9640 0.9640 0.9640
2373.572222 0.9640 0.9640 0.9640 0.9640 0.9640
2377.977516 0.9640 0.9640 0.9640 0.9640 0.9640
2382.382811 0.9640 0.9640 0.9640 0.9633 0.9612
2386.788105 0.9594 0.9579 0.9568 0.9563 0.9560
2391.193399 0.9560 0.9560 0.9560 0.9560 0.9560
2395.598693 0.9556 0.9546 0.9540 0.9540 0.9540
2400.003988 0.9540 0.9540 0.9540 0.9540 0.9540
2404.409282 0.9538 0.9533 0.9530 0.9530 0.9530
2408.814576 0.9530 0.9525 0.9515 0.9510 0.9510
2413.219870 0.9508 0.9503 0.9500 0.9500 0.9498
2417.625164 0.9493 0.9490 0.9490 0.9485 0.9475
2422.030459 0.9470 0.9470 0.9470 0.9470 0.9467
2426.435753 0.9462 0.9460 0.9460 0.9457 0.9452
2430.841047 0.9450 0.9450 0.9445 0.9435 0.9427
2435.246341 0.9422 0.9420 0.9420 0.9414 0.9404
2439.651635 0.9400 0.9400 0.9400 0.9400 0.9397
2444.056930 0.9392 0.9390 0.9390 0.9390 0.9390
2448.462224 0.9390 0.9390 0.9390 0.9390 0.9390
2452.867518 0.9390 0.9390 0.9390 0.9390 0.9390
2457.272812 0.9390 0.9390 0.9390 0.9390 0.9390
2461.678107 0.9390 0.9390 0.9390 0.9390 0.9390
2466.083401 0.9390 0.9390 0.9390 0.9390 0.9390
2470.488695 0.9390 0.9390 0.9390 0.9393 0.9398
2474.893989 0.9396 0.9391 0.9390 0.9390 0.9386
2479.299283 0.9381 0.9380 0.9380 0.9373 0.9363
2483.704578 0.9367 0.9377 0.9373 0.9363 0.9356
2488.109872 0.9351 0.9350 0.9350 0.9350 0.9350
2492.515166 0.9350 0.9350 0.9350 0.9350 0.9350
2496.920460 0.9350 0.9350 0.9350 0.9350 0.9350
2501.325755 0.9346 0.9341 0.9340 0.9340 0.9340
2505.731049 0.9340 0.9340 0.9340 0.9340 0.9340
2510.136343 0.9340 0.9340 0.9340 0.9340 0.9332
2514.541637 0.9322 0.9320 0.9320 0.9320 0.9320
2518.946931 0.9320 0.9320 0.9320 0.9320 0.9320
2523.352226 0.9320 0.9320 0.9320 0.9320 0.9320
2527.757520 0.9320 0.9320 0.9320 0.9320 0.9320
2532.162814 0.9320 0.9320 0.9320 0.9315 0.9310
2536.568108 0.9310 0.9310 0.9310 0.9310 0.9301
2540.973403 0.9291 0.9290 0.9290 0.9290 0.9290
2545.378697 0.9285 0.9280 0.9280 0.9280 0.9280
2549.783991 0.9280 0.9275 0.9270 0.9270 0.9270
2554.189285 0.9270 0.9270 0.9260 0.9250 0.9250
2558.594579 0.9250 0.9245 0.9240 0.9240 0.9240
2562.999874 0.9235 0.9230 0.9230 0.9230 0.9220
2567.405168 0.9210 0.9210 0.9210 0.9205 0.9200
2571.810462 0.9200 0.9200 0.9190 0.9180 0.9180
2576.215756 0.9180 0.9175 0.9170 0.9165 0.9160
2580.621051 0.9160 0.9160 0.9160 0.9159 0.9149
2585.026345 0.9140 0.9140 0.9140 0.9135 0.9130
2589.431639 0.9130 0.9129 0.9124 0.9120 0.9120
2593.836933 0.9119 0.9109 0.9099 0.9094 0.9090
2598.242227 0.9090 0.9089 0.9079 0.9070 0.9070
2602.647522 0.9069 0.9064 0.9060 0.9060 0.9059
2607.052816 0.9054 0.9050 0.9050 0.9048 0.9038
2611.458110 0.9030 0.9030 0.9029 0.9024 0.9017
2615.863404 0.9002 0.8987 0.8972 0.8958 0.8948
2620.268699 0.8938 0.8928 0.8916 0.8896 0.8879
2624.673993 0.8874 0.8868 0.8858 0.8850 0.8850
2629.079287 0.8850 0.8850 0.8850 0.8850 0.8853
2633.484581 0.8863 0.8870 0.8870 0.8871 0.8876
2637.889875 0.8880 0.8880 0.8880 0.8880 0.8880
2642.295170 0.8880 0.8880 0.8880 0.8880 0.8880
2646.700464 0.8880 0.8880 0.8880 0.8880 0.8880
2651.105758 0.8880 0.8880 0.8880 0.8880 0.8880
2655.511052 0.8880 0.8880 0.8880 0.8880 0.8878
2659.916346 0.8873 0.8870 0.8870 0.8870 0.8870
2664.321641 0.8866 0.8856 0.8848 0.8843 0.8834
2668.726935 0.8819 0.8808 0.8803 0.8798 0.8793
2673.132229 0.8786 0.8776 0.8768 0.8763 0.8760
2677.537523 0.8760 0.8758 0.8753 0.8746 0.8736
2681.942818 0.8734 0.8744 0.8746 0.8736 0.8730
2686.348112 0.8730 0.8728 0.8723 0.8720 0.8720
2690.753406 0.8720 0.8720 0.8715 0.8705 0.8700
2695.158700 0.8700 0.8695 0.8685 0.8675 0.8665
2699.563994 0.8660 0.8660 0.8658 0.8652 0.8647
2703.969289 0.8642 0.8635 0.8625 0.8612 0.8597
2708.374583 0.8577 0.8552 0.8537 0.8532 0.8517
2712.779877 0.8492 0.8448 0.8387 0.8338 0.8298
2717.185171 0.8269 0.8249 0.8229 0.8209 0.8194
2721.590466 0.8184 0.8171 0.8156 0.8132 0.8102
2725.995760 0.8060 0.8010 0.7945 0.7870 0.7801
2730.401054 0.7736 0.7674 0.7614 0.7547 0.7477
2734.806348 0.7444 0.7434 0.7433 0.7438 0.7501
2739.211642 0.7596 0.7678 0.7754 0.7799 0.7830
2743.616937 0.7840 0.7840 0.7840 0.7840 0.7840
2748.022231 0.7840 0.7830 0.7815 0.7800 0.7785
2752.427525 0.7773 0.7763 0.7753 0.7743 0.7736
2756.832819 0.7731 0.7716 0.7696 0.7679 0.7664
2761.238114 0.7660 0.7660 0.7664 0.7669 0.7677
2765.643408 0.7687 0.7694 0.7699 0.7704 0.7709
2770.048702 0.7732 0.7762 0.7781 0.7796 0.7808
2774.453996 0.7818 0.7828 0.7838 0.7832 0.7822
2778.859290 0.7820 0.7820 0.7812 0.7802 0.7792
2783.264585 0.7782 0.7776 0.7771 0.7758 0.7743
2787.669879 0.7724 0.7704 0.7659 0.7609 0.7567
2792.075173 0.7527 0.7491 0.7456 0.7387 0.7312
2796.480467 0.7254 0.7198 0.7152 0.7107 0.7074
2800.885762 0.7044 0.7019 0.6994 0.6964 0.6934
2805.291056 0.6913 0.6893 0.6868 0.6843 0.6809
2809.696350 0.6774 0.6721 0.6666 0.6642 0.6622
2814.101644 0.6597 0.6572 0.6511 0.6446 0.6381
2818.506938 0.6315 0.6305 0.6300 0.6277 0.6252
2822.912233 0.6204 0.6153 0.6070 0.5984 0.5904
2827.317527 0.5823 0.5734 0.5643 0.5519 0.5394
2831.722821 0.5274 0.5153 0.5053 0.4952 0.4842
2836.128115 0.4732 0.4617 0.4502 0.4446 0.4391
2840.533410 0.4336 0.4280 0.4164 0.4048 0.3938
2844.938704 0.3826 0.3641 0.3458 0.3368 0.3279
2849.343998 0.3239 0.3198 0.3153 0.3106 0.3011
2853.749292 0.2916 0.2821 0.2726 0.2641 0.2556
2858.154586 0.2470 0.2388 0.2358 0.2327 0.2287
2862.559881 0.2247 0.2207 0.2166 0.2121 0.2074
2866.965175 0.2014 0.1953 0.1883 0.1815 0.1770
2871.370469 0.1725 0.1675 0.1626 0.1586 0.1543
2875.775763 0.1477 0.1412 0.1346 0.1288 0.1273
2880.181058 0.1261 0.1266 0.1281 0.1351 0.1416
2884.586352 0.1456 0.1498 0.1548 0.1593 0.1613
2888.991646 0.1631 0.1636 0.1640 0.1640 0.1640
2893.396940 0.1640 0.1639 0.1634 0.1629 0.1624
2897.802234 0.1618 0.1608 0.1597 0.1582 0.1568
2902.207529 0.1558 0.1547 0.1532 0.1515 0.1495
2906.612823 0.1477 0.1461 0.1445 0.1425 0.1403
2911.018117 0.1373 0.1345 0.1325 0.1307 0.1297
2915.423411 0.1285 0.1264 0.1228 0.1148 0.1083
2919.828705 0.1058 0.1031 0.1001 0.0973 0.0948
2924.234000 0.0889 0.0748 0.0632 0.0572 0.0525
2928.639294 0.0510 0.0503 0.0513 0.0535 0.0580
2933.044588 0.0627 0.0677 0.0729 0.0784 0.0853
2937.449882 0.0948 0.1027 0.1078 0.1129 0.1185
2941.855177 0.1236 0.1281 0.1328 0.1378 0.1428
2946.260471 0.1478 0.1648 0.2023 0.2354 0.2620
2950.665765 0.2780 0.2780 0.2778 0.2773 0.2762
2955.071059 0.2742 0.2722 0.2702 0.2663 0.2598
2959.476353 0.2497 0.2347 0.2237 0.2182 0.2144
2963.881648 0.2129 0.2116 0.2106 0.2084 0.2049
2968.286942 0.1963 0.1818 0.1670 0.1520 0.1407
2972.692236 0.1337 0.1257 0.1167 0.1077 0.0987
2977.097530 0.0882 0.0762 0.0700 0.0700 0.0769
2981.502825 0.0909 0.0995 0.1025 0.1050 0.1070
2985.908119 0.1109 0.1164 0.1198 0.1213 0.1332
2990.313413 0.1542 0.2094 0.2941 0.3365 0.3430
2994.718707 0.3545 0.3700 0.3910 0.4166 0.4360
2999.124001 0.4506 0.4643 0.4775 0.5118 0.5614
3003.529296 0.5885 0.5995 0.6173 0.6399 0.6541
3007.934590 0.6626 0.6681 0.6716 0.6757 0.6802
3012.339884 0.6853 0.6909 0.6964 0.7019 0.7080
3016.745178 0.7145 0.7195 0.7236 0.7289 0.7349
3021.150473 0.7419 0.7494 0.7546 0.7586 0.7607
3025.555767 0.7617 0.7670 0.7745 0.7780 0.7795
3029.961061 0.7817 0.7842 0.7864 0.7884 0.7910
3034.366355 0.7940 0.7953 0.7959 0.7967 0.7977
3038.771649 0.7980 0.7980 0.7998 0.8023 0.8041
3043.176944 0.8056 0.8078 0.8103 0.8121 0.8136
3047.582238 0.8144 0.8149 0.8157 0.8167 0.8181
3051.987532 0.8196 0.8219 0.8244 0.8265 0.8285
3056.392826 0.8290 0.8290 0.8298 0.8308 0.8314
3060.798121 0.8319 0.8320 0.8320 0.8324 0.8329
3065.203415 0.8330 0.8330 0.8330 0.8330 0.8338
3069.608709 0.8348 0.8350 0.8350 0.8350 0.8350
3074.014003 0.8350 0.8350 0.8354 0.8359 0.8360
3078.419297 0.8360 0.8364 0.8369 0.8370 0.8370
3082.824592 0.8379 0.8389 0.8390 0.8390 0.8394
3087.229886 0.8399 0.8400 0.8400 0.8409 0.8419
3091.635180 0.8420 0.8420 0.8420 0.8420 0.8420
3096.040474 0.8420 0.8425 0.8430 0.8430 0.8430
3100.445769 0.8430 0.8430 0.8430 0.8430 0.8430
3104.851063 0.8430 0.8430 0.8430 0.8430 0.8430
3109.256357 0.8430 0.8430 0.8430 0.8430 0.8430
3113.661651 0.8430 0.8430 0.8430 0.8430 0.8430
3118.066945 0.8430 0.8430 0.8430 0.8430 0.8430
3122.472240 0.8430 0.8430 0.8430 0.8430 0.8430
3126.877534 0.8430 0.8430 0.8430 0.8430 0.8430
3131.282828 0.8430 0.8430 0.8430 0.8425 0.8420
3135.688122 0.8420 0.8420 0.8420 0.8419 0.8409
3140.093416 0.8400 0.8400 0.8400 0.8395 0.8390
3144.498711 0.8390 0.8390 0.8390 0.8389 0.8379
3148.904005 0.8370 0.8370 0.8370 0.8370 0.8369
3153.309299 0.8364 0.8359 0.8354 0.8350 0.8350
3157.714593 0.8350 0.8350 0.8349 0.8339 0.8330
3162.119888 0.8330 0.8329 0.8324 0.8320 0.8320
3166.525182 0.8320 0.8320 0.8319 0.8314 0.8308
3170.930476 0.8298 0.8290 0.8290 0.8289 0.8284
3175.335770 0.8278 0.8268 0.8259 0.8254 0.8249
3179.741064 0.8244 0.8240 0.8240 0.8238 0.8228
3184.146359 0.8219 0.8214 0.8209 0.8204 0.8198
3188.551653 0.8188 0.8176 0.8161 0.8150 0.8150
3192.956947 0.8149 0.8144 0.8140 0.8140 0.8139
3197.362241 0.8134 0.8127 0.8117 0.8110 0.8110
3201.767536 0.8109 0.8104 0.8100 0.8100 0.8096
3206.172830 0.8080 0.8068 0.8063 0.8060 0.8060
3210.578124 0.8057 0.8047 0.8040 0.8040 0.8038
3214.983418 0.8033 0.8028 0.8023 0.8020 0.8020
3219.388712 0.8016 0.8006 0.7998 0.7993 0.7990
3223.794007 0.7990 0.7988 0.7983 0.7976 0.7966
3228.199301 0.7958 0.7953 0.7946 0.7936 0.7930
3232.604595 0.7930 0.7928 0.7923 0.7918 0.7913
3237.009889 0.7910 0.7910 0.7906 0.7896 0.7888
3241.415184 0.7883 0.7880 0.7880 0.7878 0.7873
3245.820478 0.7870 0.7870 0.7865 0.7855 0.7848
3250.225772 0.7843 0.7840 0.7840 0.7835 0.7825
3254.631066 0.7818 0.7813 0.7808 0.7803 0.7800
3259.036360 0.7800 0.7795 0.7785 0.7780 0.7780
3263.441655 0.7777 0.7772 0.7770 0.7770 0.7767
3267.846949 0.7762 0.7760 0.7760 0.7760 0.7760
3272.252243 0.7755 0.7745 0.7740 0.7740 0.7737
3276.657537 0.7732 0.7730 0.7730 0.7730 0.7730
3281.062832 0.7724 0.7714 0.7710 0.7710 0.7710
3285.468126 0.7710 0.7710 0.7710 0.7707 0.7702
3289.873420 0.7700 0.7700 0.7700 0.7700 0.7700
3294.278714 0.7700 0.7700 0.7700 0.7700 0.7700
3298.684008 0.7703 0.7708 0.7710 0.7710 0.7710
3303.089303 0.7710 0.7717 0.7727 0.7730 0.7730
3307.494597 0.7730 0.7730 0.7733 0.7738 0.7740
3311.899891 0.7740 0.7747 0.7757 0.7760 0.7760
3316.305185 0.7760 0.7760 0.7760 0.7760 0.7764
3320.710480 0.7769 0.7774 0.7779 0.7787 0.7797
3325.115774 0.7800 0.7800 0.7804 0.7809 0.7814
3329.521068 0.7819 0.7820 0.7820 0.7827 0.7838
3333.926362 0.7844 0.7849 0.7858 0.7868 0.7874
3338.331656 0.7879 0.7884 0.7889 0.7898 0.7908
3342.736951 0.7914 0.7919 0.7924 0.7929 0.7930
3347.142245 0.7930 0.7938 0.7948 0.7950 0.7950
3351.547539 0.7950 0.7950 0.7950 0.7950 0.7950
3355.952833 0.7950 0.7950 0.7950 0.7950 0.7950
3360.358128 0.7950 0.7950 0.7950 0.7950 0.7950
3364.763422 0.7950 0.7950 0.7950 0.7941 0.7931
3369.168716 0.7930 0.7930 0.7925 0.7920 0.7906
3373.574010 0.7891 0.7885 0.7880 0.7875 0.7870
3377.979304 0.7861 0.7851 0.7850 0.7850 0.7845
3382.384599 0.7840 0.7845 0.7850 0.7845 0.7840
3386.789893 0.7840 0.7840 0.7840 0.7840 0.7855
3391.195187 0.7870 0.7889 0.7910 0.7934 0.7960
3395.600481 0.7970 0.7980 0.7990 0.8000 0.8035
3400.005775 0.8070 0.8085 0.8100 0.8105 0.8110
3404.411070 0.8130 0.8150 0.8165 0.8180 0.8190
3408.816364 0.8201 0.8221 0.8241 0.8276 0.8310
3413.221658 0.8315 0.8320 0.8325 0.8331 0.8341
3417.626952 0.8350 0.8355 0.8360 0.8365 0.8371
3422.032247 0.8381 0.8390 0.8395 0.8401 0.8416
3426.437541 0.8430 0.8430 0.8430 0.8436 0.8441
3430.842835 0.8451 0.8461 0.8466 0.8471 0.8476
3435.248129 0.8481 0.8491 0.8500 0.8500 0.8500
3439.653423 0.8500 0.8501 0.8506 0.8510 0.8510
3444.058718 0.8512 0.8522 0.8530 0.8530 0.8530
3448.464012 0.8530 0.8531 0.8536 0.8541 0.8546
3452.869306 0.8552 0.8562 0.8571 0.8576 0.8581
3457.274600 0.8586 0.8590 0.8590 0.8592 0.8602
3461.679895 0.8610 0.8610 0.8610 0.8610 0.8610
3466.085189 0.8610 0.8610 0.8610 0.8611 0.8616
3470.490483 0.8622 0.8632 0.8642 0.8653 0.8660
3474.895777 0.8660 0.8663 0.8673 0.8680 0.8680
3479.301071 0.8681 0.8686 0.8690 0.8690 0.8691
3483.706366 0.8696 0.8700 0.8700 0.8700 0.8700
3488.111660 0.8703 0.8713 0.8722 0.8727 0.8733
3492.516954 0.8743 0.8752 0.8757 0.8762 0.8767
3496.922248 0.8773 0.8784 0.8792 0.8797 0.8802
3501.327543 0.8807 0.8814 0.8824 0.8832 0.8837
3505.732837 0.8842 0.8847 0.8859 0.8884 0.8902
3510.138131 0.8907 0.8910 0.8910 0.8912 0.8917
3514.543425 0.8920 0.8920 0.8924 0.8934 0.8944
3518.948719 0.8954 0.8960 0.8960 0.8975 0.9010
3523.354014 0.9039 0.9059 0.9070 0.9070 0.9074
3527.759308 0.9085 0.9092 0.9097 0.9105 0.9115
3532.164602 0.9122 0.9127 0.9132 0.9137 0.9140
3536.569896 0.9140 0.9145 0.9155 0.9162 0.9167
3540.975191 0.9177 0.9192 0.9213 0.9238 0.9258
3545.380485 0.9273 0.9280 0.9280 0.9288 0.9303
3549.785779 0.9313 0.9318 0.9325 0.9335 0.9345
3554.191073 0.9355 0.9365 0.9376 0.9383 0.9388
3558.596367 0.9393 0.9398 0.9400 0.9400 0.9406
3563.001662 0.9416 0.9420 0.9420 0.9423 0.9428
3567.406956 0.9436 0.9446 0.9453 0.9458 0.9460
3571.812250 0.9460 0.9463 0.9468 0.9470 0.9470
3576.217544 0.9476 0.9486 0.9493 0.9498 0.9500
3580.622839 0.9500 0.9503 0.9508 0.9510 0.9510
3585.028133 0.9517 0.9527 0.9530 0.9530 0.9533
3589.433427 0.9538 0.9540 0.9540 0.9540 0.9540
3593.838721 0.9540 0.9540 0.9540 0.9540 0.9540
3598.244015 0.9540 0.9540 0.9540 0.9540 0.9540
3602.649310 0.9540 0.9540 0.9540 0.9540 0.9540
3607.054604 0.9540 0.9540 0.9540 0.9536 0.9531
3611.459898 0.9523 0.9513 0.9506 0.9501 0.9496
3615.865192 0.9491 0.9478 0.9463 0.9448 0.9433
3620.270486 0.9410 0.9385 0.9368 0.9353 0.9338
3624.675781 0.9323 0.9308 0.9293 0.9274 0.9254
3629.081075 0.9242 0.9232 0.9230 0.9230 0.9230
3633.486369 0.9230 0.9234 0.9239 0.9253 0.9268
3637.891663 0.9287 0.9307 0.9314 0.9319 0.9350
3642.296958 0.9385 0.9420 0.9455 0.9477 0.9497
3646.702252 0.9513 0.9528 0.9534 0.9539 0.9540
3651.107546 0.9540 0.9549 0.9559 0.9560 0.9560
3655.512840 0.9560 0.9560 0.9565 0.9570 0.9570
3659.918134 0.9570 0.9570 0.9570 0.9570 0.9570
3664.323429 0.9570 0.9570 0.9570 0.9570 0.9565
3668.728723 0.9560 0.9560 0.9560 0.9536 0.9511
3673.134017 0.9500 0.9490 0.9480 0.9470 0.9470
3677.539311 0.9470 0.9470 0.9470 0.9470 0.9470
3681.944606 0.9480 0.9490 0.9490 0.9490 0.9495
3686.349900 0.9500 0.9500 0.9500 0.9500 0.9500
3690.755194 0.9505 0.9510 0.9520 0.9530 0.9535
3695.160488 0.9541 0.9551 0.9560 0.9560 0.9561
3699.565782 0.9571 0.9581 0.9591 0.9601 0.9611
3703.971077 0.9621 0.9631 0.9640 0.9645 0.9650
3708.376371 0.9650 0.9650 0.9650 0.9651 0.9661
3712.781665 0.9669 0.9659 0.9651 0.9661 0.9670
3717.186959 0.9670 0.9671 0.9676 0.9680 0.9680
3721.592254 0.9681 0.9686 0.9692 0.9702 0.9710
3725.997548 0.9710 0.9711 0.9716 0.9720 0.9720
3730.402842 0.9721 0.9726 0.9730 0.9730 0.9732
3734.808136 0.9742 0.9750 0.9750 0.9750 0.9750
3739.213430 0.9751 0.9756 0.9760 0.9760 0.9760
3743.618725 0.9760 0.9762 0.9772 0.9780 0.9780
3748.024019 0.9781 0.9786 0.9790 0.9790 0.9790
3752.429313 0.9790 0.9790 0.9790 0.9790 0.9790
3756.834607 0.9790 0.9790 0.9790 0.9790 0.9790
3761.239902 0.9790 0.9790 0.9790 0.9790 0.9790
3765.645196 0.9790 0.9790 0.9790 0.9790 0.9790
3770.050490 0.9790 0.9790 0.9790 0.9790 0.9790
3774.455784 0.9792 0.9797 0.9800 0.9800 0.9800
3778.861078 0.9800 0.9804 0.9814 0.9820 0.9820
3783.266373 0.9820 0.9820 0.9820 0.9820 0.9820
3787.671667 0.9820 0.9820 0.9820 0.9820 0.9820
3792.076961 0.9820 0.9820 0.9820 0.9820 0.9820
3796.482255 0.9820 0.9820 0.9820 0.9820 0.9820
3800.887550 0.9820 0.9820 0.9820 0.9820 0.9820
3805.292844 0.9820 0.9820 0.9820 0.9820 0.9820
3809.698138 0.9820 0.9820
##END=
