##TITLE=1,3-DIMETHYL-1,3-DIPHENYLDISILOXANEDIOL
##JCAMP-DX=4.24
##DATA TYPE=INFRARED SPECTRUM
##CLASS=COBLENTZ III
##ORIGIN=DOW CORNING CORP.
##OWNER=COBLENTZ SOCIETY
Collection (C) 2018 copyright by the U.S. Secretary of Commerce
on behalf of the United States of America. All rights reserved.
##DATE=1967/02/22
##NAMES=1,3-dimethyl-1,3-diphenyldisiloxane-1,3-diol
##CAS REGISTRY NO=3089-06-3
##MOLFORM=C14 H18 O3 Si2
##MP=111 C
##SOURCE REFERENCE=COBLENTZ NO. 6223
##$NIST SOURCE=COBLENTZ
##$NIST IMAGE=cob6223
##SPECTROMETER/DATA SYSTEM=PERKIN-ELMER 521 (GRATING)
##INSTRUMENT PARAMETERS=FILTERS AT 3150, 2500, 2000, 1150, 700, 410. GRATING CHANGES: 2000, 630 CM^-^1
##STATE=SOLID (SPLIT MULL)
##SAMPLING PROCEDURE=TRANSMISSION
##RESOLUTION=2
##DATA PROCESSING=DIGITIZED BY NIST FROM HARD COPY (FROM TWO SEGMENTS)
##XUNITS=1/CM
##YUNITS=TRANSMITTANCE
##XFACTOR=1.000000
##YFACTOR=1
##DELTAX=0.919012
##FIRSTX=252.958
##LASTX=3805.86
##FIRSTY=0.798
##MAXX=3805.86
##MINX=252.958
##MAXY=0.944991
##MINY=0.051
##NPOINTS=3867
##XYDATA=(X++(Y..Y))
252.958000 0.7980 0.7980 0.7990 0.7990 0.7990
257.553062 0.7990 0.8000 0.8000 0.8010 0.8010
262.148124 0.8030 0.8030 0.8040 0.8040 0.8050
266.743185 0.8050 0.8050 0.8050 0.8050 0.8050
271.338247 0.8050 0.8050 0.8050 0.8050 0.8050
275.933309 0.8060 0.8060 0.8060 0.8060 0.8060
280.528371 0.8060 0.8060 0.8060 0.8060 0.8060
285.123433 0.8060 0.8060 0.8060 0.8060 0.8050
289.718494 0.8050 0.8050 0.8040 0.8040 0.8040
294.313556 0.8030 0.8010 0.8010 0.8000 0.8000
298.908618 0.7990 0.7990 0.7990 0.7990 0.7990
303.503680 0.7990 0.8000 0.8000 0.8010 0.8010
308.098742 0.8010 0.8000 0.8000 0.7990 0.7990
312.693803 0.7980 0.7980 0.7970 0.7970 0.7950
317.288865 0.7950 0.7940 0.7940 0.7940 0.7940
321.883927 0.7940 0.7950 0.7950 0.7970 0.7970
326.478989 0.7980 0.7980 0.7990 0.7990 0.7990
331.074051 0.8000 0.8000 0.8010 0.8010 0.8030
335.669112 0.8040 0.8050 0.8060 0.8080 0.8090
340.264174 0.8090 0.8100 0.8110 0.8110 0.8090
344.859236 0.8060 0.8000 0.7970 0.7900 0.7850
349.454298 0.7840 0.7840 0.7870 0.7880 0.7900
354.049360 0.7940 0.7940 0.7980 0.7990 0.8000
358.644421 0.8040 0.8060 0.8100 0.8100 0.8110
363.239483 0.8110 0.8110 0.8110 0.8100 0.8090
367.834545 0.8090 0.8060 0.8050 0.8040 0.8000
372.429607 0.7880 0.7730 0.7580 0.7291 0.7230
377.024669 0.7180 0.7080 0.7070 0.7080 0.7110
381.619730 0.7130 0.7210 0.7370 0.7580 0.7590
386.214792 0.7600 0.7620 0.7680 0.7740 0.7740
390.809854 0.7520 0.7400 0.7310 0.7190 0.7190
395.404916 0.7220 0.7370 0.7519 0.7639 0.7680
399.999978 0.7820 0.7940 0.7970 0.7940 0.7800
404.595039 0.7601 0.7381 0.7131 0.6891 0.6661
409.190101 0.6000 0.5710 0.5440 0.5160 0.5160
413.785163 0.5260 0.5370 0.5460 0.5639 0.5640
418.380225 0.5410 0.5100 0.4790 0.4480 0.4171
422.975287 0.3761 0.3541 0.3540 0.3719 0.3810
427.570348 0.3840 0.3860 0.3880 0.3940 0.4000
432.165410 0.4249 0.4489 0.4829 0.5189 0.5568
436.760472 0.5950 0.6320 0.6660 0.6960 0.7180
441.355534 0.7310 0.7320 0.7320 0.7310 0.7310
445.950596 0.7220 0.7110 0.6940 0.6840 0.6710
450.545657 0.6570 0.6431 0.6301 0.6171 0.6150
455.140719 0.6170 0.6270 0.6450 0.6460 0.6809
459.735781 0.7209 0.7529 0.7689 0.7819 0.8029
464.330843 0.8030 0.8010 0.8000 0.7980 0.7970
468.925905 0.7850 0.7750 0.7601 0.7401 0.7171
473.520966 0.6710 0.5541 0.5001 0.3992 0.3541
478.116028 0.3101 0.2651 0.2202 0.1752 0.1750
482.711090 0.2100 0.2350 0.2929 0.3529 0.3819
487.306152 0.4548 0.5328 0.5888 0.6368 0.6778
491.901214 0.7130 0.7430 0.7670 0.7870 0.8010
496.496275 0.8140 0.8240 0.8300 0.8350 0.8430
501.091337 0.8500 0.8550 0.8590 0.8630 0.8650
505.686399 0.8670 0.8700 0.8700 0.8710 0.8710
510.281461 0.8710 0.8720 0.8720 0.8720 0.8720
514.876523 0.8720 0.8720 0.8720 0.8740 0.8740
519.471584 0.8740 0.8740 0.8740 0.8720 0.8740
524.066646 0.8740 0.8750 0.8750 0.8760 0.8760
528.661708 0.8770 0.8770 0.8770 0.8790 0.8790
533.256770 0.8790 0.8790 0.8790 0.8790 0.8790
537.851832 0.8790 0.8790 0.8790 0.8790 0.8790
542.446893 0.8790 0.8790 0.8790 0.8790 0.8770
547.041955 0.8770 0.8770 0.8770 0.8760 0.8760
551.637017 0.8750 0.8750 0.8750 0.8750 0.8740
556.232079 0.8740 0.8740 0.8740 0.8720 0.8720
560.827140 0.8720 0.8710 0.8710 0.8700 0.8700
565.422202 0.8700 0.8700 0.8700 0.8700 0.8700
570.017264 0.8700 0.8700 0.8700 0.8690 0.8670
574.612326 0.8670 0.8660 0.8650 0.8640 0.8630
579.207388 0.8610 0.8590 0.8580 0.8580 0.8560
583.802449 0.8560 0.8550 0.8550 0.8540 0.8530
588.397511 0.8530 0.8510 0.8510 0.8500 0.8490
592.992573 0.8480 0.8460 0.8450 0.8440 0.8430
597.587635 0.8430 0.8410 0.8400 0.8390 0.8380
602.182697 0.8380 0.8360 0.8350 0.8330 0.8310
606.777758 0.8300 0.8280 0.8240 0.8041 0.7990
611.372820 0.7940 0.7880 0.7850 0.7850 0.7900
615.967882 0.8099 0.8100 0.7990 0.7920 0.7850
620.562944 0.7790 0.7740 0.7740 0.7840 0.7840
625.158006 0.7830 0.7820 0.7790 0.7790 0.7780
629.753067 0.7770 0.7750 0.7740 0.7740 0.7740
634.348129 0.7740 0.7740 0.7740 0.7730 0.7720
638.943191 0.7700 0.7690 0.7700 0.7690 0.7680
643.538253 0.7670 0.7670 0.7650 0.7650 0.7640
648.133315 0.7650 0.7650 0.7650 0.7640 0.7630
652.728376 0.7590 0.7570 0.7530 0.7490 0.7470
657.323438 0.7430 0.7400 0.7400 0.7380 0.7330
661.918500 0.7280 0.7220 0.7170 0.7130 0.7011
666.513562 0.6880 0.6820 0.6770 0.6660 0.6560
671.108624 0.6480 0.6081 0.5651 0.5281 0.5101
675.703685 0.4950 0.4790 0.4630 0.4630 0.5089
680.298747 0.5289 0.5340 0.6157 0.6230 0.6260
684.893809 0.6230 0.6230 0.6210 0.6180 0.6150
689.488871 0.6030 0.5562 0.4664 0.4491 0.4072
694.083933 0.3510 0.3160 0.2661 0.2101 0.1611
698.678994 0.1131 0.1130 0.1588 0.2008 0.2418
703.274056 0.2770 0.3120 0.3470 0.3819 0.3930
707.869118 0.4030 0.4100 0.4100 0.4090 0.4040
712.464180 0.3810 0.3530 0.3220 0.2461 0.2161
717.059242 0.1841 0.1511 0.1241 0.0951 0.0930
721.654303 0.1070 0.1200 0.1340 0.1460 0.1550
726.249365 0.1550 0.1530 0.1510 0.1490 0.1490
730.844427 0.1600 0.2520 0.2700 0.2710 0.2680
735.439489 0.2590 0.2261 0.2250 0.2270 0.2389
740.034551 0.2560 0.2680 0.2700 0.2350 0.2150
744.629612 0.1950 0.1760 0.1561 0.1540 0.1560
749.224674 0.1930 0.2290 0.2649 0.3009 0.3329
753.819736 0.3360 0.3420 0.3420 0.3430 0.3430
758.414798 0.3430 0.3420 0.3420 0.3390 0.3390
763.009860 0.3360 0.3320 0.3230 0.3111 0.3011
767.604921 0.2850 0.2590 0.2360 0.2200 0.2070
772.199983 0.2000 0.1950 0.1930 0.1830 0.1651
776.795045 0.1590 0.1430 0.1170 0.1050 0.0930
781.390107 0.0900 0.0920 0.0940 0.0990 0.1000
785.985169 0.1000 0.1000 0.1020 0.1100 0.1190
790.580230 0.1689 0.2169 0.2469 0.2878 0.3228
795.175292 0.3460 0.3590 0.3610 0.4019 0.4429
799.770354 0.4500 0.4550 0.4550 0.4540 0.4470
804.365416 0.4390 0.4320 0.3970 0.3441 0.3170
808.960478 0.3160 0.3180 0.3539 0.3660 0.3809
813.555539 0.3990 0.4200 0.4440 0.4690 0.4940
818.150601 0.5140 0.5290 0.5300 0.5439 0.5460
822.745663 0.5470 0.5470 0.5490 0.5460 0.5450
827.340725 0.5390 0.5340 0.5340 0.5091 0.4851
831.935787 0.4650 0.4480 0.4330 0.4200 0.4100
836.530848 0.4020 0.3970 0.3920 0.3890 0.3412
841.125910 0.3210 0.3120 0.2930 0.2451 0.2340
845.720972 0.2190 0.2050 0.1901 0.1761 0.1611
850.316034 0.1490 0.1490 0.1740 0.1750 0.1900
854.911096 0.1960 0.1980 0.2020 0.2110 0.2110
859.506157 0.2090 0.1740 0.1400 0.1190 0.1130
864.101219 0.1050 0.1020 0.0970 0.0890 0.0800
868.696281 0.0730 0.0640 0.0620 0.0630 0.0680
873.291343 0.0730 0.0780 0.0939 0.1289 0.1380
877.886405 0.1450 0.1550 0.1680 0.1660 0.1630
882.481466 0.1530 0.1440 0.1231 0.0991 0.0990
887.076528 0.0980 0.0930 0.0780 0.0750 0.0780
891.671590 0.1139 0.1150 0.1180 0.1190 0.1200
896.266652 0.1220 0.1230 0.1240 0.1250 0.1280
900.861714 0.1340 0.1440 0.1530 0.1630 0.1759
905.456775 0.2120 0.2520 0.2770 0.3249 0.3340
910.051837 0.3360 0.3380 0.3410 0.3410 0.3410
914.646899 0.3420 0.3460 0.3610 0.3820 0.3910
919.241961 0.3960 0.4119 0.4439 0.4619 0.4889
923.837023 0.5140 0.5340 0.5520 0.5670 0.5810
928.432084 0.5920 0.6030 0.6150 0.6250 0.6280
933.027146 0.6320 0.6360 0.6400 0.6430 0.6470
937.622208 0.6500 0.6530 0.6550 0.6550 0.6560
942.217270 0.6560 0.6560 0.6560 0.6560 0.6560
946.812332 0.6560 0.6560 0.6550 0.6550 0.6510
951.407393 0.6470 0.6460 0.6450 0.6430 0.6430
956.002455 0.6420 0.6400 0.6380 0.6360 0.6350
960.597517 0.6310 0.6260 0.6220 0.6210 0.6160
965.192579 0.6120 0.6070 0.6050 0.6030 0.6020
969.787641 0.6020 0.6030 0.6030 0.6030 0.6030
974.382702 0.6030 0.6020 0.6020 0.6010 0.6000
978.977764 0.5960 0.5910 0.5840 0.5720 0.5650
983.572826 0.5600 0.5550 0.5500 0.5410 0.5261
988.167888 0.5240 0.5210 0.5190 0.5160 0.4980
992.762950 0.4571 0.4221 0.3881 0.3541 0.3520
997.358011 0.2670 0.2670 0.5107 0.5130 0.5080
1001.953073 0.5040 0.4960 0.4850 0.4760 0.4660
1006.548135 0.4580 0.4580 0.4450 0.4320 0.4190
1011.143197 0.4090 0.3990 0.3920 0.3830 0.3730
1015.738259 0.3640 0.3530 0.3390 0.3250 0.3070
1020.333320 0.2860 0.2611 0.2311 0.2171 0.1961
1024.928382 0.1750 0.1540 0.1330 0.1330 0.1839
1029.523444 0.2249 0.2370 0.2719 0.2730 0.2710
1034.118506 0.2610 0.2490 0.2300 0.1880 0.1551
1038.713568 0.1301 0.1120 0.1000 0.0970 0.0930
1043.308629 0.0880 0.0850 0.0840 0.0840 0.0830
1047.903691 0.0830 0.0820 0.0800 0.0770 0.0740
1052.498753 0.0730 0.0700 0.0690 0.0680 0.0670
1057.093815 0.0660 0.0640 0.0630 0.0630 0.0620
1061.688877 0.0610 0.0610 0.0610 0.0610 0.0610
1066.283938 0.0620 0.0630 0.0640 0.0680 0.0700
1070.879000 0.0730 0.0730 0.0750 0.0750 0.0750
1075.474062 0.0740 0.0730 0.0690 0.0670 0.0630
1080.069124 0.0610 0.0580 0.0560 0.0540 0.0530
1084.664186 0.0530 0.0530 0.0540 0.0580 0.0610
1089.259247 0.0620 0.0660 0.0780 0.0920 0.1030
1093.854309 0.1130 0.1240 0.1360 0.1499 0.1629
1098.449371 0.1740 0.1840 0.1890 0.1910 0.2000
1103.044433 0.2120 0.2140 0.2140 0.2140 0.2120
1107.639495 0.2100 0.2060 0.2020 0.2000 0.1940
1112.234556 0.1860 0.1740 0.1590 0.1401 0.1181
1116.829618 0.1070 0.0940 0.0660 0.0540 0.0520
1121.424680 0.0510 0.0510 0.0530 0.0560 0.0610
1126.019742 0.0690 0.1000 0.1100 0.1459 0.1739
1130.614803 0.1929 0.2319 0.2420 0.2569 0.2769
1135.209865 0.3020 0.3260 0.3470 0.3670 0.3860
1139.804927 0.4030 0.4179 0.4319 0.4430 0.4530
1144.399989 0.4600 0.4660 0.4690 0.4740 0.4750
1148.995051 0.4840 0.4930 0.4980 0.5010 0.5030
1153.590112 0.5040 0.5050 0.5090 0.5160 0.5250
1158.185174 0.5360 0.5460 0.5520 0.5610 0.5620
1162.780236 0.5640 0.5650 0.5690 0.5710 0.5750
1167.375298 0.5790 0.5850 0.5890 0.5940 0.5950
1171.970360 0.5960 0.5990 0.5990 0.6000 0.6020
1176.565421 0.6050 0.6060 0.6060 0.6070 0.6080
1181.160483 0.6080 0.6070 0.6060 0.6050 0.6030
1185.755545 0.6020 0.6010 0.6010 0.6010 0.6020
1190.350607 0.6080 0.6110 0.6180 0.6200 0.6200
1194.945669 0.6200 0.6210 0.6210 0.6210 0.6210
1199.540730 0.6210 0.6210 0.6210 0.6220 0.6220
1204.135792 0.6230 0.6230 0.6250 0.6270 0.6280
1208.730854 0.6310 0.6310 0.6320 0.6360 0.6380
1213.325916 0.6410 0.6410 0.6450 0.6460 0.6480
1217.920978 0.6500 0.6520 0.6530 0.6530 0.6550
1222.516039 0.6550 0.6550 0.6530 0.6530 0.6530
1227.111101 0.6520 0.6520 0.6520 0.6510 0.6500
1231.706163 0.6500 0.6480 0.6470 0.6470 0.6420
1236.301225 0.6380 0.6360 0.6320 0.6260 0.6170
1240.896287 0.6110 0.6050 0.5960 0.5840 0.5621
1245.491348 0.5340 0.4910 0.4350 0.4070 0.4040
1250.086410 0.4020 0.3711 0.3391 0.3071 0.2761
1254.681472 0.2450 0.2170 0.2150 0.2150 0.2350
1259.276534 0.2560 0.2819 0.3269 0.3300 0.3320
1263.871596 0.3330 0.3340 0.3370 0.3460 0.3490
1268.466657 0.3540 0.3859 0.5156 0.5339 0.5599
1273.061719 0.5750 0.5820 0.5870 0.5900 0.5920
1277.656781 0.5950 0.5970 0.6000 0.6010 0.6020
1282.251843 0.6020 0.6030 0.6030 0.6030 0.6030
1286.846905 0.6030 0.6010 0.6000 0.5970 0.5950
1291.441966 0.5920 0.5900 0.5870 0.5850 0.5820
1296.037028 0.5800 0.5770 0.5740 0.5720 0.5710
1300.632090 0.5710 0.5710 0.5720 0.5720 0.5740
1305.227152 0.5750 0.5750 0.5770 0.5800 0.6566
1309.822214 0.6940 0.6970 0.7030 0.7070 0.7080
1314.417275 0.7110 0.7120 0.7120 0.7110 0.7090
1319.012337 0.7070 0.7060 0.7030 0.7020 0.7010
1323.607399 0.7010 0.7040 0.7060 0.7209 0.7399
1328.202461 0.7520 0.7590 0.7670 0.7700 0.7720
1332.797523 0.7730 0.7770 0.7780 0.7790 0.7800
1337.392584 0.7820 0.7830 0.7830 0.7840 0.7840
1341.987646 0.7840 0.7840 0.7840 0.7840 0.7840
1346.582708 0.7840 0.7840 0.7840 0.7840 0.7840
1351.177770 0.7840 0.7830 0.7830 0.7820 0.7820
1355.772832 0.7820 0.7800 0.7790 0.7790 0.7790
1360.367893 0.7790 0.7780 0.7770 0.7780 0.7770
1364.962955 0.7770 0.7750 0.7730 0.7700 0.7680
1369.558017 0.7640 0.7620 0.7590 0.7570 0.7550
1374.153079 0.7550 0.7550 0.7570 0.7600 0.7620
1378.748141 0.7630 0.7640 0.7670 0.7690 0.7720
1383.343202 0.7740 0.7750 0.7770 0.7770 0.7770
1387.938264 0.7770 0.7750 0.7740 0.7720 0.7690
1392.533326 0.7650 0.7620 0.7570 0.7520 0.7450
1397.128388 0.7390 0.7320 0.7061 0.6761 0.6660
1401.723450 0.6560 0.6470 0.6370 0.6270 0.6170
1406.318511 0.6150 0.6160 0.6220 0.6270 0.6399
1410.913573 0.6520 0.6770 0.6940 0.6980 0.6990
1415.508635 0.7010 0.6990 0.6970 0.6890 0.6810
1420.103697 0.6790 0.6760 0.6580 0.6420 0.6270
1424.698759 0.6110 0.5721 0.3975 0.3173 0.2393
1429.293820 0.1600 0.1601 0.5449 0.5460 0.7917
1433.888882 0.7990 0.8060 0.8140 0.8250 0.8380
1438.483944 0.8380 0.8390 0.8390 0.8400 0.8410
1443.079006 0.8410 0.8410 0.8410 0.8410 0.8410
1447.674068 0.8430 0.8430 0.8440 0.8440 0.8450
1452.269129 0.8450 0.8460 0.8460 0.8480 0.8480
1456.864191 0.8490 0.8490 0.8500 0.8500 0.8510
1461.459253 0.8530 0.8530 0.8530 0.8540 0.8540
1466.054315 0.8550 0.8550 0.8560 0.8580 0.8590
1470.649377 0.8610 0.8630 0.8640 0.8650 0.8650
1475.244438 0.8660 0.8660 0.8660 0.8660 0.8660
1479.839500 0.8580 0.8480 0.8440 0.8340 0.8141
1484.434562 0.7900 0.7680 0.7450 0.7230 0.7230
1489.029624 0.7679 0.8109 0.8529 0.8719 0.8810
1493.624686 0.8840 0.8840 0.8860 0.8870 0.8890
1498.219747 0.8900 0.8910 0.8920 0.8940 0.8950
1502.814809 0.8960 0.8960 0.8960 0.8970 0.8970
1507.409871 0.8990 0.8990 0.9000 0.9000 0.9000
1512.004933 0.9010 0.9010 0.9010 0.9010 0.9020
1516.599995 0.9020 0.9020 0.9020 0.9040 0.9040
1521.195056 0.9040 0.9040 0.9040 0.9040 0.9040
1525.790118 0.9040 0.9040 0.9040 0.9040 0.9040
1530.385180 0.9040 0.9040 0.9040 0.9040 0.9040
1534.980242 0.9040 0.9050 0.9050 0.9050 0.9050
1539.575304 0.9040 0.9040 0.9040 0.9020 0.9020
1544.170365 0.9010 0.9010 0.9010 0.9000 0.9000
1548.765427 0.9000 0.9000 0.9000 0.9000 0.9010
1553.360489 0.9010 0.9010 0.9010 0.9020 0.9020
1557.955551 0.9020 0.9040 0.9040 0.9020 0.9000
1562.550613 0.8950 0.8910 0.8900 0.8820 0.8800
1567.145674 0.8810 0.8850 0.8950 0.9040 0.9060
1571.740736 0.9070 0.9070 0.9050 0.9000 0.8970
1576.335798 0.8960 0.8910 0.8800 0.8710 0.8660
1580.930860 0.8610 0.8550 0.8460 0.8330 0.8141
1585.525922 0.7870 0.7480 0.6991 0.6511 0.6031
1590.120983 0.6030 0.6568 0.7088 0.7946 0.8288
1594.716045 0.8400 0.8500 0.8610 0.8790 0.8920
1599.311107 0.8960 0.8990 0.8990 0.9000 0.9010
1603.906169 0.9040 0.9040 0.9050 0.9050 0.9060
1608.501231 0.9060 0.9060 0.9060 0.9050 0.9020
1613.096292 0.9010 0.9000 0.9000 0.9000 0.9000
1617.691354 0.9010 0.9020 0.9050 0.9070 0.9070
1622.286416 0.9090 0.9090 0.9090 0.9070 0.9070
1626.881478 0.9060 0.9050 0.9050 0.9040 0.9020
1631.476540 0.9010 0.8990 0.8960 0.8940 0.8910
1636.071601 0.8870 0.8860 0.8860 0.8840 0.8810
1640.666663 0.8750 0.8700 0.8670 0.8660 0.8640
1645.261725 0.8640 0.8630 0.8630 0.8630 0.8640
1649.856787 0.8650 0.8660 0.8670 0.8700 0.8700
1654.451849 0.8710 0.8710 0.8710 0.8710 0.8700
1659.046910 0.8700 0.8700 0.8690 0.8690 0.8690
1663.641972 0.8690 0.8700 0.8710 0.8720 0.8740
1668.237034 0.8760 0.8790 0.8840 0.8890 0.8920
1672.832096 0.8960 0.9000 0.9040 0.9090 0.9120
1677.427158 0.9170 0.9200 0.9220 0.9250 0.9260
1682.022219 0.9270 0.9300 0.9310 0.9320 0.9330
1686.617281 0.9330 0.9330 0.9350 0.9350 0.9360
1691.212343 0.9370 0.9380 0.9400 0.9400 0.9400
1695.807405 0.9380 0.9380 0.9400 0.9400 0.9410
1700.402466 0.9410 0.9420 0.9430 0.9430 0.9450
1704.997528 0.9430 0.9430 0.9420 0.9420 0.9410
1709.592590 0.9410 0.9410 0.9410 0.9410 0.9400
1714.187652 0.9400 0.9380 0.9380 0.9380 0.9400
1718.782714 0.9410 0.9410 0.9410 0.9410 0.9400
1723.377775 0.9400 0.9400 0.9400 0.9400 0.9380
1727.972837 0.9380 0.9380 0.9380 0.9370 0.9330
1732.567899 0.9300 0.9270 0.9270 0.9260 0.9250
1737.162961 0.9250 0.9250 0.9250 0.9250 0.9240
1741.758023 0.9240 0.9240 0.9240 0.9220 0.9220
1746.353084 0.9220 0.9220 0.9210 0.9210 0.9210
1750.948146 0.9200 0.9200 0.9200 0.9200 0.9200
1755.543208 0.9200 0.9200 0.9200 0.9200 0.9200
1760.138270 0.9190 0.9190 0.9190 0.9190 0.9190
1764.733332 0.9170 0.9170 0.9160 0.9160 0.9160
1769.328393 0.9160 0.9150 0.9150 0.9140 0.9120
1773.923455 0.9110 0.9110 0.9120 0.9140 0.9160
1778.518517 0.9170 0.9190 0.9200 0.9210 0.9220
1783.113579 0.9250 0.9260 0.9290 0.9300 0.9310
1787.708641 0.9310 0.9320 0.9330 0.9330 0.9330
1792.303702 0.9330 0.9330 0.9320 0.9320 0.9310
1796.898764 0.9310 0.9310 0.9300 0.9300 0.9300
1801.493826 0.9300 0.9290 0.9290 0.9270 0.9260
1806.088888 0.9250 0.9240 0.9220 0.9210 0.9190
1810.683950 0.9160 0.9140 0.9070 0.9000 0.8920
1815.279011 0.8890 0.8870 0.8870 0.8860 0.8860
1819.874073 0.8860 0.8870 0.8870 0.8870 0.8890
1824.469135 0.8900 0.8910 0.8920 0.8950 0.8990
1829.064197 0.9010 0.9050 0.9060 0.9070 0.9090
1833.659259 0.9100 0.9100 0.9100 0.9110 0.9120
1838.254320 0.9140 0.9140 0.9150 0.9170 0.9200
1842.849382 0.9210 0.9220 0.9250 0.9260 0.9270
1847.444444 0.9270 0.9270 0.9290 0.9270 0.9290
1852.039506 0.9290 0.9300 0.9300 0.9310 0.9310
1856.634568 0.9320 0.9320 0.9320 0.9320 0.9320
1861.229629 0.9320 0.9320 0.9320 0.9320 0.9320
1865.824691 0.9320 0.9310 0.9310 0.9300 0.9290
1870.419753 0.9270 0.9260 0.9250 0.9240 0.9220
1875.014815 0.9210 0.9190 0.9160 0.9140 0.9011
1879.609877 0.8900 0.8870 0.8840 0.8810 0.8810
1884.204938 0.8800 0.8790 0.8790 0.8790 0.8790
1888.800000 0.8800 0.8810 0.8840 0.8840 0.8860
1893.395062 0.8890 0.8900 0.8920 0.8950 0.8960
1897.990124 0.8970 0.8990 0.9000 0.9010 0.9020
1902.585186 0.9040 0.9040 0.9040 0.9040 0.9050
1907.180247 0.9050 0.9060 0.9060 0.9070 0.9090
1911.775309 0.9100 0.9110 0.9120 0.9140 0.9150
1916.370371 0.9160 0.9170 0.9190 0.9200 0.9210
1920.965433 0.9220 0.9240 0.9240 0.9240 0.9250
1925.560495 0.9250 0.9250 0.9250 0.9250 0.9250
1930.155556 0.9240 0.9220 0.9220 0.9220 0.9220
1934.750618 0.9220 0.9220 0.9210 0.9210 0.9210
1939.345680 0.9210 0.9210 0.9200 0.9190 0.9190
1943.940742 0.9170 0.9160 0.9150 0.9140 0.9090
1948.535804 0.9060 0.9060 0.9040 0.8970 0.8841
1953.130865 0.8800 0.8800 0.8770 0.8770 0.8760
1957.725927 0.8750 0.8750 0.8750 0.8760 0.8770
1962.320989 0.8790 0.8810 0.8820 0.8840 0.8850
1966.916051 0.8860 0.8860 0.8870 0.8870 0.8870
1971.511113 0.8870 0.8870 0.8890 0.8890 0.8890
1976.106174 0.8900 0.8910 0.8920 0.8920 0.8940
1980.701236 0.8950 0.8950 0.8970 0.8970 0.8990
1985.296298 0.9000 0.9000 0.9010 0.9020 0.9020
1989.891360 0.9050 0.9070 0.9070 0.9090 0.9090
1994.486422 0.9100 0.9110 0.9120 0.9120 0.9120
1999.081483 0.9120 0.9120 0.9120 0.9120 0.9120
2003.676545 0.9120 0.9120 0.9120 0.9120 0.9120
2008.271607 0.9120 0.9120 0.9120 0.9120 0.9120
2012.866669 0.9120 0.9120 0.9121 0.9131 0.9140
2017.461731 0.9140 0.9140 0.9140 0.9140 0.9140
2022.056792 0.9140 0.9140 0.9140 0.9140 0.9140
2026.651854 0.9140 0.9140 0.9140 0.9140 0.9140
2031.246916 0.9140 0.9140 0.9140 0.9140 0.9140
2035.841978 0.9140 0.9140 0.9140 0.9140 0.9140
2040.437040 0.9140 0.9140 0.9140 0.9140 0.9140
2045.032101 0.9140 0.9140 0.9140 0.9140 0.9140
2049.627163 0.9140 0.9140 0.9140 0.9140 0.9140
2054.222225 0.9140 0.9140 0.9140 0.9140 0.9140
2058.817287 0.9140 0.9140 0.9140 0.9140 0.9134
2063.412349 0.9124 0.9120 0.9120 0.9120 0.9120
2068.007410 0.9120 0.9120 0.9120 0.9120 0.9120
2072.602472 0.9120 0.9120 0.9120 0.9120 0.9120
2077.197534 0.9120 0.9120 0.9120 0.9120 0.9116
2081.792596 0.9111 0.9110 0.9110 0.9110 0.9110
2086.387658 0.9110 0.9110 0.9106 0.9101 0.9100
2090.982719 0.9100 0.9100 0.9100 0.9100 0.9100
2095.577781 0.9100 0.9100 0.9100 0.9100 0.9100
2100.172843 0.9100 0.9100 0.9100 0.9100 0.9100
2104.767905 0.9095 0.9090 0.9090 0.9090 0.9080
2109.362967 0.9070 0.9060 0.9049 0.9034 0.9020
2113.958028 0.9020 0.9021 0.9031 0.9040 0.9040
2118.553090 0.9040 0.9040 0.9041 0.9046 0.9050
2123.148152 0.9050 0.9050 0.9050 0.9049 0.9044
2127.743214 0.9040 0.9040 0.9040 0.9040 0.9040
2132.338276 0.9040 0.9040 0.9040 0.9041 0.9046
2136.933337 0.9050 0.9050 0.9050 0.9050 0.9048
2141.528399 0.9043 0.9040 0.9040 0.9037 0.9026
2146.123461 0.9020 0.9020 0.9014 0.8999 0.8986
2150.718523 0.8976 0.8968 0.8963 0.8958 0.8953
2155.313585 0.8948 0.8943 0.8933 0.8918 0.8905
2159.908646 0.8895 0.8883 0.8868 0.8860 0.8860
2164.503708 0.8857 0.8852 0.8847 0.8842 0.8843
2169.098770 0.8848 0.8847 0.8842 0.8831 0.8816
2173.693832 0.8810 0.8810 0.8807 0.8802 0.8800
2178.288894 0.8800 0.8790 0.8775 0.8770 0.8770
2182.883955 0.8770 0.8770 0.8770 0.8770 0.8766
2187.479017 0.8761 0.8760 0.8760 0.8756 0.8751
2192.074079 0.8750 0.8750 0.8750 0.8750 0.8750
2196.669141 0.8750 0.8746 0.8741 0.8731 0.8721
2201.264203 0.8720 0.8720 0.8715 0.8710 0.8705
2205.859264 0.8700 0.8700 0.8700 0.8695 0.8690
2210.454326 0.8680 0.8670 0.8660 0.8650 0.8650
2215.049388 0.8650 0.8645 0.8640 0.8640 0.8639
2219.644450 0.8624 0.8610 0.8605 0.8600 0.8595
2224.239512 0.8589 0.8573 0.8559 0.8549 0.8540
2228.834573 0.8540 0.8539 0.8534 0.8528 0.8518
2233.429635 0.8509 0.8504 0.8499 0.8494 0.8487
2238.024697 0.8472 0.8460 0.8460 0.8459 0.8454
2242.619759 0.8449 0.8444 0.8436 0.8421 0.8410
2247.214821 0.8410 0.8410 0.8410 0.8408 0.8403
2251.809882 0.8400 0.8400 0.8400 0.8400 0.8398
2256.404944 0.8393 0.8390 0.8390 0.8388 0.8383
2261.000006 0.8380 0.8380 0.8375 0.8365 0.8360
2265.595068 0.8360 0.8360 0.8360 0.8360 0.8360
2270.190129 0.8360 0.8360 0.8360 0.8360 0.8360
2274.785191 0.8360 0.8360 0.8360 0.8360 0.8360
2279.380253 0.8360 0.8360 0.8360 0.8360 0.8360
2283.975315 0.8360 0.8360 0.8360 0.8357 0.8352
2288.570377 0.8350 0.8350 0.8350 0.8350 0.8346
2293.165438 0.8341 0.8340 0.8340 0.8336 0.8331
2297.760500 0.8330 0.8330 0.8322 0.8312 0.8310
2302.355562 0.8310 0.8310 0.8310 0.8310 0.8310
2306.950624 0.8306 0.8301 0.8300 0.8300 0.8300
2311.545686 0.8300 0.8305 0.8310 0.8310 0.8310
2316.140747 0.8310 0.8310 0.8320 0.8330 0.8335
2320.735809 0.8340 0.8345 0.8350 0.8350 0.8350
2325.330871 0.8350 0.8350 0.8355 0.8361 0.8371
2329.925933 0.8380 0.8386 0.8390 0.8390 0.8391
2334.520995 0.8396 0.8401 0.8406 0.8410 0.8410
2339.116056 0.8412 0.8422 0.8432 0.8442 0.8453
2343.711118 0.8468 0.8481 0.8486 0.8492 0.8503
2348.306180 0.8510 0.8510 0.8513 0.8523 0.8531
2352.901242 0.8537 0.8542 0.8547 0.8550 0.8550
2357.496304 0.8552 0.8557 0.8560 0.8560 0.8560
2362.091365 0.8560 0.8564 0.8574 0.8580 0.8580
2366.686427 0.8580 0.8580 0.8580 0.8580 0.8580
2371.281489 0.8580 0.8580 0.8580 0.8580 0.8580
2375.876551 0.8580 0.8580 0.8580 0.8580 0.8580
2380.471613 0.8580 0.8583 0.8588 0.8590 0.8590
2385.066674 0.8593 0.8598 0.8600 0.8600 0.8603
2389.661736 0.8608 0.8610 0.8610 0.8620 0.8635
2394.256798 0.8643 0.8648 0.8654 0.8659 0.8660
2398.851860 0.8660 0.8664 0.8669 0.8670 0.8670
2403.446922 0.8678 0.8688 0.8690 0.8690 0.8694
2408.041983 0.8699 0.8700 0.8700 0.8700 0.8700
2412.637045 0.8700 0.8700 0.8700 0.8700 0.8700
2417.232107 0.8700 0.8700 0.8700 0.8700 0.8700
2421.827169 0.8700 0.8700 0.8700 0.8700 0.8705
2426.422231 0.8710 0.8710 0.8710 0.8710 0.8710
2431.017292 0.8710 0.8710 0.8715 0.8720 0.8720
2435.612354 0.8720 0.8720 0.8720 0.8720 0.8720
2440.207416 0.8720 0.8720 0.8720 0.8720 0.8720
2444.802478 0.8720 0.8720 0.8720 0.8720 0.8720
2449.397540 0.8720 0.8720 0.8720 0.8719 0.8714
2453.992601 0.8711 0.8716 0.8720 0.8720 0.8720
2458.587663 0.8720 0.8723 0.8733 0.8740 0.8740
2463.182725 0.8740 0.8740 0.8742 0.8747 0.8750
2467.777787 0.8750 0.8750 0.8750 0.8750 0.8750
2472.372849 0.8750 0.8750 0.8750 0.8750 0.8752
2476.967910 0.8757 0.8760 0.8760 0.8760 0.8760
2481.562972 0.8760 0.8760 0.8760 0.8760 0.8760
2486.158034 0.8760 0.8760 0.8760 0.8760 0.8760
2490.753096 0.8760 0.8760 0.8760 0.8760 0.8760
2495.348158 0.8760 0.8760 0.8760 0.8760 0.8760
2499.943219 0.8760 0.8760 0.8760 0.8760 0.8760
2504.538281 0.8760 0.8760 0.8760 0.8760 0.8760
2509.133343 0.8760 0.8760 0.8760 0.8760 0.8760
2513.728405 0.8760 0.8760 0.8760 0.8760 0.8760
2518.323467 0.8760 0.8760 0.8760 0.8760 0.8760
2522.918528 0.8760 0.8760 0.8760 0.8760 0.8760
2527.513590 0.8765 0.8770 0.8770 0.8770 0.8770
2532.108652 0.8770 0.8770 0.8770 0.8770 0.8770
2536.703714 0.8770 0.8770 0.8770 0.8770 0.8770
2541.298776 0.8770 0.8770 0.8770 0.8770 0.8770
2545.893837 0.8770 0.8770 0.8770 0.8770 0.8770
2550.488899 0.8770 0.8770 0.8770 0.8770 0.8770
2555.083961 0.8770 0.8770 0.8770 0.8770 0.8770
2559.679023 0.8769 0.8764 0.8760 0.8760 0.8760
2564.274085 0.8760 0.8760 0.8760 0.8760 0.8760
2568.869146 0.8758 0.8753 0.8750 0.8750 0.8750
2573.464208 0.8750 0.8750 0.8750 0.8748 0.8743
2578.059270 0.8740 0.8740 0.8740 0.8740 0.8736
2582.654332 0.8725 0.8720 0.8720 0.8720 0.8720
2587.249394 0.8717 0.8712 0.8710 0.8710 0.8710
2591.844455 0.8710 0.8713 0.8718 0.8714 0.8704
2596.439517 0.8700 0.8700 0.8700 0.8700 0.8700
2601.034579 0.8700 0.8700 0.8700 0.8700 0.8700
2605.629641 0.8700 0.8700 0.8700 0.8700 0.8700
2610.224703 0.8700 0.8700 0.8700 0.8700 0.8700
2614.819764 0.8700 0.8700 0.8700 0.8700 0.8696
2619.414826 0.8691 0.8690 0.8690 0.8690 0.8690
2624.009888 0.8690 0.8690 0.8690 0.8690 0.8681
2628.604950 0.8671 0.8666 0.8660 0.8655 0.8650
2633.200012 0.8645 0.8640 0.8635 0.8630 0.8616
2637.795073 0.8600 0.8590 0.8580 0.8580 0.8580
2642.390135 0.8580 0.8580 0.8570 0.8560 0.8570
2646.985197 0.8579 0.8569 0.8560 0.8560 0.8560
2651.580259 0.8555 0.8550 0.8550 0.8549 0.8544
2656.175321 0.8539 0.8534 0.8530 0.8530 0.8530
2660.770382 0.8530 0.8528 0.8518 0.8510 0.8510
2665.365444 0.8509 0.8504 0.8500 0.8500 0.8499
2669.960506 0.8494 0.8490 0.8490 0.8489 0.8483
2674.555568 0.8477 0.8467 0.8460 0.8460 0.8460
2679.150630 0.8460 0.8458 0.8453 0.8450 0.8450
2683.745691 0.8450 0.8450 0.8446 0.8436 0.8424
2688.340753 0.8408 0.8398 0.8393 0.8383 0.8368
2692.935815 0.8358 0.8352 0.8350 0.8350 0.8345
2697.530877 0.8335 0.8319 0.8299 0.8282 0.8267
2702.125939 0.8257 0.8252 0.8244 0.8234 0.8221
2706.721000 0.8206 0.8200 0.8200 0.8197 0.8192
2711.316062 0.8190 0.8190 0.8190 0.8190 0.8190
2715.911124 0.8190 0.8190 0.8190 0.8190 0.8190
2720.506186 0.8186 0.8181 0.8172 0.8162 0.8160
2725.101248 0.8160 0.8156 0.8151 0.8146 0.8141
2729.696309 0.8127 0.8112 0.8110 0.8110 0.8110
2734.291371 0.8110 0.8110 0.8110 0.8105 0.8100
2738.886433 0.8100 0.8100 0.8095 0.8090 0.8085
2743.481495 0.8080 0.8070 0.8060 0.8060 0.8060
2748.076557 0.8060 0.8060 0.8055 0.8050 0.8045
2752.671618 0.8040 0.8035 0.8029 0.8019 0.8009
2757.266680 0.7999 0.7990 0.7984 0.7978 0.7963
2761.861742 0.7949 0.7944 0.7939 0.7934 0.7927
2766.456804 0.7912 0.7898 0.7888 0.7876 0.7856
2771.051866 0.7839 0.7834 0.7826 0.7811 0.7797
2775.646927 0.7787 0.7776 0.7761 0.7749 0.7744
2780.241989 0.7737 0.7727 0.7717 0.7707 0.7698
2784.837051 0.7693 0.7688 0.7683 0.7678 0.7673
2789.432113 0.7664 0.7649 0.7632 0.7612 0.7596
2794.027175 0.7586 0.7571 0.7551 0.7535 0.7525
2798.622236 0.7513 0.7498 0.7488 0.7482 0.7472
2803.217298 0.7457 0.7447 0.7442 0.7434 0.7424
2807.812360 0.7411 0.7396 0.7384 0.7374 0.7361
2812.407422 0.7346 0.7334 0.7324 0.7311 0.7295
2817.002484 0.7284 0.7273 0.7260 0.7245 0.7237
2821.597545 0.7231 0.7226 0.7221 0.7216 0.7211
2826.192607 0.7210 0.7210 0.7199 0.7184 0.7161
2830.787669 0.7136 0.7126 0.7121 0.7116 0.7111
2835.382731 0.7073 0.7028 0.6995 0.6964 0.6917
2839.977793 0.6866 0.6829 0.6794 0.6786 0.6780
2844.572854 0.6775 0.6770 0.6756 0.6741 0.6731
2849.167916 0.6721 0.6706 0.6691 0.6680 0.6670
2853.762978 0.6650 0.6630 0.6620 0.6610 0.6594
2858.358040 0.6580 0.6569 0.6559 0.6544 0.6529
2862.953101 0.6519 0.6509 0.6494 0.6479 0.6474
2867.548163 0.6469 0.6464 0.6459 0.6454 0.6448
2872.143225 0.6433 0.6417 0.6396 0.6377 0.6362
2876.738287 0.6345 0.6319 0.6294 0.6269 0.6241
2881.333349 0.6206 0.6172 0.6142 0.6110 0.6075
2885.928410 0.6038 0.5998 0.5959 0.5924 0.5887
2890.523472 0.5847 0.5808 0.5772 0.5735 0.5695
2895.118534 0.5656 0.5621 0.5582 0.5536 0.5485
2899.713596 0.5424 0.5383 0.5368 0.5360 0.5360
2904.308658 0.5358 0.5353 0.5348 0.5343 0.5338
2908.903719 0.5332 0.5325 0.5315 0.5302 0.5287
2913.498781 0.5274 0.5264 0.5243 0.5212 0.5185
2918.093843 0.5160 0.5138 0.5118 0.5101 0.5086
2922.688905 0.5067 0.5047 0.5030 0.5015 0.5007
2927.283967 0.5002 0.4997 0.4991 0.4986 0.4981
2931.879028 0.4973 0.4963 0.4956 0.4951 0.4935
2936.474090 0.4915 0.4863 0.4803 0.4738 0.4673
2941.069152 0.4624 0.4578 0.4553 0.4533 0.4450
2945.664214 0.4354 0.4228 0.4095 0.4035 0.3985
2950.259276 0.3907 0.3827 0.3751 0.3675 0.3572
2954.854337 0.3466 0.3422 0.3382 0.3370 0.3360
2959.449399 0.3350 0.3340 0.3360 0.3380 0.3400
2964.044461 0.3420 0.3441 0.3460 0.3460 0.3462
2968.639523 0.3492 0.3523 0.3553 0.3583 0.3608
2973.234585 0.3631 0.3636 0.3642 0.3657 0.3671
2977.829646 0.3682 0.3692 0.3708 0.3721 0.3726
2982.424708 0.3729 0.3724 0.3719 0.3714 0.3704
2987.019770 0.3679 0.3655 0.3635 0.3602 0.3537
2991.614832 0.3487 0.3477 0.3462 0.3437 0.3382
2996.209894 0.3261 0.3145 0.3039 0.2967 0.2956
3000.804955 0.2946 0.2936 0.2928 0.2923 0.2916
3005.400017 0.2906 0.2885 0.2850 0.2814 0.2779
3009.995079 0.2742 0.2701 0.2673 0.2658 0.2640
3014.590141 0.2620 0.2600 0.2580 0.2565 0.2555
3019.185203 0.2547 0.2542 0.2534 0.2524 0.2526
3023.780264 0.2536 0.2546 0.2556 0.2569 0.2584
3028.375326 0.2593 0.2598 0.2600 0.2600 0.2597
3032.970388 0.2592 0.2576 0.2556 0.2515 0.2465
3037.565450 0.2429 0.2398 0.2353 0.2302 0.2263
3042.160512 0.2228 0.2201 0.2175 0.2162 0.2152
3046.755573 0.2146 0.2141 0.2132 0.2122 0.2116
3051.350635 0.2111 0.2093 0.2073 0.2048 0.2023
3055.945697 0.1984 0.1944 0.1880 0.1815 0.1740
3060.540759 0.1665 0.1589 0.1513 0.1505 0.1500
3065.135821 0.1505 0.1510 0.1570 0.1630 0.1680
3069.730882 0.1731 0.1781 0.1831 0.1866 0.1901
3074.325944 0.1921 0.1939 0.1924 0.1909 0.1899
3078.921006 0.1888 0.1873 0.1859 0.1849 0.1838
3083.516068 0.1823 0.1808 0.1798 0.1789 0.1784
3088.111130 0.1778 0.1768 0.1760 0.1760 0.1760
3092.706191 0.1760 0.1759 0.1754 0.1749 0.1744
3097.301253 0.1736 0.1721 0.1701 0.1671 0.1642
3101.896315 0.1617 0.1593 0.1573 0.1555 0.1540
3106.491377 0.1525 0.1509 0.1500 0.1500 0.1498
3111.086439 0.1493 0.1484 0.1469 0.1458 0.1453
3115.681500 0.1445 0.1435 0.1425 0.1415 0.1405
3120.276562 0.1395 0.1387 0.1382 0.1375 0.1365
3124.871624 0.1357 0.1352 0.1347 0.1342 0.1334
3129.466686 0.1324 0.1314 0.1304 0.1294 0.1284
3134.061748 0.1277 0.1272 0.1260 0.1245 0.1237
3138.656809 0.1232 0.1220 0.1205 0.1197 0.1192
3143.251871 0.1186 0.1181 0.1176 0.1171 0.1163
3147.846933 0.1152 0.1146 0.1141 0.1136 0.1131
3152.441995 0.1126 0.1121 0.1112 0.1102 0.1100
3157.037057 0.1100 0.1096 0.1091 0.1086 0.1081
3161.632118 0.1076 0.1071 0.1061 0.1051 0.1045
3166.227180 0.1040 0.1035 0.1030 0.1025 0.1020
3170.822242 0.1010 0.1000 0.0995 0.0990 0.0990
3175.417304 0.0990 0.0990 0.0990 0.0985 0.0980
3180.012366 0.0980 0.0979 0.0964 0.0950 0.0950
3184.607427 0.0949 0.0944 0.0939 0.0934 0.0930
3189.202489 0.0930 0.0930 0.0930 0.0929 0.0924
3193.797551 0.0920 0.0920 0.0918 0.0908 0.0900
3198.392613 0.0900 0.0900 0.0900 0.0900 0.0900
3202.987675 0.0900 0.0900 0.0900 0.0900 0.0900
3207.582736 0.0900 0.0903 0.0913 0.0920 0.0920
3212.177798 0.0920 0.0920 0.0920 0.0920 0.0922
3216.772860 0.0927 0.0932 0.0937 0.0940 0.0940
3221.367922 0.0940 0.0940 0.0942 0.0947 0.0955
3225.962984 0.0965 0.0972 0.0978 0.0983 0.0988
3230.558045 0.0993 0.0998 0.1000 0.1000 0.1006
3235.153107 0.1016 0.1023 0.1028 0.1033 0.1038
3239.748169 0.1040 0.1040 0.1043 0.1048 0.1057
3244.343231 0.1067 0.1070 0.1070 0.1073 0.1078
3248.938293 0.1080 0.1080 0.1087 0.1097 0.1107
3253.533354 0.1117 0.1120 0.1120 0.1124 0.1129
3258.128416 0.1130 0.1130 0.1138 0.1148 0.1158
3262.723478 0.1168 0.1174 0.1179 0.1184 0.1189
3267.318540 0.1194 0.1199 0.1209 0.1219 0.1225
3271.913602 0.1230 0.1235 0.1240 0.1245 0.1250
3276.508663 0.1260 0.1270 0.1275 0.1280 0.1285
3281.103725 0.1290 0.1295 0.1300 0.1310 0.1320
3285.698787 0.1325 0.1331 0.1341 0.1350 0.1355
3290.293849 0.1361 0.1376 0.1390 0.1396 0.1402
3294.888911 0.1417 0.1431 0.1436 0.1442 0.1452
3299.483972 0.1462 0.1472 0.1483 0.1498 0.1512
3304.079034 0.1522 0.1532 0.1542 0.1554 0.1569
3308.674096 0.1583 0.1593 0.1604 0.1619 0.1632
3313.269158 0.1637 0.1643 0.1653 0.1668 0.1694
3317.864220 0.1715 0.1730 0.1744 0.1754 0.1768
3322.459281 0.1788 0.1806 0.1821 0.1832 0.1837
3327.054343 0.1853 0.1883 0.1911 0.1937 0.1960
3331.649405 0.1980 0.1995 0.2005 0.2018 0.2033
3336.244467 0.2045 0.2055 0.2071 0.2091 0.2111
3340.839529 0.2131 0.2149 0.2164 0.2179 0.2194
3345.434590 0.2206 0.2216 0.2235 0.2261 0.2296
3350.029652 0.2336 0.2383 0.2434 0.2464 0.2484
3354.624714 0.2493 0.2499 0.2507 0.2517 0.2556
3359.219776 0.2607 0.2650 0.2690 0.2719 0.2744
3363.814838 0.2769 0.2794 0.2820 0.2845 0.2862
3368.409899 0.2877 0.2897 0.2917 0.2937 0.2957
3373.004961 0.2982 0.3007 0.3036 0.3067 0.3097
3377.600023 0.3127 0.3166 0.3207 0.3256 0.3307
3382.195085 0.3338 0.3368 0.3399 0.3430 0.3450
3386.790147 0.3470 0.3495 0.3520 0.3540 0.3561
3391.385208 0.3591 0.3622 0.3657 0.3693 0.3738
3395.980270 0.3784 0.3834 0.3882 0.3907 0.3931
3400.575332 0.3936 0.3944 0.3974 0.4006 0.4041
3405.170394 0.4075 0.4105 0.4136 0.4166 0.4191
3409.765456 0.4196 0.4208 0.4243 0.4277 0.4307
3414.360517 0.4337 0.4368 0.4414 0.4504 0.4571
3418.955579 0.4576 0.4587 0.4613 0.4638 0.4663
3423.550641 0.4689 0.4714 0.4739 0.4764 0.4784
3428.145703 0.4794 0.4821 0.4877 0.4928 0.4974
3432.740764 0.5013 0.5043 0.5071 0.5096 0.5117
3437.335826 0.5132 0.5156 0.5192 0.5228 0.5263
3441.930888 0.5296 0.5326 0.5356 0.5386 0.5416
3446.525950 0.5447 0.5477 0.5507 0.5534 0.5560
3451.121012 0.5585 0.5610 0.5641 0.5677 0.5706
3455.716073 0.5731 0.5759 0.5790 0.5820 0.5850
3460.311135 0.5877 0.5902 0.5931 0.5961 0.5992
3464.906197 0.6022 0.6056 0.6091 0.6126 0.6161
3469.501259 0.6193 0.6223 0.6246 0.6266 0.6274
3474.096321 0.6279 0.6288 0.6298 0.6308 0.6319
3478.691382 0.6333 0.6348 0.6403 0.6463 0.6497
3483.286444 0.6527 0.6548 0.6568 0.6593 0.6618
3487.881506 0.6639 0.6659 0.6684 0.6709 0.6725
3492.476568 0.6740 0.6760 0.6780 0.6795 0.6810
3497.071630 0.6825 0.6841 0.6861 0.6881 0.6901
3501.666691 0.6921 0.6931 0.6941 0.6951 0.6961
3506.261753 0.6966 0.6973 0.6998 0.7021 0.7026
3510.856815 0.7037 0.7082 0.7125 0.7156 0.7184
3515.451877 0.7204 0.7222 0.7232 0.7240 0.7240
3520.046939 0.7246 0.7271 0.7295 0.7315 0.7333
3524.642000 0.7343 0.7354 0.7369 0.7382 0.7387
3529.237062 0.7392 0.7397 0.7404 0.7414 0.7422
3533.832124 0.7427 0.7434 0.7444 0.7458 0.7478
3538.427186 0.7498 0.7518 0.7530 0.7530 0.7532
3543.022248 0.7537 0.7542 0.7547 0.7550 0.7550
3547.617309 0.7557 0.7573 0.7585 0.7595 0.7605
3552.212371 0.7615 0.7623 0.7628 0.7636 0.7646
3556.807433 0.7650 0.7650 0.7656 0.7666 0.7670
3561.402495 0.7670 0.7673 0.7678 0.7683 0.7688
3565.997557 0.7693 0.7698 0.7700 0.7700 0.7700
3570.592618 0.7700 0.7700 0.7700 0.7700 0.7700
3575.187680 0.7700 0.7700 0.7700 0.7700 0.7700
3579.782742 0.7700 0.7700 0.7700 0.7700 0.7700
3584.377804 0.7696 0.7691 0.7690 0.7690 0.7690
3588.972866 0.7690 0.7690 0.7690 0.7690 0.7690
3593.567927 0.7690 0.7690 0.7690 0.7690 0.7690
3598.162989 0.7690 0.7685 0.7680 0.7685 0.7690
3602.758051 0.7690 0.7690 0.7685 0.7680 0.7680
3607.353113 0.7680 0.7680 0.7680 0.7675 0.7669
3611.948175 0.7659 0.7650 0.7650 0.7650 0.7650
3616.543236 0.7650 0.7650 0.7650 0.7650 0.7649
3621.138298 0.7644 0.7640 0.7640 0.7641 0.7646
3625.733360 0.7652 0.7662 0.7671 0.7676 0.7681
3630.328422 0.7686 0.7691 0.7696 0.7703 0.7713
3634.923484 0.7722 0.7727 0.7730 0.7730 0.7732
3639.518545 0.7737 0.7740 0.7740 0.7740 0.7740
3644.113607 0.7740 0.7740 0.7740 0.7740 0.7740
3648.708669 0.7740 0.7740 0.7740 0.7740 0.7740
3653.303731 0.7740 0.7740 0.7740 0.7740 0.7740
3657.898793 0.7740 0.7740 0.7740 0.7740 0.7740
3662.493854 0.7740 0.7740 0.7743 0.7748 0.7750
3667.088916 0.7750 0.7750 0.7750 0.7750 0.7750
3671.683978 0.7757 0.7767 0.7770 0.7770 0.7770
3676.279040 0.7770 0.7770 0.7770 0.7770 0.7770
3680.874102 0.7770 0.7770 0.7770 0.7770 0.7774
3685.469163 0.7779 0.7780 0.7780 0.7780 0.7780
3690.064225 0.7780 0.7780 0.7780 0.7780 0.7780
3694.659287 0.7780 0.7780 0.7780 0.7780 0.7780
3699.254349 0.7780 0.7780 0.7780 0.7780 0.7780
3703.849411 0.7780 0.7780 0.7780 0.7780 0.7780
3708.444472 0.7780 0.7780 0.7775 0.7770 0.7770
3713.039534 0.7770 0.7770 0.7769 0.7759 0.7750
3717.634596 0.7750 0.7750 0.7750 0.7749 0.7744
3722.229658 0.7740 0.7740 0.7739 0.7734 0.7730
3726.824720 0.7730 0.7729 0.7724 0.7718 0.7708
3731.419781 0.7698 0.7688 0.7680 0.7680 0.7680
3736.014843 0.7680 0.7679 0.7674 0.7667 0.7657
3740.609905 0.7653 0.7663 0.7672 0.7677 0.7682
3745.204967 0.7687 0.7690 0.7690 0.7692 0.7697
3749.800029 0.7704 0.7714 0.7722 0.7727 0.7732
3754.395090 0.7737 0.7740 0.7740 0.7740 0.7740
3758.990152 0.7740 0.7740 0.7740 0.7740 0.7740
3763.585214 0.7740 0.7740 0.7740 0.7740 0.7740
3768.180276 0.7740 0.7740 0.7740 0.7740 0.7740
3772.775338 0.7740 0.7740 0.7740 0.7740 0.7740
3777.370399 0.7740 0.7740 0.7740 0.7740 0.7740
3781.965461 0.7740 0.7740 0.7740 0.7740 0.7740
3786.560523 0.7740 0.7740 0.7736 0.7731 0.7730
3791.155585 0.7730 0.7726 0.7721 0.7720 0.7720
3795.750647 0.7712 0.7702 0.7700 0.7700 0.7696
3800.345708 0.7691 0.7690 0.7690 0.7686 0.7680
3804.940770 0.7680 0.7680
##END=
