##TITLE=EPIBROMOHYDRIN
##JCAMP-DX=4.24
##DATA TYPE=INFRARED SPECTRUM
##CLASS=COBLENTZ
##ORIGIN=DOW CHEMICAL COMPANY
##OWNER=COBLENTZ SOCIETY
Collection (C) 2018 copyright by the U.S. Secretary of Commerce
on behalf of the United States of America. All rights reserved.
##DATE=Not specified, most likely prior to 1970
##NAMES=2-(bromomethyl)oxirane
##CAS REGISTRY NO=3132-64-7
##MOLFORM=C3 H5 Br O
##SOURCE REFERENCE=COBLENTZ NO. 4928
##$NIST SOURCE=COBLENTZ
##$NIST IMAGE=cob4928
##SPECTROMETER/DATA SYSTEM=Not specified, most likely a prism, grating, or hybrid spectrometer.
##STATE=SOLUTION (10% IN CCl4 FOR 3800-1330, 10% IN CS2 FOR 1330-400 CM^-^1)
##PATH LENGTH=0.01 AND 0.01 CM
$$SPECTRAL CONTAMINATIN DUE TO CS2 AROUND 1550 CM^-^1
##SAMPLING PROCEDURE=TRANSMISSION
##RESOLUTION=4
##DATA PROCESSING=DIGITIZED BY NIST FROM HARD COPY (FROM TWO SEGMENTS)
##XUNITS=1/CM
##YUNITS=TRANSMITTANCE
##XFACTOR=1.000000
##YFACTOR=1
##DELTAX=0.940624
##FIRSTX=408.466
##LASTX=3793.77
##FIRSTY=0.958
##MAXX=3793.77
##MINX=408.466
##MAXY=1.054
##MINY=0.206
##NPOINTS=3600
##XYDATA=(X++(Y..Y))
408.466000 0.9580 0.9590 0.9580 0.9590 0.9590
413.169119 0.9590 0.9590 0.9590 0.9590 0.9610
417.872237 0.9610 0.9610 0.9610 0.9610 0.9610
422.575356 0.9610 0.9610 0.9610 0.9610 0.9610
427.278475 0.9620 0.9620 0.9620 0.9620 0.9620
431.981593 0.9620 0.9620 0.9620 0.9620 0.9620
436.684712 0.9620 0.9620 0.9620 0.9620 0.9640
441.387831 0.9640 0.9650 0.9650 0.9650 0.9650
446.090949 0.9650 0.9670 0.9670 0.9670 0.9670
450.794068 0.9670 0.9670 0.9670 0.9670 0.9680
455.497187 0.9680 0.9680 0.9700 0.9710 0.9710
460.200305 0.9710 0.9710 0.9710 0.9730 0.9740
464.903424 0.9760 0.9770 0.9830 0.9910 0.9980
469.606543 1.0050 1.0080 1.0110 1.0110 1.0130
474.309661 1.0160 1.0170 1.0190 1.0190 1.0200
479.012780 1.0230 1.0250 1.0260 1.0290 1.0310
483.715899 1.0310 1.0320 1.0320 1.0320 1.0320
488.419017 1.0320 1.0320 1.0340 1.0350 1.0350
493.122136 1.0370 1.0400 1.0410 1.0430 1.0440
497.825255 1.0460 1.0460 1.0470 1.0470 1.0490
502.528373 1.0520 1.0520 1.0530 1.0530 1.0530
507.231492 1.0540 1.0540 1.0530 1.0530 1.0530
511.934611 1.0530 1.0530 1.0530 1.0530 1.0530
516.637729 1.0540 1.0540 1.0540 1.0530 1.0530
521.340848 1.0530 1.0530 1.0530 1.0530 1.0530
526.043967 1.0530 1.0530 1.0530 1.0520 1.0520
530.747085 1.0520 1.0520 1.0520 1.0520 1.0520
535.450204 1.0520 1.0520 1.0520 1.0520 1.0500
540.153323 1.0500 1.0520 1.0520 1.0500 1.0500
544.856442 1.0520 1.0500 1.0500 1.0500 1.0500
549.559560 1.0500 1.0500 1.0500 1.0500 1.0520
554.262679 1.0520 1.0520 1.0520 1.0520 1.0520
558.965798 1.0520 1.0520 1.0520 1.0520 1.0520
563.668916 1.0500 1.0500 1.0500 1.0500 1.0500
568.372035 1.0500 1.0500 1.0490 1.0490 1.0490
573.075154 1.0490 1.0490 1.0490 1.0490 1.0500
577.778272 1.0500 1.0470 1.0470 1.0460 1.0460
582.481391 1.0460 1.0460 1.0460 1.0460 1.0460
587.184510 1.0460 1.0460 1.0460 1.0440 1.0430
591.887628 1.0430 1.0400 1.0400 1.0400 1.0400
596.590747 1.0380 1.0380 1.0380 1.0380 1.0380
601.293866 1.0380 1.0380 1.0370 1.0350 1.0350
605.996984 1.0350 1.0350 1.0350 1.0340 1.0340
610.700103 1.0320 1.0320 1.0290 1.0260 1.0260
615.403222 1.0260 1.0250 1.0230 1.0220 1.0220
620.106340 1.0200 1.0170 1.0130 1.0080 1.0070
624.809459 1.0070 1.0050 0.9970 0.9910 0.9880
629.512578 0.9850 0.9770 0.9670 0.9590 0.9530
634.215696 0.9470 0.9370 0.9180 0.8980 0.8840
638.918815 0.8541 0.8261 0.8021 0.7691 0.7262
643.621934 0.7009 0.6399 0.4750 0.3901 0.3890
648.325052 0.4010 0.4130 0.4200 0.4210 0.4190
653.028171 0.3860 0.3410 0.2891 0.2061 0.2060
657.731290 0.2339 0.2968 0.3309 0.3768 0.4864
662.434408 0.5570 0.6270 0.6770 0.7409 0.8079
667.137527 0.8639 0.8999 0.9010 0.9070 0.9130
671.840646 0.9240 0.9360 0.9400 0.9470 0.9530
676.543764 0.9590 0.9670 0.9760 0.9800 0.9850
681.246883 0.9860 0.9890 0.9940 0.9980 1.0010
685.950002 1.0040 1.0050 1.0070 1.0070 1.0070
690.653120 1.0070 1.0070 1.0080 1.0080 1.0080
695.356239 1.0100 1.0100 1.0110 1.0130 1.0140
700.059358 1.0140 1.0140 1.0140 1.0160 1.0160
704.762476 1.0160 1.0160 1.0160 1.0160 1.0160
709.465595 1.0160 1.0160 1.0160 1.0160 1.0140
714.168714 1.0140 1.0140 1.0140 1.0140 1.0140
718.871832 1.0140 1.0140 1.0140 1.0140 1.0140
723.574951 1.0140 1.0140 1.0140 1.0130 1.0130
728.278070 1.0110 1.0110 1.0110 1.0110 1.0110
732.981188 1.0100 1.0100 1.0080 1.0080 1.0070
737.684307 1.0070 1.0070 1.0070 1.0050 1.0050
742.387426 1.0040 1.0040 1.0040 0.9980 0.9970
747.090544 0.9890 0.9860 0.9820 0.9760 0.9700
751.793663 0.9610 0.9470 0.9330 0.9131 0.8911
756.496782 0.8610 0.8050 0.7750 0.7021 0.6271
761.199900 0.6070 0.6070 0.6279 0.6868 0.7796
765.903019 0.8510 0.8820 0.9070 0.9280 0.9360
770.606138 0.9370 0.9370 0.9360 0.9330 0.9250
775.309256 0.9180 0.9070 0.8950 0.8820 0.8630
780.012375 0.8381 0.8081 0.7711 0.7232 0.6822
784.715494 0.6760 0.6760 0.6860 0.7140 0.7709
789.418612 0.8059 0.8210 0.8609 0.8779 0.8969
794.121731 0.9100 0.9210 0.9310 0.9360 0.9400
798.824850 0.9460 0.9470 0.9470 0.9470 0.9460
803.527969 0.9450 0.9430 0.9420 0.9400 0.9390
808.231087 0.9360 0.9330 0.9300 0.9250 0.9210
812.934206 0.9160 0.9130 0.9070 0.9000 0.8900
817.637325 0.8790 0.8640 0.8461 0.8271 0.8051
822.340443 0.7800 0.7510 0.7170 0.6790 0.6431
827.043562 0.6181 0.5851 0.5422 0.5062 0.4363
831.746681 0.3750 0.3310 0.3170 0.3170 0.3549
836.449799 0.3560 0.3680 0.4158 0.4160 0.4051
841.152918 0.3860 0.3690 0.3340 0.2980 0.2980
845.856037 0.3259 0.3340 0.4207 0.5077 0.5448
850.559155 0.5550 0.5640 0.5790 0.5820 0.5820
855.262274 0.5800 0.5750 0.5640 0.5431 0.5430
859.965393 0.5600 0.5760 0.5830 0.6349 0.6869
864.668511 0.7079 0.7259 0.7469 0.7649 0.7809
869.371630 0.7930 0.7960 0.8000 0.8020 0.8020
874.074749 0.8000 0.7990 0.7970 0.7940 0.7930
878.777867 0.7930 0.7960 0.7960 0.7960 0.7960
883.480986 0.7910 0.7810 0.7660 0.7530 0.7341
888.184105 0.7200 0.7170 0.7190 0.7440 0.8029
892.887223 0.8419 0.8570 0.8789 0.8910 0.8940
897.590342 0.8970 0.9000 0.9030 0.9040 0.9040
902.293461 0.9040 0.9040 0.9010 0.8940 0.8850
906.996579 0.8730 0.8640 0.8490 0.8240 0.7941
911.699698 0.7571 0.7171 0.6742 0.6222 0.4657
916.402817 0.4160 0.4160 0.4810 0.5020 0.5340
921.105935 0.5669 0.5790 0.6767 0.7796 0.8059
925.809054 0.8330 0.8510 0.8660 0.8780 0.8810
930.512173 0.8810 0.8810 0.8790 0.8760 0.8730
935.215291 0.8670 0.8570 0.8450 0.8260 0.8060
939.918410 0.7890 0.7561 0.7311 0.6404 0.4669
944.621529 0.4230 0.4170 0.3460 0.2331 0.2310
949.324647 0.3218 0.4097 0.4349 0.4967 0.5577
954.027766 0.6840 0.7260 0.7970 0.8360 0.8630
958.730885 0.8790 0.8930 0.9040 0.9219 0.9369
963.434003 0.9400 0.9470 0.9520 0.9560 0.9580
968.137122 0.9640 0.9650 0.9670 0.9680 0.9700
972.840241 0.9730 0.9740 0.9770 0.9770 0.9790
977.543359 0.9790 0.9790 0.9790 0.9800 0.9830
982.246478 0.9830 0.9850 0.9850 0.9850 0.9850
986.949597 0.9850 0.9850 0.9830 0.9820 0.9820
991.652715 0.9820 0.9820 0.9820 0.9820 0.9820
996.355834 0.9820 0.9830 0.9860 0.9890 0.9920
1001.058953 0.9940 0.9940 0.9940 0.9940 0.9940
1005.762071 0.9940 0.9920 0.9920 0.9910 0.9890
1010.465190 0.9880 0.9860 0.9860 0.9850 0.9830
1015.168309 0.9820 0.9800 0.9800 0.9790 0.9740
1019.871427 0.9700 0.9640 0.9610 0.9590 0.9560
1024.574546 0.9500 0.9460 0.9390 0.9330 0.9240
1029.277665 0.9160 0.9040 0.8850 0.8790 0.8790
1033.980783 0.8810 0.8840 0.8950 0.9099 0.9269
1038.683902 0.9400 0.9460 0.9470 0.9500 0.9530
1043.387021 0.9550 0.9560 0.9560 0.9550 0.9550
1048.090139 0.9550 0.9550 0.9550 0.9550 0.9530
1052.793258 0.9520 0.9500 0.9470 0.9460 0.9430
1057.496377 0.9430 0.9450 0.9460 0.9490 0.9530
1062.199496 0.9590 0.9610 0.9610 0.9590 0.9590
1066.902614 0.9590 0.9580 0.9560 0.9520 0.9490
1071.605733 0.9430 0.9360 0.9310 0.9210 0.9150
1076.308852 0.9090 0.9060 0.9010 0.9000 0.9000
1081.011970 0.9010 0.9100 0.9160 0.9280 0.9390
1085.715089 0.9490 0.9580 0.9610 0.9670 0.9710
1090.418208 0.9730 0.9740 0.9760 0.9770 0.9770
1095.121326 0.9770 0.9770 0.9770 0.9790 0.9790
1099.824445 0.9790 0.9790 0.9790 0.9790 0.9770
1104.527564 0.9770 0.9760 0.9760 0.9760 0.9760
1109.230682 0.9760 0.9760 0.9760 0.9760 0.9770
1113.933801 0.9770 0.9760 0.9740 0.9700 0.9670
1118.636920 0.9620 0.9580 0.9550 0.9460 0.9390
1123.340038 0.9310 0.9190 0.9090 0.8850 0.8640
1128.043157 0.8490 0.8300 0.8140 0.8001 0.7990
1132.746276 0.8000 0.8200 0.8270 0.8480 0.8780
1137.449394 0.8840 0.8880 0.8880 0.8900 0.8900
1142.152513 0.8900 0.8880 0.8840 0.8820 0.8810
1146.855632 0.8820 0.8910 0.9000 0.9149 0.9359
1151.558750 0.9460 0.9530 0.9560 0.9560 0.9580
1156.261869 0.9580 0.9580 0.9580 0.9580 0.9580
1160.964988 0.9550 0.9520 0.9490 0.9450 0.9430
1165.668106 0.9390 0.9310 0.9220 0.9180 0.9130
1170.371225 0.9030 0.8850 0.8700 0.8550 0.8320
1175.074344 0.8080 0.8050 0.7970 0.7771 0.7770
1179.777462 0.8000 0.8090 0.8240 0.8510 0.8750
1184.480581 0.8840 0.8850 0.8850 0.8840 0.8810
1189.183700 0.8790 0.8780 0.8760 0.8780 0.8820
1193.886818 0.8880 0.8930 0.8970 0.9000 0.9010
1198.589937 0.9010 0.9000 0.8970 0.8910 0.8880
1203.293056 0.8820 0.8750 0.8660 0.8540 0.8381
1207.996174 0.8180 0.7940 0.7630 0.7170 0.6651
1212.699293 0.4993 0.4072 0.3522 0.2892 0.2492
1217.402412 0.2490 0.2790 0.2910 0.4110 0.5259
1222.105530 0.5460 0.5660 0.6548 0.7656 0.8019
1226.808649 0.8240 0.8480 0.8610 0.8760 0.8850
1231.511768 0.8970 0.9030 0.9040 0.9030 0.9030
1236.214886 0.9030 0.9010 0.9000 0.8970 0.8930
1240.918005 0.8850 0.8760 0.8700 0.8570 0.8480
1245.621124 0.8350 0.8170 0.7960 0.7690 0.7390
1250.324242 0.7071 0.6701 0.6281 0.6180 0.6100
1255.027361 0.6030 0.5920 0.5800 0.5670 0.5460
1259.730480 0.5360 0.5360 0.5390 0.5579 0.5779
1264.433598 0.6250 0.6370 0.7160 0.7959 0.8269
1269.136717 0.8549 0.8729 0.8949 0.9149 0.9220
1273.839836 0.9280 0.9340 0.9400 0.9490 0.9500
1278.542954 0.9530 0.9560 0.9610 0.9640 0.9650
1283.246073 0.9680 0.9700 0.9710 0.9710 0.9740
1287.949192 0.9760 0.9770 0.9800 0.9830 0.9850
1292.652310 0.9850 0.9860 0.9880 0.9880 0.9880
1297.355429 0.9880 0.9880 0.9880 0.9880 0.9890
1302.058548 0.9890 0.9890 0.9890 0.9890 0.9890
1306.761666 0.9890 0.9890 0.9910 0.9910 0.9910
1311.464785 0.9920 0.9920 0.9920 0.9920 0.9920
1316.167904 0.9940 0.9940 0.9940 0.9950 0.9970
1320.871022 0.9970 0.9950 0.9940 0.9940 0.9920
1325.574141 0.9920 0.9920 0.9920 0.9920 0.9940
1330.277260 0.9950 0.9970 0.9970 0.9970 0.9970
1334.980379 0.9940 0.9940 0.9920 0.9920 0.9910
1339.683497 0.9890 0.9880 0.9880 0.9860 0.9860
1344.386616 0.9860 0.9850 0.9850 0.9830 0.9830
1349.089735 0.9830 0.9830 0.9820 0.9800 0.9790
1353.792853 0.9770 0.9740 0.9710 0.9700 0.9650
1358.495972 0.9640 0.9620 0.9610 0.9610 0.9590
1363.199091 0.9530 0.9490 0.9470 0.9460 0.9430
1367.902209 0.9400 0.9390 0.9370 0.9360 0.9340
1372.605328 0.9330 0.9330 0.9330 0.9310 0.9310
1377.308447 0.9310 0.9280 0.9280 0.9250 0.9220
1382.011565 0.9210 0.9190 0.9180 0.9150 0.9070
1386.714684 0.8980 0.8910 0.8760 0.8700 0.8580
1391.417803 0.8480 0.8420 0.8290 0.8141 0.8001
1396.120921 0.7960 0.7960 0.7940 0.7930 0.7870
1400.824040 0.7660 0.6832 0.6062 0.6060 0.7613
1405.527159 0.7940 0.8211 0.9010 0.9150 0.9180
1410.230277 0.9210 0.9210 0.9220 0.9220 0.9220
1414.933396 0.9220 0.9210 0.9190 0.9160 0.9120
1419.636515 0.9060 0.8950 0.8850 0.8820 0.8730
1424.339633 0.8600 0.8330 0.8030 0.7810 0.7511
1429.042752 0.6931 0.6651 0.6650 0.7287 0.7618
1433.745871 0.7780 0.8020 0.8430 0.8460 0.8450
1438.448989 0.8290 0.8180 0.8030 0.7871 0.7482
1443.152108 0.7049 0.6610 0.6150 0.6150 0.7009
1447.855227 0.7689 0.8109 0.8459 0.8978 0.9179
1452.558345 0.9270 0.9300 0.9360 0.9400 0.9460
1457.261464 0.9470 0.9520 0.9520 0.9490 0.9470
1461.964583 0.9460 0.9450 0.9430 0.9420 0.9390
1466.667701 0.9360 0.9340 0.9340 0.9300 0.9220
1471.370820 0.9120 0.9030 0.8940 0.8750 0.8700
1476.073939 0.8670 0.8540 0.8410 0.8320 0.8270
1480.777057 0.8140 0.8090 0.8110 0.8290 0.8410
1485.480176 0.8570 0.8690 0.8750 0.8780 0.8790
1490.183295 0.8790 0.8750 0.8750 0.8750 0.8730
1494.886413 0.8730 0.8720 0.8700 0.8670 0.8660
1499.589532 0.8610 0.8550 0.8450 0.8420 0.8390
1504.292651 0.8360 0.8330 0.8240 0.8140 0.8060
1508.995769 0.8030 0.8020 0.7970 0.7940 0.7840
1513.698888 0.7770 0.7690 0.7680 0.7630 0.7511
1518.402007 0.7390 0.7320 0.7260 0.7230 0.7200
1523.105125 0.7140 0.7110 0.7100 0.7080 0.7040
1527.808244 0.6960 0.6900 0.6870 0.6800 0.6760
1532.511363 0.6710 0.6610 0.6440 0.6320 0.6220
1537.214481 0.6160 0.6040 0.5980 0.5830 0.5420
1541.917600 0.5370 0.5330 0.5240 0.5150 0.5080
1546.620719 0.5060 0.5030 0.5030 0.5020 0.5020
1551.323837 0.5020 0.5030 0.5050 0.5060 0.5140
1556.026956 0.5180 0.5240 0.5370 0.5450 0.5510
1560.730075 0.5670 0.5700 0.5720 0.5760 0.5860
1565.433193 0.6030 0.6190 0.6300 0.6340 0.6440
1570.136312 0.6560 0.6680 0.6770 0.6790 0.6840
1574.839431 0.6870 0.6930 0.7010 0.7010 0.7040
1579.542549 0.7040 0.7070 0.7070 0.7080 0.7110
1584.245668 0.7130 0.7170 0.7250 0.7280 0.7350
1588.948787 0.7410 0.7470 0.7590 0.7660 0.7750
1593.651906 0.7810 0.7870 0.7940 0.8030 0.8120
1598.355024 0.8240 0.8360 0.8480 0.8600 0.8719
1603.058143 0.8780 0.8840 0.8930 0.8950 0.9000
1607.761262 0.9090 0.9150 0.9250 0.9340 0.9370
1612.464380 0.9390 0.9430 0.9460 0.9490 0.9490
1617.167499 0.9500 0.9520 0.9530 0.9530 0.9530
1621.870618 0.9560 0.9580 0.9680 0.9730 0.9730
1626.573736 0.9760 0.9790 0.9790 0.9800 0.9800
1631.276855 0.9800 0.9800 0.9800 0.9740 0.9740
1635.979974 0.9820 0.9830 0.9830 0.9820 0.9820
1640.683092 0.9820 0.9820 0.9820 0.9830 0.9830
1645.386211 0.9850 0.9880 0.9890 0.9910 0.9910
1650.089330 0.9890 0.9910 0.9910 0.9910 0.9920
1654.792448 0.9920 0.9920 0.9940 0.9940 0.9940
1659.495567 0.9940 0.9940 0.9880 0.9890 0.9940
1664.198686 0.9950 0.9950 0.9950 0.9970 0.9980
1668.901804 1.0000 1.0010 1.0020 0.9970 0.9970
1673.604923 0.9970 0.9970 0.9950 0.9950 0.9950
1678.308042 0.9950 0.9950 0.9950 0.9970 1.0000
1683.011160 1.0020 1.0020 1.0020 1.0010 1.0010
1687.714279 1.0000 1.0020 1.0020 1.0020 0.9980
1692.417398 0.9980 0.9970 1.0000 1.0020 1.0020
1697.120516 1.0020 1.0020 1.0020 1.0020 1.0020
1701.823635 1.0020 1.0020 0.9970 0.9980 1.0010
1706.526754 1.0020 1.0040 1.0040 1.0020 1.0040
1711.229872 1.0050 1.0050 1.0040 1.0040 1.0020
1715.932991 1.0000 1.0000 1.0010 1.0010 1.0010
1720.636110 1.0020 1.0020 1.0020 1.0020 1.0010
1725.339228 0.9980 0.9980 0.9970 0.9970 0.9970
1730.042347 0.9970 0.9980 1.0000 1.0010 1.0020
1734.745466 1.0040 1.0050 1.0070 1.0070 1.0070
1739.448584 1.0070 1.0070 1.0070 1.0050 1.0050
1744.151703 1.0050 1.0050 1.0050 1.0050 1.0050
1748.854822 1.0050 1.0050 1.0070 1.0020 1.0050
1753.557940 1.0050 1.0050 1.0050 1.0050 1.0050
1758.261059 1.0040 1.0040 1.0020 1.0020 1.0040
1762.964178 1.0040 1.0040 1.0040 1.0020 1.0020
1767.667296 1.0040 1.0040 1.0040 1.0040 1.0040
1772.370415 1.0020 1.0020 1.0050 1.0050 1.0040
1777.073534 1.0020 1.0020 1.0020 1.0020 1.0020
1781.776652 1.0010 1.0010 1.0020 1.0020 1.0020
1786.479771 1.0020 1.0020 1.0020 1.0010 1.0010
1791.182890 1.0040 1.0050 1.0050 1.0020 1.0020
1795.886008 1.0020 1.0020 1.0010 1.0010 1.0010
1800.589127 1.0010 1.0040 1.0020 1.0020 1.0020
1805.292246 0.9980 0.9970 0.9970 0.9970 0.9970
1809.995364 0.9950 0.9950 0.9940 0.9950 0.9950
1814.698483 0.9950 0.9950 0.9950 0.9950 0.9950
1819.401602 0.9950 0.9940 0.9940 0.9940 0.9940
1824.104720 0.9940 0.9940 0.9950 0.9970 0.9980
1828.807839 0.9980 1.0010 1.0020 1.0020 0.9970
1833.510958 0.9950 0.9950 0.9940 0.9940 0.9940
1838.214076 0.9940 0.9940 0.9920 0.9920 0.9920
1842.917195 0.9920 0.9910 0.9920 0.9950 0.9950
1847.620314 0.9950 0.9950 0.9950 0.9950 0.9970
1852.323433 0.9970 0.9970 0.9970 1.0000 1.0020
1857.026551 1.0020 1.0020 1.0020 1.0020 1.0020
1861.729670 1.0020 0.9980 0.9980 0.9980 0.9980
1866.432789 0.9970 0.9950 0.9950 0.9950 0.9970
1871.135907 1.0000 1.0020 1.0020 1.0020 1.0020
1875.839026 1.0020 1.0020 1.0020 1.0020 1.0020
1880.542145 1.0020 1.0020 1.0020 1.0020 1.0020
1885.245263 1.0020 1.0020 0.9980 0.9980 0.9980
1889.948382 1.0010 1.0020 1.0020 1.0020 1.0020
1894.651501 1.0020 1.0020 1.0020 1.0020 1.0020
1899.354619 1.0020 1.0020 1.0000 1.0000 1.0000
1904.057738 1.0000 1.0000 1.0000 1.0000 1.0040
1908.760857 1.0040 0.9980 0.9970 0.9980 1.0000
1913.463975 1.0020 1.0040 1.0020 1.0020 1.0020
1918.167094 1.0020 1.0020 1.0010 1.0020 0.9980
1922.870213 0.9970 0.9970 0.9980 1.0000 1.0000
1927.573331 1.0020 1.0020 1.0020 1.0020 1.0010
1932.276450 1.0020 1.0020 1.0020 1.0020 1.0020
1936.979569 1.0020 1.0020 1.0020 1.0020 1.0040
1941.682687 1.0040 1.0040 1.0040 1.0040 1.0020
1946.385806 1.0020 1.0020 1.0040 1.0040 1.0040
1951.088925 1.0020 1.0010 1.0010 1.0010 1.0010
1955.792043 1.0010 1.0010 1.0259 1.0310 1.0290
1960.495162 1.0080 0.9980 0.9980 0.9980 0.9980
1965.198281 0.9980 0.9980 0.9970 0.9970 0.9970
1969.901399 0.9970 0.9970 0.9970 0.9950 0.9950
1974.604518 0.9940 0.9940 0.9920 0.9920 0.9920
1979.307637 0.9920 0.9920 0.9920 0.9920 0.9940
1984.010755 0.9950 0.9950 0.9970 0.9970 0.9970
1988.713874 0.9970 0.9970 0.9970 0.9970 0.9970
1993.416993 0.9950 0.9940 0.9940 0.9920 0.9940
1998.120111 0.9940 0.9950 0.9950 0.9945 0.9940
2002.823230 0.9930 0.9920 0.9920 0.9920 0.9920
2007.526349 0.9920 0.9920 0.9920 0.9920 0.9920
2012.229467 0.9920 0.9920 0.9915 0.9910 0.9901
2016.932586 0.9891 0.9917 0.9947 0.9963 0.9978
2021.635705 0.9989 0.9999 1.0004 1.0009 1.0010
2026.338823 1.0010 1.0010 1.0010 1.0010 1.0010
2031.041942 1.0010 1.0010 1.0010 1.0010 1.0014
2035.745061 1.0019 1.0020 1.0020 1.0020 1.0020
2040.448179 1.0020 1.0020 1.0020 1.0020 1.0020
2045.151298 1.0020 1.0020 1.0020 1.0020 1.0020
2049.854417 1.0020 1.0020 1.0020 1.0020 1.0020
2054.557535 1.0020 1.0020 1.0020 1.0020 1.0020
2059.260654 1.0020 1.0020 1.0020 1.0020 1.0020
2063.963773 1.0020 1.0020 1.0020 1.0020 1.0020
2068.666891 1.0020 1.0020 1.0020 1.0020 1.0020
2073.370010 1.0020 1.0020 1.0020 1.0020 1.0020
2078.073129 1.0020 1.0020 1.0020 1.0020 1.0020
2082.776247 1.0020 1.0020 1.0020 1.0020 1.0020
2087.479366 1.0020 1.0020 1.0020 1.0020 1.0020
2092.182485 1.0020 1.0020 1.0020 1.0020 1.0020
2096.885603 1.0020 1.0020 1.0020 1.0020 1.0020
2101.588722 1.0020 1.0020 1.0020 1.0020 1.0020
2106.291841 1.0020 1.0020 1.0020 1.0020 1.0020
2110.994960 1.0020 1.0020 1.0020 1.0020 1.0020
2115.698078 1.0020 1.0020 1.0020 1.0020 1.0020
2120.401197 1.0020 1.0018 1.0013 1.0010 1.0010
2125.104316 1.0010 1.0010 1.0010 1.0010 1.0010
2129.807434 1.0010 1.0010 1.0010 1.0009 1.0004
2134.510553 0.9997 0.9987 0.9980 0.9980 0.9980
2139.213672 0.9980 0.9980 0.9980 0.9980 0.9980
2143.916790 0.9980 0.9980 0.9980 0.9980 0.9980
2148.619909 0.9980 0.9977 0.9962 0.9950 0.9950
2153.323028 0.9950 0.9950 0.9950 0.9950 0.9949
2158.026146 0.9944 0.9940 0.9940 0.9940 0.9940
2162.729265 0.9940 0.9940 0.9940 0.9940 0.9940
2167.432384 0.9940 0.9940 0.9940 0.9940 0.9940
2172.135502 0.9940 0.9940 0.9940 0.9940 0.9940
2176.838621 0.9940 0.9940 0.9930 0.9920 0.9920
2181.541740 0.9920 0.9920 0.9920 0.9920 0.9920
2186.244858 0.9920 0.9920 0.9920 0.9920 0.9920
2190.947977 0.9920 0.9920 0.9920 0.9920 0.9920
2195.651096 0.9920 0.9920 0.9929 0.9939 0.9940
2200.354214 0.9940 0.9926 0.9911 0.9910 0.9910
2205.057333 0.9901 0.9891 0.9890 0.9890 0.9877
2209.760452 0.9862 0.9860 0.9860 0.9860 0.9860
2214.463570 0.9860 0.9860 0.9856 0.9851 0.9838
2219.166689 0.9823 0.9820 0.9820 0.9812 0.9802
2223.869808 0.9800 0.9800 0.9800 0.9800 0.9800
2228.572926 0.9800 0.9808 0.9818 0.9824 0.9829
2233.276045 0.9830 0.9830 0.9837 0.9847 0.9850
2237.979164 0.9850 0.9850 0.9850 0.9843 0.9833
2242.682282 0.9830 0.9830 0.9827 0.9822 0.9813
2247.385401 0.9803 0.9797 0.9792 0.9770 0.9740
2252.088520 0.9714 0.9689 0.9670 0.9656 0.9650
2256.791638 0.9650 0.9647 0.9642 0.9634 0.9624
2261.494757 0.9620 0.9620 0.9620 0.9620 0.9617
2266.197876 0.9612 0.9604 0.9594 0.9582 0.9567
2270.900994 0.9549 0.9529 0.9515 0.9505 0.9500
2275.604113 0.9500 0.9500 0.9500 0.9505 0.9515
2280.307232 0.9530 0.9550 0.9565 0.9575 0.9582
2285.010350 0.9587 0.9590 0.9590 0.9595 0.9605
2289.713469 0.9606 0.9596 0.9590 0.9590 0.9590
2294.416588 0.9590 0.9590 0.9590 0.9590 0.9590
2299.119706 0.9594 0.9604 0.9618 0.9638 0.9650
2303.822825 0.9650 0.9654 0.9664 0.9670 0.9670
2308.525944 0.9672 0.9677 0.9683 0.9693 0.9697
2313.229062 0.9687 0.9675 0.9660 0.9653 0.9663
2317.932181 0.9680 0.9715 0.9744 0.9759 0.9777
2322.635300 0.9802 0.9821 0.9826 0.9836 0.9861
2327.338418 0.9887 0.9917 0.9944 0.9958 0.9973
2332.041537 0.9988 1.0001 1.0006 1.0007 0.9992
2336.744656 0.9974 0.9939 0.9905 0.9875 0.9847
2341.447774 0.9832 0.9818 0.9808 0.9802 0.9811
2346.150893 0.9821 0.9826 0.9831 0.9841 0.9849
2350.854012 0.9839 0.9832 0.9847 0.9863 0.9893
2355.557130 0.9923 0.9952 0.9981 0.9996 1.0010
2360.260249 1.0015 1.0020 1.0020 1.0020 1.0015
2364.963368 1.0007 0.9948 0.9888 0.9813 0.9740
2369.666487 0.9725 0.9710 0.9725 0.9740 0.9770
2374.369605 0.9799 0.9844 0.9889 0.9900 0.9910
2379.072724 0.9900 0.9890 0.9900 0.9910 0.9910
2383.775843 0.9910 0.9910 0.9910 0.9910 0.9910
2388.478961 0.9915 0.9920 0.9920 0.9920 0.9920
2393.182080 0.9920 0.9920 0.9920 0.9920 0.9920
2397.885199 0.9929 0.9939 0.9927 0.9912 0.9902
2402.588317 0.9892 0.9890 0.9890 0.9890 0.9890
2407.291436 0.9890 0.9890 0.9890 0.9890 0.9890
2411.994555 0.9890 0.9890 0.9890 0.9890 0.9890
2416.697673 0.9890 0.9890 0.9890 0.9890 0.9890
2421.400792 0.9890 0.9890 0.9890 0.9890 0.9890
2426.103911 0.9890 0.9890 0.9890 0.9890 0.9890
2430.807029 0.9890 0.9897 0.9907 0.9920 0.9935
2435.510148 0.9943 0.9948 0.9950 0.9950 0.9947
2440.213267 0.9942 0.9943 0.9948 0.9950 0.9950
2444.916385 0.9956 0.9966 0.9979 0.9994 1.0006
2449.619504 1.0016 1.0020 1.0020 1.0009 0.9989
2454.322623 0.9980 0.9980 0.9980 0.9980 0.9977
2459.025741 0.9972 0.9965 0.9955 0.9950 0.9950
2463.728860 0.9950 0.9950 0.9950 0.9950 0.9950
2468.431979 0.9950 0.9950 0.9950 0.9950 0.9950
2473.135097 0.9950 0.9950 0.9950 0.9950 0.9950
2477.838216 0.9950 0.9954 0.9964 0.9970 0.9970
2482.541335 0.9970 0.9970 0.9970 0.9970 0.9970
2487.244453 0.9970 0.9972 0.9977 0.9980 0.9980
2491.947572 0.9978 0.9973 0.9970 0.9970 0.9970
2496.650691 0.9970 0.9970 0.9970 0.9970 0.9970
2501.353809 0.9970 0.9970 0.9970 0.9970 0.9970
2506.056928 0.9970 0.9970 0.9970 0.9970 0.9970
2510.760047 0.9970 0.9970 0.9970 0.9970 0.9970
2515.463165 0.9970 0.9970 0.9970 0.9970 0.9970
2520.166284 0.9971 0.9976 0.9980 0.9980 0.9980
2524.869403 0.9980 0.9980 0.9980 0.9982 0.9992
2529.572521 1.0000 1.0000 0.9998 0.9988 0.9980
2534.275640 0.9980 0.9979 0.9974 0.9970 0.9970
2538.978759 0.9970 0.9970 0.9970 0.9970 0.9970
2543.681877 0.9970 0.9970 0.9970 0.9969 0.9959
2548.384996 0.9950 0.9950 0.9950 0.9950 0.9950
2553.088115 0.9950 0.9950 0.9950 0.9950 0.9950
2557.791233 0.9950 0.9950 0.9950 0.9950 0.9950
2562.494352 0.9950 0.9950 0.9960 0.9970 0.9970
2567.197471 0.9970 0.9960 0.9950 0.9950 0.9950
2571.900589 0.9950 0.9950 0.9950 0.9950 0.9950
2576.603708 0.9950 0.9950 0.9950 0.9950 0.9950
2581.306827 0.9950 0.9950 0.9946 0.9941 0.9940
2586.009945 0.9940 0.9931 0.9921 0.9916 0.9911
2590.713064 0.9897 0.9883 0.9880 0.9880 0.9880
2595.416183 0.9880 0.9872 0.9862 0.9860 0.9860
2600.119301 0.9860 0.9860 0.9860 0.9860 0.9860
2604.822420 0.9860 0.9860 0.9860 0.9860 0.9860
2609.525539 0.9867 0.9877 0.9880 0.9880 0.9884
2614.228657 0.9889 0.9890 0.9890 0.9890 0.9890
2618.931776 0.9897 0.9907 0.9910 0.9910 0.9910
2623.634895 0.9910 0.9910 0.9910 0.9910 0.9910
2628.338014 0.9904 0.9894 0.9887 0.9882 0.9880
2633.041132 0.9880 0.9880 0.9880 0.9880 0.9880
2637.744251 0.9880 0.9880 0.9880 0.9880 0.9880
2642.447370 0.9880 0.9874 0.9864 0.9860 0.9860
2647.150488 0.9857 0.9852 0.9845 0.9835 0.9835
2651.853607 0.9845 0.9850 0.9850 0.9857 0.9872
2656.556726 0.9882 0.9887 0.9895 0.9905 0.9912
2661.259844 0.9917 0.9925 0.9935 0.9942 0.9947
2665.962963 0.9950 0.9950 0.9950 0.9950 0.9948
2670.666082 0.9943 0.9940 0.9940 0.9940 0.9940
2675.369200 0.9940 0.9940 0.9940 0.9940 0.9940
2680.072319 0.9940 0.9936 0.9926 0.9920 0.9920
2684.775438 0.9920 0.9920 0.9920 0.9920 0.9920
2689.478556 0.9920 0.9920 0.9920 0.9923 0.9933
2694.181675 0.9940 0.9940 0.9940 0.9940 0.9944
2698.884794 0.9959 0.9970 0.9970 0.9968 0.9958
2703.587912 0.9950 0.9950 0.9950 0.9950 0.9949
2708.291031 0.9944 0.9940 0.9940 0.9940 0.9940
2712.994150 0.9938 0.9928 0.9920 0.9920 0.9920
2717.697268 0.9920 0.9919 0.9914 0.9910 0.9910
2722.400387 0.9910 0.9910 0.9910 0.9910 0.9910
2727.103506 0.9910 0.9910 0.9910 0.9910 0.9910
2731.806624 0.9910 0.9910 0.9910 0.9910 0.9910
2736.509743 0.9910 0.9910 0.9910 0.9910 0.9910
2741.212862 0.9910 0.9910 0.9910 0.9910 0.9910
2745.915980 0.9910 0.9910 0.9915 0.9920 0.9920
2750.619099 0.9920 0.9905 0.9891 0.9890 0.9890
2755.322218 0.9890 0.9890 0.9890 0.9890 0.9899
2760.025336 0.9909 0.9910 0.9910 0.9910 0.9910
2764.728455 0.9910 0.9910 0.9910 0.9910 0.9910
2769.431574 0.9910 0.9901 0.9891 0.9890 0.9890
2774.134692 0.9890 0.9890 0.9890 0.9890 0.9890
2778.837811 0.9890 0.9886 0.9881 0.9880 0.9880
2783.540930 0.9880 0.9880 0.9880 0.9880 0.9880
2788.244048 0.9880 0.9880 0.9880 0.9884 0.9889
2792.947167 0.9890 0.9890 0.9890 0.9890 0.9890
2797.650286 0.9890 0.9890 0.9890 0.9886 0.9881
2802.353404 0.9873 0.9863 0.9860 0.9860 0.9867
2807.056523 0.9877 0.9880 0.9880 0.9880 0.9880
2811.759642 0.9880 0.9880 0.9880 0.9880 0.9880
2816.462760 0.9880 0.9874 0.9864 0.9857 0.9852
2821.165879 0.9844 0.9834 0.9830 0.9830 0.9827
2825.868998 0.9822 0.9820 0.9820 0.9812 0.9797
2830.572116 0.9785 0.9774 0.9770 0.9770 0.9767
2835.275235 0.9762 0.9760 0.9760 0.9763 0.9768
2839.978354 0.9775 0.9785 0.9792 0.9797 0.9800
2844.681472 0.9800 0.9800 0.9800 0.9805 0.9814
2849.384591 0.9820 0.9820 0.9820 0.9820 0.9816
2854.087710 0.9806 0.9794 0.9779 0.9756 0.9721
2858.790828 0.9678 0.9623 0.9588 0.9583 0.9580
2863.493947 0.9580 0.9582 0.9587 0.9599 0.9624
2868.197066 0.9652 0.9687 0.9715 0.9730 0.9743
2872.900184 0.9753 0.9760 0.9760 0.9762 0.9767
2877.603303 0.9770 0.9770 0.9769 0.9764 0.9757
2882.306422 0.9747 0.9740 0.9740 0.9740 0.9740
2887.009540 0.9739 0.9734 0.9728 0.9718 0.9709
2891.712659 0.9704 0.9700 0.9700 0.9698 0.9688
2896.415778 0.9677 0.9662 0.9646 0.9626 0.9605
2901.118897 0.9575 0.9548 0.9533 0.9520 0.9520
2905.822015 0.9516 0.9491 0.9463 0.9413 0.9355
2910.525134 0.9246 0.9139 0.9049 0.8958 0.8854
2915.228253 0.8750 0.8645 0.8543 0.8458 0.8372
2919.931371 0.8268 0.8163 0.8048 0.7940 0.7940
2924.634490 0.7944 0.8044 0.8144 0.8234 0.8324
2929.337609 0.8423 0.8527 0.8815 0.9101 0.9160
2934.040727 0.9220 0.9235 0.9250 0.9250 0.9250
2938.743846 0.9250 0.9250 0.9236 0.9221 0.9215
2943.446965 0.9210 0.9201 0.9191 0.9185 0.9180
2948.150083 0.9157 0.9132 0.9084 0.9034 0.8949
2952.853202 0.8859 0.8810 0.8765 0.8703 0.8638
2957.556321 0.8495 0.8341 0.8217 0.8098 0.7987
2962.259439 0.7878 0.7747 0.7611 0.7577 0.7562
2966.962558 0.7560 0.7560 0.7601 0.7651 0.7817
2971.665677 0.8011 0.8101 0.8166 0.8203 0.8233
2976.368795 0.8252 0.8266 0.8278 0.8287 0.8290
2981.071914 0.8290 0.8260 0.8220 0.8177 0.8132
2985.775033 0.8073 0.8008 0.7947 0.7887 0.7676
2990.478151 0.7403 0.7213 0.7059 0.6888 0.6709
2995.181270 0.6537 0.6368 0.6192 0.6013 0.5950
2999.884389 0.5950 0.6062 0.6237 0.6409 0.6578
3004.587507 0.6747 0.6916 0.7066 0.7205 0.7290
3009.290626 0.7340 0.7428 0.7542 0.7677 0.7826
3013.993745 0.7944 0.8038 0.8113 0.8173 0.8233
3018.696863 0.8292 0.8336 0.8366 0.8402 0.8441
3023.399982 0.8481 0.8521 0.8571 0.8631 0.8693
3028.103101 0.8757 0.8795 0.8805 0.8810 0.8810
3032.806219 0.8805 0.8795 0.8790 0.8790 0.8788
3037.509338 0.8783 0.8769 0.8744 0.8684 0.8580
3042.212457 0.8492 0.8428 0.8371 0.8327 0.8282
3046.915575 0.8237 0.8138 0.7954 0.7798 0.7689
3051.618694 0.7583 0.7484 0.7381 0.7272 0.7195
3056.321813 0.7180 0.7175 0.7190 0.7230 0.7320
3061.024931 0.7411 0.7505 0.7608 0.7727 0.7818
3065.728050 0.7842 0.7914 0.8098 0.8295 0.8529
3070.431169 0.8737 0.8876 0.9005 0.9105 0.9199
3075.134287 0.9279 0.9347 0.9377 0.9414 0.9474
3079.837406 0.9527 0.9557 0.9583 0.9598 0.9616
3084.540525 0.9646 0.9673 0.9688 0.9701 0.9706
3089.243643 0.9712 0.9727 0.9742 0.9751 0.9761
3093.946762 0.9766 0.9771 0.9781 0.9791 0.9796
3098.649881 0.9801 0.9811 0.9821 0.9826 0.9830
3103.352999 0.9830 0.9831 0.9841 0.9850 0.9850
3108.056118 0.9850 0.9850 0.9850 0.9855 0.9860
3112.759237 0.9860 0.9860 0.9860 0.9860 0.9870
3117.462355 0.9880 0.9885 0.9890 0.9890 0.9890
3122.165474 0.9890 0.9890 0.9890 0.9890 0.9890
3126.868593 0.9890 0.9890 0.9890 0.9890 0.9890
3131.571711 0.9890 0.9890 0.9890 0.9890 0.9890
3136.274830 0.9890 0.9899 0.9909 0.9910 0.9910
3140.977949 0.9914 0.9919 0.9920 0.9920 0.9920
3145.681067 0.9920 0.9929 0.9939 0.9940 0.9940
3150.384186 0.9940 0.9940 0.9940 0.9940 0.9940
3155.087305 0.9940 0.9940 0.9940 0.9944 0.9949
3159.790424 0.9950 0.9950 0.9950 0.9950 0.9958
3164.493542 0.9968 0.9970 0.9970 0.9970 0.9970
3169.196661 0.9970 0.9970 0.9974 0.9979 0.9980
3173.899780 0.9980 0.9980 0.9980 0.9980 0.9980
3178.602898 0.9980 0.9980 0.9987 0.9997 1.0000
3183.306017 1.0000 1.0000 1.0000 1.0000 1.0000
3188.009136 1.0000 1.0000 1.0000 1.0000 1.0000
3192.712254 1.0000 1.0000 1.0000 1.0000 1.0000
3197.415373 1.0000 1.0000 1.0000 1.0000 1.0003
3202.118492 1.0008 1.0010 1.0010 1.0010 1.0010
3206.821610 1.0010 1.0010 1.0010 1.0010 1.0010
3211.524729 1.0010 1.0010 1.0010 1.0010 1.0010
3216.227848 1.0010 1.0010 1.0010 1.0010 1.0010
3220.930966 1.0010 1.0010 1.0010 1.0010 1.0010
3225.634085 1.0010 1.0010 1.0010 1.0010 1.0010
3230.337204 1.0010 1.0012 1.0017 1.0020 1.0020
3235.040322 1.0020 1.0020 1.0020 1.0020 1.0020
3239.743441 1.0020 1.0020 1.0020 1.0020 1.0020
3244.446560 1.0020 1.0020 1.0020 1.0020 1.0020
3249.149678 1.0020 1.0023 1.0033 1.0042 1.0047
3253.852797 1.0050 1.0050 1.0050 1.0050 1.0050
3258.555916 1.0050 1.0050 1.0050 1.0050 1.0050
3263.259034 1.0050 1.0050 1.0050 1.0050 1.0050
3267.962153 1.0050 1.0050 1.0050 1.0050 1.0050
3272.665272 1.0050 1.0050 1.0050 1.0050 1.0050
3277.368390 1.0050 1.0050 1.0050 1.0050 1.0050
3282.071509 1.0050 1.0050 1.0050 1.0050 1.0050
3286.774628 1.0050 1.0050 1.0050 1.0050 1.0050
3291.477746 1.0050 1.0050 1.0050 1.0050 1.0050
3296.180865 1.0050 1.0050 1.0050 1.0050 1.0050
3300.883984 1.0050 1.0050 1.0050 1.0050 1.0050
3305.587102 1.0060 1.0070 1.0070 1.0070 1.0070
3310.290221 1.0070 1.0070 1.0070 1.0075 1.0080
3314.993340 1.0080 1.0080 1.0080 1.0080 1.0080
3319.696458 1.0080 1.0080 1.0080 1.0080 1.0080
3324.399577 1.0080 1.0080 1.0080 1.0080 1.0080
3329.102696 1.0080 1.0080 1.0080 1.0080 1.0080
3333.805814 1.0080 1.0080 1.0080 1.0080 1.0080
3338.508933 1.0080 1.0080 1.0080 1.0080 1.0080
3343.212052 1.0080 1.0080 1.0080 1.0080 1.0080
3347.915170 1.0080 1.0080 1.0080 1.0088 1.0098
3352.618289 1.0100 1.0100 1.0104 1.0109 1.0110
3357.321408 1.0110 1.0110 1.0110 1.0117 1.0127
3362.024526 1.0130 1.0130 1.0130 1.0130 1.0130
3366.727645 1.0130 1.0130 1.0130 1.0130 1.0130
3371.430764 1.0133 1.0138 1.0140 1.0140 1.0140
3376.133882 1.0140 1.0140 1.0140 1.0140 1.0140
3380.837001 1.0146 1.0156 1.0160 1.0160 1.0160
3385.540120 1.0160 1.0160 1.0160 1.0160 1.0160
3390.243238 1.0154 1.0145 1.0137 1.0132 1.0130
3394.946357 1.0130 1.0130 1.0130 1.0130 1.0130
3399.649476 1.0133 1.0138 1.0137 1.0133 1.0130
3404.352594 1.0130 1.0130 1.0130 1.0130 1.0130
3409.055713 1.0130 1.0130 1.0126 1.0116 1.0110
3413.758832 1.0110 1.0110 1.0110 1.0108 1.0103
3418.461951 1.0100 1.0100 1.0100 1.0100 1.0100
3423.165069 1.0100 1.0100 1.0100 1.0100 1.0100
3427.868188 1.0096 1.0087 1.0080 1.0080 1.0080
3432.571307 1.0080 1.0080 1.0080 1.0080 1.0080
3437.274425 1.0080 1.0080 1.0079 1.0074 1.0070
3441.977544 1.0070 1.0070 1.0070 1.0070 1.0070
3446.680663 1.0070 1.0070 1.0068 1.0058 1.0050
3451.383781 1.0050 1.0050 1.0050 1.0050 1.0050
3456.086900 1.0050 1.0050 1.0050 1.0050 1.0050
3460.790019 1.0050 1.0049 1.0044 1.0040 1.0040
3465.493137 1.0040 1.0040 1.0040 1.0040 1.0040
3470.196256 1.0040 1.0040 1.0040 1.0040 1.0040
3474.899375 1.0039 1.0029 1.0020 1.0020 1.0020
3479.602493 1.0020 1.0020 1.0020 1.0020 1.0020
3484.305612 1.0020 1.0020 1.0020 1.0020 1.0020
3489.008731 1.0020 1.0020 1.0020 1.0020 1.0015
3493.711849 1.0010 1.0010 1.0010 1.0010 1.0010
3498.414968 1.0010 1.0010 1.0010 1.0010 1.0010
3503.118087 1.0010 1.0010 1.0010 1.0010 1.0010
3507.821205 1.0010 1.0010 1.0010 1.0010 1.0010
3512.524324 1.0010 1.0010 1.0010 1.0010 1.0010
3517.227443 1.0010 1.0010 1.0010 1.0010 1.0010
3521.930561 1.0010 1.0010 1.0010 1.0010 1.0010
3526.633680 1.0010 1.0010 1.0010 1.0010 1.0010
3531.336799 1.0010 1.0010 1.0010 1.0010 1.0010
3536.039917 1.0010 1.0010 1.0010 1.0010 1.0010
3540.743036 1.0010 1.0010 1.0010 1.0010 1.0010
3545.446155 1.0010 1.0010 1.0014 1.0019 1.0020
3550.149273 1.0020 1.0020 1.0020 1.0020 1.0020
3554.852392 1.0020 1.0020 1.0020 1.0020 1.0020
3559.555511 1.0020 1.0020 1.0020 1.0020 1.0020
3564.258629 1.0026 1.0036 1.0040 1.0040 1.0034
3568.961748 1.0024 1.0020 1.0020 1.0020 1.0020
3573.664867 1.0017 1.0012 1.0010 1.0010 1.0010
3578.367985 1.0010 1.0010 1.0010 1.0010 1.0010
3583.071104 1.0010 1.0010 1.0008 1.0003 1.0000
3587.774223 1.0000 1.0000 1.0000 1.0000 1.0000
3592.477341 1.0000 1.0000 1.0000 1.0000 0.9995
3597.180460 0.9985 0.9978 0.9973 0.9970 0.9970
3601.883579 0.9970 0.9970 0.9970 0.9970 0.9966
3606.586697 0.9956 0.9950 0.9950 0.9950 0.9950
3611.289816 0.9948 0.9943 0.9940 0.9940 0.9940
3615.992935 0.9940 0.9942 0.9947 0.9950 0.9950
3620.696053 0.9950 0.9950 0.9950 0.9950 0.9953
3625.399172 0.9963 0.9972 0.9977 0.9983 0.9993
3630.102291 1.0000 1.0000 1.0001 1.0006 1.0010
3634.805409 1.0010 1.0010 1.0010 1.0010 1.0010
3639.508528 1.0010 1.0010 1.0009 1.0004 0.9998
3644.211647 0.9988 0.9979 0.9974 0.9970 0.9970
3648.914765 0.9971 0.9976 0.9982 0.9992 1.0001
3653.617884 1.0006 1.0010 1.0010 1.0010 1.0010
3658.321003 1.0010 1.0010 1.0010 1.0010 1.0011
3663.024121 1.0015 1.0020 1.0020 1.0018 0.9998
3667.727240 0.9981 0.9991 1.0000 1.0000 1.0000
3672.430359 1.0000 1.0000 1.0005 1.0010 1.0010
3677.133478 1.0010 1.0010 1.0010 1.0005 1.0000
3681.836596 1.0005 1.0010 1.0015 1.0020 1.0020
3686.539715 1.0020 1.0030 1.0040 1.0040 1.0040
3691.242834 1.0040 1.0040 1.0040 1.0040 1.0040
3695.945952 1.0040 1.0031 1.0021 1.0015 1.0011
3700.649071 1.0006 1.0000 1.0000 1.0000 1.0000
3705.352190 1.0000 1.0000 1.0000 1.0004 1.0009
3710.055308 1.0010 1.0010 1.0014 1.0019 1.0028
3714.758427 1.0038 1.0040 1.0040 1.0040 1.0040
3719.461546 1.0040 1.0040 1.0040 1.0040 1.0032
3724.164664 1.0022 1.0020 1.0020 1.0020 1.0020
3728.867783 1.0020 1.0020 1.0020 1.0020 1.0020
3733.570902 1.0020 1.0020 1.0020 1.0020 1.0020
3738.274020 1.0016 1.0012 1.0010 1.0010 1.0007
3742.977139 1.0002 1.0000 1.0000 1.0000 1.0000
3747.680258 1.0000 1.0000 0.9994 0.9984 0.9980
3752.383376 0.9980 0.9980 0.9980 0.9977 0.9972
3757.086495 0.9970 0.9970 0.9964 0.9954 0.9950
3761.789614 0.9950 0.9950 0.9950 0.9950 0.9950
3766.492732 0.9955 0.9965 0.9970 0.9970 0.9970
3771.195851 0.9970 0.9970 0.9970 0.9970 0.9970
3775.898970 0.9970 0.9970 0.9972 0.9977 0.9980
3780.602088 0.9980 0.9980 0.9980 0.9980 0.9980
3785.305207 0.9984 0.9994 1.0000 1.0000 1.0000
3790.008326 1.0000 1.0000 1.0000 1.0000 1.0000
##END=
