##TITLE=1-METHYLHEXAHYDROPYRIMIDINE
##JCAMP-DX=4.24
##DATA TYPE=INFRARED SPECTRUM
##CLASS=COBLENTZ
##ORIGIN=ABBOTT LABORATORIES - WASHBURN
##OWNER=COBLENTZ SOCIETY
Collection (C) 2018 copyright by the U.S. Secretary of Commerce
on behalf of the United States of America. All rights reserved.
##DATE=Not specified, most likely prior to 1970
##CAS REGISTRY NO=31952-00-8
##MOLFORM=C5 H12 N2
##SOURCE REFERENCE=COBLENTZ NO. 3374
##$NIST SOURCE=COBLENTZ
##$NIST IMAGE=cob3374
##SPECTROMETER/DATA SYSTEM=PERKIN-ELMER
##PATH LENGTH=CAPILLARY
##SAMPLING PROCEDURE=TRANSMISSION
##RESOLUTION=4
##DATA PROCESSING=DIGITIZED BY NIST FROM HARD COPY (FROM TWO SEGMENTS)
##XUNITS=MICROMETERS
##YUNITS=TRANSMITTANCE
##XFACTOR=1.000000
##YFACTOR=1
##DELTAX=0.007335
##FIRSTX=2.515
##LASTX=14.9924
##FIRSTY=0.85
##MAXX=14.9924
##MINX=2.515
##MAXY=0.927517
##MINY=0.079
##NPOINTS=1702
##XYDATA=(X++(Y..Y))
2.515000 0.8500 0.8500 0.8500 0.8500 0.8519
2.551677 0.8501 0.8500 0.8500 0.8500 0.8519
2.588353 0.8521 0.8541 0.8560 0.8570 0.8590
2.625030 0.8590 0.8590 0.8610 0.8610 0.8629
2.661706 0.8630 0.8649 0.8650 0.8650 0.8669
2.698383 0.8688 0.8690 0.8690 0.8699 0.8700
2.735059 0.8700 0.8700 0.8700 0.8700 0.8700
2.771736 0.8700 0.8716 0.8720 0.8736 0.8740
2.808412 0.8756 0.8760 0.8760 0.8730 0.8697
2.845089 0.8690 0.8675 0.8670 0.8656 0.8636
2.881765 0.8614 0.8577 0.8562 0.8528 0.8448
2.918442 0.8414 0.8394 0.8375 0.8370 0.8355
2.955118 0.8328 0.8305 0.8271 0.8246 0.8190
2.991795 0.8156 0.8108 0.8083 0.8026 0.7940
3.028471 0.7851 0.7723 0.7529 0.7228 0.6950
3.065148 0.6619 0.6367 0.6138 0.5888 0.5778
3.101824 0.5770 0.5832 0.6046 0.6278 0.6548
3.138501 0.6789 0.6964 0.7239 0.7486 0.7605
3.175177 0.7684 0.7765 0.7866 0.7946 0.7976
3.211854 0.8026 0.8071 0.8086 0.8090 0.8090
3.248531 0.8101 0.8110 0.8110 0.8110 0.8110
3.285207 0.8110 0.8110 0.8096 0.8061 0.8031
3.321884 0.7998 0.7953 0.7875 0.7754 0.7592
3.358560 0.7354 0.6962 0.6468 0.5935 0.4715
3.395237 0.3214 0.2265 0.1629 0.1037 0.0817
3.431913 0.0790 0.0802 0.0934 0.1328 0.1817
3.468590 0.2190 0.2387 0.2628 0.2849 0.3067
3.505266 0.3347 0.3430 0.3309 0.2986 0.2793
3.541943 0.2793 0.2934 0.3310 0.3756 0.4183
3.578619 0.4240 0.4219 0.3827 0.2645 0.1885
3.615296 0.1513 0.1147 0.1100 0.1171 0.1538
3.651972 0.1967 0.2350 0.2820 0.3138 0.3300
3.688649 0.3429 0.3567 0.3759 0.3898 0.3969
3.725325 0.4060 0.4262 0.4492 0.4649 0.4894
3.762002 0.5105 0.5337 0.5482 0.5652 0.5993
3.798678 0.6139 0.6263 0.6348 0.6402 0.6420
3.835355 0.6421 0.6437 0.6525 0.6698 0.6819
3.872031 0.7081 0.7107 0.7238 0.7413 0.7493
3.908708 0.7613 0.7760 0.7800 0.7800 0.7820
3.945385 0.7839 0.7850 0.7946 0.7978 0.7999
3.982061 0.8037 0.8123 0.8166 0.8188 0.8235
4.018738 0.8240 0.8240 0.8240 0.8240 0.8240
4.055414 0.8240 0.8259 0.8260 0.8260 0.8260
4.092091 0.8279 0.8280 0.8298 0.8318 0.8347
4.128767 0.8368 0.8405 0.8427 0.8473 0.8531
4.165444 0.8540 0.8540 0.8540 0.8540 0.8556
4.202120 0.8584 0.8622 0.8646 0.8650 0.8650
4.238797 0.8650 0.8650 0.8650 0.8650 0.8635
4.275473 0.8630 0.8644 0.8650 0.8636 0.8630
4.312150 0.8630 0.8630 0.8630 0.8630 0.8643
4.348826 0.8650 0.8650 0.8650 0.8665 0.8670
4.385503 0.8684 0.8697 0.8714 0.8734 0.8788
4.422179 0.8824 0.8830 0.8830 0.8843 0.8863
4.458856 0.8870 0.8845 0.8818 0.8810 0.8804
4.495532 0.8800 0.8800 0.8800 0.8800 0.8806
4.532209 0.8832 0.8871 0.8906 0.8920 0.8920
4.568885 0.8930 0.8940 0.8940 0.8949 0.8960
4.605562 0.8960 0.8960 0.8960 0.8960 0.8960
4.642239 0.8960 0.8979 0.9021 0.9030 0.9010
4.678915 0.9000 0.9000 0.9000 0.9000 0.9009
4.715592 0.9020 0.9029 0.9044 0.9059 0.9078
4.752268 0.9098 0.9110 0.9118 0.9130 0.9130
4.788945 0.9130 0.9130 0.9137 0.9150 0.9143
4.825621 0.9130 0.9130 0.9130 0.9130 0.9136
4.862298 0.9144 0.9130 0.9130 0.9130 0.9130
4.898974 0.9130 0.9121 0.9090 0.9090 0.9090
4.935651 0.9090 0.9090 0.9090 0.9090 0.9090
4.972327 0.9096 0.9110 0.9110 0.9110 0.9110
5.009004 0.9119 0.9145 0.9135 0.9150 0.9150
5.045680 0.9150 0.9150 0.9150 0.9152 0.9160
5.082357 0.9160 0.9160 0.9160 0.9152 0.9135
5.119033 0.9150 0.9150 0.9150 0.9150 0.9150
5.155710 0.9150 0.9152 0.9160 0.9160 0.9160
5.192386 0.9160 0.9160 0.9158 0.9146 0.9130
5.229063 0.9130 0.9130 0.9130 0.9135 0.9150
5.265739 0.9152 0.9165 0.9180 0.9180 0.9180
5.302416 0.9180 0.9174 0.9160 0.9166 0.9180
5.339093 0.9180 0.9174 0.9160 0.9175 0.9212
5.375769 0.9180 0.9184 0.9200 0.9200 0.9200
5.412446 0.9208 0.9240 0.9240 0.9240 0.9240
5.449122 0.9240 0.9250 0.9275 0.9260 0.9260
5.485799 0.9260 0.9260 0.9255 0.9245 0.9248
5.522475 0.9214 0.9200 0.9200 0.9206 0.9226
5.559152 0.9240 0.9240 0.9240 0.9240 0.9240
5.595828 0.9240 0.9244 0.9256 0.9232 0.9200
5.632505 0.9200 0.9200 0.9200 0.9200 0.9210
5.669181 0.9235 0.9220 0.9215 0.9200 0.9200
5.705858 0.9205 0.9220 0.9215 0.9200 0.9200
5.742534 0.9194 0.9180 0.9180 0.9180 0.9180
5.779211 0.9180 0.9180 0.9180 0.9180 0.9184
5.815887 0.9200 0.9200 0.9196 0.9176 0.9164
5.852564 0.9180 0.9176 0.9160 0.9158 0.9150
5.889240 0.9145 0.9125 0.9115 0.9125 0.9105
5.925917 0.9085 0.9065 0.9047 0.9040 0.9040
5.962593 0.9037 0.9020 0.9017 0.9003 0.9020
5.999270 0.9017 0.8997 0.8977 0.8960 0.8960
6.035947 0.8960 0.8956 0.8944 0.8956 0.8940
6.072623 0.8940 0.8940 0.8940 0.8935 0.8912
6.109300 0.8879 0.8850 0.8861 0.8895 0.8918
6.145976 0.8940 0.8951 0.8980 0.8975 0.8964
6.182653 0.8980 0.8980 0.8980 0.8984 0.9000
6.219329 0.9000 0.9000 0.9000 0.9004 0.9025
6.256006 0.9040 0.9031 0.9000 0.9005 0.9024
6.292682 0.9036 0.9024 0.9036 0.9020 0.9014
6.329359 0.9000 0.9000 0.9000 0.8995 0.8980
6.366035 0.8980 0.8980 0.8985 0.9000 0.9000
6.402712 0.9000 0.9000 0.9000 0.9000 0.9000
6.439388 0.9000 0.9000 0.9000 0.8996 0.8980
6.476065 0.8975 0.8960 0.8955 0.8940 0.8949
6.512741 0.8980 0.8975 0.8960 0.8960 0.8960
6.549418 0.8954 0.8934 0.8926 0.8940 0.8940
6.586094 0.8934 0.8920 0.8912 0.8880 0.8842
6.622771 0.8804 0.8776 0.8743 0.8655 0.8586
6.659447 0.8564 0.8508 0.8341 0.8220 0.8208
6.696124 0.8134 0.8008 0.7965 0.7926 0.7838
6.732801 0.7790 0.7698 0.7448 0.7212 0.6917
6.769477 0.6652 0.6496 0.6288 0.5984 0.5380
6.806154 0.4698 0.3909 0.3517 0.3399 0.3378
6.842830 0.3436 0.3572 0.3708 0.3740 0.3740
6.879507 0.3740 0.3726 0.3622 0.3403 0.3280
6.916183 0.3220 0.3268 0.3455 0.3642 0.3850
6.952860 0.4050 0.4259 0.4504 0.4705 0.4732
6.989536 0.4769 0.4802 0.4869 0.5013 0.5152
7.026213 0.5310 0.5785 0.6239 0.6415 0.6561
7.062889 0.6769 0.6886 0.7096 0.7245 0.7369
7.099566 0.7661 0.7821 0.7984 0.8004 0.8025
7.136242 0.8053 0.8111 0.8180 0.8210 0.8205
7.172919 0.8180 0.8127 0.8045 0.7976 0.7848
7.209595 0.7642 0.7410 0.7163 0.6952 0.6747
7.246272 0.6468 0.5992 0.5206 0.4304 0.3652
7.282948 0.3590 0.3743 0.4499 0.5348 0.5728
7.319625 0.5854 0.5940 0.5942 0.5955 0.6080
7.356301 0.6522 0.6955 0.7138 0.7334 0.7435
7.392978 0.7490 0.7618 0.7680 0.7710 0.7710
7.429655 0.7710 0.7710 0.7706 0.7679 0.7626
7.466331 0.7614 0.7637 0.7689 0.7808 0.7950
7.503008 0.8034 0.8082 0.8090 0.8090 0.8090
7.539684 0.8088 0.8067 0.8011 0.7978 0.7964
7.576361 0.7920 0.7840 0.7878 0.7980 0.7980
7.613037 0.7966 0.7906 0.7824 0.7763 0.7699
7.649714 0.7646 0.7624 0.7600 0.7596 0.7580
7.686390 0.7576 0.7553 0.7511 0.7449 0.7341
7.723067 0.7249 0.7129 0.7004 0.6743 0.6399
7.759743 0.6003 0.5595 0.5250 0.5028 0.4960
7.796420 0.5017 0.5276 0.5615 0.5789 0.5943
7.833096 0.5925 0.5829 0.5731 0.5618 0.5436
7.869773 0.5420 0.5420 0.5420 0.5416 0.5365
7.906449 0.5178 0.4908 0.4429 0.3918 0.3254
7.943126 0.2674 0.2560 0.2577 0.2661 0.2774
7.979802 0.2832 0.3150 0.4162 0.4648 0.5060
8.016479 0.5467 0.5875 0.6284 0.6638 0.6958
8.053155 0.7210 0.7380 0.7447 0.7519 0.7606
8.089832 0.7650 0.7744 0.7808 0.7840 0.7840
8.126509 0.7842 0.7850 0.7850 0.7848 0.7812
8.163185 0.7720 0.7675 0.7608 0.7495 0.7305
8.199862 0.7006 0.6558 0.6344 0.5994 0.5417
8.236538 0.4317 0.3333 0.2663 0.2275 0.2108
8.273215 0.2092 0.2315 0.2921 0.3380 0.3795
8.309891 0.4230 0.4604 0.4939 0.5256 0.5689
8.346568 0.6023 0.6321 0.6419 0.6494 0.6515
8.383244 0.6538 0.6588 0.6691 0.6750 0.6755
8.419921 0.6765 0.6745 0.6720 0.6642 0.6470
8.456597 0.6355 0.6279 0.6215 0.6156 0.6073
8.493274 0.5983 0.5893 0.5806 0.5705 0.5586
8.529950 0.5581 0.5648 0.5826 0.6193 0.6584
8.566627 0.6832 0.7042 0.7159 0.7338 0.7499
8.603303 0.7604 0.7689 0.7756 0.7800 0.7800
8.639980 0.7789 0.7755 0.7732 0.7699 0.7651
8.676656 0.7588 0.7471 0.7226 0.6964 0.6806
8.713333 0.6661 0.6463 0.6251 0.5924 0.5653
8.750009 0.5392 0.5085 0.4733 0.4265 0.3670
8.786686 0.3117 0.2677 0.2350 0.2205 0.2201
8.823363 0.2376 0.2837 0.3065 0.3196 0.3517
8.860039 0.3918 0.3951 0.3999 0.4050 0.4029
8.896716 0.3936 0.3911 0.3853 0.3776 0.3769
8.933392 0.3828 0.3943 0.4130 0.4352 0.4554
8.970069 0.4663 0.4796 0.4903 0.4985 0.4995
9.006745 0.4980 0.4975 0.4942 0.4822 0.4572
9.043422 0.4380 0.4305 0.4229 0.4206 0.4276
9.080098 0.4549 0.4944 0.5216 0.5534 0.5703
9.116775 0.5909 0.6048 0.6180 0.6474 0.6706
9.153451 0.6910 0.6986 0.7170 0.7312 0.7394
9.190128 0.7519 0.7616 0.7742 0.7794 0.7847
9.226804 0.7884 0.7935 0.7955 0.7978 0.8000
9.263481 0.8000 0.8000 0.7994 0.7971 0.7912
9.300157 0.7757 0.7557 0.7439 0.7405 0.7368
9.336834 0.7276 0.7260 0.7260 0.7260 0.7264
9.373510 0.7288 0.7334 0.7398 0.7438 0.7475
9.410187 0.7493 0.7500 0.7482 0.7413 0.7308
9.446863 0.7110 0.6958 0.6818 0.6643 0.6420
9.483540 0.6027 0.5421 0.4905 0.4620 0.4453
9.520216 0.4384 0.4379 0.4483 0.4756 0.5030
9.556893 0.5318 0.5471 0.5692 0.5837 0.5967
9.593570 0.6112 0.6330 0.6595 0.6750 0.6841
9.630246 0.6918 0.6988 0.7045 0.7060 0.7014
9.666923 0.6847 0.6712 0.6524 0.6252 0.6034
9.703599 0.5818 0.5758 0.5730 0.5742 0.5855
9.740276 0.6126 0.6370 0.6569 0.6699 0.6837
9.776952 0.6974 0.7001 0.7040 0.7012 0.6871
9.813629 0.6654 0.6343 0.6171 0.5867 0.5216
9.850305 0.4955 0.4945 0.5003 0.5155 0.5372
9.886982 0.5829 0.6236 0.6524 0.6766 0.6907
9.923658 0.7032 0.7143 0.7299 0.7381 0.7476
9.960335 0.7490 0.7493 0.7500 0.7500 0.7518
9.997011 0.7596 0.7668 0.7755 0.7840 0.7782
10.033688 0.7517 0.7289 0.7228 0.7138 0.7070
10.070364 0.6965 0.6872 0.6756 0.6593 0.6421
10.107041 0.6233 0.6026 0.5826 0.5620 0.5405
10.143717 0.5205 0.5009 0.4822 0.4645 0.4479
10.180394 0.4264 0.3944 0.3663 0.3429 0.3217
10.217070 0.3040 0.2854 0.2614 0.2379 0.2175
10.253747 0.2048 0.1996 0.1945 0.1930 0.1936
10.290424 0.1993 0.2145 0.2314 0.2518 0.2763
10.327100 0.3037 0.3352 0.3704 0.4108 0.4487
10.363777 0.4817 0.5105 0.5381 0.5642 0.5914
10.400453 0.6190 0.6427 0.6586 0.6800 0.6924
10.437130 0.7080 0.7184 0.7347 0.7447 0.7514
10.473806 0.7572 0.7634 0.7741 0.7868 0.7970
10.510483 0.8032 0.8086 0.8156 0.8184 0.8226
10.547159 0.8246 0.8254 0.8240 0.8235 0.8218
10.583836 0.8194 0.8122 0.8090 0.8098 0.8138
10.620512 0.8174 0.8196 0.8236 0.8323 0.8415
10.657189 0.8435 0.8453 0.8465 0.8480 0.8480
10.693865 0.8485 0.8500 0.8500 0.8500 0.8500
10.730542 0.8506 0.8532 0.8560 0.8560 0.8560
10.767218 0.8560 0.8560 0.8560 0.8544 0.8496
10.803895 0.8476 0.8458 0.8450 0.8446 0.8430
10.840571 0.8422 0.8386 0.8360 0.8311 0.8275
10.877248 0.8255 0.8222 0.8142 0.8045 0.7995
10.913924 0.7952 0.7847 0.7767 0.7660 0.7411
10.950601 0.7212 0.7038 0.6923 0.6663 0.6295
10.987278 0.5870 0.5410 0.4966 0.4588 0.4301
11.023954 0.4049 0.3745 0.3686 0.3670 0.3674
11.060631 0.3720 0.3910 0.4237 0.4474 0.4924
11.097307 0.5258 0.5486 0.5583 0.5765 0.5900
11.133984 0.6034 0.6111 0.6158 0.6210 0.6210
11.170660 0.6204 0.6146 0.6025 0.5913 0.5730
11.207337 0.5556 0.5419 0.5283 0.5128 0.4936
11.244013 0.4661 0.4435 0.4316 0.4171 0.4059
11.280690 0.4011 0.3984 0.4036 0.4235 0.4546
11.317366 0.4792 0.5054 0.5368 0.5770 0.6076
11.354043 0.6310 0.6522 0.6674 0.6741 0.6833
11.390719 0.6896 0.6976 0.6984 0.6970 0.6935
11.427396 0.6831 0.6716 0.6530 0.6292 0.6054
11.464072 0.5949 0.5828 0.5646 0.5600 0.5605
11.500749 0.5660 0.5811 0.5924 0.6109 0.6278
11.537425 0.6488 0.6784 0.7018 0.7165 0.7244
11.574102 0.7297 0.7360 0.7441 0.7538 0.7587
11.610778 0.7603 0.7623 0.7657 0.7683 0.7720
11.647455 0.7747 0.7760 0.7753 0.7740 0.7740
11.684132 0.7740 0.7733 0.7700 0.7665 0.7645
11.720808 0.7623 0.7600 0.7581 0.7512 0.7478
11.757485 0.7430 0.7374 0.7348 0.7314 0.7294
11.794161 0.7274 0.7240 0.7184 0.7157 0.7108
11.830838 0.7060 0.7052 0.7010 0.6962 0.6926
11.867514 0.6908 0.6896 0.6876 0.6852 0.6807
11.904191 0.6760 0.6725 0.6700 0.6658 0.6615
11.940867 0.6595 0.6575 0.6555 0.6532 0.6504
11.977544 0.6472 0.6427 0.6408 0.6368 0.6328
12.014220 0.6291 0.6264 0.6244 0.6225 0.6204
12.050897 0.6167 0.6109 0.6070 0.6057 0.6006
12.087573 0.5986 0.5964 0.5932 0.5891 0.5847
12.124250 0.5794 0.5740 0.5697 0.5645 0.5597
12.160926 0.5585 0.5565 0.5545 0.5525 0.5498
12.197603 0.5467 0.5454 0.5440 0.5446 0.5463
12.234279 0.5476 0.5502 0.5536 0.5550 0.5546
12.270956 0.5530 0.5530 0.5521 0.5479 0.5444
12.307632 0.5460 0.5456 0.5436 0.5406 0.5347
12.344309 0.5281 0.5195 0.5169 0.5140 0.5135
12.380986 0.5107 0.5065 0.5026 0.4949 0.4891
12.417662 0.4811 0.4754 0.4695 0.4602 0.4514
12.454339 0.4459 0.4364 0.4328 0.4269 0.4231
12.491015 0.4189 0.4145 0.4130 0.4135 0.4157
12.527692 0.4193 0.4256 0.4339 0.4475 0.4637
12.564368 0.4799 0.4930 0.5046 0.5170 0.5280
12.601045 0.5387 0.5479 0.5530 0.5541 0.5593
12.637721 0.5653 0.5690 0.5710 0.5707 0.5687
12.674398 0.5660 0.5654 0.5618 0.5552 0.5472
12.711074 0.5341 0.5291 0.5204 0.5120 0.5094
12.747751 0.4980 0.4838 0.4661 0.4503 0.4406
12.784427 0.4353 0.4296 0.4232 0.4152 0.4119
12.821104 0.4090 0.4079 0.4047 0.4040 0.4040
12.857780 0.4040 0.4043 0.4050 0.4063 0.4097
12.894457 0.4110 0.4117 0.4137 0.4150 0.4150
12.931133 0.4152 0.4165 0.4180 0.4180 0.4185
12.967810 0.4200 0.4195 0.4180 0.4180 0.4174
13.004486 0.4160 0.4157 0.4150 0.4144 0.4130
13.041163 0.4124 0.4093 0.4047 0.4028 0.3993
13.077840 0.3960 0.3896 0.3833 0.3780 0.3726
13.114516 0.3697 0.3683 0.3657 0.3611 0.3557
13.151193 0.3497 0.3425 0.3405 0.3372 0.3315
13.187869 0.3290 0.3255 0.3235 0.3217 0.3210
13.224546 0.3204 0.3190 0.3178 0.3144 0.3124
13.261222 0.3116 0.3136 0.3162 0.3195 0.3216
13.297899 0.3244 0.3264 0.3288 0.3326 0.3367
13.334575 0.3449 0.3524 0.3563 0.3678 0.3788
13.371252 0.3820 0.3860 0.3903 0.3956 0.4018
13.407928 0.4085 0.4153 0.4238 0.4317 0.4412
13.444605 0.4466 0.4502 0.4584 0.4678 0.4732
13.481281 0.4775 0.4831 0.4892 0.4931 0.4975
13.517958 0.5050 0.5142 0.5235 0.5299 0.5341
13.554634 0.5384 0.5413 0.5466 0.5499 0.5546
13.591311 0.5609 0.5665 0.5704 0.5781 0.5823
13.627987 0.5871 0.5913 0.5961 0.6007 0.6060
13.664664 0.6099 0.6153 0.6196 0.6249 0.6299
13.701340 0.6320 0.6332 0.6366 0.6392 0.6427
13.738017 0.6459 0.6501 0.6545 0.6574 0.6631
13.774694 0.6675 0.6694 0.6714 0.6735 0.6756
13.811370 0.6789 0.6865 0.6941 0.6984 0.7031
13.848047 0.7065 0.7085 0.7105 0.7126 0.7143
13.884723 0.7150 0.7156 0.7176 0.7196 0.7216
13.921400 0.7240 0.7266 0.7280 0.7286 0.7300
13.958076 0.7305 0.7334 0.7392 0.7430 0.7435
13.994753 0.7450 0.7459 0.7492 0.7500 0.7506
14.031429 0.7531 0.7560 0.7560 0.7566 0.7580
14.068106 0.7586 0.7600 0.7600 0.7603 0.7610
14.104782 0.7617 0.7630 0.7637 0.7650 0.7650
14.141459 0.7657 0.7670 0.7677 0.7696 0.7715
14.178135 0.7730 0.7732 0.7740 0.7745 0.7765
14.214812 0.7775 0.7760 0.7765 0.7780 0.7780
14.251488 0.7786 0.7800 0.7806 0.7820 0.7820
14.288165 0.7820 0.7820 0.7820 0.7820 0.7813
14.324841 0.7800 0.7807 0.7820 0.7820 0.7830
14.361518 0.7857 0.7877 0.7890 0.7890 0.7890
14.398194 0.7890 0.7890 0.7890 0.7885 0.7870
14.434871 0.7870 0.7870 0.7865 0.7850 0.7862
14.471548 0.7890 0.7890 0.7890 0.7890 0.7890
14.508224 0.7890 0.7890 0.7890 0.7890 0.7890
14.544901 0.7890 0.7890 0.7890 0.7890 0.7890
14.581577 0.7890 0.7890 0.7890 0.7890 0.7890
14.618254 0.7890 0.7885 0.7870 0.7875 0.7890
14.654930 0.7885 0.7870 0.7870 0.7862 0.7828
14.691607 0.7788 0.7760 0.7766 0.7780 0.7780
14.728283 0.7780 0.7774 0.7760 0.7760 0.7760
14.764960 0.7760 0.7760 0.7764 0.7780 0.7780
14.801636 0.7780 0.7780 0.7784 0.7791 0.7760
14.838313 0.7760 0.7755 0.7740 0.7740 0.7740
14.874989 0.7737 0.7725 0.7710 0.7710 0.7710
14.911666 0.7704 0.7677 0.7637 0.7610 0.7616
14.948342 0.7630 0.7636 0.7662 0.7690 0.7685
14.985019 0.7670 0.7661
##END=
