##TITLE=UREA, 1-(2-CHLOROETHYL)-3-MESITYL-1-NITROSO-
##JCAMP-DX=4.24
##DATA TYPE=INFRARED SPECTRUM
##CLASS=COBLENTZ III
##ORIGIN=SOUTHERN RES. INSTITUTE
##OWNER=COBLENTZ SOCIETY
Collection (C) 2018 copyright by the U.S. Secretary of Commerce
on behalf of the United States of America. All rights reserved.
##DATE=1966/05/27
##NAMES=1-(2-chloroethyl)-1-[(mesitylamino)carbonyl]-2-oxohydrazine
##CAS REGISTRY NO=33022-06-9
##MOLFORM=C12 H16 Cl N3 O2
##SOURCE REFERENCE=COBLENTZ NO. 7747
##$NIST SOURCE=COBLENTZ
##$NIST IMAGE=cob7747
##SPECTROMETER/DATA SYSTEM=PERKIN-ELMER 521 (GRATING)
##INSTRUMENT PARAMETERS=FILTERS AT 3150, 2500, 2000, 1150, 700, 410 CM ^-^1, GRATING CHANGES AT 2000, 630 CM^-^1
##STATE=SOLID (1 mg / 650 mg KBr DISC)
##SAMPLING PROCEDURE=TRANSMISSION
##RESOLUTION=4
##DATA PROCESSING=DIGITIZED BY NIST FROM HARD COPY
##XUNITS=1/CM
##YUNITS=TRANSMITTANCE
##XFACTOR=1.000000
##YFACTOR=1
##DELTAX=001.534296
##FIRSTX=223.014
##LASTX=3799.46
##FIRSTY=0.325
##MAXX=3799.46
##MINX=223.014
##MAXY=0.881
##MINY=0.172
##NPOINTS=2332
##XYDATA=(X++(Y..Y))
223.014000 0.3250 0.3250 0.3410 0.3530 0.3610
230.688773 0.3670 0.3700 0.3730 0.3760 0.3800
238.357000 0.3860 0.3930 0.3970 0.4010 0.4090
246.031773 0.4170 0.4260 0.4350 0.4450 0.4540
253.700000 0.4640 0.4740 0.4840 0.4930 0.5030
261.374773 0.5130 0.5230 0.5330 0.5420 0.5500
269.043000 0.5600 0.5670 0.5750 0.5820 0.5880
276.717773 0.6010 0.6090 0.6150 0.6180 0.6200
284.386000 0.6200 0.6210 0.6220 0.6230 0.6260
292.060773 0.6280 0.6340 0.6490 0.6610 0.6720
299.729000 0.6800 0.6870 0.6930 0.6980 0.6990
307.403773 0.7010 0.7030 0.7050 0.7060 0.7070
315.072000 0.7080 0.7080 0.7100 0.7120 0.7140
322.746773 0.7170 0.7210 0.7270 0.7330 0.7340
330.415000 0.7360 0.7370 0.7370 0.7370 0.7360
338.089773 0.7360 0.7350 0.7350 0.7340 0.7320
345.758000 0.7270 0.7200 0.7130 0.6940 0.6930
353.432773 0.6930 0.6960 0.7020 0.7080 0.7150
361.101000 0.7340 0.7350 0.7390 0.7390 0.7370
368.775773 0.7330 0.7280 0.7240 0.7200 0.7160
376.444000 0.7110 0.7090 0.7100 0.7200 0.7310
384.118773 0.7310 0.7530 0.7700 0.7740 0.7750
391.787000 0.7750 0.7920 0.8000 0.8070 0.8070
399.461773 0.8100 0.8110 0.8130 0.8150 0.8170
407.130000 0.8180 0.8190 0.8190 0.8190 0.8190
414.804773 0.8190 0.8190 0.8180 0.8180 0.8180
422.473000 0.8170 0.8170 0.8160 0.8160 0.8160
430.147773 0.8160 0.8160 0.8160 0.8160 0.8160
437.816000 0.8160 0.8160 0.8160 0.8160 0.8160
445.490773 0.8160 0.8150 0.8150 0.8150 0.8140
453.159000 0.8140 0.8140 0.8140 0.8130 0.8130
460.833773 0.8130 0.8120 0.8120 0.8110 0.8110
468.502000 0.8110 0.8100 0.8100 0.8100 0.8070
476.176773 0.8060 0.8030 0.7990 0.7970 0.7930
483.845000 0.7810 0.7770 0.7740 0.7720 0.7700
491.519773 0.7690 0.7680 0.7670 0.7670 0.7660
499.188000 0.7630 0.7590 0.7550 0.7490 0.7410
506.862773 0.7180 0.7180 0.7210 0.7230 0.7380
514.531000 0.7400 0.7400 0.7380 0.7210 0.7180
522.205773 0.7150 0.7120 0.7090 0.7080 0.7070
529.874000 0.7050 0.6930 0.6930 0.6950 0.7030
537.548773 0.7110 0.7310 0.7330 0.7330 0.7310
545.217000 0.7300 0.7280 0.7260 0.7240 0.7230
552.891773 0.6860 0.6620 0.6390 0.6160 0.6160
560.560000 0.6530 0.6730 0.6870 0.7020 0.7190
568.234773 0.7210 0.7250 0.7290 0.7330 0.7370
575.903000 0.7400 0.7430 0.7430 0.7420 0.7380
583.577773 0.7350 0.7340 0.7340 0.7330 0.7330
591.245000 0.7340 0.7390 0.7430 0.7440 0.7480
598.919773 0.7540 0.7620 0.7690 0.7770 0.7820
606.588000 0.7830 0.7850 0.7860 0.7870 0.7870
614.262773 0.7900 0.7910 0.7920 0.7930 0.7940
621.931000 0.7940 0.7940 0.7940 0.7950 0.7950
629.605773 0.7950 0.7950 0.7950 0.7940 0.7940
637.274000 0.7940 0.7930 0.7920 0.7910 0.7880
644.948773 0.7850 0.7750 0.7610 0.6850 0.6300
652.617000 0.6300 0.6370 0.6560 0.6600 0.6860
660.291773 0.7030 0.7190 0.7450 0.7660 0.7820
667.960000 0.7950 0.8040 0.8110 0.8160 0.8200
675.634773 0.8240 0.8280 0.8300 0.8310 0.8310
683.303000 0.8310 0.8320 0.8320 0.8310 0.8300
690.977773 0.8280 0.8250 0.8240 0.8190 0.8130
698.646000 0.8050 0.8030 0.7860 0.6960 0.6700
706.320773 0.6690 0.6700 0.6930 0.7040 0.7150
713.989000 0.7570 0.7940 0.8290 0.8290 0.8300
721.663773 0.8290 0.8250 0.8220 0.8180 0.8160
729.332000 0.8140 0.8130 0.8130 0.8130 0.8120
737.006773 0.8100 0.8060 0.8020 0.7890 0.7660
744.675000 0.6540 0.6540 0.7030 0.7520 0.7530
752.349773 0.7530 0.7500 0.7470 0.7370 0.7270
760.018000 0.6930 0.6660 0.6600 0.6500 0.6360
767.692773 0.6340 0.6350 0.6730 0.6740 0.6910
775.361000 0.7080 0.7080 0.6580 0.6420 0.5640
783.035773 0.5250 0.5250 0.5960 0.6140 0.6410
790.704000 0.6640 0.6860 0.6960 0.7050 0.7220
798.378773 0.7380 0.7530 0.7650 0.7780 0.7890
806.047000 0.7960 0.8000 0.8030 0.8040 0.8050
813.721773 0.8050 0.8050 0.8060 0.8060 0.8050
821.390000 0.8030 0.7990 0.7950 0.7940 0.7930
829.064773 0.7890 0.7840 0.7780 0.7720 0.7700
836.733000 0.6770 0.5880 0.5430 0.4960 0.4490
844.407773 0.4490 0.4780 0.5360 0.5820 0.6480
852.076000 0.6800 0.7120 0.7120 0.6980 0.6880
859.750773 0.6780 0.6660 0.6550 0.6550 0.6640
867.419000 0.6820 0.7000 0.7180 0.7350 0.7470
875.093773 0.7520 0.7590 0.7630 0.7640 0.7650
882.762000 0.7630 0.7620 0.7610 0.7600 0.7550
890.436773 0.7460 0.7340 0.7210 0.6930 0.6800
898.105000 0.6680 0.6580 0.6510 0.6480 0.6470
905.779773 0.6460 0.6470 0.6480 0.6560 0.6660
913.448000 0.6730 0.6810 0.6900 0.6980 0.7050
921.122773 0.7250 0.7340 0.7340 0.7330 0.7310
928.791000 0.7280 0.7150 0.6940 0.6840 0.6740
936.465773 0.6600 0.6280 0.5880 0.5570 0.4970
944.134000 0.4640 0.3930 0.3580 0.3240 0.3240
951.808773 0.3510 0.3780 0.4050 0.4390 0.4830
959.477000 0.4840 0.4700 0.4560 0.4430 0.4430
967.151773 0.4590 0.4770 0.4930 0.5440 0.5460
974.820000 0.5720 0.5990 0.6260 0.6790 0.6790
982.494773 0.6770 0.6690 0.6550 0.6510 0.6410
990.162000 0.6260 0.6100 0.5960 0.5810 0.5670
997.836773 0.5660 0.5670 0.5900 0.6110 0.6120
1005.505000 0.6290 0.6480 0.6640 0.6770 0.6900
1013.179773 0.6970 0.7030 0.7150 0.7150 0.7160
1020.848000 0.7150 0.7150 0.6970 0.6860 0.6740
1028.522773 0.6610 0.6470 0.6460 0.6460 0.6480
1036.191000 0.6500 0.6550 0.6670 0.6780 0.6860
1043.865773 0.6880 0.6890 0.6890 0.6880 0.6870
1051.534000 0.6840 0.6830 0.6800 0.6740 0.6640
1059.208773 0.6490 0.6310 0.6070 0.5760 0.5390
1066.877000 0.4950 0.4420 0.4090 0.3560 0.3190
1074.551773 0.2690 0.2690 0.3740 0.3760 0.3760
1082.220000 0.3760 0.3760 0.3650 0.3550 0.3460
1089.894773 0.3380 0.3380 0.3580 0.3790 0.3910
1097.563000 0.3970 0.4230 0.4490 0.4950 0.5410
1105.237773 0.6130 0.6150 0.6150 0.6080 0.5900
1112.906000 0.5500 0.5240 0.5060 0.5030 0.5010
1120.580773 0.5030 0.5150 0.5210 0.5280 0.5610
1128.249000 0.5960 0.6170 0.6450 0.6640 0.6800
1135.923773 0.6900 0.6990 0.7020 0.7050 0.7120
1143.592000 0.7130 0.7140 0.7130 0.6990 0.6810
1151.266773 0.6720 0.6640 0.6470 0.6130 0.5820
1158.935000 0.5760 0.5820 0.5990 0.6490 0.6700
1166.609773 0.6860 0.6940 0.7010 0.7130 0.7230
1174.278000 0.7310 0.7370 0.7430 0.7460 0.7500
1181.952773 0.7530 0.7550 0.7560 0.7600 0.7620
1189.621000 0.7620 0.7620 0.7620 0.7620 0.7610
1197.295773 0.7610 0.7590 0.7540 0.7490 0.7270
1204.964000 0.7210 0.6450 0.6040 0.5850 0.5690
1212.638773 0.5690 0.6100 0.6330 0.6810 0.6810
1220.307000 0.6800 0.6570 0.6320 0.6110 0.6110
1227.981773 0.6290 0.6450 0.6610 0.6650 0.6750
1235.650000 0.6870 0.6980 0.7080 0.7350 0.7560
1243.324773 0.7560 0.7570 0.7570 0.7560 0.7560
1250.993000 0.7540 0.7530 0.7500 0.7470 0.7460
1258.667773 0.7410 0.7310 0.7180 0.6910 0.6770
1266.336000 0.6640 0.6530 0.6440 0.6380 0.6350
1274.010773 0.6340 0.6340 0.6360 0.6400 0.6470
1281.679000 0.6610 0.6720 0.6890 0.6910 0.6890
1289.353773 0.6880 0.6730 0.6590 0.6260 0.5990
1297.022000 0.5990 0.6100 0.6200 0.6270 0.6450
1304.696773 0.6510 0.6510 0.6510 0.6520 0.6530
1312.365000 0.6550 0.6560 0.6580 0.6630 0.6670
1320.039773 0.6700 0.6730 0.6740 0.6740 0.6700
1327.708000 0.6690 0.6630 0.6560 0.6500 0.6490
1335.382773 0.6480 0.6490 0.6510 0.6590 0.6690
1343.051000 0.6850 0.6930 0.7020 0.7140 0.7160
1350.725773 0.7350 0.7390 0.7380 0.7320 0.7230
1358.394000 0.7170 0.7120 0.6970 0.6870 0.6780
1366.068773 0.6780 0.6820 0.6910 0.7000 0.7110
1373.736000 0.7240 0.7230 0.7220 0.6970 0.6830
1381.410773 0.6410 0.6410 0.6670 0.6850 0.7020
1389.079000 0.7130 0.7200 0.7280 0.7380 0.7410
1396.753773 0.7400 0.7390 0.7360 0.7270 0.7160
1404.422000 0.6920 0.6760 0.6640 0.6450 0.6290
1412.096773 0.6190 0.6120 0.6070 0.6020 0.5980
1419.765000 0.5930 0.5870 0.5780 0.5640 0.5470
1427.439773 0.5230 0.4930 0.4550 0.4540 0.4030
1435.108000 0.4030 0.4530 0.4550 0.4550 0.4550
1442.782773 0.4540 0.4520 0.4520 0.4520 0.4480
1450.451000 0.4460 0.4260 0.3910 0.3530 0.3090
1458.125773 0.2810 0.2600 0.2590 0.2590 0.2590
1465.794000 0.2620 0.2650 0.2700 0.2720 0.2750
1473.468773 0.2810 0.2870 0.2870 0.2870 0.2820
1481.137000 0.2810 0.2540 0.1990 0.1740 0.1740
1488.811773 0.1730 0.1740 0.1830 0.1900 0.2120
1496.480000 0.2240 0.2420 0.2560 0.2560 0.2560
1504.154773 0.2500 0.2390 0.2260 0.2240 0.2240
1511.823000 0.2240 0.2270 0.2340 0.2650 0.2810
1519.497773 0.3050 0.3280 0.3510 0.3730 0.3950
1527.166000 0.4070 0.4170 0.4390 0.4600 0.4810
1534.840773 0.5000 0.5190 0.5370 0.5540 0.5710
1542.509000 0.5850 0.6000 0.6130 0.6230 0.6390
1550.183773 0.6520 0.6640 0.6740 0.6830 0.6900
1557.852000 0.6960 0.6990 0.7020 0.7070 0.7120
1565.526773 0.7160 0.7200 0.7240 0.7280 0.7320
1573.195000 0.7350 0.7370 0.7400 0.7430 0.7440
1580.869773 0.7460 0.7480 0.7490 0.7500 0.7530
1588.538000 0.7530 0.7520 0.7520 0.7520 0.7510
1596.212773 0.7510 0.7500 0.7500 0.7490 0.7480
1603.881000 0.7470 0.7470 0.7460 0.7420 0.7360
1611.555773 0.7270 0.7120 0.7020 0.6990 0.7020
1619.224000 0.7050 0.7120 0.7290 0.7530 0.7680
1626.898773 0.7720 0.7720 0.7710 0.7680 0.7580
1634.567000 0.7510 0.7480 0.7460 0.7440 0.7410
1642.241773 0.7370 0.7360 0.7350 0.7350 0.7360
1649.910000 0.7370 0.7460 0.7520 0.7570 0.7620
1657.584773 0.7670 0.7720 0.7790 0.7860 0.7880
1665.253000 0.7910 0.7950 0.7960 0.7970 0.7980
1672.927773 0.7990 0.8000 0.8000 0.8000 0.8000
1680.596000 0.7970 0.7940 0.7930 0.7870 0.7840
1688.270773 0.7800 0.7770 0.7750 0.7720 0.7680
1695.939000 0.7620 0.7550 0.7490 0.7450 0.7400
1703.613773 0.7370 0.7320 0.7250 0.7180 0.6840
1711.282000 0.6680 0.6530 0.6370 0.6200 0.6040
1718.956773 0.5850 0.5630 0.5610 0.5370 0.4990
1726.625000 0.3980 0.3470 0.3000 0.2650 0.2460
1734.299773 0.2310 0.1740 0.1730 0.1720 0.1730
1741.968000 0.1860 0.2180 0.2500 0.2930 0.3430
1749.642773 0.3950 0.4210 0.4470 0.4930 0.5310
1757.310000 0.5540 0.5970 0.6250 0.6450 0.6610
1764.984773 0.6780 0.6890 0.7000 0.7120 0.7210
1772.653000 0.7300 0.7380 0.7460 0.7520 0.7580
1780.327773 0.7640 0.7680 0.7740 0.7790 0.7820
1787.996000 0.7930 0.7960 0.7970 0.8030 0.8060
1795.670773 0.8100 0.8120 0.8130 0.8160 0.8200
1803.339000 0.8230 0.8250 0.8270 0.8280 0.8290
1811.013773 0.8290 0.8310 0.8320 0.8330 0.8340
1818.682000 0.8380 0.8410 0.8410 0.8440 0.8440
1826.356773 0.8440 0.8440 0.8460 0.8470 0.8480
1834.025000 0.8480 0.8510 0.8510 0.8530 0.8540
1841.699773 0.8540 0.8540 0.8540 0.8560 0.8570
1849.368000 0.8570 0.8570 0.8580 0.8580 0.8590
1857.042773 0.8600 0.8600 0.8600 0.8610 0.8620
1864.711000 0.8620 0.8630 0.8630 0.8630 0.8630
1872.385773 0.8630 0.8640 0.8640 0.8640 0.8650
1880.054000 0.8650 0.8650 0.8650 0.8660 0.8660
1887.728773 0.8660 0.8660 0.8670 0.8670 0.8690
1895.397000 0.8690 0.8700 0.8700 0.8700 0.8700
1903.071773 0.8710 0.8720 0.8730 0.8730 0.8730
1910.740000 0.8730 0.8740 0.8740 0.8750 0.8750
1918.414773 0.8760 0.8760 0.8770 0.8780 0.8790
1926.083000 0.8790 0.8790 0.8790 0.8790 0.8790
1933.757773 0.8800 0.8800 0.8810 0.8810 0.8810
1941.426000 0.8810 0.8810 0.8810 0.8810 0.8810
1949.100773 0.8810 0.8810 0.8810 0.8800 0.8800
1956.769000 0.8800 0.8800 0.8800 0.8800 0.8800
1964.443773 0.8800 0.8790 0.8790 0.8790 0.8790
1972.112000 0.8790 0.8790 0.8800 0.8800 0.8800
1979.786773 0.8790 0.8790 0.8790 0.8780 0.8770
1987.455000 0.8760 0.8760 0.8760 0.8750 0.8740
1995.129773 0.8730 0.8730 0.8730 0.8720 0.8720
2002.798000 0.8720 0.8720 0.8730 0.8730 0.8730
2010.472773 0.8730 0.8730 0.8730 0.8730 0.8730
2018.141000 0.8730 0.8730 0.8730 0.8730 0.8730
2025.815773 0.8730 0.8730 0.8720 0.8720 0.8720
2033.484000 0.8710 0.8710 0.8700 0.8700 0.8700
2041.158773 0.8700 0.8700 0.8700 0.8700 0.8700
2048.827000 0.8700 0.8700 0.8710 0.8710 0.8710
2056.501773 0.8710 0.8720 0.8720 0.8720 0.8720
2064.170000 0.8730 0.8730 0.8730 0.8730 0.8730
2071.844773 0.8730 0.8740 0.8740 0.8740 0.8740
2079.513000 0.8740 0.8740 0.8740 0.8740 0.8730
2087.187773 0.8730 0.8730 0.8730 0.8730 0.8730
2094.856000 0.8730 0.8730 0.8730 0.8730 0.8720
2102.530773 0.8720 0.8720 0.8720 0.8730 0.8730
2110.198000 0.8730 0.8740 0.8740 0.8750 0.8750
2117.872773 0.8750 0.8750 0.8750 0.8750 0.8740
2125.542000 0.8740 0.8740 0.8740 0.8730 0.8730
2133.216773 0.8730 0.8730 0.8730 0.8730 0.8730
2140.885000 0.8730 0.8720 0.8720 0.8720 0.8720
2148.559773 0.8720 0.8720 0.8720 0.8720 0.8720
2156.228000 0.8720 0.8720 0.8720 0.8720 0.8720
2163.902773 0.8720 0.8720 0.8720 0.8720 0.8720
2171.570000 0.8710 0.8710 0.8710 0.8710 0.8710
2179.244773 0.8700 0.8700 0.8700 0.8700 0.8700
2186.913000 0.8700 0.8700 0.8700 0.8700 0.8700
2194.587773 0.8700 0.8700 0.8700 0.8700 0.8700
2202.256000 0.8700 0.8700 0.8700 0.8700 0.8700
2209.930773 0.8700 0.8690 0.8690 0.8690 0.8690
2217.599000 0.8690 0.8680 0.8680 0.8680 0.8680
2225.273773 0.8680 0.8670 0.8670 0.8670 0.8670
2232.942000 0.8670 0.8670 0.8670 0.8670 0.8670
2240.616773 0.8660 0.8660 0.8660 0.8660 0.8650
2248.285000 0.8650 0.8650 0.8650 0.8650 0.8630
2255.959773 0.8630 0.8630 0.8630 0.8630 0.8630
2263.628000 0.8630 0.8630 0.8630 0.8640 0.8640
2271.302773 0.8640 0.8640 0.8650 0.8650 0.8650
2278.971000 0.8660 0.8660 0.8660 0.8670 0.8670
2286.645773 0.8670 0.8670 0.8670 0.8670 0.8670
2294.314000 0.8670 0.8670 0.8670 0.8670 0.8670
2301.988773 0.8670 0.8670 0.8670 0.8670 0.8670
2309.657000 0.8670 0.8680 0.8680 0.8680 0.8680
2317.331773 0.8680 0.8680 0.8680 0.8680 0.8680
2325.000000 0.8680 0.8680 0.8680 0.8670 0.8670
2332.674773 0.8670 0.8670 0.8670 0.8670 0.8670
2340.343000 0.8660 0.8660 0.8660 0.8660 0.8660
2348.017773 0.8660 0.8660 0.8650 0.8650 0.8650
2355.686000 0.8640 0.8640 0.8640 0.8640 0.8640
2363.360773 0.8640 0.8640 0.8640 0.8640 0.8640
2371.029000 0.8640 0.8640 0.8640 0.8630 0.8630
2378.703773 0.8630 0.8630 0.8630 0.8630 0.8620
2386.372000 0.8620 0.8600 0.8600 0.8600 0.8600
2394.046773 0.8600 0.8600 0.8600 0.8600 0.8600
2401.715000 0.8600 0.8610 0.8620 0.8630 0.8630
2409.389773 0.8630 0.8650 0.8650 0.8650 0.8660
2417.058000 0.8660 0.8660 0.8660 0.8670 0.8670
2424.732773 0.8670 0.8670 0.8670 0.8670 0.8670
2432.401000 0.8670 0.8670 0.8670 0.8670 0.8670
2440.075773 0.8660 0.8660 0.8650 0.8640 0.8640
2447.744000 0.8630 0.8630 0.8630 0.8620 0.8620
2455.418773 0.8630 0.8630 0.8630 0.8630 0.8630
2463.087000 0.8640 0.8640 0.8640 0.8640 0.8650
2470.761773 0.8650 0.8650 0.8650 0.8660 0.8660
2478.430000 0.8660 0.8660 0.8660 0.8660 0.8660
2486.104773 0.8660 0.8650 0.8650 0.8650 0.8650
2493.772000 0.8650 0.8650 0.8640 0.8640 0.8640
2501.446773 0.8630 0.8630 0.8630 0.8630 0.8630
2509.115000 0.8630 0.8630 0.8630 0.8620 0.8620
2516.789773 0.8620 0.8620 0.8620 0.8620 0.8620
2524.458000 0.8620 0.8620 0.8610 0.8610 0.8610
2532.132773 0.8600 0.8600 0.8600 0.8600 0.8600
2539.802000 0.8600 0.8600 0.8600 0.8600 0.8600
2547.476773 0.8600 0.8600 0.8600 0.8600 0.8600
2555.145000 0.8600 0.8600 0.8600 0.8600 0.8600
2562.819773 0.8600 0.8600 0.8600 0.8600 0.8600
2570.487000 0.8600 0.8600 0.8600 0.8600 0.8600
2578.161773 0.8600 0.8600 0.8600 0.8600 0.8600
2585.830000 0.8600 0.8600 0.8600 0.8600 0.8600
2593.504773 0.8600 0.8600 0.8590 0.8590 0.8580
2601.173000 0.8580 0.8570 0.8570 0.8570 0.8570
2608.847773 0.8570 0.8570 0.8570 0.8580 0.8580
2616.516000 0.8580 0.8580 0.8580 0.8590 0.8590
2624.190773 0.8590 0.8590 0.8590 0.8590 0.8590
2631.859000 0.8600 0.8600 0.8600 0.8600 0.8600
2639.533773 0.8600 0.8600 0.8600 0.8600 0.8600
2647.202000 0.8600 0.8600 0.8600 0.8600 0.8600
2654.876773 0.8600 0.8600 0.8600 0.8600 0.8600
2662.545000 0.8600 0.8600 0.8590 0.8590 0.8590
2670.219773 0.8590 0.8580 0.8580 0.8580 0.8580
2677.888000 0.8580 0.8580 0.8580 0.8580 0.8580
2685.562773 0.8580 0.8570 0.8570 0.8570 0.8570
2693.231000 0.8570 0.8570 0.8570 0.8570 0.8560
2700.905773 0.8550 0.8550 0.8540 0.8540 0.8540
2708.574000 0.8540 0.8540 0.8530 0.8530 0.8520
2716.248773 0.8510 0.8490 0.8480 0.8480 0.8440
2723.917000 0.8410 0.8410 0.8400 0.8400 0.8430
2731.591773 0.8470 0.8500 0.8510 0.8520 0.8520
2739.260000 0.8530 0.8530 0.8530 0.8530 0.8530
2746.934773 0.8520 0.8520 0.8520 0.8510 0.8510
2754.603000 0.8510 0.8510 0.8500 0.8500 0.8490
2762.277773 0.8490 0.8490 0.8490 0.8480 0.8480
2769.946000 0.8480 0.8480 0.8480 0.8480 0.8480
2777.620773 0.8470 0.8470 0.8470 0.8470 0.8460
2785.289000 0.8460 0.8460 0.8460 0.8460 0.8450
2792.963773 0.8450 0.8440 0.8440 0.8440 0.8430
2800.632000 0.8420 0.8410 0.8410 0.8410 0.8410
2808.306773 0.8400 0.8390 0.8380 0.8370 0.8350
2815.975000 0.8350 0.8340 0.8320 0.8320 0.8310
2823.649773 0.8290 0.8280 0.8260 0.8260 0.8250
2831.318000 0.8210 0.8170 0.8120 0.8060 0.8000
2838.992773 0.7940 0.7880 0.7830 0.7780 0.7740
2846.661000 0.7710 0.7680 0.7680 0.7680 0.7680
2854.335773 0.7700 0.7750 0.7790 0.7830 0.7870
2862.004000 0.7890 0.7910 0.7930 0.7930 0.7940
2869.678773 0.7940 0.7950 0.7940 0.7930 0.7920
2877.347000 0.7910 0.7890 0.7880 0.7870 0.7860
2885.021773 0.7830 0.7800 0.7790 0.7770 0.7720
2892.689000 0.7680 0.7660 0.7640 0.7570 0.7500
2900.363773 0.7430 0.7370 0.7310 0.7240 0.7160
2908.032000 0.7080 0.6910 0.6860 0.6850 0.6840
2915.706773 0.6850 0.6860 0.6910 0.6980 0.7010
2923.375000 0.7030 0.7050 0.7080 0.7090 0.7110
2931.049773 0.7120 0.7120 0.7130 0.7140 0.7140
2938.719000 0.7140 0.7150 0.7150 0.7150 0.7150
2946.393773 0.7150 0.7150 0.7150 0.7160 0.7170
2954.061000 0.7170 0.7170 0.7160 0.7150 0.7150
2961.735773 0.7120 0.7080 0.6930 0.6910 0.6890
2969.404000 0.6890 0.6900 0.6960 0.7010 0.7050
2977.078773 0.7170 0.7250 0.7330 0.7380 0.7420
2984.747000 0.7450 0.7490 0.7520 0.7550 0.7560
2992.421773 0.7560 0.7570 0.7580 0.7580 0.7580
3000.090000 0.7570 0.7550 0.7540 0.7510 0.7500
3007.764773 0.7470 0.7460 0.7450 0.7440 0.7440
3015.433000 0.7450 0.7460 0.7470 0.7500 0.7530
3023.107773 0.7560 0.7580 0.7610 0.7640 0.7670
3030.776000 0.7720 0.7780 0.7840 0.7890 0.7940
3038.450773 0.7990 0.8030 0.8070 0.8110 0.8150
3046.119000 0.8170 0.8200 0.8220 0.8230 0.8230
3053.793773 0.8240 0.8240 0.8250 0.8250 0.8260
3061.462000 0.8270 0.8280 0.8290 0.8290 0.8300
3069.136773 0.8310 0.8320 0.8320 0.8320 0.8330
3076.805000 0.8330 0.8340 0.8350 0.8350 0.8350
3084.479773 0.8360 0.8360 0.8370 0.8370 0.8380
3092.148000 0.8380 0.8380 0.8380 0.8390 0.8400
3099.822773 0.8400 0.8400 0.8390 0.8390 0.8390
3107.491000 0.8390 0.8390 0.8390 0.8390 0.8390
3115.165773 0.8380 0.8380 0.8380 0.8380 0.8370
3122.834000 0.8370 0.8370 0.8360 0.8360 0.8350
3130.508773 0.8350 0.8350 0.8350 0.8350 0.8350
3138.177000 0.8340 0.8340 0.8330 0.8330 0.8330
3145.851773 0.8320 0.8320 0.8320 0.8320 0.8320
3153.520000 0.8320 0.8320 0.8310 0.8310 0.8300
3161.194773 0.8300 0.8290 0.8290 0.8290 0.8290
3168.863000 0.8280 0.8280 0.8270 0.8270 0.8260
3176.537773 0.8250 0.8250 0.8250 0.8230 0.8220
3184.206000 0.8210 0.8190 0.8190 0.8170 0.8160
3191.880773 0.8160 0.8150 0.8140 0.8140 0.8130
3199.549000 0.8130 0.8120 0.8110 0.8100 0.8100
3207.223773 0.8080 0.8080 0.8070 0.8060 0.8060
3214.892000 0.8060 0.8050 0.8040 0.8030 0.8030
3222.566773 0.8020 0.8020 0.8000 0.7980 0.7970
3230.235000 0.7960 0.7960 0.7950 0.7940 0.7940
3237.909773 0.7930 0.7910 0.7900 0.7870 0.7830
3245.578000 0.7790 0.7780 0.7760 0.7750 0.7750
3253.252773 0.7750 0.7740 0.7730 0.7710 0.7680
3260.921000 0.7650 0.7620 0.7600 0.7590 0.7570
3268.595773 0.7550 0.7530 0.7520 0.7500 0.7480
3276.264000 0.7460 0.7430 0.7410 0.7380 0.7350
3283.938773 0.7310 0.7260 0.7240 0.7210 0.7120
3291.606000 0.7080 0.7060 0.7050 0.7040 0.6990
3299.280773 0.6890 0.6770 0.6660 0.6550 0.6450
3306.949000 0.6360 0.6290 0.6210 0.6130 0.6070
3314.623773 0.6000 0.5940 0.5870 0.5800 0.5720
3322.292000 0.5640 0.5630 0.5630 0.5630 0.5640
3329.966773 0.5730 0.5840 0.5940 0.6010 0.6080
3337.635000 0.6160 0.6250 0.6320 0.6400 0.6450
3345.309773 0.6440 0.6420 0.6390 0.6320 0.6200
3352.978000 0.6050 0.5870 0.5640 0.5390 0.5110
3360.652773 0.3750 0.3610 0.3600 0.3610 0.3700
3368.321000 0.3890 0.4080 0.4650 0.5230 0.5800
3375.995773 0.6240 0.6460 0.6480 0.6490 0.6700
3383.664000 0.6880 0.6970 0.7040 0.7100 0.7110
3391.338773 0.7120 0.7130 0.7170 0.7220 0.7270
3399.007000 0.7310 0.7340 0.7370 0.7380 0.7400
3406.681773 0.7420 0.7430 0.7440 0.7450 0.7460
3414.350000 0.7470 0.7490 0.7500 0.7530 0.7550
3422.024773 0.7560 0.7560 0.7570 0.7570 0.7580
3429.693000 0.7580 0.7580 0.7590 0.7590 0.7590
3437.367773 0.7590 0.7590 0.7590 0.7590 0.7590
3445.036000 0.7590 0.7590 0.7590 0.7590 0.7590
3452.710773 0.7590 0.7590 0.7600 0.7610 0.7620
3460.379000 0.7620 0.7650 0.7670 0.7690 0.7700
3468.053773 0.7710 0.7720 0.7720 0.7720 0.7730
3475.722000 0.7740 0.7740 0.7750 0.7750 0.7770
3483.396773 0.7780 0.7790 0.7800 0.7810 0.7810
3491.065000 0.7810 0.7810 0.7820 0.7820 0.7820
3498.739773 0.7820 0.7830 0.7840 0.7840 0.7850
3506.408000 0.7870 0.7870 0.7880 0.7890 0.7900
3514.082773 0.7910 0.7910 0.7920 0.7940 0.7940
3521.751000 0.7940 0.7950 0.7950 0.7950 0.7950
3529.425773 0.7960 0.7970 0.7970 0.7990 0.8000
3537.094000 0.8000 0.8020 0.8030 0.8050 0.8060
3544.768773 0.8080 0.8100 0.8110 0.8120 0.8120
3552.437000 0.8130 0.8130 0.8130 0.8130 0.8130
3560.111773 0.8140 0.8140 0.8160 0.8160 0.8180
3567.780000 0.8190 0.8190 0.8200 0.8210 0.8220
3575.454773 0.8220 0.8230 0.8240 0.8240 0.8250
3583.123000 0.8260 0.8290 0.8290 0.8290 0.8310
3590.797773 0.8310 0.8320 0.8330 0.8340 0.8350
3598.466000 0.8350 0.8360 0.8360 0.8370 0.8380
3606.140773 0.8390 0.8400 0.8400 0.8410 0.8410
3613.809000 0.8410 0.8420 0.8430 0.8430 0.8440
3621.483773 0.8440 0.8440 0.8450 0.8460 0.8460
3629.152000 0.8460 0.8470 0.8470 0.8480 0.8480
3636.826773 0.8480 0.8480 0.8490 0.8490 0.8500
3644.495000 0.8510 0.8510 0.8510 0.8510 0.8520
3652.169773 0.8520 0.8530 0.8530 0.8530 0.8530
3659.838000 0.8530 0.8530 0.8520 0.8520 0.8510
3667.512773 0.8510 0.8510 0.8500 0.8490 0.8490
3675.180000 0.8490 0.8500 0.8510 0.8510 0.8510
3682.854773 0.8520 0.8530 0.8540 0.8540 0.8540
3690.523000 0.8550 0.8560 0.8570 0.8570 0.8570
3698.197773 0.8570 0.8570 0.8560 0.8560 0.8560
3705.866000 0.8550 0.8550 0.8550 0.8560 0.8560
3713.540773 0.8570 0.8570 0.8570 0.8570 0.8580
3721.209000 0.8580 0.8590 0.8590 0.8590 0.8580
3728.883773 0.8580 0.8570 0.8570 0.8550 0.8550
3736.552000 0.8540 0.8540 0.8530 0.8520 0.8510
3744.226773 0.8510 0.8510 0.8510 0.8510 0.8520
3751.895000 0.8530 0.8540 0.8540 0.8560 0.8570
3759.569773 0.8570 0.8580 0.8580 0.8580 0.8580
3767.238000 0.8590 0.8590 0.8590 0.8590 0.8590
3774.912773 0.8590 0.8590 0.8590 0.8590 0.8590
3782.581000 0.8590 0.8590 0.8590 0.8590 0.8590
3790.255773 0.8590 0.8580 0.8580 0.8570 0.8570
3797.924000 0.8570 0.8570
##END=
