##TITLE=UREA, 1-(2-CHLOROETHYL)-1-NITROSO-3-(TETRAHYDROTHIOPYRAN-4-YL)-
##JCAMP-DX=4.24
##DATA TYPE=INFRARED SPECTRUM
##CLASS=COBLENTZ III
##ORIGIN=SOUTHERN RES. INSTITUTE
##OWNER=COBLENTZ SOCIETY
Collection (C) 2018 copyright by the U.S. Secretary of Commerce
on behalf of the United States of America. All rights reserved.
##DATE=1966/07/12
##NAMES=1-(2-chloroethyl)-2-oxo-1-[(tetrahydro-2H-thiopyran-4-ylamino)carbonyl]hydrazine
##CAS REGISTRY NO=33022-01-4
##MOLFORM=C8 H14 Cl N3 O2 S
##SOURCE REFERENCE=COBLENTZ NO. 7725
##$NIST SOURCE=COBLENTZ
##$NIST IMAGE=cob7725
##SPECTROMETER/DATA SYSTEM=PERKIN-ELMER 521 (GRATING)
##INSTRUMENT PARAMETERS=FILTERS AT 3150, 2500, 2000, 1150, 700, 410 CM ^-^1, GRATING CHANGES AT 2000, 630 CM ^-^1
##STATE=SOLID (1 mg / 650 mg KBr DISC)
##SAMPLING PROCEDURE=TRANSMISSION
##RESOLUTION=4
##DATA PROCESSING=DIGITIZED BY NIST FROM HARD COPY
##XUNITS=1/CM
##YUNITS=TRANSMITTANCE
##XFACTOR=1.000000
##YFACTOR=1
##DELTAX=001.515152
##FIRSTX=246.97
##LASTX=3804.55
##FIRSTY=0.322
##MAXX=3804.55
##MINX=246.97
##MAXY=0.868
##MINY=0.101
##NPOINTS=2349
##XYDATA=(X++(Y..Y))
246.970000 0.3220 0.3220 0.3330 0.3450 0.3540
254.548985 0.3640 0.3740 0.3830 0.3910 0.4000
262.121000 0.4070 0.4160 0.4230 0.4300 0.4370
269.699985 0.4440 0.4500 0.4570 0.4640 0.4710
277.273000 0.4770 0.4840 0.4900 0.4970 0.5030
284.851985 0.5110 0.5180 0.5250 0.5330 0.5400
292.424000 0.5480 0.5520 0.5560 0.5650 0.5740
300.002985 0.5830 0.5870 0.5900 0.5920 0.5930
307.576000 0.5930 0.5930 0.5930 0.5940 0.5940
315.154985 0.5940 0.5940 0.5940 0.5930 0.5920
322.727000 0.5920 0.5920 0.5880 0.5840 0.5790
330.305985 0.5740 0.5690 0.5640 0.5600 0.5600
337.879000 0.5710 0.5830 0.5940 0.6080 0.6140
345.457985 0.6360 0.6510 0.6510 0.6510 0.6350
353.030000 0.6340 0.6350 0.6410 0.6480 0.6540
360.608985 0.6600 0.6670 0.6720 0.6800 0.6960
368.182000 0.7140 0.7190 0.7280 0.7340 0.7380
375.760985 0.7410 0.7430 0.7440 0.7460 0.7470
383.333000 0.7500 0.7530 0.7540 0.7540 0.7560
390.911985 0.7560 0.7570 0.7580 0.7580 0.7580
398.485000 0.7580 0.7580 0.7570 0.7560 0.7560
406.063985 0.7460 0.7350 0.7340 0.7150 0.7150
413.636000 0.7560 0.7580 0.7620 0.7640 0.7650
421.214985 0.7740 0.7770 0.7770 0.7770 0.7710
428.788000 0.7630 0.7620 0.7620 0.7640 0.7680
436.366985 0.7710 0.7750 0.7800 0.7840 0.7870
443.939000 0.7890 0.7900 0.7900 0.7850 0.7800
451.517985 0.7760 0.7730 0.7730 0.7780 0.7840
459.091000 0.7900 0.7930 0.7950 0.7980 0.7980
466.669985 0.7990 0.7990 0.7990 0.7990 0.8000
474.242000 0.8000 0.8000 0.8000 0.7990 0.7990
481.820985 0.7990 0.7990 0.7980 0.7960 0.7940
489.394000 0.7920 0.7900 0.7880 0.7880 0.7870
496.972985 0.7870 0.7870 0.7870 0.7870 0.7870
504.545000 0.7870 0.7860 0.7860 0.7860 0.7840
512.123985 0.7830 0.7820 0.7810 0.7790 0.7770
519.697000 0.7740 0.7520 0.7310 0.7120 0.7120
527.275985 0.7370 0.7500 0.7630 0.7740 0.7810
534.849000 0.7880 0.7890 0.7900 0.7910 0.7930
542.427985 0.7930 0.7920 0.7920 0.7910 0.7900
550.000000 0.7890 0.7880 0.7870 0.7870 0.7870
557.578985 0.7860 0.7840 0.7830 0.7820 0.7800
565.151000 0.7790 0.7780 0.7770 0.7760 0.7750
572.729985 0.7720 0.7710 0.7700 0.7680 0.7650
580.303000 0.7620 0.7600 0.7490 0.7380 0.7280
587.881985 0.7060 0.6850 0.6630 0.6420 0.6210
595.455000 0.6010 0.6010 0.6420 0.7250 0.7250
603.033985 0.7250 0.7250 0.7200 0.7190 0.7140
610.606000 0.7130 0.7080 0.7040 0.6980 0.6910
618.184985 0.6830 0.6750 0.6680 0.6620 0.6570
625.758000 0.6480 0.6390 0.6380 0.6380 0.6380
633.336985 0.6390 0.6480 0.6540 0.6600 0.6660
640.909000 0.6750 0.6900 0.6990 0.7030 0.7040
648.487985 0.7050 0.7050 0.7030 0.7020 0.6880
656.061000 0.6700 0.6110 0.5400 0.5400 0.5460
663.639985 0.5980 0.6500 0.6620 0.7100 0.7160
671.212000 0.7390 0.7620 0.7700 0.7770 0.7830
678.790985 0.7880 0.7930 0.7960 0.7990 0.8010
686.364000 0.8020 0.8040 0.8050 0.8050 0.8060
693.942985 0.8070 0.8080 0.8090 0.8100 0.8110
701.515000 0.8120 0.8120 0.8120 0.8130 0.8130
709.093985 0.8130 0.8130 0.8130 0.8120 0.8120
716.667000 0.8120 0.8110 0.8110 0.8080 0.8080
724.245985 0.8070 0.8070 0.8060 0.8050 0.8050
731.818000 0.8050 0.8020 0.8000 0.7980 0.7930
739.396985 0.7880 0.7770 0.7620 0.7460 0.7290
746.970000 0.7130 0.6990 0.6990 0.7200 0.7450
754.548985 0.7900 0.7950 0.7960 0.7960 0.7950
762.121000 0.7940 0.7930 0.7930 0.7930 0.7920
769.699985 0.7870 0.7770 0.7310 0.6860 0.6410
777.273000 0.5950 0.5510 0.5510 0.6080 0.6850
784.851985 0.7620 0.7640 0.7640 0.7640 0.7630
792.424000 0.6170 0.5400 0.5030 0.5030 0.5270
800.002985 0.5520 0.6010 0.7000 0.7090 0.7690
807.576000 0.7820 0.7870 0.7870 0.7930 0.7990
815.154985 0.8050 0.8070 0.8080 0.8100 0.8110
822.727000 0.8110 0.8120 0.8120 0.8120 0.8110
830.305985 0.8110 0.8110 0.8090 0.8080 0.8060
837.879000 0.8050 0.8010 0.7960 0.7890 0.7770
845.457985 0.7760 0.7740 0.7740 0.7900 0.7960
853.030000 0.7990 0.7990 0.8000 0.8000 0.8000
860.608985 0.8000 0.8000 0.8000 0.7990 0.7990
868.182000 0.7990 0.7990 0.7980 0.7970 0.7960
875.760985 0.7960 0.7960 0.7920 0.7850 0.7830
883.333000 0.7770 0.7740 0.7680 0.7640 0.7550
890.911985 0.7520 0.7420 0.7370 0.7290 0.7220
898.485000 0.7140 0.7060 0.6990 0.6910 0.6840
906.063985 0.6720 0.6710 0.6720 0.6870 0.7570
913.636000 0.7580 0.7570 0.7570 0.7540 0.7460
921.214985 0.7340 0.7110 0.6230 0.5560 0.5500
928.788000 0.5500 0.5620 0.5980 0.6480 0.6960
936.366985 0.7250 0.7250 0.7250 0.7240 0.7130
943.939000 0.7090 0.6830 0.6770 0.6720 0.6680
951.517985 0.6630 0.6580 0.6500 0.6380 0.6230
959.091000 0.6010 0.5370 0.4140 0.3780 0.3260
966.669985 0.2560 0.2420 0.2400 0.2410 0.2610
974.242000 0.2710 0.2980 0.3790 0.4740 0.5430
981.820985 0.5670 0.5920 0.6410 0.6410 0.6380
989.394000 0.6380 0.6330 0.6250 0.6230 0.6240
996.972985 0.6310 0.6370 0.6440 0.6490 0.6530
1004.545000 0.6540 0.6600 0.6850 0.7020 0.7240
1012.123985 0.7400 0.7530 0.7600 0.7650 0.7650
1019.697000 0.7660 0.7680 0.7680 0.7680 0.7680
1027.275985 0.7680 0.7680 0.7660 0.7650 0.7640
1034.849000 0.7620 0.7620 0.7590 0.7580 0.7540
1042.427985 0.7490 0.7420 0.7350 0.7280 0.7210
1050.000000 0.7150 0.7090 0.7040 0.7000 0.6600
1057.578985 0.6400 0.6200 0.5930 0.5200 0.4930
1065.151000 0.4660 0.4380 0.4120 0.3850 0.3590
1072.729985 0.3590 0.3830 0.4220 0.4610 0.4750
1080.303000 0.4990 0.4990 0.4980 0.4910 0.4740
1087.881985 0.4020 0.2920 0.2390 0.2380 0.2370
1095.455000 0.2380 0.2580 0.2770 0.2940 0.3800
1103.033985 0.4990 0.5730 0.6460 0.6690 0.6900
1110.606000 0.7160 0.7330 0.7440 0.7510 0.7560
1118.184985 0.7600 0.7650 0.7710 0.7740 0.7760
1125.758000 0.7770 0.7770 0.7770 0.7770 0.7770
1133.336985 0.7770 0.7770 0.7770 0.7760 0.7750
1140.909000 0.7740 0.7720 0.7710 0.7680 0.7650
1148.487985 0.7620 0.7590 0.7560 0.7530 0.7500
1156.061000 0.7380 0.7270 0.7170 0.7060 0.6970
1163.639985 0.6860 0.6450 0.6250 0.6070 0.5890
1171.212000 0.5440 0.5240 0.5030 0.4840 0.4630
1178.790985 0.3960 0.3610 0.3300 0.3300 0.3760
1186.364000 0.4400 0.4840 0.5370 0.5380 0.5460
1193.942985 0.5490 0.5520 0.5590 0.5670 0.5740
1201.515000 0.5800 0.5880 0.5950 0.6010 0.6140
1209.093985 0.6190 0.6230 0.6280 0.6320 0.6370
1216.667000 0.6410 0.6480 0.6500 0.6710 0.6910
1224.245985 0.7200 0.7320 0.7410 0.7400 0.7400
1231.818000 0.7390 0.7360 0.7320 0.7250 0.7160
1239.396985 0.7090 0.7060 0.7050 0.7060 0.7120
1246.970000 0.7190 0.7220 0.7260 0.7320 0.7330
1254.548985 0.7340 0.7330 0.7290 0.7220 0.7120
1262.121000 0.6480 0.6110 0.5470 0.5210 0.4980
1269.699985 0.4980 0.5190 0.5380 0.5460 0.5550
1277.273000 0.6190 0.7010 0.7050 0.7090 0.7090
1284.851985 0.7090 0.6940 0.6850 0.6690 0.6570
1292.424000 0.6530 0.6510 0.6500 0.6490 0.6470
1300.002985 0.6420 0.6340 0.6260 0.6140 0.6040
1307.576000 0.5910 0.5890 0.5900 0.5960 0.6100
1315.154985 0.6190 0.6420 0.6690 0.6690 0.6670
1322.727000 0.6650 0.6620 0.6390 0.6260 0.6190
1330.305985 0.6140 0.6110 0.6040 0.5460 0.5430
1337.879000 0.5090 0.4750 0.4420 0.4100 0.4100
1345.457985 0.4470 0.4660 0.5210 0.5490 0.5780
1353.030000 0.6200 0.6540 0.6640 0.6660 0.6670
1360.608985 0.6670 0.6660 0.6570 0.6410 0.6350
1368.182000 0.6290 0.6290 0.6290 0.6380 0.6480
1375.760985 0.6580 0.6680 0.6770 0.6820 0.6870
1383.333000 0.6970 0.7080 0.7180 0.7260 0.7290
1390.911985 0.7310 0.7340 0.7340 0.7350 0.7360
1398.485000 0.7370 0.7360 0.7340 0.7310 0.7280
1406.063985 0.7250 0.7220 0.7130 0.7060 0.7000
1413.636000 0.6940 0.6880 0.6820 0.6790 0.6570
1421.214985 0.5180 0.4760 0.4530 0.4210 0.3910
1428.788000 0.3910 0.4110 0.4320 0.5200 0.6070
1436.366985 0.6080 0.6090 0.4600 0.4290 0.4000
1443.939000 0.4000 0.4270 0.4530 0.5700 0.6860
1451.517985 0.6910 0.6920 0.6910 0.6910 0.6880
1459.091000 0.6820 0.6320 0.5770 0.5700 0.4930
1466.669985 0.3880 0.3450 0.3400 0.2930 0.2460
1474.242000 0.1980 0.1520 0.1510 0.1520 0.1570
1481.820985 0.1700 0.2460 0.3100 0.3630 0.4060
1489.394000 0.4410 0.4710 0.4940 0.5150 0.5330
1496.972985 0.5410 0.5490 0.5670 0.6230 0.6270
1504.545000 0.6310 0.6310 0.6300 0.6290 0.6280
1512.123985 0.6260 0.6200 0.6170 0.6110 0.6010
1519.697000 0.5890 0.5730 0.5340 0.5110 0.4860
1527.275985 0.4580 0.4290 0.3970 0.3640 0.3290
1534.849000 0.2930 0.2550 0.2160 0.1800 0.1790
1542.427985 0.1790 0.1790 0.1800 0.1870 0.2210
1550.000000 0.2680 0.3250 0.3830 0.4370 0.4810
1557.578985 0.5060 0.5090 0.5310 0.5530 0.6630
1565.151000 0.6790 0.6880 0.6990 0.7090 0.7160
1572.729985 0.7180 0.7280 0.7350 0.7420 0.7470
1580.303000 0.7510 0.7540 0.7560 0.7580 0.7590
1587.881985 0.7600 0.7620 0.7620 0.7630 0.7640
1595.455000 0.7640 0.7650 0.7650 0.7650 0.7650
1603.033985 0.7650 0.7650 0.7640 0.7640 0.7630
1610.606000 0.7620 0.7610 0.7590 0.7560 0.7530
1618.184985 0.7490 0.7450 0.7410 0.7370 0.7340
1625.758000 0.7300 0.7250 0.7210 0.7160 0.7100
1633.336985 0.7040 0.6980 0.6910 0.6740 0.6600
1640.909000 0.6470 0.6360 0.6260 0.6170 0.6080
1648.487985 0.5990 0.5900 0.5800 0.5700 0.5450
1656.061000 0.5300 0.5120 0.4910 0.4680 0.4410
1663.639985 0.4100 0.3750 0.3360 0.3020 0.2530
1671.212000 0.2460 0.2290 0.1810 0.1650 0.1490
1678.790985 0.1330 0.1170 0.1020 0.1010 0.1020
1686.364000 0.1170 0.1300 0.1450 0.1600 0.1730
1693.942985 0.2320 0.2770 0.3210 0.3380 0.3540
1701.515000 0.3630 0.3790 0.4040 0.4350 0.4640
1709.093985 0.4910 0.5160 0.5390 0.5490 0.5590
1716.667000 0.5790 0.5960 0.6130 0.6270 0.6410
1724.245985 0.6530 0.6640 0.6740 0.6840 0.6920
1731.818000 0.7000 0.7180 0.7220 0.7280 0.7340
1739.396985 0.7400 0.7460 0.7520 0.7580 0.7620
1746.970000 0.7680 0.7720 0.7770 0.7800 0.7850
1754.548985 0.7880 0.7920 0.7950 0.7970 0.8000
1762.121000 0.8020 0.8050 0.8080 0.8100 0.8120
1769.699985 0.8140 0.8170 0.8180 0.8200 0.8220
1777.273000 0.8240 0.8250 0.8260 0.8270 0.8290
1784.851985 0.8300 0.8310 0.8320 0.8330 0.8340
1792.424000 0.8370 0.8390 0.8400 0.8420 0.8430
1800.002985 0.8430 0.8440 0.8440 0.8440 0.8450
1807.576000 0.8450 0.8460 0.8460 0.8470 0.8480
1815.154985 0.8480 0.8480 0.8490 0.8500 0.8510
1822.727000 0.8510 0.8530 0.8540 0.8550 0.8560
1830.305985 0.8570 0.8580 0.8580 0.8590 0.8600
1837.879000 0.8600 0.8600 0.8610 0.8610 0.8610
1845.457985 0.8610 0.8610 0.8610 0.8610 0.8610
1853.030000 0.8610 0.8610 0.8610 0.8610 0.8610
1860.608985 0.8610 0.8610 0.8610 0.8610 0.8610
1868.182000 0.8610 0.8610 0.8620 0.8620 0.8630
1875.760985 0.8630 0.8640 0.8640 0.8640 0.8640
1883.333000 0.8650 0.8650 0.8650 0.8650 0.8660
1890.911985 0.8660 0.8660 0.8660 0.8650 0.8650
1898.485000 0.8650 0.8650 0.8650 0.8650 0.8650
1906.063985 0.8650 0.8650 0.8650 0.8660 0.8660
1913.636000 0.8660 0.8660 0.8660 0.8670 0.8670
1921.214985 0.8670 0.8670 0.8670 0.8670 0.8670
1928.788000 0.8670 0.8670 0.8670 0.8670 0.8670
1936.366985 0.8670 0.8670 0.8670 0.8670 0.8670
1943.939000 0.8670 0.8670 0.8670 0.8670 0.8670
1951.517985 0.8670 0.8670 0.8670 0.8670 0.8670
1959.091000 0.8670 0.8670 0.8670 0.8670 0.8670
1966.669985 0.8680 0.8680 0.8680 0.8680 0.8680
1974.242000 0.8670 0.8670 0.8670 0.8660 0.8660
1981.820985 0.8650 0.8650 0.8640 0.8640 0.8640
1989.394000 0.8640 0.8630 0.8630 0.8620 0.8620
1996.972985 0.8610 0.8610 0.8610 0.8610 0.8610
2004.545000 0.8610 0.8600 0.8600 0.8600 0.8600
2012.123985 0.8600 0.8600 0.8600 0.8600 0.8600
2019.697000 0.8600 0.8610 0.8610 0.8610 0.8610
2027.275985 0.8610 0.8610 0.8610 0.8610 0.8610
2034.849000 0.8610 0.8610 0.8610 0.8610 0.8610
2042.427985 0.8610 0.8610 0.8610 0.8610 0.8610
2050.000000 0.8610 0.8610 0.8610 0.8610 0.8610
2057.578985 0.8610 0.8610 0.8600 0.8600 0.8600
2065.152000 0.8600 0.8590 0.8590 0.8580 0.8580
2072.730985 0.8580 0.8580 0.8590 0.8600 0.8600
2080.303000 0.8600 0.8610 0.8610 0.8610 0.8610
2087.881985 0.8610 0.8620 0.8620 0.8620 0.8630
2095.455000 0.8630 0.8630 0.8630 0.8630 0.8630
2103.033985 0.8630 0.8630 0.8630 0.8620 0.8620
2110.606000 0.8620 0.8620 0.8620 0.8610 0.8610
2118.184985 0.8610 0.8610 0.8600 0.8600 0.8590
2125.758000 0.8590 0.8580 0.8580 0.8580 0.8580
2133.336985 0.8570 0.8570 0.8570 0.8570 0.8570
2140.909000 0.8570 0.8570 0.8560 0.8560 0.8560
2148.487985 0.8560 0.8550 0.8550 0.8550 0.8550
2156.061000 0.8550 0.8550 0.8550 0.8550 0.8550
2163.639985 0.8550 0.8550 0.8550 0.8550 0.8540
2171.212000 0.8540 0.8540 0.8540 0.8540 0.8540
2178.790985 0.8530 0.8530 0.8530 0.8530 0.8520
2186.364000 0.8520 0.8520 0.8520 0.8510 0.8510
2193.942985 0.8510 0.8510 0.8510 0.8510 0.8510
2201.515000 0.8510 0.8510 0.8510 0.8510 0.8520
2209.093985 0.8520 0.8520 0.8520 0.8520 0.8520
2216.667000 0.8520 0.8520 0.8520 0.8520 0.8520
2224.245985 0.8520 0.8520 0.8520 0.8520 0.8520
2231.818000 0.8520 0.8520 0.8520 0.8520 0.8520
2239.396985 0.8520 0.8520 0.8520 0.8520 0.8520
2246.970000 0.8520 0.8520 0.8520 0.8520 0.8520
2254.548985 0.8520 0.8520 0.8520 0.8520 0.8520
2262.121000 0.8520 0.8520 0.8520 0.8520 0.8520
2269.699985 0.8520 0.8530 0.8530 0.8530 0.8530
2277.273000 0.8540 0.8540 0.8540 0.8540 0.8540
2284.851985 0.8540 0.8540 0.8540 0.8540 0.8540
2292.424000 0.8540 0.8540 0.8540 0.8540 0.8530
2300.002985 0.8530 0.8520 0.8520 0.8510 0.8510
2307.576000 0.8510 0.8510 0.8500 0.8500 0.8490
2315.154985 0.8490 0.8480 0.8480 0.8480 0.8480
2322.727000 0.8480 0.8480 0.8480 0.8480 0.8480
2330.305985 0.8480 0.8480 0.8480 0.8480 0.8480
2337.879000 0.8480 0.8480 0.8480 0.8480 0.8480
2345.457985 0.8480 0.8490 0.8490 0.8490 0.8490
2353.030000 0.8500 0.8500 0.8500 0.8500 0.8500
2360.608985 0.8500 0.8500 0.8500 0.8500 0.8500
2368.182000 0.8500 0.8500 0.8500 0.8500 0.8500
2375.760985 0.8500 0.8490 0.8490 0.8490 0.8490
2383.333000 0.8490 0.8490 0.8490 0.8490 0.8480
2390.911985 0.8480 0.8480 0.8480 0.8480 0.8480
2398.485000 0.8480 0.8480 0.8480 0.8480 0.8480
2406.063985 0.8480 0.8480 0.8480 0.8480 0.8480
2413.636000 0.8480 0.8480 0.8480 0.8480 0.8470
2421.214985 0.8470 0.8470 0.8470 0.8470 0.8470
2428.788000 0.8460 0.8460 0.8460 0.8460 0.8460
2436.366985 0.8460 0.8460 0.8460 0.8460 0.8460
2443.939000 0.8460 0.8460 0.8460 0.8460 0.8460
2451.517985 0.8460 0.8460 0.8460 0.8460 0.8460
2459.091000 0.8450 0.8450 0.8450 0.8450 0.8450
2466.669985 0.8450 0.8450 0.8450 0.8450 0.8450
2474.242000 0.8450 0.8450 0.8450 0.8450 0.8450
2481.820985 0.8450 0.8450 0.8450 0.8450 0.8450
2489.394000 0.8450 0.8450 0.8440 0.8440 0.8440
2496.972985 0.8440 0.8440 0.8440 0.8440 0.8440
2504.545000 0.8440 0.8440 0.8440 0.8440 0.8440
2512.123985 0.8440 0.8440 0.8440 0.8440 0.8440
2519.697000 0.8440 0.8440 0.8430 0.8430 0.8430
2527.275985 0.8430 0.8430 0.8430 0.8430 0.8430
2534.848000 0.8430 0.8430 0.8430 0.8430 0.8430
2542.426985 0.8430 0.8430 0.8430 0.8430 0.8430
2550.000000 0.8430 0.8430 0.8420 0.8420 0.8420
2557.578985 0.8420 0.8420 0.8420 0.8420 0.8420
2565.152000 0.8420 0.8420 0.8420 0.8420 0.8420
2572.730985 0.8420 0.8420 0.8420 0.8420 0.8420
2580.303000 0.8410 0.8410 0.8400 0.8400 0.8390
2587.881985 0.8390 0.8390 0.8390 0.8390 0.8390
2595.455000 0.8380 0.8380 0.8370 0.8370 0.8370
2603.033985 0.8370 0.8370 0.8370 0.8370 0.8370
2610.606000 0.8370 0.8370 0.8370 0.8370 0.8370
2618.184985 0.8370 0.8370 0.8370 0.8370 0.8360
2625.758000 0.8360 0.8360 0.8360 0.8360 0.8360
2633.336985 0.8360 0.8360 0.8360 0.8360 0.8360
2640.909000 0.8360 0.8360 0.8360 0.8350 0.8350
2648.487985 0.8350 0.8350 0.8350 0.8350 0.8350
2656.061000 0.8340 0.8340 0.8340 0.8340 0.8340
2663.639985 0.8340 0.8340 0.8330 0.8330 0.8330
2671.212000 0.8330 0.8330 0.8330 0.8330 0.8320
2678.790985 0.8320 0.8310 0.8310 0.8300 0.8300
2686.364000 0.8300 0.8300 0.8290 0.8290 0.8280
2693.942985 0.8280 0.8280 0.8270 0.8270 0.8270
2701.515000 0.8270 0.8270 0.8270 0.8260 0.8260
2709.093985 0.8260 0.8260 0.8260 0.8260 0.8270
2716.667000 0.8270 0.8270 0.8270 0.8270 0.8270
2724.245985 0.8270 0.8270 0.8280 0.8280 0.8290
2731.818000 0.8290 0.8300 0.8300 0.8300 0.8290
2739.396985 0.8290 0.8290 0.8280 0.8280 0.8280
2746.970000 0.8270 0.8270 0.8270 0.8270 0.8270
2754.548985 0.8270 0.8260 0.8250 0.8240 0.8240
2762.121000 0.8240 0.8230 0.8220 0.8220 0.8210
2769.699985 0.8200 0.8200 0.8200 0.8190 0.8180
2777.273000 0.8170 0.8170 0.8160 0.8150 0.8140
2784.851985 0.8140 0.8130 0.8120 0.8110 0.8110
2792.424000 0.8090 0.8080 0.8080 0.8070 0.8060
2800.002985 0.8050 0.8030 0.8020 0.8010 0.8000
2807.576000 0.7990 0.7980 0.7960 0.7930 0.7900
2815.154985 0.7860 0.7830 0.7800 0.7770 0.7670
2822.727000 0.7650 0.7570 0.7430 0.7340 0.7260
2830.305985 0.7180 0.7130 0.7110 0.7100 0.7090
2837.879000 0.7090 0.7110 0.7120 0.7160 0.7230
2845.457985 0.7260 0.7300 0.7340 0.7420 0.7560
2853.030000 0.7610 0.7660 0.7670 0.7660 0.7660
2860.608985 0.7650 0.7640 0.7620 0.7600 0.7580
2868.182000 0.7570 0.7560 0.7530 0.7500 0.7480
2875.760985 0.7460 0.7440 0.7430 0.7400 0.7380
2883.333000 0.7350 0.7310 0.7270 0.7210 0.7130
2890.911985 0.7040 0.6940 0.6810 0.6660 0.6480
2898.485000 0.6290 0.6060 0.5800 0.5540 0.5510
2906.063985 0.5490 0.5490 0.5490 0.5500 0.5550
2913.636000 0.5590 0.5740 0.5960 0.6150 0.6330
2921.214985 0.6510 0.6640 0.6750 0.6800 0.6850
2928.788000 0.6880 0.6880 0.6880 0.6880 0.6820
2936.366985 0.6730 0.6560 0.6200 0.6190 0.6200
2943.939000 0.6360 0.6520 0.6680 0.6840 0.6980
2951.517985 0.7020 0.7110 0.7230 0.7370 0.7600
2959.091000 0.7740 0.7830 0.7870 0.7880 0.7890
2966.669985 0.7900 0.7910 0.7920 0.7930 0.7930
2974.242000 0.7930 0.7950 0.7970 0.8000 0.8020
2981.820985 0.8030 0.8050 0.8050 0.8050 0.8060
2989.394000 0.8060 0.8060 0.8050 0.8040 0.8030
2996.972985 0.8020 0.7990 0.7960 0.7930 0.7930
3004.545000 0.7900 0.7880 0.7860 0.7830 0.7800
3012.123985 0.7780 0.7760 0.7740 0.7710 0.7680
3019.697000 0.7680 0.7670 0.7680 0.7730 0.7790
3027.275985 0.7820 0.7840 0.7870 0.7900 0.7920
3034.848000 0.7950 0.7970 0.7980 0.7990 0.8000
3042.426985 0.8000 0.7990 0.7990 0.7970 0.7950
3050.000000 0.7940 0.7910 0.7880 0.7840 0.7800
3057.578985 0.7760 0.7710 0.7670 0.7620 0.7590
3065.151000 0.7580 0.7570 0.7580 0.7590 0.7620
3072.729985 0.7660 0.7740 0.7820 0.7920 0.7960
3080.303000 0.7960 0.7970 0.7980 0.7990 0.8010
3087.881985 0.8020 0.8020 0.8030 0.8040 0.8040
3095.455000 0.8050 0.8050 0.8050 0.8050 0.8050
3103.033985 0.8050 0.8050 0.8050 0.8050 0.8050
3110.606000 0.8050 0.8060 0.8060 0.8060 0.8060
3118.184985 0.8060 0.8060 0.8070 0.8070 0.8070
3125.758000 0.8070 0.8070 0.8070 0.8070 0.8060
3133.336985 0.8060 0.8050 0.8050 0.8050 0.8040
3140.909000 0.8040 0.8030 0.8010 0.7990 0.7980
3148.487985 0.7970 0.7960 0.7960 0.7930 0.7930
3156.061000 0.7930 0.7920 0.7900 0.7900 0.7890
3163.639985 0.7870 0.7870 0.7860 0.7840 0.7830
3171.212000 0.7830 0.7820 0.7810 0.7800 0.7790
3178.790985 0.7780 0.7770 0.7770 0.7760 0.7750
3186.364000 0.7740 0.7740 0.7730 0.7730 0.7710
3193.942985 0.7700 0.7680 0.7650 0.7620 0.7600
3201.515000 0.7580 0.7560 0.7560 0.7540 0.7530
3209.093985 0.7500 0.7490 0.7460 0.7450 0.7450
3216.667000 0.7430 0.7420 0.7380 0.7340 0.7280
3224.245985 0.7270 0.7250 0.7230 0.7220 0.7190
3231.818000 0.7170 0.7160 0.7130 0.7110 0.7090
3239.396985 0.7060 0.7030 0.7010 0.6980 0.6960
3246.970000 0.6930 0.6900 0.6870 0.6840 0.6800
3254.548985 0.6770 0.6730 0.6700 0.6660 0.6630
3262.121000 0.6590 0.6540 0.6510 0.6460 0.6410
3269.699985 0.6370 0.6320 0.6310 0.6290 0.6250
3277.273000 0.6200 0.6140 0.6060 0.5980 0.5880
3284.851985 0.5770 0.5660 0.5410 0.5270 0.5130
3292.424000 0.4990 0.4840 0.4690 0.4530 0.4380
3300.002985 0.4220 0.4070 0.3910 0.3760 0.3610
3307.576000 0.3450 0.3310 0.3170 0.3040 0.2910
3315.154985 0.2790 0.2680 0.2660 0.2650 0.2660
3322.727000 0.2710 0.2900 0.3190 0.3420 0.3630
3330.305985 0.3820 0.4010 0.4230 0.4490 0.4900
3337.879000 0.5240 0.5380 0.5520 0.5750 0.5940
3345.457985 0.6090 0.6210 0.6300 0.6380 0.6430
3353.030000 0.6480 0.6530 0.6580 0.6630 0.6730
3360.608985 0.6810 0.6880 0.6940 0.7000 0.7030
3368.182000 0.7080 0.7110 0.7140 0.7170 0.7190
3375.760985 0.7220 0.7250 0.7270 0.7300 0.7330
3383.333000 0.7360 0.7380 0.7400 0.7410 0.7430
3390.911985 0.7440 0.7450 0.7460 0.7470 0.7480
3398.485000 0.7490 0.7490 0.7500 0.7500 0.7520
3406.063985 0.7530 0.7530 0.7530 0.7530 0.7540
3413.636000 0.7560 0.7570 0.7580 0.7590 0.7610
3421.214985 0.7620 0.7630 0.7650 0.7660 0.7670
3428.788000 0.7680 0.7690 0.7710 0.7710 0.7730
3436.366985 0.7740 0.7740 0.7750 0.7760 0.7760
3443.939000 0.7760 0.7770 0.7770 0.7770 0.7770
3451.517985 0.7770 0.7770 0.7770 0.7770 0.7770
3459.091000 0.7770 0.7770 0.7780 0.7780 0.7780
3466.669985 0.7790 0.7790 0.7790 0.7790 0.7800
3474.242000 0.7800 0.7800 0.7800 0.7800 0.7800
3481.820985 0.7810 0.7810 0.7820 0.7820 0.7820
3489.394000 0.7830 0.7830 0.7830 0.7840 0.7840
3496.972985 0.7850 0.7850 0.7860 0.7870 0.7870
3504.545000 0.7880 0.7890 0.7890 0.7900 0.7900
3512.123985 0.7910 0.7920 0.7930 0.7930 0.7930
3519.697000 0.7940 0.7950 0.7950 0.7960 0.7960
3527.275985 0.7960 0.7970 0.7980 0.7980 0.7990
3534.848000 0.7990 0.7990 0.8000 0.8010 0.8010
3542.426985 0.8010 0.8020 0.8020 0.8020 0.8020
3550.000000 0.8030 0.8030 0.8040 0.8040 0.8040
3557.578985 0.8050 0.8050 0.8050 0.8050 0.8060
3565.151000 0.8060 0.8060 0.8070 0.8080 0.8080
3572.729985 0.8080 0.8090 0.8100 0.8100 0.8110
3580.303000 0.8120 0.8130 0.8140 0.8140 0.8160
3587.881985 0.8170 0.8170 0.8180 0.8190 0.8200
3595.455000 0.8200 0.8210 0.8220 0.8220 0.8230
3603.033985 0.8240 0.8240 0.8240 0.8250 0.8250
3610.606000 0.8260 0.8260 0.8270 0.8270 0.8270
3618.184985 0.8270 0.8270 0.8270 0.8270 0.8270
3625.758000 0.8270 0.8270 0.8270 0.8270 0.8270
3633.336985 0.8270 0.8270 0.8270 0.8280 0.8280
3640.909000 0.8280 0.8280 0.8280 0.8280 0.8280
3648.487985 0.8280 0.8290 0.8290 0.8290 0.8290
3656.061000 0.8290 0.8290 0.8290 0.8290 0.8300
3663.639985 0.8300 0.8300 0.8300 0.8300 0.8300
3671.212000 0.8300 0.8300 0.8300 0.8300 0.8300
3678.790985 0.8300 0.8310 0.8310 0.8310 0.8310
3686.364000 0.8310 0.8320 0.8320 0.8320 0.8320
3693.942985 0.8330 0.8330 0.8330 0.8330 0.8330
3701.515000 0.8330 0.8330 0.8330 0.8330 0.8330
3709.093985 0.8330 0.8330 0.8330 0.8330 0.8330
3716.667000 0.8330 0.8320 0.8320 0.8320 0.8320
3724.245985 0.8320 0.8310 0.8310 0.8310 0.8310
3731.818000 0.8310 0.8300 0.8300 0.8300 0.8300
3739.396985 0.8300 0.8300 0.8300 0.8300 0.8310
3746.970000 0.8310 0.8320 0.8320 0.8320 0.8330
3754.548985 0.8330 0.8330 0.8330 0.8340 0.8340
3762.121000 0.8340 0.8340 0.8340 0.8340 0.8340
3769.699985 0.8340 0.8340 0.8340 0.8330 0.8330
3777.273000 0.8330 0.8330 0.8330 0.8330 0.8330
3784.851985 0.8330 0.8330 0.8330 0.8330 0.8330
3792.424000 0.8330 0.8330 0.8330 0.8330 0.8330
3800.002985 0.8320 0.8320 0.8320 0.8320
##END=
