##TITLE=UREA, 1-(2-CHLOROETHYL)-1-NITROSO-3-(TETRAHYDRO-4-THIOPYRANYL)-, s,s-DIOXIDE
##JCAMP-DX=4.24
##DATA TYPE=INFRARED SPECTRUM
##CLASS=COBLENTZ III
##ORIGIN=SOUTHERN RESEARCH INSTITUTE
##OWNER=Copyright (C) 1987 by the Coblentz Society
Collection (C) 2018 copyright by the U.S. Secretary of Commerce
on behalf of the United States of America. All rights reserved.
##DATE=1966/09/19
##NAMES=1-(2-chloroethyl)-1-([(1,1-dioxidotetrahydro-2H-thiopyran-4-yl)amino]carbonyl)-2-oxohydrazine
2H-Thiopyran, 4-(3-)2-chloroethyl (-3-nitrosoureido)tetrahydro-, 1,1-dioxide
##CAS REGISTRY NO=33022-02-5
##MOLFORM=C8 H14 Cl N3 O4 S
##SOURCE REFERENCE=COBLENTZ NO. 7854
##$NIST SOURCE=COBLENTZ
##$NIST IMAGE=cob7854
##SPECTROMETER/DATA SYSTEM=PERKIN-ELMER 521 (GRATING)
##INSTRUMENT PARAMETERS=FILTERS AT 3150, 2500, 2000, 1150, 700, 410. GRATING CHANGES: 2000, 630
##STATE=SOLID (1 mg / 650 mg KBr DISC)
$$ PURITY - ANALYTICAL
##SAMPLING PROCEDURE=TRANSMISSION
##RESOLUTION=2
##DATA PROCESSING=DIGITIZED BY COBLENTZ SOCIETY (BATCH II) FROM HARD COPY
##XUNITS=1/CM
##YUNITS=TRANSMITTANCE
##XFACTOR=1.0
##YFACTOR=1
##FIRSTX=246
##LASTX=3850
##FIRSTY=0.3558
##MAXX=3850
##MINX=246
##MAXY=0.8679
##MINY=0.0972
##NPOINTS=3605
##XYDATA=(X++(Y..Y))
246.000000 0.3558 0.3634 0.3720 0.3775 0.3829
251.000000 0.3881 0.3924 0.3967 0.4010 0.4053
256.000000 0.4103 0.4167 0.4231 0.4295 0.4358
261.000000 0.4443 0.4529 0.4614 0.4669 0.4723
266.000000 0.4777 0.4831 0.4885 0.4956 0.5030
271.000000 0.5104 0.5186 0.5270 0.5353 0.5411
276.000000 0.5470 0.5529 0.5575 0.5612 0.5649
281.000000 0.5672 0.5682 0.5692 0.5703 0.5713
286.000000 0.5717 0.5722 0.5726 0.5728 0.5729
291.000000 0.5730 0.5731 0.5747 0.5733 0.5732
296.000000 0.5731 0.5730 0.5729 0.5728 0.5728
301.000000 0.5724 0.5717 0.5694 0.5661 0.5623
306.000000 0.5593 0.5580 0.5569 0.5587 0.5586
311.000000 0.5603 0.5641 0.5699 0.5779 0.5831
316.000000 0.5883 0.5941 0.6040 0.6139 0.6238
321.000000 0.6337 0.6436 0.6630 0.6713 0.6788
326.000000 0.6881 0.6945 0.6982 0.7003 0.7018
331.000000 0.7029 0.7039 0.7050 0.7058 0.7065
336.000000 0.7073 0.7079 0.7082 0.7086 0.7089
341.000000 0.7099 0.7145 0.7215 0.7307 0.7338
346.000000 0.7352 0.7351 0.7347 0.7344 0.7338
351.000000 0.7328 0.7307 0.7286 0.7265 0.7244
356.000000 0.7224 0.7204 0.7184 0.7170 0.7168
361.000000 0.7175 0.7181 0.7193 0.7210 0.7248
366.000000 0.7284 0.7318 0.7350 0.7369 0.7372
371.000000 0.7375 0.7374 0.7373 0.7373 0.7380
376.000000 0.7396 0.7415 0.7436 0.7489 0.7584
381.000000 0.7709 0.7754 0.7780 0.7783 0.7784
386.000000 0.7784 0.7783 0.7783 0.7782 0.7779
391.000000 0.7776 0.7772 0.7769 0.7764 0.7758
396.000000 0.7752 0.7744 0.7725 0.7706 0.7665
401.000000 0.7612 0.7562 0.7513 0.7465 0.7416
406.000000 0.7341 0.7263 0.7163 0.7085 0.7037
411.000000 0.7021 0.7025 0.7040 0.7067 0.7154
416.000000 0.7314 0.7354 0.7371 0.7371 0.7364
421.000000 0.7352 0.7334 0.7264 0.6650 0.6036
426.000000 0.5613 0.5631 0.5735 0.5971 0.6163
431.000000 0.6151 0.5967 0.5832 0.5997 0.6315
436.000000 0.6632 0.6949 0.7267 0.7397 0.7473
441.000000 0.7534 0.7593 0.7650 0.7722 0.7805
446.000000 0.7837 0.7857 0.7867 0.7877 0.7873
451.000000 0.7869 0.7857 0.7839 0.7820 0.7801
456.000000 0.7782 0.7764 0.7747 0.7746 0.7750
461.000000 0.7760 0.7843 0.7914 0.7943 0.7962
466.000000 0.7968 0.7971 0.7974 0.7973 0.7972
471.000000 0.7971 0.7968 0.7966 0.7979 0.7960
476.000000 0.7957 0.7952 0.7946 0.7932 0.7918
481.000000 0.7902 0.7874 0.7835 0.7760 0.7695
486.000000 0.7598 0.7556 0.7530 0.7525 0.7512
491.000000 0.7540 0.7572 0.7631 0.7672 0.7697
496.000000 0.7720 0.7741 0.7745 0.7746 0.7746
501.000000 0.7751 0.7764 0.7778 0.7807 0.7831
506.000000 0.7852 0.7861 0.7869 0.7876 0.7878
511.000000 0.7884 0.7880 0.7879 0.7875 0.7871
516.000000 0.7860 0.7849 0.7836 0.7821 0.7806
521.000000 0.7792 0.7771 0.7747 0.7715 0.7678
526.000000 0.7622 0.7541 0.7242 0.6981 0.6720
531.000000 0.6459 0.6197 0.5936 0.5867 0.5869
536.000000 0.6046 0.6329 0.6611 0.6893 0.7176
541.000000 0.7458 0.7739 0.7832 0.7866 0.7877
546.000000 0.7886 0.7891 0.7894 0.7897 0.7900
551.000000 0.7899 0.7918 0.7898 0.7898 0.7897
556.000000 0.7895 0.7892 0.7889 0.7887 0.7884
561.000000 0.7882 0.7879 0.7876 0.7873 0.7870
566.000000 0.7867 0.7864 0.7861 0.7858 0.7855
571.000000 0.7851 0.7847 0.7843 0.7839 0.7835
576.000000 0.7831 0.7826 0.7822 0.7817 0.7811
581.000000 0.7805 0.7799 0.7793 0.7787 0.7779
586.000000 0.7768 0.7758 0.7748 0.7737 0.7727
591.000000 0.7716 0.7706 0.7691 0.7677 0.7662
596.000000 0.7647 0.7631 0.7609 0.7586 0.7564
601.000000 0.7541 0.7515 0.7483 0.7436 0.7387
606.000000 0.7343 0.7292 0.7238 0.7177 0.7118
611.000000 0.7072 0.7026 0.6850 0.6635 0.6419
616.000000 0.6225 0.6129 0.6115 0.6112 0.6130
621.000000 0.6175 0.6297 0.6351 0.6396 0.6442
626.000000 0.6488 0.6533 0.6584 0.6571 0.6564
631.000000 0.6551 0.6520 0.6490 0.6432 0.6385
636.000000 0.6340 0.6297 0.6254 0.6201 0.6147
641.000000 0.6061 0.5944 0.5854 0.5783 0.5720
646.000000 0.5664 0.5630 0.5620 0.5609 0.5658
651.000000 0.5704 0.5747 0.5836 0.5932 0.6028
656.000000 0.6124 0.6220 0.6262 0.6264 0.6255
661.000000 0.6158 0.6061 0.5965 0.5908 0.5909
666.000000 0.6400 0.6929 0.7076 0.7289 0.7399
671.000000 0.7496 0.7577 0.7648 0.7705 0.7757
676.000000 0.7782 0.7806 0.7831 0.7855 0.7870
681.000000 0.7885 0.7901 0.7916 0.7927 0.7936
686.000000 0.7945 0.7954 0.7963 0.7963 0.7981
691.000000 0.7960 0.7953 0.7946 0.7935 0.7921
696.000000 0.7904 0.7884 0.7863 0.7843 0.7812
701.000000 0.7772 0.7710 0.7604 0.7419 0.7236
706.000000 0.7053 0.6870 0.6686 0.6503 0.6320
711.000000 0.6222 0.6197 0.6196 0.6207 0.6457
716.000000 0.6198 0.7107 0.7431 0.7756 0.7894
721.000000 0.7926 0.7943 0.7957 0.7971 0.7976
726.000000 0.7982 0.7987 0.7972 0.7990 0.7990
731.000000 0.7985 0.7981 0.7968 0.7954 0.7934
736.000000 0.7910 0.7882 0.7853 0.7815 0.7773
741.000000 0.7640 0.7502 0.7279 0.7057 0.6834
746.000000 0.6729 0.6730 0.6800 0.6963 0.7121
751.000000 0.7122 0.7114 0.7047 0.6923 0.6799
756.000000 0.6677 0.6682 0.6778 0.6936 0.7095
761.000000 0.7227 0.7227 0.7223 0.7115 0.6941
766.000000 0.6768 0.6595 0.6421 0.6248 0.6074
771.000000 0.5991 0.6004 0.6210 0.6696 0.7181
776.000000 0.7666 0.7755 0.7769 0.7755 0.7752
781.000000 0.7738 0.7592 0.7402 0.7211 0.7021
786.000000 0.6830 0.6645 0.6631 0.6695 0.6832
791.000000 0.6969 0.7107 0.7244 0.7381 0.7519
796.000000 0.7656 0.7789 0.7869 0.7957 0.8005
801.000000 0.8054 0.8082 0.8100 0.8114 0.8118
806.000000 0.8118 0.8125 0.8123 0.8121 0.8119
811.000000 0.8113 0.8106 0.8098 0.8086 0.8073
816.000000 0.8057 0.8041 0.8026 0.8004 0.7980
821.000000 0.7956 0.7932 0.7896 0.7858 0.7815
826.000000 0.7768 0.7716 0.7659 0.7603 0.7542
831.000000 0.7465 0.7387 0.7274 0.7133 0.6993
836.000000 0.6853 0.6749 0.6567 0.6464 0.6362
841.000000 0.6235 0.6089 0.5917 0.5738 0.5299
846.000000 0.4860 0.4420 0.3981 0.3980 0.3983
851.000000 0.4001 0.4792 0.5512 0.6232 0.6698
856.000000 0.6884 0.7101 0.7383 0.7544 0.7746
861.000000 0.7849 0.7905 0.7914 0.7923 0.7949
866.000000 0.7930 0.7932 0.7925 0.7918 0.7909
871.000000 0.7895 0.7882 0.7856 0.7826 0.7796
876.000000 0.7765 0.7724 0.7674 0.7625 0.7571
881.000000 0.7510 0.7448 0.7387 0.7252 0.7120
886.000000 0.6996 0.6896 0.6825 0.6725 0.6556
891.000000 0.6387 0.6218 0.6049 0.5880 0.5711
896.000000 0.5536 0.5427 0.5375 0.5364 0.5362
901.000000 0.5363 0.5367 0.5409 0.5506 0.5609
906.000000 0.5665 0.5813 0.5997 0.6180 0.6364
911.000000 0.6547 0.6731 0.6899 0.6951 0.6979
916.000000 0.6973 0.6988 0.6981 0.6931 0.6835
921.000000 0.6777 0.6725 0.6666 0.6641 0.6619
926.000000 0.6619 0.6624 0.6612 0.6746 0.6927
931.000000 0.7036 0.7172 0.7228 0.7243 0.7253
936.000000 0.7252 0.7259 0.7240 0.7222 0.7118
941.000000 0.6968 0.6817 0.6667 0.6516 0.6366
946.000000 0.6215 0.6065 0.5936 0.5875 0.5816
951.000000 0.5757 0.5695 0.5630 0.5553 0.5388
956.000000 0.5220 0.5018 0.4867 0.4743 0.4657
961.000000 0.4571 0.4475 0.4433 0.4419 0.4425
966.000000 0.4434 0.4599 0.4820 0.5041 0.5262
971.000000 0.5482 0.5703 0.5924 0.6145 0.6365
976.000000 0.6586 0.6807 0.6918 0.6945 0.6947
981.000000 0.6944 0.6937 0.6918 0.6890 0.6869
986.000000 0.6857 0.6850 0.6841 0.6826 0.6808
991.000000 0.6780 0.6729 0.6675 0.6620 0.6564
996.000000 0.6509 0.6451 0.6391 0.6345 0.6313
1001.000000 0.6303 0.6301 0.6302 0.6323 0.6315
1006.000000 0.6350 0.6492 0.6634 0.6776 0.6919
1011.000000 0.7061 0.7198 0.7283 0.7342 0.7427
1016.000000 0.7499 0.7543 0.7566 0.7573 0.7556
1021.000000 0.7568 0.7560 0.7551 0.7539 0.7526
1026.000000 0.7501 0.7458 0.7411 0.7365 0.7318
1031.000000 0.7275 0.7234 0.7193 0.7168 0.7142
1036.000000 0.7116 0.7092 0.7074 0.7056 0.7037
1041.000000 0.7010 0.6965 0.6874 0.6636 0.6373
1046.000000 0.6111 0.5848 0.5585 0.5322 0.5059
1051.000000 0.4797 0.4584 0.4609 0.4687 0.4943
1056.000000 0.5200 0.5456 0.5456 0.5312 0.5462
1061.000000 0.4823 0.4578 0.4334 0.4089 0.3856
1066.000000 0.3860 0.3878 0.4019 0.4283 0.4547
1071.000000 0.4811 0.5075 0.5340 0.5403 0.5409
1076.000000 0.5175 0.4783 0.4390 0.3997 0.3605
1081.000000 0.3212 0.2819 0.2613 0.2615 0.2628
1086.000000 0.2709 0.2845 0.2981 0.3117 0.3253
1091.000000 0.3389 0.3525 0.3972 0.4472 0.4973
1096.000000 0.5473 0.5973 0.6421 0.6456 0.6464
1101.000000 0.6473 0.6475 0.6473 0.6470 0.6466
1106.000000 0.6454 0.6250 0.6040 0.5831 0.5621
1111.000000 0.5411 0.5246 0.5185 0.4494 0.3488
1116.000000 0.2482 0.1665 0.1373 0.1295 0.1221
1121.000000 0.1124 0.1017 0.0972 0.0975 0.0986
1126.000000 0.0998 0.1489 0.2275 0.3062 0.3848
1131.000000 0.4634 0.5421 0.6260 0.6409 0.6545
1136.000000 0.6687 0.6710 0.6721 0.6727 0.6731
1141.000000 0.6728 0.6724 0.6709 0.6690 0.6632
1146.000000 0.6566 0.6475 0.6379 0.6283 0.6185
1151.000000 0.6014 0.5822 0.5629 0.5437 0.5244
1156.000000 0.5052 0.4859 0.4666 0.4501 0.4443
1161.000000 0.4427 0.4424 0.4422 0.4420 0.4402
1166.000000 0.4425 0.4440 0.4490 0.4784 0.5090
1171.000000 0.5396 0.5701 0.6007 0.6313 0.6618
1176.000000 0.6875 0.6895 0.6904 0.6907 0.6901
1181.000000 0.6908 0.6833 0.6789 0.6738 0.6687
1186.000000 0.6662 0.6656 0.6628 0.6663 0.6679
1191.000000 0.6706 0.6789 0.6876 0.6963 0.7050
1196.000000 0.7137 0.7224 0.7232 0.7254 0.7228
1201.000000 0.7193 0.7132 0.7071 0.7009 0.6948
1206.000000 0.6887 0.6826 0.6743 0.6756 0.6830
1211.000000 0.7022 0.7214 0.7406 0.7564 0.7622
1216.000000 0.7652 0.7664 0.7675 0.7673 0.7669
1221.000000 0.7664 0.7658 0.7645 0.7610 0.7558
1226.000000 0.7497 0.7421 0.7327 0.7254 0.7189
1231.000000 0.7129 0.7003 0.6817 0.6632 0.6446
1236.000000 0.6261 0.6176 0.6182 0.6155 0.6453
1241.000000 0.6603 0.6754 0.6904 0.7035 0.7047
1246.000000 0.7051 0.7051 0.7036 0.7002 0.6950
1251.000000 0.6886 0.6825 0.6762 0.6694 0.6599
1256.000000 0.6393 0.6187 0.5981 0.5775 0.5570
1261.000000 0.5364 0.5158 0.4952 0.4747 0.4541
1266.000000 0.4335 0.4140 0.4085 0.4027 0.3844
1271.000000 0.3414 0.3309 0.3203 0.2968 0.2819
1276.000000 0.2783 0.2763 0.2764 0.2826 0.2975
1281.000000 0.3124 0.3272 0.3421 0.3570 0.3617
1286.000000 0.3596 0.3508 0.3420 0.3332 0.3244
1291.000000 0.3156 0.3098 0.3113 0.3473 0.4019
1296.000000 0.4565 0.5111 0.5263 0.5282 0.5290
1301.000000 0.5281 0.5288 0.5277 0.5148 0.4995
1306.000000 0.4842 0.4689 0.4536 0.4384 0.4231
1311.000000 0.4078 0.3925 0.3772 0.3619 0.3466
1316.000000 0.3352 0.3287 0.3233 0.3204 0.3205
1321.000000 0.3201 0.3380 0.3700 0.4019 0.4339
1326.000000 0.4658 0.4978 0.5150 0.5174 0.5185
1331.000000 0.5177 0.5131 0.5084 0.5038 0.5007
1336.000000 0.5009 0.5035 0.5182 0.5330 0.5477
1341.000000 0.5625 0.5773 0.5920 0.6068 0.6215
1346.000000 0.6363 0.6511 0.6658 0.6765 0.6839
1351.000000 0.6898 0.6962 0.7031 0.7067 0.7102
1356.000000 0.7113 0.7122 0.7121 0.7119 0.7119
1361.000000 0.7116 0.7110 0.7101 0.7090 0.7078
1366.000000 0.7060 0.7042 0.7013 0.6974 0.6875
1371.000000 0.6795 0.6773 0.6770 0.6744 0.6806
1376.000000 0.6901 0.6977 0.7051 0.7158 0.7300
1381.000000 0.7371 0.7428 0.7462 0.7470 0.7477
1386.000000 0.7481 0.7488 0.7482 0.7477 0.7469
1391.000000 0.7455 0.7440 0.7419 0.7381 0.7335
1396.000000 0.7288 0.7232 0.7175 0.7107 0.6946
1401.000000 0.6753 0.6559 0.6366 0.6172 0.5902
1406.000000 0.5874 0.5864 0.5853 0.5851 0.5859
1411.000000 0.5854 0.5926 0.5968 0.6009 0.6051
1416.000000 0.6096 0.6176 0.6306 0.6436 0.6566
1421.000000 0.6696 0.6826 0.6884 0.6889 0.6877
1426.000000 0.6884 0.6718 0.6552 0.6386 0.6220
1431.000000 0.6053 0.5887 0.5721 0.5642 0.5643
1436.000000 0.5625 0.5999 0.6205 0.6412 0.6618
1441.000000 0.6824 0.6953 0.6984 0.6984 0.6982
1446.000000 0.6988 0.6917 0.6830 0.6744 0.6651
1451.000000 0.6558 0.6479 0.6380 0.6322 0.6275
1456.000000 0.6246 0.6218 0.6189 0.6166 0.6143
1461.000000 0.6107 0.5905 0.5699 0.5598 0.5519
1466.000000 0.5232 0.4766 0.4300 0.3834 0.3368
1471.000000 0.2902 0.2674 0.2512 0.2387 0.2317
1476.000000 0.2247 0.2210 0.2195 0.2206 0.2219
1481.000000 0.2255 0.2287 0.2327 0.2390 0.2461
1486.000000 0.2544 0.2721 0.2825 0.2914 0.3174
1491.000000 0.3353 0.3532 0.3711 0.3890 0.4069
1496.000000 0.4248 0.4426 0.4605 0.4784 0.4925
1501.000000 0.5063 0.5106 0.5126 0.5139 0.5149
1506.000000 0.5152 0.5147 0.5114 0.5053 0.4854
1511.000000 0.4614 0.4374 0.4134 0.3895 0.3655
1516.000000 0.3415 0.3175 0.2935 0.2695 0.2456
1521.000000 0.2216 0.1976 0.1714 0.1628 0.1542
1526.000000 0.1409 0.1339 0.1309 0.1297 0.1298
1531.000000 0.1302 0.1288 0.1392 0.1633 0.1873
1536.000000 0.2114 0.2354 0.2595 0.2835 0.3075
1541.000000 0.3316 0.3556 0.3757 0.3947 0.4508
1546.000000 0.4860 0.5062 0.5246 0.5397 0.5562
1551.000000 0.5786 0.5971 0.6143 0.6277 0.6408
1556.000000 0.6534 0.6661 0.6749 0.6827 0.6906
1561.000000 0.6984 0.7051 0.7107 0.7163 0.7219
1566.000000 0.7264 0.7309 0.7355 0.7388 0.7406
1571.000000 0.7424 0.7443 0.7461 0.7479 0.7489
1576.000000 0.7498 0.7507 0.7517 0.7526 0.7535
1581.000000 0.7542 0.7548 0.7554 0.7560 0.7565
1586.000000 0.7571 0.7577 0.7584 0.7594 0.7603
1591.000000 0.7612 0.7622 0.7631 0.7641 0.7650
1596.000000 0.7660 0.7671 0.7681 0.7692 0.7702
1601.000000 0.7712 0.7723 0.7732 0.7741 0.7749
1606.000000 0.7758 0.7766 0.7774 0.7783 0.7791
1611.000000 0.7791 0.7790 0.7790 0.7789 0.7788
1616.000000 0.7785 0.7782 0.7779 0.7776 0.7773
1621.000000 0.7770 0.7790 0.7767 0.7769 0.7771
1626.000000 0.7773 0.7775 0.7777 0.7780 0.7788
1631.000000 0.7796 0.7804 0.7813 0.7818 0.7816
1636.000000 0.7815 0.7813 0.7808 0.7797 0.7786
1641.000000 0.7772 0.7757 0.7742 0.7727 0.7712
1646.000000 0.7693 0.7658 0.7623 0.7590 0.7558
1651.000000 0.7527 0.7496 0.7465 0.7423 0.7377
1656.000000 0.7331 0.7276 0.7215 0.7153 0.7084
1661.000000 0.6988 0.6916 0.6869 0.6823 0.6790
1666.000000 0.6757 0.6724 0.6691 0.6650 0.6606
1671.000000 0.6563 0.6519 0.6449 0.6369 0.6274
1676.000000 0.6167 0.6050 0.5889 0.5729 0.5515
1681.000000 0.5294 0.5057 0.4691 0.4333 0.3893
1686.000000 0.3454 0.3015 0.2575 0.2136 0.1696
1691.000000 0.1257 0.1136 0.1075 0.1028 0.1029
1696.000000 0.1031 0.1038 0.1063 0.1155 0.1247
1701.000000 0.1339 0.1431 0.1523 0.1615 0.1707
1706.000000 0.1800 0.1901 0.1991 0.2071 0.2146
1711.000000 0.2221 0.2450 0.2651 0.2752 0.2854
1716.000000 0.2968 0.3088 0.3476 0.3625 0.3773
1721.000000 0.3922 0.4071 0.4220 0.4369 0.4518
1726.000000 0.4667 0.4816 0.4965 0.5114 0.5262
1731.000000 0.5411 0.5560 0.5709 0.5858 0.5989
1736.000000 0.6034 0.6291 0.6395 0.6490 0.6575
1741.000000 0.6637 0.6699 0.6761 0.6823 0.6920
1746.000000 0.7043 0.7147 0.7242 0.7324 0.7368
1751.000000 0.7412 0.7456 0.7501 0.7536 0.7567
1756.000000 0.7599 0.7630 0.7662 0.7694 0.7725
1761.000000 0.7744 0.7763 0.7781 0.7800 0.7819
1766.000000 0.7838 0.7856 0.7875 0.7890 0.7903
1771.000000 0.7917 0.7930 0.7943 0.7957 0.7970
1776.000000 0.7984 0.7997 0.8010 0.8020 0.8029
1781.000000 0.8039 0.8048 0.8057 0.8067 0.8076
1786.000000 0.8086 0.8095 0.8104 0.8114 0.8121
1791.000000 0.8129 0.8137 0.8145 0.8152 0.8160
1796.000000 0.8168 0.8176 0.8184 0.8191 0.8199
1801.000000 0.8207 0.8215 0.8222 0.8229 0.8236
1806.000000 0.8244 0.8251 0.8258 0.8265 0.8272
1811.000000 0.8280 0.8287 0.8294 0.8301 0.8307
1816.000000 0.8313 0.8318 0.8323 0.8328 0.8334
1821.000000 0.8339 0.8344 0.8349 0.8355 0.8360
1826.000000 0.8365 0.8370 0.8376 0.8381 0.8386
1831.000000 0.8391 0.8397 0.8402 0.8407 0.8412
1836.000000 0.8417 0.8423 0.8428 0.8433 0.8438
1841.000000 0.8443 0.8446 0.8449 0.8452 0.8455
1846.000000 0.8458 0.8461 0.8464 0.8467 0.8470
1851.000000 0.8473 0.8476 0.8479 0.8482 0.8485
1856.000000 0.8488 0.8491 0.8494 0.8497 0.8500
1861.000000 0.8503 0.8504 0.8505 0.8505 0.8506
1866.000000 0.8506 0.8507 0.8508 0.8508 0.8509
1871.000000 0.8509 0.8510 0.8511 0.8511 0.8512
1876.000000 0.8512 0.8513 0.8514 0.8514 0.8515
1881.000000 0.8516 0.8517 0.8518 0.8519 0.8519
1886.000000 0.8520 0.8521 0.8522 0.8523 0.8524
1891.000000 0.8525 0.8526 0.8527 0.8528 0.8529
1896.000000 0.8530 0.8531 0.8531 0.8532 0.8533
1901.000000 0.8534 0.8535 0.8536 0.8537 0.8538
1906.000000 0.8539 0.8539 0.8540 0.8541 0.8542
1911.000000 0.8542 0.8543 0.8544 0.8544 0.8545
1916.000000 0.8546 0.8547 0.8547 0.8548 0.8549
1921.000000 0.8549 0.8550 0.8551 0.8551 0.8552
1926.000000 0.8553 0.8554 0.8554 0.8555 0.8556
1931.000000 0.8556 0.8557 0.8558 0.8558 0.8559
1936.000000 0.8559 0.8559 0.8560 0.8560 0.8560
1941.000000 0.8560 0.8560 0.8560 0.8560 0.8560
1946.000000 0.8560 0.8560 0.8560 0.8560 0.8560
1951.000000 0.8560 0.8561 0.8561 0.8561 0.8561
1956.000000 0.8561 0.8561 0.8561 0.8561 0.8560
1961.000000 0.8560 0.8559 0.8558 0.8558 0.8557
1966.000000 0.8556 0.8556 0.8555 0.8554 0.8554
1971.000000 0.8553 0.8552 0.8551 0.8551 0.8550
1976.000000 0.8549 0.8549 0.8548 0.8547 0.8547
1981.000000 0.8546 0.8545 0.8544 0.8543 0.8541
1986.000000 0.8539 0.8537 0.8536 0.8534 0.8532
1991.000000 0.8530 0.8529 0.8527 0.8525 0.8523
1996.000000 0.8521 0.8519 0.8517 0.8515 0.8513
2001.000000 0.8512 0.8511 0.8510 0.8509 0.8508
2006.000000 0.8507 0.8506 0.8505 0.8504 0.8504
2011.000000 0.8504 0.8504 0.8503 0.8503 0.8503
2016.000000 0.8503 0.8503 0.8504 0.8505 0.8505
2021.000000 0.8506 0.8507 0.8507 0.8508 0.8509
2026.000000 0.8510 0.8510 0.8511 0.8512 0.8513
2031.000000 0.8513 0.8514 0.8515 0.8516 0.8516
2036.000000 0.8517 0.8518 0.8517 0.8517 0.8516
2041.000000 0.8516 0.8515 0.8515 0.8514 0.8514
2046.000000 0.8514 0.8513 0.8514 0.8515 0.8516
2051.000000 0.8516 0.8517 0.8518 0.8519 0.8520
2056.000000 0.8521 0.8522 0.8522 0.8523 0.8524
2061.000000 0.8525 0.8526 0.8527 0.8528 0.8529
2066.000000 0.8530 0.8531 0.8532 0.8533 0.8534
2071.000000 0.8535 0.8536 0.8536 0.8535 0.8534
2076.000000 0.8534 0.8534 0.8533 0.8533 0.8533
2081.000000 0.8533 0.8533 0.8533 0.8533 0.8533
2086.000000 0.8533 0.8533 0.8533 0.8533 0.8534
2091.000000 0.8534 0.8535 0.8535 0.8535 0.8536
2096.000000 0.8536 0.8537 0.8537 0.8537 0.8538
2101.000000 0.8538 0.8539 0.8539 0.8539 0.8540
2106.000000 0.8540 0.8541 0.8541 0.8541 0.8540
2111.000000 0.8540 0.8540 0.8540 0.8540 0.8540
2116.000000 0.8540 0.8540 0.8540 0.8540 0.8539
2121.000000 0.8539 0.8539 0.8539 0.8539 0.8539
2126.000000 0.8539 0.8539 0.8539 0.8538 0.8538
2131.000000 0.8538 0.8538 0.8538 0.8538 0.8538
2136.000000 0.8538 0.8538 0.8538 0.8537 0.8537
2141.000000 0.8537 0.8538 0.8538 0.8538 0.8538
2146.000000 0.8538 0.8538 0.8538 0.8538 0.8538
2151.000000 0.8538 0.8538 0.8539 0.8539 0.8539
2156.000000 0.8539 0.8539 0.8539 0.8539 0.8539
2161.000000 0.8539 0.8539 0.8539 0.8540 0.8540
2166.000000 0.8547 0.8540 0.8540 0.8539 0.8539
2171.000000 0.8539 0.8539 0.8539 0.8539 0.8539
2176.000000 0.8538 0.8538 0.8538 0.8538 0.8538
2181.000000 0.8538 0.8537 0.8537 0.8537 0.8537
2186.000000 0.8537 0.8537 0.8537 0.8536 0.8536
2191.000000 0.8536 0.8536 0.8536 0.8536 0.8535
2196.000000 0.8535 0.8535 0.8535 0.8535 0.8535
2201.000000 0.8535 0.8534 0.8534 0.8534 0.8534
2206.000000 0.8534 0.8534 0.8533 0.8533 0.8533
2211.000000 0.8533 0.8533 0.8533 0.8533 0.8532
2216.000000 0.8532 0.8532 0.8532 0.8532 0.8532
2221.000000 0.8531 0.8531 0.8531 0.8531 0.8532
2226.000000 0.8532 0.8532 0.8532 0.8532 0.8533
2231.000000 0.8533 0.8533 0.8533 0.8534 0.8534
2236.000000 0.8534 0.8534 0.8534 0.8535 0.8535
2241.000000 0.8535 0.8535 0.8536 0.8536 0.8536
2246.000000 0.8536 0.8536 0.8537 0.8537 0.8537
2251.000000 0.8537 0.8538 0.8538 0.8538 0.8538
2256.000000 0.8538 0.8539 0.8539 0.8539 0.8540
2261.000000 0.8540 0.8540 0.8541 0.8541 0.8542
2266.000000 0.8542 0.8543 0.8543 0.8543 0.8544
2271.000000 0.8544 0.8545 0.8545 0.8546 0.8546
2276.000000 0.8546 0.8547 0.8547 0.8548 0.8548
2281.000000 0.8549 0.8549 0.8549 0.8550 0.8550
2286.000000 0.8551 0.8551 0.8552 0.8552 0.8552
2291.000000 0.8553 0.8553 0.8554 0.8554 0.8555
2296.000000 0.8555 0.8556 0.8556 0.8557 0.8558
2301.000000 0.8558 0.8559 0.8559 0.8560 0.8561
2306.000000 0.8561 0.8562 0.8562 0.8563 0.8563
2311.000000 0.8564 0.8565 0.8565 0.8565 0.8565
2316.000000 0.8564 0.8564 0.8563 0.8563 0.8562
2321.000000 0.8562 0.8561 0.8561 0.8560 0.8560
2326.000000 0.8559 0.8559 0.8558 0.8558 0.8558
2331.000000 0.8557 0.8557 0.8556 0.8556 0.8555
2336.000000 0.8555 0.8554 0.8554 0.8553 0.8553
2341.000000 0.8552 0.8552 0.8551 0.8551 0.8550
2346.000000 0.8550 0.8549 0.8549 0.8548 0.8548
2351.000000 0.8547 0.8547 0.8546 0.8546 0.8545
2356.000000 0.8545 0.8544 0.8544 0.8543 0.8543
2361.000000 0.8542 0.8542 0.8541 0.8541 0.8540
2366.000000 0.8540 0.8539 0.8539 0.8539 0.8538
2371.000000 0.8538 0.8538 0.8537 0.8537 0.8537
2376.000000 0.8537 0.8536 0.8536 0.8536 0.8536
2381.000000 0.8535 0.8535 0.8535 0.8534 0.8534
2386.000000 0.8534 0.8534 0.8533 0.8533 0.8533
2391.000000 0.8533 0.8532 0.8532 0.8532 0.8532
2396.000000 0.8531 0.8531 0.8531 0.8530 0.8530
2401.000000 0.8530 0.8530 0.8529 0.8529 0.8529
2406.000000 0.8529 0.8528 0.8528 0.8528 0.8528
2411.000000 0.8527 0.8527 0.8527 0.8527 0.8526
2416.000000 0.8526 0.8526 0.8526 0.8525 0.8525
2421.000000 0.8525 0.8525 0.8524 0.8524 0.8524
2426.000000 0.8524 0.8523 0.8523 0.8523 0.8523
2431.000000 0.8523 0.8522 0.8522 0.8522 0.8522
2436.000000 0.8521 0.8521 0.8521 0.8521 0.8520
2441.000000 0.8520 0.8520 0.8520 0.8521 0.8521
2446.000000 0.8522 0.8523 0.8524 0.8524 0.8525
2451.000000 0.8526 0.8527 0.8527 0.8528 0.8529
2456.000000 0.8530 0.8530 0.8531 0.8532 0.8533
2461.000000 0.8533 0.8534 0.8535 0.8535 0.8537
2466.000000 0.8539 0.8540 0.8542 0.8544 0.8547
2471.000000 0.8549 0.8552 0.8554 0.8556 0.8559
2476.000000 0.8561 0.8563 0.8562 0.8562 0.8561
2481.000000 0.8561 0.8560 0.8559 0.8559 0.8558
2486.000000 0.8558 0.8557 0.8555 0.8554 0.8553
2491.000000 0.8551 0.8550 0.8549 0.8548 0.8546
2496.000000 0.8545 0.8544 0.8542 0.8541 0.8540
2501.000000 0.8539 0.8538 0.8537 0.8537 0.8536
2506.000000 0.8535 0.8534 0.8533 0.8533 0.8532
2511.000000 0.8531 0.8530 0.8529 0.8529 0.8528
2516.000000 0.8527 0.8526 0.8525 0.8524 0.8523
2521.000000 0.8522 0.8521 0.8521 0.8520 0.8519
2526.000000 0.8518 0.8517 0.8516 0.8515 0.8514
2531.000000 0.8513 0.8513 0.8512 0.8511 0.8510
2536.000000 0.8509 0.8508 0.8507 0.8506 0.8505
2541.000000 0.8505 0.8504 0.8503 0.8503 0.8502
2546.000000 0.8502 0.8502 0.8502 0.8501 0.8501
2551.000000 0.8501 0.8501 0.8500 0.8500 0.8500
2556.000000 0.8500 0.8500 0.8499 0.8499 0.8499
2561.000000 0.8499 0.8498 0.8498 0.8498 0.8498
2566.000000 0.8497 0.8497 0.8497 0.8497 0.8497
2571.000000 0.8497 0.8497 0.8497 0.8496 0.8496
2576.000000 0.8496 0.8496 0.8496 0.8496 0.8496
2581.000000 0.8496 0.8495 0.8495 0.8495 0.8495
2586.000000 0.8495 0.8495 0.8495 0.8495 0.8495
2591.000000 0.8494 0.8494 0.8494 0.8494 0.8494
2596.000000 0.8494 0.8494 0.8494 0.8494 0.8495
2601.000000 0.8495 0.8496 0.8496 0.8496 0.8497
2606.000000 0.8497 0.8498 0.8498 0.8499 0.8499
2611.000000 0.8499 0.8500 0.8500 0.8501 0.8501
2616.000000 0.8501 0.8502 0.8502 0.8502 0.8503
2621.000000 0.8503 0.8503 0.8504 0.8504 0.8505
2626.000000 0.8505 0.8505 0.8506 0.8506 0.8506
2631.000000 0.8507 0.8507 0.8507 0.8508 0.8508
2636.000000 0.8508 0.8509 0.8509 0.8509 0.8510
2641.000000 0.8510 0.8510 0.8511 0.8511 0.8511
2646.000000 0.8512 0.8512 0.8512 0.8512 0.8513
2651.000000 0.8513 0.8513 0.8513 0.8513 0.8513
2656.000000 0.8509 0.8506 0.8503 0.8500 0.8497
2661.000000 0.8494 0.8491 0.8487 0.8484 0.8481
2666.000000 0.8478 0.8475 0.8472 0.8469 0.8468
2671.000000 0.8466 0.8464 0.8463 0.8461 0.8459
2676.000000 0.8458 0.8456 0.8454 0.8453 0.8451
2681.000000 0.8450 0.8448 0.8446 0.8445 0.8444
2686.000000 0.8443 0.8442 0.8441 0.8440 0.8441
2691.000000 0.8444 0.8446 0.8449 0.8452 0.8454
2696.000000 0.8457 0.8459 0.8463 0.8466 0.8469
2701.000000 0.8472 0.8475 0.8478 0.8481 0.8484
2706.000000 0.8487 0.8490 0.8493 0.8496 0.8499
2711.000000 0.8502 0.8505 0.8508 0.8511 0.8514
2716.000000 0.8517 0.8516 0.8516 0.8516 0.8515
2721.000000 0.8515 0.8515 0.8514 0.8514 0.8514
2726.000000 0.8514 0.8513 0.8513 0.8513 0.8512
2731.000000 0.8510 0.8509 0.8507 0.8506 0.8505
2736.000000 0.8503 0.8500 0.8497 0.8494 0.8492
2741.000000 0.8489 0.8486 0.8483 0.8480 0.8477
2746.000000 0.8474 0.8471 0.8469 0.8466 0.8464
2751.000000 0.8462 0.8461 0.8459 0.8457 0.8455
2756.000000 0.8453 0.8451 0.8450 0.8448 0.8446
2761.000000 0.8444 0.8442 0.8440 0.8439 0.8438
2766.000000 0.8437 0.8436 0.8435 0.8434 0.8433
2771.000000 0.8432 0.8432 0.8431 0.8430 0.8429
2776.000000 0.8428 0.8427 0.8426 0.8426 0.8425
2781.000000 0.8424 0.8423 0.8422 0.8421 0.8420
2786.000000 0.8419 0.8419 0.8418 0.8418 0.8417
2791.000000 0.8417 0.8416 0.8416 0.8415 0.8415
2796.000000 0.8414 0.8414 0.8413 0.8413 0.8412
2801.000000 0.8412 0.8411 0.8411 0.8411 0.8411
2806.000000 0.8411 0.8410 0.8410 0.8410 0.8410
2811.000000 0.8410 0.8409 0.8407 0.8406 0.8404
2816.000000 0.8403 0.8401 0.8400 0.8398 0.8396
2821.000000 0.8395 0.8393 0.8392 0.8390 0.8389
2826.000000 0.8387 0.8385 0.8382 0.8378 0.8373
2831.000000 0.8369 0.8364 0.8360 0.8355 0.8351
2836.000000 0.8346 0.8340 0.8332 0.8324 0.8316
2841.000000 0.8309 0.8301 0.8293 0.8285 0.8277
2846.000000 0.8267 0.8257 0.8247 0.8237 0.8226
2851.000000 0.8216 0.8206 0.8195 0.8185 0.8173
2856.000000 0.8161 0.8149 0.8137 0.8124 0.8112
2861.000000 0.8100 0.8088 0.8074 0.8094 0.8074
2866.000000 0.8077 0.8081 0.8094 0.8105 0.8114
2871.000000 0.8123 0.8133 0.8141 0.8150 0.8159
2876.000000 0.8167 0.8176 0.8184 0.8190 0.8196
2881.000000 0.8201 0.8212 0.8200 0.8197 0.8194
2886.000000 0.8191 0.8187 0.8183 0.8176 0.8168
2891.000000 0.8160 0.8152 0.8143 0.8132 0.8122
2896.000000 0.8112 0.8102 0.8092 0.8083 0.8073
2901.000000 0.8064 0.8054 0.8045 0.8035 0.8026
2906.000000 0.8018 0.8009 0.8001 0.7992 0.7984
2911.000000 0.7975 0.7961 0.7944 0.7927 0.7910
2916.000000 0.7888 0.7861 0.7834 0.7807 0.7780
2921.000000 0.7748 0.7716 0.7687 0.7659 0.7621
2926.000000 0.7543 0.7489 0.7434 0.7378 0.7313
2931.000000 0.7249 0.7223 0.7196 0.7178 0.7174
2936.000000 0.7177 0.7179 0.7180 0.7185 0.7189
2941.000000 0.7192 0.7195 0.7199 0.7202 0.7212
2946.000000 0.7226 0.7245 0.7300 0.7408 0.7455
2951.000000 0.7462 0.7464 0.7463 0.7460 0.7453
2956.000000 0.7441 0.7414 0.7392 0.7372 0.7352
2961.000000 0.7332 0.7338 0.7345 0.7353 0.7366
2966.000000 0.7382 0.7404 0.7427 0.7444 0.7457
2971.000000 0.7464 0.7471 0.7478 0.7483 0.7489
2976.000000 0.7495 0.7495 0.7496 0.7507 0.7533
2981.000000 0.7562 0.7592 0.7629 0.7669 0.7716
2986.000000 0.7760 0.7800 0.7835 0.7869 0.7893
2991.000000 0.7916 0.7936 0.7950 0.7963 0.7974
2996.000000 0.7978 0.7981 0.7985 0.7989 0.7992
3001.000000 0.7993 0.7994 0.7994 0.7995 0.7996
3006.000000 0.7996 0.7997 0.7998 0.7997 0.7996
3011.000000 0.7996 0.7995 0.7994 0.7994 0.7993
3016.000000 0.7992 0.7990 0.7989 0.7987 0.7985
3021.000000 0.7984 0.7982 0.7980 0.7976 0.7970
3026.000000 0.7964 0.7958 0.7952 0.7946 0.7940
3031.000000 0.7934 0.7930 0.7926 0.7923 0.7920
3036.000000 0.7916 0.7913 0.7909 0.7909 0.7910
3041.000000 0.7910 0.7911 0.7912 0.7913 0.7918
3046.000000 0.7925 0.7933 0.7947 0.7964 0.7980
3051.000000 0.8002 0.8027 0.8052 0.8080 0.8110
3056.000000 0.8137 0.8154 0.8171 0.8188 0.8203
3061.000000 0.8215 0.8228 0.8240 0.8253 0.8265
3066.000000 0.8277 0.8290 0.8300 0.8311 0.8322
3071.000000 0.8333 0.8344 0.8355 0.8366 0.8375
3076.000000 0.8381 0.8388 0.8395 0.8401 0.8408
3081.000000 0.8414 0.8419 0.8422 0.8425 0.8427
3086.000000 0.8430 0.8433 0.8436 0.8439 0.8442
3091.000000 0.8445 0.8448 0.8451 0.8452 0.8454
3096.000000 0.8455 0.8456 0.8457 0.8458 0.8459
3101.000000 0.8460 0.8461 0.8462 0.8463 0.8464
3106.000000 0.8465 0.8466 0.8467 0.8469 0.8470
3111.000000 0.8471 0.8472 0.8473 0.8474 0.8477
3116.000000 0.8481 0.8484 0.8488 0.8491 0.8494
3121.000000 0.8498 0.8501 0.8504 0.8501 0.8511
3126.000000 0.8515 0.8517 0.8519 0.8522 0.8524
3131.000000 0.8526 0.8528 0.8531 0.8533 0.8535
3136.000000 0.8534 0.8532 0.8530 0.8528 0.8523
3141.000000 0.8515 0.8507 0.8498 0.8478 0.8457
3146.000000 0.8435 0.8413 0.8392 0.8391 0.8389
3151.000000 0.8388 0.8386 0.8385 0.8384 0.8383
3156.000000 0.8382 0.8381 0.8380 0.8378 0.8377
3161.000000 0.8376 0.8374 0.8372 0.8369 0.8366
3166.000000 0.8364 0.8361 0.8359 0.8356 0.8354
3171.000000 0.8351 0.8347 0.8344 0.8340 0.8336
3176.000000 0.8333 0.8329 0.8325 0.8322 0.8318
3181.000000 0.8314 0.8310 0.8307 0.8304 0.8300
3186.000000 0.8297 0.8293 0.8290 0.8286 0.8283
3191.000000 0.8280 0.8276 0.8273 0.8269 0.8266
3196.000000 0.8262 0.8259 0.8256 0.8252 0.8249
3201.000000 0.8246 0.8243 0.8240 0.8237 0.8234
3206.000000 0.8230 0.8227 0.8224 0.8221 0.8218
3211.000000 0.8214 0.8211 0.8207 0.8204 0.8201
3216.000000 0.8197 0.8194 0.8190 0.8186 0.8182
3221.000000 0.8177 0.8172 0.8166 0.8157 0.8149
3226.000000 0.8141 0.8132 0.8124 0.8116 0.8108
3231.000000 0.8099 0.8090 0.8081 0.8072 0.8063
3236.000000 0.8054 0.8045 0.8036 0.8027 0.8018
3241.000000 0.8010 0.8002 0.7994 0.7986 0.7978
3246.000000 0.7971 0.7963 0.7955 0.7948 0.7941
3251.000000 0.7934 0.7927 0.7920 0.7913 0.7906
3256.000000 0.7898 0.7891 0.7883 0.7876 0.7868
3261.000000 0.7861 0.7853 0.7844 0.7833 0.7822
3266.000000 0.7811 0.7798 0.7782 0.7765 0.7749
3271.000000 0.7733 0.7716 0.7700 0.7683 0.7664
3276.000000 0.7645 0.7626 0.7607 0.7587 0.7568
3281.000000 0.7549 0.7530 0.7511 0.7488 0.7464
3286.000000 0.7441 0.7417 0.7394 0.7370 0.7346
3291.000000 0.7323 0.7292 0.7252 0.7213 0.7173
3296.000000 0.7133 0.7093 0.7051 0.7009 0.6967
3301.000000 0.6924 0.6879 0.6814 0.6749 0.6680
3306.000000 0.6597 0.6513 0.6420 0.6326 0.6240
3311.000000 0.6180 0.6120 0.6059 0.5999 0.5940
3316.000000 0.5881 0.5822 0.5763 0.5702 0.5638
3321.000000 0.5574 0.5510 0.5154 0.5035 0.4915
3326.000000 0.4697 0.4442 0.4233 0.4123 0.4012
3331.000000 0.3816 0.3664 0.3559 0.3488 0.3447
3336.000000 0.3449 0.3451 0.3456 0.3480 0.3539
3341.000000 0.3641 0.3797 0.3850 0.3903 0.3957
3346.000000 0.4010 0.4063 0.4158 0.4340 0.4407
3351.000000 0.4474 0.4541 0.4616 0.4710 0.4848
3356.000000 0.4987 0.5077 0.5172 0.5310 0.5434
3361.000000 0.5542 0.5649 0.5852 0.5985 0.6101
3366.000000 0.6189 0.6277 0.6365 0.6441 0.6517
3371.000000 0.6593 0.6648 0.6700 0.6752 0.6804
3376.000000 0.6828 0.6852 0.6876 0.6900 0.6925
3381.000000 0.6949 0.6967 0.6985 0.7003 0.7021
3386.000000 0.7038 0.7056 0.7074 0.7092 0.7110
3391.000000 0.7128 0.7147 0.7165 0.7183 0.7202
3396.000000 0.7220 0.7238 0.7255 0.7269 0.7283
3401.000000 0.7297 0.7311 0.7325 0.7338 0.7352
3406.000000 0.7366 0.7377 0.7388 0.7399 0.7409
3411.000000 0.7420 0.7431 0.7441 0.7452 0.7463
3416.000000 0.7473 0.7484 0.7493 0.7502 0.7511
3421.000000 0.7519 0.7528 0.7537 0.7545 0.7554
3426.000000 0.7562 0.7571 0.7580 0.7587 0.7595
3431.000000 0.7602 0.7610 0.7618 0.7625 0.7633
3436.000000 0.7640 0.7648 0.7656 0.7663 0.7671
3441.000000 0.7678 0.7686 0.7694 0.7701 0.7708
3446.000000 0.7716 0.7723 0.7731 0.7738 0.7746
3451.000000 0.7753 0.7760 0.7768 0.7775 0.7783
3456.000000 0.7790 0.7798 0.7804 0.7809 0.7815
3461.000000 0.7820 0.7826 0.7832 0.7837 0.7843
3466.000000 0.7848 0.7854 0.7860 0.7865 0.7871
3471.000000 0.7876 0.7882 0.7886 0.7889 0.7891
3476.000000 0.7894 0.7897 0.7900 0.7903 0.7905
3481.000000 0.7908 0.7911 0.7914 0.7916 0.7918
3486.000000 0.7920 0.7922 0.7924 0.7926 0.7928
3491.000000 0.7931 0.7933 0.7935 0.7937 0.7939
3496.000000 0.7942 0.7945 0.7949 0.7953 0.7956
3501.000000 0.7960 0.7964 0.7967 0.7971 0.7975
3506.000000 0.7978 0.7983 0.7988 0.7994 0.8000
3511.000000 0.8006 0.8011 0.8017 0.8023 0.8028
3516.000000 0.8034 0.8039 0.8045 0.8051 0.8056
3521.000000 0.8062 0.8067 0.8073 0.8078 0.8084
3526.000000 0.8089 0.8094 0.8099 0.8103 0.8108
3531.000000 0.8113 0.8117 0.8122 0.8127 0.8131
3536.000000 0.8136 0.8140 0.8145 0.8152 0.8158
3541.000000 0.8165 0.8172 0.8178 0.8185 0.8191
3546.000000 0.8197 0.8202 0.8208 0.8214 0.8220
3551.000000 0.8225 0.8231 0.8237 0.8243 0.8248
3556.000000 0.8254 0.8260 0.8265 0.8271 0.8276
3561.000000 0.8280 0.8284 0.8287 0.8291 0.8295
3566.000000 0.8299 0.8302 0.8306 0.8310 0.8314
3571.000000 0.8318 0.8321 0.8325 0.8329 0.8333
3576.000000 0.8336 0.8340 0.8344 0.8348 0.8352
3581.000000 0.8355 0.8359 0.8362 0.8365 0.8368
3586.000000 0.8372 0.8375 0.8378 0.8381 0.8384
3591.000000 0.8387 0.8391 0.8394 0.8397 0.8400
3596.000000 0.8403 0.8407 0.8410 0.8413 0.8416
3601.000000 0.8419 0.8425 0.8430 0.8436 0.8441
3606.000000 0.8447 0.8452 0.8457 0.8463 0.8468
3611.000000 0.8474 0.8478 0.8483 0.8488 0.8492
3616.000000 0.8497 0.8501 0.8506 0.8510 0.8515
3621.000000 0.8519 0.8524 0.8529 0.8533 0.8536
3626.000000 0.8539 0.8542 0.8544 0.8547 0.8550
3631.000000 0.8552 0.8555 0.8558 0.8560 0.8563
3636.000000 0.8566 0.8568 0.8571 0.8574 0.8574
3641.000000 0.8575 0.8575 0.8576 0.8577 0.8577
3646.000000 0.8578 0.8578 0.8579 0.8579 0.8580
3651.000000 0.8581 0.8581 0.8582 0.8582 0.8583
3656.000000 0.8583 0.8584 0.8585 0.8585 0.8586
3661.000000 0.8586 0.8586 0.8586 0.8586 0.8587
3666.000000 0.8587 0.8587 0.8587 0.8588 0.8588
3671.000000 0.8588 0.8588 0.8588 0.8589 0.8589
3676.000000 0.8589 0.8590 0.8592 0.8594 0.8596
3681.000000 0.8598 0.8600 0.8601 0.8603 0.8605
3686.000000 0.8607 0.8609 0.8611 0.8612 0.8615
3691.000000 0.8620 0.8625 0.8629 0.8634 0.8638
3696.000000 0.8643 0.8647 0.8650 0.8652 0.8655
3701.000000 0.8657 0.8659 0.8662 0.8664 0.8667
3706.000000 0.8669 0.8672 0.8674 0.8676 0.8679
3711.000000 0.8679 0.8679 0.8643 0.8679 0.8679
3716.000000 0.8679 0.8679 0.8679 0.8679 0.8679
3721.000000 0.8679 0.8679 0.8679 0.8679 0.8679
3726.000000 0.8679 0.8679 0.8679 0.8679 0.8678
3731.000000 0.8678 0.8678 0.8677 0.8677 0.8677
3736.000000 0.8676 0.8676 0.8675 0.8675 0.8675
3741.000000 0.8674 0.8674 0.8674 0.8673 0.8673
3746.000000 0.8673 0.8672 0.8671 0.8671 0.8670
3751.000000 0.8670 0.8669 0.8668 0.8668 0.8667
3756.000000 0.8666 0.8666 0.8665 0.8665 0.8664
3761.000000 0.8663 0.8663 0.8662 0.8662 0.8661
3766.000000 0.8660 0.8660 0.8659 0.8659 0.8659
3771.000000 0.8659 0.8659 0.8659 0.8659 0.8659
3776.000000 0.8659 0.8658 0.8658 0.8658 0.8658
3781.000000 0.8658 0.8658 0.8658 0.8658 0.8658
3786.000000 0.8658 0.8657 0.8657 0.8657 0.8657
3791.000000 0.8656 0.8656 0.8655 0.8655 0.8654
3796.000000 0.8654 0.8653 0.8653 0.8652 0.8651
3801.000000 0.8651 0.8650 0.8650 0.8649 0.8649
3806.000000 0.8648 0.8648 0.8647 0.8647 0.8646
3811.000000 0.8646 0.8645 0.8644 0.8643 0.8642
3816.000000 0.8641 0.8640 0.8639 0.8638 0.8636
3821.000000 0.8635 0.8634 0.8633 0.8632 0.8631
3826.000000 0.8630 0.8629 0.8627 0.8626 0.8625
3831.000000 0.8624 0.8623 0.8622 0.8620 0.8619
3836.000000 0.8618 0.8617 0.8616 0.8615 0.8614
3841.000000 0.8612 0.8611 0.8610 0.8609 0.8608
3846.000000 0.8607 0.8605 0.8604 0.8603 0.8603
##END=
