##TITLE=DECANOIC ACID
$$ E.K. (W.L.) NO. 1200
##JCAMP-DX=4.24
##DATA TYPE=INFRARED SPECTRUM
##CLASS=COBLENTZ
##ORIGIN=WYANDOTTE CHEMICALS CORP., WYANDOTTE, MICHIGAN, USA
##OWNER=COBLENTZ SOCIETY
Collection (C) 2018 copyright by the U.S. Secretary of Commerce
on behalf of the United States of America. All rights reserved.
##DATE=Not specified, most likely prior to 1970
##CAS REGISTRY NO=334-48-5
##MOLFORM=C10 H20 O2
##MP=29-30 C
##SOURCE REFERENCE=COBLENTZ NO. 215
##$NIST SOURCE=COBLENTZ
##$NIST IMAGE=cob215
##SPECTROMETER/DATA SYSTEM=Not specified, most likely a prism, grating, or hybrid spectrometer.
##STATE=SOLID (MULL)
##SAMPLING PROCEDURE=TRANSMISSION
##RESOLUTION=4
##DATA PROCESSING=DIGITIZED BY NIST FROM HARD COPY
##XUNITS=MICROMETERS
##YUNITS=TRANSMITTANCE
##XFACTOR=1.000000
##YFACTOR=1
##DELTAX=000.006484
##FIRSTX=1.987
##LASTX=16.005
##FIRSTY=0.977
##MAXX=16.005
##MINX=1.987
##MAXY=0.985
##MINY=0.037
##NPOINTS=2163
##XYDATA=(X++(Y..Y))
1.987000 0.9770 0.9780 0.9780 0.9800 0.9850
2.019434 0.9850 0.9820 0.9780 0.9770 0.9750
2.052000 0.9750 0.9750 0.9770 0.9780 0.9820
2.084434 0.9820 0.9800 0.9800 0.9800 0.9830
2.117000 0.9830 0.9830 0.9800 0.9770 0.9740
2.149434 0.9690 0.9570 0.9440 0.9220 0.8880
2.182000 0.8700 0.8410 0.8230 0.8210 0.7970
2.214434 0.7970 0.8100 0.8340 0.8340 0.8280
2.246000 0.8240 0.8230 0.8290 0.8290 0.8210
2.278434 0.8180 0.8130 0.8110 0.8110 0.8150
2.311000 0.8230 0.8260 0.8310 0.8340 0.8390
2.343434 0.8460 0.8570 0.8700 0.8760 0.8800
2.376000 0.8830 0.8860 0.8910 0.8970 0.8990
2.408434 0.9020 0.9040 0.9070 0.9090 0.9120
2.441000 0.9150 0.9170 0.9180 0.9180 0.9180
2.473434 0.9180 0.9180 0.9200 0.9220 0.9230
2.506000 0.9250 0.9270 0.9280 0.9300 0.9330
2.538434 0.9350 0.9380 0.9410 0.9440 0.9520
2.571000 0.9570 0.9570 0.9490 0.9460 0.9430
2.603434 0.9440 0.9510 0.9590 0.9700 0.9720
2.635000 0.9720 0.9700 0.9690 0.9650 0.9650
2.667434 0.9640 0.9610 0.9520 0.9490 0.9440
2.700000 0.9380 0.9330 0.9270 0.9220 0.9140
2.732434 0.9070 0.9020 0.9010 0.9010 0.9010
2.765000 0.8990 0.8990 0.8930 0.8890 0.8840
2.797434 0.8810 0.8780 0.8710 0.8670 0.8580
2.830000 0.8540 0.8470 0.8410 0.8360 0.8310
2.862434 0.8260 0.8210 0.8150 0.8020 0.7990
2.895000 0.7920 0.7870 0.7790 0.7710 0.7610
2.927434 0.7550 0.7470 0.7370 0.7290 0.7190
2.960000 0.7080 0.6960 0.6820 0.6610 0.6380
2.992434 0.6170 0.5930 0.5650 0.5310 0.5130
3.024000 0.5070 0.4890 0.4740 0.4390 0.4130
3.056434 0.3850 0.3540 0.3270 0.2990 0.2770
3.089000 0.2570 0.2410 0.2260 0.2020 0.1910
3.121434 0.1840 0.1700 0.1630 0.1550 0.1450
3.154000 0.1370 0.1260 0.1180 0.1080 0.1030
3.186434 0.1000 0.0950 0.0940 0.0870 0.0790
3.219000 0.0770 0.0740 0.0740 0.0740 0.0720
3.251434 0.0690 0.0660 0.0660 0.0660 0.0640
3.284000 0.0630 0.0610 0.0560 0.0550 0.0550
3.316434 0.0550 0.0550 0.0550 0.0530 0.0530
3.349000 0.0500 0.0470 0.0420 0.0380 0.0380
3.381434 0.0380 0.0370 0.0370 0.0370 0.0370
3.413000 0.0380 0.0380 0.0380 0.0380 0.0400
3.445434 0.0420 0.0420 0.0430 0.0450 0.0450
3.478000 0.0450 0.0430 0.0430 0.0430 0.0450
3.510434 0.0470 0.0500 0.0550 0.0580 0.0630
3.543000 0.0640 0.0690 0.0740 0.0770 0.0790
3.575434 0.0790 0.0820 0.0850 0.0850 0.0850
3.608000 0.0850 0.0840 0.0840 0.0870 0.0870
3.640434 0.0900 0.0900 0.0920 0.0950 0.0980
3.673000 0.1000 0.1000 0.0950 0.0900 0.0900
3.705434 0.0870 0.0870 0.0870 0.0850 0.0850
3.738000 0.0840 0.0820 0.0820 0.0820 0.0840
3.770434 0.0870 0.0870 0.0870 0.0870 0.0890
3.802000 0.0940 0.0980 0.1000 0.1000 0.1020
3.834434 0.1050 0.1080 0.1110 0.1150 0.1150
3.867000 0.1160 0.1160 0.1190 0.1210 0.1230
3.899434 0.1240 0.1290 0.1310 0.1310 0.1320
3.932000 0.1340 0.1370 0.1410 0.1470 0.1550
3.964434 0.1660 0.1730 0.1790 0.1860 0.2000
3.997000 0.2070 0.2170 0.2220 0.2310 0.2470
4.029434 0.2570 0.2600 0.2670 0.2720 0.2780
4.062000 0.2910 0.3010 0.3160 0.3250 0.3320
4.094434 0.3370 0.3400 0.3450 0.3500 0.3580
4.127000 0.3660 0.3770 0.3930 0.3970 0.4010
4.159434 0.4030 0.4050 0.4080 0.4100 0.4130
4.192000 0.4210 0.4310 0.4440 0.4480 0.4530
4.224434 0.4550 0.4550 0.4530 0.4530 0.4530
4.256000 0.4550 0.4570 0.4610 0.4660 0.4740
4.288434 0.4820 0.4870 0.4910 0.4940 0.4970
4.321000 0.5000 0.5050 0.5150 0.5250 0.5330
4.353434 0.5380 0.5540 0.5650 0.5700 0.5750
4.386000 0.5760 0.5800 0.5830 0.5880 0.5890
4.418434 0.5890 0.5890 0.5890 0.5880 0.5860
4.451000 0.5860 0.5860 0.5880 0.5940 0.5990
4.483434 0.6070 0.6140 0.6250 0.6360 0.6430
4.516000 0.6450 0.6490 0.6530 0.6590 0.6660
4.548434 0.6700 0.6740 0.6770 0.6800 0.6850
4.581000 0.6870 0.6850 0.6800 0.6750 0.6720
4.613434 0.6690 0.6690 0.6700 0.6700 0.6690
4.645000 0.6620 0.6580 0.6560 0.6580 0.6640
4.677434 0.6720 0.6790 0.6800 0.6830 0.6870
4.710000 0.6900 0.6950 0.7000 0.7010 0.7010
4.742434 0.7030 0.7030 0.7060 0.7110 0.7190
4.775000 0.7210 0.7240 0.7240 0.7240 0.7220
4.807434 0.7220 0.7220 0.7240 0.7240 0.7240
4.840000 0.7260 0.7270 0.7290 0.7320 0.7340
4.872434 0.7390 0.7400 0.7420 0.7430 0.7450
4.905000 0.7470 0.7470 0.7470 0.7450 0.7450
4.937434 0.7450 0.7430 0.7430 0.7430 0.7430
4.970000 0.7400 0.7390 0.7350 0.7320 0.7320
5.002434 0.7290 0.7270 0.7260 0.7260 0.7270
5.034000 0.7290 0.7270 0.7240 0.7220 0.7240
5.066434 0.7260 0.7270 0.7290 0.7270 0.7260
5.099000 0.7210 0.7190 0.7190 0.7190 0.7190
5.131434 0.7190 0.7160 0.7110 0.7080 0.7010
5.164000 0.6980 0.6900 0.6830 0.6820 0.6800
5.196434 0.6770 0.6740 0.6700 0.6700 0.6690
5.229000 0.6660 0.6660 0.6640 0.6610 0.6560
5.261434 0.6510 0.6490 0.6490 0.6430 0.6330
5.294000 0.6280 0.6250 0.6250 0.6230 0.6220
5.326434 0.6200 0.6170 0.6140 0.6120 0.6110
5.359000 0.6040 0.6020 0.5990 0.5990 0.5980
5.391434 0.5980 0.5940 0.5890 0.5880 0.5850
5.423000 0.5810 0.5750 0.5720 0.5720 0.5730
5.455434 0.5730 0.5720 0.5720 0.5650 0.5570
5.488000 0.5550 0.5540 0.5420 0.5290 0.5100
5.520434 0.4990 0.4810 0.4660 0.4650 0.4660
5.553000 0.4710 0.4740 0.4810 0.4870 0.4910
5.585434 0.4920 0.4890 0.4870 0.4820 0.4810
5.618000 0.4760 0.4710 0.4680 0.4650 0.4630
5.650434 0.4650 0.4710 0.4760 0.4790 0.4760
5.683000 0.4700 0.4630 0.4530 0.4390 0.4210
5.715434 0.4010 0.3790 0.3540 0.3320 0.3070
5.748000 0.2830 0.2590 0.2300 0.1990 0.1420
5.780434 0.1050 0.0870 0.0840 0.0770 0.0710
5.812000 0.0640 0.0580 0.0480 0.0450 0.0430
5.844434 0.0420 0.0420 0.0420 0.0430 0.0430
5.877000 0.0420 0.0380 0.0370 0.0370 0.0400
5.909434 0.0420 0.0430 0.0450 0.0470 0.0480
5.942000 0.0480 0.0500 0.0550 0.0610 0.0690
5.974434 0.0810 0.0950 0.1100 0.1290 0.1500
6.007000 0.1730 0.1790 0.1920 0.2120 0.2360
6.039434 0.2620 0.2860 0.3090 0.3270 0.3350
6.072000 0.3460 0.3610 0.3880 0.4100 0.4260
6.104434 0.4400 0.4530 0.4660 0.4780 0.4920
6.137000 0.5100 0.5230 0.5420 0.5640 0.5800
6.169434 0.5890 0.5980 0.6040 0.6120 0.6190
6.201000 0.6220 0.6270 0.6350 0.6410 0.6490
6.233434 0.6540 0.6610 0.6660 0.6690 0.6720
6.266000 0.6750 0.6770 0.6790 0.6830 0.6880
6.298434 0.6880 0.6880 0.6900 0.6930 0.6960
6.331000 0.6960 0.6830 0.6770 0.6740 0.6720
6.363434 0.6740 0.6800 0.6920 0.7050 0.7080
6.396000 0.7080 0.7050 0.7050 0.7010 0.6930
6.428434 0.6920 0.6920 0.6900 0.6920 0.6960
6.461000 0.7010 0.7050 0.7030 0.7000 0.7000
6.493434 0.6960 0.6930 0.6870 0.6790 0.6750
6.526000 0.6700 0.6660 0.6620 0.6620 0.6610
6.558434 0.6610 0.6590 0.6580 0.6530 0.6450
6.591000 0.6430 0.6400 0.6400 0.6380 0.6380
6.623434 0.6300 0.6190 0.6110 0.6020 0.5990
6.655000 0.5890 0.5750 0.5620 0.5490 0.5340
6.687434 0.5180 0.5000 0.4810 0.4580 0.4310
6.720000 0.4000 0.3640 0.3350 0.2990 0.2600
6.752434 0.2150 0.1630 0.1020 0.0640 0.0630
6.785000 0.0630 0.0630 0.0640 0.0680 0.0710
6.817434 0.0740 0.0790 0.0850 0.0890 0.0900
6.850000 0.0900 0.0920 0.0940 0.0950 0.1000
6.882434 0.1020 0.1020 0.1000 0.0900 0.0890
6.915000 0.0870 0.0840 0.0810 0.0790 0.0770
6.947434 0.0710 0.0690 0.0710 0.0720 0.0720
6.980000 0.0760 0.0820 0.0920 0.0980 0.1030
7.012434 0.1110 0.1160 0.1150 0.1060 0.0970
7.044000 0.0870 0.0720 0.0680 0.0630 0.0610
7.076434 0.0610 0.0630 0.0840 0.1020 0.1310
7.109000 0.1500 0.1750 0.2000 0.2300 0.2600
7.141434 0.2900 0.3190 0.3450 0.3660 0.3790
7.174000 0.3930 0.3970 0.3930 0.3900 0.3800
7.206434 0.3640 0.3540 0.3140 0.3010 0.2820
7.239000 0.2650 0.2510 0.2390 0.2360 0.2380
7.271434 0.2440 0.2590 0.2700 0.2780 0.2910
7.304000 0.3030 0.3040 0.3030 0.3030 0.3030
7.336434 0.3010 0.2980 0.2860 0.2720 0.2570
7.369000 0.2460 0.2350 0.2180 0.2170 0.2180
7.401434 0.2440 0.2600 0.2820 0.3040 0.3200
7.433000 0.3480 0.3500 0.3500 0.3500 0.3460
7.465434 0.3300 0.3170 0.3040 0.2900 0.2650
7.498000 0.2280 0.1750 0.1550 0.1470 0.1390
7.530434 0.1260 0.1180 0.1080 0.1060 0.1080
7.563000 0.1150 0.1280 0.1390 0.1420 0.1470
7.595434 0.1420 0.1370 0.1240 0.1130 0.0980
7.628000 0.0890 0.0840 0.0810 0.0770 0.0690
7.660434 0.0630 0.0580 0.0550 0.0550 0.0550
7.693000 0.0530 0.0530 0.0530 0.0550 0.0550
7.725434 0.0560 0.0560 0.0550 0.0550 0.0580
7.758000 0.0630 0.0680 0.0720 0.0790 0.0820
7.790434 0.0820 0.0870 0.0920 0.0950 0.0980
7.822000 0.1050 0.1110 0.1190 0.1260 0.1410
7.854434 0.1470 0.1470 0.1450 0.1370 0.1260
7.887000 0.1190 0.1150 0.1110 0.1080 0.1050
7.919434 0.1030 0.1030 0.1050 0.1060 0.1100
7.952000 0.1470 0.1750 0.1920 0.2070 0.2180
7.984434 0.2280 0.2430 0.2600 0.2860 0.2940
8.017000 0.3040 0.3110 0.3220 0.3250 0.3270
8.049434 0.3270 0.3200 0.2990 0.2860 0.2780
8.082000 0.2590 0.2410 0.2170 0.1920 0.1730
8.114434 0.1580 0.1520 0.1500 0.1490 0.1420
8.147000 0.1340 0.1240 0.1180 0.1160 0.1180
8.179434 0.1410 0.1630 0.1810 0.1990 0.2180
8.211000 0.2360 0.2560 0.2730 0.2910 0.3070
8.243434 0.3220 0.3350 0.3400 0.3430 0.3430
8.276000 0.3400 0.3200 0.3090 0.2960 0.2770
8.308434 0.2520 0.2250 0.1990 0.1710 0.1470
8.341000 0.1280 0.1110 0.1020 0.0920 0.0840
8.373434 0.0820 0.0840 0.1030 0.1230 0.1580
8.406000 0.2000 0.2330 0.2520 0.2990 0.3380
8.438434 0.3670 0.3880 0.4050 0.4230 0.4440
8.471000 0.4710 0.4890 0.5040 0.5170 0.5260
8.503434 0.5340 0.5420 0.5510 0.5570 0.5650
8.536000 0.5750 0.5850 0.5940 0.6010 0.6070
8.568434 0.6140 0.6200 0.6270 0.6330 0.6380
8.600000 0.6450 0.6480 0.6510 0.6560 0.6620
8.632434 0.6700 0.6790 0.6870 0.6950 0.6980
8.665000 0.7030 0.7090 0.7170 0.7260 0.7320
8.697434 0.7370 0.7420 0.7480 0.7530 0.7600
8.730000 0.7660 0.7710 0.7760 0.7790 0.7810
8.762434 0.7820 0.7840 0.7860 0.7870 0.7890
8.795000 0.7890 0.7890 0.7860 0.7710 0.7640
8.827434 0.7500 0.7290 0.7050 0.6750 0.6460
8.860000 0.6150 0.5880 0.5620 0.5280 0.4950
8.892434 0.4860 0.4860 0.5020 0.5170 0.5250
8.925000 0.5520 0.5810 0.6040 0.6170 0.6250
8.957434 0.6380 0.6480 0.6490 0.6560 0.6620
8.990000 0.6690 0.6790 0.6870 0.6950 0.7010
9.022434 0.7080 0.7110 0.7140 0.7260 0.7350
9.054000 0.7430 0.7480 0.7560 0.7580 0.7600
9.086434 0.7610 0.7610 0.7610 0.7610 0.7610
9.119000 0.7630 0.7630 0.7630 0.7610 0.7580
9.151434 0.7520 0.7500 0.7430 0.7400 0.7370
9.184000 0.7320 0.7290 0.7220 0.7130 0.6960
9.216434 0.6800 0.6670 0.6540 0.6350 0.6070
9.249000 0.5620 0.5070 0.4550 0.4350 0.4080
9.281434 0.3770 0.3530 0.3530 0.3900 0.4290
9.314000 0.4530 0.4870 0.5210 0.5440 0.5600
9.346434 0.5700 0.5780 0.5850 0.5850 0.5860
9.379000 0.5860 0.5860 0.5830 0.5670 0.5570
9.411434 0.5510 0.5420 0.5330 0.5290 0.5280
9.443000 0.5290 0.5340 0.5380 0.5380 0.5410
9.475434 0.5460 0.5620 0.5750 0.5850 0.5930
9.508000 0.5990 0.6040 0.6090 0.6120 0.6150
9.540434 0.6150 0.6140 0.6140 0.6120 0.6110
9.573000 0.6090 0.6070 0.6070 0.6060 0.6060
9.605434 0.6060 0.6060 0.6040 0.6020 0.5980
9.638000 0.5910 0.5880 0.5800 0.5760 0.5750
9.670434 0.5720 0.5650 0.5540 0.5520 0.5490
9.703000 0.5420 0.5390 0.5380 0.5380 0.5380
9.735434 0.5360 0.5360 0.5340 0.5340 0.5330
9.768000 0.5290 0.5260 0.5230 0.5200 0.5170
9.800434 0.5130 0.5080 0.5050 0.5040 0.5050
9.832000 0.5070 0.5080 0.5100 0.5100 0.5080
9.864434 0.5070 0.5070 0.5070 0.5070 0.5070
9.897000 0.5070 0.5040 0.5040 0.5000 0.4990
9.929434 0.4940 0.4920 0.4910 0.4870 0.4860
9.962000 0.4840 0.4820 0.4820 0.4820 0.4790
9.994434 0.4780 0.4780 0.4740 0.4710 0.4660
10.027000 0.4650 0.4610 0.4570 0.4550 0.4500
10.059434 0.4480 0.4470 0.4450 0.4420 0.4370
10.092000 0.4320 0.4240 0.4160 0.4110 0.4050
10.124434 0.4030 0.4000 0.3980 0.3970 0.3900
10.157000 0.3840 0.3760 0.3710 0.3640 0.3560
10.189434 0.3500 0.3410 0.3320 0.3250 0.3170
10.221000 0.3070 0.2980 0.2910 0.2820 0.2730
10.253434 0.2620 0.2510 0.2390 0.2330 0.2250
10.286000 0.2150 0.2070 0.1990 0.1940 0.1880
10.318434 0.1780 0.1710 0.1580 0.1490 0.1420
10.351000 0.1410 0.1390 0.1360 0.1280 0.1190
10.383434 0.1130 0.1080 0.1060 0.1030 0.1000
10.416000 0.1000 0.0970 0.0950 0.0940 0.0920
10.448434 0.0870 0.0790 0.0790 0.0790 0.0770
10.481000 0.0770 0.0770 0.0740 0.0720 0.0710
10.513434 0.0690 0.0690 0.0680 0.0660 0.0660
10.546000 0.0660 0.0660 0.0610 0.0590 0.0590
10.578434 0.0590 0.0590 0.0560 0.0550 0.0550
10.610000 0.0550 0.0550 0.0530 0.0530 0.0510
10.642434 0.0510 0.0510 0.0510 0.0510 0.0500
10.675000 0.0500 0.0510 0.0510 0.0480 0.0480
10.707434 0.0480 0.0480 0.0480 0.0480 0.0500
10.740000 0.0500 0.0510 0.0500 0.0480 0.0470
10.772434 0.0470 0.0470 0.0470 0.0480 0.0500
10.805000 0.0500 0.0500 0.0510 0.0510 0.0510
10.837434 0.0530 0.0550 0.0580 0.0590 0.0610
10.870000 0.0610 0.0630 0.0630 0.0640 0.0690
10.902434 0.0740 0.0790 0.0810 0.0840 0.0900
10.935000 0.0950 0.1000 0.1000 0.1050 0.1080
10.967434 0.1110 0.1150 0.1180 0.1210 0.1240
11.000000 0.1260 0.1290 0.1310 0.1320 0.1320
11.032434 0.1360 0.1410 0.1440 0.1500 0.1530
11.064000 0.1580 0.1600 0.1650 0.1760 0.1830
11.096434 0.1920 0.2000 0.2100 0.2180 0.2250
11.129000 0.2260 0.2300 0.2330 0.2350 0.2380
11.161434 0.2380 0.2390 0.2410 0.2440 0.2460
11.194000 0.2490 0.2510 0.2520 0.2520 0.2520
11.226434 0.2510 0.2510 0.2460 0.2460 0.2440
11.259000 0.2360 0.2360 0.2430 0.2440 0.2540
11.291434 0.2590 0.2640 0.2700 0.2780 0.2860
11.324000 0.2960 0.3060 0.3170 0.3290 0.3400
11.356434 0.3510 0.3530 0.3560 0.3610 0.3630
11.389000 0.3660 0.3690 0.3740 0.3790 0.3820
11.421434 0.3850 0.3880 0.3900 0.3920 0.3930
11.453000 0.3950 0.3980 0.4000 0.4010 0.4050
11.485434 0.4080 0.4130 0.4160 0.4230 0.4270
11.518000 0.4320 0.4370 0.4420 0.4470 0.4480
11.550434 0.4500 0.4500 0.4520 0.4530 0.4570
11.583000 0.4610 0.4650 0.4700 0.4730 0.4790
11.615434 0.4840 0.4870 0.4890 0.4920 0.4950
11.648000 0.4990 0.5020 0.5050 0.5080 0.5080
11.680434 0.5100 0.5120 0.5130 0.5180 0.5230
11.713000 0.5290 0.5290 0.5310 0.5330 0.5360
11.745434 0.5380 0.5410 0.5440 0.5490 0.5520
11.778000 0.5550 0.5550 0.5590 0.5590 0.5640
11.810434 0.5680 0.5720 0.5720 0.5720 0.5720
11.842000 0.5700 0.5700 0.5700 0.5720 0.5830
11.874434 0.5860 0.5860 0.5850 0.5830 0.5850
11.907000 0.5830 0.5810 0.5810 0.5810 0.5830
11.939434 0.5830 0.5850 0.5860 0.5880 0.5910
11.972000 0.5930 0.5940 0.5940 0.5940 0.5940
12.004434 0.5960 0.5960 0.5980 0.5990 0.6010
12.037000 0.6020 0.6020 0.6010 0.5990 0.6010
12.069434 0.5990 0.5940 0.5930 0.5880 0.5800
12.102000 0.5680 0.5570 0.5510 0.5360 0.5210
12.134434 0.5050 0.4940 0.4790 0.4600 0.4370
12.167000 0.4290 0.4210 0.4190 0.4210 0.4320
12.199434 0.4480 0.4870 0.5180 0.5440 0.5670
12.231000 0.5880 0.6040 0.6200 0.6330 0.6460
12.263434 0.6560 0.6640 0.6740 0.6800 0.6880
12.296000 0.6950 0.7010 0.7030 0.7030 0.7060
12.328434 0.7110 0.7170 0.7210 0.7210 0.7260
12.361000 0.7320 0.7390 0.7420 0.7450 0.7470
12.393434 0.7480 0.7520 0.7500 0.7480 0.7480
12.426000 0.7470 0.7480 0.7500 0.7520 0.7530
12.458434 0.7580 0.7610 0.7630 0.7610 0.7610
12.491000 0.7630 0.7640 0.7660 0.7660 0.7680
12.523434 0.7680 0.7680 0.7680 0.7690 0.7690
12.556000 0.7710 0.7710 0.7730 0.7760 0.7770
12.588434 0.7810 0.7820 0.7840 0.7820 0.7810
12.620000 0.7810 0.7790 0.7790 0.7810 0.7840
12.652434 0.7870 0.7890 0.7890 0.7900 0.7900
12.685000 0.7900 0.7900 0.7920 0.7940 0.7920
12.717434 0.7900 0.7890 0.7870 0.7840 0.7820
12.750000 0.7810 0.7810 0.7810 0.7790 0.7770
12.782434 0.7760 0.7710 0.7680 0.7600 0.7560
12.815000 0.7530 0.7470 0.7420 0.7300 0.7220
12.847434 0.7170 0.7090 0.6960 0.6870 0.6700
12.880000 0.6610 0.6540 0.6490 0.6480 0.6490
12.912434 0.6610 0.6800 0.6920 0.7060 0.7190
12.945000 0.7270 0.7370 0.7450 0.7530 0.7600
12.977434 0.7640 0.7690 0.7740 0.7770 0.7820
13.009000 0.7860 0.7890 0.7890 0.7900 0.7920
13.041434 0.7950 0.7970 0.7990 0.7990 0.7970
13.074000 0.7990 0.8000 0.8000 0.8000 0.8000
13.106434 0.8000 0.8000 0.8020 0.8020 0.8000
13.139000 0.7990 0.7970 0.7940 0.7900 0.7890
13.171434 0.7890 0.7870 0.7860 0.7860 0.7860
13.204000 0.7840 0.7810 0.7760 0.7730 0.7730
13.236434 0.7710 0.7680 0.7680 0.7640 0.7610
13.269000 0.7600 0.7580 0.7560 0.7550 0.7530
13.301434 0.7500 0.7470 0.7450 0.7450 0.7430
13.334000 0.7400 0.7370 0.7320 0.7270 0.7260
13.366434 0.7190 0.7140 0.7030 0.6950 0.6800
13.399000 0.6610 0.6460 0.6360 0.6250 0.6150
13.431434 0.6010 0.5830 0.5590 0.5230 0.4940
13.463000 0.4660 0.4450 0.4400 0.4140 0.4010
13.495434 0.3870 0.3720 0.3710 0.3740 0.3950
13.528000 0.4160 0.4370 0.4550 0.4810 0.5000
13.560434 0.5390 0.5520 0.5680 0.5880 0.5990
13.593000 0.6040 0.6070 0.6150 0.6170 0.6190
13.625434 0.6200 0.6190 0.6190 0.6150 0.6140
13.658000 0.6090 0.6040 0.5990 0.5930 0.5850
13.690434 0.5750 0.5650 0.5510 0.5340 0.5180
13.723000 0.5040 0.4890 0.4660 0.4440 0.4240
13.755434 0.4050 0.3850 0.3610 0.3330 0.3190
13.788000 0.3030 0.2770 0.2570 0.2440 0.2230
13.820434 0.2120 0.1970 0.1840 0.1710 0.1620
13.852000 0.1530 0.1450 0.1370 0.1320 0.1280
13.884434 0.1260 0.1260 0.1260 0.1280 0.1390
13.917000 0.1520 0.1620 0.1750 0.1880 0.2090
13.949434 0.2350 0.2620 0.2880 0.3140 0.3380
13.982000 0.3610 0.3820 0.4030 0.4240 0.4480
14.014434 0.4730 0.5000 0.5150 0.5280 0.5380
14.047000 0.5540 0.5620 0.5760 0.5810 0.5850
14.079434 0.5910 0.5980 0.6040 0.6120 0.6190
14.112000 0.6270 0.6330 0.6360 0.6360 0.6380
14.144434 0.6380 0.6410 0.6430 0.6450 0.6480
14.177000 0.6490 0.6510 0.6510 0.6510 0.6530
14.209434 0.6540 0.6560 0.6540 0.6540 0.6540
14.241000 0.6540 0.6540 0.6540 0.6590 0.6590
14.273434 0.6560 0.6540 0.6510 0.6490 0.6490
14.306000 0.6460 0.6400 0.6400 0.6380 0.6360
14.338434 0.6320 0.6270 0.6230 0.6190 0.6150
14.371000 0.6120 0.6040 0.6010 0.5960 0.5910
14.403434 0.5850 0.5780 0.5700 0.5640 0.5550
14.436000 0.5470 0.5380 0.5280 0.5200 0.5080
14.468434 0.4990 0.4890 0.4790 0.4680 0.4570
14.501000 0.4530 0.4370 0.4180 0.4060 0.3880
14.533434 0.3790 0.3690 0.3580 0.3510 0.3400
14.566000 0.3270 0.3140 0.3060 0.3010 0.2940
14.598434 0.2850 0.2750 0.2650 0.2590 0.2520
14.630000 0.2490 0.2430 0.2390 0.2380 0.2350
14.662434 0.2300 0.2280 0.2260 0.2260 0.2250
14.695000 0.2250 0.2250 0.2230 0.2230 0.2250
14.727434 0.2280 0.2330 0.2390 0.2460 0.2510
14.760000 0.2560 0.2600 0.2600 0.2620 0.2670
14.792434 0.2730 0.2780 0.2850 0.2900 0.2930
14.825000 0.2960 0.3010 0.3040 0.3110 0.3170
14.857434 0.3220 0.3270 0.3300 0.3320 0.3330
14.890000 0.3370 0.3430 0.3500 0.3540 0.3540
14.922434 0.3560 0.3610 0.3660 0.3670 0.3690
14.955000 0.3740 0.3790 0.3820 0.3850 0.3870
14.987434 0.3880 0.3880 0.3850 0.3850 0.3850
15.019000 0.3870 0.3870 0.3880 0.3920 0.3970
15.051434 0.4010 0.4030 0.4060 0.4100 0.4130
15.084000 0.4180 0.4240 0.4310 0.4390 0.4470
15.116434 0.4520 0.4580 0.4680 0.4740 0.4760
15.149000 0.4790 0.4810 0.4860 0.4910 0.4950
15.181434 0.4970 0.4990 0.4990 0.5000 0.5040
15.214000 0.5070 0.5120 0.5130 0.5170 0.5200
15.246434 0.5250 0.5280 0.5310 0.5330 0.5340
15.279000 0.5380 0.5410 0.5460 0.5470 0.5490
15.311434 0.5520 0.5570 0.5600 0.5620 0.5640
15.344000 0.5650 0.5670 0.5670 0.5670 0.5680
15.376434 0.5700 0.5720 0.5750 0.5780 0.5800
15.408000 0.5810 0.5810 0.5810 0.5830 0.5860
15.440434 0.5880 0.5880 0.5880 0.5880 0.5880
15.473000 0.5910 0.5930 0.5940 0.5940 0.5960
15.505434 0.5960 0.5960 0.5930 0.5930 0.5930
15.538000 0.5940 0.5960 0.5960 0.5960 0.5960
15.570434 0.5960 0.5980 0.5980 0.5960 0.5960
15.603000 0.5980 0.5980 0.5990 0.6010 0.6040
15.635434 0.6040 0.6040 0.6040 0.6060 0.6060
15.668000 0.6060 0.6060 0.6060 0.6040 0.6020
15.700434 0.6020 0.6010 0.6010 0.6020 0.6040
15.733000 0.6040 0.6040 0.6020 0.6010 0.6010
15.765434 0.5990 0.5990 0.5980 0.5930 0.5910
15.798000 0.5880 0.5860 0.5850 0.5810 0.5780
15.830434 0.5760 0.5760 0.5760 0.5760 0.5760
15.862000 0.5780 0.5760 0.5760 0.5750 0.5730
15.894434 0.5730 0.5720 0.5720 0.5720 0.5730
15.927000 0.5720 0.5700 0.5680 0.5650 0.5600
15.959434 0.5570 0.5550 0.5550 0.5550 0.5550
15.992000 0.5550 0.5550 0.5570
##END=
