##TITLE=n-Decanoic acid
##JCAMP-DX=4.24
##DATA TYPE=INFRARED SPECTRUM
##CLASS=COBLENTZ III
##ORIGIN=UNIVERSITY OF FLORIDA
##OWNER=Copyright (C) 1987 by the Coblentz Society
Collection (C) 2018 copyright by the U.S. Secretary of Commerce
on behalf of the United States of America. All rights reserved.
##DATE=1961/04/14
##NAMES=decanoic acid
##CAS REGISTRY NO=334-48-5
##MOLFORM=C10 H20 O2
##SOURCE REFERENCE=COBLENTZ NO. 9966
##$NIST SOURCE=COBLENTZ
##$NIST IMAGE=cob9966
##SPECTROMETER/DATA SYSTEM=BECKMAN IR-4 (HYBRID PRISM-GRATING)
##STATE=LIQUID (NEAT)
##PATH LENGTH=0.0035 CM
$$ SEE SPECTRUM NO. 9965 FOR "SOLUTION" RUN, AND SPECTRUM NO. 215 FOR "MULL" RUN
##SAMPLING PROCEDURE=TRANSMISSION
##RESOLUTION=2
##DATA PROCESSING=DIGITIZED BY COBLENTZ SOCIETY (BATCH II) FROM HARD COPY
##XUNITS=1/CM
##YUNITS=TRANSMITTANCE
##XFACTOR=1.0
##YFACTOR=1
##FIRSTX=668
##LASTX=4000
##FIRSTY=0.5583
##MAXX=4000
##MINX=668
##MAXY=0.8581
##MINY=0.005
##NPOINTS=3333
##XYDATA=(X++(Y..Y))
668.000000 0.5583 0.5592 0.5608 0.5627 0.5660
673.000000 0.5697 0.5735 0.5780 0.5828 0.5879
678.000000 0.5929 0.5981 0.6034 0.6097 0.6169
683.000000 0.6241 0.6314 0.6397 0.6483 0.6570
688.000000 0.6635 0.6689 0.6740 0.6774 0.6804
693.000000 0.6825 0.6845 0.6864 0.6884 0.6902
698.000000 0.6911 0.6914 0.6918 0.6930 0.6914
703.000000 0.6901 0.6881 0.6856 0.6808 0.6757
708.000000 0.6694 0.6599 0.6497 0.6391 0.6278
713.000000 0.6152 0.6034 0.5871 0.5539 0.5290
718.000000 0.5091 0.4941 0.4833 0.4818 0.4779
723.000000 0.5101 0.5259 0.5428 0.5588 0.5684
728.000000 0.5772 0.5844 0.5905 0.5961 0.6010
733.000000 0.6044 0.6086 0.6131 0.6180 0.6225
738.000000 0.6272 0.6329 0.6384 0.6430 0.6477
743.000000 0.6521 0.6565 0.6608 0.6644 0.6676
748.000000 0.6689 0.6683 0.6665 0.6644 0.6623
753.000000 0.6604 0.6590 0.6576 0.6572 0.6574
758.000000 0.6582 0.6592 0.6607 0.6626 0.6647
763.000000 0.6672 0.6701 0.6729 0.6758 0.6793
768.000000 0.6829 0.6858 0.6886 0.6904 0.6915
773.000000 0.6922 0.6927 0.6925 0.6922 0.6920
778.000000 0.6918 0.6911 0.6904 0.6896 0.6886
783.000000 0.6877 0.6869 0.6859 0.6842 0.6826
788.000000 0.6812 0.6804 0.6796 0.6789 0.6781
793.000000 0.6775 0.6770 0.6766 0.6763 0.6760
798.000000 0.6761 0.6765 0.6769 0.6772 0.6784
803.000000 0.6801 0.6818 0.6835 0.6846 0.6856
808.000000 0.6864 0.6873 0.6874 0.6876 0.6875
813.000000 0.6865 0.6853 0.6837 0.6817 0.6792
818.000000 0.6768 0.6744 0.6717 0.6687 0.6657
823.000000 0.6629 0.6599 0.6569 0.6539 0.6508
828.000000 0.6477 0.6440 0.6403 0.6365 0.6328
833.000000 0.6295 0.6266 0.6236 0.6224 0.6214
838.000000 0.6205 0.6197 0.6190 0.6183 0.6178
843.000000 0.6176 0.6174 0.6172 0.6170 0.6166
848.000000 0.6161 0.6156 0.6151 0.6140 0.6124
853.000000 0.6107 0.6084 0.6061 0.6038 0.6010
858.000000 0.5974 0.5938 0.5903 0.5862 0.5817
863.000000 0.5771 0.5726 0.5681 0.5631 0.5581
868.000000 0.5531 0.5481 0.5434 0.5391 0.5348
873.000000 0.5304 0.5262 0.5214 0.5166 0.5118
878.000000 0.5070 0.5022 0.4974 0.4923 0.4873
883.000000 0.4823 0.4772 0.4721 0.4652 0.4584
888.000000 0.4537 0.4494 0.4469 0.4445 0.4423
893.000000 0.4393 0.4358 0.4319 0.4276 0.4231
898.000000 0.4176 0.4122 0.4065 0.4009 0.3952
903.000000 0.3897 0.3844 0.3790 0.3733 0.3674
908.000000 0.3615 0.3556 0.3489 0.3423 0.3354
913.000000 0.3282 0.3211 0.3141 0.3072 0.3015
918.000000 0.2959 0.2904 0.2849 0.2793 0.2738
923.000000 0.2682 0.2623 0.2564 0.2507 0.2469
928.000000 0.2431 0.2399 0.2375 0.2351 0.2330
933.000000 0.2313 0.2296 0.2280 0.2264 0.2250
938.000000 0.2247 0.2266 0.2289 0.2319 0.2350
943.000000 0.2395 0.2449 0.2516 0.2579 0.2637
948.000000 0.2691 0.2747 0.2808 0.2873 0.2951
953.000000 0.3032 0.3119 0.3227 0.3340 0.3452
958.000000 0.3564 0.3675 0.3807 0.3909 0.4025
963.000000 0.4128 0.4280 0.4449 0.4580 0.4667
968.000000 0.4749 0.4849 0.4953 0.5058 0.5166
973.000000 0.5272 0.5374 0.5476 0.5626 0.5774
978.000000 0.5901 0.5974 0.6044 0.6113 0.6177
983.000000 0.6240 0.6310 0.6385 0.6457 0.6506
988.000000 0.6553 0.6599 0.6639 0.6678 0.6716
993.000000 0.6755 0.6789 0.6822 0.6854 0.6887
998.000000 0.6912 0.6934 0.6957 0.6979 0.7000
1003.000000 0.7015 0.7030 0.7044 0.7056 0.7064
1008.000000 0.7071 0.7079 0.7086 0.7091 0.7096
1013.000000 0.7088 0.7100 0.7099 0.7098 0.7097
1018.000000 0.7095 0.7092 0.7088 0.7086 0.7083
1023.000000 0.7079 0.7076 0.7073 0.7070 0.7067
1028.000000 0.7063 0.7061 0.7059 0.7056 0.7054
1033.000000 0.7053 0.7050 0.7048 0.7045 0.7041
1038.000000 0.7038 0.7036 0.7029 0.7021 0.7013
1043.000000 0.7000 0.6984 0.6964 0.6943 0.6922
1048.000000 0.6903 0.6884 0.6865 0.6846 0.6826
1053.000000 0.6807 0.6787 0.6768 0.6747 0.6727
1058.000000 0.6715 0.6706 0.6705 0.6680 0.6715
1063.000000 0.6725 0.6735 0.6746 0.6757 0.6776
1068.000000 0.6800 0.6828 0.6858 0.6890 0.6927
1073.000000 0.6963 0.7000 0.7035 0.7063 0.7089
1078.000000 0.7111 0.7125 0.7132 0.7136 0.7138
1083.000000 0.7165 0.7133 0.7130 0.7126 0.7117
1088.000000 0.7108 0.7092 0.7069 0.7039 0.7007
1093.000000 0.6968 0.6907 0.6831 0.6750 0.6661
1098.000000 0.6545 0.6393 0.6239 0.6084 0.5930
1103.000000 0.5776 0.5622 0.5469 0.5295 0.5229
1108.000000 0.5143 0.5065 0.5014 0.4965 0.4917
1113.000000 0.4909 0.4905 0.4953 0.5045 0.5232
1118.000000 0.5421 0.5610 0.5798 0.5986 0.6135
1123.000000 0.6282 0.6391 0.6494 0.6624 0.6743
1128.000000 0.6823 0.6893 0.6959 0.7010 0.7038
1133.000000 0.7041 0.7034 0.7026 0.7000 0.6969
1138.000000 0.6931 0.6892 0.6831 0.6753 0.6674
1143.000000 0.6596 0.6518 0.6440 0.6362 0.6284
1148.000000 0.6207 0.6130 0.6052 0.5975 0.5898
1153.000000 0.5773 0.5677 0.5599 0.5526 0.5449
1158.000000 0.5372 0.5308 0.5253 0.5197 0.5155
1163.000000 0.5114 0.5078 0.5053 0.5029 0.5010
1168.000000 0.5002 0.4995 0.4987 0.4984 0.4982
1173.000000 0.4980 0.4977 0.4974 0.4970 0.4959
1178.000000 0.4943 0.4912 0.4878 0.4835 0.4785
1183.000000 0.4738 0.4695 0.4646 0.4569 0.4490
1188.000000 0.4411 0.4333 0.4254 0.4177 0.4099
1193.000000 0.4021 0.3943 0.3866 0.3786 0.3702
1198.000000 0.3633 0.3589 0.3567 0.3550 0.3529
1203.000000 0.3491 0.3429 0.3347 0.3215 0.3056
1208.000000 0.2975 0.2896 0.2801 0.2686 0.2544
1213.000000 0.2405 0.2309 0.2231 0.2167 0.2124
1218.000000 0.2102 0.2085 0.2070 0.2048 0.2023
1223.000000 0.1998 0.1973 0.1947 0.1922 0.1899
1228.000000 0.1879 0.1867 0.1867 0.1886 0.1875
1233.000000 0.1894 0.1923 0.1956 0.1983 0.1991
1238.000000 0.1988 0.1978 0.1968 0.1988 0.1922
1243.000000 0.1891 0.1856 0.1820 0.1787 0.1757
1248.000000 0.1726 0.1700 0.1689 0.1698 0.1707
1253.000000 0.1720 0.1743 0.1767 0.1791 0.1814
1258.000000 0.1836 0.1854 0.1865 0.1875 0.1885
1263.000000 0.1892 0.1898 0.1895 0.1891 0.1873
1268.000000 0.1922 0.1754 0.1677 0.1598 0.1528
1273.000000 0.1465 0.1394 0.1308 0.1231 0.1159
1278.000000 0.1101 0.1044 0.0991 0.0964 0.0955
1283.000000 0.0944 0.0951 0.0954 0.0960 0.0969
1288.000000 0.0982 0.0997 0.1017 0.1036 0.1061
1293.000000 0.1087 0.1119 0.1152 0.1185 0.1221
1298.000000 0.1259 0.1308 0.1364 0.1418 0.1474
1303.000000 0.1528 0.1584 0.1638 0.1693 0.1748
1308.000000 0.1803 0.1858 0.1914 0.1974 0.2036
1313.000000 0.2135 0.2254 0.2345 0.2447 0.2561
1318.000000 0.2649 0.2724 0.2803 0.2897 0.2991
1323.000000 0.3089 0.3186 0.3261 0.3332 0.3403
1328.000000 0.3487 0.3572 0.3647 0.3711 0.3776
1333.000000 0.3854 0.3896 0.3922 0.3947 0.3970
1338.000000 0.3989 0.4007 0.4018 0.4028 0.4037
1343.000000 0.4050 0.4072 0.4140 0.4213 0.4330
1348.000000 0.4422 0.4504 0.4565 0.4624 0.4684
1353.000000 0.4744 0.4805 0.4865 0.4923 0.4982
1358.000000 0.5032 0.5070 0.5107 0.5144 0.5178
1363.000000 0.5209 0.5238 0.5258 0.5263 0.5273
1368.000000 0.5244 0.5228 0.5201 0.5170 0.5136
1373.000000 0.5093 0.5015 0.4872 0.4723 0.4575
1378.000000 0.4427 0.4284 0.4228 0.4212 0.4305
1383.000000 0.4437 0.4568 0.4699 0.4829 0.4939
1388.000000 0.4978 0.4979 0.4991 0.4938 0.4871
1393.000000 0.4798 0.4717 0.4660 0.4461 0.4202
1398.000000 0.3944 0.3686 0.3428 0.3170 0.2913
1403.000000 0.2656 0.2400 0.2144 0.1888 0.1633
1408.000000 0.1378 0.1141 0.1015 0.0950 0.0937
1413.000000 0.0930 0.0931 0.0932 0.0941 0.0961
1418.000000 0.1002 0.1080 0.1153 0.1216 0.1257
1423.000000 0.1292 0.1326 0.1356 0.1384 0.1411
1428.000000 0.1436 0.1455 0.1474 0.1492 0.1516
1433.000000 0.1542 0.1570 0.1597 0.1626 0.1655
1438.000000 0.1684 0.1714 0.1745 0.1775 0.1801
1443.000000 0.1828 0.1854 0.1872 0.1887 0.1898
1448.000000 0.1914 0.1905 0.1900 0.1894 0.1869
1453.000000 0.1842 0.1815 0.1784 0.1749 0.1712
1458.000000 0.1665 0.1599 0.1529 0.1434 0.1327
1463.000000 0.1238 0.1173 0.1154 0.1145 0.1152
1468.000000 0.1149 0.1153 0.1170 0.1379 0.1889
1473.000000 0.2428 0.2966 0.3503 0.4001 0.4267
1478.000000 0.4392 0.5075 0.5552 0.5713 0.5795
1483.000000 0.5873 0.5952 0.6026 0.6091 0.6150
1488.000000 0.6210 0.6270 0.6330 0.6394 0.6459
1493.000000 0.6524 0.6588 0.6640 0.6685 0.6729
1498.000000 0.6774 0.6818 0.6858 0.6891 0.6924
1503.000000 0.6957 0.6990 0.7024 0.7057 0.7088
1508.000000 0.7103 0.7119 0.7135 0.7150 0.7165
1513.000000 0.7181 0.7198 0.7213 0.7229 0.7246
1518.000000 0.7261 0.7276 0.7286 0.7297 0.7307
1523.000000 0.7318 0.7328 0.7339 0.7349 0.7360
1528.000000 0.7370 0.7381 0.7399 0.7417 0.7436
1533.000000 0.7452 0.7463 0.7474 0.7486 0.7497
1538.000000 0.7506 0.7510 0.7512 0.7513 0.7514
1543.000000 0.7515 0.7516 0.7518 0.7519 0.7521
1548.000000 0.7524 0.7526 0.7528 0.7530 0.7532
1553.000000 0.7534 0.7537 0.7540 0.7543 0.7547
1558.000000 0.7550 0.7553 0.7556 0.7559 0.7561
1563.000000 0.7562 0.7560 0.7559 0.7557 0.7555
1568.000000 0.7561 0.7552 0.7550 0.7547 0.7543
1573.000000 0.7540 0.7536 0.7533 0.7530 0.7526
1578.000000 0.7523 0.7520 0.7514 0.7507 0.7500
1583.000000 0.7493 0.7486 0.7480 0.7473 0.7466
1588.000000 0.7457 0.7446 0.7435 0.7424 0.7413
1593.000000 0.7403 0.7393 0.7379 0.7365 0.7352
1598.000000 0.7338 0.7324 0.7310 0.7296 0.7282
1603.000000 0.7268 0.7251 0.7233 0.7215 0.7198
1608.000000 0.7180 0.7162 0.7145 0.7127 0.7109
1613.000000 0.7089 0.7065 0.7042 0.7019 0.6996
1618.000000 0.6973 0.6950 0.6927 0.6901 0.6873
1623.000000 0.6846 0.6818 0.6791 0.6763 0.6736
1628.000000 0.6709 0.6682 0.6655 0.6629 0.6603
1633.000000 0.6579 0.6557 0.6536 0.6514 0.6486
1638.000000 0.6448 0.6409 0.6369 0.6330 0.6292
1643.000000 0.6253 0.6214 0.6175 0.6135 0.6097
1648.000000 0.6069 0.6045 0.6008 0.5967 0.5928
1653.000000 0.5831 0.5677 0.5436 0.5219 0.5142
1658.000000 0.5009 0.4958 0.4912 0.4869 0.4826
1663.000000 0.4785 0.4742 0.4703 0.4667 0.4632
1668.000000 0.4598 0.4563 0.4528 0.4494 0.4459
1673.000000 0.4398 0.4323 0.4230 0.4104 0.3959
1678.000000 0.3846 0.3732 0.3562 0.3390 0.3228
1683.000000 0.2783 0.2363 0.2196 0.2129 0.2061
1688.000000 0.1994 0.1835 0.1705 0.1600 0.1230
1693.000000 0.0817 0.0744 0.0685 0.0623 0.0554
1698.000000 0.0490 0.0428 0.0374 0.0328 0.0281
1703.000000 0.0234 0.0158 0.0081 0.0056 0.0056
1708.000000 0.0055 0.0055 0.0055 0.0055 0.0054
1713.000000 0.0054 0.0053 0.0053 0.0052 0.0052
1718.000000 0.0052 0.0052 0.0051 0.0051 0.0050
1723.000000 0.0050 0.0050 0.0051 0.0091 0.0149
1728.000000 0.0207 0.0266 0.0324 0.0382 0.0440
1733.000000 0.0576 0.0753 0.0847 0.1039 0.1123
1738.000000 0.1194 0.1264 0.1334 0.1404 0.1474
1743.000000 0.1544 0.1613 0.1683 0.1753 0.1822
1748.000000 0.1892 0.1961 0.2031 0.2109 0.2206
1753.000000 0.2273 0.2332 0.2400 0.2483 0.2580
1758.000000 0.2672 0.2816 0.3270 0.3821 0.4233
1763.000000 0.4330 0.4434 0.4544 0.4650 0.4746
1768.000000 0.4830 0.4912 0.4974 0.5025 0.5073
1773.000000 0.5121 0.5169 0.5219 0.5269 0.5319
1778.000000 0.5369 0.5417 0.5460 0.5501 0.5542
1783.000000 0.5582 0.5623 0.5662 0.5698 0.5730
1788.000000 0.5762 0.5794 0.5826 0.5857 0.5889
1793.000000 0.5919 0.5943 0.5964 0.5985 0.6006
1798.000000 0.6026 0.6047 0.6067 0.6088 0.6109
1803.000000 0.6129 0.6147 0.6166 0.6184 0.6202
1808.000000 0.6221 0.6239 0.6257 0.6276 0.6295
1813.000000 0.6313 0.6331 0.6348 0.6364 0.6379
1818.000000 0.6393 0.6407 0.6422 0.6437 0.6451
1823.000000 0.6466 0.6480 0.6494 0.6508 0.6523
1828.000000 0.6537 0.6551 0.6564 0.6578 0.6591
1833.000000 0.6605 0.6618 0.6631 0.6645 0.6658
1838.000000 0.6671 0.6683 0.6696 0.6708 0.6720
1843.000000 0.6732 0.6745 0.6757 0.6770 0.6782
1848.000000 0.6794 0.6806 0.6819 0.6831 0.6843
1853.000000 0.6855 0.6866 0.6876 0.6884 0.6892
1858.000000 0.6900 0.6908 0.6916 0.6924 0.6932
1863.000000 0.6940 0.6948 0.6956 0.6964 0.6972
1868.000000 0.6980 0.6988 0.6996 0.7003 0.7011
1873.000000 0.7019 0.7027 0.7035 0.7043 0.7050
1878.000000 0.7058 0.7066 0.7072 0.7079 0.7085
1883.000000 0.7092 0.7099 0.7105 0.7112 0.7119
1888.000000 0.7125 0.7131 0.7138 0.7145 0.7151
1893.000000 0.7158 0.7165 0.7171 0.7177 0.7184
1898.000000 0.7191 0.7197 0.7202 0.7208 0.7213
1903.000000 0.7218 0.7223 0.7228 0.7233 0.7239
1908.000000 0.7244 0.7249 0.7254 0.7259 0.7264
1913.000000 0.7270 0.7275 0.7280 0.7285 0.7291
1918.000000 0.7295 0.7300 0.7306 0.7311 0.7316
1923.000000 0.7321 0.7326 0.7332 0.7337 0.7343
1928.000000 0.7348 0.7354 0.7360 0.7365 0.7371
1933.000000 0.7376 0.7382 0.7388 0.7393 0.7398
1938.000000 0.7404 0.7410 0.7415 0.7421 0.7426
1943.000000 0.7431 0.7436 0.7442 0.7448 0.7453
1948.000000 0.7459 0.7464 0.7470 0.7475 0.7479
1953.000000 0.7483 0.7487 0.7491 0.7495 0.7499
1958.000000 0.7504 0.7508 0.7511 0.7515 0.7519
1963.000000 0.7524 0.7528 0.7532 0.7536 0.7540
1968.000000 0.7544 0.7548 0.7552 0.7556 0.7560
1973.000000 0.7564 0.7568 0.7571 0.7575 0.7577
1978.000000 0.7580 0.7582 0.7585 0.7589 0.7591
1983.000000 0.7594 0.7596 0.7599 0.7602 0.7605
1988.000000 0.7608 0.7611 0.7613 0.7616 0.7618
1993.000000 0.7622 0.7624 0.7627 0.7630 0.7633
1998.000000 0.7635 0.7638 0.7640 0.7641 0.7642
2003.000000 0.7642 0.7643 0.7644 0.7645 0.7646
2008.000000 0.7646 0.7648 0.7649 0.7649 0.7650
2013.000000 0.7652 0.7652 0.7653 0.7654 0.7655
2018.000000 0.7656 0.7656 0.7655 0.7655 0.7654
2023.000000 0.7653 0.7653 0.7652 0.7650 0.7650
2028.000000 0.7649 0.7649 0.7648 0.7647 0.7647
2033.000000 0.7646 0.7646 0.7645 0.7644 0.7643
2038.000000 0.7642 0.7642 0.7641 0.7640 0.7640
2043.000000 0.7640 0.7641 0.7643 0.7645 0.7646
2048.000000 0.7647 0.7648 0.7649 0.7651 0.7653
2053.000000 0.7654 0.7655 0.7656 0.7658 0.7659
2058.000000 0.7661 0.7664 0.7668 0.7670 0.7673
2063.000000 0.7676 0.7679 0.7682 0.7685 0.7689
2068.000000 0.7692 0.7695 0.7698 0.7701 0.7704
2073.000000 0.7707 0.7709 0.7711 0.7712 0.7714
2078.000000 0.7715 0.7716 0.7718 0.7719 0.7721
2083.000000 0.7722 0.7724 0.7725 0.7727 0.7728
2088.000000 0.7728 0.7728 0.7728 0.7729 0.7728
2093.000000 0.7728 0.7728 0.7728 0.7728 0.7728
2098.000000 0.7728 0.7728 0.7727 0.7727 0.7727
2103.000000 0.7727 0.7727 0.7725 0.7724 0.7723
2108.000000 0.7721 0.7720 0.7718 0.7717 0.7716
2113.000000 0.7714 0.7713 0.7712 0.7710 0.7708
2118.000000 0.7707 0.7705 0.7704 0.7703 0.7701
2123.000000 0.7700 0.7699 0.7697 0.7695 0.7694
2128.000000 0.7692 0.7691 0.7690 0.7688 0.7686
2133.000000 0.7685 0.7683 0.7681 0.7680 0.7678
2138.000000 0.7676 0.7675 0.7673 0.7672 0.7670
2143.000000 0.7668 0.7667 0.7665 0.7663 0.7662
2148.000000 0.7660 0.7658 0.7657 0.7655 0.7654
2153.000000 0.7652 0.7650 0.7648 0.7646 0.7645
2158.000000 0.7643 0.7641 0.7640 0.7638 0.7637
2163.000000 0.7635 0.7632 0.7629 0.7627 0.7625
2168.000000 0.7623 0.7621 0.7618 0.7616 0.7614
2173.000000 0.7611 0.7609 0.7607 0.7605 0.7602
2178.000000 0.7600 0.7598 0.7596 0.7594 0.7591
2183.000000 0.7589 0.7586 0.7584 0.7582 0.7580
2188.000000 0.7577 0.7575 0.7573 0.7571 0.7569
2193.000000 0.7566 0.7564 0.7561 0.7559 0.7557
2198.000000 0.7555 0.7553 0.7551 0.7549 0.7546
2203.000000 0.7544 0.7542 0.7540 0.7538 0.7536
2208.000000 0.7533 0.7531 0.7529 0.7526 0.7524
2213.000000 0.7522 0.7520 0.7518 0.7516 0.7514
2218.000000 0.7511 0.7509 0.7506 0.7503 0.7500
2223.000000 0.7498 0.7495 0.7492 0.7489 0.7486
2228.000000 0.7483 0.7480 0.7477 0.7474 0.7471
2233.000000 0.7468 0.7465 0.7462 0.7459 0.7456
2238.000000 0.7454 0.7451 0.7448 0.7445 0.7442
2243.000000 0.7439 0.7436 0.7433 0.7430 0.7427
2248.000000 0.7424 0.7421 0.7418 0.7415 0.7412
2253.000000 0.7410 0.7407 0.7404 0.7401 0.7398
2258.000000 0.7396 0.7393 0.7390 0.7387 0.7384
2263.000000 0.7381 0.7378 0.7375 0.7372 0.7369
2268.000000 0.7367 0.7365 0.7363 0.7361 0.7358
2273.000000 0.7356 0.7353 0.7351 0.7349 0.7346
2278.000000 0.7344 0.7341 0.7339 0.7338 0.7335
2283.000000 0.7333 0.7330 0.7328 0.7325 0.7322
2288.000000 0.7319 0.7316 0.7312 0.7309 0.7306
2293.000000 0.7303 0.7300 0.7297 0.7293 0.7290
2298.000000 0.7287 0.7284 0.7280 0.7277 0.7274
2303.000000 0.7270 0.7267 0.7264 0.7260 0.7257
2308.000000 0.7254 0.7251 0.7247 0.7244 0.7241
2313.000000 0.7238 0.7235 0.7232 0.7229 0.7225
2318.000000 0.7223 0.7220 0.7217 0.7214 0.7211
2323.000000 0.7208 0.7205 0.7202 0.7199 0.7197
2328.000000 0.7194 0.7190 0.7187 0.7185 0.7182
2333.000000 0.7179 0.7176 0.7173 0.7170 0.7166
2338.000000 0.7163 0.7159 0.7155 0.7151 0.7147
2343.000000 0.7143 0.7138 0.7134 0.7130 0.7125
2348.000000 0.7121 0.7117 0.7113 0.7109 0.7105
2353.000000 0.7101 0.7097 0.7093 0.7089 0.7082
2358.000000 0.7074 0.7065 0.7056 0.7046 0.7035
2363.000000 0.7025 0.7015 0.7004 0.6994 0.6985
2368.000000 0.6975 0.6964 0.6954 0.6942 0.6930
2373.000000 0.6915 0.6900 0.6885 0.6870 0.6855
2378.000000 0.6840 0.6825 0.6810 0.6795 0.6778
2383.000000 0.6761 0.6744 0.6728 0.6711 0.6694
2388.000000 0.6678 0.6667 0.6655 0.6646 0.6638
2393.000000 0.6628 0.6619 0.6610 0.6602 0.6593
2398.000000 0.6584 0.6576 0.6566 0.6556 0.6545
2403.000000 0.6535 0.6524 0.6513 0.6502 0.6491
2408.000000 0.6481 0.6470 0.6460 0.6449 0.6438
2413.000000 0.6426 0.6413 0.6400 0.6386 0.6373
2418.000000 0.6360 0.6346 0.6332 0.6319 0.6306
2423.000000 0.6293 0.6279 0.6266 0.6253 0.6239
2428.000000 0.6225 0.6210 0.6196 0.6182 0.6168
2433.000000 0.6154 0.6139 0.6125 0.6111 0.6097
2438.000000 0.6083 0.6069 0.6055 0.6041 0.6027
2443.000000 0.6013 0.5999 0.5985 0.5971 0.5957
2448.000000 0.5942 0.5928 0.5913 0.5899 0.5885
2453.000000 0.5871 0.5857 0.5843 0.5829 0.5815
2458.000000 0.5800 0.5786 0.5772 0.5758 0.5744
2463.000000 0.5730 0.5715 0.5699 0.5683 0.5667
2468.000000 0.5650 0.5633 0.5616 0.5600 0.5583
2473.000000 0.5566 0.5549 0.5533 0.5516 0.5500
2478.000000 0.5483 0.5464 0.5445 0.5423 0.5401
2483.000000 0.5379 0.5357 0.5335 0.5314 0.5292
2488.000000 0.5270 0.5248 0.5226 0.5205 0.5183
2493.000000 0.5161 0.5140 0.5119 0.5096 0.5073
2498.000000 0.5050 0.5028 0.5006 0.4983 0.4960
2503.000000 0.4937 0.4914 0.4892 0.4869 0.4847
2508.000000 0.4825 0.4802 0.4779 0.4750 0.4721
2513.000000 0.4692 0.4662 0.4632 0.4603 0.4573
2518.000000 0.4543 0.4513 0.4483 0.4453 0.4422
2523.000000 0.4390 0.4354 0.4318 0.4282 0.4246
2528.000000 0.4211 0.4175 0.4139 0.4110 0.4087
2533.000000 0.4063 0.4046 0.4028 0.4011 0.3993
2538.000000 0.3976 0.3958 0.3941 0.3923 0.3906
2543.000000 0.3889 0.3869 0.3849 0.3829 0.3808
2548.000000 0.3786 0.3765 0.3745 0.3724 0.3703
2553.000000 0.3682 0.3662 0.3641 0.3620 0.3600
2558.000000 0.3579 0.3559 0.3542 0.3525 0.3510
2563.000000 0.3496 0.3482 0.3468 0.3454 0.3440
2568.000000 0.3426 0.3412 0.3398 0.3384 0.3370
2573.000000 0.3356 0.3342 0.3329 0.3320 0.3311
2578.000000 0.3301 0.3292 0.3283 0.3274 0.3265
2583.000000 0.3255 0.3246 0.3236 0.3227 0.3218
2588.000000 0.3209 0.3200 0.3191 0.3182 0.3173
2593.000000 0.3164 0.3154 0.3145 0.3135 0.3125
2598.000000 0.3115 0.3105 0.3095 0.3084 0.3074
2603.000000 0.3064 0.3054 0.3044 0.3034 0.3024
2608.000000 0.3014 0.3004 0.2995 0.2985 0.2975
2613.000000 0.2965 0.2954 0.2944 0.2933 0.2922
2618.000000 0.2911 0.2900 0.2889 0.2879 0.2868
2623.000000 0.2858 0.2847 0.2836 0.2825 0.2814
2628.000000 0.2803 0.2793 0.2786 0.2779 0.2773
2633.000000 0.2766 0.2760 0.2754 0.2747 0.2741
2638.000000 0.2735 0.2728 0.2722 0.2716 0.2709
2643.000000 0.2703 0.2697 0.2691 0.2684 0.2678
2648.000000 0.2671 0.2665 0.2659 0.2652 0.2646
2653.000000 0.2640 0.2634 0.2628 0.2621 0.2615
2658.000000 0.2609 0.2602 0.2596 0.2590 0.2584
2663.000000 0.2578 0.2571 0.2565 0.2559 0.2552
2668.000000 0.2546 0.2540 0.2534 0.2528 0.2522
2673.000000 0.2516 0.2509 0.2503 0.2497 0.2492
2678.000000 0.2488 0.2484 0.2480 0.2475 0.2471
2683.000000 0.2470 0.2470 0.2470 0.2451 0.2471
2688.000000 0.2471 0.2473 0.2474 0.2475 0.2480
2693.000000 0.2484 0.2489 0.2497 0.2506 0.2515
2698.000000 0.2526 0.2536 0.2547 0.2558 0.2569
2703.000000 0.2580 0.2590 0.2600 0.2610 0.2620
2708.000000 0.2630 0.2639 0.2647 0.2655 0.2662
2713.000000 0.2670 0.2677 0.2685 0.2693 0.2700
2718.000000 0.2709 0.2718 0.2727 0.2737 0.2747
2723.000000 0.2756 0.2763 0.2767 0.2771 0.2774
2728.000000 0.2777 0.2779 0.2781 0.2784 0.2786
2733.000000 0.2786 0.2785 0.2784 0.2783 0.2782
2738.000000 0.2781 0.2796 0.2778 0.2777 0.2776
2743.000000 0.2775 0.2774 0.2772 0.2771 0.2770
2748.000000 0.2769 0.2768 0.2767 0.2766 0.2764
2753.000000 0.2763 0.2761 0.2759 0.2756 0.2754
2758.000000 0.2751 0.2749 0.2746 0.2743 0.2741
2763.000000 0.2739 0.2737 0.2736 0.2735 0.2734
2768.000000 0.2733 0.2732 0.2730 0.2729 0.2727
2773.000000 0.2725 0.2724 0.2722 0.2718 0.2715
2778.000000 0.2711 0.2705 0.2698 0.2692 0.2685
2783.000000 0.2679 0.2672 0.2662 0.2653 0.2643
2788.000000 0.2633 0.2622 0.2611 0.2601 0.2591
2793.000000 0.2581 0.2569 0.2557 0.2545 0.2531
2798.000000 0.2516 0.2502 0.2483 0.2458 0.2434
2803.000000 0.2409 0.2380 0.2351 0.2323 0.2296
2808.000000 0.2268 0.2241 0.2218 0.2196 0.2173
2813.000000 0.2150 0.2128 0.2106 0.2083 0.2060
2818.000000 0.2038 0.2010 0.1977 0.1944 0.1910
2823.000000 0.1876 0.1842 0.1808 0.1772 0.1737
2828.000000 0.1702 0.1667 0.1632 0.1597 0.1561
2833.000000 0.1524 0.1488 0.1450 0.1411 0.1373
2838.000000 0.1331 0.1281 0.1231 0.1181 0.1131
2843.000000 0.1081 0.1032 0.0982 0.0932 0.0882
2848.000000 0.0833 0.0783 0.0734 0.0684 0.0634
2853.000000 0.0584 0.0535 0.0485 0.0436 0.0387
2858.000000 0.0337 0.0288 0.0239 0.0189 0.0138
2863.000000 0.0087 0.0052 0.0052 0.0051 0.0051
2868.000000 0.0051 0.0051 0.0051 0.0052 0.0052
2873.000000 0.0052 0.0052 0.0052 0.0052 0.0052
2878.000000 0.0052 0.0052 0.0052 0.0053 0.0053
2883.000000 0.0053 0.0053 0.0053 0.0053 0.0054
2888.000000 0.0054 0.0054 0.0054 0.0054 0.0054
2893.000000 0.0054 0.0054 0.0054 0.0054 0.0055
2898.000000 0.0055 0.0055 0.0055 0.0055 0.0055
2903.000000 0.0055 0.0055 0.0055 0.0055 0.0056
2908.000000 0.0056 0.0056 0.0056 0.0053 0.0056
2913.000000 0.0056 0.0056 0.0056 0.0056 0.0056
2918.000000 0.0057 0.0057 0.0057 0.0057 0.0057
2923.000000 0.0057 0.0057 0.0057 0.0057 0.0057
2928.000000 0.0058 0.0058 0.0058 0.0058 0.0058
2933.000000 0.0058 0.0058 0.0058 0.0058 0.0058
2938.000000 0.0059 0.0059 0.0059 0.0059 0.0059
2943.000000 0.0059 0.0059 0.0059 0.0059 0.0059
2948.000000 0.0059 0.0060 0.0060 0.0060 0.0060
2953.000000 0.0060 0.0060 0.0060 0.0061 0.0061
2958.000000 0.0061 0.0061 0.0061 0.0061 0.0061
2963.000000 0.0061 0.0061 0.0061 0.0069 0.0087
2968.000000 0.0106 0.0124 0.0174 0.0229 0.0283
2973.000000 0.0334 0.0379 0.0424 0.0469 0.0486
2978.000000 0.0496 0.0506 0.0516 0.0526 0.0536
2983.000000 0.0547 0.0559 0.0572 0.0585 0.0598
2988.000000 0.0612 0.0625 0.0638 0.0650 0.0661
2993.000000 0.0671 0.0682 0.0689 0.0695 0.0702
2998.000000 0.0707 0.0711 0.0715 0.0720 0.0723
3003.000000 0.0725 0.0728 0.0731 0.0733 0.0735
3008.000000 0.0738 0.0740 0.0742 0.0744 0.0746
3013.000000 0.0749 0.0751 0.0754 0.0756 0.0759
3018.000000 0.0761 0.0764 0.0766 0.0769 0.0771
3023.000000 0.0774 0.0776 0.0778 0.0781 0.0783
3028.000000 0.0785 0.0788 0.0790 0.0792 0.0793
3033.000000 0.0795 0.0797 0.0798 0.0800 0.0801
3038.000000 0.0803 0.0805 0.0806 0.0808 0.0810
3043.000000 0.0812 0.0815 0.0817 0.0825 0.0832
3048.000000 0.0840 0.0849 0.0864 0.0879 0.0895
3053.000000 0.0904 0.0907 0.0910 0.0913 0.0916
3058.000000 0.0918 0.0921 0.0924 0.0927 0.0929
3063.000000 0.0932 0.0935 0.0938 0.0941 0.0943
3068.000000 0.0945 0.0947 0.0949 0.0951 0.0953
3073.000000 0.0955 0.0957 0.0958 0.0960 0.0962
3078.000000 0.0964 0.0966 0.0967 0.0969 0.0971
3083.000000 0.0973 0.0977 0.0980 0.0984 0.0988
3088.000000 0.0992 0.0996 0.1000 0.1004 0.1007
3093.000000 0.1011 0.1015 0.1020 0.1025 0.1030
3098.000000 0.1035 0.1041 0.1048 0.1054 0.1060
3103.000000 0.1067 0.1073 0.1080 0.1086 0.1094
3108.000000 0.1101 0.1108 0.1116 0.1123 0.1131
3113.000000 0.1139 0.1148 0.1157 0.1166 0.1175
3118.000000 0.1186 0.1199 0.1212 0.1224 0.1237
3123.000000 0.1250 0.1263 0.1276 0.1291 0.1307
3128.000000 0.1323 0.1339 0.1354 0.1370 0.1386
3133.000000 0.1401 0.1418 0.1434 0.1450 0.1466
3138.000000 0.1483 0.1500 0.1517 0.1536 0.1562
3143.000000 0.1588 0.1614 0.1635 0.1646 0.1657
3148.000000 0.1668 0.1678 0.1689 0.1699 0.1709
3153.000000 0.1719 0.1729 0.1738 0.1747 0.1757
3158.000000 0.1766 0.1775 0.1784 0.1796 0.1810
3163.000000 0.1824 0.1838 0.1855 0.1877 0.1898
3168.000000 0.1920 0.1942 0.1963 0.1985 0.2006
3173.000000 0.2025 0.2042 0.2059 0.2076 0.2093
3178.000000 0.2110 0.2127 0.2143 0.2160 0.2178
3183.000000 0.2195 0.2212 0.2229 0.2247 0.2264
3188.000000 0.2281 0.2298 0.2315 0.2331 0.2348
3193.000000 0.2364 0.2379 0.2394 0.2409 0.2424
3198.000000 0.2439 0.2454 0.2469 0.2484 0.2504
3203.000000 0.2523 0.2543 0.2562 0.2585 0.2608
3208.000000 0.2631 0.2654 0.2672 0.2688 0.2705
3213.000000 0.2721 0.2738 0.2754 0.2770 0.2785
3218.000000 0.2804 0.2824 0.2845 0.2865 0.2893
3223.000000 0.2936 0.2978 0.3020 0.3060 0.3087
3228.000000 0.3113 0.3140 0.3167 0.3187 0.3208
3233.000000 0.3228 0.3248 0.3262 0.3275 0.3288
3238.000000 0.3300 0.3318 0.3338 0.3358 0.3378
3243.000000 0.3399 0.3421 0.3443 0.3466 0.3488
3248.000000 0.3511 0.3533 0.3556 0.3578 0.3601
3253.000000 0.3623 0.3645 0.3668 0.3690 0.3712
3258.000000 0.3734 0.3756 0.3779 0.3801 0.3823
3263.000000 0.3846 0.3868 0.3890 0.3913 0.3935
3268.000000 0.3957 0.3979 0.4001 0.4023 0.4045
3273.000000 0.4067 0.4089 0.4111 0.4134 0.4156
3278.000000 0.4178 0.4200 0.4222 0.4244 0.4266
3283.000000 0.4288 0.4309 0.4331 0.4353 0.4375
3288.000000 0.4397 0.4419 0.4441 0.4463 0.4485
3293.000000 0.4507 0.4529 0.4550 0.4572 0.4594
3298.000000 0.4615 0.4637 0.4659 0.4681 0.4702
3303.000000 0.4724 0.4746 0.4768 0.4789 0.4811
3308.000000 0.4833 0.4854 0.4876 0.4897 0.4919
3313.000000 0.4940 0.4962 0.4983 0.5006 0.5030
3318.000000 0.5054 0.5078 0.5102 0.5118 0.5133
3323.000000 0.5148 0.5163 0.5177 0.5191 0.5205
3328.000000 0.5219 0.5233 0.5247 0.5261 0.5275
3333.000000 0.5289 0.5303 0.5317 0.5331 0.5345
3338.000000 0.5361 0.5379 0.5398 0.5416 0.5435
3343.000000 0.5454 0.5474 0.5494 0.5513 0.5534
3348.000000 0.5558 0.5582 0.5606 0.5630 0.5657
3353.000000 0.5685 0.5713 0.5741 0.5765 0.5781
3358.000000 0.5797 0.5813 0.5829 0.5845 0.5861
3363.000000 0.5876 0.5892 0.5908 0.5924 0.5940
3368.000000 0.5957 0.5973 0.5991 0.6009 0.6028
3373.000000 0.6046 0.6065 0.6084 0.6102 0.6121
3378.000000 0.6139 0.6160 0.6182 0.6204 0.6227
3383.000000 0.6249 0.6271 0.6294 0.6316 0.6339
3388.000000 0.6363 0.6389 0.6416 0.6443 0.6469
3393.000000 0.6496 0.6522 0.6549 0.6576 0.6600
3398.000000 0.6619 0.6638 0.6657 0.6676 0.6695
3403.000000 0.6714 0.6733 0.6752 0.6771 0.6789
3408.000000 0.6808 0.6827 0.6845 0.6864 0.6883
3413.000000 0.6901 0.6919 0.6938 0.6956 0.6973
3418.000000 0.6991 0.7008 0.7026 0.7042 0.7059
3423.000000 0.7075 0.7092 0.7108 0.7125 0.7141
3428.000000 0.7158 0.7175 0.7189 0.7202 0.7216
3433.000000 0.7229 0.7243 0.7256 0.7268 0.7281
3438.000000 0.7294 0.7307 0.7319 0.7331 0.7342
3443.000000 0.7354 0.7365 0.7376 0.7386 0.7396
3448.000000 0.7407 0.7417 0.7428 0.7438 0.7449
3453.000000 0.7459 0.7469 0.7478 0.7487 0.7497
3458.000000 0.7506 0.7513 0.7520 0.7526 0.7533
3463.000000 0.7540 0.7547 0.7554 0.7561 0.7568
3468.000000 0.7575 0.7582 0.7589 0.7596 0.7603
3473.000000 0.7610 0.7617 0.7623 0.7630 0.7637
3478.000000 0.7644 0.7652 0.7659 0.7666 0.7673
3483.000000 0.7683 0.7692 0.7701 0.7711 0.7720
3488.000000 0.7729 0.7739 0.7748 0.7758 0.7767
3493.000000 0.7776 0.7785 0.7795 0.7804 0.7816
3498.000000 0.7831 0.7846 0.7861 0.7876 0.7889
3503.000000 0.7902 0.7915 0.7928 0.7941 0.7950
3508.000000 0.7957 0.7964 0.7971 0.7978 0.7985
3513.000000 0.7992 0.7999 0.8005 0.8012 0.8019
3518.000000 0.8026 0.8032 0.8039 0.8046 0.8051
3523.000000 0.8056 0.8061 0.8066 0.8071 0.8075
3528.000000 0.8079 0.8083 0.8087 0.8091 0.8095
3533.000000 0.8099 0.8103 0.8106 0.8110 0.8114
3538.000000 0.8118 0.8122 0.8126 0.8130 0.8134
3543.000000 0.8138 0.8142 0.8145 0.8149 0.8153
3548.000000 0.8157 0.8160 0.8164 0.8168 0.8172
3553.000000 0.8175 0.8179 0.8182 0.8186 0.8190
3558.000000 0.8193 0.8197 0.8201 0.8205 0.8208
3563.000000 0.8212 0.8215 0.8219 0.8222 0.8226
3568.000000 0.8230 0.8234 0.8239 0.8243 0.8247
3573.000000 0.8251 0.8255 0.8259 0.8263 0.8267
3578.000000 0.8270 0.8273 0.8276 0.8279 0.8282
3583.000000 0.8285 0.8288 0.8291 0.8293 0.8296
3588.000000 0.8299 0.8301 0.8304 0.8306 0.8309
3593.000000 0.8311 0.8313 0.8316 0.8318 0.8320
3598.000000 0.8322 0.8324 0.8326 0.8328 0.8330
3603.000000 0.8332 0.8334 0.8336 0.8338 0.8340
3608.000000 0.8341 0.8343 0.8345 0.8347 0.8348
3613.000000 0.8350 0.8350 0.8351 0.8352 0.8353
3618.000000 0.8354 0.8354 0.8355 0.8356 0.8357
3623.000000 0.8357 0.8358 0.8359 0.8360 0.8360
3628.000000 0.8361 0.8362 0.8362 0.8363 0.8364
3633.000000 0.8364 0.8365 0.8365 0.8366 0.8367
3638.000000 0.8368 0.8368 0.8369 0.8370 0.8371
3643.000000 0.8372 0.8372 0.8373 0.8373 0.8374
3648.000000 0.8375 0.8375 0.8376 0.8377 0.8377
3653.000000 0.8378 0.8379 0.8380 0.8380 0.8381
3658.000000 0.8381 0.8382 0.8382 0.8383 0.8384
3663.000000 0.8384 0.8385 0.8386 0.8387 0.8387
3668.000000 0.8388 0.8389 0.8390 0.8390 0.8391
3673.000000 0.8392 0.8393 0.8394 0.8395 0.8396
3678.000000 0.8397 0.8397 0.8398 0.8399 0.8400
3683.000000 0.8401 0.8402 0.8403 0.8404 0.8405
3688.000000 0.8407 0.8408 0.8409 0.8411 0.8412
3693.000000 0.8414 0.8415 0.8417 0.8418 0.8420
3698.000000 0.8421 0.8424 0.8427 0.8430 0.8433
3703.000000 0.8436 0.8439 0.8443 0.8446 0.8449
3708.000000 0.8453 0.8456 0.8459 0.8461 0.8464
3713.000000 0.8467 0.8470 0.8472 0.8475 0.8478
3718.000000 0.8481 0.8484 0.8487 0.8489 0.8491
3723.000000 0.8492 0.8494 0.8496 0.8498 0.8500
3728.000000 0.8501 0.8503 0.8505 0.8507 0.8509
3733.000000 0.8510 0.8512 0.8514 0.8516 0.8518
3738.000000 0.8519 0.8520 0.8521 0.8523 0.8524
3743.000000 0.8525 0.8526 0.8527 0.8528 0.8528
3748.000000 0.8529 0.8530 0.8531 0.8532 0.8533
3753.000000 0.8534 0.8535 0.8535 0.8536 0.8537
3758.000000 0.8538 0.8538 0.8539 0.8539 0.8539
3763.000000 0.8540 0.8540 0.8540 0.8541 0.8541
3768.000000 0.8542 0.8542 0.8542 0.8543 0.8543
3773.000000 0.8543 0.8544 0.8544 0.8544 0.8545
3778.000000 0.8545 0.8545 0.8546 0.8546 0.8546
3783.000000 0.8547 0.8547 0.8547 0.8548 0.8548
3788.000000 0.8549 0.8549 0.8549 0.8549 0.8549
3793.000000 0.8549 0.8550 0.8550 0.8550 0.8550
3798.000000 0.8550 0.8550 0.8581 0.8550 0.8550
3803.000000 0.8550 0.8550 0.8550 0.8550 0.8550
3808.000000 0.8550 0.8550 0.8550 0.8550 0.8550
3813.000000 0.8550 0.8550 0.8550 0.8550 0.8550
3818.000000 0.8550 0.8550 0.8550 0.8550 0.8550
3823.000000 0.8550 0.8550 0.8550 0.8550 0.8550
3828.000000 0.8550 0.8550 0.8550 0.8550 0.8550
3833.000000 0.8550 0.8550 0.8549 0.8549 0.8549
3838.000000 0.8549 0.8549 0.8549 0.8549 0.8549
3843.000000 0.8549 0.8549 0.8549 0.8549 0.8548
3848.000000 0.8548 0.8548 0.8548 0.8548 0.8548
3853.000000 0.8547 0.8547 0.8547 0.8547 0.8547
3858.000000 0.8547 0.8546 0.8546 0.8546 0.8546
3863.000000 0.8546 0.8546 0.8546 0.8546 0.8546
3868.000000 0.8546 0.8546 0.8545 0.8545 0.8545
3873.000000 0.8545 0.8545 0.8545 0.8544 0.8544
3878.000000 0.8544 0.8543 0.8543 0.8543 0.8542
3883.000000 0.8542 0.8542 0.8542 0.8541 0.8541
3888.000000 0.8541 0.8540 0.8540 0.8540 0.8539
3893.000000 0.8539 0.8539 0.8538 0.8538 0.8538
3898.000000 0.8537 0.8537 0.8537 0.8536 0.8536
3903.000000 0.8536 0.8535 0.8535 0.8535 0.8534
3908.000000 0.8534 0.8534 0.8533 0.8533 0.8533
3913.000000 0.8532 0.8532 0.8532 0.8531 0.8531
3918.000000 0.8531 0.8531 0.8531 0.8531 0.8531
3923.000000 0.8531 0.8531 0.8531 0.8531 0.8531
3928.000000 0.8531 0.8531 0.8531 0.8531 0.8531
3933.000000 0.8531 0.8531 0.8531 0.8531 0.8531
3938.000000 0.8531 0.8531 0.8531 0.8531 0.8531
3943.000000 0.8531 0.8531 0.8531 0.8531 0.8531
3948.000000 0.8531 0.8531 0.8531 0.8531 0.8531
3953.000000 0.8531 0.8531 0.8531 0.8531 0.8531
3958.000000 0.8531 0.8531 0.8531 0.8531 0.8530
3963.000000 0.8530 0.8530 0.8530 0.8530 0.8530
3968.000000 0.8530 0.8530 0.8530 0.8530 0.8530
3973.000000 0.8530 0.8530 0.8530 0.8530 0.8530
3978.000000 0.8530 0.8530 0.8530 0.8529 0.8529
3983.000000 0.8529 0.8529 0.8529 0.8529 0.8529
3988.000000 0.8529 0.8529 0.8529 0.8529 0.8529
3993.000000 0.8529 0.8528 0.8527 0.8527 0.8526
3998.000000 0.8525 0.8524 0.8524
##END=
