##TITLE=PHENOL, o-(2-BENZOTHIAZOLYL)-
##JCAMP-DX=4.24
##DATA TYPE=INFRARED SPECTRUM
##CLASS=COBLENTZ III
##ORIGIN=DOW CHEMICAL COMPANY
##OWNER=COBLENTZ SOC.
Collection (C) 2018 copyright by the U.S. Secretary of Commerce
on behalf of the United States of America. All rights reserved.
##DATE=1969/05/06
##NAMES=2-(1,3-benzothiazol-2-yl)phenol
##CAS REGISTRY NO=3411-95-8
##MOLFORM=C13 H9 N O S
##MP=131 C
##SOURCE REFERENCE=COBLENTZ NO. 06044
##$NIST SOURCE=COBLENTZ
##$NIST IMAGE=cob6044
##SPECTROMETER/DATA SYSTEM=BECKMAN IR-9 (GRATING)
##INSTRUMENT PARAMETERS=ORDER CHANGES: 670, 1200, 2000 CM^-^1
##STATE=SOLID (KBr DISC)
##SAMPLING PROCEDURE=TRANSMISSION
##RESOLUTION=2
##DATA PROCESSING=DIGITIZED BY COBLENTZ SOCIETY (BATCH I) FROM HARD COPY
##XUNITS=1/CM
##YUNITS=TRANSMITTANCE
##XLABEL=Wavenumbers (cm-1)
##YLABEL=% Transmission
##XFACTOR=1
##YFACTOR=1
##DELTAX=1
##FIRSTX=397
##LASTX=3800
##FIRSTY=0.8347
##MAXX=3800
##MINX=397
##MAXY=0.8789
##MINY=0.0915
##NPOINTS=3404
##XYDATA=(X++(Y..Y))
397.000000 0.8347 0.8342 0.8337 0.8338 0.8339
402.000000 0.8340 0.8341 0.8343 0.8344 0.8344
407.000000 0.8344 0.8343 0.8342 0.8341 0.8341
412.000000 0.8339 0.8338 0.8338 0.8337 0.8336
417.000000 0.8336 0.8335 0.8335 0.8331 0.8325
422.000000 0.8321 0.8318 0.8314 0.8310 0.8285
427.000000 0.8259 0.8221 0.8137 0.8025 0.8005
432.000000 0.7984 0.7965 0.7958 0.7950 0.7942
437.000000 0.7935 0.7926 0.7918 0.7905 0.7849
442.000000 0.7689 0.7654 0.7641 0.7636 0.7631
447.000000 0.7628 0.7625 0.7615 0.7601 0.7511
452.000000 0.7476 0.7457 0.7437 0.7322 0.7011
457.000000 0.6701 0.6391 0.6291 0.6315 0.6300
462.000000 0.6482 0.6662 0.6844 0.7025 0.7188
467.000000 0.7224 0.7257 0.7282 0.7307 0.7334
472.000000 0.7361 0.7387 0.7411 0.7436 0.7460
477.000000 0.7485 0.7508 0.7533 0.7558 0.7582
482.000000 0.7606 0.7626 0.7644 0.7660 0.7675
487.000000 0.7693 0.7708 0.7721 0.7734 0.7746
492.000000 0.7738 0.7730 0.7714 0.7693 0.7665
497.000000 0.7630 0.7595 0.7551 0.7507 0.7488
502.000000 0.7485 0.7495 0.7517 0.7564 0.7611
507.000000 0.7661 0.7710 0.7762 0.7819 0.7876
512.000000 0.7931 0.7985 0.8005 0.8008 0.8007
517.000000 0.8004 0.8000 0.7985 0.7948 0.7897
522.000000 0.7867 0.7860 0.7874 0.7924 0.7990
527.000000 0.8058 0.8121 0.8198 0.8277 0.8320
532.000000 0.8358 0.8375 0.8392 0.8403 0.8397
537.000000 0.8386 0.8353 0.8302 0.8244 0.8213
542.000000 0.8201 0.8205 0.8228 0.8275 0.8323
547.000000 0.8370 0.8418 0.8465 0.8512 0.8553
552.000000 0.8574 0.8590 0.8601 0.8611 0.8621
557.000000 0.8631 0.8641 0.8645 0.8649 0.8653
562.000000 0.8652 0.8651 0.8651 0.8650 0.8648
567.000000 0.8646 0.8643 0.8641 0.8638 0.8624
572.000000 0.8610 0.8583 0.8567 0.8558 0.8549
577.000000 0.8540 0.8534 0.8528 0.8521 0.8516
582.000000 0.8515 0.8515 0.8516 0.8517 0.8518
587.000000 0.8520 0.8523 0.8525 0.8528 0.8532
592.000000 0.8544 0.8560 0.8571 0.8578 0.8587
597.000000 0.8591 0.8594 0.8597 0.8598 0.8598
602.000000 0.8598 0.8597 0.8595 0.8594 0.8593
607.000000 0.8591 0.8616 0.8588 0.8586 0.8583
612.000000 0.8581 0.8578 0.8577 0.8575 0.8573
617.000000 0.8571 0.8571 0.8571 0.8570 0.8570
622.000000 0.8568 0.8566 0.8562 0.8557 0.8553
627.000000 0.8549 0.8545 0.8541 0.8537 0.8532
632.000000 0.8528 0.8523 0.8518 0.8514 0.8510
637.000000 0.8506 0.8502 0.8499 0.8495 0.8491
642.000000 0.8488 0.8483 0.8478 0.8473 0.8467
647.000000 0.8462 0.8457 0.8448 0.8439 0.8428
652.000000 0.8420 0.8410 0.8398 0.8386 0.8374
657.000000 0.8362 0.8347 0.8308 0.8045 0.7782
662.000000 0.7622 0.7628 0.7665 0.7785 0.7904
667.000000 0.8021 0.8138 0.8151 0.8188 0.8198
672.000000 0.8206 0.8215 0.8224 0.8230 0.7714
677.000000 0.8201 0.6919 0.6881 0.6846 0.6825
682.000000 0.6812 0.6815 0.6817 0.6818 0.6822
687.000000 0.6828 0.6828 0.6828 0.6825 0.6817
692.000000 0.6799 0.6758 0.6681 0.6588 0.6461
697.000000 0.6345 0.6077 0.5688 0.5299 0.4909
702.000000 0.4814 0.4812 0.4850 0.5070 0.5289
707.000000 0.5508 0.5728 0.5947 0.6166 0.6385
712.000000 0.6567 0.6561 0.6561 0.6561 0.6371
717.000000 0.6047 0.5723 0.5521 0.5494 0.5470
722.000000 0.5445 0.5341 0.4868 0.4395 0.3923
727.000000 0.3450 0.2977 0.2906 0.3342 0.3816
732.000000 0.4287 0.4299 0.4164 0.3964 0.3756
737.000000 0.3721 0.3782 0.3918 0.4053 0.4092
742.000000 0.4093 0.2413 0.1616 0.1594 0.1608
747.000000 0.1664 0.2002 0.2339 0.2677 0.3014
752.000000 0.3352 0.3690 0.3721 0.3650 0.3457
757.000000 0.3262 0.3068 0.2938 0.2924 0.3111
762.000000 0.3345 0.3579 0.3812 0.4006 0.4006
767.000000 0.4007 0.4009 0.4012 0.4016 0.4058
772.000000 0.4341 0.4624 0.4907 0.5191 0.5474
777.000000 0.5757 0.6085 0.6192 0.6325 0.6588
782.000000 0.6775 0.6880 0.7021 0.7188 0.7276
787.000000 0.7358 0.7439 0.7511 0.7578 0.7646
792.000000 0.7711 0.7787 0.7861 0.7915 0.7960
797.000000 0.8005 0.8050 0.8088 0.8119 0.8151
802.000000 0.8185 0.8202 0.8217 0.8232 0.8245
807.000000 0.8266 0.8251 0.8240 0.8213 0.8174
812.000000 0.8086 0.7945 0.7528 0.7271 0.6712
817.000000 0.4986 0.3259 0.2651 0.2655 0.3286
822.000000 0.4099 0.4910 0.5724 0.6536 0.7349
827.000000 0.7872 0.8022 0.8174 0.8371 0.8556
832.000000 0.8643 0.8693 0.8732 0.8746 0.8759
837.000000 0.8771 0.8780 0.8784 0.8788 0.8789
842.000000 0.8788 0.8788 0.8787 0.8781 0.8768
847.000000 0.8747 0.8713 0.8675 0.8628 0.8577
852.000000 0.8521 0.8450 0.8378 0.8301 0.8221
857.000000 0.8008 0.7489 0.7378 0.7168 0.6938
862.000000 0.6708 0.6633 0.6643 0.6861 0.7143
867.000000 0.7424 0.7706 0.7988 0.8142 0.8105
872.000000 0.7858 0.7361 0.7288 0.7278 0.7825
877.000000 0.8167 0.8395 0.8468 0.8510 0.8537
882.000000 0.8553 0.8565 0.8575 0.8571 0.8568
887.000000 0.8564 0.8557 0.8550 0.8543 0.8536
892.000000 0.8533 0.8530 0.8527 0.8525 0.8534
897.000000 0.8542 0.8551 0.8563 0.8575 0.8588
902.000000 0.8600 0.8604 0.8608 0.8613 0.8614
907.000000 0.8607 0.8612 0.8611 0.8611 0.8607
912.000000 0.8604 0.8600 0.8596 0.8592 0.8589
917.000000 0.8585 0.8578 0.8571 0.8566 0.8559
922.000000 0.8553 0.8547 0.8539 0.8525 0.8511
927.000000 0.8437 0.8232 0.8025 0.7821 0.7615
932.000000 0.7410 0.7256 0.7181 0.7175 0.7198
937.000000 0.7154 0.7371 0.7578 0.7784 0.7990
942.000000 0.8196 0.8258 0.8292 0.8317 0.8336
947.000000 0.8345 0.8352 0.8358 0.8360 0.8349
952.000000 0.8338 0.8321 0.8307 0.8292 0.8277
957.000000 0.8262 0.8235 0.8208 0.8180 0.8151
962.000000 0.8111 0.8072 0.8025 0.7948 0.7815
967.000000 0.7572 0.7343 0.6758 0.6188 0.5617
972.000000 0.5046 0.4475 0.3904 0.3582 0.3582
977.000000 0.3820 0.4553 0.5287 0.6020 0.6753
982.000000 0.7457 0.7558 0.7645 0.7711 0.7780
987.000000 0.7844 0.7907 0.7968 0.8028 0.8068
992.000000 0.8106 0.8136 0.8146 0.8155 0.8164
997.000000 0.8165 0.8165 0.8167 0.8190 0.8164
1002.000000 0.8161 0.8158 0.8151 0.8146 0.8140
1007.000000 0.8125 0.8111 0.8090 0.8033 0.7958
1012.000000 0.7841 0.7674 0.7712 0.7683 0.7686
1017.000000 0.7698 0.7718 0.7744 0.7772 0.7801
1022.000000 0.7830 0.7858 0.7880 0.7901 0.7921
1027.000000 0.7930 0.7901 0.7888 0.7851 0.7438
1032.000000 0.6865 0.6575 0.6458 0.6374 0.6364
1037.000000 0.6362 0.6362 0.6367 0.6325 0.6478
1042.000000 0.6521 0.6654 0.6986 0.7318 0.7649
1047.000000 0.7883 0.7950 0.7995 0.8021 0.8028
1052.000000 0.8036 0.8041 0.8043 0.8046 0.8049
1057.000000 0.8048 0.8047 0.8045 0.8043 0.8040
1062.000000 0.8034 0.8026 0.8018 0.8011 0.7997
1067.000000 0.7975 0.7954 0.7911 0.7869 0.7795
1072.000000 0.7708 0.7630 0.7574 0.7553 0.7561
1077.000000 0.7576 0.7606 0.7631 0.7657 0.7710
1082.000000 0.7756 0.7790 0.7805 0.7814 0.7818
1087.000000 0.7821 0.7825 0.7828 0.7833 0.7836
1092.000000 0.7840 0.7844 0.7847 0.7848 0.7850
1097.000000 0.7851 0.7854 0.7854 0.7853 0.7853
1102.000000 0.7851 0.7851 0.7851 0.7844 0.7835
1107.000000 0.7826 0.7818 0.7808 0.7800 0.7790
1112.000000 0.7781 0.7771 0.7756 0.7741 0.7725
1117.000000 0.7708 0.7696 0.7683 0.7669 0.7657
1122.000000 0.7628 0.7593 0.7536 0.7460 0.7395
1127.000000 0.7337 0.7305 0.7282 0.7068 0.6735
1132.000000 0.6550 0.6517 0.6758 0.6999 0.7239
1137.000000 0.7478 0.7604 0.7625 0.7633 0.7668
1142.000000 0.7630 0.7621 0.7608 0.7585 0.7551
1147.000000 0.7498 0.7367 0.6961 0.6556 0.6151
1152.000000 0.5796 0.5814 0.5758 0.6197 0.6388
1157.000000 0.6580 0.6771 0.6962 0.7084 0.7098
1162.000000 0.7096 0.7076 0.7114 0.6965 0.6911
1167.000000 0.6856 0.6800 0.6784 0.6793 0.6895
1172.000000 0.6996 0.7097 0.7187 0.7217 0.7228
1177.000000 0.7233 0.7233 0.7228 0.7228 0.7201
1182.000000 0.7185 0.7157 0.7121 0.7078 0.7032
1187.000000 0.6981 0.6921 0.6639 0.6241 0.6114
1192.000000 0.5988 0.5912 0.5845 0.5803 0.5772
1197.000000 0.5742 0.5712 0.5682 0.5652 0.5622
1202.000000 0.5578 0.5529 0.5468 0.5362 0.5183
1207.000000 0.4817 0.4451 0.4084 0.3718 0.3353
1212.000000 0.2987 0.2844 0.2745 0.2671 0.2584
1217.000000 0.2470 0.2355 0.2240 0.2126 0.2011
1222.000000 0.1968 0.1999 0.2115 0.2725 0.3334
1227.000000 0.3945 0.4555 0.5165 0.5775 0.6385
1232.000000 0.6700 0.6724 0.6736 0.6757 0.6724
1237.000000 0.6700 0.6601 0.6307 0.6012 0.5718
1242.000000 0.5423 0.5129 0.4901 0.4882 0.4868
1247.000000 0.4859 0.4840 0.4381 0.3923 0.3506
1252.000000 0.3506 0.3480 0.3570 0.3688 0.3780
1257.000000 0.3866 0.3926 0.4158 0.4664 0.5169
1262.000000 0.5674 0.6064 0.6066 0.6077 0.5641
1267.000000 0.5143 0.4646 0.4148 0.3650 0.3153
1272.000000 0.2655 0.2282 0.2263 0.2370 0.3000
1277.000000 0.3629 0.4259 0.4889 0.5518 0.6148
1282.000000 0.6768 0.6899 0.7040 0.7176 0.7210
1287.000000 0.7243 0.7265 0.7285 0.7305 0.7296
1292.000000 0.7294 0.7276 0.7257 0.7236 0.7211
1297.000000 0.7193 0.7182 0.7171 0.7164 0.7157
1302.000000 0.7151 0.7140 0.7121 0.6875 0.6558
1307.000000 0.6242 0.5926 0.5609 0.5293 0.4976
1312.000000 0.4660 0.4343 0.4027 0.3709 0.3559
1317.000000 0.3562 0.3562 0.3562 0.3602 0.4375
1322.000000 0.5149 0.5922 0.6675 0.6851 0.7004
1327.000000 0.7137 0.7233 0.7304 0.7315 0.7325
1332.000000 0.7334 0.7337 0.7336 0.7334 0.7328
1337.000000 0.7321 0.7312 0.7304 0.7295 0.7283
1342.000000 0.7267 0.7251 0.7234 0.7218 0.7204
1347.000000 0.7190 0.7175 0.7164 0.7153 0.7141
1352.000000 0.7130 0.7118 0.7108 0.7097 0.7086
1357.000000 0.7074 0.7061 0.7050 0.7038 0.7025
1362.000000 0.6996 0.6967 0.6939 0.6911 0.6878
1367.000000 0.6844 0.6811 0.6776 0.6745 0.6712
1372.000000 0.6682 0.6650 0.6618 0.6588 0.6558
1377.000000 0.6528 0.6498 0.6469 0.6444 0.6417
1382.000000 0.6390 0.6359 0.6322 0.6285 0.6248
1387.000000 0.6225 0.6202 0.6180 0.6165 0.6157
1392.000000 0.6150 0.6143 0.6139 0.6139 0.6134
1397.000000 0.6126 0.6118 0.6110 0.6072 0.6012
1402.000000 0.5915 0.5788 0.5608 0.5489 0.5412
1407.000000 0.5336 0.5270 0.5256 0.5249 0.5247
1412.000000 0.5214 0.5249 0.5262 0.5302 0.5396
1417.000000 0.5462 0.5512 0.5560 0.5605 0.5640
1422.000000 0.5674 0.5688 0.5698 0.5696 0.5691
1427.000000 0.5688 0.5679 0.5662 0.5536 0.5302
1432.000000 0.5068 0.4833 0.4699 0.4442 0.4153
1437.000000 0.3864 0.3574 0.3284 0.2996 0.2777
1442.000000 0.2757 0.2899 0.3194 0.3489 0.3784
1447.000000 0.4079 0.4374 0.4669 0.4965 0.5260
1452.000000 0.5555 0.5762 0.5690 0.5568 0.5276
1457.000000 0.4984 0.4692 0.4401 0.4117 0.4121
1462.000000 0.4103 0.4368 0.4632 0.4896 0.5068
1467.000000 0.5082 0.5086 0.5078 0.4629 0.4248
1472.000000 0.3866 0.3487 0.3106 0.2725 0.2345
1477.000000 0.1965 0.1668 0.1538 0.1426 0.1319
1482.000000 0.1252 0.1184 0.1144 0.1105 0.1068
1487.000000 0.1035 0.1002 0.0968 0.0937 0.0922
1492.000000 0.0915 0.0955 0.0930 0.1959 0.2461
1497.000000 0.2963 0.3464 0.3968 0.4470 0.4972
1502.000000 0.5474 0.5651 0.5697 0.5745 0.5776
1507.000000 0.5803 0.5830 0.5865 0.5910 0.5957
1512.000000 0.6607 0.6791 0.6871 0.6912 0.6949
1517.000000 0.6964 0.6978 0.6987 0.7017 0.6978
1522.000000 0.6956 0.6815 0.6618 0.6421 0.6225
1527.000000 0.6029 0.5832 0.5644 0.5649 0.5651
1532.000000 0.5704 0.5622 0.5848 0.5904 0.5950
1537.000000 0.5995 0.6046 0.6103 0.6159 0.6215
1542.000000 0.6289 0.6365 0.6441 0.6512 0.6583
1547.000000 0.6648 0.6699 0.6749 0.6790 0.6817
1552.000000 0.6817 0.6817 0.6853 0.6775 0.6703
1557.000000 0.6634 0.6568 0.6496 0.6411 0.6333
1562.000000 0.6297 0.6297 0.6282 0.6415 0.6425
1567.000000 0.6433 0.6430 0.6441 0.6258 0.6057
1572.000000 0.5856 0.5655 0.5454 0.5253 0.5052
1577.000000 0.4851 0.4649 0.4448 0.4204 0.4018
1582.000000 0.3879 0.3788 0.3732 0.3680 0.3623
1587.000000 0.3410 0.3199 0.2987 0.2775 0.2726
1592.000000 0.2728 0.2782 0.3134 0.3488 0.3842
1597.000000 0.4195 0.4548 0.4901 0.5255 0.5608
1602.000000 0.5960 0.6241 0.6241 0.6241 0.6252
1607.000000 0.6230 0.6217 0.6184 0.6083 0.5895
1612.000000 0.5708 0.5520 0.5333 0.5145 0.4958
1617.000000 0.4770 0.4583 0.4395 0.4208 0.4020
1622.000000 0.3832 0.3645 0.3458 0.3271 0.3200
1627.000000 0.3200 0.3321 0.3182 0.4316 0.4812
1632.000000 0.5310 0.5808 0.5895 0.5970 0.6042
1637.000000 0.6110 0.6181 0.6265 0.6352 0.6497
1642.000000 0.6665 0.6801 0.6951 0.7108 0.7197
1647.000000 0.7244 0.7285 0.7310 0.7335 0.7358
1652.000000 0.7376 0.7395 0.7412 0.7428 0.7442
1657.000000 0.7454 0.7462 0.7471 0.7478 0.7486
1662.000000 0.7494 0.7501 0.7507 0.7512 0.7518
1667.000000 0.7525 0.7531 0.7549 0.7540 0.7542
1672.000000 0.7544 0.7545 0.7547 0.7549 0.7551
1677.000000 0.7553 0.7553 0.7551 0.7550 0.7549
1682.000000 0.7548 0.7546 0.7541 0.7535 0.7528
1687.000000 0.7522 0.7518 0.7511 0.7505 0.7498
1692.000000 0.7491 0.7485 0.7478 0.7471 0.7465
1697.000000 0.7458 0.7451 0.7446 0.7440 0.7434
1702.000000 0.7428 0.7425 0.7424 0.7422 0.7421
1707.000000 0.7421 0.7421 0.7424 0.7428 0.7432
1712.000000 0.7435 0.7439 0.7444 0.7451 0.7461
1717.000000 0.7468 0.7478 0.7486 0.7494 0.7503
1722.000000 0.7508 0.7515 0.7521 0.7528 0.7535
1727.000000 0.7537 0.7538 0.7540 0.7541 0.7542
1732.000000 0.7541 0.7540 0.7538 0.7535 0.7533
1737.000000 0.7530 0.7525 0.7521 0.7515 0.7510
1742.000000 0.7504 0.7499 0.7493 0.7490 0.7487
1747.000000 0.7484 0.7480 0.7476 0.7474 0.7471
1752.000000 0.7468 0.7467 0.7465 0.7462 0.7461
1757.000000 0.7458 0.7457 0.7455 0.7456 0.7456
1762.000000 0.7458 0.7461 0.7462 0.7464 0.7462
1767.000000 0.7462 0.7462 0.7461 0.7461 0.7456
1772.000000 0.7451 0.7442 0.7433 0.7424 0.7407
1777.000000 0.7389 0.7369 0.7351 0.7332 0.7311
1782.000000 0.7292 0.7272 0.7256 0.7241 0.7225
1787.000000 0.7211 0.7197 0.7195 0.7192 0.7190
1792.000000 0.7188 0.7188 0.7192 0.7196 0.7200
1797.000000 0.7208 0.7219 0.7231 0.7247 0.7262
1802.000000 0.7280 0.7296 0.7311 0.7325 0.7340
1807.000000 0.7344 0.7349 0.7350 0.7350 0.7350
1812.000000 0.7343 0.7331 0.7318 0.7311 0.7303
1817.000000 0.7295 0.7290 0.7287 0.7284 0.7281
1822.000000 0.7280 0.7280 0.7278 0.7278 0.7278
1827.000000 0.7278 0.7278 0.7280 0.7282 0.7283
1832.000000 0.7285 0.7288 0.7292 0.7297 0.7301
1837.000000 0.7306 0.7308 0.7310 0.7311 0.7312
1842.000000 0.7315 0.7315 0.7315 0.7315 0.7315
1847.000000 0.7315 0.7311 0.7308 0.7306 0.7303
1852.000000 0.7300 0.7297 0.7293 0.7289 0.7285
1857.000000 0.7282 0.7278 0.7271 0.7261 0.7253
1862.000000 0.7242 0.7232 0.7221 0.7214 0.7205
1867.000000 0.7196 0.7188 0.7178 0.7169 0.7175
1872.000000 0.7175 0.7176 0.7178 0.7178 0.7180
1877.000000 0.7181 0.7182 0.7184 0.7188 0.7192
1882.000000 0.7196 0.7199 0.7203 0.7203 0.7201
1887.000000 0.7198 0.7175 0.7150 0.7125 0.7100
1892.000000 0.7075 0.7051 0.7034 0.7026 0.7025
1897.000000 0.7024 0.7021 0.7021 0.7018 0.7017
1902.000000 0.7015 0.7014 0.7012 0.7011 0.7011
1907.000000 0.7010 0.7008 0.7008 0.7008 0.7008
1912.000000 0.7008 0.7008 0.7008 0.7010 0.7011
1917.000000 0.7014 0.7015 0.7017 0.7017 0.7017
1922.000000 0.7017 0.7015 0.7012 0.7008 0.6998
1927.000000 0.6987 0.6972 0.6960 0.6947 0.6935
1932.000000 0.6922 0.6911 0.6901 0.6890 0.6885
1937.000000 0.6888 0.6891 0.6893 0.6896 0.6900
1942.000000 0.6905 0.6908 0.6915 0.6921 0.6928
1947.000000 0.6936 0.6943 0.6951 0.6961 0.6971
1952.000000 0.6981 0.6991 0.7001 0.7011 0.7021
1957.000000 0.7030 0.7038 0.7047 0.7056 0.7061
1962.000000 0.7065 0.7069 0.7072 0.7076 0.7081
1967.000000 0.7083 0.7085 0.7086 0.7088 0.7090
1972.000000 0.7092 0.7094 0.7096 0.7098 0.7100
1977.000000 0.7101 0.7101 0.7103 0.7103 0.7104
1982.000000 0.7104 0.7105 0.7105 0.7105 0.7105
1987.000000 0.7103 0.7101 0.7100 0.7099 0.7097
1992.000000 0.7096 0.7093 0.7090 0.7086 0.7082
1997.000000 0.7078 0.7075 0.7071 0.7068 0.7064
2002.000000 0.7061 0.7058 0.7056 0.7053 0.7050
2007.000000 0.7047 0.7044 0.7041 0.7038 0.7035
2012.000000 0.7032 0.7028 0.7025 0.7022 0.7019
2017.000000 0.7017 0.7014 0.7008 0.7004 0.6998
2022.000000 0.6992 0.6985 0.6978 0.6971 0.6965
2027.000000 0.6958 0.6951 0.6944 0.6937 0.6931
2032.000000 0.6925 0.6921 0.6917 0.6911 0.6908
2037.000000 0.6903 0.6899 0.6894 0.6890 0.6887
2042.000000 0.6885 0.6882 0.6880 0.6878 0.6876
2047.000000 0.6875 0.6874 0.6871 0.6871 0.6868
2052.000000 0.6868 0.6865 0.6865 0.6862 0.6861
2057.000000 0.6860 0.6858 0.6857 0.6856 0.6854
2062.000000 0.6853 0.6851 0.6849 0.6846 0.6844
2067.000000 0.6841 0.6839 0.6836 0.6834 0.6831
2072.000000 0.6828 0.6825 0.6824 0.6821 0.6818
2077.000000 0.6815 0.6814 0.6811 0.6808 0.6806
2082.000000 0.6804 0.6801 0.6800 0.6798 0.6796
2087.000000 0.6794 0.6792 0.6789 0.6787 0.6785
2092.000000 0.6783 0.6780 0.6778 0.6775 0.6774
2097.000000 0.6771 0.6769 0.6767 0.6765 0.6762
2102.000000 0.6761 0.6758 0.6756 0.6754 0.6751
2107.000000 0.6749 0.6747 0.6745 0.6743 0.6741
2112.000000 0.6739 0.6736 0.6734 0.6732 0.6730
2117.000000 0.6726 0.6725 0.6722 0.6721 0.6718
2122.000000 0.6717 0.6715 0.6714 0.6711 0.6711
2127.000000 0.6710 0.6708 0.6707 0.6706 0.6705
2132.000000 0.6704 0.6701 0.6701 0.6700 0.6699
2137.000000 0.6697 0.6696 0.6695 0.6694 0.6692
2142.000000 0.6691 0.6689 0.6688 0.6687 0.6686
2147.000000 0.6684 0.6683 0.6681 0.6680 0.6678
2152.000000 0.6675 0.6674 0.6671 0.6669 0.6668
2157.000000 0.6665 0.6662 0.6661 0.6658 0.6657
2162.000000 0.6655 0.6653 0.6651 0.6648 0.6646
2167.000000 0.6644 0.6642 0.6640 0.6638 0.6636
2172.000000 0.6634 0.6631 0.6628 0.6625 0.6621
2177.000000 0.6618 0.6617 0.6614 0.6611 0.6608
2182.000000 0.6606 0.6603 0.6600 0.6597 0.6595
2187.000000 0.6592 0.6589 0.6586 0.6584 0.6581
2192.000000 0.6578 0.6575 0.6571 0.6568 0.6567
2197.000000 0.6564 0.6561 0.6558 0.6556 0.6553
2202.000000 0.6550 0.6547 0.6544 0.6541 0.6538
2207.000000 0.6535 0.6533 0.6530 0.6526 0.6524
2212.000000 0.6521 0.6518 0.6515 0.6511 0.6510
2217.000000 0.6507 0.6504 0.6501 0.6498 0.6495
2222.000000 0.6493 0.6490 0.6487 0.6484 0.6481
2227.000000 0.6478 0.6475 0.6471 0.6469 0.6467
2232.000000 0.6464 0.6461 0.6458 0.6455 0.6451
2237.000000 0.6449 0.6446 0.6442 0.6439 0.6435
2242.000000 0.6432 0.6428 0.6424 0.6419 0.6417
2247.000000 0.6412 0.6410 0.6406 0.6401 0.6398
2252.000000 0.6395 0.6391 0.6388 0.6384 0.6381
2257.000000 0.6377 0.6373 0.6369 0.6366 0.6362
2262.000000 0.6359 0.6355 0.6351 0.6347 0.6344
2267.000000 0.6340 0.6337 0.6333 0.6330 0.6326
2272.000000 0.6322 0.6318 0.6315 0.6310 0.6308
2277.000000 0.6303 0.6299 0.6295 0.6291 0.6286
2282.000000 0.6282 0.6278 0.6274 0.6269 0.6265
2287.000000 0.6260 0.6256 0.6252 0.6248 0.6243
2292.000000 0.6239 0.6235 0.6231 0.6226 0.6222
2297.000000 0.6219 0.6217 0.6215 0.6212 0.6210
2302.000000 0.6208 0.6206 0.6204 0.6201 0.6199
2307.000000 0.6197 0.6195 0.6192 0.6190 0.6187
2312.000000 0.6185 0.6183 0.6181 0.6179 0.6177
2317.000000 0.6175 0.6173 0.6170 0.6168 0.6166
2322.000000 0.6164 0.6162 0.6160 0.6158 0.6157
2327.000000 0.6157 0.6158 0.6158 0.6159 0.6159
2332.000000 0.6159 0.6159 0.6160 0.6160 0.6160
2337.000000 0.6160 0.6162 0.6162 0.6162 0.6162
2342.000000 0.6164 0.6164 0.6165 0.6165 0.6166
2347.000000 0.6166 0.6166 0.6166 0.6167 0.6167
2352.000000 0.6168 0.6168 0.6168 0.6167 0.6166
2357.000000 0.6164 0.6162 0.6162 0.6160 0.6159
2362.000000 0.6158 0.6156 0.6154 0.6152 0.6150
2367.000000 0.6148 0.6147 0.6145 0.6143 0.6141
2372.000000 0.6139 0.6137 0.6135 0.6133 0.6131
2377.000000 0.6128 0.6125 0.6122 0.6119 0.6116
2382.000000 0.6114 0.6110 0.6108 0.6104 0.6100
2387.000000 0.6095 0.6091 0.6086 0.6082 0.6078
2392.000000 0.6074 0.6069 0.6065 0.6060 0.6055
2397.000000 0.6050 0.6046 0.6041 0.6037 0.6032
2402.000000 0.6028 0.6023 0.6019 0.6016 0.6014
2407.000000 0.6010 0.6009 0.6006 0.6004 0.6001
2412.000000 0.5999 0.5997 0.5995 0.5992 0.5990
2417.000000 0.5987 0.5985 0.5982 0.5980 0.5976
2422.000000 0.5973 0.5970 0.5968 0.5965 0.5962
2427.000000 0.5960 0.5958 0.5955 0.5953 0.5951
2432.000000 0.5949 0.5946 0.5944 0.5941 0.5939
2437.000000 0.5936 0.5934 0.5931 0.5929 0.5927
2442.000000 0.5925 0.5922 0.5920 0.5917 0.5915
2447.000000 0.5912 0.5910 0.5908 0.5906 0.5904
2452.000000 0.5902 0.5899 0.5897 0.5895 0.5893
2457.000000 0.5890 0.5888 0.5885 0.5883 0.5881
2462.000000 0.5879 0.5875 0.5872 0.5868 0.5865
2467.000000 0.5860 0.5858 0.5854 0.5850 0.5846
2472.000000 0.5843 0.5839 0.5836 0.5833 0.5830
2477.000000 0.5827 0.5824 0.5821 0.5818 0.5815
2482.000000 0.5812 0.5809 0.5806 0.5803 0.5800
2487.000000 0.5797 0.5794 0.5791 0.5788 0.5785
2492.000000 0.5782 0.5779 0.5776 0.5773 0.5770
2497.000000 0.5767 0.5764 0.5760 0.5759 0.5755
2502.000000 0.5752 0.5749 0.5746 0.5742 0.5739
2507.000000 0.5736 0.5733 0.5729 0.5726 0.5722
2512.000000 0.5719 0.5716 0.5712 0.5709 0.5706
2517.000000 0.5702 0.5699 0.5696 0.5693 0.5689
2522.000000 0.5686 0.5683 0.5680 0.5676 0.5673
2527.000000 0.5669 0.5666 0.5662 0.5660 0.5656
2532.000000 0.5653 0.5649 0.5646 0.5643 0.5640
2537.000000 0.5636 0.5633 0.5630 0.5627 0.5623
2542.000000 0.5620 0.5616 0.5612 0.5608 0.5604
2547.000000 0.5600 0.5597 0.5593 0.5589 0.5585
2552.000000 0.5581 0.5577 0.5573 0.5569 0.5566
2557.000000 0.5562 0.5558 0.5554 0.5550 0.5546
2562.000000 0.5543 0.5539 0.5535 0.5531 0.5527
2567.000000 0.5523 0.5520 0.5516 0.5512 0.5509
2572.000000 0.5507 0.5504 0.5501 0.5498 0.5496
2577.000000 0.5493 0.5490 0.5487 0.5485 0.5482
2582.000000 0.5480 0.5477 0.5474 0.5471 0.5469
2587.000000 0.5466 0.5462 0.5460 0.5458 0.5455
2592.000000 0.5452 0.5449 0.5447 0.5444 0.5441
2597.000000 0.5438 0.5436 0.5433 0.5430 0.5427
2602.000000 0.5425 0.5422 0.5419 0.5416 0.5414
2607.000000 0.5410 0.5408 0.5405 0.5403 0.5400
2612.000000 0.5397 0.5394 0.5392 0.5389 0.5386
2617.000000 0.5383 0.5380 0.5377 0.5375 0.5372
2622.000000 0.5369 0.5366 0.5364 0.5360 0.5358
2627.000000 0.5355 0.5353 0.5350 0.5347 0.5342
2632.000000 0.5338 0.5333 0.5329 0.5324 0.5319
2637.000000 0.5314 0.5309 0.5304 0.5299 0.5294
2642.000000 0.5289 0.5284 0.5279 0.5274 0.5269
2647.000000 0.5264 0.5260 0.5255 0.5250 0.5245
2652.000000 0.5240 0.5235 0.5230 0.5225 0.5220
2657.000000 0.5215 0.5210 0.5205 0.5200 0.5195
2662.000000 0.5191 0.5186 0.5181 0.5176 0.5172
2667.000000 0.5169 0.5166 0.5162 0.5160 0.5158
2672.000000 0.5155 0.5152 0.5150 0.5147 0.5144
2677.000000 0.5141 0.5138 0.5135 0.5133 0.5130
2682.000000 0.5127 0.5124 0.5121 0.5118 0.5116
2687.000000 0.5112 0.5110 0.5107 0.5105 0.5102
2692.000000 0.5099 0.5096 0.5093 0.5091 0.5089
2697.000000 0.5086 0.5084 0.5082 0.5080 0.5077
2702.000000 0.5075 0.5072 0.5070 0.5067 0.5064
2707.000000 0.5060 0.5057 0.5054 0.5051 0.5047
2712.000000 0.5044 0.5041 0.5038 0.5034 0.5031
2717.000000 0.5028 0.5025 0.5021 0.5018 0.5014
2722.000000 0.5010 0.5005 0.5000 0.4995 0.4991
2727.000000 0.4986 0.4981 0.4976 0.4972 0.4967
2732.000000 0.4962 0.4957 0.4952 0.4944 0.4936
2737.000000 0.4928 0.4920 0.4912 0.4904 0.4896
2742.000000 0.4888 0.4880 0.4872 0.4864 0.4856
2747.000000 0.4850 0.4844 0.4839 0.4835 0.4831
2752.000000 0.4827 0.4822 0.4818 0.4812 0.4809
2757.000000 0.4805 0.4801 0.4796 0.4792 0.4788
2762.000000 0.4784 0.4779 0.4775 0.4770 0.4766
2767.000000 0.4760 0.4756 0.4751 0.4746 0.4741
2772.000000 0.4736 0.4732 0.4729 0.4726 0.4723
2777.000000 0.4720 0.4717 0.4715 0.4715 0.4715
2782.000000 0.4715 0.4716 0.4717 0.4718 0.4719
2787.000000 0.4719 0.4720 0.4720 0.4720 0.4720
2792.000000 0.4720 0.4719 0.4719 0.4718 0.4718
2797.000000 0.4718 0.4718 0.4717 0.4717 0.4719
2802.000000 0.4722 0.4724 0.4727 0.4729 0.4732
2807.000000 0.4734 0.4736 0.4736 0.4737 0.4737
2812.000000 0.4738 0.4738 0.4739 0.4739 0.4740
2817.000000 0.4740 0.4740 0.4739 0.4738 0.4737
2822.000000 0.4737 0.4736 0.4736 0.4735 0.4734
2827.000000 0.4731 0.4729 0.4724 0.4719 0.4714
2832.000000 0.4709 0.4704 0.4699 0.4692 0.4686
2837.000000 0.4678 0.4670 0.4662 0.4654 0.4646
2842.000000 0.4638 0.4630 0.4622 0.4614 0.4606
2847.000000 0.4597 0.4589 0.4580 0.4571 0.4562
2852.000000 0.4554 0.4545 0.4537 0.4530 0.4524
2857.000000 0.4517 0.4510 0.4504 0.4498 0.4493
2862.000000 0.4488 0.4485 0.4483 0.4480 0.4477
2867.000000 0.4476 0.4475 0.4479 0.4483 0.4486
2872.000000 0.4490 0.4493 0.4497 0.4500 0.4504
2877.000000 0.4507 0.4510 0.4514 0.4518 0.4521
2882.000000 0.4525 0.4528 0.4531 0.4537 0.4544
2887.000000 0.4550 0.4557 0.4562 0.4570 0.4576
2892.000000 0.4583 0.4581 0.4580 0.4578 0.4576
2897.000000 0.4574 0.4572 0.4570 0.4569 0.4567
2902.000000 0.4565 0.4559 0.4553 0.4547 0.4542
2907.000000 0.4536 0.4530 0.4524 0.4519 0.4512
2912.000000 0.4508 0.4502 0.4497 0.4492 0.4487
2917.000000 0.4482 0.4477 0.4472 0.4467 0.4462
2922.000000 0.4457 0.4451 0.4445 0.4438 0.4432
2927.000000 0.4425 0.4419 0.4412 0.4406 0.4399
2932.000000 0.4393 0.4387 0.4382 0.4381 0.4380
2937.000000 0.4379 0.4378 0.4377 0.4376 0.4375
2942.000000 0.4374 0.4373 0.4372 0.4371 0.4370
2947.000000 0.4369 0.4368 0.4367 0.4367 0.4368
2952.000000 0.4371 0.4374 0.4377 0.4380 0.4383
2957.000000 0.4386 0.4389 0.4392 0.4395 0.4398
2962.000000 0.4401 0.4404 0.4407 0.4410 0.4412
2967.000000 0.4416 0.4419 0.4420 0.4422 0.4423
2972.000000 0.4424 0.4424 0.4425 0.4426 0.4427
2977.000000 0.4428 0.4429 0.4429 0.4429 0.4429
2982.000000 0.4429 0.4429 0.4429 0.4429 0.4429
2987.000000 0.4427 0.4426 0.4421 0.4417 0.4412
2992.000000 0.4407 0.4402 0.4398 0.4393 0.4388
2997.000000 0.4383 0.4378 0.4373 0.4368 0.4362
3002.000000 0.4358 0.4353 0.4348 0.4343 0.4338
3007.000000 0.4335 0.4332 0.4330 0.4328 0.4326
3012.000000 0.4325 0.4323 0.4321 0.4319 0.4317
3017.000000 0.4315 0.4312 0.4310 0.4308 0.4305
3022.000000 0.4303 0.4300 0.4297 0.4294 0.4292
3027.000000 0.4289 0.4287 0.4284 0.4281 0.4278
3032.000000 0.4276 0.4272 0.4268 0.4260 0.4255
3037.000000 0.4249 0.4243 0.4237 0.4231 0.4225
3042.000000 0.4219 0.4212 0.4207 0.4200 0.4194
3047.000000 0.4188 0.4182 0.4176 0.4170 0.4160
3052.000000 0.4151 0.4135 0.4120 0.4105 0.4090
3057.000000 0.4073 0.4056 0.4038 0.4021 0.4010
3062.000000 0.4000 0.3993 0.3984 0.3977 0.3968
3067.000000 0.3971 0.3973 0.3975 0.3978 0.3982
3072.000000 0.3971 0.3991 0.3997 0.4002 0.4008
3077.000000 0.4018 0.4028 0.4039 0.4050 0.4068
3082.000000 0.4084 0.4107 0.4129 0.4145 0.4162
3087.000000 0.4178 0.4194 0.4214 0.4234 0.4274
3092.000000 0.4315 0.4330 0.4345 0.4356 0.4368
3097.000000 0.4374 0.4380 0.4385 0.4391 0.4397
3102.000000 0.4403 0.4408 0.4414 0.4417 0.4421
3107.000000 0.4423 0.4426 0.4429 0.4432 0.4435
3112.000000 0.4438 0.4440 0.4443 0.4446 0.4449
3117.000000 0.4451 0.4454 0.4457 0.4460 0.4462
3122.000000 0.4465 0.4468 0.4471 0.4473 0.4476
3127.000000 0.4479 0.4482 0.4484 0.4487 0.4489
3132.000000 0.4492 0.4494 0.4497 0.4499 0.4502
3137.000000 0.4504 0.4507 0.4509 0.4512 0.4514
3142.000000 0.4516 0.4518 0.4521 0.4523 0.4525
3147.000000 0.4527 0.4529 0.4531 0.4533 0.4535
3152.000000 0.4537 0.4539 0.4541 0.4542 0.4544
3157.000000 0.4546 0.4548 0.4550 0.4552 0.4554
3162.000000 0.4556 0.4558 0.4560 0.4562 0.4564
3167.000000 0.4566 0.4568 0.4570 0.4572 0.4574
3172.000000 0.4576 0.4578 0.4580 0.4582 0.4585
3177.000000 0.4587 0.4589 0.4591 0.4593 0.4595
3182.000000 0.4598 0.4600 0.4602 0.4604 0.4606
3187.000000 0.4608 0.4610 0.4612 0.4615 0.4617
3192.000000 0.4619 0.4621 0.4623 0.4625 0.4627
3197.000000 0.4629 0.4631 0.4633 0.4635 0.4636
3202.000000 0.4638 0.4640 0.4642 0.4643 0.4645
3207.000000 0.4647 0.4649 0.4651 0.4653 0.4654
3212.000000 0.4656 0.4658 0.4660 0.4660 0.4662
3217.000000 0.4665 0.4667 0.4668 0.4669 0.4670
3222.000000 0.4672 0.4673 0.4674 0.4675 0.4676
3227.000000 0.4677 0.4679 0.4680 0.4681 0.4682
3232.000000 0.4683 0.4684 0.4686 0.4687 0.4688
3237.000000 0.4689 0.4690 0.4691 0.4692 0.4693
3242.000000 0.4694 0.4694 0.4695 0.4696 0.4697
3247.000000 0.4698 0.4699 0.4699 0.4700 0.4701
3252.000000 0.4702 0.4703 0.4704 0.4704 0.4704
3257.000000 0.4704 0.4704 0.4701 0.4699 0.4697
3262.000000 0.4695 0.4692 0.4690 0.4687 0.4685
3267.000000 0.4683 0.4681 0.4678 0.4676 0.4674
3272.000000 0.4714 0.4669 0.4667 0.4662 0.4660
3277.000000 0.4656 0.4652 0.4648 0.4644 0.4640
3282.000000 0.4636 0.4634 0.4632 0.4629 0.4627
3287.000000 0.4625 0.4623 0.4620 0.4618 0.4616
3292.000000 0.4614 0.4612 0.4612 0.4612 0.4612
3297.000000 0.4612 0.4612 0.4612 0.4612 0.4612
3302.000000 0.4612 0.4612 0.4614 0.4614 0.4614
3307.000000 0.4614 0.4615 0.4615 0.4615 0.4615
3312.000000 0.4616 0.4616 0.4616 0.4616 0.4616
3317.000000 0.4616 0.4617 0.4617 0.4618 0.4618
3322.000000 0.4618 0.4618 0.4619 0.4619 0.4619
3327.000000 0.4619 0.4619 0.4616 0.4614 0.4610
3332.000000 0.4609 0.4606 0.4604 0.4601 0.4598
3337.000000 0.4595 0.4593 0.4590 0.4587 0.4583
3342.000000 0.4580 0.4576 0.4573 0.4569 0.4566
3347.000000 0.4562 0.4559 0.4555 0.4551 0.4547
3352.000000 0.4544 0.4540 0.4537 0.4533 0.4530
3357.000000 0.4526 0.4523 0.4519 0.4516 0.4512
3362.000000 0.4509 0.4505 0.4502 0.4498 0.4495
3367.000000 0.4491 0.4487 0.4483 0.4480 0.4476
3372.000000 0.4473 0.4469 0.4466 0.4462 0.4459
3377.000000 0.4455 0.4452 0.4448 0.4445 0.4441
3382.000000 0.4437 0.4433 0.4430 0.4426 0.4423
3387.000000 0.4419 0.4416 0.4412 0.4409 0.4405
3392.000000 0.4401 0.4397 0.4394 0.4390 0.4386
3397.000000 0.4382 0.4378 0.4374 0.4371 0.4367
3402.000000 0.4362 0.4359 0.4355 0.4351 0.4348
3407.000000 0.4344 0.4340 0.4336 0.4332 0.4328
3412.000000 0.4325 0.4321 0.4317 0.4312 0.4309
3417.000000 0.4305 0.4302 0.4297 0.4293 0.4289
3422.000000 0.4285 0.4280 0.4276 0.4271 0.4267
3427.000000 0.4262 0.4259 0.4254 0.4250 0.4246
3432.000000 0.4242 0.4237 0.4233 0.4228 0.4224
3437.000000 0.4220 0.4216 0.4210 0.4207 0.4202
3442.000000 0.4198 0.4193 0.4188 0.4182 0.4176
3447.000000 0.4170 0.4165 0.4159 0.4153 0.4147
3452.000000 0.4142 0.4136 0.4131 0.4125 0.4119
3457.000000 0.4112 0.4108 0.4102 0.4096 0.4090
3462.000000 0.4084 0.4079 0.4073 0.4066 0.4060
3467.000000 0.4055 0.4049 0.4047 0.4039 0.4050
3472.000000 0.4057 0.4062 0.4068 0.4075 0.4082
3477.000000 0.4091 0.4099 0.4106 0.4114 0.4121
3482.000000 0.4128 0.4135 0.4142 0.4149 0.4156
3487.000000 0.4162 0.4171 0.4178 0.4185 0.4192
3492.000000 0.4199 0.4206 0.4212 0.4219 0.4225
3497.000000 0.4230 0.4235 0.4240 0.4246 0.4249
3502.000000 0.4253 0.4255 0.4257 0.4258 0.4260
3507.000000 0.4262 0.4264 0.4266 0.4268 0.4270
3512.000000 0.4272 0.4274 0.4276 0.4278 0.4280
3517.000000 0.4282 0.4284 0.4286 0.4288 0.4290
3522.000000 0.4292 0.4294 0.4297 0.4299 0.4301
3527.000000 0.4303 0.4305 0.4307 0.4310 0.4312
3532.000000 0.4314 0.4316 0.4318 0.4320 0.4323
3537.000000 0.4325 0.4327 0.4329 0.4331 0.4333
3542.000000 0.4336 0.4338 0.4340 0.4342 0.4344
3547.000000 0.4346 0.4348 0.4350 0.4353 0.4355
3552.000000 0.4357 0.4359 0.4360 0.4362 0.4365
3557.000000 0.4366 0.4368 0.4369 0.4371 0.4372
3562.000000 0.4374 0.4375 0.4377 0.4378 0.4380
3567.000000 0.4381 0.4383 0.4384 0.4386 0.4387
3572.000000 0.4389 0.4390 0.4392 0.4393 0.4395
3577.000000 0.4396 0.4397 0.4399 0.4401 0.4402
3582.000000 0.4404 0.4405 0.4407 0.4409 0.4410
3587.000000 0.4412 0.4414 0.4415 0.4417 0.4419
3592.000000 0.4421 0.4422 0.4424 0.4425 0.4427
3597.000000 0.4429 0.4431 0.4432 0.4434 0.4435
3602.000000 0.4437 0.4439 0.4441 0.4442 0.4444
3607.000000 0.4445 0.4447 0.4449 0.4451 0.4452
3612.000000 0.4454 0.4456 0.4458 0.4459 0.4460
3617.000000 0.4462 0.4464 0.4465 0.4466 0.4467
3622.000000 0.4468 0.4469 0.4470 0.4471 0.4472
3627.000000 0.4473 0.4474 0.4475 0.4476 0.4476
3632.000000 0.4477 0.4477 0.4477 0.4476 0.4476
3637.000000 0.4476 0.4476 0.4476 0.4476 0.4475
3642.000000 0.4475 0.4475 0.4475 0.4474 0.4474
3647.000000 0.4474 0.4474 0.4473 0.4473 0.4473
3652.000000 0.4473 0.4472 0.4472 0.4472 0.4472
3657.000000 0.4472 0.4472 0.4471 0.4471 0.4471
3662.000000 0.4471 0.4470 0.4470 0.4470 0.4470
3667.000000 0.4469 0.4469 0.4469 0.4469 0.4468
3672.000000 0.4468 0.4468 0.4468 0.4467 0.4467
3677.000000 0.4467 0.4467 0.4466 0.4466 0.4466
3682.000000 0.4465 0.4465 0.4465 0.4465 0.4465
3687.000000 0.4465 0.4465 0.4465 0.4465 0.4465
3692.000000 0.4465 0.4465 0.4465 0.4465 0.4465
3697.000000 0.4465 0.4465 0.4465 0.4466 0.4466
3702.000000 0.4466 0.4466 0.4466 0.4466 0.4466
3707.000000 0.4466 0.4466 0.4466 0.4466 0.4466
3712.000000 0.4466 0.4466 0.4466 0.4466 0.4466
3717.000000 0.4466 0.4466 0.4466 0.4466 0.4466
3722.000000 0.4466 0.4466 0.4466 0.4466 0.4467
3727.000000 0.4467 0.4467 0.4467 0.4467 0.4467
3732.000000 0.4467 0.4467 0.4467 0.4467 0.4467
3737.000000 0.4467 0.4467 0.4466 0.4466 0.4465
3742.000000 0.4465 0.4465 0.4465 0.4464 0.4464
3747.000000 0.4464 0.4464 0.4462 0.4462 0.4462
3752.000000 0.4462 0.4462 0.4462 0.4460 0.4460
3757.000000 0.4460 0.4460 0.4459 0.4458 0.4457
3762.000000 0.4457 0.4456 0.4455 0.4454 0.4453
3767.000000 0.4452 0.4452 0.4451 0.4450 0.4449
3772.000000 0.4448 0.4447 0.4446 0.4445 0.4445
3777.000000 0.4444 0.4443 0.4442 0.4441 0.4440
3782.000000 0.4440 0.4439 0.4438 0.4437 0.4436
3787.000000 0.4435 0.4434 0.4433 0.4433 0.4432
3792.000000 0.4431 0.4430 0.4429 0.4428 0.4428
3797.000000 0.4427 0.4426 0.4425 0.4425
##END=
