##TITLE=BENZOPHENONE, 4-FLUORO-
##JCAMP-DX=4.24
##DATA TYPE=INFRARED SPECTRUM
##CLASS=COBLENTZ III
##ORIGIN=DOW CHEMICAL COMPANY
##OWNER=COBLENTZ SOCIETY
Collection (C) 2018 copyright by the U.S. Secretary of Commerce
on behalf of the United States of America. All rights reserved.
##DATE=1963/05/24
##NAMES=(4-fluorophenyl)(phenyl)methanone
METHANONE, (4-FLUOROPHENYL) PHENYL-
##CAS REGISTRY NO=345-83-5
##MOLFORM=C13 H9 F O
##SOURCE REFERENCE=COBLENTZ NO. 10319
##$NIST SOURCE=COBLENTZ
##$NIST IMAGE=cob10319
##SPECTROMETER/DATA SYSTEM=DOW KBr FOREPRISM-GRATING
##INSTRUMENT PARAMETERS=BLAZED AT 3.5, 12.0, 20.0 MICRON, CHANGED AT 5.0, 7.5, 14.9 MICRON
##STATE=SOLUTION (2% IN CCl4 FOR 3800-1330, 2% IN CS2 FOR 1330-400 CM^-^1)
##PATH LENGTH=0.011, 0.010 CM
$$SPECTRAL CONTAMINATION DUE TO CCl4 AROUND 1550, AND CS2 AROUND 855 CM^-^1
##SAMPLING PROCEDURE=TRANSMISSION
##RESOLUTION=4
##DATA PROCESSING=DIGITIZED BY NIST FROM HARD COPY (FROM TWO SEGMENTS)
##XUNITS=1/CM
##YUNITS=TRANSMITTANCE
##XFACTOR=1.000000
##YFACTOR=1
##DELTAX=0.874638
##FIRSTX=382.799
##LASTX=3792.14
##FIRSTY=0.251
##MAXX=3792.14
##MINX=382.799
##MAXY=1.049
##MINY=0.174
##NPOINTS=3899
##XYDATA=(X++(Y..Y))
382.799000 0.2510 0.2510 0.2520 0.2520 0.2520
387.172188 0.2540 0.2540 0.2540 0.2550 0.2590
391.545376 0.2670 0.2710 0.2750 0.2780 0.2840
395.918564 0.2890 0.2960 0.3040 0.3160 0.3299
400.291753 0.3460 0.3570 0.4069 0.4719 0.4939
404.664941 0.5090 0.5359 0.5649 0.5899 0.6059
409.038129 0.6280 0.6440 0.6690 0.7030 0.7130
413.411317 0.7329 0.7440 0.7589 0.7710 0.7780
417.784505 0.7800 0.7900 0.7920 0.7950 0.8000
422.157693 0.8070 0.8110 0.8140 0.8150 0.8160
426.530882 0.8190 0.8230 0.8260 0.8290 0.8300
430.904070 0.8310 0.8310 0.8330 0.8340 0.8340
435.277258 0.8360 0.8360 0.8380 0.8400 0.8440
439.650446 0.8480 0.8510 0.8530 0.8550 0.8570
444.023634 0.8590 0.8600 0.8620 0.8630 0.8630
448.396822 0.8640 0.8640 0.8660 0.8670 0.8670
452.770010 0.8680 0.8700 0.8710 0.8710 0.8720
457.143199 0.8720 0.8720 0.8740 0.8770 0.8790
461.516387 0.8810 0.8820 0.8820 0.8820 0.8830
465.889575 0.8830 0.8830 0.8830 0.8830 0.8830
470.262763 0.8850 0.8860 0.8860 0.8870 0.8890
474.635951 0.8890 0.8890 0.8890 0.8890 0.8890
479.009139 0.8890 0.8890 0.8890 0.8890 0.8870
483.382328 0.8870 0.8860 0.8860 0.8850 0.8820
487.755516 0.8810 0.8790 0.8790 0.8770 0.8710
492.128704 0.8640 0.8550 0.8480 0.8331 0.8260
496.501892 0.8230 0.8260 0.8360 0.8420 0.8530
500.875080 0.8670 0.8780 0.8830 0.8890 0.8930
505.248268 0.8940 0.8960 0.8960 0.9010 0.9040
509.621456 0.9050 0.9090 0.9110 0.9120 0.9120
513.994645 0.9130 0.9160 0.9160 0.9160 0.9180
518.367833 0.9180 0.9180 0.9190 0.9190 0.9200
522.741021 0.9200 0.9200 0.9200 0.9220 0.9220
527.114209 0.9220 0.9230 0.9240 0.9260 0.9270
531.487397 0.9280 0.9300 0.9300 0.9300 0.9300
535.860585 0.9300 0.9310 0.9330 0.9330 0.9330
540.233774 0.9310 0.9270 0.9230 0.9220 0.9200
544.606962 0.9200 0.9160 0.9150 0.9070 0.9010
548.980150 0.8940 0.8870 0.8820 0.8810 0.8820
553.353338 0.8850 0.8890 0.8940 0.9030 0.9070
557.726526 0.9120 0.9150 0.9160 0.9180 0.9200
562.099714 0.9220 0.9230 0.9230 0.9240 0.9260
566.472903 0.9260 0.9260 0.9260 0.9260 0.9270
570.846091 0.9270 0.9270 0.9270 0.9280 0.9280
575.219279 0.9280 0.9280 0.9300 0.9300 0.9300
579.592467 0.9310 0.9300 0.9300 0.9300 0.9280
583.965655 0.9280 0.9270 0.9260 0.9260 0.9240
588.338843 0.9200 0.9160 0.9130 0.9110 0.9010
592.712031 0.8930 0.8770 0.8550 0.7970 0.7371
597.085220 0.5583 0.4782 0.4281 0.4280 0.6582
601.458408 0.7370 0.8110 0.8720 0.8790 0.8920
605.831596 0.9050 0.9150 0.9180 0.9160 0.9150
610.204784 0.9150 0.9130 0.9110 0.9010 0.8940
614.577972 0.8940 0.9000 0.9050 0.9080 0.9110
618.951160 0.9130 0.9130 0.9150 0.9180 0.9200
623.324349 0.9200 0.9200 0.9190 0.9180 0.9160
627.697537 0.9130 0.9080 0.8930 0.8850 0.8830
632.070725 0.8920 0.9129 0.9180 0.9230 0.9260
636.443913 0.9260 0.9230 0.9220 0.9200 0.9190
640.817101 0.9190 0.9160 0.9160 0.9150 0.9150
645.190289 0.9120 0.9110 0.9090 0.9090 0.9080
649.563477 0.9070 0.9050 0.9040 0.9040 0.9050
653.936666 0.9070 0.9090 0.9130 0.9160 0.9220
658.309854 0.9260 0.9280 0.9330 0.9340 0.9370
662.683042 0.9410 0.9430 0.9450 0.9460 0.9460
667.056230 0.9450 0.9420 0.9370 0.9300 0.9220
671.429418 0.9130 0.9080 0.9030 0.8930 0.8770
675.802606 0.8680 0.8670 0.8700 0.8939 0.9050
680.175795 0.9110 0.9180 0.9240 0.9380 0.9380
684.548983 0.9370 0.9350 0.9330 0.9230 0.9160
688.922171 0.9040 0.8820 0.8550 0.7950 0.7370
693.295359 0.7250 0.7240 0.7190 0.6951 0.6063
697.668547 0.3640 0.3330 0.3330 0.5308 0.6798
702.041735 0.8187 0.8290 0.8360 0.8739 0.9178
706.414923 0.9350 0.9520 0.9590 0.9610 0.9670
710.788112 0.9690 0.9750 0.9790 0.9820 0.9820
715.161300 0.9840 0.9860 0.9870 0.9890 0.9900
719.534488 0.9910 0.9910 0.9900 0.9870 0.9830
723.907676 0.9820 0.9800 0.9790 0.9780 0.9690
728.280864 0.9630 0.9560 0.9450 0.9231 0.8453
732.654052 0.7959 0.7440 0.6780 0.6070 0.5540
737.027241 0.5350 0.5350 0.5729 0.6119 0.7086
741.400429 0.7852 0.8871 0.9420 0.9540 0.9670
745.773617 0.9780 0.9820 0.9910 0.9950 0.9980
750.146805 1.0020 1.0060 1.0090 1.0100 1.0120
754.519993 1.0130 1.0150 1.0160 1.0160 1.0160
758.893181 1.0170 1.0190 1.0200 1.0210 1.0210
763.266369 1.0210 1.0230 1.0230 1.0230 1.0230
767.639558 1.0230 1.0230 1.0230 1.0230 1.0230
772.012746 1.0210 1.0210 1.0210 1.0190 1.0170
776.385934 1.0160 1.0150 1.0130 1.0130 1.0120
780.759122 1.0090 1.0050 1.0040 1.0020 0.9980
785.132310 0.9940 0.9870 0.9570 0.9530 0.9460
789.505498 0.9090 0.8751 0.8421 0.8101 0.8100
793.878687 0.8700 0.9300 0.9340 1.0019 1.0050
798.251875 1.0060 1.0120 1.0150 1.0170 1.0190
802.625063 1.0200 1.0200 1.0190 1.0170 1.0150
806.998251 1.0130 1.0120 1.0060 1.0050 1.0020
811.371439 0.9980 0.9930 0.9820 0.9740 0.9590
815.744627 0.9480 0.9370 0.9370 0.9540 0.9690
820.117816 0.9800 1.0040 1.0060 1.0120 1.0150
824.491004 1.0150 1.0160 1.0170 1.0170 1.0170
828.864192 1.0170 1.0150 1.0120 1.0060 1.0010
833.237380 1.0010 1.0000 0.9890 0.9790 0.9680
837.610568 0.9560 0.9430 0.9340 0.9050 0.8740
841.983756 0.8220 0.7601 0.7341 0.7071 0.6950
846.356944 0.6920 0.6540 0.5750 0.5100 0.5100
850.730133 0.5899 0.6628 0.7139 0.7917 0.8109
855.103321 0.8300 0.8480 0.8560 0.8660 0.8740
859.476509 0.8780 0.8890 0.8960 0.9050 0.9090
863.849697 0.9150 0.9190 0.9230 0.9280 0.9340
868.222885 0.9370 0.9420 0.9430 0.9490 0.9560
872.596073 0.9570 0.9600 0.9630 0.9650 0.9690
876.969262 0.9740 0.9760 0.9780 0.9800 0.9890
881.342450 0.9930 0.9980 1.0040 1.0050 1.0100
885.715638 1.0160 1.0230 1.0240 1.0250 1.0270
890.088826 1.0300 1.0340 1.0380 1.0400 1.0420
894.462014 1.0430 1.0430 1.0430 1.0450 1.0460
898.835202 1.0470 1.0470 1.0490 1.0490 1.0470
903.208390 1.0470 1.0470 1.0460 1.0400 1.0390
907.581579 1.0350 1.0270 1.0230 1.0200 1.0120
911.954767 1.0020 0.9940 0.9840 0.9680 0.9461
916.327955 0.9219 0.8530 0.8450 0.8250 0.7900
920.701143 0.7900 0.8309 0.8898 0.9279 0.9380
925.074331 0.9480 0.9610 0.9780 0.9790 0.9780
929.447519 0.9750 0.9610 0.9460 0.8931 0.8372
933.820708 0.7709 0.7180 0.7181 0.7850 0.8670
938.193896 0.9499 0.9840 1.0100 1.0210 1.0240
942.567084 1.0210 1.0170 1.0160 1.0090 1.0020
946.940272 0.9940 0.9800 0.9800 1.0079 1.0230
951.313460 1.0300 1.0350 1.0400 1.0390 1.0380
955.686648 1.0350 1.0320 1.0270 1.0210 1.0170
960.059836 1.0170 1.0190 1.0270 1.0280 1.0340
964.433025 1.0360 1.0380 1.0360 1.0360 1.0350
968.806213 1.0350 1.0350 1.0360 1.0380 1.0390
973.179401 1.0390 1.0390 1.0390 1.0390 1.0390
977.552589 1.0390 1.0390 1.0390 1.0380 1.0350
981.925777 1.0340 1.0320 1.0320 1.0300 1.0280
986.298965 1.0280 1.0270 1.0270 1.0270 1.0270
990.672154 1.0270 1.0250 1.0250 1.0240 1.0240
995.045342 1.0210 1.0170 1.0090 1.0000 0.9800
999.418530 0.9800 1.0100 1.0130 1.0160 1.0150
1003.791718 1.0130 1.0100 1.0100 1.0090 1.0090
1008.164906 1.0050 1.0020 1.0000 0.9820 0.9461
1012.538094 0.9350 0.9351 1.0040 1.0080 1.0090
1016.911282 1.0090 1.0100 1.0100 1.0090 1.0080
1021.284471 1.0040 1.0010 0.9980 0.9970 0.9760
1025.657659 0.9640 0.9640 0.9760 1.0019 1.0040
1030.030847 1.0040 1.0050 1.0050 1.0040 1.0040
1034.404035 1.0040 1.0040 1.0040 1.0020 1.0020
1038.777223 1.0020 1.0010 1.0010 1.0010 1.0010
1043.150411 1.0010 1.0010 1.0000 1.0000 1.0000
1047.523600 1.0000 1.0000 1.0000 0.9980 0.9980
1051.896788 0.9980 0.9980 0.9980 0.9970 0.9970
1056.269976 0.9970 0.9970 0.9950 0.9940 0.9940
1060.643164 0.9930 0.9910 0.9900 0.9870 0.9840
1065.016352 0.9820 0.9760 0.9740 0.9710 0.9680
1069.389540 0.9650 0.9630 0.9630 0.9640 0.9650
1073.762728 0.9650 0.9690 0.9740 0.9760 0.9780
1078.135917 0.9780 0.9780 0.9780 0.9780 0.9780
1082.509105 0.9760 0.9760 0.9750 0.9740 0.9720
1086.882293 0.9710 0.9690 0.9680 0.9670 0.9600
1091.255481 0.9560 0.9410 0.9270 0.9220 0.9200
1095.628669 0.9220 0.9260 0.9280 0.9310 0.9340
1100.001857 0.9370 0.9390 0.9450 0.9500 0.9530
1104.375046 0.9540 0.9560 0.9560 0.9560 0.9570
1108.748234 0.9570 0.9590 0.9590 0.9590 0.9600
1113.121422 0.9600 0.9600 0.9610 0.9610 0.9630
1117.494610 0.9630 0.9630 0.9630 0.9630 0.9630
1121.867798 0.9640 0.9640 0.9640 0.9640 0.9650
1126.240986 0.9650 0.9650 0.9640 0.9640 0.9640
1130.614175 0.9630 0.9610 0.9590 0.9570 0.9560
1134.987363 0.9560 0.9560 0.9540 0.9540 0.9520
1139.360551 0.9520 0.9490 0.9460 0.9390 0.9300
1143.733739 0.9260 0.9130 0.8980 0.8740 0.8060
1148.106927 0.7650 0.7440 0.7340 0.7290 0.7180
1152.480115 0.6979 0.6549 0.5859 0.4800 0.4800
1156.853303 0.5960 0.7948 0.8339 0.8739 0.9069
1161.226492 0.9340 0.9430 0.9530 0.9540 0.9560
1165.599680 0.9590 0.9590 0.9590 0.9590 0.9570
1169.972868 0.9570 0.9570 0.9570 0.9560 0.9540
1174.346056 0.9520 0.9480 0.9450 0.9380 0.9270
1178.719244 0.9190 0.9160 0.9160 0.9330 0.9420
1183.092432 0.9480 0.9530 0.9560 0.9570 0.9600
1187.465621 0.9600 0.9610 0.9610 0.9630 0.9630
1191.838809 0.9610 0.9610 0.9610 0.9600 0.9590
1196.211997 0.9570 0.9540 0.9540 0.9560 0.9570
1200.585185 0.9590 0.9600 0.9600 0.9630 0.9630
1204.958373 0.9630 0.9610 0.9610 0.9590 0.9590
1209.331561 0.9570 0.9570 0.9590 0.9590 0.9570
1213.704749 0.9560 0.9540 0.9500 0.9460 0.9420
1218.077938 0.9370 0.9330 0.9240 0.9090 0.8930
1222.451126 0.8699 0.8490 0.8339 0.7960 0.7690
1226.824314 0.7280 0.6850 0.6291 0.6011 0.6010
1231.197502 0.6220 0.6270 0.6420 0.6460 0.6470
1235.570690 0.6470 0.6200 0.5800 0.5510 0.5131
1239.943878 0.4900 0.4901 0.5251 0.6120 0.6460
1244.317067 0.6770 0.7439 0.7949 0.8140 0.8300
1248.690255 0.8370 0.8480 0.8560 0.8640 0.8770
1253.063443 0.8790 0.8830 0.8860 0.8860 0.8870
1257.436631 0.8870 0.8860 0.8820 0.8770 0.8680
1261.809819 0.8570 0.8450 0.8330 0.8180 0.8000
1266.183007 0.7860 0.7740 0.7510 0.7260 0.7000
1270.556195 0.6160 0.5301 0.4162 0.3072 0.2781
1274.929384 0.2468 0.1920 0.1921 0.2540 0.2781
1279.302572 0.3790 0.4540 0.5939 0.6729 0.7329
1283.675760 0.7661 0.7921 0.8140 0.8260 0.8370
1288.048948 0.8510 0.8570 0.8640 0.8670 0.8660
1292.422136 0.8620 0.8560 0.8520 0.8209 0.7340
1296.795324 0.6770 0.6770 0.6910 0.6990 0.7090
1301.168513 0.7150 0.7220 0.7260 0.7300 0.7320
1305.541701 0.7330 0.7430 0.7620 0.7900 0.8140
1309.914889 0.8230 0.8330 0.8340 0.8330 0.8260
1314.288077 0.7950 0.7730 0.7411 0.7071 0.7040
1318.661265 0.7071 0.7341 0.7841 0.8270 0.8570
1323.034453 0.8870 0.8980 0.9110 0.9150 0.9240
1327.407641 0.9310 0.9330 0.9340 0.9350 0.9380
1331.780830 0.9410 0.9430 0.9460 0.9480 0.9490
1336.154018 0.9500 0.9520 0.9530 0.9540 0.9540
1340.527206 0.9540 0.9560 0.9560 0.9560 0.9540
1344.900394 0.9530 0.9530 0.9520 0.9500 0.9490
1349.273582 0.9490 0.9490 0.9480 0.9460 0.9450
1353.646770 0.9430 0.9420 0.9410 0.9410 0.9390
1358.019959 0.9390 0.9410 0.9410 0.9430 0.9450
1362.393147 0.9480 0.9500 0.9530 0.9540 0.9560
1366.766335 0.9560 0.9570 0.9590 0.9590 0.9610
1371.139523 0.9630 0.9670 0.9710 0.9720 0.9720
1375.512711 0.9740 0.9740 0.9750 0.9760 0.9780
1379.885899 0.9780 0.9790 0.9800 0.9800 0.9800
1384.259088 0.9790 0.9780 0.9780 0.9760 0.9750
1388.632276 0.9740 0.9740 0.9720 0.9710 0.9690
1393.005464 0.9680 0.9670 0.9650 0.9650 0.9640
1397.378652 0.9640 0.9610 0.9600 0.9590 0.9570
1401.751840 0.9530 0.9480 0.9380 0.9370 0.9310
1406.125028 0.9180 0.9119 0.8919 0.8419 0.7730
1410.498216 0.7730 0.8120 0.8680 0.9030 0.9130
1414.871405 0.9230 0.9280 0.9330 0.9350 0.9410
1419.244593 0.9450 0.9460 0.9480 0.9520 0.9540
1423.617781 0.9560 0.9590 0.9610 0.9630 0.9630
1427.990969 0.9610 0.9610 0.9610 0.9600 0.9590
1432.364157 0.9590 0.9590 0.9590 0.9590 0.9570
1436.737345 0.9560 0.9560 0.9540 0.9530 0.9500
1441.110534 0.9460 0.9390 0.9340 0.9270 0.9160
1445.483722 0.9000 0.8780 0.8061 0.7331 0.7330
1449.856910 0.7661 0.8001 0.8341 0.8681 0.9030
1454.230098 0.9310 0.9350 0.9420 0.9490 0.9520
1458.603286 0.9540 0.9540 0.9540 0.9540 0.9570
1462.976474 0.9590 0.9590 0.9570 0.9570 0.9560
1467.349662 0.9560 0.9560 0.9560 0.9570 0.9570
1471.722851 0.9560 0.9530 0.9500 0.9480 0.9460
1476.096039 0.9450 0.9430 0.9420 0.9390 0.9380
1480.469227 0.9340 0.9340 0.9260 0.9180 0.9130
1484.842415 0.9080 0.9030 0.9010 0.8970 0.8930
1489.215603 0.8850 0.8770 0.8740 0.8700 0.8700
1493.588791 0.8670 0.8640 0.8620 0.8570 0.8380
1497.961980 0.8230 0.8100 0.7920 0.7730 0.7301
1502.335168 0.6869 0.6568 0.6019 0.5609 0.5209
1506.708356 0.4800 0.4800 0.5250 0.5690 0.6129
1511.081544 0.6541 0.6931 0.7150 0.7220 0.7240
1515.454732 0.7250 0.7250 0.7240 0.7240 0.7220
1519.827920 0.7190 0.7140 0.7090 0.7070 0.7040
1524.201108 0.7000 0.6980 0.6920 0.6870 0.6780
1528.574297 0.6740 0.6690 0.6620 0.6530 0.6420
1532.947485 0.6270 0.6180 0.6140 0.6060 0.5950
1537.320673 0.5830 0.5730 0.5580 0.5450 0.5350
1541.693861 0.5250 0.5200 0.5130 0.5090 0.5020
1546.067049 0.4980 0.4940 0.4930 0.4900 0.4890
1550.440237 0.4890 0.4900 0.4910 0.4930 0.4940
1554.813426 0.4970 0.5010 0.5040 0.5160 0.5380
1559.186614 0.5490 0.5580 0.5620 0.5660 0.5730
1563.559802 0.5770 0.5900 0.6010 0.6050 0.6160
1567.932990 0.6200 0.6290 0.6330 0.6370 0.6400
1572.306178 0.6430 0.6460 0.6460 0.6440 0.6440
1576.679366 0.6390 0.6370 0.6330 0.6290 0.6270
1581.052554 0.6240 0.6210 0.6160 0.6140 0.6140
1585.425743 0.6170 0.6210 0.6250 0.6310 0.6390
1589.798931 0.6390 0.6360 0.6330 0.6250 0.6030
1594.172119 0.5860 0.5610 0.5010 0.4590 0.4131
1598.545307 0.3668 0.3218 0.2690 0.2508 0.1740
1602.918495 0.1741 0.2520 0.2770 0.3999 0.5498
1607.291683 0.6352 0.6872 0.7541 0.7850 0.8080
1611.664872 0.8290 0.8400 0.8490 0.8510 0.8510
1616.038060 0.8520 0.8620 0.8720 0.8740 0.8750
1620.411248 0.8830 0.8920 0.8960 0.9010 0.9030
1624.784436 0.9050 0.9050 0.9080 0.9090 0.9090
1629.157624 0.9090 0.9120 0.9130 0.9130 0.9120
1633.530812 0.9110 0.9110 0.9090 0.9090 0.9080
1637.904000 0.9080 0.9070 0.9070 0.9070 0.9050
1642.277189 0.9030 0.9010 0.9000 0.8980 0.8940
1646.650377 0.8930 0.8920 0.8870 0.8860 0.8790
1651.023565 0.8700 0.8589 0.8339 0.8110 0.7990
1655.396753 0.7840 0.7630 0.7370 0.6680 0.6210
1659.769941 0.5688 0.5169 0.4669 0.4159 0.3639
1664.143129 0.3140 0.2580 0.2340 0.2110 0.2110
1668.516318 0.2692 0.3262 0.3832 0.4411 0.4952
1672.889506 0.5911 0.6570 0.7240 0.7620 0.8000
1677.262694 0.8181 0.8360 0.8520 0.8620 0.8770
1681.635882 0.8930 0.9080 0.9180 0.9220 0.9230
1686.009070 0.9310 0.9340 0.9350 0.9390 0.9430
1690.382258 0.9450 0.9460 0.9520 0.9530 0.9530
1694.755447 0.9530 0.9540 0.9540 0.9540 0.9560
1699.128635 0.9560 0.9570 0.9570 0.9560 0.9560
1703.501823 0.9560 0.9560 0.9560 0.9570 0.9560
1707.875011 0.9560 0.9570 0.9570 0.9570 0.9590
1712.248199 0.9590 0.9610 0.9610 0.9610 0.9640
1716.621387 0.9650 0.9670 0.9670 0.9670 0.9670
1720.994575 0.9670 0.9680 0.9690 0.9690 0.9690
1725.367764 0.9710 0.9710 0.9710 0.9710 0.9710
1729.740952 0.9710 0.9710 0.9710 0.9690 0.9680
1734.114140 0.9680 0.9690 0.9690 0.9710 0.9720
1738.487328 0.9720 0.9720 0.9750 0.9750 0.9750
1742.860516 0.9750 0.9750 0.9740 0.9720 0.9720
1747.233704 0.9740 0.9740 0.9740 0.9750 0.9750
1751.606893 0.9760 0.9780 0.9780 0.9780 0.9780
1755.980081 0.9780 0.9760 0.9760 0.9760 0.9760
1760.353269 0.9760 0.9760 0.9760 0.9760 0.9760
1764.726457 0.9760 0.9760 0.9750 0.9750 0.9740
1769.099645 0.9720 0.9720 0.9710 0.9690 0.9690
1773.472833 0.9690 0.9690 0.9690 0.9710 0.9710
1777.846021 0.9690 0.9680 0.9680 0.9680 0.9680
1782.219210 0.9690 0.9690 0.9690 0.9710 0.9720
1786.592398 0.9720 0.9740 0.9740 0.9760 0.9760
1790.965586 0.9760 0.9780 0.9780 0.9780 0.9780
1795.338774 0.9760 0.9760 0.9760 0.9760 0.9760
1799.711962 0.9780 0.9780 0.9780 0.9780 0.9780
1804.085150 0.9780 0.9760 0.9760 0.9750 0.9750
1808.458339 0.9740 0.9720 0.9720 0.9720 0.9710
1812.831527 0.9690 0.9690 0.9680 0.9680 0.9680
1817.204715 0.9680 0.9680 0.9690 0.9690 0.9690
1821.577903 0.9720 0.9740 0.9740 0.9740 0.9740
1825.951091 0.9740 0.9740 0.9720 0.9720 0.9720
1830.324279 0.9720 0.9720 0.9720 0.9740 0.9740
1834.697467 0.9750 0.9750 0.9760 0.9760 0.9760
1839.070656 0.9780 0.9780 0.9780 0.9780 0.9780
1843.443844 0.9760 0.9740 0.9720 0.9720 0.9720
1847.817032 0.9740 0.9760 0.9760 0.9760 0.9760
1852.190220 0.9760 0.9750 0.9750 0.9750 0.9750
1856.563408 0.9750 0.9760 0.9760 0.9760 0.9760
1860.936596 0.9760 0.9750 0.9760 0.9760 0.9760
1865.309785 0.9760 0.9760 0.9750 0.9750 0.9750
1869.682973 0.9750 0.9750 0.9750 0.9750 0.9760
1874.056161 0.9760 0.9760 0.9760 0.9760 0.9780
1878.429349 0.9780 0.9780 0.9780 0.9780 0.9780
1882.802537 0.9780 0.9780 0.9780 0.9780 0.9780
1887.175725 0.9760 0.9760 0.9750 0.9750 0.9740
1891.548913 0.9740 0.9740 0.9720 0.9720 0.9720
1895.922102 0.9720 0.9720 0.9720 0.9720 0.9720
1900.295290 0.9710 0.9710 0.9690 0.9690 0.9680
1904.668478 0.9680 0.9670 0.9670 0.9650 0.9640
1909.041666 0.9640 0.9630 0.9610 0.9610 0.9610
1913.414854 0.9610 0.9630 0.9630 0.9630 0.9640
1917.788042 0.9640 0.9650 0.9650 0.9670 0.9680
1922.161231 0.9690 0.9710 0.9710 0.9710 0.9710
1926.534419 0.9710 0.9720 0.9740 0.9740 0.9750
1930.907607 0.9780 0.9780 0.9780 0.9780 0.9780
1935.280795 0.9780 0.9780 0.9790 0.9790 0.9790
1939.653983 0.9790 0.9790 0.9820 0.9820 0.9820
1944.027171 0.9820 0.9820 0.9820 0.9820 0.9820
1948.400360 0.9820 0.9820 0.9820 0.9800 0.9800
1952.773548 0.9800 0.9800 0.9790 0.9790 0.9790
1957.146736 0.9790 0.9760 0.9760 0.9760 0.9750
1961.519924 0.9750 0.9750 0.9740 0.9740 0.9720
1965.893112 0.9710 0.9710 0.9710 0.9720 0.9720
1970.266300 0.9720 0.9720 0.9710 0.9710 0.9690
1974.639488 0.9690 0.9710 0.9710 0.9720 0.9740
1979.012677 0.9740 0.9750 0.9750 0.9760 0.9760
1983.385865 0.9760 0.9780 0.9780 0.9780 0.9780
1987.759053 0.9780 0.9780 0.9780 0.9780 0.9760
1992.132241 0.9760 0.9760 0.9760 0.9760 0.9760
1996.505429 0.9760 0.9750 0.9750 0.9750 0.9750
2000.878617 0.9750 0.9750 0.9755 0.9760 0.9760
2005.251806 0.9760 0.9770 0.9780 0.9780 0.9780
2009.624994 0.9780 0.9780 0.9785 0.9790 0.9790
2013.998182 0.9790 0.9790 0.9790 0.9790 0.9790
2018.371370 0.9790 0.9790 0.9790 0.9790 0.9790
2022.744558 0.9790 0.9790 0.9790 0.9790 0.9790
2027.117746 0.9790 0.9790 0.9790 0.9790 0.9790
2031.490934 0.9790 0.9790 0.9790 0.9790 0.9790
2035.864123 0.9785 0.9780 0.9780 0.9779 0.9769
2040.237311 0.9760 0.9760 0.9760 0.9760 0.9760
2044.610499 0.9760 0.9760 0.9760 0.9760 0.9760
2048.983687 0.9760 0.9760 0.9760 0.9760 0.9760
2053.356875 0.9760 0.9760 0.9760 0.9761 0.9771
2057.730063 0.9780 0.9780 0.9780 0.9780 0.9780
2062.103252 0.9780 0.9780 0.9780 0.9780 0.9780
2066.476440 0.9780 0.9780 0.9780 0.9780 0.9781
2070.849628 0.9786 0.9791 0.9796 0.9801 0.9811
2075.222816 0.9820 0.9820 0.9820 0.9820 0.9820
2079.596004 0.9820 0.9820 0.9820 0.9820 0.9820
2083.969192 0.9820 0.9820 0.9820 0.9820 0.9820
2088.342380 0.9820 0.9820 0.9820 0.9820 0.9820
2092.715569 0.9820 0.9820 0.9820 0.9820 0.9820
2097.088757 0.9820 0.9821 0.9826 0.9830 0.9830
2101.461945 0.9830 0.9830 0.9830 0.9830 0.9830
2105.835133 0.9830 0.9830 0.9830 0.9831 0.9836
2110.208321 0.9840 0.9840 0.9840 0.9840 0.9840
2114.581509 0.9840 0.9840 0.9840 0.9840 0.9840
2118.954698 0.9840 0.9840 0.9840 0.9840 0.9840
2123.327886 0.9840 0.9840 0.9840 0.9840 0.9840
2127.701074 0.9840 0.9840 0.9839 0.9834 0.9831
2132.074262 0.9836 0.9840 0.9840 0.9842 0.9852
2136.447450 0.9860 0.9860 0.9860 0.9860 0.9860
2140.820638 0.9860 0.9860 0.9860 0.9858 0.9848
2145.193826 0.9840 0.9840 0.9839 0.9834 0.9830
2149.567015 0.9830 0.9830 0.9830 0.9830 0.9830
2153.940203 0.9830 0.9830 0.9831 0.9836 0.9840
2158.313391 0.9840 0.9840 0.9840 0.9840 0.9840
2162.686579 0.9843 0.9853 0.9860 0.9860 0.9860
2167.059767 0.9860 0.9860 0.9860 0.9860 0.9860
2171.432955 0.9860 0.9860 0.9860 0.9860 0.9857
2175.806144 0.9847 0.9840 0.9840 0.9840 0.9840
2180.179332 0.9843 0.9853 0.9860 0.9860 0.9860
2184.552520 0.9860 0.9857 0.9847 0.9840 0.9840
2188.925708 0.9838 0.9833 0.9830 0.9830 0.9828
2193.298896 0.9823 0.9820 0.9820 0.9820 0.9820
2197.672084 0.9822 0.9827 0.9830 0.9830 0.9830
2202.045272 0.9830 0.9830 0.9830 0.9830 0.9830
2206.418461 0.9830 0.9830 0.9830 0.9830 0.9830
2210.791649 0.9830 0.9830 0.9830 0.9830 0.9830
2215.164837 0.9830 0.9830 0.9830 0.9830 0.9830
2219.538025 0.9830 0.9830 0.9830 0.9832 0.9837
2223.911213 0.9840 0.9840 0.9838 0.9833 0.9830
2228.284401 0.9830 0.9830 0.9830 0.9830 0.9830
2232.657590 0.9830 0.9830 0.9828 0.9823 0.9820
2237.030778 0.9820 0.9820 0.9820 0.9816 0.9806
2241.403966 0.9800 0.9800 0.9800 0.9800 0.9798
2245.777154 0.9793 0.9790 0.9790 0.9788 0.9783
2250.150342 0.9780 0.9780 0.9780 0.9780 0.9776
2254.523530 0.9766 0.9760 0.9760 0.9760 0.9760
2258.896719 0.9758 0.9753 0.9750 0.9750 0.9750
2263.269907 0.9750 0.9748 0.9743 0.9736 0.9726
2267.643095 0.9720 0.9720 0.9718 0.9713 0.9706
2272.016283 0.9696 0.9688 0.9683 0.9678 0.9673
2276.389471 0.9670 0.9670 0.9670 0.9670 0.9665
2280.762659 0.9655 0.9648 0.9643 0.9640 0.9640
2285.135847 0.9640 0.9640 0.9640 0.9640 0.9640
2289.509036 0.9640 0.9640 0.9640 0.9640 0.9640
2293.882224 0.9640 0.9640 0.9640 0.9640 0.9640
2298.255412 0.9640 0.9643 0.9648 0.9650 0.9650
2302.628600 0.9655 0.9665 0.9673 0.9678 0.9680
2307.001788 0.9680 0.9677 0.9672 0.9670 0.9670
2311.374976 0.9670 0.9670 0.9670 0.9670 0.9670
2315.748165 0.9670 0.9670 0.9670 0.9670 0.9670
2320.121353 0.9670 0.9670 0.9673 0.9678 0.9683
2324.494541 0.9688 0.9690 0.9690 0.9690 0.9690
2328.867729 0.9690 0.9690 0.9695 0.9706 0.9710
2333.240917 0.9710 0.9704 0.9694 0.9690 0.9690
2337.614105 0.9690 0.9690 0.9690 0.9690 0.9696
2341.987293 0.9706 0.9713 0.9718 0.9726 0.9736
2346.360482 0.9746 0.9756 0.9766 0.9776 0.9780
2350.733670 0.9780 0.9783 0.9788 0.9793 0.9798
2355.106858 0.9800 0.9800 0.9800 0.9800 0.9800
2359.480046 0.9800 0.9800 0.9800 0.9800 0.9800
2363.853234 0.9800 0.9800 0.9800 0.9800 0.9800
2368.226422 0.9800 0.9806 0.9816 0.9820 0.9820
2372.599611 0.9820 0.9820 0.9820 0.9820 0.9820
2376.972799 0.9820 0.9820 0.9820 0.9820 0.9820
2381.345987 0.9823 0.9828 0.9830 0.9830 0.9830
2385.719175 0.9830 0.9830 0.9830 0.9833 0.9838
2390.092363 0.9840 0.9840 0.9840 0.9840 0.9840
2394.465551 0.9840 0.9840 0.9840 0.9840 0.9840
2398.838739 0.9840 0.9840 0.9840 0.9840 0.9840
2403.211928 0.9840 0.9837 0.9832 0.9830 0.9830
2407.585116 0.9830 0.9830 0.9827 0.9822 0.9820
2411.958304 0.9820 0.9813 0.9803 0.9797 0.9792
2416.331492 0.9790 0.9790 0.9787 0.9781 0.9780
2420.704680 0.9780 0.9784 0.9789 0.9794 0.9799
2425.077868 0.9811 0.9826 0.9830 0.9830 0.9834
2429.451057 0.9839 0.9847 0.9857 0.9860 0.9860
2433.824245 0.9860 0.9860 0.9860 0.9860 0.9864
2438.197433 0.9869 0.9870 0.9870 0.9870 0.9870
2442.570621 0.9870 0.9870 0.9866 0.9861 0.9860
2446.943809 0.9860 0.9860 0.9860 0.9853 0.9843
2451.316997 0.9840 0.9840 0.9840 0.9840 0.9840
2455.690185 0.9840 0.9848 0.9858 0.9852 0.9842
2460.063374 0.9840 0.9840 0.9840 0.9840 0.9840
2464.436562 0.9840 0.9840 0.9840 0.9840 0.9840
2468.809750 0.9840 0.9840 0.9848 0.9858 0.9860
2473.182938 0.9860 0.9864 0.9869 0.9870 0.9870
2477.556126 0.9870 0.9870 0.9870 0.9870 0.9878
2481.929314 0.9888 0.9882 0.9872 0.9870 0.9870
2486.302503 0.9870 0.9870 0.9878 0.9888 0.9890
2490.675691 0.9890 0.9894 0.9899 0.9900 0.9900
2495.048879 0.9896 0.9891 0.9890 0.9890 0.9890
2499.422067 0.9890 0.9890 0.9890 0.9890 0.9890
2503.795255 0.9882 0.9872 0.9870 0.9870 0.9870
2508.168443 0.9870 0.9870 0.9870 0.9870 0.9870
2512.541632 0.9870 0.9870 0.9870 0.9870 0.9870
2516.914820 0.9870 0.9870 0.9870 0.9870 0.9870
2521.288008 0.9879 0.9889 0.9890 0.9890 0.9881
2525.661196 0.9871 0.9870 0.9870 0.9870 0.9870
2530.034384 0.9870 0.9870 0.9866 0.9861 0.9864
2534.407572 0.9869 0.9870 0.9870 0.9870 0.9870
2538.780760 0.9870 0.9870 0.9879 0.9889 0.9890
2543.153949 0.9890 0.9881 0.9871 0.9870 0.9870
2547.527137 0.9865 0.9860 0.9860 0.9860 0.9851
2551.900325 0.9841 0.9840 0.9840 0.9849 0.9859
2556.273513 0.9860 0.9860 0.9860 0.9860 0.9860
2560.646701 0.9860 0.9851 0.9841 0.9840 0.9840
2565.019889 0.9840 0.9840 0.9840 0.9840 0.9840
2569.393078 0.9840 0.9835 0.9830 0.9830 0.9830
2573.766266 0.9830 0.9830 0.9830 0.9830 0.9830
2578.139454 0.9830 0.9830 0.9830 0.9825 0.9820
2582.512642 0.9820 0.9820 0.9820 0.9820 0.9810
2586.885830 0.9800 0.9800 0.9800 0.9800 0.9800
2591.259018 0.9800 0.9800 0.9810 0.9820 0.9820
2595.632206 0.9820 0.9825 0.9830 0.9830 0.9830
2600.005395 0.9835 0.9840 0.9840 0.9840 0.9840
2604.378583 0.9840 0.9850 0.9860 0.9860 0.9860
2608.751771 0.9860 0.9860 0.9860 0.9860 0.9860
2613.124959 0.9860 0.9860 0.9860 0.9860 0.9860
2617.498147 0.9860 0.9860 0.9860 0.9860 0.9860
2621.871335 0.9860 0.9865 0.9870 0.9870 0.9870
2626.244524 0.9870 0.9870 0.9870 0.9870 0.9870
2630.617712 0.9870 0.9870 0.9871 0.9881 0.9890
2634.990900 0.9890 0.9890 0.9890 0.9890 0.9890
2639.364088 0.9890 0.9890 0.9890 0.9890 0.9890
2643.737276 0.9890 0.9890 0.9890 0.9890 0.9890
2648.110464 0.9890 0.9890 0.9889 0.9879 0.9870
2652.483652 0.9870 0.9870 0.9870 0.9870 0.9870
2656.856841 0.9870 0.9870 0.9871 0.9881 0.9890
2661.230029 0.9890 0.9890 0.9896 0.9900 0.9900
2665.603217 0.9900 0.9900 0.9900 0.9900 0.9900
2669.976405 0.9900 0.9900 0.9900 0.9900 0.9900
2674.349593 0.9900 0.9900 0.9900 0.9900 0.9899
2678.722781 0.9894 0.9890 0.9890 0.9890 0.9890
2683.095970 0.9890 0.9890 0.9891 0.9896 0.9900
2687.469158 0.9900 0.9900 0.9900 0.9901 0.9906
2691.842346 0.9910 0.9910 0.9910 0.9910 0.9910
2696.215534 0.9910 0.9910 0.9910 0.9910 0.9910
2700.588722 0.9910 0.9910 0.9909 0.9904 0.9900
2704.961910 0.9900 0.9900 0.9900 0.9900 0.9900
2709.335098 0.9900 0.9900 0.9900 0.9900 0.9900
2713.708287 0.9900 0.9901 0.9906 0.9909 0.9904
2718.081475 0.9900 0.9900 0.9899 0.9894 0.9890
2722.454663 0.9890 0.9888 0.9878 0.9870 0.9870
2726.827851 0.9869 0.9864 0.9860 0.9860 0.9860
2731.201039 0.9860 0.9861 0.9866 0.9870 0.9870
2735.574227 0.9870 0.9870 0.9870 0.9870 0.9870
2739.947416 0.9870 0.9870 0.9870 0.9870 0.9870
2744.320604 0.9870 0.9870 0.9870 0.9870 0.9872
2748.693792 0.9882 0.9891 0.9896 0.9899 0.9894
2753.066980 0.9890 0.9890 0.9891 0.9896 0.9899
2757.440168 0.9894 0.9890 0.9890 0.9890 0.9890
2761.813356 0.9890 0.9890 0.9890 0.9890 0.9890
2766.186544 0.9890 0.9891 0.9896 0.9900 0.9900
2770.559733 0.9901 0.9906 0.9910 0.9910 0.9910
2774.932921 0.9910 0.9910 0.9910 0.9909 0.9904
2779.306109 0.9900 0.9900 0.9900 0.9900 0.9900
2783.679297 0.9900 0.9901 0.9907 0.9910 0.9910
2788.052485 0.9908 0.9903 0.9900 0.9900 0.9900
2792.425673 0.9900 0.9898 0.9893 0.9890 0.9890
2796.798862 0.9890 0.9890 0.9892 0.9897 0.9902
2801.172050 0.9907 0.9915 0.9930 0.9940 0.9940
2805.545238 0.9935 0.9920 0.9910 0.9910 0.9910
2809.918426 0.9910 0.9910 0.9910 0.9914 0.9924
2814.291614 0.9930 0.9930 0.9930 0.9930 0.9932
2818.664802 0.9937 0.9940 0.9940 0.9938 0.9933
2823.037991 0.9926 0.9916 0.9910 0.9910 0.9910
2827.411179 0.9910 0.9910 0.9910 0.9910 0.9910
2831.784367 0.9910 0.9910 0.9908 0.9903 0.9900
2836.157555 0.9900 0.9900 0.9900 0.9902 0.9907
2840.530743 0.9914 0.9924 0.9930 0.9930 0.9930
2844.903931 0.9930 0.9930 0.9930 0.9930 0.9930
2849.277119 0.9930 0.9930 0.9930 0.9930 0.9930
2853.650308 0.9930 0.9926 0.9916 0.9910 0.9910
2858.023496 0.9908 0.9903 0.9898 0.9893 0.9890
2862.396684 0.9890 0.9886 0.9876 0.9870 0.9870
2866.769872 0.9868 0.9863 0.9860 0.9860 0.9862
2871.143060 0.9867 0.9874 0.9885 0.9890 0.9890
2875.516248 0.9890 0.9890 0.9890 0.9890 0.9890
2879.889437 0.9890 0.9892 0.9897 0.9900 0.9900
2884.262625 0.9900 0.9900 0.9900 0.9900 0.9900
2888.635813 0.9900 0.9900 0.9900 0.9902 0.9907
2893.009001 0.9910 0.9910 0.9910 0.9910 0.9910
2897.382189 0.9910 0.9910 0.9910 0.9915 0.9925
2901.755377 0.9930 0.9930 0.9925 0.9915 0.9915
2906.128565 0.9925 0.9930 0.9930 0.9930 0.9930
2910.501754 0.9933 0.9938 0.9940 0.9940 0.9940
2914.874942 0.9940 0.9937 0.9932 0.9930 0.9930
2919.248130 0.9922 0.9907 0.9900 0.9900 0.9892
2923.621318 0.9877 0.9870 0.9870 0.9870 0.9870
2927.994506 0.9876 0.9886 0.9890 0.9890 0.9890
2932.367694 0.9890 0.9890 0.9890 0.9890 0.9890
2936.740883 0.9893 0.9898 0.9900 0.9900 0.9903
2941.114071 0.9908 0.9907 0.9902 0.9900 0.9900
2945.487259 0.9900 0.9900 0.9900 0.9900 0.9900
2949.860447 0.9900 0.9903 0.9908 0.9910 0.9910
2954.233635 0.9907 0.9902 0.9897 0.9892 0.9890
2958.606823 0.9890 0.9890 0.9890 0.9890 0.9890
2962.980011 0.9890 0.9890 0.9890 0.9890 0.9890
2967.353200 0.9890 0.9890 0.9890 0.9893 0.9898
2971.726388 0.9903 0.9908 0.9919 0.9934 0.9940
2976.099576 0.9940 0.9940 0.9940 0.9937 0.9932
2980.472764 0.9930 0.9930 0.9933 0.9938 0.9940
2984.845952 0.9940 0.9940 0.9940 0.9940 0.9940
2989.219140 0.9940 0.9940 0.9940 0.9940 0.9937
2993.592329 0.9932 0.9930 0.9930 0.9923 0.9913
2997.965517 0.9910 0.9910 0.9910 0.9910 0.9907
3002.338705 0.9902 0.9900 0.9900 0.9900 0.9900
3006.711893 0.9897 0.9892 0.9890 0.9890 0.9883
3011.085081 0.9873 0.9867 0.9862 0.9853 0.9843
3015.458269 0.9837 0.9832 0.9830 0.9830 0.9820
3019.831457 0.9805 0.9793 0.9783 0.9759 0.9729
3024.204646 0.9706 0.9686 0.9680 0.9680 0.9676
3028.577834 0.9671 0.9670 0.9670 0.9670 0.9670
3032.951022 0.9674 0.9679 0.9680 0.9680 0.9691
3037.324210 0.9706 0.9710 0.9710 0.9714 0.9719
3041.697398 0.9727 0.9737 0.9740 0.9740 0.9733
3046.070586 0.9723 0.9716 0.9711 0.9699 0.9684
3050.443775 0.9665 0.9645 0.9625 0.9605 0.9573
3054.816963 0.9538 0.9515 0.9495 0.9490 0.9490
3059.190151 0.9479 0.9464 0.9445 0.9425 0.9416
3063.563339 0.9411 0.9410 0.9410 0.9418 0.9428
3067.936527 0.9450 0.9475 0.9504 0.9534 0.9564
3072.309715 0.9594 0.9604 0.9609 0.9618 0.9628
3076.682904 0.9630 0.9630 0.9622 0.9612 0.9606
3081.056092 0.9601 0.9596 0.9591 0.9582 0.9572
3085.429280 0.9578 0.9588 0.9623 0.9663 0.9686
3089.802468 0.9706 0.9726 0.9746 0.9766 0.9786
3094.175656 0.9806 0.9826 0.9834 0.9839 0.9840
3098.548844 0.9840 0.9848 0.9858 0.9860 0.9860
3102.922032 0.9864 0.9869 0.9878 0.9888 0.9894
3107.295221 0.9899 0.9904 0.9909 0.9923 0.9938
3111.668409 0.9944 0.9949 0.9958 0.9968 0.9970
3116.041597 0.9970 0.9974 0.9979 0.9980 0.9980
3120.414785 0.9980 0.9980 0.9980 0.9980 0.9980
3124.787973 0.9980 0.9980 0.9980 0.9980 0.9980
3129.161161 0.9980 0.9980 0.9980 0.9980 0.9989
3133.534350 0.9999 1.0000 1.0000 1.0000 1.0000
3137.907538 1.0000 1.0000 1.0000 1.0000 1.0000
3142.280726 1.0000 1.0000 1.0000 1.0000 1.0000
3146.653914 1.0000 1.0000 1.0000 1.0000 1.0000
3151.027102 1.0000 1.0000 1.0000 1.0000 1.0000
3155.400290 1.0000 1.0000 1.0000 1.0000 1.0000
3159.773478 1.0000 1.0000 1.0000 1.0000 1.0000
3164.146667 1.0000 1.0000 1.0000 1.0000 1.0000
3168.519855 1.0000 1.0000 1.0000 1.0000 1.0000
3172.893043 1.0000 1.0000 1.0000 1.0000 1.0000
3177.266231 1.0000 1.0000 1.0000 1.0000 1.0000
3181.639419 1.0000 1.0000 1.0000 1.0000 1.0000
3186.012607 1.0000 1.0000 1.0000 1.0000 1.0000
3190.385796 1.0000 1.0000 1.0000 1.0000 1.0000
3194.758984 1.0000 1.0000 1.0000 1.0000 1.0000
3199.132172 1.0005 1.0010 1.0010 1.0010 1.0010
3203.505360 1.0010 1.0010 1.0010 1.0010 1.0010
3207.878548 1.0010 1.0010 1.0010 1.0010 1.0015
3212.251736 1.0020 1.0020 1.0020 1.0020 1.0020
3216.624924 1.0020 1.0020 1.0020 1.0020 1.0015
3220.998113 1.0010 1.0010 1.0010 1.0010 1.0010
3225.371301 1.0010 1.0010 1.0010 1.0010 1.0010
3229.744489 1.0010 1.0010 1.0010 1.0005 1.0000
3234.117677 1.0000 1.0000 1.0000 1.0000 1.0000
3238.490865 1.0000 1.0000 1.0000 1.0000 1.0000
3242.864053 1.0000 1.0000 1.0000 1.0000 1.0000
3247.237242 1.0000 1.0000 1.0000 1.0000 1.0000
3251.610430 1.0000 1.0000 1.0000 1.0000 1.0000
3255.983618 1.0000 1.0000 1.0000 1.0000 1.0000
3260.356806 1.0000 1.0000 1.0000 1.0000 1.0000
3264.729994 1.0000 1.0000 1.0000 1.0000 1.0000
3269.103182 1.0000 1.0000 1.0000 0.9999 0.9989
3273.476370 0.9980 0.9980 0.9980 0.9980 0.9980
3277.849559 0.9980 0.9980 0.9980 0.9980 0.9980
3282.222747 0.9980 0.9980 0.9979 0.9974 0.9970
3286.595935 0.9970 0.9970 0.9970 0.9969 0.9959
3290.969123 0.9950 0.9950 0.9950 0.9950 0.9950
3295.342311 0.9950 0.9949 0.9944 0.9940 0.9940
3299.715499 0.9939 0.9934 0.9928 0.9918 0.9910
3304.088688 0.9910 0.9910 0.9910 0.9910 0.9910
3308.461876 0.9910 0.9910 0.9908 0.9898 0.9890
3312.835064 0.9890 0.9890 0.9890 0.9890 0.9890
3317.208252 0.9890 0.9890 0.9891 0.9896 0.9900
3321.581440 0.9900 0.9900 0.9900 0.9901 0.9906
3325.954628 0.9910 0.9910 0.9910 0.9910 0.9912
3330.327816 0.9922 0.9930 0.9930 0.9930 0.9930
3334.701005 0.9930 0.9930 0.9930 0.9930 0.9931
3339.074193 0.9936 0.9940 0.9940 0.9941 0.9946
3343.447381 0.9950 0.9950 0.9950 0.9950 0.9950
3347.820569 0.9950 0.9949 0.9944 0.9939 0.9934
3352.193757 0.9930 0.9930 0.9930 0.9930 0.9930
3356.566945 0.9930 0.9931 0.9936 0.9940 0.9940
3360.940134 0.9939 0.9934 0.9930 0.9930 0.9931
3365.313322 0.9936 0.9940 0.9940 0.9941 0.9946
3369.686510 0.9950 0.9950 0.9947 0.9937 0.9927
3374.059698 0.9917 0.9910 0.9910 0.9913 0.9923
3378.432886 0.9931 0.9937 0.9940 0.9940 0.9938
3382.806074 0.9933 0.9930 0.9930 0.9927 0.9917
3387.179263 0.9913 0.9923 0.9930 0.9930 0.9927
3391.552451 0.9917 0.9908 0.9903 0.9900 0.9900
3395.925639 0.9900 0.9900 0.9900 0.9900 0.9900
3400.298827 0.9900 0.9900 0.9900 0.9900 0.9900
3404.672015 0.9900 0.9900 0.9900 0.9900 0.9902
3409.045203 0.9907 0.9913 0.9923 0.9930 0.9930
3413.418391 0.9930 0.9930 0.9930 0.9930 0.9930
3417.791580 0.9930 0.9926 0.9916 0.9910 0.9910
3422.164768 0.9908 0.9903 0.9900 0.9900 0.9900
3426.537956 0.9900 0.9902 0.9907 0.9916 0.9931
3430.911144 0.9940 0.9940 0.9938 0.9933 0.9926
3435.284332 0.9916 0.9910 0.9910 0.9910 0.9910
3439.657520 0.9910 0.9910 0.9910 0.9910 0.9910
3444.030709 0.9910 0.9910 0.9910 0.9910 0.9910
3448.403897 0.9910 0.9910 0.9910 0.9910 0.9910
3452.777085 0.9910 0.9910 0.9910 0.9910 0.9910
3457.150273 0.9910 0.9910 0.9910 0.9910 0.9910
3461.523461 0.9910 0.9914 0.9924 0.9930 0.9930
3465.896649 0.9930 0.9930 0.9930 0.9930 0.9925
3470.269837 0.9915 0.9910 0.9910 0.9910 0.9910
3474.643026 0.9915 0.9925 0.9930 0.9930 0.9930
3479.016214 0.9930 0.9932 0.9937 0.9940 0.9940
3483.389402 0.9940 0.9940 0.9938 0.9933 0.9930
3487.762590 0.9930 0.9932 0.9937 0.9940 0.9940
3492.135778 0.9940 0.9940 0.9940 0.9940 0.9940
3496.508966 0.9940 0.9942 0.9947 0.9950 0.9950
3500.882155 0.9948 0.9942 0.9937 0.9932 0.9930
3505.255343 0.9930 0.9930 0.9930 0.9933 0.9938
3509.628531 0.9940 0.9940 0.9943 0.9948 0.9947
3514.001719 0.9942 0.9937 0.9932 0.9930 0.9930
3518.374907 0.9933 0.9938 0.9940 0.9940 0.9937
3522.748095 0.9932 0.9925 0.9915 0.9910 0.9910
3527.121283 0.9910 0.9910 0.9915 0.9925 0.9925
3531.494472 0.9915 0.9907 0.9902 0.9903 0.9908
3535.867660 0.9916 0.9926 0.9933 0.9938 0.9940
3540.240848 0.9940 0.9937 0.9932 0.9930 0.9930
3544.614036 0.9933 0.9938 0.9940 0.9940 0.9940
3548.987224 0.9940 0.9940 0.9940 0.9940 0.9940
3553.360412 0.9937 0.9932 0.9930 0.9930 0.9930
3557.733601 0.9930 0.9930 0.9930 0.9930 0.9930
3562.106789 0.9930 0.9930 0.9930 0.9930 0.9930
3566.479977 0.9930 0.9936 0.9946 0.9950 0.9950
3570.853165 0.9947 0.9942 0.9940 0.9940 0.9940
3575.226353 0.9940 0.9940 0.9940 0.9937 0.9932
3579.599541 0.9930 0.9930 0.9933 0.9938 0.9940
3583.972729 0.9940 0.9940 0.9940 0.9940 0.9940
3588.345918 0.9940 0.9940 0.9943 0.9948 0.9950
3592.719106 0.9950 0.9950 0.9950 0.9950 0.9950
3597.092294 0.9957 0.9967 0.9970 0.9970 0.9970
3601.465482 0.9970 0.9970 0.9970 0.9970 0.9970
3605.838670 0.9963 0.9953 0.9950 0.9950 0.9950
3610.211858 0.9950 0.9950 0.9950 0.9950 0.9950
3614.585047 0.9950 0.9950 0.9950 0.9950 0.9950
3618.958235 0.9950 0.9950 0.9950 0.9950 0.9950
3623.331423 0.9950 0.9950 0.9946 0.9941 0.9940
3627.704611 0.9940 0.9940 0.9940 0.9936 0.9931
3632.077799 0.9930 0.9930 0.9930 0.9930 0.9934
3636.450987 0.9939 0.9940 0.9940 0.9940 0.9940
3640.824176 0.9940 0.9940 0.9940 0.9940 0.9940
3645.197364 0.9940 0.9940 0.9940 0.9940 0.9940
3649.570552 0.9940 0.9940 0.9940 0.9940 0.9940
3653.943740 0.9940 0.9940 0.9940 0.9940 0.9940
3658.316928 0.9940 0.9940 0.9940 0.9940 0.9940
3662.690116 0.9940 0.9940 0.9940 0.9936 0.9931
3667.063304 0.9930 0.9930 0.9930 0.9930 0.9930
3671.436493 0.9930 0.9930 0.9930 0.9922 0.9912
3675.809681 0.9910 0.9910 0.9918 0.9928 0.9930
3680.182869 0.9930 0.9930 0.9930 0.9930 0.9930
3684.556057 0.9930 0.9930 0.9922 0.9912 0.9910
3688.929245 0.9910 0.9910 0.9910 0.9910 0.9910
3693.302433 0.9918 0.9928 0.9930 0.9930 0.9930
3697.675622 0.9930 0.9922 0.9912 0.9910 0.9910
3702.048810 0.9906 0.9901 0.9900 0.9900 0.9900
3706.421998 0.9900 0.9900 0.9900 0.9900 0.9900
3710.795186 0.9900 0.9900 0.9900 0.9900 0.9904
3715.168374 0.9909 0.9910 0.9910 0.9910 0.9910
3719.541562 0.9910 0.9910 0.9910 0.9910 0.9910
3723.914750 0.9910 0.9910 0.9910 0.9910 0.9910
3728.287939 0.9906 0.9901 0.9900 0.9900 0.9900
3732.661127 0.9900 0.9900 0.9900 0.9904 0.9909
3737.034315 0.9910 0.9910 0.9910 0.9910 0.9910
3741.407503 0.9910 0.9910 0.9910 0.9910 0.9910
3745.780691 0.9910 0.9910 0.9910 0.9910 0.9910
3750.153879 0.9910 0.9910 0.9910 0.9910 0.9910
3754.527068 0.9910 0.9910 0.9910 0.9910 0.9910
3758.900256 0.9910 0.9910 0.9910 0.9910 0.9910
3763.273444 0.9919 0.9929 0.9930 0.9930 0.9930
3767.646632 0.9930 0.9930 0.9930 0.9930 0.9930
3772.019820 0.9930 0.9930 0.9930 0.9930 0.9930
3776.393008 0.9930 0.9920 0.9910 0.9910 0.9910
3780.766196 0.9910 0.9910 0.9910 0.9910 0.9910
3785.139385 0.9910 0.9910 0.9910 0.9910 0.9910
3789.512573 0.9910 0.9910 0.9910 0.9910
##END=
