##TITLE=o-Fluoroaniline
##JCAMP-DX=4.24
##DATA TYPE=INFRARED SPECTRUM
##CLASS=COBLENTZ III
##ORIGIN=DOW CHEMICAL COMPANY
##OWNER=COPYRIGHT (C) 1988 by COBLENTZ SOCIETY INC.
Collection (C) 2018 copyright by the U.S. Secretary of Commerce
on behalf of the United States of America. All rights reserved.
##DATE=1961/12/01
##NAMES=2-fluorophenylamine
2-fluoroaniline
##CAS REGISTRY NO=348-54-9
##MOLFORM=C6 H6 F N
##SOURCE REFERENCE=COBLENTZ NO. 6308
##$NIST SOURCE=COBLENTZ
##$NIST IMAGE=cob6308
##SPECTROMETER/DATA SYSTEM=DOW KBr FOREPRISM-GRATING
##INSTRUMENT PARAMETERS=BLAZED AT 3.5, 12.0, 20.0 MICRON AND CHANGED AT 5.0, 7.5, 14.9 MICRON
##STATE=SOLUTION (10% CCl4 FOR 3800-1340, 10% CS2 FOR 1340-450 CM^-^1)
##PATH LENGTH=0.011 CM, 0.011 CM
##SAMPLING PROCEDURE=TRANSMISSION
##RESOLUTION=2
##DATA PROCESSING=DIGITIZED BY COBLENTZ SOCIETY (BATCH I) FROM HARD COPY (ADJUSTED \subtractcm-1\only3600\)
##XUNITS=1/CM
##YUNITS=TRANSMITTANCE
##XFACTOR=1
##YFACTOR=1
##DELTAX=0.996436
##FIRSTX=3806
##LASTX=451.996
##FIRSTY=0.9287
##MAXX=3806
##MINX=451.996
##MAXY=0.952155
##MINY=8.69914e-005
##NPOINTS=3367
##XYDATA=(X++(Y..Y))
3806.000000 0.9287 0.9288 0.9282 0.9276 0.9277
3801.017820 0.9287 0.9294 0.9285 0.9282 0.9294
3796.035640 0.9299 0.9300 0.9302 0.9304 0.9292
3791.053460 0.9292 0.9294 0.9295 0.9296 0.9299
3786.071280 0.9308 0.9303 0.9314 0.9315 0.9318
3781.089100 0.9319 0.9321 0.9322 0.9322 0.9324
3776.106920 0.9326 0.9327 0.9320 0.9315 0.9317
3771.124740 0.9327 0.9332 0.9324 0.9333 0.9338
3766.142560 0.9340 0.9329 0.9340 0.9343 0.9345
3761.160380 0.9346 0.9347 0.9348 0.9350 0.9351
3756.178200 0.9353 0.9355 0.9357 0.9358 0.9360
3751.196020 0.9362 0.9369 0.9373 0.9370 0.9370
3746.213840 0.9371 0.9373 0.9376 0.9378 0.9380
3741.231660 0.9381 0.9382 0.9382 0.9382 0.9382
3736.249480 0.9382 0.9382 0.9382 0.9382 0.9382
3731.267300 0.9382 0.9382 0.9385 0.9394 0.9397
3726.285120 0.9397 0.9397 0.9392 0.9385 0.9389
3721.302940 0.9395 0.9397 0.9396 0.9396 0.9396
3716.320760 0.9396 0.9395 0.9395 0.9394 0.9394
3711.338580 0.9394 0.9394 0.9384 0.9379 0.9387
3706.356400 0.9392 0.9392 0.9392 0.9391 0.9393
3701.374220 0.9398 0.9398 0.9403 0.9406 0.9406
3696.392040 0.9407 0.9407 0.9407 0.9407 0.9408
3691.409860 0.9408 0.9408 0.9408 0.9408 0.9408
3686.427680 0.9401 0.9395 0.9394 0.9394 0.9395
3681.445500 0.9395 0.9396 0.9396 0.9397 0.9396
3676.463320 0.9390 0.9385 0.9386 0.9386 0.9387
3671.481140 0.9388 0.9389 0.9390 0.9391 0.9391
3666.498960 0.9391 0.9391 0.9391 0.9392 0.9392
3661.516781 0.9392 0.9398 0.9399 0.9394 0.9393
3656.534601 0.9393 0.9394 0.9394 0.9394 0.9394
3651.552421 0.9395 0.9395 0.9395 0.9395 0.9396
3646.570241 0.9396 0.9396 0.9396 0.9397 0.9397
3641.588061 0.9398 0.9398 0.9398 0.9398 0.9399
3636.605881 0.9399 0.9400 0.9400 0.9400 0.9400
3631.623701 0.9399 0.9398 0.9398 0.9397 0.9397
3626.641521 0.9396 0.9396 0.9395 0.9395 0.9400
3621.659341 0.9407 0.9405 0.9398 0.9393 0.9399
3616.677161 0.9404 0.9404 0.9403 0.9403 0.9402
3611.694981 0.9402 0.9401 0.9400 0.9400 0.9400
3606.712801 0.9399 0.9399 0.9398 0.9397 0.9396
3601.730621 0.9396 0.9396 0.9395 0.9391 0.9386
3596.748441 0.9394 0.9394 0.9394 0.9393 0.9388
3591.766261 0.9385 0.9388 0.9378 0.9370 0.9375
3586.784081 0.9378 0.9374 0.9371 0.9368 0.9366
3581.801901 0.9363 0.9360 0.9357 0.9354 0.9351
3576.819721 0.9348 0.9345 0.9342 0.9339 0.9336
3571.837541 0.9332 0.9325 0.9320 0.9313 0.9307
3566.855361 0.9300 0.9289 0.9279 0.9280 0.9274
3561.873181 0.9261 0.9248 0.9242 0.9235 0.9228
3556.891001 0.9222 0.9216 0.9206 0.9198 0.9186
3551.908821 0.9174 0.9162 0.9150 0.9138 0.9125
3546.926641 0.9112 0.9102 0.9094 0.9063 0.9046
3541.944461 0.9037 0.9017 0.8995 0.8970 0.8959
3536.962281 0.8937 0.8914 0.8884 0.8858 0.8839
3531.980101 0.8815 0.8789 0.8756 0.8726 0.8688
3526.997921 0.8660 0.8630 0.8597 0.8563 0.8517
3522.015741 0.8469 0.8390 0.8309 0.8203 0.8108
3517.033561 0.7996 0.7883 0.7775 0.7668 0.7558
3512.051381 0.7449 0.7081 0.6700 0.6365 0.6032
3507.069201 0.5698 0.5365 0.5032 0.4699 0.4366
3502.087021 0.4033 0.3812 0.3604 0.3578 0.3568
3497.104841 0.3565 0.3549 0.3559 0.3561 0.3565
3492.122661 0.3571 0.3579 0.3589 0.3669 0.3760
3487.140481 0.3849 0.3936 0.4024 0.4113 0.4200
3482.158301 0.4289 0.4377 0.4465 0.4552 0.4640
3477.176121 0.4728 0.4816 0.4904 0.4992 0.5080
3472.193941 0.5169 0.5257 0.5344 0.5432 0.5520
3467.211761 0.5608 0.5696 0.5784 0.5872 0.5960
3462.229581 0.6049 0.6136 0.6224 0.6312 0.6400
3457.247401 0.6487 0.6576 0.6664 0.6751 0.6839
3452.265221 0.6928 0.7016 0.7104 0.7192 0.7280
3447.283041 0.7367 0.7455 0.7507 0.7544 0.7563
3442.300861 0.7577 0.7590 0.7602 0.7609 0.7613
3437.318681 0.7613 0.7599 0.7603 0.7605 0.7589
3432.336501 0.7566 0.7530 0.7487 0.7432 0.7371
3427.354321 0.7267 0.7139 0.7008 0.6877 0.6781
3422.372141 0.6707 0.6573 0.6402 0.6050 0.5588
3417.389961 0.5126 0.4664 0.4198 0.3737 0.3277
3412.407781 0.2814 0.2480 0.2225 0.2124 0.2130
3407.425601 0.2130 0.2132 0.2143 0.2161 0.2239
3402.443421 0.2366 0.2496 0.2630 0.2764 0.2898
3397.461241 0.3033 0.3169 0.3301 0.3434 0.3568
3392.479061 0.3702 0.3836 0.3969 0.4106 0.4246
3387.496881 0.4385 0.4524 0.4661 0.4800 0.4940
3382.514702 0.5078 0.5218 0.5357 0.5495 0.5635
3377.532522 0.5772 0.5912 0.6051 0.6189 0.6309
3372.550342 0.6425 0.6502 0.6582 0.6676 0.6783
3367.568162 0.6939 0.7075 0.7160 0.7240 0.7311
3362.585982 0.7377 0.7440 0.7500 0.7553 0.7605
3357.603802 0.7652 0.7697 0.7740 0.7782 0.7826
3352.621622 0.7871 0.7914 0.7955 0.7995 0.8035
3347.639442 0.8075 0.8113 0.8154 0.8193 0.8233
3342.657262 0.8261 0.8289 0.8317 0.8346 0.8373
3337.675082 0.8404 0.8440 0.8468 0.8492 0.8527
3332.692902 0.8561 0.8601 0.8647 0.8688 0.8716
3327.710722 0.8736 0.8755 0.8780 0.8805 0.8828
3322.728542 0.8850 0.8869 0.8885 0.8903 0.8920
3317.746362 0.8937 0.8955 0.8971 0.8987 0.9002
3312.764182 0.9017 0.9032 0.9048 0.9062 0.9076
3307.782002 0.9089 0.9102 0.9117 0.9140 0.9153
3302.799822 0.9166 0.9177 0.9185 0.9198 0.9214
3297.817642 0.9220 0.9219 0.9221 0.9226 0.9231
3292.835462 0.9236 0.9242 0.9248 0.9254 0.9258
3287.853282 0.9262 0.9269 0.9275 0.9279 0.9284
3282.871102 0.9287 0.9290 0.9294 0.9297 0.9300
3277.888922 0.9304 0.9315 0.9310 0.9299 0.9303
3272.906742 0.9309 0.9301 0.9295 0.9301 0.9305
3267.924562 0.9303 0.9301 0.9299 0.9297 0.9294
3262.942382 0.9292 0.9288 0.9285 0.9282 0.9279
3257.960202 0.9277 0.9273 0.9267 0.9262 0.9254
3252.978022 0.9247 0.9237 0.9217 0.9220 0.9212
3247.995842 0.9204 0.9195 0.9187 0.9176 0.9157
3243.013662 0.9139 0.9118 0.9095 0.9070 0.9052
3238.031482 0.9035 0.9013 0.8991 0.8971 0.8954
3233.049302 0.8939 0.8925 0.8914 0.8904 0.8902
3228.067122 0.8902 0.8902 0.8903 0.8903 0.8903
3223.084942 0.8901 0.8890 0.8893 0.8903 0.8903
3218.102762 0.8903 0.8903 0.8902 0.8897 0.8891
3213.120582 0.8885 0.8878 0.8870 0.8861 0.8851
3208.138402 0.8841 0.8829 0.8818 0.8801 0.8788
3203.156222 0.8784 0.8781 0.8780 0.8780 0.8780
3198.174042 0.8782 0.8769 0.8797 0.8805 0.8818
3193.191862 0.8824 0.8844 0.8860 0.8875 0.8890
3188.209682 0.8904 0.8915 0.8934 0.8957 0.8979
3183.227502 0.8992 0.9007 0.9025 0.9040 0.9057
3178.245322 0.9071 0.9086 0.9099 0.9115 0.9130
3173.263142 0.9144 0.9156 0.9166 0.9176 0.9187
3168.280962 0.9196 0.9207 0.9216 0.9226 0.9236
3163.298782 0.9245 0.9250 0.9262 0.9275 0.9276
3158.316602 0.9280 0.9290 0.9295 0.9292 0.9299
3153.334422 0.9299 0.9298 0.9310 0.9316 0.9319
3148.352242 0.9320 0.9322 0.9324 0.9316 0.9314
3143.370062 0.9316 0.9316 0.9317 0.9317 0.9317
3138.387882 0.9319 0.9328 0.9328 0.9326 0.9324
3133.405702 0.9321 0.9316 0.9311 0.9305 0.9299
3128.423522 0.9294 0.9288 0.9276 0.9262 0.9248
3123.441342 0.9234 0.9220 0.9206 0.9189 0.9174
3118.459162 0.9158 0.9142 0.9125 0.9109 0.9092
3113.476982 0.9074 0.9056 0.9039 0.9022 0.9004
3108.494802 0.8983 0.8962 0.8937 0.8911 0.8890
3103.512623 0.8869 0.8844 0.8815 0.8788 0.8760
3098.530443 0.8730 0.8707 0.8680 0.8647 0.8623
3093.548263 0.8603 0.8580 0.8547 0.8505 0.8461
3088.566083 0.8408 0.8359 0.8296 0.8230 0.8134
3083.583903 0.8026 0.7884 0.7731 0.7613 0.7512
3078.601723 0.7409 0.7306 0.7244 0.7204 0.7195
3073.619543 0.7196 0.7196 0.7201 0.7209 0.7210
3068.637363 0.7233 0.7267 0.7285 0.7308 0.7311
3063.655183 0.7307 0.7298 0.7284 0.7209 0.7111
3058.673003 0.7030 0.6960 0.6914 0.6873 0.6820
3053.690823 0.6762 0.6695 0.6621 0.6546 0.6475
3048.708643 0.6426 0.6385 0.6366 0.6359 0.6358
3043.726463 0.6357 0.6369 0.6384 0.6405 0.6430
3038.744283 0.6534 0.6680 0.6804 0.6917 0.7029
3033.762103 0.7134 0.7237 0.7344 0.7447 0.7549
3028.779923 0.7658 0.7767 0.7896 0.8042 0.8187
3023.797743 0.8331 0.8447 0.8547 0.8612 0.8657
3018.815563 0.8690 0.8717 0.8746 0.8770 0.8790
3013.833383 0.8801 0.8816 0.8835 0.8857 0.8879
3008.851203 0.8900 0.8922 0.8942 0.8959 0.8971
3003.869023 0.8988 0.9014 0.9037 0.9052 0.9062
2998.886843 0.9076 0.9097 0.9115 0.9126 0.9140
2993.904663 0.9155 0.9169 0.9184 0.9204 0.9225
2988.922483 0.9240 0.9254 0.9268 0.9282 0.9295
2983.940303 0.9308 0.9318 0.9327 0.9332 0.9335
2978.958123 0.9337 0.9339 0.9347 0.9350 0.9346
2973.975943 0.9350 0.9354 0.9355 0.9355 0.9356
2968.993763 0.9356 0.9357 0.9362 0.9369 0.9371
2964.011583 0.9372 0.9373 0.9373 0.9373 0.9373
2959.029403 0.9373 0.9374 0.9382 0.9387 0.9380
2954.047223 0.9374 0.9374 0.9376 0.9383 0.9388
2949.065043 0.9388 0.9389 0.9390 0.9391 0.9387
2944.082863 0.9380 0.9377 0.9382 0.9384 0.9385
2939.100683 0.9384 0.9386 0.9392 0.9394 0.9394
2934.118503 0.9395 0.9388 0.9381 0.9370 0.9350
2929.136323 0.9335 0.9325 0.9316 0.9306 0.9296
2924.154143 0.9286 0.9277 0.9267 0.9259 0.9248
2919.171963 0.9234 0.9223 0.9217 0.9213 0.9211
2914.189783 0.9211 0.9212 0.9214 0.9218 0.9222
2909.207603 0.9226 0.9229 0.9233 0.9244 0.9254
2904.225423 0.9251 0.9249 0.9252 0.9257 0.9264
2899.243243 0.9271 0.9278 0.9285 0.9293 0.9299
2894.261063 0.9306 0.9313 0.9319 0.9327 0.9334
2889.278883 0.9341 0.9347 0.9353 0.9358 0.9363
2884.296703 0.9367 0.9373 0.9378 0.9383 0.9387
2879.314523 0.9392 0.9397 0.9402 0.9407 0.9406
2874.332343 0.9409 0.9421 0.9426 0.9430 0.9434
2869.350163 0.9438 0.9442 0.9446 0.9449 0.9452
2864.367983 0.9456 0.9459 0.9461 0.9465 0.9468
2859.385803 0.9467 0.9465 0.9462 0.9459 0.9455
2854.403623 0.9452 0.9445 0.9430 0.9414 0.9405
2849.421443 0.9401 0.9400 0.9403 0.9410 0.9418
2844.439263 0.9431 0.9445 0.9450 0.9451 0.9457
2839.457083 0.9466 0.9466 0.9466 0.9472 0.9479
2834.474903 0.9479 0.9475 0.9474 0.9476 0.9477
2829.492723 0.9478 0.9479 0.9486 0.9490 0.9490
2824.510544 0.9496 0.9491 0.9482 0.9485 0.9486
2819.528364 0.9483 0.9488 0.9485 0.9477 0.9467
2814.546184 0.9462 0.9458 0.9454 0.9449 0.9443
2809.564004 0.9437 0.9427 0.9416 0.9411 0.9411
2804.581824 0.9409 0.9405 0.9401 0.9399 0.9401
2799.599644 0.9402 0.9404 0.9406 0.9408 0.9409
2794.617464 0.9411 0.9414 0.9418 0.9424 0.9427
2789.635284 0.9426 0.9428 0.9433 0.9428 0.9430
2784.653104 0.9434 0.9439 0.9436 0.9436 0.9425
2779.670924 0.9421 0.9423 0.9423 0.9419 0.9416
2774.688744 0.9412 0.9410 0.9409 0.9409 0.9409
2769.706564 0.9409 0.9409 0.9408 0.9407 0.9406
2764.724384 0.9407 0.9409 0.9411 0.9415 0.9418
2759.742204 0.9421 0.9424 0.9427 0.9430 0.9434
2754.760024 0.9436 0.9439 0.9441 0.9444 0.9446
2749.777844 0.9449 0.9451 0.9454 0.9457 0.9458
2744.795664 0.9458 0.9458 0.9456 0.9453 0.9450
2739.813484 0.9447 0.9444 0.9441 0.9439 0.9437
2734.831304 0.9433 0.9432 0.9431 0.9430 0.9430
2729.849124 0.9430 0.9430 0.9431 0.9431 0.9431
2724.866944 0.9432 0.9435 0.9440 0.9445 0.9450
2719.884764 0.9454 0.9458 0.9463 0.9468 0.9472
2714.902584 0.9475 0.9479 0.9484 0.9488 0.9491
2709.920404 0.9494 0.9494 0.9493 0.9490 0.9486
2704.938224 0.9483 0.9480 0.9477 0.9474 0.9472
2699.956044 0.9470 0.9466 0.9464 0.9462 0.9460
2694.973864 0.9457 0.9455 0.9452 0.9450 0.9447
2689.991684 0.9445 0.9442 0.9440 0.9437 0.9435
2685.009504 0.9432 0.9429 0.9425 0.9422 0.9419
2680.027324 0.9415 0.9413 0.9411 0.9407 0.9404
2675.045144 0.9401 0.9397 0.9390 0.9382 0.9372
2670.062964 0.9362 0.9348 0.9334 0.9320 0.9306
2665.080784 0.9290 0.9274 0.9258 0.9243 0.9227
2660.098604 0.9211 0.9195 0.9182 0.9174 0.9170
2655.116424 0.9172 0.9166 0.9164 0.9164 0.9163
2650.134244 0.9162 0.9154 0.9146 0.9147 0.9154
2645.152064 0.9160 0.9158 0.9151 0.9145 0.9143
2640.169884 0.9142 0.9117 0.9092 0.9067 0.9040
2635.187704 0.9005 0.8971 0.8947 0.8934 0.8928
2630.205524 0.8920 0.8907 0.8907 0.8913 0.8909
2625.223344 0.8904 0.8900 0.8924 0.8940 0.8956
2620.241164 0.8975 0.8999 0.9025 0.9049 0.9073
2615.258984 0.9097 0.9120 0.9142 0.9162 0.9179
2610.276804 0.9195 0.9210 0.9226 0.9242 0.9258
2605.294624 0.9271 0.9287 0.9300 0.9313 0.9326
2600.312444 0.9339 0.9349 0.9358 0.9365 0.9372
2595.330264 0.9378 0.9386 0.9392 0.9398 0.9403
2590.348084 0.9409 0.9412 0.9415 0.9415 0.9416
2585.365904 0.9416 0.9416 0.9416 0.9416 0.9416
2580.383724 0.9416 0.9413 0.9411 0.9408 0.9405
2575.401544 0.9402 0.9400 0.9398 0.9396 0.9394
2570.419364 0.9392 0.9390 0.9389 0.9386 0.9385
2565.437184 0.9384 0.9383 0.9383 0.9383 0.9385
2560.455004 0.9389 0.9395 0.9400 0.9405 0.9411
2555.472824 0.9417 0.9422 0.9426 0.9433 0.9440
2550.490644 0.9446 0.9451 0.9458 0.9462 0.9462
2545.508465 0.9462 0.9457 0.9449 0.9443 0.9434
2540.526285 0.9426 0.9417 0.9410 0.9404 0.9399
2535.544105 0.9399 0.9399 0.9400 0.9401 0.9402
2530.561925 0.9404 0.9406 0.9408 0.9412 0.9416
2525.579745 0.9421 0.9425 0.9428 0.9433 0.9435
2520.597565 0.9437 0.9438 0.9440 0.9441 0.9442
2515.615385 0.9443 0.9446 0.9447 0.9448 0.9449
2510.633205 0.9451 0.9452 0.9453 0.9453 0.9453
2505.651025 0.9453 0.9454 0.9454 0.9454 0.9454
2500.668845 0.9454 0.9453 0.9452 0.9448 0.9446
2495.686665 0.9443 0.9441 0.9435 0.9429 0.9420
2490.704485 0.9412 0.9404 0.9396 0.9383 0.9371
2485.722305 0.9356 0.9341 0.9325 0.9311 0.9295
2480.740125 0.9281 0.9277 0.9271 0.9263 0.9255
2475.757945 0.9254 0.9254 0.9259 0.9266 0.9273
2470.775765 0.9280 0.9289 0.9296 0.9302 0.9309
2465.793585 0.9315 0.9321 0.9325 0.9333 0.9339
2460.811405 0.9345 0.9351 0.9357 0.9363 0.9363
2455.829225 0.9366 0.9368 0.9364 0.9369 0.9380
2450.847045 0.9390 0.9394 0.9387 0.9398 0.9405
2445.864865 0.9408 0.9412 0.9416 0.9420 0.9423
2440.882685 0.9426 0.9428 0.9430 0.9432 0.9433
2435.900505 0.9437 0.9438 0.9441 0.9443 0.9444
2430.918325 0.9446 0.9448 0.9450 0.9451 0.9453
2425.936145 0.9454 0.9456 0.9456 0.9455 0.9454
2420.953965 0.9452 0.9447 0.9441 0.9435 0.9430
2415.971785 0.9425 0.9419 0.9413 0.9407 0.9400
2410.989605 0.9395 0.9388 0.9384 0.9383 0.9386
2406.007425 0.9378 0.9384 0.9380 0.9377 0.9373
2401.025245 0.9370 0.9368 0.9366 0.9366 0.9366
2396.043065 0.9366 0.9366 0.9366 0.9366 0.9368
2391.060885 0.9371 0.9373 0.9376 0.9391 0.9396
2386.078705 0.9399 0.9402 0.9406 0.9420 0.9422
2381.096525 0.9430 0.9442 0.9444 0.9452 0.9462
2376.114345 0.9471 0.9481 0.9484 0.9493 0.9500
2371.132165 0.9500 0.9500 0.9500 0.9488 0.9483
2366.149985 0.9479 0.9477 0.9474 0.9472 0.9469
2361.167805 0.9468 0.9465 0.9478 0.9479 0.9489
2356.185625 0.9492 0.9505 0.9515 0.9515 0.9514
2351.203445 0.9514 0.9508 0.9499 0.9496 0.9502
2346.221265 0.9516 0.9522 0.9521 0.9512 0.9506
2341.239085 0.9504 0.9503 0.9502 0.9490 0.9497
2336.256905 0.9498 0.9485 0.9479 0.9490 0.9488
2331.274725 0.9486 0.9483 0.9489 0.9486 0.9481
2326.292545 0.9480 0.9484 0.9483 0.9487 0.9482
2321.310365 0.9476 0.9470 0.9464 0.9458 0.9452
2316.328185 0.9446 0.9440 0.9433 0.9428 0.9421
2311.346005 0.9415 0.9408 0.9403 0.9397 0.9391
2306.363825 0.9385 0.9378 0.9373 0.9369 0.9364
2301.381645 0.9360 0.9355 0.9350 0.9349 0.9353
2296.399465 0.9350 0.9346 0.9341 0.9336 0.9332
2291.417285 0.9329 0.9327 0.9325 0.9323 0.9313
2286.435105 0.9308 0.9307 0.9310 0.9313 0.9305
2281.452925 0.9305 0.9308 0.9314 0.9318 0.9311
2276.470745 0.9314 0.9315 0.9308 0.9323 0.9316
2271.488565 0.9313 0.9304 0.9300 0.9287 0.9268
2266.506386 0.9253 0.9238 0.9221 0.9213 0.9214
2261.524206 0.9225 0.9229 0.9237 0.9250 0.9255
2256.542026 0.9270 0.9289 0.9308 0.9318 0.9330
2251.559846 0.9344 0.9353 0.9352 0.9357 0.9366
2246.577666 0.9374 0.9384 0.9388 0.9387 0.9390
2241.595486 0.9394 0.9398 0.9402 0.9405 0.9412
2236.613306 0.9416 0.9420 0.9417 0.9415 0.9419
2231.631126 0.9423 0.9427 0.9431 0.9433 0.9434
2226.648946 0.9435 0.9436 0.9437 0.9438 0.9438
2221.666766 0.9437 0.9428 0.9426 0.9426 0.9427
2216.684586 0.9427 0.9427 0.9427 0.9427 0.9427
2211.702406 0.9427 0.9425 0.9422 0.9420 0.9417
2206.720226 0.9413 0.9410 0.9407 0.9405 0.9403
2201.738046 0.9402 0.9400 0.9399 0.9399 0.9399
2196.755866 0.9399 0.9397 0.9390 0.9396 0.9396
2191.773686 0.9388 0.9384 0.9385 0.9386 0.9386
2186.791506 0.9385 0.9385 0.9385 0.9391 0.9392
2181.809326 0.9387 0.9386 0.9387 0.9388 0.9398
2176.827146 0.9403 0.9405 0.9406 0.9407 0.9407
2171.844966 0.9408 0.9409 0.9410 0.9409 0.9400
2166.862786 0.9398 0.9399 0.9399 0.9400 0.9401
2161.880606 0.9402 0.9402 0.9403 0.9403 0.9404
2156.898426 0.9405 0.9406 0.9406 0.9407 0.9408
2151.916246 0.9409 0.9409 0.9410 0.9411 0.9412
2146.934066 0.9412 0.9412 0.9413 0.9415 0.9415
2141.951886 0.9416 0.9417 0.9418 0.9419 0.9419
2136.969706 0.9421 0.9423 0.9423 0.9423 0.9424
2131.987526 0.9426 0.9427 0.9428 0.9429 0.9430
2127.005346 0.9430 0.9431 0.9432 0.9433 0.9433
2122.023166 0.9426 0.9429 0.9434 0.9435 0.9435
2117.040986 0.9434 0.9433 0.9432 0.9431 0.9430
2112.058806 0.9428 0.9427 0.9425 0.9423 0.9422
2107.076626 0.9421 0.9420 0.9418 0.9417 0.9416
2102.094446 0.9413 0.9411 0.9409 0.9407 0.9399
2097.112266 0.9391 0.9395 0.9399 0.9391 0.9392
2092.130086 0.9394 0.9393 0.9391 0.9389 0.9387
2087.147906 0.9385 0.9383 0.9382 0.9380 0.9375
2082.165726 0.9367 0.9359 0.9351 0.9330 0.9302
2077.183546 0.9275 0.9251 0.9228 0.9206 0.9183
2072.201366 0.9158 0.9139 0.9122 0.9107 0.9093
2067.219186 0.9078 0.9064 0.9054 0.9047 0.9043
2062.237006 0.9042 0.9041 0.9039 0.9037 0.9035
2057.254826 0.9037 0.9045 0.9049 0.9050 0.9056
2052.272646 0.9061 0.9073 0.9097 0.9113 0.9124
2047.290466 0.9137 0.9155 0.9173 0.9192 0.9209
2042.308286 0.9225 0.9236 0.9241 0.9246 0.9251
2037.326106 0.9255 0.9260 0.9262 0.9260 0.9258
2032.343926 0.9256 0.9254 0.9250 0.9244 0.9238
2027.361746 0.9235 0.9225 0.9217 0.9218 0.9219
2022.379566 0.9221 0.9222 0.9223 0.9225 0.9225
2017.397386 0.9226 0.9228 0.9230 0.9234 0.9239
2012.415206 0.9244 0.9248 0.9253 0.9257 0.9262
2007.433026 0.9266 0.9270 0.9275 0.9280 0.9287
2002.450846 0.9296 0.9306 0.9319 0.9325 0.9322
1997.468666 0.9313 0.9306 0.9304 0.9301 0.9297
1992.486486 0.9294 0.9290 0.9283 0.9272 0.9262
1987.504307 0.9252 0.9238 0.9224 0.9216 0.9208
1982.522127 0.9195 0.9178 0.9162 0.9142 0.9113
1977.539947 0.9085 0.9065 0.9045 0.9021 0.9000
1972.557767 0.8988 0.8983 0.8980 0.8982 0.8996
1967.575587 0.9017 0.9049 0.9086 0.9117 0.9172
1962.593407 0.9244 0.9311 0.9374 0.9416 0.9388
1957.611227 0.9298 0.9208 0.9140 0.9115 0.9113
1952.629047 0.9117 0.9123 0.9128 0.9127 0.9121
1947.646867 0.9123 0.9124 0.9125 0.9127 0.9128
1942.664687 0.9128 0.9128 0.9127 0.9126 0.9126
1937.682507 0.9125 0.9123 0.9118 0.9112 0.9105
1932.700327 0.9100 0.9085 0.9056 0.9022 0.8975
1927.718147 0.8927 0.8877 0.8821 0.8764 0.8711
1922.735967 0.8667 0.8628 0.8600 0.8574 0.8548
1917.753787 0.8513 0.8526 0.8524 0.8523 0.8529
1912.771607 0.8562 0.8618 0.8664 0.8711 0.8757
1907.789427 0.8797 0.8838 0.8870 0.8892 0.8908
1902.807247 0.8924 0.8939 0.8954 0.8967 0.8971
1897.825067 0.8977 0.8982 0.8986 0.8992 0.9002
1892.842887 0.9027 0.9003 0.8994 0.8976 0.8944
1887.860707 0.8908 0.8875 0.8804 0.8728 0.8658
1882.878527 0.8586 0.8510 0.8431 0.8353 0.8291
1877.896347 0.8275 0.8272 0.8279 0.8289 0.8308
1872.914167 0.8376 0.8440 0.8506 0.8574 0.8641
1867.931987 0.8707 0.8773 0.8840 0.8907 0.8970
1862.949807 0.8995 0.9014 0.9034 0.9053 0.9071
1857.967627 0.9086 0.9110 0.9108 0.9104 0.9104
1852.985447 0.9103 0.9102 0.9099 0.9094 0.9087
1848.003267 0.9082 0.9075 0.9062 0.9050 0.9033
1843.021087 0.9011 0.8990 0.8959 0.8918 0.8874
1838.038907 0.8710 0.8754 0.8746 0.8736 0.8751
1833.056727 0.8775 0.8799 0.8841 0.8890 0.8925
1828.074547 0.8952 0.8980 0.9009 0.9020 0.9032
1823.092367 0.9043 0.9054 0.9064 0.9074 0.9096
1818.110187 0.9109 0.9118 0.9129 0.9138 0.9150
1813.128007 0.9160 0.9166 0.9171 0.9165 0.9151
1808.145827 0.9132 0.9119 0.9107 0.9094 0.9075
1803.163647 0.9058 0.9048 0.9039 0.9030 0.9023
1798.181467 0.9017 0.9010 0.9006 0.9003 0.9002
1793.199287 0.9002 0.9010 0.9023 0.9036 0.9048
1788.217107 0.9057 0.9068 0.9078 0.9088 0.9097
1783.234927 0.9105 0.9111 0.9116 0.9119 0.9123
1778.252747 0.9127 0.9134 0.9135 0.9133 0.9134
1773.270567 0.9135 0.9152 0.9129 0.9096 0.9058
1768.288387 0.9009 0.8959 0.8909 0.8860 0.8811
1763.306207 0.8762 0.8714 0.8666 0.8618 0.8560
1758.324027 0.8498 0.8424 0.8350 0.8287 0.8224
1753.341847 0.8236 0.8251 0.8255 0.8276 0.8334
1748.359667 0.8410 0.8483 0.8551 0.8608 0.8659
1743.377487 0.8702 0.8736 0.8770 0.8803 0.8833
1738.395307 0.8864 0.8893 0.8922 0.8946 0.8966
1733.413127 0.8986 0.9003 0.9017 0.9029 0.9038
1728.430947 0.9042 0.9045 0.9048 0.9051 0.9054
1723.448767 0.9057 0.9061 0.9064 0.9067 0.9070
1718.466587 0.9074 0.9079 0.9104 0.9104 0.9085
1713.484407 0.9079 0.9064 0.9048 0.9033 0.9019
1708.502228 0.9006 0.8994 0.8985 0.8976 0.8967
1703.520048 0.8958 0.8951 0.8948 0.8947 0.8947
1698.537868 0.8948 0.8947 0.8946 0.8945 0.8944
1693.555688 0.8943 0.8940 0.8936 0.8931 0.8927
1688.573508 0.8914 0.8889 0.8860 0.8826 0.8792
1683.591328 0.8756 0.8716 0.8688 0.8676 0.8664
1678.609148 0.8634 0.8576 0.8521 0.8481 0.8449
1673.626968 0.8420 0.8402 0.8387 0.8371 0.8358
1668.644788 0.8344 0.8326 0.8307 0.8285 0.8255
1663.662608 0.8218 0.8178 0.8124 0.8045 0.7972
1658.680428 0.7896 0.7825 0.7748 0.7671 0.7616
1653.698248 0.7583 0.7544 0.7506 0.7467 0.7348
1648.716068 0.7069 0.6774 0.6435 0.5946 0.5267
1643.733888 0.4437 0.3915 0.3326 0.2732 0.2137
1638.751708 0.1542 0.0946 0.0417 0.0167 0.0136
1633.769528 0.0124 0.0120 0.0120 0.0124 0.0141
1628.787348 0.0171 0.0242 0.0330 0.0466 0.0589
1623.805168 0.0703 0.0833 0.1021 0.1279 0.1537
1618.822988 0.1799 0.2061 0.2323 0.2588 0.2854
1613.840808 0.3123 0.3396 0.3669 0.3948 0.4208
1608.858628 0.4324 0.4365 0.4342 0.4290 0.4178
1603.876448 0.4136 0.4113 0.4086 0.4081 0.4094
1598.894268 0.4123 0.4152 0.4176 0.4120 0.3958
1593.912088 0.3792 0.3621 0.3447 0.3268 0.3082
1588.929908 0.2905 0.2873 0.2894 0.2907 0.2962
1583.947728 0.3167 0.3455 0.3744 0.4030 0.4322
1578.965548 0.4611 0.4899 0.5197 0.5489 0.5789
1573.983368 0.5977 0.6117 0.6236 0.6357 0.6459
1569.001188 0.6553 0.6633 0.6717 0.6805 0.6894
1564.019008 0.6981 0.7055 0.7123 0.7191 0.7246
1559.036828 0.7298 0.7349 0.7378 0.7369 0.7370
1554.054648 0.7388 0.7397 0.7401 0.7418 0.7430
1549.072468 0.7417 0.7375 0.7329 0.7310 0.7307
1544.090288 0.7289 0.7259 0.7208 0.7160 0.7116
1539.108108 0.7053 0.6969 0.6862 0.6751 0.6640
1534.125928 0.6534 0.6414 0.6271 0.5713 0.5001
1529.143748 0.4295 0.3606 0.2927 0.2264 0.1807
1524.161568 0.1573 0.1127 0.0798 0.0597 0.0454
1519.179388 0.0372 0.0321 0.0283 0.0248 0.0214
1514.197208 0.0182 0.0151 0.0127 0.0113 0.0104
1509.215028 0.0098 0.0092 0.0086 0.0080 0.0064
1504.232848 0.0079 0.0098 0.0125 0.0173 0.0239
1499.250668 0.0471 0.0952 0.1492 0.2027 0.2560
1494.268488 0.3088 0.3613 0.4137 0.4497 0.4706
1489.286308 0.4874 0.5032 0.5107 0.5156 0.5291
1484.304128 0.5559 0.5876 0.6200 0.6524 0.6835
1479.321948 0.7127 0.7256 0.7268 0.7251 0.7228
1474.339768 0.7183 0.6811 0.6172 0.5479 0.4787
1469.357588 0.4193 0.3971 0.3959 0.3997 0.4184
1464.375408 0.4443 0.4701 0.4958 0.5216 0.5478
1459.393228 0.5739 0.5933 0.6006 0.6014 0.5994
1454.411048 0.5950 0.5923 0.5921 0.6008 0.6329
1449.428868 0.6777 0.7228 0.7676 0.8122 0.8376
1444.446688 0.8471 0.8557 0.8635 0.8705 0.8758
1439.464508 0.8804 0.8851 0.8895 0.8933 0.8960
1434.482328 0.8982 0.9004 0.9024 0.9047 0.9062
1429.500149 0.9067 0.9070 0.9072 0.9080 0.9087
1424.517969 0.9081 0.9072 0.9068 0.9069 0.9071
1419.535789 0.9074 0.9078 0.9082 0.9089 0.9097
1414.553609 0.9103 0.9110 0.9114 0.9114 0.9113
1409.571429 0.9110 0.9100 0.9078 0.9048 0.9004
1404.589249 0.8951 0.8899 0.8845 0.8790 0.8719
1399.607069 0.8619 0.8534 0.8488 0.8441 0.8397
1394.624889 0.8383 0.8400 0.8408 0.8452 0.8566
1389.642709 0.8719 0.8853 0.8969 0.9070 0.9173
1384.660529 0.9253 0.9278 0.9281 0.9283 0.9288
1379.678349 0.9298 0.9314 0.9338 0.9360 0.9372
1374.696169 0.9374 0.9382 0.9391 0.9398 0.9399
1369.713989 0.9400 0.9403 0.9409 0.9411 0.9412
1364.731809 0.9407 0.9401 0.9396 0.9390 0.9382
1359.749629 0.9367 0.9352 0.9337 0.9319 0.9290
1354.767449 0.9268 0.9245 0.9222 0.9198 0.9172
1349.785269 0.9145 0.9117 0.9087 0.9053 0.9007
1344.803089 0.8963 0.8918 0.8865 0.8778 0.8691
1339.820909 0.8602 0.8521 0.8438 0.8335 0.8212
1334.838729 0.8014 0.7796 0.7659 0.7397 0.6610
1329.856549 0.5769 0.4962 0.4484 0.4463 0.4485
1324.874369 0.4570 0.4774 0.4974 0.5173 0.5377
1319.892189 0.5580 0.5783 0.5988 0.6195 0.6403
1314.910009 0.6596 0.6661 0.6678 0.6672 0.6637
1309.927829 0.6486 0.5319 0.3814 0.2307 0.0878
1304.945649 0.0717 0.0729 0.0704 0.0776 0.0969
1299.963469 0.1306 0.1644 0.1982 0.2321 0.2660
1294.981289 0.3001 0.3340 0.3678 0.4016 0.4351
1289.999109 0.4686 0.5025 0.5363 0.5702 0.6039
1285.016929 0.6378 0.6692 0.6742 0.6754 0.6739
1280.034749 0.6704 0.6460 0.5472 0.4455 0.3443
1275.052569 0.2424 0.1405 0.0572 0.0512 0.0508
1270.070389 0.0549 0.0950 0.1419 0.1891 0.2367
1265.088209 0.2838 0.3313 0.3789 0.4263 0.4735
1260.106029 0.5209 0.5682 0.6155 0.6629 0.6941
1255.123849 0.7062 0.7175 0.7296 0.7443 0.7560
1250.141669 0.7647 0.7721 0.7791 0.7853 0.7906
1245.159489 0.7950 0.7984 0.8010 0.8023 0.8032
1240.177309 0.8038 0.8050 0.8067 0.8077 0.8087
1235.195129 0.8095 0.8103 0.8116 0.8127 0.8133
1230.212949 0.8124 0.8126 0.8112 0.8082 0.8043
1225.230769 0.7971 0.7891 0.7716 0.7524 0.7351
1220.248589 0.7211 0.7076 0.6932 0.6785 0.6599
1215.266409 0.6366 0.5536 0.4548 0.3582 0.2612
1210.284229 0.1641 0.0706 0.0297 0.0134 0.0077
1205.302049 0.0063 0.0060 0.0059 0.0075 0.0170
1200.319869 0.0390 0.0652 0.0913 0.1113 0.1184
1195.337689 0.1116 0.1005 0.0895 0.0785 0.0727
1190.355509 0.0700 0.1006 0.1630 0.2329 0.3028
1185.373329 0.3727 0.4425 0.4968 0.5844 0.6397
1180.391149 0.6597 0.6829 0.7038 0.7202 0.7330
1175.408969 0.7435 0.7536 0.7640 0.7746 0.7853
1170.426789 0.7960 0.8067 0.8174 0.8280 0.8348
1165.444609 0.8377 0.8391 0.8386 0.8378 0.8378
1160.462429 0.8363 0.8335 0.8286 0.7955 0.7390
1155.480249 0.6824 0.6259 0.5694 0.5384 0.5345
1150.498069 0.5352 0.5458 0.5724 0.6075 0.6429
1145.515890 0.6783 0.7138 0.7487 0.7827 0.8016
1140.533710 0.8037 0.8049 0.8062 0.8068 0.7996
1135.551530 0.7695 0.6840 0.5531 0.4722 0.4622
1130.569350 0.4624 0.4628 0.4780 0.5178 0.5602
1125.587170 0.6027 0.6451 0.6869 0.7272 0.7585
1120.604990 0.7756 0.7884 0.7999 0.8104 0.8198
1115.622810 0.8284 0.8351 0.8414 0.8475 0.8531
1110.640630 0.8581 0.8632 0.8678 0.8721 0.8766
1105.658450 0.8803 0.8846 0.8888 0.8925 0.8957
1100.676270 0.8987 0.9010 0.9023 0.9034 0.9043
1095.694090 0.9053 0.9064 0.9071 0.9064 0.9062
1090.711910 0.9059 0.9057 0.9055 0.9050 0.9037
1085.729730 0.9025 0.9013 0.8999 0.8984 0.8963
1080.747550 0.8939 0.8922 0.8896 0.8860 0.8825
1075.765370 0.8780 0.8739 0.8695 0.8643 0.8588
1070.783190 0.8521 0.8444 0.8345 0.8169 0.8016
1065.801010 0.7862 0.7709 0.7555 0.7415 0.7343
1060.818830 0.7324 0.7317 0.7322 0.7350 0.7440
1055.836650 0.7633 0.7740 0.7849 0.7956 0.8064
1050.854470 0.8175 0.8291 0.8399 0.8505 0.8610
1045.872290 0.8690 0.8734 0.8784 0.8835 0.8868
1040.890110 0.8888 0.8890 0.8870 0.8822 0.8736
1035.907930 0.8638 0.8490 0.8367 0.8255 0.8145
1030.925750 0.8046 0.7896 0.7382 0.6870 0.6355
1025.943570 0.5838 0.5342 0.5288 0.5283 0.5279
1020.961390 0.5288 0.5323 0.5624 0.6137 0.6650
1015.979210 0.7162 0.7673 0.8186 0.8669 0.8772
1010.997030 0.8860 0.8912 0.8964 0.9006 0.9049
1006.014850 0.9081 0.9114 0.9124 0.9135 0.9147
1001.032670 0.9158 0.9170 0.9179 0.9186 0.9186
996.050490 0.9195 0.9205 0.9216 0.9225 0.9240
991.068310 0.9257 0.9266 0.9276 0.9284 0.9292
986.086130 0.9298 0.9305 0.9311 0.9320 0.9321
981.103950 0.9320 0.9320 0.9321 0.9320 0.9314
976.121770 0.9309 0.9303 0.9298 0.9289 0.9270
971.139590 0.9262 0.9246 0.9227 0.9210 0.9196
966.157410 0.9182 0.9168 0.9156 0.9146 0.9137
961.175230 0.9127 0.9117 0.9108 0.9100 0.9093
956.193050 0.9086 0.9078 0.9071 0.9064 0.9059
951.210870 0.9054 0.9048 0.9043 0.9038 0.9031
946.228690 0.9023 0.9014 0.9004 0.8991 0.8976
941.246510 0.8962 0.8948 0.8934 0.8919 0.8902
936.264330 0.8886 0.8871 0.8853 0.8831 0.8807
931.282150 0.8783 0.8746 0.8699 0.8644 0.8583
926.299970 0.8519 0.8436 0.8344 0.8236 0.8117
921.317790 0.7569 0.6404 0.5044 0.4155 0.3932
916.335610 0.3932 0.3933 0.4362 0.5024 0.5697
911.353430 0.6373 0.7046 0.7718 0.8223 0.8440
906.371250 0.8529 0.8606 0.8668 0.8701 0.8723
901.389070 0.8732 0.8762 0.8750 0.8728 0.8726
896.406890 0.8725 0.8721 0.8720 0.8715 0.8713
891.424710 0.8710 0.8698 0.8685 0.8673 0.8655
886.442530 0.8634 0.8613 0.8589 0.8555 0.8510
881.460350 0.8465 0.8420 0.8363 0.8300 0.8236
876.478170 0.8171 0.8111 0.8055 0.7999 0.7943
871.495990 0.7883 0.7824 0.7763 0.7691 0.7613
866.513811 0.7531 0.7436 0.7299 0.7058 0.6743
861.531631 0.6423 0.6103 0.5779 0.5449 0.5167
856.549451 0.5037 0.5020 0.5011 0.5028 0.5083
851.567271 0.5135 0.5214 0.5349 0.5492 0.5631
846.585091 0.5764 0.5896 0.6027 0.6155 0.6261
841.602911 0.6306 0.6323 0.6361 0.6415 0.6469
836.620731 0.6530 0.6594 0.6685 0.6796 0.6903
831.638551 0.7015 0.7129 0.7244 0.7359 0.7458
826.656371 0.7524 0.7565 0.7609 0.7655 0.7699
821.674191 0.7739 0.7770 0.7798 0.7824 0.7850
816.692011 0.7877 0.7904 0.7920 0.7931 0.7952
811.709831 0.7975 0.7958 0.7958 0.7957 0.7943
806.727651 0.7930 0.7926 0.7920 0.7903 0.7881
801.745471 0.7856 0.7827 0.7797 0.7767 0.7738
796.763291 0.7705 0.7665 0.7624 0.7576 0.7534
791.781111 0.7495 0.7458 0.7411 0.7368 0.7326
786.798931 0.7284 0.7233 0.7166 0.7096 0.7024
781.816751 0.6953 0.6876 0.6787 0.6705 0.6618
776.834571 0.6531 0.6436 0.6269 0.6083 0.5878
771.852391 0.5448 0.5167 0.4786 0.4212 0.3481
766.870211 0.2753 0.2023 0.1292 0.0628 0.0456
761.888031 0.0486 0.0624 0.0951 0.1279 0.1607
756.905851 0.1918 0.2043 0.2050 0.2041 0.1887
751.923671 0.1575 0.1262 0.0948 0.0635 0.0325
746.941491 0.0073 0.0043 0.0014 0.0001 0.0003
741.959311 0.0004 0.0011 0.0002 0.0001 0.0031
736.977131 0.0106 0.0303 0.0742 0.1181 0.1620
731.994951 0.2059 0.2499 0.2941 0.3381 0.3822
727.012771 0.4260 0.4703 0.5125 0.5410 0.5565
722.030591 0.5700 0.5800 0.5896 0.5974 0.6033
717.048411 0.6099 0.6161 0.6220 0.6289 0.6346
712.066231 0.6400 0.6451 0.6497 0.6525 0.6546
707.084051 0.6560 0.6573 0.6580 0.6586 0.6594
702.101871 0.6595 0.6594 0.6590 0.6581 0.6567
697.119691 0.6546 0.6524 0.6488 0.6442 0.6388
692.137511 0.6332 0.6267 0.6198 0.6114 0.6043
687.155331 0.5999 0.5985 0.6050 0.6113 0.6146
682.173151 0.6158 0.6146 0.6136 0.6098 0.6061
677.190971 0.6001 0.5956 0.5958 0.5995 0.6044
672.208791 0.6074 0.6091 0.6112 0.6168 0.6217
667.226611 0.6182 0.6128 0.6106 0.6091 0.6060
662.244431 0.6022 0.5976 0.5930 0.5884 0.5833
657.262251 0.5788 0.5742 0.5690 0.5636 0.5599
652.280071 0.5583 0.5580 0.5566 0.5559 0.5557
647.297891 0.5553 0.5546 0.5543 0.5541 0.5535
642.315711 0.5532 0.5529 0.5523 0.5520 0.5517
637.333531 0.5511 0.5512 0.5515 0.5512 0.5511
632.351351 0.5512 0.5507 0.5505 0.5507 0.5505
627.369171 0.5504 0.5501 0.5500 0.5503 0.5500
622.386991 0.5500 0.5503 0.5505 0.5509 0.5515
617.404811 0.5519 0.5518 0.5518 0.5519 0.5517
612.422631 0.5516 0.5517 0.5517 0.5518 0.5519
607.440451 0.5517 0.5513 0.5513 0.5512 0.5511
602.458271 0.5509 0.5507 0.5506 0.5504 0.5503
597.476091 0.5501 0.5492 0.5490 0.5495 0.5492
592.493911 0.5487 0.5482 0.5478 0.5473 0.5468
587.511732 0.5451 0.5421 0.5390 0.5353 0.5315
582.529552 0.5282 0.5251 0.5218 0.5184 0.5149
577.547372 0.5113 0.5084 0.5066 0.5053 0.5047
572.565192 0.5041 0.5046 0.5067 0.5092 0.5120
567.583012 0.5144 0.5166 0.5197 0.5226 0.5255
562.600832 0.5299 0.5346 0.5374 0.5382 0.5374
557.618652 0.5321 0.5201 0.5070 0.4938 0.4807
552.636472 0.4691 0.4628 0.4623 0.4630 0.4650
547.654292 0.4687 0.4706 0.4713 0.4717 0.4719
542.672112 0.4715 0.4705 0.4688 0.4659 0.4634
537.689932 0.4623 0.4620 0.4657 0.4678 0.4701
532.707752 0.4726 0.4748 0.4770 0.4791 0.4809
527.725572 0.4825 0.4843 0.4864 0.4882 0.4899
522.743392 0.4913 0.4918 0.4923 0.4927 0.4928
517.761212 0.4929 0.4930 0.4931 0.4932 0.4933
512.779032 0.4934 0.4935 0.4935 0.4933 0.4931
507.796852 0.4926 0.4917 0.4909 0.4901 0.4891
502.814672 0.4884 0.4878 0.4873 0.4873 0.4887
497.832492 0.4901 0.4913 0.4926 0.4938 0.4952
492.850312 0.4964 0.4978 0.4991 0.5006 0.5020
487.868132 0.5034 0.5048 0.5061 0.5076 0.5089
482.885952 0.5101 0.5114 0.5127 0.5140 0.5146
477.903772 0.5165 0.5178 0.5191 0.5203 0.5217
472.921592 0.5232 0.5245 0.5259 0.5273 0.5287
467.939412 0.5302 0.5315 0.5329 0.5343 0.5361
462.957232 0.5378 0.5395 0.5411 0.5429 0.5445
457.975052 0.5461 0.5478 0.5495 0.5514 0.5532
452.992872 0.5550 0.5568
##END=
