##TITLE=3,5-Xylenol, Aplha,Aplha,Aplha,Aplha',Aplha',Aplha'-hexafluoro-
##JCAMP-DX=4.24
$$ By DXEDIT 1.05 (RS McDonald)
##DATA TYPE=INFRARED SPECTRUM
##CLASS=COBLENTZ III
##ORIGIN=DOW CHEMICAL COMPANY
##OWNER=COPYRIGHT (C) 1988 by COBLENTZ SOCIETY INC.
Collection (C) 2018 copyright by the U.S. Secretary of Commerce
on behalf of the United States of America. All rights reserved.
##DATE=1965/01/27
##NAMES=3,5-bis(trifluoromethyl)phenol
##CAS REGISTRY NO=349-58-6
##MOLFORM=C8 H4 F6 O
##SOURCE REFERENCE=COBLENTZ NO. 08557
##$NIST SOURCE=COBLENTZ
##$NIST IMAGE=cob8557
##SPECTROMETER/DATA SYSTEM=BECKMAN IR-9 (GRATING)
##INSTRUMENT PARAMETERS=ORDER CHANGES: 670, 1200, 2000 CM^-^1
##STATE=LIQUID (NEAT)
$$ SPECTRUM CONFIRMED WITH COMPOUND FROM SAME COMPANY
##PATH LENGTH=CAPILLARY
$$SPECTRAL CONTAMINATION DUE TO H2O AROUND 3690 CM^-^1
##SAMPLING PROCEDURE=TRANSMISSION
##RESOLUTION=2
##DATA PROCESSING=DIGITIZED BY COBLENTZ SOCIETY (BATCH I) FROM HARD COPY
##XUNITS=1/CM
##YUNITS=TRANSMITTANCE
##XFACTOR=1
##YFACTOR=1
##DELTAX=1
##FIRSTX=3800
##LASTX=405
##FIRSTY=0.7946
##MAXX=3800
##MINX=405
##MAXY=0.8575
##MINY=0.001
##NPOINTS=3396
##XYDATA=(X++(Y..Y))
3800.000000 0.7946 0.7946 0.7946 0.7945 0.7944
3795.000000 0.7943 0.7942 0.7941 0.7940 0.7939
3790.000000 0.7931 0.7937 0.7936 0.7935 0.7935
3785.000000 0.7935 0.7935 0.7934 0.7934 0.7934
3780.000000 0.7934 0.7934 0.7934 0.7934 0.7935
3775.000000 0.7935 0.7935 0.7935 0.7936 0.7936
3770.000000 0.7936 0.7936 0.7937 0.7937 0.7938
3765.000000 0.7938 0.7938 0.7938 0.7939 0.7939
3760.000000 0.7940 0.7940 0.7940 0.7940 0.7940
3755.000000 0.7940 0.7940 0.7940 0.7940 0.7939
3750.000000 0.7938 0.7936 0.7934 0.7932 0.7930
3745.000000 0.7925 0.7921 0.7915 0.7908 0.7901
3740.000000 0.7895 0.7888 0.7882 0.7871 0.7861
3735.000000 0.7851 0.7841 0.7830 0.7819 0.7806
3730.000000 0.7792 0.7775 0.7761 0.7745 0.7730
3725.000000 0.7711 0.7693 0.7668 0.7646 0.7619
3720.000000 0.7594 0.7567 0.7540 0.7512 0.7487
3715.000000 0.7461 0.7436 0.7410 0.7384 0.7360
3710.000000 0.7337 0.7312 0.7290 0.7268 0.7247
3705.000000 0.7225 0.7204 0.7186 0.7168 0.7153
3700.000000 0.7137 0.7126 0.7117 0.7111 0.7106
3695.000000 0.7103 0.7100 0.7099 0.7099 0.7099
3690.000000 0.7099 0.7099 0.7099 0.7099 0.7099
3685.000000 0.7104 0.7108 0.7125 0.7142 0.7165
3680.000000 0.7191 0.7215 0.7240 0.7264 0.7288
3675.000000 0.7307 0.7325 0.7342 0.7358 0.7368
3670.000000 0.7378 0.7385 0.7393 0.7393 0.7394
3665.000000 0.7391 0.7425 0.7386 0.7384 0.7378
3660.000000 0.7374 0.7365 0.7358 0.7350 0.7343
3655.000000 0.7333 0.7322 0.7310 0.7297 0.7284
3650.000000 0.7271 0.7253 0.7236 0.7210 0.7185
3645.000000 0.7149 0.7114 0.7069 0.7026 0.6965
3640.000000 0.6903 0.6714 0.6525 0.6310 0.6095
3635.000000 0.5880 0.5665 0.5449 0.5234 0.5019
3630.000000 0.4804 0.4589 0.4374 0.4158 0.3943
3625.000000 0.3728 0.3512 0.3477 0.3421 0.3432
3620.000000 0.3426 0.3426 0.3427 0.3438 0.3449
3615.000000 0.3466 0.3484 0.3503 0.3523 0.3544
3610.000000 0.3564 0.3586 0.3607 0.3639 0.3672
3605.000000 0.3705 0.3738 0.3772 0.3807 0.3857
3600.000000 0.3907 0.4076 0.4245 0.4383 0.4521
3595.000000 0.4659 0.4797 0.4935 0.5073 0.5210
3590.000000 0.5349 0.5487 0.5625 0.5762 0.5901
3585.000000 0.5936 0.5972 0.6000 0.6029 0.6052
3580.000000 0.6075 0.6089 0.6103 0.6112 0.6117
3575.000000 0.6124 0.6127 0.6128 0.6128 0.6128
3570.000000 0.6127 0.6125 0.6123 0.6120 0.6117
3565.000000 0.6103 0.6089 0.6074 0.6060 0.6037
3560.000000 0.6015 0.5992 0.5970 0.5947 0.5925
3555.000000 0.5900 0.5876 0.5843 0.5810 0.5778
3550.000000 0.5746 0.5712 0.5681 0.5648 0.5616
3545.000000 0.5586 0.5557 0.5531 0.5505 0.5479
3540.000000 0.5454 0.5428 0.5403 0.5377 0.5352
3535.000000 0.5325 0.5299 0.5272 0.5245 0.5218
3530.000000 0.5191 0.5164 0.5137 0.5112 0.5087
3525.000000 0.5067 0.5047 0.5027 0.5007 0.4987
3520.000000 0.4967 0.4947 0.4927 0.4907 0.4887
3515.000000 0.4867 0.4847 0.4825 0.4804 0.4782
3510.000000 0.4760 0.4739 0.4718 0.4696 0.4675
3505.000000 0.4655 0.4635 0.4617 0.4599 0.4581
3500.000000 0.4562 0.4545 0.4527 0.4509 0.4491
3495.000000 0.4476 0.4462 0.4449 0.4436 0.4423
3490.000000 0.4410 0.4397 0.4385 0.4372 0.4359
3485.000000 0.4346 0.4333 0.4320 0.4307 0.4296
3480.000000 0.4285 0.4274 0.4262 0.4252 0.4241
3475.000000 0.4230 0.4219 0.4207 0.4196 0.4185
3470.000000 0.4174 0.4166 0.4158 0.4152 0.4146
3465.000000 0.4140 0.4135 0.4129 0.4124 0.4119
3460.000000 0.4115 0.4112 0.4109 0.4106 0.4103
3455.000000 0.4099 0.4096 0.4093 0.4090 0.4088
3450.000000 0.4087 0.4086 0.4086 0.4084 0.4084
3445.000000 0.4082 0.4082 0.4082 0.4082 0.4082
3440.000000 0.4082 0.4084 0.4084 0.4084 0.4086
3435.000000 0.4087 0.4088 0.4088 0.4089 0.4089
3430.000000 0.4090 0.4091 0.4093 0.4096 0.4100
3425.000000 0.4103 0.4106 0.4109 0.4112 0.4115
3420.000000 0.4119 0.4123 0.4128 0.4133 0.4138
3415.000000 0.4143 0.4148 0.4152 0.4157 0.4162
3410.000000 0.4167 0.4172 0.4177 0.4182 0.4188
3405.000000 0.4194 0.4201 0.4208 0.4215 0.4222
3400.000000 0.4229 0.4235 0.4242 0.4249 0.4256
3395.000000 0.4262 0.4270 0.4277 0.4285 0.4292
3390.000000 0.4300 0.4308 0.4316 0.4324 0.4332
3385.000000 0.4340 0.4348 0.4356 0.4364 0.4372
3380.000000 0.4380 0.4387 0.4395 0.4404 0.4412
3375.000000 0.4422 0.4432 0.4442 0.4452 0.4462
3370.000000 0.4472 0.4481 0.4491 0.4501 0.4510
3365.000000 0.4521 0.4531 0.4540 0.4550 0.4560
3360.000000 0.4570 0.4580 0.4590 0.4600 0.4610
3355.000000 0.4622 0.4633 0.4643 0.4654 0.4664
3350.000000 0.4675 0.4686 0.4697 0.4707 0.4718
3345.000000 0.4728 0.4739 0.4750 0.4760 0.4771
3340.000000 0.4782 0.4792 0.4803 0.4814 0.4825
3335.000000 0.4836 0.4848 0.4859 0.4870 0.4881
3330.000000 0.4892 0.4903 0.4914 0.4925 0.4936
3325.000000 0.4947 0.4958 0.4969 0.4981 0.4992
3320.000000 0.5003 0.5014 0.5025 0.5036 0.5047
3315.000000 0.5058 0.5069 0.5080 0.5091 0.5101
3310.000000 0.5112 0.5123 0.5134 0.5144 0.5155
3305.000000 0.5166 0.5177 0.5187 0.5198 0.5209
3300.000000 0.5220 0.5231 0.5242 0.5253 0.5265
3295.000000 0.5276 0.5288 0.5300 0.5312 0.5323
3290.000000 0.5335 0.5346 0.5358 0.5370 0.5382
3285.000000 0.5393 0.5405 0.5416 0.5428 0.5440
3280.000000 0.5452 0.5462 0.5475 0.5486 0.5498
3275.000000 0.5509 0.5521 0.5532 0.5544 0.5555
3270.000000 0.5567 0.5578 0.5590 0.5601 0.5612
3265.000000 0.5624 0.5636 0.5647 0.5659 0.5670
3260.000000 0.5682 0.5693 0.5705 0.5717 0.5729
3255.000000 0.5741 0.5754 0.5766 0.5778 0.5790
3250.000000 0.5803 0.5815 0.5828 0.5840 0.5852
3245.000000 0.5864 0.5877 0.5889 0.5902 0.5914
3240.000000 0.5926 0.5937 0.5948 0.5959 0.5970
3235.000000 0.5981 0.5992 0.6002 0.6012 0.6024
3230.000000 0.6035 0.6046 0.6057 0.6068 0.6079
3225.000000 0.6089 0.6100 0.6110 0.6120 0.6130
3220.000000 0.6140 0.6150 0.6160 0.6170 0.6180
3215.000000 0.6190 0.6200 0.6210 0.6220 0.6230
3210.000000 0.6240 0.6250 0.6260 0.6270 0.6281
3205.000000 0.6291 0.6302 0.6312 0.6323 0.6333
3200.000000 0.6344 0.6354 0.6365 0.6375 0.6386
3195.000000 0.6396 0.6407 0.6418 0.6428 0.6439
3190.000000 0.6450 0.6461 0.6471 0.6483 0.6495
3185.000000 0.6506 0.6517 0.6528 0.6539 0.6550
3180.000000 0.6561 0.6571 0.6583 0.6593 0.6604
3175.000000 0.6614 0.6625 0.6634 0.6643 0.6651
3170.000000 0.6661 0.6668 0.6678 0.6686 0.6694
3165.000000 0.6700 0.6706 0.6711 0.6718 0.6721
3160.000000 0.6725 0.6730 0.6735 0.6739 0.6743
3155.000000 0.6747 0.6751 0.6755 0.6760 0.6764
3150.000000 0.6768 0.6771 0.6774 0.6775 0.6778
3145.000000 0.6782 0.6805 0.6787 0.6790 0.6792
3140.000000 0.6795 0.6797 0.6800 0.6801 0.6804
3135.000000 0.6806 0.6808 0.6811 0.6814 0.6815
3130.000000 0.6818 0.6818 0.6819 0.6819 0.6821
3125.000000 0.6815 0.6808 0.6797 0.6786 0.6778
3120.000000 0.6771 0.6764 0.6758 0.6751 0.6745
3115.000000 0.6738 0.6732 0.6726 0.6722 0.6718
3110.000000 0.6715 0.6710 0.6706 0.6701 0.6698
3105.000000 0.6693 0.6689 0.6684 0.6678 0.6674
3100.000000 0.6668 0.6664 0.6660 0.6656 0.6648
3095.000000 0.6651 0.6651 0.6651 0.6656 0.6658
3090.000000 0.6662 0.6665 0.6669 0.6675 0.6682
3085.000000 0.6691 0.6701 0.6710 0.6719 0.6731
3080.000000 0.6743 0.6755 0.6767 0.6789 0.6811
3075.000000 0.6843 0.6875 0.6908 0.6944 0.6978
3070.000000 0.7011 0.7046 0.7080 0.7118 0.7157
3065.000000 0.7197 0.7237 0.7265 0.7293 0.7321
3060.000000 0.7349 0.7374 0.7400 0.7419 0.7441
3055.000000 0.7461 0.7481 0.7499 0.7517 0.7530
3050.000000 0.7544 0.7557 0.7569 0.7582 0.7595
3045.000000 0.7604 0.7612 0.7614 0.7615 0.7615
3040.000000 0.7615 0.7615 0.7615 0.7615 0.7615
3035.000000 0.7614 0.7611 0.7608 0.7604 0.7600
3030.000000 0.7597 0.7595 0.7594 0.7593 0.7593
3025.000000 0.7593 0.7593 0.7598 0.7603 0.7608
3020.000000 0.7615 0.7621 0.7626 0.7633 0.7639
3015.000000 0.7648 0.7658 0.7667 0.7676 0.7686
3010.000000 0.7695 0.7704 0.7714 0.7722 0.7732
3005.000000 0.7740 0.7748 0.7756 0.7764 0.7771
3000.000000 0.7780 0.7787 0.7795 0.7803 0.7811
2995.000000 0.7818 0.7826 0.7834 0.7842 0.7847
2990.000000 0.7853 0.7855 0.7855 0.7855 0.7854
2985.000000 0.7851 0.7850 0.7847 0.7845 0.7842
2980.000000 0.7840 0.7837 0.7834 0.7831 0.7832
2975.000000 0.7832 0.7836 0.7841 0.7846 0.7851
2970.000000 0.7857 0.7862 0.7868 0.7875 0.7881
2965.000000 0.7887 0.7893 0.7896 0.7900 0.7900
2960.000000 0.7900 0.7900 0.7900 0.7899 0.7899
2955.000000 0.7899 0.7899 0.7900 0.7901 0.7901
2950.000000 0.7903 0.7904 0.7905 0.7906 0.7908
2945.000000 0.7908 0.7910 0.7911 0.7911 0.7914
2940.000000 0.7917 0.7919 0.7922 0.7925 0.7928
2935.000000 0.7932 0.7935 0.7938 0.7942 0.7945
2930.000000 0.7949 0.7953 0.7958 0.7961 0.7965
2925.000000 0.7969 0.7975 0.7978 0.7984 0.7988
2920.000000 0.7993 0.7995 0.7997 0.7999 0.8001
2915.000000 0.8004 0.8007 0.8008 0.8010 0.8011
2910.000000 0.8011 0.8011 0.8011 0.8010 0.8008
2905.000000 0.8007 0.8005 0.8003 0.8001 0.8000
2900.000000 0.7999 0.7994 0.7990 0.7985 0.7980
2895.000000 0.7972 0.7967 0.7961 0.7955 0.7949
2890.000000 0.7943 0.7937 0.7932 0.7925 0.7918
2885.000000 0.7908 0.7901 0.7893 0.7886 0.7883
2880.000000 0.7881 0.7878 0.7875 0.7874 0.7871
2875.000000 0.7871 0.7869 0.7868 0.7868 0.7867
2870.000000 0.7867 0.7865 0.7865 0.7865 0.7865
2865.000000 0.7867 0.7868 0.7871 0.7876 0.7882
2860.000000 0.7887 0.7892 0.7898 0.7904 0.7910
2855.000000 0.7918 0.7926 0.7935 0.7944 0.7951
2850.000000 0.7961 0.7967 0.7972 0.7978 0.7986
2845.000000 0.7992 0.7998 0.8004 0.8010 0.8015
2840.000000 0.8021 0.8025 0.8031 0.8034 0.8038
2835.000000 0.8041 0.8044 0.8047 0.8050 0.8053
2830.000000 0.8057 0.8060 0.8062 0.8065 0.8069
2825.000000 0.8072 0.8076 0.8080 0.8084 0.8087
2820.000000 0.8091 0.8094 0.8097 0.8100 0.8104
2815.000000 0.8107 0.8111 0.8114 0.8118 0.8119
2810.000000 0.8122 0.8125 0.8126 0.8128 0.8131
2805.000000 0.8133 0.8135 0.8137 0.8139 0.8141
2800.000000 0.8144 0.8146 0.8148 0.8150 0.8151
2795.000000 0.8154 0.8156 0.8157 0.8158 0.8161
2790.000000 0.8162 0.8165 0.8167 0.8168 0.8171
2785.000000 0.8171 0.8171 0.8169 0.8168 0.8165
2780.000000 0.8164 0.8161 0.8161 0.8158 0.8157
2775.000000 0.8155 0.8154 0.8151 0.8150 0.8148
2770.000000 0.8147 0.8145 0.8143 0.8140 0.8138
2765.000000 0.8135 0.8132 0.8128 0.8125 0.8121
2760.000000 0.8118 0.8115 0.8112 0.8110 0.8107
2755.000000 0.8104 0.8101 0.8098 0.8095 0.8092
2750.000000 0.8089 0.8084 0.8080 0.8075 0.8069
2745.000000 0.8064 0.8058 0.8056 0.8054 0.8051
2740.000000 0.8050 0.8048 0.8046 0.8044 0.8042
2735.000000 0.8040 0.8038 0.8037 0.8037 0.8036
2730.000000 0.8036 0.8035 0.8035 0.8034 0.8034
2725.000000 0.8034 0.8035 0.8035 0.8036 0.8036
2720.000000 0.8036 0.8036 0.8037 0.8037 0.8038
2715.000000 0.8038 0.8038 0.8038 0.8039 0.8039
2710.000000 0.8040 0.8040 0.8040 0.8039 0.8038
2705.000000 0.8037 0.8036 0.8035 0.8034 0.8033
2700.000000 0.8032 0.8031 0.8030 0.8028 0.8028
2695.000000 0.8026 0.8026 0.8025 0.8025 0.8024
2690.000000 0.8024 0.8022 0.8021 0.8021 0.8021
2685.000000 0.8021 0.8021 0.8019 0.8019 0.8019
2680.000000 0.8019 0.8019 0.8019 0.8019 0.8021
2675.000000 0.8021 0.8021 0.8022 0.8024 0.8025
2670.000000 0.8025 0.8026 0.8028 0.8036 0.8044
2665.000000 0.8057 0.8071 0.8082 0.8094 0.8105
2660.000000 0.8115 0.8122 0.8131 0.8137 0.8143
2655.000000 0.8148 0.8154 0.8154 0.8155 0.8155
2650.000000 0.8156 0.8156 0.8156 0.8157 0.8158
2645.000000 0.8161 0.8162 0.8165 0.8167 0.8168
2640.000000 0.8171 0.8172 0.8175 0.8176 0.8178
2635.000000 0.8181 0.8183 0.8185 0.8187 0.8188
2630.000000 0.8189 0.8189 0.8190 0.8190 0.8191
2625.000000 0.8191 0.8192 0.8192 0.8192 0.8192
2620.000000 0.8192 0.8190 0.8188 0.8184 0.8181
2615.000000 0.8178 0.8176 0.8176 0.8176 0.8176
2610.000000 0.8176 0.8175 0.8175 0.8175 0.8175
2605.000000 0.8175 0.8175 0.8175 0.8175 0.8174
2600.000000 0.8174 0.8172 0.8172 0.8171 0.8171
2595.000000 0.8169 0.8168 0.8167 0.8165 0.8165
2590.000000 0.8164 0.8161 0.8161 0.8158 0.8157
2585.000000 0.8154 0.8151 0.8149 0.8147 0.8145
2580.000000 0.8143 0.8140 0.8138 0.8128 0.8121
2575.000000 0.8112 0.8106 0.8100 0.8094 0.8088
2570.000000 0.8082 0.8075 0.8069 0.8069 0.8071
2565.000000 0.8076 0.8084 0.8090 0.8096 0.8101
2560.000000 0.8108 0.8115 0.8124 0.8131 0.8138
2555.000000 0.8145 0.8153 0.8160 0.8167 0.8171
2550.000000 0.8176 0.8182 0.8187 0.8191 0.8196
2545.000000 0.8200 0.8205 0.8210 0.8215 0.8218
2540.000000 0.8221 0.8224 0.8227 0.8228 0.8232
2535.000000 0.8235 0.8238 0.8241 0.8244 0.8247
2530.000000 0.8250 0.8252 0.8255 0.8257 0.8259
2525.000000 0.8260 0.8262 0.8264 0.8266 0.8268
2520.000000 0.8270 0.8271 0.8273 0.8275 0.8277
2515.000000 0.8278 0.8280 0.8281 0.8283 0.8283
2510.000000 0.8283 0.8283 0.8283 0.8283 0.8283
2505.000000 0.8283 0.8283 0.8280 0.8278 0.8274
2500.000000 0.8270 0.8266 0.8262 0.8257 0.8253
2495.000000 0.8244 0.8235 0.8225 0.8216 0.8211
2490.000000 0.8207 0.8205 0.8203 0.8201 0.8201
2485.000000 0.8201 0.8202 0.8206 0.8210 0.8214
2480.000000 0.8218 0.8221 0.8225 0.8225 0.8224
2475.000000 0.8223 0.8221 0.8221 0.8220 0.8218
2470.000000 0.8218 0.8216 0.8215 0.8213 0.8212
2465.000000 0.8212 0.8213 0.8214 0.8216 0.8217
2460.000000 0.8218 0.8221 0.8223 0.8224 0.8225
2455.000000 0.8227 0.8228 0.8230 0.8231 0.8231
2450.000000 0.8230 0.8228 0.8228 0.8228 0.8227
2445.000000 0.8225 0.8224 0.8221 0.8221 0.8218
2440.000000 0.8218 0.8217 0.8216 0.8214 0.8213
2435.000000 0.8211 0.8210 0.8209 0.8208 0.8207
2430.000000 0.8207 0.8206 0.8206 0.8205 0.8205
2425.000000 0.8205 0.8205 0.8205 0.8205 0.8207
2420.000000 0.8209 0.8211 0.8213 0.8215 0.8217
2415.000000 0.8218 0.8221 0.8224 0.8227 0.8228
2410.000000 0.8232 0.8234 0.8237 0.8239 0.8241
2405.000000 0.8243 0.8246 0.8248 0.8251 0.8253
2400.000000 0.8256 0.8261 0.8266 0.8271 0.8278
2395.000000 0.8285 0.8293 0.8304 0.8316 0.8327
2390.000000 0.8339 0.8350 0.8362 0.8373 0.8385
2385.000000 0.8395 0.8405 0.8415 0.8425 0.8434
2380.000000 0.8444 0.8450 0.8456 0.8462 0.8468
2375.000000 0.8474 0.8478 0.8478 0.8478 0.8477
2370.000000 0.8475 0.8475 0.8475 0.8466 0.8458
2365.000000 0.8449 0.8441 0.8432 0.8424 0.8416
2360.000000 0.8408 0.8404 0.8400 0.8395 0.8391
2355.000000 0.8387 0.8383 0.8378 0.8375 0.8371
2350.000000 0.8367 0.8362 0.8358 0.8354 0.8350
2345.000000 0.8346 0.8342 0.8341 0.8340 0.8339
2340.000000 0.8339 0.8338 0.8337 0.8336 0.8336
2335.000000 0.8335 0.8334 0.8333 0.8333 0.8332
2330.000000 0.8331 0.8330 0.8330 0.8328 0.8328
2325.000000 0.8327 0.8325 0.8325 0.8325 0.8324
2320.000000 0.8324 0.8323 0.8323 0.8321 0.8321
2315.000000 0.8320 0.8320 0.8318 0.8318 0.8318
2310.000000 0.8317 0.8316 0.8316 0.8315 0.8315
2305.000000 0.8314 0.8313 0.8312 0.8311 0.8310
2300.000000 0.8309 0.8308 0.8307 0.8306 0.8305
2295.000000 0.8304 0.8303 0.8302 0.8301 0.8300
2290.000000 0.8299 0.8298 0.8298 0.8298 0.8298
2285.000000 0.8298 0.8298 0.8298 0.8298 0.8298
2280.000000 0.8298 0.8298 0.8298 0.8297 0.8297
2275.000000 0.8297 0.8297 0.8296 0.8296 0.8295
2270.000000 0.8295 0.8294 0.8294 0.8293 0.8293
2265.000000 0.8292 0.8291 0.8289 0.8288 0.8286
2260.000000 0.8284 0.8282 0.8280 0.8277 0.8275
2255.000000 0.8271 0.8270 0.8267 0.8265 0.8262
2250.000000 0.8260 0.8257 0.8254 0.8251 0.8248
2245.000000 0.8245 0.8243 0.8241 0.8240 0.8239
2240.000000 0.8239 0.8238 0.8238 0.8238 0.8239
2235.000000 0.8245 0.8251 0.8257 0.8263 0.8268
2230.000000 0.8275 0.8281 0.8287 0.8295 0.8303
2225.000000 0.8311 0.8318 0.8328 0.8339 0.8348
2220.000000 0.8358 0.8368 0.8381 0.8385 0.8389
2215.000000 0.8388 0.8388 0.8388 0.8388 0.8388
2210.000000 0.8388 0.8390 0.8392 0.8392 0.8393
2205.000000 0.8386 0.8380 0.8373 0.8367 0.8361
2200.000000 0.8356 0.8351 0.8347 0.8343 0.8339
2195.000000 0.8335 0.8332 0.8328 0.8327 0.8324
2190.000000 0.8321 0.8318 0.8316 0.8315 0.8314
2185.000000 0.8312 0.8311 0.8309 0.8309 0.8309
2180.000000 0.8312 0.8314 0.8316 0.8318 0.8321
2175.000000 0.8323 0.8325 0.8328 0.8333 0.8337
2170.000000 0.8342 0.8346 0.8351 0.8355 0.8360
2165.000000 0.8364 0.8368 0.8373 0.8378 0.8381
2160.000000 0.8384 0.8386 0.8389 0.8391 0.8394
2155.000000 0.8396 0.8398 0.8400 0.8403 0.8404
2150.000000 0.8406 0.8406 0.8406 0.8405 0.8405
2145.000000 0.8403 0.8401 0.8399 0.8397 0.8396
2140.000000 0.8396 0.8396 0.8397 0.8399 0.8401
2135.000000 0.8403 0.8406 0.8408 0.8411 0.8413
2130.000000 0.8416 0.8418 0.8421 0.8423 0.8425
2125.000000 0.8428 0.8430 0.8431 0.8432 0.8433
2120.000000 0.8434 0.8435 0.8436 0.8437 0.8438
2115.000000 0.8439 0.8440 0.8441 0.8442 0.8443
2110.000000 0.8444 0.8445 0.8446 0.8447 0.8448
2105.000000 0.8449 0.8450 0.8451 0.8452 0.8453
2100.000000 0.8454 0.8455 0.8456 0.8457 0.8458
2095.000000 0.8458 0.8459 0.8459 0.8460 0.8460
2090.000000 0.8461 0.8461 0.8462 0.8463 0.8464
2085.000000 0.8464 0.8465 0.8465 0.8466 0.8466
2080.000000 0.8467 0.8467 0.8468 0.8468 0.8468
2075.000000 0.8470 0.8471 0.8471 0.8471 0.8471
2070.000000 0.8471 0.8471 0.8471 0.8471 0.8471
2065.000000 0.8471 0.8473 0.8473 0.8473 0.8473
2060.000000 0.8473 0.8471 0.8468 0.8466 0.8464
2055.000000 0.8461 0.8459 0.8456 0.8454 0.8451
2050.000000 0.8448 0.8444 0.8441 0.8437 0.8434
2045.000000 0.8430 0.8427 0.8423 0.8420 0.8416
2040.000000 0.8413 0.8409 0.8405 0.8401 0.8398
2035.000000 0.8394 0.8391 0.8387 0.8384 0.8380
2030.000000 0.8377 0.8373 0.8370 0.8366 0.8363
2025.000000 0.8359 0.8356 0.8352 0.8349 0.8345
2020.000000 0.8342 0.8338 0.8335 0.8331 0.8328
2015.000000 0.8324 0.8321 0.8317 0.8314 0.8310
2010.000000 0.8307 0.8303 0.8300 0.8296 0.8293
2005.000000 0.8291 0.8289 0.8287 0.8285 0.8281
2000.000000 0.8278 0.8274 0.8271 0.8267 0.8263
1995.000000 0.8263 0.8263 0.8265 0.8267 0.8268
1990.000000 0.8271 0.8273 0.8275 0.8280 0.8284
1985.000000 0.8289 0.8293 0.8298 0.8302 0.8306
1980.000000 0.8311 0.8315 0.8318 0.8321 0.8323
1975.000000 0.8325 0.8327 0.8323 0.8320 0.8316
1970.000000 0.8313 0.8309 0.8306 0.8303 0.8302
1965.000000 0.8300 0.8298 0.8296 0.8295 0.8293
1960.000000 0.8291 0.8289 0.8288 0.8286 0.8284
1955.000000 0.8282 0.8281 0.8280 0.8278 0.8278
1950.000000 0.8277 0.8275 0.8275 0.8274 0.8273
1945.000000 0.8271 0.8270 0.8268 0.8268 0.8266
1940.000000 0.8264 0.8262 0.8259 0.8257 0.8256
1935.000000 0.8256 0.8255 0.8254 0.8254 0.8253
1930.000000 0.8253 0.8252 0.8252 0.8251 0.8250
1925.000000 0.8250 0.8249 0.8249 0.8249 0.8248
1920.000000 0.8249 0.8250 0.8251 0.8252 0.8254
1915.000000 0.8255 0.8256 0.8257 0.8257 0.8257
1910.000000 0.8257 0.8257 0.8259 0.8260 0.8262
1905.000000 0.8263 0.8265 0.8266 0.8268 0.8270
1900.000000 0.8271 0.8273 0.8274 0.8275 0.8277
1895.000000 0.8278 0.8280 0.8280 0.8278 0.8278
1890.000000 0.8277 0.8275 0.8275 0.8274 0.8273
1885.000000 0.8271 0.8270 0.8268 0.8267 0.8265
1880.000000 0.8265 0.8265 0.8266 0.8267 0.8267
1875.000000 0.8266 0.8265 0.8264 0.8264 0.8264
1870.000000 0.8264 0.8264 0.8265 0.8266 0.8267
1865.000000 0.8268 0.8268 0.8268 0.8271 0.8271
1860.000000 0.8274 0.8275 0.8277 0.8278 0.8280
1855.000000 0.8281 0.8283 0.8283 0.8283 0.8283
1850.000000 0.8284 0.8284 0.8284 0.8284 0.8285
1845.000000 0.8285 0.8284 0.8282 0.8278 0.8275
1840.000000 0.8274 0.8271 0.8268 0.8265 0.8258
1835.000000 0.8251 0.8244 0.8237 0.8230 0.8224
1830.000000 0.8217 0.8209 0.8200 0.8192 0.8184
1825.000000 0.8175 0.8168 0.8160 0.8151 0.8141
1820.000000 0.8130 0.8118 0.8108 0.8097 0.8086
1815.000000 0.8075 0.8062 0.8049 0.8035 0.8021
1810.000000 0.8006 0.7992 0.7978 0.7964 0.7950
1805.000000 0.7936 0.7921 0.7901 0.7874 0.7848
1800.000000 0.7821 0.7796 0.7769 0.7745 0.7718
1795.000000 0.7694 0.7674 0.7657 0.7639 0.7621
1790.000000 0.7606 0.7595 0.7583 0.7571 0.7558
1785.000000 0.7544 0.7528 0.7514 0.7503 0.7496
1780.000000 0.7489 0.7481 0.7472 0.7455 0.7478
1775.000000 0.7482 0.7493 0.7504 0.7514 0.7525
1770.000000 0.7536 0.7551 0.7568 0.7585 0.7601
1765.000000 0.7618 0.7634 0.7651 0.7667 0.7684
1760.000000 0.7700 0.7715 0.7731 0.7747 0.7761
1755.000000 0.7778 0.7793 0.7808 0.7825 0.7840
1750.000000 0.7856 0.7871 0.7887 0.7903 0.7918
1745.000000 0.7934 0.7947 0.7957 0.7968 0.7978
1740.000000 0.7989 0.7999 0.8010 0.8017 0.8025
1735.000000 0.8032 0.8039 0.8046 0.8053 0.8058
1730.000000 0.8062 0.8068 0.8072 0.8078 0.8083
1725.000000 0.8087 0.8088 0.8088 0.8089 0.8088
1720.000000 0.8084 0.8080 0.8075 0.8071 0.8062
1715.000000 0.8041 0.8018 0.7994 0.7969 0.7946
1710.000000 0.7930 0.7915 0.7911 0.7908 0.7903
1705.000000 0.7904 0.7904 0.7908 0.7914 0.7918
1700.000000 0.7922 0.7928 0.7932 0.7937 0.7941
1695.000000 0.7943 0.7945 0.7947 0.7949 0.7951
1690.000000 0.7954 0.7954 0.7951 0.7951 0.7950
1685.000000 0.7948 0.7947 0.7941 0.7935 0.7928
1680.000000 0.7922 0.7917 0.7911 0.7901 0.7891
1675.000000 0.7882 0.7871 0.7861 0.7853 0.7837
1670.000000 0.7818 0.7801 0.7783 0.7765 0.7742
1665.000000 0.7718 0.7696 0.7672 0.7650 0.7618
1660.000000 0.7582 0.7546 0.7508 0.7465 0.7425
1655.000000 0.7384 0.7342 0.7293 0.7232 0.7171
1650.000000 0.7110 0.6987 0.6694 0.6510 0.6145
1645.000000 0.6029 0.5892 0.5743 0.5574 0.5392
1640.000000 0.5314 0.5160 0.5140 0.5117 0.5094
1635.000000 0.5069 0.5042 0.5014 0.4980 0.4937
1630.000000 0.4890 0.4840 0.4790 0.4729 0.4665
1625.000000 0.4549 0.4395 0.4260 0.4110 0.3387
1620.000000 0.2976 0.2505 0.2209 0.2193 0.2171
1615.000000 0.2185 0.2270 0.2578 0.3120 0.3662
1610.000000 0.4204 0.4745 0.5287 0.5540 0.5969
1605.000000 0.6453 0.6596 0.6698 0.6797 0.6885
1600.000000 0.6960 0.7011 0.7061 0.7107 0.7153
1595.000000 0.7185 0.7212 0.7241 0.7268 0.7299
1590.000000 0.7331 0.7362 0.7395 0.7424 0.7451
1585.000000 0.7478 0.7505 0.7532 0.7558 0.7583
1580.000000 0.7608 0.7631 0.7654 0.7672 0.7687
1575.000000 0.7697 0.7701 0.7700 0.7700 0.7692
1570.000000 0.7680 0.7664 0.7658 0.7656 0.7653
1565.000000 0.7651 0.7651 0.7651 0.7655 0.7657
1560.000000 0.7671 0.7685 0.7700 0.7712 0.7747
1555.000000 0.7724 0.7728 0.7726 0.7725 0.7711
1550.000000 0.7698 0.7685 0.7671 0.7660 0.7647
1545.000000 0.7635 0.7624 0.7615 0.7608 0.7605
1540.000000 0.7604 0.7601 0.7601 0.7599 0.7583
1535.000000 0.7565 0.7548 0.7539 0.7532 0.7531
1530.000000 0.7530 0.7531 0.7532 0.7519 0.7503
1525.000000 0.7486 0.7458 0.7426 0.7397 0.7358
1520.000000 0.7295 0.7234 0.7172 0.7122 0.7072
1515.000000 0.7045 0.7018 0.6972 0.6894 0.6796
1510.000000 0.6711 0.6650 0.6475 0.6338 0.6230
1505.000000 0.6126 0.6014 0.5936 0.5954 0.5958
1500.000000 0.6028 0.6303 0.6379 0.6442 0.6469
1495.000000 0.6487 0.6515 0.6490 0.6478 0.6454
1490.000000 0.6400 0.6284 0.6156 0.6029 0.5880
1485.000000 0.5730 0.5581 0.5432 0.5282 0.5133
1480.000000 0.4983 0.4834 0.4685 0.4541 0.4416
1475.000000 0.4275 0.3820 0.3364 0.2909 0.2454
1470.000000 0.1999 0.1544 0.1088 0.0926 0.0895
1465.000000 0.0891 0.0888 0.0906 0.1026 0.1534
1460.000000 0.2374 0.3214 0.4054 0.4894 0.5735
1455.000000 0.6223 0.6337 0.6408 0.6467 0.6530
1450.000000 0.6655 0.6918 0.7147 0.7171 0.7186
1445.000000 0.7198 0.7240 0.7214 0.7217 0.7210
1440.000000 0.7200 0.7190 0.7176 0.7161 0.7144
1435.000000 0.7125 0.7104 0.7083 0.7062 0.7040
1430.000000 0.7001 0.6964 0.6925 0.6878 0.6825
1425.000000 0.6772 0.6721 0.6635 0.6549 0.6491
1420.000000 0.6434 0.6346 0.6258 0.6095 0.5827
1415.000000 0.5690 0.5562 0.5439 0.5295 0.5133
1410.000000 0.4959 0.4783 0.4504 0.4266 0.4062
1405.000000 0.3914 0.3766 0.3137 0.2954 0.2781
1400.000000 0.2450 0.1999 0.1546 0.1096 0.0615
1395.000000 0.0252 0.0164 0.0138 0.0117 0.0104
1390.000000 0.0100 0.0100 0.0100 0.0105 0.0121
1385.000000 0.0147 0.0195 0.0261 0.0350 0.0487
1380.000000 0.0606 0.0701 0.0933 0.1141 0.1255
1375.000000 0.1345 0.1436 0.1514 0.1572 0.1629
1370.000000 0.1686 0.1744 0.1784 0.1824 0.1864
1365.000000 0.1904 0.1941 0.1975 0.2009 0.2043
1360.000000 0.2077 0.2100 0.2115 0.2131 0.2145
1355.000000 0.2153 0.2160 0.2167 0.2174 0.2180
1350.000000 0.2184 0.2190 0.2195 0.2200 0.2207
1345.000000 0.2215 0.2223 0.2231 0.2239 0.2248
1340.000000 0.2258 0.2268 0.2278 0.2291 0.2307
1335.000000 0.2323 0.2345 0.2406 0.3364 0.3940
1330.000000 0.4606 0.4530 0.4585 0.4546 0.4480
1325.000000 0.4403 0.4225 0.3947 0.3670 0.3392
1320.000000 0.3115 0.2837 0.2564 0.2433 0.2271
1315.000000 0.2050 0.1589 0.1405 0.1246 0.1113
1310.000000 0.0979 0.0880 0.0798 0.0716 0.0651
1305.000000 0.0586 0.0522 0.0419 0.0352 0.0304
1300.000000 0.0259 0.0217 0.0178 0.0145 0.0113
1295.000000 0.0084 0.0051 0.0044 0.0037 0.0030
1290.000000 0.0023 0.0010 0.0017 0.0017 0.0017
1285.000000 0.0018 0.0039 0.0070 0.0112 0.0175
1280.000000 0.0252 0.0349 0.0482 0.0642 0.1051
1275.000000 0.1378 0.1704 0.2032 0.2359 0.2685
1270.000000 0.3013 0.3340 0.3666 0.3994 0.4304
1265.000000 0.4403 0.4444 0.4469 0.4488 0.4503
1260.000000 0.4532 0.4506 0.4484 0.4426 0.4356
1255.000000 0.4188 0.3959 0.3732 0.3504 0.3336
1250.000000 0.3312 0.3318 0.3316 0.3374 0.3464
1245.000000 0.3522 0.3578 0.3604 0.3621 0.3625
1240.000000 0.3626 0.3627 0.3627 0.3627 0.3618
1235.000000 0.3605 0.3573 0.3529 0.3484 0.3414
1230.000000 0.3338 0.3268 0.3202 0.3135 0.3044
1225.000000 0.2953 0.2872 0.2795 0.2718 0.2642
1220.000000 0.2566 0.2442 0.2280 0.2037 0.1929
1215.000000 0.1862 0.1792 0.1718 0.1643 0.1514
1210.000000 0.1341 0.1046 0.0835 0.0696 0.0573
1205.000000 0.0475 0.0402 0.0365 0.0334 0.0311
1200.000000 0.0286 0.0260 0.0240 0.0222 0.0204
1195.000000 0.0189 0.0174 0.0159 0.0144 0.0132
1190.000000 0.0121 0.0110 0.0101 0.0097 0.0093
1185.000000 0.0088 0.0084 0.0083 0.0082 0.0083
1180.000000 0.0076 0.0086 0.0089 0.0095 0.0100
1175.000000 0.0105 0.0112 0.0125 0.0138 0.0152
1170.000000 0.0166 0.0181 0.0198 0.0213 0.0228
1165.000000 0.0246 0.0224 0.0211 0.0201 0.0189
1160.000000 0.0176 0.0159 0.0141 0.0124 0.0107
1155.000000 0.0095 0.0089 0.0083 0.0076 0.0070
1150.000000 0.0064 0.0057 0.0054 0.0054 0.0054
1145.000000 0.0054 0.0052 0.0052 0.0052 0.0064
1140.000000 0.0065 0.0065 0.0069 0.0074 0.0078
1135.000000 0.0082 0.0086 0.0090 0.0094 0.0098
1130.000000 0.0102 0.0105 0.0110 0.0117 0.0125
1125.000000 0.0137 0.0150 0.0182 0.0235 0.0316
1120.000000 0.0401 0.0495 0.0599 0.0703 0.0809
1115.000000 0.1178 0.1422 0.1459 0.1478 0.1423
1110.000000 0.1192 0.1015 0.1026 0.1058 0.1155
1105.000000 0.1266 0.1372 0.1767 0.2238 0.2710
1100.000000 0.3182 0.3654 0.3964 0.3966 0.3971
1095.000000 0.3978 0.3987 0.3992 0.3997 0.4220
1090.000000 0.4444 0.4668 0.4892 0.5116 0.5340
1085.000000 0.5564 0.5788 0.6012 0.6236 0.6406
1080.000000 0.6521 0.6637 0.6825 0.7012 0.7146
1075.000000 0.7278 0.7365 0.7442 0.7518 0.7595
1070.000000 0.7667 0.7732 0.7798 0.7862 0.7915
1065.000000 0.7955 0.7996 0.8036 0.8076 0.8114
1060.000000 0.8150 0.8185 0.8221 0.8256 0.8285
1055.000000 0.8310 0.8335 0.8360 0.8385 0.8410
1050.000000 0.8436 0.8461 0.8487 0.8502 0.8513
1045.000000 0.8525 0.8534 0.8538 0.8542 0.8546
1040.000000 0.8550 0.8554 0.8558 0.8559 0.8560
1035.000000 0.8561 0.8563 0.8575 0.8565 0.8567
1030.000000 0.8568 0.8568 0.8570 0.8571 0.8571
1025.000000 0.8573 0.8573 0.8571 0.8570 0.8563
1020.000000 0.8555 0.8546 0.8531 0.8502 0.8473
1015.000000 0.8415 0.8358 0.8296 0.8233 0.8144
1010.000000 0.8011 0.7651 0.6833 0.6012 0.5193
1005.000000 0.4809 0.4758 0.4758 0.4778 0.5578
1000.000000 0.6787 0.7996 0.8081 0.8101 0.8115
995.000000 0.8125 0.8134 0.8143 0.8146 0.8149
990.000000 0.8140 0.8131 0.8121 0.8110 0.8100
985.000000 0.8091 0.8082 0.8072 0.8078 0.8069
980.000000 0.8071 0.8075 0.8081 0.8086 0.8092
975.000000 0.8098 0.8099 0.8099 0.8094 0.8089
970.000000 0.8078 0.8068 0.8057 0.8043 0.8015
965.000000 0.7988 0.7945 0.7872 0.7739 0.7548
960.000000 0.7293 0.6958 0.6761 0.6561 0.6350
955.000000 0.6112 0.5680 0.5244 0.5004 0.3766
950.000000 0.2495 0.1222 0.0565 0.0515 0.0462
945.000000 0.0423 0.0415 0.0411 0.0417 0.0431
940.000000 0.0469 0.0574 0.1033 0.1675 0.2316
935.000000 0.2958 0.3600 0.4241 0.4883 0.5524
930.000000 0.6166 0.6808 0.7275 0.7394 0.7462
925.000000 0.7515 0.7562 0.7592 0.7611 0.7611
920.000000 0.7611 0.7619 0.7587 0.7539 0.7492
915.000000 0.7438 0.7378 0.7307 0.7224 0.7083
910.000000 0.6930 0.6807 0.6684 0.6511 0.6148
905.000000 0.5910 0.5795 0.5662 0.5462 0.5227
900.000000 0.4991 0.4755 0.4518 0.4282 0.4046
895.000000 0.3809 0.3573 0.3337 0.3101 0.2865
890.000000 0.2628 0.2392 0.2156 0.1920 0.1684
885.000000 0.1446 0.1255 0.1207 0.1196 0.1201
880.000000 0.1337 0.1912 0.2482 0.3051 0.3621
875.000000 0.4191 0.4760 0.5330 0.5900 0.6468
870.000000 0.6932 0.7034 0.7011 0.7011 0.6984
865.000000 0.6947 0.6911 0.6874 0.6825 0.6711
860.000000 0.6578 0.6189 0.6072 0.5899 0.5317
855.000000 0.4735 0.4153 0.3571 0.2989 0.2682
850.000000 0.3427 0.4178 0.4928 0.5679 0.6428
845.000000 0.7180 0.7825 0.7930 0.7997 0.8041
840.000000 0.8083 0.8121 0.8151 0.8165 0.8181
835.000000 0.8190 0.8200 0.8209 0.8218 0.8225
830.000000 0.8233 0.8237 0.8240 0.8244 0.8244
825.000000 0.8243 0.8242 0.8241 0.8241 0.8241
820.000000 0.8241 0.8240 0.8240 0.8240 0.8235
815.000000 0.8231 0.8225 0.8220 0.8214 0.8209
810.000000 0.8203 0.8197 0.8192 0.8188 0.8184
805.000000 0.8180 0.8175 0.8171 0.8168 0.8164
800.000000 0.8160 0.8156 0.8151 0.8147 0.8143
795.000000 0.8137 0.8131 0.8125 0.8118 0.8111
790.000000 0.8106 0.8098 0.8089 0.8080 0.8071
785.000000 0.8061 0.8048 0.8034 0.8019 0.8006
780.000000 0.7994 0.7982 0.7971 0.7958 0.7951
775.000000 0.7946 0.7941 0.7936 0.7928 0.7922
770.000000 0.7915 0.7904 0.7893 0.7881 0.7872
765.000000 0.7865 0.7858 0.7851 0.7843 0.7825
760.000000 0.7808 0.7793 0.7778 0.7762 0.7748
755.000000 0.7733 0.7718 0.7705 0.7691 0.7675
750.000000 0.7662 0.7651 0.7640 0.7628 0.7617
745.000000 0.7604 0.7591 0.7575 0.7555 0.7511
740.000000 0.7441 0.7328 0.7143 0.6288 0.5296
735.000000 0.4305 0.3312 0.2322 0.1395 0.1381
730.000000 0.2100 0.5033 0.7083 0.7176 0.7251
725.000000 0.7289 0.7314 0.7344 0.7334 0.7324
720.000000 0.7306 0.7285 0.7249 0.7212 0.7162
715.000000 0.7104 0.7021 0.6915 0.6728 0.6425
710.000000 0.6009 0.5302 0.4595 0.3888 0.3181
705.000000 0.2474 0.1767 0.1417 0.1388 0.1565
700.000000 0.3345 0.5125 0.6344 0.6411 0.6435
695.000000 0.6448 0.6460 0.6454 0.6446 0.6408
690.000000 0.5174 0.3922 0.2670 0.1417 0.0626
685.000000 0.0641 0.0636 0.0707 0.1581 0.2910
680.000000 0.4239 0.5567 0.6896 0.6961 0.6969
675.000000 0.6928 0.6876 0.6825 0.6798 0.6797
670.000000 0.7033 0.7375 0.7390 0.7381 0.7350
665.000000 0.7312 0.7336 0.7301 0.7308 0.7318
660.000000 0.7326 0.7336 0.7341 0.7345 0.7326
655.000000 0.7301 0.7284 0.7276 0.7278 0.7278
650.000000 0.7278 0.7275 0.7271 0.7268 0.7258
645.000000 0.7248 0.7238 0.7225 0.7207 0.7189
640.000000 0.7164 0.7132 0.7100 0.7065 0.7030
635.000000 0.6990 0.6925 0.6856 0.6785 0.6711
630.000000 0.6638 0.6595 0.6561 0.6568 0.6624
625.000000 0.6644 0.6632 0.6599 0.6564 0.6553
620.000000 0.6525 0.6591 0.6715 0.6858 0.7004
615.000000 0.7148 0.7274 0.7306 0.7325 0.7346
610.000000 0.7357 0.7364 0.7371 0.7378 0.7383
605.000000 0.7388 0.7392 0.7396 0.7400 0.7404
600.000000 0.7408 0.7411 0.7411 0.7410 0.7410
595.000000 0.7408 0.7408 0.7406 0.7403 0.7401
590.000000 0.7398 0.7395 0.7393 0.7391 0.7390
585.000000 0.7388 0.7387 0.7385 0.7383 0.7380
580.000000 0.7391 0.7374 0.7371 0.7371 0.7369
575.000000 0.7369 0.7371 0.7371 0.7371 0.7372
570.000000 0.7374 0.7375 0.7380 0.7385 0.7390
565.000000 0.7395 0.7401 0.7403 0.7403 0.7398
560.000000 0.7390 0.7382 0.7375 0.7364 0.7354
555.000000 0.7343 0.7330 0.7315 0.7301 0.7284
550.000000 0.7265 0.7239 0.7199 0.7148 0.7060
545.000000 0.6983 0.6906 0.6828 0.6751 0.6674
540.000000 0.6597 0.6597 0.6593 0.6631 0.6715
535.000000 0.6785 0.6799 0.6808 0.6817 0.6836
530.000000 0.6865 0.6945 0.7015 0.7081 0.7143
525.000000 0.7189 0.7218 0.7246 0.7269 0.7291
520.000000 0.7307 0.7315 0.7324 0.7332 0.7333
515.000000 0.7357 0.7335 0.7335 0.7335 0.7335
510.000000 0.7331 0.7328 0.7324 0.7319 0.7311
505.000000 0.7301 0.7292 0.7278 0.7264 0.7240
500.000000 0.7212 0.7175 0.7121 0.7057 0.6994
495.000000 0.6933 0.6875 0.6817 0.6748 0.6661
490.000000 0.6586 0.6549 0.6528 0.6485 0.6506
485.000000 0.6506 0.6505 0.6528 0.6564 0.6603
480.000000 0.6639 0.6664 0.6668 0.6712 0.6674
475.000000 0.6675 0.6675 0.6669 0.6662 0.6655
470.000000 0.6598 0.6547 0.6521 0.6508 0.6495
465.000000 0.6484 0.6474 0.6462 0.6453 0.6443
460.000000 0.6421 0.6396 0.6371 0.6347 0.6316
455.000000 0.6284 0.6253 0.6218 0.6178 0.6139
450.000000 0.6099 0.6060 0.6023 0.5986 0.5948
445.000000 0.5909 0.5871 0.5833 0.5794 0.5756
440.000000 0.5718 0.5679 0.5641 0.5602 0.5564
435.000000 0.5526 0.5487 0.5449 0.5369 0.5284
430.000000 0.5200 0.5127 0.5054 0.4980 0.4909
425.000000 0.4845 0.4781 0.4717 0.4654 0.4592
420.000000 0.4532 0.4471 0.4410 0.4353 0.4299
415.000000 0.4255 0.4240 0.4231 0.4228 0.4224
410.000000 0.4221 0.4218 0.4215 0.4212 0.4212
405.000000 0.4212
##END=
