##TITLE=1-Fluoro-4-nitrobenzene
##JCAMP-DX=4.24
$$ By DXEDIT 1.05 (RS McDonald)
##DATA TYPE=INFRARED SPECTRUM
##CLASS=COBLENTZ III
##ORIGIN=DOW CHEMICAL COMPANY
##OWNER=COPYRIGHT (C) 1988 by COBLENTZ SOCIETY INC.
Collection (C) 2018 copyright by the U.S. Secretary of Commerce
on behalf of the United States of America. All rights reserved.
##DATE=1960/08/02
##CAS REGISTRY NO=350-46-9
##MOLFORM=C6 H4 F N O2
##SOURCE REFERENCE=COBLENTZ NO. 5678
##$NIST SOURCE=COBLENTZ
##$NIST IMAGE=cob5678
##SPECTROMETER/DATA SYSTEM=DOW KBr FOREPRISM-GRATING
##INSTRUMENT PARAMETERS=BLAZED AT 3.5, 12.0, 20.0 MICRON AND CHANGED AT 5.0, 7.5, 14.9 MICRON
##STATE=SOLUTION (2% CCl4 FOR 3800-1340, 2% CS2 FOR 1340-450)
##PATH LENGTH=0.0113 CM, 0.0109 CM
##SAMPLING PROCEDURE=TRANSMISSION
##RESOLUTION=2
##DATA PROCESSING=DIGITIZED BY COBLENTZ SOCIETY (BATCH I) FROM HARD COPY
##XUNITS=1/CM
##YUNITS=TRANSMITTANCE
##XFACTOR=1
##YFACTOR=1
##DELTAX=1
##FIRSTX=3820
##LASTX=430
##FIRSTY=0.946
##MAXX=3820
##MINX=430
##MAXY=0.9737
##MINY=0.0141
##NPOINTS=3391
##XYDATA=(X++(Y..Y))
3820.000000 0.9460 0.9460 0.9460 0.9458 0.9457
3815.000000 0.9456 0.9447 0.9438 0.9437 0.9446
3810.000000 0.9451 0.9437 0.9432 0.9443 0.9445
3805.000000 0.9444 0.9443 0.9441 0.9425 0.9423
3800.000000 0.9422 0.9421 0.9420 0.9421 0.9431
3795.000000 0.9419 0.9430 0.9429 0.9428 0.9426
3790.000000 0.9425 0.9423 0.9422 0.9420 0.9419
3785.000000 0.9416 0.9406 0.9397 0.9396 0.9404
3780.000000 0.9408 0.9394 0.9403 0.9405 0.9405
3775.000000 0.9389 0.9404 0.9404 0.9405 0.9405
3770.000000 0.9407 0.9407 0.9408 0.9412 0.9419
3765.000000 0.9426 0.9433 0.9440 0.9448 0.9455
3760.000000 0.9470 0.9477 0.9477 0.9484 0.9492
3755.000000 0.9499 0.9506 0.9504 0.9502 0.9495
3750.000000 0.9487 0.9479 0.9472 0.9457 0.9442
3745.000000 0.9427 0.9411 0.9395 0.9379 0.9372
3740.000000 0.9365 0.9367 0.9375 0.9374 0.9371
3735.000000 0.9367 0.9359 0.9349 0.9355 0.9360
3730.000000 0.9358 0.9355 0.9353 0.9350 0.9348
3725.000000 0.9346 0.9344 0.9342 0.9340 0.9338
3720.000000 0.9336 0.9320 0.9322 0.9337 0.9338
3715.000000 0.9338 0.9338 0.9338 0.9343 0.9349
3710.000000 0.9344 0.9354 0.9355 0.9355 0.9355
3705.000000 0.9355 0.9356 0.9356 0.9356 0.9356
3700.000000 0.9357 0.9357 0.9357 0.9357 0.9344
3695.000000 0.9342 0.9342 0.9342 0.9342 0.9342
3690.000000 0.9341 0.9341 0.9341 0.9338 0.9326
3685.000000 0.9326 0.9326 0.9326 0.9326 0.9326
3680.000000 0.9327 0.9327 0.9327 0.9327 0.9327
3675.000000 0.9327 0.9327 0.9327 0.9327 0.9327
3670.000000 0.9340 0.9328 0.9326 0.9325 0.9325
3665.000000 0.9324 0.9324 0.9323 0.9323 0.9321
3660.000000 0.9321 0.9321 0.9321 0.9320 0.9320
3655.000000 0.9319 0.9319 0.9318 0.9318 0.9317
3650.000000 0.9317 0.9316 0.9316 0.9315 0.9315
3645.000000 0.9314 0.9314 0.9313 0.9313 0.9312
3640.000000 0.9312 0.9311 0.9309 0.9309 0.9309
3635.000000 0.9309 0.9307 0.9308 0.9321 0.9321
3630.000000 0.9316 0.9304 0.9309 0.9316 0.9316
3625.000000 0.9316 0.9315 0.9313 0.9313 0.9313
3620.000000 0.9313 0.9312 0.9311 0.9310 0.9310
3615.000000 0.9309 0.9308 0.9307 0.9306 0.9305
3610.000000 0.9304 0.9300 0.9287 0.9299 0.9298
3605.000000 0.9297 0.9296 0.9289 0.9283 0.9292
3600.000000 0.9285 0.9273 0.9280 0.9287 0.9286
3595.000000 0.9284 0.9283 0.9281 0.9280 0.9279
3590.000000 0.9278 0.9277 0.9276 0.9274 0.9271
3585.000000 0.9270 0.9267 0.9266 0.9263 0.9262
3580.000000 0.9260 0.9259 0.9258 0.9256 0.9249
3575.000000 0.9241 0.9251 0.9248 0.9240 0.9229
3570.000000 0.9228 0.9226 0.9224 0.9222 0.9220
3565.000000 0.9218 0.9217 0.9214 0.9212 0.9209
3560.000000 0.9207 0.9203 0.9202 0.9198 0.9196
3555.000000 0.9206 0.9190 0.9189 0.9200 0.9197
3550.000000 0.9191 0.9181 0.9188 0.9185 0.9183
3545.000000 0.9173 0.9170 0.9174 0.9172 0.9169
3540.000000 0.9158 0.9159 0.9150 0.9154 0.9154
3535.000000 0.9152 0.9149 0.9146 0.9144 0.9141
3530.000000 0.9139 0.9120 0.9117 0.9114 0.9112
3525.000000 0.9109 0.9106 0.9102 0.9100 0.9097
3520.000000 0.9094 0.9090 0.9089 0.9086 0.9082
3515.000000 0.9079 0.9077 0.9074 0.9071 0.9068
3510.000000 0.9066 0.9062 0.9059 0.9056 0.9054
3505.000000 0.9051 0.9048 0.9045 0.9041 0.9039
3500.000000 0.9037 0.9034 0.9032 0.9030 0.9028
3495.000000 0.9026 0.9023 0.9020 0.9018 0.9016
3490.000000 0.9014 0.9011 0.9009 0.9007 0.9004
3485.000000 0.9001 0.8999 0.8997 0.8995 0.8992
3480.000000 0.8991 0.8988 0.8984 0.8983 0.8981
3475.000000 0.8978 0.8976 0.8974 0.8972 0.8969
3470.000000 0.8966 0.8964 0.8962 0.8959 0.8957
3465.000000 0.8955 0.8953 0.8951 0.8949 0.8945
3460.000000 0.8943 0.8941 0.8939 0.8936 0.8936
3455.000000 0.8934 0.8932 0.8931 0.8929 0.8926
3450.000000 0.8925 0.8923 0.8922 0.8920 0.8918
3445.000000 0.8916 0.8915 0.8913 0.8912 0.8909
3440.000000 0.8908 0.8906 0.8904 0.8902 0.8901
3435.000000 0.8899 0.8898 0.8896 0.8894 0.8892
3430.000000 0.8890 0.8888 0.8886 0.8885 0.8883
3425.000000 0.8870 0.8877 0.8878 0.8876 0.8875
3420.000000 0.8874 0.8874 0.8874 0.8874 0.8874
3415.000000 0.8872 0.8872 0.8872 0.8872 0.8872
3410.000000 0.8872 0.8872 0.8872 0.8880 0.8879
3405.000000 0.8871 0.8871 0.8871 0.8871 0.8871
3400.000000 0.8871 0.8871 0.8871 0.8871 0.8871
3395.000000 0.8870 0.8870 0.8870 0.8871 0.8871
3390.000000 0.8871 0.8871 0.8872 0.8872 0.8873
3385.000000 0.8873 0.8874 0.8874 0.8875 0.8875
3380.000000 0.8875 0.8875 0.8875 0.8875 0.8877
3375.000000 0.8877 0.8878 0.8878 0.8878 0.8878
3370.000000 0.8893 0.8881 0.8880 0.8880 0.8881
3365.000000 0.8881 0.8882 0.8882 0.8882 0.8882
3360.000000 0.8884 0.8884 0.8884 0.8884 0.8885
3355.000000 0.8885 0.8885 0.8887 0.8889 0.8891
3350.000000 0.8894 0.8896 0.8899 0.8901 0.8904
3345.000000 0.8918 0.8924 0.8913 0.8927 0.8916
3340.000000 0.8919 0.8921 0.8939 0.8941 0.8940
3335.000000 0.8930 0.8933 0.8934 0.8937 0.8940
3330.000000 0.8944 0.8946 0.8948 0.8950 0.8953
3325.000000 0.8956 0.8960 0.8963 0.8967 0.8970
3320.000000 0.8973 0.8976 0.8979 0.8982 0.8986
3315.000000 0.8989 0.8994 0.8997 0.9015 0.9018
3310.000000 0.9021 0.9024 0.9026 0.9020 0.9035
3305.000000 0.9038 0.9036 0.9029 0.9033 0.9036
3300.000000 0.9039 0.9042 0.9046 0.9049 0.9053
3295.000000 0.9055 0.9058 0.9061 0.9065 0.9067
3290.000000 0.9070 0.9072 0.9075 0.9078 0.9081
3285.000000 0.9083 0.9087 0.9105 0.9106 0.9094
3280.000000 0.9101 0.9116 0.9115 0.9106 0.9115
3275.000000 0.9128 0.9131 0.9133 0.9136 0.9139
3270.000000 0.9142 0.9144 0.9147 0.9151 0.9154
3265.000000 0.9156 0.9158 0.9161 0.9165 0.9167
3260.000000 0.9170 0.9174 0.9177 0.9179 0.9169
3255.000000 0.9185 0.9188 0.9191 0.9194 0.9197
3250.000000 0.9200 0.9203 0.9206 0.9209 0.9212
3245.000000 0.9206 0.9210 0.9221 0.9224 0.9226
3240.000000 0.9229 0.9232 0.9235 0.9238 0.9241
3235.000000 0.9244 0.9247 0.9250 0.9253 0.9255
3230.000000 0.9258 0.9260 0.9262 0.9263 0.9252
3225.000000 0.9258 0.9273 0.9275 0.9278 0.9280
3220.000000 0.9282 0.9284 0.9287 0.9289 0.9293
3215.000000 0.9295 0.9298 0.9300 0.9302 0.9304
3210.000000 0.9307 0.9309 0.9299 0.9299 0.9301
3205.000000 0.9302 0.9306 0.9309 0.9312 0.9314
3200.000000 0.9318 0.9331 0.9324 0.9335 0.9331
3195.000000 0.9344 0.9346 0.9348 0.9350 0.9351
3190.000000 0.9345 0.9347 0.9355 0.9356 0.9347
3185.000000 0.9343 0.9344 0.9346 0.9347 0.9347
3180.000000 0.9350 0.9351 0.9351 0.9353 0.9354
3175.000000 0.9354 0.9357 0.9358 0.9359 0.9360
3170.000000 0.9362 0.9361 0.9363 0.9363 0.9362
3165.000000 0.9362 0.9370 0.9378 0.9370 0.9371
3160.000000 0.9379 0.9379 0.9368 0.9375 0.9367
3155.000000 0.9362 0.9375 0.9378 0.9378 0.9378
3150.000000 0.9378 0.9376 0.9361 0.9359 0.9357
3145.000000 0.9353 0.9350 0.9346 0.9343 0.9345
3140.000000 0.9352 0.9349 0.9347 0.9343 0.9340
3135.000000 0.9334 0.9329 0.9320 0.9309 0.9298
3130.000000 0.9286 0.9264 0.9245 0.9222 0.9199
3125.000000 0.9180 0.9161 0.9159 0.9158 0.9158
3120.000000 0.9159 0.9169 0.9180 0.9190 0.9201
3115.000000 0.9211 0.9223 0.9231 0.9241 0.9249
3110.000000 0.9256 0.9266 0.9274 0.9290 0.9305
3105.000000 0.9306 0.9308 0.9283 0.9259 0.9226
3100.000000 0.9206 0.9163 0.9117 0.8976 0.8817
3095.000000 0.8834 0.8835 0.8833 0.8832 0.8820
3090.000000 0.8818 0.8804 0.8794 0.8807 0.8819
3085.000000 0.8823 0.8833 0.8871 0.8910 0.8952
3080.000000 0.8994 0.9041 0.9099 0.9149 0.9190
3075.000000 0.9225 0.9272 0.9299 0.9311 0.9324
3070.000000 0.9340 0.9340 0.9370 0.9371 0.9386
3065.000000 0.9391 0.9392 0.9380 0.9383 0.9387
3060.000000 0.9394 0.9407 0.9409 0.9405 0.9399
3055.000000 0.9409 0.9412 0.9406 0.9410 0.9421
3050.000000 0.9430 0.9432 0.9435 0.9437 0.9452
3045.000000 0.9456 0.9473 0.9492 0.9510 0.9529
3040.000000 0.9545 0.9548 0.9550 0.9549 0.9535
3035.000000 0.9524 0.9523 0.9507 0.9498 0.9500
3030.000000 0.9496 0.9489 0.9491 0.9484 0.9478
3025.000000 0.9481 0.9483 0.9485 0.9487 0.9489
3020.000000 0.9491 0.9505 0.9509 0.9511 0.9497
3015.000000 0.9496 0.9496 0.9496 0.9496 0.9496
3010.000000 0.9496 0.9496 0.9495 0.9483 0.9487
3005.000000 0.9498 0.9498 0.9492 0.9482 0.9482
3000.000000 0.9491 0.9491 0.9483 0.9482 0.9482
2995.000000 0.9480 0.9480 0.9489 0.9493 0.9492
2990.000000 0.9491 0.9488 0.9487 0.9486 0.9485
2985.000000 0.9482 0.9480 0.9477 0.9475 0.9473
2980.000000 0.9474 0.9484 0.9477 0.9471 0.9480
2975.000000 0.9478 0.9476 0.9474 0.9473 0.9472
2970.000000 0.9471 0.9479 0.9484 0.9481 0.9478
2965.000000 0.9477 0.9476 0.9474 0.9471 0.9470
2960.000000 0.9468 0.9481 0.9479 0.9462 0.9460
2955.000000 0.9458 0.9460 0.9470 0.9468 0.9466
2950.000000 0.9464 0.9462 0.9461 0.9452 0.9441
2945.000000 0.9439 0.9447 0.9443 0.9446 0.9439
2940.000000 0.9444 0.9447 0.9446 0.9444 0.9443
2935.000000 0.9427 0.9424 0.9423 0.9421 0.9420
2930.000000 0.9418 0.9418 0.9416 0.9414 0.9413
2925.000000 0.9412 0.9411 0.9409 0.9402 0.9390
2920.000000 0.9389 0.9388 0.9387 0.9386 0.9386
2915.000000 0.9385 0.9384 0.9383 0.9383 0.9382
2910.000000 0.9382 0.9381 0.9394 0.9395 0.9380
2905.000000 0.9378 0.9377 0.9376 0.9376 0.9375
2900.000000 0.9375 0.9374 0.9374 0.9373 0.9373
2895.000000 0.9372 0.9372 0.9371 0.9371 0.9370
2890.000000 0.9370 0.9369 0.9368 0.9368 0.9368
2885.000000 0.9365 0.9364 0.9358 0.9352 0.9342
2880.000000 0.9332 0.9303 0.9275 0.9228 0.9215
2875.000000 0.9173 0.9132 0.9098 0.9064 0.9038
2870.000000 0.9013 0.9011 0.9010 0.9008 0.9008
2865.000000 0.9008 0.9010 0.9014 0.9018 0.9035
2860.000000 0.9052 0.9070 0.9088 0.9105 0.9122
2855.000000 0.9136 0.9139 0.9152 0.9168 0.9182
2850.000000 0.9198 0.9212 0.9226 0.9242 0.9269
2845.000000 0.9282 0.9291 0.9295 0.9317 0.9327
2840.000000 0.9330 0.9336 0.9354 0.9363 0.9364
2835.000000 0.9366 0.9376 0.9379 0.9383 0.9385
2830.000000 0.9390 0.9405 0.9398 0.9413 0.9419
2825.000000 0.9408 0.9411 0.9430 0.9419 0.9436
2820.000000 0.9440 0.9441 0.9431 0.9433 0.9435
2815.000000 0.9437 0.9441 0.9443 0.9445 0.9447
2810.000000 0.9448 0.9451 0.9463 0.9472 0.9474
2805.000000 0.9476 0.9478 0.9480 0.9483 0.9485
2800.000000 0.9488 0.9490 0.9468 0.9494 0.9496
2795.000000 0.9497 0.9498 0.9499 0.9499 0.9490
2790.000000 0.9499 0.9489 0.9490 0.9492 0.9493
2785.000000 0.9499 0.9512 0.9505 0.9499 0.9508
2780.000000 0.9516 0.9513 0.9510 0.9507 0.9504
2775.000000 0.9501 0.9499 0.9496 0.9492 0.9489
2770.000000 0.9486 0.9483 0.9481 0.9478 0.9474
2765.000000 0.9471 0.9468 0.9463 0.9460 0.9457
2760.000000 0.9454 0.9451 0.9449 0.9448 0.9447
2755.000000 0.9446 0.9445 0.9444 0.9443 0.9442
2750.000000 0.9440 0.9439 0.9439 0.9438 0.9437
2745.000000 0.9436 0.9435 0.9434 0.9433 0.9432
2740.000000 0.9431 0.9430 0.9429 0.9428 0.9427
2735.000000 0.9425 0.9424 0.9423 0.9422 0.9421
2730.000000 0.9420 0.9419 0.9418 0.9417 0.9416
2725.000000 0.9415 0.9414 0.9414 0.9414 0.9414
2720.000000 0.9414 0.9414 0.9415 0.9415 0.9415
2715.000000 0.9415 0.9415 0.9415 0.9415 0.9415
2710.000000 0.9415 0.9415 0.9415 0.9415 0.9414
2705.000000 0.9414 0.9414 0.9414 0.9415 0.9415
2700.000000 0.9415 0.9415 0.9415 0.9415 0.9415
2695.000000 0.9415 0.9415 0.9415 0.9415 0.9415
2690.000000 0.9415 0.9415 0.9416 0.9416 0.9416
2685.000000 0.9416 0.9416 0.9416 0.9417 0.9417
2680.000000 0.9417 0.9417 0.9418 0.9418 0.9418
2675.000000 0.9418 0.9418 0.9418 0.9419 0.9419
2670.000000 0.9419 0.9419 0.9420 0.9420 0.9420
2665.000000 0.9420 0.9421 0.9421 0.9421 0.9420
2660.000000 0.9420 0.9420 0.9422 0.9435 0.9435
2655.000000 0.9432 0.9431 0.9427 0.9424 0.9411
2650.000000 0.9395 0.9385 0.9383 0.9382 0.9373
2645.000000 0.9361 0.9352 0.9350 0.9359 0.9349
2640.000000 0.9345 0.9343 0.9342 0.9342 0.9342
2635.000000 0.9342 0.9357 0.9357 0.9357 0.9343
2630.000000 0.9345 0.9358 0.9359 0.9359 0.9360
2625.000000 0.9360 0.9360 0.9360 0.9360 0.9360
2620.000000 0.9362 0.9362 0.9362 0.9362 0.9363
2615.000000 0.9363 0.9363 0.9363 0.9363 0.9363
2610.000000 0.9365 0.9365 0.9366 0.9366 0.9366
2605.000000 0.9366 0.9367 0.9367 0.9367 0.9367
2600.000000 0.9369 0.9370 0.9370 0.9370 0.9372
2595.000000 0.9374 0.9375 0.9375 0.9376 0.9376
2590.000000 0.9377 0.9378 0.9379 0.9379 0.9380
2585.000000 0.9380 0.9381 0.9382 0.9383 0.9383
2580.000000 0.9384 0.9384 0.9385 0.9386 0.9387
2575.000000 0.9387 0.9388 0.9389 0.9390 0.9390
2570.000000 0.9391 0.9391 0.9392 0.9393 0.9394
2565.000000 0.9394 0.9395 0.9395 0.9396 0.9397
2560.000000 0.9398 0.9398 0.9399 0.9400 0.9401
2555.000000 0.9401 0.9402 0.9402 0.9403 0.9405
2550.000000 0.9406 0.9406 0.9407 0.9408 0.9409
2545.000000 0.9409 0.9410 0.9410 0.9411 0.9412
2540.000000 0.9412 0.9412 0.9414 0.9415 0.9415
2535.000000 0.9415 0.9417 0.9418 0.9419 0.9419
2530.000000 0.9419 0.9419 0.9419 0.9419 0.9419
2525.000000 0.9419 0.9419 0.9419 0.9419 0.9418
2520.000000 0.9418 0.9417 0.9417 0.9417 0.9417
2515.000000 0.9415 0.9415 0.9415 0.9414 0.9414
2510.000000 0.9414 0.9413 0.9413 0.9411 0.9411
2505.000000 0.9411 0.9411 0.9411 0.9411 0.9410
2500.000000 0.9410 0.9410 0.9410 0.9410 0.9410
2495.000000 0.9410 0.9410 0.9410 0.9410 0.9410
2490.000000 0.9410 0.9410 0.9410 0.9410 0.9410
2485.000000 0.9410 0.9410 0.9409 0.9409 0.9417
2480.000000 0.9423 0.9422 0.9422 0.9421 0.9420
2475.000000 0.9418 0.9417 0.9414 0.9410 0.9407
2470.000000 0.9404 0.9401 0.9398 0.9394 0.9391
2465.000000 0.9386 0.9381 0.9375 0.9370 0.9364
2460.000000 0.9358 0.9352 0.9338 0.9332 0.9326
2455.000000 0.9312 0.9307 0.9311 0.9311 0.9304
2450.000000 0.9292 0.9299 0.9305 0.9313 0.9320
2445.000000 0.9325 0.9331 0.9337 0.9343 0.9349
2440.000000 0.9355 0.9361 0.9368 0.9373 0.9379
2435.000000 0.9382 0.9386 0.9388 0.9390 0.9392
2430.000000 0.9394 0.9396 0.9399 0.9401 0.9403
2425.000000 0.9405 0.9408 0.9410 0.9412 0.9414
2420.000000 0.9417 0.9419 0.9421 0.9423 0.9425
2415.000000 0.9428 0.9431 0.9433 0.9435 0.9436
2410.000000 0.9439 0.9443 0.9450 0.9441 0.9451
2405.000000 0.9450 0.9448 0.9447 0.9446 0.9438
2400.000000 0.9430 0.9422 0.9414 0.9410 0.9407
2395.000000 0.9407 0.9408 0.9408 0.9409 0.9409
2390.000000 0.9409 0.9424 0.9425 0.9425 0.9425
2385.000000 0.9429 0.9442 0.9440 0.9442 0.9450
2380.000000 0.9448 0.9451 0.9459 0.9463 0.9469
2375.000000 0.9465 0.9473 0.9478 0.9476 0.9472
2370.000000 0.9470 0.9455 0.9449 0.9445 0.9442
2365.000000 0.9438 0.9435 0.9431 0.9428 0.9425
2360.000000 0.9437 0.9434 0.9445 0.9444 0.9457
2355.000000 0.9466 0.9462 0.9458 0.9455 0.9446
2350.000000 0.9435 0.9433 0.9439 0.9453 0.9457
2345.000000 0.9455 0.9443 0.9435 0.9434 0.9431
2340.000000 0.9430 0.9414 0.9424 0.9423 0.9405
2335.000000 0.9403 0.9417 0.9415 0.9414 0.9414
2330.000000 0.9425 0.9423 0.9421 0.9424 0.9434
2325.000000 0.9439 0.9448 0.9446 0.9445 0.9443
2320.000000 0.9442 0.9441 0.9440 0.9439 0.9438
2315.000000 0.9437 0.9435 0.9434 0.9433 0.9432
2310.000000 0.9431 0.9429 0.9428 0.9426 0.9423
2305.000000 0.9420 0.9420 0.9418 0.9416 0.9415
2300.000000 0.9413 0.9417 0.9425 0.9423 0.9422
2295.000000 0.9421 0.9419 0.9419 0.9419 0.9419
2290.000000 0.9419 0.9419 0.9408 0.9404 0.9404
2285.000000 0.9404 0.9404 0.9389 0.9389 0.9389
2280.000000 0.9389 0.9388 0.9375 0.9375 0.9372
2275.000000 0.9363 0.9369 0.9373 0.9374 0.9368
2270.000000 0.9374 0.9372 0.9370 0.9375 0.9382
2265.000000 0.9378 0.9378 0.9383 0.9389 0.9384
2260.000000 0.9386 0.9390 0.9381 0.9383 0.9387
2255.000000 0.9391 0.9381 0.9385 0.9390 0.9392
2250.000000 0.9383 0.9387 0.9391 0.9395 0.9400
2245.000000 0.9399 0.9394 0.9398 0.9401 0.9404
2240.000000 0.9406 0.9407 0.9408 0.9412 0.9414
2235.000000 0.9405 0.9402 0.9404 0.9407 0.9409
2230.000000 0.9411 0.9413 0.9415 0.9416 0.9418
2225.000000 0.9420 0.9422 0.9424 0.9424 0.9413
2220.000000 0.9415 0.9417 0.9419 0.9421 0.9422
2215.000000 0.9425 0.9426 0.9428 0.9429 0.9430
2210.000000 0.9430 0.9432 0.9433 0.9433 0.9436
2205.000000 0.9437 0.9438 0.9439 0.9440 0.9441
2200.000000 0.9442 0.9443 0.9445 0.9446 0.9446
2195.000000 0.9435 0.9450 0.9447 0.9436 0.9437
2190.000000 0.9438 0.9438 0.9439 0.9440 0.9441
2185.000000 0.9441 0.9451 0.9449 0.9443 0.9443
2180.000000 0.9444 0.9445 0.9459 0.9462 0.9463
2175.000000 0.9463 0.9464 0.9464 0.9465 0.9466
2170.000000 0.9467 0.9465 0.9453 0.9453 0.9454
2165.000000 0.9454 0.9455 0.9455 0.9456 0.9456
2160.000000 0.9457 0.9457 0.9458 0.9458 0.9458
2155.000000 0.9458 0.9459 0.9459 0.9459 0.9459
2150.000000 0.9459 0.9459 0.9459 0.9459 0.9459
2145.000000 0.9459 0.9461 0.9461 0.9461 0.9461
2140.000000 0.9462 0.9462 0.9462 0.9462 0.9462
2135.000000 0.9462 0.9462 0.9462 0.9464 0.9464
2130.000000 0.9465 0.9465 0.9466 0.9466 0.9466
2125.000000 0.9466 0.9468 0.9468 0.9456 0.9467
2120.000000 0.9469 0.9469 0.9468 0.9466 0.9466
2115.000000 0.9465 0.9463 0.9461 0.9461 0.9460
2110.000000 0.9458 0.9458 0.9457 0.9456 0.9455
2105.000000 0.9453 0.9452 0.9450 0.9449 0.9447
2100.000000 0.9446 0.9444 0.9432 0.9427 0.9438
2095.000000 0.9441 0.9427 0.9440 0.9442 0.9442
2090.000000 0.9442 0.9442 0.9442 0.9442 0.9443
2085.000000 0.9443 0.9443 0.9443 0.9444 0.9444
2080.000000 0.9444 0.9445 0.9446 0.9447 0.9448
2075.000000 0.9449 0.9451 0.9452 0.9453 0.9454
2070.000000 0.9456 0.9458 0.9457 0.9460 0.9461
2065.000000 0.9461 0.9463 0.9463 0.9464 0.9465
2060.000000 0.9465 0.9457 0.9450 0.9443 0.9445
2055.000000 0.9434 0.9423 0.9413 0.9396 0.9389
2050.000000 0.9395 0.9383 0.9374 0.9373 0.9372
2045.000000 0.9371 0.9370 0.9367 0.9366 0.9365
2040.000000 0.9365 0.9366 0.9368 0.9370 0.9371
2035.000000 0.9372 0.9373 0.9374 0.9376 0.9377
2030.000000 0.9378 0.9379 0.9386 0.9392 0.9383
2025.000000 0.9391 0.9401 0.9401 0.9402 0.9402
2020.000000 0.9403 0.9404 0.9405 0.9405 0.9406
2015.000000 0.9406 0.9407 0.9408 0.9409 0.9409
2010.000000 0.9410 0.9410 0.9410 0.9410 0.9410
2005.000000 0.9410 0.9410 0.9409 0.9409 0.9408
2000.000000 0.9408 0.9408 0.9400 0.9391 0.9390
1995.000000 0.9390 0.9389 0.9389 0.9389 0.9388
1990.000000 0.9388 0.9387 0.9387 0.9386 0.9372
1985.000000 0.9369 0.9369 0.9370 0.9372 0.9373
1980.000000 0.9375 0.9375 0.9363 0.9365 0.9366
1975.000000 0.9368 0.9370 0.9372 0.9376 0.9379
1970.000000 0.9380 0.9383 0.9386 0.9389 0.9400
1965.000000 0.9400 0.9397 0.9409 0.9416 0.9419
1960.000000 0.9421 0.9423 0.9426 0.9428 0.9429
1955.000000 0.9431 0.9417 0.9418 0.9420 0.9423
1950.000000 0.9421 0.9411 0.9414 0.9416 0.9420
1945.000000 0.9423 0.9426 0.9428 0.9431 0.9434
1940.000000 0.9436 0.9438 0.9439 0.9440 0.9442
1935.000000 0.9443 0.9443 0.9444 0.9445 0.9446
1930.000000 0.9447 0.9449 0.9451 0.9453 0.9454
1925.000000 0.9449 0.9443 0.9437 0.9432 0.9426
1920.000000 0.9411 0.9394 0.9377 0.9345 0.9300
1915.000000 0.9257 0.9214 0.9169 0.9132 0.9094
1910.000000 0.9066 0.9037 0.9038 0.9075 0.9115
1905.000000 0.9158 0.9191 0.9221 0.9254 0.9274
1900.000000 0.9293 0.9311 0.9329 0.9346 0.9353
1895.000000 0.9361 0.9368 0.9374 0.9384 0.9386
1890.000000 0.9380 0.9381 0.9382 0.9384 0.9385
1885.000000 0.9386 0.9397 0.9404 0.9404 0.9405
1880.000000 0.9404 0.9403 0.9402 0.9400 0.9399
1875.000000 0.9413 0.9412 0.9411 0.9410 0.9408
1870.000000 0.9407 0.9406 0.9405 0.9404 0.9403
1865.000000 0.9402 0.9401 0.9400 0.9399 0.9397
1860.000000 0.9397 0.9396 0.9394 0.9403 0.9398
1855.000000 0.9391 0.9389 0.9389 0.9388 0.9386
1850.000000 0.9386 0.9385 0.9384 0.9383 0.9382
1845.000000 0.9381 0.9380 0.9380 0.9381 0.9381
1840.000000 0.9382 0.9383 0.9383 0.9384 0.9378
1835.000000 0.9369 0.9370 0.9370 0.9370 0.9370
1830.000000 0.9372 0.9372 0.9373 0.9373 0.9373
1825.000000 0.9376 0.9376 0.9377 0.9378 0.9378
1820.000000 0.9378 0.9395 0.9396 0.9396 0.9396
1815.000000 0.9398 0.9398 0.9399 0.9400 0.9401
1810.000000 0.9401 0.9394 0.9385 0.9384 0.9384
1805.000000 0.9383 0.9374 0.9365 0.9365 0.9365
1800.000000 0.9365 0.9365 0.9365 0.9367 0.9369
1795.000000 0.9370 0.9372 0.9374 0.9376 0.9379
1790.000000 0.9381 0.9383 0.9384 0.9385 0.9386
1785.000000 0.9387 0.9387 0.9387 0.9374 0.9354
1780.000000 0.9335 0.9319 0.9304 0.9289 0.9266
1775.000000 0.9245 0.9230 0.9216 0.9202 0.9202
1770.000000 0.9203 0.9209 0.9214 0.9220 0.9230
1765.000000 0.9240 0.9251 0.9261 0.9272 0.9280
1760.000000 0.9286 0.9299 0.9318 0.9326 0.9334
1755.000000 0.9341 0.9348 0.9350 0.9352 0.9354
1750.000000 0.9357 0.9360 0.9361 0.9364 0.9367
1745.000000 0.9371 0.9372 0.9373 0.9373 0.9373
1740.000000 0.9374 0.9375 0.9376 0.9376 0.9377
1735.000000 0.9377 0.9377 0.9378 0.9378 0.9380
1730.000000 0.9380 0.9380 0.9381 0.9381 0.9382
1725.000000 0.9382 0.9382 0.9383 0.9383 0.9384
1720.000000 0.9384 0.9386 0.9386 0.9385 0.9386
1715.000000 0.9385 0.9385 0.9385 0.9385 0.9385
1710.000000 0.9384 0.9383 0.9383 0.9380 0.9380
1705.000000 0.9380 0.9378 0.9377 0.9377 0.9375
1700.000000 0.9374 0.9373 0.9372 0.9370 0.9369
1695.000000 0.9368 0.9366 0.9365 0.9363 0.9361
1690.000000 0.9361 0.9359 0.9357 0.9355 0.9354
1685.000000 0.9352 0.9350 0.9348 0.9344 0.9338
1680.000000 0.9335 0.9331 0.9326 0.9323 0.9308
1675.000000 0.9290 0.9270 0.9258 0.9244 0.9219
1670.000000 0.9192 0.9167 0.9147 0.9128 0.9112
1665.000000 0.9106 0.9099 0.9093 0.9089 0.9087
1660.000000 0.9097 0.9084 0.9083 0.9098 0.9100
1655.000000 0.9102 0.9103 0.9104 0.9095 0.9109
1650.000000 0.9112 0.9114 0.9103 0.9090 0.9077
1645.000000 0.9056 0.9026 0.9011 0.9015 0.9034
1640.000000 0.9013 0.9008 0.9013 0.9013 0.9017
1635.000000 0.8998 0.8974 0.8935 0.8880 0.8809
1630.000000 0.8715 0.8373 0.8093 0.7952 0.7839
1625.000000 0.5492 0.4229 0.4236 0.4249 0.4262
1620.000000 0.4621 0.5204 0.5791 0.6382 0.6985
1615.000000 0.7597 0.7877 0.7942 0.7995 0.8071
1610.000000 0.8043 0.8029 0.7969 0.7641 0.7259
1605.000000 0.6850 0.6490 0.6419 0.6354 0.6169
1600.000000 0.4515 0.2179 0.2211 0.2228 0.2709
1595.000000 0.3293 0.3884 0.4490 0.5126 0.5781
1590.000000 0.6295 0.6457 0.6599 0.6716 0.6819
1585.000000 0.6902 0.6991 0.7082 0.7122 0.7172
1580.000000 0.7211 0.7258 0.7281 0.7318 0.7343
1575.000000 0.7381 0.7425 0.7469 0.7488 0.7496
1570.000000 0.7399 0.7322 0.7224 0.7147 0.7079
1565.000000 0.7039 0.7032 0.7049 0.7101 0.7176
1560.000000 0.7288 0.7380 0.6820 0.6552 0.6494
1555.000000 0.6501 0.6525 0.6545 0.6573 0.6584
1550.000000 0.6558 0.6493 0.6407 0.6311 0.6223
1545.000000 0.6114 0.6005 0.5891 0.5761 0.5600
1540.000000 0.5435 0.3966 0.1052 0.0369 0.0358
1535.000000 0.0299 0.0341 0.0336 0.0331 0.0328
1530.000000 0.0583 0.3530 0.5091 0.5122 0.5162
1525.000000 0.5223 0.5291 0.5592 0.5945 0.6282
1520.000000 0.6626 0.6965 0.7290 0.7622 0.7882
1515.000000 0.7914 0.7945 0.7960 0.7957 0.7934
1510.000000 0.7901 0.7863 0.7815 0.7780 0.7707
1505.000000 0.7644 0.7580 0.7287 0.5628 0.1234
1500.000000 0.2389 0.1236 0.1236 0.1238 0.2288
1495.000000 0.4040 0.5772 0.6716 0.6778 0.7120
1490.000000 0.7897 0.8252 0.8319 0.8387 0.8457
1485.000000 0.8518 0.8557 0.8613 0.8679 0.8745
1480.000000 0.8787 0.8806 0.8815 0.8802 0.8801
1475.000000 0.8816 0.8785 0.8777 0.8767 0.8609
1470.000000 0.8328 0.8049 0.7769 0.7653 0.7597
1465.000000 0.7622 0.8113 0.8600 0.8697 0.8758
1460.000000 0.8820 0.8873 0.8917 0.8974 0.9032
1455.000000 0.9058 0.9067 0.9087 0.9106 0.9126
1450.000000 0.9133 0.9138 0.9149 0.9150 0.9156
1445.000000 0.9167 0.9179 0.9188 0.9195 0.9203
1440.000000 0.9196 0.9202 0.9204 0.9206 0.9209
1435.000000 0.9211 0.9211 0.9203 0.9193 0.9193
1430.000000 0.9180 0.9165 0.9154 0.9176 0.9209
1425.000000 0.9235 0.9251 0.9268 0.9292 0.9309
1420.000000 0.9312 0.9313 0.9313 0.9314 0.9299
1415.000000 0.9311 0.9340 0.9387 0.9433 0.9465
1410.000000 0.9494 0.9522 0.9543 0.9562 0.9582
1405.000000 0.9593 0.9600 0.9606 0.9614 0.9621
1400.000000 0.9625 0.9628 0.9636 0.9645 0.9643
1395.000000 0.9641 0.9640 0.9633 0.9622 0.9612
1390.000000 0.9615 0.9622 0.9614 0.9631 0.9654
1385.000000 0.9676 0.9663 0.9618 0.9572 0.9526
1380.000000 0.9481 0.9440 0.9412 0.9384 0.9351
1375.000000 0.9293 0.9230 0.9167 0.9096 0.9024
1370.000000 0.8951 0.8800 0.8450 0.7163 0.5873
1365.000000 0.5005 0.5002 0.4998 0.5223 0.5446
1360.000000 0.5671 0.5838 0.5831 0.5850 0.5693
1355.000000 0.4809 0.3925 0.3043 0.2158 0.1275
1350.000000 0.0141 0.0176 0.0195 0.0366 0.1025
1345.000000 0.1682 0.2338 0.2993 0.3646 0.4297
1340.000000 0.4949 0.5602 0.6531 0.7618 0.7979
1335.000000 0.8026 0.8072 0.8126 0.8209 0.8295
1330.000000 0.8379 0.8451 0.8537 0.8659 0.8648
1325.000000 0.8634 0.8507 0.8300 0.8087 0.7928
1320.000000 0.7921 0.8098 0.8605 0.8810 0.8911
1315.000000 0.8972 0.9022 0.9073 0.9117 0.9155
1310.000000 0.9193 0.9221 0.9248 0.9265 0.9279
1305.000000 0.9292 0.9286 0.9293 0.9301 0.9308
1300.000000 0.9312 0.9313 0.9315 0.9316 0.9322
1295.000000 0.9331 0.9328 0.9323 0.9316 0.9301
1290.000000 0.9285 0.9272 0.9197 0.9048 0.8900
1285.000000 0.8793 0.8793 0.8790 0.8981 0.9181
1280.000000 0.9381 0.9398 0.9413 0.9430 0.9463
1275.000000 0.9479 0.9496 0.9500 0.9501 0.9502
1270.000000 0.9502 0.9503 0.9502 0.9502 0.9508
1265.000000 0.9503 0.9504 0.9501 0.9482 0.9463
1260.000000 0.9418 0.9372 0.9312 0.9245 0.9158
1255.000000 0.9065 0.8946 0.8774 0.8613 0.8324
1250.000000 0.6166 0.3950 0.1957 0.1963 0.2098
1245.000000 0.2686 0.3270 0.3857 0.4444 0.5030
1240.000000 0.5617 0.6959 0.6802 0.6955 0.6955
1235.000000 0.6786 0.6528 0.6485 0.6473 0.6757
1230.000000 0.7314 0.7643 0.7789 0.7950 0.8108
1225.000000 0.8269 0.8433 0.8579 0.8703 0.8775
1220.000000 0.8848 0.8920 0.8983 0.9047 0.9111
1215.000000 0.9174 0.9233 0.9296 0.9357 0.9407
1210.000000 0.9456 0.9490 0.9524 0.9546 0.9566
1205.000000 0.9586 0.9606 0.9625 0.9645 0.9655
1200.000000 0.9664 0.9671 0.9664 0.9669 0.9677
1195.000000 0.9684 0.9690 0.9710 0.9714 0.9718
1190.000000 0.9722 0.9726 0.9729 0.9732 0.9734
1185.000000 0.9737 0.9729 0.9723 0.9706 0.9671
1180.000000 0.9639 0.9629 0.9638 0.9643 0.9641
1175.000000 0.9640 0.9639 0.9636 0.9635 0.9634
1170.000000 0.9631 0.9628 0.9625 0.9636 0.9632
1165.000000 0.9624 0.9614 0.9604 0.9588 0.9566
1160.000000 0.9543 0.9521 0.9487 0.9437 0.9387
1155.000000 0.9332 0.9276 0.9216 0.8656 0.7325
1150.000000 0.6005 0.5519 0.5501 0.6118 0.6920
1145.000000 0.7721 0.8523 0.9121 0.9224 0.9273
1140.000000 0.9323 0.9386 0.9448 0.9505 0.9543
1135.000000 0.9592 0.9607 0.9608 0.9613 0.9619
1130.000000 0.9624 0.9622 0.9638 0.9622 0.9624
1125.000000 0.9627 0.9629 0.9631 0.9642 0.9649
1120.000000 0.9649 0.9649 0.9648 0.9648 0.9438
1115.000000 0.8828 0.8216 0.7603 0.6993 0.6466
1110.000000 0.6487 0.7128 0.8167 0.8912 0.8956
1105.000000 0.9009 0.9052 0.9059 0.9061 0.9062
1100.000000 0.9064 0.9065 0.9065 0.9066 0.9065
1095.000000 0.9065 0.9064 0.9064 0.8984 0.8811
1090.000000 0.8639 0.8475 0.8486 0.8489 0.8526
1085.000000 0.8635 0.8826 0.9019 0.9207 0.9266
1080.000000 0.9297 0.9325 0.9345 0.9368 0.9386
1075.000000 0.9413 0.9443 0.9473 0.9493 0.9504
1070.000000 0.9514 0.9524 0.9534 0.9545 0.9553
1065.000000 0.9556 0.9559 0.9561 0.9579 0.9584
1060.000000 0.9586 0.9573 0.9592 0.9593 0.9581
1055.000000 0.9582 0.9583 0.9583 0.9583 0.9587
1050.000000 0.9601 0.9602 0.9602 0.9602 0.9602
1045.000000 0.9604 0.9605 0.9606 0.9606 0.9607
1040.000000 0.9608 0.9609 0.9610 0.9610 0.9621
1035.000000 0.9612 0.9616 0.9622 0.9626 0.9630
1030.000000 0.9618 0.9622 0.9626 0.9631 0.9630
1025.000000 0.9620 0.9623 0.9626 0.9629 0.9631
1020.000000 0.9634 0.9636 0.9638 0.9639 0.9640
1015.000000 0.9640 0.9641 0.9638 0.9144 0.8556
1010.000000 0.8569 0.8554 0.8744 0.8981 0.9221
1005.000000 0.9460 0.9498 0.9510 0.9520 0.9531
1000.000000 0.9542 0.9553 0.9555 0.9547 0.9551
995.000000 0.9555 0.9559 0.9562 0.9576 0.9589
990.000000 0.9593 0.9594 0.9595 0.9597 0.9598
985.000000 0.9600 0.9601 0.9602 0.9604 0.9605
980.000000 0.9606 0.9606 0.9606 0.9605 0.9606
975.000000 0.9606 0.9606 0.9604 0.9593 0.9606
970.000000 0.9606 0.9606 0.9606 0.9607 0.9608
965.000000 0.9610 0.9611 0.9613 0.9614 0.9616
960.000000 0.9618 0.9619 0.9621 0.9622 0.9624
955.000000 0.9625 0.9625 0.9625 0.9625 0.9616
950.000000 0.9607 0.9588 0.9569 0.9556 0.9553
945.000000 0.9550 0.9549 0.9548 0.9549 0.9550
940.000000 0.9551 0.9552 0.9553 0.9553 0.9554
935.000000 0.9556 0.9557 0.9558 0.9560 0.9561
930.000000 0.9563 0.9564 0.9566 0.9567 0.9568
925.000000 0.9570 0.9570 0.9572 0.9573 0.9575
920.000000 0.9576 0.9580 0.9590 0.9583 0.9596
915.000000 0.9596 0.9599 0.9601 0.9610 0.9619
910.000000 0.9620 0.9621 0.9630 0.9639 0.9638
905.000000 0.9650 0.9657 0.9658 0.9672 0.9677
900.000000 0.9682 0.9672 0.9674 0.9678 0.9671
895.000000 0.9657 0.9658 0.9646 0.9648 0.9651
890.000000 0.9653 0.9660 0.9674 0.9666 0.9665
885.000000 0.9659 0.9661 0.9659 0.9645 0.9636
880.000000 0.9624 0.9605 0.9585 0.9566 0.9546
875.000000 0.9478 0.9403 0.9329 0.9242 0.9122
870.000000 0.7621 0.6035 0.4437 0.3295 0.3314
865.000000 0.3580 0.4122 0.4667 0.5210 0.5760
860.000000 0.6320 0.6877 0.7044 0.7077 0.6803
855.000000 0.3879 0.1031 0.1060 0.1057 0.1060
850.000000 0.2987 0.5215 0.7402 0.7762 0.7889
845.000000 0.8058 0.8266 0.8313 0.8359 0.8405
840.000000 0.8464 0.8533 0.8591 0.8656 0.8711
835.000000 0.8779 0.8872 0.8960 0.9007 0.9040
830.000000 0.9079 0.9120 0.9155 0.9205 0.9254
825.000000 0.9300 0.9352 0.9403 0.9428 0.9425
820.000000 0.9438 0.9427 0.9427 0.9426 0.9441
815.000000 0.9439 0.9437 0.9435 0.9446 0.9456
810.000000 0.9453 0.9462 0.9453 0.9437 0.9441
805.000000 0.9452 0.9451 0.9451 0.9450 0.9450
800.000000 0.9449 0.9449 0.9447 0.9447 0.9446
795.000000 0.9446 0.9434 0.9427 0.9422 0.9430
790.000000 0.9413 0.9406 0.9401 0.9397 0.9392
785.000000 0.9387 0.9385 0.9369 0.9364 0.9369
780.000000 0.9366 0.9375 0.9378 0.9377 0.9387
775.000000 0.9397 0.9408 0.9411 0.9415 0.9423
770.000000 0.9427 0.9421 0.9418 0.9420 0.9420
765.000000 0.9407 0.9405 0.9405 0.9404 0.9401
760.000000 0.9401 0.9396 0.9370 0.9343 0.9279
755.000000 0.9211 0.9145 0.8993 0.8229 0.3296
750.000000 0.3300 0.3754 0.4753 0.5752 0.6751
745.000000 0.7750 0.8423 0.8478 0.8534 0.8588
740.000000 0.8644 0.8717 0.8851 0.9085 0.9241
735.000000 0.9317 0.9373 0.9388 0.9401 0.9416
730.000000 0.9444 0.9463 0.9455 0.9459 0.9468
725.000000 0.9484 0.9489 0.9499 0.9515 0.9524
720.000000 0.9526 0.9521 0.9513 0.9518 0.9517
715.000000 0.9512 0.9525 0.9532 0.9532 0.9531
710.000000 0.9531 0.9530 0.9528 0.9527 0.9526
705.000000 0.9524 0.9525 0.9540 0.9540 0.9543
700.000000 0.9558 0.9558 0.9559 0.9559 0.9559
695.000000 0.9562 0.9582 0.9561 0.9555 0.9540
690.000000 0.9523 0.9500 0.9486 0.9466 0.9437
685.000000 0.9398 0.9359 0.9331 0.9205 0.8793
680.000000 0.8393 0.7678 0.7741 0.7751 0.7881
675.000000 0.8301 0.8698 0.9033 0.9207 0.9261
670.000000 0.9341 0.9501 0.9614 0.9552 0.9488
665.000000 0.9512 0.9553 0.9572 0.9591 0.9621
660.000000 0.9657 0.9670 0.9668 0.9671 0.9664
655.000000 0.9637 0.9607 0.9576 0.9532 0.9520
650.000000 0.9518 0.9502 0.9487 0.9478 0.9466
645.000000 0.9469 0.9468 0.9461 0.9465 0.9459
640.000000 0.9450 0.9452 0.9443 0.9434 0.9439
635.000000 0.9442 0.9427 0.9427 0.9422 0.9411
630.000000 0.9413 0.9418 0.9405 0.9393 0.9368
625.000000 0.9357 0.9328 0.9260 0.9139 0.7574
620.000000 0.6009 0.4077 0.4121 0.4115 0.4519
615.000000 0.5111 0.5698 0.6283 0.6873 0.7464
610.000000 0.8055 0.8645 0.9048 0.9153 0.9245
605.000000 0.9296 0.9347 0.9396 0.9433 0.9450
600.000000 0.9467 0.9484 0.9501 0.9518 0.9534
595.000000 0.9540 0.9548 0.9555 0.9562 0.9570
590.000000 0.9576 0.9582 0.9591 0.9591 0.9593
585.000000 0.9628 0.9592 0.9595 0.9597 0.9600
580.000000 0.9602 0.9605 0.9608 0.9598 0.9597
575.000000 0.9598 0.9614 0.9618 0.9619 0.9621
570.000000 0.9622 0.9623 0.9621 0.9608 0.9611
565.000000 0.9625 0.9621 0.9610 0.9611 0.9612
560.000000 0.9612 0.9613 0.9613 0.9614 0.9613
555.000000 0.9605 0.9598 0.9598 0.9587 0.9594
550.000000 0.9599 0.9599 0.9599 0.9600 0.9600
545.000000 0.9600 0.9600 0.9601 0.9600 0.9600
540.000000 0.9601 0.9603 0.9618 0.9621 0.9634
535.000000 0.9620 0.9600 0.9597 0.9583 0.9570
530.000000 0.9557 0.9544 0.9531 0.9518 0.9518
525.000000 0.9521 0.9521 0.9521 0.9519 0.9518
520.000000 0.9516 0.9515 0.9514 0.9512 0.9510
515.000000 0.9508 0.9507 0.9505 0.9503 0.9502
510.000000 0.9500 0.9497 0.9491 0.9483 0.9473
505.000000 0.9465 0.9455 0.9437 0.9383 0.9330
500.000000 0.9276 0.9225 0.9178 0.9129 0.9081
495.000000 0.9034 0.8969 0.8903 0.8862 0.8829
490.000000 0.8800 0.8779 0.8754 0.8755 0.8742
485.000000 0.8748 0.8754 0.8761 0.8771 0.8793
480.000000 0.8815 0.8837 0.8860 0.8878 0.8889
475.000000 0.8903 0.8916 0.8929 0.8937 0.8937
470.000000 0.8939 0.8940 0.8940 0.8942 0.8942
465.000000 0.8944 0.8944 0.8944 0.8942 0.8940
460.000000 0.8939 0.8937 0.8936 0.8934 0.8933
455.000000 0.8932 0.8930 0.8929 0.8929 0.8929
450.000000 0.8930 0.8932 0.8933 0.8934 0.8936
445.000000 0.8937 0.8950 0.8940 0.8940 0.8940
440.000000 0.8939 0.8937 0.8936 0.8934 0.8933
435.000000 0.8932 0.8930 0.8930 0.8929 0.8929
430.000000 0.8931
##END=
