##TITLE=Pentafluoroethane
##JCAMP-DX=4.24
##DATA TYPE=INFRARED SPECTRUM
##CLASS=IUPAC A
##ORIGIN=NIST, Analytical Chemistry Division, 301-975-3108
##OWNER=COPYRIGHT (C) 2000 by the U.S. Secretary of Commerce
##DATE=00/02/01
##$SPECTRA VERSION=1.10
##$UNCERTAINTY IN Y=2.0 % relative (B=1.0E-04,C=1.4E-09,D=3.5E-13)
##CAS NAME=Pentafluoroethane
##CAS REGISTRY NO=354-33-6
##MOLFORM=C2 H F5
##MP=-102.78 C
##BP=-48.55 C
##$NIST SOURCE=QUANT-IR
##SPECTROMETER/DATA SYSTEM=IFS66V (Bruker)
##INSTRUMENT PARAMETERS=KBr Beam Splitter; MCT Detector; Multipass cell
##STATE=gas
##SAMPLE DESCRIPTION=Pentafluoroethane Primary Gas Standard
##PRESSURE=101.3 Pa
##TEMPERATURE=23 C
##SAMPLING PROCEDURE=1 L/min Flow
##RESOLUTION=1.9290
##DATA PROCESSING=Triangular Apodization
##XUNITS=cm-1
##YUNITS=(micromol/mol)-1m-1 (base 10)
##XFACTOR=1.0
##YFACTOR=3.6379E-12
##DELTAX=0.9645
##FIRSTX=575.652
##LASTX=3974.603
##FIRSTY=.0000825
##MAXX=3973.64
##MINX=575.65
##MAXY=.0028363
##MINY=-8.26E-06
##NPOINTS=3526
##XYDATA=(X++(Y..Y))
575.65 22681369 29070884 44832404 41519611 28256604 25809625
580.47 24983638 26521297 28900716 31128260 32107797 31132592
586.26 29012784 25853076 22312007 18422685 14728610 11831246
592.04 9148201 7008372 5655985 4397255 3267384 2420326
597.83 1742940 1377076 1343009 1452824 1109138 968334
603.62 1058560 869395 729048 725912 572414 569470
609.40 664402 657558 491693 440781 515720 413409
615.19 481958 607709 631737 501701 455109 462624
620.97 503540 504476 389341 382033 372770 392723
626.76 510513 571625 341068 252609 347069 637345
632.54 799909 613553 360399 419627 673727 512051
638.33 495447 481646 444504 635835 820049 812654
644.11 671520 686330 610232 757775 954750 817116
649.90 822253 720761 683485 714550 583637 630631
655.68 757249 780515 712182 702501 735330 608467
661.47 657824 832306 743828 581811 557834-183877
667.25-443236 376967 669584 537065 458597 512551
673.04 514244 516085 580095 597497 595216 412002
678.83 396371 537263 551261 563461 406291 251748
684.61 326830 488913 448840 368909 497612 530797
690.40 537608 660139 846913 816343 823569 1120495
696.18 1406072 1615391 1874014 2339901 2968523 3852351
701.97 4956660 6121870 7871637 10075093 12614438 15496077
707.75 18824140 22502919 26205499 29844918 33244066 36375128
713.54 39163574 41518123 44194872 49120577 54101196 60232300
719.32 75234904 77994578 66925982 57903840 50953186 52226351
725.11 71792234 91559535 80867648 66423630 58809297 51734930
730.89 48702188 46654236 45224534 42986342 40483189 37183695
736.68 33140856 28677896 24234566 19960311 16245410 12850957
742.47 9951896 7726668 6124319 4773522 3665664 2839103
748.25 2367706 2005595 1687140 1372554 1216267 1079473
754.04 939806 980769 971108 848458 809026 841789
759.82 787436 782672 868769 748919 709270 823302
765.61 868481 892727 964437 947709 931846 967940
771.39 931454 916334 1008320 1078557 1110849 1108100
777.18 1165313 1206940 1177975 1246976 1397298 1413120
782.96 1435688 1393389 1415748 1442918 1323785 1236268
788.75 1212924 1302773 1359569 1341741 1418486 1481530
794.53 1403170 1371579 1377127 1343049 1196159 1019922
800.32 1056669 1229143 1195086 1081442 1099509 1071019
806.11 998641 1026563 1013755 952107 983653 959074
811.89 913522 938878 1002236 1008544 928565 943401
817.68 906230 844806 817224 878858 996076 1009875
823.46 1033359 1171517 1202624 1312596 1493947 1580888
829.25 1704482 1558175 1383258 1574490 1777012 1904790
835.03 2095278 2379208 2693480 3063917 3605990 4240198
840.82 4908347 5804837 7023052 8523143 10327740 12345238
846.60 14667567 17576206 20855704 24419369 28431731 32763107
852.39 37318948 42000156 46322025 49865004 52751626 55799780
858.17 58766763 61429054 64631762 68846103 73495795 80435903
863.96 88040275 96164065 107615576 112266187 91592077 65236493
869.75 59980074 61897411 63222688 64110803 63495230 61339545
875.53 57451408 52248861 46048545 39542276 33160222 27326389
881.32 22260148 18054633 14621300 12006774 10053620 8713877
887.10 7745528 7016680 6437277 5988867 5674675 5480302
892.89 5168158 4844557 4598036 4398614 4175841 3878520
898.67 3899427 4004072 3927456 3834594 3692160 3498766
904.46 3249486 2974592 2697516 2461243 2161295 1888396
910.24 1767645 1654856 1467124 1425444 1504381 1506684
916.03 1427265 1451415 1553032 1594296 1684253 1764388
921.81 1744532 1798001 1923298 2002294 2017167 2035569
927.60 2073464 2091516 2115259 2192239 2280894 2346724
933.39 2448567 2510708 2522326 2482706 2440696 2426465
939.17 2326792 2164140 2095973 2098045 1994472 1870733
944.96 1736802 1607732 1481918 1311618 1193095 1175354
950.74 1121620 1086460 1022259 957282 851924 667365
956.53 603298 641556 671911 526889 463128 514688
962.31 505701 508715 545561 518137 501377 485110
968.10 493466 568987 623398 665496 663887 670402
973.88 668311 653104 607285 685834 744673 758912
979.67 854474 847860 814136 766303 717736 731740
985.45 785185 827552 821611 739082 697015 710293
991.24 629927 586426 612886 616753 639359 608227
997.03 494301 505876 637355 637598 638245 606564
1002.81 565173 580798 590664 613700 637233 638255
1008.60 589250 577863 545349 540504 531115 524460
1014.38 561953 580791 529759 498723 572270 522709
1020.17 446010 439457 432995 466301 469614 434602
1025.95 464453 474765 479943 489672 425488 420971
1031.74 433754 438691 463514 462685 384883 393080
1037.52 459510 527598 568525 583261 617922 662534
1043.31 707985 711099 758010 774016 722283 776969
1049.09 880293 976424 1039155 1090249 1273154 1435884
1054.88 1569393 1698748 1819007 2049032 2267584 2426042
1060.67 2745267 3079466 3331081 3663481 3956117 4254268
1066.45 4572393 4838200 5126567 5406690 5761819 6079097
1072.24 6382617 6691979 6986179 7271494 7379502 7373376
1078.02 7369386 7661271 7989563 8101497 8098969 8091427
1083.81 8199521 8380494 8659657 9010553 9364310 9826796
1089.59 10379067 11122208 12014752 13023137 14134119 15394237
1095.38 16799351 18355147 20185423 22649927 25279689 26912941
1101.16 28203827 29567200 31093406 33235997 34810014 36948114
1106.95 39847222 43139093 47169733 47607308 45731656 45453790
1112.73 45864300 46631987 47821835 48445939 48845454 49909140
1118.52 51672151 53731381 54176537 54181020 55920246 59768870
1124.31 65490573 72958156 82447895 94655298 109998633 129089778
1130.09 152071478 178817744 208888021 241768751 277120674 316693072
1135.88 358214942 397649049 433873422 466047220 491800080 521139791
1141.66 514553662 457885726 459765243 539699994 564055816 526673130
1147.45 518563794 501828299 441268190 365935895 298149101 242886937
1153.23 199539848 168685965 144840193 118688281 95124089 78474901
1159.02 64878520 53868636 45703063 39847554 34828214 30909260
1164.80 28040710 25677807 23931261 22994093 22694677 22833984
1170.59 23029097 22951483 23260894 24504549 26315341 28728957
1176.37 31802070 35378760 39643688 44580954 50702380 58066094
1182.16 65907348 75144295 85803534 97823165 111191899 125260014
1187.95 140160916 155722551 170710461 184695731 200950488 221263117
1193.73 249864777 294412513 359400152 436903041 519814879 541145058
1199.52 460007146 420035029 453172040 488728020 547649347 626896478
1205.30 699206360 751009770 777424400 779640026 767124355 746964028
1211.09 725665400 706857920 692854049 684376452 681083322 682637671
1216.87 691128460 702992963 710475495 693571923 649553577 610774976
1222.66 604005855 597972168 544678115 477926847 433093243 405179144
1228.44 383687991 360173533 332649443 300233400 264990766 229378129
1234.23 195262916 163584867 135465004 111324564 91326035 74938263
1240.01 61852512 51664862 44039582 37548722 32434836 28753771
1245.80 25719333 23425291 22092157 21541844 20321416 19157420
1251.59 18514708 17830652 17615054 17376668 17361395 17411990
1257.37 17601803 17788082 18077201 18342876 18609206 18961243
1263.16 19397180 19616913 19849927 20070138 20220806 20416458
1268.94 20609102 20727083 21075501 21337869 21612711 21900532
1274.73 22378903 23305580 24526103 26013646 26919596 26678287
1280.51 27995097 30579053 33996814 38253923 43372240 49471558
1286.30 57024346 66093395 77548891 90800825 105889753 122381569
1292.08 140165016 157992507 175542701 191001498 204818195 214777284
1297.87 220934358 222044073 221658278 221387390 222398121 226722212
1303.65 243329139 269876343 322504223 385605171 462910346 440166290
1309.44 255063536 163996524 160041461 150804370 150983754 149369429
1315.23 149034539 144522114 138373867 128543072 117356938 104100112
1321.01 90798455 77186990 64580604 52760271 42630054 33722021
1326.80 26566068 20559107 16018371 12407667 9908511 8002460
1332.58 6711917 5766098 5279928 4935941 4935033 5012593
1338.37 5335004 5714848 6337581 6939443 7567966 8144899
1344.15 8687958 8982260 9172396 9138217 9107948 9233485
1349.94 9625682 10110207 10599228 10822496 10840947 12156110
1355.72 14269984 14318744 12823104 11330526 10248934 9688391
1361.51 9371559 9066746 8894470 8530976 8116915 7630706
1367.29 7092111 6571629 6180698 5951785 5726520 5321165
1373.08 5019597 4821336 4760072 4753208 4810592 4866689
1378.87 4890870 4908361 5004630 5117747 5257332 5362692
1384.65 5532892 5618458 5904515 6423104 6538116 6782365
1390.44 7427350 7428264 6701833 5914372 5396429 5073126
1396.22 4758425 4434266 4194680 4160345 4144084 3983675
1402.01 3746632 3494688 3277094 3099764 2908092 2644443
1407.79 2428641 2260873 2096700 2027501 2003316 2002062
1413.58 2020577 2010029 1972285 2023465 1861393 1653394
1419.36 2248733 2718967 2866485 2936526 3059161 3345890
1425.15 3552158 3724213 3918432 4038230 4081576 4313215
1430.93 4491308 4582173 4754675 5191177 5299234 4893064
1436.72 5310881 5844055 6151246 6522768 6790223 7051915
1442.51 7287728 7348401 7143461 6799605 6471101 6249553
1448.29 6206171 6206866 6117490 5975065 5355620 4705867
1454.08 4548656 3868519 3282305 3576042 3574770 3355059
1459.86 3045490 2595291 2233488 1803368 1302643 1250520
1465.65 1300181 1194144 1095605 929224 825163 416419
1471.43 95924 25644 283254 394857 253753 440036
1477.22 531201 507562 443545 370538 413502 409081
1483.00 399893 422863 329553 124223 151549 181251
1488.79-22110-18489 193265 344635 333262 333189
1494.57-123232-284112 212405 100592 205841 467468
1500.36 480165 524459 541481 354452-293072-737465
1506.14-618859 20853 356777 405890 542761 376999
1511.93 415725 572469 501041 425186 157598 155580
1517.72 402051 251446-355533-468483-23006 309915
1523.50 277052 30396 215896 339090 370690 446517
1529.29 489312 398470 270214-12708-14182 348782
1535.07 387611 411169-44562-950865-920901-376124
1540.86-376789-43999 488258 326377 358819 691361
1546.64 761543 781632 669782 713183 866953 1027471
1552.43 900664 580490 853426 975477 258818-490346
1558.21-528035-413379 373045 974224 1048462 1028913
1564.00 896763 1040963 1063706 1018551 774375 564119
1569.78 889371 1067174 1025501 1036748 961750 115553
1575.57-70742 813705 1011699 1064095 1140327 1114032
1581.36 1054929 1026578 974208 997672 1047976 949938
1587.14 850929 767557 717671 691744 673470 674851
1592.93 624668 565750 517461 467760 447267 440785
1598.71 425804 389845 386636 383425 341701 292387
1604.50 290262 253441 254734 288269 255841 280901
1610.28 344966 319391 267670 231368 204687-561800
1616.07-786496 54434 258720 272358 294260 290381
1621.85 80660-21139 269987 410771 365924 270310
1627.64 389603 571333 578098 597844 596521 590993
1633.42 212033-399804 39253 474750 482458 590823
1639.21 597877 590372 629608 649064 656626 280115
1645.00-261064-714 214528 368205 483498 360369
1650.78-552230-1787467-1290251-246855 226570 393292
1656.57 410483 435921 440491 439176 369091 98730
1662.35 125013 388560 443748 458909 441734 236017
1668.14-129360 83121 293840 297819 455065 365851
1673.92-135491-66027 426026 450314 467063 393221
1679.71 362072 379570 109435-457769-1246256-714947
1685.49 265275 304921 302612 248558 250855 335942
1691.28 388497 277118 224359-707461-1129091-101867
1697.06 265356-189531-1062513-719591 241412 532908
1702.85 449042 408945 531120 626918 918012 1078928
1708.64 1119708 1156062 1321704 1386738 1374326 1197520
1714.42 1244022 1166569 640064 1029292 1639569 1853122
1720.21 1884413 1804058 1821367 1875464 1863451 1743331
1725.99 1641803 1551082 1387875 1193419 1210194 1168265
1731.78 598078-92971-106007 503976 721113 620240
1737.56 528760 134948 159525 447278 380826 314612
1743.35 347845 341684 251752 194915 73761 19793
1749.13-21156-336898-116050 212477 225097 263773
1754.92 97152-35846 140080 221151 259552 182511
1760.70-81812 73093 324579 348258 345701 388174
1766.49 210345 123995 403913 365831 136236-215930
1772.28-33210 466701 473522 536438 642391 660644
1778.06 649766 564092 539311 618844 672708 627482
1783.85 516999 577557 667117 691762 703369 680732
1789.63 668097 559767 310096 549656 846178 791815
1795.42 765095 770472 776189 702120 729591 735755
1801.20 686360 761451 769785 716667 741760 685052
1806.99 617945 636054 553646 468177 489156 460442
1812.77 423912 400853 388329 352755 301653 345167
1818.56 341691 281125 271684 235069 222421 89416
1824.34-17551 160866 249852 187859 27425-62755
1830.13 114116 212349 229603 217098 191481 211976
1835.92 195051 139742 117285 140621 154834 140096
1841.70 114261-226665-321701 46308 135377 121439
1847.49 163106 167268 159370 169065 207963 260816
1853.27 258105 272813 328600 309289 313724 359611
1859.06 355706 359334 406003 445058 452977 469937
1864.84 466289 407476 360111 217435 160051 304017
1870.63 356258 409270 433326 398031 364886 322082
1876.41 280672 220644 185499 165834 145611 124230
1882.20 103836 94737 113624 94333 77256 81120
1887.98 4941-10601 48921 61043 78282 71848
1893.77 25330 11311 41027 70402 101012 132067
1899.56 95541 44652 79759 106487 106220 105790
1905.34 154710 185489 201939 206806 192531 264049
1911.13 343259 379601 419286 473012 547803 545026
1916.91 515976 642062 725856 827275 964724 1038302
1922.70 1172718 1314899 1346528 1379512 1456201 1510837
1928.48 1567228 1642931 1721828 1786751 1798847 1763222
1934.27 1724149 1700495 1699640 1644538 1584959 1516928
1940.05 1481967 1445249 1340333 1239875 1171013 1119060
1945.84 1049190 1005466 978540 874766 776516 699134
1951.62 582453 541685 524249 461026 406189 346431
1957.41 302267 256466 190394 180242 173940 123146
1963.20 118108 101576 29790-19105 24597 94744
1968.98 94553 73787 78855 58803 37589 20407
1974.77 15107 41698 34665 42397 40588 42831
1980.55 68017 23052-4720 34197 17890-4731
1986.34 8001 34372 36433 40942 42998-7033
1992.12 28659 70012 65349 92861 121227 115813
1997.91 71074 64372 107116 126517 130557 108475
2003.69 130148 184520 167482 124584 111290 142211
2009.48 163681 144862 120098 109827 98153 103698
2015.26 109838 106600 128731 137849 128986 108254
2021.05 134596 139949 101033 123777 136904 136043
2026.84 122252 107751 134431 120032 142885 169982
2032.62 137491 138249 150053 147483 162282 201756
2038.41 209918 211441 238249 265081 286677 312232
2044.19 337491 369541 393505 423558 480883 518004
2049.98 548225 614657 680126 710194 739112 776441
2055.76 875008 955522 984461 1057283 1154798 1238278
2061.55 1288038 1326456 1251064 1140138 1040072 925258
2067.33 919463 940538 956554 983482 988445 968633
2073.12 915105 870343 793876 716631 692411 629899
2078.90 552476 492188 449139 439142 467604 437620
2084.69 397212 398861 372154 328585 308658 303458
2090.48 264803 232377 211427 220394 220510 203221
2096.26 181776 158557 201407 178601 101786 99419
2102.05 153361 112640 39490 33969 93651 100656
2107.83 64071 38659 96623 145919 68854 8576
2113.62 23897 130619 119848 58673 78364 139247
2119.40 96248 24477 57283 116601 87909 54871
2125.19 61844 105285 125737 57580 64270 114815
2130.97 123664 68744 75212 139379 143274 118904
2136.76 143300 201591 226419 210875 196654 197825
2142.54 226746 279001 322948 400340 456348 487011
2148.33 554659 603470 652081 713416 735567 806126
2154.12 920438 933545 923098 1020371 1104486 1111310
2159.90 1143175 1182398 1181101 1169256 1253201 1383531
2165.69 1415344 1390500 1483126 1508580 1358627 1141967
2171.47 904463 797048 702014 679463 738880 679830
2177.26 638508 701495 658474 469485 392210 398012
2183.04 317122 242142 268275 280848 172589 119807
2188.83 145812 106129 68251 99530 88099 10906
2194.61 11573 48747 32048 11478 60061 83172
2200.40 67255 126308 104263 17088-6335 32394
2206.18 48337 70699 90702 47138 52056 69128
2211.97 62438 62186 104549 109753 104423 97428
2217.76 72518 87595 131934 138801 154526 144078
2223.54 115659 149589 154002 178704 220125 199458
2229.33 197326 214050 221151 239855 251531 291922
2235.11 328278 368629 425978 450281 465739 517644
2240.90 562498 617225 719658 798507 835499 890217
2246.68 975560 1006684 1067942 1161506 1222760 1293219
2252.47 1350139 1376754 1426547 1493975 1528777 1576615
2258.25 1638838 1629296 1648424 1723225 1742684 1777768
2264.04 1844793 1873007 1922215 2050749 2162565 2225536
2269.82 2325842 2490428 2691547 2975802 3244325 3397144
2275.61 3460934 3448248 3494042 3636929 3682000 3606682
2281.40 3636747 3654267 3441254 3087938 2780119 2454826
2287.18 2110518 1896212 1667986 1411660 1255658 1133015
2292.97 1026556 940803 896072 815330 694345 616712
2298.75 544403 539861 597628 546143 485691 415541
2304.54 429236 403339 401093 359127 299096 233457
2310.32 230004 216144 160695 156209 85774 58405
2316.11 13605 29042 4321-44159-145663-158674
2321.89-209240-257894-282307-288621-340723-419832
2327.68-473873-478650-499354-560992-591459-555312
2333.46-570050-566424-542884-553031-553292-575182
2339.25-564683-559761-526757-430872-391167-333063
2345.04-184589-79376 5194 60926 6541-118776
2350.82-216013-331917-439150-501217-580442-648803
2356.61-708410-791067-854920-882699-865446-866661
2362.39-879279-832154-743793-723507-701137-620810
2368.18-576247-498660-420209-333748-236626-188111
2373.96-93935-42950 9968 54829 49527 60599
2379.75 85995 147384 188001 286119 369597 380926
2385.53 420040 456574 535284 599520 610217 719394
2391.32 838117 873839 914171 949469 1054196 1203997
2397.10 1416783 1634008 1761576 1891985 1949187 1907904
2402.89 1852090 1817818 1792695 1819826 1903680 1922556
2408.67 1907582 1901904 1877013 1853594 1828103 1746687
2414.46 1643982 1600645 1469780 1190214 981710 917724
2420.25 863515 792435 736581 600122 461030 381870
2426.03 298041 253576 263333 280751 300122 304463
2431.82 340383 356935 338453 374239 416285 406232
2437.60 402045 373204 343546 367529 371567 384695
2443.39 412007 409665 372300 314780 296403 277855
2449.17 248287 221376 178683 204276 190277 130171
2454.96 112893 59313-12362-51686-76822-138968
2460.74-166983-145929-167838-178197-186106-197709
2466.53-172984-154552-170759-196857-200699-173853
2472.31-139799-114879-119829-111753-61357-48491
2478.10-40654 15908 64131 128227 191567 241717
2483.89 315906 356422 361844 420867 491812 547793
2489.67 620808 740772 895511 991685 1079059 1147049
2495.46 1180129 1216552 1247760 1310973 1422711 1522563
2501.24 1574531 1582877 1594630 1473497 1239853 1145249
2507.03 1101231 1069324 1113409 1100688 1061543 1024528
2512.81 902002 774951 664709 601764 528938 420695
2518.60 322639 287832 239117 120260 126407 136712
2524.38 115133 65666 43508 64914 53433 85354
2530.17 102109 65788 90172 83380 17224 6158
2535.95-2319 11180 47369 46111 12011-20043
2541.74-29449-45828-22004 30800 29231 15935
2547.53 6755 22811 32564 6568 30066 45978
2553.31 86953 143435 151357 179016 237512 283819
2559.10 301496 296331 307468 341905 376716 407348
2564.88 432116 423231 416938 418284 372918 349520
2570.67 332850 355362 351770 338330 379831 387028
2576.45 343384 251722 208377 239408 246817 193285
2582.24 186922 180752 148541 192943 193606 171412
2588.02 180024 196231 239507 268657 319522 344619
2593.81 361867 442299 518761 520155 496068 496753
2599.59 474159 433176 484517 540467 505178 568438
2605.38 572659 624689 602417 397851 355808 365862
2611.17 372251 255906 6417-176811-217937-221481
2616.95-239701-161496-3966 50998-11064-88348
2622.74-133938-137568-165697-261825-270501-210981
2628.52-228803-217822-188149-168342-190017-176006
2634.31-105633-97440-101072-63053-18871 4876
2640.09 36509 68355 65395 85962 178804 201856
2645.88 212748 286060 254798 200321 243714 309769
2651.66 345645 355483 337330 368265 389957 354987
2657.45 342950 369645 351587 306350 289517 296028
2663.23 339634 352216 351777 321193 336215 311557
2669.02 244533 283477 293334 239318 229284 286765
2674.81 259703 189192 207412 225495 233211 229199
2680.59 148382 136129 189894 156816 141002 160071
2686.38 195223 265319 276705 191757 126129 98516
2692.16 60987 26092-16198-32917-29973 11013
2697.95 1636-61396-53748-31510-1875-57732
2703.73-97009-27024 15932-1327-40847-71245
2709.52-76438-86146-85370-79191-105536-108237
2715.30-133469-127583-96908-101514-77747-90205
2721.09-120056-23656-15592-98300-82073-62159
2726.87-67472-48587-16264-39015-53993-39367
2732.66-8829 36802 65855 30659-6460 36847
2738.45 29636 46340 34159-14619 17067 55108
2744.23 25516 15214 37271 12258 12324-4915
2750.02-26270-51417-110366-72774 8911-26158
2755.80-93066-117592-102925-52798-25541-71341
2761.59-112211-102427-29577 16093-25401-37322
2767.37-1491 29689 57537 87406 117334 90907
2773.16 16308 39513 98081 123752 103694 86125
2778.94 117411 123008 127775 115192 148570 180732
2784.73 128674 95366 165820 155808 133381 161039
2790.51 141170 85712 68226 126274 150290 178765
2796.30 130016 15953-38212-9367-6556-29758
2802.09-18420-14077-18739 4299 16480 64188
2807.87 78293 17986 5949-43490-78450 49765
2813.66 42891-45478-4808 5140 31994 63343
2819.44 104056 105329 73906 54791 52479 88958
2825.23 121682 155501 194381 243379 296165 308475
2831.01 386624 480470 485272 463421 494526 546668
2836.80 637613 706329 664670 685259 771687 801016
2842.58 763114 749290 820234 868469 926302 868051
2848.37 692355 702262 665102 578292 546898 511751
2854.15 512009 515793 456272 397933 423237 422267
2859.94 374957 339894 324789 324202 327770 286890
2865.73 229082 241725 268905 228819 197188 223759
2871.51 232153 241121 194339 139306 155566 133574
2877.30 77356 71415 48229 32127 42160 40063
2883.08-3283-106100-115701-86977-60472-29861
2888.87-37293-53258-65293-86174-63432-75112
2894.65-117771-65371-33041-39637-18160-76810
2900.44-140437-101550-130438-197468-226672-186433
2906.22-120062-161749-144514-90625-125821-122763
2912.01-80189-145011-190698-128496-89563-94739
2917.79-132610-93226-91723-153403-57884-34541
2923.58-85897-66023-101577-152627-60770 28522
2929.37-18907-63957-43543-23253-37165-54739
2935.15 15132 56331 22930 10227-8926-60891
2940.94-131966-95882-18736-18464-49379-41304
2946.72-67863-99615-95725-73853-17357 34719
2952.51 34110-203-31248-25960-42182-30297
2958.29 2339-47681-68925 13789 109447 176017
2964.08 245918 250024 208210 256485 384048 509138
2969.86 614664 695193 883973 1048946 1185121 1483764
2975.65 1834971 2214589 2667363 3216872 3808276 4491350
2981.43 5322426 6320097 7432489 8637536 9891444 11244990
2987.22 12727048 14001230 14945023 15782827 16431116 16953977
2993.01 17374015 17806250 18537711 19589159 21519635 24377384
2998.79 28005167 34088797 37619161 31469315 23005306 19015220
3004.58 17443935 16712308 16269551 16039411 15815771 15420583
3010.36 14693297 13714013 12585117 11300250 9896144 8490375
3016.15 7182546 5985552 4869069 3946014 3191224 2472089
3021.93 1855226 1452569 1166581 910281 696095 545673
3027.72 432370 318848 200962 152345 87388 15850
3033.50 13764 47609 23079-38565 6411 40920
3039.29-14562-67103-108561-127264-100295-98629
3045.07-113255-178503-145378-32675-30284-88478
3050.86-79391-103706-103353-110720-157580-78061
3056.65 30291 61640-24183-46470-9653-9549
3062.43-15319-48015 15920 97187 58108 32160
3068.22 23328 17259 16471 30551 44342 62376
3074.00 100947 50999 6186 11987-27169-22311
3079.79-17269-55777-58434-52592-62485-48836
3085.57-69673-61843-32737-83482-94845-108148
3091.36-89317-41305-35049-118611-171755-205201
3097.14-227656-205490-160044-84976-120154-86754
3102.93-39513-96631-95961-151422-206675-176341
3108.71-139520-119262-167937-159944-76357-88098
3114.50-167481-127273-113817-78598-32484-45708
3120.29-42630-63946-78267-83555-72599-108646
3126.07-124181-100570-95901-77549-91515-72226
3131.86-80900-66005 22795 8711 18752-33208
3137.64-82349-87401-124145-111121-103008-95460
3143.43-25669 27668 26094 11970-93682-118314
3149.21-62033-51697-64349-98427-75230-85168
3155.00-90487-76921-101961-65378-121528-187496
3160.78-140609-153529-105941-66546-81207-21503
3166.57-51097-139503-129284-94977-101037-46545
3172.35-81333-107450-48130-14446-18532-115816
3178.14-128867-81694-44029-67235-87641-64135
3183.93-107068-135569-68665-44361-45241-53573
3189.71-25420 2783-32367-61103-64167-48528
3195.50-73769-70968-61266-31546-63401-114048
3201.28-112767-83003-20738-24558-2336-50913
3207.07-122415-136260-138176-80953 14499 26305
3212.85-93454-82400-67981-104678-33497-27936
3218.64-100570-71293-23364-76433-53046-75827
3224.42-65527-53056-133977-121288-47730 1477
3230.21-31768-30213 17680 439-69890-47395
3235.99-8761 31416 55694 28524 9447 9747
3241.78-24383-22663-31069-41728 29328 59550
3247.56 14002-36523-813-17317 5232 65501
3253.35 26403-28710-81633-158214-226639-92620
3259.14 20398-39113-151225-165443-85815-32352
3264.92-17334-129110-163928-36621 13574-53083
3270.71-168133-184702-64191 67719 19790-7142
3276.49 39664-74297-143127-93331-130175-222829
3282.28-219662-224291-132678-47554-58202-111486
3288.06-87186-91245-161055-124090-200576-220364
3293.85-62532-1445-23099-63806-190939-275780
3299.63-217872-152022-94656-91034-171086-136361
3305.42-21717-63795-167390-173128-124654-63399
3311.20-107127-187178-197793-208535-180009-114830
3316.99-141228-203836-182643-150428-106601-108511
3322.78-136151-141321-191809-222133-140891-116732
3328.56-156992-123814-134288-179896-237633-190051
3334.35-97819-152471-198322-144830-132106-127199
3340.13-75831-59721-181098-227309-219731-253517
3345.92-202948-124524-107209-172481-181938-178815
3351.70-232897-196748-154179-188853-171846-184682
3357.49-136961-164746-245128-182271-98115-114248
3363.27-167506-216501-224605-209320-157919-57863
3369.06-104148-201098-195437-140270-220437-231470
3374.84-180545-157854-119178-145525-167200-163567
3380.63-181652-209402-212918-237966-240452-229148
3386.42-142622-116132-163772-154933-152431-166867
3392.20-191583-280382-343636-234311-202035-235419
3397.99-188170-145472-141695-202134-193982-198198
3403.77-163183-107400-182219-259555-245933-215379
3409.56-259228-255637-248013-277221-230692-201606
3415.34-246222-254600-261144-267025-260689-293439
3421.13-284942-204026-244405-305133-323360-312502
3426.91-302894-265943-239874-319311-340516-349143
3432.70-307696-334188-357405-334314-339943-288966
3438.48-292192-343000-320277-316098-313369-297036
3444.27-341109-373763-342111-235400-175729-227472
3450.06-365046-313536-291314-362078-248632-178122
3455.84-283891-283567-214681-243033-318184-311774
3461.63-302591-328895-272555-348074-391230-375499
3467.41-346987-347418-377284-356913-343898-281633
3473.20-321279-377612-384288-388534-323235-279890
3478.98-321582-314320-353629-399199-375142-389129
3484.77-337894-334786-358102-279003-314476-412513
3490.55-331619-204891-240382-376214-402623-393469
3496.34-416530-351252-290965-347244-312814-243229
3502.12-342377-430158-418744-374323-373815-317406
3507.91-262140-366037-387703-356891-360029-367872
3513.70-319559-233774-303734-385930-403200-400554
3519.48-294339-288495-329129-248800-333898-419642
3525.27-360693-355155-363889-380994-363621-311422
3531.05-329397-397584-376256-359350-351469-328644
3536.84-330281-292076-245232-267566-353918-380390
3542.62-358096-392672-445234-468341-436341-308859
3548.41-292529-350432-409619-420805-379819-386354
3554.19-322324-316722-369724-369160-371392-369054
3559.98-318280-321627-364025-364733-361162-453751
3565.76-524327-623587-555807-327104-285076-277986
3571.55-299585-282582-291689-339997-324319-323356
3577.34-298438-315957-406735-335299-306496-364407
3583.12-349995-347747-545982-637858-675174-687208
3588.91-405198-318474-355741-393298-323281-374708
3594.69-482753-377643-413189-510343-468150-422848
3600.48-418535-452776-444327-381893-388756-540440
3606.26-606076-644358-818622-615201-503327-693853
3612.05-638542-546276-568254-468417-549306-625090
3617.83-738768-841539-591387-555635-551147-458519
3623.62-478021-553298-582887-783285-1247633-1333703
3629.40-862319-515027-455060-540378-538392-410002
3635.19-355143-385680-518203-532417-406198-446078
3640.98-545712-457591-401811-460855-540028-819472
3646.76-907357-1162442-1275952-1023496-843835-565354
3652.55-501217-481856-799965-1025365-686333-511591
3658.33-504933-501228-523764-495071-460859-462005
3664.12-463736-526081-501452-731700-875302-1078234
3669.90-1350380-782648-508491-706128-1154778-1543439
3675.69-1079263-557161-591440-674858-573137-500148
3681.47-516559-523064-504033-498101-487629-799512
3687.26-1484274-1093692-668179-899378-697191-486778
3693.04-497300-552274-525455-472838-485178-557236
3698.83-558050-621529-731503-569663-445521-476441
3704.62-463709-472730-489476-658329-807093-664994
3710.40-952679-1146088-656096-541808-537460-407570
3716.19-392365-450240-507495-457348-462213-625138
3721.97-617561-575022-602733-651540-707224-575127
3727.76-491338-527008-581885-1041237-1057633-706321
3733.54-938923-1038654-1120458-886148-634741-656543
3739.33-703895-822674-688350-923616-2148314-1970871
3745.11-840577-732118-825248-1654223-1608418-1049894
3750.90-1720414-1432967-717432-655095-693382-730141
3756.68-557182-604816-748881-674366-515510-470913
3762.47-525768-553460-648331-639736-527920-511554
3768.26-748122-845236-590277-502833-510001-539409
3774.04-552797-563049-533377-405574-564535-729555
3779.83-498736-414978-503450-556082-615814-586556
3785.61-514472-507071-513034-466724-418036-446159
3791.40-514865-498417-482096-561331-726448-688395
3797.18-552011-499574-711651-1514326-1402832-723778
3802.97-637551-568262-716276-1167704-951140-558268
3808.75-502387-539877-587266-505879-600549-621815
3814.54-1325208-1496499-735601-520290-603265-893775
3820.32-1136243-914938-587357-529583-480711-575309
3826.11-616156-538279-554710-583047-778581-789800
3831.90-600776-661500-887885-705297-856349-1635596
3837.68-1210056-673267-752217-663816-623908-747058
3843.47-692152-523451-453378-461507-405729-488254
3849.25-434947-924846-1479409-1543801-2273102-1432824
3855.04-493232-561020-419820-420028-428072-496372
3860.82-605835-492685-421853-723492-598473-253157
3866.61-347894-590663-1068875-1051245-593270-539491
3872.39-677138-751817-595461-489576-481803-467547
3878.18-608756-890406-809635-589611-556247-515882
3883.96-930322-1171481-706519-538100-599729-606331
3889.75-810318-806637-530791-446712-467001-508917
3895.54-603819-616556-732869-966667-757122-884579
3901.32-918004-819471-1038992-846070-680587-615287
3907.11-580482-567877-537015-610496-689542-667029
3912.89-637154-607189-632107-730226-704939-631823
3918.68-676786-615622-549996-591165-661776-677660
3924.46-612814-579436-640679-676739-598117-565267
3930.25-588751-642977-690950-607173-530214-600605
3936.03-662148-648551-588033-569338-608610-594342
3941.82-585484-579652-548275-524589-565427-604912
3947.60-597290-704703-636813-486600-533817-524805
3953.39-522844-590023-605433-580025-551941-563737
3959.18-565532-603830-606478-551248-596917-560766
3964.96-502060-489323-465181-438924-403236-464929
3970.75-512306-519108-466167-442722
##END=
