##TITLE=Pentafluoroethane
##JCAMP-DX=4.24
##DATA TYPE=INFRARED SPECTRUM
##CLASS=IUPAC A
##ORIGIN=NIST, Analytical Chemistry Division, 301-975-3108
##OWNER=COPYRIGHT (C) 2000 by the U.S. Secretary of Commerce
##DATE=00/02/01
##$SPECTRA VERSION=1.10
##$UNCERTAINTY IN Y=2.0 % relative (B=1.0E-04,C=1.4E-09,D=3.5E-13)
##CAS NAME=Pentafluoroethane
##CAS REGISTRY NO=354-33-6
##MOLFORM=C2 H F5
##MP=-102.78 C
##BP=-48.55 C
##$NIST SOURCE=QUANT-IR
##SPECTROMETER/DATA SYSTEM=IFS66V (Bruker)
##INSTRUMENT PARAMETERS=KBr Beam Splitter; MCT Detector; Multipass cell
##STATE=gas
##SAMPLE DESCRIPTION=Pentafluoroethane Primary Gas Standard
##PRESSURE=101.3 Pa
##TEMPERATURE=23 C
##SAMPLING PROCEDURE=1 L/min Flow
##RESOLUTION=1.9290
##DATA PROCESSING=3-Term B-H Apodization
##XUNITS=cm-1
##YUNITS=(micromol/mol)-1m-1 (base 10)
##XFACTOR=1.0
##YFACTOR=3.6379E-12
##DELTAX=0.9645
##FIRSTX=575.652
##LASTX=3974.603
##FIRSTY=.0000864
##MAXX=3973.64
##MINX=575.65
##MAXY=.0028956
##MINY=-7.66E-06
##NPOINTS=3526
##XYDATA=(X++(Y..Y))
575.65 23750965 31879578 43240064 41615540 31094070 25753480
580.47 25177463 26722685 29358242 31766571 32823722 32023101
586.26 29757989 26500517 22683253 18625267 14820048 11640437
592.04 8915823 6775719 5277662 4040887 2936145 2062421
597.83 1420913 1096037 1090407 1129093 936444 815646
603.62 822843 716068 594773 537917 450983 450877
609.40 526478 516255 397212 349182 364267 340423
615.19 394679 510238 527433 437739 375888 386166
620.97 421106 406773 330174 294490 292456 337188
626.76 440562 452657 287354 186466 301801 566472
632.54 701825 547863 339445 383284 528700 484662
638.33 421530 393482 410734 573833 743385 744062
644.11 646725 593055 583053 713075 846229 807301
649.90 745076 671136 630980 608176 541699 570889
655.68 675479 705218 661572 645726 631215 568094
661.47 616705 729994 683852 561405 313285-258832
667.25-411490 150193 527441 479142 392073 401177
673.04 412492 426828 470821 497805 447573 315844
678.83 290225 382815 431984 397967 248385 115977
684.61 162583 272970 253836 207285 262144 299342
690.40 318418 423870 539076 527070 551491 770182
696.18 1026237 1221903 1464766 1879103 2497044 3352845
701.97 4394737 5644357 7370431 9594400 12198350 15188628
707.75 18622244 22386829 26226670 29960146 33449726 36609595
713.54 39337483 41735005 44783760 49377188 54847819 63700274
719.32 75758086 78472833 69203810 58176571 51220130 55259532
725.11 74038896 89728272 84029477 69665832 59426525 52673110
730.89 48935242 47047810 45509232 43520492 40915090 37562320
736.68 33406791 28814766 24165906 19782397 15858813 12384842
742.47 9435807 7178824 5515551 4194037 3114190 2341941
748.25 1869948 1550770 1258705 1007082 848053 733787
754.04 657538 683484 683635 613220 581485 597390
759.82 581477 601185 634233 574748 549926 633479
765.61 702231 751914 801410 807115 801725 813852
771.39 793500 797624 871130 950023 984171 1002811
777.18 1046469 1077865 1080739 1155230 1273139 1327480
782.96 1330162 1313967 1325824 1322520 1227815 1132847
788.75 1118086 1188932 1242896 1264826 1325336 1368129
794.53 1323192 1286632 1278202 1226197 1074589 931734
800.32 959246 1081997 1075217 996529 971211 941801
806.11 893927 893112 875236 840949 837345 817571
811.89 783181 804142 852005 850156 798101 775476
817.68 733924 670876 643016 700406 785346 817213
823.46 853740 941259 1004345 1111602 1260387 1379770
829.25 1421409 1282827 1144991 1247038 1425075 1561759
835.03 1731354 1978640 2268565 2634711 3132973 3724342
840.82 4390177 5270773 6462157 7968038 9757248 11798646
846.60 14200400 17122284 20467181 24169836 28287130 32769994
852.39 37508167 42303190 46698564 50321928 53367421 56349593
858.17 59241624 62025661 65318016 69480663 74765757 81832237
863.96 90158681 100211451 111372263 112427889 93258299 69316424
869.75 60168761 61341158 63618544 64829694 64507430 62369640
875.53 58444701 53017547 46592846 39772899 33118833 27030021
881.32 21774257 17411832 13922740 11258857 9333210 8006623
887.10 7091259 6413273 5893032 5498925 5241973 5047707
892.89 4791748 4502885 4270931 4075262 3847550 3639077
898.67 3643887 3736645 3724302 3636897 3504360 3311482
904.46 3065272 2786867 2514040 2248307 1955696 1700079
910.24 1552949 1424017 1279563 1239728 1296774 1306120
916.03 1263324 1286011 1370972 1446662 1535001 1600982
921.81 1616273 1672789 1786595 1870667 1900221 1920490
927.60 1950498 1973012 2007748 2082064 2172003 2259650
933.39 2356304 2425070 2438010 2405648 2369929 2332712
939.17 2230016 2088478 2015034 1987708 1903543 1775074
944.96 1637497 1502773 1358702 1197897 1085553 1043641
950.74 1008368 966502 910652 836139 711694 554315
956.53 483335 512031 512207 411318 347575 366918
962.31 378280 388999 407656 394954 370675 355544
968.10 374106 438262 502471 540717 548995 549914
973.88 544148 518179 500987 553540 613203 660164
979.67 722438 733257 694420 639920 597678 608508
985.45 659721 701910 687499 620821 577091 557142
991.24 497829 456262 465029 483292 492355 446997
997.03 363313 375380 465777 500734 489757 456247
1002.81 422475 423729 439063 462470 483288 476735
1008.60 440390 411393 385283 371200 360399 363083
1014.38 390116 398658 358590 344294 371958 339005
1020.17 270990 244318 246190 267146 265587 248752
1025.95 258276 273042 278852 267661 222494 203506
1031.74 208586 219829 233447 214768 157516 153649
1037.52 210429 276906 315048 334790 361849 403459
1043.31 434690 451532 476315 474103 443217 478522
1049.09 570285 659490 715213 789034 939110 1102966
1054.88 1235337 1352887 1488971 1691998 1894174 2093637
1060.67 2383924 2704206 2989991 3296605 3597565 3898194
1066.45 4197007 4473844 4745815 5041135 5371431 5695392
1072.24 5999456 6304905 6602377 6849231 6944333 6917531
1078.02 6940935 7178869 7460622 7575701 7547972 7518069
1083.81 7575822 7734261 7982475 8294245 8637313 9062153
1089.59 9605582 10322378 11196119 12192772 13300782 14550584
1095.38 15944677 17523081 19472249 21962309 24457778 26234381
1101.16 27527699 28827339 30421817 32299741 34081801 36268110
1106.95 39222668 42902629 46261568 46824190 45327274 44520556
1112.73 44728463 45459667 46375927 46924473 47298912 48219027
1118.52 49838236 51353889 51637277 51519871 52838048 56318580
1124.31 61780386 69098339 78552032 90763528 106316558 125755544
1130.09 149290517 176776549 207766699 241760263 278982242 320067929
1135.88 363067476 404523672 442634893 476202885 506732052 529462363
1141.66 515657675 474258195 480892297 541985696 570313576 550629013
1147.45 533823044 509670404 451021456 373430171 300935548 242014529
1153.23 197234290 165051607 139418860 113922845 90707794 73065182
1159.02 59512973 48728232 40737091 34888305 30210483 26496651
1164.80 23713080 21518490 19935477 19086620 18890742 19065292
1170.59 19224279 19213654 19544959 20654126 22442559 24835666
1176.37 27832954 31388314 35562529 40528426 46626908 53815237
1182.16 61820928 71060278 81774303 93938397 107339999 121609587
1187.95 136609015 151937128 166488263 180421695 196042780 216357802
1193.73 246516112 294212433 363001485 448178713 525353241 535610428
1199.52 471870301 428421040 445808925 489353142 552873550 633902712
1205.30 710519479 765687399 793396708 795959114 781829679 759657346
1211.09 736161573 715644851 700462156 691380949 688184401 691243556
1216.87 701259183 714817172 720541651 702003423 660624685 625102129
1222.66 614008607 599924611 550652288 485555788 436487047 406497879
1228.44 384453885 361357611 333565554 300707838 264605343 227899888
1234.23 192606087 160010998 131107659 106449792 86075755 69585030
1240.01 56547233 46571179 38990976 32876586 28082137 24545614
1245.80 21822178 19850492 18810012 18260294 17400049 16461871
1251.59 15828774 15386195 15194810 15131484 15194089 15365389
1257.37 15623749 15919876 16263343 16599441 16944552 17358424
1263.16 17790753 18094644 18345267 18565513 18747507 18930309
1268.94 19097407 19262871 19530371 19787003 20011228 20266144
1274.73 20743889 21618438 22860095 24168990 24787714 24822368
1280.51 25843907 28251795 31632973 35857237 40953966 47122140
1286.30 54698271 64083898 75701464 89426296 105016189 122243237
1292.08 140626048 159339948 177396779 193777936 207725998 218016235
1297.87 223638158 224758173 223606828 222456654 222573191 227994454
1303.65 244166443 276847098 332633738 408726728 473052505 431436546
1309.44 280201496 173457846 150203027 148084703 148142585 149040503
1315.23 148642076 145446122 139002329 129574350 117775366 104432669
1321.01 90428279 76538595 63334661 51305472 40744231 31771519
1326.80 24372800 18432627 13811079 10350257 7863187 6119223
1332.58 4904527 4129073 3697123 3524077 3571595 3796297
1338.37 4171662 4697553 5363411 6081178 6779912 7449579
1344.15 8012756 8386517 8562253 8569531 8553238 8715825
1349.94 9113849 9644578 10114438 10333341 10685063 12102894
1355.72 13884974 14107647 12758548 11148892 9984905 9352214
1361.51 9011614 8768609 8555986 8237245 7812509 7314706
1367.29 6765076 6245855 5857923 5610946 5352783 4994080
1373.08 4674965 4483452 4416565 4431659 4495908 4561875
1378.87 4598427 4639338 4732273 4862235 5000686 5137491
1384.65 5279408 5432171 5759034 6184958 6437672 6790444
1390.44 7296836 7301481 6638920 5828382 5248655 4876893
1396.22 4552462 4236147 4022815 3971999 3947409 3808051
1402.01 3574133 3320828 3099499 2911174 2703260 2453257
1407.79 2226529 2041385 1892804 1814487 1794347 1801445
1413.58 1817935 1809111 1798712 1776770 1612293 1569384
1419.36 2017787 2507507 2717236 2798367 2943952 3192802
1425.15 3424690 3615900 3795905 3909389 4005260 4191135
1430.93 4368852 4490689 4720478 5062802 5109718 4939318
1436.72 5215049 5729925 6135906 6493119 6804811 7087122
1442.51 7319106 7367637 7165784 6811714 6466480 6248604
1448.29 6194112 6196224 6143573 5908245 5335971 4757803
1454.08 4362629 3766190 3322142 3413766 3485216 3300224
1459.86 2961801 2535278 2114414 1647228 1229532 1115840
1465.65 1144827 1091666 980706 846996 653799 292514
1471.43-31341-77500 119797 228375 212034 321056
1477.22 428356 420107 352596 301285 314252 325906
1483.00 331665 327643 223631 76257 57598 36976
1488.79-88643-85343 100409 257392 295739 171425
1494.57-178127-272701-12803 69399 169117 369319
1500.36 458175 500642 491296 213841-377986-815206
1506.14-680130-133673 262408 403321 447014 373558
1511.93 394361 493537 474120 334831 141563 146678
1517.72 290279 101233-375645-495368-131733 200522
1523.50 190207 52742 137594 273832 344707 412384
1529.29 441168 362120 181253-41968-13979 247899
1535.07 396444 317156-211321-926398-993452-621752
1540.86-401100-60306 318897 333892 378808 612701
1546.64 745596 732669 666311 697998 858039 972357
1552.43 845407 675446 830100 819313 190032-507517
1558.21-700809-430443 273272 881156 1060638 1004320
1564.00 939516 1001653 1049581 959735 726984 606387
1569.78 819220 1017173 1045200 1033025 766393 125571
1575.57 10876 605962 984194 1073415 1120075 1100925
1581.36 1046045 997527 964697 984806 1005544 933330
1587.14 825842 737981 684362 655966 645305 634190
1592.93 592688 532714 478573 432509 410360 401196
1598.71 384933 359319 351841 341506 304271 262686
1604.50 242416 219760 222891 237576 233120 259470
1610.28 306186 297604 256892 229749 7468-574282
1616.07-704228-145132 217787 271759 281223 222988
1621.85 48867-1885 202150 358909 331338 276889
1627.64 374701 525755 581943 596381 609715 515365
1633.42 98291-295455-46622 364556 505496 568414
1639.21 593313 597564 631103 668591 592708 205229
1645.00-179914-84385 183462 387382 497579 229262
1650.78-736140-1672898-1389608-432578 185082 393367
1656.57 430042 438646 443918 426765 306273 111939
1662.35 127050 327198 439439 461769 403620 164814
1668.14-76741 26979 228256 330811 414681 261103
1673.92-86122-42459 313817 466210 458678 408898
1679.71 387372 342191 37819-620109-1157728-748388
1685.49 59220 332013 302479 253980 259705 336211
1691.28 375106 322384 21100-727024-975804-283269
1697.06 130385-328935-968189-729226 75293 483011
1702.85 459983 415417 489258 645334 889143 1066599
1708.64 1126175 1190220 1318122 1397627 1354890 1246552
1714.42 1213704 1026719 745333 1014342 1574528 1872165
1720.21 1908809 1855326 1856232 1897407 1878446 1777275
1725.99 1667331 1553347 1387084 1241457 1222877 1080061
1731.78 525388-80676-93897 384639 674622 640930
1737.56 446630 167497 163195 352121 371437 317663
1743.35 326185 312884 244847 157884 58267-11726
1749.13-134554-299135-148529 132869 237741 215677
1754.92 75056-14546 90757 204177 231703 114037
1760.70-46120 50428 266208 343671 356768 333896
1766.49 201182 172619 333844 327867 65098-190752
1772.28-32169 346686 490224 546267 629949 662077
1778.06 632545 562181 542530 604173 650042 602056
1783.85 529507 562875 645284 687611 695337 681895
1789.63 641368 495925 360831 532023 779038 809025
1795.42 771779 768276 753919 713692 715090 713442
1801.20 703283 743042 756735 731855 723132 677942
1806.99 629065 607063 540639 472228 462474 444568
1812.77 411580 387245 368465 330545 303004 321183
1818.56 319173 278582 251652 227454 179421 59796
1824.34 3510 121700 218010 156925 6938-50367
1830.13 71225 188009 219940 205728 191077 194176
1835.92 176188 129458 108593 125056 142721 136997
1841.70 28649-233216-289153-44165 108121 125012
1847.49 144180 151230 145962 156582 196546 237579
1853.27 250136 270322 303629 303339 310791 338656
1859.06 346696 356890 397412 435823 455351 468172
1864.84 457469 408551 326724 204591 168229 263365
1870.63 351120 404501 424889 399412 359550 315360
1876.41 265774 210168 170947 147576 127708 105384
1882.20 86603 82251 90080 79404 66831 45735
1887.98-6907-21655 18523 47180 60476 47387
1893.77 10420-4928 18639 52685 88731 106155
1899.56 75027 38444 54849 80258 84402 93062
1905.34 130747 164735 181130 178560 183509 241705
1911.13 316747 363835 405660 463777 519430 518972
1916.91 521628 607890 711822 822758 944692 1049126
1922.70 1181101 1305445 1359464 1396681 1460292 1521184
1928.48 1583700 1660706 1744351 1806455 1819764 1787107
1934.27 1746980 1724158 1708805 1662073 1597046 1534659
1940.05 1494511 1443447 1348607 1245974 1172139 1111949
1945.84 1052040 1008827 964642 874160 773568 676634
1951.62 580027 528388 500978 449222 389491 331943
1957.41 283718 231056 179661 159820 145850 113804
1963.20 98205 70779 8406-30639 6797 66332
1968.98 80016 66958 60834 44233 21816 3774
1974.77 4319 18922 24207 26313 28314 36428
1980.55 42970 12066-6979 7838 2350-14771
1986.34-4955 15982 25788 29051 17589-7440
1992.12 13434 47599 61497 83987 108706 99021
1997.91 64926 58463 90604 114921 115506 105230
2003.69 128210 165350 157164 118791 107179 130442
2009.48 149456 135810 112379 95885 88061 90096
2015.26 95118 99622 116157 125061 115775 105801
2021.05 120065 119558 101147 108613 124110 122565
2026.84 109022 101897 111711 114158 132563 146733
2032.62 131756 124790 131352 134235 152235 181703
2038.41 195370 201449 223619 250021 274430 298590
2044.19 326192 354586 381416 416168 465931 505846
2049.98 545925 607366 669256 705149 733082 782116
2055.76 870610 947793 997560 1068973 1167878 1255804
2061.55 1318888 1337182 1271175 1155049 1034733 935878
2067.33 913079 933829 960726 986156 995223 972685
2073.12 926337 868437 793564 723649 680443 620428
2078.90 544649 478840 438287 433197 447240 427470
2084.69 397284 384232 360285 322198 301018 285811
2090.48 254523 219442 203035 205999 207238 191486
2096.26 168489 160799 180777 158185 102086 96778
2102.05 125492 94675 34341 28077 70862 82074
2107.83 51948 39889 86914 115553 60816 2055
2113.62 25907 99068 103600 62811 76523 112016
2119.40 80455 28499 48179 89639 77353 47538
2125.19 55055 91638 98402 58198 57508 95438
2130.97 99614 64249 69881 113942 125259 112287
2136.76 135079 184438 210260 198724 181941 181911
2142.54 210947 258324 315325 384884 442561 486196
2148.33 543691 597752 650862 700356 740931 815082
2154.12 905746 932023 945409 1021867 1099439 1127224
2159.90 1154789 1183110 1183497 1190368 1273258 1386422
2165.69 1431321 1445407 1511983 1522862 1384372 1149522
2171.47 921360 776469 693080 679897 707015 678311
2177.26 658847 687301 634276 483526 393208 365266
2183.04 301846 243831 253179 246179 168663 116032
2188.83 114757 89015 65505 76710 60098 6782
2194.61-1225 20660 14441 7950 41044 63839
2200.40 75543 105019 84164 12982-14640 9491
2206.18 37249 60831 68106 44159 40213 50200
2211.97 49637 57232 86536 98553 94054 79370
2217.76 64052 77505 112347 131079 139474 126557
2223.54 112627 126317 143534 169619 196514 190037
2229.33 185153 194498 206146 218983 238319 271990
2235.11 312160 357044 406121 433534 456371 497660
2240.90 546749 611603 705492 783534 832357 889543
2246.68 958536 1006194 1069017 1152178 1226178 1293112
2252.47 1346764 1382015 1431155 1489044 1534607 1583731
2258.25 1627833 1634299 1656869 1708702 1742875 1779217
2264.04 1830606 1867345 1928486 2041882 2150789 2227924
2269.82 2332154 2495703 2723019 3011059 3282983 3451056
2275.61 3511917 3516847 3573543 3688910 3736148 3708336
2281.40 3725594 3709389 3505167 3162720 2816214 2467316
2287.18 2137591 1883395 1644960 1405038 1230772 1105522
2292.97 1002438 924786 869637 787263 678859 586773
2298.75 527635 530342 563270 535314 468219 415318
2304.54 405699 398777 385855 348084 285350 231546
2310.32 215117 197416 162081 132167 82969 40201
2316.11 13450 12889-5329-64062-141398-182112
2321.89-224998-269638-293737-309806-361018-435188
2327.68-487650-503268-529876-580618-605123-590179
2333.46-588353-582829-568938-569159-579076-592087
2339.25-592575-581855-538497-462533-404700-326405
2345.04-193496-68995 25439 69656 17721-99839
2350.82-218726-338483-444331-522937-598133-669893
2356.61-739819-820124-885906-912444-905837-906241
2362.39-905260-857905-785961-750786-717533-656071
2368.18-594108-521674-437358-345525-257196-186241
2373.96-108205-45377 6792 40830 44760 48992
2379.75 77888 127019 187756 276389 351826 381154
2385.53 409484 454866 524493 578908 620106 714793
2391.32 821062 873268 903705 948413 1048905 1212667
2397.10 1432044 1646311 1805949 1926887 1979098 1944468
2402.89 1883550 1836497 1816818 1849351 1917609 1947619
2408.67 1941656 1928713 1909382 1886866 1851769 1774087
2414.46 1688147 1615941 1463603 1205368 995073 902794
2420.25 850879 791333 715500 587037 451427 351547
2426.03 273945 231748 237019 258980 278990 295904
2431.82 325339 339143 339683 368460 403793 406774
2437.60 394211 365781 345892 355253 369005 386340
2443.39 409512 407142 369171 318906 291222 270530
2449.17 243671 209718 185781 192209 179238 135710
2454.96 100387 47219-18431-64034-101257-152479
2460.74-177422-173467-182042-195987-205895-209051
2466.53-189695-175191-188211-212796-216186-192267
2472.31-157330-136609-134754-121759-86362-68183
2478.10-50588-5766 51195 114256 177982 238197
2483.89 303126 341003 361340 409938 477171 538896
2489.67 620137 745429 891810 1005116 1093671 1158087
2495.46 1197401 1227490 1265129 1335244 1445738 1548991
2501.24 1609011 1631880 1615858 1482784 1278772 1151253
2507.03 1099422 1086896 1112991 1113308 1083695 1026176
2512.81 913802 779448 670769 594788 515959 410484
2518.60 320071 269341 206294 123006 105908 115051
2524.38 95454 53019 34092 40675 49511 72552
2530.17 83887 70988 78231 63983 17275-9475
2535.95-12365 4736 34127 34308 3903-28847
2541.74-46949-54626-28494 11704 20803 6773
2547.53 976 10685 13763 2604 13079 37026
2553.31 80365 125781 148495 178427 233024 279373
2559.10 298031 297174 308885 340222 378215 411470
2564.88 432203 429569 424046 411611 377228 345505
2570.67 336234 346536 347490 348870 377335 384253
2576.45 335455 252903 211621 226586 229111 194980
2582.24 176711 162815 152874 173866 180386 165731
2588.02 167809 189224 226772 266535 310025 338314
2593.81 372318 445884 515548 526586 509120 495739
2599.59 469297 448121 486415 526213 533451 565407
2605.38 601681 635600 585154 436511 365046 375287
2611.17 366509 237168 3298-185088-250543-262695
2616.95-253068-164518-23137 38273-9258-88827
2622.74-136101-152983-193895-266036-278966-245221
2628.52-237965-229588-202389-189807-198091-179135
2634.31-128680-109696-104224-72940-30904-5
2640.09 31616 54922 61583 93656 162834 200390
2645.88 229587 269251 250194 212324 241875 304492
2651.66 346341 353549 350242 370204 383629 361665
2657.45 352240 362909 347607 307845 286871 298452
2663.23 333595 353320 348538 332452 329986 300433
2669.02 261694 274109 279323 243229 239568 269911
2674.81 250212 200714 200699 221557 233305 211709
2680.59 154802 140541 166757 154731 139740 156095
2686.38 204111 264179 270214 200696 131253 90285
2692.16 54896 14236-23652-43308-31494-3991
2697.95-14555-57348-61873-35422-23248-64412
2703.73-86970-38889 5779-4964-43142-74441
2709.52-86271-92594-90906-92825-107871-123475
2715.30-138723-133707-112687-102071-91481-103865
2721.09-101836-43682-34642-85381-91731-76015
2726.87-69636-51077-31000-43537-57398-45844
2732.66-10402 34398 55774 27743 4741 21175
2738.45 33652 39154 22541-5735 13575 39697
2744.23 27770 18526 25282 15404 6256-9318
2750.02-32134-70091-104849-72620-14621-34107
2755.80-94763-125840-107722-62669-42689-79033
2761.59-117483-104159-40518-4004-25237-38557
2767.37-11195 23549 56395 89382 109901 77883
2773.16 26040 35712 88658 114366 101623 90652
2778.94 108097 120172 120509 120583 148625 164314
2784.73 128578 110267 146806 152833 143274 151011
2790.51 131851 84106 74017 115106 157051 171480
2796.30 119029 17164-37946-28894-22600-34012
2802.09-30937-27090-23415-8044 18685 56966
2807.87 63691 23955-12496-58845-59673 15188
2813.66 21274-31708-26982-4179 22814 58934
2819.44 93551 94309 67086 42242 43656 72179
2825.23 109047 144258 186486 236230 280514 315055
2831.01 389131 467114 482968 469693 491995 552854
2836.80 640951 692942 682504 702209 770651 799401
2842.58 774013 769619 824947 892220 930921 862317
2848.37 736970 693159 656596 586384 538870 512556
2854.15 510467 501754 451444 406665 412817 410408
2859.94 372948 335432 319887 320006 315441 275720
2865.73 232422 235434 249770 222846 199828 212847
2871.51 231397 229090 188370 146112 141182 119376
2877.30 78477 56029 38681 27073 33493 26963
2883.08-26437-107568-131089-105919-70633-45598
2888.87-45990-62371-79179-89817-81709-95625
2894.65-113116-81661-46754-36634-38031-87830
2900.44-132473-128292-151380-211585-237182-199883
2906.22-155780-163667-149903-120294-128861-125650
2912.01-112791-158475-190134-151056-109026-114685
2917.79-131531-116342-122322-139659-86288-59894
2923.58-83040-94686-127859-149584-78003-7759
2929.37-29557-70017-63168-48977-59262-58632
2935.15-6173 30013 15218-7276-35244-94098
2940.94-145505-119820-57725-46709-66111-77206
2946.72-101504-130849-132957-105404-50301-3784
2952.51-1929-36671-66658-78130-85992-76610
2958.29-68457-105878-119260-53605 40597 117375
2964.08 171050 166453 136609 173403 285749 407366
2969.86 504023 602955 757669 909814 1072687 1341038
2975.65 1687300 2072825 2529642 3067469 3669583 4366076
2981.43 5215668 6229946 7376174 8613023 9926045 11351453
2987.22 12841048 14144748 15157478 15974562 16620366 17108936
2993.01 17495332 17922182 18604389 19766091 21799546 24864215
2998.79 29434626 35350223 37755433 32443794 24286229 19284626
3004.58 17361773 16637958 16300029 16128679 15956160 15579309
3010.36 14878585 13896692 12725822 11392710 9946532 8494898
3016.15 7135141 5885926 4758095 3809010 3016222 2298399
3021.93 1697563 1281681 994829 754720 556767 413119
3027.72 305178 198221 103052 43425-13379-65276
3033.50-63682-38162-54016-84163-53765-26923
3039.29-62135-118646-159374-171053-152055-144364
3045.07-169111-208117-171398-85313-67943-104385
3050.86-118832-131048-137423-156204-169375-101665
3056.65 1076 25839-30684-59852-39551-31024
3062.43-44665-52997 2886 63249 51756 20190
3068.22 6777 186 2537 14671 32782 59081
3074.00 77909 43536 4166-12568-32433-36435
3079.79-39237-63363-71852-70527-69990-69137
3085.57-75913-67784-57874-86581-110441-117129
3091.36-93247-52516-54886-121594-185394-226165
3097.14-242448-222410-165974-115884-112146-88369
3102.93-62498-87019-115100-165728-208029-191917
3108.71-152099-143080-169484-155992-100244-108533
3114.50-155359-148344-119550-81999-46262-43392
3120.29-50781-68227-83782-87321-89460-114954
3126.07-127940-115628-100607-92544-92141-87814
3131.86-86015-56668 2452 19063 8688-35830
3137.64-81424-106507-126773-126383-116119-92883
3143.43-30904 21675 31928-6878-86841-115721
3149.21-78982-59290-73684-93792-88912-90459
3155.00-91844-90928-91868-88239-132248-178977
3160.78-168309-152341-114392-81559-65111-37728
3166.57-64637-130092-136836-112999-92433-68615
3172.35-85192-98268-55878-17887-37316-108177
3178.14-129670-90699-57788-69814-82572-84200
3183.93-114078-128162-84390-51777-49607-50039
3189.71-25570-8948-31999-61953-65768-62618
3195.50-73581-76476-59667-45334-71521-114718
3201.28-119598-83119-34607-14775-13051-58292
3207.07-121766-151256-140784-78315 4857 4416
3212.85-70128-91461-87392-88892-48792-46174
3218.64-86043-73306-46742-63216-68002-73702
3224.42-68196-79207-127410-122654-56785-15014
3230.21-25892-22604 5633-12853-59697-54636
3235.99-12198 30558 49575 31904 12567-866
3241.78-21752-31964-40146-31175 22109 49172
3247.56 12608-24272-17876-13113 14930 52394
3253.35 30681-28152-95116-178026-206911-103521
3259.14-5608-46826-143699-162604-97155-34940
3264.92-41291-124226-143706-52905-614-64447
3270.71-165865-177687-65237 40859 35385 16386
3276.49 12764-67183-126220-116697-148428-218680
3282.28-242380-221072-138554-61693-61974-95896
3288.06-93480-107649-143017-157904-205040-198727
3293.85-81723-4335-12272-78665-195492-269974
3299.63-234361-158987-102316-109387-155032-123229
3305.42-46401-72090-155034-173957-123574-79720
3311.20-112625-180772-210870-212722-177532-133284
3316.99-150613-195906-190277-151560-113824-111444
3322.78-130997-155298-198168-210400-156631-130064
3328.56-141700-133152-141808-191389-229454-187713
3334.35-126939-152869-185369-159706-135734-116263
3340.13-74373-81371-168734-228991-243199-250369
3345.92-204335-133990-119037-161907-183746-198643
3351.70-223196-202378-172739-181153-183115-174420
3357.49-152427-181333-226629-184095-113393-116168
3363.27-169247-219046-233261-212622-146629-78674
3369.06-109032-186080-190992-172618-213661-230290
3374.84-192785-154038-129356-143271-163016-170321
3380.63-186701-210058-225022-243700-249733-221014
3386.42-153129-126708-149785-156415-153470-166685
3392.20-208001-290886-326132-260874-219114-223374
3397.99-190815-149329-152225-190736-202983-194212
3403.77-155036-127238-181828-249572-249933-235634
3409.56-254224-261413-262728-267971-236107-215880
3415.34-239730-259050-265775-268885-274365-292880
3421.13-273005-226349-246541-303284-327615-322162
3426.91-301732-266564-259446-311057-348128-346745
3432.70-326724-339558-356037-349269-332658-301377
3438.48-303688-333422-330710-320790-312732-313088
3444.27-347924-375703-335799-240147-185073-242554
3450.06-334874-330524-320424-332650-256918-208512
3455.84-261898-272325-231228-250894-305985-318164
3461.63-315109-312943-300557-346468-390546-382749
3467.41-357815-359133-374187-366568-334668-300216
3473.20-324586-375659-396425-383880-329149-294533
3478.98-308461-325449-360633-394841-394020-383285
3484.77-352201-344547-338154-301778-331627-388017
3490.55-325172-226253-251261-359373-409034-415180
3496.34-409684-356906-314977-329555-301998-271648
3502.12-341424-424378-426551-393936-366616-314643
3507.91-290335-352237-386268-372231-368213-363545
3513.70-309419-257721-302838-382594-415161-389349
3519.48-315475-295798-299402-279348-336270-400794
3525.27-380510-362242-371055-381589-359732-324901
3531.05-340962-387050-386239-367782-352293-337951
3536.84-323719-287120-249949-275265-344390-377006
3542.62-374060-403414-453235-475852-425872-328149
3548.41-298226-350633-408879-421361-398156-375107
3554.19-332374-326794-360679-376199-376170-361879
3559.98-326854-326751-354390-362420-380190-456940
3565.76-554835-624258-545494-366314-278855-275294
3571.55-285935-284050-298169-328919-330277-317485
3577.34-303305-333001-377974-345490-319285-344178
3583.12-343089-385211-535922-658471-710729-654504
3588.91-447741-328352-346092-365800-341712-386662
3594.69-442281-408613-427462-491343-475567-431605
3600.48-425333-445745-430432-384149-407466-523760
3606.26-612174-699228-767625-645408-565722-652072
3612.05-643779-574002-535694-496194-539956-641818
3617.83-765362-797238-647581-557664-523051-466093
3623.62-469714-525107-604614-863637-1250320-1308709
3629.40-923546-555833-459649-516179-511284-413905
3635.19-350932-395440-497168-507627-433890-453439
3640.98-506398-455967-402779-438612-570928-788012
3646.76-977981-1195809-1271181-1088815-831589-589264
3652.55-470582-531368-806113-955169-742295-533918
3658.33-489189-498121-508597-487411-456995-446568
3664.12-461393-487351-538780-710621-912846-1157028
3669.90-1237569-849255-556736-735713-1203020-1463379
3675.69-1117868-655436-576327-629460-573252-504262
3681.47-501379-505268-489171-465143-526722-912248
3687.26-1347077-1148973-820739-817389-702002-516160
3693.04-490272-529678-515687-476167-489297-539491
3698.83-574656-647389-695822-584370-466806-452946
3704.62-455292-457819-510485-662031-758447-773639
3710.40-980761-1059920-756738-553878-497038-413072
3716.19-387265-440477-479939-459224-489246-595041
3721.97-618782-590761-608328-663671-678276-579068
3727.76-491586-498418-663347-984005-1013762-833699
3733.54-916916-1073016-1094245-892171-667814-628851
3739.33-697626-738303-718215-1157941-1995119-1895631
3745.11-1047445-687970-957082-1530079-1564101-1356773
3750.90-1590155-1405084-842259-635807-676292-676620
3756.68-588877-618602-714684-665449-527856-472941
3762.47-506582-567708-635668-624052-536985-558847
3768.26-741513-804346-635307-511776-504939-534861
3774.04-555942-560535-506257-455481-573655-667784
3779.83-532450-436667-487789-565443-610703-588393
3785.61-529664-510222-501462-460914-421960-446975
3791.40-493324-492933-491410-581790-699157-675520
3797.18-545292-514859-852928-1419179-1374253-861495
3802.97-602203-580150-790205-1081988-955023-619210
3808.75-491384-523060-542400-519703-550287-772196
3814.54-1294696-1393246-864515-534666-618076-910175
3820.32-1096725-928415-636617-504496-489639-556952
3826.11-588757-550159-541642-616513-754617-759757
3831.90-643519-690108-799065-765349-1023107-1474846
3837.68-1255388-803146-697558-663017-654029-719579
3843.47-676379-533181-446693-418628-401209-409405
3849.25-505319-944062-1441534-1825219-2107869-1499022
3855.04-677093-458909-411949-388512-419831-500172
3860.82-562269-493405-497931-651147-554265-306350
3866.61-332908-648771-1028062-1016657-683711-562920
3872.39-669935-721772-610260-495932-456814-480847
3878.18-645151-850055-808350-625400-525329-600430
3883.96-934584-1084691-789039-567428-568984-652056
3889.75-793587-776042-567474-444981-448606-507724
3895.54-579023-636707-774111-898386-848527-881623
3901.32-909421-914553-986392-879032-702872-613649
3907.11-576098-553836-550391-613229-679667-676836
3912.89-640373-617786-652838-719431-708845-666185
3918.68-661642-616957-567331-597495-661264-673660
3924.46-623812-600621-643825-664936-612334-575053
3930.25-596637-654246-678540-613999-557574-602269
3936.03-660088-651790-601567-584762-603248-603898
3941.82-592943-579673-550275-537070-567606-602148
3947.60-636312-689546-632745-527881-517660-526038
3953.39-539733-588741-609556-588630-565160-566346
3959.18-581035-609028-605890-583811-591461-567424
3964.96-517155-490174-466079-434017-419655-465021
3970.75-515260-518076-476150-466993
##END=
