##TITLE=Pentafluoroethane
##JCAMP-DX=4.24
##DATA TYPE=INFRARED SPECTRUM
##CLASS=IUPAC A
##ORIGIN=NIST, Analytical Chemistry Division, 301-975-3108
##OWNER=COPYRIGHT (C) 2000 by the U.S. Secretary of Commerce
##DATE=00/02/01
##$SPECTRA VERSION=1.10
##$UNCERTAINTY IN Y=2.0 % relative (B=1.0E-04,C=1.4E-09,D=3.5E-13)
##CAS NAME=Pentafluoroethane
##CAS REGISTRY NO=354-33-6
##MOLFORM=C2 H F5
##MP=-102.78 C
##BP=-48.55 C
##$NIST SOURCE=QUANT-IR
##SPECTROMETER/DATA SYSTEM=IFS66V (Bruker)
##INSTRUMENT PARAMETERS=KBr Beam Splitter; MCT Detector; Multipass cell
##STATE=gas
##SAMPLE DESCRIPTION=Pentafluoroethane Primary Gas Standard
##PRESSURE=101.3 Pa
##TEMPERATURE=23 C
##SAMPLING PROCEDURE=1 L/min Flow
##RESOLUTION=0.9640
##DATA PROCESSING=NB Strong Apodization
##XUNITS=cm-1
##YUNITS=(micromol/mol)-1m-1 (base 10)
##XFACTOR=1.0
##YFACTOR=3.6379E-12
##DELTAX=0.4820
##FIRSTX=575.17
##LASTX=3974.603
##FIRSTY=.0000807
##MAXX=3974.12
##MINX=575.17
##MAXY=.0029281
##MINY=-.000013
##NPOINTS=7052
##XYDATA=(X++(Y..Y))
575.17 22202862 21120978 21378602 25875612 37260262 53392114
577.58 59488414 45370692 29498146 25523008 26656408 25777060
580.47 23865972 24024871 25228566 26260689 28162759 29469096
583.37 30524316 32439544 33404979 33610142 33294391 32399998
586.26 31185949 30504464 28514897 26423682 24755622 22799503
589.15 20884815 18677588 16112621 14374592 13199633 11478953
592.04 10223179 8690507 7344839 6561972 5661699 5247287
594.94 4829492 4079953 3184871 2737698 2570391 2099321
597.83 1479213 1222249 1165238 1129262 758564 928297
600.72 1289532 1530310 1147655 731458 618414 720723
603.62 1003124 856800 807391 925533 421047 390777
606.51 699420 713860 483009 275228 387948 435683
609.40 490252 552211 632755 600183 406478 537441
612.29 127056 162283 518318 595118 247639 158733
615.19 410429 320128 443291 606549 598859 561145
618.08 520913 510919 199753 300644 530486 369788
620.97 287873 398948 565669 548966 277671 195523
623.86 333529 372218 256793 211059 323463 337768
626.76 331549 381730 554910 775838 392026 97382
629.65 124870 202396 102537 199924 392254 532906
632.54 897665 957165 641686 499499 552781 151099
635.44 81289 259504 543192 850784 710287 257281
638.33 241683 541624 541998 396388 207038 315279
641.22 498884 562109 659525 823545 953422 828662
644.11 532590 659855 579254 551003 745874 479083
647.01 364030 642129 1029815 1098214 781063 733991
649.90 656143 829787 905561 591523 415375 633672
652.79 800858 680058 477146 495356 513877 459331
655.68 590892 840298 792009 604629 687403 846295
658.58 468377 485495 818763 817171 481844 502298
661.47 484923 494766 749368 895086 815439 706248
664.36 633077 362518 524122 716316 466030-355933
667.26-1372140-1028307-30863 543342 566253 678387
670.15 717724 411349 251055 386804 397005 396452
673.04 460213 391916 435051 355171 390716 601286
675.93 464061 495327 488726 534714 547809 208623
678.83-1075 263806 442271 457553 363553 433212
681.72 481437 468528 432209 235428 57646 91654
684.61-70840 149072 309215 324081 376231 327485
687.50 156574 14987 176395 403557 384844 223232
690.40 258470 361765 239041 398488 520648 614120
693.29 760280 465079 343461 443779 568924 817130
696.18 935718 1087923 1103163 1271916 1241407 1379101
699.08 1563424 1816166 2142943 2400096 2736080 3289193
701.97 3781052 4540980 4885415 5290919 6159508 7260796
704.86 8368188 9436917 10660197 12146316 13530304 14969993
707.75 16645410 18511746 20382295 22433784 24305949 26315584
710.65 28068735 30060642 31966277 33568164 35042054 36749613
713.54 38378823 39524052 40590478 41659749 42673296 43879231
716.43 45771582 48986785 53150697 55429546 55552490 58273675
719.32 66887233 81843804 90914558 84681732 74215148 66402166
722.22 63471942 59249036 51616998 46526850 46066298 48769073
725.11 55318125 69413979 92882969 110749724 99916128 79736411
728.00 71535528 68671375 64371533 58112111 54016035 51365921
730.89 49674895 48334008 47531601 46887070 46548137 45792790
733.79 44835718 43642147 42489054 41130298 39701924 38009691
736.68 35816176 33428677 31227218 28852865 26470500 24045763
739.57 21753367 19601246 17548153 15693409 14050033 12216551
742.47 10520141 9183904 8003721 6856277 6155495 5472272
745.36 4761021 4096543 3540696 3026268 2538793 2199144
748.25 1986932 1804459 1744560 1557196 1342655 1296385
751.14 1118640 959889 809438 797981 913693 776364
754.04 574682 536478 648951 729185 763822 731970
756.93 653038 579995 557184 492641 616255 672389
759.82 611315 588466 474117 533657 693160 739910
762.71 699808 545528 389783 471751 642103 633501
765.61 716948 727305 677472 769042 726061 846498
768.50 947216 718927 766010 810452 789363 858957
771.39 859700 769400 732109 755347 803833 872644
774.29 951328 996491 944198 970763 1082590 959612
777.18 900614 1084215 1182625 1090941 1005675 1071879
780.07 1107335 1044312 1180690 1419928 1423180 1236471
782.96 1236695 1451852 1427129 1205377 1201157 1338742
785.86 1458359 1410128 1230241 1216135 1194162 1103493
788.75 1053381 1046550 1133880 1221693 1277705 1233986
791.64 1276353 1278695 1147451 1315489 1489817 1441346
794.53 1353187 1262720 1279067 1305440 1263046 1251466
797.43 1337281 1304046 1167011 1090870 993107 817199
800.32 778382 906373 1036620 1214780 1218967 1073773
803.21 988550 988087 864497 983880 1132968 887028
806.11 861485 895235 844975 886602 968642 908016
809.00 826270 785262 795897 869218 928128 816860
811.89 709763 789237 784567 766940 799116 906347
814.78 903887 896556 855948 687805 737108 858983
817.68 810969 707823 696118 661206 627321 630547
820.57 592905 643739 782257 878528 829560 789826
823.46 797318 807929 863548 982607 1056538 1032698
826.35 877919 1003032 1319286 1389130 1234781 1290061
829.25 1483503 1630805 1471922 1259725 1125901 948206
832.14 1017356 1271451 1448669 1470333 1456699 1533012
835.03 1595763 1756643 1787743 1913539 2156478 2343611
837.93 2324178 2488111 2879647 3148556 3360820 3696462
840.82 4080185 4313973 4627071 5136881 5712486 6429719
843.71 7059446 7778058 8755184 9766576 10640577 11687948
846.60 12771264 13967939 15386817 16941920 18682725 20463302
849.50 22107004 23896304 26042460 28203325 30448188 32593086
852.39 35015788 37499952 39938863 42417841 44807216 47049694
855.28 49047078 50568534 51896953 53314691 54793337 56230792
858.17 57978582 59556923 60735023 61626680 63003227 65103298
861.07 67198041 68985002 71763877 74081216 76595785 81208328
863.96 86504843 90680272 93487206 97170120 105117606 114728575
866.85 121058220 122533187 117442354 99049273 69698601 57327405
869.75 57329673 58443318 59727553 61557508 63061683 63970017
872.64 64719467 65420299 65555008 65133577 64328820 63034915
875.53 61218703 58930883 56400492 53394206 50076000 46759831
878.42 43216039 39685918 36223725 32961942 29705691 26712452
881.32 23949570 21461481 19181120 17138945 15257547 13603760
884.21 12194259 11059628 9980135 9078102 8382793 7943930
887.10 7415776 6961505 6687058 6418845 6035065 5846392
889.99 5695930 5427019 5247158 5248889 5133261 5080497
892.89 5019900 4854270 4550478 4427965 4398142 4326774
895.78 4100058 3993299 4117749 3968692 3578928 3505628
898.67 3474827 3575221 3793274 3883339 3739762 3694802
901.57 3703241 3693129 3591972 3488951 3420562 3435105
904.46 3141492 3030788 3010802 2784636 2595833 2509271
907.35 2362563 2315507 2134817 1938598 1747228 1646974
910.24 1579389 1512627 1534951 1545710 1284672 1207433
913.14 1161536 1187924 1268120 1324062 1374947 1366405
916.03 1261637 1231649 1176086 1251418 1347139 1410728
918.92 1417694 1440760 1425975 1517548 1670373 1658476
921.81 1568368 1626526 1567568 1623542 1727397 1833769
924.71 1855736 1898428 1890832 1930717 1879825 1894481
927.60 1932289 1999755 1962533 1930813 2000538 2010735
930.49 1974670 2081858 2147964 2205483 2201328 2213120
933.39 2303195 2411866 2387542 2468891 2440183 2454051
936.28 2459669 2415345 2344324 2341263 2384297 2380532
939.17 2314813 2279625 2147892 2044526 1972336 1975194
942.06 2008936 2068197 2007560 1878296 1826126 1799734
944.96 1712734 1643476 1545306 1477780 1480285 1397690
947.85 1246331 1187774 1105826 1029023 1001490 1102972
950.74 1067214 995709 922528 984924 1020745 917502
953.63 789155 856362 875972 783217 582671 450654
956.53 478606 485162 417849 483462 599775 639697
959.42 511679 341295 266058 316151 363738 382619
962.31 408617 392923 318342 386566 416930 417670
965.21 456366 407181 301427 391997 404373 350274
968.10 284775 343436 415794 462993 464482 501353
970.99 528683 597433 540251 536655 532657 571865
973.88 566881 524955 543096 550679 505822 447908
976.78 403789 580066 677976 673903 535515 597593
979.67 718536 821661 743312 730255 714244 717767
982.56 680500 626036 596291 597100 544328 582465
985.45 640712 681234 673810 713424 760306 718995
988.35 654373 635439 523662 538435 587580 632692
991.24 544495 496676 401652 417532 459289 505028
994.13 472169 443915 486850 553120 505624 473848
997.03 416446 349158 207354 290821 481278 552109
999.92 508189 520725 454298 481411 549974 501743
1002.81 332360 380382 480048 428791 378454 447534
1005.70 465665 466175 451962 498876 491550 547498
1008.60 443648 397774 401505 465563 406460 348408
1011.49 345996 404872 362410 385574 321654 324155
1014.38 367841 460227 356298 420811 463013 360380
1017.27 238171 297964 372006 433393 431169 382922
1020.17 215939 240959 268282 243828 229524 234460
1023.06 213129 324382 275265 300142 240089 222555
1025.95 203549 279627 310739 268465 242456 292633
1028.85 262392 349875 281348 142265 140718 265749
1031.74 206382 197271 193879 213342 261060 230303
1034.63 187837 330576 234254 51128 46852 195980
1037.52 192603 193845 195584 324117 358056 302463
1040.42 291721 342179 357086 365340 336726 413212
1043.31 449795 466017 428102 429834 433395 519153
1046.20 494364 513826 488117 378960 336128 497211
1049.09 563541 563014 557294 735239 711248 728026
1051.99 693821 749420 770380 968432 1110586 1083141
1054.88 1137591 1264793 1315988 1367087 1362930 1464264
1057.77 1528870 1688832 1845811 1975792 1931231 2016716
1060.67 2142817 2381022 2615658 2765477 2823710 2941423
1063.56 3091186 3359969 3486637 3576280 3701535 3914154
1066.45 4054042 4226714 4356484 4472152 4548701 4765633
1069.34 4956451 4972904 5066711 5494120 5605749 5650276
1072.24 5807384 6008507 6174475 6365045 6381022 6550690
1075.13 6848049 6972634 6914806 6986644 7015844 6934652
1078.02 6803831 6821049 6878982 7171675 7431023 7577981
1080.91 7604370 7609311 7586828 7610836 7453836 7468913
1083.81 7468435 7585736 7623573 7687781 7768610 8003820
1086.70 8099951 8333048 8445144 8577752 8763381 9111539
1089.59 9237387 9505777 9880721 10287417 10662792 11185875
1092.49 11649720 12157422 12645375 13304309 13855541 14462938
1095.38 15144284 15992797 16616015 17398306 18232225 19253893
1098.27 20373654 21810083 23394294 25067799 26037726 26225264
1101.16 26633156 27602052 28334682 28779283 29129217 30139752
1104.06 31409122 32607755 33429656 33908030 34582589 35676305
1106.95 37366812 39846560 40438653 41870972 44642996 48752668
1109.84 49876238 46258054 46201710 45423367 43032531 44434529
1112.73 44871217 44516484 44666619 45187327 46007382 46793711
1115.63 47066528 46890559 47052109 46981684 47269013 48063545
1118.52 48694874 49506497 50954544 52300631 52536543 51955247
1121.41 50915008 50796505 51199862 52064100 53456582 55640385
1124.31 58251423 61254420 64514399 68419444 72683543 77624410
1127.20 83164251 89622694 96819890 105012778 114045858 124252863
1130.09 135543183 148051399 161202924 175515854 190676508 206844073
1132.98 223569708 240955038 258560236 277344696 297133005 319156205
1135.88 341700996 364120946 385591899 405677495 424566919 444229557
1138.77 462766251 478670407 491423668 505247942 518922909 540952093
1141.66 559220818 547439734 496759214 440615015 422892727 444211757
1144.55 499221994 566273070 614939792 605374747 556238332 526192889
1147.45 530681850 539919929 541353784 528964163 499652461 456350417
1150.34 411103661 369297784 331244674 295927508 264269657 237164402
1153.23 213502223 192504397 175035003 161442933 151954646 142120585
1156.13 128279351 112302336 98718305 87954886 79455633 72025974
1159.02 65224113 58651572 52791509 47611071 43377542 39827781
1161.91 37140762 34726319 32320157 29803944 27690907 26077848
1164.80 24863911 23597308 22418217 21285425 20400320 19592221
1167.70 19184100 18849978 18731376 18725423 18878245 19086066
1170.59 19270053 19352405 19433676 19094815 18839511 19151451
1173.48 19795872 20452265 21317374 22221257 23339260 24556287
1176.37 26091498 27733472 29315067 31123556 33206873 35346666
1179.27 37572801 40180462 42976731 45900557 49746669 54079505
1182.16 57654206 60919186 65457725 70788784 76042057 81025390
1185.05 86965360 93576805 100322765 107015277 114127301 121306431
1187.95 128838145 136371599 144147801 151995265 160520869 167298339
1190.84 173054452 179638812 186850775 194605523 203477654 213574997
1193.73 225393684 239953241 259767224 285350746 318354256 358065928
1196.62 399752911 443576379 494626254 547326855 589049061 590242487
1199.52 536275841 444840811 386024609 399268048 429383277 447633027
1202.41 461595474 480372467 505294453 542513942 590185866 638673682
1205.30 680731251 718119664 750533325 776330386 793623409 802873756
1208.19 804886220 801442010 794176381 784610509 772580718 759987152
1211.09 746906384 734825339 723918562 713799352 704876018 698261567
1213.98 692931286 689519194 687279528 686267758 686446840 688548967
1216.87 692108186 699449226 708083664 716001232 724003383 730401457
1219.77 729070345 715954681 689244866 655442097 628642752 614012859
1222.66 602321022 607006691 627510538 627049416 596642064 553535304
1225.55 511625524 475747154 448593651 429019018 414979423 404322361
1228.44 395033825 385515570 374875806 363175833 350099120 335590076
1231.34 319477452 301944807 283461088 264679883 245870252 227353372
1234.23 209257315 191712197 174685513 158713500 143653684 129587505
1237.12 116614623 104956522 94323583 84738541 76115484 68401008
1240.01 61562479 55533440 50088952 45651271 41846279 38661423
1242.91 35651157 32470957 29516718 27452604 25903599 24578121
1245.80 22884784 21399685 20407032 19699253 18815050 18290951
1248.69 18381277 18844331 18544125 17213017 16264004 16359411
1251.59 16355227 15906690 15237486 15217096 15247963 15300131
1254.48 15057589 15062503 15062088 15204852 15238990 15337142
1257.37 15402554 15666626 15767533 15924248 15978914 16296537
1260.26 16475317 16670671 16667349 16938446 17063479 17353622
1263.16 17591565 17899688 18027226 18167838 18096154 18327539
1266.05 18516799 18695725 18594897 18732927 18746182 19017435
1268.94 19064754 19142424 19066186 19246232 19267470 19574459
1271.83 19735471 19908365 19743686 20003985 20177406 20303324
1274.73 20179883 20582656 20974064 21524700 22044130 22902075
1277.62 23417829 24213700 25233435 25940164 24570805 23769098
1280.51 24361028 25570799 26581956 28000948 29410599 31392658
1283.41 33373125 35617390 37872611 40778548 43348009 46566809
1286.30 50204333 54320251 58230491 63237180 68622265 75146621
1289.19 81711200 88719956 96303938 104644032 112718297 121754994
1292.08 131135170 140740276 149612741 159717866 169011463 178034703
1294.98 186504487 194802975 201674782 208883239 215268097 220249380
1297.87 222370176 225301114 227039624 225887797 223352980 223332310
1300.76 222819410 222764717 221861814 221481803 220234867 223993566
1303.65 229955817 240275406 250721193 267764854 291386928 323062884
1306.55 362189163 413146248 447511776 484788570 555113443 560634704
1309.44 367604770 191699350 154984104 150903132 151966978 149079925
1312.33 148535747 146715256 147513837 147335697 149053309 149259911
1315.23 150352735 149484604 148839546 146347108 144010599 139897526
1318.12 135754388 130183068 124858739 118112926 111796098 104499852
1321.01 97664874 90191180 83423879 76184457 69627923 62775076
1323.90 56759517 50638132 45448833 40085548 35589471 31055855
1326.80 27487110 23807646 20831845 17847776 15637106 13341308
1329.69 11662846 9899210 8796203 7502126 6788824 5905754
1332.58 5396162 4634146 4391187 3937003 3869042 3567967
1335.47 3553781 3347482 3534739 3463443 3679931 3667289
1338.37 3963087 4084718 4452939 4520373 5025036 5304293
1341.26 5817918 6028684 6486692 6744239 7151249 7430492
1344.15 7888382 8046185 8345194 8384623 8623986 8584641
1347.05 8690932 8559167 8569672 8391064 8526961 8608417
1349.94 8891233 8949450 9382177 9684614 10011266 10099764
1352.83 10430661 10570811 10390403 9942108 10381605 11626931
1355.72 13472132 14905210 15377899 14671886 13764857 12670592
1358.62 11817164 10891916 10350144 9798123 9332308 9168484
1361.51 9367556 9004512 8724632 8664584 8809026 8617547
1364.40 8466572 8226649 8106675 7798095 7604527 7332909
1367.29 7123485 6694297 6458463 6193469 6042068 5709195
1370.19 5661021 5606407 5642475 5388144 5210344 4969553
1373.08 4749716 4575235 4616870 4380623 4393993 4366031
1375.97 4468437 4374175 4447564 4459303 4593971 4575170
1378.87 4599142 4564655 4648678 4573105 4670746 4700320
1381.76 4819002 4835864 4961167 4969390 5109653 5097684
1384.65 5217163 5267526 5385043 5451807 5403964 5381747
1387.54 6159355 6530217 6503303 6167146 6398293 6682134
1390.44 6998167 7408420 8068784 7692402 6919955 6641485
1393.33 6407790 5505644 5333979 5276909 4971001 4878419
1396.22 4766456 4522274 4385933 4209278 4126711 3799349
1399.11 3923013 4033815 4025148 3946229 3975206 3856576
1402.01 3733440 3521327 3459267 3314222 3222246 3009577
1404.90 3016468 2930437 2857652 2700258 2609555 2448445
1407.79 2294595 2162780 2167401 2044229 1970801 1800012
1410.69 1817638 1802588 1813689 1783245 1763814 1785799
1413.58 1847235 1811121 1849733 1807910 1790072 1759404
1416.47 1834393 1747847 1888225 1844683 1386990 798893
1419.36 1576987 2329936 2478420 2547295 2708032 2758579
1422.26 2826737 2777018 2725002 2834828 3115278 3225551
1425.15 3356980 3408186 3539439 3619944 3686824 3796309
1428.04 3949156 3993942 3926196 3787865 4106484 4241009
1430.93 4324624 4416382 4486956 4381019 4493842 4648670
1433.83 4866988 5020662 5479838 5656348 4991073 4092201
1436.72 4710093 5431845 5627295 5726162 5945997 6120799
1439.61 6349725 6512425 6700577 6794231 6939247 7078386
1442.51 7259055 7365649 7513105 7447886 7406500 7245984
1445.40 6963558 6792517 6676164 6403117 6174107 6226285
1448.29 6244194 6055935 6133660 6398050 6300834 5907455
1451.18 6099486 6335555 5954852 5160911 4771727 4598130
1454.08 4586719 4418000 4434918 4134584 2895233 2399013
1456.97 3598197 3730229 3518888 3528535 3468609 3352167
1459.86 3237545 2998849 2744789 2482020 2350108 2091423
1462.75 1925885 1749802 1490366 827142 838713 1252874
1465.65 1259727 1134706 1132361 1096694 1084065 1010202
1468.54 908477 785098 782010 783682 726952 302435
1471.43-284874-110620 153614-479221-233940 352842
1474.33 448292 352250 134126-60002 217311 424884
1477.22 474918 442590 460995 425043 435696 351466
1480.11 294809 222395 264881 349887 402754 298272
1483.00 273423 330544 369992 347640 387569 265314
1485.90 152614-13282-168041 67197 257251 158343
1488.79-35322-233982-174220-230945-51107 187165
1491.68 243845 313481 338166 296665 261397 326988
1494.57 313796-91404-979033-807615 187701 350201
1497.47 267190-136634-243999 193815 434380 435033
1500.36 496077 395438 427531 566381 568713 501033
1503.25 518792 464927 303890-625534-1264778-553540
1506.15-976587-1469210-287652 231763 213790 387239
1509.04 347954 282050 508632 602075 584826 224063
1511.93 81944 387452 575812 608309 548643 408848
1514.82 431374 493735 300541 11184-172175-21074
1517.72 375619 471257 492794 264050-75533-333461
1520.61-1214745-914963 62441-210559 26043 396967
1523.50 511672 350326 40219-410904 9219 355279
1526.39 264259 167634 415436 331920 318966 424437
1529.29 494454 478813 514122 353428 238291 284407
1532.18 191171-157670-408792-311477 327906 416214
1535.07 399467 350485 462214 453747 437768 159566
1537.97-500091-1908423-1357816-926573-1123034-214102
1540.86 18869-808606-833640 99631 381968 558494
1543.75 661829 270894-133923 281460 635336 718790
1546.64 764400 753109 766466 784440 789250 585054
1549.54 488484 629140 839960 863413 941853 1005989
1552.43 1131774 1151076 663033-14530 615457 1104793
1555.32 1142913 1053007 979887 193285-281224-1051408
1558.21-1225117-121778-569301-1364087-368794 781342
1561.11 897552 983846 1051475 1145643 1139939 1083922
1564.00 858248 741332 937642 1091699 1094849 1094028
1566.89 1038136 1003321 969698 847787 447198 121265
1569.78 634321 1017985 1056914 1105693 1059300 974509
1572.68 1017113 1127146 1057825 1033452 913346 141063
1575.57-1323656-625246 746482 960948 995802 999914
1578.46 1050519 1045455 1119848 1164209 1172521 1100085
1581.36 1070325 1024499 1009732 1009396 1010571 914547
1584.25 905396 944682 1072232 1096246 1024504 894398
1587.14 865343 835059 778363 716791 677683 671836
1590.03 693160 636562 645418 618260 658139 666826
1592.93 634503 594393 562060 503723 526872 483184
1595.82 442751 411881 407593 411769 410777 385873
1598.71 407074 419403 355163 342257 332118 351223
1601.60 382909 342392 337378 320417 273131 223061
1604.50 242695 256551 269938 220180 128235 207214
1607.39 283332 277487 241859 177697 212451 254525
1610.28 277800 356358 357516 312794 250070 238353
1613.18 238671 227347 229142 299977 167317-507895
1616.07-1889721-1405522-35275 199605 255222 249056
1618.96 276839 271692 274327 279325 316762 281789
1621.85 244795 121916-261495-357098 162538 333354
1624.75 378963 389853 447061 363269 318704 89788
1627.64 173586 405200 528857 574295 620910 580046
1630.53 563536 572200 637915 617667 639344 586785
1633.42 613067 365983-246679-1036740-865927 265679
1636.32 631425 397835 365028 557514 549011 581349
1639.21 615783 609701 589774 569447 575825 634450
1642.10 679379 685461 685645 704004 640420 531805
1645.00-176661-1013320-301817 221948 85215 158635
1647.89 202507 447629 545139 612550 558345 477505
1650.78 332491-242371-1905776-2494832-2639571-1457139
1653.67-444314-430381 168041 359119 454078 398179
1656.57 429965 412691 466885 422052 450029 426475
1659.46 461727 469276 429219 351780 368485-19418
1662.35-305661 41808 387014 408644 442487 413986
1665.24 478029 494732 487598 426109 435487 287396
1668.14 91373-534089-483340 249473 424875 227497
1671.03 136438 312477 436369 481494 516579 461280
1673.92 332628-409758-833969-118720 414919 494117
1676.82 490852 465399 467836 472145 508825 387516
1679.71 321584 324398 420527 469160 484148 161049
1682.60-335612-430574-616379-2061003-2339125-469229
1685.49 215675 345732 383685 429619 315725 239684
1688.39 286248 330591 159812 154192 286870 394774
1691.28 429543 418364 338712 349228 296618 295414
1694.17 149796-453123-2163132-2198404-318128 278793
1697.06 266009 311164 348768 126608-795196-1805435
1699.96-1672089-961401 5539 357996 531555 634890
1702.85 667445 477942 171031 279278 616235 556668
1705.74 350673 529786 853881 907580 1048975 1150012
1708.64 1145670 1098895 1116495 1124302 1225310 1343936
1711.53 1467650 1430137 1419675 1397761 1322839 1272726
1714.42 1024744 1047142 1498487 1521359 925382-304733
1717.31 503645 1296403 1278083 1698412 1938710 1965059
1720.21 1971150 1937126 1875051 1819809 1795564 1822416
1723.10 1882472 1941365 1953073 1909939 1868034 1757660
1725.99 1706073 1633579 1650585 1587958 1495948 1426528
1728.88 1286232 1093106 1093768 1307493 1327956 1269927
1731.78 1140486 738510-278499-241468-315232-790258
1734.67 191157 733479 820908 750201 705059 585095
1737.56 622811 625163 477393-129634-321116 163188
1740.46 401538 489918 500908 367556 271852 237949
1743.35 329095 352586 364303 335314 301068 248947
1746.24 184471 122344 203815 82818-113943-96485
1749.13 75375 91939-121380-744339-699517 19423
1752.03 220246 188783 217438 252683 270987 267512
1754.92 256527 139802-127821-300826 26523 203746
1757.81 215430 193864 219338 257475 323545 245208
1760.70 56751-397269-267040 127651 252295 337138
1763.60 400846 347863 329819 317598 376692 413123
1766.49 410679 278740-160988-104216 373863 470523
1769.38 531302 448069 227012-17762 145692-365318
1772.28-892139-88488 496035 560607 515098 450167
1775.17 419450 535248 649029 650103 663983 684480
1778.06 692838 618579 644517 581232 427316 461055
1780.95 609172 608827 665697 673578 684200 658207
1783.85 602335 340775 435393 626255 667808 619499
1786.74 663637 723682 738379 674642 664032 685860
1789.63 762986 604019 554547 737328 499933-137799
1792.52 106378 699303 854315 879755 864457 825599
1795.42 740887 743766 766375 766060 786136 781697
1798.31 795430 638029 581602 791915 810393 675242
1801.20 710774 657931 611201 809512 873759 761255
1804.10 686277 703507 731357 753430 753964 707156
1806.99 595938 558109 627821 668015 639463 557481
1809.88 432076 377721 498005 504217 450061 452319
1812.77 442385 377265 398072 398694 373231 360471
1815.67 379560 354282 302074 229509 257805 370625
1818.56 403184 329939 269513 257508 259960 266871
1821.45 257855 192662 218448 231383 190996 109966
1824.34-100496-240667 35039 200763 287243 256581
1827.24 233441 223616 113836-14996-108470-281403
1830.13-37663 173439 210868 195895 206355 241592
1833.02 259272 191218 179458 172751 163881 230030
1835.92 240765 153807 161465 141323 78919 59067
1838.81 118861 154580 129074 141715 165947 137620
1841.70 134531 148838 92088-212080-818877-570929
1844.59-2125 88172 135721 164658 115662 69991
1847.49 129183 167514 185161 146761 134556 134668
1850.38 160279 131333 154230 191860 231828 259193
1853.27 285088 236068 214028 246807 304895 347179
1856.16 339078 284952 269243 270998 347760 374253
1859.06 362012 332519 324993 347961 366222 385999
1861.95 435789 463671 454557 435062 451203 482049
1864.84 504460 477878 422061 422297 397574 307528
1867.74 336641 275562-49538 9672 294859 321337
1870.63 317267 355774 363846 390447 495067 455865
1873.52 393131 381448 420557 362393 306204 321400
1876.41 319458 258217 245485 188235 182710 164611
1879.31 151379 148434 152717 111523 125672 102054
1882.20 96587 85569 65758 64488 94967 92414
1885.09 123194 91994 26641 47676 93586 87769
1887.98 42142-14925-119027-62099 39235 25884
1890.88 61673 23567 52173 88340 69155 48733
1893.77 75026-18801-67408 15296 8358-25208
1896.66 62517 70900 43407 77618 139336 115903
1899.56 143532 87881 21406-17810 16772 73529
1902.45 90727 91743 79125 85652 101276 45559
1905.34 87492 139969 194172 167534 155265 172375
1908.23 220183 208077 143557 126183 181502 240470
1911.13 315561 331450 336909 371938 395550 376819
1914.02 414462 470832 511116 527944 561696 575857
1916.91 522268 326685 505207 742578 690948 642947
1919.80 725128 828356 926574 951296 997680 1044368
1922.70 1065449 1152692 1282532 1390879 1383949 1319575
1925.59 1348853 1392469 1426784 1453699 1515425 1520733
1928.48 1539534 1569650 1620688 1651989 1710714 1749803
1931.38 1788009 1820151 1853616 1862818 1793683 1762295
1934.27 1801104 1747330 1682547 1712772 1754703 1713098
1937.16 1715879 1675547 1602190 1602166 1578532 1534974
1940.05 1467100 1460393 1549237 1492797 1368448 1350156
1942.95 1314509 1214213 1177800 1183001 1138082 1117842
1945.84 1103796 1020211 1012266 997951 1003281 1006223
1948.73 960519 867589 796751 743517 749131 720564
1951.62 622094 523389 499756 529581 556818 497671
1954.52 487334 464707 397915 382109 381873 330481
1957.41 278065 277836 287111 254766 184569 134953
1960.30 164188 149039 165608 189089 138893 63826
1963.20 88429 101546 128250 99757 42998-5173
1966.09-29218-84099-62483-13104 74579 103763
1968.98 96990 87867 74689 45662 52416 76401
1971.87 84332 37521 13532 20372 23599 10032
1974.77-26756-24254 17805 54345 32055 5228
1977.66 5747 34013 69549 3026 477 47642
1980.55 42028 69477 80082 4597-51126-59351
1983.44 16693 43311 34056 2096-27365-32529
1986.34-19209-10971 10713 9638 52286 32115
1989.23 8056 8001 50890 83572-5423-83729
1992.12-42232 22735 82082 54709 41333 63002
1995.02 60486 57402 122712 138366 112469 107183
1997.91 106906 57016 4143 16517 99211 113959
2000.80 89160 124300 141469 122215 106063 97170
2003.69 77250 88350 177155 208851 201701 154212
2006.59 131507 113343 92068 81864 90231 147071
2009.48 170712 161016 145555 145295 141138 72789
2012.37 98729 122538 87771 59002 89358 94670
2015.26 97954 96377 107549 64480 109625 120010
2018.16 143097 129949 122368 111888 139050 67782
2021.05 61640 141030 187871 127884 90036 70178
2023.94 84076 113068 134919 139404 117866 117824
2026.84 127313 137949 82603 38832 127120 153308
2029.73 124323 82841 81855 134339 186780 168498
2032.62 145781 119490 95089 118172 152901 130021
2035.51 131600 125540 135212 133156 165232 192829
2038.41 224938 201019 168326 185271 223865 228390
2041.30 219026 250405 293621 258378 264696 312257
2044.19 328359 312277 322430 366048 392625 371463
2047.08 376110 391222 461937 479336 472823 523681
2049.98 535845 504452 559134 603602 680849 673126
2052.87 690229 705439 734648 720498 725591 777085
2055.76 792113 858740 954320 1011454 950251 945030
2058.66 1032261 1065309 1106871 1169391 1219316 1290848
2061.55 1302819 1291284 1354090 1393622 1397458 1274998
2064.44 1159720 1161411 1132902 1042619 945817 880976
2067.33 873454 905397 935489 944005 936364 938697
2070.23 992493 1000679 996547 1000178 1006481 985489
2073.12 970163 905501 890845 890561 854804 806321
2076.01 722734 675539 716585 697174 685179 619549
2078.90 568002 542414 515844 464283 425843 453789
2081.80 413559 389522 439067 497250 481385 417983
2084.69 386666 373098 394111 398294 395140 357900
2087.58 350267 302034 301003 291162 282497 333743
2090.48 284667 214819 254143 216598 189864 195847
2093.37 199132 184232 243951 222722 197694 165289
2096.26 200250 198705 137790 90373 156154 256703
2099.15 209614 179825 117400 65115 61755 62412
2102.05 86796 205497 200315 64137 43654 15191
2104.94-4688-3554 18900 84539 180187 87573
2107.83 21625 70303 51714-5098-8556 68847
2110.72 195393 212843 86797 25804 20597-7510
2113.62-44855-56546 41594 224154 182420 82526
2116.51 59184 51060 21671 40045 101851 171093
2119.40 191601 73988 6463-31860 18099 33234
2122.30 68367 127633 177384 58991 9426 19364
2125.19 77463 49228 15113 72174 201700 159358
2128.08 51204-1127 23875 71250 44275 95281
2130.97 177081 135163 63172 33564 37999 23463
2133.87 87171 154749 179033 128365 76066 120422
2136.76 106269 81679 170379 209946 233300 217566
2139.65 203090 208851 210812 129354 178447 206108
2142.54 158632 181118 248085 275491 285341 277358
2145.44 342881 397592 445857 461018 450316 448365
2148.33 520645 558585 585903 583402 619229 658255
2151.22 666911 704424 773711 718820 685652 788587
2154.12 930586 941228 949079 954531 931871 873162
2157.01 904666 1043901 1150740 1113420 1110485 1104867
2159.90 1160376 1147882 1118385 1250172 1246001 1126421
2162.79 1170133 1166543 1194919 1198302 1339381 1498855
2165.69 1461734 1403012 1447825 1411084 1399893 1484268
2168.58 1682794 1647805 1454111 1364672 1343759 1222507
2171.47 930707 829234 847233 766536 732617 677529
2174.36 614676 602075 715657 830769 717899 630534
2177.26 646834 617386 614533 723186 847127 672179
2180.15 526338 468520 366907 305146 373291 493383
2183.04 363306 227208 271395 225648 180978 218031
2185.94 354778 319169 217242 134658 87051 71593
2188.83 104291 174366 142880 62461 54174 40000
2191.72 45736 74656 156784 94939 3931-22177
2194.61-44097-24316 17803 66289 39016 13478
2197.51-19172-18472 8345 18348 115363 110241
2200.40 34169 854 99329 146833 166379 126707
2203.29 22795-29044-30604-19287-56276 19659
2206.18 81202 31155 11049 31585 132486 126086
2209.08 31933-567 27608 52852 49236 40976
2211.97 66519 73582 24547 3696 78282 135811
2214.86 97818 92558 105946 80268 103953 100173
2217.76 53934 46664 50954 49661 107524 128789
2220.65 146105 128966 107534 146115 188280 138043
2223.54 86341 61920 121921 150048 148835 136537
2226.43 122715 146997 220763 233425 210208 165907
2229.33 175822 172795 191655 202218 209886 189453
2232.22 196796 243226 238459 203330 234196 281559
2235.11 322356 301311 302671 354343 400650 424379
2238.00 417329 446480 454052 421301 450643 513501
2240.90 543978 549045 530800 587299 671253 705848
2243.79 768836 803646 818761 839261 822067 854892
2246.68 955018 990006 1002721 977937 1009945 1047828
2249.58 1119281 1172290 1207160 1213778 1237982 1306174
2252.47 1360167 1343665 1360327 1381091 1397355 1402566
2255.36 1462668 1519923 1539677 1504185 1533355 1591385
2258.25 1619742 1659510 1670261 1612999 1610155 1610799
2261.15 1671076 1785285 1744375 1702040 1746442 1770782
2264.04 1803984 1859404 1856425 1861041 1882122 1862497
2266.93 1950845 2078899 2128317 2169491 2189223 2214842
2269.82 2266747 2268681 2402862 2486776 2586378 2686121
2272.72 2805395 3008836 3240038 3331443 3383625 3501604
2275.61 3551836 3526658 3532607 3483220 3478315 3533082
2278.50 3610718 3706744 3845472 3815465 3670009 3650682
2281.40 3686081 3697468 3788077 3837778 3746330 3537637
2284.29 3347186 3148331 2948035 2822659 2673640 2493381
2287.18 2282422 2040722 1934319 1932608 1824310 1640438
2290.07 1489909 1362460 1273773 1224926 1160532 1099495
2292.97 1048250 990981 954123 898658 887064 881166
2295.86 882614 809267 710678 666250 623551 557992
2298.75 576519 513009 459856 453152 593773 656452
2301.64 596896 479026 502400 527191 424123 327260
2304.54 380201 452560 451546 375822 325879 425724
2307.43 431606 365414 287080 242655 299746 254389
2310.32 146327 125996 316677 300446 139008-1780
2313.22 186510 287263 158174-130881 44848 193590
2316.11 108753-233437-57394 204554 165052-238679
2319.00-118736 185482 55557-468329-341093 94145
2321.89 33198-523984-474574 42238-71324-690273
2324.79-479008 123802-151759-779967-528931 19519
2327.68-395729-1012322-556322 52104-526765-1078544
2330.57-408564-24651-880335-1188756-231446-80117
2333.46-1055850-947800-25853-431532-1192510-496300
2336.36 31966-830008-1072900-133601-256923-1148996
2339.25-711408-34266-720971-1026805-282471-316271
2342.14-919757-464130-3123-560090-700278-112664
2345.04-179495-410163-59240 98862-123232-33960
2347.93 151057 171447 55100-12741 40408-57602
2350.82-331583-180973-64775-541752-479855-174881
2353.71-702993-647161-162907-835027-839594-250783
2356.61-926090-907430-345830-1130040-959287-490529
2359.50-1314253-881814-593328-1340635-660441-743581
2362.39-1312768-586214-1020104-1056094-477666-1057220
2365.28-614035-609110-1063787-488170-827013-631383
2368.18-479060-820424-396592-640382-434257-363812
2371.07-540379-260534-343918-154887-266854-221653
2373.96-147344-97053-6926-86290-26038-15004
2376.86 92009 48159 59003 16858 38795 55623
2379.75 66091 26121 87798 172066 176054 120434
2382.64 191190 297280 371212 389696 361633 357284
2385.53 395115 417623 416364 446786 460540 512491
2388.43 608887 623192 572028 562819 628427 681564
2391.32 826344 887975 851465 847593 893206 930288
2394.21 912755 904035 942041 1048936 1132684 1158988
2397.10 1281292 1434558 1582620 1684528 1774761 1773939
2400.00 1845343 1994644 2016996 1996707 2012485 1941083
2402.89 1896014 1887953 1846973 1819634 1822114 1821414
2405.78 1768685 1790220 1925751 1948095 1961725 1968137
2408.67 1939156 1934477 1935570 1939918 1927873 1907368
2411.57 1892269 1876104 1888829 1881601 1850118 1766368
2414.46 1724794 1659766 1621821 1643122 1656425 1560864
2417.35 1323806 1172186 1040254 911084 892350 917289
2420.25 891611 868034 822390 746726 776734 782811
2423.14 691444 561116 501197 424988 384816 350230
2426.03 323711 268680 204384 186871 247712 246512
2428.92 223646 251696 297651 283468 277515 284547
2431.82 293087 330767 366481 366495 325942 308792
2434.71 317458 373272 411827 424056 426319 397490
2437.60 399323 388263 420449 375759 314584 313960
2440.49 340584 375172 386227 353213 340465 405561
2443.39 406861 402421 432850 436587 396617 373645
2446.28 344722 309514 261486 300236 298416 280352
2449.17 258688 214229 241042 253643 166794 138032
2452.07 161209 209751 264724 194949 118095 120701
2454.96 130572 101932 95527 74993 7256-62816
2457.85-46100-49929-96139-92683-84958-162528
2460.74-238784-196442-152955-158126-154721-196150
2463.64-198883-211865-176883-185727-247202-235168
2466.53-181039-198532-180769-149887-151912-188224
2469.42-233271-193646-226866-250951-212815-192140
2472.31-153850-176354-140795-104835-115408-164095
2475.21-143456-132736-131459-55334-31153-83189
2478.10-93738-44015-62878-8209 54878 46218
2480.99 44413 109610 180196 205312 167836 204028
2483.89 316230 315350 311959 380838 371048 316629
2486.78 330377 412914 492503 468774 488684 530625
2489.67 588084 608686 618212 716276 867053 921280
2492.56 949301 1011357 1067344 1080875 1144380 1183155
2495.46 1204338 1166283 1198498 1266525 1240401 1227484
2498.35 1280491 1320427 1365803 1454113 1527408 1546391
2501.24 1628995 1628641 1601671 1649817 1630944 1656191
2504.13 1665968 1566222 1352641 1178978 1134080 1157202
2507.03 1138904 1082733 1056669 1055434 1080794 1140757
2509.92 1161245 1144368 1069083 1054922 1096465 1095199
2512.81 995006 886160 837688 802527 689051 655544
2515.71 595593 605642 599501 523687 455248 425428
2518.60 339279 281207 292365 241360 263330 321072
2521.49 142662-3567 51025 159494 153775 80302
2524.38 118557 123718 106600 20741-929 12477
2527.28 47717 83703 21719 25422 45607 79272
2530.17 109421 112349 83646 50696 4228 89089
2533.06 181425 73839-5455 17954-13415-30343
2535.95 12076-24801-32224-8302 27460 55160
2538.85 59465 50809 17216 9425-11663-55724
2541.74-47965-24679-55760-73349-74068-62033
2544.63 21901 47233 36234 9451 20532 18276
2547.53-21658-7227 6106-4695 38024 35134
2550.42 21667-25182-63073 55132 64202 5053
2553.31-2864 87331 156950 134100 124683 154657
2556.20 163826 133971 196190 254088 280228 276984
2559.10 295947 319330 315338 276783 269405 316131
2561.99 327361 324722 358155 397540 381167 420335
2564.88 435888 424511 468776 440294 388667 402689
2567.77 459724 448509 386175 357014 353789 354264
2570.67 323176 324632 324352 329672 416082 364105
2573.56 290546 306146 385562 391127 403817 404123
2576.45 379861 377856 310720 195230 199427 188195
2579.35 185361 240450 263450 275925 215057 155691
2582.24 162474 175439 188088 202090 136054 91900
2585.13 130439 219082 237274 170374 147499 156602
2588.02 170058 168806 154802 178000 200502 250482
2590.92 244205 248268 280243 321286 361788 334372
2593.81 336690 340700 364421 460109 532500 517549
2596.70 556318 564992 514051 451059 505192 552509
2599.59 482245 446407 477086 415512 383807 478982
2602.49 551628 621680 536309 416388 500146 653659
2605.38 645616 537331 544993 664061 769435 711667
2608.27 480363 298430 336205 383573 345001 370470
2611.17 392458 410048 422328 308098 116894-28612
2614.06-149735-250990-292216-264845-219864-256701
2616.95-279771-309165-241879-238159-99939 74221
2619.84 59893 79313 86845-31878-78310-63453
2622.74-147395-173750-159669-119648-128998-196605
2625.63-200122-278609-382400-333406-223021-174091
2628.52-214896-310184-242798-204970-224792-219039
2631.41-185810-137888-185880-232528-221271-218831
2634.31-140510-95804-84669-102202-121732-141081
2637.20-99733-56466-58277-37486 19666 2545
2640.09-33612 43210 97378 25099 73373 88095
2642.99 17893 42029 123506 210391 240609 191462
2645.88 188030 181838 237169 360704 329234 229748
2648.77 202149 171518 179229 232526 276365 342296
2651.66 329725 338195 392733 357940 350315 332657
2654.56 317321 358946 450847 396265 377881 340240
2657.45 347531 339073 323366 403547 393160 372904
2660.34 302749 278620 302897 293162 259066 263446
2663.23 313074 378930 363567 319224 366058 400984
2666.13 324452 296592 312271 344683 371184 347860
2669.02 235767 185745 233260 308697 330961 292509
2671.91 266593 235126 203209 179449 253160 328256
2674.81 331098 264360 186998 172283 141840 218844
2677.70 239321 207317 235032 227393 245389 272220
2680.59 196800 122357 69198 94534 189517 219711
2683.48 195028 133201 113220 129283 145918 146344
2686.38 171962 166390 230296 315501 303557 322260
2689.27 261743 193010 136240 89157 112123 136316
2692.16 53123 13570 80082 34437-47593-28854
2695.05-29407-61613-48379-61258-13126 14025
2697.95 28578 37934-36313-129809-107686-21306
2700.84-42219-73442-37153 57350 26104-105361
2703.73-150885-118572-88916-38763 41978 10125
2706.63 42511 952-37108-27752-82983-85889
2709.52-76201-105564-74392-80250-112713-122277
2712.41-62919-49588-101361-162749-104882-82448
2715.30-138853-155635-173549-144593-99752-92057
2718.20-123986-96112-102343-116736-35821-48548
2721.09-185021-190258-84514 2664 48429 30767
2723.98-82560-169591-126706-51841-89295-69262
2726.87-58416-84840-80319-66834-17496-12754
2729.77 7123-59411-78705-77703-40900-46065
2732.66-64895-17388 38191 23730 61126 94630
2735.55 67784 49614-21928-74387 15315 64986
2738.45 66351 102-7716 67339 94563 41501
2741.34-33871-50195-14934 4618 56756 58049
2744.23 74699 30269-30913-15721 53051 66973
2747.12 28702-28274-158 42153 10890-21514
2750.02-30556-20750-35922-54187-77056-175045
2752.91-148566-92270-32638 70918 45300-47001
2755.80-85428-105471-111695-163747-157189-95231
2758.69-85663-81193-25736 25715-30156-107306
2761.59-132271-117241-126199-158236-118905 9883
2764.48 27916 23197 8283-45178-39077-93172
2767.37-50208 43064-3976 3889 40857 77615
2770.27 67056 76882 91949 161886 153192 66252
2773.16 46724 1814-38520-17112 101973 145689
2776.05 84951 95055 169482 153310 10801 22199
2778.94 157217 141070 91021 95285 149917 156112
2781.84 93406 78445 130339 147379 176879 215409
2784.73 178648 127712 64345 36345 124961 185530
2787.62 216565 180648 82865 82797 196003 191318
2790.51 146406 118045 148223 88729 13838 104
2793.41 95519 184917 143331 89138 198039 235213
2796.30 205001 109169 82083 24675-94329-93365
2799.19-31995-6883-79-20636-25471-41714
2802.09-75245-12966 6100-47262-35634-9778
2804.98-54629-72 41431-20353 1361 78680
2807.87 118970 122772 15835-226-4559-9709
2810.76 25705-60440-142911-149179-50798 61230
2813.66 175923 83632-89172-123488-58102 41393
2816.55 9720-65511-18623 76476 54496-12576
2819.44 94618 135951 134776 84468 62320 100166
2822.33 48335 1038 40599 46597 25434 67528
2825.23 107737 130976 96552 129618 188249 194423
2828.12 170942 241614 279014 296797 325910 257620
2831.01 292514 393099 477328 496494 511455 505026
2833.91 464637 435143 453609 485975 506242 569871
2836.80 546917 611963 776811 747782 692297 652356
2839.69 620855 686334 729025 798674 835526 820808
2842.58 825299 747994 714610 759653 759929 804585
2845.48 920938 903349 861288 951444 1076669 936961
2848.37 726483 619183 642096 735243 785012 651859
2851.26 576460 566331 573525 541483 496461 505184
2854.15 518074 469476 535655 551250 500275 446147
2857.05 396187 366394 382459 404436 482747 446511
2859.94 346387 378797 381569 307560 279251 349152
2862.83 337101 281491 304225 381543 335072 243384
2865.73 233655 243438 173112 194144 304538 290010
2868.62 251015 208672 190404 177114 179968 215571
2871.51 261509 231778 196368 267286 271461 192144
2874.40 118982 94751 129898 202840 144871 98913
2877.30 140127 53710 9799 61551 106108 52756
2880.19-48870 20917 52687 72000-4065 5407
2883.08 112033 3500-105282-152092-181649-121652
2885.97-119162-123629-75967-72314-63041-15280
2888.87-30134-34466-70620-68096-58113-74518
2891.76-84085-118355-131786-21466-61979-86436
2894.65-115494-163293-159558-64368 3120-26826
2897.55-85851-43089-11329-13886-17743-64858
2900.44-157739-207949-169145-51007-73405-165801
2903.33-191220-228030-228100-277544-286725-186230
2906.22-155958-115861-66424-235928-238154-162869
2909.12-70884-76740-137588-114875-169892-180973
2912.01-82372-47888-73540-179041-252261-224028
2914.90-217195-120280-78007-135320-86435-43106
2917.79-170065-192357-115288-135497-60937-36194
2920.69-174154-265241-180891-14763 39893-36145
2923.58-128355-118101-60445-95120-71250-106141
2926.47-165907-228137-223486-55400 64783 26085
2929.37 19738-25896-63152-122007-105965-47815
2932.26-3786-78989-37735-28622-85057-106106
2935.15-103317 31628 81121 66233 17341-21704
2938.04 30388-2972-32362-23626-20947-80888
2940.94-148022-205165-197402-131300-58709-46456
2943.83 23100-52513-58884-92848-92231-38833
2946.72-71900-86134-147727-161410-119343-135179
2949.61-155417-118712-77306-53305-23158 34450
2952.51 33972-1257-13716-24599-79006-68451
2955.40-102473-63242-58216-78821-147485-102332
2958.29-18338-10423-71706-136756-156951-129976
2961.19-169323-75433 65693 54673 36146 127442
2964.08 188968 167871 218029 214178 122906 103614
2966.97 72652 150224 221728 276485 378201 392805
2969.86 480383 534174 533963 559548 594475 770919
2972.76 935484 944346 890069 994949 1180408 1291187
2975.65 1517683 1712602 1817924 2042422 2299344 2465811
2978.54 2734964 3084721 3378052 3606633 3939672 4316916
2981.43 4738240 5133127 5610696 6221489 6766310 7341752
2984.33 7918499 8613672 9276918 9875499 10529748 11278861
2987.22 12114949 12925731 13670051 14313083 14771134 15179039
2990.11 15561377 16092566 16450729 16642700 16860770 17165275
2993.01 17418881 17482450 17604777 17786391 18110677 18510417
2995.90 18961033 19405516 20149835 21353618 23012345 24742400
2998.79 26131741 28112191 31498123 35917285 40507035 42936971
3001.68 39749127 32779329 26562578 22251016 19627994 18274124
3004.58 17626369 17078651 16748516 16568349 16408187 16190437
3007.47 16137442 16157168 16100148 16021284 15902919 15716844
3010.36 15428345 14989914 14444721 13930067 13444195 12765404
3013.25 12107951 11473634 10704804 9939644 9183961 8453299
3016.15 7754799 7099756 6459692 5833410 5315842 4680985
3019.04 4105372 3752887 3428124 2985982 2621431 2278377
3021.93 1935881 1587273 1360215 1248257 1158152 977865
3024.83 818495 766346 657636 528447 393844 437138
3027.72 396800 270464 218818 251194 179558-398
3030.61 30647 106685 44398-25337-64954-104817
3033.50-100656-28225-99519-40636 68789-14525
3036.40-161261-145863-62333-57528-27446 23540
3039.29 37495-112092-120519-89255-158868-147857
3042.18-190181-246723-124829-115530-160058-162832
3045.07-104046-142217-190969-247275-297140-193592
3047.97-120670-16316-10956-46598-84486-156707
3050.86-133475-108168-76531-131385-195202-164958
3053.75-61427-100749-229608-266266-170886-86882
3056.65-42332 11102 68624 134620 24259-119902
3059.54-91449-59754-65290-20666-6561-41876
3062.43-29685-29399-49289-79361-126767-25165
3065.32 129847 132533 70685 27032 24659 34163
3068.22-12487 418 30511-16923-22134 18084
3071.11 16364-19775 20819 83997 18562-8760
3074.00 116069 148985 92462 18950-5520-6933
3076.89-27755 17700 30804-85218-102985 7953
3079.79-7121-36027-37439-93845-80390-77922
3082.68-69417-45449-74211-104750-53534-54914
3085.57-67602-55084-124208-121148-6475 21902
3088.47-79391-132521-115625-95810-97928-131228
3091.36-168041-109321-18033-50373-63439 13045
3094.25 3168-185316-234796-161599-151676-255796
3097.14-289836-258310-212243-218458-274713-153124
3100.04-117609-72713-26246-184681-196334-72697
3102.93-6742-14196-60551-121684-159269-59057
3105.82-61772-189287-253004-232581-226972-186035
3108.71-162805-160563-134554-82816-112894-238341
3111.61-238804-163354-102729-108750-27513-8949
3114.50-177164-273311-185138-91249-103853-134293
3117.39-182133-64159 2843-52607-28134-49729
3120.29-65211-37276-8272-99209-137054-11928
3123.18-87934-159417-74375-18630-85443-162197
3126.07-143080-133726-126545-102875-114453-94587
3128.96-104255-82749-73223-88150-132074-113341
3131.86-6918-52416-197855-118626 31789 82111
3134.75 22042 1476-42483 86813 49072-61729
3137.64-108211-115840-62521-58933-163566-150398
3140.53-141089-101711-132801-102630-133720-97129
3143.43-113827-46296 81173 39801 18649 25202
3146.32 49145 54970-19940-139778-187129-160488
3149.21-75375-50327-58394-41713-76371-43857
3152.11-60350-166102-134607-30108-45127-113145
3155.00-137301-98139-49119-67211-125290-109960
3157.89-111336-47073-27208-99157-248166-256406
3160.78-181598-96049-135315-219426-177377-113772
3163.68-27103-41354-118260-116957-52064 22709
3166.57 2181-28966-90641-233907-164862-125684
3169.46-129043-77232-102638-129066-106905-46958
3172.35 50784-89637-208969-140745-65410 6310
3175.25-65273-48465 65019 28910-56567-201634
3178.14-185775-105036-118200-136146-38451 6635
3181.03-59249-68499-112335-104318-64555-73085
3183.93-47882-104764-183729-197068-120588-33545
3186.82-37237-67011-28589-49140-69044-33040
3189.71-68906-81291 41291 87948-69474-60455
3192.60-7795-74606-90768-106476-39159-3751
3195.50-70301-135276-64332-53276-106628-44325
3198.39-82101-5749 7847-65482-133856-153127
3201.28-112300-121106-126715-140937-28745 38026
3204.17-26438-56197 6278-14306 51999-17417
3207.07-171062-176185-90122-143253-218467-144041
3209.96-142599-96807-8899-19382 105409 141862
3212.85-74340-160057-159147-78906-10414-79750
3215.75-119035-139317-114363-27105 70737-21555
3218.64-94424-147479-99847-115270-29523 28479
3221.53 10112-155727-174415 46590 4920-154679
3224.42-134399-59487-528-3237-134233-197277
3227.32-171812-119092-107608-90538 25445 71047
3230.21-34149-60618-47780-46943 7093 11107
3233.10 50788 39115-39587-152755-101360-35464
3235.99-14099-18517-22455 25954 123552 70626
3238.89-19362 64943 74419-68351-39584 111568
3241.78 18910-137038-26161 11996-22616-42691
3244.67-79381-62516-37226 60316 71468 82513
3247.56 69418 9672-39859-52519-75495 9622
3250.46 71553-41727-111279 13125 94414 92798
3253.35 84305 17491-16156 6877-47539-149695
3256.24-87734-124763-282907-344689-219289-97046
3259.14 38458 120953-17832-30295-47437-209972
3262.03-266126-190668-132669-71347-42993-64466
3264.92 18298 71091-60880-186495-227541-210565
3267.81-139251-40735 95764 82195-76028-19537
3270.71-45772-254377-304550-215259-115152-115125
3273.60 3211 161581 160271 17073-110548-37657
3276.49 108610 119183-9606-113959-135284-168465
3279.38-214105-28929-23507-145411-232474-242015
3282.28-286085-229110-183978-297522-305000-73025
3285.17-10508-71404-33463-4585-95389-123666
3288.06-172384-84248-13682-41882-174740-246818
3290.96-155721-46049-122101-257131-306279-293677
3293.85-172072-11732 38536 29206-11882-34
3296.74-15987-43869-81933-218255-330331-323451
3299.63-295023-248121-171765-132291-163961-78131
3302.53-31591-55509-152761-204516-234196-174538
3305.42-41800 29461 33095-31289-151769-215548
3308.31-215365-178460-157443-170345-64543-17874
3311.20-36833-81183-201581-212065-200879-218823
3314.10-208768-226237-225161-226440-113452-93667
3316.99-92846-109554-210610-258620-216097-176610
3319.88-177675-165778-122377-108626-65526-78760
3322.78-159069-153575-118960-126488-174514-176724
3325.67-267048-305860-141711-171615-117361-11321
3328.56-136888-301402-131707-5780-147403-191666
3331.45-123058-126270-263927-318174-230574-234342
3334.35-121977-23837-89599-166794-196754-275396
3337.24-199204-97796-99356-182783-146458-97763
3340.13-128853-79398-10948-11255-46131-239244
3343.02-305317-249694-172758-205558-316132-277258
3345.92-246414-234626-155738-111406-79585-40889
3348.81-163977-193747-193591-212224-158751-150795
3351.70-206767-291092-267216-216158-107309-162126
3354.60-136908-232527-247283-110265-128695-275730
3357.49-208317-85419-55264-153520-315830-251364
3360.38-257577-236712-81378-63078-83478-91563
3363.27-126614-196825-220466-184429-247622-318303
3366.17-219795-114509-278764-259375-42384 75228
3369.06-42045-166731-138921-164214-293335-283542
3371.95-117630-27123-169355-313591-283852-208148
3374.84-235458-176046-156099-186801-132260-84390
3377.74-93770-168651-170269-182622-154193-159470
3380.63-167706-195629-177901-229307-253007-193471
3383.52-191588-287001-279879-244569-217167-261948
3386.42-276632-110230-10964-92690-205581-173548
3389.31-144314-138004-175799-163188-110040-170244
3392.20-181873-213261-173489-260906-422580-467480
3395.09-305180-145603-235283-200367-174934-265086
3397.99-343661-132864-42815-253693-159580-19590
3400.88-129003-326304-262157-106955-170636-242790
3403.77-280078-106457-84680-100890-74302-189936
3406.66-275894-251412-319213-275644-190991-189891
3409.56-212796-323877-290819-227527-241435-283634
3412.45-224899-313496-324421-220445-160439-159089
3415.34-245369-289393-221943-269994-280948-227346
3418.24-302275-273383-254318-262337-273007-283410
3421.13-359114-328524-219900-170827-146350-232894
3424.02-352991-316430-282492-343578-395226-310555
3426.91-235043-368903-315976-261559-214585-167306
3429.81-279890-378599-369653-296899-377319-389662
3432.70-334317-323161-240462-321058-434485-421655
3435.59-278324-303554-396989-392042-308560-228517
3438.48-278216-337159-265501-344276-447764-320948
3441.38-218502-321780-409128-334319-210563-278107
3444.27-396735-315841-340589-442840-427714-309725
3447.16-356550-222338-92929-168293-227421-100500
3450.06-260274-555126-431551-249357-232390-255825
3452.95-416758-425344-328488-281052-122242-91525
3455.84-202663-335713-379089-300542-205829-164093
3458.73-225261-246521-241764-327853-432328-314896
3461.63-229349-278922-377960-398036-271667-199627
3464.52-272927-370245-449051-422220-352661-391211
3467.41-397984-374814-276229-317590-434001-411144
3470.30-363766-328494-369683-403900-314590-208646
3473.20-249877-339517-375877-427460-361035-376802
3476.09-432040-455089-329558-314498-330612-214747
3478.98-232408-394961-380690-249773-276099-372762
3481.88-436288-456777-358483-335505-443755-427626
3484.77-342721-356771-327586-255866-400434-448735
3487.66-318329-201789-243002-298260-411401-475878
3490.55-460367-338556-231976-141382-152507-182809
3493.45-325912-424876-441468-436468-383346-377966
3496.34-434149-463326-440662-346025-253757-296753
3499.23-281841-345813-420872-384699-158854-153405
3502.12-294080-371949-387078-471433-515920-404372
3505.02-390514-399534-353643-381087-400989-343695
3507.91-218900-191598-267893-414804-491993-374250
3510.80-331934-372173-392763-359338-325370-410211
3513.70-418034-318316-226593-187011-211159-286948
3516.59-384520-448233-395295-388877-453258-458170
3519.48-392242-240006-205210-264267-383963-362447
3522.37-297838-189754-164214-358977-482925-468715
3525.27-398716-352917-319020-367335-395752-354943
3528.16-332115-424850-448490-321698-333517-324995
3531.05-269096-303496-373468-440317-458222-381032
3533.94-282027-403197-412723-331183-318327-325345
3536.84-360456-342789-292373-324873-259308-187664
3539.73-233213-245965-279793-401588-427427-351931
3542.62-394732-362012-343255-347822-486388-507552
3545.52-403067-499755-553653-473669-343907-306274
3548.41-211054-258263-333948-366849-376406-378511
3551.30-516603-462538-358348-380616-381744-398395
3554.19-447469-276603-209080-314738-421859-361983
3557.09-339814-383367-447217-320586-324197-463410
3559.98-404133-226793-213807-418990-378823-249371
3562.87-432649-418149-314740-300735-388064-479010
3565.76-547414-567636-478317-701607-865998-587804
3568.66-347731-306976-235327-288144-279848-236989
3571.55-276549-323208-303485-279619-240427-266012
3574.44-339596-361710-385273-278090-297959-363348
3577.34-349817-238586-272713-303187-351991-477924
3580.23-473037-302477-216067-282198-361591-394609
3583.12-380811-300340-308814-354726-334633-474851
3586.01-880559-731072-507572-618592-934161-930738
3588.91-464261-285967-294499-339429-266067-342906
3591.80-387529-429237-413992-268614-234145-311348
3594.69-547610-592719-443712-315236-273532-427308
3597.58-551009-514026-527059-520446-405969-386496
3600.48-423639-429577-422581-429840-480936-529485
3603.37-376391-306673-334934-399028-410222-485317
3606.26-678253-746125-566993-441982-763056-1246847
3609.16-790266-438749-469570-480510-529989-719096
3612.05-942451-654682-406284-515983-671948-573541
3614.94-518016-404729-406606-509140-680100-711211
3617.83-572304-596589-1028656-1177543-623181-451952
3620.73-541221-547832-607510-594408-452606-401812
3623.62-413739-466088-501987-519430-576314-592530
3626.51-557390-558991-1129287-1639068-1292139-1704098
3629.40-1450279-634937-519659-507015-461134-326875
3632.30-403983-583535-711959-536504-386937-424271
3635.19-376396-276719-309399-346727-435011-576627
3638.08-589967-570126-516550-328949-291157-414981
3640.98-595874-617895-507735-419469-424765-314455
3643.87-345667-490404-507723-407951-576431-882083
3646.76-1133661-945439-690635-1100897-1969149-1413701
3649.65-844501-1124095-1165553-881867-536068-488534
3652.55-539041-441413-391189-411950-515324-701775
3655.44-1199462-1451742-852264-567046-503276-495793
3658.33-503085-461827-476501-508458-497712-537933
3661.22-517781-520995-424779-429454-470398-465390
3664.12-396828-448343-481329-531290-508394-452810
3667.01-490554-591402-1011841-1163482-714412-717929
3669.90-1650205-2126859-1012690-485947-451987-492490
3672.80-407261-589061-815120-1365667-1448686-1847788
3675.69-2000361-906592-540361-483660-421258-542696
3678.58-683686-758643-640556-570894-470775-439772
3681.47-499242-526097-516085-510840-479068-520102
3684.37-492424-450217-393962-467119-504160-596127
3687.26-975729-2270095-2060921-768049-507890-581882
3690.15-810443-1084387-974345-642014-516446-402161
3693.04-420292-468999-564327-547190-566938-525425
3695.94-501729-447853-396027-477241-549205-556836
3698.83-562136-573912-576446-541872-683554-993141
3701.72-743033-449563-455264-413097-431050-480228
3704.62-482132-432171-451913-444295-467889-464850
3707.51-483211-579985-904099-1037302-632390-562702
3710.40-719363-775794-1450766-1717632-818358-419714
3713.29-448567-572490-643344-527536-389147-418067
3716.19-353926-302311-404502-470387-468766-544165
3719.08-515954-430100-393383-406229-453171-768619
3721.97-758004-553263-568443-557832-567469-677898
3724.86-581347-553769-798259-858112-602219-556065
3727.76-485008-424020-447250-547615-484359-479913
3730.65-602127-1094765-1733390-1184236-593475-519856
3733.54-676839-1094730-1184825-1034285-854079-1385644
3736.44-1484858-649853-489718-678049-652545-592099
3739.33-559040-658532-849393-861831-750892-613726
3742.22-485019-600229-1239027-2701906-3586681-2213207
3745.11-857765-582338-606571-670282-659247-602355
3748.01-757360-1981475-2854401-1609887-815726-825770
3750.90-1031759-2145323-2718650-1279054-647963-658994
3753.79-621539-574561-618829-601261-795688-916442
3756.68-570007-412120-512157-570284-701219-840514
3759.58-838952-652690-589622-491935-395801-437656
3762.47-478348-515238-556540-559185-505324-682951
3765.36-825344-635139-552693-467212-490742-479411
3768.26-500744-670128-1174484-1047772-608568-542263
3771.15-508087-485542-476619-487124-503800-573264
3774.04-563835-526822-558539-596263-589057-530492
3776.93-502098-329126-263901-524388-908396-882007
3779.83-666298-431689-315471-375126-451127-528935
3782.72-511061-561497-604483-657970-648835-619421
3785.61-547987-472907-487514-527836-513550-517716
3788.50-514057-469053-411666-391039-373802-428180
3791.40-514955-510597-524312-549554-425812-393286
3794.29-545691-550956-563944-827750-910808-674978
3797.18-545421-538898-459332-419817-441179-564184
3800.08-800119-1950438-2588959-1331901-724846-720658
3802.97-644985-513736-538083-584170-556714-485556
3805.86-793973-1726498-1563711-735414-599777-558641
3808.75-493172-415835-427830-489951-687551-624584
3811.65-470503-396104-532617-566438-662993-498027
3814.54-493298-1313155-2637560-1864763-726793-646573
3817.43-551552-409030-367976-549320-706185-941019
3820.32-1157500-1195723-1456412-923841-562820-528950
3823.22-518958-533702-468815-410866-436818-573099
3826.11-715638-689902-481464-494916-555453-545762
3829.00-527833-527390-645081-764596-1041287-927099
3831.90-528911-543807-559505-592464-716634-1118590
3834.79-949212-610746-485687-544139-1117620-2550828
3837.68-2181477-851386-637315-640399-714581-682888
3840.57-821294-639156-586840-526477-626279-881787
3843.47-878232-660411-575427-506669-456024-371617
3846.36-430593-489104-398779-345468-368669-409622
3849.25-526103-383586-303324-520386-1610120-2329384
3852.14-1302330-847992-1959572-3598064-2833227-978670
3855.04-388045-415634-459952-530176-496676-345705
3857.93-349245-358744-405636-442875-430482-375657
3860.82-579785-785553-610058-416270-370481-317824
3863.72-419977-868876-1150136-544763-231540-118296
3866.61-136400-296128-434423-499161-825177-1075295
3869.50-1725182-1302075-506489-533738-516092-442497
3872.39-571026-686442-781335-927163-711856-518169
3875.29-503440-466039-470926-446220-439696-443769
3878.18-453594-509069-751206-1143445-1068979-788142
3881.07-673349-509150-545659-564883-477449-391581
3883.96-523066-855288-1532864-1618787-903560-556118
3886.86-467512-499070-577875-579957-574135-605460
3889.75-606799-792942-1180962-919216-562689-470742
3892.64-429458-410370-416271-448081-425849-529399
3895.54-551925-545433-665586-707116-515590-573853
3898.43-974489-1310744-970227-549425-587557-925762
3901.32-1285165-993878-675761-596132-996833-1485340
3904.21-1006912-668082-772971-759501-584004-561963
3907.11-584570-610635-557341-539669-549209-529875
3910.00-499614-572274-739963-737876-713010-641515
3912.89-646222-691111-617780-560129-568816-673860
3915.78-688961-674208-907103-766555-541070-621381
3918.68-669435-703446-753840-587784-513156-535545
3921.57-559624-577043-611449-702111-728006-705885
3924.46-671425-590964-579020-568208-573117-621856
3927.36-750604-765639-583585-628799-548181-535432
3930.25-577046-581143-620307-637711-705834-736226
3933.14-759316-577721-493664-512002-535759-577246
3936.03-694135-710982-667073-666705-648947-607070
3938.93-502491-559130-626227-607684-643663-603067
3941.82-564777-590159-607485-615108-551461-511133
3944.71-583994-516302-448034-578174-701791-555561
3947.60-606834-613329-580463-755491-900558-672623
3950.50-425908-431444-502059-559233-564268-519410
3953.39-492284-485570-569696-633575-617085-631348
3956.28-617056-572214-581198-552977-526635-566283
3959.18-615256-571074-516877-630671-702388-643025
3962.07-546303-507551-571961-664904-631795-564981
3964.96-523213-486498-479180-532135-498144-409576
3967.85-462850-494095-401950-324282-393778-507331
3970.75-547060-514517-482952-575099-601625-390959
3973.64-384714-465195
##END=
