##TITLE=Pentafluoroethane
##JCAMP-DX=4.24
##DATA TYPE=INFRARED SPECTRUM
##CLASS=IUPAC A
##ORIGIN=NIST, Analytical Chemistry Division, 301-975-3108
##OWNER=COPYRIGHT (C) 2000 by the U.S. Secretary of Commerce
##DATE=00/02/01
##$SPECTRA VERSION=1.10
##$UNCERTAINTY IN Y=2.0 % relative (B=1.0E-04,C=1.4E-09,D=3.5E-13)
##CAS NAME=Pentafluoroethane
##CAS REGISTRY NO=354-33-6
##MOLFORM=C2 H F5
##MP=-102.78 C
##BP=-48.55 C
##$NIST SOURCE=QUANT-IR
##SPECTROMETER/DATA SYSTEM=IFS66V (Bruker)
##INSTRUMENT PARAMETERS=KBr Beam Splitter; MCT Detector; Multipass cell
##STATE=gas
##SAMPLE DESCRIPTION=Pentafluoroethane Primary Gas Standard
##PRESSURE=101.3 Pa
##TEMPERATURE=23 C
##SAMPLING PROCEDURE=1 L/min Flow
##RESOLUTION=0.9640
##DATA PROCESSING=3-Term B-H Apodization
##XUNITS=cm-1
##YUNITS=(micromol/mol)-1m-1 (base 10)
##XFACTOR=1.0
##YFACTOR=3.6379E-12
##DELTAX=0.4820
##FIRSTX=575.17
##LASTX=3974.603
##FIRSTY=.000081
##MAXX=3974.12
##MINX=575.17
##MAXY=.002925
##MINY=-.0000116
##NPOINTS=7052
##XYDATA=(X++(Y..Y))
575.17 22285181 21307006 22054932 26971525 38086061 51816100
577.58 56092891 45150917 31496676 26311769 26293418 25602774
580.47 24221943 24189816 25178609 26425354 28051513 29421140
583.37 30688860 32265239 33294183 33524166 33208732 32333303
586.26 31303314 30263926 28512231 26496847 24700109 22813460
589.15 20837213 18611531 16251478 14474181 13089245 11575635
592.04 10163697 8722348 7444176 6527880 5752041 5241011
594.94 4777340 4052108 3261681 2783656 2518486 2072049
597.83 1543880 1248894 1176290 1060875 859327 950932
600.72 1277821 1420928 1146710 781706 649224 756637
603.62 925370 874597 844581 807651 509882 444357
606.51 648611 675701 484035 332962 371765 439216
609.40 490763 554941 618229 563941 477027 429120
612.29 212757 210722 474317 521645 291756 220534
615.19 343230 363138 447609 577257 596609 557608
618.08 532759 451440 274721 321689 461072 386681
620.97 318449 408461 536635 504432 311011 232031
623.86 316029 346552 268066 239162 304751 335091
626.76 341241 399027 571144 666599 413508 148365
629.65 134547 168439 138248 215491 378725 576681
632.54 844382 895775 669873 539539 465233 214984
635.44 117080 276208 550210 776513 656462 332015
638.33 295422 486860 522950 384878 259659 325760
641.22 477845 568549 670751 818312 913771 794021
644.11 612620 617126 588447 595119 660212 508885
647.01 427581 659807 979732 1028679 835684 719303
649.90 703650 812747 838967 614950 482496 623246
652.79 753768 665512 516509 493621 500391 490297
655.68 612780 788503 769819 648645 706778 745654
658.58 542358 535507 764556 756655 549370 489936
661.47 489029 537788 729505 858843 809797 717540
664.36 591432 441255 527112 644044 377580-401040
667.26-1137166-928429-100426 449575 587668 667005
670.15 657711 436819 302154 362214 395820 409975
673.04 433646 415706 410770 373626 425836 534172
675.93 500967 483354 499687 531528 486672 229064
678.83 81740 243803 418925 436358 394535 427193
681.72 471952 465962 405705 235628 100034 47514
684.61 2201 133277 286084 332299 358926 308120
687.50 159208 66818 186676 362490 360860 256563
690.40 272523 317021 292935 388162 514754 629936
693.29 679142 499390 379136 443861 594039 789654
696.18 948424 1057461 1137865 1229847 1275911 1382315
699.08 1575776 1828257 2130921 2410386 2777262 3268985
701.97 3837313 4462079 4899096 5366551 6196040 7260611
704.86 8361207 9460398 10706818 12124438 13541080 15006511
707.75 16679140 18505582 20420365 22393833 24340305 26261682
710.65 28117682 30042438 31918418 33545106 35083922 36738434
713.54 38295690 39515710 40591007 41649288 42702402 43986426
716.43 45982534 49154106 52842806 55050258 55986760 59192706
719.32 67971392 80921273 88338367 84095741 74617600 67246669
722.22 63232612 58659135 52051729 47273220 46551367 49355291
725.11 56512756 70960773 92127639 105897376 98470527 81813446
728.00 72330648 68433683 64014218 58507569 54220793 51531235
730.89 49714715 48432056 47543746 46949714 46468583 45769775
733.79 44790657 43656866 42449933 41124174 39659410 37928511
736.68 35783069 33466107 31192496 28856516 26459869 24069361
739.57 21774706 19616804 17578167 15732095 14012637 12240947
742.47 10577983 9210116 8001750 6936285 6152181 5469413
745.36 4767292 4115168 3546555 3029712 2562756 2220465
748.25 1988830 1827667 1721471 1551538 1374530 1270065
751.14 1125007 959076 831870 821821 868517 767423
754.04 601042 561928 641902 722928 752509 725053
756.93 652897 590615 546071 527580 603212 652161
759.82 621082 569282 505149 549754 673490 727318
762.71 680804 544270 429434 487577 608309 652994
765.61 703539 715435 705492 741258 756076 845860
768.50 885660 772307 761281 799517 806041 846900
771.39 844256 778939 741667 759103 807160 874176
774.29 946666 979308 957166 987804 1040029 971168
777.18 942278 1068782 1151231 1092033 1031787 1066579
780.07 1088632 1078916 1198203 1380401 1391212 1267776
782.96 1274231 1410523 1393371 1243859 1222858 1336149
785.86 1431448 1386434 1260888 1213109 1182370 1111225
788.75 1058889 1063311 1132392 1218287 1259091 1250152
791.64 1270776 1251955 1201567 1314823 1451873 1437316
794.53 1351053 1281728 1280007 1293827 1267532 1269403
797.43 1316483 1286802 1178464 1087328 978779 839940
800.32 806618 903710 1047694 1184580 1195206 1083317
803.21 1005238 962755 907255 991776 1060242 930753
806.11 868286 880588 860726 894388 943320 905962
809.00 832564 793478 806031 867936 899173 816658
811.89 743740 771733 784377 773479 813760 885927
814.78 904455 892700 831191 726809 748286 830182
817.68 801879 724516 690958 661289 634590 621840
820.57 608422 657701 776142 853288 832450 797454
823.46 797364 814795 875016 974010 1042915 1007216
826.35 926518 1034590 1278276 1350030 1272860 1310328
829.25 1478637 1577972 1464881 1274610 1114565 990609
832.14 1047104 1258139 1423507 1463790 1474108 1526755
835.03 1616565 1730385 1806133 1931532 2149286 2306049
837.93 2356092 2526662 2856848 3139586 3381408 3705566
840.82 4053049 4327397 4660540 5143826 5739164 6411487
843.71 7074497 7820577 8761442 9739735 10673333 11690400
846.60 12789478 14004558 15406475 16972928 18689262 20439018
849.50 22129156 23958652 26038128 28222811 30424367 32644274
852.39 35022523 37492180 39946777 42403040 44783784 47013418
855.28 48967442 50539541 51911576 53326963 54780138 56289019
858.17 57946653 59495322 60683086 61708384 63120311 65105712
861.07 67128615 69171504 71670470 74103570 76951154 81314016
863.96 86320562 90454277 93609334 97883074 105393018 114182463
866.85 120303082 121514472 115363825 97052612 72683289 59241986
869.75 57455986 58465160 59825479 61499076 62965312 63945904
872.64 64717407 65326094 65467167 65075505 64250355 62953512
875.53 61141499 58897576 56322113 53343190 50082474 46717491
878.42 43222797 39692715 36260831 32956385 29752079 26745692
881.32 23995441 21491859 19220908 17161856 15295226 13640267
884.21 12241333 11063743 10011159 9107779 8428570 7924057
887.10 7429556 6990435 6689127 6395897 6070706 5851279
889.99 5675552 5440714 5280350 5224543 5147303 5077425
892.89 5005008 4828086 4583732 4440935 4393006 4298959
895.78 4119868 4034223 4071557 3925416 3637638 3506466
898.67 3498159 3593995 3773682 3841926 3759825 3701451
901.57 3701852 3676239 3594065 3491226 3440696 3376405
904.46 3177330 3045144 2974725 2791662 2614682 2495092
907.35 2383904 2289358 2135350 1937247 1763612 1651229
910.24 1579289 1526578 1536906 1494473 1321610 1207934
913.14 1174991 1196084 1263881 1323450 1366425 1348273
916.03 1277451 1223475 1200507 1252581 1343236 1399964
918.92 1422474 1432194 1444671 1527996 1643122 1643544
921.81 1597910 1601315 1590693 1628462 1730129 1817190
924.71 1862458 1886888 1902495 1911951 1893700 1895826
927.60 1939489 1980622 1963926 1948407 1990373 2001135
930.49 2001523 2071890 2148972 2193649 2204987 2224883
933.39 2308795 2385395 2410681 2445901 2450606 2451202
936.28 2452331 2410022 2356263 2348477 2377096 2368958
939.17 2322718 2260991 2154800 2047803 1985816 1978649
942.06 2014902 2047441 1996407 1891616 1830682 1788418
944.96 1717238 1637643 1550314 1490227 1465917 1385166
947.85 1264093 1181614 1108146 1034542 1026409 1076494
950.74 1064449 992711 947350 979228 998613 911345
953.63 824714 845894 859279 764445 594203 477506
956.53 474717 471032 441736 490641 588382 611323
959.42 505519 356391 287230 314640 359148 383953
962.31 402768 380661 345094 377950 412522 424661
965.21 442338 395000 338226 375343 395736 346278
968.10 307378 343714 413014 453837 472476 497167
970.99 539057 572806 552595 534012 541599 563665
973.88 560593 535582 541372 541227 505448 446399
976.78 444697 562728 665401 647069 573377 603220
979.67 719320 787576 758356 726987 719372 709778
982.56 678492 629276 602898 585674 561505 584159
985.45 638901 672035 682692 714560 745813 714327
988.35 664811 615976 548187 540953 590054 607104
991.24 555443 484909 422946 419310 461790 490524
994.13 473865 454918 492327 531866 511074 467494
997.03 417685 332676 247442 306928 462096 531552
999.92 521229 503992 472198 487311 532075 478706
1002.81 371436 387765 454414 428638 400258 436579
1005.70 464856 461450 465218 485769 507211 516098
1008.60 457264 402784 414618 442058 409065 355475
1011.49 359076 383844 378142 366678 336260 327208
1014.38 380904 421287 390013 414355 440336 355262
1017.27 270950 297349 371923 421130 426993 358809
1020.17 252211 238231 260814 244559 234789 225971
1023.06 240935 291219 293830 281221 250932 218870
1025.95 222011 270368 299692 269687 258173 274474
1028.85 287295 320427 271327 163494 164914 230337
1031.74 218791 195986 198397 217997 248653 225367
1034.63 224089 286371 222021 79370 74825 166360
1037.52 197285 190369 220031 306144 344145 309625
1040.42 302861 334556 358071 356471 357197 403819
1043.31 448845 454875 437181 426982 450740 496846
1046.20 505105 504958 475010 387760 373308 477464
1049.09 555920 557639 594464 694382 724650 714289
1051.99 713499 738257 803710 957628 1081749 1097746
1054.88 1150530 1249846 1319067 1354361 1384413 1453705
1057.77 1548140 1685101 1845471 1942099 1957580 2019150
1060.67 2163704 2378711 2603283 2748515 2836230 2943154
1063.56 3114871 3332724 3483244 3580044 3718670 3898760
1066.45 4062543 4217344 4356577 4462665 4574678 4760217
1069.34 4927979 4982078 5129403 5434094 5599034 5667674
1072.24 5815798 5999993 6182913 6331294 6409520 6571312
1075.13 6820093 6940229 6940490 6977160 6999573 6923851
1078.02 6831906 6822105 6922003 7162624 7414950 7556601
1080.91 7603779 7601535 7600063 7573800 7489523 7459475
1083.81 7493427 7567463 7632189 7685377 7800425 7972900
1086.70 8130291 8306768 8453243 8581269 8796982 9066806
1089.59 9266624 9519601 9888315 10277979 10691945 11170927
1092.49 11661489 12148613 12679602 13280278 13869465 14469566
1095.38 15178986 15946595 16649856 17399977 18267554 19263192
1098.27 20429996 21828080 23416754 24950955 25908584 26262813
1101.16 26731522 27555412 28293402 28755287 29245682 30175382
1104.06 31400660 32545169 33373894 33938218 34655812 35753884
1106.95 37534390 39487373 40610129 42065580 44884487 48287609
1109.84 49024090 46944214 46046684 45110975 43733185 44215096
1112.73 44759801 44599232 44724670 45236100 46002387 46712286
1115.63 46986021 46959896 47001386 47043784 47354655 48029566
1118.52 48723419 49613005 50942929 52112516 52416248 51867026
1121.41 51080554 50868433 51277242 52141228 53589898 55700515
1124.31 58319163 61285716 64626805 68465458 72799018 77709992
1127.20 83318036 89730082 96985326 105135726 114239584 124414482
1130.09 135747754 148136074 161400482 175636647 190847674 206918115
1132.98 223688770 240966428 258769701 277473802 297520982 319214542
1135.88 341694030 363958749 385383284 405458315 424734610 444022863
1138.77 462380827 478095893 491697339 505080111 520409240 540423559
1141.66 554409683 541082164 495773424 447034176 428924547 449700728
1144.55 501053435 563565695 605363560 598919074 559502502 531934880
1147.45 531225394 538719591 539136364 526296542 497362670 456110856
1150.34 411652179 369902141 331654408 296505470 264996929 237705605
1153.23 213905177 193072621 175630916 162128954 151889081 141462338
1156.13 127919887 112715957 99154934 88322798 79612299 72131911
1159.02 65248202 58773773 52890025 47769685 43475833 39974194
1161.91 37176653 34731370 32295014 29873767 27766984 26146649
1164.80 24847737 23616794 22419442 21331828 20403643 19664957
1167.70 19187685 18889518 18745122 18753640 18884724 19084643
1170.59 19249628 19359823 19358183 19110242 18932069 19205698
1173.48 19791641 20491359 21317338 22260643 23349297 24611382
1176.37 26107263 27720800 29352781 31168381 33214356 35357975
1179.27 37636337 40210776 42988320 46055327 49828067 53950829
1182.16 57594695 61138202 65578739 70778293 75983877 81192613
1185.05 87066403 93600804 100304297 107094146 114125125 121374883
1187.95 128824912 136424185 144137952 152138404 160213174 167136196
1190.84 173198293 179735619 186929933 194788678 203663095 213850976
1193.73 225804918 240805766 260655244 286534963 319433101 358355642
1196.62 400025406 444818615 494851178 545765611 582527249 581461902
1199.52 530014480 450075685 398087719 401583774 427380005 446938090
1202.41 462437768 481261815 507303882 544185414 590312116 637583369
1205.30 680032014 717326795 749503564 774966521 792366095 801720214
1208.19 804036787 800829512 793839327 784191289 772521576 759885429
1211.09 747082442 735006215 724044219 713972749 705267324 698436416
1213.98 693257388 689685387 687486622 686435479 686777546 688736052
1216.87 692754111 699637581 707956373 716023609 723787860 729156872
1219.77 727220878 713760769 688088477 656567747 630708602 614266375
1222.66 604975730 609784630 623972145 622214589 594669255 553780493
1225.55 512564682 477152175 449781914 429893919 415509739 404535839
1228.44 394995308 385330759 374714998 362953942 349876929 335333310
1231.34 319253750 301791680 283418319 264672143 245919222 227416478
1234.23 209348241 191785381 174860027 158851435 143812934 129755444
1237.12 116827830 105112707 94491455 84888045 76259825 68536869
1240.01 61694565 55616270 50258054 45743270 41950181 38686438
1242.91 35621881 32501847 29667604 27527402 25946698 24507595
1245.80 22923912 21476565 20457254 19661190 18877261 18387002
1248.69 18448064 18718352 18371554 17276443 16443428 16332670
1251.59 16288566 15860527 15357427 15212369 15261822 15240159
1254.48 15109494 15051900 15093391 15179432 15256352 15324033
1257.37 15443868 15630606 15785742 15897505 16032731 16263392
1260.26 16488320 16626640 16724908 16902414 17100263 17336591
1263.16 17611269 17861964 18039230 18121878 18157192 18310638
1266.05 18525181 18637974 18647733 18698435 18802077 18968186
1268.94 19081450 19105196 19121561 19205469 19328158 19537622
1271.83 19751264 19836984 19829723 19976322 20181775 20247233
1274.73 20281976 20565803 21011331 21505920 22115427 22828433
1277.62 23477277 24238332 25210129 25566730 24687639 23987357
1280.51 24466540 25520568 26665208 27980109 29520802 31374532
1283.41 33431001 35598757 38002087 40695897 43473984 46615516
1286.30 50300891 54256503 58436558 63266347 68832308 75127326
1289.19 81796526 88796559 96446563 104569131 112900993 121785181
1292.08 131199692 140577630 149863044 159544723 168998681 177920422
1294.98 186512931 194531461 201773896 208721101 215085672 219730285
1297.87 222567118 225085245 226589514 225622957 223834639 223180994
1300.76 222953997 222563720 222024392 221225204 221160590 224219017
1303.65 230775929 240135255 251890797 268700301 292776913 324031152
1306.55 364466657 410073189 447953284 490524530 545829065 526427265
1309.44 371282379 215111429 159139442 151968145 151054069 149675109
1312.33 148154219 147286260 147220934 147761702 148698727 149505879
1315.23 149945443 149608223 148466143 146449482 143658201 139959390
1318.12 135465098 130287191 124569453 118242436 111584953 104624832
1321.01 97514349 90351085 83303290 76335532 69538831 62948290
1323.90 56702228 50826116 45380488 40261189 35545249 31246179
1326.80 27433582 23950928 20799277 18001053 15593099 13467791
1329.69 11619985 10033634 8735717 7622635 6735279 5990169
1332.58 5329536 4743271 4332090 4022062 3809452 3634705
1335.47 3501649 3432441 3471367 3530240 3622901 3736262
1338.37 3915908 4144270 4382214 4613504 4967344 5361826
1341.26 5749946 6086387 6438745 6782178 7117205 7474107
1344.15 7824323 8085155 8287310 8433615 8562971 8623765
1347.05 8637913 8596707 8524037 8456526 8503917 8655237
1349.94 8838285 9026196 9347479 9700313 9960401 10151536
1352.83 10391669 10526802 10333459 10097611 10500976 11732738
1355.72 13398170 14759458 15177144 14655411 13723409 12722010
1358.62 11792143 10965502 10339163 9816235 9374514 9239972
1361.51 9260267 9029075 8753077 8706830 8743190 8634440
1364.40 8443510 8255545 8066369 7825924 7583605 7352164
1367.29 7077422 6735931 6444343 6221562 6000959 5766504
1370.19 5650007 5630897 5585333 5409434 5194000 4977910
1373.08 4750248 4620768 4558108 4433884 4376215 4397565
1375.97 4425569 4411537 4428499 4487743 4561119 4589261
1378.87 4582644 4592141 4613336 4610357 4651446 4722313
1381.76 4794699 4861658 4933488 4999956 5075853 5127157
1384.65 5199191 5283868 5372660 5438474 5394757 5531295
1387.54 6076237 6477913 6439886 6274470 6395140 6693845
1390.44 7004073 7466528 7885232 7634048 7001861 6656952
1393.33 6278921 5643483 5344443 5233584 5009989 4874617
1396.22 4741342 4545652 4372242 4234355 4073258 3885573
1399.11 3912489 4018484 4009550 3969980 3945081 3861881
1402.01 3712644 3552895 3438620 3330105 3194161 3054014
1404.90 2993962 2938258 2838989 2715930 2594148 2452840
1407.79 2294206 2190483 2140040 2058978 1947895 1837311
1410.69 1806988 1810286 1804459 1786655 1768885 1795029
1413.58 1827083 1828237 1832071 1816102 1782913 1783720
1416.47 1798553 1794809 1852127 1784508 1347683 1043463
1419.36 1559352 2231762 2467040 2565751 2685900 2765756
1422.26 2804467 2778131 2749293 2866776 3081463 3234640
1425.15 3339233 3425472 3528250 3619231 3692423 3805813
1428.04 3928795 3979948 3906189 3873975 4066204 4238264
1430.93 4322897 4417649 4451212 4423870 4494407 4664539
1433.83 4848196 5079607 5431079 5522954 4937333 4361822
1436.72 4712496 5346741 5611921 5749601 5934386 6133646
1439.61 6335037 6520718 6681177 6806317 6934966 7088809
1442.51 7242552 7378274 7472698 7457102 7385278 7225690
1445.40 6982792 6802571 6648427 6409716 6222106 6220592
1448.29 6206044 6102823 6164827 6339449 6245151 6012920
1451.18 6103609 6236096 5882429 5235873 4799202 4630443
1454.08 4552982 4455353 4386313 3972884 3009559 2703282
1456.97 3392106 3688514 3554900 3516539 3458459 3355321
1459.86 3214377 2999692 2739340 2509031 2322757 2112562
1462.75 1919007 1744920 1410803 947012 903581 1181230
1465.65 1239903 1157461 1123933 1103003 1072104 1007617
1468.54 902480 807386 780514 777518 666211 270722
1471.43-155554-88417-15849-315941-184100 269164
1474.33 420494 333664 132595 24658 199417 402099
1477.22 459376 454449 448402 436732 416370 359440
1480.11 288931 243667 269751 347115 373749 314036
1483.00 285542 328804 357198 362279 356955 270053
1485.90 143501-15324-99488 57816 208352 146684
1488.79-41067-184482-202129-186909-42721 155230
1491.68 248820 305118 328026 296408 280229 313251
1494.57 255238-182457-799959-664875 33545 325630
1497.47 206186-85651-151618 157405 393818 450664
1500.36 464170 420461 444730 543490 556000 518664
1503.25 503070 456257 171538-586565-1017883-763497
1506.15-993489-1169103-419320 149393 251152 349011
1509.04 341707 336050 480314 591000 522432 261685
1511.93 158192 363873 551755 594535 533627 437128
1514.82 439072 449811 286142 27481-118905 23069
1517.72 319860 465049 451324 242148-48031-457305
1520.61-1010747-792824-171978-101767 36883 360251
1523.50 462452 334819 2191-252136-13368 286388
1526.39 259412 234266 350048 350171 335934 420224
1529.29 477402 492232 477595 362872 265462 262518
1532.18 145857-137637-360294-209392 222023 410687
1535.07 386739 384903 434185 462283 385527 117721
1537.97-659294-1549467-1397235-1042464-917190-335756
1540.86-160527-672860-666660-24815 375294 547100
1543.75 580582 262253 11477 262692 592058 714879
1546.64 753676 758879 765439 785815 750785 605142
1549.54 525866 642829 804572 877184 935814 1019337
1552.43 1114024 1072737 615131 222591 574488 1038142
1555.32 1116554 1071140 844273 264410-342799-961309
1558.21-989577-402100-626780-1055783-349143 601268
1561.11 905900 975236 1060234 1125950 1135630 1053162
1564.00 876038 794733 928821 1066109 1096576 1083438
1566.89 1042760 1003441 956551 802437 451702 269962
1569.78 604598 961693 1062360 1088529 1053299 994877
1572.68 1030950 1092828 1070654 1015894 818338-1497
1575.57-942750-522861 543541 944975 986213 1011743
1578.46 1037295 1062028 1112342 1160660 1157000 1109666
1581.36 1065581 1031099 1010591 1011925 991437 931852
1584.25 910252 962057 1052892 1082699 1012990 913362
1587.14 863517 831333 777090 720985 682077 678231
1590.03 677303 650755 636177 631932 651355 661008
1592.93 632594 597043 555472 520014 513249 485424
1595.82 443327 416834 408443 411465 405993 394111
1598.71 406102 405279 365375 341483 337082 354193
1601.60 369355 349994 334507 316019 271700 235744
1604.50 240522 257280 259886 211212 158860 205273
1607.39 269693 273807 235616 195444 212908 250402
1610.28 288882 341982 351385 308800 259607 239254
1613.18 237743 227154 245017 263133 91200-649265
1616.07-1564618-1260861-239226 185614 239720 258731
1618.96 268692 274872 273048 286618 303083 282942
1621.85 232304 76631-217699-246668 93456 320361
1624.75 369175 402962 417788 377502 279741 147329
1627.64 194882 387597 515334 576971 604177 586359
1630.53 565306 584631 619814 629155 622206 605901
1633.42 565328 310265-282997-879584-699709 127987
1636.32 536976 432695 405164 518636 559970 580114
1639.21 609636 607364 589834 573328 584985 631672
1642.10 673315 683928 690375 688482 638162 434385
1645.00-213506-737263-346912 110147 130403 144406
1647.89 243836 416118 546364 588109 559370 462107
1650.78 280132-450067-1697427-2454806-2403413-1489922
1653.67-624759-308025 82075 356503 421289 419915
1656.57 415758 430133 445120 439042 437277 439530
1659.46 454771 463964 419215 374778 295402-2916
1662.35-197758 38950 330506 416365 427819 433436
1665.24 466730 494180 474677 443763 402935 290199
1668.14 7884-417928-366995 149271 367718 244377
1671.03 182780 301309 423346 482385 498534 457709
1673.92 224231-360616-636546-158962 341789 483575
1676.82 486309 471439 465991 481009 478829 399986
1679.71 330077 342199 409660 468245 426776 131606
1682.60-268163-434106-842430-1871806-1960608-698842
1685.49 144109 325778 391100 398739 324813 258218
1688.39 288889 290206 190855 175159 283160 381805
1691.28 424337 403995 358039 333725 310981 266916
1694.17 90741-659005-1881493-1868102-557306 193476
1697.06 275543 311669 309166 11952-817876-1606863
1699.96-1592049-909042-106583 337745 517694 626379
1702.85 630763 455941 241203 318713 547280 532399
1705.74 415866 555031 803471 927791 1039869 1134133
1708.64 1137400 1111794 1111917 1142004 1225653 1347877
1711.53 1438006 1437294 1417531 1387712 1330459 1236365
1714.42 1067056 1126511 1417322 1438685 788178 65214
1717.31 481529 1156522 1364891 1660799 1906315 1962581
1720.21 1964667 1932509 1876294 1824601 1803872 1827741
1723.10 1882208 1934168 1943135 1912428 1854047 1770490
1725.99 1699159 1651611 1635089 1584061 1500344 1414689
1728.88 1276668 1123910 1132232 1270560 1319932 1255017
1731.78 1107224 617404-85151-265201-402675-520580
1734.67 94606 670244 791150 760341 686797 616633
1737.56 612522 607552 393946-59473-205253 114288
1740.46 380777 478336 475675 375979 279452 261184
1743.35 314937 352953 356234 335822 297099 248417
1746.24 181749 150734 166765 71274-79181-69059
1749.13 46471 61247-198171-631117-583788-75699
1752.03 187168 199336 218168 250149 266964 267665
1754.92 238828 116007-117410-210975-5433 179813
1757.81 208804 203534 218934 265695 295867 234446
1760.70 2619-293352-226147 79919 248362 334716
1763.60 379791 355979 328734 330777 372250 406645
1766.49 393529 221082-76322-31180 301690 473133
1769.38 503595 430277 214959 62868 25634-375932
1772.28-656296-138977 414065 544527 512593 454392
1775.17 444685 534683 629175 654021 663853 684468
1778.06 676250 638591 628261 565442 458686 481608
1780.95 580337 622762 654287 677071 675223 658759
1783.85 560454 406346 447442 602510 651750 636940
1786.74 664724 717677 723538 685813 666393 699486
1789.63 719279 623730 595567 669304 424296 17087
1792.52 160684 622296 837838 872084 862229 816183
1795.42 756869 746331 761874 770807 780181 787930
1798.31 764250 654525 628605 757753 783863 707484
1801.20 693523 657339 655368 784749 845094 768035
1804.10 701790 704364 730779 749824 746910 695640
1806.99 608256 576260 622205 657117 631040 550393
1809.88 442167 409308 476337 495260 459710 450813
1812.77 431437 393668 393160 395057 374743 366750
1815.67 371237 350940 297475 246540 271988 357112
1818.56 385549 332719 277383 259733 260365 265348
1821.45 246595 209811 215119 222985 185181 88826
1824.34-93111-165765 9944 192133 265717 259652
1827.24 235746 207182 109595-5149-129598-205093
1830.13-48323 146350 202223 200861 209837 239920
1833.02 243326 202345 179447 171760 177212 221083
1835.92 222860 172075 155327 134637 85557 72734
1838.81 114602 143871 136139 143769 156607 142054
1841.70 138339 136390 56833-273430-668858-520386
1844.59-87138 87137 131491 152429 115100 89113
1847.49 123739 165802 174422 152648 135104 140589
1850.38 149143 141643 155415 192998 228889 260459
1853.27 271267 241498 222561 251074 302131 339469
1856.16 330644 292667 270220 285201 337936 368853
1859.06 358795 336328 330008 347017 366123 391522
1861.95 431836 457837 452574 441325 453273 480982
1864.84 496455 472582 432163 418333 385177 328958
1867.74 323726 226132 18105 47065 248186 319183
1870.63 324079 350713 365623 406192 468457 454014
1873.52 400345 391579 402602 363619 318002 318993
1876.41 308051 268769 235494 198970 178986 166371
1879.31 152188 150978 143184 123024 117353 106487
1882.20 94903 84479 68202 70784 87883 99678
1885.09 112159 85993 41704 51334 85170 80931
1887.98 41772-25131-90910-54488 17548 37803
1890.88 46077 37034 52339 79592 68093 58756
1893.77 52850-10798-44445-945 3145-2638
1896.66 47141 65880 53120 83658 122527 127747
1899.56 127329 87712 24780-5133 20149 66719
1902.45 88457 89462 81905 88670 86794 64399
1905.34 86883 142255 179034 171398 159073 178439
1908.23 209741 199503 151194 138664 180783 244430
1911.13 304777 330315 341754 370529 387383 387304
1914.02 416724 468719 506425 532044 557157 568051
1916.91 492707 393677 513426 692793 693223 664984
1919.80 727107 828817 913087 956087 997631 1039281
1922.70 1077010 1159217 1279610 1371899 1373812 1336608
1925.59 1349821 1391671 1424455 1461146 1504353 1524369
1928.48 1540342 1574096 1616153 1657743 1706518 1750295
1931.38 1786709 1820559 1850265 1849150 1800008 1775203
1934.27 1784248 1745911 1698389 1715243 1739135 1722528
1937.16 1707974 1669472 1615764 1596985 1576071 1530426
1940.05 1476528 1478113 1523595 1481634 1387413 1346664
1942.95 1303071 1225451 1184861 1173750 1142585 1119862
1945.84 1090156 1035063 1009284 1002158 1002585 998688
1948.73 952167 872214 798416 754299 742945 709220
1951.62 621762 536170 507737 530279 540721 507603
1954.52 484757 456865 406987 384705 372997 330358
1957.41 286891 279378 280108 248838 187090 149575
1960.30 154744 155546 166572 177177 133646 82261
1963.20 84302 105538 118031 95999 43730 66
1966.09-36361-69734-59796-5303 63806 98592
1968.98 96505 87637 71358 52169 54772 74397
1971.87 74515 41912 18505 19566 21189 5629
1974.77-19891-18040 17280 44162 31632 9858
1977.66 9651 36753 50594 15025 8772 37673
1980.55 48471 67109 64812 9127-44803-43948
1983.44 7007 38412 30014 2753-23631-29139
1986.34-20882-7602 5287 18935 40196 32535
1989.23 11437 15195 50022 62561-3617-63060
1992.12-39933 23239 66394 58052 47039 58932
1995.02 59556 70114 113440 131854 116021 108448
1997.91 98183 56726 14372 28967 87153 107208
2000.80 100132 120704 135513 122957 107299 95253
2003.69 81513 102632 166151 203852 194178 159202
2006.59 131821 112762 94056 84217 99059 140927
2009.48 165498 160229 147768 145865 128328 90534
2012.37 97238 113104 88261 69926 83806 95493
2015.26 95936 100445 95733 82177 101048 124336
2018.16 135401 132491 120075 120706 119957 80192
2021.05 75124 136363 168922 133176 91992 76094
2023.94 86302 111847 132399 134625 122012 118868
2026.84 128216 126721 83426 62802 114820 145327
2029.73 121826 89716 90371 134866 174261 168732
2032.62 144926 119595 102891 120721 142038 135610
2035.51 129066 129250 132009 139925 163378 194741
2038.41 214916 199852 176539 188959 217901 226129
2041.30 225670 253273 279128 266355 271294 306992
2044.19 322799 316897 327821 363633 383826 376984
2047.08 376319 401910 452052 475388 483067 517259
2049.98 527213 520972 554719 611781 664163 679524
2052.87 688371 709067 726485 723798 734129 769375
2055.76 801787 862774 949228 990465 960263 961025
2058.66 1021736 1067445 1110483 1166550 1223943 1280592
2061.55 1298322 1305079 1348734 1389639 1375474 1276370
2064.44 1180121 1155417 1122907 1041738 950835 890292
2067.33 879761 905026 931839 941639 937258 948446
2070.23 983690 999478 997412 1001321 1001001 987959
2073.12 960380 915000 892830 884480 853313 800237
2076.01 727986 691853 704150 700701 674760 622851
2078.90 571956 542342 511716 465630 438471 440694
2081.80 416895 401596 440614 484965 473354 424130
2084.69 388554 379709 390254 398344 388061 364731
2087.58 341554 311395 298768 290725 294024 316058
2090.48 280577 235362 238688 220006 194458 196270
2093.37 194155 199374 227848 224372 194556 178161
2096.26 193240 189210 139593 108947 163296 229670
2099.15 215436 172890 119596 73111 62274 65111
2102.05 104214 184599 177209 86269 39981 17553
2104.94-1886 236 24854 92153 146297 93386
2107.83 41464 57865 45668 3694 4275 77499
2110.72 177734 188130 99116 34589 16462-9036
2113.62-40911-39534 58263 184197 174654 95369
2116.51 61557 46809 29849 47115 102588 164835
2119.40 166475 85141 8554-14996 9846 38154
2122.30 70845 128934 146140 73627 16841 29295
2125.19 61269 49259 29034 86337 171164 149824
2128.08 60342 11220 28342 57098 58360 100919
2130.97 155478 131234 69768 39917 33072 37830
2133.87 86850 148294 166588 127476 93602 109521
2136.76 103700 102521 159935 209032 225827 218664
2139.65 205601 210051 193923 153991 173438 193210
2142.54 170840 188603 240648 273758 280890 291153
2145.44 339566 397584 439850 457419 450626 462218
2148.33 513229 558293 579750 590749 619340 653152
2151.22 671244 711454 751179 723265 707686 796079
2154.12 906834 942811 947982 950735 924680 888564
2157.01 921992 1039581 1124799 1122003 1107680 1116960
2159.90 1148160 1143678 1147953 1226352 1225099 1157643
2162.79 1157998 1175050 1187494 1222952 1342612 1465362
2165.69 1458321 1422498 1431447 1417025 1413396 1506380
2168.58 1642098 1622103 1472708 1375518 1328545 1191472
2171.47 964485 848970 828204 776781 727697 676686
2174.36 622099 622941 717533 790612 723838 648423
2177.26 637476 622338 631890 729091 793628 680307
2180.15 540804 459974 373640 325740 384229 449454
2183.04 362783 259775 252996 227722 192420 237479
2185.94 323445 310223 220099 140489 91930 79073
2188.83 111422 156970 134465 75903 51509 44388
2191.72 47858 86012 130868 91133 15275-22774
2194.61-36490-21586 20111 52435 40682 11553
2197.51-13672-13429 3348 35624 96371 99859
2200.40 39784 24672 88621 143690 156754 115494
2203.29 32324-21703-27382-29581-35653 16955
2206.18 61568 37835 15875 46901 113489 111769
2209.08 42655 9244 26875 48116 48257 47009
2211.97 63506 63971 28999 19919 75536 119053
2214.86 104246 95903 98205 89831 98824 92919
2217.76 60835 48625 48856 60998 99891 129433
2220.65 139825 128266 117497 147445 171747 139255
2223.54 89336 77327 115278 145917 146887 136343
2226.43 128399 156280 209394 228850 205480 176419
2229.33 172062 177550 189404 202566 204526 194246
2232.22 203642 234502 232877 215245 235865 281469
2235.11 311168 305513 311107 352979 397483 418548
2238.00 424249 442735 446715 432163 456095 507683
2240.90 540538 544229 543771 591954 661887 711931
2243.79 763489 800521 820321 832239 830209 867125
2246.68 942540 988197 994826 989049 1009197 1054553
2249.58 1115322 1170084 1201977 1216902 1245153 1304440
2252.47 1347281 1350627 1360034 1381101 1394388 1412748
2255.36 1461324 1514710 1529331 1515971 1537751 1586017
2258.25 1622081 1655342 1657732 1623617 1609401 1620335
2261.15 1681832 1757473 1745213 1716981 1742051 1772347
2264.04 1808409 1848883 1858055 1864594 1873494 1881552
2266.93 1957264 2064966 2128031 2165797 2189573 2221056
2269.82 2255011 2294330 2391115 2491361 2585354 2689270
2272.72 2818978 3014526 3215789 3325417 3395702 3490070
2275.61 3538694 3533933 3521489 3491675 3487422 3537005
2278.50 3612554 3715976 3816716 3796033 3692231 3659294
2281.40 3680443 3712238 3780809 3815375 3726650 3542062
2284.29 3345451 3147286 2961562 2817795 2668877 2488902
2287.18 2276017 2063426 1952144 1913923 1812125 1646648
2290.07 1493113 1368647 1280577 1221808 1161199 1101404
2292.97 1046522 995370 949642 907135 886763 883701
2295.86 869431 805428 719783 666967 617754 574895
2298.75 559917 517022 464710 480292 578669 638104
2301.64 585463 504523 501889 505719 424712 353047
2304.54 382528 440585 439624 378634 353233 407877
2307.43 420795 363769 291271 261789 280535 245597
2310.32 157892 165632 277811 280433 137611 58482
2313.22 166849 254548 123879-44612 32699 161925
2316.11 56653-137869-50011 160764 95905-143222
2319.00-92282 117186-17481-352673-293187 14050
2321.89-54953-418394-395976-63457-161072-546119
2324.79-412410-26431-211994-629585-477012-146199
2327.68-430825-829041-528530-152849-522553-867254
2330.57-457338-238765-787344-969568-370406-275815
2333.46-867593-805980-257378-493834-937721-526124
2336.36-209904-722583-865731-319885-390930-916414
2339.25-669428-274864-651647-843657-419986-417082
2342.14-731962-464400-181423-486031-572299-231692
2345.04-205530-307439-94383 32000-65621-20867
2347.93 124300 148731 63386 8379 16173-91423
2350.82-256888-183753-173056-445723-433560-327755
2353.71-599052-564945-375965-713554-729479-484322
2356.61-798593-804302-597814-951987-902519-734649
2359.50-1078108-908820-790566-1068692-805650-835686
2362.39-1064109-812275-942443-937848-704150-854696
2365.28-699673-698253-861657-674156-716157-641008
2368.18-577383-665641-536285-545138-463926-411099
2371.07-449399-339361-281061-218879-231562-220894
2373.96-151760-86684-40785-56459-40866 7417
2376.86 60886 62775 45965 30627 35560 56687
2379.75 55245 44948 90467 159609 164562 143189
2382.64 195693 292355 362265 381936 365719 364371
2385.53 392506 413123 422581 443038 466892 520644
2388.43 594661 612754 578527 576379 623668 699293
2391.32 811291 871955 857402 855634 892017 920716
2394.21 914675 911143 953686 1045307 1121595 1176608
2397.10 1284864 1434744 1573824 1684711 1757775 1786742
2400.00 1859187 1972357 2010314 2004449 1996213 1946565
2402.89 1902230 1881782 1849601 1824377 1822028 1811991
2405.78 1780424 1811036 1904331 1948540 1960380 1961862
2408.67 1943819 1934943 1936411 1937086 1926432 1908630
2411.57 1891377 1881764 1884660 1878861 1840050 1775127
2414.46 1719525 1664506 1631731 1641738 1639716 1535762
2417.35 1340353 1174255 1039894 929755 899405 908125
2420.25 892633 864828 815817 766106 771706 767411
2423.14 684147 574581 496478 432251 384654 352385
2426.03 318415 267455 211231 201117 236035 243414
2428.92 231995 255203 286730 285623 279514 284396
2431.82 298259 330233 360998 359296 330510 312184
2434.71 325838 369991 407413 423257 420047 404103
2437.60 395317 397506 406242 373533 324783 317955
2440.49 342047 371357 378972 355863 354887 393320
2443.39 406655 408321 428569 428820 400417 371860
2446.28 344671 305637 277868 291821 296470 280098
2449.17 253914 226885 239028 235791 177702 145998
2452.07 164789 212292 242731 194543 131401 121822
2454.96 123462 106512 92933 67448 6062-47321
2457.85-50235-57349-87306-91710-99510-162728
2460.74-218284-196844-161729-155044-163933-187853
2463.64-202499-202364-184780-194785-234726-227553
2466.53-194536-191416-178897-155451-156908-191063
2469.42-217044-207737-224834-239899-217366-187210
2472.31-166171-164802-141779-111694-122843-151257
2475.21-145855-135076-117700-64665-43706-76527
2478.10-82304-57937-48816-7363 42747 47307
2480.99 55958 110000 173304 194160 180174 217809
2483.89 295793 315445 325108 366851 363655 328308
2486.78 341049 413564 473487 477969 491032 534010
2489.67 581494 606590 632753 725800 849798 917806
2492.56 954876 1010941 1058907 1090973 1138742 1181905
2495.46 1192920 1178904 1204818 1249797 1243084 1238828
2498.35 1277496 1321367 1372950 1452202 1516782 1559349
2501.24 1613897 1623936 1616202 1636101 1640217 1653179
2504.13 1648745 1546950 1359600 1199953 1145176 1149909
2507.03 1132552 1088056 1060515 1059274 1087288 1133356
2509.92 1156394 1133466 1080092 1063820 1089835 1078348
2512.81 994233 895731 841199 786848 705482 648027
2515.71 609255 602076 588097 524798 462669 414938
2518.60 343940 293855 280106 253901 271595 279027
2521.49 149372 29686 59437 140696 141265 101529
2524.38 110536 122280 93230 32939 3942 15713
2527.28 49326 65210 34862 26597 48461 78370
2530.17 105386 106692 83994 46688 26967 91236
2533.06 146326 79894 12268 7491-11110-18967
2535.95-3167-18465-27760-6231 26176 51145
2538.85 57925 46040 22213 7038-15952-46751
2541.74-45189-34413-53003-70431-73235-48463
2544.63 10657 42421 32899 16452 18237 11288
2547.53-11808-7587 1079 5776 29116 34304
2550.42 16380-25795-34025 34296 54163 12912
2553.31 13921 83771 141017 137128 131025 151709
2556.20 155777 151026 194079 249619 274798 281291
2559.10 296452 315073 309358 281824 278974 309431
2561.99 325320 330571 359909 386741 391995 415797
2564.88 430683 435506 455374 436910 399392 410260
2567.77 448005 440029 392233 360796 354884 348221
2570.67 329204 324364 323680 346017 390505 362028
2573.56 304477 317834 371487 393775 401460 399765
2576.45 384418 367196 301273 217207 195031 189547
2579.35 195850 233821 263260 262880 215618 166911
2582.24 163035 175067 189486 187639 140314 105086
2585.13 139060 207405 222667 178671 152264 157280
2588.02 167846 166017 161948 176509 206561 239813
2590.92 246681 252786 281242 322307 349137 340725
2593.81 336147 343679 376592 456725 516482 528610
2596.70 550247 555966 510814 471697 503875 532155
2599.59 488457 458552 460267 420269 406246 472815
2602.49 553855 594707 530179 450999 511566 626467
2605.38 628728 557343 562787 662247 742981 683027
2608.27 488067 335857 336794 367980 357414 368800
2611.17 391831 410310 401085 295532 125240-25085
2614.06-146946-241116-281578-260834-235326-251979
2616.95-283716-289855-256418-213905-93271 40560
2619.84 67989 77746 64470-18922-67121-82291
2622.74-135892-168375-154795-127635-139777-183800
2625.63-213761-283419-356362-323728-233638-187527
2628.52-226212-280280-249791-214244-220083-215174
2631.41-182176-154855-185311-222016-224829-204359
2634.31-147599-100295-89892-101785-122686-130319
2637.20-99710-64249-54519-30629 6684-1000
2640.09-14131 40112 73759 48248 66613 73120
2642.99 34726 50600 124497 201645 226447 200683
2645.88 186243 191710 250106 333643 318398 242875
2648.77 200328 177949 187124 229699 281686 327925
2651.66 333574 347235 375756 364546 347405 333592
2654.56 325454 369912 423087 405787 372295 349124
2657.45 344510 336401 341988 385611 394218 362866
2660.34 311317 286477 297053 288885 265716 270395
2663.23 316463 365013 358505 335058 364493 380993
2666.13 334116 302869 315230 343531 363930 332030
2669.02 246803 201413 237754 300039 320579 295576
2671.91 265000 235684 203203 196631 252792 316506
2674.81 320154 261826 199127 166757 162189 207966
2677.70 230374 218742 227691 232158 247805 253975
2680.59 198336 124961 81908 106709 177756 211773
2683.48 188203 140794 118646 129694 142378 151789
2686.38 165260 178508 234684 297268 311618 307195
2689.27 261672 194741 137266 100990 112888 117437
2692.16 60415 32751 59825 28514-29786-32784
2695.05-35375-52458-54841-49366-17827 12307
2697.95 28488 23703-39714-110685-96237-40735
2700.84-42840-63082-26216 35894 9278-90265
2703.73-138525-119348-86418-31341 19989 24535
2706.63 27869 2278-28233-40259-73101-83786
2709.52-84067-93711-81867-83891-109865-109617
2712.41-71564-59428-104317-141298-111599-96158
2715.30-130759-157302-165006-142462-105345-99690
2718.20-112547-102628-104442-99309-51658-70314
2721.09-161937-172545-88127-3859 38859 14412
2723.98-78074-148291-120558-72802-77458-71592
2726.87-65014-78723-80269-59180-27064-7419
2729.77-9872-49264-77172-70480-48761-48295
2732.66-53766-15527 25115 33729 60300 84003
2735.55 70525 40270-19930-48860 6470 58756
2738.45 53948 10306 6272 59025 81526 37875
2741.34-24260-41153-19158 11914 46389 62647
2744.23 63491 27760-18479-6400 43214 59223
2747.12 24694-13383 2121 29282 11433-17981
2750.02-27158-25111-36673-53371-92139-152142
2752.91-145112-92377-23577 48451 34608-37132
2755.80-83496-102100-120687-153468-147728-104779
2758.69-86241-72741-25649 7150-32990-98836
2761.59-125490-121560-130175-147150-102406-10527
2764.48 25521 22070 357-32867-51758-76060
2767.37-40710 17013 7759 7115 42013 68428
2770.27 71877 76178 102592 148424 139472 79390
2773.16 40931 3173-29458 222 88958 127791
2776.05 97596 105745 155046 130736 37260 43723
2778.94 129825 137003 99491 104124 141699 144393
2781.84 101477 90045 123438 149842 179092 202128
2784.73 177252 125480 69077 57075 118595 181850
2787.62 205573 170029 98621 103264 174039 186601
2790.51 147740 129820 131444 87335 22865 18740
2793.41 94367 163282 139866 119146 183237 226434
2796.30 192386 122497 76578 13229-73340-83927
2799.19-38602-9166-5066-17583-27087-46001
2802.09-57668-20974-6330-35800-32683-23590
2804.98-36238-2468 22944-5311 10479 71502
2807.87 115146 101922 33387 453-5408-826
2810.76 3346-58201-131788-130859-50630 64469
2813.66 140260 70650-65313-108593-51212 18643
2816.55 2503-44648-10717 57162 45097 19806
2819.44 80466 131001 125804 89135 73498 83853
2822.33 49361 16184 34356 41500 37086 65974
2825.23 106299 119770 109146 133192 179995 188259
2828.12 188337 234830 275607 300653 306991 276845
2831.01 302034 391032 465821 496829 507814 499377
2833.91 466422 442992 456171 482619 515594 553209
2836.80 561855 630708 741736 745712 694821 652349
2839.69 638603 680432 734808 793096 826296 825989
2842.58 809980 755938 728111 750932 767066 818265
2845.48 896826 900023 882753 959591 1030332 927306
2848.37 742882 640611 652662 729972 752200 664002
2851.26 585937 569724 566495 539419 505271 506882
2854.15 505258 491481 525390 540982 499904 446964
2857.05 398837 374782 381708 415780 462897 435084
2859.94 370502 372519 368975 314597 297020 334039
2862.83 330303 294222 314454 359779 328064 257250
2865.73 237388 228541 188672 210267 281629 287922
2868.62 249593 213293 190630 179844 185121 217867
2871.51 248628 230088 215789 254973 258138 193241
2874.40 127122 103618 137728 179549 147084 115610
2877.30 116090 62195 25459 60106 90733 42411
2880.19-16896 10967 53545 54039 10463 24022
2883.08 73011 5812-95072-150939-165024-132852
2885.97-120002-114196-84111-71502-55346-27434
2888.87-26437-41313-63123-67289-62611-73100
2891.76-87850-117029-107493-50661-56116-88403
2894.65-118369-155509-143695-69474-12555-32481
2897.55-67464-46097-16810-13623-24667-72926
2900.44-150252-194464-154355-75634-84818-153087
2903.33-195087-220192-237710-271096-267309-199420
2906.22-154528-110665-108020-203397-228576-158584
2909.12-87581-86568-121272-130083-162278-161734
2912.01-94504-56316-87277-174021-234039-230447
2914.90-200102-129924-95613-116248-86559-73654
2917.79-151269-174867-134733-116914-69558-63913
2920.69-165961-236553-167240-33565 18706-38672
2923.58-111584-109101-78507-82298-82967-109038
2926.47-166829-218143-195526-63287 36743 34619
2929.37 11008-22482-68808-108091-100631-47902
2932.26-26875-56220-44660-39787-77756-104815
2935.15-78633 15129 71830 60844 17773-4342
2938.04 13791-895-26571-23938-32118-81063
2940.94-147359-193943-188803-128808-71559-32435
2943.83-5570-36877-65998-86680-82269-55351
2946.72-66277-95816-139095-151836-129763-135829
2949.61-145568-118436-80061-52712-17631 24115
2952.51 28694 2362-12444-33925-65362-79184
2955.40-87385-71226-60328-89089-126918-96693
2958.29-30735-21875-71770-130220-147505-143922
2961.19-145538-67415 39220 53911 55084 122353
2964.08 173969 181648 208837 198335 137430 98608
2966.97 92656 147993 218156 286583 360732 407625
2969.86 473659 524997 539498 558787 619604 768343
2972.76 909959 933249 917100 1008729 1164990 1313026
2975.65 1511567 1696511 1838978 2047995 2282187 2484305
2978.54 2747676 3075699 3365798 3625778 3944973 4325303
2981.43 4732477 5146125 5634530 6207330 6774043 7339053
2984.33 7940385 8607004 9266044 9884978 10544587 11293451
2987.22 12110403 12914892 13655454 14281082 14766054 15171412
2990.11 15590493 16061366 16424381 16647464 16875178 17158345
2993.01 17384819 17495404 17611597 17811372 18120763 18520354
2995.90 18956305 19454833 20222340 21426974 23026082 24678324
2998.79 26226659 28340625 31661999 35949193 40182553 42016068
3001.68 39137608 32924416 26864214 22519226 19826943 18388045
3004.58 17635060 17116698 16770776 16572743 16395684 16219598
3007.47 16148725 16143581 16097629 16014856 15892319 15700943
3010.36 15404107 14972715 14449686 13937353 13409431 12771116
3013.25 12112749 11449628 10707308 9940343 9188296 8458201
3016.15 7761735 7102615 6459819 5854528 5293153 4691256
3019.04 4142371 3757528 3406259 3001376 2623243 2279463
3021.93 1933168 1607954 1378253 1252307 1142376 980925
3024.83 838058 754553 656548 524221 426914 420672
3027.72 383085 282837 233348 234185 159268 37143
3030.61 37246 82642 44460-20602-64981-98955
3033.50-86334-56329-75096-32212 36099-25124
3036.40-133625-134588-77158-51708-25181 20003
3039.29 6904-85665-114435-108029-143008-157598
3042.18-194587-213445-146937-122565-154279-150788
3045.07-122024-142666-191894-248483-268864-202307
3047.97-112468-34399-16801-46025-92103-138810
3050.86-135306-105198-92187-132222-180413-151334
3053.75-86332-115128-214518-244072-173672-93617
3056.65-40087 10738 72296 104096 18470-89707
3059.54-92382-66414-55991-25942-15424-32851
3062.43-32280-32719-50200-84012-101208-15961
3065.32 103509 122971 73761 33603 27319 23457
3068.22-1660 3583 16409-9037-14650 11031
3071.11 10091-6633 25345 61395 24630 18386
3074.00 98879 135349 89439 27327-1573-11330
3076.89-15794 12817 7967-68492-80183-15309
3079.79-8258-30460-48584-80254-83715-76500
3082.68-66526-54397-75185-89708-63599-56628
3085.57-62020-70448-111710-102118-20988-180
3088.47-70375-121220-115458-99313-102904-132447
3091.36-152080-103055-40148-46313-48236-200
3094.25-28869-159996-215391-171728-171822-242811
3097.14-279672-256146-219798-229777-241098-171044
3100.04-114892-69977-64085-157569-174704-82956
3102.93-18277-20541-62293-119728-133961-77601
3105.82-82327-178313-238623-236665-219965-189612
3108.71-166191-156685-129852-95765-130355-215791
3111.61-227757-164830-115725-92171-37630-41205
3114.50-164442-242751-184374-110095-104532-140060
3117.39-152025-73606-18903-36385-37994-47709
3120.29-58583-35950-29217-91350-106403-49328
3123.18-85659-132865-79765-39018-87230-145261
3126.07-145840-134115-122937-110148-107509-101182
3128.96-97728-85538-76592-93549-122060-97419
3131.86-32560-70834-158001-108823 16378 62068
3134.75 32199-7270-8340 55029 38857-50949
3137.64-102581-105549-69731-79564-140399-154639
3140.53-132869-117002-118663-116714-118924-108986
3143.43-99007-34778 50401 45706 22097 28501
3146.32 46313 41885-27881-127103-176082-150060
3149.21-86018-55979-52720-52322-63301-52241
3152.11-76570-142190-122323-50955-53190-105978
3155.00-126829-96595-59881-74942-111015-115431
3157.89-98215-55802-40637-114018-222855-244568
3160.78-178630-117267-143376-196771-176064-108206
3163.68-44553-51816-104614-107330-49557 6022
3166.57 1137-32351-107960-194603-172771-132678
3169.46-118276-91457-102309-120640-102379-37281
3172.35 8218-85031-176665-142361-63188-20147
3175.25-49393-30935 37553 24080-69445-172906
3178.14-175885-121112-119474-115720-47376-13113
3181.03-47238-76396-102895-98710-74156-65238
3183.93-62948-107736-173372-182204-118776-48761
3186.82-41957-54082-39748-48950-58529-46341
3189.71-65169-58159 29715 51005-38575-53758
3192.60-29671-63516-93277-90892-45230-20302
3195.50-70935-111147-74920-66014-83122-66175
3198.39-58759-18430-5769-64372-126481-141998
3201.28-122389-118634-130690-117685-37312 16327
3204.17-21108-38492-11585 4437 27291-31188
3207.07-146102-160427-114418-147644-190930-159281
3209.96-134243-88515-28457 6094 91352 97043
3212.85-48936-148341-145669-79997-35077-72511
3215.75-117432-131227-105429-22531 35774-14430
3218.64-94592-127258-114775-94903-36513 18378
3221.53-16352-131771-131290-569-13859-123295
3224.42-126827-62179-9304-26110-121470-183529
3227.32-167161-126308-107351-72982 13995 44607
3230.21-19195-54597-51130-36131-3624 19379
3233.10 40903 29711-47698-123058-100931-42267
3235.99-18448-18337-14491 35756 97452 63821
3238.89 11744 51817 47472-38676-18025 69555
3241.78 7088-88806-41744 868-19231-46941
3244.67-68865-63612-22555 43402 73476 77994
3247.56 61962 11030-32801-56264-56183 6054
3250.46 41474-34601-77647 4374 80718 93145
3253.35 73541 23479-6414-5766-57612-119035
3256.24-106262-144491-267558-312705-221897-94545
3259.14 32292 80560 7085-31717-73155-191301
3262.03-244312-194994-131431-76370-52648-45700
3264.92 13821 39222-58483-172772-218782-201490
3267.81-135775-33160 71589 55444-36107-34704
3270.71-77809-225839-283344-212287-134438-93507
3273.60 9817 135005 137578 18758-76610-25968
3276.49 86222 95994-4690-100565-136407-174595
3279.38-170316-63113-42162-140512-217940-250591
3282.28-267543-230941-211576-280696-262392-104110
3285.17-30254-53998-34160-26969-81406-131031
3288.06-146715-89103-28520-60074-164454-219957
3290.96-151962-77835-131203-242278-297545-275709
3293.85-165075-31065 30318 22845-1602-5699
3296.74-17640-44520-99112-214230-310021-321239
3299.63-291783-243445-176798-146493-141413-86852
3302.53-41413-69009-143560-202511-219305-162193
3305.42-52599 19011 22501-41110-141851-205463
3308.31-209633-180424-165160-148104-75996-28323
3311.20-39410-95980-181369-209468-206413-212808
3314.10-214962-221321-228398-204257-131764-95132
3316.99-95245-124492-201336-243624-217019-183456
3319.88-175623-159801-128577-102469-74912-90853
3322.78-143507-149597-125423-134199-164994-192493
3325.67-260445-267504-179903-154147-108353-50328
3328.56-145297-242699-140072-52375-128619-173479
3331.45-134725-149314-250295-292448-250066-212024
3334.35-124953-51331-91130-157187-208213-247155
3337.24-196589-113839-114428-161093-144877-112349
3340.13-114303-76097-23675-13643-75857-215554
3343.02-286840-245690-190696-220046-288806-280483
3345.92-249840-222553-162095-114059-75586-71210
3348.81-145445-189932-197799-198607-167632-159931
3351.70-213407-270652-266422-202037-139930-142763
3354.60-161420-217656-221232-136561-151925-237414
3357.49-200699-100710-74856-167244-273748-267078
3360.38-252963-212092-106815-67719-81463-95810
3363.27-132758-189387-209304-202269-248935-290306
3366.17-216164-164103-244875-227654-58405 35676
3369.06-42738-140144-148380-182757-269578-257903
3371.95-129399-66761-168766-284810-275665-227996
3374.84-218220-183771-165215-171145-134579-92515
3377.74-106391-154037-174593-173810-161577-158273
3380.63-172743-185844-191301-224069-238970-202636
3383.52-209459-267798-276897-244862-229655-258197
3386.42-244611-122558-40331-98587-179593-176075
3389.31-146952-146099-167518-154667-131899-158699
3392.20-188498-198077-196506-272694-403791-433614
3395.09-303657-191475-209560-204132-192994-265961
3397.99-292535-152800-97648-197159-154220-60668
3400.88-144662-281663-246177-146753-167889-241553
3403.77-240138-136072-89202-92207-99567-184836
3406.66-255412-270414-298572-269100-206222-191012
3409.56-230754-297026-287655-239300-248220-262823
3412.45-253581-298513-305559-228636-168993-174045
3415.34-238885-268780-243753-263134-268118-252566
3418.24-281372-277316-257735-263495-271445-296310
3421.13-340443-315565-231024-173126-165032-239412
3424.02-325336-317868-298468-342147-372744-309781
3426.91-274784-332572-319139-262250-212709-195803
3429.81-275914-362188-356873-325483-364160-377993
3432.70-344438-307299-270587-324727-415199-397620
3435.59-308776-313858-380450-379648-308459-250449
3438.48-280595-312494-292853-348956-407747-325522
3441.38-253664-318317-382428-325494-242945-287927
3444.27-359842-336553-352362-424626-407389-342913
3447.16-321783-224614-126927-166759-192187-150522
3450.06-284937-481650-424466-278113-235278-282022
3452.95-389432-407901-339909-258908-145399-113775
3455.84-206265-321296-358733-298842-213427-182362
3458.73-217290-242250-256528-333194-392627-322219
3461.63-251118-286930-365579-372907-281094-224045
3464.52-275575-368118-431601-414147-372874-383624
3467.41-395331-359806-300776-330536-409052-408992
3470.30-364564-341887-368742-383049-311529-233516
3473.20-257884-328745-381709-404410-377657-381252
3476.09-429203-427443-350364-319857-306414-237744
3478.98-257609-364368-360823-277434-286801-366649
3481.88-430828-435649-371264-358700-421556-416230
3484.77-360480-349506-317573-295713-382039-420096
3487.66-319805-229830-242194-309959-401894-464603
3490.55-441380-343242-232259-160248-152496-203722
3493.45-317286-411489-439068-427582-391654-388250
3496.34-429367-455162-429311-344671-279203-283106
3499.23-297645-346056-405300-349330-198709-175898
3502.12-283464-360842-399699-465778-487750-423079
3505.02-393698-389062-367372-379035-389111-331368
3507.91-235943-207593-279556-404651-457529-389011
3510.80-344926-368676-384185-357915-347156-396199
3513.70-400556-320099-234899-197121-219502-290186
3516.59-380067-427618-403830-401243-442259-448445
3519.48-375702-261610-218171-276691-358142-357719
3522.37-289750-201971-202813-345136-461189-459375
3525.27-403858-353268-333883-363335-384386-357294
3528.16-352276-413907-420951-348204-328310-316608
3531.05-285031-308354-373477-432148-443638-374509
3533.94-322715-381475-398282-343597-320425-330761
3536.84-351636-336204-308583-306728-258272-208485
3539.73-226018-249389-295314-385807-408568-375541
3542.62-378513-367000-344238-372649-466185-484358
3545.52-440469-490022-533123-463774-362555-292395
3548.41-237504-261370-326687-364239-372394-405433
3551.30-481293-455393-380393-375920-383438-407367
3554.19-406653-296619-236224-316411-391538-370933
3557.09-348600-389876-411715-344258-347748-428880
3559.98-385108-252987-252708-376000-361590-307819
3562.87-394069-406012-328879-317679-388157-474757
3565.76-542070-544456-534721-691981-790041-596527
3568.66-382467-297282-259504-275594-274505-251033
3571.55-277829-311424-303988-276148-251154-274860
3574.44-328887-365554-359554-302561-303543-351961
3577.34-330881-265951-269618-306155-366077-456207
3580.23-444929-317193-241225-283706-353691-388172
3583.12-368182-316544-314425-343337-357517-527565
3586.01-779809-723556-561821-653224-883326-848964
3588.91-519222-311687-303522-314892-295747-334085
3591.80-388643-420837-390140-289599-248990-341002
3594.69-513987-561250-448554-327419-307203-421867
3597.58-522965-524399-524160-500778-423404-395125
3600.48-418231-427407-425157-436194-483364-492424
3603.37-393340-320992-341811-388692-420897-505662
3606.26-658237-703975-576264-512676-800502-1077531
3609.16-817679-501061-462760-487807-550838-731032
3612.05-851211-665271-464738-524974-625307-586426
3614.94-504044-426356-420723-522205-656512-682636
3617.83-597649-666680-984796-1052724-696101-491567
3620.73-525126-558641-595643-571617-469639-410655
3623.62-420796-463128-498320-527203-568629-585262
3626.51-558932-654233-1128394-1475228-1445856-1580554
3629.40-1355377-761664-526807-505960-441456-365757
3632.30-417552-578720-658482-542654-419172-408550
3635.19-366957-300582-308029-355188-445150-553950
3638.08-585508-566458-491356-355940-315746-425865
3640.98-568370-597385-510296-438075-401151-340415
3643.87-363631-470194-484837-456090-595180-878092
3646.76-1057063-935807-794787-1193643-1714123-1420585
3649.65-991152-1076172-1115806-869355-587759-503971
3652.55-512046-451408-401205-426266-525562-755202
3655.44-1165242-1299814-916825-597437-513188-497951
3658.33-494252-471600-479887-499428-509015-524780
3661.22-525471-500668-444527-433540-464365-452274
3664.12-419844-442359-486134-518629-502103-470310
3667.01-495849-648890-968608-1058276-790940-872464
3669.90-1584706-1843484-1132965-555152-469102-462524
3672.80-460962-583602-882993-1273260-1510249-1817244
3675.69-1773736-1048734-580184-482023-452887-543847
3678.58-675570-723619-652662-563068-483085-454592
3681.47-493507-519555-518386-504170-494066-505862
3684.37-492908-444259-419756-455513-518700-627491
3687.26-1151585-2008010-1879279-955407-549430-609112
3690.15-819078-1020813-936112-681515-512600-427557
3693.04-421490-480255-541912-557169-554079-530416
3695.94-495998-447191-419378-474679-538499-556948
3698.83-563137-572721-569451-568814-718473-893279
3701.72-739332-501712-442612-425294-435115-473338
3704.62-471917-446121-444922-451459-461816-469353
3707.51-493695-619475-875699-941433-694090-600468
3710.40-692513-887353-1387117-1511852-916569-482662
3713.29-464421-563611-612686-522701-420058-399512
3716.19-356284-328719-397853-457712-484546-524921
3719.08-507663-437387-403247-406524-504655-709965
3721.97-726256-593274-561292-560440-587567-639879
3724.86-593284-600726-768067-801608-643881-547031
3727.76-488628-435849-463024-516827-496248-498763
3730.65-659330-1132560-1522410-1187340-679235-550625
3733.54-726574-1033919-1152099-1019686-982715-1313731
3736.44-1319379-775030-541848-640131-648926-595472
3739.33-580602-675062-818450-842623-747613-613099
3742.22-524346-680474-1377790-2619881-3197238-2231257
3745.11-1037205-623713-614128-656220-653429-628025
3748.01-939727-1936071-2481425-1706428-944137-845203
3750.90-1188545-2068969-2359872-1440900-742047-650561
3753.79-617718-593136-603665-639397-785972-833677
3756.68-605661-454585-501667-584322-701859-819255
3759.58-805585-677280-581465-491698-419966-435678
3762.47-478382-515644-551406-546888-545904-678831
3765.36-765181-659850-546693-489427-480888-487694
3768.26-518593-735840-1062954-997295-675745-542360
3771.15-511707-486573-480728-486657-514307-558974
3774.04-559373-538964-558771-589830-578956-538945
3776.93-474746-347715-316091-548116-836535-854828
3779.83-662606-450552-345357-375272-453875-510173
3782.72-525377-557910-608159-646251-646891-612065
3785.61-547050-488052-491847-517771-517648-516165
3788.50-507423-466635-418508-390374-385910-434130
3791.40-498646-514242-527816-522759-441075-426018
3794.29-518614-551225-608792-796926-856647-694957
3797.18-566367-524076-468142-426915-461287-571648
3800.08-959592-1876028-2253456-1463873-815207-707959
3802.97-633689-541742-540414-571962-549115-540993
3805.86-911857-1535658-1453006-861699-605643-557945
3808.75-488130-433480-431509-518176-639263-613762
3811.65-479727-436282-508140-585231-612192-526930
3814.54-619573-1421008-2266993-1816362-910292-632143
3817.43-547215-422556-407431-541761-719285-942203
3820.32-1118104-1250735-1308125-963860-613540-531059
3823.22-524340-519207-470666-423801-455375-573889
3826.11-689600-656397-522242-500522-543416-545622
3829.00-528478-549771-640292-796754-975049-876249
3831.90-605677-535915-566865-600153-773884-1014322
3834.79-927579-643927-516666-614914-1285001-2236072
3837.68-2023326-1053158-656484-660126-687552-722545
3840.57-757150-669831-579310-554505-653111-838328
3843.47-841601-686260-574932-511938-447365-397553
3846.36-430080-463449-405545-359090-368257-427627
3849.25-477270-398386-343565-669402-1559036-2021164
3852.14-1411981-1095113-2065960-3184558-2658576-1199606
3855.04-480207-415742-465130-513899-474691-374959
3857.93-346813-366746-402818-436304-420186-420915
3860.82-581200-719647-609374-441933-366386-342833
3863.72-476511-849511-990531-607188-256893-141404
3866.61-157637-295304-415006-552877-796478-1162712
3869.50-1534550-1241963-652804-516273-507913-477157
3872.39-567790-681020-795607-862137-718569-548552
3875.29-496901-475024-464387-450169-441026-444488
3878.18-460507-537915-780995-1062501-1035978-820331
3881.07-658895-547001-539716-548761-475173-429899
3883.96-549683-919476-1435370-1480768-974552-592966
3886.86-487479-506659-564450-579012-580793-599482
3889.75-634324-835165-1064673-908989-607140-476725
3892.64-433664-413297-422474-435720-450388-513407
3895.54-547315-567245-654183-664427-559388-628435
3898.43-968493-1194285-959138-627061-631806-936662
3901.32-1169427-996573-711099-673794-1020510-1312466
3904.21-1039580-741002-751502-730782-612720-566581
3907.11-586982-595637-564633-543813-544324-527740
3910.00-515701-590515-708434-737612-703183-655072
3912.89-653662-669755-621838-569790-585724-659013
3915.78-680001-723113-839114-753728-594726-612668
3918.68-667089-709466-713966-606107-527956-535487
3921.57-558578-579144-621930-690575-720342-705030
3924.46-662190-604012-577788-571173-579600-635568
3927.36-733838-727845-628967-601211-562861-543595
3930.25-569647-588719-614402-648678-696693-739480
3933.14-721040-597253-509016-512941-537363-591656
3936.03-676288-701100-675570-662547-646849-593809
3938.93-531627-559970-610523-619398-629094-604062
3941.82-575737-587956-606833-602900-554320-532674
3944.71-557867-516832-480688-579815-651033-595049
3947.60-595756-606234-616027-752284-836359-670853
3950.50-468789-440113-500172-550842-555690-523232
3953.39-494264-501581-566087-619443-623593-626289
3956.28-611306-582537-573888-553387-537696-568061
3959.18-599730-568055-546869-622372-681058-637122
3962.07-555764-524164-577571-642797-627309-569179
3964.96-523862-490668-490271-517296-487865-435114
3967.85-458328-473483-404050-349173-400557-494968
3970.75-535554-513984-504210-566033-558034-429072
3973.64-397209-453949
##END=
