##TITLE=Pentafluoroethane
##JCAMP-DX=4.24
##DATA TYPE=INFRARED SPECTRUM
##CLASS=IUPAC A
##ORIGIN=NIST, Analytical Chemistry Division, 301-975-3108
##OWNER=COPYRIGHT (C) 2000 by the U.S. Secretary of Commerce
##DATE=00/02/01
##$SPECTRA VERSION=1.10
##$UNCERTAINTY IN Y=2.0 % relative (B=1.0E-04,C=1.4E-09,D=3.5E-13)
##CAS NAME=Pentafluoroethane
##CAS REGISTRY NO=354-33-6
##MOLFORM=C2 H F5
##MP=-102.78 C
##BP=-48.55 C
##$NIST SOURCE=QUANT-IR
##SPECTROMETER/DATA SYSTEM=IFS66V (Bruker)
##INSTRUMENT PARAMETERS=KBr Beam Splitter; MCT Detector; Multipass cell
##STATE=gas
##SAMPLE DESCRIPTION=Pentafluoroethane Primary Gas Standard
##PRESSURE=101.3 Pa
##TEMPERATURE=23 C
##SAMPLING PROCEDURE=1 L/min Flow
##RESOLUTION=1.9290
##DATA PROCESSING=NB Strong Apodization
##XUNITS=cm-1
##YUNITS=(micromol/mol)-1m-1 (base 10)
##XFACTOR=1.0
##YFACTOR=3.6379E-12
##DELTAX=0.9645
##FIRSTX=575.652
##LASTX=3974.603
##FIRSTY=.0000818
##MAXX=3973.64
##MINX=575.65
##MAXY=.0029044
##MINY=-8.75E-06
##NPOINTS=3526
##XYDATA=(X++(Y..Y))
575.65 22504429 30194209 46676591 43386169 29229383 25387480
580.47 24693040 26656143 29315632 32052479 33121506 32266398
586.26 29901236 26595029 22712192 18613762 14654837 11625942
592.04 8796339 6666156 5238306 4047842 2866511 2060008
597.83 1340096 1065732 1042224 1235370 878314 800164
603.62 847813 730692 552340 581220 407923 449380
609.40 531512 555984 368187 334948 388019 315977
615.19 380047 532902 550299 429275 358206 388338
620.97 419589 437459 300763 306239 273630 333046
626.76 439433 516200 252406 160935 258751 595729
632.54 762761 559272 285122 345589 604509 458453
638.33 424030 393452 371326 575881 775913 770511
644.11 618938 606451 544970 702395 907866 780294
649.90 766962 655081 624049 632022 513680 553665
655.68 697137 717457 656624 633005 664316 529579
661.47 603039 766466 704349 538405 439491-346953
667.25-602654 242931 602086 477632 362026 412986
673.04 409935 417626 477438 504034 477309 288208
678.83 259542 407087 431252 431942 244049 77375
684.61 146108 309307 262045 170363 280220 302060
690.40 300596 412306 579198 520486 501789 772513
696.18 1042409 1215176 1432243 1848617 2459772 3313395
701.97 4392807 5538953 7300267 9531530 12148117 15105228
707.75 18568887 22375682 26249594 29991729 33514595 36657161
713.54 39448315 41628553 44460875 49288591 54598519 62156662
719.32 77905395 81017238 68831215 57920936 49384462 52230713
725.11 73798261 95388426 84568730 68652438 59031706 52098748
730.89 48662771 47006353 45612562 43609127 41027275 37720455
736.68 33458928 28832439 24115024 19704130 15788100 12315995
742.47 9306207 7086235 5463052 4168622 3056601 2293444
748.25 1842218 1557524 1248583 993346 833392 746975
754.04 614715 705768 691658 611391 558260 622215
759.82 563798 595517 661367 569307 515293 652451
765.61 698578 752388 808590 814880 785696 833561
771.39 782632 785605 868161 963538 984174 998476
777.18 1043692 1095418 1057919 1146423 1290462 1333857
782.96 1333700 1310397 1316242 1358450 1211829 1132364
788.75 1085812 1207487 1242901 1261669 1314625 1405997
794.53 1301771 1293037 1271980 1260585 1065742 906487
800.32 922421 1131198 1077235 986754 966024 961473
806.11 864988 911992 871407 837718 834386 834235
811.89 757021 811622 847529 880486 766722 799753
817.68 723494 679682 612463 705387 789757 829373
823.46 821639 971302 979522 1109871 1265419 1386479
829.25 1459190 1298116 1070431 1255446 1428206 1563998
835.03 1705102 1985350 2249478 2617205 3108979 3731490
840.82 4342788 5227390 6404204 7930461 9712754 11760107
846.60 14089316 17072454 20407111 24107642 28217149 32744218
852.39 37469616 42385824 46820450 50456478 53319415 56386591
858.17 59271826 61957952 65121217 69408719 74351033 81703616
863.96 89975086 99570792 112707492 116887912 94343314 65463219
869.75 58865780 61331910 63859489 65015793 64855752 62614188
875.53 58725953 53145245 46682835 39714077 33051817 26868995
881.32 21650504 17258798 13804298 11129883 9247379 7931639
887.10 7068486 6378642 5885452 5465514 5235078 5058702
892.89 4807193 4478421 4275410 4069407 3871269 3573131
898.67 3638320 3760087 3736083 3639454 3518324 3317141
904.46 3073607 2783442 2510752 2256671 1953504 1671317
910.24 1554461 1434955 1256520 1216454 1313090 1318720
916.03 1248119 1269772 1383380 1436648 1539498 1616299
921.81 1605291 1658200 1796240 1880702 1901535 1915290
927.60 1955709 1970014 2000360 2077891 2177529 2251779
933.39 2364429 2433155 2447457 2405394 2364716 2348778
939.17 2239359 2073315 2000240 2008179 1905461 1779115
944.96 1634037 1504974 1364113 1190853 1065833 1051187
950.74 1004401 972085 911310 843016 727194 530329
956.53 467563 511342 545926 395167 329201 375245
962.31 377672 383093 418560 394423 369196 352856
968.10 359606 445074 501213 552670 543174 555990
973.88 542524 526661 476479 558840 619012 647729
979.67 739246 739005 696751 640168 585532 602234
985.45 660280 712806 698854 615772 565345 575392
991.24 489448 446048 466224 482440 501181 462342
997.03 339864 355342 486781 503745 493180 460657
1002.81 408642 429095 431149 468708 480790 492377
1008.60 427084 421627 373880 378391 353620 360868
1014.38 388774 415480 350287 330852 388487 349279
1020.17 253538 249166 233403 279183 265254 245069
1025.95 253359 282364 269823 289572 202673 210147
1031.74 199452 226893 228487 238003 133045 152094
1037.52 201333 290408 312151 338528 353065 410267
1043.31 435056 451200 475231 492748 417959 476198
1049.09 565556 672290 711072 772157 936249 1115134
1054.88 1230317 1360859 1463201 1701783 1896620 2074274
1060.67 2372814 2727093 2968278 3311868 3588083 3903523
1066.45 4197942 4478408 4738482 5036937 5368199 5708552
1072.24 5986430 6319664 6590428 6895924 6950343 6930948
1078.02 6872846 7186603 7485440 7611859 7535683 7511429
1083.81 7549115 7732022 7956811 8310091 8605109 9062780
1089.59 9558254 10312707 11163154 12191153 13263316 14541007
1095.38 15908417 17483391 19347962 21947490 24622953 26315773
1101.16 27499689 28809626 30304584 32408352 33979682 36128531
1106.95 39133791 42788232 46897793 47245016 45040097 44396136
1112.73 44638005 45420359 46452087 47002810 47147711 48130658
1118.52 49761997 51696358 51695257 51270039 52436884 56048850
1124.31 61463729 68817646 78065945 90289145 105642147 125152133
1130.09 148604952 176281540 207243019 241389686 278169634 319779702
1135.88 363335602 405147326 443250149 477080966 506276046 536073158
1141.66 524381234 463419324 467182595 551352981 581557710 545392355
1147.45 535345121 517027550 454076901 371803968 298784637 239667879
1153.23 195209663 163741670 140030764 113425641 89647219 72451858
1159.02 59172872 48204874 40416403 34718718 30089591 26294252
1164.80 23678412 21392235 19837179 18955548 18849147 19050189
1170.59 19301178 19143765 19398795 20556239 22349520 24735334
1176.37 27750943 31294475 35440613 40354829 46401529 53774227
1182.16 61564705 70857808 81514370 93755785 107196421 121518345
1187.95 136482158 152127779 166665345 180159915 195328036 215013009
1193.73 243555127 290642106 360151095 447693858 536469315 554026664
1199.52 464529008 415407548 444834114 485344886 549439868 634899988
1205.30 714357440 770090348 797760107 798374921 783192706 759650938
1211.09 735758565 714649803 699566131 690368041 687374845 689880316
1216.87 700594181 715593402 724968843 706889250 659394620 619353608
1222.66 613735220 608496087 553069364 481744763 433190482 405371449
1228.44 384839847 362137762 334470868 301218953 264695830 227628321
1234.23 192209753 159385454 130455849 105727036 85500113 69011174
1240.01 56095072 46130219 38841986 32641525 27871851 24434531
1245.80 21719028 19679549 18699810 18370073 17422962 16353033
1251.59 15865741 15277522 15237692 15059010 15223572 15306379
1257.37 15663019 15868929 16304163 16566584 16963365 17313232
1263.16 17860492 18063771 18378838 18547783 18771366 18902213
1268.94 19140753 19194904 19576658 19758720 20042617 20203568
1274.73 20699189 21529183 22859586 24246064 25037501 24518035
1280.51 25663825 28072012 31540398 35686641 40832805 46851959
1286.30 54475653 63648662 75424939 89085200 104801259 121992817
1292.08 140634638 159367020 177760055 194053392 208383737 218714393
1297.87 224488753 225085339 223534104 222364509 221871437 226092255
1303.65 241942936 272633791 329204828 407647715 490152617 461401285
1309.44 262490934 158717584 149414966 147767675 147949238 149297213
1315.23 149097067 145997845 139461400 129973374 118002359 104551757
1321.01 90383890 76448667 63127209 51081663 40481129 31527255
1326.80 24137481 18229681 13622373 10200921 7739091 6049362
1332.58 4827175 4079391 3656734 3488891 3544469 3773201
1338.37 4148913 4671135 5355424 6089902 6778165 7467390
1344.15 8046088 8417154 8592377 8579158 8514974 8677732
1349.94 9086452 9656869 10159126 10367557 10443777 11964105
1355.72 14248676 14390523 12761215 11066070 9889204 9306174
1361.51 9011865 8744227 8593720 8242916 7830775 7319409
1367.29 6766947 6216966 5834826 5605632 5391617 4971048
1373.08 4663026 4452860 4413505 4415051 4502843 4562677
1378.87 4605487 4620408 4734398 4853208 5011101 5124648
1384.65 5295070 5394443 5721376 6252238 6413364 6719375
1390.44 7410346 7431722 6651441 5777350 5211511 4876330
1396.22 4554390 4221643 3985847 3968917 3973773 3822053
1402.01 3577977 3312434 3094354 2911708 2718802 2442479
1407.79 2221641 2036785 1880884 1801650 1796139 1791950
1413.58 1831584 1803230 1798288 1801602 1632244 1414061
1419.36 2052184 2553009 2745797 2777533 2922983 3199366
1425.15 3436676 3607863 3813912 3917027 3978256 4194014
1430.93 4392226 4463913 4688552 5108729 5213146 4781623
1436.72 5205144 5755851 6138668 6501371 6811182 7085855
1442.51 7353798 7411481 7193309 6806273 6446756 6215551
1448.29 6184794 6211180 6156417 5991246 5339370 4676487
1454.08 4448929 3751931 3164281 3466615 3520981 3324345
1459.86 2980280 2524296 2125336 1657945 1152893 1092967
1465.65 1178388 1084189 1001621 827465 718602 267789
1471.43-69198-141560 150671 270173 157791 335390
1477.22 449803 427374 354867 278644 324653 323290
1483.00 330087 345862 244425 34515 58440 77188
1488.79-125002-122178 109390 285555 301865 243717
1494.57-223725-395342 98958 25487 149915 405168
1500.36 455400 505818 527381 300198-417641-915520
1506.14-774653-80184 316805 389122 499998 334699
1511.93 375340 530692 479557 365352 94374 100737
1517.72 367497 175399-453655-609496-97268 251437
1523.50 246886-42638 166289 269640 357321 399430
1529.29 481379 356487 219488-104152-68815 291792
1535.07 413969 396872-126075-1100924-1074383-541809
1540.86-443085-105037 450694 289243 338284 643279
1546.64 770308 741903 652869 659176 878286 1001691
1552.43 901146 543182 887970 937029 232058-665633
1558.21-704334-576646 333325 952984 1100604 1004589
1564.00 904942 1006916 1078591 980094 734968 494996
1569.78 861217 1037625 1053521 1041423 907702 2661
1575.57-175898 722487 1012762 1074844 1132815 1108747
1581.36 1040421 999478 953336 977078 1035559 929588
1587.14 827906 726380 685346 649039 647665 637585
1592.93 600431 524687 485214 420269 415331 395102
1598.71 396544 345360 360398 339666 314373 246030
1604.50 256609 204580 226302 239756 232146 243117
1610.28 331643 291415 262278 228010 138475-671930
1616.07-893751-33525 250884 277414 282078 259921
1621.85 29979-74958 233147 387026 347687 230629
1627.64 370857 547862 589408 587784 625539 570507
1633.42 148557-491813-38314 430808 499303 580577
1639.21 596798 589361 629898 678532 655369 239368
1645.00-327649-74576 189208 395654 548235 367785
1650.78-675705-1988886-1483187-339656 252940 416134
1656.57 429877 439366 445136 441632 337462 63673
1662.35 78289 370797 437242 481556 424660 203917
1668.14-190468 37243 251904 317170 452895 336638
1673.92-190166-116237 392620 472790 472295 401851
1679.71 374501 400688 90795-583714-1392655-831318
1685.49 229060 339436 320727 229768 256195 330240
1691.28 409990 317627 171402-814583-1243399-154428
1697.06 269248-238998-1200559-831270 186527 557669
1702.85 454867 380713 497487 604384 920268 1079809
1708.64 1134732 1159673 1340722 1409392 1382088 1211897
1714.42 1233392 1107816 578889 978401 1639181 1911924
1720.21 1926851 1836074 1850685 1906052 1900840 1769983
1725.99 1669564 1561797 1394854 1199348 1239363 1172213
1731.78 550716-207932-199975 445874 742496 635432
1737.56 504752 84498 125332 404962 381120 292993
1743.35 339604 319320 249821 156533 59905-25098
1749.13-75834-405277-156906 176582 247314 242503
1754.92 75605-75742 111348 208252 259089 140694
1760.70-115827 28335 310283 343921 358076 362116
1766.49 194051 97519 400313 355689 93351-292899
1772.28-84053 430012 484202 538911 643143 669354
1778.06 644454 551943 522161 610687 666132 615777
1783.85 496732 559602 653984 693321 697847 684108
1789.63 657185 520038 274390 520537 842797 802769
1795.42 770518 761993 773448 690602 724226 716968
1801.20 687579 749014 772427 713907 742016 674089
1806.99 620442 618424 547013 447901 476677 440128
1812.77 415356 379600 378383 327073 292571 323118
1818.56 335557 263524 262004 218445 206449 48592
1824.34-41212 130883 252629 168475 695-105661
1830.13 92394 194956 234091 199586 190485 193417
1835.92 190226 116218 107802 118373 154960 135740
1841.70 88114-281528-367400 790 129955 115072
1847.49 151264 151622 144983 148596 197175 244087
1853.27 250396 260042 319834 295827 307223 343621
1859.06 348814 345960 401904 437642 457516 468087
1864.84 470376 404777 345515 186971 134643 276824
1870.63 353468 408213 437337 396359 364368 311358
1876.41 272976 201569 172474 143255 132546 100782
1882.20 88797 73355 100598 75175 67760 55317
1887.98-13321-39234 30789 42202 69798 49490
1893.77 9573-17626 23228 47499 94309 112886
1899.56 82822 17858 61578 79750 89752 79520
1905.34 138166 163628 187180 178271 171444 237479
1911.13 326979 361130 404967 458819 534797 521990
1916.91 496254 612855 710849 814959 957716 1035651
1922.70 1183294 1321067 1363316 1384972 1467809 1516511
1928.48 1584720 1654921 1751876 1810531 1833832 1781626
1934.27 1749844 1713861 1724382 1657053 1603975 1523046
1940.05 1500178 1450523 1352654 1235726 1173516 1110371
1945.84 1051877 1001760 982216 869398 774301 678794
1951.62 570994 520008 513264 443831 394721 324707
1957.41 288837 229658 174798 154380 158237 101273
1963.20 105356 75830 9007-51856 6551 74438
1968.98 88303 58388 68971 40821 24667-1923
1974.77 2129 21407 25248 24398 30930 29265
1980.55 58737 5280-14713 13416 7592-25080
1986.34-3046 15263 30870 24413 31764-27759
1992.12 17689 50207 61160 78888 119688 101169
1997.91 62997 44571 99553 113209 124724 92638
2003.69 126995 173659 166223 109250 103194 127917
2009.48 160977 132692 114315 91243 89933 85046
2015.26 101752 90018 123761 123142 122690 92858
2021.05 128373 122689 94986 105536 131307 120255
2026.84 113899 89933 123360 103074 136568 152690
2032.62 130275 118992 137361 127554 151748 183408
2038.41 200483 193192 227446 246957 277968 294390
2044.19 329459 351582 384769 406962 474154 502224
2049.98 544462 602610 680552 700823 735832 766926
2055.76 878072 952890 993572 1060826 1173234 1258142
2061.55 1324877 1353037 1282130 1148580 1041551 911492
2067.33 913295 929339 964262 984992 1004648 973478
2073.12 930209 868388 799050 708656 693009 617170
2078.90 548106 469314 438265 420893 463146 423985
2084.69 395309 384059 368017 313479 302981 287095
2090.48 258378 212291 202969 201894 216602 185947
2096.26 174915 142701 199397 160666 95686 80235
2102.05 148629 94642 27931 11011 84994 86233
2107.83 52882 22457 90382 137212 58484-12059
2113.62 9650 120165 112603 48246 69825 129402
2119.40 87016 8124 45573 102427 81962 36169
2125.19 52868 91238 119176 39506 55256 97336
2130.97 116414 48157 64669 119744 135068 99224
2136.76 133139 186215 221810 194770 182909 173176
2142.54 210637 255826 313629 384748 450993 475891
2148.33 550866 593610 653341 702447 736560 803419
2154.12 927958 931473 931269 1018952 1117886 1118158
2159.90 1158654 1185160 1190198 1167919 1270138 1398945
2165.69 1445247 1420583 1526788 1551128 1399724 1150072
2171.47 900919 770640 683025 663123 731162 671092
2177.26 645108 701939 664045 460159 382197 376413
2183.04 304492 222662 259258 263788 162968 98394
2188.83 129862 84545 58119 79791 76077-11174
2194.61-3312 25779 19228-7694 48782 66840
2200.40 66475 115747 99439-2221-21358 7910
2206.18 42147 55583 85451 29084 45013 47104
2211.97 55571 42931 99575 94140 100990 76072
2217.76 62862 66702 123994 125063 148808 125058
2223.54 106236 126824 144149 162945 211327 182977
2229.33 185822 192098 208184 216339 237230 268714
2235.11 315402 350214 416268 430654 454897 493854
2240.90 549832 598188 715114 785381 834968 878753
2246.68 973177 995744 1068498 1152499 1229658 1290996
2252.47 1356433 1373440 1432603 1489897 1536884 1577220
2258.25 1644373 1625220 1651309 1714082 1744227 1770329
2264.04 1840972 1859861 1918483 2041210 2163504 2218051
2269.82 2324604 2484360 2712494 3009165 3308383 3462642
2275.61 3530058 3499945 3561641 3700204 3762156 3683677
2281.40 3732853 3744322 3535453 3149823 2823349 2464873
2287.18 2120300 1880510 1655378 1382370 1230661 1096696
2292.97 1005112 911795 882435 788383 678369 578398
2298.75 522624 512189 590382 529747 477366 393316
2304.54 418475 389812 396791 349404 286157 222607
2310.32 212728 210660 145819 152930 64786 54824
2316.11-9992 33307-14262-41529-169856-163132
2321.89-237536-262406-307674-291528-365327-431181
2327.68-504406-492834-529446-579810-622247-576783
2333.46-595290-582922-565639-568706-576595-596607
2339.25-592286-586742-548923-453278-407291-343229
2345.04-185329-67102 32811 86853 32283-106864
2350.82-213874-342516-449840-522596-597341-673784
2356.61-732796-826293-889230-923424-898971-907477
2362.39-912552-867915-771158-753542-724704-653039
2368.18-596509-525325-435027-351312-244575-198366
2373.96-96695-49709 12087 46379 44799 43765
2379.75 74111 127546 180847 275794 368206 372839
2385.53 413475 443382 531669 583470 607582 708274
2391.32 840681 868265 909581 931119 1045125 1197001
2397.10 1435472 1657870 1809508 1936136 1999993 1943272
2402.89 1883672 1829855 1811687 1834815 1933534 1949152
2408.67 1944791 1926963 1913336 1882906 1865820 1772569
2414.46 1682521 1626953 1494878 1187744 974431 894753
2420.25 859665 783989 735270 582205 446711 346549
2426.03 272610 216850 241197 253483 287051 285293
2431.82 334123 339937 335271 362365 417462 401812
2437.60 402763 361516 340633 354461 371259 379992
2443.39 418696 409575 376503 308207 294539 269206
2449.17 246674 208755 177350 195543 190898 124766
2454.96 110624 46122-19841-70440-91094-162040
2460.74-182391-169629-180173-199777-201989-219007
2466.53-184803-172677-182436-220630-217957-197465
2472.31-151419-135304-133073-133014-75851-71175
2478.10-54919-8693 52722 110305 184364 229907
2483.89 313710 342430 356936 402738 485148 530425
2489.67 617345 733465 907876 1001091 1103008 1158299
2495.46 1202725 1222491 1264709 1320717 1453304 1551698
2501.24 1621604 1626582 1644524 1497412 1259441 1136488
2507.03 1101398 1069395 1127346 1113414 1088381 1036510
2512.81 919323 771426 667151 591274 528373 401926
2518.60 316401 264328 226340 93313 112863 113188
2524.38 108102 41319 32979 39773 48303 69523
2530.17 98458 55284 89038 69038 13201-15496
2535.95-11426-4186 46056 34944 9083-38173
2541.74-40751-67043-28261 16079 28507 483
2547.53 2099 6130 25861-11611 19804 26975
2553.31 83404 129012 150102 168044 239752 280062
2559.10 306682 289752 308944 335754 382938 408922
2564.88 441437 425881 425847 416761 376454 340902
2570.67 332802 347380 353080 334807 387973 388825
2576.45 349025 238965 203268 226023 244329 183073
2582.24 180459 163127 143693 177568 188580 156388
2588.02 170621 179947 233775 258504 319076 335146
2593.81 365068 442837 532271 528008 507925 497098
2599.59 474219 430276 487093 540241 518849 571764
2605.38 597224 645043 621986 402058 360835 369185
2611.17 395923 254913-2657-215967-252090-265211
2616.95-265242-183221-257 55192-1895-99390
2622.74-139641-152022-178661-284492-288009-234732
2628.52-239879-235526-197625-185683-201001-192652
2634.31-113870-111595-107138-78600-23010-5617
2640.09 36310 56443 61488 77138 178556 198702
2645.88 222927 283933 257659 191784 240524 306581
2651.66 354905 354559 345345 367917 397609 353164
2657.45 350262 365481 358216 297022 288463 285533
2663.23 345498 349641 359495 319239 342064 302697
2669.02 247760 275074 294358 231511 232000 280338
2674.81 262492 180731 204649 218668 241146 219702
2680.59 147943 123719 187077 146828 138937 147067
2686.38 203412 269739 292221 192681 128892 87163
2692.16 59183 11162-23615-51996-32743-377
2697.95 772-75772-58918-42166-2284-72993
2703.73-101227-39278 21217-4833-40969-82738
2709.52-82220-97603-88699-90083-108785-122697
2715.30-141198-141068-103720-109514-81928-104933
2721.09-119882-32067-14673-106528-88291-76732
2726.87-68650-58215-16583-49240-58376-53134
2732.66-9416 34466 70075 25257-6638 26545
2738.45 33007 41170 32273-24037 17200 46122
2744.23 30360 6921 39204 5196 15255-14576
2750.02-24910-70832-115977-86356 12155-34046
2755.80-95948-139865-107709-64535-23231-85808
2761.59-121022-121309-29736 6019-24776-52527
2767.37-5437 18984 61040 84613 125204 81062
2773.16 13931 23547 100411 116593 107764 75005
2778.94 119621 113281 130637 105053 156495 171918
2784.73 131910 85927 166225 149833 139553 155267
2790.51 141539 74534 62816 118279 158971 183506
2796.30 132725 3980-50151-27407-14763-42844
2802.09-26618-28896-24511-10487 16721 58765
2807.87 81011 11835-1670-67404-82064 32711
2813.66 42254-60528-15223-14697 29782 49778
2819.44 107904 93393 71610 32652 43033 66661
2825.23 115254 137053 191175 229470 293565 297189
2831.01 392585 477010 493582 455212 492173 541594
2836.80 649690 708152 675424 686495 784554 807653
2842.58 773558 750647 831010 888806 954015 880469
2848.37 706586 698775 667265 574994 541712 502852
2854.15 514143 508833 455381 387651 421595 414380
2859.94 375477 327323 321239 315530 327494 274586
2865.73 223780 229218 265169 218062 192992 211928
2871.51 235579 235088 193619 129498 152137 120651
2877.30 75053 53407 42951 16388 42166 28044
2883.08-9189-130828-131439-112530-64243-45347
2888.87-37962-69163-72113-102871-70020-96002
2894.65-124099-83939-34874-45810-19140-92415
2900.44-144983-121989-138640-224250-243628-210517
2906.22-130553-180177-149576-111769-129087-138062
2912.01-88510-167347-203784-152726-95276-114901
2917.79-138490-116324-105195-173383-67239-53707
2923.58-87822-91556-119869-180354-72026 11004
2929.37-24070-87080-58229-47745-54150-78419
2935.15 2794 39480 15150-8956-26695-93465
2940.94-162305-129411-41889-43220-70121-74049
2946.72-97648-139959-133479-114794-46107 2441
2952.51 7634-40837-69260-78749-86628-84090
2958.29-49155-115789-132454-61551 51064 112346
2964.08 188553 169165 126395 153462 292185 406165
2969.86 513796 580023 766838 911218 1048782 1329008
2975.65 1685977 2058476 2516641 3058349 3657806 4337635
2981.43 5190583 6206550 7365350 8599974 9912085 11323942
2987.22 12882470 14197789 15182667 16000739 16650188 17120571
2993.01 17503367 17864200 18555985 19603527 21644001 24672079
2998.79 29007844 35807965 39498437 32852942 23494953 18804206
3004.58 17214688 16595624 16268811 16129284 15989270 15637771
3010.36 14924677 13921080 12754470 11411536 9948612 8475557
3016.15 7118186 5869839 4727221 3778551 3013643 2279242
3021.93 1663561 1259226 993476 745880 549103 404453
3027.72 308924 196139 95106 42752-7824-82120
3033.50-64407-33227-41519-109036-45496-17762
3039.29-54847-128112-156205-186874-139544-148679
3045.07-152615-233633-177651-73367-49807-122280
3050.86-107814-140375-130800-154077-188078-110375
3056.65 18508 43326-38023-74784-29008-33735
3062.43-36002-74534 4213 80208 54085 13038
3068.22 10050-5055 4641 9595 36872 50898
3074.00 98247 37911 275-10171-35051-41186
3079.79-26846-74494-68122-73626-67642-69918
3085.57-74040-78521-36512-100763-102592-131083
3091.36-90762-51969-32400-132453-183854-232854
3097.14-246537-230144-167309-100337-120233-94574
3102.93-40821-100228-101496-169792-219771-196366
3108.71-145975-133249-177779-170867-81706-98473
3114.50-173595-147325-120091-87409-31551-51022
3120.29-40947-75613-79379-95983-75468-124063
3126.07-129474-117807-97380-92548-91525-89853
3131.86-83289-76993 27743 7954 26841-43330
3137.64-82684-107135-129959-130242-112051-107742
3143.43-24446 27681 38944 4719-96948-134969
3149.21-66037-60112-64393-109259-78179-96077
3155.00-90320-89359-97189-77005-125512-203514
3160.78-153673-167467-108038-77225-73176-25865
3166.57-50919-150547-138118-110200-97759-58052
3172.35-81271-119731-44713-18063-12889-131302
3178.14-132686-96871-39308-77518-82793-79787
3183.93-109936-151457-70812-53077-42588-61910
3189.71-20801-1894-29362-69877-66110-58375
3195.50-75427-81248-59279-38535-63173-129467
3201.28-119107-95064-16868-24866 5277-59564
3207.07-126903-158180-148207-87774 23166 24206
3212.85-89023-96486-75066-111578-32085-38477
3218.64-97469-82941-23520-81234-55710-83620
3224.42-64542-65687-142162-134733-51802-615
3230.21-31921-30654 17055-3474-75719-58487
3235.99-12031 33119 59534 29301 10854 2729
3241.78-25102-33247-36829-49301 33717 58191
3247.56 18073-43492-5741-23276 11315 67528
3253.35 35358-28939-90236-181282-241720-101199
3259.14 27465-39298-158304-183756-88826-30811
3264.92-15003-142186-168997-43072 24531-58671
3270.71-180744-206543-62324 67225 37986-2367
3276.49 47055-82678-138593-110523-129355-243698
3282.28-233466-246588-128958-51992-47931-114851
3288.06-84119-100789-156358-142677-211582-233837
3293.85-61220 6256-2785-68765-198344-300257
3299.63-231880-161586-87145-99795-171175-141477
3305.42-14673-64637-168441-188615-121414-65013
3311.20-101614-197261-206964-224842-178319-122286
3316.99-138738-215904-187766-158457-100757-111508
3322.78-130095-151572-198669-232853-144139-121157
3328.56-151966-127657-133239-191717-246191-197574
3334.35-98697-156614-200060-155824-132043-126796
3340.13-64822-60836-177427-243205-231520-270893
3345.92-202935-129556-97650-178254-178983-196597
3351.70-231006-211550-151142-197913-170476-192427
3357.49-131367-179497-245495-193982-90484-113362
3363.27-166047-229823-235083-221829-152621-54123
3369.06-98869-205459-198200-151267-222535-244827
3374.84-184414-160864-112629-149960-161124-173310
3380.63-178160-221019-214291-254489-246071-240319
3386.42-136612-119059-154421-160380-146558-167755
3392.20-193145-299766-352244-251956-202740-242244
3397.99-184897-148012-135050-207989-196611-205901
3403.77-154127-107487-178618-267963-251131-224761
3409.56-259902-264144-254892-282872-231131-204914
3415.34-243800-261448-264484-271971-266500-301866
3421.13-283823-206950-240345-313360-329785-326579
3426.91-301330-269953-234712-327452-344549-361454
3432.70-309316-344671-359936-348471-339081-294345
3438.48-293268-347805-326561-321642-314000-302400
3444.27-350415-386613-350942-229775-166055-226885
3450.06-368248-325712-304776-364918-247873-179940
3455.84-277527-287576-210937-246599-314918-325107
3461.63-303008-332956-271322-358009-395610-389895
3467.41-348808-356473-381037-367505-341384-283783
3473.20-319579-386225-395540-398508-322265-283018
3478.98-312583-321773-355056-411763-382905-399430
3484.77-338455-345887-349803-286962-315740-425248
3490.55-327864-203091-227204-384116-410157-416013
3496.34-419069-361052-289998-350178-302972-246961
3502.12-338186-446910-427594-392390-369899-320276
3507.91-256128-372834-389294-372653-361753-379087
3513.70-310409-235503-294653-399502-414676-412032
3519.48-293022-292931-314240-256339-330588-431800
3525.27-365706-365787-362525-395235-358485-319373
3531.05-325342-409056-379783-372083-348912-339268
3536.84-326044-293164-232955-268436-350680-390057
3542.62-359945-403619-454614-490453-438265-313071
3548.41-279235-356092-411289-437727-382961-394564
3554.19-314273-324310-361959-383737-369998-377361
3559.98-310049-327338-354436-370071-356850-464981
3565.76-546241-658003-571043-335665-269987-271536
3571.55-291687-281135-289568-342028-326353-323217
3577.34-293490-322818-404043-340517-302181-359498
3583.12-336028-356297-545598-677650-707041-716339
3588.91-401956-317235-334989-394325-312395-384697
3594.69-472190-390457-411266-520391-472027-428798
3600.48-413774-457975-436610-373966-380897-538339
3606.26-616556-677963-832360-629599-512642-694338
3612.05-649921-557775-551740-470130-532905-643130
3617.83-759716-868893-599823-563425-525870-458517
3623.62-450348-541562-562875-826909-1309010-1417958
3629.40-893567-511109-423943-540442-527445-408285
3635.19-327789-384496-512027-539164-397479-451096
3640.98-530342-461164-372438-443327-527941-826598
3646.76-944631-1223646-1335684-1075589-851838-546910
3652.55-463501-469009-826065-1054273-714897-504255
3658.33-484950-496461-516274-490257-449486-447487
3664.12-451587-499559-499800-715490-911824-1137865
3669.90-1397135-786780-481125-676014-1227943-1607066
3675.69-1136575-548948-572348-654119-579219-478488
3681.47-513457-498846-501923-448983-480548-838854
3687.26-1544933-1148734-712872-885259-706288-478479
3693.04-479858-545813-520120-464992-479050-550586
3698.83-564301-639802-743656-578207-439349-460155
3704.62-451772-456117-483232-668629-803124-704181
3710.40-992856-1184747-686725-540200-510090-400686
3716.19-368512-445873-494819-452882-458904-626820
3721.97-624188-578844-603858-662698-712716-569915
3727.76-473128-486194-602483-1052557-1090065-718726
3733.54-950983-1063078-1165831-882371-630201-613029
3739.33-698003-773480-650605-988182-2239670-2073755
3745.11-863145-646166-825749-1689423-1649135-1147761
3750.90-1754772-1480389-730179-615129-673056-720590
3756.68-543132-608626-746965-686933-503062-458810
3762.47-506280-561159-650171-647775-512159-521780
3768.26-757951-876174-597208-503815-490083-547564
3774.04-548116-577611-512360-414695-563785-746663
3779.83-498355-415116-482809-574708-617946-604386
3785.61-509749-516243-502303-469920-399568-448852
3791.40-499530-502522-463306-578898-722118-710428
3797.18-512824-478571-736875-1594876-1463550-772180
3802.97-582414-546730-735075-1203143-986620-559211
3808.75-475830-515570-574618-482049-563056-651067
3814.54-1391036-1560760-766418-484245-567964-933464
3820.32-1167747-960285-577557-510927-454592-576849
3826.11-601194-542568-529599-596095-779560-804084
3831.90-588012-677614-850215-722700-898795-1701799
3837.68-1261472-711666-708082-665274-619228-756721
3843.47-692301-519983-431020-428335-385726-417875
3849.25-428990-907776-1547138-1693642-2405225-1496422
3855.04-518273-475570-396760-385197-408906-496043
3860.82-599561-485578-434065-725836-594837-228560
3866.61-301539-609823-1116017-1098449-607331-533291
3872.39-672554-772868-593121-488081-447064-460990
3878.18-614180-920813-828440-600085-514016-528717
3883.96-958926-1217566-730336-534931-564003-630738
3889.75-819961-835485-523112-437566-430540-514496
3895.54-576899-634280-740111-987267-781153-904814
3901.32-924985-864325-1056754-874332-687051-605548
3907.11-573605-556489-531804-612991-696850-679984
3912.89-638987-608113-639823-741516-716704-646909
3918.68-678888-618806-546965-593758-668964-691359
3924.46-614358-587614-644222-689601-600417-568743
3930.25-586240-660746-697489-617136-526793-607818
3936.03-669397-664835-589638-578690-608044-607679
3941.82-588071-589140-543169-531890-561360-615692
3947.60-611626-725669-641945-498761-521747-529040
3953.39-523770-602207-612268-594169-553208-571996
3959.18-570885-619179-611959-570373-601517-575733
3964.96-504519-497420-460715-441713-395978-473677
3970.75-516947-534522-465014-455396
##END=
