##TITLE=Pentafluoroethane
##JCAMP-DX=4.24
##DATA TYPE=INFRARED SPECTRUM
##CLASS=IUPAC A
##ORIGIN=NIST, Analytical Chemistry Division, 301-975-3108
##OWNER=COPYRIGHT (C) 2000 by the U.S. Secretary of Commerce
##DATE=00/02/01
##$SPECTRA VERSION=1.10
##$UNCERTAINTY IN Y=2.0 % relative (B=1.0E-04,C=1.4E-09,D=3.5E-13)
##CAS NAME=Pentafluoroethane
##CAS REGISTRY NO=354-33-6
##MOLFORM=C2 H F5
##MP=-102.78 C
##BP=-48.55 C
##$NIST SOURCE=QUANT-IR
##SPECTROMETER/DATA SYSTEM=IFS66V (Bruker)
##INSTRUMENT PARAMETERS=KBr Beam Splitter; MCT Detector; Multipass cell
##STATE=gas
##SAMPLE DESCRIPTION=Pentafluoroethane Primary Gas Standard
##PRESSURE=101.3 Pa
##TEMPERATURE=23 C
##SAMPLING PROCEDURE=1 L/min Flow
##RESOLUTION=0.9640
##DATA PROCESSING=Happ Genzel Apodization
##XUNITS=cm-1
##YUNITS=(micromol/mol)-1m-1 (base 10)
##XFACTOR=1.0
##YFACTOR=3.6379E-12
##DELTAX=0.4820
##FIRSTX=575.17
##LASTX=3974.603
##FIRSTY=.0000808
##MAXX=3974.12
##MINX=575.17
##MAXY=.0029285
##MINY=-.0000132
##NPOINTS=7052
##XYDATA=(X++(Y..Y))
575.17 22216864 21079970 21306681 25734205 37187225 53608551
577.58 59797119 45437376 29299501 25409209 26688850 25793972
580.47 23836558 24004793 25219719 26259931 28165043 29469449
583.37 30522763 32442825 33428079 33615201 33311759 32393172
586.26 31195869 30509874 28526481 26416638 24755631 22803153
589.15 20890085 18680568 16098782 14370640 13195827 11485131
592.04 10218330 8688887 7339885 6554736 5661061 5242424
594.94 4838162 4080031 3178658 2732598 2575310 2100430
597.83 1476168 1213881 1171389 1126226 757748 917621
600.72 1297873 1536432 1151135 726450 611215 722396
603.62 1006266 855401 810778 926670 420266 382178
606.51 703732 720168 479944 273248 385319 437861
609.40 489257 551231 638346 595174 412953 533866
612.29 128531 152043 525556 600723 243016 156899
615.19 409467 322055 440243 609191 601339 558049
618.08 525667 509677 197134 297884 534641 371198
620.97 283079 398198 569805 551820 275657 191493
623.86 334828 375125 255044 209680 323553 338859
626.76 331118 376755 559798 779929 395413 89201
629.65 125852 202731 101076 198544 389951 533123
632.54 900620 964727 636943 501602 552631 152077
635.44 73211 257750 544220 858393 714594 250670
638.33 237319 543497 548391 393798 204341 312734
641.22 500620 562119 658153 823903 960084 826733
644.11 532000 658159 578713 551700 747784 480508
647.01 355534 639883 1037737 1100232 783324 727696
649.90 656078 830459 911502 589512 409345 633402
652.79 806633 680536 474846 494409 514788 456024
655.68 590097 844036 795358 598247 691104 848105
658.58 467519 477192 826572 819070 481157 498969
661.47 484916 491878 749848 900100 814372 709735
664.36 630426 360144 521254 723788 480800-360982
667.26-1388116-1045360-21314 550723 567771 679487
670.15 722317 409465 247128 386974 397528 397340
673.04 458969 393872 434638 352495 392072 600610
675.93 467675 491611 489350 536427 552456 205785
678.83-6548 261545 448220 456820 363266 431914
681.72 482856 469516 435271 232565 59583 87119
684.61-70343 145697 312854 324324 377118 330635
687.50 154563 10952 174650 407956 387130 219605
690.40 259708 360773 239173 396338 520104 617963
693.29 762211 466185 338649 441073 570472 814716
696.18 940642 1084110 1107390 1268776 1243561 1375126
699.08 1563251 1814864 2144221 2396774 2736667 3282966
701.97 3784879 4541210 4887707 5282077 6154711 7260700
704.86 8368928 9432917 10657937 12145235 13531069 14964162
707.75 16644411 18506992 20385477 22429079 24312292 26311577
710.65 28071277 30058467 31973667 33568827 35039256 36751955
713.54 38384919 39528085 40589769 41660559 42669591 43866311
716.43 45744127 48974934 53187400 55454256 55522582 58139122
719.32 66792409 81972408 91137435 84821914 74127665 66344365
722.22 63481537 59298522 51584823 46439022 46002552 48693483
725.11 55172409 69226806 93076492 111165783 100128769 79565492
728.00 71388996 68718512 64382095 58101236 53968041 51360432
730.89 49657899 48333144 47519399 46890752 46547281 45803522
733.79 44834432 43646719 42488561 41134438 39706138 38019243
736.68 35817959 33429466 31225772 28856777 26468570 24044967
739.57 21749977 19599802 17542962 15692581 14049913 12216035
742.47 10512575 9182777 7998777 6853219 6151082 5474791
745.36 4759121 4095205 3539652 3025491 2536069 2197575
748.25 1984505 1804395 1745632 1556795 1342461 1295398
751.14 1120911 958293 806652 797609 915909 778938
754.04 571084 534459 648511 730830 764526 733423
756.93 651891 581051 555022 492023 616132 673789
759.82 612997 587299 472861 531458 694518 742373
762.71 701634 545117 385648 471415 642473 634650
765.61 717300 726904 678350 767664 724995 848688
768.50 948134 719444 762823 812082 788606 859606
771.39 861196 768885 730798 754791 803573 872229
774.29 952519 997645 942435 971170 1084463 959297
777.18 897039 1084856 1186276 1090610 1003481 1072565
780.07 1107793 1041828 1178867 1423890 1426356 1233076
782.96 1233993 1455250 1429921 1203129 1197410 1339395
785.86 1461957 1410896 1229384 1215026 1195330 1103542
788.75 1051492 1046003 1132597 1223741 1277897 1233439
791.64 1278021 1278049 1145289 1314000 1493173 1443623
794.53 1351789 1261887 1278354 1306795 1261964 1250819
797.43 1338633 1305830 1166506 1091286 993852 814901
800.32 776211 904388 1037881 1216518 1222402 1071849
803.21 989188 987238 861611 985484 1134988 888075
806.11 857963 896885 843525 886508 970041 909345
809.00 825158 784372 794534 870118 930755 816005
811.89 708579 788286 786588 764537 799479 906710
814.78 904631 898272 855811 686082 735020 861867
817.68 811777 707097 695733 661176 627469 630076
820.57 592164 641638 783681 880208 830187 788794
823.46 797157 806841 863122 982302 1060177 1032567
826.35 874622 999291 1323853 1391685 1233343 1285471
829.25 1486384 1634507 1473622 1259612 1124257 945438
832.14 1013436 1272655 1451829 1470115 1457042 1530296
835.03 1597496 1755596 1788331 1910020 2159132 2345207
837.93 2321988 2484652 2880460 3150183 3358338 3696536
840.82 4081518 4312912 4624584 5133270 5712632 6428972
843.71 7058673 7773172 8755552 9766382 10640509 11685129
846.60 12769597 13964449 15383104 16939165 18682182 20465245
849.50 22103286 23892862 26037674 28206640 30444854 32592234
852.39 35012403 37500917 39938877 42419039 44809672 47055860
855.28 49054057 50573415 51894509 53315685 54789861 56230019
858.17 57977984 59567249 60737215 61619824 62988358 65108517
861.07 67190799 68982927 71762279 74074674 76565306 81191247
863.96 86525636 90708139 93459660 97103250 105086785 114781135
866.85 121155861 122650074 117752093 99112815 69529178 57029890
869.75 57307805 58444099 59719594 61561400 63072723 63973088
872.64 64722451 65428910 65565864 65141950 64336885 63046239
875.53 61225453 58938281 56407903 53399099 50079370 46760099
878.42 43219347 39681310 36223692 32957833 29704056 26705648
881.32 23946208 21455900 19178138 17134388 15254625 13597425
884.21 12191421 11055853 9979219 9071571 8381225 7942460
887.10 7416054 6957516 6688112 6418551 6033842 5844701
889.99 5698052 5424611 5246248 5247740 5134845 5078816
892.89 5023686 4854328 4549640 4424482 4400304 4328416
895.78 4097735 3990611 4122263 3970544 3577645 3500870
898.67 3474393 3572275 3796738 3885457 3740405 3692101
901.57 3704914 3693312 3593927 3485349 3423778 3435214
904.46 3142047 3028356 3013492 2784432 2595340 2507434
907.35 2364285 2314758 2137469 1936881 1746636 1645820
910.24 1579521 1510128 1538004 1546028 1286103 1203484
913.14 1161796 1186494 1268432 1324165 1376831 1366387
916.03 1262822 1229357 1175999 1249402 1348899 1410552
918.92 1418879 1439989 1424830 1516486 1673522 1658182
921.81 1569201 1624557 1568800 1620315 1729267 1833233
924.71 1857732 1896771 1892795 1929562 1881023 1892123
927.60 1933428 2000428 1962731 1929408 2001586 2010278
930.49 1974324 2080303 2149936 2205324 2201916 2210670
933.39 2304899 2410905 2389690 2467244 2441967 2452850
936.28 2461299 2415235 2343565 2340135 2385616 2380511
939.17 2316165 2279336 2149112 2042596 1972067 1973478
942.06 2009632 2069624 2008893 1877129 1825910 1799959
944.96 1713452 1643316 1544743 1477012 1481669 1398101
947.85 1246261 1186556 1107201 1026156 1001830 1102624
950.74 1070286 993660 921822 984312 1024101 916419
953.63 787862 855251 879343 784387 581599 448061
956.53 479036 485395 416825 481534 601971 642057
959.42 512980 339157 264290 315662 364424 382359
962.31 410201 392186 317965 385654 417911 417157
965.21 458463 406193 300908 390645 407544 348823
968.10 284120 341819 417370 462559 465462 499467
970.99 530552 596831 541889 534677 533215 572059
973.88 567398 524329 543209 551029 507529 445014
976.78 403189 578077 683131 672769 535472 593387
979.67 721826 821782 745110 728136 715350 717555
982.56 681451 624880 596947 596348 544324 580864
985.45 641966 681216 673610 713148 762008 718599
988.35 655593 634250 524194 535325 590141 632272
991.24 546863 494607 402039 415221 460617 505363
994.13 472805 441966 487625 553385 507323 472420
997.03 418899 347748 205515 287699 484158 552750
999.92 509623 519571 454475 479610 553293 501878
1002.81 330499 378614 482620 428464 377621 446728
1005.70 467643 464583 453316 496669 494188 546636
1008.60 445724 394357 402790 465531 408285 345672
1011.49 347205 403569 364753 383788 323418 320353
1014.38 370845 459121 357362 418851 466853 359324
1017.27 236819 295751 373835 432867 434482 381806
1020.17 215716 238708 270263 242774 230861 231853
1023.06 215120 322294 278638 297823 242360 220068
1025.95 203832 279096 312965 266893 243486 290578
1028.85 264038 349889 284164 138373 140939 265694
1031.74 208394 195458 194107 212675 263152 228241
1034.63 188223 331514 237702 46604 46202 195705
1037.52 195516 191067 195817 324100 360392 301312
1040.42 291347 341600 358809 363956 337112 411824
1043.31 451997 465228 429363 427414 434742 518222
1046.20 495904 513387 490413 376258 334952 496035
1049.09 567608 559443 558995 733339 715559 724660
1051.99 696130 746248 770072 968298 1113209 1082257
1054.88 1136806 1264542 1318267 1365329 1364138 1461739
1057.77 1529975 1686216 1849400 1975298 1932511 2012989
1060.67 2142807 2379734 2618369 2765649 2824674 2938249
1063.56 3092003 3359756 3489422 3573854 3702037 3913081
1066.45 4055689 4225594 4358618 4470777 4547994 4765145
1069.34 4960465 4968661 5065955 5494363 5610319 5646837
1072.24 5807748 6007099 6177103 6364849 6380503 6547648
1075.13 6851787 6974177 6915053 6985393 7019468 6933468
1078.02 6804101 6816609 6878132 7169668 7434836 7578690
1080.91 7606737 7607077 7590092 7608857 7456225 7464122
1083.81 7470670 7583350 7626561 7683564 7770708 8000588
1086.70 8103138 8330444 8448706 8572670 8765537 9110026
1089.59 9239170 9500970 9882409 10285049 10663644 11183229
1092.49 11652599 12153686 12646776 13301821 13858451 14457280
1095.38 15146741 15990497 16619009 17392425 18232950 19247753
1098.27 20371953 21802897 23397081 25078862 26051481 26221113
1101.16 26626699 27601048 28345086 28775006 29123197 30130546
1104.06 31412695 32613945 33436022 33903015 34580860 35649373
1106.95 37380702 39846671 40451405 41826784 44627246 48827659
1109.84 49908261 46255549 46190173 45426160 43015138 44408844
1112.73 44904938 44503575 44658940 45182676 46007251 46805676
1115.63 47068553 46893826 47047934 46978544 47261171 48063339
1118.52 48692065 49495212 50959275 52315001 52560297 51953316
1121.41 50908895 50778536 51196020 52049542 53446628 55627294
1124.31 58248962 61243417 64509179 68405567 72677152 77606815
1127.20 83152974 89602507 96807048 104990604 114029814 124225294
1130.09 135528858 148028861 161190912 175490616 190666369 206823795
1132.98 223568931 240935940 258555441 277305300 297111814 319129986
1135.88 341714214 364130523 385629241 405681025 424577508 444226709
1138.77 462847912 478676531 491481097 505156414 518837842 541017545
1141.66 559795205 548146924 496793809 440046092 422015798 443680379
1144.55 498896966 566759464 615924325 606088492 555934191 525622015
1147.45 530478271 540124972 541590093 529307907 499880003 456422563
1150.34 411025900 369234806 331184814 295859780 264186315 237099474
1153.23 213444461 192447419 174947446 161381757 151954587 142195156
1156.13 128310425 112273419 98653687 87919880 79427970 72020560
1159.02 65212648 58644931 52772175 47599542 43357889 39817760
1161.91 37130587 34730104 32317915 29800173 27678265 26074123
1164.80 24860302 23600036 22412821 21285946 20392815 19590892
1167.70 19177231 18849960 18726318 18724544 18875476 19088571
1170.59 19268662 19357224 19437011 19095142 18828794 19146365
1173.48 19792294 20452517 21312321 22221305 23333607 24552992
1176.37 26088787 27733512 29311711 31118467 33205730 35343908
1179.27 37566721 40178026 42970190 45886448 49738501 54092463
1182.16 57655197 60903139 65437455 70794934 76038860 81015963
1185.05 86947385 93578192 100317668 107015409 114117250 121308832
1187.95 128828346 136378799 144129909 152003497 160537565 167321113
1190.84 173043011 179624729 186838263 194588529 203449401 213549131
1193.73 225329285 239868385 259645041 285213846 318233908 358030659
1196.62 399677691 443495094 494533600 547624688 589746134 591349335
1199.52 536885510 444184871 384920784 398739771 429646870 447701968
1202.41 461544733 480207145 505094422 542309279 590180742 638766438
1205.30 680845947 718201464 750669884 776480656 793785620 803003489
1208.19 804997767 801504685 794236206 784637341 772611484 759979638
1211.09 746898771 734797794 723907975 713766491 704848470 698219091
1213.98 692911008 689483670 687268043 686230223 686431254 688493686
1216.87 692062425 699413145 708095500 715998443 724048567 730531980
1219.77 729308653 716200937 689377155 655289931 628493343 613859553
1222.66 602019824 606819042 627804801 627624163 596894849 553526933
1225.55 511495209 475595671 448441913 428916711 414914045 404296016
1228.44 395039384 385533207 374900369 363198424 350129265 335618480
1231.34 319505893 301961092 283469255 264678223 245866919 227342982
1234.23 209250442 191697341 174670763 158692166 143637719 129563649
1237.12 116593290 104933773 94305859 84718864 76099354 68382504
1240.01 61550704 55516554 50076320 45633719 41838318 38656457
1242.91 35655008 32463673 29505193 27437277 25905459 24578466
1245.80 22885380 21387650 20405402 19697470 18812099 18276530
1248.69 18377611 18857540 18561139 17205831 16250002 16354598
1251.59 16369235 15903051 15235301 15206681 15256091 15296899
1254.48 15061346 15055426 15065560 15201285 15243116 15332028
1257.37 15405321 15662824 15773441 15918687 15981969 16291251
1260.26 16482936 16665678 16671501 16932405 17067899 17348147
1263.16 17596370 17896672 18034184 18163638 18098838 18320643
1266.05 18524782 18691913 18600530 18724874 18751556 19012103
1268.94 19073095 19136104 19071456 19238572 19272596 19567128
1271.83 19745785 19902869 19747624 19995262 20188033 20296927
1274.73 20181774 20572254 20980483 21515186 22049456 22896330
1277.62 23423500 24197558 25258267 25955416 24577536 23734940
1280.51 24356178 25563767 26587001 27987761 29413008 31380132
1283.41 33380663 35602442 37878026 40766243 43352064 46544550
1286.30 50211344 54303929 58231842 63208287 68620770 75129204
1289.19 81715153 88697120 96305574 104628944 112720392 121729066
1292.08 131154092 140723242 149624105 159702856 169040161 178023873
1294.98 186532707 194800677 201697803 208871907 215326445 220262849
1297.87 222393504 225300511 227111333 225882509 223353373 223291819
1300.76 222857197 222731662 221912491 221419835 220228482 223861735
1303.65 229967581 240174556 250683845 267559402 291335472 322756792
1306.55 362202215 413262209 447481571 484086972 557078352 563172582
1309.44 367856535 189478144 153765394 151160204 151817674 149204331
1312.33 148426779 146777305 147434448 147387988 149001377 149316921
1315.23 150322340 149542233 148817440 146397711 143994416 139944916
1318.12 135736346 130223411 124841232 118147372 111775139 104527863
1321.01 97642209 90211193 83400955 76201892 69604174 62787880
1323.90 56733133 50648808 45424030 40096433 35563405 31063666
1326.80 27464441 23817269 20810030 17854636 15617634 13350160
1329.69 11643859 9907536 8779050 7511062 6773175 5916951
1332.58 5382444 4642843 4377324 3946517 3857569 3577794
1335.47 3542118 3355622 3524148 3472963 3669776 3675566
1338.37 3952325 4094783 4442766 4528355 5013744 5314478
1341.26 5809799 6036780 6479109 6751668 7143661 7437729
1344.15 7882751 8055161 8338261 8392820 8617503 8593175
1347.05 8684586 8567179 8562422 8395861 8517474 8615508
1349.94 8883760 8953915 9374487 9693207 10006850 10103537
1352.83 10427528 10583462 10386757 9934318 10358997 11622350
1355.72 13473832 14929707 15391548 14685513 13759142 12675327
1358.62 11809231 10893011 10344064 9800912 9321165 9170491
1361.51 9367686 9011303 8714185 8667570 8807563 8624186
1364.40 8461462 8231255 8103252 7802595 7599616 7338512
1367.29 7120199 6698104 6451884 6198773 6037289 5712000
1370.19 5653625 5611988 5640795 5392833 5206840 4973289
1373.08 4743593 4578794 4612692 4385280 4386348 4371533
1375.97 4464239 4378461 4441993 4463221 4591080 4579688
1378.87 4594868 4568479 4644996 4576479 4665925 4704362
1381.76 4815152 4839873 4956970 4973557 5105989 5101060
1384.65 5213644 5270107 5382539 5459011 5394014 5379921
1387.54 6154551 6547761 6498986 6166841 6389057 6687888
1390.44 6988596 7414675 8078186 7704454 6908808 6647262
1393.33 6407590 5504404 5325871 5281037 4969496 4878067
1396.22 4766879 4524319 4381085 4215100 4121853 3799962
1399.11 3916944 4039841 4023060 3948340 3973531 3861125
1402.01 3730351 3523697 3455480 3318823 3218354 3011715
1404.90 3012780 2934544 2855512 2702367 2607999 2450881
1407.79 2291167 2164233 2165048 2048320 1967461 1801326
1410.69 1814408 1804754 1812678 1784294 1761727 1787117
1413.58 1846099 1813134 1847877 1810797 1786349 1762750
1416.47 1830781 1750330 1885930 1859579 1377050 788008
1419.36 1568199 2343294 2479797 2547270 2707351 2761054
1422.26 2826756 2778501 2720264 2834729 3114304 3229256
1425.15 3354877 3409690 3538296 3621428 3684977 3797072
1428.04 3948903 3999701 3921317 3787366 4102811 4246489
1430.93 4321444 4420314 4485487 4382054 4488389 4652172
1433.83 4862577 5020492 5481557 5676635 4984532 4078503
1436.72 4698422 5444306 5628339 5725916 5944047 6122716
1439.61 6348028 6514923 6699413 6795994 6936785 7080446
1442.51 7256964 7369085 7512773 7450878 7407145 7248191
1445.40 6961881 6792028 6678207 6402010 6169919 6227204
1448.29 6245721 6053038 6129785 6406021 6301620 5902473
1451.18 6095552 6348774 5958630 5159236 4762164 4600259
1454.08 4584403 4417868 4442261 4149189 2875409 2385801
1456.97 3597656 3747928 3512154 3529764 3469234 3353618
1459.86 3237790 3001570 2741853 2483675 2347811 2094226
1462.75 1921283 1758148 1489094 821159 830233 1258077
1465.65 1263317 1133577 1131028 1098133 1083597 1012262
1468.54 907099 784805 780093 786347 733920 302605
1471.43-297377-106043 156019-482280-245514 360993
1474.33 453538 355161 130155-63524 214143 430447
1477.22 474421 444083 459247 427111 434594 353563
1480.11 292763 222221 262425 352355 403439 298672
1483.00 270756 332055 369034 349514 387548 267138
1485.90 153617-15891-172062 66545 261590 162770
1488.79-39281-233214-177965-231303-53238 189280
1491.68 245373 313191 340133 295512 261080 326397
1494.57 325586-89573-995242-817168 191386 365628
1497.47 266228-139941-252269 195318 438018 437286
1500.36 495329 395384 424986 568928 568894 502109
1503.25 516162 472181 315528-637968-1273103-546319
1506.15-977831-1484254-290593 247090 212037 389064
1509.04 347427 280620 506089 609189 586981 221377
1511.93 75533 386978 579822 610484 548895 406734
1514.82 431232 497022 303381 8859-179423-22397
1517.72 376606 476263 497007 261728-66454-335496
1520.61-1229979-919514 66728-202310 13506 406683
1523.50 512522 359798 32580-415884 3074 366823
1526.39 260489 168037 414175 335626 314418 426644
1529.29 493745 481066 514848 353918 235358 287559
1532.18 193661-155808-421579-311720 327227 426786
1535.07 393704 353435 458274 460922 433109 183293
1537.97-511911-1918635-1368089-921240-1128953-210028
1540.86 37535-822572-844514 100819 391173 558004
1543.75 671883 266706-141727 276959 641814 720382
1546.64 764134 754079 764674 787164 790287 585073
1549.54 482789 629780 840322 865631 939492 1006769
1552.43 1132165 1165204 654830-22910 605454 1120220
1555.32 1138803 1063482 978902 201235-283081-1067812
1558.21-1231707-109050-561053-1389662-374589 794649
1561.11 906085 978799 1054637 1144596 1143489 1085191
1564.00 856354 736892 937385 1094022 1096291 1093736
1566.89 1038681 1002774 971699 854187 440565 113545
1569.78 631111 1025244 1058379 1106104 1060544 971494
1572.68 1017854 1127195 1060545 1030985 935678 134891
1575.57-1345541-643092 761127 972801 991064 1002735
1578.46 1048412 1046643 1118328 1166651 1172233 1101080
1581.36 1069103 1025149 1008225 1011078 1010106 915304
1584.25 902237 945222 1072262 1099594 1024005 894143
1587.14 864238 836090 778110 716806 676259 672838
1590.03 692363 637912 643636 619008 657423 668307
1592.93 634018 595310 560852 504307 526181 484460
1595.82 441770 411904 407027 412317 410664 385353
1598.71 407623 419709 355493 341333 331735 351631
1601.60 383039 342957 336780 321563 272435 222720
1604.50 241939 257022 271442 219568 126854 206231
1607.39 284774 278844 241209 176985 211897 254247
1610.28 278079 356488 359373 312304 249907 237437
1613.18 239748 225366 230943 298815 187663-511269
1616.07-1911054-1422094-24608 213253 250389 251913
1618.96 275238 273055 273004 280060 316924 282286
1621.85 247263 125843-269270-361722 161035 341494
1624.75 375575 393128 444800 368299 316053 88676
1627.64 168652 407754 529633 575685 620812 581318
1630.53 561227 573512 636493 620398 636790 589425
1633.42 614816 376070-247041-1054593-877573 272320
1636.32 645670 393584 363095 557533 551265 579825
1639.21 617011 609852 589877 568685 575272 634319
1642.10 680449 684866 686746 703393 643334 545142
1645.00-185065-1026823-307747 233251 87865 151945
1647.89 205380 444793 550082 611225 562649 472587
1650.78 353832-243904-1900789-2525579-2649265-1456512
1653.67-437129-423505 160244 371520 449706 402140
1656.57 426166 415668 464644 424402 447845 427881
1659.46 460272 472284 426581 354906 371855-20930
1662.35-314978 40649 390999 411994 440121 415466
1665.24 476155 497812 485341 429293 432508 296116
1668.14 91006-542669-493208 254362 435029 223948
1671.03 133398 311930 437716 483484 514837 467992
1673.92 339618-417282-847870-121898 425143 496535
1676.82 490165 466168 465994 474130 508770 389117
1679.71 318142 324823 418932 472457 488827 164279
1682.60-344482-421084-603222-2084266-2360708-470303
1685.49 240895 340548 387885 429318 317105 235954
1688.39 288541 331300 159502 150341 287847 395333
1691.28 431918 417240 340316 346502 300234 291782
1694.17 169769-447059-2189216-2222634-312137 300943
1697.06 261918 311690 354608 139934-798829-1817654
1699.96-1692343-957206 8430 367367 529862 637823
1702.85 671471 478518 164662 276080 621621 559458
1705.74 344297 528493 855070 909819 1047421 1153189
1708.64 1145278 1099372 1114682 1124554 1222982 1346112
1711.53 1468288 1431272 1419756 1397328 1325012 1274145
1714.42 1018476 1045329 1496561 1548340 913392-317643
1717.31 490834 1309081 1278889 1694926 1945476 1965017
1720.21 1971880 1937614 1875022 1819105 1794709 1821756
1723.10 1882421 1942600 1953200 1911513 1867163 1759047
1725.99 1703837 1634406 1650257 1589223 1495634 1427778
1728.88 1287011 1088775 1092374 1307460 1333030 1266663
1731.78 1154691 735476-284665-241553-321316-795829
1734.67 181345 751696 818935 753877 702184 586368
1737.56 619395 632869 480882-135921-330015 162471
1740.46 407249 491179 502393 368554 268791 237815
1743.35 328179 354492 363867 336355 300498 250504
1746.24 182091 122880 204937 85250-118463-97649
1749.13 75066 101228-119769-754152-708427 22788
1752.03 228245 186967 217174 253245 270957 268321
1754.92 257861 143899-133167-304520 24320 209506
1757.81 214664 194381 217271 259586 322539 252762
1760.70 54519-402260-273634 131070 254538 337710
1763.60 401678 348905 328175 317431 376673 413019
1766.49 416076 279997-168011-109166 374712 477089
1769.38 529656 455072 220705-16546 153110-369844
1772.28-904981-94291 509221 562448 515677 448803
1775.17 417516 535233 650225 651079 662669 686310
1778.06 692133 618993 645048 582635 424046 460337
1780.95 608988 610955 663912 675918 682127 662919
1783.85 600538 339322 430747 630111 668421 619148
1786.74 662200 725628 738346 675550 661023 688042
1789.63 764235 603134 550965 746564 501141-147352
1792.52 97997 704818 859686 878815 866250 825032
1795.42 740441 742968 766344 766791 784908 783592
1798.31 796714 636150 578569 793983 812347 674549
1801.20 710808 656997 609132 810026 877510 760664
1804.10 684820 702861 731776 753580 755291 707759
1806.99 594813 556452 627915 669463 640477 558515
1809.88 429635 376545 498187 506140 448931 453006
1812.77 442151 377236 397273 399812 372476 360604
1815.67 379569 355588 301669 228041 256401 371902
1818.56 404953 330004 268558 257251 259580 268003
1821.45 257476 192467 217816 232492 192011 112896
1824.34-104645-243484 32183 205626 287349 257512
1827.24 233086 225507 113032-12384-112456-283320
1830.13-40920 178088 211429 195816 205411 242795
1833.02 259542 191404 178847 172479 163040 231225
1835.92 241278 153819 160778 142555 77847 57971
1838.81 119192 155337 128767 141600 166472 137339
1841.70 134745 148551 101022-214128-827866-578209
1844.59 3207 92726 134303 166852 114702 69412
1847.49 128131 169180 184975 147460 133161 135545
1850.38 159763 131709 153026 192492 231316 260232
1853.27 285398 236317 212683 246485 305023 348470
1856.16 339211 285325 267574 271037 347513 375681
1859.06 361973 332254 324463 348014 365993 385813
1861.95 435895 464550 454511 434707 450678 482375
1864.84 505401 478055 421444 422984 397757 306026
1867.74 339812 276684-53579 5602 297303 323794
1870.63 315878 356622 362499 390967 495576 457862
1873.52 391062 381803 421075 363012 304752 322135
1876.41 319341 259141 244354 188973 181708 165340
1879.31 150445 149356 152045 112235 124821 102813
1882.20 96068 86094 64934 64754 94385 92980
1885.09 123712 92451 25595 46871 94731 88010
1887.98 43507-15692-120838-62572 39384 27700
1890.88 60442 24224 51082 89834 68361 49394
1893.77 75731-19238-69020 16168 8335-25811
1896.66 62402 72390 41687 78330 138853 117339
1899.56 143095 89380 20095-18709 16275 74022
1902.45 91296 91928 78399 86647 100666 45856
1905.34 85483 141507 194244 168387 153910 172497
1908.23 220862 209120 142582 125329 180588 241109
1911.13 315873 332054 336204 372528 395552 376622
1914.02 413521 471586 510922 528563 560643 579799
1916.91 520704 323566 502984 746773 691881 640775
1919.80 723867 829472 926857 951673 997581 1044341
1922.70 1064824 1151466 1283292 1392934 1384431 1318928
1925.59 1347616 1393384 1426016 1454285 1515159 1521568
1928.48 1538471 1570097 1620122 1652395 1710344 1750297
1931.38 1787884 1820118 1854450 1863761 1792974 1761840
1934.27 1801801 1747940 1680737 1713100 1754973 1713637
1937.16 1716063 1675750 1601871 1601601 1579571 1535150
1940.05 1465482 1459930 1550769 1494073 1367270 1350077
1942.95 1315358 1213419 1177216 1183362 1137822 1118444
1945.84 1103534 1020580 1010980 998405 1002955 1007427
1948.73 960889 867906 795586 743220 749302 722002
1951.62 621890 522404 498187 530569 557050 498004
1954.52 487101 465242 397394 381771 382617 330530
1957.41 277248 277623 287758 255736 183497 134742
1960.30 163602 149392 165155 190717 138485 63459
1963.20 87069 102607 128318 100936 42206-4623
1966.09-30050-84057-64336-12649 74773 104918
1968.98 96809 88246 74515 45478 51691 77179
1971.87 84753 37534 12873 20297 24190 10054
1974.77-27119-25242 18223 55043 32343 4865
1977.66 4666 35032 69946 2837-382 47850
1980.55 42037 69926 80893 5226-53100-59678
1983.44 16489 44678 34137 2228-27977-32554
1986.34-19719-10294 9848 10338 52118 33030
1989.23 7213 7212 51596 85151-5568-85225
1992.12-43714 23949 82608 55144 40519 63555
1995.02 59923 57098 122848 139414 112042 107334
1997.91 107459 57339 2568 15855 99962 114513
2000.80 88712 124143 142247 122208 105933 97467
2003.69 76095 88015 176995 210581 201641 154389
2006.59 131108 113394 92094 81027 89992 147149
2009.48 171547 161178 144923 146320 140758 72609
2012.37 97873 123946 87238 58727 88854 95615
2015.26 97002 97670 106436 65209 108133 121493
2018.16 142371 131132 120946 113092 138885 67910
2021.05 59458 142232 188826 128560 88961 69942
2023.94 83655 113136 135490 139466 117961 117171
2026.84 127757 139038 81617 37957 126777 155195
2029.73 124124 82327 80671 134747 187440 169150
2032.62 145627 119407 94176 118448 152988 130687
2035.51 130735 126172 134494 133439 164451 193556
2038.41 225369 201409 167409 184959 224326 228708
2041.30 218106 250859 294019 258410 263698 312851
2044.19 328812 311970 321687 366688 392795 371960
2047.08 374807 391305 462196 479776 472173 524432
2049.98 535643 504609 557274 605145 680331 674409
2052.87 688974 706192 734759 720198 725427 776635
2055.76 792153 857447 955940 1012589 949695 943853
2058.66 1032291 1065712 1106566 1169078 1219604 1291634
2061.55 1302795 1291010 1353256 1395548 1398855 1274965
2064.44 1158272 1161282 1134245 1042789 945140 879966
2067.33 872704 905429 935794 944558 935606 938659
2070.23 992414 1001535 995976 1000673 1006173 986488
2073.12 969875 905481 890283 891021 855408 806816
2076.01 721532 675271 715903 698732 684876 620066
2078.90 567214 542509 516443 463376 425851 453783
2081.80 413911 388023 439005 498549 482012 417982
2084.69 385620 373230 393575 399402 394564 358812
2087.58 349526 302322 300708 290676 282472 334844
2090.48 284551 214508 253644 217702 188500 196738
2093.37 197998 184904 243341 224576 196308 165350
2096.26 200112 200126 137351 88117 156654 257412
2099.15 211312 179130 117746 64115 61862 61176
2102.05 86184 207454 201570 64033 42108 15965
2104.94-5580-3488 17122 85817 181648 88028
2107.83 19971 70717 52743-6034-10282 68233
2110.72 197561 214633 86562 24446 20901-7245
2113.62-45247-59397 41962 226095 184729 80934
2116.51 58978 51081 21091 39256 101240 173195
2119.40 192263 75198 3901-31580 17002 34229
2122.30 66551 129857 177859 60161 6464 20069
2125.19 77671 50264 12485 72383 203238 161462
2128.08 50049-2837 24248 71383 43665 94937
2130.97 178531 136412 61920 33669 37185 23169
2133.87 86320 155972 180365 127825 75381 120776
2136.76 105959 81101 169599 211557 233111 218244
2139.65 201912 210377 210135 129112 177771 207347
2142.54 157762 180380 248220 276682 284535 277276
2145.44 341975 398492 445932 462031 449313 448209
2148.33 519994 559894 585501 583407 618866 658888
2151.22 665950 705000 774623 719211 682724 788760
2154.12 931536 942602 948346 955698 931789 872029
2157.01 902316 1045352 1151701 1114837 1108687 1105182
2159.90 1161127 1147182 1117310 1251766 1246807 1126384
2162.79 1167803 1168694 1193064 1197171 1339036 1501803
2165.69 1462008 1402612 1447341 1412291 1396340 1484415
2168.58 1685382 1650981 1452901 1362739 1346776 1223612
2171.47 928831 827178 847380 767503 731794 678284
2174.36 613345 599673 716793 833129 718526 628975
2177.26 646683 617679 611368 725301 849505 673825
2180.15 524378 468712 366715 301932 374038 496181
2183.04 363613 225696 270672 227440 177757 218411
2185.94 355761 321745 216408 134166 86430 70382
2188.83 104262 175759 143479 62158 53100 40736
2191.72 43930 75490 157805 96150 3092-23047
2194.61-44107-25515 18665 66566 39971 13021
2197.51-19757-18235 7067 18799 115512 112711
2200.40 32186 54 98662 148322 167342 127400
2203.29 22579-30757-29752-19990-56965 19625
2206.18 82415 31923 8847 31611 133448 127841
2209.08 31087-1795 27605 53435 49153 40597
2211.97 66838 74460 23949 2202 78727 136889
2214.86 97792 92389 105820 80307 103992 100839
2217.76 53478 46588 50284 49748 107006 129775
2220.65 146255 129126 106396 146552 189013 139158
2223.54 84712 61543 121539 151097 148868 136687
2226.43 121616 146892 220895 235065 209552 166104
2229.33 174904 173318 191089 202875 209931 189078
2232.22 196301 244028 238638 202869 233101 282458
2235.11 322764 301275 301839 354100 401524 424333
2238.00 417253 446742 454402 420593 449988 513749
2240.90 545006 548791 529892 586967 671344 706267
2243.79 768788 804042 819086 839469 821104 854472
2246.68 954933 991788 1002026 978265 1008612 1048178
2249.58 1118895 1173160 1207304 1213640 1237047 1306896
2252.47 1360549 1344075 1359463 1381849 1396753 1402406
2255.36 1461988 1521361 1539788 1503761 1532604 1591691
2258.25 1619709 1660441 1670515 1613183 1609310 1609508
2261.15 1671345 1786582 1745145 1700742 1746241 1770718
2264.04 1804037 1859881 1856447 1861361 1881683 1861440
2266.93 1950052 2079694 2129157 2169685 2188583 2215882
2269.82 2265145 2269167 2401260 2488108 2585592 2685957
2272.72 2803625 3009019 3241816 3332294 3382997 3502578
2275.61 3552604 3527454 3532200 3483370 3476697 3533087
2278.50 3609497 3707245 3847811 3817259 3668510 3649565
2281.40 3685614 3697152 3788135 3840862 3747886 3538038
2284.29 3347122 3147864 2947520 2822391 2674423 2494318
2287.18 2282240 2038615 1932801 1933895 1825834 1640178
2290.07 1489174 1361736 1273292 1224881 1160578 1099532
2292.97 1047825 991412 953459 898864 886006 881929
2295.86 883347 809926 709694 666694 622536 558622
2298.75 575746 514813 456956 452599 593409 660084
2301.64 596507 477866 501772 529490 423709 325267
2304.54 379293 453970 453301 374180 325063 425699
2307.43 433740 365787 285471 242458 299922 257031
2310.32 142494 125540 316898 306257 135004-3458
2313.22 184012 295709 155232-132474 39294 203554
2316.11 106419-235637-64487 215064 165240-242010
2319.00-125746 196590 57275-474611-349482 105224
2321.89 38219-531686-482910 53548-65883-701323
2324.79-485462 137207-146275-793582-532780 33678
2327.68-392804-1028964-557471 69073-527432-1095975
2330.57-404182-6689-889109-1206481-219661-64631
2333.46-1070920-958677-7969-427032-1211610-494501
2336.36 51119-838838-1088044-119959-246565-1166504
2339.25-714238-17860-724152-1041066-272817-309572
2342.14-931980-465130 10080-564968-709020-107033
2345.04-175444-417376-57618 103463-125030-37944
2347.93 154702 173705 54189-14611 44068-57340
2350.82-336999-178084-60224-547799-480107-168755
2353.71-709720-647393-155460-840596-842646-242972
2356.61-931190-908418-340249-1134713-959497-486855
2359.50-1318598-880985-591827-1342708-659258-742746
2362.39-1312845-588547-1018925-1055704-481185-1052251
2365.28-615687-609903-1059692-496866-819887-632888
2368.18-482135-813390-406442-632570-437748-363631
2371.07-537195-268295-335000-160668-262308-225468
2373.96-147116-94942-8388-83570-30422-11603
2376.86 89915 51364 56647 18188 37004 57406
2379.75 65271 25744 86491 174263 175966 119480
2382.64 189637 298195 372239 390410 361307 356552
2385.53 395459 417610 416501 446466 459942 512130
2388.43 609869 624700 570802 562566 626838 681739
2391.32 826761 889939 851130 846506 893613 930852
2394.21 913025 902792 941013 1049634 1132677 1158567
2397.10 1279593 1435595 1582371 1686168 1775070 1773181
2400.00 1844486 1996105 2017847 1997078 2012756 1941416
2402.89 1895322 1888133 1847085 1818830 1822551 1821991
2405.78 1766925 1789619 1925919 1949562 1961526 1968501
2408.67 1939194 1933966 1935784 1940085 1927976 1907550
2411.57 1891778 1876250 1888432 1882991 1849890 1766886
2414.46 1724242 1659641 1620803 1642978 1659255 1561977
2417.35 1323848 1171038 1040000 909441 891565 917752
2420.25 891909 868764 821854 746134 776252 785180
2423.14 691331 561138 500097 425432 383894 350697
2426.03 323784 269207 202915 186410 247903 247351
2428.92 222534 251796 298075 283843 277154 284318
2431.82 292837 330567 367428 366790 326082 307718
2434.71 317121 373284 412203 424802 425962 398160
2437.60 398103 388992 420709 376489 313595 313203
2440.49 340584 375569 387138 352277 340163 405578
2443.39 407544 401720 433436 436972 396950 373071
2446.28 345708 308453 261426 299748 299235 280626
2449.17 258441 213473 241521 254505 166676 136727
2452.07 160361 210606 265948 195623 116640 120640
2454.96 130814 102080 95465 76134 6710-63607
2457.85-46173-49333-96722-92703-83580-162842
2460.74-240307-196757-152582-157139-155328-195352
2463.64-200126-211610-176585-184905-248411-235411
2466.53-180812-198260-181339-149425-150719-189214
2469.42-233175-193749-226560-251541-213713-190888
2472.31-154456-175947-141751-103258-115605-164423
2475.21-143695-133007-131938-54986-29600-84295
2478.10-93687-44481-62830-8887 56131 46055
2480.99 43515 109115 181484 205951 166517 203482
2483.89 317198 315705 311280 381588 371960 315695
2486.78 328600 413913 492945 469412 487264 530994
2489.67 588437 608842 616535 715896 867953 922319
2492.56 948441 1011970 1067088 1081293 1143541 1184735
2495.46 1204244 1165664 1198085 1267514 1240527 1226520
2498.35 1280312 1320473 1364930 1454936 1527120 1546856
2501.24 1629500 1628862 1601764 1649164 1631598 1655763
2504.13 1668455 1567840 1352205 1176551 1132917 1157792
2507.03 1139506 1082418 1056137 1054654 1080753 1140717
2509.92 1162834 1144496 1068657 1053606 1097519 1096593
2512.81 995564 884607 838555 801951 690020 653748
2515.71 595945 605169 600948 523331 455196 425790
2518.60 338729 280853 292336 240211 264130 323292
2521.49 143242-7300 49861 161858 153888 80206
2524.38 117168 125904 106247 20810-2148 11813
2527.28 48821 83765 22224 23951 45969 79015
2530.17 110227 112454 84551 49840 2482 89525
2533.06 183700 74145-6954 18230-13739-30360
2535.95 12036-24188-33382-8337 27642 55375
2538.85 60118 50736 17225 9532-11493-56434
2541.74-48079-24178-55669-73472-75149-62087
2544.63 21753 48801 35868 9228 20763 18460
2547.53-22083-7253 5826-4497 37771 35922
2550.42 22563-26847-63578 55048 66557 3551
2553.31-4221 87654 158188 134353 123677 155559
2556.20 163421 133644 195210 255332 280256 277005
2559.10 295628 320007 315817 276116 268875 316251
2561.99 327884 323832 358699 397419 381274 420333
2564.88 435847 424669 469064 441186 387279 402229
2567.77 460681 449360 385947 356129 354203 354227
2570.67 323028 324835 323065 330232 416598 365748
2573.56 288152 305970 385642 391966 403743 404323
2576.45 379894 379153 310554 194620 198522 188195
2579.35 184962 240009 264710 276496 215275 154678
2582.24 162172 175193 188815 202659 136249 90058
2585.13 129781 220364 238349 170242 146524 156582
2588.02 170518 168518 154943 176967 201160 250470
2590.92 244616 247690 279685 322123 361924 334841
2593.81 336118 340317 363239 460930 532937 517995
2596.70 555851 566827 513378 449762 505181 554153
2599.59 481800 445899 477885 414905 382658 477617
2602.49 553460 623461 536826 413293 498768 656396
2605.38 647155 535816 542572 664534 772432 714763
2608.27 479100 295265 335664 384326 345062 369734
2611.17 392611 410670 424220 309460 116498-29340
2614.06-150179-251917-293901-264255-219871-255043
2616.95-281953-308230-243411-239131-100156 75923
2619.84 60764 79502 88245-32656-78688-63313
2622.74-146885-175505-159669-118583-128885-196376
2625.63-199607-278362-384562-334774-222286-171430
2628.52-215697-310982-243754-203565-224944-220152
2631.41-185183-136978-185710-232860-222506-218714
2634.31-141101-94399-84682-101602-122384-141650
2637.20-99951-55773-58737-37692 20643 2685
2640.09-35326 44240 97788 25013 73050 89188
2642.99 17087 40363 123531 211819 241151 191784
2645.88 187289 180567 236978 362472 330653 229161
2648.77 201407 171045 178779 231764 277181 342708
2651.66 329533 338299 392778 358946 349495 333298
2654.56 315207 360035 450831 398202 376295 340574
2657.45 347645 338128 323671 402890 395346 372372
2660.34 302686 277592 303437 293492 258620 262269
2663.23 313238 380103 363908 317926 366576 401948
2666.13 324694 295120 312268 344505 372703 348632
2669.02 235283 183709 232772 309774 331683 292906
2671.91 266103 235775 202163 178544 252641 329643
2674.81 332671 263786 187332 170526 141824 218782
2677.70 240108 207256 234638 227295 245776 273039
2680.59 197776 121374 67754 93812 189889 221473
2683.48 195074 132970 112181 129660 145524 146877
2686.38 171507 165552 230573 315610 305048 322062
2689.27 262842 192567 135828 88029 112464 137649
2692.16 52283 12672 81053 35206-48776-28903
2695.05-29314-61226-49449-60961-13665 14501
2697.95 29000 39135-35974-131970-108175-20486
2700.84-41124-75408-37341 59097 27743-106400
2703.73-152557-118425-90041-37534 41442 11638
2706.63 42005 1436-37275-27836-83021-86118
2709.52-76404-105382-74777-79051-113863-122616
2712.41-62932-47615-102245-163725-104796-81473
2715.30-138523-156664-173671-145347-98572-92185
2718.20-124064-95991-102656-117515-34400-47080
2721.09-186438-192632-84346 3475 49947 32077
2723.98-82833-172158-126435-51461-88742-69809
2726.87-57941-84653-81569-66079-18449-10952
2729.77 6591-58456-80462-77335-40755-45713
2732.66-66079-17092 38479 23685 61025 95204
2735.55 68413 50283-23001-75448 14399 67193
2738.45 66616-539-9041 67882 96183 41862
2741.34-35053-50590-15776 5481 56129 59188
2744.23 74910 30891-32447-16321 53468 68550
2747.12 28355-29259-441 43013 11431-22282
2750.02-30630-20419-36222-52910-77570-175536
2752.91-150010-92676-32317 72327 46689-47409
2755.80-86587-104798-111806-164337-158004-94785
2758.69-85296-82270-25193 27021-29322-108426
2761.59-132835-116972-125680-160096-119245 10401
2764.48 29172 23677 7736-44381-39837-94139
2767.37-50308 43658-3024 2000 41913 77387
2770.27 67836 75599 92004 162960 153968 66341
2773.16 46001 2503-40440-18044 102968 147199
2776.05 84232 93648 171635 154539 8616 20720
2778.94 158404 142837 89472 94752 150662 157181
2781.84 92598 77657 130324 147386 177126 216079
2784.73 179497 127866 63028 35392 124271 186827
2787.62 217652 181617 80771 82005 196412 193522
2790.51 144819 118488 148427 89975 12038-1410
2793.41 95485 187469 142456 88307 197116 238260
2796.30 204653 109172 82322 25073-95626-94792
2799.19-31640-6056-13-20681-24977-42362
2802.09-75812-12789 7220-48150-35383-9853
2804.98-55173-26 42462-21021 304 78518
2807.87 121212 122779 16011-1296-4992-8985
2810.76 26201-59147-145390-149940-52599 62987
2813.66 178427 85267-90947-126345-57676 42974
2816.55 10598-67396-19622 78929 53805-13200
2819.44 93393 138325 134919 83893 62080 100835
2822.33 48502-103 40857 46746 25129 66583
2825.23 109131 130794 96377 128553 189708 193994
2828.12 170510 241377 279162 297961 325688 257471
2831.01 290262 394043 477872 497151 511630 505642
2833.91 464459 434194 453763 485130 507061 569954
2836.80 545537 611645 778136 749799 691824 651316
2839.69 620521 685242 729542 799076 835815 821774
2842.58 825517 747717 713559 759809 758999 804414
2845.48 922049 904516 858263 952345 1079544 939595
2848.37 724067 617132 640115 737404 786381 652610
2851.26 574232 566542 573921 541800 495310 506000
2854.15 517343 469519 535097 553041 500262 446194
2857.05 395386 366349 381114 404761 484182 447061
2859.94 345374 378318 383327 306229 278514 349608
2862.83 338353 279732 304032 382905 336250 241873
2865.73 233770 243987 171726 193457 305207 291839
2868.62 250228 208792 189933 177006 179158 215734
2871.51 262731 231303 195636 267525 273352 191957
2874.40 118314 92999 130351 204152 144623 98844
2877.30 140439 54185 7772 61476 108649 51785
2880.19-49243 18832 55198 72182-5504 5379
2883.08 113461 5156-106544-153416-181869-121750
2885.97-118763-124098-75699-72514-62837-15504
2888.87-28893-35103-70506-68525-57740-74511
2891.76-83218-120337-131230-21836-59944-87474
2894.65-114749-164638-160693-64276 5243-27005
2897.55-86645-43673-10524-13716-16899-64373
2900.44-157996-210434-169360-49446-72146-165948
2903.33-192466-227332-228105-278379-287755-185878
2906.22-156560-113502-66362-235251-242063-161847
2909.12-69479-76496-137400-115041-170272-182235
2912.01-82366-45784-72589-179913-252858-225531
2914.90-217253-119773-76858-136509-85837-41491
2917.79-171079-193330-115676-135266-60625-33669
2920.69-174582-268611-182108-13098 42447-35854
2923.58-130449-117910-60766-93971-71828-104775
2926.47-166074-229905-225747-54442 66319 27549
2929.37 18598-24431-64264-122048-108070-45728
2932.26-4131-78669-38407-27599-84509-108474
2935.15-103489 31334 83242 66903 16218-21676
2938.04 30184-1907-33616-23007-20442-80080
2940.94-148830-205808-199185-130144-59917-44187
2943.83 22126-50660-60298-93052-92279-38971
2946.72-70398-86685-147989-162225-118780-134972
2949.61-156205-119086-76797-53770-23048 34959
2952.51 34908-1944-12937-25399-77982-70111
2955.40-101505-64526-56067-79607-148248-103634
2958.29-16826-9291-71270-138304-156423-130664
2961.19-170464-76271 67701 55129 34430 128063
2964.08 189518 167756 218773 214710 123557 101636
2966.97 72394 149563 221455 277365 377496 393481
2969.86 480029 534993 534503 557849 593270 770470
2972.76 938578 945007 887560 994154 1179849 1290949
2975.65 1517599 1713565 1816574 2042038 2299737 2465098
2978.54 2732938 3086232 3378121 3606208 3937467 4317200
2981.43 4737989 5131278 5609786 6220430 6767997 7339573
2984.33 7918140 8613268 9278119 9874838 10527548 11277693
2987.22 12115138 12926728 13672996 14314845 14774312 15176715
2990.11 15561782 16093524 16454573 16642237 16858970 17167305
2993.01 17420257 17483769 17601614 17785401 18107724 18511137
2995.90 18959158 19401223 20140518 21344839 23013294 24744937
2998.79 26121674 28087203 31477577 35912114 40558029 43032551
3001.68 39817827 32775247 26521732 22220559 19602483 18262998
3004.58 17621024 17077220 16744106 16569349 16407399 16188913
3007.47 16135696 16158048 16101192 16021721 15904281 15718907
3010.36 15431038 14991981 14443645 13931209 13445591 12766313
3013.25 12107912 11474765 10706060 9938677 9183883 8452513
3016.15 7753911 7100073 6457888 5833734 5315865 4680664
3019.04 4101356 3752787 3428705 2986388 2619673 2279378
3021.93 1934950 1585826 1357540 1248367 1159339 977155
3024.83 817871 765555 660009 526047 393310 436741
3027.72 399002 268970 217510 253477 179910-2406
3030.61 29199 108602 45277-26205-64617-106773
3033.50-99567-28570-99816-41893 71876-13447
3036.40-163780-146888-61994-56746-29098 26170
3039.29 37888-112597-121541-88771-158659-147444
3042.18-191257-247325-125333-112932-161972-162546
3045.07-103712-141210-190521-248964-297529-195709
3047.97-118948-16019-9678-45963-85259-156736
3050.86-135168-106841-76044-130578-197541-165269
3053.75-59782-98747-231452-268261-171098-86287
3056.65-41907 10049 69886 136800 24727-121963
3059.54-92334-59219-65656-20269-6141-41980
3062.43-29943-29076-48478-80119-128756-25910
3065.32 131784 134349 70244 26069 25054 34243
3068.22-12931 295 31127-17047-23112 18888
3071.11 16690-21008 20919 85603 17676-10208
3074.00 116297 151463 92409 18205-5684-7297
3076.89-28387 18539 32313-86783-104255 8678
3079.79-6138-35934-37870-93576-81283-77637
3082.68-69592-44551-74695-105192-53463-54665
3085.57-67161-54780-124995-122951-5032 23783
3088.47-79644-133995-115764-95378-97215-131496
3091.36-169697-109286-16842-50110-65188 15388
3094.25 4684-186187-237817-159936-150550-256090
3097.14-291484-258765-210245-219873-274833-154118
3100.04-117068-71190-25277-185178-199472-71905
3102.93-5091-13736-59624-123482-160026-58342
3105.82-59342-190338-254088-233286-226719-186246
3108.71-162248-161094-134910-80903-112364-239179
3111.61-241324-162040-102941-109074-26437-6401
3114.50-177873-276650-185088-90311-101831-136106
3117.39-183210-63899 4009-52064-29022-48830
3120.29-66653-36508-6631-101024-137459-11071
3123.18-86726-162095-74189-16348-85561-163161
3126.07-143600-133639-126224-103328-113704-95346
3128.96-103769-83236-72297-87890-133516-114097
3131.86-4431-51785-200059-121340 34680 82455
3134.75 24058-1751-41626 86731 51800-62912
3137.64-109383-116764-60871-58945-163015-153053
3140.53-138974-103296-130842-104579-132164-98248
3143.43-114723-46280 82160 41287 17124 25290
3146.32 49420 56555-19531-140463-189215-160861
3149.21-74727-49994-57727-42324-76300-43207
3152.11-59559-167773-135858-28588-43722-114058
3155.00-138400-98380-47611-67404-125024-111561
3157.89-110808-47586-24230-99363-249077-259243
3160.78-180861-94186-135052-220338-179362-112877
3163.68-25962-40291-119123-118785-51480 23690
3166.57 2540-27146-91873-234672-166351-124697
3169.46-129047-76924-102175-129540-108986-45280
3172.35 52809-89198-211409-142837-63115 6877
3175.25-66032-49243 65630 32241-57790-202871
3178.14-187583-103381-118452-137542-37547 7542
3181.03-58466-69458-112536-104601-64856-72150
3183.93-47613-103726-185216-198594-120705-31977
3186.82-37207-67190-28433-49084-69296-32555
3189.71-69248-83526 43510 89416-70315-61671
3192.60-6967-73516-92713-106508-39370-1474
3195.50-71088-136682-63477-53708-105485-46401
3198.39-80818-6584 10083-65441-135321-153188
3201.28-112821-119556-128388-141569-28768 40576
3204.17-27646-55982 4826-12870 52622-15504
3207.07-173661-177393-88137-143522-219213-144775
3209.96-142651-96576-9336-19940 107195 144253
3212.85-73987-163482-160032-78114-9321-78740
3215.75-120513-139358-116613-25279 71460-19032
3218.64-97545-146352-101908-114291-31148 31655
3221.53 11525-158786-176400 48873 7689-157059
3224.42-136236-59193 1433-2198-134313-199526
3227.32-172026-118437-108142-91696 26851 72682
3230.21-34347-61639-48391-46381 6175 12176
3233.10 50383 41683-40723-153861-102964-34114
3235.99-13797-18351-23952 26091 125560 70806
3238.89-21221 65828 76323-70791-41128 115202
3241.78 18990-139126-27285 14164-22406-43503
3244.67-78886-64533-36430 59895 72879 82343
3247.56 70494 9149-39715-53586-76510 10076
3250.46 74152-42629-113747 12942 95914 93714
3253.35 84551 17262-17132 8646-48253-150345
3256.24-87593-121993-285158-347087-220329-97289
3259.14 41146 122095-17532-30914-45638-211122
3262.03-268406-191070-132306-70453-43038-65474
3264.92 19002 73487-60147-188204-228917-211139
3267.81-140435-40811 99005 82662-77150-19179
3270.71-43475-255539-308489-214103-115165-115842
3273.60 2184 164202 163298 16145-113503-39263
3276.49 111088 121477-9632-115841-133953-171103
3279.38-214321-29043-19294-147119-232491-243155
3282.28-286706-228911-181685-299948-307360-71905
3285.17-7734-72925-32701-4313-93827-126164
3288.06-172452-85554-10844-40683-175561-249869
3290.96-155576-43430-120764-258208-308126-295454
3293.85-172331-10657 40696 28741-11762-284
3296.74-15650-43118-80806-218596-331985-324522
3299.63-295035-248954-170212-132782-163890-79238
3302.53-28918-55420-152345-205898-235518-175606
3305.42-41173 30989 34545-30736-152334-216941
3308.31-216212-177461-158353-170638-64733-16537
3311.20-35340-81466-202033-213155-200703-218343
3314.10-209573-224962-227265-226035-113898-92206
3316.99-92424-108685-211117-260276-216178-175881
3319.88-178074-165744-122765-108347-64616-78225
3322.78-159655-154819-117596-126704-174089-175673
3325.67-269432-306008-142331-170573-118646-7233
3328.56-137470-305364-131558-2352-147444-194435
3331.45-121391-124283-265758-318916-231752-234216
3334.35-122454-21060-89463-166373-198072-276157
3337.24-200969-95017-99041-183801-146896-97136
3340.13-129492-79658-10894-8360-45934-239388
3343.02-308741-249632-170509-205420-317025-278335
3345.92-246049-235235-155466-111818-77733-40619
3348.81-163441-195152-193779-212376-159061-148501
3351.70-207775-290951-270512-213597-108674-159186
3354.60-137992-232708-249700-107636-127628-277702
3357.49-210443-83788-51716-154879-316583-252685
3360.38-257710-237618-80895-61079-84106-90891
3363.27-126116-197919-220716-183476-247269-321737
3366.17-217984-112944-279457-263966-40157 78955
3369.06-41844-168763-138307-162964-295212-286618
3371.95-115781-23773-168739-316932-283891-208164
3374.84-235062-176264-155543-187310-133169-82263
3377.74-94053-168129-171942-181715-155018-158083
3380.63-168778-194868-177978-229249-254523-192050
3383.52-191077-287247-281673-243615-216102-263270
3386.42-278499-110047-7151-92940-206747-174958
3389.31-142888-137794-176881-162558-110328-168421
3392.20-184199-212075-172833-258928-424881-471607
3395.09-303375-144452-234065-202296-171478-267245
3397.99-346959-130353-40760-255141-162531-14414
3400.88-128271-330276-262968-105546-167274-247004
3403.77-280024-106863-82792-100923-72862-190433
3406.66-276302-252170-319506-276654-190561-187416
3409.56-213703-324220-292843-225034-242740-282559
3412.45-225211-313197-326695-220272-158638-157863
3415.34-246637-289842-221582-270239-280619-227792
3418.24-301404-275059-252822-263064-271893-283586
3421.13-360205-329811-219726-169349-144672-232948
3424.02-354635-317136-280675-343773-398064-308466
3426.91-234932-368362-318521-260880-213551-166017
3429.81-278722-381865-368947-296358-377223-390497
3432.70-335507-321662-239964-318855-438146-422192
3435.59-277027-301581-398634-393880-307997-226404
3438.48-278858-337596-264319-343981-450828-320897
3441.38-215408-321467-412350-334679-207409-278313
3444.27-397838-316180-337999-446231-426891-310716
3447.16-356437-223723-88847-169787-228224-96832
3450.06-259234-559813-434204-247246-229222-255946
3452.95-417900-427020-329667-280475-121736-88107
3455.84-202431-337506-380896-301506-204019-163229
3458.73-225154-247282-239633-329082-434208-315834
3461.63-226405-277955-379847-400000-270988-197397
3464.52-271693-371209-450912-422150-352367-389931
3467.41-400373-374393-274705-316604-435180-412967
3470.30-362545-327692-369802-405943-314695-206343
3473.20-249264-339049-377954-426933-361895-374232
3476.09-434586-455559-329141-314024-331728-213003
3478.98-230392-397434-382423-247953-274314-372946
3481.88-438110-457892-357326-334018-445050-428849
3484.77-341573-357761-326419-254699-400223-452849
3487.66-317235-200481-240765-298902-410961-478603
3490.55-460975-339846-229957-141408-150045-182545
3493.45-325705-426439-442494-436638-382841-376932
3496.34-434376-464407-442376-344624-253665-295043
3499.23-282623-343941-425012-385272-157382-149549
3502.12-295504-372606-386251-472827-517032-404282
3505.02-389624-399771-353419-380412-403109-344027
3507.91-217981-189136-266574-417029-493813-374446
3510.80-329819-372477-394153-358320-324669-410598
3513.70-420211-318366-225507-185803-210296-286210
3516.59-385921-449358-394994-387960-453376-460860
3519.48-392050-239729-201638-265129-384539-364796
3522.37-298064-187453-161890-358718-486260-469230
3525.27-399097-351623-318512-367113-397262-354167
3528.16-330520-426605-449275-321583-332528-325776
3531.05-268163-302181-373950-440827-460942-379222
3533.94-281052-402925-414966-330538-317115-325443
3536.84-361404-342446-292521-325346-259499-186474
3539.73-232824-245689-278644-403519-427616-352594
3542.62-393254-364133-340633-347231-488090-508159
3545.52-402179-498365-557525-472905-344812-304311
3548.41-210834-256560-334662-368357-374318-379136
3551.30-517530-464302-356640-380415-380733-400213
3554.19-448355-277049-204632-316023-422961-363290
3557.09-336742-385415-447979-319686-322231-465836
3559.98-407015-222775-211798-422238-378573-248185
3562.87-431979-422026-312313-299254-387893-478706
3565.76-550407-566152-475675-702393-872201-588350
3568.66-345319-304677-235859-287436-280984-235623
3571.55-276537-323809-304377-279246-239328-265924
3574.44-338776-364313-384613-278389-295424-366281
3577.34-349491-238300-271196-303024-351249-480042
3580.23-475599-301412-213368-281704-362221-396248
3583.12-380904-299696-307730-356458-328766-476135
3586.01-884107-736256-500211-615221-941441-935019
3588.91-464158-278604-296983-337931-266944-340883
3591.80-388689-430831-414573-268911-229510-311016
3594.69-549407-596492-444262-312280-271130-427645
3597.58-552934-514240-527500-521253-405449-384937
3600.48-424184-429823-422562-428177-482989-530420
3603.37-377242-303419-335257-399157-409178-483600
3606.26-680651-749839-566980-430856-767711-1253923
3609.16-795327-430365-468467-481315-525153-722790
3612.05-946811-657042-398696-516684-673274-576742
3614.94-515691-405026-403009-509170-682074-714423
3617.83-568399-590243-1036028-1184118-622584-444630
3620.73-541949-548143-608671-595743-452340-399647
3623.62-413473-466341-501797-519689-575901-595127
3626.51-554281-548537-1138132-1638131-1297150-1705484
3629.40-1459929-629344-510757-512319-458808-326349
3632.30-399417-587110-715054-537124-384219-424975
3635.19-376899-275664-308097-345942-434918-577841
3638.08-590968-571844-516930-328134-286769-415140
3640.98-597709-621169-506164-420067-423979-313891
3643.87-342754-493665-507555-406024-570981-886307
3646.76-1138694-949015-673136-1104545-1981405-1420185
3649.65-832132-1122834-1175099-880618-532452-486497
3652.55-540275-442267-388485-411823-511878-696614
3655.44-1208165-1458754-855170-558161-503701-495475
3658.33-503371-461251-476555-507865-498893-536503
3661.22-520210-519928-425285-427215-472635-464590
3664.12-396999-446546-482477-532165-508177-453241
3667.01-485980-588566-1016982-1171333-707958-699981
3669.90-1665869-2140637-1017767-467211-456459-488218
3672.80-410309-578557-820423-1363487-1447830-1858727
3675.69-2007874-908897-526060-485435-418915-540573
3678.58-687134-759413-642538-569378-470421-438063
3681.47-499689-526431-517031-509656-479855-519171
3684.37-494913-447796-394999-463463-509539-578819
3687.26-975299-2287122-2078476-759747-492902-582290
3690.15-809605-1091159-976850-641799-512343-402958
3693.04-416840-471001-563406-549323-565859-526551
3695.94-501807-447233-394641-476704-550412-557144
3698.83-561778-574389-577124-536670-685355-998042
3701.72-746123-445608-453251-414051-429378-481966
3704.62-481764-432680-450576-445331-467042-465638
3707.51-480324-576578-909767-1042241-630105-559678
3710.40-715100-769970-1460205-1729429-819727-406110
3713.29-448412-573275-646798-526985-388221-417831
3716.19-354137-300090-404914-470594-469254-544426
3719.08-517980-428337-394324-401824-453172-771109
3721.97-761733-551418-567133-557154-567795-679329
3724.86-580654-549659-802080-860630-603054-552847
3727.76-486961-420675-448243-547871-485223-477240
3730.65-591731-1101445-1743885-1191861-583897-511523
3733.54-677586-1094934-1195203-1027494-847952-1393206
3736.44-1494319-646664-479192-681440-654628-590699
3739.33-556607-657804-851519-864543-751981-612389
3742.22-481813-588101-1224270-2720389-3614805-2222085
3745.11-837871-573295-608134-669687-662983-593329
3748.01-740287-1996148-2876137-1615836-798172-816536
3750.90-1018609-2163518-2736195-1283405-626598-662313
3753.79-620133-575386-616942-599074-798605-921030
3756.68-569673-407199-511163-570569-699995-844569
3759.58-839919-653237-588562-491873-394331-436506
3762.47-479145-514550-558430-558248-502493-684770
3765.36-827565-638008-548498-468720-488306-481976
3768.26-492987-671018-1180617-1054082-605083-538166
3771.15-509843-484171-477172-485898-504104-573782
3774.04-564474-526036-557817-597923-588506-532268
3776.93-502433-328452-256703-524638-912644-887923
3779.83-665789-429287-313294-373111-453107-528373
3782.72-512090-559761-605788-657937-650072-619845
3785.61-547896-471526-487188-528187-513877-517535
3788.50-514996-468935-411606-390292-372732-428033
3791.40-515837-510487-525032-550997-424256-391337
3794.29-546935-550313-561243-830259-915594-674283
3797.18-543550-538543-460612-416113-443486-555369
3800.08-787660-1966340-2607011-1336487-705975-723760
3802.97-644722-512366-536838-585494-558850-473064
3805.86-792336-1739199-1574958-729955-591373-562799
3808.75-490844-416746-423599-491602-688314-629462
3811.65-465879-396504-529062-571190-662501-499446
3814.54-469705-1320614-2658228-1878975-711872-639509
3817.43-556869-404186-366641-547543-704824-944909
3820.32-1152459-1204428-1457853-929451-553873-528054
3823.22-519731-533971-469485-408751-435260-572470
3826.11-720032-690666-480293-492486-556691-546894
3829.00-525712-527980-641182-765729-1047031-929373
3831.90-527214-538096-563864-584929-719450-1121633
3834.79-956764-604722-485817-524330-1118654-2571015
3837.68-2198795-841799-621919-647386-708634-688455
3840.57-818608-643729-582570-525082-623974-885970
3843.47-881087-660398-572771-508392-454544-370567
3846.36-430287-491160-398464-344982-365794-412356
3849.25-526013-387208-292604-506848-1623407-2347392
3852.14-1304386-809233-1963610-3629388-2855448-962348
3855.04-371217-415983-459815-532640-496894-345578
3857.93-346730-359683-404625-445210-429194-372429
3860.82-580408-790394-611788-414042-369413-315444
3863.72-412160-877817-1156409-549146-222134-118154
3866.61-132383-299020-430345-503210-814060-1082501
3869.50-1734604-1309791-497906-528155-519234-439187
3872.39-571032-685109-784218-929716-713640-515282
3875.29-502148-466963-470137-446715-439141-443696
3878.18-452989-504073-751776-1148998-1072984-788123
3881.07-669949-509254-543500-568372-475524-390401
3883.96-515097-853290-1543267-1628723-903507-547153
3886.86-466629-498112-578879-580239-573775-606081
3889.75-600834-795280-1186154-924709-557730-468648
3892.64-429960-408855-417483-446567-426237-529070
3895.54-552818-543273-668145-708765-513375-565650
3898.43-978843-1319484-973058-542706-578316-931059
3901.32-1290374-999645-668896-586003-1001814-1493537
3904.21-1010961-658662-774728-761332-583392-559152
3907.11-586095-610660-557696-538799-549779-530123
3910.00-496978-572482-740398-740777-712151-640816
3912.89-646044-691943-618771-557873-567767-676035
3915.78-686347-675025-909461-769111-537378-619957
3918.68-669749-705213-754800-588495-510381-535569
3921.57-559970-576159-611280-702632-728925-706859
3924.46-671019-591064-577941-568543-571821-620424
3927.36-754356-765132-585055-626103-549848-533667
3930.25-577023-581915-618899-638894-704003-739562
3933.14-759676-578489-490572-512425-534537-577163
3936.03-695002-712129-667087-665865-650969-606130
3938.93-501372-558405-626754-608484-643603-603564
3941.82-563905-589648-608328-616163-550251-510944
3944.71-584692-517095-443850-580568-702291-556640
3947.60-604975-614256-577111-756946-905615-673703
3950.50-422114-429129-502787-560194-564809-519794
3953.39-490995-484670-569926-634422-617365-631585
3956.28-617124-572191-581073-553198-525450-566200
3959.18-617057-570297-515335-630406-705030-643759
3962.07-545252-505430-572123-666253-633062-564394
3964.96-523185-485520-478770-533503-498298-408333
3967.85-462522-496398-401493-322042-392752-508518
3970.75-548715-513986-480922-577660-602878-390266
3973.64-381798-466027
##END=
