##TITLE=Pentafluoroethane
##JCAMP-DX=4.24
##DATA TYPE=INFRARED SPECTRUM
##CLASS=IUPAC A
##ORIGIN=NIST, Analytical Chemistry Division, 301-975-3108
##OWNER=COPYRIGHT (C) 2000 by the U.S. Secretary of Commerce
##DATE=00/02/01
##$SPECTRA VERSION=1.10
##$UNCERTAINTY IN Y=2.0 % relative (B=1.0E-04,C=1.4E-09,D=3.5E-13)
##CAS NAME=Pentafluoroethane
##CAS REGISTRY NO=354-33-6
##MOLFORM=C2 H F5
##MP=-102.78 C
##BP=-48.55 C
##$NIST SOURCE=QUANT-IR
##SPECTROMETER/DATA SYSTEM=IFS66V (Bruker)
##INSTRUMENT PARAMETERS=KBr Beam Splitter; MCT Detector; Multipass cell
##STATE=gas
##SAMPLE DESCRIPTION=Pentafluoroethane Primary Gas Standard
##PRESSURE=101.3 Pa
##TEMPERATURE=23 C
##SAMPLING PROCEDURE=1 L/min Flow
##RESOLUTION=1.9290
##DATA PROCESSING=Happ Genzel Apodization
##XUNITS=cm-1
##YUNITS=(micromol/mol)-1m-1 (base 10)
##XFACTOR=1.0
##YFACTOR=3.6379E-12
##DELTAX=0.9645
##FIRSTX=575.652
##LASTX=3974.603
##FIRSTY=.000081
##MAXX=3973.64
##MINX=575.65
##MAXY=.0029057
##MINY=-8.77E-06
##NPOINTS=3526
##XYDATA=(X++(Y..Y))
575.65 22274571 30186610 46910270 43591331 29137606 25229896
580.47 24702993 26606631 29337337 32069863 33164709 32291703
586.26 29921868 26603280 22720561 18603433 14648052 11611815
592.04 8789446 6650121 5236267 4042762 2866181 2050870
597.83 1339072 1053084 1048085 1234436 881902 793343
603.62 853283 728187 554449 577996 409911 444341
609.40 536122 556468 367612 333445 388489 315053
615.19 378027 535317 552669 428387 357155 386556
620.97 422671 436358 302543 302984 275107 329019
626.76 444376 516954 254363 153409 257265 597532
632.54 769572 560847 277792 346016 605594 461895
638.33 421426 392997 368624 574727 780922 770887
644.11 619950 603859 542371 703547 909000 783940
649.90 764394 655719 623629 632499 512270 551657
655.68 698637 719795 654610 634754 663574 528775
661.47 600081 771787 702435 545036 444182-355600
667.25-616208 243687 615159 475938 360766 412223
673.04 410409 417084 476910 506862 478238 286112
678.83 257585 406539 434810 433069 244647 72749
684.61 145108 312393 262063 169092 279432 303783
690.40 297532 412998 581584 519880 497862 771202
696.18 1044600 1214036 1428933 1844867 2454063 3312163
701.97 4386515 5532289 7287971 9526398 12139535 15097384
707.75 18561492 22375020 26250913 29997976 33518419 36669055
713.54 39454250 41618351 44418972 49308530 54471252 62126833
719.32 78074157 81266154 68900006 57800841 49201487 51835506
725.11 73964267 95739529 84846877 68486617 58970228 52049564
730.89 48617983 47006969 45619678 43622418 41042069 37735116
736.68 33469399 28831707 24110609 19694196 15780603 12304982
742.47 9293742 7073316 5457951 4163511 3051461 2286540
748.25 1840157 1556535 1248833 990155 834413 743960
754.04 615034 704020 695368 608605 559041 621368
759.82 564084 594676 663805 567985 513946 651522
765.61 700244 751391 810402 813983 786606 832992
771.39 783267 783250 868644 964090 985025 997143
777.18 1044898 1095196 1057038 1145123 1291797 1335140
782.96 1334237 1308774 1318114 1358336 1214376 1128071
788.75 1086278 1205996 1245459 1258846 1317120 1405464
794.53 1304148 1289703 1275164 1260850 1067647 900510
800.32 922665 1131927 1080802 983702 967841 959945
806.11 866099 910391 873419 835617 836236 832871
811.89 757884 808540 851460 878461 769229 796990
817.68 726932 676494 612719 702884 793104 826834
823.46 823286 969167 980829 1107597 1266417 1387725
829.25 1464112 1296316 1067596 1251343 1431720 1561476
835.03 1705146 1983068 2249566 2612975 3108949 3728599
840.82 4340427 5219639 6399507 7923599 9710248 11750877
846.60 14081480 17062086 20402449 24097863 28212012 32736494
852.39 37470899 42390310 46840685 50463458 53324183 56384144
858.17 59279478 61941790 65113895 69376206 74324152 81680340
863.96 89935546 99514065 112927623 117326080 94418262 65182156
869.75 58592362 61366391 63869001 65054740 64882943 62656080
875.53 58748929 53169948 46685349 39715026 33036513 26856323
881.32 21630116 17244707 13786321 11117586 9234059 7925642
887.10 7062383 6377593 5881501 5464020 5232704 5061320
892.89 4806625 4478843 4272341 4073111 3868146 3571065
898.67 3634594 3763526 3737154 3640563 3519054 3318668
904.46 3073907 2783411 2510477 2257593 1952395 1669350
910.24 1553993 1435611 1254226 1214459 1314056 1320270
916.03 1246256 1269024 1382928 1436974 1539695 1617468
921.81 1604413 1656950 1796711 1882186 1901383 1915329
927.60 1955610 1970086 1999191 2078020 2177056 2252144
933.39 2364414 2434701 2448258 2405235 2364865 2349982
939.17 2240522 2071334 1999830 2008628 1907266 1778574
944.96 1634301 1504962 1364842 1189349 1065055 1050246
950.74 1005384 971821 911690 844530 727233 529450
956.53 464147 513316 547120 395114 326988 375548
962.31 377698 383110 418878 394940 369087 351720
968.10 359375 444142 502828 552235 544324 554986
973.88 544232 525254 475995 558211 619208 647925
979.67 739572 740589 696878 639837 584618 601147
985.45 660597 713957 700162 614733 565501 575538
991.24 489721 444657 466051 482547 502655 462970
997.03 337777 353947 487466 505250 493546 460185
1002.81 408737 427765 432137 467502 482749 491467
1008.60 428540 419940 375077 377191 354277 359497
1014.38 389886 416089 349892 329811 389973 349605
1020.17 253555 247278 234285 278656 266442 243697
1025.95 254178 281212 271943 288306 204130 207742
1031.74 201060 225079 231075 236916 133837 149010
1037.52 202657 289826 313631 337383 353537 409816
1043.31 436029 450128 476984 492019 418051 473568
1049.09 566751 672460 711088 770187 936410 1115091
1054.88 1231916 1358982 1463131 1700874 1897573 2071500
1060.67 2373415 2726182 2969907 3309973 3589685 3902397
1066.45 4199217 4477955 4738529 5035471 5369374 5707569
1072.24 5988305 6317239 6594111 6896043 6956377 6926488
1078.02 6871172 7182931 7491335 7613132 7537288 7507827
1083.81 7548989 7728102 7958163 8306794 8606625 9057466
1089.59 9557711 10306937 11163431 12186704 13262873 14536100
1095.38 15907667 17474042 19336950 21947332 24638152 26325276
1101.16 27502414 28796586 30306861 32404455 33975888 36115053
1106.95 39107904 42803185 46951276 47288615 45028572 44366149
1112.73 44633210 45414055 46463798 47002566 47143407 48104642
1118.52 49774781 51714250 51713511 51234277 52398364 56005319
1124.31 61436253 68770461 78021559 90216811 105576146 125064208
1130.09 148538694 176203522 207202350 241312587 278105714 319725776
1135.88 363384401 405186999 443395665 477049448 506393282 536947032
1141.66 524948870 462361666 465989993 552100842 582538435 545398917
1147.45 535276092 517845575 454460191 371681295 298478984 239417468
1153.23 194930388 163653951 140011796 113412461 89517773 72377461
1159.02 59119548 48155922 40369673 34702517 30066994 26281841
1164.80 23661636 21386605 19818002 18946548 18837940 19055061
1170.59 19302789 19138991 19382257 20542911 22338419 24723931
1176.37 27740356 31282762 35427560 40328200 46387176 53751668
1182.16 61549379 70822187 81491163 93728120 107184414 121498803
1187.95 136479149 152142841 166683721 180127998 195250752 214824468
1193.73 243212338 290234541 359764493 447703931 538096439 555388746
1199.52 464223522 414057273 444243133 485131721 548985468 635016697
1205.30 714781823 770661294 798223570 798725324 783311692 759694342
1211.09 735675246 714563235 699428606 690278772 687232645 689763636
1216.87 700475670 715750872 725478577 707385646 659264862 618737229
1222.66 613860442 609192896 553481161 481348486 432775149 405236911
1228.44 384867089 362244567 334565952 301288541 264701272 227604421
1234.23 192152419 159319775 130368038 105650264 85420138 68951980
1240.01 56028778 46091989 38808825 32621462 27844905 24420517
1245.80 21705461 19659121 18691665 18377171 17423261 16351733
1251.59 15853641 15282350 15225672 15065706 15213165 15312384
1257.37 15655149 15874715 16298147 16572524 16955708 17319004
1263.16 17857047 18070688 18374050 18553399 18766341 18908155
1268.94 19134586 19199303 19570352 19765683 20037063 20203915
1274.73 20686816 21526141 22850174 24272588 25037807 24511160
1280.51 25623235 28062732 31517989 35677268 40805231 46834077
1286.30 54431423 63614973 75374711 89059006 104760155 121980140
1292.08 140616290 159392889 177777966 194113429 208439746 218819354
1297.87 224569885 225134301 223528042 222356784 221750069 225933192
1303.65 241569234 272244293 328691204 407565957 492934720 463069868
1309.44 262149547 156403642 149226459 147815719 147894792 149337458
1315.23 149147795 146063463 139519169 130018046 118033550 104562001
1321.01 90383627 76432896 63106616 51051469 40451873 31496057
1326.80 24110436 18203813 13600980 10181327 7726146 6038365
1332.58 4819883 4072190 3652215 3484652 3541049 3770562
1338.37 4145819 4668390 5354591 6090068 6778937 7469201
1344.15 8049858 8421104 8596047 8579285 8511870 8672053
1349.94 9084558 9656525 10168190 10363585 10419412 11957306
1355.72 14278856 14426495 12764767 11054874 9878604 9301335
1361.51 9008724 8745826 8593652 8247057 7830646 7321683
1367.29 6765454 6215166 5830546 5607663 5392021 4972413
1373.08 4658305 4452152 4410398 4415464 4501632 4564583
1378.87 4604190 4620622 4732193 4854656 5009472 5126272
1384.65 5294113 5390335 5720496 6255410 6410858 6716220
1390.44 7419428 7446987 6653982 5771659 5207350 4875481
1396.22 4555005 4219094 3982671 3968236 3976219 3824343
1402.01 3577941 3312029 3093138 2912797 2719063 2442622
1407.79 2220328 2036438 1879154 1801008 1794825 1792766
1413.58 1831179 1804152 1796730 1808433 1624973 1408864
1419.36 2046245 2563127 2746534 2776753 2920221 3200205
1425.15 3437123 3608449 3815160 3917303 3976369 4194314
1430.93 4393358 4462261 4683540 5119678 5212308 4777968
1436.72 5194960 5761440 6138861 6502397 6811311 7087034
1442.51 7356974 7417063 7196048 6806377 6443725 6212205
1448.29 6184110 6210998 6161388 5998292 5337643 4674581
1454.08 4452530 3747989 3155778 3463041 3529975 3325987
1459.86 2982032 2523913 2127204 1656039 1147308 1089938
1465.65 1179178 1088033 998261 832569 718468 270816
1471.43-78130-145052 152740 271954 156744 333459
1477.22 453346 428721 353629 278289 323743 324154
1483.00 329494 348951 244411 32161 58627 79073
1488.79-126761-127209 111147 286356 306985 248526
1494.57-231824-398020 97115 30396 144789 408023
1500.36 457148 504710 535056 305038-418216-930313
1506.14-781491-77166 321492 393274 499540 334514
1511.93 373031 532133 484185 364984 90536 97227
1517.72 374929 182457-462352-618489-99442 263763
1523.50 244261-42302 160018 275603 353730 403339
1529.29 480127 362177 217937-108370-73598 292896
1535.07 418932 408250-124653-1112693-1084626-537616
1540.86-446462-103412 454661 292313 331539 646022
1546.64 773733 743252 649737 657971 876211 1011880
1552.43 896191 541350 885559 956560 227069-668153
1558.21-723190-577137 329292 965861 1104198 1004275
1564.00 902344 1007014 1080756 985895 728568 492356
1569.78 857051 1045745 1049173 1051614 913036-8258
1575.57-188871 723184 1023750 1072636 1135028 1109028
1581.36 1040633 998999 951845 977852 1036381 931676
1587.14 826198 726658 684060 649323 647088 638870
1592.93 600043 525519 483921 421000 413752 396671
1598.71 395326 346384 358981 341790 312824 247302
1604.50 255000 205488 224898 241322 230173 244257
1610.28 330802 294787 257621 236513 144222-682069
1616.07-905523-33984 262927 274389 285035 262248
1621.85 26558-78901 231951 393674 346222 228635
1627.64 368671 550684 589838 588050 625649 581936
1633.42 142651-500182-45982 439075 501032 580272
1639.21 597735 588640 629329 680226 664604 235503
1645.00-333277-82641 194021 395426 555043 386965
1650.78-681266-2009665-1502029-329167 261756 418812
1656.57 430273 439240 445112 444700 338647 58931
1662.35 75467 370738 441729 479909 432546 199612
1668.14-193691 31998 256093 315923 459747 339342
1673.92-197891-122473 395211 478942 471355 400947
1679.71 375936 403143 103490-590291-1410887-839274
1685.49 237880 350966 315966 231826 251722 334421
1691.28 406864 327551 179718-827216-1258957-156525
1697.06 298272-242477-1215177-846295 196299 568329
1702.85 453155 379979 493170 605488 918899 1084989
1708.64 1132182 1160341 1339391 1414288 1381888 1209477
1714.42 1240036 1105605 571837 968389 1646678 1917862
1720.21 1927602 1835478 1848877 1908233 1901753 1770881
1725.99 1668625 1564129 1393363 1196877 1241319 1181945
1731.78 552079-221077-210390 450624 748039 641814
1737.56 502769 81330 119687 409248 382803 291711
1743.35 339275 321379 249279 158179 56481-19608
1749.13-79511-407819-162590 181535 250011 245289
1754.92 73207-77982 109035 211394 262411 140737
1760.70-120554 25400 313150 345863 357881 366047
1766.49 189193 96780 399492 366000 90101-300766
1772.28-88154 433631 488220 536616 644447 670960
1778.06 645099 550836 520593 610441 669189 615259
1783.85 495408 557707 655420 693851 698391 683774
1789.63 661280 517967 269171 518454 846910 805892
1795.42 767524 764165 772234 691232 723295 717661
1801.20 686231 750032 772332 714767 741600 674954
1806.99 619317 619958 546212 447852 475420 441903
1812.77 413958 380389 378182 327344 291035 324321
1818.56 335275 264744 260055 220564 207174 47558
1824.34-44980 131165 255839 171636-3291-107306
1830.13 90311 198833 233629 200511 189125 194847
1835.92 189837 116821 105673 119916 153170 140365
1841.70 89905-285473-373345 1738 134097 114565
1847.49 151076 152418 144259 148208 196937 245085
1853.27 249616 260542 319701 296402 306224 344474
1859.06 348407 345729 401459 438561 457034 469286
1864.84 470128 406526 345784 185243 132285 276341
1870.63 354811 408766 437896 397262 363624 312316
1876.41 272271 202049 171355 143934 131905 101496
1882.20 87630 73957 100261 75678 67676 56279
1887.98-14570-39674 30061 43565 69461 50766
1893.77 8394-17719 22280 48158 93969 114787
1899.56 81930 17810 60200 81455 88559 79890
1905.34 137337 164684 187254 178291 170144 237364
1911.13 327253 361789 403961 459258 536028 521595
1916.91 495032 612030 710818 815250 957312 1035751
1922.70 1182867 1323005 1363211 1384942 1467124 1517314
1928.48 1583649 1655447 1751552 1812361 1833867 1782797
1934.27 1748213 1714985 1723707 1658792 1602698 1523472
1940.05 1499660 1452086 1352294 1235586 1172703 1111033
1945.84 1050732 1002647 982314 870321 773760 679102
1951.62 569707 520032 513041 444955 393724 325282
1957.41 288347 230200 173492 155076 157682 101887
1963.20 104664 77493 7797-52864 5449 76129
1968.98 88180 58939 68371 41697 24034-1978
1974.77 1637 21767 25116 24812 30082 30135
1980.55 58780 5599-15860 14175 7542-25201
1986.34-3908 16261 30044 25951 30711-27465
1992.12 16351 51474 60359 79316 119877 102381
1997.91 61613 44601 98732 114818 124024 92620
2003.69 126073 175142 166462 109134 101825 128662
2009.48 161045 133553 113501 91697 89040 85818
2015.26 100841 90750 122871 124627 121655 93198
2021.05 128045 123539 94102 105677 131167 121331
2026.84 112683 90791 122332 103715 135962 153781
2032.62 129731 119101 136987 127732 151011 184262
2038.41 200111 193450 226697 247660 277375 294896
2044.19 328836 352322 383824 407456 473596 502998
2049.98 543230 603376 680251 702020 734354 766939
2055.76 877675 954020 992743 1060492 1173210 1258785
2061.55 1325584 1355038 1282568 1149612 1039874 911211
2067.33 911254 930213 963562 985922 1004739 974481
2073.12 929811 869532 797925 709228 692160 618702
2078.90 546850 469848 436386 421653 462846 425096
2084.69 394175 384917 367745 313689 302268 287990
2090.48 257977 212442 201875 202756 215977 187387
2096.26 173089 143545 198986 162704 93294 80670
2102.05 148755 96564 25568 10942 84762 88104
2107.83 51767 21456 90733 138840 59146-14650
2113.62 9250 121213 114004 46729 69366 131004
2119.40 87334 6730 44802 103943 82071 35801
2125.19 51365 93070 118942 39940 53063 99313
2130.97 116287 48116 63033 121174 135031 99050
2136.76 131857 187399 221983 195526 181924 173098
2142.54 209883 255992 312966 385575 450549 476446
2148.33 550094 594294 652942 703165 735134 803824
2154.12 928627 932459 929186 1019619 1118163 1119083
2159.90 1157578 1186805 1189197 1167080 1268612 1401480
2165.69 1444844 1420244 1527062 1554636 1401875 1149444
2171.47 899529 769379 681160 663180 731510 671684
2177.26 643203 704450 665409 459549 380136 377815
2183.04 304024 221495 259292 265734 161942 97879
2188.83 129694 85280 56598 81176 76078-11313
2194.61-4809 27228 18535-7934 48592 67246
2200.40 65973 116965 100219-2646-23126 8599
2206.18 41336 57127 84716 30082 43312 48699
2211.97 54081 43786 98630 95668 100222 76985
2217.76 61323 67255 123280 126259 148542 125499
2223.54 105404 127027 143475 163670 211157 183809
2229.33 184783 192572 207817 216537 236567 269076
2235.11 314672 350840 416021 431427 453860 494425
2240.90 548692 598465 714521 787018 833689 879633
2246.68 972509 996451 1067244 1153320 1229216 1291933
2252.47 1356101 1373829 1431754 1490833 1536008 1578206
2258.25 1644327 1625555 1650187 1714851 1743765 1770574
2264.04 1840721 1859942 1916813 2041870 2163721 2218087
2269.82 2322922 2483484 2710708 3010118 3309640 3465940
2275.61 3530205 3499551 3559429 3702749 3762660 3683596
2281.40 3732275 3749258 3537388 3150579 2822651 2464970
2287.18 2118348 1880815 1654651 1382195 1228374 1097597
2292.97 1003402 912417 882059 789800 677298 578642
2298.75 520023 513217 589744 532786 474837 394434
2304.54 416555 391510 396139 350736 285582 221647
2310.32 213527 209619 147751 150824 67456 51585
2316.11-7672 30731-10349-44194-167720-165821
2321.89-234991-265029-305967-292486-363193-433158
2327.68-503897-493777-527669-581602-621869-577597
2333.46-594467-583623-565217-568359-576776-596639
2339.25-592535-587587-549327-452944-407829-343995
2345.04-185716-66031 33398 89192 33139-106380
2350.82-214390-342436-450612-522471-597679-673378
2356.61-733110-825897-890762-923449-899332-906864
2362.39-914185-867805-770866-753115-725455-653054
2368.18-596727-525280-435849-350207-245483-197188
2373.96-97616-48605 11883 47301 44709 43193
2379.75 73817 127291 180058 276571 368383 373919
2385.53 412003 443689 531534 584146 605987 708643
2391.32 840891 870012 907980 931212 1042818 1196562
2397.10 1435211 1659187 1810045 1937778 2001304 1944366
2402.89 1882714 1830014 1809760 1834992 1933434 1950774
2408.67 1944180 1927692 1912692 1883834 1866130 1773195
2414.46 1681468 1629394 1496375 1187596 970986 894845
2420.25 858891 785493 735244 583316 445184 346801
2426.03 271205 216747 239864 254685 286016 285996
2431.82 333654 340928 333966 362960 417266 403051
2437.60 402326 361868 339637 354740 370754 380409
2443.39 418513 411130 375940 308449 293738 269807
2449.17 246659 208589 176551 196329 190894 125420
2454.96 110074 47253-21081-69853-91427-162056
2460.74-183375-169092-180308-199414-202737-218827
2466.53-185379-171435-182753-220530-219097-197164
2472.31-151623-134259-134066-132726-76183-70528
2478.10-55950-8556 52151 110950 183634 230586
2483.89 313584 343435 355729 402982 484578 530995
2489.67 615297 734219 907361 1002758 1102459 1159635
2495.46 1202175 1223133 1263169 1320776 1452446 1553718
2501.24 1621116 1628245 1646309 1499337 1257463 1135375
2507.03 1099806 1069742 1126823 1114813 1088409 1037949
2512.81 919524 771212 665870 592083 528182 402576
2518.60 314257 266271 224944 93903 110347 115516
2524.38 107350 41750 31730 40339 47328 70710
2530.17 97824 55959 88537 70414 12324-15541
2535.95-12473-3656 45783 36550 8128-37482
2541.74-41894-66932-29257 17355 28443 948
2547.53 865 7387 24926-10718 18275 27574
2553.31 82615 130159 149337 168147 239159 281466
2559.10 306332 290189 307829 336287 382363 409852
2564.88 441319 426343 425715 417335 376399 340453
2570.67 332178 348109 352333 335126 387301 391133
2576.45 348795 238903 201181 227224 244264 183521
2582.24 179811 163306 142926 178071 188633 156771
2588.02 169241 180704 232656 259418 318638 335667
2593.81 363620 443413 533040 529058 507302 497899
2599.59 473674 429221 487263 540367 519215 570893
2605.38 597130 647861 622393 402464 356880 371172
2611.17 397385 258112-4505-217871-253775-264726
2616.95-267687-183626 631 58308-1917-99624
2622.74-141002-150640-178672-285247-289265-234085
2628.52-239787-235987-197462-184801-202229-192566
2634.31-114016-110433-108484-78131-23447-4964
2640.09 35809 57596 60026 77278 178475 199335
2645.88 222412 285403 257772 190822 239180 307581
2651.66 355338 355039 344397 368593 397751 353568
2657.45 349060 366807 357910 297688 286511 286381
2663.23 344436 351631 358305 320055 341906 303322
2669.02 246370 275506 294976 231184 230728 282072
2674.81 262380 180605 203186 219621 241387 220973
2680.59 146250 123863 186721 148182 137257 147138
2686.38 202389 271685 292983 193463 127480 87646
2692.16 58854 11599-24436-52190-33742 1387
2697.95 320-75215-61185-40372-2233-72534
2703.73-103438-38710 21931-3625-41867-82475
2709.52-82927-97302-88896-89697-108801-122570
2715.30-141977-140794-104277-108790-81794-105191
2721.09-121179-30694-14032-106518-89889-75469
2726.87-69847-57335-16812-48296-59689-53006
2732.66-10221 35486 70823 25201-7367 26404
2738.45 33191 42039 31825-24258 16215 47813
2744.23 29365 7678 38221 6576 14107-13449
2750.02-25270-70183-118289-85912 12692-31928
2755.80-97689-139986-109273-62908-23112-84578
2761.59-123284-121476-29886 8003-25650-52692
2767.37-6420 19976 60095 85609 125749 82011
2773.16 12093 23148 100288 118478 106461 75752
2778.94 118212 115162 129145 105698 155594 174278
2784.73 130169 86142 165558 151256 138406 156274
2790.51 141968 73819 61769 118060 159658 184998
2796.30 133573 3236-51900-26879-14809-42602
2802.09-27190-28439-25032-10464 15974 60208
2807.87 80944 12815-2149-68099-83886 34710
2813.66 42528-60169-17588-12821 27912 51207
2819.44 107378 95070 70637 32894 41697 67325
2825.23 114451 137900 189838 230936 292467 297502
2831.01 391413 479301 493340 455366 490426 541660
2836.80 650120 709793 674425 685779 784826 809670
2842.58 772204 750312 829719 890018 956341 881064
2848.37 705523 698027 668124 575047 540472 503067
2854.15 513629 510487 454443 387388 420903 415974
2859.94 374807 327472 320194 316319 327690 275212
2865.73 222182 229557 265551 218485 191843 211986
2871.51 235796 236412 192880 129517 151694 121760
2877.30 74113 53862 42122 16929 41184 30533
2883.08-10125-130542-133848-111579-64928-43937
2888.87-38592-68071-73444-102190-70342-95308
2894.65-125667-83385-35264-44505-19050-91904
2900.44-146510-121014-138281-224118-246292-209084
2906.22-130926-179327-150985-110090-130267-137254
2912.01-88290-166669-206070-152323-94521-114250
2917.79-139989-114567-106650-173059-68306-51468
2923.58-88906-90263-121027-181407-72935 13850
2929.37-24370-87459-59280-46094-55427-78646
2935.15 2405 41088 14974-8768-26037-93500
2940.94-164145-129961-41007-42314-70566-73573
2946.72-97828-140012-134698-114798-46467 3861
2952.51 8016-40652-69990-78366-87685-83173
2958.29-49064-115342-135011-61294 50538 113762
2964.08 188912 170561 124167 152719 290975 408132
2969.86 512360 580016 766203 911484 1046549 1327444
2975.65 1685261 2057301 2514823 3057461 3655792 4334969
2981.43 5186924 6204437 7363199 8599388 9908647 11323386
2987.22 12885527 14204144 15186249 16004109 16652619 17124111
2993.01 17500678 17862068 18544735 19587248 21627731 24637484
2998.79 28967563 35890458 39650872 32920991 23419837 18734769
3004.58 17198294 16588743 16266462 16128652 15993747 15644186
3010.36 14930106 13924776 12757284 11414139 9948422 8473816
3016.15 7115962 5867684 4723427 3775850 3012039 2277432
3021.93 1659507 1256950 992412 745551 547585 404092
3027.72 308746 196114 94128 43132-8415-82551
3033.50-65837-31141-42433-109145-46639-15360
3039.29-55338-127412-158123-186016-140992-146139
3045.07-153907-233925-179944-70680-49899-121385
3050.86-109346-139376-131063-153917-189873-111246
3056.65 20261 45230-39024-75311-29673-31962
3062.43-37271-75090 3560 82076 54316 12878
3068.22 9432-4599 3737 10344 35602 52208
3074.00 98311 38821-745-9768-35782-40560
3079.79-27243-73873-69214-72890-68261-68987
3085.57-75478-77103-37424-98995-104683-130230
3091.36-92564-49675-32351-131335-185336-232666
3097.14-247555-230988-166841-99568-120831-93988
3102.93-40969-98759-102211-169157-221398-196841
3108.71-145176-132397-178913-171588-80382-97738
3114.50-174453-148072-120367-86729-31912-49560
3120.29-42062-74363-80949-94744-76093-123359
3126.07-130747-117378-97540-92060-92105-88870
3131.86-85319-75728 26421 10700 25732-42069
3137.64-83889-106771-130747-129882-112980-107870
3143.43-24845 28822 39959 5661-98390-135720
3149.21-66694-57980-65733-108448-79218-95226
3155.00-90759-89310-97331-75577-126379-203296
3160.78-155423-166489-108750-76609-73548-24498
3166.57-50494-151298-139175-109998-97784-56971
3172.35-81976-119823-46303-14861-13706-130533
3178.14-135756-95195-39523-76551-83946-78200
3183.93-111379-151394-72006-50985-43696-61642
3189.71-21273-573-29505-70309-66348-57992
3195.50-75587-81677-59440-37191-63515-129227
3201.28-121400-93652-18012-22865 4906-58225
3207.07-128186-158597-149646-88088 25084 25574
3212.85-90147-96679-75822-111273-32399-36562
3218.64-99636-81996-24212-79619-57352-82880
3224.42-64497-64944-142968-136492-50895 351
3230.21-32150-31406 18297-3117-76463-59645
3235.99-11901 33763 60086 29468 10645 2895
3241.78-25430-32826-37931-49352 33232 60728
3247.56 16838-43198-6780-23035 10780 68750
3253.35 36278-29050-89386-182905-244195-101326
3259.14 30489-37647-160732-184774-89853-28022
3264.92-14334-142925-171846-42125 27053-57557
3270.71-183061-209024-62340 70174 37226-1375
3276.49 47053-81540-141547-108216-130083-242630
3282.28-236618-245877-130554-48810-48515-114768
3288.06-84246-100426-156385-142071-213089-235347
3293.85-61510 9038-2272-67075-200015-301610
3299.63-233779-160272-86278-98483-173565-141753
3305.42-13216-62598-170353-189955-121490-62845
3311.20-101592-197178-208520-224800-179236-120159
3316.99-139044-215896-189749-157262-100886-110439
3322.78-130530-150555-200035-233581-144015-120146
3328.56-152319-127640-132030-191927-248354-197350
3334.35-97414-155934-201683-155601-132046-127265
3340.13-63817-59044-178317-243505-232690-270669
3345.92-204919-126912-97773-177563-180122-195516
3351.70-232918-210443-152065-195872-173019-190793
3357.49-131629-178125-248182-193946-89654-111375
3363.27-166988-229949-236091-222849-152476-52198
3369.06-97639-207410-198356-150233-222892-245691
3374.84-185332-159301-113095-148677-162527-172021
3380.63-179199-219852-215672-253116-248399-239802
3386.42-136752-117258-155305-160219-146793-166551
3392.20-192556-300706-354450-251162-202270-242038
3397.99-186558-145482-135856-207040-198329-205794
3403.77-154272-105512-178425-269437-251436-224031
3409.56-260178-263985-255320-283134-231263-203816
3415.34-243892-261718-264794-271528-266425-302758
3421.13-284194-205783-239368-313989-330800-326227
3426.91-302646-267992-235126-325868-347352-360125
3432.70-309898-343707-360812-348683-339373-293413
3438.48-293147-347891-327283-321356-313752-301913
3444.27-350079-388567-351682-229615-162581-227270
3450.06-369617-325971-304593-366257-247718-177544
3455.84-278516-288666-209961-245185-316697-324257
3461.63-304702-331074-272168-356211-398100-389453
3467.41-348566-356115-381233-368628-340870-282871
3473.20-318997-386463-396923-398800-322158-281889
3478.98-312611-321080-355882-411176-384709-398349
3484.77-338963-345338-350881-284924-315908-426898
3490.55-329883-199157-226524-384409-412007-415420
3496.34-420867-359779-289863-350235-303736-244390
3502.12-338143-448348-428813-391477-371547-318212
3507.91-256002-371723-391862-371253-362431-379802
3513.70-310678-233092-294439-399508-417400-411569
3519.48-292783-292135-314757-254638-330945-432504
3525.27-367258-363471-363874-394833-359897-317025
3531.05-326028-408688-381479-370950-349566-338702
3536.84-327116-292680-232140-266902-352180-390160
3542.62-359958-402409-455583-491897-439367-311450
3548.41-277842-355191-413608-436772-384831-393118
3554.19-315094-322190-363416-383009-371534-376457
3559.98-310633-325434-356283-368452-357240-462758
3565.76-547991-660733-572905-334407-267198-272063
3571.55-291804-280583-289740-341864-327486-322799
3577.34-292400-322974-405243-340606-301149-359979
3583.12-335257-353853-546717-677392-712197-715955
3588.91-403740-310787-337973-393258-312164-383968
3594.69-474168-389299-410616-521215-473909-426735
3600.48-414054-458100-438097-371734-379413-539179
3606.26-615325-680136-834949-629150-509491-695340
3612.05-651990-557424-550740-469385-531673-640986
3617.83-764788-868879-602249-559084-528642-455664
3623.62-450885-540062-559933-822631-1317535-1425643
3629.40-895315-502721-422410-540926-530399-407040
3635.19-325758-382598-515228-539665-396663-449101
3640.98-533825-459887-372834-438020-530206-823504
3646.76-946297-1225888-1339771-1079877-847903-548118
3652.55-456856-465675-829121-1060710-716564-499061
3658.33-484410-496584-516992-490193-449700-445811
3664.12-453115-497324-498572-715238-907537-1146609
3669.90-1401162-790622-467045-670568-1233108-1619774
3675.69-1138745-541233-567864-658624-578139-478377
3681.47-511653-501112-500419-450499-468185-843609
3687.26-1553867-1153792-705794-885335-710679-473485
3693.04-478900-546973-521006-463426-478668-550840
3698.83-562997-641119-746188-578906-437075-459186
3704.62-452943-454400-480803-671296-803377-700023
3710.40-997196-1189648-688457-533615-512617-399044
3716.19-366891-446026-496837-450713-458472-627388
3721.97-626232-577649-602291-664585-714324-570021
3727.76-472057-481117-599994-1060142-1091030-718585
3733.54-942365-1072082-1166500-885264-625121-610535
3739.33-699184-777379-635916-983350-2258091-2088053
3745.11-859478-622115-827485-1699462-1650656-1144223
3750.90-1757016-1492641-722534-606556-678085-719626
3756.68-542809-605393-751219-688347-501575-456714
3762.47-505717-561047-652056-649268-510256-516973
3768.26-762473-878762-599049-498369-491629-546156
3774.04-549555-578414-512795-409774-566277-749174
3779.83-500194-409676-483589-574562-620421-603893
3785.61-510173-514594-504445-468650-399328-447253
3791.40-501792-501555-462250-576968-726847-710485
3797.18-515170-464354-737700-1603761-1475770-766486
3802.97-576802-540789-735820-1209674-992709-554640
3808.75-470357-519232-571596-486692-553014-648102
3814.54-1399326-1572329-766314-470483-566660-934066
3820.32-1177121-960694-576754-505198-455803-575817
3826.11-603717-541891-527406-594574-783372-805534
3831.90-585480-675076-856488-710731-901563-1709051
3837.68-1272067-701089-707146-664706-618576-757688
3843.47-695791-517597-430898-426627-387369-415461
3849.25-419453-913707-1537068-1709502-2412138-1508226
3855.04-502954-470018-399881-382313-408314-496397
3860.82-603134-482366-432322-730305-598134-224679
3866.61-292106-610653-1124097-1104329-604763-525146
3872.39-676762-774234-595065-484864-447407-456105
3878.18-615185-924529-832216-598981-509074-522961
3883.96-964741-1224212-732039-527449-563442-628885
3889.75-824604-837593-523785-432200-431617-512533
3895.54-579717-628648-745628-985180-784325-902233
3901.32-925039-865405-1057214-878712-683398-604948
3907.11-573640-555752-530706-612739-698303-680893
3912.89-638677-606518-639518-743094-717086-646592
3918.68-679186-619313-545306-592548-670713-692199
3924.46-614312-585372-645592-690279-601134-566551
3930.25-585984-661085-699996-616219-525453-606479
3936.03-671884-665009-589364-577533-608784-607538
3941.82-588658-588816-543666-529889-562800-613800
3947.60-612990-726739-643539-496716-521201-528831
3953.39-523658-601815-614280-593111-553762-570653
3959.18-571397-619520-612272-569935-602083-576023
3964.96-504753-496177-462412-439788-396273-472016
3970.75-519330-534582-464775-454040
##END=
