##TITLE=Pentafluoroethane
##JCAMP-DX=4.24
##DATA TYPE=INFRARED SPECTRUM
##CLASS=IUPAC A
##ORIGIN=NIST, Analytical Chemistry Division, 301-975-3108
##OWNER=COPYRIGHT (C) 2000 by the U.S. Secretary of Commerce
##DATE=00/02/01
##$SPECTRA VERSION=1.10
##$UNCERTAINTY IN Y=2.0 % relative (B=1.0E-04,C=1.4E-09,D=3.5E-13)
##CAS NAME=Pentafluoroethane
##CAS REGISTRY NO=354-33-6
##MOLFORM=C2 H F5
##MP=-102.78 C
##BP=-48.55 C
##$NIST SOURCE=QUANT-IR
##SPECTROMETER/DATA SYSTEM=IFS66V (Bruker)
##INSTRUMENT PARAMETERS=KBr Beam Splitter; MCT Detector; Multipass cell
##STATE=gas
##SAMPLE DESCRIPTION=Pentafluoroethane Primary Gas Standard
##PRESSURE=101.3 Pa
##TEMPERATURE=23 C
##SAMPLING PROCEDURE=1 L/min Flow
##RESOLUTION=0.9640
##DATA PROCESSING=Triangular Apodization
##XUNITS=cm-1
##YUNITS=(micromol/mol)-1m-1 (base 10)
##XFACTOR=1.0
##YFACTOR=3.6379E-12
##DELTAX=0.4820
##FIRSTX=575.17
##LASTX=3974.603
##FIRSTY=.0000821
##MAXX=3974.12
##MINX=575.17
##MAXY=.0028874
##MINY=-.0000122
##NPOINTS=7052
##XYDATA=(X++(Y..Y))
575.17 22583561 21813812 22292914 26339680 36174941 50650923
577.58 56536648 43548462 29320066 26208560 27097581 26023761
580.47 24132820 24343283 25442172 26237410 28065226 29216599
583.37 30129695 31918331 32783669 32882476 32672746 31765028
586.26 30603566 29967789 28060344 26022925 24493321 22532957
589.15 20709286 18628630 16132639 14468631 13322015 11576115
592.04 10392690 8894113 7569435 6821193 5887612 5434663
594.94 5018827 4257886 3410882 2934249 2784532 2279497
597.83 1708731 1421863 1376982 1308197 955479 1070657
600.72 1403119 1590564 1246538 848818 772245 812968
603.62 1109258 914500 872490 1016996 515162 480401
606.51 785022 763913 565391 357803 486179 500713
609.40 563451 587546 692277 633419 456718 603280
612.29 216035 217691 578951 627200 307761 218791
615.19 490962 360810 488743 636287 626186 583350
618.08 552108 562016 254579 344623 583419 400708
620.97 340738 434174 585778 575056 321395 245765
623.86 381614 409466 303335 254607 375695 370930
626.76 381663 406522 561824 778940 422311 144578
629.65 197963 264242 160234 259194 440349 542805
632.54 879574 956233 632043 526471 598804 212227
635.44 153776 328352 546686 845702 725349 295750
638.33 298183 575865 565021 436356 269276 365905
641.22 549865 583795 687955 816650 958363 841025
644.11 555984 706940 620174 566306 796371 521210
647.01 428789 671365 1033510 1085357 793904 770700
649.90 693710 833528 937705 619604 472274 665908
652.79 826391 699306 522030 540159 575980 497806
655.68 629554 849216 825350 616467 720699 876829
658.58 518163 510403 859299 827099 518430 555887
661.47 549286 528086 774964 901840 816215 720832
664.36 678570 391529 547442 697930 486708-230225
667.26-1171020-853861 69578 544750 560487 667695
670.15 744528 443233 309369 449072 445997 438035
673.04 516378 429391 501777 406022 443268 648976
675.93 507877 540055 544767 556584 615421 277659
678.83 98480 340749 507513 503367 431067 485572
681.72 547770 503981 510054 301922 160451 200933
684.61 38719 239163 402295 383410 457961 409433
687.50 272346 131912 291113 495583 490196 327698
690.40 385337 492939 364815 532183 647325 712345
693.29 897565 603097 528580 627243 754099 977646
696.18 1115189 1250207 1298765 1463563 1473797 1602365
699.08 1829540 2048760 2424899 2655812 3033766 3565481
701.97 4058449 4813128 5205669 5609468 6515993 7563750
704.86 8680120 9717125 10945053 12394014 13784336 15177460
707.75 16862825 18652976 20503762 22479538 24330585 26285820
710.65 28022534 29947064 31848392 33413974 34890221 36566710
713.54 38197805 39346211 40466634 41602158 42688091 43966859
716.43 45835654 48834010 52862544 55224156 55573276 58353257
719.32 65825729 79445613 87753643 81941086 72712950 65784470
722.22 63138275 59401365 52289329 47870298 47745529 50312822
725.11 56424149 68518877 89405866 106185294 95983253 77677773
728.00 70998392 68220257 63907748 57985123 54092686 51588874
730.89 49751880 48436627 47474098 46796834 46305727 45541801
733.79 44504615 43348549 42145747 40811666 39336243 37711270
736.68 35536211 33245626 31090229 28793252 26455897 24123933
739.57 21865563 19793487 17752071 15940667 14311490 12533255
742.47 10847353 9562624 8372037 7230835 6505940 5817375
745.36 5077224 4426920 3853556 3350653 2846337 2507702
748.25 2273708 2064280 1988963 1789006 1558524 1514430
751.14 1321137 1170215 1013171 981800 1084559 946330
754.04 746783 715452 802898 869251 884278 861105
756.93 775143 713489 691229 617648 731976 780131
759.82 709632 706288 587449 640786 786106 816186
762.71 782591 652082 497950 579822 738114 710122
765.61 797080 810180 748780 860437 791697 911138
768.50 1017525 783910 842889 891460 848667 928122
771.39 923355 841873 809999 835192 875555 938408
774.29 1006190 1057894 1001178 1024787 1143729 1024252
777.18 962602 1143135 1228865 1144722 1065004 1136554
780.07 1174841 1106608 1229588 1455422 1459139 1285328
782.96 1282275 1492964 1467418 1256242 1263660 1382284
785.86 1488852 1447197 1272930 1271838 1251377 1164455
788.75 1122710 1115154 1192355 1270354 1326155 1276150
791.64 1324032 1339743 1198207 1362959 1523574 1467403
794.53 1396813 1313417 1327634 1356694 1309833 1294013
797.43 1375990 1342792 1209448 1145358 1065194 895311
800.32 865664 980670 1087438 1247552 1258423 1116399
803.21 1045634 1063090 923135 1037465 1190295 938400
806.11 926606 972788 903916 949961 1024461 966816
809.00 892799 861261 866259 927541 991477 882768
811.89 785090 866379 862137 839165 871500 972235
814.78 962979 957073 935752 768120 817533 935764
817.68 883063 787675 788137 752420 723254 732399
820.57 699455 740952 874650 960971 921073 885390
823.46 909128 911973 972771 1075141 1155075 1142054
826.35 1005742 1112017 1425862 1480088 1346645 1400332
829.25 1583298 1719464 1577157 1387736 1298225 1126009
832.14 1201187 1433372 1605964 1623381 1634788 1712692
835.03 1786121 1947061 1996798 2111901 2367148 2557698
837.93 2560973 2727888 3130011 3391234 3614752 3953830
840.82 4357520 4599252 4940685 5456488 6030553 6745822
843.71 7390902 8095313 9078734 10075051 10950172 12007492
846.60 13099484 14288408 15702322 17226995 18929479 20700701
849.50 22318490 24100745 26203303 28322588 30523004 32632934
852.39 34997010 37434395 39789320 42220288 44531089 46727209
855.28 48696673 50241446 51584273 53044946 54521726 55954117
858.17 57667586 59255905 60461605 61444517 62811754 64924061
861.07 66988233 68711896 71520734 73834130 76243388 80653899
863.96 85671745 89659974 92530404 95840747 103213736 111663051
866.85 117255124 117814306 113640335 97232715 70163290 59117537
869.75 59281907 59255529 60304680 61630387 62986514 63604786
872.64 64280520 64797858 64875145 64352492 63557162 62233052
875.53 60475156 58208021 55783922 52843987 49652646 46432853
878.42 43024848 39581363 36249885 33057894 29912204 26970477
881.32 24294783 21824812 19603137 17564692 15730824 14067595
884.21 12681784 11520824 10456761 9522752 8823727 8340624
887.10 7808619 7308983 7036545 6731889 6346245 6125889
889.99 5984927 5680390 5507324 5477753 5354134 5263989
892.89 5212116 5029114 4746740 4606679 4578925 4488215
895.78 4278453 4137211 4274566 4109004 3744865 3679360
898.67 3653189 3703705 3918299 3974041 3847126 3786981
901.57 3810231 3769240 3693447 3566374 3509526 3514700
904.46 3234910 3107366 3117001 2861760 2704316 2603997
907.35 2463654 2401967 2240662 2037058 1873707 1755230
910.24 1709631 1609062 1642230 1640371 1397485 1321472
913.14 1292737 1289266 1380666 1402926 1466673 1443855
916.03 1359290 1326937 1285383 1339129 1442109 1481694
918.92 1503343 1517411 1516259 1578892 1746254 1712532
921.81 1644159 1698658 1655096 1688868 1806930 1881669
924.71 1921165 1944752 1955164 1981244 1949859 1949041
927.60 1998037 2049168 2029954 1981521 2071475 2066332
930.49 2041322 2135121 2205895 2245668 2263640 2253506
933.39 2357997 2444475 2427465 2498573 2482008 2478598
936.28 2503037 2446316 2394441 2375295 2427479 2406266
939.17 2351255 2312844 2198758 2093546 2037073 2024395
942.06 2055846 2099186 2049826 1915289 1877340 1843053
944.96 1761322 1691409 1604956 1523894 1537769 1445870
947.85 1309729 1247752 1183467 1093935 1074237 1155435
950.74 1129049 1049321 991663 1030947 1079899 966907
953.63 853528 906990 928066 831499 659196 523152
956.53 563219 557988 494269 545140 654949 680804
959.42 573070 411092 351915 389262 438171 438685
962.31 476038 455232 388626 448786 486247 464212
965.21 523316 465348 372534 452187 475272 410535
968.10 366949 407280 489462 514759 533447 552779
970.99 590840 645513 602898 590307 599510 622266
973.88 634325 575816 612842 602380 581500 516250
976.78 486675 633250 740346 720054 612899 652745
979.67 783563 858610 800445 775907 779777 764571
982.56 749375 681157 670522 661968 621490 645336
985.45 711311 735270 738795 759698 822078 763507
988.35 720203 696058 603225 599530 661080 682355
991.24 615529 561309 489379 486829 540223 564513
994.13 551971 506050 562807 608516 575637 531762
997.03 498278 429982 309481 368608 563869 603619
999.92 576555 584716 534718 540192 624919 568989
1002.81 419644 454319 567866 495330 465900 518442
1005.70 550592 530709 538899 563071 570472 608934
1008.60 532159 468277 494708 531671 500209 420418
1011.49 445303 476966 455198 458606 425781 399200
1014.38 464198 533310 446889 486941 557677 435695
1017.27 347152 384830 470610 498202 519001 461959
1020.17 321581 330448 380524 324721 343562 323164
1023.06 321153 409035 377665 382979 353395 315213
1025.95 319843 365875 421807 354846 356332 387541
1028.85 367142 435843 398876 242630 265968 369268
1031.74 321746 300151 320326 310980 384646 334385
1034.63 302521 431266 362285 168920 193151 315261
1037.52 324104 312026 328603 434166 486130 414287
1040.42 429211 460795 492429 487547 476630 534173
1043.31 586807 583770 573106 558342 579685 646255
1046.20 637996 637680 649201 525052 510591 641328
1049.09 729939 702541 723893 875666 875450 873376
1051.99 875552 913704 951424 1117966 1283201 1230039
1054.88 1315106 1420549 1490622 1528897 1551663 1637291
1057.77 1723953 1852194 2028188 2139236 2126131 2202270
1060.67 2348745 2550239 2800273 2925123 3014389 3118110
1063.56 3282048 3525747 3672739 3745068 3896201 4086324
1066.45 4242296 4393578 4547977 4649932 4748856 4937880
1069.34 5162680 5159569 5269329 5675195 5799335 5825047
1072.24 6020339 6188587 6370374 6549519 6588314 6729222
1075.13 7043677 7141626 7111985 7174190 7237946 7148751
1078.02 7066483 7079033 7154891 7406761 7676448 7785057
1080.91 7853849 7837174 7858782 7869815 7760152 7760859
1083.81 7803028 7886329 7974419 8006636 8133236 8335616
1086.70 8466503 8669089 8835035 8937048 9167607 9490830
1089.59 9659943 9902100 10323593 10690957 11103517 11592442
1092.49 12094442 12570035 13096947 13720976 14317824 14886942
1095.38 15607594 16420097 17084463 17840866 18721370 19696449
1098.27 20829659 22177287 23702079 25272897 26290638 26490025
1101.16 26989339 27934819 28707388 29163725 29590508 30561131
1104.06 31829788 32938730 33852226 34306213 35136803 36136376
1106.95 37784616 40206655 40795859 42206052 44673901 48506720
1109.84 49767177 46141458 46552961 45959202 43520867 45090964
1112.73 45472306 45069672 45377858 45831983 46641505 47396581
1115.63 47718091 47590378 47876125 47860283 48197764 49027527
1118.52 49688689 50453471 51891080 53166755 53515361 53111323
1121.41 52344453 52388379 52986104 53901508 55434205 57618518
1124.31 60322977 63323289 66693270 70614187 74993215 79939079
1127.20 85582415 92008732 99268665 107380786 116434177 126481127
1130.09 137701848 149969190 162992248 176999428 191985738 207757973
1132.98 224283775 241280374 258707166 277073184 296480774 317770228
1135.88 339705706 361246166 382274074 401704545 420237337 439118878
1138.77 457300843 472625185 485253030 498799013 511082588 530737733
1141.66 547253731 537667437 492593702 443213135 428569989 447951936
1144.55 495860173 555234129 599072855 591493493 546565697 520588556
1147.45 524449987 531047669 530044098 517711387 489584036 449113801
1150.34 406496382 367150393 330584459 296714640 265891815 239613487
1153.23 216292196 195694574 178233852 164412949 154318022 144273227
1156.13 130486738 115085794 101879531 91327458 82673902 75206593
1159.02 68254040 61721146 55786649 50640402 46285043 42680691
1161.91 39805690 37321923 34789226 32288560 30090396 28459836
1164.80 27123073 25838475 24579022 23468341 22524965 21726580
1167.70 21251448 20914226 20717894 20708661 20777765 20983393
1170.59 21105235 21198939 21285465 21031580 20800573 21177435
1173.48 21790031 22463861 23316153 24251645 25365626 26605478
1176.37 28122055 29795848 31373025 33219575 35308824 37491923
1179.27 39722820 42386321 45207649 48146674 51916761 56259492
1182.16 59833873 63198804 67722230 73053892 78240920 83271343
1185.05 89141638 95748030 102355677 109063208 116078289 123282342
1187.95 130697276 138278698 145949758 153756424 162240162 169205381
1190.84 175139663 182127667 189549412 197646996 206773771 217290256
1193.73 229401013 244238895 263921093 288971862 320503171 358676670
1196.62 398100063 439343292 486440768 534262327 572240354 574190621
1199.52 528219010 446789670 394256540 408100718 435066163 450717246
1202.41 465062058 483740262 508209441 543302747 588465724 633826476
1205.30 673624398 709043215 740168073 764769115 781731659 790960745
1208.19 793689747 790953996 784777650 776118753 765197095 753507385
1211.09 741440979 729986452 719864095 710142587 701752526 695329279
1213.98 690244677 686758090 684647433 683431427 683621317 685412537
1216.87 688552865 695022454 702814770 709406290 716218314 721265549
1219.77 719360395 706812104 682434249 651044923 626163602 612827308
1222.66 600332013 602262567 619795637 617454520 588165710 548480616
1225.55 509623871 475829908 449662216 430304890 415879043 404650899
1228.44 394739242 384727950 373752259 361865608 348745561 334297820
1231.34 318428070 301215793 283172575 264808743 246452420 228306783
1234.23 210617136 193405641 176732574 161027840 146251353 132362887
1237.12 119582435 108007778 97469760 87886697 79312111 71544030
1240.01 64709072 58605993 53122457 48565887 44663897 41301706
1242.91 38245340 34973421 32018983 29836238 28195043 26731390
1245.80 25015133 23437117 22421620 21605331 20695124 20053077
1248.69 20034321 20311936 20012578 18656584 17771217 17767004
1251.59 17735236 17207517 16590314 16486988 16520845 16468159
1254.48 16264061 16186381 16220076 16262403 16337554 16346193
1257.37 16450488 16621137 16763941 16838143 16941789 17164493
1260.26 17390324 17502592 17559878 17754789 17933240 18127626
1263.16 18419594 18627624 18820825 18891731 18897140 19041382
1266.05 19298555 19388281 19376632 19442255 19533796 19708930
1268.94 19846603 19839777 19870603 19969004 20082196 20283210
1271.83 20539973 20631506 20582243 20754852 21044284 21093110
1274.73 21103780 21423151 21926793 22357353 22979715 23717997
1277.62 24349363 24968522 26059450 26734980 25642254 24898919
1280.51 25719428 26774070 27906678 29224920 30773446 32622477
1283.41 34752263 36861529 39268133 42058140 44799778 47867607
1286.30 51676382 55627094 59699999 64539810 70008777 76253673
1289.19 82895965 89580385 97221143 105211019 113303382 121909957
1292.08 131278530 140426844 149255515 158884353 168156545 176651191
1294.98 185186076 193026665 199992906 206694253 213210044 217860374
1297.87 220308315 222953167 225281331 224038261 222331931 222221593
1300.76 222388788 222016937 222086073 221623643 221496962 224898483
1303.65 231628554 241147155 252368910 267906060 291694522 320152646
1306.55 356831700 403308158 435918919 462586383 525828833 536104231
1309.44 356481710 196764471 169144981 159904206 157395556 153456705
1312.33 151226855 149404332 148929962 148822707 149447599 149743618
1315.23 149945426 149276086 147964183 145777157 142947586 139224279
1318.12 134732670 129603448 124043382 117760701 111282165 104466811
1321.01 97501491 90489006 83600658 76785833 70112801 63657150
1323.90 57515460 51735319 46396634 41331982 36675936 32396879
1326.80 28641260 25181370 22010494 19223530 16806244 14677999
1329.69 12791553 11175514 9864545 8697109 7770260 7011271
1332.58 6303594 5665319 5236476 4892321 4636735 4451666
1335.47 4264827 4169372 4189596 4221651 4278572 4376557
1338.37 4511686 4738570 4959065 5124775 5482912 5846236
1341.26 6213447 6515209 6838145 7190056 7460475 7824805
1344.15 8152665 8394518 8582341 8712991 8847217 8903493
1347.05 8912804 8889314 8817294 8746874 8787703 8953974
1349.94 9138114 9266739 9591753 9954705 10181194 10338912
1352.83 10572574 10807363 10607141 10292225 10652113 11845391
1355.72 13416073 14771233 15123470 14546901 13678240 12749471
1358.62 11901964 11091835 10510693 10062987 9521249 9405883
1361.51 9522375 9214382 8872140 8873270 8924652 8784105
1364.40 8569229 8397731 8213599 7972596 7715111 7512292
1367.29 7246729 6894519 6603340 6408361 6198411 5931698
1370.19 5815074 5804688 5766908 5573927 5341474 5186048
1373.08 4903752 4795686 4778935 4598984 4551015 4578992
1375.97 4609703 4574511 4583028 4647559 4711345 4750836
1378.87 4713486 4739030 4767920 4746943 4787085 4869847
1381.76 4923565 4994920 5060211 5119886 5204374 5246265
1384.65 5305639 5417343 5456276 5612223 5511528 5530218
1387.54 6202411 6601841 6516847 6284844 6450917 6791637
1390.44 6985490 7390545 7959293 7666290 6860463 6699782
1393.33 6454399 5606334 5423953 5419758 5033076 5005747
1396.22 4840679 4644380 4468818 4338820 4230100 3942058
1399.11 4013153 4155979 4077564 4046246 4024326 3951283
1402.01 3789721 3630619 3526062 3426913 3297357 3127051
1404.90 3091563 3041023 2924882 2811546 2684111 2571812
1407.79 2383478 2291788 2257830 2167716 2068824 1934722
1410.69 1919683 1932366 1903664 1910486 1852654 1906341
1413.58 1929442 1922896 1925542 1926935 1866178 1880718
1416.47 1911948 1862354 1935775 1977197 1537293 1002556
1419.36 1713346 2442869 2494369 2624086 2751044 2830982
1422.26 2875207 2875897 2798880 2937129 3175089 3298429
1425.15 3402081 3481492 3581448 3695260 3724498 3865669
1428.04 3971476 4061239 3976997 3874216 4156606 4313162
1430.93 4341005 4484204 4518794 4464461 4538387 4731832
1433.83 4892605 5059541 5421787 5674324 5046164 4235844
1436.72 4818053 5516637 5615445 5771170 5953249 6152597
1439.61 6340894 6526469 6680677 6802098 6912941 7074460
1442.51 7214981 7331851 7452539 7401995 7346969 7226871
1445.40 6935657 6796611 6677798 6436887 6193340 6263681
1448.29 6261838 6085646 6119597 6396113 6276829 5905968
1451.18 6049446 6296738 5894520 5190950 4811934 4668857
1454.08 4608279 4444953 4392480 4233637 3006523 2549622
1456.97 3685875 3757060 3488185 3580116 3454462 3379827
1459.86 3231187 3038288 2761953 2541920 2382139 2161509
1462.75 1955919 1818779 1575206 956800 936471 1355255
1465.65 1293490 1196652 1181072 1155673 1119970 1067244
1468.54 951033 847880 818308 820217 749577 408985
1471.43-205564 3544 263289-373082-150057 434407
1474.33 439902 407832 194954 28924 273582 479090
1477.22 489103 488873 485527 472007 463297 405751
1480.11 336724 289627 304529 399089 431467 348377
1483.00 307833 381165 395281 378805 411819 299716
1485.90 194343 65371-112763 124766 275860 191265
1488.79 10872-162244-96679-157612-4223 231275
1491.68 257187 333332 356367 316784 278801 327510
1494.57 314847 5209-860124-686554 240904 332594
1497.47 276918-59968-192649 257947 437253 441256
1500.36 508263 421272 433911 584727 560134 501848
1503.25 506730 428356 334672-523030-1185036-391492
1506.15-840327-1366293-185447 248396 174088 416003
1509.04 350669 305361 511295 596626 590351 271724
1511.93 123125 433327 573823 606692 557261 425509
1514.82 438457 509267 317814 75495-104461 30460
1517.72 391413 446709 475017 265561-71372-196127
1520.61-1107939-795794 137808-186316 20459 429106
1523.50 447377 379566 73218-321373 37614 409268
1526.39 248654 206901 422647 368108 315017 462002
1529.29 481255 491929 504520 384869 232599 322998
1532.18 195656-69469-342170-226985 329492 432194
1535.07 358194 382725 410388 464547 349741 175604
1537.97-409161-1762049-1198085-760250-1111756-176290
1540.86 58746-753445-740213 154289 362326 502046
1543.75 663686 297191-76748 333122 647785 703303
1546.64 760715 756919 762750 789923 793805 623994
1549.54 515271 671706 840985 877758 923385 1013656
1552.43 1065900 1161606 689556 65935 637933 1115426
1555.32 1045725 1010563 939915 196804-177493-880694
1558.21-1140856-3104-448574-1254858-247538 782462
1561.11 841919 946616 1035609 1112770 1121800 1076565
1564.00 884067 763321 960503 1089074 1083960 1090728
1566.89 1034346 1003919 960371 877109 516640 192200
1569.78 688781 1025103 1032108 1095521 1063936 968453
1572.68 1024129 1102945 1048715 967720 917024 265682
1575.57-1147132-471797 814472 905246 973965 998227
1578.46 1044185 1051807 1110113 1165176 1160899 1107181
1581.36 1070951 1043173 1012619 1026093 1016885 938948
1584.25 919990 963431 1064578 1096634 1018586 909214
1587.14 873920 856401 788202 745069 693347 698031
1590.03 707053 659526 660947 641441 665395 685189
1592.93 638430 615161 575653 525246 541838 505768
1595.82 459602 439259 426258 434322 429685 404804
1598.71 422105 438379 370639 366678 351483 368559
1601.60 397836 356932 350658 339937 292383 246914
1604.50 265178 272928 286651 245932 152349 231201
1607.39 298107 286942 262862 197168 237223 271102
1610.28 288543 358834 363452 314108 267220 241219
1613.18 257644 217521 230877 249707 158824-389896
1616.07-1721747-1254192 37568 153871 228174 250941
1618.96 265577 283830 270205 289683 311042 288933
1621.85 232848 172041-210476-286842 191282 346810
1624.75 353745 404893 429530 379025 333350 138518
1627.64 194992 437598 514072 577427 607023 589288
1630.53 556574 582763 625115 616264 619991 568494
1633.42 579072 367389-156404-889817-755483 305487
1636.32 608529 368642 377140 560869 547283 573674
1639.21 619099 603530 596208 573121 581583 631113
1642.10 672773 671886 664195 684080 585716 536025
1645.00-90764-925247-205028 246403 76512 172669
1647.89 215977 417450 531038 538544 538850 367637
1650.78 296496-230359-1748874-2224980-2401739-1333548
1653.67-383076-465358 151511 333560 400010 397685
1656.57 401059 421474 447019 431941 436158 438502
1659.46 442913 477459 413874 348301 376836 39424
1662.35-260594 100166 384966 403710 430434 422557
1665.24 460600 501004 464134 428942 413400 287008
1668.14 138483-446210-424406 285852 404159 228101
1671.03 151291 326467 425063 463447 490810 422409
1673.92 356236-324067-741364-43901 410027 459807
1676.82 473374 458982 457707 465208 498404 390860
1679.71 322366 330925 402587 434050 444248 159378
1682.60-328468-432084-473043-1879171-2146936-363730
1685.49 186090 257519 370109 383427 324471 221340
1688.39 298476 325559 180615 159545 304966 372838
1691.28 423794 393302 335213 322015 282516 237086
1694.17 106779-339142-1965285-2014734-221281 222095
1697.06 176265 274308 257397 128873-726246-1614266
1699.96-1491129-843464 5537 333916 470565 606753
1702.85 625874 498250 190789 311278 622895 579984
1705.74 367342 565501 857751 901780 1026148 1145360
1708.64 1123262 1106099 1113697 1138852 1214872 1337641
1711.53 1439790 1415665 1392479 1398622 1292695 1308367
1714.42 1023816 1077066 1432772 1506877 986203-189516
1717.31 601046 1365701 1220236 1694557 1888377 1918590
1720.21 1933274 1912428 1854671 1814541 1786739 1818270
1723.10 1861687 1922991 1921276 1889158 1844164 1747896
1725.99 1694467 1626166 1635580 1577281 1480330 1420375
1728.88 1297616 1105359 1104677 1287327 1299290 1206965
1731.78 1100242 778872-240790-114874-177426-702797
1734.67 245507 733563 746362 747595 674367 595450
1737.56 595511 614354 490261-61502-259937 224256
1740.46 391662 475891 489235 374780 284409 261010
1743.35 334775 361614 356794 344715 295420 265791
1746.24 190547 135353 205477 109685-97697-62567
1749.13 70398 87193-76519-659732-631621 64790
1752.03 200720 175375 214433 251357 260393 264658
1754.92 240581 163364-92960-249511 50203 218489
1757.81 198360 211069 208728 265466 298238 247917
1760.70 86293-333091-220488 169154 235843 333952
1763.60 389623 347442 331245 323470 373020 404028
1766.49 391410 313933-124125-56139 384917 449371
1769.38 489718 444157 230604-19238 190717-273084
1772.28-812730-16220 489886 515542 507338 454083
1775.17 427413 539931 642675 644348 652945 682093
1778.06 685223 617845 638902 602266 435858 488320
1780.95 612901 615804 653722 682282 664701 665090
1783.85 610803 374534 449675 648466 656340 630979
1786.74 656642 730121 726269 684826 659711 687731
1789.63 756679 617247 533621 744121 535839-75014
1792.52 165648 723084 820355 857170 848903 822010
1795.42 740847 750592 768482 767673 784028 775785
1798.31 800003 654922 587278 800558 807410 669924
1801.20 725223 674475 615216 809345 864414 754474
1804.10 693390 710181 732371 748419 747785 709649
1806.99 604427 569670 631189 665494 631111 567622
1809.88 446858 395496 506689 512166 447786 463800
1812.77 447752 388209 404117 410751 376476 370755
1815.67 381888 363131 313391 250358 267161 376363
1818.56 397737 333933 274934 272311 263281 275881
1821.45 262122 203160 219134 240113 181268 137069
1824.34-68565-194591 57798 207694 267412 258052
1827.24 214674 234769 107329 13968-71381-236482
1830.13-16572 188240 195602 203943 200827 245509
1833.02 256137 197176 184188 187844 163732 235382
1835.92 240443 157119 166948 153830 90259 73996
1838.81 127445 160937 131989 142920 170798 131724
1841.70 135184 128093 90788-157653-745239-503276
1844.59 31756 69765 123662 166580 115189 82364
1847.49 133434 174111 183084 157379 139128 148397
1850.38 167167 146242 161091 205061 231787 263392
1853.27 285154 246316 221459 259868 303585 349563
1856.16 336788 294680 278745 282417 349604 377352
1859.06 361534 341996 331007 358586 371262 390815
1861.95 434696 463322 453053 437803 451380 479157
1864.84 498070 475867 418811 422064 403735 304270
1867.74 338011 302605-20165 43833 314304 320236
1870.63 314070 366373 362068 390018 485332 454054
1873.52 386952 386051 416133 368856 303432 331459
1876.41 317461 265561 249704 201685 187753 180904
1879.31 154612 162226 157262 123415 131707 115220
1882.20 101379 101356 73152 78396 102150 98173
1885.09 125881 102413 34986 58771 98266 90489
1887.98 46775 7195-101629-40004 49281 31621
1890.88 67671 35322 53199 99743 68548 55027
1893.77 82115-1037-57948 37323 17677-12347
1896.66 69923 84394 45264 90268 139365 118786
1899.56 142175 99616 32097 5566 28538 88475
1902.45 93195 105128 83965 99800 111478 63886
1905.34 97653 152949 195211 179320 161432 185071
1908.23 222792 221970 155814 150384 197228 253869
1911.13 319638 341387 339493 383360 401479 390540
1914.02 420403 483053 509620 537043 555254 583731
1916.91 542644 354983 519647 757200 686806 659966
1919.80 737695 835563 926139 952491 997281 1051815
1922.70 1067230 1154681 1268907 1376645 1369602 1316600
1925.59 1346258 1394460 1419570 1451193 1506717 1518395
1928.48 1531717 1568869 1612077 1645942 1697763 1738701
1931.38 1770502 1803859 1829715 1847610 1777479 1750675
1934.27 1789616 1741147 1673329 1707682 1743099 1697858
1937.16 1702927 1668096 1592041 1598061 1569659 1533107
1940.05 1466361 1452860 1538298 1482531 1358203 1349876
1942.95 1313952 1216536 1179699 1189477 1134645 1119795
1945.84 1104536 1024173 1014899 1002619 995692 1003489
1948.73 952513 870988 801295 751613 749044 726490
1951.62 627813 542442 512762 540915 561088 502080
1954.52 490357 474987 402857 391984 388587 341286
1957.41 287031 289794 291082 265837 195101 152148
1960.30 177340 162699 167240 199961 143967 79863
1963.20 98917 112501 127809 110040 47476 13496
1966.09-13340-59117-44804 3524 76748 108502
1968.98 94794 94822 79166 56139 57672 82433
1971.87 87509 45321 21784 30500 30282 20866
1974.77-14984-11808 24347 60150 35820 15988
1977.66 13067 39433 75275 10910 6808 59333
1980.55 40911 72142 80222 14139-38389-43573
1983.44 22246 48253 33509 12629-20535-17783
1986.34-12168 476 15913 16174 54434 39435
1989.23 13530 17549 48966 89422 1129-65275
1992.12-27688 31140 83097 60546 43712 73898
1995.02 65796 63583 123356 140471 110181 111001
1997.91 109420 68166 17052 28844 105606 119128
2000.80 90264 129487 142491 126132 109911 108710
2003.69 86313 97064 177151 206075 196911 157180
2006.59 135125 122496 100174 94522 96243 152752
2009.48 168960 164103 144566 150026 145371 81764
2012.37 102020 133429 89643 72083 93253 106281
2015.26 97292 107583 110253 76805 111496 129918
2018.16 138707 140095 120782 120121 142042 82541
2021.05 65380 149409 183515 132088 96168 83977
2023.94 91259 120972 136421 144674 121126 125219
2026.84 128119 146292 91605 50166 133463 157919
2029.73 126362 96882 89630 142190 186115 170867
2032.62 147960 132235 101865 129487 157400 138613
2035.51 137250 138065 142273 145594 170218 198984
2038.41 225786 209895 175044 197168 229232 238417
2041.30 223975 258010 298738 266729 270056 321413
2044.19 331473 322104 327185 374325 394924 380760
2047.08 384262 401005 464705 487835 470904 533217
2049.98 538088 515344 564060 609267 677243 675825
2052.87 688228 709396 735961 726990 730396 786359
2055.76 796881 858526 947199 1006011 948410 946511
2058.66 1035524 1061763 1101232 1164148 1204084 1277907
2061.55 1286835 1276146 1334417 1367157 1372788 1261905
2064.44 1150031 1158474 1126060 1042436 953944 895714
2067.33 884898 914622 936353 947664 936751 940258
2070.23 988000 997627 986965 996537 995799 978899
2073.12 963246 903826 885191 889540 845757 810410
2076.01 725373 683455 718585 696512 682404 624035
2078.90 571291 549998 523182 475268 434270 466096
2081.80 424254 399942 443670 497357 478306 423039
2084.69 392871 383250 395809 403363 394023 362919
2087.58 354259 310456 306731 302803 280151 341348
2090.48 285639 222171 261038 228137 193005 211338
2093.37 203375 192991 244091 228634 200048 174042
2096.26 201965 205296 148029 102275 161402 255949
2099.15 203482 180890 127479 75046 77897 76574
2102.05 87367 203876 196045 66508 54945 32115
2104.94 5815 16322 26345 85707 178418 90125
2107.83 24887 82302 59240 9163 7101 71823
2110.72 187874 204862 85710 34080 34730 4173
2113.62-22534-39859 45125 218317 174142 81418
2116.51 69060 63230 31493 53181 100365 167768
2119.40 182535 80573 15604-10037 25946 50274
2122.30 64349 130538 169730 68375 15624 36284
2125.19 79456 65001 20542 78507 194795 157863
2128.08 55589 16283 33878 86013 48753 98955
2130.97 174861 136563 67726 49401 52001 38165
2133.87 93286 157151 176599 136718 80316 136300
2136.76 115820 93684 176240 214132 228610 225379
2139.65 201314 217721 217779 141645 186286 223516
2142.54 165378 198840 254223 285739 291717 290689
2145.44 347900 404947 441626 468106 452568 458916
2148.33 522370 563404 584376 590197 617817 666436
2151.22 664217 705954 771449 729234 690141 796337
2154.12 921378 933412 936113 954747 930774 887698
2157.01 906074 1044621 1135437 1104709 1103425 1102572
2159.90 1153104 1152157 1103543 1248776 1234175 1125505
2162.79 1172232 1173644 1196657 1204121 1320407 1485975
2165.69 1433750 1390598 1434793 1407546 1387811 1462217
2168.58 1642768 1610631 1422478 1345448 1321954 1217651
2171.47 933646 846393 863692 774877 743947 695186
2174.36 634306 618208 713909 828539 710696 636242
2177.26 655477 629907 612813 711713 828390 658854
2180.15 523609 484972 382867 324180 373943 497053
2183.04 361695 237905 285821 244129 191490 227523
2185.94 348765 315948 215662 151272 102120 90848
2188.83 109178 181081 144047 72871 65572 56571
2191.72 54210 78763 155743 97868 11241-3600
2194.61-28244-10792 24555 70931 41418 24237
2197.51-8983-3267 19248 24605 113156 115559
2200.40 39014 13718 103392 143146 157037 127316
2203.29 29439-15067-16369-1895-46390 28078
2206.18 85185 36636 20995 36927 130070 127226
2209.08 35261 13021 36584 60632 55084 47354
2211.97 70440 81160 34922 14693 83640 139772
2214.86 96833 97926 111999 84568 107141 108771
2217.76 58747 61123 61523 60728 112834 133519
2220.65 145946 138655 109754 152451 186943 145147
2223.54 95602 77567 129025 158798 150422 149850
2226.43 130161 157448 220422 236693 210876 176815
2229.33 183611 185147 197052 211925 216393 202207
2232.22 202992 254372 246210 216754 245379 290514
2235.11 328654 311334 312310 364004 404694 430063
2238.00 421099 452848 463894 431878 462297 522130
2240.90 549004 560708 541702 599180 678581 707922
2243.79 769144 805590 816367 848027 826823 863124
2246.68 954434 990254 1001036 986513 1014846 1056468
2249.58 1117300 1173667 1202621 1218220 1234572 1306306
2252.47 1353492 1342617 1356921 1385145 1396623 1407154
2255.36 1458564 1517759 1534900 1506130 1532427 1593611
2258.25 1610997 1654314 1666209 1613430 1618731 1618916
2261.15 1668255 1784504 1741127 1704408 1754514 1774679
2264.04 1803309 1862794 1855934 1866518 1893394 1874136
2266.93 1956177 2083218 2119306 2171683 2185794 2222041
2269.82 2272550 2278229 2406709 2492825 2581735 2691624
2272.72 2794209 2990536 3205331 3295732 3338533 3464511
2275.61 3506944 3489124 3501139 3462567 3454848 3515672
2278.50 3578942 3663766 3792231 3771238 3628070 3623822
2281.40 3652325 3653498 3728363 3771570 3678614 3483403
2284.29 3306892 3121986 2923376 2805205 2654301 2481143
2287.18 2285114 2051792 1942119 1936877 1822280 1646480
2290.07 1505540 1383661 1291667 1245229 1174128 1117158
2292.97 1061513 1008408 967417 916364 896074 890682
2295.86 882645 821120 715674 687646 635332 577269
2298.75 587725 537731 476918 475898 592017 657366
2301.64 591798 488811 503374 537780 431335 345976
2304.54 391495 456952 451429 386426 328541 432398
2307.43 423222 370417 291124 255850 297041 273714
2310.32 150684 146098 301733 310666 133941 30308
2313.22 169591 298746 144977-95237 33435 211160
2316.11 95752-192879-68779 215672 142829-208587
2319.00-134769 192852 42936-428244-337579 98418
2321.89 19581-490473-470422 47461-71132-663107
2324.79-474326 117434-157587-756063-520626 17160
2327.68-381064-979713-547929 48346-515408-1058140
2330.57-404895-19943-853095-1161837-227148-76065
2333.46-1041716-933961-13972-421671-1182410-488710
2336.36 40853-823008-1062561-123290-243294-1143450
2339.25-691917-16740-713929-1017992-251351-301769
2342.14-916145-457331 12448-563518-684693-90070
2345.04-177773-424382-52137 85811-138214-42480
2347.93 133860 140060 40548-33247 27295-52829
2350.82-337719-190599-47963-546003-484369-135676
2353.71-708288-657755-119875-840451-850570-192233
2356.61-943134-915560-280179-1149852-952151-413691
2359.50-1345248-850461-529874-1387442-609386-709935
2362.39-1349349-503454-1019425-1061843-407431-1102122
2365.28-583248-579228-1087567-422370-842198-618789
2368.18-447366-835903-353238-645073-425262-343210
2371.07-543256-240942-346468-155575-255916-220498
2373.96-135730-103053-6981-82318-26912-7494
2376.86 81039 53955 52290 32787 36292 70649
2379.75 69554 43651 89817 182482 179059 134533
2382.64 198847 301897 362905 388617 361572 362941
2385.53 399633 423884 420130 457359 466903 516024
2388.43 605879 625776 575710 578056 640519 685583
2391.32 820216 883657 845817 851783 894257 934676
2394.21 918708 919708 952504 1060176 1138865 1166966
2397.10 1281919 1431112 1562981 1663125 1752938 1756406
2400.00 1817697 1969814 1980666 1965099 1987826 1920945
2402.89 1878762 1878832 1835947 1813509 1813078 1821131
2405.78 1766101 1785748 1914790 1928714 1939597 1953049
2408.67 1920776 1921518 1918679 1924683 1909883 1893257
2411.57 1876011 1861512 1867430 1861568 1828656 1749821
2414.46 1711795 1650243 1607632 1620731 1626894 1538798
2417.35 1312116 1177952 1057525 928158 907739 928187
2420.25 891493 872283 826878 751632 773284 781814
2423.14 686588 570093 512132 442349 396666 367330
2426.03 334585 290086 223628 208551 262473 262455
2428.92 234055 264545 305333 291224 285801 295767
2431.82 300427 335164 367673 368528 331866 319487
2434.71 324945 378273 409589 422330 423743 399242
2437.60 400441 388297 419349 380068 320525 324784
2440.49 345988 375313 389163 356242 344013 406919
2443.39 406878 396438 430985 429030 394545 370064
2446.28 348476 313142 267055 303238 299958 278533
2449.17 265512 215382 242838 257166 170922 149325
2452.07 168002 206304 259605 193743 119450 127694
2454.96 132151 103069 93814 78627 13201-53177
2457.85-37374-40082-91126-86411-78287-148688
2460.74-225258-178951-146311-151925-149144-185688
2463.64-189257-201196-172254-172756-238616-221685
2466.53-170836-191832-175179-146012-148265-179190
2469.42-225843-179695-215924-236780-200211-182610
2472.31-146184-166942-137216-97734-109950-154145
2475.21-130751-118798-123789-50233-23687-76860
2478.10-80597-29496-51150-890 65212 52974
2480.99 55633 116521 182410 210662 175092 208745
2483.89 320706 315977 309657 384776 373479 328679
2486.78 340588 421075 494534 474194 494383 539872
2489.67 591190 620998 624634 721843 861298 915024
2492.56 937273 1006620 1056358 1072921 1131287 1171994
2495.46 1193576 1161006 1188804 1262594 1232593 1225713
2498.35 1278692 1317908 1355453 1442389 1510807 1521821
2501.24 1607687 1604884 1577270 1628853 1604383 1621649
2504.13 1633273 1538434 1346660 1184888 1144974 1160222
2507.03 1141436 1083630 1064414 1057884 1080417 1129902
2509.92 1148866 1131334 1063954 1043193 1084988 1074621
2512.81 987117 876375 839779 799959 693486 660471
2515.71 603476 602354 602819 520567 459601 432427
2518.60 350427 289324 309266 246866 262130 325660
2521.49 154104 19367 70524 169458 157025 86892
2524.38 124394 127923 111603 32445 14482 25001
2527.28 53815 90568 29273 34649 56057 79968
2530.17 111762 110135 86950 61434 11617 87493
2533.06 179589 71544-1306 31954-6318-22706
2535.95 21165-16670-23678 636 29756 55599
2538.85 57599 52179 18620 13709-3848-47790
2541.74-40576-15611-49941-60464-61832-53444
2544.63 24252 47258 35594 13000 22994 25867
2547.53-17575 1715 13549-1619 43307 34853
2550.42 29096-12634-53882 61994 70106 12903
2553.31 9349 92043 157591 134793 126126 160732
2556.20 169030 140723 199334 255119 275941 276222
2559.10 292583 316870 314653 280075 273321 319320
2561.99 330035 324407 358490 397418 376693 418343
2564.88 432917 416953 463819 438263 387601 402157
2567.77 454049 443260 383841 360543 355314 359398
2570.67 323786 332824 327648 329052 411888 366920
2573.56 292051 314690 383892 386959 394851 401156
2576.45 368329 375123 312249 201869 213038 199823
2579.35 191459 244560 259525 273419 218912 161307
2582.24 173536 179644 189746 205633 145379 104213
2585.13 139139 219018 236767 171773 156450 163751
2588.02 177418 175486 164049 186136 205565 254470
2590.92 247936 253433 283748 320987 361022 335569
2593.81 340398 351053 364235 459398 523363 507440
2596.70 543690 558202 509886 451642 500630 550202
2599.59 477331 445015 483837 421472 391938 482889
2602.49 539831 609634 536825 420469 501211 643335
2605.38 633155 533143 541694 646388 736574 687772
2608.27 477084 308344 348809 388773 340980 368053
2611.17 382351 389581 401531 294458 114418-12795
2614.06-128164-219639-267286-239937-206793-237249
2616.95-261658-285510-218325-221229-100706 71854
2619.84 40565 64616 81637-37372-75873-55749
2622.74-141210-162720-153410-117944-127032-195987
2625.63-192122-259546-364113-311544-219450-172115
2628.52-209130-299358-232128-195237-220807-209154
2631.41-185446-132624-183225-220214-207256-207137
2634.31-136823-92702-87894-96295-115135-129950
2637.20-94247-48229-56044-34344 20440 9932
2640.09-33120 47569 99012 23530 75339 96966
2642.99 23345 55244 124818 205534 234576 188450
2645.88 193551 187323 230075 352334 318435 226735
2648.77 211937 181629 188525 239908 273063 342047
2651.66 323797 334111 387811 354663 345817 341123
2654.56 315181 358961 442460 389259 375005 341599
2657.45 349542 342887 321723 400126 386218 368404
2660.34 307842 280258 309813 295529 267443 269122
2663.23 314247 374153 363093 314418 364223 396515
2666.13 323488 298786 316875 338328 364671 344798
2669.02 242661 197105 240838 306661 325200 288667
2671.91 266729 240525 212724 186797 254798 319471
2674.81 323080 260312 193211 183718 148798 221915
2677.70 241828 203074 239233 224174 239710 268256
2680.59 195194 132686 83673 103738 190405 214872
2683.48 192274 138774 119242 137638 150261 149545
2686.38 178949 167147 227442 306734 287859 309688
2689.27 254429 189347 143896 92994 113335 139416
2692.16 56341 16054 84515 39065-44207-16586
2695.05-23106-53583-38661-54058-9830 14568
2697.95 21699 36255-30064-118778-97059-15652
2700.84-38347-68335-37884 51668 22592-98087
2703.73-137920-100238-84607-35788 38304 3566
2706.63 37453 1961-41340-18953-82583-78015
2709.52-70731-100962-72540-73407-109241-115025
2712.41-64555-48266-97922-156621-99967-79134
2715.30-136253-145477-162766-139696-95318-90020
2718.20-121796-91401-95050-119174-36157-45192
2721.09-174613-175352-76026-5627 36262 23081
2723.98-75963-159208-115974-45228-89887-65188
2726.87-55219-78874-76169-60109-20348-13090
2729.77 3305-52691-74628-67321-39262-35869
2732.66-62973-11274 38170 22127 55484 92494
2735.55 57520 53895-15448-63923 19070 63296
2738.45 62651 6277-7211 68401 86160 43491
2741.34-29765-37165-9326 8811 53694 55255
2744.23 68683 36065-27655-7879 50156 64486
2747.12 28522-23490 957 43465 8231-17673
2750.02-29298-16285-37170-50884-67253-162054
2752.91-133568-80851-39628 64278 35344-47868
2755.80-79449-98459-101453-151799-147413-86435
2758.69-80609-79929-28352 19785-31313-102420
2761.59-120942-108885-111957-146021-111352 11576
2764.48 20421 17919 10169-44643-25779-85303
2767.37-44068 47520-2144 5776 45874 74907
2770.27 68896 77421 88246 154551 147722 63186
2773.16 52917 14133-24691-7785 102159 144233
2776.05 82847 93464 163835 156086 16620 30314
2778.94 160103 138726 91743 99620 147285 157775
2781.84 95519 85163 135282 147084 170170 211419
2784.73 171246 133165 74436 48072 128861 182269
2787.62 204377 184734 85023 90848 192409 189484
2790.51 140164 121145 145603 98000 22923 17461
2793.41 93488 187712 138243 91128 190913 225580
2796.30 192401 106343 81066 37665-82771-75672
2799.19-22225-4218 3302-18144-19343-32116
2802.09-69011-8616 12410-45832-28114-657
2804.98-50237 2826 48884-18837 8505 76003
2807.87 109728 118948 14462 7575 1566-9136
2810.76 28423-49118-127045-125472-42605 53720
2813.66 161027 80225-80148-101669-49796 45898
2816.55 13979-54782-13709 83207 56937-7165
2819.44 97735 132960 129888 88542 62389 107187
2822.33 55481 8825 53721 55565 36032 74959
2825.23 113966 135825 105524 134149 195339 199466
2828.12 175425 248653 279027 295324 331400 266698
2831.01 299587 396974 469424 488331 502689 502276
2833.91 466565 440687 461636 491893 506166 576757
2836.80 548438 604445 767816 730680 686264 658157
2839.69 624392 692233 723753 790120 823659 807244
2842.58 819440 748952 714402 769160 757980 799785
2845.48 908814 896949 845163 932871 1046136 919937
2848.37 722542 639411 644823 732497 772452 649892
2851.26 577143 576035 571989 550329 496351 513939
2854.15 521374 472025 531648 549796 492605 453292
2857.05 401881 378328 390564 403242 478881 445756
2859.94 345727 382212 387284 312012 286670 352460
2862.83 342374 283645 306143 377896 334541 245470
2865.73 241053 255680 182071 200445 305672 285449
2868.62 250055 215293 197197 187140 186618 216565
2871.51 262465 232565 195443 263936 267853 190492
2874.40 130611 104884 132549 204436 144253 97042
2877.30 148705 59092 20620 64529 109692 56803
2880.19-38260 29339 54364 73605 1428 346
2883.08 114091-1007-94019-131819-166148-107513
2885.97-106617-118746-63913-69766-58052-15015
2888.87-28181-33407-62544-66527-48199-75990
2891.76-70304-111661-123068-19510-58914-87125
2894.65-98794-152692-143476-63643 4381-28569
2897.55-80605-40372-9598-20772-18140-62925
2900.44-143853-191475-161606-49523-75982-162348
2903.33-179149-216309-213424-256116-275854-167457
2906.22-158700-117163-62785-224530-223288-150836
2909.12-73706-73938-139663-102318-159559-172859
2912.01-77925-54262-72362-169094-234774-201599
2914.90-205982-115261-70824-136060-85832-35048
2917.79-164550-178613-99665-133139-62953-30596
2920.69-162132-240097-166070-13467 30075-32862
2923.58-121971-104342-53582-90238-67835-94326
2926.47-152303-196807-208515-43155 57781 21741
2929.37 16011-16268-56451-100299-97430-35497
2932.26 1596-71870-30409-17115-74040-83925
2935.15-91378 39489 77261 66796 23350-13919
2938.04 37695 6870-28003-11923-16936-65330
2940.94-131561-173421-178103-106639-51866-38817
2943.83 27355-43537-46940-73712-81601-23621
2946.72-63525-69024-126198-142214-95627-115463
2949.61-131935-97956-56483-39126-8904 41727
2952.51 47604 6236 6966-9708-54082-47136
2955.40-74216-46165-31699-56013-113172-79185
2958.29 7230 3847-41332-105212-116155-86205
2961.19-126599-42915 98854 81714 66849 157558
2964.08 218928 189549 248389 246540 163351 158052
2966.97 127192 205765 273520 321662 428483 437062
2969.86 528188 584834 588961 627307 659146 827765
2972.76 989359 1007885 964900 1079531 1265865 1367001
2975.65 1592346 1794038 1892523 2125795 2382743 2550360
2978.54 2815285 3166062 3454766 3690011 4027004 4400151
2981.43 4822767 5212477 5684431 6282988 6817297 7383511
2984.33 7952264 8629283 9286904 9871698 10524277 11246320
2987.22 12059302 12830651 13556270 14181531 14647306 15059338
2990.11 15440795 15964485 16326270 16527448 16758548 17069679
2993.01 17333078 17420882 17570358 17779329 18108215 18523795
2995.90 18991661 19459474 20208157 21365597 22948467 24636012
2998.79 25988909 27856184 30990092 34901501 38931305 41163053
3001.68 38246593 31914326 26369335 22434637 19911444 18560407
3004.58 17843281 17243219 16854306 16645617 16445137 16207200
3007.47 16120585 16116187 16020473 15924823 15781868 15583017
3010.36 15285659 14860382 14320993 13816167 13340693 12669694
3013.25 12024485 11411997 10654108 9916410 9179538 8469251
3016.15 7780448 7143805 6510385 5893309 5387030 4772286
3019.04 4195266 3852677 3515587 3077059 2714470 2381536
3021.93 2041697 1703824 1472363 1349717 1252475 1065353
3024.83 906704 847043 739108 608322 472338 505768
3027.72 464839 332139 280614 306633 241720 58232
3030.61 90920 156932 89303 21340-7345-55213
3033.50-53049 18773-59206-11569 98708 15781
3036.40-122385-101357-27609-27378-8247 41868
3039.29 57274-87694-94802-54588-140886-113392
3042.18-158813-217593-100564-92260-142679-140515
3045.07-85869-125749-166209-213557-264311-164052
3047.97-106652-9685-7160-39000-67952-136497
3050.86-115072-92669-66986-110572-176544-146986
3053.75-52676-85655-206484-235244-145839-72280
3056.65-33724 15440 61856 131205 30458-106199
3059.54-69251-42591-56263-10504 2356-34517
3062.43-18666-19770-37516-57374-107699-15498
3065.32 129718 124951 71867 34181 31888 44880
3068.22-4657 8654 40695-8039-13075 27705
3071.11 25453-10514 24620 92581 25094-2696
3074.00 117312 143242 89523 25572 3258 5670
3076.89-22537 19949 39230-75142-93251 18708
3079.79-7926-32759-28243-85444-70187-67294
3082.68-66593-37150-67358-98007-45323-50839
3085.57-66072-44839-112924-115011-5318 18836
3088.47-77248-122306-105031-90023-92275-118241
3091.36-157677-102416-16889-49104-70595 8198
3094.25 114-176668-223170-149889-145474-244310
3097.14-270922-245434-200252-204459-265413-140476
3100.04-118004-82451-20745-178931-184304-67350
3102.93-13803-23416-59033-114766-154880-61010
3105.82-59957-186008-235640-216349-215293-178466
3108.71-155835-155958-135815-84069-109431-225544
3111.61-224442-152174-98946-113105-36938-11045
3114.50-168683-257342-168834-89967-102113-123849
3117.39-175037-61000 2356-59963-25868-47299
3120.29-63961-40416-4364-95358-135011-6045
3123.18-82562-156684-68302-22206-82682-156759
3126.07-129415-128282-119595-99391-108988-91859
3128.96-98250-83302-68605-85292-119608-116334
3131.86-1882-49976-181479-113231 37042 63581
3134.75 23023-825-40606 75823 49746-68981
3137.64-88334-117487-52854-61248-150573-145575
3140.53-125573-102816-121659-100224-123068-89463
3143.43-103201-51053 79965 28974 15646 22801
3146.32 39699 48261-20214-128490-168676-149047
3149.21-68838-51738-59936-39398-77759-45706
3152.11-51712-160529-126557-30273-46298-110847
3155.00-126663-98052-46220-70106-118683-105371
3157.89-106225-56388-29882-99331-231414-240018
3160.78-172508-95584-129970-210264-164109-112815
3163.68-32101-42339-115358-108609-54911 18559
3166.57-11707-31899-82391-223045-151269-114671
3169.46-132483-70084-102530-119893-103053-54929
3172.35 46430-87427-197408-124515-67820 8364
3175.25-68289-51455 56524 18088-54132-186651
3178.14-174931-92132-112852-133216-38955 2792
3181.03-65601-62374-107816-99445-61509-76320
3183.93-49035-98255-172304-180642-115948-32246
3186.82-40172-69200-26065-47546-69278-27784
3189.71-61153-83038 35883 84568-75307-56171
3192.60-3610-74007-82189-100196-41441-4201
3195.50-66693-132962-54941-52024-104783-37891
3198.39-82753-11686 4898-66857-125257-142451
3201.28-106000-112087-118597-131890-34808 39447
3204.17-36170-51864 5150-21769 40688-13127
3207.07-166535-164504-81664-134291-210822-125939
3209.96-136150-94746-3096-32781 88594 131920
3212.85-79817-141719-146585-75495-13015-77802
3215.75-115033-120849-114762-25763 55498-21109
3218.64-95759-130358-93994-105218-37301 22132
3221.53 7626-142470-173566 49824 202-152018
3224.42-120061-59388-9181-6275-128609-182587
3227.32-157425-109658-98862-90913 18932 66160
3230.21-40689-52280-42618-42736 5730 9469
3233.10 38863 38732-37139-137713-91880-26796
3235.99-17256-11762-21165 21777 116267 68983
3238.89-25413 64814 76749-64410-41939 112806
3241.78 18420-133546-14984 11317-23708-37127
3244.67-69097-54752-32548 55851 65749 69913
3247.56 68491 6072-32116-42522-68970 5232
3250.46 72567-38276-103380 18322 86015 79081
3253.35 77083 16028-22043 9077-45707-147364
3256.24-84802-113095-264254-317389-196410-98455
3259.14 22147 107653-33277-37412-39196-200478
3262.03-245382-173135-128197-72361-41158-71251
3264.92 7563 60820-64893-174227-205717-193550
3267.81-127285-50121 81357 72265-88740-21296
3270.71-39693-240028-279314-195361-103061-112290
3273.60-5225 142377 140874 14409-100227-37406
3276.49 99690 98882-11230-115721-116871-157976
3279.38-206398-36583-25753-154800-216231-229868
3282.28-269417-227994-165037-286086-290114-73782
3285.17-13497-89453-33241-15169-93567-119122
3288.06-161261-90385-18049-51974-162457-238310
3290.96-150007-53001-122370-247627-278256-275709
3293.85-163288-20866 24695 15134-19664-8724
3296.74-22568-56204-80004-210791-309367-302769
3299.63-274534-243503-164483-132850-162633-85757
3302.53-37589-65554-147225-192639-216190-169481
3305.42-44328 11774 16773-37768-148022-201581
3308.31-204440-168995-149655-169789-67583-28862
3311.20-50818-80103-199666-200712-193775-211574
3314.10-204244-215140-217328-220102-115312-99040
3316.99-105243-106942-206675-245763-207597-169765
3319.88-175842-162605-121395-113916-72291-80245
3322.78-159518-150500-119681-125939-179599-163671
3325.67-255994-294873-131235-170450-133557-11682
3328.56-135682-293687-130275-7378-157052-188078
3331.45-126127-121718-258105-300740-214394-227766
3334.35-132183-27508-105598-162140-187103-260375
3337.24-197199-95342-104501-179085-146206-90031
3340.13-135806-79568-25853-26602-52112-229902
3343.02-290803-238473-172734-198834-308935-262304
3345.92-234103-233099-151222-119183-92084-45800
3348.81-169049-187400-186177-208393-162674-147197
3351.70-208372-272133-261911-206993-115111-165426
3354.60-139784-217972-252798-104171-129765-269812
3357.49-201612-93393-67471-151018-308945-231356
3360.38-243512-236694-81203-75159-93935-97474
3363.27-126599-194280-215719-180245-232227-312468
3366.17-212794-108857-268323-255107-47112 52250
3369.06-52846-173176-133552-157315-278300-274848
3371.95-120926-40616-169164-304931-267650-197965
3374.84-234942-172968-153742-186484-136324-88053
3377.74-102194-165950-169575-176046-158489-155548
3380.63-171467-192462-177923-219846-254185-187881
3383.52-190850-279794-270716-238430-211431-249968
3386.42-271652-116026-23093-102379-203818-167923
3389.31-145591-136852-177866-163635-114087-172621
3392.20-182791-215214-176983-252349-399216-445481
3395.09-294065-146355-241872-206517-169145-254267
3397.99-338698-134306-42161-262282-162807-27760
3400.88-130237-319737-249815-109762-170455-236378
3403.77-271440-108748-91019-122178-74437-194827
3406.66-270096-235975-311757-268521-193078-195420
3409.56-211874-314048-289239-218290-245865-281599
3412.45-220104-303141-320494-214821-173184-162867
3415.34-245188-288865-213250-271089-279326-222367
3418.24-300139-272442-248721-266725-269752-276695
3421.13-348080-322070-218477-185938-156563-232843
3424.02-349658-307985-279456-332505-391051-304924
3426.91-231584-367780-308964-259941-228996-174269
3429.81-281179-371361-363231-288074-374948-380065
3432.70-328179-327516-247047-314565-427365-410452
3435.59-278724-301179-393185-379127-311940-230766
3438.48-282446-341760-261779-334329-441910-316870
3441.38-221025-322335-398865-335528-211036-283563
3444.27-393612-313561-325656-438810-409153-299740
3447.16-351371-236142-96956-185484-242914-110187
3450.06-249002-542757-405343-249171-246896-252346
3452.95-406918-408273-312665-287998-136194-109213
3455.84-210090-325410-363576-294683-210256-174360
3458.73-230297-254923-237679-320131-421398-310651
3461.63-232365-282920-366795-391721-273141-210017
3464.52-282140-361430-438356-411214-347447-385830
3467.41-391889-374705-280516-316273-430089-399077
3470.30-361496-326658-363582-397433-318666-214719
3473.20-263954-337185-369774-417994-359804-366234
3476.09-424927-444189-325653-310518-342465-220606
3478.98-235767-392635-377199-250724-284553-370639
3481.88-421258-449761-354501-331818-437727-422290
3484.77-331412-362574-331138-257153-390101-444046
3487.66-310154-217686-252276-304546-394498-461662
3490.55-437457-337759-236752-163251-170737-196290
3493.45-323305-416032-423872-429083-379224-372816
3496.34-428496-445522-434594-342135-262363-302912
3499.23-289558-332504-413553-379611-173666-167387
3502.12-307259-367045-377401-454999-505803-390681
3505.02-388239-399084-349529-374664-395062-343305
3507.91-230261-208972-273286-403725-479991-364327
3510.80-331484-370560-388675-358059-320578-402162
3513.70-409387-314270-237930-201909-224779-289773
3516.59-375663-439953-384605-382570-439557-445332
3519.48-385215-250933-215983-270521-376537-353374
3522.37-300363-207728-175549-358897-468282-448851
3525.27-392618-353296-321419-364548-393867-354732
3528.16-327362-417943-442824-314002-337074-331162
3531.05-273934-308030-372078-423833-450343-377944
3533.94-280996-400904-409187-323726-324332-321282
3536.84-358635-340003-287089-327514-264715-195047
3539.73-245860-256341-274707-399583-416267-345604
3542.62-391896-364729-346854-345336-478718-500168
3545.52-391554-486624-540983-456747-344651-317891
3548.41-224315-269126-336995-366033-374994-369061
3551.30-504331-456619-346776-390909-372673-391690
3554.19-441336-287282-213708-326609-411784-363135
3557.09-332626-381318-442448-322135-315988-459978
3559.98-398463-239498-215459-427341-376258-244649
3562.87-433838-416668-315470-313176-392935-470249
3565.76-534770-564845-462447-667344-836575-555756
3568.66-351683-324975-245912-295614-290188-239164
3571.55-282052-322652-300324-286579-244115-273906
3574.44-334318-356264-379070-283132-292271-367123
3577.34-345153-245992-279757-313395-339331-466641
3580.23-459289-306623-226358-296604-357206-392096
3583.12-378102-311556-311544-381035-339752-460338
3586.01-854667-708442-499219-602784-892012-891202
3588.91-454350-301145-321869-349100-277965-347817
3591.80-387034-418602-415928-279127-254865-314899
3594.69-533471-572870-434566-331550-286514-428779
3597.58-544913-495128-517050-515699-406942-389609
3600.48-431156-425843-429195-423525-475851-521981
3603.37-383354-316474-355403-406464-425250-474989
3606.26-668988-721675-585776-439189-735092-1204198
3609.16-756349-439864-505103-497813-530588-695861
3612.05-913756-648940-406064-534665-661156-567924
3614.94-520420-427511-420828-517668-667904-707527
3617.83-583144-578684-989377-1137726-601601-465776
3620.73-569169-538678-606825-590761-461169-417151
3623.62-432428-474707-514212-521297-588469-596688
3626.51-607117-547890-1106988-1585422-1181373-1622920
3629.40-1411382-606818-562088-534256-479887-358496
3632.30-413795-580047-691892-532808-384145-441786
3635.19-385864-293616-329434-362362-430357-572612
3638.08-567759-558885-515805-348302-308087-428195
3640.98-578095-610687-494530-430505-436306-342104
3643.87-351672-513741-513610-438626-576209-872646
3646.76-1086763-964952-682900-1055844-1899837-1351848
3649.65-803627-1129475-1127127-871576-550831-513183
3652.55-563959-459580-423082-439791-550132-674663
3655.44-1141597-1384948-812770-570729-538013-497764
3658.33-525331-461247-492434-506584-505169-530681
3661.22-521849-517310-439595-428565-485669-466005
3664.12-412373-455281-491196-531521-524671-466303
3667.01-529316-579231-993067-1137398-747474-678650
3669.90-1586344-2012019-971781-496497-543856-511094
3672.80-476416-610710-821373-1340608-1362712-1720630
3675.69-1934397-855430-580656-545739-446597-563506
3678.58-679240-745233-633847-573047-490657-446465
3681.47-516918-522164-526469-509501-493062-516247
3684.37-514190-454229-434782-477908-562574-622556
3687.26-901966-2142781-1955126-714401-577773-624892
3690.15-789093-1060429-935005-639485-532060-433694
3693.04-433546-485843-559977-547417-560301-527570
3695.94-502583-462994-404774-486416-549880-552188
3698.83-562573-569381-588296-540338-657055-965881
3701.72-718276-446764-479960-426051-436760-488540
3704.62-483093-439900-459657-454610-476924-479805
3707.51-502607-571031-872867-1017477-621427-579540
3710.40-764613-726626-1376372-1639845-776912-444451
3713.29-496651-563972-649238-520425-401172-430438
3716.19-377684-310049-423840-468837-468324-534623
3719.08-522152-427734-418567-421534-452010-750421
3721.97-746030-534113-585700-559045-565971-677786
3724.86-591509-539812-790745-833828-592410-561756
3727.76-509234-437534-466316-566358-501938-522877
3730.65-608947-1033107-1665412-1127639-609564-578523
3733.54-693223-1074124-1156797-1030015-822215-1335560
3736.44-1454795-631698-526465-716811-656285-619196
3739.33-579832-671211-846225-858953-759648-666096
3742.22-554873-692663-1193094-2518317-3367393-2074936
3745.11-861903-690793-664903-726473-706395-702805
3748.01-742347-1884482-2722230-1530150-835573-963052
3750.90-979882-2048667-2586092-1212858-664049-747682
3753.79-629305-615724-635565-614671-771735-917602
3756.68-563524-442727-538222-582467-685740-823471
3759.58-814229-642781-591760-511027-408073-459196
3762.47-486065-520229-554659-573902-496558-677432
3765.36-802205-625923-550832-491504-494023-513119
3768.26-508367-648350-1125731-1008655-582511-564326
3771.15-519209-494456-487231-494901-504055-573215
3774.04-560382-527173-553061-593381-577469-527697
3776.93-508020-362263-284699-525339-872445-838219
3779.83-646591-445764-339192-394681-459470-528566
3782.72-511623-556105-598976-642457-637121-608130
3785.61-550738-474931-493351-528000-510991-513163
3788.50-513393-469770-418961-404324-385378-432448
3791.40-517445-505384-516909-555106-435581-402341
3794.29-559907-558307-552421-806884-886819-657940
3797.18-554176-558304-484304-455519-481158-634297
3800.08-751892-1830554-2452466-1237391-723970-779299
3802.97-654083-546565-557731-606360-592895-524756
3805.86-745184-1657602-1478238-701028-624446-593408
3808.75-498289-456560-436421-509580-667310-640513
3811.65-464805-439198-533565-594127-659384-582127
3814.54-497448-1232485-2491845-1752979-676782-719489
3817.43-579111-458874-400676-594492-695424-939295
3820.32-1108654-1131445-1399097-904832-559680-573814
3823.22-521974-553533-480569-433768-453231-570359
3826.11-701927-683982-482943-508649-564628-552333
3829.00-540376-538884-655881-732187-1014275-901936
3831.90-536259-561823-600332-594119-714626-1079207
3834.79-948514-606693-576382-588366-1037547-2420437
3837.68-2052966-802125-690750-688498-714235-694989
3840.57-809487-652001-591674-560394-609246-874989
3843.47-844459-654307-575437-523486-468367-392948
3846.36-436492-507146-404519-374667-389788-427217
3849.25-550876-425355-390449-522826-1540023-2239629
3852.14-1292841-856000-1859454-3375509-2658184-923020
3855.04-489147-493802-489767-552092-511240-367996
3857.93-371884-383468-411329-457660-443736-387318
3860.82-563487-774492-586323-431857-390752-365069
3863.72-403507-837474-1091973-530474-247350-196868
3866.61-153586-354935-434951-528864-807152-1002194
3869.50-1629227-1255768-476681-587369-541638-455738
3872.39-589105-679273-751064-904575-694743-519766
3875.29-520902-475357-481919-458855-452794-461650
3878.18-476340-523073-723482-1104837-1016437-765065
3881.07-680854-524865-552179-587126-494153-433529
3883.96-553589-818909-1447273-1538580-856027-580801
3886.86-505119-516631-590862-587575-575592-626033
3889.75-605054-761204-1139501-882905-553561-496490
3892.64-448622-425617-433069-461642-436045-533933
3895.54-563697-537144-666215-709438-536732-578147
3898.43-941605-1262815-942713-571282-614014-904092
3901.32-1247767-962536-701077-613097-962795-1440040
3904.21-968397-653025-793699-751816-592419-569634
3907.11-593951-610428-562510-543206-556257-541588
3910.00-508143-573902-730173-721346-702887-639876
3912.89-638898-691561-614524-572000-568018-680229
3915.78-684099-653460-889873-759060-532221-639863
3918.68-660280-689252-744703-586493-519344-548991
3921.57-562862-582269-605773-694845-712153-693286
3924.46-666538-590059-584538-573029-580865-610253
3927.36-739326-750777-572956-633203-553772-537477
3930.25-583836-580989-617234-635481-689416-719712
3933.14-743268-579612-497884-530567-539123-576099
3936.03-683967-698510-654200-658494-641405-610402
3938.93-504652-563476-624872-597081-638090-600730
3941.82-560257-591703-596522-614598-547735-512195
3944.71-582536-529509-443954-582125-693021-547426
3947.60-602460-624767-564714-735443-870940-659697
3950.50-431533-453051-505557-556706-558781-520099
3953.39-498330-489349-566190-627439-603154-623824
3956.28-610614-566124-580010-553806-526768-562077
3959.18-611824-570206-514633-622586-688644-629251
3962.07-548649-509795-568028-652536-618436-556274
3964.96-524147-488659-475618-529574-497368-408556
3967.85-461193-494381-405388-336500-399515-504097
3970.75-534551-512752-470569-564365-595087-390488
3973.64-391867-474418
##END=
