##TITLE=9-ETHYL-PHENANTHRENE
##JCAMP-DX=4.24
##DATA TYPE=INFRARED SPECTRUM
##CLASS=COBLENTZ
##ORIGIN=CENTRE D'ETUDES NUCLEAIRES DE GRENOBLE
##OWNER=COBLENTZ SOCIETY
Collection (C) 2018 copyright by the U.S. Secretary of Commerce
on behalf of the United States of America. All rights reserved.
##DATE=Not specified, most likely prior to 1970
##NAMES=9-ethylphenanthrene
##CAS REGISTRY NO=3674-75-7
##MOLFORM=C16 H14
##SOURCE REFERENCE=COBLENTZ NO. 4224
##$NIST SOURCE=COBLENTZ
##$NIST IMAGE=cob4224
##SPECTROMETER/DATA SYSTEM=Not specified, most likely a prism, grating, or hybrid spectrometer.
##STATE=SOLID (1% IN KBr)
##PATH LENGTH=
$$PURITY 98%
##SAMPLING PROCEDURE=TRANSMISSION
##RESOLUTION=4
##DATA PROCESSING=DIGITIZED BY NIST FROM HARD COPY
##XUNITS=MICROMETERS
##YUNITS=TRANSMITTANCE
##XFACTOR=1.000000
##YFACTOR=1
##DELTAX=000.006680
##FIRSTX=1.998
##LASTX=15.9197
##FIRSTY=0.155
##MAXX=15.9197
##MINX=1.998
##MAXY=0.939
##MINY=0.035
##NPOINTS=2085
##XYDATA=(X++(Y..Y))
1.998000 0.1550 0.1550 0.1570 0.1570 0.1580
2.031418 0.1580 0.1580 0.1580 0.1600 0.1620
2.065000 0.1620 0.1630 0.1650 0.1670 0.1670
2.098418 0.1680 0.1680 0.1700 0.1700 0.1720
2.132000 0.1730 0.1770 0.1780 0.1800 0.1820
2.165418 0.1830 0.1850 0.1880 0.1900 0.1920
2.198000 0.1920 0.1930 0.1950 0.1970 0.1980
2.231418 0.2020 0.2040 0.2050 0.2070 0.2100
2.265000 0.2120 0.2140 0.2150 0.2170 0.2190
2.298418 0.2200 0.2220 0.2220 0.2240 0.2250
2.332000 0.2270 0.2270 0.2290 0.2300 0.2320
2.365418 0.2340 0.2350 0.2370 0.2390 0.2390
2.399000 0.2400 0.2420 0.2440 0.2450 0.2450
2.432418 0.2470 0.2490 0.2500 0.2500 0.2540
2.466000 0.2540 0.2570 0.2570 0.2590 0.2590
2.499418 0.2600 0.2620 0.2640 0.2670 0.2700
2.532000 0.2750 0.2820 0.2870 0.2900 0.2900
2.565418 0.2920 0.2940 0.2940 0.2970 0.3010
2.599000 0.3020 0.3020 0.3040 0.3040 0.3060
2.632418 0.3070 0.3090 0.3110 0.3110 0.3120
2.666000 0.3140 0.3190 0.3260 0.3260 0.3270
2.699418 0.3270 0.3290 0.3290 0.3310 0.3310
2.733000 0.3320 0.3340 0.3340 0.3340 0.3360
2.766418 0.3370 0.3370 0.3370 0.3370 0.3390
2.800000 0.3390 0.3390 0.3390 0.3390 0.3410
2.833418 0.3410 0.3410 0.3410 0.3420 0.3420
2.866000 0.3420 0.3420 0.3440 0.3440 0.3440
2.899418 0.3440 0.3460 0.3460 0.3470 0.3470
2.933000 0.3470 0.3490 0.3490 0.3510 0.3520
2.966418 0.3540 0.3560 0.3570 0.3590 0.3620
3.000000 0.3670 0.3690 0.3720 0.3740 0.3760
3.033418 0.3790 0.3820 0.3860 0.3870 0.3890
3.067000 0.3920 0.3940 0.3960 0.3990 0.4010
3.100418 0.4030 0.4060 0.4080 0.4110 0.4130
3.134000 0.4140 0.4160 0.4180 0.4190 0.4190
3.167418 0.4210 0.4230 0.4240 0.4260 0.4280
3.200000 0.4280 0.4310 0.4310 0.4330 0.4340
3.233418 0.4360 0.4380 0.4380 0.4360 0.4310
3.267000 0.4190 0.3910 0.3620 0.3470 0.3290
3.300418 0.3260 0.3270 0.3390 0.3460 0.3560
3.334000 0.3710 0.3840 0.3960 0.3970 0.4230
3.367418 0.4260 0.3820 0.3370 0.2850 0.2340
3.401000 0.2340 0.2570 0.2950 0.2950 0.2640
3.434418 0.2640 0.2770 0.2900 0.3040 0.3140
3.468000 0.3290 0.3320 0.3360 0.3360 0.3010
3.501418 0.3010 0.3370 0.3540 0.3640 0.3720
3.534000 0.3720 0.3710 0.3690 0.3710 0.3940
3.567418 0.4060 0.4130 0.4210 0.4290 0.4390
3.601000 0.4480 0.4540 0.4560 0.4590 0.4640
3.634418 0.4740 0.4790 0.4830 0.4880 0.4910
3.668000 0.4910 0.4930 0.4930 0.4930 0.4940
3.701418 0.4940 0.4960 0.4980 0.5010 0.5050
3.735000 0.5060 0.5100 0.5110 0.5150 0.5160
3.768418 0.5200 0.5200 0.5210 0.5210 0.5230
3.802000 0.5250 0.5250 0.5260 0.5260 0.5280
3.835418 0.5280 0.5300 0.5310 0.5310 0.5330
3.868000 0.5330 0.5350 0.5350 0.5380 0.5400
3.901418 0.5400 0.5410 0.5430 0.5430 0.5450
3.935000 0.5450 0.5460 0.5480 0.5480 0.5500
3.968418 0.5510 0.5510 0.5530 0.5550 0.5550
4.002000 0.5560 0.5560 0.5580 0.5600 0.5600
4.035418 0.5610 0.5630 0.5630 0.5650 0.5660
4.069000 0.5680 0.5700 0.5700 0.5710 0.5730
4.102418 0.5750 0.5750 0.5760 0.5780 0.5800
4.136000 0.5800 0.5810 0.5830 0.5830 0.5850
4.169418 0.5860 0.5880 0.5880 0.5900 0.5910
4.202000 0.5930 0.5930 0.5950 0.5950 0.5950
4.235418 0.5960 0.5960 0.5960 0.5980 0.5980
4.269000 0.5980 0.6000 0.6000 0.6000 0.6020
4.302418 0.6020 0.6030 0.6050 0.6050 0.6070
4.336000 0.6080 0.6080 0.6100 0.6120 0.6120
4.369418 0.6130 0.6150 0.6150 0.6170 0.6180
4.403000 0.6180 0.6200 0.6220 0.6230 0.6250
4.436418 0.6250 0.6270 0.6280 0.6300 0.6300
4.470000 0.6320 0.6330 0.6350 0.6350 0.6370
4.503418 0.6380 0.6400 0.6400 0.6420 0.6430
4.536000 0.6430 0.6430 0.6450 0.6470 0.6470
4.569418 0.6480 0.6480 0.6500 0.6500 0.6520
4.603000 0.6520 0.6530 0.6530 0.6550 0.6570
4.636418 0.6580 0.6600 0.6600 0.6620 0.6630
4.670000 0.6650 0.6650 0.6670 0.6680 0.6700
4.703418 0.6700 0.6720 0.6730 0.6730 0.6730
4.737000 0.6730 0.6750 0.6750 0.6770 0.6770
4.770418 0.6780 0.6780 0.6800 0.6800 0.6820
4.804000 0.6820 0.6830 0.6830 0.6850 0.6850
4.837418 0.6870 0.6880 0.6880 0.6880 0.6900
4.871000 0.6900 0.6900 0.6900 0.6920 0.6920
4.904418 0.6920 0.6930 0.6930 0.6930 0.6950
4.937000 0.6950 0.6970 0.6970 0.6970 0.6980
4.970418 0.6980 0.6980 0.7000 0.7020 0.7040
5.004000 0.7040 0.7050 0.7050 0.7070 0.7090
5.037418 0.7090 0.7100 0.7100 0.7120 0.7120
5.071000 0.7150 0.7150 0.7150 0.7140 0.7120
5.104418 0.7120 0.7100 0.7090 0.7000 0.6900
5.138000 0.6630 0.6280 0.6270 0.6280 0.6470
5.171418 0.6620 0.6800 0.6920 0.7050 0.7090
5.205000 0.7090 0.7040 0.6780 0.6720 0.6500
5.238418 0.6470 0.6470 0.6530 0.6780 0.6900
5.271000 0.6930 0.7090 0.7140 0.7140 0.7000
5.304418 0.6900 0.6780 0.6770 0.6780 0.6820
5.338000 0.6920 0.7070 0.7140 0.7190 0.7200
5.371418 0.7220 0.7220 0.7240 0.7250 0.7290
5.405000 0.7420 0.7450 0.7470 0.7440 0.7420
5.438418 0.7350 0.7320 0.7270 0.7200 0.7120
5.472000 0.7050 0.6980 0.6970 0.6980 0.7020
5.505418 0.7050 0.7170 0.7220 0.7220 0.7220
5.539000 0.7200 0.7150 0.7100 0.7050 0.7040
5.572418 0.7040 0.7040 0.7040 0.7050 0.7070
5.605000 0.7100 0.7150 0.7250 0.7320 0.7370
5.638418 0.7320 0.7270 0.7170 0.7020 0.6970
5.672000 0.6920 0.6930 0.6970 0.7000 0.7050
5.705418 0.7140 0.7250 0.7440 0.7450 0.7490
5.739000 0.7490 0.7450 0.7440 0.7370 0.7350
5.772418 0.7340 0.7320 0.7300 0.7290 0.7270
5.806000 0.7250 0.7240 0.7220 0.7190 0.7190
5.839418 0.7170 0.7150 0.7150 0.7140 0.7120
5.873000 0.7120 0.7100 0.7090 0.7090 0.7070
5.906418 0.7050 0.7050 0.7040 0.7040 0.7040
5.939000 0.7040 0.7050 0.7090 0.7120 0.7150
5.972418 0.7190 0.7220 0.7270 0.7290 0.7300
6.006000 0.7320 0.7340 0.7340 0.7340 0.7320
6.039418 0.7300 0.7270 0.7250 0.7250 0.7240
6.073000 0.7220 0.7200 0.7170 0.7150 0.7120
6.106418 0.7090 0.7050 0.7020 0.6980 0.6950
6.140000 0.6900 0.6820 0.6620 0.6370 0.6080
6.173418 0.5900 0.5730 0.5560 0.5550 0.5580
6.207000 0.5680 0.5700 0.5680 0.5610 0.5480
6.240418 0.5350 0.5260 0.5150 0.5030 0.5010
6.273000 0.5030 0.5100 0.5230 0.5360 0.5530
6.306418 0.5660 0.6020 0.6200 0.6300 0.6350
6.340000 0.6450 0.6650 0.6680 0.6730 0.6850
6.373418 0.6880 0.6880 0.6680 0.6670 0.6700
6.407000 0.6950 0.7000 0.7070 0.7120 0.7140
6.440418 0.7150 0.7190 0.7220 0.7250 0.7290
6.474000 0.7320 0.7500 0.7590 0.7640 0.7650
6.507418 0.7640 0.7590 0.7550 0.7500 0.7370
6.541000 0.7300 0.7220 0.7150 0.6730 0.6730
6.574418 0.6870 0.6970 0.7120 0.7300 0.7320
6.607000 0.7350 0.7390 0.7540 0.7620 0.7690
6.640418 0.7700 0.7700 0.7670 0.7570 0.7500
6.674000 0.7350 0.7200 0.7050 0.6520 0.6020
6.707418 0.5500 0.5030 0.4630 0.4230 0.4230
6.741000 0.4510 0.5650 0.5960 0.6170 0.6420
6.774418 0.6620 0.6730 0.6800 0.6980 0.7100
6.808000 0.7600 0.7590 0.7500 0.7490 0.7400
6.841418 0.7320 0.6900 0.6070 0.5400 0.5110
6.875000 0.5030 0.5000 0.4860 0.4780 0.4690
6.908418 0.4590 0.4410 0.4390 0.4410 0.4530
6.941000 0.4610 0.5100 0.5180 0.5430 0.5430
6.974418 0.5200 0.4930 0.4910 0.4190 0.3460
7.008000 0.2720 0.2720 0.3060 0.3410 0.3770
7.041418 0.4130 0.4480 0.4940 0.5410 0.5560
7.075000 0.5600 0.5680 0.5950 0.6120 0.6280
7.108418 0.6400 0.6480 0.6520 0.6620 0.6650
7.142000 0.6650 0.6700 0.6750 0.6770 0.6800
7.175418 0.6820 0.6850 0.6880 0.6920 0.6970
7.209000 0.7000 0.7050 0.7070 0.7090 0.7090
7.242418 0.7100 0.7100 0.7120 0.7100 0.6880
7.275000 0.6430 0.5910 0.5160 0.4790 0.4760
7.308418 0.4790 0.5550 0.6100 0.6480 0.6770
7.342000 0.6930 0.7050 0.7140 0.7270 0.7390
7.375418 0.7440 0.7470 0.7520 0.7570 0.7620
7.409000 0.7650 0.7700 0.7720 0.7700 0.7390
7.442418 0.7370 0.7400 0.7500 0.7590 0.7670
7.476000 0.7750 0.7840 0.7890 0.7920 0.7920
7.509418 0.7900 0.7820 0.7700 0.7490 0.7400
7.543000 0.7300 0.7190 0.6300 0.5710 0.5710
7.576418 0.6020 0.6320 0.6620 0.6880 0.7100
7.609000 0.7320 0.7420 0.7440 0.7440 0.7390
7.642418 0.7370 0.7300 0.7240 0.7190 0.7090
7.676000 0.6870 0.6500 0.6500 0.6530 0.6850
7.709418 0.7000 0.7170 0.7500 0.7640 0.7720
7.743000 0.7750 0.7840 0.7870 0.7920 0.7950
7.776418 0.8040 0.8040 0.8020 0.7890 0.7820
7.810000 0.7720 0.7640 0.7520 0.7400 0.7350
7.843418 0.7290 0.7270 0.7290 0.7600 0.7720
7.877000 0.7800 0.7870 0.7940 0.8010 0.8070
7.910418 0.8140 0.8170 0.8210 0.8190 0.8170
7.943000 0.8140 0.8110 0.8060 0.8010 0.7900
7.976418 0.7840 0.7720 0.7340 0.6980 0.6630
8.010000 0.6070 0.5400 0.4880 0.4340 0.4340
8.043418 0.4490 0.5780 0.6080 0.6970 0.7100
8.077000 0.7220 0.7450 0.7550 0.7620 0.7650
8.110418 0.7690 0.7700 0.7750 0.7800 0.7820
8.144000 0.7840 0.7850 0.7840 0.7800 0.7740
8.177418 0.7690 0.7670 0.7650 0.7650 0.7650
8.211000 0.7640 0.7620 0.7600 0.7520 0.7420
8.244418 0.7250 0.7090 0.6950 0.6350 0.6000
8.277000 0.5960 0.6000 0.6270 0.6880 0.7070
8.310418 0.7590 0.7690 0.7800 0.7850 0.7850
8.344000 0.7870 0.7870 0.7870 0.7870 0.7870
8.377418 0.7890 0.7900 0.7940 0.7970 0.8020
8.411000 0.8060 0.8110 0.8140 0.8160 0.8270
8.444418 0.8340 0.8370 0.8390 0.8410 0.8420
8.478000 0.8440 0.8470 0.8490 0.8490 0.8490
8.511418 0.8490 0.8490 0.8470 0.8470 0.8460
8.545000 0.8440 0.8410 0.8340 0.8320 0.8320
8.578418 0.8290 0.8260 0.8210 0.8160 0.8120
8.612000 0.8090 0.8060 0.8040 0.8040 0.8020
8.645418 0.8020 0.8010 0.7990 0.7990 0.7970
8.678000 0.7950 0.7940 0.7900 0.7870 0.7750
8.711418 0.6550 0.5350 0.5330 0.5350 0.5680
8.745000 0.6030 0.6400 0.6880 0.7170 0.7800
8.778418 0.7970 0.8110 0.8190 0.8260 0.8270
8.812000 0.8290 0.8310 0.8310 0.8310 0.8290
8.845418 0.8290 0.8270 0.8270 0.8260 0.8240
8.879000 0.8220 0.8220 0.8210 0.8210 0.8210
8.912418 0.8210 0.8210 0.8210 0.8210 0.8210
8.946000 0.8220 0.8220 0.8240 0.8260 0.8260
8.979418 0.8270 0.8270 0.8260 0.8260 0.8240
9.012000 0.8210 0.8140 0.8110 0.8090 0.8070
9.045418 0.8090 0.8110 0.8170 0.8210 0.8240
9.079000 0.8290 0.8360 0.8420 0.8490 0.8510
9.112418 0.8510 0.8520 0.8540 0.8540 0.8520
9.146000 0.8520 0.8520 0.8520 0.8510 0.8510
9.179418 0.8510 0.8520 0.8520 0.8540 0.8560
9.213000 0.8570 0.8570 0.8590 0.8590 0.8570
9.246418 0.8440 0.8370 0.8220 0.8090 0.7990
9.280000 0.7850 0.7720 0.7590 0.7720 0.7850
9.313418 0.8010 0.8040 0.8090 0.8160 0.8210
9.346000 0.8270 0.8340 0.8390 0.8420 0.8460
9.379418 0.8490 0.8520 0.8560 0.8570 0.8590
9.413000 0.8610 0.8640 0.8640 0.8640 0.8660
9.446418 0.8660 0.8660 0.8660 0.8660 0.8640
9.480000 0.8610 0.8510 0.8470 0.7920 0.7350
9.513418 0.7070 0.6780 0.6220 0.6200 0.6230
9.547000 0.6600 0.6780 0.6950 0.7140 0.7270
9.580418 0.7890 0.7970 0.8020 0.8070 0.8090
9.614000 0.8120 0.8140 0.8140 0.8170 0.8170
9.647418 0.8190 0.8220 0.8260 0.8290 0.8340
9.680000 0.8390 0.8410 0.8440 0.8460 0.8470
9.713418 0.8490 0.8510 0.8520 0.8540 0.8560
9.747000 0.8570 0.8590 0.8590 0.8610 0.8620
9.780418 0.8640 0.8660 0.8670 0.8690 0.8710
9.814000 0.8710 0.8720 0.8720 0.8740 0.8740
9.847418 0.8760 0.8760 0.8760 0.8770 0.8770
9.881000 0.8770 0.8790 0.8790 0.8810 0.8810
9.914418 0.8810 0.8790 0.8740 0.8690 0.8510
9.948000 0.8390 0.8210 0.7940 0.7690 0.7420
9.981418 0.7420 0.7700 0.7990 0.8240 0.8420
10.014000 0.8510 0.8640 0.8710 0.8720 0.8760
10.047418 0.8770 0.8790 0.8790 0.8790 0.8810
10.081000 0.8810 0.8810 0.8810 0.8790 0.8790
10.114418 0.8790 0.8790 0.8810 0.8810 0.8810
10.148000 0.8810 0.8810 0.8810 0.8810 0.8810
10.181418 0.8810 0.8810 0.8810 0.8820 0.8840
10.215000 0.8840 0.8860 0.8860 0.8870 0.8870
10.248418 0.8890 0.8890 0.8890 0.8910 0.8910
10.282000 0.8920 0.8920 0.8920 0.8940 0.8940
10.315418 0.8940 0.8960 0.8960 0.8960 0.8960
10.348000 0.8960 0.8970 0.8970 0.8990 0.8990
10.381418 0.8990 0.8960 0.8960 0.8940 0.8910
10.415000 0.8870 0.8840 0.8820 0.8790 0.8760
10.448418 0.8710 0.8270 0.7790 0.7770 0.7650
10.482000 0.6750 0.5850 0.5830 0.4940 0.4940
10.515418 0.5560 0.5600 0.5910 0.6220 0.6530
10.549000 0.6850 0.7190 0.7720 0.7970 0.8190
10.582418 0.8360 0.8510 0.8640 0.8720 0.8770
10.616000 0.8790 0.8870 0.8910 0.8940 0.8970
10.649418 0.8990 0.9010 0.9010 0.9030 0.9030
10.682000 0.9040 0.9060 0.9060 0.9060 0.9080
10.715418 0.9080 0.9080 0.9080 0.9090 0.9090
10.749000 0.9090 0.9110 0.9110 0.9110 0.9140
10.782418 0.9140 0.9140 0.9140 0.9140 0.9140
10.816000 0.9140 0.9140 0.9140 0.9140 0.9140
10.849418 0.9140 0.9140 0.9140 0.9130 0.9130
10.883000 0.9130 0.9130 0.9110 0.9110 0.9090
10.916418 0.9090 0.9080 0.9060 0.9060 0.9040
10.950000 0.9030 0.9030 0.9030 0.9030 0.9010
10.983418 0.9010 0.9010 0.9010 0.9010 0.9030
11.016000 0.9030 0.9040 0.9040 0.9060 0.9060
11.049418 0.9080 0.9080 0.9080 0.9060 0.9060
11.083000 0.9030 0.9010 0.8970 0.8920 0.8860
11.116418 0.8810 0.8740 0.8670 0.8570 0.8540
11.150000 0.8460 0.8290 0.8010 0.7470 0.6930
11.183418 0.6500 0.6370 0.5310 0.4780 0.4240
11.217000 0.3790 0.2620 0.2070 0.1520 0.0760
11.250418 0.0660 0.0660 0.0850 0.1900 0.3110
11.284000 0.3710 0.4310 0.5400 0.5850 0.6220
11.317418 0.6470 0.6770 0.7120 0.7740 0.7940
11.350000 0.8040 0.8070 0.8110 0.8210 0.8410
11.383418 0.8460 0.8520 0.8590 0.8640 0.8710
11.417000 0.8720 0.8720 0.8710 0.8670 0.8660
11.450418 0.8640 0.8620 0.8610 0.8590 0.8570
11.484000 0.8560 0.8520 0.8440 0.8220 0.8210
11.517418 0.8140 0.7740 0.7740 0.7870 0.8070
11.551000 0.8140 0.8210 0.8240 0.8290 0.8320
11.584418 0.8390 0.8420 0.8510 0.8540 0.8510
11.618000 0.7870 0.7240 0.6780 0.6350 0.5250
11.651418 0.5250 0.5510 0.5550 0.5850 0.6030
11.684000 0.6300 0.6750 0.7000 0.7190 0.7540
11.717418 0.7740 0.7970 0.8060 0.8120 0.8220
11.751000 0.8410 0.8510 0.8590 0.8660 0.8710
11.784418 0.8740 0.8770 0.8810 0.8840 0.8870
11.818000 0.8940 0.9010 0.9090 0.9190 0.9210
11.851418 0.9230 0.9260 0.9280 0.9280 0.9260
11.885000 0.9240 0.9230 0.9210 0.9210 0.9210
11.918418 0.9210 0.9230 0.9230 0.9230 0.9240
11.952000 0.9240 0.9260 0.9260 0.9260 0.9280
11.985418 0.9290 0.9310 0.9330 0.9340 0.9360
12.018000 0.9360 0.9360 0.9340 0.9340 0.9330
12.051418 0.9310 0.9280 0.9260 0.9230 0.9210
12.085000 0.9210 0.9240 0.9260 0.9290 0.9340
12.118418 0.9340 0.9380 0.9390 0.9380 0.9360
12.152000 0.9340 0.9330 0.9310 0.9310 0.9330
12.185418 0.9330 0.9340 0.9360 0.9360 0.9360
12.219000 0.9330 0.9310 0.9310 0.9280 0.9240
12.252418 0.9230 0.9230 0.9190 0.9190 0.9180
12.286000 0.9180 0.9180 0.9180 0.9180 0.9160
12.319418 0.9160 0.9160 0.9160 0.9160 0.9160
12.353000 0.9160 0.9160 0.9160 0.9140 0.9140
12.386418 0.9140 0.9130 0.9130 0.9110 0.9110
12.419000 0.9090 0.9030 0.8940 0.8790 0.8560
12.452418 0.8420 0.8360 0.7740 0.7520 0.7300
12.486000 0.6900 0.6680 0.6470 0.6270 0.6050
12.519418 0.5830 0.5630 0.5610 0.5610 0.5700
12.553000 0.5810 0.6000 0.6370 0.6700 0.6970
12.586418 0.7200 0.7840 0.8140 0.8360 0.8420
12.620000 0.8460 0.8520 0.8620 0.8720 0.8810
12.653418 0.8820 0.8820 0.8790 0.8690 0.8670
12.687000 0.8640 0.8610 0.8540 0.8470 0.8390
12.720418 0.8360 0.8320 0.8320 0.8320 0.8360
12.753000 0.8440 0.8490 0.8570 0.8670 0.8770
12.786418 0.8790 0.8810 0.8790 0.8660 0.8640
12.820000 0.8620 0.8520 0.8510 0.8520 0.8560
12.853418 0.8590 0.8640 0.8710 0.8770 0.8820
12.887000 0.8840 0.8870 0.8890 0.8910 0.8910
12.920418 0.8920 0.8920 0.8910 0.8890 0.8890
12.954000 0.8870 0.8860 0.8860 0.8820 0.8820
12.987418 0.8810 0.8810 0.8790 0.8760 0.8740
13.021000 0.8720 0.8690 0.8660 0.8620 0.8590
13.054418 0.8560 0.8510 0.8470 0.8410 0.8370
13.087000 0.8320 0.8240 0.8210 0.8070 0.7920
13.120418 0.7670 0.7520 0.7350 0.7340 0.7290
13.154000 0.7220 0.7200 0.7190 0.7170 0.7150
13.187418 0.7140 0.7100 0.7090 0.7040 0.7000
13.221000 0.6970 0.6920 0.6800 0.6520 0.6220
13.254418 0.6080 0.5960 0.5830 0.5710 0.5160
13.288000 0.4960 0.4790 0.4630 0.4410 0.4180
13.321418 0.3790 0.3340 0.2840 0.2350 0.2140
13.355000 0.1900 0.1470 0.1170 0.0950 0.0730
13.388418 0.0700 0.0680 0.0560 0.0480 0.0450
13.421000 0.0400 0.0380 0.0360 0.0350 0.0350
13.454418 0.0350 0.0360 0.0380 0.0450 0.0480
13.488000 0.0500 0.0530 0.0610 0.0680 0.0860
13.521418 0.0960 0.1100 0.1300 0.1530 0.1870
13.555000 0.2400 0.2600 0.2840 0.3120 0.3420
13.588418 0.3740 0.4030 0.4310 0.4530 0.4730
13.622000 0.4880 0.5300 0.5410 0.5480 0.5610
13.655418 0.5730 0.5830 0.5960 0.6100 0.6330
13.689000 0.6480 0.6570 0.6630 0.6700 0.6730
13.722418 0.6780 0.6780 0.6730 0.6700 0.6600
13.755000 0.6430 0.6320 0.6280 0.6250 0.6080
13.788418 0.5930 0.5730 0.5260 0.4730 0.4440
13.822000 0.4160 0.3940 0.3340 0.3140 0.2490
13.855418 0.2100 0.1920 0.1730 0.1320 0.1300
13.889000 0.1320 0.1770 0.1980 0.3190 0.3970
13.922418 0.4280 0.4580 0.5200 0.5500 0.5750
13.956000 0.5900 0.5980 0.6080 0.6250 0.6520
13.989418 0.6800 0.7040 0.7220 0.7540 0.7650
14.023000 0.7790 0.7940 0.8090 0.8090 0.8110
14.056418 0.8120 0.8140 0.8270 0.8310 0.8390
14.089000 0.8460 0.8490 0.8510 0.8520 0.8520
14.122418 0.8520 0.8540 0.8540 0.8540 0.8560
14.156000 0.8560 0.8560 0.8570 0.8590 0.8610
14.189418 0.8640 0.8690 0.8760 0.8790 0.8840
14.223000 0.8860 0.8890 0.8910 0.8910 0.8890
14.256418 0.8890 0.8890 0.8870 0.8860 0.8840
14.290000 0.8820 0.8820 0.8810 0.8810 0.8790
14.323418 0.8790 0.8810 0.8820 0.8840 0.8860
14.357000 0.8860 0.8870 0.8890 0.8890 0.8910
14.390418 0.8910 0.8910 0.8940 0.8940 0.8960
14.423000 0.8960 0.8960 0.8960 0.8960 0.8940
14.456418 0.8920 0.8910 0.8890 0.8870 0.8860
14.490000 0.8820 0.8790 0.8770 0.8760 0.8760
14.523418 0.8760 0.8770 0.8790 0.8820 0.8840
14.557000 0.8870 0.8910 0.8960 0.8990 0.9030
14.590418 0.9060 0.9060 0.9060 0.9080 0.9080
14.624000 0.9080 0.9090 0.9090 0.9090 0.9060
14.657418 0.9060 0.9040 0.9010 0.8970 0.8920
14.691000 0.8870 0.8820 0.8810 0.8820 0.8860
14.724418 0.8920 0.8970 0.9010 0.9030 0.9040
14.757000 0.9060 0.9080 0.9090 0.9090 0.9090
14.790418 0.9080 0.9060 0.9040 0.9030 0.9010
14.824000 0.8990 0.8990 0.8990 0.8990 0.9010
14.857418 0.9010 0.9030 0.9060 0.9090 0.9110
14.891000 0.9130 0.9140 0.9140 0.9160 0.9160
14.924418 0.9160 0.9140 0.9130 0.9110 0.9090
14.958000 0.9080 0.9040 0.9030 0.8990 0.8970
14.991418 0.8960 0.8920 0.8870 0.8860 0.8840
15.025000 0.8840 0.8840 0.8860 0.8870 0.8890
15.058418 0.8890 0.8910 0.8910 0.8920 0.8940
15.091000 0.8970 0.9010 0.9060 0.9110 0.9130
15.124418 0.9130 0.9090 0.9030 0.8960 0.8870
15.158000 0.8820 0.8790 0.8820 0.8840 0.8870
15.191418 0.8910 0.8940 0.9090 0.9110 0.9090
15.225000 0.9040 0.8990 0.8920 0.8860 0.8790
15.258418 0.8760 0.8720 0.8760 0.8810 0.8910
15.292000 0.8990 0.9030 0.9040 0.9060 0.9060
15.325418 0.9060 0.9030 0.9030 0.8990 0.8960
15.359000 0.8910 0.8890 0.8860 0.8840 0.8840
15.392418 0.8840 0.8860 0.8870 0.8910 0.8920
15.425000 0.8960 0.8970 0.8990 0.8990 0.9010
15.458418 0.9010 0.8990 0.8990 0.8960 0.8940
15.492000 0.8920 0.8910 0.8870 0.8840 0.8820
15.525418 0.8770 0.8740 0.8710 0.8660 0.8610
15.559000 0.8560 0.8510 0.8460 0.8440 0.8370
15.592418 0.8290 0.8210 0.8110 0.8020 0.7870
15.626000 0.7850 0.7820 0.7800 0.7740 0.7550
15.659418 0.7340 0.7290 0.7220 0.7070 0.6980
15.693000 0.6980 0.7300 0.7370 0.7370 0.7350
15.726418 0.7340 0.7350 0.7450 0.7490 0.7500
15.760000 0.7540 0.7620 0.7750 0.7840 0.7870
15.793418 0.7890 0.7920 0.8110 0.8270 0.8390
15.826000 0.8470 0.8510 0.8510 0.8510 0.8490
15.859418 0.8490 0.8490 0.8470 0.8470 0.8460
15.893000 0.8460 0.8460 0.8460 0.8460 0.8460
##END=
