##TITLE=2,3,5-TRIMETHYL-PHENANTHRENE
##JCAMP-DX=4.24
##DATA TYPE=INFRARED SPECTRUM
##CLASS=COBLENTZ
##ORIGIN=CENTRE D'ETUDES NUCLEAIRES DE GRENOBLE
##OWNER=COBLENTZ SOCIETY
Collection (C) 2018 copyright by the U.S. Secretary of Commerce
on behalf of the United States of America. All rights reserved.
##DATE=Not specified, most likely prior to 1970
##NAMES=2,3,5-trimethylphenanthrene
##CAS REGISTRY NO=3674-73-5
##MOLFORM=C17 H16
##SOURCE REFERENCE=COBLENTZ NO. 4221
##$NIST SOURCE=COBLENTZ
##$NIST IMAGE=cob4221
##SPECTROMETER/DATA SYSTEM=Not specified, most likely a prism, grating, or hybrid spectrometer.
##STATE=SOLID (1% IN KBr)
##PATH LENGTH=
$$PURITY 98%
##SAMPLING PROCEDURE=TRANSMISSION
##RESOLUTION=4
##DATA PROCESSING=DIGITIZED BY NIST FROM HARD COPY
##XUNITS=MICROMETERS
##YUNITS=TRANSMITTANCE
##XFACTOR=1.000000
##YFACTOR=1
##DELTAX=000.006694
##FIRSTX=1.989
##LASTX=15.9331
##FIRSTY=0.046
##MAXX=15.9331
##MINX=1.989
##MAXY=0.908
##MINY=0.046
##NPOINTS=2084
##XYDATA=(X++(Y..Y))
1.989000 0.0460 0.0460 0.0480 0.0480 0.0480
2.022487 0.0500 0.0500 0.0500 0.0500 0.0500
2.056000 0.0500 0.0510 0.0510 0.0510 0.0530
2.089487 0.0530 0.0530 0.0530 0.0530 0.0530
2.123000 0.0530 0.0530 0.0530 0.0530 0.0530
2.156487 0.0530 0.0530 0.0530 0.0530 0.0530
2.190000 0.0530 0.0550 0.0550 0.0560 0.0560
2.223487 0.0580 0.0580 0.0580 0.0600 0.0600
2.257000 0.0600 0.0600 0.0600 0.0600 0.0600
2.290487 0.0610 0.0610 0.0650 0.0650 0.0700
2.324000 0.0710 0.0750 0.0750 0.0750 0.0750
2.357487 0.0750 0.0750 0.0750 0.0750 0.0730
2.391000 0.0730 0.0710 0.0700 0.0660 0.0660
2.424487 0.0650 0.0650 0.0650 0.0660 0.0680
2.458000 0.0680 0.0700 0.0700 0.0710 0.0710
2.491487 0.0710 0.0710 0.0710 0.0710 0.0710
2.525000 0.0710 0.0710 0.0710 0.0730 0.0730
2.558487 0.0730 0.0730 0.0730 0.0730 0.0750
2.592000 0.0750 0.0750 0.0760 0.0760 0.0780
2.625487 0.0780 0.0780 0.0780 0.0780 0.0800
2.659000 0.0800 0.0810 0.0810 0.0810 0.0810
2.692487 0.0830 0.0830 0.0850 0.0850 0.0860
2.726000 0.0860 0.0880 0.0880 0.0880 0.0880
2.759487 0.0880 0.0880 0.0880 0.0880 0.0860
2.792000 0.0860 0.0860 0.0860 0.0860 0.0860
2.825487 0.0860 0.0860 0.0860 0.0860 0.0860
2.859000 0.0860 0.0860 0.0860 0.0860 0.0850
2.892487 0.0860 0.0860 0.0850 0.0850 0.0850
2.926000 0.0850 0.0850 0.0850 0.0860 0.0860
2.959487 0.0860 0.0860 0.0880 0.0880 0.0880
2.993000 0.0900 0.0930 0.0930 0.0950 0.0960
3.026487 0.0960 0.0980 0.1000 0.1020 0.1030
3.060000 0.1050 0.1070 0.1080 0.1100 0.1120
3.093487 0.1130 0.1130 0.1130 0.1150 0.1150
3.127000 0.1170 0.1180 0.1220 0.1230 0.1250
3.160487 0.1270 0.1270 0.1280 0.1280 0.1280
3.194000 0.1300 0.1300 0.1320 0.1320 0.1330
3.227487 0.1330 0.1330 0.1350 0.1350 0.1350
3.261000 0.1350 0.1350 0.1330 0.1270 0.1250
3.294487 0.1170 0.1130 0.1100 0.1080 0.1070
3.328000 0.1050 0.1020 0.1020 0.1000 0.0950
3.361487 0.0950 0.0910 0.0900 0.0880 0.0850
3.395000 0.0830 0.0830 0.0810 0.0810 0.0800
3.428487 0.0800 0.0800 0.0810 0.0810 0.0830
3.462000 0.0830 0.0850 0.0860 0.0860 0.0900
3.495487 0.0910 0.0910 0.0950 0.0950 0.0960
3.529000 0.0960 0.0980 0.0980 0.1020 0.1130
3.562487 0.1180 0.1280 0.1370 0.1450 0.1470
3.596000 0.1520 0.1530 0.1550 0.1570 0.1570
3.629487 0.1580 0.1600 0.1620 0.1630 0.1630
3.663000 0.1650 0.1670 0.1670 0.1680 0.1700
3.696487 0.1700 0.1720 0.1730 0.1750 0.1770
3.730000 0.1780 0.1780 0.1800 0.1820 0.1830
3.763487 0.1850 0.1850 0.1870 0.1880 0.1900
3.797000 0.1920 0.1920 0.1930 0.1950 0.1970
3.830487 0.1980 0.1980 0.1980 0.2000 0.2000
3.864000 0.2020 0.2020 0.2040 0.2040 0.2050
3.897487 0.2050 0.2070 0.2090 0.2090 0.2100
3.930000 0.2100 0.2120 0.2120 0.2140 0.2140
3.963487 0.2150 0.2150 0.2170 0.2170 0.2190
3.997000 0.2200 0.2220 0.2220 0.2240 0.2240
4.030487 0.2250 0.2270 0.2270 0.2290 0.2290
4.064000 0.2300 0.2300 0.2340 0.2350 0.2350
4.097487 0.2370 0.2370 0.2390 0.2390 0.2400
4.131000 0.2420 0.2440 0.2470 0.2490 0.2490
4.164487 0.2490 0.2490 0.2490 0.2490 0.2490
4.198000 0.2490 0.2490 0.2490 0.2490 0.2490
4.231487 0.2490 0.2490 0.2490 0.2490 0.2490
4.265000 0.2500 0.2500 0.2500 0.2500 0.2500
4.298487 0.2500 0.2500 0.2520 0.2520 0.2520
4.332000 0.2520 0.2520 0.2520 0.2520 0.2520
4.365487 0.2520 0.2540 0.2550 0.2550 0.2570
4.399000 0.2570 0.2600 0.2640 0.2720 0.2800
4.432487 0.2840 0.2890 0.2920 0.2920 0.2940
4.466000 0.2940 0.2940 0.2940 0.2940 0.2940
4.499487 0.2950 0.2950 0.2950 0.2950 0.2950
4.533000 0.2970 0.2970 0.2990 0.2990 0.3010
4.566487 0.3010 0.3020 0.3020 0.3040 0.3040
4.600000 0.3060 0.3090 0.3110 0.3120 0.3140
4.633487 0.3160 0.3170 0.3190 0.3190 0.3190
4.667000 0.3210 0.3210 0.3210 0.3220 0.3220
4.700487 0.3220 0.3240 0.3240 0.3240 0.3260
4.734000 0.3260 0.3260 0.3270 0.3270 0.3290
4.767487 0.3290 0.3290 0.3310 0.3310 0.3320
4.801000 0.3320 0.3340 0.3360 0.3360 0.3370
4.834487 0.3370 0.3390 0.3410 0.3410 0.3410
4.868000 0.3420 0.3420 0.3420 0.3440 0.3440
4.901487 0.3440 0.3460 0.3460 0.3460 0.3470
4.935000 0.3470 0.3470 0.3490 0.3490 0.3510
4.968487 0.3510 0.3520 0.3520 0.3560 0.3560
5.002000 0.3570 0.3570 0.3570 0.3590 0.3590
5.035487 0.3610 0.3610 0.3610 0.3620 0.3620
5.068000 0.3620 0.3660 0.3660 0.3670 0.3670
5.101487 0.3670 0.3690 0.3690 0.3710 0.3720
5.135000 0.3740 0.3740 0.3760 0.3770 0.3770
5.168487 0.3790 0.3790 0.3790 0.3810 0.3820
5.202000 0.3820 0.3820 0.3820 0.3820 0.3810
5.235487 0.3810 0.3770 0.3710 0.3660 0.3620
5.269000 0.3570 0.3490 0.3470 0.3490 0.3520
5.302487 0.3590 0.3710 0.3760 0.3810 0.3840
5.336000 0.3890 0.3920 0.3960 0.3970 0.3990
5.369487 0.4010 0.4040 0.4040 0.4040 0.4060
5.403000 0.4060 0.4060 0.4060 0.4060 0.4060
5.436487 0.4040 0.4040 0.4030 0.4010 0.3990
5.470000 0.3970 0.3960 0.3970 0.4010 0.4060
5.503487 0.4080 0.4090 0.4110 0.4130 0.4140
5.537000 0.4140 0.4160 0.4190 0.4210 0.4230
5.570487 0.4230 0.4230 0.4230 0.4240 0.4240
5.604000 0.4240 0.4230 0.4230 0.4230 0.4230
5.637487 0.4210 0.4210 0.4190 0.4180 0.4140
5.671000 0.4130 0.4090 0.4060 0.4010 0.4010
5.704487 0.3990 0.3970 0.3940 0.3890 0.3840
5.738000 0.3820 0.3820 0.3840 0.3840 0.3870
5.771487 0.3870 0.3890 0.3890 0.3910 0.3920
5.805000 0.3940 0.3960 0.3960 0.3990 0.3990
5.838487 0.4010 0.4010 0.4030 0.4040 0.4060
5.872000 0.4090 0.4110 0.4140 0.4160 0.4190
5.905487 0.4210 0.4230 0.4240 0.4260 0.4290
5.939000 0.4330 0.4340 0.4360 0.4360 0.4390
5.972487 0.4390 0.4380 0.4340 0.4330 0.4310
6.006000 0.4290 0.4280 0.4280 0.4260 0.4240
6.039487 0.4240 0.4260 0.4280 0.4290 0.4330
6.073000 0.4340 0.4390 0.4460 0.4440 0.4360
6.106487 0.4310 0.4260 0.4240 0.4260 0.4280
6.140000 0.4290 0.4280 0.4260 0.4240 0.4230
6.173487 0.4210 0.4190 0.4180 0.4180 0.4160
6.206000 0.4140 0.4110 0.4080 0.4010 0.3820
6.239487 0.3720 0.3710 0.3740 0.3840 0.3890
6.273000 0.3920 0.3890 0.3870 0.3810 0.3760
6.306487 0.3760 0.3720 0.3720 0.3760 0.3840
6.340000 0.3910 0.3990 0.4060 0.4160 0.4260
6.373487 0.4280 0.4280 0.4260 0.4190 0.4180
6.407000 0.4160 0.4140 0.4140 0.4280 0.4380
6.440487 0.4430 0.4490 0.4510 0.4480 0.4460
6.474000 0.4480 0.4530 0.4590 0.4630 0.4660
6.507487 0.4730 0.4760 0.4790 0.4810 0.4830
6.541000 0.4830 0.4830 0.4810 0.4810 0.4780
6.574487 0.4780 0.4760 0.4760 0.4740 0.4710
6.608000 0.4640 0.4530 0.4390 0.4290 0.4140
6.641487 0.3970 0.3820 0.3770 0.3760 0.3770
6.675000 0.3840 0.3870 0.3890 0.3920 0.3960
6.708487 0.3920 0.3870 0.3820 0.3790 0.3790
6.742000 0.4080 0.4110 0.4140 0.4230 0.4310
6.775487 0.4390 0.4460 0.4530 0.4660 0.4710
6.809000 0.4740 0.4740 0.4740 0.4710 0.4680
6.842487 0.4660 0.4590 0.4040 0.3690 0.3270
6.876000 0.2770 0.2390 0.2200 0.2120 0.2090
6.909487 0.2040 0.2020 0.2000 0.1880 0.1830
6.943000 0.1820 0.1850 0.1930 0.2020 0.2250
6.976487 0.2450 0.2620 0.2790 0.2940 0.3090
7.010000 0.3240 0.3360 0.3490 0.3610 0.3710
7.043487 0.3810 0.3910 0.3990 0.4090 0.4160
7.077000 0.4240 0.4330 0.4380 0.4410 0.4440
7.110487 0.4480 0.4530 0.4580 0.4630 0.4690
7.144000 0.4760 0.4760 0.4740 0.4730 0.4730
7.177487 0.4710 0.4680 0.4680 0.4660 0.4660
7.211000 0.4680 0.4690 0.4690 0.4710 0.4710
7.244487 0.4710 0.4710 0.4690 0.4680 0.4630
7.278000 0.4590 0.4530 0.4510 0.4480 0.4280
7.311487 0.3970 0.3660 0.3590 0.3590 0.3740
7.344000 0.4140 0.4210 0.4360 0.4480 0.4560
7.377487 0.4640 0.4710 0.4760 0.4830 0.4880
7.411000 0.4930 0.4930 0.5000 0.5050 0.5060
7.444487 0.5080 0.5080 0.5110 0.5150 0.5160
7.478000 0.5180 0.5160 0.5110 0.5060 0.5000
7.511487 0.4930 0.4910 0.4930 0.4940 0.5000
7.545000 0.5050 0.5130 0.5210 0.5230 0.5260
7.578487 0.5280 0.5330 0.5330 0.5260 0.5210
7.612000 0.5180 0.5160 0.5150 0.5110 0.5100
7.645487 0.5100 0.5150 0.5210 0.5360 0.5400
7.679000 0.5410 0.5410 0.5430 0.5450 0.5480
7.712487 0.5480 0.5480 0.5460 0.5460 0.5460
7.746000 0.5450 0.5450 0.5430 0.5430 0.5410
7.779487 0.5400 0.5360 0.5310 0.5300 0.5280
7.813000 0.5280 0.5280 0.5260 0.5260 0.5310
7.846487 0.5330 0.5310 0.5300 0.5250 0.5180
7.880000 0.5130 0.5080 0.5050 0.5010 0.5000
7.913487 0.5030 0.5060 0.5100 0.5130 0.5160
7.947000 0.5200 0.5230 0.5260 0.5300 0.5310
7.980487 0.5330 0.5360 0.5380 0.5380 0.5360
8.014000 0.5300 0.5280 0.5250 0.5230 0.5230
8.047487 0.5250 0.5280 0.5310 0.5350 0.5380
8.081000 0.5380 0.5380 0.5380 0.5380 0.5400
8.114487 0.5410 0.5410 0.5400 0.5360 0.5350
8.148000 0.5330 0.5310 0.5310 0.5300 0.5300
8.181487 0.5280 0.5260 0.5250 0.5260 0.5280
8.215000 0.5310 0.5360 0.5430 0.5460 0.5510
8.248487 0.5550 0.5580 0.5630 0.5660 0.5650
8.282000 0.5530 0.5450 0.5310 0.5150 0.5060
8.315487 0.5000 0.5010 0.5060 0.5150 0.5230
8.349000 0.5310 0.5380 0.5450 0.5480 0.5480
8.382487 0.5450 0.5410 0.5380 0.5360 0.5350
8.416000 0.5360 0.5410 0.5460 0.5510 0.5560
8.449487 0.5610 0.5660 0.5710 0.5750 0.5800
8.482000 0.5810 0.5830 0.5850 0.5910 0.5960
8.515487 0.5980 0.5980 0.5980 0.5980 0.5960
8.549000 0.5950 0.5950 0.5930 0.5900 0.5660
8.582487 0.5460 0.5210 0.5110 0.5010 0.4560
8.616000 0.4560 0.4880 0.4910 0.5130 0.5380
8.649487 0.5560 0.5660 0.5710 0.5750 0.5760
8.683000 0.5800 0.5810 0.5810 0.5800 0.5780
8.716487 0.5760 0.5760 0.5780 0.5810 0.5850
8.750000 0.5910 0.5960 0.6000 0.6030 0.6100
8.783487 0.6130 0.6170 0.6220 0.6220 0.6230
8.817000 0.6250 0.6250 0.6250 0.6230 0.6230
8.850487 0.6220 0.6220 0.6200 0.6180 0.6170
8.884000 0.6150 0.6100 0.6050 0.6030 0.6020
8.917487 0.6020 0.6030 0.6070 0.6120 0.6130
8.951000 0.6170 0.6180 0.6200 0.6220 0.6230
8.984487 0.6250 0.6270 0.6280 0.6280 0.6300
9.018000 0.6320 0.6330 0.6350 0.6380 0.6380
9.051487 0.6400 0.6400 0.6420 0.6420 0.6420
9.085000 0.6400 0.6400 0.6380 0.6370 0.6320
9.118487 0.6230 0.6150 0.6020 0.5580 0.5480
9.152000 0.5480 0.5510 0.5650 0.5730 0.5850
9.185487 0.5950 0.6030 0.6200 0.6250 0.6280
9.219000 0.6330 0.6370 0.6380 0.6400 0.6420
9.252487 0.6430 0.6450 0.6470 0.6480 0.6500
9.286000 0.6570 0.6620 0.6670 0.6700 0.6720
9.319487 0.6730 0.6750 0.6750 0.6770 0.6770
9.353000 0.6770 0.6780 0.6780 0.6780 0.6800
9.386487 0.6800 0.6800 0.6800 0.6800 0.6800
9.420000 0.6800 0.6800 0.6800 0.6800 0.6800
9.453487 0.6800 0.6780 0.6780 0.6770 0.6750
9.487000 0.6750 0.6730 0.6730 0.6720 0.6720
9.520487 0.6700 0.6680 0.6630 0.6620 0.6600
9.554000 0.6580 0.6550 0.6550 0.6530 0.6480
9.587487 0.6450 0.6400 0.6380 0.6380 0.6370
9.620000 0.6350 0.6250 0.6130 0.5480 0.5480
9.653487 0.5650 0.5660 0.5660 0.5650 0.5630
9.687000 0.5600 0.5560 0.5510 0.5460 0.5410
9.720487 0.5350 0.5280 0.5210 0.5130 0.5030
9.754000 0.4910 0.4780 0.4680 0.4640 0.4640
9.787487 0.4730 0.4940 0.5010 0.5210 0.5330
9.821000 0.5410 0.5450 0.5460 0.5480 0.5500
9.854487 0.5550 0.5650 0.5800 0.5910 0.5960
9.888000 0.6000 0.6050 0.6200 0.6230 0.6200
9.921487 0.6180 0.6120 0.6020 0.5800 0.5700
9.955000 0.5610 0.5560 0.5500 0.5480 0.5510
9.988487 0.5680 0.5780 0.5930 0.6070 0.6180
10.022000 0.6250 0.6370 0.6520 0.6550 0.6630
10.055487 0.6720 0.6820 0.6900 0.6950 0.6950
10.089000 0.6970 0.6980 0.7020 0.7070 0.7100
10.122487 0.7140 0.7150 0.7140 0.7150 0.7190
10.156000 0.7200 0.7240 0.7250 0.7270 0.7290
10.189487 0.7290 0.7300 0.7300 0.7320 0.7340
10.223000 0.7390 0.7420 0.7440 0.7440 0.7450
10.256487 0.7470 0.7470 0.7490 0.7490 0.7500
10.290000 0.7500 0.7500 0.7520 0.7520 0.7540
10.323487 0.7550 0.7550 0.7540 0.7500 0.7490
10.357000 0.7450 0.7350 0.7200 0.6950 0.6620
10.390487 0.6320 0.5350 0.5010 0.4980 0.5000
10.424000 0.5030 0.5230 0.5450 0.5630 0.5760
10.457487 0.5910 0.5980 0.6020 0.6030 0.6200
10.491000 0.6280 0.6350 0.6400 0.6420 0.6450
10.524487 0.6500 0.6580 0.6680 0.6800 0.6920
10.558000 0.6980 0.7070 0.7150 0.7220 0.7290
10.591487 0.7400 0.7420 0.7420 0.7440 0.7440
10.625000 0.7450 0.7470 0.7500 0.7520 0.7540
10.658487 0.7570 0.7590 0.7600 0.7600 0.7620
10.692000 0.7640 0.7650 0.7650 0.7670 0.7670
10.725487 0.7690 0.7700 0.7740 0.7750 0.7750
10.758000 0.7770 0.7770 0.7790 0.7790 0.7800
10.791487 0.7820 0.7820 0.7820 0.7840 0.7840
10.825000 0.7840 0.7850 0.7850 0.7850 0.7850
10.858487 0.7850 0.7850 0.7850 0.7850 0.7870
10.892000 0.7870 0.7890 0.7890 0.7900 0.7900
10.925487 0.7920 0.7920 0.7920 0.7920 0.7920
10.959000 0.7940 0.7940 0.7950 0.7950 0.7950
10.992487 0.7950 0.7950 0.7950 0.7950 0.7950
11.026000 0.7950 0.7950 0.7940 0.7940 0.7920
11.059487 0.7890 0.7890 0.7870 0.7850 0.7840
11.093000 0.7820 0.7800 0.7800 0.7790 0.7770
11.126487 0.7750 0.7750 0.7740 0.7740 0.7720
11.160000 0.7700 0.7570 0.7370 0.7020 0.6950
11.193487 0.6870 0.6730 0.6080 0.4660 0.4240
11.227000 0.4030 0.3990 0.4030 0.4210 0.4410
11.260487 0.4560 0.5010 0.5500 0.5760 0.5880
11.294000 0.6000 0.6100 0.6250 0.6450 0.6500
11.327487 0.6500 0.6450 0.6420 0.6370 0.6320
11.361000 0.6250 0.6120 0.4880 0.4290 0.3770
11.394487 0.3010 0.2270 0.1520 0.1320 0.1270
11.428000 0.1270 0.1450 0.1920 0.2140 0.2350
11.461487 0.2790 0.3170 0.3560 0.3910 0.4230
11.495000 0.4530 0.4790 0.5200 0.5460 0.5680
11.528487 0.5830 0.5930 0.6020 0.6230 0.6420
11.562000 0.6520 0.6680 0.6770 0.6820 0.6920
11.595487 0.7040 0.7120 0.7150 0.7170 0.7200
11.629000 0.7250 0.7340 0.7440 0.7500 0.7550
11.662487 0.7590 0.7620 0.7640 0.7650 0.7670
11.696000 0.7700 0.7740 0.7770 0.7820 0.7840
11.729487 0.7850 0.7850 0.7870 0.7890 0.7890
11.763000 0.7900 0.7940 0.7940 0.7940 0.7950
11.796487 0.7950 0.8010 0.8010 0.8020 0.8020
11.830000 0.8040 0.8060 0.8070 0.8070 0.8090
11.863487 0.8090 0.8110 0.8120 0.8140 0.8160
11.896000 0.8170 0.8170 0.8190 0.8190 0.8210
11.929487 0.8210 0.8210 0.8220 0.8240 0.8240
11.963000 0.8240 0.8260 0.8260 0.8240 0.8240
11.996487 0.8220 0.8210 0.8170 0.8160 0.8140
12.030000 0.8120 0.8120 0.8110 0.8090 0.8070
12.063487 0.8040 0.8020 0.7990 0.7940 0.7870
12.097000 0.7800 0.7720 0.7640 0.7600 0.7590
12.130487 0.7570 0.7570 0.7500 0.7440 0.7350
12.164000 0.7300 0.7100 0.6820 0.6320 0.6100
12.197487 0.6000 0.5800 0.5060 0.4210 0.3710
12.231000 0.2850 0.2100 0.1700 0.1500 0.0960
12.264487 0.0900 0.0900 0.0950 0.1470 0.1780
12.298000 0.1980 0.2190 0.2770 0.3210 0.3590
12.331487 0.3940 0.4310 0.4740 0.5100 0.5400
12.365000 0.5630 0.5830 0.5910 0.6000 0.6170
12.398487 0.6350 0.6520 0.6730 0.6900 0.6950
12.432000 0.7000 0.7070 0.7290 0.7400 0.7450
12.465487 0.7490 0.7500 0.7540 0.7570 0.7640
12.499000 0.7700 0.7740 0.7770 0.7770 0.7740
12.532487 0.7700 0.7590 0.7500 0.7420 0.7270
12.566000 0.6720 0.6030 0.5460 0.5450 0.5460
12.599487 0.5760 0.5980 0.6170 0.6330 0.6600
12.633000 0.6850 0.7050 0.7270 0.7490 0.7620
12.666487 0.7750 0.7850 0.7900 0.7940 0.7970
12.700000 0.8010 0.8040 0.8110 0.8210 0.8240
12.733487 0.8260 0.8270 0.8310 0.8320 0.8320
12.767000 0.8320 0.8320 0.8320 0.8310 0.8220
12.800487 0.8120 0.8060 0.7970 0.7920 0.7890
12.834000 0.7800 0.7770 0.7740 0.7670 0.7600
12.867487 0.7550 0.7570 0.7600 0.7650 0.7700
12.901000 0.7850 0.7920 0.7970 0.8010 0.8060
12.934487 0.8090 0.8110 0.8140 0.8160 0.8170
12.968000 0.8190 0.8220 0.8260 0.8290 0.8290
13.001487 0.8310 0.8310 0.8310 0.8320 0.8320
13.035000 0.8320 0.8310 0.8290 0.8270 0.8270
13.068487 0.8260 0.8220 0.8190 0.8140 0.8090
13.101000 0.8070 0.8010 0.8010 0.7970 0.7920
13.134487 0.7870 0.7590 0.6770 0.6030 0.4880
13.168000 0.4190 0.3560 0.3040 0.2540 0.2070
13.201487 0.1500 0.1500 0.1600 0.1800 0.1980
13.235000 0.2250 0.2570 0.2940 0.3340 0.3760
13.268487 0.4140 0.4530 0.4860 0.5130 0.5480
13.302000 0.5750 0.5980 0.6080 0.6180 0.6370
13.335487 0.6500 0.6650 0.6780 0.6920 0.7020
13.369000 0.7140 0.7190 0.7270 0.7340 0.7390
13.402487 0.7420 0.7440 0.7450 0.7440 0.7400
13.436000 0.7370 0.7340 0.7290 0.7250 0.7170
13.469487 0.7140 0.7090 0.7070 0.7090 0.7150
13.503000 0.7200 0.7340 0.7440 0.7550 0.7640
13.536487 0.7720 0.7800 0.7870 0.7920 0.7970
13.570000 0.8010 0.8070 0.8120 0.8210 0.8240
13.603487 0.8270 0.8310 0.8370 0.8460 0.8490
13.637000 0.8520 0.8540 0.8560 0.8570 0.8570
13.670487 0.8590 0.8620 0.8660 0.8670 0.8670
13.704000 0.8690 0.8710 0.8740 0.8740 0.8760
13.737487 0.8760 0.8770 0.8770 0.8770 0.8770
13.771000 0.8770 0.8770 0.8790 0.8790 0.8810
13.804487 0.8820 0.8820 0.8820 0.8820 0.8810
13.838000 0.8810 0.8810 0.8810 0.8810 0.8810
13.871487 0.8810 0.8810 0.8790 0.8790 0.8790
13.905000 0.8790 0.8770 0.8770 0.8770 0.8770
13.938487 0.8770 0.8770 0.8770 0.8760 0.8760
13.972000 0.8740 0.8740 0.8720 0.8690 0.8670
14.005487 0.8640 0.8540 0.8490 0.8460 0.8410
14.039000 0.8360 0.8340 0.8240 0.7740 0.6270
14.072487 0.4840 0.4340 0.3970 0.3610 0.3220
14.106000 0.3010 0.2800 0.2700 0.2670 0.2690
14.139487 0.2770 0.2890 0.3060 0.3320 0.3540
14.173000 0.3760 0.4030 0.4310 0.4480 0.4640
14.206487 0.4810 0.4980 0.5150 0.5280 0.5410
14.239000 0.5530 0.5610 0.5730 0.5900 0.5980
14.272487 0.6070 0.6270 0.6470 0.6670 0.6820
14.306000 0.6950 0.7020 0.7150 0.7300 0.7440
14.339487 0.7570 0.7640 0.7720 0.7850 0.7950
14.373000 0.7970 0.8020 0.8140 0.8220 0.8270
14.406487 0.8320 0.8370 0.8420 0.8460 0.8470
14.440000 0.8490 0.8520 0.8560 0.8590 0.8610
14.473487 0.8620 0.8640 0.8660 0.8660 0.8660
14.507000 0.8670 0.8690 0.8710 0.8720 0.8740
14.540487 0.8740 0.8740 0.8760 0.8760 0.8760
14.574000 0.8760 0.8760 0.8770 0.8790 0.8790
14.607487 0.8810 0.8810 0.8820 0.8820 0.8820
14.641000 0.8840 0.8860 0.8860 0.8870 0.8870
14.674487 0.8890 0.8910 0.8910 0.8910 0.8910
14.708000 0.8920 0.8920 0.8940 0.8940 0.8960
14.741487 0.8960 0.8960 0.8960 0.8960 0.8960
14.775000 0.8960 0.8960 0.8960 0.8960 0.8960
14.808487 0.8960 0.8960 0.8970 0.8970 0.8970
14.842000 0.8970 0.8970 0.8970 0.8970 0.8970
14.875487 0.8990 0.8990 0.9010 0.9010 0.9010
14.909000 0.9030 0.9030 0.9030 0.9030 0.9030
14.942487 0.9010 0.9010 0.9010 0.8990 0.8970
14.976000 0.8970 0.8960 0.8960 0.8960 0.8960
15.009487 0.8960 0.8960 0.8970 0.8970 0.8970
15.043000 0.8970 0.8990 0.8990 0.8990 0.8990
15.076487 0.8990 0.8990 0.9010 0.9010 0.9010
15.110000 0.9010 0.9010 0.9010 0.9010 0.9010
15.143487 0.9030 0.9030 0.9030 0.9030 0.9040
15.177000 0.9040 0.9040 0.9040 0.9040 0.9030
15.210487 0.9030 0.9030 0.9010 0.9010 0.9010
15.244000 0.9010 0.8990 0.8990 0.8990 0.9010
15.277487 0.9010 0.9030 0.9040 0.9040 0.9040
15.311000 0.9060 0.9060 0.9060 0.9060 0.9040
15.344487 0.9040 0.9030 0.9030 0.9030 0.9030
15.377000 0.9030 0.9030 0.9030 0.9030 0.9030
15.410487 0.9030 0.9010 0.9010 0.9010 0.9010
15.444000 0.9010 0.9010 0.9010 0.9010 0.9010
15.477487 0.8990 0.8990 0.8990 0.8990 0.8990
15.511000 0.8990 0.8990 0.9010 0.9010 0.9030
15.544487 0.9030 0.9030 0.9040 0.9040 0.9040
15.578000 0.9060 0.9080 0.9080 0.9080 0.9080
15.611487 0.9080 0.9080 0.9080 0.9080 0.9080
15.645000 0.9080 0.9080 0.9080 0.9080 0.9080
15.678487 0.9080 0.9080 0.9080 0.9080 0.9080
15.712000 0.9080 0.9060 0.9040 0.9030 0.9030
15.745487 0.9030 0.9010 0.9010 0.9010 0.9010
15.779000 0.9010 0.9010 0.9010 0.9010 0.9010
15.812487 0.9010 0.8990 0.8990 0.8990 0.8970
15.846000 0.8960 0.8960 0.8920 0.8890 0.8820
15.879487 0.8760 0.8710 0.8690 0.8670 0.8670
15.913000 0.8670 0.8660 0.8620 0.8610
##END=
