##TITLE=2,5-DIMETHYL-PHENANTHRENE
##JCAMP-DX=4.24
##DATA TYPE=INFRARED SPECTRUM
##CLASS=COBLENTZ
##ORIGIN=CENTRE D'ETUDES NUCLEAIRES DE GRENOBLE
##OWNER=COBLENTZ SOCIETY
Collection (C) 2018 copyright by the U.S. Secretary of Commerce
on behalf of the United States of America. All rights reserved.
##DATE=Not specified, most likely prior to 1970
##NAMES=2,5-dimethylphenanthrene
##CAS REGISTRY NO=3674-66-6
##MOLFORM=C16 H14
##SOURCE REFERENCE=COBLENTZ NO. 4235
##$NIST SOURCE=COBLENTZ
##$NIST IMAGE=cob4235
##SPECTROMETER/DATA SYSTEM=Not specified, most likely a prism, grating, or hybrid spectrometer.
##STATE=SOLID (1% IN KI)
##PATH LENGTH=
$$PURITY 99.6%
##SAMPLING PROCEDURE=TRANSMISSION
##RESOLUTION=4
##DATA PROCESSING=DIGITIZED BY NIST FROM HARD COPY
##XUNITS=MICROMETERS
##YUNITS=TRANSMITTANCE
##XFACTOR=1.000000
##YFACTOR=1
##DELTAX=000.006687
##FIRSTX=1.997
##LASTX=15.8935
##FIRSTY=0.227
##MAXX=15.8935
##MINX=1.997
##MAXY=0.901
##MINY=0.044
##NPOINTS=2079
##XYDATA=(X++(Y..Y))
1.997000 0.2270 0.2270 0.2290 0.2290 0.2310
2.030452 0.2310 0.2340 0.2360 0.2370 0.2390
2.064000 0.2390 0.2410 0.2420 0.2440 0.2460
2.097452 0.2470 0.2470 0.2510 0.2520 0.2520
2.131000 0.2540 0.2560 0.2560 0.2570 0.2590
2.164452 0.2590 0.2610 0.2620 0.2620 0.2660
2.198000 0.2670 0.2670 0.2690 0.2710 0.2710
2.231452 0.2720 0.2740 0.2740 0.2760 0.2770
2.264000 0.2770 0.2790 0.2810 0.2810 0.2820
2.297452 0.2840 0.2860 0.2870 0.2910 0.2910
2.331000 0.2920 0.2940 0.2960 0.2960 0.2970
2.364452 0.2990 0.3020 0.3060 0.3070 0.3090
2.398000 0.3090 0.3110 0.3120 0.3140 0.3140
2.431452 0.3160 0.3170 0.3170 0.3210 0.3220
2.465000 0.3240 0.3240 0.3260 0.3270 0.3290
2.498452 0.3290 0.3310 0.3320 0.3340 0.3340
2.532000 0.3360 0.3390 0.3410 0.3420 0.3440
2.565452 0.3470 0.3490 0.3510 0.3520 0.3520
2.599000 0.3540 0.3540 0.3540 0.3540 0.3540
2.632452 0.3540 0.3540 0.3540 0.3560 0.3560
2.666000 0.3560 0.3570 0.3610 0.3620 0.3770
2.699452 0.3790 0.3810 0.3810 0.3810 0.3810
2.733000 0.3820 0.3820 0.3820 0.3820 0.3840
2.766452 0.3840 0.3870 0.3890 0.3910 0.3910
2.799000 0.3910 0.3870 0.3840 0.3810 0.3810
2.832452 0.3790 0.3760 0.3710 0.3670 0.3660
2.866000 0.3620 0.3610 0.3570 0.3540 0.3520
2.899452 0.3510 0.3510 0.3510 0.3510 0.3510
2.933000 0.3510 0.3510 0.3520 0.3520 0.3540
2.966452 0.3540 0.3570 0.3610 0.3640 0.3660
3.000000 0.3710 0.3740 0.3790 0.3820 0.3860
3.033452 0.3870 0.3890 0.3910 0.3920 0.3940
3.067000 0.3960 0.3990 0.4020 0.4040 0.4070
3.100452 0.4100 0.4140 0.4190 0.4200 0.4200
3.134000 0.4220 0.4220 0.4240 0.4240 0.4250
3.167452 0.4270 0.4290 0.4290 0.4300 0.4320
3.201000 0.4320 0.4340 0.4350 0.4350 0.4370
3.234452 0.4390 0.4390 0.4400 0.4400 0.4400
3.267000 0.4400 0.4390 0.4390 0.4320 0.4190
3.300452 0.4040 0.3840 0.3640 0.3320 0.3020
3.334000 0.2810 0.2620 0.2570 0.2610 0.2740
3.367452 0.3010 0.3270 0.3310 0.3310 0.3170
3.401000 0.3090 0.2920 0.2910 0.2940 0.3070
3.434452 0.3220 0.3270 0.3290 0.3310 0.3310
3.468000 0.3270 0.3220 0.3010 0.3010 0.3220
3.501452 0.3570 0.3670 0.3740 0.3770 0.3790
3.535000 0.3810 0.3820 0.3860 0.3910 0.3990
3.568452 0.4290 0.4370 0.4400 0.4570 0.4650
3.602000 0.4670 0.4770 0.4820 0.4840 0.4850
3.635452 0.4890 0.4920 0.4940 0.4950 0.4950
3.669000 0.4970 0.4990 0.4990 0.5000 0.5000
3.702452 0.5020 0.5040 0.5050 0.5070 0.5090
3.736000 0.5150 0.5200 0.5240 0.5250 0.5270
3.769452 0.5270 0.5290 0.5300 0.5320 0.5320
3.802000 0.5340 0.5340 0.5350 0.5370 0.5370
3.835452 0.5390 0.5400 0.5400 0.5420 0.5440
3.869000 0.5450 0.5450 0.5470 0.5490 0.5490
3.902452 0.5500 0.5500 0.5520 0.5540 0.5540
3.936000 0.5550 0.5550 0.5570 0.5590 0.5600
3.969452 0.5620 0.5620 0.5640 0.5640 0.5650
4.003000 0.5690 0.5720 0.5740 0.5750 0.5750
4.036452 0.5770 0.5770 0.5790 0.5790 0.5800
4.070000 0.5800 0.5820 0.5820 0.5820 0.5850
4.103452 0.5850 0.5870 0.5920 0.5950 0.5950
4.137000 0.5950 0.5970 0.5970 0.5970 0.5970
4.170452 0.5990 0.5990 0.6000 0.6000 0.6020
4.204000 0.6020 0.6030 0.6030 0.6050 0.6080
4.237452 0.6120 0.6170 0.6180 0.6200 0.6220
4.271000 0.6250 0.6270 0.6280 0.6280 0.6300
4.304452 0.6300 0.6300 0.6300 0.6300 0.6280
4.337000 0.6280 0.6280 0.6270 0.6250 0.6230
4.370452 0.6200 0.6130 0.6120 0.6130 0.6150
4.404000 0.6180 0.6250 0.6300 0.6350 0.6380
4.437452 0.6400 0.6430 0.6450 0.6470 0.6480
4.471000 0.6500 0.6500 0.6520 0.6520 0.6530
4.504452 0.6550 0.6570 0.6570 0.6580 0.6580
4.538000 0.6580 0.6600 0.6600 0.6600 0.6620
4.571452 0.6620 0.6620 0.6650 0.6650 0.6670
4.605000 0.6670 0.6680 0.6680 0.6700 0.6700
4.638452 0.6720 0.6720 0.6730 0.6730 0.6730
4.672000 0.6750 0.6750 0.6750 0.6770 0.6770
4.705452 0.6770 0.6780 0.6780 0.6800 0.6820
4.739000 0.6830 0.6850 0.6850 0.6870 0.6880
4.772452 0.6880 0.6900 0.6920 0.6930 0.6930
4.806000 0.6950 0.6970 0.6980 0.6980 0.7000
4.839452 0.7000 0.7020 0.7020 0.7020 0.7030
4.872000 0.7050 0.7050 0.7050 0.7050 0.7070
4.905452 0.7070 0.7070 0.7070 0.7080 0.7080
4.939000 0.7080 0.7080 0.7100 0.7100 0.7120
4.972452 0.7120 0.7120 0.7120 0.7130 0.7130
5.006000 0.7130 0.7150 0.7150 0.7170 0.7170
5.039452 0.7170 0.7180 0.7180 0.7200 0.7200
5.073000 0.7200 0.7220 0.7230 0.7250 0.7250
5.106452 0.7270 0.7300 0.7330 0.7370 0.7380
5.140000 0.7380 0.7400 0.7400 0.7380 0.7370
5.173452 0.7320 0.7270 0.7180 0.7080 0.7030
5.207000 0.6970 0.6850 0.6830 0.6850 0.6870
5.240452 0.6930 0.6970 0.7030 0.7050 0.7020
5.274000 0.7000 0.6970 0.6920 0.6830 0.6820
5.307452 0.6850 0.6900 0.6970 0.7130 0.7220
5.341000 0.7300 0.7400 0.7420 0.7430 0.7450
5.374452 0.7450 0.7450 0.7450 0.7430 0.7420
5.407000 0.7400 0.7380 0.7380 0.7380 0.7400
5.440452 0.7400 0.7420 0.7430 0.7450 0.7450
5.474000 0.7470 0.7480 0.7500 0.7520 0.7520
5.507452 0.7520 0.7520 0.7520 0.7530 0.7530
5.541000 0.7570 0.7600 0.7600 0.7620 0.7620
5.574452 0.7580 0.7550 0.7520 0.7450 0.7380
5.608000 0.7330 0.7250 0.7230 0.7250 0.7370
5.641452 0.7400 0.7400 0.7380 0.7320 0.7280
5.675000 0.7270 0.7230 0.7180 0.7130 0.7130
5.708452 0.7080 0.7070 0.7070 0.7080 0.7150
5.742000 0.7200 0.7270 0.7280 0.7300 0.7320
5.775452 0.7320 0.7330 0.7330 0.7280 0.7220
5.809000 0.7180 0.7120 0.7070 0.7050 0.7080
5.842452 0.7200 0.7230 0.7280 0.7330 0.7370
5.876000 0.7380 0.7400 0.7420 0.7430 0.7470
5.909452 0.7500 0.7520 0.7530 0.7530 0.7530
5.942000 0.7550 0.7550 0.7570 0.7580 0.7620
5.975452 0.7630 0.7650 0.7670 0.7670 0.7680
6.009000 0.7680 0.7670 0.7670 0.7630 0.7600
6.042452 0.7550 0.7480 0.7450 0.7450 0.7470
6.076000 0.7480 0.7500 0.7520 0.7520 0.7520
6.109452 0.7520 0.7500 0.7480 0.7450 0.7420
6.143000 0.7400 0.7220 0.7170 0.7030 0.6950
6.176452 0.6850 0.6580 0.6250 0.5800 0.5400
6.210000 0.5100 0.4690 0.4690 0.4900 0.5120
6.243452 0.5340 0.5450 0.5850 0.6130 0.6420
6.277000 0.6570 0.6580 0.6580 0.6580 0.6480
6.310452 0.6370 0.6250 0.6320 0.6570 0.6770
6.344000 0.6950 0.7120 0.7270 0.7320 0.7320
6.377452 0.7270 0.7030 0.6880 0.6730 0.6350
6.410000 0.6250 0.6250 0.6330 0.6430 0.6720
6.443452 0.6900 0.7120 0.7170 0.7200 0.7220
6.477000 0.7230 0.7230 0.7250 0.7270 0.7320
6.510452 0.7350 0.7430 0.7480 0.7470 0.7380
6.544000 0.7320 0.7120 0.7050 0.6980 0.6920
6.577452 0.6750 0.6670 0.6630 0.6670 0.6700
6.611000 0.6730 0.6780 0.6820 0.6870 0.6880
6.644452 0.6920 0.7070 0.7120 0.7170 0.7170
6.678000 0.7220 0.7230 0.7230 0.7220 0.7200
6.711452 0.7180 0.7100 0.7020 0.6850 0.6670
6.745000 0.6380 0.6280 0.6250 0.6230 0.6230
6.778452 0.6250 0.6300 0.6320 0.6300 0.6180
6.812000 0.5990 0.5800 0.5620 0.5600 0.4550
6.845452 0.4150 0.4070 0.3970 0.3940 0.3910
6.879000 0.3870 0.3840 0.3810 0.3770 0.3760
6.912452 0.3620 0.3570 0.3090 0.3090 0.3360
6.945000 0.3620 0.3890 0.4390 0.4750 0.4850
6.978452 0.4940 0.4940 0.4920 0.4840 0.4820
7.012000 0.4850 0.4970 0.5190 0.5390 0.5590
7.045452 0.5800 0.6000 0.6200 0.6370 0.6530
7.079000 0.6680 0.6750 0.6800 0.6820 0.6870
7.112452 0.6980 0.7170 0.7180 0.7230 0.7250
7.146000 0.7250 0.7230 0.7220 0.7200 0.7200
7.179452 0.7180 0.7170 0.7150 0.7150 0.7170
7.213000 0.7230 0.7250 0.7280 0.7280 0.7270
7.246452 0.7120 0.6950 0.6830 0.6680 0.6530
7.280000 0.6450 0.6400 0.6330 0.6320 0.6330
7.313452 0.6450 0.6670 0.6870 0.7270 0.7380
7.347000 0.7470 0.7550 0.7600 0.7670 0.7720
7.380452 0.7750 0.7770 0.7780 0.7820 0.7830
7.414000 0.7850 0.7850 0.7870 0.7880 0.7900
7.447452 0.7900 0.7920 0.7920 0.7920 0.7920
7.480000 0.7900 0.7850 0.7850 0.7750 0.7630
7.513452 0.7430 0.7300 0.7300 0.7350 0.7470
7.547000 0.7570 0.7630 0.7720 0.7770 0.7830
7.580452 0.7850 0.7820 0.7800 0.7750 0.7650
7.614000 0.7420 0.7080 0.7070 0.7080 0.7250
7.647452 0.7430 0.7630 0.7850 0.7930 0.7950
7.681000 0.7970 0.7970 0.7980 0.7980 0.7970
7.714452 0.7950 0.7920 0.7870 0.7730 0.7670
7.748000 0.7650 0.7670 0.7800 0.7880 0.7950
7.781452 0.7970 0.7980 0.8010 0.8060 0.8080
7.815000 0.8110 0.8130 0.8130 0.8130 0.8110
7.848452 0.8060 0.8050 0.8050 0.8030 0.7970
7.882000 0.7930 0.7830 0.7720 0.7670 0.7670
7.915452 0.7780 0.7900 0.7970 0.8010 0.8050
7.949000 0.8060 0.8100 0.8130 0.8150 0.8150
7.982452 0.8150 0.8130 0.8110 0.8010 0.7900
8.015000 0.7700 0.7470 0.7230 0.7000 0.6730
8.048452 0.6470 0.6470 0.6720 0.6830 0.7170
8.082000 0.7370 0.7530 0.7630 0.7730 0.7780
8.115452 0.7820 0.7850 0.7870 0.7880 0.7880
8.149000 0.7900 0.7920 0.7920 0.7920 0.7900
8.182452 0.7870 0.7820 0.7570 0.7230 0.7100
8.216000 0.6950 0.6370 0.5740 0.5740 0.5990
8.249452 0.6250 0.6530 0.6800 0.7450 0.7780
8.283000 0.7950 0.8050 0.8080 0.8150 0.8250
8.316452 0.8300 0.8310 0.8330 0.8330 0.8310
8.350000 0.8280 0.8260 0.8250 0.8200 0.8160
8.383452 0.8130 0.8110 0.8110 0.8110 0.8130
8.417000 0.8150 0.8160 0.8200 0.8250 0.8280
8.450452 0.8350 0.8360 0.8360 0.8350 0.8250
8.484000 0.8110 0.8060 0.7930 0.7770 0.7550
8.517452 0.7530 0.7550 0.7680 0.7830 0.7970
8.550000 0.8000 0.8030 0.8000 0.7900 0.7720
8.583452 0.7430 0.7270 0.7150 0.7130 0.7170
8.617000 0.7330 0.7520 0.7620 0.7730 0.7880
8.650452 0.8030 0.8180 0.8260 0.8380 0.8430
8.684000 0.8510 0.8530 0.8550 0.8550 0.8530
8.717452 0.8530 0.8510 0.8510 0.8480 0.8450
8.751000 0.8400 0.8180 0.8060 0.7970 0.7600
8.784452 0.7550 0.7600 0.7850 0.8000 0.8110
8.818000 0.8210 0.8280 0.8330 0.8380 0.8410
8.851452 0.8430 0.8450 0.8460 0.8480 0.8500
8.885000 0.8500 0.8510 0.8510 0.8530 0.8530
8.918452 0.8550 0.8550 0.8560 0.8560 0.8580
8.952000 0.8580 0.8600 0.8600 0.8600 0.8600
8.985452 0.8580 0.8550 0.8480 0.8450 0.8360
9.019000 0.8260 0.8150 0.8060 0.7980 0.7730
9.052452 0.7670 0.7650 0.7700 0.7900 0.7930
9.085000 0.8050 0.8160 0.8210 0.8310 0.8350
9.118452 0.8360 0.8400 0.8400 0.8410 0.8410
9.152000 0.8430 0.8460 0.8480 0.8480 0.8500
9.185452 0.8510 0.8510 0.8530 0.8530 0.8530
9.219000 0.8530 0.8530 0.8530 0.8530 0.8530
9.252452 0.8530 0.8530 0.8530 0.8550 0.8550
9.286000 0.8560 0.8560 0.8560 0.8580 0.8580
9.319452 0.8600 0.8600 0.8600 0.8610 0.8610
9.353000 0.8610 0.8630 0.8630 0.8630 0.8630
9.386452 0.8630 0.8630 0.8630 0.8630 0.8610
9.420000 0.8610 0.8610 0.8600 0.8580 0.8560
9.453452 0.8550 0.8530 0.8510 0.8500 0.8480
9.487000 0.8460 0.8450 0.8430 0.8410 0.8380
9.520452 0.8360 0.8330 0.8310 0.8300 0.8280
9.553000 0.8210 0.8180 0.8110 0.8050 0.7970
9.586452 0.7970 0.7920 0.7850 0.7780 0.7750
9.620000 0.7730 0.7670 0.7620 0.7600 0.7570
9.653452 0.7550 0.7550 0.7530 0.7520 0.7480
9.687000 0.7450 0.7430 0.7380 0.7370 0.7380
9.720452 0.7420 0.7530 0.7570 0.7630 0.7720
9.754000 0.7880 0.7970 0.8010 0.8030 0.8100
9.787452 0.8210 0.8230 0.8250 0.8260 0.8280
9.821000 0.8280 0.8300 0.8300 0.8300 0.8300
9.854452 0.8300 0.8310 0.8310 0.8330 0.8350
9.888000 0.8350 0.8360 0.8360 0.8360 0.8360
9.921452 0.8360 0.8360 0.8360 0.8350 0.8350
9.955000 0.8330 0.8330 0.8350 0.8350 0.8360
9.988452 0.8360 0.8380 0.8380 0.8380 0.8380
10.022000 0.8360 0.8300 0.8260 0.8160 0.7830
10.055452 0.7800 0.7830 0.7920 0.8050 0.8160
10.088000 0.8280 0.8400 0.8510 0.8600 0.8660
10.121452 0.8700 0.8710 0.8750 0.8780 0.8800
10.155000 0.8810 0.8830 0.8830 0.8850 0.8860
10.188452 0.8910 0.8910 0.8930 0.8930 0.8950
10.222000 0.8950 0.8950 0.8950 0.8950 0.8930
10.255452 0.8900 0.8880 0.8810 0.8800 0.8760
10.289000 0.8700 0.8360 0.8200 0.8050 0.7920
10.322452 0.7720 0.7530 0.7520 0.7530 0.7580
10.356000 0.7670 0.7880 0.8000 0.8060 0.8100
10.389452 0.8160 0.8300 0.8330 0.8360 0.8460
10.423000 0.8480 0.8510 0.8510 0.8510 0.8430
10.456452 0.8410 0.8380 0.8350 0.8300 0.8250
10.490000 0.8150 0.8130 0.8150 0.8300 0.8350
10.523452 0.8360 0.8380 0.8380 0.8410 0.8460
10.557000 0.8550 0.8680 0.8710 0.8750 0.8780
10.590452 0.8810 0.8880 0.8930 0.8950 0.8960
10.623000 0.8980 0.8980 0.8980 0.8960 0.8960
10.656452 0.8950 0.8950 0.8950 0.8950 0.8950
10.690000 0.8960 0.8960 0.8980 0.8980 0.8980
10.723452 0.9000 0.9000 0.9010 0.9010 0.9010
10.757000 0.9010 0.9000 0.8980 0.8980 0.8960
10.790452 0.8950 0.8930 0.8910 0.8860 0.8850
10.824000 0.8830 0.8800 0.8750 0.8700 0.8660
10.857452 0.8650 0.8650 0.8660 0.8700 0.8730
10.891000 0.8750 0.8780 0.8810 0.8860 0.8880
10.924452 0.8910 0.8930 0.8960 0.8980 0.8980
10.958000 0.9000 0.9000 0.9010 0.9010 0.9010
10.991452 0.9010 0.9000 0.8980 0.8980 0.8960
11.025000 0.8910 0.8860 0.8700 0.8580 0.8460
11.058452 0.8280 0.7750 0.7350 0.7180 0.7000
11.092000 0.6920 0.6820 0.6820 0.6880 0.6980
11.125452 0.7670 0.7770 0.7970 0.8030 0.8060
11.158000 0.8100 0.8130 0.8180 0.8230 0.8250
11.191452 0.8260 0.8280 0.8300 0.8300 0.8300
11.225000 0.8300 0.8280 0.8280 0.8260 0.8230
11.258452 0.8210 0.8180 0.8160 0.8150 0.8110
11.292000 0.8030 0.7980 0.7970 0.7900 0.7820
11.325452 0.7780 0.7680 0.7600 0.7520 0.7320
11.359000 0.7030 0.6980 0.6920 0.6550 0.6170
11.392452 0.5370 0.4620 0.4240 0.3860 0.3420
11.426000 0.3110 0.2770 0.2740 0.2770 0.3420
11.459452 0.3570 0.4750 0.4840 0.5220 0.5900
11.493000 0.6530 0.7470 0.7780 0.7830 0.7900
11.526452 0.8050 0.8160 0.8280 0.8310 0.8360
11.560000 0.8410 0.8500 0.8550 0.8600 0.8610
11.593452 0.8630 0.8660 0.8680 0.8680 0.8700
11.627000 0.8710 0.8750 0.8760 0.8810 0.8810
11.660452 0.8830 0.8830 0.8850 0.8860 0.8860
11.693000 0.8860 0.8850 0.8850 0.8850 0.8830
11.726452 0.8810 0.8800 0.8780 0.8760 0.8750
11.760000 0.8730 0.8710 0.8700 0.8680 0.8660
11.793452 0.8650 0.8610 0.8600 0.8580 0.8560
11.827000 0.8550 0.8530 0.8510 0.8500 0.8460
11.860452 0.8450 0.8430 0.8400 0.8380 0.8350
11.894000 0.8300 0.8260 0.8250 0.8060 0.8000
11.927452 0.7930 0.7850 0.7820 0.7770 0.7650
11.961000 0.7500 0.7330 0.7200 0.7080 0.6980
11.994452 0.6870 0.6520 0.6100 0.5850 0.5690
12.028000 0.5450 0.5070 0.4390 0.3970 0.3540
12.061452 0.3170 0.2760 0.2170 0.1790 0.1280
12.095000 0.1130 0.0960 0.0690 0.0610 0.0460
12.128452 0.0440 0.0460 0.0590 0.0730 0.0930
12.162000 0.1510 0.1880 0.2320 0.2810 0.3340
12.195452 0.3920 0.4790 0.4990 0.5170 0.5420
12.228000 0.5590 0.5870 0.6080 0.6120 0.6130
12.261452 0.6120 0.5990 0.5620 0.5370 0.5100
12.295000 0.4990 0.4890 0.4820 0.4800 0.4820
12.328452 0.4870 0.4920 0.4950 0.5000 0.5040
12.362000 0.5090 0.5150 0.5220 0.5300 0.5390
12.395452 0.5490 0.5620 0.5750 0.5920 0.6100
12.429000 0.6300 0.6520 0.6700 0.6850 0.7120
12.462452 0.7230 0.7330 0.7430 0.7530 0.7650
12.496000 0.7770 0.7800 0.7870 0.7900 0.7950
12.529452 0.7980 0.8030 0.8050 0.8080 0.8100
12.563000 0.8130 0.8150 0.8160 0.8200 0.8230
12.596452 0.8250 0.8230 0.8210 0.8130 0.8080
12.630000 0.8030 0.7930 0.7750 0.7430 0.7100
12.663452 0.7020 0.6920 0.6750 0.6700 0.6550
12.697000 0.6070 0.5870 0.5740 0.5540 0.5520
12.730452 0.5540 0.5700 0.5900 0.6100 0.6380
12.763000 0.6670 0.6930 0.7420 0.7630 0.7830
12.796452 0.8000 0.8130 0.8250 0.8310 0.8360
12.830000 0.8400 0.8410 0.8430 0.8450 0.8510
12.863452 0.8530 0.8530 0.8560 0.8560 0.8560
12.897000 0.8550 0.8530 0.8510 0.8500 0.8480
12.930452 0.8460 0.8430 0.8380 0.8310 0.8260
12.964000 0.8130 0.8030 0.7950 0.7850 0.7770
12.997452 0.7650 0.7520 0.7370 0.7170 0.7050
13.031000 0.6920 0.6630 0.6280 0.5870 0.5370
13.064452 0.4870 0.4420 0.4200 0.3970 0.3470
13.098000 0.2870 0.2120 0.1740 0.1390 0.1310
13.131452 0.1190 0.1090 0.1060 0.1090 0.1330
13.165000 0.1490 0.1540 0.1840 0.2110 0.2440
13.198452 0.2740 0.3140 0.3420 0.3620 0.3820
13.231000 0.3990 0.4400 0.4550 0.4640 0.4840
13.264452 0.4970 0.5100 0.5300 0.5440 0.5570
13.298000 0.5750 0.5940 0.6100 0.6250 0.6430
13.331452 0.6570 0.6770 0.6880 0.6980 0.7180
13.365000 0.7230 0.7300 0.7420 0.7480 0.7530
13.398452 0.7580 0.7630 0.7670 0.7730 0.7820
13.432000 0.7930 0.7970 0.7980 0.8000 0.8010
13.465452 0.8050 0.8080 0.8160 0.8250 0.8260
13.499000 0.8280 0.8300 0.8330 0.8360 0.8400
13.532452 0.8410 0.8410 0.8410 0.8430 0.8450
13.566000 0.8460 0.8480 0.8500 0.8510 0.8510
13.599452 0.8530 0.8530 0.8550 0.8560 0.8600
13.633000 0.8600 0.8610 0.8610 0.8630 0.8630
13.666452 0.8630 0.8630 0.8630 0.8630 0.8650
13.700000 0.8650 0.8660 0.8660 0.8660 0.8650
13.733452 0.8650 0.8650 0.8630 0.8630 0.8630
13.766000 0.8610 0.8610 0.8580 0.8560 0.8530
13.799452 0.8500 0.8480 0.8480 0.8460 0.8450
13.833000 0.8430 0.8410 0.8400 0.8380 0.8350
13.866452 0.8300 0.8280 0.8250 0.8230 0.8200
13.900000 0.8050 0.8000 0.7930 0.7800 0.7730
13.933452 0.7620 0.7470 0.7300 0.7100 0.7000
13.967000 0.6900 0.6670 0.6300 0.6070 0.5550
14.000452 0.5190 0.4920 0.4750 0.4640 0.4520
14.034000 0.4400 0.4220 0.4090 0.3940 0.3620
14.067452 0.3460 0.3190 0.2920 0.2670 0.2410
14.101000 0.2170 0.1930 0.1830 0.1790 0.1810
14.134452 0.1980 0.2170 0.2560 0.2920 0.3260
14.168000 0.3610 0.3940 0.4590 0.4940 0.5270
14.201452 0.5450 0.5850 0.6070 0.6380 0.6630
14.235000 0.6850 0.7170 0.7280 0.7380 0.7470
14.268452 0.7550 0.7630 0.7720 0.7820 0.7850
14.301000 0.7870 0.7900 0.7900 0.7920 0.7930
14.334452 0.7950 0.7950 0.7950 0.7970 0.7970
14.368000 0.7980 0.8010 0.8050 0.8050 0.8080
14.401452 0.8100 0.8130 0.8180 0.8230 0.8260
14.435000 0.8300 0.8300 0.8310 0.8310 0.8330
14.468452 0.8330 0.8360 0.8360 0.8380 0.8400
14.502000 0.8400 0.8400 0.8410 0.8410 0.8410
14.535452 0.8410 0.8410 0.8410 0.8450 0.8450
14.569000 0.8450 0.8450 0.8460 0.8460 0.8460
14.602452 0.8460 0.8460 0.8460 0.8460 0.8460
14.636000 0.8460 0.8460 0.8460 0.8460 0.8460
14.669452 0.8460 0.8480 0.8500 0.8500 0.8500
14.703000 0.8500 0.8510 0.8510 0.8510 0.8510
14.736452 0.8510 0.8510 0.8510 0.8510 0.8510
14.770000 0.8510 0.8510 0.8510 0.8530 0.8530
14.803452 0.8530 0.8530 0.8530 0.8530 0.8550
14.836000 0.8550 0.8560 0.8580 0.8580 0.8600
14.869452 0.8600 0.8600 0.8600 0.8580 0.8580
14.903000 0.8560 0.8530 0.8500 0.8500 0.8530
14.936452 0.8560 0.8580 0.8600 0.8610 0.8610
14.970000 0.8610 0.8600 0.8560 0.8510 0.8510
15.003452 0.8460 0.8450 0.8430 0.8430 0.8450
15.037000 0.8460 0.8480 0.8500 0.8500 0.8510
15.070452 0.8530 0.8550 0.8550 0.8560 0.8560
15.104000 0.8580 0.8580 0.8610 0.8630 0.8630
15.137452 0.8630 0.8630 0.8630 0.8610 0.8610
15.171000 0.8600 0.8580 0.8580 0.8560 0.8560
15.204452 0.8550 0.8530 0.8530 0.8550 0.8550
15.238000 0.8560 0.8560 0.8560 0.8550 0.8550
15.271452 0.8530 0.8510 0.8530 0.8550 0.8550
15.305000 0.8560 0.8560 0.8560 0.8550 0.8550
15.338452 0.8510 0.8480 0.8480 0.8480 0.8500
15.371000 0.8550 0.8560 0.8560 0.8550 0.8550
15.404452 0.8530 0.8530 0.8530 0.8530 0.8530
15.438000 0.8550 0.8550 0.8580 0.8610 0.8610
15.471452 0.8600 0.8580 0.8580 0.8580 0.8560
15.505000 0.8550 0.8550 0.8550 0.8550 0.8550
15.538452 0.8550 0.8550 0.8530 0.8530 0.8530
15.572000 0.8530 0.8530 0.8550 0.8550 0.8550
15.605452 0.8550 0.8530 0.8510 0.8480 0.8480
15.639000 0.8480 0.8500 0.8510 0.8530 0.8550
15.672452 0.8550 0.8550 0.8560 0.8560 0.8550
15.706000 0.8550 0.8530 0.8510 0.8500 0.8480
15.739452 0.8480 0.8480 0.8500 0.8500 0.8510
15.773000 0.8510 0.8550 0.8550 0.8530 0.8530
15.806452 0.8510 0.8510 0.8500 0.8500 0.8480
15.840000 0.8480 0.8460 0.8460 0.8450 0.8450
15.873452 0.8430 0.8410 0.8450 0.8430
##END=
