##TITLE=2,3-DIMETHYL-PHENANTHRENE
##JCAMP-DX=4.24
##DATA TYPE=INFRARED SPECTRUM
##CLASS=COBLENTZ
##ORIGIN=CENTRE D'ETUDES NUCLEAIRES DE GRENOBLE
##OWNER=COBLENTZ SOCIETY
Collection (C) 2018 copyright by the U.S. Secretary of Commerce
on behalf of the United States of America. All rights reserved.
##DATE=Not specified, most likely prior to 1970
##NAMES=2,3-dimethylphenanthrene
##CAS REGISTRY NO=3674-65-5
##MOLFORM=C16 H14
##SOURCE REFERENCE=COBLENTZ NO. 4236
##$NIST SOURCE=COBLENTZ
##$NIST IMAGE=cob4236
##SPECTROMETER/DATA SYSTEM=Not specified, most likely a prism, grating, or hybrid spectrometer.
##STATE=SOLID (1% IN KBr)
##PATH LENGTH=
$$PURITY 99.5%
##SAMPLING PROCEDURE=TRANSMISSION
##RESOLUTION=4
$$SPECTRAL CONTAMINATION DUE TO AN UNKNOWN AROUND 2300 CM^-^1
##DATA PROCESSING=DIGITIZED BY NIST FROM HARD COPY
##XUNITS=MICROMETERS
##YUNITS=TRANSMITTANCE
##XFACTOR=1.000000
##YFACTOR=1
##DELTAX=000.006677
##FIRSTX=1.978
##LASTX=15.9931
##FIRSTY=0.093
##MAXX=15.9931
##MINX=1.978
##MAXY=1.02
##MINY=0.03
##NPOINTS=2100
##XYDATA=(X++(Y..Y))
1.978000 0.0930 0.0930 0.0950 0.0970 0.0980
2.011401 0.0980 0.1000 0.1000 0.1020 0.1030
2.045000 0.1050 0.1070 0.1070 0.1080 0.1100
2.078401 0.1100 0.1120 0.1130 0.1150 0.1170
2.112000 0.1170 0.1180 0.1200 0.1200 0.1220
2.145401 0.1230 0.1230 0.1250 0.1270 0.1270
2.179000 0.1280 0.1300 0.1320 0.1340 0.1350
2.212401 0.1370 0.1390 0.1420 0.1440 0.1450
2.246000 0.1470 0.1490 0.1500 0.1540 0.1550
2.279401 0.1570 0.1590 0.1620 0.1640 0.1650
2.312000 0.1670 0.1690 0.1700 0.1720 0.1720
2.345401 0.1740 0.1750 0.1750 0.1770 0.1790
2.379000 0.1800 0.1820 0.1820 0.1840 0.1840
2.412401 0.1850 0.1850 0.1870 0.1890 0.1900
2.446000 0.1920 0.1920 0.1940 0.1950 0.1970
2.479401 0.1970 0.1990 0.2010 0.2020 0.2040
2.513000 0.2060 0.2070 0.2070 0.2090 0.2110
2.546401 0.2110 0.2120 0.2140 0.2160 0.2190
2.579000 0.2210 0.2220 0.2240 0.2270 0.2290
2.612401 0.2310 0.2340 0.2360 0.2370 0.2390
2.646000 0.2390 0.2410 0.2420 0.2440 0.2460
2.679401 0.2470 0.2490 0.2510 0.2520 0.2540
2.713000 0.2560 0.2570 0.2590 0.2620 0.2640
2.746401 0.2660 0.2680 0.2690 0.2710 0.2730
2.780000 0.2740 0.2760 0.2760 0.2760 0.2760
2.813401 0.2740 0.2710 0.2710 0.2690 0.2680
2.846000 0.2680 0.2660 0.2640 0.2640 0.2640
2.879401 0.2660 0.2660 0.2680 0.2680 0.2690
2.913000 0.2690 0.2710 0.2710 0.2730 0.2740
2.946401 0.2760 0.2760 0.2780 0.2790 0.2810
2.980000 0.2830 0.2840 0.2860 0.2880 0.2910
3.013401 0.2930 0.2940 0.2960 0.2980 0.2990
3.047000 0.3010 0.3040 0.3080 0.3110 0.3140
3.080401 0.3240 0.3350 0.3430 0.3460 0.3510
3.114000 0.3530 0.3560 0.3600 0.3610 0.3630
3.147401 0.3630 0.3650 0.3660 0.3680 0.3710
3.180000 0.3750 0.3800 0.3850 0.3880 0.3900
3.213401 0.3910 0.3910 0.3930 0.3930 0.3950
3.247000 0.3950 0.3950 0.3950 0.3930 0.3930
3.280401 0.3900 0.3860 0.3730 0.3610 0.3500
3.314000 0.3350 0.3160 0.2940 0.2840 0.2780
3.347401 0.2710 0.2690 0.2680 0.2690 0.2710
3.381000 0.2760 0.2860 0.2990 0.2990 0.2890
3.414401 0.2710 0.2540 0.2470 0.2440 0.2460
3.447000 0.2470 0.2470 0.2460 0.2410 0.2320
3.480401 0.2310 0.2340 0.2610 0.2810 0.2940
3.514000 0.2960 0.2990 0.3030 0.3160 0.3210
3.547401 0.3230 0.3240 0.3280 0.3450 0.3600
3.581000 0.3710 0.3950 0.4000 0.4050 0.4180
3.614401 0.4230 0.4280 0.4300 0.4350 0.4430
3.648000 0.4470 0.4500 0.4550 0.4580 0.4620
3.681401 0.4630 0.4650 0.4650 0.4670 0.4670
3.714000 0.4690 0.4690 0.4700 0.4700 0.4750
3.747401 0.4800 0.4840 0.4850 0.4890 0.4920
3.781000 0.4950 0.4970 0.5000 0.5040 0.5050
3.814401 0.5050 0.5100 0.5120 0.5120 0.5140
3.848000 0.5140 0.5150 0.5150 0.5150 0.5170
3.881401 0.5170 0.5190 0.5220 0.5220 0.5240
3.915000 0.5240 0.5250 0.5250 0.5270 0.5270
3.948401 0.5300 0.5300 0.5340 0.5370 0.5420
3.982000 0.5440 0.5460 0.5470 0.5510 0.5560
4.015401 0.5560 0.5570 0.5590 0.5590 0.5610
4.048000 0.5620 0.5620 0.5640 0.5640 0.5640
4.081401 0.5640 0.5660 0.5660 0.5670 0.5670
4.115000 0.5690 0.5690 0.5720 0.5720 0.5760
4.148401 0.5770 0.5790 0.5810 0.5840 0.5840
4.182000 0.5860 0.5870 0.5870 0.5890 0.5910
4.215401 0.5910 0.5920 0.5940 0.5940 0.5960
4.249000 0.5960 0.5970 0.5970 0.5970 0.5910
4.282401 0.5820 0.5710 0.5590 0.5470 0.5440
4.315000 0.5390 0.5340 0.5300 0.5250 0.5190
4.348401 0.5170 0.5170 0.5200 0.5420 0.5570
4.382000 0.5670 0.5770 0.5840 0.5890 0.5970
4.415401 0.6060 0.6180 0.6210 0.6280 0.6310
4.449000 0.6360 0.6380 0.6410 0.6460 0.6480
4.482401 0.6490 0.6510 0.6530 0.6540 0.6560
4.516000 0.6580 0.6580 0.6590 0.6590 0.6610
4.549401 0.6640 0.6660 0.6660 0.6680 0.6680
4.582000 0.6700 0.6710 0.6710 0.6710 0.6730
4.615401 0.6730 0.6760 0.6780 0.6800 0.6810
4.649000 0.6830 0.6850 0.6850 0.6860 0.6860
4.682401 0.6860 0.6860 0.6860 0.6880 0.6880
4.716000 0.6900 0.6900 0.6910 0.6930 0.6950
4.749401 0.6960 0.6980 0.7010 0.7030 0.7060
4.783000 0.7080 0.7100 0.7100 0.7100 0.7100
4.816401 0.7100 0.7080 0.7080 0.7080 0.7100
4.850000 0.7100 0.7100 0.7100 0.7100 0.7110
4.883401 0.7110 0.7130 0.7130 0.7150 0.7160
4.916000 0.7160 0.7180 0.7200 0.7210 0.7210
4.949401 0.7230 0.7250 0.7250 0.7260 0.7260
4.983000 0.7280 0.7280 0.7300 0.7310 0.7330
5.016401 0.7350 0.7370 0.7380 0.7380 0.7400
5.050000 0.7400 0.7420 0.7420 0.7430 0.7430
5.083401 0.7430 0.7450 0.7450 0.7450 0.7450
5.117000 0.7450 0.7430 0.7430 0.7420 0.7400
5.150401 0.7400 0.7380 0.7380 0.7370 0.7350
5.183000 0.7310 0.7280 0.7260 0.7260 0.7260
5.216401 0.7260 0.7260 0.7260 0.7250 0.7210
5.250000 0.7200 0.7160 0.7130 0.7130 0.7100
5.283401 0.7080 0.7080 0.7080 0.7100 0.7110
5.317000 0.7130 0.7180 0.7230 0.7310 0.7420
5.350401 0.7470 0.7500 0.7580 0.7600 0.7630
5.384000 0.7650 0.7650 0.7670 0.7670 0.7680
5.417401 0.7680 0.7700 0.7700 0.7680 0.7680
5.450000 0.7670 0.7650 0.7630 0.7630 0.7620
5.483401 0.7580 0.7570 0.7570 0.7570 0.7550
5.517000 0.7550 0.7550 0.7570 0.7570 0.7580
5.550401 0.7580 0.7600 0.7600 0.7620 0.7620
5.584000 0.7620 0.7620 0.7630 0.7630 0.7630
5.617401 0.7650 0.7650 0.7650 0.7670 0.7680
5.651000 0.7700 0.7720 0.7720 0.7700 0.7680
5.684401 0.7630 0.7600 0.7520 0.7400 0.7150
5.718000 0.7030 0.6910 0.6780 0.6710 0.6640
5.751401 0.6630 0.6640 0.6680 0.6730 0.6850
5.784000 0.6960 0.7050 0.7200 0.7250 0.7300
5.817401 0.7310 0.7330 0.7370 0.7420 0.7430
5.851000 0.7450 0.7480 0.7520 0.7530 0.7550
5.884401 0.7550 0.7530 0.7530 0.7530 0.7520
5.918000 0.7520 0.7520 0.7500 0.7470 0.7420
5.951401 0.7400 0.7420 0.7430 0.7450 0.7470
5.985000 0.7470 0.7480 0.7480 0.7470 0.7470
6.018401 0.7450 0.7430 0.7400 0.7370 0.7300
6.051000 0.7280 0.7280 0.7310 0.7370 0.7400
6.084401 0.7430 0.7430 0.7400 0.7380 0.7380
6.118000 0.7370 0.7370 0.7380 0.7380 0.7400
6.151401 0.7430 0.7430 0.7380 0.7350 0.7300
6.185000 0.7200 0.7030 0.6810 0.6610 0.6410
6.218401 0.6180 0.6160 0.6180 0.6210 0.6280
6.252000 0.6430 0.6530 0.6560 0.6560 0.6530
6.285401 0.6410 0.6130 0.5470 0.5410 0.5390
6.318000 0.5570 0.6440 0.6800 0.7100 0.7300
6.351401 0.7430 0.7530 0.7580 0.7620 0.7650
6.385000 0.7670 0.7650 0.7650 0.7620 0.7580
6.418401 0.7580 0.7580 0.7600 0.7600 0.7650
6.452000 0.7670 0.7650 0.7570 0.7520 0.7430
6.485401 0.7420 0.7430 0.7500 0.7550 0.7630
6.519000 0.7650 0.7650 0.7630 0.7550 0.7530
6.552401 0.7480 0.7470 0.7480 0.7530 0.7550
6.586000 0.7600 0.7630 0.7630 0.7600 0.7530
6.619401 0.7350 0.7050 0.6730 0.6340 0.6130
6.652000 0.6090 0.6130 0.6180 0.6260 0.6260
6.685401 0.6240 0.6010 0.5940 0.5760 0.5320
6.719000 0.4920 0.4470 0.4380 0.4380 0.4570
6.752401 0.5270 0.5670 0.6010 0.6290 0.6580
6.786000 0.7000 0.7350 0.7480 0.7530 0.7620
6.819401 0.7650 0.7650 0.7620 0.7530 0.7380
6.853000 0.7200 0.7030 0.6780 0.5670 0.5300
6.886401 0.4990 0.4970 0.3380 0.3010 0.2740
6.919000 0.2710 0.3110 0.3330 0.3360 0.3360
6.952401 0.3350 0.3180 0.2860 0.2590 0.2560
6.986000 0.2590 0.2980 0.3180 0.3360 0.3560
7.019401 0.3750 0.3950 0.4130 0.4230 0.4450
7.053000 0.4670 0.5020 0.5270 0.5690 0.6030
7.086401 0.6210 0.6460 0.6560 0.6640 0.6780
7.120000 0.7000 0.7100 0.7330 0.7430 0.7470
7.153401 0.7480 0.7520 0.7550 0.7600 0.7630
7.186000 0.7650 0.7670 0.7670 0.7670 0.7670
7.219401 0.7650 0.7650 0.7650 0.7650 0.7630
7.253000 0.7600 0.7530 0.7470 0.7400 0.7380
7.286401 0.7330 0.7260 0.7260 0.7210 0.7200
7.320000 0.7210 0.7230 0.7330 0.7400 0.7470
7.353401 0.7520 0.7570 0.7580 0.7600 0.7620
7.387000 0.7630 0.7650 0.7670 0.7700 0.7750
7.420401 0.7800 0.7830 0.7870 0.7880 0.7870
7.454000 0.7600 0.7310 0.7180 0.7030 0.6860
7.487401 0.6830 0.6860 0.6980 0.7100 0.7200
7.520000 0.7400 0.7470 0.7500 0.7550 0.7680
7.553401 0.7950 0.8000 0.8050 0.8200 0.8270
7.587000 0.8320 0.8370 0.8400 0.8440 0.8450
7.620401 0.8490 0.8500 0.8540 0.8550 0.8590
7.654000 0.8600 0.8620 0.8620 0.8640 0.8650
7.687401 0.8650 0.8670 0.8710 0.8710 0.8720
7.721000 0.8720 0.8740 0.8740 0.8740 0.8740
7.754401 0.8720 0.8710 0.8670 0.8640 0.8570
7.787000 0.8540 0.8520 0.8540 0.8550 0.8600
7.820401 0.8670 0.8690 0.8720 0.8720 0.8740
7.854000 0.8740 0.8740 0.8740 0.8720 0.8720
7.887401 0.8720 0.8720 0.8720 0.8720 0.8710
7.921000 0.8710 0.8710 0.8690 0.8670 0.8620
7.954401 0.8500 0.8340 0.8020 0.7800 0.7520
7.988000 0.7210 0.6860 0.6530 0.6180 0.6180
8.021401 0.6440 0.6730 0.7010 0.7300 0.7550
8.054000 0.8000 0.8170 0.8250 0.8390 0.8450
8.087401 0.8500 0.8520 0.8540 0.8550 0.8550
8.121000 0.8550 0.8570 0.8570 0.8550 0.8550
8.154401 0.8550 0.8540 0.8540 0.8520 0.8490
8.188000 0.8390 0.8220 0.7930 0.6830 0.6480
8.221401 0.5920 0.5860 0.5040 0.5040 0.5420
8.255000 0.5570 0.5810 0.6760 0.7100 0.7400
8.288401 0.7430 0.7420 0.7150 0.6900 0.6280
8.322000 0.6180 0.6190 0.6380 0.6980 0.7400
8.355401 0.7580 0.7830 0.7880 0.7880 0.7920
8.388000 0.7920 0.7930 0.7930 0.7950 0.8000
8.421401 0.8070 0.8240 0.8290 0.8300 0.8340
8.455000 0.8420 0.8470 0.8500 0.8570 0.8600
8.488401 0.8710 0.8740 0.8760 0.8770 0.8860
8.522000 0.8910 0.8940 0.8970 0.8970 0.8990
8.555401 0.8990 0.8990 0.8970 0.8960 0.8920
8.589000 0.8890 0.8860 0.8840 0.8810 0.8740
8.622401 0.8710 0.8690 0.8670 0.8650 0.8640
8.655000 0.8640 0.8650 0.8670 0.8710 0.8740
8.688401 0.8770 0.8790 0.8790 0.8770 0.8720
8.722000 0.8690 0.8540 0.8370 0.8090 0.8040
8.755401 0.7930 0.7920 0.7950 0.8090 0.8250
8.789000 0.8420 0.8470 0.8540 0.8590 0.8620
8.822401 0.8640 0.8620 0.8540 0.8450 0.7980
8.856000 0.7630 0.7580 0.7400 0.7400 0.7500
8.889401 0.7970 0.8120 0.8300 0.8420 0.8500
8.922000 0.8550 0.8600 0.8640 0.8690 0.8740
8.955401 0.8770 0.8790 0.8810 0.8820 0.8870
8.989000 0.8890 0.8910 0.8920 0.8940 0.8960
9.022401 0.8970 0.8970 0.8990 0.8990 0.9010
9.056000 0.9010 0.9020 0.9020 0.9020 0.9020
9.089401 0.9040 0.9040 0.9040 0.9040 0.9040
9.123000 0.9040 0.9020 0.8810 0.8670 0.8540
9.156401 0.8440 0.8420 0.8450 0.8490 0.8590
9.190000 0.8740 0.8820 0.8820 0.8870 0.8920
9.223401 0.8960 0.8990 0.8990 0.9010 0.9010
9.256000 0.9010 0.9010 0.9020 0.9020 0.9040
9.289401 0.9040 0.9060 0.9060 0.9070 0.9070
9.323000 0.9110 0.9120 0.9140 0.9140 0.9160
9.356401 0.9170 0.9190 0.9210 0.9210 0.9220
9.390000 0.9220 0.9220 0.9240 0.9260 0.9260
9.423401 0.9270 0.9270 0.9260 0.9260 0.9260
9.457000 0.9260 0.9270 0.9270 0.9270 0.9270
9.490401 0.9270 0.9270 0.9270 0.9270 0.9260
9.523000 0.9240 0.9240 0.9220 0.9220 0.9220
9.556401 0.9210 0.9170 0.9120 0.9060 0.9020
9.590000 0.8940 0.8940 0.8940 0.8960 0.8960
9.623401 0.8970 0.8970 0.8960 0.8940 0.8910
9.657000 0.8890 0.8870 0.8810 0.8710 0.8540
9.690401 0.8320 0.8020 0.7650 0.6960 0.6110
9.724000 0.5890 0.5760 0.5720 0.5710 0.5660
9.757401 0.5610 0.5570 0.5510 0.5410 0.5370
9.790000 0.5340 0.5250 0.5070 0.4970 0.4740
9.823401 0.4620 0.4470 0.4450 0.4470 0.4740
9.857000 0.4990 0.5610 0.5890 0.6040 0.6230
9.890401 0.6630 0.6710 0.6930 0.7480 0.7500
9.924000 0.7480 0.7470 0.7380 0.7180 0.6980
9.957401 0.6750 0.6480 0.6440 0.6360 0.6260
9.991000 0.6190 0.6230 0.6490 0.6850 0.7200
10.024401 0.7620 0.7830 0.7930 0.8150 0.8300
10.058000 0.8490 0.8590 0.8690 0.8840 0.8940
10.091401 0.8990 0.9010 0.9020 0.9040 0.9090
10.124000 0.9170 0.9210 0.9220 0.9240 0.9260
10.157401 0.9270 0.9290 0.9290 0.9310 0.9310
10.191000 0.9320 0.9340 0.9360 0.9360 0.9380
10.224401 0.9410 0.9430 0.9440 0.9460 0.9480
10.258000 0.9490 0.9510 0.9530 0.9530 0.9540
10.291401 0.9540 0.9560 0.9580 0.9580 0.9580
10.325000 0.9580 0.9580 0.9560 0.9540 0.9510
10.358401 0.9490 0.9480 0.9460 0.9440 0.9430
10.391000 0.9410 0.9390 0.9390 0.9380 0.9320
10.424401 0.9270 0.9260 0.9240 0.9240 0.9240
10.458000 0.9240 0.9240 0.9220 0.9210 0.9120
10.491401 0.9020 0.8940 0.8920 0.8910 0.8790
10.525000 0.8550 0.8320 0.8170 0.8050 0.8020
10.558401 0.8050 0.8190 0.8420 0.8590 0.8740
10.592000 0.8790 0.8820 0.8870 0.8960 0.9010
10.625401 0.9040 0.9140 0.9220 0.9310 0.9440
10.658000 0.9530 0.9590 0.9680 0.9710 0.9740
10.691401 0.9790 0.9810 0.9840 0.9890 0.9930
10.725000 0.9960 0.9980 1.0010 1.0050 1.0060
10.758401 1.0080 1.0100 1.0100 1.0110 1.0130
10.792000 1.0130 1.0150 1.0160 1.0160 1.0180
10.825401 1.0180 1.0180 1.0200 1.0200 1.0200
10.859000 1.0200 1.0200 1.0200 1.0200 1.0200
10.892401 1.0200 1.0200 1.0200 1.0200 1.0200
10.926000 1.0200 1.0200 1.0200 1.0200 1.0200
10.959401 1.0200 1.0200 1.0200 1.0200 1.0200
10.992000 1.0200 1.0200 1.0200 1.0200 1.0200
11.025401 1.0200 1.0200 1.0200 1.0200 1.0200
11.059000 1.0200 1.0200 1.0200 1.0180 1.0150
11.092401 1.0100 1.0080 1.0050 1.0030 1.0010
11.126000 0.9960 0.9860 0.9790 0.9610 0.9390
11.159401 0.8770 0.8670 0.8670 0.8740 0.8920
11.193000 0.8970 0.9020 0.9140 0.9240 0.9310
11.226401 0.9340 0.9360 0.9360 0.9340 0.9320
11.259000 0.9220 0.9190 0.9160 0.9020 0.8040
11.292401 0.7400 0.5840 0.5090 0.4280 0.3530
11.326000 0.2880 0.2440 0.2270 0.2110 0.2010
11.359401 0.1990 0.2010 0.2040 0.2070 0.2070
11.393000 0.2040 0.1970 0.1850 0.1670 0.1500
11.426401 0.1370 0.1270 0.1220 0.1200 0.1200
11.460000 0.1220 0.1440 0.1540 0.1620 0.1790
11.493401 0.2070 0.2590 0.3400 0.4570 0.4920
11.526000 0.5240 0.5540 0.5810 0.6060 0.6310
11.559401 0.6530 0.6750 0.6950 0.7130 0.7310
11.593000 0.7500 0.7670 0.7830 0.8000 0.8050
11.626401 0.8190 0.8290 0.8390 0.8500 0.8600
11.660000 0.8770 0.8990 0.9010 0.9020 0.9090
11.693401 0.9190 0.9290 0.9360 0.9410 0.9480
11.727000 0.9490 0.9530 0.9580 0.9590 0.9630
11.760401 0.9690 0.9740 0.9780 0.9810 0.9830
11.794000 0.9860 0.9880 0.9890 0.9930 0.9940
11.827401 0.9980 1.0010 1.0030 1.0030 1.0080
11.860000 1.0100 1.0110 1.0110 1.0130 1.0130
11.893401 1.0150 1.0150 1.0160 1.0180 1.0180
11.927000 1.0200 1.0200 1.0180 1.0180 1.0180
11.960401 1.0180 1.0180 1.0180 1.0180 1.0200
11.994000 1.0200 1.0200 1.0200 1.0200 1.0200
12.027401 1.0200 1.0200 1.0200 1.0180 1.0180
12.061000 1.0180 1.0180 1.0180 1.0180 1.0180
12.094401 1.0180 1.0180 1.0180 1.0200 1.0200
12.127000 1.0200 1.0180 1.0180 1.0180 1.0180
12.160401 1.0180 1.0200 1.0200 1.0180 1.0180
12.194000 1.0180 1.0180 1.0180 1.0180 1.0180
12.227401 1.0130 1.0100 1.0030 0.9980 0.9960
12.261000 0.9890 0.9880 0.9860 0.9830 0.9610
12.294401 0.9220 0.8740 0.8300 0.7400 0.6290
12.328000 0.5360 0.4580 0.3900 0.3290 0.2680
12.361401 0.2040 0.1300 0.1200 0.1120 0.1030
12.394000 0.0610 0.0460 0.0310 0.0300 0.0310
12.427401 0.0380 0.0500 0.0950 0.1340 0.1700
12.461000 0.2290 0.2780 0.3210 0.3610 0.4030
12.494401 0.4530 0.5140 0.5890 0.6660 0.6780
12.528000 0.7030 0.7280 0.7580 0.7730 0.7950
12.561401 0.8070 0.8200 0.8300 0.8490 0.8570
12.595000 0.8670 0.8760 0.8820 0.8940 0.8990
12.628401 0.9010 0.9020 0.9040 0.9090 0.9140
12.662000 0.9210 0.9260 0.9310 0.9340 0.9360
12.695401 0.9390 0.9410 0.9410 0.9390 0.9340
12.728000 0.9240 0.9210 0.9170 0.9090 0.9040
12.761401 0.9020 0.9010 0.8970 0.8920 0.8840
12.795000 0.8770 0.8740 0.8740 0.8760 0.8910
12.828401 0.8960 0.8990 0.9020 0.9140 0.9240
12.862000 0.9270 0.9290 0.9290 0.9290 0.9290
12.895401 0.9290 0.9290 0.9310 0.9310 0.9310
12.929000 0.9320 0.9320 0.9320 0.9340 0.9360
12.962401 0.9390 0.9430 0.9460 0.9480 0.9480
12.995000 0.9490 0.9490 0.9490 0.9490 0.9490
13.028401 0.9480 0.9440 0.9430 0.9410 0.9380
13.062000 0.9310 0.9290 0.9270 0.9260 0.9260
13.095401 0.9260 0.9240 0.9240 0.9220 0.9190
13.129000 0.9120 0.9020 0.8810 0.8710 0.8470
13.162401 0.8200 0.7950 0.7530 0.7010 0.6440
13.196000 0.5840 0.5170 0.4480 0.3780 0.3080
13.229401 0.2360 0.2040 0.1900 0.1890 0.1900
13.262000 0.2220 0.2620 0.3010 0.3230 0.3560
13.295401 0.3860 0.4150 0.4670 0.4950 0.5070
13.329000 0.5100 0.5100 0.5070 0.4990 0.4770
13.362401 0.4480 0.3280 0.2620 0.2360 0.2220
13.396000 0.2070 0.1670 0.1320 0.1200 0.1130
13.429401 0.1100 0.1080 0.1100 0.1500 0.1670
13.463000 0.1770 0.1900 0.2140 0.2490 0.2990
13.496401 0.3700 0.4620 0.5790 0.6190 0.6390
13.530000 0.6530 0.6750 0.6930 0.7080 0.7280
13.563401 0.7570 0.7630 0.7680 0.7780 0.7880
13.596000 0.7980 0.8040 0.8140 0.8270 0.8300
13.629401 0.8340 0.8500 0.8620 0.8760 0.8890
13.663000 0.8960 0.9010 0.9090 0.9210 0.9290
13.696401 0.9310 0.9320 0.9320 0.9340 0.9390
13.730000 0.9490 0.9530 0.9590 0.9610 0.9690
13.763401 0.9730 0.9780 0.9790 0.9810 0.9830
13.797000 0.9830 0.9840 0.9860 0.9880 0.9890
13.830401 0.9890 0.9890 0.9910 0.9910 0.9930
13.863000 0.9930 0.9930 0.9930 0.9910 0.9910
13.896401 0.9890 0.9880 0.9840 0.9830 0.9810
13.930000 0.9790 0.9790 0.9790 0.9780 0.9780
13.963401 0.9780 0.9790 0.9790 0.9830 0.9860
13.997000 0.9880 0.9910 0.9940 0.9960 0.9980
14.030401 0.9980 0.9980 0.9960 0.9940 0.9930
14.064000 0.9740 0.9070 0.8100 0.7620 0.7210
14.097401 0.6880 0.6590 0.6360 0.6180 0.6030
14.130000 0.5890 0.5760 0.5660 0.5640 0.5640
14.163401 0.5670 0.5790 0.5820 0.5910 0.6030
14.197000 0.6180 0.6360 0.6590 0.6850 0.7150
14.230401 0.7470 0.7820 0.8190 0.8590 0.8810
14.264000 0.9010 0.9140 0.9210 0.9320 0.9480
14.297401 0.9530 0.9610 0.9630 0.9690 0.9790
14.331000 0.9860 0.9880 0.9890 0.9910 0.9930
14.364401 0.9940 0.9960 0.9980 1.0000 1.0000
14.398000 1.0010 1.0010 1.0050 1.0060 1.0060
14.431401 1.0080 1.0080 1.0080 1.0100 1.0100
14.464000 1.0100 1.0110 1.0110 1.0110 1.0110
14.497401 1.0110 1.0130 1.0130 1.0130 1.0150
14.531000 1.0150 1.0150 1.0160 1.0160 1.0160
14.564401 1.0160 1.0160 1.0160 1.0180 1.0180
14.598000 1.0180 1.0180 1.0180 1.0180 1.0180
14.631401 1.0180 1.0180 1.0180 1.0180 1.0180
14.665000 1.0180 1.0180 1.0180 1.0180 1.0180
14.698401 1.0180 1.0180 1.0180 1.0180 1.0180
14.731000 1.0180 1.0180 1.0180 1.0180 1.0180
14.764401 1.0200 1.0200 1.0200 1.0200 1.0200
14.798000 1.0200 1.0200 1.0200 1.0200 1.0200
14.831401 1.0200 1.0200 1.0200 1.0200 1.0200
14.865000 1.0200 1.0200 1.0200 1.0200 1.0200
14.898401 1.0200 1.0200 1.0200 1.0200 1.0200
14.932000 1.0200 1.0200 1.0200 1.0200 1.0200
14.965401 1.0200 1.0200 1.0200 1.0200 1.0200
14.998000 1.0200 1.0200 1.0200 1.0200 1.0180
15.031401 1.0180 1.0160 1.0150 1.0110 1.0080
15.065000 1.0050 1.0030 1.0010 1.0010 1.0010
15.098401 1.0010 1.0030 1.0030 1.0050 1.0060
15.132000 1.0080 1.0080 1.0100 1.0100 1.0130
15.165401 1.0150 1.0160 1.0180 1.0180 1.0200
15.199000 1.0200 1.0200 1.0200 1.0200 1.0200
15.232401 1.0200 1.0200 1.0200 1.0200 1.0200
15.266000 1.0200 1.0200 1.0180 1.0180 1.0160
15.299401 1.0150 1.0130 1.0110 1.0060 1.0030
15.332000 0.9980 0.9960 0.9890 0.9790 0.9690
15.365401 0.9510 0.9210 0.9040 0.8710 0.8520
15.399000 0.8220 0.8150 0.7970 0.7680 0.7520
15.432401 0.7470 0.7420 0.7400 0.7380 0.7380
15.466000 0.7400 0.7420 0.7480 0.7520 0.7600
15.499401 0.7670 0.7830 0.8020 0.8190 0.8320
15.533000 0.8400 0.8500 0.8600 0.8810 0.8910
15.566401 0.8970 0.9020 0.9040 0.9090 0.9120
15.599000 0.9240 0.9290 0.9310 0.9320 0.9360
15.632401 0.9380 0.9410 0.9460 0.9510 0.9540
15.666000 0.9590 0.9630 0.9680 0.9690 0.9710
15.699401 0.9740 0.9780 0.9810 0.9840 0.9860
15.733000 0.9880 0.9880 0.9890 0.9890 0.9890
15.766401 0.9890 0.9890 0.9890 0.9890 0.9890
15.800000 0.9890 0.9880 0.9880 0.9880 0.9860
15.833401 0.9860 0.9860 0.9840 0.9860 0.9860
15.866000 0.9860 0.9840 0.9840 0.9840 0.9840
15.899401 0.9840 0.9830 0.9830 0.9810 0.9810
15.933000 0.9790 0.9780 0.9760 0.9760 0.9730
15.966401 0.9690 0.9640 0.9560 0.9530 0.9530
##END=
