##TITLE=2-n-DODECYL-PHENANTHRENE
##JCAMP-DX=4.24
##DATA TYPE=INFRARED SPECTRUM
##CLASS=COBLENTZ
##ORIGIN=CENTRE D'ETUDES NUCLEAIRES DE GRENOBLE
##OWNER=COBLENTZ SOCIETY
Collection (C) 2018 copyright by the U.S. Secretary of Commerce
on behalf of the United States of America. All rights reserved.
##DATE=Not specified, most likely prior to 1970
##NAMES=2-dodecylphenanthrene
##CAS REGISTRY NO=3674-72-4
##MOLFORM=C26 H34
##SOURCE REFERENCE=COBLENTZ NO. 4240
##$NIST SOURCE=COBLENTZ
##$NIST IMAGE=cob4240
##SPECTROMETER/DATA SYSTEM=Not specified, most likely a prism, grating, or hybrid spectrometer.
##STATE=SOLID (1% IN KI)
##PATH LENGTH=
$$PURITY 92.2%
##SAMPLING PROCEDURE=TRANSMISSION
##RESOLUTION=4
##DATA PROCESSING=DIGITIZED BY NIST FROM HARD COPY
##XUNITS=MICROMETERS
##YUNITS=TRANSMITTANCE
##XFACTOR=1.000000
##YFACTOR=1
##DELTAX=000.006686
##FIRSTX=2.013
##LASTX=15.8998
##FIRSTY=0.554
##MAXX=15.8998
##MINX=2.013
##MAXY=0.908
##MINY=0.049
##NPOINTS=2078
##XYDATA=(X++(Y..Y))
2.013000 0.5540 0.5550 0.5550 0.5590 0.5650
2.046445 0.5670 0.5690 0.5720 0.5740 0.5750
2.080000 0.5750 0.5750 0.5750 0.5790 0.5790
2.113445 0.5790 0.5800 0.5800 0.5820 0.5840
2.147000 0.5850 0.5870 0.5870 0.5890 0.5920
2.180445 0.5950 0.5970 0.5990 0.6000 0.6020
2.214000 0.6020 0.6030 0.6050 0.6050 0.6070
2.247445 0.6080 0.6080 0.6080 0.6070 0.6050
2.281000 0.6030 0.6000 0.5970 0.5950 0.5940
2.314445 0.5940 0.5940 0.5950 0.5950 0.5970
2.348000 0.5970 0.5990 0.5990 0.6000 0.6020
2.381445 0.6030 0.6030 0.6050 0.6070 0.6070
2.415000 0.6080 0.6100 0.6120 0.6120 0.6130
2.448445 0.6150 0.6150 0.6170 0.6180 0.6250
2.481000 0.6280 0.6320 0.6350 0.6370 0.6400
2.514445 0.6430 0.6470 0.6480 0.6500 0.6520
2.548000 0.6520 0.6530 0.6550 0.6550 0.6570
2.581445 0.6570 0.6570 0.6580 0.6580 0.6600
2.615000 0.6620 0.6630 0.6650 0.6670 0.6680
2.648445 0.6700 0.6700 0.6720 0.6720 0.6730
2.682000 0.6750 0.6750 0.6750 0.6750 0.6730
2.715445 0.6720 0.6720 0.6720 0.6720 0.6700
2.749000 0.6700 0.6680 0.6680 0.6670 0.6650
2.782445 0.6620 0.6600 0.6570 0.6500 0.6500
2.816000 0.6470 0.6430 0.6420 0.6370 0.6330
2.849445 0.6320 0.6280 0.6270 0.6250 0.6230
2.883000 0.6220 0.6220 0.6200 0.6200 0.6220
2.916445 0.6230 0.6250 0.6270 0.6280 0.6300
2.949000 0.6330 0.6370 0.6400 0.6450 0.6480
2.982445 0.6520 0.6550 0.6570 0.6570 0.6580
3.016000 0.6580 0.6600 0.6620 0.6670 0.6730
3.049445 0.6770 0.6780 0.6780 0.6800 0.6800
3.083000 0.6800 0.6800 0.6780 0.6780 0.6780
3.116445 0.6780 0.6770 0.6770 0.6770 0.6770
3.150000 0.6780 0.6780 0.6800 0.6800 0.6820
3.183445 0.6820 0.6830 0.6830 0.6820 0.6820
3.217000 0.6780 0.6770 0.6720 0.6580 0.6520
3.250445 0.6480 0.6300 0.6070 0.5750 0.5500
3.284000 0.5390 0.5070 0.4890 0.4850 0.4790
3.317445 0.4770 0.4750 0.4740 0.4740 0.4720
3.351000 0.4720 0.4720 0.4690 0.4670 0.4340
3.384445 0.4170 0.3740 0.2960 0.2210 0.1610
3.417000 0.1460 0.1340 0.1060 0.0730 0.0630
3.450445 0.0530 0.0510 0.0530 0.0580 0.0810
3.484000 0.1010 0.1210 0.1590 0.1790 0.1830
3.517445 0.1790 0.1530 0.1490 0.0990 0.0990
3.551000 0.1510 0.2020 0.2510 0.4550 0.5370
3.584445 0.5950 0.6380 0.6680 0.6900 0.7020
3.618000 0.7270 0.7350 0.7450 0.7500 0.7530
3.651445 0.7580 0.7600 0.7670 0.7700 0.7720
3.685000 0.7720 0.7750 0.7750 0.7800 0.7820
3.718445 0.7850 0.7850 0.7880 0.7900 0.7900
3.752000 0.7900 0.7900 0.7900 0.7880 0.7870
3.785445 0.7870 0.7870 0.7850 0.7850 0.7850
3.819000 0.7850 0.7850 0.7870 0.7880 0.7920
3.852445 0.7950 0.7980 0.8010 0.8030 0.8050
3.885000 0.8050 0.8060 0.8100 0.8100 0.8110
3.918445 0.8150 0.8160 0.8160 0.8180 0.8180
3.952000 0.8200 0.8200 0.8230 0.8230 0.8230
3.985445 0.8230 0.8250 0.8250 0.8250 0.8250
4.019000 0.8260 0.8260 0.8260 0.8260 0.8260
4.052445 0.8260 0.8260 0.8260 0.8280 0.8280
4.086000 0.8300 0.8300 0.8300 0.8300 0.8310
4.119445 0.8310 0.8350 0.8350 0.8350 0.8330
4.153000 0.8330 0.8330 0.8330 0.8330 0.8330
4.186445 0.8330 0.8330 0.8350 0.8360 0.8360
4.220000 0.8380 0.8400 0.8410 0.8410 0.8430
4.253445 0.8430 0.8430 0.8430 0.8410 0.8400
4.287000 0.8380 0.8360 0.8350 0.8310 0.8280
4.320445 0.8260 0.8250 0.8210 0.8200 0.8160
4.353000 0.8150 0.8150 0.8160 0.8180 0.8200
4.386445 0.8230 0.8260 0.8280 0.8310 0.8350
4.420000 0.8360 0.8380 0.8380 0.8410 0.8450
4.453445 0.8450 0.8460 0.8460 0.8480 0.8480
4.487000 0.8500 0.8500 0.8510 0.8510 0.8510
4.520445 0.8510 0.8510 0.8510 0.8510 0.8510
4.554000 0.8510 0.8530 0.8530 0.8550 0.8550
4.587445 0.8560 0.8560 0.8580 0.8580 0.8580
4.621000 0.8600 0.8600 0.8600 0.8600 0.8600
4.654445 0.8600 0.8600 0.8600 0.8600 0.8600
4.688000 0.8600 0.8600 0.8600 0.8600 0.8610
4.721445 0.8610 0.8630 0.8630 0.8630 0.8630
4.755000 0.8630 0.8610 0.8610 0.8610 0.8610
4.788445 0.8610 0.8610 0.8610 0.8610 0.8610
4.821000 0.8610 0.8610 0.8610 0.8610 0.8610
4.854445 0.8610 0.8610 0.8600 0.8600 0.8600
4.888000 0.8580 0.8580 0.8580 0.8580 0.8580
4.921445 0.8580 0.8600 0.8600 0.8600 0.8600
4.955000 0.8600 0.8600 0.8610 0.8610 0.8630
4.988445 0.8630 0.8630 0.8650 0.8650 0.8650
5.022000 0.8650 0.8650 0.8660 0.8680 0.8680
5.055445 0.8680 0.8680 0.8680 0.8680 0.8660
5.089000 0.8660 0.8660 0.8650 0.8650 0.8650
5.122445 0.8630 0.8610 0.8600 0.8550 0.8530
5.156000 0.8510 0.8500 0.8480 0.8460 0.8450
5.189445 0.8430 0.8400 0.8360 0.8350 0.8310
5.223000 0.8280 0.8260 0.8230 0.8210 0.8210
5.256445 0.8210 0.8230 0.8250 0.8260 0.8310
5.289000 0.8350 0.8400 0.8430 0.8460 0.8500
5.322445 0.8530 0.8560 0.8600 0.8630 0.8660
5.356000 0.8700 0.8710 0.8730 0.8730 0.8750
5.389445 0.8750 0.8750 0.8750 0.8750 0.8750
5.423000 0.8750 0.8730 0.8680 0.8610 0.8550
5.456445 0.8510 0.8500 0.8510 0.8530 0.8580
5.490000 0.8650 0.8650 0.8660 0.8660 0.8660
5.523445 0.8650 0.8650 0.8630 0.8630 0.8610
5.557000 0.8610 0.8600 0.8600 0.8600 0.8600
5.590445 0.8630 0.8650 0.8650 0.8610 0.8460
5.624000 0.8330 0.8260 0.8200 0.8160 0.8110
5.657445 0.8080 0.8030 0.8000 0.7980 0.7980
5.691000 0.8000 0.8010 0.8050 0.8110 0.8200
5.724445 0.8260 0.8350 0.8400 0.8460 0.8510
5.757000 0.8550 0.8560 0.8560 0.8580 0.8600
5.790445 0.8610 0.8610 0.8510 0.8450 0.8380
5.824000 0.8360 0.8400 0.8510 0.8600 0.8660
5.857445 0.8560 0.8450 0.8350 0.8310 0.8350
5.891000 0.8460 0.8600 0.8610 0.8630 0.8550
5.924445 0.8360 0.8330 0.8260 0.8210 0.8210
5.958000 0.8250 0.8280 0.8300 0.8310 0.8310
5.991445 0.8350 0.8350 0.8360 0.8360 0.8350
6.025000 0.8300 0.8280 0.8260 0.8280 0.8300
6.058445 0.8330 0.8360 0.8410 0.8510 0.8510
6.092000 0.8400 0.8280 0.8260 0.8280 0.8280
6.125445 0.8300 0.8300 0.8330 0.8300 0.8050
6.159000 0.7700 0.7570 0.7470 0.7280 0.6980
6.192445 0.6770 0.6450 0.6430 0.6450 0.6530
6.225000 0.6650 0.6720 0.6850 0.6980 0.7370
6.258445 0.7500 0.7520 0.7480 0.7180 0.7180
6.292000 0.7470 0.7580 0.7620 0.7800 0.8010
6.325445 0.8100 0.8160 0.8250 0.8280 0.8380
6.359000 0.8450 0.8530 0.8550 0.8580 0.8550
6.392445 0.8400 0.8330 0.8260 0.8250 0.8260
6.426000 0.8310 0.8350 0.8400 0.8460 0.8500
6.459445 0.8500 0.8460 0.8250 0.8260 0.8310
6.493000 0.8410 0.8430 0.8600 0.8680 0.8680
6.526445 0.8630 0.8430 0.8380 0.8350 0.8300
6.560000 0.8280 0.8250 0.8230 0.8210 0.8230
6.593445 0.8230 0.8250 0.8250 0.8230 0.8230
6.627000 0.8200 0.8160 0.8100 0.8100 0.8130
6.660445 0.8260 0.8280 0.8250 0.8050 0.7870
6.693000 0.7720 0.7700 0.7680 0.7480 0.7170
6.726445 0.7030 0.6920 0.6880 0.6900 0.6930
6.760000 0.6970 0.7000 0.7130 0.7180 0.7230
6.793445 0.7230 0.7150 0.6970 0.6920 0.6450
6.827000 0.5940 0.5140 0.4000 0.3470 0.3060
6.860445 0.2710 0.2560 0.2540 0.2570 0.3070
6.894000 0.3720 0.4020 0.4370 0.4970 0.5970
6.927445 0.6270 0.6550 0.6770 0.6930 0.7000
6.961000 0.7170 0.7330 0.7430 0.7480 0.7500
6.994445 0.7480 0.7370 0.7280 0.7120 0.6870
7.028000 0.6780 0.6720 0.6580 0.6520 0.6430
7.061445 0.6420 0.6430 0.6650 0.6820 0.6950
7.095000 0.7080 0.7470 0.7620 0.7830 0.7930
7.128445 0.7980 0.8000 0.8050 0.8130 0.8150
7.161000 0.8160 0.8200 0.8210 0.8230 0.8250
7.194445 0.8230 0.8060 0.7980 0.7880 0.7870
7.228000 0.7880 0.7920 0.7980 0.8030 0.8050
7.261445 0.8050 0.8050 0.8050 0.8030 0.7970
7.295000 0.7870 0.7750 0.7720 0.7700 0.7720
7.328445 0.7870 0.7920 0.7950 0.7970 0.8030
7.362000 0.8150 0.8160 0.8160 0.8200 0.8210
7.395445 0.8250 0.8260 0.8260 0.8280 0.8280
7.429000 0.8280 0.8260 0.8260 0.8250 0.8230
7.462445 0.8230 0.8230 0.8250 0.8280 0.8310
7.496000 0.8330 0.8350 0.8360 0.8400 0.8430
7.529445 0.8460 0.8500 0.8530 0.8560 0.8600
7.563000 0.8600 0.8610 0.8610 0.8630 0.8630
7.596445 0.8610 0.8610 0.8550 0.8460 0.8350
7.629000 0.8280 0.8250 0.8180 0.8060 0.8000
7.662445 0.7930 0.7850 0.7730 0.7600 0.7330
7.696000 0.7120 0.6930 0.6930 0.7150 0.7300
7.729445 0.7430 0.7730 0.7930 0.7980 0.8060
7.763000 0.8180 0.8260 0.8330 0.8350 0.8380
7.796445 0.8400 0.8410 0.8410 0.8400 0.8400
7.830000 0.8360 0.8350 0.8330 0.8330 0.8330
7.863445 0.8350 0.8360 0.8380 0.8400 0.8450
7.897000 0.8450 0.8480 0.8480 0.8460 0.8450
7.930445 0.8410 0.8360 0.8310 0.8250 0.8160
7.964000 0.8080 0.7970 0.7820 0.7680 0.7420
7.997445 0.7250 0.7070 0.6920 0.6370 0.5740
8.031000 0.5390 0.5050 0.5020 0.5040 0.5290
8.064445 0.5550 0.5920 0.6450 0.6730 0.6900
8.097000 0.6980 0.7180 0.7330 0.7350 0.7300
8.130445 0.7180 0.6980 0.6650 0.6520 0.6520
8.164000 0.6670 0.6920 0.7100 0.7320 0.7400
8.197445 0.7620 0.7670 0.7720 0.7820 0.7930
8.231000 0.7950 0.7980 0.8080 0.8130 0.8160
8.264445 0.8180 0.8260 0.8350 0.8360 0.8350
8.298000 0.8350 0.8330 0.8330 0.8300 0.8280
8.331445 0.8250 0.8160 0.8050 0.7970 0.7900
8.365000 0.7820 0.7730 0.7680 0.7670 0.7680
8.398445 0.7700 0.7720 0.7750 0.7770 0.7820
8.432000 0.7870 0.7920 0.7980 0.8100 0.8200
8.465445 0.8300 0.8330 0.8380 0.8410 0.8460
8.499000 0.8550 0.8560 0.8600 0.8600 0.8550
8.532445 0.8530 0.8510 0.8430 0.8350 0.8280
8.565000 0.8200 0.8130 0.8060 0.8000 0.7930
8.598445 0.7800 0.7770 0.7770 0.7780 0.7800
8.632000 0.7830 0.7850 0.7870 0.7880 0.7920
8.665445 0.7950 0.8000 0.8030 0.8180 0.8260
8.699000 0.8360 0.8410 0.8430 0.8450 0.8450
8.732445 0.8430 0.8330 0.8230 0.8060 0.7850
8.766000 0.7770 0.7770 0.7900 0.8050 0.8260
8.799445 0.8410 0.8500 0.8550 0.8600 0.8610
8.833000 0.8610 0.8650 0.8660 0.8660 0.8650
8.866445 0.8610 0.8600 0.8550 0.8500 0.8480
8.900000 0.8400 0.8310 0.8310 0.8350 0.8410
8.933445 0.8460 0.8480 0.8480 0.8500 0.8510
8.967000 0.8510 0.8510 0.8510 0.8510 0.8510
9.000445 0.8510 0.8500 0.8500 0.8480 0.8460
9.033000 0.8450 0.8410 0.8410 0.8380 0.8350
9.066445 0.8280 0.8180 0.8000 0.7920 0.7800
9.100000 0.7770 0.7750 0.7770 0.7920 0.7970
9.133445 0.8100 0.8210 0.8300 0.8350 0.8410
9.167000 0.8450 0.8500 0.8550 0.8580 0.8610
9.200445 0.8680 0.8700 0.8700 0.8680 0.8610
9.234000 0.8600 0.8560 0.8500 0.8460 0.8450
9.267445 0.8450 0.8450 0.8460 0.8480 0.8510
9.301000 0.8530 0.8560 0.8600 0.8630 0.8660
9.334445 0.8680 0.8700 0.8700 0.8710 0.8710
9.368000 0.8730 0.8750 0.8800 0.8830 0.8830
9.401445 0.8830 0.8810 0.8800 0.8780 0.8760
9.435000 0.8750 0.8750 0.8760 0.8760 0.8780
9.468445 0.8780 0.8750 0.8750 0.8730 0.8710
9.501000 0.8700 0.8680 0.8680 0.8680 0.8700
9.534445 0.8700 0.8700 0.8710 0.8730 0.8750
9.568000 0.8760 0.8810 0.8830 0.8830 0.8830
9.601445 0.8830 0.8810 0.8780 0.8710 0.8600
9.635000 0.8500 0.8410 0.8310 0.8210 0.8180
9.668445 0.8160 0.8180 0.8230 0.8310 0.8410
9.702000 0.8450 0.8480 0.8500 0.8530 0.8550
9.735445 0.8560 0.8580 0.8600 0.8610 0.8630
9.769000 0.8650 0.8660 0.8680 0.8680 0.8700
9.802445 0.8700 0.8680 0.8680 0.8660 0.8650
9.836000 0.8610 0.8580 0.8550 0.8510 0.8500
9.869445 0.8480 0.8500 0.8510 0.8560 0.8610
9.903000 0.8630 0.8650 0.8680 0.8700 0.8730
9.936445 0.8760 0.8760 0.8780 0.8780 0.8800
9.969000 0.8800 0.8660 0.8580 0.8510 0.8430
10.002445 0.8350 0.8260 0.8110 0.7900 0.7900
10.036000 0.8030 0.8210 0.8410 0.8450 0.8610
10.069445 0.8660 0.8700 0.8730 0.8760 0.8780
10.103000 0.8800 0.8830 0.8850 0.8860 0.8860
10.136445 0.8860 0.8880 0.8900 0.8900 0.8930
10.170000 0.8930 0.8950 0.8950 0.8950 0.8960
10.203445 0.8960 0.8960 0.8960 0.8950 0.8950
10.237000 0.8950 0.8930 0.8930 0.8930 0.8910
10.270445 0.8900 0.8880 0.8880 0.8880 0.8880
10.304000 0.8880 0.8880 0.8900 0.8900 0.8900
10.337445 0.8880 0.8810 0.8760 0.8730 0.8700
10.371000 0.8660 0.8630 0.8610 0.8610 0.8630
10.404445 0.8650 0.8660 0.8680 0.8680 0.8660
10.437000 0.8650 0.8630 0.8580 0.8530 0.8510
10.470445 0.8500 0.8500 0.8500 0.8510 0.8510
10.504000 0.8530 0.8550 0.8550 0.8550 0.8530
10.537445 0.8530 0.8510 0.8430 0.8410 0.8300
10.571000 0.8160 0.8060 0.8050 0.7950 0.7830
10.604445 0.7600 0.7330 0.7320 0.7330 0.7450
10.638000 0.7650 0.7900 0.8000 0.8160 0.8380
10.671445 0.8480 0.8560 0.8630 0.8710 0.8780
10.705000 0.8810 0.8830 0.8860 0.8880 0.8900
10.738445 0.8910 0.8910 0.8910 0.8950 0.8950
10.772000 0.8950 0.8960 0.8960 0.8960 0.8960
10.805445 0.8960 0.8980 0.8980 0.8980 0.8980
10.839000 0.9000 0.9000 0.9000 0.9000 0.9000
10.872445 0.9000 0.9000 0.9000 0.9000 0.9000
10.905000 0.9000 0.9000 0.9010 0.9010 0.9010
10.938445 0.9030 0.9030 0.9010 0.9010 0.9010
10.972000 0.9010 0.9010 0.9010 0.9010 0.9000
11.005445 0.9000 0.9000 0.9000 0.8960 0.8960
11.039000 0.8950 0.8950 0.8910 0.8910 0.8900
11.072445 0.8900 0.8880 0.8880 0.8860 0.8810
11.106000 0.8800 0.8730 0.8680 0.8630 0.8560
11.139445 0.8480 0.8430 0.8360 0.8150 0.7980
11.173000 0.7870 0.7550 0.7450 0.7170 0.7100
11.206445 0.7000 0.6950 0.6900 0.6820 0.6770
11.240000 0.6700 0.6550 0.6350 0.6180 0.5940
11.273445 0.5500 0.5350 0.5250 0.5100 0.5070
11.307000 0.5040 0.5020 0.4990 0.4950 0.4940
11.340445 0.4870 0.4620 0.4170 0.3940 0.3520
11.373000 0.3340 0.3110 0.3090 0.3110 0.3640
11.406445 0.3920 0.4690 0.5290 0.5890 0.6130
11.440000 0.6720 0.7000 0.7230 0.7520 0.7770
11.473445 0.7970 0.8050 0.8130 0.8210 0.8250
11.507000 0.8250 0.8210 0.8110 0.8060 0.8010
11.540445 0.7850 0.7720 0.7680 0.7620 0.7550
11.574000 0.7530 0.7550 0.7630 0.7820 0.7980
11.607445 0.8050 0.8210 0.8400 0.8500 0.8560
11.641000 0.8660 0.8780 0.8850 0.8910 0.8930
11.674445 0.8950 0.8960 0.8980 0.9000 0.9010
11.708000 0.9030 0.9050 0.9050 0.9060 0.9080
11.741445 0.9080 0.9060 0.9060 0.9060 0.9060
11.775000 0.9050 0.9050 0.9030 0.9030 0.9010
11.808445 0.9010 0.9000 0.8960 0.8950 0.8930
11.841000 0.8910 0.8910 0.8900 0.8880 0.8860
11.874445 0.8830 0.8810 0.8760 0.8730 0.8700
11.908000 0.8630 0.8510 0.8460 0.8360 0.8260
11.941445 0.8210 0.8030 0.7920 0.7770 0.7630
11.975000 0.7570 0.7520 0.7470 0.7430 0.7420
12.008445 0.7420 0.7430 0.7450 0.7450 0.7430
12.042000 0.7420 0.7300 0.7230 0.7050 0.6930
12.075445 0.6720 0.6520 0.6230 0.6080 0.6030
12.109000 0.5970 0.5700 0.5640 0.5620 0.5590
12.142445 0.5540 0.5490 0.5420 0.5200 0.4970
12.176000 0.4840 0.4640 0.4440 0.4240 0.4120
12.209445 0.4090 0.4050 0.4020 0.3970 0.3910
12.243000 0.3810 0.3670 0.3470 0.3220 0.2910
12.276445 0.2510 0.2010 0.1690 0.1410 0.0990
12.309000 0.0690 0.0530 0.0490 0.0530 0.0680
12.342445 0.0890 0.1060 0.1210 0.1640 0.2120
12.376000 0.2690 0.3270 0.3870 0.4450 0.5020
12.409445 0.5540 0.5970 0.6320 0.6550 0.6920
12.443000 0.6980 0.7170 0.7420 0.7570 0.7770
12.476445 0.7920 0.8000 0.8080 0.8130 0.8210
12.510000 0.8310 0.8450 0.8500 0.8530 0.8530
12.543445 0.8560 0.8650 0.8660 0.8680 0.8710
12.577000 0.8760 0.8800 0.8830 0.8850 0.8850
12.610445 0.8860 0.8880 0.8880 0.8880 0.8860
12.644000 0.8860 0.8850 0.8830 0.8810 0.8810
12.677445 0.8800 0.8800 0.8780 0.8760 0.8760
12.711000 0.8710 0.8700 0.8660 0.8650 0.8630
12.744445 0.8610 0.8580 0.8460 0.8430 0.8410
12.777000 0.8350 0.8250 0.8230 0.8200 0.8110
12.810445 0.7980 0.7900 0.7820 0.7730 0.7570
12.844000 0.7470 0.7370 0.7320 0.7270 0.7050
12.877445 0.6930 0.6900 0.6800 0.6680 0.6600
12.911000 0.6520 0.6430 0.6420 0.6430 0.6520
12.944445 0.6670 0.6820 0.6950 0.7000 0.7280
12.978000 0.7480 0.7630 0.7680 0.7870 0.7920
13.011445 0.8050 0.8130 0.8200 0.8230 0.8260
13.045000 0.8300 0.8330 0.8360 0.8380 0.8380
13.078445 0.8410 0.8430 0.8450 0.8460 0.8460
13.112000 0.8460 0.8460 0.8450 0.8450 0.8450
13.145445 0.8430 0.8430 0.8410 0.8400 0.8400
13.179000 0.8360 0.8350 0.8280 0.8200 0.8160
13.212445 0.8110 0.8060 0.8000 0.7970 0.7930
13.245000 0.7900 0.7770 0.7680 0.7520 0.7350
13.278445 0.7120 0.6970 0.6730 0.6450 0.5900
13.312000 0.5350 0.4920 0.4120 0.3740 0.3220
13.345445 0.2890 0.2670 0.2540 0.2520 0.2540
13.379000 0.2840 0.3060 0.3360 0.3720 0.4050
13.412445 0.4390 0.4520 0.4620 0.4690 0.4700
13.446000 0.4740 0.4700 0.4370 0.4000 0.3690
13.479445 0.3170 0.2870 0.2570 0.1690 0.1340
13.513000 0.1110 0.0810 0.0790 0.0810 0.0980
13.546445 0.1140 0.1530 0.1880 0.2240 0.2660
13.580000 0.3060 0.3490 0.3910 0.4270 0.4670
13.613445 0.4940 0.5300 0.5670 0.5950 0.6170
13.647000 0.6420 0.6580 0.6650 0.6780 0.6950
13.680445 0.7130 0.7200 0.7230 0.7270 0.7300
13.713000 0.7320 0.7330 0.7320 0.7300 0.7270
13.746445 0.7230 0.7170 0.7080 0.6970 0.6770
13.780000 0.6550 0.6400 0.6170 0.5920 0.5670
13.813445 0.5470 0.5300 0.5150 0.5000 0.4920
13.847000 0.4820 0.4750 0.4740 0.4750 0.4770
13.880445 0.4840 0.4920 0.5000 0.5140 0.5220
13.914000 0.5300 0.5400 0.5470 0.5540 0.5570
13.947445 0.5640 0.5670 0.5670 0.5640 0.5590
13.981000 0.5440 0.5350 0.5240 0.5020 0.4770
14.014445 0.4500 0.4320 0.4220 0.4020 0.3960
14.048000 0.3940 0.3870 0.3860 0.3840 0.3860
14.081445 0.3910 0.4000 0.4120 0.4220 0.4420
14.115000 0.4500 0.4670 0.4950 0.5250 0.5450
14.148445 0.5640 0.5870 0.6050 0.6400 0.6670
14.181000 0.6920 0.7070 0.7220 0.7320 0.7550
14.214445 0.7670 0.7820 0.7920 0.8000 0.8130
14.248000 0.8230 0.8260 0.8310 0.8360 0.8380
14.281445 0.8410 0.8450 0.8460 0.8510 0.8550
14.315000 0.8580 0.8600 0.8610 0.8630 0.8660
14.348445 0.8680 0.8710 0.8730 0.8750 0.8750
14.382000 0.8750 0.8730 0.8710 0.8710 0.8700
14.415445 0.8680 0.8660 0.8610 0.8560 0.8530
14.449000 0.8500 0.8450 0.8430 0.8430 0.8410
14.482445 0.8410 0.8380 0.8360 0.8350 0.8330
14.516000 0.8330 0.8350 0.8360 0.8380 0.8410
14.549445 0.8430 0.8430 0.8450 0.8460 0.8460
14.583000 0.8450 0.8410 0.8410 0.8410 0.8410
14.616445 0.8430 0.8430 0.8430 0.8450 0.8460
14.649000 0.8480 0.8510 0.8560 0.8610 0.8660
14.682445 0.8680 0.8700 0.8710 0.8750 0.8760
14.716000 0.8760 0.8780 0.8800 0.8800 0.8830
14.749445 0.8830 0.8830 0.8810 0.8800 0.8780
14.783000 0.8760 0.8780 0.8810 0.8850 0.8860
14.816445 0.8860 0.8860 0.8860 0.8850 0.8850
14.850000 0.8830 0.8830 0.8850 0.8860 0.8860
14.883445 0.8880 0.8880 0.8900 0.8900 0.8900
14.917000 0.8880 0.8860 0.8850 0.8850 0.8850
14.950445 0.8830 0.8830 0.8830 0.8850 0.8850
14.984000 0.8850 0.8860 0.8860 0.8860 0.8850
15.017445 0.8850 0.8830 0.8810 0.8800 0.8800
15.051000 0.8800 0.8800 0.8810 0.8810 0.8810
15.084445 0.8800 0.8800 0.8800 0.8810 0.8810
15.117000 0.8830 0.8860 0.8900 0.8910 0.8910
15.150445 0.8930 0.8930 0.8930 0.8930 0.8930
15.184000 0.8910 0.8910 0.8900 0.8900 0.8900
15.217445 0.8880 0.8860 0.8850 0.8850 0.8830
15.251000 0.8830 0.8830 0.8810 0.8810 0.8810
15.284445 0.8810 0.8810 0.8810 0.8800 0.8800
15.318000 0.8800 0.8800 0.8810 0.8810 0.8830
15.351445 0.8830 0.8850 0.8850 0.8850 0.8860
15.385000 0.8850 0.8850 0.8850 0.8850 0.8850
15.418445 0.8860 0.8860 0.8860 0.8850 0.8850
15.452000 0.8830 0.8830 0.8830 0.8810 0.8800
15.485445 0.8780 0.8780 0.8780 0.8760 0.8760
15.519000 0.8760 0.8750 0.8760 0.8760 0.8760
15.552445 0.8760 0.8760 0.8780 0.8800 0.8800
15.585000 0.8800 0.8800 0.8800 0.8780 0.8780
15.618445 0.8760 0.8760 0.8760 0.8760 0.8760
15.652000 0.8750 0.8750 0.8750 0.8730 0.8700
15.685445 0.8680 0.8660 0.8650 0.8650 0.8650
15.719000 0.8650 0.8650 0.8630 0.8630 0.8610
15.752445 0.8600 0.8580 0.8560 0.8560 0.8550
15.786000 0.8550 0.8530 0.8500 0.8480 0.8480
15.819445 0.8460 0.8450 0.8450 0.8430 0.8430
15.853000 0.8410 0.8400 0.8380 0.8360 0.8330
15.886445 0.8250 0.8250 0.8200
##END=
