##TITLE=Cyclobutanecarboxylic acid
##JCAMP-DX=4.24
##DATA TYPE=INFRARED SPECTRUM
##CLASS=COBLENTZ III
##ORIGIN=DOW CHEMICAL COMPANY
##OWNER=Copyright (C) 1987 by the Coblentz Society
Collection (C) 2018 copyright by the U.S. Secretary of Commerce
on behalf of the United States of America. All rights reserved.
##DATE=1966/02/11
##CAS REGISTRY NO=3721-95-7
##MOLFORM=C5 H8 O2
##SOURCE REFERENCE=COBLENTZ NO. 8182
##$NIST SOURCE=COBLENTZ
##$NIST IMAGE=cob8182
##SPECTROMETER/DATA SYSTEM=DOW KBr FOREPRISM-GRATING
##INSTRUMENT PARAMETERS=BLAZED AT 3.5, 12.0, 20.0 MICRON AND CHANGED AT 5.0, 7.5, 14.9 MICRON
##STATE=LIQUID (NEAT)
##PATH LENGTH=CAPILLARY
$$ MORE THAN 90% PURE
##SAMPLING PROCEDURE=TRANSMISSION
##RESOLUTION=2
##DATA PROCESSING=DIGITIZED BY COBLENTZ SOCIETY (BATCH II) FROM HARD COPY
##XUNITS=1/CM
##YUNITS=TRANSMITTANCE
##XFACTOR=1.0
##YFACTOR=1
##FIRSTX=458
##LASTX=3810
##FIRSTY=0.8061
##MAXX=3810
##MINX=458
##MAXY=0.8811
##MINY=0.1039
##NPOINTS=3353
##XYDATA=(X++(Y..Y))
458.000000 0.8061 0.8066 0.8071 0.8075 0.8080
463.000000 0.8084 0.8089 0.8094 0.8100 0.8107
468.000000 0.8113 0.8119 0.8125 0.8132 0.8139
473.000000 0.8149 0.8158 0.8168 0.8181 0.8194
478.000000 0.8207 0.8220 0.8233 0.8245 0.8254
483.000000 0.8261 0.8268 0.8275 0.8282 0.8284
488.000000 0.8285 0.8287 0.8288 0.8290 0.8290
493.000000 0.8290 0.8290 0.8290 0.8289 0.8289
498.000000 0.8289 0.8289 0.8288 0.8288 0.8288
503.000000 0.8290 0.8292 0.8298 0.8303 0.8308
508.000000 0.8313 0.8318 0.8323 0.8329 0.8336
513.000000 0.8343 0.8350 0.8357 0.8364 0.8371
518.000000 0.8383 0.8385 0.8389 0.8394 0.8399
523.000000 0.8404 0.8410 0.8415 0.8421 0.8427
528.000000 0.8432 0.8438 0.8444 0.8450 0.8455
533.000000 0.8461 0.8467 0.8473 0.8480 0.8486
538.000000 0.8493 0.8499 0.8505 0.8512 0.8518
543.000000 0.8525 0.8531 0.8538 0.8544 0.8546
548.000000 0.8547 0.8547 0.8548 0.8548 0.8549
553.000000 0.8549 0.8550 0.8550 0.8551 0.8551
558.000000 0.8552 0.8552 0.8553 0.8553 0.8554
563.000000 0.8554 0.8555 0.8553 0.8551 0.8550
568.000000 0.8548 0.8546 0.8544 0.8542 0.8541
573.000000 0.8539 0.8537 0.8535 0.8533 0.8529
578.000000 0.8525 0.8521 0.8517 0.8513 0.8509
583.000000 0.8505 0.8501 0.8497 0.8493 0.8489
588.000000 0.8484 0.8480 0.8476 0.8480 0.8486
593.000000 0.8492 0.8499 0.8505 0.8511 0.8517
598.000000 0.8523 0.8530 0.8536 0.8542 0.8548
603.000000 0.8555 0.8563 0.8572 0.8581 0.8589
608.000000 0.8598 0.8607 0.8617 0.8626 0.8636
613.000000 0.8646 0.8654 0.8663 0.8671 0.8680
618.000000 0.8710 0.8738 0.8756 0.8774 0.8789
623.000000 0.8792 0.8796 0.8800 0.8799 0.8798
628.000000 0.8798 0.8797 0.8796 0.8811 0.8788
633.000000 0.8783 0.8779 0.8774 0.8769 0.8762
638.000000 0.8754 0.8746 0.8739 0.8729 0.8717
643.000000 0.8704 0.8691 0.8679 0.8666 0.8654
648.000000 0.8641 0.8623 0.8602 0.8582 0.8562
653.000000 0.8542 0.8522 0.8497 0.8471 0.8446
658.000000 0.8421 0.8396 0.8371 0.8342 0.8300
663.000000 0.8268 0.8262 0.8254 0.8242 0.8191
668.000000 0.8111 0.8033 0.7944 0.7870 0.7805
673.000000 0.7736 0.7687 0.7657 0.7633 0.7623
678.000000 0.7620 0.7628 0.7652 0.7633 0.7725
683.000000 0.7771 0.7818 0.7863 0.7906 0.7950
688.000000 0.7994 0.8042 0.8090 0.8132 0.8157
693.000000 0.8182 0.8208 0.8236 0.8268 0.8300
698.000000 0.8331 0.8361 0.8385 0.8406 0.8426
703.000000 0.8436 0.8443 0.8445 0.8445 0.8444
708.000000 0.8442 0.8441 0.8439 0.8437 0.8434
713.000000 0.8430 0.8427 0.8424 0.8420 0.8415
718.000000 0.8410 0.8405 0.8401 0.8394 0.8386
723.000000 0.8378 0.8369 0.8361 0.8353 0.8345
728.000000 0.8336 0.8336 0.8336 0.8341 0.8346
733.000000 0.8343 0.8366 0.8380 0.8394 0.8408
738.000000 0.8424 0.8439 0.8453 0.8466 0.8480
743.000000 0.8493 0.8498 0.8503 0.8505 0.8504
748.000000 0.8503 0.8502 0.8499 0.8492 0.8486
753.000000 0.8480 0.8470 0.8455 0.8439 0.8424
758.000000 0.8409 0.8391 0.8370 0.8349 0.8328
763.000000 0.8308 0.8285 0.8259 0.8234 0.8208
768.000000 0.8182 0.8151 0.8119 0.8116 0.8124
773.000000 0.8134 0.8144 0.8155 0.8167 0.8179
778.000000 0.8192 0.8215 0.8233 0.8244 0.8255
783.000000 0.8252 0.8249 0.8242 0.8232 0.8223
788.000000 0.8211 0.8199 0.8186 0.8174 0.8161
793.000000 0.8149 0.8139 0.8130 0.8120 0.8110
798.000000 0.8100 0.8090 0.8080 0.8070 0.8061
803.000000 0.8054 0.8051 0.8048 0.8044 0.8050
808.000000 0.8055 0.8061 0.8067 0.8073 0.8078
813.000000 0.8082 0.8087 0.8091 0.8094 0.8097
818.000000 0.8100 0.8104 0.8107 0.8111 0.8115
823.000000 0.8119 0.8121 0.8122 0.8122 0.8123
828.000000 0.8124 0.8125 0.8124 0.8123 0.8123
833.000000 0.8122 0.8118 0.8113 0.8108 0.8104
838.000000 0.8099 0.8094 0.8090 0.8085 0.8081
843.000000 0.8075 0.8067 0.8059 0.8051 0.8043
848.000000 0.8035 0.8027 0.8020 0.8012 0.8004
853.000000 0.7996 0.7988 0.7980 0.7972 0.7964
858.000000 0.7953 0.7942 0.7931 0.7921 0.7909
863.000000 0.7891 0.7873 0.7855 0.7838 0.7820
868.000000 0.7802 0.7785 0.7767 0.7749 0.7730
873.000000 0.7710 0.7691 0.7671 0.7652 0.7632
878.000000 0.7613 0.7594 0.7575 0.7556 0.7537
883.000000 0.7518 0.7499 0.7480 0.7461 0.7442
888.000000 0.7423 0.7404 0.7385 0.7361 0.7329
893.000000 0.7296 0.7264 0.7231 0.7199 0.7166
898.000000 0.7125 0.7085 0.7044 0.7003 0.6962
903.000000 0.6921 0.6881 0.6840 0.6799 0.6759
908.000000 0.6718 0.6665 0.6609 0.6554 0.6498
913.000000 0.6458 0.6418 0.6379 0.6351 0.6348
918.000000 0.6346 0.6346 0.6346 0.6339 0.6332
923.000000 0.6324 0.6312 0.6280 0.6253 0.6234
928.000000 0.6223 0.6224 0.6226 0.6239 0.6245
933.000000 0.6259 0.6278 0.6302 0.6327 0.6356
938.000000 0.6388 0.6416 0.6440 0.6464 0.6484
943.000000 0.6500 0.6515 0.6531 0.6547 0.6564
948.000000 0.6581 0.6605 0.6643 0.6683 0.6724
953.000000 0.6766 0.6808 0.6869 0.6954 0.7058
958.000000 0.7148 0.7237 0.7310 0.7360 0.7410
963.000000 0.7459 0.7509 0.7573 0.7645 0.7715
968.000000 0.7752 0.7790 0.7827 0.7865 0.7902
973.000000 0.7940 0.7974 0.8004 0.8034 0.8065
978.000000 0.8095 0.8125 0.8155 0.8184 0.8210
983.000000 0.8236 0.8262 0.8288 0.8312 0.8335
988.000000 0.8358 0.8370 0.8373 0.8377 0.8380
993.000000 0.8383 0.8387 0.8385 0.8387 0.8380
998.000000 0.8378 0.8375 0.8370 0.8366 0.8362
1003.000000 0.8358 0.8354 0.8350 0.8345 0.8338
1008.000000 0.8332 0.8325 0.8318 0.8312 0.8305
1013.000000 0.8299 0.8292 0.8286 0.8280 0.8273
1018.000000 0.8270 0.8270 0.8270 0.8270 0.8270
1023.000000 0.8266 0.8263 0.8260 0.8257 0.8251
1028.000000 0.8244 0.8237 0.8230 0.8219 0.8205
1033.000000 0.8192 0.8178 0.8153 0.8124 0.8082
1038.000000 0.8031 0.7974 0.7916 0.7909 0.7908
1043.000000 0.7906 0.7888 0.7911 0.7915 0.7920
1048.000000 0.7929 0.7943 0.7962 0.7983 0.8012
1053.000000 0.8040 0.8077 0.8116 0.8147 0.8173
1058.000000 0.8200 0.8222 0.8232 0.8231 0.8230
1063.000000 0.8230 0.8228 0.8241 0.8223 0.8221
1068.000000 0.8217 0.8205 0.8193 0.8174 0.8154
1073.000000 0.8135 0.8123 0.8112 0.8104 0.8104
1078.000000 0.8104 0.8104 0.8106 0.8108 0.8107
1083.000000 0.8107 0.8106 0.8106 0.8105 0.8101
1088.000000 0.8085 0.8068 0.8036 0.8005 0.7978
1093.000000 0.7942 0.7904 0.7870 0.7837 0.7804
1098.000000 0.7771 0.7728 0.7681 0.7651 0.7649
1103.000000 0.7640 0.7677 0.7706 0.7755 0.7824
1108.000000 0.7901 0.7978 0.8052 0.8111 0.8157
1113.000000 0.8184 0.8190 0.8192 0.8189 0.8186
1118.000000 0.8184 0.8181 0.8190 0.8174 0.8170
1123.000000 0.8165 0.8160 0.8155 0.8150 0.8136
1128.000000 0.8121 0.8106 0.8081 0.8056 0.8029
1133.000000 0.8002 0.7974 0.7941 0.7905 0.7869
1138.000000 0.7834 0.7800 0.7765 0.7731 0.7699
1143.000000 0.7669 0.7640 0.7610 0.7580 0.7549
1148.000000 0.7512 0.7476 0.7440 0.7403 0.7368
1153.000000 0.7333 0.7298 0.7264 0.7229 0.7194
1158.000000 0.7159 0.7124 0.7089 0.7054 0.7018
1163.000000 0.6983 0.6946 0.6909 0.6872 0.6835
1168.000000 0.6797 0.6760 0.6731 0.6702 0.6674
1173.000000 0.6645 0.6617 0.6589 0.6561 0.6534
1178.000000 0.6510 0.6497 0.6485 0.6477 0.6472
1183.000000 0.6467 0.6456 0.6445 0.6431 0.6403
1188.000000 0.6375 0.6347 0.6313 0.6278 0.6243
1193.000000 0.6208 0.6159 0.6110 0.6061 0.6011
1198.000000 0.5954 0.5897 0.5841 0.5780 0.5706
1203.000000 0.5631 0.5567 0.5518 0.5468 0.5419
1208.000000 0.5376 0.5333 0.5290 0.5257 0.5225
1213.000000 0.5194 0.5165 0.5140 0.5114 0.5085
1218.000000 0.5056 0.5022 0.4978 0.4931 0.4864
1223.000000 0.4797 0.4706 0.4630 0.4610 0.4610
1228.000000 0.4628 0.4621 0.4660 0.4722 0.4858
1233.000000 0.4952 0.5031 0.5124 0.5242 0.5414
1238.000000 0.5489 0.5490 0.5485 0.5492 0.5457
1243.000000 0.5425 0.5384 0.5333 0.5273 0.5205
1248.000000 0.5119 0.5022 0.4931 0.4849 0.4767
1253.000000 0.4681 0.4588 0.4481 0.4340 0.3697
1258.000000 0.3649 0.3647 0.3661 0.3665 0.3700
1263.000000 0.3812 0.3999 0.4188 0.4378 0.4567
1268.000000 0.4757 0.4946 0.5441 0.5588 0.5710
1273.000000 0.5821 0.5936 0.6049 0.6083 0.6117
1278.000000 0.6118 0.6116 0.6134 0.6109 0.6100
1283.000000 0.6092 0.6079 0.6066 0.6040 0.6013
1288.000000 0.5970 0.5901 0.5866 0.5850 0.5849
1293.000000 0.5851 0.5851 0.5864 0.5894 0.5946
1298.000000 0.6079 0.6193 0.6281 0.6391 0.6515
1303.000000 0.6626 0.6710 0.6794 0.6857 0.6914
1308.000000 0.6970 0.7022 0.7031 0.7041 0.7041
1313.000000 0.7062 0.7032 0.7022 0.7007 0.6992
1318.000000 0.6935 0.6884 0.6833 0.6785 0.6741
1323.000000 0.6697 0.6653 0.6607 0.6562 0.6517
1328.000000 0.6479 0.6478 0.6478 0.6426 0.6485
1333.000000 0.6490 0.6502 0.6531 0.6555 0.6574
1338.000000 0.6594 0.6613 0.6680 0.6774 0.6855
1343.000000 0.6913 0.6971 0.7055 0.7144 0.7222
1348.000000 0.7288 0.7353 0.7392 0.7428 0.7464
1353.000000 0.7506 0.7547 0.7587 0.7605 0.7623
1358.000000 0.7642 0.7660 0.7679 0.7686 0.7693
1363.000000 0.7700 0.7704 0.7700 0.7698 0.7690
1368.000000 0.7685 0.7673 0.7657 0.7640 0.7614
1373.000000 0.7586 0.7554 0.7520 0.7467 0.7400
1378.000000 0.7347 0.7294 0.7250 0.7264 0.7283
1383.000000 0.7294 0.7296 0.7298 0.7301 0.7284
1388.000000 0.7256 0.7220 0.7161 0.7105 0.7050
1393.000000 0.6995 0.6930 0.6863 0.6796 0.6716
1398.000000 0.6637 0.6558 0.6478 0.6398 0.6318
1403.000000 0.6237 0.6109 0.5964 0.5845 0.5766
1408.000000 0.5687 0.5608 0.5529 0.5409 0.5285
1413.000000 0.5172 0.5082 0.4992 0.4902 0.4785
1418.000000 0.4629 0.4510 0.4481 0.4490 0.4498
1423.000000 0.4510 0.4534 0.4592 0.4656 0.4746
1428.000000 0.4858 0.4926 0.4993 0.5066 0.5140
1433.000000 0.5215 0.5324 0.5420 0.5497 0.5579
1438.000000 0.5678 0.5757 0.6062 0.6243 0.6317
1443.000000 0.6354 0.6379 0.6406 0.6434 0.6465
1448.000000 0.6505 0.6544 0.6867 0.6994 0.7048
1453.000000 0.7092 0.7113 0.7133 0.7153 0.7173
1458.000000 0.7193 0.7210 0.7227 0.7244 0.7261
1463.000000 0.7278 0.7295 0.7316 0.7338 0.7360
1468.000000 0.7382 0.7404 0.7426 0.7452 0.7480
1473.000000 0.7508 0.7536 0.7563 0.7591 0.7619
1478.000000 0.7653 0.7700 0.7747 0.7794 0.7841
1483.000000 0.7883 0.7914 0.7945 0.7976 0.8007
1488.000000 0.8038 0.8069 0.8100 0.8130 0.8147
1493.000000 0.8165 0.8183 0.8200 0.8218 0.8235
1498.000000 0.8247 0.8256 0.8265 0.8275 0.8284
1503.000000 0.8293 0.8298 0.8300 0.8301 0.8303
1508.000000 0.8304 0.8306 0.8308 0.8309 0.8307
1513.000000 0.8306 0.8304 0.8302 0.8300 0.8299
1518.000000 0.8297 0.8295 0.8294 0.8292 0.8291
1523.000000 0.8289 0.8287 0.8286 0.8284 0.8283
1528.000000 0.8281 0.8283 0.8285 0.8287 0.8289
1533.000000 0.8291 0.8295 0.8300 0.8306 0.8311
1538.000000 0.8317 0.8323 0.8328 0.8334 0.8338
1543.000000 0.8342 0.8346 0.8350 0.8354 0.8358
1548.000000 0.8362 0.8366 0.8369 0.8373 0.8372
1553.000000 0.8372 0.8362 0.8371 0.8371 0.8370
1558.000000 0.8370 0.8369 0.8366 0.8362 0.8358
1563.000000 0.8354 0.8350 0.8347 0.8343 0.8339
1568.000000 0.8334 0.8329 0.8324 0.8319 0.8314
1573.000000 0.8309 0.8304 0.8299 0.8294 0.8291
1578.000000 0.8287 0.8283 0.8279 0.8276 0.8272
1583.000000 0.8268 0.8263 0.8258 0.8253 0.8247
1588.000000 0.8242 0.8237 0.8226 0.8212 0.8199
1593.000000 0.8185 0.8171 0.8157 0.8142 0.8127
1598.000000 0.8112 0.8097 0.8081 0.8060 0.8038
1603.000000 0.8022 0.8019 0.8016 0.8014 0.8011
1608.000000 0.8009 0.8007 0.8005 0.8003 0.7999
1613.000000 0.7994 0.7988 0.7973 0.7955 0.7937
1618.000000 0.7919 0.7899 0.7880 0.7861 0.7841
1623.000000 0.7821 0.7800 0.7779 0.7759 0.7738
1628.000000 0.7717 0.7696 0.7673 0.7650 0.7627
1633.000000 0.7605 0.7582 0.7559 0.7536 0.7511
1638.000000 0.7483 0.7455 0.7428 0.7400 0.7372
1643.000000 0.7345 0.7317 0.7287 0.7250 0.7213
1648.000000 0.7175 0.7138 0.7101 0.7064 0.7027
1653.000000 0.6989 0.6944 0.6895 0.6846 0.6797
1658.000000 0.6748 0.6699 0.6641 0.6582 0.6522
1663.000000 0.6463 0.6404 0.6340 0.6273 0.6205
1668.000000 0.6138 0.6071 0.5983 0.5893 0.5803
1673.000000 0.5712 0.5616 0.5512 0.5408 0.5303
1678.000000 0.5190 0.5077 0.4964 0.4851 0.4737
1683.000000 0.4621 0.4430 0.4042 0.3820 0.3598
1688.000000 0.3377 0.3155 0.2933 0.2712 0.2490
1693.000000 0.2268 0.2047 0.1825 0.1603 0.1387
1698.000000 0.1310 0.1219 0.1117 0.1061 0.1041
1703.000000 0.1039 0.1040 0.1039 0.1064 0.1079
1708.000000 0.1101 0.1143 0.1195 0.1247 0.1335
1713.000000 0.1417 0.1489 0.1640 0.1795 0.1927
1718.000000 0.2024 0.2122 0.2349 0.2572 0.3057
1723.000000 0.3235 0.3412 0.3589 0.3767 0.3944
1728.000000 0.4121 0.4319 0.4374 0.4400 0.4414
1733.000000 0.4428 0.4442 0.4456 0.4470 0.4486
1738.000000 0.4502 0.4529 0.4578 0.4784 0.4872
1743.000000 0.4961 0.5151 0.5360 0.5500 0.5684
1748.000000 0.5928 0.6258 0.6352 0.6447 0.6607
1753.000000 0.6790 0.6929 0.7046 0.7142 0.7233
1758.000000 0.7297 0.7361 0.7425 0.7466 0.7502
1763.000000 0.7538 0.7573 0.7609 0.7646 0.7683
1768.000000 0.7720 0.7757 0.7797 0.7840 0.7883
1773.000000 0.7910 0.7929 0.7944 0.7954 0.7965
1778.000000 0.7975 0.7986 0.7996 0.8007 0.8018
1783.000000 0.8029 0.8041 0.8051 0.8059 0.8068
1788.000000 0.8077 0.8079 0.8080 0.8081 0.8082
1793.000000 0.8083 0.8084 0.8085 0.8086 0.8090
1798.000000 0.8093 0.8096 0.8100 0.8103 0.8106
1803.000000 0.8110 0.8113 0.8115 0.8117 0.8119
1808.000000 0.8121 0.8123 0.8124 0.8126 0.8128
1813.000000 0.8131 0.8133 0.8136 0.8139 0.8141
1818.000000 0.8144 0.8147 0.8150 0.8152 0.8155
1823.000000 0.8158 0.8160 0.8163 0.8166 0.8168
1828.000000 0.8171 0.8174 0.8176 0.8179 0.8182
1833.000000 0.8184 0.8187 0.8190 0.8192 0.8194
1838.000000 0.8196 0.8197 0.8199 0.8200 0.8201
1843.000000 0.8203 0.8204 0.8206 0.8207 0.8209
1848.000000 0.8210 0.8212 0.8213 0.8214 0.8216
1853.000000 0.8217 0.8219 0.8220 0.8222 0.8223
1858.000000 0.8225 0.8226 0.8228 0.8229 0.8230
1863.000000 0.8232 0.8233 0.8235 0.8236 0.8238
1868.000000 0.8239 0.8241 0.8242 0.8244 0.8245
1873.000000 0.8247 0.8249 0.8251 0.8253 0.8256
1878.000000 0.8258 0.8260 0.8262 0.8264 0.8266
1883.000000 0.8268 0.8271 0.8273 0.8275 0.8277
1888.000000 0.8279 0.8281 0.8282 0.8284 0.8286
1893.000000 0.8288 0.8289 0.8291 0.8293 0.8295
1898.000000 0.8296 0.8298 0.8300 0.8302 0.8303
1903.000000 0.8305 0.8307 0.8309 0.8310 0.8311
1908.000000 0.8311 0.8312 0.8313 0.8314 0.8315
1913.000000 0.8315 0.8316 0.8317 0.8318 0.8319
1918.000000 0.8319 0.8320 0.8321 0.8322 0.8323
1923.000000 0.8323 0.8324 0.8325 0.8326 0.8327
1928.000000 0.8328 0.8329 0.8329 0.8330 0.8331
1933.000000 0.8332 0.8333 0.8334 0.8335 0.8336
1938.000000 0.8336 0.8337 0.8338 0.8339 0.8338
1943.000000 0.8338 0.8337 0.8337 0.8336 0.8335
1948.000000 0.8335 0.8334 0.8334 0.8333 0.8333
1953.000000 0.8332 0.8331 0.8331 0.8330 0.8330
1958.000000 0.8329 0.8329 0.8328 0.8327 0.8327
1963.000000 0.8326 0.8326 0.8327 0.8327 0.8327
1968.000000 0.8327 0.8328 0.8328 0.8328 0.8328
1973.000000 0.8329 0.8329 0.8329 0.8329 0.8330
1978.000000 0.8330 0.8330 0.8330 0.8331 0.8332
1983.000000 0.8331 0.8331 0.8332 0.8332 0.8333
1988.000000 0.8335 0.8336 0.8337 0.8339 0.8340
1993.000000 0.8341 0.8343 0.8344 0.8345 0.8347
1998.000000 0.8348 0.8351 0.8354 0.8357 0.8360
2003.000000 0.8361 0.8362 0.8363 0.8365 0.8366
2008.000000 0.8368 0.8369 0.8371 0.8373 0.8375
2013.000000 0.8376 0.8378 0.8380 0.8382 0.8383
2018.000000 0.8385 0.8386 0.8388 0.8389 0.8390
2023.000000 0.8391 0.8392 0.8392 0.8393 0.8394
2028.000000 0.8395 0.8396 0.8397 0.8397 0.8398
2033.000000 0.8397 0.8396 0.8395 0.8395 0.8394
2038.000000 0.8393 0.8392 0.8391 0.8390 0.8390
2043.000000 0.8389 0.8388 0.8387 0.8387 0.8386
2048.000000 0.8385 0.8384 0.8383 0.8382 0.8382
2053.000000 0.8381 0.8380 0.8378 0.8377 0.8375
2058.000000 0.8374 0.8373 0.8372 0.8370 0.8369
2063.000000 0.8367 0.8366 0.8365 0.8364 0.8362
2068.000000 0.8361 0.8359 0.8358 0.8357 0.8356
2073.000000 0.8354 0.8353 0.8351 0.8350 0.8348
2078.000000 0.8347 0.8345 0.8344 0.8342 0.8340
2083.000000 0.8338 0.8337 0.8335 0.8334 0.8332
2088.000000 0.8331 0.8329 0.8328 0.8326 0.8325
2093.000000 0.8324 0.8323 0.8321 0.8320 0.8318
2098.000000 0.8317 0.8315 0.8313 0.8311 0.8310
2103.000000 0.8308 0.8307 0.8305 0.8304 0.8302
2108.000000 0.8301 0.8299 0.8298 0.8297 0.8296
2113.000000 0.8294 0.8293 0.8292 0.8291 0.8289
2118.000000 0.8288 0.8286 0.8285 0.8283 0.8282
2123.000000 0.8280 0.8278 0.8276 0.8275 0.8273
2128.000000 0.8271 0.8269 0.8267 0.8265 0.8264
2133.000000 0.8262 0.8260 0.8258 0.8257 0.8255
2138.000000 0.8253 0.8251 0.8250 0.8248 0.8246
2143.000000 0.8244 0.8243 0.8242 0.8242 0.8241
2148.000000 0.8240 0.8239 0.8239 0.8238 0.8238
2153.000000 0.8237 0.8236 0.8236 0.8236 0.8236
2158.000000 0.8236 0.8236 0.8237 0.8237 0.8237
2163.000000 0.8237 0.8238 0.8238 0.8239 0.8239
2168.000000 0.8240 0.8240 0.8241 0.8241 0.8242
2173.000000 0.8242 0.8243 0.8243 0.8243 0.8243
2178.000000 0.8244 0.8244 0.8245 0.8244 0.8244
2183.000000 0.8244 0.8244 0.8243 0.8243 0.8243
2188.000000 0.8243 0.8243 0.8243 0.8242 0.8242
2193.000000 0.8241 0.8240 0.8237 0.8235 0.8232
2198.000000 0.8229 0.8226 0.8224 0.8221 0.8218
2203.000000 0.8215 0.8213 0.8210 0.8208 0.8205
2208.000000 0.8202 0.8199 0.8197 0.8194 0.8192
2213.000000 0.8189 0.8186 0.8183 0.8181 0.8178
2218.000000 0.8175 0.8172 0.8170 0.8167 0.8165
2223.000000 0.8162 0.8159 0.8156 0.8154 0.8151
2228.000000 0.8148 0.8144 0.8141 0.8138 0.8135
2233.000000 0.8131 0.8128 0.8124 0.8121 0.8118
2238.000000 0.8115 0.8111 0.8108 0.8104 0.8101
2243.000000 0.8098 0.8095 0.8091 0.8088 0.8085
2248.000000 0.8082 0.8079 0.8076 0.8074 0.8072
2253.000000 0.8070 0.8069 0.8067 0.8065 0.8063
2258.000000 0.8062 0.8060 0.8058 0.8056 0.8055
2263.000000 0.8053 0.8052 0.8050 0.8048 0.8046
2268.000000 0.8045 0.8043 0.8041 0.8039 0.8037
2273.000000 0.8034 0.8031 0.8028 0.8026 0.8023
2278.000000 0.8021 0.8018 0.8016 0.8013 0.8011
2283.000000 0.8008 0.8006 0.8003 0.8001 0.7998
2288.000000 0.7996 0.7993 0.7991 0.7988 0.7986
2293.000000 0.7981 0.7977 0.7973 0.7969 0.7965
2298.000000 0.7961 0.7956 0.7952 0.7948 0.7944
2303.000000 0.7940 0.7936 0.7932 0.7928 0.7923
2308.000000 0.7919 0.7915 0.7911 0.7907 0.7903
2313.000000 0.7898 0.7894 0.7889 0.7884 0.7879
2318.000000 0.7874 0.7869 0.7864 0.7859 0.7854
2323.000000 0.7849 0.7844 0.7839 0.7834 0.7829
2328.000000 0.7824 0.7819 0.7814 0.7809 0.7804
2333.000000 0.7799 0.7794 0.7789 0.7784 0.7779
2338.000000 0.7774 0.7769 0.7764 0.7759 0.7754
2343.000000 0.7749 0.7744 0.7739 0.7734 0.7729
2348.000000 0.7724 0.7719 0.7714 0.7709 0.7704
2353.000000 0.7698 0.7693 0.7688 0.7683 0.7678
2358.000000 0.7673 0.7668 0.7663 0.7657 0.7652
2363.000000 0.7646 0.7640 0.7634 0.7628 0.7622
2368.000000 0.7616 0.7610 0.7604 0.7598 0.7592
2373.000000 0.7586 0.7580 0.7574 0.7568 0.7562
2378.000000 0.7556 0.7550 0.7544 0.7538 0.7532
2383.000000 0.7526 0.7520 0.7514 0.7508 0.7502
2388.000000 0.7496 0.7490 0.7484 0.7477 0.7471
2393.000000 0.7465 0.7459 0.7453 0.7447 0.7441
2398.000000 0.7435 0.7429 0.7423 0.7417 0.7411
2403.000000 0.7405 0.7399 0.7392 0.7386 0.7380
2408.000000 0.7374 0.7366 0.7359 0.7350 0.7342
2413.000000 0.7334 0.7326 0.7317 0.7309 0.7301
2418.000000 0.7293 0.7284 0.7276 0.7268 0.7260
2423.000000 0.7251 0.7243 0.7235 0.7227 0.7218
2428.000000 0.7210 0.7202 0.7194 0.7186 0.7178
2433.000000 0.7170 0.7162 0.7154 0.7146 0.7138
2438.000000 0.7130 0.7122 0.7114 0.7106 0.7098
2443.000000 0.7090 0.7082 0.7074 0.7067 0.7061
2448.000000 0.7055 0.7049 0.7043 0.7037 0.7031
2453.000000 0.7025 0.7019 0.7012 0.7006 0.6999
2458.000000 0.6992 0.6985 0.6978 0.6971 0.6965
2463.000000 0.6958 0.6952 0.6946 0.6941 0.6935
2468.000000 0.6929 0.6923 0.6918 0.6912 0.6907
2473.000000 0.6901 0.6895 0.6889 0.6884 0.6878
2478.000000 0.6872 0.6866 0.6861 0.6855 0.6850
2483.000000 0.6845 0.6840 0.6834 0.6829 0.6819
2488.000000 0.6809 0.6797 0.6786 0.6774 0.6762
2493.000000 0.6746 0.6731 0.6711 0.6692 0.6672
2498.000000 0.6652 0.6629 0.6607 0.6583 0.6559
2503.000000 0.6537 0.6516 0.6503 0.6491 0.6479
2508.000000 0.6467 0.6454 0.6442 0.6430 0.6418
2513.000000 0.6406 0.6394 0.6381 0.6369 0.6357
2518.000000 0.6345 0.6333 0.6321 0.6309 0.6298
2523.000000 0.6287 0.6276 0.6264 0.6253 0.6241
2528.000000 0.6230 0.6219 0.6208 0.6196 0.6185
2533.000000 0.6174 0.6163 0.6151 0.6140 0.6128
2538.000000 0.6117 0.6102 0.6087 0.6070 0.6054
2543.000000 0.6038 0.6022 0.6009 0.5997 0.5985
2548.000000 0.5973 0.5970 0.5967 0.5967 0.5967
2553.000000 0.5967 0.5968 0.5968 0.5968 0.5968
2558.000000 0.5968 0.5968 0.5968 0.5968 0.5968
2563.000000 0.5969 0.5970 0.5972 0.5974 0.5975
2568.000000 0.5977 0.5978 0.5979 0.5977 0.5976
2573.000000 0.5976 0.5976 0.5976 0.5976 0.5976
2578.000000 0.5976 0.5976 0.5976 0.5976 0.5976
2583.000000 0.5976 0.5976 0.5976 0.5976 0.5975
2588.000000 0.5975 0.5974 0.5974 0.5973 0.5973
2593.000000 0.5971 0.5970 0.5966 0.5963 0.5959
2598.000000 0.5956 0.5952 0.5949 0.5941 0.5934
2603.000000 0.5925 0.5916 0.5907 0.5898 0.5888
2608.000000 0.5879 0.5867 0.5855 0.5843 0.5832
2613.000000 0.5820 0.5808 0.5796 0.5784 0.5772
2618.000000 0.5760 0.5746 0.5733 0.5719 0.5705
2623.000000 0.5690 0.5676 0.5662 0.5648 0.5636
2628.000000 0.5625 0.5615 0.5605 0.5594 0.5584
2633.000000 0.5574 0.5564 0.5553 0.5543 0.5533
2638.000000 0.5523 0.5512 0.5502 0.5492 0.5482
2643.000000 0.5467 0.5453 0.5434 0.5416 0.5400
2648.000000 0.5385 0.5377 0.5369 0.5360 0.5352
2653.000000 0.5346 0.5340 0.5338 0.5336 0.5334
2658.000000 0.5332 0.5330 0.5328 0.5326 0.5324
2663.000000 0.5323 0.5338 0.5323 0.5323 0.5328
2668.000000 0.5334 0.5349 0.5365 0.5380 0.5395
2673.000000 0.5407 0.5419 0.5433 0.5447 0.5464
2678.000000 0.5481 0.5497 0.5513 0.5527 0.5541
2683.000000 0.5555 0.5570 0.5585 0.5600 0.5617
2688.000000 0.5635 0.5653 0.5671 0.5689 0.5707
2693.000000 0.5721 0.5736 0.5743 0.5750 0.5754
2698.000000 0.5758 0.5758 0.5758 0.5756 0.5755
2703.000000 0.5753 0.5762 0.5749 0.5747 0.5745
2708.000000 0.5743 0.5740 0.5738 0.5733 0.5729
2713.000000 0.5724 0.5720 0.5712 0.5704 0.5696
2718.000000 0.5688 0.5680 0.5672 0.5664 0.5656
2723.000000 0.5647 0.5638 0.5629 0.5620 0.5611
2728.000000 0.5602 0.5592 0.5582 0.5568 0.5555
2733.000000 0.5541 0.5527 0.5518 0.5509 0.5504
2738.000000 0.5500 0.5496 0.5492 0.5490 0.5488
2743.000000 0.5488 0.5488 0.5488 0.5510 0.5488
2748.000000 0.5488 0.5490 0.5493 0.5496 0.5499
2753.000000 0.5502 0.5506 0.5514 0.5523 0.5533
2758.000000 0.5543 0.5554 0.5566 0.5579 0.5592
2763.000000 0.5604 0.5616 0.5624 0.5632 0.5639
2768.000000 0.5647 0.5651 0.5656 0.5660 0.5664
2773.000000 0.5666 0.5668 0.5668 0.5668 0.5668
2778.000000 0.5646 0.5665 0.5662 0.5659 0.5656
2783.000000 0.5652 0.5648 0.5643 0.5639 0.5633
2788.000000 0.5628 0.5619 0.5610 0.5600 0.5591
2793.000000 0.5582 0.5573 0.5562 0.5552 0.5538
2798.000000 0.5525 0.5511 0.5498 0.5485 0.5472
2803.000000 0.5458 0.5445 0.5432 0.5419 0.5404
2808.000000 0.5389 0.5373 0.5357 0.5341 0.5325
2813.000000 0.5309 0.5294 0.5278 0.5262 0.5244
2818.000000 0.5226 0.5207 0.5189 0.5170 0.5152
2823.000000 0.5133 0.5115 0.5094 0.5074 0.5053
2828.000000 0.5032 0.5011 0.4990 0.4968 0.4947
2833.000000 0.4924 0.4902 0.4878 0.4854 0.4830
2838.000000 0.4806 0.4782 0.4758 0.4734 0.4710
2843.000000 0.4682 0.4654 0.4621 0.4588 0.4555
2848.000000 0.4523 0.4490 0.4458 0.4421 0.4385
2853.000000 0.4340 0.4296 0.4252 0.4208 0.4176
2858.000000 0.4144 0.4112 0.4080 0.4047 0.4015
2863.000000 0.3982 0.3950 0.3904 0.3859 0.3824
2868.000000 0.3789 0.3791 0.3777 0.3810 0.3826
2873.000000 0.3854 0.3883 0.3915 0.3948 0.3968
2878.000000 0.3989 0.3998 0.4007 0.4004 0.4027
2883.000000 0.3996 0.3990 0.3982 0.3974 0.3963
2888.000000 0.3953 0.3937 0.3922 0.3896 0.3870
2893.000000 0.3843 0.3817 0.3790 0.3764 0.3742
2898.000000 0.3720 0.3701 0.3682 0.3663 0.3644
2903.000000 0.3627 0.3610 0.3593 0.3576 0.3559
2908.000000 0.3542 0.3524 0.3507 0.3484 0.3462
2913.000000 0.3439 0.3416 0.3393 0.3371 0.3348
2918.000000 0.3325 0.3302 0.3279 0.3256 0.3234
2923.000000 0.3215 0.3197 0.3178 0.3160 0.3141
2928.000000 0.3123 0.3104 0.3086 0.3065 0.3045
2933.000000 0.3025 0.3005 0.2984 0.2963 0.2941
2938.000000 0.2920 0.2898 0.2877 0.2838 0.2799
2943.000000 0.2734 0.2670 0.2605 0.2540 0.2475
2948.000000 0.2410 0.2388 0.2366 0.2366 0.2377
2953.000000 0.2366 0.2367 0.2374 0.2382 0.2419
2958.000000 0.2456 0.2493 0.2530 0.2566 0.2603
2963.000000 0.2640 0.2677 0.2714 0.2751 0.2788
2968.000000 0.2825 0.2827 0.2829 0.2827 0.2826
2973.000000 0.2824 0.2852 0.2821 0.2820 0.2816
2978.000000 0.2812 0.2804 0.2796 0.2779 0.2763
2983.000000 0.2737 0.2712 0.2692 0.2673 0.2666
2988.000000 0.2659 0.2660 0.2661 0.2665 0.2669
2993.000000 0.2675 0.2659 0.2699 0.2718 0.2749
2998.000000 0.2781 0.2829 0.2878 0.2924 0.2970
3003.000000 0.3042 0.3114 0.3210 0.3307 0.3368
3008.000000 0.3429 0.3487 0.3546 0.3589 0.3633
3013.000000 0.3662 0.3691 0.3716 0.3741 0.3761
3018.000000 0.3782 0.3801 0.3820 0.3836 0.3853
3023.000000 0.3864 0.3876 0.3886 0.3896 0.3905
3028.000000 0.3915 0.3925 0.3935 0.3945 0.3955
3033.000000 0.3963 0.3972 0.3980 0.3989 0.3997
3038.000000 0.4006 0.4014 0.4023 0.4031 0.4040
3043.000000 0.4050 0.4060 0.4070 0.4081 0.4091
3048.000000 0.4102 0.4113 0.4124 0.4132 0.4140
3053.000000 0.4146 0.4153 0.4160 0.4167 0.4173
3058.000000 0.4180 0.4186 0.4193 0.4196 0.4199
3063.000000 0.4202 0.4205 0.4208 0.4212 0.4215
3068.000000 0.4218 0.4221 0.4225 0.4228 0.4232
3073.000000 0.4236 0.4240 0.4244 0.4248 0.4252
3078.000000 0.4256 0.4259 0.4263 0.4267 0.4271
3083.000000 0.4275 0.4279 0.4283 0.4287 0.4291
3088.000000 0.4296 0.4300 0.4305 0.4309 0.4314
3093.000000 0.4318 0.4323 0.4327 0.4332 0.4336
3098.000000 0.4340 0.4344 0.4348 0.4352 0.4356
3103.000000 0.4360 0.4364 0.4368 0.4372 0.4377
3108.000000 0.4382 0.4388 0.4394 0.4399 0.4405
3113.000000 0.4411 0.4417 0.4423 0.4430 0.4441
3118.000000 0.4453 0.4464 0.4476 0.4489 0.4502
3123.000000 0.4519 0.4537 0.4554 0.4572 0.4587
3128.000000 0.4603 0.4619 0.4635 0.4650 0.4666
3133.000000 0.4681 0.4697 0.4712 0.4728 0.4739
3138.000000 0.4751 0.4762 0.4774 0.4785 0.4797
3143.000000 0.4809 0.4821 0.4832 0.4844 0.4855
3148.000000 0.4867 0.4878 0.4890 0.4901 0.4912
3153.000000 0.4923 0.4935 0.4946 0.4957 0.4968
3158.000000 0.4980 0.4991 0.5003 0.5014 0.5025
3163.000000 0.5036 0.5048 0.5058 0.5069 0.5079
3168.000000 0.5090 0.5100 0.5111 0.5122 0.5133
3173.000000 0.5143 0.5154 0.5164 0.5175 0.5185
3178.000000 0.5196 0.5207 0.5218 0.5228 0.5239
3183.000000 0.5249 0.5260 0.5270 0.5281 0.5292
3188.000000 0.5303 0.5313 0.5324 0.5334 0.5344
3193.000000 0.5354 0.5364 0.5373 0.5383 0.5392
3198.000000 0.5402 0.5412 0.5422 0.5431 0.5441
3203.000000 0.5450 0.5460 0.5470 0.5480 0.5489
3208.000000 0.5499 0.5508 0.5518 0.5527 0.5537
3213.000000 0.5547 0.5557 0.5566 0.5576 0.5585
3218.000000 0.5595 0.5605 0.5616 0.5626 0.5636
3223.000000 0.5646 0.5656 0.5666 0.5677 0.5687
3228.000000 0.5697 0.5707 0.5717 0.5727 0.5738
3233.000000 0.5748 0.5758 0.5768 0.5779 0.5789
3238.000000 0.5799 0.5809 0.5820 0.5830 0.5841
3243.000000 0.5852 0.5863 0.5874 0.5885 0.5896
3248.000000 0.5907 0.5918 0.5929 0.5940 0.5951
3253.000000 0.5962 0.5973 0.5983 0.5994 0.6005
3258.000000 0.6016 0.6027 0.6038 0.6049 0.6060
3263.000000 0.6071 0.6082 0.6093 0.6105 0.6116
3268.000000 0.6128 0.6139 0.6151 0.6162 0.6174
3273.000000 0.6185 0.6197 0.6209 0.6221 0.6232
3278.000000 0.6244 0.6255 0.6267 0.6278 0.6290
3283.000000 0.6301 0.6313 0.6324 0.6336 0.6347
3288.000000 0.6358 0.6369 0.6381 0.6392 0.6403
3293.000000 0.6414 0.6425 0.6436 0.6448 0.6459
3298.000000 0.6470 0.6481 0.6492 0.6502 0.6512
3303.000000 0.6521 0.6531 0.6540 0.6550 0.6559
3308.000000 0.6569 0.6579 0.6589 0.6598 0.6608
3313.000000 0.6617 0.6627 0.6637 0.6647 0.6656
3318.000000 0.6666 0.6675 0.6685 0.6694 0.6704
3323.000000 0.6713 0.6722 0.6730 0.6739 0.6747
3328.000000 0.6756 0.6764 0.6773 0.6781 0.6790
3333.000000 0.6798 0.6807 0.6815 0.6823 0.6831
3338.000000 0.6840 0.6848 0.6857 0.6865 0.6874
3343.000000 0.6882 0.6891 0.6899 0.6907 0.6915
3348.000000 0.6924 0.6932 0.6941 0.6949 0.6957
3353.000000 0.6965 0.6974 0.6982 0.6990 0.6998
3358.000000 0.7006 0.7014 0.7023 0.7031 0.7039
3363.000000 0.7047 0.7055 0.7063 0.7072 0.7080
3368.000000 0.7088 0.7096 0.7104 0.7112 0.7121
3373.000000 0.7129 0.7137 0.7145 0.7153 0.7161
3378.000000 0.7169 0.7177 0.7186 0.7193 0.7200
3383.000000 0.7207 0.7215 0.7222 0.7229 0.7236
3388.000000 0.7243 0.7250 0.7258 0.7265 0.7272
3393.000000 0.7279 0.7286 0.7293 0.7301 0.7308
3398.000000 0.7315 0.7322 0.7329 0.7336 0.7344
3403.000000 0.7351 0.7358 0.7364 0.7371 0.7377
3408.000000 0.7383 0.7388 0.7394 0.7400 0.7406
3413.000000 0.7411 0.7417 0.7423 0.7429 0.7434
3418.000000 0.7440 0.7445 0.7451 0.7457 0.7463
3423.000000 0.7468 0.7474 0.7480 0.7486 0.7491
3428.000000 0.7497 0.7502 0.7507 0.7511 0.7516
3433.000000 0.7520 0.7525 0.7529 0.7534 0.7538
3438.000000 0.7543 0.7547 0.7552 0.7557 0.7562
3443.000000 0.7566 0.7571 0.7575 0.7580 0.7584
3448.000000 0.7589 0.7593 0.7598 0.7602 0.7607
3453.000000 0.7611 0.7616 0.7620 0.7625 0.7629
3458.000000 0.7634 0.7638 0.7643 0.7647 0.7652
3463.000000 0.7656 0.7661 0.7665 0.7670 0.7674
3468.000000 0.7678 0.7682 0.7687 0.7691 0.7696
3473.000000 0.7700 0.7705 0.7709 0.7714 0.7718
3478.000000 0.7723 0.7727 0.7732 0.7736 0.7740
3483.000000 0.7744 0.7748 0.7751 0.7755 0.7759
3488.000000 0.7763 0.7766 0.7770 0.7774 0.7778
3493.000000 0.7781 0.7785 0.7789 0.7793 0.7796
3498.000000 0.7800 0.7804 0.7808 0.7811 0.7815
3503.000000 0.7819 0.7823 0.7826 0.7830 0.7834
3508.000000 0.7838 0.7841 0.7845 0.7849 0.7853
3513.000000 0.7856 0.7860 0.7863 0.7867 0.7869
3518.000000 0.7871 0.7873 0.7876 0.7878 0.7881
3523.000000 0.7883 0.7886 0.7888 0.7891 0.7893
3528.000000 0.7896 0.7898 0.7900 0.7902 0.7905
3533.000000 0.7907 0.7910 0.7912 0.7915 0.7917
3538.000000 0.7920 0.7922 0.7924 0.7926 0.7929
3543.000000 0.7931 0.7934 0.7936 0.7939 0.7942
3548.000000 0.7945 0.7948 0.7952 0.7955 0.7958
3553.000000 0.7961 0.7964 0.7967 0.7970 0.7973
3558.000000 0.7976 0.7979 0.7982 0.7985 0.7988
3563.000000 0.7991 0.7994 0.7997 0.8000 0.8003
3568.000000 0.8006 0.8009 0.8012 0.8015 0.8019
3573.000000 0.8022 0.8025 0.8028 0.8031 0.8034
3578.000000 0.8037 0.8040 0.8044 0.8047 0.8050
3583.000000 0.8053 0.8056 0.8059 0.8062 0.8065
3588.000000 0.8069 0.8072 0.8075 0.8078 0.8081
3593.000000 0.8083 0.8085 0.8086 0.8088 0.8090
3598.000000 0.8092 0.8094 0.8096 0.8097 0.8099
3603.000000 0.8101 0.8103 0.8104 0.8106 0.8108
3608.000000 0.8110 0.8112 0.8114 0.8115 0.8117
3613.000000 0.8119 0.8121 0.8123 0.8125 0.8126
3618.000000 0.8128 0.8130 0.8132 0.8133 0.8134
3623.000000 0.8135 0.8137 0.8138 0.8140 0.8141
3628.000000 0.8142 0.8143 0.8145 0.8146 0.8148
3633.000000 0.8149 0.8150 0.8151 0.8153 0.8154
3638.000000 0.8156 0.8157 0.8158 0.8159 0.8161
3643.000000 0.8162 0.8164 0.8165 0.8166 0.8167
3648.000000 0.8168 0.8169 0.8171 0.8172 0.8173
3653.000000 0.8174 0.8176 0.8177 0.8178 0.8179
3658.000000 0.8181 0.8182 0.8183 0.8184 0.8186
3663.000000 0.8187 0.8188 0.8189 0.8190 0.8191
3668.000000 0.8193 0.8194 0.8195 0.8196 0.8197
3673.000000 0.8197 0.8197 0.8197 0.8198 0.8198
3678.000000 0.8199 0.8199 0.8199 0.8199 0.8200
3683.000000 0.8200 0.8200 0.8200 0.8201 0.8201
3688.000000 0.8202 0.8202 0.8202 0.8202 0.8203
3693.000000 0.8203 0.8203 0.8203 0.8204 0.8204
3698.000000 0.8205 0.8205 0.8205 0.8205 0.8206
3703.000000 0.8206 0.8206 0.8206 0.8207 0.8207
3708.000000 0.8208 0.8208 0.8208 0.8208 0.8209
3713.000000 0.8209 0.8209 0.8209 0.8210 0.8210
3718.000000 0.8211 0.8211 0.8211 0.8211 0.8212
3723.000000 0.8212 0.8214 0.8212 0.8213 0.8213
3728.000000 0.8214 0.8214 0.8214 0.8213 0.8213
3733.000000 0.8212 0.8212 0.8211 0.8211 0.8210
3738.000000 0.8210 0.8209 0.8209 0.8208 0.8208
3743.000000 0.8207 0.8207 0.8206 0.8206 0.8205
3748.000000 0.8205 0.8204 0.8204 0.8203 0.8203
3753.000000 0.8202 0.8202 0.8201 0.8201 0.8200
3758.000000 0.8199 0.8198 0.8198 0.8197 0.8196
3763.000000 0.8195 0.8195 0.8194 0.8193 0.8192
3768.000000 0.8192 0.8191 0.8190 0.8189 0.8189
3773.000000 0.8188 0.8187 0.8186 0.8185 0.8184
3778.000000 0.8184 0.8183 0.8183 0.8182 0.8182
3783.000000 0.8182 0.8182 0.8181 0.8181 0.8181
3788.000000 0.8181 0.8180 0.8180 0.8180 0.8180
3793.000000 0.8180 0.8180 0.8180 0.8180 0.8180
3798.000000 0.8180 0.8180 0.8180 0.8180 0.8180
3803.000000 0.8180 0.8180 0.8180 0.8181 0.8181
3808.000000 0.8181 0.8181 0.8181
##END=
