##TITLE=9-n-DODECYL-PHENANTHRENE
##JCAMP-DX=4.24
##DATA TYPE=INFRARED SPECTRUM
##CLASS=COBLENTZ
##ORIGIN=CENTRE D'ETUDES NUCLEAIRES DE GRENOBLE
##OWNER=COBLENTZ SOCIETY
Collection (C) 2018 copyright by the U.S. Secretary of Commerce
on behalf of the United States of America. All rights reserved.
##DATE=Not specified, most likely prior to 1970
##NAMES=9-dodecylphenanthrene
##CAS REGISTRY NO=3788-61-2
##MOLFORM=C26 H34
##SOURCE REFERENCE=COBLENTZ NO. 4237
##$NIST SOURCE=COBLENTZ
##$NIST IMAGE=cob4237
##SPECTROMETER/DATA SYSTEM=Not specified, most likely a prism, grating, or hybrid spectrometer.
##STATE=SOLID (1% IN KI)
##PATH LENGTH=
$$PURITY 96%
##SAMPLING PROCEDURE=TRANSMISSION
##RESOLUTION=4
##DATA PROCESSING=DIGITIZED BY NIST FROM HARD COPY
##XUNITS=MICROMETERS
##YUNITS=TRANSMITTANCE
##XFACTOR=1.000000
##YFACTOR=1
##DELTAX=000.006677
##FIRSTX=2.052
##LASTX=15.893
##FIRSTY=0.713
##MAXX=15.893
##MINX=2.052
##MAXY=0.946
##MINY=0.07
##NPOINTS=2074
##XYDATA=(X++(Y..Y))
2.052000 0.7130 0.7140 0.7140 0.7140 0.7140
2.085401 0.7140 0.7140 0.7140 0.7140 0.7140
2.119000 0.7140 0.7140 0.7160 0.7160 0.7160
2.152401 0.7180 0.7180 0.7180 0.7190 0.7190
2.185000 0.7210 0.7210 0.7210 0.7210 0.7230
2.218401 0.7230 0.7240 0.7260 0.7280 0.7290
2.252000 0.7310 0.7310 0.7310 0.7310 0.7290
2.285401 0.7260 0.7240 0.7230 0.7210 0.7190
2.319000 0.7180 0.7180 0.7180 0.7190 0.7210
2.352401 0.7210 0.7230 0.7240 0.7240 0.7260
2.386000 0.7280 0.7280 0.7290 0.7310 0.7310
2.419401 0.7330 0.7330 0.7340 0.7340 0.7360
2.452000 0.7380 0.7390 0.7410 0.7430 0.7430
2.485401 0.7460 0.7500 0.7500 0.7510 0.7530
2.519000 0.7530 0.7550 0.7550 0.7580 0.7580
2.552401 0.7600 0.7610 0.7630 0.7630 0.7650
2.586000 0.7660 0.7660 0.7660 0.7650 0.7650
2.619401 0.7650 0.7630 0.7630 0.7630 0.7630
2.653000 0.7630 0.7650 0.7650 0.7660 0.7750
2.686401 0.7760 0.7760 0.7760 0.7750 0.7730
2.720000 0.7710 0.7710 0.7730 0.7730 0.7750
2.753401 0.7760 0.7780 0.7780 0.7760 0.7760
2.786000 0.7750 0.7710 0.7660 0.7650 0.7610
2.819401 0.7600 0.7580 0.7580 0.7560 0.7560
2.853000 0.7560 0.7550 0.7530 0.7510 0.7500
2.886401 0.7480 0.7480 0.7480 0.7480 0.7500
2.920000 0.7510 0.7510 0.7530 0.7530 0.7550
2.953401 0.7560 0.7580 0.7580 0.7610 0.7630
2.987000 0.7630 0.7650 0.7660 0.7680 0.7710
3.020401 0.7730 0.7750 0.7760 0.7800 0.7850
3.053000 0.7860 0.7900 0.7900 0.7900 0.7910
3.086401 0.7910 0.7910 0.7910 0.7910 0.7910
3.120000 0.7910 0.7910 0.7900 0.7880 0.7880
3.153401 0.7860 0.7850 0.7830 0.7830 0.7830
3.187000 0.7830 0.7850 0.7860 0.7900 0.7900
3.220401 0.7900 0.7860 0.7800 0.7730 0.7650
3.254000 0.7530 0.7440 0.7260 0.6960 0.6510
3.287401 0.5980 0.5670 0.5670 0.5970 0.6090
3.320000 0.6090 0.6120 0.6170 0.6200 0.6320
3.353401 0.6420 0.6520 0.6720 0.6720 0.6670
3.387000 0.6220 0.5870 0.4940 0.3870 0.3280
3.420401 0.2880 0.2710 0.2550 0.1840 0.1350
3.454000 0.1050 0.0730 0.0700 0.0730 0.1570
3.487401 0.1920 0.2360 0.2830 0.3100 0.3330
3.521000 0.3330 0.3320 0.3270 0.3220 0.1820
3.554401 0.1820 0.2610 0.4020 0.5230 0.6020
3.588000 0.6540 0.6890 0.7230 0.7410 0.7550
3.621401 0.7630 0.7760 0.7960 0.8000 0.8020
3.654000 0.8030 0.8050 0.8070 0.8130 0.8150
3.687401 0.8170 0.8180 0.8200 0.8220 0.8220
3.721000 0.8230 0.8250 0.8270 0.8280 0.8300
3.754401 0.8300 0.8320 0.8320 0.8320 0.8320
3.788000 0.8320 0.8300 0.8300 0.8280 0.8270
3.821401 0.8270 0.8270 0.8280 0.8300 0.8320
3.855000 0.8330 0.8350 0.8370 0.8380 0.8400
3.888401 0.8430 0.8450 0.8480 0.8500 0.8500
3.921000 0.8520 0.8540 0.8550 0.8570 0.8590
3.954401 0.8600 0.8620 0.8640 0.8640 0.8650
3.988000 0.8650 0.8670 0.8670 0.8690 0.8690
4.021401 0.8690 0.8700 0.8700 0.8720 0.8720
4.055000 0.8720 0.8740 0.8740 0.8750 0.8750
4.088401 0.8750 0.8770 0.8790 0.8790 0.8790
4.122000 0.8800 0.8800 0.8820 0.8820 0.8820
4.155401 0.8840 0.8840 0.8840 0.8850 0.8850
4.188000 0.8850 0.8870 0.8870 0.8870 0.8850
4.221401 0.8850 0.8850 0.8850 0.8840 0.8840
4.255000 0.8820 0.8820 0.8800 0.8800 0.8790
4.288401 0.8790 0.8770 0.8770 0.8750 0.8750
4.322000 0.8740 0.8740 0.8740 0.8720 0.8720
4.355401 0.8720 0.8720 0.8740 0.8740 0.8740
4.389000 0.8750 0.8750 0.8770 0.8790 0.8790
4.422401 0.8800 0.8820 0.8820 0.8840 0.8850
4.456000 0.8850 0.8870 0.8870 0.8870 0.8890
4.489401 0.8890 0.8900 0.8900 0.8900 0.8900
4.522000 0.8920 0.8920 0.8920 0.8920 0.8920
4.555401 0.8940 0.8950 0.8950 0.8950 0.8970
4.589000 0.8970 0.8970 0.8990 0.8990 0.8990
4.622401 0.9010 0.9010 0.9010 0.9010 0.9010
4.656000 0.9010 0.9010 0.9010 0.9010 0.9010
4.689401 0.9010 0.9010 0.9010 0.9010 0.9010
4.723000 0.9010 0.9010 0.9010 0.9010 0.9010
4.756401 0.9010 0.9010 0.9010 0.9010 0.9010
4.789000 0.9010 0.9010 0.9010 0.9010 0.9010
4.822401 0.9010 0.9010 0.9010 0.9010 0.9010
4.856000 0.9010 0.9010 0.8990 0.8990 0.8990
4.889401 0.8990 0.8990 0.8970 0.8970 0.8970
4.923000 0.8970 0.8950 0.8950 0.8950 0.8950
4.956401 0.8950 0.8950 0.8970 0.8970 0.8990
4.990000 0.8990 0.9010 0.9010 0.9040 0.9040
5.023401 0.9060 0.9060 0.9070 0.9070 0.9070
5.056000 0.9070 0.9070 0.9060 0.9060 0.9040
5.089401 0.9040 0.9020 0.9020 0.9010 0.8990
5.123000 0.8970 0.8940 0.8920 0.8890 0.8850
5.156401 0.8770 0.8670 0.8540 0.8380 0.8370
5.190000 0.8380 0.8540 0.8640 0.8770 0.8790
5.223401 0.8770 0.8750 0.8640 0.8590 0.8470
5.257000 0.8400 0.8350 0.8350 0.8450 0.8590
5.290401 0.8720 0.8790 0.8870 0.8890 0.8870
5.324000 0.8770 0.8640 0.8620 0.8750 0.8850
5.357401 0.8900 0.8950 0.8990 0.9060 0.9070
5.390000 0.9090 0.9070 0.9070 0.9040 0.9040
5.423401 0.9020 0.9020 0.9010 0.8990 0.8970
5.457000 0.8950 0.8940 0.8940 0.8920 0.8900
5.490401 0.8890 0.8870 0.8870 0.8870 0.8870
5.524000 0.8870 0.8870 0.8870 0.8870 0.8870
5.557401 0.8870 0.8870 0.8850 0.8850 0.8850
5.591000 0.8850 0.8850 0.8850 0.8850 0.8850
5.624401 0.8850 0.8850 0.8840 0.8840 0.8840
5.657000 0.8840 0.8840 0.8840 0.8840 0.8840
5.690401 0.8840 0.8840 0.8840 0.8840 0.8820
5.724000 0.8820 0.8820 0.8820 0.8820 0.8820
5.757401 0.8820 0.8820 0.8820 0.8820 0.8820
5.791000 0.8800 0.8800 0.8800 0.8790 0.8790
5.824401 0.8770 0.8770 0.8750 0.8750 0.8740
5.858000 0.8740 0.8720 0.8720 0.8700 0.8700
5.891401 0.8690 0.8670 0.8670 0.8650 0.8640
5.924000 0.8620 0.8570 0.8570 0.8550 0.8550
5.957401 0.8570 0.8570 0.8570 0.8590 0.8590
5.991000 0.8600 0.8620 0.8640 0.8640 0.8650
6.024401 0.8670 0.8670 0.8670 0.8690 0.8690
6.058000 0.8700 0.8700 0.8720 0.8720 0.8700
6.091401 0.8690 0.8650 0.8640 0.8570 0.8500
6.125000 0.8480 0.8450 0.8420 0.8380 0.8350
6.158401 0.8180 0.7700 0.7330 0.7210 0.7040
6.192000 0.6960 0.6960 0.7010 0.7330 0.7380
6.225401 0.7550 0.7560 0.7550 0.7530 0.7330
6.258000 0.7130 0.7040 0.6960 0.6920 0.6960
6.291401 0.7080 0.7310 0.7560 0.7780 0.7950
6.325000 0.8100 0.8230 0.8330 0.8420 0.8470
6.358401 0.8520 0.8550 0.8570 0.8570 0.8590
6.392000 0.8600 0.8620 0.8640 0.8650 0.8700
6.425401 0.8740 0.8790 0.8840 0.8840 0.8850
6.459000 0.8890 0.8920 0.8920 0.8900 0.8900
6.492401 0.8900 0.8900 0.8920 0.8920 0.8900
6.525000 0.8890 0.8850 0.8790 0.8600 0.8540
6.558401 0.8450 0.8400 0.8330 0.8320 0.8330
6.592000 0.8350 0.8380 0.8420 0.8420 0.8470
6.625401 0.8480 0.8480 0.8500 0.8520 0.8570
6.659000 0.8600 0.8650 0.8650 0.8550 0.8370
6.692401 0.8030 0.7910 0.7860 0.7210 0.7010
6.726000 0.6820 0.5670 0.5670 0.5830 0.6420
6.759401 0.6940 0.7380 0.7660 0.7780 0.7830
6.793000 0.7950 0.7950 0.7910 0.7850 0.7240
6.826401 0.6690 0.5180 0.3670 0.2650 0.2180
6.859000 0.2180 0.2930 0.4540 0.5550 0.5930
6.892401 0.6370 0.6390 0.5930 0.5570 0.5430
6.926000 0.5050 0.5030 0.5060 0.5260 0.5550
6.959401 0.5800 0.6020 0.6290 0.6760 0.6770
6.993000 0.6640 0.6220 0.6040 0.5800 0.5230
7.026401 0.5010 0.5010 0.5550 0.5650 0.5750
7.060000 0.6040 0.6440 0.6720 0.7080 0.7330
7.093401 0.7530 0.7610 0.7780 0.7950 0.8170
7.126000 0.8330 0.8370 0.8420 0.8470 0.8470
7.159401 0.8430 0.8300 0.8270 0.8250 0.8200
7.193000 0.8180 0.8150 0.8150 0.8200 0.8350
7.226401 0.8430 0.8450 0.8500 0.8420 0.8350
7.260000 0.8320 0.8270 0.8270 0.8230 0.8220
7.293401 0.8180 0.8080 0.7960 0.7950 0.7860
7.327000 0.7830 0.7850 0.8000 0.8100 0.8230
7.360401 0.8330 0.8420 0.8480 0.8540 0.8570
7.393000 0.8600 0.8640 0.8670 0.8690 0.8670
7.426401 0.8590 0.8520 0.8520 0.8450 0.8450
7.460000 0.8540 0.8590 0.8650 0.8740 0.8840
7.493401 0.8870 0.8870 0.8770 0.8620 0.8590
7.527000 0.8550 0.8570 0.8600 0.8640 0.8690
7.560401 0.8750 0.8820 0.8850 0.8890 0.8900
7.594000 0.8940 0.8950 0.8950 0.8970 0.8940
7.627401 0.8870 0.8790 0.8690 0.8600 0.8500
7.661000 0.8250 0.8180 0.8050 0.7900 0.7530
7.694401 0.7430 0.7430 0.7730 0.8020 0.8100
7.727000 0.8380 0.8430 0.8540 0.8570 0.8620
7.760401 0.8650 0.8670 0.8690 0.8700 0.8720
7.794000 0.8720 0.8750 0.8770 0.8770 0.8770
7.827401 0.8790 0.8790 0.8790 0.8770 0.8750
7.861000 0.8750 0.8740 0.8700 0.8690 0.8720
7.894401 0.8790 0.8800 0.8850 0.8870 0.8890
7.928000 0.8890 0.8890 0.8890 0.8870 0.8840
7.961401 0.8740 0.8700 0.8590 0.8520 0.8300
7.994000 0.8050 0.7980 0.7880 0.7830 0.7610
8.027401 0.7360 0.7280 0.7010 0.6940 0.6940
8.061000 0.7010 0.7360 0.7610 0.7950 0.8180
8.094401 0.8400 0.8430 0.8480 0.8650 0.8690
8.128000 0.8720 0.8740 0.8740 0.8720 0.8700
8.161401 0.8670 0.8590 0.8550 0.8520 0.8480
8.195000 0.8470 0.8450 0.8430 0.8450 0.8470
8.228401 0.8520 0.8540 0.8550 0.8540 0.8430
8.261000 0.8350 0.8270 0.8070 0.7880 0.7830
8.294401 0.7780 0.7730 0.7760 0.8230 0.8380
8.328000 0.8480 0.8520 0.8570 0.8590 0.8720
8.361401 0.8800 0.8800 0.8750 0.8670 0.8570
8.395000 0.8540 0.8520 0.8540 0.8590 0.8670
8.428401 0.8700 0.8720 0.8750 0.8790 0.8820
8.462000 0.8850 0.8890 0.8900 0.8920 0.8920
8.495401 0.8920 0.8900 0.8850 0.8800 0.8750
8.529000 0.8700 0.8640 0.8600 0.8590 0.8550
8.562401 0.8450 0.8320 0.8300 0.8330 0.8480
8.595000 0.8540 0.8570 0.8600 0.8740 0.8790
8.628401 0.8790 0.8770 0.8740 0.8520 0.8430
8.662000 0.8330 0.8220 0.8120 0.8000 0.7980
8.695401 0.7980 0.7960 0.7950 0.7860 0.7680
8.729000 0.7430 0.7360 0.7340 0.7390 0.7630
8.762401 0.7900 0.8070 0.8330 0.8540 0.8670
8.796000 0.8820 0.8890 0.8920 0.8940 0.8950
8.829401 0.8950 0.8970 0.8970 0.8970 0.8970
8.862000 0.8970 0.8950 0.8920 0.8890 0.8870
8.895401 0.8820 0.8700 0.8690 0.8720 0.8750
8.929000 0.8800 0.8840 0.8890 0.8920 0.8920
8.962401 0.8920 0.8940 0.8940 0.8940 0.8920
8.996000 0.8920 0.8900 0.8870 0.8840 0.8820
9.029401 0.8790 0.8770 0.8750 0.8740 0.8720
9.063000 0.8720 0.8740 0.8750 0.8770 0.8820
9.096401 0.8850 0.8950 0.8990 0.8990 0.9010
9.129000 0.9020 0.9040 0.9060 0.9070 0.9070
9.162401 0.9090 0.9090 0.9090 0.9090 0.9090
9.196000 0.9090 0.9090 0.9070 0.9070 0.9060
9.229401 0.9060 0.9060 0.9040 0.9040 0.9020
9.263000 0.9020 0.9020 0.9010 0.9010 0.8990
9.296401 0.8990 0.9010 0.9040 0.9060 0.9070
9.330000 0.9090 0.9090 0.9090 0.9070 0.9060
9.363401 0.9060 0.9040 0.9020 0.9010 0.8970
9.397000 0.8950 0.8940 0.8920 0.8900 0.8890
9.430401 0.8890 0.8900 0.8920 0.8920 0.8940
9.463000 0.8950 0.8970 0.8970 0.9020 0.9020
9.496401 0.9010 0.8990 0.8970 0.8850 0.8800
9.530000 0.8590 0.8500 0.8420 0.8280 0.8170
9.563401 0.8100 0.8050 0.8050 0.8120 0.8220
9.597000 0.8280 0.8370 0.8370 0.8320 0.8200
9.630401 0.8200 0.8250 0.8350 0.8450 0.8550
9.664000 0.8620 0.8650 0.8690 0.8720 0.8740
9.697401 0.8750 0.8770 0.8800 0.8820 0.8840
9.730000 0.8870 0.8900 0.8920 0.8920 0.8920
9.763401 0.8940 0.8950 0.8990 0.8990 0.8990
9.797000 0.9010 0.9010 0.9010 0.9020 0.9020
9.830401 0.9020 0.9020 0.9020 0.9020 0.9010
9.864000 0.8990 0.8990 0.8990 0.9010 0.9040
9.897401 0.9070 0.9110 0.9140 0.9190 0.9190
9.931000 0.9140 0.9070 0.9010 0.8900 0.8870
9.964401 0.8740 0.8500 0.8270 0.8030 0.7880
9.997000 0.7860 0.7880 0.8200 0.8470 0.8540
10.030401 0.8640 0.8670 0.8770 0.8790 0.8840
10.064000 0.8850 0.8870 0.8890 0.8900 0.8920
10.097401 0.8940 0.8940 0.8970 0.8990 0.8990
10.131000 0.8990 0.8970 0.8970 0.8950 0.8940
10.164401 0.8920 0.8920 0.8920 0.8890 0.8870
10.198000 0.8850 0.8750 0.8740 0.8750 0.8770
10.231401 0.8840 0.8870 0.8870 0.8850 0.8800
10.265000 0.8740 0.8650 0.8620 0.8590 0.8550
10.298401 0.8520 0.8450 0.8230 0.8100 0.8000
10.331000 0.7830 0.7730 0.7710 0.7730 0.7810
10.364401 0.8000 0.8120 0.8180 0.8220 0.8230
10.398000 0.8280 0.8230 0.8170 0.8120 0.8030
10.431401 0.8020 0.8000 0.8020 0.8100 0.8300
10.465000 0.8470 0.8520 0.8550 0.8640 0.8690
10.498401 0.8700 0.8720 0.8700 0.8500 0.8350
10.532000 0.8100 0.7950 0.7760 0.7730 0.7700
10.565401 0.7680 0.7660 0.7650 0.7600 0.7460
10.598000 0.7440 0.7480 0.7760 0.8020 0.8180
10.631401 0.8350 0.8540 0.8670 0.8800 0.8950
10.665000 0.9210 0.9220 0.9220 0.9220 0.9240
10.698401 0.9240 0.9260 0.9270 0.9290 0.9310
10.732000 0.9310 0.9340 0.9340 0.9320 0.9320
10.765401 0.9320 0.9310 0.9290 0.9290 0.9310
10.799000 0.9340 0.9360 0.9360 0.9340 0.9340
10.832401 0.9320 0.9310 0.9310 0.9270 0.9290
10.865000 0.9310 0.9320 0.9340 0.9340 0.9340
10.898401 0.9320 0.9320 0.9310 0.9290 0.9260
10.932000 0.9240 0.9220 0.9240 0.9260 0.9260
10.965401 0.9260 0.9240 0.9220 0.9210 0.9170
10.999000 0.9140 0.9090 0.9060 0.9060 0.9040
11.032401 0.9040 0.9020 0.9020 0.9010 0.8940
11.066000 0.8870 0.8840 0.8690 0.8640 0.8620
11.099401 0.8600 0.8550 0.8420 0.8350 0.8250
11.133000 0.8070 0.7980 0.7860 0.7580 0.7360
11.166401 0.7210 0.7010 0.6940 0.6920 0.6940
11.199000 0.7090 0.7430 0.7600 0.7830 0.8000
11.232401 0.8030 0.8050 0.8080 0.8170 0.8230
11.266000 0.8320 0.8350 0.8420 0.8450 0.8480
11.299401 0.8500 0.8540 0.8550 0.8550 0.8540
11.333000 0.8520 0.8520 0.8500 0.8470 0.8450
11.366401 0.8230 0.8070 0.8000 0.7650 0.7280
11.400000 0.6890 0.6290 0.6020 0.5750 0.5630
11.433401 0.5630 0.5830 0.6590 0.6990 0.7600
11.466000 0.7910 0.8280 0.8520 0.8600 0.8690
11.499401 0.8820 0.8870 0.8890 0.8890 0.8870
11.533000 0.8840 0.8790 0.8750 0.8700 0.8600
11.566401 0.8540 0.8520 0.8500 0.8520 0.8540
11.600000 0.8570 0.8620 0.8740 0.8850 0.8870
11.633401 0.8890 0.8890 0.8820 0.8570 0.8370
11.667000 0.8020 0.7630 0.7480 0.7290 0.7110
11.700401 0.7080 0.7110 0.7280 0.7440 0.7580
11.733000 0.7680 0.7800 0.7960 0.8070 0.8150
11.766401 0.8220 0.8300 0.8420 0.8480 0.8590
11.800000 0.8700 0.8790 0.8840 0.8890 0.8920
11.833401 0.8950 0.8990 0.9040 0.9060 0.9070
11.867000 0.9110 0.9120 0.9140 0.9140 0.9160
11.900401 0.9160 0.9160 0.9140 0.9140 0.9110
11.934000 0.9090 0.9040 0.9020 0.9010 0.8990
11.967401 0.8970 0.8950 0.8940 0.8920 0.8820
12.001000 0.8570 0.8370 0.8270 0.8180 0.8100
12.034401 0.8070 0.8080 0.8130 0.8220 0.8300
12.067000 0.8450 0.8620 0.8740 0.8790 0.8870
12.100401 0.8900 0.8970 0.9040 0.9070 0.9090
12.134000 0.9120 0.9140 0.9170 0.9210 0.9220
12.167401 0.9240 0.9240 0.9260 0.9260 0.9260
12.201000 0.9240 0.9220 0.9220 0.9210 0.9190
12.234401 0.9170 0.9170 0.9160 0.9160 0.9120
12.268000 0.9120 0.9090 0.9070 0.9070 0.9060
12.301401 0.9040 0.9020 0.9020 0.9010 0.8990
12.334000 0.8990 0.9020 0.9040 0.9060 0.9070
12.367401 0.9070 0.9070 0.9060 0.9060 0.9060
12.401000 0.9040 0.9020 0.9010 0.8990 0.8970
12.434401 0.8970 0.8990 0.8990 0.9010 0.9040
12.468000 0.9060 0.9060 0.9040 0.9020 0.9010
12.501401 0.8990 0.8950 0.8920 0.8890 0.8840
12.535000 0.8800 0.8750 0.8720 0.8670 0.8640
12.568401 0.8550 0.8450 0.8320 0.8220 0.8120
12.601000 0.7730 0.7630 0.7550 0.7410 0.7330
12.634401 0.7290 0.7310 0.7440 0.7630 0.7780
12.668000 0.7910 0.8080 0.8220 0.8320 0.8400
12.701401 0.8430 0.8480 0.8500 0.8500 0.8500
12.735000 0.8520 0.8540 0.8590 0.8620 0.8670
12.768401 0.8700 0.8750 0.8790 0.8820 0.8840
12.802000 0.8800 0.8750 0.8740 0.8700 0.8650
12.835401 0.8600 0.8570 0.8540 0.8520 0.8520
12.869000 0.8540 0.8550 0.8570 0.8590 0.8590
12.902401 0.8600 0.8600 0.8600 0.8590 0.8590
12.935000 0.8570 0.8540 0.8500 0.8480 0.8470
12.968401 0.8430 0.8400 0.8350 0.8270 0.8170
13.002000 0.8000 0.7750 0.7410 0.7130 0.6920
13.035401 0.6760 0.6640 0.6620 0.6620 0.6660
13.069000 0.6820 0.6970 0.7130 0.7360 0.7530
13.102401 0.7760 0.7800 0.7800 0.7780 0.7760
13.136000 0.7700 0.7600 0.7550 0.7500 0.7440
13.169401 0.7430 0.7440 0.7510 0.7580 0.7700
13.202000 0.7760 0.7800 0.7800 0.7760 0.7710
13.235401 0.7630 0.7480 0.7340 0.7240 0.7030
13.269000 0.6770 0.6560 0.6370 0.6170 0.5920
13.302401 0.5570 0.5460 0.5110 0.4980 0.4640
13.336000 0.4470 0.4120 0.4010 0.3740 0.3450
13.369401 0.3120 0.3030 0.3000 0.2850 0.2510
13.403000 0.2440 0.2380 0.2340 0.2330 0.2310
13.436401 0.2310 0.2330 0.2340 0.2380 0.2410
13.469000 0.2440 0.2480 0.2500 0.2510 0.2510
13.502401 0.2510 0.2500 0.2440 0.2430 0.2390
13.536000 0.2360 0.2340 0.2340 0.2340 0.2330
13.569401 0.2330 0.2290 0.2230 0.2130 0.2030
13.603000 0.1910 0.1810 0.1720 0.1640 0.1610
13.636401 0.1590 0.1610 0.1660 0.1790 0.1920
13.670000 0.2080 0.2210 0.2340 0.2430 0.2630
13.703401 0.2800 0.2960 0.3130 0.3330 0.3550
13.737000 0.3670 0.3940 0.4040 0.4220 0.4360
13.770401 0.4440 0.4470 0.4460 0.4370 0.4310
13.803000 0.4210 0.4090 0.3900 0.3480 0.3180
13.836401 0.3020 0.2860 0.2460 0.2160 0.1970
13.870000 0.1760 0.1670 0.1570 0.1560 0.1470
13.903401 0.1420 0.1400 0.1420 0.1890 0.2160
13.937000 0.2560 0.3000 0.3470 0.3900 0.4370
13.970401 0.4590 0.4780 0.5260 0.5630 0.5780
14.004000 0.5950 0.6150 0.6340 0.6440 0.6560
14.037401 0.6690 0.6970 0.7060 0.7190 0.7380
14.070000 0.7560 0.7760 0.7930 0.8020 0.8080
14.103401 0.8180 0.8320 0.8400 0.8420 0.8450
14.137000 0.8470 0.8500 0.8520 0.8540 0.8570
14.170401 0.8570 0.8590 0.8620 0.8650 0.8690
14.204000 0.8750 0.8820 0.8850 0.8890 0.8920
14.237401 0.8940 0.8940 0.8940 0.8950 0.8950
14.271000 0.8950 0.8950 0.8950 0.8950 0.8950
14.304401 0.8950 0.8970 0.8990 0.8990 0.9010
14.337000 0.9040 0.9060 0.9070 0.9090 0.9090
14.370401 0.9070 0.9070 0.9060 0.9060 0.9040
14.404000 0.9040 0.9020 0.9020 0.9020 0.9040
14.437401 0.9040 0.9060 0.9060 0.9070 0.9090
14.471000 0.9110 0.9120 0.9140 0.9160 0.9160
14.504401 0.9160 0.9140 0.9120 0.9110 0.9090
14.538000 0.9090 0.9090 0.9070 0.9070 0.9060
14.571401 0.9060 0.9060 0.9060 0.9060 0.9060
14.605000 0.9070 0.9070 0.9090 0.9090 0.9110
14.638401 0.9110 0.9120 0.9120 0.9120 0.9110
14.671000 0.9090 0.9090 0.9070 0.9060 0.9020
14.704401 0.9020 0.9010 0.9010 0.9010 0.9020
14.738000 0.9040 0.9060 0.9070 0.9090 0.9110
14.771401 0.9120 0.9120 0.9140 0.9140 0.9140
14.805000 0.9140 0.9160 0.9160 0.9160 0.9160
14.838401 0.9160 0.9160 0.9160 0.9160 0.9160
14.872000 0.9140 0.9140 0.9120 0.9120 0.9140
14.905401 0.9140 0.9160 0.9170 0.9190 0.9190
14.938000 0.9190 0.9210 0.9210 0.9210 0.9210
14.971401 0.9210 0.9190 0.9140 0.9120 0.9090
15.005000 0.9070 0.9060 0.9040 0.9040 0.9020
15.038401 0.9020 0.9020 0.9010 0.8990 0.8970
15.072000 0.8950 0.8900 0.8850 0.8800 0.8750
15.105401 0.8720 0.8650 0.8570 0.8520 0.8470
15.139000 0.8370 0.8300 0.8250 0.8220 0.8220
15.172401 0.8200 0.8180 0.8150 0.8130 0.8120
15.205000 0.8130 0.8180 0.8230 0.8320 0.8380
15.238401 0.8450 0.8480 0.8520 0.8550 0.8650
15.272000 0.8740 0.8750 0.8770 0.8790 0.8840
15.305401 0.8890 0.8920 0.8950 0.8970 0.8990
15.339000 0.9040 0.9060 0.9060 0.9070 0.9070
15.372401 0.9090 0.9110 0.9110 0.9120 0.9120
15.406000 0.9120 0.9120 0.9120 0.9120 0.9120
15.439401 0.9120 0.9120 0.9120 0.9110 0.9110
15.473000 0.9110 0.9090 0.9090 0.9090 0.9070
15.506401 0.9070 0.9070 0.9060 0.9060 0.9060
15.539000 0.9060 0.9060 0.9060 0.9060 0.9060
15.572401 0.9060 0.9060 0.9060 0.9070 0.9070
15.606000 0.9070 0.9090 0.9090 0.9090 0.9090
15.639401 0.9110 0.9110 0.9110 0.9110 0.9110
15.673000 0.9110 0.9110 0.9110 0.9110 0.9110
15.706401 0.9090 0.9090 0.9090 0.9090 0.9090
15.740000 0.9090 0.9090 0.9090 0.9090 0.9090
15.773401 0.9090 0.9090 0.9070 0.9070 0.9070
15.806000 0.9070 0.9060 0.9060 0.9060 0.9060
15.839401 0.9060 0.9060 0.9060 0.9060 0.9040
15.873000 0.9040 0.9040 0.9020 0.9460
##END=
