##TITLE=DL-TRANS-5,6-DI-TERT-BUTYL-2-HYDROXY-1,4-DIKETO-2-CYCLOHEXENE
##JCAMP-DX=4.24
##DATA TYPE=INFRARED SPECTRUM
##CLASS=COBLENTZ
##ORIGIN=TENNESSEE EASTMAN COMPANY, RESEARCH LABORATORIES
##OWNER=COBLENTZ SOCIETY
Collection (C) 2018 copyright by the U.S. Secretary of Commerce
on behalf of the United States of America. All rights reserved.
##DATE=Not specified, most likely prior to 1970
##NAMES=5,6-ditert-butyl-2-hydroxy-2-cyclohexene-1,4-dione
##CAS REGISTRY NO=3791-04-6
##MOLFORM=C14 H22 O3
##MP=134-135 C
##SOURCE REFERENCE=COBLENTZ NO. 2353
##$NIST SOURCE=COBLENTZ
##$NIST IMAGE=cob2353
##SPECTROMETER/DATA SYSTEM=Not specified, most likely a prism, grating, or hybrid spectrometer.
##STATE=SOLID (KBr PELLET)
##SAMPLING PROCEDURE=TRANSMISSION
##RESOLUTION=4
##DATA PROCESSING=DIGITIZED BY NIST FROM HARD COPY
##XUNITS=MICROMETERS
##YUNITS=TRANSMITTANCE
##XFACTOR=1.000000
##YFACTOR=1
##DELTAX=000.006635
##FIRSTX=2.013
##LASTX=15.9868
##FIRSTY=0.915
##MAXX=15.9868
##MINX=2.013
##MAXY=0.943
##MINY=0.029
##NPOINTS=2107
##XYDATA=(X++(Y..Y))
2.013000 0.9150 0.9130 0.9130 0.9130 0.9130
2.046191 0.9110 0.9110 0.9110 0.9110 0.9110
2.080000 0.9110 0.9110 0.9110 0.9110 0.9110
2.113191 0.9110 0.9110 0.9110 0.9110 0.9100
2.146000 0.9100 0.9100 0.9100 0.9100 0.9100
2.179191 0.9100 0.9100 0.9080 0.9080 0.9060
2.212000 0.9050 0.9030 0.9010 0.8980 0.8950
2.245191 0.8950 0.8930 0.8930 0.8920 0.8900
2.279000 0.8900 0.8900 0.8900 0.8900 0.8900
2.312191 0.8900 0.8900 0.8900 0.8900 0.8900
2.345000 0.8900 0.8900 0.8900 0.8900 0.8900
2.378191 0.8900 0.8920 0.8920 0.8920 0.8920
2.411000 0.8920 0.8920 0.8920 0.8930 0.8930
2.444191 0.8930 0.8930 0.8930 0.8950 0.8950
2.478000 0.8950 0.8970 0.8970 0.8970 0.8980
2.511191 0.8980 0.8980 0.8980 0.8980 0.8980
2.544000 0.8980 0.8980 0.8970 0.8970 0.8970
2.577191 0.8970 0.8970 0.8970 0.8970 0.8970
2.610000 0.8970 0.8970 0.8980 0.8980 0.8980
2.643191 0.9000 0.9000 0.9000 0.9000 0.9000
2.677000 0.9000 0.8980 0.8980 0.8980 0.8970
2.710191 0.8950 0.8930 0.8900 0.8850 0.8770
2.743000 0.8700 0.8580 0.8520 0.8470 0.8400
2.776191 0.8330 0.8300 0.8230 0.8200 0.8170
2.809000 0.8130 0.8100 0.8050 0.8020 0.7990
2.842191 0.7970 0.7900 0.7840 0.7790 0.7720
2.876000 0.7670 0.7620 0.7590 0.7520 0.7420
2.909191 0.7320 0.7240 0.7190 0.7140 0.7050
2.942000 0.6970 0.6870 0.6770 0.6710 0.6620
2.975191 0.6560 0.6470 0.6410 0.6320 0.6210
3.009000 0.6090 0.5990 0.5960 0.5830 0.5680
3.042191 0.5530 0.5360 0.5190 0.5000 0.4800
3.075000 0.4660 0.4510 0.4410 0.4330 0.4250
3.108191 0.4130 0.4010 0.3930 0.3830 0.3780
3.141000 0.3720 0.3650 0.3620 0.3600 0.3570
3.174191 0.3550 0.3530 0.3530 0.3520 0.3520
3.208000 0.3520 0.3530 0.3570 0.3620 0.3680
3.241191 0.3770 0.3850 0.3930 0.4010 0.4050
3.274000 0.4150 0.4230 0.4310 0.4350 0.4350
3.307191 0.4350 0.4330 0.4060 0.3620 0.3020
3.340000 0.2190 0.1610 0.1560 0.1590 0.2020
3.373191 0.2520 0.2970 0.3270 0.3620 0.3980
3.407000 0.4110 0.4250 0.4330 0.4480 0.4560
3.440191 0.4660 0.4800 0.5000 0.5310 0.5780
3.473000 0.6110 0.6460 0.6690 0.6860 0.6970
3.506191 0.7070 0.7140 0.7200 0.7240 0.7290
3.539000 0.7320 0.7390 0.7420 0.7470 0.7520
3.572191 0.7590 0.7650 0.7700 0.7750 0.7790
3.606000 0.7820 0.7840 0.7890 0.7900 0.7920
3.639191 0.7950 0.8000 0.8000 0.8020 0.8050
3.672000 0.8100 0.8130 0.8170 0.8170 0.8180
3.705191 0.8200 0.8220 0.8250 0.8300 0.8300
3.738000 0.8320 0.8320 0.8320 0.8330 0.8330
3.771191 0.8330 0.8350 0.8350 0.8370 0.8370
3.805000 0.8370 0.8370 0.8380 0.8380 0.8400
3.838191 0.8420 0.8430 0.8450 0.8470 0.8500
3.871000 0.8520 0.8530 0.8550 0.8580 0.8600
3.904191 0.8600 0.8620 0.8620 0.8630 0.8630
3.937000 0.8650 0.8670 0.8670 0.8680 0.8700
3.970191 0.8720 0.8720 0.8750 0.8770 0.8780
4.004000 0.8800 0.8820 0.8830 0.8830 0.8830
4.037191 0.8830 0.8830 0.8830 0.8850 0.8850
4.070000 0.8850 0.8850 0.8850 0.8850 0.8850
4.103191 0.8850 0.8850 0.8850 0.8850 0.8850
4.136000 0.8850 0.8870 0.8880 0.8880 0.8880
4.169191 0.8900 0.8920 0.8930 0.8950 0.9000
4.203000 0.9050 0.9060 0.9060 0.9060 0.9050
4.236191 0.9050 0.9050 0.9050 0.9050 0.9060
4.269000 0.9060 0.9060 0.9080 0.9080 0.9080
4.302191 0.9080 0.9080 0.9080 0.9080 0.9100
4.336000 0.9080 0.9100 0.9100 0.9130 0.9160
4.369191 0.9180 0.9180 0.9200 0.9210 0.9230
4.402000 0.9230 0.9250 0.9250 0.9260 0.9260
4.435191 0.9260 0.9280 0.9280 0.9280 0.9280
4.468000 0.9280 0.9280 0.9280 0.9280 0.9280
4.501191 0.9280 0.9280 0.9280 0.9280 0.9280
4.535000 0.9280 0.9280 0.9280 0.9280 0.9300
4.568191 0.9300 0.9300 0.9300 0.9300 0.9300
4.601000 0.9300 0.9300 0.9310 0.9310 0.9310
4.634191 0.9310 0.9310 0.9310 0.9310 0.9310
4.667000 0.9310 0.9310 0.9310 0.9310 0.9310
4.700191 0.9310 0.9310 0.9310 0.9310 0.9330
4.734000 0.9330 0.9330 0.9330 0.9330 0.9350
4.767191 0.9350 0.9350 0.9350 0.9350 0.9350
4.800000 0.9350 0.9350 0.9360 0.9360 0.9350
4.833191 0.9350 0.9350 0.9350 0.9350 0.9350
4.866000 0.9350 0.9350 0.9350 0.9350 0.9350
4.899191 0.9350 0.9350 0.9350 0.9350 0.9350
4.933000 0.9350 0.9350 0.9360 0.9360 0.9360
4.966191 0.9380 0.9400 0.9410 0.9430 0.9430
4.999000 0.9430 0.9430 0.9430 0.9430 0.9430
5.032191 0.9430 0.9410 0.9410 0.9410 0.9410
5.065000 0.9410 0.9400 0.9400 0.9400 0.9400
5.098191 0.9400 0.9400 0.9400 0.9400 0.9400
5.132000 0.9400 0.9410 0.9410 0.9410 0.9410
5.165191 0.9430 0.9430 0.9430 0.9430 0.9430
5.198000 0.9430 0.9410 0.9410 0.9410 0.9410
5.231191 0.9410 0.9410 0.9410 0.9410 0.9410
5.264000 0.9410 0.9410 0.9410 0.9410 0.9410
5.297191 0.9410 0.9410 0.9410 0.9410 0.9410
5.331000 0.9400 0.9400 0.9400 0.9380 0.9380
5.364191 0.9380 0.9380 0.9360 0.9360 0.9350
5.397000 0.9350 0.9350 0.9350 0.9350 0.9350
5.430191 0.9350 0.9350 0.9350 0.9350 0.9350
5.464000 0.9350 0.9350 0.9350 0.9350 0.9350
5.497191 0.9350 0.9350 0.9330 0.9330 0.9330
5.530000 0.9330 0.9330 0.9310 0.9300 0.9280
5.563191 0.9260 0.9250 0.9230 0.9230 0.9230
5.596000 0.9230 0.9230 0.9210 0.9180 0.9180
5.629191 0.9160 0.9150 0.9130 0.9100 0.9100
5.663000 0.9080 0.9080 0.9050 0.9030 0.9010
5.696191 0.9000 0.8950 0.8900 0.8850 0.8820
5.729000 0.8800 0.8800 0.8730 0.8700 0.8620
5.762191 0.8530 0.8480 0.8420 0.8380 0.8330
5.795000 0.8270 0.8180 0.8050 0.7950 0.7870
5.828191 0.7800 0.7700 0.7570 0.7400 0.7140
5.862000 0.6790 0.6440 0.6020 0.5430 0.4730
5.895191 0.3630 0.2940 0.2440 0.2120 0.1940
5.928000 0.1940 0.1960 0.2300 0.2720 0.3250
5.961191 0.3600 0.3850 0.4030 0.4300 0.4400
5.994000 0.4400 0.4360 0.4080 0.3870 0.3620
6.027191 0.3270 0.2920 0.2400 0.1920 0.1390
6.061000 0.1040 0.0760 0.0580 0.0530 0.0490
6.094191 0.0410 0.0380 0.0380 0.0380 0.0390
6.127000 0.0490 0.0660 0.0890 0.1190 0.1520
6.160191 0.1890 0.2240 0.2600 0.2940 0.3250
6.193000 0.3730 0.4080 0.4480 0.4800 0.4980
6.226191 0.5230 0.5390 0.5590 0.5780 0.5960
6.260000 0.6120 0.6320 0.6470 0.6570 0.6670
6.293191 0.6770 0.6860 0.6920 0.7000 0.7090
6.326000 0.7170 0.7240 0.7300 0.7370 0.7420
6.359191 0.7450 0.7500 0.7520 0.7550 0.7620
6.392000 0.7670 0.7770 0.7840 0.7850 0.7870
6.425191 0.7900 0.7920 0.7920 0.7920 0.7920
6.459000 0.7940 0.7950 0.8000 0.8020 0.8030
6.492191 0.8030 0.8030 0.8050 0.8050 0.8050
6.525000 0.8050 0.8050 0.8050 0.8050 0.8070
6.558191 0.8070 0.8070 0.8080 0.8080 0.8100
6.591000 0.8100 0.8120 0.8120 0.8130 0.8130
6.624191 0.8150 0.8150 0.8130 0.8120 0.8100
6.658000 0.8050 0.7990 0.7900 0.7770 0.7600
6.691191 0.7340 0.6960 0.6520 0.6140 0.5760
6.724000 0.5440 0.5130 0.4900 0.4600 0.4330
6.757191 0.4130 0.4080 0.4100 0.4230 0.4480
6.791000 0.5040 0.5510 0.6070 0.6510 0.6640
6.824191 0.6860 0.7000 0.7150 0.7270 0.7350
6.857000 0.7390 0.7370 0.7370 0.7350 0.7340
6.890191 0.7320 0.7300 0.7270 0.7250 0.7250
6.923000 0.7270 0.7270 0.7290 0.7290 0.7300
6.956191 0.7300 0.7290 0.7250 0.7200 0.7140
6.990000 0.7050 0.6960 0.6840 0.6710 0.6640
7.023191 0.6520 0.6390 0.6220 0.6040 0.5810
7.056000 0.5530 0.5230 0.4830 0.4410 0.4050
7.089191 0.3580 0.3230 0.2950 0.2820 0.2740
7.122000 0.2700 0.2620 0.2520 0.2350 0.2170
7.155191 0.1920 0.1620 0.1510 0.1410 0.1320
7.189000 0.1270 0.1210 0.1120 0.1060 0.0980
7.222191 0.0880 0.0830 0.0740 0.0660 0.0560
7.255000 0.0480 0.0410 0.0340 0.0310 0.0290
7.288191 0.0290 0.0310 0.0380 0.0530 0.0960
7.321000 0.1410 0.1870 0.2350 0.2800 0.3220
7.354191 0.3600 0.3900 0.4110 0.4360 0.4610
7.388000 0.4760 0.5040 0.5290 0.5490 0.5680
7.421191 0.5810 0.5910 0.5940 0.5940 0.5930
7.454000 0.5930 0.5730 0.5710 0.5310 0.5180
7.487191 0.5130 0.5090 0.5080 0.5060 0.5030
7.520000 0.4980 0.4860 0.4750 0.4630 0.4610
7.553191 0.4630 0.4800 0.5090 0.5430 0.5730
7.587000 0.5830 0.6090 0.6360 0.6560 0.6770
7.620191 0.6940 0.7090 0.7190 0.7300 0.7400
7.653000 0.7450 0.7470 0.7500 0.7500 0.7470
7.686191 0.7450 0.7340 0.7120 0.6920 0.6690
7.719000 0.6510 0.6370 0.6340 0.6370 0.6590
7.752191 0.6820 0.7000 0.7240 0.7470 0.7750
7.786000 0.7840 0.7940 0.8050 0.8150 0.8230
7.819191 0.8250 0.8280 0.8300 0.8320 0.8320
7.852000 0.8330 0.8330 0.8320 0.8320 0.8320
7.885191 0.8300 0.8280 0.8220 0.8130 0.8050
7.918000 0.8000 0.7970 0.7890 0.7820 0.7750
7.951191 0.7720 0.7690 0.7650 0.7640 0.7620
7.985000 0.7570 0.7520 0.7440 0.7390 0.7300
8.018191 0.7170 0.7000 0.6820 0.6590 0.6340
8.051000 0.6070 0.5790 0.5490 0.5160 0.4830
8.084191 0.4480 0.4130 0.3770 0.3430 0.3130
8.118000 0.2920 0.2690 0.2520 0.2300 0.2170
8.151191 0.2050 0.2000 0.1970 0.1970 0.1990
8.184000 0.2000 0.2070 0.2190 0.2340 0.2420
8.217191 0.2490 0.2550 0.2620 0.2650 0.2700
8.250000 0.2720 0.2750 0.2790 0.2820 0.2850
8.283191 0.2870 0.2870 0.2850 0.2720 0.2620
8.317000 0.2500 0.2390 0.2270 0.2170 0.2070
8.350191 0.1960 0.1860 0.1770 0.1690 0.1610
8.383000 0.1520 0.1510 0.1460 0.1420 0.1390
8.416191 0.1340 0.1310 0.1260 0.1220 0.1210
8.449000 0.1190 0.1190 0.1170 0.1170 0.1190
8.482191 0.1190 0.1220 0.1270 0.1370 0.1490
8.516000 0.1590 0.1740 0.1890 0.2040 0.2170
8.549191 0.2320 0.2450 0.2590 0.2700 0.2840
8.582000 0.2950 0.3050 0.3150 0.3280 0.3400
8.615191 0.3500 0.3620 0.3700 0.3780 0.3870
8.648000 0.3950 0.4010 0.4050 0.4110 0.4130
8.681191 0.4150 0.4150 0.4130 0.4110 0.4050
8.715000 0.4000 0.3980 0.3980 0.4000 0.4110
8.748191 0.4300 0.4480 0.4700 0.4860 0.5040
8.781000 0.5240 0.5430 0.5610 0.5760 0.5890
8.814191 0.5990 0.6020 0.6160 0.6220 0.6310
8.847000 0.6360 0.6420 0.6510 0.6540 0.6610
8.880191 0.6640 0.6690 0.6740 0.6790 0.6820
8.914000 0.6860 0.6910 0.6940 0.7000 0.7020
8.947191 0.7050 0.7100 0.7140 0.7170 0.7200
8.980000 0.7240 0.7250 0.7290 0.7320 0.7350
9.013191 0.7400 0.7400 0.7440 0.7450 0.7470
9.046000 0.7500 0.7500 0.7520 0.7540 0.7540
9.079191 0.7590 0.7600 0.7640 0.7670 0.7690
9.113000 0.7700 0.7740 0.7770 0.7770 0.7790
9.146191 0.7790 0.7820 0.7840 0.7850 0.7850
9.179000 0.7850 0.7870 0.7870 0.7890 0.7890
9.212191 0.7900 0.7900 0.7900 0.7900 0.7900
9.245000 0.7900 0.7920 0.7920 0.7920 0.7920
9.278191 0.7920 0.7920 0.7920 0.7900 0.7900
9.312000 0.7890 0.7870 0.7840 0.7790 0.7720
9.345191 0.7650 0.7540 0.7400 0.7170 0.7020
9.378000 0.6790 0.6570 0.6340 0.6110 0.5930
9.411191 0.5740 0.5660 0.5640 0.5660 0.5790
9.445000 0.6040 0.6360 0.6660 0.6920 0.7150
9.478191 0.7350 0.7550 0.7700 0.7840 0.7920
9.511000 0.7970 0.8020 0.8080 0.8130 0.8180
9.544191 0.8220 0.8250 0.8270 0.8300 0.8320
9.577000 0.8330 0.8350 0.8370 0.8380 0.8400
9.610191 0.8400 0.8400 0.8400 0.8400 0.8400
9.644000 0.8380 0.8370 0.8330 0.8280 0.8220
9.677191 0.8170 0.8080 0.8020 0.8020 0.8000
9.710000 0.7990 0.7990 0.7990 0.7970 0.7970
9.743191 0.7970 0.7940 0.7900 0.7850 0.7770
9.776000 0.7750 0.7750 0.7750 0.7790 0.7840
9.809191 0.7840 0.7820 0.7820 0.7800 0.7790
9.843000 0.7740 0.7720 0.7700 0.7720 0.7750
9.876191 0.7840 0.7950 0.8050 0.8170 0.8270
9.909000 0.8350 0.8420 0.8500 0.8550 0.8600
9.942191 0.8650 0.8700 0.8730 0.8770 0.8800
9.975000 0.8830 0.8850 0.8880 0.8930 0.8930
10.008191 0.8950 0.8950 0.8970 0.8980 0.8980
10.042000 0.8980 0.8980 0.9000 0.9000 0.9000
10.075191 0.9000 0.9010 0.9010 0.9010 0.9030
10.108000 0.9030 0.9050 0.9050 0.9050 0.9060
10.141191 0.9080 0.9080 0.9080 0.9080 0.9080
10.174000 0.9080 0.9100 0.9100 0.9100 0.9100
10.207191 0.9110 0.9110 0.9110 0.9130 0.9130
10.241000 0.9130 0.9130 0.9130 0.9130 0.9150
10.274191 0.9150 0.9150 0.9150 0.9150 0.9160
10.307000 0.9160 0.9180 0.9180 0.9200 0.9200
10.340191 0.9200 0.9210 0.9210 0.9210 0.9210
10.373000 0.9230 0.9230 0.9230 0.9230 0.9230
10.406191 0.9230 0.9230 0.9230 0.9230 0.9230
10.440000 0.9230 0.9230 0.9230 0.9230 0.9210
10.473191 0.9210 0.9200 0.9200 0.9200 0.9200
10.506000 0.9160 0.9150 0.9130 0.9110 0.9100
10.539191 0.9080 0.9060 0.9050 0.9030 0.9010
10.573000 0.8970 0.8920 0.8900 0.8850 0.8800
10.606191 0.8770 0.8750 0.8750 0.8730 0.8730
10.639000 0.8750 0.8770 0.8800 0.8850 0.8900
10.672191 0.8920 0.8930 0.8930 0.8930 0.8930
10.705000 0.8930 0.8930 0.8930 0.8930 0.8920
10.738191 0.8920 0.8920 0.8900 0.8900 0.8900
10.772000 0.8880 0.8880 0.8880 0.8880 0.8870
10.805191 0.8850 0.8850 0.8830 0.8800 0.8730
10.838000 0.8680 0.8630 0.8600 0.8580 0.8580
10.871191 0.8600 0.8630 0.8670 0.8720 0.8750
10.904000 0.8800 0.8830 0.8870 0.8880 0.8900
10.937191 0.8900 0.8900 0.8900 0.8900 0.8900
10.971000 0.8880 0.8830 0.8730 0.8630 0.8520
11.004191 0.8430 0.8370 0.8220 0.8030 0.7890
11.037000 0.7770 0.7720 0.7650 0.7570 0.7550
11.070191 0.7550 0.7570 0.7590 0.7670 0.7790
11.103000 0.7890 0.7990 0.8070 0.8170 0.8250
11.136191 0.8330 0.8420 0.8480 0.8530 0.8600
11.170000 0.8630 0.8670 0.8670 0.8700 0.8720
11.203191 0.8720 0.8720 0.8720 0.8700 0.8680
11.236000 0.8680 0.8670 0.8620 0.8530 0.8450
11.269191 0.8280 0.8180 0.8070 0.7990 0.7900
11.302000 0.7840 0.7770 0.7700 0.7620 0.7540
11.335191 0.7450 0.7400 0.7320 0.7240 0.7140
11.369000 0.7050 0.7000 0.6990 0.6990 0.6990
11.402191 0.6990 0.7000 0.7090 0.7150 0.7250
11.435000 0.7320 0.7400 0.7470 0.7500 0.7550
11.468191 0.7570 0.7570 0.7550 0.7540 0.7520
11.501000 0.7500 0.7470 0.7420 0.7390 0.7370
11.534191 0.7370 0.7390 0.7400 0.7450 0.7520
11.568000 0.7570 0.7670 0.7770 0.7820 0.7870
11.601191 0.7940 0.8000 0.8070 0.8130 0.8180
11.634000 0.8220 0.8250 0.8280 0.8300 0.8320
11.667191 0.8330 0.8370 0.8380 0.8380 0.8400
11.700000 0.8400 0.8430 0.8430 0.8430 0.8430
11.733191 0.8430 0.8430 0.8430 0.8430 0.8430
11.767000 0.8430 0.8430 0.8430 0.8430 0.8430
11.800191 0.8430 0.8430 0.8430 0.8430 0.8430
11.833000 0.8420 0.8420 0.8420 0.8420 0.8420
11.866191 0.8400 0.8380 0.8370 0.8370 0.8350
11.900000 0.8330 0.8320 0.8300 0.8300 0.8300
11.933191 0.8280 0.8270 0.8230 0.8220 0.8220
11.966000 0.8220 0.8220 0.8200 0.8200 0.8180
11.999191 0.8170 0.8150 0.8130 0.8100 0.8070
12.032000 0.8070 0.8050 0.8030 0.8020 0.8000
12.065191 0.8000 0.7990 0.7970 0.7950 0.7940
12.099000 0.7920 0.7900 0.7890 0.7870 0.7870
12.132191 0.7870 0.7870 0.7890 0.7900 0.7940
12.165000 0.7970 0.8020 0.8050 0.8100 0.8150
12.198191 0.8180 0.8220 0.8230 0.8270 0.8280
12.231000 0.8320 0.8330 0.8350 0.8350 0.8350
12.264191 0.8350 0.8350 0.8350 0.8350 0.8350
12.298000 0.8350 0.8350 0.8350 0.8350 0.8350
12.331191 0.8330 0.8330 0.8320 0.8320 0.8280
12.364000 0.8270 0.8250 0.8220 0.8200 0.8200
12.397191 0.8170 0.8120 0.8070 0.8030 0.8020
12.430000 0.7990 0.7970 0.7900 0.7890 0.7870
12.463191 0.7840 0.7800 0.7790 0.7770 0.7750
12.497000 0.7740 0.7720 0.7700 0.7690 0.7670
12.530191 0.7650 0.7650 0.7640 0.7640 0.7640
12.563000 0.7640 0.7640 0.7620 0.7620 0.7620
12.596191 0.7620 0.7600 0.7600 0.7600 0.7600
12.629000 0.7600 0.7600 0.7600 0.7600 0.7600
12.662191 0.7600 0.7600 0.7600 0.7600 0.7600
12.696000 0.7600 0.7600 0.7600 0.7600 0.7600
12.729191 0.7600 0.7600 0.7600 0.7620 0.7620
12.762000 0.7620 0.7620 0.7620 0.7640 0.7640
12.795191 0.7640 0.7650 0.7650 0.7670 0.7670
12.828000 0.7670 0.7670 0.7670 0.7670 0.7670
12.861191 0.7670 0.7670 0.7670 0.7670 0.7690
12.895000 0.7690 0.7690 0.7700 0.7700 0.7720
12.928191 0.7740 0.7750 0.7770 0.7790 0.7790
12.961000 0.7800 0.7820 0.7820 0.7840 0.7850
12.994191 0.7850 0.7870 0.7890 0.7900 0.7900
13.027000 0.7920 0.7920 0.7920 0.7920 0.7940
13.060191 0.7940 0.7950 0.7950 0.7950 0.7950
13.094000 0.7950 0.7970 0.7970 0.7970 0.7970
13.127191 0.7990 0.7990 0.7990 0.7990 0.7990
13.160000 0.7990 0.7990 0.7990 0.7990 0.7990
13.193191 0.7990 0.7990 0.7990 0.7970 0.7950
13.227000 0.7940 0.7920 0.7900 0.7890 0.7850
13.260191 0.7820 0.7800 0.7770 0.7740 0.7720
13.293000 0.7720 0.7690 0.7670 0.7650 0.7640
13.326191 0.7640 0.7620 0.7620 0.7620 0.7640
13.359000 0.7640 0.7670 0.7700 0.7740 0.7770
13.392191 0.7800 0.7820 0.7850 0.7890 0.7900
13.426000 0.7920 0.7940 0.7950 0.7970 0.7970
13.459191 0.7990 0.7990 0.8020 0.8030 0.8030
13.492000 0.8080 0.8100 0.8120 0.8130 0.8150
13.525191 0.8150 0.8170 0.8170 0.8180 0.8180
13.558000 0.8200 0.8200 0.8200 0.8200 0.8220
13.591191 0.8220 0.8220 0.8230 0.8230 0.8250
13.625000 0.8250 0.8270 0.8270 0.8270 0.8280
13.658191 0.8280 0.8280 0.8280 0.8280 0.8280
13.691000 0.8280 0.8300 0.8300 0.8300 0.8300
13.724191 0.8300 0.8320 0.8320 0.8330 0.8330
13.757000 0.8330 0.8350 0.8350 0.8370 0.8370
13.790191 0.8380 0.8400 0.8400 0.8400 0.8420
13.824000 0.8420 0.8420 0.8430 0.8430 0.8430
13.857191 0.8450 0.8450 0.8470 0.8470 0.8470
13.890000 0.8480 0.8480 0.8500 0.8500 0.8500
13.923191 0.8500 0.8520 0.8520 0.8520 0.8530
13.956000 0.8530 0.8530 0.8550 0.8550 0.8550
13.989191 0.8570 0.8570 0.8570 0.8580 0.8580
14.023000 0.8580 0.8600 0.8600 0.8600 0.8600
14.056191 0.8600 0.8620 0.8620 0.8620 0.8620
14.089000 0.8630 0.8630 0.8630 0.8630 0.8630
14.122191 0.8630 0.8630 0.8630 0.8630 0.8630
14.155000 0.8630 0.8630 0.8630 0.8630 0.8630
14.188191 0.8630 0.8630 0.8630 0.8630 0.8630
14.222000 0.8630 0.8630 0.8620 0.8620 0.8620
14.255191 0.8620 0.8620 0.8600 0.8580 0.8570
14.288000 0.8520 0.8520 0.8500 0.8470 0.8430
14.321191 0.8400 0.8380 0.8350 0.8330 0.8300
14.355000 0.8270 0.8220 0.8180 0.8170 0.8150
14.388191 0.8150 0.8150 0.8150 0.8150 0.8130
14.421000 0.8120 0.8100 0.8100 0.8080 0.8070
14.454191 0.8050 0.8050 0.8050 0.8050 0.8050
14.487000 0.8070 0.8080 0.8100 0.8100 0.8120
14.520191 0.8130 0.8150 0.8150 0.8170 0.8170
14.554000 0.8180 0.8180 0.8200 0.8220 0.8230
14.587191 0.8230 0.8250 0.8270 0.8270 0.8280
14.620000 0.8280 0.8300 0.8300 0.8300 0.8320
14.653191 0.8320 0.8320 0.8330 0.8330 0.8330
14.686000 0.8330 0.8350 0.8350 0.8350 0.8350
14.719191 0.8370 0.8370 0.8370 0.8370 0.8370
14.753000 0.8370 0.8370 0.8370 0.8380 0.8380
14.786191 0.8400 0.8400 0.8400 0.8420 0.8420
14.819000 0.8420 0.8420 0.8420 0.8420 0.8420
14.852191 0.8420 0.8420 0.8420 0.8420 0.8420
14.885000 0.8420 0.8420 0.8420 0.8420 0.8420
14.918191 0.8420 0.8420 0.8420 0.8420 0.8420
14.952000 0.8420 0.8400 0.8400 0.8400 0.8400
14.985191 0.8380 0.8380 0.8370 0.8350 0.8350
15.018000 0.8330 0.8330 0.8320 0.8320 0.8320
15.051191 0.8320 0.8300 0.8280 0.8270 0.8230
15.084000 0.8220 0.8220 0.8200 0.8200 0.8200
15.117191 0.8180 0.8170 0.8130 0.8120 0.8080
15.151000 0.8070 0.8030 0.8030 0.8020 0.8020
15.184191 0.8000 0.7990 0.7970 0.7970 0.7950
15.217000 0.7950 0.7950 0.7950 0.7950 0.7950
15.250191 0.7950 0.7950 0.7950 0.7950 0.7950
15.283000 0.7950 0.7950 0.7950 0.7950 0.7950
15.316191 0.7950 0.7950 0.7940 0.7940 0.7940
15.350000 0.7940 0.7940 0.7940 0.7940 0.7940
15.383191 0.7940 0.7920 0.7920 0.7900 0.7900
15.416000 0.7890 0.7870 0.7870 0.7870 0.7870
15.449191 0.7850 0.7850 0.7850 0.7850 0.7840
15.482000 0.7840 0.7840 0.7840 0.7840 0.7840
15.515191 0.7840 0.7840 0.7840 0.7840 0.7840
15.549000 0.7820 0.7820 0.7820 0.7800 0.7800
15.582191 0.7800 0.7800 0.7800 0.7800 0.7800
15.615000 0.7800 0.7800 0.7800 0.7800 0.7800
15.648191 0.7790 0.7770 0.7770 0.7770 0.7770
15.682000 0.7770 0.7770 0.7770 0.7770 0.7750
15.715191 0.7750 0.7750 0.7750 0.7740 0.7740
15.748000 0.7740 0.7720 0.7720 0.7700 0.7700
15.781191 0.7700 0.7700 0.7700 0.7700 0.7700
15.814000 0.7700 0.7700 0.7700 0.7690 0.7690
15.847191 0.7690 0.7690 0.7670 0.7670 0.7670
15.881000 0.7670 0.7670 0.7670 0.7670 0.7670
15.914191 0.7670 0.7670 0.7670 0.7670 0.7670
15.947000 0.7670 0.7670 0.7670 0.7670 0.7670
15.980191 0.7670 0.7670
##END=
