##TITLE=Silane, fluorotriphenyl-
##JCAMP-DX=4.24
$$ By DXEDIT 1.05 (RS McDonald)
##DATA TYPE=INFRARED SPECTRUM
##CLASS=COBLENTZ II
##ORIGIN=DOW CHEMICAL COMPANY
##OWNER=COPYRIGHT (C) 1988 by COBLENTZ SOCIETY INC.
Collection (C) 2018 copyright by the U.S. Secretary of Commerce
on behalf of the United States of America. All rights reserved.
##DATE=1969/08/28
##NAMES=fluoro(triphenyl)silane
##CAS REGISTRY NO=379-50-0
##MOLFORM=C18 H15 F Si
##SOURCE REFERENCE=COBLENTZ NO. 08940
##$NIST SOURCE=COBLENTZ
##$NIST IMAGE=cob8940
##SPECTROMETER/DATA SYSTEM=BECKMAN IR-9 (GRATING)
##INSTRUMENT PARAMETERS=ORDER CHANGES: 670, 1200, 2000 CM^-^1
##STATE=SOLUTION (10% CCl4 FOR 3800-1330, 10% CS2 FOR 1330-400 CM^-^1) VS SOLVENT
##PATH LENGTH=0.011 CM, 0.011 CM
##SAMPLING PROCEDURE=TRANSMISSION
##RESOLUTION=2
##DATA PROCESSING=DIGITIZED BY COBLENTZ SOCIETY (BATCH I) FROM HARD COPY
##XUNITS=1/CM
##YUNITS=TRANSMITTANCE
##XFACTOR=1
##YFACTOR=1
##DELTAX=1
##FIRSTX=3800
##LASTX=391
##FIRSTY=0.8865
##MAXX=3800
##MINX=391
##MAXY=0.9081
##MINY=0
##NPOINTS=3410
##XYDATA=(X++(Y..Y))
3800.000000 0.8865 0.8864 0.8864 0.8864 0.8864
3795.000000 0.8864 0.8864 0.8864 0.8864 0.8864
3790.000000 0.8864 0.8864 0.8864 0.8864 0.8864
3785.000000 0.8864 0.8864 0.8864 0.8864 0.8864
3780.000000 0.8864 0.8864 0.8865 0.8865 0.8866
3775.000000 0.8866 0.8867 0.8867 0.8868 0.8868
3770.000000 0.8868 0.8868 0.8868 0.8868 0.8868
3765.000000 0.8868 0.8868 0.8868 0.8868 0.8867
3760.000000 0.8867 0.8866 0.8865 0.8864 0.8864
3755.000000 0.8863 0.8863 0.8862 0.8861 0.8860
3750.000000 0.8859 0.8858 0.8858 0.8857 0.8856
3745.000000 0.8855 0.8854 0.8853 0.8853 0.8852
3740.000000 0.8851 0.8849 0.8848 0.8846 0.8845
3735.000000 0.8843 0.8842 0.8840 0.8839 0.8837
3730.000000 0.8836 0.8834 0.8833 0.8831 0.8828
3725.000000 0.8825 0.8824 0.8820 0.8817 0.8813
3720.000000 0.8810 0.8805 0.8801 0.8794 0.8787
3715.000000 0.8780 0.8773 0.8764 0.8756 0.8747
3710.000000 0.8738 0.8728 0.8718 0.8706 0.8694
3705.000000 0.8681 0.8668 0.8663 0.8657 0.8654
3700.000000 0.8652 0.8649 0.8648 0.8647 0.8647
3695.000000 0.8649 0.8652 0.8654 0.8657 0.8663
3690.000000 0.8670 0.8681 0.8692 0.8703 0.8714
3685.000000 0.8724 0.8734 0.8744 0.8754 0.8764
3680.000000 0.8774 0.8783 0.8793 0.8798 0.8803
3675.000000 0.8807 0.8812 0.8817 0.8821 0.8825
3670.000000 0.8830 0.8830 0.8831 0.8832 0.8833
3665.000000 0.8834 0.8835 0.8835 0.8835 0.8835
3660.000000 0.8834 0.8832 0.8830 0.8824 0.8818
3655.000000 0.8814 0.8809 0.8801 0.8794 0.8786
3650.000000 0.8778 0.8770 0.8763 0.8765 0.8767
3645.000000 0.8770 0.8773 0.8775 0.8778 0.8783
3640.000000 0.8788 0.8792 0.8797 0.8801 0.8806
3635.000000 0.8810 0.8815 0.8818 0.8823 0.8827
3630.000000 0.8831 0.8835 0.8840 0.8844 0.8848
3625.000000 0.8852 0.8856 0.8860 0.8864 0.8868
3620.000000 0.8873 0.8877 0.8881 0.8885 0.8889
3615.000000 0.8893 0.8897 0.8899 0.8901 0.8903
3610.000000 0.8906 0.8908 0.8910 0.8912 0.8914
3605.000000 0.8916 0.8918 0.8920 0.8921 0.8924
3600.000000 0.8925 0.8925 0.8925 0.8925 0.8925
3595.000000 0.8925 0.8925 0.8925 0.8925 0.8925
3590.000000 0.8925 0.8925 0.8925 0.8925 0.8925
3585.000000 0.8924 0.8924 0.8923 0.8921 0.8921
3580.000000 0.8921 0.8920 0.8920 0.8918 0.8918
3575.000000 0.8918 0.8918 0.8917 0.8917 0.8916
3570.000000 0.8916 0.8915 0.8915 0.8914 0.8913
3565.000000 0.8912 0.8912 0.8911 0.8911 0.8910
3560.000000 0.8910 0.8909 0.8909 0.8908 0.8908
3555.000000 0.8907 0.8906 0.8905 0.8905 0.8904
3550.000000 0.8903 0.8902 0.8901 0.8900 0.8899
3545.000000 0.8898 0.8897 0.8896 0.8895 0.8894
3540.000000 0.8893 0.8891 0.8890 0.8889 0.8888
3535.000000 0.8887 0.8886 0.8885 0.8884 0.8883
3530.000000 0.8882 0.8881 0.8880 0.8878 0.8878
3525.000000 0.8877 0.8875 0.8874 0.8873 0.8871
3520.000000 0.8868 0.8867 0.8866 0.8864 0.8863
3515.000000 0.8861 0.8859 0.8857 0.8856 0.8854
3510.000000 0.8853 0.8851 0.8849 0.8847 0.8846
3505.000000 0.8844 0.8842 0.8840 0.8839 0.8837
3500.000000 0.8836 0.8834 0.8832 0.8830 0.8828
3495.000000 0.8828 0.8827 0.8825 0.8825 0.8825
3490.000000 0.8824 0.8823 0.8823 0.8821 0.8821
3485.000000 0.8820 0.8820 0.8818 0.8818 0.8817
3480.000000 0.8817 0.8816 0.8816 0.8815 0.8814
3475.000000 0.8813 0.8813 0.8812 0.8811 0.8810
3470.000000 0.8810 0.8809 0.8808 0.8807 0.8807
3465.000000 0.8806 0.8805 0.8805 0.8805 0.8805
3460.000000 0.8806 0.8806 0.8806 0.8806 0.8807
3455.000000 0.8807 0.8807 0.8807 0.8807 0.8807
3450.000000 0.8808 0.8808 0.8808 0.8808 0.8808
3445.000000 0.8808 0.8809 0.8809 0.8809 0.8809
3440.000000 0.8809 0.8809 0.8810 0.8810 0.8810
3435.000000 0.8810 0.8811 0.8811 0.8811 0.8811
3430.000000 0.8812 0.8813 0.8814 0.8814 0.8815
3425.000000 0.8816 0.8817 0.8817 0.8818 0.8818
3420.000000 0.8820 0.8820 0.8821 0.8821 0.8823
3415.000000 0.8823 0.8824 0.8824 0.8825 0.8825
3410.000000 0.8827 0.8827 0.8828 0.8828 0.8830
3405.000000 0.8830 0.8831 0.8832 0.8833 0.8833
3400.000000 0.8834 0.8835 0.8836 0.8836 0.8837
3395.000000 0.8838 0.8839 0.8839 0.8840 0.8840
3390.000000 0.8841 0.8842 0.8843 0.8843 0.8844
3385.000000 0.8845 0.8846 0.8846 0.8847 0.8847
3380.000000 0.8848 0.8849 0.8850 0.8850 0.8851
3375.000000 0.8852 0.8853 0.8853 0.8854 0.8854
3370.000000 0.8855 0.8856 0.8857 0.8857 0.8858
3365.000000 0.8859 0.8860 0.8860 0.8861 0.8862
3360.000000 0.8863 0.8864 0.8865 0.8866 0.8867
3355.000000 0.8867 0.8868 0.8868 0.8870 0.8871
3350.000000 0.8871 0.8873 0.8874 0.8874 0.8875
3345.000000 0.8875 0.8877 0.8878 0.8878 0.8880
3340.000000 0.8881 0.8881 0.8882 0.8883 0.8884
3335.000000 0.8884 0.8885 0.8886 0.8887 0.8888
3330.000000 0.8889 0.8889 0.8890 0.8891 0.8892
3325.000000 0.8892 0.8893 0.8894 0.8895 0.8896
3320.000000 0.8897 0.8897 0.8898 0.8899 0.8900
3315.000000 0.8900 0.8901 0.8902 0.8903 0.8903
3310.000000 0.8904 0.8905 0.8906 0.8907 0.8908
3305.000000 0.8908 0.8909 0.8910 0.8911 0.8911
3300.000000 0.8912 0.8912 0.8913 0.8913 0.8914
3295.000000 0.8914 0.8914 0.8914 0.8915 0.8915
3290.000000 0.8915 0.8915 0.8916 0.8916 0.8916
3285.000000 0.8916 0.8917 0.8917 0.8917 0.8917
3280.000000 0.8918 0.8918 0.8918 0.8918 0.8918
3275.000000 0.8918 0.8918 0.8918 0.8920 0.8920
3270.000000 0.8920 0.8920 0.8921 0.8921 0.8921
3265.000000 0.8921 0.8921 0.8921 0.8921 0.8921
3260.000000 0.8923 0.8923 0.8923 0.8923 0.8924
3255.000000 0.8924 0.8924 0.8924 0.8924 0.8924
3250.000000 0.8925 0.8925 0.8925 0.8925 0.8927
3245.000000 0.8927 0.8928 0.8928 0.8930 0.8931
3240.000000 0.8932 0.8932 0.8933 0.8934 0.8935
3235.000000 0.8936 0.8937 0.8937 0.8938 0.8938
3230.000000 0.8938 0.8938 0.8937 0.8936 0.8935
3225.000000 0.8934 0.8933 0.8932 0.8932 0.8931
3220.000000 0.8930 0.8928 0.8928 0.8927 0.8925
3215.000000 0.8925 0.8925 0.8924 0.8923 0.8921
3210.000000 0.8921 0.8920 0.8918 0.8916 0.8914
3205.000000 0.8911 0.8909 0.8906 0.8904 0.8903
3200.000000 0.8902 0.8901 0.8900 0.8899 0.8898
3195.000000 0.8897 0.8896 0.8895 0.8894 0.8893
3190.000000 0.8892 0.8890 0.8889 0.8888 0.8887
3185.000000 0.8886 0.8885 0.8884 0.8883 0.8881
3180.000000 0.8880 0.8878 0.8878 0.8875 0.8873
3175.000000 0.8870 0.8867 0.8864 0.8861 0.8858
3170.000000 0.8855 0.8852 0.8849 0.8844 0.8839
3165.000000 0.8834 0.8828 0.8823 0.8818 0.8811
3160.000000 0.8805 0.8798 0.8791 0.8783 0.8775
3155.000000 0.8765 0.8754 0.8743 0.8732 0.8625
3150.000000 0.8518 0.8394 0.8071 0.8164 0.8060
3145.000000 0.8054 0.8049 0.8101 0.8154 0.8240
3140.000000 0.8325 0.8412 0.8498 0.8573 0.8648
3135.000000 0.8657 0.8666 0.8671 0.8678 0.8682
3130.000000 0.8686 0.8689 0.8693 0.8693 0.8701
3125.000000 0.8689 0.8685 0.8680 0.8675 0.8667
3120.000000 0.8659 0.8644 0.8628 0.8613 0.8598
3115.000000 0.8583 0.8568 0.8537 0.8507 0.8471
3110.000000 0.8435 0.8368 0.8304 0.8146 0.7988
3105.000000 0.7847 0.7707 0.7565 0.7425 0.7285
3100.000000 0.7145 0.7004 0.6864 0.6861 0.6860
3095.000000 0.6915 0.6972 0.7018 0.7065 0.7051
3090.000000 0.7038 0.6951 0.6865 0.6344 0.5822
3085.000000 0.5299 0.4777 0.4255 0.3732 0.3396
3080.000000 0.3059 0.3062 0.3093 0.3266 0.3468
3075.000000 0.3741 0.4012 0.4285 0.4557 0.4829
3070.000000 0.5222 0.5150 0.5199 0.5164 0.5129
3065.000000 0.4964 0.4799 0.4634 0.4470 0.4305
3060.000000 0.4141 0.4105 0.4102 0.4074 0.4079
3055.000000 0.4332 0.4585 0.4984 0.5384 0.5784
3050.000000 0.6184 0.6493 0.6803 0.6804 0.6787
3045.000000 0.6791 0.6776 0.6631 0.6486 0.6340
3040.000000 0.6194 0.6048 0.5792 0.5838 0.5774
3035.000000 0.5770 0.5766 0.5848 0.6215 0.6014
3030.000000 0.6098 0.6152 0.6206 0.6170 0.6135
3025.000000 0.6092 0.6050 0.6007 0.5965 0.5922
3020.000000 0.5862 0.5868 0.5858 0.5858 0.5858
3015.000000 0.6184 0.6537 0.6439 0.6367 0.6275
3010.000000 0.6184 0.6092 0.6001 0.5909 0.5728
3005.000000 0.5735 0.5653 0.5651 0.5650 0.6701
3000.000000 0.7753 0.7851 0.7951 0.8015 0.8078
2995.000000 0.8142 0.8205 0.8250 0.8296 0.8340
2990.000000 0.8384 0.8421 0.8459 0.8492 0.8525
2985.000000 0.8544 0.8562 0.8580 0.8598 0.8616
2980.000000 0.8634 0.8650 0.8666 0.8675 0.8687
2975.000000 0.8697 0.8708 0.8718 0.8728 0.8739
2970.000000 0.8750 0.8758 0.8767 0.8775 0.8783
2965.000000 0.8790 0.8798 0.8806 0.8814 0.8820
2960.000000 0.8825 0.8828 0.8832 0.8835 0.8838
2955.000000 0.8841 0.8845 0.8848 0.8851 0.8854
2950.000000 0.8857 0.8856 0.8856 0.8862 0.8862
2945.000000 0.8861 0.8860 0.8859 0.8858 0.8857
2940.000000 0.8856 0.8848 0.8841 0.8831 0.8821
2935.000000 0.8809 0.8797 0.8782 0.8767 0.8752
2930.000000 0.8737 0.8710 0.8683 0.8661 0.8640
2925.000000 0.8621 0.8602 0.8587 0.8566 0.8573
2920.000000 0.8575 0.8578 0.8582 0.8587 0.8593
2915.000000 0.8616 0.8639 0.8675 0.8714 0.8733
2910.000000 0.8752 0.8755 0.8759 0.8759 0.8760
2905.000000 0.8760 0.8761 0.8765 0.8770 0.8782
2900.000000 0.8794 0.8806 0.8818 0.8828 0.8838
2895.000000 0.8848 0.8858 0.8868 0.8878 0.8888
2890.000000 0.8898 0.8905 0.8912 0.8917 0.8921
2885.000000 0.8925 0.8931 0.8936 0.8936 0.8937
2880.000000 0.8934 0.8928 0.8925 0.8920 0.8916
2875.000000 0.8911 0.8907 0.8902 0.8898 0.8892
2870.000000 0.8887 0.8880 0.8874 0.8868 0.8862
2865.000000 0.8856 0.8850 0.8851 0.8852 0.8853
2860.000000 0.8855 0.8856 0.8858 0.8863 0.8868
2855.000000 0.8874 0.8880 0.8885 0.8890 0.8892
2850.000000 0.8894 0.8895 0.8895 0.8896 0.8896
2845.000000 0.8890 0.8885 0.8878 0.8873 0.8867
2840.000000 0.8862 0.8857 0.8852 0.8847 0.8843
2835.000000 0.8838 0.8834 0.8830 0.8825 0.8825
2830.000000 0.8825 0.8825 0.8827 0.8827 0.8828
2825.000000 0.8835 0.8842 0.8849 0.8856 0.8862
2820.000000 0.8868 0.8875 0.8883 0.8890 0.8897
2815.000000 0.8902 0.8907 0.8909 0.8912 0.8914
2810.000000 0.8917 0.8918 0.8921 0.8923 0.8925
2805.000000 0.8928 0.8931 0.8933 0.8935 0.8937
2800.000000 0.8940 0.8942 0.8945 0.8945 0.8946
2795.000000 0.8946 0.8947 0.8947 0.8947 0.8947
2790.000000 0.8947 0.8947 0.8948 0.8948 0.8948
2785.000000 0.8948 0.8949 0.8949 0.8949 0.8949
2780.000000 0.8950 0.8950 0.8950 0.8950 0.8951
2775.000000 0.8951 0.8951 0.8951 0.8951 0.8951
2770.000000 0.8951 0.8951 0.8951 0.8950 0.8950
2765.000000 0.8949 0.8949 0.8949 0.8949 0.8948
2760.000000 0.8948 0.8947 0.8947 0.8946 0.8946
2755.000000 0.8945 0.8945 0.8944 0.8944 0.8943
2750.000000 0.8943 0.8942 0.8942 0.8941 0.8940
2745.000000 0.8939 0.8938 0.8937 0.8936 0.8935
2740.000000 0.8934 0.8933 0.8933 0.8928 0.8925
2735.000000 0.8920 0.8916 0.8911 0.8907 0.8902
2730.000000 0.8897 0.8892 0.8888 0.8878 0.8871
2725.000000 0.8862 0.8854 0.8845 0.8837 0.8828
2720.000000 0.8820 0.8813 0.8806 0.8799 0.8792
2715.000000 0.8785 0.8778 0.8775 0.8771 0.8770
2710.000000 0.8770 0.8773 0.8775 0.8784 0.8793
2705.000000 0.8805 0.8818 0.8830 0.8843 0.8850
2700.000000 0.8857 0.8860 0.8864 0.8867 0.8870
2695.000000 0.8873 0.8877 0.8880 0.8883 0.8884
2690.000000 0.8886 0.8887 0.8889 0.8891 0.8893
2685.000000 0.8894 0.8896 0.8897 0.8899 0.8901
2680.000000 0.8903 0.8904 0.8906 0.8907 0.8909
2675.000000 0.8911 0.8913 0.8914 0.8916 0.8917
2670.000000 0.8918 0.8918 0.8920 0.8920 0.8921
2665.000000 0.8921 0.8923 0.8923 0.8924 0.8924
2660.000000 0.8925 0.8925 0.8927 0.8927 0.8928
2655.000000 0.8928 0.8930 0.8930 0.8931 0.8931
2650.000000 0.8932 0.8932 0.8933 0.8933 0.8934
2645.000000 0.8934 0.8934 0.8934 0.8934 0.8931
2640.000000 0.8928 0.8927 0.8925 0.8923 0.8921
2635.000000 0.8918 0.8916 0.8907 0.8899 0.8889
2630.000000 0.8878 0.8866 0.8853 0.8846 0.8840
2625.000000 0.8834 0.8828 0.8825 0.8827 0.8828
2620.000000 0.8833 0.8845 0.8858 0.8864 0.8871
2615.000000 0.8875 0.8880 0.8884 0.8889 0.8892
2610.000000 0.8895 0.8896 0.8898 0.8899 0.8901
2605.000000 0.8902 0.8903 0.8896 0.8890 0.8878
2600.000000 0.8868 0.8858 0.8847 0.8835 0.8823
2595.000000 0.8812 0.8802 0.8801 0.8800 0.8810
2590.000000 0.8821 0.8832 0.8843 0.8852 0.8861
2585.000000 0.8868 0.8878 0.8886 0.8895 0.8902
2580.000000 0.8910 0.8910 0.8911 0.8911 0.8912
2575.000000 0.8912 0.8913 0.8913 0.8914 0.8914
2570.000000 0.8915 0.8915 0.8916 0.8917 0.8918
2565.000000 0.8918 0.8921 0.8921 0.8923 0.8924
2560.000000 0.8925 0.8927 0.8928 0.8928 0.8931
2555.000000 0.8932 0.8934 0.8935 0.8936 0.8937
2550.000000 0.8939 0.8940 0.8941 0.8942 0.8944
2545.000000 0.8945 0.8946 0.8947 0.8949 0.8950
2540.000000 0.8952 0.8952 0.8952 0.8951 0.8951
2535.000000 0.8950 0.8950 0.8950 0.8950 0.8949
2530.000000 0.8949 0.8948 0.8948 0.8947 0.8947
2525.000000 0.8946 0.8946 0.8945 0.8945 0.8944
2520.000000 0.8944 0.8943 0.8943 0.8943 0.8943
2515.000000 0.8942 0.8942 0.8941 0.8941 0.8941
2510.000000 0.8941 0.8941 0.8941 0.8941 0.8942
2505.000000 0.8942 0.8943 0.8943 0.8943 0.8943
2500.000000 0.8944 0.8944 0.8945 0.8945 0.8945
2495.000000 0.8945 0.8946 0.8946 0.8947 0.8947
2490.000000 0.8947 0.8947 0.8948 0.8948 0.8949
2485.000000 0.8949 0.8950 0.8950 0.8950 0.8950
2480.000000 0.8950 0.8950 0.8950 0.8949 0.8949
2475.000000 0.8949 0.8949 0.8949 0.8949 0.8948
2470.000000 0.8948 0.8948 0.8948 0.8948 0.8948
2465.000000 0.8947 0.8947 0.8947 0.8947 0.8947
2460.000000 0.8947 0.8946 0.8946 0.8946 0.8946
2455.000000 0.8946 0.8946 0.8945 0.8945 0.8945
2450.000000 0.8945 0.8945 0.8946 0.8947 0.8948
2445.000000 0.8948 0.8949 0.8949 0.8950 0.8951
2440.000000 0.8952 0.8952 0.8953 0.8954 0.8955
2435.000000 0.8955 0.8956 0.8957 0.8958 0.8958
2430.000000 0.8958 0.8958 0.8958 0.8957 0.8957
2425.000000 0.8956 0.8956 0.8956 0.8956 0.8955
2420.000000 0.8955 0.8954 0.8954 0.8953 0.8953
2415.000000 0.8952 0.8952 0.8951 0.8951 0.8950
2410.000000 0.8950 0.8949 0.8949 0.8948 0.8948
2405.000000 0.8947 0.8947 0.8947 0.8947 0.8947
2400.000000 0.8948 0.8949 0.8950 0.8951 0.8952
2395.000000 0.8952 0.8953 0.8949 0.8946 0.8941
2390.000000 0.8937 0.8933 0.8928 0.8925 0.8921
2385.000000 0.8914 0.8908 0.8901 0.8894 0.8887
2380.000000 0.8880 0.8873 0.8866 0.8861 0.8856
2375.000000 0.8851 0.8846 0.8842 0.8839 0.8836
2370.000000 0.8834 0.8832 0.8830 0.8828 0.8825
2365.000000 0.8825 0.8825 0.8825 0.8825 0.8835
2360.000000 0.8845 0.8851 0.8858 0.8864 0.8870
2355.000000 0.8871 0.8875 0.8877 0.8878 0.8880
2350.000000 0.8881 0.8881 0.8881 0.8881 0.8881
2345.000000 0.8878 0.8875 0.8867 0.8859 0.8849
2340.000000 0.8840 0.8828 0.8818 0.8810 0.8801
2335.000000 0.8794 0.8787 0.8780 0.8773 0.8773
2330.000000 0.8774 0.8774 0.8775 0.8780 0.8785
2325.000000 0.8797 0.8810 0.8828 0.8849 0.8863
2320.000000 0.8878 0.8878 0.8881 0.8883 0.8885
2315.000000 0.8887 0.8889 0.8891 0.8893 0.8894
2310.000000 0.8896 0.8898 0.8900 0.8902 0.8904
2305.000000 0.8905 0.8906 0.8906 0.8906 0.8906
2300.000000 0.8907 0.8907 0.8908 0.8908 0.8908
2295.000000 0.8908 0.8909 0.8909 0.8909 0.8909
2290.000000 0.8910 0.8910 0.8911 0.8911 0.8911
2285.000000 0.8911 0.8911 0.8911 0.8911 0.8910
2280.000000 0.8910 0.8909 0.8909 0.8909 0.8909
2275.000000 0.8908 0.8908 0.8907 0.8906 0.8903
2270.000000 0.8901 0.8898 0.8896 0.8893 0.8891
2265.000000 0.8888 0.8886 0.8883 0.8880 0.8877
2260.000000 0.8875 0.8871 0.8868 0.8866 0.8864
2255.000000 0.8861 0.8859 0.8855 0.8852 0.8848
2250.000000 0.8844 0.8839 0.8835 0.8831 0.8828
2245.000000 0.8824 0.8821 0.8817 0.8814 0.8810
2240.000000 0.8810 0.8811 0.8816 0.8821 0.8827
2235.000000 0.8832 0.8838 0.8845 0.8852 0.8859
2230.000000 0.8866 0.8871 0.8878 0.8886 0.8893
2225.000000 0.8896 0.8900 0.8901 0.8902 0.8903
2220.000000 0.8905 0.8906 0.8907 0.8908 0.8910
2215.000000 0.8911 0.8912 0.8912 0.8913 0.8913
2210.000000 0.8913 0.8913 0.8913 0.8913 0.8914
2205.000000 0.8914 0.8914 0.8914 0.8915 0.8915
2200.000000 0.8915 0.8915 0.8915 0.8915 0.8916
2195.000000 0.8916 0.8916 0.8916 0.8917 0.8917
2190.000000 0.8917 0.8917 0.8917 0.8917 0.8918
2185.000000 0.8918 0.8918 0.8918 0.8918 0.8918
2180.000000 0.8918 0.8918 0.8918 0.8918 0.8920
2175.000000 0.8920 0.8920 0.8920 0.8920 0.8920
2170.000000 0.8921 0.8921 0.8921 0.8921 0.8921
2165.000000 0.8921 0.8921 0.8921 0.8921 0.8921
2160.000000 0.8923 0.8923 0.8923 0.8923 0.8924
2155.000000 0.8924 0.8924 0.8924 0.8924 0.8924
2150.000000 0.8925 0.8925 0.8925 0.8925 0.8925
2145.000000 0.8925 0.8925 0.8925 0.8925 0.8925
2140.000000 0.8927 0.8927 0.8927 0.8927 0.8927
2135.000000 0.8928 0.8928 0.8928 0.8930 0.8930
2130.000000 0.8931 0.8931 0.8932 0.8933 0.8934
2125.000000 0.8934 0.8935 0.8935 0.8936 0.8936
2120.000000 0.8937 0.8938 0.8939 0.8939 0.8940
2115.000000 0.8940 0.8941 0.8941 0.8942 0.8943
2110.000000 0.8944 0.8944 0.8945 0.8945 0.8946
2105.000000 0.8946 0.8946 0.8946 0.8947 0.8947
2100.000000 0.8948 0.8948 0.8948 0.8948 0.8949
2095.000000 0.8949 0.8950 0.8950 0.8951 0.8951
2090.000000 0.8951 0.8951 0.8952 0.8952 0.8953
2085.000000 0.8953 0.8954 0.8954 0.8954 0.8954
2080.000000 0.8954 0.8954 0.8954 0.8953 0.8953
2075.000000 0.8953 0.8953 0.8952 0.8952 0.8951
2070.000000 0.8951 0.8951 0.8951 0.8950 0.8950
2065.000000 0.8950 0.8950 0.8949 0.8949 0.8948
2060.000000 0.8948 0.8947 0.8947 0.8947 0.8947
2055.000000 0.8946 0.8946 0.8945 0.8945 0.8944
2050.000000 0.8944 0.8943 0.8943 0.8942 0.8942
2045.000000 0.8941 0.8941 0.8937 0.8933 0.8931
2040.000000 0.8928 0.8928 0.8927 0.8925 0.8924
2035.000000 0.8923 0.8921 0.8921 0.8921 0.8920
2030.000000 0.8920 0.8918 0.8918 0.8916 0.8915
2025.000000 0.8913 0.8912 0.8910 0.8909 0.8909
2020.000000 0.8909 0.8912 0.8916 0.8918 0.8921
2015.000000 0.8925 0.8928 0.8933 0.8939 0.8944
2010.000000 0.8950 0.8956 0.8962 0.8970 0.8978
2005.000000 0.8984 0.8990 0.8995 0.9000 0.9005
2000.000000 0.9010 0.9010 0.9000 0.9013 0.8971
1995.000000 0.8950 0.8928 0.8907 0.8885 0.8864
1990.000000 0.8843 0.8825 0.8807 0.8789 0.8771
1985.000000 0.8751 0.8732 0.8702 0.8668 0.8613
1980.000000 0.8544 0.8475 0.8406 0.8337 0.8296
1975.000000 0.8295 0.8295 0.8295 0.8337 0.8385
1970.000000 0.8503 0.8449 0.8464 0.8464 0.8413
1965.000000 0.8321 0.8208 0.8095 0.7981 0.7753
1960.000000 0.7754 0.7748 0.7749 0.7861 0.8005
1955.000000 0.8148 0.8290 0.8433 0.8571 0.8655
1950.000000 0.8699 0.8742 0.8786 0.8805 0.8825
1945.000000 0.8840 0.8847 0.8853 0.8860 0.8866
1940.000000 0.8873 0.8877 0.8927 0.8883 0.8886
1935.000000 0.8889 0.8892 0.8892 0.8891 0.8891
1930.000000 0.8890 0.8889 0.8886 0.8881 0.8875
1925.000000 0.8868 0.8853 0.8837 0.8821 0.8803
1920.000000 0.8778 0.8756 0.8733 0.8682 0.8617
1915.000000 0.8561 0.8510 0.8461 0.8386 0.8296
1910.000000 0.8231 0.8178 0.8154 0.8139 0.8111
1905.000000 0.8126 0.8165 0.8208 0.8250 0.8283
1900.000000 0.8314 0.8352 0.8339 0.8318 0.8293
1895.000000 0.8191 0.8089 0.7987 0.7885 0.7824
1890.000000 0.7795 0.7845 0.7935 0.8025 0.8117
1885.000000 0.8208 0.8299 0.8394 0.8494 0.8575
1880.000000 0.8651 0.8713 0.8740 0.8766 0.8793
1875.000000 0.8814 0.8831 0.8848 0.8865 0.8871
1870.000000 0.8875 0.8878 0.8882 0.8884 0.8885
1865.000000 0.8885 0.8885 0.8885 0.8883 0.8880
1860.000000 0.8878 0.8875 0.8873 0.8870 0.8868
1855.000000 0.8866 0.8862 0.8850 0.8839 0.8821
1850.000000 0.8800 0.8771 0.8738 0.8705 0.8652
1845.000000 0.8598 0.8541 0.8505 0.8468 0.8413
1840.000000 0.8407 0.8401 0.8395 0.8390 0.8387
1835.000000 0.8384 0.8378 0.8367 0.8343 0.8299
1830.000000 0.8194 0.8088 0.7983 0.7878 0.7771
1825.000000 0.7705 0.7701 0.7685 0.7718 0.7838
1820.000000 0.7958 0.8078 0.8199 0.8320 0.8440
1815.000000 0.8560 0.8641 0.8692 0.8742 0.8783
1810.000000 0.8821 0.8844 0.8843 0.8841 0.8839
1805.000000 0.8837 0.8837 0.8837 0.8837 0.8838
1800.000000 0.8841 0.8844 0.8847 0.8852 0.8856
1795.000000 0.8861 0.8888 0.8868 0.8868 0.8870
1790.000000 0.8870 0.8868 0.8865 0.8860 0.8855
1785.000000 0.8841 0.8821 0.8803 0.8764 0.8591
1780.000000 0.8524 0.8503 0.8490 0.8478 0.8466
1775.000000 0.8458 0.8456 0.8456 0.8456 0.8471
1770.000000 0.8489 0.8518 0.8549 0.8578 0.8611
1765.000000 0.8658 0.8706 0.8753 0.8783 0.8808
1760.000000 0.8833 0.8859 0.8884 0.8896 0.8903
1755.000000 0.8909 0.8915 0.8920 0.8925 0.8930
1750.000000 0.8935 0.8940 0.8945 0.8950 0.8952
1745.000000 0.8953 0.8955 0.8956 0.8958 0.8959
1740.000000 0.8960 0.8960 0.8959 0.8958 0.8957
1735.000000 0.8956 0.8955 0.8953 0.8951 0.8947
1730.000000 0.8943 0.8939 0.8935 0.8928 0.8918
1725.000000 0.8908 0.8899 0.8889 0.8878 0.8865
1720.000000 0.8852 0.8839 0.8827 0.8827 0.8827
1715.000000 0.8830 0.8833 0.8838 0.8845 0.8853
1710.000000 0.8861 0.8868 0.8906 0.8883 0.8890
1705.000000 0.8898 0.8894 0.8889 0.8884 0.8880
1700.000000 0.8875 0.8870 0.8865 0.8860 0.8856
1695.000000 0.8856 0.8855 0.8854 0.8854 0.8853
1690.000000 0.8852 0.8850 0.8848 0.8846 0.8844
1685.000000 0.8842 0.8838 0.8831 0.8824 0.8816
1680.000000 0.8809 0.8802 0.8794 0.8768 0.8745
1675.000000 0.8713 0.8680 0.8647 0.8615 0.8577
1670.000000 0.8533 0.8489 0.8446 0.8405 0.8363
1665.000000 0.8336 0.8323 0.8310 0.8300 0.8290
1660.000000 0.8307 0.8321 0.8342 0.8363 0.8388
1655.000000 0.8420 0.8452 0.8484 0.8528 0.8582
1650.000000 0.8634 0.8687 0.8723 0.8743 0.8764
1645.000000 0.8771 0.8775 0.8780 0.8784 0.8785
1640.000000 0.8785 0.8785 0.8788 0.8792 0.8797
1635.000000 0.8801 0.8813 0.8828 0.8843 0.8857
1630.000000 0.8870 0.8921 0.8883 0.8884 0.8855
1625.000000 0.8827 0.8746 0.8640 0.8555 0.8505
1620.000000 0.8475 0.8464 0.8471 0.8468 0.8488
1615.000000 0.8518 0.8562 0.8612 0.8639 0.8664
1610.000000 0.8681 0.8730 0.8701 0.8700 0.8684
1605.000000 0.8668 0.8652 0.8597 0.8508 0.8302
1600.000000 0.8255 0.7888 0.7167 0.6447 0.5726
1595.000000 0.5006 0.4459 0.4438 0.4451 0.4449
1590.000000 0.4700 0.5506 0.6310 0.7117 0.7922
1585.000000 0.8283 0.8355 0.8432 0.8521 0.8631
1580.000000 0.8693 0.8712 0.8718 0.8731 0.8703
1575.000000 0.8675 0.8637 0.8314 0.7981 0.7647
1570.000000 0.7640 0.7658 0.7988 0.8317 0.8647
1565.000000 0.8816 0.8880 0.8908 0.8908 0.8906
1560.000000 0.8904 0.8901 0.8898 0.8896 0.8896
1555.000000 0.8896 0.8911 0.8927 0.8943 0.8967
1550.000000 0.8994 0.9021 0.9051 0.9071 0.9078
1545.000000 0.9080 0.9081 0.9080 0.9080 0.9078
1540.000000 0.9075 0.9073 0.9071 0.9068 0.9066
1535.000000 0.9064 0.9062 0.9058 0.9053 0.9049
1530.000000 0.9044 0.9040 0.9035 0.9031 0.9027
1525.000000 0.9021 0.9018 0.9013 0.9009 0.9004
1520.000000 0.9000 0.8995 0.8991 0.8986 0.8978
1515.000000 0.8968 0.8959 0.8950 0.8940 0.8931
1510.000000 0.8921 0.8912 0.8901 0.8889 0.8877
1505.000000 0.8865 0.8853 0.8835 0.8817 0.8799
1500.000000 0.8780 0.8756 0.8725 0.8694 0.8653
1495.000000 0.8611 0.8560 0.8507 0.8416 0.7558
1490.000000 0.6771 0.6345 0.6415 0.6819 0.7225
1485.000000 0.7631 0.8036 0.8442 0.8575 0.8651
1480.000000 0.8716 0.8723 0.8731 0.8738 0.8741
1475.000000 0.8740 0.8740 0.8740 0.8740 0.8740
1470.000000 0.8740 0.8740 0.8739 0.8738 0.8736
1465.000000 0.8735 0.8734 0.8733 0.8730 0.8725
1460.000000 0.8718 0.8713 0.8707 0.8696 0.8684
1455.000000 0.8671 0.8660 0.8643 0.8625 0.8609
1450.000000 0.8591 0.8563 0.8535 0.8506 0.8471
1445.000000 0.8428 0.8384 0.8313 0.8218 0.8121
1440.000000 0.8025 0.7872 0.7618 0.7280 0.6765
1435.000000 0.4991 0.3216 0.1442 0.0275 0.0244
1430.000000 0.0760 0.1796 0.2834 0.3872 0.4909
1425.000000 0.5946 0.6728 0.6812 0.6876 0.6946
1420.000000 0.7008 0.7457 0.7948 0.8238 0.8313
1415.000000 0.8380 0.8441 0.8497 0.8547 0.8592
1410.000000 0.8623 0.8653 0.8674 0.8686 0.8686
1405.000000 0.8685 0.8671 0.8671 0.8671 0.8665
1400.000000 0.8658 0.8648 0.8637 0.8625 0.8615
1395.000000 0.8596 0.8577 0.8557 0.8536 0.8515
1390.000000 0.8494 0.8456 0.8417 0.8378 0.8330
1385.000000 0.8281 0.8234 0.8188 0.8142 0.8096
1380.000000 0.8049 0.7931 0.7933 0.7934 0.7971
1375.000000 0.8062 0.8198 0.8274 0.8311 0.8331
1370.000000 0.8351 0.8358 0.8361 0.8364 0.8375
1365.000000 0.8385 0.8396 0.8417 0.8446 0.8475
1360.000000 0.8505 0.8535 0.8563 0.8584 0.8605
1355.000000 0.8625 0.8639 0.8652 0.8655 0.8655
1350.000000 0.8650 0.8633 0.8621 0.8599 0.8575
1345.000000 0.8521 0.8461 0.8383 0.8307 0.8149
1340.000000 0.7990 0.7832 0.7715 0.7697 0.7707
1335.000000 0.7724 0.7750 0.7800 0.7858 0.7915
1330.000000 0.7992 0.8071 0.8124 0.8172 0.8206
1325.000000 0.8239 0.8271 0.8305 0.8337 0.8367
1320.000000 0.8398 0.8425 0.8425 0.8425 0.8423
1315.000000 0.8403 0.8381 0.8355 0.8277 0.8168
1310.000000 0.8061 0.7955 0.7847 0.7771 0.7719
1305.000000 0.7733 0.7728 0.7735 0.7755 0.7812
1300.000000 0.7985 0.8105 0.8205 0.8267 0.8321
1295.000000 0.8347 0.8371 0.8397 0.8410 0.8423
1290.000000 0.8436 0.8449 0.8461 0.8471 0.8482
1285.000000 0.8493 0.8493 0.8493 0.8498 0.8499
1280.000000 0.8499 0.8495 0.8492 0.8486 0.8471
1275.000000 0.8451 0.8418 0.8359 0.8191 0.8046
1270.000000 0.7901 0.7787 0.7780 0.7774 0.7786
1265.000000 0.7808 0.7857 0.7938 0.8024 0.8094
1260.000000 0.8158 0.8207 0.8240 0.8273 0.8305
1255.000000 0.8338 0.8371 0.8404 0.8437 0.8471
1250.000000 0.8504 0.8514 0.8517 0.8518 0.8521
1245.000000 0.8524 0.8525 0.8528 0.8530 0.8532
1240.000000 0.8545 0.8535 0.8537 0.8538 0.8540
1235.000000 0.8542 0.8543 0.8545 0.8546 0.8547
1230.000000 0.8547 0.8546 0.8545 0.8544 0.8542
1225.000000 0.8541 0.8540 0.8535 0.8527 0.8518
1220.000000 0.8510 0.8502 0.8491 0.8478 0.8466
1215.000000 0.8454 0.8441 0.8428 0.8416 0.8402
1210.000000 0.8387 0.8371 0.8357 0.8334 0.8310
1205.000000 0.8286 0.8262 0.8221 0.8180 0.8108
1200.000000 0.8024 0.7933 0.7838 0.7754 0.7675
1195.000000 0.7597 0.7508 0.7237 0.6791 0.6345
1190.000000 0.5899 0.5699 0.5677 0.6093 0.6548
1185.000000 0.7001 0.7456 0.7574 0.7638 0.7700
1180.000000 0.7761 0.7810 0.7843 0.7875 0.7907
1175.000000 0.7932 0.7950 0.7957 0.7975 0.7932
1170.000000 0.7908 0.7882 0.7856 0.7821 0.7788
1165.000000 0.7754 0.7707 0.7658 0.7555 0.7474
1160.000000 0.7401 0.7358 0.7332 0.7333 0.7337
1155.000000 0.7336 0.7335 0.7314 0.7294 0.7272
1150.000000 0.7241 0.7191 0.7142 0.7093 0.7044
1145.000000 0.6974 0.6897 0.6818 0.6728 0.6621
1140.000000 0.6512 0.6200 0.5957 0.5766 0.5523
1135.000000 0.5198 0.4577 0.3955 0.3334 0.2205
1130.000000 0.1507 0.0809 0.0165 0.0113 0.0114
1125.000000 0.0114 0.0100 0.0110 0.0158 0.0487
1120.000000 0.0620 0.0776 0.1472 0.2168 0.2864
1115.000000 0.3478 0.3480 0.3362 0.3212 0.3061
1110.000000 0.2910 0.3045 0.3638 0.4231 0.4824
1105.000000 0.5417 0.6010 0.6897 0.6978 0.7039
1100.000000 0.7096 0.7118 0.7125 0.7128 0.7128
1095.000000 0.7133 0.7137 0.7189 0.7242 0.7307
1090.000000 0.7383 0.7565 0.7694 0.7761 0.7828
1085.000000 0.7894 0.7958 0.8007 0.8036 0.8056
1080.000000 0.8072 0.8085 0.8118 0.8101 0.8104
1075.000000 0.8106 0.8092 0.8068 0.8025 0.7951
1070.000000 0.7878 0.7804 0.7780 0.7788 0.7882
1065.000000 0.7981 0.8067 0.8108 0.8148 0.8188
1060.000000 0.8225 0.8250 0.8275 0.8301 0.8325
1055.000000 0.8350 0.8374 0.8397 0.8415 0.8428
1050.000000 0.8442 0.8456 0.8468 0.8478 0.8487
1045.000000 0.8497 0.8507 0.8516 0.8538 0.8527
1040.000000 0.8528 0.8530 0.8527 0.8509 0.8482
1035.000000 0.8454 0.8125 0.7728 0.7332 0.6936
1030.000000 0.6905 0.6990 0.7968 0.8378 0.8442
1025.000000 0.8487 0.8498 0.8503 0.8502 0.8501
1020.000000 0.8500 0.8510 0.8492 0.8486 0.8480
1015.000000 0.8474 0.8468 0.8462 0.8452 0.8442
1010.000000 0.8432 0.8421 0.8408 0.8396 0.8383
1005.000000 0.8356 0.8318 0.8248 0.7905 0.7075
1000.000000 0.6247 0.5307 0.5318 0.5323 0.5957
995.000000 0.6782 0.7607 0.8168 0.8171 0.8174
990.000000 0.8174 0.8174 0.8175 0.8181 0.8187
985.000000 0.8204 0.8221 0.8241 0.8268 0.8278
980.000000 0.8273 0.8254 0.8241 0.8230 0.8220
975.000000 0.8212 0.8205 0.8209 0.8221 0.8234
970.000000 0.8260 0.8288 0.8315 0.8342 0.8370
965.000000 0.8389 0.8406 0.8423 0.8439 0.8456
960.000000 0.8473 0.8478 0.8480 0.8483 0.8486
955.000000 0.8488 0.8491 0.8494 0.8497 0.8497
950.000000 0.8498 0.8498 0.8498 0.8498 0.8499
945.000000 0.8499 0.8499 0.8499 0.8499 0.8496
940.000000 0.8493 0.8490 0.8487 0.8482 0.8477
935.000000 0.8473 0.8466 0.8457 0.8447 0.8431
930.000000 0.8407 0.8374 0.8343 0.8314 0.8284
925.000000 0.8258 0.8233 0.8204 0.8171 0.8128
920.000000 0.8064 0.8091 0.8092 0.8126 0.8168
915.000000 0.8196 0.8223 0.8251 0.8278 0.8300
910.000000 0.8314 0.8328 0.8343 0.8358 0.8362
905.000000 0.8365 0.8368 0.8407 0.8373 0.8371
900.000000 0.8370 0.8368 0.8367 0.8360 0.8350
895.000000 0.8340 0.8330 0.8320 0.8305 0.8291
890.000000 0.8275 0.8261 0.8247 0.8232 0.8209
885.000000 0.8182 0.8154 0.8119 0.8085 0.8051
880.000000 0.7996 0.7910 0.7825 0.7718 0.7610
875.000000 0.7515 0.7435 0.7353 0.7271 0.7158
870.000000 0.7036 0.6893 0.6665 0.6099 0.5844
865.000000 0.5685 0.5522 0.5346 0.5084 0.4705
860.000000 0.4249 0.3793 0.3337 0.2881 0.2424
855.000000 0.1968 0.1512 0.1056 0.0603 0.0439
850.000000 0.0412 0.0400 0.0408 0.0444 0.0527
845.000000 0.0623 0.0747 0.0871 0.1074 0.1604
840.000000 0.2035 0.2467 0.2898 0.3328 0.3759
835.000000 0.4190 0.4621 0.5051 0.5482 0.5912
830.000000 0.6344 0.6774 0.7197 0.7368 0.7458
825.000000 0.7562 0.7711 0.7806 0.7869 0.7925
820.000000 0.7961 0.7975 0.7989 0.8000 0.8011
815.000000 0.8021 0.8033 0.8044 0.8055 0.8065
810.000000 0.8075 0.8084 0.8093 0.8104 0.8119
805.000000 0.8136 0.8151 0.8168 0.8187 0.8207
800.000000 0.8225 0.8245 0.8264 0.8284 0.8305
795.000000 0.8325 0.8347 0.8374 0.8400 0.8427
790.000000 0.8453 0.8489 0.8525 0.8534 0.8534
785.000000 0.8521 0.8483 0.8435 0.8378 0.8318
780.000000 0.8267 0.8253 0.8255 0.8256 0.8256
775.000000 0.8255 0.8253 0.8250 0.8247 0.8237
770.000000 0.8225 0.8214 0.8201 0.8188 0.8175
765.000000 0.8156 0.8136 0.8115 0.8094 0.8072
760.000000 0.8033 0.7988 0.7943 0.7897 0.7804
755.000000 0.7678 0.7568 0.7462 0.7335 0.7118
750.000000 0.7012 0.6549 0.6086 0.5622 0.5159
745.000000 0.4695 0.4232 0.3546 0.2708 0.1870
740.000000 0.0903 0.0872 0.0876 0.1314 0.1926
735.000000 0.2539 0.3151 0.3762 0.4376 0.4760
730.000000 0.4772 0.4775 0.4684 0.4078 0.3472
725.000000 0.2867 0.2261 0.1654 0.1050 0.0444
720.000000 0.0003 0.0000 0.0000 0.0017 0.0071
715.000000 0.0133 0.0236 0.0445 0.0538 0.0637
710.000000 0.1046 0.1628 0.1994 0.1979 0.1966
705.000000 0.1634 0.1210 0.0785 0.0360 0.0057
700.000000 0.0050 0.0052 0.0071 0.0222 0.0660
695.000000 0.1087 0.1513 0.1940 0.2745 0.3395
690.000000 0.4045 0.4694 0.5344 0.5994 0.6421
685.000000 0.6462 0.6486 0.6497 0.6507 0.6515
680.000000 0.6522 0.6546 0.6578 0.6608 0.6688
675.000000 0.6769 0.6856 0.6941 0.7051 0.7184
670.000000 0.7311 0.7437 0.7583 0.7742 0.8056
665.000000 0.8096 0.8133 0.8168 0.8203 0.8228
660.000000 0.8240 0.8238 0.8230 0.8218 0.8212
655.000000 0.8216 0.8221 0.8245 0.8271 0.8298
650.000000 0.8323 0.8348 0.8371 0.8395 0.8413
645.000000 0.8432 0.8451 0.8468 0.8481 0.8491
640.000000 0.8500 0.8510 0.8511 0.8512 0.8502
635.000000 0.8503 0.8504 0.8498 0.8491 0.8483
630.000000 0.8470 0.8457 0.8438 0.8420 0.8398
625.000000 0.8374 0.8350 0.8299 0.8241 0.8184
620.000000 0.8151 0.8144 0.8160 0.8223 0.8290
615.000000 0.8338 0.8386 0.8424 0.8459 0.8493
610.000000 0.8501 0.8503 0.8504 0.8505 0.8499
605.000000 0.8493 0.8487 0.8480 0.8474 0.8468
600.000000 0.8462 0.8456 0.8450 0.8447 0.8443
595.000000 0.8440 0.8436 0.8432 0.8428 0.8425
590.000000 0.8421 0.8418 0.8414 0.8411 0.8408
585.000000 0.8416 0.8404 0.8402 0.8400 0.8397
580.000000 0.8395 0.8393 0.8391 0.8389 0.8386
575.000000 0.8383 0.8378 0.8375 0.8373 0.8368
570.000000 0.8366 0.8363 0.8360 0.8353 0.8345
565.000000 0.8337 0.8328 0.8321 0.8313 0.8305
560.000000 0.8297 0.8289 0.8281 0.8271 0.8259
555.000000 0.8246 0.8233 0.8221 0.8208 0.8187
550.000000 0.8165 0.8145 0.8124 0.8103 0.8082
545.000000 0.8051 0.8010 0.7968 0.7925 0.7884
540.000000 0.7844 0.7804 0.7764 0.7724 0.7683
535.000000 0.7643 0.7594 0.7546 0.7497 0.7448
530.000000 0.7367 0.7262 0.6908 0.6525 0.6122
525.000000 0.5468 0.4815 0.4160 0.3507 0.2854
520.000000 0.1304 0.0403 0.0000 0.0000 0.0000
515.000000 0.0000 0.0001 0.0045 0.0090 0.0164
510.000000 0.0248 0.0307 0.0366 0.1244 0.1594
505.000000 0.1853 0.2046 0.2547 0.3120 0.3692
500.000000 0.4264 0.4837 0.5409 0.6024 0.6182
495.000000 0.6262 0.6289 0.6308 0.6315 0.6322
490.000000 0.6323 0.6326 0.6299 0.6275 0.6235
485.000000 0.6167 0.6112 0.6039 0.5949 0.5859
480.000000 0.5769 0.5679 0.5612 0.5602 0.5602
475.000000 0.5602 0.5624 0.5751 0.6028 0.6289
470.000000 0.6549 0.6810 0.7071 0.7331 0.7425
465.000000 0.7488 0.7517 0.7533 0.7562 0.7538
460.000000 0.7537 0.7519 0.7503 0.7478 0.7444
455.000000 0.7411 0.7358 0.7298 0.7225 0.7153
450.000000 0.7089 0.6957 0.6845 0.6732 0.6619
445.000000 0.6508 0.6438 0.6425 0.6421 0.6421
440.000000 0.6421 0.6419 0.6422 0.6446 0.6484
435.000000 0.6541 0.6614 0.6721 0.6830 0.6938
430.000000 0.7046 0.7154 0.7261 0.7346 0.7351
425.000000 0.7355 0.7343 0.7337 0.7322 0.7308
420.000000 0.7268 0.7219 0.7068 0.6764 0.6603
415.000000 0.6434 0.6310 0.6203 0.6095 0.5988
410.000000 0.5880 0.5773 0.5704 0.5671 0.5640
405.000000 0.5619 0.5598 0.5576 0.5555 0.5542
400.000000 0.5529 0.5569 0.5517 0.5514 0.5510
395.000000 0.5508 0.5508 0.5507 0.5509 0.5510
##END=
