##TITLE=FLUOROTRIPHENYLSILANE
##JCAMP-DX=4.24
##DATA TYPE=INFRARED SPECTRUM
##CLASS=COBLENTZ
##ORIGIN=PENINSULAR CHEMRESEARCH, INC., GAINESVILLE, FLORIDA
##OWNER=COBLENTZ SOCIETY
Collection (C) 2018 copyright by the U.S. Secretary of Commerce
on behalf of the United States of America. All rights reserved.
##DATE=Not specified, most likely prior to 1970
##NAMES=fluoro(triphenyl)silane
##CAS REGISTRY NO=379-50-0
##MOLFORM=C18 H15 F Si
##SOURCE REFERENCE=COBLENTZ NO. 4915
##$NIST SOURCE=COBLENTZ
##$NIST IMAGE=cob4915
##SPECTROMETER/DATA SYSTEM=BECKMAN IR-4 (HYBRID PRISM-GRATING)
##STATE=SOLID (KBr WAFER)
##SAMPLING PROCEDURE=TRANSMISSION
##RESOLUTION=4
$$ MW 278.40
##DATA PROCESSING=DIGITIZED BY NIST FROM HARD COPY
##XUNITS=MICROMETERS
##YUNITS=TRANSMITTANCE
##XFACTOR=1.000000
##YFACTOR=1
##DELTAX=000.005002
##FIRSTX=2.015
##LASTX=15.02
##FIRSTY=0.701
##MAXX=15.02
##MINX=2.015
##MAXY=0.968
##MINY=0.04
##NPOINTS=2601
##XYDATA=(X++(Y..Y))
2.015000 0.7010 0.7020 0.7040 0.7040 0.7070
2.040020 0.7080 0.7090 0.7090 0.7110 0.7120
2.065000 0.7130 0.7130 0.7130 0.7120 0.7120
2.090020 0.7090 0.7090 0.7080 0.7080 0.7080
2.115000 0.7090 0.7110 0.7120 0.7130 0.7140
2.140020 0.7160 0.7170 0.7170 0.7190 0.7210
2.165000 0.7210 0.7220 0.7220 0.7230 0.7230
2.190020 0.7230 0.7240 0.7240 0.7260 0.7260
2.215000 0.7280 0.7290 0.7310 0.7320 0.7330
2.240020 0.7340 0.7360 0.7380 0.7390 0.7390
2.265000 0.7390 0.7380 0.7370 0.7370 0.7380
2.290020 0.7390 0.7390 0.7410 0.7420 0.7420
2.315000 0.7430 0.7430 0.7440 0.7440 0.7460
2.340020 0.7470 0.7470 0.7480 0.7480 0.7500
2.365000 0.7500 0.7500 0.7510 0.7510 0.7520
2.390020 0.7530 0.7530 0.7550 0.7550 0.7550
2.415000 0.7550 0.7530 0.7530 0.7530 0.7530
2.440020 0.7530 0.7550 0.7550 0.7570 0.7570
2.465000 0.7600 0.7610 0.7630 0.7660 0.7670
2.490020 0.7680 0.7680 0.7710 0.7720 0.7720
2.515000 0.7720 0.7710 0.7700 0.7680 0.7680
2.540020 0.7680 0.7670 0.7670 0.7680 0.7680
2.565000 0.7700 0.7700 0.7720 0.7720 0.7760
2.590020 0.7760 0.7780 0.7780 0.7780 0.7760
2.615000 0.7750 0.7730 0.7720 0.7710 0.7710
2.640020 0.7710 0.7710 0.7710 0.7710 0.7710
2.665000 0.7720 0.7720 0.7720 0.7730 0.7730
2.690020 0.7730 0.7730 0.7730 0.7730 0.7730
2.715000 0.7720 0.7710 0.7710 0.7700 0.7680
2.740020 0.7670 0.7630 0.7620 0.7600 0.7570
2.765000 0.7560 0.7550 0.7520 0.7520 0.7510
2.790020 0.7510 0.7500 0.7480 0.7460 0.7430
2.815000 0.7420 0.7410 0.7390 0.7390 0.7380
2.840020 0.7380 0.7380 0.7380 0.7380 0.7380
2.865000 0.7390 0.7390 0.7410 0.7410 0.7430
2.890020 0.7440 0.7460 0.7480 0.7510 0.7520
2.915000 0.7550 0.7610 0.7630 0.7660 0.7680
2.940020 0.7700 0.7720 0.7730 0.7770 0.7800
2.965000 0.7850 0.7900 0.7960 0.7980 0.8000
2.990020 0.8020 0.8050 0.8090 0.8110 0.8140
3.015000 0.8150 0.8150 0.8150 0.8160 0.8170
3.040020 0.8170 0.8200 0.8200 0.8220 0.8260
3.065000 0.8310 0.8320 0.8350 0.8360 0.8390
3.090020 0.8410 0.8450 0.8470 0.8500 0.8510
3.115000 0.8540 0.8550 0.8550 0.8550 0.8560
3.140020 0.8560 0.8580 0.8590 0.8590 0.8580
3.165000 0.8530 0.8500 0.8470 0.8420 0.8410
3.190020 0.8410 0.8400 0.8370 0.8290 0.8260
3.216000 0.8160 0.8020 0.7860 0.7720 0.7630
3.241020 0.7510 0.7380 0.7370 0.7380 0.7430
3.266000 0.7520 0.7610 0.7720 0.7820 0.7880
3.291020 0.7910 0.7960 0.7980 0.8000 0.8010
3.316000 0.8040 0.8100 0.8220 0.8400 0.8470
3.341020 0.8550 0.8590 0.8610 0.8630 0.8650
3.366000 0.8650 0.8660 0.8660 0.8680 0.8680
3.391020 0.8680 0.8680 0.8680 0.8680 0.8680
3.416000 0.8680 0.8690 0.8690 0.8700 0.8710
3.441020 0.8750 0.8790 0.8810 0.8830 0.8850
3.466000 0.8860 0.8890 0.8900 0.8910 0.8910
3.491020 0.8930 0.8930 0.8950 0.8950 0.8980
3.516000 0.9020 0.9020 0.9030 0.9030 0.9030
3.541020 0.9030 0.9040 0.9040 0.9040 0.9040
3.566000 0.9050 0.9070 0.9070 0.9070 0.9070
3.591020 0.9070 0.9070 0.9070 0.9070 0.9070
3.616000 0.9070 0.9080 0.9080 0.9080 0.9080
3.641020 0.9080 0.9080 0.9080 0.9080 0.9090
3.666000 0.9100 0.9100 0.9120 0.9120 0.9120
3.691020 0.9130 0.9140 0.9140 0.9150 0.9170
3.716000 0.9170 0.9180 0.9190 0.9190 0.9200
3.741020 0.9200 0.9190 0.9190 0.9180 0.9180
3.766000 0.9180 0.9170 0.9170 0.9150 0.9150
3.791020 0.9140 0.9140 0.9140 0.9140 0.9140
3.816000 0.9140 0.9140 0.9150 0.9150 0.9170
3.841020 0.9170 0.9180 0.9190 0.9190 0.9190
3.866000 0.9190 0.9180 0.9180 0.9180 0.9190
3.891020 0.9220 0.9230 0.9240 0.9240 0.9230
3.916000 0.9230 0.9200 0.9180 0.9170 0.9150
3.941020 0.9140 0.9140 0.9150 0.9170 0.9180
3.966000 0.9200 0.9190 0.9190 0.9170 0.9150
3.991020 0.9150 0.9190 0.9220 0.9230 0.9230
4.016000 0.9220 0.9200 0.9190 0.9200 0.9200
4.041020 0.9200 0.9200 0.9190 0.9190 0.9180
4.066000 0.9180 0.9180 0.9180 0.9180 0.9180
4.091020 0.9190 0.9190 0.9220 0.9200 0.9200
4.116000 0.9180 0.9170 0.9170 0.9190 0.9190
4.141020 0.9190 0.9190 0.9190 0.9180 0.9150
4.166000 0.9130 0.9100 0.9090 0.9080 0.9080
4.191020 0.9090 0.9090 0.9100 0.9120 0.9130
4.216000 0.9140 0.9170 0.9180 0.9190 0.9190
4.241020 0.9200 0.9190 0.9200 0.9200 0.9200
4.266000 0.9200 0.9220 0.9220 0.9220 0.9200
4.291020 0.9200 0.9200 0.9190 0.9190 0.9180
4.316000 0.9150 0.9100 0.9090 0.9090 0.9090
4.341020 0.9090 0.9100 0.9120 0.9130 0.9120
4.366000 0.9090 0.9080 0.9080 0.9070 0.9070
4.391020 0.9070 0.9050 0.9050 0.9050 0.9050
4.416000 0.9050 0.9050 0.9050 0.9070 0.9070
4.441020 0.9080 0.9080 0.9080 0.9090 0.9090
4.466000 0.9090 0.9100 0.9120 0.9130 0.9150
4.491020 0.9170 0.9180 0.9180 0.9190 0.9190
4.516000 0.9190 0.9190 0.9190 0.9190 0.9190
4.541020 0.9190 0.9190 0.9200 0.9200 0.9200
4.566000 0.9200 0.9200 0.9190 0.9190 0.9190
4.591020 0.9190 0.9190 0.9190 0.9190 0.9190
4.616000 0.9190 0.9190 0.9190 0.9190 0.9190
4.641020 0.9190 0.9190 0.9190 0.9190 0.9200
4.666000 0.9200 0.9200 0.9190 0.9190 0.9190
4.691020 0.9190 0.9190 0.9200 0.9200 0.9200
4.716000 0.9200 0.9190 0.9190 0.9200 0.9200
4.741020 0.9220 0.9220 0.9220 0.9220 0.9220
4.766000 0.9220 0.9220 0.9220 0.9220 0.9220
4.791020 0.9220 0.9230 0.9240 0.9240 0.9240
4.816000 0.9240 0.9250 0.9250 0.9270 0.9270
4.841020 0.9280 0.9280 0.9280 0.9280 0.9290
4.866000 0.9290 0.9290 0.9280 0.9270 0.9250
4.891020 0.9240 0.9240 0.9230 0.9220 0.9220
4.916000 0.9220 0.9220 0.9220 0.9220 0.9220
4.941020 0.9220 0.9220 0.9200 0.9200 0.9190
4.966000 0.9170 0.9140 0.9120 0.9100 0.9090
4.991020 0.9080 0.9030 0.9020 0.8990 0.8980
5.016000 0.8960 0.8950 0.8930 0.8910 0.8910
5.041020 0.8910 0.8910 0.8900 0.8900 0.8900
5.066000 0.8910 0.8960 0.9120 0.9190 0.9230
5.091020 0.9250 0.9280 0.9290 0.9290 0.9290
5.116000 0.9290 0.9280 0.9270 0.9270 0.9250
5.141020 0.9240 0.9230 0.9220 0.9200 0.9180
5.166000 0.9130 0.9100 0.9090 0.9080 0.9050
5.191020 0.9020 0.9000 0.8990 0.8990 0.8960
5.216000 0.8950 0.8940 0.8940 0.8940 0.8940
5.241020 0.8940 0.8940 0.8950 0.8990 0.9080
5.266000 0.9120 0.9200 0.9240 0.9280 0.9290
5.291020 0.9300 0.9300 0.9290 0.9290 0.9280
5.316000 0.9280 0.9280 0.9250 0.9240 0.9230
5.341020 0.9220 0.9200 0.9200 0.9190 0.9180
5.366000 0.9130 0.9100 0.9090 0.9070 0.9040
5.391020 0.9030 0.9030 0.9020 0.9020 0.9020
5.416000 0.9020 0.9000 0.9000 0.9000 0.9000
5.441020 0.9000 0.9020 0.9070 0.9100 0.9170
5.466000 0.9200 0.9230 0.9270 0.9290 0.9290
5.491020 0.9300 0.9300 0.9320 0.9320 0.9300
5.516000 0.9290 0.9280 0.9250 0.9230 0.9230
5.541020 0.9220 0.9200 0.9190 0.9180 0.9180
5.566000 0.9170 0.9170 0.9170 0.9170 0.9180
5.591020 0.9180 0.9200 0.9230 0.9230 0.9250
5.617000 0.9250 0.9290 0.9320 0.9330 0.9350
5.642020 0.9340 0.9330 0.9320 0.9300 0.9280
5.667000 0.9250 0.9230 0.9220 0.9220 0.9200
5.692020 0.9200 0.9200 0.9190 0.9190 0.9190
5.717000 0.9190 0.9180 0.9180 0.9180 0.9180
5.742020 0.9170 0.9170 0.9150 0.9150 0.9150
5.767000 0.9150 0.9150 0.9150 0.9150 0.9150
5.792020 0.9170 0.9180 0.9200 0.9220 0.9200
5.817000 0.9190 0.9180 0.9140 0.9120 0.9100
5.842020 0.9100 0.9120 0.9120 0.9100 0.9100
5.867000 0.9100 0.9090 0.9090 0.9090 0.9080
5.892020 0.9070 0.9040 0.9020 0.8990 0.8960
5.917000 0.8950 0.8950 0.8950 0.8940 0.8930
5.942020 0.8930 0.8910 0.8910 0.8900 0.8890
5.967000 0.8890 0.8890 0.8900 0.8900 0.8910
5.992020 0.8930 0.8930 0.8930 0.8930 0.8950
6.017000 0.8950 0.8960 0.8960 0.8980 0.8990
6.042020 0.9000 0.9020 0.9020 0.9020 0.9020
6.067000 0.9000 0.9000 0.9000 0.8990 0.8980
6.092020 0.8980 0.8980 0.8960 0.8960 0.8950
6.117000 0.8950 0.8940 0.8940 0.8930 0.8930
6.142020 0.8900 0.8900 0.8890 0.8880 0.8880
6.167000 0.8890 0.8900 0.8910 0.8930 0.8930
6.192020 0.8930 0.8940 0.8940 0.8930 0.8900
6.217000 0.8900 0.8850 0.8800 0.8750 0.8700
6.242020 0.8610 0.8510 0.8360 0.8200 0.7950
6.267000 0.7650 0.7370 0.7240 0.7240 0.7290
6.292020 0.7700 0.7950 0.8190 0.8400 0.8590
6.317000 0.8760 0.8890 0.8960 0.9040 0.9070
6.342020 0.9080 0.9080 0.9080 0.9070 0.9070
6.367000 0.9080 0.9080 0.9090 0.9140 0.9170
6.392020 0.9180 0.9220 0.9240 0.9250 0.9250
6.417000 0.9250 0.9250 0.9250 0.9240 0.9240
6.442020 0.9230 0.9230 0.9240 0.9240 0.9250
6.467000 0.9250 0.9270 0.9270 0.9270 0.9270
6.492020 0.9270 0.9250 0.9250 0.9240 0.9230
6.517000 0.9230 0.9230 0.9220 0.9220 0.9200
6.542020 0.9190 0.9200 0.9200 0.9200 0.9200
6.567000 0.9200 0.9200 0.9190 0.9190 0.9180
6.592020 0.9180 0.9180 0.9170 0.9150 0.9140
6.617000 0.9140 0.9130 0.9120 0.9100 0.9090
6.642020 0.9090 0.9030 0.9000 0.8980 0.8950
6.667000 0.8860 0.8800 0.8740 0.8640 0.8590
6.692020 0.8510 0.8500 0.8510 0.8590 0.8630
6.717000 0.8700 0.8780 0.8840 0.8930 0.9090
6.742020 0.9150 0.9200 0.9200 0.9220 0.9220
6.767000 0.9220 0.9220 0.9220 0.9220 0.9220
6.792020 0.9250 0.9290 0.9290 0.9290 0.9270
6.817000 0.9240 0.9240 0.9250 0.9270 0.9280
6.842020 0.9290 0.9280 0.9280 0.9240 0.9230
6.867000 0.9220 0.9200 0.9190 0.9190 0.9140
6.892020 0.9120 0.9080 0.9000 0.8950 0.8890
6.917000 0.8600 0.8350 0.7730 0.7160 0.6550
6.942020 0.5890 0.5460 0.5180 0.4790 0.4610
6.967000 0.4400 0.4050 0.3650 0.3650 0.3900
6.992020 0.5110 0.5610 0.6100 0.6570 0.8190
7.017000 0.8690 0.8810 0.9140 0.9250 0.9350
7.042020 0.9400 0.9470 0.9490 0.9490 0.9520
7.067000 0.9560 0.9590 0.9610 0.9660 0.9680
7.092020 0.9680 0.9660 0.9630 0.9620 0.9590
7.117000 0.9590 0.9560 0.9510 0.9480 0.9430
7.142020 0.9420 0.9380 0.9350 0.9320 0.9250
7.167000 0.9220 0.9190 0.9190 0.9180 0.9150
7.192020 0.9120 0.9090 0.9090 0.9070 0.9070
7.217000 0.9070 0.9080 0.9100 0.9130 0.9170
7.242020 0.9220 0.9270 0.9300 0.9320 0.9340
7.267000 0.9340 0.9340 0.9340 0.9340 0.9340
7.292020 0.9340 0.9340 0.9340 0.9350 0.9350
7.317000 0.9350 0.9350 0.9350 0.9350 0.9350
7.342020 0.9350 0.9350 0.9350 0.9350 0.9350
7.367000 0.9350 0.9350 0.9350 0.9350 0.9340
7.392020 0.9340 0.9330 0.9330 0.9330 0.9290
7.417000 0.9250 0.9240 0.9190 0.9050 0.9000
7.442020 0.8990 0.8960 0.8910 0.8900 0.8900
7.467000 0.8910 0.8910 0.8940 0.8940 0.8950
7.492020 0.8950 0.8960 0.8980 0.9020 0.9040
7.517000 0.9050 0.9070 0.9080 0.9090 0.9090
7.542020 0.9090 0.9080 0.9070 0.9020 0.9000
7.567000 0.8990 0.8960 0.8910 0.8860 0.8790
7.592020 0.8710 0.8630 0.8510 0.8490 0.8420
7.617000 0.8360 0.8350 0.8340 0.8350 0.8410
7.642020 0.8500 0.8590 0.8680 0.8780 0.8880
7.667000 0.8960 0.9090 0.9120 0.9140 0.9150
7.692020 0.9170 0.9190 0.9200 0.9200 0.9230
7.717000 0.9230 0.9240 0.9250 0.9250 0.9270
7.742020 0.9280 0.9290 0.9300 0.9300 0.9300
7.767000 0.9320 0.9320 0.9330 0.9330 0.9340
7.792020 0.9340 0.9340 0.9330 0.9320 0.9300
7.817000 0.9290 0.9230 0.9150 0.9080 0.9030
7.842020 0.8980 0.8860 0.8700 0.8500 0.8300
7.867000 0.8210 0.8110 0.7980 0.7970 0.8000
7.892020 0.8070 0.8200 0.8310 0.8410 0.8500
7.917000 0.8600 0.8730 0.8850 0.8940 0.8960
7.942020 0.8990 0.9030 0.9040 0.9050 0.9070
7.967000 0.9120 0.9130 0.9140 0.9140 0.9150
7.992020 0.9170 0.9200 0.9220 0.9230 0.9240
8.018000 0.9270 0.9270 0.9270 0.9270 0.9270
8.043020 0.9280 0.9280 0.9280 0.9280 0.9280
8.068000 0.9290 0.9290 0.9300 0.9300 0.9320
8.093020 0.9320 0.9320 0.9330 0.9330 0.9320
8.118000 0.9300 0.9300 0.9290 0.9290 0.9300
8.143020 0.9300 0.9300 0.9300 0.9320 0.9320
8.168000 0.9320 0.9320 0.9330 0.9330 0.9330
8.193020 0.9330 0.9320 0.9300 0.9290 0.9280
8.218000 0.9280 0.9270 0.9270 0.9250 0.9250
8.243020 0.9240 0.9240 0.9230 0.9220 0.9220
8.268000 0.9200 0.9200 0.9190 0.9190 0.9180
8.293020 0.9180 0.9170 0.9150 0.9140 0.9130
8.318000 0.9100 0.9090 0.9080 0.9070 0.9050
8.343020 0.9020 0.9000 0.8980 0.8910 0.8890
8.368000 0.8860 0.8830 0.8790 0.8750 0.8730
8.393020 0.8710 0.8700 0.8700 0.8730 0.8750
8.418000 0.8800 0.8830 0.8830 0.8850 0.8860
8.443020 0.8890 0.8890 0.8910 0.8930 0.8940
8.468000 0.8950 0.8960 0.8990 0.9040 0.9050
8.493020 0.9050 0.9070 0.9070 0.9050 0.9050
8.518000 0.9040 0.9030 0.9000 0.8990 0.8980
8.543020 0.8930 0.8860 0.8780 0.8660 0.8530
8.568000 0.8460 0.8370 0.8360 0.8350 0.8320
8.593020 0.8310 0.8270 0.8190 0.8060 0.7960
8.618000 0.7930 0.7930 0.7980 0.8040 0.8100
8.643020 0.8290 0.8310 0.8320 0.8320 0.8320
8.668000 0.8310 0.8250 0.8220 0.8170 0.8150
8.693020 0.8120 0.8120 0.8120 0.8120 0.8110
8.718000 0.8110 0.8100 0.8090 0.8040 0.7970
8.743020 0.7910 0.7830 0.7750 0.7650 0.7530
8.768000 0.7390 0.7230 0.7030 0.6820 0.6570
8.793020 0.6280 0.5950 0.5570 0.5260 0.4930
8.818000 0.4590 0.4430 0.4250 0.3890 0.3510
8.843020 0.3140 0.2720 0.2290 0.1770 0.1200
8.868000 0.1110 0.0970 0.0820 0.0650 0.0460
8.893020 0.0460 0.0570 0.0820 0.1000 0.1180
8.918000 0.1310 0.1700 0.2210 0.2680 0.3150
8.943020 0.3610 0.4040 0.4440 0.5180 0.5500
8.968000 0.5560 0.5640 0.5660 0.5640 0.5480
8.993020 0.5480 0.5650 0.5750 0.5960 0.6190
9.018000 0.6400 0.6490 0.6690 0.6970 0.7240
9.043020 0.7480 0.7600 0.7660 0.7710 0.7750
9.068000 0.7800 0.7880 0.7950 0.8000 0.8000
9.093020 0.8090 0.8110 0.8140 0.8150 0.8160
9.118000 0.8170 0.8170 0.8170 0.8190 0.8190
9.143020 0.8200 0.8210 0.8240 0.8270 0.8300
9.168000 0.8350 0.8390 0.8420 0.8470 0.8510
9.193020 0.8540 0.8580 0.8590 0.8640 0.8660
9.218000 0.8680 0.8680 0.8690 0.8700 0.8700
9.243020 0.8740 0.8750 0.8760 0.8780 0.8780
9.268000 0.8790 0.8790 0.8790 0.8780 0.8760
9.293020 0.8750 0.8730 0.8700 0.8650 0.8610
9.318000 0.8550 0.8510 0.8460 0.8420 0.8390
9.343020 0.8350 0.8300 0.8290 0.8270 0.8270
9.368000 0.8290 0.8300 0.8350 0.8450 0.8450
9.393020 0.8500 0.8580 0.8650 0.8690 0.8730
9.418000 0.8780 0.8800 0.8800 0.8810 0.8810
9.443020 0.8830 0.8830 0.8850 0.8860 0.8880
9.468000 0.8890 0.8900 0.8900 0.8900 0.8910
9.493020 0.8910 0.8930 0.8930 0.8930 0.8940
9.518000 0.8950 0.8960 0.8980 0.8990 0.8990
9.543020 0.9000 0.9020 0.9020 0.9030 0.9030
9.568000 0.9040 0.9050 0.9070 0.9070 0.9080
9.593020 0.9090 0.9090 0.9080 0.9070 0.9070
9.618000 0.9040 0.9000 0.8990 0.8980 0.8930
9.643020 0.8900 0.8850 0.8750 0.8690 0.8550
9.668000 0.8440 0.8410 0.8410 0.8440 0.8460
9.693020 0.8500 0.8530 0.8580 0.8640 0.8690
9.718000 0.8690 0.8750 0.8760 0.8850 0.8860
9.743020 0.8900 0.8940 0.8960 0.9030 0.9040
9.768000 0.9050 0.9050 0.9050 0.9070 0.9070
9.793020 0.9080 0.9080 0.9080 0.9080 0.9080
9.818000 0.9080 0.9080 0.9080 0.9080 0.9090
9.843020 0.9090 0.9090 0.9100 0.9120 0.9130
9.868000 0.9140 0.9140 0.9140 0.9140 0.9140
9.893020 0.9140 0.9140 0.9140 0.9130 0.9130
9.918000 0.9130 0.9120 0.9120 0.9100 0.9090
9.943020 0.9050 0.9020 0.8960 0.8860 0.8710
9.968000 0.8530 0.8390 0.8320 0.8190 0.8050
9.993020 0.7880 0.7720 0.7560 0.7390 0.7210
10.018000 0.7210 0.7370 0.7530 0.7680 0.7850
10.043020 0.7930 0.8210 0.8400 0.8550 0.8640
10.068000 0.8730 0.8790 0.8850 0.8900 0.8950
10.093020 0.8980 0.9020 0.9030 0.9030 0.9040
10.118000 0.9040 0.9040 0.9030 0.9030 0.9030
10.143020 0.9030 0.9020 0.9000 0.8990 0.8980
10.168000 0.8960 0.8950 0.8880 0.8840 0.8780
10.193020 0.8760 0.8740 0.8700 0.8690 0.8680
10.218000 0.8680 0.8690 0.8780 0.8860 0.8940
10.243020 0.9070 0.9120 0.9130 0.9170 0.9180
10.268000 0.9190 0.9220 0.9220 0.9240 0.9250
10.293020 0.9250 0.9250 0.9270 0.9280 0.9280
10.318000 0.9290 0.9290 0.9290 0.9300 0.9300
10.343020 0.9300 0.9320 0.9320 0.9320 0.9330
10.368000 0.9330 0.9330 0.9330 0.9330 0.9340
10.393020 0.9340 0.9340 0.9340 0.9340 0.9340
10.419000 0.9340 0.9340 0.9340 0.9340 0.9340
10.444020 0.9340 0.9350 0.9350 0.9370 0.9380
10.469000 0.9380 0.9380 0.9380 0.9380 0.9390
10.494020 0.9390 0.9390 0.9400 0.9400 0.9400
10.519000 0.9420 0.9420 0.9420 0.9420 0.9400
10.544020 0.9390 0.9390 0.9390 0.9390 0.9380
10.569000 0.9370 0.9370 0.9340 0.9340 0.9330
10.594020 0.9340 0.9350 0.9350 0.9380 0.9390
10.619000 0.9420 0.9420 0.9420 0.9430 0.9430
10.644020 0.9420 0.9420 0.9420 0.9420 0.9420
10.669000 0.9430 0.9420 0.9390 0.9390 0.9380
10.694020 0.9380 0.9390 0.9390 0.9390 0.9380
10.719000 0.9370 0.9350 0.9340 0.9340 0.9330
10.744020 0.9330 0.9320 0.9320 0.9320 0.9300
10.769000 0.9290 0.9280 0.9250 0.9200 0.9180
10.794020 0.9150 0.9130 0.9100 0.9080 0.9020
10.819000 0.8990 0.8960 0.8940 0.8940 0.8950
10.844020 0.8990 0.9070 0.9120 0.9170 0.9220
10.869000 0.9250 0.9290 0.9300 0.9320 0.9330
10.894020 0.9340 0.9340 0.9340 0.9350 0.9350
10.919000 0.9350 0.9350 0.9350 0.9370 0.9370
10.944020 0.9390 0.9390 0.9400 0.9400 0.9400
10.969000 0.9400 0.9400 0.9420 0.9420 0.9420
10.994020 0.9430 0.9430 0.9390 0.9380 0.9370
11.019000 0.9370 0.9370 0.9370 0.9380 0.9380
11.044020 0.9380 0.9390 0.9390 0.9390 0.9390
11.069000 0.9390 0.9380 0.9380 0.9370 0.9350
11.094020 0.9350 0.9350 0.9370 0.9370 0.9380
11.119000 0.9380 0.9380 0.9380 0.9380 0.9370
11.144020 0.9350 0.9340 0.9340 0.9340 0.9320
11.169000 0.9320 0.9320 0.9320 0.9320 0.9330
11.194020 0.9330 0.9340 0.9330 0.9330 0.9330
11.219000 0.9320 0.9320 0.9300 0.9290 0.9300
11.244020 0.9330 0.9330 0.9330 0.9330 0.9320
11.269000 0.9320 0.9290 0.9300 0.9300 0.9300
11.294020 0.9290 0.9290 0.9280 0.9280 0.9270
11.319000 0.9270 0.9250 0.9240 0.9230 0.9220
11.344020 0.9200 0.9190 0.9170 0.9150 0.9150
11.369000 0.9140 0.9140 0.9120 0.9100 0.9100
11.394020 0.9090 0.9090 0.9090 0.9090 0.9090
11.419000 0.9090 0.9080 0.9040 0.9040 0.9020
11.444020 0.9000 0.8990 0.8980 0.8960 0.8950
11.469000 0.8940 0.8930 0.8900 0.8860 0.8810
11.494020 0.8760 0.8710 0.8680 0.8630 0.8590
11.519000 0.8550 0.8530 0.8500 0.8470 0.8450
11.544020 0.8420 0.8410 0.8400 0.8390 0.8350
11.569000 0.8310 0.8250 0.8220 0.8210 0.8190
11.594020 0.8150 0.8150 0.8110 0.8050 0.8010
11.619000 0.7970 0.7950 0.7920 0.7920 0.7910
11.644020 0.7900 0.7880 0.7880 0.7880 0.7900
11.669000 0.7900 0.7900 0.7910 0.7910 0.7910
11.694020 0.7910 0.7910 0.7900 0.7900 0.7880
11.719000 0.7880 0.7870 0.7860 0.7850 0.7820
11.744020 0.7800 0.7750 0.7700 0.7650 0.7600
11.769000 0.7550 0.7530 0.7500 0.7430 0.7370
11.794020 0.7280 0.7190 0.7080 0.6950 0.6830
11.819000 0.6690 0.6540 0.6380 0.6210 0.6040
11.844020 0.5900 0.5690 0.5420 0.5120 0.4780
11.869000 0.4610 0.4420 0.4030 0.3630 0.3210
11.894020 0.2810 0.2390 0.2010 0.1640 0.1300
11.919000 0.0990 0.0760 0.0610 0.0550 0.0470
11.944020 0.0460 0.0470 0.0510 0.0570 0.0690
11.969000 0.0820 0.0990 0.1190 0.1400 0.1650
11.994020 0.1920 0.2190 0.2500 0.2780 0.3100
12.019000 0.3400 0.3710 0.4020 0.4300 0.4710
12.044020 0.4880 0.5070 0.5250 0.5410 0.5570
12.069000 0.5720 0.5870 0.6010 0.6160 0.6290
12.094020 0.6410 0.6540 0.6650 0.6750 0.6840
12.119000 0.6920 0.6990 0.7070 0.7140 0.7230
12.144020 0.7310 0.7410 0.7520 0.7630 0.7770
12.169000 0.7870 0.7960 0.8060 0.8150 0.8250
12.194020 0.8340 0.8420 0.8500 0.8580 0.8640
12.219000 0.8680 0.8700 0.8730 0.8750 0.8780
12.244020 0.8810 0.8850 0.8850 0.8860 0.8890
12.269000 0.8890 0.8910 0.8930 0.8930 0.8930
12.294020 0.8940 0.8940 0.8950 0.8960 0.8980
12.319000 0.8990 0.8990 0.8990 0.9000 0.9000
12.344020 0.9020 0.9020 0.9030 0.9030 0.9040
12.369000 0.9050 0.9070 0.9070 0.9080 0.9080
12.394020 0.9090 0.9090 0.9100 0.9100 0.9100
12.419000 0.9100 0.9100 0.9120 0.9120 0.9120
12.444020 0.9120 0.9120 0.9120 0.9130 0.9130
12.469000 0.9130 0.9130 0.9130 0.9140 0.9140
12.494020 0.9140 0.9150 0.9170 0.9170 0.9170
12.519000 0.9170 0.9170 0.9170 0.9170 0.9150
12.544020 0.9130 0.9120 0.9100 0.9090 0.9090
12.569000 0.9080 0.9080 0.9080 0.9080 0.9080
12.594020 0.9080 0.9080 0.9080 0.9070 0.9070
12.619000 0.9070 0.9070 0.9070 0.9050 0.9040
12.644020 0.9040 0.9030 0.9030 0.9020 0.9000
12.669000 0.9000 0.9000 0.8990 0.8990 0.8990
12.694020 0.8990 0.9020 0.9020 0.9020 0.9020
12.719000 0.9020 0.9000 0.9000 0.8990 0.8990
12.744020 0.8980 0.8960 0.8940 0.8940 0.8930
12.769000 0.8930 0.8930 0.8930 0.8930 0.8940
12.794020 0.8940 0.8960 0.8980 0.8990 0.8990
12.820000 0.9000 0.9000 0.9020 0.9000 0.8990
12.845020 0.8990 0.8990 0.8990 0.8990 0.8980
12.870000 0.8980 0.8980 0.8980 0.8990 0.8990
12.895020 0.9000 0.9020 0.9020 0.9000 0.9000
12.920000 0.8990 0.9000 0.8990 0.8990 0.8980
12.945020 0.8960 0.8940 0.8930 0.8910 0.8910
12.970000 0.8900 0.8900 0.8900 0.8930 0.8930
12.995020 0.8930 0.8930 0.8930 0.8910 0.8910
13.020000 0.8900 0.8900 0.8890 0.8890 0.8890
13.045020 0.8860 0.8860 0.8840 0.8840 0.8830
13.070000 0.8830 0.8810 0.8810 0.8800 0.8800
13.095020 0.8790 0.8760 0.8750 0.8710 0.8710
13.120000 0.8700 0.8700 0.8700 0.8690 0.8690
13.145020 0.8690 0.8660 0.8650 0.8650 0.8640
13.170000 0.8630 0.8600 0.8590 0.8560 0.8550
13.195020 0.8540 0.8530 0.8510 0.8500 0.8470
13.220000 0.8450 0.8440 0.8400 0.8320 0.8290
13.245020 0.8240 0.8170 0.8100 0.8010 0.7910
13.270000 0.7800 0.7680 0.7560 0.7430 0.7290
13.295020 0.7140 0.7010 0.6870 0.6730 0.6580
13.320000 0.6440 0.6290 0.6130 0.6010 0.5940
13.345020 0.5920 0.5920 0.5950 0.5990 0.5990
13.370000 0.6010 0.6000 0.5890 0.5820 0.5720
13.395020 0.5670 0.5280 0.5160 0.5110 0.4920
13.420000 0.4720 0.4580 0.4440 0.4100 0.3730
13.445020 0.3350 0.2960 0.2610 0.2310 0.2060
13.470000 0.1900 0.1850 0.1840 0.1870 0.2010
13.495020 0.2190 0.2410 0.2630 0.2880 0.3150
13.520000 0.3420 0.3710 0.4000 0.4300 0.4890
13.545020 0.5180 0.5470 0.5750 0.6000 0.6250
13.570000 0.6480 0.6680 0.6850 0.7020 0.7130
13.595020 0.7220 0.7310 0.7380 0.7460 0.7520
13.620000 0.7580 0.7630 0.7680 0.7720 0.7760
13.645020 0.7780 0.7800 0.7800 0.7800 0.7800
13.670000 0.7780 0.7780 0.7770 0.7730 0.7720
13.695020 0.7700 0.7660 0.7610 0.7560 0.7510
13.720000 0.7470 0.7430 0.7390 0.7320 0.7240
13.745020 0.7170 0.7090 0.7010 0.6880 0.6740
13.770000 0.6570 0.6350 0.6150 0.5940 0.5710
13.795020 0.5500 0.5270 0.5030 0.4780 0.4520
13.820000 0.4380 0.4240 0.3950 0.3640 0.3300
13.845020 0.2950 0.2570 0.2160 0.1920 0.1670
13.870000 0.1380 0.1180 0.0950 0.0940 0.0750
13.895020 0.0650 0.0570 0.0510 0.0480 0.0450
13.920000 0.0410 0.0410 0.0400 0.0400 0.0410
13.945020 0.0430 0.0500 0.0570 0.0670 0.0790
13.970000 0.0940 0.1090 0.1260 0.1460 0.1680
13.995020 0.1900 0.2160 0.2420 0.2700 0.2900
14.020000 0.3100 0.3300 0.3500 0.3690 0.3890
14.045020 0.4070 0.4240 0.4400 0.4710 0.4840
14.070000 0.4960 0.5050 0.5130 0.5180 0.5200
14.095020 0.5200 0.5180 0.5180 0.5160 0.5150
14.120000 0.5100 0.5050 0.4980 0.4890 0.4810
14.145020 0.4710 0.4590 0.4530 0.4470 0.4330
14.170000 0.4190 0.4040 0.3890 0.3730 0.3560
14.195020 0.3400 0.3220 0.3050 0.2870 0.2700
14.220000 0.2510 0.2330 0.2160 0.1980 0.1800
14.245020 0.1630 0.1460 0.1300 0.1160 0.1090
14.270000 0.1010 0.0960 0.0910 0.0900 0.0900
14.295020 0.0910 0.0940 0.0970 0.1000 0.1030
14.320000 0.1080 0.1150 0.1250 0.1360 0.1500
14.345020 0.1650 0.1800 0.1980 0.2170 0.2360
14.370000 0.2560 0.2770 0.2970 0.3170 0.3390
14.395020 0.3590 0.3780 0.3890 0.3940 0.4000
14.420000 0.4770 0.5000 0.5210 0.5410 0.5610
14.445020 0.5800 0.5970 0.6150 0.6310 0.6460
14.470000 0.6600 0.6740 0.6870 0.6990 0.7090
14.495020 0.7190 0.7280 0.7360 0.7430 0.7480
14.520000 0.7520 0.7530 0.7560 0.7620 0.7650
14.545020 0.7660 0.7710 0.7730 0.7760 0.7770
14.570000 0.7780 0.7800 0.7810 0.7810 0.7820
14.595020 0.7820 0.7830 0.7830 0.7830 0.7820
14.620000 0.7810 0.7810 0.7810 0.7800 0.7800
14.645020 0.7780 0.7770 0.7760 0.7750 0.7730
14.670000 0.7730 0.7730 0.7720 0.7720 0.7710
14.695020 0.7710 0.7710 0.7700 0.7680 0.7670
14.720000 0.7660 0.7650 0.7650 0.7630 0.7630
14.745020 0.7620 0.7610 0.7600 0.7600 0.7580
14.770000 0.7570 0.7550 0.7520 0.7510 0.7500
14.795020 0.7480 0.7460 0.7460 0.7440 0.7440
14.820000 0.7430 0.7430 0.7430 0.7430 0.7420
14.845020 0.7420 0.7410 0.7410 0.7390 0.7380
14.870000 0.7370 0.7340 0.7320 0.7290 0.7280
14.895020 0.7260 0.7230 0.7210 0.7180 0.7170
14.920000 0.7160 0.7140 0.7130 0.7120 0.7120
14.945020 0.7110 0.7110 0.7110 0.7090 0.7080
14.970000 0.7070 0.7070 0.7060 0.7030 0.7020
14.995020 0.7010 0.6990 0.6990 0.6980 0.6970
15.020000 0.6980
##END=
