##TITLE=Ammonuim chloride, 2-chloroethyltrimethyl-, hydrated
##JCAMP-DX=4.24
$$ By DXEDIT 1.05 (RS McDonald)
##DATA TYPE=INFRARED SPECTRUM
##CLASS=COBLENTZ III
##ORIGIN=DOW CHEMICAL COMPANY
##OWNER=COPYRIGHT (C) 1988 by COBLENTZ SOCIETY INC.
Collection (C) 2018 copyright by the U.S. Secretary of Commerce
on behalf of the United States of America. All rights reserved.
##DATE=1973/02/22
##CAS NAME=Cyclocel
##CAS REGISTRY NO=39394-21-3
##MOLFORM=C5 H13 Cl2 N  * x H2 O
##MP=240 C (DECOMPOSES)
##SOURCE REFERENCE=COBLENTZ NO. 09706
##$NIST SOURCE=COBLENTZ
##$NIST IMAGE=cob9706
##SPECTROMETER/DATA SYSTEM=DOW KBr FOREPRISM-GRATING
##INSTRUMENT PARAMETERS=BLAZED AT 3.5, 12.0, 20.0 MICRON AND CHANGED AT 5.0, 7.5, 14.9 MICRON
##STATE=SOLID (SPLIT MULL), FLUOROLUBE FOR 3800-1330 CM^-^1, NUJOL FOR 1330-400 CM^-^1
$$ SEE SPECTRUM NO. 9707, 9708 FOR "KBr DISC" RUNS, AND SPECTRUM NO. 9709 FOR "SPLIT MULL" RUN
$$SPECTRAL CONTAMINATION DUE TO H2O AROUND 3400 CM^-^1
##SAMPLING PROCEDURE=TRANSMISSION
##RESOLUTION=2
##DATA PROCESSING=DIGITIZED BY COBLENTZ SOCIETY (BATCH I) FROM HARD COPY
##XUNITS=1/CM
##YUNITS=TRANSMITTANCE
##XFACTOR=1
##YFACTOR=1
##DELTAX=1
##FIRSTX=3798
##LASTX=401
##FIRSTY=0.7471
##MAXX=3798
##MINX=401
##MAXY=0.8716
##MINY=0.083
##NPOINTS=3398
##XYDATA=(X++(Y..Y))
3798.000000 0.7471 0.7471 0.7471 0.7474 0.7476
3793.000000 0.7480 0.7483 0.7485 0.7488 0.7490
3788.000000 0.7493 0.7496 0.7499 0.7501 0.7504
3783.000000 0.7506 0.7508 0.7511 0.7515 0.7517
3778.000000 0.7519 0.7521 0.7522 0.7524 0.7525
3773.000000 0.7526 0.7528 0.7531 0.7533 0.7534
3768.000000 0.7531 0.7537 0.7539 0.7540 0.7542
3763.000000 0.7543 0.7545 0.7546 0.7548 0.7549
3758.000000 0.7550 0.7551 0.7553 0.7554 0.7556
3753.000000 0.7557 0.7558 0.7560 0.7561 0.7561
3748.000000 0.7564 0.7565 0.7567 0.7568 0.7569
3743.000000 0.7571 0.7571 0.7572 0.7575 0.7575
3738.000000 0.7576 0.7576 0.7578 0.7578 0.7578
3733.000000 0.7578 0.7580 0.7580 0.7581 0.7581
3728.000000 0.7582 0.7582 0.7582 0.7580 0.7578
3723.000000 0.7576 0.7575 0.7574 0.7571 0.7568
3718.000000 0.7565 0.7562 0.7561 0.7558 0.7555
3713.000000 0.7551 0.7549 0.7549 0.7549 0.7549
3708.000000 0.7549 0.7549 0.7549 0.7549 0.7549
3703.000000 0.7550 0.7551 0.7553 0.7555 0.7556
3698.000000 0.7558 0.7558 0.7560 0.7561 0.7562
3693.000000 0.7564 0.7565 0.7565 0.7565 0.7565
3688.000000 0.7567 0.7567 0.7567 0.7567 0.7568
3683.000000 0.7568 0.7568 0.7568 0.7568 0.7568
3678.000000 0.7568 0.7567 0.7565 0.7565 0.7564
3673.000000 0.7562 0.7562 0.7561 0.7561 0.7560
3668.000000 0.7558 0.7558 0.7557 0.7556 0.7555
3663.000000 0.7554 0.7554 0.7551 0.7549 0.7546
3658.000000 0.7544 0.7541 0.7539 0.7536 0.7533
3653.000000 0.7530 0.7528 0.7525 0.7522 0.7519
3648.000000 0.7517 0.7514 0.7511 0.7508 0.7507
3643.000000 0.7504 0.7501 0.7498 0.7496 0.7493
3638.000000 0.7491 0.7486 0.7482 0.7476 0.7472
3633.000000 0.7468 0.7462 0.7458 0.7454 0.7449
3628.000000 0.7445 0.7440 0.7436 0.7431 0.7426
3623.000000 0.7421 0.7417 0.7411 0.7405 0.7399
3618.000000 0.7394 0.7388 0.7383 0.7376 0.7371
3613.000000 0.7365 0.7360 0.7354 0.7349 0.7343
3608.000000 0.7338 0.7332 0.7325 0.7319 0.7315
3603.000000 0.7308 0.7301 0.7294 0.7287 0.7278
3598.000000 0.7271 0.7265 0.7258 0.7250 0.7243
3593.000000 0.7236 0.7228 0.7221 0.7215 0.7207
3588.000000 0.7200 0.7193 0.7186 0.7178 0.7171
3583.000000 0.7162 0.7155 0.7147 0.7139 0.7131
3578.000000 0.7122 0.7115 0.7107 0.7099 0.7091
3573.000000 0.7082 0.7074 0.7065 0.7058 0.7050
3568.000000 0.7042 0.7031 0.7021 0.7008 0.6998
3563.000000 0.6986 0.6975 0.6962 0.6951 0.6940
3558.000000 0.6928 0.6917 0.6906 0.6894 0.6883
3553.000000 0.6871 0.6860 0.6847 0.6834 0.6821
3548.000000 0.6808 0.6795 0.6782 0.6768 0.6755
3543.000000 0.6742 0.6728 0.6715 0.6703 0.6688
3538.000000 0.6674 0.6658 0.6642 0.6625 0.6610
3533.000000 0.6594 0.6578 0.6561 0.6546 0.6530
3528.000000 0.6514 0.6498 0.6482 0.6465 0.6448
3523.000000 0.6430 0.6412 0.6395 0.6378 0.6360
3518.000000 0.6343 0.6325 0.6308 0.6290 0.6273
3513.000000 0.6255 0.6238 0.6220 0.6203 0.6185
3508.000000 0.6168 0.6150 0.6133 0.6117 0.6101
3503.000000 0.6086 0.6072 0.6057 0.6043 0.6028
3498.000000 0.6014 0.6000 0.5986 0.5971 0.5957
3493.000000 0.5942 0.5928 0.5915 0.5902 0.5889
3488.000000 0.5876 0.5862 0.5850 0.5836 0.5823
3483.000000 0.5810 0.5797 0.5785 0.5773 0.5764
3478.000000 0.5755 0.5746 0.5738 0.5729 0.5721
3473.000000 0.5712 0.5703 0.5694 0.5686 0.5677
3468.000000 0.5668 0.5659 0.5651 0.5643 0.5635
3463.000000 0.5628 0.5621 0.5612 0.5606 0.5598
3458.000000 0.5591 0.5583 0.5576 0.5568 0.5560
3453.000000 0.5554 0.5547 0.5539 0.5532 0.5524
3448.000000 0.5517 0.5510 0.5505 0.5500 0.5496
3443.000000 0.5491 0.5487 0.5482 0.5478 0.5473
3438.000000 0.5469 0.5464 0.5460 0.5455 0.5451
3433.000000 0.5446 0.5442 0.5437 0.5433 0.5429
3428.000000 0.5425 0.5421 0.5417 0.5412 0.5410
3423.000000 0.5406 0.5402 0.5398 0.5395 0.5391
3418.000000 0.5387 0.5383 0.5380 0.5376 0.5372
3413.000000 0.5368 0.5365 0.5362 0.5359 0.5356
3408.000000 0.5354 0.5351 0.5348 0.5345 0.5342
3403.000000 0.5339 0.5336 0.5333 0.5330 0.5327
3398.000000 0.5324 0.5324 0.5324 0.5325 0.5326
3393.000000 0.5327 0.5328 0.5329 0.5330 0.5331
3388.000000 0.5333 0.5335 0.5337 0.5339 0.5342
3383.000000 0.5344 0.5346 0.5348 0.5351 0.5354
3378.000000 0.5357 0.5360 0.5366 0.5370 0.5374
3373.000000 0.5378 0.5383 0.5387 0.5391 0.5395
3368.000000 0.5400 0.5404 0.5408 0.5414 0.5421
3363.000000 0.5427 0.5433 0.5439 0.5445 0.5451
3358.000000 0.5458 0.5464 0.5470 0.5476 0.5483
3353.000000 0.5489 0.5495 0.5501 0.5507 0.5512
3348.000000 0.5520 0.5528 0.5536 0.5545 0.5554
3343.000000 0.5562 0.5572 0.5580 0.5589 0.5598
3338.000000 0.5607 0.5616 0.5625 0.5633 0.5642
3333.000000 0.5651 0.5660 0.5675 0.5689 0.5703
3328.000000 0.5717 0.5731 0.5746 0.5760 0.5774
3323.000000 0.5788 0.5802 0.5816 0.5831 0.5845
3318.000000 0.5859 0.5873 0.5887 0.5901 0.5916
3313.000000 0.5930 0.5944 0.5956 0.5968 0.5979
3308.000000 0.5990 0.6001 0.6012 0.6024 0.6036
3303.000000 0.6047 0.6059 0.6070 0.6082 0.6093
3298.000000 0.6105 0.6116 0.6128 0.6137 0.6147
3293.000000 0.6156 0.6166 0.6175 0.6184 0.6193
3288.000000 0.6203 0.6212 0.6221 0.6230 0.6240
3283.000000 0.6249 0.6259 0.6268 0.6277 0.6286
3278.000000 0.6296 0.6305 0.6314 0.6323 0.6333
3273.000000 0.6342 0.6352 0.6360 0.6370 0.6378
3268.000000 0.6387 0.6395 0.6404 0.6411 0.6421
3263.000000 0.6428 0.6438 0.6446 0.6455 0.6462
3258.000000 0.6471 0.6478 0.6488 0.6496 0.6505
3253.000000 0.6512 0.6521 0.6530 0.6539 0.6547
3248.000000 0.6556 0.6564 0.6572 0.6581 0.6590
3243.000000 0.6598 0.6606 0.6612 0.6621 0.6628
3238.000000 0.6636 0.6643 0.6650 0.6657 0.6665
3233.000000 0.6671 0.6680 0.6687 0.6694 0.6701
3228.000000 0.6708 0.6715 0.6724 0.6731 0.6738
3223.000000 0.6745 0.6751 0.6758 0.6765 0.6771
3218.000000 0.6778 0.6786 0.6793 0.6799 0.6806
3213.000000 0.6812 0.6819 0.6825 0.6833 0.6840
3208.000000 0.6847 0.6853 0.6860 0.6865 0.6872
3203.000000 0.6878 0.6886 0.6892 0.6899 0.6905
3198.000000 0.6911 0.6918 0.6925 0.6931 0.6938
3193.000000 0.6944 0.6950 0.6955 0.6960 0.6965
3188.000000 0.6969 0.6975 0.6980 0.6984 0.6989
3183.000000 0.6992 0.6996 0.6997 0.6998 0.6999
3178.000000 0.7001 0.7001 0.7003 0.7004 0.7005
3173.000000 0.7005 0.7006 0.7006 0.7006 0.7006
3168.000000 0.7006 0.7006 0.7007 0.7007 0.7007
3163.000000 0.7007 0.7006 0.7006 0.7005 0.7003
3158.000000 0.7018 0.6999 0.6998 0.6996 0.6994
3153.000000 0.6989 0.6985 0.6980 0.6975 0.6968
3148.000000 0.6964 0.6957 0.6950 0.6940 0.6931
3143.000000 0.6919 0.6910 0.6897 0.6884 0.6871
3138.000000 0.6858 0.6847 0.6837 0.6825 0.6815
3133.000000 0.6805 0.6795 0.6785 0.6775 0.6765
3128.000000 0.6755 0.6745 0.6735 0.6725 0.6715
3123.000000 0.6706 0.6697 0.6688 0.6678 0.6669
3118.000000 0.6661 0.6648 0.6635 0.6625 0.6618
3113.000000 0.6614 0.6611 0.6608 0.6605 0.6601
3108.000000 0.6600 0.6597 0.6595 0.6593 0.6591
3103.000000 0.6589 0.6587 0.6587 0.6587 0.6587
3098.000000 0.6587 0.6587 0.6587 0.6587 0.6587
3093.000000 0.6587 0.6587 0.6586 0.6586 0.6585
3088.000000 0.6585 0.6585 0.6585 0.6584 0.6584
3083.000000 0.6583 0.6583 0.6583 0.6583 0.6582
3078.000000 0.6582 0.6581 0.6580 0.6578 0.6578
3073.000000 0.6576 0.6575 0.6575 0.6574 0.6572
3068.000000 0.6571 0.6569 0.6568 0.6565 0.6564
3063.000000 0.6561 0.6558 0.6556 0.6554 0.6550
3058.000000 0.6547 0.6543 0.6539 0.6535 0.6531
3053.000000 0.6524 0.6518 0.6508 0.6501 0.6492
3048.000000 0.6484 0.6474 0.6465 0.6455 0.6445
3043.000000 0.6434 0.6424 0.6408 0.6393 0.6372
3038.000000 0.6351 0.6324 0.6298 0.6271 0.6244
3033.000000 0.6195 0.6147 0.6093 0.6039 0.5973
3028.000000 0.5908 0.5828 0.5748 0.5612 0.5478
3023.000000 0.5310 0.5144 0.4986 0.4828 0.4097
3018.000000 0.3366 0.2967 0.2569 0.2171 0.1773
3013.000000 0.1374 0.0830 0.0907 0.0839 0.0835
3008.000000 0.0832 0.0837 0.0842 0.0912 0.0982
3003.000000 0.1237 0.1492 0.1745 0.2001 0.2256
2998.000000 0.2511 0.2765 0.3020 0.3275 0.3530
2993.000000 0.3710 0.3912 0.3890 0.3888 0.3859
2988.000000 0.3832 0.3704 0.3576 0.3448 0.3321
2983.000000 0.3193 0.3065 0.2937 0.2809 0.2681
2978.000000 0.2553 0.2437 0.2321 0.2321 0.2346
2973.000000 0.2414 0.2508 0.2627 0.2747 0.2866
2968.000000 0.2984 0.3104 0.3224 0.3343 0.3462
2963.000000 0.3707 0.3953 0.4014 0.4075 0.4137
2958.000000 0.4200 0.4253 0.4307 0.4348 0.4389
2953.000000 0.4430 0.4471 0.4509 0.4548 0.4586
2948.000000 0.4625 0.4667 0.4710 0.4754 0.4798
2943.000000 0.4839 0.4880 0.4905 0.4931 0.4956
2938.000000 0.4982 0.5007 0.5033 0.5058 0.5084
2933.000000 0.5104 0.5124 0.5144 0.5164 0.5183
2928.000000 0.5203 0.5217 0.5231 0.5245 0.5259
2923.000000 0.5268 0.5277 0.5284 0.5291 0.5298
2918.000000 0.5305 0.5310 0.5318 0.5325 0.5332
2913.000000 0.5342 0.5353 0.5365 0.5378 0.5391
2908.000000 0.5404 0.5416 0.5429 0.5442 0.5455
2903.000000 0.5470 0.5486 0.5502 0.5518 0.5534
2898.000000 0.5550 0.5566 0.5583 0.5600 0.5617
2893.000000 0.5637 0.5658 0.5678 0.5699 0.5719
2888.000000 0.5739 0.5759 0.5780 0.5800 0.5821
2883.000000 0.5840 0.5860 0.5878 0.5897 0.5915
2878.000000 0.5934 0.5952 0.5971 0.5989 0.6008
2873.000000 0.6027 0.6046 0.6064 0.6083 0.6103
2868.000000 0.6123 0.6147 0.6172 0.6196 0.6220
2863.000000 0.6244 0.6269 0.6290 0.6310 0.6329
2858.000000 0.6347 0.6351 0.6356 0.6359 0.6362
2853.000000 0.6370 0.6378 0.6386 0.6394 0.6401
2848.000000 0.6410 0.6425 0.6440 0.6458 0.6478
2843.000000 0.6506 0.6534 0.6558 0.6584 0.6605
2838.000000 0.6625 0.6635 0.6645 0.6651 0.6658
2833.000000 0.6658 0.6660 0.6658 0.6658 0.6655
2828.000000 0.6653 0.6643 0.6633 0.6622 0.6612
2823.000000 0.6610 0.6607 0.6604 0.6601 0.6601
2818.000000 0.6601 0.6601 0.6601 0.6612 0.6624
2813.000000 0.6642 0.6661 0.6680 0.6700 0.6715
2808.000000 0.6733 0.6749 0.6765 0.6775 0.6786
2803.000000 0.6796 0.6807 0.6810 0.6814 0.6817
2798.000000 0.6821 0.6821 0.6821 0.6821 0.6818
2793.000000 0.6815 0.6811 0.6812 0.6815 0.6817
2788.000000 0.6818 0.6821 0.6822 0.6824 0.6825
2783.000000 0.6825 0.6825 0.6825 0.6822 0.6818
2778.000000 0.6814 0.6808 0.6805 0.6798 0.6791
2773.000000 0.6783 0.6775 0.6768 0.6761 0.6751
2768.000000 0.6743 0.6733 0.6722 0.6712 0.6703
2763.000000 0.6693 0.6683 0.6672 0.6662 0.6651
2758.000000 0.6642 0.6630 0.6618 0.6607 0.6595
2753.000000 0.6588 0.6581 0.6575 0.6569 0.6581
2748.000000 0.6592 0.6600 0.6608 0.6611 0.6615
2743.000000 0.6618 0.6621 0.6625 0.6628 0.6631
2738.000000 0.6634 0.6635 0.6636 0.6636 0.6637
2733.000000 0.6637 0.6638 0.6639 0.6640 0.6642
2728.000000 0.6645 0.6649 0.6654 0.6658 0.6664
2723.000000 0.6668 0.6672 0.6676 0.6682 0.6687
2718.000000 0.6692 0.6696 0.6701 0.6706 0.6711
2713.000000 0.6715 0.6719 0.6725 0.6730 0.6735
2708.000000 0.6741 0.6746 0.6751 0.6757 0.6762
2703.000000 0.6768 0.6774 0.6778 0.6785 0.6790
2698.000000 0.6796 0.6801 0.6807 0.6811 0.6818
2693.000000 0.6822 0.6828 0.6834 0.6840 0.6845
2688.000000 0.6851 0.6856 0.6861 0.6869 0.6878
2683.000000 0.6886 0.6894 0.6901 0.6911 0.6918
2678.000000 0.6926 0.6935 0.6943 0.6951 0.6960
2673.000000 0.6968 0.6975 0.6984 0.6992 0.7000
2668.000000 0.7008 0.7015 0.7025 0.7032 0.7040
2663.000000 0.7048 0.7056 0.7062 0.7071 0.7078
2658.000000 0.7086 0.7093 0.7101 0.7108 0.7117
2653.000000 0.7122 0.7130 0.7133 0.7137 0.7140
2648.000000 0.7144 0.7147 0.7150 0.7153 0.7157
2643.000000 0.7160 0.7164 0.7167 0.7169 0.7171
2638.000000 0.7174 0.7175 0.7178 0.7181 0.7184
2633.000000 0.7186 0.7188 0.7190 0.7193 0.7195
2628.000000 0.7198 0.7199 0.7201 0.7201 0.7204
2623.000000 0.7205 0.7207 0.7208 0.7210 0.7211
2618.000000 0.7212 0.7214 0.7215 0.7215 0.7218
2613.000000 0.7218 0.7221 0.7221 0.7221 0.7221
2608.000000 0.7222 0.7222 0.7224 0.7224 0.7225
2603.000000 0.7225 0.7225 0.7225 0.7225 0.7226
2598.000000 0.7228 0.7232 0.7235 0.7238 0.7241
2593.000000 0.7244 0.7247 0.7250 0.7253 0.7256
2588.000000 0.7258 0.7261 0.7264 0.7265 0.7267
2583.000000 0.7268 0.7271 0.7271 0.7274 0.7275
2578.000000 0.7276 0.7278 0.7281 0.7282 0.7284
2573.000000 0.7285 0.7287 0.7287 0.7287 0.7287
2568.000000 0.7287 0.7287 0.7287 0.7287 0.7287
2563.000000 0.7287 0.7287 0.7286 0.7286 0.7286
2558.000000 0.7286 0.7286 0.7286 0.7288 0.7291
2553.000000 0.7294 0.7298 0.7301 0.7305 0.7308
2548.000000 0.7311 0.7315 0.7318 0.7319 0.7321
2543.000000 0.7322 0.7325 0.7326 0.7328 0.7330
2538.000000 0.7332 0.7333 0.7335 0.7335 0.7335
2533.000000 0.7334 0.7333 0.7332 0.7332 0.7333
2528.000000 0.7334 0.7336 0.7338 0.7339 0.7341
2523.000000 0.7350 0.7360 0.7371 0.7382 0.7393
2518.000000 0.7404 0.7418 0.7433 0.7437 0.7442
2513.000000 0.7443 0.7444 0.7444 0.7444 0.7443
2508.000000 0.7441 0.7439 0.7437 0.7428 0.7419
2503.000000 0.7407 0.7395 0.7387 0.7380 0.7371
2498.000000 0.7364 0.7362 0.7362 0.7365 0.7369
2493.000000 0.7372 0.7375 0.7381 0.7386 0.7393
2488.000000 0.7400 0.7406 0.7412 0.7419 0.7426
2483.000000 0.7434 0.7441 0.7449 0.7458 0.7467
2478.000000 0.7475 0.7484 0.7493 0.7501 0.7511
2473.000000 0.7518 0.7528 0.7536 0.7545 0.7554
2468.000000 0.7562 0.7571 0.7582 0.7591 0.7601
2463.000000 0.7610 0.7619 0.7630 0.7640 0.7649
2458.000000 0.7658 0.7668 0.7676 0.7686 0.7696
2453.000000 0.7705 0.7715 0.7722 0.7732 0.7739
2448.000000 0.7747 0.7754 0.7761 0.7768 0.7776
2443.000000 0.7784 0.7792 0.7798 0.7805 0.7808
2438.000000 0.7812 0.7817 0.7821 0.7825 0.7828
2433.000000 0.7832 0.7835 0.7837 0.7840 0.7842
2428.000000 0.7845 0.7847 0.7849 0.7850 0.7851
2423.000000 0.7853 0.7855 0.7856 0.7858 0.7858
2418.000000 0.7861 0.7861 0.7864 0.7864 0.7864
2413.000000 0.7864 0.7864 0.7864 0.7864 0.7865
2408.000000 0.7868 0.7871 0.7875 0.7878 0.7882
2403.000000 0.7885 0.7888 0.7891 0.7894 0.7897
2398.000000 0.7901 0.7905 0.7910 0.7914 0.7918
2393.000000 0.7922 0.7926 0.7933 0.7939 0.7945
2388.000000 0.7951 0.7958 0.7964 0.7969 0.7975
2383.000000 0.7981 0.7987 0.7993 0.7999 0.8004
2378.000000 0.8010 0.8015 0.8021 0.8025 0.8032
2373.000000 0.8038 0.8044 0.8049 0.8055 0.8058
2368.000000 0.8062 0.8064 0.8065 0.8067 0.8068
2363.000000 0.8071 0.8072 0.8074 0.8075 0.8076
2358.000000 0.8078 0.8081 0.8083 0.8084 0.8086
2353.000000 0.8086 0.8087 0.8087 0.8088 0.8088
2348.000000 0.8089 0.8089 0.8090 0.8090 0.8091
2343.000000 0.8091 0.8092 0.8092 0.8093 0.8094
2338.000000 0.8095 0.8095 0.8096 0.8096 0.8097
2333.000000 0.8097 0.8098 0.8098 0.8098 0.8098
2328.000000 0.8098 0.8097 0.8097 0.8096 0.8096
2323.000000 0.8096 0.8096 0.8095 0.8095 0.8094
2318.000000 0.8094 0.8093 0.8093 0.8093 0.8093
2313.000000 0.8092 0.8092 0.8091 0.8091 0.8090
2308.000000 0.8090 0.8089 0.8089 0.8088 0.8087
2303.000000 0.8086 0.8085 0.8084 0.8083 0.8082
2298.000000 0.8081 0.8080 0.8078 0.8078 0.8076
2293.000000 0.8075 0.8075 0.8072 0.8071 0.8071
2288.000000 0.8071 0.8071 0.8074 0.8075 0.8075
2283.000000 0.8076 0.8078 0.8080 0.8081 0.8082
2278.000000 0.8084 0.8086 0.8089 0.8093 0.8097
2273.000000 0.8101 0.8105 0.8108 0.8112 0.8117
2268.000000 0.8121 0.8125 0.8128 0.8133 0.8137
2263.000000 0.8141 0.8145 0.8149 0.8153 0.8157
2258.000000 0.8161 0.8165 0.8168 0.8171 0.8175
2253.000000 0.8180 0.8184 0.8187 0.8191 0.8194
2248.000000 0.8197 0.8200 0.8204 0.8207 0.8211
2243.000000 0.8214 0.8218 0.8221 0.8224 0.8227
2238.000000 0.8231 0.8234 0.8238 0.8241 0.8244
2233.000000 0.8247 0.8251 0.8254 0.8258 0.8261
2228.000000 0.8265 0.8267 0.8270 0.8271 0.8275
2223.000000 0.8278 0.8281 0.8283 0.8286 0.8288
2218.000000 0.8291 0.8293 0.8296 0.8298 0.8301
2213.000000 0.8303 0.8306 0.8308 0.8311 0.8314
2208.000000 0.8317 0.8318 0.8321 0.8324 0.8327
2203.000000 0.8328 0.8332 0.8334 0.8337 0.8338
2198.000000 0.8340 0.8341 0.8343 0.8344 0.8346
2193.000000 0.8347 0.8349 0.8350 0.8351 0.8352
2188.000000 0.8354 0.8355 0.8357 0.8358 0.8360
2183.000000 0.8361 0.8363 0.8364 0.8364 0.8364
2178.000000 0.8364 0.8364 0.8364 0.8363 0.8363
2173.000000 0.8362 0.8362 0.8362 0.8362 0.8361
2168.000000 0.8361 0.8361 0.8361 0.8361 0.8361
2163.000000 0.8361 0.8361 0.8361 0.8362 0.8362
2158.000000 0.8363 0.8363 0.8363 0.8364 0.8365
2153.000000 0.8366 0.8367 0.8368 0.8368 0.8370
2148.000000 0.8371 0.8371 0.8373 0.8374 0.8375
2143.000000 0.8375 0.8377 0.8378 0.8378 0.8380
2138.000000 0.8381 0.8382 0.8383 0.8383 0.8384
2133.000000 0.8385 0.8386 0.8387 0.8388 0.8389
2128.000000 0.8390 0.8391 0.8392 0.8393 0.8394
2123.000000 0.8395 0.8397 0.8398 0.8400 0.8401
2118.000000 0.8403 0.8404 0.8406 0.8407 0.8409
2113.000000 0.8410 0.8412 0.8413 0.8415 0.8416
2108.000000 0.8418 0.8418 0.8421 0.8421 0.8424
2103.000000 0.8425 0.8428 0.8428 0.8431 0.8433
2098.000000 0.8435 0.8437 0.8439 0.8440 0.8442
2093.000000 0.8444 0.8446 0.8447 0.8449 0.8451
2088.000000 0.8453 0.8455 0.8457 0.8458 0.8460
2083.000000 0.8462 0.8464 0.8466 0.8468 0.8468
2078.000000 0.8471 0.8473 0.8475 0.8478 0.8480
2073.000000 0.8482 0.8484 0.8486 0.8488 0.8490
2068.000000 0.8492 0.8494 0.8497 0.8499 0.8501
2063.000000 0.8503 0.8505 0.8507 0.8509 0.8512
2058.000000 0.8515 0.8518 0.8521 0.8525 0.8528
2053.000000 0.8531 0.8535 0.8538 0.8542 0.8545
2048.000000 0.8548 0.8551 0.8555 0.8558 0.8561
2043.000000 0.8564 0.8568 0.8571 0.8575 0.8578
2038.000000 0.8581 0.8584 0.8588 0.8591 0.8594
2033.000000 0.8597 0.8600 0.8603 0.8607 0.8610
2028.000000 0.8613 0.8616 0.8618 0.8621 0.8625
2023.000000 0.8628 0.8632 0.8635 0.8638 0.8641
2018.000000 0.8645 0.8648 0.8651 0.8654 0.8658
2013.000000 0.8661 0.8664 0.8665 0.8667 0.8668
2008.000000 0.8670 0.8671 0.8673 0.8674 0.8675
2003.000000 0.8677 0.8678 0.8680 0.8681 0.8682
1998.000000 0.8683 0.8684 0.8684 0.8685 0.8685
1993.000000 0.8686 0.8687 0.8687 0.8688 0.8688
1988.000000 0.8689 0.8689 0.8690 0.8691 0.8691
1983.000000 0.8692 0.8692 0.8693 0.8693 0.8694
1978.000000 0.8695 0.8695 0.8695 0.8696 0.8696
1973.000000 0.8696 0.8696 0.8696 0.8697 0.8697
1968.000000 0.8697 0.8697 0.8697 0.8698 0.8698
1963.000000 0.8698 0.8698 0.8698 0.8698 0.8699
1958.000000 0.8699 0.8699 0.8699 0.8699 0.8699
1953.000000 0.8699 0.8699 0.8698 0.8698 0.8697
1948.000000 0.8697 0.8696 0.8696 0.8695 0.8695
1943.000000 0.8695 0.8695 0.8695 0.8694 0.8694
1938.000000 0.8694 0.8694 0.8694 0.8694 0.8694
1933.000000 0.8694 0.8694 0.8694 0.8694 0.8694
1928.000000 0.8694 0.8694 0.8694 0.8694 0.8694
1923.000000 0.8695 0.8695 0.8695 0.8695 0.8695
1918.000000 0.8695 0.8695 0.8697 0.8698 0.8699
1913.000000 0.8700 0.8702 0.8703 0.8704 0.8706
1908.000000 0.8707 0.8708 0.8710 0.8711 0.8712
1903.000000 0.8714 0.8715 0.8715 0.8715 0.8715
1898.000000 0.8715 0.8715 0.8716 0.8716 0.8716
1893.000000 0.8716 0.8716 0.8716 0.8716 0.8716
1888.000000 0.8716 0.8716 0.8716 0.8716 0.8716
1883.000000 0.8716 0.8716 0.8716 0.8716 0.8716
1878.000000 0.8716 0.8716 0.8716 0.8715 0.8715
1873.000000 0.8715 0.8715 0.8715 0.8715 0.8715
1868.000000 0.8715 0.8714 0.8714 0.8714 0.8714
1863.000000 0.8712 0.8708 0.8704 0.8700 0.8697
1858.000000 0.8693 0.8689 0.8685 0.8681 0.8677
1853.000000 0.8673 0.8670 0.8666 0.8662 0.8658
1848.000000 0.8654 0.8649 0.8643 0.8637 0.8632
1843.000000 0.8625 0.8621 0.8615 0.8610 0.8605
1838.000000 0.8600 0.8594 0.8589 0.8583 0.8575
1833.000000 0.8568 0.8561 0.8554 0.8546 0.8539
1828.000000 0.8532 0.8525 0.8518 0.8511 0.8504
1823.000000 0.8498 0.8491 0.8488 0.8485 0.8482
1818.000000 0.8478 0.8475 0.8473 0.8470 0.8467
1813.000000 0.8463 0.8460 0.8457 0.8453 0.8450
1808.000000 0.8446 0.8443 0.8439 0.8436 0.8432
1803.000000 0.8431 0.8431 0.8431 0.8431 0.8431
1798.000000 0.8431 0.8430 0.8430 0.8430 0.8430
1793.000000 0.8430 0.8430 0.8430 0.8430 0.8433
1788.000000 0.8435 0.8438 0.8440 0.8443 0.8445
1783.000000 0.8448 0.8450 0.8453 0.8455 0.8458
1778.000000 0.8460 0.8463 0.8465 0.8468 0.8471
1773.000000 0.8475 0.8480 0.8484 0.8487 0.8491
1768.000000 0.8495 0.8499 0.8503 0.8507 0.8510
1763.000000 0.8514 0.8518 0.8521 0.8525 0.8530
1758.000000 0.8534 0.8539 0.8543 0.8548 0.8552
1753.000000 0.8557 0.8561 0.8564 0.8567 0.8570
1748.000000 0.8571 0.8575 0.8578 0.8578 0.8578
1743.000000 0.8578 0.8578 0.8578 0.8577 0.8577
1738.000000 0.8575 0.8575 0.8575 0.8574 0.8574
1733.000000 0.8573 0.8573 0.8571 0.8571 0.8571
1728.000000 0.8570 0.8568 0.8568 0.8568 0.8567
1723.000000 0.8567 0.8567 0.8567 0.8568 0.8568
1718.000000 0.8568 0.8570 0.8571 0.8571 0.8571
1713.000000 0.8571 0.8571 0.8571 0.8571 0.8571
1708.000000 0.8571 0.8571 0.8571 0.8571 0.8571
1703.000000 0.8573 0.8574 0.8575 0.8575 0.8577
1698.000000 0.8577 0.8577 0.8575 0.8575 0.8575
1693.000000 0.8575 0.8574 0.8574 0.8571 0.8568
1688.000000 0.8565 0.8562 0.8559 0.8556 0.8553
1683.000000 0.8549 0.8543 0.8537 0.8531 0.8525
1678.000000 0.8518 0.8509 0.8497 0.8485 0.8471
1673.000000 0.8448 0.8421 0.8386 0.8351 0.8316
1668.000000 0.8281 0.8235 0.8186 0.8144 0.8048
1663.000000 0.8061 0.8058 0.8055 0.8056 0.8057
1658.000000 0.8058 0.8075 0.8103 0.8132 0.8158
1653.000000 0.8183 0.8195 0.8201 0.8207 0.8212
1648.000000 0.8217 0.8221 0.8225 0.8231 0.8236
1643.000000 0.8241 0.8246 0.8250 0.8255 0.8260
1638.000000 0.8265 0.8270 0.8280 0.8290 0.8299
1633.000000 0.8309 0.8318 0.8328 0.8338 0.8348
1628.000000 0.8358 0.8366 0.8374 0.8382 0.8389
1623.000000 0.8397 0.8404 0.8412 0.8418 0.8427
1618.000000 0.8434 0.8442 0.8448 0.8454 0.8460
1613.000000 0.8466 0.8471 0.8477 0.8483 0.8489
1608.000000 0.8494 0.8499 0.8502 0.8505 0.8508
1603.000000 0.8511 0.8514 0.8517 0.8520 0.8523
1598.000000 0.8525 0.8525 0.8525 0.8527 0.8527
1593.000000 0.8527 0.8528 0.8528 0.8528 0.8528
1588.000000 0.8528 0.8528 0.8530 0.8530 0.8530
1583.000000 0.8530 0.8530 0.8530 0.8528 0.8528
1578.000000 0.8527 0.8525 0.8525 0.8524 0.8523
1573.000000 0.8521 0.8521 0.8520 0.8518 0.8518
1568.000000 0.8517 0.8516 0.8515 0.8514 0.8513
1563.000000 0.8512 0.8511 0.8510 0.8509 0.8508
1558.000000 0.8507 0.8505 0.8503 0.8501 0.8498
1553.000000 0.8496 0.8493 0.8488 0.8483 0.8478
1548.000000 0.8473 0.8468 0.8464 0.8459 0.8454
1543.000000 0.8449 0.8442 0.8435 0.8428 0.8421
1538.000000 0.8415 0.8405 0.8395 0.8385 0.8375
1533.000000 0.8365 0.8348 0.8328 0.8310 0.8290
1528.000000 0.8262 0.8234 0.8208 0.8187 0.8167
1523.000000 0.8146 0.8119 0.8093 0.8065 0.8035
1518.000000 0.7999 0.7964 0.7915 0.7851 0.7786
1513.000000 0.7718 0.7644 0.7568 0.7469 0.7367
1508.000000 0.7231 0.7090 0.6907 0.6574 0.6362
1503.000000 0.6066 0.5886 0.5494 0.5001 0.4508
1498.000000 0.4357 0.4244 0.4121 0.3975 0.3732
1493.000000 0.3323 0.2913 0.2503 0.2093 0.1644
1488.000000 0.1626 0.1641 0.1669 0.1704 0.1799
1483.000000 0.1946 0.2053 0.2152 0.2260 0.2384
1478.000000 0.2563 0.2726 0.2880 0.3057 0.3234
1473.000000 0.3412 0.3590 0.3768 0.3946 0.4123
1468.000000 0.4301 0.4478 0.4656 0.4834 0.5010
1463.000000 0.5110 0.5117 0.5115 0.5092 0.5062
1458.000000 0.5036 0.5019 0.5005 0.5001 0.5001
1453.000000 0.5000 0.5016 0.5089 0.5153 0.5212
1448.000000 0.5264 0.5304 0.5341 0.5378 0.5426
1443.000000 0.5482 0.5539 0.5597 0.5662 0.5808
1438.000000 0.5979 0.6149 0.6319 0.6489 0.6658
1433.000000 0.6830 0.6983 0.6961 0.6814 0.6594
1428.000000 0.6375 0.6155 0.6000 0.6000 0.6202
1423.000000 0.6485 0.6768 0.7051 0.7195 0.7212
1418.000000 0.7200 0.7197 0.7181 0.7101 0.6971
1413.000000 0.6842 0.6711 0.6661 0.6672 0.6686
1408.000000 0.6707 0.6731 0.6764 0.6807 0.6845
1403.000000 0.7067 0.7318 0.7483 0.7494 0.7494
1398.000000 0.7494 0.7375 0.7250 0.7122 0.7000
1393.000000 0.7003 0.7004 0.7062 0.7148 0.7271
1388.000000 0.7398 0.7524 0.7649 0.7765 0.7803
1383.000000 0.7836 0.7849 0.7862 0.7875 0.7881
1378.000000 0.7886 0.7891 0.7896 0.7901 0.7906
1373.000000 0.7910 0.7912 0.7917 0.7917 0.7915
1368.000000 0.7915 0.7914 0.7906 0.7898 0.7880
1363.000000 0.7860 0.7845 0.7838 0.7838 0.7840
1358.000000 0.7841 0.7843 0.7845 0.7848 0.7851
1353.000000 0.7844 0.7837 0.7826 0.7812 0.7800
1348.000000 0.7787 0.7786 0.7785 0.7792 0.7798
1343.000000 0.7805 0.7811 0.7818 0.7824 0.7826
1338.000000 0.7826 0.7826 0.7826 0.7826 0.7825
1333.000000 0.7825 0.7825 0.7826 0.7828 0.7828
1328.000000 0.7825 0.7821 0.7815 0.7811 0.7807
1323.000000 0.7801 0.7795 0.7788 0.7781 0.7771
1318.000000 0.7758 0.7745 0.7732 0.7708 0.7686
1313.000000 0.7662 0.7599 0.7411 0.7115 0.6821
1308.000000 0.6525 0.6230 0.5935 0.5605 0.5609
1303.000000 0.5624 0.5837 0.6098 0.6360 0.6621
1298.000000 0.6882 0.7106 0.7244 0.7358 0.7442
1293.000000 0.7511 0.7567 0.7601 0.7635 0.7665
1288.000000 0.7696 0.7724 0.7751 0.7778 0.7795
1283.000000 0.7807 0.7817 0.7824 0.7824 0.7822
1278.000000 0.7814 0.7803 0.7789 0.7775 0.7767
1273.000000 0.7767 0.7767 0.7783 0.7811 0.7842
1268.000000 0.7858 0.7874 0.7890 0.7901 0.7906
1263.000000 0.7918 0.7910 0.7910 0.7910 0.7910
1258.000000 0.7901 0.7894 0.7886 0.7875 0.7860
1253.000000 0.7844 0.7825 0.7800 0.7775 0.7743
1248.000000 0.7705 0.7665 0.7619 0.7574 0.7546
1243.000000 0.7518 0.7493 0.7467 0.7456 0.7436
1238.000000 0.7441 0.7455 0.7547 0.7628 0.7693
1233.000000 0.7741 0.7790 0.7836 0.7871 0.7908
1228.000000 0.7945 0.7967 0.7989 0.8010 0.8024
1223.000000 0.8030 0.8037 0.8044 0.8050 0.8051
1218.000000 0.8051 0.8051 0.8051 0.8051 0.8048
1213.000000 0.8045 0.8042 0.8037 0.8028 0.8021
1208.000000 0.8014 0.8006 0.7999 0.7991 0.7984
1203.000000 0.7975 0.7968 0.7961 0.7957 0.7951
1198.000000 0.7965 0.7981 0.7985 0.7989 0.7988
1193.000000 0.7984 0.7980 0.7975 0.8008 0.7968
1188.000000 0.7965 0.7961 0.7957 0.7953 0.7948
1183.000000 0.7944 0.7940 0.7936 0.7931 0.7926
1178.000000 0.7922 0.7918 0.7915 0.7910 0.7906
1173.000000 0.7901 0.7898 0.7895 0.7891 0.7887
1168.000000 0.7884 0.7880 0.7876 0.7872 0.7868
1163.000000 0.7862 0.7858 0.7854 0.7849 0.7843
1158.000000 0.7836 0.7830 0.7824 0.7817 0.7810
1153.000000 0.7801 0.7791 0.7747 0.7671 0.7628
1148.000000 0.7608 0.7575 0.7575 0.7575 0.7587
1143.000000 0.7665 0.7707 0.7740 0.7762 0.7785
1138.000000 0.7807 0.7815 0.7824 0.7832 0.7841
1133.000000 0.7850 0.7858 0.7867 0.7875 0.7878
1128.000000 0.7883 0.7887 0.7891 0.7895 0.7900
1123.000000 0.7904 0.7908 0.7911 0.7910 0.7908
1118.000000 0.7905 0.7901 0.7900 0.7897 0.7895
1113.000000 0.7892 0.7889 0.7884 0.7878 0.7875
1108.000000 0.7893 0.7865 0.7860 0.7856 0.7851
1103.000000 0.7846 0.7841 0.7837 0.7832 0.7826
1098.000000 0.7821 0.7817 0.7811 0.7807 0.7803
1093.000000 0.7796 0.7788 0.7780 0.7772 0.7765
1088.000000 0.7756 0.7748 0.7740 0.7731 0.7718
1083.000000 0.7707 0.7685 0.7657 0.7628 0.7611
1078.000000 0.7608 0.7605 0.7601 0.7597 0.7593
1073.000000 0.7590 0.7586 0.7583 0.7578 0.7574
1068.000000 0.7568 0.7562 0.7542 0.7521 0.7491
1063.000000 0.7434 0.7318 0.7093 0.7094 0.7099
1058.000000 0.7194 0.7289 0.7385 0.7480 0.7575
1053.000000 0.7669 0.7738 0.7737 0.7728 0.7700
1048.000000 0.7650 0.7586 0.7565 0.7561 0.7560
1043.000000 0.7571 0.7622 0.7678 0.7738 0.7784
1038.000000 0.7819 0.7845 0.7865 0.7875 0.7878
1033.000000 0.7880 0.7881 0.7881 0.7881 0.7882
1028.000000 0.7882 0.7882 0.7883 0.7883 0.7881
1023.000000 0.7878 0.7876 0.7925 0.7874 0.7871
1018.000000 0.7869 0.7868 0.7867 0.7865 0.7862
1013.000000 0.7861 0.7860 0.7858 0.7857 0.7855
1008.000000 0.7851 0.7847 0.7843 0.7839 0.7831
1003.000000 0.7821 0.7810 0.7800 0.7790 0.7778
998.000000 0.7765 0.7751 0.7739 0.7710 0.7674
993.000000 0.7638 0.7560 0.7475 0.7401 0.7328
988.000000 0.7256 0.7171 0.7078 0.6961 0.6801
983.000000 0.6668 0.6554 0.6455 0.5687 0.5143
978.000000 0.4599 0.4055 0.3632 0.3625 0.3654
973.000000 0.3926 0.4199 0.4471 0.4743 0.5016
968.000000 0.5288 0.5560 0.5833 0.6105 0.6324
963.000000 0.6327 0.6327 0.6197 0.5780 0.5364
958.000000 0.4947 0.4530 0.4114 0.3697 0.3280
953.000000 0.2952 0.2945 0.3168 0.3492 0.3816
948.000000 0.4140 0.4464 0.4788 0.5112 0.5436
943.000000 0.5760 0.6084 0.6408 0.6732 0.7056
938.000000 0.7201 0.7226 0.7241 0.7240 0.7230
933.000000 0.7212 0.7187 0.7138 0.7078 0.6683
928.000000 0.6210 0.5737 0.5264 0.4790 0.4317
923.000000 0.3844 0.3371 0.2941 0.2948 0.3250
918.000000 0.3550 0.3848 0.4147 0.4445 0.4743
913.000000 0.5042 0.5340 0.5639 0.5937 0.6236
908.000000 0.6534 0.6931 0.7187 0.7401 0.7514
903.000000 0.7568 0.7588 0.7608 0.7625 0.7644
898.000000 0.7665 0.7699 0.7731 0.7771 0.7815
893.000000 0.7861 0.7905 0.7939 0.7971 0.8006
888.000000 0.8038 0.8067 0.8097 0.8126 0.8158
883.000000 0.8190 0.8215 0.8228 0.8239 0.8243
878.000000 0.8246 0.8250 0.8253 0.8256 0.8257
873.000000 0.8258 0.8259 0.8260 0.8261 0.8262
868.000000 0.8263 0.8263 0.8264 0.8265 0.8266
863.000000 0.8266 0.8267 0.8267 0.8268 0.8268
858.000000 0.8268 0.8268 0.8270 0.8270 0.8271
853.000000 0.8271 0.8273 0.8273 0.8274 0.8275
848.000000 0.8275 0.8277 0.8278 0.8275 0.8273
843.000000 0.8271 0.8268 0.8267 0.8264 0.8262
838.000000 0.8260 0.8258 0.8256 0.8254 0.8253
833.000000 0.8250 0.8242 0.8234 0.8225 0.8218
828.000000 0.8208 0.8197 0.8186 0.8175 0.8161
823.000000 0.8139 0.8117 0.8093 0.8062 0.8032
818.000000 0.8001 0.7969 0.7915 0.7860 0.7746
813.000000 0.7592 0.7400 0.7208 0.7017 0.6825
808.000000 0.6660 0.6678 0.6737 0.6862 0.6989
803.000000 0.7115 0.7242 0.7368 0.7494 0.7621
798.000000 0.7747 0.7825 0.7871 0.7908 0.7943
793.000000 0.7956 0.8003 0.7968 0.7967 0.7964
788.000000 0.7958 0.7941 0.7924 0.7907 0.7875
783.000000 0.7835 0.7795 0.7701 0.7430 0.7160
778.000000 0.6890 0.6619 0.6349 0.6079 0.5482
773.000000 0.5539 0.5559 0.5880 0.6200 0.6519
768.000000 0.6841 0.7161 0.7334 0.7404 0.7475
763.000000 0.7550 0.7625 0.7724 0.7790 0.7824
758.000000 0.7857 0.7844 0.7849 0.7848 0.7844
753.000000 0.7841 0.7833 0.7814 0.7795 0.7768
748.000000 0.7733 0.7690 0.7589 0.7258 0.6969
743.000000 0.6683 0.6395 0.6107 0.5819 0.5532
738.000000 0.5244 0.5180 0.5160 0.5175 0.5190
733.000000 0.5232 0.5289 0.5347 0.5412 0.5560
728.000000 0.5876 0.6190 0.6504 0.6818 0.7133
723.000000 0.7433 0.7507 0.7581 0.7674 0.7769
718.000000 0.7880 0.7967 0.8028 0.8058 0.8075
713.000000 0.8090 0.8106 0.8133 0.8169 0.8207
708.000000 0.8245 0.8288 0.8313 0.8332 0.8349
703.000000 0.8364 0.8377 0.8380 0.8383 0.8387
698.000000 0.8390 0.8390 0.8391 0.8388 0.8381
693.000000 0.8370 0.8359 0.8346 0.8330 0.8313
688.000000 0.8299 0.8287 0.8275 0.8268 0.8261
683.000000 0.8254 0.8247 0.8240 0.8237 0.8235
678.000000 0.8232 0.8230 0.8227 0.8225 0.8223
673.000000 0.8220 0.8218 0.8215 0.8212 0.8209
668.000000 0.8206 0.8203 0.8200 0.8197 0.8194
663.000000 0.8191 0.8187 0.8182 0.8175 0.8171
658.000000 0.8165 0.8160 0.8154 0.8149 0.8143
653.000000 0.8138 0.8135 0.8133 0.8130 0.8128
648.000000 0.8125 0.8122 0.8119 0.8117 0.8115
643.000000 0.8112 0.8111 0.8110 0.8108 0.8106
638.000000 0.8105 0.8103 0.8101 0.8107 0.8098
633.000000 0.8097 0.8096 0.8095 0.8094 0.8093
628.000000 0.8092 0.8091 0.8090 0.8089 0.8088
623.000000 0.8087 0.8085 0.8082 0.8078 0.8076
618.000000 0.8071 0.8064 0.8057 0.8049 0.8042
613.000000 0.8038 0.8036 0.8034 0.8031 0.8026
608.000000 0.8025 0.8025 0.8024 0.8022 0.8021
603.000000 0.8021 0.8019 0.8018 0.8018 0.8017
598.000000 0.8015 0.8014 0.8011 0.8008 0.8006
593.000000 0.8003 0.8001 0.7998 0.7995 0.7993
588.000000 0.7990 0.7987 0.7983 0.7980 0.7976
583.000000 0.7972 0.7969 0.7967 0.7962 0.7958
578.000000 0.7955 0.7951 0.7946 0.7942 0.7938
573.000000 0.7933 0.7928 0.7925 0.7919 0.7915
568.000000 0.7911 0.7908 0.7904 0.7900 0.7896
563.000000 0.7892 0.7888 0.7884 0.7880 0.7875
558.000000 0.7872 0.7871 0.7868 0.7865 0.7864
553.000000 0.7861 0.7858 0.7857 0.7855 0.7853
548.000000 0.7851 0.7849 0.7847 0.7844 0.7842
543.000000 0.7839 0.7837 0.7834 0.7832 0.7828
538.000000 0.7826 0.7825 0.7821 0.7819 0.7818
533.000000 0.7815 0.7812 0.7811 0.7808 0.7806
528.000000 0.7803 0.7801 0.7795 0.7787 0.7780
523.000000 0.7775 0.7769 0.7765 0.7758 0.7748
518.000000 0.7737 0.7726 0.7717 0.7708 0.7706
513.000000 0.7712 0.7718 0.7724 0.7728 0.7731
508.000000 0.7733 0.7733 0.7734 0.7728 0.7724
503.000000 0.7718 0.7714 0.7708 0.7697 0.7686
498.000000 0.7675 0.7662 0.7651 0.7638 0.7625
493.000000 0.7614 0.7596 0.7578 0.7558 0.7540
488.000000 0.7521 0.7503 0.7486 0.7468 0.7451
483.000000 0.7434 0.7422 0.7412 0.7403 0.7392
478.000000 0.7375 0.7361 0.7346 0.7331 0.7315
473.000000 0.7294 0.7271 0.7249 0.7225 0.7198
468.000000 0.7171 0.7143 0.7101 0.7061 0.6998
463.000000 0.6891 0.6719 0.6346 0.6329 0.6335
458.000000 0.6341 0.6353 0.6407 0.6508 0.6611
453.000000 0.6712 0.6815 0.6878 0.6885 0.6884
448.000000 0.6878 0.6871 0.6862 0.6855 0.6838
443.000000 0.6815 0.6791 0.6764 0.6733 0.6701
438.000000 0.6671 0.6635 0.6599 0.6562 0.6526
433.000000 0.6471 0.6408 0.6346 0.6290 0.6244
428.000000 0.6198 0.6153 0.6108 0.6064 0.6020
423.000000 0.5976 0.5933 0.5893 0.5853 0.5817
418.000000 0.5788 0.5777 0.5767 0.5764 0.5786
413.000000 0.5768 0.5774 0.5780 0.5789 0.5798
408.000000 0.5807 0.5815 0.5820 0.5826 0.5831
403.000000 0.5839 0.5848 0.5856
##END=
