##TITLE=Ammonium chloride, 2-chloroethyltrimethyl-, hydrated
##JCAMP-DX=4.24
##DATA TYPE=INFRARED SPECTRUM
##CLASS=COBLENTZ III
##ORIGIN=K. K. DEB-NCI FREDERICK CANCER RESEARCH CENTER
##OWNER=Copyright (C) 1987 by the Coblentz Society
Collection (C) 2018 copyright by the U.S. Secretary of Commerce
on behalf of the United States of America. All rights reserved.
##DATE=1973/09/19
##NAMES=CYCLOCEL
##CAS REGISTRY NO=39394-21-3
##MOLFORM=C5 H13 Cl2 N  * x H2 O
##SOURCE REFERENCE=COBLENTZ NO. 9707
##$NIST SOURCE=COBLENTZ
##$NIST IMAGE=cob9707
##SPECTROMETER/DATA SYSTEM=PERKIN-ELMER 180 (GRATING)
##INSTRUMENT PARAMETERS=GRATINGS: 2000, 1000, 500, 250 CM^-^1; FILTER CHANGE: 2970, 2000, 1485, 1000, 743, 500, 372, 250, 186 CM^-^1.
##STATE=SOLID (1.6 mg / 350 mg KBr DISC); SAMPLE GROUND WITH SOLVENT, C2HCl3 AND DRIED
$$ PURITY - ANALYTICAL
$$ SEE SPECTRUM NO. 9706, 9709 FOR "SPLIT MULL" RUNS; AND SPECTRUM NO. 9708 FOR "KBr DISC" RUN
$$SPECTRAL CONTAMINATION DUE TO AN UNKNOWN AROUND 3400 CM^-^1
$$SPECTRAL CONTAMINATION ASSUMED TO BE CAUSED BY A POLYMORPH AROUND 2900, 1410 CM^-^1
##SAMPLING PROCEDURE=TRANSMISSION
##RESOLUTION=2
##DATA PROCESSING=DIGITIZED BY COBLENTZ SOCIETY (BATCH II) FROM HARD COPY
##XUNITS=1/CM
##YUNITS=TRANSMITTANCE
##XFACTOR=1.0
##YFACTOR=1
##FIRSTX=389
##LASTX=3798
##FIRSTY=0.7946
##MAXX=3798
##MINX=389
##MAXY=0.8398
##MINY=0.1327
##NPOINTS=3410
##XYDATA=(X++(Y..Y))
389.000000 0.7946 0.7951 0.7956 0.7962 0.7967
394.000000 0.7971 0.7973 0.7974 0.7976 0.7978
399.000000 0.7980 0.7983 0.7985 0.7987 0.7989
404.000000 0.7992 0.7994 0.7997 0.8000 0.8003
409.000000 0.8006 0.8008 0.8011 0.8014 0.8017
414.000000 0.8017 0.8030 0.8036 0.8043 0.8049
419.000000 0.8056 0.8062 0.8068 0.8075 0.8081
424.000000 0.8087 0.8093 0.8097 0.8096 0.8095
429.000000 0.8094 0.8093 0.8092 0.8084 0.8075
434.000000 0.8067 0.8058 0.8049 0.8041 0.8030
439.000000 0.8014 0.7997 0.7981 0.7964 0.7948
444.000000 0.7932 0.7892 0.7791 0.7690 0.7589
449.000000 0.7488 0.7387 0.7286 0.7185 0.7084
454.000000 0.7062 0.7047 0.7056 0.7105 0.7247
459.000000 0.7390 0.7533 0.7676 0.7819 0.7962
464.000000 0.8076 0.8123 0.8151 0.8169 0.8186
469.000000 0.8193 0.8200 0.8207 0.8214 0.8222
474.000000 0.8229 0.8236 0.8242 0.8246 0.8249
479.000000 0.8253 0.8256 0.8259 0.8263 0.8266
484.000000 0.8270 0.8273 0.8275 0.8277 0.8279
489.000000 0.8294 0.8284 0.8286 0.8288 0.8291
494.000000 0.8295 0.8257 0.8214 0.8171 0.8128
499.000000 0.8085 0.8043 0.8000 0.7992 0.7987
504.000000 0.7976 0.7963 0.7951 0.7923 0.7878
509.000000 0.7862 0.7864 0.7877 0.7899 0.7923
514.000000 0.7953 0.7985 0.8003 0.8020 0.8035
519.000000 0.8042 0.8049 0.8057 0.8064 0.8069
524.000000 0.8070 0.8072 0.8073 0.8075 0.8076
529.000000 0.8077 0.8078 0.8080 0.8081 0.8082
534.000000 0.8083 0.8084 0.8086 0.8087 0.8088
539.000000 0.8089 0.8090 0.8091 0.8092 0.8094
544.000000 0.8095 0.8096 0.8097 0.8098 0.8099
549.000000 0.8101 0.8102 0.8103 0.8104 0.8105
554.000000 0.8106 0.8108 0.8109 0.8111 0.8113
559.000000 0.8114 0.8116 0.8118 0.8120 0.8121
564.000000 0.8123 0.8125 0.8126 0.8128 0.8130
569.000000 0.8131 0.8133 0.8135 0.8136 0.8138
574.000000 0.8140 0.8142 0.8144 0.8146 0.8148
579.000000 0.8150 0.8152 0.8153 0.8155 0.8157
584.000000 0.8159 0.8161 0.8163 0.8165 0.8167
589.000000 0.8168 0.8170 0.8172 0.8174 0.8175
594.000000 0.8177 0.8179 0.8181 0.8182 0.8184
599.000000 0.8186 0.8187 0.8189 0.8191 0.8193
604.000000 0.8194 0.8196 0.8198 0.8200 0.8202
609.000000 0.8204 0.8206 0.8208 0.8210 0.8212
614.000000 0.8214 0.8216 0.8218 0.8221 0.8223
619.000000 0.8225 0.8227 0.8229 0.8230 0.8232
624.000000 0.8233 0.8234 0.8236 0.8237 0.8239
629.000000 0.8240 0.8242 0.8243 0.8244 0.8246
634.000000 0.8247 0.8249 0.8250 0.8251 0.8250
639.000000 0.8247 0.8244 0.8242 0.8239 0.8236
644.000000 0.8234 0.8231 0.8228 0.8225 0.8222
649.000000 0.8219 0.8215 0.8212 0.8209 0.8207
654.000000 0.8208 0.8209 0.8210 0.8211 0.8212
659.000000 0.8212 0.8213 0.8214 0.8217 0.8220
664.000000 0.8223 0.8226 0.8230 0.8233 0.8236
669.000000 0.8244 0.8253 0.8261 0.8270 0.8278
674.000000 0.8287 0.8295 0.8303 0.8307 0.8311
679.000000 0.8315 0.8320 0.8324 0.8326 0.8332
684.000000 0.8331 0.8327 0.8324 0.8320 0.8316
689.000000 0.8313 0.8309 0.8305 0.8302 0.8296
694.000000 0.8291 0.8285 0.8279 0.8273 0.8268
699.000000 0.8262 0.8256 0.8250 0.8246 0.8241
704.000000 0.8236 0.8231 0.8227 0.8222 0.8205
709.000000 0.8188 0.8171 0.8154 0.8132 0.8101
714.000000 0.8070 0.8008 0.7940 0.7834 0.7679
719.000000 0.7428 0.7177 0.6925 0.6674 0.6422
724.000000 0.6171 0.5920 0.5668 0.5417 0.5166
729.000000 0.4914 0.4652 0.4561 0.4525 0.4502
734.000000 0.4512 0.4537 0.4887 0.5314 0.5741
739.000000 0.6167 0.6594 0.7021 0.7408 0.7541
744.000000 0.7640 0.7698 0.7756 0.7785 0.7797
749.000000 0.7801 0.7804 0.7819 0.7789 0.7776
754.000000 0.7743 0.7715 0.7688 0.7662 0.7630
759.000000 0.7593 0.7555 0.7475 0.7213 0.6950
764.000000 0.6688 0.6426 0.6163 0.5901 0.5639
769.000000 0.5376 0.5114 0.4852 0.4671 0.5066
774.000000 0.5444 0.5823 0.6201 0.6579 0.6957
779.000000 0.7335 0.7663 0.7747 0.7809 0.7878
784.000000 0.7956 0.8024 0.8047 0.8048 0.8049
789.000000 0.8053 0.8035 0.8021 0.7985 0.7922
794.000000 0.7790 0.7653 0.7516 0.7379 0.7242
799.000000 0.7105 0.6968 0.6831 0.6694 0.6557
804.000000 0.6419 0.6282 0.6245 0.6359 0.6561
809.000000 0.6764 0.6966 0.7169 0.7371 0.7573
814.000000 0.7776 0.7944 0.8042 0.8117 0.8162
819.000000 0.8206 0.8251 0.8273 0.8288 0.8302
824.000000 0.8316 0.8331 0.8345 0.8352 0.8359
829.000000 0.8366 0.8373 0.8379 0.8381 0.8382
834.000000 0.8383 0.8384 0.8385 0.8386 0.8387
839.000000 0.8386 0.8383 0.8380 0.8398 0.8375
844.000000 0.8372 0.8369 0.8366 0.8363 0.8360
849.000000 0.8356 0.8353 0.8349 0.8345 0.8342
854.000000 0.8338 0.8335 0.8331 0.8327 0.8324
859.000000 0.8321 0.8318 0.8315 0.8313 0.8310
864.000000 0.8307 0.8304 0.8301 0.8299 0.8298
869.000000 0.8297 0.8296 0.8295 0.8293 0.8292
874.000000 0.8291 0.8288 0.8284 0.8281 0.8277
879.000000 0.8273 0.8264 0.8251 0.8238 0.8226
884.000000 0.8213 0.8198 0.8179 0.8160 0.8140
889.000000 0.8121 0.8095 0.8057 0.8019 0.7981
894.000000 0.7943 0.7905 0.7852 0.7798 0.7744
899.000000 0.7690 0.7616 0.7519 0.7423 0.7292
904.000000 0.7143 0.6804 0.6489 0.6174 0.5859
909.000000 0.5544 0.5229 0.4914 0.4599 0.4284
914.000000 0.3969 0.3654 0.3339 0.3024 0.2709
919.000000 0.2394 0.2291 0.2288 0.2782 0.3301
924.000000 0.3819 0.4337 0.4855 0.5373 0.5891
929.000000 0.6410 0.6928 0.7285 0.7364 0.7430
934.000000 0.7478 0.7483 0.7473 0.7441 0.7372
939.000000 0.7022 0.6672 0.6322 0.5972 0.5622
944.000000 0.5273 0.4923 0.4573 0.4223 0.3873
949.000000 0.3523 0.3174 0.2824 0.2537 0.2551
954.000000 0.2988 0.3510 0.4031 0.4553 0.5075
959.000000 0.5596 0.6118 0.6524 0.6524 0.6390
964.000000 0.6119 0.5847 0.5575 0.5304 0.5032
969.000000 0.4761 0.4489 0.4218 0.3946 0.3675
974.000000 0.3403 0.3204 0.3321 0.3852 0.4383
979.000000 0.4914 0.5445 0.5976 0.6507 0.7093
984.000000 0.7220 0.7332 0.7508 0.7628 0.7703
989.000000 0.7740 0.7778 0.7816 0.7843 0.7866
994.000000 0.7881 0.7884 0.7886 0.7889 0.7891
999.000000 0.7889 0.7888 0.7888 0.7887 0.7887
1004.000000 0.7886 0.7886 0.7885 0.7886 0.7887
1009.000000 0.7887 0.7888 0.7889 0.7889 0.7889
1014.000000 0.7888 0.7888 0.7887 0.7891 0.7899
1019.000000 0.7908 0.7916 0.7927 0.7940 0.7954
1024.000000 0.7967 0.7981 0.7994 0.8008 0.8013
1029.000000 0.8025 0.8024 0.8029 0.8035 0.8038
1034.000000 0.8033 0.8025 0.8002 0.7979 0.7920
1039.000000 0.7845 0.7770 0.7695 0.7601 0.7595
1044.000000 0.7598 0.7662 0.7728 0.7794 0.7860
1049.000000 0.7926 0.7977 0.7959 0.7947 0.7764
1054.000000 0.7571 0.7377 0.7184 0.7008 0.7008
1059.000000 0.7008 0.7172 0.7329 0.7485 0.7642
1064.000000 0.7798 0.7955 0.8010 0.8042 0.8060
1069.000000 0.8072 0.8071 0.8070 0.8069 0.8069
1074.000000 0.8069 0.8069 0.8069 0.8078 0.8088
1079.000000 0.8099 0.8111 0.8122 0.8133 0.8143
1084.000000 0.8153 0.8159 0.8159 0.8159 0.8160
1089.000000 0.8160 0.8158 0.8155 0.8146 0.8150
1094.000000 0.8147 0.8144 0.8142 0.8139 0.8137
1099.000000 0.8136 0.8136 0.8135 0.8135 0.8134
1104.000000 0.8134 0.8133 0.8132 0.8132 0.8131
1109.000000 0.8131 0.8130 0.8130 0.8128 0.8126
1114.000000 0.8124 0.8122 0.8120 0.8118 0.8115
1119.000000 0.8113 0.8111 0.8109 0.8106 0.8095
1124.000000 0.8084 0.8071 0.8056 0.8040 0.8025
1129.000000 0.8015 0.8012 0.8010 0.8023 0.8037
1134.000000 0.8047 0.8053 0.8050 0.8046 0.8036
1139.000000 0.8012 0.7938 0.7854 0.7769 0.7684
1144.000000 0.7620 0.7600 0.7625 0.7699 0.7774
1149.000000 0.7848 0.7923 0.7997 0.8062 0.8085
1154.000000 0.8091 0.8096 0.8101 0.8105 0.8109
1159.000000 0.8113 0.8117 0.8121 0.8125 0.8129
1164.000000 0.8134 0.8137 0.8141 0.8145 0.8148
1169.000000 0.8152 0.8155 0.8158 0.8161 0.8163
1174.000000 0.8166 0.8169 0.8171 0.8173 0.8175
1179.000000 0.8178 0.8180 0.8182 0.8184 0.8187
1184.000000 0.8205 0.8184 0.8181 0.8179 0.8176
1189.000000 0.8170 0.8157 0.8145 0.8133 0.8117
1194.000000 0.8098 0.8080 0.8076 0.8075 0.8078
1199.000000 0.8085 0.8114 0.8155 0.8178 0.8190
1204.000000 0.8201 0.8206 0.8211 0.8210 0.8208
1209.000000 0.8206 0.8205 0.8203 0.8202 0.8201
1214.000000 0.8201 0.8200 0.8200 0.8200 0.8198
1219.000000 0.8197 0.8195 0.8193 0.8191 0.8186
1224.000000 0.8167 0.8148 0.8128 0.8093 0.8052
1229.000000 0.7987 0.7899 0.7812 0.7725 0.7637
1234.000000 0.7550 0.7462 0.7375 0.7301 0.7309
1239.000000 0.7322 0.7388 0.7455 0.7522 0.7588
1244.000000 0.7655 0.7721 0.7788 0.7855 0.7921
1249.000000 0.7982 0.8025 0.8051 0.8076 0.8093
1254.000000 0.8094 0.8095 0.8096 0.8096 0.8092
1259.000000 0.8093 0.8084 0.8079 0.8062 0.8040
1264.000000 0.8009 0.7978 0.7949 0.7921 0.7892
1269.000000 0.7849 0.7816 0.7809 0.7806 0.7803
1274.000000 0.7863 0.7922 0.7982 0.8008 0.8008
1279.000000 0.8005 0.7993 0.7978 0.7961 0.7945
1284.000000 0.7928 0.7901 0.7876 0.7854 0.7832
1289.000000 0.7810 0.7782 0.7754 0.7725 0.7678
1294.000000 0.7594 0.7498 0.7410 0.7328 0.7164
1299.000000 0.6737 0.6310 0.5882 0.5455 0.5166
1304.000000 0.5150 0.5205 0.5530 0.5856 0.6181
1309.000000 0.6507 0.6832 0.7158 0.7483 0.7746
1314.000000 0.7870 0.7928 0.7987 0.8026 0.8048
1319.000000 0.8071 0.8094 0.8097 0.8099 0.8100
1324.000000 0.8102 0.8103 0.8101 0.8099 0.8096
1329.000000 0.8093 0.8091 0.8086 0.8082 0.8077
1334.000000 0.8073 0.8068 0.8064 0.8060 0.8057
1339.000000 0.8053 0.8050 0.8047 0.8043 0.8062
1344.000000 0.8038 0.8037 0.8036 0.8035 0.8034
1349.000000 0.8033 0.8032 0.8031 0.8030 0.8030
1354.000000 0.8030 0.8030 0.8031 0.8031 0.8032
1359.000000 0.8032 0.8033 0.8033 0.8034 0.8034
1364.000000 0.8035 0.8036 0.8036 0.8037 0.8038
1369.000000 0.8038 0.8037 0.8030 0.8023 0.8016
1374.000000 0.8009 0.8002 0.7991 0.7980 0.7969
1379.000000 0.7959 0.7948 0.7933 0.7913 0.7892
1384.000000 0.7872 0.7852 0.7832 0.7811 0.7784
1389.000000 0.7757 0.7730 0.7703 0.7674 0.7637
1394.000000 0.7609 0.7605 0.7602 0.7599 0.7597
1399.000000 0.7596 0.7594 0.7557 0.7519 0.7486
1404.000000 0.7404 0.7208 0.7073 0.6892 0.6716
1409.000000 0.6169 0.5566 0.4963 0.4360 0.4258
1414.000000 0.4315 0.4761 0.5207 0.5652 0.6098
1419.000000 0.6543 0.6986 0.7103 0.7166 0.7212
1424.000000 0.7239 0.7255 0.7237 0.7257 0.7251
1429.000000 0.7233 0.7205 0.7170 0.7107 0.7030
1434.000000 0.6953 0.6876 0.6799 0.6723 0.6646
1439.000000 0.6611 0.6594 0.6547 0.6425 0.6303
1444.000000 0.6181 0.6108 0.6117 0.6190 0.6310
1449.000000 0.6420 0.6437 0.6417 0.6402 0.6388
1454.000000 0.6341 0.6295 0.6251 0.6209 0.6138
1459.000000 0.5922 0.5706 0.5490 0.5388 0.5370
1464.000000 0.5344 0.5120 0.4849 0.4578 0.4307
1469.000000 0.4036 0.3766 0.3495 0.3224 0.2953
1474.000000 0.2682 0.2411 0.2140 0.1869 0.1598
1479.000000 0.1363 0.1331 0.1327 0.1334 0.1359
1484.000000 0.1565 0.1771 0.1842 0.1896 0.1969
1489.000000 0.2264 0.2603 0.2941 0.3279 0.3617
1494.000000 0.3955 0.4294 0.4632 0.4970 0.5308
1499.000000 0.5533 0.5611 0.5682 0.5753 0.5919
1504.000000 0.6117 0.6719 0.6828 0.6937 0.7042
1509.000000 0.7123 0.7204 0.7285 0.7359 0.7424
1514.000000 0.7488 0.7552 0.7588 0.7624 0.7661
1519.000000 0.7697 0.7733 0.7766 0.7784 0.7803
1524.000000 0.7821 0.7840 0.7858 0.7877 0.7886
1529.000000 0.7894 0.7903 0.7911 0.7920 0.7928
1534.000000 0.7935 0.7941 0.7948 0.7955 0.7962
1539.000000 0.7968 0.7975 0.7982 0.7987 0.7989
1544.000000 0.7991 0.7994 0.7996 0.7998 0.8000
1549.000000 0.8002 0.8005 0.8007 0.8009 0.8012
1554.000000 0.8014 0.8017 0.8019 0.8021 0.8036
1559.000000 0.8026 0.8029 0.8031 0.8034 0.8036
1564.000000 0.8039 0.8041 0.8044 0.8046 0.8049
1569.000000 0.8051 0.8051 0.8051 0.8050 0.8049
1574.000000 0.8049 0.8048 0.8048 0.8047 0.8046
1579.000000 0.8044 0.8040 0.8037 0.8034 0.8031
1584.000000 0.8028 0.8025 0.8022 0.8017 0.8012
1589.000000 0.8006 0.8000 0.7995 0.7989 0.7984
1594.000000 0.7978 0.7973 0.7967 0.7962 0.7956
1599.000000 0.7949 0.7941 0.7934 0.7926 0.7919
1604.000000 0.7912 0.7904 0.7897 0.7890 0.7882
1609.000000 0.7875 0.7868 0.7862 0.7855 0.7849
1614.000000 0.7843 0.7836 0.7830 0.7824 0.7817
1619.000000 0.7811 0.7805 0.7798 0.7792 0.7785
1624.000000 0.7764 0.7771 0.7771 0.7778 0.7786
1629.000000 0.7793 0.7800 0.7808 0.7815 0.7822
1634.000000 0.7830 0.7839 0.7847 0.7856 0.7865
1639.000000 0.7874 0.7882 0.7891 0.7900 0.7908
1644.000000 0.7914 0.7920 0.7925 0.7931 0.7937
1649.000000 0.7943 0.7949 0.7953 0.7958 0.7962
1654.000000 0.7966 0.7971 0.7975 0.7980 0.7990
1659.000000 0.8000 0.8011 0.8021 0.8031 0.8043
1664.000000 0.8055 0.8067 0.8078 0.8090 0.8102
1669.000000 0.8114 0.8125 0.8137 0.8149 0.8160
1674.000000 0.8170 0.8174 0.8179 0.8183 0.8177
1679.000000 0.8191 0.8190 0.8190 0.8190 0.8189
1684.000000 0.8189 0.8189 0.8188 0.8186 0.8184
1689.000000 0.8181 0.8179 0.8176 0.8174 0.8171
1694.000000 0.8169 0.8166 0.8164 0.8162 0.8159
1699.000000 0.8157 0.8153 0.8149 0.8146 0.8142
1704.000000 0.8138 0.8134 0.8131 0.8127 0.8123
1709.000000 0.8119 0.8116 0.8112 0.8108 0.8105
1714.000000 0.8101 0.8097 0.8093 0.8089 0.8084
1719.000000 0.8079 0.8074 0.8069 0.8064 0.8059
1724.000000 0.8054 0.8049 0.8044 0.8039 0.8034
1729.000000 0.8029 0.8024 0.8019 0.8014 0.8010
1734.000000 0.8006 0.8003 0.8000 0.7998 0.7995
1739.000000 0.7992 0.7989 0.7986 0.7986 0.7987
1744.000000 0.7988 0.7989 0.7994 0.8000 0.8006
1749.000000 0.8012 0.8018 0.8024 0.8030 0.8035
1754.000000 0.8040 0.8045 0.8050 0.8055 0.8061
1759.000000 0.8066 0.8071 0.8073 0.8073 0.8072
1764.000000 0.8071 0.8070 0.8069 0.8069 0.8068
1769.000000 0.8065 0.8062 0.8060 0.8057 0.8054
1774.000000 0.8051 0.8048 0.8045 0.8043 0.8040
1779.000000 0.8036 0.8031 0.8026 0.8021 0.8016
1784.000000 0.8011 0.8006 0.8001 0.7996 0.7991
1789.000000 0.7986 0.7983 0.7984 0.7984 0.7985
1794.000000 0.7986 0.7987 0.7987 0.7988 0.7989
1799.000000 0.7990 0.7990 0.7991 0.7994 0.7998
1804.000000 0.8001 0.8005 0.8009 0.8013 0.8017
1809.000000 0.8020 0.8024 0.8028 0.8030 0.8029
1814.000000 0.8029 0.8028 0.8028 0.8027 0.8026
1819.000000 0.8026 0.8025 0.8027 0.8030 0.8033
1824.000000 0.8037 0.8040 0.8044 0.8047 0.8052
1829.000000 0.8057 0.8063 0.8068 0.8074 0.8079
1834.000000 0.8085 0.8090 0.8096 0.8101 0.8106
1839.000000 0.8111 0.8116 0.8121 0.8125 0.8130
1844.000000 0.8135 0.8140 0.8144 0.8149 0.8154
1849.000000 0.8159 0.8164 0.8169 0.8175 0.8180
1854.000000 0.8186 0.8191 0.8197 0.8202 0.8208
1859.000000 0.8213 0.8219 0.8224 0.8230 0.8235
1864.000000 0.8241 0.8246 0.8252 0.8257 0.8263
1869.000000 0.8267 0.8270 0.8272 0.8274 0.8276
1874.000000 0.8278 0.8281 0.8283 0.8285 0.8287
1879.000000 0.8289 0.8292 0.8294 0.8296 0.8298
1884.000000 0.8300 0.8300 0.8301 0.8301 0.8302
1889.000000 0.8302 0.8303 0.8303 0.8303 0.8304
1894.000000 0.8304 0.8305 0.8305 0.8305 0.8305
1899.000000 0.8305 0.8305 0.8304 0.8304 0.8304
1904.000000 0.8304 0.8304 0.8304 0.8304 0.8304
1909.000000 0.8304 0.8304 0.8303 0.8302 0.8301
1914.000000 0.8300 0.8299 0.8298 0.8298 0.8297
1919.000000 0.8297 0.8296 0.8296 0.8295 0.8295
1924.000000 0.8294 0.8294 0.8293 0.8293 0.8292
1929.000000 0.8291 0.8291 0.8290 0.8290 0.8289
1934.000000 0.8289 0.8288 0.8288 0.8287 0.8287
1939.000000 0.8286 0.8286 0.8285 0.8291 0.8287
1944.000000 0.8289 0.8290 0.8292 0.8293 0.8295
1949.000000 0.8296 0.8297 0.8299 0.8300 0.8301
1954.000000 0.8302 0.8303 0.8305 0.8306 0.8307
1959.000000 0.8308 0.8309 0.8311 0.8311 0.8311
1964.000000 0.8311 0.8311 0.8310 0.8310 0.8310
1969.000000 0.8310 0.8309 0.8309 0.8309 0.8309
1974.000000 0.8308 0.8308 0.8308 0.8308 0.8307
1979.000000 0.8308 0.8309 0.8310 0.8311 0.8312
1984.000000 0.8313 0.8314 0.8315 0.8316 0.8317
1989.000000 0.8318 0.8319 0.8320 0.8321 0.8323
1994.000000 0.8323 0.8323 0.8323 0.8323 0.8322
1999.000000 0.8322 0.8322 0.8322 0.8322 0.8322
2004.000000 0.8322 0.8322 0.8322 0.8322 0.8322
2009.000000 0.8321 0.8321 0.8320 0.8320 0.8319
2014.000000 0.8319 0.8318 0.8318 0.8318 0.8318
2019.000000 0.8317 0.8317 0.8316 0.8316 0.8315
2024.000000 0.8315 0.8314 0.8314 0.8313 0.8313
2029.000000 0.8312 0.8312 0.8312 0.8312 0.8311
2034.000000 0.8311 0.8310 0.8310 0.8309 0.8309
2039.000000 0.8308 0.8308 0.8307 0.8307 0.8306
2044.000000 0.8306 0.8306 0.8306 0.8305 0.8305
2049.000000 0.8304 0.8304 0.8303 0.8303 0.8302
2054.000000 0.8302 0.8301 0.8301 0.8301 0.8301
2059.000000 0.8300 0.8300 0.8300 0.8300 0.8299
2064.000000 0.8299 0.8299 0.8299 0.8298 0.8298
2069.000000 0.8298 0.8298 0.8297 0.8297 0.8297
2074.000000 0.8297 0.8296 0.8296 0.8295 0.8295
2079.000000 0.8295 0.8295 0.8294 0.8294 0.8294
2084.000000 0.8294 0.8293 0.8293 0.8293 0.8293
2089.000000 0.8292 0.8292 0.8292 0.8292 0.8291
2094.000000 0.8291 0.8291 0.8291 0.8290 0.8290
2099.000000 0.8290 0.8290 0.8289 0.8289 0.8288
2104.000000 0.8288 0.8288 0.8288 0.8287 0.8287
2109.000000 0.8287 0.8287 0.8286 0.8286 0.8285
2114.000000 0.8285 0.8285 0.8285 0.8284 0.8284
2119.000000 0.8283 0.8283 0.8283 0.8283 0.8282
2124.000000 0.8282 0.8282 0.8282 0.8281 0.8281
2129.000000 0.8280 0.8280 0.8280 0.8280 0.8279
2134.000000 0.8279 0.8279 0.8279 0.8278 0.8278
2139.000000 0.8277 0.8277 0.8277 0.8277 0.8277
2144.000000 0.8277 0.8276 0.8276 0.8276 0.8276
2149.000000 0.8276 0.8276 0.8276 0.8276 0.8276
2154.000000 0.8276 0.8275 0.8275 0.8275 0.8275
2159.000000 0.8275 0.8275 0.8275 0.8275 0.8275
2164.000000 0.8275 0.8274 0.8274 0.8274 0.8274
2169.000000 0.8274 0.8274 0.8274 0.8274 0.8274
2174.000000 0.8274 0.8273 0.8273 0.8273 0.8273
2179.000000 0.8273 0.8273 0.8273 0.8274 0.8274
2184.000000 0.8274 0.8274 0.8275 0.8275 0.8275
2189.000000 0.8275 0.8276 0.8276 0.8276 0.8276
2194.000000 0.8277 0.8277 0.8278 0.8276 0.8274
2199.000000 0.8271 0.8268 0.8265 0.8263 0.8260
2204.000000 0.8258 0.8255 0.8252 0.8249 0.8247
2209.000000 0.8244 0.8241 0.8238 0.8236 0.8233
2214.000000 0.8230 0.8227 0.8225 0.8219 0.8214
2219.000000 0.8209 0.8204 0.8199 0.8194 0.8189
2224.000000 0.8184 0.8179 0.8174 0.8169 0.8164
2229.000000 0.8159 0.8154 0.8149 0.8144 0.8138
2234.000000 0.8133 0.8126 0.8119 0.8112 0.8105
2239.000000 0.8097 0.8090 0.8083 0.8076 0.8069
2244.000000 0.8062 0.8055 0.8048 0.8041 0.8034
2249.000000 0.8027 0.8020 0.8013 0.8006 0.8000
2254.000000 0.7994 0.7987 0.7962 0.7975 0.7969
2259.000000 0.7966 0.7964 0.7962 0.7960 0.7967
2264.000000 0.7975 0.7982 0.7989 0.7997 0.8005
2269.000000 0.8013 0.8022 0.8030 0.8039 0.8047
2274.000000 0.8056 0.8065 0.8074 0.8083 0.8092
2279.000000 0.8100 0.8109 0.8118 0.8127 0.8136
2284.000000 0.8145 0.8155 0.8166 0.8176 0.8187
2289.000000 0.8193 0.8200 0.8201 0.8203 0.8204
2294.000000 0.8205 0.8206 0.8207 0.8205 0.8204
2299.000000 0.8203 0.8202 0.8200 0.8199 0.8197
2304.000000 0.8196 0.8195 0.8194 0.8192 0.8191
2309.000000 0.8190 0.8189 0.8188 0.8187 0.8185
2314.000000 0.8184 0.8183 0.8182 0.8181 0.8180
2319.000000 0.8178 0.8198 0.8176 0.8175 0.8174
2324.000000 0.8173 0.8171 0.8170 0.8169 0.8168
2329.000000 0.8167 0.8166 0.8165 0.8165 0.8165
2334.000000 0.8165 0.8164 0.8164 0.8164 0.8164
2339.000000 0.8164 0.8164 0.8163 0.8163 0.8163
2344.000000 0.8163 0.8161 0.8159 0.8156 0.8153
2349.000000 0.8149 0.8146 0.8143 0.8140 0.8136
2354.000000 0.8133 0.8128 0.8123 0.8114 0.8106
2359.000000 0.8097 0.8088 0.8083 0.8078 0.8082
2364.000000 0.8087 0.8091 0.8095 0.8102 0.8109
2369.000000 0.8115 0.8122 0.8129 0.8136 0.8139
2374.000000 0.8143 0.8146 0.8149 0.8148 0.8148
2379.000000 0.8144 0.8141 0.8137 0.8134 0.8130
2384.000000 0.8127 0.8123 0.8120 0.8117 0.8115
2389.000000 0.8114 0.8114 0.8114 0.8114 0.8113
2394.000000 0.8113 0.8112 0.8112 0.8111 0.8111
2399.000000 0.8110 0.8109 0.8108 0.8107 0.8106
2404.000000 0.8106 0.8105 0.8104 0.8102 0.8101
2409.000000 0.8098 0.8096 0.8094 0.8092 0.8089
2414.000000 0.8087 0.8084 0.8082 0.8079 0.8077
2419.000000 0.8077 0.8077 0.8077 0.8077 0.8077
2424.000000 0.8077 0.8077 0.8077 0.8077 0.8077
2429.000000 0.8077 0.8077 0.8077 0.8078 0.8078
2434.000000 0.8078 0.8078 0.8078 0.8079 0.8080
2439.000000 0.8081 0.8083 0.8084 0.8086 0.8087
2444.000000 0.8089 0.8090 0.8091 0.8092 0.8094
2449.000000 0.8093 0.8092 0.8088 0.8084 0.8079
2454.000000 0.8075 0.8071 0.8067 0.8063 0.8059
2459.000000 0.8054 0.8050 0.8046 0.8042 0.8037
2464.000000 0.8032 0.8023 0.8014 0.8005 0.7996
2469.000000 0.7987 0.7979 0.7970 0.7961 0.7949
2474.000000 0.7938 0.7920 0.7902 0.7884 0.7866
2479.000000 0.7848 0.7831 0.7811 0.7792 0.7769
2484.000000 0.7746 0.7734 0.7722 0.7722 0.7723
2489.000000 0.7724 0.7725 0.7729 0.7733 0.7737
2494.000000 0.7741 0.7745 0.7750 0.7763 0.7777
2499.000000 0.7791 0.7806 0.7821 0.7837 0.7851
2504.000000 0.7865 0.7866 0.7868 0.7869 0.7871
2509.000000 0.7868 0.7865 0.7854 0.7844 0.7832
2514.000000 0.7820 0.7803 0.7786 0.7771 0.7757
2519.000000 0.7746 0.7735 0.7723 0.7712 0.7700
2524.000000 0.7689 0.7678 0.7667 0.7655 0.7644
2529.000000 0.7633 0.7622 0.7612 0.7603 0.7594
2534.000000 0.7586 0.7578 0.7570 0.7561 0.7553
2539.000000 0.7549 0.7545 0.7545 0.7521 0.7548
2544.000000 0.7551 0.7557 0.7564 0.7571 0.7578
2549.000000 0.7586 0.7595 0.7603 0.7612 0.7620
2554.000000 0.7629 0.7638 0.7647 0.7660 0.7673
2559.000000 0.7685 0.7698 0.7710 0.7722 0.7728
2564.000000 0.7735 0.7741 0.7747 0.7746 0.7745
2569.000000 0.7738 0.7765 0.7722 0.7714 0.7705
2574.000000 0.7697 0.7683 0.7670 0.7653 0.7637
2579.000000 0.7626 0.7615 0.7610 0.7605 0.7600
2584.000000 0.7596 0.7594 0.7562 0.7596 0.7601
2589.000000 0.7605 0.7609 0.7612 0.7616 0.7619
2594.000000 0.7623 0.7628 0.7634 0.7639 0.7645
2599.000000 0.7650 0.7656 0.7661 0.7667 0.7674
2604.000000 0.7682 0.7691 0.7701 0.7711 0.7721
2609.000000 0.7730 0.7740 0.7749 0.7759 0.7769
2614.000000 0.7780 0.7791 0.7803 0.7814 0.7825
2619.000000 0.7836 0.7848 0.7850 0.7852 0.7853
2624.000000 0.7854 0.7855 0.7856 0.7855 0.7855
2629.000000 0.7853 0.7851 0.7849 0.7847 0.7844
2634.000000 0.7842 0.7840 0.7838 0.7836 0.7834
2639.000000 0.7831 0.7829 0.7827 0.7825 0.7824
2644.000000 0.7824 0.7823 0.7823 0.7823 0.7823
2649.000000 0.7822 0.7822 0.7822 0.7823 0.7827
2654.000000 0.7832 0.7836 0.7841 0.7845 0.7849
2659.000000 0.7846 0.7843 0.7840 0.7837 0.7831
2664.000000 0.7826 0.7816 0.7807 0.7797 0.7787
2669.000000 0.7777 0.7767 0.7757 0.7747 0.7737
2674.000000 0.7728 0.7722 0.7716 0.7710 0.7704
2679.000000 0.7698 0.7692 0.7686 0.7681 0.7675
2684.000000 0.7669 0.7663 0.7657 0.7654 0.7652
2689.000000 0.7650 0.7649 0.7647 0.7646 0.7644
2694.000000 0.7642 0.7643 0.7645 0.7654 0.7663
2699.000000 0.7673 0.7683 0.7692 0.7702 0.7707
2704.000000 0.7712 0.7716 0.7721 0.7726 0.7731
2709.000000 0.7728 0.7725 0.7717 0.7709 0.7701
2714.000000 0.7693 0.7682 0.7672 0.7658 0.7644
2719.000000 0.7630 0.7617 0.7604 0.7592 0.7584
2724.000000 0.7577 0.7569 0.7561 0.7553 0.7546
2729.000000 0.7538 0.7530 0.7522 0.7515 0.7507
2734.000000 0.7499 0.7495 0.7492 0.7489 0.7486
2739.000000 0.7483 0.7480 0.7477 0.7474 0.7471
2744.000000 0.7468 0.7464 0.7461 0.7457 0.7454
2749.000000 0.7450 0.7447 0.7443 0.7440 0.7436
2754.000000 0.7433 0.7429 0.7426 0.7420 0.7414
2759.000000 0.7408 0.7402 0.7396 0.7391 0.7385
2764.000000 0.7379 0.7373 0.7367 0.7361 0.7356
2769.000000 0.7353 0.7350 0.7349 0.7348 0.7357
2774.000000 0.7367 0.7378 0.7390 0.7401 0.7412
2779.000000 0.7423 0.7435 0.7447 0.7460 0.7472
2784.000000 0.7485 0.7492 0.7500 0.7504 0.7508
2789.000000 0.7507 0.7507 0.7502 0.7497 0.7486
2794.000000 0.7476 0.7458 0.7441 0.7416 0.7391
2799.000000 0.7377 0.7363 0.7349 0.7336 0.7323
2804.000000 0.7310 0.7299 0.7289 0.7279 0.7270
2809.000000 0.7260 0.7251 0.7249 0.7248 0.7247
2814.000000 0.7247 0.7246 0.7246 0.7246 0.7246
2819.000000 0.7245 0.7245 0.7244 0.7244 0.7243
2824.000000 0.7243 0.7242 0.7241 0.7240 0.7240
2829.000000 0.7237 0.7235 0.7227 0.7219 0.7211
2834.000000 0.7204 0.7196 0.7188 0.7178 0.7169
2839.000000 0.7157 0.7146 0.7134 0.7123 0.7111
2844.000000 0.7100 0.7087 0.7075 0.7058 0.7042
2849.000000 0.7026 0.7010 0.6994 0.6978 0.6961
2854.000000 0.6945 0.6929 0.6914 0.6901 0.6888
2859.000000 0.6875 0.6862 0.6852 0.6843 0.6842
2864.000000 0.6841 0.6839 0.6838 0.6837 0.6836
2869.000000 0.6832 0.6828 0.6808 0.6789 0.6765
2874.000000 0.6741 0.6688 0.6636 0.6565 0.6495
2879.000000 0.6424 0.6353 0.6282 0.6212 0.6141
2884.000000 0.6071 0.6000 0.5929 0.5858 0.5788
2889.000000 0.5717 0.5646 0.5575 0.5505 0.5434
2894.000000 0.5364 0.5334 0.5305 0.5357 0.5409
2899.000000 0.5502 0.5596 0.5690 0.5784 0.5877
2904.000000 0.5971 0.6048 0.6126 0.6137 0.6148
2909.000000 0.6159 0.6170 0.6176 0.6183 0.6187
2914.000000 0.6192 0.6196 0.6194 0.6199 0.6197
2919.000000 0.6195 0.6193 0.6187 0.6181 0.6169
2924.000000 0.6157 0.6143 0.6130 0.6113 0.6097
2929.000000 0.6075 0.6053 0.6031 0.6009 0.5990
2934.000000 0.5971 0.5951 0.5932 0.5914 0.5896
2939.000000 0.5880 0.5864 0.5848 0.5833 0.5822
2944.000000 0.5811 0.5799 0.5788 0.5773 0.5758
2949.000000 0.5731 0.5705 0.5618 0.5531 0.5425
2954.000000 0.5319 0.5213 0.5108 0.5002 0.4896
2959.000000 0.4790 0.4685 0.4579 0.4473 0.4367
2964.000000 0.4261 0.4155 0.4050 0.3944 0.3838
2969.000000 0.3815 0.3775 0.3954 0.4115 0.4276
2974.000000 0.4437 0.4598 0.4759 0.4920 0.5082
2979.000000 0.5243 0.5478 0.5446 0.5488 0.5422
2984.000000 0.5357 0.5182 0.5008 0.4833 0.4659
2989.000000 0.4484 0.4310 0.4135 0.3961 0.3786
2994.000000 0.3612 0.3437 0.3263 0.3089 0.2915
2999.000000 0.2740 0.2566 0.2391 0.2217 0.2076
3004.000000 0.1935 0.1938 0.1947 0.1951 0.1960
3009.000000 0.1967 0.1975 0.1998 0.2021 0.2297
3014.000000 0.2574 0.2885 0.3196 0.3507 0.3819
3019.000000 0.4130 0.4441 0.4752 0.5064 0.5375
3024.000000 0.5686 0.5978 0.6270 0.6312 0.6354
3029.000000 0.6387 0.6420 0.6453 0.6486 0.6529
3034.000000 0.6573 0.6615 0.6658 0.6686 0.6714
3039.000000 0.6741 0.6769 0.6792 0.6816 0.6836
3044.000000 0.6857 0.6868 0.6879 0.6885 0.6891
3049.000000 0.6897 0.6903 0.6909 0.6915 0.6916
3054.000000 0.6917 0.6917 0.6917 0.6917 0.6918
3059.000000 0.6918 0.6919 0.6919 0.6920 0.6920
3064.000000 0.6920 0.6920 0.6920 0.6919 0.6919
3069.000000 0.6919 0.6919 0.6918 0.6918 0.6920
3074.000000 0.6922 0.6928 0.6934 0.6940 0.6947
3079.000000 0.6955 0.6964 0.6978 0.6992 0.7005
3084.000000 0.7019 0.7034 0.7049 0.7064 0.7080
3089.000000 0.7094 0.7109 0.7124 0.7139 0.7153
3094.000000 0.7168 0.7182 0.7197 0.7211 0.7226
3099.000000 0.7237 0.7249 0.7254 0.7259 0.7262
3104.000000 0.7265 0.7268 0.7272 0.7275 0.7278
3109.000000 0.7281 0.7285 0.7288 0.7291 0.7294
3114.000000 0.7298 0.7301 0.7305 0.7309 0.7314
3119.000000 0.7319 0.7324 0.7328 0.7333 0.7337
3124.000000 0.7342 0.7346 0.7351 0.7356 0.7361
3129.000000 0.7366 0.7372 0.7377 0.7383 0.7389
3134.000000 0.7395 0.7400 0.7406 0.7412 0.7418
3139.000000 0.7423 0.7429 0.7434 0.7440 0.7445
3144.000000 0.7450 0.7455 0.7461 0.7466 0.7472
3149.000000 0.7477 0.7482 0.7487 0.7493 0.7498
3154.000000 0.7504 0.7509 0.7515 0.7520 0.7525
3159.000000 0.7530 0.7536 0.7541 0.7547 0.7552
3164.000000 0.7558 0.7563 0.7568 0.7573 0.7579
3169.000000 0.7582 0.7586 0.7590 0.7594 0.7597
3174.000000 0.7601 0.7605 0.7609 0.7612 0.7616
3179.000000 0.7616 0.7616 0.7616 0.7616 0.7615
3184.000000 0.7615 0.7615 0.7615 0.7615 0.7615
3189.000000 0.7614 0.7614 0.7613 0.7612 0.7609
3194.000000 0.7607 0.7605 0.7603 0.7601 0.7599
3199.000000 0.7596 0.7594 0.7592 0.7590 0.7587
3204.000000 0.7585 0.7583 0.7581 0.7578 0.7576
3209.000000 0.7573 0.7571 0.7568 0.7565 0.7562
3214.000000 0.7559 0.7556 0.7554 0.7551 0.7548
3219.000000 0.7545 0.7542 0.7539 0.7536 0.7533
3224.000000 0.7531 0.7528 0.7525 0.7522 0.7519
3229.000000 0.7516 0.7513 0.7510 0.7508 0.7505
3234.000000 0.7502 0.7499 0.7496 0.7493 0.7490
3239.000000 0.7487 0.7484 0.7481 0.7479 0.7476
3244.000000 0.7473 0.7470 0.7467 0.7464 0.7461
3249.000000 0.7457 0.7454 0.7450 0.7446 0.7442
3254.000000 0.7438 0.7434 0.7430 0.7426 0.7422
3259.000000 0.7418 0.7414 0.7410 0.7406 0.7402
3264.000000 0.7398 0.7394 0.7390 0.7386 0.7382
3269.000000 0.7378 0.7374 0.7370 0.7366 0.7362
3274.000000 0.7358 0.7354 0.7351 0.7347 0.7343
3279.000000 0.7339 0.7335 0.7331 0.7327 0.7323
3284.000000 0.7320 0.7316 0.7312 0.7310 0.7308
3289.000000 0.7308 0.7308 0.7307 0.7307 0.7307
3294.000000 0.7307 0.7307 0.7307 0.7307 0.7307
3299.000000 0.7306 0.7306 0.7306 0.7306 0.7306
3304.000000 0.7306 0.7302 0.7299 0.7295 0.7291
3309.000000 0.7287 0.7283 0.7279 0.7275 0.7271
3314.000000 0.7267 0.7263 0.7259 0.7255 0.7251
3319.000000 0.7246 0.7241 0.7234 0.7227 0.7219
3324.000000 0.7212 0.7204 0.7197 0.7189 0.7182
3329.000000 0.7175 0.7168 0.7160 0.7152 0.7142
3334.000000 0.7133 0.7124 0.7115 0.7105 0.7096
3339.000000 0.7087 0.7078 0.7069 0.7060 0.7050
3344.000000 0.7041 0.7032 0.7023 0.7013 0.7004
3349.000000 0.6995 0.6986 0.6976 0.6967 0.6957
3354.000000 0.6948 0.6938 0.6929 0.6919 0.6910
3359.000000 0.6900 0.6891 0.6882 0.6873 0.6863
3364.000000 0.6854 0.6844 0.6835 0.6825 0.6816
3369.000000 0.6806 0.6797 0.6786 0.6775 0.6759
3374.000000 0.6744 0.6728 0.6713 0.6697 0.6682
3379.000000 0.6671 0.6661 0.6661 0.6661 0.6660
3384.000000 0.6660 0.6660 0.6660 0.6659 0.6659
3389.000000 0.6659 0.6660 0.6660 0.6661 0.6661
3394.000000 0.6662 0.6663 0.6664 0.6664 0.6665
3399.000000 0.6665 0.6666 0.6664 0.6663 0.6660
3404.000000 0.6658 0.6655 0.6653 0.6650 0.6647
3409.000000 0.6644 0.6642 0.6639 0.6637 0.6634
3414.000000 0.6632 0.6629 0.6627 0.6624 0.6622
3419.000000 0.6619 0.6617 0.6615 0.6614 0.6612
3424.000000 0.6611 0.6609 0.6608 0.6606 0.6605
3429.000000 0.6603 0.6602 0.6600 0.6599 0.6597
3434.000000 0.6596 0.6595 0.6594 0.6594 0.6594
3439.000000 0.6593 0.6593 0.6593 0.6593 0.6592
3444.000000 0.6592 0.6592 0.6592 0.6591 0.6591
3449.000000 0.6591 0.6591 0.6590 0.6590 0.6590
3454.000000 0.6590 0.6589 0.6589 0.6592 0.6595
3459.000000 0.6598 0.6601 0.6604 0.6608 0.6613
3464.000000 0.6619 0.6624 0.6629 0.6634 0.6639
3469.000000 0.6644 0.6649 0.6654 0.6660 0.6669
3474.000000 0.6679 0.6690 0.6701 0.6712 0.6724
3479.000000 0.6735 0.6746 0.6757 0.6768 0.6777
3484.000000 0.6786 0.6795 0.6804 0.6812 0.6821
3489.000000 0.6830 0.6839 0.6847 0.6856 0.6864
3494.000000 0.6872 0.6876 0.6880 0.6884 0.6888
3499.000000 0.6891 0.6895 0.6899 0.6903 0.6907
3504.000000 0.6911 0.6914 0.6918 0.6921 0.6925
3509.000000 0.6927 0.6929 0.6931 0.6934 0.6936
3514.000000 0.6938 0.6940 0.6942 0.6944 0.6947
3519.000000 0.6949 0.6951 0.6960 0.6969 0.6978
3524.000000 0.6988 0.6997 0.7007 0.7017 0.7027
3529.000000 0.7036 0.7046 0.7055 0.7065 0.7073
3534.000000 0.7082 0.7089 0.7096 0.7102 0.7109
3539.000000 0.7116 0.7123 0.7129 0.7136 0.7143
3544.000000 0.7150 0.7156 0.7163 0.7170 0.7177
3549.000000 0.7183 0.7190 0.7197 0.7204 0.7210
3554.000000 0.7217 0.7224 0.7231 0.7237 0.7244
3559.000000 0.7250 0.7257 0.7262 0.7268 0.7274
3564.000000 0.7280 0.7286 0.7292 0.7298 0.7304
3569.000000 0.7309 0.7315 0.7321 0.7327 0.7333
3574.000000 0.7339 0.7345 0.7351 0.7356 0.7362
3579.000000 0.7368 0.7374 0.7380 0.7386 0.7391
3584.000000 0.7397 0.7403 0.7409 0.7415 0.7421
3589.000000 0.7427 0.7433 0.7438 0.7444 0.7450
3594.000000 0.7456 0.7462 0.7468 0.7474 0.7480
3599.000000 0.7486 0.7492 0.7498 0.7504 0.7510
3604.000000 0.7516 0.7522 0.7528 0.7534 0.7540
3609.000000 0.7546 0.7552 0.7558 0.7564 0.7569
3614.000000 0.7575 0.7581 0.7587 0.7593 0.7599
3619.000000 0.7605 0.7611 0.7616 0.7621 0.7625
3624.000000 0.7630 0.7634 0.7638 0.7642 0.7647
3629.000000 0.7651 0.7656 0.7660 0.7664 0.7668
3634.000000 0.7673 0.7677 0.7682 0.7686 0.7690
3639.000000 0.7694 0.7699 0.7703 0.7708 0.7711
3644.000000 0.7714 0.7716 0.7719 0.7722 0.7725
3649.000000 0.7727 0.7730 0.7733 0.7736 0.7738
3654.000000 0.7741 0.7744 0.7747 0.7749 0.7752
3659.000000 0.7755 0.7758 0.7759 0.7760 0.7757
3664.000000 0.7754 0.7751 0.7749 0.7746 0.7743
3669.000000 0.7740 0.7738 0.7736 0.7735 0.7733
3674.000000 0.7732 0.7730 0.7728 0.7726 0.7725
3679.000000 0.7723 0.7722 0.7724 0.7726 0.7727
3684.000000 0.7729 0.7730 0.7732 0.7733 0.7735
3689.000000 0.7736 0.7738 0.7739 0.7741 0.7743
3694.000000 0.7745 0.7746 0.7748 0.7751 0.7754
3699.000000 0.7756 0.7759 0.7761 0.7764 0.7767
3704.000000 0.7770 0.7772 0.7775 0.7778 0.7781
3709.000000 0.7783 0.7786 0.7787 0.7789 0.7788
3714.000000 0.7788 0.7787 0.7786 0.7785 0.7785
3719.000000 0.7784 0.7784 0.7783 0.7782 0.7778
3724.000000 0.7775 0.7772 0.7769 0.7766 0.7763
3729.000000 0.7760 0.7757 0.7754 0.7751 0.7747
3734.000000 0.7744 0.7742 0.7741 0.7743 0.7745
3739.000000 0.7746 0.7748 0.7750 0.7752 0.7753
3744.000000 0.7755 0.7757 0.7759 0.7760 0.7762
3749.000000 0.7764 0.7766 0.7768 0.7770 0.7772
3754.000000 0.7775 0.7770 0.7765 0.7758 0.7751
3759.000000 0.7744 0.7738 0.7731 0.7725 0.7719
3764.000000 0.7714 0.7708 0.7703 0.7706 0.7709
3769.000000 0.7713 0.7717 0.7721 0.7726 0.7730
3774.000000 0.7735 0.7739 0.7743 0.7742 0.7742
3779.000000 0.7741 0.7741 0.7740 0.7726 0.7738
3784.000000 0.7737 0.7735 0.7734 0.7732 0.7730
3789.000000 0.7726 0.7722 0.7717 0.7713 0.7708
3794.000000 0.7704 0.7699 0.7695 0.7694 0.7694
##END=
