##TITLE=Ammonium chloride, 2-chloroethyltrimethyl-, hydrated
##JCAMP-DX=4.24
##DATA TYPE=INFRARED SPECTRUM
##CLASS=COBLENTZ III
##ORIGIN=K. K. DEB-NCI FREDERICK CANCER RESEARCH CENTER
##OWNER=Copyright (C) 1987 by the Coblentz Society
Collection (C) 2018 copyright by the U.S. Secretary of Commerce
on behalf of the United States of America. All rights reserved.
##DATE=1973/12/05
##NAMES=CYCLOCEL
##CAS REGISTRY NO=39394-21-3
##MOLFORM=C5 H13 Cl2 N  * x H2 O
##SOURCE REFERENCE=COBLENTZ NO. 9708
##$NIST SOURCE=COBLENTZ
##$NIST IMAGE=cob9708
##SPECTROMETER/DATA SYSTEM=PERKIN-ELMER 180 (GRATING)
##INSTRUMENT PARAMETERS=GRATINGS: 2000, 1000, 500, 250 CM^-^1; FILTER CHANGE: 2970, 2000, 1485, 1000, 743, 500, 372, 250, 186 CM^-^1.
##STATE=SOLID (1.5 mg / 300 mg KBr DISC)
$$ PURITY - ANALYTICAL
$$ SEE SPECTRUM NO. 9706 - 9709 FOR "SPLIT MULL" RUNS, AND SPECTRUM NO. 9707 FOR "KBr DISC" RUN
$$SPECTRAL CONTAMINATION ASSUMED TO BE CAUSED BY A POLYMORPH AT 867 CM^-^1
##SAMPLING PROCEDURE=TRANSMISSION
##RESOLUTION=2
##DATA PROCESSING=DIGITIZED BY COBLENTZ SOCIETY (BATCH II) FROM HARD COPY
##XUNITS=1/CM
##YUNITS=TRANSMITTANCE
##XFACTOR=1.0
##YFACTOR=1
##FIRSTX=402
##LASTX=3794
##FIRSTY=0.8983
##MAXX=3794
##MINX=402
##MAXY=0.9445
##MINY=0.001
##NPOINTS=3393
##XYDATA=(X++(Y..Y))
402.000000 0.8983 0.8979 0.8974 0.8967 0.8959
407.000000 0.8951 0.8935 0.8919 0.8903 0.8875
412.000000 0.8847 0.8801 0.8801 0.8821 0.8804
417.000000 0.8825 0.8861 0.8886 0.8911 0.8930
422.000000 0.8949 0.8966 0.8978 0.8990 0.9002
427.000000 0.9014 0.9024 0.9030 0.9049 0.9033
432.000000 0.9025 0.9016 0.9008 0.8998 0.8978
437.000000 0.8958 0.8937 0.8911 0.8883 0.8803
442.000000 0.8681 0.8559 0.8438 0.8316 0.8195
447.000000 0.8073 0.7951 0.7858 0.7735 0.7681
452.000000 0.7657 0.7656 0.7655 0.7654 0.7661
457.000000 0.7682 0.7691 0.7712 0.7736 0.7828
462.000000 0.7947 0.8065 0.8183 0.8302 0.8420
467.000000 0.8539 0.8657 0.8767 0.8823 0.8872
472.000000 0.8913 0.8953 0.8979 0.9002 0.9024
477.000000 0.9046 0.9068 0.9086 0.9096 0.9106
482.000000 0.9116 0.9126 0.9136 0.9146 0.9156
487.000000 0.9164 0.9171 0.9178 0.9186 0.9193
492.000000 0.9200 0.9202 0.9204 0.9205 0.9219
497.000000 0.9194 0.9189 0.9184 0.9179 0.9173
502.000000 0.9167 0.9158 0.9150 0.9141 0.9133
507.000000 0.9126 0.9118 0.9111 0.9102 0.9093
512.000000 0.9083 0.9074 0.9063 0.9045 0.9027
517.000000 0.9009 0.9002 0.8997 0.8994 0.8993
522.000000 0.8993 0.8993 0.9008 0.9032 0.9055
527.000000 0.9079 0.9099 0.9119 0.9139 0.9159
532.000000 0.9175 0.9188 0.9200 0.9213 0.9220
537.000000 0.9225 0.9230 0.9236 0.9239 0.9241
542.000000 0.9244 0.9247 0.9249 0.9252 0.9253
547.000000 0.9254 0.9254 0.9255 0.9256 0.9257
552.000000 0.9257 0.9258 0.9259 0.9259 0.9260
557.000000 0.9261 0.9261 0.9262 0.9263 0.9263
562.000000 0.9264 0.9264 0.9265 0.9265 0.9265
567.000000 0.9266 0.9266 0.9266 0.9270 0.9266
572.000000 0.9266 0.9266 0.9266 0.9266 0.9266
577.000000 0.9266 0.9266 0.9265 0.9264 0.9263
582.000000 0.9262 0.9261 0.9260 0.9259 0.9258
587.000000 0.9258 0.9257 0.9256 0.9257 0.9257
592.000000 0.9257 0.9257 0.9257 0.9257 0.9257
597.000000 0.9257 0.9257 0.9257 0.9257 0.9257
602.000000 0.9258 0.9257 0.9256 0.9255 0.9254
607.000000 0.9253 0.9252 0.9251 0.9250 0.9249
612.000000 0.9248 0.9247 0.9246 0.9245 0.9244
617.000000 0.9244 0.9243 0.9240 0.9237 0.9235
622.000000 0.9232 0.9230 0.9227 0.9225 0.9222
627.000000 0.9220 0.9217 0.9215 0.9212 0.9210
632.000000 0.9207 0.9194 0.9180 0.9166 0.9152
637.000000 0.9137 0.9120 0.9103 0.9086 0.9068
642.000000 0.9051 0.9034 0.9017 0.9000 0.8982
647.000000 0.8948 0.8909 0.8870 0.8831 0.8765
652.000000 0.8695 0.8605 0.8420 0.8234 0.8048
657.000000 0.7863 0.7677 0.7492 0.7296 0.7299
662.000000 0.7375 0.7650 0.7925 0.8200 0.8476
667.000000 0.8625 0.8712 0.8792 0.8850 0.8908
672.000000 0.8952 0.8988 0.9021 0.9044 0.9068
677.000000 0.9091 0.9107 0.9115 0.9124 0.9132
682.000000 0.9140 0.9148 0.9151 0.9153 0.9155
687.000000 0.9157 0.9159 0.9161 0.9161 0.9152
692.000000 0.9160 0.9160 0.9160 0.9156 0.9152
697.000000 0.9148 0.9142 0.9131 0.9120 0.9109
702.000000 0.9088 0.9066 0.9044 0.9009 0.8974
707.000000 0.8930 0.8863 0.8796 0.8728 0.8654
712.000000 0.8580 0.8517 0.8466 0.8414 0.8365
717.000000 0.8331 0.8296 0.8242 0.8174 0.7983
722.000000 0.7862 0.7609 0.7090 0.6571 0.6053
727.000000 0.5534 0.5015 0.4496 0.4201 0.4210
732.000000 0.4204 0.4254 0.4538 0.4821 0.5104
737.000000 0.5387 0.5670 0.5953 0.6237 0.6520
742.000000 0.6803 0.7086 0.7369 0.7652 0.7935
747.000000 0.8029 0.8047 0.8065 0.8069 0.8073
752.000000 0.8059 0.8068 0.8063 0.8048 0.8031
757.000000 0.8005 0.7923 0.7661 0.7399 0.7136
762.000000 0.6874 0.6611 0.6349 0.6087 0.5824
767.000000 0.5709 0.5699 0.5802 0.5979 0.6157
772.000000 0.6334 0.6511 0.6689 0.6866 0.7043
777.000000 0.7221 0.7398 0.7575 0.7753 0.7930
782.000000 0.8107 0.8281 0.8312 0.8326 0.8311
787.000000 0.8307 0.8286 0.8251 0.8205 0.8149
792.000000 0.8001 0.7909 0.7816 0.7724 0.7632
797.000000 0.7539 0.7447 0.7355 0.7262 0.7170
802.000000 0.7078 0.6985 0.6893 0.6800 0.6744
807.000000 0.6751 0.6751 0.6816 0.6912 0.7008
812.000000 0.7104 0.7200 0.7296 0.7392 0.7488
817.000000 0.7585 0.7681 0.7777 0.7873 0.8046
822.000000 0.8146 0.8214 0.8281 0.8348 0.8417
827.000000 0.8488 0.8559 0.8619 0.8672 0.8726
832.000000 0.8776 0.8798 0.8820 0.8842 0.8865
837.000000 0.8887 0.8901 0.8911 0.8922 0.8932
842.000000 0.8943 0.8953 0.8960 0.8963 0.8965
847.000000 0.8967 0.8991 0.8969 0.8964 0.8959
852.000000 0.8953 0.8944 0.8934 0.8923 0.8893
857.000000 0.8863 0.8826 0.8781 0.8695 0.8553
862.000000 0.8411 0.8269 0.8127 0.7985 0.7918
867.000000 0.7924 0.7928 0.8002 0.8137 0.8272
872.000000 0.8407 0.8541 0.8676 0.8748 0.8776
877.000000 0.8795 0.8805 0.8809 0.8799 0.8809
882.000000 0.8804 0.8799 0.8789 0.8778 0.8766
887.000000 0.8752 0.8737 0.8722 0.8697 0.8672
892.000000 0.8639 0.8603 0.8566 0.8524 0.8476
897.000000 0.8390 0.8276 0.7969 0.7834 0.7675
902.000000 0.7500 0.7373 0.7253 0.6823 0.6695
907.000000 0.6566 0.6116 0.5427 0.4738 0.4050
912.000000 0.3361 0.2930 0.2823 0.2738 0.2607
917.000000 0.2429 0.2252 0.2075 0.1941 0.1951
922.000000 0.2034 0.2481 0.2928 0.3375 0.3821
927.000000 0.4268 0.4715 0.5161 0.5608 0.5945
932.000000 0.5959 0.5927 0.5745 0.5563 0.5381
937.000000 0.5310 0.5310 0.5393 0.5472 0.5467
942.000000 0.5400 0.5213 0.5025 0.4838 0.4651
947.000000 0.4463 0.4276 0.4089 0.3902 0.3739
952.000000 0.3726 0.3978 0.4345 0.4712 0.5078
957.000000 0.5445 0.5812 0.6178 0.6937 0.6912
962.000000 0.6968 0.6968 0.6854 0.6605 0.6355
967.000000 0.6105 0.5855 0.5606 0.5356 0.5106
972.000000 0.4856 0.4607 0.4357 0.4107 0.3857
977.000000 0.3680 0.3676 0.3786 0.4249 0.4712
982.000000 0.5175 0.5638 0.6100 0.6563 0.7006
987.000000 0.7003 0.7000 0.6838 0.6673 0.6509
992.000000 0.6367 0.6369 0.6423 0.6539 0.6656
997.000000 0.6773 0.6890 0.7006 0.7123 0.7240
1002.000000 0.7357 0.7473 0.7590 0.7707 0.7824
1007.000000 0.7965 0.8125 0.8175 0.8216 0.8243
1012.000000 0.8263 0.8277 0.8291 0.8305 0.8316
1017.000000 0.8321 0.8326 0.8331 0.8336 0.8343
1022.000000 0.8353 0.8364 0.8374 0.8385 0.8396
1027.000000 0.8407 0.8418 0.8429 0.8440 0.8451
1032.000000 0.8458 0.8457 0.8479 0.8456 0.8456
1037.000000 0.8389 0.8320 0.8252 0.8184 0.8115
1042.000000 0.8061 0.8068 0.8040 0.8090 0.8111
1047.000000 0.8145 0.8206 0.8267 0.8328 0.8389
1052.000000 0.8449 0.8510 0.8597 0.8569 0.8561
1057.000000 0.8492 0.8361 0.8229 0.8098 0.7966
1062.000000 0.7834 0.7703 0.7591 0.7588 0.7676
1067.000000 0.7829 0.7982 0.8135 0.8288 0.8441
1072.000000 0.8515 0.8539 0.8560 0.8578 0.8596
1077.000000 0.8614 0.8634 0.8653 0.8671 0.8688
1082.000000 0.8704 0.8721 0.8737 0.8754 0.8771
1087.000000 0.8789 0.8806 0.8823 0.8837 0.8846
1092.000000 0.8854 0.8863 0.8886 0.8880 0.8879
1097.000000 0.8878 0.8877 0.8876 0.8875 0.8873
1102.000000 0.8871 0.8869 0.8867 0.8865 0.8863
1107.000000 0.8861 0.8859 0.8856 0.8853 0.8850
1112.000000 0.8847 0.8844 0.8841 0.8838 0.8832
1117.000000 0.8820 0.8808 0.8796 0.8784 0.8764
1122.000000 0.8742 0.8720 0.8695 0.8667 0.8656
1127.000000 0.8650 0.8668 0.8706 0.8717 0.8719
1132.000000 0.8716 0.8691 0.8607 0.8523 0.8439
1137.000000 0.8354 0.8270 0.8213 0.8190 0.8190
1142.000000 0.8234 0.8360 0.8486 0.8519 0.8505
1147.000000 0.8478 0.8468 0.8460 0.8468 0.8520
1152.000000 0.8573 0.8625 0.8677 0.8729 0.8784
1157.000000 0.8817 0.8838 0.8851 0.8861 0.8870
1162.000000 0.8880 0.8888 0.8892 0.8897 0.8901
1167.000000 0.8906 0.8910 0.8915 0.8919 0.8924
1172.000000 0.8928 0.8933 0.8937 0.8942 0.8947
1177.000000 0.8951 0.8956 0.8961 0.8966 0.8972
1182.000000 0.8977 0.8982 0.8987 0.8991 0.8991
1187.000000 0.8991 0.8992 0.8985 0.9033 0.8970
1192.000000 0.8963 0.8950 0.8937 0.8924 0.8914
1197.000000 0.8908 0.8897 0.8902 0.8904 0.8907
1202.000000 0.8910 0.8914 0.8917 0.8922 0.8931
1207.000000 0.8941 0.8951 0.8965 0.8979 0.8993
1212.000000 0.9006 0.9009 0.9012 0.9038 0.9008
1217.000000 0.9002 0.8995 0.8989 0.8981 0.8972
1222.000000 0.8963 0.8953 0.8939 0.8924 0.8909
1227.000000 0.8894 0.8862 0.8831 0.8800 0.8753
1232.000000 0.8706 0.8658 0.8604 0.8548 0.8491
1237.000000 0.8435 0.8373 0.8311 0.8248 0.8194
1242.000000 0.8141 0.8101 0.8086 0.8082 0.8076
1247.000000 0.8096 0.8178 0.8283 0.8354 0.8399
1252.000000 0.8444 0.8489 0.8536 0.8583 0.8624
1257.000000 0.8647 0.8654 0.8655 0.8665 0.8629
1262.000000 0.8598 0.8562 0.8524 0.8486 0.8446
1267.000000 0.8407 0.8375 0.8367 0.8361 0.8374
1272.000000 0.8416 0.8464 0.8502 0.8508 0.8528
1277.000000 0.8506 0.8491 0.8465 0.8444 0.8403
1282.000000 0.8376 0.8349 0.8336 0.8325 0.8321
1287.000000 0.8317 0.8313 0.8302 0.8290 0.8241
1292.000000 0.7934 0.7628 0.7321 0.7015 0.6708
1297.000000 0.6402 0.6095 0.5789 0.5482 0.5227
1302.000000 0.5241 0.5248 0.5501 0.5754 0.6008
1307.000000 0.6261 0.6514 0.6767 0.7020 0.7286
1312.000000 0.7627 0.7844 0.7993 0.8066 0.8139
1317.000000 0.8200 0.8250 0.8300 0.8350 0.8417
1322.000000 0.8483 0.8549 0.8612 0.8674 0.8717
1327.000000 0.8733 0.8744 0.8745 0.8742 0.8737
1332.000000 0.8730 0.8724 0.8717 0.8699 0.8680
1337.000000 0.8661 0.8638 0.8614 0.8591 0.8563
1342.000000 0.8532 0.8501 0.8480 0.8459 0.8445
1347.000000 0.8440 0.8436 0.8431 0.8430 0.8415
1352.000000 0.8427 0.8426 0.8430 0.8434 0.8440
1357.000000 0.8446 0.8455 0.8485 0.8545 0.8586
1362.000000 0.8621 0.8638 0.8655 0.8672 0.8676
1367.000000 0.8665 0.8661 0.8657 0.8651 0.8638
1372.000000 0.8625 0.8612 0.8596 0.8577 0.8558
1377.000000 0.8539 0.8519 0.8498 0.8477 0.8456
1382.000000 0.8436 0.8403 0.8368 0.8320 0.8177
1387.000000 0.8035 0.7893 0.7750 0.7608 0.7581
1392.000000 0.7603 0.7707 0.7811 0.7915 0.8019
1397.000000 0.8082 0.8093 0.7984 0.7840 0.7695
1402.000000 0.7550 0.7406 0.7289 0.7266 0.7245
1407.000000 0.7223 0.7205 0.7206 0.7240 0.7319
1412.000000 0.7399 0.7478 0.7557 0.7559 0.7522
1417.000000 0.7335 0.7149 0.6962 0.6776 0.6589
1422.000000 0.6402 0.6353 0.6347 0.6580 0.6795
1427.000000 0.7009 0.7224 0.7297 0.7307 0.7242
1432.000000 0.7056 0.6870 0.6683 0.6497 0.6311
1437.000000 0.6125 0.5939 0.5753 0.5566 0.5398
1442.000000 0.5322 0.5244 0.5165 0.5119 0.5085
1447.000000 0.5077 0.5078 0.5101 0.5083 0.5092
1452.000000 0.5101 0.5115 0.5130 0.5194 0.5262
1457.000000 0.5331 0.5399 0.5451 0.5450 0.5445
1462.000000 0.5446 0.5327 0.5072 0.4818 0.4564
1467.000000 0.4310 0.4055 0.3801 0.3547 0.3293
1472.000000 0.3039 0.2784 0.2530 0.2276 0.2022
1477.000000 0.1767 0.1513 0.1259 0.1099 0.1019
1482.000000 0.0939 0.0867 0.0818 0.0812 0.0812
1487.000000 0.0819 0.1106 0.1389 0.1673 0.1956
1492.000000 0.2239 0.2522 0.2805 0.3088 0.3372
1497.000000 0.3655 0.3938 0.4221 0.4504 0.4787
1502.000000 0.5070 0.5354 0.5558 0.5950 0.6127
1507.000000 0.6304 0.6481 0.6602 0.6716 0.6830
1512.000000 0.6943 0.7056 0.7184 0.7369 0.7526
1517.000000 0.7617 0.7709 0.7800 0.7863 0.7911
1522.000000 0.7959 0.8006 0.8054 0.8096 0.8127
1527.000000 0.8158 0.8189 0.8220 0.8251 0.8276
1532.000000 0.8302 0.8327 0.8353 0.8378 0.8404
1537.000000 0.8429 0.8444 0.8457 0.8471 0.8484
1542.000000 0.8497 0.8511 0.8524 0.8535 0.8543
1547.000000 0.8550 0.8558 0.8565 0.8573 0.8580
1552.000000 0.8588 0.8594 0.8599 0.8603 0.8608
1557.000000 0.8613 0.8617 0.8622 0.8627 0.8631
1562.000000 0.8636 0.8639 0.8642 0.8645 0.8648
1567.000000 0.8651 0.8654 0.8657 0.8660 0.8662
1572.000000 0.8664 0.8666 0.8669 0.8671 0.8677
1577.000000 0.8683 0.8689 0.8695 0.8701 0.8708
1582.000000 0.8714 0.8721 0.8727 0.8734 0.8740
1587.000000 0.8747 0.8753 0.8755 0.8758 0.8760
1592.000000 0.8763 0.8765 0.8768 0.8770 0.8772
1597.000000 0.8771 0.8770 0.8769 0.8768 0.8767
1602.000000 0.8766 0.8766 0.8765 0.8762 0.8759
1607.000000 0.8756 0.8754 0.8751 0.8748 0.8745
1612.000000 0.8742 0.8739 0.8736 0.8733 0.8730
1617.000000 0.8727 0.8725 0.8722 0.8720 0.8717
1622.000000 0.8714 0.8712 0.8709 0.8707 0.8705
1627.000000 0.8708 0.8711 0.8714 0.8717 0.8720
1632.000000 0.8723 0.8726 0.8729 0.8732 0.8736
1637.000000 0.8743 0.8750 0.8757 0.8764 0.8771
1642.000000 0.8778 0.8785 0.8792 0.8799 0.8806
1647.000000 0.8813 0.8820 0.8828 0.8837 0.8847
1652.000000 0.8856 0.8865 0.8874 0.8883 0.8892
1657.000000 0.8901 0.8910 0.8919 0.8928 0.8938
1662.000000 0.8948 0.8959 0.8969 0.8979 0.8989
1667.000000 0.8999 0.9009 0.9019 0.9027 0.9029
1672.000000 0.9032 0.9033 0.9031 0.9030 0.9055
1677.000000 0.9027 0.9026 0.9024 0.9023 0.9020
1682.000000 0.9017 0.9013 0.9010 0.9007 0.9000
1687.000000 0.8992 0.8985 0.8977 0.8970 0.8962
1692.000000 0.8955 0.8947 0.8940 0.8929 0.8918
1697.000000 0.8907 0.8896 0.8885 0.8874 0.8863
1702.000000 0.8852 0.8841 0.8830 0.8820 0.8809
1707.000000 0.8798 0.8788 0.8777 0.8766 0.8755
1712.000000 0.8745 0.8734 0.8723 0.8713 0.8702
1717.000000 0.8692 0.8685 0.8678 0.8670 0.8663
1722.000000 0.8656 0.8649 0.8642 0.8636 0.8636
1727.000000 0.8623 0.8638 0.8642 0.8646 0.8650
1732.000000 0.8665 0.8683 0.8702 0.8720 0.8737
1737.000000 0.8754 0.8771 0.8788 0.8805 0.8815
1742.000000 0.8822 0.8830 0.8837 0.8845 0.8852
1747.000000 0.8854 0.8857 0.8859 0.8861 0.8863
1752.000000 0.8863 0.8862 0.8862 0.8861 0.8861
1757.000000 0.8860 0.8859 0.8859 0.8858 0.8858
1762.000000 0.8857 0.8854 0.8852 0.8849 0.8846
1767.000000 0.8844 0.8841 0.8839 0.8836 0.8833
1772.000000 0.8831 0.8828 0.8826 0.8823 0.8820
1777.000000 0.8818 0.8815 0.8813 0.8810 0.8807
1782.000000 0.8805 0.8804 0.8805 0.8807 0.8809
1787.000000 0.8810 0.8812 0.8814 0.8815 0.8817
1792.000000 0.8818 0.8820 0.8822 0.8823 0.8827
1797.000000 0.8833 0.8839 0.8845 0.8851 0.8857
1802.000000 0.8864 0.8870 0.8876 0.8882 0.8888
1807.000000 0.8894 0.8900 0.8906 0.8912 0.8918
1812.000000 0.8924 0.8930 0.8937 0.8943 0.8949
1817.000000 0.8956 0.8962 0.8968 0.8975 0.8981
1822.000000 0.8987 0.8994 0.9000 0.9006 0.9013
1827.000000 0.9019 0.9025 0.9031 0.9038 0.9044
1832.000000 0.9050 0.9056 0.9062 0.9069 0.9075
1837.000000 0.9081 0.9087 0.9093 0.9100 0.9106
1842.000000 0.9112 0.9118 0.9125 0.9131 0.9138
1847.000000 0.9144 0.9151 0.9157 0.9164 0.9170
1852.000000 0.9177 0.9184 0.9190 0.9197 0.9203
1857.000000 0.9210 0.9216 0.9223 0.9229 0.9236
1862.000000 0.9243 0.9249 0.9256 0.9262 0.9269
1867.000000 0.9273 0.9277 0.9281 0.9284 0.9288
1872.000000 0.9292 0.9296 0.9300 0.9304 0.9308
1877.000000 0.9312 0.9316 0.9320 0.9323 0.9327
1882.000000 0.9328 0.9328 0.9328 0.9328 0.9328
1887.000000 0.9328 0.9328 0.9328 0.9328 0.9327
1892.000000 0.9327 0.9327 0.9327 0.9327 0.9327
1897.000000 0.9327 0.9327 0.9326 0.9323 0.9321
1902.000000 0.9318 0.9316 0.9313 0.9310 0.9308
1907.000000 0.9305 0.9303 0.9300 0.9297 0.9295
1912.000000 0.9292 0.9290 0.9289 0.9288 0.9286
1917.000000 0.9285 0.9284 0.9282 0.9281 0.9280
1922.000000 0.9279 0.9277 0.9276 0.9275 0.9273
1927.000000 0.9273 0.9275 0.9278 0.9280 0.9283
1932.000000 0.9285 0.9288 0.9290 0.9293 0.9295
1937.000000 0.9298 0.9300 0.9303 0.9306 0.9309
1942.000000 0.9312 0.9316 0.9319 0.9322 0.9326
1947.000000 0.9329 0.9332 0.9336 0.9339 0.9343
1952.000000 0.9346 0.9349 0.9352 0.9354 0.9355
1957.000000 0.9357 0.9358 0.9360 0.9361 0.9362
1962.000000 0.9364 0.9365 0.9367 0.9368 0.9370
1967.000000 0.9370 0.9371 0.9372 0.9373 0.9374
1972.000000 0.9374 0.9375 0.9376 0.9377 0.9378
1977.000000 0.9378 0.9379 0.9380 0.9381 0.9382
1982.000000 0.9383 0.9384 0.9385 0.9386 0.9387
1987.000000 0.9387 0.9388 0.9389 0.9390 0.9391
1992.000000 0.9392 0.9393 0.9394 0.9395 0.9396
1997.000000 0.9397 0.9398 0.9399 0.9400 0.9401
2002.000000 0.9402 0.9402 0.9403 0.9403 0.9404
2007.000000 0.9404 0.9404 0.9404 0.9405 0.9405
2012.000000 0.9406 0.9406 0.9407 0.9407 0.9408
2017.000000 0.9408 0.9409 0.9409 0.9410 0.9410
2022.000000 0.9411 0.9411 0.9412 0.9410 0.9412
2027.000000 0.9406 0.9405 0.9403 0.9401 0.9401
2032.000000 0.9401 0.9403 0.9405 0.9406 0.9408
2037.000000 0.9409 0.9411 0.9412 0.9414 0.9415
2042.000000 0.9417 0.9418 0.9420 0.9421 0.9423
2047.000000 0.9424 0.9426 0.9427 0.9429 0.9430
2052.000000 0.9432 0.9434 0.9436 0.9437 0.9439
2057.000000 0.9440 0.9442 0.9443 0.9445 0.9444
2062.000000 0.9444 0.9444 0.9444 0.9443 0.9443
2067.000000 0.9443 0.9443 0.9443 0.9443 0.9442
2072.000000 0.9442 0.9442 0.9442 0.9441 0.9441
2077.000000 0.9440 0.9440 0.9439 0.9439 0.9438
2082.000000 0.9438 0.9437 0.9436 0.9435 0.9435
2087.000000 0.9434 0.9433 0.9432 0.9432 0.9431
2092.000000 0.9431 0.9430 0.9429 0.9428 0.9428
2097.000000 0.9427 0.9427 0.9426 0.9425 0.9425
2102.000000 0.9425 0.9425 0.9426 0.9426 0.9426
2107.000000 0.9426 0.9427 0.9427 0.9428 0.9428
2112.000000 0.9429 0.9429 0.9429 0.9429 0.9430
2117.000000 0.9430 0.9431 0.9428 0.9425 0.9422
2122.000000 0.9419 0.9416 0.9413 0.9410 0.9407
2127.000000 0.9404 0.9401 0.9398 0.9395 0.9392
2132.000000 0.9389 0.9386 0.9383 0.9382 0.9382
2137.000000 0.9381 0.9381 0.9380 0.9380 0.9379
2142.000000 0.9379 0.9378 0.9378 0.9379 0.9381
2147.000000 0.9384 0.9388 0.9391 0.9395 0.9398
2152.000000 0.9402 0.9405 0.9409 0.9412 0.9416
2157.000000 0.9419 0.9423 0.9422 0.9421 0.9419
2162.000000 0.9417 0.9415 0.9413 0.9411 0.9409
2167.000000 0.9407 0.9405 0.9403 0.9401 0.9399
2172.000000 0.9397 0.9395 0.9393 0.9391 0.9389
2177.000000 0.9387 0.9385 0.9383 0.9381 0.9379
2182.000000 0.9377 0.9375 0.9373 0.9372 0.9371
2187.000000 0.9370 0.9369 0.9368 0.9367 0.9366
2192.000000 0.9365 0.9364 0.9363 0.9362 0.9361
2197.000000 0.9360 0.9359 0.9358 0.9357 0.9355
2202.000000 0.9354 0.9352 0.9351 0.9349 0.9347
2207.000000 0.9345 0.9344 0.9342 0.9340 0.9338
2212.000000 0.9337 0.9335 0.9334 0.9332 0.9330
2217.000000 0.9328 0.9327 0.9325 0.9323 0.9321
2222.000000 0.9320 0.9318 0.9317 0.9315 0.9313
2227.000000 0.9311 0.9310 0.9308 0.9306 0.9304
2232.000000 0.9303 0.9301 0.9299 0.9296 0.9293
2237.000000 0.9290 0.9288 0.9285 0.9283 0.9280
2242.000000 0.9278 0.9275 0.9273 0.9270 0.9267
2247.000000 0.9264 0.9262 0.9259 0.9257 0.9254
2252.000000 0.9252 0.9249 0.9247 0.9244 0.9241
2257.000000 0.9238 0.9236 0.9233 0.9230 0.9227
2262.000000 0.9225 0.9222 0.9219 0.9216 0.9213
2267.000000 0.9210 0.9208 0.9205 0.9202 0.9199
2272.000000 0.9197 0.9194 0.9191 0.9188 0.9186
2277.000000 0.9186 0.9187 0.9190 0.9193 0.9195
2282.000000 0.9198 0.9202 0.9206 0.9210 0.9214
2287.000000 0.9218 0.9222 0.9226 0.9230 0.9233
2292.000000 0.9237 0.9237 0.9238 0.9236 0.9234
2297.000000 0.9217 0.9200 0.9194 0.9189 0.9188
2302.000000 0.9187 0.9186 0.9186 0.9188 0.9191
2307.000000 0.9196 0.9201 0.9206 0.9211 0.9216
2312.000000 0.9221 0.9224 0.9227 0.9230 0.9233
2317.000000 0.9236 0.9239 0.9241 0.9244 0.9247
2322.000000 0.9250 0.9252 0.9255 0.9257 0.9259
2327.000000 0.9258 0.9257 0.9256 0.9255 0.9253
2332.000000 0.9252 0.9248 0.9244 0.9240 0.9236
2337.000000 0.9232 0.9228 0.9224 0.9220 0.9216
2342.000000 0.9212 0.9208 0.9205 0.9201 0.9197
2347.000000 0.9194 0.9192 0.9189 0.9186 0.9183
2352.000000 0.9180 0.9177 0.9175 0.9172 0.9169
2357.000000 0.9166 0.9163 0.9160 0.9158 0.9155
2362.000000 0.9152 0.9149 0.9147 0.9144 0.9141
2367.000000 0.9138 0.9135 0.9132 0.9129 0.9126
2372.000000 0.9123 0.9120 0.9117 0.9114 0.9111
2377.000000 0.9107 0.9104 0.9101 0.9098 0.9095
2382.000000 0.9092 0.9089 0.9086 0.9083 0.9080
2387.000000 0.9077 0.9074 0.9072 0.9070 0.9068
2392.000000 0.9066 0.9064 0.9063 0.9061 0.9059
2397.000000 0.9057 0.9055 0.9053 0.9051 0.9049
2402.000000 0.9048 0.9046 0.9044 0.9042 0.9040
2407.000000 0.9038 0.9036 0.9034 0.9033 0.9032
2412.000000 0.9032 0.9031 0.9030 0.9029 0.9029
2417.000000 0.9028 0.9028 0.9027 0.9026 0.9025
2422.000000 0.9025 0.9024 0.9024 0.9023 0.9022
2427.000000 0.9021 0.9021 0.9020 0.9020 0.9021
2432.000000 0.9022 0.9022 0.9023 0.9024 0.9025
2437.000000 0.9025 0.9026 0.9027 0.9028 0.9028
2442.000000 0.9029 0.9030 0.9031 0.9031 0.9032
2447.000000 0.9032 0.9033 0.9032 0.9032 0.9031
2452.000000 0.9031 0.9030 0.9030 0.9029 0.9029
2457.000000 0.9028 0.9028 0.9022 0.9016 0.9006
2462.000000 0.8997 0.8988 0.8979 0.8970 0.8961
2467.000000 0.8952 0.8943 0.8932 0.8921 0.8909
2472.000000 0.8898 0.8887 0.8876 0.8864 0.8853
2477.000000 0.8841 0.8830 0.8817 0.8805 0.8792
2482.000000 0.8780 0.8768 0.8756 0.8742 0.8728
2487.000000 0.8690 0.8653 0.8623 0.8594 0.8569
2492.000000 0.8544 0.8518 0.8492 0.8486 0.8481
2497.000000 0.8482 0.8483 0.8495 0.8475 0.8532
2502.000000 0.8557 0.8582 0.8607 0.8632 0.8657
2507.000000 0.8682 0.8707 0.8732 0.8757 0.8757
2512.000000 0.8767 0.8753 0.8749 0.8744 0.8740
2517.000000 0.8730 0.8720 0.8706 0.8692 0.8677
2522.000000 0.8662 0.8650 0.8639 0.8627 0.8615
2527.000000 0.8604 0.8593 0.8587 0.8581 0.8574
2532.000000 0.8568 0.8568 0.8568 0.8565 0.8563
2537.000000 0.8558 0.8554 0.8549 0.8544 0.8535
2542.000000 0.8527 0.8514 0.8501 0.8487 0.8474
2547.000000 0.8459 0.8445 0.8430 0.8415 0.8406
2552.000000 0.8397 0.8388 0.8380 0.8382 0.8373
2557.000000 0.8389 0.8394 0.8401 0.8408 0.8415
2562.000000 0.8423 0.8430 0.8437 0.8445 0.8453
2567.000000 0.8465 0.8477 0.8488 0.8500 0.8509
2572.000000 0.8519 0.8529 0.8539 0.8548 0.8588
2577.000000 0.8565 0.8572 0.8575 0.8579 0.8576
2582.000000 0.8573 0.8570 0.8568 0.8565 0.8563
2587.000000 0.8557 0.8552 0.8544 0.8537 0.8523
2592.000000 0.8509 0.8501 0.8493 0.8485 0.8478
2597.000000 0.8474 0.8471 0.8475 0.8447 0.8488
2602.000000 0.8497 0.8505 0.8514 0.8523 0.8533
2607.000000 0.8542 0.8552 0.8562 0.8572 0.8583
2612.000000 0.8594 0.8605 0.8616 0.8625 0.8635
2617.000000 0.8643 0.8652 0.8660 0.8669 0.8672
2622.000000 0.8675 0.8678 0.8681 0.8679 0.8677
2627.000000 0.8675 0.8673 0.8671 0.8669 0.8667
2632.000000 0.8666 0.8664 0.8662 0.8660 0.8658
2637.000000 0.8656 0.8655 0.8653 0.8651 0.8650
2642.000000 0.8650 0.8649 0.8649 0.8649 0.8649
2647.000000 0.8648 0.8648 0.8650 0.8653 0.8657
2652.000000 0.8661 0.8665 0.8669 0.8671 0.8679
2657.000000 0.8666 0.8660 0.8653 0.8646 0.8638
2662.000000 0.8630 0.8622 0.8614 0.8606 0.8599
2667.000000 0.8592 0.8585 0.8579 0.8573 0.8567
2672.000000 0.8561 0.8555 0.8549 0.8545 0.8542
2677.000000 0.8538 0.8535 0.8532 0.8529 0.8526
2682.000000 0.8523 0.8520 0.8518 0.8515 0.8513
2687.000000 0.8510 0.8508 0.8505 0.8503 0.8489
2692.000000 0.8476 0.8462 0.8449 0.8435 0.8422
2697.000000 0.8408 0.8395 0.8382 0.8370 0.8361
2702.000000 0.8353 0.8352 0.8352 0.8352 0.8352
2707.000000 0.8352 0.8352 0.8351 0.8351 0.8348
2712.000000 0.8346 0.8343 0.8340 0.8337 0.8334
2717.000000 0.8331 0.8328 0.8315 0.8302 0.8284
2722.000000 0.8266 0.8248 0.8230 0.8215 0.8200
2727.000000 0.8185 0.8171 0.8161 0.8152 0.8145
2732.000000 0.8138 0.8131 0.8125 0.8116 0.8107
2737.000000 0.8084 0.8062 0.8039 0.8017 0.7994
2742.000000 0.7971 0.7949 0.7927 0.7916 0.7905
2747.000000 0.7897 0.7890 0.7893 0.7896 0.7899
2752.000000 0.7903 0.7906 0.7909 0.7917 0.7926
2757.000000 0.7934 0.7943 0.7953 0.7963 0.7973
2762.000000 0.7983 0.7986 0.7990 0.7991 0.7993
2767.000000 0.7994 0.7996 0.7995 0.7994 0.7992
2772.000000 0.7990 0.7988 0.7987 0.7984 0.7981
2777.000000 0.7973 0.7965 0.7957 0.7950 0.7942
2782.000000 0.7935 0.7930 0.7926 0.7922 0.7918
2787.000000 0.7914 0.7910 0.7911 0.7912 0.7919
2792.000000 0.7926 0.7933 0.7940 0.7945 0.7951
2797.000000 0.7947 0.7943 0.7923 0.7904 0.7876
2802.000000 0.7849 0.7822 0.7796 0.7769 0.7743
2807.000000 0.7717 0.7691 0.7670 0.7649 0.7633
2812.000000 0.7618 0.7616 0.7614 0.7612 0.7610
2817.000000 0.7609 0.7609 0.7618 0.7628 0.7638
2822.000000 0.7649 0.7659 0.7669 0.7677 0.7686
2827.000000 0.7694 0.7703 0.7703 0.7703 0.7700
2832.000000 0.7697 0.7692 0.7688 0.7660 0.7632
2837.000000 0.7598 0.7564 0.7534 0.7504 0.7474
2842.000000 0.7444 0.7420 0.7396 0.7376 0.7357
2847.000000 0.7337 0.7318 0.7300 0.7283 0.7266
2852.000000 0.7249 0.7232 0.7215 0.7198 0.7182
2857.000000 0.7162 0.7143 0.7124 0.7105 0.7086
2862.000000 0.7067 0.7047 0.7028 0.7008 0.6988
2867.000000 0.6968 0.6949 0.6929 0.6909 0.6888
2872.000000 0.6868 0.6846 0.6825 0.6803 0.6782
2877.000000 0.6760 0.6738 0.6716 0.6695 0.6674
2882.000000 0.6654 0.6636 0.6619 0.6601 0.6584
2887.000000 0.6567 0.6550 0.6532 0.6515 0.6497
2892.000000 0.6480 0.6462 0.6445 0.6423 0.6402
2897.000000 0.6378 0.6355 0.6331 0.6308 0.6285
2902.000000 0.6262 0.6239 0.6216 0.6193 0.6171
2907.000000 0.6148 0.6126 0.6104 0.6082 0.6059
2912.000000 0.6037 0.6015 0.5993 0.5966 0.5940
2917.000000 0.5911 0.5883 0.5854 0.5826 0.5797
2922.000000 0.5769 0.5739 0.5710 0.5680 0.5650
2927.000000 0.5620 0.5590 0.5560 0.5530 0.5504
2932.000000 0.5478 0.5451 0.5425 0.5398 0.5371
2937.000000 0.5337 0.5303 0.5268 0.5234 0.5200
2942.000000 0.5166 0.5111 0.5057 0.4990 0.4923
2947.000000 0.4866 0.4809 0.4753 0.4697 0.4648
2952.000000 0.4599 0.4550 0.4501 0.4449 0.4397
2957.000000 0.4341 0.4285 0.4229 0.4173 0.4098
2962.000000 0.4024 0.3941 0.3859 0.3753 0.3647
2967.000000 0.3508 0.3370 0.3232 0.3094 0.2956
2972.000000 0.2818 0.2679 0.2541 0.2469 0.2404
2977.000000 0.2417 0.2437 0.2550 0.2664 0.2777
2982.000000 0.2891 0.3004 0.3118 0.3232 0.3346
2987.000000 0.3459 0.3573 0.3686 0.3800 0.3913
2992.000000 0.4083 0.4052 0.4078 0.4080 0.4083
2997.000000 0.3896 0.3710 0.3474 0.3239 0.3004
3002.000000 0.2769 0.2533 0.2298 0.2062 0.1827
3007.000000 0.1591 0.1356 0.1120 0.0885 0.0649
3012.000000 0.0414 0.0217 0.0021 0.0022 0.0024
3017.000000 0.0262 0.0010 0.0874 0.1248 0.1621
3022.000000 0.1995 0.2368 0.2742 0.3115 0.3489
3027.000000 0.3862 0.4236 0.4609 0.4983 0.5356
3032.000000 0.5730 0.6117 0.6504 0.6558 0.6613
3037.000000 0.6643 0.6674 0.6704 0.6735 0.6764
3042.000000 0.6794 0.6817 0.6840 0.6863 0.6886
3047.000000 0.6908 0.6931 0.6951 0.6971 0.6991
3052.000000 0.7012 0.7031 0.7050 0.7061 0.7073
3057.000000 0.7084 0.7096 0.7107 0.7119 0.7131
3062.000000 0.7143 0.7152 0.7161 0.7169 0.7177
3067.000000 0.7185 0.7193 0.7201 0.7210 0.7218
3072.000000 0.7226 0.7234 0.7242 0.7250 0.7259
3077.000000 0.7267 0.7275 0.7283 0.7292 0.7300
3082.000000 0.7308 0.7316 0.7325 0.7333 0.7342
3087.000000 0.7350 0.7358 0.7364 0.7371 0.7377
3092.000000 0.7384 0.7390 0.7396 0.7402 0.7409
3097.000000 0.7415 0.7421 0.7427 0.7433 0.7437
3102.000000 0.7442 0.7446 0.7451 0.7455 0.7460
3107.000000 0.7464 0.7469 0.7473 0.7478 0.7482
3112.000000 0.7487 0.7493 0.7499 0.7505 0.7512
3117.000000 0.7518 0.7525 0.7532 0.7539 0.7545
3122.000000 0.7552 0.7564 0.7577 0.7591 0.7606
3127.000000 0.7620 0.7635 0.7649 0.7664 0.7680
3132.000000 0.7696 0.7713 0.7731 0.7748 0.7765
3137.000000 0.7782 0.7799 0.7817 0.7835 0.7853
3142.000000 0.7871 0.7889 0.7908 0.7926 0.7944
3147.000000 0.7962 0.7980 0.7994 0.8008 0.8021
3152.000000 0.8035 0.8048 0.8062 0.8075 0.8089
3157.000000 0.8102 0.8115 0.8128 0.8142 0.8155
3162.000000 0.8169 0.8176 0.8183 0.8190 0.8198
3167.000000 0.8205 0.8212 0.8219 0.8226 0.8233
3172.000000 0.8241 0.8248 0.8255 0.8261 0.8267
3177.000000 0.8271 0.8275 0.8279 0.8284 0.8288
3182.000000 0.8293 0.8297 0.8301 0.8305 0.8310
3187.000000 0.8314 0.8318 0.8322 0.8326 0.8327
3192.000000 0.8329 0.8330 0.8332 0.8333 0.8335
3197.000000 0.8336 0.8338 0.8340 0.8342 0.8343
3202.000000 0.8344 0.8344 0.8344 0.8344 0.8344
3207.000000 0.8344 0.8344 0.8344 0.8344 0.8344
3212.000000 0.8344 0.8344 0.8344 0.8343 0.8343
3217.000000 0.8342 0.8342 0.8341 0.8340 0.8339
3222.000000 0.8339 0.8338 0.8355 0.8336 0.8336
3227.000000 0.8335 0.8335 0.8334 0.8333 0.8332
3232.000000 0.8332 0.8331 0.8330 0.8328 0.8327
3237.000000 0.8325 0.8324 0.8322 0.8320 0.8318
3242.000000 0.8317 0.8315 0.8313 0.8311 0.8310
3247.000000 0.8308 0.8307 0.8305 0.8303 0.8301
3252.000000 0.8300 0.8298 0.8296 0.8294 0.8293
3257.000000 0.8290 0.8287 0.8284 0.8281 0.8278
3262.000000 0.8276 0.8273 0.8270 0.8267 0.8264
3267.000000 0.8261 0.8258 0.8255 0.8253 0.8250
3272.000000 0.8247 0.8244 0.8241 0.8238 0.8235
3277.000000 0.8232 0.8230 0.8226 0.8223 0.8220
3282.000000 0.8217 0.8213 0.8210 0.8207 0.8204
3287.000000 0.8200 0.8197 0.8194 0.8191 0.8192
3292.000000 0.8194 0.8196 0.8199 0.8201 0.8203
3297.000000 0.8205 0.8207 0.8209 0.8212 0.8213
3302.000000 0.8215 0.8216 0.8218 0.8220 0.8222
3307.000000 0.8223 0.8225 0.8225 0.8226 0.8225
3312.000000 0.8224 0.8222 0.8221 0.8220 0.8219
3317.000000 0.8217 0.8216 0.8212 0.8209 0.8204
3322.000000 0.8199 0.8194 0.8189 0.8184 0.8179
3327.000000 0.8174 0.8169 0.8164 0.8159 0.8154
3332.000000 0.8149 0.8144 0.8139 0.8133 0.8128
3337.000000 0.8123 0.8118 0.8113 0.8108 0.8103
3342.000000 0.8098 0.8093 0.8088 0.8084 0.8080
3347.000000 0.8075 0.8071 0.8066 0.8062 0.8058
3352.000000 0.8054 0.8049 0.8045 0.8040 0.8035
3357.000000 0.8029 0.8023 0.8016 0.8010 0.8004
3362.000000 0.7998 0.7991 0.7985 0.7979 0.7973
3367.000000 0.7966 0.7959 0.7950 0.7942 0.7933
3372.000000 0.7925 0.7916 0.7908 0.7899 0.7891
3377.000000 0.7882 0.7874 0.7864 0.7855 0.7845
3382.000000 0.7835 0.7832 0.7829 0.7830 0.7831
3387.000000 0.7831 0.7832 0.7833 0.7834 0.7835
3392.000000 0.7836 0.7838 0.7840 0.7842 0.7844
3397.000000 0.7846 0.7848 0.7850 0.7852 0.7854
3402.000000 0.7856 0.7857 0.7859 0.7860 0.7862
3407.000000 0.7863 0.7865 0.7866 0.7867 0.7868
3412.000000 0.7870 0.7871 0.7873 0.7872 0.7872
3417.000000 0.7870 0.7869 0.7868 0.7867 0.7865
3422.000000 0.7864 0.7863 0.7862 0.7861 0.7860
3427.000000 0.7859 0.7858 0.7858 0.7849 0.7858
3432.000000 0.7858 0.7858 0.7858 0.7857 0.7857
3437.000000 0.7857 0.7858 0.7862 0.7867 0.7871
3442.000000 0.7876 0.7881 0.7886 0.7890 0.7895
3447.000000 0.7899 0.7904 0.7907 0.7910 0.7910
3452.000000 0.7910 0.7910 0.7910 0.7910 0.7911
3457.000000 0.7911 0.7911 0.7911 0.7911 0.7912
3462.000000 0.7914 0.7915 0.7917 0.7919 0.7921
3467.000000 0.7924 0.7927 0.7930 0.7934 0.7937
3472.000000 0.7941 0.7945 0.7949 0.7952 0.7956
3477.000000 0.7959 0.7963 0.7966 0.7970 0.7974
3482.000000 0.7979 0.7984 0.7990 0.7995 0.8001
3487.000000 0.8007 0.8013 0.8018 0.8024 0.8029
3492.000000 0.8035 0.8041 0.8047 0.8052 0.8058
3497.000000 0.8064 0.8070 0.8075 0.8081 0.8086
3502.000000 0.8092 0.8097 0.8103 0.8109 0.8115
3507.000000 0.8120 0.8126 0.8131 0.8137 0.8142
3512.000000 0.8148 0.8154 0.8160 0.8165 0.8171
3517.000000 0.8176 0.8182 0.8187 0.8193 0.8201
3522.000000 0.8209 0.8217 0.8226 0.8234 0.8242
3527.000000 0.8250 0.8258 0.8266 0.8275 0.8283
3532.000000 0.8291 0.8299 0.8308 0.8316 0.8324
3537.000000 0.8332 0.8340 0.8348 0.8357 0.8365
3542.000000 0.8373 0.8380 0.8387 0.8392 0.8398
3547.000000 0.8403 0.8409 0.8414 0.8420 0.8425
3552.000000 0.8431 0.8436 0.8442 0.8447 0.8453
3557.000000 0.8458 0.8464 0.8469 0.8475 0.8480
3562.000000 0.8486 0.8491 0.8497 0.8502 0.8508
3567.000000 0.8513 0.8519 0.8525 0.8531 0.8535
3572.000000 0.8539 0.8542 0.8546 0.8550 0.8554
3577.000000 0.8557 0.8561 0.8564 0.8568 0.8572
3582.000000 0.8576 0.8579 0.8583 0.8586 0.8590
3587.000000 0.8594 0.8598 0.8601 0.8605 0.8608
3592.000000 0.8612 0.8616 0.8620 0.8623 0.8627
3597.000000 0.8631 0.8635 0.8639 0.8644 0.8648
3602.000000 0.8653 0.8657 0.8661 0.8665 0.8670
3607.000000 0.8674 0.8678 0.8682 0.8687 0.8691
3612.000000 0.8695 0.8699 0.8704 0.8708 0.8713
3617.000000 0.8717 0.8721 0.8725 0.8730 0.8734
3622.000000 0.8738 0.8742 0.8747 0.8750 0.8754
3627.000000 0.8757 0.8760 0.8762 0.8765 0.8768
3632.000000 0.8771 0.8774 0.8777 0.8779 0.8782
3637.000000 0.8785 0.8788 0.8791 0.8794 0.8796
3642.000000 0.8799 0.8802 0.8805 0.8808 0.8811
3647.000000 0.8813 0.8816 0.8818 0.8820 0.8820
3652.000000 0.8821 0.8822 0.8823 0.8823 0.8824
3657.000000 0.8824 0.8825 0.8826 0.8827 0.8827
3662.000000 0.8828 0.8826 0.8824 0.8821 0.8818
3667.000000 0.8814 0.8811 0.8808 0.8805 0.8801
3672.000000 0.8798 0.8795 0.8792 0.8791 0.8790
3677.000000 0.8790 0.8790 0.8790 0.8791 0.8791
3682.000000 0.8791 0.8791 0.8791 0.8791 0.8792
3687.000000 0.8792 0.8792 0.8792 0.8792 0.8794
3692.000000 0.8796 0.8798 0.8800 0.8802 0.8804
3697.000000 0.8806 0.8808 0.8810 0.8812 0.8814
3702.000000 0.8816 0.8818 0.8820 0.8822 0.8824
3707.000000 0.8826 0.8828 0.8830 0.8832 0.8832
3712.000000 0.8833 0.8833 0.8834 0.8834 0.8834
3717.000000 0.8834 0.8834 0.8834 0.8835 0.8835
3722.000000 0.8835 0.8835 0.8835 0.8835 0.8836
3727.000000 0.8836 0.8836 0.8836 0.8833 0.8836
3732.000000 0.8837 0.8837 0.8837 0.8837 0.8837
3737.000000 0.8837 0.8837 0.8835 0.8834 0.8832
3742.000000 0.8830 0.8828 0.8827 0.8825 0.8824
3747.000000 0.8822 0.8821 0.8819 0.8818 0.8816
3752.000000 0.8814 0.8813 0.8812 0.8811 0.8810
3757.000000 0.8809 0.8808 0.8807 0.8807 0.8806
3762.000000 0.8805 0.8804 0.8803 0.8802 0.8801
3767.000000 0.8800 0.8800 0.8799 0.8798 0.8797
3772.000000 0.8796 0.8795 0.8795 0.8794 0.8794
3777.000000 0.8793 0.8793 0.8792 0.8792 0.8791
3782.000000 0.8791 0.8790 0.8790 0.8789 0.8789
3787.000000 0.8788 0.8788 0.8787 0.8787 0.8787
3792.000000 0.8787 0.8786 0.8786
##END=
