##TITLE=2-Pyridyl-1,2-ethanediol
##JCAMP-DX=4.24
$$ By DXEDIT 1.05 (RS McDonald)
##DATA TYPE=INFRARED SPECTRUM
##CLASS=COBLENTZ II
##ORIGIN=DOW CHEMICAL COMPANY
##OWNER=COPYRIGHT (C) 1988 by COBLENTZ SOCIETY INC.
Collection (C) 2018 copyright by the U.S. Secretary of Commerce
on behalf of the United States of America. All rights reserved.
##DATE=1965/08/31
##NAMES=1-(2-pyridinyl)-1,2-ethanediol
##CAS REGISTRY NO=3944-00-1
##MOLFORM=C7 H9 N O2
##MP=96 C
##SOURCE REFERENCE=COBLENTZ NO. 06064
##$NIST SOURCE=COBLENTZ
##$NIST IMAGE=cob6064
##SPECTROMETER/DATA SYSTEM=BECKMAN IR-9 (GRATING)
##INSTRUMENT PARAMETERS=ORDER CHANGES: 670, 1200, 2000 CM^-^1
##STATE=SOLID (SPLIT MULL)
##SAMPLING PROCEDURE=TRANSMISSION
##RESOLUTION=2
##DATA PROCESSING=DIGITIZED BY COBLENTZ SOCIETY (BATCH I) FROM HARD COPY
##XUNITS=1/CM
##YUNITS=TRANSMITTANCE
##XFACTOR=1
##YFACTOR=1
##DELTAX=1
##FIRSTX=3800
##LASTX=403
##FIRSTY=0.5609
##MAXX=3800
##MINX=403
##MAXY=0.8701
##MINY=0.044
##NPOINTS=3398
##XYDATA=(X++(Y..Y))
3800.000000 0.5609 0.5609 0.5610 0.5612 0.5615
3795.000000 0.5617 0.5620 0.5622 0.5624 0.5626
3790.000000 0.5629 0.5631 0.5634 0.5636 0.5638
3785.000000 0.5640 0.5643 0.5645 0.5648 0.5650
3780.000000 0.5653 0.5655 0.5657 0.5659 0.5662
3775.000000 0.5664 0.5667 0.5669 0.5671 0.5673
3770.000000 0.5676 0.5678 0.5681 0.5683 0.5685
3765.000000 0.5687 0.5690 0.5693 0.5696 0.5699
3760.000000 0.5703 0.5706 0.5710 0.5714 0.5718
3755.000000 0.5721 0.5725 0.5728 0.5732 0.5735
3750.000000 0.5739 0.5742 0.5746 0.5749 0.5753
3745.000000 0.5757 0.5760 0.5764 0.5768 0.5771
3740.000000 0.5775 0.5778 0.5782 0.5786 0.5790
3735.000000 0.5793 0.5797 0.5801 0.5805 0.5808
3730.000000 0.5812 0.5816 0.5820 0.5823 0.5827
3725.000000 0.5831 0.5835 0.5839 0.5843 0.5846
3720.000000 0.5850 0.5854 0.5858 0.5860 0.5865
3715.000000 0.5869 0.5874 0.5878 0.5882 0.5886
3710.000000 0.5891 0.5895 0.5899 0.5903 0.5907
3705.000000 0.5910 0.5916 0.5920 0.5924 0.5928
3700.000000 0.5933 0.5937 0.5941 0.5945 0.5950
3695.000000 0.5954 0.5959 0.5965 0.5971 0.5977
3690.000000 0.5984 0.5990 0.5996 0.6002 0.6008
3685.000000 0.6014 0.6021 0.6027 0.6033 0.6039
3680.000000 0.6045 0.6051 0.6058 0.6064 0.6070
3675.000000 0.6075 0.6081 0.6086 0.6091 0.6095
3670.000000 0.6100 0.6105 0.6110 0.6115 0.6120
3665.000000 0.6124 0.6129 0.6134 0.6139 0.6144
3660.000000 0.6149 0.6154 0.6159 0.6162 0.6168
3655.000000 0.6173 0.6178 0.6183 0.6188 0.6192
3650.000000 0.6197 0.6201 0.6206 0.6210 0.6215
3645.000000 0.6219 0.6223 0.6227 0.6232 0.6236
3640.000000 0.6241 0.6245 0.6249 0.6253 0.6258
3635.000000 0.6262 0.6267 0.6271 0.6275 0.6279
3630.000000 0.6284 0.6288 0.6293 0.6297 0.6301
3625.000000 0.6305 0.6309 0.6312 0.6317 0.6321
3620.000000 0.6325 0.6329 0.6333 0.6338 0.6343
3615.000000 0.6348 0.6354 0.6358 0.6362 0.6366
3610.000000 0.6371 0.6375 0.6379 0.6383 0.6387
3605.000000 0.6390 0.6394 0.6396 0.6399 0.6401
3600.000000 0.6404 0.6407 0.6410 0.6395 0.6380
3595.000000 0.6355 0.6330 0.6294 0.6258 0.6247
3590.000000 0.6237 0.6233 0.6230 0.6229 0.6228
3585.000000 0.6226 0.6224 0.6245 0.6267 0.6289
3580.000000 0.6312 0.6331 0.6350 0.6369 0.6388
3575.000000 0.6407 0.6425 0.6439 0.6453 0.6464
3570.000000 0.6475 0.6487 0.6498 0.6504 0.6511
3565.000000 0.6517 0.6524 0.6530 0.6537 0.6543
3560.000000 0.6550 0.6555 0.6561 0.6565 0.6571
3555.000000 0.6575 0.6582 0.6587 0.6593 0.6598
3550.000000 0.6604 0.6608 0.6614 0.6618 0.6625
3545.000000 0.6626 0.6628 0.6630 0.6632 0.6633
3540.000000 0.6635 0.6636 0.6638 0.6639 0.6641
3535.000000 0.6642 0.6644 0.6644 0.6644 0.6644
3530.000000 0.6644 0.6643 0.6643 0.6643 0.6643
3525.000000 0.6643 0.6643 0.6643 0.6643 0.6643
3520.000000 0.6643 0.6643 0.6643 0.6643 0.6643
3515.000000 0.6642 0.6642 0.6641 0.6641 0.6641
3510.000000 0.6641 0.6640 0.6640 0.6639 0.6639
3505.000000 0.6638 0.6638 0.6634 0.6631 0.6625
3500.000000 0.6621 0.6615 0.6611 0.6606 0.6601
3495.000000 0.6596 0.6592 0.6585 0.6578 0.6572
3490.000000 0.6567 0.6560 0.6554 0.6547 0.6541
3485.000000 0.6534 0.6528 0.6521 0.6515 0.6508
3480.000000 0.6503 0.6495 0.6488 0.6475 0.6465
3475.000000 0.6453 0.6442 0.6430 0.6418 0.6407
3470.000000 0.6396 0.6380 0.6365 0.6345 0.6325
3465.000000 0.6305 0.6285 0.6265 0.6245 0.6224
3460.000000 0.6203 0.6172 0.6142 0.6110 0.6081
3455.000000 0.6050 0.6020 0.5989 0.5959 0.5928
3450.000000 0.5897 0.5865 0.5834 0.5803 0.5772
3445.000000 0.5740 0.5709 0.5678 0.5647 0.5620
3440.000000 0.5594 0.5570 0.5546 0.5522 0.5498
3435.000000 0.5474 0.5450 0.5426 0.5402 0.5378
3430.000000 0.5355 0.5331 0.5307 0.5281 0.5255
3425.000000 0.5228 0.5202 0.5176 0.5150 0.5124
3420.000000 0.5098 0.5071 0.5045 0.5019 0.4993
3415.000000 0.4960 0.4930 0.4894 0.4859 0.4823
3410.000000 0.4787 0.4751 0.4716 0.4680 0.4645
3405.000000 0.4609 0.4573 0.4531 0.4489 0.4444
3400.000000 0.4400 0.4355 0.4310 0.4267 0.4223
3395.000000 0.4188 0.4154 0.4123 0.4092 0.4060
3390.000000 0.4030 0.4000 0.3968 0.3938 0.3908
3385.000000 0.3877 0.3846 0.3818 0.3790 0.3762
3380.000000 0.3734 0.3707 0.3679 0.3650 0.3624
3375.000000 0.3596 0.3568 0.3540 0.3512 0.3484
3370.000000 0.3457 0.3425 0.3394 0.3359 0.3326
3365.000000 0.3292 0.3259 0.3225 0.3191 0.3157
3360.000000 0.3124 0.3087 0.3050 0.3011 0.2972
3355.000000 0.2933 0.2894 0.2855 0.2816 0.2777
3350.000000 0.2738 0.2699 0.2660 0.2625 0.2591
3345.000000 0.2557 0.2523 0.2488 0.2454 0.2420
3340.000000 0.2385 0.2349 0.2312 0.2267 0.2223
3335.000000 0.2178 0.2133 0.2088 0.2043 0.2003
3330.000000 0.1963 0.1924 0.1885 0.1846 0.1808
3325.000000 0.1769 0.1731 0.1689 0.1646 0.1600
3320.000000 0.1554 0.1510 0.1466 0.1436 0.1407
3315.000000 0.1378 0.1349 0.1333 0.1318 0.1305
3310.000000 0.1292 0.1279 0.1266 0.1253 0.1240
3305.000000 0.1223 0.1125 0.1203 0.1201 0.1200
3300.000000 0.1199 0.1199 0.1200 0.1201 0.1203
3295.000000 0.1204 0.1205 0.1206 0.1208 0.1209
3290.000000 0.1210 0.1211 0.1213 0.1219 0.1226
3285.000000 0.1234 0.1242 0.1253 0.1263 0.1273
3280.000000 0.1283 0.1292 0.1303 0.1314 0.1326
3275.000000 0.1337 0.1348 0.1359 0.1371 0.1382
3270.000000 0.1392 0.1404 0.1416 0.1427 0.1439
3265.000000 0.1465 0.1492 0.1518 0.1545 0.1572
3260.000000 0.1599 0.1626 0.1653 0.1679 0.1708
3255.000000 0.1734 0.1763 0.1790 0.1818 0.1844
3250.000000 0.1873 0.1900 0.1927 0.1953 0.1979
3245.000000 0.2007 0.2034 0.2060 0.2087 0.2108
3240.000000 0.2129 0.2149 0.2170 0.2191 0.2212
3235.000000 0.2233 0.2254 0.2272 0.2290 0.2304
3230.000000 0.2318 0.2332 0.2346 0.2360 0.2375
3225.000000 0.2389 0.2403 0.2413 0.2423 0.2432
3220.000000 0.2441 0.2449 0.2457 0.2462 0.2468
3215.000000 0.2473 0.2479 0.2484 0.2490 0.2495
3210.000000 0.2500 0.2503 0.2506 0.2508 0.2511
3205.000000 0.2513 0.2516 0.2519 0.2522 0.2523
3200.000000 0.2525 0.2525 0.2526 0.2526 0.2527
3195.000000 0.2527 0.2528 0.2528 0.2529 0.2529
3190.000000 0.2529 0.2529 0.2530 0.2530 0.2530
3185.000000 0.2530 0.2529 0.2527 0.2525 0.2523
3180.000000 0.2521 0.2519 0.2517 0.2514 0.2512
3175.000000 0.2510 0.2508 0.2506 0.2504 0.2502
3170.000000 0.2500 0.2497 0.2495 0.2491 0.2488
3165.000000 0.2483 0.2478 0.2472 0.2467 0.2462
3160.000000 0.2457 0.2452 0.2447 0.2442 0.2437
3155.000000 0.2432 0.2427 0.2421 0.2416 0.2408
3150.000000 0.2401 0.2394 0.2387 0.2380 0.2373
3145.000000 0.2366 0.2359 0.2351 0.2344 0.2337
3140.000000 0.2330 0.2323 0.2316 0.2309 0.2302
3135.000000 0.2295 0.2288 0.2281 0.2275 0.2268
3130.000000 0.2261 0.2254 0.2248 0.2241 0.2234
3125.000000 0.2228 0.2221 0.2214 0.2208 0.2201
3120.000000 0.2194 0.2187 0.2181 0.2174 0.2168
3115.000000 0.2161 0.2154 0.2147 0.2141 0.2134
3110.000000 0.2128 0.2122 0.2116 0.2110 0.2105
3105.000000 0.2099 0.2093 0.2087 0.2082 0.2076
3100.000000 0.2070 0.2064 0.2059 0.2054 0.2050
3095.000000 0.2048 0.2045 0.2044 0.2043 0.2041
3090.000000 0.2039 0.2036 0.2034 0.2033 0.2031
3085.000000 0.2029 0.2028 0.2026 0.2024 0.2022
3080.000000 0.2020 0.2018 0.2017 0.2015 0.2014
3075.000000 0.2012 0.2011 0.2009 0.2008 0.2006
3070.000000 0.2004 0.2003 0.2002 0.2000 0.1999
3065.000000 0.1996 0.1996 0.1995 0.1996 0.2002
3060.000000 0.2006 0.2010 0.2014 0.2018 0.2022
3055.000000 0.2026 0.2029 0.2034 0.2040 0.2045
3050.000000 0.2053 0.2059 0.2065 0.2071 0.2078
3045.000000 0.2084 0.2091 0.2097 0.2103 0.2109
3040.000000 0.2116 0.2122 0.2129 0.2134 0.2142
3035.000000 0.2149 0.2156 0.2162 0.2169 0.2175
3030.000000 0.2182 0.2184 0.2189 0.2190 0.2191
3025.000000 0.2192 0.2193 0.2194 0.2194 0.2194
3020.000000 0.2194 0.2196 0.2198 0.2212 0.2227
3015.000000 0.2243 0.2260 0.2277 0.2294 0.2317
3010.000000 0.2341 0.2365 0.2389 0.2417 0.2445
3005.000000 0.2474 0.2503 0.2532 0.2561 0.2585
3000.000000 0.2612 0.2637 0.2663 0.2688 0.2714
2995.000000 0.2738 0.2763 0.2787 0.2811 0.2834
2990.000000 0.2860 0.2879 0.2899 0.2918 0.2937
2985.000000 0.2955 0.2973 0.2991 0.3009 0.3026
2980.000000 0.3044 0.3054 0.3065 0.3074 0.3083
2975.000000 0.3083 0.3084 0.3084 0.3084 0.3084
2970.000000 0.3085 0.3085 0.3085 0.3084 0.3084
2965.000000 0.3084 0.3084 0.3084 0.3085 0.3095
2960.000000 0.3104 0.3117 0.3131 0.3155 0.3179
2955.000000 0.3204 0.3230 0.3262 0.3297 0.3334
2950.000000 0.3371 0.3377 0.3384 0.3387 0.3393
2945.000000 0.3393 0.3394 0.3396 0.3398 0.3398
2940.000000 0.3399 0.3396 0.3393 0.3382 0.3373
2935.000000 0.3350 0.3328 0.3290 0.3252 0.3198
2930.000000 0.3144 0.3065 0.2987 0.2961 0.2913
2925.000000 0.2931 0.2927 0.2923 0.2919 0.2917
2920.000000 0.2916 0.2915 0.2914 0.2914 0.2914
2915.000000 0.2926 0.2939 0.2958 0.2977 0.2998
2910.000000 0.3020 0.3033 0.3046 0.3057 0.3068
2905.000000 0.3079 0.3091 0.3089 0.3101 0.3083
2900.000000 0.3079 0.3073 0.3067 0.3059 0.3051
2895.000000 0.3034 0.3018 0.2989 0.2960 0.2915
2890.000000 0.2870 0.2599 0.2329 0.2280 0.2231
2885.000000 0.2219 0.2207 0.2204 0.2202 0.2202
2880.000000 0.2202 0.2202 0.2202 0.2204 0.2206
2875.000000 0.2208 0.2211 0.2242 0.2274 0.2340
2870.000000 0.2406 0.2474 0.2543 0.2569 0.2595
2865.000000 0.2602 0.2609 0.2609 0.2609 0.2609
2860.000000 0.2609 0.2609 0.2609 0.2605 0.2602
2855.000000 0.2592 0.2583 0.2574 0.2565 0.2545
2850.000000 0.2525 0.2501 0.2478 0.2455 0.2432
2845.000000 0.2410 0.2389 0.2378 0.2368 0.2357
2840.000000 0.2346 0.2334 0.2324 0.2313 0.2302
2835.000000 0.2291 0.2281 0.2271 0.2261 0.2256
2830.000000 0.2251 0.2246 0.2242 0.2237 0.2232
2825.000000 0.2227 0.2223 0.2218 0.2213 0.2211
2820.000000 0.2210 0.2210 0.2210 0.2210 0.2210
2815.000000 0.2210 0.2210 0.2209 0.2209 0.2209
2810.000000 0.2209 0.2209 0.2209 0.2209 0.2213
2805.000000 0.2212 0.2212 0.2214 0.2217 0.2219
2800.000000 0.2221 0.2223 0.2225 0.2227 0.2230
2795.000000 0.2232 0.2234 0.2235 0.2239 0.2242
2790.000000 0.2246 0.2253 0.2261 0.2268 0.2275
2785.000000 0.2282 0.2290 0.2297 0.2304 0.2313
2780.000000 0.2323 0.2334 0.2347 0.2358 0.2370
2775.000000 0.2381 0.2393 0.2405 0.2417 0.2428
2770.000000 0.2440 0.2451 0.2463 0.2476 0.2489
2765.000000 0.2503 0.2517 0.2531 0.2545 0.2559
2760.000000 0.2573 0.2587 0.2601 0.2615 0.2629
2755.000000 0.2643 0.2657 0.2671 0.2685 0.2708
2750.000000 0.2730 0.2752 0.2774 0.2796 0.2818
2745.000000 0.2830 0.2843 0.2851 0.2860 0.2869
2740.000000 0.2878 0.2887 0.2896 0.2903 0.2911
2735.000000 0.2913 0.2915 0.2917 0.2919 0.2921
2730.000000 0.2923 0.2924 0.2926 0.2928 0.2930
2725.000000 0.2934 0.2940 0.2945 0.2951 0.2957
2720.000000 0.2963 0.2969 0.2975 0.2981 0.2987
2715.000000 0.2993 0.2999 0.3003 0.3008 0.3012
2710.000000 0.3016 0.3020 0.3024 0.3025 0.3026
2705.000000 0.3026 0.3027 0.3028 0.3029 0.3029
2700.000000 0.3029 0.3029 0.3029 0.3028 0.3028
2695.000000 0.3027 0.3027 0.3027 0.3027 0.3028
2690.000000 0.3029 0.3032 0.3035 0.3039 0.3043
2685.000000 0.3048 0.3054 0.3065 0.3077 0.3088
2680.000000 0.3100 0.3111 0.3123 0.3134 0.3145
2675.000000 0.3156 0.3167 0.3178 0.3189 0.3200
2670.000000 0.3212 0.3223 0.3234 0.3245 0.3256
2665.000000 0.3268 0.3280 0.3294 0.3307 0.3320
2660.000000 0.3332 0.3345 0.3358 0.3371 0.3384
2655.000000 0.3397 0.3409 0.3422 0.3434 0.3448
2650.000000 0.3460 0.3474 0.3487 0.3500 0.3512
2645.000000 0.3525 0.3537 0.3549 0.3560 0.3573
2640.000000 0.3586 0.3598 0.3609 0.3622 0.3634
2635.000000 0.3646 0.3658 0.3670 0.3682 0.3694
2630.000000 0.3707 0.3718 0.3730 0.3743 0.3755
2625.000000 0.3766 0.3779 0.3792 0.3805 0.3818
2620.000000 0.3832 0.3845 0.3858 0.3871 0.3884
2615.000000 0.3898 0.3910 0.3924 0.3938 0.3950
2610.000000 0.3964 0.3978 0.3991 0.4004 0.4018
2605.000000 0.4030 0.4044 0.4057 0.4071 0.4084
2600.000000 0.4097 0.4108 0.4119 0.4130 0.4141
2595.000000 0.4152 0.4162 0.4174 0.4186 0.4197
2590.000000 0.4208 0.4219 0.4230 0.4241 0.4252
2585.000000 0.4262 0.4274 0.4285 0.4296 0.4307
2580.000000 0.4319 0.4330 0.4341 0.4352 0.4362
2575.000000 0.4373 0.4384 0.4395 0.4406 0.4417
2570.000000 0.4428 0.4439 0.4450 0.4460 0.4472
2565.000000 0.4482 0.4493 0.4504 0.4515 0.4526
2560.000000 0.4537 0.4548 0.4559 0.4570 0.4581
2555.000000 0.4591 0.4602 0.4612 0.4624 0.4635
2550.000000 0.4646 0.4657 0.4668 0.4678 0.4689
2545.000000 0.4699 0.4710 0.4720 0.4730 0.4739
2540.000000 0.4749 0.4759 0.4769 0.4779 0.4789
2535.000000 0.4798 0.4808 0.4818 0.4828 0.4837
2530.000000 0.4847 0.4857 0.4867 0.4877 0.4887
2525.000000 0.4896 0.4906 0.4916 0.4926 0.4936
2520.000000 0.4946 0.4955 0.4965 0.4975 0.4985
2515.000000 0.4995 0.5005 0.5014 0.5024 0.5034
2510.000000 0.5044 0.5053 0.5062 0.5073 0.5083
2505.000000 0.5093 0.5103 0.5110 0.5120 0.5128
2500.000000 0.5136 0.5144 0.5153 0.5160 0.5169
2495.000000 0.5177 0.5185 0.5193 0.5202 0.5210
2490.000000 0.5218 0.5226 0.5234 0.5242 0.5250
2485.000000 0.5258 0.5267 0.5275 0.5283 0.5291
2480.000000 0.5299 0.5307 0.5316 0.5324 0.5332
2475.000000 0.5340 0.5348 0.5355 0.5362 0.5369
2470.000000 0.5376 0.5383 0.5390 0.5397 0.5404
2465.000000 0.5410 0.5417 0.5424 0.5431 0.5438
2460.000000 0.5445 0.5452 0.5459 0.5466 0.5473
2455.000000 0.5480 0.5487 0.5493 0.5500 0.5507
2450.000000 0.5514 0.5521 0.5528 0.5535 0.5542
2445.000000 0.5549 0.5556 0.5562 0.5570 0.5577
2440.000000 0.5584 0.5591 0.5598 0.5605 0.5612
2435.000000 0.5620 0.5627 0.5634 0.5641 0.5648
2430.000000 0.5655 0.5662 0.5670 0.5677 0.5684
2425.000000 0.5691 0.5698 0.5705 0.5712 0.5720
2420.000000 0.5727 0.5734 0.5741 0.5748 0.5756
2415.000000 0.5762 0.5770 0.5778 0.5786 0.5794
2410.000000 0.5803 0.5812 0.5821 0.5829 0.5838
2405.000000 0.5846 0.5855 0.5862 0.5872 0.5880
2400.000000 0.5889 0.5898 0.5907 0.5915 0.5924
2395.000000 0.5932 0.5941 0.5949 0.5958 0.5968
2390.000000 0.5979 0.5990 0.6001 0.6012 0.6024
2385.000000 0.6035 0.6046 0.6057 0.6068 0.6079
2380.000000 0.6090 0.6102 0.6114 0.6126 0.6139
2375.000000 0.6151 0.6162 0.6174 0.6186 0.6197
2370.000000 0.6208 0.6217 0.6226 0.6229 0.6233
2365.000000 0.6236 0.6239 0.6240 0.6241 0.6242
2360.000000 0.6243 0.6244 0.6245 0.6246 0.6247
2355.000000 0.6248 0.6250 0.6251 0.6252 0.6253
2350.000000 0.6254 0.6255 0.6256 0.6257 0.6258
2345.000000 0.6259 0.6260 0.6260 0.6262 0.6265
2340.000000 0.6268 0.6272 0.6276 0.6280 0.6285
2335.000000 0.6289 0.6293 0.6297 0.6302 0.6306
2330.000000 0.6310 0.6315 0.6319 0.6323 0.6328
2325.000000 0.6332 0.6336 0.6340 0.6345 0.6349
2320.000000 0.6354 0.6358 0.6362 0.6366 0.6371
2315.000000 0.6375 0.6379 0.6383 0.6388 0.6392
2310.000000 0.6397 0.6401 0.6406 0.6411 0.6417
2305.000000 0.6422 0.6428 0.6434 0.6440 0.6446
2300.000000 0.6451 0.6457 0.6462 0.6468 0.6475
2295.000000 0.6480 0.6486 0.6492 0.6498 0.6503
2290.000000 0.6508 0.6514 0.6519 0.6525 0.6532
2285.000000 0.6537 0.6543 0.6549 0.6555 0.6560
2280.000000 0.6565 0.6571 0.6578 0.6583 0.6589
2275.000000 0.6594 0.6600 0.6606 0.6611 0.6618
2270.000000 0.6625 0.6631 0.6638 0.6644 0.6651
2265.000000 0.6658 0.6665 0.6671 0.6678 0.6685
2260.000000 0.6692 0.6698 0.6705 0.6711 0.6718
2255.000000 0.6725 0.6732 0.6739 0.6746 0.6753
2250.000000 0.6761 0.6768 0.6775 0.6783 0.6790
2245.000000 0.6797 0.6804 0.6811 0.6818 0.6825
2240.000000 0.6832 0.6839 0.6846 0.6853 0.6860
2235.000000 0.6867 0.6874 0.6883 0.6892 0.6901
2230.000000 0.6911 0.6919 0.6930 0.6939 0.6949
2225.000000 0.6958 0.6968 0.6978 0.6988 0.6997
2220.000000 0.7007 0.7015 0.7025 0.7036 0.7046
2215.000000 0.7055 0.7065 0.7075 0.7087 0.7098
2210.000000 0.7110 0.7121 0.7133 0.7144 0.7156
2205.000000 0.7167 0.7178 0.7191 0.7203 0.7211
2200.000000 0.7218 0.7225 0.7234 0.7241 0.7248
2195.000000 0.7255 0.7262 0.7269 0.7276 0.7284
2190.000000 0.7291 0.7296 0.7301 0.7308 0.7314
2185.000000 0.7319 0.7325 0.7331 0.7337 0.7343
2180.000000 0.7349 0.7354 0.7360 0.7365 0.7371
2175.000000 0.7375 0.7382 0.7387 0.7393 0.7398
2170.000000 0.7404 0.7408 0.7415 0.7419 0.7425
2165.000000 0.7432 0.7438 0.7443 0.7449 0.7454
2160.000000 0.7460 0.7465 0.7471 0.7475 0.7482
2155.000000 0.7488 0.7494 0.7500 0.7506 0.7511
2150.000000 0.7517 0.7522 0.7528 0.7535 0.7541
2145.000000 0.7547 0.7553 0.7558 0.7564 0.7569
2140.000000 0.7575 0.7582 0.7588 0.7593 0.7599
2135.000000 0.7604 0.7610 0.7615 0.7619 0.7625
2130.000000 0.7630 0.7634 0.7639 0.7644 0.7649
2125.000000 0.7654 0.7658 0.7662 0.7668 0.7672
2120.000000 0.7678 0.7682 0.7687 0.7692 0.7697
2115.000000 0.7701 0.7707 0.7711 0.7715 0.7721
2110.000000 0.7725 0.7731 0.7736 0.7741 0.7746
2105.000000 0.7750 0.7755 0.7760 0.7765 0.7769
2100.000000 0.7775 0.7780 0.7785 0.7790 0.7795
2095.000000 0.7800 0.7805 0.7808 0.7814 0.7818
2090.000000 0.7824 0.7828 0.7834 0.7839 0.7844
2085.000000 0.7849 0.7854 0.7858 0.7862 0.7868
2080.000000 0.7872 0.7878 0.7883 0.7887 0.7892
2075.000000 0.7896 0.7900 0.7904 0.7908 0.7912
2070.000000 0.7917 0.7921 0.7925 0.7928 0.7933
2065.000000 0.7937 0.7941 0.7945 0.7950 0.7954
2060.000000 0.7958 0.7961 0.7965 0.7969 0.7974
2055.000000 0.7978 0.7982 0.7985 0.7989 0.7992
2050.000000 0.7995 0.7998 0.8001 0.8005 0.8008
2045.000000 0.8011 0.8015 0.8018 0.8021 0.8025
2040.000000 0.8028 0.8032 0.8036 0.8039 0.8042
2035.000000 0.8045 0.8049 0.8051 0.8056 0.8058
2030.000000 0.8061 0.8062 0.8065 0.8068 0.8069
2025.000000 0.8071 0.8074 0.8075 0.8078 0.8080
2020.000000 0.8082 0.8084 0.8086 0.8088 0.8090
2015.000000 0.8092 0.8094 0.8096 0.8099 0.8101
2010.000000 0.8103 0.8105 0.8107 0.8108 0.8111
2005.000000 0.8115 0.8118 0.8121 0.8124 0.8128
2000.000000 0.8135 0.8141 0.8146 0.8151 0.8157
1995.000000 0.8162 0.8168 0.8171 0.8175 0.8180
1990.000000 0.8184 0.8188 0.8192 0.8192 0.8192
1985.000000 0.8190 0.8187 0.8178 0.8171 0.8162
1980.000000 0.8155 0.8147 0.8139 0.8131 0.8124
1975.000000 0.8115 0.8108 0.8101 0.8101 0.8100
1970.000000 0.8104 0.8108 0.8117 0.8128 0.8142
1965.000000 0.8154 0.8165 0.8178 0.8188 0.8198
1960.000000 0.8208 0.8218 0.8228 0.8238 0.8248
1955.000000 0.8258 0.8266 0.8275 0.8284 0.8293
1950.000000 0.8301 0.8310 0.8317 0.8320 0.8324
1945.000000 0.8328 0.8330 0.8331 0.8332 0.8332
1940.000000 0.8328 0.8308 0.8286 0.8266 0.8248
1935.000000 0.8228 0.8211 0.8197 0.8182 0.8175
1930.000000 0.8175 0.8175 0.8193 0.8212 0.8231
1925.000000 0.8250 0.8268 0.8288 0.8302 0.8311
1920.000000 0.8320 0.8328 0.8328 0.8325 0.8324
1915.000000 0.8317 0.8307 0.8297 0.8287 0.8277
1910.000000 0.8267 0.8257 0.8246 0.8236 0.8232
1905.000000 0.8231 0.8231 0.8230 0.8228 0.8228
1900.000000 0.8233 0.8238 0.8244 0.8249 0.8255
1895.000000 0.8261 0.8268 0.8275 0.8282 0.8291
1890.000000 0.8299 0.8305 0.8310 0.8316 0.8321
1885.000000 0.8324 0.8325 0.8325 0.8313 0.8302
1880.000000 0.8290 0.8278 0.8265 0.8253 0.8239
1875.000000 0.8221 0.8206 0.8190 0.8182 0.8172
1870.000000 0.8168 0.8168 0.8168 0.8178 0.8205
1865.000000 0.8231 0.8257 0.8278 0.8299 0.8320
1860.000000 0.8340 0.8360 0.8380 0.8400 0.8420
1855.000000 0.8440 0.8460 0.8475 0.8486 0.8496
1850.000000 0.8503 0.8508 0.8514 0.8518 0.8523
1845.000000 0.8525 0.8528 0.8531 0.8533 0.8536
1840.000000 0.8538 0.8541 0.8544 0.8546 0.8549
1835.000000 0.8551 0.8552 0.8552 0.8553 0.8554
1830.000000 0.8554 0.8555 0.8556 0.8557 0.8557
1825.000000 0.8558 0.8559 0.8559 0.8558 0.8557
1820.000000 0.8552 0.8548 0.8543 0.8538 0.8533
1815.000000 0.8528 0.8524 0.8520 0.8516 0.8512
1810.000000 0.8508 0.8504 0.8500 0.8496 0.8492
1805.000000 0.8494 0.8497 0.8500 0.8502 0.8505
1800.000000 0.8508 0.8511 0.8513 0.8516 0.8518
1795.000000 0.8521 0.8524 0.8527 0.8530 0.8532
1790.000000 0.8535 0.8538 0.8538 0.8539 0.8539
1785.000000 0.8539 0.8540 0.8540 0.8540 0.8541
1780.000000 0.8543 0.8544 0.8546 0.8548 0.8550
1775.000000 0.8551 0.8553 0.8555 0.8556 0.8558
1770.000000 0.8559 0.8559 0.8560 0.8560 0.8560
1765.000000 0.8561 0.8561 0.8562 0.8562 0.8563
1760.000000 0.8563 0.8564 0.8564 0.8563 0.8562
1755.000000 0.8560 0.8559 0.8558 0.8556 0.8555
1750.000000 0.8553 0.8552 0.8547 0.8570 0.8538
1745.000000 0.8533 0.8528 0.8524 0.8518 0.8514
1740.000000 0.8509 0.8506 0.8506 0.8506 0.8506
1735.000000 0.8506 0.8500 0.8495 0.8490 0.8484
1730.000000 0.8478 0.8473 0.8468 0.8462 0.8456
1725.000000 0.8450 0.8444 0.8447 0.8458 0.8470
1720.000000 0.8481 0.8493 0.8504 0.8516 0.8527
1715.000000 0.8535 0.8539 0.8543 0.8548 0.8552
1710.000000 0.8555 0.8554 0.8553 0.8552 0.8551
1705.000000 0.8550 0.8549 0.8549 0.8548 0.8547
1700.000000 0.8545 0.8542 0.8539 0.8537 0.8534
1695.000000 0.8532 0.8528 0.8525 0.8524 0.8518
1690.000000 0.8513 0.8507 0.8501 0.8495 0.8490
1685.000000 0.8483 0.8475 0.8468 0.8461 0.8454
1680.000000 0.8447 0.8438 0.8428 0.8418 0.8409
1675.000000 0.8399 0.8388 0.8392 0.8396 0.8405
1670.000000 0.8421 0.8432 0.8440 0.8448 0.8456
1665.000000 0.8459 0.8460 0.8461 0.8461 0.8461
1660.000000 0.8457 0.8453 0.8448 0.8444 0.8440
1655.000000 0.8435 0.8430 0.8425 0.8421 0.8416
1650.000000 0.8412 0.8407 0.8407 0.8407 0.8407
1645.000000 0.8407 0.8406 0.8416 0.8425 0.8434
1640.000000 0.8444 0.8453 0.8460 0.8466 0.8471
1635.000000 0.8478 0.8482 0.8486 0.8489 0.8493
1630.000000 0.8496 0.8500 0.8504 0.8507 0.8510
1625.000000 0.8512 0.8513 0.8515 0.8515 0.8515
1620.000000 0.8515 0.8515 0.8513 0.8505 0.8497
1615.000000 0.8484 0.8464 0.8444 0.8411 0.8373
1610.000000 0.8297 0.8207 0.8081 0.7939 0.7748
1605.000000 0.7569 0.7415 0.7278 0.6335 0.4930
1600.000000 0.1912 0.2121 0.1931 0.1948 0.2624
1595.000000 0.3299 0.3975 0.4650 0.5326 0.6001
1590.000000 0.6676 0.7051 0.7210 0.7345 0.7401
1585.000000 0.7458 0.7498 0.7506 0.7512 0.7553
1580.000000 0.7524 0.7522 0.7510 0.7451 0.7374
1575.000000 0.7287 0.7187 0.6369 0.5731 0.5094
1570.000000 0.5010 0.5075 0.5844 0.6612 0.6958
1565.000000 0.7085 0.7195 0.7275 0.7358 0.7432
1560.000000 0.7489 0.7547 0.7603 0.7625 0.7647
1555.000000 0.7668 0.7691 0.7712 0.7734 0.7756
1550.000000 0.7775 0.7788 0.7801 0.7814 0.7825
1545.000000 0.7839 0.7851 0.7857 0.7861 0.7865
1540.000000 0.7868 0.7872 0.7875 0.7880 0.7884
1535.000000 0.7883 0.7883 0.7882 0.7881 0.7878
1530.000000 0.7878 0.7876 0.7875 0.7896 0.7872
1525.000000 0.7871 0.7869 0.7868 0.7862 0.7858
1520.000000 0.7854 0.7849 0.7844 0.7839 0.7834
1515.000000 0.7830 0.7825 0.7819 0.7815 0.7811
1510.000000 0.7807 0.7804 0.7803 0.7801 0.7801
1505.000000 0.7800 0.7798 0.7797 0.7796 0.7794
1500.000000 0.7792 0.7790 0.7789 0.7787 0.7785
1495.000000 0.7782 0.7778 0.7775 0.7771 0.7768
1490.000000 0.7764 0.7758 0.7753 0.7748 0.7732
1485.000000 0.7710 0.7661 0.7597 0.7265 0.7084
1480.000000 0.6660 0.6237 0.5812 0.5389 0.4965
1475.000000 0.4542 0.4118 0.4016 0.4178 0.5225
1470.000000 0.6109 0.6200 0.6299 0.6372 0.6394
1465.000000 0.6405 0.6441 0.6410 0.6411 0.6400
1460.000000 0.6366 0.6324 0.6282 0.6207 0.6130
1455.000000 0.6052 0.5971 0.5891 0.5814 0.5773
1450.000000 0.5748 0.5737 0.5724 0.5700 0.5674
1445.000000 0.5626 0.5578 0.5487 0.5226 0.4573
1440.000000 0.3920 0.3266 0.2615 0.2528 0.2544
1435.000000 0.2619 0.2923 0.3226 0.3529 0.3832
1430.000000 0.4135 0.4439 0.4718 0.4871 0.5037
1425.000000 0.5167 0.5257 0.5305 0.5349 0.5376
1420.000000 0.5390 0.5401 0.5431 0.5407 0.5401
1415.000000 0.5388 0.5360 0.5333 0.5293 0.5253
1410.000000 0.5209 0.5189 0.5192 0.5182 0.5187
1405.000000 0.5196 0.5206 0.5247 0.5318 0.5389
1400.000000 0.5475 0.5573 0.5671 0.5762 0.5855
1395.000000 0.5947 0.6026 0.6098 0.6170 0.6244
1390.000000 0.6319 0.6394 0.6461 0.6528 0.6571
1385.000000 0.6585 0.6593 0.6601 0.6636 0.6515
1380.000000 0.6439 0.6357 0.6020 0.5642 0.5262
1375.000000 0.4884 0.4183 0.4270 0.4522 0.4774
1370.000000 0.5026 0.5278 0.5530 0.5782 0.6034
1365.000000 0.6115 0.6138 0.6155 0.6159 0.6172
1360.000000 0.6172 0.6172 0.6160 0.6128 0.5780
1355.000000 0.5249 0.4719 0.4188 0.3658 0.3127
1350.000000 0.2666 0.2662 0.2669 0.3033 0.3407
1345.000000 0.3780 0.4155 0.4529 0.4902 0.5326
1340.000000 0.5712 0.5870 0.5994 0.6104 0.6192
1335.000000 0.6281 0.6394 0.6535 0.6639 0.6704
1330.000000 0.6768 0.6834 0.6904 0.6957 0.7005
1325.000000 0.7053 0.7093 0.7117 0.7138 0.7143
1320.000000 0.7147 0.7146 0.7146 0.7145 0.7164
1315.000000 0.7194 0.7224 0.7253 0.7294 0.7338
1310.000000 0.7381 0.7419 0.7458 0.7497 0.7528
1305.000000 0.7561 0.7571 0.7583 0.7592 0.7600
1300.000000 0.7610 0.7631 0.7651 0.7697 0.7765
1295.000000 0.7744 0.7748 0.7701 0.7501 0.7301
1290.000000 0.7051 0.7081 0.7193 0.7383 0.7574
1285.000000 0.7651 0.7660 0.7660 0.7660 0.7654
1280.000000 0.7632 0.7597 0.7561 0.7526 0.7447
1275.000000 0.7350 0.7251 0.7065 0.6883 0.6790
1270.000000 0.6703 0.6630 0.6557 0.6478 0.6303
1265.000000 0.6127 0.5952 0.5777 0.5601 0.5426
1260.000000 0.5250 0.5075 0.4899 0.4724 0.4549
1255.000000 0.4373 0.4198 0.4155 0.4138 0.4132
1250.000000 0.4060 0.4125 0.4129 0.4148 0.4180
1245.000000 0.4251 0.4325 0.4458 0.4662 0.4869
1240.000000 0.5075 0.5281 0.5487 0.5693 0.5899
1235.000000 0.6104 0.6310 0.6515 0.6721 0.6882
1230.000000 0.7028 0.7242 0.7365 0.7430 0.7505
1225.000000 0.7576 0.7634 0.7675 0.7698 0.7701
1220.000000 0.7703 0.7705 0.7706 0.7710 0.7721
1215.000000 0.7735 0.7751 0.7775 0.7801 0.7828
1210.000000 0.7849 0.7865 0.7882 0.7899 0.7915
1205.000000 0.7932 0.7948 0.7964 0.7980 0.7994
1200.000000 0.8008 0.8024 0.8038 0.8046 0.8050
1195.000000 0.8054 0.8056 0.8084 0.8043 0.8031
1190.000000 0.8018 0.8004 0.7985 0.7967 0.7953
1185.000000 0.7942 0.7934 0.7934 0.7934 0.7942
1180.000000 0.7954 0.7962 0.7968 0.7975 0.7981
1175.000000 0.7988 0.7994 0.7994 0.7991 0.7983
1170.000000 0.7954 0.7919 0.7896 0.7876 0.7843
1165.000000 0.7801 0.7758 0.7681 0.7592 0.7388
1160.000000 0.7268 0.7168 0.6988 0.6678 0.5965
1155.000000 0.5252 0.4539 0.3826 0.2981 0.2959
1150.000000 0.2962 0.3528 0.4149 0.4770 0.5392
1145.000000 0.5791 0.5796 0.5475 0.5077 0.4679
1140.000000 0.4282 0.3884 0.3486 0.3088 0.2690
1135.000000 0.2292 0.1894 0.1496 0.1099 0.0874
1130.000000 0.0783 0.0707 0.0679 0.0662 0.0656
1125.000000 0.0657 0.0671 0.0752 0.1033 0.1482
1120.000000 0.1932 0.2382 0.2831 0.3280 0.3730
1115.000000 0.4181 0.4630 0.5060 0.5126 0.5184
1110.000000 0.5240 0.5316 0.5454 0.5592 0.5729
1105.000000 0.5867 0.6003 0.6029 0.6019 0.6021
1100.000000 0.5653 0.5216 0.4779 0.4342 0.3905
1095.000000 0.3468 0.3031 0.2594 0.2157 0.1720
1090.000000 0.0607 0.0846 0.0605 0.1184 0.1836
1085.000000 0.2490 0.3143 0.3796 0.4004 0.3966
1080.000000 0.3677 0.3362 0.3047 0.2731 0.2416
1075.000000 0.2101 0.1785 0.1470 0.1155 0.0839
1070.000000 0.0732 0.0734 0.1490 0.2196 0.2902
1065.000000 0.3607 0.4312 0.5019 0.5215 0.5193
1060.000000 0.4925 0.4201 0.3476 0.2752 0.2027
1055.000000 0.1302 0.0885 0.0892 0.0938 0.1875
1050.000000 0.2811 0.3748 0.4685 0.5621 0.6471
1045.000000 0.6572 0.6611 0.6825 0.7008 0.7300
1040.000000 0.7500 0.7684 0.7836 0.7943 0.8025
1035.000000 0.8090 0.8148 0.8184 0.8198 0.8206
1030.000000 0.8213 0.8216 0.8231 0.8198 0.8178
1025.000000 0.8158 0.8111 0.8039 0.7221 0.7112
1020.000000 0.7006 0.6608 0.5880 0.5152 0.4424
1015.000000 0.3696 0.2609 0.2623 0.2620 0.2967
1010.000000 0.3332 0.3698 0.3847 0.3973 0.4531
1005.000000 0.5126 0.5654 0.5676 0.5664 0.5574
1000.000000 0.5104 0.4634 0.4165 0.3695 0.3226
995.000000 0.2756 0.2250 0.2265 0.2750 0.3541
990.000000 0.4332 0.5123 0.5914 0.6628 0.6878
985.000000 0.7030 0.7243 0.7456 0.7668 0.7881
980.000000 0.7918 0.7965 0.7908 0.7889 0.7868
975.000000 0.7841 0.7807 0.7662 0.7440 0.7215
970.000000 0.7034 0.7041 0.7622 0.8117 0.8328
965.000000 0.8416 0.8457 0.8498 0.8525 0.8539
960.000000 0.8554 0.8568 0.8582 0.8597 0.8603
955.000000 0.8605 0.8606 0.8608 0.8609 0.8609
950.000000 0.8610 0.8610 0.8611 0.8611 0.8611
945.000000 0.8611 0.8609 0.8607 0.8605 0.8602
940.000000 0.8596 0.8590 0.8584 0.8578 0.8571
935.000000 0.8562 0.8549 0.8536 0.8521 0.8496
930.000000 0.8471 0.8448 0.8424 0.8391 0.8354
925.000000 0.8318 0.8281 0.8245 0.8194 0.8140
920.000000 0.8085 0.8030 0.7974 0.7918 0.7860
915.000000 0.7801 0.7741 0.7655 0.7521 0.7210
910.000000 0.5777 0.5767 0.5870 0.6031 0.6184
905.000000 0.6180 0.6203 0.5746 0.5280 0.4927
900.000000 0.4930 0.4922 0.5198 0.5510 0.5823
895.000000 0.6135 0.6447 0.6758 0.7071 0.7384
890.000000 0.7696 0.7903 0.8041 0.8115 0.8151
885.000000 0.8184 0.8207 0.8218 0.8252 0.8213
880.000000 0.8205 0.8191 0.8175 0.8158 0.8140
875.000000 0.8108 0.8078 0.8048 0.8017 0.7986
870.000000 0.7951 0.7914 0.7875 0.7835 0.7785
865.000000 0.7735 0.7685 0.7634 0.7583 0.7532
860.000000 0.7481 0.7430 0.7378 0.7326 0.7275
855.000000 0.7221 0.7169 0.7117 0.7058 0.6999
850.000000 0.6940 0.6882 0.6804 0.6711 0.6608
845.000000 0.6480 0.6370 0.6275 0.6054 0.5741
840.000000 0.5467 0.5460 0.5500 0.5482 0.5794
835.000000 0.5940 0.6087 0.6234 0.6346 0.6346
830.000000 0.6368 0.6340 0.6328 0.6303 0.6269
825.000000 0.6202 0.6131 0.6044 0.5956 0.5868
820.000000 0.5778 0.5689 0.5599 0.5531 0.5475
815.000000 0.5420 0.5337 0.5249 0.5159 0.5072
810.000000 0.5083 0.5094 0.5104 0.5112 0.5115
805.000000 0.5117 0.5120 0.5122 0.5123 0.5124
800.000000 0.5121 0.5117 0.5114 0.5110 0.5096
795.000000 0.5082 0.5068 0.5047 0.5016 0.4985
790.000000 0.4954 0.4906 0.4857 0.4799 0.4739
785.000000 0.4679 0.4514 0.4359 0.4005 0.3632
780.000000 0.3260 0.2889 0.2518 0.2146 0.1774
775.000000 0.1402 0.1030 0.0658 0.0475 0.0440
770.000000 0.0525 0.0968 0.1485 0.2001 0.2518
765.000000 0.3034 0.3095 0.3131 0.3172 0.3212
760.000000 0.3310 0.3602 0.3894 0.4186 0.4477
755.000000 0.4714 0.4772 0.4751 0.4746 0.4730
750.000000 0.4705 0.4677 0.4643 0.4601 0.4558
745.000000 0.4516 0.4469 0.4422 0.4375 0.4329
740.000000 0.4282 0.4237 0.4193 0.4150 0.4107
735.000000 0.4064 0.4018 0.3968 0.3920 0.3873
730.000000 0.3853 0.3852 0.3841 0.3882 0.3966
725.000000 0.4050 0.4133 0.4215 0.4296 0.4377
720.000000 0.4447 0.4517 0.4580 0.4629 0.4679
715.000000 0.4739 0.4752 0.4752 0.4752 0.4684
710.000000 0.4590 0.4394 0.4246 0.3874 0.3495
705.000000 0.3116 0.2735 0.2317 0.2359 0.2376
700.000000 0.2419 0.2508 0.2692 0.2834 0.2945
695.000000 0.3225 0.3689 0.4153 0.4616 0.5021
690.000000 0.5054 0.5089 0.5125 0.5484 0.5830
685.000000 0.6218 0.6338 0.6464 0.6596 0.6703
680.000000 0.6780 0.6858 0.6934 0.7011 0.7087
675.000000 0.7135 0.7180 0.7225 0.7269 0.7315
670.000000 0.7345 0.7374 0.7403 0.7432 0.7460
665.000000 0.7484 0.7507 0.7531 0.7554 0.7576
660.000000 0.7597 0.7617 0.7634 0.7650 0.7665
655.000000 0.7678 0.7690 0.7704 0.7717 0.7726
650.000000 0.7733 0.7738 0.7765 0.7728 0.7715
645.000000 0.7689 0.7658 0.7599 0.7537 0.7445
640.000000 0.7131 0.6360 0.5589 0.4817 0.4046
635.000000 0.3466 0.3466 0.3459 0.4201 0.5056
630.000000 0.5912 0.6767 0.7608 0.7888 0.7954
625.000000 0.8021 0.8075 0.8110 0.8145 0.8180
620.000000 0.8214 0.8249 0.8281 0.8309 0.8338
615.000000 0.8366 0.8394 0.8421 0.8450 0.8470
610.000000 0.8488 0.8505 0.8521 0.8539 0.8557
605.000000 0.8571 0.8584 0.8596 0.8608 0.8620
600.000000 0.8632 0.8643 0.8650 0.8656 0.8663
595.000000 0.8668 0.8673 0.8701 0.8678 0.8678
590.000000 0.8678 0.8671 0.8663 0.8644 0.8615
585.000000 0.8586 0.8540 0.8473 0.8406 0.8312
580.000000 0.8175 0.8031 0.7849 0.7740 0.7653
575.000000 0.7151 0.6676 0.6203 0.5729 0.5255
570.000000 0.4781 0.4306 0.3832 0.3502 0.3507
565.000000 0.3849 0.4332 0.4815 0.5298 0.5780
560.000000 0.6262 0.6746 0.7694 0.7825 0.7934
555.000000 0.8022 0.8112 0.8195 0.8268 0.8344
550.000000 0.8403 0.8443 0.8483 0.8523 0.8554
545.000000 0.8585 0.8602 0.8616 0.8628 0.8637
540.000000 0.8644 0.8652 0.8660 0.8666 0.8668
535.000000 0.8671 0.8675 0.8678 0.8678 0.8678
530.000000 0.8677 0.8675 0.8675 0.8675 0.8668
525.000000 0.8660 0.8652 0.8644 0.8631 0.8614
520.000000 0.8597 0.8578 0.8550 0.8513 0.8464
515.000000 0.8386 0.8274 0.8125 0.7976 0.7828
510.000000 0.7678 0.7528 0.7378 0.7230 0.6928
505.000000 0.6939 0.6942 0.7308 0.7675 0.8042
500.000000 0.8277 0.8347 0.8387 0.8421 0.8439
495.000000 0.8453 0.8463 0.8467 0.8492 0.8453
490.000000 0.8435 0.8416 0.8398 0.8378 0.8348
485.000000 0.8317 0.8287 0.8256 0.8225 0.8198
480.000000 0.8174 0.8149 0.8125 0.8100 0.8075
475.000000 0.8051 0.8026 0.8001 0.7978 0.7951
470.000000 0.7922 0.7896 0.7868 0.7841 0.7812
465.000000 0.7786 0.7758 0.7728 0.7701 0.7672
460.000000 0.7645 0.7617 0.7589 0.7551 0.7508
455.000000 0.7464 0.7421 0.7381 0.7345 0.7308
450.000000 0.7271 0.7232 0.7189 0.7147 0.7071
445.000000 0.6930 0.6836 0.6615 0.6267 0.5918
440.000000 0.5569 0.5299 0.5288 0.5288 0.5460
435.000000 0.5672 0.5884 0.6095 0.6186 0.6210
430.000000 0.6178 0.6155 0.6124 0.6088 0.6050
425.000000 0.5987 0.5924 0.5829 0.5725 0.5626
420.000000 0.5541 0.5456 0.5366 0.5265 0.5181
415.000000 0.5112 0.5079 0.5050 0.5049 0.5049
410.000000 0.5085 0.5123 0.5162 0.5201 0.5239
405.000000 0.5271 0.5303 0.5331
##END=
