##TITLE=4-tert-Butylpyridine
##JCAMP-DX=4.24
$$ By DXEDIT 1.05 (RS McDonald)
##DATA TYPE=INFRARED SPECTRUM
##CLASS=COBLENTZ III
##ORIGIN=DOW CHEMICAL COMPANY
##OWNER=COPYRIGHT (C) 1988 by COBLENTZ SOCIETY INC.
Collection (C) 2018 copyright by the U.S. Secretary of Commerce
on behalf of the United States of America. All rights reserved.
##DATE=1968/05/08
##CAS REGISTRY NO=3978-81-2
##MOLFORM=C9 H13 N
##BP=196 C AT 749 mmHg
##SOURCE REFERENCE=COBLENTZ NO. 06767
##$NIST SOURCE=COBLENTZ
##$NIST IMAGE=cob6767
##SPECTROMETER/DATA SYSTEM=DOW KBr FOREPRISM-GRATING
##INSTRUMENT PARAMETERS=BLAZED AT 3.5, 12.0, 20.0 MICRON AND CHANGED AT 5.0, 7.5, 14.9 MICRON
##STATE=10% solution vs. solvent
##PATH LENGTH=.11mm
##SAMPLING PROCEDURE=TRANSMISSION
##RESOLUTION=2
##DATA PROCESSING=DIGITIZED BY COBLENTZ SOCIETY (BATCH I) FROM HARD COPY
##XUNITS=1/CM
##YUNITS=TRANSMITTANCE
##XFACTOR=1
##YFACTOR=1
##DELTAX=1
##FIRSTX=3800
##LASTX=464
##FIRSTY=1.0042
##MAXX=3800
##MINX=464
##MAXY=1.0287
##MINY=0.0225
##NPOINTS=3337
##XYDATA=(X++(Y..Y))
3800.000000 1.0042 1.0042 1.0042 1.0042 1.0042
3795.000000 1.0042 1.0043 1.0043 1.0043 1.0043
3790.000000 1.0043 1.0043 1.0043 1.0043 1.0044
3785.000000 1.0044 1.0044 1.0044 1.0044 1.0044
3780.000000 1.0045 1.0045 1.0045 1.0045 1.0045
3775.000000 1.0044 1.0043 1.0042 1.0042 1.0041
3770.000000 1.0040 1.0038 1.0037 1.0035 1.0034
3765.000000 1.0032 1.0031 1.0030 1.0028 1.0027
3760.000000 1.0025 1.0024 1.0023 1.0021 1.0021
3755.000000 1.0021 1.0021 1.0020 1.0043 1.0018
3750.000000 1.0018 1.0017 1.0016 1.0016 1.0016
3745.000000 1.0018 1.0023 1.0025 1.0028 1.0039
3740.000000 1.0050 1.0061 1.0071 1.0082 1.0092
3735.000000 1.0098 1.0104 1.0102 1.0101 1.0100
3730.000000 1.0099 1.0098 1.0097 1.0095 1.0094
3725.000000 1.0091 1.0089 1.0086 1.0084 1.0081
3720.000000 1.0078 1.0075 1.0073 1.0068 1.0066
3715.000000 1.0062 1.0058 1.0054 1.0051 1.0047
3710.000000 1.0043 1.0038 1.0034 1.0030 1.0025
3705.000000 1.0021 1.0017 1.0012 1.0008 1.0002
3700.000000 0.9997 0.9991 0.9986 0.9980 0.9974
3695.000000 0.9968 0.9962 0.9955 0.9948 0.9940
3690.000000 0.9932 0.9920 0.9909 0.9893 0.9877
3685.000000 0.9855 0.9834 0.9810 0.9786 0.9761
3680.000000 0.9736 0.9703 0.9670 0.9620 0.9571
3675.000000 0.9514 0.9437 0.9455 0.9452 0.9449
3670.000000 0.9446 0.9460 0.9475 0.9494 0.9514
3665.000000 0.9536 0.9558 0.9580 0.9603 0.9625
3660.000000 0.9650 0.9674 0.9698 0.9716 0.9734
3655.000000 0.9751 0.9768 0.9785 0.9802 0.9818
3650.000000 0.9835 0.9845 0.9856 0.9864 0.9873
3645.000000 0.9881 0.9890 0.9895 0.9901 0.9906
3640.000000 0.9912 0.9917 0.9923 0.9927 0.9932
3635.000000 0.9936 0.9940 0.9943 0.9947 0.9950
3630.000000 0.9954 0.9958 0.9962 0.9965 0.9968
3625.000000 0.9970 0.9971 0.9973 0.9974 0.9975
3620.000000 0.9975 0.9977 0.9978 0.9980 0.9981
3615.000000 0.9982 0.9984 0.9985 0.9986 0.9987
3610.000000 0.9989 0.9990 0.9992 0.9993 0.9994
3605.000000 0.9994 0.9995 0.9995 0.9995 0.9995
3600.000000 0.9996 0.9996 0.9997 0.9997 0.9997
3595.000000 0.9996 0.9995 0.9994 0.9993 0.9991
3590.000000 0.9990 0.9987 0.9985 0.9980 0.9975
3585.000000 0.9967 0.9959 0.9950 0.9942 0.9933
3580.000000 0.9924 0.9916 0.9908 0.9900 0.9893
3575.000000 0.9892 0.9891 0.9890 0.9890 0.9890
3570.000000 0.9890 0.9892 0.9894 0.9896 0.9898
3565.000000 0.9900 0.9902 0.9903 0.9905 0.9907
3560.000000 0.9909 0.9909 0.9910 0.9910 0.9911
3555.000000 0.9911 0.9911 0.9911 0.9911 0.9909
3550.000000 0.9908 0.9907 0.9906 0.9904 0.9903
3545.000000 0.9901 0.9900 0.9898 0.9896 0.9893
3540.000000 0.9891 0.9888 0.9886 0.9884 0.9882
3535.000000 0.9878 0.9877 0.9874 0.9871 0.9867
3530.000000 0.9863 0.9857 0.9851 0.9845 0.9839
3525.000000 0.9833 0.9827 0.9821 0.9815 0.9809
3520.000000 0.9803 0.9797 0.9791 0.9785 0.9778
3515.000000 0.9771 0.9766 0.9762 0.9758 0.9753
3510.000000 0.9749 0.9744 0.9740 0.9736 0.9732
3505.000000 0.9727 0.9723 0.9718 0.9715 0.9710
3500.000000 0.9706 0.9702 0.9698 0.9693 0.9689
3495.000000 0.9685 0.9681 0.9677 0.9674 0.9671
3490.000000 0.9668 0.9664 0.9661 0.9658 0.9655
3485.000000 0.9651 0.9647 0.9643 0.9639 0.9635
3480.000000 0.9631 0.9627 0.9623 0.9618 0.9615
3475.000000 0.9611 0.9607 0.9603 0.9599 0.9595
3470.000000 0.9591 0.9587 0.9583 0.9581 0.9578
3465.000000 0.9577 0.9575 0.9571 0.9570 0.9568
3460.000000 0.9566 0.9564 0.9562 0.9560 0.9558
3455.000000 0.9555 0.9552 0.9549 0.9546 0.9543
3450.000000 0.9541 0.9538 0.9535 0.9532 0.9530
3445.000000 0.9525 0.9523 0.9518 0.9515 0.9511
3440.000000 0.9507 0.9503 0.9499 0.9495 0.9491
3435.000000 0.9487 0.9483 0.9478 0.9475 0.9471
3430.000000 0.9467 0.9463 0.9459 0.9455 0.9451
3425.000000 0.9447 0.9443 0.9439 0.9436 0.9432
3420.000000 0.9428 0.9425 0.9421 0.9418 0.9414
3415.000000 0.9410 0.9407 0.9403 0.9400 0.9396
3410.000000 0.9393 0.9389 0.9385 0.9381 0.9378
3405.000000 0.9375 0.9373 0.9371 0.9370 0.9368
3400.000000 0.9366 0.9364 0.9362 0.9360 0.9358
3395.000000 0.9356 0.9355 0.9353 0.9351 0.9349
3390.000000 0.9347 0.9345 0.9344 0.9342 0.9341
3385.000000 0.9339 0.9338 0.9336 0.9335 0.9333
3380.000000 0.9331 0.9328 0.9328 0.9325 0.9325
3375.000000 0.9323 0.9321 0.9320 0.9318 0.9317
3370.000000 0.9316 0.9314 0.9313 0.9311 0.9310
3365.000000 0.9308 0.9307 0.9306 0.9305 0.9304
3360.000000 0.9303 0.9302 0.9301 0.9300 0.9299
3355.000000 0.9298 0.9297 0.9296 0.9295 0.9294
3350.000000 0.9293 0.9291 0.9290 0.9289 0.9288
3345.000000 0.9287 0.9286 0.9286 0.9287 0.9287
3340.000000 0.9287 0.9287 0.9287 0.9287 0.9288
3335.000000 0.9288 0.9288 0.9288 0.9289 0.9289
3330.000000 0.9289 0.9289 0.9289 0.9289 0.9290
3325.000000 0.9291 0.9292 0.9292 0.9293 0.9293
3320.000000 0.9294 0.9294 0.9295 0.9295 0.9296
3315.000000 0.9296 0.9297 0.9297 0.9298 0.9298
3310.000000 0.9299 0.9299 0.9300 0.9300 0.9301
3305.000000 0.9301 0.9302 0.9302 0.9303 0.9303
3300.000000 0.9304 0.9304 0.9305 0.9305 0.9306
3295.000000 0.9306 0.9307 0.9307 0.9308 0.9310
3290.000000 0.9313 0.9316 0.9318 0.9321 0.9325
3285.000000 0.9328 0.9332 0.9335 0.9338 0.9341
3280.000000 0.9344 0.9348 0.9353 0.9357 0.9362
3275.000000 0.9366 0.9371 0.9375 0.9378 0.9383
3270.000000 0.9388 0.9391 0.9395 0.9398 0.9401
3265.000000 0.9404 0.9407 0.9409 0.9412 0.9415
3260.000000 0.9418 0.9420 0.9423 0.9425 0.9427
3255.000000 0.9428 0.9431 0.9433 0.9435 0.9437
3250.000000 0.9439 0.9441 0.9443 0.9444 0.9444
3245.000000 0.9444 0.9443 0.9442 0.9442 0.9441
3240.000000 0.9440 0.9438 0.9436 0.9434 0.9433
3235.000000 0.9431 0.9428 0.9427 0.9425 0.9421
3230.000000 0.9417 0.9412 0.9408 0.9403 0.9398
3225.000000 0.9393 0.9389 0.9384 0.9378 0.9373
3220.000000 0.9368 0.9363 0.9358 0.9353 0.9348
3215.000000 0.9343 0.9338 0.9334 0.9330 0.9325
3210.000000 0.9321 0.9317 0.9313 0.9308 0.9304
3205.000000 0.9301 0.9299 0.9296 0.9293 0.9290
3200.000000 0.9288 0.9286 0.9285 0.9284 0.9283
3195.000000 0.9283 0.9283 0.9283 0.9284 0.9285
3190.000000 0.9286 0.9287 0.9288 0.9289 0.9291
3185.000000 0.9294 0.9297 0.9299 0.9302 0.9305
3180.000000 0.9308 0.9310 0.9313 0.9316 0.9320
3175.000000 0.9325 0.9331 0.9336 0.9341 0.9346
3170.000000 0.9352 0.9357 0.9363 0.9368 0.9373
3165.000000 0.9378 0.9385 0.9391 0.9397 0.9402
3160.000000 0.9408 0.9414 0.9420 0.9425 0.9432
3155.000000 0.9437 0.9442 0.9446 0.9451 0.9455
3150.000000 0.9460 0.9464 0.9468 0.9473 0.9477
3145.000000 0.9480 0.9483 0.9485 0.9488 0.9491
3140.000000 0.9494 0.9496 0.9499 0.9502 0.9505
3135.000000 0.9507 0.9510 0.9512 0.9515 0.9517
3130.000000 0.9528 0.9520 0.9521 0.9523 0.9525
3125.000000 0.9525 0.9525 0.9525 0.9524 0.9521
3120.000000 0.9518 0.9515 0.9513 0.9509 0.9506
3115.000000 0.9497 0.9488 0.9478 0.9471 0.9457
3110.000000 0.9444 0.9425 0.9409 0.9388 0.9367
3105.000000 0.9342 0.9317 0.9285 0.9254 0.9211
3100.000000 0.9168 0.9121 0.9077 0.9023 0.8970
3095.000000 0.8903 0.8837 0.8742 0.8648 0.8521
3090.000000 0.8396 0.8331 0.8267 0.8045 0.7824
3085.000000 0.7392 0.6961 0.6526 0.6045 0.6087
3080.000000 0.6080 0.6080 0.6081 0.6146 0.6210
3075.000000 0.6308 0.6405 0.6501 0.6599 0.6696
3070.000000 0.6793 0.6890 0.6987 0.7084 0.7181
3065.000000 0.7278 0.7375 0.7471 0.7568 0.7665
3060.000000 0.7762 0.7858 0.7954 0.7978 0.8005
3055.000000 0.8019 0.8036 0.8043 0.8078 0.8055
3050.000000 0.8058 0.8058 0.8060 0.8060 0.8061
3045.000000 0.8045 0.8030 0.7996 0.7961 0.7871
3040.000000 0.7781 0.7640 0.7499 0.7357 0.7215
3035.000000 0.7075 0.6934 0.6861 0.6790 0.6719
3030.000000 0.6651 0.6603 0.6556 0.6460 0.6365
3025.000000 0.6247 0.6095 0.6190 0.6251 0.6340
3020.000000 0.6428 0.6518 0.6607 0.6696 0.6785
3015.000000 0.6874 0.6962 0.7051 0.7141 0.7230
3010.000000 0.7318 0.7408 0.7497 0.7558 0.7621
3005.000000 0.7625 0.7626 0.7628 0.7628 0.7615
3000.000000 0.7604 0.7568 0.7533 0.6915 0.6300
2995.000000 0.6046 0.5793 0.5539 0.5286 0.5032
2990.000000 0.4779 0.4525 0.4272 0.4018 0.3766
2985.000000 0.3230 0.2694 0.2390 0.2085 0.1782
2980.000000 0.1478 0.1174 0.0870 0.0726 0.0582
2975.000000 0.0525 0.0469 0.0451 0.0434 0.0427
2970.000000 0.0421 0.0417 0.0427 0.0415 0.0415
2965.000000 0.0419 0.0423 0.0459 0.0495 0.0578
2960.000000 0.0662 0.0725 0.0789 0.0858 0.0928
2955.000000 0.1042 0.1157 0.1256 0.1355 0.1461
2950.000000 0.1568 0.1679 0.1792 0.1904 0.2018
2945.000000 0.2501 0.2984 0.3063 0.3142 0.3200
2940.000000 0.3258 0.3312 0.3366 0.3434 0.3503
2935.000000 0.3571 0.3640 0.3690 0.3740 0.3790
2930.000000 0.3841 0.3897 0.3954 0.4014 0.4077
2925.000000 0.4145 0.4212 0.4250 0.4288 0.4354
2920.000000 0.4420 0.4486 0.4553 0.4598 0.4643
2915.000000 0.4643 0.4651 0.4608 0.4573 0.4538
2910.000000 0.4503 0.4468 0.4433 0.4403 0.4374
2905.000000 0.4390 0.4366 0.4535 0.4664 0.4793
2900.000000 0.4923 0.5052 0.5181 0.5310 0.5439
2895.000000 0.5568 0.5697 0.5726 0.5807 0.5764
2890.000000 0.5774 0.5779 0.5779 0.5779 0.5774
2885.000000 0.5740 0.5707 0.5532 0.5357 0.5182
2880.000000 0.5007 0.4832 0.4658 0.4483 0.4308
2875.000000 0.4275 0.4224 0.4235 0.4228 0.4374
2870.000000 0.4520 0.4778 0.5037 0.5296 0.5555
2865.000000 0.5812 0.6072 0.6330 0.6589 0.6847
2860.000000 0.7106 0.7206 0.7306 0.7376 0.7448
2855.000000 0.7598 0.7749 0.7888 0.8026 0.8106
2850.000000 0.8185 0.8252 0.8318 0.8385 0.8452
2845.000000 0.8508 0.8565 0.8606 0.8648 0.8689
2840.000000 0.8731 0.8771 0.8814 0.8853 0.8892
2835.000000 0.8925 0.8959 0.8992 0.9025 0.9059
2830.000000 0.9093 0.9125 0.9158 0.9191 0.9224
2825.000000 0.9253 0.9283 0.9310 0.9338 0.9358
2820.000000 0.9378 0.9397 0.9416 0.9418 0.9421
2815.000000 0.9423 0.9425 0.9427 0.9428 0.9430
2810.000000 0.9432 0.9433 0.9434 0.9435 0.9436
2805.000000 0.9443 0.9451 0.9458 0.9466 0.9478
2800.000000 0.9492 0.9509 0.9525 0.9542 0.9559
2795.000000 0.9571 0.9586 0.9599 0.9613 0.9625
2790.000000 0.9639 0.9647 0.9655 0.9663 0.9671
2785.000000 0.9678 0.9686 0.9693 0.9701 0.9708
2780.000000 0.9715 0.9721 0.9730 0.9737 0.9744
2775.000000 0.9749 0.9755 0.9760 0.9766 0.9771
2770.000000 0.9777 0.9780 0.9784 0.9785 0.9786
2765.000000 0.9786 0.9785 0.9782 0.9780 0.9775
2760.000000 0.9770 0.9765 0.9760 0.9755 0.9750
2755.000000 0.9742 0.9734 0.9725 0.9718 0.9710
2750.000000 0.9703 0.9706 0.9710 0.9716 0.9721
2745.000000 0.9727 0.9733 0.9736 0.9740 0.9742
2740.000000 0.9744 0.9746 0.9748 0.9750 0.9750
2735.000000 0.9751 0.9751 0.9750 0.9749 0.9748
2730.000000 0.9747 0.9745 0.9744 0.9737 0.9731
2725.000000 0.9725 0.9718 0.9713 0.9708 0.9704
2720.000000 0.9700 0.9696 0.9692 0.9688 0.9684
2715.000000 0.9681 0.9678 0.9675 0.9674 0.9686
2710.000000 0.9698 0.9711 0.9724 0.9733 0.9743
2705.000000 0.9752 0.9762 0.9771 0.9781 0.9790
2700.000000 0.9800 0.9807 0.9814 0.9820 0.9825
2695.000000 0.9832 0.9839 0.9844 0.9850 0.9855
2690.000000 0.9861 0.9863 0.9866 0.9868 0.9870
2685.000000 0.9871 0.9874 0.9875 0.9878 0.9878
2680.000000 0.9878 0.9878 0.9880 0.9880 0.9880
2675.000000 0.9874 0.9868 0.9863 0.9858 0.9852
2670.000000 0.9846 0.9839 0.9832 0.9825 0.9821
2665.000000 0.9818 0.9816 0.9813 0.9813 0.9813
2660.000000 0.9816 0.9818 0.9821 0.9825 0.9828
2655.000000 0.9831 0.9834 0.9837 0.9840 0.9843
2650.000000 0.9846 0.9849 0.9852 0.9855 0.9859
2645.000000 0.9861 0.9864 0.9865 0.9867 0.9868
2640.000000 0.9870 0.9871 0.9874 0.9874 0.9875
2635.000000 0.9875 0.9875 0.9875 0.9875 0.9875
2630.000000 0.9877 0.9877 0.9878 0.9878 0.9878
2625.000000 0.9878 0.9878 0.9878 0.9878 0.9878
2620.000000 0.9880 0.9880 0.9880 0.9880 0.9881
2615.000000 0.9881 0.9881 0.9881 0.9881 0.9881
2610.000000 0.9882 0.9882 0.9883 0.9883 0.9884
2605.000000 0.9885 0.9886 0.9886 0.9887 0.9887
2600.000000 0.9888 0.9888 0.9889 0.9889 0.9890
2595.000000 0.9891 0.9892 0.9892 0.9893 0.9893
2590.000000 0.9894 0.9895 0.9896 0.9896 0.9897
2585.000000 0.9897 0.9898 0.9898 0.9899 0.9899
2580.000000 0.9900 0.9900 0.9900 0.9900 0.9900
2575.000000 0.9899 0.9898 0.9893 0.9888 0.9877
2570.000000 0.9867 0.9853 0.9840 0.9834 0.9828
2565.000000 0.9827 0.9825 0.9825 0.9825 0.9827
2560.000000 0.9828 0.9831 0.9834 0.9837 0.9840
2555.000000 0.9843 0.9846 0.9848 0.9850 0.9852
2550.000000 0.9854 0.9856 0.9859 0.9861 0.9863
2545.000000 0.9864 0.9866 0.9867 0.9868 0.9870
2540.000000 0.9871 0.9873 0.9874 0.9874 0.9875
2535.000000 0.9875 0.9877 0.9877 0.9878 0.9878
2530.000000 0.9880 0.9880 0.9881 0.9881 0.9882
2525.000000 0.9883 0.9884 0.9884 0.9885 0.9885
2520.000000 0.9885 0.9884 0.9884 0.9884 0.9884
2515.000000 0.9884 0.9884 0.9884 0.9884 0.9884
2510.000000 0.9884 0.9884 0.9884 0.9884 0.9884
2505.000000 0.9884 0.9884 0.9883 0.9883 0.9883
2500.000000 0.9883 0.9883 0.9883 0.9883 0.9883
2495.000000 0.9883 0.9883 0.9883 0.9883 0.9883
2490.000000 0.9883 0.9883 0.9883 0.9878 0.9874
2485.000000 0.9868 0.9864 0.9855 0.9847 0.9837
2480.000000 0.9828 0.9818 0.9810 0.9806 0.9803
2475.000000 0.9800 0.9797 0.9794 0.9793 0.9793
2470.000000 0.9795 0.9797 0.9799 0.9800 0.9802
2465.000000 0.9804 0.9807 0.9809 0.9811 0.9813
2460.000000 0.9815 0.9817 0.9818 0.9821 0.9821
2455.000000 0.9821 0.9821 0.9821 0.9821 0.9820
2450.000000 0.9818 0.9817 0.9816 0.9812 0.9809
2445.000000 0.9806 0.9803 0.9799 0.9796 0.9792
2440.000000 0.9789 0.9786 0.9784 0.9783 0.9783
2435.000000 0.9782 0.9782 0.9782 0.9783 0.9785
2430.000000 0.9787 0.9789 0.9791 0.9793 0.9795
2425.000000 0.9797 0.9799 0.9801 0.9803 0.9805
2420.000000 0.9808 0.9810 0.9813 0.9815 0.9817
2415.000000 0.9818 0.9821 0.9823 0.9825 0.9825
2410.000000 0.9825 0.9824 0.9824 0.9824 0.9824
2405.000000 0.9824 0.9824 0.9824 0.9824 0.9823
2400.000000 0.9821 0.9818 0.9817 0.9814 0.9812
2395.000000 0.9809 0.9807 0.9806 0.9805 0.9804
2390.000000 0.9804 0.9804 0.9805 0.9807 0.9810
2385.000000 0.9812 0.9814 0.9816 0.9818 0.9820
2380.000000 0.9823 0.9825 0.9827 0.9831 0.9835
2375.000000 0.9839 0.9843 0.9847 0.9852 0.9856
2370.000000 0.9860 0.9864 0.9868 0.9871 0.9875
2365.000000 0.9880 0.9884 0.9886 0.9889 0.9891
2360.000000 0.9894 0.9896 0.9898 0.9900 0.9902
2355.000000 0.9904 0.9906 0.9907 0.9909 0.9911
2350.000000 0.9913 0.9914 0.9916 0.9916 0.9917
2345.000000 0.9917 0.9918 0.9918 0.9918 0.9918
2340.000000 0.9920 0.9920 0.9921 0.9921 0.9921
2335.000000 0.9921 0.9921 0.9921 0.9921 0.9921
2330.000000 0.9921 0.9920 0.9920 0.9918 0.9918
2325.000000 0.9916 0.9913 0.9910 0.9907 0.9904
2320.000000 0.9902 0.9900 0.9898 0.9895 0.9893
2315.000000 0.9890 0.9888 0.9885 0.9883 0.9878
2310.000000 0.9875 0.9871 0.9868 0.9866 0.9863
2305.000000 0.9860 0.9857 0.9854 0.9851 0.9849
2300.000000 0.9848 0.9848 0.9848 0.9849 0.9851
2295.000000 0.9852 0.9853 0.9855 0.9857 0.9861
2290.000000 0.9865 0.9868 0.9873 0.9877 0.9881
2285.000000 0.9885 0.9889 0.9893 0.9898 0.9902
2280.000000 0.9906 0.9910 0.9915 0.9918 0.9923
2275.000000 0.9927 0.9932 0.9936 0.9941 0.9944
2270.000000 0.9948 0.9949 0.9951 0.9952 0.9954
2265.000000 0.9955 0.9957 0.9958 0.9960 0.9961
2260.000000 0.9962 0.9963 0.9965 0.9966 0.9968
2255.000000 0.9968 0.9971 0.9971 0.9973 0.9973
2250.000000 0.9974 0.9975 0.9975 0.9975 0.9977
2245.000000 0.9977 0.9978 0.9978 0.9980 0.9980
2240.000000 0.9981 0.9981 0.9982 0.9983 0.9984
2235.000000 0.9984 0.9985 0.9985 0.9986 0.9986
2230.000000 0.9987 0.9987 0.9987 0.9987 0.9987
2225.000000 0.9984 0.9982 0.9980 0.9978 0.9977
2220.000000 0.9975 0.9975 0.9974 0.9974 0.9974
2215.000000 0.9974 0.9974 0.9974 0.9974 0.9973
2210.000000 0.9973 0.9973 0.9973 0.9975 0.9978
2205.000000 0.9981 0.9984 0.9987 0.9990 0.9993
2200.000000 0.9996 0.9998 1.0001 1.0004 1.0007
2195.000000 1.0010 1.0014 1.0017 1.0020 1.0023
2190.000000 1.0025 1.0028 1.0032 1.0035 1.0038
2185.000000 1.0041 1.0045 1.0048 1.0051 1.0054
2180.000000 1.0057 1.0060 1.0064 1.0067 1.0070
2175.000000 1.0073 1.0075 1.0078 1.0082 1.0085
2170.000000 1.0089 1.0092 1.0095 1.0098 1.0101
2165.000000 1.0103 1.0106 1.0108 1.0110 1.0112
2160.000000 1.0114 1.0116 1.0118 1.0120 1.0121
2155.000000 1.0124 1.0125 1.0128 1.0130 1.0132
2150.000000 1.0134 1.0136 1.0138 1.0140 1.0142
2145.000000 1.0144 1.0146 1.0148 1.0150 1.0151
2140.000000 1.0153 1.0154 1.0156 1.0157 1.0159
2135.000000 1.0160 1.0162 1.0163 1.0165 1.0167
2130.000000 1.0168 1.0170 1.0171 1.0173 1.0175
2125.000000 1.0175 1.0178 1.0178 1.0181 1.0182
2120.000000 1.0184 1.0185 1.0187 1.0189 1.0191
2115.000000 1.0192 1.0194 1.0195 1.0197 1.0198
2110.000000 1.0200 1.0201 1.0203 1.0204 1.0206
2105.000000 1.0207 1.0209 1.0210 1.0211 1.0212
2100.000000 1.0214 1.0215 1.0217 1.0218 1.0220
2095.000000 1.0221 1.0221 1.0223 1.0225 1.0225
2090.000000 1.0228 1.0228 1.0231 1.0232 1.0234
2085.000000 1.0235 1.0236 1.0237 1.0239 1.0240
2080.000000 1.0242 1.0243 1.0245 1.0246 1.0247
2075.000000 1.0248 1.0249 1.0250 1.0251 1.0252
2070.000000 1.0253 1.0254 1.0255 1.0256 1.0257
2065.000000 1.0258 1.0259 1.0260 1.0261 1.0262
2060.000000 1.0264 1.0265 1.0266 1.0267 1.0268
2055.000000 1.0268 1.0270 1.0271 1.0271 1.0273
2050.000000 1.0274 1.0275 1.0275 1.0277 1.0278
2045.000000 1.0278 1.0280 1.0281 1.0282 1.0283
2040.000000 1.0284 1.0284 1.0285 1.0285 1.0285
2035.000000 1.0285 1.0286 1.0286 1.0286 1.0286
2030.000000 1.0287 1.0287 1.0287 1.0287 1.0287
2025.000000 1.0287 1.0287 1.0286 1.0285 1.0284
2020.000000 1.0283 1.0282 1.0281 1.0278 1.0278
2015.000000 1.0275 1.0275 1.0273 1.0271 1.0270
2010.000000 1.0268 1.0268 1.0267 1.0265 1.0264
2005.000000 1.0263 1.0262 1.0254 1.0247 1.0228
2000.000000 1.0212 1.0195 1.0178 1.0157 1.0134
1995.000000 1.0130 1.0138 1.0145 1.0149 1.0153
1990.000000 1.0157 1.0157 1.0158 1.0153 1.0149
1985.000000 1.0145 1.0140 1.0142 1.0143 1.0144
1980.000000 1.0148 1.0151 1.0155 1.0159 1.0163
1975.000000 1.0165 1.0165 1.0166 1.0166 1.0166
1970.000000 1.0161 1.0156 1.0151 1.0144 1.0136
1965.000000 1.0128 1.0121 1.0114 1.0108 1.0103
1960.000000 1.0097 1.0092 1.0088 1.0085 1.0081
1955.000000 1.0078 1.0074 1.0070 1.0065 1.0061
1950.000000 1.0055 1.0046 1.0036 1.0027 1.0015
1945.000000 0.9999 0.9983 0.9944 0.9887 0.9806
1940.000000 0.9737 0.9641 0.9475 0.9310 0.9145
1935.000000 0.8980 0.8877 0.8871 0.8849 0.8908
1930.000000 0.8974 0.9053 0.9135 0.9209 0.9283
1925.000000 0.9357 0.9434 0.9513 0.9594 0.9684
1920.000000 0.9765 0.9837 0.9893 0.9915 0.9936
1915.000000 0.9958 0.9977 0.9988 0.9999 1.0010
1910.000000 1.0020 1.0031 1.0040 1.0048 1.0057
1905.000000 1.0065 1.0074 1.0082 1.0091 1.0098
1900.000000 1.0103 1.0107 1.0112 1.0116 1.0121
1895.000000 1.0125 1.0130 1.0134 1.0139 1.0143
1890.000000 1.0148 1.0152 1.0157 1.0161 1.0164
1885.000000 1.0167 1.0168 1.0182 1.0174 1.0175
1880.000000 1.0178 1.0180 1.0181 1.0182 1.0183
1875.000000 1.0183 1.0183 1.0181 1.0178 1.0175
1870.000000 1.0174 1.0171 1.0168 1.0166 1.0163
1865.000000 1.0159 1.0155 1.0151 1.0147 1.0144
1860.000000 1.0140 1.0136 1.0133 1.0128 1.0121
1855.000000 1.0115 1.0109 1.0102 1.0094 1.0078
1850.000000 1.0059 1.0031 1.0003 0.9938 0.9897
1845.000000 0.9865 0.9841 0.9812 0.9783 0.9716
1840.000000 0.9749 0.9762 0.9777 0.9800 0.9821
1835.000000 0.9845 0.9867 0.9898 0.9928 0.9955
1830.000000 0.9978 1.0001 1.0018 1.0028 1.0039
1825.000000 1.0048 1.0058 1.0063 1.0067 1.0071
1820.000000 1.0075 1.0080 1.0084 1.0084 1.0083
1815.000000 1.0083 1.0083 1.0083 1.0083 1.0083
1810.000000 1.0083 1.0083 1.0083 1.0082 1.0082
1805.000000 1.0082 1.0082 1.0082 1.0082 1.0082
1800.000000 1.0082 1.0081 1.0081 1.0082 1.0083
1795.000000 1.0083 1.0084 1.0085 1.0086 1.0087
1790.000000 1.0088 1.0088 1.0087 1.0085 1.0077
1785.000000 1.0067 1.0056 1.0045 1.0021 0.9987
1780.000000 0.9943 0.9907 0.9871 0.9848 0.9824
1775.000000 0.9814 0.9807 0.9807 0.9807 0.9832
1770.000000 0.9855 0.9878 0.9901 0.9915 0.9928
1765.000000 0.9944 0.9957 0.9966 0.9975 0.9986
1760.000000 0.9995 1.0004 1.0008 1.0013 1.0017
1755.000000 1.0021 1.0024 1.0025 1.0039 1.0030
1750.000000 1.0031 1.0031 1.0032 1.0028 1.0024
1745.000000 1.0018 1.0015 1.0009 1.0002 0.9996
1740.000000 0.9990 0.9982 0.9974 0.9966 0.9958
1735.000000 0.9950 0.9938 0.9927 0.9914 0.9902
1730.000000 0.9890 0.9878 0.9865 0.9854 0.9849
1725.000000 0.9849 0.9848 0.9849 0.9850 0.9854
1720.000000 0.9859 0.9864 0.9868 0.9871 0.9873
1715.000000 0.9867 0.9859 0.9850 0.9835 0.9820
1710.000000 0.9805 0.9791 0.9777 0.9764 0.9757
1705.000000 0.9752 0.9749 0.9749 0.9749 0.9749
1700.000000 0.9750 0.9750 0.9751 0.9752 0.9752
1695.000000 0.9752 0.9750 0.9740 0.9728 0.9680
1690.000000 0.9628 0.9577 0.9525 0.9473 0.9421
1685.000000 0.9371 0.9325 0.9281 0.9292 0.9289
1680.000000 0.9328 0.9378 0.9427 0.9493 0.9564
1675.000000 0.9607 0.9651 0.9688 0.9720 0.9752
1670.000000 0.9778 0.9799 0.9806 0.9811 0.9813
1665.000000 0.9816 0.9827 0.9820 0.9820 0.9820
1660.000000 0.9817 0.9814 0.9811 0.9807 0.9803
1655.000000 0.9798 0.9793 0.9789 0.9784 0.9780
1650.000000 0.9775 0.9771 0.9763 0.9747 0.9728
1645.000000 0.9697 0.9665 0.9639 0.9625 0.9617
1640.000000 0.9611 0.9605 0.9602 0.9600 0.9597
1635.000000 0.9594 0.9589 0.9580 0.9570 0.9560
1630.000000 0.9547 0.9528 0.9510 0.9487 0.9462
1625.000000 0.9436 0.9411 0.9378 0.9344 0.9309
1620.000000 0.9274 0.9227 0.9180 0.9133 0.9061
1615.000000 0.8975 0.8865 0.8733 0.8559 0.8338
1610.000000 0.7778 0.7045 0.6340 0.5793 0.5355
1605.000000 0.4672 0.3989 0.3306 0.2624 0.1941
1600.000000 0.1258 0.0241 0.0225 0.0231 0.0284
1595.000000 0.0392 0.0527 0.0717 0.1568 0.2470
1590.000000 0.3371 0.4273 0.4910 0.5085 0.5279
1585.000000 0.5532 0.5777 0.6323 0.6868 0.7412
1580.000000 0.7892 0.8082 0.8247 0.8427 0.8554
1575.000000 0.8646 0.8713 0.8777 0.8844 0.8897
1570.000000 0.8943 0.9000 0.9047 0.9068 0.9086
1565.000000 0.9099 0.9098 0.9107 0.9110 0.9083
1560.000000 0.9027 0.8906 0.8364 0.7111 0.5274
1555.000000 0.5282 0.5441 0.5865 0.6289 0.6711
1550.000000 0.7136 0.7540 0.7547 0.7547 0.7468
1545.000000 0.7353 0.7238 0.7122 0.7110 0.7258
1540.000000 0.7504 0.7750 0.7995 0.8241 0.8487
1535.000000 0.8642 0.8755 0.8859 0.8961 0.9039
1530.000000 0.9091 0.9143 0.9192 0.9240 0.9289
1525.000000 0.9336 0.9383 0.9430 0.9474 0.9518
1520.000000 0.9562 0.9606 0.9641 0.9673 0.9735
1515.000000 0.9730 0.9728 0.9727 0.9721 0.9708
1510.000000 0.9692 0.9675 0.9657 0.9638 0.9618
1505.000000 0.9598 0.9568 0.9537 0.9505 0.9438
1500.000000 0.9318 0.8943 0.8586 0.6878 0.5071
1495.000000 0.3973 0.3943 0.4305 0.4767 0.5228
1490.000000 0.5690 0.6151 0.6612 0.7074 0.7400
1485.000000 0.7437 0.7410 0.7404 0.7371 0.7269
1480.000000 0.6948 0.6626 0.6305 0.5983 0.5662
1475.000000 0.5427 0.5357 0.5338 0.5309 0.5252
1470.000000 0.5206 0.5148 0.5165 0.5166 0.5200
1465.000000 0.5295 0.5443 0.5587 0.5701 0.5735
1460.000000 0.5744 0.5756 0.5777 0.5827 0.5888
1455.000000 0.6003 0.6222 0.6501 0.6783 0.7062
1450.000000 0.7344 0.7625 0.7882 0.7894 0.7905
1445.000000 0.7915 0.7925 0.7945 0.7971 0.8018
1440.000000 0.8075 0.8181 0.8301 0.8424 0.8516
1435.000000 0.8566 0.8609 0.8643 0.8677 0.8712
1430.000000 0.8749 0.8781 0.8802 0.8804 0.8809
1425.000000 0.8807 0.8803 0.8787 0.8764 0.8730
1420.000000 0.8666 0.8536 0.8220 0.7191 0.6162
1415.000000 0.5135 0.4107 0.3079 0.2051 0.1005
1410.000000 0.1024 0.1039 0.1159 0.1789 0.2418
1405.000000 0.3048 0.3677 0.4307 0.4936 0.5566
1400.000000 0.6195 0.6825 0.7081 0.6946 0.6811
1395.000000 0.6792 0.7101 0.7506 0.7910 0.8314
1390.000000 0.8504 0.8706 0.8882 0.9003 0.9068
1385.000000 0.9084 0.9095 0.9114 0.9109 0.9105
1380.000000 0.9102 0.9082 0.9055 0.9020 0.8980
1375.000000 0.8940 0.8524 0.8221 0.7471 0.6495
1370.000000 0.5518 0.4541 0.3229 0.3245 0.3284
1365.000000 0.3418 0.4185 0.5173 0.6160 0.7148
1360.000000 0.8136 0.8984 0.8887 0.8601 0.8587
1355.000000 0.8815 0.9042 0.9189 0.9262 0.9335
1350.000000 0.9389 0.9427 0.9463 0.9493 0.9524
1345.000000 0.9546 0.9568 0.9583 0.9599 0.9607
1340.000000 0.9613 0.9618 0.9625 0.9631 0.9637
1335.000000 0.9642 0.9647 0.9651 0.9656 0.9660
1330.000000 0.9662 0.9663 0.9665 0.9667 0.9668
1325.000000 0.9671 0.9675 0.9667 0.9658 0.9657
1320.000000 0.9656 0.9688 0.9720 0.9751 0.9782
1315.000000 0.9812 0.9843 0.9874 0.9892 0.9908
1310.000000 0.9923 0.9938 0.9951 0.9957 0.9963
1305.000000 0.9970 0.9973 0.9957 0.9968 0.9966
1300.000000 0.9963 0.9960 0.9949 0.9937 0.9925
1295.000000 0.9913 0.9892 0.9868 0.9847 0.9821
1290.000000 0.9791 0.9759 0.9725 0.9690 0.9655
1285.000000 0.9615 0.9575 0.9528 0.9470 0.9411
1280.000000 0.9325 0.9221 0.9116 0.9004 0.8892
1275.000000 0.8721 0.6436 0.5775 0.5114 0.4452
1270.000000 0.3399 0.3429 0.3434 0.3700 0.4410
1265.000000 0.5121 0.5832 0.6543 0.7254 0.7803
1260.000000 0.7996 0.8211 0.8537 0.8718 0.8856
1255.000000 0.8958 0.9053 0.9142 0.9214 0.9278
1250.000000 0.9331 0.9375 0.9413 0.9442 0.9461
1245.000000 0.9468 0.9468 0.9471 0.9463 0.9452
1240.000000 0.9406 0.9353 0.9294 0.9224 0.9162
1235.000000 0.9118 0.9084 0.9057 0.9047 0.9055
1230.000000 0.9064 0.9091 0.9118 0.9151 0.9163
1225.000000 0.9155 0.9090 0.8246 0.7418 0.6593
1220.000000 0.5947 0.5951 0.6669 0.7819 0.8699
1215.000000 0.8824 0.8933 0.9055 0.9198 0.9296
1210.000000 0.9383 0.9443 0.9443 0.9443 0.9460
1205.000000 0.9451 0.9428 0.9339 0.9124 0.8837
1200.000000 0.8549 0.8262 0.7897 0.7956 0.7975
1195.000000 0.8039 0.8171 0.8307 0.8436 0.8565
1190.000000 0.8690 0.8814 0.8981 0.9137 0.9228
1185.000000 0.9318 0.9406 0.9489 0.9571 0.9642
1180.000000 0.9712 0.9770 0.9818 0.9859 0.9886
1175.000000 0.9913 0.9937 0.9954 0.9970 0.9986
1170.000000 1.0002 1.0016 1.0028 1.0040 1.0052
1165.000000 1.0064 1.0075 1.0088 1.0100 1.0111
1160.000000 1.0121 1.0134 1.0145 1.0156 1.0165
1155.000000 1.0171 1.0178 1.0185 1.0191 1.0198
1150.000000 1.0204 1.0209 1.0214 1.0218 1.0223
1145.000000 1.0225 1.0228 1.0232 1.0259 1.0237
1140.000000 1.0239 1.0241 1.0244 1.0246 1.0246
1135.000000 1.0246 1.0246 1.0241 1.0233 1.0225
1130.000000 1.0217 1.0194 1.0171 1.0148 1.0128
1125.000000 1.0116 1.0108 1.0101 1.0093 1.0085
1120.000000 1.0074 1.0035 0.9978 0.9833 0.9763
1115.000000 0.9751 0.9768 0.9812 0.9856 0.9902
1110.000000 0.9950 0.9997 1.0045 1.0090 1.0130
1105.000000 1.0164 1.0168 1.0174 1.0174 1.0166
1100.000000 1.0158 1.0142 1.0121 1.0101 1.0064
1095.000000 1.0023 0.9978 0.9931 0.9899 0.9871
1090.000000 0.9859 0.9864 0.9871 0.9881 0.9890
1085.000000 0.9900 0.9908 0.9912 0.9913 0.9914
1080.000000 0.9900 0.9875 0.9838 0.9661 0.9093
1075.000000 0.8488 0.7883 0.7278 0.6672 0.6068
1070.000000 0.5888 0.6418 0.7025 0.7633 0.8240
1065.000000 0.8681 0.8762 0.8842 0.9004 0.9206
1060.000000 0.9312 0.9408 0.9490 0.9567 0.9628
1055.000000 0.9688 0.9741 0.9767 0.9793 0.9818
1050.000000 0.9845 0.9871 0.9891 0.9911 0.9930
1045.000000 0.9949 0.9968 0.9987 1.0005 1.0023
1040.000000 1.0036 1.0046 1.0056 1.0066 1.0075
1035.000000 1.0086 1.0092 1.0096 1.0100 1.0104
1030.000000 1.0105 1.0094 1.0094 1.0094 1.0090
1025.000000 1.0086 1.0082 1.0073 1.0063 1.0052
1020.000000 1.0041 1.0031 1.0020 1.0010 0.9999
1015.000000 0.9989 0.9983 0.9977 0.9971 0.9968
1010.000000 0.9967 0.9966 0.9965 0.9964 0.9962
1005.000000 0.9961 0.9960 0.9955 0.9937 0.9907
1000.000000 0.9856 0.9639 0.9381 0.9225 0.9133
995.000000 0.8268 0.6425 0.2888 0.2912 0.2897
990.000000 0.3309 0.4970 0.6630 0.8290 0.9555
985.000000 0.9628 0.9649 0.9649 0.9650 0.9631
980.000000 0.9598 0.9600 0.9623 0.9662 0.9700
975.000000 0.9733 0.9757 0.9782 0.9806 0.9821
970.000000 0.9834 0.9844 0.9848 0.9851 0.9854
965.000000 0.9857 0.9839 0.9854 0.9850 0.9843
960.000000 0.9828 0.9816 0.9802 0.9778 0.9749
955.000000 0.9714 0.9686 0.9658 0.9633 0.9598
950.000000 0.9618 0.9638 0.9659 0.9678 0.9698
945.000000 0.9718 0.9736 0.9746 0.9757 0.9768
940.000000 0.9791 0.9774 0.9777 0.9770 0.9745
935.000000 0.9705 0.9649 0.9587 0.9530 0.9502
930.000000 0.9474 0.9446 0.9425 0.9406 0.9387
925.000000 0.9368 0.9355 0.9352 0.9342 0.9359
920.000000 0.9395 0.9431 0.9468 0.9508 0.9547
915.000000 0.9586 0.9625 0.9660 0.9692 0.9725
910.000000 0.9757 0.9789 0.9805 0.9821 0.9838
905.000000 0.9854 0.9863 0.9871 0.9878 0.9886
900.000000 0.9891 0.9895 0.9899 0.9902 0.9906
895.000000 0.9909 0.9913 0.9875 0.9909 0.9906
890.000000 0.9902 0.9895 0.9888 0.9880 0.9870
885.000000 0.9855 0.9841 0.9825 0.9810 0.9792
880.000000 0.9774 0.9756 0.9738 0.9720 0.9702
875.000000 0.9684 0.9670 0.9660 0.9650 0.9640
870.000000 0.9628 0.9616 0.9603 0.9589 0.9565
865.000000 0.9539 0.9513 0.9492 0.9474 0.9456
860.000000 0.9438 0.9425 0.9418 0.9418 0.9418
855.000000 0.9425 0.9433 0.9440 0.9447 0.9445
850.000000 0.9443 0.9428 0.9413 0.9366 0.9224
845.000000 0.9011 0.8834 0.7968 0.6601 0.4197
840.000000 0.4212 0.4579 0.5403 0.6228 0.7051
835.000000 0.7876 0.8313 0.8430 0.8490 0.8507
830.000000 0.8521 0.8510 0.8471 0.8321 0.8196
825.000000 0.7211 0.6177 0.5142 0.4106 0.3071
820.000000 0.2035 0.0499 0.0520 0.0519 0.0575
815.000000 0.1207 0.1910 0.2612 0.3314 0.4016
810.000000 0.4720 0.5422 0.6125 0.6826 0.7530
805.000000 0.7986 0.8425 0.8556 0.8575 0.8587
800.000000 0.8606 0.8691 0.8796 0.8937 0.9158
795.000000 0.9238 0.9306 0.9368 0.9423 0.9477
790.000000 0.9520 0.9563 0.9607 0.9644 0.9675
785.000000 0.9705 0.9730 0.9738 0.9746 0.9754
780.000000 0.9762 0.9767 0.9770 0.9774 0.9778
775.000000 0.9782 0.9786 0.9789 0.9791 0.9794
770.000000 0.9797 0.9799 0.9778 0.9804 0.9805
765.000000 0.9806 0.9807 0.9808 0.9809 0.9810
760.000000 0.9811 0.9811 0.9811 0.9811 0.9808
755.000000 0.9805 0.9803 0.9800 0.9795 0.9785
750.000000 0.9767 0.9573 0.8974 0.8924 0.8924
745.000000 0.8937 0.8971 0.9060 0.9155 0.9253
740.000000 0.9353 0.9442 0.9523 0.9581 0.9651
735.000000 0.9690 0.9714 0.9732 0.9740 0.9747
730.000000 0.9755 0.9761 0.9758 0.9770 0.9770
725.000000 0.9770 0.9767 0.9761 0.9753 0.9745
720.000000 0.9730 0.9705 0.9678 0.9610 0.9246
715.000000 0.8596 0.7946 0.7295 0.6645 0.5994
710.000000 0.5492 0.5922 0.6426 0.6933 0.7439
705.000000 0.7945 0.8450 0.8625 0.8732 0.8842
700.000000 0.8953 0.9068 0.9187 0.9277 0.9366
695.000000 0.9464 0.9536 0.9588 0.9636 0.9667
690.000000 0.9698 0.9725 0.9744 0.9759 0.9774
685.000000 0.9778 0.9784 0.9785 0.9785 0.9785
680.000000 0.9785 0.9785 0.9792 0.9818 0.9843
675.000000 0.9867 0.9891 0.9916 0.9913 0.9904
670.000000 0.9890 0.9868 0.9849 0.9835 0.9828
665.000000 0.9825 0.9824 0.9824 0.9824 0.9828
660.000000 0.9834 0.9840 0.9847 0.9854 0.9860
655.000000 0.9862 0.9864 0.9843 0.9813 0.9778
650.000000 0.9739 0.9691 0.9667 0.9671 0.9682
645.000000 0.9693 0.9704 0.9715 0.9725 0.9736
640.000000 0.9747 0.9758 0.9768 0.9780 0.9791
635.000000 0.9801 0.9810 0.9816 0.9821 0.9825
630.000000 0.9832 0.9833 0.9833 0.9834 0.9834
625.000000 0.9835 0.9835 0.9835 0.9834 0.9831
620.000000 0.9828 0.9825 0.9823 0.9821 0.9818
615.000000 0.9814 0.9809 0.9805 0.9800 0.9794
610.000000 0.9783 0.9773 0.9763 0.9751 0.9739
605.000000 0.9727 0.9714 0.9702 0.9690 0.9677
600.000000 0.9660 0.9641 0.9621 0.9602 0.9582
595.000000 0.9562 0.9543 0.9523 0.9504 0.9477
590.000000 0.9447 0.9418 0.9384 0.9341 0.9298
585.000000 0.9255 0.9203 0.9123 0.9037 0.8927
580.000000 0.8811 0.8694 0.8483 0.8343 0.8211
575.000000 0.8086 0.7958 0.7792 0.6432 0.4840
570.000000 0.3248 0.1656 0.0836 0.0839 0.0863
565.000000 0.1614 0.2519 0.3424 0.4329 0.5234
560.000000 0.6139 0.6595 0.6832 0.7231 0.7476
555.000000 0.7642 0.7794 0.7915 0.8076 0.8293
550.000000 0.8407 0.8514 0.8598 0.8681 0.8764
545.000000 0.8844 0.8918 0.8991 0.9054 0.9082
540.000000 0.9104 0.9120 0.9117 0.9128 0.9113
535.000000 0.9057 0.8952 0.8828 0.8699 0.8525
530.000000 0.8275 0.8266 0.8235 0.8301 0.8368
525.000000 0.8447 0.8525 0.8607 0.8687 0.8763
520.000000 0.8832 0.8901 0.8968 0.9034 0.9098
515.000000 0.9162 0.9202 0.9238 0.9274 0.9300
510.000000 0.9321 0.9342 0.9363 0.9384 0.9405
505.000000 0.9421 0.9435 0.9449 0.9464 0.9478
500.000000 0.9492 0.9507 0.9521 0.9535 0.9549
495.000000 0.9563 0.9577 0.9591 0.9605 0.9618
490.000000 0.9633 0.9647 0.9661 0.9675 0.9689
485.000000 0.9697 0.9705 0.9714 0.9721 0.9730
480.000000 0.9739 0.9745 0.9751 0.9757 0.9763
475.000000 0.9736 0.9775 0.9780 0.9784 0.9789
470.000000 0.9793 0.9797 0.9802 0.9806 0.9809
465.000000 0.9809 0.9806
##END=
