##TITLE=Cyclopropanecarbonyl chloride
##JCAMP-DX=4.24
##DATA TYPE=INFRARED SPECTRUM
##CLASS=COBLENTZ III
##ORIGIN=DOW CHEMICAL COMPANY
##OWNER=Copyright (C) 1987 by the Coblentz Society
Collection (C) 2018 copyright by the U.S. Secretary of Commerce
on behalf of the United States of America. All rights reserved.
##DATE=1964/04/16
##CAS REGISTRY NO=4023-34-1
##MOLFORM=C4 H5 Cl O
##SOURCE REFERENCE=COBLENTZ NO. 8058
##$NIST SOURCE=COBLENTZ
##$NIST IMAGE=cob8058
##SPECTROMETER/DATA SYSTEM=DOW KBr FOREPRISM-GRATING
##INSTRUMENT PARAMETERS=BLAZED AT 3.5, 12.0, 20.0 MICRON AND CHANGED AT 5.0, 7.5, 14.9 MICRON
##STATE=SOLUTION (10% CCl4 FOR 3800-1340, 10% CS2 FOR 1340-450 CM^-^1)
##PATH LENGTH=0.011 CM, 0.011 CM
$$SPECTRAL CONTAMINATION DUE TO CCl4 AROUND 1550 CM^-^1
##SAMPLING PROCEDURE=TRANSMISSION
##RESOLUTION=2
##DATA PROCESSING=DIGITIZED BY COBLENTZ SOCIETY (BATCH II) FROM HARD COPY
##XUNITS=1/CM
##YUNITS=TRANSMITTANCE
##XFACTOR=1.0
##YFACTOR=1
##FIRSTX=451
##LASTX=3792
##FIRSTY=0.781
##MAXX=3792
##MINX=451
##MAXY=0.9067
##MINY=0.001
##NPOINTS=3342
##XYDATA=(X++(Y..Y))
451.000000 0.7810 0.7834 0.7851 0.7854 0.7857
456.000000 0.7854 0.7850 0.7845 0.7869 0.7834
461.000000 0.7828 0.7822 0.7814 0.7805 0.7796
466.000000 0.7779 0.7758 0.7736 0.7699 0.7655
471.000000 0.7602 0.7547 0.7492 0.7265 0.6999
476.000000 0.6732 0.6466 0.6200 0.5933 0.5882
481.000000 0.5879 0.6412 0.7994 0.8212 0.8308
486.000000 0.8370 0.8445 0.8517 0.8583 0.8617
491.000000 0.8641 0.8666 0.8675 0.8683 0.8691
496.000000 0.8699 0.8706 0.8707 0.8708 0.8709
501.000000 0.8695 0.8705 0.8699 0.8694 0.8689
506.000000 0.8683 0.8673 0.8663 0.8652 0.8637
511.000000 0.8623 0.8608 0.8584 0.8558 0.8532
516.000000 0.8505 0.8472 0.8439 0.8383 0.8313
521.000000 0.8239 0.8163 0.8088 0.7974 0.7857
526.000000 0.7736 0.7611 0.7491 0.7379 0.7267
531.000000 0.7053 0.6450 0.6256 0.5849 0.5418
536.000000 0.5131 0.4893 0.4358 0.3717 0.3076
541.000000 0.2436 0.1795 0.1218 0.1238 0.1244
546.000000 0.1483 0.1965 0.2447 0.2929 0.3411
551.000000 0.3893 0.4375 0.4857 0.5339 0.6423
556.000000 0.6765 0.6900 0.7076 0.7372 0.7574
561.000000 0.7767 0.7924 0.8080 0.8228 0.8361
566.000000 0.8458 0.8542 0.8591 0.8640 0.8688
571.000000 0.8729 0.8760 0.8791 0.8817 0.8833
576.000000 0.8848 0.8864 0.8880 0.8890 0.8899
581.000000 0.8909 0.8918 0.8927 0.8931 0.8931
586.000000 0.8931 0.8931 0.8931 0.8931 0.8953
591.000000 0.8929 0.8927 0.8926 0.8925 0.8914
596.000000 0.8903 0.8893 0.8882 0.8869 0.8847
601.000000 0.8825 0.8803 0.8776 0.8747 0.8717
606.000000 0.8688 0.8665 0.8643 0.8636 0.8647
611.000000 0.8661 0.8703 0.8747 0.8785 0.8796
616.000000 0.8796 0.8792 0.8788 0.8783 0.8788
621.000000 0.8774 0.8766 0.8757 0.8750 0.8743
626.000000 0.8736 0.8729 0.8719 0.8710 0.8700
631.000000 0.8691 0.8681 0.8665 0.8647 0.8630
636.000000 0.8612 0.8584 0.8557 0.8530 0.8502
641.000000 0.8462 0.8418 0.8373 0.8329 0.8274
646.000000 0.8218 0.8162 0.8103 0.8027 0.7951
651.000000 0.7862 0.7752 0.7610 0.7454 0.7243
656.000000 0.7154 0.7066 0.6847 0.6542 0.6260
661.000000 0.6260 0.6308 0.6371 0.6434 0.6470
666.000000 0.6339 0.5978 0.5618 0.5175 0.5180
671.000000 0.5643 0.6297 0.6326 0.6320 0.6306
676.000000 0.6285 0.6225 0.6145 0.5946 0.5619
681.000000 0.4549 0.4378 0.4204 0.3641 0.3078
686.000000 0.2515 0.1952 0.1389 0.0826 0.0454
691.000000 0.0274 0.0146 0.0125 0.0149 0.0195
696.000000 0.0307 0.0486 0.0685 0.1386 0.2856
701.000000 0.4886 0.5200 0.5393 0.5592 0.5769
706.000000 0.5907 0.6048 0.6195 0.6605 0.6890
711.000000 0.7263 0.7570 0.7780 0.7896 0.7993
716.000000 0.8040 0.8086 0.8132 0.8177 0.8207
721.000000 0.8238 0.8269 0.8298 0.8327 0.8356
726.000000 0.8386 0.8412 0.8435 0.8459 0.8480
731.000000 0.8502 0.8514 0.8524 0.8533 0.8542
736.000000 0.8548 0.8554 0.8539 0.8550 0.8548
741.000000 0.8541 0.8531 0.8521 0.8505 0.8487
746.000000 0.8468 0.8450 0.8430 0.8410 0.8390
751.000000 0.8365 0.8340 0.8315 0.8286 0.8256
756.000000 0.8226 0.8195 0.8159 0.8123 0.8086
761.000000 0.8021 0.7949 0.7880 0.7811 0.7742
766.000000 0.7658 0.7541 0.7353 0.7124 0.6806
771.000000 0.6488 0.6171 0.6145 0.6147 0.6322
776.000000 0.6476 0.6631 0.6785 0.6940 0.7094
781.000000 0.7109 0.7125 0.7034 0.6818 0.6603
786.000000 0.6306 0.5986 0.5764 0.5519 0.4979
791.000000 0.4439 0.3856 0.3938 0.4338 0.4739
796.000000 0.5139 0.5539 0.5939 0.6339 0.6739
801.000000 0.6894 0.6898 0.6906 0.6882 0.6859
806.000000 0.6824 0.6770 0.6688 0.6538 0.6289
811.000000 0.6041 0.5793 0.5545 0.5412 0.5387
816.000000 0.5372 0.5366 0.5521 0.5973 0.6424
821.000000 0.6876 0.7063 0.7140 0.7210 0.7272
826.000000 0.7307 0.7319 0.7331 0.7320 0.7309
831.000000 0.7295 0.7263 0.7167 0.7065 0.6971
836.000000 0.6859 0.6682 0.6524 0.6399 0.6273
841.000000 0.5910 0.5511 0.5112 0.4713 0.4314
846.000000 0.3916 0.3667 0.3645 0.3806 0.4056
851.000000 0.4306 0.4488 0.4481 0.4486 0.4432
856.000000 0.4316 0.4065 0.3638 0.3186 0.2733
861.000000 0.2281 0.1828 0.0825 0.0628 0.0531
866.000000 0.0435 0.0357 0.0349 0.0343 0.0520
871.000000 0.0879 0.1237 0.1595 0.1953 0.2312
876.000000 0.2670 0.3028 0.3386 0.3745 0.4103
881.000000 0.4461 0.4820 0.5206 0.5523 0.5633
886.000000 0.5773 0.5913 0.6083 0.6327 0.6488
891.000000 0.6604 0.6706 0.6749 0.6785 0.6798
896.000000 0.6810 0.6817 0.6812 0.6808 0.6795
901.000000 0.6777 0.6747 0.6712 0.6670 0.6624
906.000000 0.6577 0.6524 0.6459 0.6396 0.6334
911.000000 0.6272 0.6207 0.6140 0.6074 0.5998
916.000000 0.5911 0.5823 0.5694 0.5541 0.5312
921.000000 0.5104 0.4990 0.4876 0.4762 0.4645
926.000000 0.4537 0.4449 0.4361 0.4166 0.3943
931.000000 0.3720 0.3498 0.3275 0.3053 0.2830
936.000000 0.2607 0.2278 0.2157 0.2029 0.1800
941.000000 0.1488 0.1210 0.1065 0.0991 0.0931
946.000000 0.0872 0.0812 0.0751 0.0669 0.0540
951.000000 0.0401 0.0308 0.0235 0.0170 0.0092
956.000000 0.0073 0.0065 0.0058 0.0054 0.0061
961.000000 0.0059 0.0062 0.0067 0.0076 0.0085
966.000000 0.0099 0.0120 0.0223 0.0480 0.0840
971.000000 0.1199 0.1559 0.1918 0.2277 0.2637
976.000000 0.2870 0.3231 0.3435 0.3781 0.4459
981.000000 0.4860 0.5085 0.5230 0.5391 0.5588
986.000000 0.6049 0.6438 0.6677 0.6775 0.6873
991.000000 0.6971 0.7039 0.7106 0.7173 0.7249
996.000000 0.7337 0.7421 0.7476 0.7530 0.7568
1001.000000 0.7593 0.7617 0.7633 0.7637 0.7639
1006.000000 0.7617 0.7634 0.7625 0.7612 0.7599
1011.000000 0.7579 0.7559 0.7532 0.7500 0.7444
1016.000000 0.7375 0.7299 0.7211 0.7115 0.7034
1021.000000 0.6945 0.6787 0.6581 0.6439 0.6318
1026.000000 0.6185 0.6041 0.5821 0.5562 0.5331
1031.000000 0.4276 0.4044 0.3580 0.3028 0.2475
1036.000000 0.1923 0.1371 0.0818 0.0266 0.0257
1041.000000 0.0290 0.0829 0.1454 0.2079 0.2703
1046.000000 0.3328 0.3953 0.4578 0.5202 0.6132
1051.000000 0.6214 0.6286 0.6349 0.6356 0.6367
1056.000000 0.6361 0.6313 0.6170 0.5810 0.5093
1061.000000 0.4376 0.3660 0.3266 0.3259 0.3297
1066.000000 0.3864 0.4404 0.4945 0.5485 0.6026
1071.000000 0.6393 0.6617 0.6826 0.7021 0.7147
1076.000000 0.7266 0.7366 0.7410 0.7430 0.7419
1081.000000 0.7415 0.7386 0.7328 0.7155 0.6822
1086.000000 0.6489 0.6302 0.6295 0.6323 0.6407
1091.000000 0.6676 0.6945 0.7214 0.7463 0.7514
1096.000000 0.7505 0.7515 0.7500 0.7343 0.7007
1101.000000 0.6671 0.6335 0.5999 0.5663 0.5327
1106.000000 0.4991 0.4654 0.4318 0.4120 0.4142
1111.000000 0.4323 0.4924 0.5526 0.6127 0.6728
1116.000000 0.7103 0.7229 0.7319 0.7373 0.7372
1121.000000 0.7403 0.7397 0.7389 0.7369 0.7347
1126.000000 0.7325 0.7302 0.7283 0.7289 0.7305
1131.000000 0.7345 0.7355 0.7355 0.7350 0.7342
1136.000000 0.7321 0.7297 0.7255 0.7180 0.7089
1141.000000 0.6978 0.6840 0.6692 0.6512 0.6345
1146.000000 0.6205 0.6061 0.5909 0.5728 0.5213
1151.000000 0.4586 0.3960 0.3334 0.2707 0.2081
1156.000000 0.1455 0.0828 0.0662 0.0672 0.0667
1161.000000 0.2280 0.4146 0.5040 0.5184 0.5396
1166.000000 0.5629 0.5805 0.6009 0.6363 0.6450
1171.000000 0.6471 0.6486 0.6471 0.6449 0.6375
1176.000000 0.6268 0.6141 0.6059 0.6009 0.6013
1181.000000 0.5991 0.6047 0.6076 0.6121 0.6171
1186.000000 0.6220 0.6254 0.6271 0.6252 0.6272
1191.000000 0.6256 0.6170 0.5739 0.5234 0.4730
1196.000000 0.4225 0.3721 0.3216 0.3105 0.3087
1201.000000 0.4467 0.5596 0.6527 0.7345 0.7832
1206.000000 0.8007 0.8141 0.8257 0.8338 0.8413
1211.000000 0.8478 0.8523 0.8568 0.8613 0.8653
1216.000000 0.8692 0.8731 0.8763 0.8790 0.8817
1221.000000 0.8836 0.8853 0.8869 0.8885 0.8901
1226.000000 0.8914 0.8926 0.8937 0.8940 0.8941
1231.000000 0.8942 0.8943 0.8938 0.8932 0.8927
1236.000000 0.8921 0.8921 0.8924 0.8956 0.8992
1241.000000 0.9016 0.9027 0.9032 0.9037 0.9041
1246.000000 0.9046 0.9048 0.9049 0.9050 0.9051
1251.000000 0.9051 0.9052 0.9053 0.9054 0.9040
1256.000000 0.9057 0.9059 0.9061 0.9063 0.9065
1261.000000 0.9067 0.9066 0.9065 0.9064 0.9063
1266.000000 0.9062 0.9061 0.9060 0.9052 0.9045
1271.000000 0.9037 0.9030 0.9022 0.9014 0.9004
1276.000000 0.8989 0.8974 0.8960 0.8941 0.8922
1281.000000 0.8902 0.8883 0.8868 0.8862 0.8859
1286.000000 0.8858 0.8857 0.8858 0.8861 0.8863
1291.000000 0.8866 0.8869 0.8872 0.8875 0.8879
1296.000000 0.8873 0.8864 0.8855 0.8846 0.8836
1301.000000 0.8826 0.8815 0.8805 0.8794 0.8781
1306.000000 0.8768 0.8755 0.8742 0.8728 0.8708
1311.000000 0.8688 0.8669 0.8649 0.8622 0.8593
1316.000000 0.8564 0.8535 0.8506 0.8477 0.8449
1321.000000 0.8422 0.8396 0.8369 0.8343 0.8315
1326.000000 0.8282 0.8250 0.8218 0.8185 0.8137
1331.000000 0.8088 0.8032 0.7957 0.7880 0.7784
1336.000000 0.7689 0.7580 0.7469 0.7290 0.6111
1341.000000 0.5102 0.5029 0.5003 0.5002 0.5034
1346.000000 0.5065 0.5090 0.5101 0.5095 0.4951
1351.000000 0.4525 0.4099 0.3673 0.3248 0.2822
1356.000000 0.2396 0.1970 0.1544 0.1119 0.0693
1361.000000 0.0267 0.0128 0.0210 0.0934 0.1658
1366.000000 0.6191 0.6426 0.6636 0.6797 0.6954
1371.000000 0.7129 0.7268 0.7365 0.7462 0.7568
1376.000000 0.7685 0.7763 0.7826 0.7884 0.7914
1381.000000 0.7945 0.7975 0.8000 0.8021 0.8042
1386.000000 0.8062 0.8077 0.8086 0.8096 0.8106
1391.000000 0.8115 0.8119 0.8120 0.8121 0.8122
1396.000000 0.8123 0.8145 0.8118 0.8116 0.8113
1401.000000 0.8108 0.8100 0.8092 0.8082 0.8070
1406.000000 0.8058 0.8046 0.8033 0.8014 0.7995
1411.000000 0.7969 0.7943 0.7916 0.7877 0.7838
1416.000000 0.7795 0.7731 0.7651 0.7564 0.7474
1421.000000 0.7296 0.6699 0.6145 0.5590 0.5035
1426.000000 0.4480 0.3925 0.3767 0.4316 0.5763
1431.000000 0.7030 0.7210 0.7325 0.7420 0.7435
1436.000000 0.7441 0.7441 0.7434 0.7427 0.7411
1441.000000 0.7359 0.7298 0.7208 0.7059 0.6812
1446.000000 0.6538 0.6246 0.5954 0.5661 0.5300
1451.000000 0.5290 0.5380 0.5981 0.6583 0.6956
1456.000000 0.7123 0.7272 0.7375 0.7509 0.7634
1461.000000 0.7718 0.7797 0.7867 0.7938 0.7993
1466.000000 0.8045 0.8076 0.8101 0.8118 0.8123
1471.000000 0.8112 0.8122 0.8117 0.8111 0.8100
1476.000000 0.8084 0.8066 0.8049 0.8024 0.7996
1481.000000 0.7967 0.7938 0.7909 0.7879 0.7846
1486.000000 0.7812 0.7772 0.7713 0.7657 0.7627
1491.000000 0.7596 0.7566 0.7545 0.7529 0.7514
1496.000000 0.7493 0.7471 0.7449 0.7427 0.7397
1501.000000 0.7365 0.7334 0.7303 0.7270 0.7236
1506.000000 0.7202 0.7168 0.7126 0.7083 0.7041
1511.000000 0.6998 0.6955 0.6905 0.6856 0.6806
1516.000000 0.6756 0.6706 0.6659 0.6614 0.6569
1521.000000 0.6525 0.6480 0.6435 0.6390 0.6345
1526.000000 0.6300 0.6254 0.6209 0.6158 0.6104
1531.000000 0.6050 0.5998 0.5946 0.5863 0.5770
1536.000000 0.5665 0.5555 0.5439 0.5345 0.5258
1541.000000 0.5166 0.5058 0.4956 0.4857 0.4761
1546.000000 0.4692 0.4631 0.4582 0.4556 0.4540
1551.000000 0.4542 0.4546 0.4552 0.4584 0.4627
1556.000000 0.4672 0.4720 0.4777 0.4878 0.5025
1561.000000 0.5107 0.5183 0.5262 0.5341 0.5420
1566.000000 0.5499 0.5578 0.5657 0.5736 0.5815
1571.000000 0.5894 0.5945 0.5981 0.6008 0.6033
1576.000000 0.6043 0.6054 0.6065 0.6077 0.6090
1581.000000 0.6103 0.6127 0.6161 0.6195 0.6232
1586.000000 0.6284 0.6337 0.6403 0.6540 0.6658
1591.000000 0.6747 0.6834 0.6894 0.6954 0.7014
1596.000000 0.7089 0.7163 0.7238 0.7322 0.7411
1601.000000 0.7504 0.7603 0.7677 0.7718 0.7759
1606.000000 0.7800 0.7841 0.7882 0.7924 0.7962
1611.000000 0.7987 0.8012 0.8036 0.8052 0.8067
1616.000000 0.8079 0.8087 0.8095 0.8099 0.8109
1621.000000 0.8104 0.8106 0.8103 0.8099 0.8091
1626.000000 0.8067 0.8043 0.8006 0.7973 0.7944
1631.000000 0.7928 0.7923 0.7924 0.7938 0.7960
1636.000000 0.8001 0.8043 0.8080 0.8108 0.8135
1641.000000 0.8158 0.8176 0.8190 0.8192 0.8195
1646.000000 0.8198 0.8201 0.8204 0.8208 0.8229
1651.000000 0.8252 0.8270 0.8258 0.8246 0.8235
1656.000000 0.8224 0.8217 0.8218 0.8220 0.8224
1661.000000 0.8227 0.8230 0.8235 0.8236 0.8239
1666.000000 0.8243 0.8241 0.8240 0.8234 0.8222
1671.000000 0.8210 0.8192 0.8173 0.8153 0.8134
1676.000000 0.8113 0.8091 0.8070 0.8049 0.8027
1681.000000 0.8004 0.7982 0.7959 0.7934 0.7908
1686.000000 0.7882 0.7857 0.7828 0.7793 0.7758
1691.000000 0.7723 0.7689 0.7654 0.7620 0.7586
1696.000000 0.7555 0.7531 0.7529 0.7528 0.7536
1701.000000 0.7550 0.7569 0.7597 0.7614 0.7622
1706.000000 0.7615 0.7609 0.7599 0.7588 0.7573
1711.000000 0.7558 0.7532 0.7506 0.7474 0.7440
1716.000000 0.7404 0.7355 0.7306 0.7243 0.7179
1721.000000 0.7099 0.7019 0.6929 0.6840 0.6751
1726.000000 0.6634 0.6493 0.6350 0.6208 0.6093
1731.000000 0.5984 0.5798 0.5576 0.5353 0.5130
1736.000000 0.4906 0.4683 0.4500 0.4299 0.4227
1741.000000 0.4156 0.4084 0.3991 0.3877 0.3763
1746.000000 0.3648 0.3534 0.3425 0.3234 0.3093
1751.000000 0.2937 0.2736 0.2593 0.2465 0.2337
1756.000000 0.2215 0.2092 0.1972 0.1853 0.1628
1761.000000 0.1257 0.0966 0.0809 0.0653 0.0515
1766.000000 0.0372 0.0251 0.0169 0.0101 0.0060
1771.000000 0.0048 0.0041 0.0034 0.0027 0.0021
1776.000000 0.0028 0.0010 0.0044 0.0046 0.0047
1781.000000 0.0047 0.0047 0.0047 0.0048 0.0051
1786.000000 0.0070 0.0113 0.0178 0.0258 0.0336
1791.000000 0.0431 0.0533 0.0659 0.0782 0.0894
1796.000000 0.1109 0.1244 0.1402 0.1551 0.1640
1801.000000 0.1717 0.1777 0.1803 0.1792 0.1793
1806.000000 0.1775 0.1752 0.1718 0.1669 0.1605
1811.000000 0.1538 0.1482 0.1419 0.1404 0.1401
1816.000000 0.1407 0.1408 0.1459 0.1532 0.1787
1821.000000 0.2259 0.2512 0.2765 0.3017 0.3270
1826.000000 0.3523 0.3776 0.4028 0.4586 0.4693
1831.000000 0.4800 0.4910 0.5021 0.5132 0.5244
1836.000000 0.5359 0.5477 0.5596 0.5720 0.5846
1841.000000 0.5979 0.6113 0.6229 0.6336 0.6421
1846.000000 0.6495 0.6570 0.6645 0.6723 0.6801
1851.000000 0.6881 0.6962 0.7044 0.7106 0.7164
1856.000000 0.7221 0.7273 0.7318 0.7363 0.7406
1861.000000 0.7430 0.7454 0.7478 0.7503 0.7521
1866.000000 0.7537 0.7550 0.7557 0.7558 0.7557
1871.000000 0.7555 0.7551 0.7547 0.7544 0.7543
1876.000000 0.7542 0.7544 0.7549 0.7555 0.7564
1881.000000 0.7575 0.7587 0.7603 0.7621 0.7628
1886.000000 0.7635 0.7641 0.7644 0.7639 0.7633
1891.000000 0.7627 0.7620 0.7613 0.7605 0.7598
1896.000000 0.7592 0.7586 0.7579 0.7576 0.7575
1901.000000 0.7574 0.7575 0.7583 0.7591 0.7599
1906.000000 0.7607 0.7615 0.7624 0.7634 0.7644
1911.000000 0.7653 0.7657 0.7653 0.7644 0.7631
1916.000000 0.7613 0.7596 0.7579 0.7565 0.7551
1921.000000 0.7538 0.7535 0.7532 0.7528 0.7532
1926.000000 0.7521 0.7540 0.7557 0.7574 0.7598
1931.000000 0.7625 0.7652 0.7688 0.7723 0.7758
1936.000000 0.7801 0.7843 0.7886 0.7941 0.8004
1941.000000 0.8057 0.8102 0.8148 0.8176 0.8196
1946.000000 0.8217 0.8236 0.8251 0.8266 0.8281
1951.000000 0.8291 0.8297 0.8303 0.8309 0.8316
1956.000000 0.8322 0.8350 0.8333 0.8338 0.8343
1961.000000 0.8348 0.8353 0.8356 0.8359 0.8362
1966.000000 0.8365 0.8368 0.8371 0.8373 0.8375
1971.000000 0.8376 0.8377 0.8378 0.8379 0.8380
1976.000000 0.8381 0.8380 0.8380 0.8380 0.8379
1981.000000 0.8379 0.8378 0.8377 0.8376 0.8375
1986.000000 0.8373 0.8372 0.8375 0.8381 0.8381
1991.000000 0.8379 0.8355 0.8292 0.8175 0.8058
1996.000000 0.8009 0.8013 0.8148 0.8242 0.8280
2001.000000 0.8278 0.8277 0.8276 0.8276 0.8275
2006.000000 0.8275 0.8277 0.8280 0.8287 0.8295
2011.000000 0.8307 0.8319 0.8332 0.8346 0.8362
2016.000000 0.8379 0.8392 0.8405 0.8416 0.8428
2021.000000 0.8441 0.8455 0.8469 0.8483 0.8490
2026.000000 0.8498 0.8501 0.8504 0.8507 0.8510
2031.000000 0.8509 0.8536 0.8508 0.8507 0.8506
2036.000000 0.8505 0.8503 0.8501 0.8499 0.8497
2041.000000 0.8494 0.8491 0.8488 0.8485 0.8481
2046.000000 0.8478 0.8474 0.8471 0.8467 0.8463
2051.000000 0.8458 0.8454 0.8451 0.8449 0.8447
2056.000000 0.8445 0.8453 0.8461 0.8469 0.8478
2061.000000 0.8481 0.8484 0.8476 0.8468 0.8455
2066.000000 0.8443 0.8427 0.8412 0.8392 0.8372
2071.000000 0.8367 0.8362 0.8363 0.8365 0.8371
2076.000000 0.8378 0.8386 0.8395 0.8405 0.8416
2081.000000 0.8425 0.8434 0.8438 0.8442 0.8440
2086.000000 0.8439 0.8437 0.8436 0.8434 0.8432
2091.000000 0.8428 0.8425 0.8417 0.8409 0.8378
2096.000000 0.8348 0.8297 0.8247 0.8192 0.8138
2101.000000 0.8101 0.8065 0.8062 0.8059 0.8059
2106.000000 0.8059 0.8061 0.8048 0.8072 0.8081
2111.000000 0.8102 0.8123 0.8148 0.8173 0.8194
2116.000000 0.8216 0.8239 0.8262 0.8284 0.8307
2121.000000 0.8326 0.8345 0.8362 0.8380 0.8385
2126.000000 0.8391 0.8396 0.8402 0.8404 0.8406
2131.000000 0.8406 0.8407 0.8408 0.8409 0.8412
2136.000000 0.8416 0.8428 0.8440 0.8460 0.8480
2141.000000 0.8492 0.8505 0.8512 0.8519 0.8519
2146.000000 0.8520 0.8520 0.8520 0.8519 0.8518
2151.000000 0.8516 0.8515 0.8513 0.8512 0.8510
2156.000000 0.8509 0.8517 0.8526 0.8536 0.8547
2161.000000 0.8558 0.8569 0.8579 0.8590 0.8591
2166.000000 0.8627 0.8591 0.8590 0.8589 0.8589
2171.000000 0.8589 0.8589 0.8588 0.8588 0.8587
2176.000000 0.8587 0.8584 0.8582 0.8580 0.8578
2181.000000 0.8575 0.8573 0.8570 0.8568 0.8564
2186.000000 0.8561 0.8556 0.8551 0.8546 0.8541
2191.000000 0.8536 0.8531 0.8528 0.8526 0.8524
2196.000000 0.8522 0.8520 0.8519 0.8517 0.8515
2201.000000 0.8513 0.8511 0.8509 0.8508 0.8509
2206.000000 0.8511 0.8512 0.8513 0.8514 0.8516
2211.000000 0.8517 0.8518 0.8519 0.8520 0.8521
2216.000000 0.8523 0.8523 0.8523 0.8523 0.8523
2221.000000 0.8523 0.8523 0.8523 0.8524 0.8524
2226.000000 0.8524 0.8525 0.8527 0.8529 0.8531
2231.000000 0.8532 0.8534 0.8535 0.8537 0.8540
2236.000000 0.8543 0.8547 0.8551 0.8553 0.8555
2241.000000 0.8558 0.8561 0.8563 0.8566 0.8569
2246.000000 0.8572 0.8574 0.8577 0.8579 0.8582
2251.000000 0.8582 0.8582 0.8580 0.8579 0.8577
2256.000000 0.8576 0.8573 0.8571 0.8568 0.8566
2261.000000 0.8564 0.8562 0.8557 0.8552 0.8544
2266.000000 0.8536 0.8528 0.8520 0.8512 0.8504
2271.000000 0.8495 0.8486 0.8477 0.8468 0.8459
2276.000000 0.8450 0.8441 0.8432 0.8423 0.8415
2281.000000 0.8407 0.8400 0.8392 0.8385 0.8378
2286.000000 0.8371 0.8366 0.8361 0.8357 0.8354
2291.000000 0.8350 0.8347 0.8343 0.8340 0.8338
2296.000000 0.8337 0.8337 0.8337 0.8337 0.8338
2301.000000 0.8338 0.8339 0.8339 0.8340 0.8340
2306.000000 0.8340 0.8333 0.8327 0.8313 0.8300
2311.000000 0.8285 0.8271 0.8257 0.8244 0.8239
2316.000000 0.8234 0.8232 0.8231 0.8231 0.8242
2321.000000 0.8233 0.8235 0.8241 0.8247 0.8270
2326.000000 0.8293 0.8318 0.8344 0.8375 0.8407
2331.000000 0.8439 0.8472 0.8501 0.8530 0.8557
2336.000000 0.8584 0.8603 0.8623 0.8638 0.8654
2341.000000 0.8663 0.8673 0.8676 0.8679 0.8680
2346.000000 0.8681 0.8682 0.8684 0.8685 0.8686
2351.000000 0.8686 0.8687 0.8688 0.8689 0.8690
2356.000000 0.8691 0.8691 0.8692 0.8692 0.8693
2361.000000 0.8693 0.8694 0.8694 0.8694 0.8694
2366.000000 0.8695 0.8695 0.8696 0.8696 0.8697
2371.000000 0.8697 0.8698 0.8698 0.8698 0.8698
2376.000000 0.8699 0.8699 0.8700 0.8700 0.8701
2381.000000 0.8701 0.8702 0.8703 0.8704 0.8704
2386.000000 0.8705 0.8705 0.8706 0.8707 0.8708
2391.000000 0.8709 0.8711 0.8713 0.8715 0.8717
2396.000000 0.8720 0.8722 0.8725 0.8727 0.8730
2401.000000 0.8732 0.8734 0.8738 0.8743 0.8747
2406.000000 0.8751 0.8755 0.8759 0.8763 0.8767
2411.000000 0.8771 0.8775 0.8778 0.8782 0.8785
2416.000000 0.8788 0.8791 0.8795 0.8796 0.8797
2421.000000 0.8796 0.8796 0.8795 0.8795 0.8794
2426.000000 0.8794 0.8790 0.8787 0.8783 0.8780
2431.000000 0.8776 0.8773 0.8769 0.8765 0.8761
2436.000000 0.8758 0.8754 0.8751 0.8746 0.8742
2441.000000 0.8737 0.8733 0.8728 0.8724 0.8718
2446.000000 0.8713 0.8707 0.8701 0.8695 0.8689
2451.000000 0.8683 0.8678 0.8672 0.8666 0.8660
2456.000000 0.8654 0.8648 0.8643 0.8637 0.8631
2461.000000 0.8625 0.8619 0.8613 0.8607 0.8601
2466.000000 0.8596 0.8598 0.8600 0.8611 0.8623
2471.000000 0.8632 0.8641 0.8645 0.8649 0.8653
2476.000000 0.8657 0.8652 0.8647 0.8640 0.8634
2481.000000 0.8616 0.8599 0.8584 0.8569 0.8567
2486.000000 0.8566 0.8564 0.8563 0.8565 0.8568
2491.000000 0.8570 0.8573 0.8577 0.8582 0.8588
2496.000000 0.8594 0.8599 0.8604 0.8609 0.8615
2501.000000 0.8620 0.8626 0.8633 0.8641 0.8648
2506.000000 0.8656 0.8663 0.8671 0.8677 0.8683
2511.000000 0.8688 0.8694 0.8698 0.8703 0.8708
2516.000000 0.8713 0.8717 0.8722 0.8723 0.8725
2521.000000 0.8725 0.8726 0.8725 0.8724 0.8723
2526.000000 0.8723 0.8722 0.8721 0.8720 0.8720
2531.000000 0.8718 0.8717 0.8716 0.8715 0.8713
2536.000000 0.8712 0.8710 0.8709 0.8708 0.8707
2541.000000 0.8705 0.8704 0.8702 0.8701 0.8700
2546.000000 0.8699 0.8697 0.8696 0.8694 0.8693
2551.000000 0.8692 0.8691 0.8692 0.8694 0.8695
2556.000000 0.8696 0.8697 0.8698 0.8703 0.8709
2561.000000 0.8714 0.8720 0.8724 0.8728 0.8731
2566.000000 0.8734 0.8737 0.8740 0.8741 0.8742
2571.000000 0.8740 0.8739 0.8737 0.8736 0.8734
2576.000000 0.8733 0.8730 0.8728 0.8724 0.8721
2581.000000 0.8717 0.8714 0.8710 0.8707 0.8703
2586.000000 0.8700 0.8697 0.8694 0.8690 0.8687
2591.000000 0.8683 0.8680 0.8676 0.8673 0.8669
2596.000000 0.8666 0.8662 0.8659 0.8655 0.8651
2601.000000 0.8648 0.8646 0.8644 0.8642 0.8642
2606.000000 0.8643 0.8643 0.8643 0.8643 0.8644
2611.000000 0.8644 0.8645 0.8645 0.8645 0.8645
2616.000000 0.8646 0.8646 0.8646 0.8646 0.8647
2621.000000 0.8650 0.8653 0.8655 0.8658 0.8659
2626.000000 0.8660 0.8660 0.8661 0.8662 0.8663
2631.000000 0.8663 0.8664 0.8665 0.8666 0.8666
2636.000000 0.8667 0.8668 0.8669 0.8669 0.8670
2641.000000 0.8670 0.8670 0.8670 0.8671 0.8671
2646.000000 0.8672 0.8672 0.8672 0.8672 0.8673
2651.000000 0.8673 0.8673 0.8673 0.8674 0.8674
2656.000000 0.8674 0.8674 0.8675 0.8675 0.8675
2661.000000 0.8675 0.8676 0.8676 0.8676 0.8676
2666.000000 0.8677 0.8677 0.8677 0.8677 0.8678
2671.000000 0.8678 0.8678 0.8678 0.8679 0.8678
2676.000000 0.8678 0.8677 0.8676 0.8675 0.8674
2681.000000 0.8673 0.8672 0.8671 0.8670 0.8669
2686.000000 0.8668 0.8667 0.8666 0.8665 0.8664
2691.000000 0.8663 0.8662 0.8659 0.8657 0.8654
2696.000000 0.8651 0.8648 0.8645 0.8642 0.8639
2701.000000 0.8636 0.8634 0.8630 0.8627 0.8623
2706.000000 0.8619 0.8614 0.8610 0.8606 0.8602
2711.000000 0.8598 0.8594 0.8589 0.8585 0.8581
2716.000000 0.8577 0.8573 0.8569 0.8564 0.8560
2721.000000 0.8556 0.8553 0.8550 0.8547 0.8543
2726.000000 0.8540 0.8536 0.8533 0.8533 0.8533
2731.000000 0.8534 0.8535 0.8536 0.8537 0.8540
2736.000000 0.8543 0.8548 0.8554 0.8559 0.8565
2741.000000 0.8571 0.8577 0.8584 0.8591 0.8600
2746.000000 0.8609 0.8614 0.8619 0.8623 0.8627
2751.000000 0.8631 0.8635 0.8639 0.8643 0.8646
2756.000000 0.8650 0.8653 0.8656 0.8657 0.8659
2761.000000 0.8660 0.8662 0.8662 0.8663 0.8663
2766.000000 0.8664 0.8665 0.8666 0.8666 0.8667
2771.000000 0.8668 0.8669 0.8669 0.8669 0.8669
2776.000000 0.8670 0.8670 0.8670 0.8670 0.8670
2781.000000 0.8670 0.8670 0.8670 0.8670 0.8670
2786.000000 0.8670 0.8670 0.8670 0.8670 0.8670
2791.000000 0.8669 0.8668 0.8667 0.8666 0.8665
2796.000000 0.8665 0.8664 0.8663 0.8662 0.8661
2801.000000 0.8660 0.8659 0.8658 0.8658 0.8657
2806.000000 0.8657 0.8657 0.8657 0.8657 0.8658
2811.000000 0.8658 0.8659 0.8659 0.8660 0.8660
2816.000000 0.8661 0.8663 0.8666 0.8669 0.8672
2821.000000 0.8675 0.8678 0.8681 0.8684 0.8686
2826.000000 0.8689 0.8691 0.8693 0.8690 0.8687
2831.000000 0.8684 0.8681 0.8678 0.8675 0.8672
2836.000000 0.8669 0.8666 0.8663 0.8657 0.8652
2841.000000 0.8646 0.8640 0.8634 0.8629 0.8624
2846.000000 0.8619 0.8615 0.8611 0.8607 0.8604
2851.000000 0.8604 0.8604 0.8604 0.8604 0.8604
2856.000000 0.8604 0.8604 0.8604 0.8605 0.8607
2861.000000 0.8613 0.8620 0.8626 0.8633 0.8637
2866.000000 0.8641 0.8641 0.8641 0.8641 0.8641
2871.000000 0.8641 0.8641 0.8641 0.8642 0.8639
2876.000000 0.8637 0.8634 0.8632 0.8629 0.8627
2881.000000 0.8625 0.8623 0.8622 0.8622 0.8621
2886.000000 0.8621 0.8621 0.8622 0.8625 0.8628
2891.000000 0.8631 0.8635 0.8638 0.8641 0.8643
2896.000000 0.8646 0.8648 0.8650 0.8651 0.8653
2901.000000 0.8655 0.8657 0.8655 0.8653 0.8650
2906.000000 0.8647 0.8644 0.8642 0.8639 0.8636
2911.000000 0.8633 0.8631 0.8628 0.8625 0.8622
2916.000000 0.8619 0.8616 0.8613 0.8610 0.8608
2921.000000 0.8605 0.8602 0.8599 0.8596 0.8594
2926.000000 0.8592 0.8591 0.8590 0.8589 0.8589
2931.000000 0.8588 0.8587 0.8586 0.8585 0.8584
2936.000000 0.8583 0.8583 0.8584 0.8586 0.8589
2941.000000 0.8591 0.8594 0.8596 0.8599 0.8601
2946.000000 0.8604 0.8606 0.8609 0.8609 0.8610
2951.000000 0.8610 0.8611 0.8612 0.8613 0.8613
2956.000000 0.8614 0.8614 0.8615 0.8615 0.8616
2961.000000 0.8611 0.8606 0.8601 0.8597 0.8592
2966.000000 0.8587 0.8582 0.8577 0.8571 0.8566
2971.000000 0.8558 0.8550 0.8542 0.8534 0.8526
2976.000000 0.8519 0.8508 0.8498 0.8485 0.8472
2981.000000 0.8459 0.8447 0.8434 0.8421 0.8408
2986.000000 0.8395 0.8376 0.8357 0.8338 0.8319
2991.000000 0.8299 0.8280 0.8255 0.8231 0.8199
2996.000000 0.8167 0.8135 0.8104 0.8072 0.8041
3001.000000 0.8010 0.7979 0.7948 0.7917 0.7886
3006.000000 0.7856 0.7750 0.7644 0.7528 0.7412
3011.000000 0.7296 0.7181 0.7065 0.6949 0.6833
3016.000000 0.6717 0.6601 0.6486 0.6370 0.6254
3021.000000 0.6209 0.6165 0.6168 0.6171 0.6214
3026.000000 0.6198 0.6429 0.6600 0.6922 0.7244
3031.000000 0.7625 0.8007 0.8064 0.8121 0.8156
3036.000000 0.8191 0.8230 0.8269 0.8290 0.8312
3041.000000 0.8327 0.8342 0.8353 0.8365 0.8370
3046.000000 0.8375 0.8380 0.8386 0.8391 0.8396
3051.000000 0.8401 0.8406 0.8408 0.8411 0.8413
3056.000000 0.8415 0.8417 0.8420 0.8422 0.8425
3061.000000 0.8425 0.8449 0.8424 0.8423 0.8421
3066.000000 0.8420 0.8419 0.8418 0.8416 0.8415
3071.000000 0.8411 0.8407 0.8398 0.8390 0.8382
3076.000000 0.8374 0.8359 0.8344 0.8320 0.8297
3081.000000 0.8273 0.8250 0.8226 0.8202 0.8186
3086.000000 0.8171 0.8160 0.8150 0.8139 0.8128
3091.000000 0.8125 0.8123 0.8120 0.8154 0.8117
3096.000000 0.8117 0.8121 0.8125 0.8129 0.8134
3101.000000 0.8138 0.8143 0.8151 0.8160 0.8168
3106.000000 0.8177 0.8203 0.8230 0.8259 0.8288
3111.000000 0.8307 0.8327 0.8347 0.8367 0.8379
3116.000000 0.8392 0.8404 0.8417 0.8430 0.8443
3121.000000 0.8454 0.8465 0.8473 0.8481 0.8489
3126.000000 0.8497 0.8505 0.8513 0.8519 0.8526
3131.000000 0.8531 0.8536 0.8541 0.8547 0.8552
3136.000000 0.8557 0.8562 0.8567 0.8571 0.8576
3141.000000 0.8580 0.8585 0.8589 0.8593 0.8597
3146.000000 0.8601 0.8605 0.8610 0.8614 0.8618
3151.000000 0.8622 0.8627 0.8630 0.8634 0.8637
3156.000000 0.8640 0.8643 0.8646 0.8649 0.8652
3161.000000 0.8655 0.8658 0.8661 0.8664 0.8667
3166.000000 0.8670 0.8673 0.8676 0.8679 0.8682
3171.000000 0.8685 0.8688 0.8691 0.8694 0.8697
3176.000000 0.8700 0.8703 0.8706 0.8709 0.8712
3181.000000 0.8715 0.8718 0.8721 0.8724 0.8727
3186.000000 0.8731 0.8734 0.8737 0.8740 0.8743
3191.000000 0.8746 0.8749 0.8752 0.8755 0.8758
3196.000000 0.8761 0.8764 0.8767 0.8769 0.8772
3201.000000 0.8772 0.8773 0.8773 0.8774 0.8774
3206.000000 0.8775 0.8776 0.8777 0.8777 0.8778
3211.000000 0.8778 0.8779 0.8779 0.8780 0.8780
3216.000000 0.8781 0.8782 0.8783 0.8784 0.8785
3221.000000 0.8786 0.8787 0.8787 0.8788 0.8789
3226.000000 0.8790 0.8791 0.8792 0.8793 0.8795
3231.000000 0.8796 0.8798 0.8799 0.8801 0.8803
3236.000000 0.8805 0.8806 0.8808 0.8810 0.8812
3241.000000 0.8813 0.8815 0.8816 0.8818 0.8820
3246.000000 0.8822 0.8823 0.8825 0.8826 0.8828
3251.000000 0.8830 0.8832 0.8833 0.8834 0.8834
3256.000000 0.8834 0.8834 0.8834 0.8834 0.8834
3261.000000 0.8834 0.8834 0.8834 0.8834 0.8834
3266.000000 0.8834 0.8835 0.8836 0.8837 0.8838
3271.000000 0.8839 0.8841 0.8842 0.8843 0.8844
3276.000000 0.8845 0.8846 0.8848 0.8849 0.8850
3281.000000 0.8850 0.8850 0.8850 0.8851 0.8851
3286.000000 0.8852 0.8852 0.8852 0.8852 0.8853
3291.000000 0.8853 0.8853 0.8853 0.8854 0.8854
3296.000000 0.8855 0.8855 0.8855 0.8855 0.8856
3301.000000 0.8856 0.8856 0.8856 0.8857 0.8857
3306.000000 0.8858 0.8858 0.8858 0.8858 0.8858
3311.000000 0.8858 0.8858 0.8857 0.8857 0.8857
3316.000000 0.8857 0.8856 0.8856 0.8855 0.8855
3321.000000 0.8855 0.8855 0.8854 0.8854 0.8854
3326.000000 0.8854 0.8853 0.8853 0.8853 0.8853
3331.000000 0.8852 0.8852 0.8852 0.8852 0.8851
3336.000000 0.8851 0.8851 0.8851 0.8850 0.8864
3341.000000 0.8849 0.8849 0.8849 0.8849 0.8849
3346.000000 0.8849 0.8849 0.8849 0.8849 0.8850
3351.000000 0.8850 0.8850 0.8850 0.8850 0.8850
3356.000000 0.8850 0.8850 0.8850 0.8850 0.8850
3361.000000 0.8850 0.8850 0.8850 0.8850 0.8850
3366.000000 0.8850 0.8850 0.8850 0.8850 0.8851
3371.000000 0.8851 0.8851 0.8850 0.8850 0.8850
3376.000000 0.8850 0.8850 0.8850 0.8850 0.8850
3381.000000 0.8850 0.8850 0.8850 0.8850 0.8850
3386.000000 0.8850 0.8850 0.8850 0.8850 0.8850
3391.000000 0.8850 0.8850 0.8849 0.8849 0.8849
3396.000000 0.8849 0.8849 0.8849 0.8849 0.8849
3401.000000 0.8849 0.8849 0.8849 0.8849 0.8849
3406.000000 0.8849 0.8848 0.8847 0.8845 0.8844
3411.000000 0.8843 0.8842 0.8841 0.8840 0.8838
3416.000000 0.8837 0.8836 0.8835 0.8833 0.8832
3421.000000 0.8831 0.8830 0.8828 0.8827 0.8826
3426.000000 0.8825 0.8823 0.8822 0.8821 0.8820
3431.000000 0.8819 0.8818 0.8816 0.8815 0.8814
3436.000000 0.8813 0.8811 0.8810 0.8808 0.8807
3441.000000 0.8806 0.8805 0.8803 0.8802 0.8800
3446.000000 0.8799 0.8797 0.8796 0.8794 0.8793
3451.000000 0.8792 0.8791 0.8789 0.8788 0.8786
3456.000000 0.8785 0.8783 0.8782 0.8781 0.8780
3461.000000 0.8777 0.8774 0.8770 0.8766 0.8762
3466.000000 0.8758 0.8754 0.8750 0.8746 0.8742
3471.000000 0.8738 0.8735 0.8731 0.8727 0.8723
3476.000000 0.8719 0.8715 0.8711 0.8707 0.8703
3481.000000 0.8697 0.8692 0.8684 0.8677 0.8670
3486.000000 0.8663 0.8655 0.8648 0.8640 0.8633
3491.000000 0.8625 0.8618 0.8611 0.8604 0.8593
3496.000000 0.8582 0.8568 0.8554 0.8540 0.8526
3501.000000 0.8512 0.8498 0.8484 0.8471 0.8457
3506.000000 0.8443 0.8422 0.8402 0.8381 0.8360
3511.000000 0.8339 0.8318 0.8296 0.8275 0.8254
3516.000000 0.8233 0.8211 0.8190 0.8169 0.8148
3521.000000 0.8126 0.8105 0.8088 0.8071 0.8058
3526.000000 0.8046 0.8037 0.8022 0.8027 0.8027
3531.000000 0.8030 0.8033 0.8036 0.8039 0.8043
3536.000000 0.8047 0.8061 0.8076 0.8093 0.8110
3541.000000 0.8138 0.8167 0.8204 0.8242 0.8275
3546.000000 0.8309 0.8331 0.8353 0.8375 0.8397
3551.000000 0.8418 0.8440 0.8454 0.8469 0.8482
3556.000000 0.8495 0.8508 0.8522 0.8535 0.8548
3561.000000 0.8558 0.8568 0.8576 0.8585 0.8594
3566.000000 0.8603 0.8611 0.8620 0.8628 0.8637
3571.000000 0.8644 0.8651 0.8658 0.8665 0.8671
3576.000000 0.8678 0.8683 0.8689 0.8694 0.8700
3581.000000 0.8705 0.8710 0.8715 0.8721 0.8726
3586.000000 0.8732 0.8737 0.8742 0.8745 0.8749
3591.000000 0.8752 0.8755 0.8758 0.8761 0.8764
3596.000000 0.8767 0.8769 0.8772 0.8775 0.8778
3601.000000 0.8778 0.8779 0.8780 0.8781 0.8781
3606.000000 0.8782 0.8782 0.8783 0.8783 0.8784
3611.000000 0.8785 0.8786 0.8785 0.8785 0.8784
3616.000000 0.8783 0.8782 0.8782 0.8781 0.8780
3621.000000 0.8779 0.8778 0.8777 0.8777 0.8777
3626.000000 0.8778 0.8781 0.8784 0.8787 0.8791
3631.000000 0.8794 0.8798 0.8799 0.8800 0.8797
3636.000000 0.8794 0.8791 0.8788 0.8785 0.8782
3641.000000 0.8779 0.8776 0.8773 0.8770 0.8770
3646.000000 0.8770 0.8770 0.8771 0.8771 0.8772
3651.000000 0.8772 0.8773 0.8774 0.8776 0.8778
3656.000000 0.8781 0.8783 0.8786 0.8788 0.8790
3661.000000 0.8790 0.8791 0.8790 0.8790 0.8789
3666.000000 0.8789 0.8788 0.8788 0.8787 0.8786
3671.000000 0.8784 0.8783 0.8780 0.8777 0.8774
3676.000000 0.8771 0.8768 0.8765 0.8762 0.8759
3681.000000 0.8756 0.8753 0.8753 0.8753 0.8753
3686.000000 0.8753 0.8753 0.8754 0.8758 0.8762
3691.000000 0.8766 0.8770 0.8773 0.8777 0.8780
3696.000000 0.8784 0.8787 0.8791 0.8794 0.8798
3701.000000 0.8801 0.8805 0.8808 0.8812 0.8816
3706.000000 0.8820 0.8824 0.8828 0.8831 0.8835
3711.000000 0.8839 0.8843 0.8846 0.8850 0.8854
3716.000000 0.8858 0.8862 0.8866 0.8869 0.8873
3721.000000 0.8876 0.8880 0.8883 0.8887 0.8890
3726.000000 0.8894 0.8896 0.8898 0.8898 0.8898
3731.000000 0.8897 0.8897 0.8896 0.8899 0.8896
3736.000000 0.8896 0.8895 0.8894 0.8891 0.8889
3741.000000 0.8886 0.8884 0.8881 0.8879 0.8876
3746.000000 0.8873 0.8870 0.8867 0.8863 0.8860
3751.000000 0.8857 0.8854 0.8850 0.8847 0.8843
3756.000000 0.8840 0.8836 0.8833 0.8829 0.8825
3761.000000 0.8821 0.8818 0.8814 0.8811 0.8807
3766.000000 0.8803 0.8799 0.8795 0.8791 0.8787
3771.000000 0.8782 0.8778 0.8774 0.8770 0.8766
3776.000000 0.8762 0.8758 0.8755 0.8751 0.8748
3781.000000 0.8744 0.8741 0.8737 0.8734 0.8731
3786.000000 0.8728 0.8724 0.8721 0.8717 0.8714
3791.000000 0.8712 0.8711
##END=
