##TITLE=PROPIONALDEHYDE, DIPROPARGAL ACETAL
##JCAMP-DX=4.24
##DATA TYPE=INFRARED SPECTRUM
##CLASS=COBLENTZ
##ORIGIN=TENNESSEE EASTMAN COMPANY, RESEARCH LABORATORIES
##OWNER=COBLENTZ SOCIETY
Collection (C) 2018 copyright by the U.S. Secretary of Commerce
on behalf of the United States of America. All rights reserved.
##DATE=Not specified, most likely prior to 1970
##NAMES=3-[1-(2-propynyloxy)propoxy]-1-propyne
##CAS REGISTRY NO=4033-07-2
##MOLFORM=C9 H12 O2
##BP=192 C
##SOURCE REFERENCE=COBLENTZ NO. 1771
##$NIST SOURCE=COBLENTZ
##$NIST IMAGE=cob1771
##SPECTROMETER/DATA SYSTEM=Not specified, most likely a prism, grating, or hybrid spectrometer.
##PATH LENGTH=SMEAR
##SAMPLING PROCEDURE=TRANSMISSION
##RESOLUTION=4
##DATA PROCESSING=DIGITIZED BY NIST FROM HARD COPY
##XUNITS=MICROMETERS
##YUNITS=TRANSMITTANCE
##XFACTOR=1.000000
##YFACTOR=1
##DELTAX=000.006833
##FIRSTX=2.068
##LASTX=15.9937
##FIRSTY=0.972
##MAXX=15.9937
##MINX=2.068
##MAXY=0.979
##MINY=0.042
##NPOINTS=2039
##XYDATA=(X++(Y..Y))
2.068000 0.9720 0.9720 0.9720 0.9720 0.9720
2.102180 0.9720 0.9740 0.9720 0.9740 0.9740
2.137000 0.9740 0.9760 0.9760 0.9760 0.9760
2.171180 0.9770 0.9770 0.9790 0.9770 0.9770
2.205000 0.9770 0.9770 0.9790 0.9790 0.9770
2.239180 0.9770 0.9770 0.9770 0.9770 0.9770
2.273000 0.9770 0.9760 0.9740 0.9700 0.9670
2.307180 0.9670 0.9670 0.9670 0.9670 0.9670
2.342000 0.9670 0.9690 0.9690 0.9690 0.9690
2.376180 0.9670 0.9670 0.9670 0.9670 0.9670
2.410000 0.9690 0.9690 0.9690 0.9690 0.9690
2.444180 0.9700 0.9700 0.9700 0.9700 0.9700
2.478000 0.9690 0.9690 0.9690 0.9690 0.9690
2.512180 0.9670 0.9670 0.9670 0.9650 0.9600
2.547000 0.9530 0.9500 0.9430 0.9400 0.9400
2.581180 0.9380 0.9380 0.9400 0.9400 0.9410
2.615000 0.9410 0.9450 0.9470 0.9470 0.9470
2.649180 0.9470 0.9480 0.9500 0.9520 0.9530
2.683000 0.9550 0.9550 0.9550 0.9550 0.9550
2.717180 0.9550 0.9530 0.9530 0.9480 0.9400
2.752000 0.9360 0.9290 0.9290 0.9280 0.9260
2.786180 0.9260 0.9240 0.9230 0.9190 0.9190
2.820000 0.9190 0.9170 0.9170 0.9160 0.9140
2.854180 0.9140 0.9120 0.9110 0.9090 0.9070
2.888000 0.9050 0.9050 0.9040 0.9040 0.9040
2.922180 0.9050 0.9050 0.9050 0.9050 0.9070
2.957000 0.9090 0.9090 0.9090 0.9070 0.9050
2.991180 0.9020 0.8970 0.8870 0.8750 0.8700
3.025000 0.8470 0.7810 0.6420 0.5580 0.4030
3.059180 0.1860 0.1840 0.1880 0.2440 0.3230
3.093000 0.3910 0.4350 0.4950 0.5650 0.6390
3.127180 0.7070 0.7650 0.8010 0.8460 0.8560
3.162000 0.8710 0.8780 0.8850 0.8920 0.9000
3.196180 0.9090 0.9140 0.9170 0.9190 0.9190
3.230000 0.9210 0.9230 0.9240 0.9240 0.9260
3.264180 0.9260 0.9280 0.9280 0.9280 0.9280
3.298000 0.9280 0.9260 0.9240 0.9230 0.9190
3.332180 0.9120 0.8920 0.7960 0.7770 0.6200
3.367000 0.5260 0.4230 0.4230 0.4230 0.4250
3.401180 0.4250 0.4270 0.4270 0.4300 0.4630
3.435000 0.5110 0.5400 0.5600 0.5640 0.5640
3.469180 0.5620 0.5330 0.5290 0.5330 0.6150
3.503000 0.6990 0.7260 0.7580 0.7960 0.8250
3.537180 0.8410 0.8520 0.8630 0.8730 0.8780
3.571000 0.8870 0.8990 0.9000 0.9040 0.9070
3.605180 0.9110 0.9110 0.9110 0.9140 0.9140
3.640000 0.9140 0.9140 0.9160 0.9160 0.9160
3.674180 0.9160 0.9160 0.9160 0.9170 0.9170
3.708000 0.9190 0.9210 0.9210 0.9230 0.9240
3.742180 0.9240 0.9240 0.9260 0.9260 0.9280
3.776000 0.9280 0.9290 0.9290 0.9310 0.9350
3.810180 0.9380 0.9400 0.9400 0.9410 0.9430
3.845000 0.9430 0.9430 0.9450 0.9450 0.9470
3.879180 0.9470 0.9480 0.9480 0.9500 0.9500
3.913000 0.9520 0.9520 0.9530 0.9530 0.9570
3.947180 0.9570 0.9580 0.9580 0.9600 0.9600
3.981000 0.9620 0.9620 0.9620 0.9620 0.9620
4.015180 0.9620 0.9620 0.9620 0.9620 0.9620
4.050000 0.9620 0.9600 0.9620 0.9600 0.9600
4.084180 0.9600 0.9580 0.9580 0.9580 0.9580
4.118000 0.9580 0.9570 0.9570 0.9550 0.9550
4.152180 0.9530 0.9530 0.9530 0.9530 0.9550
4.186000 0.9550 0.9570 0.9570 0.9570 0.9570
4.220180 0.9570 0.9570 0.9570 0.9570 0.9570
4.255000 0.9550 0.9550 0.9530 0.9530 0.9480
4.289180 0.9450 0.9430 0.9430 0.9410 0.9400
4.323000 0.9380 0.9350 0.9350 0.9350 0.9360
4.357180 0.9380 0.9410 0.9450 0.9480 0.9500
4.391000 0.9500 0.9520 0.9520 0.9530 0.9550
4.425180 0.9550 0.9550 0.9570 0.9570 0.9570
4.460000 0.9570 0.9570 0.9570 0.9580 0.9580
4.494180 0.9580 0.9580 0.9580 0.9580 0.9580
4.528000 0.9580 0.9580 0.9580 0.9570 0.9570
4.562180 0.9570 0.9570 0.9570 0.9570 0.9570
4.596000 0.9570 0.9570 0.9530 0.9530 0.9520
4.630180 0.9520 0.9500 0.9500 0.9430 0.9360
4.665000 0.9290 0.9120 0.8460 0.8340 0.7980
4.699180 0.7930 0.7930 0.7980 0.8410 0.8610
4.733000 0.8850 0.9040 0.9140 0.9190 0.9210
4.767180 0.9230 0.9240 0.9240 0.9260 0.9240
4.801000 0.9260 0.9260 0.9280 0.9280 0.9280
4.835180 0.9280 0.9280 0.9280 0.9280 0.9280
4.870000 0.9280 0.9280 0.9280 0.9280 0.9280
4.904180 0.9290 0.9290 0.9290 0.9290 0.9290
4.938000 0.9290 0.9290 0.9290 0.9290 0.9290
4.972180 0.9290 0.9290 0.9290 0.9290 0.9290
5.006000 0.9310 0.9310 0.9310 0.9310 0.9310
5.040180 0.9310 0.9310 0.9330 0.9330 0.9330
5.075000 0.9330 0.9330 0.9330 0.9330 0.9350
5.109180 0.9350 0.9350 0.9350 0.9350 0.9360
5.143000 0.9360 0.9360 0.9360 0.9360 0.9360
5.177180 0.9380 0.9380 0.9380 0.9380 0.9380
5.211000 0.9380 0.9380 0.9380 0.9380 0.9380
5.245180 0.9400 0.9400 0.9400 0.9400 0.9400
5.280000 0.9400 0.9410 0.9410 0.9430 0.9430
5.314180 0.9430 0.9450 0.9450 0.9450 0.9470
5.348000 0.9470 0.9470 0.9470 0.9470 0.9470
5.382180 0.9470 0.9470 0.9480 0.9480 0.9480
5.416000 0.9480 0.9480 0.9480 0.9480 0.9480
5.450180 0.9480 0.9480 0.9480 0.9480 0.9480
5.485000 0.9480 0.9480 0.9480 0.9480 0.9480
5.519180 0.9480 0.9480 0.9480 0.9470 0.9470
5.553000 0.9470 0.9430 0.9400 0.9400 0.9380
5.587180 0.9360 0.9360 0.9360 0.9360 0.9360
5.621000 0.9360 0.9360 0.9360 0.9350 0.9330
5.655180 0.9310 0.9260 0.9230 0.9210 0.9210
5.690000 0.9210 0.9190 0.9170 0.9160 0.9120
5.724180 0.9000 0.8990 0.8830 0.8820 0.8730
5.758000 0.8710 0.8700 0.8580 0.8490 0.8470
5.792180 0.8470 0.8510 0.8520 0.8580 0.8590
5.826000 0.8590 0.8580 0.8580 0.8580 0.8590
5.860180 0.8640 0.8680 0.8700 0.8730 0.8750
5.895000 0.8730 0.8730 0.8730 0.8710 0.8710
5.929180 0.8760 0.8780 0.8800 0.8870 0.8830
5.963000 0.8760 0.8710 0.8710 0.8750 0.8750
5.997180 0.8760 0.8780 0.8820 0.8830 0.8870
6.031000 0.8940 0.9000 0.9000 0.9000 0.8990
6.065180 0.8990 0.8920 0.8800 0.8730 0.8660
6.100000 0.8610 0.8660 0.8780 0.8850 0.8850
6.134180 0.8820 0.8780 0.8760 0.8760 0.8760
6.168000 0.8780 0.8800 0.8800 0.8800 0.8780
6.202180 0.8780 0.8780 0.8780 0.8820 0.8880
6.236000 0.8920 0.8970 0.8990 0.8990 0.9000
6.270180 0.9020 0.9050 0.9070 0.9070 0.9090
6.305000 0.9090 0.9110 0.9120 0.9120 0.9120
6.339180 0.9110 0.9090 0.9040 0.9000 0.8990
6.373000 0.8990 0.8990 0.8990 0.8990 0.8990
6.407180 0.8880 0.8830 0.8780 0.8760 0.8760
6.441000 0.8800 0.8920 0.8990 0.8990 0.8830
6.475180 0.8710 0.8630 0.8540 0.8540 0.8610
6.510000 0.8700 0.8780 0.8820 0.8850 0.8850
6.544180 0.8820 0.8780 0.8710 0.8560 0.8510
6.578000 0.8520 0.8580 0.8590 0.8610 0.8630
6.612180 0.8610 0.8560 0.8440 0.8410 0.8470
6.646000 0.8560 0.8610 0.8610 0.8590 0.8590
6.680180 0.8590 0.8520 0.8510 0.8490 0.8390
6.714000 0.8320 0.8320 0.8320 0.8300 0.8290
6.748180 0.8180 0.8010 0.7810 0.7580 0.6940
6.783000 0.6630 0.5550 0.5350 0.5090 0.4990
6.817180 0.4900 0.4870 0.4870 0.4870 0.4900
6.851000 0.4970 0.5000 0.5050 0.5190 0.5210
6.885180 0.5260 0.5310 0.5350 0.5380 0.5480
6.919000 0.5670 0.5770 0.5980 0.6170 0.6470
6.953180 0.6760 0.6940 0.7290 0.7430 0.7530
6.988000 0.7600 0.7670 0.7740 0.7810 0.7880
7.022180 0.7890 0.7890 0.7890 0.7890 0.7840
7.056000 0.7820 0.7810 0.7790 0.7740 0.7690
7.090180 0.7600 0.7480 0.7400 0.7260 0.7000
7.124000 0.6710 0.6660 0.6540 0.6410 0.6250
7.158180 0.6000 0.5810 0.5640 0.5410 0.5290
7.193000 0.5160 0.5140 0.5170 0.5240 0.5350
7.227180 0.5430 0.5500 0.5500 0.5500 0.5430
7.261000 0.5410 0.5380 0.5360 0.5350 0.5330
7.295180 0.5330 0.5330 0.5330 0.5330 0.5310
7.329000 0.5290 0.5240 0.5140 0.4870 0.4800
7.363180 0.4710 0.4520 0.4350 0.4250 0.4170
7.398000 0.4060 0.4010 0.3940 0.3910 0.3930
7.432180 0.4000 0.4170 0.4340 0.4510 0.4820
7.466000 0.5050 0.5120 0.5400 0.5700 0.5910
7.500180 0.6100 0.6250 0.6440 0.6510 0.6540
7.534000 0.6610 0.6730 0.6820 0.6830 0.6830
7.568180 0.6850 0.6850 0.6780 0.6730 0.6630
7.603000 0.6470 0.6350 0.6220 0.6200 0.6230
7.637180 0.6350 0.6420 0.6470 0.6610 0.6700
7.671000 0.6750 0.6760 0.6820 0.6870 0.6920
7.705180 0.6990 0.7020 0.7040 0.7070 0.7070
7.739000 0.7070 0.7020 0.6990 0.6950 0.6830
7.773180 0.6750 0.6660 0.6590 0.6230 0.6180
7.808000 0.6130 0.6100 0.5880 0.5740 0.5720
7.842180 0.5670 0.5640 0.5600 0.5570 0.5530
7.876000 0.5500 0.5500 0.5500 0.5500 0.5500
7.910180 0.5500 0.5500 0.5550 0.5570 0.5580
7.944000 0.5580 0.5580 0.5580 0.5620 0.5620
7.978180 0.5770 0.5890 0.6000 0.6170 0.6320
8.013000 0.6510 0.6660 0.6730 0.6850 0.6920
8.047180 0.6990 0.7020 0.7070 0.7120 0.7170
8.081000 0.7230 0.7240 0.7330 0.7400 0.7470
8.115180 0.7480 0.7480 0.7500 0.7530 0.7690
8.149000 0.7770 0.7820 0.7880 0.7880 0.7890
8.183180 0.7910 0.7910 0.7940 0.8000 0.8060
8.218000 0.8060 0.8060 0.8080 0.8080 0.8100
8.252180 0.8100 0.8100 0.8110 0.8110 0.8110
8.286000 0.8100 0.8080 0.8060 0.8050 0.8030
8.320180 0.8010 0.7980 0.7980 0.7960 0.7960
8.354000 0.7980 0.7980 0.7980 0.7980 0.7980
8.388180 0.7980 0.7940 0.7890 0.7880 0.7880
8.423000 0.7840 0.7820 0.7810 0.7790 0.7760
8.457180 0.7700 0.7600 0.7600 0.7550 0.7480
8.491000 0.7470 0.7400 0.7360 0.7170 0.7000
8.525180 0.6830 0.6750 0.6590 0.6390 0.6050
8.559000 0.5960 0.5570 0.5330 0.4940 0.4850
8.593180 0.4590 0.4150 0.4080 0.4060 0.4080
8.628000 0.4150 0.4290 0.4490 0.4660 0.4780
8.662180 0.4850 0.4870 0.4870 0.4870 0.4870
8.696000 0.4780 0.4590 0.4320 0.4320 0.4290
8.730180 0.4100 0.3960 0.3770 0.3570 0.3430
8.764000 0.3140 0.3020 0.2870 0.2700 0.2510
8.798180 0.2320 0.2130 0.1960 0.1790 0.1650
8.833000 0.1550 0.1480 0.1450 0.1400 0.1360
8.867180 0.1310 0.1280 0.1260 0.1240 0.1230
8.901000 0.1230 0.1230 0.1230 0.1230 0.1230
8.935180 0.1230 0.1230 0.1260 0.1310 0.1400
8.969000 0.1480 0.1580 0.1720 0.1840 0.1980
9.003180 0.2100 0.2220 0.2300 0.2390 0.2390
9.038000 0.2390 0.2340 0.2250 0.2180 0.1960
9.072180 0.1840 0.1670 0.1640 0.1530 0.1470
9.106000 0.1400 0.1350 0.1330 0.1310 0.1310
9.140180 0.1310 0.1290 0.1290 0.1290 0.1260
9.174000 0.1260 0.1240 0.1240 0.1260 0.1330
9.208180 0.1410 0.1520 0.1640 0.1770 0.1930
9.243000 0.2050 0.2110 0.2390 0.2470 0.2710
9.277180 0.2820 0.2880 0.2880 0.2920 0.2950
9.311000 0.2950 0.2920 0.2830 0.2680 0.2490
9.345180 0.2390 0.2180 0.2130 0.1980 0.1480
9.379000 0.1310 0.1090 0.0880 0.0660 0.0590
9.413180 0.0520 0.0520 0.0490 0.0470 0.0440
9.448000 0.0420 0.0420 0.0420 0.0420 0.0420
9.482180 0.0460 0.0470 0.0490 0.0510 0.0520
9.516000 0.0520 0.0520 0.0520 0.0520 0.0520
9.550180 0.0520 0.0510 0.0510 0.0510 0.0490
9.584000 0.0490 0.0490 0.0490 0.0490 0.0490
9.618180 0.0490 0.0490 0.0510 0.0520 0.0590
9.653000 0.0640 0.0760 0.0880 0.0920 0.0970
9.687180 0.1020 0.1160 0.1400 0.1550 0.1700
9.721000 0.1770 0.1860 0.1910 0.1960 0.2000
9.755180 0.2000 0.2010 0.2030 0.2030 0.2030
9.789000 0.2030 0.2010 0.2010 0.2010 0.2030
9.823180 0.2050 0.2050 0.2080 0.2080 0.2100
9.857000 0.2110 0.2130 0.2170 0.2220 0.2230
9.891180 0.2250 0.2300 0.2320 0.2350 0.2350
9.926000 0.2370 0.2390 0.2390 0.2390 0.2370
9.960180 0.2370 0.2390 0.2390 0.2410 0.2420
9.994000 0.2460 0.2510 0.2580 0.2660 0.2760
10.028180 0.2850 0.2920 0.2970 0.3280 0.3470
10.062000 0.3620 0.3740 0.3890 0.4060 0.4200
10.096180 0.4300 0.4460 0.4580 0.4680 0.4750
10.131000 0.4820 0.4870 0.4940 0.4990 0.5000
10.165180 0.5090 0.5090 0.5120 0.5120 0.5170
10.199000 0.5190 0.5190 0.5190 0.5190 0.5190
10.233180 0.5190 0.5190 0.5190 0.5190 0.5170
10.267000 0.5140 0.5110 0.5020 0.4990 0.4900
10.301180 0.4850 0.4800 0.4750 0.4710 0.4680
10.336000 0.4610 0.4560 0.4520 0.4490 0.4460
10.370180 0.4420 0.4390 0.4350 0.4350 0.4290
10.404000 0.4270 0.4270 0.4270 0.4270 0.4270
10.438180 0.4270 0.4270 0.4270 0.4270 0.4250
10.472000 0.4250 0.4230 0.4220 0.4200 0.4180
10.506180 0.4180 0.4170 0.4130 0.4100 0.4030
10.541000 0.4010 0.3960 0.3890 0.3840 0.3770
10.575180 0.3700 0.3640 0.3580 0.3530 0.3480
10.609000 0.3450 0.3400 0.3350 0.3330 0.3280
10.643180 0.3260 0.3190 0.3190 0.3190 0.3190
10.677000 0.3190 0.3190 0.3210 0.3260 0.3290
10.711180 0.3360 0.3470 0.3550 0.3640 0.3690
10.746000 0.3770 0.3860 0.3940 0.4000 0.4340
10.780180 0.4460 0.4510 0.4610 0.4680 0.4780
10.814000 0.4880 0.4970 0.4970 0.4990 0.5000
10.848180 0.5000 0.4990 0.4970 0.4920 0.4830
10.882000 0.4780 0.4700 0.4580 0.4520 0.4390
10.916180 0.4300 0.4230 0.4180 0.4130 0.4080
10.951000 0.4030 0.4010 0.4000 0.3980 0.3980
10.985180 0.3980 0.3980 0.4000 0.4030 0.4100
11.019000 0.4110 0.4170 0.4290 0.4300 0.4350
11.053180 0.4510 0.4660 0.4750 0.4870 0.4970
11.087000 0.5070 0.5160 0.5260 0.5360 0.5480
11.121180 0.5600 0.5740 0.5890 0.5940 0.6110
11.156000 0.6200 0.6200 0.6340 0.6410 0.6490
11.190180 0.6510 0.6560 0.6630 0.6730 0.6820
11.224000 0.6850 0.6880 0.6900 0.6920 0.6940
11.258180 0.6940 0.6920 0.6900 0.6900 0.6920
11.292000 0.6940 0.6950 0.6950 0.6970 0.6970
11.326180 0.6990 0.7000 0.7020 0.7070 0.7090
11.361000 0.7110 0.7120 0.7140 0.7160 0.7170
11.395180 0.7210 0.7230 0.7240 0.7260 0.7280
11.429000 0.7280 0.7280 0.7260 0.7260 0.7260
11.463180 0.7240 0.7240 0.7230 0.7230 0.7210
11.497000 0.7210 0.7210 0.7210 0.7210 0.7210
11.531180 0.7210 0.7230 0.7240 0.7280 0.7310
11.566000 0.7380 0.7470 0.7530 0.7550 0.7570
11.600180 0.7600 0.7700 0.7840 0.7890 0.8030
11.634000 0.8100 0.8110 0.8150 0.8220 0.8270
11.668180 0.8300 0.8340 0.8370 0.8410 0.8440
11.702000 0.8470 0.8520 0.8520 0.8540 0.8580
11.736180 0.8580 0.8610 0.8630 0.8640 0.8680
11.771000 0.8710 0.8730 0.8730 0.8760 0.8800
11.805180 0.8820 0.8830 0.8830 0.8850 0.8850
11.839000 0.8870 0.8880 0.8880 0.8900 0.8900
11.873180 0.8920 0.8940 0.8940 0.8950 0.8970
11.907000 0.8990 0.8990 0.9000 0.9000 0.9020
11.941180 0.9020 0.9020 0.9020 0.9020 0.9020
11.976000 0.9040 0.9040 0.9040 0.9050 0.9050
12.010180 0.9050 0.9050 0.9050 0.9070 0.9070
12.044000 0.9070 0.9070 0.9070 0.9070 0.9070
12.078180 0.9070 0.9070 0.9070 0.9070 0.9070
12.112000 0.9070 0.9070 0.9070 0.9070 0.9070
12.146180 0.9070 0.9070 0.9070 0.9070 0.9070
12.181000 0.9070 0.9050 0.9050 0.9050 0.9050
12.215180 0.9040 0.9020 0.9020 0.9020 0.9020
12.249000 0.9020 0.9020 0.9020 0.9020 0.9020
12.283180 0.9020 0.9020 0.9020 0.9020 0.9000
12.317000 0.9000 0.9000 0.8990 0.8990 0.8990
12.351180 0.8970 0.8970 0.8950 0.8950 0.8950
12.386000 0.8950 0.8940 0.8940 0.8940 0.8940
12.420180 0.8920 0.8920 0.8900 0.8900 0.8880
12.454000 0.8880 0.8880 0.8870 0.8870 0.8850
12.488180 0.8850 0.8830 0.8830 0.8820 0.8830
12.522000 0.8820 0.8820 0.8800 0.8800 0.8780
12.556180 0.8780 0.8760 0.8760 0.8750 0.8750
12.591000 0.8730 0.8730 0.8700 0.8660 0.8630
12.625180 0.8610 0.8610 0.8590 0.8590 0.8590
12.659000 0.8580 0.8580 0.8560 0.8560 0.8560
12.693180 0.8520 0.8520 0.8520 0.8510 0.8510
12.727000 0.8510 0.8490 0.8470 0.8390 0.8370
12.761180 0.8370 0.8390 0.8390 0.8390 0.8390
12.796000 0.8390 0.8390 0.8390 0.8350 0.8340
12.830180 0.8340 0.8320 0.8320 0.8300 0.8300
12.864000 0.8290 0.8290 0.8270 0.8270 0.8250
12.898180 0.8230 0.8220 0.8200 0.8180 0.8150
12.932000 0.8130 0.8110 0.8100 0.8050 0.8010
12.966180 0.8000 0.7980 0.7980 0.7980 0.7980
13.000000 0.7980 0.7980 0.7980 0.7980 0.7980
13.034180 0.7980 0.7980 0.7980 0.7980 0.7980
13.069000 0.7980 0.7980 0.8000 0.8000 0.8010
13.103180 0.8030 0.8030 0.8030 0.8050 0.8050
13.137000 0.8050 0.8060 0.8060 0.8080 0.8080
13.171180 0.8080 0.8080 0.8080 0.8060 0.8050
13.205000 0.8030 0.8010 0.8010 0.8010 0.8010
13.239180 0.8010 0.8000 0.8000 0.7980 0.7980
13.274000 0.7960 0.7940 0.7930 0.7910 0.7910
13.308180 0.7890 0.7890 0.7880 0.7880 0.7880
13.342000 0.7860 0.7860 0.7840 0.7840 0.7820
13.376180 0.7810 0.7790 0.7770 0.7760 0.7760
13.410000 0.7740 0.7740 0.7720 0.7700 0.7690
13.444180 0.7670 0.7670 0.7620 0.7600 0.7580
13.479000 0.7570 0.7570 0.7530 0.7500 0.7480
13.513180 0.7470 0.7470 0.7410 0.7400 0.7380
13.547000 0.7380 0.7360 0.7350 0.7310 0.7290
13.581180 0.7280 0.7280 0.7240 0.7230 0.7190
13.615000 0.7160 0.7110 0.7110 0.7090 0.7070
13.649180 0.7040 0.7020 0.6990 0.6970 0.6950
13.684000 0.6920 0.6900 0.6880 0.6850 0.6830
13.718180 0.6800 0.6780 0.6700 0.6660 0.6660
13.752000 0.6640 0.6630 0.6590 0.6560 0.6490
13.786180 0.6470 0.6470 0.6460 0.6460 0.6410
13.820000 0.6370 0.6340 0.6320 0.6290 0.6250
13.854180 0.6220 0.6180 0.6170 0.6110 0.6100
13.889000 0.6060 0.6010 0.6000 0.6000 0.5980
13.923180 0.5960 0.5910 0.5890 0.5880 0.5840
13.957000 0.5810 0.5760 0.5720 0.5700 0.5690
13.991180 0.5670 0.5620 0.5580 0.5550 0.5520
14.025000 0.5500 0.5480 0.5470 0.5380 0.5360
14.059180 0.5310 0.5280 0.5190 0.5160 0.5140
14.094000 0.5140 0.5110 0.5070 0.5050 0.5020
14.128180 0.5000 0.4990 0.4950 0.4920 0.4880
14.162000 0.4870 0.4820 0.4780 0.4750 0.4730
14.196180 0.4700 0.4610 0.4590 0.4580 0.4560
14.230000 0.4560 0.4540 0.4490 0.4440 0.4410
14.264180 0.4390 0.4350 0.4300 0.4320 0.4290
14.299000 0.4290 0.4250 0.4220 0.4180 0.4130
14.333180 0.4100 0.4080 0.4060 0.4030 0.4010
14.367000 0.4000 0.3980 0.3960 0.3930 0.3910
14.401180 0.3880 0.3820 0.3770 0.3770 0.3740
14.435000 0.3720 0.3690 0.3670 0.3650 0.3620
14.469180 0.3600 0.3600 0.3600 0.3580 0.3570
14.504000 0.3520 0.3480 0.3450 0.3410 0.3400
14.538180 0.3380 0.3360 0.3350 0.3330 0.3310
14.572000 0.3290 0.3280 0.3260 0.3240 0.3210
14.606180 0.3190 0.3170 0.3160 0.3160 0.3140
14.640000 0.3120 0.3110 0.3090 0.3070 0.3050
14.674180 0.3040 0.3020 0.3020 0.3000 0.3000
14.709000 0.2990 0.2990 0.2970 0.2950 0.2950
14.743180 0.2940 0.2940 0.2920 0.2900 0.2900
14.777000 0.2900 0.2880 0.2880 0.2880 0.2880
14.811180 0.2870 0.2870 0.2870 0.2870 0.2870
14.845000 0.2870 0.2870 0.2870 0.2870 0.2870
14.879180 0.2870 0.2870 0.2870 0.2880 0.2880
14.914000 0.2880 0.2900 0.2920 0.2950 0.2970
14.948180 0.2990 0.3000 0.3050 0.3050 0.3070
14.982000 0.3070 0.3090 0.3090 0.3090 0.3110
15.016180 0.3110 0.3110 0.3110 0.3110 0.3110
15.050000 0.3110 0.3090 0.3070 0.3070 0.3070
15.084180 0.3070 0.3070 0.3070 0.3070 0.3070
15.119000 0.3090 0.3090 0.3090 0.3110 0.3110
15.153180 0.3120 0.3140 0.3170 0.3190 0.3230
15.187000 0.3240 0.3260 0.3280 0.3280 0.3290
15.221180 0.3290 0.3310 0.3330 0.3350 0.3350
15.255000 0.3360 0.3360 0.3380 0.3380 0.3400
15.289180 0.3400 0.3410 0.3410 0.3430 0.3450
15.324000 0.3450 0.3470 0.3480 0.3500 0.3520
15.358180 0.3520 0.3550 0.3550 0.3550 0.3570
15.392000 0.3570 0.3570 0.3580 0.3600 0.3600
15.426180 0.3620 0.3620 0.3650 0.3650 0.3670
15.460000 0.3670 0.3670 0.3670 0.3670 0.3670
15.494180 0.3690 0.3690 0.3690 0.3700 0.3720
15.529000 0.3720 0.3760 0.3770 0.3790 0.3790
15.563180 0.3790 0.3790 0.3810 0.3820 0.3840
15.597000 0.3860 0.3860 0.3880 0.3880 0.3890
15.631180 0.3910 0.3910 0.3930 0.3940 0.3940
15.665000 0.3960 0.3960 0.3980 0.4000 0.4010
15.699180 0.4030 0.4060 0.4080 0.4100 0.4100
15.734000 0.4130 0.4130 0.4130 0.4150 0.4180
15.768180 0.4180 0.4200 0.4200 0.4250 0.4270
15.802000 0.4270 0.4290 0.4290 0.4300 0.4320
15.836180 0.4340 0.4350 0.4390 0.4390 0.4410
15.870000 0.4420 0.4440 0.4470 0.4490 0.4510
15.904180 0.4520 0.4560 0.4560 0.4590 0.4610
15.939000 0.4630 0.4640 0.4640 0.4680 0.4700
15.973180 0.4700 0.4710 0.4710 0.4710
##END=
