##TITLE=Benzophenone, 2,5-dimethyl-
##JCAMP-DX=4.24
##DATA TYPE=INFRARED SPECTRUM
##CLASS=COBLENTZ II
##ORIGIN=K. K. DEB-NCI FREDERICK CANCER RESEARCH CENTER
##OWNER=Copyright (C) 1987 by the Coblentz Society
Collection (C) 2018 copyright by the U.S. Secretary of Commerce
on behalf of the United States of America. All rights reserved.
##DATE=1974/02/13
##NAMES=(2,5-dimethylphenyl)(phenyl)methanone
##CAS REGISTRY NO=4044-60-4
##MOLFORM=C15 H14 O
##SOURCE REFERENCE=COBLENTZ NO. 9716
##$NIST SOURCE=COBLENTZ
##$NIST IMAGE=cob9716
##SPECTROMETER/DATA SYSTEM=PERKIN-ELMER 180 (GRATING)
##INSTRUMENT PARAMETERS=GRATINGS: 2000, 1000, 500, 250 CM^-^1; FILTER CHANGE: 2970, 2000, 1485, 1000, 743, 500, 372, 250, 186 CM^-^1.
##STATE=THIN FILM FROM C2HCl3 SOLUTION
$$ PURITY - ANALYTICAL
##SAMPLING PROCEDURE=TRANSMISSION
##RESOLUTION=2
##DATA PROCESSING=DIGITIZED BY COBLENTZ SOCIETY (BATCH II) FROM HARD COPY
##XUNITS=1/CM
##YUNITS=TRANSMITTANCE
##XFACTOR=1.0
##YFACTOR=1
##FIRSTX=402
##LASTX=3794
##FIRSTY=0.8069
##MAXX=3794
##MINX=402
##MAXY=0.9159
##MINY=0.1485
##NPOINTS=3393
##XYDATA=(X++(Y..Y))
402.000000 0.8069 0.8101 0.8126 0.8145 0.8164
407.000000 0.8183 0.8202 0.8221 0.8240 0.8258
412.000000 0.8276 0.8295 0.8313 0.8331 0.8349
417.000000 0.8357 0.8357 0.8357 0.8356 0.8356
422.000000 0.8355 0.8347 0.8337 0.8327 0.8316
427.000000 0.8307 0.8304 0.8306 0.8322 0.8349
432.000000 0.8377 0.8412 0.8446 0.8480 0.8497
437.000000 0.8508 0.8508 0.8507 0.8506 0.8512
442.000000 0.8520 0.8527 0.8536 0.8550 0.8565
447.000000 0.8579 0.8594 0.8609 0.8623 0.8638
452.000000 0.8653 0.8667 0.8682 0.8697 0.8705
457.000000 0.8712 0.8719 0.8741 0.8730 0.8727
462.000000 0.8725 0.8722 0.8719 0.8717 0.8713
467.000000 0.8706 0.8700 0.8693 0.8697 0.8703
472.000000 0.8710 0.8716 0.8716 0.8716 0.8711
477.000000 0.8698 0.8670 0.8634 0.8597 0.8547
482.000000 0.8497 0.8431 0.8290 0.8162 0.8043
487.000000 0.7993 0.7992 0.7986 0.7992 0.8001
492.000000 0.8054 0.8107 0.8160 0.8213 0.8266
497.000000 0.8326 0.8407 0.8486 0.8566 0.8646
502.000000 0.8727 0.8795 0.8847 0.8899 0.8933
507.000000 0.8957 0.8980 0.9001 0.9015 0.9029
512.000000 0.9042 0.9056 0.9067 0.9077 0.9087
517.000000 0.9096 0.9106 0.9115 0.9123 0.9123
522.000000 0.9123 0.9122 0.9122 0.9122 0.9122
527.000000 0.9114 0.9122 0.9122 0.9121 0.9121
532.000000 0.9121 0.9120 0.9118 0.9117 0.9115
537.000000 0.9114 0.9113 0.9111 0.9110 0.9108
542.000000 0.9107 0.9105 0.9104 0.9102 0.9101
547.000000 0.9100 0.9098 0.9096 0.9094 0.9092
552.000000 0.9090 0.9088 0.9085 0.9083 0.9081
557.000000 0.9079 0.9077 0.9075 0.9073 0.9071
562.000000 0.9069 0.9066 0.9059 0.9051 0.9043
567.000000 0.9036 0.9028 0.9021 0.9007 0.8990
572.000000 0.8973 0.8956 0.8938 0.8921 0.8904
577.000000 0.8887 0.8869 0.8851 0.8833 0.8823
582.000000 0.8820 0.8818 0.8823 0.8832 0.8840
587.000000 0.8848 0.8857 0.8867 0.8876 0.8876
592.000000 0.8873 0.8869 0.8862 0.8847 0.8817
597.000000 0.8772 0.8718 0.8673 0.8641 0.8675
602.000000 0.8672 0.8732 0.8792 0.8852 0.8912
607.000000 0.8967 0.8996 0.9015 0.9019 0.9023
612.000000 0.9016 0.9008 0.8998 0.8981 0.8978
617.000000 0.8978 0.8983 0.9012 0.9036 0.9051
622.000000 0.9058 0.9058 0.9057 0.9056 0.9055
627.000000 0.9051 0.9048 0.9044 0.9040 0.9036
632.000000 0.9022 0.9008 0.8992 0.8969 0.8946
637.000000 0.8923 0.8900 0.8877 0.8818 0.8756
642.000000 0.8693 0.8581 0.8353 0.7946 0.7539
647.000000 0.7132 0.6725 0.6319 0.5912 0.5541
652.000000 0.5529 0.5533 0.6086 0.6639 0.7192
657.000000 0.7745 0.8298 0.8851 0.8928 0.8928
662.000000 0.8925 0.8920 0.8915 0.8910 0.8904
667.000000 0.8898 0.8892 0.8884 0.8876 0.8868
672.000000 0.8860 0.8851 0.8836 0.8822 0.8802
677.000000 0.8770 0.8739 0.8708 0.8656 0.8597
682.000000 0.8539 0.8422 0.8156 0.7923 0.7763
687.000000 0.7626 0.7337 0.6894 0.6451 0.6008
692.000000 0.5565 0.5123 0.4680 0.4237 0.4022
697.000000 0.3983 0.3985 0.4224 0.4559 0.4894
702.000000 0.5229 0.5564 0.5899 0.6234 0.6569
707.000000 0.6904 0.7239 0.7574 0.7909 0.8244
712.000000 0.8538 0.8638 0.8660 0.8679 0.8693
717.000000 0.8693 0.8713 0.8687 0.8678 0.8649
722.000000 0.8605 0.8540 0.8413 0.8165 0.7916
727.000000 0.7668 0.7420 0.7171 0.6923 0.6675
732.000000 0.6426 0.6178 0.5930 0.5681 0.5447
737.000000 0.5450 0.5451 0.5649 0.5890 0.6132
742.000000 0.6374 0.6616 0.6857 0.7099 0.7341
747.000000 0.7582 0.7824 0.8053 0.8144 0.8246
752.000000 0.8349 0.8452 0.8547 0.8616 0.8685
757.000000 0.8737 0.8764 0.8792 0.8820 0.8847
762.000000 0.8873 0.8890 0.8906 0.8923 0.8939
767.000000 0.8946 0.8951 0.8956 0.8961 0.8996
772.000000 0.8969 0.8971 0.8973 0.8976 0.8978
777.000000 0.8980 0.8976 0.8971 0.8967 0.8963
782.000000 0.8958 0.8950 0.8942 0.8933 0.8925
787.000000 0.8916 0.8908 0.8893 0.8877 0.8862
792.000000 0.8847 0.8825 0.8801 0.8777 0.8736
797.000000 0.8695 0.8654 0.8533 0.8281 0.8028
802.000000 0.7776 0.7523 0.7271 0.7088 0.7086
807.000000 0.7125 0.7194 0.7257 0.7256 0.7208
812.000000 0.7084 0.6961 0.6837 0.6714 0.6547
817.000000 0.6547 0.6547 0.6550 0.6560 0.6717
822.000000 0.6884 0.7050 0.7216 0.7382 0.7548
827.000000 0.7714 0.7880 0.8046 0.8212 0.8377
832.000000 0.8420 0.8490 0.8506 0.8508 0.8526
837.000000 0.8507 0.8502 0.8310 0.8117 0.7924
842.000000 0.7731 0.7538 0.7346 0.7153 0.6960
847.000000 0.6767 0.6752 0.6755 0.6743 0.6885
852.000000 0.7112 0.7339 0.7566 0.7793 0.8020
857.000000 0.8104 0.8153 0.8203 0.8253 0.8332
862.000000 0.8416 0.8530 0.8687 0.8743 0.8798
867.000000 0.8853 0.8901 0.8922 0.8942 0.8963
872.000000 0.8983 0.9006 0.8980 0.8977 0.8974
877.000000 0.8968 0.8956 0.8944 0.8932 0.8916
882.000000 0.8891 0.8866 0.8841 0.8814 0.8785
887.000000 0.8755 0.8729 0.8719 0.8708 0.8698
892.000000 0.8690 0.8685 0.8692 0.8702 0.8712
897.000000 0.8722 0.8732 0.8752 0.8771 0.8791
902.000000 0.8810 0.8828 0.8846 0.8863 0.8881
907.000000 0.8899 0.8901 0.8903 0.8905 0.8926
912.000000 0.8908 0.8908 0.8898 0.8889 0.8879
917.000000 0.8869 0.8855 0.8833 0.8811 0.8789
922.000000 0.8764 0.8739 0.8710 0.8681 0.8652
927.000000 0.8620 0.8587 0.8554 0.8521 0.8478
932.000000 0.8435 0.8392 0.8349 0.8333 0.8316
937.000000 0.8299 0.8283 0.8266 0.8250 0.8234
942.000000 0.8150 0.7993 0.7793 0.7593 0.7394
947.000000 0.7194 0.6994 0.6794 0.6594 0.6432
952.000000 0.6441 0.6446 0.6603 0.6792 0.6981
957.000000 0.7170 0.7359 0.7548 0.7737 0.7926
962.000000 0.8107 0.8185 0.8261 0.8328 0.8369
967.000000 0.8410 0.8451 0.8490 0.8508 0.8525
972.000000 0.8543 0.8556 0.8561 0.8567 0.8572
977.000000 0.8621 0.8587 0.8594 0.8602 0.8610
982.000000 0.8615 0.8615 0.8615 0.8594 0.8570
987.000000 0.8545 0.8504 0.8464 0.8423 0.8401
992.000000 0.8382 0.8364 0.8362 0.8374 0.8369
997.000000 0.8377 0.8386 0.8394 0.8443 0.8523
1002.000000 0.8594 0.8638 0.8686 0.8735 0.8763
1007.000000 0.8775 0.8784 0.8778 0.8767 0.8757
1012.000000 0.8746 0.8729 0.8703 0.8677 0.8651
1017.000000 0.8615 0.8571 0.8527 0.8477 0.8412
1022.000000 0.8347 0.8248 0.8219 0.8213 0.8214
1027.000000 0.8216 0.8268 0.8335 0.8402 0.8469
1032.000000 0.8488 0.8484 0.8477 0.8430 0.8403
1037.000000 0.8384 0.8380 0.8382 0.8383 0.8391
1042.000000 0.8399 0.8413 0.8441 0.8469 0.8500
1047.000000 0.8531 0.8562 0.8593 0.8628 0.8663
1052.000000 0.8699 0.8734 0.8752 0.8767 0.8782
1057.000000 0.8789 0.8824 0.8787 0.8781 0.8767
1062.000000 0.8753 0.8737 0.8714 0.8691 0.8669
1067.000000 0.8618 0.8531 0.8445 0.8359 0.8293
1072.000000 0.8299 0.8296 0.8307 0.8391 0.8486
1077.000000 0.8582 0.8678 0.8774 0.8847 0.8854
1082.000000 0.8861 0.8860 0.8860 0.8895 0.8858
1087.000000 0.8858 0.8854 0.8851 0.8847 0.8843
1092.000000 0.8840 0.8836 0.8830 0.8823 0.8816
1097.000000 0.8810 0.8803 0.8796 0.8779 0.8760
1102.000000 0.8741 0.8723 0.8704 0.8681 0.8656
1107.000000 0.8632 0.8607 0.8580 0.8536 0.8522
1112.000000 0.8530 0.8532 0.8542 0.8560 0.8579
1117.000000 0.8597 0.8625 0.8654 0.8683 0.8709
1122.000000 0.8732 0.8756 0.8780 0.8797 0.8839
1127.000000 0.8810 0.8817 0.8816 0.8810 0.8804
1132.000000 0.8797 0.8785 0.8773 0.8758 0.8738
1137.000000 0.8718 0.8698 0.8679 0.8652 0.8618
1142.000000 0.8584 0.8551 0.8512 0.8458 0.8403
1147.000000 0.8349 0.8230 0.8069 0.8016 0.7990
1152.000000 0.8000 0.8020 0.8079 0.8173 0.8221
1157.000000 0.8261 0.8286 0.8310 0.8330 0.8351
1162.000000 0.8357 0.8372 0.8355 0.8343 0.8178
1167.000000 0.7989 0.7801 0.7612 0.7424 0.7235
1172.000000 0.7046 0.6858 0.6669 0.6623 0.6677
1177.000000 0.6878 0.7079 0.7280 0.7481 0.7681
1182.000000 0.7882 0.8083 0.8283 0.8376 0.8415
1187.000000 0.8439 0.8447 0.8493 0.8441 0.8416
1192.000000 0.8377 0.8336 0.8296 0.8256 0.8162
1197.000000 0.7975 0.7788 0.7600 0.7413 0.7225
1202.000000 0.7038 0.6850 0.6663 0.6475 0.6288
1207.000000 0.6100 0.5913 0.5781 0.5760 0.5787
1212.000000 0.5869 0.6143 0.6417 0.6691 0.6965
1217.000000 0.7239 0.7513 0.7787 0.8016 0.8135
1222.000000 0.8240 0.8337 0.8405 0.8472 0.8539
1227.000000 0.8583 0.8600 0.8616 0.8630 0.8620
1232.000000 0.8619 0.8608 0.8597 0.8571 0.8542
1237.000000 0.8512 0.8482 0.8452 0.8417 0.8382
1242.000000 0.8348 0.8300 0.8248 0.8197 0.8146
1247.000000 0.8087 0.8017 0.7948 0.7878 0.7803
1252.000000 0.7717 0.7630 0.7543 0.7435 0.7303
1257.000000 0.7170 0.6685 0.6269 0.5854 0.5439
1262.000000 0.5024 0.4608 0.4193 0.3778 0.3635
1267.000000 0.3641 0.3623 0.4139 0.4448 0.4758
1272.000000 0.5067 0.5376 0.5841 0.5965 0.6045
1277.000000 0.6111 0.6178 0.6244 0.6310 0.6376
1282.000000 0.6443 0.6559 0.6470 0.6221 0.5973
1287.000000 0.5724 0.5476 0.5227 0.4979 0.4730
1292.000000 0.4482 0.4234 0.3985 0.3779 0.3758
1297.000000 0.3794 0.4176 0.4641 0.5106 0.5571
1302.000000 0.6680 0.6502 0.6660 0.6650 0.6570
1307.000000 0.6269 0.5968 0.5668 0.5367 0.5066
1312.000000 0.4765 0.4465 0.4280 0.4263 0.4619
1317.000000 0.5111 0.5603 0.6094 0.6586 0.7078
1322.000000 0.7569 0.7731 0.8060 0.8154 0.8259
1327.000000 0.8421 0.8480 0.8540 0.8591 0.8601
1332.000000 0.8612 0.8623 0.8634 0.8645 0.8651
1337.000000 0.8656 0.8662 0.8667 0.8672 0.8678
1342.000000 0.8683 0.8688 0.8692 0.8695 0.8699
1347.000000 0.8702 0.8706 0.8710 0.8713 0.8716
1352.000000 0.8730 0.8721 0.8723 0.8725 0.8727
1357.000000 0.8729 0.8731 0.8733 0.8733 0.8730
1362.000000 0.8727 0.8723 0.8716 0.8696 0.8676
1367.000000 0.8656 0.8637 0.8598 0.8552 0.8505
1372.000000 0.8445 0.8368 0.8291 0.8145 0.8019
1377.000000 0.7931 0.7853 0.7839 0.7838 0.7839
1382.000000 0.7859 0.7906 0.7952 0.7999 0.8045
1387.000000 0.8097 0.8071 0.8053 0.7986 0.7919
1392.000000 0.7852 0.7785 0.7718 0.7651 0.7584
1397.000000 0.7563 0.7545 0.7569 0.7600 0.7680
1402.000000 0.7761 0.7841 0.7922 0.8002 0.8083
1407.000000 0.8163 0.8244 0.8327 0.8397 0.8419
1412.000000 0.8442 0.8464 0.8468 0.8469 0.8455
1417.000000 0.8471 0.8468 0.8463 0.8457 0.8452
1422.000000 0.8443 0.8424 0.8392 0.8359 0.8325
1427.000000 0.8273 0.8221 0.8159 0.8088 0.8016
1432.000000 0.7864 0.7741 0.7658 0.7574 0.7490
1437.000000 0.7411 0.7333 0.7256 0.7008 0.6678
1442.000000 0.6347 0.6016 0.5685 0.5354 0.5024
1447.000000 0.4693 0.4661 0.5057 0.5820 0.6583
1452.000000 0.7283 0.7375 0.7539 0.7622 0.7681
1457.000000 0.7740 0.7800 0.7847 0.7888 0.7930
1462.000000 0.7971 0.8012 0.8054 0.8095 0.8128
1467.000000 0.8155 0.8181 0.8208 0.8235 0.8261
1472.000000 0.8273 0.8284 0.8295 0.8306 0.8301
1477.000000 0.8287 0.8290 0.8284 0.8272 0.8254
1482.000000 0.8236 0.8217 0.8185 0.8145 0.8104
1487.000000 0.8044 0.7978 0.7905 0.7826 0.7696
1492.000000 0.7564 0.7432 0.7299 0.7167 0.7035
1497.000000 0.6903 0.6902 0.6897 0.7194 0.7422
1502.000000 0.7649 0.7877 0.8105 0.8254 0.8320
1507.000000 0.8402 0.8471 0.8519 0.8567 0.8599
1512.000000 0.8613 0.8628 0.8643 0.8657 0.8660
1517.000000 0.8664 0.8667 0.8671 0.8675 0.8677
1522.000000 0.8676 0.8676 0.8675 0.8675 0.8678
1527.000000 0.8674 0.8673 0.8673 0.8672 0.8672
1532.000000 0.8670 0.8665 0.8661 0.8657 0.8652
1537.000000 0.8648 0.8644 0.8639 0.8635 0.8631
1542.000000 0.8626 0.8621 0.8609 0.8597 0.8586
1547.000000 0.8574 0.8562 0.8551 0.8537 0.8522
1552.000000 0.8506 0.8490 0.8475 0.8459 0.8441
1557.000000 0.8419 0.8396 0.8373 0.8350 0.8326
1562.000000 0.8285 0.8244 0.8203 0.8161 0.8120
1567.000000 0.8025 0.7928 0.7832 0.7733 0.7610
1572.000000 0.7487 0.7361 0.7229 0.7096 0.6963
1577.000000 0.6830 0.6698 0.6691 0.6687 0.6825
1582.000000 0.7094 0.7362 0.7630 0.7899 0.7913
1587.000000 0.7687 0.7455 0.7224 0.6992 0.6761
1592.000000 0.6529 0.6298 0.6066 0.5835 0.5603
1597.000000 0.5439 0.5425 0.5635 0.6014 0.6392
1602.000000 0.6771 0.7149 0.7528 0.7784 0.7798
1607.000000 0.7813 0.7827 0.7842 0.7874 0.7907
1612.000000 0.7940 0.7975 0.8011 0.8045 0.8074
1617.000000 0.8103 0.8132 0.8154 0.8174 0.8192
1622.000000 0.8181 0.8199 0.8195 0.8192 0.8184
1627.000000 0.8174 0.8165 0.8148 0.8131 0.8114
1632.000000 0.8097 0.8080 0.8062 0.8039 0.8016
1637.000000 0.7993 0.7955 0.7915 0.7875 0.7821
1642.000000 0.7759 0.7697 0.7611 0.7480 0.7304
1647.000000 0.7015 0.6708 0.6400 0.6092 0.5785
1652.000000 0.5477 0.5170 0.4862 0.4554 0.4247
1657.000000 0.3939 0.3632 0.3324 0.3016 0.2709
1662.000000 0.2401 0.2094 0.1786 0.1488 0.1485
1667.000000 0.1495 0.1500 0.1800 0.2251 0.2702
1672.000000 0.3153 0.3604 0.4055 0.4506 0.4957
1677.000000 0.5408 0.5859 0.6310 0.6762 0.7066
1682.000000 0.7232 0.7495 0.7643 0.7781 0.7901
1687.000000 0.8020 0.8078 0.8126 0.8174 0.8215
1692.000000 0.8241 0.8267 0.8293 0.8319 0.8345
1697.000000 0.8367 0.8387 0.8407 0.8428 0.8448
1702.000000 0.8469 0.8499 0.8532 0.8566 0.8599
1707.000000 0.8629 0.8656 0.8683 0.8709 0.8736
1712.000000 0.8763 0.8777 0.8789 0.8801 0.8814
1717.000000 0.8826 0.8839 0.8846 0.8854 0.8861
1722.000000 0.8868 0.8875 0.8882 0.8889 0.8895
1727.000000 0.8896 0.8897 0.8899 0.8900 0.8901
1732.000000 0.8902 0.8903 0.8904 0.8905 0.8906
1737.000000 0.8909 0.8913 0.8916 0.8920 0.8926
1742.000000 0.8932 0.8939 0.8946 0.8954 0.8962
1747.000000 0.8971 0.8979 0.8988 0.8996 0.9005
1752.000000 0.9013 0.9022 0.9030 0.9031 0.9031
1757.000000 0.9031 0.9031 0.9031 0.9030 0.9024
1762.000000 0.9018 0.9012 0.9006 0.9000 0.8994
1767.000000 0.8988 0.8982 0.8977 0.8971 0.8965
1772.000000 0.8960 0.8954 0.8949 0.8951 0.8952
1777.000000 0.8954 0.8956 0.8957 0.8959 0.8962
1782.000000 0.8965 0.8968 0.8971 0.8975 0.8980
1787.000000 0.8985 0.8991 0.8996 0.9002 0.9007
1792.000000 0.9012 0.9015 0.9018 0.9021 0.9024
1797.000000 0.9027 0.9030 0.9033 0.9031 0.9029
1802.000000 0.9028 0.9026 0.9024 0.9022 0.9021
1807.000000 0.9017 0.9013 0.9009 0.9005 0.9001
1812.000000 0.8997 0.8993 0.8990 0.8986 0.8982
1817.000000 0.8981 0.8981 0.8981 0.8982 0.8982
1822.000000 0.8982 0.8987 0.8991 0.8996 0.9001
1827.000000 0.9006 0.9010 0.9015 0.9020 0.9024
1832.000000 0.9028 0.9032 0.9036 0.9039 0.9043
1837.000000 0.9047 0.9044 0.9040 0.9035 0.9031
1842.000000 0.9026 0.9021 0.9018 0.9018 0.9019
1847.000000 0.9019 0.9019 0.9019 0.9019 0.9022
1852.000000 0.9026 0.9030 0.9034 0.9038 0.9041
1857.000000 0.9045 0.9049 0.9053 0.9057 0.9061
1862.000000 0.9063 0.9066 0.9068 0.9071 0.9073
1867.000000 0.9076 0.9079 0.9081 0.9084 0.9086
1872.000000 0.9090 0.9093 0.9097 0.9100 0.9103
1877.000000 0.9107 0.9105 0.9104 0.9102 0.9100
1882.000000 0.9099 0.9097 0.9096 0.9093 0.9086
1887.000000 0.9080 0.9073 0.9066 0.9059 0.9052
1892.000000 0.9045 0.9038 0.9032 0.9024 0.9016
1897.000000 0.9008 0.8999 0.8991 0.8983 0.8975
1902.000000 0.8967 0.8959 0.8950 0.8942 0.8935
1907.000000 0.8932 0.8929 0.8926 0.8924 0.8921
1912.000000 0.8920 0.8922 0.8924 0.8926 0.8929
1917.000000 0.8931 0.8933 0.8935 0.8938 0.8940
1922.000000 0.8945 0.8950 0.8955 0.8960 0.8966
1927.000000 0.8971 0.8976 0.8981 0.8987 0.8992
1932.000000 0.8997 0.9002 0.9008 0.9015 0.9021
1937.000000 0.9028 0.9035 0.9041 0.9048 0.9055
1942.000000 0.9061 0.9068 0.9075 0.9078 0.9077
1947.000000 0.9076 0.9075 0.9074 0.9073 0.9072
1952.000000 0.9071 0.9070 0.9068 0.9065 0.9063
1957.000000 0.9060 0.9058 0.9055 0.9053 0.9050
1962.000000 0.9048 0.9043 0.9037 0.9032 0.9026
1967.000000 0.9020 0.9015 0.9012 0.9010 0.9007
1972.000000 0.9005 0.9003 0.9000 0.8998 0.9003
1977.000000 0.9008 0.9013 0.9017 0.9022 0.9026
1982.000000 0.9031 0.9035 0.9040 0.9045 0.9049
1987.000000 0.9054 0.9059 0.9064 0.9069 0.9073
1992.000000 0.9076 0.9080 0.9084 0.9087 0.9091
1997.000000 0.9095 0.9099 0.9103 0.9107 0.9111
2002.000000 0.9115 0.9117 0.9119 0.9121 0.9123
2007.000000 0.9125 0.9127 0.9129 0.9131 0.9133
2012.000000 0.9135 0.9136 0.9138 0.9139 0.9141
2017.000000 0.9142 0.9143 0.9144 0.9146 0.9147
2022.000000 0.9149 0.9150 0.9151 0.9152 0.9154
2027.000000 0.9155 0.9156 0.9157 0.9158 0.9158
2032.000000 0.9158 0.9158 0.9158 0.9157 0.9157
2037.000000 0.9157 0.9157 0.9157 0.9157 0.9157
2042.000000 0.9157 0.9157 0.9157 0.9156 0.9156
2047.000000 0.9156 0.9156 0.9156 0.9156 0.9156
2052.000000 0.9156 0.9156 0.9156 0.9156 0.9157
2057.000000 0.9157 0.9157 0.9157 0.9157 0.9157
2062.000000 0.9157 0.9157 0.9157 0.9157 0.9157
2067.000000 0.9157 0.9157 0.9157 0.9157 0.9157
2072.000000 0.9158 0.9158 0.9158 0.9158 0.9158
2077.000000 0.9158 0.9158 0.9158 0.9158 0.9158
2082.000000 0.9158 0.9158 0.9158 0.9158 0.9158
2087.000000 0.9158 0.9158 0.9158 0.9158 0.9157
2092.000000 0.9157 0.9157 0.9157 0.9156 0.9156
2097.000000 0.9155 0.9155 0.9155 0.9155 0.9154
2102.000000 0.9154 0.9154 0.9154 0.9153 0.9153
2107.000000 0.9152 0.9152 0.9152 0.9152 0.9151
2112.000000 0.9151 0.9151 0.9151 0.9150 0.9150
2117.000000 0.9150 0.9151 0.9151 0.9151 0.9151
2122.000000 0.9152 0.9152 0.9152 0.9152 0.9153
2127.000000 0.9153 0.9153 0.9153 0.9153 0.9153
2132.000000 0.9154 0.9154 0.9154 0.9154 0.9155
2137.000000 0.9155 0.9155 0.9155 0.9156 0.9156
2142.000000 0.9156 0.9156 0.9157 0.9157 0.9157
2147.000000 0.9157 0.9158 0.9158 0.9158 0.9158
2152.000000 0.9159 0.9159 0.9159 0.9159 0.9159
2157.000000 0.9158 0.9158 0.9158 0.9158 0.9157
2162.000000 0.9157 0.9156 0.9156 0.9155 0.9155
2167.000000 0.9155 0.9155 0.9154 0.9154 0.9153
2172.000000 0.9153 0.9152 0.9152 0.9151 0.9151
2177.000000 0.9151 0.9151 0.9150 0.9150 0.9149
2182.000000 0.9149 0.9148 0.9148 0.9148 0.9148
2187.000000 0.9147 0.9147 0.9146 0.9146 0.9145
2192.000000 0.9145 0.9144 0.9144 0.9144 0.9144
2197.000000 0.9143 0.9143 0.9142 0.9142 0.9141
2202.000000 0.9141 0.9141 0.9141 0.9140 0.9140
2207.000000 0.9139 0.9139 0.9138 0.9138 0.9137
2212.000000 0.9137 0.9137 0.9137 0.9136 0.9136
2217.000000 0.9135 0.9135 0.9134 0.9134 0.9133
2222.000000 0.9133 0.9133 0.9133 0.9132 0.9132
2227.000000 0.9131 0.9131 0.9130 0.9130 0.9129
2232.000000 0.9129 0.9128 0.9128 0.9127 0.9127
2237.000000 0.9127 0.9127 0.9126 0.9126 0.9125
2242.000000 0.9125 0.9124 0.9124 0.9123 0.9123
2247.000000 0.9122 0.9122 0.9121 0.9121 0.9121
2252.000000 0.9121 0.9120 0.9120 0.9119 0.9119
2257.000000 0.9118 0.9118 0.9117 0.9122 0.9116
2262.000000 0.9116 0.9115 0.9115 0.9115 0.9115
2267.000000 0.9114 0.9114 0.9113 0.9113 0.9113
2272.000000 0.9114 0.9114 0.9115 0.9116 0.9117
2277.000000 0.9117 0.9118 0.9118 0.9119 0.9120
2282.000000 0.9121 0.9121 0.9122 0.9123 0.9124
2287.000000 0.9124 0.9125 0.9125 0.9126 0.9127
2292.000000 0.9128 0.9128 0.9129 0.9129 0.9130
2297.000000 0.9131 0.9132 0.9132 0.9133 0.9134
2302.000000 0.9135 0.9134 0.9134 0.9133 0.9132
2307.000000 0.9131 0.9130 0.9129 0.9129 0.9128
2312.000000 0.9127 0.9126 0.9125 0.9124 0.9123
2317.000000 0.9122 0.9121 0.9120 0.9119 0.9118
2322.000000 0.9117 0.9116 0.9115 0.9113 0.9112
2327.000000 0.9111 0.9110 0.9109 0.9108 0.9106
2332.000000 0.9105 0.9104 0.9104 0.9104 0.9105
2337.000000 0.9106 0.9107 0.9107 0.9108 0.9109
2342.000000 0.9110 0.9111 0.9112 0.9112 0.9113
2347.000000 0.9114 0.9115 0.9115 0.9116 0.9117
2352.000000 0.9118 0.9117 0.9117 0.9116 0.9115
2357.000000 0.9114 0.9114 0.9113 0.9112 0.9111
2362.000000 0.9111 0.9110 0.9109 0.9108 0.9108
2367.000000 0.9107 0.9106 0.9105 0.9105 0.9104
2372.000000 0.9103 0.9102 0.9101 0.9100 0.9099
2377.000000 0.9098 0.9097 0.9095 0.9094 0.9093
2382.000000 0.9092 0.9090 0.9089 0.9088 0.9087
2387.000000 0.9085 0.9084 0.9083 0.9082 0.9080
2392.000000 0.9079 0.9078 0.9077 0.9075 0.9074
2397.000000 0.9073 0.9072 0.9071 0.9071 0.9071
2402.000000 0.9071 0.9071 0.9072 0.9072 0.9072
2407.000000 0.9072 0.9073 0.9073 0.9074 0.9074
2412.000000 0.9074 0.9074 0.9075 0.9076 0.9078
2417.000000 0.9079 0.9081 0.9082 0.9083 0.9084
2422.000000 0.9086 0.9087 0.9088 0.9089 0.9091
2427.000000 0.9092 0.9094 0.9095 0.9096 0.9097
2432.000000 0.9099 0.9099 0.9100 0.9101 0.9102
2437.000000 0.9102 0.9103 0.9103 0.9104 0.9105
2442.000000 0.9106 0.9106 0.9107 0.9107 0.9108
2447.000000 0.9108 0.9109 0.9110 0.9111 0.9111
2452.000000 0.9112 0.9112 0.9113 0.9114 0.9115
2457.000000 0.9115 0.9116 0.9116 0.9117 0.9117
2462.000000 0.9118 0.9117 0.9117 0.9116 0.9116
2467.000000 0.9115 0.9115 0.9114 0.9114 0.9113
2472.000000 0.9113 0.9112 0.9111 0.9110 0.9110
2477.000000 0.9109 0.9109 0.9108 0.9108 0.9107
2482.000000 0.9107 0.9106 0.9106 0.9105 0.9105
2487.000000 0.9104 0.9104 0.9103 0.9103 0.9102
2492.000000 0.9101 0.9100 0.9100 0.9099 0.9099
2497.000000 0.9098 0.9098 0.9097 0.9097 0.9096
2502.000000 0.9096 0.9095 0.9095 0.9094 0.9094
2507.000000 0.9093 0.9093 0.9092 0.9092 0.9091
2512.000000 0.9091 0.9090 0.9090 0.9089 0.9089
2517.000000 0.9088 0.9088 0.9087 0.9087 0.9086
2522.000000 0.9085 0.9084 0.9084 0.9083 0.9083
2527.000000 0.9082 0.9082 0.9081 0.9081 0.9080
2532.000000 0.9080 0.9079 0.9079 0.9078 0.9078
2537.000000 0.9077 0.9077 0.9076 0.9076 0.9075
2542.000000 0.9075 0.9074 0.9074 0.9073 0.9073
2547.000000 0.9072 0.9072 0.9071 0.9071 0.9070
2552.000000 0.9070 0.9069 0.9069 0.9069 0.9069
2557.000000 0.9068 0.9068 0.9067 0.9067 0.9066
2562.000000 0.9066 0.9065 0.9065 0.9064 0.9064
2567.000000 0.9063 0.9063 0.9062 0.9062 0.9061
2572.000000 0.9061 0.9060 0.9060 0.9059 0.9059
2577.000000 0.9058 0.9058 0.9057 0.9056 0.9055
2582.000000 0.9054 0.9052 0.9051 0.9050 0.9049
2587.000000 0.9048 0.9047 0.9046 0.9045 0.9043
2592.000000 0.9042 0.9043 0.9045 0.9046 0.9047
2597.000000 0.9048 0.9050 0.9051 0.9052 0.9055
2602.000000 0.9058 0.9061 0.9065 0.9068 0.9072
2607.000000 0.9075 0.9079 0.9080 0.9082 0.9083
2612.000000 0.9085 0.9086 0.9088 0.9089 0.9091
2617.000000 0.9092 0.9094 0.9094 0.9094 0.9093
2622.000000 0.9093 0.9092 0.9092 0.9091 0.9091
2627.000000 0.9090 0.9090 0.9089 0.9089 0.9088
2632.000000 0.9088 0.9087 0.9086 0.9085 0.9084
2637.000000 0.9083 0.9083 0.9082 0.9081 0.9080
2642.000000 0.9079 0.9078 0.9078 0.9077 0.9076
2647.000000 0.9075 0.9075 0.9074 0.9073 0.9073
2652.000000 0.9073 0.9072 0.9072 0.9072 0.9072
2657.000000 0.9072 0.9072 0.9072 0.9072 0.9071
2662.000000 0.9071 0.9071 0.9071 0.9071 0.9071
2667.000000 0.9071 0.9071 0.9070 0.9069 0.9067
2672.000000 0.9066 0.9064 0.9063 0.9061 0.9060
2677.000000 0.9058 0.9057 0.9056 0.9055 0.9053
2682.000000 0.9052 0.9050 0.9049 0.9047 0.9046
2687.000000 0.9044 0.9043 0.9042 0.9041 0.9039
2692.000000 0.9038 0.9036 0.9035 0.9033 0.9032
2697.000000 0.9030 0.9029 0.9028 0.9027 0.9025
2702.000000 0.9024 0.9022 0.9021 0.9019 0.9018
2707.000000 0.9016 0.9015 0.9014 0.9013 0.9011
2712.000000 0.9010 0.9005 0.9000 0.8995 0.8990
2717.000000 0.8984 0.8979 0.8973 0.8968 0.8963
2722.000000 0.8958 0.8952 0.8947 0.8941 0.8936
2727.000000 0.8931 0.8926 0.8920 0.8915 0.8910
2732.000000 0.8905 0.8904 0.8904 0.8906 0.8908
2737.000000 0.8913 0.8918 0.8923 0.8928 0.8935
2742.000000 0.8943 0.8954 0.8966 0.8979 0.8993
2747.000000 0.9005 0.9017 0.9026 0.9035 0.9037
2752.000000 0.9040 0.9041 0.9043 0.9044 0.9045
2757.000000 0.9046 0.9047 0.9048 0.9049 0.9049
2762.000000 0.9049 0.9048 0.9048 0.9047 0.9047
2767.000000 0.9046 0.9045 0.9044 0.9044 0.9043
2772.000000 0.9043 0.9041 0.9040 0.9038 0.9036
2777.000000 0.9034 0.9033 0.9031 0.9030 0.9028
2782.000000 0.9027 0.9025 0.9024 0.9022 0.9021
2787.000000 0.9019 0.9018 0.9016 0.9014 0.9010
2792.000000 0.9007 0.9003 0.9000 0.8996 0.8993
2797.000000 0.8989 0.8986 0.8982 0.8978 0.8974
2802.000000 0.8971 0.8967 0.8963 0.8956 0.8950
2807.000000 0.8943 0.8937 0.8930 0.8924 0.8917
2812.000000 0.8911 0.8904 0.8898 0.8891 0.8885
2817.000000 0.8878 0.8872 0.8864 0.8857 0.8844
2822.000000 0.8831 0.8818 0.8805 0.8792 0.8780
2827.000000 0.8767 0.8754 0.8741 0.8728 0.8715
2832.000000 0.8702 0.8685 0.8669 0.8648 0.8628
2837.000000 0.8607 0.8586 0.8565 0.8545 0.8524
2842.000000 0.8504 0.8481 0.8459 0.8433 0.8408
2847.000000 0.8383 0.8358 0.8333 0.8308 0.8283
2852.000000 0.8259 0.8237 0.8215 0.8192 0.8170
2857.000000 0.8148 0.8126 0.8096 0.8066 0.8042
2862.000000 0.8019 0.8021 0.8024 0.8027 0.8031
2867.000000 0.8034 0.8037 0.8049 0.8061 0.8075
2872.000000 0.8089 0.8104 0.8120 0.8135 0.8151
2877.000000 0.8164 0.8178 0.8190 0.8203 0.8202
2882.000000 0.8202 0.8201 0.8201 0.8200 0.8199
2887.000000 0.8198 0.8198 0.8193 0.8188 0.8183
2892.000000 0.8178 0.8172 0.8167 0.8156 0.8146
2897.000000 0.8133 0.8121 0.8108 0.8096 0.8079
2902.000000 0.8063 0.8046 0.8030 0.7963 0.7896
2907.000000 0.7815 0.7735 0.7654 0.7574 0.7493
2912.000000 0.7413 0.7332 0.7252 0.7171 0.7090
2917.000000 0.7009 0.6929 0.6887 0.6827 0.6847
2922.000000 0.6849 0.6892 0.6935 0.7035 0.7136
2927.000000 0.7237 0.7338 0.7438 0.7539 0.7603
2932.000000 0.7668 0.7671 0.7674 0.7673 0.7672
2937.000000 0.7668 0.7665 0.7660 0.7655 0.7643
2942.000000 0.7631 0.7617 0.7603 0.7592 0.7581
2947.000000 0.7571 0.7561 0.7552 0.7544 0.7542
2952.000000 0.7540 0.7537 0.7535 0.7533 0.7531
2957.000000 0.7532 0.7533 0.7534 0.7536 0.7537
2962.000000 0.7538 0.7539 0.7541 0.7544 0.7547
2967.000000 0.7550 0.7554 0.7557 0.7561 0.7564
2972.000000 0.7567 0.7578 0.7589 0.7601 0.7614
2977.000000 0.7626 0.7639 0.7654 0.7670 0.7686
2982.000000 0.7702 0.7718 0.7735 0.7749 0.7763
2987.000000 0.7777 0.7791 0.7804 0.7818 0.7826
2992.000000 0.7835 0.7839 0.7843 0.7847 0.7852
2997.000000 0.7856 0.7860 0.7861 0.7862 0.7860
3002.000000 0.7859 0.7857 0.7856 0.7841 0.7827
3007.000000 0.7798 0.7769 0.7735 0.7702 0.7665
3012.000000 0.7628 0.7599 0.7570 0.7543 0.7517
3017.000000 0.7490 0.7464 0.7446 0.7429 0.7419
3022.000000 0.7387 0.7412 0.7415 0.7435 0.7456
3027.000000 0.7472 0.7489 0.7505 0.7522 0.7540
3032.000000 0.7558 0.7576 0.7594 0.7610 0.7627
3037.000000 0.7642 0.7657 0.7666 0.7676 0.7681
3042.000000 0.7686 0.7691 0.7697 0.7687 0.7708
3047.000000 0.7662 0.7648 0.7625 0.7602 0.7570
3052.000000 0.7539 0.7527 0.7516 0.7504 0.7493
3057.000000 0.7488 0.7483 0.7483 0.7484 0.7489
3062.000000 0.7477 0.7535 0.7577 0.7634 0.7692
3067.000000 0.7749 0.7806 0.7863 0.7920 0.7971
3072.000000 0.8023 0.8043 0.8064 0.8071 0.8079
3077.000000 0.8083 0.8088 0.8093 0.8098 0.8103
3082.000000 0.8108 0.8127 0.8147 0.8226 0.8306
3087.000000 0.8337 0.8369 0.8387 0.8406 0.8424
3092.000000 0.8443 0.8455 0.8467 0.8478 0.8490
3097.000000 0.8501 0.8513 0.8521 0.8530 0.8538
3102.000000 0.8547 0.8555 0.8564 0.8572 0.8580
3107.000000 0.8588 0.8597 0.8605 0.8613 0.8619
3112.000000 0.8625 0.8631 0.8637 0.8643 0.8649
3117.000000 0.8655 0.8661 0.8667 0.8673 0.8679
3122.000000 0.8685 0.8691 0.8697 0.8703 0.8709
3127.000000 0.8714 0.8720 0.8723 0.8726 0.8728
3132.000000 0.8731 0.8734 0.8737 0.8740 0.8743
3137.000000 0.8746 0.8749 0.8752 0.8755 0.8757
3142.000000 0.8760 0.8763 0.8766 0.8769 0.8772
3147.000000 0.8775 0.8778 0.8779 0.8780 0.8781
3152.000000 0.8783 0.8784 0.8785 0.8786 0.8788
3157.000000 0.8789 0.8790 0.8791 0.8793 0.8794
3162.000000 0.8795 0.8796 0.8798 0.8799 0.8801
3167.000000 0.8802 0.8803 0.8804 0.8806 0.8807
3172.000000 0.8808 0.8809 0.8811 0.8812 0.8813
3177.000000 0.8814 0.8816 0.8817 0.8819 0.8820
3182.000000 0.8822 0.8823 0.8825 0.8826 0.8828
3187.000000 0.8829 0.8831 0.8832 0.8834 0.8835
3192.000000 0.8836 0.8837 0.8839 0.8840 0.8842
3197.000000 0.8843 0.8845 0.8846 0.8848 0.8849
3202.000000 0.8851 0.8852 0.8853 0.8853 0.8854
3207.000000 0.8854 0.8855 0.8855 0.8856 0.8856
3212.000000 0.8857 0.8857 0.8858 0.8858 0.8859
3217.000000 0.8859 0.8860 0.8860 0.8861 0.8861
3222.000000 0.8862 0.8863 0.8864 0.8864 0.8865
3227.000000 0.8865 0.8866 0.8866 0.8867 0.8866
3232.000000 0.8866 0.8865 0.8864 0.8863 0.8863
3237.000000 0.8862 0.8861 0.8860 0.8860 0.8859
3242.000000 0.8858 0.8857 0.8857 0.8856 0.8855
3247.000000 0.8854 0.8854 0.8853 0.8853 0.8852
3252.000000 0.8851 0.8850 0.8850 0.8849 0.8848
3257.000000 0.8847 0.8847 0.8846 0.8845 0.8844
3262.000000 0.8844 0.8843 0.8842 0.8840 0.8839
3267.000000 0.8837 0.8835 0.8833 0.8831 0.8829
3272.000000 0.8827 0.8825 0.8823 0.8821 0.8819
3277.000000 0.8817 0.8815 0.8813 0.8812 0.8810
3282.000000 0.8808 0.8806 0.8804 0.8802 0.8800
3287.000000 0.8798 0.8796 0.8794 0.8792 0.8789
3292.000000 0.8786 0.8782 0.8778 0.8773 0.8769
3297.000000 0.8765 0.8761 0.8757 0.8753 0.8748
3302.000000 0.8744 0.8740 0.8736 0.8732 0.8728
3307.000000 0.8727 0.8726 0.8725 0.8725 0.8724
3312.000000 0.8724 0.8726 0.8728 0.8730 0.8732
3317.000000 0.8733 0.8735 0.8737 0.8739 0.8740
3322.000000 0.8742 0.8744 0.8746 0.8749 0.8752
3327.000000 0.8757 0.8762 0.8767 0.8772 0.8777
3332.000000 0.8782 0.8787 0.8792 0.8797 0.8803
3337.000000 0.8808 0.8813 0.8818 0.8823 0.8827
3342.000000 0.8831 0.8835 0.8839 0.8842 0.8846
3347.000000 0.8850 0.8854 0.8857 0.8861 0.8865
3352.000000 0.8869 0.8872 0.8876 0.8880 0.8884
3357.000000 0.8885 0.8886 0.8886 0.8886 0.8886
3362.000000 0.8887 0.8887 0.8888 0.8888 0.8889
3367.000000 0.8889 0.8889 0.8889 0.8890 0.8890
3372.000000 0.8891 0.8891 0.8891 0.8891 0.8892
3377.000000 0.8892 0.8893 0.8893 0.8894 0.8894
3382.000000 0.8895 0.8895 0.8896 0.8896 0.8897
3387.000000 0.8897 0.8898 0.8898 0.8899 0.8899
3392.000000 0.8900 0.8900 0.8901 0.8901 0.8902
3397.000000 0.8902 0.8903 0.8903 0.8904 0.8904
3402.000000 0.8905 0.8905 0.8906 0.8906 0.8907
3407.000000 0.8907 0.8908 0.8908 0.8909 0.8909
3412.000000 0.8910 0.8910 0.8911 0.8911 0.8912
3417.000000 0.8913 0.8914 0.8914 0.8915 0.8915
3422.000000 0.8916 0.8916 0.8917 0.8917 0.8918
3427.000000 0.8918 0.8919 0.8919 0.8920 0.8921
3432.000000 0.8922 0.8922 0.8923 0.8923 0.8924
3437.000000 0.8924 0.8925 0.8925 0.8926 0.8926
3442.000000 0.8927 0.8928 0.8929 0.8929 0.8930
3447.000000 0.8930 0.8931 0.8931 0.8932 0.8932
3452.000000 0.8933 0.8933 0.8934 0.8934 0.8935
3457.000000 0.8936 0.8937 0.8937 0.8938 0.8938
3462.000000 0.8939 0.8939 0.8940 0.8940 0.8941
3467.000000 0.8941 0.8942 0.8942 0.8943 0.8944
3472.000000 0.8945 0.8945 0.8946 0.8946 0.8947
3477.000000 0.8947 0.8947 0.8946 0.8946 0.8946
3482.000000 0.8946 0.8946 0.8946 0.8946 0.8946
3487.000000 0.8946 0.8946 0.8946 0.8946 0.8946
3492.000000 0.8946 0.8946 0.8946 0.8946 0.8946
3497.000000 0.8946 0.8946 0.8946 0.8946 0.8946
3502.000000 0.8946 0.8946 0.8946 0.8946 0.8946
3507.000000 0.8946 0.8946 0.8946 0.8946 0.8946
3512.000000 0.8946 0.8945 0.8945 0.8945 0.8945
3517.000000 0.8945 0.8945 0.8945 0.8945 0.8945
3522.000000 0.8945 0.8945 0.8945 0.8945 0.8945
3527.000000 0.8945 0.8945 0.8945 0.8945 0.8945
3532.000000 0.8945 0.8945 0.8945 0.8945 0.8945
3537.000000 0.8945 0.8945 0.8945 0.8945 0.8945
3542.000000 0.8945 0.8945 0.8945 0.8945 0.8945
3547.000000 0.8944 0.8944 0.8944 0.8944 0.8943
3552.000000 0.8943 0.8943 0.8943 0.8942 0.8942
3557.000000 0.8941 0.8941 0.8941 0.8941 0.8940
3562.000000 0.8940 0.8940 0.8940 0.8939 0.8939
3567.000000 0.8938 0.8938 0.8938 0.8938 0.8937
3572.000000 0.8937 0.8936 0.8936 0.8936 0.8936
3577.000000 0.8935 0.8935 0.8935 0.8935 0.8934
3582.000000 0.8934 0.8933 0.8933 0.8933 0.8933
3587.000000 0.8932 0.8932 0.8932 0.8932 0.8931
3592.000000 0.8931 0.8930 0.8930 0.8930 0.8930
3597.000000 0.8929 0.8929 0.8929 0.8929 0.8928
3602.000000 0.8928 0.8927 0.8927 0.8927 0.8927
3607.000000 0.8926 0.8926 0.8926 0.8926 0.8925
3612.000000 0.8925 0.8924 0.8924 0.8924 0.8924
3617.000000 0.8923 0.8923 0.8923 0.8923 0.8922
3622.000000 0.8922 0.8921 0.8921 0.8921 0.8921
3627.000000 0.8920 0.8920 0.8919 0.8919 0.8919
3632.000000 0.8919 0.8918 0.8918 0.8918 0.8918
3637.000000 0.8917 0.8917 0.8916 0.8916 0.8916
3642.000000 0.8916 0.8915 0.8915 0.8915 0.8915
3647.000000 0.8914 0.8914 0.8913 0.8913 0.8913
3652.000000 0.8913 0.8912 0.8912 0.8912 0.8912
3657.000000 0.8911 0.8911 0.8910 0.8910 0.8910
3662.000000 0.8910 0.8909 0.8909 0.8909 0.8909
3667.000000 0.8908 0.8908 0.8907 0.8907 0.8907
3672.000000 0.8907 0.8906 0.8906 0.8906 0.8906
3677.000000 0.8905 0.8905 0.8904 0.8904 0.8904
3682.000000 0.8904 0.8903 0.8903 0.8903 0.8903
3687.000000 0.8902 0.8902 0.8901 0.8901 0.8901
3692.000000 0.8901 0.8900 0.8900 0.8900 0.8900
3697.000000 0.8899 0.8899 0.8899 0.8899 0.8899
3702.000000 0.8899 0.8899 0.8899 0.8898 0.8898
3707.000000 0.8898 0.8898 0.8898 0.8898 0.8897
3712.000000 0.8897 0.8897 0.8897 0.8897 0.8897
3717.000000 0.8896 0.8896 0.8896 0.8896 0.8896
3722.000000 0.8896 0.8895 0.8895 0.8895 0.8895
3727.000000 0.8895 0.8895 0.8894 0.8894 0.8894
3732.000000 0.8894 0.8894 0.8894 0.8893 0.8893
3737.000000 0.8893 0.8893 0.8893 0.8893 0.8893
3742.000000 0.8893 0.8893 0.8894 0.8894 0.8894
3747.000000 0.8894 0.8895 0.8895 0.8896 0.8896
3752.000000 0.8896 0.8896 0.8897 0.8897 0.8898
3757.000000 0.8898 0.8898 0.8898 0.8899 0.8899
3762.000000 0.8900 0.8900 0.8900 0.8900 0.8901
3767.000000 0.8901 0.8901 0.8901 0.8902 0.8902
3772.000000 0.8903 0.8903 0.8885 0.8903 0.8904
3777.000000 0.8904 0.8905 0.8905 0.8905 0.8905
3782.000000 0.8906 0.8906 0.8907 0.8907 0.8907
3787.000000 0.8907 0.8908 0.8908 0.8908 0.8908
3792.000000 0.8909 0.8909 0.8910
##END=
