##TITLE=METHANE, BIS(p-METHOXYPHENYL)CHLOROPHENYL
##JCAMP-DX=4.24
$$ By DXEDIT 1.05 (RS McDonald)
##DATA TYPE=INFRARED SPECTRUM
##CLASS=COBLENTZ II
##ORIGIN=DOW CHEMICAL COMPANY
##OWNER=COPYRIGHT (C) 1988 by COBLENTZ SOCIETY INC.
Collection (C) 2018 copyright by the U.S. Secretary of Commerce
on behalf of the United States of America. All rights reserved.
##DATE=1968/09/20
##NAMES=1-[chloro(4-methoxyphenyl)phenylmethyl]-4-methoxybenzene
Benzene, 1,1'-(chlorophenylmethylene)bis[4-methoxy-
##CAS REGISTRY NO=40615-36-9
##MOLFORM=C21 H19 Cl O2
##SOURCE REFERENCE=COBLENTZ NO. 08987
##$NIST SOURCE=COBLENTZ
##$NIST IMAGE=cob8987
##SPECTROMETER/DATA SYSTEM=DOW KBr FOREPRISM-GRATING
##INSTRUMENT PARAMETERS=BLAZED AT 3.5, 12.0, 20.0 MICRON AND CHANGED AT 5.0, 7.5, 14.9 MICRON
##STATE=SOLID (SPLIT MULL), FLUOROLUBE FOR 3800-1330 CM^-^1, NUJOL FOR 1330-470 CM^-^1
$$ SEE SPECTRUM NO. 8642 FOR "SOLUTION" RUN
$$ STRUCTURE VERIFIED BY MASS SPECTROMETRY
##SAMPLING PROCEDURE=TRANSMISSION
##RESOLUTION=2
##DATA PROCESSING=DIGITIZED BY COBLENTZ SOCIETY (BATCH I) FROM HARD COPY
##XUNITS=1/CM
##YUNITS=TRANSMITTANCE
##XFACTOR=1
##YFACTOR=1
##DELTAX=1
##FIRSTX=3800
##LASTX=467
##FIRSTY=0.6618
##MAXX=3800
##MINX=467
##MAXY=0.8897
##MINY=0.038
##NPOINTS=3334
##XYDATA=(X++(Y..Y))
3800.000000 0.6618 0.6617 0.6615 0.6614 0.6612
3795.000000 0.6611 0.6608 0.6607 0.6605 0.6604
3790.000000 0.6603 0.6601 0.6601 0.6600 0.6599
3785.000000 0.6598 0.6597 0.6596 0.6595 0.6594
3780.000000 0.6594 0.6593 0.6593 0.6593 0.6593
3775.000000 0.6593 0.6594 0.6594 0.6595 0.6595
3770.000000 0.6596 0.6598 0.6600 0.6603 0.6607
3765.000000 0.6611 0.6615 0.6618 0.6621 0.6626
3760.000000 0.6632 0.6638 0.6645 0.6651 0.6658
3755.000000 0.6665 0.6672 0.6682 0.6692 0.6701
3750.000000 0.6710 0.6715 0.6721 0.6726 0.6733
3745.000000 0.6738 0.6743 0.6748 0.6753 0.6754
3740.000000 0.6754 0.6754 0.6753 0.6750 0.6748
3735.000000 0.6744 0.6740 0.6736 0.6732 0.6728
3730.000000 0.6724 0.6718 0.6714 0.6708 0.6704
3725.000000 0.6699 0.6695 0.6690 0.6686 0.6684
3720.000000 0.6682 0.6681 0.6681 0.6681 0.6681
3715.000000 0.6681 0.6681 0.6680 0.6680 0.6680
3710.000000 0.6680 0.6678 0.6678 0.6678 0.6678
3705.000000 0.6678 0.6678 0.6678 0.6678 0.6680
3700.000000 0.6681 0.6681 0.6682 0.6683 0.6684
3695.000000 0.6684 0.6685 0.6686 0.6687 0.6687
3690.000000 0.6688 0.6689 0.6690 0.6690 0.6691
3685.000000 0.6691 0.6692 0.6693 0.6694 0.6694
3680.000000 0.6695 0.6696 0.6697 0.6697 0.6698
3675.000000 0.6699 0.6700 0.6700 0.6701 0.6701
3670.000000 0.6703 0.6703 0.6704 0.6705 0.6706
3665.000000 0.6706 0.6707 0.6708 0.6708 0.6708
3660.000000 0.6710 0.6711 0.6711 0.6711 0.6712
3655.000000 0.6714 0.6715 0.6715 0.6715 0.6717
3650.000000 0.6718 0.6718 0.6718 0.6718 0.6719
3645.000000 0.6721 0.6721 0.6721 0.6722 0.6722
3640.000000 0.6724 0.6725 0.6725 0.6725 0.6726
3635.000000 0.6728 0.6728 0.6728 0.6730 0.6730
3630.000000 0.6731 0.6732 0.6733 0.6733 0.6734
3625.000000 0.6734 0.6735 0.6735 0.6736 0.6736
3620.000000 0.6737 0.6737 0.6738 0.6738 0.6739
3615.000000 0.6739 0.6740 0.6740 0.6740 0.6740
3610.000000 0.6741 0.6741 0.6742 0.6742 0.6743
3605.000000 0.6743 0.6744 0.6744 0.6745 0.6745
3600.000000 0.6746 0.6746 0.6747 0.6747 0.6747
3595.000000 0.6747 0.6748 0.6748 0.6749 0.6749
3590.000000 0.6750 0.6750 0.6750 0.6750 0.6751
3585.000000 0.6751 0.6751 0.6751 0.6751 0.6751
3580.000000 0.6751 0.6751 0.6753 0.6753 0.6753
3575.000000 0.6753 0.6753 0.6753 0.6754 0.6754
3570.000000 0.6754 0.6754 0.6755 0.6755 0.6755
3565.000000 0.6755 0.6756 0.6756 0.6756 0.6756
3560.000000 0.6756 0.6756 0.6757 0.6757 0.6757
3555.000000 0.6757 0.6758 0.6758 0.6758 0.6757
3550.000000 0.6757 0.6757 0.6757 0.6756 0.6756
3545.000000 0.6756 0.6756 0.6756 0.6756 0.6755
3540.000000 0.6755 0.6755 0.6755 0.6754 0.6754
3535.000000 0.6754 0.6754 0.6754 0.6754 0.6753
3530.000000 0.6753 0.6753 0.6753 0.6751 0.6751
3525.000000 0.6751 0.6751 0.6751 0.6751 0.6751
3520.000000 0.6751 0.6751 0.6751 0.6751 0.6751
3515.000000 0.6750 0.6750 0.6750 0.6750 0.6750
3510.000000 0.6750 0.6750 0.6750 0.6750 0.6750
3505.000000 0.6749 0.6749 0.6749 0.6749 0.6749
3500.000000 0.6749 0.6749 0.6749 0.6749 0.6749
3495.000000 0.6748 0.6748 0.6748 0.6748 0.6748
3490.000000 0.6748 0.6748 0.6748 0.6748 0.6748
3485.000000 0.6747 0.6747 0.6747 0.6747 0.6747
3480.000000 0.6747 0.6747 0.6747 0.6746 0.6746
3475.000000 0.6746 0.6746 0.6746 0.6746 0.6745
3470.000000 0.6745 0.6745 0.6745 0.6745 0.6745
3465.000000 0.6745 0.6745 0.6744 0.6744 0.6744
3460.000000 0.6744 0.6744 0.6744 0.6743 0.6743
3455.000000 0.6742 0.6742 0.6741 0.6741 0.6740
3450.000000 0.6740 0.6740 0.6740 0.6739 0.6739
3445.000000 0.6738 0.6738 0.6737 0.6737 0.6736
3440.000000 0.6736 0.6735 0.6735 0.6734 0.6734
3435.000000 0.6733 0.6733 0.6732 0.6732 0.6731
3430.000000 0.6731 0.6730 0.6730 0.6728 0.6728
3425.000000 0.6728 0.6726 0.6725 0.6725 0.6724
3420.000000 0.6722 0.6721 0.6721 0.6719 0.6718
3415.000000 0.6718 0.6717 0.6715 0.6715 0.6714
3410.000000 0.6712 0.6711 0.6711 0.6710 0.6708
3405.000000 0.6708 0.6707 0.6706 0.6705 0.6703
3400.000000 0.6701 0.6701 0.6700 0.6700 0.6700
3395.000000 0.6699 0.6699 0.6699 0.6699 0.6698
3390.000000 0.6698 0.6698 0.6698 0.6698 0.6698
3385.000000 0.6697 0.6697 0.6697 0.6697 0.6696
3380.000000 0.6696 0.6696 0.6696 0.6696 0.6696
3375.000000 0.6695 0.6695 0.6695 0.6695 0.6694
3370.000000 0.6694 0.6694 0.6694 0.6694 0.6694
3365.000000 0.6693 0.6693 0.6693 0.6693 0.6693
3360.000000 0.6694 0.6695 0.6697 0.6698 0.6699
3355.000000 0.6700 0.6701 0.6703 0.6704 0.6705
3350.000000 0.6706 0.6707 0.6708 0.6710 0.6711
3345.000000 0.6711 0.6714 0.6715 0.6715 0.6717
3340.000000 0.6718 0.6719 0.6721 0.6721 0.6722
3335.000000 0.6724 0.6725 0.6726 0.6728 0.6728
3330.000000 0.6731 0.6732 0.6733 0.6734 0.6736
3325.000000 0.6737 0.6738 0.6740 0.6742 0.6743
3320.000000 0.6745 0.6746 0.6748 0.6750 0.6751
3315.000000 0.6753 0.6755 0.6757 0.6758 0.6760
3310.000000 0.6761 0.6764 0.6765 0.6767 0.6768
3305.000000 0.6769 0.6771 0.6774 0.6775 0.6776
3300.000000 0.6778 0.6780 0.6782 0.6783 0.6785
3295.000000 0.6786 0.6788 0.6789 0.6791 0.6792
3290.000000 0.6794 0.6795 0.6797 0.6798 0.6799
3285.000000 0.6800 0.6801 0.6803 0.6805 0.6806
3280.000000 0.6808 0.6808 0.6811 0.6811 0.6814
3275.000000 0.6815 0.6817 0.6818 0.6819 0.6821
3270.000000 0.6821 0.6822 0.6825 0.6825 0.6828
3265.000000 0.6828 0.6831 0.6832 0.6834 0.6835
3260.000000 0.6837 0.6838 0.6840 0.6841 0.6843
3255.000000 0.6845 0.6847 0.6848 0.6850 0.6851
3250.000000 0.6853 0.6854 0.6856 0.6857 0.6858
3245.000000 0.6860 0.6861 0.6862 0.6865 0.6865
3240.000000 0.6868 0.6868 0.6871 0.6872 0.6875
3235.000000 0.6875 0.6878 0.6880 0.6882 0.6883
3230.000000 0.6885 0.6887 0.6889 0.6890 0.6892
3225.000000 0.6894 0.6896 0.6898 0.6900 0.6901
3220.000000 0.6903 0.6905 0.6907 0.6908 0.6910
3215.000000 0.6911 0.6914 0.6915 0.6917 0.6918
3210.000000 0.6919 0.6921 0.6924 0.6925 0.6926
3205.000000 0.6928 0.6930 0.6931 0.6933 0.6935
3200.000000 0.6937 0.6940 0.6943 0.6946 0.6949
3195.000000 0.6951 0.6954 0.6957 0.6960 0.6961
3190.000000 0.6965 0.6967 0.6969 0.6971 0.6974
3185.000000 0.6975 0.6978 0.6980 0.6982 0.6983
3180.000000 0.6985 0.6986 0.6987 0.6988 0.6989
3175.000000 0.6989 0.6990 0.6990 0.6990 0.6989
3170.000000 0.6988 0.6986 0.6985 0.6983 0.6982
3165.000000 0.6981 0.6980 0.6978 0.6978 0.6978
3160.000000 0.6978 0.6976 0.6976 0.6976 0.6976
3155.000000 0.6976 0.6976 0.6976 0.6978 0.6981
3150.000000 0.6985 0.6988 0.6991 0.6994 0.6997
3145.000000 0.7000 0.7003 0.7006 0.7010 0.7014
3140.000000 0.7018 0.7021 0.7025 0.7026 0.7028
3135.000000 0.7031 0.7032 0.7032 0.7031 0.7030
3130.000000 0.7030 0.7028 0.7028 0.7026 0.7026
3125.000000 0.7025 0.7025 0.7025 0.7025 0.7024
3120.000000 0.7024 0.7022 0.7022 0.7021 0.7021
3115.000000 0.7019 0.7018 0.7015 0.7014 0.7008
3110.000000 0.7001 0.6996 0.6991 0.6988 0.6985
3105.000000 0.6983 0.6981 0.6981 0.6981 0.6981
3100.000000 0.6981 0.6982 0.6983 0.6984 0.6984
3095.000000 0.6984 0.6984 0.6983 0.6982 0.6981
3090.000000 0.6981 0.6965 0.6950 0.6928 0.6908
3085.000000 0.6888 0.6867 0.6849 0.6832 0.6815
3080.000000 0.6798 0.6778 0.6760 0.6738 0.6715
3075.000000 0.6708 0.6700 0.6694 0.6688 0.6689
3070.000000 0.6691 0.6695 0.6700 0.6705 0.6710
3065.000000 0.6715 0.6722 0.6728 0.6734 0.6736
3060.000000 0.6737 0.6738 0.6737 0.6734 0.6732
3055.000000 0.6728 0.6725 0.6711 0.6698 0.6676
3050.000000 0.6657 0.6641 0.6625 0.6622 0.6621
3045.000000 0.6628 0.6635 0.6654 0.6672 0.6696
3040.000000 0.6719 0.6736 0.6751 0.6758 0.6767
3035.000000 0.6768 0.6771 0.6771 0.6774 0.6765
3030.000000 0.6756 0.6706 0.6657 0.6594 0.6532
3025.000000 0.6468 0.6407 0.6344 0.6282 0.6233
3020.000000 0.6184 0.6181 0.6178 0.6191 0.6169
3015.000000 0.6244 0.6283 0.6322 0.6360 0.6400
3010.000000 0.6439 0.6478 0.6517 0.6556 0.6595
3005.000000 0.6634 0.6672 0.6711 0.6751 0.6791
3000.000000 0.6830 0.6865 0.6901 0.6904 0.6908
2995.000000 0.6910 0.6911 0.6912 0.6914 0.6914
2990.000000 0.6914 0.6914 0.6912 0.6901 0.6892
2985.000000 0.6861 0.6830 0.6749 0.6668 0.6578
2980.000000 0.6491 0.6401 0.6314 0.6230 0.6147
2975.000000 0.6126 0.6106 0.6097 0.6089 0.6081
2970.000000 0.6074 0.6073 0.6060 0.6103 0.6134
2965.000000 0.6165 0.6196 0.6226 0.6257 0.6288
2960.000000 0.6319 0.6349 0.6380 0.6411 0.6442
2955.000000 0.6460 0.6478 0.6478 0.6474 0.6430
2950.000000 0.6381 0.6322 0.6264 0.6205 0.6147
2945.000000 0.6090 0.6033 0.6016 0.6000 0.5996
2940.000000 0.5992 0.5992 0.5962 0.6020 0.6049
2935.000000 0.6101 0.6154 0.6240 0.6327 0.6364
2930.000000 0.6401 0.6436 0.6471 0.6501 0.6533
2925.000000 0.6550 0.6567 0.6569 0.6574 0.6575
2920.000000 0.6578 0.6580 0.6582 0.6584 0.6587
2915.000000 0.6589 0.6591 0.6594 0.6597 0.6600
2910.000000 0.6604 0.6611 0.6618 0.6628 0.6639
2905.000000 0.6671 0.6703 0.6733 0.6764 0.6788
2900.000000 0.6812 0.6836 0.6858 0.6881 0.6904
2895.000000 0.6926 0.6950 0.6971 0.6995 0.7012
2890.000000 0.7032 0.7045 0.7058 0.7071 0.7085
2885.000000 0.7095 0.7105 0.7112 0.7121 0.7131
2880.000000 0.7140 0.7145 0.7151 0.7156 0.7161
2875.000000 0.7167 0.7171 0.7175 0.7178 0.7182
2870.000000 0.7186 0.7187 0.7189 0.7189 0.7189
2865.000000 0.7189 0.7189 0.7184 0.7180 0.7168
2860.000000 0.7156 0.7121 0.7087 0.7014 0.6941
2855.000000 0.6889 0.6837 0.6800 0.6764 0.6590
2850.000000 0.6415 0.6226 0.6037 0.6038 0.6040
2845.000000 0.6065 0.6091 0.6432 0.6772 0.6878
2840.000000 0.6986 0.7010 0.7035 0.7051 0.7068
2835.000000 0.7085 0.7101 0.7115 0.7128 0.7141
2830.000000 0.7154 0.7165 0.7178 0.7191 0.7204
2825.000000 0.7211 0.7218 0.7225 0.7233 0.7240
2820.000000 0.7247 0.7254 0.7261 0.7268 0.7275
2815.000000 0.7282 0.7289 0.7296 0.7303 0.7308
2810.000000 0.7315 0.7321 0.7325 0.7330 0.7335
2805.000000 0.7340 0.7345 0.7350 0.7355 0.7360
2800.000000 0.7365 0.7368 0.7374 0.7378 0.7384
2795.000000 0.7389 0.7394 0.7397 0.7401 0.7404
2790.000000 0.7407 0.7410 0.7414 0.7417 0.7421
2785.000000 0.7424 0.7428 0.7431 0.7434 0.7436
2780.000000 0.7439 0.7442 0.7445 0.7447 0.7450
2775.000000 0.7451 0.7455 0.7457 0.7460 0.7462
2770.000000 0.7465 0.7468 0.7471 0.7472 0.7475
2765.000000 0.7478 0.7482 0.7484 0.7487 0.7489
2760.000000 0.7492 0.7494 0.7497 0.7499 0.7501
2755.000000 0.7505 0.7508 0.7510 0.7512 0.7515
2750.000000 0.7518 0.7519 0.7522 0.7525 0.7528
2745.000000 0.7531 0.7534 0.7536 0.7539 0.7541
2740.000000 0.7544 0.7546 0.7549 0.7551 0.7554
2735.000000 0.7555 0.7557 0.7558 0.7560 0.7561
2730.000000 0.7564 0.7565 0.7567 0.7568 0.7571
2725.000000 0.7571 0.7574 0.7575 0.7576 0.7578
2720.000000 0.7581 0.7582 0.7584 0.7586 0.7588
2715.000000 0.7589 0.7591 0.7592 0.7594 0.7596
2710.000000 0.7598 0.7599 0.7601 0.7603 0.7605
2705.000000 0.7606 0.7608 0.7608 0.7611 0.7611
2700.000000 0.7614 0.7615 0.7617 0.7618 0.7619
2695.000000 0.7621 0.7624 0.7625 0.7626 0.7628
2690.000000 0.7630 0.7631 0.7633 0.7634 0.7636
2685.000000 0.7637 0.7639 0.7640 0.7642 0.7643
2680.000000 0.7645 0.7646 0.7648 0.7650 0.7651
2675.000000 0.7653 0.7655 0.7656 0.7658 0.7658
2670.000000 0.7661 0.7661 0.7664 0.7665 0.7668
2665.000000 0.7668 0.7671 0.7671 0.7674 0.7675
2660.000000 0.7676 0.7678 0.7681 0.7682 0.7684
2655.000000 0.7685 0.7687 0.7688 0.7690 0.7692
2650.000000 0.7694 0.7695 0.7697 0.7698 0.7700
2645.000000 0.7701 0.7703 0.7704 0.7705 0.7706
2640.000000 0.7707 0.7708 0.7710 0.7711 0.7711
2635.000000 0.7712 0.7714 0.7715 0.7715 0.7717
2630.000000 0.7718 0.7718 0.7721 0.7721 0.7722
2625.000000 0.7724 0.7725 0.7725 0.7726 0.7728
2620.000000 0.7728 0.7730 0.7732 0.7733 0.7734
2615.000000 0.7735 0.7736 0.7737 0.7738 0.7738
2610.000000 0.7739 0.7740 0.7741 0.7742 0.7743
2605.000000 0.7744 0.7745 0.7745 0.7746 0.7747
2600.000000 0.7748 0.7749 0.7750 0.7750 0.7751
2595.000000 0.7751 0.7751 0.7751 0.7753 0.7753
2590.000000 0.7754 0.7754 0.7755 0.7755 0.7756
2585.000000 0.7756 0.7757 0.7757 0.7757 0.7757
2580.000000 0.7757 0.7753 0.7750 0.7746 0.7743
2575.000000 0.7736 0.7730 0.7719 0.7710 0.7698
2570.000000 0.7686 0.7674 0.7662 0.7653 0.7643
2565.000000 0.7636 0.7628 0.7625 0.7622 0.7621
2560.000000 0.7619 0.7618 0.7617 0.7619 0.7624
2555.000000 0.7632 0.7641 0.7649 0.7658 0.7668
2550.000000 0.7678 0.7689 0.7700 0.7708 0.7717
2545.000000 0.7725 0.7734 0.7742 0.7750 0.7755
2540.000000 0.7761 0.7765 0.7771 0.7775 0.7778
2535.000000 0.7782 0.7785 0.7788 0.7792 0.7794
2530.000000 0.7796 0.7796 0.7797 0.7797 0.7798
2525.000000 0.7798 0.7799 0.7799 0.7799 0.7797
2520.000000 0.7795 0.7791 0.7788 0.7785 0.7782
2515.000000 0.7778 0.7775 0.7771 0.7768 0.7765
2510.000000 0.7762 0.7760 0.7758 0.7755 0.7753
2505.000000 0.7750 0.7749 0.7749 0.7750 0.7751
2500.000000 0.7753 0.7754 0.7755 0.7756 0.7757
2495.000000 0.7758 0.7760 0.7761 0.7761 0.7764
2490.000000 0.7767 0.7768 0.7771 0.7774 0.7775
2485.000000 0.7776 0.7778 0.7780 0.7782 0.7783
2480.000000 0.7785 0.7786 0.7788 0.7789 0.7790
2475.000000 0.7791 0.7792 0.7793 0.7794 0.7795
2470.000000 0.7796 0.7797 0.7798 0.7799 0.7800
2465.000000 0.7800 0.7800 0.7800 0.7800 0.7800
2460.000000 0.7800 0.7800 0.7800 0.7800 0.7800
2455.000000 0.7800 0.7800 0.7800 0.7800 0.7799
2450.000000 0.7799 0.7798 0.7798 0.7798 0.7798
2445.000000 0.7797 0.7797 0.7796 0.7796 0.7795
2440.000000 0.7795 0.7794 0.7794 0.7793 0.7793
2435.000000 0.7793 0.7793 0.7793 0.7794 0.7794
2430.000000 0.7795 0.7795 0.7796 0.7796 0.7797
2425.000000 0.7797 0.7798 0.7798 0.7799 0.7799
2420.000000 0.7800 0.7800 0.7801 0.7801 0.7801
2415.000000 0.7801 0.7803 0.7803 0.7803 0.7803
2410.000000 0.7804 0.7804 0.7805 0.7805 0.7806
2405.000000 0.7806 0.7806 0.7806 0.7807 0.7807
2400.000000 0.7808 0.7808 0.7808 0.7808 0.7808
2395.000000 0.7808 0.7810 0.7810 0.7810 0.7810
2390.000000 0.7811 0.7811 0.7811 0.7811 0.7811
2385.000000 0.7810 0.7810 0.7808 0.7808 0.7808
2380.000000 0.7808 0.7807 0.7807 0.7806 0.7806
2375.000000 0.7805 0.7805 0.7804 0.7804 0.7803
2370.000000 0.7803 0.7801 0.7801 0.7801 0.7801
2365.000000 0.7800 0.7800 0.7799 0.7799 0.7798
2360.000000 0.7798 0.7797 0.7797 0.7796 0.7796
2355.000000 0.7795 0.7794 0.7793 0.7793 0.7792
2350.000000 0.7792 0.7791 0.7790 0.7788 0.7787
2345.000000 0.7785 0.7784 0.7782 0.7781 0.7778
2340.000000 0.7776 0.7775 0.7774 0.7771 0.7771
2335.000000 0.7768 0.7767 0.7765 0.7764 0.7761
2330.000000 0.7761 0.7758 0.7757 0.7756 0.7756
2325.000000 0.7755 0.7755 0.7755 0.7755 0.7754
2320.000000 0.7754 0.7753 0.7753 0.7751 0.7751
2315.000000 0.7751 0.7751 0.7751 0.7751 0.7750
2310.000000 0.7750 0.7750 0.7750 0.7750 0.7751
2305.000000 0.7751 0.7726 0.7753 0.7754 0.7754
2300.000000 0.7755 0.7755 0.7756 0.7756 0.7757
2295.000000 0.7758 0.7761 0.7762 0.7765 0.7768
2290.000000 0.7771 0.7772 0.7775 0.7778 0.7780
2285.000000 0.7782 0.7785 0.7787 0.7790 0.7792
2280.000000 0.7795 0.7797 0.7799 0.7801 0.7804
2275.000000 0.7806 0.7808 0.7811 0.7814 0.7815
2270.000000 0.7818 0.7821 0.7825 0.7828 0.7834
2265.000000 0.7838 0.7843 0.7847 0.7851 0.7856
2260.000000 0.7861 0.7865 0.7869 0.7874 0.7878
2255.000000 0.7883 0.7887 0.7891 0.7895 0.7899
2250.000000 0.7903 0.7907 0.7911 0.7915 0.7918
2245.000000 0.7922 0.7928 0.7932 0.7936 0.7940
2240.000000 0.7944 0.7948 0.7951 0.7956 0.7960
2235.000000 0.7964 0.7968 0.7971 0.7975 0.7980
2230.000000 0.7984 0.7988 0.7993 0.7997 0.8001
2225.000000 0.8007 0.8011 0.8015 0.8021 0.8025
2220.000000 0.8031 0.8035 0.8040 0.8045 0.8050
2215.000000 0.8054 0.8058 0.8062 0.8068 0.8071
2210.000000 0.8076 0.8081 0.8086 0.8090 0.8094
2205.000000 0.8098 0.8103 0.8107 0.8111 0.8115
2200.000000 0.8119 0.8124 0.8128 0.8133 0.8137
2195.000000 0.8141 0.8146 0.8149 0.8151 0.8155
2190.000000 0.8158 0.8161 0.8165 0.8168 0.8172
2185.000000 0.8175 0.8180 0.8183 0.8186 0.8189
2180.000000 0.8193 0.8196 0.8200 0.8203 0.8207
2175.000000 0.8210 0.8214 0.8217 0.8220 0.8223
2170.000000 0.8227 0.8230 0.8234 0.8237 0.8240
2165.000000 0.8243 0.8247 0.8250 0.8254 0.8257
2160.000000 0.8260 0.8263 0.8267 0.8270 0.8274
2155.000000 0.8277 0.8281 0.8284 0.8287 0.8290
2150.000000 0.8294 0.8297 0.8301 0.8303 0.8306
2145.000000 0.8308 0.8311 0.8313 0.8316 0.8318
2140.000000 0.8321 0.8323 0.8325 0.8328 0.8331
2135.000000 0.8333 0.8336 0.8338 0.8341 0.8343
2130.000000 0.8346 0.8348 0.8351 0.8353 0.8356
2125.000000 0.8358 0.8361 0.8363 0.8366 0.8368
2120.000000 0.8371 0.8374 0.8377 0.8378 0.8382
2115.000000 0.8384 0.8387 0.8390 0.8393 0.8395
2110.000000 0.8398 0.8400 0.8403 0.8405 0.8408
2105.000000 0.8410 0.8413 0.8416 0.8418 0.8421
2100.000000 0.8424 0.8425 0.8428 0.8431 0.8434
2095.000000 0.8436 0.8438 0.8440 0.8442 0.8443
2090.000000 0.8445 0.8447 0.8449 0.8451 0.8453
2085.000000 0.8453 0.8453 0.8453 0.8453 0.8453
2080.000000 0.8453 0.8453 0.8453 0.8453 0.8453
2075.000000 0.8449 0.8445 0.8439 0.8434 0.8427
2070.000000 0.8421 0.8415 0.8409 0.8401 0.8394
2065.000000 0.8385 0.8375 0.8366 0.8357 0.8347
2060.000000 0.8337 0.8327 0.8318 0.8307 0.8296
2055.000000 0.8283 0.8270 0.8256 0.8243 0.8230
2050.000000 0.8218 0.8215 0.8216 0.8217 0.8221
2045.000000 0.8225 0.8231 0.8240 0.8250 0.8264
2040.000000 0.8278 0.8303 0.8327 0.8357 0.8387
2035.000000 0.8403 0.8420 0.8432 0.8445 0.8453
2030.000000 0.8461 0.8468 0.8478 0.8486 0.8494
2025.000000 0.8501 0.8509 0.8516 0.8524 0.8531
2020.000000 0.8538 0.8543 0.8549 0.8554 0.8560
2015.000000 0.8566 0.8571 0.8578 0.8584 0.8596
2010.000000 0.8608 0.8620 0.8633 0.8645 0.8658
2005.000000 0.8670 0.8683 0.8696 0.8709 0.8728
2000.000000 0.8750 0.8747 0.8743 0.8740 0.8739
1995.000000 0.8737 0.8736 0.8735 0.8735 0.8734
1990.000000 0.8735 0.8737 0.8738 0.8740 0.8742
1985.000000 0.8746 0.8750 0.8754 0.8758 0.8761
1980.000000 0.8764 0.8766 0.8759 0.8747 0.8733
1975.000000 0.8716 0.8700 0.8683 0.8665 0.8646
1970.000000 0.8633 0.8633 0.8657 0.8690 0.8732
1965.000000 0.8778 0.8828 0.8871 0.8885 0.8894
1960.000000 0.8897 0.8897 0.8897 0.8871 0.8849
1955.000000 0.8835 0.8823 0.8823 0.8823 0.8825
1950.000000 0.8827 0.8828 0.8830 0.8832 0.8834
1945.000000 0.8836 0.8839 0.8841 0.8844 0.8844
1940.000000 0.8843 0.8842 0.8838 0.8832 0.8816
1935.000000 0.8796 0.8777 0.8757 0.8739 0.8727
1930.000000 0.8727 0.8727 0.8732 0.8738 0.8743
1925.000000 0.8753 0.8767 0.8775 0.8785 0.8793
1920.000000 0.8801 0.8801 0.8778 0.8746 0.8708
1915.000000 0.8663 0.8580 0.8534 0.8498 0.8475
1910.000000 0.8461 0.8445 0.8444 0.8449 0.8454
1905.000000 0.8458 0.8477 0.8502 0.8527 0.8552
1900.000000 0.8594 0.8636 0.8671 0.8696 0.8704
1895.000000 0.8692 0.8678 0.8664 0.8650 0.8641
1890.000000 0.8634 0.8645 0.8671 0.8686 0.8700
1885.000000 0.8715 0.8728 0.8735 0.8741 0.8747
1880.000000 0.8751 0.8755 0.8758 0.8761 0.8765
1875.000000 0.8768 0.8771 0.8775 0.8778 0.8782
1870.000000 0.8786 0.8791 0.8795 0.8799 0.8803
1865.000000 0.8807 0.8811 0.8813 0.8816 0.8818
1860.000000 0.8821 0.8824 0.8825 0.8828 0.8831
1855.000000 0.8832 0.8832 0.8832 0.8832 0.8832
1850.000000 0.8830 0.8828 0.8825 0.8821 0.8817
1845.000000 0.8812 0.8807 0.8802 0.8798 0.8794
1840.000000 0.8793 0.8792 0.8791 0.8790 0.8789
1835.000000 0.8788 0.8787 0.8786 0.8785 0.8784
1830.000000 0.8782 0.8778 0.8777 0.8774 0.8771
1825.000000 0.8768 0.8770 0.8771 0.8771 0.8771
1820.000000 0.8773 0.8775 0.8778 0.8782 0.8785
1815.000000 0.8789 0.8792 0.8794 0.8797 0.8800
1810.000000 0.8802 0.8805 0.8807 0.8807 0.8807
1805.000000 0.8807 0.8807 0.8807 0.8807 0.8807
1800.000000 0.8807 0.8804 0.8801 0.8798 0.8796
1795.000000 0.8793 0.8784 0.8774 0.8764 0.8754
1790.000000 0.8738 0.8720 0.8702 0.8685 0.8668
1785.000000 0.8654 0.8638 0.8623 0.8609 0.8603
1780.000000 0.8597 0.8590 0.8584 0.8578 0.8575
1775.000000 0.8582 0.8588 0.8595 0.8601 0.8608
1770.000000 0.8614 0.8621 0.8627 0.8634 0.8640
1765.000000 0.8647 0.8653 0.8660 0.8666 0.8674
1760.000000 0.8683 0.8691 0.8700 0.8708 0.8716
1755.000000 0.8725 0.8733 0.8742 0.8750 0.8759
1750.000000 0.8767 0.8774 0.8781 0.8788 0.8795
1745.000000 0.8803 0.8810 0.8817 0.8824 0.8830
1740.000000 0.8836 0.8843 0.8849 0.8855 0.8851
1735.000000 0.8845 0.8839 0.8833 0.8825 0.8816
1730.000000 0.8806 0.8796 0.8786 0.8775 0.8767
1725.000000 0.8758 0.8749 0.8739 0.8730 0.8721
1720.000000 0.8712 0.8707 0.8703 0.8699 0.8694
1715.000000 0.8690 0.8691 0.8693 0.8695 0.8697
1710.000000 0.8699 0.8701 0.8703 0.8705 0.8707
1705.000000 0.8709 0.8711 0.8713 0.8715 0.8717
1700.000000 0.8720 0.8721 0.8725 0.8727 0.8730
1695.000000 0.8734 0.8741 0.8747 0.8754 0.8760
1690.000000 0.8771 0.8784 0.8797 0.8809 0.8821
1685.000000 0.8831 0.8842 0.8851 0.8857 0.8864
1680.000000 0.8870 0.8875 0.8880 0.8882 0.8884
1675.000000 0.8875 0.8887 0.8885 0.8884 0.8881
1670.000000 0.8874 0.8867 0.8861 0.8854 0.8848
1665.000000 0.8841 0.8835 0.8828 0.8821 0.8815
1660.000000 0.8808 0.8801 0.8794 0.8787 0.8781
1655.000000 0.8777 0.8771 0.8767 0.8763 0.8762
1650.000000 0.8762 0.8768 0.8775 0.8782 0.8788
1645.000000 0.8795 0.8801 0.8808 0.8814 0.8823
1640.000000 0.8832 0.8840 0.8844 0.8848 0.8849
1635.000000 0.8842 0.8835 0.8814 0.8793 0.8766
1630.000000 0.8731 0.8696 0.8661 0.8625 0.8568
1625.000000 0.8509 0.8449 0.8240 0.7948 0.7806
1620.000000 0.7549 0.7191 0.6549 0.5802 0.5055
1615.000000 0.4308 0.3560 0.2814 0.2542 0.2540
1610.000000 0.2545 0.2524 0.2992 0.3400 0.3808
1605.000000 0.4217 0.4625 0.5034 0.5442 0.5850
1600.000000 0.6259 0.6667 0.7205 0.7314 0.7406
1595.000000 0.7475 0.7556 0.7598 0.7610 0.7615
1590.000000 0.7611 0.7641 0.6965 0.6630 0.6389
1585.000000 0.6368 0.6369 0.6369 0.6403 0.6487
1580.000000 0.6661 0.6946 0.7230 0.7515 0.7800
1575.000000 0.7956 0.8058 0.8137 0.8208 0.8267
1570.000000 0.8325 0.8378 0.8406 0.8434 0.8461
1565.000000 0.8482 0.8500 0.8518 0.8536 0.8548
1560.000000 0.8560 0.8571 0.8578 0.8583 0.8587
1555.000000 0.8590 0.8578 0.8596 0.8595 0.8594
1550.000000 0.8594 0.8593 0.8589 0.8584 0.8578
1545.000000 0.8574 0.8565 0.8551 0.8537 0.8512
1540.000000 0.8478 0.8428 0.8398 0.8388 0.8383
1535.000000 0.8380 0.8375 0.8368 0.8362 0.8355
1530.000000 0.8333 0.8290 0.8171 0.7965 0.7778
1525.000000 0.7617 0.7472 0.7260 0.6903 0.6726
1520.000000 0.6086 0.5146 0.4205 0.3264 0.2325
1515.000000 0.1384 0.0444 0.0380 0.0380 0.0594
1510.000000 0.0384 0.1902 0.2556 0.3209 0.4110
1505.000000 0.4425 0.4740 0.5054 0.5369 0.5683
1500.000000 0.5998 0.6312 0.6589 0.6626 0.6651
1495.000000 0.6664 0.6668 0.6674 0.6471 0.6268
1490.000000 0.6064 0.6043 0.6044 0.6091 0.6262
1485.000000 0.6433 0.6587 0.6608 0.6636 0.6678
1480.000000 0.6778 0.6874 0.6990 0.7021 0.7032
1475.000000 0.7028 0.7011 0.6993 0.6721 0.6159
1470.000000 0.5595 0.5032 0.4697 0.4592 0.3940
1465.000000 0.3289 0.2979 0.2972 0.3084 0.2954
1460.000000 0.4508 0.5219 0.5931 0.6041 0.6053
1455.000000 0.6036 0.5300 0.4872 0.4444 0.4336
1450.000000 0.4238 0.4139 0.4041 0.3968 0.3959
1445.000000 0.4379 0.4983 0.5587 0.6190 0.6794
1440.000000 0.7460 0.7611 0.7705 0.7783 0.7856
1435.000000 0.7911 0.7958 0.8004 0.8036 0.8061
1430.000000 0.8087 0.8098 0.8106 0.8108 0.8090
1425.000000 0.8097 0.8081 0.8065 0.8018 0.7812
1420.000000 0.7489 0.7165 0.6842 0.6801 0.6805
1415.000000 0.6854 0.6939 0.7148 0.7434 0.7694
1410.000000 0.7878 0.7972 0.8011 0.8030 0.8046
1405.000000 0.8061 0.8078 0.8090 0.8101 0.8115
1400.000000 0.8126 0.8140 0.8158 0.8175 0.8194
1395.000000 0.8213 0.8244 0.8275 0.8307 0.8374
1390.000000 0.8445 0.8534 0.8593 0.8612 0.8623
1385.000000 0.8632 0.8628 0.8575 0.8537 0.8502
1380.000000 0.8466 0.8430 0.8401 0.8374 0.8352
1375.000000 0.8333 0.8314 0.8303 0.8295 0.8287
1370.000000 0.8278 0.8278 0.8280 0.8282 0.8283
1365.000000 0.8286 0.8289 0.8291 0.8283 0.8254
1360.000000 0.8225 0.8202 0.8181 0.8165 0.8157
1355.000000 0.8154 0.8154 0.8156 0.8165 0.8175
1350.000000 0.8185 0.8194 0.8204 0.8216 0.8233
1345.000000 0.8250 0.8267 0.8284 0.8302 0.8321
1340.000000 0.8342 0.8361 0.8381 0.8399 0.8416
1335.000000 0.8433 0.8440 0.8445 0.8449 0.8453
1330.000000 0.8428 0.8441 0.8431 0.8421 0.8413
1325.000000 0.8403 0.8371 0.8327 0.8284 0.8235
1320.000000 0.8161 0.8089 0.8011 0.7911 0.7811
1315.000000 0.7711 0.7521 0.7325 0.5914 0.5578
1310.000000 0.5243 0.4908 0.4572 0.4237 0.3902
1305.000000 0.3566 0.3280 0.3280 0.3277 0.3268
1300.000000 0.4287 0.4966 0.5322 0.5333 0.5146
1295.000000 0.4942 0.4738 0.4534 0.4380 0.4399
1290.000000 0.4394 0.4717 0.5039 0.5362 0.5577
1285.000000 0.5679 0.5785 0.5919 0.6054 0.6189
1280.000000 0.6323 0.6458 0.6592 0.6665 0.6704
1275.000000 0.6719 0.6725 0.6685 0.6715 0.6704
1270.000000 0.6665 0.6608 0.6393 0.6090 0.5759
1265.000000 0.5429 0.5099 0.4768 0.4438 0.4108
1260.000000 0.3541 0.3090 0.2639 0.2189 0.1737
1255.000000 0.1288 0.0837 0.0612 0.0510 0.0484
1250.000000 0.0469 0.0487 0.0514 0.0605 0.0719
1245.000000 0.0841 0.1355 0.1759 0.2164 0.2568
1240.000000 0.2973 0.3378 0.3782 0.4187 0.4591
1235.000000 0.4703 0.4821 0.4952 0.5082 0.5212
1230.000000 0.5343 0.5474 0.5605 0.5735 0.5866
1225.000000 0.5996 0.6127 0.6257 0.6395 0.6419
1220.000000 0.6418 0.6418 0.6405 0.6210 0.6162
1215.000000 0.6155 0.6145 0.6150 0.6175 0.6228
1210.000000 0.6269 0.6282 0.6294 0.6308 0.6332
1205.000000 0.6380 0.6495 0.6634 0.6774 0.6912
1200.000000 0.7053 0.7192 0.7262 0.7284 0.7318
1195.000000 0.7303 0.7285 0.7222 0.7061 0.6930
1190.000000 0.6811 0.6451 0.5873 0.5294 0.4716
1185.000000 0.4137 0.3559 0.2980 0.2402 0.1823
1180.000000 0.1244 0.0666 0.0460 0.0457 0.0465
1175.000000 0.1191 0.2545 0.3898 0.4237 0.4567
1170.000000 0.4898 0.5228 0.5558 0.5889 0.6219
1165.000000 0.6526 0.6618 0.6672 0.6712 0.6693
1160.000000 0.6693 0.6592 0.6490 0.6436 0.6450
1155.000000 0.6465 0.6483 0.6491 0.6467 0.6414
1150.000000 0.6244 0.5756 0.5268 0.4965 0.4944
1145.000000 0.4977 0.5190 0.5631 0.6073 0.6514
1140.000000 0.6955 0.7157 0.7251 0.7347 0.7412
1135.000000 0.7476 0.7541 0.7575 0.7611 0.7637
1130.000000 0.7653 0.7667 0.7675 0.7685 0.7683
1125.000000 0.7644 0.7562 0.7424 0.7306 0.7201
1120.000000 0.7108 0.7062 0.7039 0.7038 0.7037
1115.000000 0.7051 0.7080 0.7215 0.7375 0.7494
1110.000000 0.7603 0.7676 0.7736 0.7796 0.7856
1105.000000 0.7897 0.7917 0.7937 0.7946 0.7956
1100.000000 0.7965 0.7975 0.7984 0.7992 0.7995
1095.000000 0.7998 0.8001 0.8018 0.8007 0.8010
1090.000000 0.8012 0.8015 0.8015 0.8015 0.8017
1085.000000 0.8018 0.7996 0.7971 0.7925 0.7871
1080.000000 0.7803 0.7735 0.7708 0.7711 0.7722
1075.000000 0.7749 0.7775 0.7799 0.7821 0.7828
1070.000000 0.7825 0.7825 0.7825 0.7833 0.7842
1065.000000 0.7850 0.7865 0.7880 0.7894 0.7908
1060.000000 0.7918 0.7928 0.7937 0.7947 0.7967
1055.000000 0.7956 0.7956 0.7956 0.7939 0.7921
1050.000000 0.7901 0.7854 0.7791 0.7728 0.7667
1045.000000 0.7605 0.7543 0.7481 0.7415 0.7349
1040.000000 0.7282 0.7168 0.7003 0.6853 0.6740
1035.000000 0.5420 0.4767 0.4112 0.3459 0.3016
1030.000000 0.3014 0.3092 0.3200 0.3159 0.2405
1025.000000 0.1900 0.1919 0.2384 0.2869 0.3354
1020.000000 0.3838 0.4323 0.4807 0.5292 0.5777
1015.000000 0.6204 0.6342 0.6456 0.6551 0.6584
1010.000000 0.6597 0.6608 0.6775 0.6947 0.7118
1005.000000 0.7290 0.7348 0.7365 0.7275 0.7128
1000.000000 0.6983 0.6968 0.7010 0.7133 0.7256
995.000000 0.7380 0.7498 0.7575 0.7638 0.7695
990.000000 0.7743 0.7775 0.7807 0.7840 0.7869
985.000000 0.7889 0.7908 0.7917 0.7922 0.7928
980.000000 0.7936 0.7942 0.7944 0.7945 0.7937
975.000000 0.7919 0.7900 0.7861 0.7832 0.7849
970.000000 0.7807 0.7810 0.7812 0.7815 0.7818
965.000000 0.7825 0.7832 0.7838 0.7844 0.7851
960.000000 0.7857 0.7867 0.7876 0.7888 0.7898
955.000000 0.7908 0.7918 0.7925 0.7930 0.7931
950.000000 0.7931 0.7911 0.7862 0.7632 0.7341
945.000000 0.7204 0.7185 0.7321 0.7471 0.7621
940.000000 0.7772 0.7821 0.7862 0.7891 0.7903
935.000000 0.7915 0.7907 0.7892 0.7875 0.7858
930.000000 0.7845 0.7839 0.7839 0.7858 0.7875
925.000000 0.7893 0.7907 0.7914 0.7921 0.7926
920.000000 0.7934 0.7941 0.7947 0.7965 0.7951
915.000000 0.7951 0.7951 0.7951 0.7946 0.7941
910.000000 0.7924 0.7898 0.7821 0.7608 0.7491
905.000000 0.7453 0.7431 0.7412 0.7395 0.7307
900.000000 0.6955 0.6897 0.7026 0.7342 0.7657
895.000000 0.7722 0.7758 0.7778 0.7800 0.7819
890.000000 0.7840 0.7856 0.7871 0.7886 0.7901
885.000000 0.7915 0.7931 0.7940 0.7949 0.7957
880.000000 0.7965 0.7974 0.7982 0.7990 0.7994
875.000000 0.7998 0.8001 0.8006 0.8011 0.8011
870.000000 0.8011 0.8011 0.8011 0.8011 0.8011
865.000000 0.8008 0.7998 0.7988 0.7976 0.7967
860.000000 0.7946 0.7924 0.7901 0.7857 0.7806
855.000000 0.7751 0.7656 0.7551 0.7434 0.6365
850.000000 0.5330 0.5360 0.5572 0.5771 0.5901
845.000000 0.5853 0.5769 0.5685 0.5668 0.6183
840.000000 0.6332 0.6341 0.5931 0.5293 0.4655
835.000000 0.4018 0.3380 0.2742 0.2561 0.2616
830.000000 0.3348 0.4080 0.4812 0.6007 0.6021
825.000000 0.6010 0.5690 0.5252 0.5144 0.5482
820.000000 0.5624 0.5477 0.5008 0.5007 0.5070
815.000000 0.5339 0.5608 0.5877 0.5902 0.5910
810.000000 0.5783 0.5292 0.4802 0.4310 0.3821
805.000000 0.3576 0.3590 0.3910 0.4142 0.4356
800.000000 0.4408 0.4460 0.7068 0.7085 0.7076
795.000000 0.6688 0.6115 0.5542 0.4969 0.4396
790.000000 0.4203 0.4508 0.4880 0.5242 0.5235
785.000000 0.5235 0.4418 0.3934 0.3609 0.3598
780.000000 0.3598 0.4194 0.4840 0.5486 0.6132
775.000000 0.6538 0.6750 0.6871 0.6972 0.7075
770.000000 0.7178 0.7281 0.7396 0.7489 0.7534
765.000000 0.7553 0.7565 0.7575 0.7575 0.7575
760.000000 0.7575 0.7554 0.7519 0.7469 0.7392
755.000000 0.7312 0.7114 0.6512 0.5912 0.5310
750.000000 0.4710 0.4108 0.3777 0.3784 0.3795
745.000000 0.3986 0.4348 0.4709 0.5071 0.5433
740.000000 0.5794 0.6156 0.6517 0.6878 0.7241
735.000000 0.7448 0.7465 0.7445 0.7469 0.7426
730.000000 0.7328 0.7230 0.7215 0.7238 0.7282
725.000000 0.7342 0.7361 0.7361 0.7361 0.7289
720.000000 0.7068 0.6732 0.6395 0.6058 0.5931
715.000000 0.5896 0.5906 0.6021 0.6135 0.6250
710.000000 0.6364 0.6478 0.6518 0.6544 0.6471
705.000000 0.6183 0.5894 0.5605 0.5316 0.5026
700.000000 0.4787 0.4714 0.4707 0.5220 0.5848
695.000000 0.6475 0.7103 0.7708 0.7754 0.7800
690.000000 0.7843 0.7882 0.7918 0.7950 0.7975
685.000000 0.7988 0.8001 0.8014 0.8025 0.8056
680.000000 0.8126 0.8198 0.8270 0.8341 0.8412
675.000000 0.8467 0.8462 0.8457 0.8457 0.8457
670.000000 0.8462 0.8467 0.8475 0.8487 0.8494
665.000000 0.8500 0.8505 0.8507 0.8507 0.8507
660.000000 0.8504 0.8501 0.8482 0.8461 0.8404
655.000000 0.8168 0.7741 0.7314 0.6887 0.6460
650.000000 0.6352 0.6314 0.6605 0.7103 0.7600
645.000000 0.8098 0.8268 0.8307 0.8334 0.8355
640.000000 0.8374 0.8390 0.8385 0.8383 0.8381
635.000000 0.8374 0.8106 0.7421 0.7156 0.7100
630.000000 0.6737 0.6374 0.6285 0.6354 0.6738
625.000000 0.7122 0.7507 0.7892 0.8150 0.8161
620.000000 0.8164 0.8122 0.8093 0.8083 0.8101
615.000000 0.8125 0.8204 0.8243 0.8275 0.8261
610.000000 0.8253 0.8244 0.8217 0.8182 0.8147
605.000000 0.8111 0.8075 0.8040 0.8005 0.7968
600.000000 0.7915 0.7861 0.7785 0.7701 0.7404
595.000000 0.6905 0.6406 0.5907 0.5408 0.4381
590.000000 0.4410 0.4373 0.4701 0.5242 0.5751
585.000000 0.5733 0.5603 0.4948 0.4293 0.3638
580.000000 0.3498 0.3512 0.3491 0.4048 0.4710
575.000000 0.5375 0.6038 0.6539 0.6860 0.7098
570.000000 0.7283 0.7449 0.7590 0.7684 0.7776
565.000000 0.7844 0.7898 0.7944 0.7974 0.8003
560.000000 0.8028 0.8050 0.8071 0.8093 0.8104
555.000000 0.8114 0.8125 0.8130 0.8136 0.8142
550.000000 0.8132 0.8147 0.8147 0.8147 0.8147
545.000000 0.8143 0.8134 0.8125 0.8117 0.8085
540.000000 0.8035 0.7951 0.7784 0.7639 0.7497
535.000000 0.7438 0.7436 0.7428 0.7443 0.7493
530.000000 0.7565 0.7635 0.7694 0.7753 0.7811
525.000000 0.7861 0.7901 0.7940 0.7978 0.8018
520.000000 0.8051 0.8083 0.8103 0.8110 0.8118
515.000000 0.8125 0.8133 0.8141 0.8144 0.8145
510.000000 0.8146 0.8147 0.8148 0.8149 0.8150
505.000000 0.8151 0.8151 0.8150 0.8148 0.8146
500.000000 0.8145 0.8143 0.8141 0.8139 0.8138
495.000000 0.8136 0.8121 0.8133 0.8132 0.8131
490.000000 0.8128 0.8128 0.8126 0.8125 0.8125
485.000000 0.8124 0.8121 0.8121 0.8119 0.8118
480.000000 0.8117 0.8115 0.8114 0.8111 0.8110
475.000000 0.8108 0.8106 0.8105 0.8103 0.8101
470.000000 0.8097 0.8091 0.8085 0.8078
##END=
