##TITLE=Polyethylene glycol (600) monolaurate
##JCAMP-DX=4.24
##DATA TYPE=INFRARED SPECTRUM
##CLASS=COBLENTZ
##ORIGIN=DOW CHEMICAL COMPANY
##OWNER=COBLENTZ SOC.
Collection (C) 2018 copyright by the U.S. Secretary of Commerce
on behalf of the United States of America. All rights reserved.
##DATE=1970/01/22
##NAMES=2-hydroxyethyl laurate
##CAS REGISTRY NO=4219-48-1
##MOLFORM=C14 H28 O3
##SOURCE REFERENCE=COBLENTZ NO. 09534
##$NIST SOURCE=COBLENTZ
##$NIST IMAGE=cob9534
##SPECTROMETER/DATA SYSTEM=DOW KBr FOREPRISM-GRATING
##INSTRUMENT PARAMETERS=BLAZED AT 3.5, 12.0, 20.0 MICRON AND CHANGED AT 5.0, 7.5, 14.9 MICRON
##STATE=SOLUTION (10% CCl4 FOR 2.7-26 MICRON); INSOLUBLE IN CS2
##PATH LENGTH=0.011 CM
$$SPECTRAL CONTAMINATION DUE TO CCl4 AROUND 1550, 1250, 1000, 700-850 CM^-^1
##SAMPLING PROCEDURE=TRANSMISSION
##RESOLUTION=2
##DATA PROCESSING=DIGITIZED BY COBLENTZ SOCIETY (BATCH I) FROM HARD COPY
##XUNITS=1/CM
##YUNITS=TRANSMITTANCE
##XLABEL=Wavenumbers (cm-1)
##YLABEL=% Transmission
##XFACTOR=1
##YFACTOR=1
##DELTAX=1
##FIRSTX=391
##LASTX=3796
##FIRSTY=0.6411
##MAXX=3796
##MINX=391
##MAXY=0.8914
##MINY=0
##NPOINTS=3406
##XYDATA=(X++(Y..Y))
391.000000 0.6411 0.6410 0.6407 0.6405 0.6401
396.000000 0.6398 0.6395 0.6392 0.6389 0.6385
401.000000 0.6382 0.6378 0.6373 0.6368 0.6362
406.000000 0.6358 0.6353 0.6348 0.6343 0.6340
411.000000 0.6338 0.6336 0.6333 0.6331 0.6328
416.000000 0.6326 0.6324 0.6321 0.6316 0.6310
421.000000 0.6306 0.6300 0.6295 0.6290 0.6284
426.000000 0.6279 0.6273 0.6268 0.6262 0.6257
431.000000 0.6252 0.6247 0.6241 0.6236 0.6230
436.000000 0.6226 0.6222 0.6219 0.6215 0.6212
441.000000 0.6208 0.6204 0.6201 0.6197 0.6193
446.000000 0.6190 0.6186 0.6182 0.6179 0.6175
451.000000 0.6176 0.6177 0.6177 0.6178 0.6179
456.000000 0.6180 0.6181 0.6182 0.6182 0.6181
461.000000 0.6180 0.6179 0.6178 0.6177 0.6176
466.000000 0.6175 0.6174 0.6173 0.6172 0.6171
471.000000 0.6169 0.6168 0.6180 0.6154 0.6207
476.000000 0.6221 0.6242 0.6266 0.6290 0.6314
481.000000 0.6338 0.6362 0.6386 0.6410 0.6433
486.000000 0.6457 0.6481 0.6499 0.6512 0.6528
491.000000 0.6542 0.6557 0.6560 0.6560 0.6560
496.000000 0.6560 0.6556 0.6549 0.6542 0.6535
501.000000 0.6528 0.6521 0.6512 0.6503 0.6492
506.000000 0.6481 0.6469 0.6461 0.6458 0.6455
511.000000 0.6451 0.6447 0.6443 0.6444 0.6447
516.000000 0.6450 0.6453 0.6456 0.6458 0.6461
521.000000 0.6465 0.6468 0.6472 0.6481 0.6490
526.000000 0.6499 0.6508 0.6528 0.6547 0.6567
531.000000 0.6587 0.6614 0.6645 0.6675 0.6706
536.000000 0.6736 0.6761 0.6782 0.6801 0.6808
541.000000 0.6814 0.6818 0.6822 0.6826 0.6830
546.000000 0.6834 0.6838 0.6841 0.6851 0.6861
551.000000 0.6869 0.6880 0.6889 0.6899 0.6908
556.000000 0.6918 0.6930 0.6942 0.6953 0.6965
561.000000 0.6975 0.6989 0.7001 0.7014 0.7026
566.000000 0.7040 0.7053 0.7065 0.7078 0.7092
571.000000 0.7105 0.7117 0.7134 0.7150 0.7167
576.000000 0.7184 0.7200 0.7217 0.7234 0.7251
581.000000 0.7267 0.7280 0.7293 0.7306 0.7318
586.000000 0.7333 0.7346 0.7358 0.7371 0.7385
591.000000 0.7398 0.7404 0.7411 0.7417 0.7424
596.000000 0.7431 0.7428 0.7424 0.7418 0.7414
601.000000 0.7408 0.7404 0.7399 0.7393 0.7388
606.000000 0.7378 0.7369 0.7361 0.7351 0.7343
611.000000 0.7334 0.7325 0.7317 0.7308 0.7298
616.000000 0.7288 0.7276 0.7265 0.7256 0.7245
621.000000 0.7246 0.7256 0.7258 0.7276 0.7298
626.000000 0.7332 0.7384 0.7447 0.7625 0.7725
631.000000 0.7783 0.7804 0.7825 0.7847 0.7861
636.000000 0.7865 0.7868 0.7871 0.7875 0.7878
641.000000 0.7878 0.7878 0.7876 0.7875 0.7871
646.000000 0.7869 0.7868 0.7865 0.7864 0.7860
651.000000 0.7855 0.7850 0.7845 0.7841 0.7836
656.000000 0.7831 0.7822 0.7808 0.7793 0.7778
661.000000 0.7744 0.7703 0.7651 0.7596 0.7541
666.000000 0.7525 0.7532 0.7557 0.7583 0.7593
671.000000 0.7576 0.7565 0.7554 0.7535 0.7511
676.000000 0.7495 0.7478 0.7458 0.7436 0.7412
681.000000 0.7378 0.7342 0.7306 0.7269 0.7234
686.000000 0.7194 0.7141 0.7088 0.7036 0.6981
691.000000 0.6918 0.6857 0.6795 0.6733 0.6671
696.000000 0.6608 0.6541 0.6474 0.6406 0.6339
701.000000 0.6272 0.6177 0.6077 0.5977 0.5865
706.000000 0.5740 0.5621 0.5379 0.5137 0.4931
711.000000 0.4777 0.4624 0.4448 0.4251 0.4091
716.000000 0.3948 0.3805 0.3586 0.3377 0.3282
721.000000 0.3188 0.3072 0.2891 0.2555 0.2219
726.000000 0.1883 0.1546 0.1211 0.0874 0.0631
731.000000 0.0393 0.0210 0.0137 0.0091 0.0060
736.000000 0.0030 0.0000 0.0000 0.0000 0.0000
741.000000 0.0000 0.0000 0.0000 0.0000 0.0000
746.000000 0.0000 0.0000 0.0000 0.0000 0.0000
751.000000 0.0000 0.0000 0.0000 0.0000 0.0000
756.000000 0.0000 0.0000 0.0000 0.0000 0.0000
761.000000 0.0000 0.0000 0.0000 0.0000 0.0000
766.000000 0.0000 0.0000 0.0000 0.0000 0.0000
771.000000 0.0001 0.0001 0.0001 0.0001 0.0001
776.000000 0.0001 0.0001 0.0001 0.0001 0.0001
781.000000 0.0001 0.0001 0.0001 0.0001 0.0001
786.000000 0.0001 0.0001 0.0001 0.0001 0.0001
791.000000 0.0001 0.0001 0.0001 0.0001 0.0001
796.000000 0.0001 0.0001 0.0001 0.0001 0.0001
801.000000 0.0001 0.0001 0.0001 0.0001 0.0001
806.000000 0.0018 0.0060 0.0099 0.0127 0.0192
811.000000 0.0254 0.0298 0.0341 0.0415 0.0502
816.000000 0.0613 0.0726 0.0993 0.2002 0.2147
821.000000 0.2292 0.2437 0.2582 0.2727 0.2873
826.000000 0.3018 0.3163 0.3308 0.3453 0.3618
831.000000 0.3941 0.4037 0.4099 0.4160 0.4221
836.000000 0.4283 0.4344 0.4406 0.4467 0.4529
841.000000 0.4602 0.4674 0.4747 0.4807 0.4862
846.000000 0.4917 0.4972 0.5026 0.5081 0.5131
851.000000 0.5179 0.5227 0.5275 0.5315 0.5342
856.000000 0.5370 0.5398 0.5414 0.5428 0.5438
861.000000 0.5437 0.5436 0.5435 0.5435 0.5435
866.000000 0.5450 0.5476 0.5502 0.5530 0.5565
871.000000 0.5600 0.5628 0.5656 0.5684 0.5693
876.000000 0.5698 0.5699 0.5689 0.5679 0.5669
881.000000 0.5659 0.5649 0.5640 0.5641 0.5645
886.000000 0.5669 0.5699 0.5747 0.5831 0.5956
891.000000 0.6078 0.6195 0.6271 0.6279 0.6280
896.000000 0.6280 0.6262 0.6244 0.6216 0.6187
901.000000 0.6157 0.6121 0.6084 0.6048 0.6012
906.000000 0.5976 0.5940 0.5904 0.5868 0.5832
911.000000 0.5793 0.5748 0.5703 0.5658 0.5616
916.000000 0.5578 0.5540 0.5502 0.5464 0.5414
921.000000 0.5357 0.5299 0.5242 0.5191 0.5140
926.000000 0.5089 0.5038 0.4960 0.4888 0.4832
931.000000 0.4776 0.4720 0.4664 0.4601 0.4536
936.000000 0.4468 0.4401 0.4347 0.4302 0.4257
941.000000 0.4217 0.4190 0.4162 0.4138 0.4131
946.000000 0.4124 0.4117 0.4117 0.4110 0.4128
951.000000 0.4147 0.4207 0.4314 0.4420 0.4527
956.000000 0.4634 0.4741 0.4847 0.4954 0.5038
961.000000 0.5099 0.5141 0.5159 0.5159 0.5159
966.000000 0.5152 0.5132 0.5110 0.5088 0.5071
971.000000 0.5055 0.5038 0.5020 0.5001 0.4982
976.000000 0.4970 0.4959 0.4947 0.4936 0.4926
981.000000 0.4918 0.4910 0.4903 0.4895 0.4877
986.000000 0.4856 0.4835 0.4804 0.4770 0.4737
991.000000 0.4699 0.4660 0.4622 0.4593 0.4570
996.000000 0.4547 0.4525 0.4502 0.4479 0.4474
1001.000000 0.4470 0.4467 0.4467 0.4467 0.4467
1006.000000 0.4467 0.4467 0.4467 0.4467 0.4467
1011.000000 0.4467 0.4467 0.4474 0.4488 0.4488
1016.000000 0.4489 0.4489 0.4469 0.4436 0.4395
1021.000000 0.4346 0.4283 0.4216 0.4147 0.4080
1026.000000 0.4018 0.3955 0.3895 0.3837 0.3779
1031.000000 0.3721 0.3659 0.3598 0.3534 0.3452
1036.000000 0.3360 0.3318 0.3282 0.3246 0.3212
1041.000000 0.3190 0.3166 0.3142 0.3119 0.3095
1046.000000 0.3068 0.3018 0.2966 0.2900 0.2834
1051.000000 0.2760 0.2678 0.2596 0.2542 0.2490
1056.000000 0.2438 0.2385 0.2334 0.2256 0.2171
1061.000000 0.2117 0.2075 0.2032 0.1991 0.1951
1066.000000 0.1924 0.1906 0.1887 0.1869 0.1851
1071.000000 0.1833 0.1813 0.1787 0.1762 0.1736
1076.000000 0.1711 0.1675 0.1608 0.1463 0.1380
1081.000000 0.1324 0.1269 0.1213 0.1158 0.1105
1086.000000 0.1051 0.0996 0.0942 0.0876 0.0756
1091.000000 0.0666 0.0625 0.0585 0.0544 0.0501
1096.000000 0.0453 0.0406 0.0367 0.0345 0.0322
1101.000000 0.0298 0.0278 0.0264 0.0250 0.0244
1106.000000 0.0241 0.0229 0.0230 0.0230 0.0231
1111.000000 0.0233 0.0235 0.0238 0.0248 0.0258
1116.000000 0.0268 0.0279 0.0290 0.0300 0.0312
1121.000000 0.0325 0.0339 0.0352 0.0366 0.0379
1126.000000 0.0393 0.0406 0.0419 0.0431 0.0442
1131.000000 0.0454 0.0465 0.0475 0.0488 0.0499
1136.000000 0.0504 0.0508 0.0513 0.0517 0.0522
1141.000000 0.0526 0.0531 0.0545 0.0564 0.0583
1146.000000 0.0601 0.0620 0.0639 0.0677 0.0721
1151.000000 0.0765 0.0832 0.0987 0.1228 0.1476
1156.000000 0.1723 0.1971 0.2218 0.2461 0.2547
1161.000000 0.2631 0.2715 0.2779 0.2821 0.2862
1166.000000 0.2891 0.2911 0.2932 0.2952 0.2973
1171.000000 0.2993 0.3013 0.3034 0.3054 0.3076
1176.000000 0.3097 0.3118 0.3147 0.3183 0.3220
1181.000000 0.3255 0.3291 0.3326 0.3364 0.3409
1186.000000 0.3454 0.3499 0.3544 0.3593 0.3643
1191.000000 0.3693 0.3743 0.3810 0.3889 0.3966
1196.000000 0.4016 0.4046 0.4074 0.4087 0.4125
1201.000000 0.4096 0.4088 0.4080 0.4066 0.4050
1206.000000 0.4034 0.4012 0.3992 0.3970 0.3966
1211.000000 0.3962 0.3959 0.3957 0.3955 0.3975
1216.000000 0.3994 0.4014 0.4032 0.4050 0.4059
1221.000000 0.4062 0.4062 0.4062 0.4059 0.4058
1226.000000 0.4043 0.4023 0.3944 0.3859 0.3776
1231.000000 0.3692 0.3608 0.3525 0.3441 0.3357
1236.000000 0.3273 0.3189 0.3105 0.3021 0.2937
1241.000000 0.2854 0.2778 0.2706 0.2595 0.2538
1246.000000 0.2513 0.2520 0.2527 0.2544 0.2573
1251.000000 0.2613 0.2668 0.2724 0.2779 0.2838
1256.000000 0.2916 0.3037 0.3164 0.3291 0.3418
1261.000000 0.3545 0.3672 0.3798 0.3925 0.4082
1266.000000 0.4183 0.4219 0.4246 0.4253 0.4252
1271.000000 0.4242 0.4232 0.4215 0.4195 0.4175
1276.000000 0.4156 0.4141 0.4126 0.4110 0.4099
1281.000000 0.4089 0.4079 0.4068 0.4059 0.4053
1286.000000 0.4048 0.4043 0.4037 0.4032 0.4027
1291.000000 0.4023 0.4018 0.4014 0.4009 0.4005
1296.000000 0.4005 0.4005 0.4032 0.4060 0.3994
1301.000000 0.4188 0.4305 0.4422 0.4539 0.4656
1306.000000 0.4774 0.4891 0.5008 0.5125 0.5203
1311.000000 0.5280 0.5349 0.5419 0.5464 0.5504
1316.000000 0.5504 0.5501 0.5492 0.5434 0.5375
1321.000000 0.5331 0.5324 0.5327 0.5355 0.5473
1326.000000 0.5583 0.5696 0.5773 0.5835 0.5893
1331.000000 0.5925 0.5957 0.5997 0.6042 0.6062
1336.000000 0.6081 0.6074 0.6002 0.5925 0.5810
1341.000000 0.5684 0.5544 0.5131 0.4718 0.4304
1346.000000 0.3891 0.3478 0.3291 0.3280 0.3286
1351.000000 0.3271 0.3327 0.3449 0.3602 0.3754
1356.000000 0.3906 0.4058 0.4210 0.4362 0.4515
1361.000000 0.4667 0.4792 0.4887 0.4972 0.5031
1366.000000 0.5079 0.5122 0.5157 0.5194 0.5243
1371.000000 0.5297 0.5336 0.5344 0.5330 0.5316
1376.000000 0.5265 0.5236 0.5217 0.5212 0.5245
1381.000000 0.5406 0.5540 0.5658 0.5736 0.5809
1386.000000 0.5857 0.5905 0.5952 0.6000 0.6046
1391.000000 0.6091 0.6137 0.6178 0.6212 0.6247
1396.000000 0.6282 0.6314 0.6340 0.6366 0.6393
1401.000000 0.6418 0.6440 0.6455 0.6469 0.6475
1406.000000 0.6478 0.6472 0.6464 0.6447 0.6428
1411.000000 0.6414 0.6401 0.6388 0.6377 0.6378
1416.000000 0.6380 0.6387 0.6412 0.6439 0.6464
1421.000000 0.6489 0.6508 0.6522 0.6528 0.6544
1426.000000 0.6515 0.6494 0.6462 0.6404 0.6333
1431.000000 0.6259 0.6186 0.6073 0.5933 0.5792
1436.000000 0.5652 0.5512 0.5371 0.5210 0.5137
1441.000000 0.5076 0.5038 0.5000 0.4923 0.4834
1446.000000 0.4746 0.4633 0.4490 0.4307 0.4148
1451.000000 0.4020 0.3882 0.3784 0.3721 0.3659
1456.000000 0.3603 0.3566 0.3590 0.3639 0.3686
1461.000000 0.3766 0.3782 0.3789 0.3827 0.3757
1466.000000 0.3723 0.3671 0.3641 0.3616 0.3650
1471.000000 0.3858 0.4185 0.4512 0.4838 0.5165
1476.000000 0.5492 0.5819 0.6145 0.6397 0.6442
1481.000000 0.6464 0.6481 0.6484 0.6487 0.6489
1486.000000 0.6498 0.6508 0.6617 0.6917 0.7217
1491.000000 0.7319 0.7339 0.7358 0.7361 0.7349
1496.000000 0.7348 0.7339 0.7319 0.7295 0.7269
1501.000000 0.7236 0.7200 0.7164 0.7124 0.7080
1506.000000 0.7035 0.6990 0.6946 0.6898 0.6850
1511.000000 0.6801 0.6754 0.6706 0.6657 0.6608
1516.000000 0.6560 0.6511 0.6462 0.6415 0.6367
1521.000000 0.6319 0.6272 0.6225 0.6177 0.6124
1526.000000 0.6058 0.5993 0.5927 0.5848 0.5754
1531.000000 0.5659 0.5564 0.5489 0.5418 0.5346
1536.000000 0.5278 0.5210 0.5143 0.5076 0.5015
1541.000000 0.4956 0.4897 0.4835 0.4768 0.4714
1546.000000 0.4672 0.4660 0.4662 0.4671 0.4688
1551.000000 0.4716 0.4762 0.4832 0.4900 0.4968
1556.000000 0.5036 0.5104 0.5173 0.5241 0.5309
1561.000000 0.5377 0.5445 0.5514 0.5582 0.5650
1566.000000 0.5718 0.5786 0.5849 0.5905 0.5970
1571.000000 0.6034 0.6095 0.6152 0.6181 0.6200
1576.000000 0.6220 0.6239 0.6267 0.6297 0.6326
1581.000000 0.6355 0.6392 0.6451 0.6511 0.6569
1586.000000 0.6631 0.6694 0.6757 0.6821 0.6900
1591.000000 0.6984 0.7067 0.7142 0.7188 0.7234
1596.000000 0.7281 0.7326 0.7372 0.7421 0.7469
1601.000000 0.7518 0.7567 0.7615 0.7668 0.7721
1606.000000 0.7776 0.7831 0.7862 0.7890 0.7917
1611.000000 0.7944 0.7965 0.7971 0.7976 0.7983
1616.000000 0.7988 0.7993 0.7998 0.8000 0.8001
1621.000000 0.8004 0.8006 0.8008 0.8010 0.8012
1626.000000 0.8018 0.8022 0.8028 0.8032 0.8037
1631.000000 0.8044 0.8054 0.8064 0.8074 0.8084
1636.000000 0.8093 0.8103 0.8111 0.8121 0.8131
1641.000000 0.8140 0.8149 0.8158 0.8168 0.8180
1646.000000 0.8194 0.8207 0.8221 0.8235 0.8249
1651.000000 0.8265 0.8280 0.8295 0.8310 0.8323
1656.000000 0.8331 0.8338 0.8345 0.8353 0.8357
1661.000000 0.8356 0.8355 0.8354 0.8353 0.8352
1666.000000 0.8351 0.8336 0.8335 0.8335 0.8328
1671.000000 0.8321 0.8313 0.8304 0.8295 0.8286
1676.000000 0.8271 0.8255 0.8240 0.8225 0.8208
1681.000000 0.8180 0.8153 0.8125 0.8098 0.8068
1686.000000 0.8028 0.7990 0.7951 0.7911 0.7872
1691.000000 0.7825 0.7775 0.7725 0.7675 0.7618
1696.000000 0.7562 0.7507 0.7451 0.7375 0.7285
1701.000000 0.7196 0.7097 0.6988 0.6878 0.6756
1706.000000 0.6543 0.6360 0.6195 0.6034 0.5875
1711.000000 0.5731 0.5634 0.5538 0.5443 0.5364
1716.000000 0.5284 0.5204 0.4924 0.4592 0.4260
1721.000000 0.3929 0.3598 0.3266 0.2934 0.2603
1726.000000 0.2272 0.1940 0.1712 0.1619 0.1538
1731.000000 0.1440 0.1398 0.1392 0.1377 0.1396
1736.000000 0.1420 0.1454 0.1728 0.2008 0.2287
1741.000000 0.2567 0.2847 0.3126 0.3406 0.3684
1746.000000 0.3964 0.4245 0.5060 0.5597 0.6135
1751.000000 0.6790 0.6955 0.7060 0.7122 0.7186
1756.000000 0.7249 0.7311 0.7375 0.7442 0.7507
1761.000000 0.7571 0.7640 0.7707 0.7930 0.8078
1766.000000 0.8175 0.8221 0.8268 0.8316 0.8362
1771.000000 0.8395 0.8428 0.8462 0.8495 0.8528
1776.000000 0.8544 0.8559 0.8574 0.8589 0.8605
1781.000000 0.8620 0.8635 0.8648 0.8659 0.8668
1786.000000 0.8680 0.8691 0.8702 0.8706 0.8710
1791.000000 0.8714 0.8717 0.8721 0.8725 0.8728
1796.000000 0.8733 0.8736 0.8740 0.8744 0.8748
1801.000000 0.8752 0.8756 0.8761 0.8766 0.8770
1806.000000 0.8775 0.8780 0.8784 0.8789 0.8794
1811.000000 0.8799 0.8803 0.8808 0.8813 0.8817
1816.000000 0.8821 0.8825 0.8828 0.8832 0.8836
1821.000000 0.8840 0.8843 0.8847 0.8851 0.8855
1826.000000 0.8858 0.8862 0.8866 0.8870 0.8873
1831.000000 0.8877 0.8878 0.8878 0.8878 0.8880
1836.000000 0.8881 0.8881 0.8882 0.8883 0.8883
1841.000000 0.8884 0.8885 0.8885 0.8886 0.8887
1846.000000 0.8887 0.8887 0.8887 0.8887 0.8886
1851.000000 0.8885 0.8885 0.8884 0.8884 0.8883
1856.000000 0.8882 0.8882 0.8881 0.8881 0.8880
1861.000000 0.8880 0.8878 0.8878 0.8878 0.8877
1866.000000 0.8875 0.8871 0.8870 0.8868 0.8866
1871.000000 0.8864 0.8862 0.8859 0.8857 0.8855
1876.000000 0.8853 0.8851 0.8849 0.8847 0.8844
1881.000000 0.8842 0.8840 0.8838 0.8836 0.8834
1886.000000 0.8831 0.8828 0.8827 0.8824 0.8821
1891.000000 0.8818 0.8817 0.8814 0.8812 0.8809
1896.000000 0.8806 0.8804 0.8801 0.8799 0.8796
1901.000000 0.8794 0.8791 0.8788 0.8786 0.8783
1906.000000 0.8781 0.8778 0.8775 0.8773 0.8771
1911.000000 0.8768 0.8766 0.8763 0.8761 0.8758
1916.000000 0.8756 0.8751 0.8746 0.8741 0.8736
1921.000000 0.8731 0.8725 0.8720 0.8715 0.8709
1926.000000 0.8704 0.8698 0.8693 0.8687 0.8682
1931.000000 0.8675 0.8670 0.8665 0.8660 0.8656
1936.000000 0.8653 0.8649 0.8646 0.8642 0.8639
1941.000000 0.8635 0.8631 0.8628 0.8624 0.8621
1946.000000 0.8617 0.8617 0.8616 0.8615 0.8600
1951.000000 0.8613 0.8612 0.8612 0.8611 0.8610
1956.000000 0.8609 0.8608 0.8607 0.8607 0.8606
1961.000000 0.8605 0.8604 0.8603 0.8602 0.8601
1966.000000 0.8601 0.8600 0.8603 0.8606 0.8609
1971.000000 0.8612 0.8615 0.8618 0.8621 0.8624
1976.000000 0.8628 0.8631 0.8634 0.8637 0.8640
1981.000000 0.8643 0.8647 0.8650 0.8654 0.8657
1986.000000 0.8661 0.8665 0.8668 0.8671 0.8675
1991.000000 0.8678 0.8683 0.8686 0.8690 0.8693
1996.000000 0.8695 0.8698 0.8700 0.8700 0.8699
2001.000000 0.8692 0.8686 0.8678 0.8671 0.8655
2006.000000 0.8638 0.8627 0.8628 0.8628 0.8641
2011.000000 0.8654 0.8667 0.8678 0.8692 0.8705
2016.000000 0.8718 0.8728 0.8740 0.8746 0.8753
2021.000000 0.8758 0.8764 0.8768 0.8775 0.8780
2026.000000 0.8786 0.8791 0.8797 0.8801 0.8805
2031.000000 0.8807 0.8810 0.8812 0.8815 0.8817
2036.000000 0.8820 0.8821 0.8825 0.8828 0.8831
2041.000000 0.8833 0.8836 0.8838 0.8841 0.8844
2046.000000 0.8847 0.8849 0.8852 0.8854 0.8857
2051.000000 0.8860 0.8863 0.8864 0.8866 0.8867
2056.000000 0.8868 0.8868 0.8870 0.8871 0.8873
2061.000000 0.8874 0.8875 0.8875 0.8878 0.8878
2066.000000 0.8878 0.8878 0.8878 0.8878 0.8878
2071.000000 0.8878 0.8878 0.8878 0.8878 0.8878
2076.000000 0.8878 0.8878 0.8880 0.8880 0.8880
2081.000000 0.8880 0.8880 0.8880 0.8881 0.8881
2086.000000 0.8881 0.8881 0.8881 0.8881 0.8881
2091.000000 0.8880 0.8880 0.8880 0.8880 0.8878
2096.000000 0.8878 0.8878 0.8878 0.8878 0.8878
2101.000000 0.8878 0.8878 0.8877 0.8877 0.8875
2106.000000 0.8875 0.8875 0.8875 0.8875 0.8875
2111.000000 0.8875 0.8875 0.8874 0.8874 0.8874
2116.000000 0.8874 0.8873 0.8873 0.8873 0.8873
2121.000000 0.8871 0.8871 0.8871 0.8871 0.8871
2126.000000 0.8871 0.8870 0.8870 0.8868 0.8868
2131.000000 0.8868 0.8868 0.8867 0.8866 0.8866
2136.000000 0.8866 0.8865 0.8865 0.8864 0.8864
2141.000000 0.8863 0.8862 0.8861 0.8861 0.8860
2146.000000 0.8860 0.8859 0.8859 0.8858 0.8858
2151.000000 0.8857 0.8857 0.8856 0.8856 0.8855
2156.000000 0.8855 0.8854 0.8854 0.8854 0.8854
2161.000000 0.8856 0.8858 0.8859 0.8861 0.8863
2166.000000 0.8865 0.8866 0.8868 0.8870 0.8871
2171.000000 0.8875 0.8878 0.8886 0.8895 0.8903
2176.000000 0.8912 0.8913 0.8914 0.8906 0.8898
2181.000000 0.8889 0.8881 0.8873 0.8865 0.8858
2186.000000 0.8851 0.8849 0.8848 0.8847 0.8847
2191.000000 0.8846 0.8846 0.8847 0.8848 0.8849
2196.000000 0.8850 0.8851 0.8852 0.8852 0.8853
2201.000000 0.8853 0.8853 0.8853 0.8853 0.8853
2206.000000 0.8853 0.8852 0.8852 0.8851 0.8851
2211.000000 0.8850 0.8849 0.8848 0.8847 0.8846
2216.000000 0.8846 0.8845 0.8844 0.8843 0.8843
2221.000000 0.8842 0.8841 0.8840 0.8840 0.8838
2226.000000 0.8837 0.8835 0.8833 0.8831 0.8830
2231.000000 0.8828 0.8825 0.8824 0.8821 0.8820
2236.000000 0.8818 0.8816 0.8815 0.8813 0.8811
2241.000000 0.8807 0.8804 0.8799 0.8795 0.8791
2246.000000 0.8787 0.8783 0.8778 0.8774 0.8770
2251.000000 0.8766 0.8762 0.8757 0.8753 0.8749
2256.000000 0.8745 0.8741 0.8737 0.8732 0.8728
2261.000000 0.8724 0.8720 0.8716 0.8713 0.8710
2266.000000 0.8707 0.8703 0.8700 0.8697 0.8694
2271.000000 0.8691 0.8688 0.8685 0.8682 0.8678
2276.000000 0.8675 0.8671 0.8668 0.8666 0.8663
2281.000000 0.8659 0.8656 0.8653 0.8650 0.8648
2286.000000 0.8647 0.8647 0.8647 0.8647 0.8647
2291.000000 0.8647 0.8647 0.8647 0.8647 0.8647
2296.000000 0.8647 0.8647 0.8647 0.8647 0.8647
2301.000000 0.8649 0.8652 0.8654 0.8657 0.8660
2306.000000 0.8663 0.8665 0.8668 0.8671 0.8675
2311.000000 0.8682 0.8688 0.8694 0.8700 0.8706
2316.000000 0.8712 0.8718 0.8724 0.8730 0.8736
2321.000000 0.8743 0.8750 0.8761 0.8771 0.8783
2326.000000 0.8795 0.8806 0.8817 0.8828 0.8839
2331.000000 0.8850 0.8862 0.8866 0.8870 0.8871
2336.000000 0.8873 0.8874 0.8875 0.8877 0.8878
2341.000000 0.8880 0.8882 0.8883 0.8883 0.8884
2346.000000 0.8884 0.8884 0.8884 0.8883 0.8883
2351.000000 0.8882 0.8882 0.8882 0.8882 0.8882
2356.000000 0.8882 0.8882 0.8882 0.8882 0.8882
2361.000000 0.8882 0.8882 0.8882 0.8882 0.8882
2366.000000 0.8882 0.8880 0.8878 0.8877 0.8875
2371.000000 0.8873 0.8871 0.8868 0.8868 0.8866
2376.000000 0.8864 0.8862 0.8860 0.8858 0.8857
2381.000000 0.8855 0.8853 0.8851 0.8850 0.8850
2386.000000 0.8850 0.8850 0.8851 0.8851 0.8851
2391.000000 0.8851 0.8852 0.8852 0.8853 0.8853
2396.000000 0.8854 0.8857 0.8860 0.8862 0.8865
2401.000000 0.8868 0.8871 0.8871 0.8871 0.8871
2406.000000 0.8871 0.8871 0.8870 0.8868 0.8868
2411.000000 0.8867 0.8866 0.8865 0.8864 0.8863
2416.000000 0.8862 0.8861 0.8860 0.8859 0.8858
2421.000000 0.8857 0.8856 0.8855 0.8854 0.8853
2426.000000 0.8852 0.8850 0.8849 0.8847 0.8846
2431.000000 0.8845 0.8844 0.8842 0.8832 0.8839
2436.000000 0.8838 0.8837 0.8836 0.8834 0.8833
2441.000000 0.8831 0.8830 0.8828 0.8827 0.8825
2446.000000 0.8825 0.8823 0.8821 0.8820 0.8818
2451.000000 0.8815 0.8813 0.8811 0.8809 0.8806
2456.000000 0.8804 0.8801 0.8799 0.8797 0.8795
2461.000000 0.8792 0.8790 0.8788 0.8786 0.8783
2466.000000 0.8781 0.8778 0.8775 0.8774 0.8771
2471.000000 0.8768 0.8767 0.8764 0.8762 0.8759
2476.000000 0.8757 0.8754 0.8752 0.8749 0.8747
2481.000000 0.8744 0.8742 0.8739 0.8736 0.8733
2486.000000 0.8731 0.8728 0.8725 0.8723 0.8721
2491.000000 0.8718 0.8716 0.8713 0.8710 0.8707
2496.000000 0.8705 0.8702 0.8700 0.8697 0.8695
2501.000000 0.8692 0.8690 0.8687 0.8684 0.8681
2506.000000 0.8678 0.8675 0.8674 0.8671 0.8668
2511.000000 0.8667 0.8666 0.8664 0.8663 0.8661
2516.000000 0.8660 0.8658 0.8657 0.8655 0.8654
2521.000000 0.8652 0.8651 0.8649 0.8648 0.8647
2526.000000 0.8646 0.8644 0.8643 0.8641 0.8640
2531.000000 0.8638 0.8637 0.8635 0.8634 0.8632
2536.000000 0.8631 0.8628 0.8628 0.8627 0.8625
2541.000000 0.8624 0.8621 0.8618 0.8617 0.8615
2546.000000 0.8613 0.8611 0.8609 0.8607 0.8605
2551.000000 0.8603 0.8601 0.8599 0.8597 0.8594
2556.000000 0.8592 0.8590 0.8588 0.8586 0.8584
2561.000000 0.8582 0.8580 0.8578 0.8575 0.8574
2566.000000 0.8571 0.8568 0.8567 0.8565 0.8563
2571.000000 0.8561 0.8559 0.8557 0.8555 0.8553
2576.000000 0.8551 0.8548 0.8545 0.8542 0.8539
2581.000000 0.8536 0.8534 0.8531 0.8528 0.8525
2586.000000 0.8521 0.8518 0.8516 0.8513 0.8511
2591.000000 0.8508 0.8505 0.8502 0.8499 0.8496
2596.000000 0.8493 0.8490 0.8488 0.8485 0.8482
2601.000000 0.8478 0.8475 0.8473 0.8470 0.8467
2606.000000 0.8465 0.8462 0.8459 0.8456 0.8453
2611.000000 0.8450 0.8447 0.8444 0.8442 0.8438
2616.000000 0.8435 0.8431 0.8427 0.8421 0.8418
2621.000000 0.8413 0.8409 0.8405 0.8401 0.8396
2626.000000 0.8392 0.8388 0.8384 0.8378 0.8375
2631.000000 0.8370 0.8366 0.8362 0.8358 0.8353
2636.000000 0.8349 0.8345 0.8341 0.8336 0.8332
2641.000000 0.8327 0.8323 0.8318 0.8315 0.8310
2646.000000 0.8306 0.8300 0.8294 0.8286 0.8278
2651.000000 0.8270 0.8262 0.8253 0.8245 0.8237
2656.000000 0.8228 0.8221 0.8213 0.8202 0.8191
2661.000000 0.8172 0.8156 0.8138 0.8121 0.8103
2666.000000 0.8086 0.8068 0.8051 0.8033 0.8015
2671.000000 0.7993 0.7969 0.7945 0.7921 0.7897
2676.000000 0.7872 0.7849 0.7825 0.7805 0.7786
2681.000000 0.7769 0.7754 0.7738 0.7721 0.7706
2686.000000 0.7690 0.7675 0.7661 0.7651 0.7640
2691.000000 0.7628 0.7618 0.7608 0.7597 0.7586
2696.000000 0.7575 0.7565 0.7555 0.7545 0.7535
2701.000000 0.7524 0.7514 0.7504 0.7494 0.7484
2706.000000 0.7474 0.7461 0.7449 0.7436 0.7424
2711.000000 0.7411 0.7399 0.7386 0.7374 0.7365
2716.000000 0.7358 0.7351 0.7345 0.7338 0.7332
2721.000000 0.7325 0.7318 0.7311 0.7305 0.7298
2726.000000 0.7292 0.7285 0.7278 0.7271 0.7265
2731.000000 0.7258 0.7253 0.7246 0.7240 0.7234
2736.000000 0.7228 0.7225 0.7221 0.7218 0.7214
2741.000000 0.7210 0.7207 0.7203 0.7199 0.7195
2746.000000 0.7192 0.7188 0.7185 0.7182 0.7180
2751.000000 0.7172 0.7165 0.7148 0.7130 0.7111
2756.000000 0.7094 0.7071 0.7051 0.7028 0.7006
2761.000000 0.6984 0.6961 0.6938 0.6915 0.6890
2766.000000 0.6865 0.6842 0.6818 0.6794 0.6769
2771.000000 0.6743 0.6715 0.6681 0.6647 0.6611
2776.000000 0.6578 0.6543 0.6508 0.6474 0.6440
2781.000000 0.6392 0.6345 0.6296 0.6247 0.6198
2786.000000 0.6150 0.6115 0.6081 0.6046 0.6012
2791.000000 0.5957 0.5903 0.5826 0.5750 0.5702
2796.000000 0.5654 0.5608 0.5562 0.5516 0.5470
2801.000000 0.5424 0.5378 0.5334 0.5290 0.5246
2806.000000 0.5203 0.5159 0.5115 0.5066 0.5017
2811.000000 0.4962 0.4909 0.4854 0.4800 0.4751
2816.000000 0.4703 0.4654 0.4606 0.4557 0.4509
2821.000000 0.4471 0.4433 0.4397 0.4360 0.4325
2826.000000 0.4290 0.4254 0.4218 0.4180 0.4143
2831.000000 0.4095 0.4048 0.4000 0.3953 0.3902
2836.000000 0.3852 0.3775 0.3698 0.3618 0.3539
2841.000000 0.3390 0.3241 0.2908 0.2575 0.2257
2846.000000 0.1940 0.1622 0.1305 0.1021 0.0737
2851.000000 0.0701 0.0592 0.0648 0.0631 0.0621
2856.000000 0.0612 0.0612 0.0612 0.0618 0.0624
2861.000000 0.0630 0.0637 0.0644 0.0651 0.0661
2866.000000 0.0671 0.0681 0.0692 0.0702 0.0713
2871.000000 0.0723 0.0734 0.0744 0.0755 0.0762
2876.000000 0.0770 0.0777 0.0784 0.0787 0.0790
2881.000000 0.0789 0.0812 0.0783 0.0779 0.0775
2886.000000 0.0771 0.0760 0.0750 0.0738 0.0727
2891.000000 0.0711 0.0696 0.0678 0.0660 0.0642
2896.000000 0.0624 0.0606 0.0589 0.0573 0.0557
2901.000000 0.0541 0.0525 0.0509 0.0493 0.0477
2906.000000 0.0462 0.0446 0.0430 0.0414 0.0398
2911.000000 0.0388 0.0378 0.0367 0.0358 0.0348
2916.000000 0.0338 0.0328 0.0317 0.0312 0.0307
2921.000000 0.0308 0.0309 0.0312 0.0332 0.0338
2926.000000 0.0361 0.0389 0.0417 0.0445 0.0473
2931.000000 0.0497 0.0521 0.0545 0.0569 0.0644
2936.000000 0.0719 0.0777 0.0836 0.0883 0.0930
2941.000000 0.0961 0.0992 0.1022 0.1054 0.1085
2946.000000 0.1116 0.1156 0.1196 0.1245 0.1292
2951.000000 0.1332 0.1372 0.1398 0.1424 0.1437
2956.000000 0.1450 0.1463 0.1476 0.1504 0.1532
2961.000000 0.1582 0.1633 0.1720 0.1808 0.1979
2966.000000 0.2151 0.2384 0.2617 0.2849 0.3082
2971.000000 0.3314 0.3548 0.3780 0.4012 0.4246
2976.000000 0.4479 0.4712 0.4945 0.5209 0.5473
2981.000000 0.5641 0.5810 0.5945 0.6081 0.6209
2986.000000 0.6337 0.6401 0.6467 0.6532 0.6597
2991.000000 0.6657 0.6717 0.6761 0.6807 0.6851
2996.000000 0.6896 0.6940 0.6985 0.7028 0.7074
3001.000000 0.7118 0.7164 0.7208 0.7254 0.7299
3006.000000 0.7345 0.7390 0.7435 0.7468 0.7501
3011.000000 0.7533 0.7565 0.7599 0.7632 0.7662
3016.000000 0.7694 0.7717 0.7740 0.7762 0.7786
3021.000000 0.7808 0.7832 0.7855 0.7878 0.7901
3026.000000 0.7925 0.7938 0.7951 0.7961 0.7971
3031.000000 0.7982 0.7992 0.8001 0.8011 0.8021
3036.000000 0.8033 0.8043 0.8053 0.8057 0.8061
3041.000000 0.8064 0.8067 0.8069 0.8072 0.8075
3046.000000 0.8078 0.8082 0.8085 0.8088 0.8091
3051.000000 0.8094 0.8097 0.8100 0.8103 0.8103
3056.000000 0.8104 0.8104 0.8105 0.8105 0.8106
3061.000000 0.8106 0.8107 0.8107 0.8108 0.8108
3066.000000 0.8110 0.8110 0.8111 0.8111 0.8111
3071.000000 0.8111 0.8112 0.8112 0.8114 0.8114
3076.000000 0.8115 0.8115 0.8117 0.8117 0.8118
3081.000000 0.8118 0.8118 0.8118 0.8118 0.8118
3086.000000 0.8118 0.8115 0.8115 0.8112 0.8111
3091.000000 0.8110 0.8108 0.8107 0.8106 0.8103
3096.000000 0.8100 0.8097 0.8094 0.8090 0.8087
3101.000000 0.8083 0.8080 0.8076 0.8074 0.8069
3106.000000 0.8067 0.8062 0.8060 0.8056 0.8053
3111.000000 0.8048 0.8043 0.8037 0.8032 0.8025
3116.000000 0.8021 0.8015 0.8010 0.8005 0.8000
3121.000000 0.7994 0.7989 0.7983 0.7976 0.7969
3126.000000 0.7964 0.7958 0.7951 0.7946 0.7940
3131.000000 0.7933 0.7926 0.7921 0.7915 0.7908
3136.000000 0.7904 0.7898 0.7893 0.7888 0.7883
3141.000000 0.7878 0.7872 0.7867 0.7861 0.7857
3146.000000 0.7851 0.7847 0.7842 0.7836 0.7831
3151.000000 0.7825 0.7821 0.7815 0.7811 0.7806
3156.000000 0.7801 0.7795 0.7789 0.7782 0.7775
3161.000000 0.7768 0.7761 0.7755 0.7749 0.7742
3166.000000 0.7735 0.7728 0.7721 0.7714 0.7708
3171.000000 0.7701 0.7694 0.7687 0.7681 0.7674
3176.000000 0.7667 0.7660 0.7653 0.7646 0.7640
3181.000000 0.7633 0.7625 0.7618 0.7611 0.7605
3186.000000 0.7599 0.7592 0.7585 0.7576 0.7569
3191.000000 0.7561 0.7555 0.7547 0.7540 0.7532
3196.000000 0.7525 0.7517 0.7508 0.7501 0.7494
3201.000000 0.7486 0.7478 0.7471 0.7464 0.7456
3206.000000 0.7449 0.7441 0.7434 0.7425 0.7418
3211.000000 0.7411 0.7404 0.7396 0.7389 0.7381
3216.000000 0.7374 0.7365 0.7358 0.7351 0.7344
3221.000000 0.7336 0.7328 0.7321 0.7312 0.7304
3226.000000 0.7296 0.7287 0.7278 0.7271 0.7262
3231.000000 0.7254 0.7246 0.7237 0.7228 0.7219
3236.000000 0.7211 0.7203 0.7195 0.7187 0.7178
3241.000000 0.7169 0.7161 0.7153 0.7145 0.7136
3246.000000 0.7128 0.7119 0.7111 0.7103 0.7095
3251.000000 0.7086 0.7078 0.7068 0.7058 0.7048
3256.000000 0.7038 0.7028 0.7018 0.7008 0.6998
3261.000000 0.6987 0.6976 0.6967 0.6957 0.6947
3266.000000 0.6937 0.6926 0.6917 0.6907 0.6897
3271.000000 0.6887 0.6876 0.6865 0.6856 0.6846
3276.000000 0.6836 0.6825 0.6815 0.6806 0.6796
3281.000000 0.6785 0.6775 0.6762 0.6751 0.6740
3286.000000 0.6728 0.6717 0.6706 0.6694 0.6683
3291.000000 0.6671 0.6661 0.6649 0.6638 0.6625
3296.000000 0.6615 0.6603 0.6592 0.6580 0.6568
3301.000000 0.6558 0.6547 0.6539 0.6531 0.6522
3306.000000 0.6515 0.6508 0.6501 0.6493 0.6486
3311.000000 0.6478 0.6471 0.6462 0.6455 0.6447
3316.000000 0.6440 0.6432 0.6425 0.6417 0.6410
3321.000000 0.6401 0.6395 0.6387 0.6380 0.6372
3326.000000 0.6364 0.6356 0.6349 0.6341 0.6334
3331.000000 0.6326 0.6319 0.6310 0.6304 0.6296
3336.000000 0.6288 0.6280 0.6273 0.6265 0.6257
3341.000000 0.6249 0.6242 0.6234 0.6227 0.6219
3346.000000 0.6210 0.6203 0.6196 0.6188 0.6180
3351.000000 0.6172 0.6165 0.6157 0.6149 0.6141
3356.000000 0.6134 0.6126 0.6118 0.6110 0.6103
3361.000000 0.6096 0.6090 0.6085 0.6080 0.6075
3366.000000 0.6070 0.6064 0.6059 0.6054 0.6049
3371.000000 0.6044 0.6039 0.6034 0.6029 0.6024
3376.000000 0.6019 0.6014 0.6009 0.6004 0.5999
3381.000000 0.5994 0.5989 0.5984 0.5979 0.5973
3386.000000 0.5968 0.5962 0.5958 0.5953 0.5948
3391.000000 0.5943 0.5938 0.5933 0.5929 0.5925
3396.000000 0.5922 0.5918 0.5915 0.5910 0.5908
3401.000000 0.5904 0.5901 0.5897 0.5894 0.5890
3406.000000 0.5887 0.5883 0.5880 0.5876 0.5873
3411.000000 0.5869 0.5865 0.5860 0.5858 0.5854
3416.000000 0.5851 0.5847 0.5844 0.5840 0.5837
3421.000000 0.5833 0.5830 0.5826 0.5823 0.5819
3426.000000 0.5816 0.5812 0.5809 0.5807 0.5805
3431.000000 0.5804 0.5803 0.5802 0.5801 0.5800
3436.000000 0.5799 0.5798 0.5797 0.5796 0.5795
3441.000000 0.5794 0.5793 0.5792 0.5791 0.5790
3446.000000 0.5789 0.5788 0.5787 0.5786 0.5785
3451.000000 0.5784 0.5783 0.5782 0.5782 0.5784
3456.000000 0.5787 0.5789 0.5799 0.5794 0.5797
3461.000000 0.5799 0.5801 0.5803 0.5806 0.5808
3466.000000 0.5810 0.5812 0.5816 0.5819 0.5822
3471.000000 0.5826 0.5830 0.5834 0.5838 0.5842
3476.000000 0.5847 0.5851 0.5855 0.5859 0.5862
3481.000000 0.5867 0.5872 0.5881 0.5890 0.5900
3486.000000 0.5910 0.5922 0.5933 0.5943 0.5954
3491.000000 0.5964 0.5975 0.5986 0.5997 0.6008
3496.000000 0.6019 0.6033 0.6047 0.6060 0.6076
3501.000000 0.6090 0.6104 0.6118 0.6133 0.6154
3506.000000 0.6175 0.6199 0.6223 0.6247 0.6271
3511.000000 0.6295 0.6319 0.6343 0.6367 0.6391
3516.000000 0.6415 0.6440 0.6465 0.6491 0.6515
3521.000000 0.6541 0.6567 0.6592 0.6618 0.6643
3526.000000 0.6668 0.6694 0.6719 0.6753 0.6786
3531.000000 0.6818 0.6853 0.6887 0.6921 0.6951
3536.000000 0.6982 0.7005 0.7028 0.7051 0.7075
3541.000000 0.7099 0.7121 0.7145 0.7168 0.7192
3546.000000 0.7215 0.7235 0.7255 0.7274 0.7293
3551.000000 0.7311 0.7331 0.7350 0.7368 0.7381
3556.000000 0.7394 0.7405 0.7415 0.7426 0.7438
3561.000000 0.7449 0.7460 0.7471 0.7482 0.7487
3566.000000 0.7492 0.7497 0.7501 0.7506 0.7511
3571.000000 0.7515 0.7521 0.7522 0.7525 0.7528
3576.000000 0.7531 0.7533 0.7536 0.7538 0.7541
3581.000000 0.7543 0.7546 0.7548 0.7551 0.7553
3586.000000 0.7556 0.7560 0.7564 0.7568 0.7571
3591.000000 0.7575 0.7581 0.7596 0.7611 0.7630
3596.000000 0.7649 0.7678 0.7708 0.7750 0.7792
3601.000000 0.7839 0.7886 0.7940 0.7995 0.8049
3606.000000 0.8103 0.8149 0.8195 0.8241 0.8288
3611.000000 0.8312 0.8337 0.8356 0.8375 0.8395
3616.000000 0.8415 0.8435 0.8455 0.8467 0.8480
3621.000000 0.8490 0.8500 0.8510 0.8520 0.8530
3626.000000 0.8540 0.8550 0.8560 0.8570 0.8580
3631.000000 0.8589 0.8598 0.8604 0.8610 0.8616
3636.000000 0.8621 0.8628 0.8635 0.8641 0.8647
3641.000000 0.8653 0.8659 0.8665 0.8671 0.8677
3646.000000 0.8682 0.8685 0.8689 0.8692 0.8696
3651.000000 0.8699 0.8702 0.8705 0.8709 0.8712
3656.000000 0.8716 0.8718 0.8721 0.8725 0.8728
3661.000000 0.8731 0.8734 0.8736 0.8739 0.8742
3666.000000 0.8745 0.8747 0.8750 0.8752 0.8755
3671.000000 0.8757 0.8760 0.8762 0.8765 0.8774
3676.000000 0.8784 0.8794 0.8805 0.8815 0.8825
3681.000000 0.8828 0.8834 0.8834 0.8834 0.8834
3686.000000 0.8835 0.8835 0.8836 0.8836 0.8837
3691.000000 0.8837 0.8838 0.8838 0.8838 0.8838
3696.000000 0.8839 0.8839 0.8840 0.8840 0.8841
3701.000000 0.8841 0.8841 0.8841 0.8842 0.8842
3706.000000 0.8842 0.8842 0.8843 0.8843 0.8843
3711.000000 0.8843 0.8844 0.8844 0.8844 0.8844
3716.000000 0.8845 0.8845 0.8845 0.8845 0.8846
3721.000000 0.8846 0.8846 0.8846 0.8847 0.8847
3726.000000 0.8847 0.8848 0.8849 0.8849 0.8850
3731.000000 0.8851 0.8852 0.8852 0.8853 0.8853
3736.000000 0.8854 0.8855 0.8856 0.8856 0.8857
3741.000000 0.8858 0.8859 0.8859 0.8860 0.8860
3746.000000 0.8861 0.8862 0.8863 0.8863 0.8864
3751.000000 0.8865 0.8866 0.8866 0.8867 0.8868
3756.000000 0.8868 0.8868 0.8870 0.8870 0.8871
3761.000000 0.8871 0.8871 0.8873 0.8874 0.8874
3766.000000 0.8875 0.8875 0.8875 0.8875 0.8877
3771.000000 0.8878 0.8878 0.8878 0.8880 0.8880
3776.000000 0.8880 0.8880 0.8881 0.8881 0.8882
3781.000000 0.8882 0.8882 0.8882 0.8883 0.8883
3786.000000 0.8884 0.8884 0.8884 0.8884 0.8885
3791.000000 0.8885 0.8886 0.8886 0.8886 0.8886
3796.000000 0.8887
##END=
