##TITLE=Silanetriol, methyl-, triacetate
##JCAMP-DX=4.24
##DATA TYPE=INFRARED SPECTRUM
##CLASS=COBLENTZ III
##ORIGIN=DOW CORNING CORP.
##OWNER=Copyright (C) 1987 by the Coblentz Society
Collection (C) 2018 copyright by the U.S. Secretary of Commerce
on behalf of the United States of America. All rights reserved.
##DATE=1966/04/21
##NAMES=bis(acetyloxy)(methyl)silyl acetate
##CAS REGISTRY NO=4253-34-3
##MOLFORM=C7 H12 O6 Si
##BP=202 C
##SOURCE REFERENCE=COBLENTZ NO. 5527
##$NIST SOURCE=COBLENTZ
##$NIST IMAGE=cob5527
##SPECTROMETER/DATA SYSTEM=PERKIN-ELMER 521 (GRATING)
##INSTRUMENT PARAMETERS=FILTERS AT 3150, 2500, 2000, 1150, 700, 410. GRATING CHANGES: 2000, 630
##STATE=SOLUTION (11% CCl4 FOR 3800-1300, 5% CS2 FOR 1300-650, AND 11% CCl4 FOR 650-250)
##PATH LENGTH=0.012 CM, 0.011 CM, AND 0.011 CM
##RESOLUTION=2
##XUNITS=1/CM
##YUNITS=TRANSMITTANCE
##XFACTOR=1.0
##YFACTOR=1
##FIRSTX=249
##LASTX=3822
##FIRSTY=0.679
##MAXX=3822
##MINX=249
##MAXY=0.9165
##MINY=0
##NPOINTS=3574
##XYDATA=(X++(Y..Y))
249.000000 0.6790 0.6788 0.6786 0.6784 0.6782
254.000000 0.6779 0.6775 0.6772 0.6768 0.6799
259.000000 0.6769 0.6769 0.6769 0.6770 0.6771
264.000000 0.6774 0.6778 0.6781 0.6784 0.6787
269.000000 0.6791 0.6794 0.6798 0.6801 0.6805
274.000000 0.6809 0.6812 0.6816 0.6820 0.6827
279.000000 0.6835 0.6842 0.6849 0.6857 0.6864
284.000000 0.6871 0.6880 0.6889 0.6899 0.6908
289.000000 0.6917 0.6927 0.6936 0.6946 0.6956
294.000000 0.6967 0.6978 0.6989 0.7000 0.7012
299.000000 0.7023 0.7034 0.7045 0.7059 0.7073
304.000000 0.7086 0.7100 0.7113 0.7127 0.7140
309.000000 0.7156 0.7171 0.7187 0.7202 0.7218
314.000000 0.7234 0.7263 0.7294 0.7335 0.7377
319.000000 0.7452 0.7558 0.7645 0.7733 0.7822
324.000000 0.7912 0.7999 0.8082 0.8143 0.8173
329.000000 0.8203 0.8234 0.8260 0.8278 0.8297
334.000000 0.8316 0.8334 0.8343 0.8351 0.8360
339.000000 0.8368 0.8376 0.8381 0.8387 0.8392
344.000000 0.8393 0.8383 0.8387 0.8384 0.8381
349.000000 0.8370 0.8357 0.8344 0.8330 0.8297
354.000000 0.8263 0.8230 0.8196 0.8162 0.8128
359.000000 0.8094 0.8061 0.8008 0.7949 0.7891
364.000000 0.7833 0.7746 0.7632 0.7507 0.7350
369.000000 0.7087 0.6824 0.6561 0.6298 0.6035
374.000000 0.5772 0.5509 0.5376 0.5322 0.5303
379.000000 0.5338 0.5361 0.5437 0.5559 0.5692
384.000000 0.5796 0.5895 0.5988 0.6115 0.6349
389.000000 0.6583 0.6817 0.7050 0.7284 0.7381
394.000000 0.7385 0.7408 0.7385 0.7386 0.7375
399.000000 0.7267 0.7115 0.6962 0.6810 0.6657
404.000000 0.6504 0.6352 0.6199 0.5742 0.5109
409.000000 0.4475 0.3842 0.3208 0.2575 0.2307
414.000000 0.2294 0.2269 0.2291 0.2482 0.3009
419.000000 0.3537 0.4065 0.4592 0.5120 0.5647
424.000000 0.6175 0.6703 0.7230 0.7538 0.7597
429.000000 0.7613 0.7619 0.7625 0.7620 0.7611
434.000000 0.7599 0.7504 0.7398 0.7291 0.7185
439.000000 0.7146 0.7145 0.7158 0.7152 0.7240
444.000000 0.7373 0.7506 0.7638 0.7771 0.7904
449.000000 0.8036 0.8165 0.8265 0.8341 0.8386
454.000000 0.8420 0.8451 0.8480 0.8508 0.8534
459.000000 0.8554 0.8574 0.8594 0.8613 0.8625
464.000000 0.8637 0.8649 0.8658 0.8658 0.8678
469.000000 0.8659 0.8654 0.8647 0.8639 0.8625
474.000000 0.8582 0.8532 0.8511 0.8505 0.8476
479.000000 0.8511 0.8512 0.8541 0.8592 0.8645
484.000000 0.8690 0.8736 0.8787 0.8824 0.8851
489.000000 0.8876 0.8886 0.8897 0.8906 0.8908
494.000000 0.8909 0.8910 0.8911 0.8904 0.8902
499.000000 0.8898 0.8893 0.8885 0.8876 0.8866
504.000000 0.8857 0.8848 0.8842 0.8836 0.8830
509.000000 0.8825 0.8823 0.8821 0.8819 0.8816
514.000000 0.8814 0.8812 0.8812 0.8812 0.8813
519.000000 0.8813 0.8812 0.8811 0.8809 0.8808
524.000000 0.8806 0.8805 0.8803 0.8801 0.8800
529.000000 0.8798 0.8796 0.8795 0.8793 0.8791
534.000000 0.8789 0.8788 0.8786 0.8784 0.8782
539.000000 0.8778 0.8775 0.8772 0.8768 0.8765
544.000000 0.8761 0.8758 0.8755 0.8751 0.8748
549.000000 0.8743 0.8737 0.8732 0.8726 0.8720
554.000000 0.8715 0.8704 0.8691 0.8679 0.8666
559.000000 0.8654 0.8641 0.8621 0.8592 0.8563
564.000000 0.8526 0.8487 0.8448 0.8388 0.8324
569.000000 0.8260 0.8198 0.8136 0.8070 0.8000
574.000000 0.7930 0.7847 0.7755 0.7630 0.7335
579.000000 0.6964 0.6593 0.6221 0.5850 0.5479
584.000000 0.5108 0.4736 0.4365 0.4089 0.4055
589.000000 0.4047 0.4047 0.4063 0.4404 0.4813
594.000000 0.5223 0.5632 0.6041 0.6450 0.6859
599.000000 0.7268 0.7678 0.7821 0.7851 0.7865
604.000000 0.7876 0.7867 0.7860 0.7848 0.7800
609.000000 0.7664 0.7496 0.7328 0.7160 0.6992
614.000000 0.6824 0.6656 0.6488 0.6320 0.6152
619.000000 0.5984 0.5817 0.5649 0.5481 0.5313
624.000000 0.5145 0.4981 0.4981 0.4978 0.5072
629.000000 0.5507 0.5942 0.6378 0.6813 0.7248
634.000000 0.7683 0.8001 0.8130 0.8270 0.8441
639.000000 0.8482 0.8520 0.8531 0.8535 0.8536
644.000000 0.8527 0.8515 0.8500 0.8483 0.8465
649.000000 0.8452 0.8452 0.8452 0.8453 0.8461
654.000000 0.8471 0.8482 0.8502 0.8522 0.8534
659.000000 0.8531 0.8528 0.8520 0.8512 0.8500
664.000000 0.8481 0.8461 0.8442 0.8424 0.8405
669.000000 0.8387 0.8371 0.8355 0.8339 0.8327
674.000000 0.8317 0.8307 0.8297 0.8287 0.8284
679.000000 0.8283 0.8282 0.8280 0.8283 0.8288
684.000000 0.8295 0.8301 0.8308 0.8318 0.8327
689.000000 0.8337 0.8346 0.8356 0.8365 0.8373
694.000000 0.8381 0.8389 0.8397 0.8405 0.8411
699.000000 0.8414 0.8418 0.8421 0.8425 0.8428
704.000000 0.8429 0.8425 0.8421 0.8416 0.8412
709.000000 0.8406 0.8395 0.8383 0.8371 0.8349
714.000000 0.8328 0.8306 0.8285 0.8253 0.8221
719.000000 0.8181 0.8121 0.8061 0.8000 0.7941
724.000000 0.7882 0.7823 0.7764 0.7695 0.7621
729.000000 0.7547 0.7474 0.7419 0.7366 0.7313
734.000000 0.7260 0.7206 0.7153 0.7094 0.7033
739.000000 0.6973 0.6913 0.6852 0.6790 0.6726
744.000000 0.6663 0.6599 0.6551 0.6502 0.6453
749.000000 0.6404 0.6355 0.6306 0.6244 0.6176
754.000000 0.6107 0.6039 0.5950 0.5878 0.5830
759.000000 0.5793 0.5780 0.5786 0.5809 0.5874
764.000000 0.5928 0.5999 0.6061 0.6119 0.6171
769.000000 0.6166 0.6161 0.6156 0.6145 0.6157
774.000000 0.6119 0.6105 0.6086 0.6050 0.6013
779.000000 0.5976 0.5938 0.5891 0.5844 0.5796
784.000000 0.5730 0.5664 0.5583 0.5501 0.5418
789.000000 0.5316 0.5213 0.5088 0.4955 0.4715
794.000000 0.4433 0.4156 0.3955 0.3766 0.3586
799.000000 0.3353 0.3090 0.2906 0.2722 0.2542
804.000000 0.2361 0.2191 0.2046 0.1900 0.1711
809.000000 0.1610 0.1546 0.1499 0.1466 0.1441
814.000000 0.1423 0.1425 0.1432 0.1397 0.1446
819.000000 0.1453 0.1468 0.1507 0.1571 0.1646
824.000000 0.1788 0.1897 0.2006 0.2115 0.2216
829.000000 0.2313 0.2410 0.2502 0.2587 0.2671
834.000000 0.2992 0.3109 0.3276 0.3477 0.3678
839.000000 0.3879 0.4080 0.4282 0.4483 0.4684
844.000000 0.4885 0.5086 0.5286 0.5472 0.5646
849.000000 0.6006 0.6626 0.6989 0.7066 0.7142
854.000000 0.7218 0.7272 0.7323 0.7373 0.7424
859.000000 0.7465 0.7505 0.7546 0.7583 0.7606
864.000000 0.7628 0.7650 0.7669 0.7678 0.7688
869.000000 0.7698 0.7708 0.7711 0.7713 0.7715
874.000000 0.7717 0.7714 0.7713 0.7710 0.7707
879.000000 0.7704 0.7695 0.7684 0.7673 0.7661
884.000000 0.7649 0.7636 0.7624 0.7611 0.7599
889.000000 0.7584 0.7563 0.7543 0.7522 0.7502
894.000000 0.7476 0.7449 0.7421 0.7394 0.7366
899.000000 0.7330 0.7282 0.7233 0.7161 0.7090
904.000000 0.7019 0.6949 0.6880 0.6811 0.6740
909.000000 0.6666 0.6591 0.6517 0.6443 0.6352
914.000000 0.6210 0.6068 0.5911 0.5748 0.5554
919.000000 0.5375 0.5261 0.5147 0.4921 0.4679
924.000000 0.4437 0.4195 0.3952 0.3710 0.3468
929.000000 0.3226 0.2984 0.2741 0.2499 0.2257
934.000000 0.2015 0.1223 0.0979 0.0770 0.0563
939.000000 0.0371 0.0277 0.0212 0.0189 0.0165
944.000000 0.0147 0.0137 0.0127 0.0125 0.0123
949.000000 0.0129 0.0137 0.0153 0.0168 0.0191
954.000000 0.0217 0.0243 0.0288 0.0352 0.0447
959.000000 0.0658 0.0887 0.1115 0.1343 0.1571
964.000000 0.1799 0.2028 0.2256 0.2484 0.2712
969.000000 0.2940 0.3169 0.3397 0.3580 0.3734
974.000000 0.3912 0.4121 0.4324 0.4508 0.4654
979.000000 0.4799 0.4954 0.5120 0.5297 0.5394
984.000000 0.5424 0.5435 0.5421 0.5411 0.5399
989.000000 0.5363 0.5295 0.5169 0.5099 0.5029
994.000000 0.4959 0.4849 0.4710 0.4600 0.4494
999.000000 0.4315 0.3934 0.3553 0.3172 0.2791
1004.000000 0.2410 0.2029 0.1648 0.1267 0.0886
1009.000000 0.0505 0.0320 0.0215 0.0129 0.0109
1014.000000 0.0100 0.0100 0.0119 0.0130 0.0144
1019.000000 0.0163 0.0275 0.0491 0.0707 0.0923
1024.000000 0.1139 0.1355 0.1571 0.1787 0.2003
1029.000000 0.2219 0.2436 0.2652 0.2868 0.3084
1034.000000 0.3300 0.3516 0.3732 0.3873 0.3880
1039.000000 0.3883 0.3853 0.3733 0.3613 0.3493
1044.000000 0.3373 0.3253 0.3242 0.3245 0.3305
1049.000000 0.3869 0.4434 0.4962 0.5183 0.5315
1054.000000 0.5415 0.5516 0.5620 0.5746 0.5873
1059.000000 0.5993 0.6111 0.6287 0.6396 0.6434
1064.000000 0.6473 0.6503 0.6520 0.6537 0.6555
1069.000000 0.6561 0.6565 0.6568 0.6572 0.6575
1074.000000 0.6578 0.6581 0.6584 0.6586 0.6594
1079.000000 0.6602 0.6610 0.6618 0.6629 0.6646
1084.000000 0.6663 0.6680 0.6698 0.6715 0.6732
1089.000000 0.6749 0.6766 0.6783 0.6800 0.6817
1094.000000 0.6835 0.6852 0.6869 0.6886 0.6900
1099.000000 0.6913 0.6927 0.6941 0.6954 0.6968
1104.000000 0.6981 0.6991 0.6994 0.6997 0.7000
1109.000000 0.7004 0.7005 0.7002 0.7000 0.6997
1114.000000 0.6996 0.7001 0.7006 0.7011 0.7021
1119.000000 0.7045 0.7070 0.7095 0.7123 0.7152
1124.000000 0.7180 0.7204 0.7228 0.7252 0.7276
1129.000000 0.7300 0.7320 0.7338 0.7357 0.7373
1134.000000 0.7377 0.7381 0.7384 0.7384 0.7383
1139.000000 0.7408 0.7381 0.7372 0.7364 0.7355
1144.000000 0.7346 0.7334 0.7323 0.7307 0.7283
1149.000000 0.7258 0.7228 0.7198 0.7168 0.7138
1154.000000 0.7107 0.7072 0.7037 0.7002 0.6967
1159.000000 0.6928 0.6875 0.6821 0.6768 0.6710
1164.000000 0.6641 0.6572 0.6502 0.6432 0.6327
1169.000000 0.6205 0.6083 0.5926 0.5749 0.5620
1174.000000 0.5502 0.5371 0.5179 0.5004 0.4873
1179.000000 0.4742 0.4587 0.4364 0.4140 0.3917
1184.000000 0.3694 0.3470 0.3247 0.3024 0.2800
1189.000000 0.2577 0.2354 0.2130 0.1907 0.1684
1194.000000 0.1460 0.1222 0.0968 0.0777 0.0602
1199.000000 0.0444 0.0304 0.0196 0.0092 0.0033
1204.000000 0.0025 0.0016 0.0008 0.0004 0.0006
1209.000000 0.0008 0.0003 0.0020 0.0026 0.0032
1214.000000 0.0037 0.0040 0.0043 0.0046 0.0049
1219.000000 0.0052 0.0062 0.0073 0.0085 0.0110
1224.000000 0.0140 0.0170 0.0201 0.0251 0.0419
1229.000000 0.0588 0.0757 0.0926 0.1094 0.1263
1234.000000 0.1432 0.1600 0.1769 0.1938 0.2107
1239.000000 0.2275 0.2444 0.2613 0.2666 0.2650
1244.000000 0.2645 0.2631 0.2600 0.2522 0.2444
1249.000000 0.2365 0.2287 0.2209 0.2130 0.2052
1254.000000 0.1974 0.1895 0.1817 0.1739 0.1660
1259.000000 0.1653 0.1646 0.1641 0.1635 0.1476
1264.000000 0.1318 0.1160 0.1002 0.0844 0.0762
1269.000000 0.0751 0.0748 0.0748 0.1097 0.1395
1274.000000 0.1692 0.1989 0.2286 0.2584 0.2881
1279.000000 0.3178 0.3476 0.3768 0.3919 0.4830
1284.000000 0.5005 0.5069 0.5124 0.5179 0.5234
1289.000000 0.5289 0.5343 0.5398 0.5453 0.5508
1294.000000 0.5563 0.5617 0.5672 0.5727 0.5782
1299.000000 0.5837 0.5892 0.5946 0.6017 0.6084
1304.000000 0.6154 0.6226 0.6299 0.6360 0.6395
1309.000000 0.6431 0.6466 0.6485 0.6500 0.6515
1314.000000 0.6530 0.6541 0.6550 0.6558 0.6565
1319.000000 0.6571 0.6570 0.6569 0.6566 0.6562
1324.000000 0.6569 0.6554 0.6547 0.6539 0.6528
1329.000000 0.6511 0.6493 0.6476 0.6448 0.6419
1334.000000 0.6387 0.6349 0.6310 0.6271 0.6221
1339.000000 0.6167 0.6113 0.6058 0.6001 0.5944
1344.000000 0.5886 0.5829 0.5760 0.5682 0.5603
1349.000000 0.5476 0.5348 0.5156 0.4956 0.4779
1354.000000 0.4662 0.4543 0.4327 0.3388 0.2819
1359.000000 0.2250 0.1680 0.1111 0.0541 0.0203
1364.000000 0.0115 0.0055 0.0011 0.0006 0.0000
1369.000000 0.0010 0.0007 0.0002 0.0021 0.0053
1374.000000 0.0100 0.0359 0.0667 0.0975 0.1283
1379.000000 0.1592 0.1900 0.2208 0.2516 0.2824
1384.000000 0.3133 0.3441 0.3749 0.4085 0.4156
1389.000000 0.4197 0.4208 0.4253 0.4190 0.4170
1394.000000 0.4147 0.4091 0.4026 0.3966 0.3906
1399.000000 0.3838 0.3768 0.3702 0.3639 0.3577
1404.000000 0.3546 0.3516 0.3491 0.3475 0.3457
1409.000000 0.3438 0.3418 0.3390 0.3306 0.3196
1414.000000 0.3083 0.2942 0.2746 0.2573 0.2469
1419.000000 0.2369 0.2356 0.2343 0.2341 0.2343
1424.000000 0.2347 0.2354 0.2333 0.2433 0.2514
1429.000000 0.2614 0.2713 0.2813 0.2912 0.3012
1434.000000 0.3111 0.3211 0.3280 0.3387 0.3579
1439.000000 0.3727 0.3874 0.4017 0.4159 0.4315
1444.000000 0.4508 0.4659 0.4790 0.4926 0.5265
1449.000000 0.5379 0.5494 0.5650 0.5873 0.6027
1454.000000 0.6089 0.6151 0.6174 0.6197 0.6221
1459.000000 0.6244 0.6276 0.6324 0.6372 0.6426
1464.000000 0.6490 0.6543 0.6594 0.6645 0.6705
1469.000000 0.6769 0.6871 0.7053 0.7223 0.7287
1474.000000 0.7327 0.7358 0.7390 0.7412 0.7435
1479.000000 0.7458 0.7481 0.7503 0.7520 0.7538
1484.000000 0.7555 0.7573 0.7590 0.7607 0.7625
1489.000000 0.7644 0.7664 0.7684 0.7704 0.7723
1494.000000 0.7737 0.7751 0.7765 0.7774 0.7774
1499.000000 0.7774 0.7776 0.7783 0.7789 0.7796
1504.000000 0.7802 0.7809 0.7815 0.7823 0.7831
1509.000000 0.7839 0.7848 0.7856 0.7865 0.7876
1514.000000 0.7888 0.7899 0.7911 0.7922 0.7934
1519.000000 0.7945 0.7959 0.7972 0.7986 0.7999
1524.000000 0.8013 0.8026 0.8040 0.8055 0.8071
1529.000000 0.8087 0.8103 0.8112 0.8117 0.8122
1534.000000 0.8128 0.8133 0.8136 0.8128 0.8120
1539.000000 0.8112 0.8105 0.8097 0.8089 0.8081
1544.000000 0.8073 0.8063 0.8053 0.8043 0.8033
1549.000000 0.8025 0.8017 0.8008 0.8000 0.7992
1554.000000 0.7983 0.7975 0.7967 0.7958 0.7950
1559.000000 0.7941 0.7932 0.7923 0.7915 0.7906
1564.000000 0.7897 0.7888 0.7880 0.7877 0.7875
1569.000000 0.7874 0.7872 0.7874 0.7877 0.7880
1574.000000 0.7883 0.7886 0.7889 0.7891 0.7893
1579.000000 0.7895 0.7897 0.7900 0.7902 0.7904
1584.000000 0.7905 0.7898 0.7891 0.7884 0.7877
1589.000000 0.7871 0.7863 0.7851 0.7839 0.7827
1594.000000 0.7809 0.7788 0.7768 0.7743 0.7714
1599.000000 0.7684 0.7655 0.7636 0.7616 0.7598
1604.000000 0.7592 0.7586 0.7580 0.7576 0.7574
1609.000000 0.7561 0.7545 0.7528 0.7512 0.7492
1614.000000 0.7454 0.7417 0.7381 0.7344 0.7308
1619.000000 0.7269 0.7221 0.7172 0.7124 0.7062
1624.000000 0.7000 0.6937 0.6876 0.6815 0.6754
1629.000000 0.6699 0.6644 0.6608 0.6587 0.6582
1634.000000 0.6554 0.6571 0.6570 0.6570 0.6585
1639.000000 0.6611 0.6643 0.6677 0.6713 0.6796
1644.000000 0.6868 0.6924 0.6972 0.7019 0.7057
1649.000000 0.7084 0.7105 0.7112 0.7119 0.7119
1654.000000 0.7110 0.7120 0.7099 0.7093 0.7086
1659.000000 0.7077 0.7067 0.7058 0.7048 0.7038
1664.000000 0.7022 0.7006 0.6990 0.6970 0.6936
1669.000000 0.6901 0.6866 0.6831 0.6791 0.6743
1674.000000 0.6695 0.6647 0.6599 0.6548 0.6495
1679.000000 0.6441 0.6387 0.6334 0.6275 0.6212
1684.000000 0.6149 0.6084 0.6010 0.5936 0.5856
1689.000000 0.5766 0.5676 0.5585 0.5485 0.5386
1694.000000 0.5286 0.5099 0.4905 0.4769 0.4633
1699.000000 0.4491 0.4338 0.4158 0.3920 0.3785
1704.000000 0.3482 0.3067 0.2652 0.2237 0.1866
1709.000000 0.1768 0.1624 0.1569 0.1556 0.1560
1714.000000 0.1567 0.1623 0.1685 0.1726 0.1729
1719.000000 0.1727 0.1716 0.1587 0.1469 0.1310
1724.000000 0.1166 0.1033 0.0901 0.0766 0.0531
1729.000000 0.0212 0.0057 0.0011 0.0002 0.0008
1734.000000 0.0013 0.0016 0.0018 0.0021 0.0023
1739.000000 0.0026 0.0026 0.0025 0.0023 0.0022
1744.000000 0.0012 0.0019 0.0018 0.0017 0.0016
1749.000000 0.0015 0.0015 0.0014 0.0013 0.0012
1754.000000 0.0010 0.0007 0.0004 0.0002 0.0000
1759.000000 0.0003 0.0008 0.0012 0.0019 0.0032
1764.000000 0.0045 0.0077 0.0109 0.0166 0.0238
1769.000000 0.0439 0.0669 0.0900 0.1131 0.1361
1774.000000 0.1592 0.1823 0.2053 0.2284 0.2515
1779.000000 0.3058 0.3263 0.3427 0.3579 0.3726
1784.000000 0.3870 0.4012 0.4154 0.4297 0.4425
1789.000000 0.4516 0.4608 0.4732 0.4858 0.4927
1794.000000 0.4996 0.5065 0.5134 0.5203 0.5271
1799.000000 0.5340 0.5407 0.5467 0.5528 0.5589
1804.000000 0.5650 0.5706 0.5761 0.5816 0.5871
1809.000000 0.5926 0.5982 0.6039 0.6096 0.6152
1814.000000 0.6209 0.6266 0.6323 0.6388 0.6455
1819.000000 0.6523 0.6590 0.6641 0.6690 0.6738
1824.000000 0.6787 0.6836 0.6884 0.6927 0.6967
1829.000000 0.7008 0.7048 0.7089 0.7130 0.7175
1834.000000 0.7220 0.7266 0.7311 0.7364 0.7418
1839.000000 0.7468 0.7503 0.7538 0.7569 0.7589
1844.000000 0.7609 0.7629 0.7644 0.7660 0.7675
1849.000000 0.7689 0.7696 0.7703 0.7709 0.7716
1854.000000 0.7723 0.7729 0.7733 0.7738 0.7742
1859.000000 0.7746 0.7750 0.7755 0.7758 0.7760
1864.000000 0.7762 0.7764 0.7767 0.7769 0.7771
1869.000000 0.7774 0.7776 0.7779 0.7782 0.7784
1874.000000 0.7787 0.7789 0.7793 0.7797 0.7801
1879.000000 0.7805 0.7810 0.7814 0.7818 0.7827
1884.000000 0.7837 0.7847 0.7862 0.7879 0.7896
1889.000000 0.7913 0.7931 0.7951 0.7970 0.7990
1894.000000 0.8010 0.8029 0.8049 0.8070 0.8091
1899.000000 0.8112 0.8132 0.8153 0.8174 0.8195
1904.000000 0.8215 0.8236 0.8256 0.8277 0.8298
1909.000000 0.8318 0.8339 0.8359 0.8380 0.8400
1914.000000 0.8415 0.8429 0.8443 0.8458 0.8472
1919.000000 0.8480 0.8484 0.8488 0.8492 0.8497
1924.000000 0.8521 0.8505 0.8505 0.8505 0.8504
1929.000000 0.8504 0.8504 0.8503 0.8502 0.8496
1934.000000 0.8489 0.8483 0.8476 0.8470 0.8463
1939.000000 0.8456 0.8449 0.8442 0.8436 0.8429
1944.000000 0.8427 0.8424 0.8422 0.8420 0.8417
1949.000000 0.8415 0.8413 0.8410 0.8408 0.8409
1954.000000 0.8411 0.8412 0.8413 0.8415 0.8416
1959.000000 0.8417 0.8426 0.8435 0.8442 0.8448
1964.000000 0.8455 0.8462 0.8469 0.8475 0.8482
1969.000000 0.8489 0.8495 0.8500 0.8505 0.8509
1974.000000 0.8514 0.8517 0.8518 0.8519 0.8520
1979.000000 0.8520 0.8521 0.8522 0.8523 0.8521
1984.000000 0.8518 0.8515 0.8513 0.8510 0.8507
1989.000000 0.8504 0.8501 0.8498 0.8496 0.8493
1994.000000 0.8489 0.8483 0.8477 0.8471 0.8466
1999.000000 0.8460 0.8455 0.8484 0.8513 0.8524
2004.000000 0.8536 0.8547 0.8559 0.8568 0.8578
2009.000000 0.8587 0.8597 0.8606 0.8616 0.8625
2014.000000 0.8634 0.8639 0.8644 0.8648 0.8652
2019.000000 0.8654 0.8657 0.8659 0.8661 0.8663
2024.000000 0.8666 0.8668 0.8671 0.8673 0.8675
2029.000000 0.8677 0.8680 0.8682 0.8685 0.8687
2034.000000 0.8690 0.8695 0.8700 0.8705 0.8711
2039.000000 0.8716 0.8722 0.8727 0.8732 0.8737
2044.000000 0.8743 0.8748 0.8754 0.8759 0.8765
2049.000000 0.8770 0.8775 0.8777 0.8780 0.8782
2054.000000 0.8785 0.8787 0.8790 0.8792 0.8795
2059.000000 0.8797 0.8800 0.8802 0.8805 0.8807
2064.000000 0.8810 0.8812 0.8815 0.8817 0.8819
2069.000000 0.8821 0.8823 0.8825 0.8827 0.8829
2074.000000 0.8831 0.8835 0.8839 0.8844 0.8849
2079.000000 0.8855 0.8862 0.8869 0.8876 0.8884
2084.000000 0.8893 0.8901 0.8910 0.8918 0.8927
2089.000000 0.8941 0.8955 0.8963 0.8972 0.8972
2094.000000 0.8973 0.8973 0.8973 0.8973 0.8973
2099.000000 0.8971 0.8970 0.8968 0.8966 0.8963
2104.000000 0.8961 0.8959 0.8957 0.8955 0.8953
2109.000000 0.8951 0.8949 0.8946 0.8944 0.8942
2114.000000 0.8940 0.8938 0.8936 0.8933 0.8930
2119.000000 0.8926 0.8923 0.8919 0.8915 0.8911
2124.000000 0.8908 0.8904 0.8901 0.8897 0.8893
2129.000000 0.8889 0.8886 0.8879 0.8872 0.8864
2134.000000 0.8857 0.8849 0.8842 0.8834 0.8827
2139.000000 0.8819 0.8812 0.8804 0.8797 0.8789
2144.000000 0.8781 0.8774 0.8767 0.8762 0.8758
2149.000000 0.8754 0.8750 0.8745 0.8741 0.8737
2154.000000 0.8733 0.8730 0.8727 0.8728 0.8730
2159.000000 0.8731 0.8732 0.8733 0.8735 0.8737
2164.000000 0.8740 0.8742 0.8745 0.8747 0.8750
2169.000000 0.8752 0.8755 0.8758 0.8761 0.8764
2174.000000 0.8767 0.8770 0.8773 0.8776 0.8779
2179.000000 0.8782 0.8785 0.8787 0.8789 0.8791
2184.000000 0.8793 0.8795 0.8797 0.8799 0.8801
2189.000000 0.8803 0.8805 0.8806 0.8808 0.8809
2194.000000 0.8811 0.8810 0.8810 0.8809 0.8808
2199.000000 0.8807 0.8806 0.8805 0.8804 0.8803
2204.000000 0.8803 0.8801 0.8800 0.8796 0.8793
2209.000000 0.8790 0.8787 0.8783 0.8780 0.8777
2214.000000 0.8774 0.8771 0.8768 0.8768 0.8768
2219.000000 0.8767 0.8767 0.8767 0.8767 0.8766
2224.000000 0.8766 0.8766 0.8766 0.8767 0.8768
2229.000000 0.8771 0.8775 0.8778 0.8781 0.8784
2234.000000 0.8787 0.8790 0.8793 0.8796 0.8799
2239.000000 0.8801 0.8804 0.8806 0.8809 0.8811
2244.000000 0.8814 0.8816 0.8819 0.8821 0.8824
2249.000000 0.8826 0.8829 0.8831 0.8834 0.8836
2254.000000 0.8838 0.8840 0.8842 0.8844 0.8846
2259.000000 0.8848 0.8850 0.8851 0.8853 0.8855
2264.000000 0.8857 0.8859 0.8861 0.8860 0.8860
2269.000000 0.8858 0.8857 0.8855 0.8853 0.8851
2274.000000 0.8849 0.8847 0.8845 0.8843 0.8842
2279.000000 0.8840 0.8838 0.8836 0.8835 0.8834
2284.000000 0.8833 0.8832 0.8831 0.8830 0.8829
2289.000000 0.8827 0.8826 0.8825 0.8824 0.8823
2294.000000 0.8822 0.8820 0.8819 0.8818 0.8817
2299.000000 0.8816 0.8815 0.8813 0.8812 0.8811
2304.000000 0.8810 0.8809 0.8808 0.8807 0.8806
2309.000000 0.8806 0.8807 0.8807 0.8808 0.8808
2314.000000 0.8808 0.8808 0.8809 0.8809 0.8810
2319.000000 0.8810 0.8811 0.8811 0.8811 0.8812
2324.000000 0.8813 0.8814 0.8816 0.8817 0.8818
2329.000000 0.8819 0.8820 0.8821 0.8823 0.8824
2334.000000 0.8825 0.8826 0.8827 0.8828 0.8829
2339.000000 0.8830 0.8832 0.8833 0.8834 0.8835
2344.000000 0.8836 0.8836 0.8836 0.8835 0.8835
2349.000000 0.8834 0.8833 0.8832 0.8832 0.8831
2354.000000 0.8830 0.8829 0.8829 0.8828 0.8827
2359.000000 0.8826 0.8826 0.8825 0.8825 0.8823
2364.000000 0.8821 0.8818 0.8815 0.8812 0.8810
2369.000000 0.8807 0.8805 0.8802 0.8799 0.8796
2374.000000 0.8794 0.8791 0.8789 0.8786 0.8783
2379.000000 0.8780 0.8777 0.8773 0.8770 0.8766
2384.000000 0.8762 0.8758 0.8754 0.8750 0.8747
2389.000000 0.8743 0.8739 0.8735 0.8732 0.8728
2394.000000 0.8724 0.8720 0.8716 0.8712 0.8709
2399.000000 0.8705 0.8701 0.8698 0.8695 0.8693
2404.000000 0.8691 0.8688 0.8686 0.8684 0.8682
2409.000000 0.8679 0.8677 0.8674 0.8672 0.8670
2414.000000 0.8668 0.8665 0.8663 0.8662 0.8662
2419.000000 0.8662 0.8662 0.8662 0.8662 0.8662
2424.000000 0.8662 0.8662 0.8663 0.8664 0.8665
2429.000000 0.8666 0.8668 0.8669 0.8670 0.8671
2434.000000 0.8673 0.8674 0.8676 0.8677 0.8678
2439.000000 0.8679 0.8681 0.8682 0.8683 0.8684
2444.000000 0.8686 0.8687 0.8688 0.8688 0.8688
2449.000000 0.8688 0.8688 0.8688 0.8688 0.8688
2454.000000 0.8688 0.8688 0.8688 0.8687 0.8687
2459.000000 0.8687 0.8687 0.8687 0.8687 0.8687
2464.000000 0.8687 0.8687 0.8687 0.8687 0.8687
2469.000000 0.8687 0.8687 0.8687 0.8687 0.8686
2474.000000 0.8686 0.8685 0.8685 0.8684 0.8684
2479.000000 0.8683 0.8682 0.8681 0.8681 0.8680
2484.000000 0.8680 0.8679 0.8678 0.8677 0.8677
2489.000000 0.8677 0.8677 0.8677 0.8677 0.8677
2494.000000 0.8677 0.8677 0.8677 0.8676 0.8676
2499.000000 0.8676 0.8676 0.8676 0.8676 0.8676
2504.000000 0.8676 0.8676 0.8676 0.8675 0.8674
2509.000000 0.8673 0.8672 0.8671 0.8670 0.8669
2514.000000 0.8668 0.8667 0.8666 0.8665 0.8664
2519.000000 0.8663 0.8662 0.8661 0.8660 0.8659
2524.000000 0.8658 0.8657 0.8657 0.8656 0.8656
2529.000000 0.8655 0.8655 0.8654 0.8654 0.8653
2534.000000 0.8653 0.8652 0.8652 0.8651 0.8651
2539.000000 0.8650 0.8650 0.8649 0.8648 0.8647
2544.000000 0.8646 0.8644 0.8643 0.8641 0.8640
2549.000000 0.8639 0.8638 0.8638 0.8638 0.8638
2554.000000 0.8638 0.8637 0.8637 0.8637 0.8637
2559.000000 0.8636 0.8636 0.8636 0.8636 0.8636
2564.000000 0.8637 0.8637 0.8637 0.8637 0.8637
2569.000000 0.8636 0.8636 0.8635 0.8635 0.8634
2574.000000 0.8633 0.8632 0.8632 0.8631 0.8631
2579.000000 0.8629 0.8628 0.8626 0.8624 0.8622
2584.000000 0.8621 0.8619 0.8617 0.8615 0.8614
2589.000000 0.8612 0.8610 0.8608 0.8607 0.8605
2594.000000 0.8603 0.8601 0.8600 0.8598 0.8597
2599.000000 0.8595 0.8593 0.8591 0.8590 0.8588
2604.000000 0.8587 0.8585 0.8584 0.8582 0.8581
2609.000000 0.8579 0.8578 0.8576 0.8575 0.8573
2614.000000 0.8572 0.8570 0.8569 0.8567 0.8566
2619.000000 0.8564 0.8563 0.8561 0.8560 0.8559
2624.000000 0.8558 0.8557 0.8556 0.8555 0.8555
2629.000000 0.8554 0.8553 0.8553 0.8553 0.8554
2634.000000 0.8555 0.8556 0.8557 0.8557 0.8558
2639.000000 0.8559 0.8560 0.8560 0.8561 0.8558
2644.000000 0.8555 0.8552 0.8549 0.8545 0.8542
2649.000000 0.8539 0.8536 0.8530 0.8525 0.8520
2654.000000 0.8515 0.8510 0.8505 0.8499 0.8494
2659.000000 0.8489 0.8484 0.8479 0.8474 0.8468
2664.000000 0.8463 0.8456 0.8450 0.8444 0.8438
2669.000000 0.8432 0.8426 0.8419 0.8413 0.8411
2674.000000 0.8409 0.8410 0.8411 0.8412 0.8413
2679.000000 0.8414 0.8415 0.8416 0.8417 0.8418
2684.000000 0.8420 0.8422 0.8425 0.8429 0.8433
2689.000000 0.8436 0.8440 0.8444 0.8448 0.8451
2694.000000 0.8455 0.8458 0.8462 0.8465 0.8468
2699.000000 0.8471 0.8474 0.8477 0.8480 0.8483
2704.000000 0.8486 0.8489 0.8492 0.8495 0.8498
2709.000000 0.8500 0.8502 0.8503 0.8504 0.8505
2714.000000 0.8506 0.8507 0.8509 0.8510 0.8511
2719.000000 0.8512 0.8513 0.8514 0.8516 0.8517
2724.000000 0.8518 0.8519 0.8520 0.8521 0.8523
2729.000000 0.8524 0.8525 0.8525 0.8526 0.8526
2734.000000 0.8526 0.8526 0.8526 0.8526 0.8527
2739.000000 0.8527 0.8527 0.8526 0.8525 0.8524
2744.000000 0.8524 0.8523 0.8523 0.8522 0.8522
2749.000000 0.8521 0.8520 0.8518 0.8551 0.8515
2754.000000 0.8514 0.8512 0.8511 0.8509 0.8507
2759.000000 0.8505 0.8504 0.8502 0.8501 0.8499
2764.000000 0.8498 0.8496 0.8494 0.8492 0.8491
2769.000000 0.8489 0.8488 0.8486 0.8485 0.8482
2774.000000 0.8480 0.8478 0.8476 0.8473 0.8471
2779.000000 0.8469 0.8467 0.8464 0.8462 0.8460
2784.000000 0.8458 0.8456 0.8454 0.8451 0.8449
2789.000000 0.8447 0.8446 0.8444 0.8442 0.8440
2794.000000 0.8439 0.8437 0.8436 0.8434 0.8433
2799.000000 0.8431 0.8429 0.8427 0.8426 0.8424
2804.000000 0.8423 0.8421 0.8420 0.8418 0.8416
2809.000000 0.8412 0.8409 0.8405 0.8402 0.8398
2814.000000 0.8394 0.8390 0.8386 0.8382 0.8379
2819.000000 0.8375 0.8371 0.8367 0.8363 0.8356
2824.000000 0.8350 0.8343 0.8337 0.8330 0.8324
2829.000000 0.8317 0.8311 0.8304 0.8297 0.8290
2834.000000 0.8284 0.8278 0.8273 0.8268 0.8263
2839.000000 0.8258 0.8253 0.8248 0.8243 0.8238
2844.000000 0.8233 0.8228 0.8223 0.8219 0.8216
2849.000000 0.8214 0.8213 0.8211 0.8210 0.8208
2854.000000 0.8207 0.8205 0.8204 0.8202 0.8200
2859.000000 0.8197 0.8195 0.8192 0.8190 0.8187
2864.000000 0.8185 0.8179 0.8173 0.8167 0.8161
2869.000000 0.8155 0.8149 0.8140 0.8132 0.8121
2874.000000 0.8111 0.8100 0.8090 0.8076 0.8062
2879.000000 0.8045 0.8028 0.8011 0.7995 0.7976
2884.000000 0.7958 0.7921 0.7884 0.7847 0.7811
2889.000000 0.7744 0.7677 0.7604 0.7531 0.7531
2894.000000 0.7531 0.7535 0.7539 0.7545 0.7552
2899.000000 0.7559 0.7566 0.7571 0.7577 0.7581
2904.000000 0.7586 0.7582 0.7578 0.7572 0.7566
2909.000000 0.7558 0.7551 0.7531 0.7512 0.7490
2914.000000 0.7468 0.7446 0.7425 0.7403 0.7381
2919.000000 0.7358 0.7336 0.7318 0.7300 0.7283
2924.000000 0.7266 0.7263 0.7261 0.7258 0.7255
2929.000000 0.7252 0.7250 0.7247 0.7245 0.7239
2934.000000 0.7234 0.7214 0.7194 0.7159 0.7124
2939.000000 0.7080 0.7036 0.7015 0.6995 0.6983
2944.000000 0.6972 0.6966 0.6960 0.6961 0.6965
2949.000000 0.7002 0.7042 0.7082 0.7122 0.7162
2954.000000 0.7202 0.7242 0.7282 0.7322 0.7362
2959.000000 0.7364 0.7366 0.7366 0.7397 0.7329
2964.000000 0.7293 0.7255 0.7217 0.7179 0.7141
2969.000000 0.7103 0.7066 0.7028 0.6990 0.6952
2974.000000 0.6914 0.6876 0.6838 0.6800 0.6762
2979.000000 0.6727 0.6693 0.6691 0.6689 0.6690
2984.000000 0.6692 0.6693 0.6681 0.6697 0.6700
2989.000000 0.6704 0.6709 0.6721 0.6734 0.6758
2994.000000 0.6782 0.6854 0.6926 0.6973 0.7020
2999.000000 0.7050 0.7080 0.7110 0.7141 0.7183
3004.000000 0.7226 0.7289 0.7353 0.7356 0.7360
3009.000000 0.7360 0.7376 0.7356 0.7352 0.7344
3014.000000 0.7336 0.7303 0.7270 0.7238 0.7207
3019.000000 0.7167 0.7127 0.7098 0.7070 0.7041
3024.000000 0.7013 0.6985 0.6957 0.6929 0.6901
3029.000000 0.6872 0.6844 0.6845 0.6846 0.6847
3034.000000 0.6829 0.6858 0.6868 0.6897 0.6927
3039.000000 0.6982 0.7037 0.7109 0.7181 0.7253
3044.000000 0.7326 0.7384 0.7442 0.7488 0.7534
3049.000000 0.7583 0.7632 0.7658 0.7684 0.7696
3054.000000 0.7708 0.7720 0.7733 0.7745 0.7758
3059.000000 0.7770 0.7782 0.7793 0.7805 0.7816
3064.000000 0.7827 0.7838 0.7850 0.7860 0.7871
3069.000000 0.7880 0.7890 0.7900 0.7910 0.7919
3074.000000 0.7929 0.7939 0.7949 0.7956 0.7964
3079.000000 0.7970 0.7977 0.7983 0.7989 0.7995
3084.000000 0.8002 0.8008 0.8014 0.8020 0.8027
3089.000000 0.8033 0.8039 0.8044 0.8050 0.8054
3094.000000 0.8058 0.8062 0.8066 0.8070 0.8074
3099.000000 0.8078 0.8083 0.8087 0.8091 0.8095
3104.000000 0.8099 0.8103 0.8107 0.8111 0.8115
3109.000000 0.8119 0.8124 0.8128 0.8133 0.8137
3114.000000 0.8142 0.8146 0.8151 0.8155 0.8160
3119.000000 0.8164 0.8169 0.8173 0.8178 0.8182
3124.000000 0.8187 0.8191 0.8195 0.8199 0.8203
3129.000000 0.8206 0.8210 0.8214 0.8218 0.8221
3134.000000 0.8225 0.8228 0.8232 0.8236 0.8240
3139.000000 0.8245 0.8250 0.8255 0.8260 0.8265
3144.000000 0.8270 0.8275 0.8280 0.8284 0.8289
3149.000000 0.8294 0.8299 0.8304 0.8309 0.8314
3154.000000 0.8319 0.8324 0.8329 0.8334 0.8339
3159.000000 0.8344 0.8350 0.8356 0.8362 0.8367
3164.000000 0.8373 0.8379 0.8385 0.8390 0.8395
3169.000000 0.8399 0.8403 0.8407 0.8411 0.8414
3174.000000 0.8418 0.8421 0.8424 0.8427 0.8430
3179.000000 0.8433 0.8436 0.8439 0.8442 0.8445
3184.000000 0.8448 0.8451 0.8454 0.8457 0.8460
3189.000000 0.8463 0.8467 0.8470 0.8473 0.8475
3194.000000 0.8477 0.8479 0.8482 0.8484 0.8486
3199.000000 0.8488 0.8491 0.8493 0.8495 0.8497
3204.000000 0.8500 0.8502 0.8504 0.8506 0.8508
3209.000000 0.8510 0.8513 0.8515 0.8517 0.8519
3214.000000 0.8522 0.8523 0.8525 0.8526 0.8528
3219.000000 0.8529 0.8531 0.8532 0.8534 0.8535
3224.000000 0.8537 0.8538 0.8540 0.8541 0.8543
3229.000000 0.8544 0.8546 0.8547 0.8549 0.8550
3234.000000 0.8551 0.8552 0.8554 0.8555 0.8557
3239.000000 0.8558 0.8560 0.8561 0.8563 0.8564
3244.000000 0.8566 0.8567 0.8569 0.8570 0.8571
3249.000000 0.8572 0.8573 0.8574 0.8575 0.8576
3254.000000 0.8577 0.8578 0.8579 0.8580 0.8581
3259.000000 0.8582 0.8583 0.8584 0.8585 0.8586
3264.000000 0.8587 0.8588 0.8589 0.8590 0.8591
3269.000000 0.8592 0.8593 0.8594 0.8595 0.8596
3274.000000 0.8597 0.8597 0.8598 0.8598 0.8599
3279.000000 0.8599 0.8599 0.8599 0.8600 0.8600
3284.000000 0.8600 0.8600 0.8601 0.8601 0.8601
3289.000000 0.8601 0.8602 0.8602 0.8602 0.8602
3294.000000 0.8603 0.8603 0.8603 0.8603 0.8604
3299.000000 0.8604 0.8604 0.8604 0.8604 0.8604
3304.000000 0.8605 0.8605 0.8605 0.8605 0.8606
3309.000000 0.8606 0.8607 0.8607 0.8608 0.8608
3314.000000 0.8608 0.8608 0.8609 0.8609 0.8610
3319.000000 0.8610 0.8611 0.8611 0.8612 0.8612
3324.000000 0.8613 0.8613 0.8614 0.8614 0.8615
3329.000000 0.8615 0.8615 0.8615 0.8616 0.8616
3334.000000 0.8617 0.8617 0.8618 0.8618 0.8619
3339.000000 0.8619 0.8620 0.8620 0.8621 0.8621
3344.000000 0.8621 0.8622 0.8623 0.8623 0.8624
3349.000000 0.8624 0.8625 0.8626 0.8627 0.8627
3354.000000 0.8628 0.8629 0.8630 0.8630 0.8631
3359.000000 0.8631 0.8632 0.8633 0.8634 0.8634
3364.000000 0.8635 0.8636 0.8637 0.8637 0.8638
3369.000000 0.8639 0.8640 0.8640 0.8641 0.8641
3374.000000 0.8642 0.8643 0.8644 0.8644 0.8645
3379.000000 0.8646 0.8647 0.8647 0.8648 0.8649
3384.000000 0.8650 0.8651 0.8653 0.8655 0.8657
3389.000000 0.8658 0.8660 0.8662 0.8664 0.8665
3394.000000 0.8667 0.8669 0.8671 0.8673 0.8675
3399.000000 0.8676 0.8678 0.8680 0.8682 0.8683
3404.000000 0.8685 0.8687 0.8689 0.8691 0.8693
3409.000000 0.8694 0.8696 0.8697 0.8699 0.8700
3414.000000 0.8702 0.8703 0.8705 0.8706 0.8707
3419.000000 0.8708 0.8710 0.8711 0.8712 0.8713
3424.000000 0.8715 0.8716 0.8717 0.8718 0.8720
3429.000000 0.8721 0.8722 0.8723 0.8725 0.8726
3434.000000 0.8727 0.8727 0.8728 0.8727 0.8727
3439.000000 0.8726 0.8725 0.8724 0.8760 0.8723
3444.000000 0.8723 0.8718 0.8714 0.8703 0.8693
3449.000000 0.8682 0.8672 0.8661 0.8651 0.8640
3454.000000 0.8630 0.8612 0.8594 0.8575 0.8557
3459.000000 0.8539 0.8521 0.8493 0.8465 0.8433
3464.000000 0.8402 0.8371 0.8340 0.8309 0.8279
3469.000000 0.8247 0.8216 0.8177 0.8139 0.8111
3474.000000 0.8084 0.8084 0.8084 0.8084 0.8084
3479.000000 0.8086 0.8088 0.8091 0.8093 0.8098
3484.000000 0.8102 0.8106 0.8111 0.8125 0.8140
3489.000000 0.8156 0.8172 0.8187 0.8203 0.8219
3494.000000 0.8235 0.8250 0.8265 0.8280 0.8295
3499.000000 0.8310 0.8325 0.8340 0.8355 0.8373
3504.000000 0.8391 0.8412 0.8433 0.8454 0.8475
3509.000000 0.8496 0.8518 0.8540 0.8562 0.8586
3514.000000 0.8610 0.8634 0.8658 0.8681 0.8705
3519.000000 0.8722 0.8739 0.8753 0.8768 0.8782
3524.000000 0.8797 0.8811 0.8825 0.8839 0.8854
3529.000000 0.8864 0.8875 0.8885 0.8896 0.8906
3534.000000 0.8916 0.8926 0.8937 0.8947 0.8957
3539.000000 0.8962 0.8968 0.8972 0.8977 0.8981
3544.000000 0.8986 0.8991 0.8996 0.9000 0.9005
3549.000000 0.9009 0.9014 0.9018 0.9023 0.9028
3554.000000 0.9033 0.9036 0.9039 0.9041 0.9044
3559.000000 0.9047 0.9051 0.9052 0.9055 0.9058
3564.000000 0.9061 0.9063 0.9066 0.9069 0.9072
3569.000000 0.9074 0.9077 0.9079 0.9081 0.9082
3574.000000 0.9083 0.9084 0.9086 0.9087 0.9088
3579.000000 0.9089 0.9091 0.9092 0.9093 0.9094
3584.000000 0.9096 0.9097 0.9098 0.9099 0.9101
3589.000000 0.9102 0.9103 0.9104 0.9106 0.9107
3594.000000 0.9108 0.9109 0.9111 0.9112 0.9113
3599.000000 0.9113 0.9114 0.9114 0.9115 0.9115
3604.000000 0.9115 0.9115 0.9116 0.9116 0.9117
3609.000000 0.9117 0.9118 0.9118 0.9119 0.9119
3614.000000 0.9119 0.9119 0.9120 0.9120 0.9121
3619.000000 0.9121 0.9122 0.9122 0.9123 0.9123
3624.000000 0.9124 0.9124 0.9124 0.9124 0.9124
3629.000000 0.9123 0.9123 0.9123 0.9123 0.9123
3634.000000 0.9123 0.9123 0.9123 0.9123 0.9123
3639.000000 0.9123 0.9123 0.9123 0.9123 0.9123
3644.000000 0.9123 0.9123 0.9123 0.9123 0.9123
3649.000000 0.9123 0.9123 0.9122 0.9122 0.9122
3654.000000 0.9122 0.9121 0.9121 0.9120 0.9120
3659.000000 0.9119 0.9119 0.9119 0.9119 0.9118
3664.000000 0.9118 0.9117 0.9117 0.9116 0.9116
3669.000000 0.9116 0.9116 0.9115 0.9115 0.9114
3674.000000 0.9114 0.9115 0.9116 0.9117 0.9118
3679.000000 0.9118 0.9119 0.9120 0.9121 0.9121
3684.000000 0.9122 0.9123 0.9124 0.9125 0.9126
3689.000000 0.9126 0.9127 0.9128 0.9129 0.9130
3694.000000 0.9131 0.9131 0.9132 0.9133 0.9134
3699.000000 0.9134 0.9135 0.9136 0.9137 0.9138
3704.000000 0.9139 0.9139 0.9140 0.9141 0.9142
3709.000000 0.9142 0.9143 0.9143 0.9144 0.9144
3714.000000 0.9145 0.9145 0.9146 0.9146 0.9147
3719.000000 0.9147 0.9148 0.9148 0.9149 0.9149
3724.000000 0.9150 0.9150 0.9151 0.9151 0.9152
3729.000000 0.9152 0.9153 0.9153 0.9154 0.9154
3734.000000 0.9155 0.9155 0.9156 0.9156 0.9157
3739.000000 0.9157 0.9158 0.9159 0.9160 0.9160
3744.000000 0.9161 0.9161 0.9162 0.9162 0.9163
3749.000000 0.9163 0.9164 0.9164 0.9165 0.9165
3754.000000 0.9165 0.9164 0.9164 0.9163 0.9162
3759.000000 0.9161 0.9161 0.9160 0.9160 0.9158
3764.000000 0.9156 0.9153 0.9151 0.9148 0.9146
3769.000000 0.9143 0.9141 0.9138 0.9136 0.9134
3774.000000 0.9132 0.9130 0.9128 0.9126 0.9125
3779.000000 0.9123 0.9121 0.9119 0.9118 0.9116
3784.000000 0.9115 0.9113 0.9112 0.9112 0.9113
3789.000000 0.9113 0.9114 0.9114 0.9115 0.9115
3794.000000 0.9116 0.9116 0.9117 0.9117 0.9118
3799.000000 0.9119 0.9121 0.9122 0.9124 0.9125
3804.000000 0.9127 0.9128 0.9130 0.9131 0.9133
3809.000000 0.9134 0.9136 0.9137 0.9139 0.9140
3814.000000 0.9142 0.9143 0.9145 0.9146 0.9147
3819.000000 0.9148 0.9150 0.9150 0.9151
##END=
