##TITLE=Cyclopropyl bromide
##JCAMP-DX=4.24
$$ By DXEDIT 1.05 (RS McDonald)
##DATA TYPE=INFRARED SPECTRUM
##CLASS=COBLENTZ III
##ORIGIN=DOW CHEMICAL COMPANY
##OWNER=COPYRIGHT (C) 1988 by COBLENTZ SOCIETY INC.
Collection (C) 2018 copyright by the U.S. Secretary of Commerce
on behalf of the United States of America. All rights reserved.
##DATE=1964/06/25
##NAMES=bromocyclopropane
##CAS REGISTRY NO=4333-56-6
##MOLFORM=C3 H5 Br
##SOURCE REFERENCE=COBLENTZ NO. 9165
##$NIST SOURCE=COBLENTZ
##$NIST IMAGE=cob9165
##SPECTROMETER/DATA SYSTEM=DOW KBr FOREPRISM-GRATING
##INSTRUMENT PARAMETERS=BLAZED AT 3.5, 12.0, 20.0 MICRON AND CHANGED AT 5.0, 7.5, 14.9 MICRON
##STATE=SOLUTION (10% CCl4 FOR 3800-1330, 10% CS2 FOR 1330-460 CM^-^1)
##PATH LENGTH=0.010 CM, 0.010 CM
$$SPECTRAL CONTAMINATION DUE TO CCl4 AROUND 1550 CM^-^1 HAS BEEN SUBTRACTED
$$ SPECTRAL FEATURE AT 1995 CM^-^1 IS PROBABLY AN ARTIFACT CAUSED BY GRATING CHANGE
##SAMPLING PROCEDURE=TRANSMISSION
##RESOLUTION=2
##DATA PROCESSING=DIGITIZED BY COBLENTZ SOCIETY (BATCH I) FROM HARD COPY
##XUNITS=1/CM
##YUNITS=TRANSMITTANCE
##XFACTOR=1
##YFACTOR=1
##DELTAX=1
##FIRSTX=3800
##LASTX=455
##FIRSTY=0.9022
##MAXX=3800
##MINX=455
##MAXY=0.9162
##MINY=0.0251
##NPOINTS=3346
##XYDATA=(X++(Y..Y))
3800.000000 0.9022 0.9022 0.9022 0.9023 0.9032
3795.000000 0.9029 0.9038 0.9039 0.9041 0.9042
3790.000000 0.9044 0.9046 0.9048 0.9051 0.9054
3785.000000 0.9057 0.9054 0.9054 0.9057 0.9066
3780.000000 0.9071 0.9067 0.9076 0.9075 0.9075
3775.000000 0.9064 0.9071 0.9069 0.9067 0.9065
3770.000000 0.9063 0.9061 0.9059 0.9058 0.9057
3765.000000 0.9055 0.9054 0.9053 0.9052 0.9050
3760.000000 0.9054 0.9052 0.9047 0.9046 0.9045
3755.000000 0.9044 0.9043 0.9043 0.9043 0.9043
3750.000000 0.9044 0.9044 0.9045 0.9045 0.9045
3745.000000 0.9045 0.9046 0.9051 0.9056 0.9068
3740.000000 0.9078 0.9093 0.9111 0.9120 0.9129
3735.000000 0.9137 0.9141 0.9144 0.9156 0.9160
3730.000000 0.9161 0.9161 0.9161 0.9161 0.9162
3725.000000 0.9162 0.9162 0.9159 0.9156 0.9153
3720.000000 0.9150 0.9136 0.9134 0.9140 0.9137
3715.000000 0.9134 0.9132 0.9129 0.9128 0.9129
3710.000000 0.9123 0.9126 0.9123 0.9119 0.9116
3705.000000 0.9113 0.9111 0.9108 0.9105 0.9102
3700.000000 0.9099 0.9096 0.9093 0.9089 0.9078
3695.000000 0.9074 0.9071 0.9068 0.9065 0.9061
3690.000000 0.9057 0.9053 0.9049 0.9043 0.9033
3685.000000 0.9029 0.9016 0.9017 0.9018 0.9014
3680.000000 0.9011 0.9007 0.9008 0.9008 0.9012
3675.000000 0.9015 0.9018 0.9020 0.9022 0.9023
3670.000000 0.9032 0.9027 0.9028 0.9029 0.9030
3665.000000 0.9032 0.9033 0.9036 0.9038 0.9039
3660.000000 0.9039 0.9039 0.9039 0.9038 0.9037
3655.000000 0.9036 0.9036 0.9035 0.9035 0.9033
3650.000000 0.9033 0.9033 0.9032 0.9032 0.9033
3645.000000 0.9033 0.9035 0.9036 0.9037 0.9038
3640.000000 0.9039 0.9039 0.9040 0.9039 0.9038
3635.000000 0.9033 0.9028 0.9024 0.9027 0.9022
3630.000000 0.9014 0.9003 0.9001 0.9002 0.8997
3625.000000 0.8995 0.8993 0.8990 0.8989 0.8987
3620.000000 0.8985 0.8983 0.8980 0.8979 0.8977
3615.000000 0.8976 0.8975 0.8975 0.8976 0.8976
3610.000000 0.8977 0.8976 0.8969 0.8977 0.8978
3605.000000 0.8978 0.8978 0.8975 0.8973 0.8979
3600.000000 0.8976 0.8971 0.8975 0.8980 0.8980
3595.000000 0.8983 0.8987 0.8990 0.8993 0.8995
3590.000000 0.8998 0.9001 0.9004 0.9007 0.9010
3585.000000 0.9013 0.9016 0.9018 0.9020 0.9021
3580.000000 0.9023 0.9025 0.9027 0.9029 0.9028
3575.000000 0.9025 0.9034 0.9036 0.9034 0.9031
3570.000000 0.9032 0.9034 0.9036 0.9036 0.9037
3565.000000 0.9037 0.9038 0.9038 0.9038 0.9038
3560.000000 0.9038 0.9038 0.9038 0.9038 0.9039
3555.000000 0.9047 0.9038 0.9040 0.9047 0.9047
3550.000000 0.9045 0.9041 0.9047 0.9047 0.9048
3545.000000 0.9044 0.9043 0.9048 0.9048 0.9048
3540.000000 0.9043 0.9045 0.9042 0.9046 0.9048
3535.000000 0.9048 0.9048 0.9048 0.9048 0.9048
3530.000000 0.9048 0.9039 0.9039 0.9039 0.9040
3525.000000 0.9040 0.9040 0.9040 0.9040 0.9040
3520.000000 0.9040 0.9040 0.9040 0.9040 0.9040
3515.000000 0.9040 0.9040 0.9040 0.9040 0.9040
3510.000000 0.9040 0.9040 0.9041 0.9041 0.9041
3505.000000 0.9041 0.9041 0.9041 0.9041 0.9040
3500.000000 0.9039 0.9038 0.9038 0.9037 0.9036
3495.000000 0.9035 0.9035 0.9034 0.9032 0.9032
3490.000000 0.9032 0.9031 0.9028 0.9028 0.9028
3485.000000 0.9027 0.9026 0.9024 0.9024 0.9024
3480.000000 0.9023 0.9021 0.9021 0.9021 0.9020
3475.000000 0.9019 0.9019 0.9018 0.9017 0.9016
3470.000000 0.9016 0.9015 0.9014 0.9012 0.9011
3465.000000 0.9010 0.9009 0.9008 0.9007 0.9006
3460.000000 0.9005 0.9003 0.9002 0.9000 0.8999
3455.000000 0.8998 0.8997 0.8996 0.8995 0.8994
3450.000000 0.8993 0.8992 0.8991 0.8990 0.8989
3445.000000 0.8987 0.8986 0.8985 0.8984 0.8984
3440.000000 0.8985 0.8985 0.8986 0.8986 0.8986
3435.000000 0.8986 0.8987 0.8987 0.8988 0.8988
3430.000000 0.8988 0.8988 0.8989 0.8989 0.8990
3425.000000 0.8982 0.8989 0.8990 0.8991 0.8991
3420.000000 0.8992 0.8992 0.8993 0.8993 0.8993
3415.000000 0.8992 0.8992 0.8990 0.8989 0.8987
3410.000000 0.8986 0.8985 0.8984 0.8986 0.8983
3405.000000 0.8978 0.8976 0.8975 0.8974 0.8972
3400.000000 0.8971 0.8971 0.8972 0.8974 0.8976
3395.000000 0.8979 0.8982 0.8984 0.8987 0.8990
3390.000000 0.8993 0.8995 0.8998 0.9000 0.9003
3385.000000 0.9004 0.9005 0.9005 0.9004 0.9003
3380.000000 0.9003 0.9002 0.9001 0.9000 0.9000
3375.000000 0.8999 0.8998 0.8997 0.8996 0.8995
3370.000000 0.9002 0.8994 0.8992 0.8991 0.8991
3365.000000 0.8990 0.8989 0.8987 0.8986 0.8984
3360.000000 0.8983 0.8981 0.8979 0.8978 0.8976
3355.000000 0.8976 0.8975 0.8972 0.8972 0.8971
3350.000000 0.8969 0.8969 0.8969 0.8969 0.8969
3345.000000 0.8976 0.8978 0.8970 0.8977 0.8969
3340.000000 0.8969 0.8969 0.8977 0.8977 0.8976
3335.000000 0.8967 0.8967 0.8966 0.8966 0.8966
3330.000000 0.8966 0.8965 0.8965 0.8962 0.8959
3325.000000 0.8955 0.8951 0.8947 0.8944 0.8938
3320.000000 0.8932 0.8922 0.8913 0.8903 0.8893
3315.000000 0.8883 0.8873 0.8863 0.8862 0.8851
3310.000000 0.8840 0.8845 0.8850 0.8853 0.8868
3305.000000 0.8874 0.8881 0.8880 0.8885 0.8889
3300.000000 0.8894 0.8899 0.8904 0.8910 0.8915
3295.000000 0.8919 0.8924 0.8924 0.8924 0.8924
3290.000000 0.8924 0.8923 0.8923 0.8923 0.8923
3285.000000 0.8922 0.8922 0.8929 0.8928 0.8920
3280.000000 0.8921 0.8929 0.8926 0.8920 0.8923
3275.000000 0.8928 0.8927 0.8927 0.8927 0.8925
3270.000000 0.8925 0.8925 0.8925 0.8925 0.8925
3265.000000 0.8924 0.8924 0.8924 0.8924 0.8923
3260.000000 0.8923 0.8922 0.8922 0.8922 0.8914
3255.000000 0.8921 0.8921 0.8921 0.8921 0.8920
3250.000000 0.8920 0.8919 0.8919 0.8919 0.8919
3245.000000 0.8914 0.8914 0.8917 0.8917 0.8917
3240.000000 0.8917 0.8916 0.8916 0.8916 0.8916
3235.000000 0.8915 0.8915 0.8915 0.8916 0.8917
3230.000000 0.8918 0.8919 0.8920 0.8920 0.8913
3225.000000 0.8915 0.8923 0.8924 0.8925 0.8925
3220.000000 0.8927 0.8928 0.8928 0.8928 0.8928
3215.000000 0.8928 0.8928 0.8928 0.8928 0.8928
3210.000000 0.8928 0.8928 0.8920 0.8919 0.8919
3205.000000 0.8919 0.8919 0.8919 0.8919 0.8919
3200.000000 0.8920 0.8925 0.8920 0.8925 0.8921
3195.000000 0.8927 0.8927 0.8927 0.8927 0.8925
3190.000000 0.8920 0.8921 0.8925 0.8925 0.8919
3185.000000 0.8916 0.8916 0.8916 0.8916 0.8915
3180.000000 0.8915 0.8915 0.8915 0.8914 0.8914
3175.000000 0.8914 0.8914 0.8914 0.8914 0.8913
3170.000000 0.8913 0.8912 0.8911 0.8909 0.8908
3165.000000 0.8907 0.8911 0.8914 0.8908 0.8908
3160.000000 0.8911 0.8910 0.8903 0.8906 0.8900
3155.000000 0.8897 0.8903 0.8904 0.8903 0.8902
3150.000000 0.8901 0.8900 0.8890 0.8888 0.8886
3145.000000 0.8884 0.8882 0.8878 0.8876 0.8877
3140.000000 0.8880 0.8879 0.8876 0.8873 0.8872
3135.000000 0.8870 0.8868 0.8865 0.8862 0.8860
3130.000000 0.8858 0.8855 0.8853 0.8850 0.8848
3125.000000 0.8845 0.8842 0.8839 0.8836 0.8831
3120.000000 0.8828 0.8826 0.8823 0.8816 0.8810
3115.000000 0.8796 0.8783 0.8760 0.8739 0.8718
3110.000000 0.8699 0.8693 0.8689 0.8689 0.8689
3105.000000 0.8664 0.8639 0.8609 0.8579 0.8514
3100.000000 0.8455 0.8370 0.8285 0.8206 0.8128
3095.000000 0.8050 0.7963 0.7875 0.7650 0.7695
3090.000000 0.7607 0.7593 0.7580 0.7623 0.7664
3085.000000 0.7701 0.7739 0.7782 0.7825 0.7868
3080.000000 0.7910 0.7954 0.8003 0.8055 0.8101
3075.000000 0.8144 0.8193 0.8239 0.8274 0.8282
3070.000000 0.8290 0.8288 0.8302 0.8299 0.8305
3065.000000 0.8311 0.8315 0.8314 0.8320 0.8327
3060.000000 0.8336 0.8350 0.8360 0.8363 0.8369
3055.000000 0.8382 0.8392 0.8402 0.8414 0.8433
3050.000000 0.8450 0.8464 0.8477 0.8490 0.8508
3045.000000 0.8521 0.8540 0.8549 0.8558 0.8567
3040.000000 0.8575 0.8574 0.8596 0.8570 0.8560
3035.000000 0.8540 0.8524 0.8500 0.8479 0.8465
3030.000000 0.8446 0.8423 0.8406 0.8375 0.8344
3025.000000 0.8316 0.8291 0.8262 0.8235 0.8042
3020.000000 0.7850 0.7605 0.7356 0.7105 0.6848
3015.000000 0.6595 0.6345 0.6106 0.5868 0.5868
3010.000000 0.5840 0.5966 0.6064 0.6193 0.6330
3005.000000 0.6468 0.6603 0.6735 0.6864 0.6999
3000.000000 0.7136 0.7271 0.7403 0.7537 0.7672
2995.000000 0.7806 0.7940 0.8079 0.8215 0.8238
2990.000000 0.8262 0.8286 0.8311 0.8334 0.8358
2985.000000 0.8381 0.8406 0.8429 0.8455 0.8479
2980.000000 0.8504 0.8535 0.8557 0.8578 0.8608
2975.000000 0.8622 0.8638 0.8647 0.8656 0.8666
2970.000000 0.8676 0.8691 0.8703 0.8713 0.8722
2965.000000 0.8726 0.8731 0.8735 0.8739 0.8743
2960.000000 0.8749 0.8760 0.8766 0.8762 0.8767
2955.000000 0.8771 0.8778 0.8789 0.8795 0.8798
2950.000000 0.8802 0.8805 0.8808 0.8806 0.8803
2945.000000 0.8806 0.8814 0.8814 0.8819 0.8819
2940.000000 0.8826 0.8831 0.8834 0.8836 0.8839
2935.000000 0.8833 0.8835 0.8838 0.8841 0.8845
2930.000000 0.8848 0.8851 0.8854 0.8857 0.8860
2925.000000 0.8862 0.8867 0.8870 0.8870 0.8868
2920.000000 0.8871 0.8874 0.8878 0.8882 0.8886
2915.000000 0.8891 0.8897 0.8904 0.8910 0.8916
2910.000000 0.8922 0.8926 0.8939 0.8944 0.8939
2905.000000 0.8943 0.8947 0.8949 0.8949 0.8951
2900.000000 0.8951 0.8949 0.8949 0.8949 0.8949
2895.000000 0.8947 0.8945 0.8943 0.8941 0.8939
2890.000000 0.8937 0.8933 0.8931 0.8929 0.8927
2885.000000 0.8926 0.8926 0.8926 0.8927 0.8927
2880.000000 0.8928 0.8928 0.8929 0.8922 0.8931
2875.000000 0.8931 0.8932 0.8933 0.8935 0.8936
2870.000000 0.8938 0.8939 0.8940 0.8940 0.8939
2865.000000 0.8937 0.8935 0.8929 0.8924 0.8909
2860.000000 0.8895 0.8879 0.8865 0.8848 0.8834
2855.000000 0.8819 0.8795 0.8794 0.8794 0.8810
2850.000000 0.8826 0.8842 0.8858 0.8869 0.8886
2845.000000 0.8894 0.8901 0.8905 0.8921 0.8926
2840.000000 0.8928 0.8931 0.8940 0.8944 0.8944
2835.000000 0.8943 0.8947 0.8952 0.8956 0.8960
2830.000000 0.8964 0.8975 0.8972 0.8980 0.8984
2825.000000 0.8978 0.8981 0.8991 0.8986 0.8997
2820.000000 0.8999 0.8998 0.8994 0.8997 0.9000
2815.000000 0.9001 0.9005 0.9007 0.9010 0.9012
2810.000000 0.9014 0.9014 0.9020 0.9025 0.9026
2805.000000 0.9026 0.9027 0.9028 0.9029 0.9029
2800.000000 0.9030 0.9030 0.9031 0.9032 0.9033
2795.000000 0.9033 0.9034 0.9034 0.9033 0.9029
2790.000000 0.9035 0.9028 0.9028 0.9028 0.9029
2785.000000 0.9033 0.9039 0.9034 0.9031 0.9036
2780.000000 0.9041 0.9041 0.9042 0.9042 0.9043
2775.000000 0.9043 0.9043 0.9043 0.9044 0.9044
2770.000000 0.9045 0.9045 0.9046 0.9046 0.9047
2765.000000 0.9047 0.9048 0.9049 0.9050 0.9050
2760.000000 0.9051 0.9051 0.9051 0.9051 0.9053
2755.000000 0.9053 0.9054 0.9054 0.9054 0.9054
2750.000000 0.9054 0.9054 0.9054 0.9054 0.9054
2745.000000 0.9053 0.9053 0.9051 0.9051 0.9051
2740.000000 0.9051 0.9051 0.9051 0.9051 0.9051
2735.000000 0.9051 0.9051 0.9051 0.9051 0.9051
2730.000000 0.9051 0.9050 0.9050 0.9050 0.9050
2725.000000 0.9050 0.9050 0.9050 0.9050 0.9050
2720.000000 0.9050 0.9050 0.9050 0.9050 0.9050
2715.000000 0.9049 0.9049 0.9049 0.9049 0.9048
2710.000000 0.9048 0.9048 0.9047 0.9047 0.9047
2705.000000 0.9046 0.9046 0.9046 0.9046 0.9045
2700.000000 0.9045 0.9045 0.9045 0.9045 0.9045
2695.000000 0.9044 0.9044 0.9044 0.9044 0.9044
2690.000000 0.9045 0.9046 0.9047 0.9047 0.9048
2685.000000 0.9049 0.9050 0.9050 0.9052 0.9052
2680.000000 0.9053 0.9053 0.9055 0.9055 0.9057
2675.000000 0.9058 0.9058 0.9058 0.9060 0.9061
2670.000000 0.9061 0.9061 0.9061 0.9060 0.9057
2665.000000 0.9057 0.9057 0.9056 0.9056 0.9055
2660.000000 0.9055 0.9053 0.9054 0.9062 0.9061
2655.000000 0.9059 0.9059 0.9059 0.9059 0.9055
2650.000000 0.9049 0.9048 0.9052 0.9056 0.9056
2645.000000 0.9051 0.9047 0.9046 0.9052 0.9047
2640.000000 0.9045 0.9045 0.9045 0.9044 0.9044
2635.000000 0.9045 0.9056 0.9057 0.9058 0.9050
2630.000000 0.9054 0.9062 0.9064 0.9065 0.9066
2625.000000 0.9068 0.9069 0.9071 0.9073 0.9074
2620.000000 0.9076 0.9077 0.9080 0.9081 0.9083
2615.000000 0.9084 0.9085 0.9085 0.9086 0.9086
2610.000000 0.9087 0.9087 0.9088 0.9088 0.9089
2605.000000 0.9089 0.9090 0.9090 0.9090 0.9090
2600.000000 0.9091 0.9091 0.9091 0.9090 0.9088
2595.000000 0.9084 0.9082 0.9079 0.9077 0.9074
2590.000000 0.9072 0.9069 0.9066 0.9064 0.9062
2585.000000 0.9059 0.9058 0.9055 0.9054 0.9052
2580.000000 0.9050 0.9048 0.9046 0.9044 0.9042
2575.000000 0.9040 0.9040 0.9040 0.9042 0.9045
2570.000000 0.9048 0.9051 0.9054 0.9057 0.9061
2565.000000 0.9065 0.9068 0.9071 0.9074 0.9077
2560.000000 0.9080 0.9081 0.9083 0.9084 0.9085
2555.000000 0.9086 0.9087 0.9088 0.9089 0.9090
2550.000000 0.9091 0.9092 0.9093 0.9094 0.9095
2545.000000 0.9095 0.9095 0.9094 0.9094 0.9093
2540.000000 0.9092 0.9091 0.9091 0.9090 0.9090
2535.000000 0.9089 0.9089 0.9088 0.9088 0.9087
2530.000000 0.9086 0.9083 0.9081 0.9079 0.9077
2525.000000 0.9075 0.9072 0.9070 0.9068 0.9065
2520.000000 0.9064 0.9061 0.9060 0.9057 0.9055
2515.000000 0.9053 0.9051 0.9049 0.9047 0.9044
2510.000000 0.9042 0.9040 0.9038 0.9036 0.9034
2505.000000 0.9032 0.9030 0.9028 0.9026 0.9024
2500.000000 0.9022 0.9020 0.9016 0.9015 0.9013
2495.000000 0.9012 0.9012 0.9011 0.9011 0.9009
2490.000000 0.9009 0.9009 0.9009 0.9011 0.9013
2485.000000 0.9018 0.9024 0.9028 0.9032 0.9040
2480.000000 0.9046 0.9047 0.9048 0.9049 0.9051
2475.000000 0.9052 0.9052 0.9052 0.9052 0.9049
2470.000000 0.9047 0.9044 0.9041 0.9038 0.9036
2465.000000 0.9032 0.9030 0.9029 0.9029 0.9031
2460.000000 0.9033 0.9035 0.9033 0.9034 0.9036
2455.000000 0.9034 0.9036 0.9046 0.9053 0.9057
2450.000000 0.9055 0.9065 0.9072 0.9076 0.9081
2445.000000 0.9083 0.9085 0.9086 0.9087 0.9088
2440.000000 0.9089 0.9090 0.9091 0.9091 0.9091
2435.000000 0.9090 0.9088 0.9085 0.9083 0.9080
2430.000000 0.9077 0.9076 0.9073 0.9072 0.9071
2425.000000 0.9071 0.9071 0.9071 0.9072 0.9073
2420.000000 0.9073 0.9073 0.9075 0.9076 0.9076
2415.000000 0.9076 0.9079 0.9079 0.9080 0.9078
2410.000000 0.9076 0.9076 0.9078 0.9072 0.9077
2405.000000 0.9075 0.9074 0.9072 0.9070 0.9068
2400.000000 0.9066 0.9064 0.9062 0.9061 0.9061
2395.000000 0.9059 0.9059 0.9058 0.9058 0.9057
2390.000000 0.9057 0.9065 0.9064 0.9063 0.9063
2385.000000 0.9064 0.9071 0.9071 0.9074 0.9080
2380.000000 0.9080 0.9084 0.9089 0.9093 0.9098
2375.000000 0.9098 0.9103 0.9107 0.9107 0.9107
2370.000000 0.9107 0.9101 0.9098 0.9097 0.9097
2365.000000 0.9097 0.9097 0.9097 0.9097 0.9098
2360.000000 0.9107 0.9108 0.9117 0.9119 0.9129
2355.000000 0.9136 0.9136 0.9132 0.9127 0.9119
2350.000000 0.9110 0.9106 0.9106 0.9111 0.9111
2345.000000 0.9106 0.9096 0.9088 0.9082 0.9077
2340.000000 0.9073 0.9060 0.9061 0.9059 0.9050
2335.000000 0.9046 0.9055 0.9054 0.9052 0.9053
2330.000000 0.9060 0.9058 0.9057 0.9055 0.9059
2325.000000 0.9057 0.9058 0.9053 0.9048 0.9042
2320.000000 0.9037 0.9033 0.9029 0.9024 0.9018
2315.000000 0.9013 0.9009 0.9004 0.8998 0.8993
2310.000000 0.8989 0.8984 0.8979 0.8976 0.8974
2305.000000 0.8972 0.8971 0.8969 0.8967 0.8965
2300.000000 0.8964 0.8965 0.8968 0.8966 0.8965
2295.000000 0.8964 0.8964 0.8965 0.8967 0.8969
2290.000000 0.8972 0.8974 0.8969 0.8969 0.8971
2285.000000 0.8973 0.8974 0.8969 0.8970 0.8971
2280.000000 0.8972 0.8977 0.8973 0.8977 0.8980
2275.000000 0.8976 0.8980 0.8985 0.8986 0.8984
2270.000000 0.8988 0.8988 0.8987 0.8988 0.8992
2265.000000 0.8986 0.8983 0.8983 0.8983 0.8976
2260.000000 0.8974 0.8974 0.8966 0.8965 0.8965
2255.000000 0.8965 0.8958 0.8958 0.8958 0.8954
2250.000000 0.8944 0.8939 0.8936 0.8933 0.8933
2245.000000 0.8929 0.8925 0.8927 0.8929 0.8930
2240.000000 0.8934 0.8935 0.8937 0.8937 0.8937
2235.000000 0.8928 0.8924 0.8918 0.8914 0.8909
2230.000000 0.8904 0.8898 0.8892 0.8891 0.8891
2225.000000 0.8891 0.8891 0.8891 0.8890 0.8893
2220.000000 0.8903 0.8917 0.8931 0.8934 0.8937
2215.000000 0.8938 0.8940 0.8941 0.8943 0.8944
2210.000000 0.8946 0.8948 0.8950 0.8950 0.8950
2205.000000 0.8950 0.8950 0.8949 0.8948 0.8948
2200.000000 0.8948 0.8948 0.8948 0.8951 0.8952
2195.000000 0.8947 0.8958 0.8958 0.8954 0.8955
2190.000000 0.8955 0.8955 0.8955 0.8952 0.8952
2185.000000 0.8950 0.8954 0.8950 0.8946 0.8944
2180.000000 0.8943 0.8942 0.8949 0.8951 0.8951
2175.000000 0.8954 0.8958 0.8961 0.8964 0.8968
2170.000000 0.8973 0.8974 0.8968 0.8970 0.8973
2165.000000 0.8975 0.8977 0.8977 0.8977 0.8977
2160.000000 0.8977 0.8975 0.8973 0.8970 0.8968
2155.000000 0.8962 0.8959 0.8954 0.8948 0.8944
2150.000000 0.8940 0.8939 0.8938 0.8937 0.8936
2145.000000 0.8935 0.8935 0.8934 0.8933 0.8931
2140.000000 0.8929 0.8926 0.8923 0.8919 0.8916
2135.000000 0.8913 0.8910 0.8907 0.8903 0.8902
2130.000000 0.8900 0.8900 0.8899 0.8898 0.8898
2125.000000 0.8898 0.8899 0.8900 0.8895 0.8904
2120.000000 0.8907 0.8907 0.8907 0.8907 0.8907
2115.000000 0.8903 0.8900 0.8896 0.8892 0.8887
2110.000000 0.8883 0.8881 0.8880 0.8879 0.8879
2105.000000 0.8878 0.8878 0.8877 0.8876 0.8874
2100.000000 0.8873 0.8871 0.8863 0.8859 0.8864
2095.000000 0.8862 0.8852 0.8854 0.8851 0.8844
2090.000000 0.8836 0.8826 0.8816 0.8796 0.8778
2085.000000 0.8755 0.8735 0.8717 0.8699 0.8683
2080.000000 0.8669 0.8655 0.8640 0.8626 0.8612
2075.000000 0.8605 0.8597 0.8592 0.8585 0.8622
2070.000000 0.8660 0.8693 0.8727 0.8752 0.8776
2065.000000 0.8784 0.8791 0.8796 0.8803 0.8811
2060.000000 0.8819 0.8822 0.8825 0.8829 0.8839
2055.000000 0.8841 0.8844 0.8846 0.8844 0.8845
2050.000000 0.8853 0.8850 0.8849 0.8851 0.8855
2045.000000 0.8857 0.8858 0.8861 0.8864 0.8866
2040.000000 0.8869 0.8871 0.8874 0.8877 0.8880
2035.000000 0.8883 0.8887 0.8889 0.8892 0.8895
2030.000000 0.8898 0.8901 0.8907 0.8912 0.8909
2025.000000 0.8915 0.8922 0.8924 0.8926 0.8928
2020.000000 0.8930 0.8930 0.8930 0.8930 0.8930
2015.000000 0.8929 0.8928 0.8927 0.8926 0.8925
2010.000000 0.8925 0.8924 0.8923 0.8922 0.8922
2005.000000 0.8921 0.8921 0.8918 0.8915 0.8897
2000.000000 0.8880 0.8854 0.8824 0.8759 0.8707
1995.000000 0.8689 0.8715 0.8759 0.8806 0.8854
1990.000000 0.8902 0.8928 0.8950 0.8952 0.8946
1985.000000 0.8947 0.8948 0.8948 0.8950 0.8950
1980.000000 0.8952 0.8951 0.8943 0.8945 0.8945
1975.000000 0.8946 0.8946 0.8946 0.8945 0.8943
1970.000000 0.8939 0.8935 0.8932 0.8928 0.8928
1965.000000 0.8922 0.8915 0.8917 0.8914 0.8910
1960.000000 0.8906 0.8902 0.8897 0.8893 0.8886
1955.000000 0.8881 0.8866 0.8860 0.8861 0.8861
1950.000000 0.8861 0.8856 0.8859 0.8867 0.8875
1945.000000 0.8882 0.8889 0.8897 0.8905 0.8912
1940.000000 0.8915 0.8918 0.8921 0.8925 0.8928
1935.000000 0.8930 0.8935 0.8938 0.8942 0.8945
1930.000000 0.8948 0.8951 0.8952 0.8952 0.8950
1925.000000 0.8947 0.8944 0.8941 0.8938 0.8935
1920.000000 0.8926 0.8913 0.8900 0.8888 0.8873
1915.000000 0.8859 0.8845 0.8830 0.8816 0.8800
1910.000000 0.8786 0.8772 0.8757 0.8752 0.8749
1905.000000 0.8743 0.8738 0.8738 0.8739 0.8740
1900.000000 0.8740 0.8741 0.8736 0.8732 0.8728
1895.000000 0.8723 0.8718 0.8714 0.8709 0.8701
1890.000000 0.8690 0.8686 0.8681 0.8676 0.8671
1885.000000 0.8670 0.8674 0.8679 0.8696 0.8712
1880.000000 0.8728 0.8745 0.8759 0.8772 0.8783
1875.000000 0.8804 0.8817 0.8828 0.8840 0.8852
1870.000000 0.8862 0.8872 0.8881 0.8879 0.8877
1865.000000 0.8876 0.8874 0.8871 0.8868 0.8865
1860.000000 0.8861 0.8858 0.8854 0.8856 0.8854
1855.000000 0.8851 0.8853 0.8855 0.8856 0.8857
1850.000000 0.8858 0.8859 0.8860 0.8863 0.8866
1845.000000 0.8869 0.8873 0.8876 0.8879 0.8882
1840.000000 0.8886 0.8888 0.8892 0.8896 0.8895
1835.000000 0.8894 0.8897 0.8901 0.8904 0.8906
1830.000000 0.8909 0.8911 0.8915 0.8917 0.8920
1825.000000 0.8923 0.8924 0.8924 0.8925 0.8925
1820.000000 0.8926 0.8935 0.8935 0.8935 0.8933
1815.000000 0.8932 0.8929 0.8927 0.8926 0.8924
1810.000000 0.8922 0.8915 0.8905 0.8901 0.8896
1805.000000 0.8892 0.8882 0.8874 0.8864 0.8855
1800.000000 0.8845 0.8835 0.8825 0.8816 0.8803
1795.000000 0.8788 0.8774 0.8759 0.8746 0.8731
1790.000000 0.8718 0.8704 0.8695 0.8687 0.8686
1785.000000 0.8685 0.8689 0.8706 0.8726 0.8750
1780.000000 0.8769 0.8784 0.8799 0.8814 0.8823
1775.000000 0.8834 0.8848 0.8858 0.8869 0.8879
1770.000000 0.8889 0.8899 0.8908 0.8912 0.8916
1765.000000 0.8920 0.8925 0.8929 0.8933 0.8984
1760.000000 0.8939 0.8942 0.8950 0.8951 0.8952
1755.000000 0.8953 0.8954 0.8950 0.8945 0.8941
1750.000000 0.8936 0.8931 0.8925 0.8920 0.8916
1745.000000 0.8911 0.8904 0.8896 0.8887 0.8878
1740.000000 0.8871 0.8864 0.8857 0.8850 0.8843
1735.000000 0.8837 0.8835 0.8832 0.8829 0.8827
1730.000000 0.8824 0.8821 0.8819 0.8816 0.8813
1725.000000 0.8811 0.8809 0.8806 0.8804 0.8798
1720.000000 0.8800 0.8800 0.8807 0.8815 0.8822
1715.000000 0.8829 0.8836 0.8848 0.8859 0.8870
1710.000000 0.8881 0.8893 0.8904 0.8912 0.8918
1705.000000 0.8926 0.8931 0.8939 0.8947 0.8954
1700.000000 0.8961 0.8964 0.8967 0.8969 0.8970
1695.000000 0.8972 0.8975 0.8977 0.8979 0.8981
1690.000000 0.8983 0.8985 0.8986 0.8990 0.8990
1685.000000 0.8990 0.8993 0.8993 0.8994 0.8995
1680.000000 0.8996 0.8996 0.8996 0.8998 0.8999
1675.000000 0.9000 0.9000 0.9004 0.9010 0.9012
1670.000000 0.9012 0.9013 0.9014 0.9014 0.9015
1665.000000 0.9015 0.9016 0.9017 0.9017 0.9018
1660.000000 0.9027 0.9022 0.9022 0.9032 0.9034
1655.000000 0.9036 0.9037 0.9037 0.9032 0.9041
1650.000000 0.9042 0.9042 0.9040 0.9038 0.9039
1645.000000 0.9043 0.9041 0.9040 0.9043 0.9044
1640.000000 0.9043 0.9034 0.9031 0.9025 0.9023
1635.000000 0.9016 0.9007 0.9005 0.8994 0.8990
1630.000000 0.8978 0.8974 0.8962 0.8958 0.8944
1625.000000 0.8928 0.8923 0.8909 0.8903 0.8888
1620.000000 0.8868 0.8857 0.8847 0.8837 0.8834
1615.000000 0.8834 0.8826 0.8818 0.8813 0.8813
1610.000000 0.8800 0.8797 0.8776 0.8743 0.8728
1605.000000 0.8694 0.8689 0.8657 0.8640 0.8595
1600.000000 0.8573 0.8500 0.8438 0.8388 0.8332
1595.000000 0.8264 0.8144 0.8011 0.7805 0.7579
1590.000000 0.7518 0.7482 0.7486 0.7476 0.7471
1585.000000 0.7478 0.7489 0.7503 0.7493 0.7486
1580.000000 0.7473 0.7463 0.7443 0.7432 0.7414
1575.000000 0.7393 0.7370 0.7339 0.7307 0.7292
1570.000000 0.7244 0.7207 0.7164 0.7136 0.7117
1565.000000 0.7107 0.7101 0.7095 0.7081 0.7068
1560.000000 0.7028 0.6986 0.6766 0.6697 0.6631
1555.000000 0.6580 0.6513 0.6437 0.6388 0.6398
1550.000000 0.6417 0.6410 0.6412 0.6452 0.6530
1545.000000 0.6615 0.6695 0.6769 0.6832 0.6879
1540.000000 0.6927 0.6964 0.7000 0.7057 0.7145
1535.000000 0.7245 0.7289 0.7332 0.7376 0.7405
1530.000000 0.7420 0.7443 0.7469 0.7494 0.7534
1525.000000 0.7578 0.7628 0.7671 0.7722 0.7743
1520.000000 0.7773 0.7801 0.7822 0.7851 0.7877
1515.000000 0.7897 0.7923 0.7950 0.7987 0.8018
1510.000000 0.8053 0.8088 0.8118 0.8153 0.8190
1505.000000 0.8230 0.8272 0.8297 0.8312 0.8332
1500.000000 0.8354 0.8377 0.8394 0.8423 0.8464
1495.000000 0.8511 0.8550 0.8580 0.8601 0.8622
1490.000000 0.8644 0.8666 0.8673 0.8681 0.8694
1485.000000 0.8708 0.8722 0.8737 0.8759 0.8776
1480.000000 0.8780 0.8768 0.8752 0.8737 0.8734
1475.000000 0.8732 0.8727 0.8735 0.8741 0.8745
1470.000000 0.8740 0.8736 0.8732 0.8732 0.8726
1465.000000 0.8728 0.8719 0.8719 0.8703 0.8694
1460.000000 0.8684 0.8653 0.8613 0.8577 0.8534
1455.000000 0.8488 0.8442 0.8372 0.8206 0.5346
1450.000000 0.5344 0.5342 0.5515 0.5801 0.6090
1445.000000 0.6381 0.6671 0.6963 0.7253 0.7544
1440.000000 0.7826 0.8118 0.8198 0.8213 0.8217
1435.000000 0.8218 0.8220 0.8214 0.8184 0.7922
1430.000000 0.7646 0.7373 0.7095 0.6820 0.6549
1425.000000 0.6274 0.6004 0.5982 0.6110 0.6679
1420.000000 0.7249 0.7819 0.8082 0.8189 0.8290
1415.000000 0.8383 0.8449 0.8516 0.8582 0.8636
1410.000000 0.8676 0.8715 0.8756 0.8785 0.8807
1405.000000 0.8830 0.8853 0.8863 0.8875 0.8886
1400.000000 0.8897 0.8909 0.8925 0.8941 0.8952
1395.000000 0.8958 0.8958 0.8960 0.8961 0.8961
1390.000000 0.8966 0.8973 0.8972 0.8986 0.9001
1385.000000 0.9017 0.9016 0.8996 0.8975 0.8957
1380.000000 0.8958 0.8963 0.8976 0.8988 0.8995
1375.000000 0.8998 0.9007 0.9015 0.9025 0.9033
1370.000000 0.9042 0.9050 0.9051 0.9050 0.9046
1365.000000 0.9043 0.9041 0.9036 0.9032 0.9029
1360.000000 0.9024 0.9021 0.9022 0.9024 0.9016
1355.000000 0.9018 0.9019 0.9020 0.9023 0.9024
1350.000000 0.9024 0.9024 0.9026 0.9022 0.9017
1345.000000 0.9013 0.9009 0.9004 0.8995 0.8992
1340.000000 0.8984 0.8979 0.8977 0.8974 0.8972
1335.000000 0.8969 0.8968 0.8966 0.8964 0.8961
1330.000000 0.8959 0.8948 0.8946 0.8945 0.8941
1325.000000 0.8931 0.8927 0.8921 0.8910 0.8906
1320.000000 0.8902 0.8898 0.8895 0.8895 0.8896
1315.000000 0.8892 0.8888 0.8882 0.8875 0.8869
1310.000000 0.8862 0.8856 0.8849 0.8842 0.8835
1305.000000 0.8829 0.8814 0.8806 0.8797 0.8784
1300.000000 0.8770 0.8757 0.8743 0.8730 0.8718
1295.000000 0.8711 0.8697 0.8684 0.8670 0.8646
1290.000000 0.8620 0.8598 0.8576 0.8554 0.8516
1285.000000 0.8473 0.8429 0.8370 0.8281 0.8194
1280.000000 0.8095 0.7978 0.7860 0.7649 0.7400
1275.000000 0.7176 0.6937 0.6679 0.6375 0.6023
1270.000000 0.5368 0.4925 0.4160 0.3397 0.2634
1265.000000 0.1869 0.1104 0.0339 0.0251 0.0264
1260.000000 0.0710 0.1289 0.1868 0.2448 0.3026
1255.000000 0.3605 0.4184 0.4759 0.5336 0.6163
1250.000000 0.6482 0.7072 0.7357 0.7450 0.7542
1245.000000 0.7620 0.7678 0.7734 0.7782 0.7816
1240.000000 0.7825 0.7830 0.7823 0.7804 0.7784
1235.000000 0.7764 0.7752 0.7749 0.7846 0.7972
1230.000000 0.8066 0.8155 0.8243 0.8314 0.8369
1225.000000 0.8426 0.8482 0.8537 0.8585 0.8634
1220.000000 0.8680 0.8708 0.8734 0.8759 0.8767
1215.000000 0.8774 0.8781 0.8789 0.8798 0.8817
1210.000000 0.8802 0.8803 0.8807 0.8807 0.8806
1205.000000 0.8803 0.8777 0.8736 0.8673 0.8551
1200.000000 0.8414 0.8118 0.7807 0.7643 0.7643
1195.000000 0.7643 0.8192 0.8378 0.8517 0.8609
1190.000000 0.8693 0.8746 0.8785 0.8813 0.8840
1185.000000 0.8854 0.8867 0.8868 0.8862 0.8862
1180.000000 0.8835 0.8819 0.8829 0.8846 0.8861
1175.000000 0.8877 0.8875 0.8871 0.8867 0.8853
1170.000000 0.8831 0.8806 0.8784 0.8762 0.8728
1165.000000 0.8695 0.8655 0.8619 0.8583 0.8552
1160.000000 0.8521 0.8507 0.8506 0.8506 0.8559
1155.000000 0.8614 0.8654 0.8694 0.8733 0.8768
1150.000000 0.8790 0.8807 0.8816 0.8826 0.8841
1145.000000 0.8855 0.8869 0.8866 0.8877 0.8882
1140.000000 0.8886 0.8900 0.8913 0.8926 0.8931
1135.000000 0.8943 0.8949 0.8950 0.8960 0.8968
1130.000000 0.8976 0.8982 0.8980 0.8987 0.8992
1125.000000 0.8996 0.9001 0.9007 0.9003 0.9002
1120.000000 0.8998 0.8993 0.8989 0.8985 0.8986
1115.000000 0.8980 0.8972 0.8965 0.8958 0.8951
1110.000000 0.8946 0.8940 0.8928 0.8928 0.8917
1105.000000 0.8916 0.8914 0.8913 0.8911 0.8902
1100.000000 0.8878 0.8855 0.8821 0.8771 0.8722
1095.000000 0.8667 0.8611 0.8515 0.8346 0.8194
1090.000000 0.8105 0.8023 0.7994 0.7986 0.7997
1085.000000 0.8112 0.8204 0.8289 0.8363 0.8405
1080.000000 0.8451 0.8468 0.8480 0.8496 0.8490
1075.000000 0.8485 0.8497 0.8483 0.8478 0.8469
1070.000000 0.8459 0.8449 0.8441 0.8422 0.8402
1065.000000 0.8382 0.8362 0.8330 0.8294 0.8251
1060.000000 0.8206 0.8131 0.8073 0.8007 0.7906
1055.000000 0.7811 0.7700 0.7573 0.7445 0.6872
1050.000000 0.6222 0.5566 0.4631 0.4610 0.4744
1045.000000 0.5007 0.5271 0.5533 0.5796 0.6059
1040.000000 0.6320 0.6568 0.6566 0.6565 0.6470
1035.000000 0.6285 0.6101 0.5916 0.5732 0.5546
1030.000000 0.5363 0.5334 0.5305 0.5265 0.5219
1025.000000 0.5146 0.4391 0.3576 0.2759 0.1763
1020.000000 0.1796 0.1796 0.2364 0.2954 0.3545
1015.000000 0.4135 0.4725 0.5316 0.5906 0.6496
1010.000000 0.6820 0.7096 0.7426 0.8011 0.8123
1005.000000 0.8237 0.8309 0.8377 0.8445 0.8513
1000.000000 0.8570 0.8603 0.8635 0.8661 0.8694
995.000000 0.8728 0.8755 0.8782 0.8813 0.8845
990.000000 0.8871 0.8889 0.8902 0.8914 0.8927
985.000000 0.8940 0.8952 0.8963 0.8973 0.8982
980.000000 0.8991 0.9001 0.9011 0.9020 0.9029
975.000000 0.9036 0.9043 0.9046 0.9046 0.9059
970.000000 0.9065 0.9070 0.9076 0.9081 0.9088
965.000000 0.9092 0.9092 0.9092 0.9094 0.9095
960.000000 0.9096 0.9096 0.9097 0.9098 0.9097
955.000000 0.9094 0.9091 0.9088 0.9087 0.9084
950.000000 0.9081 0.9079 0.9071 0.9061 0.9050
945.000000 0.9039 0.9028 0.9017 0.9003 0.8980
940.000000 0.8959 0.8936 0.8913 0.8867 0.8817
935.000000 0.8766 0.8692 0.8612 0.8467 0.8337
930.000000 0.8230 0.7634 0.6646 0.6051 0.6027
925.000000 0.6033 0.6043 0.6066 0.6366 0.6775
920.000000 0.7183 0.7594 0.7950 0.8041 0.8143
915.000000 0.8228 0.8305 0.8383 0.8447 0.8512
910.000000 0.8572 0.8627 0.8665 0.8679 0.8684
905.000000 0.8695 0.8702 0.8715 0.8747 0.8775
900.000000 0.8808 0.8834 0.8868 0.8890 0.8906
895.000000 0.8934 0.8949 0.8966 0.8987 0.9000
890.000000 0.9013 0.9029 0.9035 0.9025 0.9016
885.000000 0.9006 0.9001 0.8973 0.8926 0.8884
880.000000 0.8840 0.8790 0.8718 0.8646 0.8573
875.000000 0.8496 0.8416 0.8335 0.8257 0.8176
870.000000 0.8081 0.7974 0.7879 0.7653 0.7391
865.000000 0.7128 0.6871 0.6610 0.6342 0.6075
860.000000 0.5852 0.5927 0.6107 0.6283 0.6456
855.000000 0.6625 0.6780 0.6944 0.7158 0.7319
850.000000 0.7458 0.7540 0.7604 0.7660 0.7677
845.000000 0.7678 0.7659 0.7632 0.7600 0.7443
840.000000 0.7019 0.6592 0.6560 0.6758 0.6976
835.000000 0.7202 0.7430 0.7655 0.7885 0.8113
830.000000 0.8302 0.8380 0.8433 0.8479 0.8502
825.000000 0.8518 0.8529 0.8530 0.8530 0.8498
820.000000 0.8469 0.8420 0.8359 0.8296 0.8242
815.000000 0.8180 0.8111 0.8043 0.7982 0.7886
810.000000 0.7697 0.7581 0.6986 0.6504 0.6029
805.000000 0.5556 0.5079 0.4601 0.4091 0.4100
800.000000 0.4098 0.4486 0.4944 0.5402 0.5860
795.000000 0.6317 0.6770 0.7074 0.7167 0.7232
790.000000 0.7297 0.7286 0.7290 0.7266 0.7215
785.000000 0.7167 0.7106 0.6969 0.6993 0.6994
780.000000 0.7010 0.7096 0.7179 0.7251 0.7320
775.000000 0.7388 0.7457 0.7539 0.7627 0.7716
770.000000 0.7811 0.7880 0.7928 0.7892 0.7880
765.000000 0.7860 0.7788 0.7687 0.7584 0.7482
760.000000 0.7381 0.7154 0.7188 0.7187 0.7191
755.000000 0.7404 0.7624 0.7847 0.8066 0.8176
750.000000 0.8255 0.8340 0.8432 0.8509 0.8565
745.000000 0.8609 0.8640 0.8672 0.8702 0.8719
740.000000 0.8734 0.8747 0.8758 0.8768 0.8779
735.000000 0.8791 0.8802 0.8813 0.8824 0.8835
730.000000 0.8855 0.8862 0.8869 0.8876 0.8885
725.000000 0.8898 0.8903 0.8906 0.8904 0.8896
720.000000 0.8884 0.8853 0.8823 0.8830 0.8833
715.000000 0.8836 0.8847 0.8857 0.8867 0.8879
710.000000 0.8889 0.8900 0.8911 0.8919 0.8922
705.000000 0.8926 0.8930 0.8941 0.8945 0.8950
700.000000 0.8960 0.8960 0.8961 0.8959 0.8974
695.000000 0.8959 0.8962 0.8960 0.8958 0.8955
690.000000 0.8951 0.8948 0.8951 0.8951 0.8947
685.000000 0.8944 0.8942 0.8946 0.8938 0.8927
680.000000 0.8924 0.8912 0.8913 0.8905 0.8886
675.000000 0.8840 0.8775 0.8714 0.8640 0.8640
670.000000 0.8653 0.8755 0.8871 0.8900 0.8882
665.000000 0.8880 0.8870 0.8856 0.8841 0.8832
660.000000 0.8808 0.8785 0.8754 0.8736 0.8717
655.000000 0.8690 0.8663 0.8655 0.8632 0.8626
650.000000 0.8620 0.8625 0.8634 0.8642 0.8643
645.000000 0.8653 0.8659 0.8661 0.8669 0.8679
640.000000 0.8690 0.8708 0.8722 0.8733 0.8747
635.000000 0.8759 0.8754 0.8758 0.8755 0.8718
630.000000 0.8647 0.8587 0.8556 0.8550 0.8589
625.000000 0.8640 0.8681 0.8712 0.8741 0.8752
620.000000 0.8764 0.8778 0.8796 0.8806 0.8812
615.000000 0.8825 0.8833 0.8841 0.8850 0.8861
610.000000 0.8870 0.8879 0.8888 0.8892 0.8898
605.000000 0.8904 0.8909 0.8914 0.8919 0.8923
600.000000 0.8928 0.8931 0.8934 0.8937 0.8941
595.000000 0.8944 0.8947 0.8951 0.8952 0.8952
590.000000 0.8951 0.8950 0.8947 0.8942 0.8938
585.000000 0.8936 0.8928 0.8926 0.8922 0.8917
580.000000 0.8912 0.8907 0.8902 0.8891 0.8883
575.000000 0.8879 0.8878 0.8872 0.8864 0.8856
570.000000 0.8847 0.8839 0.8830 0.8811 0.8795
565.000000 0.8785 0.8764 0.8739 0.8715 0.8670
560.000000 0.8626 0.8455 0.8179 0.7968 0.7847
555.000000 0.7638 0.6868 0.6040 0.5210 0.4384
550.000000 0.3564 0.3568 0.3638 0.4112 0.4585
545.000000 0.5059 0.5534 0.6008 0.6482 0.6955
540.000000 0.7429 0.7758 0.7912 0.8067 0.8228
535.000000 0.8281 0.8332 0.8384 0.8411 0.8438
530.000000 0.8462 0.8490 0.8503 0.8513 0.8528
525.000000 0.8540 0.8549 0.8559 0.8569 0.8578
520.000000 0.8587 0.8592 0.8595 0.8597 0.8599
515.000000 0.8602 0.8606 0.8609 0.8612 0.8615
510.000000 0.8616 0.8620 0.8632 0.8616 0.8613
505.000000 0.8611 0.8608 0.8604 0.8601 0.8599
500.000000 0.8596 0.8593 0.8590 0.8587 0.8584
495.000000 0.8578 0.8572 0.8564 0.8560 0.8554
490.000000 0.8548 0.8542 0.8536 0.8530 0.8524
485.000000 0.8517 0.8512 0.8504 0.8495 0.8486
480.000000 0.8478 0.8469 0.8460 0.8452 0.8444
475.000000 0.8436 0.8426 0.8417 0.8410 0.8400
470.000000 0.8388 0.8378 0.8366 0.8355 0.8344
465.000000 0.8334 0.8322 0.8310 0.8298 0.8286
460.000000 0.8275 0.8263 0.8252 0.8241 0.8229
455.000000 0.8217
##END=
