##TITLE=4-Methyl-2-heptyn-4-ol
##JCAMP-DX=4.24
##DATA TYPE=INFRARED SPECTRUM
##ORIGIN=EPA-IR VAPOR PHASE LIBRARY
##OWNER=SRD/NIST
Collection (C) 2018 copyright by the U.S. Secretary of Commerce
on behalf of the United States of America. All rights reserved.
##CAS REGISTRY NO=4376-16-3
##MOLFORM=C 8 H 14 O
##$NIST SOURCE=MSDC-IR
##STATE=gas
##XUNITS=1/CM
##YUNITS=ABSORBANCE
##XFACTOR=1.
##YFACTOR=0.001
##DELTAX=1.92898
##FIRSTX=549.8
##LASTX=4000.7
##FIRSTY=3.619
##MAXX=4000.7
##MINX=549.759
##MAXY=0.047999
##MINY=0
##NPOINTS=1790
##XYDATA=(X++(Y..Y))
549.759 3.619 3.529 3.689 3.669 3.579 3.579 4.269 4.099 3.659 3.329
569.049 3.219 2.959 2.859 3.189 2.679 2.649 2.659 2.649 2.959 2.679
588.339 2.609 3.069 3.609 3.669 3.399 3.319 3.169 2.959 2.449 2.259
607.628 2.429 2.579 2.189 1.797 2.179 1.6942 1.849 2.569 2.369 2.229
626.918 2.539 2.579 2.589 3.009 3.199 2.819 2.599 2.789 3.019 3.039
646.208 2.749 3.099 3.809 3.349 2.919 3.089 3.289 3.139 2.689 2.779
665.498 2.849 2.729 3.009 3.089 2.609 2.239 1.999 2.249 2.489 2.219
684.787 2.079 2.139 2.199 2.099 2.279 2.489 2.389 2.229 2.309 2.369
704.077 2.519 2.149 1.7004 1.939 2.179 2.079 1.8128 2.129 2.139 1.3474
723.367 1.4612 2.339 2.489 2.099 2.149 2.109 1.5794 1.7729 2.369 2.269
742.657 2.349 2.719 2.459 2.599 2.709 2.029 2.009 2.479 2.589 2.109
761.947 1.979 2.319 2.209 2.239 2.449 2.419 2.349 2.549 2.669 2.499
781.236 1.899 1.6701 1.8218 1.999 2.149 1.939 1.929 1.7953 1.7519 2.229
800.526 2.089 1.6881 1.829 1.929 1.7463 1.7706 1.7714 1.602 1.6886 2.029
819.816 2.129 2.419 2.679 2.369 2.799 3.409 3.629 3.529 3.399 3.429
839.106 3.669 4.089 4.429 4.609 4.489 4.649 4.649 5.039 4.879 4.309
858.395 4.519 4.089 3.659 3.629 3.579 3.769 3.899 3.679 3.729 4.149
877.685 4.479 4.769 4.879 4.779 5.089 5.419 5.929 6.349 6.319 6.579
896.975 7.109 7.599 8.079 8.239 8.249 8.509 8.669 8.759 8.509 8.589
916.265 8.639 8.099 7.899 8.129 8.289 8.569 8.869 9.039 9.359 9.779
935.555 9.959 10.039 10.369 10.229 10.319 10.229 9.709 9.209 8.009 7.289
954.844 6.509 5.549 5.359 5.089 4.629 3.899 3.589 3.749 3.659 3.419
974.134 3.439 3.739 3.539 3.429 3.959 4.499 4.739 5.049 5.389 5.779
993.424 6.189 6.809 7.279 7.069 7.779 8.589 8.589 8.609 8.079 7.989
1012.714 8.259 8.029 7.559 7.299 6.959 6.779 7.149 7.009 6.799 6.959
1032.003 6.949 7.219 7.639 7.909 8.379 8.879 9.239 9.349 9.099 9.009
1051.293 9.399 9.579 9.469 9.679 9.269 8.779 8.669 7.759 7.089 7.009
1070.583 6.709 6.379 5.979 5.249 5.569 6.259 6.069 5.569 5.789 6.119
1089.873 6.589 7.189 6.849 6.989 7.319 7.679 9.029 9.789 9.579 9.599
1109.163 8.799 8.999 10.199 11.049 11.829 12.139 13.579 15.249 15.909 16.249
1128.452 16.539 17.679 18.779 19.409 19.899 19.639 20.179 19.919 19.079 19.489
1147.742 19.199 18.789 17.579 16.669 16.989 16.539 15.379 14.449 13.619 12.429
1167.032 11.209 11.179 10.999 10.109 9.699 9.869 10.849 10.589 9.999 9.889
1186.322 9.859 10.509 10.829 10.279 10.129 10.259 9.639 9.349 9.249 9.409
1205.611 8.769 9.349 10.689 9.749 8.809 8.909 9.169 9.029 9.059 9.259
1224.901 8.999 8.299 8.489 8.739 8.439 8.509 8.539 8.839 8.799 8.389
1244.191 8.219 8.529 8.309 7.829 8.119 8.459 8.339 8.379 8.279 8.029
1263.481 8.169 8.069 8.399 8.919 9.339 9.329 9.319 9.469 9.819 9.849
1282.771 9.579 9.809 9.749 9.899 10.039 9.709 9.819 10.229 10.409 10.409
1302.060 10.549 10.609 10.679 10.919 11.169 11.699 12.169 12.479 13.149 13.769
1321.350 14.289 14.809 15.379 16.139 16.829 17.389 17.859 18.099 18.239 18.509
1340.640 18.559 18.519 18.459 18.249 17.839 17.259 16.789 16.529 16.329 16.069
1359.930 16.059 16.129 15.899 15.769 15.809 15.719 15.779 16.029 16.089 15.519
1379.219 14.449 13.669 12.889 11.949 11.029 10.259 9.429 8.499 7.719 6.839
1398.509 6.099 5.709 5.589 5.529 5.369 5.079 4.929 5.039 5.119 5.189
1417.799 5.289 5.409 5.409 5.339 5.449 5.569 5.729 5.909 5.979 6.149
1437.089 6.389 6.719 6.979 7.109 7.409 7.689 7.909 8.209 8.399 8.599
1456.378 8.899 9.099 9.149 9.059 8.679 8.249 8.019 7.629 7.119 6.899
1475.668 6.709 6.159 5.609 5.209 4.859 4.549 4.249 3.889 3.709 3.659
1494.958 3.639 3.689 3.619 3.399 3.239 3.029 3.049 3.249 3.159 2.929
1514.248 2.889 2.839 2.639 2.469 2.399 2.399 2.539 2.589 2.489 2.549
1533.538 2.589 2.469 2.349 2.339 2.639 2.809 2.479 2.309 2.279 2.019
1552.827 2.099 2.089 1.939 1.849 1.7166 1.899 1.949 1.899 1.909 1.839
1572.117 1.6563 1.4144 1.3967 1.6126 1.7424 1.8203 1.7039 1.6023 1.6031 1.6089
1591.407 1.4694 1.4427 1.6427 1.6969 1.6442 1.6289 1.5782 1.3548 1.3686 1.2912
1610.697 1.2636 1.5166 1.4341 1.2496 1.298 1.2947 1.1529 1.182 1.2464 1.3309
1629.986 1.3809 1.3384 1.1969 1.1903 1.1868 0.999 1.1376 1.2309 1.1125 1.1461
1649.276 1.298 1.2009 0.9307 0.91854 1.0672 1.2744 1.2192 1.022 1.1385 1.1997
1668.566 1.061 1.0627 1.1779 1.1446 0.9847 0.9548 0.9655 1.0931 1.1056 1.1296
1687.856 1.2291 1.0682 1.0205 1.0581 0.9759 0.9459 1.022 1.0277 0.9976 1.0949
1707.146 1.2268 1.2236 1.0849 0.9973 0.9703 0.88686 0.9763 1.1651 1.153 1.148
1726.435 1.0635 0.84806 0.939 1.0571 1.0082 1.1491 1.1217 0.90844 0.9117 0.9392
1745.725 0.934 0.9667 0.86575 0.8004 0.87036 0.9866 0.9737 0.84235 0.87277 0.9954
1765.015 0.9314 0.833391 0.90913 1.0111 1.0182 1.0015 0.9875 0.91172 0.89321 0.859
1784.305 0.85621 0.9526 0.9512 1.0483 1.0721 0.87669 0.87962 0.9839 0.87621 0.86734
1803.594 0.9242 0.87933 0.91746 0.91326 0.9621 0.9364 0.88449 0.9717 1.0603 1.0581
1822.884 1.035 0.9702 0.92471 0.9919 1.004 0.9791 0.9975 0.90645 0.7732 0.8134
1842.174 0.9695 0.9318 0.90243 0.9672 0.92397 0.88176 0.9899 1.0073 0.91196 1.0183
1861.464 0.9739 0.85988 0.7505 0.7608 0.8878 0.89544 1.0314 1.0803 1.0158 0.9493
1880.754 0.89101 0.828271 0.7428 0.7695 0.87681 0.88483 0.747 0.9361 1.0441 0.9661
1900.043 0.92592 0.87811 0.91186 0.90041 0.85934 0.9924 1.0273 0.8163 0.7549 0.830474
1919.333 0.88034 0.8167 0.7991 0.90716 0.9326 0.87413 0.9666 1.0073 0.9461 0.9669
1938.623 0.9737 0.89466 0.838633 0.87395 1.0323 1.0717 0.9759 0.84899 0.830056 0.9635
1957.913 0.91725 0.88132 0.8647 0.86094 0.82363 0.830737 0.91207 1.0028 0.958 0.7754
1977.202 0.8149 0.92462 0.91375 0.82268 0.88447 1.0743 1.0982 0.88459 0.7731 0.86912
1996.492 0.85388 0.7964 0.7828 0.8047 0.87072 0.838708 0.7826 0.84145 0.9626 0.92207
2015.782 0.92382 0.9789 0.9423 0.8158 0.92261 1.0212 0.9354 0.84792 0.9292 1.0446
2035.072 1.0064 1.0285 1.1102 1.0859 1.0262 1.1826 1.2316 1.2226 1.1801 1.1562
2054.362 1.2103 1.2854 1.3009 1.1829 1.3106 1.2171 1.0589 1.138 1.0226 1.0406
2073.651 1.0204 0.9501 0.9768 0.84895 0.7767 0.7744 0.7899 0.9338 1.1104 1.1351
2092.941 0.9702 0.85663 0.7502 0.7709 0.9307 0.9406 0.9895 1.0536 1.0826 1.1123
2112.231 1.0638 0.9911 0.9437 0.84724 0.943 1.0818 1.0073 0.9862 1.0069 1.0092
2131.521 1.0614 1.1379 1.0054 0.9753 0.9601 0.9307 1.1261 1.1445 1.1011 1.152
2150.810 1.086 1.1417 1.208 1.1291 0.9891 0.88498 0.87969 0.87778 1.026 1.1763
2170.100 1.2315 1.2755 1.1488 1.0703 1.2461 1.2464 1.2588 1.105 0.9467 1.0517
2189.390 1.1831 1.118 0.9721 1.1143 1.2799 1.4093 1.4999 1.3923 1.5999 1.859
2208.680 1.6713 1.7109 1.8029 1.889 2.099 2.319 2.249 2.229 2.579 2.749
2227.970 2.809 2.949 2.999 3.089 3.039 2.979 2.959 2.989 3.159 3.149
2247.259 2.949 2.779 2.759 2.669 2.689 2.669 2.539 2.359 2.149 1.979
2266.549 1.731 1.7302 1.899 1.7951 1.6708 1.637 1.581 1.7281 1.615 1.3621
2285.839 1.361 1.314 1.2825 1.3218 1.4437 1.6528 1.6076 1.3571 1.3447 1.3036
2305.129 1.2878 1.3031 1.134 1.3075 1.4287 1.2411 1.1813 1.111 1.0169 1.0842
2324.418 1.12 1.2859 1.3332 1.1748 1.2323 1.1721 1.0938 1.1399 1.2694 1.2533
2343.708 1.0156 0.9676 0.9622 0.9942 1.0877 1.0292 0.9959 1.2072 1.251 1.0217
2362.998 1.0404 1.0146 1.1045 1.1301 0.9814 0.91706 0.9735 1.0998 1.1036 1.2303
2382.288 1.1988 1.1099 1.3376 1.5422 1.3445 1.1139 1.1647 1.1778 1.2154 1.3773
2401.578 1.1159 1.1371 1.4377 1.3408 1.2476 1.0134 0.85265 0.963 1.1087 1.1346
2420.867 1.1128 1.2409 1.0842 0.89812 1.033 1.0344 0.85615 0.89536 0.9703 1.0902
2440.157 1.2713 1.12 0.983 1.0253 0.9955 1.1064 1.1585 1.093 1.1013 1.3211
2459.447 1.3448 1.0973 1.1947 1.234 1.2479 1.2692 1.1598 1.2902 1.3357 1.1534
2478.737 0.9721 0.92218 0.9523 1.0509 1.2887 1.2921 1.1431 1.065 1.0543 1.1593
2498.026 1.2775 1.2115 1.0367 0.9877 1.234 1.2468 1.2216 1.241 1.1658 1.2325
2517.316 1.1115 0.9986 1.146 1.2255 1.0285 0.88221 0.84876 0.9318 1.1499 1.0224
2536.606 0.7451 0.771 0.83951 0.8053 0.7877 0.88383 0.8825 0.9452 1.0225 0.88319
2555.896 1.0957 1.153 1.078 1.1845 1.14 1.0997 0.8459 1.0629 1.3095 1.2113
2575.186 1.2248 1.1298 1.1265 1.2393 1.1527 0.834346 0.9556 1.0788 1.0804 1.1436
2594.475 1.0696 1.2213 1.2613 1.212 1.1295 1.0929 1.1227 1.2712 1.4559 1.4269
2613.765 1.3674 1.1663 1.154 1.3287 1.2924 1.2237 1.3827 1.4702 1.5503 1.591
2633.055 1.6293 1.4078 1.0139 1.2143 1.2906 1.0554 1.0774 1.0954 1.2777 1.4012
2652.345 1.4317 1.4201 1.5297 1.4047 1.2735 1.3988 1.061 0.88967 0.91403 1.0613
2671.634 1.1461 1.0198 1.1831 1.333 1.3263 1.4107 1.5143 1.3865 1.1343 1.2264
2690.924 1.2963 1.1815 1.2312 1.296 1.3467 1.5067 1.5911 1.3806 1.2746 1.2925
2710.214 1.1553 1.1569 1.3164 1.5098 1.6987 1.7186 1.6663 1.7064 1.859 1.999
2729.504 1.839 1.919 2.159 2.119 1.999 2.069 2.329 2.209 2.399 2.709
2748.794 2.259 2.139 2.249 2.229 2.279 2.159 1.839 1.829 2.159 2.079
2768.083 1.8147 1.6934 1.6417 1.7992 1.8252 1.7824 1.7928 1.7509 1.765 2.109
2787.373 2.299 2.089 1.909 1.839 2.279 2.639 2.359 2.159 2.289 2.309
2806.663 2.489 2.669 2.709 2.889 2.969 3.269 3.359 3.179 3.429 3.639
2825.953 3.609 3.879 4.099 3.989 4.259 4.709 5.039 5.249 5.389 5.789
2845.242 6.279 6.569 7.239 7.889 8.359 8.809 9.379 10.359 10.949 11.589
2864.532 12.799 14.379 15.739 16.889 18.369 19.689 20.599 21.649 22.139 22.229
2883.822 22.299 21.739 20.999 20.259 19.529 18.589 17.869 17.509 17.199 16.779
2903.112 16.519 17.069 17.739 18.389 19.509 21.319 23.049 24.739 26.869 29.189
2922.401 31.759 34.419 37.539 40.409 42.449 44.549 46.609 47.859 47.899 47.999
2941.691 47.799 46.419 44.489 42.119 40.089 38.429 37.429 37.829 38.699 39.789
2960.981 41.169 42.809 44.649 46.069 46.709 46.669 46.389 45.759 44.939 43.749
2980.271 41.829 39.939 38.279 36.769 34.869 32.109 29.609 27.129 23.959 20.859
2999.561 18.319 16.199 14.189 12.209 10.789 9.819 8.829 7.889 7.199 6.699
3018.850 6.439 6.019 5.519 5.399 5.219 5.069 5.139 5.289 5.229 5.229
3038.140 5.099 4.689 4.479 4.199 4.079 3.899 3.629 3.869 4.039 3.689
3057.430 3.389 3.129 2.629 2.579 2.769 2.649 2.759 2.469 2.159 2.119
3076.720 1.829 1.859 2.069 2.109 2.369 2.519 2.199 2.519 2.699 2.489
3096.009 2.279 2.319 2.249 1.869 2.099 1.869 1.3856 1.6604 2.099 1.919
3115.299 1.869 2.349 2.299 2.019 1.949 1.909 1.7352 1.5098 1.6248 1.3163
3134.589 1.0715 1.7036 1.8012 1.183 1.3675 1.6589 1.5745 1.5203 1.587 1.4247
3153.879 0.9512 0.89051 1.3515 1.6357 1.6045 1.4906 1.1967 1.1576 1.1814 1.3284
3173.169 1.6421 1.815 1.6849 1.4354 1.3252 1.5213 1.3245 1.057 0.89593 1.2116
3192.458 1.5358 1.23 1.3689 1.318 1.1351 1.2143 1.4157 1.6581 1.5603 1.3142
3211.748 1.1996 1.1863 1.3637 1.5599 1.3014 1.3732 1.5946 1.405 1.7853 1.626
3231.038 1.2059 1.4593 1.1633 0.833941 0.87184 0.9557 1.0452 1.1248 1.5101 1.6005
3250.328 1.0745 0.9726 1.415 1.5074 1.3159 1.3553 1.3898 1.081 0.83971 0.8814
3269.617 0.717 0.664 1.1131 1.4366 1.5071 1.4556 1.2219 1.0656 1.3596 1.5706
3288.907 1.4504 0.9522 1.0517 1.3235 1.1224 1.4127 1.7869 1.6592 1.228 1.135
3308.197 1.2285 1.3896 1.4077 1.3103 1.4263 1.3294 0.9996 1.0335 1.369 1.226
3327.487 0.85395 1.1633 1.3868 1.1623 0.85928 0.7923 0.9777 1.2188 1.3572 1.0773
3346.777 0.830018 0.8085 0.9331 1.1051 1.1977 1.5545 1.6071 1.3104 1.2046 1.3865
3366.066 1.4901 1.4029 1.4222 1.4198 1.1986 1.0862 1.0993 1.1884 1.2289 1.1097
3385.356 1.2198 1.0336 1.001 0.88382 0.645 0.87693 1.0176 1.1441 1.1936 0.9865
3404.646 0.8011 0.723 0.7639 0.82691 1.1623 1.2242 1.1128 1.2825 1.17 0.91857
3423.936 0.91533 1.0332 1.05 0.9577 0.9775 0.93 0.721 1.0217 1.3638 1.169
3443.225 0.92148 0.9754 0.84787 0.9456 1.2728 1.1835 1.0477 1.0068 1.0866 0.830669
3462.515 0.524 0.8189 1.3325 1.6281 1.427 1.3648 1.3794 0.92051 0.9975 1.0803
3481.805 1.0036 1.0291 0.9635 0.956 0.87941 0.9959 0.82372 0.687 0.88909 0.8509
3501.095 0.7663 0.692 1.0085 1.2419 1.307 1.098 0.638 0.686 0.566 0.587
3520.385 0.932 1.1692 1.4537 1.4505 1.501 1.2089 0.689 0.78 0.719 1.1857
3539.674 1.4765 1.2158 0.9736 0.704 0.830542 0.719 0.7586 1.2309 1.3351 1.0226
3558.964 0.607 0.627 0.595 0.686 1.0083 0.7933 0.91394 1.3357 1.214 0.8071
3578.254 0.7932 1.0899 1.0838 0.9407 1.0118 0.84876 0.542 0.411 0.652 1.0209
3597.544 1.0651 1.3405 1.2516 1.2684 1.6435 1.6206 1.5084 1.4983 1.869 2.249
3616.833 2.349 2.439 2.339 2.829 3.539 3.759 4.359 4.859 5.269 6.479
3636.123 7.729 8.179 8.319 8.819 9.169 8.949 8.139 6.999 6.389 5.579
3655.413 4.549 3.909 3.349 3.139 2.799 2.079 1.7257 1.5051 1.1156 1.1745
3674.703 1.0609 0.656 0.91822 1.0816 0.9988 1.1968 1.1527 1.3494 1.5397 1.2007
3693.993 1.0104 1.0435 0.688 0.602 0.94 0.7653 0.52 0.8174 1.2972 1.1798
3713.282 0.88678 0.7642 0.8173 0.9386 0.432 0.311 0.9488 1.1399 0.89839 0.671
3732.572 0.9721 0.84324 0.278 0.706 1.2306 0.961 0.666 0.7439 1.1651 1.2161
3751.862 0.9814 1.515 1.8175 1.3756 1.1343 0.9473 0.7882 0.7508 1.1605 1.7382
3771.152 1.4964 1.1639 0.87579 0.7526 0.86522 1.0542 1.235 1.0026 1.098 1.199
3790.441 0.586 0.634 1.5104 1.5811 1.1479 0.92526 0.7448 0.992 1.1817 1.1501
3809.731 0.92447 0.88049 1.0926 0.9584 0.8149 0.76 0.7559 1.15 1.0622 0.88379
3829.021 1.4789 1.6109 1.2697 0.933 1.0896 1.3696 1.3493 1.1138 0.85954 1.2586
3848.311 1.1942 0.7536 0.673 1.0384 0.947 0.7667 1.185 1.2844 0.95 0.8091
3867.601 1.2397 1.5477 1.0248 0.85742 1.5257 1.3626 0.719 0.9 1.1928 1.3107
3886.890 1.3257 1.1511 1.5295 1.5484 1.1665 1.2275 0.91405 0.86011 1.1703 0.8207
3906.180 0.8131 0.828681 0.358 0 0.301 0.7633 1.2076 1.1365 0.638 0.9824
3925.470 1.2415 1.125 1.1231 0.84779 0.85858 1.1074 0.993 0.481 0.569 0.8062
3944.760 0.55 0.709 1.0385 1.1325 0.7868 0.698 0.7359 0.8536 0.8071 0.92367
3964.049 1.1966 1.2762 1.071 1.0436 1.1591 1.038 1.3342 1.1382 0.90837 1.2027
3983.339 1.3954 1.1421 0.9254 1.0337 1.1283 1.2518 1.3582 1.0174 0.643 1.1766
##END=
