##TITLE=1,1-NONADECANEDICARBOXYLIC ACID
##JCAMP-DX=4.24
##DATA TYPE=INFRARED SPECTRUM
##CLASS=COBLENTZ III
##ORIGIN=DOW CHEMICAL COMPANY
##OWNER=COBLENTZ SOCIETY
Collection (C) 2018 copyright by the U.S. Secretary of Commerce
on behalf of the United States of America. All rights reserved.
##DATE=1965/08/18
##NAMES=2-octadecylmalonic acid
##CAS REGISTRY NO=4475-04-1
##MOLFORM=C21 H40 O4
##MP=124 C
##SOURCE REFERENCE=COBLENTZ NO. 10168
##$NIST SOURCE=COBLENTZ
##$NIST IMAGE=cob10168
##SPECTROMETER/DATA SYSTEM=DOW KBr FOREPRISM-GRATING
##INSTRUMENT PARAMETERS=BLAZED AT 3.5, 12.0, 20.0 MICRON, CHANGED AT 5.0, 7.5, 14.9 MICRON
##STATE=SOLID (SPLIT MULL, FLUOROLUBE FOR 3800-1330 AND NUJOL FOR 1330-460 CM ^-^1)
##SAMPLING PROCEDURE=TRANSMISSION
##RESOLUTION=4
##DATA PROCESSING=DIGITIZED BY NIST FROM HARD COPY (FROM TWO SEGMENTS)
##XUNITS=1/CM
##YUNITS=TRANSMITTANCE
##XFACTOR=1.000000
##YFACTOR=1
##DELTAX=0.871081
##FIRSTX=457.317
##LASTX=3794.43
##FIRSTY=0.678
##MAXX=3794.43
##MINX=457.317
##MAXY=1.039
##MINY=0
##NPOINTS=3832
##XYDATA=(X++(Y..Y))
457.317000 0.6780 0.6780 0.6780 0.6780 0.6790
461.672403 0.6790 0.6810 0.6810 0.6790 0.6790
466.027805 0.6780 0.6780 0.6780 0.6780 0.6780
470.383208 0.6790 0.6820 0.6850 0.6880 0.6920
474.738610 0.6940 0.6990 0.7070 0.7090 0.7120
479.094013 0.7180 0.7260 0.7350 0.7450 0.7520
483.449415 0.7590 0.7610 0.7680 0.7770 0.7810
487.804818 0.7960 0.8110 0.8220 0.8379 0.8529
492.160220 0.8630 0.8710 0.8750 0.8800 0.8870
496.515623 0.8910 0.8940 0.8970 0.9000 0.9050
500.871025 0.9090 0.9110 0.9120 0.9130 0.9130
505.226428 0.9150 0.9160 0.9170 0.9170 0.9190
509.581830 0.9190 0.9170 0.9130 0.9130 0.9120
513.937233 0.9130 0.9160 0.9319 0.9380 0.9460
518.292635 0.9540 0.9570 0.9580 0.9580 0.9600
522.648038 0.9610 0.9610 0.9610 0.9610 0.9610
527.003440 0.9610 0.9610 0.9600 0.9580 0.9570
531.358843 0.9540 0.9500 0.9480 0.9430 0.9370
535.714245 0.9340 0.9280 0.9240 0.9190 0.9130
540.069648 0.9050 0.8930 0.8721 0.8561 0.8530
544.425050 0.8490 0.8460 0.8450 0.8460 0.8520
548.780453 0.8570 0.8680 0.8760 0.8909 0.9089
553.135855 0.9300 0.9370 0.9480 0.9560 0.9600
557.491258 0.9670 0.9760 0.9790 0.9830 0.9870
561.846660 0.9910 0.9930 0.9940 0.9950 1.0000
566.202063 1.0000 1.0010 1.0010 1.0020 1.0020
570.557465 1.0020 1.0020 1.0020 1.0020 1.0010
574.912868 1.0010 1.0010 1.0000 1.0000 1.0000
579.268271 0.9980 0.9970 0.9930 0.9840 0.9780
583.623673 0.9760 0.9680 0.9640 0.9600 0.9431
587.979076 0.9280 0.9230 0.9190 0.9110 0.9050
592.334478 0.9020 0.9020 0.9050 0.9120 0.9150
596.689881 0.9220 0.9260 0.9340 0.9390 0.9450
601.045283 0.9520 0.9610 0.9710 0.9790 0.9820
605.400686 0.9860 0.9910 1.0010 1.0020 1.0040
609.756088 1.0060 1.0100 1.0130 1.0160 1.0160
614.111491 1.0170 1.0190 1.0230 1.0240 1.0240
618.466893 1.0250 1.0270 1.0270 1.0280 1.0310
622.822296 1.0340 1.0340 1.0350 1.0350 1.0340
627.177698 1.0340 1.0350 1.0350 1.0360 1.0380
631.533101 1.0380 1.0380 1.0380 1.0380 1.0380
635.888503 1.0390 1.0390 1.0390 1.0380 1.0380
640.243906 1.0360 1.0340 1.0340 1.0310 1.0300
644.599308 1.0300 1.0300 1.0280 1.0270 1.0250
648.954711 1.0240 1.0230 1.0210 1.0190 1.0160
653.310113 1.0150 1.0120 1.0100 1.0060 1.0040
657.665516 1.0010 1.0000 0.9970 0.9930 0.9840
662.020918 0.9780 0.9680 0.9630 0.9560 0.9391
666.376321 0.9260 0.9000 0.8500 0.8270 0.8200
670.731723 0.8110 0.7960 0.7830 0.7810 0.7780
675.087126 0.7770 0.7750 0.7750 0.7750 0.7750
679.442528 0.7770 0.7780 0.7780 0.7820 0.7969
683.797931 0.8350 0.8650 0.8930 0.9160 0.9569
688.153334 0.9829 0.9910 1.0000 1.0000 1.0000
692.508736 0.9980 0.9950 0.9930 0.9860 0.9800
696.864139 0.9790 0.9651 0.9570 0.9431 0.9281
701.219541 0.9080 0.9050 0.9060 0.9130 0.9170
705.574944 0.9240 0.9300 0.9300 0.9270 0.9240
709.930346 0.9170 0.8960 0.8720 0.8261 0.7711
714.285749 0.6473 0.4137 0.4130 0.5245 0.5618
718.641151 0.6000 0.6860 0.7330 0.7749 0.7980
722.996554 0.8229 0.8419 0.8520 0.8540 0.8600
727.351956 0.8610 0.8640 0.8710 0.8720 0.8820
731.707359 0.9119 0.9240 0.9320 0.9350 0.9370
736.062761 0.9370 0.9370 0.9370 0.9370 0.9380
740.418164 0.9410 0.9460 0.9560 0.9610 0.9650
744.773566 0.9670 0.9650 0.9640 0.9630 0.9570
749.128969 0.9340 0.9061 0.8930 0.8930 0.9517
753.484371 0.9680 0.9720 0.9750 0.9750 0.9760
757.839774 0.9780 0.9780 0.9780 0.9760 0.9740
762.195176 0.9690 0.9680 0.9640 0.9600 0.9570
766.550579 0.9560 0.9490 0.9380 0.9280 0.9161
770.905981 0.8930 0.8890 0.9020 0.9110 0.9120
775.261384 0.9080 0.9040 0.9000 0.8940 0.8930
779.616786 0.8830 0.8700 0.8460 0.8230 0.8030
783.972189 0.7980 0.7960 0.7960 0.7940 0.7940
788.327591 0.7960 0.7970 0.7980 0.8120 0.8369
792.682994 0.8699 0.9039 0.9229 0.9339 0.9380
797.038396 0.9410 0.9430 0.9460 0.9480 0.9490
801.393799 0.9500 0.9500 0.9500 0.9520 0.9520
805.749202 0.9520 0.9520 0.9520 0.9500 0.9500
810.104604 0.9490 0.9490 0.9480 0.9450 0.9390
814.460007 0.9350 0.9320 0.9270 0.9240 0.9200
818.815409 0.9150 0.9150 0.9220 0.9260 0.9310
823.170812 0.9350 0.9370 0.9390 0.9390 0.9410
827.526214 0.9410 0.9410 0.9390 0.9390 0.9380
831.881617 0.9390 0.9390 0.9380 0.9380 0.9350
836.237019 0.9350 0.9340 0.9320 0.9300 0.9280
840.592422 0.9230 0.9170 0.9040 0.8930 0.8930
844.947824 0.8980 0.9020 0.9050 0.9110 0.9200
849.303227 0.9240 0.9270 0.9280 0.9280 0.9280
853.658629 0.9270 0.9260 0.9240 0.9230 0.9230
858.014032 0.9220 0.9200 0.9190 0.9160 0.9150
862.369434 0.9130 0.9080 0.9050 0.9010 0.8980
866.724837 0.8940 0.8930 0.8910 0.8910 0.8900
871.080239 0.8850 0.8820 0.8800 0.8790 0.8760
875.435642 0.8720 0.8710 0.8650 0.8610 0.8560
879.791044 0.8530 0.8450 0.8340 0.8240 0.8160
884.146447 0.8130 0.8050 0.7970 0.7870 0.7670
888.501849 0.7460 0.7420 0.7370 0.7310 0.7250
892.857252 0.7140 0.7090 0.7010 0.6940 0.6920
897.212654 0.6850 0.6780 0.6750 0.6680 0.6600
901.568057 0.6490 0.6380 0.6180 0.6110 0.6060
905.923459 0.6030 0.5970 0.5930 0.5920 0.5900
910.278862 0.5890 0.5890 0.5890 0.5900 0.5900
914.634265 0.5900 0.5920 0.5930 0.5930 0.5950
918.989667 0.5960 0.5960 0.5970 0.5970 0.5970
923.345070 0.5960 0.5930 0.5900 0.5880 0.5810
927.700472 0.5750 0.5740 0.5740 0.5730 0.5700
932.055875 0.5690 0.5660 0.5640 0.5630 0.5560
936.411277 0.5520 0.5490 0.5480 0.5440 0.5440
940.766680 0.5490 0.5560 0.5620 0.5660 0.5750
945.122082 0.5750 0.5810 0.5890 0.5930 0.6010
949.477485 0.6100 0.6190 0.6300 0.6360 0.6420
953.832887 0.6450 0.6480 0.6560 0.6630 0.6670
958.188290 0.6770 0.6830 0.6900 0.6970 0.7069
962.543692 0.7120 0.7220 0.7260 0.7310 0.7420
966.899095 0.7510 0.7600 0.7640 0.7700 0.7750
971.254497 0.7790 0.7860 0.7930 0.7940 0.7960
975.609900 0.8010 0.8070 0.8130 0.8180 0.8230
979.965302 0.8240 0.8270 0.8270 0.8260 0.8260
984.320705 0.8260 0.8240 0.8230 0.8230 0.8230
988.676107 0.8240 0.8240 0.8240 0.8200 0.8120
993.031510 0.8000 0.7930 0.7890 0.7920 0.7980
997.386912 0.8050 0.8080 0.8120 0.8120 0.8130
1001.742315 0.8150 0.8150 0.8150 0.8130 0.8130
1006.097717 0.8090 0.8040 0.8000 0.7960 0.7930
1010.453120 0.7930 0.7960 0.7960 0.7940 0.7930
1014.808522 0.7920 0.7850 0.7790 0.7710 0.7660
1019.163925 0.7610 0.7610 0.7610 0.7600 0.7590
1023.519327 0.7590 0.7530 0.7520 0.7490 0.7480
1027.874730 0.7460 0.7440 0.7420 0.7380 0.7340
1032.230133 0.7310 0.7270 0.7260 0.7250 0.7180
1036.585535 0.7120 0.7090 0.7070 0.6941 0.6781
1040.940938 0.6600 0.6480 0.6380 0.6380 0.6470
1045.296340 0.6630 0.6660 0.6670 0.6680 0.6680
1049.651743 0.6680 0.6680 0.6660 0.6590 0.6520
1054.007145 0.6480 0.6470 0.6331 0.6191 0.6100
1058.362548 0.6040 0.6000 0.5930 0.5890 0.5770
1062.717950 0.5261 0.5250 0.5260 0.5320 0.5340
1067.073353 0.5370 0.5410 0.5490 0.5510 0.5510
1071.428755 0.5490 0.5380 0.5280 0.5250 0.5220
1075.784158 0.5230 0.5260 0.5370 0.5410 0.5490
1080.139560 0.5540 0.5580 0.5620 0.5640 0.5640
1084.494963 0.5640 0.5630 0.5630 0.5620 0.5620
1088.850365 0.5620 0.5620 0.5590 0.5560 0.5550
1093.205768 0.5550 0.5550 0.5520 0.5520 0.5510
1097.561170 0.5490 0.5480 0.5470 0.5400 0.5330
1101.916573 0.5250 0.5220 0.5140 0.5120 0.5120
1106.271975 0.5140 0.5190 0.5300 0.5489 0.5520
1110.627378 0.5600 0.5640 0.5640 0.5670 0.5690
1114.982780 0.5690 0.5670 0.5640 0.5630 0.5540
1119.338183 0.5490 0.5410 0.5340 0.5300 0.5260
1123.693585 0.5320 0.5430 0.5629 0.5749 0.5800
1128.048988 0.5890 0.5920 0.5970 0.6150 0.6330
1132.404390 0.6450 0.6520 0.6560 0.6600 0.6600
1136.759793 0.6620 0.6630 0.6630 0.6640 0.6670
1141.115196 0.6680 0.6730 0.6750 0.6770 0.6770
1145.470598 0.6770 0.6780 0.6780 0.6780 0.6790
1149.826001 0.6810 0.6810 0.6820 0.6820 0.6830
1154.181403 0.6850 0.6850 0.6860 0.6880 0.6880
1158.536806 0.6880 0.6890 0.6900 0.6900 0.6900
1162.892208 0.6900 0.6880 0.6880 0.6860 0.6860
1167.247611 0.6860 0.6850 0.6830 0.6820 0.6820
1171.603013 0.6780 0.6780 0.6790 0.6810 0.6820
1175.958416 0.6830 0.6830 0.6830 0.6820 0.6810
1180.313818 0.6780 0.6770 0.6750 0.6730 0.6600
1184.669221 0.6490 0.6420 0.6400 0.6420 0.6619
1189.024623 0.6660 0.6700 0.6700 0.6640 0.6600
1193.380026 0.6590 0.6480 0.6410 0.6330 0.6181
1197.735428 0.5930 0.5770 0.5710 0.5410 0.5400
1202.090831 0.5410 0.5410 0.5430 0.5440 0.5440
1206.446233 0.5470 0.5480 0.5540 0.5540 0.5510
1210.801636 0.5370 0.5340 0.5340 0.5360 0.5380
1215.157038 0.5450 0.5470 0.5480 0.5480 0.5370
1219.512441 0.5250 0.5220 0.5210 0.5220 0.5489
1223.867843 0.5640 0.5670 0.5660 0.5410 0.5171
1228.223246 0.4961 0.4930 0.4890 0.4850 0.4800
1232.578648 0.4730 0.4730 0.4850 0.5250 0.5430
1236.934051 0.5510 0.5540 0.5550 0.5620 0.5630
1241.289453 0.5640 0.5630 0.5520 0.5370 0.5150
1245.644856 0.4581 0.4261 0.3542 0.3391 0.3390
1250.000258 0.3720 0.3990 0.4390 0.4849 0.4870
1254.355661 0.4870 0.4770 0.4561 0.4391 0.4251
1258.711064 0.3980 0.3780 0.3281 0.2801 0.2740
1263.066466 0.2740 0.3069 0.3369 0.3718 0.3879
1267.421869 0.3960 0.3980 0.3980 0.3880 0.3740
1271.777271 0.3311 0.3091 0.3070 0.3090 0.3219
1276.132674 0.3370 0.3580 0.3780 0.3980 0.4130
1280.488076 0.4779 0.4880 0.4880 0.4800 0.4740
1284.843479 0.4670 0.4650 0.4660 0.4690 0.4770
1289.198881 0.4780 0.4810 0.4840 0.4800 0.4770
1293.554284 0.4660 0.4560 0.4500 0.4390 0.4061
1297.909686 0.3761 0.3730 0.3730 0.3740 0.3740
1302.265089 0.3740 0.3730 0.3700 0.3690 0.3620
1306.620491 0.3540 0.3390 0.3221 0.3160 0.3090
1310.975894 0.3090 0.3130 0.3310 0.3370 0.3540
1315.331296 0.3779 0.3989 0.4189 0.4509 0.4948
1319.686699 0.5060 0.5100 0.5120 0.5140 0.5120
1324.042101 0.5110 0.5100 0.5020 0.5000 0.4990
1328.397504 0.4970 0.4970 0.4990 0.5000 0.5040
1332.752906 0.5060 0.5100 0.5120 0.5150 0.5190
1337.108309 0.5230 0.5280 0.5320 0.5370 0.5410
1341.463711 0.5450 0.5490 0.5550 0.5590 0.5630
1345.819114 0.5670 0.5710 0.5770 0.5810 0.5850
1350.174516 0.5890 0.5960 0.6060 0.6179 0.6299
1354.529919 0.6360 0.6440 0.6450 0.6480 0.6520
1358.885321 0.6600 0.6660 0.6750 0.6820 0.6919
1363.240724 0.6940 0.7000 0.7010 0.7070 0.7070
1367.596126 0.7080 0.7080 0.7110 0.7120 0.7120
1371.951529 0.7120 0.7110 0.7110 0.7110 0.7090
1376.306932 0.7090 0.7080 0.7070 0.6931 0.6850
1380.662334 0.6790 0.6700 0.6680 0.6710 0.6750
1385.017737 0.6810 0.6860 0.6920 0.6940 0.6970
1389.373139 0.6970 0.6960 0.6900 0.6850 0.6790
1393.728542 0.6740 0.6630 0.6550 0.6470 0.6331
1398.083944 0.6190 0.6140 0.5950 0.5780 0.5541
1402.439347 0.5111 0.4841 0.4671 0.4371 0.4091
1406.794749 0.3890 0.3780 0.3390 0.3280 0.3210
1411.150152 0.3170 0.3160 0.3170 0.3220 0.3290
1415.505554 0.3390 0.3470 0.3610 0.3630 0.3780
1419.860957 0.3830 0.3850 0.3910 0.3930 0.3980
1424.216359 0.3990 0.4060 0.4060 0.4070 0.4150
1428.571762 0.4180 0.4280 0.4469 0.4609 0.4919
1432.927164 0.5190 0.5280 0.5490 0.5640 0.5810
1437.282567 0.6299 0.6469 0.6550 0.6590 0.6590
1441.637969 0.6560 0.6520 0.6480 0.6450 0.6440
1445.993372 0.6360 0.6320 0.6230 0.6160 0.6080
1450.348774 0.5970 0.5970 0.6190 0.6489 0.6590
1454.704177 0.6590 0.6530 0.6470 0.6400 0.6320
1459.059579 0.6220 0.6150 0.6010 0.5990 0.6110
1463.414982 0.6110 0.6100 0.6040 0.5771 0.5621
1467.770384 0.5250 0.4330 0.3351 0.2351 0.1362
1472.125787 0.0871 0.0381 0.0380 0.1276 0.1579
1476.481189 0.2420 0.3620 0.4259 0.5488 0.6059
1480.836592 0.6938 0.7139 0.7479 0.7928 0.8487
1485.191995 0.8630 0.8780 0.8860 0.8910 0.8940
1489.547397 0.9020 0.9110 0.9150 0.9170 0.9220
1493.902800 0.9260 0.9260 0.9270 0.9300 0.9300
1498.258202 0.9310 0.9320 0.9340 0.9350 0.9370
1502.613605 0.9380 0.9420 0.9430 0.9430 0.9430
1506.969007 0.9420 0.9420 0.9420 0.9420 0.9430
1511.324410 0.9420 0.9420 0.9420 0.9420 0.9420
1515.679812 0.9420 0.9420 0.9430 0.9430 0.9430
1520.035215 0.9430 0.9430 0.9420 0.9410 0.9390
1524.390617 0.9390 0.9380 0.9380 0.9380 0.9370
1528.746020 0.9370 0.9350 0.9350 0.9350 0.9340
1533.101422 0.9320 0.9320 0.9320 0.9320 0.9310
1537.456825 0.9300 0.9280 0.9270 0.9270 0.9260
1541.812227 0.9260 0.9230 0.9220 0.9200 0.9200
1546.167630 0.9190 0.9190 0.9190 0.9190 0.9190
1550.523032 0.9160 0.9150 0.9150 0.9150 0.9150
1554.878435 0.9150 0.9150 0.9130 0.9130 0.9130
1559.233837 0.9150 0.9150 0.9150 0.9150 0.9130
1563.589240 0.9130 0.9120 0.9120 0.9120 0.9120
1567.944642 0.9110 0.9110 0.9090 0.9080 0.9060
1572.300045 0.9060 0.9050 0.9050 0.9050 0.9040
1576.655447 0.9040 0.9050 0.9050 0.9050 0.9040
1581.010850 0.9040 0.9020 0.9010 0.9010 0.9000
1585.366252 0.8970 0.8960 0.8960 0.8960 0.8960
1589.721655 0.8940 0.8940 0.8940 0.8930 0.8910
1594.077057 0.8910 0.8900 0.8890 0.8870 0.8850
1598.432460 0.8820 0.8790 0.8790 0.8760 0.8740
1602.787863 0.8720 0.8710 0.8670 0.8630 0.8610
1607.143265 0.8600 0.8570 0.8540 0.8530 0.8520
1611.498668 0.8480 0.8420 0.8410 0.8390 0.8380
1615.854070 0.8350 0.8350 0.8330 0.8310 0.8260
1620.209473 0.8240 0.8220 0.8190 0.8150 0.8120
1624.564875 0.8080 0.8070 0.8030 0.7970 0.7940
1628.920278 0.7930 0.7860 0.7860 0.7820 0.7770
1633.275680 0.7750 0.7710 0.7660 0.7610 0.7590
1637.631083 0.7520 0.7480 0.7450 0.7420 0.7400
1641.986485 0.7370 0.7330 0.7270 0.7250 0.7200
1646.341888 0.7160 0.7120 0.7090 0.7080 0.7050
1650.697290 0.7000 0.6940 0.6880 0.6820 0.6750
1655.052693 0.6680 0.6620 0.6590 0.6590 0.6520
1659.408095 0.6470 0.6440 0.6380 0.6320 0.6190
1663.763498 0.6160 0.6100 0.6010 0.5900 0.5781
1668.118900 0.5740 0.5660 0.5590 0.5480 0.5360
1672.474303 0.5181 0.5021 0.4910 0.4781 0.4591
1676.829705 0.4480 0.4360 0.4180 0.4020 0.3850
1681.185108 0.3630 0.3351 0.3061 0.2950 0.2771
1685.540510 0.2570 0.2440 0.2130 0.2010 0.1920
1689.895913 0.1581 0.1281 0.1190 0.1031 0.0930
1694.251315 0.0800 0.0640 0.0560 0.0500 0.0450
1698.606718 0.0430 0.0420 0.0420 0.0410 0.0410
1702.962120 0.0410 0.0410 0.0410 0.0410 0.0410
1707.317523 0.0420 0.0420 0.0410 0.0410 0.0410
1711.672926 0.0410 0.0420 0.0430 0.0430 0.0430
1716.028328 0.0430 0.0430 0.0430 0.0420 0.0410
1720.383731 0.0390 0.0350 0.0320 0.0310 0.0280
1724.739133 0.0280 0.0270 0.0230 0.0210 0.0210
1729.094536 0.0210 0.0210 0.0230 0.0230 0.0240
1733.449938 0.0250 0.0250 0.0280 0.0310 0.0350
1737.805341 0.0410 0.0490 0.0510 0.0610 0.1019
1742.160743 0.1140 0.1399 0.1579 0.1879 0.2049
1746.516146 0.2320 0.2690 0.3090 0.3479 0.3799
1750.871548 0.4069 0.4409 0.4739 0.5298 0.5400
1755.226951 0.5630 0.5890 0.6030 0.6160 0.6300
1759.582353 0.6450 0.6530 0.6809 0.7069 0.7160
1763.937756 0.7260 0.7310 0.7410 0.7450 0.7510
1768.293158 0.7590 0.7610 0.7680 0.7750 0.7820
1772.648561 0.7930 0.7980 0.8030 0.8050 0.8130
1777.003963 0.8160 0.8190 0.8220 0.8240 0.8300
1781.359366 0.8330 0.8340 0.8350 0.8350 0.8370
1785.714768 0.8390 0.8410 0.8420 0.8440 0.8460
1790.070171 0.8490 0.8500 0.8530 0.8540 0.8540
1794.425573 0.8560 0.8570 0.8600 0.8630 0.8640
1798.780976 0.8640 0.8670 0.8710 0.8710 0.8720
1803.136378 0.8740 0.8740 0.8740 0.8740 0.8740
1807.491781 0.8750 0.8780 0.8780 0.8790 0.8800
1811.847183 0.8800 0.8820 0.8820 0.8820 0.8830
1816.202586 0.8830 0.8830 0.8830 0.8850 0.8850
1820.557988 0.8860 0.8860 0.8870 0.8890 0.8900
1824.913391 0.8900 0.8910 0.8910 0.8910 0.8900
1829.268794 0.8900 0.8900 0.8900 0.8900 0.8910
1833.624196 0.8930 0.8930 0.8930 0.8930 0.8940
1837.979599 0.8940 0.8940 0.8940 0.8960 0.8960
1842.335001 0.8960 0.8960 0.8960 0.8940 0.8940
1846.690404 0.8940 0.8940 0.8960 0.8960 0.8970
1851.045806 0.8980 0.8980 0.8980 0.8980 0.8970
1855.401209 0.8970 0.8970 0.8970 0.8970 0.8970
1859.756611 0.9000 0.9010 0.9010 0.9010 0.9010
1864.112014 0.9010 0.9010 0.9000 0.9010 0.9000
1868.467416 0.9000 0.9000 0.9000 0.9020 0.9020
1872.822819 0.9010 0.9000 0.9010 0.9010 0.9000
1877.178221 0.9000 0.9000 0.9010 0.9010 0.9010
1881.533624 0.9010 0.9020 0.9020 0.9020 0.9010
1885.889026 0.9010 0.9000 0.9000 0.9010 0.9010
1890.244429 0.9010 0.9020 0.9040 0.9040 0.9020
1894.599831 0.9020 0.9040 0.9040 0.9060 0.9080
1898.955234 0.9110 0.9110 0.9110 0.9110 0.9120
1903.310636 0.9120 0.9120 0.9110 0.9110 0.9110
1907.666039 0.9120 0.9120 0.9130 0.9130 0.9130
1912.021441 0.9150 0.9160 0.9160 0.9160 0.9160
1916.376844 0.9160 0.9130 0.9130 0.9120 0.9120
1920.732246 0.9130 0.9130 0.9120 0.9120 0.9120
1925.087649 0.9130 0.9130 0.9130 0.9130 0.9130
1929.443051 0.9150 0.9150 0.9150 0.9130 0.9130
1933.798454 0.9130 0.9150 0.9130 0.9130 0.9130
1938.153857 0.9130 0.9130 0.9130 0.9130 0.9130
1942.509259 0.9120 0.9120 0.9110 0.9110 0.9110
1946.864662 0.9110 0.9110 0.9110 0.9120 0.9120
1951.220064 0.9120 0.9120 0.9130 0.9130 0.9130
1955.575467 0.9130 0.9130 0.9120 0.9110 0.9110
1959.930869 0.9110 0.9110 0.9110 0.9110 0.9110
1964.286272 0.9110 0.9110 0.9110 0.9110 0.9110
1968.641674 0.9110 0.9110 0.9120 0.9120 0.9120
1972.997077 0.9120 0.9130 0.9130 0.9150 0.9150
1977.352479 0.9130 0.9130 0.9130 0.9130 0.9150
1981.707882 0.9130 0.9130 0.9130 0.9130 0.9130
1986.063284 0.9130 0.9130 0.9130 0.9130 0.9130
1990.418687 0.9130 0.9130 0.9130 0.9130 0.9130
1994.774089 0.9130 0.9130 0.9130 0.9130 0.9120
1999.129492 0.9120 0.9120 0.9120 0.9120 0.9120
2003.484894 0.9120 0.9120 0.9120 0.9120 0.9120
2007.840297 0.9120 0.9120 0.9120 0.9120 0.9120
2012.195699 0.9120 0.9120 0.9120 0.9115 0.9110
2016.551102 0.9110 0.9110 0.9110 0.9110 0.9110
2020.906504 0.9110 0.9110 0.9110 0.9110 0.9110
2025.261907 0.9110 0.9110 0.9110 0.9110 0.9110
2029.617309 0.9110 0.9110 0.9110 0.9110 0.9110
2033.972712 0.9099 0.9090 0.9090 0.9090 0.9090
2038.328114 0.9090 0.9090 0.9090 0.9090 0.9090
2042.683517 0.9090 0.9090 0.9090 0.9090 0.9090
2047.038919 0.9090 0.9090 0.9090 0.9090 0.9090
2051.394322 0.9085 0.9080 0.9080 0.9080 0.9080
2055.749725 0.9079 0.9069 0.9060 0.9060 0.9060
2060.105127 0.9060 0.9060 0.9060 0.9059 0.9054
2064.460530 0.9050 0.9050 0.9050 0.9050 0.9050
2068.815932 0.9050 0.9049 0.9044 0.9040 0.9040
2073.171335 0.9040 0.9040 0.9039 0.9029 0.9020
2077.526737 0.9020 0.9020 0.9020 0.9020 0.9020
2081.882140 0.9019 0.9014 0.9010 0.9010 0.9009
2086.237542 0.9004 0.9000 0.9000 0.9000 0.9000
2090.592945 0.9000 0.9000 0.8998 0.8988 0.8979
2094.948347 0.8974 0.8970 0.8970 0.8969 0.8964
2099.303750 0.8960 0.8960 0.8960 0.8960 0.8960
2103.659152 0.8960 0.8960 0.8960 0.8960 0.8960
2108.014555 0.8960 0.8960 0.8960 0.8960 0.8958
2112.369957 0.8948 0.8940 0.8940 0.8940 0.8940
2116.725360 0.8940 0.8940 0.8940 0.8940 0.8940
2121.080762 0.8940 0.8940 0.8940 0.8940 0.8940
2125.436165 0.8939 0.8934 0.8930 0.8930 0.8930
2129.791567 0.8930 0.8931 0.8936 0.8939 0.8934
2134.146970 0.8930 0.8930 0.8927 0.8917 0.8910
2138.502372 0.8910 0.8910 0.8910 0.8910 0.8910
2142.857775 0.8910 0.8910 0.8909 0.8904 0.8900
2147.213177 0.8900 0.8899 0.8894 0.8890 0.8890
2151.568580 0.8890 0.8890 0.8887 0.8877 0.8869
2155.923982 0.8863 0.8858 0.8853 0.8847 0.8837
2160.279385 0.8828 0.8823 0.8817 0.8807 0.8797
2164.634787 0.8787 0.8775 0.8760 0.8748 0.8743
2168.990190 0.8737 0.8727 0.8720 0.8720 0.8718
2173.345593 0.8713 0.8708 0.8703 0.8691 0.8666
2177.700995 0.8650 0.8650 0.8646 0.8636 0.8623
2182.056398 0.8603 0.8581 0.8556 0.8536 0.8526
2186.411800 0.8516 0.8506 0.8500 0.8500 0.8498
2190.767203 0.8493 0.8488 0.8483 0.8474 0.8459
2195.122605 0.8448 0.8443 0.8436 0.8426 0.8418
2199.478008 0.8413 0.8406 0.8396 0.8388 0.8383
2203.833410 0.8378 0.8373 0.8366 0.8356 0.8348
2208.188813 0.8343 0.8338 0.8333 0.8330 0.8330
2212.544215 0.8326 0.8316 0.8299 0.8274 0.8256
2216.899618 0.8246 0.8236 0.8226 0.8216 0.8206
2221.255020 0.8196 0.8186 0.8169 0.8144 0.8128
2225.610423 0.8123 0.8109 0.8084 0.8063 0.8048
2229.965825 0.8038 0.8033 0.8019 0.7994 0.7971
2234.321228 0.7951 0.7938 0.7933 0.7921 0.7901
2238.676630 0.7883 0.7868 0.7858 0.7853 0.7845
2243.032033 0.7835 0.7818 0.7793 0.7773 0.7758
2247.387435 0.7748 0.7743 0.7733 0.7718 0.7703
2251.742838 0.7688 0.7675 0.7665 0.7653 0.7638
2256.098240 0.7625 0.7615 0.7610 0.7610 0.7607
2260.453643 0.7602 0.7600 0.7600 0.7597 0.7592
2264.809045 0.7585 0.7575 0.7570 0.7570 0.7557
2269.164448 0.7532 0.7520 0.7520 0.7517 0.7512
2273.519850 0.7505 0.7495 0.7487 0.7482 0.7472
2277.875253 0.7457 0.7447 0.7442 0.7440 0.7440
2282.230656 0.7432 0.7417 0.7407 0.7402 0.7400
2286.586058 0.7400 0.7386 0.7361 0.7350 0.7350
2290.941461 0.7347 0.7342 0.7337 0.7332 0.7324
2295.296863 0.7314 0.7304 0.7294 0.7281 0.7266
2299.652266 0.7260 0.7260 0.7257 0.7252 0.7241
2304.007668 0.7226 0.7199 0.7164 0.7147 0.7142
2308.363071 0.7131 0.7116 0.7098 0.7078 0.7052
2312.718473 0.7021 0.6982 0.6937 0.6914 0.6904
2317.073876 0.6884 0.6859 0.6831 0.6801 0.6787
2321.429278 0.6782 0.6770 0.6755 0.6744 0.6734
2325.784681 0.6720 0.6705 0.6694 0.6684 0.6677
2330.140083 0.6672 0.6670 0.6670 0.6660 0.6645
2334.495486 0.6637 0.6632 0.6627 0.6622 0.6613
2338.850888 0.6603 0.6600 0.6600 0.6600 0.6600
2343.206291 0.6597 0.6592 0.6590 0.6590 0.6590
2347.561693 0.6590 0.6590 0.6590 0.6590 0.6590
2351.917096 0.6590 0.6590 0.6586 0.6581 0.6573
2356.272498 0.6563 0.6560 0.6560 0.6556 0.6551
2360.627901 0.6550 0.6550 0.6550 0.6550 0.6550
2364.983303 0.6550 0.6550 0.6550 0.6543 0.6533
2369.338706 0.6530 0.6530 0.6530 0.6530 0.6526
2373.694108 0.6521 0.6516 0.6511 0.6503 0.6493
2378.049511 0.6486 0.6481 0.6476 0.6471 0.6470
2382.404913 0.6470 0.6462 0.6452 0.6446 0.6441
2386.760316 0.6440 0.6440 0.6428 0.6413 0.6398
2391.115718 0.6383 0.6372 0.6362 0.6348 0.6333
2395.471121 0.6326 0.6321 0.6320 0.6320 0.6312
2399.826524 0.6302 0.6296 0.6291 0.6274 0.6254
2404.181926 0.6234 0.6214 0.6190 0.6165 0.6156
2408.537329 0.6151 0.6150 0.6150 0.6134 0.6114
2412.892731 0.6094 0.6074 0.6066 0.6061 0.6048
2417.248134 0.6032 0.6030 0.6030 0.6022 0.6012
2421.603536 0.6006 0.6001 0.5983 0.5963 0.5956
2425.958939 0.5951 0.5942 0.5932 0.5926 0.5921
2430.314341 0.5912 0.5902 0.5892 0.5881 0.5880
2434.669744 0.5880 0.5863 0.5843 0.5827 0.5812
2439.025146 0.5797 0.5782 0.5776 0.5771 0.5757
2443.380549 0.5742 0.5718 0.5693 0.5668 0.5643
2447.735951 0.5636 0.5631 0.5612 0.5592 0.5572
2452.091354 0.5552 0.5532 0.5512 0.5496 0.5481
2456.446756 0.5466 0.5451 0.5445 0.5440 0.5435
2460.802159 0.5430 0.5398 0.5363 0.5333 0.5303
2465.157561 0.5282 0.5262 0.5246 0.5231 0.5230
2469.512964 0.5230 0.5188 0.5143 0.5102 0.5062
2473.868366 0.5041 0.5021 0.5011 0.5001 0.5000
2478.223769 0.5000 0.4986 0.4971 0.4946 0.4921
2482.579171 0.4882 0.4842 0.4811 0.4781 0.4775
2486.934574 0.4770 0.4770 0.4770 0.4736 0.4701
2491.289976 0.4680 0.4660 0.4636 0.4610 0.4595
2495.645379 0.4580 0.4570 0.4560 0.4555 0.4550
2500.000781 0.4525 0.4500 0.4475 0.4450 0.4410
2504.356184 0.4370 0.4365 0.4360 0.4355 0.4350
2508.711587 0.4350 0.4350 0.4325 0.4300 0.4280
2513.066989 0.4260 0.4250 0.4239 0.4204 0.4170
2517.422392 0.4160 0.4149 0.4124 0.4100 0.4079
2521.777794 0.4059 0.4029 0.4000 0.3990 0.3980
2526.133197 0.3970 0.3960 0.3960 0.3960 0.3955
2530.488599 0.3949 0.3929 0.3910 0.3910 0.3909
2534.844002 0.3899 0.3890 0.3890 0.3890 0.3890
2539.199404 0.3890 0.3885 0.3880 0.3875 0.3870
2543.554807 0.3870 0.3870 0.3870 0.3870 0.3870
2547.910209 0.3870 0.3870 0.3870 0.3875 0.3880
2552.265612 0.3880 0.3880 0.3880 0.3880 0.3874
2556.621014 0.3870 0.3870 0.3870 0.3870 0.3869
2560.976417 0.3859 0.3849 0.3844 0.3840 0.3840
2565.331819 0.3839 0.3834 0.3829 0.3819 0.3810
2569.687222 0.3810 0.3809 0.3804 0.3800 0.3800
2574.042624 0.3800 0.3800 0.3799 0.3788 0.3780
2578.398027 0.3780 0.3779 0.3774 0.3768 0.3753
2582.753429 0.3738 0.3728 0.3718 0.3708 0.3700
2587.108832 0.3700 0.3699 0.3694 0.3688 0.3678
2591.464234 0.3670 0.3670 0.3669 0.3664 0.3659
2595.819637 0.3654 0.3650 0.3650 0.3648 0.3638
2600.175039 0.3628 0.3618 0.3608 0.3598 0.3590
2604.530442 0.3590 0.3589 0.3584 0.3580 0.3580
2608.885844 0.3579 0.3574 0.3570 0.3570 0.3568
2613.241247 0.3558 0.3550 0.3550 0.3550 0.3550
2617.596649 0.3550 0.3550 0.3550 0.3550 0.3552
2621.952052 0.3562 0.3570 0.3570 0.3570 0.3570
2626.307455 0.3567 0.3557 0.3550 0.3550 0.3550
2630.662857 0.3550 0.3549 0.3544 0.3537 0.3527
2635.018260 0.3520 0.3520 0.3520 0.3520 0.3519
2639.373662 0.3514 0.3509 0.3504 0.3497 0.3487
2643.729065 0.3480 0.3480 0.3479 0.3474 0.3470
2648.084467 0.3470 0.3470 0.3470 0.3469 0.3464
2652.439870 0.3457 0.3447 0.3440 0.3440 0.3440
2656.795272 0.3440 0.3440 0.3440 0.3443 0.3453
2661.150675 0.3462 0.3467 0.3472 0.3477 0.3480
2665.506077 0.3480 0.3483 0.3493 0.3500 0.3500
2669.861480 0.3503 0.3513 0.3525 0.3540 0.3557
2674.216882 0.3577 0.3593 0.3603 0.3612 0.3617
2678.572285 0.3622 0.3627 0.3630 0.3630 0.3637
2682.927687 0.3657 0.3674 0.3684 0.3690 0.3690
2687.283090 0.3690 0.3690 0.3692 0.3697 0.3704
2691.638492 0.3714 0.3720 0.3720 0.3720 0.3720
2695.993895 0.3720 0.3720 0.3720 0.3720 0.3720
2700.349297 0.3720 0.3722 0.3727 0.3730 0.3730
2704.704700 0.3730 0.3730 0.3730 0.3730 0.3730
2709.060102 0.3730 0.3728 0.3723 0.3716 0.3706
2713.415505 0.3700 0.3700 0.3698 0.3693 0.3690
2717.770907 0.3690 0.3684 0.3669 0.3653 0.3638
2722.126310 0.3628 0.3623 0.3620 0.3620 0.3620
2726.481712 0.3620 0.3618 0.3613 0.3601 0.3581
2730.837115 0.3563 0.3548 0.3535 0.3525 0.3518
2735.192517 0.3513 0.3510 0.3510 0.3508 0.3503
2739.547920 0.3500 0.3500 0.3500 0.3500 0.3500
2743.903323 0.3500 0.3495 0.3485 0.3480 0.3480
2748.258725 0.3480 0.3480 0.3480 0.3480 0.3478
2752.614128 0.3472 0.3470 0.3470 0.3470 0.3470
2756.969530 0.3467 0.3462 0.3460 0.3460 0.3455
2761.324933 0.3445 0.3440 0.3440 0.3430 0.3409
2765.680335 0.3392 0.3377 0.3370 0.3370 0.3357
2770.035738 0.3332 0.3312 0.3297 0.3277 0.3252
2774.391140 0.3229 0.3209 0.3192 0.3177 0.3167
2778.746543 0.3162 0.3146 0.3121 0.3099 0.3079
2783.101945 0.3050 0.3015 0.2997 0.2992 0.2987
2787.457348 0.2982 0.2969 0.2949 0.2920 0.2885
2791.812750 0.2850 0.2815 0.2777 0.2737 0.2708
2796.168153 0.2688 0.2671 0.2656 0.2632 0.2602
2800.523555 0.2566 0.2526 0.2486 0.2446 0.2418
2804.878958 0.2398 0.2381 0.2366 0.2339 0.2304
2809.234360 0.2284 0.2274 0.2227 0.2157 0.2099
2813.589763 0.2049 0.2024 0.2014 0.1988 0.1953
2817.945165 0.1930 0.1915 0.1900 0.1885 0.1854
2822.300568 0.1814 0.1765 0.1710 0.1677 0.1657
2826.655970 0.1602 0.1527 0.1477 0.1442 0.1394
2831.011373 0.1339 0.1284 0.1229 0.1180 0.1135
2835.366775 0.1083 0.1028 0.0990 0.0960 0.0933
2839.722178 0.0908 0.0778 0.0598 0.0448 0.0313
2844.077580 0.0182 0.0052 0.0007 0.0002 0.0003
2848.432983 0.0008 0.0041 0.0086 0.0135 0.0185
2852.788386 0.0235 0.0285 0.0332 0.0377 0.0425
2857.143788 0.0475 0.0522 0.0567 0.0605 0.0640
2861.499191 0.0857 0.1147 0.1248 0.1273 0.1269
2865.854593 0.1254 0.1243 0.1233 0.1208 0.1178
2870.209996 0.1144 0.1109 0.1067 0.1022 0.1010
2874.565398 0.1010 0.1003 0.0993 0.0986 0.0981
2878.920801 0.0961 0.0936 0.0904 0.0869 0.0834
2883.276203 0.0799 0.0775 0.0755 0.0727 0.0697
2887.631606 0.0674 0.0654 0.0607 0.0552 0.0513
2891.987008 0.0478 0.0435 0.0390 0.0372 0.0362
2896.342411 0.0340 0.0315 0.0294 0.0274 0.0239
2900.697813 0.0199 0.0166 0.0136 0.0118 0.0103
2905.053216 0.0084 0.0064 0.0040 0.0015 0.0006
2909.408618 0.0001 0.0000 0.0000 0.0000 0.0000
2913.764021 0.0000 0.0000 0.0000 0.0000 0.0000
2918.119423 0.0000 0.0008 0.0018 0.0062 0.0112
2922.474826 0.0158 0.0203 0.0210 0.0210 0.0240
2926.830228 0.0275 0.0297 0.0317 0.0358 0.0403
2931.185631 0.0453 0.0503 0.0557 0.0612 0.0659
2935.541033 0.0704 0.0727 0.0747 0.0867 0.1004
2939.896436 0.1104 0.1199 0.1285 0.1370 0.1429
2944.251838 0.1484 0.1441 0.1386 0.1300 0.1210
2948.607241 0.1120 0.1030 0.0984 0.0944 0.0904
2952.962643 0.0864 0.0963 0.1078 0.1189 0.1300
2957.318046 0.1415 0.1530 0.1792 0.2067 0.2196
2961.673448 0.2311 0.2334 0.2349 0.2355 0.2360
2966.028851 0.2360 0.2360 0.2355 0.2350 0.2336
2970.384254 0.2321 0.2306 0.2291 0.2285 0.2280
2974.739656 0.2280 0.2280 0.2299 0.2319 0.2420
2979.095059 0.2525 0.2606 0.2686 0.2743 0.2798
2983.450461 0.2819 0.2839 0.2854 0.2869 0.2884
2987.805864 0.2899 0.2910 0.2920 0.2930 0.2940
2992.161266 0.2945 0.2950 0.2955 0.2960 0.2960
2996.516669 0.2960 0.2970 0.2980 0.2980 0.2980
3000.872071 0.2980 0.2980 0.2980 0.2980 0.2985
3005.227474 0.2990 0.2990 0.2990 0.2990 0.2990
3009.582876 0.2995 0.3000 0.3000 0.3000 0.3000
3013.938279 0.3000 0.3000 0.3000 0.3000 0.3000
3018.293681 0.3010 0.3020 0.3020 0.3020 0.3025
3022.649084 0.3030 0.3040 0.3050 0.3050 0.3051
3027.004486 0.3061 0.3070 0.3070 0.3071 0.3086
3031.359889 0.3100 0.3105 0.3111 0.3126 0.3141
3035.715291 0.3151 0.3160 0.3165 0.3171 0.3186
3040.070694 0.3200 0.3205 0.3210 0.3215 0.3220
3044.426096 0.3220 0.3221 0.3231 0.3240 0.3245
3048.781499 0.3251 0.3266 0.3282 0.3302 0.3320
3053.136901 0.3325 0.3331 0.3341 0.3351 0.3361
3057.492304 0.3370 0.3370 0.3371 0.3381 0.3391
3061.847706 0.3396 0.3400 0.3400 0.3401 0.3406
3066.203109 0.3412 0.3427 0.3441 0.3451 0.3463
3070.558511 0.3483 0.3503 0.3523 0.3541 0.3546
3074.913914 0.3550 0.3550 0.3552 0.3567 0.3581
3079.269317 0.3586 0.3592 0.3607 0.3622 0.3637
3083.624719 0.3651 0.3656 0.3660 0.3660 0.3662
3087.980122 0.3677 0.3690 0.3690 0.3693 0.3713
3092.335524 0.3733 0.3748 0.3762 0.3772 0.3780
3096.690927 0.3780 0.3783 0.3798 0.3813 0.3828
3101.046329 0.3845 0.3870 0.3894 0.3914 0.3935
3105.401732 0.3960 0.3981 0.3986 0.3995 0.4020
3109.757134 0.4045 0.4070 0.4091 0.4096 0.4108
3114.112537 0.4143 0.4171 0.4176 0.4188 0.4223
3118.467939 0.4251 0.4256 0.4262 0.4272 0.4281
3122.823342 0.4286 0.4295 0.4315 0.4335 0.4355
3127.178744 0.4375 0.4395 0.4412 0.4423 0.4444
3131.534147 0.4499 0.4547 0.4572 0.4598 0.4628
3135.889549 0.4651 0.4656 0.4664 0.4679 0.4701
3140.244952 0.4741 0.4775 0.4795 0.4815 0.4835
3144.600354 0.4854 0.4869 0.4884 0.4899 0.4910
3148.955757 0.4910 0.4919 0.4949 0.4979 0.5009
3153.311159 0.5032 0.5037 0.5049 0.5079 0.5102
3157.666562 0.5107 0.5119 0.5149 0.5179 0.5209
3162.021964 0.5235 0.5250 0.5263 0.5273 0.5280
3166.377367 0.5280 0.5283 0.5293 0.5307 0.5327
3170.732769 0.5345 0.5360 0.5375 0.5390 0.5412
3175.088172 0.5447 0.5473 0.5483 0.5493 0.5503
3179.443574 0.5519 0.5544 0.5570 0.5601 0.5624
3183.798977 0.5634 0.5644 0.5654 0.5667 0.5687
3188.154379 0.5706 0.5721 0.5732 0.5737 0.5753
3192.509782 0.5788 0.5818 0.5838 0.5856 0.5871
3196.865185 0.5884 0.5894 0.5904 0.5914 0.5928
3201.220587 0.5948 0.5968 0.5988 0.6006 0.6021
3205.575990 0.6038 0.6058 0.6072 0.6077 0.6088
3209.931392 0.6108 0.6128 0.6148 0.6174 0.6209
3214.286795 0.6234 0.6244 0.6252 0.6257 0.6262
3218.642197 0.6267 0.6283 0.6313 0.6339 0.6359
3222.997600 0.6381 0.6406 0.6431 0.6456 0.6472
3227.353002 0.6477 0.6491 0.6516 0.6537 0.6552
3231.708405 0.6569 0.6589 0.6609 0.6629 0.6657
3236.063807 0.6692 0.6715 0.6725 0.6735 0.6745
3240.419210 0.6755 0.6765 0.6782 0.6807 0.6830
3244.774612 0.6850 0.6870 0.6890 0.6910 0.6930
3249.130015 0.6947 0.6962 0.6977 0.6993 0.7008
3253.485417 0.7023 0.7035 0.7045 0.7055 0.7065
3257.840820 0.7083 0.7108 0.7125 0.7135 0.7143
3262.196222 0.7148 0.7158 0.7173 0.7190 0.7210
3266.551625 0.7228 0.7243 0.7255 0.7265 0.7275
3270.907027 0.7285 0.7301 0.7321 0.7341 0.7361
3275.262430 0.7378 0.7393 0.7403 0.7408 0.7413
3279.617832 0.7418 0.7428 0.7443 0.7467 0.7497
3283.973235 0.7516 0.7526 0.7536 0.7546 0.7553
3288.328637 0.7558 0.7560 0.7560 0.7563 0.7568
3292.684040 0.7579 0.7594 0.7600 0.7600 0.7603
3297.039442 0.7608 0.7625 0.7650 0.7666 0.7676
3301.394845 0.7686 0.7696 0.7703 0.7708 0.7713
3305.750248 0.7718 0.7726 0.7736 0.7743 0.7748
3310.105650 0.7756 0.7766 0.7770 0.7770 0.7773
3314.461053 0.7778 0.7789 0.7804 0.7810 0.7810
3318.816455 0.7816 0.7826 0.7839 0.7855 0.7870
3323.171858 0.7885 0.7893 0.7898 0.7906 0.7916
3327.527260 0.7923 0.7928 0.7930 0.7930 0.7933
3331.882663 0.7938 0.7947 0.7957 0.7960 0.7960
3336.238065 0.7963 0.7968 0.7973 0.7978 0.7980
3340.593468 0.7980 0.7987 0.7997 0.8000 0.8000
3344.948870 0.8003 0.8008 0.8017 0.8027 0.8033
3349.304273 0.8038 0.8040 0.8040 0.8043 0.8048
3353.659675 0.8050 0.8050 0.8050 0.8050 0.8057
3358.015078 0.8067 0.8074 0.8079 0.8080 0.8080
3362.370480 0.8084 0.8089 0.8090 0.8090 0.8090
3366.725883 0.8090 0.8097 0.8107 0.8114 0.8119
3371.081285 0.8124 0.8129 0.8130 0.8130 0.8137
3375.436688 0.8148 0.8150 0.8150 0.8150 0.8150
3379.792090 0.8154 0.8159 0.8168 0.8178 0.8180
3384.147493 0.8180 0.8184 0.8189 0.8194 0.8199
3388.502895 0.8200 0.8200 0.8200 0.8200 0.8200
3392.858298 0.8200 0.8208 0.8218 0.8220 0.8220
3397.213700 0.8220 0.8220 0.8224 0.8229 0.8230
3401.569103 0.8230 0.8234 0.8239 0.8240 0.8240
3405.924505 0.8248 0.8258 0.8260 0.8260 0.8264
3410.279908 0.8269 0.8270 0.8270 0.8270 0.8270
3414.635310 0.8270 0.8270 0.8270 0.8270 0.8270
3418.990713 0.8270 0.8270 0.8270 0.8270 0.8270
3423.346116 0.8266 0.8261 0.8260 0.8260 0.8260
3427.701518 0.8260 0.8260 0.8260 0.8260 0.8260
3432.056921 0.8260 0.8260 0.8260 0.8260 0.8260
3436.412323 0.8260 0.8264 0.8269 0.8270 0.8270
3440.767726 0.8270 0.8270 0.8279 0.8289 0.8290
3445.123128 0.8290 0.8290 0.8290 0.8294 0.8299
3449.478531 0.8300 0.8300 0.8296 0.8291 0.8290
3453.833933 0.8290 0.8281 0.8271 0.8266 0.8260
3458.189336 0.8260 0.8260 0.8260 0.8260 0.8251
3462.544738 0.8241 0.8240 0.8240 0.8235 0.8230
3466.900141 0.8230 0.8230 0.8230 0.8230 0.8225
3471.255543 0.8220 0.8220 0.8220 0.8220 0.8220
3475.610946 0.8220 0.8220 0.8220 0.8220 0.8220
3479.966348 0.8220 0.8225 0.8230 0.8235 0.8240
3484.321751 0.8240 0.8240 0.8235 0.8230 0.8230
3488.677153 0.8230 0.8230 0.8230 0.8225 0.8220
3493.032556 0.8220 0.8220 0.8210 0.8200 0.8200
3497.387958 0.8200 0.8200 0.8200 0.8210 0.8220
3501.743361 0.8220 0.8220 0.8210 0.8200 0.8200
3506.098763 0.8200 0.8195 0.8190 0.8190 0.8190
3510.454166 0.8185 0.8180 0.8180 0.8180 0.8180
3514.809568 0.8180 0.8170 0.8160 0.8160 0.8160
3519.164971 0.8160 0.8160 0.8160 0.8160 0.8160
3523.520373 0.8160 0.8160 0.8160 0.8160 0.8160
3527.875776 0.8160 0.8160 0.8155 0.8150 0.8150
3532.231178 0.8150 0.8150 0.8150 0.8150 0.8150
3536.586581 0.8150 0.8150 0.8150 0.8150 0.8150
3540.941984 0.8149 0.8139 0.8130 0.8130 0.8130
3545.297386 0.8130 0.8130 0.8130 0.8130 0.8130
3549.652789 0.8130 0.8130 0.8130 0.8130 0.8129
3554.008191 0.8119 0.8110 0.8110 0.8110 0.8110
3558.363594 0.8109 0.8099 0.8089 0.8084 0.8079
3562.718996 0.8074 0.8068 0.8053 0.8039 0.8034
3567.074399 0.8027 0.8002 0.7979 0.7969 0.7959
3571.429801 0.7949 0.7941 0.7951 0.7960 0.7960
3575.785204 0.7961 0.7966 0.7971 0.7976 0.7980
3580.140606 0.7980 0.7979 0.7974 0.7969 0.7964
3584.496009 0.7958 0.7948 0.7940 0.7940 0.7940
3588.851411 0.7940 0.7939 0.7934 0.7927 0.7912
3593.206814 0.7899 0.7894 0.7890 0.7890 0.7893
3597.562216 0.7908 0.7922 0.7932 0.7940 0.7940
3601.917619 0.7942 0.7952 0.7960 0.7960 0.7960
3606.273021 0.7960 0.7960 0.7960 0.7960 0.7960
3610.628424 0.7960 0.7960 0.7960 0.7960 0.7960
3614.983826 0.7960 0.7958 0.7948 0.7940 0.7940
3619.339229 0.7940 0.7940 0.7939 0.7934 0.7930
3623.694631 0.7930 0.7931 0.7936 0.7939 0.7934
3628.050034 0.7926 0.7911 0.7900 0.7900 0.7900
3632.405436 0.7900 0.7904 0.7919 0.7931 0.7936
3636.760839 0.7940 0.7940 0.7940 0.7940 0.7939
3641.116241 0.7934 0.7926 0.7911 0.7896 0.7881
3645.471644 0.7870 0.7870 0.7870 0.7870 0.7873
3649.827047 0.7883 0.7891 0.7896 0.7903 0.7913
3654.182449 0.7922 0.7927 0.7932 0.7937 0.7938
3658.537852 0.7933 0.7932 0.7937 0.7940 0.7940
3662.893254 0.7938 0.7933 0.7930 0.7930 0.7925
3667.248657 0.7910 0.7898 0.7893 0.7885 0.7870
3671.604059 0.7858 0.7853 0.7847 0.7837 0.7833
3675.959462 0.7843 0.7850 0.7850 0.7852 0.7857
3680.314864 0.7860 0.7860 0.7858 0.7853 0.7846
3684.670267 0.7836 0.7828 0.7823 0.7820 0.7820
3689.025669 0.7822 0.7827 0.7834 0.7844 0.7850
3693.381072 0.7850 0.7850 0.7850 0.7852 0.7857
3697.736474 0.7860 0.7860 0.7862 0.7867 0.7868
3702.091877 0.7863 0.7858 0.7853 0.7846 0.7836
3706.447279 0.7828 0.7823 0.7818 0.7813 0.7810
3710.802682 0.7810 0.7810 0.7810 0.7812 0.7817
3715.158084 0.7820 0.7820 0.7822 0.7827 0.7830
3719.513487 0.7830 0.7830 0.7830 0.7828 0.7823
3723.868889 0.7820 0.7820 0.7820 0.7820 0.7820
3728.224292 0.7820 0.7820 0.7820 0.7818 0.7813
3732.579694 0.7805 0.7795 0.7790 0.7790 0.7788
3736.935097 0.7783 0.7780 0.7780 0.7778 0.7773
3741.290499 0.7765 0.7755 0.7748 0.7743 0.7735
3745.645902 0.7725 0.7718 0.7713 0.7710 0.7710
3750.001304 0.7710 0.7710 0.7710 0.7710 0.7708
3754.356707 0.7703 0.7700 0.7700 0.7700 0.7700
3758.712109 0.7695 0.7685 0.7677 0.7672 0.7667
3763.067512 0.7662 0.7660 0.7660 0.7660 0.7660
3767.422915 0.7660 0.7660 0.7655 0.7645 0.7640
3771.778317 0.7640 0.7640 0.7640 0.7637 0.7632
3776.133720 0.7630 0.7630 0.7630 0.7630 0.7630
3780.489122 0.7630 0.7630 0.7630 0.7624 0.7614
3784.844525 0.7607 0.7602 0.7600 0.7600 0.7597
3789.199927 0.7592 0.7590 0.7590 0.7590 0.7590
3793.555330 0.7590 0.7590
##END=
