##TITLE=ETHANONE, 1-[3-FLUOROPHENYL]-
##JCAMP-DX=4.24
##DATA TYPE=INFRARED SPECTRUM
##CLASS=COBLENTZ III
##ORIGIN=DOW CHEMICAL COMPANY
##OWNER=COBLENTZ SOCIETY
Collection (C) 2018 copyright by the U.S. Secretary of Commerce
on behalf of the United States of America. All rights reserved.
##DATE=1965/10/05
##NAMES=1-(3-fluorophenyl)ethanone
ACETOPHENONE, 3'-FLUORO-
##CAS REGISTRY NO=455-36-7
##MOLFORM=C8 H7 F O
##SOURCE REFERENCE=COBLENTZ NO. 10370
##$NIST SOURCE=COBLENTZ
##$NIST IMAGE=cob10370
##SPECTROMETER/DATA SYSTEM=DOW KBr FOREPRISM-GRATING
##INSTRUMENT PARAMETERS=BLAZED AT 3.5, 12.0, 20.0 MICRON, CHANGED AT 5.0, 7.5, 14.9 MICRON
##STATE=SOLUTION (10% IN CCl4 FOR 3800-1333, 10% IN CS2 FOR 1333-460 CM^-^1)
##PATH LENGTH=0.010, 0.010 CM
$$SPECTRAL CONTAMINATION DUE TO CCl4 AROUND 1550 CM^-^1
$$ SEE SPECTRUM NO. 8102 FOR "SOLUTION (2%)" STATE
##SAMPLING PROCEDURE=TRANSMISSION
##RESOLUTION=4
##DATA PROCESSING=DIGITIZED BY NIST FROM HARD COPY (FROM TWO SEGMENTS)
##XUNITS=1/CM
##YUNITS=TRANSMITTANCE
##XFACTOR=1.000000
##YFACTOR=1
##DELTAX=0.874636
##FIRSTX=458.892
##LASTX=3799.13
##FIRSTY=0.821
##MAXX=3799.13
##MINX=458.892
##MAXY=1.015
##MINY=0
##NPOINTS=3820
##XYDATA=(X++(Y..Y))
458.892000 0.8210 0.8210 0.8210 0.8210 0.8210
463.265182 0.8210 0.8190 0.8190 0.8190 0.8210
467.638364 0.8210 0.8210 0.8210 0.8220 0.8220
472.011545 0.8220 0.8220 0.8220 0.8220 0.8220
476.384727 0.8220 0.8210 0.8210 0.8210 0.8210
480.757909 0.8190 0.8190 0.8190 0.8160 0.8160
485.131091 0.8150 0.8150 0.8140 0.8120 0.8120
489.504273 0.8110 0.8070 0.8040 0.8010 0.7970
493.877454 0.7950 0.7930 0.7860 0.7820 0.7780
498.250636 0.7770 0.7730 0.7670 0.7620 0.7590
502.623818 0.7560 0.7560 0.7510 0.7500 0.7480
506.997000 0.7450 0.7450 0.7440 0.7440 0.7450
511.370182 0.7560 0.7600 0.7740 0.7800 0.7930
515.743363 0.7960 0.8030 0.8060 0.8070 0.8070
520.116545 0.8030 0.7960 0.7920 0.7740 0.7411
524.489727 0.6912 0.6830 0.6830 0.7039 0.7358
528.862909 0.7480 0.7850 0.7950 0.7950 0.7930
533.236091 0.7840 0.7740 0.7411 0.7241 0.7061
537.609272 0.7030 0.7030 0.7130 0.7320 0.7470
541.982454 0.7620 0.7780 0.7959 0.8149 0.8379
546.355636 0.8490 0.8560 0.8630 0.8680 0.8710
550.728818 0.8790 0.8810 0.8810 0.8820 0.8850
555.101999 0.8860 0.8870 0.8870 0.8890 0.8890
559.475181 0.8890 0.8900 0.8900 0.8890 0.8870
563.848363 0.8850 0.8820 0.8790 0.8770 0.8740
568.221545 0.8720 0.8700 0.8700 0.8680 0.8670
572.594727 0.8660 0.8620 0.8600 0.8550 0.8490
576.967908 0.8440 0.8360 0.8330 0.8161 0.8001
581.341090 0.7710 0.7450 0.7090 0.6780 0.6441
585.714272 0.5682 0.5152 0.4692 0.4073 0.4070
590.087454 0.4310 0.5010 0.5510 0.5770 0.6010
594.460636 0.6329 0.6988 0.7110 0.7170 0.7150
598.833817 0.6920 0.6360 0.5381 0.4741 0.4610
603.206999 0.4032 0.4030 0.4667 0.5227 0.5946
607.580181 0.6760 0.7040 0.7300 0.7779 0.8149
611.953363 0.8310 0.8519 0.8640 0.8710 0.8790
616.326545 0.8820 0.8850 0.8860 0.8870 0.8870
620.699726 0.8870 0.8870 0.8870 0.8870 0.8870
625.072908 0.8870 0.8870 0.8890 0.8900 0.8940
629.446090 0.9000 0.9010 0.9050 0.9070 0.9080
633.819272 0.9080 0.9080 0.9070 0.9050 0.9040
638.192454 0.9040 0.9030 0.9010 0.9000 0.8980
642.565635 0.8940 0.8920 0.8900 0.8820 0.8780
646.938817 0.8750 0.8740 0.8710 0.8680 0.8640
651.311999 0.8620 0.8590 0.8550 0.8510 0.8490
655.685181 0.8460 0.8450 0.8460 0.8510 0.8530
660.058363 0.8560 0.8600 0.8630 0.8640 0.8640
664.431544 0.8640 0.8630 0.8620 0.8600 0.8590
668.804726 0.8560 0.8510 0.8300 0.8270 0.8250
673.177908 0.8220 0.8120 0.7801 0.7243 0.6852
677.551090 0.6480 0.5800 0.4421 0.2753 0.1293
681.924272 0.1061 0.0831 0.0362 0.0360 0.0619
686.297453 0.1431 0.3010 0.3929 0.5189 0.5639
690.670635 0.6219 0.6878 0.7099 0.7299 0.7559
695.043817 0.7660 0.7660 0.7340 0.7061 0.7040
699.416999 0.5425 0.3298 0.2693 0.2690 0.3963
703.790181 0.4130 0.6009 0.6649 0.7579 0.7949
708.163362 0.8309 0.8788 0.9119 0.9230 0.9339
712.536544 0.9380 0.9390 0.9430 0.9480 0.9500
716.909726 0.9520 0.9540 0.9560 0.9570 0.9630
721.282908 0.9640 0.9640 0.9650 0.9670 0.9680
725.656089 0.9680 0.9690 0.9690 0.9710 0.9720
730.029271 0.9760 0.9780 0.9780 0.9790 0.9790
734.402453 0.9800 0.9800 0.9800 0.9800 0.9800
738.775635 0.9800 0.9800 0.9790 0.9790 0.9790
743.148817 0.9780 0.9780 0.9760 0.9760 0.9750
747.521998 0.9750 0.9740 0.9690 0.9650 0.9610
751.895180 0.9570 0.9450 0.9330 0.9220 0.9001
756.268362 0.8820 0.8820 0.8850 0.9150 0.9340
760.641544 0.9340 0.9330 0.9310 0.9300 0.9280
765.014726 0.9260 0.9190 0.9160 0.9120 0.9110
769.387907 0.9050 0.8970 0.8900 0.8890 0.8751
773.761089 0.8630 0.8360 0.8210 0.7960 0.7451
778.134271 0.7131 0.6213 0.5244 0.3707 0.2715
782.507453 0.1200 0.0900 0.0600 0.1199 0.1430
786.880635 0.1769 0.2338 0.2410 0.1773 0.1511
791.253816 0.1270 0.1020 0.1020 0.1619 0.2209
795.626998 0.2708 0.3437 0.4565 0.5316 0.5937
800.000180 0.6550 0.7070 0.7540 0.7650 0.7929
804.373362 0.8120 0.8369 0.8529 0.8709 0.8919
808.746544 0.9000 0.9110 0.9180 0.9230 0.9260
813.119725 0.9330 0.9350 0.9380 0.9410 0.9430
817.492907 0.9450 0.9460 0.9480 0.9500 0.9520
821.866089 0.9530 0.9530 0.9540 0.9560 0.9560
826.239271 0.9560 0.9540 0.9540 0.9530 0.9530
830.612453 0.9490 0.9490 0.9480 0.9460 0.9450
834.985634 0.9420 0.9340 0.9200 0.9120 0.9110
839.358816 0.9090 0.9070 0.9040 0.9010 0.8970
843.731998 0.8920 0.8820 0.8750 0.8640 0.8560
848.105180 0.8520 0.8371 0.8211 0.8110 0.7991
852.478362 0.7840 0.7770 0.7690 0.7620 0.7510
856.851543 0.7430 0.7400 0.7280 0.7170 0.7031
861.224725 0.6780 0.6660 0.6320 0.6020 0.5271
865.597907 0.4691 0.3812 0.3232 0.2652 0.1734
869.971089 0.1700 0.1740 0.1780 0.1780 0.1371
874.344271 0.1141 0.0911 0.0561 0.0560 0.1794
878.717452 0.2511 0.3700 0.4460 0.5119 0.5489
883.090634 0.5570 0.5570 0.5430 0.5161 0.4722
887.463816 0.4610 0.3791 0.3450 0.3081 0.2282
891.836998 0.2210 0.2170 0.2001 0.1811 0.1681
896.210179 0.1680 0.1890 0.2430 0.4447 0.5089
900.583361 0.5619 0.6069 0.6289 0.6678 0.6959
904.956543 0.7300 0.7580 0.7690 0.7950 0.8080
909.329725 0.8260 0.8360 0.8510 0.8709 0.8829
913.702907 0.8900 0.8940 0.8980 0.9030 0.9050
918.076088 0.9080 0.9090 0.9120 0.9130 0.9180
922.449270 0.9180 0.9220 0.9240 0.9270 0.9280
926.822452 0.9280 0.9300 0.9300 0.9300 0.9310
931.195634 0.9310 0.9340 0.9350 0.9370 0.9370
935.568816 0.9380 0.9380 0.9380 0.9380 0.9350
939.941997 0.9330 0.9300 0.9260 0.9190 0.9160
944.315179 0.9110 0.8970 0.8920 0.8751 0.8700
948.688361 0.8450 0.8160 0.7321 0.6851 0.6481
953.061543 0.6021 0.6010 0.6090 0.6309 0.6589
957.434725 0.6830 0.7210 0.7470 0.7840 0.8309
961.807906 0.8380 0.8589 0.8919 0.8960 0.8980
966.181088 0.8980 0.9000 0.8980 0.8960 0.8930
970.554270 0.8890 0.8810 0.8710 0.8571 0.8371
974.927452 0.8300 0.8290 0.8300 0.8360 0.8520
979.300634 0.8899 0.9129 0.9200 0.9349 0.9410
983.673815 0.9460 0.9500 0.9520 0.9530 0.9540
988.046997 0.9540 0.9540 0.9540 0.9540 0.9530
992.420179 0.9530 0.9520 0.9500 0.9490 0.9490
996.793361 0.9450 0.9420 0.9380 0.9280 0.9190
1001.166543 0.9010 0.8890 0.8860 0.8890 0.9040
1005.539724 0.9120 0.9200 0.9310 0.9310 0.9300
1009.912906 0.9270 0.9220 0.9150 0.9050 0.9010
1014.286088 0.8920 0.8820 0.8631 0.8361 0.8261
1018.659270 0.7860 0.7740 0.7740 0.8060 0.8220
1023.032452 0.8549 0.8919 0.9040 0.9130 0.9190
1027.405633 0.9230 0.9300 0.9330 0.9350 0.9370
1031.778815 0.9370 0.9370 0.9350 0.9350 0.9340
1036.151997 0.9340 0.9350 0.9350 0.9370 0.9380
1040.525179 0.9390 0.9390 0.9380 0.9380 0.9380
1044.898361 0.9380 0.9390 0.9390 0.9410 0.9420
1049.271542 0.9420 0.9410 0.9380 0.9370 0.9340
1053.644724 0.9340 0.9330 0.9310 0.9220 0.9180
1058.017906 0.9120 0.9040 0.8930 0.8791 0.8680
1062.391088 0.8600 0.8520 0.8400 0.8230 0.8060
1066.764269 0.7841 0.7521 0.7410 0.7410 0.7599
1071.137451 0.7850 0.8150 0.8250 0.8300 0.8310
1075.510633 0.8300 0.8300 0.8220 0.8150 0.7991
1079.883815 0.7800 0.7580 0.7370 0.7360 0.7370
1084.256997 0.7470 0.7620 0.7780 0.7959 0.8040
1088.630178 0.8530 0.8640 0.8710 0.8740 0.8740
1093.003360 0.8720 0.8750 0.8770 0.8820 0.8920
1097.376542 0.8940 0.9000 0.9070 0.9120 0.9150
1101.749724 0.9180 0.9180 0.9180 0.9190 0.9190
1106.122906 0.9190 0.9200 0.9200 0.9220 0.9230
1110.496087 0.9230 0.9240 0.9240 0.9240 0.9260
1114.869269 0.9260 0.9270 0.9270 0.9280 0.9280
1119.242451 0.9280 0.9300 0.9300 0.9280 0.9270
1123.615633 0.9260 0.9240 0.9220 0.9190 0.9150
1127.988815 0.9120 0.9090 0.9050 0.9010 0.8940
1132.361996 0.8930 0.8920 0.8900 0.8900 0.8890
1136.735178 0.8860 0.8820 0.8820 0.8810 0.8740
1141.108360 0.8710 0.8700 0.8640 0.8640 0.8630
1145.481542 0.8620 0.8590 0.8550 0.8450 0.8161
1149.854724 0.7850 0.7540 0.7450 0.6950 0.6760
1154.227905 0.6760 0.6830 0.6870 0.6870 0.6721
1158.601087 0.6470 0.6470 0.6979 0.7509 0.7849
1162.974269 0.8189 0.8300 0.8310 0.8310 0.8300
1167.347451 0.8260 0.8230 0.8120 0.8000 0.7950
1171.720633 0.7840 0.7770 0.7601 0.7331 0.7240
1176.093814 0.7070 0.6810 0.6740 0.6430 0.6090
1180.466996 0.5571 0.5011 0.4611 0.3404 0.2653
1184.840178 0.1660 0.1320 0.1050 0.0760 0.0730
1189.213360 0.0760 0.1777 0.2497 0.2689 0.3158
1193.586542 0.3160 0.3150 0.2820 0.2510 0.2410
1197.959723 0.2410 0.2739 0.3378 0.4037 0.4667
1202.332905 0.4901 0.5380 0.5920 0.6170 0.6390
1206.706087 0.6759 0.6979 0.7249 0.7449 0.7619
1211.079269 0.7780 0.7930 0.7970 0.8120 0.8150
1215.452450 0.8230 0.8300 0.8340 0.8380 0.8410
1219.825632 0.8440 0.8480 0.8510 0.8520 0.8530
1224.198814 0.8550 0.8560 0.8560 0.8520 0.8510
1228.571996 0.8490 0.8340 0.8210 0.7970 0.7950
1232.945178 0.7690 0.7580 0.7470 0.7430 0.7410
1237.318359 0.7400 0.7400 0.7390 0.7360 0.7330
1241.691541 0.7280 0.7240 0.7100 0.6951 0.6811
1246.064723 0.6680 0.6470 0.6360 0.6030 0.5651
1250.437905 0.5231 0.4751 0.4481 0.3982 0.3631
1254.811087 0.3230 0.2950 0.2540 0.2370 0.2031
1259.184268 0.1661 0.1182 0.0961 0.0731 0.0501
1263.557450 0.0100 0.0010 0.0000 0.0000 0.0000
1267.930632 0.0000 0.0010 0.0010 0.0040 0.0040
1272.303814 0.0060 0.0120 0.0210 0.0390 0.0510
1276.676996 0.1019 0.1090 0.1100 0.1100 0.1030
1281.050177 0.0880 0.0720 0.0560 0.0470 0.0450
1285.423359 0.0450 0.0500 0.0610 0.0640 0.1068
1289.796541 0.1440 0.1990 0.2390 0.2630 0.2890
1294.169723 0.3628 0.4159 0.4489 0.5008 0.5129
1298.542905 0.5580 0.5870 0.6140 0.6320 0.6480
1302.916086 0.6530 0.6540 0.6550 0.6550 0.6540
1307.289268 0.6470 0.6420 0.6310 0.6310 0.6360
1311.662450 0.6440 0.6510 0.6610 0.6759 0.6919
1316.035632 0.7240 0.7260 0.7280 0.7300 0.7330
1320.408814 0.7340 0.7360 0.7370 0.7370 0.7390
1324.781995 0.7400 0.7450 0.7750 0.7820 0.7930
1329.155177 0.7950 0.8010 0.8140 0.8150 0.8190
1333.528359 0.8230 0.8290 0.8300 0.8310 0.8330
1337.901541 0.8340 0.8340 0.8340 0.8330 0.8310
1342.274723 0.8270 0.8220 0.8190 0.8120 0.8030
1346.647904 0.7950 0.7820 0.7591 0.7361 0.7101
1351.021086 0.6770 0.6469 0.5540 0.5160 0.4601
1355.394268 0.3642 0.2951 0.1913 0.1631 0.1062
1359.767450 0.0860 0.0640 0.0620 0.0640 0.1199
1364.140632 0.1739 0.2318 0.2818 0.3627 0.4158
1368.513813 0.4571 0.5130 0.5730 0.6240 0.6320
1372.886995 0.6460 0.6769 0.7089 0.7279 0.7469
1377.260177 0.7670 0.7780 0.7950 0.8010 0.8120
1381.633359 0.8230 0.8310 0.8360 0.8420 0.8490
1386.006540 0.8490 0.8460 0.8450 0.8440 0.8410
1390.379722 0.8370 0.8340 0.8330 0.8330 0.8330
1394.752904 0.8310 0.8310 0.8300 0.8300 0.8290
1399.126086 0.8260 0.8230 0.8180 0.8140 0.8120
1403.499268 0.8040 0.8000 0.7960 0.7950 0.7840
1407.872449 0.7780 0.7730 0.7660 0.7580 0.7441
1412.245631 0.7400 0.7290 0.7240 0.7100 0.6950
1416.618813 0.6810 0.6660 0.6540 0.6271 0.5912
1420.991995 0.5620 0.5280 0.5020 0.4790 0.4351
1425.365177 0.4330 0.4310 0.4310 0.4300 0.4270
1429.738358 0.4180 0.4010 0.3770 0.3630 0.3400
1434.111540 0.3101 0.2950 0.2452 0.1852 0.1631
1438.484722 0.1270 0.1050 0.0900 0.0750 0.0460
1442.857904 0.0171 0.0060 0.0050 0.0060 0.0120
1447.231086 0.0390 0.0611 0.2180 0.2960 0.2960
1451.604267 0.3549 0.4129 0.4688 0.5099 0.5558
1455.977449 0.5920 0.6160 0.6220 0.6370 0.6590
1460.350631 0.6919 0.7099 0.7130 0.7240 0.7260
1464.723813 0.7320 0.7400 0.7410 0.7450 0.7500
1469.096995 0.7520 0.7510 0.7470 0.7430 0.7410
1473.470176 0.7280 0.7240 0.7090 0.6920 0.6610
1477.843358 0.6440 0.6240 0.5542 0.4533 0.4131
1482.216540 0.3820 0.3460 0.2750 0.1991 0.1571
1486.589722 0.1540 0.1570 0.1779 0.2557 0.2849
1490.962904 0.3621 0.4370 0.4490 0.5020 0.5529
1495.336085 0.5810 0.6029 0.6200 0.6330 0.6459
1499.709267 0.6610 0.6830 0.7030 0.7220 0.7240
1504.082449 0.7280 0.7290 0.7290 0.7290 0.7260
1508.455631 0.7260 0.7250 0.7240 0.7220 0.7210
1512.828813 0.7190 0.7170 0.7150 0.7140 0.7110
1517.201994 0.7090 0.7070 0.7020 0.6950 0.6910
1521.575176 0.6890 0.6770 0.6690 0.6650 0.6610
1525.948358 0.6550 0.6530 0.6480 0.6470 0.6460
1530.321540 0.6440 0.6350 0.6310 0.6220 0.6200
1534.694722 0.6100 0.5960 0.5880 0.5810 0.5770
1539.067903 0.5660 0.5540 0.5400 0.5360 0.5250
1543.441085 0.5190 0.5120 0.5020 0.5010 0.4910
1547.814267 0.4870 0.4830 0.4800 0.4760 0.4750
1552.187449 0.4750 0.4750 0.4760 0.4760 0.4790
1556.560630 0.4830 0.4870 0.4910 0.5010 0.5060
1560.933812 0.5120 0.5170 0.5230 0.5250 0.5340
1565.306994 0.5350 0.5380 0.5390 0.5400 0.5390
1569.680176 0.5360 0.5320 0.5230 0.5130 0.5020
1574.053358 0.4930 0.4780 0.4591 0.4381 0.4241
1578.426539 0.4110 0.3780 0.3380 0.3010 0.2651
1582.799721 0.2281 0.2001 0.1581 0.1251 0.1031
1587.172903 0.0800 0.0560 0.0310 0.0170 0.0150
1591.546085 0.0160 0.0230 0.0320 0.0489 0.1008
1595.919267 0.1361 0.1850 0.2060 0.2410 0.2930
1600.292448 0.3889 0.4449 0.4669 0.5049 0.5399
1604.665630 0.5770 0.6090 0.6310 0.6440 0.6590
1609.038812 0.6660 0.6660 0.6590 0.6421 0.6310
1613.411994 0.6290 0.6310 0.6440 0.6610 0.6980
1617.785176 0.7240 0.7499 0.7799 0.8079 0.8140
1622.158357 0.8160 0.8230 0.8300 0.8340 0.8380
1626.531539 0.8400 0.8420 0.8440 0.8440 0.8450
1630.904721 0.8460 0.8480 0.8480 0.8480 0.8460
1635.277903 0.8450 0.8440 0.8440 0.8440 0.8410
1639.651085 0.8380 0.8360 0.8330 0.8300 0.8300
1644.024266 0.8220 0.8180 0.8150 0.8120 0.8110
1648.397448 0.8060 0.8000 0.7930 0.7890 0.7750
1652.770630 0.7590 0.7520 0.7480 0.7470 0.7470
1657.143812 0.7470 0.7480 0.7480 0.7510 0.7510
1661.516994 0.7480 0.7450 0.7410 0.7340 0.7300
1665.890175 0.7250 0.7240 0.7100 0.7060 0.6950
1670.263357 0.6740 0.6461 0.6360 0.6171 0.6011
1674.636539 0.5650 0.5380 0.5120 0.4790 0.4710
1679.009721 0.4301 0.3871 0.3461 0.2962 0.2691
1683.382903 0.2179 0.1650 0.1270 0.0980 0.0680
1687.756084 0.0510 0.0300 0.0051 0.0000 0.0000
1692.129266 0.0000 0.0000 0.0000 0.0000 0.0000
1696.502448 0.0000 0.0000 0.0000 0.0000 0.0090
1700.875630 0.0380 0.1050 0.1200 0.1809 0.2519
1705.248812 0.2779 0.3378 0.3978 0.4259 0.4569
1709.621993 0.5121 0.5870 0.6100 0.6200 0.6320
1713.995175 0.6440 0.6799 0.6989 0.7239 0.7499
1718.368357 0.7580 0.7630 0.7670 0.7690 0.7700
1722.741539 0.7690 0.7690 0.7670 0.7660 0.7630
1727.114720 0.7620 0.7600 0.7590 0.7580 0.7590
1731.487902 0.7670 0.7700 0.7750 0.7820 0.7930
1735.861084 0.7970 0.8110 0.8140 0.8210 0.8250
1740.234266 0.8300 0.8340 0.8370 0.8400 0.8410
1744.607448 0.8450 0.8490 0.8520 0.8530 0.8530
1748.980629 0.8550 0.8560 0.8560 0.8560 0.8560
1753.353811 0.8570 0.8620 0.8680 0.8720 0.8780
1757.726993 0.8830 0.8900 0.8930 0.8980 0.9000
1762.100175 0.9000 0.9010 0.9030 0.9050 0.9070
1766.473357 0.9090 0.9090 0.9090 0.9110 0.9110
1770.846538 0.9110 0.9110 0.9090 0.9090 0.9080
1775.219720 0.9080 0.9070 0.9050 0.9040 0.9030
1779.592902 0.9000 0.8960 0.8920 0.8900 0.8900
1783.966084 0.8900 0.8890 0.8890 0.8870 0.8870
1788.339266 0.8870 0.8890 0.8900 0.8960 0.9000
1792.712447 0.9050 0.9110 0.9150 0.9200 0.9230
1797.085629 0.9260 0.9300 0.9330 0.9370 0.9390
1801.458811 0.9410 0.9410 0.9420 0.9430 0.9430
1805.831993 0.9450 0.9450 0.9450 0.9450 0.9460
1810.205175 0.9450 0.9460 0.9460 0.9460 0.9460
1814.578356 0.9460 0.9460 0.9480 0.9480 0.9480
1818.951538 0.9490 0.9500 0.9500 0.9520 0.9530
1823.324720 0.9530 0.9530 0.9540 0.9540 0.9560
1827.697902 0.9560 0.9560 0.9570 0.9570 0.9560
1832.071084 0.9560 0.9540 0.9540 0.9540 0.9540
1836.444265 0.9540 0.9540 0.9540 0.9540 0.9530
1840.817447 0.9530 0.9530 0.9520 0.9480 0.9460
1845.190629 0.9460 0.9450 0.9430 0.9430 0.9420
1849.563811 0.9390 0.9350 0.9340 0.9340 0.9340
1853.936993 0.9340 0.9340 0.9350 0.9350 0.9340
1858.310174 0.9340 0.9330 0.9310 0.9310 0.9310
1862.683356 0.9270 0.9270 0.9260 0.9260 0.9240
1867.056538 0.9240 0.9240 0.9260 0.9310 0.9350
1871.429720 0.9390 0.9390 0.9410 0.9420 0.9420
1875.802902 0.9420 0.9420 0.9430 0.9430 0.9410
1880.176083 0.9390 0.9380 0.9350 0.9340 0.9330
1884.549265 0.9310 0.9310 0.9310 0.9330 0.9340
1888.922447 0.9350 0.9390 0.9460 0.9500 0.9530
1893.295629 0.9540 0.9560 0.9570 0.9570 0.9590
1897.668810 0.9600 0.9610 0.9630 0.9640 0.9640
1902.041992 0.9650 0.9670 0.9670 0.9670 0.9670
1906.415174 0.9680 0.9680 0.9680 0.9690 0.9690
1910.788356 0.9710 0.9710 0.9710 0.9720 0.9720
1915.161538 0.9740 0.9740 0.9740 0.9720 0.9720
1919.534719 0.9720 0.9720 0.9710 0.9710 0.9710
1923.907901 0.9690 0.9690 0.9690 0.9680 0.9680
1928.281083 0.9670 0.9640 0.9600 0.9560 0.9490
1932.654265 0.9410 0.9380 0.9350 0.9340 0.9340
1937.027447 0.9350 0.9380 0.9380 0.9410 0.9430
1941.400628 0.9460 0.9480 0.9490 0.9490 0.9490
1945.773810 0.9480 0.9460 0.9460 0.9460 0.9430
1950.146992 0.9420 0.9410 0.9410 0.9420 0.9430
1954.520174 0.9490 0.9530 0.9540 0.9540 0.9540
1958.893356 0.9530 0.9530 0.9530 0.9520 0.9500
1963.266537 0.9490 0.9490 0.9480 0.9480 0.9480
1967.639719 0.9490 0.9490 0.9500 0.9520 0.9540
1972.012901 0.9540 0.9560 0.9570 0.9570 0.9590
1976.386083 0.9600 0.9600 0.9610 0.9610 0.9610
1980.759265 0.9630 0.9650 0.9650 0.9670 0.9680
1985.132446 0.9690 0.9710 0.9720 0.9740 0.9750
1989.505628 0.9760 0.9780 0.9790 0.9800 0.9820
1993.878810 0.9830 0.9840 0.9860 0.9870 0.9890
1998.251992 0.9890 0.9900 0.9930 0.9935 0.9940
2002.625174 0.9955 0.9970 0.9970 0.9970 0.9975
2006.998355 0.9980 0.9990 1.0000 1.0005 1.0010
2011.371537 1.0015 1.0020 1.0020 1.0020 1.0020
2015.744719 1.0020 1.0020 1.0020 1.0020 1.0020
2020.117901 1.0020 1.0020 1.0020 1.0020 1.0015
2024.491083 1.0010 1.0010 1.0010 1.0010 1.0010
2028.864264 1.0010 1.0010 1.0005 1.0000 1.0000
2033.237446 1.0000 1.0000 1.0000 0.9991 0.9981
2037.610628 0.9966 0.9951 0.9931 0.9911 0.9891
2041.983810 0.9872 0.9856 0.9841 0.9840 0.9840
2046.356992 0.9854 0.9869 0.9888 0.9908 0.9928
2050.730173 0.9948 0.9977 1.0007 1.0010 1.0010
2055.103355 1.0010 1.0010 1.0010 1.0010 1.0010
2059.476537 1.0010 1.0006 1.0001 0.9991 0.9981
2063.849719 0.9980 0.9980 0.9976 0.9971 0.9970
2068.222900 0.9970 0.9961 0.9951 0.9946 0.9941
2072.596082 0.9922 0.9902 0.9896 0.9891 0.9881
2076.969264 0.9871 0.9857 0.9842 0.9836 0.9831
2081.342446 0.9826 0.9821 0.9820 0.9820 0.9824
2085.715628 0.9829 0.9834 0.9839 0.9853 0.9868
2090.088809 0.9883 0.9898 0.9904 0.9909 0.9918
2094.461991 0.9928 0.9938 0.9948 0.9979 1.0014
2098.835173 1.0032 1.0047 1.0062 1.0077 1.0084
2103.208355 1.0089 1.0090 1.0090 1.0094 1.0099
2107.581537 1.0100 1.0100 1.0108 1.0118 1.0120
2111.954718 1.0120 1.0120 1.0120 1.0124 1.0129
2116.327900 1.0126 1.0121 1.0124 1.0129 1.0126
2120.701082 1.0121 1.0120 1.0120 1.0120 1.0120
2125.074264 1.0120 1.0120 1.0120 1.0120 1.0120
2129.447446 1.0120 1.0112 1.0102 1.0108 1.0118
2133.820627 1.0120 1.0120 1.0120 1.0120 1.0112
2138.193809 1.0103 1.0096 1.0091 1.0090 1.0090
2142.566991 1.0086 1.0081 1.0072 1.0063 1.0056
2146.940173 1.0051 1.0050 1.0050 1.0050 1.0050
2151.313355 1.0046 1.0041 1.0040 1.0040 1.0044
2155.686536 1.0049 1.0050 1.0050 1.0054 1.0059
2160.059718 1.0067 1.0077 1.0084 1.0089 1.0090
2164.432900 1.0090 1.0094 1.0099 1.0100 1.0100
2168.806082 1.0096 1.0092 1.0087 1.0082 1.0080
2173.179264 1.0080 1.0080 1.0080 1.0080 1.0080
2177.552445 1.0087 1.0097 1.0100 1.0100 1.0096
2181.925627 1.0092 1.0090 1.0090 1.0090 1.0090
2186.298809 1.0090 1.0090 1.0093 1.0098 1.0100
2190.671991 1.0100 1.0100 1.0100 1.0100 1.0100
2195.045173 1.0107 1.0117 1.0120 1.0120 1.0123
2199.418354 1.0128 1.0130 1.0130 1.0130 1.0130
2203.791536 1.0130 1.0130 1.0136 1.0146 1.0150
2208.164718 1.0150 1.0150 1.0150 1.0144 1.0134
2212.537900 1.0136 1.0146 1.0144 1.0134 1.0130
2216.911082 1.0130 1.0127 1.0122 1.0114 1.0104
2221.284263 1.0100 1.0100 1.0100 1.0100 1.0100
2225.657445 1.0100 1.0097 1.0092 1.0087 1.0082
2230.030627 1.0080 1.0080 1.0071 1.0056 1.0050
2234.403809 1.0050 1.0050 1.0050 1.0047 1.0042
2238.776990 1.0040 1.0040 1.0034 1.0024 1.0020
2243.150172 1.0020 1.0020 1.0020 1.0017 1.0012
2247.523354 1.0010 1.0010 1.0010 1.0010 1.0010
2251.896536 1.0010 1.0010 1.0010 1.0010 1.0010
2256.269718 1.0010 1.0010 1.0010 1.0010 1.0007
2260.642899 1.0002 1.0000 1.0000 1.0000 1.0000
2265.016081 1.0000 1.0000 1.0000 1.0000 1.0000
2269.389263 1.0000 1.0000 1.0000 1.0000 1.0000
2273.762445 1.0000 1.0000 1.0000 1.0000 0.9995
2278.135627 0.9985 0.9980 0.9980 0.9980 0.9980
2282.508808 0.9980 0.9980 0.9980 0.9980 0.9977
2286.881990 0.9972 0.9970 0.9970 0.9965 0.9955
2291.255172 0.9945 0.9935 0.9930 0.9930 0.9925
2295.628354 0.9915 0.9908 0.9902 0.9903 0.9908
2300.001536 0.9915 0.9925 0.9935 0.9945 0.9950
2304.374717 0.9950 0.9955 0.9965 0.9972 0.9977
2308.747899 0.9980 0.9980 0.9978 0.9973 0.9963
2313.121081 0.9948 0.9933 0.9918 0.9908 0.9903
2317.494263 0.9891 0.9871 0.9860 0.9860 0.9862
2321.867445 0.9867 0.9870 0.9870 0.9875 0.9884
2326.240626 0.9894 0.9904 0.9914 0.9924 0.9939
2330.613808 0.9959 0.9972 0.9977 0.9987 1.0002
2334.986990 1.0010 1.0010 1.0010 1.0010 1.0010
2339.360172 1.0010 1.0010 1.0010 1.0008 1.0003
2343.733354 1.0000 1.0000 1.0000 1.0000 1.0004
2348.106535 1.0014 1.0020 1.0020 1.0020 1.0020
2352.479717 1.0020 1.0020 1.0020 1.0020 1.0020
2356.852899 1.0020 1.0018 1.0013 1.0012 1.0017
2361.226081 1.0020 1.0020 1.0020 1.0020 1.0020
2365.599263 1.0020 1.0018 1.0013 1.0010 1.0010
2369.972444 1.0008 1.0003 1.0000 1.0000 0.9996
2374.345626 0.9986 0.9980 0.9980 0.9980 0.9980
2378.718808 0.9980 0.9980 0.9984 0.9994 1.0000
2383.091990 1.0000 0.9997 0.9986 0.9985 1.0000
2387.465172 1.0010 1.0010 1.0008 1.0003 1.0002
2391.838353 1.0007 1.0010 1.0010 1.0012 1.0017
2396.211535 1.0020 1.0020 1.0020 1.0020 1.0020
2400.584717 1.0020 1.0020 1.0020 1.0023 1.0033
2404.957899 1.0042 1.0047 1.0050 1.0050 1.0055
2409.331080 1.0070 1.0080 1.0080 1.0082 1.0087
2413.704262 1.0090 1.0090 1.0089 1.0084 1.0080
2418.077444 1.0080 1.0080 1.0080 1.0080 1.0080
2422.450626 1.0080 1.0080 1.0080 1.0080 1.0081
2426.823808 1.0086 1.0090 1.0090 1.0090 1.0090
2431.196989 1.0090 1.0090 1.0090 1.0090 1.0089
2435.570171 1.0084 1.0076 1.0061 1.0054 1.0069
2439.943353 1.0077 1.0067 1.0060 1.0060 1.0060
2444.316535 1.0060 1.0059 1.0054 1.0045 1.0025
2448.689717 1.0010 1.0010 1.0010 1.0010 1.0010
2453.062898 1.0010 1.0009 1.0004 0.9998 0.9988
2457.436080 0.9976 0.9961 0.9944 0.9919 0.9897
2461.809262 0.9882 0.9869 0.9864 0.9860 0.9860
2466.182444 0.9860 0.9860 0.9860 0.9860 0.9860
2470.555626 0.9860 0.9861 0.9866 0.9870 0.9870
2474.928807 0.9873 0.9888 0.9907 0.9942 0.9974
2479.301989 0.9994 1.0010 1.0010 1.0010 1.0010
2483.675171 1.0010 1.0010 1.0010 1.0010 1.0011
2488.048353 1.0016 1.0020 1.0020 1.0019 1.0014
2492.421535 1.0010 1.0010 1.0010 1.0010 1.0011
2496.794716 1.0016 1.0022 1.0032 1.0041 1.0046
2501.167898 1.0050 1.0050 1.0050 1.0050 1.0050
2505.541080 1.0050 1.0050 1.0050 1.0049 1.0044
2509.914262 1.0040 1.0040 1.0040 1.0040 1.0040
2514.287444 1.0040 1.0040 1.0040 1.0040 1.0040
2518.660625 1.0040 1.0040 1.0040 1.0040 1.0040
2523.033807 1.0040 1.0040 1.0040 1.0040 1.0040
2527.406989 1.0040 1.0040 1.0039 1.0029 1.0019
2531.780171 1.0015 1.0010 1.0010 1.0010 1.0010
2536.153353 1.0010 1.0010 1.0010 1.0005 0.9999
2540.526534 0.9989 0.9980 0.9980 0.9978 0.9958
2544.899716 0.9940 0.9935 0.9930 0.9930 0.9930
2549.272898 0.9935 0.9940 0.9940 0.9940 0.9940
2553.646080 0.9940 0.9945 0.9950 0.9950 0.9950
2558.019262 0.9945 0.9939 0.9924 0.9910 0.9905
2562.392443 0.9900 0.9900 0.9900 0.9905 0.9911
2566.765625 0.9926 0.9940 0.9945 0.9950 0.9960
2571.138807 0.9970 0.9970 0.9970 0.9975 0.9980
2575.511989 0.9990 1.0000 1.0000 1.0000 1.0000
2579.885170 1.0000 1.0000 1.0000 0.9990 0.9980
2584.258352 0.9980 0.9980 0.9980 0.9980 0.9980
2588.631534 0.9980 0.9975 0.9970 0.9970 0.9970
2593.004716 0.9960 0.9950 0.9945 0.9940 0.9940
2597.377898 0.9940 0.9940 0.9940 0.9940 0.9940
2601.751079 0.9940 0.9940 0.9940 0.9940 0.9940
2606.124261 0.9940 0.9940 0.9940 0.9935 0.9930
2610.497443 0.9930 0.9930 0.9930 0.9930 0.9920
2614.870625 0.9910 0.9910 0.9910 0.9910 0.9910
2619.243807 0.9910 0.9910 0.9910 0.9910 0.9910
2623.616988 0.9910 0.9905 0.9900 0.9895 0.9890
2627.990170 0.9890 0.9890 0.9895 0.9900 0.9900
2632.363352 0.9900 0.9900 0.9900 0.9900 0.9900
2636.736534 0.9900 0.9900 0.9900 0.9900 0.9914
2641.109716 0.9929 0.9930 0.9930 0.9921 0.9911
2645.482897 0.9910 0.9910 0.9910 0.9910 0.9910
2649.856079 0.9910 0.9910 0.9910 0.9910 0.9910
2654.229261 0.9910 0.9910 0.9910 0.9910 0.9910
2658.602443 0.9910 0.9919 0.9929 0.9930 0.9930
2662.975625 0.9930 0.9930 0.9921 0.9911 0.9910
2667.348806 0.9910 0.9910 0.9910 0.9910 0.9910
2671.721988 0.9906 0.9901 0.9900 0.9900 0.9900
2676.095170 0.9900 0.9896 0.9891 0.9894 0.9899
2680.468352 0.9904 0.9909 0.9923 0.9938 0.9940
2684.841534 0.9940 0.9940 0.9940 0.9940 0.9940
2689.214715 0.9940 0.9940 0.9940 0.9940 0.9940
2693.587897 0.9940 0.9940 0.9940 0.9940 0.9940
2697.961079 0.9940 0.9940 0.9940 0.9940 0.9936
2702.334261 0.9931 0.9930 0.9930 0.9930 0.9930
2706.707443 0.9930 0.9930 0.9930 0.9930 0.9922
2711.080624 0.9912 0.9906 0.9901 0.9900 0.9900
2715.453806 0.9900 0.9900 0.9900 0.9900 0.9900
2719.826988 0.9900 0.9904 0.9909 0.9918 0.9928
2724.200170 0.9930 0.9930 0.9930 0.9930 0.9930
2728.573351 0.9930 0.9934 0.9939 0.9940 0.9940
2732.946533 0.9940 0.9940 0.9936 0.9931 0.9930
2737.319715 0.9930 0.9934 0.9939 0.9940 0.9940
2741.692897 0.9936 0.9931 0.9922 0.9912 0.9910
2746.066079 0.9910 0.9910 0.9910 0.9910 0.9910
2750.439260 0.9910 0.9910 0.9910 0.9910 0.9906
2754.812442 0.9901 0.9900 0.9900 0.9900 0.9900
2759.185624 0.9900 0.9900 0.9896 0.9891 0.9890
2763.558806 0.9890 0.9883 0.9873 0.9870 0.9870
2767.931988 0.9870 0.9870 0.9866 0.9861 0.9860
2772.305169 0.9860 0.9853 0.9843 0.9840 0.9840
2776.678351 0.9836 0.9832 0.9830 0.9830 0.9830
2781.051533 0.9830 0.9833 0.9838 0.9840 0.9840
2785.424715 0.9840 0.9840 0.9840 0.9840 0.9840
2789.797897 0.9840 0.9847 0.9857 0.9860 0.9860
2794.171078 0.9860 0.9860 0.9860 0.9860 0.9863
2798.544260 0.9868 0.9877 0.9887 0.9890 0.9890
2802.917442 0.9890 0.9890 0.9890 0.9890 0.9890
2807.290624 0.9890 0.9883 0.9873 0.9870 0.9870
2811.663806 0.9867 0.9862 0.9863 0.9868 0.9867
2816.036987 0.9862 0.9860 0.9860 0.9860 0.9860
2820.410169 0.9854 0.9844 0.9837 0.9832 0.9830
2824.783351 0.9830 0.9827 0.9822 0.9820 0.9820
2829.156533 0.9820 0.9820 0.9814 0.9804 0.9797
2833.529715 0.9792 0.9790 0.9790 0.9787 0.9782
2837.902896 0.9780 0.9780 0.9774 0.9764 0.9760
2842.276078 0.9760 0.9757 0.9752 0.9750 0.9750
2846.649260 0.9750 0.9750 0.9747 0.9742 0.9734
2851.022442 0.9724 0.9711 0.9696 0.9687 0.9682
2855.395624 0.9677 0.9672 0.9670 0.9670 0.9664
2859.768805 0.9654 0.9650 0.9650 0.9647 0.9642
2864.141987 0.9637 0.9632 0.9630 0.9630 0.9630
2868.515169 0.9630 0.9625 0.9615 0.9610 0.9610
2872.888351 0.9607 0.9602 0.9600 0.9600 0.9597
2877.261533 0.9592 0.9590 0.9590 0.9585 0.9575
2881.634714 0.9570 0.9570 0.9570 0.9570 0.9567
2886.007896 0.9562 0.9560 0.9560 0.9560 0.9560
2890.381078 0.9560 0.9560 0.9560 0.9560 0.9555
2894.754260 0.9545 0.9540 0.9540 0.9540 0.9540
2899.127441 0.9540 0.9540 0.9538 0.9533 0.9530
2903.500623 0.9530 0.9530 0.9530 0.9530 0.9530
2907.873805 0.9528 0.9523 0.9515 0.9505 0.9495
2912.246987 0.9485 0.9473 0.9458 0.9443 0.9428
2916.620169 0.9418 0.9413 0.9401 0.9381 0.9361
2920.993350 0.9341 0.9325 0.9315 0.9301 0.9281
2925.366532 0.9268 0.9263 0.9260 0.9260 0.9260
2929.739714 0.9260 0.9262 0.9267 0.9277 0.9292
2934.112896 0.9302 0.9307 0.9310 0.9310 0.9314
2938.486078 0.9324 0.9332 0.9337 0.9348 0.9368
2942.859259 0.9382 0.9387 0.9390 0.9390 0.9390
2947.232441 0.9390 0.9390 0.9390 0.9390 0.9390
2951.605623 0.9388 0.9383 0.9378 0.9373 0.9366
2955.978805 0.9356 0.9346 0.9336 0.9320 0.9295
2960.351987 0.9263 0.9218 0.9178 0.9148 0.9126
2964.725168 0.9116 0.9094 0.9054 0.9011 0.8961
2969.098350 0.8915 0.8875 0.8835 0.8795 0.8759
2973.471532 0.8729 0.8708 0.8703 0.8702 0.8707
2977.844714 0.8721 0.8751 0.8793 0.8859 0.8926
2982.217896 0.8995 0.9056 0.9101 0.9135 0.9150
2986.591077 0.9164 0.9173 0.9183 0.9193 0.9203
2990.964259 0.9213 0.9223 0.9233 0.9240 0.9240
2995.337441 0.9238 0.9233 0.9228 0.9223 0.9215
2999.710623 0.9200 0.9185 0.9170 0.9152 0.9127
3004.083805 0.9100 0.9070 0.9044 0.9024 0.8993
3008.456986 0.8938 0.8883 0.8828 0.8760 0.8660
3012.830168 0.8547 0.8402 0.8290 0.8254 0.8228
3017.203350 0.8223 0.8222 0.8227 0.8245 0.8295
3021.576532 0.8349 0.8414 0.8479 0.8544 0.8608
3025.949714 0.8673 0.8741 0.8816 0.8892 0.8972
3030.322895 0.9046 0.9106 0.9155 0.9175 0.9191
3034.696077 0.9196 0.9203 0.9213 0.9220 0.9220
3039.069259 0.9217 0.9207 0.9191 0.9156 0.9125
3043.442441 0.9105 0.9084 0.9059 0.9035 0.9015
3047.815623 0.8993 0.8963 0.8938 0.8928 0.8918
3052.188804 0.8908 0.8902 0.8912 0.8927 0.8957
3056.561986 0.8984 0.8998 0.9012 0.9022 0.9028
3060.935168 0.9018 0.9006 0.8986 0.8966 0.8946
3065.308350 0.8929 0.8924 0.8914 0.8884 0.8851
3069.681531 0.8811 0.8769 0.8719 0.8672 0.8632
3074.054713 0.8591 0.8546 0.8486 0.8366 0.8246
3078.427895 0.8127 0.8001 0.7852 0.7692 0.7487
3082.801077 0.7317 0.7302 0.7293 0.7308 0.7337
3087.174259 0.7427 0.7525 0.7660 0.7792 0.7912
3091.547440 0.8026 0.8116 0.8205 0.8289 0.8364
3095.920622 0.8389 0.8417 0.8456 0.8493 0.8513
3100.293804 0.8547 0.8657 0.8778 0.8964 0.9121
3104.666986 0.9126 0.9134 0.9159 0.9183 0.9203
3109.040168 0.9221 0.9231 0.9244 0.9274 0.9301
3113.413349 0.9306 0.9310 0.9310 0.9311 0.9321
3117.786531 0.9331 0.9336 0.9342 0.9357 0.9373
3122.159713 0.9393 0.9411 0.9416 0.9422 0.9437
3126.532895 0.9451 0.9456 0.9461 0.9471 0.9480
3130.906077 0.9480 0.9480 0.9480 0.9480 0.9480
3135.279258 0.9481 0.9491 0.9500 0.9500 0.9502
3139.652440 0.9517 0.9531 0.9546 0.9560 0.9560
3144.025622 0.9560 0.9565 0.9570 0.9570 0.9571
3148.398804 0.9581 0.9590 0.9590 0.9590 0.9590
3152.771986 0.9590 0.9590 0.9590 0.9590 0.9590
3157.145167 0.9590 0.9590 0.9590 0.9590 0.9590
3161.518349 0.9590 0.9595 0.9600 0.9600 0.9600
3165.891531 0.9600 0.9600 0.9605 0.9610 0.9610
3170.264713 0.9610 0.9610 0.9610 0.9610 0.9610
3174.637895 0.9610 0.9610 0.9610 0.9610 0.9610
3179.011076 0.9610 0.9610 0.9610 0.9610 0.9610
3183.384258 0.9610 0.9610 0.9610 0.9610 0.9610
3187.757440 0.9610 0.9610 0.9610 0.9605 0.9600
3192.130622 0.9600 0.9600 0.9600 0.9600 0.9600
3196.503804 0.9600 0.9600 0.9600 0.9595 0.9590
3200.876985 0.9595 0.9600 0.9600 0.9600 0.9600
3205.250167 0.9600 0.9600 0.9600 0.9605 0.9610
3209.623349 0.9610 0.9610 0.9610 0.9610 0.9610
3213.996531 0.9610 0.9610 0.9610 0.9620 0.9630
3218.369713 0.9620 0.9610 0.9620 0.9630 0.9630
3222.742894 0.9630 0.9630 0.9630 0.9630 0.9630
3227.116076 0.9630 0.9630 0.9630 0.9630 0.9630
3231.489258 0.9630 0.9635 0.9640 0.9640 0.9640
3235.862440 0.9635 0.9630 0.9630 0.9630 0.9630
3240.235621 0.9630 0.9630 0.9630 0.9630 0.9630
3244.608803 0.9630 0.9630 0.9630 0.9630 0.9630
3248.981985 0.9630 0.9630 0.9630 0.9630 0.9630
3253.355167 0.9630 0.9630 0.9630 0.9630 0.9621
3257.728349 0.9611 0.9610 0.9610 0.9610 0.9610
3262.101530 0.9610 0.9610 0.9606 0.9601 0.9600
3266.474712 0.9600 0.9600 0.9600 0.9600 0.9600
3270.847894 0.9596 0.9591 0.9590 0.9590 0.9590
3275.221076 0.9590 0.9581 0.9571 0.9570 0.9570
3279.594258 0.9570 0.9570 0.9570 0.9570 0.9566
3283.967439 0.9561 0.9560 0.9560 0.9560 0.9560
3288.340621 0.9560 0.9560 0.9560 0.9560 0.9560
3292.713803 0.9560 0.9560 0.9560 0.9560 0.9560
3297.086985 0.9560 0.9560 0.9560 0.9560 0.9560
3301.460167 0.9560 0.9560 0.9560 0.9560 0.9560
3305.833348 0.9560 0.9560 0.9560 0.9560 0.9560
3310.206530 0.9560 0.9560 0.9560 0.9560 0.9560
3314.579712 0.9560 0.9560 0.9560 0.9560 0.9552
3318.952894 0.9542 0.9540 0.9540 0.9540 0.9540
3323.326076 0.9540 0.9540 0.9540 0.9540 0.9540
3327.699257 0.9540 0.9536 0.9531 0.9530 0.9530
3332.072439 0.9530 0.9530 0.9526 0.9521 0.9520
3336.445621 0.9520 0.9512 0.9502 0.9500 0.9500
3340.818803 0.9496 0.9491 0.9486 0.9481 0.9473
3345.191985 0.9463 0.9460 0.9460 0.9456 0.9451
3349.565166 0.9442 0.9432 0.9423 0.9413 0.9395
3353.938348 0.9375 0.9355 0.9335 0.9319 0.9304
3358.311530 0.9289 0.9274 0.9256 0.9236 0.9194
3362.684712 0.9144 0.9109 0.9079 0.9038 0.8992
3367.057894 0.8962 0.8937 0.8916 0.8896 0.8865
3371.431075 0.8830 0.8816 0.8811 0.8803 0.8793
3375.804257 0.8790 0.8790 0.8797 0.8807 0.8817
3380.177439 0.8827 0.8844 0.8864 0.8894 0.8929
3384.550621 0.8999 0.9084 0.9124 0.9144 0.9177
3388.923803 0.9217 0.9247 0.9272 0.9300 0.9330
3393.296984 0.9350 0.9365 0.9377 0.9387 0.9397
3397.670166 0.9407 0.9413 0.9418 0.9423 0.9428
3402.043348 0.9437 0.9447 0.9453 0.9458 0.9467
3406.416530 0.9477 0.9480 0.9480 0.9480 0.9480
3410.789711 0.9480 0.9480 0.9480 0.9480 0.9483
3415.162893 0.9488 0.9490 0.9490 0.9490 0.9490
3419.536075 0.9490 0.9490 0.9490 0.9490 0.9490
3423.909257 0.9490 0.9490 0.9490 0.9490 0.9490
3428.282439 0.9490 0.9490 0.9490 0.9490 0.9490
3432.655620 0.9490 0.9487 0.9482 0.9483 0.9488
3437.028802 0.9490 0.9490 0.9490 0.9490 0.9490
3441.401984 0.9490 0.9490 0.9490 0.9493 0.9498
3445.775166 0.9500 0.9500 0.9500 0.9500 0.9500
3450.148348 0.9500 0.9500 0.9500 0.9500 0.9500
3454.521529 0.9500 0.9500 0.9500 0.9500 0.9497
3458.894711 0.9492 0.9490 0.9490 0.9487 0.9482
3463.267893 0.9480 0.9480 0.9483 0.9488 0.9490
3467.641075 0.9490 0.9490 0.9490 0.9490 0.9490
3472.014257 0.9490 0.9490 0.9487 0.9482 0.9475
3476.387438 0.9465 0.9460 0.9460 0.9457 0.9452
3480.760620 0.9450 0.9450 0.9450 0.9450 0.9453
3485.133802 0.9458 0.9460 0.9460 0.9460 0.9460
3489.506984 0.9465 0.9475 0.9480 0.9480 0.9480
3493.880166 0.9480 0.9480 0.9480 0.9480 0.9480
3498.253347 0.9480 0.9480 0.9480 0.9480 0.9480
3502.626529 0.9480 0.9480 0.9480 0.9475 0.9465
3506.999711 0.9460 0.9460 0.9460 0.9460 0.9460
3511.372893 0.9460 0.9460 0.9460 0.9460 0.9460
3515.746075 0.9460 0.9460 0.9460 0.9460 0.9460
3520.119256 0.9460 0.9460 0.9460 0.9460 0.9460
3524.492438 0.9460 0.9460 0.9460 0.9460 0.9460
3528.865620 0.9460 0.9460 0.9460 0.9460 0.9460
3533.238802 0.9460 0.9460 0.9460 0.9460 0.9460
3537.611984 0.9460 0.9460 0.9460 0.9464 0.9474
3541.985165 0.9482 0.9487 0.9490 0.9490 0.9490
3546.358347 0.9490 0.9492 0.9497 0.9500 0.9500
3550.731529 0.9500 0.9500 0.9500 0.9500 0.9500
3555.104711 0.9500 0.9504 0.9514 0.9520 0.9520
3559.477893 0.9520 0.9520 0.9522 0.9527 0.9530
3563.851074 0.9530 0.9530 0.9530 0.9532 0.9537
3568.224256 0.9540 0.9540 0.9544 0.9554 0.9560
3572.597438 0.9560 0.9560 0.9560 0.9560 0.9560
3576.970620 0.9560 0.9560 0.9560 0.9560 0.9562
3581.343801 0.9567 0.9574 0.9584 0.9590 0.9590
3585.716983 0.9590 0.9590 0.9590 0.9590 0.9590
3590.090165 0.9590 0.9590 0.9590 0.9590 0.9590
3594.463347 0.9590 0.9590 0.9592 0.9597 0.9600
3598.836529 0.9600 0.9602 0.9607 0.9610 0.9610
3603.209710 0.9610 0.9610 0.9610 0.9610 0.9610
3607.582892 0.9610 0.9608 0.9603 0.9600 0.9600
3611.956074 0.9600 0.9600 0.9602 0.9607 0.9610
3616.329256 0.9610 0.9610 0.9610 0.9610 0.9610
3620.702438 0.9613 0.9623 0.9631 0.9636 0.9640
3625.075619 0.9640 0.9639 0.9634 0.9630 0.9630
3629.448801 0.9630 0.9630 0.9630 0.9630 0.9627
3633.821983 0.9617 0.9610 0.9610 0.9610 0.9610
3638.195165 0.9610 0.9610 0.9613 0.9623 0.9631
3642.568347 0.9636 0.9640 0.9640 0.9640 0.9640
3646.941528 0.9640 0.9640 0.9640 0.9640 0.9640
3651.314710 0.9640 0.9639 0.9634 0.9630 0.9630
3655.687892 0.9630 0.9630 0.9630 0.9630 0.9630
3660.061074 0.9630 0.9631 0.9636 0.9640 0.9640
3664.434256 0.9640 0.9640 0.9640 0.9640 0.9639
3668.807437 0.9634 0.9626 0.9606 0.9588 0.9578
3673.180619 0.9569 0.9564 0.9558 0.9548 0.9539
3677.553801 0.9534 0.9530 0.9530 0.9530 0.9530
3681.926983 0.9529 0.9524 0.9520 0.9520 0.9520
3686.300165 0.9520 0.9521 0.9526 0.9531 0.9536
3690.673346 0.9542 0.9552 0.9561 0.9566 0.9572
3695.046528 0.9587 0.9601 0.9606 0.9612 0.9627
3699.419710 0.9643 0.9658 0.9670 0.9670 0.9670
3703.792892 0.9670 0.9668 0.9658 0.9650 0.9650
3708.166074 0.9650 0.9650 0.9650 0.9650 0.9652
3712.539255 0.9667 0.9680 0.9680 0.9681 0.9686
3716.912437 0.9690 0.9690 0.9692 0.9707 0.9720
3721.285619 0.9720 0.9719 0.9714 0.9710 0.9710
3725.658801 0.9709 0.9699 0.9690 0.9690 0.9691
3730.031983 0.9701 0.9710 0.9710 0.9710 0.9710
3734.405164 0.9710 0.9710 0.9710 0.9710 0.9710
3738.778346 0.9710 0.9710 0.9710 0.9709 0.9694
3743.151528 0.9680 0.9680 0.9680 0.9680 0.9680
3747.524710 0.9680 0.9680 0.9675 0.9670 0.9670
3751.897891 0.9671 0.9681 0.9690 0.9690 0.9690
3756.271073 0.9690 0.9690 0.9690 0.9689 0.9679
3760.644255 0.9669 0.9659 0.9650 0.9650 0.9650
3765.017437 0.9650 0.9650 0.9650 0.9650 0.9650
3769.390619 0.9650 0.9650 0.9650 0.9650 0.9650
3773.763800 0.9650 0.9650 0.9650 0.9650 0.9650
3778.136982 0.9650 0.9650 0.9650 0.9660 0.9670
3782.510164 0.9670 0.9670 0.9670 0.9670 0.9670
3786.883346 0.9670 0.9670 0.9670 0.9670 0.9670
3791.256528 0.9670 0.9670 0.9670 0.9670 0.9670
3795.629709 0.9670 0.9670 0.9670 0.9670 0.9670
##END=
