##TITLE=ETHANEDINITRILE
##JCAMP-DX=4.24
##DATA TYPE=INFRARED SPECTRUM
##CLASS=COBLENTZ
##ORIGIN=DOW CHEMICAL COMPANY
##OWNER=COBLENTZ SOCIETY
Collection (C) 2018 copyright by the U.S. Secretary of Commerce
on behalf of the United States of America. All rights reserved.
##DATE=1972/03/27
##NAMES=oxalonitrile
CYANOGEN
##CAS REGISTRY NO=460-19-5
##MOLFORM=C2 N2
##SOURCE REFERENCE=COBLENTZ NO. 10483
##$NIST SOURCE=COBLENTZ
##$NIST IMAGE=cob-r10483
##SPECTROMETER/DATA SYSTEM=DOW KBr FOREPRISM-GRATING
##INSTRUMENT PARAMETERS=GRATING: BLAZED AT 3.5, 12.0, 20.0 MICRON, CHANGED AT 5.0, 7.5, 14.9 MICRON
##STATE=GAS (280 mmHg, N2 ADDED, TOTAL PRESSURE 600 mmHg)
##PATH LENGTH=10 CM CELL
$$ POSSIBLE SPECTRAL CONTAMINATION DUE TO A TRACE OF HCN AT 706, AND H2O VAPOR AROUND 1400-1800 CM^-^1
##SAMPLING PROCEDURE=TRANSMISSION
##RESOLUTION=2
##DATA PROCESSING=DIGITIZED BY NIST FROM HARD COPY (FROM TWO SEGMENTS)
##XUNITS=1/CM
##YUNITS=TRANSMITTANCE
##XFACTOR=1.000000
##YFACTOR=1
##DELTAX=1.282054
##FIRSTX=457.692
##LASTX=3792.32
##FIRSTY=1.024
##MAXX=3792.32
##MINX=457.692
##MAXY=1.034
##MINY=0.159439
##NPOINTS=2602
##XYDATA=(X++(Y..Y))
457.692000 1.0240 1.0240 1.0240 1.0240 1.0240
464.102272 1.0240 1.0240 1.0220 1.0220 1.0220
470.512543 1.0220 1.0240 1.0240 1.0240 1.0240
476.922815 1.0240 1.0240 1.0240 1.0240 1.0240
483.333087 1.0240 1.0240 1.0240 1.0240 1.0240
489.743358 1.0240 1.0220 1.0220 1.0240 1.0240
496.153630 1.0260 1.0260 1.0260 1.0280 1.0300
502.563901 1.0300 1.0300 1.0300 1.0300 1.0300
508.974173 1.0300 1.0300 1.0300 1.0280 1.0280
515.384445 1.0280 1.0280 1.0280 1.0280 1.0280
521.794716 1.0260 1.0260 1.0260 1.0260 1.0260
528.204988 1.0240 1.0240 1.0240 1.0240 1.0240
534.615260 1.0220 1.0200 1.0200 1.0200 1.0200
541.025531 1.0200 1.0180 1.0180 1.0180 1.0180
547.435803 1.0180 1.0180 1.0180 1.0160 1.0160
553.846074 1.0140 1.0140 1.0140 1.0120 1.0100
560.256346 1.0080 1.0080 1.0080 1.0060 1.0040
566.666618 1.0040 1.0040 1.0040 1.0020 1.0020
573.076889 1.0000 1.0000 1.0000 1.0000 0.9970
579.487161 0.9950 0.9930 0.9910 0.9910 0.9910
585.897433 0.9910 0.9910 0.9910 0.9890 0.9870
592.307704 0.9830 0.9830 0.9810 0.9810 0.9790
598.717976 0.9790 0.9750 0.9670 0.9650 0.9590
605.128247 0.9570 0.9570 0.9570 0.9550 0.9550
611.538519 0.9470 0.9230 0.9030 0.8950 0.9070
617.948791 0.9110 0.9170 0.9190 0.9210 0.9329
624.359062 0.9370 0.9370 0.9390 0.9430 0.9450
630.769334 0.9530 0.9550 0.9630 0.9690 0.9730
637.179606 0.9770 0.9770 0.9790 0.9810 0.9830
643.589877 0.9850 0.9870 0.9870 0.9910 0.9910
650.000149 0.9910 0.9950 0.9950 0.9950 0.9930
656.410420 0.9930 0.9910 0.9910 0.9910 0.9910
662.820692 0.9890 0.9870 0.9870 0.9850 0.9870
669.230964 0.9810 0.9929 0.9870 0.9830 0.9830
675.641235 0.9810 0.9790 0.9790 0.9770 0.9770
682.051507 0.9710 0.9790 0.9790 0.9790 0.9810
688.461779 0.9810 0.9810 0.9830 0.9830 0.9770
694.872050 0.9830 0.9830 0.9830 0.9830 0.9790
701.282322 0.9730 0.9590 0.9390 0.9151 0.8831
707.692593 0.6340 0.5783 0.5382 0.6175 0.5306
714.102865 0.3700 0.3161 0.2641 0.2091 0.2090
720.513137 0.2110 0.2369 0.2539 0.2759 0.3137
726.923408 0.3620 0.4450 0.5219 0.5220 0.4113
733.333680 0.3323 0.2583 0.2540 0.2520 0.2540
739.743952 0.2780 0.3000 0.3240 0.3579 0.3929
746.154223 0.4308 0.4668 0.4968 0.5437 0.5897
752.564495 0.6470 0.7030 0.7499 0.7580 0.7939
758.974767 0.8199 0.8439 0.8718 0.9028 0.9387
765.385038 0.9450 0.9570 0.9650 0.9770 0.9810
771.795310 0.9910 0.9970 1.0040 1.0060 1.0080
778.205581 1.0100 1.0120 1.0120 1.0140 1.0140
784.615853 1.0180 1.0180 1.0200 1.0200 1.0200
791.026125 1.0200 1.0200 1.0200 1.0180 1.0180
797.436396 1.0180 1.0180 1.0200 1.0200 1.0200
803.846668 1.0200 1.0200 1.0200 1.0200 1.0200
810.256940 1.0200 1.0200 1.0200 1.0200 1.0200
816.667211 1.0200 1.0200 1.0200 1.0200 1.0180
823.077483 1.0180 1.0180 1.0180 1.0180 1.0160
829.487754 1.0160 1.0160 1.0160 1.0140 1.0140
835.898026 1.0140 1.0140 1.0140 1.0120 1.0120
842.308298 1.0120 1.0120 1.0120 1.0120 1.0120
848.718569 1.0120 1.0120 1.0100 1.0080 1.0060
855.128841 1.0060 1.0040 1.0040 1.0040 1.0040
861.539113 1.0040 1.0000 1.0000 1.0000 0.9970
867.949384 0.9970 0.9970 0.9970 0.9970 1.0000
874.359656 1.0000 1.0000 1.0020 1.0040 1.0040
880.769927 1.0040 1.0040 1.0040 1.0040 1.0040
887.180199 1.0040 1.0020 1.0020 1.0020 1.0000
893.590471 1.0000 1.0000 0.9970 0.9970 0.9970
900.000742 1.0000 1.0000 1.0020 1.0040 1.0040
906.411014 1.0040 1.0040 1.0040 1.0060 1.0060
912.821286 1.0060 1.0060 1.0060 1.0060 1.0080
919.231557 1.0100 1.0100 1.0120 1.0120 1.0140
925.641829 1.0140 1.0140 1.0140 1.0140 1.0140
932.052100 1.0160 1.0160 1.0160 1.0160 1.0160
938.462372 1.0140 1.0140 1.0140 1.0160 1.0160
944.872644 1.0160 1.0160 1.0160 1.0160 1.0180
951.282915 1.0180 1.0160 1.0160 1.0160 1.0180
957.693187 1.0180 1.0180 1.0200 1.0200 1.0200
964.103459 1.0200 1.0200 1.0200 1.0200 1.0200
970.513730 1.0200 1.0200 1.0200 1.0220 1.0220
976.924002 1.0220 1.0200 1.0200 1.0220 1.0220
983.334273 1.0220 1.0220 1.0220 1.0220 1.0220
989.744545 1.0220 1.0220 1.0220 1.0220 1.0220
996.154817 1.0220 1.0220 1.0220 1.0220 1.0220
1002.565088 1.0220 1.0220 1.0220 1.0220 1.0220
1008.975360 1.0220 1.0220 1.0240 1.0240 1.0240
1015.385632 1.0240 1.0240 1.0220 1.0220 1.0220
1021.795903 1.0220 1.0220 1.0220 1.0220 1.0220
1028.206175 1.0220 1.0220 1.0220 1.0220 1.0220
1034.616447 1.0220 1.0220 1.0220 1.0240 1.0240
1041.026718 1.0240 1.0240 1.0240 1.0240 1.0240
1047.436990 1.0220 1.0220 1.0220 1.0220 1.0220
1053.847261 1.0220 1.0220 1.0220 1.0220 1.0220
1060.257533 1.0220 1.0220 1.0220 1.0220 1.0220
1066.667805 1.0220 1.0220 1.0220 1.0220 1.0240
1073.078076 1.0240 1.0240 1.0220 1.0220 1.0220
1079.488348 1.0220 1.0180 1.0220 1.0220 1.0220
1085.898620 1.0220 1.0220 1.0220 1.0240 1.0240
1092.308891 1.0240 1.0240 1.0240 1.0240 1.0240
1098.719163 1.0240 1.0260 1.0260 1.0260 1.0260
1105.129434 1.0280 1.0280 1.0280 1.0280 1.0280
1111.539706 1.0280 1.0300 1.0300 1.0300 1.0300
1117.949978 1.0300 1.0280 1.0280 1.0300 1.0300
1124.360249 1.0300 1.0300 1.0300 1.0300 1.0300
1130.770521 1.0300 1.0300 1.0300 1.0300 1.0300
1137.180793 1.0280 1.0280 1.0280 1.0280 1.0280
1143.591064 1.0280 1.0300 1.0300 1.0280 1.0280
1150.001336 1.0280 1.0280 1.0280 1.0280 1.0280
1156.411607 1.0280 1.0280 1.0280 1.0260 1.0260
1162.821879 1.0260 1.0260 1.0260 1.0260 1.0260
1169.232151 1.0240 1.0240 1.0260 1.0260 1.0260
1175.642422 1.0260 1.0260 1.0240 1.0240 1.0260
1182.052694 1.0260 1.0260 1.0260 1.0260 1.0260
1188.462966 1.0260 1.0260 1.0260 1.0260 1.0260
1194.873237 1.0260 1.0260 1.0260 1.0260 1.0280
1201.283509 1.0280 1.0260 1.0260 1.0280 1.0280
1207.693780 1.0280 1.0280 1.0280 1.0280 1.0280
1214.104052 1.0280 1.0280 1.0280 1.0280 1.0280
1220.514324 1.0260 1.0260 1.0260 1.0280 1.0280
1226.924595 1.0260 1.0260 1.0260 1.0260 1.0260
1233.334867 1.0260 1.0260 1.0260 1.0260 1.0260
1239.745139 1.0240 1.0240 1.0240 1.0240 1.0240
1246.155410 1.0240 1.0200 1.0200 1.0200 1.0180
1252.565682 1.0180 1.0180 1.0180 1.0180 1.0180
1258.975953 1.0180 1.0180 1.0180 1.0180 1.0180
1265.386225 1.0160 1.0160 1.0160 1.0160 1.0160
1271.796497 1.0160 1.0160 1.0160 1.0140 1.0140
1278.206768 1.0140 1.0140 1.0140 1.0140 1.0140
1284.617040 1.0140 1.0120 1.0120 1.0120 1.0120
1291.027312 1.0120 1.0120 1.0120 1.0140 1.0120
1297.437583 1.0120 1.0120 1.0120 1.0120 1.0100
1303.847855 1.0080 1.0080 1.0060 1.0060 1.0060
1310.258127 1.0040 1.0040 1.0040 1.0040 1.0040
1316.668398 1.0060 1.0060 1.0100 1.0120 1.0120
1323.078670 1.0120 1.0140 1.0140 1.0140 1.0140
1329.488941 1.0140 1.0140 1.0140 1.0140 1.0140
1335.899213 1.0140 1.0120 1.0120 1.0120 1.0100
1342.309485 1.0120 1.0120 1.0120 1.0140 1.0140
1348.719756 1.0120 1.0120 1.0120 1.0120 1.0120
1355.130028 1.0140 1.0140 1.0140 1.0140 1.0140
1361.540300 1.0140 1.0140 1.0140 1.0140 1.0140
1367.950571 1.0140 1.0140 1.0160 1.0160 1.0160
1374.360843 1.0160 1.0160 1.0160 1.0160 1.0160
1380.771114 1.0160 1.0180 1.0240 1.0260 1.0280
1387.181386 1.0340 1.0340 1.0280 1.0240 1.0240
1393.591658 1.0180 1.0160 1.0120 1.0120 1.0120
1400.001929 1.0120 1.0120 1.0120 1.0120 1.0120
1406.412201 1.0120 1.0120 1.0120 1.0120 1.0120
1412.822473 1.0120 1.0120 1.0100 1.0100 1.0080
1419.232744 1.0040 1.0040 1.0100 1.0100 1.0080
1425.643016 1.0080 1.0080 1.0080 1.0080 1.0080
1432.053287 1.0060 1.0060 1.0040 1.0000 1.0000
1438.463559 1.0020 1.0060 1.0060 1.0020 1.0020
1444.873831 1.0020 1.0020 1.0020 1.0020 1.0040
1451.284102 1.0040 1.0000 1.0000 0.9970 0.9890
1457.694374 0.9890 1.0000 1.0040 1.0040 0.9970
1464.104646 0.9970 1.0000 1.0000 1.0000 1.0000
1470.514917 0.9950 0.9930 0.9950 0.9970 1.0020
1476.925189 1.0020 1.0020 1.0040 1.0040 1.0000
1483.335460 1.0000 1.0000 1.0000 0.9970 0.9970
1489.745732 0.9970 0.9970 0.9950 0.9910 0.9910
1496.156004 0.9930 0.9930 0.9950 0.9970 1.0000
1502.566275 0.9950 0.9910 0.9810 0.9890 0.9890
1508.976547 0.9910 0.9910 0.9910 0.9910 0.9890
1515.386819 0.9870 0.9830 0.9830 0.9830 0.9830
1521.797090 0.9830 0.9830 0.9830 0.9830 0.9870
1528.207362 0.9890 0.9890 0.9790 0.9830 0.9890
1534.617633 0.9910 0.9810 0.9750 0.9750 0.9810
1541.027905 0.9850 0.9850 0.9870 0.9910 0.9930
1547.438177 0.9950 0.9950 0.9930 0.9930 0.9930
1553.848448 0.9930 0.9910 0.9790 0.9790 0.9909
1560.258720 0.9970 1.0000 1.0020 1.0020 1.0020
1566.668992 1.0020 1.0000 1.0000 0.9970 0.9890
1573.079263 0.9970 1.0020 1.0020 1.0020 1.0040
1579.489535 1.0040 1.0040 1.0040 1.0040 1.0040
1585.899807 1.0040 1.0040 1.0040 1.0040 1.0040
1592.310078 1.0040 1.0040 1.0040 1.0040 1.0040
1598.720350 1.0060 1.0060 1.0020 1.0020 1.0020
1605.130621 1.0020 1.0020 1.0020 1.0020 0.9931
1611.540893 0.9930 1.0020 1.0020 1.0020 1.0020
1617.951165 1.0040 1.0040 1.0020 1.0020 0.9950
1624.361436 0.9950 0.9950 0.9950 0.9930 0.9830
1630.771708 0.9830 0.9930 0.9930 0.9950 0.9950
1637.181980 0.9930 0.9890 0.9850 0.9850 0.9830
1643.592251 0.9830 0.9810 0.9810 0.9551 0.9689
1650.002523 0.9870 0.9910 0.9910 0.9910 0.9890
1656.412794 0.9830 0.9830 0.9930 0.9930 0.9890
1662.823066 0.9910 0.9910 0.9910 0.9830 0.9790
1669.233338 0.9910 0.9910 0.9890 0.9890 0.9890
1675.643609 0.9890 0.9810 0.9770 0.9870 0.9870
1682.053881 0.9870 0.9870 0.9870 0.9870 0.9850
1688.464153 0.9830 0.9770 0.9710 0.9710 0.9750
1694.874424 0.9790 0.9790 0.9790 0.9810 0.9810
1701.284696 0.9810 0.9810 0.9810 0.9810 0.9790
1707.694967 0.9790 0.9710 0.9690 0.9790 0.9790
1714.105239 0.9790 0.9790 0.9790 0.9790 0.9790
1720.515511 0.9770 0.9770 0.9770 0.9730 0.9670
1726.925782 0.9670 0.9790 0.9790 0.9750 0.9770
1733.336054 0.9770 0.9790 0.9790 0.9790 0.9810
1739.746326 0.9810 0.9750 0.9750 0.9790 0.9810
1746.156597 0.9810 0.9810 0.9810 0.9810 0.9810
1752.566869 0.9810 0.9830 0.9830 0.9830 0.9830
1758.977140 0.9830 0.9810 0.9810 0.9790 0.9810
1765.387412 0.9810 0.9830 0.9830 0.9830 0.9830
1771.797684 0.9830 0.9830 0.9830 0.9830 0.9830
1778.207955 0.9850 0.9810 0.9830 0.9830 0.9830
1784.618227 0.9850 0.9870 0.9870 0.9870 0.9870
1791.028499 0.9870 0.9870 0.9870 0.9870 0.9870
1797.438770 0.9870 0.9870 0.9870 0.9870 0.9870
1803.849042 0.9870 0.9870 0.9870 0.9870 0.9850
1810.259313 0.9850 0.9830 0.9830 0.9830 0.9830
1816.669585 0.9830 0.9830 0.9850 0.9850 0.9850
1823.079857 0.9850 0.9850 0.9850 0.9810 0.9810
1829.490128 0.9810 0.9810 0.9830 0.9830 0.9830
1835.900400 0.9830 0.9850 0.9850 0.9850 0.9850
1842.310672 0.9850 0.9830 0.9830 0.9830 0.9830
1848.720943 0.9850 0.9850 0.9850 0.9850 0.9830
1855.131215 0.9830 0.9830 0.9830 0.9830 0.9830
1861.541487 0.9830 0.9830 0.9830 0.9830 0.9850
1867.951758 0.9850 0.9850 0.9850 0.9850 0.9850
1874.362030 0.9850 0.9850 0.9850 0.9810 0.9810
1880.772301 0.9810 0.9830 0.9830 0.9830 0.9830
1887.182573 0.9810 0.9810 0.9870 0.9870 0.9870
1893.592845 0.9850 0.9830 0.9830 0.9830 0.9810
1900.003116 0.9810 0.9810 0.9830 0.9830 0.9830
1906.413388 0.9830 0.9830 0.9830 0.9830 0.9830
1912.823660 0.9810 0.9810 0.9830 0.9830 0.9830
1919.233931 0.9830 0.9810 0.9810 0.9810 0.9810
1925.644203 0.9810 0.9810 0.9810 0.9810 0.9810
1932.054474 0.9810 0.9810 0.9810 0.9830 0.9810
1938.464746 0.9810 0.9830 0.9850 0.9850 0.9850
1944.875018 0.9850 0.9850 0.9830 0.9830 0.9830
1951.285289 0.9830 0.9830 0.9830 0.9830 0.9830
1957.695561 0.9830 0.9830 0.9830 0.9830 0.9830
1964.105833 0.9830 0.9830 0.9830 0.9830 0.9850
1970.516104 0.9850 0.9810 0.9810 0.9810 0.9830
1976.926376 0.9830 0.9850 0.9870 0.9870 0.9870
1983.336647 0.9870 0.9870 0.9870 0.9850 0.9850
1989.746919 0.9850 0.9850 0.9850 0.9850 0.9850
1996.157191 0.9850 0.9850 0.9850 0.9850 0.9850
2002.567462 0.9850 0.9850 0.9850 0.9850 0.9850
2008.977734 0.9850 0.9850 0.9840 0.9830 0.9830
2015.388006 0.9830 0.9830 0.9830 0.9830 0.9830
2021.798277 0.9830 0.9830 0.9830 0.9830 0.9830
2028.208549 0.9830 0.9830 0.9830 0.9830 0.9830
2034.618820 0.9830 0.9830 0.9830 0.9830 0.9830
2041.029092 0.9830 0.9821 0.9811 0.9810 0.9810
2047.439364 0.9801 0.9791 0.9790 0.9790 0.9771
2053.849635 0.9751 0.9741 0.9731 0.9665 0.9595
2060.259907 0.9590 0.9590 0.9599 0.9609 0.9610
2066.670179 0.9610 0.9619 0.9629 0.9639 0.9649
2073.080450 0.9632 0.9612 0.9601 0.9591 0.9581
2079.490722 0.9571 0.9525 0.9475 0.9470 0.9470
2085.900993 0.9461 0.9451 0.9441 0.9431 0.9412
2092.311265 0.9392 0.9372 0.9352 0.9341 0.9331
2098.721537 0.9269 0.9199 0.9172 0.9152 0.9097
2105.131808 0.9037 0.8995 0.8955 0.8932 0.8913
2111.542080 0.8927 0.8947 0.9166 0.9415 0.9450
2117.952352 0.9450 0.9459 0.9468 0.9470 0.9470
2124.362623 0.9470 0.9470 0.9436 0.9396 0.9364
2130.772895 0.9334 0.9253 0.9164 0.9116 0.9076
2137.183167 0.8637 0.8124 0.7865 0.7655 0.7409
2143.593438 0.7154 0.6612 0.6008 0.5266 0.4493
2150.003710 0.3599 0.2676 0.2324 0.2107 0.2045
2156.413981 0.2015 0.1994 0.1974 0.1888 0.1789
2162.824253 0.1754 0.1734 0.2641 0.3768 0.3506
2169.234525 0.2902 0.2450 0.2036 0.1824 0.1664
2175.644796 0.1614 0.1594 0.1598 0.1608 0.1818
2182.055068 0.2078 0.2373 0.2677 0.3518 0.4500
2188.465340 0.5470 0.6438 0.7592 0.8798 0.9085
2194.875611 0.9105 0.9302 0.9551 0.9625 0.9645
2201.285883 0.9650 0.9650 0.9642 0.9632 0.9622
2207.696154 0.9612 0.9602 0.9592 0.9590 0.9590
2214.106426 0.9590 0.9590 0.9590 0.9590 0.9605
2220.516698 0.9625 0.9630 0.9630 0.9630 0.9630
2226.926969 0.9630 0.9630 0.9608 0.9578 0.9570
2233.337241 0.9570 0.9570 0.9570 0.9570 0.9570
2239.747513 0.9592 0.9622 0.9630 0.9630 0.9630
2246.157784 0.9630 0.9630 0.9630 0.9630 0.9630
2252.568056 0.9630 0.9630 0.9630 0.9630 0.9623
2258.978327 0.9613 0.9610 0.9610 0.9610 0.9610
2265.388599 0.9610 0.9610 0.9610 0.9610 0.9610
2271.798871 0.9610 0.9610 0.9610 0.9610 0.9610
2278.209142 0.9610 0.9610 0.9610 0.9610 0.9603
2284.619414 0.9593 0.9590 0.9590 0.9583 0.9573
2291.029686 0.9570 0.9570 0.9570 0.9570 0.9570
2297.439957 0.9570 0.9563 0.9554 0.9550 0.9550
2303.850229 0.9550 0.9550 0.9544 0.9533 0.9523
2310.260500 0.9513 0.9503 0.9493 0.9484 0.9474
2316.670772 0.9464 0.9454 0.9450 0.9450 0.9444
2323.081044 0.9434 0.9430 0.9430 0.9424 0.9414
2329.491315 0.9404 0.9394 0.9390 0.9390 0.9384
2335.901587 0.9374 0.9370 0.9370 0.9364 0.9354
2342.311859 0.9350 0.9350 0.9350 0.9350 0.9350
2348.722130 0.9350 0.9350 0.9350 0.9350 0.9350
2355.132402 0.9350 0.9350 0.9350 0.9350 0.9350
2361.542673 0.9350 0.9356 0.9366 0.9370 0.9370
2367.952945 0.9376 0.9386 0.9390 0.9390 0.9396
2374.363217 0.9406 0.9421 0.9441 0.9456 0.9466
2380.773488 0.9476 0.9486 0.9490 0.9490 0.9496
2387.183760 0.9506 0.9516 0.9526 0.9530 0.9530
2393.594032 0.9530 0.9530 0.9530 0.9530 0.9525
2400.004303 0.9515 0.9510 0.9510 0.9510 0.9510
2406.414575 0.9510 0.9510 0.9510 0.9510 0.9510
2412.824847 0.9510 0.9510 0.9510 0.9510 0.9510
2419.235118 0.9510 0.9510 0.9505 0.9495 0.9490
2425.645390 0.9490 0.9490 0.9490 0.9490 0.9490
2432.055661 0.9490 0.9490 0.9490 0.9490 0.9490
2438.465933 0.9490 0.9490 0.9490 0.9485 0.9475
2444.876205 0.9470 0.9470 0.9470 0.9470 0.9470
2451.286476 0.9470 0.9470 0.9470 0.9470 0.9470
2457.696748 0.9470 0.9470 0.9475 0.9485 0.9490
2464.107020 0.9490 0.9490 0.9490 0.9485 0.9475
2470.517291 0.9465 0.9455 0.9450 0.9450 0.9450
2476.927563 0.9450 0.9450 0.9450 0.9450 0.9450
2483.337834 0.9450 0.9450 0.9446 0.9435 0.9430
2489.748106 0.9430 0.9425 0.9415 0.9410 0.9410
2496.158378 0.9406 0.9396 0.9390 0.9390 0.9390
2502.568649 0.9390 0.9390 0.9390 0.9390 0.9390
2508.978921 0.9390 0.9390 0.9390 0.9390 0.9386
2515.389193 0.9376 0.9370 0.9370 0.9366 0.9356
2521.799464 0.9346 0.9336 0.9322 0.9302 0.9278
2528.209736 0.9248 0.9218 0.9188 0.9158 0.9128
2534.620007 0.9091 0.9041 0.8995 0.8954 0.8880
2541.030279 0.8755 0.8652 0.8582 0.8501 0.8401
2547.440551 0.8271 0.8091 0.7896 0.7677 0.7474
2553.850822 0.7300 0.7138 0.6999 0.6830 0.6611
2560.261094 0.6459 0.6429 0.6396 0.6355 0.6495
2566.671366 0.6934 0.7367 0.7791 0.8093 0.8182
2573.081637 0.8265 0.8335 0.8429 0.8569 0.8710
2579.491909 0.8855 0.8984 0.9084 0.9163 0.9203
2585.902180 0.9246 0.9296 0.9337 0.9357 0.9373
2592.312452 0.9383 0.9390 0.9390 0.9387 0.9377
2598.722724 0.9370 0.9370 0.9370 0.9370 0.9367
2605.132995 0.9357 0.9350 0.9350 0.9350 0.9350
2611.543267 0.9350 0.9350 0.9347 0.9337 0.9324
2617.953539 0.9304 0.9287 0.9277 0.9267 0.9257
2624.363810 0.9250 0.9250 0.9247 0.9237 0.9224
2630.774082 0.9204 0.9184 0.9164 0.9139 0.9099
2637.184354 0.9051 0.8981 0.8908 0.8827 0.8705
2643.594625 0.8480 0.8269 0.8089 0.7910 0.7730
2650.004897 0.7552 0.7378 0.7149 0.6770 0.6482
2656.415168 0.6452 0.6344 0.6010 0.5899 0.6452
2662.825440 0.7005 0.7559 0.7973 0.7942 0.7915
2669.235712 0.7895 0.7885 0.7905 0.7977 0.8207
2675.645983 0.8437 0.8672 0.8881 0.9011 0.9119
2682.056255 0.9159 0.9192 0.9202 0.9217 0.9247
2688.466527 0.9276 0.9306 0.9332 0.9342 0.9350
2694.876798 0.9350 0.9352 0.9362 0.9370 0.9370
2701.287070 0.9370 0.9370 0.9368 0.9358 0.9348
2707.697341 0.9338 0.9330 0.9330 0.9330 0.9330
2714.107613 0.9330 0.9330 0.9330 0.9330 0.9330
2720.517885 0.9330 0.9330 0.9330 0.9332 0.9342
2726.928156 0.9350 0.9350 0.9350 0.9350 0.9348
2733.338428 0.9338 0.9330 0.9330 0.9328 0.9318
2739.748700 0.9310 0.9310 0.9310 0.9310 0.9310
2746.158971 0.9310 0.9310 0.9310 0.9310 0.9310
2752.569243 0.9310 0.9310 0.9310 0.9310 0.9310
2758.979514 0.9310 0.9311 0.9321 0.9330 0.9330
2765.389786 0.9330 0.9330 0.9329 0.9319 0.9310
2771.800058 0.9310 0.9310 0.9310 0.9310 0.9310
2778.210329 0.9310 0.9310 0.9310 0.9310 0.9310
2784.620601 0.9310 0.9310 0.9310 0.9310 0.9310
2791.030873 0.9310 0.9310 0.9310 0.9310 0.9309
2797.441144 0.9299 0.9290 0.9290 0.9289 0.9279
2803.851416 0.9270 0.9270 0.9270 0.9270 0.9269
2810.261687 0.9259 0.9250 0.9250 0.9250 0.9250
2816.671959 0.9250 0.9250 0.9250 0.9250 0.9250
2823.082231 0.9250 0.9250 0.9250 0.9250 0.9250
2829.492502 0.9250 0.9250 0.9249 0.9239 0.9230
2835.902774 0.9230 0.9230 0.9230 0.9230 0.9230
2842.313046 0.9230 0.9230 0.9230 0.9230 0.9229
2848.723317 0.9219 0.9210 0.9210 0.9210 0.9210
2855.133589 0.9210 0.9210 0.9210 0.9200 0.9190
2861.543860 0.9190 0.9190 0.9190 0.9190 0.9190
2867.954132 0.9190 0.9190 0.9190 0.9190 0.9190
2874.364404 0.9200 0.9210 0.9210 0.9210 0.9210
2880.774675 0.9210 0.9210 0.9210 0.9210 0.9210
2887.184947 0.9210 0.9210 0.9210 0.9210 0.9220
2893.595219 0.9230 0.9230 0.9230 0.9220 0.9210
2900.005490 0.9210 0.9210 0.9200 0.9190 0.9190
2906.415762 0.9190 0.9190 0.9190 0.9180 0.9170
2912.826034 0.9170 0.9170 0.9170 0.9170 0.9170
2919.236305 0.9170 0.9160 0.9150 0.9150 0.9150
2925.646577 0.9140 0.9130 0.9130 0.9130 0.9130
2932.056848 0.9130 0.9130 0.9130 0.9130 0.9130
2938.467120 0.9130 0.9130 0.9130 0.9130 0.9130
2944.877392 0.9130 0.9130 0.9130 0.9130 0.9130
2951.287663 0.9130 0.9130 0.9130 0.9130 0.9130
2957.697935 0.9130 0.9130 0.9130 0.9130 0.9130
2964.108207 0.9130 0.9130 0.9130 0.9130 0.9130
2970.518478 0.9130 0.9130 0.9130 0.9130 0.9130
2976.928750 0.9130 0.9130 0.9121 0.9111 0.9110
2983.339021 0.9110 0.9101 0.9091 0.9090 0.9090
2989.749293 0.9081 0.9071 0.9070 0.9070 0.9070
2996.159565 0.9070 0.9070 0.9070 0.9070 0.9070
3002.569836 0.9070 0.9070 0.9079 0.9089 0.9090
3008.980108 0.9090 0.9099 0.9109 0.9110 0.9110
3015.390380 0.9127 0.9147 0.9150 0.9150 0.9158
3021.800651 0.9168 0.9170 0.9170 0.9179 0.9189
3028.210923 0.9190 0.9190 0.9190 0.9190 0.9190
3034.621194 0.9190 0.9190 0.9190 0.9190 0.9190
3041.031466 0.9190 0.9190 0.9190 0.9190 0.9182
3047.441738 0.9172 0.9170 0.9170 0.9170 0.9170
3053.852009 0.9170 0.9170 0.9170 0.9170 0.9170
3060.262281 0.9170 0.9170 0.9170 0.9178 0.9188
3066.672553 0.9190 0.9190 0.9190 0.9190 0.9182
3073.082824 0.9172 0.9170 0.9170 0.9170 0.9170
3079.493096 0.9162 0.9152 0.9150 0.9150 0.9158
3085.903367 0.9168 0.9162 0.9152 0.9142 0.9132
3092.313639 0.9130 0.9130 0.9130 0.9130 0.9130
3098.723911 0.9130 0.9130 0.9130 0.9130 0.9130
3105.134182 0.9130 0.9130 0.9130 0.9130 0.9130
3111.544454 0.9130 0.9130 0.9130 0.9138 0.9148
3117.954726 0.9150 0.9150 0.9150 0.9150 0.9143
3124.364997 0.9133 0.9130 0.9130 0.9130 0.9130
3130.775269 0.9130 0.9130 0.9130 0.9130 0.9130
3137.185540 0.9130 0.9137 0.9147 0.9150 0.9150
3143.595812 0.9143 0.9133 0.9130 0.9130 0.9130
3150.006084 0.9130 0.9130 0.9130 0.9123 0.9113
3156.416355 0.9103 0.9093 0.9090 0.9090 0.9090
3162.826627 0.9090 0.9097 0.9107 0.9117 0.9127
3169.236899 0.9130 0.9130 0.9123 0.9113 0.9103
3175.647170 0.9093 0.9083 0.9073 0.9070 0.9070
3182.057442 0.9077 0.9087 0.9090 0.9090 0.9097
3188.467714 0.9107 0.9117 0.9127 0.9130 0.9130
3194.877985 0.9130 0.9130 0.9117 0.9097 0.9090
3201.288257 0.9090 0.9084 0.9074 0.9070 0.9070
3207.698528 0.9070 0.9070 0.9070 0.9070 0.9063
3214.108800 0.9054 0.9050 0.9050 0.9050 0.9050
3220.519072 0.9050 0.9050 0.9050 0.9050 0.9050
3226.929343 0.9050 0.9044 0.9034 0.9030 0.9030
3233.339615 0.9017 0.8997 0.8990 0.8990 0.8990
3239.749887 0.8990 0.8990 0.8990 0.8990 0.8990
3246.160158 0.8990 0.8990 0.8984 0.8974 0.8964
3252.570430 0.8954 0.8944 0.8934 0.8930 0.8930
3258.980701 0.8930 0.8930 0.8930 0.8930 0.8924
3265.390973 0.8914 0.8904 0.8894 0.8878 0.8858
3271.801245 0.8844 0.8834 0.8830 0.8830 0.8830
3278.211516 0.8830 0.8836 0.8846 0.8856 0.8866
3284.621788 0.8876 0.8886 0.8901 0.8921 0.8930
3291.032060 0.8930 0.8930 0.8930 0.8936 0.8946
3297.442331 0.8955 0.8965 0.8975 0.8985 0.8990
3303.852603 0.8990 0.8979 0.8959 0.8950 0.8950
3310.262874 0.8939 0.8919 0.8888 0.8848 0.8825
3316.673146 0.8815 0.8799 0.8779 0.8765 0.8755
3323.083418 0.8750 0.8750 0.8755 0.8765 0.8770
3329.493689 0.8770 0.8775 0.8785 0.8795 0.8805
3335.903961 0.8815 0.8825 0.8835 0.8845 0.8860
3342.314233 0.8880 0.8895 0.8905 0.8915 0.8925
3348.724504 0.8940 0.8960 0.8970 0.8970 0.8975
3355.134776 0.8985 0.8990 0.8990 0.8990 0.8990
3361.545047 0.8990 0.8990 0.8995 0.9005 0.9010
3367.955319 0.9010 0.9010 0.9010 0.9010 0.9010
3374.365591 0.9010 0.9010 0.9010 0.9010 0.9010
3380.775862 0.9010 0.9010 0.9010 0.9010 0.9010
3387.186134 0.9010 0.9010 0.9010 0.9010 0.9010
3393.596406 0.9010 0.9010 0.9010 0.9010 0.9010
3400.006677 0.9010 0.9010 0.9010 0.9010 0.9010
3406.416949 0.9010 0.9010 0.9010 0.9010 0.9010
3412.827220 0.9010 0.9010 0.9010 0.9010 0.9010
3419.237492 0.9010 0.9010 0.9010 0.9010 0.9010
3425.647764 0.9010 0.9010 0.9014 0.9024 0.9034
3432.058035 0.9044 0.9050 0.9050 0.9050 0.9050
3438.468307 0.9050 0.9050 0.9050 0.9050 0.9050
3444.878579 0.9050 0.9046 0.9036 0.9030 0.9030
3451.288850 0.9030 0.9030 0.9030 0.9030 0.9030
3457.699122 0.9030 0.9030 0.9030 0.9026 0.9016
3464.109394 0.9010 0.9010 0.9010 0.9010 0.9010
3470.519665 0.9010 0.9010 0.9010 0.9010 0.9010
3476.929937 0.9010 0.9010 0.9010 0.9010 0.9007
3483.340208 0.8997 0.8990 0.8990 0.8990 0.8990
3489.750480 0.8990 0.8990 0.8987 0.8977 0.8970
3496.160752 0.8970 0.8970 0.8970 0.8970 0.8970
3502.571023 0.8970 0.8970 0.8970 0.8970 0.8970
3508.981295 0.8970 0.8973 0.8983 0.8990 0.8990
3515.391567 0.8990 0.8990 0.8990 0.8990 0.8990
3521.801838 0.8990 0.8990 0.8990 0.8990 0.8990
3528.212110 0.8990 0.8990 0.8990 0.8990 0.8990
3534.622381 0.8990 0.8990 0.8990 0.8990 0.8990
3541.032653 0.8990 0.8990 0.8990 0.8990 0.8990
3547.442925 0.8990 0.8990 0.8990 0.8990 0.8990
3553.853196 0.8990 0.8990 0.8990 0.8990 0.8990
3560.263468 0.8990 0.8990 0.8990 0.8990 0.8990
3566.673740 0.8993 0.9003 0.9010 0.9010 0.9010
3573.084011 0.9010 0.9010 0.9010 0.9010 0.9010
3579.494283 0.9012 0.9022 0.9030 0.9030 0.9032
3585.904554 0.9042 0.9050 0.9050 0.9052 0.9062
3592.314826 0.9070 0.9070 0.9072 0.9082 0.9090
3598.725098 0.9090 0.9090 0.9090 0.9090 0.9090
3605.135369 0.9088 0.9078 0.9068 0.9058 0.9048
3611.545641 0.9038 0.9030 0.9030 0.9030 0.9030
3617.955913 0.9030 0.9030 0.9030 0.9030 0.9030
3624.366184 0.9030 0.9032 0.9042 0.9054 0.9074
3630.776456 0.9092 0.9102 0.9110 0.9110 0.9108
3637.186727 0.9098 0.9085 0.9055 0.9028 0.9018
3643.596999 0.9010 0.9010 0.9012 0.9022 0.9037
3650.007271 0.9077 0.9110 0.9110 0.9107 0.9087
3656.417542 0.9067 0.9047 0.9029 0.9019 0.9010
3662.827814 0.9010 0.9009 0.8999 0.8990 0.8990
3669.238086 0.8990 0.8990 0.8990 0.8990 0.8991
3675.648357 0.9001 0.9013 0.9033 0.9051 0.9061
3682.058629 0.9070 0.9070 0.9070 0.9070 0.9070
3688.468900 0.9070 0.9070 0.9070 0.9069 0.9059
3694.879172 0.9050 0.9050 0.9050 0.9050 0.9050
3701.289444 0.9050 0.9050 0.9050 0.9050 0.9050
3707.699715 0.9049 0.9039 0.9030 0.9030 0.9030
3714.109987 0.9030 0.9030 0.9030 0.9031 0.9041
3720.520259 0.9051 0.9061 0.9070 0.9070 0.9070
3726.930530 0.9070 0.9070 0.9070 0.9071 0.9081
3733.340802 0.9091 0.9101 0.9110 0.9110 0.9110
3739.751074 0.9110 0.9110 0.9110 0.9110 0.9110
3746.161345 0.9109 0.9099 0.9090 0.9090 0.9090
3752.571617 0.9090 0.9090 0.9080 0.9070 0.9060
3758.981888 0.9050 0.9050 0.9050 0.9050 0.9050
3765.392160 0.9050 0.9050 0.9050 0.9050 0.9050
3771.802432 0.9050 0.9040 0.9030 0.9030 0.9030
3778.212703 0.9030 0.9030 0.9030 0.9030 0.9030
3784.622975 0.9030 0.9030 0.9030 0.9030 0.9030
3791.033247 0.9020 0.9010
##END=
