##TITLE=Fluorobenzene
##JCAMP-DX=4.24
$$ By DXEDIT 1.05 (RS McDonald)
##DATA TYPE=INFRARED SPECTRUM
##CLASS=COBLENTZ III
##ORIGIN=DOW CHEMICAL COMPANY
##OWNER=COPYRIGHT (C) 1988 by COBLENTZ SOCIETY INC.
Collection (C) 2018 copyright by the U.S. Secretary of Commerce
on behalf of the United States of America. All rights reserved.
##DATE=1962/10/01
##CAS REGISTRY NO=462-06-6
##MOLFORM=C6 H5 F
##SOURCE REFERENCE=COBLENTZ NO. 5759
##$NIST SOURCE=COBLENTZ
##$NIST IMAGE=cob5759
##SPECTROMETER/DATA SYSTEM=DOW KBr FOREPRISM-GRATING
##INSTRUMENT PARAMETERS=BLAZED AT 3.5, 12.0, 20.0 MICRON AND CHANGED AT 5.0, 7.5, 14.9 MICRON
##STATE=SOLUTION (10% CCl4 FOR 3800-1300, 10% CS2 FOR 1300-450 CM^-^1)
##PATH LENGTH=0.011 CM, 0.011 CM
$$SPECTRAL CONTAMINATION DUE TO CS2 AROUND 850 AND CCl4 AROUND 1550 CM^-^1 HAVE BEEN SUBTRACTED
##SAMPLING PROCEDURE=TRANSMISSION
##RESOLUTION=2
##DATA PROCESSING=DIGITIZED BY COBLENTZ SOCIETY (BATCH I) FROM HARD COPY
##XUNITS=1/CM
##YUNITS=TRANSMITTANCE
##XFACTOR=1
##YFACTOR=1
##DELTAX=1
##FIRSTX=3802
##LASTX=448
##FIRSTY=0.8722
##MAXX=3802
##MINX=448
##MAXY=0.918
##MINY=0.0036
##NPOINTS=3355
##XYDATA=(X++(Y..Y))
3802.000000 0.8722 0.8724 0.8726 0.8733 0.8740
3797.000000 0.8750 0.8765 0.8765 0.8784 0.8791
3792.000000 0.8798 0.8806 0.8813 0.8820 0.8828
3787.000000 0.8830 0.8832 0.8833 0.8825 0.8821
3782.000000 0.8822 0.8832 0.8837 0.8826 0.8837
3777.000000 0.8840 0.8841 0.8827 0.8842 0.8843
3772.000000 0.8844 0.8845 0.8846 0.8846 0.8847
3767.000000 0.8848 0.8849 0.8849 0.8850 0.8851
3762.000000 0.8852 0.8852 0.8861 0.8861 0.8856
3757.000000 0.8856 0.8857 0.8858 0.8859 0.8859
3752.000000 0.8859 0.8859 0.8860 0.8860 0.8860
3747.000000 0.8860 0.8861 0.8861 0.8862 0.8862
3742.000000 0.8862 0.8862 0.8863 0.8867 0.8877
3737.000000 0.8877 0.8877 0.8877 0.8870 0.8862
3732.000000 0.8868 0.8873 0.8872 0.8869 0.8868
3727.000000 0.8866 0.8865 0.8863 0.8862 0.8860
3722.000000 0.8859 0.8857 0.8855 0.8838 0.8838
3717.000000 0.8849 0.8847 0.8840 0.8833 0.8807
3712.000000 0.8787 0.8767 0.8737 0.8729 0.8713
3707.000000 0.8709 0.8705 0.8705 0.8706 0.8706
3702.000000 0.8707 0.8707 0.8708 0.8712 0.8717
3697.000000 0.8724 0.8719 0.8725 0.8733 0.8745
3692.000000 0.8757 0.8768 0.8780 0.8785 0.8792
3687.000000 0.8794 0.8788 0.8792 0.8797 0.8798
3682.000000 0.8798 0.8799 0.8799 0.8798 0.8798
3677.000000 0.8797 0.8797 0.8796 0.8796 0.8794
3672.000000 0.8793 0.8792 0.8802 0.8790 0.8787
3667.000000 0.8786 0.8785 0.8784 0.8783 0.8781
3662.000000 0.8780 0.8779 0.8778 0.8777 0.8776
3657.000000 0.8774 0.8773 0.8773 0.8773 0.8772
3652.000000 0.8774 0.8774 0.8776 0.8776 0.8777
3647.000000 0.8778 0.8779 0.8779 0.8780 0.8780
3642.000000 0.8781 0.8782 0.8783 0.8783 0.8784
3637.000000 0.8785 0.8786 0.8786 0.8787 0.8791
3632.000000 0.8803 0.8803 0.8800 0.8791 0.8797
3627.000000 0.8807 0.8808 0.8809 0.8810 0.8811
3622.000000 0.8812 0.8813 0.8816 0.8817 0.8818
3617.000000 0.8819 0.8820 0.8821 0.8823 0.8824
3612.000000 0.8825 0.8826 0.8827 0.8827 0.8816
3607.000000 0.8831 0.8832 0.8832 0.8834 0.8831
3602.000000 0.8827 0.8836 0.8834 0.8825 0.8834
3597.000000 0.8842 0.8844 0.8845 0.8847 0.8848
3592.000000 0.8849 0.8850 0.8852 0.8853 0.8854
3587.000000 0.8855 0.8856 0.8857 0.8859 0.8860
3582.000000 0.8861 0.8862 0.8864 0.8865 0.8866
3577.000000 0.8867 0.8864 0.8860 0.8872 0.8873
3572.000000 0.8867 0.8860 0.8862 0.8864 0.8865
3567.000000 0.8866 0.8867 0.8867 0.8870 0.8870
3562.000000 0.8873 0.8874 0.8876 0.8877 0.8879
3557.000000 0.8880 0.8883 0.8897 0.8885 0.8888
3552.000000 0.8903 0.8904 0.8902 0.8897 0.8909
3547.000000 0.8910 0.8912 0.8908 0.8909 0.8917
3542.000000 0.8919 0.8920 0.8914 0.8919 0.8916
3537.000000 0.8924 0.8930 0.8932 0.8933 0.8935
3532.000000 0.8936 0.8939 0.8940 0.8928 0.8929
3527.000000 0.8932 0.8934 0.8935 0.8937 0.8939
3522.000000 0.8941 0.8942 0.8945 0.8947 0.8949
3517.000000 0.8950 0.8952 0.8954 0.8956 0.8957
3512.000000 0.8959 0.8960 0.8962 0.8963 0.8965
3507.000000 0.8966 0.8968 0.8969 0.8970 0.8974
3502.000000 0.8976 0.8977 0.8978 0.8980 0.8981
3497.000000 0.8983 0.8985 0.8986 0.8988 0.8989
3492.000000 0.8991 0.8992 0.8994 0.8995 0.8997
3487.000000 0.8999 0.9001 0.9002 0.9004 0.9005
3482.000000 0.9007 0.9008 0.9010 0.9010 0.9011
3477.000000 0.9012 0.9013 0.9014 0.9015 0.9015
3472.000000 0.9016 0.9017 0.9018 0.9019 0.9020
3467.000000 0.9021 0.9022 0.9022 0.9022 0.9024
3462.000000 0.9025 0.9025 0.9027 0.9028 0.9030
3457.000000 0.9032 0.9033 0.9036 0.9039 0.9041
3452.000000 0.9043 0.9045 0.9047 0.9049 0.9051
3447.000000 0.9053 0.9056 0.9058 0.9060 0.9063
3442.000000 0.9066 0.9068 0.9071 0.9074 0.9077
3437.000000 0.9079 0.9082 0.9085 0.9089 0.9091
3432.000000 0.9094 0.9097 0.9100 0.9102 0.9106
3427.000000 0.9108 0.9111 0.9101 0.9115 0.9120
3422.000000 0.9124 0.9128 0.9133 0.9137 0.9141
3417.000000 0.9144 0.9148 0.9150 0.9153 0.9156
3412.000000 0.9159 0.9161 0.9163 0.9165 0.9168
3407.000000 0.9178 0.9180 0.9175 0.9175 0.9176
3402.000000 0.9176 0.9176 0.9176 0.9176 0.9176
3397.000000 0.9176 0.9176 0.9176 0.9176 0.9176
3392.000000 0.9176 0.9175 0.9175 0.9174 0.9174
3387.000000 0.9173 0.9172 0.9171 0.9170 0.9169
3382.000000 0.9168 0.9166 0.9165 0.9163 0.9162
3377.000000 0.9161 0.9160 0.9159 0.9158 0.9157
3372.000000 0.9156 0.9154 0.9166 0.9153 0.9151
3367.000000 0.9150 0.9149 0.9148 0.9147 0.9145
3362.000000 0.9144 0.9142 0.9141 0.9140 0.9139
3357.000000 0.9138 0.9136 0.9136 0.9135 0.9133
3352.000000 0.9133 0.9132 0.9131 0.9129 0.9129
3347.000000 0.9127 0.9125 0.9137 0.9139 0.9124
3342.000000 0.9134 0.9121 0.9120 0.9119 0.9134
3337.000000 0.9133 0.9131 0.9117 0.9117 0.9116
3332.000000 0.9116 0.9115 0.9115 0.9114 0.9114
3327.000000 0.9113 0.9113 0.9111 0.9111 0.9111
3322.000000 0.9111 0.9111 0.9111 0.9110 0.9110
3317.000000 0.9110 0.9110 0.9110 0.9110 0.9110
3312.000000 0.9125 0.9125 0.9125 0.9124 0.9121
3307.000000 0.9111 0.9123 0.9122 0.9117 0.9106
3302.000000 0.9106 0.9105 0.9105 0.9104 0.9104
3297.000000 0.9103 0.9103 0.9102 0.9102 0.9101
3292.000000 0.9101 0.9097 0.9095 0.9091 0.9088
3287.000000 0.9085 0.9082 0.9078 0.9076 0.9086
3282.000000 0.9081 0.9065 0.9064 0.9072 0.9065
3277.000000 0.9051 0.9053 0.9058 0.9055 0.9052
3272.000000 0.9049 0.9045 0.9041 0.9039 0.9037
3267.000000 0.9036 0.9034 0.9033 0.9032 0.9030
3262.000000 0.9029 0.9027 0.9026 0.9023 0.9022
3257.000000 0.9020 0.9006 0.9018 0.9017 0.9015
3252.000000 0.9014 0.9012 0.9010 0.9008 0.9006
3247.000000 0.9003 0.9002 0.8993 0.8991 0.8996
3242.000000 0.8994 0.8992 0.8991 0.8989 0.8987
3237.000000 0.8984 0.8983 0.8981 0.8979 0.8977
3232.000000 0.8975 0.8973 0.8971 0.8968 0.8965
3227.000000 0.8961 0.8947 0.8947 0.8956 0.8953
3222.000000 0.8951 0.8949 0.8946 0.8943 0.8941
3217.000000 0.8938 0.8936 0.8934 0.8932 0.8929
3212.000000 0.8927 0.8924 0.8922 0.8920 0.8906
3207.000000 0.8902 0.8899 0.8897 0.8895 0.8893
3202.000000 0.8891 0.8888 0.8888 0.8895 0.8885
3197.000000 0.8890 0.8883 0.8892 0.8892 0.8891
3192.000000 0.8891 0.8889 0.8881 0.8880 0.8886
3187.000000 0.8886 0.8877 0.8871 0.8871 0.8869
3182.000000 0.8869 0.8868 0.8868 0.8867 0.8867
3177.000000 0.8865 0.8865 0.8865 0.8864 0.8863
3172.000000 0.8863 0.8861 0.8861 0.8861 0.8861
3167.000000 0.8860 0.8860 0.8859 0.8866 0.8872
3162.000000 0.8865 0.8865 0.8871 0.8868 0.8856
3157.000000 0.8859 0.8849 0.8842 0.8852 0.8851
3152.000000 0.8848 0.8845 0.8842 0.8837 0.8819
3147.000000 0.8816 0.8812 0.8809 0.8804 0.8800
3142.000000 0.8796 0.8796 0.8802 0.8797 0.8791
3137.000000 0.8781 0.8773 0.8764 0.8756 0.8746
3132.000000 0.8738 0.8728 0.8720 0.8710 0.8701
3127.000000 0.8692 0.8682 0.8668 0.8658 0.8639
3122.000000 0.8620 0.8603 0.8586 0.8535 0.8485
3117.000000 0.8404 0.8326 0.8262 0.8197 0.8159
3112.000000 0.8120 0.8085 0.8049 0.7966 0.7882
3107.000000 0.7792 0.7700 0.7622 0.7545 0.7532
3102.000000 0.7520 0.7512 0.7513 0.7510 0.7505
3097.000000 0.7508 0.7512 0.7502 0.7478 0.7429
3092.000000 0.7378 0.7318 0.7267 0.7206 0.7148
3087.000000 0.7101 0.7058 0.6996 0.6939 0.6891
3082.000000 0.6842 0.6822 0.6802 0.6790 0.6789
3077.000000 0.6790 0.6784 0.6769 0.6763 0.6751
3072.000000 0.6729 0.6714 0.6701 0.6672 0.6664
3067.000000 0.6628 0.6603 0.6579 0.6553 0.6529
3062.000000 0.6514 0.6498 0.6486 0.6410 0.6328
3057.000000 0.6187 0.6045 0.5913 0.5776 0.5635
3052.000000 0.5499 0.5422 0.5374 0.5345 0.5345
3047.000000 0.5487 0.5637 0.5816 0.6001 0.6189
3042.000000 0.6377 0.6513 0.6651 0.6720 0.6790
3037.000000 0.6873 0.6948 0.7035 0.7129 0.7248
3032.000000 0.7373 0.7467 0.7555 0.7624 0.7699
3027.000000 0.7749 0.7799 0.7840 0.7880 0.7919
3022.000000 0.7959 0.7998 0.8038 0.8082 0.8119
3017.000000 0.8149 0.8166 0.8194 0.8223 0.8246
3012.000000 0.8268 0.8282 0.8296 0.8310 0.8321
3007.000000 0.8325 0.8342 0.8366 0.8379 0.8389
3002.000000 0.8395 0.8404 0.8419 0.8428 0.8431
2997.000000 0.8439 0.8449 0.8457 0.8467 0.8485
2992.000000 0.8498 0.8507 0.8516 0.8525 0.8534
2987.000000 0.8542 0.8552 0.8558 0.8564 0.8570
2982.000000 0.8576 0.8583 0.8593 0.8607 0.8610
2977.000000 0.8610 0.8624 0.8626 0.8629 0.8631
2972.000000 0.8635 0.8637 0.8640 0.8651 0.8659
2967.000000 0.8663 0.8666 0.8672 0.8687 0.8680
2962.000000 0.8684 0.8688 0.8693 0.8711 0.8714
2957.000000 0.8702 0.8703 0.8704 0.8708 0.8713
2952.000000 0.8708 0.8698 0.8690 0.8691 0.8693
2947.000000 0.8687 0.8682 0.8683 0.8692 0.8693
2942.000000 0.8700 0.8699 0.8709 0.8717 0.8721
2937.000000 0.8724 0.8728 0.8720 0.8722 0.8726
2932.000000 0.8729 0.8732 0.8735 0.8736 0.8738
2927.000000 0.8739 0.8740 0.8741 0.8743 0.8744
2922.000000 0.8739 0.8732 0.8733 0.8734 0.8735
2917.000000 0.8736 0.8737 0.8737 0.8737 0.8737
2912.000000 0.8737 0.8736 0.8736 0.8736 0.8748
2907.000000 0.8749 0.8735 0.8734 0.8734 0.8733
2902.000000 0.8733 0.8727 0.8723 0.8719 0.8715
2897.000000 0.8710 0.8706 0.8704 0.8702 0.8700
2892.000000 0.8699 0.8697 0.8695 0.8690 0.8686
2887.000000 0.8679 0.8672 0.8665 0.8659 0.8651
2882.000000 0.8644 0.8637 0.8630 0.8626 0.8622
2877.000000 0.8608 0.8622 0.8625 0.8629 0.8632
2872.000000 0.8635 0.8639 0.8643 0.8646 0.8650
2867.000000 0.8653 0.8657 0.8661 0.8665 0.8668
2862.000000 0.8672 0.8675 0.8679 0.8683 0.8686
2857.000000 0.8689 0.8693 0.8696 0.8688 0.8690
2852.000000 0.8693 0.8696 0.8700 0.8703 0.8707
2847.000000 0.8713 0.8729 0.8732 0.8731 0.8725
2842.000000 0.8735 0.8735 0.8729 0.8726 0.8734
2837.000000 0.8734 0.8726 0.8720 0.8720 0.8720
2832.000000 0.8720 0.8720 0.8720 0.8731 0.8722
2827.000000 0.8732 0.8734 0.8719 0.8719 0.8732
2822.000000 0.8719 0.8733 0.8733 0.8730 0.8719
2817.000000 0.8717 0.8716 0.8715 0.8714 0.8712
2812.000000 0.8711 0.8709 0.8708 0.8706 0.8713
2807.000000 0.8717 0.8716 0.8713 0.8712 0.8710
2802.000000 0.8709 0.8706 0.8706 0.8703 0.8703
2797.000000 0.8701 0.8700 0.8699 0.8699 0.8699
2792.000000 0.8696 0.8686 0.8694 0.8683 0.8683
2787.000000 0.8683 0.8683 0.8688 0.8696 0.8689
2782.000000 0.8682 0.8689 0.8695 0.8695 0.8695
2777.000000 0.8695 0.8695 0.8694 0.8694 0.8694
2772.000000 0.8694 0.8693 0.8693 0.8693 0.8693
2767.000000 0.8693 0.8693 0.8692 0.8692 0.8692
2762.000000 0.8692 0.8692 0.8692 0.8692 0.8692
2757.000000 0.8692 0.8692 0.8691 0.8691 0.8691
2752.000000 0.8691 0.8691 0.8691 0.8691 0.8691
2747.000000 0.8691 0.8691 0.8691 0.8691 0.8689
2742.000000 0.8689 0.8689 0.8689 0.8689 0.8689
2737.000000 0.8689 0.8689 0.8689 0.8689 0.8689
2732.000000 0.8689 0.8689 0.8689 0.8688 0.8688
2727.000000 0.8688 0.8688 0.8688 0.8688 0.8688
2722.000000 0.8688 0.8688 0.8688 0.8688 0.8688
2717.000000 0.8687 0.8687 0.8686 0.8686 0.8685
2712.000000 0.8685 0.8684 0.8684 0.8684 0.8684
2707.000000 0.8683 0.8683 0.8682 0.8682 0.8680
2702.000000 0.8680 0.8679 0.8679 0.8678 0.8678
2697.000000 0.8678 0.8678 0.8677 0.8677 0.8676
2692.000000 0.8676 0.8675 0.8675 0.8674 0.8674
2687.000000 0.8674 0.8674 0.8673 0.8673 0.8672
2682.000000 0.8672 0.8672 0.8672 0.8671 0.8671
2677.000000 0.8671 0.8671 0.8670 0.8670 0.8670
2672.000000 0.8670 0.8668 0.8668 0.8668 0.8668
2667.000000 0.8668 0.8668 0.8667 0.8667 0.8667
2662.000000 0.8667 0.8666 0.8666 0.8664 0.8665
2657.000000 0.8672 0.8665 0.8661 0.8657 0.8650
2652.000000 0.8642 0.8629 0.8612 0.8603 0.8602
2647.000000 0.8608 0.8608 0.8601 0.8599 0.8600
2642.000000 0.8612 0.8607 0.8606 0.8608 0.8610
2637.000000 0.8611 0.8613 0.8615 0.8631 0.8631
2632.000000 0.8630 0.8616 0.8618 0.8630 0.8630
2627.000000 0.8630 0.8630 0.8630 0.8630 0.8624
2622.000000 0.8617 0.8608 0.8598 0.8588 0.8577
2617.000000 0.8564 0.8553 0.8540 0.8529 0.8517
2612.000000 0.8505 0.8493 0.8481 0.8468 0.8454
2607.000000 0.8458 0.8463 0.8472 0.8481 0.8491
2602.000000 0.8500 0.8511 0.8521 0.8532 0.8543
2597.000000 0.8556 0.8570 0.8576 0.8583 0.8590
2592.000000 0.8596 0.8596 0.8596 0.8593 0.8591
2587.000000 0.8588 0.8585 0.8582 0.8580 0.8563
2582.000000 0.8545 0.8541 0.8537 0.8533 0.8528
2577.000000 0.8524 0.8523 0.8523 0.8526 0.8528
2572.000000 0.8531 0.8534 0.8537 0.8538 0.8542
2567.000000 0.8544 0.8545 0.8547 0.8548 0.8551
2562.000000 0.8552 0.8554 0.8556 0.8559 0.8560
2557.000000 0.8562 0.8563 0.8566 0.8568 0.8569
2552.000000 0.8571 0.8572 0.8574 0.8576 0.8579
2547.000000 0.8580 0.8582 0.8584 0.8586 0.8587
2542.000000 0.8589 0.8590 0.8593 0.8595 0.8597
2537.000000 0.8597 0.8601 0.8602 0.8605 0.8605
2532.000000 0.8608 0.8609 0.8611 0.8612 0.8615
2527.000000 0.8616 0.8618 0.8621 0.8624 0.8625
2522.000000 0.8627 0.8629 0.8631 0.8632 0.8634
2517.000000 0.8635 0.8636 0.8637 0.8638 0.8639
2512.000000 0.8640 0.8641 0.8642 0.8643 0.8644
2507.000000 0.8644 0.8645 0.8646 0.8648 0.8649
2502.000000 0.8650 0.8651 0.8652 0.8652 0.8653
2497.000000 0.8653 0.8653 0.8653 0.8653 0.8653
2492.000000 0.8654 0.8654 0.8654 0.8654 0.8654
2487.000000 0.8654 0.8655 0.8655 0.8655 0.8655
2482.000000 0.8655 0.8662 0.8667 0.8666 0.8666
2477.000000 0.8665 0.8665 0.8664 0.8664 0.8663
2472.000000 0.8663 0.8661 0.8660 0.8658 0.8657
2467.000000 0.8655 0.8652 0.8646 0.8641 0.8629
2462.000000 0.8620 0.8609 0.8599 0.8588 0.8570
2457.000000 0.8557 0.8543 0.8521 0.8508 0.8502
2452.000000 0.8493 0.8475 0.8448 0.8433 0.8414
2447.000000 0.8395 0.8376 0.8356 0.8337 0.8318
2442.000000 0.8300 0.8295 0.8291 0.8290 0.8289
2437.000000 0.8289 0.8290 0.8292 0.8295 0.8301
2432.000000 0.8310 0.8321 0.8331 0.8349 0.8367
2427.000000 0.8388 0.8408 0.8425 0.8442 0.8456
2422.000000 0.8470 0.8483 0.8496 0.8504 0.8511
2417.000000 0.8521 0.8530 0.8533 0.8535 0.8537
2412.000000 0.8537 0.8537 0.8536 0.8535 0.8538
2407.000000 0.8528 0.8532 0.8524 0.8515 0.8503
2402.000000 0.8490 0.8462 0.8433 0.8418 0.8403
2397.000000 0.8401 0.8399 0.8397 0.8395 0.8392
2392.000000 0.8390 0.8388 0.8387 0.8408 0.8417
2387.000000 0.8425 0.8433 0.8444 0.8464 0.8473
2382.000000 0.8486 0.8504 0.8513 0.8521 0.8534
2377.000000 0.8543 0.8556 0.8559 0.8570 0.8580
2372.000000 0.8583 0.8585 0.8588 0.8580 0.8578
2367.000000 0.8582 0.8585 0.8586 0.8589 0.8593
2362.000000 0.8596 0.8600 0.8617 0.8620 0.8637
2357.000000 0.8643 0.8660 0.8674 0.8678 0.8681
2352.000000 0.8701 0.8680 0.8673 0.8673 0.8681
2347.000000 0.8693 0.8698 0.8694 0.8680 0.8670
2342.000000 0.8666 0.8655 0.8645 0.8624 0.8624
2337.000000 0.8617 0.8595 0.8587 0.8595 0.8587
2332.000000 0.8580 0.8574 0.8578 0.8566 0.8555
2327.000000 0.8547 0.8546 0.8540 0.8539 0.8529
2322.000000 0.8521 0.8514 0.8509 0.8502 0.8494
2317.000000 0.8452 0.8411 0.8370 0.8329 0.8288
2312.000000 0.8212 0.8219 0.8194 0.8196 0.8198
2307.000000 0.8201 0.8207 0.8227 0.8246 0.8263
2302.000000 0.8283 0.8295 0.8305 0.8322 0.8344
2297.000000 0.8356 0.8369 0.8382 0.8396 0.8409
2292.000000 0.8422 0.8434 0.8448 0.8463 0.8467
2287.000000 0.8478 0.8492 0.8502 0.8513 0.8508
2282.000000 0.8516 0.8525 0.8534 0.8540 0.8536
2277.000000 0.8545 0.8551 0.8547 0.8556 0.8565
2272.000000 0.8569 0.8567 0.8576 0.8576 0.8576
2267.000000 0.8582 0.8589 0.8587 0.8589 0.8595
2262.000000 0.8601 0.8598 0.8601 0.8608 0.8603
2257.000000 0.8607 0.8614 0.8621 0.8613 0.8620
2252.000000 0.8628 0.8634 0.8629 0.8635 0.8642
2247.000000 0.8649 0.8656 0.8655 0.8649 0.8650
2242.000000 0.8653 0.8654 0.8656 0.8659 0.8661
2237.000000 0.8664 0.8663 0.8655 0.8651 0.8647
2232.000000 0.8645 0.8640 0.8638 0.8632 0.8625
2227.000000 0.8620 0.8614 0.8608 0.8602 0.8589
2222.000000 0.8575 0.8554 0.8546 0.8537 0.8529
2217.000000 0.8526 0.8527 0.8527 0.8532 0.8536
2212.000000 0.8542 0.8546 0.8551 0.8554 0.8560
2207.000000 0.8565 0.8571 0.8575 0.8581 0.8587
2202.000000 0.8592 0.8597 0.8604 0.8607 0.8613
2197.000000 0.8616 0.8619 0.8612 0.8628 0.8628
2192.000000 0.8620 0.8623 0.8628 0.8631 0.8635
2187.000000 0.8638 0.8641 0.8644 0.8656 0.8657
2182.000000 0.8656 0.8656 0.8655 0.8655 0.8665
2177.000000 0.8664 0.8662 0.8659 0.8656 0.8653
2172.000000 0.8650 0.8646 0.8643 0.8639 0.8624
2167.000000 0.8624 0.8624 0.8625 0.8626 0.8626
2162.000000 0.8627 0.8628 0.8629 0.8629 0.8630
2157.000000 0.8631 0.8632 0.8633 0.8634 0.8637
2152.000000 0.8639 0.8640 0.8642 0.8643 0.8645
2147.000000 0.8646 0.8648 0.8650 0.8652 0.8653
2142.000000 0.8655 0.8655 0.8659 0.8659 0.8662
2137.000000 0.8663 0.8666 0.8666 0.8669 0.8669
2132.000000 0.8669 0.8669 0.8669 0.8669 0.8669
2127.000000 0.8669 0.8669 0.8669 0.8669 0.8669
2122.000000 0.8657 0.8667 0.8669 0.8669 0.8669
2117.000000 0.8668 0.8668 0.8668 0.8669 0.8669
2112.000000 0.8669 0.8669 0.8669 0.8669 0.8670
2107.000000 0.8670 0.8670 0.8670 0.8670 0.8670
2102.000000 0.8670 0.8670 0.8670 0.8670 0.8658
2097.000000 0.8654 0.8665 0.8665 0.8653 0.8663
2092.000000 0.8664 0.8662 0.8662 0.8661 0.8661
2087.000000 0.8661 0.8661 0.8661 0.8661 0.8661
2082.000000 0.8661 0.8661 0.8661 0.8660 0.8660
2077.000000 0.8658 0.8658 0.8649 0.8642 0.8626
2072.000000 0.8609 0.8591 0.8575 0.8563 0.8550
2067.000000 0.8550 0.8550 0.8552 0.8553 0.8555
2062.000000 0.8556 0.8557 0.8560 0.8563 0.8565
2057.000000 0.8568 0.8578 0.8578 0.8578 0.8578
2052.000000 0.8573 0.8569 0.8575 0.8563 0.8552
2047.000000 0.8549 0.8546 0.8538 0.8531 0.8513
2042.000000 0.8495 0.8452 0.8411 0.8380 0.8349
2037.000000 0.8328 0.8308 0.8285 0.8264 0.8243
2032.000000 0.8224 0.8206 0.8188 0.8173 0.8162
2027.000000 0.8158 0.8141 0.8143 0.8130 0.8160
2022.000000 0.8174 0.8193 0.8212 0.8230 0.8247
2017.000000 0.8266 0.8285 0.8300 0.8317 0.8331
2012.000000 0.8344 0.8359 0.8372 0.8384 0.8395
2007.000000 0.8410 0.8425 0.8436 0.8448 0.8452
2002.000000 0.8456 0.8417 0.8378 0.8201 0.8345
1997.000000 0.8432 0.8496 0.8517 0.8537 0.8532
1992.000000 0.8464 0.8396 0.8376 0.8366 0.8363
1987.000000 0.8362 0.8349 0.8348 0.8349 0.8350
1982.000000 0.8352 0.8353 0.8349 0.8345 0.8339
1977.000000 0.8319 0.8307 0.8297 0.8276 0.8246
1972.000000 0.8213 0.8157 0.8104 0.8073 0.8041
1967.000000 0.8008 0.8012 0.8009 0.8004 0.8013
1962.000000 0.8017 0.8008 0.7969 0.7897 0.7871
1957.000000 0.7858 0.7861 0.7867 0.7880 0.7907
1952.000000 0.7929 0.7950 0.7967 0.7967 0.7976
1947.000000 0.7983 0.7982 0.7982 0.7969 0.7927
1942.000000 0.7836 0.7662 0.7489 0.7316 0.7167
1937.000000 0.7106 0.7133 0.7131 0.7143 0.7201
1932.000000 0.7302 0.7465 0.7557 0.7643 0.7713
1927.000000 0.7783 0.7860 0.7930 0.7987 0.8038
1922.000000 0.8084 0.8125 0.8139 0.8154 0.8166
1917.000000 0.8174 0.8181 0.8189 0.8198 0.8207
1912.000000 0.8222 0.8234 0.8247 0.8261 0.8271
1907.000000 0.8289 0.8299 0.8306 0.8311 0.8317
1902.000000 0.8324 0.8328 0.8331 0.8333 0.8336
1897.000000 0.8339 0.8339 0.8339 0.8339 0.8338
1892.000000 0.8338 0.8333 0.8317 0.8314 0.8313
1887.000000 0.8313 0.8310 0.8304 0.8304 0.8302
1882.000000 0.8239 0.8160 0.8070 0.8011 0.7977
1877.000000 0.7945 0.7924 0.7921 0.7910 0.7911
1872.000000 0.7933 0.7956 0.7979 0.7989 0.8001
1867.000000 0.8014 0.8021 0.8027 0.8028 0.8030
1862.000000 0.8035 0.8006 0.7879 0.7752 0.7623
1857.000000 0.7504 0.7373 0.7241 0.7187 0.7153
1852.000000 0.7198 0.7285 0.7366 0.7444 0.7522
1847.000000 0.7588 0.7652 0.7725 0.7805 0.7879
1842.000000 0.7943 0.7996 0.8038 0.8052 0.8063
1837.000000 0.8075 0.8084 0.8091 0.8103 0.8118
1832.000000 0.8138 0.8158 0.8178 0.8193 0.8208
1827.000000 0.8224 0.8238 0.8253 0.8264 0.8272
1822.000000 0.8280 0.8288 0.8295 0.8311 0.8315
1817.000000 0.8319 0.8319 0.8319 0.8318 0.8318
1812.000000 0.8316 0.8315 0.8314 0.8308 0.8297
1807.000000 0.8294 0.8302 0.8272 0.8252 0.8232
1802.000000 0.8221 0.8222 0.8223 0.8225 0.8225
1797.000000 0.8227 0.8228 0.8228 0.8228 0.8225
1792.000000 0.8222 0.8217 0.8209 0.8198 0.8186
1787.000000 0.8165 0.8138 0.8090 0.8041 0.7981
1782.000000 0.7918 0.7857 0.7795 0.7742 0.7705
1777.000000 0.7660 0.7670 0.7664 0.7664 0.7684
1772.000000 0.7703 0.7724 0.7763 0.7803 0.7856
1767.000000 0.7905 0.7955 0.8002 0.8032 0.8061
1762.000000 0.8090 0.8117 0.8145 0.8173 0.8205
1757.000000 0.8214 0.8223 0.8229 0.8235 0.8241
1752.000000 0.8245 0.8248 0.8250 0.8249 0.8249
1747.000000 0.8248 0.8238 0.8224 0.8212 0.8194
1742.000000 0.8176 0.8156 0.8136 0.8126 0.8115
1737.000000 0.8116 0.8118 0.8119 0.8123 0.8131
1732.000000 0.8139 0.8142 0.8146 0.8147 0.8151
1727.000000 0.8151 0.8151 0.8153 0.8152 0.8139
1722.000000 0.8093 0.8034 0.7971 0.7823 0.7698
1717.000000 0.7629 0.7551 0.7477 0.7431 0.7348
1712.000000 0.7401 0.7402 0.7403 0.7452 0.7528
1707.000000 0.7594 0.7661 0.7720 0.7777 0.7830
1702.000000 0.7879 0.7915 0.7949 0.7981 0.8004
1697.000000 0.8023 0.8030 0.8038 0.8044 0.8067
1692.000000 0.8090 0.8112 0.8137 0.8161 0.8186
1687.000000 0.8207 0.8225 0.8244 0.8263 0.8272
1682.000000 0.8277 0.8280 0.8282 0.8276 0.8269
1677.000000 0.8265 0.8259 0.8262 0.8266 0.8292
1672.000000 0.8323 0.8342 0.8364 0.8384 0.8400
1667.000000 0.8414 0.8429 0.8437 0.8445 0.8453
1662.000000 0.8460 0.8468 0.8488 0.8485 0.8492
1657.000000 0.8513 0.8521 0.8531 0.8540 0.8547
1652.000000 0.8546 0.8562 0.8563 0.8563 0.8559
1647.000000 0.8548 0.8554 0.8556 0.8550 0.8538
1642.000000 0.8536 0.8522 0.8500 0.8479 0.8455
1637.000000 0.8426 0.8383 0.8333 0.8262 0.8193
1632.000000 0.8127 0.8069 0.7945 0.7805 0.7650
1627.000000 0.7508 0.7406 0.7379 0.7388 0.7407
1622.000000 0.7437 0.7453 0.7464 0.7484 0.7500
1617.000000 0.7512 0.7422 0.7308 0.7123 0.6925
1612.000000 0.6522 0.6252 0.5517 0.5225 0.4737
1607.000000 0.4239 0.3750 0.3244 0.2752 0.2241
1602.000000 0.1731 0.1205 0.0679 0.0204 0.0167
1597.000000 0.0120 0.0153 0.0153 0.0209 0.0609
1592.000000 0.1211 0.1877 0.2551 0.3242 0.3989
1587.000000 0.4200 0.4436 0.4672 0.4881 0.5127
1582.000000 0.5349 0.5546 0.5678 0.5813 0.5926
1577.000000 0.6045 0.6148 0.6267 0.6408 0.6570
1572.000000 0.6667 0.6756 0.6807 0.6849 0.6886
1567.000000 0.6945 0.7006 0.7066 0.7135 0.7180
1562.000000 0.7206 0.7247 0.7310 0.7361 0.7397
1557.000000 0.7386 0.7372 0.7402 0.7423 0.7432
1552.000000 0.7453 0.7477 0.7480 0.7431 0.7422
1547.000000 0.7408 0.7388 0.7348 0.7347 0.7341
1542.000000 0.7352 0.7366 0.7374 0.7374 0.7383
1537.000000 0.7384 0.7392 0.7371 0.7285 0.7179
1532.000000 0.7083 0.6946 0.6529 0.6207 0.6109
1527.000000 0.6051 0.6167 0.6281 0.6404 0.6517
1522.000000 0.6638 0.6702 0.6691 0.6659 0.6650
1517.000000 0.6463 0.6230 0.5992 0.5762 0.5531
1512.000000 0.5307 0.5078 0.4857 0.4706 0.4562
1507.000000 0.4333 0.4177 0.3823 0.3226 0.2635
1502.000000 0.2049 0.1473 0.0905 0.0342 0.0128
1497.000000 0.0124 0.0135 0.0129 0.0150 0.0196
1492.000000 0.0353 0.0531 0.0643 0.0965 0.1381
1487.000000 0.1795 0.2209 0.2623 0.3037 0.3455
1482.000000 0.4291 0.4301 0.4305 0.4084 0.3742
1477.000000 0.3402 0.3169 0.3179 0.3231 0.3548
1472.000000 0.3911 0.4271 0.4629 0.4989 0.5346
1467.000000 0.5711 0.6066 0.6430 0.6785 0.7003
1462.000000 0.6979 0.6902 0.4873 0.4904 0.4976
1457.000000 0.5377 0.5778 0.6175 0.6569 0.6978
1452.000000 0.7161 0.7353 0.7653 0.7748 0.7824
1447.000000 0.7862 0.7892 0.7924 0.7952 0.7975
1442.000000 0.7988 0.7993 0.7985 0.7991 0.8002
1437.000000 0.8014 0.8049 0.8095 0.8137 0.8177
1432.000000 0.8222 0.8272 0.8301 0.8327 0.8349
1427.000000 0.8367 0.8391 0.8403 0.8406 0.8410
1422.000000 0.8419 0.8428 0.8439 0.8448 0.8458
1417.000000 0.8468 0.8466 0.8473 0.8483 0.8490
1412.000000 0.8497 0.8505 0.8510 0.8513 0.8519
1407.000000 0.8519 0.8520 0.8520 0.8520 0.8509
1402.000000 0.8518 0.8496 0.8461 0.8389 0.8294
1397.000000 0.8198 0.8095 0.7993 0.7890 0.7801
1392.000000 0.7801 0.7798 0.7884 0.8006 0.8118
1387.000000 0.8252 0.8391 0.8530 0.8592 0.8584
1382.000000 0.8570 0.8550 0.8541 0.8535 0.8534
1377.000000 0.8535 0.8527 0.8514 0.8502 0.8488
1372.000000 0.8489 0.8489 0.8494 0.8500 0.8506
1367.000000 0.8512 0.8517 0.8523 0.8527 0.8528
1362.000000 0.8528 0.8535 0.8539 0.8538 0.8531
1357.000000 0.8525 0.8504 0.8487 0.8473 0.8456
1352.000000 0.8441 0.8428 0.8418 0.8407 0.8400
1347.000000 0.8392 0.8380 0.8372 0.8365 0.8358
1342.000000 0.8344 0.8339 0.8328 0.8315 0.8295
1337.000000 0.8191 0.8089 0.7984 0.7882 0.7779
1332.000000 0.7676 0.7572 0.7469 0.7354 0.7280
1327.000000 0.7254 0.7260 0.7250 0.7328 0.7441
1322.000000 0.7547 0.7662 0.7779 0.7895 0.7945
1317.000000 0.7978 0.8011 0.8035 0.8047 0.8058
1312.000000 0.8064 0.8064 0.8053 0.8047 0.8037
1307.000000 0.8022 0.8005 0.7979 0.7899 0.7797
1302.000000 0.7694 0.7594 0.7433 0.7433 0.7431
1297.000000 0.7445 0.7501 0.7582 0.7633 0.7672
1292.000000 0.7679 0.7685 0.7681 0.7685 0.7688
1287.000000 0.7691 0.7696 0.7699 0.7703 0.7707
1282.000000 0.7711 0.7715 0.7718 0.7724 0.7729
1277.000000 0.7728 0.7743 0.7743 0.7732 0.7732
1272.000000 0.7718 0.7698 0.7678 0.7657 0.7634
1267.000000 0.7616 0.7599 0.7570 0.7542 0.7492
1262.000000 0.7435 0.7343 0.7255 0.7172 0.7065
1257.000000 0.6947 0.6692 0.6428 0.6162 0.5913
1252.000000 0.5829 0.5810 0.5806 0.5802 0.5801
1247.000000 0.5800 0.5799 0.5790 0.5771 0.5670
1242.000000 0.5501 0.5093 0.4355 0.3619 0.2884
1237.000000 0.2144 0.1406 0.0667 0.0383 0.0376
1232.000000 0.0371 0.0368 0.0404 0.0420 0.0415
1227.000000 0.0395 0.0303 0.0229 0.0166 0.0114
1222.000000 0.0092 0.0079 0.0084 0.0098 0.0126
1217.000000 0.0194 0.0376 0.0577 0.0719 0.0817
1212.000000 0.0907 0.0997 0.1086 0.2326 0.3533
1207.000000 0.4739 0.5262 0.5677 0.5857 0.5952
1202.000000 0.6040 0.6125 0.6205 0.6285 0.6358
1197.000000 0.6441 0.6525 0.6733 0.6981 0.7082
1192.000000 0.7181 0.7277 0.7356 0.7370 0.7379
1187.000000 0.7377 0.7373 0.7350 0.7311 0.7276
1182.000000 0.7249 0.7247 0.7269 0.7334 0.7396
1177.000000 0.7458 0.7525 0.7598 0.7638 0.7651
1172.000000 0.7665 0.7661 0.7643 0.7608 0.7548
1167.000000 0.7485 0.7405 0.7325 0.7248 0.7176
1162.000000 0.7103 0.6934 0.6344 0.6126 0.4765
1157.000000 0.2876 0.0944 0.0934 0.0929 0.1488
1152.000000 0.2397 0.3304 0.4215 0.5127 0.6219
1147.000000 0.6447 0.6563 0.6683 0.6839 0.6984
1142.000000 0.7111 0.7210 0.7302 0.7399 0.7520
1137.000000 0.7538 0.7547 0.7567 0.7575 0.7586
1132.000000 0.7621 0.7669 0.7724 0.7778 0.7828
1127.000000 0.7889 0.7948 0.8008 0.8070 0.8133
1122.000000 0.8205 0.8274 0.8338 0.8413 0.8425
1117.000000 0.8433 0.8450 0.8458 0.8456 0.8454
1112.000000 0.8451 0.8450 0.8444 0.8432 0.8409
1107.000000 0.8397 0.8343 0.8299 0.8259 0.8213
1102.000000 0.8185 0.8175 0.8193 0.8210 0.8224
1097.000000 0.8236 0.8248 0.8258 0.8267 0.8273
1092.000000 0.8280 0.8288 0.8292 0.8293 0.8293
1087.000000 0.8289 0.8283 0.8273 0.8250 0.8227
1082.000000 0.8198 0.8143 0.8097 0.8050 0.7994
1077.000000 0.7943 0.7889 0.7836 0.7770 0.7708
1072.000000 0.7631 0.7496 0.7371 0.7250 0.7001
1067.000000 0.6818 0.3163 0.3166 0.3322 0.3916
1062.000000 0.4517 0.5113 0.5708 0.6292 0.6951
1057.000000 0.7184 0.7288 0.7394 0.7499 0.7603
1052.000000 0.7687 0.7757 0.7824 0.7864 0.7903
1047.000000 0.7929 0.7946 0.7962 0.7975 0.7986
1042.000000 0.8000 0.8012 0.8025 0.8034 0.8038
1037.000000 0.8042 0.8046 0.8048 0.8048 0.8045
1032.000000 0.8040 0.8028 0.8003 0.7971 0.7933
1027.000000 0.7872 0.7807 0.7702 0.7203 0.5822
1022.000000 0.4691 0.4678 0.5004 0.5388 0.5771
1017.000000 0.6156 0.6540 0.6923 0.7268 0.7439
1012.000000 0.7511 0.7550 0.7575 0.7599 0.7606
1007.000000 0.7622 0.7639 0.7656 0.7658 0.7665
1002.000000 0.7674 0.7671 0.7665 0.7645 0.7593
997.000000 0.7453 0.7333 0.7211 0.7010 0.7010
992.000000 0.7015 0.7074 0.7391 0.7478 0.7551
987.000000 0.7622 0.7656 0.7685 0.7703 0.7706
982.000000 0.7708 0.7709 0.7709 0.7709 0.7688
977.000000 0.7658 0.7618 0.7604 0.7610 0.7627
972.000000 0.7650 0.7697 0.7734 0.7771 0.7789
967.000000 0.7808 0.7827 0.7844 0.7852 0.7856
962.000000 0.7858 0.7861 0.7863 0.7865 0.7865
957.000000 0.7865 0.7865 0.7867 0.7875 0.7886
952.000000 0.7895 0.7904 0.7912 0.7919 0.7926
947.000000 0.7931 0.7939 0.7947 0.7951 0.7954
942.000000 0.7957 0.7960 0.7962 0.7965 0.7969
937.000000 0.7969 0.7971 0.7972 0.7973 0.7974
932.000000 0.7976 0.7978 0.7979 0.7982 0.7983
927.000000 0.7986 0.7986 0.7986 0.7986 0.7984
922.000000 0.7982 0.7981 0.7979 0.7980 0.7987
917.000000 0.7978 0.7988 0.7976 0.7960 0.7908
912.000000 0.7839 0.7809 0.7793 0.7783 0.7779
907.000000 0.7774 0.7752 0.7735 0.7713 0.7690
902.000000 0.7645 0.7573 0.6881 0.6579 0.5806
897.000000 0.5031 0.4254 0.3474 0.2696 0.1911
892.000000 0.1910 0.1904 0.2621 0.4681 0.5587
887.000000 0.5828 0.6075 0.6321 0.6576 0.6828
882.000000 0.7076 0.7332 0.7488 0.7529 0.7556
877.000000 0.7529 0.7399 0.7410 0.7453 0.7533
872.000000 0.7602 0.7672 0.7724 0.7767 0.7796
867.000000 0.7837 0.7861 0.7887 0.7922 0.7953
862.000000 0.7972 0.7978 0.7997 0.8016 0.8035
857.000000 0.8051 0.8061 0.8064 0.8069 0.8108
852.000000 0.8139 0.8146 0.8144 0.8124 0.8114
847.000000 0.8095 0.8054 0.8016 0.7960 0.7911
842.000000 0.7862 0.7802 0.7759 0.7704 0.7640
837.000000 0.7580 0.7315 0.7044 0.6781 0.6514
832.000000 0.6256 0.5999 0.5976 0.5931 0.6052
827.000000 0.6159 0.6266 0.6374 0.6486 0.6603
822.000000 0.6628 0.6633 0.6646 0.6353 0.6281
817.000000 0.6217 0.5682 0.4895 0.4107 0.3318
812.000000 0.2535 0.1748 0.0958 0.0314 0.0289
807.000000 0.0289 0.0298 0.0318 0.0992 0.1984
802.000000 0.2978 0.3970 0.4962 0.5955 0.6401
797.000000 0.6582 0.6737 0.6898 0.7010 0.7102
792.000000 0.7189 0.7271 0.7280 0.7292 0.7300
787.000000 0.7301 0.7301 0.7299 0.7297 0.7280
782.000000 0.7245 0.7184 0.7077 0.6986 0.6940
777.000000 0.6915 0.6903 0.6893 0.6883 0.6842
772.000000 0.6599 0.6479 0.6380 0.6038 0.5522
767.000000 0.5033 0.4544 0.4049 0.3560 0.3072
762.000000 0.2585 0.2097 0.1609 0.1121 0.0633
757.000000 0.0161 0.0080 0.0050 0.0038 0.0037
752.000000 0.0036 0.0060 0.0190 0.0303 0.1137
747.000000 0.1960 0.2784 0.3607 0.4431 0.5253
742.000000 0.5828 0.6348 0.6483 0.6616 0.6706
737.000000 0.6788 0.6869 0.6977 0.7249 0.7388
732.000000 0.7474 0.7551 0.7633 0.7694 0.7734
727.000000 0.7770 0.7800 0.7835 0.7862 0.7891
722.000000 0.7915 0.7937 0.7954 0.7963 0.7969
717.000000 0.7986 0.7988 0.7988 0.8002 0.8010
712.000000 0.8010 0.8008 0.8008 0.8006 0.7997
707.000000 0.7987 0.7977 0.7966 0.7949 0.7929
702.000000 0.7876 0.7822 0.7743 0.7586 0.7431
697.000000 0.7289 0.7161 0.7009 0.6793 0.6563
692.000000 0.6435 0.6327 0.6164 0.5882 0.3642
687.000000 0.2336 0.1026 0.0130 0.0130 0.0130
682.000000 0.1684 0.3400 0.5123 0.5796 0.5944
677.000000 0.6702 0.6909 0.7054 0.7182 0.7259
672.000000 0.7326 0.7403 0.7522 0.7713 0.7876
667.000000 0.7877 0.7878 0.7934 0.7980 0.8007
662.000000 0.8033 0.8060 0.8087 0.8114 0.8116
657.000000 0.8123 0.8113 0.8081 0.8038 0.7986
652.000000 0.7950 0.7941 0.7927 0.7914 0.7856
647.000000 0.8011 0.8062 0.8121 0.8172 0.8196
642.000000 0.8230 0.8259 0.8284 0.8296 0.8300
637.000000 0.8304 0.8322 0.8340 0.8338 0.8345
632.000000 0.8352 0.8354 0.8364 0.8372 0.8371
627.000000 0.8378 0.8374 0.8382 0.8390 0.8384
622.000000 0.8390 0.8394 0.8395 0.8393 0.8395
617.000000 0.8372 0.8335 0.8325 0.8314 0.8301
612.000000 0.8301 0.8305 0.8309 0.8323 0.8335
607.000000 0.8338 0.8340 0.8347 0.8354 0.8361
602.000000 0.8369 0.8375 0.8379 0.8382 0.8385
597.000000 0.8389 0.8393 0.8396 0.8400 0.8403
592.000000 0.8406 0.8408 0.8410 0.8412 0.8414
587.000000 0.8410 0.8410 0.8414 0.8408 0.8409
582.000000 0.8411 0.8412 0.8414 0.8414 0.8415
577.000000 0.8406 0.8403 0.8405 0.8418 0.8420
572.000000 0.8419 0.8416 0.8413 0.8407 0.8404
567.000000 0.8388 0.8386 0.8395 0.8387 0.8373
562.000000 0.8370 0.8363 0.8355 0.8347 0.8338
557.000000 0.8331 0.8323 0.8309 0.8296 0.8288
552.000000 0.8269 0.8259 0.8248 0.8233 0.8217
547.000000 0.8202 0.8188 0.8164 0.8142 0.8120
542.000000 0.8097 0.8073 0.8050 0.8023 0.8000
537.000000 0.7976 0.7966 0.7942 0.7907 0.7889
532.000000 0.7856 0.7821 0.7788 0.7735 0.7636
527.000000 0.7521 0.7184 0.6980 0.6632 0.5492
522.000000 0.4353 0.3263 0.3274 0.3598 0.4075
517.000000 0.4552 0.5028 0.5506 0.5981 0.6432
512.000000 0.6460 0.6473 0.6485 0.6503 0.6499
507.000000 0.6501 0.6501 0.6441 0.4966 0.3493
502.000000 0.2019 0.1181 0.1186 0.1397 0.2117
497.000000 0.2836 0.3554 0.4274 0.4993 0.5711
492.000000 0.6044 0.6152 0.6300 0.6475 0.6579
487.000000 0.6682 0.6782 0.6877 0.6940 0.6985
482.000000 0.7029 0.7057 0.7086 0.7114 0.7141
477.000000 0.7159 0.7177 0.7195 0.7212 0.7231
472.000000 0.7248 0.7267 0.7284 0.7296 0.7310
467.000000 0.7324 0.7338 0.7352 0.7365 0.7377
462.000000 0.7382 0.7386 0.7391 0.7396 0.7401
457.000000 0.7404 0.7407 0.7408 0.7411 0.7412
452.000000 0.7415 0.7418 0.7404 0.7422 0.7425
##END=
