##TITLE=CINEOLE
##JCAMP-DX=4.24
##DATA TYPE=INFRARED SPECTRUM
##CLASS=COBLENTZ III
##ORIGIN=DOW CHEMICAL COMPANY
##OWNER=COBLENTZ SOC.
Collection (C) 2018 copyright by the U.S. Secretary of Commerce
on behalf of the United States of America. All rights reserved.
##DATE=1963/05/03
##NAMES=1,3,3-trimethyl-2-oxabicyclo[2.2.2]octane
1,3,3-TRIMETHYL-2-OXABICYCLO[2.2.2.]OCTANE
##CAS REGISTRY NO=470-82-6
##MOLFORM=C10 H18 O
##SOURCE REFERENCE=COBLENTZ NO. 06761
##$NIST SOURCE=COBLENTZ
##$NIST IMAGE=cob6761
##SPECTROMETER/DATA SYSTEM=DOW KBr FOREPRISM-GRATING
##INSTRUMENT PARAMETERS=BLAZED AT 3.5, 12.0, 20.0 MICRON AND CHANGED AT 5.0, 7.5, 14.9 MICRON
##STATE=SOLUTION (10% CCl4 FOR 3800-1330, 10% CS2 FOR 1330-400 CM^-^1)
##PATH LENGTH=0.011 CM, 0.011 CM
$$SPECTRAL CONTAMINATION DUE TO CS2 AROUND 860 AND CCl4 AROUND 1555 CM^-^1
$$ SPECTRAL FEATURE AT 2000 CM^-^1 IS AN ARTIFACT CAUSED BY GRATING CHANGE
##SAMPLING PROCEDURE=TRANSMISSION
##RESOLUTION=2
##DATA PROCESSING=DIGITIZED BY COBLENTZ SOCIETY (BATCH I) FROM HARD COPY
##XUNITS=1/CM
##YUNITS=TRANSMITTANCE
##XLABEL=Wavenumbers (cm-1)
##YLABEL=% Transmission
##XFACTOR=1
##YFACTOR=1
##DELTAX=1
##FIRSTX=384
##LASTX=3800
##FIRSTY=0.1836
##MAXX=3800
##MINX=384
##MAXY=1.1023
##MINY=0.0261
##NPOINTS=3417
##XYDATA=(X++(Y..Y))
384.000000 0.1836 0.1836 0.1836 0.1844 0.1854
389.000000 0.1865 0.1884 0.1911 0.1957 0.2052
394.000000 0.2178 0.2297 0.2388 0.2480 0.2571
399.000000 0.2851 0.3139 0.3428 0.3716 0.4005
404.000000 0.4293 0.4582 0.4870 0.5159 0.5448
409.000000 0.5736 0.5951 0.6219 0.7506 0.7675
414.000000 0.7868 0.8053 0.8174 0.8295 0.8415
419.000000 0.8525 0.8630 0.8704 0.8754 0.8803
424.000000 0.8841 0.8874 0.8906 0.8939 0.8970
429.000000 0.9000 0.9075 0.9195 0.9211 0.9225
434.000000 0.9228 0.9228 0.9228 0.9227 0.9235
439.000000 0.9207 0.9192 0.9171 0.9146 0.9120
444.000000 0.9098 0.9075 0.9043 0.8849 0.8553
449.000000 0.8257 0.7961 0.7665 0.7401 0.7348
454.000000 0.7321 0.7324 0.7296 0.7601 0.7830
459.000000 0.8058 0.8286 0.8514 0.8741 0.8968
464.000000 0.9128 0.9217 0.9293 0.9349 0.9386
469.000000 0.9421 0.9452 0.9477 0.9501 0.9525
474.000000 0.9540 0.9553 0.9567 0.9580 0.9590
479.000000 0.9600 0.9610 0.9620 0.9631 0.9641
484.000000 0.9651 0.9662 0.9671 0.9678 0.9686
489.000000 0.9693 0.9700 0.9705 0.9711 0.9716
494.000000 0.9721 0.9721 0.9718 0.9717 0.9714
499.000000 0.9712 0.9707 0.9702 0.9696 0.9690
504.000000 0.9691 0.9716 0.9747 0.9781 0.9836
509.000000 0.9897 0.9920 0.9941 0.9953 0.9965
514.000000 0.9977 0.9987 0.9995 1.0004 1.0012
519.000000 1.0020 1.0027 1.0033 1.0040 1.0046
524.000000 1.0053 1.0059 1.0065 1.0071 1.0077
529.000000 1.0082 1.0087 1.0091 1.0096 1.0147
534.000000 1.0102 1.0104 1.0104 1.0090 1.0075
539.000000 1.0055 1.0028 0.9995 0.9952 0.9910
544.000000 0.9860 0.9862 0.9871 0.9918 0.9967
549.000000 1.0006 1.0043 1.0086 1.0105 1.0113
554.000000 1.0118 1.0118 1.0117 1.0112 1.0107
559.000000 1.0096 1.0078 1.0062 1.0044 1.0021
564.000000 1.0000 0.9958 0.9890 0.9763 0.9563
569.000000 0.9335 0.9171 0.8932 0.8753 0.8540
574.000000 0.8281 0.8021 0.7964 0.8240 0.8625
579.000000 0.9010 0.9394 0.9628 0.9748 0.9843
584.000000 0.9895 1.0398 1.0535 1.0552 1.0564
589.000000 1.0464 1.0350 1.0237 1.0128 1.0135
594.000000 1.0139 1.0145 1.0156 1.0167 1.0171
599.000000 1.0177 1.0186 1.0194 1.0201 1.0207
604.000000 1.0225 1.0244 1.0271 1.0305 1.0340
609.000000 1.0327 1.0311 1.0285 1.0234 1.0238
614.000000 1.0221 1.0211 1.0207 1.0203 1.0199
619.000000 1.0198 1.0191 1.0187 1.0184 1.0182
624.000000 1.0182 1.0182 1.0182 1.0182 1.0180
629.000000 1.0175 1.0168 1.0157 1.0145 1.0133
634.000000 1.0121 1.0109 1.0094 1.0068 1.0042
639.000000 1.0006 0.9958 0.9911 0.9871 0.9830
644.000000 0.9788 0.9748 0.9720 0.9694 0.9671
649.000000 0.9587 0.9709 0.9742 0.9784 0.9827
654.000000 0.9863 0.9910 0.9964 1.0023 1.0092
659.000000 1.0171 1.0247 1.0298 1.0325 1.0340
664.000000 1.0344 1.0348 1.0352 1.0359 1.0366
669.000000 1.0374 1.0381 1.0388 1.0396 1.0403
674.000000 1.0411 1.0418 1.0427 1.0435 1.0443
679.000000 1.0451 1.0459 1.0468 1.0477 1.0486
684.000000 1.0494 1.0502 1.0509 1.0517 1.0524
689.000000 1.0531 1.0539 1.0546 1.0556 1.0565
694.000000 1.0575 1.0585 1.0594 1.0604 1.0614
699.000000 1.0624 1.0630 1.0635 1.0640 1.0645
704.000000 1.0650 1.0655 1.0660 1.0665 1.0674
709.000000 1.0683 1.0692 1.0701 1.0710 1.0718
714.000000 1.0725 1.0731 1.0738 1.0744 1.0750
719.000000 1.0756 1.0764 1.0771 1.0778 1.0785
724.000000 1.0793 1.0799 1.0805 1.0811 1.0816
729.000000 1.0821 1.0827 1.0833 1.0839 1.0846
734.000000 1.0852 1.0859 1.0865 1.0871 1.0877
739.000000 1.0882 1.0888 1.0893 1.0898 1.0903
744.000000 1.0909 1.0913 1.0917 1.0921 1.0921
749.000000 1.0914 1.0907 1.0904 1.0885 1.0868
754.000000 1.0847 1.0812 1.0771 1.0718 1.0650
759.000000 1.0484 1.0311 1.0137 0.9984 0.9897
764.000000 0.9857 0.9848 0.9818 0.9891 1.0080
769.000000 1.0521 1.0766 1.0807 1.0827 1.0836
774.000000 1.0841 1.0845 1.0844 1.0836 1.0874
779.000000 1.0807 1.0788 1.0766 1.0743 1.0718
784.000000 1.0693 1.0662 1.0630 1.0595 1.0557
789.000000 1.0502 1.0464 1.0464 1.0463 1.0482
794.000000 1.0520 1.0566 1.0614 1.0661 1.0709
799.000000 1.0741 1.0746 1.0751 1.0778 1.0745
804.000000 1.0731 1.0704 1.0670 1.0554 1.0434
809.000000 1.0314 1.0194 1.0074 0.9954 0.9834
814.000000 0.9803 0.9804 0.9905 1.0071 1.0236
819.000000 1.0402 1.0567 1.0733 1.0810 1.0818
824.000000 1.0834 1.0807 1.0792 1.0775 1.0753
829.000000 1.0724 1.0683 1.0623 1.0521 1.0397
834.000000 1.0202 1.0042 0.9875 0.9708 0.9596
839.000000 0.9488 0.7917 0.6339 0.4760 0.2739
844.000000 0.2717 0.2711 0.2777 0.3534 0.4290
849.000000 0.5047 0.5803 0.6560 0.7315 0.8072
854.000000 0.8777 0.8893 0.8917 0.8933 0.8901
859.000000 0.8914 0.8881 0.8814 0.8721 0.8620
864.000000 0.8508 0.8473 0.8484 0.8452 0.8780
869.000000 0.9003 0.9225 0.9471 0.9712 0.9851
874.000000 0.9930 0.9978 1.0008 1.0033 1.0052
879.000000 1.0054 1.0068 1.0043 1.0017 0.9954
884.000000 0.9800 0.9646 0.9491 0.9337 0.9183
889.000000 0.9157 0.9143 1.0139 1.0389 1.0552
894.000000 1.0660 1.0743 1.0818 1.0890 1.0931
899.000000 1.0965 1.0971 1.0978 1.0980 1.1023
904.000000 1.0970 1.0963 1.0947 1.0931 1.0911
909.000000 1.0890 1.0856 1.0799 1.0703 1.0596
914.000000 1.0478 1.0366 0.9997 0.9189 0.8381
919.000000 0.7574 0.6996 0.6958 0.8271 0.9954
924.000000 1.0031 1.0063 1.0055 0.9930 0.9805
929.000000 0.9780 0.9789 1.0033 1.0300 1.0578
934.000000 1.0734 1.0810 1.0840 1.0856 1.0860
939.000000 1.0865 1.0866 1.0867 1.0861 1.0855
944.000000 1.0842 1.0828 1.0811 1.0787 1.0763
949.000000 1.0731 1.0683 1.0633 1.0578 1.0525
954.000000 1.0471 1.0401 1.0331 1.0246 1.0145
959.000000 1.0045 0.9942 0.9838 0.9734 0.9568
964.000000 0.9380 0.9173 0.8844 0.8571 0.8340
969.000000 0.8069 0.7675 0.7395 0.7119 0.5216
974.000000 0.4588 0.3959 0.3330 0.2702 0.2073
979.000000 0.1444 0.0816 0.0558 0.0466 0.0325
984.000000 0.0261 0.0266 0.0267 0.0287 0.0327
989.000000 0.0430 0.1128 0.1844 0.2560 0.3276
994.000000 0.3991 0.4707 0.5423 0.6139 0.6854
999.000000 0.7569 0.8286 0.8803 0.8881 0.8986
1004.000000 0.9031 0.9044 0.9042 0.9068 0.9016
1009.000000 0.8987 0.8550 0.7698 0.6847 0.5995
1014.000000 0.5712 0.5773 0.5749 0.7282 0.8036
1019.000000 0.8791 0.9433 0.9580 0.9634 0.9664
1024.000000 0.9694 0.9718 0.9739 0.9761 0.9782
1029.000000 0.9799 0.9817 0.9840 0.9855 0.9855
1034.000000 0.9852 0.9818 0.9831 0.9816 0.9797
1039.000000 0.9743 0.9637 0.9468 0.9271 0.9043
1044.000000 0.8709 0.8371 0.7465 0.6558 0.5653
1049.000000 0.4747 0.3841 0.2934 0.2564 0.2556
1054.000000 0.2543 0.2583 0.3326 0.4101 0.4877
1059.000000 0.5652 0.6428 0.7672 0.7832 0.7933
1064.000000 0.8011 0.8044 0.8075 0.8087 0.8087
1069.000000 0.8076 0.8054 0.7389 0.6662 0.5938
1074.000000 0.5212 0.4488 0.3762 0.3038 0.2313
1079.000000 0.1588 0.0795 0.0801 0.1211 0.1867
1084.000000 0.2522 0.3177 0.3832 0.4488 0.5143
1089.000000 0.5799 0.6362 0.6635 0.6851 0.8000
1094.000000 0.8225 0.8440 0.8627 0.8793 0.8945
1099.000000 0.9114 0.9220 0.9291 0.9321 0.9343
1104.000000 0.9350 0.9351 0.9352 0.9348 0.9354
1109.000000 0.9362 0.9393 0.9442 0.9541 0.9642
1114.000000 0.9789 0.9914 0.9990 1.0028 1.0059
1119.000000 1.0087 1.0111 1.0128 1.0139 1.0149
1124.000000 1.0159 1.0170 1.0178 1.0185 1.0190
1129.000000 1.0158 1.0186 1.0184 1.0177 1.0161
1134.000000 1.0146 1.0128 1.0105 1.0082 1.0054
1139.000000 1.0021 0.9987 0.9952 0.9918 0.9871
1144.000000 0.9813 0.9751 0.9601 0.9489 0.9382
1149.000000 0.9263 0.9125 0.9012 0.8908 0.8804
1154.000000 0.8685 0.8478 0.8257 0.7901 0.7704
1159.000000 0.7531 0.6694 0.5754 0.3698 0.3534
1164.000000 0.3427 0.3332 0.3240 0.3090 0.3029
1169.000000 0.3029 0.3030 0.3008 0.3228 0.3706
1174.000000 0.4184 0.4662 0.5140 0.5618 0.6096
1179.000000 0.6574 0.7051 0.7530 0.8008 0.8486
1184.000000 0.9028 0.9132 0.9200 0.9247 0.9262
1189.000000 0.9262 0.9262 0.9298 0.9301 0.9285
1194.000000 0.9265 0.9241 0.9207 0.9168 0.9105
1199.000000 0.9041 0.8971 0.8900 0.8787 0.8615
1204.000000 0.8401 0.8118 0.6583 0.5716 0.4850
1209.000000 0.3982 0.3116 0.2250 0.1462 0.1189
1214.000000 0.0970 0.0941 0.1017 0.1072 0.1840
1219.000000 0.2940 0.4040 0.5140 0.5902 0.5935
1224.000000 0.5968 0.6001 0.6032 0.6041 0.6043
1229.000000 0.6035 0.6052 0.5210 0.4605 0.3999
1234.000000 0.3452 0.3359 0.3288 0.3318 0.3557
1239.000000 0.3979 0.4402 0.4825 0.5248 0.5710
1244.000000 0.5910 0.6125 0.6788 0.7825 0.8015
1249.000000 0.8186 0.8343 0.8475 0.8559 0.8618
1254.000000 0.8659 0.8684 0.8690 0.8687 0.8639
1259.000000 0.8558 0.8325 0.8153 0.8019 0.7876
1264.000000 0.7781 0.7661 0.7539 0.7449 0.7186
1269.000000 0.6921 0.6658 0.6394 0.6131 0.6117
1274.000000 0.6073 0.6718 0.7151 0.7584 0.8015
1279.000000 0.8449 0.8750 0.8873 0.9238 0.9328
1284.000000 0.9403 0.9439 0.9458 0.9458 0.9458
1289.000000 0.9455 0.9437 0.9406 0.9367 0.9332
1294.000000 0.9262 0.9189 0.9086 0.8915 0.8701
1299.000000 0.8312 0.7925 0.7538 0.7151 0.6764
1304.000000 0.6377 0.5989 0.5602 0.5215 0.4854
1309.000000 0.4886 0.5637 0.6664 0.7691 0.8636
1314.000000 0.8913 0.9073 0.9190 0.9246 0.9297
1319.000000 0.9346 0.9392 0.9431 0.9455 0.9478
1324.000000 0.9489 0.9494 0.9484 0.9454 0.9474
1329.000000 0.9310 0.9228 0.9145 0.9053 0.8960
1334.000000 0.8894 0.8843 0.8785 0.8739 0.8709
1339.000000 0.8778 0.8854 0.8913 0.8925 0.8921
1344.000000 0.8893 0.8855 0.8806 0.8745 0.8671
1349.000000 0.8568 0.7846 0.7115 0.6386 0.5656
1354.000000 0.4926 0.4196 0.3466 0.2902 0.2904
1359.000000 0.3135 0.3664 0.3680 0.3018 0.2207
1364.000000 0.2016 0.2619 0.3427 0.4234 0.5042
1369.000000 0.5849 0.6431 0.6434 0.5720 0.3181
1374.000000 0.2444 0.2063 0.1404 0.1020 0.1037
1379.000000 0.1054 0.1301 0.2010 0.2751 0.3868
1384.000000 0.4987 0.6106 0.7224 0.7849 0.8423
1389.000000 0.8699 0.8880 0.8968 0.9059 0.9127
1394.000000 0.9185 0.9243 0.9291 0.9321 0.9351
1399.000000 0.9381 0.9412 0.9442 0.9459 0.9475
1404.000000 0.9491 0.9494 0.9487 0.9500 0.9503
1409.000000 0.9496 0.9487 0.9478 0.9468 0.9447
1414.000000 0.9423 0.9399 0.9362 0.9323 0.9285
1419.000000 0.9246 0.9201 0.9144 0.9091 0.9061
1424.000000 0.9045 0.9040 0.9035 0.9031 0.9028
1429.000000 0.9025 0.9024 0.9001 0.8949 0.8843
1434.000000 0.8687 0.8530 0.8418 0.8325 0.8231
1439.000000 0.8125 0.8017 0.7907 0.7712 0.7341
1444.000000 0.6767 0.6308 0.5849 0.5390 0.4931
1449.000000 0.4094 0.4086 0.4332 0.4982 0.5631
1454.000000 0.6281 0.6628 0.6615 0.6290 0.5912
1459.000000 0.5536 0.5159 0.4782 0.4405 0.4028
1464.000000 0.3650 0.3273 0.2896 0.2519 0.2142
1469.000000 0.1863 0.1871 0.2547 0.3268 0.3991
1474.000000 0.4714 0.5436 0.6158 0.6880 0.7601
1479.000000 0.8125 0.8172 0.8191 0.8186 0.8099
1484.000000 0.8011 0.7925 0.7847 0.7876 0.7955
1489.000000 0.8034 0.8111 0.8191 0.8268 0.8348
1494.000000 0.8427 0.8505 0.8606 0.8641 0.8644
1499.000000 0.8643 0.8640 0.8635 0.8625 0.8600
1504.000000 0.8575 0.8547 0.8507 0.8448 0.8386
1509.000000 0.8328 0.8271 0.8216 0.8165 0.8122
1514.000000 0.8081 0.8038 0.7991 0.7941 0.7899
1519.000000 0.7860 0.7814 0.7768 0.7722 0.7676
1524.000000 0.7626 0.7574 0.7521 0.7469 0.7418
1529.000000 0.7362 0.7304 0.7244 0.7161 0.7071
1534.000000 0.6944 0.6825 0.6747 0.6694 0.6649
1539.000000 0.6607 0.6571 0.6522 0.6073 0.5897
1544.000000 0.5823 0.5749 0.5690 0.5640 0.5582
1549.000000 0.5531 0.5481 0.5432 0.5416 0.5415
1554.000000 0.5421 0.5429 0.5444 0.5483 0.5529
1559.000000 0.5575 0.5714 0.6128 0.6266 0.6339
1564.000000 0.6410 0.6467 0.6525 0.6578 0.6628
1569.000000 0.6678 0.6733 0.6787 0.6838 0.6889
1574.000000 0.6942 0.6996 0.7044 0.7083 0.7122
1579.000000 0.7162 0.7197 0.7225 0.7251 0.7278
1584.000000 0.7304 0.7328 0.7354 0.7378 0.7405
1589.000000 0.7430 0.7474 0.7549 0.7718 0.7956
1594.000000 0.8097 0.8186 0.8256 0.8324 0.8373
1599.000000 0.8423 0.8500 0.8587 0.8674 0.8761
1604.000000 0.8848 0.8935 0.9021 0.9108 0.9190
1609.000000 0.9228 0.9267 0.9309 0.9352 0.9408
1614.000000 0.9470 0.9534 0.9594 0.9623 0.9651
1619.000000 0.9678 0.9703 0.9725 0.9750 0.9763
1624.000000 0.9775 0.9788 0.9798 0.9805 0.9812
1629.000000 0.9820 0.9828 0.9838 0.9845 0.9851
1634.000000 0.9859 0.9858 0.9857 0.9846 0.9839
1639.000000 0.9835 0.9843 0.9864 0.9901 0.9951
1644.000000 1.0038 1.0055 1.0061 1.0067 1.0070
1649.000000 1.0071 1.0074 1.0075 1.0078 1.0078
1654.000000 1.0080 1.0081 1.0082 1.0083 1.0083
1659.000000 1.0084 1.0085 1.0085 1.0086 1.0087
1664.000000 1.0087 1.0087 1.0087 1.0087 1.0088
1669.000000 1.0088 1.0088 1.0086 1.0083 1.0081
1674.000000 1.0078 1.0075 1.0073 1.0071 1.0068
1679.000000 1.0065 1.0062 1.0059 1.0056 1.0053
1684.000000 1.0050 1.0048 1.0048 1.0048 1.0049
1689.000000 1.0049 1.0049 1.0049 1.0049 1.0049
1694.000000 1.0051 1.0053 1.0055 1.0057 1.0059
1699.000000 1.0061 1.0063 1.0066 1.0068 1.0071
1704.000000 1.0073 1.0074 1.0075 1.0077 1.0078
1709.000000 1.0081 1.0082 1.0084 1.0086 1.0088
1714.000000 1.0090 1.0092 1.0093 1.0093 1.0094
1719.000000 1.0095 1.0095 1.0096 1.0096 1.0097
1724.000000 1.0097 1.0097 1.0097 1.0096 1.0095
1729.000000 1.0094 1.0093 1.0092 1.0091 1.0090
1734.000000 1.0090 1.0091 1.0091 1.0091 1.0091
1739.000000 1.0091 1.0093 1.0094 1.0096 1.0097
1744.000000 1.0099 1.0100 1.0102 1.0103 1.0104
1749.000000 1.0104 1.0103 1.0102 1.0102 1.0101
1754.000000 1.0098 1.0095 1.0092 1.0089 1.0085
1759.000000 1.0082 1.0078 1.0075 1.0075 1.0075
1764.000000 1.0075 1.0077 1.0083 1.0090 1.0097
1769.000000 1.0104 1.0111 1.0118 1.0125 1.0131
1774.000000 1.0134 1.0136 1.0138 1.0140 1.0136
1779.000000 1.0132 1.0128 1.0124 1.0120 1.0115
1784.000000 1.0107 1.0099 1.0091 1.0083 1.0075
1789.000000 1.0067 1.0059 1.0051 1.0043 1.0035
1794.000000 1.0027 1.0018 1.0011 1.0002 0.9994
1799.000000 0.9986 0.9981 0.9978 0.9975 0.9971
1804.000000 0.9968 0.9966 0.9966 0.9966 0.9967
1809.000000 0.9967 0.9967 0.9963 0.9959 0.9955
1814.000000 0.9951 0.9946 0.9942 0.9937 0.9924
1819.000000 0.9910 0.9896 0.9883 0.9868 0.9855
1824.000000 0.9842 0.9828 0.9816 0.9816 0.9816
1829.000000 0.9816 0.9818 0.9821 0.9828 0.9837
1834.000000 0.9849 0.9865 0.9880 0.9900 0.9921
1839.000000 0.9943 0.9962 0.9978 0.9985 0.9991
1844.000000 0.9997 1.0003 1.0008 1.0014 1.0016
1849.000000 1.0016 1.0016 1.0016 1.0017 1.0017
1854.000000 1.0017 1.0018 1.0021 1.0024 1.0025
1859.000000 1.0028 1.0030 1.0032 1.0034 1.0038
1864.000000 1.0042 1.0045 1.0049 1.0053 1.0058
1869.000000 1.0067 1.0077 1.0086 1.0095 1.0104
1874.000000 1.0113 1.0118 1.0121 1.0124 1.0125
1879.000000 1.0128 1.0131 1.0130 1.0128 1.0127
1884.000000 1.0125 1.0124 1.0121 1.0121 1.0118
1889.000000 1.0114 1.0108 1.0103 1.0097 1.0092
1894.000000 1.0086 1.0082 1.0077 1.0077 1.0077
1899.000000 1.0083 1.0088 1.0095 1.0103 1.0111
1904.000000 1.0120 1.0128 1.0136 1.0144 1.0151
1909.000000 1.0156 1.0157 1.0153 1.0149 1.0145
1914.000000 1.0140 1.0136 1.0132 1.0127 1.0121
1919.000000 1.0117 1.0112 1.0108 1.0104 1.0100
1924.000000 1.0098 1.0096 1.0095 1.0100 1.0106
1929.000000 1.0113 1.0118 1.0127 1.0136 1.0144
1934.000000 1.0149 1.0154 1.0159 1.0163 1.0165
1939.000000 1.0167 1.0168 1.0171 1.0173 1.0175
1944.000000 1.0178 1.0182 1.0185 1.0189 1.0196
1949.000000 1.0203 1.0210 1.0217 1.0228 1.0242
1954.000000 1.0236 1.0207 1.0171 1.0153 1.0148
1959.000000 1.0187 1.0211 1.0225 1.0223 1.0218
1964.000000 1.0216 1.0212 1.0209 1.0203 1.0191
1969.000000 1.0183 1.0181 1.0178 1.0178 1.0177
1974.000000 1.0175 1.0174 1.0168 1.0165 1.0160
1979.000000 1.0157 1.0153 1.0149 1.0146 1.0146
1984.000000 1.0146 1.0146 1.0146 1.0142 1.0135
1989.000000 1.0101 1.0067 1.0033 0.9999 0.9965
1994.000000 0.9931 0.9896 0.9862 0.9828 0.9794
1999.000000 0.9760 0.9725 0.9708 0.9690 0.9686
2004.000000 0.9683 0.9681 0.9680 0.9678 0.9678
2009.000000 0.9678 0.9678 0.9678 0.9678 0.9681
2014.000000 0.9683 0.9685 0.9688 0.9689 0.9690
2019.000000 0.9691 0.9693 0.9694 0.9695 0.9696
2024.000000 0.9698 0.9700 0.9703 0.9706 0.9709
2029.000000 0.9711 0.9713 0.9714 0.9716 0.9718
2034.000000 0.9720 0.9721 0.9724 0.9725 0.9728
2039.000000 0.9730 0.9732 0.9734 0.9736 0.9737
2044.000000 0.9739 0.9741 0.9743 0.9745 0.9747
2049.000000 0.9749 0.9751 0.9753 0.9755 0.9757
2054.000000 0.9759 0.9760 0.9762 0.9764 0.9766
2059.000000 0.9768 0.9770 0.9771 0.9774 0.9775
2064.000000 0.9778 0.9780 0.9782 0.9783 0.9785
2069.000000 0.9787 0.9789 0.9791 0.9793 0.9798
2074.000000 0.9804 0.9805 0.9806 0.9806 0.9806
2079.000000 0.9806 0.9806 0.9806 0.9806 0.9806
2084.000000 0.9806 0.9805 0.9805 0.9804 0.9803
2089.000000 0.9802 0.9801 0.9800 0.9799 0.9798
2094.000000 0.9797 0.9796 0.9795 0.9794 0.9793
2099.000000 0.9792 0.9792 0.9791 0.9790 0.9789
2104.000000 0.9788 0.9787 0.9787 0.9785 0.9784
2109.000000 0.9783 0.9782 0.9780 0.9778 0.9777
2114.000000 0.9775 0.9775 0.9774 0.9773 0.9771
2119.000000 0.9771 0.9770 0.9768 0.9767 0.9766
2124.000000 0.9765 0.9764 0.9763 0.9761 0.9760
2129.000000 0.9758 0.9757 0.9755 0.9754 0.9752
2134.000000 0.9751 0.9750 0.9750 0.9749 0.9748
2139.000000 0.9747 0.9747 0.9746 0.9745 0.9744
2144.000000 0.9744 0.9744 0.9745 0.9746 0.9747
2149.000000 0.9748 0.9749 0.9750 0.9751 0.9752
2154.000000 0.9753 0.9755 0.9758 0.9760 0.9763
2159.000000 0.9766 0.9768 0.9770 0.9771 0.9773
2164.000000 0.9775 0.9777 0.9778 0.9780 0.9782
2169.000000 0.9782 0.9783 0.9784 0.9785 0.9785
2174.000000 0.9786 0.9786 0.9786 0.9786 0.9786
2179.000000 0.9785 0.9785 0.9785 0.9785 0.9785
2184.000000 0.9785 0.9784 0.9784 0.9784 0.9784
2189.000000 0.9784 0.9784 0.9783 0.9783 0.9782
2194.000000 0.9781 0.9778 0.9777 0.9775 0.9774
2199.000000 0.9771 0.9770 0.9768 0.9767 0.9765
2204.000000 0.9763 0.9761 0.9760 0.9758 0.9756
2209.000000 0.9754 0.9752 0.9749 0.9746 0.9743
2214.000000 0.9740 0.9736 0.9733 0.9728 0.9724
2219.000000 0.9718 0.9713 0.9707 0.9701 0.9695
2224.000000 0.9690 0.9687 0.9684 0.9682 0.9681
2229.000000 0.9678 0.9678 0.9680 0.9682 0.9683
2234.000000 0.9685 0.9689 0.9694 0.9699 0.9704
2239.000000 0.9709 0.9714 0.9718 0.9723 0.9727
2244.000000 0.9732 0.9734 0.9737 0.9737 0.9737
2249.000000 0.9735 0.9733 0.9728 0.9725 0.9721
2254.000000 0.9718 0.9714 0.9710 0.9701 0.9693
2259.000000 0.9684 0.9675 0.9668 0.9660 0.9650
2264.000000 0.9641 0.9630 0.9620 0.9612 0.9604
2269.000000 0.9599 0.9594 0.9588 0.9583 0.9578
2274.000000 0.9573 0.9567 0.9562 0.9557 0.9552
2279.000000 0.9547 0.9542 0.9536 0.9531 0.9525
2284.000000 0.9521 0.9516 0.9511 0.9506 0.9501
2289.000000 0.9496 0.9491 0.9486 0.9481 0.9475
2294.000000 0.9471 0.9463 0.9456 0.9453 0.9450
2299.000000 0.9460 0.9471 0.9484 0.9498 0.9510
2304.000000 0.9521 0.9532 0.9542 0.9547 0.9553
2309.000000 0.9558 0.9564 0.9568 0.9575 0.9578
2314.000000 0.9584 0.9587 0.9590 0.9593 0.9596
2319.000000 0.9599 0.9603 0.9606 0.9609 0.9611
2324.000000 0.9613 0.9613 0.9613 0.9613 0.9613
2329.000000 0.9613 0.9613 0.9613 0.9613 0.9612
2334.000000 0.9611 0.9610 0.9610 0.9609 0.9608
2339.000000 0.9607 0.9606 0.9604 0.9581 0.9601
2344.000000 0.9599 0.9596 0.9594 0.9592 0.9590
2349.000000 0.9587 0.9585 0.9582 0.9578 0.9575
2354.000000 0.9574 0.9578 0.9585 0.9591 0.9597
2359.000000 0.9603 0.9609 0.9615 0.9621 0.9627
2364.000000 0.9634 0.9640 0.9647 0.9653 0.9659
2369.000000 0.9663 0.9668 0.9671 0.9677 0.9681
2374.000000 0.9686 0.9690 0.9694 0.9698 0.9702
2379.000000 0.9706 0.9710 0.9713 0.9717 0.9718
2384.000000 0.9720 0.9721 0.9724 0.9725 0.9728
2389.000000 0.9728 0.9731 0.9732 0.9734 0.9735
2394.000000 0.9737 0.9738 0.9740 0.9742 0.9744
2399.000000 0.9745 0.9747 0.9748 0.9750 0.9750
2404.000000 0.9751 0.9751 0.9752 0.9752 0.9753
2409.000000 0.9753 0.9754 0.9754 0.9754 0.9754
2414.000000 0.9754 0.9754 0.9754 0.9754 0.9754
2419.000000 0.9754 0.9754 0.9756 0.9759 0.9761
2424.000000 0.9764 0.9766 0.9768 0.9771 0.9775
2429.000000 0.9778 0.9784 0.9788 0.9792 0.9796
2434.000000 0.9800 0.9801 0.9802 0.9803 0.9804
2439.000000 0.9804 0.9805 0.9806 0.9807 0.9808
2444.000000 0.9809 0.9809 0.9809 0.9809 0.9809
2449.000000 0.9809 0.9809 0.9809 0.9810 0.9810
2454.000000 0.9810 0.9810 0.9810 0.9809 0.9809
2459.000000 0.9808 0.9808 0.9807 0.9807 0.9806
2464.000000 0.9805 0.9804 0.9804 0.9803 0.9803
2469.000000 0.9802 0.9802 0.9802 0.9802 0.9802
2474.000000 0.9803 0.9803 0.9803 0.9803 0.9803
2479.000000 0.9803 0.9803 0.9803 0.9803 0.9803
2484.000000 0.9803 0.9803 0.9803 0.9803 0.9803
2489.000000 0.9801 0.9799 0.9797 0.9796 0.9794
2494.000000 0.9792 0.9790 0.9788 0.9785 0.9782
2499.000000 0.9778 0.9777 0.9773 0.9768 0.9765
2504.000000 0.9762 0.9758 0.9755 0.9751 0.9747
2509.000000 0.9743 0.9740 0.9736 0.9732 0.9727
2514.000000 0.9723 0.9718 0.9715 0.9710 0.9706
2519.000000 0.9702 0.9698 0.9696 0.9694 0.9692
2524.000000 0.9690 0.9688 0.9686 0.9684 0.9683
2529.000000 0.9683 0.9684 0.9685 0.9687 0.9688
2534.000000 0.9689 0.9690 0.9692 0.9693 0.9695
2539.000000 0.9697 0.9700 0.9703 0.9706 0.9708
2544.000000 0.9711 0.9713 0.9716 0.9718 0.9721
2549.000000 0.9724 0.9727 0.9728 0.9732 0.9734
2554.000000 0.9736 0.9737 0.9739 0.9740 0.9742
2559.000000 0.9743 0.9744 0.9745 0.9747 0.9748
2564.000000 0.9749 0.9750 0.9752 0.9753 0.9754
2569.000000 0.9755 0.9756 0.9757 0.9759 0.9761
2574.000000 0.9764 0.9766 0.9768 0.9770 0.9771
2579.000000 0.9771 0.9771 0.9768 0.9768 0.9767
2584.000000 0.9766 0.9764 0.9762 0.9759 0.9756
2589.000000 0.9753 0.9750 0.9746 0.9742 0.9737
2594.000000 0.9733 0.9728 0.9723 0.9717 0.9711
2599.000000 0.9705 0.9699 0.9692 0.9686 0.9681
2604.000000 0.9677 0.9673 0.9668 0.9667 0.9665
2609.000000 0.9665 0.9666 0.9666 0.9666 0.9666
2614.000000 0.9666 0.9665 0.9665 0.9664 0.9664
2619.000000 0.9663 0.9663 0.9660 0.9658 0.9654
2624.000000 0.9651 0.9648 0.9645 0.9640 0.9636
2629.000000 0.9630 0.9625 0.9618 0.9614 0.9608
2634.000000 0.9608 0.9608 0.9613 0.9623 0.9634
2639.000000 0.9648 0.9662 0.9670 0.9678 0.9677
2644.000000 0.9675 0.9673 0.9671 0.9668 0.9667
2649.000000 0.9665 0.9663 0.9661 0.9659 0.9657
2654.000000 0.9655 0.9651 0.9648 0.9644 0.9640
2659.000000 0.9638 0.9637 0.9636 0.9636 0.9638
2664.000000 0.9640 0.9642 0.9644 0.9644 0.9644
2669.000000 0.9644 0.9644 0.9643 0.9643 0.9638
2674.000000 0.9634 0.9628 0.9625 0.9620 0.9616
2679.000000 0.9611 0.9607 0.9604 0.9601 0.9612
2684.000000 0.9624 0.9632 0.9640 0.9648 0.9656
2689.000000 0.9664 0.9671 0.9680 0.9688 0.9693
2694.000000 0.9698 0.9699 0.9700 0.9697 0.9695
2699.000000 0.9686 0.9677 0.9667 0.9657 0.9647
2704.000000 0.9638 0.9628 0.9618 0.9611 0.9605
2709.000000 0.9599 0.9594 0.9589 0.9585 0.9583
2714.000000 0.9582 0.9583 0.9583 0.9584 0.9585
2719.000000 0.9586 0.9588 0.9590 0.9592 0.9595
2724.000000 0.9598 0.9603 0.9608 0.9612 0.9617
2729.000000 0.9620 0.9624 0.9627 0.9631 0.9634
2734.000000 0.9638 0.9641 0.9644 0.9647 0.9650
2739.000000 0.9652 0.9655 0.9657 0.9657 0.9657
2744.000000 0.9657 0.9656 0.9655 0.9653 0.9652
2749.000000 0.9649 0.9646 0.9643 0.9641 0.9638
2754.000000 0.9635 0.9632 0.9630 0.9625 0.9623
2759.000000 0.9620 0.9617 0.9614 0.9611 0.9606
2764.000000 0.9602 0.9596 0.9590 0.9584 0.9578
2769.000000 0.9568 0.9560 0.9550 0.9541 0.9532
2774.000000 0.9523 0.9514 0.9505 0.9496 0.9487
2779.000000 0.9478 0.9470 0.9461 0.9452 0.9443
2784.000000 0.9435 0.9425 0.9418 0.9409 0.9400
2789.000000 0.9390 0.9380 0.9368 0.9358 0.9347
2794.000000 0.9336 0.9325 0.9314 0.9303 0.9292
2799.000000 0.9278 0.9266 0.9252 0.9238 0.9223
2804.000000 0.9209 0.9195 0.9181 0.9167 0.9153
2809.000000 0.9135 0.9117 0.9098 0.9078 0.9060
2814.000000 0.9041 0.9021 0.9004 0.8983 0.8962
2819.000000 0.8941 0.8920 0.8898 0.8877 0.8852
2824.000000 0.8827 0.8794 0.8761 0.8728 0.8695
2829.000000 0.8651 0.8608 0.8563 0.8518 0.8473
2834.000000 0.8428 0.8323 0.8218 0.7988 0.7758
2839.000000 0.7528 0.7300 0.7069 0.6841 0.6611
2844.000000 0.6382 0.6152 0.5923 0.5693 0.5464
2849.000000 0.5235 0.5006 0.4776 0.4547 0.4317
2854.000000 0.3630 0.3879 0.3671 0.3723 0.3776
2859.000000 0.3949 0.4122 0.4294 0.4467 0.4506
2864.000000 0.4545 0.4373 0.4562 0.3964 0.3728
2869.000000 0.3491 0.3255 0.3018 0.2782 0.2546
2874.000000 0.2310 0.2182 0.2054 0.2121 0.2189
2879.000000 0.2419 0.2649 0.2712 0.1934 0.2373
2884.000000 0.1971 0.2150 0.2329 0.2529 0.2729
2889.000000 0.2842 0.2911 0.2942 0.2928 0.2799
2894.000000 0.2671 0.2542 0.2414 0.2284 0.2157
2899.000000 0.2028 0.1900 0.1846 0.1794 0.1735
2904.000000 0.1677 0.1588 0.1500 0.1412 0.1324
2909.000000 0.1103 0.0882 0.0786 0.0691 0.0613
2914.000000 0.0535 0.0499 0.0464 0.0445 0.0425
2919.000000 0.0421 0.0383 0.0414 0.0413 0.0417
2924.000000 0.0421 0.0432 0.0443 0.0457 0.0471
2929.000000 0.0488 0.0505 0.0522 0.0540 0.0556
2934.000000 0.0602 0.0581 0.0581 0.0581 0.0573
2939.000000 0.0562 0.0551 0.0543 0.0535 0.0529
2944.000000 0.0524 0.0524 0.0525 0.0528 0.0479
2949.000000 0.0541 0.0550 0.0561 0.0573 0.0569
2954.000000 0.0582 0.0550 0.0536 0.0519 0.0503
2959.000000 0.0482 0.0461 0.0438 0.0416 0.0387
2964.000000 0.0358 0.0342 0.0327 0.0325 0.0324
2969.000000 0.0327 0.0330 0.0335 0.0315 0.0351
2974.000000 0.0362 0.0402 0.0443 0.0529 0.0615
2979.000000 0.0738 0.0862 0.0870 0.0879 0.0886
2984.000000 0.0893 0.0897 0.0903 0.0961 0.1020
2989.000000 0.1346 0.1674 0.1974 0.2274 0.2574
2994.000000 0.2874 0.3174 0.3474 0.4464 0.5455
2999.000000 0.5754 0.6053 0.6290 0.6526 0.6678
3004.000000 0.6832 0.6908 0.6987 0.7050 0.7112
3009.000000 0.7175 0.7237 0.7298 0.7360 0.7432
3014.000000 0.7505 0.7948 0.8391 0.8447 0.8504
3019.000000 0.8548 0.8593 0.8637 0.8682 0.8730
3024.000000 0.8778 0.8825 0.8874 0.8925 0.8978
3029.000000 0.9033 0.9087 0.9137 0.9188 0.9233
3034.000000 0.9278 0.9301 0.9323 0.9345 0.9367
3039.000000 0.9389 0.9412 0.9435 0.9458 0.9480
3044.000000 0.9503 0.9520 0.9538 0.9555 0.9571
3049.000000 0.9589 0.9606 0.9621 0.9639 0.9652
3054.000000 0.9666 0.9677 0.9689 0.9700 0.9712
3059.000000 0.9721 0.9730 0.9739 0.9748 0.9755
3064.000000 0.9763 0.9770 0.9777 0.9783 0.9790
3069.000000 0.9794 0.9799 0.9803 0.9807 0.9811
3074.000000 0.9815 0.9818 0.9823 0.9827 0.9832
3079.000000 0.9836 0.9840 0.9844 0.9848 0.9851
3084.000000 0.9854 0.9857 0.9860 0.9862 0.9865
3089.000000 0.9867 0.9868 0.9868 0.9870 0.9870
3094.000000 0.9871 0.9871 0.9871 0.9871 0.9873
3099.000000 0.9873 0.9874 0.9874 0.9875 0.9875
3104.000000 0.9875 0.9875 0.9875 0.9875 0.9875
3109.000000 0.9875 0.9874 0.9873 0.9871 0.9871
3114.000000 0.9870 0.9868 0.9868 0.9867 0.9866
3119.000000 0.9864 0.9863 0.9862 0.9862 0.9861
3124.000000 0.9861 0.9860 0.9860 0.9859 0.9859
3129.000000 0.9858 0.9858 0.9857 0.9857 0.9856
3134.000000 0.9856 0.9855 0.9855 0.9854 0.9853
3139.000000 0.9852 0.9851 0.9850 0.9850 0.9849
3144.000000 0.9848 0.9847 0.9846 0.9845 0.9844
3149.000000 0.9843 0.9842 0.9841 0.9840 0.9839
3154.000000 0.9838 0.9836 0.9818 0.9832 0.9830
3159.000000 0.9827 0.9825 0.9823 0.9821 0.9818
3164.000000 0.9817 0.9815 0.9813 0.9811 0.9809
3169.000000 0.9807 0.9805 0.9803 0.9801 0.9799
3174.000000 0.9798 0.9796 0.9794 0.9792 0.9792
3179.000000 0.9792 0.9793 0.9794 0.9795 0.9796
3184.000000 0.9798 0.9799 0.9800 0.9801 0.9802
3189.000000 0.9804 0.9806 0.9810 0.9815 0.9818
3194.000000 0.9823 0.9827 0.9832 0.9836 0.9841
3199.000000 0.9845 0.9850 0.9854 0.9859 0.9864
3204.000000 0.9868 0.9874 0.9878 0.9884 0.9889
3209.000000 0.9893 0.9898 0.9903 0.9908 0.9913
3214.000000 0.9918 0.9921 0.9927 0.9932 0.9937
3219.000000 0.9942 0.9947 0.9952 0.9957 0.9961
3224.000000 0.9966 0.9971 0.9975 0.9981 0.9986
3229.000000 0.9991 0.9996 1.0000 1.0005 1.0008
3234.000000 1.0011 1.0013 1.0015 1.0017 1.0018
3239.000000 1.0021 1.0023 1.0025 1.0027 1.0028
3244.000000 1.0032 1.0034 1.0036 1.0038 1.0040
3249.000000 1.0042 1.0044 1.0045 1.0047 1.0048
3254.000000 1.0049 1.0050 1.0051 1.0052 1.0053
3259.000000 1.0053 1.0054 1.0055 1.0056 1.0057
3264.000000 1.0058 1.0059 1.0060 1.0061 1.0062
3269.000000 1.0063 1.0064 1.0065 1.0066 1.0067
3274.000000 1.0067 1.0067 1.0067 1.0067 1.0067
3279.000000 1.0066 1.0066 1.0065 1.0065 1.0065
3284.000000 1.0065 1.0064 1.0064 1.0063 1.0063
3289.000000 1.0063 1.0063 1.0062 1.0062 1.0061
3294.000000 1.0061 1.0061 1.0061 1.0060 1.0060
3299.000000 1.0059 1.0059 1.0059 1.0059 1.0058
3304.000000 1.0058 1.0058 1.0058 1.0057 1.0057
3309.000000 1.0056 1.0055 1.0054 1.0054 1.0053
3314.000000 1.0053 1.0052 1.0052 1.0051 1.0051
3319.000000 1.0050 1.0050 1.0049 1.0049 1.0048
3324.000000 1.0048 1.0047 1.0047 1.0046 1.0045
3329.000000 1.0044 1.0044 1.0043 1.0043 1.0042
3334.000000 1.0042 1.0041 1.0041 1.0040 1.0040
3339.000000 1.0039 1.0039 1.0038 1.0038 1.0037
3344.000000 1.0037 1.0036 1.0036 1.0035 1.0035
3349.000000 1.0034 1.0034 1.0033 1.0033 1.0032
3354.000000 1.0032 1.0031 1.0031 1.0030 1.0030
3359.000000 1.0028 1.0028 1.0028 1.0028 1.0027
3364.000000 1.0027 1.0025 1.0025 1.0025 1.0025
3369.000000 1.0024 1.0024 1.0023 1.0023 1.0021
3374.000000 1.0021 1.0021 1.0021 1.0020 1.0020
3379.000000 1.0018 1.0018 1.0018 1.0018 1.0017
3384.000000 1.0017 1.0016 1.0016 1.0015 1.0015
3389.000000 1.0014 1.0014 1.0013 1.0013 1.0012
3394.000000 1.0012 1.0011 1.0011 1.0010 1.0010
3399.000000 1.0009 1.0009 1.0008 1.0007 1.0006
3404.000000 1.0006 1.0005 1.0005 1.0004 1.0004
3409.000000 1.0003 1.0003 1.0002 1.0002 1.0001
3414.000000 1.0001 1.0000 1.0000 0.9999 0.9999
3419.000000 0.9998 0.9998 0.9997 0.9997 0.9996
3424.000000 0.9996 0.9995 0.9995 0.9994 0.9993
3429.000000 0.9992 0.9992 0.9991 0.9991 0.9990
3434.000000 0.9990 0.9990 0.9990 0.9990 0.9990
3439.000000 0.9990 0.9990 0.9990 0.9990 0.9990
3444.000000 0.9990 0.9990 0.9991 0.9991 0.9991
3449.000000 0.9991 0.9991 0.9991 0.9991 0.9991
3454.000000 0.9991 0.9991 0.9991 0.9991 0.9991
3459.000000 0.9991 0.9991 0.9991 0.9991 0.9991
3464.000000 0.9992 0.9992 0.9992 0.9992 0.9992
3469.000000 0.9992 0.9992 0.9992 0.9992 0.9992
3474.000000 0.9992 0.9992 0.9992 0.9992 0.9992
3479.000000 0.9992 0.9992 0.9992 0.9992 0.9992
3484.000000 0.9992 0.9992 0.9992 0.9992 0.9992
3489.000000 0.9992 0.9992 0.9991 0.9991 0.9991
3494.000000 0.9991 0.9991 0.9991 0.9991 0.9991
3499.000000 0.9991 0.9991 0.9991 0.9991 0.9991
3504.000000 0.9991 0.9991 0.9991 0.9991 0.9991
3509.000000 0.9991 0.9991 0.9991 0.9991 0.9991
3514.000000 0.9991 0.9991 0.9991 0.9991 0.9991
3519.000000 0.9991 0.9991 0.9991 0.9991 0.9991
3524.000000 0.9991 0.9990 0.9990 0.9990 0.9990
3529.000000 0.9990 0.9990 0.9989 0.9989 0.9989
3534.000000 0.9989 0.9988 0.9988 0.9988 0.9988
3539.000000 0.9988 0.9988 0.9987 0.9987 0.9987
3544.000000 0.9987 0.9986 0.9986 0.9986 0.9986
3549.000000 0.9986 0.9986 0.9985 0.9985 0.9985
3554.000000 0.9985 0.9984 0.9984 0.9984 0.9984
3559.000000 0.9984 0.9984 0.9983 0.9983 0.9983
3564.000000 0.9983 0.9982 0.9982 0.9982 0.9982
3569.000000 0.9982 0.9982 0.9981 0.9981 0.9981
3574.000000 0.9981 0.9980 0.9980 0.9978 0.9978
3579.000000 0.9978 0.9978 0.9977 0.9977 0.9977
3584.000000 0.9977 0.9975 0.9975 0.9975 0.9975
3589.000000 0.9974 0.9974 0.9973 0.9973 0.9971
3594.000000 0.9971 0.9971 0.9971 0.9971 0.9971
3599.000000 0.9970 0.9970 0.9968 0.9968 0.9968
3604.000000 0.9968 0.9968 0.9968 0.9967 0.9967
3609.000000 0.9966 0.9966 0.9966 0.9966 0.9966
3614.000000 0.9966 0.9965 0.9965 0.9965 0.9965
3619.000000 0.9965 0.9965 0.9965 0.9965 0.9964
3624.000000 0.9964 0.9964 0.9964 0.9964 0.9964
3629.000000 0.9964 0.9964 0.9963 0.9963 0.9963
3634.000000 0.9964 0.9964 0.9964 0.9964 0.9964
3639.000000 0.9964 0.9964 0.9964 0.9964 0.9964
3644.000000 0.9964 0.9964 0.9964 0.9964 0.9964
3649.000000 0.9964 0.9964 0.9964 0.9964 0.9964
3654.000000 0.9965 0.9965 0.9965 0.9964 0.9963
3659.000000 0.9962 0.9961 0.9960 0.9959 0.9958
3664.000000 0.9957 0.9956 0.9955 0.9954 0.9953
3669.000000 0.9945 0.9938 0.9930 0.9923 0.9916
3674.000000 0.9909 0.9901 0.9894 0.9887 0.9880
3679.000000 0.9873 0.9866 0.9862 0.9859 0.9855
3684.000000 0.9852 0.9850 0.9849 0.9855 0.9861
3689.000000 0.9866 0.9871 0.9878 0.9886 0.9896
3694.000000 0.9907 0.9917 0.9928 0.9932 0.9936
3699.000000 0.9937 0.9938 0.9939 0.9940 0.9941
3704.000000 0.9942 0.9942 0.9942 0.9941 0.9941
3709.000000 0.9940 0.9940 0.9940 0.9940 0.9939
3714.000000 0.9939 0.9938 0.9938 0.9937 0.9937
3719.000000 0.9936 0.9936 0.9935 0.9935 0.9934
3724.000000 0.9934 0.9933 0.9933 0.9932 0.9932
3729.000000 0.9931 0.9931 0.9930 0.9930 0.9928
3734.000000 0.9928 0.9928 0.9927 0.9925 0.9925
3739.000000 0.9925 0.9925 0.9924 0.9924 0.9924
3744.000000 0.9924 0.9923 0.9923 0.9923 0.9923
3749.000000 0.9923 0.9923 0.9921 0.9921 0.9921
3754.000000 0.9921 0.9921 0.9921 0.9921 0.9921
3759.000000 0.9921 0.9921 0.9921 0.9921 0.9921
3764.000000 0.9921 0.9921 0.9921 0.9921 0.9921
3769.000000 0.9921 0.9921 0.9921 0.9921 0.9921
3774.000000 0.9921 0.9921 0.9921 0.9921 0.9923
3779.000000 0.9924 0.9925 0.9925 0.9928 0.9928
3784.000000 0.9931 0.9932 0.9934 0.9935 0.9936
3789.000000 0.9937 0.9939 0.9940 0.9942 0.9943
3794.000000 0.9944 0.9945 0.9947 0.9948 0.9950
3799.000000 0.9951 0.9952
##END=
