##TITLE=NEOABIETIC ACID
##JCAMP-DX=4.24
$$ By DXEDIT 1.05 (RS McDonald)
##DATA TYPE=INFRARED SPECTRUM
##CLASS=COBLENTZ II
##ORIGIN=DOW CORNING CORP.
##OWNER=COBLENTZ SOC.
Collection (C) 2018 copyright by the U.S. Secretary of Commerce
on behalf of the United States of America. All rights reserved.
##DATE=1969/05/23
##NAMES=abieta-8(14),13(15)-dien-18-oic acid
##CAS REGISTRY NO=471-77-2
##MOLFORM=C20 H30 O2
##SOURCE REFERENCE=COBLENTZ NO. 06084
##$NIST SOURCE=COBLENTZ
##$NIST IMAGE=cob6084
##SPECTROMETER/DATA SYSTEM=PERKIN-ELMER 521 (GRATING)
##INSTRUMENT PARAMETERS=FILTERS AT 3150, 2500, 2000, 1150, 700, 410. GRATING CHANGES: 2000, 630
##STATE=SOLID (SPLIT MULL), HALOCARBON FOR 3800-1300 AND MINERAL OIL FOR 1300-225 CM^-^1
$$ HIGH PURITY PREP. NAVAL STORES LABORATORY, [Alpha]^25/D = +161.5 (2% IN ETHANOL)
##SAMPLING PROCEDURE=TRANSMISSION
##RESOLUTION=2
##DATA PROCESSING=DIGITIZED BY COBLENTZ SOCIETY (BATCH I) FROM HARD COPY
##XUNITS=1/CM
##YUNITS=TRANSMITTANCE
##XLABEL=Wavenumbers (cm-1)
##YLABEL=Transmittance
##XFACTOR=1
##YFACTOR=1
##DELTAX=1
##FIRSTX=3800
##LASTX=244
##FIRSTY=0.673
##MAXX=3800
##MINX=244
##MAXY=0.9913
##MINY=0.0876
##NPOINTS=3557
##XYDATA=(X++(Y..Y))
3800.000000 0.6730 0.6731 0.6732 0.6733 0.6735
3795.000000 0.6736 0.6738 0.6739 0.6740 0.6741
3790.000000 0.6743 0.6744 0.6745 0.6746 0.6748
3785.000000 0.6749 0.6750 0.6751 0.6753 0.6754
3780.000000 0.6756 0.6757 0.6758 0.6758 0.6761
3775.000000 0.6761 0.6762 0.6764 0.6765 0.6767
3770.000000 0.6768 0.6768 0.6771 0.6771 0.6774
3765.000000 0.6775 0.6775 0.6776 0.6778 0.6780
3760.000000 0.6781 0.6782 0.6784 0.6785 0.6786
3755.000000 0.6787 0.6789 0.6790 0.6791 0.6793
3750.000000 0.6796 0.6799 0.6803 0.6806 0.6808
3745.000000 0.6811 0.6815 0.6818 0.6821 0.6825
3740.000000 0.6828 0.6831 0.6835 0.6838 0.6841
3735.000000 0.6844 0.6848 0.6851 0.6855 0.6858
3730.000000 0.6861 0.6864 0.6868 0.6868 0.6868
3725.000000 0.6867 0.6865 0.6865 0.6865 0.6864
3720.000000 0.6864 0.6862 0.6862 0.6861 0.6861
3715.000000 0.6861 0.6861 0.6861 0.6861 0.6861
3710.000000 0.6864 0.6865 0.6867 0.6868 0.6869
3705.000000 0.6871 0.6872 0.6875 0.6876 0.6878
3700.000000 0.6880 0.6881 0.6883 0.6884 0.6886
3695.000000 0.6888 0.6890 0.6891 0.6893 0.6894
3690.000000 0.6896 0.6897 0.6899 0.6900 0.6901
3685.000000 0.6903 0.6905 0.6906 0.6908 0.6908
3680.000000 0.6910 0.6911 0.6911 0.6912 0.6914
3675.000000 0.6915 0.6915 0.6917 0.6918 0.6919
3670.000000 0.6921 0.6921 0.6922 0.6924 0.6925
3665.000000 0.6925 0.6928 0.6928 0.6930 0.6931
3660.000000 0.6932 0.6933 0.6934 0.6935 0.6937
3655.000000 0.6937 0.6938 0.6939 0.6940 0.6941
3650.000000 0.6942 0.6942 0.6943 0.6944 0.6945
3645.000000 0.6945 0.6946 0.6947 0.6948 0.6948
3640.000000 0.6949 0.6950 0.6951 0.6951 0.6953
3635.000000 0.6953 0.6954 0.6955 0.6956 0.6956
3630.000000 0.6957 0.6958 0.6958 0.6960 0.6961
3625.000000 0.6961 0.6961 0.6962 0.6964 0.6965
3620.000000 0.6965 0.6967 0.6968 0.6968 0.6968
3615.000000 0.6969 0.6971 0.6971 0.6972 0.6974
3610.000000 0.6975 0.6975 0.6976 0.6978 0.6978
3605.000000 0.6978 0.6980 0.6981 0.6982 0.6983
3600.000000 0.6984 0.6985 0.6986 0.6987 0.6988
3595.000000 0.6988 0.6989 0.6989 0.6989 0.6988
3590.000000 0.6986 0.6978 0.6969 0.6958 0.6949
3585.000000 0.6937 0.6937 0.6937 0.6949 0.6961
3580.000000 0.6974 0.6981 0.6989 0.6996 0.7004
3575.000000 0.7008 0.7014 0.7015 0.7017 0.7018
3570.000000 0.7018 0.7019 0.7021 0.7021 0.7021
3565.000000 0.7022 0.7024 0.7024 0.7025 0.7025
3560.000000 0.7025 0.7025 0.7026 0.7026 0.7028
3555.000000 0.7028 0.7030 0.7030 0.7031 0.7031
3550.000000 0.7032 0.7032 0.7033 0.7034 0.7035
3545.000000 0.7035 0.7036 0.7037 0.7038 0.7039
3540.000000 0.7040 0.7040 0.7041 0.7042 0.7043
3535.000000 0.7044 0.7045 0.7045 0.7046 0.7047
3530.000000 0.7048 0.7049 0.7050 0.7050 0.7051
3525.000000 0.7051 0.7053 0.7054 0.7055 0.7056
3520.000000 0.7057 0.7058 0.7058 0.7060 0.7061
3515.000000 0.7061 0.7061 0.7062 0.7064 0.7065
3510.000000 0.7065 0.7065 0.7065 0.7064 0.7062
3505.000000 0.7061 0.7061 0.7060 0.7058 0.7057
3500.000000 0.7056 0.7055 0.7054 0.7051 0.7051
3495.000000 0.7050 0.7089 0.7047 0.7046 0.7043
3490.000000 0.7041 0.7039 0.7037 0.7034 0.7032
3485.000000 0.7028 0.7026 0.7024 0.7021 0.7018
3480.000000 0.7017 0.7014 0.7011 0.7010 0.7008
3475.000000 0.7005 0.7003 0.6999 0.6996 0.6992
3470.000000 0.6989 0.6985 0.6982 0.6978 0.6975
3465.000000 0.6971 0.6967 0.6962 0.6960 0.6956
3460.000000 0.6953 0.6949 0.6946 0.6940 0.6934
3455.000000 0.6928 0.6922 0.6917 0.6911 0.6906
3450.000000 0.6900 0.6891 0.6882 0.6871 0.6860
3445.000000 0.6848 0.6837 0.6825 0.6815 0.6804
3440.000000 0.6793 0.6769 0.6748 0.6724 0.6701
3435.000000 0.6678 0.6655 0.6631 0.6607 0.6575
3430.000000 0.6546 0.6515 0.6486 0.6455 0.6425
3425.000000 0.6395 0.6365 0.6334 0.6304 0.6273
3420.000000 0.6242 0.6210 0.6180 0.6149 0.6118
3415.000000 0.6089 0.6060 0.6037 0.6012 0.5989
3410.000000 0.5965 0.5940 0.5916 0.5892 0.5868
3405.000000 0.5842 0.5817 0.5789 0.5762 0.5734
3400.000000 0.5707 0.5679 0.5652 0.5624 0.5597
3395.000000 0.5569 0.5542 0.5509 0.5477 0.5439
3390.000000 0.5402 0.5364 0.5327 0.5289 0.5252
3385.000000 0.5214 0.5177 0.5139 0.5101 0.5058
3380.000000 0.5016 0.4973 0.4931 0.4889 0.4847
3375.000000 0.4804 0.4762 0.4727 0.4693 0.4659
3370.000000 0.4625 0.4591 0.4558 0.4524 0.4490
3365.000000 0.4456 0.4423 0.4387 0.4352 0.4316
3360.000000 0.4280 0.4244 0.4208 0.4172 0.4136
3355.000000 0.4099 0.4062 0.4025 0.3988 0.3950
3350.000000 0.3912 0.3871 0.3829 0.3782 0.3736
3345.000000 0.3689 0.3642 0.3598 0.3554 0.3516
3340.000000 0.3479 0.3441 0.3404 0.3366 0.3329
3335.000000 0.3291 0.3254 0.3208 0.3163 0.3117
3330.000000 0.3072 0.3039 0.3007 0.2977 0.2947
3325.000000 0.2917 0.2888 0.2858 0.2828 0.2798
3320.000000 0.2768 0.2738 0.2709 0.2684 0.2659
3315.000000 0.2631 0.2603 0.2578 0.2554 0.2539
3310.000000 0.2525 0.2511 0.2497 0.2484 0.2472
3305.000000 0.2460 0.2448 0.2435 0.2424 0.2415
3300.000000 0.2407 0.2398 0.2390 0.2382 0.2374
3295.000000 0.2366 0.2358 0.2350 0.2342 0.2338
3290.000000 0.2334 0.2331 0.2328 0.2324 0.2321
3285.000000 0.2318 0.2315 0.2312 0.2310 0.2308
3280.000000 0.2306 0.2304 0.2303 0.2303 0.2303
3275.000000 0.2303 0.2303 0.2303 0.2303 0.2303
3270.000000 0.2304 0.2306 0.2308 0.2310 0.2312
3265.000000 0.2314 0.2316 0.2318 0.2320 0.2322
3260.000000 0.2325 0.2327 0.2329 0.2334 0.2339
3255.000000 0.2345 0.2351 0.2356 0.2362 0.2368
3250.000000 0.2374 0.2380 0.2385 0.2391 0.2397
3245.000000 0.2404 0.2411 0.2418 0.2425 0.2432
3240.000000 0.2440 0.2447 0.2455 0.2462 0.2470
3235.000000 0.2477 0.2484 0.2492 0.2500 0.2507
3230.000000 0.2514 0.2522 0.2531 0.2540 0.2550
3225.000000 0.2559 0.2569 0.2579 0.2589 0.2598
3220.000000 0.2608 0.2617 0.2627 0.2637 0.2647
3215.000000 0.2656 0.2666 0.2675 0.2684 0.2695
3210.000000 0.2705 0.2717 0.2730 0.2746 0.2762
3205.000000 0.2777 0.2793 0.2808 0.2824 0.2839
3200.000000 0.2855 0.2870 0.2885 0.2902 0.2918
3195.000000 0.2933 0.2949 0.2964 0.2980 0.2994
3190.000000 0.3009 0.3023 0.3038 0.3052 0.3067
3185.000000 0.3081 0.3096 0.3110 0.3125 0.3140
3180.000000 0.3155 0.3168 0.3182 0.3195 0.3209
3175.000000 0.3222 0.3234 0.3248 0.3262 0.3275
3170.000000 0.3289 0.3302 0.3314 0.3328 0.3342
3165.000000 0.3358 0.3375 0.3393 0.3412 0.3430
3160.000000 0.3449 0.3466 0.3484 0.3503 0.3522
3155.000000 0.3544 0.3566 0.3596 0.3625 0.3660
3150.000000 0.3697 0.3750 0.3803 0.3870 0.3938
3145.000000 0.3991 0.4045 0.4064 0.4082 0.4101
3140.000000 0.4119 0.4136 0.4154 0.4172 0.4190
3135.000000 0.4207 0.4225 0.4244 0.4264 0.4286
3130.000000 0.4309 0.4332 0.4355 0.4377 0.4400
3125.000000 0.4422 0.4445 0.4465 0.4486 0.4505
3120.000000 0.4525 0.4544 0.4564 0.4583 0.4603
3115.000000 0.4622 0.4642 0.4658 0.4674 0.4690
3110.000000 0.4706 0.4722 0.4738 0.4754 0.4770
3105.000000 0.4786 0.4802 0.4816 0.4831 0.4845
3100.000000 0.4860 0.4874 0.4889 0.4904 0.4919
3095.000000 0.4932 0.4946 0.4958 0.4970 0.4982
3090.000000 0.4995 0.5007 0.5020 0.5032 0.5044
3085.000000 0.5056 0.5069 0.5082 0.5095 0.5108
3080.000000 0.5121 0.5134 0.5147 0.5160 0.5173
3075.000000 0.5186 0.5199 0.5212 0.5227 0.5241
3070.000000 0.5255 0.5269 0.5283 0.5296 0.5310
3065.000000 0.5323 0.5336 0.5344 0.5353 0.5358
3060.000000 0.5364 0.5369 0.5403 0.5380 0.5385
3055.000000 0.5387 0.5389 0.5390 0.5392 0.5393
3050.000000 0.5395 0.5351 0.5307 0.5230 0.5154
3045.000000 0.5078 0.4984 0.5003 0.5003 0.5035
3040.000000 0.5068 0.5105 0.5143 0.5180 0.5218
3035.000000 0.5255 0.5293 0.5319 0.5346 0.5354
3030.000000 0.5362 0.5370 0.5378 0.5383 0.5389
3025.000000 0.5392 0.5405 0.5397 0.5398 0.5389
3020.000000 0.5380 0.5326 0.5272 0.5046 0.4820
3015.000000 0.4577 0.4335 0.4218 0.4102 0.4102
3010.000000 0.4102 0.4101 0.4100 0.4099 0.4099
3005.000000 0.4056 0.4012 0.3937 0.3862 0.3860
3000.000000 0.3860 0.3860 0.3860 0.3860 0.3860
2995.000000 0.3860 0.3862 0.3862 0.3862 0.3862
2990.000000 0.3862 0.3862 0.3864 0.3645 0.3426
2985.000000 0.2935 0.2447 0.2448 0.2474 0.2484
2980.000000 0.2520 0.2604 0.2689 0.2774 0.2859
2975.000000 0.2943 0.3028 0.3112 0.3197 0.3280
2970.000000 0.3366 0.3450 0.3534 0.3534 0.3534
2965.000000 0.3534 0.3568 0.3396 0.3259 0.3073
2960.000000 0.2888 0.2703 0.2518 0.2332 0.2147
2955.000000 0.1962 0.1777 0.1591 0.1406 0.1265
2950.000000 0.1124 0.1123 0.1123 0.1123 0.1123
2945.000000 0.1160 0.1196 0.1235 0.1273 0.1311
2940.000000 0.1350 0.1362 0.1361 0.1360 0.1345
2935.000000 0.1302 0.1260 0.1218 0.1176 0.1134
2930.000000 0.1092 0.1072 0.1076 0.1082 0.1113
2925.000000 0.1190 0.1268 0.1346 0.1424 0.1496
2920.000000 0.1568 0.1645 0.1724 0.1796 0.1870
2915.000000 0.1920 0.1971 0.2017 0.2064 0.2110
2910.000000 0.2156 0.2204 0.2252 0.2305 0.2358
2905.000000 0.2422 0.2485 0.2544 0.2603 0.2625
2900.000000 0.2648 0.2661 0.2675 0.2693 0.2712
2895.000000 0.2738 0.2765 0.2799 0.2834 0.2882
2890.000000 0.2931 0.2965 0.3000 0.3009 0.3018
2885.000000 0.3024 0.3052 0.3033 0.3035 0.3039
2880.000000 0.3038 0.3038 0.3034 0.2940 0.2845
2875.000000 0.2750 0.2656 0.2561 0.2466 0.2371
2870.000000 0.2277 0.2259 0.2242 0.2308 0.2226
2865.000000 0.2469 0.2564 0.2659 0.2755 0.2850
2860.000000 0.2945 0.3001 0.3058 0.3066 0.3075
2855.000000 0.3084 0.3095 0.3115 0.3134 0.3160
2850.000000 0.3184 0.3266 0.3347 0.3476 0.3605
2845.000000 0.3732 0.3994 0.3937 0.4012 0.4009
2840.000000 0.4008 0.3780 0.3554 0.3474 0.3394
2835.000000 0.3426 0.3459 0.3495 0.3532 0.3568
2830.000000 0.3606 0.3630 0.3656 0.3634 0.3612
2825.000000 0.3497 0.3156 0.3264 0.3148 0.3119
2820.000000 0.3090 0.3343 0.3597 0.4009 0.4423
2815.000000 0.4726 0.5029 0.5077 0.5125 0.5173
2810.000000 0.5221 0.5269 0.5317 0.5362 0.5408
2805.000000 0.5453 0.5498 0.5543 0.5589 0.5634
2800.000000 0.5679 0.5724 0.5769 0.5819 0.5869
2795.000000 0.5921 0.5974 0.6026 0.6079 0.6125
2790.000000 0.6171 0.6202 0.6233 0.6264 0.6296
2785.000000 0.6327 0.6359 0.6390 0.6421 0.6449
2780.000000 0.6476 0.6504 0.6531 0.6558 0.6586
2775.000000 0.6612 0.6640 0.6658 0.6675 0.6691
2770.000000 0.6706 0.6719 0.6735 0.6749 0.6764
2765.000000 0.6775 0.6787 0.6794 0.6801 0.6807
2760.000000 0.6814 0.6819 0.6826 0.6834 0.6841
2755.000000 0.6845 0.6850 0.6851 0.6855 0.6857
2750.000000 0.6858 0.6861 0.6864 0.6865 0.6868
2745.000000 0.6871 0.6874 0.6875 0.6878 0.6881
2740.000000 0.6884 0.6887 0.6890 0.6892 0.6895
2735.000000 0.6897 0.6900 0.6905 0.6911 0.6915
2730.000000 0.6921 0.6931 0.6941 0.6955 0.6969
2725.000000 0.6984 0.6999 0.7014 0.7028 0.7043
2720.000000 0.7057 0.7068 0.7078 0.7090 0.7101
2715.000000 0.7112 0.7124 0.7135 0.7146 0.7157
2710.000000 0.7168 0.7172 0.7178 0.7182 0.7187
2705.000000 0.7191 0.7195 0.7199 0.7204 0.7208
2700.000000 0.7212 0.7217 0.7221 0.7225 0.7230
2695.000000 0.7233 0.7237 0.7239 0.7242 0.7244
2690.000000 0.7247 0.7249 0.7251 0.7254 0.7257
2685.000000 0.7258 0.7261 0.7262 0.7265 0.7265
2680.000000 0.7267 0.7268 0.7268 0.7268 0.7269
2675.000000 0.7271 0.7271 0.7272 0.7272 0.7272
2670.000000 0.7272 0.7260 0.7248 0.7232 0.7217
2665.000000 0.7207 0.7197 0.7190 0.7183 0.7175
2660.000000 0.7168 0.7165 0.7165 0.7165 0.7168
2655.000000 0.7174 0.7181 0.7192 0.7203 0.7212
2650.000000 0.7224 0.7235 0.7246 0.7257 0.7268
2645.000000 0.7278 0.7290 0.7300 0.7311 0.7321
2640.000000 0.7332 0.7342 0.7351 0.7361 0.7372
2635.000000 0.7383 0.7394 0.7404 0.7415 0.7425
2630.000000 0.7436 0.7446 0.7457 0.7464 0.7471
2625.000000 0.7478 0.7485 0.7492 0.7499 0.7505
2620.000000 0.7511 0.7518 0.7525 0.7532 0.7539
2615.000000 0.7538 0.7537 0.7536 0.7535 0.7534
2610.000000 0.7533 0.7532 0.7531 0.7531 0.7532
2605.000000 0.7533 0.7535 0.7536 0.7538 0.7539
2600.000000 0.7541 0.7542 0.7544 0.7545 0.7547
2595.000000 0.7548 0.7550 0.7551 0.7553 0.7554
2590.000000 0.7556 0.7557 0.7558 0.7560 0.7561
2585.000000 0.7564 0.7565 0.7568 0.7569 0.7571
2580.000000 0.7574 0.7575 0.7576 0.7578 0.7581
2575.000000 0.7583 0.7585 0.7587 0.7589 0.7591
2570.000000 0.7593 0.7595 0.7597 0.7599 0.7601
2565.000000 0.7603 0.7605 0.7606 0.7608 0.7610
2560.000000 0.7611 0.7614 0.7615 0.7617 0.7618
2555.000000 0.7621 0.7622 0.7624 0.7625 0.7628
2550.000000 0.7630 0.7631 0.7633 0.7635 0.7637
2545.000000 0.7638 0.7640 0.7642 0.7644 0.7645
2540.000000 0.7646 0.7646 0.7646 0.7646 0.7646
2535.000000 0.7646 0.7646 0.7646 0.7646 0.7646
2530.000000 0.7646 0.7645 0.7645 0.7645 0.7645
2525.000000 0.7644 0.7644 0.7644 0.7644 0.7643
2520.000000 0.7643 0.7642 0.7642 0.7641 0.7641
2515.000000 0.7641 0.7641 0.7642 0.7644 0.7645
2510.000000 0.7647 0.7649 0.7651 0.7651 0.7654
2505.000000 0.7657 0.7661 0.7667 0.7672 0.7678
2500.000000 0.7686 0.7694 0.7701 0.7708 0.7717
2495.000000 0.7725 0.7733 0.7740 0.7747 0.7754
2490.000000 0.7761 0.7768 0.7775 0.7782 0.7789
2485.000000 0.7796 0.7803 0.7810 0.7817 0.7821
2480.000000 0.7825 0.7830 0.7835 0.7840 0.7845
2475.000000 0.7849 0.7854 0.7858 0.7862 0.7865
2470.000000 0.7869 0.7872 0.7875 0.7878 0.7882
2465.000000 0.7885 0.7888 0.7891 0.7894 0.7897
2460.000000 0.7900 0.7903 0.7906 0.7908 0.7911
2455.000000 0.7911 0.7914 0.7914 0.7915 0.7915
2450.000000 0.7917 0.7918 0.7918 0.7919 0.7921
2445.000000 0.7921 0.7922 0.7924 0.7925 0.7925
2440.000000 0.7926 0.7928 0.7928 0.7932 0.7935
2435.000000 0.7939 0.7944 0.7948 0.7951 0.7956
2430.000000 0.7961 0.7965 0.7968 0.7972 0.7978
2425.000000 0.7982 0.7987 0.7991 0.7995 0.7999
2420.000000 0.8004 0.8008 0.8011 0.8015 0.8021
2415.000000 0.8025 0.8031 0.8035 0.8040 0.8044
2410.000000 0.8049 0.8054 0.8058 0.8062 0.8068
2405.000000 0.8069 0.8072 0.8075 0.8076 0.8078
2400.000000 0.8080 0.8082 0.8084 0.8085 0.8087
2395.000000 0.8088 0.8088 0.8088 0.8088 0.8087
2390.000000 0.8086 0.8085 0.8085 0.8084 0.8083
2385.000000 0.8083 0.8083 0.8084 0.8088 0.8092
2380.000000 0.8096 0.8100 0.8104 0.8108 0.8111
2375.000000 0.8115 0.8118 0.8122 0.8126 0.8131
2370.000000 0.8135 0.8139 0.8143 0.8147 0.8151
2365.000000 0.8154 0.8158 0.8161 0.8165 0.8169
2360.000000 0.8174 0.8178 0.8184 0.8189 0.8194
2355.000000 0.8199 0.8205 0.8211 0.8218 0.8213
2350.000000 0.8209 0.8204 0.8199 0.8194 0.8190
2345.000000 0.8186 0.8183 0.8178 0.8175 0.8171
2340.000000 0.8168 0.8169 0.8171 0.8174 0.8176
2335.000000 0.8180 0.8183 0.8184 0.8185 0.8185
2330.000000 0.8185 0.8184 0.8184 0.8183 0.8182
2325.000000 0.8181 0.8181 0.8180 0.8180 0.8178
2320.000000 0.8178 0.8178 0.8178 0.8178 0.8180
2315.000000 0.8181 0.8182 0.8183 0.8184 0.8185
2310.000000 0.8187 0.8188 0.8189 0.8190 0.8191
2305.000000 0.8192 0.8193 0.8194 0.8195 0.8196
2300.000000 0.8198 0.8199 0.8200 0.8202 0.8205
2295.000000 0.8207 0.8209 0.8211 0.8214 0.8216
2290.000000 0.8218 0.8220 0.8223 0.8225 0.8227
2285.000000 0.8228 0.8232 0.8234 0.8236 0.8238
2280.000000 0.8241 0.8243 0.8245 0.8247 0.8250
2275.000000 0.8253 0.8256 0.8260 0.8264 0.8268
2270.000000 0.8271 0.8275 0.8280 0.8284 0.8288
2265.000000 0.8292 0.8296 0.8300 0.8304 0.8308
2260.000000 0.8312 0.8316 0.8320 0.8324 0.8328
2255.000000 0.8334 0.8339 0.8344 0.8350 0.8355
2250.000000 0.8360 0.8365 0.8371 0.8375 0.8381
2245.000000 0.8386 0.8392 0.8398 0.8404 0.8410
2240.000000 0.8417 0.8423 0.8428 0.8435 0.8442
2235.000000 0.8448 0.8454 0.8460 0.8467 0.8473
2230.000000 0.8478 0.8485 0.8492 0.8498 0.8505
2225.000000 0.8511 0.8517 0.8523 0.8528 0.8535
2220.000000 0.8542 0.8548 0.8554 0.8560 0.8566
2215.000000 0.8571 0.8578 0.8584 0.8590 0.8594
2210.000000 0.8599 0.8603 0.8608 0.8612 0.8617
2205.000000 0.8621 0.8627 0.8631 0.8636 0.8640
2200.000000 0.8645 0.8646 0.8647 0.8647 0.8648
2195.000000 0.8648 0.8649 0.8649 0.8649 0.8649
2190.000000 0.8649 0.8649 0.8649 0.8649 0.8649
2185.000000 0.8649 0.8649 0.8649 0.8649 0.8649
2180.000000 0.8649 0.8649 0.8649 0.8649 0.8649
2175.000000 0.8654 0.8659 0.8664 0.8670 0.8675
2170.000000 0.8681 0.8686 0.8692 0.8697 0.8703
2165.000000 0.8708 0.8714 0.8718 0.8725 0.8730
2160.000000 0.8736 0.8742 0.8748 0.8754 0.8761
2155.000000 0.8767 0.8773 0.8778 0.8785 0.8791
2150.000000 0.8797 0.8803 0.8810 0.8815 0.8820
2145.000000 0.8825 0.8831 0.8836 0.8841 0.8846
2140.000000 0.8851 0.8856 0.8861 0.8866 0.8871
2135.000000 0.8875 0.8881 0.8885 0.8890 0.8894
2130.000000 0.8899 0.8902 0.8906 0.8907 0.8908
2125.000000 0.8909 0.8910 0.8911 0.8912 0.8913
2120.000000 0.8914 0.8915 0.8916 0.8917 0.8918
2115.000000 0.8918 0.8921 0.8921 0.8924 0.8925
2110.000000 0.8927 0.8928 0.8930 0.8932 0.8934
2105.000000 0.8935 0.8937 0.8938 0.8940 0.8941
2100.000000 0.8943 0.8944 0.8946 0.8947 0.8949
2095.000000 0.8950 0.8952 0.8955 0.8959 0.8962
2090.000000 0.8966 0.8970 0.8974 0.8978 0.8982
2085.000000 0.8985 0.8989 0.8993 0.8997 0.9001
2080.000000 0.9005 0.9009 0.9013 0.9017 0.9021
2075.000000 0.9025 0.9030 0.9034 0.9039 0.9043
2070.000000 0.9048 0.9052 0.9057 0.9060 0.9063
2065.000000 0.9065 0.9067 0.9068 0.9071 0.9073
2060.000000 0.9075 0.9078 0.9080 0.9082 0.9085
2055.000000 0.9088 0.9091 0.9094 0.9097 0.9099
2050.000000 0.9102 0.9105 0.9108 0.9111 0.9114
2045.000000 0.9116 0.9118 0.9121 0.9123 0.9125
2040.000000 0.9128 0.9130 0.9132 0.9134 0.9137
2035.000000 0.9139 0.9141 0.9143 0.9146 0.9149
2030.000000 0.9152 0.9155 0.9158 0.9161 0.9164
2025.000000 0.9167 0.9170 0.9173 0.9175 0.9178
2020.000000 0.9183 0.9186 0.9190 0.9194 0.9198
2015.000000 0.9201 0.9205 0.9208 0.9212 0.9214
2010.000000 0.9217 0.9220 0.9223 0.9225 0.9228
2005.000000 0.9237 0.9247 0.9267 0.9287 0.9328
2000.000000 0.9368 0.9410 0.9450 0.9491 0.9532
1995.000000 0.9537 0.9535 0.9534 0.9532 0.9530
1990.000000 0.9528 0.9527 0.9525 0.9523 0.9521
1985.000000 0.9521 0.9520 0.9520 0.9518 0.9518
1980.000000 0.9518 0.9517 0.9517 0.9518 0.9518
1975.000000 0.9520 0.9520 0.9521 0.9521 0.9521
1970.000000 0.9523 0.9524 0.9525 0.9525 0.9525
1965.000000 0.9527 0.9527 0.9528 0.9528 0.9530
1960.000000 0.9530 0.9532 0.9534 0.9535 0.9537
1955.000000 0.9539 0.9541 0.9542 0.9544 0.9546
1950.000000 0.9547 0.9549 0.9551 0.9552 0.9554
1945.000000 0.9556 0.9558 0.9559 0.9559 0.9560
1940.000000 0.9560 0.9560 0.9561 0.9561 0.9561
1935.000000 0.9562 0.9562 0.9563 0.9563 0.9563
1930.000000 0.9564 0.9564 0.9564 0.9565 0.9566
1925.000000 0.9568 0.9568 0.9570 0.9571 0.9573
1920.000000 0.9573 0.9573 0.9570 0.9568 0.9565
1915.000000 0.9562 0.9559 0.9557 0.9554 0.9550
1910.000000 0.9546 0.9543 0.9539 0.9536 0.9532
1905.000000 0.9528 0.9528 0.9528 0.9531 0.9533
1900.000000 0.9535 0.9537 0.9539 0.9541 0.9543
1895.000000 0.9545 0.9547 0.9549 0.9552 0.9554
1890.000000 0.9557 0.9560 0.9563 0.9566 0.9568
1885.000000 0.9571 0.9575 0.9577 0.9580 0.9583
1880.000000 0.9586 0.9589 0.9591 0.9593 0.9594
1875.000000 0.9596 0.9598 0.9600 0.9601 0.9603
1870.000000 0.9605 0.9607 0.9608 0.9610 0.9612
1865.000000 0.9614 0.9615 0.9617 0.9618 0.9618
1860.000000 0.9618 0.9618 0.9618 0.9618 0.9618
1855.000000 0.9618 0.9618 0.9618 0.9620 0.9620
1850.000000 0.9620 0.9620 0.9620 0.9620 0.9620
1845.000000 0.9621 0.9621 0.9621 0.9621 0.9621
1840.000000 0.9621 0.9621 0.9621 0.9621 0.9621
1835.000000 0.9621 0.9621 0.9621 0.9621 0.9620
1830.000000 0.9620 0.9620 0.9618 0.9618 0.9618
1825.000000 0.9618 0.9617 0.9617 0.9617 0.9616
1820.000000 0.9615 0.9613 0.9612 0.9611 0.9610
1815.000000 0.9609 0.9607 0.9602 0.9597 0.9592
1810.000000 0.9587 0.9582 0.9578 0.9568 0.9557
1805.000000 0.9545 0.9532 0.9516 0.9500 0.9485
1800.000000 0.9468 0.9453 0.9437 0.9421 0.9406
1795.000000 0.9386 0.9365 0.9345 0.9328 0.9313
1790.000000 0.9297 0.9281 0.9267 0.9254 0.9242
1785.000000 0.9236 0.9236 0.9236 0.9235 0.9233
1780.000000 0.9232 0.9227 0.9223 0.9218 0.9214
1775.000000 0.9209 0.9205 0.9200 0.9194 0.9188
1770.000000 0.9183 0.9177 0.9171 0.9159 0.9146
1765.000000 0.9134 0.9121 0.9109 0.9095 0.9081
1760.000000 0.9067 0.9053 0.9039 0.9018 0.8997
1755.000000 0.8959 0.8914 0.8875 0.8838 0.8796
1750.000000 0.8745 0.8695 0.8644 0.8595 0.8549
1745.000000 0.8503 0.8449 0.8389 0.8328 0.8268
1740.000000 0.8182 0.8094 0.7921 0.7688 0.7355
1735.000000 0.7110 0.6918 0.6743 0.6147 0.5533
1730.000000 0.5119 0.4647 0.4176 0.3705 0.3234
1725.000000 0.2762 0.2291 0.1820 0.1349 0.0876
1720.000000 0.0876 0.0876 0.1229 0.1582 0.1934
1715.000000 0.2288 0.2641 0.2994 0.3347 0.3700
1710.000000 0.4053 0.4210 0.4227 0.4235 0.4256
1705.000000 0.4216 0.4018 0.3822 0.3626 0.3429
1700.000000 0.3232 0.2927 0.2672 0.2442 0.2210
1695.000000 0.2045 0.1898 0.1767 0.1654 0.1552
1690.000000 0.1458 0.1401 0.1354 0.1306 0.1278
1685.000000 0.1258 0.1290 0.1286 0.1410 0.1789
1680.000000 0.2069 0.2313 0.2457 0.2601 0.2745
1675.000000 0.2888 0.3032 0.3176 0.3324 0.3692
1670.000000 0.3809 0.3927 0.4672 0.4932 0.5064
1665.000000 0.5196 0.5301 0.5367 0.5433 0.5499
1660.000000 0.5565 0.5631 0.5697 0.5762 0.5828
1655.000000 0.5892 0.5957 0.6022 0.6086 0.6153
1650.000000 0.6220 0.6286 0.6353 0.6419 0.6482
1645.000000 0.6543 0.6603 0.6662 0.6721 0.6769
1640.000000 0.6818 0.6867 0.6915 0.6968 0.7022
1635.000000 0.7090 0.7146 0.7193 0.7243 0.7317
1630.000000 0.7356 0.7375 0.7385 0.7353 0.7292
1625.000000 0.7231 0.7169 0.7125 0.7132 0.7158
1620.000000 0.7230 0.7272 0.7315 0.7361 0.7418
1615.000000 0.7478 0.7536 0.7584 0.7626 0.7668
1610.000000 0.7711 0.7749 0.7768 0.7788 0.7807
1605.000000 0.7830 0.7856 0.7882 0.7908 0.7935
1600.000000 0.7961 0.7985 0.8010 0.8035 0.8060
1595.000000 0.8084 0.8108 0.8128 0.8148 0.8167
1590.000000 0.8187 0.8207 0.8227 0.8247 0.8263
1585.000000 0.8275 0.8287 0.8299 0.8311 0.8323
1580.000000 0.8335 0.8347 0.8359 0.8371 0.8383
1575.000000 0.8395 0.8407 0.8418 0.8431 0.8443
1570.000000 0.8455 0.8466 0.8478 0.8490 0.8503
1565.000000 0.8514 0.8521 0.8528 0.8535 0.8542
1560.000000 0.8549 0.8555 0.8562 0.8568 0.8575
1555.000000 0.8582 0.8587 0.8593 0.8599 0.8605
1550.000000 0.8610 0.8616 0.8621 0.8628 0.8633
1545.000000 0.8639 0.8645 0.8648 0.8651 0.8654
1540.000000 0.8657 0.8660 0.8663 0.8665 0.8668
1535.000000 0.8671 0.8674 0.8677 0.8681 0.8685
1530.000000 0.8689 0.8693 0.8698 0.8702 0.8706
1525.000000 0.8710 0.8712 0.8714 0.8717 0.8718
1520.000000 0.8721 0.8724 0.8725 0.8728 0.8730
1515.000000 0.8732 0.8720 0.8736 0.8738 0.8740
1510.000000 0.8742 0.8744 0.8746 0.8748 0.8750
1505.000000 0.8750 0.8750 0.8749 0.8749 0.8749
1500.000000 0.8749 0.8749 0.8748 0.8745 0.8742
1495.000000 0.8738 0.8725 0.8701 0.8675 0.8650
1490.000000 0.8630 0.8625 0.8620 0.8615 0.8610
1485.000000 0.8606 0.8591 0.8558 0.8525 0.8489
1480.000000 0.8401 0.8313 0.8220 0.8126 0.8034
1475.000000 0.7890 0.7701 0.7549 0.7417 0.7308
1470.000000 0.7194 0.6960 0.6637 0.6312 0.5990
1465.000000 0.5666 0.5343 0.5019 0.4696 0.4372
1460.000000 0.4053 0.4022 0.4066 0.4323 0.4579
1455.000000 0.4834 0.5090 0.5162 0.5115 0.4962
1450.000000 0.4810 0.4659 0.4537 0.4524 0.4552
1445.000000 0.4662 0.4773 0.4883 0.4994 0.5104
1440.000000 0.5215 0.5237 0.5239 0.5243 0.5253
1435.000000 0.5269 0.5357 0.5449 0.5541 0.5630
1430.000000 0.5630 0.5597 0.5502 0.5408 0.5327
1425.000000 0.5340 0.5716 0.6092 0.6434 0.6697
1420.000000 0.6840 0.6971 0.7101 0.7225 0.7331
1415.000000 0.7385 0.7439 0.7476 0.7506 0.7521
1410.000000 0.7530 0.7537 0.7545 0.7554 0.7561
1405.000000 0.7569 0.7578 0.7587 0.7596 0.7604
1400.000000 0.7611 0.7619 0.7635 0.7628 0.7618
1395.000000 0.7593 0.7560 0.7455 0.6534 0.5966
1390.000000 0.5397 0.4829 0.4260 0.3692 0.3123
1385.000000 0.2831 0.2839 0.2982 0.3716 0.4450
1380.000000 0.5184 0.5917 0.6323 0.6384 0.6486
1375.000000 0.6468 0.6474 0.6480 0.6480 0.6164
1370.000000 0.5160 0.4308 0.4304 0.4410 0.4554
1365.000000 0.4697 0.4834 0.4841 0.4779 0.4566
1360.000000 0.4416 0.4439 0.4422 0.4574 0.4771
1355.000000 0.4967 0.5162 0.5359 0.5556 0.5752
1350.000000 0.5948 0.6144 0.6341 0.6537 0.6733
1345.000000 0.6908 0.6984 0.7034 0.7078 0.7110
1340.000000 0.7138 0.7158 0.7175 0.7191 0.7208
1335.000000 0.7208 0.7215 0.7065 0.6908 0.6922
1330.000000 0.6943 0.6969 0.6992 0.7004 0.6996
1325.000000 0.6989 0.6981 0.6964 0.6944 0.6918
1320.000000 0.6875 0.6805 0.6714 0.6618 0.6515
1315.000000 0.6401 0.6297 0.5103 0.5380 0.5058
1310.000000 0.5086 0.5360 0.5832 0.5934 0.5988
1305.000000 0.6071 0.6047 0.6022 0.6018 0.6016
1300.000000 0.6360 0.6699 0.6799 0.6867 0.6928
1295.000000 0.6982 0.7028 0.7058 0.7078 0.7078
1290.000000 0.7078 0.7106 0.7062 0.7044 0.7025
1285.000000 0.6994 0.6958 0.6922 0.6888 0.6847
1280.000000 0.6804 0.6761 0.6715 0.6641 0.6565
1275.000000 0.6450 0.6271 0.5984 0.6012 0.6008
1270.000000 0.6047 0.6145 0.6226 0.6301 0.6369
1265.000000 0.6414 0.6480 0.6486 0.6493 0.6528
1260.000000 0.6485 0.6471 0.6457 0.6443 0.6443
1255.000000 0.6442 0.6617 0.6764 0.6871 0.6950
1250.000000 0.7017 0.7033 0.7044 0.7050 0.7033
1245.000000 0.7011 0.6968 0.6925 0.6868 0.6808
1240.000000 0.6741 0.6621 0.6430 0.6319 0.6156
1235.000000 0.5960 0.5766 0.5570 0.5375 0.5179
1230.000000 0.5179 0.5179 0.5236 0.5294 0.5351
1225.000000 0.5359 0.5353 0.4918 0.4401 0.4068
1220.000000 0.4068 0.4068 0.4135 0.4264 0.4393
1215.000000 0.4509 0.4509 0.4509 0.4412 0.4296
1210.000000 0.4179 0.4066 0.4047 0.4043 0.4366
1205.000000 0.4710 0.5056 0.5334 0.5379 0.5286
1200.000000 0.5169 0.5052 0.4935 0.4874 0.4849
1195.000000 0.4844 0.4983 0.5165 0.5348 0.5530
1190.000000 0.5712 0.5894 0.6076 0.6259 0.6441
1185.000000 0.6546 0.6557 0.6224 0.5877 0.5530
1180.000000 0.5181 0.4920 0.4810 0.4698 0.4580
1175.000000 0.4452 0.4314 0.3895 0.3458 0.3021
1170.000000 0.2311 0.2321 0.2318 0.2369 0.2442
1165.000000 0.2514 0.2560 0.2565 0.2557 0.2407
1160.000000 0.2265 0.2123 0.1979 0.1837 0.1695
1155.000000 0.1610 0.1589 0.1580 0.1575 0.1572
1150.000000 0.1568 0.1575 0.1599 0.1623 0.1712
1145.000000 0.1885 0.2128 0.2382 0.2635 0.2890
1140.000000 0.3144 0.3398 0.3652 0.3906 0.4160
1135.000000 0.4390 0.4409 0.4354 0.3959 0.3566
1130.000000 0.3173 0.2780 0.2385 0.2041 0.2010
1125.000000 0.2003 0.2006 0.2160 0.2885 0.3020
1120.000000 0.3163 0.3342 0.3598 0.4003 0.4124
1115.000000 0.4247 0.4398 0.4534 0.4626 0.4718
1110.000000 0.4784 0.4843 0.4902 0.4956 0.5010
1105.000000 0.5067 0.5126 0.5184 0.5251 0.5340
1100.000000 0.5448 0.5659 0.5907 0.6008 0.6084
1095.000000 0.6160 0.6239 0.6316 0.6393 0.6469
1090.000000 0.6547 0.6624 0.6701 0.6746 0.6765
1085.000000 0.6772 0.6778 0.6664 0.6484 0.6304
1080.000000 0.6141 0.6145 0.6230 0.6351 0.6472
1075.000000 0.6594 0.6649 0.6701 0.6751 0.6791
1070.000000 0.6831 0.6872 0.6906 0.6945 0.6933
1065.000000 0.6933 0.6933 0.6912 0.6884 0.6811
1060.000000 0.6843 0.6915 0.7005 0.7095 0.7185
1055.000000 0.7275 0.7443 0.7441 0.7265 0.7068
1050.000000 0.6868 0.6671 0.6511 0.6512 0.6660
1045.000000 0.6807 0.6954 0.7100 0.7247 0.7394
1040.000000 0.7541 0.7650 0.7601 0.7417 0.7233
1035.000000 0.7049 0.6890 0.6924 0.7024 0.7124
1030.000000 0.7224 0.7322 0.7422 0.7522 0.7586
1025.000000 0.7575 0.7574 0.7571 0.7412 0.7122
1020.000000 0.6833 0.6469 0.6475 0.6590 0.6762
1015.000000 0.6936 0.7108 0.7281 0.7454 0.7595
1010.000000 0.7610 0.7615 0.7535 0.7240 0.6946
1005.000000 0.6651 0.6461 0.6460 0.6448 0.7171
1000.000000 0.7775 0.7856 0.7938 0.8018 0.8101
995.000000 0.8158 0.8175 0.8185 0.8194 0.8198
990.000000 0.8198 0.8201 0.8196 0.8183 0.8171
985.000000 0.8153 0.8132 0.8099 0.8045 0.7964
980.000000 0.7462 0.6928 0.6537 0.6550 0.6583
975.000000 0.6753 0.6924 0.7095 0.7142 0.7125
970.000000 0.7058 0.6991 0.6950 0.6954 0.7068
965.000000 0.7245 0.7421 0.7597 0.7714 0.7765
960.000000 0.7797 0.7821 0.7846 0.7861 0.7878
955.000000 0.7894 0.7904 0.7912 0.7925 0.7937
950.000000 0.7942 0.7971 0.7931 0.7918 0.7750
945.000000 0.7535 0.7319 0.7105 0.6908 0.6951
940.000000 0.7062 0.7221 0.7378 0.7538 0.7696
935.000000 0.7811 0.7889 0.7965 0.7998 0.8017
930.000000 0.8038 0.8030 0.8022 0.8011 0.7994
925.000000 0.7875 0.7875 0.7874 0.7868 0.7878
920.000000 0.7915 0.7958 0.7972 0.7985 0.7992
915.000000 0.7998 0.7998 0.7998 0.7987 0.7953
910.000000 0.7887 0.7815 0.7731 0.7585 0.7274
905.000000 0.7082 0.6889 0.6696 0.6503 0.6310
900.000000 0.5753 0.5925 0.5732 0.5718 0.5895
895.000000 0.6121 0.6346 0.6571 0.6797 0.7021
890.000000 0.7236 0.7235 0.7235 0.6997 0.6521
885.000000 0.5937 0.5929 0.6002 0.6216 0.6430
880.000000 0.6497 0.6501 0.6512 0.5819 0.5289
875.000000 0.5279 0.5277 0.5456 0.5649 0.5843
870.000000 0.6037 0.6230 0.6424 0.6671 0.6636
865.000000 0.6642 0.6500 0.6201 0.5903 0.5322
860.000000 0.5310 0.5310 0.5454 0.5688 0.5922
855.000000 0.6156 0.6267 0.6276 0.6276 0.6275
850.000000 0.6267 0.6245 0.6224 0.6185 0.6140
845.000000 0.6087 0.6015 0.5943 0.5860 0.5774
840.000000 0.5687 0.5592 0.5451 0.5309 0.5160
835.000000 0.5012 0.4843 0.4667 0.4490 0.4387
830.000000 0.4175 0.3862 0.3550 0.3443 0.3448
825.000000 0.3468 0.3514 0.3589 0.3674 0.3795
820.000000 0.3894 0.3991 0.4133 0.4286 0.4438
815.000000 0.4587 0.4736 0.4926 0.5135 0.5329
810.000000 0.5518 0.5656 0.5778 0.5872 0.5948
805.000000 0.6024 0.6110 0.6196 0.6272 0.6345
800.000000 0.6415 0.6471 0.6525 0.6581 0.6628
795.000000 0.6671 0.6715 0.6757 0.6794 0.6833
790.000000 0.6857 0.6869 0.6881 0.6890 0.6815
785.000000 0.6740 0.6665 0.6591 0.6574 0.6569
780.000000 0.6569 0.6569 0.6660 0.6793 0.6993
775.000000 0.7121 0.7183 0.7224 0.7261 0.7299
770.000000 0.7336 0.7371 0.7407 0.7443 0.7478
765.000000 0.7515 0.7550 0.7584 0.7618 0.7651
760.000000 0.7686 0.7719 0.7743 0.7761 0.7780
755.000000 0.7799 0.7817 0.7836 0.7845 0.7851
750.000000 0.7856 0.7861 0.7867 0.7871 0.7875
745.000000 0.7880 0.7894 0.7894 0.7893 0.7898
740.000000 0.7901 0.7826 0.7621 0.7417 0.7211
735.000000 0.7006 0.6781 0.6734 0.6760 0.6858
730.000000 0.6958 0.7058 0.7158 0.7222 0.7238
725.000000 0.7253 0.7267 0.7283 0.7301 0.7162
720.000000 0.6956 0.6749 0.6541 0.6436 0.6471
715.000000 0.6705 0.6957 0.7208 0.7460 0.7711
710.000000 0.7939 0.7974 0.7999 0.8014 0.8028
705.000000 0.8025 0.7938 0.7491 0.7045 0.6599
700.000000 0.6152 0.5706 0.5260 0.4814 0.4367
695.000000 0.4087 0.4084 0.4130 0.4256 0.4907
690.000000 0.5557 0.6208 0.6840 0.7143 0.7353
685.000000 0.7525 0.7698 0.7875 0.8025 0.8165
680.000000 0.8271 0.8350 0.8428 0.8508 0.8588
675.000000 0.8668 0.8721 0.8749 0.8768 0.8789
670.000000 0.8809 0.8828 0.8847 0.8861 0.8875
665.000000 0.8887 0.8893 0.8898 0.8904 0.8906
660.000000 0.8907 0.8907 0.8908 0.8904 0.8900
655.000000 0.8893 0.8873 0.8853 0.8833 0.8796
650.000000 0.8714 0.8632 0.8427 0.8118 0.7657
645.000000 0.7196 0.6734 0.6273 0.5810 0.5642
640.000000 0.5638 0.5645 0.5827 0.6175 0.6521
635.000000 0.6868 0.7215 0.7564 0.7869 0.7989
630.000000 0.8108 0.8232 0.8364 0.8485 0.8565
625.000000 0.8645 0.8721 0.8793 0.8864 0.8925
620.000000 0.8985 0.9055 0.9127 0.9146 0.9165
615.000000 0.9180 0.9193 0.9203 0.9209 0.9191
610.000000 0.9167 0.9132 0.9085 0.9028 0.8968
605.000000 0.8875 0.8920 0.8930 0.8970 0.9010
600.000000 0.9056 0.9109 0.9165 0.9218 0.9258
595.000000 0.9277 0.9292 0.9299 0.9307 0.9307
590.000000 0.9302 0.9296 0.9270 0.9236 0.9186
585.000000 0.9132 0.9075 0.8989 0.8736 0.8788
580.000000 0.8766 0.8773 0.8802 0.8855 0.8912
575.000000 0.8984 0.9056 0.9127 0.9187 0.9234
570.000000 0.9264 0.9287 0.9308 0.9315 0.9321
565.000000 0.9328 0.9350 0.9331 0.9327 0.9324
560.000000 0.9317 0.9306 0.9294 0.9282 0.9255
555.000000 0.9223 0.9191 0.9135 0.9075 0.9023
550.000000 0.8978 0.8961 0.8956 0.8956 0.8955
545.000000 0.8955 0.8952 0.8903 0.8852 0.8801
540.000000 0.8749 0.8698 0.8647 0.8595 0.8544
535.000000 0.8493 0.8442 0.8390 0.8339 0.8288
530.000000 0.8250 0.8249 0.8249 0.8274 0.8324
525.000000 0.8504 0.8710 0.8899 0.9091 0.9188
520.000000 0.9265 0.9328 0.9363 0.9389 0.9410
515.000000 0.9425 0.9442 0.9459 0.9468 0.9475
510.000000 0.9478 0.9478 0.9480 0.9481 0.9478
505.000000 0.9471 0.9464 0.9457 0.9432 0.9395
500.000000 0.9327 0.9213 0.9107 0.9015 0.8935
495.000000 0.8855 0.8661 0.8560 0.8495 0.8468
490.000000 0.8480 0.8508 0.8546 0.8587 0.8661
485.000000 0.8711 0.8757 0.8817 0.8839 0.8858
480.000000 0.8896 0.8988 0.9082 0.9155 0.9212
475.000000 0.9265 0.9305 0.9340 0.9359 0.9375
470.000000 0.9394 0.9410 0.9423 0.9437 0.9450
465.000000 0.9462 0.9473 0.9484 0.9491 0.9497
460.000000 0.9501 0.9506 0.9484 0.9461 0.9407
455.000000 0.9334 0.9259 0.9200 0.9155 0.9105
450.000000 0.9057 0.9031 0.8990 0.9005 0.9018
445.000000 0.9083 0.9203 0.9275 0.9312 0.9328
440.000000 0.9341 0.9349 0.9357 0.9367 0.9378
435.000000 0.9392 0.9405 0.9421 0.9437 0.9452
430.000000 0.9445 0.9428 0.9414 0.9400 0.9386
425.000000 0.9381 0.9375 0.9371 0.9370 0.9370
420.000000 0.9368 0.9368 0.9368 0.9371 0.9373
415.000000 0.9375 0.9380 0.9389 0.9490 0.9589
410.000000 0.9666 0.9725 0.9775 0.9825 0.9846
405.000000 0.9913 0.9863 0.9858 0.9840 0.9821
400.000000 0.9803 0.9768 0.9727 0.9645 0.9450
395.000000 0.9315 0.9206 0.9137 0.9128 0.9118
390.000000 0.9110 0.9100 0.9090 0.9057 0.9002
385.000000 0.8941 0.8891 0.8844 0.8801 0.8725
380.000000 0.8752 0.8744 0.8740 0.8740 0.8746
375.000000 0.8835 0.8907 0.9120 0.9150 0.9150
370.000000 0.9150 0.9151 0.9152 0.9157 0.9171
365.000000 0.9221 0.9278 0.9334 0.9388 0.9442
360.000000 0.9487 0.9525 0.9562 0.9600 0.9630
355.000000 0.9649 0.9668 0.9688 0.9708 0.9728
350.000000 0.9747 0.9761 0.9771 0.9782 0.9792
345.000000 0.9803 0.9813 0.9823 0.9835 0.9836
340.000000 0.9840 0.9844 0.9848 0.9849 0.9844
335.000000 0.9840 0.9835 0.9831 0.9825 0.9817
330.000000 0.9807 0.9797 0.9787 0.9778 0.9767
325.000000 0.9757 0.9747 0.9736 0.9725 0.9715
320.000000 0.9708 0.9703 0.9697 0.9692 0.9692
315.000000 0.9691 0.9692 0.9693 0.9694 0.9695
310.000000 0.9696 0.9697 0.9698 0.9698 0.9693
305.000000 0.9688 0.9683 0.9678 0.9671 0.9664
300.000000 0.9656 0.9647 0.9639 0.9630 0.9621
295.000000 0.9609 0.9590 0.9571 0.9545 0.9502
290.000000 0.9468 0.9440 0.9411 0.9388 0.9378
285.000000 0.9371 0.9362 0.9331 0.9287 0.9209
280.000000 0.9133 0.9063 0.8993 0.8924 0.8893
275.000000 0.8866 0.8840 0.8814 0.8787 0.8760
270.000000 0.8733 0.8707 0.8680 0.8653 0.8625
265.000000 0.8598 0.8568 0.8537 0.8507 0.8477
260.000000 0.8447 0.8410 0.8368 0.8328 0.8288
255.000000 0.8249 0.8209 0.8169 0.8131 0.8083
250.000000 0.8035 0.7988 0.7942 0.7899 0.7857
245.000000 0.7814 0.7775
##END=
