##TITLE=Toluene, 3,4-bis(benzyloxy)-
##JCAMP-DX=4.24
##DATA TYPE=INFRARED SPECTRUM
##CLASS=COBLENTZ III
##ORIGIN=DOW CHEMICAL COMPANY
##OWNER=Copyright (C) 1987 by the Coblentz Society
Collection (C) 2018 copyright by the U.S. Secretary of Commerce
on behalf of the United States of America. All rights reserved.
##DATE=1964/05/26
##NAMES=1,2-bis(benzyloxy)-4-methylbenzene
##CAS REGISTRY NO=4790-00-5
##MOLFORM=C21 H20 O2
##SOURCE REFERENCE=COBLENTZ NO. 8130
##$NIST SOURCE=COBLENTZ
##$NIST IMAGE=cob8130
##SPECTROMETER/DATA SYSTEM=DOW KBr FOREPRISM-GRATING
##INSTRUMENT PARAMETERS=BLAZED AT 3.5, 12.0, 20.0 MICRON AND CHANGED AT 5.0, 7.5, 14.9 MICRON
##STATE=SOLUTION (5% CCl4 FOR 3800-1330, 5% CS2 FOR 1330-400 CM^-^1)
##PATH LENGTH=0.011 CM, 0.011 CM
$$SPECTRAL CONTAMINATION DUE TO CCl4 AROUND 1550, AND AN UNKNOWN AROUND 400 CM^-^1
##SAMPLING PROCEDURE=TRANSMISSION
##RESOLUTION=2
##DATA PROCESSING=DIGITIZED BY COBLENTZ SOCIETY (BATCH II) FROM HARD COPY
##XUNITS=1/CM
##YUNITS=TRANSMITTANCE
##XFACTOR=1.0
##YFACTOR=1
##FIRSTX=390
##LASTX=3800
##FIRSTY=0.1707
##MAXX=3800
##MINX=390
##MAXY=0.9223
##MINY=0.1363
##NPOINTS=3411
##XYDATA=(X++(Y..Y))
390.000000 0.1707 0.1720 0.1732 0.1745 0.1784
395.000000 0.1827 0.1869 0.1911 0.1967 0.2025
400.000000 0.2094 0.2228 0.2472 0.2716 0.2960
405.000000 0.3204 0.3508 0.3679 0.3808 0.4238
410.000000 0.4633 0.4932 0.5084 0.5274 0.5499
415.000000 0.5690 0.5931 0.6444 0.6610 0.6740
420.000000 0.6842 0.6938 0.7025 0.7096 0.7127
425.000000 0.7158 0.7188 0.7217 0.7243 0.7270
430.000000 0.7297 0.7330 0.7364 0.7397 0.7460
435.000000 0.7529 0.7583 0.7631 0.7672 0.7692
440.000000 0.7711 0.7731 0.7749 0.7767 0.7785
445.000000 0.7796 0.7800 0.7802 0.7804 0.7804
450.000000 0.7799 0.7793 0.7787 0.7780 0.7772
455.000000 0.7764 0.7759 0.7757 0.7761 0.7769
460.000000 0.7779 0.7798 0.7820 0.7846 0.7872
465.000000 0.7894 0.7916 0.7938 0.7960 0.7990
470.000000 0.8025 0.8067 0.8112 0.8155 0.8189
475.000000 0.8223 0.8256 0.8284 0.8311 0.8339
480.000000 0.8359 0.8374 0.8387 0.8394 0.8401
485.000000 0.8407 0.8414 0.8420 0.8427 0.8436
490.000000 0.8448 0.8460 0.8473 0.8491 0.8508
495.000000 0.8526 0.8545 0.8566 0.8587 0.8607
500.000000 0.8630 0.8661 0.8692 0.8723 0.8753
505.000000 0.8784 0.8814 0.8843 0.8871 0.8900
510.000000 0.8919 0.8935 0.8952 0.8965 0.8977
515.000000 0.8989 0.9001 0.9013 0.9024 0.9035
520.000000 0.9045 0.9056 0.9067 0.9075 0.9082
525.000000 0.9088 0.9095 0.9101 0.9107 0.9114
530.000000 0.9117 0.9118 0.9120 0.9118 0.9115
535.000000 0.9112 0.9109 0.9113 0.9116 0.9126
540.000000 0.9137 0.9149 0.9161 0.9171 0.9182
545.000000 0.9192 0.9199 0.9206 0.9213 0.9215
550.000000 0.9223 0.9220 0.9220 0.9219 0.9214
555.000000 0.9208 0.9202 0.9185 0.9167 0.9149
560.000000 0.9131 0.9115 0.9100 0.9086 0.9072
565.000000 0.9058 0.9043 0.9028 0.9012 0.8996
570.000000 0.8981 0.8970 0.8959 0.8950 0.8942
575.000000 0.8934 0.8926 0.8916 0.8902 0.8871
580.000000 0.8829 0.8783 0.8734 0.8678 0.8531
585.000000 0.8370 0.8210 0.8062 0.8013 0.8000
590.000000 0.8004 0.8713 0.8788 0.8840 0.8864
595.000000 0.8867 0.8867 0.8870 0.8845 0.8822
600.000000 0.8777 0.8727 0.8656 0.8626 0.8626
605.000000 0.8628 0.8631 0.8640 0.8656 0.8687
610.000000 0.8731 0.8762 0.8781 0.8786 0.8786
615.000000 0.8778 0.8762 0.8744 0.8723 0.8700
620.000000 0.8686 0.8679 0.8692 0.8695 0.8713
625.000000 0.8731 0.8752 0.8775 0.8796 0.8814
630.000000 0.8812 0.8806 0.8799 0.8791 0.8784
635.000000 0.8774 0.8765 0.8756 0.8746 0.8732
640.000000 0.8718 0.8704 0.8690 0.8676 0.8659
645.000000 0.8642 0.8624 0.8607 0.8584 0.8554
650.000000 0.8523 0.8491 0.8492 0.8503 0.8506
655.000000 0.8678 0.8742 0.8798 0.8831 0.8861
660.000000 0.8879 0.8893 0.8898 0.8904 0.8904
665.000000 0.8903 0.8902 0.8901 0.8895 0.8888
670.000000 0.8876 0.8859 0.8838 0.8807 0.8754
675.000000 0.8689 0.8633 0.8581 0.8549 0.8551
680.000000 0.8552 0.8550 0.8551 0.8546 0.8521
685.000000 0.8475 0.8433 0.8376 0.8290 0.7711
690.000000 0.7365 0.7015 0.6211 0.5467 0.4722
695.000000 0.3978 0.3233 0.2489 0.1902 0.1845
700.000000 0.1832 0.1896 0.5397 0.6147 0.6453
705.000000 0.6971 0.7281 0.7142 0.6893 0.7692
710.000000 0.7697 0.7688 0.7678 0.7554 0.7442
715.000000 0.7330 0.7218 0.7105 0.6993 0.6881
720.000000 0.6769 0.6657 0.6541 0.6455 0.6375
725.000000 0.6296 0.5799 0.5586 0.5373 0.5160
730.000000 0.4947 0.4734 0.4520 0.4307 0.4094
735.000000 0.3692 0.3639 0.3642 0.3667 0.3783
740.000000 0.4223 0.4471 0.4715 0.4938 0.5059
745.000000 0.5173 0.5295 0.5434 0.5570 0.5705
750.000000 0.5883 0.6064 0.6202 0.6340 0.6477
755.000000 0.6606 0.6719 0.6796 0.6918 0.7112
760.000000 0.7307 0.7501 0.7696 0.7876 0.7999
765.000000 0.8063 0.8081 0.8086 0.8091 0.8101
770.000000 0.8110 0.8131 0.8157 0.8182 0.8207
775.000000 0.8242 0.8278 0.8341 0.8427 0.8559
780.000000 0.8675 0.8700 0.8701 0.8686 0.8692
785.000000 0.8680 0.8650 0.8601 0.8556 0.8508
790.000000 0.8455 0.8302 0.8038 0.7907 0.7387
795.000000 0.6969 0.6550 0.6132 0.5714 0.5296
800.000000 0.4529 0.4511 0.4518 0.4855 0.5483
805.000000 0.6111 0.6739 0.7162 0.7200 0.7223
810.000000 0.7251 0.7281 0.7317 0.7355 0.7435
815.000000 0.7570 0.7703 0.7825 0.7951 0.8122
820.000000 0.8234 0.8338 0.8430 0.8491 0.8541
825.000000 0.8566 0.8586 0.8591 0.8589 0.8600
830.000000 0.8570 0.8547 0.8515 0.8478 0.8421
835.000000 0.8331 0.8236 0.8150 0.8069 0.8002
840.000000 0.7938 0.7760 0.7445 0.7130 0.6815
845.000000 0.6661 0.6637 0.6648 0.6660 0.6661
850.000000 0.6645 0.6618 0.6601 0.6581 0.6567
855.000000 0.6600 0.6579 0.6598 0.6633 0.6692
860.000000 0.6866 0.7030 0.7143 0.7222 0.7301
865.000000 0.7382 0.7463 0.7530 0.7597 0.7648
870.000000 0.7688 0.7728 0.7751 0.7773 0.7785
875.000000 0.7797 0.7811 0.7826 0.7845 0.7921
880.000000 0.8003 0.8078 0.8150 0.8214 0.8272
885.000000 0.8330 0.8395 0.8471 0.8546 0.8599
890.000000 0.8652 0.8691 0.8709 0.8707 0.8731
895.000000 0.8683 0.8659 0.8626 0.8555 0.8471
900.000000 0.8373 0.8243 0.8045 0.7934 0.7870
905.000000 0.7860 0.7850 0.7857 0.7862 0.7875
910.000000 0.7905 0.7974 0.8079 0.8177 0.8275
915.000000 0.8374 0.8472 0.8571 0.8645 0.8686
920.000000 0.8752 0.8736 0.8732 0.8721 0.8707
925.000000 0.8684 0.8655 0.8629 0.8612 0.8600
930.000000 0.8622 0.8636 0.8655 0.8685 0.8694
935.000000 0.8695 0.8689 0.8636 0.8590 0.8534
940.000000 0.8479 0.8424 0.8359 0.8360 0.8356
945.000000 0.8394 0.8469 0.8526 0.8606 0.8697
950.000000 0.8772 0.8852 0.8897 0.8918 0.8919
955.000000 0.8892 0.8906 0.8894 0.8884 0.8874
960.000000 0.8857 0.8836 0.8811 0.8771 0.8730
965.000000 0.8689 0.8647 0.8605 0.8565 0.8524
970.000000 0.8483 0.8442 0.8401 0.8342 0.8281
975.000000 0.8218 0.8155 0.8095 0.8035 0.7958
980.000000 0.7880 0.7780 0.7611 0.7496 0.7429
985.000000 0.7375 0.7323 0.7272 0.7221 0.7171
990.000000 0.7124 0.7077 0.7030 0.6984 0.6940
995.000000 0.6897 0.6855 0.6813 0.6766 0.6718
1000.000000 0.6671 0.6615 0.6550 0.6479 0.6370
1005.000000 0.6246 0.6111 0.5983 0.5847 0.5599
1010.000000 0.5371 0.5217 0.5072 0.4914 0.4750
1015.000000 0.4581 0.4406 0.4274 0.4164 0.4062
1020.000000 0.3976 0.3890 0.3805 0.3721 0.3650
1025.000000 0.3589 0.3569 0.3562 0.3577 0.3593
1030.000000 0.3648 0.4478 0.5250 0.5250 0.5253
1035.000000 0.5259 0.5266 0.5278 0.5291 0.5328
1040.000000 0.5450 0.5577 0.5738 0.5899 0.6061
1045.000000 0.6222 0.6383 0.6544 0.6716 0.6949
1050.000000 0.7185 0.7363 0.7493 0.7789 0.8011
1055.000000 0.8249 0.8431 0.8517 0.8595 0.8652
1060.000000 0.8706 0.8724 0.8743 0.8760 0.8769
1065.000000 0.8777 0.8776 0.8796 0.8766 0.8747
1070.000000 0.8723 0.8684 0.8642 0.8593 0.8527
1075.000000 0.8466 0.8407 0.8342 0.8231 0.8121
1080.000000 0.8010 0.7977 0.8051 0.8555 0.8747
1085.000000 0.8799 0.8847 0.8875 0.8897 0.8911
1090.000000 0.8922 0.8927 0.8931 0.8930 0.8929
1095.000000 0.8928 0.8917 0.8909 0.8897 0.8884
1100.000000 0.8852 0.8818 0.8778 0.8736 0.8706
1105.000000 0.8681 0.8662 0.8652 0.8647 0.8643
1110.000000 0.8633 0.8584 0.8529 0.8458 0.8381
1115.000000 0.8267 0.8170 0.8084 0.7972 0.7791
1120.000000 0.7388 0.6904 0.5984 0.5874 0.5861
1125.000000 0.5849 0.5837 0.5825 0.5811 0.5744
1130.000000 0.5526 0.5279 0.5032 0.4784 0.4537
1135.000000 0.4290 0.4042 0.3795 0.3548 0.3300
1140.000000 0.3259 0.3255 0.3678 0.3867 0.4434
1145.000000 0.5451 0.6468 0.6800 0.6804 0.6809
1150.000000 0.6789 0.6649 0.6456 0.6262 0.6068
1155.000000 0.5875 0.5681 0.5487 0.5251 0.5217
1160.000000 0.5204 0.5165 0.5272 0.5324 0.5430
1165.000000 0.5545 0.5870 0.6197 0.6525 0.6853
1170.000000 0.7181 0.7496 0.7638 0.7691 0.7717
1175.000000 0.7735 0.7751 0.7760 0.7769 0.7788
1180.000000 0.7862 0.7950 0.8029 0.8078 0.8115
1185.000000 0.8132 0.8140 0.8140 0.8144 0.8116
1190.000000 0.8090 0.8061 0.8013 0.7948 0.7836
1195.000000 0.7708 0.7609 0.7275 0.7135 0.6947
1200.000000 0.6744 0.6586 0.6484 0.6407 0.6327
1205.000000 0.6247 0.6167 0.6068 0.5928 0.5720
1210.000000 0.5500 0.5280 0.5059 0.4880 0.4825
1215.000000 0.4749 0.4647 0.4563 0.4494 0.4423
1220.000000 0.4350 0.4271 0.4191 0.4086 0.3990
1225.000000 0.3904 0.3832 0.3770 0.3726 0.3709
1230.000000 0.3704 0.3713 0.3737 0.3801 0.3869
1235.000000 0.3999 0.4148 0.4296 0.4445 0.4594
1240.000000 0.4743 0.4865 0.4870 0.4888 0.4852
1245.000000 0.4840 0.4825 0.4806 0.4780 0.4739
1250.000000 0.4695 0.4635 0.4558 0.4472 0.4370
1255.000000 0.4262 0.4146 0.3983 0.3796 0.3359
1260.000000 0.2910 0.2461 0.2178 0.2134 0.2119
1265.000000 0.2089 0.2141 0.2183 0.2244 0.2469
1270.000000 0.2723 0.2976 0.3230 0.3483 0.3736
1275.000000 0.4073 0.4310 0.4329 0.4338 0.4347
1280.000000 0.4355 0.4440 0.4552 0.4664 0.4776
1285.000000 0.4888 0.5000 0.5113 0.5225 0.5337
1290.000000 0.5449 0.5561 0.5673 0.5756 0.5833
1295.000000 0.5862 0.5888 0.5911 0.5935 0.5960
1300.000000 0.5997 0.6049 0.6146 0.6370 0.6462
1305.000000 0.6580 0.6615 0.6649 0.6680 0.6708
1310.000000 0.6747 0.6787 0.6828 0.6874 0.6919
1315.000000 0.6967 0.7018 0.7050 0.7081 0.7101
1320.000000 0.7133 0.7098 0.7069 0.7021 0.6968
1325.000000 0.6913 0.6853 0.6794 0.6747 0.6717
1330.000000 0.6707 0.6727 0.6746 0.6822 0.7096
1335.000000 0.7566 0.7929 0.8046 0.8175 0.8311
1340.000000 0.8414 0.8508 0.8612 0.8694 0.8728
1345.000000 0.8747 0.8760 0.8769 0.8770 0.8771
1350.000000 0.8770 0.8790 0.8765 0.8757 0.8746
1355.000000 0.8734 0.8718 0.8697 0.8672 0.8622
1360.000000 0.8572 0.8512 0.8422 0.8336 0.8250
1365.000000 0.8160 0.7991 0.7798 0.7606 0.7413
1370.000000 0.7220 0.7028 0.6835 0.6733 0.6642
1375.000000 0.6523 0.6388 0.6179 0.6063 0.6013
1380.000000 0.6018 0.6013 0.6105 0.6278 0.6477
1385.000000 0.6675 0.6874 0.7101 0.7335 0.7566
1390.000000 0.7755 0.8139 0.8333 0.8487 0.8579
1395.000000 0.8625 0.8669 0.8698 0.8702 0.8699
1400.000000 0.8730 0.8683 0.8657 0.8625 0.8589
1405.000000 0.8548 0.8503 0.8435 0.8336 0.8223
1410.000000 0.8110 0.7997 0.7885 0.7772 0.7588
1415.000000 0.7476 0.7400 0.7313 0.7259 0.7268
1420.000000 0.7270 0.7280 0.7305 0.7343 0.7390
1425.000000 0.7438 0.7486 0.7533 0.7578 0.7620
1430.000000 0.7656 0.7691 0.7722 0.7743 0.7755
1435.000000 0.7747 0.7765 0.7763 0.7756 0.7744
1440.000000 0.7723 0.7695 0.7664 0.7621 0.7579
1445.000000 0.7530 0.7476 0.7414 0.7321 0.7226
1450.000000 0.7128 0.6237 0.5839 0.5441 0.5043
1455.000000 0.4645 0.4247 0.3916 0.3923 0.4993
1460.000000 0.5841 0.5864 0.5883 0.5900 0.5920
1465.000000 0.5953 0.6015 0.6086 0.6241 0.6563
1470.000000 0.6854 0.7126 0.7303 0.7489 0.7666
1475.000000 0.7843 0.7935 0.7945 0.7942 0.7936
1480.000000 0.7953 0.7914 0.7892 0.7852 0.7790
1485.000000 0.7698 0.7632 0.7559 0.7484 0.7268
1490.000000 0.7097 0.6974 0.6860 0.6745 0.6579
1495.000000 0.6373 0.6174 0.5996 0.4359 0.4308
1500.000000 0.4275 0.4234 0.4087 0.3603 0.3119
1505.000000 0.2635 0.1791 0.1640 0.1505 0.1417
1510.000000 0.1366 0.1369 0.1363 0.1408 0.1447
1515.000000 0.1502 0.1629 0.1803 0.1880 0.2275
1520.000000 0.2670 0.3065 0.3459 0.3854 0.4249
1525.000000 0.4785 0.5142 0.5215 0.5241 0.5249
1530.000000 0.5234 0.5227 0.5207 0.5166 0.5124
1535.000000 0.5084 0.5040 0.4981 0.4880 0.4786
1540.000000 0.4702 0.4640 0.4577 0.4515 0.4473
1545.000000 0.4443 0.4414 0.4403 0.4402 0.4410
1550.000000 0.4431 0.4457 0.4485 0.4524 0.4572
1555.000000 0.4647 0.4723 0.4815 0.4977 0.5074
1560.000000 0.5140 0.5209 0.5294 0.5355 0.5411
1565.000000 0.5471 0.5536 0.5611 0.5677 0.5695
1570.000000 0.5706 0.5704 0.5718 0.5687 0.5676
1575.000000 0.5662 0.5646 0.5620 0.5589 0.5552
1580.000000 0.5515 0.5464 0.5413 0.5367 0.5325
1585.000000 0.5289 0.5272 0.5264 0.5269 0.5282
1590.000000 0.5273 0.5546 0.5735 0.5924 0.6113
1595.000000 0.6301 0.6490 0.6679 0.6786 0.6925
1600.000000 0.6937 0.6937 0.6936 0.6936 0.6937
1605.000000 0.6938 0.6964 0.7001 0.7081 0.7209
1610.000000 0.7320 0.7417 0.7515 0.7677 0.7908
1615.000000 0.8068 0.8150 0.8216 0.8294 0.8406
1620.000000 0.8475 0.8541 0.8599 0.8648 0.8695
1625.000000 0.8719 0.8742 0.8766 0.8790 0.8814
1630.000000 0.8833 0.8848 0.8863 0.8878 0.8889
1635.000000 0.8900 0.8910 0.8921 0.8931 0.8941
1640.000000 0.8948 0.8955 0.8961 0.8965 0.8969
1645.000000 0.8973 0.8977 0.8977 0.8977 0.8977
1650.000000 0.8977 0.8977 0.8977 0.8977 0.8977
1655.000000 0.8977 0.8978 0.8979 0.8979 0.8980
1660.000000 0.8980 0.8979 0.8978 0.8977 0.8977
1665.000000 0.8976 0.8976 0.8975 0.8975 0.8974
1670.000000 0.8974 0.8973 0.8973 0.8974 0.8974
1675.000000 0.8975 0.8976 0.8977 0.8978 0.8979
1680.000000 0.8980 0.8980 0.8987 0.8990 0.8994
1685.000000 0.8997 0.9001 0.9007 0.9013 0.9020
1690.000000 0.9026 0.9032 0.9039 0.9044 0.9049
1695.000000 0.9054 0.9059 0.9064 0.9067 0.9071
1700.000000 0.9074 0.9078 0.9081 0.9084 0.9087
1705.000000 0.9091 0.9094 0.9095 0.9097 0.9098
1710.000000 0.9099 0.9101 0.9098 0.9093 0.9089
1715.000000 0.9085 0.9081 0.9075 0.9068 0.9060
1720.000000 0.9053 0.9047 0.9041 0.9036 0.9030
1725.000000 0.9024 0.9018 0.9013 0.9007 0.9000
1730.000000 0.8991 0.8982 0.8974 0.8965 0.8957
1735.000000 0.8952 0.8947 0.8942 0.8937 0.8935
1740.000000 0.8938 0.8941 0.8944 0.8948 0.8953
1745.000000 0.8958 0.8967 0.8977 0.8991 0.9006
1750.000000 0.9018 0.9025 0.9033 0.9040 0.9050
1755.000000 0.9061 0.9071 0.9081 0.9084 0.9087
1760.000000 0.9090 0.9091 0.9088 0.9086 0.9084
1765.000000 0.9081 0.9080 0.9079 0.9079 0.9078
1770.000000 0.9078 0.9077 0.9077 0.9078 0.9078
1775.000000 0.9078 0.9079 0.9079 0.9080 0.9079
1780.000000 0.9071 0.9063 0.9052 0.9039 0.9026
1785.000000 0.9011 0.8996 0.8979 0.8962 0.8945
1790.000000 0.8928 0.8914 0.8900 0.8886 0.8872
1795.000000 0.8858 0.8834 0.8812 0.8802 0.8796
1800.000000 0.8801 0.8807 0.8818 0.8829 0.8840
1805.000000 0.8851 0.8863 0.8874 0.8883 0.8889
1810.000000 0.8895 0.8902 0.8910 0.8917 0.8923
1815.000000 0.8929 0.8935 0.8940 0.8946 0.8952
1820.000000 0.8958 0.8963 0.8965 0.8967 0.8968
1825.000000 0.8969 0.8971 0.8970 0.8967 0.8964
1830.000000 0.8961 0.8958 0.8955 0.8952 0.8949
1835.000000 0.8946 0.8942 0.8939 0.8935 0.8932
1840.000000 0.8928 0.8924 0.8918 0.8912 0.8906
1845.000000 0.8900 0.8894 0.8888 0.8881 0.8874
1850.000000 0.8866 0.8859 0.8849 0.8836 0.8824
1855.000000 0.8812 0.8799 0.8785 0.8771 0.8759
1860.000000 0.8755 0.8733 0.8748 0.8750 0.8751
1865.000000 0.8757 0.8766 0.8775 0.8785 0.8794
1870.000000 0.8804 0.8813 0.8823 0.8829 0.8835
1875.000000 0.8841 0.8847 0.8855 0.8867 0.8879
1880.000000 0.8891 0.8903 0.8912 0.8920 0.8928
1885.000000 0.8937 0.8945 0.8952 0.8958 0.8964
1890.000000 0.8972 0.8979 0.8986 0.8993 0.8997
1895.000000 0.9002 0.9006 0.9010 0.9014 0.9016
1900.000000 0.9018 0.9020 0.9022 0.9024 0.9023
1905.000000 0.9022 0.9020 0.9019 0.9017 0.9015
1910.000000 0.9014 0.9011 0.9008 0.9005 0.9002
1915.000000 0.8999 0.8996 0.8993 0.8990 0.8987
1920.000000 0.8983 0.8979 0.8975 0.8971 0.8967
1925.000000 0.8960 0.8949 0.8937 0.8926 0.8913
1930.000000 0.8898 0.8883 0.8867 0.8852 0.8835
1935.000000 0.8808 0.8782 0.8755 0.8731 0.8708
1940.000000 0.8697 0.8686 0.8683 0.8690 0.8704
1945.000000 0.8725 0.8753 0.8788 0.8812 0.8823
1950.000000 0.8824 0.8825 0.8827 0.8822 0.8817
1955.000000 0.8812 0.8808 0.8804 0.8799 0.8801
1960.000000 0.8812 0.8824 0.8835 0.8844 0.8856
1965.000000 0.8867 0.8874 0.8880 0.8884 0.8888
1970.000000 0.8891 0.8895 0.8896 0.8895 0.8893
1975.000000 0.8892 0.8891 0.8890 0.8888 0.8887
1980.000000 0.8886 0.8883 0.8878 0.8874 0.8869
1985.000000 0.8864 0.8857 0.8849 0.8842 0.8832
1990.000000 0.8818 0.8804 0.8813 0.8830 0.8847
1995.000000 0.8861 0.8873 0.8880 0.8886 0.8892
2000.000000 0.8896 0.8897 0.8898 0.8898 0.8899
2005.000000 0.8897 0.8896 0.8894 0.8893 0.8890
2010.000000 0.8887 0.8883 0.8879 0.8875 0.8872
2015.000000 0.8869 0.8866 0.8864 0.8862 0.8862
2020.000000 0.8862 0.8862 0.8862 0.8862 0.8862
2025.000000 0.8862 0.8862 0.8862 0.8863 0.8864
2030.000000 0.8865 0.8865 0.8866 0.8867 0.8868
2035.000000 0.8868 0.8869 0.8869 0.8870 0.8870
2040.000000 0.8870 0.8870 0.8871 0.8871 0.8871
2045.000000 0.8871 0.8872 0.8872 0.8872 0.8872
2050.000000 0.8872 0.8872 0.8872 0.8872 0.8872
2055.000000 0.8872 0.8873 0.8873 0.8874 0.8874
2060.000000 0.8874 0.8874 0.8875 0.8875 0.8876
2065.000000 0.8876 0.8876 0.8876 0.8877 0.8877
2070.000000 0.8878 0.8878 0.8879 0.8879 0.8880
2075.000000 0.8880 0.8881 0.8881 0.8882 0.8883
2080.000000 0.8884 0.8884 0.8885 0.8886 0.8887
2085.000000 0.8888 0.8889 0.8890 0.8891 0.8891
2090.000000 0.8892 0.8893 0.8894 0.8895 0.8896
2095.000000 0.8896 0.8897 0.8899 0.8927 0.8903
2100.000000 0.8905 0.8907 0.8909 0.8911 0.8913
2105.000000 0.8915 0.8917 0.8918 0.8920 0.8922
2110.000000 0.8924 0.8926 0.8928 0.8930 0.8932
2115.000000 0.8934 0.8936 0.8938 0.8940 0.8942
2120.000000 0.8944 0.8946 0.8948 0.8949 0.8951
2125.000000 0.8953 0.8955 0.8956 0.8957 0.8958
2130.000000 0.8959 0.8959 0.8960 0.8961 0.8962
2135.000000 0.8962 0.8963 0.8963 0.8964 0.8965
2140.000000 0.8966 0.8966 0.8967 0.8967 0.8968
2145.000000 0.8968 0.8968 0.8968 0.8968 0.8968
2150.000000 0.8969 0.8969 0.8969 0.8969 0.8969
2155.000000 0.8969 0.8970 0.8970 0.8970 0.8970
2160.000000 0.8971 0.8970 0.8969 0.8968 0.8968
2165.000000 0.8967 0.8966 0.8965 0.8965 0.8964
2170.000000 0.8963 0.8962 0.8961 0.8960 0.8960
2175.000000 0.8959 0.8958 0.8957 0.8956 0.8955
2180.000000 0.8954 0.8952 0.8951 0.8950 0.8949
2185.000000 0.8948 0.8947 0.8946 0.8945 0.8943
2190.000000 0.8942 0.8941 0.8940 0.8939 0.8938
2195.000000 0.8937 0.8936 0.8936 0.8936 0.8935
2200.000000 0.8935 0.8935 0.8935 0.8934 0.8934
2205.000000 0.8934 0.8934 0.8933 0.8933 0.8932
2210.000000 0.8931 0.8929 0.8928 0.8926 0.8925
2215.000000 0.8923 0.8922 0.8920 0.8919 0.8917
2220.000000 0.8916 0.8914 0.8913 0.8912 0.8911
2225.000000 0.8909 0.8908 0.8906 0.8905 0.8903
2230.000000 0.8901 0.8899 0.8897 0.8895 0.8894
2235.000000 0.8892 0.8890 0.8888 0.8886 0.8884
2240.000000 0.8882 0.8880 0.8878 0.8876 0.8875
2245.000000 0.8873 0.8871 0.8869 0.8867 0.8865
2250.000000 0.8863 0.8861 0.8859 0.8857 0.8856
2255.000000 0.8853 0.8850 0.8847 0.8844 0.8841
2260.000000 0.8838 0.8835 0.8832 0.8829 0.8826
2265.000000 0.8823 0.8820 0.8817 0.8814 0.8811
2270.000000 0.8808 0.8805 0.8802 0.8799 0.8796
2275.000000 0.8791 0.8787 0.8783 0.8779 0.8775
2280.000000 0.8771 0.8767 0.8763 0.8758 0.8754
2285.000000 0.8752 0.8750 0.8749 0.8748 0.8747
2290.000000 0.8747 0.8746 0.8746 0.8745 0.8745
2295.000000 0.8744 0.8743 0.8743 0.8743 0.8744
2300.000000 0.8745 0.8745 0.8746 0.8746 0.8747
2305.000000 0.8748 0.8749 0.8749 0.8750 0.8751
2310.000000 0.8752 0.8752 0.8753 0.8755 0.8757
2315.000000 0.8759 0.8761 0.8763 0.8766 0.8768
2320.000000 0.8770 0.8772 0.8775 0.8777 0.8780
2325.000000 0.8782 0.8784 0.8787 0.8790 0.8792
2330.000000 0.8795 0.8798 0.8801 0.8803 0.8806
2335.000000 0.8809 0.8812 0.8815 0.8818 0.8819
2340.000000 0.8821 0.8822 0.8823 0.8824 0.8826
2345.000000 0.8827 0.8828 0.8829 0.8830 0.8831
2350.000000 0.8833 0.8833 0.8834 0.8834 0.8835
2355.000000 0.8835 0.8835 0.8835 0.8836 0.8836
2360.000000 0.8836 0.8836 0.8836 0.8836 0.8837
2365.000000 0.8837 0.8837 0.8837 0.8838 0.8837
2370.000000 0.8836 0.8835 0.8835 0.8834 0.8833
2375.000000 0.8832 0.8831 0.8830 0.8829 0.8828
2380.000000 0.8827 0.8826 0.8826 0.8825 0.8825
2385.000000 0.8824 0.8824 0.8824 0.8825 0.8833
2390.000000 0.8842 0.8850 0.8859 0.8868 0.8877
2395.000000 0.8885 0.8893 0.8895 0.8898 0.8899
2400.000000 0.8900 0.8900 0.8900 0.8900 0.8900
2405.000000 0.8899 0.8899 0.8898 0.8898 0.8897
2410.000000 0.8897 0.8896 0.8896 0.8896 0.8896
2415.000000 0.8896 0.8896 0.8896 0.8896 0.8895
2420.000000 0.8895 0.8894 0.8894 0.8893 0.8893
2425.000000 0.8892 0.8892 0.8892 0.8892 0.8892
2430.000000 0.8892 0.8892 0.8892 0.8892 0.8892
2435.000000 0.8892 0.8892 0.8892 0.8892 0.8891
2440.000000 0.8891 0.8890 0.8890 0.8890 0.8890
2445.000000 0.8889 0.8889 0.8888 0.8888 0.8888
2450.000000 0.8888 0.8887 0.8887 0.8886 0.8886
2455.000000 0.8886 0.8886 0.8885 0.8885 0.8884
2460.000000 0.8884 0.8884 0.8884 0.8884 0.8884
2465.000000 0.8884 0.8884 0.8884 0.8884 0.8884
2470.000000 0.8884 0.8884 0.8884 0.8884 0.8884
2475.000000 0.8884 0.8884 0.8884 0.8884 0.8884
2480.000000 0.8884 0.8884 0.8884 0.8884 0.8884
2485.000000 0.8883 0.8882 0.8881 0.8880 0.8879
2490.000000 0.8878 0.8877 0.8876 0.8875 0.8874
2495.000000 0.8873 0.8872 0.8871 0.8870 0.8869
2500.000000 0.8868 0.8867 0.8866 0.8864 0.8863
2505.000000 0.8862 0.8861 0.8859 0.8858 0.8856
2510.000000 0.8855 0.8854 0.8853 0.8851 0.8850
2515.000000 0.8849 0.8848 0.8846 0.8845 0.8843
2520.000000 0.8842 0.8841 0.8840 0.8839 0.8838
2525.000000 0.8836 0.8835 0.8834 0.8833 0.8832
2530.000000 0.8831 0.8829 0.8828 0.8827 0.8826
2535.000000 0.8824 0.8823 0.8822 0.8821 0.8820
2540.000000 0.8819 0.8818 0.8818 0.8817 0.8816
2545.000000 0.8815 0.8814 0.8813 0.8813 0.8812
2550.000000 0.8811 0.8810 0.8809 0.8808 0.8808
2555.000000 0.8807 0.8806 0.8805 0.8804 0.8803
2560.000000 0.8803 0.8802 0.8801 0.8800 0.8799
2565.000000 0.8798 0.8797 0.8796 0.8796 0.8795
2570.000000 0.8794 0.8793 0.8792 0.8791 0.8790
2575.000000 0.8789 0.8789 0.8788 0.8788 0.8787
2580.000000 0.8787 0.8787 0.8787 0.8788 0.8789
2585.000000 0.8790 0.8791 0.8791 0.8792 0.8793
2590.000000 0.8795 0.8797 0.8800 0.8803 0.8806
2595.000000 0.8808 0.8811 0.8813 0.8816 0.8818
2600.000000 0.8821 0.8823 0.8826 0.8828 0.8831
2605.000000 0.8833 0.8835 0.8837 0.8839 0.8841
2610.000000 0.8843 0.8845 0.8847 0.8848 0.8850
2615.000000 0.8851 0.8852 0.8852 0.8852 0.8852
2620.000000 0.8852 0.8852 0.8852 0.8852 0.8852
2625.000000 0.8852 0.8852 0.8852 0.8852 0.8852
2630.000000 0.8852 0.8850 0.8849 0.8847 0.8846
2635.000000 0.8845 0.8844 0.8842 0.8841 0.8839
2640.000000 0.8838 0.8837 0.8836 0.8834 0.8832
2645.000000 0.8830 0.8829 0.8827 0.8826 0.8824
2650.000000 0.8823 0.8821 0.8820 0.8818 0.8817
2655.000000 0.8815 0.8814 0.8812 0.8811 0.8810
2660.000000 0.8809 0.8807 0.8806 0.8804 0.8803
2665.000000 0.8801 0.8800 0.8798 0.8797 0.8795
2670.000000 0.8794 0.8792 0.8791 0.8789 0.8788
2675.000000 0.8786 0.8785 0.8784 0.8783 0.8781
2680.000000 0.8780 0.8778 0.8777 0.8775 0.8774
2685.000000 0.8772 0.8771 0.8769 0.8768 0.8766
2690.000000 0.8765 0.8763 0.8762 0.8761 0.8761
2695.000000 0.8760 0.8760 0.8759 0.8758 0.8757
2700.000000 0.8757 0.8756 0.8756 0.8755 0.8755
2705.000000 0.8754 0.8753 0.8752 0.8752 0.8751
2710.000000 0.8751 0.8748 0.8746 0.8743 0.8740
2715.000000 0.8737 0.8734 0.8731 0.8729 0.8726
2720.000000 0.8723 0.8718 0.8713 0.8706 0.8700
2725.000000 0.8693 0.8687 0.8681 0.8675 0.8670
2730.000000 0.8666 0.8661 0.8656 0.8651 0.8647
2735.000000 0.8648 0.8650 0.8654 0.8659 0.8664
2740.000000 0.8669 0.8677 0.8685 0.8693 0.8701
2745.000000 0.8708 0.8715 0.8721 0.8727 0.8731
2750.000000 0.8735 0.8738 0.8741 0.8743 0.8746
2755.000000 0.8748 0.8750 0.8748 0.8747 0.8746
2760.000000 0.8745 0.8743 0.8742 0.8741 0.8740
2765.000000 0.8739 0.8738 0.8737 0.8736 0.8735
2770.000000 0.8735 0.8735 0.8736 0.8736 0.8737
2775.000000 0.8737 0.8738 0.8738 0.8738 0.8736
2780.000000 0.8735 0.8733 0.8732 0.8730 0.8728
2785.000000 0.8726 0.8725 0.8722 0.8719 0.8715
2790.000000 0.8712 0.8708 0.8705 0.8701 0.8698
2795.000000 0.8695 0.8692 0.8689 0.8686 0.8683
2800.000000 0.8681 0.8678 0.8675 0.8668 0.8661
2805.000000 0.8648 0.8635 0.8622 0.8609 0.8595
2810.000000 0.8582 0.8569 0.8556 0.8543 0.8530
2815.000000 0.8516 0.8503 0.8490 0.8477 0.8464
2820.000000 0.8451 0.8437 0.8424 0.8411 0.8398
2825.000000 0.8384 0.8370 0.8354 0.8338 0.8323
2830.000000 0.8309 0.8295 0.8282 0.8268 0.8255
2835.000000 0.8241 0.8228 0.8208 0.8188 0.8167
2840.000000 0.8147 0.8126 0.8105 0.8078 0.8051
2845.000000 0.8022 0.7993 0.7955 0.7917 0.7874
2850.000000 0.7832 0.7778 0.7724 0.7652 0.7581
2855.000000 0.7511 0.7441 0.7195 0.6949 0.6891
2860.000000 0.6833 0.6794 0.6756 0.6745 0.6735
2865.000000 0.6734 0.6745 0.6737 0.6742 0.6758
2870.000000 0.6775 0.6830 0.6885 0.6970 0.7056
2875.000000 0.7094 0.7133 0.7160 0.7188 0.7204
2880.000000 0.7220 0.7231 0.7242 0.7249 0.7256
2885.000000 0.7257 0.7258 0.7258 0.7259 0.7258
2890.000000 0.7293 0.7256 0.7255 0.7254 0.7253
2895.000000 0.7248 0.7243 0.7235 0.7228 0.7220
2900.000000 0.7212 0.7202 0.7193 0.7182 0.7172
2905.000000 0.7161 0.7151 0.7140 0.7130 0.7117
2910.000000 0.7105 0.7085 0.7066 0.7046 0.7027
2915.000000 0.6994 0.6962 0.6926 0.6890 0.6859
2920.000000 0.6828 0.6797 0.6766 0.6747 0.6729
2925.000000 0.6733 0.6722 0.6744 0.6751 0.6761
2930.000000 0.6771 0.6786 0.6802 0.6835 0.6868
2935.000000 0.6899 0.6930 0.6959 0.6988 0.7014
2940.000000 0.7041 0.7065 0.7090 0.7109 0.7128
2945.000000 0.7140 0.7153 0.7166 0.7179 0.7193
2950.000000 0.7208 0.7225 0.7243 0.7272 0.7302
2955.000000 0.7345 0.7389 0.7468 0.7547 0.7585
2960.000000 0.7623 0.7651 0.7680 0.7701 0.7722
2965.000000 0.7740 0.7758 0.7776 0.7795 0.7812
2970.000000 0.7829 0.7846 0.7863 0.7879 0.7895
2975.000000 0.7910 0.7926 0.7940 0.7955 0.7965
2980.000000 0.7976 0.7986 0.7996 0.8006 0.8016
2985.000000 0.8025 0.8035 0.8041 0.8048 0.8054
2990.000000 0.8060 0.8066 0.8073 0.8074 0.8076
2995.000000 0.8076 0.8091 0.8074 0.8073 0.8067
3000.000000 0.8062 0.8056 0.8050 0.8041 0.8032
3005.000000 0.8020 0.8009 0.7995 0.7982 0.7968
3010.000000 0.7954 0.7937 0.7920 0.7901 0.7882
3015.000000 0.7862 0.7842 0.7824 0.7807 0.7788
3020.000000 0.7769 0.7745 0.7722 0.7688 0.7655
3025.000000 0.7608 0.7562 0.7512 0.7463 0.7315
3030.000000 0.7167 0.6926 0.6686 0.6445 0.6205
3035.000000 0.6094 0.5962 0.5985 0.5987 0.6066
3040.000000 0.6145 0.6250 0.6356 0.6461 0.6567
3045.000000 0.6672 0.6778 0.6883 0.6989 0.7094
3050.000000 0.7200 0.7298 0.7396 0.7400 0.7404
3055.000000 0.7403 0.7402 0.7371 0.7409 0.7273
3060.000000 0.7205 0.7137 0.7069 0.7001 0.6934
3065.000000 0.6866 0.6798 0.6760 0.6723 0.6720
3070.000000 0.6717 0.6802 0.6888 0.7028 0.6709
3075.000000 0.7308 0.7448 0.7588 0.7728 0.7810
3080.000000 0.7892 0.7892 0.7893 0.7888 0.7919
3085.000000 0.7860 0.7837 0.7787 0.7737 0.7694
3090.000000 0.7652 0.7608 0.7564 0.7549 0.7534
3095.000000 0.7534 0.7534 0.7535 0.7537 0.7733
3100.000000 0.7530 0.8142 0.8355 0.8377 0.8399
3105.000000 0.8401 0.8403 0.8405 0.8408 0.8410
3110.000000 0.8413 0.8419 0.8426 0.8437 0.8449
3115.000000 0.8467 0.8485 0.8518 0.8551 0.8586
3120.000000 0.8621 0.8639 0.8658 0.8669 0.8681
3125.000000 0.8689 0.8697 0.8702 0.8708 0.8710
3130.000000 0.8712 0.8714 0.8716 0.8717 0.8719
3135.000000 0.8720 0.8722 0.8723 0.8725 0.8726
3140.000000 0.8728 0.8729 0.8730 0.8730 0.8731
3145.000000 0.8731 0.8732 0.8733 0.8735 0.8736
3150.000000 0.8738 0.8739 0.8740 0.8741 0.8743
3155.000000 0.8744 0.8745 0.8746 0.8747 0.8748
3160.000000 0.8749 0.8750 0.8751 0.8752 0.8753
3165.000000 0.8753 0.8754 0.8754 0.8755 0.8755
3170.000000 0.8755 0.8755 0.8756 0.8756 0.8756
3175.000000 0.8756 0.8756 0.8756 0.8757 0.8757
3180.000000 0.8757 0.8757 0.8758 0.8758 0.8758
3185.000000 0.8758 0.8758 0.8758 0.8758 0.8758
3190.000000 0.8758 0.8758 0.8758 0.8758 0.8758
3195.000000 0.8758 0.8758 0.8758 0.8758 0.8758
3200.000000 0.8758 0.8758 0.8758 0.8758 0.8758
3205.000000 0.8758 0.8758 0.8758 0.8758 0.8758
3210.000000 0.8758 0.8758 0.8758 0.8758 0.8758
3215.000000 0.8757 0.8757 0.8757 0.8757 0.8757
3220.000000 0.8757 0.8757 0.8757 0.8757 0.8757
3225.000000 0.8757 0.8757 0.8757 0.8757 0.8757
3230.000000 0.8757 0.8757 0.8758 0.8758 0.8758
3235.000000 0.8758 0.8758 0.8758 0.8759 0.8759
3240.000000 0.8759 0.8759 0.8759 0.8759 0.8759
3245.000000 0.8759 0.8760 0.8760 0.8760 0.8760
3250.000000 0.8760 0.8760 0.8761 0.8761 0.8762
3255.000000 0.8762 0.8762 0.8762 0.8763 0.8763
3260.000000 0.8764 0.8764 0.8765 0.8765 0.8766
3265.000000 0.8766 0.8767 0.8767 0.8768 0.8768
3270.000000 0.8768 0.8768 0.8769 0.8769 0.8770
3275.000000 0.8770 0.8771 0.8771 0.8771 0.8771
3280.000000 0.8772 0.8772 0.8772 0.8772 0.8772
3285.000000 0.8772 0.8772 0.8772 0.8772 0.8772
3290.000000 0.8773 0.8773 0.8773 0.8773 0.8773
3295.000000 0.8773 0.8773 0.8773 0.8773 0.8773
3300.000000 0.8773 0.8773 0.8774 0.8774 0.8774
3305.000000 0.8774 0.8774 0.8774 0.8774 0.8774
3310.000000 0.8774 0.8774 0.8775 0.8775 0.8775
3315.000000 0.8775 0.8775 0.8775 0.8776 0.8776
3320.000000 0.8776 0.8776 0.8776 0.8776 0.8777
3325.000000 0.8777 0.8777 0.8777 0.8777 0.8777
3330.000000 0.8777 0.8777 0.8778 0.8778 0.8778
3335.000000 0.8778 0.8778 0.8778 0.8779 0.8779
3340.000000 0.8779 0.8779 0.8779 0.8779 0.8780
3345.000000 0.8780 0.8780 0.8780 0.8780 0.8780
3350.000000 0.8781 0.8781 0.8781 0.8781 0.8781
3355.000000 0.8780 0.8780 0.8780 0.8780 0.8779
3360.000000 0.8779 0.8779 0.8779 0.8778 0.8778
3365.000000 0.8778 0.8778 0.8778 0.8778 0.8777
3370.000000 0.8777 0.8777 0.8777 0.8776 0.8776
3375.000000 0.8776 0.8776 0.8775 0.8775 0.8775
3380.000000 0.8775 0.8774 0.8774 0.8774 0.8774
3385.000000 0.8773 0.8773 0.8773 0.8807 0.8772
3390.000000 0.8772 0.8771 0.8771 0.8771 0.8771
3395.000000 0.8770 0.8770 0.8769 0.8769 0.8768
3400.000000 0.8768 0.8768 0.8768 0.8767 0.8767
3405.000000 0.8766 0.8766 0.8766 0.8766 0.8765
3410.000000 0.8765 0.8764 0.8764 0.8763 0.8763
3415.000000 0.8763 0.8763 0.8762 0.8762 0.8762
3420.000000 0.8762 0.8762 0.8762 0.8762 0.8762
3425.000000 0.8761 0.8761 0.8761 0.8761 0.8761
3430.000000 0.8761 0.8761 0.8761 0.8761 0.8761
3435.000000 0.8761 0.8761 0.8761 0.8761 0.8761
3440.000000 0.8761 0.8761 0.8761 0.8761 0.8761
3445.000000 0.8761 0.8761 0.8761 0.8761 0.8761
3450.000000 0.8761 0.8761 0.8761 0.8761 0.8761
3455.000000 0.8761 0.8761 0.8761 0.8761 0.8761
3460.000000 0.8761 0.8761 0.8761 0.8761 0.8762
3465.000000 0.8762 0.8762 0.8762 0.8762 0.8762
3470.000000 0.8763 0.8763 0.8763 0.8763 0.8763
3475.000000 0.8763 0.8764 0.8764 0.8764 0.8764
3480.000000 0.8764 0.8764 0.8765 0.8765 0.8765
3485.000000 0.8765 0.8765 0.8765 0.8766 0.8766
3490.000000 0.8766 0.8766 0.8766 0.8766 0.8767
3495.000000 0.8767 0.8767 0.8767 0.8767 0.8767
3500.000000 0.8768 0.8768 0.8769 0.8769 0.8769
3505.000000 0.8769 0.8770 0.8770 0.8771 0.8771
3510.000000 0.8772 0.8772 0.8772 0.8772 0.8773
3515.000000 0.8773 0.8774 0.8774 0.8775 0.8775
3520.000000 0.8776 0.8776 0.8776 0.8776 0.8777
3525.000000 0.8777 0.8778 0.8778 0.8779 0.8779
3530.000000 0.8779 0.8779 0.8780 0.8780 0.8781
3535.000000 0.8781 0.8782 0.8782 0.8783 0.8784
3540.000000 0.8785 0.8785 0.8786 0.8787 0.8788
3545.000000 0.8788 0.8789 0.8790 0.8791 0.8792
3550.000000 0.8793 0.8793 0.8794 0.8795 0.8796
3555.000000 0.8796 0.8797 0.8798 0.8799 0.8800
3560.000000 0.8801 0.8801 0.8802 0.8803 0.8804
3565.000000 0.8804 0.8805 0.8806 0.8807 0.8807
3570.000000 0.8808 0.8809 0.8810 0.8810 0.8811
3575.000000 0.8812 0.8813 0.8813 0.8814 0.8815
3580.000000 0.8816 0.8816 0.8817 0.8817 0.8818
3585.000000 0.8819 0.8820 0.8820 0.8821 0.8821
3590.000000 0.8821 0.8820 0.8820 0.8819 0.8819
3595.000000 0.8818 0.8818 0.8817 0.8817 0.8816
3600.000000 0.8816 0.8815 0.8815 0.8814 0.8814
3605.000000 0.8812 0.8810 0.8808 0.8807 0.8805
3610.000000 0.8804 0.8802 0.8801 0.8799 0.8798
3615.000000 0.8796 0.8795 0.8794 0.8793 0.8792
3620.000000 0.8792 0.8791 0.8790 0.8789 0.8788
3625.000000 0.8787 0.8786 0.8785 0.8784 0.8783
3630.000000 0.8782 0.8781 0.8781 0.8781 0.8781
3635.000000 0.8781 0.8782 0.8782 0.8783 0.8783
3640.000000 0.8784 0.8784 0.8785 0.8785 0.8785
3645.000000 0.8785 0.8786 0.8786 0.8787 0.8787
3650.000000 0.8788 0.8788 0.8789 0.8789 0.8790
3655.000000 0.8790 0.8791 0.8791 0.8792 0.8793
3660.000000 0.8794 0.8794 0.8795 0.8796 0.8797
3665.000000 0.8798 0.8799 0.8800 0.8801 0.8802
3670.000000 0.8803 0.8804 0.8805 0.8805 0.8806
3675.000000 0.8806 0.8807 0.8807 0.8808 0.8808
3680.000000 0.8808 0.8808 0.8809 0.8809 0.8810
3685.000000 0.8810 0.8811 0.8811 0.8812 0.8812
3690.000000 0.8812 0.8813 0.8814 0.8814 0.8815
3695.000000 0.8815 0.8816 0.8817 0.8818 0.8818
3700.000000 0.8819 0.8819 0.8820 0.8821 0.8822
3705.000000 0.8822 0.8823 0.8825 0.8827 0.8829
3710.000000 0.8832 0.8834 0.8837 0.8840 0.8843
3715.000000 0.8845 0.8848 0.8850 0.8853 0.8854
3720.000000 0.8855 0.8855 0.8856 0.8857 0.8858
3725.000000 0.8858 0.8859 0.8859 0.8860 0.8860
3730.000000 0.8860 0.8859 0.8859 0.8858 0.8858
3735.000000 0.8858 0.8858 0.8857 0.8857 0.8857
3740.000000 0.8857 0.8856 0.8856 0.8856 0.8856
3745.000000 0.8856 0.8856 0.8856 0.8856 0.8856
3750.000000 0.8856 0.8856 0.8856 0.8856 0.8856
3755.000000 0.8856 0.8856 0.8856 0.8856 0.8856
3760.000000 0.8857 0.8857 0.8857 0.8857 0.8858
3765.000000 0.8858 0.8858 0.8858 0.8859 0.8859
3770.000000 0.8859 0.8859 0.8860 0.8860 0.8861
3775.000000 0.8861 0.8862 0.8862 0.8863 0.8863
3780.000000 0.8864 0.8864 0.8865 0.8865 0.8866
3785.000000 0.8866 0.8867 0.8867 0.8868 0.8868
3790.000000 0.8869 0.8869 0.8870 0.8870 0.8871
3795.000000 0.8871 0.8872 0.8872 0.8873 0.8873
3800.000000 0.8874
##END=
