##TITLE=BENZOTHIAZOLE, 2-MERCAPTO-6-NITRO-
##JCAMP-DX=4.24
$$ By DXEDIT 1.05 (RS McDonald)
##DATA TYPE=INFRARED SPECTRUM
##CLASS=COBLENTZ II
##ORIGIN=PERKIN-ELMER CORP. (R. HANNAH)
##OWNER=COBLENTZ SOC.
Collection (C) 2018 copyright by the U.S. Secretary of Commerce
on behalf of the United States of America. All rights reserved.
##DATE=1969/02/04
##NAMES=6-nitro-1,3-benzothiazol-2-yl hydrosulfide
6-nitro-1,3-benzothiazole-2-thiol
##CAS REGISTRY NO=4845-58-3
##MOLFORM=C7 H4 N2 O2 S2
##MP=251 C (DECOMP.)
##SOURCE REFERENCE=COBLENTZ NO. 06016
##$NIST SOURCE=COBLENTZ
##$NIST IMAGE=cob6016
##SPECTROMETER/DATA SYSTEM=PERKIN-ELMER 621 (GRATING)
##INSTRUMENT PARAMETERS=GRATING CHANGE AT 623; ORDER CHANGE AT 2000. FILTERS AT 3146, 2494, 2000, 1146, 698, 497 CM^-^1
##STATE=SOLID (0.5% IN 400 mg KBr DISC) VS KBr
##SAMPLING PROCEDURE=TRANSMISSION
##RESOLUTION=2
##DATA PROCESSING=DIGITIZED BY COBLENTZ SOCIETY (BATCH I) FROM HARD COPY
##XUNITS=1/CM
##YUNITS=TRANSMITTANCE
##XLABEL=Wavenumbers (cm-1)
##YLABEL=Transmittance
##XFACTOR=1
##YFACTOR=1
##DELTAX=1
##FIRSTX=4000
##LASTX=297
##FIRSTY=0.6059
##MAXX=4000
##MINX=297
##MAXY=0.9245
##MINY=0.0176
##NPOINTS=3704
##XYDATA=(X++(Y..Y))
4000.000000 0.6059 0.6059 0.6059 0.6059 0.6060
3995.000000 0.6060 0.6060 0.6060 0.6060 0.6060
3990.000000 0.6060 0.6060 0.6060 0.6060 0.6060
3985.000000 0.6060 0.6060 0.6060 0.6062 0.6062
3980.000000 0.6062 0.6062 0.6062 0.6062 0.6062
3975.000000 0.6062 0.6062 0.6062 0.6062 0.6062
3970.000000 0.6062 0.6062 0.6062 0.6064 0.6065
3965.000000 0.6065 0.6066 0.6067 0.6068 0.6069
3960.000000 0.6070 0.6071 0.6072 0.6073 0.6074
3955.000000 0.6074 0.6075 0.6076 0.6077 0.6078
3950.000000 0.6079 0.6080 0.6081 0.6082 0.6083
3945.000000 0.6083 0.6084 0.6085 0.6086 0.6087
3940.000000 0.6088 0.6089 0.6090 0.6091 0.6093
3935.000000 0.6094 0.6095 0.6096 0.6097 0.6098
3930.000000 0.6099 0.6100 0.6101 0.6102 0.6103
3925.000000 0.6104 0.6106 0.6107 0.6108 0.6109
3920.000000 0.6110 0.6110 0.6112 0.6112 0.6115
3915.000000 0.6117 0.6120 0.6122 0.6124 0.6126
3910.000000 0.6128 0.6130 0.6133 0.6135 0.6137
3905.000000 0.6139 0.6141 0.6143 0.6146 0.6148
3900.000000 0.6150 0.6152 0.6155 0.6157 0.6159
3895.000000 0.6160 0.6162 0.6165 0.6168 0.6170
3890.000000 0.6172 0.6174 0.6176 0.6178 0.6181
3885.000000 0.6183 0.6185 0.6187 0.6189 0.6191
3880.000000 0.6193 0.6195 0.6197 0.6198 0.6200
3875.000000 0.6202 0.6204 0.6205 0.6207 0.6209
3870.000000 0.6210 0.6212 0.6214 0.6215 0.6217
3865.000000 0.6219 0.6221 0.6222 0.6224 0.6226
3860.000000 0.6228 0.6229 0.6231 0.6232 0.6234
3855.000000 0.6236 0.6238 0.6239 0.6241 0.6243
3850.000000 0.6245 0.6246 0.6248 0.6249 0.6251
3845.000000 0.6253 0.6255 0.6256 0.6258 0.6259
3840.000000 0.6260 0.6260 0.6262 0.6264 0.6266
3835.000000 0.6267 0.6269 0.6270 0.6271 0.6272
3830.000000 0.6274 0.6275 0.6277 0.6278 0.6280
3825.000000 0.6281 0.6282 0.6283 0.6285 0.6286
3820.000000 0.6288 0.6289 0.6291 0.6292 0.6293
3815.000000 0.6294 0.6296 0.6297 0.6299 0.6300
3810.000000 0.6302 0.6303 0.6304 0.6305 0.6307
3805.000000 0.6308 0.6310 0.6310 0.6312 0.6314
3800.000000 0.6315 0.6316 0.6318 0.6319 0.6321
3795.000000 0.6322 0.6324 0.6325 0.6326 0.6327
3790.000000 0.6329 0.6330 0.6332 0.6333 0.6335
3785.000000 0.6336 0.6337 0.6338 0.6340 0.6341
3780.000000 0.6343 0.6344 0.6346 0.6347 0.6349
3775.000000 0.6350 0.6352 0.6354 0.6356 0.6357
3770.000000 0.6359 0.6360 0.6362 0.6364 0.6366
3765.000000 0.6368 0.6370 0.6371 0.6373 0.6375
3760.000000 0.6377 0.6378 0.6380 0.6381 0.6383
3755.000000 0.6385 0.6387 0.6388 0.6390 0.6392
3750.000000 0.6394 0.6395 0.6397 0.6399 0.6401
3745.000000 0.6401 0.6404 0.6406 0.6408 0.6408
3740.000000 0.6411 0.6412 0.6415 0.6415 0.6418
3735.000000 0.6418 0.6421 0.6422 0.6425 0.6425
3730.000000 0.6428 0.6430 0.6432 0.6433 0.6435
3725.000000 0.6437 0.6439 0.6440 0.6441 0.6442
3720.000000 0.6444 0.6445 0.6446 0.6447 0.6449
3715.000000 0.6450 0.6451 0.6451 0.6453 0.6454
3710.000000 0.6456 0.6457 0.6458 0.6458 0.6461
3705.000000 0.6461 0.6462 0.6464 0.6465 0.6465
3700.000000 0.6468 0.6468 0.6469 0.6471 0.6472
3695.000000 0.6474 0.6475 0.6475 0.6476 0.6478
3690.000000 0.6480 0.6481 0.6482 0.6483 0.6485
3685.000000 0.6486 0.6487 0.6488 0.6490 0.6491
3680.000000 0.6492 0.6493 0.6494 0.6495 0.6497
3675.000000 0.6498 0.6499 0.6500 0.6501 0.6503
3670.000000 0.6504 0.6505 0.6506 0.6507 0.6508
3665.000000 0.6510 0.6511 0.6511 0.6514 0.6515
3660.000000 0.6515 0.6517 0.6518 0.6519 0.6521
3655.000000 0.6522 0.6524 0.6525 0.6526 0.6528
3650.000000 0.6528 0.6530 0.6532 0.6533 0.6535
3645.000000 0.6536 0.6537 0.6538 0.6540 0.6541
3640.000000 0.6543 0.6544 0.6545 0.6546 0.6548
3635.000000 0.6549 0.6550 0.6551 0.6553 0.6554
3630.000000 0.6556 0.6557 0.6558 0.6558 0.6561
3625.000000 0.6561 0.6564 0.6565 0.6565 0.6567
3620.000000 0.6568 0.6569 0.6571 0.6571 0.6574
3615.000000 0.6575 0.6576 0.6578 0.6578 0.6580
3610.000000 0.6582 0.6583 0.6584 0.6585 0.6587
3605.000000 0.6588 0.6590 0.6591 0.6592 0.6593
3600.000000 0.6595 0.6596 0.6597 0.6598 0.6600
3595.000000 0.6601 0.6601 0.6603 0.6604 0.6605
3590.000000 0.6606 0.6607 0.6608 0.6610 0.6611
3585.000000 0.6611 0.6612 0.6614 0.6615 0.6617
3580.000000 0.6618 0.6618 0.6619 0.6621 0.6622
3575.000000 0.6624 0.6625 0.6625 0.6626 0.6628
3570.000000 0.6630 0.6631 0.6632 0.6633 0.6634
3565.000000 0.6635 0.6637 0.6638 0.6639 0.6640
3560.000000 0.6641 0.6642 0.6644 0.6645 0.6646
3555.000000 0.6647 0.6648 0.6649 0.6651 0.6653
3550.000000 0.6655 0.6657 0.6658 0.6661 0.6662
3545.000000 0.6665 0.6667 0.6668 0.6671 0.6674
3540.000000 0.6675 0.6678 0.6680 0.6682 0.6684
3535.000000 0.6686 0.6689 0.6691 0.6693 0.6695
3530.000000 0.6697 0.6699 0.6701 0.6703 0.6706
3525.000000 0.6708 0.6710 0.6711 0.6714 0.6715
3520.000000 0.6717 0.6718 0.6718 0.6718 0.6719
3515.000000 0.6721 0.6721 0.6721 0.6722 0.6724
3510.000000 0.6725 0.6725 0.6725 0.6726 0.6728
3505.000000 0.6728 0.6728 0.6730 0.6731 0.6731
3500.000000 0.6732 0.6733 0.6734 0.6734 0.6735
3495.000000 0.6735 0.6736 0.6737 0.6738 0.6738
3490.000000 0.6739 0.6740 0.6741 0.6741 0.6742
3485.000000 0.6743 0.6744 0.6744 0.6745 0.6746
3480.000000 0.6747 0.6747 0.6748 0.6749 0.6750
3475.000000 0.6751 0.6753 0.6754 0.6755 0.6756
3470.000000 0.6758 0.6758 0.6761 0.6761 0.6762
3465.000000 0.6764 0.6765 0.6767 0.6768 0.6768
3460.000000 0.6771 0.6771 0.6772 0.6774 0.6775
3455.000000 0.6778 0.6781 0.6783 0.6785 0.6787
3450.000000 0.6790 0.6792 0.6794 0.6796 0.6799
3445.000000 0.6801 0.6803 0.6805 0.6808 0.6810
3440.000000 0.6811 0.6814 0.6815 0.6818 0.6821
3435.000000 0.6822 0.6825 0.6826 0.6828 0.6831
3430.000000 0.6833 0.6835 0.6837 0.6839 0.6841
3425.000000 0.6843 0.6844 0.6844 0.6844 0.6843
3420.000000 0.6843 0.6842 0.6842 0.6841 0.6841
3415.000000 0.6840 0.6840 0.6839 0.6839 0.6838
3410.000000 0.6838 0.6837 0.6837 0.6836 0.6836
3405.000000 0.6834 0.6833 0.6832 0.6831 0.6828
3400.000000 0.6828 0.6826 0.6825 0.6824 0.6822
3395.000000 0.6821 0.6821 0.6818 0.6818 0.6815
3390.000000 0.6815 0.6814 0.6812 0.6811 0.6822
3385.000000 0.6808 0.6808 0.6806 0.6805 0.6804
3380.000000 0.6803 0.6801 0.6800 0.6798 0.6797
3375.000000 0.6795 0.6793 0.6790 0.6788 0.6785
3370.000000 0.6783 0.6781 0.6780 0.6778 0.6778
3365.000000 0.6776 0.6775 0.6774 0.6772 0.6771
3360.000000 0.6771 0.6769 0.6768 0.6768 0.6767
3355.000000 0.6765 0.6764 0.6762 0.6761 0.6760
3350.000000 0.6758 0.6756 0.6755 0.6753 0.6751
3345.000000 0.6749 0.6747 0.6745 0.6743 0.6741
3340.000000 0.6740 0.6738 0.6736 0.6734 0.6732
3335.000000 0.6730 0.6728 0.6725 0.6725 0.6722
3330.000000 0.6721 0.6718 0.6717 0.6715 0.6712
3325.000000 0.6711 0.6710 0.6708 0.6706 0.6704
3320.000000 0.6701 0.6700 0.6698 0.6696 0.6695
3315.000000 0.6693 0.6691 0.6689 0.6687 0.6685
3310.000000 0.6683 0.6681 0.6680 0.6678 0.6675
3305.000000 0.6674 0.6671 0.6669 0.6668 0.6665
3300.000000 0.6665 0.6662 0.6661 0.6658 0.6657
3295.000000 0.6655 0.6653 0.6651 0.6649 0.6647
3290.000000 0.6645 0.6643 0.6641 0.6639 0.6637
3285.000000 0.6635 0.6633 0.6631 0.6628 0.6626
3280.000000 0.6625 0.6621 0.6619 0.6617 0.6615
3275.000000 0.6611 0.6610 0.6607 0.6605 0.6601
3270.000000 0.6600 0.6597 0.6595 0.6592 0.6590
3265.000000 0.6587 0.6585 0.6582 0.6580 0.6576
3260.000000 0.6575 0.6571 0.6569 0.6567 0.6565
3255.000000 0.6561 0.6558 0.6556 0.6554 0.6551
3250.000000 0.6549 0.6545 0.6541 0.6536 0.6531
3245.000000 0.6525 0.6521 0.6515 0.6511 0.6506
3240.000000 0.6501 0.6497 0.6492 0.6487 0.6482
3235.000000 0.6476 0.6471 0.6467 0.6461 0.6456
3230.000000 0.6450 0.6440 0.6431 0.6421 0.6411
3225.000000 0.6403 0.6394 0.6384 0.6375 0.6365
3220.000000 0.6356 0.6347 0.6338 0.6328 0.6319
3215.000000 0.6309 0.6300 0.6291 0.6282 0.6272
3210.000000 0.6262 0.6249 0.6236 0.6223 0.6210
3205.000000 0.6197 0.6184 0.6171 0.6158 0.6145
3200.000000 0.6132 0.6119 0.6106 0.6093 0.6080
3195.000000 0.6067 0.6054 0.6041 0.6028 0.6012
3190.000000 0.5999 0.5982 0.5965 0.5948 0.5932
3185.000000 0.5915 0.5899 0.5882 0.5866 0.5849
3180.000000 0.5832 0.5815 0.5799 0.5782 0.5766
3175.000000 0.5747 0.5729 0.5700 0.5671 0.5642
3170.000000 0.5612 0.5584 0.5555 0.5525 0.5496
3165.000000 0.5442 0.5389 0.5330 0.5271 0.5216
3160.000000 0.5160 0.5116 0.5071 0.5026 0.4981
3155.000000 0.4936 0.4891 0.4857 0.4823 0.4791
3150.000000 0.4759 0.4726 0.4694 0.4662 0.4631
3145.000000 0.4601 0.4572 0.4542 0.4512 0.4482
3140.000000 0.4452 0.4422 0.4393 0.4365 0.4337
3135.000000 0.4314 0.4291 0.4268 0.4245 0.4222
3130.000000 0.4199 0.4175 0.4152 0.4129 0.4106
3125.000000 0.4077 0.4048 0.4018 0.3990 0.3960
3120.000000 0.3932 0.3888 0.3845 0.3788 0.3732
3115.000000 0.3675 0.3618 0.3562 0.3506 0.3450
3110.000000 0.3394 0.3341 0.3289 0.3234 0.3180
3105.000000 0.3112 0.3045 0.2996 0.2947 0.2884
3100.000000 0.2822 0.2760 0.2699 0.2638 0.2577
3095.000000 0.2516 0.2455 0.2417 0.2361 0.2376
3090.000000 0.2373 0.2381 0.2389 0.2415 0.2442
3085.000000 0.2471 0.2500 0.2535 0.2572 0.2609
3080.000000 0.2646 0.2688 0.2730 0.2765 0.2800
3075.000000 0.2830 0.2860 0.2939 0.3034 0.3020
3070.000000 0.3022 0.3004 0.2987 0.2923 0.2860
3065.000000 0.2852 0.2844 0.2843 0.2843 0.2843
3060.000000 0.2846 0.2865 0.2884 0.2918 0.2952
3055.000000 0.2993 0.3034 0.3095 0.3156 0.3204
3050.000000 0.3252 0.3282 0.3312 0.3322 0.3332
3045.000000 0.3341 0.3350 0.3358 0.3366 0.3376
3040.000000 0.3384 0.3393 0.3402 0.3416 0.3432
3035.000000 0.3452 0.3472 0.3491 0.3510 0.3530
3030.000000 0.3550 0.3570 0.3590 0.3612 0.3634
3025.000000 0.3655 0.3677 0.3699 0.3721 0.3742
3020.000000 0.3764 0.3807 0.3850 0.3903 0.3956
3015.000000 0.3992 0.4028 0.4062 0.4099 0.4138
3010.000000 0.4178 0.4216 0.4254 0.4278 0.4303
3005.000000 0.4316 0.4329 0.4340 0.4352 0.4357
3000.000000 0.4362 0.4368 0.4374 0.4378 0.4383
2995.000000 0.4383 0.4383 0.4373 0.4362 0.4353
2990.000000 0.4343 0.4332 0.4322 0.4312 0.4302
2985.000000 0.4301 0.4300 0.4299 0.4298 0.4302
2980.000000 0.4306 0.4312 0.4319 0.4358 0.4397
2975.000000 0.4429 0.4462 0.4494 0.4527 0.4564
2970.000000 0.4601 0.4626 0.4651 0.4667 0.4684
2965.000000 0.4695 0.4707 0.4715 0.4724 0.4730
2960.000000 0.4736 0.4738 0.4731 0.4740 0.4740
2955.000000 0.4735 0.4730 0.4718 0.4707 0.4653
2950.000000 0.4599 0.4501 0.4403 0.4250 0.4098
2945.000000 0.4030 0.3962 0.3922 0.3880 0.3859
2940.000000 0.3839 0.3823 0.3807 0.3800 0.3796
2935.000000 0.3796 0.3797 0.3798 0.3799 0.3800
2930.000000 0.3800 0.3803 0.3806 0.3812 0.3818
2925.000000 0.3824 0.3830 0.3864 0.3899 0.3902
2920.000000 0.3906 0.3909 0.3909 0.3910 0.3909
2915.000000 0.3908 0.3907 0.3905 0.3905 0.3904
2910.000000 0.3906 0.3908 0.3891 0.3934 0.3957
2905.000000 0.3998 0.4040 0.4084 0.4128 0.4166
2900.000000 0.4205 0.4243 0.4282 0.4326 0.4370
2895.000000 0.4414 0.4458 0.4497 0.4536 0.4566
2890.000000 0.4596 0.4623 0.4651 0.4675 0.4700
2885.000000 0.4724 0.4749 0.4762 0.4777 0.4782
2880.000000 0.4793 0.4788 0.4790 0.4790 0.4791
2875.000000 0.4791 0.4792 0.4776 0.4760 0.4730
2870.000000 0.4700 0.4670 0.4641 0.4566 0.4492
2865.000000 0.4380 0.4268 0.4242 0.4216 0.4199
2860.000000 0.4182 0.4173 0.4164 0.4155 0.4146
2855.000000 0.4138 0.4130 0.4124 0.4119 0.4114
2850.000000 0.4088 0.4109 0.4108 0.4107 0.4106
2845.000000 0.4224 0.4343 0.4373 0.4404 0.4434
2840.000000 0.4465 0.4495 0.4526 0.4554 0.4583
2835.000000 0.4610 0.4637 0.4664 0.4691 0.4718
2830.000000 0.4745 0.4775 0.4806 0.4848 0.4891
2825.000000 0.4929 0.4968 0.4995 0.5022 0.5048
2820.000000 0.5075 0.5101 0.5128 0.5154 0.5181
2815.000000 0.5207 0.5234 0.5260 0.5288 0.5312
2810.000000 0.5337 0.5358 0.5379 0.5400 0.5422
2805.000000 0.5442 0.5462 0.5482 0.5503 0.5515
2800.000000 0.5527 0.5536 0.5546 0.5556 0.5566
2795.000000 0.5575 0.5585 0.5590 0.5596 0.5600
2790.000000 0.5605 0.5609 0.5614 0.5617 0.5620
2785.000000 0.5623 0.5626 0.5632 0.5639 0.5652
2780.000000 0.5665 0.5678 0.5691 0.5704 0.5717
2775.000000 0.5730 0.5743 0.5756 0.5769 0.5782
2770.000000 0.5795 0.5807 0.5819 0.5829 0.5839
2765.000000 0.5849 0.5859 0.5869 0.5880 0.5890
2760.000000 0.5900 0.5909 0.5918 0.5921 0.5924
2755.000000 0.5927 0.5930 0.5932 0.5935 0.5938
2750.000000 0.5968 0.5943 0.5946 0.5947 0.5949
2745.000000 0.5949 0.5949 0.5948 0.5947 0.5946
2740.000000 0.5946 0.5945 0.5944 0.5937 0.5931
2735.000000 0.5923 0.5915 0.5906 0.5897 0.5886
2730.000000 0.5875 0.5860 0.5846 0.5827 0.5809
2725.000000 0.5802 0.5796 0.5791 0.5787 0.5787
2720.000000 0.5788 0.5789 0.5791 0.5795 0.5799
2715.000000 0.5828 0.5857 0.5875 0.5893 0.5910
2710.000000 0.5930 0.5954 0.5979 0.6014 0.6050
2705.000000 0.6082 0.6115 0.6140 0.6166 0.6192
2700.000000 0.6218 0.6235 0.6252 0.6267 0.6283
2695.000000 0.6298 0.6314 0.6329 0.6345 0.6359
2690.000000 0.6373 0.6383 0.6394 0.6405 0.6415
2685.000000 0.6425 0.6437 0.6447 0.6457 0.6464
2680.000000 0.6471 0.6476 0.6484 0.6490 0.6497
2675.000000 0.6503 0.6510 0.6515 0.6522 0.6528
2670.000000 0.6536 0.6542 0.6549 0.6554 0.6560
2665.000000 0.6564 0.6568 0.6571 0.6576 0.6581
2660.000000 0.6585 0.6589 0.6594 0.6598 0.6603
2655.000000 0.6607 0.6611 0.6615 0.6621 0.6625
2650.000000 0.6631 0.6636 0.6642 0.6647 0.6653
2645.000000 0.6658 0.6662 0.6668 0.6675 0.6681
2640.000000 0.6688 0.6695 0.6701 0.6707 0.6712
2635.000000 0.6717 0.6721 0.6725 0.6730 0.6734
2630.000000 0.6739 0.6745 0.6751 0.6764 0.6775
2625.000000 0.6788 0.6800 0.6811 0.6822 0.6834
2620.000000 0.6845 0.6855 0.6865 0.6872 0.6880
2615.000000 0.6886 0.6893 0.6900 0.6907 0.6912
2610.000000 0.6919 0.6926 0.6934 0.6937 0.6940
2605.000000 0.6942 0.6945 0.6947 0.6950 0.6951
2600.000000 0.6955 0.6957 0.6960 0.6961 0.6965
2595.000000 0.6968 0.6971 0.6972 0.6975 0.6978
2590.000000 0.6981 0.6983 0.6986 0.6989 0.6993
2585.000000 0.6997 0.7001 0.7005 0.7010 0.7014
2580.000000 0.7018 0.7021 0.7025 0.7030 0.7034
2575.000000 0.7038 0.7043 0.7049 0.7055 0.7061
2570.000000 0.7067 0.7072 0.7080 0.7086 0.7092
2565.000000 0.7096 0.7100 0.7101 0.7105 0.7107
2560.000000 0.7108 0.7111 0.7114 0.7115 0.7115
2555.000000 0.7115 0.7117 0.7118 0.7118 0.7118
2550.000000 0.7119 0.7119 0.7121 0.7121 0.7121
2545.000000 0.7121 0.7122 0.7124 0.7125 0.7125
2540.000000 0.7125 0.7125 0.7126 0.7128 0.7128
2535.000000 0.7131 0.7134 0.7136 0.7139 0.7141
2530.000000 0.7144 0.7146 0.7149 0.7151 0.7154
2525.000000 0.7156 0.7158 0.7161 0.7164 0.7167
2520.000000 0.7169 0.7172 0.7175 0.7178 0.7182
2515.000000 0.7184 0.7187 0.7190 0.7193 0.7196
2510.000000 0.7199 0.7201 0.7205 0.7208 0.7211
2505.000000 0.7214 0.7217 0.7219 0.7222 0.7225
2500.000000 0.7228 0.7231 0.7234 0.7237 0.7240
2495.000000 0.7243 0.7246 0.7249 0.7253 0.7256
2490.000000 0.7258 0.7261 0.7265 0.7268 0.7271
2485.000000 0.7275 0.7278 0.7281 0.7285 0.7288
2480.000000 0.7291 0.7294 0.7297 0.7300 0.7304
2475.000000 0.7307 0.7310 0.7312 0.7317 0.7319
2470.000000 0.7322 0.7325 0.7328 0.7332 0.7335
2465.000000 0.7338 0.7341 0.7344 0.7347 0.7349
2460.000000 0.7351 0.7355 0.7358 0.7360 0.7362
2455.000000 0.7365 0.7368 0.7371 0.7374 0.7378
2450.000000 0.7383 0.7390 0.7397 0.7403 0.7410
2445.000000 0.7417 0.7424 0.7430 0.7437 0.7444
2440.000000 0.7451 0.7457 0.7464 0.7471 0.7478
2435.000000 0.7484 0.7491 0.7498 0.7505 0.7511
2430.000000 0.7518 0.7525 0.7532 0.7538 0.7545
2425.000000 0.7549 0.7553 0.7555 0.7557 0.7558
2420.000000 0.7561 0.7564 0.7567 0.7568 0.7571
2415.000000 0.7574 0.7575 0.7578 0.7581 0.7583
2410.000000 0.7586 0.7588 0.7590 0.7592 0.7595
2405.000000 0.7597 0.7600 0.7601 0.7604 0.7605
2400.000000 0.7607 0.7608 0.7610 0.7611 0.7612
2395.000000 0.7614 0.7615 0.7618 0.7619 0.7621
2390.000000 0.7622 0.7624 0.7625 0.7626 0.7628
2385.000000 0.7630 0.7632 0.7634 0.7636 0.7637
2380.000000 0.7639 0.7640 0.7642 0.7645 0.7648
2375.000000 0.7651 0.7656 0.7658 0.7662 0.7665
2370.000000 0.7669 0.7672 0.7676 0.7681 0.7685
2365.000000 0.7688 0.7692 0.7695 0.7699 0.7701
2360.000000 0.7706 0.7710 0.7714 0.7717 0.7721
2355.000000 0.7724 0.7728 0.7731 0.7734 0.7737
2350.000000 0.7741 0.7744 0.7747 0.7750 0.7754
2345.000000 0.7757 0.7760 0.7762 0.7767 0.7769
2340.000000 0.7772 0.7775 0.7780 0.7783 0.7786
2335.000000 0.7789 0.7793 0.7795 0.7798 0.7799
2330.000000 0.7800 0.7800 0.7801 0.7801 0.7801
2325.000000 0.7801 0.7803 0.7803 0.7804 0.7805
2320.000000 0.7806 0.7806 0.7807 0.7807 0.7808
2315.000000 0.7808 0.7808 0.7808 0.7810 0.7811
2310.000000 0.7811 0.7811 0.7812 0.7814 0.7815
2305.000000 0.7815 0.7817 0.7818 0.7818 0.7819
2300.000000 0.7821 0.7822 0.7824 0.7825 0.7826
2295.000000 0.7828 0.7828 0.7830 0.7831 0.7832
2290.000000 0.7834 0.7835 0.7836 0.7837 0.7839
2285.000000 0.7840 0.7841 0.7842 0.7844 0.7845
2280.000000 0.7846 0.7847 0.7848 0.7849 0.7851
2275.000000 0.7851 0.7853 0.7854 0.7856 0.7857
2270.000000 0.7858 0.7861 0.7862 0.7865 0.7868
2265.000000 0.7869 0.7872 0.7875 0.7878 0.7880
2260.000000 0.7883 0.7885 0.7887 0.7889 0.7892
2255.000000 0.7894 0.7897 0.7899 0.7901 0.7904
2250.000000 0.7906 0.7908 0.7911 0.7912 0.7915
2245.000000 0.7918 0.7921 0.7924 0.7926 0.7930
2240.000000 0.7933 0.7936 0.7940 0.7943 0.7946
2235.000000 0.7949 0.7951 0.7955 0.7958 0.7961
2230.000000 0.7964 0.7967 0.7969 0.7971 0.7972
2225.000000 0.7975 0.7976 0.7978 0.7980 0.7981
2220.000000 0.7983 0.7984 0.7986 0.7987 0.7989
2215.000000 0.7991 0.7993 0.7994 0.7996 0.7997
2210.000000 0.7999 0.8000 0.8001 0.8004 0.8006
2205.000000 0.8007 0.8008 0.8010 0.8011 0.8011
2200.000000 0.8014 0.8015 0.8017 0.8018 0.8019
2195.000000 0.8021 0.8022 0.8024 0.8025 0.8025
2190.000000 0.8028 0.8028 0.8031 0.8032 0.8034
2185.000000 0.8035 0.8037 0.8038 0.8039 0.8040
2180.000000 0.8042 0.8043 0.8045 0.8046 0.8048
2175.000000 0.8049 0.8051 0.8051 0.8054 0.8056
2170.000000 0.8058 0.8058 0.8061 0.8062 0.8065
2165.000000 0.8067 0.8068 0.8071 0.8072 0.8074
2160.000000 0.8075 0.8078 0.8080 0.8082 0.8084
2155.000000 0.8085 0.8087 0.8089 0.8091 0.8093
2150.000000 0.8095 0.8096 0.8098 0.8100 0.8101
2145.000000 0.8103 0.8105 0.8106 0.8108 0.8108
2140.000000 0.8110 0.8111 0.8112 0.8114 0.8115
2135.000000 0.8115 0.8118 0.8118 0.8119 0.8121
2130.000000 0.8122 0.8124 0.8125 0.8126 0.8128
2125.000000 0.8128 0.8131 0.8132 0.8133 0.8134
2120.000000 0.8136 0.8137 0.8139 0.8140 0.8141
2115.000000 0.8142 0.8144 0.8145 0.8146 0.8148
2110.000000 0.8150 0.8151 0.8153 0.8155 0.8157
2105.000000 0.8158 0.8160 0.8161 0.8162 0.8165
2100.000000 0.8167 0.8168 0.8169 0.8171 0.8174
2095.000000 0.8175 0.8176 0.8178 0.8180 0.8182
2090.000000 0.8184 0.8185 0.8187 0.8189 0.8191
2085.000000 0.8192 0.8194 0.8196 0.8198 0.8199
2080.000000 0.8201 0.8203 0.8205 0.8207 0.8210
2075.000000 0.8212 0.8215 0.8217 0.8220 0.8221
2070.000000 0.8225 0.8227 0.8230 0.8232 0.8235
2065.000000 0.8237 0.8239 0.8241 0.8244 0.8246
2060.000000 0.8248 0.8249 0.8250 0.8251 0.8252
2055.000000 0.8253 0.8254 0.8255 0.8256 0.8257
2050.000000 0.8258 0.8259 0.8260 0.8261 0.8262
2045.000000 0.8263 0.8264 0.8264 0.8265 0.8266
2040.000000 0.8267 0.8268 0.8268 0.8270 0.8271
2035.000000 0.8271 0.8273 0.8274 0.8275 0.8275
2030.000000 0.8277 0.8278 0.8278 0.8280 0.8281
2025.000000 0.8281 0.8282 0.8283 0.8284 0.8285
2020.000000 0.8286 0.8287 0.8288 0.8289 0.8290
2015.000000 0.8291 0.8292 0.8293 0.8295 0.8296
2010.000000 0.8297 0.8298 0.8300 0.8301 0.8302
2005.000000 0.8303 0.8305 0.8306 0.8307 0.8309
2000.000000 0.8312 0.8314 0.8316 0.8318 0.8321
1995.000000 0.8323 0.8325 0.8328 0.8330 0.8332
1990.000000 0.8334 0.8337 0.8340 0.8343 0.8346
1985.000000 0.8349 0.8352 0.8356 0.8359 0.8362
1980.000000 0.8365 0.8368 0.8368 0.8370 0.8371
1975.000000 0.8373 0.8374 0.8375 0.8375 0.8377
1970.000000 0.8378 0.8378 0.8381 0.8382 0.8383
1965.000000 0.8384 0.8385 0.8386 0.8387 0.8389
1960.000000 0.8390 0.8391 0.8391 0.8392 0.8393
1955.000000 0.8394 0.8395 0.8396 0.8397 0.8398
1950.000000 0.8399 0.8400 0.8401 0.8402 0.8404
1945.000000 0.8406 0.8407 0.8409 0.8411 0.8413
1940.000000 0.8415 0.8416 0.8418 0.8420 0.8420
1935.000000 0.8420 0.8420 0.8418 0.8418 0.8418
1930.000000 0.8418 0.8417 0.8417 0.8416 0.8416
1925.000000 0.8415 0.8415 0.8416 0.8416 0.8417
1920.000000 0.8417 0.8418 0.8421 0.8423 0.8425
1915.000000 0.8428 0.8430 0.8433 0.8435 0.8435
1910.000000 0.8436 0.8437 0.8428 0.8415 0.8401
1905.000000 0.8381 0.8362 0.8347 0.8340 0.8333
1900.000000 0.8325 0.8320 0.8315 0.8310 0.8305
1895.000000 0.8314 0.8325 0.8336 0.8348 0.8359
1890.000000 0.8370 0.8377 0.8385 0.8393 0.8400
1885.000000 0.8408 0.8415 0.8423 0.8430 0.8434
1880.000000 0.8438 0.8442 0.8447 0.8451 0.8455
1875.000000 0.8459 0.8463 0.8468 0.8471 0.8475
1870.000000 0.8480 0.8484 0.8488 0.8488 0.8489
1865.000000 0.8490 0.8491 0.8492 0.8492 0.8493
1860.000000 0.8494 0.8495 0.8496 0.8496 0.8497
1855.000000 0.8498 0.8499 0.8500 0.8501 0.8502
1850.000000 0.8503 0.8504 0.8505 0.8506 0.8507
1845.000000 0.8508 0.8510 0.8511 0.8512 0.8514
1840.000000 0.8516 0.8517 0.8518 0.8521 0.8523
1835.000000 0.8524 0.8518 0.8513 0.8507 0.8501
1830.000000 0.8496 0.8492 0.8489 0.8485 0.8481
1825.000000 0.8477 0.8474 0.8470 0.8471 0.8471
1820.000000 0.8475 0.8478 0.8481 0.8484 0.8487
1815.000000 0.8491 0.8494 0.8497 0.8500 0.8503
1810.000000 0.8506 0.8509 0.8513 0.8512 0.8512
1805.000000 0.8510 0.8507 0.8505 0.8502 0.8500
1800.000000 0.8497 0.8495 0.8492 0.8490 0.8488
1795.000000 0.8485 0.8485 0.8486 0.8487 0.8489
1790.000000 0.8491 0.8492 0.8494 0.8495 0.8497
1785.000000 0.8499 0.8499 0.8498 0.8497 0.8496
1780.000000 0.8495 0.8493 0.8493 0.8493 0.8493
1775.000000 0.8495 0.8497 0.8499 0.8501 0.8503
1770.000000 0.8505 0.8507 0.8511 0.8516 0.8521
1765.000000 0.8525 0.8531 0.8535 0.8540 0.8547
1760.000000 0.8555 0.8563 0.8571 0.8580 0.8588
1755.000000 0.8590 0.8591 0.8592 0.8594 0.8595
1750.000000 0.8596 0.8597 0.8599 0.8600 0.8601
1745.000000 0.8602 0.8602 0.8603 0.8603 0.8603
1740.000000 0.8603 0.8601 0.8599 0.8596 0.8594
1735.000000 0.8592 0.8589 0.8587 0.8584 0.8581
1730.000000 0.8578 0.8575 0.8573 0.8570 0.8567
1725.000000 0.8563 0.8557 0.8550 0.8543 0.8536
1720.000000 0.8528 0.8517 0.8502 0.8487 0.8473
1715.000000 0.8458 0.8443 0.8431 0.8418 0.8406
1710.000000 0.8394 0.8382 0.8373 0.8364 0.8356
1705.000000 0.8348 0.8339 0.8336 0.8333 0.8330
1700.000000 0.8331 0.8332 0.8338 0.8344 0.8350
1695.000000 0.8356 0.8362 0.8368 0.8375 0.8388
1690.000000 0.8400 0.8412 0.8424 0.8428 0.8431
1685.000000 0.8434 0.8437 0.8440 0.8442 0.8445
1680.000000 0.8448 0.8451 0.8453 0.8453 0.8453
1675.000000 0.8453 0.8452 0.8452 0.8452 0.8452
1670.000000 0.8447 0.8439 0.8431 0.8423 0.8415
1665.000000 0.8408 0.8400 0.8392 0.8384 0.8375
1660.000000 0.8361 0.8346 0.8332 0.8317 0.8305
1655.000000 0.8293 0.8282 0.8270 0.8259 0.8249
1650.000000 0.8242 0.8235 0.8228 0.8221 0.8215
1645.000000 0.8208 0.8202 0.8195 0.8190 0.8187
1640.000000 0.8184 0.8182 0.8178 0.8175 0.8174
1635.000000 0.8171 0.8168 0.8168 0.8168 0.8168
1630.000000 0.8168 0.8167 0.8167 0.8165 0.8165
1625.000000 0.8164 0.8162 0.8161 0.8161 0.8158
1620.000000 0.8172 0.8133 0.8091 0.8042 0.7976
1615.000000 0.7681 0.7186 0.6691 0.6196 0.5702
1610.000000 0.5207 0.4712 0.4471 0.4478 0.4671
1605.000000 0.4923 0.5174 0.5426 0.5678 0.5930
1600.000000 0.6181 0.6385 0.6449 0.6524 0.6576
1595.000000 0.6622 0.6651 0.6668 0.6706 0.6678
1590.000000 0.6668 0.6493 0.6264 0.6035 0.5836
1585.000000 0.5800 0.5809 0.5805 0.5956 0.6178
1580.000000 0.6369 0.6476 0.6584 0.6685 0.6787
1575.000000 0.6889 0.6992 0.7075 0.7147 0.7217
1570.000000 0.7289 0.7365 0.7437 0.7480 0.7521
1565.000000 0.7561 0.7597 0.7625 0.7641 0.7649
1560.000000 0.7685 0.7651 0.7651 0.7635 0.7593
1555.000000 0.7503 0.7411 0.6935 0.6774 0.6619
1550.000000 0.6476 0.6232 0.5622 0.5080 0.4537
1545.000000 0.3995 0.3453 0.2911 0.2369 0.1911
1540.000000 0.1889 0.1875 0.1863 0.1981 0.2269
1535.000000 0.2556 0.2844 0.3131 0.3208 0.3218
1530.000000 0.3246 0.3209 0.3151 0.3091 0.3071
1525.000000 0.3063 0.3098 0.3245 0.3391 0.3538
1520.000000 0.3684 0.3830 0.3978 0.4125 0.4272
1515.000000 0.4418 0.4565 0.4712 0.4858 0.5005
1510.000000 0.5152 0.5299 0.5445 0.5505 0.5531
1505.000000 0.5570 0.5554 0.5558 0.5529 0.5473
1500.000000 0.5342 0.5076 0.4783 0.4489 0.4196
1495.000000 0.3902 0.3609 0.3314 0.3022 0.2729
1490.000000 0.2434 0.2142 0.1848 0.1555 0.1261
1485.000000 0.0939 0.0896 0.0882 0.0874 0.0879
1480.000000 0.0915 0.1503 0.2135 0.2769 0.3132
1475.000000 0.3356 0.3886 0.4030 0.4179 0.4327
1470.000000 0.4449 0.4560 0.4646 0.4689 0.4715
1465.000000 0.4765 0.4889 0.5017 0.5181 0.5348
1460.000000 0.5528 0.5652 0.5754 0.5856 0.5929
1455.000000 0.5990 0.6050 0.6110 0.6182 0.6259
1450.000000 0.6312 0.6355 0.6393 0.6418 0.6443
1445.000000 0.6468 0.6494 0.6518 0.6545 0.6569
1440.000000 0.6599 0.6651 0.6701 0.6743 0.6786
1435.000000 0.6828 0.6892 0.6961 0.7018 0.7075
1430.000000 0.7115 0.7147 0.7168 0.7190 0.7215
1425.000000 0.7246 0.7275 0.7300 0.7318 0.7337
1420.000000 0.7353 0.7358 0.7356 0.7355 0.7351
1415.000000 0.7341 0.7330 0.7296 0.7258 0.7237
1410.000000 0.7237 0.7237 0.7237 0.7237 0.7238
1405.000000 0.7230 0.7190 0.7126 0.7049 0.6644
1400.000000 0.6123 0.5601 0.5079 0.4558 0.4036
1395.000000 0.3514 0.3306 0.3354 0.3800 0.4249
1390.000000 0.4696 0.5131 0.5420 0.5655 0.5803
1385.000000 0.6038 0.6123 0.6160 0.6162 0.6165
1380.000000 0.6171 0.6181 0.6314 0.6434 0.6511
1375.000000 0.6565 0.6540 0.6543 0.6337 0.6046
1370.000000 0.5755 0.5462 0.5172 0.4928 0.4907
1365.000000 0.4903 0.4901 0.4981 0.5084 0.5188
1360.000000 0.5266 0.5286 0.5286 0.5281 0.5208
1355.000000 0.4819 0.4430 0.4041 0.3652 0.3262
1350.000000 0.2525 0.2206 0.1987 0.1806 0.1466
1345.000000 0.1162 0.1081 0.0999 0.0908 0.0810
1340.000000 0.0696 0.0550 0.0345 0.0280 0.0225
1335.000000 0.0191 0.0181 0.0176 0.0191 0.0214
1330.000000 0.0523 0.0667 0.0830 0.0946 0.1624
1325.000000 0.2019 0.2315 0.2630 0.2905 0.3129
1320.000000 0.3404 0.3600 0.3734 0.3871 0.4034
1315.000000 0.4208 0.4426 0.4650 0.4791 0.4931
1310.000000 0.5071 0.5212 0.5284 0.5262 0.5235
1305.000000 0.5189 0.5143 0.5116 0.5123 0.5160
1300.000000 0.5199 0.5237 0.5275 0.5292 0.5314
1295.000000 0.5239 0.5143 0.5046 0.4950 0.4906
1290.000000 0.4902 0.5219 0.5571 0.5900 0.6015
1285.000000 0.6092 0.6173 0.6228 0.6260 0.6285
1280.000000 0.6292 0.6296 0.6312 0.6292 0.6286
1275.000000 0.6272 0.6253 0.6234 0.6202 0.6158
1270.000000 0.6115 0.6052 0.5984 0.5915 0.5803
1265.000000 0.5600 0.5114 0.4833 0.4658 0.4519
1260.000000 0.4380 0.4054 0.3759 0.3464 0.3169
1255.000000 0.2874 0.2579 0.2284 0.1989 0.1694
1250.000000 0.1600 0.1596 0.1604 0.1612 0.1665
1245.000000 0.1982 0.2202 0.2422 0.2641 0.2861
1240.000000 0.3081 0.3300 0.3520 0.3740 0.3959
1235.000000 0.4179 0.4449 0.4612 0.4759 0.4865
1230.000000 0.4970 0.5076 0.5175 0.5274 0.5372
1225.000000 0.5512 0.5778 0.5951 0.6110 0.6217
1220.000000 0.6323 0.6426 0.6531 0.6621 0.6695
1215.000000 0.6768 0.6839 0.6896 0.6954 0.7011
1210.000000 0.7068 0.7126 0.7185 0.7243 0.7300
1205.000000 0.7342 0.7384 0.7425 0.7458 0.7489
1200.000000 0.7518 0.7549 0.7574 0.7593 0.7611
1195.000000 0.7631 0.7650 0.7668 0.7688 0.7705
1190.000000 0.7721 0.7739 0.7756 0.7772 0.7790
1185.000000 0.7807 0.7825 0.7846 0.7865 0.7884
1180.000000 0.7901 0.7915 0.7931 0.7946 0.7961
1175.000000 0.7969 0.7974 0.7978 0.7982 0.7986
1170.000000 0.7990 0.7992 0.7994 0.7997 0.7999
1165.000000 0.8003 0.8007 0.8011 0.8015 0.8019
1160.000000 0.8026 0.8039 0.8051 0.8068 0.8083
1155.000000 0.8095 0.8106 0.8115 0.8121 0.8121
1150.000000 0.8121 0.8122 0.8100 0.8062 0.8008
1145.000000 0.7968 0.7906 0.7776 0.7541 0.7304
1140.000000 0.7068 0.6831 0.6595 0.6358 0.6121
1135.000000 0.6021 0.6010 0.6001 0.6040 0.6144
1130.000000 0.6297 0.6428 0.6551 0.6671 0.6926
1125.000000 0.7035 0.7138 0.7230 0.7321 0.7407
1120.000000 0.7493 0.7556 0.7618 0.7682 0.7742
1115.000000 0.7801 0.7860 0.7918 0.7974 0.8024
1110.000000 0.8076 0.8126 0.8160 0.8180 0.8192
1105.000000 0.8196 0.8200 0.8204 0.8221 0.8207
1100.000000 0.8205 0.8192 0.8175 0.8164 0.8153
1095.000000 0.8138 0.8122 0.8119 0.8139 0.8161
1090.000000 0.8174 0.8181 0.8184 0.8188 0.8191
1085.000000 0.8190 0.8190 0.8189 0.8175 0.8153
1080.000000 0.8087 0.7971 0.7754 0.7337 0.6764
1075.000000 0.6191 0.5618 0.5045 0.4472 0.3900
1070.000000 0.3327 0.2754 0.2181 0.1808 0.1801
1065.000000 0.1816 0.2423 0.2812 0.3200 0.3588
1060.000000 0.3976 0.4140 0.4344 0.4614 0.4773
1055.000000 0.4931 0.5091 0.5318 0.5743 0.5970
1050.000000 0.6198 0.6425 0.6651 0.6878 0.7106
1045.000000 0.7181 0.7211 0.6857 0.6289 0.5722
1040.000000 0.5154 0.4586 0.4018 0.3762 0.3800
1035.000000 0.4271 0.4742 0.5212 0.5683 0.6154
1030.000000 0.6474 0.6835 0.7080 0.7304 0.7415
1025.000000 0.7530 0.7649 0.7749 0.7828 0.7878
1020.000000 0.7911 0.7939 0.7960 0.7980 0.8000
1015.000000 0.8021 0.8041 0.8068 0.8105 0.8140
1010.000000 0.8167 0.8193 0.8220 0.8246 0.8265
1005.000000 0.8282 0.8299 0.8314 0.8318 0.8324
1000.000000 0.8328 0.8331 0.8334 0.8345 0.8365
995.000000 0.8385 0.8408 0.8432 0.8456 0.8475
990.000000 0.8487 0.8499 0.8507 0.8512 0.8516
985.000000 0.8521 0.8530 0.8538 0.8546 0.8554
980.000000 0.8563 0.8571 0.8578 0.8584 0.8591
975.000000 0.8630 0.8604 0.8610 0.8617 0.8621
970.000000 0.8625 0.8628 0.8633 0.8637 0.8641
965.000000 0.8645 0.8649 0.8654 0.8657 0.8657
960.000000 0.8658 0.8659 0.8656 0.8651 0.8642
955.000000 0.8625 0.8578 0.8418 0.8278 0.8287
950.000000 0.8267 0.8352 0.8455 0.8559 0.8612
945.000000 0.8654 0.8683 0.8690 0.8692 0.8693
940.000000 0.8695 0.8697 0.8700 0.8703 0.8707
935.000000 0.8710 0.8713 0.8716 0.8720 0.8721
930.000000 0.8724 0.8725 0.8728 0.8728 0.8682
925.000000 0.8623 0.8550 0.8473 0.8387 0.8313
920.000000 0.8185 0.8056 0.7925 0.7797 0.7667
915.000000 0.7596 0.7596 0.7596 0.7615 0.7665
910.000000 0.7707 0.7743 0.7756 0.7657 0.7515
905.000000 0.7375 0.7234 0.7097 0.7064 0.7154
900.000000 0.7334 0.7514 0.7631 0.7676 0.7724
895.000000 0.7774 0.7826 0.7889 0.7965 0.8039
890.000000 0.8086 0.8133 0.8192 0.8248 0.8280
885.000000 0.8332 0.8381 0.8411 0.8452 0.8520
880.000000 0.8558 0.8590 0.8621 0.8650 0.8677
875.000000 0.8703 0.8728 0.8752 0.8766 0.8775
870.000000 0.8777 0.8778 0.8797 0.8766 0.8753
865.000000 0.8723 0.8693 0.8654 0.8613 0.8582
860.000000 0.8545 0.8530 0.8530 0.8530 0.8528
855.000000 0.8525 0.8523 0.8518 0.8514 0.8507
850.000000 0.8499 0.8482 0.8460 0.8378 0.8292
845.000000 0.7700 0.6868 0.6038 0.5208 0.4377
840.000000 0.3937 0.3962 0.4516 0.5069 0.5623
835.000000 0.6176 0.6728 0.7253 0.7261 0.7221
830.000000 0.7193 0.7154 0.7130 0.7106 0.7078
825.000000 0.7006 0.6352 0.5536 0.4721 0.3906
820.000000 0.3806 0.5165 0.6505 0.7318 0.7931
815.000000 0.8081 0.8241 0.8381 0.8456 0.8518
810.000000 0.8566 0.8604 0.8633 0.8638 0.8642
805.000000 0.8647 0.8650 0.8650 0.8652 0.8660
800.000000 0.8668 0.8678 0.8687 0.8701 0.8715
795.000000 0.8728 0.8741 0.8746 0.8751 0.8749
790.000000 0.8757 0.8756 0.8756 0.8756 0.8751
785.000000 0.8739 0.8728 0.8716 0.8700 0.8683
780.000000 0.8665 0.8648 0.8630 0.8587 0.8538
775.000000 0.8489 0.8440 0.8392 0.8344 0.8297
770.000000 0.8249 0.8200 0.8134 0.8068 0.8003
765.000000 0.7938 0.7874 0.7808 0.7722 0.7595
760.000000 0.7467 0.7199 0.7093 0.6990 0.6894
755.000000 0.6801 0.6428 0.5988 0.5548 0.5107
750.000000 0.4667 0.4227 0.3786 0.3355 0.3352
745.000000 0.3934 0.4628 0.5321 0.6012 0.6671
740.000000 0.6856 0.6975 0.7092 0.7192 0.7254
735.000000 0.7311 0.7390 0.7464 0.7481 0.7495
730.000000 0.7506 0.7511 0.7515 0.7517 0.7518
725.000000 0.7518 0.7515 0.7512 0.7499 0.7485
720.000000 0.7465 0.7441 0.7396 0.7337 0.7278
715.000000 0.7222 0.7124 0.6849 0.6574 0.6557
710.000000 0.6525 0.7558 0.7603 0.7648 0.7693
705.000000 0.7740 0.7788 0.7835 0.7878 0.7921
700.000000 0.7951 0.7978 0.8006 0.8036 0.8065
695.000000 0.8098 0.8134 0.8162 0.8184 0.8201
690.000000 0.8209 0.8206 0.8202 0.8185 0.8142
685.000000 0.7744 0.7288 0.6831 0.6375 0.5918
680.000000 0.5462 0.5005 0.4722 0.4708 0.4747
675.000000 0.4874 0.5386 0.5897 0.6408 0.6918
670.000000 0.6999 0.7018 0.7150 0.7405 0.7661
665.000000 0.7805 0.7790 0.7575 0.7288 0.7001
660.000000 0.6715 0.6428 0.6256 0.6259 0.6438
655.000000 0.6621 0.6807 0.6991 0.7298 0.7433
650.000000 0.7556 0.7678 0.7832 0.7901 0.7969
645.000000 0.8028 0.8071 0.8115 0.8158 0.8202
640.000000 0.8244 0.8275 0.8307 0.8338 0.8356
635.000000 0.8373 0.8389 0.8406 0.8421 0.8437
630.000000 0.8453 0.8473 0.8493 0.8513 0.8553
625.000000 0.8599 0.8644 0.8678 0.8710 0.8741
620.000000 0.8761 0.8775 0.8790 0.8805 0.8818
615.000000 0.8830 0.8840 0.8851 0.8861 0.8871
610.000000 0.8883 0.8893 0.8902 0.8911 0.8920
605.000000 0.8928 0.8938 0.8947 0.8956 0.8963
600.000000 0.8970 0.8978 0.8985 0.8992 0.8999
595.000000 0.9006 0.9013 0.9020 0.9028 0.9038
590.000000 0.9048 0.9057 0.9064 0.9070 0.9075
585.000000 0.9081 0.9085 0.9090 0.9090 0.9071
580.000000 0.9084 0.9078 0.9068 0.9056 0.9038
575.000000 0.8860 0.8659 0.8459 0.8258 0.8058
570.000000 0.7857 0.7793 0.7794 0.7821 0.7865
565.000000 0.7921 0.8047 0.8271 0.8343 0.8403
560.000000 0.8452 0.8494 0.8525 0.8539 0.8554
555.000000 0.8560 0.8543 0.8461 0.8390 0.8318
550.000000 0.8251 0.8181 0.8108 0.8074 0.8062
545.000000 0.8054 0.8065 0.8101 0.8324 0.8436
540.000000 0.8510 0.8585 0.8655 0.8710 0.8757
535.000000 0.8798 0.8832 0.8855 0.8857 0.8860
530.000000 0.8866 0.8873 0.8878 0.8889 0.8903
525.000000 0.8918 0.8937 0.8955 0.8973 0.8990
520.000000 0.9003 0.9017 0.9025 0.9027 0.9028
515.000000 0.9028 0.9028 0.9030 0.9031 0.9035
510.000000 0.9049 0.9062 0.9075 0.9086 0.9096
505.000000 0.9107 0.9117 0.9128 0.9141 0.9151
500.000000 0.9156 0.9160 0.9165 0.9167 0.9167
495.000000 0.9167 0.9167 0.9166 0.9165 0.9163
490.000000 0.9161 0.9159 0.9158 0.9158 0.9151
485.000000 0.9143 0.9135 0.9127 0.9118 0.9111
480.000000 0.9103 0.9096 0.9084 0.9066 0.9043
475.000000 0.9012 0.8982 0.8910 0.8418 0.7564
470.000000 0.6708 0.5855 0.5000 0.4474 0.4473
465.000000 0.5028 0.5630 0.6232 0.6834 0.7436
460.000000 0.7761 0.8295 0.8451 0.8580 0.8661
455.000000 0.8741 0.8803 0.8863 0.8901 0.8932
450.000000 0.8944 0.8956 0.8968 0.8983 0.8997
445.000000 0.9012 0.9018 0.9024 0.9004 0.9032
440.000000 0.9032 0.9033 0.9028 0.9002 0.8909
435.000000 0.8701 0.8494 0.8286 0.8078 0.7824
430.000000 0.7828 0.7839 0.7996 0.8153 0.8310
425.000000 0.8466 0.8623 0.8780 0.8867 0.8927
420.000000 0.8974 0.9010 0.9034 0.9058 0.9081
415.000000 0.9093 0.9106 0.9118 0.9132 0.9143
410.000000 0.9151 0.9160 0.9168 0.9178 0.9186
405.000000 0.9195 0.9204 0.9208 0.9212 0.9216
400.000000 0.9220 0.9224 0.9228 0.9232 0.9242
395.000000 0.9242 0.9241 0.9245 0.9244 0.9243
390.000000 0.9241 0.9240 0.9238 0.9224 0.9173
385.000000 0.9018 0.8924 0.8817 0.8795 0.8794
380.000000 0.8793 0.8847 0.8964 0.9031 0.9093
375.000000 0.9130 0.9164 0.9184 0.9194 0.9199
370.000000 0.9204 0.9208 0.9210 0.9212 0.9214
365.000000 0.9216 0.9218 0.9220 0.9221 0.9224
360.000000 0.9225 0.9228 0.9228 0.9228 0.9230
355.000000 0.9231 0.9232 0.9233 0.9233 0.9233
350.000000 0.9232 0.9232 0.9230 0.9220 0.9210
345.000000 0.9200 0.9193 0.9188 0.9183 0.9178
340.000000 0.9173 0.9167 0.9162 0.9157 0.9157
335.000000 0.9157 0.9157 0.9158 0.9158 0.9160
330.000000 0.9162 0.9164 0.9166 0.9168 0.9170
325.000000 0.9175 0.9178 0.9183 0.9187 0.9192
320.000000 0.9196 0.9200 0.9202 0.9204 0.9206
315.000000 0.9207 0.9207 0.9207 0.9207 0.9202
310.000000 0.9196 0.9191 0.9188 0.9188 0.9188
305.000000 0.9188 0.9189 0.9191 0.9192 0.9194
300.000000 0.9195 0.9196 0.9198 0.9199
##END=
