##TITLE=DECAHYDRONAPHTHALENE, TRANS
##JCAMP-DX=4.24
##DATA TYPE=INFRARED SPECTRUM
##CLASS=COBLENTZ III
##ORIGIN=DOW CHEMICAL COMPANY
##OWNER=COBLENTZ SOCIETY
Collection (C) 2018 copyright by the U.S. Secretary of Commerce
on behalf of the United States of America. All rights reserved.
##DATE=1960/12/12
##NAMES=DECALIN
##CAS REGISTRY NO=493-02-7
##MOLFORM=C10 H18
##SOURCE REFERENCE=COBLENTZ NO. 10124
##$NIST SOURCE=COBLENTZ
##$NIST IMAGE=cob10124
##SPECTROMETER/DATA SYSTEM=DOW KBr FOREPRISM-GRATING
##INSTRUMENT PARAMETERS=BLAZED AT 3.5, 12.0, 20.0 MICRON, CHANGED AT 5.0, 7.5, 14.9 MICRON
##STATE=LIQUID (NEAT)
##PATH LENGTH=0.012 CM
$$ STRUCTURE CONFIRMED BY NMR
$$ SPECTRAL CONTAMINATION DUE TO AN UNKNOWN AROUND 1525 CM^-^1
##SAMPLING PROCEDURE=TRANSMISSION
##RESOLUTION=4
##DATA PROCESSING=DIGITIZED BY NIST FROM HARD COPY (FROM TWO SEGMENTS)
##XUNITS=1/CM
##YUNITS=TRANSMITTANCE
##XFACTOR=1.000000
##YFACTOR=1
##DELTAX=0.851066
##FIRSTX=445.957
##LASTX=3778.73
##FIRSTY=0.924
##MAXX=3778.73
##MINX=445.957
##MAXY=0.991995
##MINY=0.002
##NPOINTS=3917
##XYDATA=(X++(Y..Y))
445.957000 0.9240 0.9220 0.9220 0.9220 0.9220
450.212329 0.9220 0.9220 0.9220 0.9210 0.9210
454.467658 0.9210 0.9210 0.9210 0.9210 0.9220
458.722987 0.9220 0.9220 0.9220 0.9220 0.9220
462.978316 0.9220 0.9220 0.9220 0.9220 0.9220
467.233645 0.9220 0.9220 0.9220 0.9220 0.9220
471.488974 0.9220 0.9220 0.9220 0.9220 0.9220
475.744304 0.9220 0.9220 0.9220 0.9220 0.9220
479.999633 0.9220 0.9220 0.9220 0.9220 0.9220
484.254962 0.9220 0.9220 0.9220 0.9220 0.9220
488.510291 0.9220 0.9220 0.9220 0.9220 0.9220
492.765620 0.9240 0.9240 0.9240 0.9240 0.9240
497.020949 0.9240 0.9240 0.9240 0.9240 0.9240
501.276278 0.9240 0.9240 0.9240 0.9240 0.9240
505.531607 0.9240 0.9220 0.9220 0.9220 0.9220
509.786936 0.9210 0.9210 0.9210 0.9200 0.9180
514.042265 0.9170 0.9150 0.9130 0.9120 0.9090
518.297594 0.9070 0.8960 0.8950 0.8880 0.8771
522.552923 0.8600 0.8470 0.8280 0.7951 0.6673
526.808253 0.5453 0.4563 0.3673 0.3650 0.5540
531.063582 0.6200 0.6610 0.7149 0.7599 0.8228
535.318911 0.8549 0.8889 0.8990 0.9109 0.9219
539.574240 0.9260 0.9290 0.9330 0.9340 0.9360
543.829569 0.9380 0.9400 0.9410 0.9410 0.9410
548.084898 0.9410 0.9420 0.9440 0.9440 0.9450
552.340227 0.9450 0.9450 0.9460 0.9480 0.9480
556.595556 0.9480 0.9480 0.9480 0.9480 0.9480
560.850885 0.9480 0.9480 0.9480 0.9480 0.9490
565.106214 0.9490 0.9500 0.9520 0.9520 0.9530
569.361543 0.9530 0.9540 0.9540 0.9560 0.9560
573.616872 0.9560 0.9570 0.9570 0.9580 0.9570
577.872202 0.9600 0.9600 0.9600 0.9600 0.9610
582.127531 0.9610 0.9610 0.9610 0.9610 0.9610
586.382860 0.9620 0.9620 0.9620 0.9640 0.9640
590.638189 0.9620 0.9620 0.9620 0.9640 0.9640
594.893518 0.9640 0.9640 0.9650 0.9650 0.9650
599.148847 0.9650 0.9650 0.9660 0.9680 0.9680
603.404176 0.9680 0.9680 0.9680 0.9680 0.9680
607.659505 0.9690 0.9700 0.9720 0.9720 0.9730
611.914834 0.9740 0.9740 0.9760 0.9760 0.9760
616.170163 0.9770 0.9770 0.9780 0.9780 0.9780
620.425492 0.9770 0.9780 0.9780 0.9780 0.9780
624.680821 0.9780 0.9780 0.9780 0.9800 0.9800
628.936151 0.9800 0.9800 0.9800 0.9800 0.9800
633.191480 0.9800 0.9780 0.9780 0.9780 0.9780
637.446809 0.9800 0.9800 0.9810 0.9820 0.9820
641.702138 0.9840 0.9850 0.9860 0.9860 0.9880
645.957467 0.9890 0.9890 0.9880 0.9880 0.9880
650.212796 0.9880 0.9890 0.9880 0.9880 0.9890
654.468125 0.9890 0.9890 0.9890 0.9890 0.9890
658.723454 0.9890 0.9880 0.9880 0.9860 0.9860
662.978783 0.9860 0.9860 0.9860 0.9860 0.9860
667.234112 0.9860 0.9860 0.9890 0.9900 0.9900
671.489441 0.9920 0.9900 0.9900 0.9900 0.9900
675.744770 0.9900 0.9890 0.9890 0.9890 0.9880
680.000100 0.9880 0.9880 0.9880 0.9880 0.9880
684.255429 0.9880 0.9880 0.9880 0.9880 0.9860
688.510758 0.9860 0.9860 0.9860 0.9860 0.9860
692.766087 0.9860 0.9860 0.9860 0.9860 0.9850
697.021416 0.9850 0.9850 0.9850 0.9850 0.9850
701.276745 0.9860 0.9860 0.9860 0.9860 0.9880
705.532074 0.9880 0.9880 0.9880 0.9880 0.9880
709.787403 0.9880 0.9880 0.9880 0.9860 0.9860
714.042732 0.9850 0.9850 0.9850 0.9850 0.9840
718.298061 0.9840 0.9840 0.9840 0.9840 0.9840
722.553390 0.9840 0.9840 0.9840 0.9820 0.9810
726.808719 0.9810 0.9810 0.9800 0.9800 0.9800
731.064049 0.9800 0.9800 0.9780 0.9780 0.9780
735.319378 0.9780 0.9770 0.9770 0.9770 0.9770
739.574707 0.9760 0.9760 0.9760 0.9760 0.9740
743.830036 0.9730 0.9730 0.9700 0.9680 0.9680
748.085365 0.9650 0.9620 0.9620 0.9600 0.9560
752.340694 0.9530 0.9500 0.9500 0.9520 0.9530
756.596023 0.9540 0.9560 0.9580 0.9600 0.9610
760.851352 0.9620 0.9620 0.9650 0.9650 0.9680
765.106681 0.9680 0.9690 0.9700 0.9730 0.9740
769.362010 0.9760 0.9760 0.9760 0.9760 0.9760
773.617339 0.9740 0.9740 0.9730 0.9700 0.9700
777.872668 0.9690 0.9680 0.9660 0.9660 0.9650
782.127998 0.9650 0.9640 0.9640 0.9620 0.9600
786.383327 0.9580 0.9570 0.9560 0.9560 0.9540
790.638656 0.9530 0.9500 0.9490 0.9480 0.9460
794.893985 0.9450 0.9440 0.9410 0.9410 0.9380
799.149314 0.9360 0.9300 0.9250 0.9180 0.9090
803.404643 0.8990 0.8880 0.8430 0.6861 0.6860
807.659972 0.8297 0.8350 0.8390 0.8529 0.8799
811.915301 0.8800 0.8770 0.8770 0.8750 0.8710
816.170630 0.8590 0.8490 0.8360 0.8240 0.8121
820.425959 0.7300 0.6780 0.6261 0.5751 0.5411
824.681288 0.1780 0.1351 0.0912 0.0223 0.0220
828.936617 0.1381 0.2940 0.4599 0.5879 0.5890
833.191947 0.5880 0.5730 0.5650 0.5232 0.4423
837.447276 0.2900 0.2230 0.1121 0.0701 0.0271
841.702605 0.0210 0.0210 0.0260 0.1276 0.1628
845.957934 0.2491 0.3131 0.4300 0.4710 0.5369
850.213263 0.6298 0.6579 0.7148 0.7180 0.7539
854.468592 0.7870 0.8020 0.8100 0.8150 0.8160
858.723921 0.8180 0.8180 0.8160 0.8150 0.8150
862.979250 0.8140 0.8140 0.8150 0.8190 0.8230
867.234579 0.8300 0.8320 0.8350 0.8370 0.8430
871.489908 0.8490 0.8530 0.8550 0.8570 0.8590
875.745237 0.8600 0.8630 0.8670 0.8680 0.8690
880.000566 0.8710 0.8730 0.8750 0.8760 0.8770
884.255896 0.8770 0.8770 0.8770 0.8760 0.8730
888.511225 0.8730 0.8720 0.8710 0.8690 0.8690
892.766554 0.8680 0.8630 0.8600 0.8560 0.8530
897.021883 0.8490 0.8450 0.8430 0.8400 0.8370
901.277212 0.8320 0.8310 0.8310 0.8300 0.8280
905.532541 0.8270 0.8230 0.8220 0.8190 0.8150
909.787870 0.8140 0.8030 0.7960 0.7920 0.7840
914.043199 0.7750 0.7640 0.7450 0.7260 0.7060
918.298528 0.6771 0.6371 0.5802 0.5193 0.4424
922.553857 0.3499 0.2239 0.0980 0.0260 0.0070
926.809186 0.0070 0.0290 0.0300 0.1177 0.2007
931.064515 0.2611 0.4840 0.5210 0.5490 0.5969
935.319844 0.6299 0.6659 0.6909 0.7099 0.7409
939.575174 0.7580 0.7700 0.7960 0.8140 0.8180
943.830503 0.8300 0.8320 0.8350 0.8370 0.8390
948.085832 0.8390 0.8390 0.8390 0.8370 0.8370
952.341161 0.8370 0.8360 0.8350 0.8330 0.8320
956.596490 0.8310 0.8270 0.8240 0.8160 0.8140
960.851819 0.8060 0.7960 0.7900 0.7761 0.7621
965.107148 0.7550 0.7260 0.6930 0.6440 0.6020
969.362477 0.5311 0.3713 0.2313 0.1393 0.0473
973.617806 0.0090 0.0090 0.0180 0.1179 0.2638
977.873135 0.4018 0.4619 0.5079 0.6296 0.6669
982.128464 0.6670 0.6650 0.6620 0.6420 0.6180
986.383793 0.5651 0.5082 0.4881 0.4402 0.4400
990.639123 0.5231 0.6201 0.6930 0.7100 0.7330
994.894452 0.7580 0.7750 0.7800 0.7960 0.8109
999.149781 0.8150 0.8220 0.8300 0.8350 0.8390
1003.405110 0.8410 0.8430 0.8450 0.8470 0.8470
1007.660439 0.8470 0.8470 0.8470 0.8450 0.8440
1011.915768 0.8440 0.8430 0.8400 0.8370 0.8360
1016.171097 0.8350 0.8310 0.8240 0.8190 0.8180
1020.426426 0.8140 0.8060 0.7880 0.7790 0.7591
1024.681755 0.7260 0.6790 0.6300 0.4941 0.3552
1028.937084 0.3021 0.1753 0.1750 0.2956 0.4135
1033.192413 0.4460 0.5470 0.6779 0.7249 0.7420
1037.447742 0.7600 0.7700 0.7750 0.7760 0.7780
1041.703072 0.7780 0.7750 0.7740 0.7670 0.7620
1045.958401 0.7490 0.7410 0.7300 0.7180 0.7011
1050.213730 0.6640 0.6290 0.5860 0.5550 0.5270
1054.469059 0.5030 0.4721 0.3344 0.3300 0.3210
1058.724388 0.2230 0.2231 0.3300 0.3770 0.4460
1062.979717 0.5489 0.6448 0.6769 0.7109 0.7419
1067.235046 0.7760 0.7920 0.7980 0.8070 0.8120
1071.490375 0.8200 0.8270 0.8320 0.8330 0.8360
1075.745704 0.8370 0.8370 0.8390 0.8390 0.8390
1080.001033 0.8390 0.8400 0.8400 0.8400 0.8410
1084.256362 0.8410 0.8410 0.8410 0.8430 0.8450
1088.511691 0.8470 0.8480 0.8490 0.8520 0.8530
1092.767021 0.8570 0.8570 0.8590 0.8600 0.8610
1097.022350 0.8630 0.8630 0.8640 0.8650 0.8680
1101.277679 0.8690 0.8710 0.8710 0.8710 0.8720
1105.533008 0.8720 0.8720 0.8720 0.8720 0.8730
1109.788337 0.8730 0.8730 0.8730 0.8720 0.8710
1114.043666 0.8690 0.8690 0.8640 0.8610 0.8570
1118.298995 0.8550 0.8530 0.8510 0.8400 0.8350
1122.554324 0.8300 0.8200 0.8140 0.8040 0.7960
1126.809653 0.7870 0.7800 0.7750 0.7560 0.7500
1131.064982 0.7330 0.6951 0.6850 0.6371 0.6021
1135.320311 0.5529 0.5119 0.3829 0.2530 0.2200
1139.575640 0.1461 0.0711 0.1947 0.2439 0.3048
1143.830970 0.4511 0.4990 0.5770 0.6610 0.6780
1148.086299 0.6940 0.7060 0.7060 0.7010 0.6851
1152.341628 0.6700 0.6540 0.6279 0.5280 0.4560
1156.596957 0.4630 0.4880 0.5549 0.6727 0.6929
1160.852286 0.7310 0.7520 0.7680 0.7760 0.7860
1165.107615 0.7950 0.8100 0.8150 0.8310 0.8360
1169.362944 0.8440 0.8480 0.8560 0.8590 0.8600
1173.618273 0.8600 0.8600 0.8610 0.8610 0.8610
1177.873602 0.8610 0.8610 0.8610 0.8610 0.8630
1182.128931 0.8630 0.8630 0.8630 0.8630 0.8630
1186.384260 0.8630 0.8630 0.8630 0.8610 0.8610
1190.639589 0.8600 0.8570 0.8570 0.8560 0.8550
1194.894919 0.8510 0.8490 0.8470 0.8470 0.8470
1199.150248 0.8470 0.8440 0.8390 0.8350 0.8310
1203.405577 0.8300 0.8230 0.8180 0.8120 0.8110
1207.660906 0.8060 0.7990 0.7980 0.7960 0.7880
1211.916235 0.7840 0.7750 0.7600 0.7470 0.7410
1216.171564 0.7250 0.7110 0.6940 0.6770 0.6581
1220.426893 0.6170 0.5880 0.5350 0.4800 0.4161
1224.682222 0.3781 0.2114 0.1711 0.1690 0.1730
1228.937551 0.2401 0.2981 0.3541 0.4960 0.5150
1233.192880 0.5480 0.5879 0.6090 0.6299 0.6400
1237.448209 0.6440 0.6450 0.6440 0.6400 0.6340
1241.703538 0.6290 0.6180 0.6160 0.6040 0.6010
1245.958868 0.5880 0.5750 0.5630 0.5430 0.5150
1250.214197 0.4791 0.3822 0.2733 0.2132 0.1542
1254.469526 0.0919 0.0470 0.0391 0.1110 0.2190
1258.724855 0.2520 0.3968 0.4599 0.5238 0.5888
1262.980184 0.6200 0.6520 0.6650 0.6790 0.6900
1267.235513 0.6910 0.6940 0.6940 0.6940 0.6940
1271.490842 0.6940 0.6940 0.6940 0.6930 0.6930
1275.746171 0.6930 0.6930 0.6930 0.6940 0.6970
1280.001500 0.6970 0.6980 0.6990 0.6990 0.6980
1284.256829 0.6950 0.6930 0.6910 0.6870 0.6870
1288.512158 0.6860 0.6850 0.6850 0.6820 0.6790
1292.767487 0.6770 0.6740 0.6690 0.6640 0.6600
1297.022817 0.6460 0.6380 0.6290 0.6060 0.5880
1301.278146 0.5530 0.5360 0.5080 0.4671 0.4261
1305.533475 0.3869 0.3218 0.1909 0.0990 0.0860
1309.788804 0.0710 0.0670 0.1688 0.2149 0.2808
1314.044133 0.3202 0.4460 0.4910 0.5290 0.5630
1318.299462 0.5980 0.6080 0.6160 0.6220 0.6240
1322.554791 0.6250 0.6250 0.6210 0.6180 0.6090
1326.810120 0.6010 0.5900 0.5720 0.5560 0.5151
1331.065449 0.4669 0.4028 0.1880 0.1430 0.1070
1335.320778 0.0710 0.0430 0.1428 0.2727 0.3049
1339.576107 0.3541 0.3940 0.4050 0.4090 0.4060
1343.831436 0.3810 0.3320 0.1812 0.1151 0.0871
1348.086766 0.0589 0.0190 0.0190 0.0221 0.1690
1352.342095 0.2050 0.2529 0.3049 0.3579 0.4178
1356.597424 0.4560 0.4780 0.4910 0.5070 0.5230
1360.852753 0.5280 0.5350 0.5360 0.5390 0.5410
1365.108082 0.5490 0.5610 0.5750 0.5900 0.6060
1369.363411 0.6250 0.6610 0.6750 0.6820 0.6830
1373.618740 0.6860 0.6870 0.6870 0.6870 0.6870
1377.874069 0.6860 0.6850 0.6850 0.6780 0.6750
1382.129398 0.6640 0.6600 0.6480 0.6370 0.6280
1386.384727 0.6240 0.6240 0.6250 0.6250 0.6300
1390.640056 0.6320 0.6380 0.6440 0.6450 0.6490
1394.895385 0.6500 0.6500 0.6490 0.6480 0.6460
1399.150714 0.6440 0.6400 0.6300 0.6210 0.6170
1403.406044 0.6140 0.6050 0.6020 0.6020 0.6010
1407.661373 0.6010 0.5960 0.5960 0.5880 0.5770
1411.916702 0.5640 0.5600 0.5480 0.5360 0.5161
1416.172031 0.4789 0.4480 0.4390 0.4360 0.4360
1420.427360 0.4350 0.4350 0.4340 0.4270 0.4190
1424.682689 0.4140 0.3990 0.3890 0.3750 0.3540
1428.938018 0.3380 0.3010 0.2760 0.2191 0.2050
1433.193347 0.1669 0.1260 0.1120 0.0980 0.0780
1437.448676 0.0540 0.0470 0.0340 0.0210 0.0090
1441.704005 0.0070 0.0030 0.0030 0.0020 0.0020
1445.959334 0.0020 0.0020 0.0020 0.0030 0.0050
1450.214663 0.0050 0.0060 0.0060 0.0060 0.0060
1454.469993 0.0070 0.0070 0.0070 0.0070 0.0070
1458.725322 0.0070 0.0070 0.0070 0.0090 0.0090
1462.980651 0.0090 0.0100 0.0130 0.0230 0.0380
1467.235980 0.1031 0.1470 0.1731 0.2270 0.2760
1471.491309 0.3170 0.3380 0.3590 0.3869 0.4239
1475.746638 0.4470 0.4580 0.4820 0.5000 0.5120
1480.001967 0.5330 0.5400 0.5689 0.5770 0.5900
1484.257296 0.6090 0.6170 0.6290 0.6360 0.6460
1488.512625 0.6540 0.6640 0.6770 0.6850 0.7010
1492.767954 0.7070 0.7140 0.7230 0.7290 0.7340
1497.023283 0.7410 0.7460 0.7510 0.7600 0.7660
1501.278612 0.7710 0.7720 0.7740 0.7750 0.7750
1505.533942 0.7750 0.7750 0.7740 0.7740 0.7740
1509.789271 0.7720 0.7710 0.7700 0.7700 0.7700
1514.044600 0.7700 0.7680 0.7660 0.7630 0.7580
1518.299929 0.7460 0.7430 0.7420 0.7410 0.7410
1522.555258 0.7390 0.7330 0.7150 0.6970 0.6242
1526.810587 0.6241 0.6970 0.7130 0.7680 0.8230
1531.065916 0.8450 0.8680 0.8720 0.8770 0.8840
1535.321245 0.8890 0.8920 0.8960 0.8970 0.9000
1539.576574 0.9030 0.9050 0.9110 0.9120 0.9120
1543.831903 0.9130 0.9130 0.9150 0.9170 0.9200
1548.087232 0.9210 0.9250 0.9260 0.9260 0.9280
1552.342561 0.9280 0.9280 0.9280 0.9280 0.9280
1556.597891 0.9280 0.9280 0.9290 0.9300 0.9320
1560.853220 0.9320 0.9320 0.9330 0.9330 0.9330
1565.108549 0.9320 0.9320 0.9320 0.9320 0.9320
1569.363878 0.9290 0.9250 0.9220 0.9200 0.9160
1573.619207 0.9150 0.9130 0.9120 0.9120 0.9120
1577.874536 0.9110 0.9080 0.9070 0.9040 0.9030
1582.129865 0.9010 0.9010 0.9010 0.9030 0.9030
1586.385194 0.9030 0.9040 0.9040 0.9050 0.9070
1590.640523 0.9080 0.9090 0.9110 0.9110 0.9120
1594.895852 0.9130 0.9150 0.9160 0.9180 0.9180
1599.151181 0.9180 0.9180 0.9200 0.9200 0.9200
1603.406510 0.9210 0.9220 0.9240 0.9250 0.9260
1607.661840 0.9280 0.9280 0.9280 0.9280 0.9280
1611.917169 0.9280 0.9260 0.9260 0.9250 0.9240
1616.172498 0.9220 0.9220 0.9210 0.9200 0.9200
1620.427827 0.9170 0.9150 0.9150 0.9130 0.9120
1624.683156 0.9110 0.9080 0.9050 0.9040 0.9030
1628.938485 0.9010 0.9010 0.9010 0.9010 0.9010
1633.193814 0.9010 0.9010 0.9030 0.9030 0.9030
1637.449143 0.9030 0.9030 0.9010 0.9000 0.8970
1641.704472 0.8960 0.8950 0.8930 0.8930 0.8950
1645.959801 0.8950 0.8960 0.8960 0.8970 0.9000
1650.215130 0.9010 0.9070 0.9090 0.9110 0.9120
1654.470459 0.9150 0.9150 0.9160 0.9160 0.9160
1658.725789 0.9170 0.9200 0.9220 0.9240 0.9250
1662.981118 0.9250 0.9250 0.9250 0.9250 0.9240
1667.236447 0.9210 0.9210 0.9210 0.9200 0.9200
1671.491776 0.9210 0.9210 0.9210 0.9210 0.9210
1675.747105 0.9210 0.9210 0.9210 0.9210 0.9210
1680.002434 0.9220 0.9220 0.9220 0.9220 0.9240
1684.257763 0.9240 0.9250 0.9290 0.9300 0.9300
1688.513092 0.9320 0.9320 0.9300 0.9300 0.9300
1692.768421 0.9300 0.9300 0.9300 0.9300 0.9300
1697.023750 0.9300 0.9300 0.9280 0.9250 0.9210
1701.279079 0.9200 0.9180 0.9160 0.9150 0.9130
1705.534408 0.9120 0.9120 0.9120 0.9130 0.9160
1709.789738 0.9170 0.9180 0.9210 0.9240 0.9250
1714.045067 0.9260 0.9260 0.9260 0.9300 0.9300
1718.300396 0.9320 0.9340 0.9410 0.9440 0.9450
1722.555725 0.9450 0.9450 0.9450 0.9450 0.9440
1726.811054 0.9440 0.9420 0.9420 0.9410 0.9380
1731.066383 0.9380 0.9370 0.9360 0.9330 0.9300
1735.321712 0.9240 0.9200 0.9150 0.9110 0.9070
1739.577041 0.9040 0.9030 0.9040 0.9040 0.9050
1743.832370 0.9070 0.9080 0.9110 0.9110 0.9110
1748.087699 0.9130 0.9150 0.9150 0.9180 0.9200
1752.343028 0.9220 0.9240 0.9250 0.9260 0.9300
1756.598357 0.9320 0.9370 0.9420 0.9450 0.9490
1760.853687 0.9530 0.9530 0.9530 0.9540 0.9540
1765.109016 0.9540 0.9540 0.9540 0.9540 0.9540
1769.364345 0.9540 0.9530 0.9530 0.9520 0.9500
1773.619674 0.9500 0.9490 0.9490 0.9460 0.9440
1777.875003 0.9440 0.9420 0.9410 0.9400 0.9380
1782.130332 0.9360 0.9330 0.9320 0.9300 0.9210
1786.385661 0.9160 0.9120 0.9000 0.8930 0.8890
1790.640990 0.8830 0.8810 0.8790 0.8770 0.8750
1794.896319 0.8750 0.8730 0.8720 0.8730 0.8750
1799.151648 0.8770 0.8800 0.8850 0.8910 0.8970
1803.406977 0.9000 0.9040 0.9070 0.9080 0.9090
1807.662306 0.9090 0.9090 0.9090 0.9090 0.9090
1811.917636 0.9090 0.9090 0.9110 0.9110 0.9120
1816.172965 0.9120 0.9150 0.9200 0.9280 0.9360
1820.428294 0.9370 0.9400 0.9400 0.9440 0.9450
1824.683623 0.9450 0.9460 0.9460 0.9480 0.9530
1828.938952 0.9540 0.9540 0.9540 0.9560 0.9560
1833.194281 0.9540 0.9530 0.9530 0.9530 0.9530
1837.449610 0.9530 0.9530 0.9530 0.9530 0.9540
1841.704939 0.9560 0.9560 0.9560 0.9560 0.9540
1845.960268 0.9530 0.9530 0.9530 0.9520 0.9480
1850.215597 0.9420 0.9400 0.9370 0.9360 0.9320
1854.470926 0.9320 0.9300 0.9300 0.9280 0.9260
1858.726255 0.9250 0.9220 0.9210 0.9200 0.9180
1862.981585 0.9170 0.9180 0.9210 0.9260 0.9280
1867.236914 0.9300 0.9290 0.9280 0.9260 0.9240
1871.492243 0.9210 0.9210 0.9200 0.9200 0.9210
1875.747572 0.9240 0.9260 0.9330 0.9400 0.9450
1880.002901 0.9500 0.9530 0.9530 0.9530 0.9530
1884.258230 0.9530 0.9520 0.9490 0.9460 0.9450
1888.513559 0.9450 0.9440 0.9420 0.9410 0.9380
1892.768888 0.9380 0.9370 0.9370 0.9370 0.9370
1897.024217 0.9370 0.9370 0.9360 0.9360 0.9360
1901.279546 0.9340 0.9340 0.9330 0.9320 0.9320
1905.534875 0.9300 0.9300 0.9290 0.9290 0.9280
1909.790204 0.9290 0.9320 0.9320 0.9340 0.9400
1914.045533 0.9420 0.9460 0.9480 0.9490 0.9490
1918.300863 0.9490 0.9480 0.9460 0.9420 0.9410
1922.556192 0.9400 0.9380 0.9380 0.9370 0.9370
1926.811521 0.9370 0.9370 0.9360 0.9340 0.9360
1931.066850 0.9360 0.9360 0.9360 0.9360 0.9360
1935.322179 0.9340 0.9340 0.9330 0.9330 0.9330
1939.577508 0.9300 0.9260 0.9260 0.9290 0.9300
1943.832837 0.9320 0.9340 0.9380 0.9440 0.9480
1948.088166 0.9540 0.9560 0.9570 0.9580 0.9600
1952.343495 0.9610 0.9610 0.9610 0.9610 0.9610
1956.598824 0.9610 0.9620 0.9680 0.9730 0.9740
1960.854153 0.9680 0.9600 0.9480 0.9450 0.9450
1965.109482 0.9440 0.9420 0.9420 0.9410 0.9400
1969.364812 0.9380 0.9370 0.9360 0.9340 0.9330
1973.620141 0.9330 0.9320 0.9320 0.9250 0.9220
1977.875470 0.9180 0.9160 0.9130 0.9110 0.9040
1982.130799 0.8950 0.8920 0.8910 0.8870 0.8850
1986.386128 0.8840 0.8830 0.8840 0.8850 0.8890
1990.641457 0.8920 0.8930 0.8970 0.8990 0.9030
1994.896786 0.9110 0.9170 0.9250 0.9320 0.9330
1999.152115 0.9330 0.9340 0.9340 0.9340 0.9340
2003.407444 0.9340 0.9340 0.9340 0.9355 0.9370
2007.662773 0.9390 0.9410 0.9410 0.9410 0.9405
2011.918102 0.9400 0.9385 0.9371 0.9356 0.9341
2016.173431 0.9311 0.9281 0.9183 0.9083 0.8988
2020.428761 0.8893 0.8808 0.8723 0.8643 0.8563
2024.684090 0.8560 0.8560 0.8712 0.8872 0.8923
2028.939419 0.8967 0.9059 0.9154 0.9258 0.9363
2033.194748 0.9422 0.9477 0.9485 0.9490 0.9490
2037.450077 0.9490 0.9490 0.9490 0.9471 0.9451
2041.705406 0.9399 0.9344 0.9331 0.9321 0.9306
2045.960735 0.9291 0.9276 0.9261 0.9251 0.9241
2050.216064 0.9213 0.9182 0.9166 0.9151 0.9132
2054.471393 0.9112 0.9092 0.9072 0.9056 0.9042
2058.726722 0.9040 0.9040 0.9071 0.9106 0.9172
2062.982051 0.9242 0.9281 0.9316 0.9373 0.9433
2067.237380 0.9449 0.9459 0.9456 0.9451 0.9432
2071.492710 0.9412 0.9388 0.9363 0.9351 0.9341
2075.748039 0.9336 0.9331 0.9330 0.9330 0.9326
2080.003368 0.9321 0.9303 0.9283 0.9255 0.9225
2084.258697 0.9190 0.9155 0.9047 0.8927 0.8893
2088.514026 0.8873 0.8870 0.8870 0.8887 0.8907
2092.769355 0.8914 0.8919 0.8999 0.9094 0.9131
2097.024684 0.9156 0.9177 0.9196 0.9249 0.9309
2101.280013 0.9328 0.9338 0.9340 0.9340 0.9348
2105.535342 0.9358 0.9364 0.9369 0.9370 0.9370
2109.790671 0.9366 0.9361 0.9348 0.9333 0.9326
2114.046000 0.9321 0.9320 0.9320 0.9320 0.9320
2118.301329 0.9312 0.9302 0.9276 0.9246 0.9228
2122.556659 0.9213 0.9198 0.9183 0.9168 0.9153
2126.811988 0.9123 0.9088 0.9064 0.9044 0.9040
2131.067317 0.9040 0.9044 0.9049 0.9065 0.9085
2135.322646 0.9132 0.9188 0.9204 0.9209 0.9210
2139.577975 0.9210 0.9210 0.9210 0.9206 0.9201
2143.833304 0.9200 0.9200 0.9200 0.9200 0.9189
2148.088633 0.9174 0.9155 0.9135 0.9123 0.9113
2152.343962 0.9084 0.9049 0.9025 0.9005 0.8996
2156.599291 0.8991 0.8979 0.8964 0.8949 0.8934
2160.854620 0.8908 0.8878 0.8827 0.8767 0.8725
2165.109949 0.8690 0.8676 0.8671 0.8663 0.8653
2169.365278 0.8643 0.8633 0.8623 0.8613 0.8596
2173.620608 0.8576 0.8549 0.8519 0.8457 0.8382
2177.875937 0.8255 0.8106 0.7991 0.7891 0.7791
2182.131266 0.7691 0.7612 0.7542 0.7489 0.7445
2186.386595 0.7430 0.7430 0.7537 0.7692 0.7822
2190.641924 0.7942 0.8126 0.8341 0.8447 0.8502
2194.897253 0.8530 0.8545 0.8550 0.8550 0.8487
2199.152582 0.8392 0.8317 0.8252 0.8191 0.8131
2203.407911 0.8028 0.7902 0.7840 0.7810 0.7800
2207.663240 0.7800 0.7836 0.7891 0.7913 0.7918
2211.918569 0.7926 0.7936 0.7943 0.7948 0.7953
2216.173898 0.7958 0.7991 0.8041 0.8135 0.8255
2220.429227 0.8341 0.8406 0.8468 0.8528 0.8581
2224.684557 0.8631 0.8684 0.8739 0.8788 0.8833
2228.939886 0.8872 0.8906 0.8929 0.8944 0.8953
2233.195215 0.8958 0.8960 0.8960 0.8951 0.8936
2237.450544 0.8924 0.8914 0.8889 0.8854 0.8840
2241.705873 0.8840 0.8837 0.8832 0.8824 0.8814
2245.961202 0.8807 0.8802 0.8800 0.8800 0.8803
2250.216531 0.8808 0.8810 0.8810 0.8810 0.8810
2254.471860 0.8810 0.8810 0.8816 0.8826 0.8833
2258.727189 0.8838 0.8840 0.8840 0.8832 0.8817
2262.982518 0.8807 0.8802 0.8800 0.8800 0.8789
2267.237847 0.8769 0.8738 0.8698 0.8661 0.8626
2271.493176 0.8597 0.8571 0.8527 0.8467 0.8410
2275.748506 0.8355 0.8335 0.8345 0.8342 0.8327
2280.003835 0.8307 0.8282 0.8231 0.8156 0.8097
2284.259164 0.8052 0.7976 0.7871 0.7812 0.7797
2288.514493 0.7790 0.7790 0.7819 0.7873 0.7905
2292.769822 0.7915 0.7966 0.8056 0.8125 0.8175
2297.025151 0.8225 0.8275 0.8280 0.8240 0.8195
2301.280480 0.8146 0.8108 0.8083 0.8048 0.8003
2305.535809 0.7970 0.7950 0.7913 0.7858 0.7811
2309.791138 0.7771 0.7748 0.7743 0.7740 0.7740
2314.046467 0.7749 0.7769 0.7799 0.7839 0.7872
2318.301796 0.7897 0.7931 0.7976 0.8025 0.8080
2322.557125 0.8117 0.8132 0.8142 0.8147 0.8159
2326.812455 0.8179 0.8199 0.8219 0.8237 0.8252
2331.067784 0.8271 0.8296 0.8277 0.8202 0.8140
2335.323113 0.8096 0.8038 0.7963 0.7920 0.7920
2339.578442 0.7962 0.8063 0.8124 0.8134 0.8140
2343.833771 0.8140 0.8125 0.8090 0.8070 0.8070
2348.089100 0.8072 0.8077 0.8088 0.8108 0.8126
2352.344429 0.8141 0.8156 0.8171 0.8200 0.8250
2356.599758 0.8296 0.8336 0.8362 0.8367 0.8368
2360.855087 0.8363 0.8348 0.8318 0.8292 0.8272
2365.110416 0.8252 0.8232 0.8214 0.8199 0.8196
2369.365745 0.8211 0.8213 0.8193 0.8180 0.8180
2373.621074 0.8176 0.8166 0.8158 0.8153 0.8148
2377.876403 0.8143 0.8136 0.8126 0.8120 0.8120
2382.131733 0.8116 0.8106 0.8080 0.8026 0.7974
2386.387062 0.7929 0.7862 0.7752 0.7539 0.7125
2390.642391 0.6809 0.6688 0.6610 0.6610 0.6626
2394.897720 0.6670 0.6729 0.6814 0.7037 0.7531
2399.153049 0.7923 0.8113 0.8243 0.8253 0.8260
2403.408378 0.8260 0.8255 0.8240 0.8219 0.8184
2407.663707 0.8146 0.8101 0.8051 0.7991 0.7931
2411.919036 0.7871 0.7810 0.7745 0.7695 0.7680
2416.174365 0.7670 0.7670 0.7676 0.7696 0.7720
2420.429694 0.7755 0.7803 0.7883 0.7960 0.8030
2424.685023 0.8091 0.8132 0.8163 0.8173 0.8177
2428.940352 0.8167 0.8157 0.8147 0.8136 0.8121
2433.195682 0.8103 0.8078 0.8056 0.8041 0.8029
2437.451011 0.8024 0.8021 0.8026 0.8042 0.8086
2441.706340 0.8125 0.8145 0.8191 0.8305 0.8413
2445.961669 0.8503 0.8588 0.8658 0.8721 0.8766
2450.216998 0.8804 0.8819 0.8831 0.8836 0.8840
2454.472327 0.8840 0.8840 0.8840 0.8839 0.8834
2458.727656 0.8828 0.8818 0.8800 0.8761 0.8725
2462.982985 0.8705 0.8680 0.8635 0.8590 0.8545
2467.238314 0.8506 0.8486 0.8433 0.8258 0.8056
2471.493643 0.7752 0.7490 0.7390 0.7308 0.7298
2475.748972 0.7290 0.7290 0.7307 0.7387 0.7473
2480.004301 0.7588 0.7708 0.7848 0.7960 0.7960
2484.259631 0.7959 0.7954 0.7947 0.7932 0.7908
2488.514960 0.7843 0.7772 0.7673 0.7579 0.7514
2492.770289 0.7457 0.7442 0.7421 0.7371 0.7319
2497.025618 0.7260 0.7195 0.7105 0.7005 0.6855
2501.280947 0.6727 0.6707 0.6690 0.6690 0.6730
2505.536276 0.6995 0.7247 0.7432 0.7610 0.7750
2509.791605 0.7876 0.7922 0.7966 0.8006 0.8041
2514.046934 0.8051 0.8064 0.8089 0.8113 0.8138
2518.302263 0.8163 0.8183 0.8200 0.8200 0.8199
2522.557592 0.8189 0.8178 0.8163 0.8146 0.8111
2526.812921 0.8070 0.7979 0.7889 0.7799 0.7719
2531.068250 0.7714 0.7711 0.7716 0.7721 0.7731
2535.323580 0.7742 0.7762 0.7781 0.7785 0.7791
2539.578909 0.7806 0.7820 0.7825 0.7830 0.7830
2543.834238 0.7830 0.7825 0.7817 0.7787 0.7752
2548.089567 0.7662 0.7569 0.7445 0.7327 0.7292
2552.344896 0.7258 0.7239 0.7220 0.7220 0.7222
2556.600225 0.7247 0.7270 0.7270 0.7269 0.7259
2560.855554 0.7249 0.7234 0.7219 0.7204 0.7189
2565.110883 0.7179 0.7168 0.7138 0.7109 0.7084
2569.366212 0.7054 0.6940 0.6822 0.6632 0.6446
2573.621541 0.6341 0.6232 0.6013 0.5790 0.5456
2577.876870 0.5126 0.4970 0.4813 0.4633 0.4459
2582.132199 0.4445 0.4435 0.4594 0.4751 0.4786
2586.387529 0.4821 0.4881 0.4942 0.5092 0.5241
2590.642858 0.5316 0.5390 0.5390 0.5390 0.5350
2594.898187 0.5310 0.5255 0.5200 0.5160 0.5119
2599.153516 0.4959 0.4800 0.4820 0.4840 0.4959
2603.408845 0.5079 0.5100 0.5120 0.5154 0.5189
2607.664174 0.5278 0.5368 0.5370 0.5370 0.5254
2611.919503 0.5134 0.5081 0.5031 0.5015 0.5000
2616.174832 0.4951 0.4901 0.4900 0.4900 0.4943
2620.430161 0.4988 0.5038 0.5088 0.5224 0.5364
2624.685490 0.5365 0.5360 0.5346 0.5331 0.4844
2628.940819 0.4331 0.4111 0.3909 0.3729 0.3549
2633.196148 0.3365 0.3180 0.2807 0.2423 0.2400
2637.451478 0.2400 0.2946 0.3529 0.4076 0.4620
2641.706807 0.4743 0.4833 0.4927 0.5022 0.5016
2645.962136 0.5001 0.4954 0.4904 0.4798 0.4689
2650.217465 0.4515 0.4335 0.4032 0.3718 0.3376
2654.472794 0.3032 0.2860 0.2705 0.2267 0.1798
2658.728123 0.1535 0.1296 0.1056 0.0817 0.0639
2662.983452 0.0470 0.0450 0.0450 0.0486 0.0526
2667.238781 0.0557 0.0587 0.0599 0.0609 0.0808
2671.494110 0.1033 0.1608 0.2231 0.2815 0.3394
2675.749439 0.3470 0.3470 0.3453 0.3433 0.3439
2680.004768 0.3449 0.3476 0.3506 0.3588 0.3678
2684.260097 0.3716 0.3746 0.3814 0.3889 0.3968
2688.515427 0.4048 0.4073 0.4088 0.4090 0.4090
2692.770756 0.4044 0.3989 0.3513 0.2954 0.2769
2697.026085 0.2659 0.2640 0.2640 0.2875 0.3154
2701.281414 0.3479 0.3814 0.3928 0.3998 0.4002
2705.536743 0.3992 0.3871 0.3727 0.3557 0.3383
2709.792072 0.3350 0.3350 0.3664 0.4053 0.4134
2714.047401 0.4139 0.4309 0.4520 0.4698 0.4867
2718.302730 0.4969 0.5053 0.5134 0.5214 0.5298
2722.558059 0.5383 0.5479 0.5579 0.5679 0.5778
2726.813388 0.5855 0.5925 0.5948 0.5958 0.5952
2731.068717 0.5942 0.5940 0.5940 0.5924 0.5904
2735.324046 0.5884 0.5865 0.5856 0.5851 0.5827
2739.579376 0.5797 0.5779 0.5764 0.5711 0.5646
2743.834705 0.5600 0.5560 0.5505 0.5445 0.5311
2748.090034 0.5151 0.5024 0.4908 0.4876 0.4871
2752.345363 0.4870 0.4870 0.4874 0.4879 0.4876
2756.600692 0.4871 0.4852 0.4827 0.4762 0.4682
2760.856021 0.4638 0.4608 0.4550 0.4480 0.4374
2765.111350 0.4254 0.4152 0.4056 0.3954 0.3849
2769.366679 0.3694 0.3519 0.3337 0.3153 0.2979
2773.622008 0.2809 0.2679 0.2564 0.2512 0.2488
2777.877337 0.2449 0.2404 0.2328 0.2238 0.2138
2782.132666 0.2033 0.1907 0.1771 0.1636 0.1501
2786.387995 0.1353 0.1198 0.1119 0.1074 0.1026
2790.643325 0.0976 0.0868 0.0734 0.0653 0.0598
2794.898654 0.0563 0.0538 0.0530 0.0530 0.0543
2799.153983 0.0563 0.0573 0.0578 0.0567 0.0547
2803.409312 0.0537 0.0532 0.0517 0.0497 0.0467
2807.664641 0.0432 0.0404 0.0379 0.0351 0.0321
2811.919970 0.0297 0.0277 0.0267 0.0262 0.0257
2816.175299 0.0252 0.0244 0.0234 0.0227 0.0222
2820.430628 0.0204 0.0179 0.0145 0.0105 0.0077
2824.685957 0.0058 0.0041 0.0026 0.0020 0.0020
2828.941286 0.0020 0.0020 0.0020 0.0020 0.0020
2833.196615 0.0020 0.0020 0.0020 0.0020 0.0020
2837.451944 0.0020 0.0020 0.0020 0.0020 0.0020
2841.707273 0.0020 0.0020 0.0020 0.0020 0.0020
2845.962603 0.0020 0.0020 0.0020 0.0020 0.0020
2850.217932 0.0020 0.0020 0.0020 0.0020 0.0020
2854.473261 0.0020 0.0020 0.0020 0.0020 0.0020
2858.728590 0.0020 0.0020 0.0020 0.0020 0.0020
2862.983919 0.0020 0.0020 0.0020 0.0020 0.0020
2867.239248 0.0020 0.0020 0.0020 0.0020 0.0020
2871.494577 0.0020 0.0020 0.0020 0.0020 0.0020
2875.749906 0.0020 0.0020 0.0020 0.0020 0.0020
2880.005235 0.0020 0.0020 0.0020 0.0020 0.0020
2884.260564 0.0020 0.0020 0.0020 0.0020 0.0020
2888.515893 0.0020 0.0020 0.0020 0.0020 0.0020
2892.771222 0.0020 0.0020 0.0020 0.0020 0.0020
2897.026552 0.0020 0.0020 0.0020 0.0020 0.0020
2901.281881 0.0020 0.0020 0.0020 0.0020 0.0020
2905.537210 0.0020 0.0020 0.0020 0.0020 0.0020
2909.792539 0.0020 0.0020 0.0020 0.0020 0.0020
2914.047868 0.0020 0.0020 0.0020 0.0020 0.0020
2918.303197 0.0020 0.0020 0.0020 0.0020 0.0020
2922.558526 0.0020 0.0020 0.0020 0.0020 0.0020
2926.813855 0.0020 0.0020 0.0020 0.0020 0.0020
2931.069184 0.0020 0.0020 0.0020 0.0020 0.0020
2935.324513 0.0020 0.0022 0.0027 0.0030 0.0030
2939.579842 0.0030 0.0030 0.0030 0.0030 0.0030
2943.835171 0.0030 0.0034 0.0044 0.0050 0.0050
2948.090501 0.0050 0.0050 0.0050 0.0050 0.0050
2952.345830 0.0050 0.0052 0.0057 0.0062 0.0067
2956.601159 0.0070 0.0070 0.0074 0.0084 0.0092
2960.856488 0.0097 0.0102 0.0107 0.0116 0.0131
2965.111817 0.0142 0.0147 0.0154 0.0164 0.0174
2969.367146 0.0184 0.0211 0.0266 0.0321 0.0376
2973.622475 0.0429 0.0479 0.0533 0.0592 0.0663
2977.877804 0.0753 0.0872 0.1042 0.1210 0.1374
2982.133133 0.1550 0.1744 0.1907 0.2012 0.2117
2986.388462 0.2221 0.2325 0.2425 0.2520 0.2605
2990.643791 0.2695 0.2795 0.2900 0.3015 0.3104
2994.899120 0.3144 0.3197 0.3277 0.3367 0.3477
2999.154450 0.3596 0.3736 0.3879 0.4028 0.4172
3003.409779 0.4301 0.4430 0.4556 0.4670 0.4759
3007.665108 0.4833 0.4873 0.4948 0.5098 0.5244
3011.920437 0.5384 0.5494 0.5539 0.5588 0.5648
3016.175766 0.5728 0.5852 0.5973 0.6082 0.6186
3020.431095 0.6276 0.6362 0.6437 0.6507 0.6561
3024.686424 0.6610 0.6645 0.6679 0.6709 0.6730
3028.941753 0.6730 0.6730 0.6730 0.6726 0.6711
3033.197082 0.6700 0.6700 0.6699 0.6694 0.6690
3037.452411 0.6690 0.6687 0.6677 0.6663 0.6638
3041.707740 0.6617 0.6607 0.6597 0.6587 0.6579
3045.963069 0.6574 0.6561 0.6526 0.6495 0.6475
3050.218399 0.6454 0.6429 0.6406 0.6391 0.6379
3054.473728 0.6374 0.6370 0.6370 0.6370 0.6370
3058.729057 0.6371 0.6376 0.6384 0.6399 0.6415
3062.984386 0.6435 0.6453 0.6468 0.6482 0.6492
3067.239715 0.6508 0.6542 0.6577 0.6612 0.6651
3071.495044 0.6706 0.6756 0.6786 0.6820 0.6865
3075.750373 0.6907 0.6942 0.6976 0.7006 0.7049
3080.005702 0.7144 0.7233 0.7298 0.7357 0.7392
3084.261031 0.7424 0.7444 0.7472 0.7537 0.7604
3088.516360 0.7684 0.7760 0.7815 0.7868 0.7913
3092.771689 0.7956 0.7991 0.8024 0.8044 0.8063
3097.027018 0.8083 0.8102 0.8112 0.8122 0.8137
3101.282348 0.8150 0.8150 0.8149 0.8144 0.8140
3105.537677 0.8140 0.8140 0.8140 0.8140 0.8140
3109.793006 0.8138 0.8128 0.8119 0.8114 0.8109
3114.048335 0.8104 0.8098 0.8083 0.8069 0.8064
3118.303664 0.8058 0.8043 0.8027 0.8008 0.7988
3122.558993 0.7973 0.7959 0.7954 0.7949 0.7944
3126.814322 0.7939 0.7929 0.7915 0.7870 0.7828
3131.069651 0.7808 0.7787 0.7762 0.7738 0.7718
3135.324980 0.7698 0.7678 0.7657 0.7627 0.7598
3139.580309 0.7578 0.7558 0.7538 0.7519 0.7514
3143.835638 0.7510 0.7510 0.7510 0.7515 0.7520
3148.090967 0.7520 0.7523 0.7552 0.7581 0.7591
3152.346297 0.7601 0.7611 0.7621 0.7631 0.7643
3156.601626 0.7693 0.7742 0.7772 0.7803 0.7843
3160.856955 0.7883 0.7923 0.7963 0.8013 0.8062
3165.112284 0.8086 0.8111 0.8126 0.8140 0.8145
3169.367613 0.8150 0.8150 0.8150 0.8150 0.8150
3173.622942 0.8150 0.8150 0.8145 0.8140 0.8130
3177.878271 0.8120 0.8110 0.8099 0.8084 0.8070
3182.133600 0.8055 0.8039 0.8014 0.7990 0.7975
3186.388929 0.7960 0.7950 0.7939 0.7889 0.7840
3190.644258 0.7810 0.7780 0.7750 0.7719 0.7674
3194.899587 0.7630 0.7605 0.7580 0.7570 0.7560
3199.154916 0.7555 0.7550 0.7550 0.7550 0.7550
3203.410246 0.7550 0.7555 0.7560 0.7570 0.7580
3207.665575 0.7585 0.7590 0.7595 0.7600 0.7600
3211.920904 0.7600 0.7610 0.7620 0.7620 0.7620
3216.176233 0.7610 0.7600 0.7600 0.7600 0.7600
3220.431562 0.7600 0.7595 0.7590 0.7576 0.7561
3224.686891 0.7555 0.7550 0.7550 0.7550 0.7545
3228.942220 0.7540 0.7530 0.7520 0.7511 0.7501
3233.197549 0.7486 0.7471 0.7465 0.7460 0.7455
3237.452878 0.7450 0.7441 0.7431 0.7425 0.7420
3241.708207 0.7415 0.7410 0.7401 0.7391 0.7381
3245.963536 0.7371 0.7342 0.7312 0.7301 0.7291
3250.218865 0.7281 0.7271 0.7265 0.7260 0.7260
3254.474195 0.7260 0.7265 0.7270 0.7279 0.7289
3258.729524 0.7308 0.7328 0.7366 0.7406 0.7451
3262.984853 0.7495 0.7536 0.7576 0.7602 0.7627
3267.240182 0.7643 0.7658 0.7713 0.7773 0.7802
3271.495511 0.7827 0.7843 0.7858 0.7886 0.7916
3275.750840 0.7950 0.7985 0.8029 0.8074 0.8124
3280.006169 0.8174 0.8215 0.8255 0.8277 0.8297
3284.261498 0.8309 0.8319 0.8333 0.8348 0.8354
3288.516827 0.8359 0.8364 0.8369 0.8378 0.8388
3292.772156 0.8390 0.8390 0.8390 0.8390 0.8394
3297.027485 0.8399 0.8400 0.8400 0.8400 0.8400
3301.282814 0.8400 0.8400 0.8400 0.8400 0.8400
3305.538143 0.8400 0.8400 0.8400 0.8400 0.8400
3309.793473 0.8396 0.8391 0.8390 0.8390 0.8390
3314.048802 0.8390 0.8390 0.8390 0.8390 0.8390
3318.304131 0.8390 0.8390 0.8390 0.8390 0.8390
3322.559460 0.8390 0.8382 0.8372 0.8370 0.8370
3326.814789 0.8370 0.8370 0.8366 0.8361 0.8356
3331.070118 0.8351 0.8350 0.8350 0.8342 0.8332
3335.325447 0.8330 0.8330 0.8338 0.8348 0.8365
3339.580776 0.8385 0.8394 0.8399 0.8411 0.8426
3343.836105 0.8438 0.8448 0.8465 0.8485 0.8498
3348.091434 0.8508 0.8510 0.8510 0.8518 0.8527
3352.346763 0.8537 0.8547 0.8550 0.8550 0.8550
3356.602092 0.8550 0.8554 0.8559 0.8560 0.8560
3360.857422 0.8556 0.8551 0.8543 0.8533 0.8523
3365.112751 0.8513 0.8510 0.8510 0.8499 0.8484
3369.368080 0.8466 0.8446 0.8429 0.8414 0.8406
3373.623409 0.8401 0.8396 0.8391 0.8383 0.8373
3377.878738 0.8370 0.8370 0.8363 0.8353 0.8339
3382.134067 0.8324 0.8320 0.8320 0.8317 0.8312
3386.389396 0.8300 0.8285 0.8273 0.8263 0.8250
3390.644725 0.8235 0.8227 0.8222 0.8220 0.8220
3394.900054 0.8220 0.8220 0.8220 0.8220 0.8220
3399.155383 0.8220 0.8220 0.8220 0.8213 0.8203
3403.410712 0.8200 0.8200 0.8200 0.8200 0.8200
3407.666041 0.8200 0.8197 0.8192 0.8180 0.8165
3411.921371 0.8160 0.8160 0.8157 0.8152 0.8150
3416.176700 0.8150 0.8153 0.8158 0.8166 0.8176
3420.432029 0.8180 0.8180 0.8180 0.8180 0.8180
3424.687358 0.8180 0.8180 0.8180 0.8180 0.8180
3428.942687 0.8174 0.8164 0.8154 0.8144 0.8134
3433.198016 0.8124 0.8117 0.8112 0.8107 0.8102
3437.453345 0.8094 0.8084 0.8065 0.8040 0.8021
3441.708674 0.8006 0.7997 0.7992 0.7987 0.7982
3445.964003 0.7974 0.7964 0.7960 0.7960 0.7957
3450.219332 0.7952 0.7950 0.7950 0.7950 0.7950
3454.474661 0.7950 0.7950 0.7950 0.7950 0.7950
3458.729990 0.7950 0.7953 0.7958 0.7960 0.7960
3462.985320 0.7966 0.7976 0.7980 0.7980 0.7986
3467.240649 0.7996 0.8006 0.8016 0.8026 0.8036
3471.495978 0.8051 0.8071 0.8085 0.8095 0.8103
3475.751307 0.8108 0.8113 0.8118 0.8125 0.8135
3480.006636 0.8145 0.8155 0.8178 0.8214 0.8233
3484.261965 0.8238 0.8256 0.8286 0.8305 0.8315
3488.517294 0.8338 0.8373 0.8403 0.8428 0.8458
3492.772623 0.8493 0.8520 0.8540 0.8565 0.8595
3497.027952 0.8625 0.8655 0.8685 0.8715 0.8750
3501.283281 0.8790 0.8820 0.8840 0.8865 0.8895
3505.538610 0.8912 0.8917 0.8930 0.8950 0.8967
3509.793939 0.8982 0.9002 0.9027 0.9049 0.9069
3514.049269 0.9082 0.9087 0.9095 0.9105 0.9112
3518.304598 0.9117 0.9120 0.9120 0.9120 0.9120
3522.559927 0.9120 0.9120 0.9120 0.9120 0.9120
3526.815256 0.9120 0.9120 0.9120 0.9120 0.9120
3531.070585 0.9120 0.9120 0.9120 0.9120 0.9120
3535.325914 0.9120 0.9120 0.9120 0.9120 0.9120
3539.581243 0.9120 0.9120 0.9120 0.9120 0.9120
3543.836572 0.9120 0.9120 0.9120 0.9120 0.9120
3548.091901 0.9120 0.9120 0.9120 0.9120 0.9122
3552.347230 0.9127 0.9130 0.9130 0.9130 0.9130
3556.602559 0.9130 0.9130 0.9128 0.9123 0.9120
3560.857888 0.9120 0.9120 0.9120 0.9120 0.9120
3565.113218 0.9118 0.9113 0.9110 0.9110 0.9110
3569.368547 0.9110 0.9110 0.9110 0.9106 0.9096
3573.623876 0.9090 0.9090 0.9090 0.9090 0.9090
3577.879205 0.9090 0.9088 0.9083 0.9078 0.9073
3582.134534 0.9070 0.9070 0.9070 0.9070 0.9070
3586.389863 0.9070 0.9070 0.9070 0.9066 0.9056
3590.645192 0.9050 0.9050 0.9050 0.9050 0.9050
3594.900521 0.9050 0.9050 0.9050 0.9050 0.9050
3599.155850 0.9050 0.9050 0.9050 0.9050 0.9048
3603.411179 0.9043 0.9040 0.9040 0.9040 0.9040
3607.666508 0.9040 0.9040 0.9040 0.9040 0.9040
3611.921837 0.9040 0.9040 0.9040 0.9040 0.9040
3616.177167 0.9039 0.9034 0.9027 0.9017 0.9008
3620.432496 0.9003 0.9000 0.9000 0.8999 0.8994
3624.687825 0.8986 0.8971 0.8956 0.8941 0.8929
3628.943154 0.8924 0.8916 0.8901 0.8883 0.8858
3633.198483 0.8833 0.8808 0.8781 0.8745 0.8705
3637.453812 0.8650 0.8598 0.8553 0.8519 0.8514
3641.709141 0.8510 0.8510 0.8511 0.8516 0.8520
3645.964470 0.8520 0.8521 0.8526 0.8532 0.8542
3650.219799 0.8550 0.8550 0.8550 0.8550 0.8550
3654.475128 0.8550 0.8550 0.8550 0.8548 0.8538
3658.730457 0.8529 0.8524 0.8520 0.8520 0.8519
3662.985786 0.8514 0.8507 0.8492 0.8479 0.8474
3667.241116 0.8464 0.8434 0.8402 0.8361 0.8328
3671.496445 0.8318 0.8309 0.8304 0.8300 0.8300
3675.751774 0.8300 0.8300 0.8300 0.8300 0.8298
3680.007103 0.8288 0.8280 0.8280 0.8278 0.8268
3684.262432 0.8254 0.8225 0.8198 0.8188 0.8176
3688.517761 0.8156 0.8137 0.8122 0.8109 0.8104
3692.773090 0.8100 0.8100 0.8100 0.8100 0.8100
3697.028419 0.8100 0.8098 0.8088 0.8079 0.8074
3701.283748 0.8069 0.8064 0.8058 0.8043 0.8027
3705.539077 0.8013 0.7998 0.7988 0.7978 0.7968
3709.794406 0.7959 0.7954 0.7949 0.7944 0.7941
3714.049735 0.7946 0.7951 0.7956 0.7964 0.7994
3718.305065 0.8023 0.8048 0.8073 0.8093 0.8110
3722.560394 0.8110 0.8111 0.8116 0.8120 0.8120
3726.815723 0.8120 0.8120 0.8119 0.8114 0.8108
3731.071052 0.8093 0.8079 0.8074 0.8068 0.8053
3735.326381 0.8037 0.8013 0.7988 0.7968 0.7948
3739.581710 0.7933 0.7919 0.7909 0.7898 0.7878
3743.837039 0.7859 0.7844 0.7829 0.7814 0.7800
3748.092368 0.7795 0.7790 0.7785 0.7779 0.7769
3752.347697 0.7760 0.7760 0.7760 0.7760 0.7760
3756.603026 0.7760 0.7761 0.7771 0.7780 0.7780
3760.858355 0.7780 0.7785 0.7790 0.7795 0.7802
3765.113684 0.7832 0.7862 0.7902 0.7940 0.7950
3769.369013 0.7960 0.7970 0.7981 0.8011 0.8042
3773.624343 0.8072 0.8101 0.8131 0.8161 0.8176
3777.879672 0.8191 0.8206
##END=
