##TITLE=DECAHYDRONAPHTHALENE, TRANS
##JCAMP-DX=4.24
##DATA TYPE=INFRARED SPECTRUM
##CLASS=COBLENTZ III
##ORIGIN=DOW CHEMICAL COMPANY
##OWNER=COBLENTZ SOCIETY
Collection (C) 2018 copyright by the U.S. Secretary of Commerce
on behalf of the United States of America. All rights reserved.
##DATE=1969/11/06
##NAMES=DECALIN
##CAS REGISTRY NO=493-02-7
##MOLFORM=C10 H18
##SOURCE REFERENCE=COBLENTZ NO. 10125
##$NIST SOURCE=COBLENTZ
##$NIST IMAGE=cob10125
##SPECTROMETER/DATA SYSTEM=DOW KBr FOREPRISM-GRATING
##INSTRUMENT PARAMETERS=BLAZED AT 3.5, 12.0, 20.0 MICRON, CHANGED AT 5.0, 7.5, 14.9 MICRON
##STATE=SOLUTION (10% IN CCl4 FOR 3800-1335 AND 10% IN CS2 FOR 1335-470 CM^-^1) VS. SOLVENT
##PATH LENGTH=0.011, 0.012CM
$$ STRUCTURE CONFIRMED BY NMR
##SAMPLING PROCEDURE=TRANSMISSION
##RESOLUTION=4
##DATA PROCESSING=DIGITIZED BY NIST FROM HARD COPY (FROM TWO SEGMENTS)
##XUNITS=1/CM
##YUNITS=TRANSMITTANCE
##XFACTOR=1.000000
##YFACTOR=1
##DELTAX=0.851972
##FIRSTX=467.306
##LASTX=3799.37
##FIRSTY=1.058
##MAXX=3799.37
##MINX=467.306
##MAXY=1.058
##MINY=0.001
##NPOINTS=3912
##XYDATA=(X++(Y..Y))
467.306000 1.0580 1.0550 1.0550 1.0540 1.0530
471.565861 1.0510 1.0500 1.0490 1.0470 1.0470
475.825722 1.0470 1.0460 1.0460 1.0450 1.0450
480.085583 1.0420 1.0410 1.0380 1.0370 1.0350
484.345444 1.0340 1.0340 1.0330 1.0330 1.0310
488.605305 1.0290 1.0260 1.0260 1.0250 1.0250
492.865166 1.0250 1.0250 1.0250 1.0250 1.0250
497.125027 1.0250 1.0250 1.0250 1.0230 1.0220
501.384888 1.0220 1.0220 1.0210 1.0210 1.0210
505.644749 1.0190 1.0190 1.0180 1.0170 1.0150
509.904610 1.0140 1.0110 1.0110 1.0110 1.0100
514.164471 1.0090 1.0070 1.0060 1.0060 1.0050
518.424332 1.0020 1.0010 1.0000 0.9970 0.9930
522.684193 0.9890 0.9840 0.9770 0.9660 0.9491
526.944054 0.9400 0.9400 0.9420 0.9610 0.9740
531.203915 0.9800 0.9900 0.9970 0.9980 1.0010
535.463776 1.0020 1.0030 1.0050 1.0050 1.0060
539.723637 1.0060 1.0070 1.0070 1.0060 1.0060
543.983498 1.0050 1.0020 1.0010 1.0010 1.0010
548.243359 1.0000 0.9980 0.9970 0.9970 1.0000
552.503220 1.0030 1.0030 1.0020 1.0020 1.0020
556.763081 1.0020 1.0020 1.0050 1.0070 1.0090
561.022943 1.0090 1.0050 1.0020 1.0010 1.0010
565.282804 1.0000 0.9980 0.9960 0.9960 0.9970
569.542665 1.0010 1.0010 1.0020 1.0030 1.0030
573.802526 1.0050 1.0050 1.0050 1.0070 1.0090
578.062387 1.0090 1.0070 1.0030 1.0010 1.0010
582.322248 1.0000 1.0000 1.0000 1.0000 1.0000
586.582109 1.0000 1.0010 1.0010 1.0010 1.0000
590.841970 0.9980 0.9980 1.0030 1.0030 1.0010
595.101831 0.9980 0.9970 0.9970 0.9970 0.9960
599.361692 0.9960 0.9930 0.9930 0.9940 0.9940
603.621553 0.9940 0.9940 0.9930 0.9930 0.9930
607.881414 0.9980 0.9980 1.0000 1.0000 1.0000
612.141275 1.0000 0.9980 0.9920 0.9890 0.9900
616.401136 0.9970 0.9980 0.9980 0.9970 0.9940
620.660997 0.9920 0.9890 0.9820 0.9820 0.9890
624.920858 0.9920 0.9940 0.9970 0.9980 1.0000
629.180719 0.9980 0.9970 0.9940 0.9940 1.0010
633.440580 1.0020 1.0030 1.0050 1.0050 1.0020
637.700441 0.9980 1.0060 1.0070 1.0030 1.0010
641.960302 1.0000 0.9970 0.9970 1.0010 1.0020
646.220163 1.0020 1.0010 1.0000 0.9980 0.9900
650.480024 0.9850 0.9960 0.9980 1.0000 1.0000
654.739885 0.9980 0.9980 0.9970 0.9960 0.9960
658.999746 0.9940 0.9960 0.9940 0.9940 0.9940
663.259607 0.9930 0.9940 0.9930 0.9890 0.9880
667.519468 0.9860 0.9920 0.9930 0.9930 0.9920
671.779329 0.9920 0.9920 0.9900 0.9890 0.9880
676.039190 0.9890 0.9890 0.9900 0.9900 0.9920
680.299051 0.9920 0.9920 0.9930 0.9920 0.9920
684.558912 0.9920 0.9920 0.9920 0.9900 0.9900
688.818773 0.9890 0.9890 0.9900 0.9920 0.9920
693.078634 0.9930 0.9930 0.9940 0.9980 0.9980
697.338495 0.9980 1.0000 1.0000 1.0000 0.9980
701.598356 0.9980 0.9940 0.9920 0.9900 0.9920
705.858217 0.9920 0.9930 0.9940 1.0000 1.0030
710.118078 1.0030 1.0020 1.0000 0.9930 0.9920
714.377939 0.9900 0.9900 0.9900 0.9900 0.9890
718.637800 0.9890 0.9920 0.9930 0.9920 0.9930
722.897661 0.9930 0.9940 0.9930 0.9940 0.9940
727.157522 0.9940 0.9940 0.9940 0.9960 0.9970
731.417383 0.9970 0.9970 0.9970 0.9960 0.9940
735.677244 0.9930 0.9930 0.9920 0.9920 0.9900
739.937106 0.9860 0.9860 0.9880 0.9880 0.9880
744.196967 0.9860 0.9900 0.9920 0.9920 0.9920
748.456828 0.9920 0.9920 0.9900 0.9880 0.9860
752.716689 0.9860 0.9850 0.9850 0.9860 0.9860
756.976550 0.9880 0.9880 0.9860 0.9880 0.9890
761.236411 0.9900 0.9920 0.9920 0.9900 0.9930
765.496272 0.9930 0.9930 0.9930 0.9940 0.9940
769.756133 1.0000 1.0000 0.9980 0.9980 0.9940
774.015994 0.9930 0.9930 0.9930 0.9930 0.9930
778.275855 0.9940 0.9940 0.9960 0.9970 0.9970
782.535716 0.9970 0.9970 0.9970 0.9970 0.9960
786.795577 0.9960 0.9940 0.9930 0.9920 0.9920
791.055438 0.9900 0.9900 0.9880 0.9860 0.9890
795.315299 0.9890 0.9890 0.9890 0.9880 0.9860
799.575160 0.9840 0.9810 0.9770 0.9730 0.9690
803.835021 0.9690 0.9740 0.9780 0.9800 0.9810
808.094882 0.9820 0.9820 0.9810 0.9800 0.9800
812.354743 0.9780 0.9770 0.9760 0.9760 0.9740
816.614604 0.9690 0.9650 0.9580 0.9530 0.9370
820.874465 0.9210 0.8950 0.8671 0.7912 0.7382
825.134326 0.6831 0.7290 0.7710 0.7740 0.8509
829.394187 0.9319 0.9370 0.9370 0.9360 0.9340
833.654048 0.9290 0.9130 0.8930 0.8650 0.8360
837.913909 0.7871 0.7171 0.6861 0.6561 0.7098
842.173770 0.7110 0.7340 0.8000 0.8849 0.9259
846.433631 0.9490 0.9560 0.9650 0.9740 0.9800
850.693492 0.9820 0.9820 0.9810 0.9800 0.9800
854.953353 0.9800 0.9780 0.9770 0.9780 0.9770
859.213214 0.9770 0.9740 0.9730 0.9720 0.9720
863.473075 0.9720 0.9720 0.9720 0.9720 0.9730
867.732936 0.9730 0.9740 0.9760 0.9780 0.9780
871.992797 0.9780 0.9800 0.9800 0.9800 0.9800
876.252658 0.9810 0.9820 0.9840 0.9850 0.9860
880.512519 0.9880 0.9890 0.9880 0.9880 0.9890
884.772380 0.9890 0.9900 0.9900 0.9900 0.9900
889.032241 0.9920 0.9920 0.9900 0.9900 0.9900
893.292102 0.9900 0.9900 0.9890 0.9890 0.9880
897.551963 0.9840 0.9840 0.9810 0.9810 0.9810
901.811824 0.9810 0.9810 0.9810 0.9810 0.9810
906.071685 0.9810 0.9810 0.9800 0.9800 0.9780
910.331546 0.9770 0.9760 0.9720 0.9690 0.9680
914.591407 0.9640 0.9610 0.9570 0.9530 0.9460
918.851268 0.9380 0.9119 0.8560 0.8280 0.7191
923.111130 0.6411 0.5631 0.5630 0.5879 0.7694
927.370991 0.8240 0.8550 0.9200 0.9370 0.9490
931.630852 0.9530 0.9540 0.9580 0.9620 0.9660
935.890713 0.9720 0.9760 0.9780 0.9800 0.9800
940.150574 0.9810 0.9820 0.9850 0.9850 0.9820
944.410435 0.9820 0.9820 0.9820 0.9840 0.9850
948.670296 0.9860 0.9860 0.9860 0.9860 0.9860
952.930157 0.9860 0.9860 0.9850 0.9850 0.9850
957.190018 0.9840 0.9820 0.9800 0.9780 0.9770
961.449879 0.9770 0.9760 0.9720 0.9660 0.9570
965.709740 0.9530 0.9370 0.9220 0.8931 0.8551
969.969601 0.7779 0.7169 0.6560 0.6250 0.6250
974.229462 0.7589 0.8149 0.8918 0.9209 0.9320
978.489323 0.9410 0.9500 0.9540 0.9560 0.9560
982.749184 0.9540 0.9500 0.9450 0.9340 0.9250
987.009045 0.9240 0.9240 0.9360 0.9480 0.9560
991.268906 0.9640 0.9660 0.9690 0.9720 0.9760
995.528767 0.9760 0.9770 0.9800 0.9810 0.9820
999.788628 0.9840 0.9850 0.9860 0.9860 0.9860
1004.048489 0.9880 0.9880 0.9880 0.9880 0.9880
1008.308350 0.9890 0.9880 0.9850 0.9850 0.9860
1012.568211 0.9860 0.9860 0.9860 0.9880 0.9880
1016.828072 0.9890 0.9890 0.9880 0.9860 0.9860
1021.087933 0.9850 0.9840 0.9800 0.9720 0.9620
1025.347794 0.9560 0.9360 0.9150 0.8841 0.8720
1029.607655 0.8721 0.9071 0.9530 0.9640 0.9720
1033.867516 0.9760 0.9770 0.9770 0.9780 0.9780
1038.127377 0.9780 0.9780 0.9770 0.9770 0.9760
1042.387238 0.9760 0.9700 0.9660 0.9640 0.9600
1046.647099 0.9560 0.9540 0.9490 0.9410 0.9330
1050.906960 0.9280 0.9240 0.9170 0.9120 0.8950
1055.166821 0.8790 0.8670 0.8640 0.8670 0.9000
1059.426682 0.9220 0.9380 0.9530 0.9570 0.9640
1063.686543 0.9680 0.9700 0.9760 0.9760 0.9760
1067.946404 0.9770 0.9770 0.9780 0.9780 0.9780
1072.206265 0.9780 0.9800 0.9810 0.9800 0.9800
1076.466126 0.9800 0.9800 0.9800 0.9800 0.9800
1080.725987 0.9780 0.9780 0.9770 0.9770 0.9770
1084.985848 0.9780 0.9780 0.9780 0.9780 0.9780
1089.245709 0.9800 0.9800 0.9770 0.9780 0.9780
1093.505570 0.9780 0.9780 0.9780 0.9800 0.9800
1097.765431 0.9780 0.9800 0.9800 0.9810 0.9810
1102.025293 0.9810 0.9810 0.9810 0.9810 0.9810
1106.285154 0.9810 0.9820 0.9810 0.9810 0.9780
1110.545015 0.9800 0.9780 0.9780 0.9770 0.9770
1114.804876 0.9760 0.9760 0.9760 0.9730 0.9730
1119.064737 0.9720 0.9700 0.9690 0.9660 0.9650
1123.324598 0.9640 0.9610 0.9600 0.9570 0.9540
1127.584459 0.9540 0.9530 0.9490 0.9410 0.9360
1131.844320 0.9320 0.9220 0.9120 0.8850 0.8600
1136.104181 0.8150 0.7680 0.7560 0.7560 0.8069
1140.364042 0.8691 0.9000 0.9130 0.9180 0.9210
1144.623903 0.9240 0.9260 0.9260 0.9250 0.9250
1148.883764 0.9180 0.9120 0.8970 0.8830 0.8840
1153.143625 0.8890 0.9010 0.9070 0.9120 0.9150
1157.403486 0.9200 0.9200 0.9210 0.9220 0.9280
1161.663347 0.9320 0.9340 0.9370 0.9400 0.9440
1165.923208 0.9460 0.9480 0.9490 0.9520 0.9530
1170.183069 0.9540 0.9540 0.9540 0.9560 0.9580
1174.442930 0.9610 0.9620 0.9640 0.9640 0.9640
1178.702791 0.9650 0.9660 0.9680 0.9690 0.9690
1182.962652 0.9690 0.9690 0.9690 0.9690 0.9690
1187.222513 0.9690 0.9690 0.9690 0.9690 0.9690
1191.482374 0.9680 0.9680 0.9680 0.9680 0.9680
1195.742235 0.9680 0.9680 0.9680 0.9680 0.9660
1200.002096 0.9650 0.9640 0.9650 0.9650 0.9640
1204.261957 0.9610 0.9580 0.9570 0.9540 0.9530
1208.521818 0.9500 0.9480 0.9460 0.9440 0.9420
1212.781679 0.9400 0.9360 0.9320 0.9240 0.9180
1217.041540 0.9120 0.9029 0.8770 0.8610 0.8450
1221.301401 0.8280 0.8110 0.8080 0.8110 0.8330
1225.561262 0.8600 0.8760 0.8850 0.8910 0.8930
1229.821123 0.8990 0.8990 0.8970 0.8960 0.8960
1234.080984 0.8930 0.8930 0.8920 0.8910 0.8870
1238.340845 0.8840 0.8810 0.8800 0.8790 0.8790
1242.600706 0.8790 0.8770 0.8750 0.8690 0.8590
1246.860567 0.8450 0.8270 0.7861 0.7172 0.7010
1251.120428 0.7011 0.7411 0.7941 0.8330 0.8530
1255.380289 0.8710 0.8800 0.8890 0.8920 0.8950
1259.640150 0.9000 0.9070 0.9070 0.9070 0.9080
1263.900011 0.9110 0.9110 0.9090 0.9080 0.9070
1268.159872 0.9070 0.9070 0.9030 0.9030 0.9040
1272.419733 0.9040 0.9030 0.9030 0.9030 0.9030
1276.679594 0.9030 0.9030 0.9030 0.9010 0.9000
1280.939455 0.9010 0.9040 0.9050 0.9050 0.9070
1285.199317 0.9070 0.9080 0.9090 0.9040 0.9010
1289.459178 0.8950 0.8930 0.8910 0.8910 0.8850
1293.719039 0.8840 0.8810 0.8790 0.8720 0.8690
1297.978900 0.8650 0.8520 0.8350 0.8041 0.7711
1302.238761 0.7390 0.7250 0.7250 0.7470 0.7670
1306.498622 0.8080 0.8350 0.8510 0.8640 0.8710
1310.758483 0.8760 0.8770 0.8790 0.8790 0.8800
1315.018344 0.8800 0.8770 0.8760 0.8750 0.8730
1319.278205 0.8720 0.8670 0.8610 0.8570 0.8510
1323.538066 0.8410 0.8240 0.8140 0.7781 0.7371
1327.797927 0.7150 0.6930 0.7010 0.7310 0.7490
1332.057788 0.7590 0.7660 0.7660 0.7860 0.8040
1336.317649 0.8241 0.8430 0.8600 0.8720 0.8800
1340.577510 0.8840 0.8810 0.8810 0.8790 0.8650
1344.837371 0.8359 0.7859 0.7219 0.6830 0.6450
1349.097232 0.7110 0.7330 0.7540 0.8648 0.8720
1353.357093 0.8810 0.8910 0.8950 0.8990 0.9010
1357.616954 0.9030 0.9040 0.9050 0.9070 0.9070
1361.876815 0.9080 0.9080 0.9090 0.9110 0.9120
1366.136676 0.9150 0.9180 0.9200 0.9220 0.9250
1370.396537 0.9280 0.9320 0.9320 0.9320 0.9320
1374.656398 0.9300 0.9320 0.9320 0.9320 0.9330
1378.916259 0.9330 0.9330 0.9360 0.9360 0.9380
1383.176120 0.9400 0.9400 0.9380 0.9360 0.9340
1387.435981 0.9340 0.9330 0.9290 0.9290 0.9290
1391.695842 0.9300 0.9320 0.9320 0.9330 0.9330
1395.955703 0.9340 0.9340 0.9340 0.9340 0.9360
1400.215564 0.9360 0.9330 0.9320 0.9330 0.9340
1404.475425 0.9340 0.9330 0.9330 0.9340 0.9340
1408.735286 0.9340 0.9340 0.9320 0.9290 0.9250
1412.995147 0.9210 0.9170 0.9130 0.9120 0.9090
1417.255008 0.9090 0.9080 0.9080 0.9080 0.9080
1421.514869 0.9080 0.9070 0.9050 0.9010 0.8990
1425.774730 0.8950 0.8920 0.8870 0.8810 0.8760
1430.034591 0.8710 0.8550 0.8490 0.8400 0.8260
1434.294452 0.8150 0.7950 0.7780 0.7580 0.7271
1438.554313 0.7089 0.6849 0.6609 0.6239 0.5690
1442.814174 0.5170 0.4360 0.3811 0.3241 0.2013
1447.074035 0.1428 0.0829 0.0660 0.0460 0.0260
1451.333896 0.0261 0.1000 0.1460 0.4158 0.5029
1455.593757 0.5791 0.6060 0.6059 0.5389 0.5029
1459.853618 0.4510 0.3990 0.6139 0.6280 0.7598
1464.113480 0.8021 0.8240 0.8390 0.8520 0.8640
1468.373341 0.8720 0.8770 0.8810 0.8920 0.8930
1472.633202 0.8960 0.8990 0.9010 0.9040 0.9080
1476.893063 0.9120 0.9150 0.9160 0.9180 0.9210
1481.152924 0.9210 0.9210 0.9200 0.9200 0.9210
1485.412785 0.9220 0.9260 0.9320 0.9330 0.9340
1489.672646 0.9370 0.9400 0.9410 0.9410 0.9420
1493.932507 0.9440 0.9450 0.9490 0.9500 0.9540
1498.192368 0.9540 0.9560 0.9570 0.9570 0.9570
1502.452229 0.9580 0.9610 0.9610 0.9640 0.9650
1506.712090 0.9660 0.9660 0.9680 0.9680 0.9690
1510.971951 0.9690 0.9700 0.9720 0.9770 0.9770
1515.231812 0.9800 0.9840 0.9850 0.9860 0.9860
1519.491673 0.9880 0.9920 1.0010 1.0030 1.0020
1523.751534 1.0010 1.0000 0.9900 0.9850 0.9840
1528.011395 0.9840 0.9840 0.9840 0.9840 0.9840
1532.271256 0.9850 0.9850 0.9860 0.9880 0.9890
1536.531117 0.9890 0.9890 0.9890 0.9890 0.9890
1540.790978 0.9900 0.9900 0.9900 0.9900 0.9900
1545.050839 0.9920 0.9930 0.9930 0.9930 0.9940
1549.310700 0.9940 0.9960 0.9970 0.9980 0.9980
1553.570561 1.0000 0.9980 0.9980 0.9970 1.0000
1557.830422 1.0000 1.0000 1.0010 1.0010 1.0010
1562.090283 1.0010 1.0010 1.0010 1.0010 1.0010
1566.350144 1.0010 1.0000 1.0000 0.9980 0.9960
1570.610005 0.9930 0.9880 0.9880 0.9890 0.9890
1574.869866 0.9890 0.9890 0.9880 0.9880 0.9880
1579.129727 0.9880 0.9860 0.9860 0.9880 0.9880
1583.389588 0.9860 0.9860 0.9850 0.9850 0.9860
1587.649449 0.9880 0.9880 0.9880 0.9890 0.9900
1591.909310 0.9920 0.9920 0.9930 0.9930 0.9960
1596.169171 0.9960 0.9940 0.9940 0.9940 0.9930
1600.429032 0.9900 0.9890 0.9880 0.9880 0.9880
1604.688893 0.9860 0.9880 0.9860 0.9860 0.9860
1608.948754 0.9850 0.9860 0.9860 0.9860 0.9860
1613.208615 0.9860 0.9850 0.9850 0.9850 0.9840
1617.468476 0.9840 0.9840 0.9840 0.9820 0.9820
1621.728337 0.9820 0.9820 0.9820 0.9810 0.9810
1625.988198 0.9800 0.9780 0.9780 0.9780 0.9800
1630.248059 0.9780 0.9780 0.9770 0.9760 0.9760
1634.507920 0.9740 0.9740 0.9740 0.9770 0.9770
1638.767781 0.9770 0.9770 0.9770 0.9740 0.9740
1643.027642 0.9740 0.9730 0.9730 0.9730 0.9720
1647.287504 0.9720 0.9720 0.9720 0.9720 0.9720
1651.547365 0.9720 0.9720 0.9720 0.9720 0.9720
1655.807226 0.9720 0.9720 0.9720 0.9720 0.9720
1660.067087 0.9730 0.9730 0.9730 0.9730 0.9730
1664.326948 0.9720 0.9720 0.9720 0.9720 0.9720
1668.586809 0.9700 0.9700 0.9700 0.9700 0.9700
1672.846670 0.9700 0.9700 0.9700 0.9700 0.9700
1677.106531 0.9700 0.9700 0.9700 0.9690 0.9680
1681.366392 0.9680 0.9680 0.9660 0.9660 0.9660
1685.626253 0.9680 0.9680 0.9660 0.9660 0.9660
1689.886114 0.9680 0.9690 0.9690 0.9680 0.9680
1694.145975 0.9680 0.9680 0.9680 0.9660 0.9650
1698.405836 0.9650 0.9650 0.9640 0.9640 0.9620
1702.665697 0.9620 0.9620 0.9620 0.9620 0.9620
1706.925558 0.9620 0.9620 0.9620 0.9620 0.9620
1711.185419 0.9620 0.9620 0.9640 0.9620 0.9640
1715.445280 0.9640 0.9620 0.9610 0.9620 0.9620
1719.705141 0.9640 0.9640 0.9650 0.9640 0.9640
1723.965002 0.9640 0.9640 0.9640 0.9640 0.9640
1728.224863 0.9640 0.9640 0.9650 0.9650 0.9620
1732.484724 0.9620 0.9620 0.9620 0.9610 0.9610
1736.744585 0.9610 0.9600 0.9600 0.9600 0.9600
1741.004446 0.9580 0.9580 0.9580 0.9580 0.9580
1745.264307 0.9600 0.9600 0.9600 0.9600 0.9610
1749.524168 0.9610 0.9610 0.9610 0.9600 0.9600
1753.784029 0.9610 0.9610 0.9640 0.9640 0.9640
1758.043890 0.9650 0.9650 0.9660 0.9660 0.9650
1762.303751 0.9660 0.9660 0.9680 0.9680 0.9660
1766.563612 0.9650 0.9650 0.9650 0.9650 0.9650
1770.823473 0.9640 0.9640 0.9640 0.9640 0.9650
1775.083334 0.9650 0.9660 0.9660 0.9660 0.9660
1779.343195 0.9660 0.9650 0.9650 0.9650 0.9640
1783.603056 0.9620 0.9610 0.9610 0.9600 0.9580
1787.862917 0.9580 0.9580 0.9580 0.9580 0.9580
1792.122778 0.9580 0.9570 0.9580 0.9580 0.9570
1796.382639 0.9570 0.9570 0.9580 0.9580 0.9600
1800.642500 0.9600 0.9600 0.9600 0.9600 0.9600
1804.902361 0.9600 0.9600 0.9600 0.9600 0.9610
1809.162222 0.9610 0.9620 0.9620 0.9610 0.9610
1813.422083 0.9610 0.9620 0.9640 0.9640 0.9640
1817.681944 0.9620 0.9620 0.9620 0.9640 0.9640
1821.941805 0.9650 0.9650 0.9650 0.9650 0.9650
1826.201667 0.9660 0.9660 0.9680 0.9680 0.9680
1830.461528 0.9680 0.9680 0.9680 0.9680 0.9680
1834.721389 0.9660 0.9660 0.9650 0.9650 0.9650
1838.981250 0.9650 0.9640 0.9640 0.9660 0.9660
1843.241111 0.9660 0.9660 0.9660 0.9660 0.9680
1847.500972 0.9680 0.9660 0.9660 0.9660 0.9640
1851.760833 0.9620 0.9620 0.9620 0.9640 0.9640
1856.020694 0.9640 0.9640 0.9620 0.9620 0.9620
1860.280555 0.9610 0.9620 0.9620 0.9620 0.9640
1864.540416 0.9640 0.9640 0.9640 0.9640 0.9610
1868.800277 0.9610 0.9610 0.9600 0.9580 0.9570
1873.060138 0.9600 0.9600 0.9600 0.9610 0.9610
1877.319999 0.9610 0.9620 0.9640 0.9640 0.9620
1881.579860 0.9620 0.9640 0.9640 0.9610 0.9600
1885.839721 0.9600 0.9580 0.9580 0.9580 0.9570
1890.099582 0.9580 0.9580 0.9580 0.9580 0.9570
1894.359443 0.9570 0.9570 0.9570 0.9570 0.9570
1898.619304 0.9570 0.9570 0.9560 0.9560 0.9570
1902.879165 0.9570 0.9570 0.9560 0.9560 0.9560
1907.139026 0.9560 0.9540 0.9540 0.9540 0.9560
1911.398887 0.9560 0.9570 0.9570 0.9570 0.9580
1915.658748 0.9580 0.9580 0.9580 0.9580 0.9580
1919.918609 0.9580 0.9580 0.9580 0.9580 0.9570
1924.178470 0.9570 0.9560 0.9540 0.9540 0.9540
1928.438331 0.9560 0.9560 0.9560 0.9570 0.9560
1932.698192 0.9560 0.9560 0.9560 0.9560 0.9560
1936.958053 0.9570 0.9560 0.9560 0.9560 0.9560
1941.217914 0.9540 0.9540 0.9560 0.9580 0.9610
1945.477775 0.9600 0.9580 0.9580 0.9580 0.9580
1949.737636 0.9600 0.9600 0.9580 0.9580 0.9580
1953.997497 0.9570 0.9570 0.9570 0.9570 0.9580
1958.257358 0.9570 0.9570 0.9570 0.9540 0.9540
1962.517219 0.9560 0.9560 0.9570 0.9570 0.9570
1966.777080 0.9570 0.9570 0.9570 0.9570 0.9570
1971.036941 0.9540 0.9530 0.9530 0.9540 0.9530
1975.296802 0.9520 0.9520 0.9500 0.9500 0.9500
1979.556663 0.9500 0.9500 0.9500 0.9500 0.9490
1983.816524 0.9480 0.9480 0.9480 0.9460 0.9460
1988.076385 0.9480 0.9480 0.9490 0.9480 0.9460
1992.336246 0.9450 0.9420 0.9410 0.9420 0.9440
1996.596107 0.9450 0.9450 0.9450 0.9490 0.9500
2000.855968 0.9500 0.9500 0.9500 0.9500 0.9500
2005.115829 0.9500 0.9500 0.9500 0.9500 0.9500
2009.375691 0.9500 0.9500 0.9500 0.9500 0.9500
2013.635552 0.9500 0.9500 0.9500 0.9495 0.9490
2017.895413 0.9485 0.9480 0.9470 0.9460 0.9440
2022.155274 0.9420 0.9415 0.9410 0.9415 0.9420
2026.415135 0.9430 0.9440 0.9450 0.9460 0.9470
2030.674996 0.9480 0.9490 0.9500 0.9510 0.9520
2034.934857 0.9520 0.9520 0.9520 0.9520 0.9525
2039.194718 0.9530 0.9530 0.9530 0.9515 0.9500
2043.454579 0.9500 0.9500 0.9500 0.9500 0.9500
2047.714440 0.9500 0.9510 0.9520 0.9520 0.9520
2051.974301 0.9500 0.9480 0.9480 0.9480 0.9470
2056.234162 0.9460 0.9460 0.9460 0.9460 0.9460
2060.494023 0.9460 0.9460 0.9475 0.9489 0.9495
2064.753884 0.9500 0.9514 0.9529 0.9530 0.9530
2069.013745 0.9515 0.9500 0.9495 0.9490 0.9490
2073.273606 0.9490 0.9490 0.9490 0.9495 0.9500
2077.533467 0.9510 0.9520 0.9530 0.9540 0.9540
2081.793328 0.9540 0.9521 0.9501 0.9495 0.9490
2086.053189 0.9485 0.9480 0.9470 0.9460 0.9455
2090.313050 0.9450 0.9464 0.9479 0.9485 0.9490
2094.572911 0.9495 0.9500 0.9500 0.9500 0.9500
2098.832772 0.9500 0.9519 0.9539 0.9530 0.9520
2103.092633 0.9520 0.9520 0.9520 0.9520 0.9520
2107.352494 0.9520 0.9520 0.9520 0.9520 0.9520
2111.612355 0.9520 0.9520 0.9520 0.9520 0.9520
2115.872216 0.9520 0.9520 0.9520 0.9511 0.9500
2120.132077 0.9519 0.9539 0.9540 0.9540 0.9531
2124.391938 0.9521 0.9511 0.9501 0.9500 0.9500
2128.651799 0.9500 0.9500 0.9491 0.9481 0.9471
2132.911660 0.9461 0.9469 0.9479 0.9480 0.9480
2137.171521 0.9485 0.9490 0.9495 0.9500 0.9495
2141.431382 0.9490 0.9485 0.9480 0.9480 0.9480
2145.691243 0.9480 0.9480 0.9480 0.9480 0.9466
2149.951104 0.9451 0.9450 0.9450 0.9455 0.9460
2154.210965 0.9460 0.9460 0.9460 0.9460 0.9469
2158.470826 0.9479 0.9480 0.9480 0.9471 0.9461
2162.730687 0.9451 0.9441 0.9440 0.9440 0.9440
2166.990548 0.9440 0.9440 0.9440 0.9440 0.9440
2171.250409 0.9445 0.9450 0.9469 0.9489 0.9490
2175.510270 0.9490 0.9458 0.9423 0.9402 0.9382
2179.770131 0.9352 0.9322 0.9311 0.9301 0.9291
2184.029992 0.9281 0.9280 0.9280 0.9298 0.9319
2188.289854 0.9325 0.9330 0.9348 0.9368 0.9388
2192.549715 0.9408 0.9410 0.9410 0.9405 0.9400
2196.809576 0.9400 0.9400 0.9386 0.9371 0.9356
2201.069437 0.9341 0.9331 0.9321 0.9311 0.9301
2205.329298 0.9300 0.9300 0.9300 0.9300 0.9300
2209.589159 0.9300 0.9300 0.9300 0.9309 0.9319
2213.849020 0.9320 0.9320 0.9325 0.9330 0.9335
2218.108881 0.9340 0.9340 0.9340 0.9354 0.9369
2222.368742 0.9384 0.9399 0.9400 0.9400 0.9405
2226.628603 0.9410 0.9410 0.9410 0.9415 0.9420
2230.888464 0.9420 0.9420 0.9416 0.9411 0.9414
2235.148325 0.9419 0.9420 0.9420 0.9420 0.9420
2239.408186 0.9415 0.9410 0.9405 0.9400 0.9391
2243.668047 0.9381 0.9376 0.9371 0.9370 0.9370
2247.927908 0.9370 0.9370 0.9374 0.9379 0.9380
2252.187769 0.9380 0.9376 0.9371 0.9370 0.9370
2256.447630 0.9370 0.9370 0.9370 0.9370 0.9357
2260.707491 0.9342 0.9349 0.9359 0.9364 0.9369
2264.967352 0.9370 0.9370 0.9370 0.9370 0.9374
2269.227213 0.9379 0.9371 0.9361 0.9347 0.9332
2273.487074 0.9330 0.9330 0.9326 0.9321 0.9320
2277.746935 0.9320 0.9311 0.9301 0.9296 0.9291
2282.006796 0.9277 0.9262 0.9256 0.9251 0.9246
2286.266657 0.9241 0.9240 0.9240 0.9240 0.9240
2290.526518 0.9240 0.9240 0.9249 0.9259 0.9269
2294.786379 0.9279 0.9284 0.9289 0.9290 0.9290
2299.046240 0.9286 0.9281 0.9271 0.9261 0.9256
2303.306101 0.9251 0.9250 0.9250 0.9250 0.9250
2307.565962 0.9250 0.9250 0.9250 0.9250 0.9250
2311.825823 0.9250 0.9254 0.9259 0.9260 0.9260
2316.085684 0.9260 0.9260 0.9269 0.9279 0.9284
2320.345545 0.9289 0.9303 0.9318 0.9320 0.9320
2324.605406 0.9320 0.9320 0.9311 0.9301 0.9300
2328.865267 0.9300 0.9300 0.9300 0.9296 0.9291
2333.125128 0.9290 0.9290 0.9286 0.9281 0.9280
2337.384989 0.9280 0.9280 0.9280 0.9284 0.9289
2341.644850 0.9294 0.9299 0.9300 0.9300 0.9309
2345.904711 0.9319 0.9311 0.9301 0.9300 0.9300
2350.164572 0.9300 0.9300 0.9300 0.9300 0.9300
2354.424433 0.9300 0.9308 0.9318 0.9324 0.9329
2358.684294 0.9330 0.9330 0.9326 0.9321 0.9312
2362.944155 0.9302 0.9292 0.9282 0.9272 0.9262
2367.204016 0.9260 0.9260 0.9260 0.9260 0.9256
2371.463878 0.9251 0.9246 0.9241 0.9232 0.9222
2375.723739 0.9216 0.9211 0.9210 0.9210 0.9197
2379.983600 0.9182 0.9172 0.9162 0.9147 0.9132
2384.243461 0.9126 0.9121 0.9116 0.9111 0.9093
2388.503322 0.9073 0.9053 0.9033 0.9030 0.9030
2392.763183 0.9051 0.9076 0.9093 0.9108 0.9127
2397.023044 0.9147 0.9163 0.9177 0.9192 0.9207
2401.282905 0.9222 0.9237 0.9240 0.9240 0.9232
2405.542766 0.9222 0.9216 0.9211 0.9206 0.9201
2409.802627 0.9192 0.9182 0.9172 0.9162 0.9148
2414.062488 0.9133 0.9126 0.9121 0.9120 0.9120
2418.322349 0.9116 0.9111 0.9110 0.9110 0.9126
2422.582210 0.9146 0.9154 0.9159 0.9168 0.9178
2426.842071 0.9180 0.9180 0.9180 0.9180 0.9176
2431.101932 0.9171 0.9170 0.9170 0.9170 0.9170
2435.361793 0.9174 0.9179 0.9180 0.9180 0.9180
2439.621654 0.9180 0.9180 0.9180 0.9192 0.9207
2443.881515 0.9210 0.9210 0.9222 0.9237 0.9244
2448.141376 0.9249 0.9254 0.9259 0.9260 0.9260
2452.401237 0.9256 0.9251 0.9250 0.9250 0.9250
2456.661098 0.9250 0.9250 0.9250 0.9238 0.9223
2460.920959 0.9216 0.9211 0.9206 0.9201 0.9192
2465.180820 0.9182 0.9172 0.9162 0.9156 0.9151
2469.440681 0.9134 0.9114 0.9094 0.9074 0.9062
2473.700542 0.9052 0.9058 0.9068 0.9070 0.9070
2477.960403 0.9086 0.9106 0.9110 0.9110 0.9114
2482.220264 0.9119 0.9120 0.9120 0.9116 0.9111
2486.480125 0.9102 0.9092 0.9086 0.9081 0.9076
2490.739986 0.9071 0.9058 0.9043 0.9028 0.9013
2494.999847 0.9002 0.8992 0.8982 0.8972 0.8954
2499.259708 0.8934 0.8942 0.8957 0.8980 0.9005
2503.519569 0.9026 0.9046 0.9058 0.9068 0.9074
2507.779430 0.9079 0.9092 0.9107 0.9114 0.9119
2512.039291 0.9120 0.9120 0.9116 0.9111 0.9110
2516.299152 0.9110 0.9110 0.9110 0.9114 0.9119
2520.559013 0.9116 0.9111 0.9098 0.9083 0.9076
2524.818874 0.9071 0.9062 0.9052 0.9046 0.9041
2529.078735 0.9040 0.9040 0.9036 0.9031 0.9030
2533.338596 0.9030 0.9034 0.9039 0.9040 0.9040
2537.598457 0.9040 0.9040 0.9040 0.9040 0.9040
2541.858318 0.9040 0.9036 0.9031 0.9022 0.9012
2546.118179 0.9010 0.9010 0.9002 0.8992 0.8990
2550.378041 0.8990 0.8982 0.8972 0.8970 0.8970
2554.637902 0.8970 0.8970 0.8970 0.8970 0.8966
2558.897763 0.8961 0.8956 0.8951 0.8950 0.8950
2563.157624 0.8942 0.8932 0.8922 0.8912 0.8910
2567.417485 0.8910 0.8895 0.8875 0.8847 0.8817
2571.677346 0.8791 0.8766 0.8745 0.8725 0.8716
2575.937207 0.8711 0.8672 0.8623 0.8591 0.8566
2580.197068 0.8545 0.8525 0.8520 0.8520 0.8524
2584.456929 0.8529 0.8541 0.8556 0.8564 0.8569
2588.716790 0.8585 0.8605 0.8621 0.8636 0.8651
2592.976651 0.8666 0.8663 0.8653 0.8635 0.8615
2597.236512 0.8602 0.8592 0.8579 0.8564 0.8560
2601.496373 0.8560 0.8564 0.8569 0.8577 0.8587
2605.756234 0.8590 0.8590 0.8597 0.8607 0.8621
2610.016095 0.8636 0.8640 0.8640 0.8625 0.8605
2614.275956 0.8596 0.8591 0.8583 0.8573 0.8570
2618.535817 0.8570 0.8570 0.8570 0.8577 0.8587
2622.795678 0.8605 0.8625 0.8630 0.8630 0.8623
2627.055539 0.8613 0.8603 0.8593 0.8520 0.8425
2631.315400 0.8341 0.8261 0.8192 0.8127 0.8114
2635.575261 0.8119 0.8131 0.8146 0.8198 0.8263
2639.835122 0.8338 0.8418 0.8473 0.8518 0.8541
2644.094983 0.8556 0.8564 0.8569 0.8570 0.8570
2648.354844 0.8537 0.8492 0.8451 0.8411 0.8356
2652.614705 0.8296 0.8214 0.8125 0.8042 0.7962
2656.874566 0.7828 0.7673 0.7479 0.7269 0.7160
2661.134427 0.7090 0.7020 0.6950 0.6962 0.7008
2665.394288 0.7064 0.7124 0.7187 0.7252 0.7328
2669.654149 0.7408 0.7574 0.7774 0.7959 0.8139
2673.914010 0.8204 0.8224 0.8241 0.8256 0.8264
2678.173871 0.8269 0.8270 0.8270 0.8274 0.8279
2682.433732 0.8291 0.8306 0.8317 0.8327 0.8341
2686.693593 0.8356 0.8364 0.8369 0.8363 0.8353
2690.953454 0.8325 0.8290 0.8234 0.8169 0.8146
2695.213315 0.8141 0.8144 0.8149 0.8168 0.8193
2699.473176 0.8243 0.8303 0.8331 0.8346 0.8350
2703.733037 0.8350 0.8336 0.8316 0.8306 0.8301
2707.992898 0.8307 0.8317 0.8334 0.8354 0.8377
2712.252759 0.8402 0.8424 0.8444 0.8485 0.8535
2716.512620 0.8557 0.8567 0.8584 0.8604 0.8621
2720.772481 0.8636 0.8650 0.8665 0.8684 0.8704
2725.032342 0.8710 0.8710 0.8713 0.8718 0.8720
2729.292204 0.8720 0.8723 0.8728 0.8730 0.8730
2733.552065 0.8730 0.8730 0.8730 0.8730 0.8727
2737.811926 0.8722 0.8720 0.8720 0.8710 0.8695
2742.071787 0.8676 0.8656 0.8647 0.8642 0.8630
2746.331648 0.8615 0.8607 0.8602 0.8586 0.8566
2750.591509 0.8550 0.8535 0.8530 0.8530 0.8540
2754.851370 0.8555 0.8560 0.8560 0.8557 0.8552
2759.111231 0.8536 0.8516 0.8496 0.8476 0.8460
2763.371092 0.8445 0.8427 0.8407 0.8383 0.8358
2767.630953 0.8336 0.8316 0.8272 0.8217 0.8183
2771.890814 0.8158 0.8136 0.8116 0.8083 0.8043
2776.150675 0.8013 0.7988 0.7973 0.7963 0.7927
2780.410536 0.7877 0.7833 0.7793 0.7743 0.7688
2784.670397 0.7629 0.7569 0.7509 0.7449 0.7403
2788.930258 0.7363 0.7256 0.7116 0.7057 0.7037
2793.190119 0.7013 0.6988 0.6997 0.7022 0.7043
2797.449980 0.7063 0.7070 0.7070 0.7067 0.7062
2801.709841 0.7047 0.7027 0.7007 0.6987 0.6937
2805.969702 0.6872 0.6787 0.6692 0.6620 0.6560
2810.229563 0.6510 0.6465 0.6440 0.6425 0.6417
2814.489424 0.6412 0.6410 0.6410 0.6400 0.6385
2818.749285 0.6367 0.6347 0.6254 0.6124 0.6017
2823.009146 0.5922 0.5808 0.5683 0.5535 0.5375
2827.269007 0.5255 0.5155 0.4922 0.4617 0.4238
2831.528868 0.3819 0.3396 0.2972 0.2694 0.2497
2835.788729 0.2338 0.2198 0.1865 0.1430 0.1136
2840.048590 0.0917 0.0700 0.0485 0.0374 0.0319
2844.308451 0.0261 0.0201 0.0170 0.0155 0.0137
2848.568312 0.0117 0.0104 0.0094 0.0084 0.0074
2852.828173 0.0070 0.0070 0.0067 0.0062 0.0060
2857.088034 0.0060 0.0063 0.0068 0.0080 0.0095
2861.347895 0.0154 0.0239 0.0321 0.0401 0.0519
2865.607756 0.0658 0.0883 0.1158 0.1380 0.1572
2869.867617 0.1808 0.2067 0.2160 0.2160 0.2144
2874.127478 0.2119 0.2088 0.2053 0.1961 0.1836
2878.387339 0.1648 0.1423 0.1318 0.1283 0.1207
2882.647200 0.1108 0.1008 0.0908 0.0807 0.0707
2886.907061 0.0654 0.0629 0.0607 0.0587 0.0552
2891.166922 0.0507 0.0446 0.0376 0.0325 0.0285
2895.426783 0.0254 0.0229 0.0208 0.0188 0.0177
2899.686644 0.0172 0.0158 0.0138 0.0118 0.0097
2903.946505 0.0077 0.0057 0.0044 0.0034 0.0027
2908.206366 0.0022 0.0020 0.0020 0.0020 0.0020
2912.466228 0.0017 0.0012 0.0010 0.0010 0.0010
2916.726089 0.0010 0.0010 0.0010 0.0013 0.0018
2920.985950 0.0020 0.0020 0.0023 0.0028 0.0030
2925.245811 0.0030 0.0030 0.0030 0.0036 0.0046
2929.505672 0.0050 0.0050 0.0050 0.0050 0.0053
2933.765533 0.0058 0.0063 0.0068 0.0070 0.0070
2938.025394 0.0079 0.0094 0.0109 0.0124 0.0142
2942.285255 0.0162 0.0210 0.0274 0.0345 0.0420
2946.545116 0.0498 0.0578 0.0760 0.1010 0.1265
2950.804977 0.1525 0.1820 0.2140 0.2444 0.2736
2955.064838 0.2972 0.3172 0.3259 0.3274 0.3343
2959.324699 0.3448 0.3734 0.4138 0.4447 0.4691
2963.584560 0.4876 0.5021 0.5139 0.5239 0.5383
2967.844421 0.5558 0.5654 0.5693 0.5802 0.5958
2972.104282 0.6110 0.6260 0.6404 0.6544 0.6630
2976.364143 0.6680 0.6795 0.6955 0.7088 0.7203
2980.624004 0.7268 0.7298 0.7357 0.7437 0.7490
2984.883865 0.7525 0.7557 0.7587 0.7620 0.7656
2989.143726 0.7703 0.7758 0.7798 0.7828 0.7875
2993.403587 0.7935 0.7978 0.8008 0.8035 0.8060
2997.663448 0.8090 0.8125 0.8157 0.8187 0.8220
3001.923309 0.8255 0.8287 0.8317 0.8347 0.8378
3006.183170 0.8393 0.8398 0.8412 0.8432 0.8460
3010.443031 0.8495 0.8516 0.8526 0.8539 0.8554
3014.702892 0.8563 0.8568 0.8581 0.8601 0.8619
3018.962753 0.8634 0.8643 0.8648 0.8659 0.8674
3023.222614 0.8689 0.8704 0.8710 0.8710 0.8713
3027.482475 0.8718 0.8731 0.8751 0.8763 0.8768
3031.742336 0.8770 0.8770 0.8776 0.8786 0.8790
3036.002197 0.8790 0.8790 0.8790 0.8793 0.8798
3040.262058 0.8800 0.8800 0.8797 0.8792 0.8784
3044.521919 0.8774 0.8770 0.8770 0.8767 0.8762
3048.781780 0.8757 0.8752 0.8750 0.8750 0.8744
3053.041641 0.8734 0.8730 0.8730 0.8736 0.8746
3057.301502 0.8753 0.8758 0.8760 0.8760 0.8763
3061.561363 0.8768 0.8776 0.8786 0.8790 0.8790
3065.821224 0.8793 0.8798 0.8803 0.8808 0.8815
3070.081085 0.8825 0.8830 0.8830 0.8833 0.8838
3074.340946 0.8843 0.8848 0.8856 0.8866 0.8881
3078.600807 0.8901 0.8910 0.8910 0.8913 0.8918
3082.860668 0.8923 0.8928 0.8930 0.8930 0.8935
3087.120529 0.8945 0.8955 0.8965 0.8978 0.8993
3091.380391 0.9008 0.9023 0.9035 0.9045 0.9050
3095.640252 0.9050 0.9047 0.9042 0.9040 0.9040
3099.900113 0.9043 0.9048 0.9055 0.9065 0.9070
3104.159974 0.9070 0.9070 0.9070 0.9070 0.9070
3108.419835 0.9070 0.9070 0.9070 0.9070 0.9070
3112.679696 0.9070 0.9070 0.9070 0.9070 0.9070
3116.939557 0.9070 0.9070 0.9070 0.9070 0.9073
3121.199418 0.9078 0.9080 0.9080 0.9077 0.9072
3125.459279 0.9070 0.9070 0.9070 0.9070 0.9065
3129.719140 0.9055 0.9047 0.9042 0.9037 0.9032
3133.979001 0.9030 0.9030 0.9030 0.9030 0.9030
3138.238862 0.9030 0.9025 0.9015 0.9010 0.9010
3142.498723 0.9010 0.9010 0.9010 0.9010 0.9010
3146.758584 0.9010 0.9010 0.9010 0.9015 0.9025
3151.018445 0.9033 0.9038 0.9040 0.9040 0.9040
3155.278306 0.9040 0.9043 0.9048 0.9055 0.9065
3159.538167 0.9073 0.9078 0.9083 0.9088 0.9095
3163.798028 0.9105 0.9110 0.9110 0.9113 0.9118
3168.057889 0.9120 0.9120 0.9120 0.9120 0.9120
3172.317750 0.9120 0.9120 0.9120 0.9120 0.9120
3176.577611 0.9120 0.9120 0.9120 0.9120 0.9120
3180.837472 0.9120 0.9117 0.9112 0.9105 0.9095
3185.097333 0.9090 0.9090 0.9087 0.9083 0.9080
3189.357194 0.9080 0.9073 0.9058 0.9048 0.9042
3193.617055 0.9040 0.9040 0.9040 0.9040 0.9037
3197.876916 0.9032 0.9030 0.9030 0.9030 0.9030
3202.136777 0.9030 0.9030 0.9030 0.9030 0.9030
3206.396638 0.9030 0.9030 0.9030 0.9032 0.9038
3210.656499 0.9040 0.9040 0.9048 0.9062 0.9070
3214.916360 0.9070 0.9072 0.9077 0.9080 0.9080
3219.176221 0.9080 0.9080 0.9073 0.9058 0.9050
3223.436082 0.9050 0.9050 0.9050 0.9050 0.9050
3227.695943 0.9050 0.9050 0.9048 0.9043 0.9038
3231.955804 0.9033 0.9030 0.9030 0.9030 0.9030
3236.215665 0.9030 0.9030 0.9032 0.9037 0.9040
3240.475526 0.9040 0.9040 0.9040 0.9040 0.9040
3244.735387 0.9038 0.9033 0.9030 0.9030 0.9030
3248.995248 0.9030 0.9030 0.9030 0.9032 0.9037
3253.255109 0.9040 0.9040 0.9040 0.9040 0.9040
3257.514970 0.9040 0.9040 0.9040 0.9047 0.9062
3261.774831 0.9072 0.9077 0.9082 0.9087 0.9090
3266.034692 0.9090 0.9090 0.9090 0.9090 0.9090
3270.294553 0.9095 0.9105 0.9115 0.9125 0.9130
3274.554415 0.9130 0.9135 0.9145 0.9150 0.9150
3278.814276 0.9150 0.9150 0.9150 0.9150 0.9150
3283.074137 0.9150 0.9150 0.9150 0.9150 0.9150
3287.333998 0.9152 0.9157 0.9160 0.9160 0.9162
3291.593859 0.9167 0.9170 0.9170 0.9170 0.9170
3295.853720 0.9170 0.9170 0.9170 0.9170 0.9170
3300.113581 0.9170 0.9170 0.9170 0.9168 0.9163
3304.373442 0.9160 0.9160 0.9160 0.9160 0.9160
3308.633303 0.9160 0.9158 0.9153 0.9150 0.9150
3312.893164 0.9150 0.9150 0.9150 0.9150 0.9150
3317.153025 0.9150 0.9150 0.9150 0.9150 0.9150
3321.412886 0.9150 0.9150 0.9150 0.9150 0.9150
3325.672747 0.9150 0.9150 0.9150 0.9154 0.9165
3329.932608 0.9170 0.9170 0.9170 0.9170 0.9170
3334.192469 0.9170 0.9170 0.9170 0.9170 0.9170
3338.452330 0.9170 0.9170 0.9170 0.9170 0.9168
3342.712191 0.9163 0.9160 0.9160 0.9160 0.9160
3346.972052 0.9160 0.9160 0.9160 0.9160 0.9160
3351.231913 0.9160 0.9162 0.9167 0.9170 0.9170
3355.491774 0.9170 0.9170 0.9170 0.9170 0.9176
3359.751635 0.9191 0.9200 0.9200 0.9196 0.9186
3364.011496 0.9180 0.9180 0.9180 0.9180 0.9180
3368.271357 0.9180 0.9180 0.9180 0.9180 0.9180
3372.531218 0.9180 0.9180 0.9178 0.9173 0.9170
3376.791079 0.9170 0.9168 0.9163 0.9160 0.9160
3381.050940 0.9162 0.9167 0.9170 0.9170 0.9170
3385.310801 0.9170 0.9172 0.9177 0.9180 0.9180
3389.570662 0.9178 0.9173 0.9166 0.9156 0.9150
3393.830523 0.9150 0.9150 0.9150 0.9150 0.9150
3398.090384 0.9150 0.9150 0.9152 0.9157 0.9158
3402.350245 0.9153 0.9150 0.9150 0.9146 0.9136
3406.610106 0.9130 0.9130 0.9128 0.9123 0.9120
3410.869967 0.9120 0.9122 0.9127 0.9130 0.9130
3415.129828 0.9130 0.9130 0.9130 0.9130 0.9134
3419.389689 0.9144 0.9150 0.9150 0.9150 0.9150
3423.649550 0.9152 0.9157 0.9158 0.9153 0.9150
3427.909411 0.9150 0.9146 0.9136 0.9128 0.9123
3432.169272 0.9120 0.9120 0.9118 0.9113 0.9110
3436.429133 0.9110 0.9106 0.9096 0.9090 0.9090
3440.688994 0.9090 0.9090 0.9090 0.9090 0.9090
3444.948855 0.9090 0.9090 0.9090 0.9090 0.9090
3449.208716 0.9090 0.9090 0.9090 0.9090 0.9094
3453.468578 0.9104 0.9110 0.9110 0.9112 0.9117
3457.728439 0.9120 0.9120 0.9122 0.9127 0.9130
3461.988300 0.9130 0.9126 0.9116 0.9110 0.9110
3466.248161 0.9110 0.9110 0.9112 0.9117 0.9120
3470.508022 0.9120 0.9126 0.9141 0.9150 0.9150
3474.767883 0.9152 0.9157 0.9160 0.9160 0.9160
3479.027744 0.9160 0.9160 0.9160 0.9162 0.9167
3483.287605 0.9170 0.9170 0.9172 0.9177 0.9178
3487.547466 0.9173 0.9172 0.9177 0.9180 0.9180
3491.807327 0.9180 0.9180 0.9180 0.9180 0.9180
3496.067188 0.9180 0.9180 0.9180 0.9184 0.9194
3500.327049 0.9202 0.9207 0.9212 0.9217 0.9220
3504.586910 0.9220 0.9220 0.9220 0.9218 0.9213
3508.846771 0.9212 0.9217 0.9220 0.9220 0.9224
3513.106632 0.9234 0.9240 0.9240 0.9240 0.9240
3517.366493 0.9240 0.9240 0.9236 0.9226 0.9218
3521.626354 0.9213 0.9208 0.9203 0.9200 0.9200
3525.886215 0.9200 0.9200 0.9200 0.9200 0.9196
3530.146076 0.9186 0.9180 0.9180 0.9184 0.9194
3534.405937 0.9202 0.9207 0.9210 0.9210 0.9210
3538.665798 0.9210 0.9212 0.9217 0.9220 0.9220
3542.925659 0.9218 0.9213 0.9210 0.9210 0.9208
3547.185520 0.9203 0.9200 0.9200 0.9197 0.9186
3551.445381 0.9180 0.9180 0.9180 0.9180 0.9180
3555.705242 0.9180 0.9180 0.9180 0.9180 0.9180
3559.965103 0.9184 0.9193 0.9200 0.9200 0.9197
3564.224964 0.9187 0.9180 0.9180 0.9180 0.9180
3568.484825 0.9180 0.9180 0.9180 0.9180 0.9178
3572.744686 0.9173 0.9170 0.9170 0.9168 0.9163
3577.004547 0.9160 0.9160 0.9158 0.9153 0.9147
3581.264408 0.9137 0.9130 0.9130 0.9128 0.9123
3585.524269 0.9120 0.9120 0.9118 0.9113 0.9107
3589.784130 0.9097 0.9090 0.9090 0.9093 0.9103
3594.043991 0.9110 0.9110 0.9110 0.9110 0.9107
3598.303852 0.9097 0.9090 0.9090 0.9090 0.9090
3602.563713 0.9090 0.9090 0.9093 0.9103 0.9110
3606.823574 0.9110 0.9107 0.9097 0.9090 0.9090
3611.083435 0.9090 0.9090 0.9090 0.9090 0.9090
3615.343296 0.9090 0.9090 0.9090 0.9088 0.9083
3619.603157 0.9078 0.9073 0.9067 0.9057 0.9048
3623.863018 0.9043 0.9040 0.9040 0.9040 0.9040
3628.122879 0.9038 0.9033 0.9030 0.9030 0.9030
3632.382740 0.9030 0.9027 0.9017 0.9010 0.9010
3636.642602 0.9010 0.9010 0.9010 0.9010 0.9010
3640.902463 0.9010 0.9010 0.9010 0.9008 0.9003
3645.162324 0.9000 0.9000 0.9000 0.9000 0.9000
3649.422185 0.9000 0.9000 0.9000 0.9000 0.9000
3653.682046 0.9000 0.9000 0.9000 0.9000 0.8998
3657.941907 0.8993 0.8990 0.8990 0.8990 0.8990
3662.201768 0.8990 0.8990 0.8990 0.8990 0.8992
3666.461629 0.8996 0.8999 0.8994 0.8990 0.8990
3670.721490 0.8990 0.8990 0.8992 0.8997 0.8998
3674.981351 0.8993 0.8987 0.8977 0.8970 0.8970
3679.241212 0.8970 0.8970 0.8970 0.8970 0.8970
3683.501073 0.8970 0.8970 0.8970 0.8969 0.8964
3687.760934 0.8960 0.8960 0.8958 0.8953 0.8950
3692.020795 0.8950 0.8947 0.8937 0.8930 0.8930
3696.280656 0.8930 0.8930 0.8930 0.8930 0.8933
3700.540517 0.8943 0.8950 0.8950 0.8947 0.8937
3704.800378 0.8933 0.8943 0.8950 0.8950 0.8950
3709.060239 0.8950 0.8950 0.8950 0.8950 0.8950
3713.320100 0.8950 0.8950 0.8950 0.8950 0.8950
3717.579961 0.8950 0.8951 0.8956 0.8960 0.8960
3721.839822 0.8960 0.8960 0.8960 0.8960 0.8960
3726.099683 0.8960 0.8960 0.8960 0.8959 0.8954
3730.359544 0.8947 0.8937 0.8930 0.8930 0.8929
3734.619405 0.8924 0.8920 0.8920 0.8920 0.8920
3738.879266 0.8919 0.8914 0.8911 0.8916 0.8920
3743.139127 0.8920 0.8920 0.8920 0.8920 0.8920
3747.398988 0.8920 0.8920 0.8919 0.8914 0.8910
3751.658849 0.8910 0.8910 0.8910 0.8910 0.8910
3755.918710 0.8910 0.8910 0.8911 0.8916 0.8920
3760.178571 0.8920 0.8921 0.8926 0.8933 0.8943
3764.438432 0.8950 0.8950 0.8951 0.8956 0.8961
3768.698293 0.8966 0.8973 0.8983 0.8990 0.8990
3772.958154 0.8990 0.8990 0.8987 0.8977 0.8970
3777.218015 0.8970 0.8970 0.8970 0.8969 0.8964
3781.477876 0.8960 0.8960 0.8960 0.8960 0.8960
3785.737737 0.8960 0.8960 0.8960 0.8961 0.8966
3789.997598 0.8970 0.8970 0.8969 0.8964 0.8960
3794.257459 0.8960 0.8951 0.8916 0.8899 0.8934
3798.517320 0.8951 0.8916
##END=
