##TITLE=SODIUM CARBONATE
$$ A.R.
##JCAMP-DX=4.24
##DATA TYPE=INFRARED SPECTRUM
##CLASS=COBLENTZ
##ORIGIN=MELLON INSTITUTE
##OWNER=COBLENTZ SOCIETY
Collection (C) 2018 copyright by the U.S. Secretary of Commerce
on behalf of the United States of America. All rights reserved.
##DATE=Not specified, most likely prior to 1970
##CAS REGISTRY NO=497-19-8
##MOLFORM=Na2 C O3
##SOURCE REFERENCE=COBLENTZ NO. 503
##$NIST SOURCE=COBLENTZ
##$NIST IMAGE=cob503
##SPECTROMETER/DATA SYSTEM=Not specified, most likely a prism, grating, or hybrid spectrometer.
##STATE=SOLID (NUJOL MULL)
##PATH LENGTH=
$$SPECTRAL CONTAMINATION DUE TO OIL AROUND 2900, 720 CM^-^1
##SAMPLING PROCEDURE=TRANSMISSION
##RESOLUTION=4
##DATA PROCESSING=DIGITIZED BY NIST FROM HARD COPY
##XUNITS=MICROMETERS
##YUNITS=TRANSMITTANCE
##XFACTOR=1.000000
##YFACTOR=1
##DELTAX=000.006820
##FIRSTX=2.025
##LASTX=15.9848
##FIRSTY=0.829
##MAXX=15.9848
##MINX=2.025
##MAXY=0.955
##MINY=0.008
##NPOINTS=2048
##XYDATA=(X++(Y..Y))
2.025000 0.8290 0.8310 0.8310 0.8330 0.8340
2.059115 0.8340 0.8340 0.8360 0.8360 0.8380
2.093000 0.8390 0.8390 0.8410 0.8410 0.8430
2.127115 0.8430 0.8450 0.8450 0.8450 0.8450
2.161000 0.8460 0.8460 0.8460 0.8460 0.8460
2.195115 0.8460 0.8460 0.8460 0.8450 0.8450
2.229000 0.8430 0.8430 0.8410 0.8380 0.8270
2.263115 0.8240 0.8150 0.8120 0.8070 0.8030
2.298000 0.8020 0.8000 0.7950 0.7930 0.7910
2.332115 0.7900 0.7880 0.7880 0.7880 0.7880
2.366000 0.7900 0.7910 0.7910 0.7930 0.7930
2.400115 0.7930 0.7930 0.7950 0.8000 0.8020
2.434000 0.8020 0.8020 0.8030 0.8030 0.8030
2.468115 0.8030 0.8030 0.8050 0.8100 0.8150
2.502000 0.8170 0.8200 0.8260 0.8310 0.8330
2.536115 0.8330 0.8330 0.8310 0.8310 0.8310
2.570000 0.8310 0.8330 0.8330 0.8340 0.8380
2.604115 0.8390 0.8480 0.8510 0.8550 0.8600
2.639000 0.8600 0.8620 0.8640 0.8650 0.8650
2.673115 0.8670 0.8690 0.8700 0.8720 0.8720
2.707000 0.8700 0.8700 0.8700 0.8690 0.8690
2.741115 0.8670 0.8650 0.8650 0.8640 0.8620
2.775000 0.8600 0.8570 0.8550 0.8530 0.8500
2.809115 0.8450 0.8410 0.8360 0.8310 0.8220
2.843000 0.8100 0.8000 0.7910 0.7840 0.7770
2.877115 0.7640 0.7600 0.7530 0.7480 0.7450
2.911000 0.7410 0.7400 0.7340 0.7310 0.7280
2.945115 0.7240 0.7220 0.7210 0.7190 0.7170
2.980000 0.7140 0.7100 0.7050 0.7020 0.7000
3.014115 0.6970 0.6970 0.6950 0.6930 0.6910
3.048000 0.6900 0.6900 0.6880 0.6860 0.6860
3.082115 0.6850 0.6830 0.6810 0.6790 0.6780
3.116000 0.6760 0.6740 0.6720 0.6710 0.6690
3.150115 0.6670 0.6660 0.6640 0.6620 0.6620
3.184000 0.6600 0.6600 0.6600 0.6600 0.6590
3.218115 0.6590 0.6570 0.6540 0.6470 0.6400
3.252000 0.6210 0.5780 0.5610 0.5180 0.4590
3.286115 0.3970 0.3680 0.3160 0.2460 0.1890
3.321000 0.1560 0.1410 0.1320 0.1010 0.0700
3.355115 0.0600 0.0460 0.0370 0.0340 0.0300
3.389000 0.0250 0.0240 0.0220 0.0220 0.0220
3.423115 0.0220 0.0200 0.0200 0.0200 0.0180
3.457000 0.0180 0.0170 0.0170 0.0200 0.0320
3.491115 0.0630 0.0840 0.2830 0.3230 0.3640
3.525000 0.4950 0.4970 0.4970 0.5000 0.5180
3.559115 0.5370 0.5590 0.5780 0.6050 0.6550
3.593000 0.6670 0.6790 0.6880 0.6970 0.7000
3.627115 0.7030 0.7070 0.7070 0.7090 0.7100
3.662000 0.7140 0.7210 0.7260 0.7310 0.7360
3.696115 0.7430 0.7460 0.7500 0.7520 0.7530
3.730000 0.7550 0.7570 0.7570 0.7590 0.7590
3.764115 0.7590 0.7600 0.7600 0.7570 0.7520
3.798000 0.7450 0.7400 0.7340 0.7330 0.7310
3.832115 0.7310 0.7310 0.7310 0.7330 0.7340
3.866000 0.7360 0.7380 0.7400 0.7400 0.7400
3.900115 0.7340 0.7290 0.7170 0.7090 0.7000
3.934000 0.6690 0.6590 0.6380 0.6280 0.6050
3.968115 0.5810 0.5690 0.5470 0.5430 0.5470
4.002000 0.5860 0.6400 0.6790 0.7120 0.7550
4.036115 0.7690 0.7860 0.7980 0.8100 0.8220
4.071000 0.8330 0.8410 0.8480 0.8510 0.8530
4.105115 0.8550 0.8580 0.8620 0.8620 0.8640
4.139000 0.8640 0.8650 0.8650 0.8690 0.8690
4.173115 0.8690 0.8700 0.8700 0.8700 0.8690
4.207000 0.8650 0.8620 0.8620 0.8620 0.8620
4.241115 0.8620 0.8640 0.8640 0.8640 0.8650
4.275000 0.8700 0.8700 0.8700 0.8690 0.8670
4.309115 0.8670 0.8670 0.8670 0.8690 0.8700
4.343000 0.8720 0.8740 0.8740 0.8740 0.8760
4.377115 0.8770 0.8770 0.8770 0.8790 0.8790
4.412000 0.8770 0.8760 0.8760 0.8760 0.8760
4.446115 0.8760 0.8740 0.8740 0.8740 0.8720
4.480000 0.8720 0.8700 0.8700 0.8700 0.8690
4.514115 0.8690 0.8690 0.8700 0.8700 0.8700
4.548000 0.8700 0.8720 0.8700 0.8700 0.8700
4.582115 0.8700 0.8700 0.8700 0.8690 0.8670
4.616000 0.8670 0.8670 0.8650 0.8650 0.8650
4.650115 0.8640 0.8640 0.8640 0.8640 0.8640
4.684000 0.8620 0.8620 0.8600 0.8600 0.8600
4.718115 0.8600 0.8580 0.8580 0.8550 0.8550
4.753000 0.8550 0.8530 0.8550 0.8550 0.8570
4.787115 0.8600 0.8600 0.8620 0.8620 0.8620
4.821000 0.8620 0.8600 0.8600 0.8600 0.8600
4.855115 0.8600 0.8600 0.8600 0.8600 0.8620
4.889000 0.8640 0.8640 0.8650 0.8670 0.8690
4.923115 0.8690 0.8670 0.8670 0.8690 0.8690
4.957000 0.8690 0.8690 0.8670 0.8670 0.8670
4.991115 0.8690 0.8690 0.8700 0.8700 0.8720
5.025000 0.8720 0.8720 0.8720 0.8720 0.8720
5.059115 0.8720 0.8700 0.8700 0.8690 0.8670
5.094000 0.8670 0.8650 0.8640 0.8640 0.8620
5.128115 0.8620 0.8620 0.8620 0.8620 0.8600
5.162000 0.8600 0.8600 0.8550 0.8530 0.8510
5.196115 0.8500 0.8480 0.8460 0.8450 0.8450
5.230000 0.8450 0.8450 0.8450 0.8450 0.8450
5.264115 0.8480 0.8500 0.8500 0.8500 0.8500
5.298000 0.8480 0.8460 0.8460 0.8450 0.8450
5.332115 0.8430 0.8390 0.8380 0.8360 0.8380
5.366000 0.8360 0.8340 0.8340 0.8330 0.8310
5.400115 0.8290 0.8290 0.8270 0.8240 0.8220
5.435000 0.8170 0.8150 0.8140 0.8120 0.8120
5.469115 0.8100 0.8100 0.8080 0.8080 0.8070
5.503000 0.8050 0.8020 0.8000 0.7980 0.7930
5.537115 0.7900 0.7840 0.7830 0.7810 0.7790
5.571000 0.7740 0.7670 0.7640 0.7590 0.7550
5.605115 0.7530 0.7380 0.7330 0.7190 0.6900
5.639000 0.6520 0.6120 0.5850 0.5370 0.4710
5.673115 0.4500 0.4500 0.4540 0.4560 0.4680
5.707000 0.5060 0.5640 0.5980 0.6170 0.6240
5.741115 0.6330 0.6360 0.6410 0.6450 0.6470
5.776000 0.6480 0.6480 0.6480 0.6480 0.6480
5.810115 0.6470 0.6450 0.6450 0.6410 0.6350
5.844000 0.6310 0.6290 0.6260 0.6240 0.6240
5.878115 0.6160 0.6090 0.6000 0.5970 0.5900
5.912000 0.5880 0.5860 0.5850 0.5800 0.5780
5.946115 0.5730 0.5690 0.5660 0.5620 0.5570
5.980000 0.5520 0.5490 0.5430 0.5420 0.5380
6.014115 0.5310 0.5240 0.5180 0.5090 0.5040
6.048000 0.4990 0.4950 0.4880 0.4830 0.4780
6.082115 0.4710 0.4620 0.4570 0.4520 0.4470
6.117000 0.4350 0.4300 0.4260 0.4230 0.4180
6.151115 0.4020 0.3920 0.3820 0.3730 0.3680
6.185000 0.3630 0.3580 0.3510 0.3420 0.3320
6.219115 0.3250 0.3200 0.3040 0.2870 0.2800
6.253000 0.2730 0.2680 0.2630 0.2560 0.2530
6.287115 0.2490 0.2400 0.2280 0.2270 0.2250
6.321000 0.2220 0.2160 0.2090 0.2030 0.1920
6.355115 0.1790 0.1630 0.1600 0.1530 0.1480
6.389000 0.1440 0.1410 0.1390 0.1350 0.1340
6.423115 0.1300 0.1230 0.1180 0.1060 0.0990
6.458000 0.0920 0.0910 0.0910 0.0840 0.0840
6.492115 0.0820 0.0800 0.0790 0.0770 0.0770
6.526000 0.0750 0.0750 0.0740 0.0720 0.0700
6.560115 0.0700 0.0680 0.0670 0.0650 0.0650
6.594000 0.0650 0.0630 0.0630 0.0630 0.0610
6.628115 0.0600 0.0550 0.0530 0.0480 0.0460
6.662000 0.0440 0.0410 0.0360 0.0320 0.0300
6.696115 0.0250 0.0240 0.0240 0.0240 0.0240
6.730000 0.0240 0.0220 0.0220 0.0200 0.0200
6.764115 0.0200 0.0220 0.0220 0.0220 0.0220
6.799000 0.0220 0.0220 0.0220 0.0220 0.0220
6.833115 0.0240 0.0220 0.0220 0.0220 0.0220
6.867000 0.0200 0.0180 0.0170 0.0150 0.0130
6.901115 0.0130 0.0120 0.0120 0.0100 0.0100
6.935000 0.0100 0.0100 0.0100 0.0100 0.0100
6.969115 0.0100 0.0080 0.0080 0.0080 0.0080
7.003000 0.0100 0.0080 0.0080 0.0080 0.0080
7.037115 0.0080 0.0100 0.0100 0.0100 0.0080
7.071000 0.0080 0.0080 0.0080 0.0080 0.0100
7.105115 0.0100 0.0100 0.0100 0.0100 0.0100
7.139000 0.0100 0.0100 0.0100 0.0100 0.0100
7.173115 0.0080 0.0080 0.0080 0.0080 0.0080
7.208000 0.0080 0.0100 0.0100 0.0130 0.0150
7.242115 0.0170 0.0200 0.0220 0.0220 0.0240
7.276000 0.0250 0.0250 0.0300 0.0320 0.0370
7.310115 0.0490 0.0530 0.0610 0.0700 0.0750
7.344000 0.0800 0.0820 0.0840 0.0870 0.0910
7.378115 0.0980 0.1110 0.1170 0.1230 0.1250
7.412000 0.1270 0.1290 0.1300 0.1340 0.1350
7.446115 0.1420 0.1490 0.1560 0.1720 0.1790
7.480000 0.1840 0.1910 0.1990 0.2040 0.2080
7.514115 0.2150 0.2180 0.2200 0.2220 0.2250
7.549000 0.2250 0.2270 0.2280 0.2320 0.2340
7.583115 0.2350 0.2400 0.2460 0.2540 0.2610
7.617000 0.2660 0.2700 0.2710 0.2750 0.2770
7.651115 0.2780 0.2820 0.2870 0.2900 0.2960
7.685000 0.2990 0.3040 0.3060 0.3110 0.3140
7.719115 0.3180 0.3250 0.3280 0.3320 0.3390
7.753000 0.3440 0.3470 0.3510 0.3560 0.3580
7.787115 0.3640 0.3700 0.3750 0.3760 0.3870
7.821000 0.3900 0.3920 0.3950 0.3990 0.4010
7.855115 0.4040 0.4110 0.4140 0.4190 0.4230
7.890000 0.4280 0.4350 0.4400 0.4420 0.4490
7.924115 0.4540 0.4560 0.4640 0.4690 0.4730
7.958000 0.4760 0.4810 0.4850 0.4880 0.4900
7.992115 0.4930 0.4990 0.5000 0.5020 0.5040
8.026000 0.5040 0.5060 0.5070 0.5110 0.5140
8.060115 0.5210 0.5240 0.5300 0.5350 0.5380
8.094000 0.5420 0.5430 0.5450 0.5490 0.5520
8.128115 0.5550 0.5550 0.5610 0.5620 0.5640
8.162000 0.5670 0.5690 0.5710 0.5730 0.5740
8.196115 0.5760 0.5760 0.5780 0.5780 0.5800
8.231000 0.5810 0.5830 0.5850 0.5860 0.5860
8.265115 0.5900 0.5930 0.5980 0.6000 0.6000
8.299000 0.6040 0.6090 0.6160 0.6170 0.6230
8.333115 0.6240 0.6260 0.6290 0.6310 0.6350
8.367000 0.6360 0.6380 0.6400 0.6400 0.6410
8.401115 0.6430 0.6470 0.6470 0.6480 0.6480
8.435000 0.6500 0.6540 0.6550 0.6570 0.6640
8.469115 0.6640 0.6660 0.6670 0.6670 0.6670
8.503000 0.6690 0.6710 0.6720 0.6740 0.6760
8.537115 0.6780 0.6790 0.6790 0.6810 0.6810
8.572000 0.6830 0.6850 0.6850 0.6850 0.6860
8.606115 0.6850 0.6860 0.6860 0.6880 0.6900
8.640000 0.6910 0.6930 0.6950 0.6970 0.6980
8.674115 0.7020 0.7020 0.7030 0.7030 0.7050
8.708000 0.7050 0.7090 0.7140 0.7170 0.7210
8.742115 0.7220 0.7240 0.7280 0.7310 0.7330
8.776000 0.7330 0.7340 0.7360 0.7380 0.7400
8.810115 0.7410 0.7430 0.7430 0.7450 0.7500
8.844000 0.7520 0.7530 0.7550 0.7600 0.7640
8.878115 0.7650 0.7670 0.7690 0.7710 0.7740
8.913000 0.7760 0.7770 0.7790 0.7810 0.7830
8.947115 0.7830 0.7840 0.7860 0.7860 0.7860
8.981000 0.7880 0.7900 0.7900 0.7900 0.7900
9.015115 0.7900 0.7900 0.7900 0.7900 0.7910
9.049000 0.7910 0.7910 0.7930 0.7930 0.7950
9.083115 0.7980 0.8000 0.8020 0.8020 0.8020
9.117000 0.8020 0.8020 0.8020 0.8020 0.8020
9.151115 0.8020 0.8020 0.8030 0.8030 0.8030
9.185000 0.8030 0.8030 0.8030 0.8030 0.8030
9.219115 0.8030 0.8030 0.8030 0.8030 0.8020
9.254000 0.8020 0.8000 0.8000 0.7980 0.7960
9.288115 0.7980 0.7980 0.8020 0.8050 0.8050
9.322000 0.8050 0.8070 0.8070 0.8070 0.8050
9.356115 0.8050 0.8050 0.8050 0.8050 0.8070
9.390000 0.8080 0.8080 0.8150 0.8170 0.8190
9.424115 0.8200 0.8200 0.8220 0.8220 0.8240
9.458000 0.8260 0.8270 0.8290 0.8310 0.8330
9.492115 0.8330 0.8340 0.8340 0.8360 0.8380
9.526000 0.8380 0.8390 0.8390 0.8410 0.8410
9.560115 0.8430 0.8430 0.8450 0.8450 0.8450
9.595000 0.8460 0.8460 0.8460 0.8460 0.8460
9.629115 0.8460 0.8480 0.8480 0.8480 0.8480
9.663000 0.8480 0.8480 0.8480 0.8480 0.8480
9.697115 0.8480 0.8480 0.8500 0.8480 0.8480
9.731000 0.8480 0.8480 0.8480 0.8480 0.8480
9.765115 0.8500 0.8480 0.8480 0.8480 0.8480
9.799000 0.8480 0.8480 0.8480 0.8480 0.8480
9.833115 0.8480 0.8480 0.8500 0.8500 0.8500
9.867000 0.8510 0.8510 0.8530 0.8530 0.8530
9.901115 0.8530 0.8530 0.8530 0.8530 0.8530
9.936000 0.8530 0.8530 0.8530 0.8530 0.8530
9.970115 0.8530 0.8550 0.8550 0.8550 0.8550
10.004000 0.8550 0.8550 0.8550 0.8570 0.8570
10.038115 0.8570 0.8570 0.8570 0.8570 0.8570
10.072000 0.8570 0.8570 0.8570 0.8550 0.8530
10.106115 0.8530 0.8510 0.8510 0.8510 0.8510
10.140000 0.8500 0.8480 0.8480 0.8460 0.8460
10.174115 0.8460 0.8450 0.8450 0.8450 0.8450
10.208000 0.8450 0.8450 0.8430 0.8430 0.8430
10.242115 0.8410 0.8410 0.8410 0.8390 0.8360
10.277000 0.8340 0.8330 0.8310 0.8310 0.8290
10.311115 0.8290 0.8290 0.8290 0.8290 0.8290
10.345000 0.8270 0.8270 0.8270 0.8260 0.8260
10.379115 0.8260 0.8260 0.8260 0.8260 0.8260
10.413000 0.8260 0.8270 0.8270 0.8270 0.8290
10.447115 0.8310 0.8310 0.8310 0.8330 0.8330
10.481000 0.8340 0.8340 0.8360 0.8360 0.8380
10.515115 0.8380 0.8360 0.8360 0.8360 0.8340
10.549000 0.8340 0.8340 0.8340 0.8340 0.8330
10.583115 0.8330 0.8330 0.8330 0.8330 0.8310
10.617000 0.8310 0.8310 0.8310 0.8290 0.8290
10.651115 0.8290 0.8270 0.8290 0.8290 0.8290
10.686000 0.8290 0.8290 0.8290 0.8290 0.8270
10.720115 0.8260 0.8260 0.8260 0.8240 0.8240
10.754000 0.8240 0.8240 0.8240 0.8220 0.8200
10.788115 0.8200 0.8200 0.8190 0.8190 0.8190
10.822000 0.8190 0.8170 0.8170 0.8170 0.8170
10.856115 0.8170 0.8150 0.8150 0.8140 0.8140
10.890000 0.8120 0.8100 0.8100 0.8080 0.8070
10.924115 0.8070 0.8050 0.8050 0.8050 0.8030
10.958000 0.8030 0.8020 0.8020 0.8020 0.7980
10.992115 0.7950 0.7930 0.7910 0.7880 0.7880
11.027000 0.7840 0.7830 0.7810 0.7790 0.7720
11.061115 0.7650 0.7620 0.7570 0.7530 0.7500
11.095000 0.7460 0.7430 0.7360 0.7310 0.7260
11.129115 0.7210 0.7160 0.7100 0.7000 0.6830
11.163000 0.6740 0.6070 0.5810 0.5730 0.5590
11.197115 0.5430 0.5190 0.4730 0.3370 0.3180
11.231000 0.2990 0.2730 0.2610 0.2490 0.2280
11.265115 0.1870 0.1630 0.1410 0.1290 0.1180
11.299000 0.1080 0.0990 0.0980 0.0910 0.0890
11.333115 0.0840 0.0840 0.0820 0.0790 0.0790
11.368000 0.0770 0.0750 0.0740 0.0740 0.0750
11.402115 0.0770 0.1040 0.1510 0.1820 0.2060
11.436000 0.2180 0.2350 0.2470 0.2530 0.2800
11.470115 0.2990 0.3090 0.3210 0.3390 0.3520
11.504000 0.3610 0.3700 0.3850 0.3990 0.4090
11.538115 0.4210 0.4320 0.4520 0.4660 0.4830
11.572000 0.5000 0.5140 0.5330 0.5670 0.5980
11.606115 0.6090 0.6360 0.6570 0.6640 0.6710
11.640000 0.6830 0.6880 0.6850 0.6830 0.6790
11.674115 0.6670 0.6620 0.6600 0.6550 0.6550
11.709000 0.6620 0.6660 0.6670 0.6720 0.6780
11.743115 0.6830 0.6930 0.7020 0.7100 0.7190
11.777000 0.7280 0.7330 0.7400 0.7520 0.7600
11.811115 0.7740 0.7860 0.7960 0.8020 0.8030
11.845000 0.8140 0.8190 0.8260 0.8310 0.8360
11.879115 0.8410 0.8460 0.8530 0.8580 0.8650
11.913000 0.8700 0.8740 0.8770 0.8790 0.8820
11.947115 0.8840 0.8880 0.8910 0.8950 0.8960
11.981000 0.8980 0.8980 0.9000 0.9030 0.9070
12.015115 0.9080 0.9130 0.9130 0.9170 0.9190
12.050000 0.9200 0.9220 0.9240 0.9240 0.9250
12.084115 0.9270 0.9310 0.9320 0.9320 0.9320
12.118000 0.9320 0.9320 0.9320 0.9340 0.9380
12.152115 0.9390 0.9390 0.9410 0.9410 0.9430
12.186000 0.9430 0.9410 0.9410 0.9410 0.9410
12.220115 0.9430 0.9430 0.9430 0.9430 0.9430
12.254000 0.9430 0.9430 0.9430 0.9430 0.9430
12.288115 0.9440 0.9440 0.9440 0.9440 0.9460
12.322000 0.9460 0.9460 0.9480 0.9500 0.9500
12.356115 0.9500 0.9500 0.9510 0.9510 0.9530
12.391000 0.9510 0.9510 0.9510 0.9510 0.9530
12.425115 0.9530 0.9550 0.9550 0.9530 0.9550
12.459000 0.9550 0.9550 0.9530 0.9530 0.9550
12.493115 0.9550 0.9550 0.9550 0.9530 0.9530
12.527000 0.9530 0.9510 0.9500 0.9500 0.9500
12.561115 0.9480 0.9480 0.9480 0.9480 0.9480
12.595000 0.9500 0.9510 0.9510 0.9510 0.9530
12.629115 0.9530 0.9550 0.9550 0.9550 0.9550
12.663000 0.9550 0.9550 0.9550 0.9550 0.9550
12.697115 0.9550 0.9530 0.9530 0.9530 0.9530
12.732000 0.9510 0.9510 0.9500 0.9500 0.9480
12.766115 0.9480 0.9480 0.9500 0.9500 0.9500
12.800000 0.9500 0.9480 0.9480 0.9480 0.9500
12.834115 0.9480 0.9480 0.9440 0.9430 0.9430
12.868000 0.9410 0.9410 0.9390 0.9390 0.9390
12.902115 0.9390 0.9360 0.9360 0.9360 0.9360
12.936000 0.9360 0.9360 0.9360 0.9360 0.9340
12.970115 0.9340 0.9320 0.9320 0.9310 0.9310
13.004000 0.9290 0.9270 0.9270 0.9270 0.9270
13.038115 0.9290 0.9310 0.9320 0.9320 0.9320
13.073000 0.9340 0.9340 0.9320 0.9320 0.9310
13.107115 0.9310 0.9290 0.9290 0.9270 0.9250
13.141000 0.9250 0.9240 0.9220 0.9220 0.9220
13.175115 0.9220 0.9220 0.9220 0.9240 0.9240
13.209000 0.9240 0.9240 0.9220 0.9220 0.9220
13.243115 0.9220 0.9200 0.9200 0.9200 0.9200
13.277000 0.9190 0.9190 0.9190 0.9170 0.9170
13.311115 0.9170 0.9150 0.9150 0.9150 0.9130
13.345000 0.9130 0.9130 0.9130 0.9120 0.9120
13.379115 0.9100 0.9080 0.9070 0.9070 0.9050
13.414000 0.9010 0.8980 0.8960 0.8950 0.8910
13.448115 0.8880 0.8860 0.8840 0.8810 0.8770
13.482000 0.8760 0.8760 0.8720 0.8700 0.8690
13.516115 0.8670 0.8670 0.8650 0.8650 0.8640
13.550000 0.8640 0.8620 0.8580 0.8580 0.8570
13.584115 0.8550 0.8550 0.8510 0.8480 0.8430
13.618000 0.8410 0.8390 0.8360 0.8340 0.8310
13.652115 0.8290 0.8260 0.8220 0.8190 0.8170
13.686000 0.8140 0.8120 0.8050 0.8050 0.8030
13.720115 0.8000 0.7980 0.7900 0.7880 0.7860
13.754000 0.7840 0.7810 0.7790 0.7760 0.7740
13.788115 0.7720 0.7710 0.7690 0.7670 0.7670
13.823000 0.7690 0.7690 0.7710 0.7740 0.7740
13.857115 0.7790 0.7840 0.7880 0.7900 0.7910
13.891000 0.7910 0.7910 0.7930 0.7960 0.7960
13.925115 0.7980 0.7980 0.8030 0.8050 0.8070
13.959000 0.8120 0.8140 0.8140 0.8150 0.8150
13.993115 0.8140 0.8120 0.8080 0.8050 0.8020
14.027000 0.8000 0.7930 0.7900 0.7710 0.7550
14.061115 0.7340 0.7190 0.7090 0.6910 0.6640
14.095000 0.6430 0.6290 0.6090 0.5830 0.5740
14.129115 0.5490 0.5180 0.4880 0.4730 0.4590
14.164000 0.4470 0.4420 0.4370 0.4350 0.4380
14.198115 0.4500 0.4730 0.5040 0.5160 0.5210
14.232000 0.5420 0.5420 0.5380 0.5370 0.5350
14.266115 0.5280 0.5230 0.5160 0.5120 0.5090
14.300000 0.5070 0.5060 0.5070 0.5120 0.5190
14.334115 0.5370 0.5470 0.5660 0.5850 0.5970
14.368000 0.6140 0.6290 0.6570 0.6710 0.6810
14.402115 0.6860 0.6910 0.7020 0.7030 0.7050
14.436000 0.7090 0.7100 0.7120 0.7140 0.7140
14.470115 0.7160 0.7160 0.7170 0.7170 0.7170
14.505000 0.7190 0.7190 0.7210 0.7220 0.7240
14.539115 0.7260 0.7280 0.7290 0.7310 0.7330
14.573000 0.7380 0.7400 0.7400 0.7410 0.7410
14.607115 0.7430 0.7430 0.7450 0.7450 0.7460
14.641000 0.7450 0.7450 0.7450 0.7450 0.7450
14.675115 0.7450 0.7450 0.7430 0.7430 0.7430
14.709000 0.7410 0.7410 0.7400 0.7400 0.7380
14.743115 0.7380 0.7340 0.7340 0.7290 0.7240
14.777000 0.7210 0.7160 0.7160 0.7160 0.7140
14.811115 0.7140 0.7140 0.7160 0.7170 0.7210
14.846000 0.7260 0.7290 0.7290 0.7290 0.7290
14.880115 0.7280 0.7260 0.7260 0.7220 0.7210
14.914000 0.7190 0.7170 0.7160 0.7140 0.7100
14.948115 0.7050 0.7050 0.7050 0.7030 0.7020
14.982000 0.7000 0.7000 0.7000 0.6980 0.6980
15.016115 0.6970 0.6950 0.6910 0.6910 0.6880
15.050000 0.6850 0.6830 0.6830 0.6790 0.6790
15.084115 0.6790 0.6780 0.6760 0.6760 0.6760
15.118000 0.6740 0.6740 0.6740 0.6740 0.6740
15.152115 0.6760 0.6740 0.6740 0.6740 0.6740
15.187000 0.6740 0.6740 0.6740 0.6720 0.6720
15.221115 0.6740 0.6740 0.6740 0.6740 0.6740
15.255000 0.6760 0.6760 0.6760 0.6740 0.6740
15.289115 0.6740 0.6740 0.6740 0.6720 0.6720
15.323000 0.6710 0.6710 0.6710 0.6690 0.6690
15.357115 0.6690 0.6710 0.6690 0.6690 0.6690
15.391000 0.6690 0.6690 0.6690 0.6690 0.6670
15.425115 0.6670 0.6670 0.6660 0.6640 0.6620
15.459000 0.6620 0.6620 0.6620 0.6620 0.6620
15.493115 0.6620 0.6620 0.6620 0.6640 0.6640
15.528000 0.6640 0.6620 0.6620 0.6620 0.6600
15.562115 0.6600 0.6600 0.6620 0.6640 0.6640
15.596000 0.6640 0.6640 0.6640 0.6660 0.6660
15.630115 0.6670 0.6670 0.6670 0.6670 0.6670
15.664000 0.6690 0.6690 0.6710 0.6710 0.6720
15.698115 0.6720 0.6720 0.6710 0.6690 0.6690
15.732000 0.6670 0.6670 0.6670 0.6670 0.6670
15.766115 0.6670 0.6670 0.6670 0.6670 0.6690
15.800000 0.6690 0.6710 0.6690 0.6690 0.6690
15.834115 0.6710 0.6710 0.6710 0.6710 0.6710
15.869000 0.6710 0.6720 0.6720 0.6740 0.6760
15.903115 0.6760 0.6780 0.6790 0.6790 0.6790
15.937000 0.6790 0.6790 0.6790 0.6790 0.6780
15.971115 0.6780 0.6780 0.6760
##END=
