##TITLE=NORBORNYLENE
##JCAMP-DX=4.24
##DATA TYPE=INFRARED SPECTRUM
##CLASS=COBLENTZ III
##ORIGIN=WESTERN REGIONAL RES. USDA
##OWNER=COBLENTZ SOCIETY
Collection (C) 2018 copyright by the U.S. Secretary of Commerce
on behalf of the United States of America. All rights reserved.
##DATE=1966/02/24
##NAMES=bicyclo[2.2.1]hept-2-ene
BICYCLO[2.2.1]HEPT-2-ENE
##CAS REGISTRY NO=498-66-8
##MOLFORM=C7 H10
##SOURCE REFERENCE=COBLENTZ NO. 10425
##$NIST SOURCE=COBLENTZ
##$NIST IMAGE=cob10425
##SPECTROMETER/DATA SYSTEM=CARY 90 (GRATING)
##INSTRUMENT PARAMETERS=GRATING CHANGES AT 3000, 2000, 1200 CM^-^1
##STATE=SOLUTION (10% IN CCl4 FOR 4000-1300, 10% IN CS2 FOR 1300-650 CM^-^1) VS. SOLVENT
##PATH LENGTH=0.010, 0.010 CM
$$ POSSIBLE SPECTRAL CONTAMINATION DUE TO AN IMPURITY AT 1730, 990, 975, 850 CM^-^1
##SAMPLING PROCEDURE=TRANSMISSION
##RESOLUTION=4
##DATA PROCESSING=DIGITIZED BY NIST FROM HARD COPY (FROM TWO SEGMENTS)
##XUNITS=1/CM
##YUNITS=TRANSMITTANCE
##XFACTOR=1.000000
##YFACTOR=1
##DELTAX=0.905492
##FIRSTX=456.14
##LASTX=3977.6
##FIRSTY=0.751
##MAXX=3977.6
##MINX=456.14
##MAXY=0.917
##MINY=0.002
##NPOINTS=3890
##XYDATA=(X++(Y..Y))
456.140000 0.7510 0.7510 0.7500 0.7500 0.7510
460.667458 0.7510 0.7500 0.7500 0.7490 0.7490
465.194916 0.7490 0.7490 0.7480 0.7480 0.7480
469.722373 0.7470 0.7470 0.7460 0.7460 0.7440
474.249831 0.7440 0.7430 0.7430 0.7420 0.7370
478.777289 0.7300 0.7220 0.6881 0.6741 0.6601
483.304747 0.6600 0.6690 0.7069 0.7339 0.7430
487.832204 0.7520 0.7620 0.7680 0.7690 0.7700
492.359662 0.7700 0.7740 0.7810 0.7830 0.7840
496.887120 0.7850 0.7860 0.7880 0.7910 0.7920
501.414578 0.7950 0.7970 0.8000 0.8010 0.8030
505.942036 0.8040 0.8050 0.8050 0.8050 0.8050
510.469493 0.8060 0.8060 0.8060 0.8060 0.8060
514.996951 0.8060 0.8060 0.8060 0.8060 0.8060
519.524409 0.8050 0.8050 0.8050 0.8050 0.8040
524.051867 0.8040 0.8040 0.8040 0.8030 0.8030
528.579325 0.8030 0.8030 0.8020 0.8020 0.8020
533.106782 0.8020 0.8030 0.8030 0.8040 0.8050
537.634240 0.8060 0.8090 0.8110 0.8120 0.8130
542.161698 0.8130 0.8140 0.8140 0.8130 0.8130
546.689156 0.8120 0.8110 0.8100 0.8090 0.8060
551.216613 0.8020 0.7970 0.7910 0.7761 0.7720
555.744071 0.7720 0.7810 0.7960 0.8050 0.8140
560.271529 0.8180 0.8200 0.8220 0.8230 0.8230
564.798987 0.8250 0.8260 0.8260 0.8280 0.8280
569.326445 0.8280 0.8290 0.8290 0.8290 0.8300
573.853902 0.8300 0.8300 0.8310 0.8310 0.8310
578.381360 0.8310 0.8310 0.8310 0.8320 0.8320
582.908818 0.8340 0.8340 0.8340 0.8360 0.8360
587.436276 0.8370 0.8370 0.8370 0.8370 0.8380
591.963734 0.8390 0.8390 0.8390 0.8390 0.8390
596.491191 0.8390 0.8400 0.8400 0.8410 0.8410
601.018649 0.8430 0.8430 0.8430 0.8430 0.8430
605.546107 0.8410 0.8410 0.8400 0.8400 0.8400
610.073565 0.8400 0.8400 0.8400 0.8410 0.8410
614.601022 0.8410 0.8410 0.8430 0.8430 0.8430
619.128480 0.8430 0.8430 0.8440 0.8440 0.8440
623.655938 0.8440 0.8440 0.8440 0.8440 0.8440
628.183396 0.8440 0.8440 0.8440 0.8440 0.8440
632.710854 0.8440 0.8440 0.8440 0.8440 0.8440
637.238311 0.8440 0.8430 0.8430 0.8430 0.8430
641.765769 0.8430 0.8430 0.8430 0.8430 0.8430
646.293227 0.8430 0.8430 0.8430 0.8430 0.8430
650.820685 0.8430 0.8410 0.8410 0.8400 0.8400
655.348143 0.8390 0.8390 0.8380 0.8380 0.8370
659.875600 0.8370 0.8360 0.8340 0.8320 0.8310
664.403058 0.8290 0.8230 0.8170 0.8090 0.8010
668.930516 0.7880 0.7770 0.7770 0.7850 0.7870
673.457974 0.7990 0.8000 0.8050 0.8290 0.8270
677.985431 0.8230 0.8200 0.8160 0.8090 0.8030
682.512889 0.8010 0.8000 0.7990 0.7990 0.7970
687.040347 0.7950 0.7940 0.7920 0.7910 0.7820
691.567805 0.7770 0.7730 0.7650 0.7560 0.7460
696.095263 0.7340 0.7220 0.7061 0.6911 0.6741
700.622720 0.6450 0.6149 0.2151 0.1161 0.0591
705.150178 0.0021 0.0020 0.0110 0.0269 0.0489
709.677636 0.0840 0.1210 0.1540 0.1950 0.2339
714.205094 0.2579 0.2809 0.3169 0.3598 0.4008
718.732552 0.4430 0.4810 0.5000 0.5180 0.5499
723.260009 0.5799 0.6019 0.6189 0.6529 0.6719
727.787467 0.6800 0.6820 0.6830 0.6850 0.6880
732.314925 0.6970 0.7030 0.7080 0.7219 0.7250
736.842383 0.7260 0.7270 0.7300 0.7310 0.7320
741.369840 0.7340 0.7380 0.7430 0.7490 0.7530
745.897298 0.7580 0.7680 0.7810 0.7850 0.7870
750.424756 0.7950 0.8010 0.8020 0.8020 0.8020
754.952214 0.8000 0.7950 0.7910 0.7860 0.7820
759.479672 0.7770 0.7730 0.7680 0.7670 0.7660
764.007129 0.7660 0.7650 0.7610 0.7001 0.6820
768.534587 0.6611 0.6122 0.5602 0.5441 0.5440
773.062045 0.5770 0.5890 0.6599 0.6740 0.7199
777.589503 0.7439 0.7689 0.7849 0.7950 0.8030
782.116961 0.8110 0.8190 0.8220 0.8220 0.8210
786.644418 0.8180 0.8170 0.8160 0.8140 0.8110
791.171876 0.8020 0.7920 0.7810 0.7400 0.6821
795.699334 0.6640 0.6640 0.6819 0.6860 0.7149
800.226792 0.7490 0.7590 0.7690 0.7810 0.7860
804.754249 0.7920 0.8000 0.8010 0.8010 0.8000
809.281707 0.7970 0.7960 0.7920 0.7870 0.7830
813.809165 0.7820 0.7830 0.7900 0.7940 0.8020
818.336623 0.8110 0.8120 0.8120 0.8110 0.8100
822.864081 0.8060 0.8030 0.7990 0.7930 0.7870
827.391538 0.7790 0.7720 0.7610 0.7350 0.7051
831.918996 0.6741 0.6541 0.6271 0.5981 0.5423
836.446454 0.5420 0.5980 0.6460 0.6800 0.7139
840.973912 0.7439 0.7550 0.7650 0.7839 0.7920
845.501369 0.7930 0.7920 0.7910 0.7880 0.7720
850.028827 0.7261 0.6861 0.6272 0.6200 0.6200
854.556285 0.6510 0.7220 0.7390 0.7560 0.7700
859.083743 0.7899 0.7990 0.8090 0.8110 0.8110
863.611201 0.8100 0.8090 0.8060 0.7990 0.7920
868.138658 0.7860 0.7720 0.7341 0.7061 0.6244
872.666116 0.5650 0.4481 0.3581 0.3580 0.4268
877.193574 0.4868 0.5099 0.5309 0.5768 0.6158
881.721032 0.6580 0.6900 0.7110 0.7350 0.7470
886.248490 0.7570 0.7700 0.7780 0.7840 0.7920
890.775947 0.7990 0.8010 0.8020 0.8030 0.8020
895.303405 0.7990 0.7950 0.7880 0.7830 0.7661
899.830863 0.7480 0.7390 0.7110 0.6890 0.6580
904.358321 0.5911 0.4803 0.4401 0.4400 0.4898
908.885778 0.5230 0.5550 0.5950 0.6350 0.6769
913.413236 0.6960 0.7309 0.7410 0.7500 0.7610
917.940694 0.7670 0.7740 0.7840 0.7880 0.7910
922.468152 0.7930 0.7950 0.7960 0.7970 0.7990
926.995610 0.8000 0.8000 0.8000 0.7990 0.7990
931.523067 0.7990 0.7960 0.7960 0.7950 0.7930
936.050525 0.7900 0.7850 0.7820 0.7730 0.7620
940.577983 0.7410 0.7390 0.7410 0.7470 0.7510
945.105441 0.7580 0.7750 0.7900 0.7930 0.7950
949.632899 0.7960 0.7970 0.7970 0.7970 0.7960
954.160356 0.7960 0.7950 0.7930 0.7930 0.7930
958.687814 0.7930 0.7920 0.7920 0.7910 0.7900
963.215272 0.7860 0.7810 0.7700 0.7440 0.7440
967.742730 0.7550 0.7640 0.7680 0.7830 0.7880
972.270187 0.7920 0.7970 0.8040 0.8040 0.7990
976.797645 0.7950 0.7900 0.7830 0.7770 0.7770
981.325103 0.7810 0.7840 0.7920 0.8000 0.8030
985.852561 0.8100 0.8100 0.8060 0.8050 0.8020
990.380019 0.7990 0.7950 0.7830 0.7720 0.7720
994.907476 0.7780 0.8039 0.8080 0.8160 0.8200
999.434934 0.8230 0.8260 0.8260 0.8270 0.8270
1003.962392 0.8250 0.8250 0.8230 0.8230 0.8230
1008.489850 0.8220 0.8210 0.8210 0.8200 0.8190
1013.017308 0.8130 0.8080 0.8020 0.7970 0.7930
1017.544765 0.7790 0.7720 0.7430 0.7310 0.7170
1022.072223 0.6970 0.6970 0.7458 0.7550 0.7640
1026.599681 0.7650 0.7660 0.7700 0.7770 0.7830
1031.127139 0.7850 0.7840 0.7750 0.7660 0.7580
1035.654596 0.7580 0.7600 0.7700 0.7810 0.7940
1040.182054 0.8000 0.8010 0.8020 0.8040 0.8080
1044.709512 0.8100 0.8110 0.8120 0.8130 0.8130
1049.236970 0.8160 0.8180 0.8180 0.8190 0.8190
1053.764428 0.8200 0.8210 0.8220 0.8220 0.8220
1058.291885 0.8230 0.8230 0.8230 0.8220 0.8220
1062.819343 0.8220 0.8210 0.8190 0.8180 0.8170
1067.346801 0.8140 0.8140 0.8120 0.8100 0.8080
1071.874259 0.8050 0.8040 0.8030 0.8020 0.8020
1076.401717 0.8010 0.7990 0.7960 0.7940 0.7910
1080.929174 0.7870 0.7850 0.7820 0.7770 0.7740
1085.456632 0.7470 0.7430 0.7340 0.7220 0.7061
1089.984090 0.6930 0.6600 0.6430 0.6430 0.6620
1094.511548 0.6929 0.6940 0.7030 0.7110 0.7160
1099.039005 0.7300 0.7410 0.7460 0.7480 0.7500
1103.566463 0.7560 0.7600 0.7620 0.7650 0.7660
1108.093921 0.7660 0.7650 0.7620 0.7590 0.7570
1112.621379 0.7520 0.7400 0.7320 0.7240 0.7160
1117.148837 0.7110 0.7040 0.7000 0.6910 0.6720
1121.676294 0.4854 0.4331 0.3822 0.3820 0.4318
1126.203752 0.4800 0.5050 0.5290 0.5720 0.6089
1130.731210 0.6379 0.6649 0.6790 0.6979 0.7149
1135.258668 0.7320 0.7400 0.7490 0.7520 0.7550
1139.786126 0.7580 0.7600 0.7650 0.7680 0.7700
1144.313583 0.7720 0.7730 0.7730 0.7740 0.7750
1148.841041 0.7760 0.7760 0.7760 0.7760 0.7750
1153.368499 0.7730 0.7700 0.7680 0.7650 0.7600
1157.895957 0.7560 0.7460 0.7390 0.7320 0.7270
1162.423414 0.7210 0.7110 0.7000 0.7000 0.7090
1166.950872 0.7170 0.7240 0.7320 0.7350 0.7390
1171.478330 0.7460 0.7480 0.7500 0.7520 0.7530
1176.005788 0.7570 0.7600 0.7610 0.7660 0.7690
1180.533246 0.7720 0.7740 0.7760 0.7770 0.7790
1185.060703 0.7810 0.7830 0.7860 0.7900 0.7920
1189.588161 0.7930 0.8010 0.8040 0.8060 0.8080
1194.115619 0.8090 0.8100 0.8100 0.8110 0.8130
1198.643077 0.8130 0.8140 0.8160 0.8160 0.8160
1203.170534 0.8160 0.8170 0.8170 0.8170 0.8180
1207.697992 0.8180 0.8180 0.8180 0.8190 0.8190
1212.225450 0.8200 0.8210 0.8230 0.8270 0.8300
1216.752908 0.8310 0.8320 0.8310 0.8290 0.8260
1221.280366 0.8220 0.8200 0.8180 0.8190 0.8230
1225.807823 0.8280 0.8300 0.8340 0.8370 0.8390
1230.335281 0.8390 0.8410 0.8410 0.8400 0.8400
1234.862739 0.8400 0.8390 0.8380 0.8370 0.8360
1239.390197 0.8340 0.8310 0.8310 0.8290 0.8230
1243.917655 0.8180 0.8100 0.8020 0.7930 0.7840
1248.445112 0.7760 0.7421 0.6602 0.6381 0.6380
1252.972570 0.6681 0.7150 0.7470 0.7580 0.7680
1257.500028 0.7810 0.7870 0.7940 0.8010 0.8020
1262.027486 0.8020 0.8010 0.7880 0.7760 0.7470
1266.554943 0.7310 0.7150 0.6970 0.6781 0.6282
1271.082401 0.6110 0.6110 0.6350 0.6380 0.6650
1275.609859 0.7209 0.7210 0.7170 0.7070 0.6950
1280.137317 0.6810 0.6770 0.6550 0.6550 0.6960
1284.664775 0.7230 0.7400 0.7420 0.7460 0.7490
1289.192232 0.7510 0.7570 0.7650 0.7760 0.7810
1293.719690 0.7830 0.7830 0.7760 0.7611 0.7510
1298.247148 0.7500 0.7620 0.7760 0.7780 0.7850
1302.774606 0.7940 0.8100 0.8190 0.8230 0.8250
1307.302064 0.8250 0.8260 0.8270 0.8270 0.8270
1311.829521 0.8260 0.8230 0.8210 0.8180 0.8160
1316.356979 0.8110 0.8080 0.8000 0.7970 0.7970
1320.884437 0.8040 0.8110 0.8160 0.8180 0.8160
1325.411895 0.8030 0.7990 0.7950 0.7820 0.7700
1329.939352 0.7210 0.6900 0.2409 0.2131 0.1831
1334.466810 0.1540 0.1541 0.2060 0.2300 0.2520
1338.994268 0.3719 0.4689 0.5089 0.5479 0.6098
1343.521726 0.6581 0.6930 0.7180 0.7380 0.7440
1348.049184 0.7510 0.7610 0.7770 0.7900 0.8000
1352.576641 0.8080 0.8160 0.8210 0.8260 0.8290
1357.104099 0.8310 0.8340 0.8360 0.8380 0.8400
1361.631557 0.8410 0.8430 0.8440 0.8440 0.8450
1366.159015 0.8450 0.8450 0.8440 0.8430 0.8410
1370.686473 0.8400 0.8370 0.8340 0.8270 0.8250
1375.213930 0.8250 0.8260 0.8270 0.8280 0.8310
1379.741388 0.8320 0.8340 0.8340 0.8360 0.8390
1384.268846 0.8400 0.8410 0.8410 0.8400 0.8400
1388.796304 0.8390 0.8390 0.8380 0.8380 0.8390
1393.323761 0.8400 0.8410 0.8430 0.8440 0.8440
1397.851219 0.8440 0.8450 0.8450 0.8460 0.8460
1402.378677 0.8460 0.8460 0.8460 0.8450 0.8440
1406.906135 0.8430 0.8410 0.8400 0.8390 0.8370
1411.433593 0.8360 0.8350 0.8320 0.8300 0.8280
1415.961050 0.8260 0.8250 0.8230 0.8230 0.8230
1420.488508 0.8250 0.8250 0.8260 0.8270 0.8280
1425.015966 0.8290 0.8290 0.8300 0.8300 0.8310
1429.543424 0.8320 0.8320 0.8320 0.8310 0.8310
1434.070882 0.8280 0.8230 0.8190 0.8160 0.8120
1438.598339 0.8080 0.8020 0.7920 0.7790 0.7381
1443.125797 0.6909 0.6419 0.5919 0.4930 0.4930
1447.653255 0.5100 0.5250 0.5470 0.5979 0.6498
1452.180713 0.7001 0.7490 0.7570 0.7640 0.7720
1456.708170 0.7780 0.7850 0.7990 0.8050 0.8120
1461.235628 0.8170 0.8170 0.8190 0.8180 0.8060
1465.763086 0.7990 0.7910 0.7840 0.7780 0.7770
1470.290544 0.7780 0.7860 0.7940 0.8020 0.8060
1474.818002 0.8160 0.8220 0.8290 0.8350 0.8390
1479.345459 0.8430 0.8460 0.8490 0.8520 0.8540
1483.872917 0.8560 0.8580 0.8610 0.8630 0.8650
1488.400375 0.8650 0.8660 0.8670 0.8670 0.8690
1492.927833 0.8690 0.8700 0.8700 0.8700 0.8700
1497.455290 0.8700 0.8700 0.8700 0.8710 0.8710
1501.982748 0.8720 0.8720 0.8730 0.8740 0.8750
1506.510206 0.8760 0.8780 0.8790 0.8790 0.8800
1511.037664 0.8810 0.8830 0.8860 0.8870 0.8870
1515.565122 0.8880 0.8880 0.8890 0.8900 0.8910
1520.092579 0.8910 0.8920 0.8920 0.8920 0.8910
1524.620037 0.8900 0.8890 0.8880 0.8870 0.8870
1529.147495 0.8870 0.8860 0.8860 0.8840 0.8840
1533.674953 0.8830 0.8810 0.8810 0.8800 0.8800
1538.202411 0.8790 0.8790 0.8780 0.8780 0.8760
1542.729868 0.8760 0.8750 0.8720 0.8690 0.8670
1547.257326 0.8670 0.8660 0.8660 0.8650 0.8650
1551.784784 0.8640 0.8640 0.8630 0.8630 0.8630
1556.312242 0.8630 0.8620 0.8610 0.8570 0.8530
1560.839699 0.8520 0.8490 0.8410 0.8350 0.8170
1565.367157 0.7990 0.7860 0.7750 0.7471 0.7311
1569.894615 0.7270 0.7260 0.7270 0.7330 0.7370
1574.422073 0.7550 0.7730 0.7930 0.8080 0.8190
1578.949531 0.8270 0.8340 0.8370 0.8390 0.8390
1583.476988 0.8400 0.8400 0.8410 0.8430 0.8440
1588.004446 0.8440 0.8450 0.8460 0.8480 0.8480
1592.531904 0.8490 0.8490 0.8510 0.8520 0.8540
1597.059362 0.8550 0.8550 0.8550 0.8540 0.8530
1601.586820 0.8510 0.8490 0.8440 0.8380 0.8340
1606.114277 0.8280 0.8220 0.8160 0.8090 0.8010
1610.641735 0.7900 0.7700 0.7610 0.7580 0.7570
1615.169193 0.7580 0.7640 0.7740 0.7810 0.7930
1619.696651 0.8020 0.8090 0.8120 0.8180 0.8210
1624.224108 0.8280 0.8390 0.8400 0.8400 0.8390
1628.751566 0.8380 0.8370 0.8360 0.8320 0.8280
1633.279024 0.8230 0.8210 0.8170 0.8160 0.8170
1637.806482 0.8210 0.8230 0.8280 0.8350 0.8410
1642.333940 0.8460 0.8510 0.8550 0.8600 0.8630
1646.861397 0.8650 0.8670 0.8700 0.8720 0.8740
1651.388855 0.8750 0.8760 0.8790 0.8800 0.8810
1655.916313 0.8820 0.8830 0.8840 0.8860 0.8870
1660.443771 0.8870 0.8870 0.8870 0.8860 0.8860
1664.971229 0.8860 0.8860 0.8860 0.8860 0.8860
1669.498686 0.8860 0.8860 0.8870 0.8870 0.8870
1674.026144 0.8870 0.8870 0.8880 0.8880 0.8880
1678.553602 0.8880 0.8880 0.8880 0.8880 0.8870
1683.081060 0.8870 0.8870 0.8870 0.8870 0.8870
1687.608517 0.8870 0.8860 0.8860 0.8860 0.8840
1692.135975 0.8840 0.8840 0.8840 0.8830 0.8810
1696.663433 0.8810 0.8800 0.8790 0.8790 0.8780
1701.190891 0.8780 0.8760 0.8750 0.8750 0.8740
1705.718349 0.8730 0.8730 0.8720 0.8710 0.8700
1710.245806 0.8700 0.8670 0.8670 0.8670 0.8660
1714.773264 0.8660 0.8650 0.8650 0.8650 0.8640
1719.300722 0.8640 0.8630 0.8620 0.8610 0.8560
1723.828180 0.8510 0.8450 0.8400 0.8360 0.8310
1728.355638 0.8280 0.8260 0.8250 0.8230 0.8230
1732.883095 0.8250 0.8270 0.8290 0.8310 0.8320
1737.410553 0.8340 0.8350 0.8380 0.8400 0.8410
1741.938011 0.8430 0.8430 0.8440 0.8450 0.8450
1746.465469 0.8450 0.8450 0.8460 0.8460 0.8460
1750.992926 0.8460 0.8470 0.8470 0.8470 0.8480
1755.520384 0.8480 0.8480 0.8480 0.8490 0.8510
1760.047842 0.8520 0.8530 0.8530 0.8540 0.8550
1764.575300 0.8570 0.8610 0.8630 0.8630 0.8640
1769.102758 0.8640 0.8640 0.8650 0.8660 0.8660
1773.630215 0.8670 0.8670 0.8670 0.8690 0.8690
1778.157673 0.8690 0.8690 0.8690 0.8690 0.8700
1782.685131 0.8700 0.8710 0.8720 0.8750 0.8760
1787.212589 0.8760 0.8760 0.8780 0.8780 0.8790
1791.740047 0.8790 0.8790 0.8790 0.8800 0.8800
1796.267504 0.8810 0.8810 0.8810 0.8810 0.8800
1800.794962 0.8800 0.8790 0.8790 0.8780 0.8780
1805.322420 0.8760 0.8760 0.8750 0.8750 0.8740
1809.849878 0.8730 0.8730 0.8740 0.8750 0.8780
1814.377335 0.8790 0.8820 0.8840 0.8890 0.8910
1818.904793 0.8930 0.8930 0.8950 0.8960 0.8960
1823.432251 0.8960 0.8960 0.8970 0.8970 0.8970
1827.959709 0.8970 0.8980 0.8980 0.8980 0.8980
1832.487167 0.8990 0.8990 0.8990 0.8990 0.8990
1837.014624 0.8990 0.8990 0.8990 0.8990 0.8990
1841.542082 0.8990 0.8990 0.8990 0.8990 0.8990
1846.069540 0.9000 0.9000 0.9000 0.9000 0.9000
1850.596998 0.9000 0.9000 0.9010 0.9010 0.9010
1855.124455 0.9020 0.9020 0.9020 0.9040 0.9040
1859.651913 0.9040 0.9050 0.9050 0.9050 0.9050
1864.179371 0.9050 0.9050 0.9050 0.9050 0.9050
1868.706829 0.9040 0.9040 0.9040 0.9040 0.9040
1873.234287 0.9010 0.9010 0.9010 0.9000 0.9000
1877.761744 0.9000 0.9010 0.9010 0.9020 0.9040
1882.289202 0.9040 0.9040 0.9050 0.9050 0.9060
1886.816660 0.9060 0.9060 0.9060 0.9060 0.9060
1891.344118 0.9060 0.9060 0.9060 0.9060 0.9060
1895.871576 0.9060 0.9060 0.9060 0.9060 0.9060
1900.399033 0.9060 0.9060 0.9060 0.9060 0.9060
1904.926491 0.9060 0.9050 0.9050 0.9050 0.9050
1909.453949 0.9050 0.9050 0.9050 0.9050 0.9050
1913.981407 0.9050 0.9050 0.9050 0.9050 0.9050
1918.508864 0.9050 0.9050 0.9050 0.9050 0.9050
1923.036322 0.9050 0.9050 0.9050 0.9050 0.9050
1927.563780 0.9050 0.9050 0.9050 0.9050 0.9050
1932.091238 0.9050 0.9050 0.9050 0.9050 0.9050
1936.618696 0.9050 0.9050 0.9050 0.9050 0.9050
1941.146153 0.9050 0.9050 0.9050 0.9050 0.9050
1945.673611 0.9050 0.9050 0.9050 0.9050 0.9050
1950.201069 0.9050 0.9050 0.9050 0.9050 0.9050
1954.728527 0.9050 0.9050 0.9050 0.9050 0.9050
1959.255985 0.9050 0.9050 0.9050 0.9050 0.9050
1963.783442 0.9050 0.9050 0.9050 0.9050 0.9050
1968.310900 0.9050 0.9050 0.9050 0.9050 0.9050
1972.838358 0.9050 0.9050 0.9050 0.9050 0.9050
1977.365816 0.9050 0.9050 0.9050 0.9050 0.9050
1981.893273 0.9050 0.9050 0.9050 0.9050 0.9050
1986.420731 0.9050 0.9050 0.9050 0.9050 0.9050
1990.948189 0.9050 0.9050 0.9050 0.9050 0.9040
1995.475647 0.9040 0.9040 0.9040 0.9040 0.9040
2000.003105 0.9040 0.9040 0.9040 0.9040 0.9040
2004.530562 0.9040 0.9040 0.9030 0.9020 0.9020
2009.058020 0.9020 0.9020 0.9020 0.9020 0.9020
2013.585478 0.9020 0.9020 0.9020 0.9020 0.9020
2018.112936 0.9020 0.9020 0.9020 0.9020 0.9020
2022.640394 0.9020 0.9020 0.9020 0.9020 0.9020
2027.167851 0.9020 0.9015 0.9010 0.9010 0.9010
2031.695309 0.9005 0.9000 0.9000 0.9000 0.8995
2036.222767 0.8990 0.8990 0.8990 0.8985 0.8980
2040.750225 0.8975 0.8970 0.8960 0.8950 0.8950
2045.277682 0.8950 0.8940 0.8930 0.8930 0.8930
2049.805140 0.8925 0.8920 0.8915 0.8910 0.8910
2054.332598 0.8910 0.8910 0.8910 0.8910 0.8910
2058.860056 0.8910 0.8910 0.8910 0.8910 0.8915
2063.387514 0.8920 0.8920 0.8920 0.8920 0.8920
2067.914971 0.8920 0.8920 0.8925 0.8930 0.8940
2072.442429 0.8950 0.8950 0.8950 0.8955 0.8960
2076.969887 0.8965 0.8970 0.8970 0.8970 0.8970
2081.497345 0.8970 0.8975 0.8980 0.8980 0.8980
2086.024803 0.8985 0.8990 0.8990 0.8990 0.8990
2090.552260 0.8990 0.8995 0.9000 0.9000 0.9000
2095.079718 0.9005 0.9010 0.9010 0.9010 0.9010
2099.607176 0.9010 0.9015 0.9020 0.9020 0.9020
2104.134634 0.9020 0.9021 0.9031 0.9040 0.9040
2108.662091 0.9040 0.9045 0.9050 0.9050 0.9050
2113.189549 0.9055 0.9060 0.9060 0.9060 0.9065
2117.717007 0.9070 0.9070 0.9070 0.9070 0.9070
2122.244465 0.9070 0.9070 0.9070 0.9070 0.9070
2126.771923 0.9070 0.9070 0.9070 0.9070 0.9070
2131.299380 0.9070 0.9070 0.9070 0.9070 0.9070
2135.826838 0.9070 0.9070 0.9070 0.9065 0.9060
2140.354296 0.9060 0.9060 0.9060 0.9060 0.9060
2144.881754 0.9060 0.9060 0.9060 0.9055 0.9050
2149.409212 0.9050 0.9050 0.9050 0.9050 0.9050
2153.936669 0.9050 0.9045 0.9040 0.9040 0.9040
2158.464127 0.9040 0.9040 0.9040 0.9039 0.9029
2162.991585 0.9020 0.9020 0.9020 0.9020 0.9020
2167.519043 0.9020 0.9019 0.9014 0.9010 0.9010
2172.046500 0.9010 0.9010 0.9010 0.9010 0.9010
2176.573958 0.9010 0.9010 0.9010 0.9010 0.9010
2181.101416 0.9010 0.9010 0.9010 0.9010 0.9010
2185.628874 0.9010 0.9010 0.9010 0.9010 0.9010
2190.156332 0.9010 0.9010 0.9010 0.9010 0.9009
2194.683789 0.9004 0.9001 0.9006 0.9010 0.9010
2199.211247 0.9010 0.9010 0.9010 0.9010 0.9010
2203.738705 0.9010 0.9011 0.9016 0.9020 0.9020
2208.266163 0.9020 0.9020 0.9020 0.9020 0.9020
2212.793620 0.9020 0.9021 0.9031 0.9040 0.9040
2217.321078 0.9040 0.9040 0.9040 0.9040 0.9041
2221.848536 0.9046 0.9050 0.9050 0.9050 0.9050
2226.375994 0.9050 0.9050 0.9050 0.9050 0.9051
2230.903452 0.9056 0.9060 0.9060 0.9060 0.9060
2235.430909 0.9060 0.9060 0.9060 0.9060 0.9061
2239.958367 0.9066 0.9070 0.9070 0.9070 0.9070
2244.485825 0.9070 0.9070 0.9070 0.9070 0.9071
2249.013283 0.9076 0.9080 0.9080 0.9081 0.9086
2253.540741 0.9090 0.9090 0.9091 0.9096 0.9100
2258.068198 0.9100 0.9100 0.9100 0.9100 0.9100
2262.595656 0.9100 0.9100 0.9100 0.9100 0.9100
2267.123114 0.9100 0.9100 0.9100 0.9100 0.9100
2271.650572 0.9100 0.9100 0.9100 0.9100 0.9100
2276.178029 0.9100 0.9099 0.9094 0.9090 0.9090
2280.705487 0.9090 0.9090 0.9090 0.9090 0.9089
2285.232945 0.9084 0.9080 0.9080 0.9080 0.9080
2289.760403 0.9080 0.9080 0.9080 0.9080 0.9080
2294.287861 0.9080 0.9080 0.9080 0.9080 0.9080
2298.815318 0.9080 0.9080 0.9080 0.9080 0.9079
2303.342776 0.9074 0.9070 0.9070 0.9070 0.9070
2307.870234 0.9070 0.9070 0.9070 0.9070 0.9070
2312.397692 0.9070 0.9070 0.9070 0.9070 0.9070
2316.925150 0.9070 0.9070 0.9070 0.9070 0.9070
2321.452607 0.9070 0.9070 0.9070 0.9070 0.9070
2325.980065 0.9070 0.9070 0.9070 0.9070 0.9070
2330.507523 0.9070 0.9070 0.9070 0.9070 0.9070
2335.034981 0.9069 0.9064 0.9060 0.9060 0.9060
2339.562438 0.9060 0.9060 0.9060 0.9060 0.9060
2344.089896 0.9060 0.9060 0.9060 0.9060 0.9060
2348.617354 0.9060 0.9060 0.9060 0.9059 0.9054
2353.144812 0.9050 0.9050 0.9050 0.9050 0.9050
2357.672270 0.9050 0.9050 0.9050 0.9050 0.9050
2362.199727 0.9050 0.9050 0.9050 0.9050 0.9050
2366.727185 0.9050 0.9050 0.9050 0.9050 0.9050
2371.254643 0.9050 0.9050 0.9050 0.9050 0.9050
2375.782101 0.9050 0.9050 0.9050 0.9050 0.9050
2380.309559 0.9050 0.9050 0.9050 0.9050 0.9050
2384.837016 0.9050 0.9050 0.9050 0.9050 0.9050
2389.364474 0.9050 0.9050 0.9050 0.9050 0.9050
2393.891932 0.9050 0.9050 0.9050 0.9050 0.9050
2398.419390 0.9050 0.9050 0.9051 0.9056 0.9060
2402.946847 0.9060 0.9060 0.9060 0.9060 0.9060
2407.474305 0.9060 0.9060 0.9060 0.9060 0.9060
2412.001763 0.9060 0.9060 0.9060 0.9060 0.9060
2416.529221 0.9060 0.9060 0.9060 0.9060 0.9061
2421.056679 0.9066 0.9070 0.9070 0.9070 0.9070
2425.584136 0.9070 0.9070 0.9070 0.9070 0.9070
2430.111594 0.9070 0.9070 0.9070 0.9070 0.9070
2434.639052 0.9070 0.9070 0.9070 0.9070 0.9070
2439.166510 0.9070 0.9070 0.9070 0.9071 0.9076
2443.693968 0.9080 0.9080 0.9080 0.9080 0.9080
2448.221425 0.9080 0.9080 0.9080 0.9080 0.9080
2452.748883 0.9080 0.9080 0.9080 0.9080 0.9080
2457.276341 0.9080 0.9080 0.9080 0.9080 0.9080
2461.803799 0.9080 0.9080 0.9079 0.9074 0.9070
2466.331256 0.9070 0.9070 0.9070 0.9070 0.9070
2470.858714 0.9070 0.9070 0.9070 0.9070 0.9070
2475.386172 0.9070 0.9070 0.9070 0.9070 0.9070
2479.913630 0.9070 0.9070 0.9070 0.9070 0.9070
2484.441088 0.9070 0.9070 0.9070 0.9070 0.9070
2488.968545 0.9072 0.9077 0.9080 0.9080 0.9080
2493.496003 0.9080 0.9080 0.9080 0.9080 0.9080
2498.023461 0.9080 0.9080 0.9080 0.9080 0.9080
2502.550919 0.9080 0.9080 0.9080 0.9080 0.9080
2507.078377 0.9080 0.9080 0.9080 0.9080 0.9080
2511.605834 0.9080 0.9080 0.9080 0.9080 0.9080
2516.133292 0.9080 0.9080 0.9080 0.9080 0.9080
2520.660750 0.9080 0.9078 0.9073 0.9070 0.9070
2525.188208 0.9070 0.9070 0.9070 0.9070 0.9068
2529.715665 0.9063 0.9060 0.9060 0.9060 0.9060
2534.243123 0.9060 0.9060 0.9060 0.9060 0.9060
2538.770581 0.9060 0.9060 0.9060 0.9060 0.9060
2543.298039 0.9060 0.9060 0.9060 0.9060 0.9060
2547.825497 0.9060 0.9060 0.9060 0.9062 0.9067
2552.352954 0.9070 0.9070 0.9072 0.9077 0.9080
2556.880412 0.9080 0.9082 0.9087 0.9090 0.9090
2561.407870 0.9090 0.9090 0.9090 0.9090 0.9090
2565.935328 0.9090 0.9090 0.9090 0.9090 0.9090
2570.462785 0.9090 0.9090 0.9090 0.9090 0.9090
2574.990243 0.9090 0.9088 0.9083 0.9080 0.9080
2579.517701 0.9080 0.9080 0.9078 0.9073 0.9070
2584.045159 0.9070 0.9070 0.9070 0.9068 0.9063
2588.572617 0.9060 0.9060 0.9060 0.9060 0.9060
2593.100074 0.9060 0.9060 0.9060 0.9060 0.9060
2597.627532 0.9060 0.9060 0.9060 0.9060 0.9062
2602.154990 0.9067 0.9070 0.9070 0.9070 0.9070
2606.682448 0.9070 0.9070 0.9072 0.9077 0.9080
2611.209906 0.9080 0.9080 0.9080 0.9080 0.9080
2615.737363 0.9082 0.9087 0.9090 0.9090 0.9090
2620.264821 0.9090 0.9090 0.9090 0.9092 0.9097
2624.792279 0.9100 0.9100 0.9102 0.9107 0.9110
2629.319737 0.9110 0.9110 0.9110 0.9114 0.9124
2633.847194 0.9130 0.9130 0.9130 0.9130 0.9132
2638.374652 0.9137 0.9140 0.9140 0.9140 0.9140
2642.902110 0.9142 0.9147 0.9150 0.9150 0.9150
2647.429568 0.9150 0.9152 0.9157 0.9160 0.9160
2651.957026 0.9160 0.9160 0.9160 0.9160 0.9160
2656.484483 0.9160 0.9160 0.9160 0.9160 0.9160
2661.011941 0.9160 0.9160 0.9160 0.9160 0.9162
2665.539399 0.9167 0.9170 0.9170 0.9170 0.9170
2670.066857 0.9170 0.9170 0.9170 0.9170 0.9170
2674.594315 0.9170 0.9170 0.9170 0.9168 0.9163
2679.121772 0.9160 0.9160 0.9160 0.9160 0.9158
2683.649230 0.9153 0.9150 0.9150 0.9150 0.9150
2688.176688 0.9150 0.9150 0.9148 0.9143 0.9140
2692.704146 0.9140 0.9140 0.9140 0.9138 0.9133
2697.231603 0.9130 0.9130 0.9126 0.9116 0.9110
2701.759061 0.9110 0.9108 0.9103 0.9100 0.9100
2706.286519 0.9098 0.9093 0.9088 0.9083 0.9080
2710.813977 0.9080 0.9078 0.9073 0.9070 0.9070
2715.341435 0.9068 0.9063 0.9060 0.9060 0.9058
2719.868892 0.9053 0.9050 0.9050 0.9050 0.9050
2724.396350 0.9048 0.9043 0.9040 0.9040 0.9040
2728.923808 0.9040 0.9035 0.9025 0.9020 0.9020
2733.451266 0.9020 0.9020 0.9020 0.9020 0.9020
2737.978724 0.9020 0.9025 0.9035 0.9040 0.9040
2742.506181 0.9042 0.9047 0.9050 0.9050 0.9052
2747.033639 0.9057 0.9060 0.9060 0.9060 0.9060
2751.561097 0.9060 0.9060 0.9062 0.9067 0.9070
2756.088555 0.9070 0.9070 0.9070 0.9070 0.9070
2760.616012 0.9070 0.9070 0.9070 0.9070 0.9070
2765.143470 0.9070 0.9070 0.9070 0.9070 0.9070
2769.670928 0.9068 0.9063 0.9060 0.9060 0.9060
2774.198386 0.9060 0.9060 0.9060 0.9060 0.9060
2778.725844 0.9058 0.9053 0.9050 0.9050 0.9050
2783.253301 0.9050 0.9050 0.9050 0.9048 0.9043
2787.780759 0.9040 0.9040 0.9040 0.9040 0.9040
2792.308217 0.9040 0.9040 0.9040 0.9035 0.9025
2796.835675 0.9017 0.9012 0.9010 0.9010 0.9007
2801.363133 0.9002 0.8998 0.8992 0.8990 0.8990
2805.890590 0.8988 0.8982 0.8980 0.8980 0.8973
2810.418048 0.8958 0.8940 0.8920 0.8907 0.8902
2814.945506 0.8897 0.8892 0.8887 0.8882 0.8875
2819.472964 0.8865 0.8850 0.8830 0.8812 0.8797
2824.000421 0.8782 0.8767 0.8752 0.8737 0.8720
2828.527879 0.8700 0.8680 0.8660 0.8640 0.8620
2833.055337 0.8594 0.8564 0.8532 0.8497 0.8449
2837.582795 0.8389 0.8318 0.8238 0.8153 0.8063
2842.110253 0.7973 0.7883 0.7749 0.7574 0.7427
2846.637710 0.7308 0.7159 0.6984 0.6798 0.6601
2851.165168 0.6438 0.6303 0.6168 0.6033 0.5876
2855.692626 0.5701 0.5428 0.5068 0.4732 0.4417
2860.220084 0.3723 0.2699 0.2161 0.2051 0.1918
2864.747541 0.1763 0.1608 0.1453 0.1300 0.1148
2869.274999 0.0995 0.0840 0.0770 0.0770 0.0833
2873.802457 0.0948 0.1213 0.1603 0.1886 0.2081
2878.329915 0.2276 0.2471 0.3205 0.4390 0.5096
2882.857373 0.5401 0.5700 0.5995 0.6234 0.6426
2887.384830 0.6516 0.6526 0.6524 0.6514 0.6440
2891.912288 0.6315 0.6171 0.6011 0.5631 0.5076
2896.439746 0.4727 0.4542 0.4307 0.4032 0.3910
2900.967204 0.3910 0.3990 0.4135 0.4365 0.4662
2905.494662 0.4796 0.4806 0.4764 0.4684 0.4505
2910.022119 0.4250 0.3921 0.3536 0.2949 0.2209
2914.549577 0.1853 0.1788 0.1760 0.1760 0.1834
2919.077035 0.1964 0.2156 0.2396 0.2640 0.2887
2923.604493 0.2981 0.2966 0.2945 0.2920 0.2672
2928.131950 0.2262 0.2035 0.1940 0.1842 0.1742
2932.659408 0.1645 0.1550 0.1449 0.1344 0.1251
2937.186866 0.1166 0.1087 0.1012 0.0925 0.0829
2941.714324 0.0751 0.0686 0.0574 0.0429 0.0367
2946.241782 0.0362 0.0354 0.0344 0.0340 0.0340
2950.769239 0.0337 0.0332 0.0327 0.0322 0.0314
2955.296697 0.0304 0.0285 0.0260 0.0238 0.0218
2959.824155 0.0201 0.0186 0.0165 0.0140 0.0121
2964.351613 0.0106 0.0088 0.0068 0.0057 0.0052
2968.879071 0.0047 0.0042 0.0040 0.0040 0.0043
2973.406528 0.0048 0.0053 0.0058 0.0063 0.0068
2977.933986 0.0082 0.0102 0.0153 0.0223 0.0256
2982.461444 0.0266 0.0322 0.0407 0.0615 0.0900
2986.988902 0.1133 0.1333 0.1606 0.1926 0.2151
2991.516359 0.2316 0.2478 0.2638 0.2950 0.3358
2996.043817 0.3698 0.3998 0.4204 0.4354 0.4517
3000.571275 0.4686 0.4819 0.4929 0.5042 0.5157
3005.098733 0.5419 0.5768 0.5962 0.6062 0.6197
3009.626191 0.6352 0.6469 0.6564 0.6650 0.6731
3014.153648 0.6798 0.6858 0.6912 0.6962 0.7009
3018.681106 0.7054 0.7092 0.7127 0.7153 0.7173
3023.208564 0.7196 0.7221 0.7236 0.7246 0.7263
3027.736022 0.7283 0.7293 0.7298 0.7303 0.7308
3032.263480 0.7313 0.7318 0.7317 0.7312 0.7291
3036.790937 0.7261 0.7218 0.7168 0.7121 0.7076
3041.318395 0.7028 0.6978 0.6895 0.6795 0.6708
3045.845853 0.6628 0.6500 0.6345 0.6192 0.6041
3050.373311 0.5858 0.5658 0.5319 0.4909 0.4684
3054.900768 0.4554 0.4339 0.4079 0.3878 0.3708
3059.428226 0.3650 0.3650 0.3732 0.3857 0.4044
3063.955684 0.4264 0.4425 0.4555 0.4736 0.4943
3068.483142 0.5145 0.5345 0.5740 0.6230 0.6582
3073.010600 0.6866 0.7041 0.7161 0.7274 0.7384
3077.538057 0.7497 0.7612 0.7771 0.7950 0.8060
3082.065515 0.8135 0.8197 0.8252 0.8300 0.8346
3086.592973 0.8391 0.8436 0.8474 0.8509 0.8537
3091.120431 0.8562 0.8590 0.8620 0.8644 0.8664
3095.647889 0.8684 0.8704 0.8720 0.8735 0.8747
3100.175346 0.8757 0.8770 0.8785 0.8797 0.8807
3104.702804 0.8817 0.8827 0.8833 0.8838 0.8850
3109.230262 0.8865 0.8873 0.8878 0.8883 0.8888
3113.757720 0.8887 0.8882 0.8873 0.8863 0.8846
3118.285177 0.8826 0.8806 0.8786 0.8763 0.8737
3122.812635 0.8698 0.8653 0.8612 0.8572 0.8535
3127.340093 0.8500 0.8455 0.8405 0.8355 0.8305
3131.867551 0.8258 0.8213 0.8200 0.8200 0.8228
3136.395009 0.8268 0.8301 0.8331 0.8407 0.8503
3140.922466 0.8534 0.8539 0.8562 0.8592 0.8618
3145.449924 0.8643 0.8672 0.8701 0.8735 0.8770
3149.977382 0.8794 0.8814 0.8841 0.8871 0.8887
3154.504840 0.8897 0.8911 0.8926 0.8944 0.8965
3159.032298 0.8970 0.8970 0.8977 0.8987 0.8994
3163.559755 0.8999 0.9000 0.9000 0.9004 0.9009
3168.087213 0.9010 0.9010 0.9010 0.9010 0.9010
3172.614671 0.9010 0.9006 0.9001 0.9000 0.9000
3177.142129 0.8996 0.8991 0.8986 0.8981 0.8976
3181.669586 0.8971 0.8966 0.8961 0.8956 0.8951
3186.197044 0.8943 0.8933 0.8926 0.8921 0.8920
3190.724502 0.8920 0.8916 0.8911 0.8910 0.8910
3195.251960 0.8906 0.8901 0.8900 0.8900 0.8896
3199.779418 0.8891 0.8890 0.8890 0.8890 0.8890
3204.306875 0.8894 0.8899 0.8900 0.8900 0.8907
3208.834333 0.8917 0.8920 0.8920 0.8924 0.8929
3213.361791 0.8938 0.8948 0.8954 0.8959 0.8964
3217.889249 0.8969 0.8974 0.8979 0.8984 0.8989
3222.416706 0.8998 0.9008 0.9010 0.9010 0.9014
3226.944164 0.9019 0.9028 0.9038 0.9040 0.9040
3231.471622 0.9044 0.9049 0.9054 0.9059 0.9064
3235.999080 0.9069 0.9070 0.9070 0.9070 0.9070
3240.526538 0.9074 0.9079 0.9080 0.9080 0.9080
3245.053995 0.9080 0.9080 0.9080 0.9080 0.9080
3249.581453 0.9080 0.9080 0.9080 0.9080 0.9080
3254.108911 0.9080 0.9080 0.9080 0.9080 0.9080
3258.636369 0.9080 0.9080 0.9076 0.9071 0.9070
3263.163827 0.9070 0.9070 0.9070 0.9070 0.9070
3267.691284 0.9066 0.9061 0.9060 0.9060 0.9060
3272.218742 0.9060 0.9060 0.9060 0.9060 0.9060
3276.746200 0.9056 0.9051 0.9050 0.9050 0.9050
3281.273658 0.9050 0.9050 0.9050 0.9046 0.9041
3285.801115 0.9040 0.9040 0.9040 0.9040 0.9040
3290.328573 0.9040 0.9040 0.9040 0.9040 0.9040
3294.856031 0.9032 0.9022 0.9020 0.9020 0.9020
3299.383489 0.9020 0.9020 0.9020 0.9020 0.9020
3303.910947 0.9020 0.9020 0.9016 0.9011 0.9010
3308.438404 0.9010 0.9010 0.9010 0.9010 0.9010
3312.965862 0.9010 0.9010 0.9010 0.9010 0.9006
3317.493320 0.9001 0.9000 0.9000 0.9000 0.9000
3322.020778 0.9000 0.9000 0.9000 0.9000 0.9000
3326.548236 0.9000 0.9000 0.9000 0.8996 0.8991
3331.075693 0.8990 0.8990 0.8990 0.8990 0.8990
3335.603151 0.8990 0.8990 0.8990 0.8990 0.8990
3340.130609 0.8990 0.8990 0.8994 0.8999 0.9000
3344.658067 0.9000 0.9004 0.9009 0.9010 0.9010
3349.185524 0.9010 0.9010 0.9014 0.9019 0.9020
3353.712982 0.9020 0.9028 0.9038 0.9044 0.9049
3358.240440 0.9050 0.9050 0.9054 0.9059 0.9060
3362.767898 0.9060 0.9064 0.9069 0.9070 0.9070
3367.295356 0.9070 0.9070 0.9070 0.9070 0.9070
3371.822813 0.9070 0.9070 0.9070 0.9070 0.9070
3376.350271 0.9066 0.9061 0.9060 0.9060 0.9060
3380.877729 0.9060 0.9056 0.9051 0.9050 0.9050
3385.405187 0.9046 0.9041 0.9040 0.9040 0.9040
3389.932645 0.9040 0.9031 0.9021 0.9020 0.9020
3394.460102 0.9016 0.9011 0.9010 0.9010 0.9010
3398.987560 0.9010 0.9006 0.9001 0.8996 0.8991
3403.515018 0.8990 0.8990 0.8986 0.8981 0.8976
3408.042476 0.8971 0.8970 0.8970 0.8966 0.8961
3412.569933 0.8956 0.8951 0.8950 0.8950 0.8941
3417.097391 0.8931 0.8926 0.8921 0.8920 0.8920
3421.624849 0.8920 0.8920 0.8916 0.8911 0.8910
3426.152307 0.8910 0.8910 0.8910 0.8910 0.8910
3430.679765 0.8910 0.8910 0.8910 0.8910 0.8915
3435.207222 0.8919 0.8920 0.8920 0.8920 0.8920
3439.734680 0.8924 0.8929 0.8939 0.8949 0.8950
3444.262138 0.8950 0.8954 0.8959 0.8965 0.8970
3448.789596 0.8970 0.8970 0.8975 0.8980 0.8985
3453.317054 0.8990 0.8990 0.8990 0.8995 0.9000
3457.844511 0.9005 0.9010 0.9010 0.9010 0.9015
3462.371969 0.9020 0.9020 0.9020 0.9029 0.9039
3466.899427 0.9040 0.9040 0.9040 0.9040 0.9040
3471.426885 0.9040 0.9045 0.9050 0.9050 0.9050
3475.954342 0.9050 0.9050 0.9050 0.9050 0.9050
3480.481800 0.9050 0.9050 0.9050 0.9045 0.9040
3485.009258 0.9040 0.9040 0.9040 0.9040 0.9040
3489.536716 0.9040 0.9031 0.9021 0.9020 0.9020
3494.064174 0.9015 0.9010 0.9005 0.9000 0.8995
3498.591631 0.8990 0.8985 0.8980 0.8975 0.8970
3503.119089 0.8970 0.8970 0.8965 0.8960 0.8960
3507.646547 0.8960 0.8955 0.8950 0.8950 0.8950
3512.174005 0.8950 0.8950 0.8941 0.8931 0.8930
3516.701463 0.8930 0.8925 0.8920 0.8920 0.8920
3521.228920 0.8920 0.8920 0.8920 0.8920 0.8920
3525.756378 0.8920 0.8925 0.8930 0.8930 0.8930
3530.283836 0.8930 0.8930 0.8940 0.8950 0.8950
3534.811294 0.8950 0.8950 0.8950 0.8950 0.8950
3539.338751 0.8950 0.8950 0.8955 0.8960 0.8960
3543.866209 0.8960 0.8960 0.8960 0.8965 0.8970
3548.393667 0.8970 0.8970 0.8970 0.8970 0.8970
3552.921125 0.8970 0.8975 0.8980 0.8980 0.8980
3557.448583 0.8980 0.8980 0.8980 0.8980 0.8985
3561.976040 0.8990 0.8990 0.8990 0.8990 0.8990
3566.503498 0.8990 0.8990 0.8995 0.9000 0.9000
3571.030956 0.9000 0.9000 0.9000 0.9000 0.9000
3575.558414 0.9000 0.9000 0.9000 0.9000 0.9000
3580.085871 0.9000 0.9000 0.9000 0.9005 0.9010
3584.613329 0.9010 0.9010 0.9010 0.9010 0.9010
3589.140787 0.9010 0.9010 0.9010 0.9010 0.9010
3593.668245 0.9010 0.9010 0.9015 0.9020 0.9020
3598.195703 0.9020 0.9020 0.9020 0.9020 0.9020
3602.723160 0.9020 0.9020 0.9020 0.9020 0.9020
3607.250618 0.9020 0.9030 0.9040 0.9040 0.9040
3611.778076 0.9040 0.9040 0.9045 0.9050 0.9050
3616.305534 0.9050 0.9050 0.9050 0.9055 0.9060
3620.832992 0.9060 0.9060 0.9065 0.9070 0.9070
3625.360449 0.9070 0.9070 0.9070 0.9070 0.9070
3629.887907 0.9070 0.9070 0.9075 0.9080 0.9080
3634.415365 0.9080 0.9080 0.9080 0.9080 0.9080
3638.942823 0.9080 0.9080 0.9085 0.9090 0.9090
3643.470280 0.9090 0.9090 0.9090 0.9095 0.9100
3647.997738 0.9100 0.9100 0.9100 0.9100 0.9105
3652.525196 0.9110 0.9110 0.9110 0.9110 0.9110
3657.052654 0.9110 0.9110 0.9110 0.9110 0.9110
3661.580112 0.9110 0.9110 0.9110 0.9105 0.9100
3666.107569 0.9100 0.9100 0.9100 0.9100 0.9100
3670.635027 0.9100 0.9095 0.9090 0.9090 0.9090
3675.162485 0.9090 0.9090 0.9085 0.9080 0.9080
3679.689943 0.9080 0.9075 0.9070 0.9065 0.9060
3684.217401 0.9060 0.9060 0.9055 0.9050 0.9050
3688.744858 0.9050 0.9045 0.9040 0.9040 0.9039
3693.272316 0.9024 0.9010 0.9010 0.9010 0.9005
3697.799774 0.9000 0.8995 0.8990 0.8990 0.8990
3702.327232 0.8985 0.8980 0.8980 0.8980 0.8975
3706.854689 0.8970 0.8965 0.8960 0.8960 0.8960
3711.382147 0.8955 0.8949 0.8939 0.8930 0.8930
3715.909605 0.8930 0.8930 0.8930 0.8925 0.8920
3720.437063 0.8920 0.8920 0.8920 0.8920 0.8915
3724.964521 0.8910 0.8910 0.8910 0.8910 0.8910
3729.491978 0.8910 0.8910 0.8910 0.8910 0.8910
3734.019436 0.8910 0.8915 0.8920 0.8920 0.8920
3738.546894 0.8920 0.8920 0.8920 0.8920 0.8920
3743.074352 0.8920 0.8925 0.8930 0.8930 0.8930
3747.601810 0.8930 0.8931 0.8941 0.8950 0.8950
3752.129267 0.8950 0.8950 0.8950 0.8950 0.8951
3756.656725 0.8956 0.8961 0.8966 0.8970 0.8970
3761.184183 0.8971 0.8976 0.8980 0.8980 0.8980
3765.711641 0.8980 0.8980 0.8980 0.8981 0.8985
3770.239098 0.8990 0.8990 0.8991 0.8996 0.9000
3774.766556 0.9000 0.9001 0.9006 0.9010 0.9010
3779.294014 0.9010 0.9010 0.9011 0.9016 0.9020
3783.821472 0.9020 0.9020 0.9020 0.9020 0.9020
3788.348930 0.9020 0.9020 0.9020 0.9020 0.9020
3792.876387 0.9020 0.9020 0.9020 0.9020 0.9020
3797.403845 0.9020 0.9020 0.9020 0.9020 0.9020
3801.931303 0.9020 0.9020 0.9020 0.9020 0.9020
3806.458761 0.9020 0.9020 0.9020 0.9020 0.9020
3810.986219 0.9020 0.9020 0.9020 0.9020 0.9020
3815.513676 0.9020 0.9020 0.9021 0.9031 0.9040
3820.041134 0.9040 0.9040 0.9040 0.9040 0.9040
3824.568592 0.9040 0.9040 0.9040 0.9040 0.9040
3829.096050 0.9040 0.9040 0.9040 0.9041 0.9046
3833.623507 0.9050 0.9050 0.9050 0.9050 0.9050
3838.150965 0.9050 0.9050 0.9050 0.9050 0.9050
3842.678423 0.9050 0.9050 0.9050 0.9050 0.9051
3847.205881 0.9056 0.9060 0.9060 0.9060 0.9060
3851.733339 0.9060 0.9060 0.9060 0.9060 0.9060
3856.260796 0.9060 0.9060 0.9060 0.9060 0.9060
3860.788254 0.9060 0.9060 0.9061 0.9066 0.9070
3865.315712 0.9070 0.9070 0.9070 0.9070 0.9070
3869.843170 0.9070 0.9070 0.9070 0.9070 0.9070
3874.370628 0.9070 0.9070 0.9070 0.9070 0.9070
3878.898085 0.9070 0.9070 0.9070 0.9070 0.9070
3883.425543 0.9070 0.9070 0.9070 0.9070 0.9070
3887.953001 0.9070 0.9070 0.9070 0.9070 0.9070
3892.480459 0.9070 0.9070 0.9070 0.9070 0.9070
3897.007916 0.9070 0.9070 0.9070 0.9070 0.9070
3901.535374 0.9070 0.9070 0.9070 0.9070 0.9070
3906.062832 0.9070 0.9070 0.9070 0.9070 0.9070
3910.590290 0.9070 0.9070 0.9070 0.9070 0.9070
3915.117748 0.9070 0.9070 0.9069 0.9064 0.9060
3919.645205 0.9060 0.9060 0.9060 0.9060 0.9060
3924.172663 0.9059 0.9054 0.9050 0.9050 0.9050
3928.700121 0.9050 0.9050 0.9050 0.9049 0.9044
3933.227579 0.9040 0.9040 0.9040 0.9040 0.9038
3937.755036 0.9028 0.9020 0.9020 0.9020 0.9020
3942.282494 0.9020 0.9020 0.9019 0.9014 0.9010
3946.809952 0.9010 0.9010 0.9010 0.9009 0.9004
3951.337410 0.9000 0.9000 0.9000 0.9000 0.8999
3955.864868 0.8994 0.8990 0.8990 0.8990 0.8990
3960.392325 0.8989 0.8984 0.8980 0.8980 0.8979
3964.919783 0.8974 0.8970 0.8970 0.8970 0.8970
3969.447241 0.8970 0.8970 0.8970 0.8970 0.8970
3973.974699 0.8970 0.8970 0.8970 0.8970 0.8970
##END=
