##TITLE=BARBITURIC ACID, 5,5-DIETHYL-1-METHYL-
##JCAMP-DX=4.24
$$ By DXEDIT 1.05 (RS McDonald)
##DATA TYPE=INFRARED SPECTRUM
##CLASS=COBLENTZ III
##OWNER=COBLENTZ SOC.
Collection (C) 2018 copyright by the U.S. Secretary of Commerce
on behalf of the United States of America. All rights reserved.
##DATE=1961/08/17
##NAMES=5,5-diethyl-1-methyl-2,4,6(1H,3H,5H)-pyrimidinetrione
METHARBITAL
##CAS REGISTRY NO=50-11-3
##MOLFORM=C9 H14 N2 O3
##MP=151-55 C
##SOURCE REFERENCE=COBLENTZ NO. 05037
##$NIST SOURCE=COBLENTZ
##$NIST IMAGE=cob5037
##SPECTROMETER/DATA SYSTEM=PERKIN-ELMER 21 (GRATING)
##INSTRUMENT PARAMETERS=FILTER AT ABOUT 10 MICRONS
##STATE=SOLID (KBr DISC)
##SAMPLING PROCEDURE=TRANSMISSION
##RESOLUTION=2
##DATA PROCESSING=DIGITIZED BY COBLENTZ SOCIETY (BATCH I) FROM HARD COPY
##XUNITS=1/CM
##YUNITS=TRANSMITTANCE
##XLABEL=Wavenumbers (cm-1)
##YLABEL=Transmittance
##XFACTOR=1
##YFACTOR=1
##DELTAX=1
##FIRSTX=4000
##LASTX=653
##FIRSTY=0.8611
##MAXX=4000
##MINX=653
##MAXY=0.8852
##MINY=0.0425
##NPOINTS=3348
##XYDATA=(X++(Y..Y))
4000.000000 0.8611 0.8611 0.8611 0.8611 0.8611
3995.000000 0.8611 0.8611 0.8612 0.8612 0.8612
3990.000000 0.8612 0.8612 0.8612 0.8612 0.8612
3985.000000 0.8612 0.8612 0.8612 0.8612 0.8612
3980.000000 0.8613 0.8613 0.8613 0.8613 0.8613
3975.000000 0.8613 0.8614 0.8614 0.8614 0.8614
3970.000000 0.8614 0.8614 0.8615 0.8615 0.8615
3965.000000 0.8615 0.8615 0.8615 0.8615 0.8616
3960.000000 0.8616 0.8616 0.8616 0.8616 0.8616
3955.000000 0.8617 0.8617 0.8617 0.8617 0.8617
3950.000000 0.8617 0.8617 0.8617 0.8617 0.8617
3945.000000 0.8617 0.8617 0.8618 0.8618 0.8618
3940.000000 0.8618 0.8618 0.8618 0.8618 0.8618
3935.000000 0.8618 0.8618 0.8618 0.8618 0.8618
3930.000000 0.8620 0.8620 0.8620 0.8620 0.8620
3925.000000 0.8620 0.8621 0.8621 0.8621 0.8621
3920.000000 0.8621 0.8621 0.8621 0.8621 0.8621
3915.000000 0.8621 0.8621 0.8621 0.8623 0.8623
3910.000000 0.8623 0.8623 0.8623 0.8623 0.8623
3905.000000 0.8623 0.8623 0.8623 0.8623 0.8623
3900.000000 0.8624 0.8624 0.8624 0.8624 0.8624
3895.000000 0.8624 0.8625 0.8625 0.8625 0.8625
3890.000000 0.8625 0.8625 0.8625 0.8625 0.8625
3885.000000 0.8625 0.8625 0.8625 0.8625 0.8627
3880.000000 0.8627 0.8627 0.8627 0.8627 0.8627
3875.000000 0.8628 0.8628 0.8628 0.8628 0.8628
3870.000000 0.8628 0.8628 0.8628 0.8628 0.8628
3865.000000 0.8628 0.8628 0.8628 0.8628 0.8628
3860.000000 0.8628 0.8628 0.8630 0.8630 0.8630
3855.000000 0.8630 0.8630 0.8630 0.8631 0.8631
3850.000000 0.8631 0.8631 0.8631 0.8631 0.8632
3845.000000 0.8632 0.8632 0.8632 0.8632 0.8632
3840.000000 0.8633 0.8633 0.8633 0.8633 0.8633
3835.000000 0.8633 0.8634 0.8634 0.8634 0.8634
3830.000000 0.8634 0.8634 0.8634 0.8634 0.8634
3825.000000 0.8634 0.8634 0.8634 0.8635 0.8635
3820.000000 0.8635 0.8635 0.8635 0.8635 0.8636
3815.000000 0.8636 0.8636 0.8636 0.8636 0.8636
3810.000000 0.8637 0.8637 0.8637 0.8637 0.8637
3805.000000 0.8638 0.8638 0.8638 0.8638 0.8638
3800.000000 0.8638 0.8639 0.8639 0.8639 0.8639
3795.000000 0.8639 0.8639 0.8639 0.8639 0.8639
3790.000000 0.8639 0.8639 0.8639 0.8640 0.8640
3785.000000 0.8640 0.8640 0.8640 0.8641 0.8641
3780.000000 0.8641 0.8641 0.8641 0.8641 0.8642
3775.000000 0.8642 0.8642 0.8642 0.8642 0.8642
3770.000000 0.8643 0.8643 0.8643 0.8643 0.8643
3765.000000 0.8644 0.8644 0.8644 0.8644 0.8644
3760.000000 0.8644 0.8644 0.8644 0.8644 0.8644
3755.000000 0.8644 0.8644 0.8645 0.8645 0.8645
3750.000000 0.8645 0.8645 0.8646 0.8646 0.8646
3745.000000 0.8646 0.8646 0.8646 0.8647 0.8647
3740.000000 0.8647 0.8647 0.8647 0.8647 0.8648
3735.000000 0.8648 0.8648 0.8648 0.8648 0.8649
3730.000000 0.8649 0.8649 0.8649 0.8649 0.8649
3725.000000 0.8650 0.8650 0.8650 0.8650 0.8650
3720.000000 0.8650 0.8650 0.8650 0.8650 0.8650
3715.000000 0.8650 0.8651 0.8651 0.8651 0.8651
3710.000000 0.8651 0.8652 0.8652 0.8652 0.8652
3705.000000 0.8652 0.8652 0.8653 0.8653 0.8653
3700.000000 0.8653 0.8653 0.8654 0.8654 0.8654
3695.000000 0.8654 0.8654 0.8654 0.8655 0.8655
3690.000000 0.8655 0.8655 0.8655 0.8655 0.8655
3685.000000 0.8655 0.8655 0.8655 0.8655 0.8656
3680.000000 0.8656 0.8656 0.8656 0.8656 0.8657
3675.000000 0.8657 0.8657 0.8657 0.8657 0.8658
3670.000000 0.8658 0.8658 0.8658 0.8658 0.8658
3665.000000 0.8658 0.8658 0.8657 0.8657 0.8657
3660.000000 0.8656 0.8655 0.8653 0.8652 0.8650
3655.000000 0.8649 0.8647 0.8646 0.8644 0.8643
3650.000000 0.8631 0.8640 0.8638 0.8637 0.8635
3645.000000 0.8634 0.8632 0.8628 0.8625 0.8624
3640.000000 0.8621 0.8618 0.8615 0.8612 0.8609
3635.000000 0.8606 0.8603 0.8600 0.8597 0.8594
3630.000000 0.8591 0.8587 0.8583 0.8577 0.8571
3625.000000 0.8565 0.8558 0.8552 0.8546 0.8539
3620.000000 0.8533 0.8525 0.8520 0.8514 0.8507
3615.000000 0.8501 0.8495 0.8488 0.8482 0.8475
3610.000000 0.8468 0.8462 0.8456 0.8448 0.8439
3605.000000 0.8430 0.8421 0.8413 0.8403 0.8393
3600.000000 0.8382 0.8371 0.8362 0.8351 0.8341
3595.000000 0.8330 0.8320 0.8309 0.8299 0.8289
3590.000000 0.8278 0.8268 0.8257 0.8247 0.8237
3585.000000 0.8227 0.8217 0.8207 0.8197 0.8187
3580.000000 0.8178 0.8168 0.8160 0.8151 0.8141
3575.000000 0.8132 0.8122 0.8112 0.8104 0.8094
3570.000000 0.8085 0.8075 0.8065 0.8057 0.8046
3565.000000 0.8031 0.8015 0.8001 0.7987 0.7971
3560.000000 0.7954 0.7937 0.7919 0.7903 0.7886
3555.000000 0.7869 0.7853 0.7836 0.7818 0.7801
3550.000000 0.7786 0.7768 0.7753 0.7736 0.7721
3545.000000 0.7711 0.7701 0.7692 0.7682 0.7672
3540.000000 0.7662 0.7654 0.7644 0.7634 0.7625
3535.000000 0.7615 0.7606 0.7596 0.7586 0.7576
3530.000000 0.7567 0.7558 0.7548 0.7538 0.7528
3525.000000 0.7518 0.7507 0.7496 0.7486 0.7475
3520.000000 0.7462 0.7450 0.7438 0.7425 0.7412
3515.000000 0.7401 0.7389 0.7375 0.7364 0.7351
3510.000000 0.7339 0.7326 0.7314 0.7301 0.7290
3505.000000 0.7278 0.7265 0.7254 0.7242 0.7231
3500.000000 0.7221 0.7214 0.7205 0.7197 0.7188
3495.000000 0.7180 0.7171 0.7161 0.7154 0.7145
3490.000000 0.7137 0.7128 0.7118 0.7111 0.7101
3485.000000 0.7093 0.7084 0.7075 0.7065 0.7058
3480.000000 0.7049 0.7040 0.7032 0.7022 0.7014
3475.000000 0.7006 0.6997 0.6988 0.6980 0.6971
3470.000000 0.6961 0.6953 0.6945 0.6936 0.6926
3465.000000 0.6918 0.6910 0.6901 0.6892 0.6883
3460.000000 0.6874 0.6865 0.6856 0.6847 0.6839
3455.000000 0.6830 0.6821 0.6811 0.6803 0.6795
3450.000000 0.6786 0.6776 0.6768 0.6758 0.6749
3445.000000 0.6739 0.6730 0.6719 0.6711 0.6701
3440.000000 0.6691 0.6682 0.6671 0.6661 0.6651
3435.000000 0.6643 0.6633 0.6628 0.6624 0.6618
3430.000000 0.6615 0.6610 0.6607 0.6604 0.6601
3425.000000 0.6598 0.6594 0.6591 0.6588 0.6585
3420.000000 0.6582 0.6578 0.6575 0.6571 0.6568
3415.000000 0.6565 0.6562 0.6561 0.6558 0.6557
3410.000000 0.6555 0.6554 0.6551 0.6550 0.6549
3405.000000 0.6548 0.6547 0.6546 0.6545 0.6544
3400.000000 0.6544 0.6544 0.6544 0.6543 0.6543
3395.000000 0.6543 0.6543 0.6543 0.6543 0.6546
3390.000000 0.6550 0.6553 0.6557 0.6561 0.6565
3385.000000 0.6569 0.6574 0.6578 0.6584 0.6590
3380.000000 0.6596 0.6601 0.6608 0.6614 0.6621
3375.000000 0.6626 0.6633 0.6640 0.6646 0.6651
3370.000000 0.6658 0.6665 0.6671 0.6678 0.6685
3365.000000 0.6692 0.6698 0.6705 0.6711 0.6718
3360.000000 0.6725 0.6733 0.6742 0.6750 0.6758
3355.000000 0.6765 0.6775 0.6783 0.6792 0.6800
3350.000000 0.6808 0.6817 0.6825 0.6833 0.6841
3345.000000 0.6850 0.6858 0.6865 0.6875 0.6884
3340.000000 0.6893 0.6901 0.6911 0.6918 0.6925
3335.000000 0.6931 0.6938 0.6943 0.6945 0.6947
3330.000000 0.6949 0.6951 0.6951 0.6951 0.6951
3325.000000 0.6951 0.6951 0.6951 0.6951 0.6951
3320.000000 0.6951 0.6951 0.6951 0.6951 0.6951
3315.000000 0.6948 0.6945 0.6942 0.6939 0.6935
3310.000000 0.6928 0.6921 0.6915 0.6908 0.6896
3305.000000 0.6883 0.6869 0.6857 0.6842 0.6825
3300.000000 0.6810 0.6794 0.6778 0.6758 0.6740
3295.000000 0.6721 0.6703 0.6682 0.6660 0.6638
3290.000000 0.6615 0.6558 0.6462 0.6367 0.6271
3285.000000 0.6181 0.6126 0.6071 0.6016 0.5960
3280.000000 0.5905 0.5850 0.5795 0.5740 0.5685
3275.000000 0.5629 0.5574 0.5518 0.5462 0.5407
3270.000000 0.5351 0.5296 0.5240 0.5184 0.5128
3265.000000 0.5073 0.5017 0.4960 0.4905 0.4849
3260.000000 0.4793 0.4737 0.4681 0.4625 0.4569
3255.000000 0.4512 0.4457 0.4400 0.4344 0.4288
3250.000000 0.4232 0.4176 0.4119 0.4062 0.4007
3245.000000 0.3950 0.3894 0.3837 0.3780 0.3724
3240.000000 0.3666 0.3610 0.3554 0.3497 0.3440
3235.000000 0.3384 0.3327 0.3270 0.3212 0.3156
3230.000000 0.3099 0.3042 0.2984 0.2928 0.2871
3225.000000 0.2814 0.2757 0.2700 0.2642 0.2584
3220.000000 0.2528 0.2470 0.2413 0.2378 0.2364
3215.000000 0.2351 0.2322 0.2329 0.2329 0.2329
3210.000000 0.2329 0.2347 0.2421 0.2496 0.2570
3205.000000 0.2645 0.2720 0.2795 0.2870 0.2944
3200.000000 0.3019 0.3094 0.3169 0.3244 0.3318
3195.000000 0.3395 0.3470 0.3545 0.3620 0.3695
3190.000000 0.3770 0.3846 0.3921 0.3997 0.4072
3185.000000 0.4148 0.4224 0.4299 0.4375 0.4451
3180.000000 0.4527 0.4603 0.4679 0.4755 0.4831
3175.000000 0.4907 0.4983 0.5059 0.5125 0.5184
3170.000000 0.5242 0.5301 0.5337 0.5355 0.5373
3165.000000 0.5391 0.5410 0.5428 0.5446 0.5464
3160.000000 0.5486 0.5510 0.5534 0.5558 0.5582
3155.000000 0.5607 0.5631 0.5655 0.5679 0.5701
3150.000000 0.5724 0.5747 0.5766 0.5783 0.5800
3145.000000 0.5818 0.5836 0.5854 0.5873 0.5891
3140.000000 0.5908 0.5924 0.5940 0.5957 0.5967
3135.000000 0.5977 0.5986 0.5995 0.6000 0.6005
3130.000000 0.6010 0.6014 0.6018 0.6021 0.6024
3125.000000 0.6028 0.6031 0.6034 0.6037 0.6041
3120.000000 0.6045 0.6049 0.6052 0.6057 0.6060
3115.000000 0.6066 0.6071 0.6083 0.6108 0.6134
3110.000000 0.6160 0.6188 0.6222 0.6255 0.6288
3105.000000 0.6321 0.6354 0.6387 0.6419 0.6453
3100.000000 0.6486 0.6518 0.6551 0.6585 0.6618
3095.000000 0.6651 0.6685 0.6718 0.6751 0.6785
3090.000000 0.6818 0.6851 0.6885 0.6918 0.6953
3085.000000 0.6986 0.7018 0.7053 0.7086 0.7118
3080.000000 0.7153 0.7186 0.7219 0.7254 0.7288
3075.000000 0.7321 0.7355 0.7389 0.7421 0.7455
3070.000000 0.7487 0.7518 0.7550 0.7572 0.7587
3065.000000 0.7600 0.7614 0.7628 0.7641 0.7655
3060.000000 0.7668 0.7687 0.7704 0.7721 0.7740
3055.000000 0.7758 0.7775 0.7794 0.7810 0.7824
3050.000000 0.7838 0.7851 0.7865 0.7880 0.7894
3045.000000 0.7907 0.7918 0.7928 0.7940 0.7950
3040.000000 0.7960 0.7969 0.7980 0.7988 0.7996
3035.000000 0.8003 0.8010 0.8015 0.8021 0.8026
3030.000000 0.8032 0.8037 0.8042 0.8048 0.8051
3025.000000 0.8054 0.8057 0.8058 0.8061 0.8062
3020.000000 0.8064 0.8065 0.8068 0.8068 0.8071
3015.000000 0.8072 0.8074 0.8075 0.8078 0.8078
3010.000000 0.8078 0.8080 0.8081 0.8081 0.8081
3005.000000 0.8081 0.8081 0.8081 0.8081 0.8081
3000.000000 0.8081 0.8081 0.8081 0.8081 0.8081
2995.000000 0.8081 0.8080 0.8030 0.7980 0.7930
2990.000000 0.7875 0.7812 0.7751 0.7689 0.7626
2985.000000 0.7565 0.7503 0.7441 0.7378 0.7317
2980.000000 0.7255 0.7193 0.7130 0.7068 0.7006
2975.000000 0.6943 0.6881 0.6818 0.6757 0.6694
2970.000000 0.6632 0.6568 0.6506 0.6443 0.6381
2965.000000 0.6318 0.6255 0.6192 0.6129 0.6066
2960.000000 0.6003 0.5940 0.5885 0.5836 0.5787
2955.000000 0.5741 0.5741 0.5740 0.5740 0.5739
2950.000000 0.5738 0.5737 0.5740 0.5779 0.5818
2945.000000 0.5857 0.5905 0.5960 0.6015 0.6069
2940.000000 0.6124 0.6179 0.6233 0.6284 0.6334
2935.000000 0.6383 0.6428 0.6458 0.6490 0.6519
2930.000000 0.6553 0.6586 0.6619 0.6660 0.6711
2925.000000 0.6764 0.6815 0.6834 0.6851 0.6868
2920.000000 0.6886 0.6904 0.6921 0.6939 0.6957
2915.000000 0.6974 0.6992 0.7011 0.7030 0.7048
2910.000000 0.7068 0.7087 0.7107 0.7125 0.7146
2905.000000 0.7165 0.7186 0.7205 0.7225 0.7245
2900.000000 0.7265 0.7285 0.7305 0.7325 0.7343
2895.000000 0.7360 0.7378 0.7393 0.7407 0.7419
2890.000000 0.7433 0.7444 0.7454 0.7465 0.7475
2885.000000 0.7484 0.7494 0.7500 0.7503 0.7506
2880.000000 0.7508 0.7508 0.7510 0.7510 0.7511
2875.000000 0.7511 0.7511 0.7512 0.7512 0.7514
2870.000000 0.7515 0.7521 0.7525 0.7530 0.7537
2865.000000 0.7544 0.7551 0.7558 0.7565 0.7574
2860.000000 0.7583 0.7595 0.7607 0.7618 0.7628
2855.000000 0.7641 0.7651 0.7664 0.7676 0.7689
2850.000000 0.7701 0.7715 0.7726 0.7740 0.7750
2845.000000 0.7761 0.7771 0.7781 0.7790 0.7800
2840.000000 0.7801 0.7804 0.7806 0.7807 0.7808
2835.000000 0.7808 0.7808 0.7810 0.7811 0.7812
2830.000000 0.7814 0.7815 0.7815 0.7817 0.7818
2825.000000 0.7818 0.7821 0.7821 0.7822 0.7825
2820.000000 0.7828 0.7833 0.7837 0.7841 0.7845
2815.000000 0.7849 0.7853 0.7857 0.7861 0.7865
2810.000000 0.7869 0.7874 0.7880 0.7885 0.7890
2805.000000 0.7896 0.7901 0.7908 0.7915 0.7921
2800.000000 0.7928 0.7934 0.7940 0.7947 0.7953
2795.000000 0.7960 0.7965 0.7972 0.7981 0.7990
2790.000000 0.7998 0.8007 0.8017 0.8025 0.8035
2785.000000 0.8044 0.8053 0.8061 0.8071 0.8080
2780.000000 0.8090 0.8099 0.8108 0.8118 0.8126
2775.000000 0.8136 0.8145 0.8154 0.8164 0.8172
2770.000000 0.8183 0.8192 0.8202 0.8211 0.8221
2765.000000 0.8230 0.8240 0.8249 0.8258 0.8268
2760.000000 0.8277 0.8286 0.8294 0.8303 0.8311
2755.000000 0.8320 0.8328 0.8337 0.8346 0.8354
2750.000000 0.8363 0.8371 0.8380 0.8389 0.8397
2745.000000 0.8405 0.8413 0.8421 0.8430 0.8438
2740.000000 0.8446 0.8454 0.8462 0.8468 0.8474
2735.000000 0.8480 0.8485 0.8490 0.8495 0.8499
2730.000000 0.8504 0.8509 0.8514 0.8518 0.8524
2725.000000 0.8528 0.8533 0.8538 0.8543 0.8548
2720.000000 0.8553 0.8558 0.8563 0.8568 0.8573
2715.000000 0.8578 0.8583 0.8587 0.8592 0.8596
2710.000000 0.8600 0.8603 0.8606 0.8610 0.8613
2705.000000 0.8617 0.8620 0.8623 0.8625 0.8628
2700.000000 0.8631 0.8633 0.8635 0.8637 0.8639
2695.000000 0.8641 0.8643 0.8646 0.8648 0.8651
2690.000000 0.8653 0.8655 0.8657 0.8659 0.8661
2685.000000 0.8663 0.8665 0.8667 0.8668 0.8668
2680.000000 0.8670 0.8671 0.8671 0.8671 0.8673
2675.000000 0.8674 0.8674 0.8675 0.8675 0.8675
2670.000000 0.8677 0.8678 0.8678 0.8678 0.8680
2665.000000 0.8681 0.8681 0.8682 0.8682 0.8680
2660.000000 0.8677 0.8675 0.8673 0.8670 0.8668
2655.000000 0.8665 0.8663 0.8660 0.8658 0.8655
2650.000000 0.8654 0.8652 0.8652 0.8653 0.8654
2645.000000 0.8655 0.8656 0.8656 0.8657 0.8658
2640.000000 0.8659 0.8660 0.8661 0.8662 0.8664
2635.000000 0.8667 0.8668 0.8671 0.8674 0.8677
2630.000000 0.8678 0.8681 0.8684 0.8686 0.8689
2625.000000 0.8691 0.8694 0.8696 0.8698 0.8701
2620.000000 0.8703 0.8705 0.8708 0.8710 0.8711
2615.000000 0.8713 0.8713 0.8714 0.8715 0.8715
2610.000000 0.8716 0.8717 0.8718 0.8718 0.8718
2605.000000 0.8721 0.8721 0.8721 0.8723 0.8724
2600.000000 0.8725 0.8725 0.8725 0.8725 0.8725
2595.000000 0.8725 0.8725 0.8724 0.8724 0.8724
2590.000000 0.8723 0.8723 0.8723 0.8721 0.8721
2585.000000 0.8721 0.8721 0.8721 0.8720 0.8720
2580.000000 0.8720 0.8718 0.8718 0.8718 0.8717
2575.000000 0.8716 0.8715 0.8714 0.8712 0.8711
2570.000000 0.8710 0.8709 0.8708 0.8707 0.8706
2565.000000 0.8705 0.8703 0.8702 0.8701 0.8700
2560.000000 0.8699 0.8698 0.8697 0.8697 0.8697
2555.000000 0.8697 0.8697 0.8696 0.8696 0.8695
2550.000000 0.8695 0.8695 0.8695 0.8695 0.8695
2545.000000 0.8695 0.8695 0.8695 0.8695 0.8695
2540.000000 0.8695 0.8695 0.8695 0.8695 0.8695
2535.000000 0.8696 0.8696 0.8696 0.8696 0.8696
2530.000000 0.8697 0.8697 0.8697 0.8697 0.8697
2525.000000 0.8697 0.8697 0.8697 0.8698 0.8698
2520.000000 0.8698 0.8699 0.8700 0.8701 0.8702
2515.000000 0.8704 0.8705 0.8707 0.8708 0.8710
2510.000000 0.8712 0.8713 0.8714 0.8715 0.8717
2505.000000 0.8718 0.8720 0.8721 0.8721 0.8724
2500.000000 0.8725 0.8727 0.8728 0.8728 0.8731
2495.000000 0.8733 0.8733 0.8734 0.8735 0.8736
2490.000000 0.8737 0.8737 0.8738 0.8739 0.8740
2485.000000 0.8741 0.8741 0.8742 0.8743 0.8744
2480.000000 0.8745 0.8745 0.8746 0.8747 0.8748
2475.000000 0.8749 0.8750 0.8750 0.8751 0.8752
2470.000000 0.8753 0.8754 0.8754 0.8755 0.8755
2465.000000 0.8756 0.8756 0.8756 0.8756 0.8756
2460.000000 0.8756 0.8756 0.8756 0.8756 0.8756
2455.000000 0.8757 0.8757 0.8757 0.8757 0.8757
2450.000000 0.8757 0.8757 0.8757 0.8757 0.8758
2445.000000 0.8758 0.8758 0.8758 0.8758 0.8758
2440.000000 0.8758 0.8759 0.8759 0.8759 0.8759
2435.000000 0.8761 0.8762 0.8763 0.8764 0.8766
2430.000000 0.8767 0.8768 0.8770 0.8771 0.8773
2425.000000 0.8774 0.8775 0.8777 0.8778 0.8780
2420.000000 0.8782 0.8783 0.8784 0.8786 0.8787
2415.000000 0.8788 0.8790 0.8792 0.8793 0.8794
2410.000000 0.8796 0.8798 0.8799 0.8800 0.8802
2405.000000 0.8804 0.8805 0.8807 0.8809 0.8810
2400.000000 0.8812 0.8813 0.8813 0.8813 0.8813
2395.000000 0.8813 0.8814 0.8814 0.8814 0.8814
2390.000000 0.8815 0.8815 0.8815 0.8815 0.8814
2385.000000 0.8812 0.8810 0.8808 0.8806 0.8805
2380.000000 0.8802 0.8800 0.8798 0.8796 0.8794
2375.000000 0.8792 0.8790 0.8788 0.8786 0.8783
2370.000000 0.8781 0.8778 0.8777 0.8775 0.8773
2365.000000 0.8771 0.8768 0.8767 0.8764 0.8762
2360.000000 0.8760 0.8758 0.8755 0.8753 0.8751
2355.000000 0.8749 0.8747 0.8745 0.8743 0.8741
2350.000000 0.8738 0.8736 0.8734 0.8732 0.8728
2345.000000 0.8727 0.8725 0.8721 0.8720 0.8718
2340.000000 0.8716 0.8713 0.8711 0.8709 0.8706
2335.000000 0.8704 0.8702 0.8702 0.8702 0.8702
2330.000000 0.8702 0.8701 0.8701 0.8701 0.8701
2325.000000 0.8700 0.8700 0.8700 0.8700 0.8699
2320.000000 0.8699 0.8699 0.8700 0.8700 0.8704
2315.000000 0.8708 0.8711 0.8714 0.8718 0.8721
2310.000000 0.8724 0.8728 0.8731 0.8734 0.8737
2305.000000 0.8741 0.8744 0.8747 0.8751 0.8753
2300.000000 0.8756 0.8759 0.8761 0.8763 0.8766
2295.000000 0.8768 0.8770 0.8773 0.8775 0.8778
2290.000000 0.8781 0.8783 0.8786 0.8788 0.8791
2285.000000 0.8793 0.8795 0.8798 0.8800 0.8803
2280.000000 0.8804 0.8806 0.8807 0.8808 0.8810
2275.000000 0.8811 0.8812 0.8813 0.8815 0.8816
2270.000000 0.8817 0.8818 0.8818 0.8820 0.8821
2265.000000 0.8823 0.8824 0.8825 0.8825 0.8827
2260.000000 0.8828 0.8830 0.8831 0.8832 0.8833
2255.000000 0.8834 0.8836 0.8837 0.8838 0.8838
2250.000000 0.8839 0.8839 0.8840 0.8840 0.8840
2245.000000 0.8840 0.8841 0.8841 0.8842 0.8842
2240.000000 0.8843 0.8843 0.8844 0.8844 0.8845
2235.000000 0.8845 0.8845 0.8845 0.8846 0.8846
2230.000000 0.8847 0.8847 0.8848 0.8848 0.8849
2225.000000 0.8849 0.8849 0.8849 0.8849 0.8849
2220.000000 0.8849 0.8849 0.8850 0.8850 0.8850
2215.000000 0.8850 0.8850 0.8850 0.8850 0.8850
2210.000000 0.8850 0.8850 0.8851 0.8851 0.8851
2205.000000 0.8851 0.8851 0.8851 0.8851 0.8851
2200.000000 0.8851 0.8851 0.8851 0.8851 0.8852
2195.000000 0.8852 0.8852 0.8852 0.8852 0.8852
2190.000000 0.8852 0.8852 0.8852 0.8851 0.8851
2185.000000 0.8850 0.8849 0.8848 0.8847 0.8846
2180.000000 0.8845 0.8844 0.8843 0.8842 0.8841
2175.000000 0.8840 0.8839 0.8838 0.8836 0.8835
2170.000000 0.8834 0.8833 0.8832 0.8831 0.8830
2165.000000 0.8830 0.8828 0.8828 0.8827 0.8825
2160.000000 0.8825 0.8824 0.8823 0.8821 0.8820
2155.000000 0.8818 0.8818 0.8817 0.8816 0.8815
2150.000000 0.8814 0.8813 0.8812 0.8811 0.8810
2145.000000 0.8809 0.8808 0.8807 0.8806 0.8805
2140.000000 0.8804 0.8803 0.8802 0.8801 0.8800
2135.000000 0.8799 0.8797 0.8796 0.8795 0.8794
2130.000000 0.8794 0.8793 0.8793 0.8792 0.8792
2125.000000 0.8791 0.8790 0.8789 0.8788 0.8788
2120.000000 0.8787 0.8787 0.8786 0.8786 0.8785
2115.000000 0.8784 0.8784 0.8783 0.8782 0.8781
2110.000000 0.8781 0.8780 0.8780 0.8778 0.8778
2105.000000 0.8778 0.8777 0.8775 0.8775 0.8775
2100.000000 0.8774 0.8773 0.8773 0.8771 0.8771
2095.000000 0.8771 0.8771 0.8771 0.8770 0.8770
2090.000000 0.8770 0.8770 0.8770 0.8770 0.8770
2085.000000 0.8768 0.8768 0.8768 0.8768 0.8768
2080.000000 0.8768 0.8768 0.8768 0.8768 0.8768
2075.000000 0.8768 0.8767 0.8767 0.8767 0.8767
2070.000000 0.8767 0.8766 0.8766 0.8766 0.8766
2065.000000 0.8766 0.8766 0.8766 0.8765 0.8765
2060.000000 0.8765 0.8765 0.8765 0.8764 0.8764
2055.000000 0.8763 0.8762 0.8762 0.8761 0.8761
2050.000000 0.8760 0.8759 0.8758 0.8757 0.8757
2045.000000 0.8756 0.8755 0.8755 0.8754 0.8754
2040.000000 0.8753 0.8752 0.8752 0.8751 0.8751
2035.000000 0.8749 0.8748 0.8748 0.8747 0.8747
2030.000000 0.8746 0.8745 0.8745 0.8744 0.8744
2025.000000 0.8743 0.8742 0.8741 0.8740 0.8740
2020.000000 0.8740 0.8740 0.8740 0.8741 0.8742
2015.000000 0.8742 0.8743 0.8743 0.8744 0.8745
2010.000000 0.8745 0.8746 0.8746 0.8746 0.8745
2005.000000 0.8745 0.8743 0.8742 0.8742 0.8741
2000.000000 0.8741 0.8739 0.8738 0.8738 0.8737
1995.000000 0.8736 0.8735 0.8734 0.8733 0.8732
1990.000000 0.8731 0.8730 0.8728 0.8727 0.8725
1985.000000 0.8725 0.8723 0.8721 0.8721 0.8720
1980.000000 0.8718 0.8717 0.8716 0.8714 0.8713
1975.000000 0.8712 0.8712 0.8712 0.8712 0.8712
1970.000000 0.8712 0.8712 0.8712 0.8712 0.8712
1965.000000 0.8712 0.8712 0.8712 0.8711 0.8711
1960.000000 0.8709 0.8707 0.8705 0.8704 0.8702
1955.000000 0.8699 0.8695 0.8691 0.8687 0.8683
1950.000000 0.8678 0.8674 0.8670 0.8666 0.8662
1945.000000 0.8657 0.8653 0.8649 0.8646 0.8642
1940.000000 0.8638 0.8634 0.8630 0.8625 0.8621
1935.000000 0.8620 0.8618 0.8616 0.8614 0.8612
1930.000000 0.8610 0.8608 0.8606 0.8604 0.8601
1925.000000 0.8599 0.8596 0.8593 0.8591 0.8588
1920.000000 0.8585 0.8582 0.8578 0.8575 0.8573
1915.000000 0.8571 0.8571 0.8571 0.8570 0.8568
1910.000000 0.8568 0.8568 0.8567 0.8567 0.8566
1905.000000 0.8565 0.8564 0.8564 0.8563 0.8561
1900.000000 0.8561 0.8560 0.8559 0.8559 0.8556
1895.000000 0.8553 0.8549 0.8545 0.8541 0.8537
1890.000000 0.8534 0.8530 0.8525 0.8521 0.8518
1885.000000 0.8514 0.8511 0.8506 0.8503 0.8499
1880.000000 0.8495 0.8491 0.8487 0.8483 0.8478
1875.000000 0.8471 0.8465 0.8459 0.8453 0.8447
1870.000000 0.8441 0.8435 0.8428 0.8423 0.8417
1865.000000 0.8412 0.8406 0.8400 0.8394 0.8389
1860.000000 0.8384 0.8378 0.8371 0.8365 0.8358
1855.000000 0.8350 0.8342 0.8334 0.8327 0.8318
1850.000000 0.8311 0.8304 0.8296 0.8287 0.8280
1845.000000 0.8271 0.8264 0.8256 0.8246 0.8236
1840.000000 0.8225 0.8215 0.8205 0.8195 0.8184
1835.000000 0.8174 0.8164 0.8153 0.8143 0.8132
1830.000000 0.8121 0.8110 0.8099 0.8088 0.8076
1825.000000 0.8065 0.8054 0.8043 0.8033 0.8021
1820.000000 0.8011 0.8003 0.7994 0.7984 0.7974
1815.000000 0.7960 0.7941 0.7922 0.7905 0.7887
1810.000000 0.7868 0.7850 0.7831 0.7807 0.7781
1805.000000 0.7756 0.7730 0.7704 0.7678 0.7651
1800.000000 0.7625 0.7603 0.7581 0.7560 0.7538
1795.000000 0.7515 0.7495 0.7474 0.7451 0.7428
1790.000000 0.7393 0.7354 0.7315 0.7278 0.7240
1785.000000 0.7200 0.7158 0.7118 0.7076 0.7035
1780.000000 0.6994 0.6956 0.6919 0.6885 0.6849
1775.000000 0.6812 0.6776 0.6741 0.6698 0.6590
1770.000000 0.6458 0.6319 0.6178 0.6050 0.5917
1765.000000 0.5777 0.5456 0.4732 0.4612 0.4503
1760.000000 0.4302 0.4007 0.3671 0.3334 0.2997
1755.000000 0.2023 0.2322 0.2033 0.2017 0.2013
1750.000000 0.2110 0.2332 0.2645 0.2959 0.3272
1745.000000 0.3586 0.3900 0.4215 0.4483 0.4510
1740.000000 0.4509 0.4494 0.4354 0.4108 0.3860
1735.000000 0.3614 0.3366 0.3120 0.2872 0.2624
1730.000000 0.2376 0.2127 0.1878 0.1604 0.1435
1725.000000 0.1385 0.1355 0.1306 0.1256 0.1207
1720.000000 0.1157 0.1107 0.1057 0.1007 0.0957
1715.000000 0.0907 0.0876 0.0876 0.0852 0.0860
1710.000000 0.0945 0.1124 0.1304 0.1484 0.1665
1705.000000 0.1844 0.2026 0.2208 0.2389 0.2570
1700.000000 0.2752 0.2934 0.3117 0.3299 0.3480
1695.000000 0.3664 0.3724 0.3724 0.3724 0.3700
1690.000000 0.3609 0.3438 0.3266 0.3093 0.2920
1685.000000 0.2747 0.2574 0.2400 0.2227 0.2053
1680.000000 0.1879 0.1704 0.1530 0.1355 0.1180
1675.000000 0.1005 0.0830 0.0654 0.0502 0.0429
1670.000000 0.0427 0.0425 0.0524 0.0678 0.0843
1665.000000 0.1010 0.1177 0.1342 0.1510 0.1677
1660.000000 0.1844 0.2002 0.2116 0.2167 0.2206
1655.000000 0.2299 0.2503 0.2777 0.3052 0.3327
1650.000000 0.3602 0.3878 0.4154 0.4429 0.4564
1645.000000 0.4640 0.4707 0.4773 0.4883 0.5030
1640.000000 0.5154 0.5237 0.5321 0.5404 0.5488
1635.000000 0.5569 0.5650 0.5733 0.5794 0.5843
1630.000000 0.5890 0.5938 0.5985 0.6034 0.6085
1625.000000 0.6136 0.6188 0.6240 0.6291 0.6344
1620.000000 0.6396 0.6448 0.6500 0.6544 0.6580
1615.000000 0.6615 0.6651 0.6686 0.6721 0.6756
1610.000000 0.6792 0.6828 0.6862 0.6899 0.6935
1605.000000 0.6972 0.7012 0.7053 0.7094 0.7135
1600.000000 0.7176 0.7218 0.7261 0.7304 0.7346
1595.000000 0.7388 0.7430 0.7471 0.7514 0.7556
1590.000000 0.7600 0.7641 0.7675 0.7701 0.7728
1585.000000 0.7755 0.7782 0.7808 0.7834 0.7858
1580.000000 0.7881 0.7896 0.7911 0.7926 0.7942
1575.000000 0.7957 0.7969 0.7978 0.7987 0.7996
1570.000000 0.8004 0.8008 0.8011 0.8012 0.8015
1565.000000 0.8018 0.8021 0.8022 0.8025 0.8028
1560.000000 0.8031 0.8033 0.8035 0.8037 0.8040
1555.000000 0.8025 0.8044 0.8046 0.8048 0.8050
1550.000000 0.8053 0.8055 0.8057 0.8058 0.8058
1545.000000 0.8056 0.8054 0.8051 0.8051 0.8047
1540.000000 0.8038 0.8028 0.8018 0.8008 0.7998
1535.000000 0.7988 0.7976 0.7964 0.7951 0.7938
1530.000000 0.7926 0.7914 0.7901 0.7890 0.7878
1525.000000 0.7865 0.7853 0.7836 0.7815 0.7795
1520.000000 0.7757 0.7700 0.7611 0.7531 0.7478
1515.000000 0.7454 0.7444 0.7433 0.7424 0.7417
1510.000000 0.7411 0.7404 0.7398 0.7389 0.7380
1505.000000 0.7365 0.7341 0.7315 0.7285 0.7264
1500.000000 0.7255 0.7247 0.7246 0.7246 0.7246
1495.000000 0.7245 0.7240 0.7228 0.7189 0.7106
1490.000000 0.6971 0.6851 0.6735 0.6626 0.6541
1485.000000 0.6454 0.6367 0.6275 0.6176 0.6076
1480.000000 0.5975 0.5867 0.5756 0.5655 0.5572
1475.000000 0.5493 0.5345 0.5127 0.4940 0.4648
1470.000000 0.4339 0.4030 0.3720 0.3409 0.3099
1465.000000 0.2788 0.2477 0.2164 0.1969 0.1962
1460.000000 0.1960 0.1964 0.1972 0.1982 0.2012
1455.000000 0.2050 0.2096 0.2143 0.2199 0.2260
1450.000000 0.2308 0.2322 0.2324 0.2317 0.2300
1445.000000 0.2279 0.2257 0.2260 0.2274 0.2294
1440.000000 0.2378 0.2552 0.2753 0.3001 0.3209
1435.000000 0.3318 0.3392 0.3468 0.3556 0.3630
1430.000000 0.3694 0.3752 0.3909 0.4118 0.4328
1425.000000 0.4537 0.4748 0.4958 0.5169 0.5381
1420.000000 0.5592 0.5804 0.6016 0.6228 0.6431
1415.000000 0.6507 0.6510 0.6505 0.6475 0.6425
1410.000000 0.6320 0.6016 0.5712 0.5408 0.5104
1405.000000 0.4799 0.4493 0.4188 0.3880 0.3576
1400.000000 0.3268 0.2961 0.2653 0.2410 0.2471
1395.000000 0.2361 0.2439 0.2540 0.2642 0.2743
1390.000000 0.2845 0.2994 0.2998 0.2997 0.2878
1385.000000 0.2674 0.2470 0.2266 0.1820 0.1873
1380.000000 0.1809 0.1829 0.1946 0.2252 0.2557
1375.000000 0.2863 0.3169 0.3475 0.3782 0.4090
1370.000000 0.4397 0.4704 0.4822 0.4917 0.4996
1365.000000 0.5104 0.5245 0.5374 0.5503 0.5632
1360.000000 0.5762 0.5891 0.6021 0.6151 0.6282
1355.000000 0.6411 0.6543 0.6674 0.6741 0.6771
1350.000000 0.6686 0.6442 0.6184 0.5924 0.5665
1345.000000 0.5404 0.5144 0.4883 0.4622 0.4360
1340.000000 0.4099 0.3836 0.3574 0.3309 0.3047
1335.000000 0.2783 0.2519 0.2253 0.1989 0.1723
1330.000000 0.1457 0.1337 0.1330 0.1322 0.1418
1325.000000 0.1734 0.2053 0.2371 0.2690 0.3009
1320.000000 0.3329 0.3649 0.3970 0.4291 0.4612
1315.000000 0.4894 0.5094 0.5262 0.5417 0.5570
1310.000000 0.5765 0.5962 0.6162 0.6349 0.6486
1305.000000 0.6617 0.6747 0.6853 0.6930 0.7008
1300.000000 0.7086 0.7165 0.7242 0.7308 0.7368
1295.000000 0.7419 0.7460 0.7480 0.7496 0.7507
1290.000000 0.7537 0.7522 0.7522 0.7518 0.7515
1285.000000 0.7503 0.7488 0.7472 0.7458 0.7433
1280.000000 0.7378 0.7278 0.7075 0.6776 0.6555
1275.000000 0.6200 0.5788 0.5375 0.4960 0.4547
1270.000000 0.4140 0.3964 0.3978 0.4006 0.4214
1265.000000 0.4450 0.4687 0.4924 0.5160 0.5399
1260.000000 0.5637 0.5875 0.6114 0.6353 0.6592
1255.000000 0.6824 0.6986 0.7114 0.7212 0.7312
1250.000000 0.7393 0.7460 0.7528 0.7597 0.7638
1245.000000 0.7675 0.7714 0.7753 0.7790 0.7819
1240.000000 0.7850 0.7878 0.7908 0.7939 0.7955
1235.000000 0.7971 0.7988 0.8004 0.8014 0.8014
1230.000000 0.8014 0.8014 0.8014 0.8008 0.7999
1225.000000 0.7990 0.7981 0.7971 0.7949 0.7925
1220.000000 0.7903 0.7875 0.7828 0.7781 0.7733
1215.000000 0.7644 0.7553 0.7451 0.7306 0.7081
1210.000000 0.6761 0.6439 0.6118 0.5796 0.5473
1205.000000 0.5151 0.4827 0.4581 0.4642 0.4833
1200.000000 0.5027 0.5221 0.5416 0.5612 0.5808
1195.000000 0.6004 0.6200 0.6397 0.6594 0.6792
1190.000000 0.6990 0.7187 0.7386 0.7578 0.7698
1185.000000 0.7788 0.7854 0.7904 0.7944 0.7958
1180.000000 0.7961 0.7964 0.7948 0.7901 0.7825
1175.000000 0.7784 0.7761 0.7738 0.7751 0.7761
1170.000000 0.7780 0.7797 0.7819 0.7807 0.7794
1165.000000 0.7735 0.7525 0.7235 0.6944 0.6715
1160.000000 0.6719 0.6798 0.6974 0.7151 0.7326
1155.000000 0.7504 0.7682 0.7832 0.7896 0.7958
1150.000000 0.8004 0.8050 0.8095 0.8128 0.8160
1145.000000 0.8181 0.8190 0.8201 0.8210 0.8220
1140.000000 0.8228 0.8239 0.8242 0.8244 0.8247
1135.000000 0.8249 0.8252 0.8251 0.8251 0.8247
1130.000000 0.8244 0.8243 0.8242 0.8241 0.8241
1125.000000 0.8242 0.8243 0.8244 0.8247 0.8257
1120.000000 0.8267 0.8280 0.8305 0.8307 0.8299
1115.000000 0.8282 0.8266 0.8261 0.8258 0.8255
1110.000000 0.8254 0.8254 0.8253 0.8253 0.8252
1105.000000 0.8252 0.8249 0.8247 0.8244 0.8242
1100.000000 0.8237 0.8232 0.8223 0.8199 0.8175
1095.000000 0.8148 0.8108 0.8068 0.8021 0.7945
1090.000000 0.7865 0.7774 0.7675 0.7562 0.7447
1085.000000 0.7328 0.7140 0.6949 0.6778 0.6456
1080.000000 0.6100 0.5743 0.5606 0.5597 0.5581
1075.000000 0.5724 0.5930 0.6136 0.6344 0.6551
1070.000000 0.6758 0.6967 0.7175 0.7372 0.7461
1065.000000 0.7542 0.7604 0.7644 0.7671 0.7684
1060.000000 0.7688 0.7715 0.7693 0.7690 0.7675
1055.000000 0.7655 0.7612 0.7561 0.7475 0.7322
1050.000000 0.7055 0.6785 0.6512 0.6242 0.6103
1045.000000 0.6096 0.6190 0.6292 0.6398 0.6507
1040.000000 0.6594 0.6686 0.6788 0.6894 0.7026
1035.000000 0.7200 0.7367 0.7534 0.7701 0.7836
1030.000000 0.7892 0.7946 0.8001 0.8042 0.8084
1025.000000 0.8124 0.8149 0.8172 0.8198 0.8221
1020.000000 0.8244 0.8263 0.8271 0.8278 0.8275
1015.000000 0.8266 0.8267 0.8267 0.8270 0.8274
1010.000000 0.8291 0.8307 0.8324 0.8336 0.8352
1005.000000 0.8350 0.8346 0.8343 0.8343 0.8328
1000.000000 0.8175 0.7972 0.8037 0.8195 0.8325
995.000000 0.8357 0.8370 0.8378 0.8382 0.8387
990.000000 0.8384 0.8382 0.8371 0.8359 0.8335
985.000000 0.8307 0.8285 0.8277 0.8268 0.8253
980.000000 0.8160 0.8040 0.7921 0.7801 0.7683
975.000000 0.7562 0.7475 0.7494 0.7525 0.7603
970.000000 0.7758 0.7896 0.8014 0.8093 0.8156
965.000000 0.8218 0.8277 0.8324 0.8373 0.8395
960.000000 0.8414 0.8432 0.8442 0.8452 0.8451
955.000000 0.8451 0.8475 0.8475 0.8464 0.8452
950.000000 0.8438 0.8420 0.8403 0.8384 0.8361
945.000000 0.8337 0.8314 0.8297 0.8284 0.8318
940.000000 0.8356 0.8388 0.8420 0.8452 0.8485
935.000000 0.8515 0.8539 0.8564 0.8589 0.8614
930.000000 0.8630 0.8646 0.8655 0.8658 0.8661
925.000000 0.8664 0.8665 0.8665 0.8665 0.8665
920.000000 0.8665 0.8665 0.8664 0.8664 0.8663
915.000000 0.8663 0.8662 0.8661 0.8658 0.8654
910.000000 0.8651 0.8647 0.8644 0.8641 0.8640
905.000000 0.8639 0.8639 0.8638 0.8637 0.8637
900.000000 0.8636 0.8635 0.8635 0.8634 0.8631
895.000000 0.8628 0.8627 0.8625 0.8621 0.8618
890.000000 0.8615 0.8610 0.8595 0.8595 0.8595
885.000000 0.8590 0.8575 0.8557 0.8541 0.8525
880.000000 0.8501 0.8475 0.8448 0.8421 0.8371
875.000000 0.8332 0.8254 0.8081 0.7875 0.7783
870.000000 0.7745 0.7776 0.7811 0.7900 0.7997
865.000000 0.8090 0.8169 0.8221 0.8244 0.8259
860.000000 0.8267 0.8262 0.8278 0.8251 0.8241
855.000000 0.8228 0.8217 0.8205 0.8194 0.8183
850.000000 0.8168 0.8149 0.8128 0.8084 0.8039
845.000000 0.7994 0.7937 0.7878 0.7821 0.7768
840.000000 0.7718 0.7668 0.7611 0.7547 0.7478
835.000000 0.7398 0.7317 0.7230 0.7125 0.7022
830.000000 0.6907 0.6785 0.6625 0.6404 0.6198
825.000000 0.5949 0.5727 0.5526 0.5347 0.5142
820.000000 0.4936 0.4730 0.4531 0.4423 0.4436
815.000000 0.4443 0.4523 0.4682 0.4903 0.5124
810.000000 0.5346 0.5568 0.5791 0.6012 0.6237
805.000000 0.6461 0.6687 0.6911 0.7138 0.7344
800.000000 0.7410 0.7445 0.7435 0.7368 0.7168
795.000000 0.6967 0.6765 0.6564 0.6435 0.6426
790.000000 0.6480 0.6650 0.6862 0.7115 0.7271
785.000000 0.7358 0.7451 0.7556 0.7668 0.7775
780.000000 0.7821 0.7828 0.7839 0.7930 0.7988
775.000000 0.8021 0.8043 0.8060 0.8088 0.8128
770.000000 0.8153 0.8167 0.8155 0.8161 0.8182
765.000000 0.8231 0.8247 0.8228 0.8205 0.8207
760.000000 0.8196 0.8134 0.8030 0.7853 0.7558
755.000000 0.6860 0.6851 0.6987 0.7353 0.7721
750.000000 0.7874 0.7938 0.7918 0.7891 0.7803
745.000000 0.7478 0.7037 0.6415 0.6425 0.6553
740.000000 0.7341 0.7756 0.7948 0.8132 0.8250
735.000000 0.8300 0.8289 0.8254 0.8268 0.8317
730.000000 0.8405 0.8395 0.8393 0.8323 0.8330
725.000000 0.8327 0.8285 0.8192 0.8068 0.7935
720.000000 0.7843 0.7804 0.7806 0.7815 0.7833
715.000000 0.7837 0.7801 0.7671 0.7517 0.7239
710.000000 0.6787 0.6801 0.6860 0.7061 0.7334
705.000000 0.7671 0.7932 0.8107 0.8121 0.8132
700.000000 0.8178 0.8250 0.8225 0.8221 0.8216
695.000000 0.8203 0.8118 0.7907 0.7621 0.7415
690.000000 0.7411 0.7574 0.7796 0.7961 0.8101
685.000000 0.8195 0.8257 0.8288 0.8320 0.8334
680.000000 0.8347 0.8360 0.8373 0.8382 0.8391
675.000000 0.8399 0.8408 0.8416 0.8424 0.8428
670.000000 0.8434 0.8438 0.8444 0.8451 0.8459
665.000000 0.8466 0.8475 0.8470 0.8462 0.8455
660.000000 0.8455 0.8468 0.8489 0.8486 0.8483
655.000000 0.8480 0.8481 0.8481
##END=
