##TITLE=Diphenyl acetylene
##JCAMP-DX=4.24
##DATA TYPE=INFRARED SPECTRUM
##CLASS=COBLENTZ
##ORIGIN=DOW CHEMICAL COMPANY
##OWNER=COBLENTZ SOC.
Collection (C) 2018 copyright by the U.S. Secretary of Commerce
on behalf of the United States of America. All rights reserved.
##DATE=1968/12/10
##NAMES=(phenylethynyl)benzene
##CAS REGISTRY NO=501-65-5
##MOLFORM=C14 H10
##SOURCE REFERENCE=COBLENTZ NO. 07552
##$NIST SOURCE=COBLENTZ
##$NIST IMAGE=cob7552
##SPECTROMETER/DATA SYSTEM=BECKMAN IR-9 (GRATING)
##INSTRUMENT PARAMETERS=ORDER CHANGES: 670, 1200, 2000 CM^-^1
##STATE=SOLID (SPLIT MULL), FLUOROLUBE FOR 3800-1330 CM^-^1, NUJOL FOR 1330-400 CM^-^1
##SAMPLING PROCEDURE=TRANSMISSION
##RESOLUTION=2
##DATA PROCESSING=DIGITIZED BY COBLENTZ SOCIETY (BATCH I) FROM HARD COPY
##XUNITS=1/CM
##YUNITS=TRANSMITTANCE
##XLABEL=Wavenumbers (cm-1)
##YLABEL=% Transmission
##XFACTOR=1
##YFACTOR=1
##DELTAX=1
##FIRSTX=404
##LASTX=3802
##FIRSTY=0.6247
##MAXX=3802
##MINX=404
##MAXY=0.8891
##MINY=0.1289
##NPOINTS=3399
##XYDATA=(X++(Y..Y))
404.000000 0.6247 0.6258 0.6272 0.6296 0.6319
409.000000 0.6353 0.6387 0.6418 0.6457 0.6498
414.000000 0.6542 0.6603 0.6662 0.6718 0.6775
419.000000 0.6832 0.6937 0.6960 0.6978 0.6993
424.000000 0.7008 0.7025 0.7042 0.7125 0.7176
429.000000 0.7203 0.7228 0.7247 0.7264 0.7287
434.000000 0.7311 0.7335 0.7368 0.7418 0.7465
439.000000 0.7499 0.7530 0.7544 0.7558 0.7571
444.000000 0.7586 0.7600 0.7615 0.7631 0.7650
449.000000 0.7668 0.7688 0.7707 0.7724 0.7740
454.000000 0.7757 0.7772 0.7790 0.7806 0.7825
459.000000 0.7845 0.7865 0.7871 0.7851 0.7791
464.000000 0.7724 0.7671 0.7672 0.7696 0.7758
469.000000 0.7825 0.7884 0.7922 0.7960 0.7980
474.000000 0.8000 0.8015 0.8028 0.8042 0.8054
479.000000 0.8067 0.8078 0.8085 0.8091 0.8097
484.000000 0.8104 0.8110 0.8115 0.8121 0.8121
489.000000 0.8131 0.8136 0.8136 0.8135 0.8135
494.000000 0.8134 0.8132 0.8128 0.8125 0.8121
499.000000 0.8111 0.8094 0.8061 0.8015 0.7312
504.000000 0.6683 0.6054 0.5747 0.5746 0.5745
509.000000 0.6386 0.6946 0.7506 0.8065 0.8174
514.000000 0.8239 0.8297 0.8343 0.8388 0.8418
519.000000 0.8448 0.8461 0.8474 0.8486 0.8499
524.000000 0.8506 0.8509 0.8520 0.8515 0.8511
529.000000 0.8500 0.8487 0.8434 0.7895 0.7237
534.000000 0.6901 0.6901 0.7937 0.8537 0.8592
539.000000 0.8621 0.8643 0.8660 0.8677 0.8694
544.000000 0.8711 0.8725 0.8736 0.8747 0.8758
549.000000 0.8768 0.8778 0.8789 0.8799 0.8809
554.000000 0.8818 0.8825 0.8833 0.8841 0.8848
559.000000 0.8856 0.8861 0.8864 0.8867 0.8870
564.000000 0.8873 0.8875 0.8880 0.8883 0.8885
569.000000 0.8885 0.8885 0.8885 0.8886 0.8886
574.000000 0.8886 0.8886 0.8887 0.8888 0.8888
579.000000 0.8889 0.8889 0.8890 0.8890 0.8890
584.000000 0.8890 0.8890 0.8890 0.8891 0.8891
589.000000 0.8891 0.8891 0.8888 0.8885 0.8882
594.000000 0.8878 0.8875 0.8873 0.8868 0.8866
599.000000 0.8863 0.8860 0.8857 0.8853 0.8849
604.000000 0.8845 0.8841 0.8837 0.8833 0.8828
609.000000 0.8825 0.8821 0.8817 0.8813 0.8809
614.000000 0.8805 0.8801 0.8778 0.8754 0.8737
619.000000 0.8720 0.8713 0.8713 0.8713 0.8715
624.000000 0.8717 0.8720 0.8720 0.8718 0.8716
629.000000 0.8714 0.8709 0.8704 0.8698 0.8689
634.000000 0.8680 0.8670 0.8661 0.8652 0.8642
639.000000 0.8632 0.8621 0.8612 0.8602 0.8592
644.000000 0.8582 0.8571 0.8559 0.8544 0.8528
649.000000 0.8515 0.8500 0.8485 0.8470 0.8450
654.000000 0.8425 0.8402 0.8378 0.8344 0.8308
659.000000 0.8271 0.8236 0.8190 0.8138 0.8086
664.000000 0.8035 0.7985 0.7958 0.7939 0.7919
669.000000 0.7915 0.7908 0.7906 0.7905 0.7904
674.000000 0.7903 0.7899 0.7895 0.7890 0.7840
679.000000 0.7774 0.7612 0.7011 0.6093 0.5174
684.000000 0.4255 0.3336 0.2418 0.1776 0.1754
689.000000 0.1767 0.1739 0.4014 0.5169 0.6322
694.000000 0.6517 0.6883 0.7145 0.7268 0.7394
699.000000 0.7522 0.7653 0.7786 0.7925 0.8032
704.000000 0.8080 0.8103 0.8125 0.8137 0.8145
709.000000 0.8150 0.8153 0.8161 0.8157 0.8155
714.000000 0.8153 0.8151 0.8149 0.8131 0.8111
719.000000 0.8092 0.8065 0.8037 0.7986 0.7944
724.000000 0.7934 0.7925 0.7915 0.7914 0.7911
729.000000 0.7910 0.7908 0.7908 0.7908 0.7908
734.000000 0.7908 0.7894 0.7876 0.7845 0.7814
739.000000 0.7776 0.7733 0.7689 0.7642 0.7588
744.000000 0.7534 0.7478 0.7411 0.7344 0.5787
749.000000 0.5015 0.4243 0.3471 0.2699 0.1927
754.000000 0.1295 0.1289 0.1313 0.2714 0.4060
759.000000 0.5407 0.6555 0.6919 0.7308 0.7518
764.000000 0.7640 0.7714 0.7787 0.7854 0.7910
769.000000 0.7965 0.8015 0.8050 0.8084 0.8114
774.000000 0.8140 0.8165 0.8192 0.8218 0.8239
779.000000 0.8259 0.8278 0.8295 0.8302 0.8310
784.000000 0.8317 0.8314 0.8310 0.8303 0.8294
789.000000 0.8285 0.8275 0.8267 0.8257 0.8242
794.000000 0.8225 0.8205 0.8184 0.8162 0.8143
799.000000 0.8125 0.8108 0.8103 0.8098 0.8092
804.000000 0.8086 0.8086 0.8085 0.8085 0.8085
809.000000 0.8085 0.8086 0.8086 0.8087 0.8088
814.000000 0.8089 0.8090 0.8091 0.8092 0.8094
819.000000 0.8095 0.8086 0.8099 0.8103 0.8107
824.000000 0.8110 0.8114 0.8118 0.8121 0.8125
829.000000 0.8128 0.8132 0.8135 0.8138 0.8141
834.000000 0.8143 0.8144 0.8144 0.8145 0.8144
839.000000 0.8143 0.8136 0.8130 0.8122 0.8117
844.000000 0.8108 0.8099 0.8089 0.8080 0.8071
849.000000 0.8065 0.8060 0.8054 0.8048 0.8048
854.000000 0.8048 0.8048 0.8048 0.8049 0.8049
859.000000 0.8051 0.8058 0.8067 0.8075 0.8084
864.000000 0.8094 0.8098 0.8100 0.8100 0.8100
869.000000 0.8099 0.8098 0.8096 0.8094 0.8092
874.000000 0.8089 0.8086 0.8083 0.8078 0.8075
879.000000 0.8072 0.8068 0.8061 0.8055 0.8048
884.000000 0.8042 0.8036 0.8030 0.8025 0.8018
889.000000 0.8008 0.7996 0.7984 0.7969 0.7956
894.000000 0.7942 0.7928 0.7911 0.7897 0.7882
899.000000 0.7868 0.7853 0.7835 0.7808 0.7783
904.000000 0.7741 0.7686 0.7630 0.7561 0.7492
909.000000 0.7358 0.7078 0.7032 0.6999 0.6961
914.000000 0.6768 0.6355 0.5984 0.5982 0.6448
919.000000 0.6899 0.7350 0.7595 0.7758 0.7811
924.000000 0.7850 0.7887 0.7914 0.7941 0.7961
929.000000 0.7976 0.7989 0.7992 0.7994 0.7996
934.000000 0.7998 0.7999 0.8000 0.8004 0.8007
939.000000 0.8001 0.8012 0.8015 0.8018 0.8021
944.000000 0.8022 0.8022 0.8022 0.8021 0.8021
949.000000 0.8015 0.8011 0.8006 0.8001 0.7996
954.000000 0.7991 0.7984 0.7975 0.7968 0.7961
959.000000 0.7954 0.7946 0.7938 0.7925 0.7910
964.000000 0.7895 0.7881 0.7867 0.7854 0.7840
969.000000 0.7831 0.7821 0.7812 0.7810 0.7807
974.000000 0.7805 0.7803 0.7800 0.7798 0.7794
979.000000 0.7790 0.7785 0.7780 0.7769 0.7753
984.000000 0.7715 0.7647 0.7614 0.7641 0.7691
989.000000 0.7724 0.7748 0.7757 0.7761 0.7760
994.000000 0.7757 0.7751 0.7748 0.7474 0.7432
999.000000 0.7506 0.7580 0.7654 0.7700 0.7707
1004.000000 0.7708 0.7710 0.7710 0.7703 0.7691
1009.000000 0.7680 0.7668 0.7650 0.7631 0.7612
1014.000000 0.7595 0.7576 0.7558 0.7539 0.7521
1019.000000 0.7501 0.7467 0.7430 0.7171 0.6922
1024.000000 0.6675 0.6521 0.6519 0.6596 0.6534
1029.000000 0.7175 0.7425 0.7457 0.7483 0.7505
1034.000000 0.7518 0.7528 0.7541 0.7548 0.7555
1039.000000 0.7561 0.7562 0.7565 0.7567 0.7568
1044.000000 0.7571 0.7572 0.7575 0.7575 0.7576
1049.000000 0.7578 0.7578 0.7578 0.7578 0.7578
1054.000000 0.7576 0.7575 0.7572 0.7562 0.7551
1059.000000 0.7540 0.7526 0.7501 0.7448 0.7380
1064.000000 0.7307 0.7222 0.7105 0.6775 0.6439
1069.000000 0.6102 0.5793 0.5785 0.6099 0.6503
1074.000000 0.6908 0.7255 0.7319 0.7362 0.7399
1079.000000 0.7421 0.7442 0.7456 0.7469 0.7480
1084.000000 0.7488 0.7495 0.7498 0.7501 0.7503
1089.000000 0.7504 0.7506 0.7507 0.7508 0.7508
1094.000000 0.7505 0.7501 0.7499 0.7496 0.7493
1099.000000 0.7489 0.7484 0.7478 0.7475 0.7472
1104.000000 0.7469 0.7469 0.7469 0.7472 0.7484
1109.000000 0.7495 0.7508 0.7522 0.7537 0.7550
1114.000000 0.7562 0.7569 0.7575 0.7578 0.7584
1119.000000 0.7586 0.7587 0.7588 0.7589 0.7589
1124.000000 0.7591 0.7594 0.7595 0.7596 0.7597
1129.000000 0.7597 0.7597 0.7596 0.7595 0.7595
1134.000000 0.7594 0.7592 0.7589 0.7587 0.7585
1139.000000 0.7582 0.7580 0.7578 0.7575 0.7572
1144.000000 0.7569 0.7567 0.7565 0.7561 0.7558
1149.000000 0.7555 0.7551 0.7547 0.7534 0.7504
1154.000000 0.7461 0.7354 0.7307 0.7310 0.7315
1159.000000 0.7335 0.7358 0.7388 0.7411 0.7436
1164.000000 0.7458 0.7475 0.7485 0.7491 0.7498
1169.000000 0.7500 0.7501 0.7503 0.7503 0.7499
1174.000000 0.7495 0.7491 0.7487 0.7480 0.7461
1179.000000 0.7443 0.7421 0.7426 0.7432 0.7453
1184.000000 0.7475 0.7507 0.7521 0.7532 0.7539
1189.000000 0.7545 0.7551 0.7557 0.7560 0.7561
1194.000000 0.7565 0.7565 0.7565 0.7565 0.7564
1199.000000 0.7558 0.7553 0.7546 0.7539 0.7532
1204.000000 0.7525 0.7517 0.7510 0.7501 0.7495
1209.000000 0.7487 0.7482 0.7476 0.7472 0.7468
1214.000000 0.7462 0.7460 0.7458 0.7457 0.7455
1219.000000 0.7454 0.7451 0.7451 0.7450 0.7448
1224.000000 0.7447 0.7446 0.7445 0.7444 0.7442
1229.000000 0.7441 0.7439 0.7436 0.7432 0.7428
1234.000000 0.7425 0.7422 0.7418 0.7415 0.7412
1239.000000 0.7408 0.7403 0.7398 0.7393 0.7389
1244.000000 0.7384 0.7378 0.7371 0.7361 0.7350
1249.000000 0.7339 0.7328 0.7314 0.7293 0.7272
1254.000000 0.7251 0.7231 0.7204 0.7171 0.7139
1259.000000 0.7106 0.7076 0.7051 0.7046 0.7046
1264.000000 0.7047 0.7051 0.7058 0.7064 0.7069
1269.000000 0.7075 0.7083 0.7083 0.7083 0.7083
1274.000000 0.7081 0.7076 0.7071 0.7062 0.7045
1279.000000 0.6931 0.6774 0.6649 0.6638 0.6707
1284.000000 0.6958 0.7084 0.7114 0.7124 0.7134
1289.000000 0.7138 0.7143 0.7151 0.7145 0.7143
1294.000000 0.7141 0.7137 0.7130 0.7124 0.7117
1299.000000 0.7110 0.7098 0.7086 0.7075 0.7061
1304.000000 0.7042 0.7022 0.6999 0.6968 0.6936
1309.000000 0.6900 0.6858 0.6808 0.6728 0.6732
1314.000000 0.6738 0.6721 0.6761 0.6791 0.6935
1319.000000 0.7018 0.7036 0.7040 0.7044 0.7046
1324.000000 0.7047 0.7049 0.7050 0.7051 0.7051
1329.000000 0.7053 0.7054 0.7055 0.7065 0.7099
1334.000000 0.7132 0.7165 0.7191 0.7212 0.7235
1339.000000 0.7248 0.7257 0.7265 0.7274 0.7281
1344.000000 0.7288 0.7295 0.7301 0.7308 0.7312
1349.000000 0.7315 0.7318 0.7322 0.7325 0.7328
1354.000000 0.7330 0.7331 0.7333 0.7335 0.7337
1359.000000 0.7339 0.7340 0.7342 0.7344 0.7346
1364.000000 0.7347 0.7347 0.7348 0.7349 0.7350
1369.000000 0.7350 0.7351 0.7351 0.7353 0.7353
1374.000000 0.7354 0.7354 0.7355 0.7355 0.7355
1379.000000 0.7355 0.7355 0.7355 0.7355 0.7355
1384.000000 0.7355 0.7355 0.7355 0.7356 0.7360
1389.000000 0.7364 0.7368 0.7371 0.7375 0.7385
1394.000000 0.7398 0.7410 0.7421 0.7432 0.7436
1399.000000 0.7441 0.7445 0.7450 0.7453 0.7455
1404.000000 0.7457 0.7458 0.7461 0.7462 0.7461
1409.000000 0.7461 0.7458 0.7457 0.7455 0.7453
1414.000000 0.7451 0.7449 0.7446 0.7444 0.7442
1419.000000 0.7440 0.7437 0.7435 0.7433 0.7431
1424.000000 0.7428 0.7418 0.7410 0.7401 0.7393
1429.000000 0.7385 0.7375 0.7353 0.7325 0.7298
1434.000000 0.7260 0.7212 0.7165 0.7094 0.7006
1439.000000 0.6926 0.6830 0.6048 0.4806 0.4810
1444.000000 0.4824 0.5719 0.6367 0.7014 0.7988
1449.000000 0.7958 0.7945 0.7932 0.7919 0.7905
1454.000000 0.7882 0.7858 0.7828 0.7804 0.7778
1459.000000 0.7753 0.7734 0.7717 0.7699 0.7682
1464.000000 0.7664 0.7647 0.7633 0.7618 0.7604
1469.000000 0.7590 0.7575 0.7561 0.7546 0.7530
1474.000000 0.7515 0.7499 0.7483 0.7467 0.7442
1479.000000 0.7417 0.7392 0.7367 0.7334 0.7298
1484.000000 0.7261 0.7225 0.7168 0.7103 0.7037
1489.000000 0.6591 0.6106 0.5621 0.5394 0.5396
1494.000000 0.5616 0.5422 0.6080 0.6310 0.6399
1499.000000 0.6372 0.6269 0.6165 0.6152 0.6694
1504.000000 0.7390 0.7699 0.7838 0.7961 0.8099
1509.000000 0.8137 0.8164 0.8181 0.8230 0.8192
1514.000000 0.8185 0.8175 0.8164 0.8155 0.8141
1519.000000 0.8126 0.8114 0.8099 0.8083 0.8065
1524.000000 0.8048 0.8028 0.8011 0.7992 0.7974
1529.000000 0.7953 0.7928 0.7906 0.7882 0.7858
1534.000000 0.7838 0.7818 0.7801 0.7783 0.7772
1539.000000 0.7768 0.7767 0.7767 0.7765 0.7765
1544.000000 0.7765 0.7765 0.7765 0.7767 0.7769
1549.000000 0.7772 0.7775 0.7778 0.7782 0.7782
1554.000000 0.7782 0.7781 0.7780 0.7780 0.7778
1559.000000 0.7778 0.7776 0.7771 0.7764 0.7757
1564.000000 0.7751 0.7743 0.7726 0.7710 0.7693
1569.000000 0.7675 0.7651 0.7628 0.7604 0.7568
1574.000000 0.7506 0.7535 0.7525 0.7540 0.7556
1579.000000 0.7569 0.7578 0.7588 0.7597 0.7605
1584.000000 0.7612 0.7615 0.7615 0.7615 0.7647
1589.000000 0.7611 0.7597 0.7584 0.7562 0.7535
1594.000000 0.7508 0.7443 0.7361 0.7231 0.7035
1599.000000 0.6838 0.6642 0.6499 0.6505 0.6975
1604.000000 0.7480 0.7586 0.7595 0.7614 0.7637
1609.000000 0.7660 0.7682 0.7704 0.7718 0.7732
1614.000000 0.7737 0.7741 0.7745 0.7746 0.7747
1619.000000 0.7748 0.7750 0.7753 0.7757 0.7760
1624.000000 0.7764 0.7767 0.7769 0.7772 0.7775
1629.000000 0.7778 0.7778 0.7780 0.7780 0.7780
1634.000000 0.7780 0.7775 0.7768 0.7761 0.7750
1639.000000 0.7739 0.7726 0.7717 0.7710 0.7703
1644.000000 0.7696 0.7689 0.7681 0.7672 0.7665
1649.000000 0.7657 0.7651 0.7645 0.7639 0.7633
1654.000000 0.7626 0.7621 0.7615 0.7611 0.7607
1659.000000 0.7604 0.7600 0.7597 0.7593 0.7590
1664.000000 0.7587 0.7585 0.7583 0.7581 0.7578
1669.000000 0.7576 0.7575 0.7574 0.7571 0.7571
1674.000000 0.7568 0.7567 0.7565 0.7564 0.7562
1679.000000 0.7561 0.7560 0.7558 0.7557 0.7556
1684.000000 0.7555 0.7554 0.7553 0.7551 0.7550
1689.000000 0.7549 0.7548 0.7547 0.7546 0.7545
1694.000000 0.7544 0.7543 0.7542 0.7542 0.7541
1699.000000 0.7540 0.7539 0.7538 0.7538 0.7538
1704.000000 0.7537 0.7537 0.7536 0.7536 0.7535
1709.000000 0.7534 0.7533 0.7532 0.7531 0.7530
1714.000000 0.7528 0.7526 0.7525 0.7524 0.7521
1719.000000 0.7518 0.7515 0.7511 0.7508 0.7504
1724.000000 0.7499 0.7494 0.7489 0.7484 0.7478
1729.000000 0.7471 0.7465 0.7458 0.7453 0.7446
1734.000000 0.7440 0.7434 0.7428 0.7421 0.7417
1739.000000 0.7411 0.7406 0.7401 0.7396 0.7390
1744.000000 0.7385 0.7380 0.7375 0.7368 0.7364
1749.000000 0.7358 0.7354 0.7349 0.7344 0.7338
1754.000000 0.7333 0.7328 0.7322 0.7317 0.7311
1759.000000 0.7306 0.7301 0.7295 0.7290 0.7286
1764.000000 0.7283 0.7283 0.7284 0.7287 0.7290
1769.000000 0.7293 0.7296 0.7299 0.7301 0.7305
1774.000000 0.7308 0.7311 0.7314 0.7315 0.7315
1779.000000 0.7317 0.7318 0.7318 0.7319 0.7318
1784.000000 0.7318 0.7318 0.7315 0.7315 0.7312
1789.000000 0.7311 0.7310 0.7308 0.7306 0.7303
1794.000000 0.7300 0.7298 0.7295 0.7289 0.7278
1799.000000 0.7268 0.7258 0.7248 0.7235 0.7221
1804.000000 0.7210 0.7203 0.7197 0.7191 0.7184
1809.000000 0.7178 0.7171 0.7168 0.7167 0.7165
1814.000000 0.7165 0.7164 0.7162 0.7161 0.7161
1819.000000 0.7160 0.7158 0.7157 0.7155 0.7153
1824.000000 0.7150 0.7148 0.7146 0.7144 0.7142
1829.000000 0.7126 0.7126 0.7126 0.7126 0.7126
1834.000000 0.7126 0.7126 0.7128 0.7128 0.7128
1839.000000 0.7128 0.7130 0.7130 0.7131 0.7131
1844.000000 0.7132 0.7133 0.7133 0.7134 0.7134
1849.000000 0.7135 0.7135 0.7135 0.7135 0.7134
1854.000000 0.7133 0.7133 0.7130 0.7126 0.7124
1859.000000 0.7121 0.7118 0.7115 0.7110 0.7104
1864.000000 0.7098 0.7091 0.7085 0.7078 0.7072
1869.000000 0.7067 0.7058 0.7050 0.7041 0.7031
1874.000000 0.7021 0.7012 0.7003 0.6989 0.6975
1879.000000 0.6961 0.6948 0.6935 0.6924 0.6912
1884.000000 0.6901 0.6891 0.6892 0.6898 0.6905
1889.000000 0.6911 0.6918 0.6924 0.6931 0.6938
1894.000000 0.6945 0.6948 0.6951 0.6953 0.6954
1899.000000 0.6955 0.6957 0.6958 0.6960 0.6961
1904.000000 0.6962 0.6965 0.6965 0.6968 0.6968
1909.000000 0.6968 0.6968 0.6968 0.6968 0.6968
1914.000000 0.6968 0.6968 0.6968 0.6968 0.6968
1919.000000 0.6968 0.6968 0.6968 0.6968 0.6968
1924.000000 0.6968 0.6968 0.6967 0.6967 0.6965
1929.000000 0.6965 0.6962 0.6958 0.6954 0.6949
1934.000000 0.6944 0.6940 0.6934 0.6924 0.6914
1939.000000 0.6904 0.6894 0.6885 0.6871 0.6858
1944.000000 0.6844 0.6830 0.6817 0.6803 0.6787
1949.000000 0.6768 0.6751 0.6733 0.6714 0.6704
1954.000000 0.6703 0.6717 0.6725 0.6745 0.6764
1959.000000 0.6783 0.6799 0.6815 0.6830 0.6840
1964.000000 0.6848 0.6855 0.6855 0.6854 0.6853
1969.000000 0.6851 0.6851 0.6851 0.6851 0.6851
1974.000000 0.6851 0.6851 0.6851 0.6851 0.6851
1979.000000 0.6853 0.6853 0.6853 0.6853 0.6853
1984.000000 0.6853 0.6853 0.6851 0.6851 0.6851
1989.000000 0.6851 0.6850 0.6850 0.6847 0.6844
1994.000000 0.6841 0.6838 0.6835 0.6832 0.6826
1999.000000 0.6822 0.6818 0.6811 0.6807 0.6804
2004.000000 0.6801 0.6798 0.6796 0.6793 0.6790
2009.000000 0.6787 0.6785 0.6782 0.6778 0.6775
2014.000000 0.6771 0.6768 0.6765 0.6761 0.6758
2019.000000 0.6755 0.6751 0.6749 0.6746 0.6742
2024.000000 0.6739 0.6736 0.6733 0.6730 0.6726
2029.000000 0.6722 0.6719 0.6717 0.6714 0.6711
2034.000000 0.6708 0.6705 0.6701 0.6698 0.6695
2039.000000 0.6692 0.6689 0.6686 0.6683 0.6680
2044.000000 0.6676 0.6674 0.6671 0.6667 0.6664
2049.000000 0.6661 0.6658 0.6655 0.6651 0.6649
2054.000000 0.6646 0.6643 0.6640 0.6637 0.6634
2059.000000 0.6631 0.6628 0.6624 0.6621 0.6618
2064.000000 0.6615 0.6611 0.6608 0.6606 0.6603
2069.000000 0.6600 0.6597 0.6594 0.6591 0.6588
2074.000000 0.6585 0.6581 0.6578 0.6575 0.6571
2079.000000 0.6568 0.6565 0.6561 0.6558 0.6555
2084.000000 0.6551 0.6548 0.6545 0.6541 0.6538
2089.000000 0.6534 0.6531 0.6526 0.6524 0.6519
2094.000000 0.6517 0.6512 0.6510 0.6506 0.6503
2099.000000 0.6499 0.6496 0.6492 0.6489 0.6485
2104.000000 0.6482 0.6478 0.6475 0.6471 0.6468
2109.000000 0.6464 0.6461 0.6457 0.6454 0.6451
2114.000000 0.6449 0.6446 0.6444 0.6441 0.6438
2119.000000 0.6435 0.6433 0.6430 0.6428 0.6425
2124.000000 0.6422 0.6419 0.6418 0.6415 0.6412
2129.000000 0.6410 0.6407 0.6404 0.6401 0.6399
2134.000000 0.6397 0.6394 0.6392 0.6389 0.6387
2139.000000 0.6384 0.6381 0.6378 0.6376 0.6373
2144.000000 0.6371 0.6368 0.6365 0.6362 0.6360
2149.000000 0.6357 0.6354 0.6351 0.6349 0.6346
2154.000000 0.6343 0.6340 0.6338 0.6335 0.6332
2159.000000 0.6329 0.6326 0.6323 0.6321 0.6318
2164.000000 0.6315 0.6312 0.6310 0.6307 0.6304
2169.000000 0.6301 0.6299 0.6296 0.6293 0.6290
2174.000000 0.6288 0.6285 0.6282 0.6279 0.6277
2179.000000 0.6274 0.6271 0.6267 0.6262 0.6259
2184.000000 0.6256 0.6252 0.6249 0.6245 0.6242
2189.000000 0.6238 0.6235 0.6231 0.6228 0.6224
2194.000000 0.6221 0.6217 0.6214 0.6210 0.6206
2199.000000 0.6201 0.6197 0.6193 0.6189 0.6184
2204.000000 0.6180 0.6175 0.6171 0.6166 0.6162
2209.000000 0.6158 0.6154 0.6149 0.6145 0.6140
2214.000000 0.6136 0.6132 0.6128 0.6123 0.6119
2219.000000 0.6112 0.6108 0.6102 0.6097 0.6091
2224.000000 0.6086 0.6080 0.6075 0.6069 0.6062
2229.000000 0.6057 0.6052 0.6046 0.6041 0.6035
2234.000000 0.6030 0.6024 0.6018 0.6014 0.6010
2239.000000 0.6006 0.6002 0.5998 0.5994 0.5990
2244.000000 0.5986 0.5982 0.5978 0.5974 0.5971
2249.000000 0.5967 0.5962 0.5959 0.5955 0.5951
2254.000000 0.5947 0.5943 0.5939 0.5935 0.5931
2259.000000 0.5927 0.5923 0.5919 0.5915 0.5910
2264.000000 0.5907 0.5904 0.5901 0.5898 0.5895
2269.000000 0.5892 0.5889 0.5886 0.5883 0.5880
2274.000000 0.5877 0.5873 0.5870 0.5867 0.5864
2279.000000 0.5860 0.5858 0.5855 0.5852 0.5849
2284.000000 0.5846 0.5843 0.5840 0.5836 0.5833
2289.000000 0.5830 0.5827 0.5825 0.5824 0.5822
2294.000000 0.5820 0.5818 0.5817 0.5815 0.5812
2299.000000 0.5810 0.5810 0.5808 0.5806 0.5804
2304.000000 0.5803 0.5801 0.5799 0.5797 0.5796
2309.000000 0.5794 0.5792 0.5790 0.5789 0.5787
2314.000000 0.5785 0.5783 0.5782 0.5780 0.5778
2319.000000 0.5776 0.5775 0.5773 0.5772 0.5770
2324.000000 0.5769 0.5767 0.5766 0.5764 0.5762
2329.000000 0.5760 0.5760 0.5758 0.5756 0.5754
2334.000000 0.5753 0.5751 0.5750 0.5748 0.5747
2339.000000 0.5746 0.5745 0.5744 0.5743 0.5742
2344.000000 0.5742 0.5741 0.5740 0.5739 0.5739
2349.000000 0.5738 0.5737 0.5736 0.5736 0.5735
2354.000000 0.5734 0.5733 0.5733 0.5732 0.5731
2359.000000 0.5730 0.5730 0.5729 0.5728 0.5728
2364.000000 0.5729 0.5730 0.5731 0.5731 0.5732
2369.000000 0.5732 0.5733 0.5734 0.5735 0.5735
2374.000000 0.5736 0.5737 0.5738 0.5738 0.5737
2379.000000 0.5737 0.5736 0.5734 0.5733 0.5731
2384.000000 0.5729 0.5727 0.5726 0.5719 0.5712
2389.000000 0.5704 0.5696 0.5689 0.5683 0.5677
2394.000000 0.5671 0.5667 0.5662 0.5660 0.5658
2399.000000 0.5655 0.5652 0.5651 0.5650 0.5648
2404.000000 0.5647 0.5646 0.5645 0.5643 0.5642
2409.000000 0.5640 0.5638 0.5636 0.5634 0.5632
2414.000000 0.5630 0.5628 0.5626 0.5625 0.5625
2419.000000 0.5624 0.5623 0.5622 0.5621 0.5620
2424.000000 0.5619 0.5618 0.5617 0.5616 0.5615
2429.000000 0.5612 0.5612 0.5610 0.5610 0.5608
2434.000000 0.5607 0.5606 0.5605 0.5603 0.5602
2439.000000 0.5601 0.5600 0.5598 0.5597 0.5596
2444.000000 0.5595 0.5593 0.5591 0.5588 0.5586
2449.000000 0.5584 0.5582 0.5580 0.5578 0.5576
2454.000000 0.5574 0.5571 0.5569 0.5567 0.5565
2459.000000 0.5562 0.5560 0.5558 0.5556 0.5554
2464.000000 0.5552 0.5550 0.5548 0.5545 0.5543
2469.000000 0.5541 0.5539 0.5537 0.5535 0.5532
2474.000000 0.5530 0.5528 0.5526 0.5524 0.5522
2479.000000 0.5519 0.5517 0.5515 0.5512 0.5510
2484.000000 0.5509 0.5507 0.5505 0.5502 0.5500
2489.000000 0.5498 0.5496 0.5494 0.5492 0.5489
2494.000000 0.5487 0.5485 0.5483 0.5481 0.5479
2499.000000 0.5476 0.5474 0.5472 0.5470 0.5468
2504.000000 0.5466 0.5462 0.5460 0.5459 0.5457
2509.000000 0.5455 0.5453 0.5450 0.5448 0.5446
2514.000000 0.5444 0.5442 0.5440 0.5438 0.5436
2519.000000 0.5433 0.5431 0.5429 0.5427 0.5425
2524.000000 0.5423 0.5420 0.5418 0.5416 0.5414
2529.000000 0.5412 0.5410 0.5407 0.5405 0.5403
2534.000000 0.5401 0.5399 0.5397 0.5394 0.5392
2539.000000 0.5390 0.5388 0.5386 0.5384 0.5381
2544.000000 0.5379 0.5377 0.5375 0.5373 0.5371
2549.000000 0.5369 0.5367 0.5364 0.5362 0.5360
2554.000000 0.5358 0.5356 0.5354 0.5351 0.5349
2559.000000 0.5347 0.5345 0.5343 0.5341 0.5339
2564.000000 0.5337 0.5335 0.5333 0.5331 0.5329
2569.000000 0.5327 0.5325 0.5322 0.5320 0.5318
2574.000000 0.5316 0.5314 0.5312 0.5310 0.5308
2579.000000 0.5305 0.5303 0.5301 0.5299 0.5296
2584.000000 0.5294 0.5291 0.5289 0.5287 0.5285
2589.000000 0.5282 0.5280 0.5278 0.5276 0.5273
2594.000000 0.5271 0.5269 0.5267 0.5264 0.5262
2599.000000 0.5260 0.5258 0.5256 0.5255 0.5253
2604.000000 0.5251 0.5249 0.5248 0.5246 0.5245
2609.000000 0.5243 0.5241 0.5239 0.5238 0.5236
2614.000000 0.5234 0.5232 0.5231 0.5229 0.5228
2619.000000 0.5226 0.5224 0.5222 0.5221 0.5219
2624.000000 0.5217 0.5215 0.5212 0.5210 0.5209
2629.000000 0.5206 0.5204 0.5202 0.5200 0.5198
2634.000000 0.5196 0.5193 0.5191 0.5189 0.5187
2639.000000 0.5184 0.5182 0.5180 0.5178 0.5175
2644.000000 0.5173 0.5171 0.5169 0.5166 0.5164
2649.000000 0.5162 0.5160 0.5157 0.5155 0.5153
2654.000000 0.5151 0.5149 0.5148 0.5146 0.5144
2659.000000 0.5142 0.5141 0.5139 0.5138 0.5136
2664.000000 0.5135 0.5133 0.5131 0.5129 0.5128
2669.000000 0.5126 0.5125 0.5123 0.5122 0.5120
2674.000000 0.5118 0.5116 0.5115 0.5112 0.5112
2679.000000 0.5110 0.5109 0.5107 0.5105 0.5103
2684.000000 0.5102 0.5100 0.5099 0.5097 0.5096
2689.000000 0.5094 0.5092 0.5090 0.5089 0.5087
2694.000000 0.5086 0.5084 0.5082 0.5080 0.5079
2699.000000 0.5077 0.5075 0.5073 0.5071 0.5069
2704.000000 0.5067 0.5065 0.5062 0.5060 0.5060
2709.000000 0.5058 0.5056 0.5054 0.5052 0.5050
2714.000000 0.5048 0.5046 0.5045 0.5043 0.5041
2719.000000 0.5039 0.5037 0.5035 0.5033 0.5031
2724.000000 0.5029 0.5027 0.5026 0.5024 0.5022
2729.000000 0.5020 0.5018 0.5016 0.5014 0.5012
2734.000000 0.5010 0.5009 0.5008 0.5006 0.5005
2739.000000 0.5003 0.5002 0.5000 0.4998 0.4996
2744.000000 0.4995 0.4993 0.4992 0.4990 0.4989
2749.000000 0.4987 0.4986 0.4984 0.4983 0.4981
2754.000000 0.4979 0.4977 0.4976 0.4974 0.4973
2759.000000 0.4971 0.4970 0.4968 0.4967 0.4965
2764.000000 0.4964 0.4962 0.4960 0.4958 0.4957
2769.000000 0.4955 0.4954 0.4952 0.4951 0.4949
2774.000000 0.4947 0.4945 0.4943 0.4941 0.4939
2779.000000 0.4936 0.4934 0.4932 0.4930 0.4928
2784.000000 0.4926 0.4924 0.4922 0.4919 0.4917
2789.000000 0.4915 0.4912 0.4910 0.4909 0.4907
2794.000000 0.4905 0.4902 0.4900 0.4897 0.4895
2799.000000 0.4892 0.4890 0.4887 0.4884 0.4881
2804.000000 0.4879 0.4876 0.4873 0.4870 0.4867
2809.000000 0.4864 0.4862 0.4859 0.4856 0.4853
2814.000000 0.4851 0.4848 0.4845 0.4842 0.4840
2819.000000 0.4837 0.4834 0.4831 0.4828 0.4824
2824.000000 0.4820 0.4816 0.4812 0.4808 0.4804
2829.000000 0.4800 0.4796 0.4792 0.4788 0.4784
2834.000000 0.4780 0.4775 0.4771 0.4767 0.4762
2839.000000 0.4759 0.4755 0.4751 0.4747 0.4743
2844.000000 0.4739 0.4735 0.4731 0.4727 0.4723
2849.000000 0.4718 0.4714 0.4710 0.4706 0.4701
2854.000000 0.4697 0.4692 0.4688 0.4684 0.4680
2859.000000 0.4675 0.4671 0.4667 0.4662 0.4658
2864.000000 0.4654 0.4649 0.4644 0.4639 0.4635
2869.000000 0.4630 0.4626 0.4621 0.4617 0.4612
2874.000000 0.4608 0.4603 0.4599 0.4595 0.4592
2879.000000 0.4588 0.4584 0.4580 0.4577 0.4575
2884.000000 0.4574 0.4573 0.4572 0.4571 0.4571
2889.000000 0.4570 0.4569 0.4568 0.4568 0.4567
2894.000000 0.4567 0.4567 0.4567 0.4566 0.4566
2899.000000 0.4566 0.4566 0.4565 0.4565 0.4562
2904.000000 0.4562 0.4560 0.4559 0.4557 0.4555
2909.000000 0.4553 0.4552 0.4550 0.4549 0.4547
2914.000000 0.4546 0.4543 0.4540 0.4534 0.4528
2919.000000 0.4522 0.4517 0.4510 0.4506 0.4500
2924.000000 0.4495 0.4489 0.4484 0.4477 0.4470
2929.000000 0.4462 0.4455 0.4447 0.4440 0.4432
2934.000000 0.4425 0.4418 0.4410 0.4403 0.4396
2939.000000 0.4388 0.4381 0.4375 0.4370 0.4364
2944.000000 0.4359 0.4354 0.4349 0.4344 0.4340
2949.000000 0.4337 0.4335 0.4332 0.4329 0.4326
2954.000000 0.4324 0.4321 0.4319 0.4317 0.4316
2959.000000 0.4315 0.4315 0.4314 0.4314 0.4312
2964.000000 0.4312 0.4312 0.4312 0.4310 0.4310
2969.000000 0.4310 0.4310 0.4309 0.4309 0.4308
2974.000000 0.4308 0.4307 0.4307 0.4307 0.4307
2979.000000 0.4308 0.4309 0.4309 0.4310 0.4310
2984.000000 0.4310 0.4312 0.4312 0.4312 0.4314
2989.000000 0.4314 0.4315 0.4316 0.4317 0.4317
2994.000000 0.4318 0.4318 0.4318 0.4318 0.4319
2999.000000 0.4319 0.4319 0.4319 0.4319 0.4319
3004.000000 0.4319 0.4319 0.4319 0.4319 0.4319
3009.000000 0.4319 0.4319 0.4319 0.4319 0.4316
3014.000000 0.4314 0.4310 0.4308 0.4304 0.4301
3019.000000 0.4297 0.4293 0.4287 0.4281 0.4275
3024.000000 0.4270 0.4264 0.4258 0.4256 0.4254
3029.000000 0.4252 0.4251 0.4249 0.4248 0.4246
3034.000000 0.4245 0.4243 0.4242 0.4241 0.4241
3039.000000 0.4241 0.4241 0.4240 0.4240 0.4239
3044.000000 0.4239 0.4238 0.4238 0.4237 0.4237
3049.000000 0.4234 0.4232 0.4226 0.4220 0.4212
3054.000000 0.4207 0.4194 0.4181 0.4157 0.4134
3059.000000 0.4116 0.4099 0.4075 0.4050 0.4048
3064.000000 0.4047 0.4048 0.4049 0.4050 0.4054
3069.000000 0.4057 0.4034 0.4080 0.4100 0.4210
3074.000000 0.4321 0.4341 0.4396 0.4369 0.4377
3079.000000 0.4376 0.4375 0.4372 0.4369 0.4364
3084.000000 0.4359 0.4352 0.4312 0.4336 0.4336
3089.000000 0.4336 0.4345 0.4360 0.4375 0.4386
3094.000000 0.4397 0.4399 0.4402 0.4403 0.4405
3099.000000 0.4406 0.4407 0.4407 0.4407 0.4406
3104.000000 0.4406 0.4405 0.4405 0.4405 0.4405
3109.000000 0.4405 0.4405 0.4405 0.4405 0.4405
3114.000000 0.4405 0.4405 0.4405 0.4405 0.4405
3119.000000 0.4404 0.4404 0.4404 0.4404 0.4403
3124.000000 0.4403 0.4403 0.4403 0.4402 0.4402
3129.000000 0.4402 0.4402 0.4400 0.4399 0.4397
3134.000000 0.4396 0.4394 0.4393 0.4392 0.4391
3139.000000 0.4389 0.4388 0.4386 0.4385 0.4384
3144.000000 0.4383 0.4381 0.4380 0.4378 0.4377
3149.000000 0.4376 0.4375 0.4374 0.4373 0.4371
3154.000000 0.4370 0.4369 0.4368 0.4366 0.4365
3159.000000 0.4364 0.4362 0.4362 0.4360 0.4359
3164.000000 0.4358 0.4357 0.4334 0.4354 0.4353
3169.000000 0.4352 0.4351 0.4350 0.4349 0.4347
3174.000000 0.4345 0.4342 0.4340 0.4338 0.4336
3179.000000 0.4334 0.4332 0.4330 0.4328 0.4326
3184.000000 0.4324 0.4322 0.4320 0.4317 0.4315
3189.000000 0.4312 0.4310 0.4309 0.4307 0.4305
3194.000000 0.4303 0.4301 0.4299 0.4296 0.4294
3199.000000 0.4292 0.4290 0.4288 0.4286 0.4284
3204.000000 0.4282 0.4280 0.4278 0.4276 0.4274
3209.000000 0.4272 0.4271 0.4269 0.4267 0.4265
3214.000000 0.4262 0.4260 0.4259 0.4257 0.4256
3219.000000 0.4254 0.4252 0.4250 0.4248 0.4246
3224.000000 0.4245 0.4243 0.4241 0.4239 0.4237
3229.000000 0.4235 0.4233 0.4231 0.4230 0.4228
3234.000000 0.4226 0.4224 0.4222 0.4220 0.4218
3239.000000 0.4216 0.4215 0.4212 0.4210 0.4209
3244.000000 0.4207 0.4205 0.4204 0.4202 0.4200
3249.000000 0.4198 0.4197 0.4195 0.4193 0.4191
3254.000000 0.4190 0.4188 0.4186 0.4184 0.4183
3259.000000 0.4181 0.4179 0.4177 0.4176 0.4174
3264.000000 0.4173 0.4171 0.4169 0.4167 0.4166
3269.000000 0.4164 0.4162 0.4160 0.4159 0.4157
3274.000000 0.4155 0.4153 0.4152 0.4150 0.4148
3279.000000 0.4146 0.4145 0.4143 0.4141 0.4139
3284.000000 0.4138 0.4136 0.4135 0.4133 0.4132
3289.000000 0.4130 0.4129 0.4127 0.4126 0.4124
3294.000000 0.4122 0.4120 0.4119 0.4117 0.4116
3299.000000 0.4114 0.4112 0.4110 0.4110 0.4108
3304.000000 0.4107 0.4105 0.4104 0.4102 0.4101
3309.000000 0.4099 0.4097 0.4095 0.4094 0.4092
3314.000000 0.4091 0.4089 0.4088 0.4086 0.4084
3319.000000 0.4082 0.4082 0.4080 0.4079 0.4077
3324.000000 0.4075 0.4073 0.4072 0.4070 0.4068
3329.000000 0.4066 0.4066 0.4064 0.4062 0.4060
3334.000000 0.4059 0.4058 0.4057 0.4055 0.4053
3339.000000 0.4050 0.4050 0.4048 0.4047 0.4045
3344.000000 0.4044 0.4042 0.4040 0.4038 0.4037
3349.000000 0.4034 0.4034 0.4032 0.4030 0.4028
3354.000000 0.4027 0.4025 0.4024 0.4022 0.4020
3359.000000 0.4018 0.4016 0.4014 0.4014 0.4012
3364.000000 0.4010 0.4009 0.4007 0.4005 0.4004
3369.000000 0.4002 0.4000 0.3999 0.3997 0.3995
3374.000000 0.3994 0.3992 0.3991 0.3989 0.3987
3379.000000 0.3984 0.3984 0.3982 0.3980 0.3979
3384.000000 0.3978 0.3976 0.3974 0.3971 0.3968
3389.000000 0.3966 0.3964 0.3962 0.3959 0.3957
3394.000000 0.3955 0.3952 0.3950 0.3947 0.3945
3399.000000 0.3942 0.3940 0.3938 0.3936 0.3932
3404.000000 0.3930 0.3928 0.3926 0.3924 0.3922
3409.000000 0.3920 0.3918 0.3916 0.3916 0.3914
3414.000000 0.3912 0.3909 0.3909 0.3907 0.3906
3419.000000 0.3904 0.3903 0.3900 0.3899 0.3897
3424.000000 0.3896 0.3894 0.3893 0.3891 0.3890
3429.000000 0.3888 0.3886 0.3884 0.3882 0.3880
3434.000000 0.3880 0.3878 0.3877 0.3877 0.3877
3439.000000 0.3876 0.3876 0.3876 0.3876 0.3875
3444.000000 0.3875 0.3874 0.3874 0.3874 0.3874
3449.000000 0.3873 0.3873 0.3873 0.3873 0.3872
3454.000000 0.3872 0.3871 0.3871 0.3871 0.3871
3459.000000 0.3870 0.3870 0.3870 0.3870 0.3868
3464.000000 0.3868 0.3868 0.3868 0.3868 0.3868
3469.000000 0.3866 0.3866 0.3866 0.3866 0.3866
3474.000000 0.3866 0.3864 0.3864 0.3864 0.3864
3479.000000 0.3864 0.3864 0.3864 0.3864 0.3862
3484.000000 0.3862 0.3862 0.3862 0.3862 0.3862
3489.000000 0.3860 0.3860 0.3860 0.3860 0.3859
3494.000000 0.3859 0.3859 0.3859 0.3859 0.3859
3499.000000 0.3858 0.3858 0.3857 0.3857 0.3856
3504.000000 0.3856 0.3855 0.3855 0.3854 0.3854
3509.000000 0.3853 0.3853 0.3852 0.3852 0.3850
3514.000000 0.3850 0.3850 0.3850 0.3849 0.3849
3519.000000 0.3848 0.3848 0.3848 0.3848 0.3847
3524.000000 0.3847 0.3846 0.3846 0.3845 0.3845
3529.000000 0.3844 0.3844 0.3843 0.3843 0.3842
3534.000000 0.3842 0.3841 0.3841 0.3840 0.3840
3539.000000 0.3839 0.3839 0.3838 0.3838 0.3837
3544.000000 0.3837 0.3836 0.3836 0.3834 0.3834
3549.000000 0.3834 0.3834 0.3834 0.3834 0.3834
3554.000000 0.3834 0.3832 0.3832 0.3832 0.3832
3559.000000 0.3832 0.3832 0.3832 0.3832 0.3830
3564.000000 0.3830 0.3830 0.3830 0.3830 0.3830
3569.000000 0.3830 0.3830 0.3830 0.3830 0.3829
3574.000000 0.3829 0.3829 0.3829 0.3828 0.3828
3579.000000 0.3828 0.3828 0.3828 0.3828 0.3827
3584.000000 0.3827 0.3827 0.3827 0.3826 0.3826
3589.000000 0.3826 0.3826 0.3825 0.3825 0.3825
3594.000000 0.3825 0.3824 0.3824 0.3823 0.3823
3599.000000 0.3822 0.3822 0.3822 0.3822 0.3821
3604.000000 0.3821 0.3820 0.3820 0.3818 0.3818
3609.000000 0.3818 0.3818 0.3818 0.3818 0.3816
3614.000000 0.3816 0.3816 0.3816 0.3816 0.3816
3619.000000 0.3814 0.3814 0.3814 0.3814 0.3814
3624.000000 0.3814 0.3812 0.3812 0.3812 0.3812
3629.000000 0.3810 0.3809 0.3809 0.3808 0.3807
3634.000000 0.3806 0.3805 0.3805 0.3804 0.3803
3639.000000 0.3802 0.3800 0.3800 0.3799 0.3798
3644.000000 0.3797 0.3796 0.3795 0.3794 0.3793
3649.000000 0.3792 0.3791 0.3790 0.3789 0.3788
3654.000000 0.3788 0.3787 0.3786 0.3784 0.3784
3659.000000 0.3782 0.3782 0.3780 0.3780 0.3779
3664.000000 0.3778 0.3777 0.3776 0.3775 0.3774
3669.000000 0.3773 0.3773 0.3772 0.3771 0.3770
3674.000000 0.3768 0.3768 0.3766 0.3766 0.3764
3679.000000 0.3764 0.3762 0.3762 0.3760 0.3759
3684.000000 0.3759 0.3756 0.3754 0.3750 0.3749
3689.000000 0.3747 0.3745 0.3742 0.3740 0.3737
3694.000000 0.3734 0.3732 0.3730 0.3728 0.3726
3699.000000 0.3723 0.3721 0.3718 0.3716 0.3712
3704.000000 0.3710 0.3709 0.3707 0.3704 0.3702
3709.000000 0.3700 0.3698 0.3697 0.3696 0.3695
3714.000000 0.3695 0.3694 0.3693 0.3692 0.3692
3719.000000 0.3691 0.3691 0.3690 0.3689 0.3688
3724.000000 0.3688 0.3687 0.3686 0.3684 0.3684
3729.000000 0.3684 0.3682 0.3682 0.3682 0.3680
3734.000000 0.3680 0.3679 0.3679 0.3678 0.3677
3739.000000 0.3676 0.3676 0.3675 0.3674 0.3673
3744.000000 0.3673 0.3672 0.3671 0.3670 0.3668
3749.000000 0.3668 0.3668 0.3666 0.3666 0.3664
3754.000000 0.3664 0.3664 0.3662 0.3662 0.3662
3759.000000 0.3660 0.3659 0.3659 0.3659 0.3658
3764.000000 0.3657 0.3656 0.3656 0.3655 0.3654
3769.000000 0.3653 0.3653 0.3652 0.3650 0.3650
3774.000000 0.3650 0.3649 0.3649 0.3648 0.3647
3779.000000 0.3646 0.3646 0.3645 0.3645 0.3645
3784.000000 0.3645 0.3644 0.3644 0.3644 0.3644
3789.000000 0.3643 0.3643 0.3642 0.3642 0.3642
3794.000000 0.3642 0.3641 0.3641 0.3641 0.3641
3799.000000 0.3640 0.3640 0.3640 0.3640
##END=
