##TITLE=2-AMINOPYRIDINE
$$ REILLY TAR AND CHEM. CO.
##JCAMP-DX=4.24
##DATA TYPE=INFRARED SPECTRUM
##CLASS=COBLENTZ
##ORIGIN=WYANDOTTE CHEMICALS CORP., WYANDOTTE, MICHIGAN, USA
##OWNER=COBLENTZ SOCIETY
Collection (C) 2018 copyright by the U.S. Secretary of Commerce
on behalf of the United States of America. All rights reserved.
##DATE=Not specified, most likely prior to 1970
##NAMES=2-pyridinylamine
2-pyridinamine
##CAS REGISTRY NO=504-29-0
##MOLFORM=C5 H6 N2
##SOURCE REFERENCE=COBLENTZ NO. 1385
##$NIST SOURCE=COBLENTZ
##$NIST IMAGE=cob1385
##SPECTROMETER/DATA SYSTEM=Not specified, most likely a prism, grating, or hybrid spectrometer.
##STATE=SOLID (MINERAL OIL MULL)
##SAMPLING PROCEDURE=TRANSMISSION
##RESOLUTION=4
##DATA PROCESSING=DIGITIZED BY NIST FROM HARD COPY
##XUNITS=MICROMETERS
##YUNITS=TRANSMITTANCE
##XFACTOR=1.000000
##YFACTOR=1
##DELTAX=000.006806
##FIRSTX=2.041
##LASTX=15.9863
##FIRSTY=0.164
##MAXX=15.9863
##MINX=2.041
##MAXY=0.981
##MINY=0.03
##NPOINTS=2050
##XYDATA=(X++(Y..Y))
2.041000 0.1640 0.1640 0.1640 0.1640 0.1640
2.075047 0.1640 0.1640 0.1640 0.1640 0.1640
2.109000 0.1640 0.1670 0.1670 0.1700 0.1720
2.143047 0.1740 0.1790 0.1770 0.1790 0.1790
2.177000 0.1810 0.1810 0.1810 0.1810 0.1820
2.211047 0.1840 0.1860 0.1890 0.1910 0.1930
2.245000 0.1930 0.1930 0.1930 0.1930 0.1930
2.279047 0.1930 0.1940 0.1960 0.2000 0.2010
2.313000 0.2050 0.2060 0.2060 0.2060 0.2060
2.347047 0.2060 0.2050 0.2050 0.2050 0.2030
2.381000 0.2030 0.2030 0.2030 0.2030 0.2050
2.415047 0.2080 0.2130 0.2180 0.2200 0.2200
2.449000 0.2200 0.2200 0.2200 0.2180 0.2180
2.483047 0.2180 0.2200 0.2200 0.2200 0.2220
2.517000 0.2230 0.2250 0.2270 0.2290 0.2300
2.551047 0.2300 0.2300 0.2320 0.2340 0.2350
2.585000 0.2370 0.2410 0.2440 0.2460 0.2470
2.619047 0.2490 0.2510 0.2510 0.2490 0.2520
2.653000 0.2560 0.2610 0.2630 0.2640 0.2660
2.687047 0.2700 0.2700 0.2700 0.2700 0.2700
2.721000 0.2700 0.2700 0.2700 0.2700 0.2700
2.755047 0.2710 0.2730 0.2760 0.2830 0.2900
2.789000 0.2940 0.2970 0.3000 0.3000 0.3020
2.823047 0.3020 0.3020 0.3040 0.3050 0.3050
2.858000 0.3040 0.2970 0.2820 0.2580 0.2320
2.892047 0.1910 0.1530 0.1140 0.0950 0.0820
2.926000 0.0780 0.0800 0.0820 0.0970 0.1160
2.960047 0.1380 0.1530 0.1720 0.1880 0.2030
2.994000 0.2130 0.2170 0.2170 0.2150 0.2060
3.028047 0.1860 0.1740 0.1620 0.1520 0.1470
3.062000 0.1470 0.1530 0.1770 0.1820 0.1880
3.096047 0.1910 0.1930 0.1930 0.1910 0.1840
3.130000 0.1770 0.1580 0.1410 0.1260 0.1170
3.164047 0.1110 0.1090 0.1110 0.1110 0.1140
3.198000 0.1210 0.1330 0.1410 0.1480 0.1480
3.232047 0.1520 0.1550 0.1550 0.1470 0.1450
3.266000 0.1410 0.1400 0.1360 0.1350 0.1350
3.300047 0.1330 0.1330 0.1310 0.1310 0.1240
3.334000 0.1120 0.0970 0.0820 0.0630 0.0490
3.368047 0.0420 0.0370 0.0320 0.0300 0.0300
3.402000 0.0300 0.0320 0.0340 0.0410 0.0410
3.436047 0.0440 0.0470 0.0560 0.0680 0.0800
3.470000 0.0820 0.0820 0.0820 0.0800 0.0760
3.504047 0.0760 0.0800 0.1050 0.1430 0.1880
3.538000 0.2420 0.2830 0.3160 0.3410 0.3580
3.572047 0.3700 0.3770 0.3810 0.3810 0.3840
3.606000 0.3880 0.3890 0.3890 0.3880 0.3860
3.640047 0.3820 0.3810 0.3790 0.3820 0.3860
3.674000 0.3910 0.3980 0.4010 0.4050 0.4060
3.708047 0.4060 0.4110 0.4110 0.4100 0.4100
3.742000 0.4030 0.4000 0.3960 0.3940 0.3940
3.776047 0.4000 0.4000 0.4000 0.4010 0.4060
3.810000 0.4130 0.4170 0.4180 0.4200 0.4220
3.844047 0.4230 0.4230 0.4230 0.4230 0.4220
3.878000 0.4220 0.4220 0.4220 0.4230 0.4270
3.912047 0.4340 0.4420 0.4490 0.4520 0.4540
3.947000 0.4540 0.4540 0.4540 0.4540 0.4540
3.981047 0.4580 0.4590 0.4640 0.4680 0.4730
4.015000 0.4760 0.4800 0.4820 0.4820 0.4830
4.049047 0.4820 0.4830 0.4830 0.4830 0.4830
4.083000 0.4830 0.4830 0.4850 0.4900 0.4920
4.117047 0.4940 0.4970 0.5020 0.5020 0.5020
4.151000 0.5020 0.5020 0.5020 0.5020 0.5020
4.185047 0.5020 0.5040 0.5050 0.5090 0.5110
4.219000 0.5110 0.5110 0.5110 0.5110 0.5070
4.253047 0.5040 0.4990 0.4940 0.4900 0.4880
4.287000 0.4900 0.4940 0.4970 0.5070 0.5110
4.321047 0.5110 0.5110 0.5120 0.5160 0.5230
4.355000 0.5260 0.5330 0.5380 0.5410 0.5450
4.389047 0.5500 0.5530 0.5530 0.5550 0.5570
4.423000 0.5570 0.5580 0.5580 0.5600 0.5600
4.457047 0.5620 0.5640 0.5670 0.5700 0.5700
4.491000 0.5720 0.5720 0.5760 0.5810 0.5820
4.525047 0.5820 0.5820 0.5820 0.5840 0.5880
4.559000 0.5910 0.5930 0.5980 0.6000 0.6010
4.593047 0.6010 0.6030 0.6060 0.6080 0.6110
4.627000 0.6110 0.6110 0.6110 0.6100 0.6080
4.661047 0.6080 0.6060 0.6060 0.6060 0.6060
4.695000 0.6100 0.6110 0.6130 0.6130 0.6170
4.729047 0.6220 0.6230 0.6270 0.6320 0.6350
4.763000 0.6390 0.6420 0.6440 0.6440 0.6470
4.797047 0.6490 0.6490 0.6490 0.6490 0.6520
4.831000 0.6540 0.6560 0.6580 0.6580 0.6610
4.865047 0.6610 0.6630 0.6640 0.6660 0.6680
4.899000 0.6680 0.6700 0.6680 0.6680 0.6680
4.933047 0.6680 0.6680 0.6700 0.6710 0.6730
4.967000 0.6760 0.6800 0.6850 0.6880 0.6940
5.001047 0.6990 0.7020 0.7040 0.7050 0.7070
5.035000 0.7070 0.7090 0.7120 0.7140 0.7140
5.069047 0.7140 0.7160 0.7170 0.7230 0.7260
5.104000 0.7280 0.7310 0.7350 0.7350 0.7350
5.138047 0.7360 0.7430 0.7430 0.7410 0.7360
5.172000 0.7290 0.7260 0.7240 0.7280 0.7290
5.206047 0.7350 0.7470 0.7470 0.7520 0.7520
5.240000 0.7530 0.7520 0.7410 0.7240 0.7230
5.274047 0.7240 0.7450 0.7550 0.7640 0.7690
5.308000 0.7720 0.7770 0.7820 0.7910 0.7980
5.342047 0.8010 0.8010 0.8010 0.8010 0.8050
5.376000 0.8080 0.8110 0.8180 0.8270 0.8300
5.410047 0.8320 0.8340 0.8320 0.8320 0.8320
5.444000 0.8320 0.8300 0.8290 0.8300 0.8300
5.478047 0.8270 0.8200 0.8080 0.8030 0.8030
5.512000 0.8080 0.8170 0.8290 0.8370 0.8420
5.546047 0.8460 0.8490 0.8520 0.8590 0.8680
5.580000 0.8750 0.8820 0.8900 0.8950 0.9020
5.614047 0.9070 0.9120 0.9140 0.9160 0.9160
5.648000 0.9170 0.9190 0.9210 0.9230 0.9260
5.682047 0.9310 0.9310 0.9310 0.9330 0.9330
5.716000 0.9350 0.9360 0.9410 0.9400 0.9410
5.750047 0.9430 0.9450 0.9500 0.9580 0.9720
5.784000 0.9810 0.9810 0.9690 0.9550 0.9520
5.818047 0.9500 0.9520 0.9470 0.9380 0.9280
5.852000 0.9230 0.9140 0.9110 0.9110 0.9140
5.886047 0.9230 0.9290 0.9330 0.9330 0.9350
5.920000 0.9350 0.9380 0.9480 0.9570 0.9600
5.954047 0.9620 0.9550 0.9530 0.9520 0.9480
5.988000 0.9430 0.9280 0.9020 0.8610 0.8250
6.022047 0.7860 0.7430 0.6760 0.6000 0.5170
6.056000 0.4680 0.4180 0.3620 0.2230 0.1570
6.090047 0.1090 0.0820 0.0520 0.0510 0.0520
6.124000 0.0520 0.0750 0.0920 0.1120 0.1380
6.158047 0.1740 0.2180 0.2760 0.2920 0.2940
6.193000 0.2730 0.2420 0.2150 0.1720 0.1700
6.227047 0.1740 0.1960 0.2290 0.2730 0.2990
6.261000 0.3690 0.4080 0.4490 0.4870 0.5230
6.295047 0.5530 0.5600 0.5600 0.5530 0.5120
6.329000 0.4700 0.3930 0.3230 0.2230 0.1410
6.363047 0.1170 0.1170 0.1230 0.1530 0.2050
6.397000 0.2470 0.2700 0.2870 0.3530 0.3740
6.431047 0.3930 0.4100 0.4340 0.4610 0.4950
6.465000 0.5640 0.5940 0.6220 0.6420 0.6590
6.499047 0.6820 0.7000 0.7170 0.7280 0.7380
6.533000 0.7450 0.7520 0.7550 0.7550 0.7520
6.567047 0.7140 0.6800 0.6420 0.5930 0.5350
6.601000 0.5040 0.4730 0.4100 0.3480 0.2870
6.635047 0.2320 0.1840 0.1450 0.0940 0.0440
6.669000 0.0370 0.0370 0.0410 0.0420 0.0540
6.703047 0.0630 0.0760 0.0940 0.1160 0.1400
6.737000 0.1640 0.1880 0.2080 0.2230 0.2470
6.771047 0.2590 0.2680 0.2750 0.2820 0.2900
6.805000 0.2950 0.3020 0.3070 0.3070 0.3040
6.839047 0.2990 0.2870 0.2680 0.2370 0.2000
6.873000 0.1620 0.1140 0.0830 0.0420 0.0370
6.907047 0.0370 0.0410 0.0510 0.0610 0.0750
6.941000 0.0880 0.1050 0.1240 0.1430 0.1650
6.975047 0.1890 0.1940 0.2180 0.2420 0.2680
7.009000 0.2900 0.3120 0.3310 0.3480 0.3580
7.043047 0.3690 0.3790 0.3840 0.3930 0.4000
7.077000 0.4080 0.4150 0.4220 0.4290 0.4350
7.111047 0.4470 0.4560 0.4640 0.4730 0.4800
7.145000 0.4920 0.4990 0.5110 0.5110 0.5110
7.179047 0.5070 0.5040 0.5020 0.4990 0.4880
7.213000 0.4750 0.4680 0.4560 0.4460 0.4270
7.247047 0.4200 0.4200 0.4230 0.4440 0.4680
7.281000 0.5280 0.5450 0.5530 0.5620 0.5700
7.315047 0.5810 0.6000 0.6270 0.6510 0.6710
7.350000 0.6850 0.6940 0.7040 0.7140 0.7260
7.384047 0.7380 0.7430 0.7430 0.7360 0.6700
7.418000 0.6180 0.5290 0.4920 0.4520 0.3940
7.452047 0.3500 0.3450 0.3480 0.3790 0.4130
7.486000 0.4510 0.4900 0.4920 0.4900 0.4390
7.520047 0.3980 0.3530 0.3450 0.3450 0.3640
7.554000 0.4080 0.4390 0.4640 0.4850 0.5210
7.588047 0.5350 0.5470 0.5570 0.5650 0.5760
7.622000 0.5840 0.5930 0.6030 0.6060 0.6110
7.656047 0.6150 0.6170 0.6220 0.6270 0.6290
7.690000 0.6300 0.6320 0.6340 0.6370 0.6410
7.724047 0.6420 0.6410 0.6390 0.6350 0.6290
7.758000 0.6170 0.6010 0.5740 0.5530 0.5140
7.792047 0.4940 0.4730 0.4270 0.3930 0.3930
7.826000 0.3930 0.4000 0.4340 0.4610 0.4880
7.860047 0.5400 0.5620 0.5790 0.5940 0.6030
7.894000 0.6050 0.6080 0.6110 0.6150 0.6220
7.928047 0.6270 0.6340 0.6410 0.6470 0.6560
7.962000 0.6630 0.6700 0.6820 0.6900 0.7000
7.996047 0.7090 0.7190 0.7290 0.7380 0.7430
8.030000 0.7450 0.7500 0.7550 0.7620 0.7650
8.064047 0.7700 0.7720 0.7740 0.7760 0.7810
8.098000 0.7810 0.7840 0.7840 0.7860 0.7880
8.132047 0.7890 0.7910 0.7980 0.8010 0.8030
8.166000 0.8050 0.8060 0.8100 0.8130 0.8180
8.200047 0.8230 0.8220 0.8230 0.8230 0.8250
8.234000 0.8300 0.8320 0.8300 0.8320 0.8320
8.268047 0.8320 0.8340 0.8370 0.8410 0.8420
8.302000 0.8440 0.8460 0.8490 0.8510 0.8520
8.336047 0.8540 0.8560 0.8580 0.8580 0.8580
8.370000 0.8580 0.8580 0.8580 0.8580 0.8580
8.404047 0.8580 0.8590 0.8590 0.8590 0.8610
8.439000 0.8610 0.8630 0.8660 0.8710 0.8710
8.473047 0.8710 0.8730 0.8730 0.8750 0.8750
8.507000 0.8750 0.8750 0.8760 0.8780 0.8880
8.541047 0.8950 0.9020 0.9020 0.9040 0.9040
8.575000 0.9020 0.8830 0.8640 0.8100 0.7380
8.609047 0.6630 0.5430 0.5400 0.5430 0.6080
8.643000 0.6750 0.7380 0.8060 0.8390 0.8660
8.677047 0.8710 0.8730 0.8710 0.8460 0.8010
8.711000 0.7380 0.6390 0.5360 0.4920 0.4460
8.745047 0.2970 0.2940 0.2950 0.3480 0.4130
8.779000 0.4750 0.5960 0.6370 0.6540 0.6660
8.813047 0.6940 0.7190 0.7380 0.7480 0.7580
8.847000 0.7640 0.7650 0.7650 0.7650 0.7650
8.881047 0.7650 0.7650 0.7650 0.7650 0.7670
8.915000 0.7760 0.7890 0.7980 0.8010 0.8030
8.949047 0.8050 0.8100 0.8200 0.8270 0.8270
8.983000 0.8290 0.8320 0.8340 0.8340 0.8350
9.017047 0.8340 0.8370 0.8420 0.8420 0.8440
9.051000 0.8440 0.8460 0.8460 0.8470 0.8490
9.085047 0.8510 0.8510 0.8520 0.8520 0.8520
9.119000 0.8520 0.8520 0.8540 0.8540 0.8540
9.153047 0.8540 0.8560 0.8560 0.8560 0.8540
9.187000 0.8540 0.8540 0.8540 0.8540 0.8540
9.221047 0.8540 0.8520 0.8520 0.8510 0.8510
9.255000 0.8490 0.8440 0.8440 0.8420 0.8440
9.289047 0.8440 0.8420 0.8420 0.8410 0.8370
9.323000 0.8350 0.8320 0.8290 0.8230 0.8230
9.357047 0.8250 0.8250 0.8250 0.8250 0.8250
9.391000 0.8250 0.8250 0.8270 0.8270 0.8300
9.425047 0.8340 0.8370 0.8410 0.8420 0.8420
9.459000 0.8420 0.8440 0.8440 0.8460 0.8490
9.493047 0.8520 0.8520 0.8540 0.8560 0.8560
9.527000 0.8560 0.8560 0.8560 0.8560 0.8560
9.561047 0.8540 0.8490 0.8340 0.8200 0.8130
9.596000 0.8030 0.7910 0.7820 0.7760 0.7760
9.630047 0.7820 0.7980 0.8100 0.8320 0.8470
9.664000 0.8580 0.8660 0.8730 0.8760 0.8830
9.698047 0.8900 0.8990 0.9040 0.9070 0.9140
9.732000 0.9170 0.9190 0.9210 0.9210 0.9210
9.766047 0.9230 0.9240 0.9290 0.9350 0.9360
9.800000 0.9400 0.9410 0.9410 0.9410 0.9410
9.834047 0.9430 0.9430 0.9450 0.9470 0.9470
9.868000 0.9480 0.9520 0.9520 0.9520 0.9520
9.902047 0.9520 0.9520 0.9520 0.9450 0.9360
9.936000 0.9330 0.9240 0.9160 0.9020 0.8940
9.970047 0.8780 0.8590 0.8490 0.8340 0.7760
10.004000 0.7470 0.7160 0.6870 0.6560 0.6270
10.038047 0.5960 0.5690 0.5410 0.5140 0.5050
10.072000 0.4970 0.4780 0.4610 0.4510 0.4370
10.106047 0.4290 0.4180 0.4030 0.4010 0.4030
10.140000 0.4130 0.4220 0.4290 0.4410 0.4540
10.174047 0.4750 0.5280 0.5430 0.5720 0.6000
10.208000 0.6230 0.6460 0.6680 0.6880 0.7070
10.242047 0.7230 0.7380 0.7500 0.7580 0.7670
10.276000 0.7770 0.7860 0.7980 0.8010 0.8080
10.310047 0.8180 0.8230 0.8270 0.8300 0.8340
10.344000 0.8350 0.8350 0.8370 0.8370 0.8390
10.378047 0.8370 0.8350 0.8270 0.8170 0.8030
10.412000 0.7910 0.7670 0.7400 0.6940 0.6870
10.446047 0.6870 0.6940 0.7170 0.7580 0.7960
10.480000 0.8300 0.8540 0.8660 0.8730 0.8800
10.514047 0.8830 0.8880 0.8920 0.8940 0.8990
10.548000 0.9020 0.9040 0.9070 0.9110 0.9140
10.582047 0.9160 0.9160 0.9170 0.9210 0.9230
10.616000 0.9210 0.9230 0.9230 0.9230 0.9230
10.650047 0.9230 0.9230 0.9230 0.9240 0.9260
10.684000 0.9260 0.9280 0.9290 0.9290 0.9290
10.718047 0.9290 0.9310 0.9290 0.9310 0.9330
10.753000 0.9330 0.9310 0.9330 0.9330 0.9330
10.787047 0.9350 0.9350 0.9360 0.9360 0.9350
10.821000 0.9350 0.9350 0.9350 0.9360 0.9360
10.855047 0.9380 0.9380 0.9380 0.9380 0.9400
10.889000 0.9410 0.9410 0.9410 0.9410 0.9410
10.923047 0.9410 0.9410 0.9400 0.9400 0.9380
10.957000 0.9380 0.9380 0.9380 0.9380 0.9380
10.991047 0.9380 0.9380 0.9380 0.9400 0.9380
11.025000 0.9380 0.9380 0.9380 0.9380 0.9380
11.059047 0.9380 0.9400 0.9400 0.9410 0.9410
11.093000 0.9410 0.9410 0.9410 0.9410 0.9410
11.127047 0.9380 0.9360 0.9350 0.9350 0.9330
11.161000 0.9310 0.9290 0.9290 0.9290 0.9290
11.195047 0.9350 0.9330 0.9330 0.9310 0.9290
11.229000 0.9280 0.9260 0.9260 0.9260 0.9260
11.263047 0.9260 0.9260 0.9280 0.9290 0.9290
11.297000 0.9290 0.9290 0.9290 0.9280 0.9280
11.331047 0.9280 0.9260 0.9240 0.9240 0.9240
11.365000 0.9240 0.9240 0.9260 0.9240 0.9240
11.399047 0.9240 0.9240 0.9240 0.9240 0.9230
11.433000 0.9230 0.9230 0.9230 0.9210 0.9210
11.467047 0.9210 0.9210 0.9210 0.9210 0.9190
11.501000 0.9170 0.9160 0.9120 0.9110 0.9070
11.535047 0.9050 0.9020 0.8990 0.8950 0.8940
11.569000 0.8870 0.8830 0.8750 0.8630 0.8510
11.603047 0.8440 0.8300 0.8250 0.8150 0.8060
11.637000 0.8030 0.8000 0.7860 0.7720 0.7550
11.671047 0.7350 0.7120 0.7000 0.6750 0.6730
11.705000 0.6730 0.6750 0.7070 0.7400 0.7840
11.739047 0.8110 0.8420 0.8590 0.8880 0.8990
11.773000 0.9040 0.9050 0.9050 0.9040 0.8780
11.807047 0.8680 0.8520 0.8350 0.8180 0.8060
11.842000 0.7980 0.7860 0.7790 0.7740 0.7720
11.876047 0.7740 0.7740 0.7790 0.7820 0.7860
11.910000 0.7890 0.7910 0.7930 0.7930 0.7940
11.944047 0.8000 0.8010 0.8050 0.8050 0.8060
11.978000 0.8080 0.8100 0.8110 0.8150 0.8170
12.012047 0.8150 0.8150 0.8150 0.8130 0.8110
12.046000 0.8100 0.8100 0.8100 0.8110 0.8110
12.080047 0.8130 0.8130 0.8130 0.8130 0.8130
12.114000 0.8110 0.8060 0.8050 0.8030 0.8050
12.148047 0.8050 0.8030 0.8030 0.8000 0.8000
12.182000 0.7980 0.7960 0.7960 0.7960 0.7960
12.216047 0.7960 0.7960 0.7960 0.7940 0.7930
12.250000 0.7910 0.7880 0.7860 0.7860 0.7840
12.284047 0.7840 0.7820 0.7810 0.7810 0.7810
12.318000 0.7790 0.7790 0.7770 0.7760 0.7740
12.352047 0.7740 0.7720 0.7720 0.7700 0.7720
12.386000 0.7720 0.7720 0.7720 0.7720 0.7720
12.420047 0.7720 0.7700 0.7690 0.7670 0.7650
12.454000 0.7620 0.7570 0.7570 0.7550 0.7530
12.488047 0.7520 0.7530 0.7530 0.7520 0.7500
12.522000 0.7470 0.7450 0.7450 0.7430 0.7430
12.556047 0.7410 0.7360 0.7330 0.7290 0.7280
12.590000 0.7260 0.7230 0.7230 0.7210 0.7160
12.624047 0.7140 0.7120 0.7090 0.7050 0.7020
12.658000 0.6990 0.6940 0.6880 0.6830 0.6760
12.692047 0.6700 0.6610 0.6580 0.6490 0.6410
12.726000 0.6340 0.6270 0.6220 0.6130 0.6030
12.760047 0.5890 0.5770 0.5640 0.5470 0.5380
12.794000 0.5110 0.5020 0.4940 0.4730 0.4510
12.828047 0.4290 0.4060 0.3820 0.3580 0.3330
12.862000 0.3090 0.2850 0.2630 0.2410 0.2180
12.896047 0.2000 0.1810 0.1640 0.1480 0.1360
12.930000 0.1260 0.1190 0.1140 0.1070 0.1020
12.964047 0.1000 0.1000 0.1000 0.1000 0.1020
12.999000 0.1020 0.1040 0.1040 0.1070 0.1070
13.033047 0.1110 0.1140 0.1170 0.1210 0.1240
13.067000 0.1280 0.1350 0.1430 0.1530 0.1650
13.101047 0.1810 0.1980 0.2110 0.2340 0.2580
13.135000 0.2820 0.3050 0.3310 0.3570 0.3840
13.169047 0.4100 0.4370 0.4630 0.4880 0.5400
13.203000 0.5640 0.5880 0.6080 0.6250 0.6410
13.237047 0.6580 0.6710 0.6870 0.6940 0.6990
13.271000 0.7020 0.7070 0.7110 0.7160 0.7190
13.305047 0.7240 0.7260 0.7260 0.7260 0.7210
13.339000 0.7140 0.7070 0.7000 0.6920 0.6830
13.373047 0.6750 0.6630 0.6510 0.6350 0.6220
13.407000 0.6080 0.5930 0.5810 0.5690 0.5500
13.441047 0.5330 0.5170 0.5020 0.4950 0.4880
13.475000 0.4760 0.4580 0.4470 0.4370 0.4220
13.509047 0.4080 0.3980 0.3910 0.3860 0.3840
13.543000 0.3810 0.3790 0.3770 0.3790 0.3820
13.577047 0.3860 0.3930 0.4000 0.4060 0.4170
13.611000 0.4270 0.4370 0.4470 0.4590 0.4700
13.645047 0.4820 0.4940 0.5190 0.5310 0.5430
13.679000 0.5550 0.5670 0.5790 0.5890 0.5980
13.713047 0.6060 0.6150 0.6220 0.6300 0.6350
13.747000 0.6410 0.6490 0.6540 0.6610 0.6640
13.781047 0.6710 0.6750 0.6830 0.6900 0.6970
13.815000 0.7000 0.7040 0.7050 0.7050 0.7110
13.849047 0.7120 0.7160 0.7190 0.7230 0.7240
13.883000 0.7260 0.7280 0.7290 0.7290 0.7310
13.917047 0.7330 0.7360 0.7430 0.7520 0.7570
13.951000 0.7640 0.7650 0.7690 0.7720 0.7740
13.985047 0.7760 0.7770 0.7790 0.7790 0.7810
14.019000 0.7810 0.7820 0.7820 0.7840 0.7860
14.053047 0.7890 0.7930 0.7940 0.7960 0.8000
14.088000 0.8000 0.8000 0.8000 0.8010 0.8010
14.122047 0.8010 0.8010 0.8010 0.8010 0.8010
14.156000 0.8010 0.8010 0.8010 0.8010 0.8010
14.190047 0.8010 0.8010 0.8010 0.8000 0.8000
14.224000 0.8000 0.7980 0.7980 0.7980 0.7960
14.258047 0.7960 0.7940 0.7930 0.7930 0.7890
14.292000 0.7890 0.7880 0.7880 0.7860 0.7840
14.326047 0.7820 0.7810 0.7790 0.7770 0.7740
14.360000 0.7700 0.7690 0.7670 0.7650 0.7640
14.394047 0.7640 0.7620 0.7620 0.7580 0.7550
14.428000 0.7520 0.7500 0.7470 0.7430 0.7410
14.462047 0.7400 0.7380 0.7350 0.7330 0.7310
14.496000 0.7280 0.7230 0.7190 0.7140 0.7110
14.530047 0.7050 0.7040 0.7020 0.6990 0.6940
14.564000 0.6880 0.6830 0.6820 0.6800 0.6750
14.598047 0.6710 0.6680 0.6660 0.6630 0.6610
14.632000 0.6560 0.6520 0.6510 0.6460 0.6410
14.666047 0.6350 0.6300 0.6250 0.6230 0.6200
14.700000 0.6150 0.6060 0.6050 0.6030 0.6010
14.734047 0.6000 0.5980 0.5940 0.5910 0.5860
14.768000 0.5820 0.5790 0.5760 0.5740 0.5670
14.802047 0.5650 0.5640 0.5600 0.5550 0.5550
14.836000 0.5530 0.5520 0.5500 0.5470 0.5430
14.870047 0.5380 0.5310 0.5290 0.5280 0.5260
14.904000 0.5260 0.5260 0.5240 0.5240 0.5230
14.938047 0.5210 0.5190 0.5170 0.5160 0.5140
14.972000 0.5070 0.5020 0.4990 0.4950 0.4900
15.006047 0.4820 0.4780 0.4730 0.4730 0.4700
15.040000 0.4660 0.4630 0.4590 0.4580 0.4540
15.074047 0.4540 0.4590 0.4640 0.4680 0.4750
15.108000 0.4820 0.4880 0.4940 0.5020 0.5040
15.142047 0.5070 0.5070 0.5090 0.5110 0.5110
15.176000 0.5110 0.5120 0.5120 0.5140 0.5140
15.210047 0.5120 0.5120 0.5120 0.5110 0.5090
15.245000 0.5090 0.5070 0.5070 0.5070 0.5070
15.279047 0.5090 0.5090 0.5110 0.5110 0.5110
15.313000 0.5110 0.5110 0.5120 0.5120 0.5120
15.347047 0.5110 0.5110 0.5110 0.5110 0.5110
15.381000 0.5110 0.5090 0.5110 0.5110 0.5120
15.415047 0.5120 0.5120 0.5110 0.5110 0.5110
15.449000 0.5110 0.5120 0.5120 0.5120 0.5120
15.483047 0.5120 0.5120 0.5120 0.5120 0.5110
15.517000 0.5110 0.5110 0.5110 0.5110 0.5110
15.551047 0.5110 0.5090 0.5090 0.5090 0.5090
15.585000 0.5090 0.5090 0.5090 0.5070 0.5050
15.619047 0.5050 0.5020 0.5020 0.5020 0.5020
15.653000 0.5050 0.5050 0.5050 0.5020 0.5000
15.687047 0.5000 0.4990 0.4990 0.5000 0.5000
15.721000 0.5000 0.4990 0.4970 0.4970 0.4950
15.755047 0.4950 0.4940 0.4920 0.4900 0.4880
15.789000 0.4870 0.4850 0.4820 0.4760 0.4750
15.823047 0.4750 0.4710 0.4680 0.4660 0.4640
15.857000 0.4640 0.4630 0.4580 0.4520 0.4490
15.891047 0.4460 0.4420 0.4410 0.4390 0.4350
15.925000 0.4320 0.4250 0.4200 0.4180 0.4150
15.959047 0.4130 0.4100 0.4060 0.4050 0.4000
##END=
