##TITLE=2,8-DECADIENE-4,6-DIYNOIC ACID, METHYL ESTER
##JCAMP-DX=4.24
##DATA TYPE=INFRARED SPECTRUM
##CLASS=COBLENTZ
##ORIGIN=HORMEL INSTITUTE
##OWNER=COBLENTZ SOCIETY
Collection (C) 2018 copyright by the U.S. Secretary of Commerce
on behalf of the United States of America. All rights reserved.
##DATE=Not specified, most likely prior to 1970
##NAMES=methyl (2E,8E)-2,8-decadiene-4,6-diynoate
##CAS REGISTRY NO=505-02-2
##MOLFORM=C11 H10 O2
##SOURCE REFERENCE=COBLENTZ NO. 2020
##$NIST SOURCE=COBLENTZ
##$NIST IMAGE=cob2020
##SPECTROMETER/DATA SYSTEM=PERKIN-ELMER
##STATE=SOLUTION (10% CS2 FOR 5000-2380 AND 1390-625, 10% C2Cl4 FOR 2380-1390 CM^-^1)
##PATH LENGTH=0.01 CM, 0.01 CM
##SAMPLING PROCEDURE=TRANSMISSION
##RESOLUTION=4
##DATA PROCESSING=DIGITIZED BY NIST FROM HARD COPY
##XUNITS=MICROMETERS
##YUNITS=TRANSMITTANCE
##XFACTOR=1.000000
##YFACTOR=1
##DELTAX=000.006768
##FIRSTX=2.047
##LASTX=15.042
##FIRSTY=0.913
##MAXX=15.042
##MINX=2.047
##MAXY=0.918
##MINY=0.005
##NPOINTS=1921
##XYDATA=(X++(Y..Y))
2.047000 0.9130 0.9110 0.9110 0.9130 0.9130
2.080859 0.9130 0.9110 0.9110 0.9110 0.9110
2.115000 0.9110 0.9130 0.9130 0.9110 0.9110
2.148859 0.9110 0.9110 0.9110 0.9110 0.9110
2.183000 0.9110 0.9110 0.9130 0.9130 0.9110
2.216859 0.9110 0.9110 0.9110 0.9100 0.9080
2.250000 0.9060 0.8980 0.8910 0.8910 0.8910
2.283859 0.8910 0.8910 0.8940 0.8960 0.8960
2.318000 0.8960 0.8980 0.8980 0.8980 0.9000
2.351859 0.9000 0.9000 0.9000 0.9000 0.9000
2.386000 0.9000 0.9000 0.9000 0.9000 0.9000
2.419859 0.9000 0.9000 0.9000 0.9010 0.9010
2.453000 0.9010 0.9030 0.9030 0.9030 0.9030
2.486859 0.9050 0.9050 0.9060 0.9060 0.9060
2.521000 0.9060 0.9060 0.9050 0.9050 0.9030
2.554859 0.9030 0.9030 0.9030 0.9050 0.9060
2.589000 0.9060 0.9080 0.9080 0.9060 0.9060
2.622859 0.9060 0.9030 0.9030 0.9030 0.9030
2.657000 0.9030 0.9030 0.9030 0.9010 0.9010
2.690859 0.9030 0.9050 0.9050 0.9050 0.9060
2.724000 0.9080 0.9100 0.9100 0.9100 0.9110
2.757859 0.9110 0.9110 0.9110 0.9100 0.9100
2.792000 0.9100 0.9100 0.9100 0.9100 0.9100
2.825859 0.9080 0.9060 0.9060 0.9060 0.9030
2.860000 0.9030 0.9010 0.8980 0.8960 0.8940
2.893859 0.8930 0.8910 0.8880 0.8760 0.8720
2.927000 0.8710 0.8710 0.8710 0.8710 0.8720
2.960859 0.8760 0.8770 0.8790 0.8810 0.8810
2.995000 0.8810 0.8830 0.8830 0.8830 0.8830
3.028859 0.8860 0.8880 0.8880 0.8890 0.8910
3.063000 0.8930 0.8930 0.8930 0.8930 0.8930
3.096859 0.8930 0.8930 0.8930 0.8930 0.8930
3.130000 0.8930 0.8930 0.8930 0.8930 0.8910
3.163859 0.8910 0.8910 0.8890 0.8890 0.8880
3.198000 0.8860 0.8840 0.8810 0.8790 0.8770
3.231859 0.8740 0.8710 0.8660 0.8590 0.8540
3.266000 0.8490 0.8380 0.8320 0.8030 0.7320
3.299859 0.6940 0.6570 0.6420 0.6400 0.6440
3.333000 0.6640 0.6890 0.6890 0.6810 0.6790
3.366859 0.6770 0.6810 0.6840 0.6790 0.6330
3.401000 0.5570 0.5450 0.5570 0.5890 0.6160
3.434859 0.6710 0.6790 0.6830 0.6940 0.7470
3.469000 0.7660 0.7840 0.7940 0.7960 0.7960
3.502859 0.7960 0.7940 0.7940 0.7940 0.8010
3.536000 0.8100 0.8270 0.8400 0.8540 0.8590
3.569859 0.8660 0.8710 0.8720 0.8740 0.8760
3.604000 0.8810 0.8840 0.8860 0.8910 0.8910
3.637859 0.8930 0.8960 0.8980 0.9010 0.9010
3.672000 0.9010 0.9010 0.9000 0.9000 0.8980
3.705859 0.8980 0.8980 0.8980 0.9000 0.9000
3.739000 0.9010 0.9010 0.9010 0.9030 0.9030
3.772859 0.9030 0.9030 0.9030 0.9050 0.9080
3.807000 0.9100 0.9110 0.9110 0.9110 0.9110
3.840859 0.9100 0.9080 0.9080 0.9060 0.9050
3.875000 0.9030 0.9010 0.9010 0.9010 0.9010
3.908859 0.9010 0.9030 0.9030 0.9030 0.9010
3.942000 0.9010 0.9010 0.9010 0.9030 0.9030
3.975859 0.9030 0.9030 0.9030 0.9050 0.9050
4.010000 0.9050 0.9030 0.9030 0.9030 0.9030
4.043859 0.9030 0.9030 0.9050 0.9050 0.9110
4.078000 0.9110 0.9110 0.9110 0.9110 0.9110
4.111859 0.9110 0.9080 0.9080 0.9080 0.9060
4.146000 0.9050 0.9030 0.9030 0.9030 0.9010
4.179859 0.9010 0.9010 0.9010 0.9030 0.9030
4.213000 0.9030 0.9010 0.9000 0.9000 0.8980
4.246859 0.8980 0.8980 0.8980 0.8980 0.8980
4.281000 0.8980 0.8980 0.8980 0.9000 0.9000
4.314859 0.9010 0.9050 0.9110 0.9110 0.9130
4.349000 0.9150 0.9160 0.9160 0.9160 0.9160
4.382859 0.9160 0.9180 0.9180 0.9150 0.9150
4.416000 0.9130 0.9130 0.9130 0.9130 0.9110
4.449859 0.9060 0.9050 0.8980 0.8930 0.8880
4.484000 0.8810 0.8690 0.8490 0.8180 0.7080
4.517859 0.6490 0.5890 0.5050 0.4200 0.3770
4.552000 0.3330 0.3330 0.3370 0.5710 0.6490
4.585859 0.7590 0.8000 0.8280 0.8520 0.8550
4.619000 0.8620 0.8710 0.8740 0.8770 0.8790
4.652859 0.8770 0.8720 0.8620 0.8420 0.8180
4.687000 0.8010 0.7960 0.7960 0.8200 0.8450
4.720859 0.8610 0.8720 0.8770 0.8840 0.8860
4.755000 0.8910 0.8910 0.8930 0.8940 0.8960
4.788859 0.8980 0.9010 0.9030 0.9030 0.9010
4.822000 0.9000 0.8980 0.8980 0.8930 0.8930
4.855859 0.8930 0.8960 0.8980 0.9000 0.9000
4.890000 0.9030 0.9050 0.9060 0.9100 0.9100
4.923859 0.9100 0.9060 0.9060 0.9060 0.9060
4.958000 0.9030 0.9010 0.9000 0.9000 0.8980
4.991859 0.8940 0.8910 0.8860 0.8840 0.8810
5.025000 0.8740 0.8720 0.8670 0.8620 0.8570
5.058859 0.8570 0.8620 0.8710 0.8770 0.8830
5.093000 0.8910 0.8930 0.8930 0.8930 0.8940
5.126859 0.8940 0.8940 0.8940 0.8930 0.8930
5.161000 0.8940 0.8940 0.8980 0.9010 0.9010
5.194859 0.9030 0.9030 0.9030 0.9030 0.9010
5.228000 0.9000 0.9000 0.9000 0.9010 0.9010
5.261859 0.9030 0.9030 0.9030 0.9030 0.9030
5.296000 0.9010 0.9010 0.9010 0.9000 0.9000
5.329859 0.9010 0.9030 0.9030 0.9030 0.9030
5.364000 0.9060 0.9080 0.9080 0.9080 0.9080
5.397859 0.9080 0.9080 0.9080 0.9100 0.9100
5.431000 0.9100 0.9100 0.9080 0.9060 0.9050
5.464859 0.9030 0.9030 0.9030 0.9000 0.8980
5.499000 0.8940 0.8930 0.8930 0.8840 0.8840
5.532859 0.8830 0.8790 0.8740 0.8720 0.8710
5.567000 0.8590 0.8550 0.8520 0.8470 0.8400
5.600859 0.8330 0.8300 0.8180 0.8130 0.8030
5.635000 0.8000 0.7860 0.7770 0.7690 0.7610
5.668859 0.7590 0.7590 0.7550 0.7370 0.7160
5.702000 0.7050 0.6930 0.6660 0.6110 0.5440
5.735859 0.4860 0.4050 0.3230 0.1660 0.1160
5.770000 0.1000 0.0830 0.0810 0.0830 0.0860
5.803859 0.0960 0.0830 0.0710 0.0610 0.0610
5.838000 0.0890 0.2010 0.2770 0.3250 0.4520
5.871859 0.4930 0.5180 0.5450 0.5810 0.6110
5.905000 0.6330 0.6550 0.6770 0.6940 0.7160
5.938859 0.7320 0.7400 0.7400 0.7420 0.7420
5.973000 0.7420 0.7420 0.7420 0.7420 0.7400
6.006859 0.7380 0.7380 0.7380 0.7380 0.7420
6.041000 0.7450 0.7590 0.7620 0.7690 0.7720
6.074859 0.7770 0.7790 0.7790 0.7760 0.7670
6.108000 0.7590 0.7490 0.7330 0.7100 0.7030
6.141859 0.6840 0.6660 0.6110 0.5910 0.5380
6.176000 0.4570 0.4200 0.3830 0.3080 0.2370
6.209859 0.2010 0.1790 0.1790 0.2110 0.2440
6.244000 0.2890 0.3500 0.4420 0.4770 0.5030
6.277859 0.5320 0.5500 0.5810 0.6060 0.6420
6.311000 0.6740 0.6790 0.6960 0.7200 0.7420
6.344859 0.7550 0.7690 0.7830 0.7960 0.8010
6.379000 0.8100 0.8160 0.8200 0.8250 0.8320
6.412859 0.8350 0.8380 0.8420 0.8420 0.8440
6.447000 0.8440 0.8440 0.8420 0.8420 0.8440
6.480859 0.8450 0.8450 0.8470 0.8490 0.8490
6.514000 0.8490 0.8500 0.8500 0.8500 0.8520
6.547859 0.8540 0.8540 0.8550 0.8550 0.8550
6.582000 0.8570 0.8570 0.8570 0.8570 0.8570
6.615859 0.8570 0.8570 0.8570 0.8550 0.8550
6.650000 0.8540 0.8540 0.8520 0.8520 0.8500
6.683859 0.8490 0.8470 0.8450 0.8420 0.8420
6.717000 0.8400 0.8350 0.8320 0.8280 0.8230
6.750859 0.8200 0.8130 0.8010 0.7980 0.7960
6.785000 0.7880 0.7710 0.7450 0.7330 0.7250
6.818859 0.7000 0.6890 0.6770 0.6610 0.6450
6.853000 0.6330 0.6180 0.6100 0.5960 0.5840
6.886859 0.5710 0.5350 0.4930 0.4380 0.4160
6.920000 0.3940 0.3400 0.2670 0.2220 0.1840
6.953859 0.1810 0.1840 0.2760 0.3720 0.4980
6.988000 0.5500 0.5940 0.6270 0.6520 0.6720
7.021859 0.6930 0.7030 0.7100 0.7100 0.6720
7.056000 0.6330 0.5610 0.4830 0.4100 0.4010
7.089859 0.4010 0.4400 0.4910 0.5440 0.5940
7.124000 0.6060 0.6130 0.6130 0.5930 0.5760
7.157859 0.5640 0.5520 0.5490 0.5380 0.5370
7.191000 0.5400 0.5810 0.5860 0.5930 0.6150
7.224859 0.6250 0.6550 0.6670 0.6790 0.6880
7.259000 0.6940 0.7030 0.7050 0.7060 0.7080
7.292859 0.6790 0.6500 0.5980 0.5570 0.5180
7.327000 0.4520 0.4500 0.4540 0.4610 0.5450
7.360859 0.6470 0.6710 0.6940 0.7200 0.7400
7.394000 0.7450 0.7540 0.7610 0.7640 0.7710
7.427859 0.7760 0.7770 0.7810 0.7830 0.7840
7.462000 0.7880 0.7880 0.7880 0.7880 0.7880
7.495859 0.7860 0.7840 0.7830 0.7810 0.7810
7.530000 0.7790 0.7790 0.7770 0.7760 0.7740
7.563859 0.7720 0.7670 0.7620 0.7570 0.7550
7.597000 0.7470 0.7450 0.7450 0.7450 0.7450
7.630859 0.7450 0.7440 0.7420 0.7350 0.7270
7.665000 0.7220 0.7010 0.6980 0.6930 0.6710
7.698859 0.6470 0.6030 0.5540 0.5270 0.4610
7.733000 0.4100 0.3910 0.3720 0.3250 0.2840
7.766859 0.2790 0.2760 0.2760 0.3160 0.3660
7.800000 0.3940 0.4960 0.5270 0.5450 0.5670
7.833859 0.5830 0.5890 0.5910 0.5790 0.5400
7.868000 0.5100 0.4810 0.4400 0.4100 0.4010
7.901859 0.3930 0.3930 0.4470 0.4760 0.5080
7.936000 0.5380 0.5500 0.5660 0.5790 0.5890
7.969859 0.5910 0.5940 0.5960 0.5940 0.5930
8.003000 0.5890 0.5890 0.5860 0.5830 0.5710
8.036859 0.5670 0.5550 0.5440 0.5300 0.5160
8.071000 0.5030 0.4760 0.4570 0.4330 0.4150
8.104859 0.3960 0.3760 0.3420 0.3250 0.2890
8.139000 0.2540 0.2420 0.1910 0.1570 0.1330
8.172859 0.1220 0.1160 0.1150 0.1160 0.1200
8.206000 0.1220 0.1230 0.1150 0.1010 0.0880
8.239859 0.0710 0.0590 0.0420 0.0230 0.0220
8.274000 0.0160 0.0130 0.0110 0.0100 0.0100
8.307859 0.0110 0.0110 0.0130 0.0180 0.0270
8.342000 0.0420 0.0520 0.0880 0.1500 0.1670
8.375859 0.1910 0.2060 0.2180 0.2320 0.2440
8.409000 0.2500 0.2570 0.2640 0.2640 0.2590
8.442859 0.2500 0.2330 0.2160 0.1930 0.1610
8.477000 0.1280 0.1100 0.0960 0.0830 0.0610
8.510859 0.0330 0.0220 0.0150 0.0110 0.0080
8.545000 0.0060 0.0050 0.0050 0.0050 0.0060
8.578859 0.0060 0.0080 0.0100 0.0130 0.0160
8.613000 0.0300 0.0450 0.0640 0.0840 0.1610
8.646859 0.1860 0.2200 0.2840 0.3010 0.3250
8.680000 0.3490 0.3670 0.4160 0.4500 0.4770
8.713859 0.5000 0.5150 0.5380 0.5620 0.5670
8.748000 0.5930 0.6100 0.6230 0.6320 0.6350
8.781859 0.6550 0.6620 0.6690 0.6770 0.6880
8.816000 0.6940 0.7100 0.7110 0.7160 0.7180
8.849859 0.7250 0.7300 0.7320 0.7350 0.7400
8.883000 0.7420 0.7440 0.7450 0.7490 0.7500
8.916859 0.7520 0.7590 0.7590 0.7610 0.7620
8.951000 0.7640 0.7670 0.7710 0.7720 0.7740
8.984859 0.7760 0.7770 0.7810 0.7840 0.7860
9.019000 0.7860 0.7880 0.7880 0.7880 0.7890
9.052859 0.7890 0.7890 0.7890 0.7910 0.7930
9.086000 0.7930 0.7940 0.7940 0.7940 0.7940
9.119859 0.7940 0.7940 0.7940 0.7930 0.7880
9.154000 0.7860 0.7840 0.7840 0.7860 0.7860
9.187859 0.7860 0.7880 0.7890 0.7940 0.8000
9.222000 0.8030 0.8050 0.8050 0.8060 0.8100
9.255859 0.8130 0.8150 0.8160 0.8180 0.8180
9.289000 0.8180 0.8200 0.8200 0.8220 0.8230
9.322859 0.8250 0.8270 0.8270 0.8270 0.8270
9.357000 0.8270 0.8280 0.8300 0.8320 0.8320
9.390859 0.8320 0.8320 0.8320 0.8320 0.8320
9.425000 0.8320 0.8320 0.8320 0.8320 0.8320
9.458859 0.8320 0.8320 0.8320 0.8320 0.8300
9.492000 0.8280 0.8250 0.8230 0.8220 0.8180
9.525859 0.8150 0.8130 0.8060 0.8010 0.8000
9.560000 0.7960 0.7940 0.7830 0.7810 0.7720
9.593859 0.7610 0.7470 0.7370 0.7250 0.7100
9.628000 0.6980 0.6860 0.6810 0.6490 0.6030
9.661859 0.5840 0.5550 0.5440 0.5220 0.5030
9.695000 0.4910 0.4910 0.4940 0.5030 0.5180
9.728859 0.5330 0.5540 0.5760 0.5930 0.6130
9.763000 0.6320 0.6330 0.6470 0.6610 0.6670
9.796859 0.6710 0.6770 0.6790 0.6830 0.6830
9.831000 0.6810 0.6770 0.6660 0.6520 0.6400
9.864859 0.6220 0.5980 0.5760 0.5570 0.5270
9.898000 0.4910 0.4640 0.4450 0.4350 0.4300
9.931859 0.4300 0.4370 0.4500 0.4770 0.5010
9.966000 0.5180 0.5450 0.5670 0.5880 0.6100
9.999859 0.6280 0.6450 0.6620 0.6770 0.6860
10.034000 0.7100 0.7130 0.7250 0.7300 0.7320
10.067859 0.7400 0.7440 0.7470 0.7500 0.7540
10.102000 0.7570 0.7590 0.7590 0.7590 0.7590
10.135859 0.7570 0.7540 0.7470 0.7440 0.7370
10.169000 0.7270 0.7250 0.7100 0.7010 0.6930
10.202859 0.6660 0.6470 0.6220 0.6030 0.5710
10.237000 0.5540 0.5380 0.5180 0.5130 0.5110
10.270859 0.5100 0.5110 0.5150 0.5200 0.5330
10.305000 0.5490 0.5590 0.5670 0.5830 0.5890
10.338859 0.5940 0.6080 0.6180 0.6250 0.6300
10.372000 0.6400 0.6450 0.6520 0.6540 0.6570
10.405859 0.6610 0.6610 0.6570 0.6540 0.6520
10.440000 0.6490 0.6450 0.6380 0.6330 0.6330
10.473859 0.6330 0.6330 0.6350 0.6450 0.6520
10.508000 0.6640 0.6760 0.6770 0.6860 0.6960
10.541859 0.7110 0.7160 0.7200 0.7200 0.7250
10.575000 0.7280 0.7300 0.7320 0.7370 0.7420
10.608859 0.7450 0.7470 0.7520 0.7590 0.7610
10.643000 0.7660 0.7710 0.7760 0.7770 0.7770
10.676859 0.7810 0.7830 0.7840 0.7880 0.7910
10.711000 0.7930 0.7940 0.7940 0.7960 0.7960
10.744859 0.7960 0.7940 0.7940 0.7940 0.7880
10.778000 0.7860 0.7810 0.7760 0.7710 0.7670
10.811859 0.7670 0.7690 0.7710 0.7710 0.7760
10.846000 0.7760 0.7790 0.7830 0.7880 0.7940
10.879859 0.7940 0.7980 0.8010 0.8030 0.8050
10.914000 0.8060 0.8100 0.8130 0.8130 0.8130
10.947859 0.8150 0.8160 0.8160 0.8160 0.8160
10.981000 0.8160 0.8160 0.8160 0.8150 0.8150
11.014859 0.8150 0.8150 0.8150 0.8150 0.8150
11.049000 0.8150 0.8150 0.8160 0.8160 0.8160
11.082859 0.8180 0.8180 0.8200 0.8220 0.8230
11.117000 0.8250 0.8270 0.8270 0.8270 0.8270
11.150859 0.8250 0.8250 0.8250 0.8230 0.8230
11.184000 0.8230 0.8200 0.8180 0.8160 0.8160
11.217859 0.8160 0.8160 0.8160 0.8180 0.8180
11.252000 0.8200 0.8230 0.8250 0.8270 0.8320
11.285859 0.8320 0.8330 0.8370 0.8400 0.8420
11.320000 0.8420 0.8440 0.8440 0.8450 0.8470
11.353859 0.8470 0.8490 0.8490 0.8490 0.8500
11.387000 0.8500 0.8500 0.8500 0.8500 0.8500
11.420859 0.8500 0.8500 0.8500 0.8490 0.8490
11.455000 0.8470 0.8450 0.8450 0.8450 0.8440
11.488859 0.8440 0.8440 0.8440 0.8440 0.8440
11.523000 0.8440 0.8440 0.8440 0.8420 0.8400
11.556859 0.8400 0.8380 0.8370 0.8350 0.8330
11.591000 0.8300 0.8280 0.8270 0.8270 0.8250
11.624859 0.8230 0.8200 0.8160 0.8160 0.8150
11.658000 0.8130 0.8100 0.8030 0.8000 0.7960
11.691859 0.7930 0.7890 0.7860 0.7810 0.7770
11.726000 0.7690 0.7670 0.7570 0.7470 0.7450
11.759859 0.7420 0.7330 0.7280 0.7270 0.7250
11.794000 0.7230 0.7220 0.7220 0.7230 0.7230
11.827859 0.7250 0.7250 0.7280 0.7300 0.7320
11.861000 0.7320 0.7350 0.7400 0.7400 0.7420
11.894859 0.7440 0.7440 0.7440 0.7440 0.7440
11.929000 0.7420 0.7420 0.7400 0.7400 0.7370
11.962859 0.7350 0.7330 0.7320 0.7280 0.7230
11.997000 0.7180 0.7130 0.7080 0.7010 0.6980
12.030859 0.6930 0.6910 0.6840 0.6770 0.6690
12.064000 0.6620 0.6610 0.6450 0.6440 0.6320
12.097859 0.6200 0.6060 0.5930 0.5840 0.5670
12.132000 0.5590 0.5470 0.5300 0.5130 0.5030
12.165859 0.4890 0.4720 0.4610 0.4540 0.4380
12.200000 0.4160 0.4030 0.3960 0.3890 0.3710
12.233859 0.3490 0.3320 0.3130 0.2940 0.2740
12.267000 0.2500 0.2280 0.2100 0.1980 0.1810
12.300859 0.1620 0.1490 0.1350 0.1350 0.1350
12.335000 0.1350 0.1350 0.1380 0.1520 0.1770
12.368859 0.1940 0.2180 0.2490 0.2760 0.2980
12.403000 0.3080 0.3740 0.4300 0.4570 0.4770
12.436859 0.4960 0.5160 0.5370 0.5520 0.5670
12.470000 0.5840 0.5930 0.6000 0.6130 0.6280
12.503859 0.6400 0.6500 0.6610 0.6640 0.6690
12.538000 0.6760 0.6840 0.6910 0.7060 0.7100
12.571859 0.7130 0.7180 0.7230 0.7270 0.7330
12.606000 0.7400 0.7420 0.7440 0.7470 0.7470
12.639859 0.7520 0.7590 0.7620 0.7640 0.7640
12.673000 0.7660 0.7660 0.7670 0.7690 0.7690
12.706859 0.7690 0.7690 0.7690 0.7710 0.7710
12.741000 0.7710 0.7710 0.7710 0.7710 0.7710
12.774859 0.7710 0.7690 0.7690 0.7690 0.7670
12.809000 0.7670 0.7660 0.7640 0.7620 0.7610
12.842859 0.7570 0.7550 0.7540 0.7490 0.7450
12.876000 0.7420 0.7380 0.7330 0.7250 0.7200
12.909859 0.7130 0.7080 0.7050 0.7000 0.6980
12.944000 0.6940 0.6890 0.6880 0.6880 0.6860
12.977859 0.6860 0.6880 0.6890 0.6960 0.7050
13.012000 0.7060 0.7080 0.7110 0.7150 0.7230
13.045859 0.7320 0.7380 0.7400 0.7420 0.7440
13.080000 0.7470 0.7500 0.7570 0.7640 0.7690
13.113859 0.7720 0.7760 0.7770 0.7790 0.7810
13.147000 0.7830 0.7840 0.7880 0.7910 0.7930
13.180859 0.7940 0.7940 0.7960 0.7980 0.8010
13.215000 0.8010 0.8030 0.8050 0.8050 0.8060
13.248859 0.8080 0.8100 0.8110 0.8110 0.8130
13.283000 0.8130 0.8130 0.8130 0.8150 0.8150
13.316859 0.8150 0.8150 0.8150 0.8160 0.8160
13.350000 0.8160 0.8180 0.8200 0.8200 0.8220
13.383859 0.8220 0.8220 0.8200 0.8200 0.8180
13.418000 0.8160 0.8150 0.8150 0.8150 0.8130
13.451859 0.8130 0.8130 0.8110 0.8110 0.8110
13.486000 0.8110 0.8110 0.8110 0.8100 0.8100
13.519859 0.8100 0.8080 0.8080 0.8060 0.8030
13.553000 0.8030 0.8010 0.8010 0.8000 0.7960
13.586859 0.7940 0.7930 0.7930 0.7860 0.7830
13.621000 0.7790 0.7770 0.7740 0.7690 0.7660
13.654859 0.7620 0.7570 0.7520 0.7500 0.7450
13.689000 0.7400 0.7320 0.7250 0.7230 0.7130
13.722859 0.7010 0.6980 0.6930 0.6910 0.6810
13.756000 0.6690 0.6610 0.6540 0.6380 0.6350
13.789859 0.6180 0.6010 0.5810 0.5640 0.5540
13.824000 0.5350 0.5130 0.4960 0.4770 0.4610
13.857859 0.4380 0.4200 0.4080 0.4010 0.3930
13.892000 0.3710 0.3540 0.3320 0.3010 0.2890
13.925859 0.2690 0.2520 0.2420 0.2280 0.2130
13.959000 0.2080 0.2000 0.1960 0.1940 0.1940
13.992859 0.1940 0.1980 0.2060 0.2150 0.2270
14.027000 0.2380 0.2500 0.2620 0.2860 0.3000
14.060859 0.3300 0.3540 0.3620 0.3880 0.4180
14.095000 0.4470 0.4710 0.4940 0.5000 0.5230
14.128859 0.5420 0.5500 0.5660 0.5770 0.6050
14.162000 0.6130 0.6180 0.6280 0.6370 0.6470
14.195859 0.6590 0.6690 0.6790 0.6830 0.6880
14.230000 0.6930 0.7050 0.7080 0.7150 0.7220
14.263859 0.7230 0.7270 0.7370 0.7380 0.7420
14.298000 0.7470 0.7500 0.7540 0.7540 0.7550
14.331859 0.7550 0.7570 0.7610 0.7640 0.7670
14.365000 0.7690 0.7720 0.7720 0.7760 0.7790
14.398859 0.7810 0.7830 0.7840 0.7880 0.7890
14.433000 0.7890 0.7910 0.7930 0.7930 0.7940
14.466859 0.7940 0.7940 0.7940 0.7940 0.7940
14.501000 0.7930 0.7930 0.7910 0.7910 0.7890
14.534859 0.7890 0.7890 0.7890 0.7890 0.7890
14.569000 0.7910 0.7910 0.7910 0.7910 0.7930
14.602859 0.7930 0.7930 0.7940 0.7960 0.7960
14.636000 0.7960 0.7980 0.7980 0.8000 0.8010
14.669859 0.8030 0.8060 0.8080 0.8100 0.8130
14.704000 0.8160 0.8180 0.8230 0.8250 0.8280
14.737859 0.8280 0.8280 0.8280 0.8280 0.8280
14.772000 0.8300 0.8320 0.8330 0.8350 0.8370
14.805859 0.8380 0.8380 0.8380 0.8380 0.8380
14.839000 0.8400 0.8400 0.8400 0.8400 0.8440
14.872859 0.8450 0.8470 0.8490 0.8500 0.8500
14.907000 0.8500 0.8500 0.8500 0.8500 0.8500
14.940859 0.8490 0.8470 0.8450 0.8440 0.8440
14.975000 0.8440 0.8440 0.8440 0.8450 0.8500
15.008859 0.8550 0.8620 0.8690 0.8710 0.8620
15.042000 0.8690
##END=
