##TITLE=1,4-DIMETHYLPIPERAZINE-2,5-DIONE (OIL MULL)
##JCAMP-DX=4.24
##DATA TYPE=INFRARED SPECTRUM
##CLASS=COBLENTZ
##ORIGIN=ABBOTT LABORATORIES
##OWNER=COBLENTZ SOCIETY
Collection (C) 2018 copyright by the U.S. Secretary of Commerce
on behalf of the United States of America. All rights reserved.
##DATE=Not specified, most likely prior to 1970
##NAMES=1,4-dimethyl-2,5-piperazinedione
##CAS REGISTRY NO=5076-82-4
##MOLFORM=C6 H10 N2 O2
##SOURCE REFERENCE=COBLENTZ NO. 682
##$NIST SOURCE=COBLENTZ
##$NIST IMAGE=cob682
##SPECTROMETER/DATA SYSTEM=Not specified, most likely a grating spectrometer.
##STATE=SOLID (OIL MULL)
##SAMPLING PROCEDURE=TRANSMISSION
##RESOLUTION=4
##DATA PROCESSING=DIGITIZED BY NIST FROM HARD COPY
##XUNITS=MICROMETERS
##YUNITS=TRANSMITTANCE
##XFACTOR=1.000000
##YFACTOR=1
##DELTAX=000.006633
##FIRSTX=2.007
##LASTX=15.4647
##FIRSTY=0.654
##MAXX=15.4647
##MINX=2.007
##MAXY=0.852
##MINY=0.086
##NPOINTS=2030
##XYDATA=(X++(Y..Y))
2.007000 0.6540 0.6540 0.6540 0.6540 0.6540
2.040180 0.6550 0.6550 0.6590 0.6600 0.6620
2.073000 0.6620 0.6620 0.6620 0.6620 0.6630
2.106180 0.6630 0.6650 0.6680 0.6700 0.6720
2.139000 0.6720 0.6720 0.6730 0.6730 0.6730
2.172180 0.6750 0.6750 0.6760 0.6800 0.6810
2.206000 0.6810 0.6830 0.6850 0.6860 0.6880
2.239180 0.6890 0.6910 0.6910 0.6890 0.6880
2.272000 0.6860 0.6850 0.6830 0.6810 0.6810
2.305180 0.6800 0.6800 0.6780 0.6800 0.6800
2.338000 0.6810 0.6810 0.6810 0.6830 0.6850
2.371180 0.6860 0.6860 0.6880 0.6890 0.6890
2.405000 0.6910 0.6910 0.6930 0.6940 0.6940
2.438180 0.6940 0.6980 0.6990 0.6990 0.7010
2.471000 0.7020 0.7020 0.7040 0.7060 0.7060
2.504180 0.7090 0.7090 0.7120 0.7170 0.7200
2.537000 0.7220 0.7220 0.7220 0.7220 0.7200
2.570180 0.7200 0.7240 0.7240 0.7240 0.7250
2.604000 0.7250 0.7270 0.7270 0.7280 0.7300
2.637180 0.7300 0.7300 0.7320 0.7330 0.7350
2.670000 0.7370 0.7380 0.7380 0.7380 0.7380
2.703180 0.7380 0.7400 0.7400 0.7400 0.7400
2.736000 0.7400 0.7400 0.7400 0.7400 0.7410
2.769180 0.7430 0.7430 0.7450 0.7460 0.7460
2.803000 0.7460 0.7450 0.7430 0.7410 0.7380
2.836180 0.7370 0.7330 0.7330 0.7320 0.7320
2.869000 0.7320 0.7320 0.7300 0.7320 0.7330
2.902180 0.7330 0.7330 0.7330 0.7330 0.7350
2.935000 0.7350 0.7330 0.7330 0.7330 0.7330
2.968180 0.7330 0.7330 0.7350 0.7330 0.7330
3.002000 0.7320 0.7320 0.7320 0.7320 0.7320
3.035180 0.7320 0.7320 0.7320 0.7320 0.7320
3.068000 0.7330 0.7350 0.7400 0.7400 0.7410
3.101180 0.7480 0.7480 0.7480 0.7480 0.7480
3.134000 0.7460 0.7430 0.7410 0.7410 0.7380
3.167180 0.7370 0.7350 0.7350 0.7350 0.7350
3.201000 0.7370 0.7370 0.7380 0.7400 0.7400
3.234180 0.7410 0.7410 0.7410 0.7400 0.7380
3.267000 0.7350 0.7330 0.7320 0.7280 0.7170
3.300180 0.7070 0.7020 0.6990 0.6880 0.6730
3.333000 0.6150 0.5530 0.5060 0.4510 0.3780
3.366180 0.3310 0.2840 0.2200 0.1720 0.1590
3.399000 0.1500 0.1340 0.1180 0.1020 0.0940
3.432180 0.0860 0.0860 0.1020 0.1020 0.1370
3.466000 0.1620 0.2010 0.2200 0.2200 0.2190
3.499180 0.2190 0.2040 0.2040 0.2280 0.3240
3.532000 0.4480 0.5820 0.6540 0.6630 0.6810
3.565180 0.7040 0.7240 0.7320 0.7380 0.7500
3.598000 0.7530 0.7620 0.7690 0.7770 0.7840
3.631180 0.7840 0.7870 0.7870 0.7880 0.7870
3.665000 0.7880 0.7880 0.7880 0.7900 0.7930
3.698180 0.7950 0.7970 0.7970 0.7980 0.7980
3.731000 0.7980 0.7980 0.7980 0.7980 0.7930
3.764180 0.7930 0.7980 0.8000 0.8010 0.8030
3.797000 0.8030 0.8030 0.8050 0.8030 0.8050
3.830180 0.8050 0.8050 0.8060 0.8050 0.8010
3.864000 0.8010 0.8010 0.8010 0.8010 0.8010
3.897180 0.8060 0.8110 0.8110 0.8130 0.8160
3.930000 0.8190 0.8210 0.8260 0.8290 0.8290
3.963180 0.8290 0.8290 0.8290 0.8290 0.8270
3.996000 0.8240 0.8180 0.8180 0.8140 0.8140
4.029180 0.8160 0.8180 0.8210 0.8210 0.8290
4.063000 0.8290 0.8310 0.8320 0.8320 0.8340
4.096180 0.8360 0.8370 0.8370 0.8390 0.8360
4.129000 0.8340 0.8310 0.8240 0.8230 0.8210
4.162180 0.8210 0.8210 0.8230 0.8230 0.8240
4.195000 0.8240 0.8270 0.8310 0.8320 0.8340
4.228180 0.8360 0.8360 0.8360 0.8370 0.8390
4.262000 0.8400 0.8400 0.8420 0.8420 0.8420
4.295180 0.8420 0.8420 0.8420 0.8440 0.8440
4.328000 0.8440 0.8440 0.8440 0.8440 0.8440
4.361180 0.8420 0.8420 0.8420 0.8400 0.8420
4.394000 0.8420 0.8420 0.8440 0.8440 0.8420
4.427180 0.8440 0.8420 0.8420 0.8420 0.8400
4.461000 0.8400 0.8420 0.8440 0.8450 0.8450
4.494180 0.8450 0.8450 0.8450 0.8450 0.8450
4.527000 0.8450 0.8440 0.8420 0.8400 0.8400
4.560180 0.8400 0.8390 0.8400 0.8420 0.8440
4.593000 0.8450 0.8450 0.8470 0.8450 0.8450
4.626180 0.8440 0.8450 0.8470 0.8450 0.8440
4.660000 0.8440 0.8450 0.8450 0.8470 0.8470
4.693180 0.8470 0.8500 0.8500 0.8490 0.8470
4.726000 0.8450 0.8450 0.8440 0.8450 0.8450
4.759180 0.8470 0.8470 0.8470 0.8470 0.8450
4.792000 0.8440 0.8450 0.8450 0.8450 0.8470
4.825180 0.8470 0.8450 0.8440 0.8440 0.8420
4.859000 0.8400 0.8420 0.8440 0.8440 0.8450
4.892180 0.8440 0.8440 0.8440 0.8450 0.8450
4.925000 0.8450 0.8470 0.8490 0.8490 0.8490
4.958180 0.8490 0.8490 0.8500 0.8500 0.8490
4.991000 0.8490 0.8490 0.8490 0.8490 0.8490
5.024180 0.8490 0.8490 0.8490 0.8490 0.8490
5.058000 0.8490 0.8490 0.8490 0.8490 0.8490
5.091180 0.8490 0.8500 0.8490 0.8490 0.8490
5.124000 0.8470 0.8490 0.8490 0.8490 0.8500
5.157180 0.8490 0.8470 0.8470 0.8470 0.8490
5.190000 0.8500 0.8500 0.8520 0.8520 0.8500
5.223180 0.8520 0.8520 0.8520 0.8520 0.8520
5.257000 0.8500 0.8500 0.8500 0.8490 0.8490
5.290180 0.8490 0.8470 0.8470 0.8470 0.8470
5.323000 0.8450 0.8490 0.8490 0.8490 0.8490
5.356180 0.8490 0.8490 0.8490 0.8490 0.8450
5.389000 0.8470 0.8470 0.8470 0.8470 0.8470
5.422180 0.8450 0.8450 0.8450 0.8450 0.8450
5.456000 0.8450 0.8450 0.8470 0.8470 0.8450
5.489180 0.8450 0.8450 0.8440 0.8420 0.8420
5.522000 0.8420 0.8400 0.8400 0.8390 0.8370
5.555180 0.8370 0.8370 0.8320 0.8290 0.8270
5.588000 0.8260 0.8210 0.8190 0.8180 0.8140
5.621180 0.8130 0.8110 0.8110 0.8100 0.8060
5.655000 0.8030 0.8010 0.8000 0.7980 0.7970
5.688180 0.7950 0.7870 0.7800 0.7770 0.7690
5.721000 0.7660 0.7580 0.7450 0.7330 0.7280
5.754180 0.7240 0.7200 0.7140 0.7090 0.7020
5.787000 0.6990 0.6980 0.6960 0.6860 0.6810
5.820180 0.6750 0.6600 0.6460 0.6330 0.6180
5.854000 0.6050 0.5970 0.5840 0.5630 0.5580
5.887180 0.5320 0.5270 0.5080 0.4410 0.3890
5.920000 0.3780 0.3490 0.3310 0.3160 0.3000
5.953180 0.2660 0.2150 0.1860 0.1700 0.1630
5.986000 0.1500 0.1460 0.1360 0.1280 0.1230
6.019180 0.1160 0.1080 0.0950 0.0900 0.0900
6.053000 0.0950 0.0950 0.0950 0.0990 0.1000
6.086180 0.1070 0.1180 0.1230 0.1290 0.1460
6.119000 0.1590 0.2040 0.2240 0.2330 0.2710
6.152180 0.2800 0.2980 0.3310 0.3550 0.3660
6.185000 0.3750 0.3810 0.3990 0.4150 0.4350
6.218180 0.4670 0.4870 0.5000 0.5110 0.5190
6.252000 0.5240 0.5370 0.5470 0.5560 0.5610
6.285180 0.5640 0.5690 0.5770 0.5820 0.5970
6.318000 0.5970 0.5990 0.6000 0.6050 0.6120
6.351180 0.6160 0.6230 0.6280 0.6330 0.6340
6.384000 0.6360 0.6370 0.6390 0.6410 0.6410
6.417180 0.6410 0.6390 0.6410 0.6410 0.6420
6.451000 0.6460 0.6460 0.6490 0.6590 0.6620
6.484180 0.6680 0.6680 0.6700 0.6700 0.6720
6.517000 0.6730 0.6750 0.6760 0.6780 0.6810
6.550180 0.6830 0.6830 0.6830 0.6810 0.6780
6.583000 0.6700 0.6420 0.6160 0.6000 0.5680
6.616180 0.5270 0.5030 0.4960 0.4820 0.4750
6.649000 0.3830 0.3320 0.3240 0.3240 0.3210
6.682180 0.3210 0.3240 0.3270 0.3470 0.3700
6.716000 0.3780 0.4090 0.4800 0.5090 0.5190
6.749180 0.5350 0.5480 0.5500 0.5550 0.5580
6.782000 0.5580 0.5290 0.5290 0.4870 0.4440
6.815180 0.3990 0.3750 0.3570 0.3310 0.3050
6.848000 0.2980 0.2900 0.2850 0.2870 0.2880
6.881180 0.2930 0.2970 0.2980 0.3000 0.3000
6.915000 0.3010 0.3010 0.3010 0.3050 0.3270
6.948180 0.3570 0.3990 0.4150 0.4570 0.5220
6.981000 0.5510 0.5760 0.5970 0.6030 0.6200
7.014180 0.6500 0.6620 0.6780 0.6810 0.6850
7.047000 0.6960 0.6980 0.6990 0.7010 0.7060
7.080180 0.7120 0.7140 0.7190 0.7120 0.6880
7.114000 0.6700 0.6250 0.5950 0.4980 0.4690
7.147180 0.4510 0.4410 0.4180 0.4170 0.4200
7.180000 0.4480 0.4820 0.5370 0.5470 0.5740
7.213180 0.5950 0.5990 0.6120 0.6120 0.6020
7.246000 0.5870 0.5790 0.5550 0.5530 0.5400
7.279180 0.5400 0.5500 0.5560 0.5860 0.5970
7.313000 0.6000 0.6050 0.6120 0.6030 0.5970
7.346180 0.5950 0.5890 0.5770 0.5680 0.5480
7.379000 0.5220 0.5010 0.4960 0.4800 0.4590
7.412180 0.4150 0.4000 0.3710 0.3520 0.3370
7.445000 0.3180 0.2980 0.2820 0.2740 0.2660
7.478180 0.2620 0.2430 0.2430 0.2660 0.2800
7.512000 0.3010 0.3100 0.3710 0.4020 0.4230
7.545180 0.4490 0.4640 0.4870 0.5040 0.5120
7.578000 0.5220 0.5300 0.5450 0.5560 0.5690
7.611180 0.5790 0.5860 0.5950 0.6000 0.6080
7.644000 0.6120 0.6200 0.6250 0.6290 0.6360
7.677180 0.6460 0.6460 0.6410 0.6410 0.6360
7.711000 0.6290 0.6200 0.6200 0.6290 0.6340
7.744180 0.6410 0.6460 0.6490 0.6570 0.6630
7.777000 0.6680 0.6720 0.6720 0.6720 0.6730
7.810180 0.6750 0.6780 0.6780 0.6780 0.6760
7.843000 0.6750 0.6730 0.6680 0.6630 0.6590
7.876180 0.6490 0.6360 0.6260 0.6160 0.5990
7.910000 0.5790 0.5710 0.5510 0.5270 0.5010
7.943180 0.4910 0.4880 0.4800 0.4740 0.4640
7.976000 0.4590 0.4570 0.4510 0.4510 0.4560
8.009180 0.4590 0.4800 0.4910 0.5110 0.5270
8.042000 0.5370 0.5500 0.5740 0.5900 0.5990
8.075180 0.6120 0.6200 0.6230 0.6310 0.6310
8.109000 0.6250 0.6210 0.6200 0.6180 0.6200
8.142180 0.6230 0.6260 0.6310 0.6390 0.6490
8.175000 0.6620 0.6670 0.6720 0.6760 0.6810
8.208180 0.6850 0.6940 0.6960 0.6980 0.6980
8.241000 0.6990 0.6990 0.7010 0.7060 0.7070
8.274180 0.7110 0.7110 0.7120 0.7150 0.7190
8.308000 0.7200 0.7240 0.7270 0.7280 0.7280
8.341180 0.7280 0.7300 0.7300 0.7320 0.7330
8.374000 0.7330 0.7330 0.7320 0.7300 0.7320
8.407180 0.7330 0.7330 0.7350 0.7350 0.7350
8.440000 0.7350 0.7370 0.7380 0.7380 0.7380
8.473180 0.7400 0.7410 0.7400 0.7410 0.7410
8.507000 0.7410 0.7410 0.7430 0.7430 0.7410
8.540180 0.7380 0.7380 0.7380 0.7330 0.7200
8.573000 0.7040 0.6940 0.6670 0.6490 0.6460
8.606180 0.6420 0.6440 0.6470 0.6500 0.6650
8.639000 0.6700 0.6800 0.6930 0.6940 0.6980
8.672180 0.7020 0.7070 0.7140 0.7170 0.7220
8.706000 0.7280 0.7300 0.7320 0.7330 0.7350
8.739180 0.7370 0.7370 0.7370 0.7370 0.7300
8.772000 0.7270 0.7240 0.7220 0.7190 0.7120
8.805180 0.7060 0.7020 0.6990 0.6980 0.6940
8.838000 0.6940 0.6910 0.6930 0.6960 0.6990
8.871180 0.7070 0.7110 0.7140 0.7190 0.7200
8.905000 0.7250 0.7300 0.7330 0.7370 0.7400
8.938180 0.7430 0.7450 0.7450 0.7460 0.7460
8.971000 0.7480 0.7500 0.7540 0.7540 0.7560
9.004180 0.7560 0.7560 0.7560 0.7580 0.7580
9.037000 0.7590 0.7590 0.7580 0.7580 0.7580
9.070180 0.7560 0.7560 0.7560 0.7580 0.7590
9.104000 0.7590 0.7590 0.7610 0.7620 0.7640
9.137180 0.7640 0.7640 0.7640 0.7620 0.7580
9.170000 0.7580 0.7590 0.7590 0.7590 0.7590
9.203180 0.7590 0.7620 0.7660 0.7640 0.7640
9.236000 0.7660 0.7670 0.7670 0.7670 0.7620
9.269180 0.7620 0.7670 0.7710 0.7740 0.7770
9.303000 0.7750 0.7710 0.7670 0.7660 0.7640
9.336180 0.7660 0.7660 0.7670 0.7710 0.7720
9.369000 0.7740 0.7740 0.7740 0.7740 0.7740
9.402180 0.7750 0.7750 0.7740 0.7740 0.7720
9.435000 0.7720 0.7740 0.7740 0.7740 0.7720
9.468180 0.7740 0.7740 0.7750 0.7750 0.7720
9.502000 0.7690 0.7670 0.7660 0.7660 0.7640
9.535180 0.7640 0.7660 0.7670 0.7690 0.7690
9.568000 0.7710 0.7710 0.7710 0.7710 0.7710
9.601180 0.7710 0.7690 0.7690 0.7670 0.7670
9.634000 0.7660 0.7640 0.7620 0.7610 0.7610
9.667180 0.7590 0.7590 0.7560 0.7500 0.7460
9.701000 0.7430 0.7350 0.7320 0.7270 0.7200
9.734180 0.7140 0.6990 0.6880 0.6750 0.6620
9.767000 0.6460 0.6130 0.6000 0.5840 0.5660
9.800180 0.5000 0.4380 0.4150 0.3970 0.3780
9.833000 0.3680 0.3680 0.3760 0.3780 0.3790
9.866180 0.4120 0.4480 0.4670 0.5030 0.5300
9.899000 0.5640 0.5840 0.6000 0.6080 0.6200
9.932180 0.6420 0.6540 0.6620 0.6700 0.6750
9.966000 0.6810 0.6890 0.6960 0.6980 0.7060
9.999180 0.7120 0.7190 0.7350 0.7350 0.7370
10.032000 0.7370 0.7370 0.7280 0.7170 0.7070
10.065180 0.6960 0.6890 0.6850 0.6850 0.6760
10.098000 0.6850 0.6860 0.6980 0.7070 0.7140
10.131180 0.7270 0.7350 0.7400 0.7450 0.7480
10.165000 0.7510 0.7540 0.7580 0.7590 0.7590
10.198180 0.7590 0.7590 0.7610 0.7620 0.7640
10.231000 0.7690 0.7710 0.7720 0.7720 0.7720
10.264180 0.7720 0.7720 0.7720 0.7720 0.7710
10.297000 0.7710 0.7720 0.7720 0.7740 0.7740
10.330180 0.7750 0.7770 0.7790 0.7790 0.7770
10.364000 0.7750 0.7750 0.7770 0.7770 0.7790
10.397180 0.7800 0.7800 0.7800 0.7820 0.7820
10.430000 0.7840 0.7840 0.7840 0.7840 0.7840
10.463180 0.7840 0.7840 0.7870 0.7870 0.7850
10.496000 0.7850 0.7850 0.7850 0.7850 0.7840
10.529180 0.7840 0.7840 0.7850 0.7850 0.7850
10.563000 0.7850 0.7850 0.7850 0.7850 0.7850
10.596180 0.7850 0.7820 0.7850 0.7870 0.7870
10.629000 0.7870 0.7870 0.7870 0.7880 0.7900
10.662180 0.7900 0.7900 0.7880 0.7900 0.7880
10.695000 0.7870 0.7870 0.7870 0.7870 0.7880
10.728180 0.7920 0.7900 0.7900 0.7900 0.7900
10.762000 0.7920 0.7930 0.7950 0.7950 0.7970
10.795180 0.7950 0.7950 0.7970 0.7970 0.7970
10.828000 0.7970 0.7970 0.7970 0.7970 0.7970
10.861180 0.7970 0.7970 0.7930 0.7930 0.7950
10.894000 0.7970 0.7970 0.7970 0.7970 0.7970
10.927180 0.7980 0.8000 0.8000 0.8010 0.8010
10.961000 0.8030 0.7980 0.7980 0.8010 0.8010
10.994180 0.8010 0.8010 0.8010 0.8030 0.8010
11.027000 0.8030 0.8010 0.7980 0.7980 0.8030
11.060180 0.8030 0.8010 0.8010 0.7980 0.7970
11.093000 0.7970 0.7970 0.7970 0.7980 0.7980
11.126180 0.8030 0.8050 0.8050 0.8030 0.8030
11.160000 0.8050 0.8030 0.8030 0.8030 0.8030
11.193180 0.8030 0.8050 0.8060 0.8060 0.8050
11.226000 0.8050 0.8030 0.8010 0.8000 0.8030
11.259180 0.8030 0.8050 0.8050 0.8050 0.8010
11.292000 0.7980 0.7980 0.7980 0.8010 0.8050
11.325180 0.8050 0.8050 0.8030 0.8030 0.8030
11.359000 0.7980 0.7980 0.8010 0.8010 0.8010
11.392180 0.8010 0.8000 0.8010 0.8010 0.8050
11.425000 0.8080 0.8100 0.8100 0.8110 0.8110
11.458180 0.8130 0.8110 0.8100 0.8060 0.8060
11.491000 0.8080 0.8080 0.8080 0.8050 0.8010
11.524180 0.7980 0.7980 0.8030 0.8050 0.8060
11.558000 0.8050 0.8050 0.8010 0.7980 0.8000
11.591180 0.8010 0.8030 0.8030 0.8030 0.8030
11.624000 0.8050 0.8050 0.8050 0.8050 0.8050
11.657180 0.8030 0.8030 0.8010 0.7980 0.7980
11.690000 0.8060 0.8060 0.8060 0.8060 0.8080
11.723180 0.8080 0.8050 0.8030 0.8030 0.8000
11.757000 0.8030 0.8050 0.8060 0.8060 0.8060
11.790180 0.8060 0.8050 0.8030 0.8010 0.8030
11.823000 0.8050 0.8060 0.8060 0.7980 0.7970
11.856180 0.7950 0.7820 0.7740 0.7610 0.7450
11.889000 0.7220 0.7040 0.6960 0.6750 0.6750
11.922180 0.6980 0.6990 0.7110 0.7170 0.7400
11.956000 0.7510 0.7620 0.7690 0.7750 0.7800
11.989180 0.7840 0.7850 0.7870 0.7880 0.7900
12.022000 0.7930 0.7980 0.8000 0.8050 0.8060
12.055180 0.8060 0.8060 0.8080 0.8100 0.8110
12.088000 0.8110 0.8110 0.8130 0.8130 0.8130
12.121180 0.8130 0.8130 0.8130 0.8130 0.8130
12.155000 0.8130 0.8110 0.8100 0.8100 0.8100
12.188180 0.8100 0.8100 0.8110 0.8130 0.8130
12.221000 0.8130 0.8130 0.8130 0.8130 0.8110
12.254180 0.8110 0.8110 0.8110 0.8110 0.8110
12.287000 0.8110 0.8110 0.8110 0.8110 0.8110
12.320180 0.8130 0.8130 0.8140 0.8140 0.8130
12.354000 0.8130 0.8110 0.8100 0.8060 0.8060
12.387180 0.8010 0.8010 0.8060 0.8080 0.8110
12.420000 0.8110 0.8110 0.8110 0.8110 0.8110
12.453180 0.8110 0.8100 0.8100 0.8080 0.8030
12.486000 0.7980 0.7980 0.7980 0.7980 0.7980
12.519180 0.8000 0.8010 0.8030 0.8030 0.8060
12.553000 0.8080 0.8100 0.8100 0.8100 0.8100
12.586180 0.8080 0.8060 0.7980 0.8000 0.8050
12.619000 0.8060 0.8080 0.8100 0.8110 0.8110
12.652180 0.8130 0.8140 0.8110 0.8100 0.8080
12.685000 0.8060 0.8000 0.7980 0.7980 0.8000
12.718180 0.8000 0.8000 0.8050 0.8060 0.8060
12.752000 0.8060 0.8010 0.8000 0.7980 0.7980
12.785180 0.7980 0.7980 0.7980 0.7980 0.7980
12.818000 0.7980 0.7980 0.7980 0.7970 0.8000
12.851180 0.7970 0.7950 0.7950 0.7950 0.7970
12.884000 0.7970 0.7970 0.7950 0.7950 0.7950
12.917180 0.7950 0.7930 0.7950 0.7950 0.7970
12.951000 0.7970 0.7970 0.7950 0.7950 0.7950
12.984180 0.7920 0.7930 0.7930 0.7930 0.7930
13.017000 0.7950 0.7930 0.7920 0.7930 0.7900
13.050180 0.7870 0.7850 0.7850 0.7850 0.7840
13.083000 0.7850 0.7850 0.7870 0.7870 0.7870
13.116180 0.7840 0.7840 0.7820 0.7790 0.7790
13.149000 0.7790 0.7790 0.7800 0.7800 0.7790
13.182180 0.7790 0.7800 0.7800 0.7770 0.7750
13.216000 0.7750 0.7740 0.7740 0.7720 0.7720
13.249180 0.7710 0.7710 0.7710 0.7710 0.7710
13.282000 0.7690 0.7690 0.7660 0.7640 0.7610
13.315180 0.7580 0.7560 0.7540 0.7510 0.7500
13.348000 0.7460 0.7450 0.7430 0.7350 0.7280
13.381180 0.7270 0.7250 0.7200 0.7140 0.7110
13.415000 0.6940 0.6890 0.6780 0.6730 0.6630
13.448180 0.6540 0.6470 0.6370 0.6210 0.6050
13.481000 0.5950 0.5790 0.5760 0.5730 0.5690
13.514180 0.5630 0.5610 0.5610 0.5610 0.5610
13.547000 0.5610 0.5630 0.5680 0.5770 0.5860
13.580180 0.6000 0.6020 0.6080 0.6130 0.6180
13.614000 0.6340 0.6420 0.6490 0.6540 0.6570
13.647180 0.6600 0.6670 0.6720 0.6760 0.6780
13.680000 0.6800 0.6830 0.6850 0.6860 0.6890
13.713180 0.6890 0.6910 0.6910 0.6910 0.6930
13.746000 0.6930 0.6940 0.6940 0.6960 0.6960
13.779180 0.6960 0.6960 0.6960 0.6980 0.6980
13.813000 0.6990 0.6990 0.6980 0.6990 0.6990
13.846180 0.6990 0.7010 0.7020 0.7010 0.7010
13.879000 0.7010 0.7010 0.7020 0.7020 0.7020
13.912180 0.7020 0.7020 0.7040 0.7040 0.7070
13.945000 0.7070 0.7090 0.7110 0.7120 0.7140
13.978180 0.7150 0.7150 0.7150 0.7170 0.7170
14.012000 0.7170 0.7170 0.7170 0.7190 0.7190
14.045180 0.7190 0.7190 0.7190 0.7200 0.7200
14.078000 0.7220 0.7220 0.7200 0.7200 0.7190
14.111180 0.7190 0.7170 0.7170 0.7170 0.7170
14.144000 0.7150 0.7140 0.7140 0.7120 0.7140
14.177180 0.7150 0.7170 0.7150 0.7150 0.7140
14.211000 0.7140 0.7120 0.7110 0.7090 0.7090
14.244180 0.7090 0.7070 0.7090 0.7090 0.7110
14.277000 0.7110 0.7110 0.7110 0.7110 0.7110
14.310180 0.7110 0.7110 0.7110 0.7110 0.7090
14.343000 0.7070 0.7060 0.7060 0.7040 0.7040
14.376180 0.7020 0.7020 0.7020 0.7010 0.6990
14.410000 0.6990 0.6990 0.6990 0.6990 0.6990
14.443180 0.7010 0.7010 0.7010 0.6990 0.6990
14.476000 0.6990 0.7010 0.6990 0.6990 0.6990
14.509180 0.6990 0.6990 0.6990 0.6990 0.7010
14.542000 0.7010 0.7010 0.6990 0.6990 0.6990
14.575180 0.6980 0.6980 0.6940 0.6940 0.6910
14.609000 0.6940 0.6890 0.6880 0.6860 0.6860
14.642180 0.6880 0.6880 0.6880 0.6880 0.6880
14.675000 0.6880 0.6880 0.6880 0.6880 0.6890
14.708180 0.6890 0.6880 0.6860 0.6860 0.6860
14.741000 0.6830 0.6830 0.6810 0.6780 0.6760
14.774180 0.6760 0.6760 0.6750 0.6750 0.6730
14.808000 0.6730 0.6730 0.6720 0.6720 0.6700
14.841180 0.6700 0.6700 0.6680 0.6670 0.6630
14.874000 0.6630 0.6630 0.6620 0.6620 0.6620
14.907180 0.6600 0.6600 0.6620 0.6620 0.6600
14.940000 0.6620 0.6620 0.6590 0.6590 0.6590
14.973180 0.6590 0.6590 0.6590 0.6570 0.6570
15.007000 0.6550 0.6500 0.6470 0.6470 0.6460
15.040180 0.6460 0.6440 0.6440 0.6440 0.6440
15.073000 0.6420 0.6410 0.6390 0.6390 0.6390
15.106180 0.6370 0.6370 0.6370 0.6370 0.6370
15.139000 0.6370 0.6370 0.6360 0.6330 0.6310
15.172180 0.6290 0.6290 0.6290 0.6280 0.6280
15.206000 0.6280 0.6280 0.6230 0.6200 0.6200
15.239180 0.6200 0.6200 0.6200 0.6200 0.6180
15.272000 0.6160 0.6160 0.6150 0.6150 0.6120
15.305180 0.6120 0.6050 0.6030 0.6030 0.6020
15.338000 0.6030 0.6030 0.6030 0.6050 0.6030
15.371180 0.6030 0.6020 0.6000 0.6000 0.5990
15.405000 0.5970 0.5950 0.5940 0.5940 0.5940
15.438180 0.5940 0.5940 0.5920 0.5920 0.5900
##END=
