##TITLE=2,4-Dinitrophenol
##JCAMP-DX=4.24
$$ By DXEDIT 1.05 (RS McDonald)
##DATA TYPE=INFRARED SPECTRUM
##CLASS=COBLENTZ III
##ORIGIN=DOW CHEMICAL COMPANY
##OWNER=COPYRIGHT (C) 1988 by COBLENTZ SOCIETY INC.
Collection (C) 2018 copyright by the U.S. Secretary of Commerce
on behalf of the United States of America. All rights reserved.
##DATE=1962/11/05
##CAS REGISTRY NO=51-28-5
##MOLFORM=C6 H4 N2 O5
##SOURCE REFERENCE=COBLENTZ NO. 6358
##$NIST SOURCE=COBLENTZ
##$NIST IMAGE=cob6358
##SPECTROMETER/DATA SYSTEM=DOW KBr FOREPRISM-GRATING
##INSTRUMENT PARAMETERS=BLAZED AT 3.5, 12.0, 20.0 MICRON AND CHANGED AT 5.0, 7.5, 14.9 MICRON
##STATE=SOLUTION, SATURATED (CCl4 FOR 3800-1330, CS2 FOR 1330-400 CM^-^1)
##PATH LENGTH=0.05 CM, 0.05 CM
$$SPECTRAL CONTAMINATION DUE TO CS2 AROUND 400, 850 AND CCl4 AROUND 1550 CM^-^1
##SAMPLING PROCEDURE=TRANSMISSION
##RESOLUTION=2
##DATA PROCESSING=DIGITIZED BY COBLENTZ SOCIETY (BATCH I) FROM HARD COPY
##XUNITS=1/CM
##YUNITS=TRANSMITTANCE
##XFACTOR=1
##YFACTOR=1
##DELTAX=1
##FIRSTX=3814
##LASTX=381
##FIRSTY=0.9099
##MAXX=3814
##MINX=381
##MAXY=0.9728
##MINY=-0.0036
##NPOINTS=3434
##XYDATA=(X++(Y..Y))
3814.000000 0.9099 0.9084 0.9084 0.9105 0.9116
3809.000000 0.9093 0.9084 0.9109 0.9116 0.9116
3804.000000 0.9116 0.9116 0.9085 0.9083 0.9083
3799.000000 0.9082 0.9082 0.9087 0.9109 0.9089
3794.000000 0.9114 0.9114 0.9114 0.9113 0.9113
3789.000000 0.9111 0.9111 0.9110 0.9108 0.9107
3784.000000 0.9085 0.9072 0.9071 0.9094 0.9101
3779.000000 0.9072 0.9093 0.9095 0.9094 0.9061
3774.000000 0.9091 0.9088 0.9085 0.9082 0.9080
3769.000000 0.9076 0.9073 0.9069 0.9065 0.9060
3764.000000 0.9055 0.9052 0.9049 0.9044 0.9058
3759.000000 0.9054 0.9039 0.9039 0.9039 0.9046
3754.000000 0.9054 0.9063 0.9074 0.9084 0.9093
3749.000000 0.9103 0.9114 0.9124 0.9134 0.9142
3744.000000 0.9151 0.9152 0.9153 0.9153 0.9152
3739.000000 0.9160 0.9180 0.9175 0.9172 0.9167
3734.000000 0.9149 0.9127 0.9142 0.9152 0.9148
3729.000000 0.9145 0.9142 0.9141 0.9138 0.9138
3724.000000 0.9137 0.9135 0.9134 0.9133 0.9132
3719.000000 0.9097 0.9098 0.9127 0.9126 0.9124
3714.000000 0.9123 0.9123 0.9132 0.9145 0.9135
3709.000000 0.9157 0.9158 0.9159 0.9160 0.9161
3704.000000 0.9163 0.9164 0.9165 0.9165 0.9166
3699.000000 0.9167 0.9168 0.9169 0.9142 0.9141
3694.000000 0.9144 0.9147 0.9152 0.9155 0.9158
3689.000000 0.9162 0.9166 0.9163 0.9141 0.9143
3684.000000 0.9147 0.9148 0.9150 0.9151 0.9152
3679.000000 0.9153 0.9155 0.9156 0.9158 0.9160
3674.000000 0.9159 0.9162 0.9163 0.9165 0.9193
3669.000000 0.9170 0.9166 0.9165 0.9163 0.9163
3664.000000 0.9162 0.9161 0.9161 0.9159 0.9159
3659.000000 0.9159 0.9159 0.9158 0.9158 0.9157
3654.000000 0.9156 0.9154 0.9154 0.9153 0.9153
3649.000000 0.9152 0.9152 0.9151 0.9151 0.9150
3644.000000 0.9149 0.9146 0.9145 0.9143 0.9142
3639.000000 0.9140 0.9139 0.9136 0.9135 0.9133
3634.000000 0.9132 0.9136 0.9160 0.9158 0.9147
3629.000000 0.9122 0.9133 0.9151 0.9150 0.9146
3624.000000 0.9146 0.9143 0.9142 0.9139 0.9137
3619.000000 0.9134 0.9132 0.9128 0.9126 0.9123
3614.000000 0.9121 0.9118 0.9116 0.9113 0.9111
3609.000000 0.9105 0.9076 0.9102 0.9099 0.9096
3604.000000 0.9094 0.9081 0.9066 0.9086 0.9069
3599.000000 0.9047 0.9061 0.9075 0.9073 0.9069
3594.000000 0.9067 0.9064 0.9061 0.9059 0.9057
3589.000000 0.9054 0.9051 0.9048 0.9046 0.9042
3584.000000 0.9040 0.9038 0.9035 0.9031 0.9027
3579.000000 0.9023 0.9019 0.9014 0.9001 0.8984
3574.000000 0.9002 0.8998 0.8979 0.8957 0.8953
3569.000000 0.8947 0.8944 0.8939 0.8936 0.8931
3564.000000 0.8927 0.8923 0.8919 0.8915 0.8910
3559.000000 0.8906 0.8903 0.8898 0.8895 0.8920
3554.000000 0.8887 0.8888 0.8912 0.8909 0.8897
3549.000000 0.8879 0.8899 0.8895 0.8892 0.8875
3544.000000 0.8869 0.8882 0.8879 0.8875 0.8852
3539.000000 0.8857 0.8842 0.8853 0.8859 0.8855
3534.000000 0.8852 0.8849 0.8845 0.8843 0.8842
3529.000000 0.8809 0.8808 0.8807 0.8806 0.8805
3524.000000 0.8804 0.8801 0.8800 0.8799 0.8798
3519.000000 0.8797 0.8796 0.8793 0.8792 0.8791
3514.000000 0.8790 0.8789 0.8788 0.8786 0.8784
3509.000000 0.8783 0.8782 0.8780 0.8780 0.8779
3504.000000 0.8779 0.8779 0.8779 0.8777 0.8776
3499.000000 0.8776 0.8776 0.8776 0.8776 0.8775
3494.000000 0.8775 0.8774 0.8774 0.8772 0.8772
3489.000000 0.8772 0.8774 0.8775 0.8776 0.8776
3484.000000 0.8778 0.8778 0.8779 0.8779 0.8781
3479.000000 0.8782 0.8784 0.8785 0.8786 0.8788
3474.000000 0.8791 0.8794 0.8798 0.8801 0.8804
3469.000000 0.8807 0.8811 0.8814 0.8817 0.8819
3464.000000 0.8823 0.8826 0.8829 0.8833 0.8836
3459.000000 0.8839 0.8843 0.8847 0.8850 0.8853
3454.000000 0.8858 0.8861 0.8864 0.8868 0.8872
3449.000000 0.8875 0.8877 0.8881 0.8885 0.8888
3444.000000 0.8893 0.8891 0.8891 0.8888 0.8888
3439.000000 0.8887 0.8885 0.8880 0.8908 0.8869
3434.000000 0.8863 0.8856 0.8850 0.8845 0.8840
3429.000000 0.8836 0.8832 0.8825 0.8822 0.8789
3424.000000 0.8808 0.8806 0.8802 0.8796 0.8792
3419.000000 0.8787 0.8783 0.8777 0.8773 0.8773
3414.000000 0.8773 0.8776 0.8779 0.8782 0.8784
3409.000000 0.8784 0.8785 0.8801 0.8800 0.8786
3404.000000 0.8787 0.8787 0.8788 0.8788 0.8787
3399.000000 0.8787 0.8786 0.8782 0.8780 0.8777
3394.000000 0.8776 0.8772 0.8769 0.8766 0.8764
3389.000000 0.8762 0.8760 0.8757 0.8753 0.8748
3384.000000 0.8742 0.8737 0.8732 0.8728 0.8725
3379.000000 0.8721 0.8718 0.8713 0.8710 0.8708
3374.000000 0.8705 0.8701 0.8699 0.8696 0.8720
3369.000000 0.8689 0.8682 0.8676 0.8669 0.8662
3364.000000 0.8655 0.8649 0.8643 0.8636 0.8629
3359.000000 0.8623 0.8616 0.8609 0.8603 0.8596
3354.000000 0.8588 0.8581 0.8573 0.8565 0.8557
3349.000000 0.8550 0.8542 0.8534 0.8527 0.8542
3344.000000 0.8540 0.8506 0.8521 0.8487 0.8478
3339.000000 0.8471 0.8494 0.8484 0.8471 0.8430
3334.000000 0.8418 0.8405 0.8393 0.8379 0.8366
3329.000000 0.8353 0.8341 0.8327 0.8315 0.8300
3324.000000 0.8286 0.8268 0.8254 0.8237 0.8221
3319.000000 0.8206 0.8190 0.8174 0.8158 0.8142
3314.000000 0.8126 0.8104 0.8113 0.8091 0.8069
3309.000000 0.8046 0.8018 0.7978 0.7977 0.7954
3304.000000 0.7923 0.7879 0.7858 0.7831 0.7803
3299.000000 0.7774 0.7747 0.7719 0.7692 0.7662
3294.000000 0.7636 0.7607 0.7579 0.7545 0.7512
3289.000000 0.7478 0.7445 0.7411 0.7378 0.7343
3284.000000 0.7310 0.7299 0.7260 0.7201 0.7171
3279.000000 0.7154 0.7111 0.7046 0.7009 0.6980
3274.000000 0.6933 0.6887 0.6841 0.6787 0.6732
3269.000000 0.6667 0.6602 0.6572 0.6543 0.6515
3264.000000 0.6486 0.6455 0.6425 0.6387 0.6350
3259.000000 0.6325 0.6299 0.6276 0.6235 0.6233
3254.000000 0.6210 0.6168 0.6126 0.6087 0.6049
3249.000000 0.6011 0.5973 0.5935 0.5897 0.5850
3244.000000 0.5817 0.5797 0.5766 0.5734 0.5703
3239.000000 0.5669 0.5636 0.5600 0.5563 0.5521
3234.000000 0.5480 0.5461 0.5442 0.5434 0.5426
3229.000000 0.5419 0.5339 0.5401 0.5378 0.5375
3224.000000 0.5383 0.5377 0.5370 0.5363 0.5360
3219.000000 0.5393 0.5426 0.5460 0.5495 0.5529
3214.000000 0.5565 0.5601 0.5637 0.5682 0.5729
3209.000000 0.5777 0.5809 0.5869 0.5934 0.5972
3204.000000 0.6010 0.6045 0.6080 0.6111 0.6145
3199.000000 0.6181 0.6189 0.6220 0.6230 0.6268
3194.000000 0.6290 0.6312 0.6334 0.6354 0.6365
3189.000000 0.6388 0.6420 0.6441 0.6448 0.6465
3184.000000 0.6491 0.6518 0.6545 0.6570 0.6598
3179.000000 0.6623 0.6651 0.6677 0.6706 0.6732
3174.000000 0.6760 0.6786 0.6812 0.6842 0.6874
3169.000000 0.6919 0.6965 0.7010 0.7055 0.7108
3164.000000 0.7172 0.7244 0.7287 0.7349 0.7418
3159.000000 0.7469 0.7499 0.7546 0.7568 0.7585
3154.000000 0.7630 0.7651 0.7667 0.7675 0.7686
3149.000000 0.7692 0.7673 0.7678 0.7703 0.7688
3144.000000 0.7693 0.7695 0.7697 0.7707 0.7728
3139.000000 0.7722 0.7720 0.7716 0.7712 0.7663
3134.000000 0.7612 0.7542 0.7472 0.7390 0.7308
3129.000000 0.7304 0.7299 0.7296 0.7292 0.7286
3124.000000 0.7280 0.7274 0.7267 0.7258 0.7248
3119.000000 0.7192 0.7134 0.7041 0.6947 0.6853
3114.000000 0.6758 0.6665 0.6052 0.6477 0.6383
3109.000000 0.6289 0.6195 0.6144 0.6093 0.6088
3104.000000 0.6084 0.6080 0.6076 0.6314 0.6572
3099.000000 0.6869 0.7162 0.7443 0.7728 0.7805
3094.000000 0.7854 0.7902 0.7948 0.7979 0.8029
3089.000000 0.8055 0.8089 0.8149 0.8211 0.8232
3084.000000 0.8266 0.8302 0.8339 0.8368 0.8399
3079.000000 0.8428 0.8478 0.8537 0.8575 0.8596
3074.000000 0.8644 0.8673 0.8669 0.8687 0.8709
3069.000000 0.8701 0.8753 0.8739 0.8758 0.8771
3064.000000 0.8781 0.8769 0.8783 0.8796 0.8820
3059.000000 0.8856 0.8871 0.8869 0.8861 0.8883
3054.000000 0.8889 0.8881 0.8888 0.8914 0.8933
3049.000000 0.8939 0.8946 0.8953 0.8985 0.8996
3044.000000 0.9029 0.9064 0.9101 0.9137 0.9173
3039.000000 0.9174 0.9176 0.9172 0.9138 0.9110
3034.000000 0.9102 0.9067 0.9044 0.9043 0.9029
3029.000000 0.9009 0.9007 0.8989 0.8971 0.8971
3024.000000 0.8970 0.8968 0.8967 0.8967 0.8971
3019.000000 0.9001 0.9012 0.9018 0.8995 0.8997
3014.000000 0.9003 0.9005 0.9007 0.9009 0.9012
3009.000000 0.9014 0.9008 0.8983 0.8992 0.9014
3004.000000 0.9014 0.9000 0.8979 0.8978 0.8994
2999.000000 0.8989 0.8971 0.8967 0.8963 0.8958
2994.000000 0.8954 0.8970 0.8970 0.8964 0.8958
2989.000000 0.8950 0.8943 0.8939 0.8935 0.8934
2984.000000 0.8934 0.8933 0.8932 0.8931 0.8938
2979.000000 0.8961 0.8951 0.8940 0.8960 0.8959
2974.000000 0.8958 0.8957 0.8957 0.8957 0.8957
2969.000000 0.8977 0.8988 0.8988 0.8990 0.8990
2964.000000 0.8989 0.8989 0.8991 0.8991 0.8990
2959.000000 0.9023 0.9021 0.8990 0.8991 0.8991
2954.000000 0.8998 0.9025 0.9026 0.9026 0.9027
2949.000000 0.9028 0.9029 0.9015 0.8999 0.9000
2944.000000 0.9019 0.9015 0.9024 0.9015 0.9029
2939.000000 0.9039 0.9040 0.9041 0.9042 0.9014
2934.000000 0.9012 0.9012 0.9012 0.9011 0.9011
2929.000000 0.9011 0.9011 0.9012 0.9013 0.9015
2924.000000 0.9018 0.9021 0.9012 0.8994 0.8996
2919.000000 0.8999 0.9000 0.9000 0.8998 0.8996
2914.000000 0.8996 0.8987 0.8978 0.8969 0.8960
2909.000000 0.8944 0.8957 0.8940 0.8889 0.8877
2904.000000 0.8866 0.8861 0.8857 0.8852 0.8848
2899.000000 0.8843 0.8839 0.8834 0.8831 0.8824
2894.000000 0.8817 0.8808 0.8801 0.8784 0.8768
2889.000000 0.8747 0.8727 0.8707 0.8688 0.8669
2884.000000 0.8650 0.8627 0.8550 0.8586 0.8573
2879.000000 0.8567 0.8562 0.8534 0.8564 0.8571
2874.000000 0.8578 0.8596 0.8615 0.8646 0.8677
2869.000000 0.8707 0.8739 0.8762 0.8786 0.8810
2864.000000 0.8834 0.8856 0.8879 0.8900 0.8921
2859.000000 0.8934 0.8951 0.8961 0.8972 0.8983
2854.000000 0.8966 0.8973 0.8985 0.8989 0.8994
2849.000000 0.8999 0.9003 0.9012 0.9044 0.9049
2844.000000 0.9045 0.9030 0.9053 0.9053 0.9040
2839.000000 0.9031 0.9048 0.9045 0.9024 0.9005
2834.000000 0.9001 0.8994 0.8988 0.8982 0.8976
2829.000000 0.8997 0.8972 0.8995 0.9000 0.8971
2824.000000 0.8971 0.9004 0.8977 0.9008 0.9010
2819.000000 0.9008 0.8985 0.8989 0.8993 0.8998
2814.000000 0.9002 0.9007 0.9011 0.9014 0.9019
2809.000000 0.9023 0.9046 0.9063 0.9067 0.9071
2804.000000 0.9074 0.9077 0.9081 0.9084 0.9088
2799.000000 0.9092 0.9095 0.9098 0.9102 0.9104
2794.000000 0.9109 0.9113 0.9111 0.9094 0.9115
2789.000000 0.9094 0.9097 0.9099 0.9102 0.9118
2784.000000 0.9140 0.9126 0.9113 0.9134 0.9151
2779.000000 0.9153 0.9157 0.9159 0.9159 0.9161
2774.000000 0.9159 0.9159 0.9158 0.9157 0.9154
2769.000000 0.9154 0.9153 0.9148 0.9142 0.9135
2764.000000 0.9130 0.9120 0.9111 0.9098 0.9086
2759.000000 0.9074 0.9063 0.9050 0.9039 0.9028
2754.000000 0.9017 0.9008 0.8999 0.8989 0.8980
2749.000000 0.8979 0.8979 0.8980 0.8982 0.8983
2744.000000 0.8983 0.8986 0.8990 0.8996 0.9004
2739.000000 0.9011 0.9019 0.9025 0.9033 0.9041
2734.000000 0.9049 0.9055 0.9063 0.9070 0.9077
2729.000000 0.9084 0.9092 0.9100 0.9107 0.9114
2724.000000 0.9122 0.9128 0.9136 0.9143 0.9149
2719.000000 0.9157 0.9166 0.9167 0.9169 0.9170
2714.000000 0.9173 0.9175 0.9177 0.9178 0.9180
2709.000000 0.9181 0.9184 0.9185 0.9186 0.9186
2704.000000 0.9185 0.9183 0.9183 0.9182 0.9181
2699.000000 0.9180 0.9179 0.9178 0.9177 0.9175
2694.000000 0.9174 0.9173 0.9172 0.9171 0.9170
2689.000000 0.9169 0.9167 0.9166 0.9165 0.9164
2684.000000 0.9163 0.9162 0.9159 0.9159 0.9158
2679.000000 0.9156 0.9156 0.9155 0.9154 0.9151
2674.000000 0.9150 0.9147 0.9145 0.9142 0.9140
2669.000000 0.9137 0.9134 0.9132 0.9131 0.9130
2664.000000 0.9130 0.9130 0.9130 0.9130 0.9130
2659.000000 0.9129 0.9132 0.9161 0.9162 0.9163
2654.000000 0.9164 0.9165 0.9166 0.9156 0.9136
2649.000000 0.9137 0.9154 0.9172 0.9173 0.9155
2644.000000 0.9144 0.9145 0.9170 0.9156 0.9150
2639.000000 0.9150 0.9154 0.9155 0.9157 0.9158
2634.000000 0.9190 0.9193 0.9192 0.9162 0.9168
2629.000000 0.9197 0.9198 0.9199 0.9200 0.9200
2624.000000 0.9201 0.9201 0.9200 0.9199 0.9198
2619.000000 0.9194 0.9190 0.9187 0.9182 0.9179
2614.000000 0.9175 0.9167 0.9161 0.9154 0.9147
2609.000000 0.9142 0.9136 0.9130 0.9126 0.9125
2604.000000 0.9125 0.9126 0.9129 0.9130 0.9134
2599.000000 0.9137 0.9140 0.9142 0.9146 0.9150
2594.000000 0.9155 0.9160 0.9166 0.9171 0.9178
2589.000000 0.9183 0.9189 0.9196 0.9202 0.9208
2584.000000 0.9215 0.9221 0.9228 0.9233 0.9240
2579.000000 0.9247 0.9253 0.9258 0.9263 0.9266
2574.000000 0.9269 0.9271 0.9273 0.9276 0.9279
2569.000000 0.9281 0.9284 0.9287 0.9289 0.9292
2564.000000 0.9294 0.9297 0.9300 0.9302 0.9304
2559.000000 0.9305 0.9308 0.9310 0.9312 0.9314
2554.000000 0.9316 0.9316 0.9315 0.9314 0.9312
2549.000000 0.9308 0.9306 0.9303 0.9299 0.9298
2544.000000 0.9296 0.9296 0.9296 0.9296 0.9296
2539.000000 0.9299 0.9304 0.9307 0.9311 0.9316
2534.000000 0.9320 0.9324 0.9328 0.9331 0.9336
2529.000000 0.9339 0.9343 0.9347 0.9351 0.9357
2524.000000 0.9362 0.9368 0.9373 0.9378 0.9383
2519.000000 0.9389 0.9394 0.9398 0.9402 0.9406
2514.000000 0.9410 0.9413 0.9418 0.9421 0.9420
2509.000000 0.9420 0.9414 0.9409 0.9402 0.9397
2504.000000 0.9392 0.9387 0.9384 0.9379 0.9376
2499.000000 0.9372 0.9367 0.9363 0.9359 0.9354
2494.000000 0.9350 0.9346 0.9342 0.9339 0.9336
2489.000000 0.9331 0.9328 0.9323 0.9320 0.9315
2484.000000 0.9312 0.9307 0.9304 0.9323 0.9335
2479.000000 0.9333 0.9330 0.9330 0.9329 0.9327
2474.000000 0.9327 0.9326 0.9324 0.9322 0.9321
2469.000000 0.9319 0.9319 0.9319 0.9319 0.9322
2464.000000 0.9325 0.9326 0.9330 0.9333 0.9336
2459.000000 0.9339 0.9326 0.9327 0.9327 0.9313
2454.000000 0.9314 0.9337 0.9350 0.9351 0.9326
2449.000000 0.9346 0.9354 0.9355 0.9356 0.9357
2444.000000 0.9358 0.9359 0.9360 0.9362 0.9363
2439.000000 0.9364 0.9366 0.9367 0.9369 0.9370
2434.000000 0.9371 0.9373 0.9374 0.9376 0.9390
2429.000000 0.9379 0.9381 0.9381 0.9381 0.9381
2424.000000 0.9381 0.9380 0.9380 0.9379 0.9377
2419.000000 0.9373 0.9371 0.9368 0.9364 0.9361
2414.000000 0.9357 0.9353 0.9348 0.9343 0.9337
2409.000000 0.9339 0.9348 0.9328 0.9343 0.9335
2404.000000 0.9327 0.9320 0.9313 0.9308 0.9305
2399.000000 0.9301 0.9299 0.9296 0.9293 0.9291
2394.000000 0.9289 0.9285 0.9283 0.9280 0.9278
2389.000000 0.9307 0.9305 0.9303 0.9300 0.9302
2384.000000 0.9328 0.9324 0.9330 0.9351 0.9347
2379.000000 0.9356 0.9375 0.9386 0.9401 0.9398
2374.000000 0.9413 0.9421 0.9414 0.9404 0.9393
2369.000000 0.9357 0.9337 0.9325 0.9314 0.9299
2364.000000 0.9286 0.9269 0.9253 0.9238 0.9252
2359.000000 0.9238 0.9250 0.9242 0.9261 0.9271
2354.000000 0.9255 0.9241 0.9226 0.9195 0.9160
2349.000000 0.9141 0.9141 0.9155 0.9151 0.9138
2344.000000 0.9105 0.9088 0.9081 0.9080 0.9076
2339.000000 0.9049 0.9073 0.9075 0.9044 0.9040
2334.000000 0.9073 0.9073 0.9073 0.9076 0.9104
2329.000000 0.9101 0.9100 0.9104 0.9122 0.9127
2324.000000 0.9141 0.9131 0.9123 0.9111 0.9100
2319.000000 0.9087 0.9075 0.9061 0.9049 0.9035
2314.000000 0.9021 0.9012 0.9002 0.8995 0.8991
2309.000000 0.8985 0.8979 0.8974 0.8969 0.8965
2304.000000 0.8944 0.8955 0.8951 0.8951 0.8951
2299.000000 0.8968 0.8998 0.9017 0.9034 0.9053
2294.000000 0.9070 0.9088 0.9109 0.9128 0.9147
2289.000000 0.9168 0.9164 0.9169 0.9185 0.9199
2284.000000 0.9214 0.9197 0.9211 0.9228 0.9245
2279.000000 0.9261 0.9247 0.9265 0.9275 0.9265
2274.000000 0.9281 0.9298 0.9303 0.9297 0.9313
2269.000000 0.9315 0.9312 0.9328 0.9345 0.9350
2264.000000 0.9361 0.9385 0.9410 0.9407 0.9419
2259.000000 0.9438 0.9430 0.9444 0.9464 0.9478
2254.000000 0.9457 0.9470 0.9484 0.9494 0.9476
2249.000000 0.9491 0.9504 0.9515 0.9528 0.9528
2244.000000 0.9517 0.9526 0.9535 0.9542 0.9550
2239.000000 0.9558 0.9566 0.9574 0.9583 0.9565
2234.000000 0.9560 0.9564 0.9569 0.9576 0.9580
2229.000000 0.9585 0.9588 0.9591 0.9595 0.9597
2224.000000 0.9600 0.9600 0.9595 0.9565 0.9565
2219.000000 0.9563 0.9560 0.9558 0.9556 0.9554
2214.000000 0.9552 0.9549 0.9546 0.9545 0.9542
2209.000000 0.9541 0.9541 0.9541 0.9542 0.9544
2204.000000 0.9545 0.9545 0.9549 0.9550 0.9551
2199.000000 0.9552 0.9554 0.9555 0.9553 0.9532
2194.000000 0.9565 0.9561 0.9539 0.9542 0.9547
2189.000000 0.9550 0.9555 0.9558 0.9562 0.9566
2184.000000 0.9589 0.9587 0.9578 0.9581 0.9586
2179.000000 0.9589 0.9619 0.9627 0.9630 0.9632
2174.000000 0.9634 0.9635 0.9637 0.9639 0.9642
2169.000000 0.9638 0.9607 0.9606 0.9606 0.9605
2164.000000 0.9605 0.9604 0.9604 0.9603 0.9603
2159.000000 0.9602 0.9600 0.9599 0.9599 0.9598
2154.000000 0.9598 0.9597 0.9597 0.9597 0.9597
2149.000000 0.9596 0.9596 0.9596 0.9596 0.9596
2144.000000 0.9596 0.9596 0.9595 0.9595 0.9597
2139.000000 0.9598 0.9599 0.9599 0.9600 0.9600
2134.000000 0.9601 0.9601 0.9602 0.9602 0.9603
2129.000000 0.9603 0.9604 0.9604 0.9605 0.9605
2124.000000 0.9606 0.9607 0.9581 0.9609 0.9616
2119.000000 0.9619 0.9624 0.9627 0.9630 0.9635
2114.000000 0.9639 0.9644 0.9649 0.9651 0.9652
2109.000000 0.9652 0.9650 0.9648 0.9646 0.9642
2104.000000 0.9640 0.9638 0.9635 0.9633 0.9631
2099.000000 0.9629 0.9602 0.9590 0.9615 0.9620
2094.000000 0.9586 0.9612 0.9612 0.9612 0.9611
2089.000000 0.9608 0.9608 0.9606 0.9604 0.9600
2084.000000 0.9598 0.9588 0.9579 0.9562 0.9547
2079.000000 0.9530 0.9514 0.9511 0.9508 0.9504
2074.000000 0.9500 0.9500 0.9500 0.9500 0.9502
2069.000000 0.9502 0.9502 0.9502 0.9503 0.9503
2064.000000 0.9504 0.9504 0.9504 0.9504 0.9504
2059.000000 0.9501 0.9499 0.9506 0.9529 0.9529
2054.000000 0.9529 0.9529 0.9517 0.9513 0.9533
2049.000000 0.9511 0.9493 0.9490 0.9488 0.9485
2044.000000 0.9483 0.9490 0.9498 0.9549 0.9600
2039.000000 0.9651 0.9702 0.9715 0.9728 0.9728
2034.000000 0.9728 0.9706 0.9684 0.9649 0.9613
2029.000000 0.9577 0.9552 0.9528 0.9471 0.9464
2024.000000 0.9464 0.9459 0.9455 0.9451 0.9448
2019.000000 0.9444 0.9441 0.9438 0.9434 0.9430
2014.000000 0.9426 0.9420 0.9415 0.9408 0.9402
2009.000000 0.9390 0.9380 0.9362 0.9344 0.9322
2004.000000 0.9300 0.9252 0.9207 0.9107 0.9009
1999.000000 0.8909 0.8796 0.8706 0.8710 0.8736
1994.000000 0.8786 0.8835 0.8884 0.8933 0.8982
1989.000000 0.9018 0.9023 0.9028 0.9006 0.9007
1984.000000 0.9012 0.9019 0.9023 0.9030 0.9038
1979.000000 0.9043 0.9022 0.9031 0.9037 0.9041
1974.000000 0.9047 0.9041 0.9036 0.9030 0.9024
1969.000000 0.9018 0.9013 0.9007 0.9001 0.8996
1964.000000 0.8990 0.8984 0.8978 0.8973 0.8967
1959.000000 0.8961 0.8956 0.8950 0.8944 0.8938
1954.000000 0.8933 0.8927 0.8921 0.8916 0.8910
1949.000000 0.8904 0.8898 0.8893 0.8887 0.8970
1944.000000 0.8936 0.8903 0.8882 0.8870 0.8872
1939.000000 0.8895 0.8926 0.8956 0.8989 0.9021
1934.000000 0.9053 0.9072 0.9089 0.9106 0.9121
1929.000000 0.9138 0.9149 0.9159 0.9169 0.9178
1924.000000 0.9181 0.9182 0.9182 0.9181 0.9181
1919.000000 0.9178 0.9178 0.9171 0.9163 0.9153
1914.000000 0.9146 0.9142 0.9137 0.9132 0.9126
1909.000000 0.9123 0.9118 0.9139 0.9141 0.9136
1904.000000 0.9132 0.9126 0.9122 0.9120 0.9118
1899.000000 0.9117 0.9116 0.9116 0.9115 0.9114
1894.000000 0.9114 0.9116 0.9117 0.9108 0.9088
1889.000000 0.9090 0.9091 0.9092 0.9092 0.9093
1884.000000 0.9114 0.9127 0.9128 0.9123 0.9113
1879.000000 0.9102 0.9095 0.9086 0.9077 0.9098
1874.000000 0.9091 0.9079 0.9068 0.9056 0.9043
1869.000000 0.9032 0.9020 0.9011 0.9003 0.8994
1864.000000 0.8985 0.8978 0.8968 0.8960 0.8951
1859.000000 0.8942 0.8932 0.8942 0.8925 0.8906
1854.000000 0.8901 0.8897 0.8894 0.8889 0.8888
1849.000000 0.8887 0.8891 0.8894 0.8897 0.8899
1844.000000 0.8903 0.8870 0.8830 0.8793 0.8774
1839.000000 0.8754 0.8731 0.8637 0.8658 0.8625
1834.000000 0.8619 0.8619 0.8620 0.8649 0.8678
1829.000000 0.8706 0.8738 0.8768 0.8799 0.8831
1824.000000 0.8862 0.8885 0.8905 0.8923 0.8943
1819.000000 0.8996 0.9006 0.9001 0.8995 0.8986
1814.000000 0.8978 0.8970 0.8963 0.8955 0.8947
1809.000000 0.8940 0.8930 0.8940 0.8950 0.8960
1804.000000 0.8952 0.8949 0.8961 0.8972 0.8983
1799.000000 0.8994 0.9005 0.9017 0.9028 0.9039
1794.000000 0.9050 0.9060 0.9074 0.9088 0.9103
1789.000000 0.9110 0.9114 0.9118 0.9121 0.9126
1784.000000 0.9129 0.9128 0.9128 0.9128 0.9127
1779.000000 0.9127 0.9127 0.9128 0.9109 0.9095
1774.000000 0.9095 0.9096 0.9096 0.9097 0.9097
1769.000000 0.9098 0.9100 0.9099 0.9099 0.9099
1764.000000 0.9096 0.9093 0.9089 0.9086 0.9085
1759.000000 0.9091 0.9114 0.9113 0.9110 0.9110
1754.000000 0.9120 0.9128 0.9136 0.9143 0.9151
1749.000000 0.9159 0.9163 0.9169 0.9173 0.9179
1744.000000 0.9178 0.9179 0.9172 0.9165 0.9158
1739.000000 0.9151 0.9143 0.9136 0.9128 0.9125
1734.000000 0.9120 0.9119 0.9116 0.9123 0.9130
1729.000000 0.9138 0.9136 0.9136 0.9135 0.9135
1724.000000 0.9134 0.9133 0.9134 0.9130 0.9126
1719.000000 0.9122 0.9118 0.9111 0.9105 0.9099
1714.000000 0.9093 0.9090 0.9087 0.9084 0.9082
1709.000000 0.9078 0.9071 0.9064 0.9059 0.9052
1704.000000 0.9045 0.9041 0.9037 0.9032 0.9024
1699.000000 0.9017 0.9009 0.8989 0.8962 0.8935
1694.000000 0.8908 0.8878 0.8851 0.8811 0.8783
1689.000000 0.8769 0.8761 0.8753 0.8736 0.8721
1684.000000 0.8704 0.8688 0.8698 0.8744 0.8767
1679.000000 0.8790 0.8815 0.8836 0.8852 0.8864
1674.000000 0.8859 0.8868 0.8886 0.8884 0.8871
1669.000000 0.8858 0.8847 0.8828 0.8803 0.8777
1664.000000 0.8753 0.8726 0.8696 0.8666 0.8660
1659.000000 0.8587 0.8532 0.8508 0.8455 0.8401
1654.000000 0.8347 0.8291 0.8216 0.8190 0.8137
1649.000000 0.8070 0.7989 0.7908 0.7832 0.7719
1644.000000 0.7589 0.7426 0.7237 0.6879 0.6441
1639.000000 0.6141 0.5899 0.5338 0.4653 0.3958
1634.000000 0.3257 0.2566 0.1865 0.0123 0.0462
1629.000000 0.0141 0.0136 0.0140 0.0359 0.0736
1624.000000 0.1115 0.1496 0.1875 0.2262 0.2655
1619.000000 0.2933 0.3006 0.3082 0.3070 0.3093
1614.000000 0.3105 0.3109 0.3059 0.2989 0.2891
1609.000000 0.1750 -0.0036 -0.0036 -0.0036 -0.0036
1604.000000 -0.0036 -0.0036 -0.0036 -0.0036 -0.0036
1599.000000 0.0535 0.1208 0.1412 0.1505 0.1595
1594.000000 0.1675 0.1755 0.1822 0.1878 0.1924
1589.000000 0.1970 0.1989 0.2001 0.1947 0.1949
1584.000000 0.1954 0.1945 0.1933 0.1913 0.1860
1579.000000 0.1769 0.1632 0.1517 0.1451 0.1391
1574.000000 0.1320 0.1230 0.1139 0.1051 0.0966
1569.000000 0.0879 0.0783 0.0687 0.0585 0.0423
1564.000000 0.0239 0.0018 -0.0036 -0.0036 -0.0036
1559.000000 -0.0036 -0.0036 -0.0036 -0.0036 -0.0036
1554.000000 -0.0036 -0.0036 -0.0036 -0.0036 -0.0036
1549.000000 -0.0036 -0.0036 -0.0036 -0.0036 -0.0036
1544.000000 -0.0036 -0.0036 -0.0036 -0.0036 -0.0036
1539.000000 -0.0036 -0.0036 -0.0036 -0.0036 -0.0036
1534.000000 0.0035 0.0296 0.0548 0.0761 0.0936
1529.000000 0.1097 0.1234 0.1366 0.1503 0.1614
1524.000000 0.1719 0.1803 0.1854 0.1898 0.1963
1519.000000 0.2024 0.2153 0.2298 0.2413 0.2512
1514.000000 0.2625 0.2736 0.2871 0.2991 0.3051
1509.000000 0.3111 0.3162 0.3233 0.3364 0.3526
1504.000000 0.3612 0.3695 0.3790 0.3890 0.3991
1499.000000 0.4089 0.4174 0.4264 0.4355 0.4460
1494.000000 0.4548 0.4622 0.4641 0.4642 0.4611
1489.000000 0.4557 0.4149 0.3751 0.3369 0.2988
1484.000000 0.2615 0.1853 0.1894 0.1857 0.1865
1479.000000 0.2095 0.2568 0.3030 0.3498 0.3966
1474.000000 0.4420 0.4824 0.5025 0.5139 0.5243
1469.000000 0.5309 0.5374 0.5362 0.5349 0.5351
1464.000000 0.5327 0.5319 0.5249 0.5193 0.5111
1459.000000 0.5027 0.4933 0.4851 0.4738 0.4613
1454.000000 0.4482 0.4311 0.4128 0.3938 0.3652
1449.000000 0.2862 0.2075 0.0987 0.1058 0.1018
1444.000000 0.1008 0.1001 0.0998 0.1008 0.1026
1439.000000 0.1056 0.1385 0.1990 0.2597 0.3345
1434.000000 0.3728 0.3980 0.4200 0.4413 0.4602
1429.000000 0.4789 0.4947 0.5110 0.5913 0.6369
1424.000000 0.6425 0.6482 0.6550 0.6610 0.6668
1419.000000 0.6727 0.6799 0.6873 0.6917 0.6977
1414.000000 0.7038 0.7089 0.7141 0.7192 0.7248
1409.000000 0.7307 0.7358 0.7388 0.7417 0.7438
1404.000000 0.7458 0.7475 0.7492 0.7491 0.7498
1399.000000 0.7502 0.7521 0.7535 0.7530 0.7524
1394.000000 0.7519 0.7500 0.7478 0.7453 0.7425
1389.000000 0.7405 0.7359 0.7350 0.7344 0.7338
1384.000000 0.7277 0.7164 0.7052 0.6945 0.6862
1379.000000 0.6773 0.6693 0.6613 0.6530 0.6456
1374.000000 0.6399 0.6342 0.6274 0.6191 0.6108
1369.000000 0.5988 0.5499 0.5165 0.4592 0.4023
1364.000000 0.3747 0.3596 0.3465 0.3346 0.3215
1359.000000 0.3048 0.2892 0.2779 0.2660 0.2527
1354.000000 0.2386 0.2244 0.2104 0.1961 0.1543
1349.000000 0.0965 0.0389 -0.0036 -0.0036 -0.0036
1344.000000 -0.0036 -0.0036 -0.0036 0.0044 0.0423
1339.000000 0.0803 0.1202 0.1194 0.1196 0.1198
1334.000000 0.0985 0.0638 0.0292 -0.0036 -0.0036
1329.000000 -0.0036 -0.0036 0.0110 0.0618 0.1123
1324.000000 0.1630 0.2178 0.2426 0.2529 0.2796
1319.000000 0.3192 0.3590 0.3993 0.4401 0.4801
1314.000000 0.5199 0.5937 0.6071 0.6176 0.6272
1309.000000 0.6366 0.6455 0.6544 0.6636 0.6728
1304.000000 0.6757 0.6818 0.6936 0.6897 0.6922
1299.000000 0.6916 0.6910 0.6887 0.6856 0.6809
1294.000000 0.6741 0.6614 0.6488 0.6380 0.6288
1289.000000 0.6210 0.6131 0.6038 0.5941 0.5843
1284.000000 0.5746 0.5649 0.5553 0.5456 0.5323
1279.000000 0.5190 0.4978 0.4563 0.3993 0.3406
1274.000000 0.2821 0.2236 0.1650 0.1064 0.0478
1269.000000 0.0118 0.0076 0.0071 0.0074 0.0074
1264.000000 0.0509 0.1089 0.1665 0.2244 0.2820
1259.000000 0.3397 0.3974 0.4553 0.5129 0.6356
1254.000000 0.6541 0.6676 0.6784 0.6894 0.6990
1249.000000 0.7084 0.7175 0.7275 0.7389 0.7459
1244.000000 0.7491 0.7544 0.7585 0.7626 0.7667
1239.000000 0.7706 0.7747 0.7762 0.7772 0.7780
1234.000000 0.7782 0.7791 0.7795 0.7786 0.7763
1229.000000 0.7722 0.7673 0.7636 0.7636 0.7636
1224.000000 0.7655 0.7674 0.7698 0.7722 0.7731
1219.000000 0.7731 0.7730 0.7697 0.7660 0.7606
1214.000000 0.7549 0.7459 0.7363 0.7205 0.7036
1209.000000 0.6873 0.6710 0.6566 0.6425 0.6169
1204.000000 0.5872 0.5342 0.4728 0.4114 0.3498
1199.000000 0.2886 0.2263 0.1637 0.1625 0.1621
1194.000000 0.1644 0.1748 0.1868 0.2007 0.2308
1189.000000 0.2878 0.3446 0.4014 0.4582 0.5149
1184.000000 0.6418 0.6583 0.6682 0.6786 0.6917
1179.000000 0.7051 0.7188 0.7312 0.7398 0.7483
1174.000000 0.7565 0.7650 0.7732 0.7816 0.7887
1169.000000 0.7952 0.8017 0.8116 0.8183 0.8241
1164.000000 0.8288 0.8327 0.8352 0.8388 0.8378
1159.000000 0.8384 0.8387 0.8371 0.8355 0.8342
1154.000000 0.8322 0.8299 0.8277 0.8229 0.8184
1149.000000 0.8139 0.8030 0.7903 0.7733 0.7551
1144.000000 0.7364 0.5045 0.2552 0.1129 0.1104
1139.000000 0.1111 0.1189 0.2362 0.3530 0.4712
1134.000000 0.5878 0.6293 0.6364 0.6553 0.6803
1129.000000 0.7042 0.7275 0.7859 0.7772 0.7847
1124.000000 0.7831 0.7795 0.7764 0.7649 0.7455
1119.000000 0.7296 0.7104 0.6942 0.6898 0.6838
1114.000000 0.6700 0.6488 0.6277 0.6065 0.5677
1109.000000 0.5722 0.5697 0.5704 0.5841 0.6106
1104.000000 0.6372 0.6638 0.6903 0.7167 0.7483
1099.000000 0.7893 0.8098 0.8180 0.8252 0.8300
1094.000000 0.8348 0.8397 0.8440 0.8475 0.8512
1089.000000 0.8548 0.8579 0.8611 0.8639 0.8662
1084.000000 0.8685 0.8699 0.8702 0.8704 0.8690
1079.000000 0.8682 0.8660 0.8640 0.8605 0.8573
1074.000000 0.8540 0.8492 0.8407 0.8313 0.8218
1069.000000 0.8097 0.7937 0.6342 0.4174 0.4233
1064.000000 0.4225 0.4219 0.4230 0.4280 0.4378
1059.000000 0.4460 0.4653 0.5406 0.6138 0.6889
1054.000000 0.7322 0.7512 0.7650 0.7736 0.7836
1049.000000 0.7908 0.7972 0.8034 0.8098 0.8161
1044.000000 0.8217 0.8273 0.8338 0.8397 0.8423
1039.000000 0.8429 0.8435 0.8445 0.8456 0.8488
1034.000000 0.8522 0.8556 0.8590 0.8620 0.8612
1029.000000 0.8633 0.8657 0.8679 0.8695 0.8692
1024.000000 0.8708 0.8717 0.8728 0.8738 0.8749
1019.000000 0.8759 0.8770 0.8772 0.8775 0.8777
1014.000000 0.8781 0.8784 0.8786 0.8786 0.8786
1009.000000 0.8781 0.8747 0.8739 0.8733 0.8729
1004.000000 0.8693 0.8691 0.8688 0.8685 0.8682
999.000000 0.8678 0.8671 0.8650 0.8653 0.8656
994.000000 0.8659 0.8663 0.8680 0.8702 0.8709
989.000000 0.8717 0.8725 0.8736 0.8746 0.8757
984.000000 0.8768 0.8774 0.8780 0.8781 0.8782
979.000000 0.8777 0.8773 0.8768 0.8764 0.8756
974.000000 0.8750 0.8739 0.8712 0.8731 0.8731
969.000000 0.8733 0.8734 0.8736 0.8737 0.8738
964.000000 0.8743 0.8748 0.8754 0.8759 0.8766
959.000000 0.8771 0.8774 0.8779 0.8782 0.8785
954.000000 0.8788 0.8792 0.8795 0.8796 0.8796
949.000000 0.8798 0.8799 0.8801 0.8802 0.8803
944.000000 0.8803 0.8801 0.8798 0.8797 0.8795
939.000000 0.8794 0.8785 0.8773 0.8762 0.8752
934.000000 0.8739 0.8717 0.8694 0.8673 0.8651
929.000000 0.8618 0.8583 0.8550 0.8468 0.8366
924.000000 0.3779 0.8001 0.6459 0.3765 0.3765
919.000000 0.4817 0.4826 0.4816 0.3054 0.4807
914.000000 0.3369 0.3051 0.3581 0.5818 0.6712
909.000000 0.7017 0.7524 0.7812 0.7922 0.8041
904.000000 0.8124 0.8143 0.8200 0.8200 0.8182
899.000000 0.8131 0.8095 0.8047 0.7999 0.7954
894.000000 0.7941 0.7902 0.7887 0.7864 0.7825
889.000000 0.7789 0.7618 0.7500 0.7345 0.7057
884.000000 0.6894 0.6762 0.6666 0.6581 0.6498
879.000000 0.6412 0.6324 0.6193 0.6036 0.5887
874.000000 0.5759 0.5577 0.5392 0.5274 0.5141
869.000000 0.4986 0.4871 0.4820 0.4709 0.4587
864.000000 0.4549 0.4503 0.4442 0.4384 0.4332
859.000000 0.4267 0.4193 0.4109 0.4013 0.3954
854.000000 0.3915 0.3868 0.3826 0.3826 0.3887
849.000000 0.4083 0.4273 0.4445 0.4602 0.4757
844.000000 0.4668 0.4581 0.1114 0.2371 0.1073
839.000000 0.1051 0.1176 0.1832 0.2473 0.3115
834.000000 0.3755 0.4382 0.5014 0.5643 0.6277
829.000000 0.6911 0.7287 0.7446 0.7535 0.7603
824.000000 0.7667 0.7712 0.7715 0.7684 0.7669
819.000000 0.7657 0.7658 0.7658 0.7703 0.7725
814.000000 0.7746 0.7767 0.7819 0.7865 0.7890
809.000000 0.7936 0.7949 0.7949 0.7981 0.8031
804.000000 0.8063 0.8093 0.8116 0.8132 0.8149
799.000000 0.8158 0.8167 0.8161 0.8162 0.8158
794.000000 0.8129 0.8114 0.8106 0.8124 0.8093
789.000000 0.8084 0.8077 0.8077 0.8077 0.8077
784.000000 0.8075 0.8050 0.8032 0.8031 0.8015
779.000000 0.8026 0.8026 0.8014 0.8019 0.8021
774.000000 0.8021 0.8005 0.7989 0.7988 0.7984
769.000000 0.7806 0.7062 0.5098 0.5591 0.5085
764.000000 0.5082 0.5089 0.5574 0.6058 0.6544
759.000000 0.7028 0.7694 0.7672 0.7674 0.7657
754.000000 0.7645 0.7628 0.7585 0.7537 0.7471
749.000000 0.7405 0.7335 0.7252 0.3646 0.1739
744.000000 0.1770 0.1767 0.1993 0.2736 0.3480
739.000000 0.4223 0.4966 0.5710 0.6453 0.7006
734.000000 0.7078 0.7120 0.7130 0.7150 0.7182
729.000000 0.7173 0.7140 0.7108 0.7027 0.6950
724.000000 0.6854 0.6749 0.6649 0.6545 0.6430
719.000000 0.6299 0.6163 0.5919 0.4725 0.3530
714.000000 0.2223 0.2204 0.2201 0.2201 0.2211
709.000000 0.2389 0.2894 0.3400 0.3905 0.4103
704.000000 0.4059 0.4087 0.4100 0.4105 0.4112
699.000000 0.4086 0.4062 0.4019 0.3862 0.3899
694.000000 0.3892 0.3890 0.3886 0.3925 0.3984
689.000000 0.4443 0.4141 0.4294 0.4436 0.4444
684.000000 0.4441 0.2147 0.3994 0.2162 0.2170
679.000000 0.2170 0.2329 0.2636 0.2955 0.3264
674.000000 0.3550 0.3846 0.4129 0.4428 0.4754
669.000000 0.5060 0.5278 0.5262 0.5256 0.5348
664.000000 0.5459 0.5591 0.5591 0.5645 0.5679
659.000000 0.5699 0.5686 0.5668 0.5528 0.5580
654.000000 0.5546 0.5557 0.5558 0.5623 0.5748
649.000000 0.5873 0.6259 0.6114 0.6137 0.6128
644.000000 0.6110 0.5561 0.4847 0.3095 0.3422
639.000000 0.3058 0.3048 0.3205 0.4378 0.5543
634.000000 0.6578 0.6738 0.6884 0.6987 0.7113
629.000000 0.7248 0.7363 0.7448 0.7498 0.7576
624.000000 0.7621 0.7635 0.7676 0.7716 0.7759
619.000000 0.7801 0.7851 0.7870 0.7876 0.7902
614.000000 0.7919 0.7927 0.7954 0.7978 0.8003
609.000000 0.8026 0.8053 0.8057 0.8068 0.8092
604.000000 0.8113 0.8135 0.8155 0.8170 0.8186
599.000000 0.8203 0.8220 0.8229 0.8241 0.8249
594.000000 0.8259 0.8273 0.8289 0.8352 0.8397
589.000000 0.8447 0.8505 0.8503 0.8507 0.8513
584.000000 0.8472 0.8384 0.8298 0.8212 0.8126
579.000000 0.8043 0.7859 0.7094 0.7366 0.7135
574.000000 0.7138 0.7133 0.7168 0.7225 0.7319
569.000000 0.7480 0.7638 0.7772 0.7934 0.8086
564.000000 0.8133 0.8162 0.8212 0.8241 0.8254
559.000000 0.8280 0.8309 0.8342 0.8370 0.8365
554.000000 0.8363 0.8373 0.8357 0.8372 0.8418
549.000000 0.8391 0.8394 0.8396 0.8398 0.8400
544.000000 0.8395 0.8383 0.8372 0.8359 0.8348
539.000000 0.8341 0.8344 0.8323 0.8316 0.8275
534.000000 0.8212 0.8178 0.8121 0.8006 0.7915
529.000000 0.7844 0.7772 0.7691 0.7625 0.7556
524.000000 0.7485 0.7414 0.7333 0.7231 0.7081
519.000000 0.7143 0.7116 0.7104 0.7094 0.7093
514.000000 0.7093 0.7093 0.7149 0.7210 0.7270
509.000000 0.7320 0.7370 0.7419 0.7468 0.7519
504.000000 0.7570 0.7613 0.7652 0.7697 0.7720
499.000000 0.7728 0.7732 0.7739 0.7743 0.7749
494.000000 0.7753 0.7758 0.7762 0.7766 0.7771
489.000000 0.7774 0.7779 0.7783 0.7787 0.7787
484.000000 0.7791 0.7791 0.7794 0.7835 0.7795
479.000000 0.7791 0.7787 0.7783 0.7779 0.7769
474.000000 0.7754 0.7737 0.7719 0.7693 0.7665
469.000000 0.7637 0.7611 0.7583 0.7556 0.7515
464.000000 0.7474 0.7435 0.7394 0.7353 0.7312
459.000000 0.7271 0.7227 0.7182 0.7139 0.7095
454.000000 0.7050 0.6994 0.6939 0.6882 0.6827
449.000000 0.6771 0.6719 0.6672 0.6622 0.6575
444.000000 0.6527 0.6480 0.6431 0.6368 0.6302
439.000000 0.6237 0.6172 0.6107 0.6041 0.5974
434.000000 0.5905 0.5802 0.5664 0.5587 0.5514
429.000000 0.5442 0.5369 0.5283 0.5188 0.5093
424.000000 0.4998 0.4904 0.4808 0.4643 0.4479
419.000000 0.4356 0.4250 0.4143 0.4044 0.3947
414.000000 0.3849 0.3716 0.3546 0.3347 0.3215
409.000000 0.3116 0.3032 0.2950 0.2869 0.2783
404.000000 0.2709 0.2676 0.2639 0.2566 0.2461
399.000000 0.2390 0.2367 0.2347 0.2316 0.2256
394.000000 0.2188 0.2132 0.2074 0.2020 0.1968
389.000000 0.1904 0.1847 0.1791 0.1729 0.1645
384.000000 0.1527 0.1385 0.1271 0.1191
##END=
