##TITLE=2,3-BUTANEDIOL
##JCAMP-DX=4.24
##DATA TYPE=INFRARED SPECTRUM
##CLASS=COBLENTZ III
##ORIGIN=DOW CHEMICAL COMPANY
##OWNER=COBLENTZ SOCIETY
Collection (C) 2018 copyright by the U.S. Secretary of Commerce
on behalf of the United States of America. All rights reserved.
##DATE=1963/01/29
##CAS REGISTRY NO=513-85-9
##MOLFORM=C4 H10 O2
##SOURCE REFERENCE=COBLENTZ NO. 10152
##$NIST SOURCE=COBLENTZ
##$NIST IMAGE=cob10152
##SPECTROMETER/DATA SYSTEM=DOW KBr FOREPRISM-GRATING
##INSTRUMENT PARAMETERS=BLAZED AT 3.5, 12.0, 20.0 MICRON, CHANGED AT 5.0, 7.5, 14.9 MICRON
##STATE=LIQUID (NEAT)
##PATH LENGTH=CAPILLARY
$$SPECTRAL CONTAMINATION DUE TO H2O AROUND 1650 CM^-^1
##SAMPLING PROCEDURE=TRANSMISSION
##RESOLUTION=4
##DATA PROCESSING=DIGITIZED BY NIST FROM HARD COPY (FROM TWO SEGMENTS)
##XUNITS=1/CM
##YUNITS=TRANSMITTANCE
##XFACTOR=1.000000
##YFACTOR=1
##DELTAX=0.870574
##FIRSTX=379.861
##LASTX=3799.48
##FIRSTY=0.647
##MAXX=3799.48
##MINX=379.861
##MAXY=1.065
##MINY=0.01
##NPOINTS=3929
##XYDATA=(X++(Y..Y))
379.861000 0.6470 0.6470 0.6460 0.6460 0.6460
384.213872 0.6440 0.6430 0.6430 0.6430 0.6430
388.566744 0.6430 0.6420 0.6420 0.6420 0.6420
392.919617 0.6420 0.6420 0.6420 0.6420 0.6420
397.272489 0.6400 0.6390 0.6390 0.6390 0.6390
401.625361 0.6380 0.6380 0.6380 0.6380 0.6360
405.978233 0.6360 0.6360 0.6360 0.6350 0.6350
410.331106 0.6350 0.6340 0.6320 0.6310 0.6290
414.683978 0.6280 0.6250 0.6230 0.6210 0.6200
419.036850 0.6190 0.6170 0.6140 0.6120 0.6060
423.389722 0.6040 0.6000 0.5980 0.5950 0.5900
427.742594 0.5850 0.5790 0.5720 0.5650 0.5600
432.095467 0.5530 0.5510 0.5480 0.5420 0.5380
436.448339 0.5360 0.5330 0.5310 0.5260 0.5230
440.801211 0.5220 0.5220 0.5220 0.5220 0.5230
445.154083 0.5260 0.5270 0.5340 0.5380 0.5420
449.506956 0.5510 0.5550 0.5570 0.5610 0.5650
453.859828 0.5680 0.5720 0.5740 0.5750 0.5760
458.212700 0.5780 0.5790 0.5800 0.5800 0.5820
462.565572 0.5820 0.5820 0.5820 0.5800 0.5790
466.918445 0.5790 0.5780 0.5780 0.5780 0.5790
471.271317 0.5790 0.5790 0.5790 0.5790 0.5790
475.624189 0.5790 0.5790 0.5790 0.5790 0.5790
479.977061 0.5780 0.5780 0.5780 0.5780 0.5780
484.329933 0.5780 0.5760 0.5760 0.5750 0.5740
488.682806 0.5720 0.5700 0.5670 0.5640 0.5610
493.035678 0.5590 0.5560 0.5520 0.5510 0.5490
497.388550 0.5460 0.5440 0.5410 0.5370 0.5340
501.741422 0.5310 0.5300 0.5270 0.5250 0.5220
506.094295 0.5190 0.5170 0.5140 0.5120 0.5080
510.447167 0.5060 0.5020 0.4970 0.4930 0.4890
514.800039 0.4850 0.4800 0.4760 0.4700 0.4660
519.152911 0.4610 0.4550 0.4500 0.4440 0.4420
523.505783 0.4400 0.4400 0.4400 0.4420 0.4460
527.858656 0.4470 0.4530 0.4540 0.4570 0.4620
532.211528 0.4650 0.4680 0.4690 0.4740 0.4760
536.564400 0.4760 0.4770 0.4770 0.4780 0.4770
540.917272 0.4740 0.4730 0.4720 0.4690 0.4660
545.270145 0.4630 0.4620 0.4610 0.4610 0.4610
549.623017 0.4630 0.4660 0.4680 0.4700 0.4700
553.975889 0.4700 0.4720 0.4720 0.4720 0.4700
558.328761 0.4700 0.4700 0.4690 0.4690 0.4680
562.681634 0.4680 0.4660 0.4660 0.4650 0.4630
567.034506 0.4630 0.4620 0.4610 0.4610 0.4590
571.387378 0.4580 0.4570 0.4550 0.4550 0.4540
575.740250 0.4540 0.4540 0.4540 0.4530 0.4530
580.093122 0.4500 0.4480 0.4480 0.4480 0.4480
584.445995 0.4500 0.4500 0.4530 0.4530 0.4500
588.798867 0.4470 0.4440 0.4400 0.4380 0.4380
593.151739 0.4380 0.4360 0.4350 0.4350 0.4340
597.504611 0.4340 0.4320 0.4320 0.4310 0.4310
601.857484 0.4290 0.4290 0.4280 0.4280 0.4280
606.210356 0.4280 0.4280 0.4280 0.4270 0.4240
610.563228 0.4240 0.4210 0.4200 0.4200 0.4190
614.916100 0.4170 0.4170 0.4160 0.4160 0.4160
619.268972 0.4140 0.4130 0.4130 0.4120 0.4120
623.621845 0.4100 0.4090 0.4080 0.4060 0.4050
627.974717 0.4020 0.3980 0.3950 0.3910 0.3870
632.327589 0.3850 0.3820 0.3800 0.3760 0.3720
636.680461 0.3680 0.3630 0.3590 0.3560 0.3530
641.033334 0.3520 0.3510 0.3510 0.3520 0.3520
645.386206 0.3550 0.3570 0.3590 0.3600 0.3630
649.739078 0.3640 0.3650 0.3700 0.3720 0.3750
654.091950 0.3780 0.3800 0.3830 0.3860 0.3890
658.444822 0.3910 0.3930 0.3950 0.3970 0.4000
662.797695 0.4010 0.4010 0.4020 0.4040 0.4050
667.150567 0.4060 0.4060 0.4090 0.4120 0.4140
671.503439 0.4190 0.4200 0.4230 0.4240 0.4250
675.856311 0.4250 0.4270 0.4280 0.4290 0.4320
680.209184 0.4340 0.4350 0.4360 0.4380 0.4380
684.562056 0.4420 0.4430 0.4460 0.4480 0.4510
688.914928 0.4530 0.4540 0.4570 0.4580 0.4610
693.267800 0.4620 0.4630 0.4660 0.4680 0.4690
697.620673 0.4720 0.4730 0.4740 0.4760 0.4780
701.973545 0.4800 0.4810 0.4820 0.4840 0.4850
706.326417 0.4880 0.4890 0.4910 0.4920 0.4950
710.679289 0.4960 0.4970 0.5000 0.5020 0.5030
715.032161 0.5070 0.5080 0.5110 0.5140 0.5150
719.385034 0.5170 0.5190 0.5210 0.5230 0.5250
723.737906 0.5270 0.5300 0.5330 0.5360 0.5370
728.090778 0.5400 0.5440 0.5460 0.5520 0.5550
732.443650 0.5590 0.5590 0.5610 0.5640 0.5670
736.796523 0.5680 0.5710 0.5740 0.5760 0.5790
741.149395 0.5830 0.5850 0.5890 0.5900 0.5910
745.502267 0.5970 0.5980 0.6000 0.6040 0.6080
749.855139 0.6100 0.6120 0.6140 0.6160 0.6170
754.208011 0.6200 0.6230 0.6240 0.6240 0.6270
758.560884 0.6280 0.6280 0.6270 0.6270 0.6250
762.913756 0.6250 0.6240 0.6200 0.6170 0.6170
767.266628 0.6120 0.6050 0.5950 0.5850 0.5741
771.619500 0.5640 0.5550 0.5520 0.5480 0.5440
775.972373 0.5420 0.5360 0.5340 0.5360 0.5589
780.325245 0.5750 0.5860 0.5970 0.6100 0.6250
784.678117 0.6400 0.6540 0.6680 0.6780 0.6870
789.030989 0.6990 0.7080 0.7170 0.7220 0.7270
793.383861 0.7310 0.7340 0.7370 0.7410 0.7440
797.736734 0.7490 0.7530 0.7610 0.7670 0.7710
802.089606 0.7740 0.7760 0.7790 0.7820 0.7820
806.442478 0.7830 0.7830 0.7830 0.7820 0.7790
810.795350 0.7760 0.7720 0.7700 0.7670 0.7650
815.148223 0.7640 0.7630 0.7640 0.7710 0.7790
819.501095 0.7870 0.7930 0.7980 0.8080 0.8160
823.853967 0.8240 0.8290 0.8340 0.8340 0.8360
828.206839 0.8440 0.8480 0.8480 0.8540 0.8540
832.559712 0.8550 0.8550 0.8580 0.8610 0.8620
836.912584 0.8630 0.8650 0.8660 0.8690 0.8700
841.265456 0.8730 0.8760 0.8770 0.8780 0.8820
845.618328 0.8870 0.8870 0.8880 0.8890 0.8910
849.971200 0.8930 0.8930 0.8950 0.8960 0.8960
854.324073 0.8960 0.8960 0.8960 0.8930 0.8930
858.676945 0.8920 0.8890 0.8890 0.8880 0.8880
863.029817 0.8880 0.8870 0.8840 0.8800 0.8720
867.382689 0.8650 0.8620 0.8590 0.8500 0.8350
871.735562 0.8190 0.8021 0.7821 0.7601 0.7331
876.088434 0.7020 0.6630 0.6160 0.5611 0.5061
880.441306 0.3863 0.3302 0.2812 0.2431 0.2131
884.794178 0.1870 0.1630 0.1360 0.1310 0.1310
889.147050 0.1340 0.1440 0.1639 0.1849 0.1890
893.499923 0.2270 0.2880 0.3379 0.3849 0.4159
897.852795 0.5526 0.6088 0.6578 0.6968 0.7308
902.205667 0.7560 0.7740 0.7850 0.7970 0.8090
906.558539 0.8170 0.8290 0.8310 0.8350 0.8350
910.911412 0.8320 0.8290 0.8280 0.8240 0.8140
915.264284 0.8060 0.7930 0.7820 0.7611 0.7361
919.617156 0.7110 0.6310 0.6120 0.5741 0.5610
923.970028 0.5490 0.4633 0.4062 0.3711 0.3451
928.322901 0.3250 0.2970 0.2950 0.2950 0.3000
932.675773 0.3359 0.3749 0.4129 0.4498 0.4878
937.028645 0.5600 0.5970 0.6610 0.7070 0.7340
941.381517 0.7570 0.7779 0.7940 0.8169 0.8319
945.734389 0.8470 0.8610 0.8680 0.8730 0.8760
950.087262 0.8800 0.8820 0.8840 0.8890 0.8910
954.440134 0.8910 0.8890 0.8880 0.8820 0.8800
958.793006 0.8730 0.8650 0.8461 0.8360 0.8310
963.145878 0.8290 0.8250 0.8240 0.8240 0.8230
967.498751 0.8170 0.8060 0.7901 0.7671 0.7401
971.851623 0.7230 0.6970 0.6610 0.6590 0.6590
976.204495 0.6590 0.6590 0.6590 0.6590 0.6570
980.557367 0.6270 0.6010 0.5610 0.5191 0.4761
984.910239 0.4291 0.3891 0.3651 0.3271 0.2474
989.263112 0.2050 0.1890 0.1860 0.1850 0.1860
993.615984 0.1910 0.1980 0.2119 0.2160 0.2200
997.968856 0.2200 0.2140 0.2020 0.1890 0.1680
1002.321728 0.1600 0.1490 0.1440 0.1440 0.1460
1006.674601 0.1550 0.1600 0.1680 0.1940 0.2170
1011.027473 0.2549 0.2660 0.2929 0.3627 0.3909
1015.380345 0.4270 0.4760 0.5040 0.5290 0.5799
1019.733217 0.6010 0.6160 0.6200 0.6280 0.6320
1024.086089 0.6340 0.6340 0.6320 0.6290 0.6250
1028.438962 0.6170 0.6050 0.5891 0.5741 0.5561
1032.791834 0.5450 0.5340 0.5150 0.4950 0.4760
1037.144706 0.4551 0.4291 0.4021 0.3682 0.3362
1041.497578 0.3030 0.2780 0.2620 0.2420 0.2200
1045.850451 0.1980 0.1761 0.1561 0.1371 0.1181
1050.203323 0.1030 0.0960 0.0880 0.0810 0.0760
1054.556195 0.0730 0.0700 0.0690 0.0680 0.0680
1058.909067 0.0680 0.0680 0.0690 0.0730 0.0770
1063.261940 0.0800 0.0840 0.0880 0.0890 0.0920
1067.614812 0.0950 0.0960 0.0950 0.0930 0.0910
1071.967684 0.0890 0.0870 0.0820 0.0780 0.0770
1076.320556 0.0760 0.0730 0.0730 0.0720 0.0720
1080.673428 0.0720 0.0720 0.0730 0.0730 0.0740
1085.026301 0.0760 0.0770 0.0780 0.0800 0.0810
1089.379173 0.0850 0.0870 0.0920 0.0950 0.1000
1093.732045 0.1030 0.1070 0.1110 0.1170 0.1210
1098.084917 0.1270 0.1340 0.1410 0.1490 0.1570
1102.437790 0.1590 0.1680 0.1760 0.1800 0.1830
1106.790662 0.1830 0.1830 0.1830 0.1820 0.1790
1111.143534 0.1750 0.1700 0.1640 0.1610 0.1570
1115.496406 0.1560 0.1560 0.1560 0.1570 0.1600
1119.849278 0.1610 0.1710 0.1860 0.1980 0.2100
1124.202151 0.2389 0.2579 0.2809 0.3109 0.3458
1128.555023 0.3850 0.4250 0.4650 0.5019 0.5180
1132.907895 0.5519 0.5640 0.5740 0.5760 0.5780
1137.260767 0.5780 0.5780 0.5760 0.5610 0.5520
1141.613640 0.5420 0.5340 0.5181 0.4991 0.4821
1145.966512 0.4610 0.4360 0.4100 0.3910 0.3790
1150.319384 0.3710 0.3670 0.3630 0.3600 0.3590
1154.672256 0.3570 0.3560 0.3550 0.3550 0.3530
1159.025129 0.3530 0.3530 0.3530 0.3530 0.3550
1163.378001 0.3560 0.3590 0.3700 0.3750 0.3950
1167.730873 0.4100 0.4240 0.4499 0.4659 0.5118
1172.083745 0.5600 0.5760 0.6000 0.6279 0.6569
1176.436617 0.6759 0.6929 0.7099 0.7219 0.7409
1180.789490 0.7590 0.7610 0.7720 0.7760 0.7860
1185.142362 0.7910 0.7940 0.7970 0.8010 0.8040
1189.495234 0.8090 0.8100 0.8120 0.8120 0.8130
1193.848106 0.8140 0.8140 0.8140 0.8130 0.8130
1198.200979 0.8130 0.8130 0.8100 0.8100 0.8100
1202.553851 0.8090 0.8060 0.8040 0.8040 0.8020
1206.906723 0.7950 0.7930 0.7930 0.7910 0.7860
1211.259595 0.7820 0.7790 0.7780 0.7740 0.7670
1215.612467 0.7640 0.7630 0.7590 0.7560 0.7490
1219.965340 0.7420 0.7380 0.7310 0.7260 0.7230
1224.318212 0.7150 0.7080 0.7040 0.6960 0.6890
1228.671084 0.6840 0.6690 0.6580 0.6470 0.6420
1233.023956 0.6310 0.6190 0.6050 0.5980 0.5860
1237.376829 0.5760 0.5670 0.5550 0.5421 0.5301
1241.729701 0.5140 0.5080 0.5000 0.4910 0.4800
1246.082573 0.4760 0.4660 0.4590 0.4471 0.4400
1250.435445 0.4240 0.4130 0.4080 0.4010 0.3950
1254.788317 0.3860 0.3780 0.3710 0.3680 0.3650
1259.141190 0.3590 0.3530 0.3520 0.3460 0.3450
1263.494062 0.3440 0.3420 0.3420 0.3420 0.3420
1267.846934 0.3420 0.3420 0.3420 0.3420 0.3420
1272.199806 0.3420 0.3420 0.3420 0.3420 0.3420
1276.552679 0.3420 0.3440 0.3440 0.3440 0.3440
1280.905551 0.3440 0.3440 0.3440 0.3440 0.3440
1285.258423 0.3440 0.3440 0.3440 0.3440 0.3450
1289.611295 0.3450 0.3460 0.3460 0.3460 0.3480
1293.964168 0.3490 0.3510 0.3510 0.3520 0.3530
1298.317040 0.3530 0.3550 0.3570 0.3610 0.3640
1302.669912 0.3640 0.3680 0.3700 0.3720 0.3800
1307.022784 0.3830 0.3870 0.3910 0.3930 0.3980
1311.375656 0.4020 0.4100 0.4120 0.4140 0.4160
1315.728529 0.4160 0.4160 0.4160 0.4140 0.4120
1320.081401 0.4090 0.4050 0.4010 0.3970 0.3940
1324.434273 0.3930 0.3930 0.3930 0.3930 0.3940
1328.787145 0.3940 0.3970 0.4010 0.4040 0.4080
1333.140018 0.4160 0.4170 0.4190 0.4200 0.4210
1337.492890 0.4240 0.4280 0.4310 0.4320 0.4340
1341.845762 0.4350 0.4350 0.4360 0.4360 0.4380
1346.198634 0.4390 0.4400 0.4440 0.4470 0.4500
1350.551506 0.4530 0.4570 0.4650 0.4660 0.4690
1354.904379 0.4740 0.4740 0.4730 0.4700 0.4700
1359.257251 0.4660 0.4570 0.4440 0.4251 0.4160
1363.610123 0.3980 0.3740 0.3560 0.3340 0.3110
1367.962995 0.2891 0.2661 0.2441 0.2201 0.1951
1372.315868 0.1820 0.1740 0.1720 0.1710 0.1720
1376.668740 0.1750 0.1760 0.1820 0.1860 0.1999
1381.021612 0.2130 0.2290 0.2400 0.2540 0.2680
1385.374484 0.2820 0.2920 0.2970 0.3070 0.3100
1389.727356 0.3190 0.3230 0.3250 0.3250 0.3230
1394.080229 0.3220 0.3210 0.3190 0.3180 0.3170
1398.433101 0.3150 0.3140 0.3140 0.3120 0.3110
1402.785973 0.3100 0.3100 0.3100 0.3080 0.3080
1407.138845 0.3080 0.3080 0.3100 0.3100 0.3110
1411.491718 0.3110 0.3120 0.3140 0.3150 0.3180
1415.844590 0.3190 0.3220 0.3250 0.3260 0.3270
1420.197462 0.3300 0.3340 0.3370 0.3410 0.3440
1424.550334 0.3460 0.3510 0.3530 0.3570 0.3600
1428.903207 0.3630 0.3670 0.3700 0.3740 0.3760
1433.256079 0.3790 0.3800 0.3820 0.3850 0.3850
1437.608951 0.3860 0.3860 0.3820 0.3790 0.3740
1441.961823 0.3680 0.3610 0.3550 0.3460 0.3370
1446.314695 0.3270 0.3180 0.3080 0.2961 0.2841
1450.667568 0.2770 0.2650 0.2570 0.2540 0.2530
1455.020440 0.2530 0.2540 0.2550 0.2590 0.2660
1459.373312 0.2730 0.2800 0.2880 0.2960 0.3060
1463.726184 0.3150 0.3260 0.3380 0.3649 0.3789
1468.079057 0.3950 0.4140 0.4440 0.4630 0.4989
1472.431929 0.5060 0.5229 0.5549 0.5759 0.5949
1476.784801 0.6130 0.6240 0.6360 0.6649 0.6770
1481.137673 0.6959 0.7070 0.7150 0.7250 0.7399
1485.490545 0.7460 0.7560 0.7630 0.7720 0.7780
1489.843418 0.7910 0.8040 0.8130 0.8160 0.8210
1494.196290 0.8290 0.8320 0.8360 0.8400 0.8460
1498.549162 0.8470 0.8530 0.8610 0.8650 0.8680
1502.902034 0.8700 0.8730 0.8760 0.8760 0.8780
1507.254907 0.8800 0.8850 0.8880 0.8920 0.8950
1511.607779 0.8990 0.9000 0.9020 0.9040 0.9070
1515.960651 0.9100 0.9110 0.9110 0.9110 0.9120
1520.313523 0.9140 0.9170 0.9190 0.9220 0.9230
1524.666396 0.9250 0.9260 0.9290 0.9300 0.9310
1529.019268 0.9330 0.9340 0.9370 0.9380 0.9380
1533.372140 0.9410 0.9410 0.9440 0.9440 0.9450
1537.725012 0.9450 0.9450 0.9450 0.9460 0.9490
1542.077884 0.9510 0.9530 0.9530 0.9530 0.9530
1546.430757 0.9550 0.9560 0.9560 0.9590 0.9590
1550.783629 0.9600 0.9600 0.9600 0.9600 0.9600
1555.136501 0.9600 0.9590 0.9590 0.9570 0.9560
1559.489373 0.9560 0.9570 0.9600 0.9610 0.9630
1563.842246 0.9640 0.9640 0.9650 0.9650 0.9640
1568.195118 0.9640 0.9640 0.9640 0.9650 0.9650
1572.547990 0.9650 0.9650 0.9650 0.9640 0.9640
1576.900862 0.9640 0.9650 0.9670 0.9670 0.9670
1581.253734 0.9670 0.9650 0.9650 0.9640 0.9640
1585.606607 0.9640 0.9640 0.9640 0.9640 0.9630
1589.959479 0.9610 0.9610 0.9600 0.9600 0.9590
1594.312351 0.9590 0.9570 0.9570 0.9560 0.9560
1598.665223 0.9560 0.9550 0.9520 0.9490 0.9480
1603.018096 0.9450 0.9440 0.9420 0.9410 0.9400
1607.370968 0.9380 0.9370 0.9340 0.9310 0.9300
1611.723840 0.9250 0.9230 0.9220 0.9210 0.9140
1616.076712 0.9100 0.9080 0.9060 0.9030 0.8950
1620.429584 0.8890 0.8870 0.8850 0.8820 0.8800
1624.782457 0.8780 0.8760 0.8730 0.8700 0.8680
1629.135329 0.8660 0.8610 0.8590 0.8540 0.8530
1633.488201 0.8480 0.8460 0.8440 0.8400 0.8390
1637.841073 0.8380 0.8360 0.8320 0.8290 0.8280
1642.193946 0.8270 0.8250 0.8240 0.8230 0.8210
1646.546818 0.8190 0.8170 0.8170 0.8160 0.8130
1650.899690 0.8120 0.8100 0.8100 0.8100 0.8120
1655.252562 0.8130 0.8130 0.8140 0.8140 0.8160
1659.605435 0.8170 0.8190 0.8210 0.8210 0.8240
1663.958307 0.8270 0.8290 0.8310 0.8320 0.8350
1668.311179 0.8400 0.8420 0.8460 0.8500 0.8530
1672.664051 0.8540 0.8590 0.8620 0.8660 0.8700
1677.016923 0.8730 0.8770 0.8780 0.8870 0.8910
1681.369796 0.8930 0.8950 0.8990 0.9030 0.9110
1685.722668 0.9140 0.9170 0.9220 0.9260 0.9270
1690.075540 0.9330 0.9370 0.9410 0.9420 0.9440
1694.428412 0.9450 0.9480 0.9510 0.9550 0.9560
1698.781285 0.9590 0.9590 0.9600 0.9630 0.9670
1703.134157 0.9670 0.9680 0.9700 0.9710 0.9740
1707.487029 0.9750 0.9760 0.9780 0.9790 0.9790
1711.839901 0.9800 0.9820 0.9830 0.9850 0.9860
1716.192773 0.9890 0.9910 0.9950 0.9970 0.9980
1720.545646 0.9980 1.0010 1.0020 1.0050 1.0060
1724.898518 1.0080 1.0080 1.0100 1.0100 1.0120
1729.251390 1.0130 1.0140 1.0160 1.0160 1.0190
1733.604262 1.0190 1.0200 1.0200 1.0200 1.0210
1737.957135 1.0230 1.0230 1.0240 1.0240 1.0240
1742.310007 1.0250 1.0250 1.0250 1.0270 1.0270
1746.662879 1.0270 1.0270 1.0280 1.0280 1.0280
1751.015751 1.0280 1.0290 1.0290 1.0290 1.0290
1755.368624 1.0280 1.0280 1.0280 1.0280 1.0290
1759.721496 1.0290 1.0290 1.0290 1.0290 1.0290
1764.074368 1.0290 1.0290 1.0290 1.0290 1.0310
1768.427240 1.0310 1.0310 1.0310 1.0320 1.0320
1772.780112 1.0320 1.0340 1.0340 1.0350 1.0360
1777.132985 1.0380 1.0380 1.0380 1.0380 1.0390
1781.485857 1.0400 1.0400 1.0400 1.0400 1.0400
1785.838729 1.0420 1.0420 1.0430 1.0440 1.0440
1790.191601 1.0440 1.0440 1.0440 1.0440 1.0440
1794.544474 1.0440 1.0440 1.0440 1.0440 1.0440
1798.897346 1.0460 1.0460 1.0460 1.0440 1.0440
1803.250218 1.0430 1.0430 1.0430 1.0420 1.0420
1807.603090 1.0420 1.0420 1.0400 1.0400 1.0390
1811.955962 1.0390 1.0380 1.0380 1.0390 1.0390
1816.308835 1.0400 1.0400 1.0400 1.0400 1.0400
1820.661707 1.0420 1.0420 1.0430 1.0430 1.0440
1825.014579 1.0440 1.0460 1.0460 1.0460 1.0470
1829.367451 1.0470 1.0470 1.0480 1.0480 1.0480
1833.720324 1.0480 1.0480 1.0480 1.0480 1.0480
1838.073196 1.0480 1.0480 1.0470 1.0470 1.0470
1842.426068 1.0480 1.0480 1.0480 1.0480 1.0480
1846.778940 1.0470 1.0470 1.0470 1.0470 1.0460
1851.131812 1.0460 1.0460 1.0460 1.0460 1.0460
1855.484685 1.0460 1.0460 1.0460 1.0460 1.0440
1859.837557 1.0440 1.0440 1.0440 1.0430 1.0430
1864.190429 1.0420 1.0400 1.0400 1.0400 1.0400
1868.543301 1.0400 1.0400 1.0390 1.0390 1.0380
1872.896174 1.0380 1.0380 1.0360 1.0360 1.0360
1877.249046 1.0380 1.0380 1.0380 1.0380 1.0380
1881.601918 1.0380 1.0380 1.0380 1.0380 1.0380
1885.954790 1.0390 1.0390 1.0390 1.0380 1.0380
1890.307663 1.0390 1.0400 1.0400 1.0400 1.0420
1894.660535 1.0420 1.0400 1.0400 1.0420 1.0430
1899.013407 1.0460 1.0460 1.0460 1.0460 1.0440
1903.366279 1.0440 1.0440 1.0430 1.0430 1.0460
1907.719151 1.0460 1.0460 1.0460 1.0460 1.0440
1912.072024 1.0440 1.0440 1.0440 1.0430 1.0430
1916.424896 1.0430 1.0440 1.0460 1.0440 1.0430
1920.777768 1.0420 1.0400 1.0400 1.0400 1.0400
1925.130640 1.0420 1.0400 1.0400 1.0400 1.0400
1929.483513 1.0390 1.0400 1.0390 1.0390 1.0390
1933.836385 1.0390 1.0380 1.0380 1.0380 1.0390
1938.189257 1.0390 1.0390 1.0400 1.0420 1.0420
1942.542129 1.0420 1.0430 1.0430 1.0430 1.0440
1946.895001 1.0440 1.0460 1.0470 1.0580 1.0650
1951.247874 1.0650 1.0441 1.0440 1.0460 1.0470
1955.600746 1.0470 1.0480 1.0480 1.0500 1.0500
1959.953618 1.0480 1.0470 1.0470 1.0470 1.0440
1964.306490 1.0380 1.0360 1.0350 1.0350 1.0340
1968.659363 1.0340 1.0340 1.0320 1.0320 1.0310
1973.012235 1.0310 1.0290 1.0280 1.0270 1.0250
1977.365107 1.0250 1.0250 1.0240 1.0240 1.0230
1981.717979 1.0230 1.0230 1.0230 1.0230 1.0210
1986.070852 1.0210 1.0200 1.0200 1.0200 1.0200
1990.423724 1.0200 1.0190 1.0190 1.0190 1.0190
1994.776596 1.0190 1.0190 1.0190 1.0190 1.0190
1999.129468 1.0190 1.0190 1.0190 1.0190 1.0190
2003.482340 1.0190 1.0190 1.0190 1.0190 1.0190
2007.835213 1.0190 1.0190 1.0190 1.0190 1.0195
2012.188085 1.0200 1.0200 1.0200 1.0200 1.0200
2016.540957 1.0200 1.0200 1.0200 1.0200 1.0200
2020.893829 1.0200 1.0200 1.0200 1.0200 1.0200
2025.246702 1.0200 1.0200 1.0200 1.0200 1.0200
2029.599574 1.0200 1.0200 1.0200 1.0195 1.0190
2033.952446 1.0180 1.0170 1.0165 1.0160 1.0150
2038.305318 1.0140 1.0135 1.0130 1.0130 1.0130
2042.658190 1.0130 1.0130 1.0130 1.0130 1.0130
2047.011063 1.0130 1.0135 1.0140 1.0140 1.0140
2051.363935 1.0135 1.0130 1.0130 1.0130 1.0130
2055.716807 1.0130 1.0130 1.0130 1.0130 1.0130
2060.069679 1.0130 1.0130 1.0125 1.0120 1.0125
2064.422552 1.0130 1.0130 1.0130 1.0130 1.0130
2068.775424 1.0130 1.0130 1.0125 1.0120 1.0120
2073.128296 1.0120 1.0120 1.0120 1.0120 1.0120
2077.481168 1.0120 1.0120 1.0120 1.0119 1.0109
2081.834040 1.0100 1.0100 1.0100 1.0100 1.0100
2086.186913 1.0100 1.0100 1.0100 1.0099 1.0094
2090.539785 1.0090 1.0090 1.0090 1.0090 1.0090
2094.892657 1.0090 1.0090 1.0090 1.0090 1.0090
2099.245529 1.0090 1.0090 1.0089 1.0084 1.0080
2103.598402 1.0080 1.0080 1.0080 1.0079 1.0069
2107.951274 1.0060 1.0060 1.0060 1.0060 1.0060
2112.304146 1.0060 1.0060 1.0060 1.0059 1.0054
2116.657018 1.0050 1.0050 1.0050 1.0050 1.0049
2121.009891 1.0044 1.0040 1.0040 1.0040 1.0040
2125.362763 1.0038 1.0028 1.0020 1.0020 1.0020
2129.715635 1.0020 1.0022 1.0032 1.0040 1.0040
2134.068507 1.0038 1.0028 1.0020 1.0020 1.0019
2138.421379 1.0014 1.0010 1.0010 1.0009 1.0004
2142.774252 1.0000 1.0000 1.0000 1.0000 1.0000
2147.127124 1.0000 1.0000 1.0000 0.9998 0.9988
2151.479996 0.9980 0.9980 0.9980 0.9980 0.9980
2155.832868 0.9980 0.9980 0.9980 0.9980 0.9980
2160.185741 0.9980 0.9980 0.9980 0.9980 0.9982
2164.538613 0.9992 1.0000 1.0000 1.0001 1.0006
2168.891485 1.0010 1.0010 1.0010 1.0010 1.0010
2173.244357 1.0010 1.0010 1.0010 1.0010 1.0010
2177.597229 1.0010 1.0010 1.0009 1.0004 1.0001
2181.950102 1.0006 1.0011 1.0016 1.0020 1.0020
2186.302974 1.0019 1.0014 1.0010 1.0010 1.0010
2190.655846 1.0010 1.0010 1.0010 1.0010 1.0010
2195.008718 1.0011 1.0016 1.0020 1.0020 1.0023
2199.361591 1.0033 1.0040 1.0040 1.0041 1.0046
2203.714463 1.0050 1.0050 1.0050 1.0050 1.0051
2208.067335 1.0056 1.0060 1.0060 1.0063 1.0073
2212.420207 1.0080 1.0080 1.0080 1.0080 1.0080
2216.773079 1.0080 1.0080 1.0080 1.0077 1.0067
2221.125952 1.0060 1.0060 1.0060 1.0060 1.0060
2225.478824 1.0060 1.0059 1.0054 1.0050 1.0050
2229.831696 1.0050 1.0050 1.0052 1.0056 1.0060
2234.184568 1.0060 1.0063 1.0073 1.0082 1.0087
2238.537441 1.0090 1.0090 1.0089 1.0084 1.0080
2242.890313 1.0080 1.0080 1.0080 1.0082 1.0087
2247.243185 1.0092 1.0097 1.0100 1.0100 1.0098
2251.596057 1.0093 1.0090 1.0090 1.0088 1.0083
2255.948930 1.0080 1.0080 1.0080 1.0080 1.0077
2260.301802 1.0067 1.0060 1.0060 1.0060 1.0060
2264.654674 1.0064 1.0074 1.0082 1.0087 1.0090
2269.007546 1.0090 1.0092 1.0097 1.0100 1.0100
2273.360418 1.0104 1.0114 1.0120 1.0120 1.0122
2277.713291 1.0127 1.0130 1.0130 1.0130 1.0130
2282.066163 1.0130 1.0130 1.0132 1.0137 1.0140
2286.419035 1.0140 1.0140 1.0140 1.0138 1.0133
2290.771907 1.0130 1.0130 1.0130 1.0130 1.0130
2295.124780 1.0130 1.0130 1.0130 1.0128 1.0123
2299.477652 1.0116 1.0106 1.0100 1.0100 1.0100
2303.830524 1.0100 1.0098 1.0093 1.0090 1.0090
2308.183396 1.0088 1.0083 1.0076 1.0066 1.0060
2312.536268 1.0060 1.0058 1.0053 1.0050 1.0050
2316.889141 1.0044 1.0029 1.0020 1.0020 1.0018
2321.242013 1.0013 1.0010 1.0010 1.0008 1.0003
2325.594885 0.9996 0.9986 0.9980 0.9980 0.9978
2329.947757 0.9973 0.9970 0.9970 0.9966 0.9956
2334.300630 0.9948 0.9943 0.9940 0.9940 0.9938
2338.653502 0.9933 0.9930 0.9930 0.9930 0.9930
2343.006374 0.9930 0.9930 0.9930 0.9930 0.9932
2347.359246 0.9937 0.9940 0.9940 0.9940 0.9940
2351.712119 0.9938 0.9933 0.9930 0.9930 0.9925
2356.064991 0.9915 0.9908 0.9903 0.9891 0.9871
2360.417863 0.9853 0.9838 0.9828 0.9823 0.9820
2364.770735 0.9820 0.9815 0.9805 0.9800 0.9800
2369.123607 0.9805 0.9815 0.9822 0.9827 0.9837
2373.476480 0.9852 0.9862 0.9867 0.9870 0.9870
2377.829352 0.9875 0.9885 0.9890 0.9890 0.9892
2382.182224 0.9898 0.9903 0.9908 0.9910 0.9910
2386.535096 0.9910 0.9910 0.9910 0.9910 0.9907
2390.887969 0.9902 0.9897 0.9892 0.9890 0.9890
2395.240841 0.9893 0.9898 0.9897 0.9892 0.9890
2399.593713 0.9890 0.9890 0.9890 0.9890 0.9890
2403.946585 0.9885 0.9875 0.9870 0.9870 0.9870
2408.299457 0.9870 0.9870 0.9870 0.9870 0.9870
2412.652330 0.9870 0.9870 0.9870 0.9870 0.9867
2417.005202 0.9862 0.9860 0.9860 0.9860 0.9860
2421.358074 0.9860 0.9860 0.9860 0.9860 0.9860
2425.710946 0.9860 0.9860 0.9860 0.9860 0.9860
2430.063819 0.9863 0.9868 0.9870 0.9870 0.9867
2434.416691 0.9862 0.9860 0.9860 0.9860 0.9860
2438.769563 0.9860 0.9860 0.9860 0.9860 0.9860
2443.122435 0.9860 0.9860 0.9860 0.9857 0.9852
2447.475307 0.9850 0.9850 0.9844 0.9834 0.9827
2451.828180 0.9822 0.9814 0.9804 0.9797 0.9792
2456.181052 0.9790 0.9790 0.9790 0.9790 0.9787
2460.533924 0.9782 0.9774 0.9764 0.9760 0.9760
2464.886796 0.9757 0.9752 0.9741 0.9726 0.9720
2469.239669 0.9720 0.9714 0.9704 0.9694 0.9684
2473.592541 0.9677 0.9672 0.9664 0.9654 0.9647
2477.945413 0.9642 0.9640 0.9640 0.9640 0.9640
2482.298285 0.9637 0.9632 0.9630 0.9630 0.9630
2486.651158 0.9630 0.9630 0.9630 0.9624 0.9614
2491.004030 0.9604 0.9594 0.9590 0.9590 0.9584
2495.356902 0.9573 0.9570 0.9570 0.9570 0.9570
2499.709774 0.9567 0.9562 0.9557 0.9552 0.9550
2504.062646 0.9550 0.9543 0.9533 0.9530 0.9530
2508.415519 0.9523 0.9513 0.9500 0.9485 0.9473
2512.768391 0.9463 0.9453 0.9443 0.9440 0.9440
2517.121263 0.9433 0.9423 0.9417 0.9412 0.9400
2521.474135 0.9385 0.9380 0.9380 0.9377 0.9372
2525.827008 0.9367 0.9362 0.9360 0.9360 0.9353
2530.179880 0.9343 0.9337 0.9332 0.9330 0.9330
2534.532752 0.9323 0.9313 0.9310 0.9310 0.9306
2538.885624 0.9301 0.9286 0.9266 0.9246 0.9226
2543.238496 0.9216 0.9211 0.9203 0.9193 0.9190
2547.591369 0.9190 0.9186 0.9181 0.9176 0.9171
2551.944241 0.9170 0.9170 0.9163 0.9153 0.9146
2556.297113 0.9141 0.9140 0.9140 0.9140 0.9140
2560.649985 0.9133 0.9123 0.9120 0.9120 0.9120
2565.002858 0.9120 0.9116 0.9111 0.9110 0.9110
2569.355730 0.9110 0.9110 0.9110 0.9110 0.9110
2573.708602 0.9110 0.9110 0.9110 0.9110 0.9110
2578.061474 0.9106 0.9101 0.9100 0.9100 0.9100
2582.414347 0.9100 0.9100 0.9100 0.9100 0.9100
2586.767219 0.9100 0.9100 0.9100 0.9100 0.9092
2591.120091 0.9082 0.9080 0.9080 0.9076 0.9071
2595.472963 0.9070 0.9070 0.9066 0.9061 0.9048
2599.825835 0.9033 0.9018 0.9003 0.8988 0.8973
2604.178708 0.8966 0.8961 0.8956 0.8951 0.8942
2608.531580 0.8932 0.8930 0.8930 0.8922 0.8912
2612.884452 0.8886 0.8856 0.8850 0.8850 0.8846
2617.237324 0.8841 0.8828 0.8813 0.8794 0.8774
2621.590197 0.8766 0.8761 0.8748 0.8733 0.8726
2625.943069 0.8721 0.8712 0.8702 0.8692 0.8682
2630.295941 0.8659 0.8634 0.8626 0.8621 0.8607
2634.648813 0.8592 0.8586 0.8581 0.8567 0.8552
2639.001685 0.8550 0.8550 0.8550 0.8550 0.8546
2643.354558 0.8541 0.8540 0.8540 0.8536 0.8531
2647.707430 0.8530 0.8530 0.8517 0.8502 0.8487
2652.060302 0.8472 0.8466 0.8461 0.8451 0.8441
2656.413174 0.8436 0.8431 0.8426 0.8421 0.8411
2660.766047 0.8401 0.8391 0.8381 0.8367 0.8352
2665.118919 0.8346 0.8341 0.8331 0.8321 0.8320
2669.471791 0.8320 0.8316 0.8311 0.8310 0.8310
2673.824663 0.8292 0.8272 0.8261 0.8251 0.8246
2678.177535 0.8240 0.8235 0.8230 0.8221 0.8211
2682.530408 0.8201 0.8191 0.8176 0.8161 0.8151
2686.883280 0.8141 0.8131 0.8121 0.8106 0.8091
2691.236152 0.8076 0.8061 0.8055 0.8050 0.8050
2695.589024 0.8050 0.8045 0.8040 0.8031 0.8021
2699.941897 0.8011 0.8001 0.7986 0.7971 0.7956
2704.294769 0.7941 0.7935 0.7930 0.7921 0.7911
2708.647641 0.7905 0.7900 0.7895 0.7890 0.7876
2713.000513 0.7861 0.7846 0.7831 0.7830 0.7830
2717.353386 0.7825 0.7820 0.7820 0.7820 0.7810
2721.706258 0.7800 0.7800 0.7800 0.7800 0.7800
2726.059130 0.7800 0.7800 0.7800 0.7800 0.7800
2730.412002 0.7800 0.7800 0.7800 0.7800 0.7800
2734.764874 0.7800 0.7800 0.7800 0.7800 0.7800
2739.117747 0.7800 0.7800 0.7800 0.7800 0.7800
2743.470619 0.7800 0.7800 0.7800 0.7800 0.7800
2747.823491 0.7800 0.7795 0.7790 0.7790 0.7790
2752.176363 0.7790 0.7790 0.7785 0.7780 0.7770
2756.529236 0.7760 0.7755 0.7750 0.7750 0.7750
2760.882108 0.7750 0.7750 0.7735 0.7720 0.7710
2765.234980 0.7700 0.7700 0.7700 0.7690 0.7680
2769.587852 0.7660 0.7640 0.7625 0.7610 0.7590
2773.940724 0.7570 0.7565 0.7560 0.7545 0.7530
2778.293597 0.7525 0.7519 0.7489 0.7460 0.7439
2782.646469 0.7420 0.7410 0.7400 0.7400 0.7400
2786.999341 0.7390 0.7380 0.7370 0.7358 0.7323
2791.352213 0.7289 0.7274 0.7259 0.7239 0.7219
2795.705086 0.7199 0.7179 0.7159 0.7139 0.7108
2800.057958 0.7079 0.7059 0.7038 0.7013 0.6988
2804.410830 0.6953 0.6918 0.6893 0.6868 0.6833
2808.763702 0.6798 0.6763 0.6727 0.6687 0.6647
2813.116574 0.6597 0.6549 0.6539 0.6528 0.6498
2817.469447 0.6467 0.6432 0.6396 0.6356 0.6317
2821.822319 0.6282 0.6247 0.6217 0.6188 0.6163
2826.175191 0.6134 0.6074 0.6016 0.5971 0.5926
2830.528063 0.5886 0.5847 0.5812 0.5777 0.5741
2834.880936 0.5706 0.5671 0.5635 0.5595 0.5558
2839.233808 0.5538 0.5517 0.5487 0.5453 0.5393
2843.586680 0.5331 0.5251 0.5178 0.5158 0.5137
2847.939552 0.5106 0.5072 0.5007 0.4940 0.4854
2852.292425 0.4769 0.4689 0.4610 0.4540 0.4470
2856.645297 0.4400 0.4330 0.4260 0.4190 0.4115
2860.998169 0.4040 0.3965 0.3888 0.3798 0.3705
2865.351041 0.3600 0.3501 0.3436 0.3372 0.3311
2869.703913 0.3238 0.3103 0.2960 0.2775 0.2613
2874.056786 0.2568 0.2524 0.2489 0.2448 0.2373
2878.409658 0.2302 0.2252 0.2206 0.2181 0.2158
2882.762530 0.2143 0.2129 0.2124 0.2118 0.2102
2887.115402 0.2089 0.2084 0.2078 0.2068 0.2060
2891.468275 0.2060 0.2060 0.2060 0.2062 0.2072
2895.821147 0.2081 0.2086 0.2090 0.2090 0.2094
2900.174019 0.2114 0.2133 0.2148 0.2163 0.2178
2904.526891 0.2192 0.2202 0.2213 0.2228 0.2244
2908.879763 0.2264 0.2287 0.2322 0.2357 0.2392
2913.232636 0.2422 0.2432 0.2443 0.2458 0.2470
2917.585508 0.2470 0.2470 0.2470 0.2469 0.2464
2921.938380 0.2458 0.2448 0.2439 0.2434 0.2429
2926.291252 0.2424 0.2417 0.2402 0.2390 0.2390
2930.644125 0.2389 0.2384 0.2380 0.2380 0.2381
2934.996997 0.2386 0.2391 0.2396 0.2404 0.2419
2939.349869 0.2440 0.2480 0.2528 0.2598 0.2674
2943.702741 0.2769 0.2873 0.3003 0.3136 0.3276
2948.055614 0.3421 0.3581 0.3740 0.3895 0.4034
2952.408486 0.4129 0.4206 0.4231 0.4250 0.4250
2956.761358 0.4239 0.4199 0.4149 0.4074 0.3979
2961.114230 0.3829 0.3587 0.3107 0.2728 0.2613
2965.467102 0.2459 0.2204 0.1937 0.1637 0.1387
2969.819975 0.1267 0.1145 0.1020 0.0906 0.0820
2974.172847 0.0741 0.0676 0.0629 0.0624 0.0621
2978.525719 0.0626 0.0634 0.0649 0.0675 0.0725
2982.878591 0.0769 0.0799 0.0858 0.0983 0.1082
2987.231464 0.1122 0.1162 0.1202 0.1247 0.1302
2991.584336 0.1408 0.1618 0.1833 0.2058 0.2216
2995.937208 0.2236 0.2378 0.2773 0.3089 0.3239
3000.290080 0.3418 0.3658 0.3901 0.4151 0.4391
3004.642952 0.4611 0.4819 0.4999 0.5219 0.5521
3008.995825 0.5758 0.5868 0.5971 0.6061 0.6146
3013.348697 0.6221 0.6291 0.6351 0.6404 0.6444
3017.701569 0.6484 0.6524 0.6560 0.6590 0.6617
3022.054441 0.6637 0.6655 0.6670 0.6684 0.6694
3026.407314 0.6704 0.6714 0.6720 0.6720 0.6716
3030.760186 0.6706 0.6698 0.6693 0.6690 0.6690
3035.113058 0.6684 0.6669 0.6658 0.6653 0.6644
3039.465930 0.6629 0.6613 0.6593 0.6574 0.6559
3043.818802 0.6548 0.6543 0.6534 0.6519 0.6502
3048.171675 0.6482 0.6464 0.6449 0.6432 0.6412
3052.524547 0.6398 0.6393 0.6384 0.6369 0.6346
3056.877419 0.6311 0.6280 0.6255 0.6230 0.6205
3061.230291 0.6180 0.6155 0.6132 0.6112 0.6096
3065.583164 0.6086 0.6074 0.6059 0.6044 0.6029
3069.936036 0.6003 0.5963 0.5917 0.5862 0.5824
3074.288908 0.5809 0.5792 0.5772 0.5747 0.5717
3078.641780 0.5685 0.5650 0.5612 0.5572 0.5541
3082.994653 0.5521 0.5499 0.5474 0.5447 0.5417
3087.347525 0.5391 0.5371 0.5353 0.5338 0.5315
3091.700397 0.5280 0.5245 0.5210 0.5179 0.5154
3096.053269 0.5124 0.5089 0.5061 0.5041 0.5021
3100.406141 0.5001 0.4967 0.4917 0.4874 0.4839
3104.759014 0.4806 0.4776 0.4751 0.4731 0.4711
3109.111886 0.4691 0.4666 0.4636 0.4608 0.4583
3113.464758 0.4553 0.4518 0.4473 0.4418 0.4366
3117.817630 0.4316 0.4268 0.4223 0.4181 0.4141
3122.170503 0.4101 0.4061 0.4018 0.3973 0.3935
3126.523375 0.3905 0.3873 0.3838 0.3803 0.3767
3130.876247 0.3737 0.3712 0.3682 0.3647 0.3615
3135.229119 0.3585 0.3557 0.3532 0.3505 0.3475
3139.581991 0.3445 0.3415 0.3385 0.3355 0.3322
3143.934864 0.3287 0.3257 0.3232 0.3202 0.3167
3148.287736 0.3137 0.3112 0.3081 0.3046 0.3009
3152.640608 0.2969 0.2931 0.2896 0.2861 0.2826
3156.993480 0.2791 0.2756 0.2724 0.2694 0.2661
3161.346353 0.2626 0.2589 0.2549 0.2511 0.2476
3165.699225 0.2443 0.2413 0.2383 0.2353 0.2321
3170.052097 0.2286 0.2239 0.2184 0.2138 0.2098
3174.404969 0.2063 0.2033 0.2014 0.2004 0.1992
3178.757842 0.1977 0.1959 0.1939 0.1910 0.1875
3183.110714 0.1831 0.1781 0.1746 0.1721 0.1707
3187.463586 0.1702 0.1680 0.1645 0.1610 0.1575
3191.816458 0.1551 0.1536 0.1527 0.1522 0.1508
3196.169330 0.1488 0.1460 0.1425 0.1387 0.1346
3200.522203 0.1306 0.1266 0.1232 0.1202 0.1175
3204.875075 0.1150 0.1122 0.1092 0.1068 0.1048
3209.227947 0.1034 0.1024 0.1014 0.1004 0.0991
3213.580819 0.0976 0.0964 0.0954 0.0941 0.0926
3217.933692 0.0911 0.0896 0.0884 0.0874 0.0861
3222.286564 0.0846 0.0828 0.0808 0.0794 0.0784
3226.639436 0.0777 0.0772 0.0767 0.0762 0.0747
3230.992308 0.0727 0.0707 0.0687 0.0671 0.0655
3235.345180 0.0644 0.0634 0.0627 0.0622 0.0610
3239.698053 0.0595 0.0590 0.0590 0.0584 0.0574
3244.050925 0.0564 0.0554 0.0537 0.0517 0.0510
3248.403797 0.0510 0.0500 0.0485 0.0477 0.0472
3252.756669 0.0467 0.0462 0.0453 0.0443 0.0433
3257.109542 0.0423 0.0420 0.0420 0.0410 0.0395
3261.462414 0.0387 0.0382 0.0380 0.0380 0.0373
3265.815286 0.0363 0.0357 0.0352 0.0347 0.0342
3270.168158 0.0333 0.0323 0.0317 0.0312 0.0303
3274.521030 0.0293 0.0287 0.0282 0.0280 0.0280
3278.873903 0.0277 0.0272 0.0270 0.0270 0.0263
3283.226775 0.0253 0.0250 0.0250 0.0246 0.0241
3287.579647 0.0240 0.0240 0.0236 0.0231 0.0230
3291.932519 0.0230 0.0223 0.0213 0.0210 0.0210
3296.285392 0.0206 0.0201 0.0200 0.0200 0.0200
3300.638264 0.0200 0.0200 0.0200 0.0200 0.0200
3304.991136 0.0200 0.0200 0.0196 0.0191 0.0190
3309.344008 0.0190 0.0190 0.0190 0.0190 0.0190
3313.696881 0.0183 0.0173 0.0170 0.0170 0.0170
3318.049753 0.0170 0.0170 0.0170 0.0170 0.0170
3322.402625 0.0166 0.0161 0.0160 0.0160 0.0160
3326.755497 0.0160 0.0160 0.0160 0.0160 0.0160
3331.108369 0.0152 0.0142 0.0140 0.0140 0.0140
3335.461242 0.0140 0.0140 0.0140 0.0136 0.0131
3339.814114 0.0130 0.0130 0.0130 0.0130 0.0130
3344.166986 0.0130 0.0130 0.0130 0.0130 0.0130
3348.519858 0.0130 0.0130 0.0130 0.0130 0.0130
3352.872731 0.0130 0.0126 0.0121 0.0120 0.0120
3357.225603 0.0120 0.0120 0.0120 0.0120 0.0120
3361.578475 0.0120 0.0120 0.0120 0.0120 0.0120
3365.931347 0.0120 0.0120 0.0112 0.0102 0.0100
3370.284219 0.0100 0.0100 0.0100 0.0100 0.0100
3374.637092 0.0100 0.0100 0.0100 0.0100 0.0100
3378.989964 0.0100 0.0100 0.0100 0.0100 0.0100
3383.342836 0.0100 0.0100 0.0100 0.0100 0.0100
3387.695708 0.0100 0.0100 0.0100 0.0100 0.0100
3392.048581 0.0100 0.0100 0.0100 0.0100 0.0100
3396.401453 0.0100 0.0109 0.0119 0.0120 0.0120
3400.754325 0.0120 0.0120 0.0124 0.0129 0.0130
3405.107197 0.0130 0.0130 0.0130 0.0134 0.0139
3409.460069 0.0140 0.0140 0.0140 0.0140 0.0140
3413.812942 0.0140 0.0149 0.0159 0.0160 0.0160
3418.165814 0.0160 0.0160 0.0160 0.0160 0.0164
3422.518686 0.0169 0.0170 0.0170 0.0170 0.0170
3426.871558 0.0170 0.0170 0.0184 0.0199 0.0200
3431.224431 0.0200 0.0200 0.0200 0.0205 0.0210
3435.577303 0.0210 0.0210 0.0210 0.0210 0.0219
3439.930175 0.0229 0.0230 0.0230 0.0230 0.0230
3444.283047 0.0235 0.0240 0.0240 0.0240 0.0240
3448.635920 0.0240 0.0245 0.0250 0.0264 0.0279
3452.988792 0.0280 0.0280 0.0285 0.0290 0.0290
3457.341664 0.0290 0.0299 0.0309 0.0310 0.0310
3461.694536 0.0315 0.0320 0.0329 0.0339 0.0340
3466.047408 0.0340 0.0345 0.0350 0.0350 0.0350
3470.400281 0.0364 0.0379 0.0380 0.0380 0.0390
3474.753153 0.0400 0.0410 0.0420 0.0420 0.0420
3479.106025 0.0430 0.0440 0.0450 0.0460 0.0460
3483.458897 0.0460 0.0470 0.0480 0.0490 0.0500
3487.811770 0.0505 0.0510 0.0520 0.0530 0.0535
3492.164642 0.0540 0.0559 0.0579 0.0600 0.0620
3496.517514 0.0620 0.0620 0.0635 0.0650 0.0665
3500.870386 0.0680 0.0705 0.0730 0.0750 0.0770
3505.223258 0.0785 0.0800 0.0800 0.0800 0.0820
3509.576131 0.0840 0.0860 0.0880 0.0905 0.0930
3513.929003 0.0930 0.0931 0.0976 0.1020 0.1030
3518.281875 0.1040 0.1050 0.1061 0.1101 0.1141
3522.634747 0.1176 0.1211 0.1236 0.1260 0.1275
3526.987620 0.1291 0.1346 0.1401 0.1446 0.1491
3531.340492 0.1506 0.1521 0.1556 0.1590 0.1595
3535.693364 0.1601 0.1626 0.1651 0.1676 0.1702
3540.046236 0.1742 0.1783 0.1848 0.1912 0.1947
3544.399109 0.1981 0.2011 0.2040 0.2051 0.2062
3548.751981 0.2092 0.2122 0.2157 0.2194 0.2259
3553.104853 0.2324 0.2379 0.2433 0.2483 0.2533
3557.457725 0.2573 0.2612 0.2647 0.2682 0.2712
3561.810597 0.2742 0.2777 0.2812 0.2848 0.2883
3566.163470 0.2924 0.2963 0.2998 0.3034 0.3079
3570.516342 0.3124 0.3174 0.3225 0.3280 0.3335
3574.869214 0.3395 0.3453 0.3488 0.3522 0.3547
3579.222086 0.3579 0.3674 0.3766 0.3837 0.3908
3583.574959 0.3978 0.4047 0.4112 0.4178 0.4253
3587.927831 0.4328 0.4403 0.4478 0.4553 0.4627
3592.280703 0.4687 0.4746 0.4801 0.4854 0.4889
3596.633575 0.4926 0.4981 0.5037 0.5097 0.5159
3600.986447 0.5229 0.5310 0.5460 0.5599 0.5664
3605.339320 0.5729 0.5799 0.5866 0.5911 0.5955
3609.692192 0.5990 0.6029 0.6099 0.6172 0.6262
3614.045064 0.6343 0.6363 0.6389 0.6455 0.6515
3618.397936 0.6545 0.6586 0.6686 0.6779 0.6834
3622.750809 0.6887 0.6932 0.6976 0.7011 0.7046
3627.103681 0.7086 0.7126 0.7161 0.7196 0.7236
3631.456553 0.7276 0.7311 0.7348 0.7399 0.7448
3635.809425 0.7493 0.7533 0.7548 0.7574 0.7649
3640.162297 0.7716 0.7751 0.7791 0.7851 0.7901
3644.515170 0.7906 0.7916 0.7951 0.7990 0.8045
3648.868042 0.8097 0.8137 0.8177 0.8218 0.8254
3653.220914 0.8274 0.8295 0.8320 0.8342 0.8352
3657.573786 0.8368 0.8408 0.8446 0.8476 0.8504
3661.926659 0.8524 0.8545 0.8570 0.8593 0.8608
3666.279531 0.8624 0.8644 0.8663 0.8678 0.8695
3670.632403 0.8715 0.8735 0.8755 0.8771 0.8776
3674.985275 0.8782 0.8792 0.8801 0.8806 0.8815
3679.338148 0.8835 0.8857 0.8887 0.8917 0.8947
3683.691020 0.8972 0.8982 0.8995 0.9015 0.9034
3688.043892 0.9049 0.9067 0.9097 0.9124 0.9139
3692.396764 0.9164 0.9219 0.9261 0.9266 0.9273
3696.749636 0.9283 0.9299 0.9334 0.9366 0.9391
3701.102509 0.9415 0.9435 0.9451 0.9456 0.9463
3705.455381 0.9473 0.9481 0.9486 0.9494 0.9509
3709.808253 0.9524 0.9539 0.9551 0.9556 0.9561
3714.161125 0.9566 0.9573 0.9583 0.9590 0.9590
3718.513998 0.9591 0.9596 0.9601 0.9606 0.9610
3722.866870 0.9610 0.9610 0.9610 0.9610 0.9610
3727.219742 0.9610 0.9610 0.9610 0.9610 0.9613
3731.572614 0.9623 0.9631 0.9636 0.9640 0.9640
3735.925486 0.9639 0.9634 0.9627 0.9617 0.9610
3740.278359 0.9610 0.9616 0.9636 0.9650 0.9650
3744.631231 0.9648 0.9643 0.9640 0.9640 0.9642
3748.984103 0.9647 0.9650 0.9650 0.9647 0.9637
3753.336975 0.9630 0.9630 0.9632 0.9637 0.9640
3757.689848 0.9640 0.9642 0.9647 0.9653 0.9663
3762.042720 0.9670 0.9670 0.9670 0.9670 0.9670
3766.395592 0.9670 0.9667 0.9657 0.9650 0.9650
3770.748464 0.9653 0.9663 0.9672 0.9677 0.9680
3775.101337 0.9680 0.9684 0.9694 0.9700 0.9700
3779.454209 0.9702 0.9707 0.9710 0.9710 0.9708
3783.807081 0.9703 0.9700 0.9700 0.9700 0.9700
3788.159953 0.9700 0.9700 0.9700 0.9700 0.9700
3792.512825 0.9700 0.9700 0.9700 0.9700 0.9700
3796.865698 0.9700 0.9700 0.9700 0.9700
##END=
