##TITLE=5-DECANOL
##JCAMP-DX=4.24
$$ By DXEDIT 1.05 (RS McDonald)
##DATA TYPE=INFRARED SPECTRUM
##CLASS=COBLENTZ II
##ORIGIN=PERKIN-ELMER CORP. (R. HANNAH)
##OWNER=COBLENTZ SOC.
Collection (C) 2018 copyright by the U.S. Secretary of Commerce
on behalf of the United States of America. All rights reserved.
##DATE=1969/01/29
##CAS REGISTRY NO=5205-34-5
##MOLFORM=C10 H22 O
##SOURCE REFERENCE=COBLENTZ NO. 06008
##$NIST SOURCE=COBLENTZ
##$NIST IMAGE=cob6008
##SPECTROMETER/DATA SYSTEM=PERKIN-ELMER 621 (GRATING)
##INSTRUMENT PARAMETERS=GRATING CHANGE AT 623; ORDER CHANGE AT 2000. FILTERS AT 3146, 2494, 2000, 1146, 698, 497 CM^-^1
##STATE=LIQUID (NEAT)
$$ 99.9% PURE
##PATH LENGTH=0.0015 CM (CsBr WINDOWS VS. CsBr WINDOW; DEMOUNTABLE WINDOWS)
##SAMPLING PROCEDURE=TRANSMISSION
##RESOLUTION=2
##DATA PROCESSING=DIGITIZED BY COBLENTZ SOCIETY (BATCH I) FROM HARD COPY
##XUNITS=1/CM
##YUNITS=TRANSMITTANCE
##XLABEL=Wavenumbers (cm-1)
##YLABEL=Transmittance
##XFACTOR=1
##YFACTOR=1
##DELTAX=1
##FIRSTX=3998
##LASTX=309
##FIRSTY=0.8914
##MAXX=3998
##MINX=309
##MAXY=0.8955
##MINY=0.0235
##NPOINTS=3690
##XYDATA=(X++(Y..Y))
3998.000000 0.8914 0.8914 0.8914 0.8914 0.8914
3993.000000 0.8914 0.8914 0.8914 0.8914 0.8913
3988.000000 0.8913 0.8913 0.8913 0.8913 0.8913
3983.000000 0.8913 0.8913 0.8913 0.8913 0.8913
3978.000000 0.8913 0.8913 0.8913 0.8913 0.8913
3973.000000 0.8913 0.8913 0.8913 0.8913 0.8913
3968.000000 0.8913 0.8913 0.8913 0.8913 0.8913
3963.000000 0.8913 0.8913 0.8913 0.8913 0.8912
3958.000000 0.8912 0.8912 0.8912 0.8912 0.8912
3953.000000 0.8912 0.8912 0.8912 0.8912 0.8912
3948.000000 0.8912 0.8912 0.8912 0.8912 0.8912
3943.000000 0.8912 0.8912 0.8912 0.8912 0.8912
3938.000000 0.8912 0.8912 0.8912 0.8912 0.8912
3933.000000 0.8912 0.8912 0.8911 0.8911 0.8911
3928.000000 0.8911 0.8911 0.8911 0.8911 0.8911
3923.000000 0.8911 0.8911 0.8911 0.8911 0.8911
3918.000000 0.8911 0.8911 0.8911 0.8911 0.8911
3913.000000 0.8911 0.8911 0.8911 0.8911 0.8911
3908.000000 0.8911 0.8911 0.8911 0.8911 0.8911
3903.000000 0.8911 0.8911 0.8910 0.8910 0.8910
3898.000000 0.8910 0.8910 0.8910 0.8910 0.8910
3893.000000 0.8910 0.8910 0.8910 0.8910 0.8910
3888.000000 0.8910 0.8910 0.8910 0.8910 0.8910
3883.000000 0.8910 0.8910 0.8910 0.8910 0.8910
3878.000000 0.8910 0.8910 0.8910 0.8910 0.8910
3873.000000 0.8910 0.8910 0.8909 0.8909 0.8909
3868.000000 0.8909 0.8909 0.8909 0.8909 0.8909
3863.000000 0.8909 0.8909 0.8909 0.8909 0.8909
3858.000000 0.8909 0.8909 0.8909 0.8909 0.8909
3853.000000 0.8909 0.8909 0.8909 0.8909 0.8909
3848.000000 0.8909 0.8909 0.8909 0.8909 0.8910
3843.000000 0.8910 0.8910 0.8910 0.8911 0.8911
3838.000000 0.8912 0.8912 0.8912 0.8912 0.8913
3833.000000 0.8913 0.8914 0.8914 0.8915 0.8915
3828.000000 0.8915 0.8915 0.8916 0.8916 0.8917
3823.000000 0.8917 0.8917 0.8917 0.8918 0.8918
3818.000000 0.8918 0.8918 0.8918 0.8918 0.8918
3813.000000 0.8918 0.8920 0.8920 0.8920 0.8920
3808.000000 0.8921 0.8921 0.8921 0.8921 0.8921
3803.000000 0.8921 0.8921 0.8921 0.8921 0.8921
3798.000000 0.8923 0.8923 0.8923 0.8923 0.8924
3793.000000 0.8924 0.8925 0.8925 0.8925 0.8925
3788.000000 0.8927 0.8927 0.8928 0.8928 0.8928
3783.000000 0.8928 0.8930 0.8930 0.8931 0.8931
3778.000000 0.8932 0.8932 0.8933 0.8933 0.8934
3773.000000 0.8934 0.8935 0.8935 0.8936 0.8936
3768.000000 0.8937 0.8937 0.8938 0.8938 0.8939
3763.000000 0.8939 0.8940 0.8940 0.8941 0.8941
3758.000000 0.8942 0.8942 0.8943 0.8943 0.8944
3753.000000 0.8944 0.8945 0.8945 0.8946 0.8946
3748.000000 0.8947 0.8947 0.8948 0.8948 0.8949
3743.000000 0.8949 0.8950 0.8950 0.8951 0.8951
3738.000000 0.8952 0.8952 0.8952 0.8952 0.8953
3733.000000 0.8953 0.8954 0.8954 0.8955 0.8955
3728.000000 0.8955 0.8955 0.8955 0.8954 0.8954
3723.000000 0.8953 0.8953 0.8952 0.8952 0.8951
3718.000000 0.8951 0.8950 0.8950 0.8949 0.8949
3713.000000 0.8948 0.8948 0.8947 0.8947 0.8946
3708.000000 0.8946 0.8945 0.8945 0.8944 0.8944
3703.000000 0.8943 0.8943 0.8942 0.8942 0.8941
3698.000000 0.8941 0.8940 0.8940 0.8939 0.8939
3693.000000 0.8938 0.8938 0.8937 0.8937 0.8936
3688.000000 0.8936 0.8935 0.8935 0.8935 0.8935
3683.000000 0.8934 0.8934 0.8934 0.8934 0.8933
3678.000000 0.8933 0.8933 0.8933 0.8933 0.8933
3673.000000 0.8932 0.8932 0.8932 0.8932 0.8931
3668.000000 0.8931 0.8931 0.8931 0.8931 0.8931
3663.000000 0.8930 0.8930 0.8928 0.8928 0.8927
3658.000000 0.8927 0.8925 0.8925 0.8924 0.8924
3653.000000 0.8923 0.8923 0.8918 0.8915 0.8910
3648.000000 0.8905 0.8900 0.8896 0.8886 0.8875
3643.000000 0.8856 0.8836 0.8815 0.8795 0.8775
3638.000000 0.8757 0.8737 0.8718 0.8698 0.8678
3633.000000 0.8658 0.8638 0.8624 0.8611 0.8604
3628.000000 0.8598 0.8599 0.8600 0.8600 0.8601
3623.000000 0.8601 0.8602 0.8603 0.8604 0.8604
3618.000000 0.8605 0.8605 0.8606 0.8607 0.8608
3613.000000 0.8608 0.8609 0.8609 0.8610 0.8610
3608.000000 0.8611 0.8611 0.8612 0.8612 0.8613
3603.000000 0.8613 0.8614 0.8615 0.8617 0.8620
3598.000000 0.8623 0.8625 0.8628 0.8631 0.8634
3593.000000 0.8637 0.8640 0.8642 0.8644 0.8646
3588.000000 0.8648 0.8649 0.8651 0.8653 0.8654
3583.000000 0.8654 0.8654 0.8649 0.8645 0.8639
3578.000000 0.8633 0.8624 0.8615 0.8606 0.8597
3573.000000 0.8588 0.8578 0.8570 0.8561 0.8551
3568.000000 0.8541 0.8531 0.8521 0.8511 0.8501
3563.000000 0.8491 0.8481 0.8461 0.8442 0.8423
3558.000000 0.8404 0.8384 0.8365 0.8339 0.8313
3553.000000 0.8274 0.8235 0.8196 0.8157 0.8121
3548.000000 0.8085 0.8051 0.8017 0.7983 0.7950
3543.000000 0.7915 0.7882 0.7851 0.7822 0.7795
3538.000000 0.7767 0.7739 0.7711 0.7684 0.7656
3533.000000 0.7628 0.7601 0.7575 0.7551 0.7528
3528.000000 0.7508 0.7486 0.7465 0.7444 0.7422
3523.000000 0.7401 0.7380 0.7358 0.7338 0.7315
3518.000000 0.7295 0.7275 0.7255 0.7235 0.7215
3513.000000 0.7195 0.7175 0.7155 0.7135 0.7115
3508.000000 0.7095 0.7075 0.7055 0.7035 0.7015
3503.000000 0.6995 0.6975 0.6953 0.6931 0.6905
3498.000000 0.6880 0.6854 0.6828 0.6803 0.6778
3493.000000 0.6751 0.6726 0.6701 0.6676 0.6645
3488.000000 0.6612 0.6567 0.6521 0.6474 0.6428
3483.000000 0.6381 0.6335 0.6291 0.6248 0.6205
3478.000000 0.6162 0.6119 0.6076 0.6046 0.6017
3473.000000 0.5991 0.5966 0.5940 0.5915 0.5889
3468.000000 0.5862 0.5837 0.5812 0.5787 0.5762
3463.000000 0.5739 0.5715 0.5691 0.5668 0.5644
3458.000000 0.5620 0.5596 0.5573 0.5549 0.5525
3453.000000 0.5498 0.5472 0.5442 0.5412 0.5382
3448.000000 0.5353 0.5323 0.5294 0.5224 0.5154
3443.000000 0.5127 0.5100 0.5058 0.5017 0.5003
3438.000000 0.4990 0.4976 0.4962 0.4948 0.4934
3433.000000 0.4916 0.4899 0.4880 0.4862 0.4843
3428.000000 0.4824 0.4805 0.4787 0.4768 0.4750
3423.000000 0.4731 0.4712 0.4698 0.4684 0.4671
3418.000000 0.4658 0.4645 0.4632 0.4619 0.4606
3413.000000 0.4592 0.4579 0.4567 0.4555 0.4543
3408.000000 0.4531 0.4519 0.4508 0.4496 0.4484
3403.000000 0.4472 0.4460 0.4448 0.4437 0.4425
3398.000000 0.4412 0.4401 0.4389 0.4377 0.4365
3393.000000 0.4353 0.4341 0.4329 0.4317 0.4304
3388.000000 0.4292 0.4280 0.4268 0.4256 0.4244
3383.000000 0.4233 0.4222 0.4212 0.4202 0.4193
3378.000000 0.4184 0.4175 0.4167 0.4158 0.4149
3373.000000 0.4140 0.4132 0.4123 0.4114 0.4106
3368.000000 0.4098 0.4091 0.4084 0.4077 0.4070
3363.000000 0.4062 0.4057 0.4050 0.4044 0.4038
3358.000000 0.4032 0.4032 0.4032 0.4030 0.4028
3353.000000 0.4026 0.4006 0.4023 0.4022 0.4021
3348.000000 0.4021 0.4020 0.4018 0.4018 0.4018
3343.000000 0.4018 0.4022 0.4027 0.4032 0.4038
3338.000000 0.4044 0.4050 0.4058 0.4064 0.4073
3333.000000 0.4080 0.4089 0.4096 0.4104 0.4112
3328.000000 0.4120 0.4130 0.4141 0.4151 0.4162
3323.000000 0.4172 0.4183 0.4193 0.4203 0.4212
3318.000000 0.4224 0.4235 0.4246 0.4259 0.4273
3313.000000 0.4286 0.4300 0.4314 0.4328 0.4341
3308.000000 0.4355 0.4368 0.4382 0.4395 0.4409
3303.000000 0.4422 0.4436 0.4455 0.4474 0.4498
3298.000000 0.4522 0.4546 0.4570 0.4594 0.4618
3293.000000 0.4641 0.4665 0.4688 0.4712 0.4735
3288.000000 0.4758 0.4781 0.4805 0.4828 0.4851
3283.000000 0.4875 0.4900 0.4933 0.4966 0.4999
3278.000000 0.5032 0.5065 0.5098 0.5133 0.5168
3273.000000 0.5206 0.5244 0.5281 0.5319 0.5356
3268.000000 0.5394 0.5431 0.5469 0.5506 0.5543
3263.000000 0.5579 0.5615 0.5651 0.5688 0.5724
3258.000000 0.5760 0.5795 0.5830 0.5857 0.5884
3253.000000 0.5910 0.5939 0.5966 0.5993 0.6020
3248.000000 0.6048 0.6075 0.6102 0.6129 0.6157
3243.000000 0.6199 0.6242 0.6287 0.6332 0.6377
3238.000000 0.6422 0.6464 0.6506 0.6542 0.6578
3233.000000 0.6614 0.6650 0.6685 0.6721 0.6757
3228.000000 0.6793 0.6826 0.6861 0.6893 0.6925
3223.000000 0.6957 0.6989 0.7021 0.7054 0.7078
3218.000000 0.7104 0.7121 0.7141 0.7158 0.7178
3213.000000 0.7196 0.7214 0.7232 0.7251 0.7268
3208.000000 0.7288 0.7305 0.7321 0.7338 0.7354
3203.000000 0.7368 0.7385 0.7400 0.7415 0.7432
3198.000000 0.7448 0.7462 0.7478 0.7494 0.7510
3193.000000 0.7525 0.7542 0.7558 0.7575 0.7592
3188.000000 0.7610 0.7628 0.7646 0.7662 0.7681
3183.000000 0.7698 0.7715 0.7734 0.7751 0.7768
3178.000000 0.7787 0.7804 0.7821 0.7834 0.7846
3173.000000 0.7858 0.7869 0.7882 0.7894 0.7905
3168.000000 0.7917 0.7928 0.7941 0.7951 0.7961
3163.000000 0.7968 0.7976 0.7985 0.7994 0.8001
3158.000000 0.8011 0.8018 0.8028 0.8035 0.8042
3153.000000 0.8049 0.8056 0.8062 0.8069 0.8076
3148.000000 0.8085 0.8092 0.8099 0.8106 0.8112
3143.000000 0.8119 0.8126 0.8134 0.8141 0.8148
3138.000000 0.8155 0.8161 0.8168 0.8172 0.8178
3133.000000 0.8184 0.8190 0.8195 0.8201 0.8206
3128.000000 0.8212 0.8217 0.8223 0.8227 0.8231
3123.000000 0.8234 0.8237 0.8240 0.8244 0.8247
3118.000000 0.8250 0.8253 0.8257 0.8260 0.8263
3113.000000 0.8266 0.8270 0.8273 0.8275 0.8278
3108.000000 0.8283 0.8285 0.8288 0.8289 0.8291
3103.000000 0.8292 0.8293 0.8294 0.8296 0.8297
3098.000000 0.8299 0.8300 0.8301 0.8302 0.8304
3093.000000 0.8305 0.8307 0.8308 0.8309 0.8310
3088.000000 0.8312 0.8313 0.8315 0.8316 0.8318
3083.000000 0.8318 0.8321 0.8321 0.8324 0.8325
3078.000000 0.8325 0.8327 0.8328 0.8328 0.8330
3073.000000 0.8330 0.8331 0.8332 0.8333 0.8334
3068.000000 0.8335 0.8336 0.8337 0.8337 0.8338
3063.000000 0.8338 0.8338 0.8336 0.8335 0.8333
3058.000000 0.8332 0.8330 0.8328 0.8327 0.8325
3053.000000 0.8324 0.8323 0.8321 0.8320 0.8318
3048.000000 0.8317 0.8315 0.8314 0.8312 0.8311
3043.000000 0.8309 0.8307 0.8302 0.8297 0.8286
3038.000000 0.8275 0.8263 0.8252 0.8241 0.8230
3033.000000 0.8218 0.8209 0.8198 0.8188 0.8172
3028.000000 0.8158 0.8138 0.8118 0.8101 0.8086
3023.000000 0.8069 0.8054 0.8038 0.8021 0.8006
3018.000000 0.7990 0.7971 0.7954 0.7936 0.7918
3013.000000 0.7900 0.7883 0.7865 0.7847 0.7819
3008.000000 0.7793 0.7765 0.7739 0.7711 0.7685
3003.000000 0.7650 0.7615 0.7565 0.7515 0.7465
2998.000000 0.7415 0.7358 0.7301 0.7235 0.7168
2993.000000 0.7101 0.7035 0.6971 0.6908 0.6846
2988.000000 0.6784 0.6706 0.6628 0.6540 0.6453
2983.000000 0.6297 0.6142 0.6016 0.5891 0.5798
2978.000000 0.5706 0.5622 0.5538 0.5433 0.5328
2973.000000 0.5231 0.5134 0.4540 0.3947 0.3684
2968.000000 0.3422 0.3159 0.2896 0.2633 0.2370
2963.000000 0.2107 0.1844 0.1581 0.1318 0.1055
2958.000000 0.0792 0.0699 0.0575 0.0598 0.0591
2953.000000 0.0586 0.0581 0.0637 0.0693 0.0785
2948.000000 0.0876 0.0969 0.1061 0.1131 0.1202
2943.000000 0.1202 0.1203 0.1203 0.1205 0.1124
2938.000000 0.1042 0.0952 0.0862 0.0771 0.0681
2933.000000 0.0605 0.0530 0.0485 0.0441 0.0360
2928.000000 0.0279 0.0266 0.0240 0.0240 0.0241
2923.000000 0.0235 0.0236 0.0236 0.0242 0.0258
2918.000000 0.0274 0.0301 0.0329 0.0408 0.0488
2913.000000 0.0633 0.0778 0.0920 0.1062 0.1208
2908.000000 0.1354 0.1478 0.1602 0.1689 0.1776
2903.000000 0.1813 0.1850 0.1920 0.1991 0.2074
2898.000000 0.2158 0.2242 0.2326 0.2409 0.2493
2893.000000 0.2577 0.2661 0.2744 0.2828 0.2912
2888.000000 0.2996 0.3079 0.3163 0.3246 0.3330
2883.000000 0.3378 0.3441 0.3425 0.3423 0.3362
2878.000000 0.3302 0.3149 0.2997 0.2844 0.2692
2873.000000 0.2539 0.2387 0.2234 0.2082 0.1995
2868.000000 0.1910 0.1911 0.1912 0.1913 0.1914
2863.000000 0.1915 0.1916 0.1816 0.1717 0.1612
2858.000000 0.1507 0.1473 0.1429 0.1441 0.1442
2853.000000 0.1446 0.1450 0.1615 0.1781 0.1995
2848.000000 0.2212 0.2427 0.2642 0.2857 0.3073
2843.000000 0.3288 0.3504 0.3718 0.3934 0.4150
2838.000000 0.4366 0.4581 0.4797 0.5012 0.5227
2833.000000 0.5415 0.5604 0.5710 0.5816 0.6077
2828.000000 0.6338 0.6400 0.6461 0.6528 0.6596
2823.000000 0.6675 0.6757 0.6815 0.6874 0.6917
2818.000000 0.6960 0.7003 0.7046 0.7089 0.7132
2813.000000 0.7180 0.7228 0.7278 0.7328 0.7365
2808.000000 0.7404 0.7436 0.7468 0.7500 0.7532
2803.000000 0.7564 0.7596 0.7619 0.7644 0.7664
2798.000000 0.7685 0.7705 0.7725 0.7746 0.7767
2793.000000 0.7786 0.7806 0.7821 0.7837 0.7851
2788.000000 0.7867 0.7882 0.7898 0.7912 0.7928
2783.000000 0.7942 0.7956 0.7968 0.7983 0.7996
2778.000000 0.8008 0.8021 0.8035 0.8048 0.8061
2773.000000 0.8074 0.8086 0.8095 0.8105 0.8114
2768.000000 0.8124 0.8134 0.8144 0.8153 0.8162
2763.000000 0.8171 0.8180 0.8185 0.8191 0.8197
2758.000000 0.8203 0.8208 0.8214 0.8218 0.8224
2753.000000 0.8227 0.8230 0.8232 0.8235 0.8237
2748.000000 0.8239 0.8240 0.8242 0.8243 0.8245
2743.000000 0.8246 0.8247 0.8243 0.8240 0.8236
2738.000000 0.8232 0.8228 0.8225 0.8221 0.8218
2733.000000 0.8214 0.8210 0.8208 0.8206 0.8206
2728.000000 0.8206 0.8205 0.8205 0.8204 0.8204
2723.000000 0.8206 0.8208 0.8212 0.8217 0.8221
2718.000000 0.8225 0.8231 0.8236 0.8240 0.8245
2713.000000 0.8249 0.8254 0.8258 0.8262 0.8266
2708.000000 0.8271 0.8275 0.8280 0.8284 0.8288
2703.000000 0.8291 0.8295 0.8296 0.8298 0.8300
2698.000000 0.8302 0.8304 0.8306 0.8308 0.8310
2693.000000 0.8312 0.8314 0.8316 0.8318 0.8318
2688.000000 0.8321 0.8321 0.8321 0.8321 0.8323
2683.000000 0.8324 0.8325 0.8325 0.8325 0.8325
2678.000000 0.8327 0.8327 0.8327 0.8327 0.8327
2673.000000 0.8327 0.8327 0.8327 0.8327 0.8327
2668.000000 0.8327 0.8327 0.8327 0.8327 0.8327
2663.000000 0.8325 0.8325 0.8327 0.8328 0.8328
2658.000000 0.8331 0.8332 0.8333 0.8334 0.8336
2653.000000 0.8337 0.8339 0.8340 0.8342 0.8343
2648.000000 0.8344 0.8345 0.8347 0.8352 0.8358
2643.000000 0.8363 0.8368 0.8375 0.8381 0.8387
2638.000000 0.8393 0.8400 0.8407 0.8414 0.8421
2633.000000 0.8428 0.8437 0.8444 0.8451 0.8458
2628.000000 0.8466 0.8471 0.8478 0.8481 0.8484
2623.000000 0.8487 0.8490 0.8493 0.8497 0.8500
2618.000000 0.8503 0.8506 0.8509 0.8512 0.8515
2613.000000 0.8518 0.8521 0.8524 0.8527 0.8530
2608.000000 0.8533 0.8536 0.8539 0.8541 0.8544
2603.000000 0.8543 0.8543 0.8543 0.8543 0.8542
2598.000000 0.8542 0.8541 0.8541 0.8540 0.8540
2593.000000 0.8540 0.8541 0.8542 0.8543 0.8544
2588.000000 0.8545 0.8546 0.8547 0.8548 0.8549
2583.000000 0.8550 0.8551 0.8552 0.8553 0.8554
2578.000000 0.8555 0.8556 0.8557 0.8558 0.8559
2573.000000 0.8560 0.8561 0.8562 0.8563 0.8564
2568.000000 0.8565 0.8566 0.8567 0.8568 0.8568
2563.000000 0.8570 0.8571 0.8573 0.8574 0.8575
2558.000000 0.8575 0.8577 0.8578 0.8578 0.8580
2553.000000 0.8581 0.8582 0.8583 0.8584 0.8585
2548.000000 0.8586 0.8587 0.8588 0.8589 0.8591
2543.000000 0.8593 0.8595 0.8596 0.8598 0.8599
2538.000000 0.8601 0.8603 0.8605 0.8606 0.8608
2533.000000 0.8610 0.8612 0.8613 0.8615 0.8616
2528.000000 0.8618 0.8620 0.8621 0.8623 0.8625
2523.000000 0.8625 0.8628 0.8630 0.8632 0.8633
2518.000000 0.8635 0.8637 0.8639 0.8641 0.8643
2513.000000 0.8645 0.8647 0.8649 0.8651 0.8653
2508.000000 0.8655 0.8657 0.8659 0.8661 0.8663
2503.000000 0.8665 0.8667 0.8668 0.8670 0.8671
2498.000000 0.8673 0.8674 0.8675 0.8675 0.8678
2493.000000 0.8678 0.8680 0.8681 0.8682 0.8683
2488.000000 0.8685 0.8686 0.8687 0.8688 0.8690
2483.000000 0.8691 0.8692 0.8693 0.8695 0.8696
2478.000000 0.8697 0.8698 0.8700 0.8701 0.8702
2473.000000 0.8703 0.8704 0.8704 0.8705 0.8706
2468.000000 0.8707 0.8707 0.8708 0.8708 0.8709
2463.000000 0.8709 0.8710 0.8711 0.8712 0.8712
2458.000000 0.8713 0.8713 0.8714 0.8714 0.8715
2453.000000 0.8715 0.8716 0.8717 0.8718 0.8718
2448.000000 0.8718 0.8718 0.8720 0.8720 0.8721
2443.000000 0.8721 0.8723 0.8723 0.8724 0.8724
2438.000000 0.8725 0.8725 0.8725 0.8725 0.8725
2433.000000 0.8725 0.8725 0.8725 0.8725 0.8725
2428.000000 0.8725 0.8725 0.8725 0.8725 0.8725
2423.000000 0.8725 0.8725 0.8725 0.8725 0.8725
2418.000000 0.8725 0.8725 0.8725 0.8725 0.8725
2413.000000 0.8725 0.8725 0.8725 0.8725 0.8725
2408.000000 0.8725 0.8725 0.8725 0.8725 0.8725
2403.000000 0.8727 0.8728 0.8728 0.8728 0.8730
2398.000000 0.8731 0.8732 0.8733 0.8733 0.8734
2393.000000 0.8735 0.8736 0.8737 0.8738 0.8739
2388.000000 0.8740 0.8740 0.8741 0.8742 0.8743
2383.000000 0.8744 0.8745 0.8745 0.8746 0.8747
2378.000000 0.8748 0.8749 0.8750 0.8751 0.8753
2373.000000 0.8754 0.8755 0.8756 0.8758 0.8759
2368.000000 0.8760 0.8761 0.8763 0.8764 0.8766
2363.000000 0.8767 0.8768 0.8768 0.8771 0.8771
2358.000000 0.8773 0.8774 0.8775 0.8777 0.8778
2353.000000 0.8778 0.8781 0.8782 0.8783 0.8784
2348.000000 0.8786 0.8787 0.8788 0.8789 0.8791
2343.000000 0.8792 0.8793 0.8794 0.8796 0.8797
2338.000000 0.8799 0.8800 0.8802 0.8803 0.8805
2333.000000 0.8806 0.8808 0.8809 0.8811 0.8812
2328.000000 0.8814 0.8815 0.8817 0.8818 0.8820
2323.000000 0.8821 0.8823 0.8824 0.8825 0.8827
2318.000000 0.8828 0.8830 0.8831 0.8832 0.8834
2313.000000 0.8835 0.8837 0.8838 0.8840 0.8841
2308.000000 0.8843 0.8844 0.8846 0.8847 0.8849
2303.000000 0.8850 0.8852 0.8853 0.8855 0.8856
2298.000000 0.8858 0.8859 0.8861 0.8862 0.8864
2293.000000 0.8865 0.8867 0.8868 0.8868 0.8870
2288.000000 0.8871 0.8873 0.8874 0.8874 0.8875
2283.000000 0.8875 0.8875 0.8875 0.8877 0.8877
2278.000000 0.8878 0.8878 0.8878 0.8878 0.8880
2273.000000 0.8880 0.8881 0.8881 0.8882 0.8882
2268.000000 0.8883 0.8883 0.8884 0.8884 0.8885
2263.000000 0.8885 0.8886 0.8886 0.8887 0.8887
2258.000000 0.8888 0.8888 0.8889 0.8889 0.8889
2253.000000 0.8889 0.8889 0.8889 0.8889 0.8888
2248.000000 0.8888 0.8888 0.8888 0.8887 0.8887
2243.000000 0.8887 0.8887 0.8886 0.8886 0.8885
2238.000000 0.8885 0.8885 0.8885 0.8884 0.8884
2233.000000 0.8884 0.8884 0.8883 0.8883 0.8883
2228.000000 0.8883 0.8882 0.8882 0.8882 0.8882
2223.000000 0.8881 0.8881 0.8880 0.8880 0.8880
2218.000000 0.8880 0.8880 0.8880 0.8878 0.8878
2213.000000 0.8878 0.8878 0.8878 0.8878 0.8878
2208.000000 0.8878 0.8878 0.8878 0.8877 0.8877
2203.000000 0.8877 0.8877 0.8877 0.8877 0.8875
2198.000000 0.8875 0.8875 0.8875 0.8875 0.8875
2193.000000 0.8875 0.8874 0.8873 0.8873 0.8871
2188.000000 0.8871 0.8870 0.8870 0.8868 0.8868
2183.000000 0.8867 0.8867 0.8866 0.8865 0.8864
2178.000000 0.8864 0.8863 0.8863 0.8862 0.8861
2173.000000 0.8860 0.8860 0.8859 0.8858 0.8857
2168.000000 0.8857 0.8856 0.8855 0.8854 0.8854
2163.000000 0.8853 0.8853 0.8852 0.8851 0.8851
2158.000000 0.8851 0.8850 0.8850 0.8850 0.8850
2153.000000 0.8849 0.8849 0.8849 0.8849 0.8848
2148.000000 0.8848 0.8847 0.8847 0.8847 0.8847
2143.000000 0.8846 0.8846 0.8846 0.8846 0.8845
2138.000000 0.8845 0.8844 0.8844 0.8844 0.8844
2133.000000 0.8843 0.8843 0.8843 0.8843 0.8842
2128.000000 0.8842 0.8842 0.8842 0.8841 0.8841
2123.000000 0.8840 0.8840 0.8840 0.8840 0.8839
2118.000000 0.8839 0.8839 0.8839 0.8838 0.8838
2113.000000 0.8838 0.8838 0.8838 0.8839 0.8839
2108.000000 0.8839 0.8839 0.8839 0.8839 0.8840
2103.000000 0.8840 0.8840 0.8840 0.8840 0.8840
2098.000000 0.8841 0.8841 0.8842 0.8842 0.8843
2093.000000 0.8843 0.8844 0.8844 0.8845 0.8845
2088.000000 0.8846 0.8846 0.8847 0.8847 0.8848
2083.000000 0.8848 0.8849 0.8849 0.8850 0.8850
2078.000000 0.8850 0.8849 0.8849 0.8849 0.8849
2073.000000 0.8848 0.8848 0.8847 0.8847 0.8846
2068.000000 0.8846 0.8846 0.8846 0.8845 0.8845
2063.000000 0.8844 0.8844 0.8843 0.8843 0.8843
2058.000000 0.8843 0.8842 0.8842 0.8840 0.8838
2053.000000 0.8836 0.8834 0.8832 0.8830 0.8828
2048.000000 0.8827 0.8827 0.8827 0.8827 0.8828
2043.000000 0.8828 0.8828 0.8828 0.8828 0.8828
2038.000000 0.8828 0.8828 0.8828 0.8828 0.8828
2033.000000 0.8828 0.8828 0.8827 0.8827 0.8825
2028.000000 0.8825 0.8825 0.8825 0.8824 0.8824
2023.000000 0.8824 0.8824 0.8823 0.8823 0.8821
2018.000000 0.8821 0.8821 0.8821 0.8820 0.8820
2013.000000 0.8818 0.8818 0.8818 0.8818 0.8818
2008.000000 0.8818 0.8817 0.8817 0.8816 0.8816
2003.000000 0.8815 0.8815 0.8814 0.8814 0.8813
1998.000000 0.8816 0.8818 0.8821 0.8823 0.8825
1993.000000 0.8828 0.8831 0.8833 0.8836 0.8839
1988.000000 0.8841 0.8844 0.8845 0.8846 0.8847
1983.000000 0.8848 0.8849 0.8850 0.8851 0.8852
1978.000000 0.8853 0.8855 0.8856 0.8857 0.8858
1973.000000 0.8859 0.8860 0.8861 0.8862 0.8863
1968.000000 0.8863 0.8863 0.8863 0.8863 0.8863
1963.000000 0.8863 0.8863 0.8863 0.8863 0.8862
1958.000000 0.8862 0.8862 0.8862 0.8862 0.8862
1953.000000 0.8862 0.8862 0.8861 0.8861 0.8861
1948.000000 0.8861 0.8861 0.8861 0.8861 0.8861
1943.000000 0.8861 0.8861 0.8861 0.8861 0.8861
1938.000000 0.8861 0.8861 0.8861 0.8861 0.8861
1933.000000 0.8861 0.8861 0.8861 0.8861 0.8861
1928.000000 0.8861 0.8861 0.8861 0.8861 0.8861
1923.000000 0.8861 0.8861 0.8861 0.8861 0.8861
1918.000000 0.8861 0.8860 0.8859 0.8858 0.8857
1913.000000 0.8856 0.8855 0.8854 0.8853 0.8852
1908.000000 0.8851 0.8850 0.8849 0.8848 0.8847
1903.000000 0.8846 0.8845 0.8845 0.8845 0.8844
1898.000000 0.8844 0.8844 0.8844 0.8844 0.8844
1893.000000 0.8844 0.8844 0.8844 0.8843 0.8843
1888.000000 0.8843 0.8843 0.8843 0.8843 0.8843
1883.000000 0.8843 0.8842 0.8842 0.8842 0.8842
1878.000000 0.8842 0.8842 0.8842 0.8842 0.8841
1873.000000 0.8841 0.8841 0.8841 0.8842 0.8842
1868.000000 0.8842 0.8842 0.8843 0.8843 0.8843
1863.000000 0.8843 0.8844 0.8844 0.8844 0.8844
1858.000000 0.8845 0.8845 0.8845 0.8846 0.8846
1853.000000 0.8846 0.8846 0.8845 0.8844 0.8843
1848.000000 0.8842 0.8842 0.8841 0.8840 0.8839
1843.000000 0.8838 0.8838 0.8838 0.8839 0.8839
1838.000000 0.8840 0.8841 0.8841 0.8842 0.8843
1833.000000 0.8843 0.8844 0.8845 0.8845 0.8846
1828.000000 0.8846 0.8847 0.8848 0.8848 0.8849
1823.000000 0.8850 0.8850 0.8850 0.8850 0.8850
1818.000000 0.8850 0.8850 0.8850 0.8850 0.8850
1813.000000 0.8850 0.8850 0.8851 0.8851 0.8851
1808.000000 0.8851 0.8851 0.8851 0.8851 0.8851
1803.000000 0.8851 0.8851 0.8851 0.8851 0.8851
1798.000000 0.8851 0.8850 0.8850 0.8850 0.8850
1793.000000 0.8850 0.8850 0.8850 0.8850 0.8850
1788.000000 0.8849 0.8849 0.8849 0.8849 0.8849
1783.000000 0.8849 0.8849 0.8851 0.8853 0.8855
1778.000000 0.8857 0.8859 0.8859 0.8859 0.8859
1773.000000 0.8858 0.8858 0.8858 0.8858 0.8858
1768.000000 0.8858 0.8858 0.8858 0.8858 0.8857
1763.000000 0.8857 0.8857 0.8857 0.8855 0.8854
1758.000000 0.8852 0.8851 0.8850 0.8848 0.8847
1753.000000 0.8845 0.8844 0.8842 0.8841 0.8839
1748.000000 0.8838 0.8836 0.8834 0.8832 0.8830
1743.000000 0.8828 0.8825 0.8824 0.8821 0.8818
1738.000000 0.8817 0.8815 0.8814 0.8813 0.8813
1733.000000 0.8812 0.8812 0.8811 0.8811 0.8810
1728.000000 0.8810 0.8808 0.8805 0.8803 0.8800
1723.000000 0.8797 0.8795 0.8792 0.8785 0.8774
1718.000000 0.8767 0.8761 0.8754 0.8748 0.8742
1713.000000 0.8735 0.8728 0.8723 0.8717 0.8717
1708.000000 0.8717 0.8716 0.8716 0.8716 0.8716
1703.000000 0.8716 0.8716 0.8716 0.8716 0.8715
1698.000000 0.8715 0.8715 0.8715 0.8715 0.8715
1693.000000 0.8715 0.8715 0.8715 0.8715 0.8715
1688.000000 0.8715 0.8715 0.8715 0.8715 0.8716
1683.000000 0.8716 0.8716 0.8716 0.8717 0.8717
1678.000000 0.8717 0.8717 0.8717 0.8718 0.8718
1673.000000 0.8718 0.8718 0.8718 0.8718 0.8718
1668.000000 0.8718 0.8718 0.8718 0.8717 0.8717
1663.000000 0.8717 0.8716 0.8716 0.8715 0.8715
1658.000000 0.8714 0.8714 0.8714 0.8713 0.8713
1653.000000 0.8712 0.8712 0.8712 0.8711 0.8711
1648.000000 0.8710 0.8710 0.8709 0.8709 0.8708
1643.000000 0.8708 0.8707 0.8706 0.8705 0.8705
1638.000000 0.8706 0.8707 0.8708 0.8709 0.8710
1633.000000 0.8711 0.8713 0.8714 0.8714 0.8712
1628.000000 0.8710 0.8709 0.8707 0.8705 0.8703
1623.000000 0.8701 0.8700 0.8698 0.8696 0.8694
1618.000000 0.8693 0.8691 0.8689 0.8687 0.8687
1613.000000 0.8687 0.8687 0.8687 0.8687 0.8687
1608.000000 0.8686 0.8686 0.8686 0.8686 0.8686
1603.000000 0.8686 0.8686 0.8686 0.8686 0.8686
1598.000000 0.8686 0.8686 0.8687 0.8687 0.8687
1593.000000 0.8687 0.8687 0.8687 0.8687 0.8688
1588.000000 0.8688 0.8687 0.8687 0.8686 0.8685
1583.000000 0.8685 0.8684 0.8684 0.8683 0.8683
1578.000000 0.8682 0.8681 0.8681 0.8680 0.8680
1573.000000 0.8678 0.8678 0.8677 0.8675 0.8675
1568.000000 0.8674 0.8671 0.8671 0.8670 0.8668
1563.000000 0.8667 0.8666 0.8665 0.8663 0.8662
1558.000000 0.8661 0.8660 0.8658 0.8657 0.8656
1553.000000 0.8655 0.8654 0.8654 0.8653 0.8653
1548.000000 0.8653 0.8652 0.8652 0.8651 0.8651
1543.000000 0.8650 0.8650 0.8650 0.8648 0.8645
1538.000000 0.8642 0.8639 0.8636 0.8633 0.8630
1533.000000 0.8627 0.8624 0.8618 0.8612 0.8605
1528.000000 0.8599 0.8593 0.8586 0.8580 0.8573
1523.000000 0.8567 0.8559 0.8551 0.8544 0.8536
1518.000000 0.8528 0.8520 0.8512 0.8505 0.8497
1513.000000 0.8487 0.8478 0.8468 0.8459 0.8450
1508.000000 0.8441 0.8431 0.8421 0.8413 0.8403
1503.000000 0.8394 0.8384 0.8375 0.8366 0.8356
1498.000000 0.8347 0.8337 0.8328 0.8318 0.8310
1493.000000 0.8301 0.8288 0.8271 0.8256 0.8240
1488.000000 0.8224 0.8204 0.8172 0.8142 0.8104
1483.000000 0.8053 0.8001 0.7932 0.7818 0.7711
1478.000000 0.7607 0.7421 0.7283 0.7158 0.7005
1473.000000 0.6522 0.6102 0.5681 0.5259 0.4838
1468.000000 0.4054 0.4059 0.4134 0.4268 0.4402
1463.000000 0.4406 0.4406 0.4406 0.4428 0.4457
1458.000000 0.4499 0.4638 0.4796 0.4966 0.5256
1453.000000 0.5444 0.5633 0.5853 0.5959 0.6054
1448.000000 0.6155 0.6249 0.6290 0.6330 0.6376
1443.000000 0.6424 0.6468 0.6511 0.6554 0.6604
1438.000000 0.6654 0.6703 0.6750 0.6798 0.6846
1433.000000 0.6897 0.6947 0.6989 0.7022 0.7045
1428.000000 0.7058 0.7068 0.7078 0.7083 0.7086
1423.000000 0.7089 0.7092 0.7092 0.7090 0.7088
1418.000000 0.7086 0.7084 0.7082 0.7080 0.7078
1413.000000 0.7076 0.7075 0.7072 0.7071 0.7069
1408.000000 0.7078 0.7086 0.7094 0.7105 0.7118
1403.000000 0.7136 0.7158 0.7181 0.7205 0.7230
1398.000000 0.7251 0.7271 0.7287 0.7301 0.7318
1393.000000 0.7337 0.7348 0.7368 0.7351 0.7346
1388.000000 0.7341 0.7317 0.7224 0.6951 0.6678
1383.000000 0.6407 0.6135 0.5862 0.5614 0.5626
1378.000000 0.5765 0.5988 0.6210 0.6394 0.6530
1373.000000 0.6626 0.6742 0.6880 0.7046 0.7115
1368.000000 0.7161 0.7199 0.7236 0.7257 0.7278
1363.000000 0.7300 0.7317 0.7328 0.7341 0.7353
1358.000000 0.7365 0.7368 0.7383 0.7374 0.7374
1353.000000 0.7371 0.7368 0.7367 0.7364 0.7348
1348.000000 0.7330 0.7311 0.7275 0.7239 0.7201
1343.000000 0.7151 0.7110 0.7078 0.7072 0.7074
1338.000000 0.7075 0.7075 0.7075 0.7076 0.7078
1333.000000 0.7078 0.7078 0.7085 0.7091 0.7097
1328.000000 0.7103 0.7108 0.7114 0.7119 0.7125
1323.000000 0.7131 0.7137 0.7143 0.7149 0.7155
1318.000000 0.7161 0.7165 0.7171 0.7178 0.7184
1313.000000 0.7190 0.7196 0.7201 0.7206 0.7208
1308.000000 0.7211 0.7215 0.7218 0.7221 0.7224
1303.000000 0.7224 0.7224 0.7224 0.7224 0.7225
1298.000000 0.7226 0.7232 0.7237 0.7243 0.7248
1293.000000 0.7254 0.7260 0.7265 0.7269 0.7275
1288.000000 0.7281 0.7286 0.7292 0.7297 0.7301
1283.000000 0.7305 0.7308 0.7312 0.7317 0.7319
1278.000000 0.7324 0.7326 0.7330 0.7334 0.7337
1273.000000 0.7342 0.7348 0.7353 0.7358 0.7364
1268.000000 0.7369 0.7375 0.7381 0.7387 0.7392
1263.000000 0.7403 0.7417 0.7430 0.7447 0.7464
1258.000000 0.7482 0.7496 0.7501 0.7507 0.7507
1253.000000 0.7505 0.7501 0.7501 0.7500 0.7501
1248.000000 0.7506 0.7510 0.7514 0.7518 0.7521
1243.000000 0.7528 0.7543 0.7556 0.7571 0.7589
1238.000000 0.7601 0.7611 0.7619 0.7628 0.7638
1233.000000 0.7645 0.7647 0.7650 0.7657 0.7667
1228.000000 0.7676 0.7696 0.7718 0.7731 0.7737
1223.000000 0.7744 0.7750 0.7756 0.7757 0.7758
1218.000000 0.7758 0.7758 0.7749 0.7741 0.7732
1213.000000 0.7719 0.7707 0.7697 0.7692 0.7687
1208.000000 0.7685 0.7682 0.7680 0.7678 0.7678
1203.000000 0.7681 0.7683 0.7685 0.7688 0.7690
1198.000000 0.7694 0.7699 0.7705 0.7710 0.7715
1193.000000 0.7721 0.7728 0.7734 0.7741 0.7753
1188.000000 0.7768 0.7786 0.7815 0.7849 0.7876
1183.000000 0.7904 0.7930 0.7950 0.7968 0.7985
1178.000000 0.8003 0.8021 0.8040 0.8058 0.8076
1173.000000 0.8088 0.8098 0.8108 0.8118 0.8125
1168.000000 0.8131 0.8135 0.8134 0.8126 0.8121
1163.000000 0.8114 0.8147 0.8083 0.8055 0.8000
1158.000000 0.7946 0.7894 0.7814 0.7701 0.7587
1153.000000 0.7522 0.7461 0.7405 0.7351 0.7308
1148.000000 0.7247 0.7161 0.7075 0.6988 0.6901
1143.000000 0.6815 0.6730 0.6644 0.6557 0.6471
1138.000000 0.6385 0.6377 0.6376 0.6375 0.6375
1133.000000 0.6374 0.6375 0.6380 0.6379 0.6365
1128.000000 0.6351 0.6341 0.6332 0.6335 0.6339
1123.000000 0.6340 0.6352 0.6365 0.6377 0.6407
1118.000000 0.6440 0.6480 0.6519 0.6585 0.6694
1113.000000 0.6850 0.7001 0.7130 0.7328 0.7421
1108.000000 0.7480 0.7530 0.7574 0.7617 0.7657
1103.000000 0.7686 0.7701 0.7718 0.7732 0.7744
1098.000000 0.7755 0.7756 0.7757 0.7741 0.7721
1093.000000 0.7655 0.7588 0.7512 0.7438 0.7371
1088.000000 0.7322 0.7274 0.7225 0.7171 0.7117
1083.000000 0.7062 0.7018 0.6981 0.6946 0.6933
1078.000000 0.6925 0.6918 0.6911 0.6911 0.6914
1073.000000 0.6915 0.6917 0.6931 0.6945 0.6965
1068.000000 0.6990 0.7004 0.7015 0.7024 0.7033
1063.000000 0.7039 0.7043 0.6937 0.6855 0.6772
1058.000000 0.6710 0.6651 0.6595 0.6572 0.6551
1053.000000 0.6544 0.6542 0.6540 0.6539 0.6539
1048.000000 0.6541 0.6543 0.6546 0.6548 0.6536
1043.000000 0.6515 0.6492 0.6457 0.6421 0.6387
1038.000000 0.6341 0.6294 0.6250 0.6207 0.6164
1033.000000 0.6101 0.6053 0.6022 0.5992 0.5967
1028.000000 0.5951 0.5936 0.5921 0.5905 0.5890
1023.000000 0.5882 0.5875 0.5868 0.5860 0.5852
1018.000000 0.5842 0.5844 0.5836 0.5833 0.5877
1013.000000 0.5954 0.6025 0.6072 0.6120 0.6185
1008.000000 0.6249 0.6299 0.6347 0.6394 0.6442
1003.000000 0.6490 0.6540 0.6592 0.6644 0.6697
998.000000 0.6751 0.6821 0.6878 0.6928 0.6971
993.000000 0.7015 0.7057 0.7103 0.7150 0.7197
988.000000 0.7251 0.7306 0.7360 0.7401 0.7441
983.000000 0.7482 0.7514 0.7543 0.7571 0.7601
978.000000 0.7628 0.7655 0.7681 0.7707 0.7732
973.000000 0.7750 0.7767 0.7785 0.7803 0.7821
968.000000 0.7838 0.7854 0.7868 0.7878 0.7889
963.000000 0.7899 0.7903 0.7926 0.7899 0.7880
958.000000 0.7860 0.7821 0.7788 0.7765 0.7743
953.000000 0.7706 0.7665 0.7631 0.7592 0.7568
948.000000 0.7558 0.7551 0.7551 0.7560 0.7571
943.000000 0.7589 0.7621 0.7644 0.7651 0.7692
938.000000 0.7661 0.7660 0.7636 0.7599 0.7560
933.000000 0.7538 0.7519 0.7521 0.7537 0.7607
928.000000 0.7686 0.7756 0.7825 0.7892 0.7936
923.000000 0.7980 0.8021 0.8060 0.8098 0.8137
918.000000 0.8165 0.8191 0.8198 0.8204 0.8210
913.000000 0.8225 0.8218 0.8214 0.8201 0.8169
908.000000 0.8100 0.8021 0.7921 0.7817 0.7731
903.000000 0.7648 0.7590 0.7572 0.7568 0.7571
898.000000 0.7564 0.7581 0.7611 0.7647 0.7687
893.000000 0.7728 0.7767 0.7806 0.7845 0.7883
888.000000 0.7919 0.7953 0.7978 0.8001 0.8017
883.000000 0.8025 0.8034 0.8036 0.8043 0.8056
878.000000 0.8068 0.8084 0.8104 0.8124 0.8148
873.000000 0.8181 0.8211 0.8235 0.8258 0.8281
868.000000 0.8301 0.8315 0.8321 0.8330 0.8328
863.000000 0.8328 0.8325 0.8324 0.8323 0.8334
858.000000 0.8344 0.8355 0.8367 0.8382 0.8398
853.000000 0.8413 0.8427 0.8440 0.8453 0.8461
848.000000 0.8467 0.8470 0.8474 0.8477 0.8480
843.000000 0.8483 0.8486 0.8489 0.8492 0.8496
838.000000 0.8496 0.8495 0.8474 0.8454 0.8433
833.000000 0.8413 0.8394 0.8374 0.8357 0.8353
828.000000 0.8348 0.8344 0.8354 0.8337 0.8342
823.000000 0.8347 0.8356 0.8375 0.8396 0.8415
818.000000 0.8427 0.8439 0.8450 0.8462 0.8474
813.000000 0.8486 0.8496 0.8504 0.8513 0.8521
808.000000 0.8528 0.8528 0.8528 0.8528 0.8525
803.000000 0.8514 0.8503 0.8493 0.8480 0.8467
798.000000 0.8454 0.8437 0.8421 0.8404 0.8384
793.000000 0.8363 0.8240 0.8211 0.8181 0.8155
788.000000 0.8126 0.8108 0.8108 0.8112 0.8140
783.000000 0.8168 0.8196 0.8220 0.8244 0.8261
778.000000 0.8275 0.8277 0.8278 0.8278 0.8277
773.000000 0.8275 0.8271 0.8264 0.8257 0.8225
768.000000 0.8209 0.8200 0.8191 0.8183 0.8183
763.000000 0.8183 0.8183 0.8184 0.8185 0.8185
758.000000 0.8186 0.8182 0.8176 0.8171 0.8167
753.000000 0.8160 0.8151 0.8145 0.8137 0.8128
748.000000 0.8118 0.8106 0.8092 0.8068 0.8047
743.000000 0.8024 0.7994 0.7958 0.7901 0.7828
738.000000 0.7761 0.7667 0.7593 0.7519 0.7446
733.000000 0.7372 0.7298 0.7275 0.7257 0.7257
728.000000 0.7257 0.7233 0.7237 0.7269 0.7446
723.000000 0.7540 0.7606 0.7671 0.7732 0.7787
718.000000 0.7839 0.7880 0.7910 0.7935 0.7955
713.000000 0.7964 0.7971 0.7981 0.7989 0.7998
708.000000 0.8006 0.8011 0.8014 0.8015 0.8018
703.000000 0.8021 0.8024 0.8026 0.8025 0.8025
698.000000 0.8021 0.8015 0.8010 0.7986 0.7999
693.000000 0.7994 0.7988 0.7983 0.7976 0.7971
688.000000 0.7964 0.7958 0.7951 0.7944 0.7938
683.000000 0.7931 0.7925 0.7918 0.7911 0.7905
678.000000 0.7898 0.7892 0.7885 0.7878 0.7871
673.000000 0.7865 0.7858 0.7851 0.7845 0.7838
668.000000 0.7831 0.7825 0.7818 0.7811 0.7804
663.000000 0.7797 0.7791 0.7784 0.7776 0.7771
658.000000 0.7765 0.7761 0.7757 0.7751 0.7748
653.000000 0.7743 0.7738 0.7734 0.7728 0.7724
648.000000 0.7721 0.7718 0.7717 0.7715 0.7712
643.000000 0.7711 0.7708 0.7707 0.7704 0.7703
638.000000 0.7701 0.7699 0.7697 0.7695 0.7693
633.000000 0.7692 0.7690 0.7689 0.7688 0.7706
628.000000 0.7686 0.7686 0.7686 0.7689 0.7691
623.000000 0.7694 0.7697 0.7699 0.7701 0.7704
618.000000 0.7707 0.7710 0.7711 0.7715 0.7718
613.000000 0.7721 0.7725 0.7730 0.7734 0.7738
608.000000 0.7742 0.7746 0.7751 0.7755 0.7758
603.000000 0.7762 0.7768 0.7771 0.7775 0.7780
598.000000 0.7785 0.7789 0.7793 0.7797 0.7801
593.000000 0.7806 0.7810 0.7815 0.7818 0.7824
588.000000 0.7828 0.7832 0.7837 0.7841 0.7845
583.000000 0.7850 0.7854 0.7858 0.7860 0.7862
578.000000 0.7865 0.7868 0.7869 0.7872 0.7875
573.000000 0.7878 0.7880 0.7882 0.7885 0.7887
568.000000 0.7890 0.7892 0.7895 0.7897 0.7900
563.000000 0.7903 0.7906 0.7910 0.7912 0.7917
558.000000 0.7919 0.7924 0.7928 0.7931 0.7935
553.000000 0.7938 0.7942 0.7945 0.7949 0.7951
548.000000 0.7956 0.7958 0.7961 0.7962 0.7965
543.000000 0.7968 0.7971 0.7974 0.7975 0.7978
538.000000 0.7982 0.7984 0.7987 0.7990 0.7993
533.000000 0.7996 0.7999 0.8001 0.8004 0.8007
528.000000 0.8010 0.8012 0.8015 0.8018 0.8021
523.000000 0.8024 0.8026 0.8031 0.8034 0.8037
518.000000 0.8040 0.8044 0.8048 0.8053 0.8057
513.000000 0.8061 0.8067 0.8071 0.8074 0.8078
508.000000 0.8081 0.8085 0.8088 0.8092 0.8095
503.000000 0.8099 0.8101 0.8106 0.8108 0.8112
498.000000 0.8115 0.8118 0.8122 0.8128 0.8135
493.000000 0.8141 0.8146 0.8151 0.8158 0.8162
488.000000 0.8168 0.8175 0.8181 0.8186 0.8191
483.000000 0.8196 0.8201 0.8206 0.8211 0.8217
478.000000 0.8221 0.8227 0.8232 0.8237 0.8240
473.000000 0.8242 0.8244 0.8246 0.8247 0.8249
468.000000 0.8251 0.8252 0.8254 0.8256 0.8258
463.000000 0.8260 0.8262 0.8264 0.8266 0.8268
458.000000 0.8270 0.8271 0.8274 0.8275 0.8278
453.000000 0.8280 0.8285 0.8290 0.8295 0.8299
448.000000 0.8304 0.8309 0.8314 0.8318 0.8323
443.000000 0.8328 0.8333 0.8337 0.8342 0.8349
438.000000 0.8357 0.8365 0.8373 0.8381 0.8389
433.000000 0.8397 0.8406 0.8414 0.8421 0.8430
428.000000 0.8438 0.8446 0.8454 0.8463 0.8471
423.000000 0.8482 0.8491 0.8501 0.8511 0.8521
418.000000 0.8531 0.8540 0.8550 0.8560 0.8570
413.000000 0.8580 0.8585 0.8589 0.8594 0.8599
408.000000 0.8603 0.8608 0.8613 0.8616 0.8617
403.000000 0.8618 0.8618 0.8618 0.8620 0.8621
398.000000 0.8621 0.8621 0.8623 0.8624 0.8625
393.000000 0.8625 0.8625 0.8627 0.8628 0.8628
388.000000 0.8628 0.8630 0.8630 0.8631 0.8631
383.000000 0.8632 0.8632 0.8633 0.8633 0.8634
378.000000 0.8634 0.8635 0.8635 0.8635 0.8636
373.000000 0.8636 0.8637 0.8637 0.8638 0.8638
368.000000 0.8638 0.8639 0.8640 0.8640 0.8640
363.000000 0.8640 0.8640 0.8641 0.8641 0.8641
358.000000 0.8642 0.8642 0.8642 0.8643 0.8643
353.000000 0.8643 0.8643 0.8643 0.8643 0.8643
348.000000 0.8643 0.8644 0.8644 0.8644 0.8644
343.000000 0.8644 0.8644 0.8644 0.8644 0.8643
338.000000 0.8643 0.8642 0.8641 0.8640 0.8640
333.000000 0.8639 0.8638 0.8638 0.8637 0.8636
328.000000 0.8636 0.8635 0.8634 0.8634 0.8633
323.000000 0.8633 0.8632 0.8632 0.8631 0.8630
318.000000 0.8628 0.8628 0.8627 0.8625 0.8625
313.000000 0.8625 0.8625 0.8625 0.8627 0.8628
##END=
