##TITLE=PHTHALIC ACID, DIBENZYL ESTER
##JCAMP-DX=4.24
##DATA TYPE=INFRARED SPECTRUM
##CLASS=COBLENTZ III
##ORIGIN=DOW CHEMICAL COMPANY
##OWNER=COBLENTZ SOCIETY
Collection (C) 2018 copyright by the U.S. Secretary of Commerce
on behalf of the United States of America. All rights reserved.
##DATE=1954/05/10
##NAMES=dibenzyl phthalate
##CAS REGISTRY NO=523-31-9
##MOLFORM=C22 H18 O4
##SOURCE REFERENCE=COBLENTZ NO. 6518
##$NIST SOURCE=COBLENTZ
##$NIST IMAGE=cob6518
##SPECTROMETER/DATA SYSTEM=BAIRD (PRISM)
##INSTRUMENT PARAMETERS=NaCl PRISM
##STATE=SOLUTION (10% CCl4 FOR 2-7.5, 10% CS2 FOR 7.5-15.9 MICRON)
##PATH LENGTH=0.013 CM, 0.012 CM
$$SPECTRAL CONTAMINATION DUE TO CS2 AROUND 855, AND CCl4 AROUND 1555 CM^-^1
##SAMPLING PROCEDURE=TRANSMISSION
##RESOLUTION=2
##DATA PROCESSING=DIGITIZED BY NIST FROM HARD COPY
##XUNITS=MICROMETERS
##YUNITS=TRANSMITTANCE
##XFACTOR=1.000000
##YFACTOR=1
##DELTAX=000.004878
##FIRSTX=2.005
##LASTX=15.9029
##FIRSTY=0.86
##MAXX=15.9029
##MINX=2.005
##MAXY=0.893
##MINY=0.012
##NPOINTS=2850
##XYDATA=(X++(Y..Y))
2.005000 0.8600 0.8600 0.8600 0.8600 0.8600
2.029399 0.8610 0.8610 0.8610 0.8600 0.8610
2.054000 0.8610 0.8610 0.8610 0.8610 0.8610
2.078399 0.8610 0.8600 0.8600 0.8590 0.8590
2.102000 0.8570 0.8560 0.8560 0.8550 0.8550
2.126399 0.8550 0.8560 0.8560 0.8590 0.8590
2.151000 0.8610 0.8620 0.8630 0.8630 0.8650
2.175399 0.8650 0.8650 0.8650 0.8650 0.8650
2.200000 0.8630 0.8630 0.8630 0.8630 0.8630
2.224399 0.8630 0.8620 0.8620 0.8620 0.8620
2.249000 0.8620 0.8620 0.8620 0.8620 0.8620
2.273399 0.8620 0.8620 0.8620 0.8620 0.8630
2.298000 0.8630 0.8650 0.8650 0.8660 0.8660
2.322399 0.8660 0.8670 0.8670 0.8670 0.8670
2.346000 0.8670 0.8670 0.8670 0.8670 0.8670
2.370399 0.8670 0.8660 0.8660 0.8660 0.8650
2.395000 0.8650 0.8630 0.8620 0.8600 0.8600
2.419399 0.8600 0.8590 0.8590 0.8590 0.8590
2.444000 0.8590 0.8600 0.8610 0.8620 0.8670
2.468399 0.8700 0.8710 0.8720 0.8720 0.8720
2.493000 0.8720 0.8710 0.8710 0.8680 0.8670
2.517399 0.8670 0.8670 0.8670 0.8680 0.8710
2.541000 0.8720 0.8730 0.8730 0.8730 0.8720
2.565399 0.8710 0.8700 0.8700 0.8680 0.8680
2.590000 0.8680 0.8680 0.8670 0.8670 0.8680
2.614399 0.8680 0.8680 0.8700 0.8710 0.8710
2.639000 0.8720 0.8730 0.8730 0.8730 0.8730
2.663399 0.8730 0.8720 0.8700 0.8680 0.8670
2.688000 0.8670 0.8670 0.8670 0.8670 0.8670
2.712399 0.8680 0.8680 0.8680 0.8700 0.8700
2.737000 0.8700 0.8700 0.8680 0.8680 0.8670
2.761399 0.8660 0.8660 0.8660 0.8650 0.8650
2.785000 0.8650 0.8650 0.8650 0.8650 0.8650
2.809399 0.8660 0.8660 0.8660 0.8660 0.8650
2.834000 0.8630 0.8620 0.8600 0.8560 0.8510
2.858399 0.8490 0.8460 0.8430 0.8390 0.8380
2.883000 0.8370 0.8370 0.8350 0.8370 0.8380
2.907399 0.8430 0.8490 0.8540 0.8590 0.8610
2.932000 0.8630 0.8660 0.8660 0.8670 0.8670
2.956399 0.8670 0.8660 0.8650 0.8630 0.8630
2.980000 0.8620 0.8620 0.8630 0.8650 0.8670
3.004399 0.8700 0.8710 0.8700 0.8700 0.8680
3.029000 0.8680 0.8670 0.8670 0.8680 0.8680
3.053399 0.8700 0.8710 0.8710 0.8710 0.8710
3.078000 0.8700 0.8680 0.8670 0.8670 0.8660
3.102399 0.8660 0.8650 0.8650 0.8650 0.8630
3.127000 0.8620 0.8610 0.8600 0.8600 0.8590
3.151399 0.8560 0.8520 0.8520 0.8490 0.8430
3.176000 0.8330 0.8280 0.8210 0.8190 0.8110
3.200399 0.8000 0.7800 0.7610 0.7470 0.7320
3.224000 0.7180 0.7000 0.6830 0.6690 0.6550
3.248399 0.6490 0.6370 0.6310 0.6250 0.6220
3.273000 0.6210 0.6200 0.6220 0.6400 0.6590
3.297399 0.6770 0.6960 0.7130 0.7310 0.7850
3.322000 0.7860 0.7840 0.7630 0.7500 0.7360
3.346399 0.7290 0.7190 0.7070 0.7040 0.6970
3.371000 0.6960 0.6960 0.6980 0.7320 0.7740
3.395399 0.8030 0.8070 0.8070 0.8060 0.8020
3.420000 0.7940 0.7910 0.7890 0.7870 0.7890
3.444399 0.7920 0.8000 0.8120 0.8240 0.8370
3.468000 0.8440 0.8490 0.8510 0.8520 0.8550
3.492399 0.8570 0.8600 0.8620 0.8660 0.8680
3.517000 0.8680 0.8680 0.8700 0.8700 0.8710
3.541399 0.8720 0.8750 0.8760 0.8780 0.8780
3.566000 0.8780 0.8780 0.8780 0.8780 0.8780
3.590399 0.8780 0.8780 0.8780 0.8790 0.8790
3.615000 0.8810 0.8790 0.8790 0.8810 0.8790
3.639399 0.8790 0.8780 0.8780 0.8780 0.8780
3.663000 0.8780 0.8790 0.8790 0.8810 0.8820
3.687399 0.8820 0.8820 0.8820 0.8820 0.8820
3.712000 0.8820 0.8830 0.8830 0.8830 0.8830
3.736399 0.8830 0.8830 0.8830 0.8820 0.8820
3.761000 0.8820 0.8810 0.8810 0.8810 0.8810
3.785399 0.8790 0.8790 0.8790 0.8790 0.8790
3.810000 0.8790 0.8790 0.8790 0.8790 0.8790
3.834399 0.8810 0.8820 0.8820 0.8830 0.8830
3.859000 0.8820 0.8820 0.8810 0.8810 0.8810
3.883399 0.8810 0.8810 0.8810 0.8820 0.8830
3.907000 0.8860 0.8860 0.8860 0.8860 0.8860
3.931399 0.8830 0.8820 0.8810 0.8810 0.8810
3.956000 0.8820 0.8830 0.8860 0.8860 0.8870
3.980399 0.8870 0.8870 0.8880 0.8880 0.8890
4.005000 0.8890 0.8890 0.8890 0.8890 0.8900
4.029399 0.8900 0.8900 0.8890 0.8890 0.8870
4.054000 0.8840 0.8830 0.8820 0.8820 0.8820
4.078399 0.8820 0.8820 0.8820 0.8830 0.8830
4.102000 0.8830 0.8820 0.8810 0.8790 0.8790
4.126399 0.8790 0.8790 0.8810 0.8830 0.8860
4.151000 0.8860 0.8860 0.8860 0.8830 0.8820
4.175399 0.8790 0.8760 0.8720 0.8710 0.8680
4.200000 0.8670 0.8660 0.8630 0.8620 0.8620
4.224399 0.8610 0.8600 0.8590 0.8570 0.8560
4.249000 0.8560 0.8560 0.8550 0.8550 0.8550
4.273399 0.8560 0.8570 0.8610 0.8650 0.8680
4.298000 0.8710 0.8720 0.8720 0.8720 0.8720
4.322399 0.8710 0.8710 0.8670 0.8670 0.8710
4.346000 0.8730 0.8760 0.8770 0.8750 0.8750
4.370399 0.8730 0.8720 0.8720 0.8730 0.8760
4.395000 0.8770 0.8790 0.8770 0.8770 0.8770
4.419399 0.8770 0.8780 0.8780 0.8820 0.8830
4.444000 0.8860 0.8860 0.8860 0.8860 0.8860
4.468399 0.8860 0.8860 0.8860 0.8860 0.8870
4.493000 0.8890 0.8890 0.8890 0.8890 0.8890
4.517399 0.8890 0.8880 0.8870 0.8860 0.8860
4.541000 0.8860 0.8860 0.8860 0.8870 0.8890
4.565399 0.8920 0.8920 0.8920 0.8920 0.8900
4.590000 0.8890 0.8890 0.8880 0.8890 0.8890
4.614399 0.8900 0.8920 0.8930 0.8930 0.8930
4.639000 0.8930 0.8920 0.8900 0.8890 0.8880
4.663399 0.8870 0.8870 0.8870 0.8870 0.8870
4.688000 0.8870 0.8880 0.8890 0.8900 0.8920
4.712399 0.8920 0.8920 0.8900 0.8870 0.8840
4.737000 0.8830 0.8820 0.8810 0.8810 0.8810
4.761399 0.8810 0.8810 0.8810 0.8810 0.8820
4.785000 0.8820 0.8820 0.8830 0.8830 0.8810
4.809399 0.8810 0.8810 0.8810 0.8810 0.8810
4.834000 0.8820 0.8820 0.8840 0.8860 0.8860
4.858399 0.8860 0.8860 0.8860 0.8860 0.8860
4.883000 0.8870 0.8870 0.8870 0.8870 0.8860
4.907399 0.8840 0.8820 0.8780 0.8770 0.8760
4.932000 0.8760 0.8760 0.8760 0.8780 0.8790
4.956399 0.8790 0.8790 0.8790 0.8790 0.8780
4.980000 0.8770 0.8760 0.8750 0.8720 0.8710
5.004399 0.8700 0.8670 0.8670 0.8660 0.8630
5.029000 0.8600 0.8540 0.8510 0.8480 0.8410
5.053399 0.8380 0.8340 0.8320 0.8300 0.8280
5.078000 0.8270 0.8230 0.8210 0.8170 0.8140
5.102399 0.8140 0.8130 0.8120 0.8140 0.8160
5.127000 0.8290 0.8380 0.8490 0.8520 0.8600
5.151399 0.8650 0.8700 0.8710 0.8710 0.8710
5.176000 0.8710 0.8700 0.8680 0.8680 0.8680
5.200399 0.8670 0.8670 0.8670 0.8670 0.8670
5.224000 0.8670 0.8650 0.8620 0.8610 0.8600
5.248399 0.8570 0.8520 0.8500 0.8440 0.8380
5.273000 0.8330 0.8300 0.8290 0.8270 0.8240
5.297399 0.8230 0.8220 0.8210 0.8190 0.8190
5.322000 0.8190 0.8210 0.8230 0.8270 0.8300
5.346399 0.8320 0.8340 0.8350 0.8350 0.8350
5.371000 0.8370 0.8370 0.8330 0.8330 0.8320
5.395399 0.8280 0.8250 0.8250 0.8250 0.8250
5.420000 0.8240 0.8240 0.8230 0.8230 0.8220
5.444399 0.8210 0.8180 0.8160 0.8130 0.8110
5.468000 0.8050 0.8020 0.8000 0.7920 0.7870
5.492399 0.7840 0.7800 0.7780 0.7750 0.7740
5.517000 0.7740 0.7730 0.7730 0.7740 0.7750
5.541399 0.7750 0.7750 0.7730 0.7680 0.7620
5.566000 0.7530 0.7480 0.7370 0.7300 0.7290
5.590399 0.7210 0.7000 0.6880 0.6600 0.6540
5.615000 0.6380 0.6180 0.6010 0.5790 0.5570
5.639399 0.5390 0.5140 0.4920 0.4690 0.4440
5.663000 0.4160 0.3840 0.3500 0.3130 0.2810
5.687399 0.2620 0.2460 0.1700 0.1490 0.1180
5.712000 0.1000 0.0750 0.0580 0.0490 0.0350
5.736399 0.0310 0.0300 0.0290 0.0290 0.0300
5.761000 0.0310 0.0340 0.0360 0.0400 0.0420
5.785399 0.0490 0.0560 0.0890 0.1200 0.1990
5.810000 0.2510 0.2620 0.3070 0.3510 0.3890
5.834399 0.4200 0.4540 0.4790 0.5040 0.5240
5.859000 0.5490 0.5660 0.5890 0.6040 0.6200
5.883399 0.6310 0.6400 0.6490 0.6580 0.6670
5.907000 0.6780 0.6910 0.7000 0.7130 0.7210
5.931399 0.7350 0.7420 0.7520 0.7580 0.7670
5.956000 0.7730 0.7760 0.7800 0.7810 0.7810
5.980399 0.7830 0.7840 0.7890 0.7920 0.7950
6.005000 0.7970 0.7990 0.8020 0.8030 0.8030
6.029399 0.8050 0.8060 0.8060 0.8070 0.8080
6.054000 0.8080 0.8100 0.8080 0.8070 0.8030
6.078399 0.8020 0.8000 0.8000 0.7940 0.7910
6.102000 0.7900 0.7860 0.7800 0.7780 0.7730
6.126399 0.7650 0.7590 0.7510 0.7400 0.7300
6.151000 0.7180 0.7000 0.6810 0.6620 0.6480
6.175399 0.6230 0.6090 0.5890 0.5720 0.5550
6.200000 0.5490 0.5340 0.5330 0.5330 0.5330
6.224399 0.5330 0.5330 0.5280 0.5230 0.5150
6.249000 0.5070 0.5020 0.4840 0.4740 0.4640
6.273399 0.4550 0.4490 0.4470 0.4460 0.4470
6.298000 0.4490 0.4590 0.4730 0.4860 0.5000
6.322399 0.5070 0.5130 0.5170 0.5190 0.5190
6.346000 0.5120 0.5070 0.5020 0.4980 0.4870
6.370399 0.4800 0.4750 0.4700 0.4660 0.4600
6.395000 0.4380 0.4330 0.4310 0.4300 0.4280
6.419399 0.4280 0.4280 0.4300 0.4310 0.4350
6.444000 0.4430 0.4520 0.4630 0.4740 0.4850
6.468399 0.5010 0.5120 0.5230 0.5350 0.5440
6.493000 0.5510 0.5560 0.5610 0.5660 0.5690
6.517399 0.5720 0.5740 0.5780 0.5830 0.5880
6.541000 0.5910 0.5980 0.6010 0.6040 0.6060
6.565399 0.6070 0.6090 0.6090 0.6090 0.6090
6.590000 0.5960 0.5840 0.5730 0.5550 0.5370
6.614399 0.5180 0.5000 0.5000 0.4930 0.4850
6.639000 0.4840 0.4860 0.4910 0.5120 0.5390
6.663399 0.5640 0.5850 0.6180 0.6340 0.6530
6.688000 0.6760 0.7000 0.7080 0.7270 0.7320
6.712399 0.7380 0.7410 0.7430 0.7430 0.7380
6.737000 0.7320 0.7260 0.7130 0.7000 0.6800
6.761399 0.6610 0.6490 0.6280 0.6090 0.6000
6.785000 0.5870 0.5660 0.5390 0.5220 0.5000
6.809399 0.4870 0.4730 0.4570 0.4460 0.4420
6.834000 0.4410 0.4420 0.4430 0.4690 0.5000
6.858399 0.5280 0.5560 0.5840 0.6070 0.6320
6.883000 0.6510 0.6740 0.7000 0.7150 0.7310
6.907399 0.7500 0.7580 0.7690 0.7790 0.7870
6.932000 0.7940 0.8000 0.8020 0.8050 0.8100
6.956399 0.8120 0.8160 0.8170 0.8190 0.8210
6.980000 0.8220 0.8220 0.8220 0.8220 0.8230
7.004399 0.8230 0.8230 0.8230 0.8230 0.8230
7.029000 0.8240 0.8240 0.8230 0.8230 0.8220
7.053399 0.8220 0.8190 0.8170 0.8160 0.8160
7.078000 0.8130 0.8120 0.8080 0.8030 0.8010
7.102399 0.8000 0.7900 0.7860 0.7800 0.7730
7.127000 0.7670 0.7590 0.7510 0.7410 0.7310
7.151399 0.7190 0.7020 0.6780 0.6540 0.6290
7.176000 0.6090 0.5790 0.5660 0.5370 0.5040
7.200399 0.4760 0.4420 0.4210 0.3980 0.3860
7.224000 0.3770 0.3730 0.3770 0.3970 0.4210
7.248399 0.4440 0.4800 0.5170 0.5530 0.6010
7.273000 0.6270 0.6580 0.6810 0.7040 0.7200
7.297399 0.7300 0.7410 0.7480 0.7520 0.7570
7.322000 0.7590 0.7610 0.7620 0.7620 0.7630
7.346399 0.7630 0.7630 0.7630 0.7620 0.7620
7.371000 0.7590 0.7560 0.7530 0.7530 0.7470
7.395399 0.7420 0.7360 0.7260 0.7200 0.7130
7.420000 0.7000 0.6890 0.6780 0.6700 0.6610
7.444399 0.6530 0.6500 0.6480 0.6440 0.6420
7.468000 0.6390 0.6360 0.6320 0.6280 0.6210
7.492399 0.6150 0.6070 0.6010 0.5900 0.5830
7.517000 0.5740 0.5640 0.5560 0.5500 0.5350
7.541399 0.5230 0.5110 0.5000 0.4820 0.4690
7.566000 0.4570 0.4440 0.4320 0.4240 0.4190
7.590399 0.4100 0.3810 0.3700 0.3410 0.3250
7.615000 0.3130 0.3000 0.2700 0.2580 0.2380
7.639399 0.2180 0.2020 0.1810 0.1600 0.1390
7.663000 0.1220 0.1010 0.0830 0.0690 0.0560
7.687399 0.0490 0.0370 0.0290 0.0240 0.0220
7.712000 0.0190 0.0180 0.0170 0.0150 0.0140
7.736399 0.0130 0.0130 0.0130 0.0130 0.0130
7.761000 0.0130 0.0130 0.0130 0.0140 0.0130
7.785399 0.0130 0.0140 0.0130 0.0130 0.0130
7.810000 0.0130 0.0120 0.0130 0.0130 0.0130
7.834399 0.0130 0.0130 0.0120 0.0120 0.0120
7.859000 0.0120 0.0130 0.0130 0.0150 0.0170
7.883399 0.0180 0.0200 0.0220 0.0240 0.0250
7.907000 0.0280 0.0310 0.0340 0.0370 0.0410
7.931399 0.0440 0.0490 0.0500 0.0550 0.0610
7.956000 0.0670 0.0740 0.0830 0.0940 0.0990
7.980399 0.1020 0.1090 0.1110 0.1210 0.1380
8.005000 0.1710 0.1930 0.2100 0.2210 0.2370
8.029399 0.2530 0.2640 0.2830 0.3000 0.3120
8.054000 0.3290 0.3490 0.3600 0.3730 0.3880
8.078399 0.4010 0.4090 0.4200 0.4300 0.4380
8.102000 0.4490 0.4540 0.4590 0.4620 0.4640
8.126399 0.4650 0.4650 0.4650 0.4640 0.4620
8.151000 0.4580 0.4540 0.4500 0.4470 0.4430
8.175399 0.4390 0.4370 0.4350 0.4320 0.4310
8.200000 0.4320 0.4360 0.4440 0.4580 0.4700
8.224399 0.4810 0.5000 0.5090 0.5200 0.5310
8.249000 0.5420 0.5500 0.5600 0.5720 0.5820
8.273399 0.5850 0.5890 0.5910 0.5910 0.5930
8.298000 0.5930 0.5930 0.5940 0.5950 0.5990
8.322399 0.5990 0.6000 0.5990 0.6000 0.6000
8.346000 0.6000 0.6010 0.6010 0.6010 0.6010
8.370399 0.6000 0.6000 0.5990 0.5990 0.5990
8.395000 0.5980 0.5980 0.5960 0.5960 0.5940
8.419399 0.5930 0.5910 0.5910 0.5910 0.5900
8.444000 0.5900 0.5900 0.5890 0.5890 0.5880
8.468399 0.5880 0.5870 0.5870 0.5850 0.5840
8.493000 0.5830 0.5800 0.5780 0.5740 0.5690
8.517399 0.5660 0.5620 0.5580 0.5530 0.5500
8.541000 0.5450 0.5410 0.5390 0.5360 0.5350
8.565399 0.5340 0.5330 0.5330 0.5330 0.5330
8.590000 0.5340 0.5350 0.5370 0.5370 0.5350
8.614399 0.5340 0.5310 0.5290 0.5250 0.5200
8.639000 0.5150 0.5090 0.5030 0.5000 0.4910
8.663399 0.4820 0.4710 0.4590 0.4430 0.4320
8.688000 0.4190 0.4010 0.3880 0.3620 0.3500
8.712399 0.3280 0.3000 0.2680 0.2480 0.2190
8.737000 0.1990 0.1720 0.1530 0.1370 0.1200
8.761399 0.1070 0.0980 0.0830 0.0750 0.0710
8.785000 0.0640 0.0580 0.0510 0.0490 0.0490
8.809399 0.0410 0.0390 0.0370 0.0350 0.0330
8.834000 0.0300 0.0290 0.0280 0.0250 0.0230
8.858399 0.0220 0.0200 0.0190 0.0190 0.0190
8.883000 0.0190 0.0180 0.0180 0.0180 0.0180
8.907399 0.0180 0.0180 0.0190 0.0220 0.0240
8.932000 0.0290 0.0370 0.0420 0.0520 0.0600
8.956399 0.0710 0.0830 0.0990 0.1060 0.1250
8.980000 0.1470 0.1580 0.1810 0.2050 0.2300
9.004399 0.2510 0.2700 0.2910 0.3110 0.3210
9.029000 0.3350 0.3510 0.3700 0.3820 0.4010
9.053399 0.4160 0.4310 0.4440 0.4540 0.4630
9.078000 0.4730 0.4800 0.4850 0.4920 0.5000
9.102399 0.5030 0.5110 0.5140 0.5170 0.5180
9.127000 0.5180 0.5190 0.5180 0.5170 0.5140
9.151399 0.5120 0.5070 0.5010 0.4930 0.4870
9.176000 0.4790 0.4700 0.4660 0.4500 0.4300
9.200399 0.4110 0.3880 0.3720 0.3550 0.3330
9.224000 0.3110 0.2910 0.2680 0.2520 0.2360
9.248399 0.2190 0.2080 0.2000 0.1820 0.1720
9.273000 0.1600 0.1490 0.1360 0.1220 0.1100
9.297399 0.1010 0.0900 0.0820 0.0740 0.0710
9.322000 0.0660 0.0610 0.0580 0.0570 0.0570
9.346399 0.0600 0.0640 0.0690 0.0780 0.0890
9.371000 0.1010 0.1200 0.1400 0.1550 0.1920
9.395399 0.2200 0.2520 0.2920 0.3100 0.3270
9.420000 0.3490 0.3680 0.3900 0.4120 0.4320
9.444399 0.4570 0.4710 0.4840 0.5000 0.5020
9.468000 0.5110 0.5190 0.5260 0.5290 0.5310
9.492399 0.5330 0.5340 0.5330 0.5290 0.5240
9.517000 0.5180 0.5090 0.5000 0.4870 0.4700
9.541399 0.4540 0.4380 0.4150 0.4000 0.3770
9.566000 0.3550 0.3400 0.3300 0.3250 0.3220
9.590399 0.3220 0.3230 0.3390 0.3560 0.3790
9.615000 0.4000 0.4120 0.4240 0.4350 0.4380
9.639399 0.4390 0.4380 0.4320 0.4250 0.4140
9.663000 0.4010 0.3870 0.3840 0.3820 0.3810
9.687399 0.3830 0.3880 0.4050 0.4310 0.4590
9.712000 0.4800 0.5030 0.5230 0.5390 0.5520
9.736399 0.5600 0.5660 0.5720 0.5750 0.5790
9.761000 0.5820 0.5840 0.5850 0.5870 0.5870
9.785399 0.5880 0.5890 0.5900 0.5910 0.5930
9.810000 0.5950 0.5960 0.5960 0.5980 0.5980
9.834399 0.5980 0.5980 0.5980 0.5980 0.5980
9.859000 0.5980 0.5980 0.5980 0.5980 0.5950
9.883399 0.5940 0.5900 0.5880 0.5850 0.5830
9.907000 0.5800 0.5780 0.5750 0.5730 0.5720
9.931399 0.5720 0.5710 0.5720 0.5720 0.5740
9.956000 0.5770 0.5780 0.5800 0.5830 0.5870
9.980399 0.5890 0.5910 0.5910 0.5930 0.5910
10.005000 0.5910 0.5890 0.5870 0.5830 0.5820
10.029399 0.5790 0.5770 0.5730 0.5720 0.5690
10.054000 0.5670 0.5630 0.5620 0.5580 0.5550
10.078399 0.5520 0.5510 0.5490 0.5450 0.5410
10.102000 0.5390 0.5350 0.5330 0.5300 0.5290
10.126399 0.5280 0.5250 0.5240 0.5230 0.5220
10.151000 0.5200 0.5190 0.5180 0.5170 0.5150
10.175399 0.5140 0.5130 0.5120 0.5110 0.5110
10.200000 0.5110 0.5110 0.5090 0.5090 0.5070
10.224399 0.5040 0.5020 0.5010 0.5000 0.4980
10.249000 0.4960 0.4920 0.4900 0.4860 0.4820
10.273399 0.4790 0.4750 0.4710 0.4680 0.4640
10.298000 0.4600 0.4570 0.4530 0.4490 0.4480
10.322399 0.4420 0.4370 0.4320 0.4270 0.4220
10.346000 0.4200 0.4170 0.4140 0.4110 0.4080
10.370399 0.4080 0.4060 0.4060 0.4050 0.4050
10.395000 0.4040 0.4050 0.4050 0.4060 0.4080
10.419399 0.4090 0.4090 0.4110 0.4120 0.4150
10.444000 0.4190 0.4220 0.4250 0.4280 0.4320
10.468399 0.4350 0.4370 0.4410 0.4430 0.4460
10.493000 0.4490 0.4520 0.4540 0.4590 0.4630
10.517399 0.4650 0.4680 0.4700 0.4710 0.4730
10.541000 0.4740 0.4760 0.4790 0.4810 0.4840
10.565399 0.4860 0.4880 0.4910 0.4970 0.5000
10.590000 0.5030 0.5090 0.5150 0.5230 0.5300
10.614399 0.5360 0.5390 0.5420 0.5500 0.5530
10.639000 0.5580 0.5630 0.5680 0.5720 0.5770
10.663399 0.5800 0.5840 0.5880 0.5910 0.5930
10.688000 0.5940 0.5990 0.6000 0.6000 0.6010
10.712399 0.6010 0.6020 0.6050 0.6070 0.6100
10.737000 0.6100 0.6110 0.6120 0.6130 0.6130
10.761399 0.6150 0.6150 0.6150 0.6150 0.6150
10.785000 0.6130 0.6120 0.6100 0.6070 0.6050
10.809399 0.6020 0.6010 0.6000 0.5930 0.5880
10.834000 0.5840 0.5790 0.5750 0.5690 0.5630
10.858399 0.5570 0.5520 0.5440 0.5360 0.5280
10.883000 0.5180 0.5070 0.5000 0.4860 0.4770
10.907399 0.4700 0.4590 0.4500 0.4390 0.4320
10.932000 0.4250 0.4200 0.4160 0.4150 0.4120
10.956399 0.4110 0.4110 0.4120 0.4170 0.4210
10.980000 0.4280 0.4370 0.4470 0.4580 0.4710
11.004399 0.4820 0.4920 0.4970 0.5010 0.5030
11.029000 0.5110 0.5190 0.5260 0.5310 0.5370
11.053399 0.5410 0.5440 0.5490 0.5490 0.5500
11.078000 0.5500 0.5500 0.5510 0.5510 0.5520
11.102399 0.5520 0.5530 0.5530 0.5520 0.5520
11.127000 0.5510 0.5510 0.5500 0.5490 0.5470
11.151399 0.5460 0.5440 0.5410 0.5400 0.5370
11.176000 0.5360 0.5350 0.5340 0.5330 0.5310
11.200399 0.5290 0.5260 0.5230 0.5220 0.5190
11.224000 0.5170 0.5140 0.5120 0.5090 0.5060
11.248399 0.5030 0.5020 0.5010 0.5010 0.5010
11.273000 0.5000 0.5000 0.4980 0.4980 0.5000
11.297399 0.5000 0.5000 0.5000 0.5010 0.5010
11.322000 0.5020 0.5030 0.5060 0.5080 0.5120
11.346399 0.5120 0.5140 0.5140 0.5150 0.5170
11.371000 0.5190 0.5200 0.5220 0.5230 0.5250
11.395399 0.5260 0.5280 0.5290 0.5290 0.5290
11.420000 0.5290 0.5290 0.5290 0.5290 0.5300
11.444399 0.5300 0.5300 0.5300 0.5290 0.5290
11.468000 0.5300 0.5300 0.5300 0.5300 0.5300
11.492399 0.5290 0.5290 0.5290 0.5290 0.5260
11.517000 0.5260 0.5250 0.5240 0.5230 0.5220
11.541399 0.5200 0.5190 0.5180 0.5180 0.5170
11.566000 0.5170 0.5170 0.5150 0.5150 0.5140
11.590399 0.5140 0.5130 0.5120 0.5120 0.5110
11.615000 0.5110 0.5090 0.5090 0.5080 0.5080
11.639399 0.5080 0.5070 0.5070 0.5070 0.5060
11.663000 0.5060 0.5060 0.5060 0.5060 0.5060
11.687399 0.5070 0.5070 0.5090 0.5110 0.5120
11.712000 0.5120 0.5130 0.5130 0.5140 0.5140
11.736399 0.5150 0.5170 0.5180 0.5190 0.5220
11.761000 0.5230 0.5250 0.5280 0.5300 0.5330
11.785399 0.5340 0.5350 0.5370 0.5390 0.5400
11.810000 0.5410 0.5420 0.5440 0.5450 0.5490
11.834399 0.5490 0.5500 0.5510 0.5520 0.5530
11.859000 0.5530 0.5550 0.5560 0.5560 0.5570
11.883399 0.5570 0.5580 0.5580 0.5600 0.5610
11.907000 0.5620 0.5620 0.5630 0.5630 0.5640
11.931399 0.5660 0.5660 0.5660 0.5660 0.5660
11.956000 0.5660 0.5660 0.5640 0.5640 0.5640
11.980399 0.5630 0.5630 0.5620 0.5610 0.5600
12.005000 0.5580 0.5570 0.5560 0.5550 0.5550
12.029399 0.5530 0.5530 0.5520 0.5510 0.5510
12.054000 0.5500 0.5500 0.5490 0.5490 0.5490
12.078399 0.5470 0.5460 0.5460 0.5450 0.5450
12.102000 0.5450 0.5440 0.5420 0.5420 0.5420
12.126399 0.5420 0.5420 0.5420 0.5420 0.5420
12.151000 0.5420 0.5440 0.5440 0.5450 0.5460
12.175399 0.5490 0.5490 0.5490 0.5500 0.5500
12.200000 0.5510 0.5510 0.5510 0.5510 0.5510
12.224399 0.5510 0.5510 0.5510 0.5510 0.5500
12.249000 0.5500 0.5500 0.5490 0.5490 0.5500
12.273399 0.5500 0.5510 0.5510 0.5510 0.5510
12.298000 0.5510 0.5510 0.5510 0.5510 0.5510
12.322399 0.5500 0.5490 0.5490 0.5490 0.5460
12.346000 0.5450 0.5440 0.5420 0.5410 0.5400
12.370399 0.5370 0.5360 0.5340 0.5330 0.5300
12.395000 0.5280 0.5260 0.5250 0.5240 0.5230
12.419399 0.5220 0.5190 0.5170 0.5140 0.5120
12.444000 0.5090 0.5060 0.5030 0.5010 0.5000
12.468399 0.4930 0.4900 0.4860 0.4810 0.4790
12.493000 0.4740 0.4700 0.4650 0.4590 0.4540
12.517399 0.4500 0.4490 0.4410 0.4370 0.4350
12.541000 0.4310 0.4300 0.4260 0.4250 0.4240
12.565399 0.4220 0.4220 0.4210 0.4210 0.4210
12.590000 0.4210 0.4210 0.4220 0.4250 0.4270
12.614399 0.4280 0.4300 0.4310 0.4330 0.4350
12.639000 0.4370 0.4380 0.4380 0.4390 0.4410
12.663399 0.4420 0.4430 0.4430 0.4440 0.4440
12.688000 0.4460 0.4470 0.4480 0.4480 0.4480
12.712399 0.4490 0.4490 0.4500 0.4500 0.4520
12.737000 0.4520 0.4520 0.4520 0.4520 0.4520
12.761399 0.4530 0.4530 0.4540 0.4570 0.4580
12.785000 0.4580 0.4580 0.4590 0.4600 0.4620
12.809399 0.4620 0.4620 0.4620 0.4620 0.4620
12.834000 0.4630 0.4630 0.4630 0.4620 0.4620
12.858399 0.4620 0.4600 0.4600 0.4600 0.4600
12.883000 0.4600 0.4600 0.4600 0.4600 0.4590
12.907399 0.4580 0.4580 0.4580 0.4570 0.4570
12.932000 0.4550 0.4550 0.4540 0.4540 0.4530
12.956399 0.4530 0.4520 0.4520 0.4500 0.4490
12.980000 0.4480 0.4470 0.4460 0.4440 0.4410
13.004399 0.4380 0.4370 0.4350 0.4330 0.4320
13.029000 0.4300 0.4270 0.4240 0.4210 0.4190
13.053399 0.4160 0.4140 0.4110 0.4060 0.4030
13.078000 0.4010 0.4000 0.3930 0.3880 0.3830
13.102399 0.3790 0.3750 0.3700 0.3620 0.3570
13.127000 0.3500 0.3410 0.3340 0.3270 0.3190
13.151399 0.3110 0.3020 0.3000 0.2890 0.2790
13.176000 0.2690 0.2610 0.2540 0.2480 0.2350
13.200399 0.2200 0.2100 0.1980 0.1940 0.1870
13.224000 0.1770 0.1670 0.1580 0.1490 0.1390
13.248399 0.1310 0.1230 0.1180 0.1110 0.1070
13.273000 0.1000 0.0990 0.0890 0.0830 0.0780
13.297399 0.0730 0.0690 0.0660 0.0620 0.0600
13.322000 0.0580 0.0560 0.0520 0.0510 0.0490
13.346399 0.0490 0.0450 0.0420 0.0400 0.0390
13.371000 0.0370 0.0360 0.0350 0.0350 0.0340
13.395399 0.0330 0.0330 0.0310 0.0300 0.0290
13.420000 0.0290 0.0280 0.0260 0.0250 0.0250
13.444399 0.0240 0.0230 0.0230 0.0230 0.0220
13.468000 0.0200 0.0190 0.0190 0.0190 0.0180
13.492399 0.0180 0.0190 0.0190 0.0200 0.0220
13.517000 0.0230 0.0260 0.0290 0.0310 0.0330
13.541399 0.0350 0.0370 0.0400 0.0410 0.0440
13.566000 0.0490 0.0500 0.0520 0.0530 0.0570
13.590399 0.0600 0.0640 0.0680 0.0740 0.0800
13.615000 0.0830 0.0840 0.0880 0.0910 0.0980
13.639399 0.0990 0.1000 0.1020 0.1070 0.1100
13.663000 0.1160 0.1210 0.1280 0.1340 0.1420
13.687399 0.1490 0.1550 0.1610 0.1670 0.1740
13.712000 0.1820 0.1920 0.2020 0.2100 0.2180
13.736399 0.2270 0.2320 0.2380 0.2480 0.2540
13.761000 0.2610 0.2680 0.2740 0.2800 0.2860
13.785399 0.2960 0.2970 0.3020 0.3100 0.3170
13.810000 0.3250 0.3280 0.3290 0.3330 0.3390
13.834399 0.3490 0.3510 0.3560 0.3610 0.3650
13.859000 0.3680 0.3710 0.3720 0.3750 0.3770
13.883399 0.3780 0.3810 0.3820 0.3840 0.3870
13.907000 0.3870 0.3880 0.3890 0.3890 0.3890
13.931399 0.3890 0.3880 0.3870 0.3860 0.3840
13.956000 0.3820 0.3820 0.3790 0.3780 0.3770
13.980399 0.3760 0.3730 0.3710 0.3670 0.3590
14.005000 0.3550 0.3500 0.3460 0.3400 0.3370
14.029399 0.3300 0.3250 0.3190 0.3140 0.3080
14.054000 0.3000 0.2970 0.2850 0.2780 0.2700
14.078399 0.2630 0.2570 0.2500 0.2400 0.2340
14.102000 0.2250 0.2180 0.2090 0.2020 0.1990
14.126399 0.1880 0.1780 0.1710 0.1670 0.1600
14.151000 0.1510 0.1490 0.1400 0.1320 0.1270
14.175399 0.1230 0.1200 0.1150 0.1100 0.1050
14.200000 0.1000 0.0980 0.0930 0.0890 0.0850
14.224399 0.0820 0.0780 0.0750 0.0720 0.0680
14.249000 0.0630 0.0600 0.0550 0.0510 0.0500
14.273399 0.0440 0.0410 0.0370 0.0340 0.0330
14.298000 0.0300 0.0290 0.0260 0.0250 0.0240
14.322399 0.0230 0.0230 0.0220 0.0220 0.0220
14.346000 0.0220 0.0220 0.0230 0.0260 0.0310
14.370399 0.0370 0.0420 0.0490 0.0510 0.0520
14.395000 0.0580 0.0720 0.0850 0.0950 0.1060
14.419399 0.1130 0.1200 0.1290 0.1390 0.1500
14.444000 0.1600 0.1720 0.1870 0.1990 0.2100
14.468399 0.2210 0.2300 0.2400 0.2500 0.2580
14.493000 0.2680 0.2740 0.2840 0.2990 0.3010
14.517399 0.3080 0.3130 0.3210 0.3270 0.3320
14.541000 0.3370 0.3410 0.3490 0.3520 0.3570
14.565399 0.3600 0.3630 0.3670 0.3710 0.3750
14.590000 0.3770 0.3790 0.3810 0.3830 0.3870
14.614399 0.3880 0.3890 0.3900 0.3920 0.3920
14.639000 0.3930 0.3930 0.3930 0.3930 0.3930
14.663399 0.3930 0.3930 0.3930 0.3930 0.3930
14.688000 0.3930 0.3930 0.3930 0.3930 0.3930
14.712399 0.3930 0.3930 0.3930 0.3940 0.3930
14.737000 0.3930 0.3930 0.3930 0.3940 0.3940
14.761399 0.3950 0.3950 0.3970 0.3970 0.3970
14.785000 0.3990 0.4000 0.4010 0.4030 0.4040
14.809399 0.4040 0.4050 0.4050 0.4060 0.4060
14.834000 0.4080 0.4080 0.4060 0.4060 0.4040
14.858399 0.4030 0.4010 0.4000 0.4000 0.4000
14.883000 0.3990 0.3990 0.3990 0.3990 0.3990
14.907399 0.3990 0.3980 0.3980 0.3980 0.3980
14.932000 0.3990 0.3990 0.3990 0.4000 0.4010
14.956399 0.4030 0.4050 0.4060 0.4060 0.4080
14.980000 0.4080 0.4090 0.4090 0.4090 0.4080
15.004399 0.4090 0.4080 0.4060 0.4050 0.4040
15.029000 0.4030 0.4010 0.4000 0.3990 0.3980
15.053399 0.3970 0.3950 0.3940 0.3930 0.3920
15.078000 0.3900 0.3900 0.3890 0.3880 0.3880
15.102399 0.3870 0.3860 0.3830 0.3820 0.3790
15.127000 0.3780 0.3770 0.3760 0.3730 0.3720
15.151399 0.3700 0.3680 0.3660 0.3630 0.3620
15.176000 0.3600 0.3590 0.3560 0.3550 0.3520
15.200399 0.3500 0.3490 0.3440 0.3430 0.3410
15.224000 0.3400 0.3380 0.3350 0.3340 0.3330
15.248399 0.3320 0.3300 0.3290 0.3280 0.3280
15.273000 0.3270 0.3250 0.3240 0.3220 0.3210
15.297399 0.3190 0.3170 0.3140 0.3130 0.3130
15.322000 0.3120 0.3110 0.3110 0.3100 0.3100
15.346399 0.3100 0.3100 0.3100 0.3080 0.3080
15.371000 0.3070 0.3070 0.3070 0.3070 0.3070
15.395399 0.3070 0.3070 0.3070 0.3070 0.3070
15.420000 0.3070 0.3070 0.3070 0.3070 0.3070
15.444399 0.3070 0.3070 0.3070 0.3070 0.3070
15.468000 0.3070 0.3070 0.3070 0.3070 0.3070
15.492399 0.3070 0.3070 0.3070 0.3070 0.3070
15.517000 0.3070 0.3070 0.3070 0.3070 0.3060
15.541399 0.3060 0.3060 0.3050 0.3050 0.3050
15.566000 0.3030 0.3020 0.3020 0.3030 0.3020
15.590399 0.3020 0.3030 0.3020 0.3030 0.3020
15.615000 0.3020 0.3010 0.3010 0.3000 0.3000
15.639399 0.3000 0.2990 0.2990 0.2970 0.2970
15.663000 0.2950 0.2940 0.2910 0.2900 0.2900
15.687399 0.2890 0.2900 0.2900 0.2900 0.2890
15.712000 0.2890 0.2890 0.2890 0.2890 0.2870
15.736399 0.2870 0.2870 0.2860 0.2860 0.2860
15.761000 0.2850 0.2850 0.2850 0.2840 0.2840
15.785399 0.2830 0.2830 0.2810 0.2790 0.2780
15.810000 0.2780 0.2780 0.2780 0.2760 0.2760
15.834399 0.2760 0.2760 0.2760 0.2780 0.2780
15.859000 0.2780 0.2790 0.2800 0.2810 0.2840
15.883399 0.2850 0.2850 0.2870 0.2870 0.2890
##END=
