##TITLE=6-Methoxyquinoline
##JCAMP-DX=4.24
##DATA TYPE=INFRARED SPECTRUM
##CLASS=COBLENTZ
##ORIGIN=WYANDOTTE CHEMICALS CORP.
##OWNER=Copyright (C) 1987 by the Coblentz Society
Collection (C) 2018 copyright by the U.S. Secretary of Commerce
on behalf of the United States of America. All rights reserved.
##DATE=Not specified, most likely prior to 1977
##NAMES=methyl 6-quinolinyl ether
##CAS REGISTRY NO=5263-87-6
##MOLFORM=C10 H9 N O
##BP=148 C AT 15 mm
##SOURCE REFERENCE=COBLENTZ NO. 9806
##$NIST SOURCE=COBLENTZ
##$NIST IMAGE=cob9806
##SPECTROMETER/DATA SYSTEM=BAIRD (PRISM)
##INSTRUMENT PARAMETERS=NaCl PRISM
##STATE=LIQUID (NEAT)
##PATH LENGTH=0.003 CM
##SAMPLING PROCEDURE=TRANSMISSION
##RESOLUTION=2
##DATA PROCESSING=DIGITIZED BY COBLENTZ SOCIETY (BATCH II) FROM HARD COPY
##XUNITS=1/CM
##YUNITS=TRANSMITTANCE
##XFACTOR=1.0
##YFACTOR=1
##FIRSTX=626
##LASTX=4000
##FIRSTY=0.8507
##MAXX=4000
##MINX=626
##MAXY=0.9883
##MINY=0.044
##NPOINTS=3375
##XYDATA=(X++(Y..Y))
626.000000 0.8507 0.8487 0.8488 0.8495 0.8517
631.000000 0.8550 0.8585 0.8599 0.8598 0.8587
636.000000 0.8575 0.8563 0.8558 0.8558 0.8574
641.000000 0.8599 0.8631 0.8657 0.8676 0.8682
646.000000 0.8689 0.8698 0.8726 0.8756 0.8765
651.000000 0.8759 0.8771 0.8788 0.8774 0.8731
656.000000 0.8719 0.8797 0.8864 0.8900 0.8912
661.000000 0.8908 0.8893 0.8877 0.8856 0.8834
666.000000 0.8821 0.8839 0.8946 0.8966 0.8949
671.000000 0.8921 0.8887 0.8855 0.8824 0.8796
676.000000 0.8777 0.8771 0.8771 0.8784 0.8787
681.000000 0.8786 0.8783 0.8778 0.8759 0.8729
686.000000 0.8670 0.8629 0.8610 0.8592 0.8574
691.000000 0.8553 0.8529 0.8506 0.8472 0.8427
696.000000 0.8363 0.8261 0.8108 0.7965 0.7789
701.000000 0.7558 0.7240 0.6743 0.5849 0.4866
706.000000 0.3885 0.2858 0.2707 0.2754 0.3343
711.000000 0.4204 0.5065 0.5922 0.6768 0.7471
716.000000 0.7758 0.7947 0.8068 0.8175 0.8251
721.000000 0.8327 0.8387 0.8438 0.8488 0.8523
726.000000 0.8550 0.8577 0.8599 0.8610 0.8622
731.000000 0.8636 0.8657 0.8705 0.8777 0.8849
736.000000 0.8922 0.9005 0.9100 0.9180 0.9256
741.000000 0.9299 0.9311 0.9311 0.9297 0.9283
746.000000 0.9230 0.9160 0.9058 0.8939 0.8789
751.000000 0.8617 0.8509 0.8437 0.8368 0.8299
756.000000 0.8224 0.8132 0.7957 0.7681 0.7318
761.000000 0.6949 0.6336 0.5674 0.5013 0.4354
766.000000 0.3955 0.3594 0.3349 0.3284 0.3845
771.000000 0.4536 0.5225 0.5912 0.6599 0.6995
776.000000 0.7035 0.7042 0.6598 0.6130 0.5663
781.000000 0.5196 0.4732 0.4267 0.3805 0.3458
786.000000 0.3348 0.3346 0.3428 0.3573 0.3890
791.000000 0.4206 0.4520 0.4834 0.5148 0.5461
796.000000 0.5773 0.6098 0.6438 0.6631 0.6806
801.000000 0.6994 0.7081 0.7107 0.7102 0.7121
806.000000 0.7088 0.7067 0.7004 0.6885 0.6688
811.000000 0.6294 0.5829 0.5312 0.4796 0.4281
816.000000 0.3768 0.3271 0.2976 0.2562 0.1908
821.000000 0.1475 0.1216 0.0977 0.0810 0.0726
826.000000 0.0703 0.0696 0.0654 0.0705 0.0717
831.000000 0.0731 0.0744 0.0768 0.0798 0.0818
836.000000 0.0831 0.0836 0.0832 0.0828 0.0827
841.000000 0.0830 0.0834 0.0874 0.0915 0.0868
846.000000 0.0977 0.1184 0.1397 0.1607 0.1819
851.000000 0.2029 0.2239 0.2448 0.2657 0.2865
856.000000 0.3078 0.3413 0.3739 0.3962 0.4121
861.000000 0.4307 0.4517 0.4773 0.5040 0.5257
866.000000 0.5441 0.5580 0.5711 0.5925 0.6209
871.000000 0.6509 0.6742 0.6919 0.7073 0.7196
876.000000 0.7312 0.7535 0.7697 0.7764 0.7790
881.000000 0.7780 0.7757 0.7713 0.7642 0.7511
886.000000 0.7380 0.7260 0.7115 0.7096 0.7270
891.000000 0.7552 0.7834 0.8074 0.8116 0.8113
896.000000 0.8156 0.8039 0.7905 0.7671 0.7098
901.000000 0.5986 0.4769 0.3832 0.3521 0.3344
906.000000 0.3356 0.3427 0.4242 0.5230 0.6215
911.000000 0.7198 0.8179 0.8586 0.8848 0.9062
916.000000 0.9160 0.9200 0.9218 0.9231 0.9234
921.000000 0.9241 0.9256 0.9275 0.9291 0.9290
926.000000 0.9250 0.9204 0.9152 0.9090 0.9013
931.000000 0.8926 0.8834 0.8752 0.8670 0.8581
936.000000 0.8490 0.8365 0.8216 0.7978 0.7712
941.000000 0.7400 0.7140 0.6832 0.6522 0.5897
946.000000 0.4930 0.4722 0.4689 0.4684 0.5290
951.000000 0.5762 0.6233 0.6704 0.7173 0.7638
956.000000 0.7923 0.8032 0.8122 0.8202 0.8251
961.000000 0.8290 0.8320 0.8329 0.8337 0.8336
966.000000 0.8333 0.8373 0.8299 0.8256 0.8205
971.000000 0.8135 0.8044 0.7967 0.7915 0.7894
976.000000 0.7868 0.7913 0.7929 0.7960 0.7994
981.000000 0.8053 0.8125 0.8222 0.8332 0.8430
986.000000 0.8530 0.8623 0.8648 0.8677 0.8656
991.000000 0.8641 0.8621 0.8602 0.8586 0.8561
996.000000 0.8533 0.8504 0.8477 0.8449 0.8408
1001.000000 0.8306 0.8198 0.8072 0.7936 0.7807
1006.000000 0.7690 0.7482 0.7180 0.6810 0.6548
1011.000000 0.6120 0.5347 0.4832 0.4317 0.3803
1016.000000 0.3368 0.3109 0.2664 0.2212 0.1891
1021.000000 0.1540 0.1157 0.0986 0.0878 0.0822
1026.000000 0.0827 0.0823 0.0857 0.0885 0.0909
1031.000000 0.0926 0.0935 0.0930 0.0923 0.0917
1036.000000 0.0942 0.0955 0.1133 0.1379 0.1535
1041.000000 0.1859 0.2145 0.2666 0.3215 0.3765
1046.000000 0.4313 0.4828 0.5093 0.6126 0.6663
1051.000000 0.6898 0.7125 0.7343 0.7486 0.7619
1056.000000 0.7757 0.7907 0.8056 0.8184 0.8277
1061.000000 0.8370 0.8463 0.8561 0.8653 0.8707
1066.000000 0.8757 0.8805 0.8845 0.8865 0.8886
1071.000000 0.8902 0.8904 0.8907 0.8904 0.8900
1076.000000 0.8895 0.8892 0.8899 0.8915 0.8952
1081.000000 0.8992 0.9026 0.9040 0.9055 0.9055
1086.000000 0.9054 0.9052 0.9052 0.9053 0.9054
1091.000000 0.9056 0.9066 0.9084 0.9104 0.9123
1096.000000 0.9117 0.9111 0.9081 0.9011 0.8945
1101.000000 0.8838 0.8697 0.8534 0.8333 0.7926
1106.000000 0.7620 0.7394 0.7188 0.6980 0.6715
1111.000000 0.4743 0.2525 0.1966 0.1847 0.1847
1116.000000 0.1823 0.1932 0.2202 0.2639 0.3076
1121.000000 0.3512 0.3947 0.4381 0.4815 0.5248
1126.000000 0.5680 0.6112 0.6542 0.6972 0.7257
1131.000000 0.7298 0.7307 0.7308 0.7271 0.7179
1136.000000 0.7040 0.6901 0.6763 0.6624 0.6486
1141.000000 0.6353 0.6258 0.6184 0.6116 0.6045
1146.000000 0.5795 0.5419 0.5044 0.4671 0.4297
1151.000000 0.3924 0.3553 0.3181 0.2811 0.2456
1156.000000 0.2058 0.1699 0.1458 0.1267 0.1183
1161.000000 0.1147 0.1137 0.1126 0.1239 0.1344
1166.000000 0.1780 0.2215 0.2650 0.3084 0.3517
1171.000000 0.3950 0.4380 0.4777 0.4978 0.5124
1176.000000 0.5197 0.5262 0.5303 0.5328 0.5345
1181.000000 0.5396 0.5537 0.5600 0.5631 0.5637
1186.000000 0.5621 0.5612 0.5541 0.5348 0.5144
1191.000000 0.4940 0.4738 0.4535 0.4352 0.4227
1196.000000 0.4174 0.4158 0.4154 0.4539 0.4811
1201.000000 0.5082 0.5353 0.5605 0.5680 0.5709
1206.000000 0.5715 0.5712 0.5708 0.5655 0.5490
1211.000000 0.5275 0.5076 0.4927 0.4738 0.4501
1216.000000 0.4087 0.3479 0.2872 0.2266 0.1660
1221.000000 0.1238 0.1113 0.0935 0.0798 0.0697
1226.000000 0.0619 0.0506 0.0458 0.0452 0.0440
1231.000000 0.0480 0.0493 0.0503 0.0509 0.0510
1236.000000 0.0516 0.0538 0.0559 0.0585 0.0613
1241.000000 0.0641 0.0669 0.0691 0.0712 0.0732
1246.000000 0.0752 0.0773 0.0795 0.0819 0.0845
1251.000000 0.0868 0.0892 0.0912 0.0926 0.0939
1256.000000 0.0968 0.0920 0.0878 0.0822 0.0778
1261.000000 0.0748 0.0737 0.0721 0.0824 0.0932
1266.000000 0.1108 0.1272 0.1386 0.1553 0.1838
1271.000000 0.2056 0.2492 0.3012 0.3530 0.4047
1276.000000 0.4564 0.5080 0.5596 0.6110 0.6690
1281.000000 0.6927 0.7057 0.7166 0.7246 0.7326
1286.000000 0.7424 0.7544 0.7626 0.7664 0.7658
1291.000000 0.7659 0.7648 0.7635 0.7622 0.7583
1296.000000 0.7525 0.7465 0.7415 0.7396 0.7384
1301.000000 0.7375 0.7367 0.7361 0.7357 0.7348
1306.000000 0.7337 0.7320 0.7288 0.7227 0.7136
1311.000000 0.7029 0.6880 0.6654 0.6353 0.5818
1316.000000 0.5574 0.5357 0.5019 0.4133 0.3247
1321.000000 0.2363 0.1839 0.1673 0.1358 0.1241
1326.000000 0.1227 0.1226 0.1247 0.1275 0.1352
1331.000000 0.1537 0.1868 0.2217 0.2564 0.2912
1336.000000 0.3258 0.3604 0.3950 0.4295 0.4622
1341.000000 0.4717 0.4782 0.4807 0.4830 0.4854
1346.000000 0.4885 0.4929 0.4975 0.5061 0.5217
1351.000000 0.5357 0.5479 0.5609 0.5743 0.5882
1356.000000 0.5952 0.5968 0.5968 0.5964 0.5983
1361.000000 0.5938 0.5919 0.5890 0.5804 0.5714
1366.000000 0.5562 0.5398 0.5263 0.5053 0.4747
1371.000000 0.4619 0.4430 0.4007 0.3531 0.3056
1376.000000 0.2580 0.2107 0.1634 0.1189 0.1130
1381.000000 0.1083 0.1135 0.1224 0.1331 0.1408
1386.000000 0.1525 0.1937 0.2404 0.2868 0.3333
1391.000000 0.3794 0.3976 0.4099 0.4205 0.4350
1396.000000 0.4601 0.5023 0.5590 0.6156 0.6689
1401.000000 0.6996 0.7127 0.7223 0.7310 0.7372
1406.000000 0.7421 0.7444 0.7465 0.7479 0.7490
1411.000000 0.7498 0.7517 0.7498 0.7496 0.7479
1416.000000 0.7423 0.7332 0.7231 0.7145 0.7021
1421.000000 0.6749 0.6421 0.6092 0.5765 0.5437
1426.000000 0.5110 0.4784 0.4458 0.4132 0.3807
1431.000000 0.3482 0.3159 0.2835 0.2479 0.2295
1436.000000 0.2199 0.2099 0.1935 0.1819 0.1816
1441.000000 0.1828 0.1830 0.1995 0.2102 0.2208
1446.000000 0.2315 0.2421 0.2527 0.2631 0.2685
1451.000000 0.2707 0.2706 0.2711 0.2690 0.2674
1456.000000 0.2625 0.2531 0.2422 0.2304 0.2195
1461.000000 0.2098 0.2029 0.1986 0.1942 0.1900
1466.000000 0.1860 0.1821 0.1790 0.1764 0.1753
1471.000000 0.1745 0.1737 0.1733 0.1733 0.1704
1476.000000 0.1734 0.1738 0.1746 0.1754 0.1763
1481.000000 0.1776 0.1795 0.1815 0.1891 0.2088
1486.000000 0.2284 0.2480 0.2676 0.2871 0.3045
1491.000000 0.3070 0.3073 0.3070 0.3075 0.3054
1496.000000 0.3045 0.2802 0.2456 0.2110 0.1764
1501.000000 0.1419 0.1074 0.0853 0.0757 0.0723
1506.000000 0.0703 0.0673 0.0713 0.0730 0.0767
1511.000000 0.0846 0.0921 0.0985 0.1050 0.1115
1516.000000 0.1170 0.1209 0.1247 0.1290 0.1338
1521.000000 0.1387 0.1439 0.1579 0.1933 0.2387
1526.000000 0.2840 0.3291 0.3743 0.4194 0.4644
1531.000000 0.5094 0.5543 0.5959 0.6244 0.6490
1536.000000 0.6609 0.6689 0.6760 0.6822 0.6884
1541.000000 0.6946 0.7015 0.7087 0.7158 0.7231
1546.000000 0.7304 0.7341 0.7367 0.7391 0.7408
1551.000000 0.7420 0.7430 0.7421 0.7438 0.7437
1556.000000 0.7431 0.7419 0.7407 0.7391 0.7366
1561.000000 0.7338 0.7306 0.7264 0.7219 0.7170
1566.000000 0.7115 0.7040 0.6915 0.6746 0.6564
1571.000000 0.6383 0.6202 0.6021 0.5840 0.5659
1576.000000 0.5479 0.5299 0.5119 0.4940 0.4760
1581.000000 0.4581 0.4402 0.4224 0.4045 0.3867
1586.000000 0.3801 0.3796 0.3853 0.3798 0.4131
1591.000000 0.4280 0.4429 0.4578 0.4727 0.4876
1596.000000 0.4935 0.4932 0.4939 0.4816 0.4553
1601.000000 0.4232 0.3911 0.3591 0.3271 0.2952
1606.000000 0.2632 0.2314 0.1996 0.1678 0.1403
1611.000000 0.1295 0.1342 0.1591 0.2069 0.2546
1616.000000 0.3022 0.3480 0.3515 0.3512 0.3508
1621.000000 0.3501 0.3295 0.3013 0.2725 0.2437
1626.000000 0.2150 0.1863 0.1577 0.1291 0.1026
1631.000000 0.0856 0.0838 0.0845 0.0802 0.0890
1636.000000 0.0926 0.0964 0.1029 0.1339 0.1737
1641.000000 0.2135 0.2532 0.2929 0.3325 0.3721
1646.000000 0.4116 0.4557 0.5428 0.5757 0.6085
1651.000000 0.6414 0.6672 0.6782 0.6827 0.6883
1656.000000 0.6954 0.7031 0.7117 0.7196 0.7264
1661.000000 0.7307 0.7344 0.7376 0.7407 0.7438
1666.000000 0.7469 0.7499 0.7529 0.7559 0.7596
1671.000000 0.7633 0.7642 0.7647 0.7652 0.7657
1676.000000 0.7662 0.7667 0.7673 0.7680 0.7687
1681.000000 0.7694 0.7720 0.7753 0.7787 0.7825
1686.000000 0.7862 0.7900 0.7948 0.8001 0.8055
1691.000000 0.8111 0.8174 0.8237 0.8289 0.8336
1696.000000 0.8383 0.8429 0.8475 0.8514 0.8550
1701.000000 0.8586 0.8623 0.8660 0.8676 0.8688
1706.000000 0.8699 0.8739 0.8712 0.8709 0.8706
1711.000000 0.8703 0.8700 0.8691 0.8680 0.8669
1716.000000 0.8659 0.8648 0.8635 0.8622 0.8608
1721.000000 0.8595 0.8581 0.8564 0.8546 0.8528
1726.000000 0.8510 0.8492 0.8478 0.8474 0.8475
1731.000000 0.8477 0.8451 0.8483 0.8486 0.8490
1736.000000 0.8497 0.8503 0.8511 0.8518 0.8527
1741.000000 0.8535 0.8545 0.8562 0.8580 0.8598
1746.000000 0.8617 0.8635 0.8672 0.8711 0.8750
1751.000000 0.8797 0.8857 0.8918 0.8999 0.9085
1756.000000 0.9151 0.9182 0.9213 0.9244 0.9274
1761.000000 0.9302 0.9330 0.9357 0.9385 0.9412
1766.000000 0.9441 0.9469 0.9494 0.9506 0.9518
1771.000000 0.9530 0.9539 0.9539 0.9539 0.9540
1776.000000 0.9540 0.9541 0.9543 0.9546 0.9551
1781.000000 0.9558 0.9569 0.9579 0.9590 0.9601
1786.000000 0.9613 0.9626 0.9638 0.9651 0.9663
1791.000000 0.9677 0.9690 0.9704 0.9717 0.9729
1796.000000 0.9737 0.9742 0.9747 0.9753 0.9759
1801.000000 0.9764 0.9764 0.9763 0.9763 0.9763
1806.000000 0.9763 0.9763 0.9764 0.9765 0.9765
1811.000000 0.9766 0.9767 0.9767 0.9773 0.9779
1816.000000 0.9785 0.9792 0.9801 0.9812 0.9823
1821.000000 0.9834 0.9845 0.9853 0.9861 0.9869
1826.000000 0.9877 0.9879 0.9880 0.9880 0.9880
1831.000000 0.9878 0.9863 0.9874 0.9872 0.9864
1836.000000 0.9851 0.9836 0.9820 0.9804 0.9788
1841.000000 0.9771 0.9754 0.9737 0.9720 0.9702
1846.000000 0.9683 0.9666 0.9648 0.9630 0.9611
1851.000000 0.9593 0.9575 0.9557 0.9541 0.9524
1856.000000 0.9507 0.9490 0.9474 0.9458 0.9441
1861.000000 0.9425 0.9409 0.9393 0.9376 0.9360
1866.000000 0.9343 0.9327 0.9310 0.9297 0.9289
1871.000000 0.9285 0.9282 0.9278 0.9275 0.9272
1876.000000 0.9269 0.9266 0.9264 0.9261 0.9259
1881.000000 0.9256 0.9249 0.9241 0.9230 0.9213
1886.000000 0.9195 0.9175 0.9151 0.9127 0.9103
1891.000000 0.9079 0.9056 0.9032 0.9008 0.8984
1896.000000 0.8961 0.8937 0.8913 0.8888 0.8864
1901.000000 0.8841 0.8820 0.8799 0.8777 0.8757
1906.000000 0.8738 0.8723 0.8713 0.8702 0.8692
1911.000000 0.8681 0.8670 0.8658 0.8645 0.8632
1916.000000 0.8620 0.8609 0.8601 0.8593 0.8585
1921.000000 0.8584 0.8584 0.8586 0.8575 0.8593
1926.000000 0.8596 0.8637 0.8681 0.8730 0.8778
1931.000000 0.8826 0.8874 0.8922 0.8970 0.9017
1936.000000 0.9065 0.9113 0.9160 0.9208 0.9256
1941.000000 0.9303 0.9351 0.9398 0.9446 0.9493
1946.000000 0.9540 0.9588 0.9614 0.9637 0.9657
1951.000000 0.9670 0.9682 0.9695 0.9702 0.9709
1956.000000 0.9714 0.9721 0.9727 0.9734 0.9740
1961.000000 0.9747 0.9753 0.9760 0.9767 0.9775
1966.000000 0.9781 0.9788 0.9798 0.9809 0.9821
1971.000000 0.9832 0.9844 0.9854 0.9860 0.9865
1976.000000 0.9871 0.9876 0.9881 0.9883 0.9883
1981.000000 0.9882 0.9882 0.9881 0.9881 0.9880
1986.000000 0.9879 0.9879 0.9882 0.9873 0.9869
1991.000000 0.9865 0.9861 0.9856 0.9852 0.9847
1996.000000 0.9841 0.9836 0.9831 0.9825 0.9820
2001.000000 0.9814 0.9809 0.9804 0.9798 0.9793
2006.000000 0.9788 0.9785 0.9785 0.9783 0.9780
2011.000000 0.9774 0.9766 0.9758 0.9750 0.9736
2016.000000 0.9718 0.9694 0.9666 0.9632 0.9612
2021.000000 0.9602 0.9598 0.9595 0.9595 0.9594
2026.000000 0.9592 0.9591 0.9569 0.9592 0.9594
2031.000000 0.9596 0.9600 0.9603 0.9606 0.9610
2036.000000 0.9614 0.9618 0.9623 0.9627 0.9631
2041.000000 0.9635 0.9639 0.9644 0.9650 0.9656
2046.000000 0.9662 0.9668 0.9673 0.9679 0.9685
2051.000000 0.9691 0.9697 0.9703 0.9708 0.9716
2056.000000 0.9724 0.9732 0.9741 0.9750 0.9757
2061.000000 0.9762 0.9768 0.9773 0.9779 0.9785
2066.000000 0.9790 0.9794 0.9798 0.9802 0.9806
2071.000000 0.9810 0.9815 0.9819 0.9823 0.9827
2076.000000 0.9831 0.9835 0.9839 0.9842 0.9845
2081.000000 0.9846 0.9847 0.9848 0.9849 0.9850
2086.000000 0.9852 0.9853 0.9854 0.9855 0.9856
2091.000000 0.9856 0.9856 0.9854 0.9852 0.9850
2096.000000 0.9848 0.9846 0.9844 0.9842 0.9839
2101.000000 0.9837 0.9836 0.9833 0.9830 0.9826
2106.000000 0.9823 0.9820 0.9816 0.9813 0.9810
2111.000000 0.9806 0.9803 0.9799 0.9797 0.9795
2116.000000 0.9795 0.9795 0.9795 0.9796 0.9796
2121.000000 0.9796 0.9798 0.9801 0.9804 0.9807
2126.000000 0.9810 0.9813 0.9816 0.9819 0.9822
2131.000000 0.9825 0.9827 0.9829 0.9831 0.9833
2136.000000 0.9834 0.9836 0.9837 0.9837 0.9834
2141.000000 0.9832 0.9829 0.9827 0.9825 0.9823
2146.000000 0.9836 0.9818 0.9816 0.9814 0.9812
2151.000000 0.9811 0.9811 0.9811 0.9811 0.9811
2156.000000 0.9812 0.9812 0.9812 0.9812 0.9812
2161.000000 0.9812 0.9813 0.9814 0.9816 0.9817
2166.000000 0.9818 0.9819 0.9821 0.9823 0.9824
2171.000000 0.9825 0.9826 0.9828 0.9830 0.9831
2176.000000 0.9833 0.9834 0.9835 0.9837 0.9838
2181.000000 0.9840 0.9841 0.9842 0.9843 0.9844
2186.000000 0.9846 0.9847 0.9848 0.9849 0.9850
2191.000000 0.9851 0.9852 0.9854 0.9854 0.9854
2196.000000 0.9854 0.9855 0.9855 0.9856 0.9856
2201.000000 0.9856 0.9856 0.9857 0.9857 0.9858
2206.000000 0.9858 0.9858 0.9858 0.9857 0.9857
2211.000000 0.9856 0.9855 0.9854 0.9854 0.9853
2216.000000 0.9853 0.9852 0.9851 0.9850 0.9850
2221.000000 0.9848 0.9846 0.9844 0.9842 0.9840
2226.000000 0.9838 0.9836 0.9834 0.9832 0.9830
2231.000000 0.9828 0.9826 0.9824 0.9822 0.9820
2236.000000 0.9819 0.9817 0.9816 0.9814 0.9813
2241.000000 0.9811 0.9810 0.9809 0.9808 0.9808
2246.000000 0.9808 0.9807 0.9807 0.9806 0.9806
2251.000000 0.9806 0.9806 0.9808 0.9809 0.9811
2256.000000 0.9813 0.9815 0.9816 0.9818 0.9820
2261.000000 0.9822 0.9824 0.9826 0.9828 0.9830
2266.000000 0.9832 0.9834 0.9836 0.9838 0.9840
2271.000000 0.9841 0.9841 0.9841 0.9841 0.9841
2276.000000 0.9841 0.9840 0.9838 0.9835 0.9833
2281.000000 0.9832 0.9829 0.9827 0.9824 0.9822
2286.000000 0.9820 0.9818 0.9815 0.9812 0.9808
2291.000000 0.9805 0.9802 0.9798 0.9795 0.9791
2296.000000 0.9787 0.9784 0.9781 0.9778 0.9774
2301.000000 0.9766 0.9758 0.9749 0.9741 0.9732
2306.000000 0.9724 0.9715 0.9707 0.9699 0.9692
2311.000000 0.9685 0.9679 0.9673 0.9667 0.9662
2316.000000 0.9658 0.9653 0.9650 0.9646 0.9642
2321.000000 0.9638 0.9635 0.9633 0.9630 0.9627
2326.000000 0.9624 0.9621 0.9618 0.9615 0.9612
2331.000000 0.9610 0.9607 0.9602 0.9598 0.9593
2336.000000 0.9588 0.9582 0.9577 0.9572 0.9567
2341.000000 0.9562 0.9557 0.9552 0.9546 0.9541
2346.000000 0.9536 0.9531 0.9525 0.9520 0.9514
2351.000000 0.9509 0.9504 0.9499 0.9494 0.9489
2356.000000 0.9484 0.9482 0.9481 0.9480 0.9479
2361.000000 0.9478 0.9477 0.9475 0.9475 0.9474
2366.000000 0.9415 0.9472 0.9471 0.9469 0.9468
2371.000000 0.9468 0.9468 0.9472 0.9476 0.9481
2376.000000 0.9485 0.9492 0.9499 0.9507 0.9514
2381.000000 0.9522 0.9529 0.9537 0.9546 0.9555
2386.000000 0.9564 0.9574 0.9584 0.9594 0.9604
2391.000000 0.9611 0.9618 0.9624 0.9629 0.9633
2396.000000 0.9634 0.9635 0.9633 0.9630 0.9628
2401.000000 0.9626 0.9623 0.9621 0.9618 0.9614
2406.000000 0.9609 0.9605 0.9600 0.9595 0.9592
2411.000000 0.9589 0.9589 0.9589 0.9590 0.9591
2416.000000 0.9593 0.9595 0.9598 0.9601 0.9604
2421.000000 0.9608 0.9612 0.9616 0.9621 0.9627
2426.000000 0.9633 0.9639 0.9649 0.9659 0.9669
2431.000000 0.9679 0.9689 0.9698 0.9707 0.9715
2436.000000 0.9722 0.9729 0.9736 0.9743 0.9747
2441.000000 0.9750 0.9752 0.9754 0.9755 0.9756
2446.000000 0.9757 0.9759 0.9761 0.9762 0.9763
2451.000000 0.9765 0.9766 0.9767 0.9769 0.9770
2456.000000 0.9772 0.9773 0.9774 0.9776 0.9777
2461.000000 0.9779 0.9780 0.9781 0.9783 0.9785
2466.000000 0.9786 0.9788 0.9790 0.9790 0.9790
2471.000000 0.9791 0.9792 0.9793 0.9793 0.9794
2476.000000 0.9795 0.9795 0.9796 0.9797 0.9797
2481.000000 0.9799 0.9800 0.9802 0.9805 0.9807
2486.000000 0.9814 0.9813 0.9816 0.9819 0.9821
2491.000000 0.9825 0.9828 0.9831 0.9835 0.9838
2496.000000 0.9842 0.9846 0.9846 0.9843 0.9841
2501.000000 0.9837 0.9834 0.9831 0.9828 0.9825
2506.000000 0.9821 0.9818 0.9815 0.9811 0.9808
2511.000000 0.9804 0.9801 0.9797 0.9793 0.9789
2516.000000 0.9785 0.9782 0.9778 0.9774 0.9770
2521.000000 0.9767 0.9763 0.9759 0.9756 0.9752
2526.000000 0.9749 0.9745 0.9742 0.9738 0.9735
2531.000000 0.9731 0.9728 0.9724 0.9721 0.9717
2536.000000 0.9714 0.9710 0.9707 0.9703 0.9700
2541.000000 0.9696 0.9693 0.9690 0.9687 0.9685
2546.000000 0.9682 0.9679 0.9676 0.9673 0.9670
2551.000000 0.9667 0.9664 0.9661 0.9658 0.9655
2556.000000 0.9652 0.9649 0.9647 0.9644 0.9640
2561.000000 0.9636 0.9632 0.9628 0.9624 0.9620
2566.000000 0.9616 0.9611 0.9607 0.9602 0.9598
2571.000000 0.9594 0.9590 0.9585 0.9581 0.9577
2576.000000 0.9573 0.9569 0.9564 0.9560 0.9555
2581.000000 0.9551 0.9546 0.9541 0.9535 0.9529
2586.000000 0.9524 0.9518 0.9512 0.9507 0.9501
2591.000000 0.9496 0.9490 0.9485 0.9479 0.9474
2596.000000 0.9469 0.9464 0.9458 0.9453 0.9448
2601.000000 0.9443 0.9437 0.9432 0.9426 0.9422
2606.000000 0.9417 0.9412 0.9407 0.9402 0.9398
2611.000000 0.9393 0.9388 0.9383 0.9379 0.9374
2616.000000 0.9370 0.9366 0.9364 0.9364 0.9365
2621.000000 0.9367 0.9369 0.9372 0.9378 0.9385
2626.000000 0.9392 0.9404 0.9415 0.9427 0.9440
2631.000000 0.9452 0.9466 0.9483 0.9499 0.9515
2636.000000 0.9532 0.9549 0.9558 0.9565 0.9572
2641.000000 0.9572 0.9573 0.9573 0.9572 0.9571
2646.000000 0.9569 0.9566 0.9562 0.9559 0.9556
2651.000000 0.9553 0.9547 0.9540 0.9534 0.9527
2656.000000 0.9519 0.9512 0.9508 0.9504 0.9501
2661.000000 0.9500 0.9500 0.9501 0.9502 0.9504
2666.000000 0.9506 0.9508 0.9509 0.9511 0.9514
2671.000000 0.9516 0.9523 0.9529 0.9536 0.9542
2676.000000 0.9548 0.9554 0.9560 0.9566 0.9569
2681.000000 0.9571 0.9573 0.9574 0.9575 0.9576
2686.000000 0.9577 0.9578 0.9578 0.9577 0.9575
2691.000000 0.9573 0.9571 0.9568 0.9566 0.9564
2696.000000 0.9562 0.9560 0.9557 0.9553 0.9550
2701.000000 0.9546 0.9541 0.9537 0.9533 0.9529
2706.000000 0.9525 0.9520 0.9516 0.9511 0.9507
2711.000000 0.9502 0.9497 0.9492 0.9488 0.9483
2716.000000 0.9479 0.9474 0.9470 0.9466 0.9462
2721.000000 0.9458 0.9454 0.9450 0.9446 0.9442
2726.000000 0.9438 0.9434 0.9430 0.9426 0.9422
2731.000000 0.9417 0.9413 0.9410 0.9407 0.9403
2736.000000 0.9400 0.9397 0.9393 0.9390 0.9387
2741.000000 0.9384 0.9381 0.9378 0.9374 0.9371
2746.000000 0.9368 0.9365 0.9362 0.9359 0.9355
2751.000000 0.9352 0.9349 0.9346 0.9343 0.9340
2756.000000 0.9337 0.9334 0.9331 0.9328 0.9324
2761.000000 0.9321 0.9318 0.9314 0.9311 0.9307
2766.000000 0.9303 0.9298 0.9293 0.9288 0.9283
2771.000000 0.9279 0.9273 0.9267 0.9261 0.9253
2776.000000 0.9242 0.9231 0.9220 0.9207 0.9195
2781.000000 0.9183 0.9169 0.9156 0.9142 0.9128
2786.000000 0.9114 0.9100 0.9086 0.9072 0.9057
2791.000000 0.9040 0.9022 0.9004 0.8986 0.8968
2796.000000 0.8950 0.8932 0.8913 0.8895 0.8875
2801.000000 0.8855 0.8835 0.8814 0.8794 0.8774
2806.000000 0.8754 0.8732 0.8710 0.8688 0.8661
2811.000000 0.8634 0.8607 0.8580 0.8553 0.8526
2816.000000 0.8476 0.8415 0.8354 0.8287 0.8215
2821.000000 0.8142 0.8070 0.7997 0.7925 0.7852
2826.000000 0.7780 0.7708 0.7635 0.7563 0.7491
2831.000000 0.7418 0.7346 0.7274 0.7202 0.7130
2836.000000 0.7058 0.6987 0.6915 0.6843 0.6772
2841.000000 0.6700 0.6629 0.6557 0.6486 0.6414
2846.000000 0.6342 0.6271 0.6213 0.6164 0.6114
2851.000000 0.6083 0.6081 0.6080 0.6079 0.6079
2856.000000 0.6079 0.6079 0.6079 0.6079 0.6079
2861.000000 0.6097 0.6105 0.6121 0.6153 0.6219
2866.000000 0.6285 0.6350 0.6416 0.6482 0.6547
2871.000000 0.6613 0.6678 0.6744 0.6809 0.6874
2876.000000 0.6940 0.7001 0.7034 0.7068 0.7101
2881.000000 0.7107 0.7106 0.7105 0.7104 0.7103
2886.000000 0.7102 0.7098 0.7059 0.7023 0.6987
2891.000000 0.6947 0.6907 0.6867 0.6827 0.6787
2896.000000 0.6747 0.6707 0.6667 0.6628 0.6588
2901.000000 0.6548 0.6508 0.6468 0.6429 0.6389
2906.000000 0.6349 0.6310 0.6270 0.6230 0.6191
2911.000000 0.6151 0.6112 0.6072 0.6033 0.5994
2916.000000 0.5955 0.5915 0.5876 0.5837 0.5798
2921.000000 0.5758 0.5719 0.5680 0.5641 0.5601
2926.000000 0.5562 0.5523 0.5484 0.5445 0.5406
2931.000000 0.5367 0.5328 0.5289 0.5250 0.5211
2936.000000 0.5172 0.5133 0.5095 0.5056 0.5017
2941.000000 0.4978 0.4940 0.4901 0.4863 0.4825
2946.000000 0.4786 0.4747 0.4709 0.4670 0.4632
2951.000000 0.4593 0.4555 0.4516 0.4478 0.4440
2956.000000 0.4401 0.4363 0.4325 0.4286 0.4248
2961.000000 0.4210 0.4172 0.4134 0.4097 0.4059
2966.000000 0.4035 0.4031 0.4028 0.4024 0.4023
2971.000000 0.4023 0.4023 0.4023 0.4023 0.4023
2976.000000 0.4023 0.4009 0.4025 0.4026 0.4030
2981.000000 0.4041 0.4051 0.4061 0.4084 0.4110
2986.000000 0.4137 0.4164 0.4192 0.4219 0.4246
2991.000000 0.4273 0.4300 0.4327 0.4354 0.4381
2996.000000 0.4408 0.4435 0.4554 0.4489 0.4516
3001.000000 0.4543 0.4550 0.4551 0.4552 0.4554
3006.000000 0.4555 0.4557 0.4559 0.4552 0.4538
3011.000000 0.4525 0.4511 0.4492 0.4472 0.4453
3016.000000 0.4433 0.4413 0.4394 0.4374 0.4354
3021.000000 0.4335 0.4315 0.4296 0.4277 0.4257
3026.000000 0.4238 0.4221 0.4209 0.4198 0.4186
3031.000000 0.4183 0.4184 0.4185 0.4187 0.4198
3036.000000 0.4209 0.4220 0.4246 0.4301 0.4356
3041.000000 0.4411 0.4182 0.4522 0.4577 0.4632
3046.000000 0.4668 0.4703 0.4738 0.4768 0.4780
3051.000000 0.4792 0.4804 0.4816 0.4828 0.4839
3056.000000 0.4851 0.4859 0.4867 0.4875 0.4883
3061.000000 0.4890 0.4898 0.4905 0.4912 0.4920
3066.000000 0.4927 0.4934 0.4946 0.4962 0.4979
3071.000000 0.4995 0.5057 0.5135 0.5213 0.5290
3076.000000 0.5314 0.5337 0.5359 0.5383 0.5411
3081.000000 0.5440 0.5468 0.5511 0.5578 0.5644
3086.000000 0.5711 0.5777 0.5843 0.5909 0.5975
3091.000000 0.6041 0.6107 0.6173 0.6240 0.6305
3096.000000 0.6371 0.6437 0.6503 0.6568 0.6634
3101.000000 0.6700 0.6766 0.6831 0.6897 0.6962
3106.000000 0.7027 0.7093 0.7158 0.7224 0.7289
3111.000000 0.7354 0.7419 0.7484 0.7549 0.7615
3116.000000 0.7680 0.7745 0.7828 0.7915 0.8002
3121.000000 0.8089 0.8127 0.8159 0.8191 0.8224
3126.000000 0.8233 0.8243 0.8253 0.8262 0.8270
3131.000000 0.8277 0.8285 0.8293 0.8299 0.8305
3136.000000 0.8311 0.8316 0.8316 0.8316 0.8316
3141.000000 0.8315 0.8315 0.8315 0.8315 0.8328
3146.000000 0.8315 0.8315 0.8315 0.8314 0.8314
3151.000000 0.8314 0.8314 0.8313 0.8312 0.8310
3156.000000 0.8309 0.8307 0.8303 0.8300 0.8296
3161.000000 0.8293 0.8290 0.8287 0.8283 0.8279
3166.000000 0.8274 0.8269 0.8263 0.8258 0.8252
3171.000000 0.8246 0.8240 0.8233 0.8224 0.8214
3176.000000 0.8205 0.8196 0.8185 0.8175 0.8164
3181.000000 0.8155 0.8146 0.8137 0.8129 0.8121
3186.000000 0.8116 0.8111 0.8106 0.8100 0.8095
3191.000000 0.8090 0.8085 0.8080 0.8075 0.8070
3196.000000 0.8065 0.8060 0.8050 0.8041 0.8031
3201.000000 0.8022 0.8021 0.8021 0.8021 0.8021
3206.000000 0.8021 0.8021 0.8022 0.8022 0.8023
3211.000000 0.8023 0.8024 0.8024 0.8025 0.8025
3216.000000 0.8026 0.8026 0.8027 0.8027 0.8028
3221.000000 0.8028 0.8029 0.8029 0.8030 0.8030
3226.000000 0.8031 0.8033 0.8035 0.8037 0.8040
3231.000000 0.8045 0.8051 0.8056 0.8062 0.8067
3236.000000 0.8073 0.8078 0.8084 0.8089 0.8095
3241.000000 0.8100 0.8106 0.8111 0.8116 0.8121
3246.000000 0.8127 0.8132 0.8138 0.8144 0.8150
3251.000000 0.8156 0.8162 0.8167 0.8173 0.8179
3256.000000 0.8184 0.8188 0.8192 0.8197 0.8200
3261.000000 0.8204 0.8207 0.8210 0.8214 0.8217
3266.000000 0.8221 0.8224 0.8227 0.8224 0.8221
3271.000000 0.8218 0.8214 0.8211 0.8208 0.8205
3276.000000 0.8202 0.8199 0.8196 0.8192 0.8189
3281.000000 0.8186 0.8183 0.8179 0.8176 0.8173
3286.000000 0.8170 0.8167 0.8163 0.8160 0.8157
3291.000000 0.8153 0.8150 0.8146 0.8143 0.8139
3296.000000 0.8135 0.8132 0.8128 0.8124 0.8121
3301.000000 0.8117 0.8113 0.8110 0.8107 0.8104
3306.000000 0.8101 0.8098 0.8095 0.8092 0.8089
3311.000000 0.8086 0.8086 0.8087 0.8087 0.8088
3316.000000 0.8090 0.8094 0.8098 0.8101 0.8105
3321.000000 0.8113 0.8122 0.8130 0.8139 0.8093
3326.000000 0.8157 0.8166 0.8175 0.8185 0.8194
3331.000000 0.8204 0.8214 0.8224 0.8233 0.8241
3336.000000 0.8248 0.8256 0.8264 0.8271 0.8278
3341.000000 0.8286 0.8293 0.8300 0.8307 0.8314
3346.000000 0.8321 0.8327 0.8333 0.8339 0.8345
3351.000000 0.8350 0.8356 0.8361 0.8367 0.8373
3356.000000 0.8378 0.8384 0.8389 0.8395 0.8400
3361.000000 0.8405 0.8410 0.8415 0.8420 0.8425
3366.000000 0.8429 0.8433 0.8438 0.8442 0.8447
3371.000000 0.8451 0.8456 0.8461 0.8465 0.8470
3376.000000 0.8474 0.8478 0.8483 0.8487 0.8492
3381.000000 0.8497 0.8501 0.8506 0.8510 0.8515
3386.000000 0.8519 0.8524 0.8529 0.8533 0.8538
3391.000000 0.8542 0.8547 0.8552 0.8556 0.8561
3396.000000 0.8566 0.8570 0.8574 0.8577 0.8581
3401.000000 0.8584 0.8588 0.8591 0.8595 0.8598
3406.000000 0.8602 0.8605 0.8608 0.8611 0.8614
3411.000000 0.8618 0.8621 0.8625 0.8628 0.8631
3416.000000 0.8634 0.8636 0.8638 0.8640 0.8642
3421.000000 0.8643 0.8645 0.8646 0.8648 0.8649
3426.000000 0.8650 0.8651 0.8653 0.8654 0.8655
3431.000000 0.8657 0.8658 0.8659 0.8660 0.8662
3436.000000 0.8663 0.8664 0.8665 0.8667 0.8668
3441.000000 0.8670 0.8671 0.8673 0.8674 0.8676
3446.000000 0.8678 0.8680 0.8682 0.8684 0.8686
3451.000000 0.8688 0.8690 0.8691 0.8693 0.8695
3456.000000 0.8696 0.8698 0.8700 0.8703 0.8706
3461.000000 0.8709 0.8713 0.8717 0.8723 0.8728
3466.000000 0.8734 0.8740 0.8746 0.8752 0.8758
3471.000000 0.8763 0.8769 0.8775 0.8782 0.8788
3476.000000 0.8795 0.8801 0.8808 0.8815 0.8822
3481.000000 0.8829 0.8836 0.8843 0.8850 0.8857
3486.000000 0.8864 0.8871 0.8878 0.8885 0.8892
3491.000000 0.8899 0.8907 0.8918 0.8928 0.8938
3496.000000 0.8948 0.8960 0.8974 0.8987 0.9001
3501.000000 0.9014 0.9028 0.9041 0.9055 0.9069
3506.000000 0.9082 0.9095 0.9107 0.9120 0.9132
3511.000000 0.9145 0.9155 0.9165 0.9175 0.9185
3516.000000 0.9195 0.9205 0.9214 0.9224 0.9234
3521.000000 0.9243 0.9252 0.9260 0.9269 0.9277
3526.000000 0.9286 0.9292 0.9298 0.9303 0.9309
3531.000000 0.9315 0.9321 0.9327 0.9332 0.9338
3536.000000 0.9344 0.9350 0.9356 0.9361 0.9367
3541.000000 0.9373 0.9379 0.9385 0.9390 0.9396
3546.000000 0.9402 0.9408 0.9413 0.9419 0.9425
3551.000000 0.9431 0.9435 0.9439 0.9443 0.9447
3556.000000 0.9451 0.9454 0.9456 0.9459 0.9461
3561.000000 0.9464 0.9466 0.9469 0.9472 0.9474
3566.000000 0.9477 0.9479 0.9482 0.9484 0.9487
3571.000000 0.9489 0.9492 0.9494 0.9497 0.9500
3576.000000 0.9502 0.9505 0.9507 0.9509 0.9512
3581.000000 0.9514 0.9516 0.9519 0.9521 0.9524
3586.000000 0.9526 0.9529 0.9532 0.9534 0.9537
3591.000000 0.9539 0.9542 0.9544 0.9546 0.9548
3596.000000 0.9550 0.9552 0.9554 0.9555 0.9556
3601.000000 0.9557 0.9558 0.9559 0.9561 0.9562
3606.000000 0.9563 0.9565 0.9566 0.9567 0.9568
3611.000000 0.9570 0.9571 0.9572 0.9573 0.9575
3616.000000 0.9576 0.9577 0.9579 0.9580 0.9581
3621.000000 0.9583 0.9584 0.9585 0.9586 0.9588
3626.000000 0.9589 0.9590 0.9591 0.9592 0.9594
3631.000000 0.9595 0.9596 0.9598 0.9599 0.9600
3636.000000 0.9601 0.9602 0.9603 0.9604 0.9606
3641.000000 0.9607 0.9608 0.9610 0.9611 0.9612
3646.000000 0.9613 0.9615 0.9616 0.9617 0.9618
3651.000000 0.9619 0.9621 0.9622 0.9623 0.9625
3656.000000 0.9625 0.9626 0.9626 0.9627 0.9627
3661.000000 0.9628 0.9628 0.9629 0.9630 0.9630
3666.000000 0.9631 0.9631 0.9631 0.9632 0.9632
3671.000000 0.9632 0.9633 0.9634 0.9634 0.9635
3676.000000 0.9635 0.9636 0.9636 0.9636 0.9637
3681.000000 0.9637 0.9638 0.9638 0.9638 0.9639
3686.000000 0.9639 0.9639 0.9640 0.9640 0.9641
3691.000000 0.9642 0.9642 0.9642 0.9642 0.9642
3696.000000 0.9642 0.9642 0.9642 0.9641 0.9641
3701.000000 0.9640 0.9640 0.9640 0.9639 0.9639
3706.000000 0.9639 0.9639 0.9639 0.9639 0.9655
3711.000000 0.9638 0.9637 0.9637 0.9637 0.9636
3716.000000 0.9636 0.9636 0.9636 0.9636 0.9636
3721.000000 0.9635 0.9635 0.9635 0.9634 0.9634
3726.000000 0.9633 0.9633 0.9633 0.9632 0.9632
3731.000000 0.9632 0.9631 0.9631 0.9631 0.9631
3736.000000 0.9631 0.9630 0.9630 0.9629 0.9628
3741.000000 0.9628 0.9627 0.9626 0.9625 0.9624
3746.000000 0.9623 0.9623 0.9622 0.9621 0.9620
3751.000000 0.9619 0.9618 0.9617 0.9616 0.9615
3756.000000 0.9615 0.9614 0.9613 0.9612 0.9611
3761.000000 0.9610 0.9609 0.9608 0.9607 0.9607
3766.000000 0.9606 0.9605 0.9604 0.9603 0.9602
3771.000000 0.9601 0.9600 0.9600 0.9599 0.9598
3776.000000 0.9597 0.9596 0.9595 0.9594 0.9593
3781.000000 0.9593 0.9592 0.9591 0.9590 0.9589
3786.000000 0.9588 0.9587 0.9586 0.9586 0.9585
3791.000000 0.9584 0.9583 0.9582 0.9581 0.9581
3796.000000 0.9580 0.9579 0.9578 0.9578 0.9577
3801.000000 0.9576 0.9576 0.9575 0.9574 0.9574
3806.000000 0.9573 0.9572 0.9572 0.9571 0.9570
3811.000000 0.9569 0.9569 0.9568 0.9568 0.9567
3816.000000 0.9567 0.9566 0.9566 0.9565 0.9564
3821.000000 0.9564 0.9563 0.9562 0.9562 0.9562
3826.000000 0.9562 0.9562 0.9562 0.9562 0.9563
3831.000000 0.9564 0.9564 0.9565 0.9566 0.9567
3836.000000 0.9568 0.9568 0.9569 0.9570 0.9570
3841.000000 0.9571 0.9572 0.9572 0.9573 0.9574
3846.000000 0.9574 0.9575 0.9576 0.9576 0.9577
3851.000000 0.9578 0.9578 0.9579 0.9580 0.9580
3856.000000 0.9581 0.9582 0.9582 0.9583 0.9584
3861.000000 0.9584 0.9585 0.9586 0.9587 0.9587
3866.000000 0.9588 0.9589 0.9590 0.9591 0.9592
3871.000000 0.9592 0.9593 0.9594 0.9594 0.9595
3876.000000 0.9595 0.9594 0.9593 0.9591 0.9590
3881.000000 0.9589 0.9587 0.9586 0.9585 0.9584
3886.000000 0.9583 0.9582 0.9581 0.9579 0.9578
3891.000000 0.9577 0.9576 0.9575 0.9574 0.9572
3896.000000 0.9570 0.9568 0.9566 0.9564 0.9562
3901.000000 0.9560 0.9557 0.9555 0.9553 0.9550
3906.000000 0.9548 0.9546 0.9543 0.9541 0.9538
3911.000000 0.9536 0.9533 0.9531 0.9529 0.9527
3916.000000 0.9525 0.9523 0.9521 0.9519 0.9517
3921.000000 0.9515 0.9513 0.9511 0.9509 0.9507
3926.000000 0.9505 0.9503 0.9501 0.9499 0.9497
3931.000000 0.9495 0.9493 0.9491 0.9489 0.9487
3936.000000 0.9485 0.9484 0.9482 0.9480 0.9478
3941.000000 0.9476 0.9474 0.9472 0.9470 0.9468
3946.000000 0.9466 0.9464 0.9462 0.9460 0.9458
3951.000000 0.9457 0.9455 0.9453 0.9451 0.9449
3956.000000 0.9447 0.9444 0.9442 0.9440 0.9437
3961.000000 0.9435 0.9432 0.9430 0.9428 0.9425
3966.000000 0.9423 0.9420 0.9418 0.9416 0.9413
3971.000000 0.9411 0.9408 0.9405 0.9403 0.9400
3976.000000 0.9398 0.9396 0.9393 0.9391 0.9389
3981.000000 0.9386 0.9385 0.9383 0.9382 0.9380
3986.000000 0.9378 0.9377 0.9376 0.9375 0.9374
3991.000000 0.9373 0.9372 0.9371 0.9370 0.9369
3996.000000 0.9368 0.9367 0.9366 0.9365 0.9364
##END=
