##TITLE=BENZENE, 1,2,3,5-TETRAMETHYL-
##JCAMP-DX=4.24
##DATA TYPE=INFRARED SPECTRUM
##CLASS=COBLENTZ III
##ORIGIN=DOW CHEMICAL COMPANY
##OWNER=COBLENTZ SOC.
Collection (C) 2018 copyright by the U.S. Secretary of Commerce
on behalf of the United States of America. All rights reserved.
##DATE=1966/05/26
##NAMES=1,2,3,5-tetramethylbenzene
##CAS REGISTRY NO=527-53-7
##MOLFORM=C10 H14
##SOURCE REFERENCE=COBLENTZ NO. 06720
##$NIST SOURCE=COBLENTZ
##$NIST IMAGE=cob6720
##SPECTROMETER/DATA SYSTEM=DOW KBr FOREPRISM-GRATING
##INSTRUMENT PARAMETERS=BLAZED AT 3.5, 12.0, 20.0 MICRON AND CHANGED AT 5.0, 7.5, 14.9 MICRON
##STATE=SOLUTION (10% CCl4 FOR 3800-1335, 10% CS2 FOR 1335-460 CM^-^1)
##PATH LENGTH=0.012 CM, 0.011 CM
$$ SPECTRAL FEATURE AT 1992 CM^-^1 IS AN ARTIFACT CAUSED BY GRATING CHANGE
$$ SEE SPECTRUM NO. 3588 FOR "NEAT" SPECTRUM
##SAMPLING PROCEDURE=TRANSMISSION
##RESOLUTION=2
##DATA PROCESSING=DIGITIZED BY COBLENTZ SOCIETY (BATCH I) FROM HARD COPY
##XUNITS=1/CM
##YUNITS=TRANSMITTANCE
##XLABEL=Wavenumbers (cm-1)
##YLABEL=% Transmission
##XFACTOR=1
##YFACTOR=1
##DELTAX=1
##FIRSTX=461
##LASTX=3800
##FIRSTY=0.9997
##MAXX=3800
##MINX=461
##MAXY=1.0503
##MINY=0.034
##NPOINTS=3340
##XYDATA=(X++(Y..Y))
461.000000 0.9997 0.9982 0.9987 0.9954 0.9939
466.000000 0.9924 0.9910 0.9895 0.9880 0.9871
471.000000 0.9861 0.9852 0.9842 0.9832 0.9823
476.000000 0.9814 0.9809 0.9804 0.9799 0.9795
481.000000 0.9790 0.9785 0.9780 0.9777 0.9775
486.000000 0.9773 0.9771 0.9768 0.9767 0.9762
491.000000 0.9752 0.9742 0.9732 0.9721 0.9712
496.000000 0.9708 0.9703 0.9699 0.9694 0.9690
501.000000 0.9690 0.9694 0.9698 0.9702 0.9707
506.000000 0.9707 0.9708 0.9697 0.9686 0.9675
511.000000 0.9663 0.9652 0.9641 0.9636 0.9633
516.000000 0.9630 0.9625 0.9623 0.9620 0.9616
521.000000 0.9613 0.9614 0.9621 0.9628 0.9635
526.000000 0.9640 0.9641 0.9642 0.9644 0.9645
531.000000 0.9630 0.9609 0.9588 0.9567 0.9536
536.000000 0.9505 0.9468 0.9423 0.9375 0.9301
541.000000 0.9221 0.9137 0.9049 0.8960 0.8848
546.000000 0.8731 0.7871 0.6860 0.5848 0.5022
551.000000 0.4968 0.8907 0.9111 0.9208 0.9306
556.000000 0.9385 0.9449 0.9514 0.9578 0.9602
561.000000 0.9624 0.9645 0.9667 0.9689 0.9690
566.000000 0.9691 0.9691 0.9692 0.9693 0.9694
571.000000 0.9687 0.9680 0.9673 0.9666 0.9659
576.000000 0.9653 0.9655 0.9658 0.9660 0.9662
581.000000 0.9664 0.9667 0.9668 0.9671 0.9673
586.000000 0.9677 0.9682 0.9686 0.9691 0.9695
591.000000 0.9700 0.9704 0.9709 0.9713 0.9718
596.000000 0.9721 0.9725 0.9728 0.9731 0.9735
601.000000 0.9738 0.9741 0.9744 0.9747 0.9750
606.000000 0.9754 0.9757 0.9760 0.9763 0.9773
611.000000 0.9784 0.9794 0.9805 0.9816 0.9825
616.000000 0.9837 0.9847 0.9858 0.9868 0.9878
621.000000 0.9883 0.9887 0.9890 0.9894 0.9897
626.000000 0.9901 0.9895 0.9887 0.9878 0.9871
631.000000 0.9865 0.9889 0.9875 0.9880 0.9886
636.000000 0.9891 0.9896 0.9900 0.9904 0.9908
641.000000 0.9912 0.9916 0.9920 0.9921 0.9912
646.000000 0.9902 0.9891 0.9881 0.9853 0.9816
651.000000 0.9780 0.9746 0.9721 0.9741 0.9762
656.000000 0.9796 0.9843 0.9896 0.9968 1.0033
661.000000 1.0063 1.0078 1.0084 1.0086 1.0092
666.000000 1.0130 1.0187 1.0250 1.0260 1.0244
671.000000 1.0209 1.0174 1.0141 1.0112 1.0082
676.000000 1.0052 1.0021 1.0001 0.9994 0.9986
681.000000 0.9986 0.9987 0.9988 0.9987 0.9987
686.000000 0.9985 0.9982 0.9980 0.9978 0.9970
691.000000 0.9963 0.9955 0.9942 0.9925 0.9910
696.000000 0.9888 0.9865 0.9828 0.9778 0.9718
701.000000 0.9646 0.9564 0.8011 0.6110 0.4210
706.000000 0.3618 0.3649 0.6324 0.9268 0.9428
711.000000 0.9605 0.9693 0.9749 0.9806 0.9861
716.000000 0.9916 0.9948 0.9971 0.9992 1.0006
721.000000 1.0015 1.0024 1.0031 1.0034 1.0036
726.000000 1.0036 1.0036 1.0036 1.0035 1.0030
731.000000 1.0025 1.0020 1.0015 1.0005 0.9996
736.000000 0.9986 0.9988 0.9997 1.0017 1.0037
741.000000 1.0058 1.0082 1.0105 1.0128 1.0149
746.000000 1.0170 1.0190 1.0202 1.0203 1.0205
751.000000 1.0204 1.0204 1.0202 1.0199 1.0197
756.000000 1.0194 1.0192 1.0190 1.0187 1.0185
761.000000 1.0183 1.0181 1.0178 1.0177 1.0175
766.000000 1.0174 1.0173 1.0171 1.0171 1.0171
771.000000 1.0170 1.0168 1.0165 1.0163 1.0160
776.000000 1.0158 1.0155 1.0151 1.0125 1.0139
781.000000 1.0133 1.0127 1.0117 1.0106 1.0096
786.000000 1.0086 1.0074 1.0062 1.0050 1.0050
791.000000 1.0063 1.0078 1.0095 1.0111 1.0127
796.000000 1.0138 1.0147 1.0147 1.0147 1.0146
801.000000 1.0146 1.0145 1.0144 1.0141 1.0138
806.000000 1.0134 1.0131 1.0125 1.0118 1.0110
811.000000 1.0102 1.0093 1.0083 1.0073 1.0063
816.000000 1.0054 1.0044 1.0034 1.0025 1.0015
821.000000 1.0005 0.9994 0.9982 0.9970 0.9958
826.000000 0.9946 0.9933 0.9918 0.9902 0.9885
831.000000 0.9863 0.9837 0.9810 0.9783 0.9741
836.000000 0.9680 0.9597 0.9512 0.9425 0.9327
841.000000 0.9228 0.9128 0.8974 0.8818 0.7891
846.000000 0.7582 0.6969 0.4396 0.1823 0.0340
851.000000 0.0349 0.1551 0.2951 0.4352 0.5752
856.000000 0.6440 0.6661 0.6868 0.7031 0.8346
861.000000 0.8683 0.8949 0.9058 0.9153 0.9225
866.000000 0.9278 0.9334 0.9364 0.9394 0.9409
871.000000 0.9410 0.9410 0.9401 0.9391 0.9378
876.000000 0.9367 0.9354 0.9352 0.9361 0.9375
881.000000 0.9393 0.9411 0.9428 0.9452 0.9481
886.000000 0.9513 0.9548 0.9577 0.9605 0.9627
891.000000 0.9646 0.9663 0.9663 0.9664 0.9664
896.000000 0.9681 0.9701 0.9723 0.9746 0.9766
901.000000 0.9785 0.9799 0.9811 0.9821 0.9827
906.000000 0.9832 0.9837 0.9842 0.9847 0.9853
911.000000 0.9859 0.9865 0.9871 0.9875 0.9881
916.000000 0.9886 0.9890 0.9895 0.9900 0.9905
921.000000 0.9907 0.9907 0.9908 0.9909 0.9909
926.000000 0.9908 0.9903 0.9898 0.9893 0.9888
931.000000 0.9882 0.9875 0.9868 0.9862 0.9855
936.000000 0.9849 0.9848 0.9847 0.9846 0.9853
941.000000 0.9863 0.9873 0.9883 0.9896 0.9910
946.000000 0.9923 0.9935 0.9948 0.9947 0.9946
951.000000 0.9940 0.9935 0.9928 0.9918 0.9906
956.000000 0.9894 0.9883 0.9870 0.9858 0.9845
961.000000 0.9832 0.9818 0.9807 0.9792 0.9777
966.000000 0.9762 0.9747 0.9732 0.9717 0.9702
971.000000 0.9687 0.9666 0.9645 0.9625 0.9592
976.000000 0.9556 0.9520 0.9475 0.9414 0.9353
981.000000 0.9292 0.9189 0.9078 0.8968 0.8847
986.000000 0.8725 0.8571 0.8413 0.8316 0.8305
991.000000 0.8304 0.8325 0.8373 0.8415 0.8427
996.000000 0.8434 0.8432 0.8428 0.8415 0.8160
1001.000000 0.7869 0.7580 0.7290 0.7000 0.6710
1006.000000 0.6419 0.6130 0.5921 0.5760 0.5616
1011.000000 0.5534 0.5521 0.5518 0.5529 0.5592
1016.000000 0.5780 0.6093 0.6406 0.6718 0.7033
1021.000000 0.7346 0.7658 0.7936 0.8010 0.8036
1026.000000 0.8037 0.8036 0.8035 0.8019 0.7985
1031.000000 0.7940 0.7891 0.7826 0.7733 0.7642
1036.000000 0.7589 0.7565 0.7526 0.7556 0.7562
1041.000000 0.7575 0.7898 0.8268 0.8375 0.8482
1046.000000 0.8660 0.8810 0.8945 0.9052 0.9121
1051.000000 0.9167 0.9210 0.9241 0.9271 0.9297
1056.000000 0.9323 0.9350 0.9377 0.9401 0.9425
1061.000000 0.9437 0.9446 0.9459 0.9453 0.9446
1066.000000 0.9432 0.9418 0.9404 0.9390 0.9374
1071.000000 0.9337 0.9301 0.9265 0.9224 0.9171
1076.000000 0.9118 0.9064 0.9015 0.8980 0.8990
1081.000000 0.8994 0.9060 0.9428 0.9471 0.9492
1086.000000 0.9510 0.9527 0.9545 0.9562 0.9580
1091.000000 0.9597 0.9615 0.9632 0.9650 0.9667
1096.000000 0.9685 0.9703 0.9720 0.9738 0.9747
1101.000000 0.9755 0.9764 0.9773 0.9783 0.9793
1106.000000 0.9803 0.9813 0.9821 0.9831 0.9840
1111.000000 0.9849 0.9858 0.9867 0.9875 0.9883
1116.000000 0.9892 0.9900 0.9908 0.9916 0.9924
1121.000000 0.9935 0.9946 0.9958 0.9970 0.9985
1126.000000 1.0002 1.0023 1.0062 1.0131 1.0202
1131.000000 1.0221 1.0200 1.0175 1.0152 1.0093
1136.000000 1.0047 1.0034 1.0025 1.0020 1.0008
1141.000000 0.9975 0.9791 0.9536 0.9463 0.9395
1146.000000 0.9428 0.9478 0.9539 0.9621 0.9690
1151.000000 0.9789 0.9885 0.9984 1.0047 1.0073
1156.000000 1.0097 1.0106 1.0114 1.0121 1.0128
1161.000000 1.0134 1.0139 1.0144 1.0147 1.0150
1166.000000 1.0153 1.0155 1.0158 1.0160 1.0162
1171.000000 1.0164 1.0167 1.0168 1.0168 1.0135
1176.000000 1.0165 1.0162 1.0159 1.0156 1.0155
1181.000000 1.0153 1.0152 1.0146 1.0139 1.0128
1186.000000 1.0111 1.0096 1.0083 1.0071 1.0064
1191.000000 1.0057 1.0050 1.0044 1.0039 1.0035
1196.000000 1.0031 1.0028 1.0024 1.0018 1.0010
1201.000000 0.9999 0.9983 0.9959 0.9928 0.9889
1206.000000 0.9811 0.9734 0.9643 0.9525 0.9418
1211.000000 0.9310 0.9088 0.8867 0.8646 0.8424
1216.000000 0.8158 0.8175 0.9125 0.9447 0.9621
1221.000000 0.9747 0.9773 0.9771 0.9761 0.9745
1226.000000 0.9727 0.9718 0.9730 0.9758 0.9798
1231.000000 0.9850 0.9903 0.9946 0.9959 0.9962
1236.000000 0.9956 0.9950 0.9962 0.9936 0.9928
1241.000000 0.9921 0.9914 0.9907 0.9900 0.9892
1246.000000 0.9885 0.9877 0.9873 0.9868 0.9865
1251.000000 0.9861 0.9861 0.9861 0.9868 0.9880
1256.000000 0.9898 0.9916 0.9931 0.9928 0.9927
1261.000000 0.9920 0.9912 0.9904 0.9895 0.9886
1266.000000 0.9875 0.9867 0.9861 0.9855 0.9849
1271.000000 0.9845 0.9845 0.9845 0.9847 0.9849
1276.000000 0.9852 0.9856 0.9860 0.9864 0.9864
1281.000000 0.9863 0.9860 0.9855 0.9848 0.9841
1286.000000 0.9834 0.9827 0.9817 0.9805 0.9793
1291.000000 0.9778 0.9762 0.9745 0.9727 0.9707
1296.000000 0.9687 0.9668 0.9647 0.9648 0.9653
1301.000000 0.9671 0.9706 0.9734 0.9735 0.9734
1306.000000 0.9733 0.9730 0.9725 0.9723 0.9720
1311.000000 0.9717 0.9712 0.9706 0.9701 0.9692
1316.000000 0.9683 0.9674 0.9665 0.9656 0.9643
1321.000000 0.9628 0.9613 0.9598 0.9583 0.9568
1326.000000 0.9552 0.9534 0.9517 0.9499 0.9475
1331.000000 0.9448 0.9421 0.9396 0.9370 0.9346
1336.000000 0.9321 0.9298 0.9277 0.9263 0.9250
1341.000000 0.9237 0.9225 0.9217 0.9208 0.9199
1346.000000 0.9190 0.9178 0.9168 0.9158 0.9147
1351.000000 0.9136 0.9120 0.9103 0.9087 0.9070
1356.000000 0.9050 0.9027 0.9004 0.8981 0.8957
1361.000000 0.8928 0.8895 0.8863 0.8820 0.8774
1366.000000 0.8725 0.8675 0.8627 0.8578 0.8523
1371.000000 0.8451 0.8378 0.8266 0.8149 0.8000
1376.000000 0.7869 0.7524 0.6247 0.4970 0.4704
1381.000000 0.4741 0.5635 0.6542 0.6749 0.6741
1386.000000 0.6414 0.6162 0.6183 0.6575 0.7565
1391.000000 0.7680 0.7733 0.7776 0.7811 0.7847
1396.000000 0.7887 0.7925 0.7962 0.8001 0.8037
1401.000000 0.8065 0.8095 0.8125 0.8153 0.8182
1406.000000 0.8207 0.8224 0.8242 0.8247 0.8250
1411.000000 0.8225 0.8225 0.8225 0.8206 0.8181
1416.000000 0.8119 0.8061 0.7989 0.7901 0.7812
1421.000000 0.7724 0.7636 0.7547 0.7458 0.7371
1426.000000 0.7282 0.7194 0.7106 0.7017 0.6928
1431.000000 0.6808 0.6692 0.6574 0.6441 0.6301
1436.000000 0.6152 0.5927 0.5532 0.5292 0.4873
1441.000000 0.4454 0.4034 0.3614 0.3196 0.2883
1446.000000 0.2809 0.2808 0.2805 0.2878 0.3588
1451.000000 0.4299 0.4312 0.4366 0.4299 0.4242
1456.000000 0.4199 0.4162 0.4129 0.4100 0.4070
1461.000000 0.4041 0.3970 0.3993 0.3996 0.4032
1466.000000 0.4157 0.4281 0.4406 0.4530 0.4655
1471.000000 0.4779 0.4862 0.4927 0.4935 0.4935
1476.000000 0.4935 0.4921 0.4878 0.4519 0.4160
1481.000000 0.3800 0.3442 0.3083 0.2724 0.2365
1486.000000 0.2006 0.1646 0.1288 0.1214 0.1214
1491.000000 0.1421 0.1902 0.2382 0.2863 0.3343
1496.000000 0.3823 0.4304 0.4784 0.5265 0.5745
1501.000000 0.6333 0.6688 0.6919 0.6988 0.7054
1506.000000 0.7096 0.7138 0.7178 0.7215 0.7253
1511.000000 0.7300 0.7348 0.7440 0.7542 0.7648
1516.000000 0.7767 0.7893 0.8005 0.8046 0.8087
1521.000000 0.8122 0.8153 0.8183 0.8206 0.8225
1526.000000 0.8247 0.8267 0.8284 0.8302 0.8324
1531.000000 0.8348 0.8373 0.8400 0.8428 0.8456
1536.000000 0.8486 0.8516 0.8550 0.8585 0.8618
1541.000000 0.8643 0.8667 0.8685 0.8695 0.8697
1546.000000 0.8697 0.8689 0.8682 0.8668 0.8651
1551.000000 0.8623 0.8593 0.8563 0.8533 0.8501
1556.000000 0.8466 0.8434 0.8405 0.8402 0.8407
1561.000000 0.8421 0.8434 0.8444 0.8438 0.8425
1566.000000 0.8410 0.8391 0.8366 0.8337 0.8306
1571.000000 0.8263 0.8126 0.7971 0.7818 0.7664
1576.000000 0.7508 0.7355 0.7200 0.7103 0.7034
1581.000000 0.6986 0.7004 0.7033 0.7071 0.7111
1586.000000 0.7153 0.7199 0.7249 0.7319 0.7406
1591.000000 0.7521 0.7861 0.8108 0.8275 0.8368
1596.000000 0.8410 0.8450 0.8471 0.8494 0.8498
1601.000000 0.8501 0.8503 0.8482 0.8465 0.8447
1606.000000 0.8404 0.8353 0.8235 0.8114 0.7912
1611.000000 0.7626 0.7340 0.7051 0.6764 0.6476
1616.000000 0.6189 0.5901 0.5614 0.5370 0.5392
1621.000000 0.5954 0.6599 0.7243 0.8057 0.8430
1626.000000 0.8662 0.8858 0.9028 0.9094 0.9150
1631.000000 0.9205 0.9248 0.9281 0.9314 0.9347
1636.000000 0.9366 0.9383 0.9401 0.9418 0.9436
1641.000000 0.9450 0.9459 0.9468 0.9477 0.9486
1646.000000 0.9495 0.9503 0.9509 0.9515 0.9521
1651.000000 0.9528 0.9534 0.9540 0.9547 0.9553
1656.000000 0.9559 0.9564 0.9568 0.9575 0.9580
1661.000000 0.9585 0.9591 0.9596 0.9601 0.9606
1666.000000 0.9609 0.9612 0.9615 0.9618 0.9621
1671.000000 0.9624 0.9625 0.9656 0.9628 0.9630
1676.000000 0.9632 0.9634 0.9634 0.9634 0.9632
1681.000000 0.9630 0.9628 0.9627 0.9625 0.9623
1686.000000 0.9621 0.9618 0.9613 0.9607 0.9602
1691.000000 0.9597 0.9591 0.9586 0.9581 0.9575
1696.000000 0.9568 0.9563 0.9556 0.9550 0.9543
1701.000000 0.9537 0.9530 0.9524 0.9513 0.9499
1706.000000 0.9486 0.9473 0.9459 0.9445 0.9425
1711.000000 0.9405 0.9385 0.9365 0.9339 0.9310
1716.000000 0.9280 0.9251 0.9221 0.9186 0.9138
1721.000000 0.9089 0.9041 0.8985 0.8924 0.8863
1726.000000 0.8785 0.8758 0.8747 0.8725 0.8730
1731.000000 0.8733 0.8760 0.8804 0.8881 0.8991
1736.000000 0.9052 0.9142 0.9167 0.9192 0.9217
1741.000000 0.9249 0.9278 0.9295 0.9310 0.9321
1746.000000 0.9330 0.9339 0.9348 0.9350 0.9353
1751.000000 0.9356 0.9358 0.9358 0.9358 0.9357
1756.000000 0.9355 0.9353 0.9349 0.9344 0.9340
1761.000000 0.9336 0.9336 0.9337 0.9354 0.9388
1766.000000 0.9424 0.9461 0.9499 0.9539 0.9580
1771.000000 0.9607 0.9628 0.9651 0.9673 0.9692
1776.000000 0.9710 0.9715 0.9718 0.9724 0.9724
1781.000000 0.9724 0.9724 0.9725 0.9725 0.9727
1786.000000 0.9727 0.9732 0.9736 0.9736 0.9738
1791.000000 0.9740 0.9745 0.9749 0.9751 0.9752
1796.000000 0.9754 0.9755 0.9757 0.9759 0.9760
1801.000000 0.9762 0.9763 0.9765 0.9766 0.9767
1806.000000 0.9768 0.9770 0.9771 0.9775 0.9778
1811.000000 0.9782 0.9785 0.9788 0.9792 0.9795
1816.000000 0.9798 0.9801 0.9805 0.9808 0.9811
1821.000000 0.9814 0.9815 0.9816 0.9817 0.9818
1826.000000 0.9818 0.9818 0.9839 0.9821 0.9821
1831.000000 0.9823 0.9825 0.9825 0.9827 0.9828
1836.000000 0.9828 0.9830 0.9832 0.9832 0.9833
1841.000000 0.9834 0.9835 0.9835 0.9836 0.9836
1846.000000 0.9835 0.9835 0.9834 0.9834 0.9833
1851.000000 0.9833 0.9832 0.9832 0.9831 0.9831
1856.000000 0.9830 0.9828 0.9828 0.9828 0.9827
1861.000000 0.9827 0.9825 0.9825 0.9825 0.9824
1866.000000 0.9824 0.9823 0.9821 0.9820 0.9812
1871.000000 0.9804 0.9795 0.9777 0.9759 0.9741
1876.000000 0.9723 0.9702 0.9680 0.9657 0.9635
1881.000000 0.9613 0.9594 0.9574 0.9557 0.9544
1886.000000 0.9548 0.9556 0.9566 0.9528 0.9588
1891.000000 0.9602 0.9616 0.9628 0.9639 0.9650
1896.000000 0.9661 0.9671 0.9683 0.9695 0.9707
1901.000000 0.9718 0.9731 0.9743 0.9755 0.9762
1906.000000 0.9761 0.9759 0.9757 0.9756 0.9754
1911.000000 0.9752 0.9749 0.9745 0.9741 0.9737
1916.000000 0.9734 0.9732 0.9730 0.9728 0.9728
1921.000000 0.9730 0.9732 0.9734 0.9737 0.9747
1926.000000 0.9757 0.9768 0.9781 0.9794 0.9808
1931.000000 0.9821 0.9832 0.9842 0.9848 0.9848
1936.000000 0.9848 0.9847 0.9844 0.9841 0.9838
1941.000000 0.9844 0.9825 0.9818 0.9812 0.9805
1946.000000 0.9800 0.9795 0.9790 0.9786 0.9781
1951.000000 0.9778 0.9778 0.9778 0.9778 0.9783
1956.000000 0.9788 0.9798 0.9835 0.9918 0.9975
1961.000000 0.9980 0.9978 0.9978 0.9964 0.9944
1966.000000 0.9925 0.9909 0.9895 0.9884 0.9878
1971.000000 0.9878 0.9877 0.9874 0.9871 0.9868
1976.000000 0.9868 0.9868 0.9868 0.9868 0.9870
1981.000000 0.9871 0.9875 0.9877 0.9878 0.9881
1986.000000 0.9883 0.9886 0.9887 0.9888 0.9890
1991.000000 0.9892 0.9894 0.9934 0.9995 1.0055
1996.000000 1.0116 1.0175 1.0237 1.0297 1.0358
2001.000000 1.0418 1.0478 1.0491 1.0503 1.0498
2006.000000 1.0494 1.0492 1.0490 1.0488 1.0487
2011.000000 1.0485 1.0484 1.0484 1.0485 1.0486
2016.000000 1.0487 1.0487 1.0488 1.0489 1.0490
2021.000000 1.0490 1.0491 1.0491 1.0492 1.0492
2026.000000 1.0493 1.0493 1.0494 1.0494 1.0495
2031.000000 1.0496 1.0497 1.0497 1.0497 1.0497
2036.000000 1.0497 1.0497 1.0497 1.0497 1.0497
2041.000000 1.0497 1.0497 1.0497 1.0497 1.0497
2046.000000 1.0497 1.0497 1.0497 1.0496 1.0496
2051.000000 1.0496 1.0496 1.0495 1.0495 1.0495
2056.000000 1.0495 1.0494 1.0494 1.0494 1.0494
2061.000000 1.0493 1.0493 1.0493 1.0493 1.0492
2066.000000 1.0492 1.0491 1.0491 1.0491 1.0491
2071.000000 1.0490 1.0490 1.0489 1.0489 1.0488
2076.000000 1.0488 1.0487 1.0486 1.0485 1.0485
2081.000000 1.0484 1.0484 1.0483 1.0482 1.0481
2086.000000 1.0480 1.0478 1.0478 1.0478 1.0477
2091.000000 1.0475 1.0475 1.0473 1.0471 1.0467
2096.000000 1.0463 1.0459 1.0455 1.0451 1.0447
2101.000000 1.0441 1.0436 1.0425 1.0416 1.0408
2106.000000 1.0400 1.0395 1.0390 1.0389 1.0388
2111.000000 1.0388 1.0389 1.0391 1.0371 1.0395
2116.000000 1.0398 1.0404 1.0410 1.0421 1.0434
2121.000000 1.0449 1.0464 1.0465 1.0466 1.0467
2126.000000 1.0468 1.0470 1.0471 1.0470 1.0470
2131.000000 1.0468 1.0467 1.0464 1.0462 1.0460
2136.000000 1.0458 1.0456 1.0454 1.0452 1.0451
2141.000000 1.0449 1.0448 1.0445 1.0443 1.0441
2146.000000 1.0439 1.0437 1.0435 1.0432 1.0430
2151.000000 1.0428 1.0425 1.0424 1.0421 1.0420
2156.000000 1.0418 1.0416 1.0415 1.0413 1.0411
2161.000000 1.0409 1.0407 1.0405 1.0404 1.0402
2166.000000 1.0400 1.0398 1.0397 1.0395 1.0394
2171.000000 1.0392 1.0391 1.0390 1.0389 1.0388
2176.000000 1.0387 1.0386 1.0385 1.0384 1.0384
2181.000000 1.0383 1.0382 1.0381 1.0380 1.0378
2186.000000 1.0378 1.0375 1.0375 1.0373 1.0371
2191.000000 1.0371 1.0370 1.0368 1.0367 1.0366
2196.000000 1.0365 1.0363 1.0362 1.0360 1.0359
2201.000000 1.0358 1.0357 1.0356 1.0355 1.0353
2206.000000 1.0352 1.0351 1.0350 1.0348 1.0347
2211.000000 1.0346 1.0345 1.0344 1.0343 1.0341
2216.000000 1.0340 1.0339 1.0338 1.0336 1.0335
2221.000000 1.0334 1.0333 1.0331 1.0330 1.0328
2226.000000 1.0327 1.0325 1.0325 1.0323 1.0321
2231.000000 1.0320 1.0318 1.0317 1.0316 1.0314
2236.000000 1.0313 1.0310 1.0308 1.0305 1.0303
2241.000000 1.0300 1.0298 1.0295 1.0293 1.0290
2246.000000 1.0287 1.0283 1.0280 1.0275 1.0273
2251.000000 1.0268 1.0266 1.0263 1.0260 1.0256
2256.000000 1.0253 1.0249 1.0246 1.0242 1.0238
2261.000000 1.0235 1.0232 1.0228 1.0225 1.0223
2266.000000 1.0220 1.0217 1.0214 1.0212 1.0211
2271.000000 1.0210 1.0210 1.0209 1.0208 1.0207
2276.000000 1.0206 1.0206 1.0206 1.0206 1.0207
2281.000000 1.0207 1.0208 1.0208 1.0209 1.0209
2286.000000 1.0210 1.0210 1.0210 1.0210 1.0210
2291.000000 1.0210 1.0210 1.0210 1.0210 1.0210
2296.000000 1.0210 1.0210 1.0210 1.0210 1.0210
2301.000000 1.0210 1.0210 1.0210 1.0211 1.0211
2306.000000 1.0211 1.0211 1.0211 1.0211 1.0211
2311.000000 1.0211 1.0211 1.0211 1.0211 1.0211
2316.000000 1.0211 1.0211 1.0211 1.0211 1.0212
2321.000000 1.0213 1.0215 1.0216 1.0217 1.0218
2326.000000 1.0218 1.0220 1.0221 1.0221 1.0223
2331.000000 1.0224 1.0225 1.0227 1.0228 1.0228
2336.000000 1.0231 1.0233 1.0235 1.0236 1.0238
2341.000000 1.0240 1.0242 1.0244 1.0246 1.0247
2346.000000 1.0249 1.0250 1.0251 1.0252 1.0253
2351.000000 1.0253 1.0254 1.0255 1.0256 1.0257
2356.000000 1.0257 1.0257 1.0256 1.0254 1.0252
2361.000000 1.0249 1.0247 1.0245 1.0243 1.0239
2366.000000 1.0236 1.0231 1.0225 1.0221 1.0216
2371.000000 1.0210 1.0205 1.0197 1.0190 1.0182
2376.000000 1.0174 1.0166 1.0159 1.0151 1.0143
2381.000000 1.0135 1.0128 1.0120 1.0112 1.0104
2386.000000 1.0097 1.0089 1.0081 1.0075 1.0068
2391.000000 1.0064 1.0059 1.0054 1.0050 1.0045
2396.000000 1.0041 1.0039 1.0037 1.0037 1.0037
2401.000000 1.0037 1.0037 1.0036 1.0036 1.0035
2406.000000 1.0035 1.0034 1.0034 1.0033 1.0032
2411.000000 1.0028 1.0027 1.0025 1.0023 1.0021
2416.000000 1.0018 1.0017 1.0015 1.0014 1.0014
2421.000000 1.0017 1.0020 1.0023 1.0025 1.0028
2426.000000 1.0032 1.0037 1.0042 1.0047 1.0052
2431.000000 1.0057 1.0063 1.0067 1.0071 1.0075
2436.000000 1.0081 1.0085 1.0090 1.0091 1.0091
2441.000000 1.0091 1.0091 1.0087 1.0084 1.0081
2446.000000 1.0078 1.0074 1.0071 1.0067 1.0064
2451.000000 1.0056 1.0049 1.0041 1.0034 1.0025
2456.000000 1.0018 1.0013 1.0008 1.0002 0.9997
2461.000000 0.9991 0.9986 0.9982 0.9978 0.9975
2466.000000 0.9974 0.9971 0.9971 0.9971 0.9973
2471.000000 0.9974 0.9975 0.9978 0.9980 0.9982
2476.000000 0.9984 0.9987 0.9990 0.9994 0.9999
2481.000000 1.0003 1.0007 1.0012 1.0017 1.0021
2486.000000 1.0027 1.0032 1.0037 1.0042 1.0048
2491.000000 1.0050 1.0053 1.0055 1.0057 1.0059
2496.000000 1.0059 1.0059 1.0059 1.0058 1.0057
2501.000000 1.0056 1.0055 1.0053 1.0052 1.0051
2506.000000 1.0050 1.0048 1.0046 1.0044 1.0042
2511.000000 1.0040 1.0038 1.0035 1.0033 1.0031
2516.000000 1.0028 1.0027 1.0025 1.0024 1.0023
2521.000000 1.0021 1.0020 1.0018 1.0017 1.0020
2526.000000 1.0023 1.0028 1.0034 1.0039 1.0045
2531.000000 1.0053 1.0061 1.0070 1.0078 1.0088
2536.000000 1.0098 1.0106 1.0114 1.0118 1.0121
2541.000000 1.0125 1.0130 1.0130 1.0131 1.0131
2546.000000 1.0132 1.0133 1.0134 1.0134 1.0135
2551.000000 1.0135 1.0136 1.0136 1.0137 1.0137
2556.000000 1.0138 1.0138 1.0139 1.0139 1.0139
2561.000000 1.0139 1.0139 1.0139 1.0139 1.0139
2566.000000 1.0139 1.0139 1.0139 1.0138 1.0137
2571.000000 1.0136 1.0135 1.0134 1.0133 1.0131
2576.000000 1.0128 1.0121 1.0116 1.0109 1.0103
2581.000000 1.0095 1.0087 1.0074 1.0062 1.0057
2586.000000 1.0052 1.0050 1.0049 1.0049 1.0050
2591.000000 1.0051 1.0053 1.0054 1.0055 1.0056
2596.000000 1.0058 1.0059 1.0061 1.0063 1.0066
2601.000000 1.0068 1.0070 1.0070 1.0071 1.0071
2606.000000 1.0071 1.0071 1.0073 1.0073 1.0074
2611.000000 1.0074 1.0074 1.0074 1.0074 1.0073
2616.000000 1.0073 1.0073 1.0073 1.0071 1.0071
2621.000000 1.0071 1.0071 1.0071 1.0071 1.0071
2626.000000 1.0071 1.0071 1.0073 1.0073 1.0074
2631.000000 1.0074 1.0074 1.0074 1.0074 1.0073
2636.000000 1.0071 1.0071 1.0070 1.0068 1.0067
2641.000000 1.0066 1.0065 1.0064 1.0063 1.0062
2646.000000 1.0061 1.0060 1.0059 1.0058 1.0057
2651.000000 1.0055 1.0054 1.0053 1.0052 1.0050
2656.000000 1.0049 1.0048 1.0047 1.0045 1.0044
2661.000000 1.0040 1.0037 1.0033 1.0028 1.0024
2666.000000 1.0020 1.0015 1.0011 1.0007 1.0003
2671.000000 0.9995 0.9987 0.9978 0.9971 0.9964
2676.000000 0.9956 0.9955 0.9955 0.9956 0.9957
2681.000000 0.9962 0.9968 0.9973 0.9978 0.9983
2686.000000 0.9989 0.9994 1.0000 1.0005 1.0011
2691.000000 1.0018 1.0025 1.0031 1.0037 1.0037
2696.000000 1.0037 1.0037 1.0037 1.0037 1.0037
2701.000000 1.0037 1.0037 1.0037 1.0037 1.0036
2706.000000 1.0035 1.0032 1.0030 1.0027 1.0025
2711.000000 1.0016 1.0008 0.9999 0.9991 0.9975
2716.000000 0.9960 0.9941 0.9923 0.9900 0.9877
2721.000000 0.9847 0.9817 0.9783 0.9750 0.9707
2726.000000 0.9664 0.9595 0.9527 0.9328 0.9132
2731.000000 0.8935 0.8738 0.8540 0.8343 0.8223
2736.000000 0.8097 0.8099 0.8094 0.8221 0.8349
2741.000000 0.8760 0.9171 0.9356 0.9540 0.9580
2746.000000 0.9620 0.9640 0.9660 0.9668 0.9675
2751.000000 0.9683 0.9691 0.9692 0.9693 0.9694
2756.000000 0.9695 0.9692 0.9690 0.9684 0.9678
2761.000000 0.9668 0.9661 0.9637 0.9613 0.9598
2766.000000 0.9583 0.9587 0.9591 0.9596 0.9601
2771.000000 0.9606 0.9612 0.9618 0.9624 0.9630
2776.000000 0.9636 0.9639 0.9643 0.9644 0.9645
2781.000000 0.9646 0.9647 0.9647 0.9647 0.9647
2786.000000 0.9647 0.9645 0.9644 0.9642 0.9641
2791.000000 0.9636 0.9632 0.9623 0.9615 0.9604
2796.000000 0.9593 0.9581 0.9570 0.9556 0.9543
2801.000000 0.9524 0.9506 0.9487 0.9468 0.9451
2806.000000 0.9433 0.9414 0.9395 0.9375 0.9357
2811.000000 0.9338 0.9318 0.9296 0.9273 0.9240
2816.000000 0.9208 0.9175 0.9144 0.9107 0.9070
2821.000000 0.9028 0.8989 0.8949 0.8909 0.8871
2826.000000 0.8835 0.8798 0.8761 0.8724 0.8688
2831.000000 0.8650 0.8613 0.8570 0.8527 0.8484
2836.000000 0.8441 0.8398 0.8355 0.8295 0.8236
2841.000000 0.8174 0.8111 0.8051 0.7993 0.7935
2846.000000 0.7876 0.7818 0.7760 0.7695 0.7631
2851.000000 0.7562 0.7495 0.6471 0.5448 0.5125
2856.000000 0.4802 0.4478 0.4155 0.3832 0.3509
2861.000000 0.3312 0.3116 0.3060 0.3005 0.2988
2866.000000 0.2997 0.2972 0.2972 0.3000 0.3029
2871.000000 0.3180 0.3330 0.3434 0.3540 0.3644
2876.000000 0.3749 0.3853 0.3958 0.4062 0.4166
2881.000000 0.4255 0.4344 0.4347 0.4331 0.4351
2886.000000 0.4352 0.4352 0.4352 0.4344 0.4337
2891.000000 0.4253 0.4169 0.4054 0.3939 0.3824
2896.000000 0.3709 0.3594 0.3479 0.3364 0.3249
2901.000000 0.3134 0.3019 0.2894 0.2769 0.2649
2906.000000 0.2530 0.2411 0.2292 0.2172 0.2053
2911.000000 0.1934 0.1815 0.1725 0.1635 0.1549
2916.000000 0.1462 0.1399 0.1336 0.1298 0.1260
2921.000000 0.1248 0.1236 0.1227 0.1207 0.1207
2926.000000 0.1207 0.1251 0.1295 0.1356 0.1418
2931.000000 0.1479 0.1541 0.1602 0.1741 0.1684
2936.000000 0.1704 0.1701 0.1699 0.1690 0.1682
2941.000000 0.1663 0.1644 0.1623 0.1602 0.1592
2946.000000 0.1585 0.1596 0.1546 0.1701 0.1795
2951.000000 0.1890 0.1984 0.2079 0.2174 0.2277
2956.000000 0.2381 0.2510 0.2639 0.2704 0.2770
2961.000000 0.2797 0.2824 0.2827 0.2865 0.2790
2966.000000 0.2750 0.2698 0.2646 0.2594 0.2542
2971.000000 0.2489 0.2437 0.2384 0.2333 0.2281
2976.000000 0.2229 0.2220 0.2194 0.2242 0.2273
2981.000000 0.2435 0.2600 0.2834 0.3071 0.3307
2986.000000 0.3544 0.3602 0.3660 0.3668 0.3677
2991.000000 0.3678 0.3678 0.3678 0.3676 0.3657
2996.000000 0.3639 0.3605 0.3571 0.3537 0.3504
3001.000000 0.3470 0.3437 0.3403 0.3368 0.3339
3006.000000 0.3309 0.3310 0.3276 0.3316 0.3322
3011.000000 0.3384 0.3448 0.3527 0.3606 0.3690
3016.000000 0.3775 0.3859 0.3943 0.4027 0.4112
3021.000000 0.4196 0.4281 0.4392 0.4504 0.4619
3026.000000 0.4735 0.4830 0.4925 0.4994 0.5062
3031.000000 0.5107 0.5151 0.5192 0.5234 0.5282
3036.000000 0.5331 0.5408 0.5486 0.5571 0.5657
3041.000000 0.5771 0.5886 0.5990 0.6095 0.6277
3046.000000 0.6460 0.6657 0.6854 0.6955 0.7057
3051.000000 0.7136 0.7215 0.7315 0.7414 0.7548
3056.000000 0.7682 0.7749 0.7815 0.7884 0.7953
3061.000000 0.8022 0.8093 0.8132 0.8171 0.8210
3066.000000 0.8249 0.8288 0.8327 0.8366 0.8406
3071.000000 0.8444 0.8483 0.8515 0.8548 0.8580
3076.000000 0.8612 0.8637 0.8663 0.8687 0.8711
3081.000000 0.8735 0.8759 0.8786 0.8814 0.8843
3086.000000 0.8871 0.8899 0.8927 0.8944 0.8961
3091.000000 0.8978 0.8996 0.9013 0.9030 0.9047
3096.000000 0.9065 0.9082 0.9100 0.9117 0.9134
3101.000000 0.9149 0.9165 0.9180 0.9196 0.9211
3106.000000 0.9225 0.9244 0.9262 0.9278 0.9294
3111.000000 0.9305 0.9316 0.9325 0.9337 0.9348
3116.000000 0.9359 0.9370 0.9382 0.9393 0.9405
3121.000000 0.9417 0.9428 0.9441 0.9453 0.9464
3126.000000 0.9475 0.9487 0.9499 0.9506 0.9514
3131.000000 0.9520 0.9525 0.9532 0.9539 0.9545
3136.000000 0.9551 0.9557 0.9564 0.9570 0.9575
3141.000000 0.9582 0.9588 0.9593 0.9599 0.9605
3146.000000 0.9611 0.9616 0.9621 0.9625 0.9628
3151.000000 0.9631 0.9634 0.9637 0.9640 0.9642
3156.000000 0.9645 0.9647 0.9650 0.9652 0.9654
3161.000000 0.9659 0.9665 0.9671 0.9677 0.9681
3166.000000 0.9686 0.9690 0.9695 0.9698 0.9702
3171.000000 0.9705 0.9709 0.9712 0.9716 0.9718
3176.000000 0.9723 0.9725 0.9728 0.9733 0.9738
3181.000000 0.9743 0.9749 0.9753 0.9758 0.9761
3186.000000 0.9765 0.9768 0.9771 0.9774 0.9778
3191.000000 0.9781 0.9784 0.9787 0.9791 0.9793
3196.000000 0.9796 0.9798 0.9801 0.9803 0.9805
3201.000000 0.9807 0.9809 0.9811 0.9814 0.9815
3206.000000 0.9817 0.9818 0.9820 0.9821 0.9824
3211.000000 0.9825 0.9827 0.9828 0.9830 0.9831
3216.000000 0.9833 0.9834 0.9836 0.9836 0.9837
3221.000000 0.9837 0.9838 0.9838 0.9839 0.9839
3226.000000 0.9840 0.9840 0.9841 0.9841 0.9842
3231.000000 0.9842 0.9843 0.9843 0.9844 0.9844
3236.000000 0.9845 0.9845 0.9846 0.9846 0.9847
3241.000000 0.9847 0.9848 0.9848 0.9848 0.9848
3246.000000 0.9849 0.9849 0.9850 0.9850 0.9851
3251.000000 0.9851 0.9852 0.9852 0.9853 0.9853
3256.000000 0.9854 0.9855 0.9857 0.9858 0.9859
3261.000000 0.9860 0.9862 0.9863 0.9864 0.9865
3266.000000 0.9867 0.9868 0.9868 0.9870 0.9871
3271.000000 0.9874 0.9877 0.9878 0.9882 0.9884
3276.000000 0.9887 0.9889 0.9892 0.9894 0.9897
3281.000000 0.9899 0.9902 0.9904 0.9907 0.9909
3286.000000 0.9911 0.9912 0.9914 0.9915 0.9917
3291.000000 0.9918 0.9920 0.9921 0.9923 0.9924
3296.000000 0.9925 0.9927 0.9928 0.9930 0.9932
3301.000000 0.9933 0.9934 0.9935 0.9936 0.9937
3306.000000 0.9939 0.9940 0.9941 0.9942 0.9943
3311.000000 0.9944 0.9946 0.9947 0.9949 0.9950
3316.000000 0.9951 0.9952 0.9954 0.9955 0.9957
3321.000000 0.9958 0.9960 0.9961 0.9962 0.9963
3326.000000 0.9964 0.9965 0.9966 0.9967 0.9968
3331.000000 0.9968 0.9971 0.9971 0.9973 0.9974
3336.000000 0.9975 0.9975 0.9977 0.9977 0.9977
3341.000000 0.9977 0.9978 0.9978 0.9978 0.9978
3346.000000 0.9978 0.9978 0.9978 0.9978 0.9978
3351.000000 0.9977 0.9977 0.9977 0.9977 0.9977
3356.000000 0.9977 0.9975 0.9975 0.9975 0.9975
3361.000000 0.9975 0.9975 0.9975 0.9975 0.9974
3366.000000 0.9973 0.9971 0.9971 0.9970 0.9970
3371.000000 0.9968 0.9968 0.9967 0.9966 0.9965
3376.000000 0.9964 0.9963 0.9962 0.9961 0.9960
3381.000000 0.9959 0.9959 0.9958 0.9957 0.9956
3386.000000 0.9955 0.9954 0.9954 0.9953 0.9952
3391.000000 0.9951 0.9950 0.9949 0.9949 0.9948
3396.000000 0.9947 0.9946 0.9946 0.9945 0.9945
3401.000000 0.9945 0.9945 0.9944 0.9944 0.9943
3406.000000 0.9943 0.9943 0.9943 0.9942 0.9942
3411.000000 0.9941 0.9941 0.9941 0.9941 0.9940
3416.000000 0.9940 0.9939 0.9939 0.9939 0.9939
3421.000000 0.9938 0.9938 0.9938 0.9938 0.9937
3426.000000 0.9937 0.9936 0.9936 0.9936 0.9936
3431.000000 0.9935 0.9935 0.9934 0.9934 0.9934
3436.000000 0.9934 0.9933 0.9933 0.9933 0.9933
3441.000000 0.9932 0.9932 0.9931 0.9931 0.9930
3446.000000 0.9930 0.9928 0.9928 0.9928 0.9928
3451.000000 0.9927 0.9927 0.9925 0.9925 0.9925
3456.000000 0.9925 0.9924 0.9924 0.9923 0.9923
3461.000000 0.9921 0.9921 0.9921 0.9921 0.9920
3466.000000 0.9918 0.9918 0.9918 0.9917 0.9917
3471.000000 0.9916 0.9916 0.9915 0.9915 0.9914
3476.000000 0.9914 0.9913 0.9913 0.9913 0.9913
3481.000000 0.9912 0.9912 0.9912 0.9912 0.9911
3486.000000 0.9911 0.9911 0.9911 0.9911 0.9911
3491.000000 0.9910 0.9910 0.9910 0.9910 0.9910
3496.000000 0.9910 0.9910 0.9910 0.9910 0.9910
3501.000000 0.9910 0.9911 0.9911 0.9911 0.9911
3506.000000 0.9912 0.9912 0.9912 0.9912 0.9913
3511.000000 0.9913 0.9913 0.9913 0.9914 0.9914
3516.000000 0.9914 0.9914 0.9914 0.9914 0.9915
3521.000000 0.9915 0.9916 0.9916 0.9916 0.9916
3526.000000 0.9917 0.9917 0.9917 0.9917 0.9918
3531.000000 0.9918 0.9918 0.9918 0.9918 0.9918
3536.000000 0.9918 0.9918 0.9918 0.9918 0.9918
3541.000000 0.9917 0.9917 0.9916 0.9916 0.9915
3546.000000 0.9915 0.9914 0.9914 0.9913 0.9913
3551.000000 0.9913 0.9913 0.9913 0.9914 0.9914
3556.000000 0.9915 0.9915 0.9916 0.9916 0.9917
3561.000000 0.9918 0.9918 0.9918 0.9920 0.9920
3566.000000 0.9921 0.9921 0.9921 0.9921 0.9921
3571.000000 0.9921 0.9921 0.9921 0.9921 0.9921
3576.000000 0.9921 0.9923 0.9924 0.9925 0.9925
3581.000000 0.9934 0.9942 0.9949 0.9957 0.9959
3586.000000 0.9960 0.9959 0.9959 0.9958 0.9957
3591.000000 0.9955 0.9954 0.9953 0.9952 0.9951
3596.000000 0.9951 0.9951 0.9951 0.9951 0.9951
3601.000000 0.9951 0.9951 0.9951 0.9952 0.9952
3606.000000 0.9952 0.9952 0.9952 0.9952 0.9952
3611.000000 0.9952 0.9952 0.9953 0.9954 0.9954
3616.000000 0.9955 0.9955 0.9955 0.9955 0.9955
3621.000000 0.9954 0.9954 0.9953 0.9953 0.9951
3626.000000 0.9949 0.9946 0.9944 0.9941 0.9938
3631.000000 0.9935 0.9933 0.9930 0.9928 0.9925
3636.000000 0.9924 0.9921 0.9920 0.9918 0.9917
3641.000000 0.9915 0.9913 0.9913 0.9913 0.9914
3646.000000 0.9916 0.9917 0.9918 0.9918 0.9921
3651.000000 0.9921 0.9921 0.9923 0.9924 0.9924
3656.000000 0.9924 0.9923 0.9921 0.9921 0.9920
3661.000000 0.9918 0.9917 0.9916 0.9915 0.9913
3666.000000 0.9912 0.9911 0.9910 0.9909 0.9908
3671.000000 0.9907 0.9906 0.9905 0.9904 0.9903
3676.000000 0.9902 0.9901 0.9900 0.9899 0.9898
3681.000000 0.9897 0.9896 0.9894 0.9893 0.9892
3686.000000 0.9891 0.9889 0.9888 0.9886 0.9885
3691.000000 0.9883 0.9882 0.9881 0.9880 0.9878
3696.000000 0.9878 0.9878 0.9880 0.9881 0.9883
3701.000000 0.9884 0.9886 0.9887 0.9889 0.9890
3706.000000 0.9892 0.9893 0.9894 0.9895 0.9897
3711.000000 0.9898 0.9899 0.9900 0.9901 0.9902
3716.000000 0.9903 0.9904 0.9905 0.9907 0.9909
3721.000000 0.9911 0.9914 0.9916 0.9918 0.9921
3726.000000 0.9924 0.9927 0.9931 0.9935 0.9939
3731.000000 0.9943 0.9947 0.9951 0.9955 0.9958
3736.000000 0.9961 0.9961 0.9961 0.9961 0.9961
3741.000000 0.9961 0.9960 0.9957 0.9955 0.9952
3746.000000 0.9950 0.9946 0.9942 0.9938 0.9934
3751.000000 0.9930 0.9925 0.9921 0.9918 0.9915
3756.000000 0.9911 0.9907 0.9903 0.9899 0.9896
3761.000000 0.9895 0.9895 0.9894 0.9894 0.9893
3766.000000 0.9893 0.9893 0.9895 0.9896 0.9898
3771.000000 0.9899 0.9899 0.9899 0.9897 0.9895
3776.000000 0.9893 0.9892 0.9891 0.9890 0.9889
3781.000000 0.9889 0.9890 0.9891 0.9892 0.9893
3786.000000 0.9894 0.9895 0.9896 0.9897 0.9898
3791.000000 0.9899 0.9900 0.9901 0.9902 0.9903
3796.000000 0.9904 0.9905 0.9906 0.9906 0.9906
##END=
