##TITLE=CINNAMIC ACID, 4-HYDROXY-3,5-DIMETHOXY-
##JCAMP-DX=4.24
$$ By DXEDIT 1.05 (RS McDonald)
##DATA TYPE=INFRARED SPECTRUM
##CLASS=COBLENTZ III
##ORIGIN=WESTERN REGIONAL RES. USDA
##OWNER=COBLENTZ SOC.
Collection (C) 2018 copyright by the U.S. Secretary of Commerce
on behalf of the United States of America. All rights reserved.
##DATE=1965/10/19
##NAMES=(2E)-3-(4-hydroxy-3,5-dimethoxyphenyl)-2-propenoic acid
##CAS REGISTRY NO=530-59-6
##MOLFORM=C11 H12 O5
##SOURCE REFERENCE=COBLENTZ NO. 06104
##$NIST SOURCE=COBLENTZ
##$NIST IMAGE=cob6104
##SPECTROMETER/DATA SYSTEM=CARY 90 (GRATING)
##INSTRUMENT PARAMETERS=ORDER CHANGES: 3000, 2000, 1200 CM^-^1
##STATE=SOLID (OIL MULL)
##SAMPLING PROCEDURE=TRANSMISSION
##RESOLUTION=2
##DATA PROCESSING=DIGITIZED BY COBLENTZ SOCIETY (BATCH I) FROM HARD COPY
##XUNITS=1/CM
##YUNITS=TRANSMITTANCE
##XLABEL=Wavenumbers (cm-1)
##YLABEL=Transmittance
##XFACTOR=1
##YFACTOR=1
##DELTAX=1
##FIRSTX=4000
##LASTX=481
##FIRSTY=0.7496
##MAXX=4000
##MINX=481
##MAXY=1.0409
##MINY=0.0084
##NPOINTS=3520
##XYDATA=(X++(Y..Y))
4000.000000 0.7496 0.7497 0.7498 0.7501 0.7504
3995.000000 0.7507 0.7510 0.7512 0.7515 0.7518
3990.000000 0.7521 0.7525 0.7528 0.7531 0.7534
3985.000000 0.7537 0.7540 0.7543 0.7546 0.7549
3980.000000 0.7551 0.7555 0.7558 0.7561 0.7564
3975.000000 0.7567 0.7569 0.7572 0.7575 0.7578
3970.000000 0.7582 0.7585 0.7588 0.7591 0.7594
3965.000000 0.7597 0.7600 0.7603 0.7606 0.7608
3960.000000 0.7611 0.7615 0.7618 0.7619 0.7622
3955.000000 0.7625 0.7628 0.7631 0.7634 0.7636
3950.000000 0.7639 0.7641 0.7644 0.7646 0.7649
3945.000000 0.7651 0.7655 0.7657 0.7660 0.7661
3940.000000 0.7665 0.7668 0.7671 0.7672 0.7675
3935.000000 0.7678 0.7681 0.7683 0.7686 0.7688
3930.000000 0.7691 0.7693 0.7696 0.7698 0.7700
3925.000000 0.7701 0.7705 0.7707 0.7710 0.7711
3920.000000 0.7714 0.7715 0.7718 0.7721 0.7724
3915.000000 0.7725 0.7728 0.7731 0.7733 0.7735
3910.000000 0.7738 0.7740 0.7743 0.7745 0.7747
3905.000000 0.7749 0.7751 0.7754 0.7757 0.7758
3900.000000 0.7761 0.7762 0.7765 0.7768 0.7771
3895.000000 0.7772 0.7775 0.7776 0.7780 0.7782
3890.000000 0.7785 0.7787 0.7789 0.7791 0.7794
3885.000000 0.7796 0.7799 0.7801 0.7804 0.7806
3880.000000 0.7808 0.7810 0.7812 0.7815 0.7818
3875.000000 0.7821 0.7825 0.7828 0.7831 0.7834
3870.000000 0.7838 0.7841 0.7844 0.7847 0.7850
3865.000000 0.7853 0.7857 0.7860 0.7862 0.7865
3860.000000 0.7868 0.7871 0.7875 0.7878 0.7882
3855.000000 0.7885 0.7889 0.7892 0.7895 0.7898
3850.000000 0.7901 0.7904 0.7908 0.7911 0.7914
3845.000000 0.7917 0.7921 0.7924 0.7926 0.7930
3840.000000 0.7933 0.7936 0.7940 0.7943 0.7946
3835.000000 0.7949 0.7951 0.7954 0.7956 0.7958
3830.000000 0.7961 0.7962 0.7965 0.7968 0.7969
3825.000000 0.7971 0.7975 0.7976 0.7980 0.7982
3820.000000 0.7984 0.7986 0.7989 0.7991 0.7994
3815.000000 0.7996 0.7998 0.8000 0.8003 0.8005
3810.000000 0.8008 0.8010 0.8011 0.8014 0.8017
3805.000000 0.8018 0.8021 0.8024 0.8025 0.8028
3800.000000 0.8031 0.8033 0.8036 0.8038 0.8040
3795.000000 0.8042 0.8045 0.8047 0.8050 0.8051
3790.000000 0.8054 0.8056 0.8058 0.8061 0.8064
3785.000000 0.8065 0.8068 0.8069 0.8072 0.8075
3780.000000 0.8078 0.8080 0.8082 0.8084 0.8087
3775.000000 0.8089 0.8092 0.8094 0.8096 0.8098
3770.000000 0.8101 0.8103 0.8106 0.8108 0.8111
3765.000000 0.8112 0.8115 0.8117 0.8119 0.8121
3760.000000 0.8125 0.8126 0.8130 0.8132 0.8134
3755.000000 0.8136 0.8139 0.8141 0.8144 0.8146
3750.000000 0.8148 0.8150 0.8153 0.8155 0.8158
3745.000000 0.8160 0.8162 0.8165 0.8167 0.8168
3740.000000 0.8171 0.8174 0.8176 0.8178 0.8182
3735.000000 0.8184 0.8186 0.8188 0.8191 0.8193
3730.000000 0.8196 0.8198 0.8200 0.8202 0.8205
3725.000000 0.8207 0.8209 0.8211 0.8213 0.8215
3720.000000 0.8217 0.8218 0.8221 0.8224 0.8225
3715.000000 0.8228 0.8230 0.8232 0.8235 0.8237
3710.000000 0.8239 0.8241 0.8243 0.8245 0.8247
3705.000000 0.8249 0.8252 0.8254 0.8256 0.8258
3700.000000 0.8260 0.8262 0.8264 0.8266 0.8268
3695.000000 0.8270 0.8271 0.8273 0.8274 0.8275
3690.000000 0.8275 0.8277 0.8278 0.8278 0.8280
3685.000000 0.8281 0.8282 0.8283 0.8284 0.8285
3680.000000 0.8286 0.8287 0.8288 0.8289 0.8290
3675.000000 0.8291 0.8292 0.8293 0.8294 0.8295
3670.000000 0.8296 0.8297 0.8298 0.8299 0.8300
3665.000000 0.8301 0.8302 0.8303 0.8304 0.8304
3660.000000 0.8305 0.8306 0.8307 0.8308 0.8310
3655.000000 0.8311 0.8312 0.8313 0.8314 0.8315
3650.000000 0.8316 0.8317 0.8318 0.8318 0.8320
3645.000000 0.8321 0.8321 0.8323 0.8324 0.8325
3640.000000 0.8325 0.8327 0.8328 0.8328 0.8330
3635.000000 0.8331 0.8332 0.8333 0.8335 0.8336
3630.000000 0.8337 0.8338 0.8339 0.8340 0.8341
3625.000000 0.8342 0.8343 0.8344 0.8345 0.8345
3620.000000 0.8346 0.8346 0.8347 0.8347 0.8348
3615.000000 0.8348 0.8348 0.8348 0.8349 0.8349
3610.000000 0.8350 0.8350 0.8351 0.8351 0.8351
3605.000000 0.8351 0.8352 0.8352 0.8353 0.8353
3600.000000 0.8354 0.8354 0.8354 0.8354 0.8355
3595.000000 0.8355 0.8356 0.8356 0.8357 0.8357
3590.000000 0.8357 0.8357 0.8358 0.8358 0.8358
3585.000000 0.8358 0.8358 0.8358 0.8358 0.8358
3580.000000 0.8358 0.8357 0.8357 0.8357 0.8357
3575.000000 0.8357 0.8357 0.8357 0.8357 0.8357
3570.000000 0.8357 0.8357 0.8357 0.8357 0.8357
3565.000000 0.8357 0.8357 0.8356 0.8356 0.8355
3560.000000 0.8355 0.8354 0.8354 0.8354 0.8354
3555.000000 0.8353 0.8353 0.8352 0.8352 0.8351
3550.000000 0.8351 0.8350 0.8350 0.8349 0.8349
3545.000000 0.8348 0.8348 0.8346 0.8345 0.8344
3540.000000 0.8343 0.8342 0.8341 0.8340 0.8339
3535.000000 0.8338 0.8337 0.8336 0.8335 0.8334
3530.000000 0.8333 0.8331 0.8330 0.8327 0.8325
3525.000000 0.8323 0.8321 0.8318 0.8317 0.8314
3520.000000 0.8312 0.8310 0.8308 0.8305 0.8303
3515.000000 0.8300 0.8298 0.8295 0.8293 0.8290
3510.000000 0.8331 0.8285 0.8282 0.8278 0.8277
3505.000000 0.8271 0.8268 0.8262 0.8257 0.8251
3500.000000 0.8246 0.8238 0.8230 0.8221 0.8215
3495.000000 0.8206 0.8197 0.8188 0.8178 0.8169
3490.000000 0.8161 0.8149 0.8137 0.8121 0.8107
3485.000000 0.8093 0.8078 0.8065 0.8051 0.8038
3480.000000 0.8024 0.8005 0.7986 0.7965 0.7945
3475.000000 0.7924 0.7904 0.7883 0.7861 0.7838
3470.000000 0.7815 0.7791 0.7767 0.7745 0.7722
3465.000000 0.7701 0.7680 0.7657 0.7635 0.7611
3460.000000 0.7587 0.7562 0.7539 0.7515 0.7492
3455.000000 0.7468 0.7447 0.7424 0.7401 0.7378
3450.000000 0.7357 0.7324 0.7291 0.7255 0.7218
3445.000000 0.7183 0.7147 0.7108 0.7069 0.7012
3440.000000 0.6956 0.6899 0.6843 0.6780 0.6717
3435.000000 0.6641 0.6565 0.6491 0.6415 0.6338
3430.000000 0.6260 0.6182 0.6103 0.6017 0.5931
3425.000000 0.5833 0.5735 0.5668 0.5601 0.5547
3420.000000 0.5493 0.5442 0.5391 0.5354 0.5317
3415.000000 0.5279 0.5242 0.5204 0.5167 0.5123
3410.000000 0.5079 0.5028 0.4978 0.4917 0.4857
3405.000000 0.4764 0.4671 0.4556 0.4441 0.4318
3400.000000 0.4196 0.4099 0.4003 0.3859 0.3718
3395.000000 0.3616 0.3516 0.3442 0.3368 0.3293
3390.000000 0.3218 0.3145 0.3071 0.2996 0.2922
3385.000000 0.2902 0.2882 0.2880 0.2878 0.2915
3380.000000 0.2915 0.3010 0.3068 0.3125 0.3183
3375.000000 0.3240 0.3298 0.3355 0.3412 0.3471
3370.000000 0.3529 0.3586 0.3644 0.3700 0.3759
3365.000000 0.3816 0.3875 0.3932 0.3990 0.4047
3360.000000 0.4105 0.4117 0.4130 0.4130 0.4130
3355.000000 0.4118 0.4107 0.4095 0.4084 0.4066
3350.000000 0.4049 0.4025 0.4000 0.3937 0.3874
3345.000000 0.3818 0.3762 0.3716 0.3670 0.3632
3340.000000 0.3595 0.3557 0.3520 0.3480 0.3443
3335.000000 0.3405 0.3366 0.3329 0.3291 0.3250
3330.000000 0.3209 0.3166 0.3123 0.3080 0.3038
3325.000000 0.2997 0.2956 0.2931 0.2907 0.2888
3320.000000 0.2869 0.2863 0.2858 0.2856 0.2854
3315.000000 0.2852 0.2858 0.2849 0.2849 0.2849
3310.000000 0.2850 0.2860 0.2870 0.2883 0.2897
3305.000000 0.2971 0.3045 0.3117 0.3189 0.3360
3300.000000 0.3534 0.3584 0.3634 0.3684 0.3734
3295.000000 0.3784 0.3834 0.3884 0.3934 0.3973
3290.000000 0.4010 0.4049 0.4088 0.4126 0.4164
3285.000000 0.4202 0.4241 0.4279 0.4317 0.4352
3280.000000 0.4387 0.4416 0.4445 0.4474 0.4503
3275.000000 0.4532 0.4560 0.4590 0.4619 0.4648
3270.000000 0.4677 0.4706 0.4735 0.4762 0.4790
3265.000000 0.4812 0.4837 0.4860 0.4885 0.4909
3260.000000 0.4933 0.4957 0.4981 0.5004 0.5028
3255.000000 0.5052 0.5076 0.5091 0.5106 0.5121
3250.000000 0.5136 0.5150 0.5165 0.5180 0.5195
3245.000000 0.5210 0.5225 0.5239 0.5254 0.5266
3240.000000 0.5279 0.5287 0.5295 0.5303 0.5310
3235.000000 0.5319 0.5327 0.5335 0.5343 0.5351
3230.000000 0.5359 0.5367 0.5375 0.5383 0.5391
3225.000000 0.5397 0.5403 0.5409 0.5415 0.5421
3220.000000 0.5427 0.5433 0.5439 0.5445 0.5451
3215.000000 0.5456 0.5462 0.5468 0.5474 0.5477
3210.000000 0.5480 0.5482 0.5485 0.5488 0.5491
3205.000000 0.5493 0.5496 0.5498 0.5501 0.5503
3200.000000 0.5506 0.5509 0.5512 0.5514 0.5517
3195.000000 0.5519 0.5522 0.5525 0.5528 0.5530
3190.000000 0.5533 0.5535 0.5538 0.5540 0.5542
3185.000000 0.5544 0.5546 0.5548 0.5550 0.5552
3180.000000 0.5554 0.5556 0.5558 0.5560 0.5562
3175.000000 0.5564 0.5566 0.5568 0.5570 0.5571
3170.000000 0.5573 0.5574 0.5575 0.5576 0.5577
3165.000000 0.5578 0.5580 0.5581 0.5582 0.5582
3160.000000 0.5583 0.5582 0.5581 0.5579 0.5618
3155.000000 0.5575 0.5573 0.5571 0.5569 0.5567
3150.000000 0.5565 0.5562 0.5562 0.5560 0.5558
3145.000000 0.5551 0.5544 0.5534 0.5525 0.5515
3140.000000 0.5506 0.5496 0.5487 0.5477 0.5467
3135.000000 0.5457 0.5448 0.5428 0.5409 0.5386
3130.000000 0.5364 0.5341 0.5318 0.5295 0.5273
3125.000000 0.5246 0.5219 0.5188 0.5157 0.5126
3120.000000 0.5096 0.5065 0.5034 0.5012 0.4990
3115.000000 0.4972 0.4954 0.4936 0.4918 0.4900
3110.000000 0.4883 0.4865 0.4847 0.4829 0.4810
3105.000000 0.4791 0.4772 0.4752 0.4732 0.4712
3100.000000 0.4693 0.4673 0.4653 0.4633 0.4612
3095.000000 0.4597 0.4582 0.4569 0.4557 0.4544
3090.000000 0.4532 0.4519 0.4507 0.4494 0.4482
3085.000000 0.4475 0.4469 0.4464 0.4459 0.4454
3080.000000 0.4450 0.4445 0.4440 0.4435 0.4430
3075.000000 0.4425 0.4420 0.4415 0.4410 0.4402
3070.000000 0.4394 0.4385 0.4377 0.4368 0.4359
3065.000000 0.4350 0.4341 0.4332 0.4323 0.4314
3060.000000 0.4305 0.4292 0.4280 0.4265 0.4251
3055.000000 0.4236 0.4222 0.4207 0.4192 0.4177
3050.000000 0.4162 0.4145 0.4128 0.4110 0.4095
3045.000000 0.4078 0.4062 0.4048 0.4034 0.4021
3040.000000 0.4007 0.3993 0.3980 0.3962 0.3946
3035.000000 0.3889 0.3832 0.3727 0.3623 0.3518
3030.000000 0.3414 0.3309 0.3204 0.3099 0.2995
3025.000000 0.2931 0.2892 0.2912 0.2958 0.3037
3020.000000 0.3117 0.3196 0.3275 0.3354 0.3432
3015.000000 0.3454 0.3475 0.3464 0.3505 0.3338
3010.000000 0.3223 0.3107 0.2992 0.2876 0.2761
3005.000000 0.2677 0.2593 0.2596 0.2599 0.2628
3000.000000 0.2657 0.2685 0.2716 0.2745 0.2774
2995.000000 0.2803 0.2833 0.2848 0.2864 0.2827
2990.000000 0.2791 0.2753 0.2716 0.2675 0.2634
2985.000000 0.2606 0.2578 0.2530 0.2483 0.2419
2980.000000 0.2355 0.2196 0.2036 0.1878 0.1720
2975.000000 0.1561 0.1403 0.1244 0.1085 0.1042
2970.000000 0.1000 0.0967 0.0934 0.0888 0.0842
2965.000000 0.0767 0.0693 0.0652 0.0612 0.0599
2960.000000 0.0587 0.0581 0.0575 0.0574 0.0574
2955.000000 0.0574 0.0575 0.0576 0.0576 0.0577
2950.000000 0.0577 0.0575 0.0574 0.0572 0.0571
2945.000000 0.0569 0.0568 0.0558 0.0549 0.0529
2940.000000 0.0509 0.0475 0.0442 0.0401 0.0360
2935.000000 0.0333 0.0306 0.0284 0.0263 0.0262
2930.000000 0.0262 0.0261 0.0261 0.0260 0.0260
2925.000000 0.0260 0.0260 0.0261 0.0263 0.0264
2920.000000 0.0266 0.0266 0.0267 0.0277 0.0286
2915.000000 0.0296 0.0307 0.0325 0.0344 0.0367
2910.000000 0.0392 0.0430 0.0469 0.0519 0.0569
2905.000000 0.0641 0.0714 0.0774 0.0835 0.0892
2900.000000 0.0950 0.1005 0.1061 0.1130 0.1200
2895.000000 0.1284 0.1368 0.1433 0.1498 0.1537
2890.000000 0.1577 0.1589 0.1602 0.1611 0.1621
2885.000000 0.1627 0.1633 0.1635 0.1640 0.1642
2880.000000 0.1644 0.1645 0.1648 0.1639 0.1629
2875.000000 0.1601 0.1572 0.1511 0.1450 0.1327
2870.000000 0.1204 0.1203 0.1203 0.1202 0.1202
2865.000000 0.1200 0.1198 0.1188 0.1178 0.1153
2860.000000 0.1128 0.1101 0.1074 0.1058 0.1042
2855.000000 0.1041 0.1025 0.1046 0.1054 0.1062
2850.000000 0.1070 0.1079 0.1088 0.1116 0.1144
2845.000000 0.1200 0.1256 0.1408 0.1560 0.1671
2840.000000 0.1782 0.1934 0.2085 0.2401 0.2716
2835.000000 0.2762 0.2809 0.2855 0.2902 0.2962
2830.000000 0.3022 0.3088 0.3155 0.3220 0.3286
2825.000000 0.3347 0.3409 0.3447 0.3484 0.3522
2820.000000 0.3559 0.3598 0.3636 0.3670 0.3704
2815.000000 0.3734 0.3764 0.3796 0.3827 0.3857
2810.000000 0.3888 0.3921 0.3954 0.3994 0.4034
2805.000000 0.4075 0.4116 0.4150 0.4184 0.4209
2800.000000 0.4235 0.4260 0.4286 0.4308 0.4330
2795.000000 0.4346 0.4362 0.4378 0.4394 0.4410
2790.000000 0.4426 0.4442 0.4458 0.4474 0.4490
2785.000000 0.4506 0.4522 0.4537 0.4553 0.4568
2780.000000 0.4584 0.4599 0.4615 0.4624 0.4633
2775.000000 0.4642 0.4651 0.4659 0.4668 0.4677
2770.000000 0.4686 0.4695 0.4704 0.4712 0.4722
2765.000000 0.4731 0.4741 0.4751 0.4760 0.4771
2760.000000 0.4781 0.4791 0.4801 0.4814 0.4827
2755.000000 0.4844 0.4860 0.4874 0.4887 0.4900
2750.000000 0.4912 0.4929 0.4945 0.4965 0.4986
2745.000000 0.5000 0.5014 0.5020 0.5026 0.5027
2740.000000 0.5027 0.5027 0.5026 0.5024 0.5062
2735.000000 0.5010 0.4997 0.4983 0.4970 0.4956
2730.000000 0.4943 0.4929 0.4915 0.4901 0.4887
2725.000000 0.4873 0.4859 0.4845 0.4832 0.4818
2720.000000 0.4804 0.4790 0.4777 0.4767 0.4757
2715.000000 0.4749 0.4741 0.4732 0.4724 0.4716
2710.000000 0.4708 0.4700 0.4692 0.4685 0.4679
2705.000000 0.4672 0.4666 0.4659 0.4653 0.4647
2700.000000 0.4642 0.4638 0.4634 0.4630 0.4626
2695.000000 0.4622 0.4618 0.4614 0.4610 0.4606
2690.000000 0.4603 0.4601 0.4601 0.4597 0.4595
2685.000000 0.4593 0.4592 0.4590 0.4588 0.4586
2680.000000 0.4584 0.4582 0.4580 0.4579 0.4578
2675.000000 0.4579 0.4583 0.4586 0.4590 0.4593
2670.000000 0.4597 0.4600 0.4603 0.4606 0.4610
2665.000000 0.4612 0.4617 0.4626 0.4636 0.4645
2660.000000 0.4654 0.4662 0.4672 0.4683 0.4694
2655.000000 0.4705 0.4717 0.4728 0.4739 0.4749
2650.000000 0.4760 0.4769 0.4778 0.4786 0.4795
2645.000000 0.4801 0.4808 0.4814 0.4820 0.4826
2640.000000 0.4832 0.4837 0.4842 0.4845 0.4849
2635.000000 0.4852 0.4856 0.4859 0.4862 0.4866
2630.000000 0.4869 0.4869 0.4869 0.4869 0.4869
2625.000000 0.4869 0.4869 0.4869 0.4869 0.4868
2620.000000 0.4868 0.4866 0.4865 0.4862 0.4860
2615.000000 0.4859 0.4857 0.4855 0.4853 0.4851
2610.000000 0.4849 0.4842 0.4835 0.4824 0.4812
2605.000000 0.4798 0.4783 0.4752 0.4721 0.4683
2600.000000 0.4646 0.4612 0.4581 0.4564 0.4547
2595.000000 0.4536 0.4526 0.4518 0.4510 0.4507
2590.000000 0.4504 0.4502 0.4500 0.4498 0.4496
2585.000000 0.4493 0.4491 0.4489 0.4487 0.4485
2580.000000 0.4483 0.4481 0.4479 0.4476 0.4474
2575.000000 0.4472 0.4471 0.4469 0.4468 0.4466
2570.000000 0.4465 0.4462 0.4462 0.4460 0.4459
2565.000000 0.4457 0.4456 0.4455 0.4454 0.4453
2560.000000 0.4453 0.4452 0.4451 0.4450 0.4449
2555.000000 0.4448 0.4448 0.4447 0.4446 0.4446
2550.000000 0.4447 0.4447 0.4448 0.4449 0.4450
2545.000000 0.4451 0.4453 0.4455 0.4457 0.4459
2540.000000 0.4460 0.4465 0.4469 0.4480 0.4491
2535.000000 0.4504 0.4518 0.4532 0.4546 0.4565
2530.000000 0.4584 0.4603 0.4622 0.4647 0.4673
2525.000000 0.4699 0.4725 0.4760 0.4796 0.4831
2520.000000 0.4867 0.4910 0.4955 0.5008 0.5060
2515.000000 0.5102 0.5144 0.5181 0.5219 0.5246
2510.000000 0.5273 0.5296 0.5320 0.5344 0.5368
2505.000000 0.5393 0.5418 0.5447 0.5477 0.5506
2500.000000 0.5536 0.5564 0.5592 0.5617 0.5643
2495.000000 0.5668 0.5694 0.5717 0.5741 0.5760
2490.000000 0.5780 0.5799 0.5819 0.5838 0.5857
2485.000000 0.5876 0.5896 0.5915 0.5934 0.5952
2480.000000 0.5971 0.5989 0.6007 0.6025 0.6044
2475.000000 0.6062 0.6081 0.6099 0.6117 0.6134
2470.000000 0.6151 0.6168 0.6185 0.6202 0.6219
2465.000000 0.6236 0.6254 0.6270 0.6287 0.6302
2460.000000 0.6317 0.6332 0.6347 0.6362 0.6377
2455.000000 0.6392 0.6407 0.6421 0.6437 0.6451
2450.000000 0.6467 0.6482 0.6497 0.6511 0.6526
2445.000000 0.6541 0.6556 0.6571 0.6586 0.6601
2440.000000 0.6615 0.6631 0.6646 0.6661 0.6675
2435.000000 0.6691 0.6706 0.6721 0.6736 0.6751
2430.000000 0.6765 0.6781 0.6796 0.6811 0.6825
2425.000000 0.6840 0.6855 0.6869 0.6885 0.6900
2420.000000 0.6915 0.6931 0.6947 0.6961 0.6978
2415.000000 0.6992 0.7007 0.7021 0.7036 0.7051
2410.000000 0.7065 0.7080 0.7095 0.7108 0.7121
2405.000000 0.7135 0.7148 0.7161 0.7175 0.7188
2400.000000 0.7201 0.7214 0.7228 0.7241 0.7254
2395.000000 0.7267 0.7281 0.7292 0.7304 0.7315
2390.000000 0.7326 0.7338 0.7350 0.7361 0.7372
2385.000000 0.7384 0.7396 0.7408 0.7419 0.7431
2380.000000 0.7443 0.7455 0.7468 0.7480 0.7492
2375.000000 0.7504 0.7517 0.7528 0.7542 0.7551
2370.000000 0.7562 0.7572 0.7583 0.7593 0.7603
2365.000000 0.7612 0.7622 0.7634 0.7645 0.7657
2360.000000 0.7668 0.7678 0.7688 0.7694 0.7700
2355.000000 0.7706 0.7711 0.7717 0.7721 0.7721
2350.000000 0.7722 0.7722 0.7722 0.7722 0.7721
2345.000000 0.7715 0.7711 0.7705 0.7700 0.7694
2340.000000 0.7689 0.7683 0.7678 0.7672 0.7668
2335.000000 0.7671 0.7675 0.7678 0.7683 0.7687
2330.000000 0.7692 0.7696 0.7701 0.7707 0.7714
2325.000000 0.7725 0.7737 0.7748 0.7760 0.7771
2320.000000 0.7783 0.7795 0.7807 0.7818 0.7830
2315.000000 0.7841 0.7853 0.7865 0.7876 0.7889
2310.000000 0.7901 0.7915 0.7928 0.7941 0.7954
2305.000000 0.7965 0.7978 0.7992 0.8005 0.8018
2300.000000 0.8031 0.8041 0.8051 0.8061 0.8071
2295.000000 0.8080 0.8090 0.8099 0.8108 0.8118
2290.000000 0.8128 0.8135 0.8143 0.8151 0.8158
2285.000000 0.8165 0.8174 0.8182 0.8190 0.8194
2280.000000 0.8199 0.8201 0.8203 0.8205 0.8207
2275.000000 0.8209 0.8212 0.8214 0.8216 0.8216
2270.000000 0.8217 0.8217 0.8218 0.8218 0.8218
2265.000000 0.8218 0.8220 0.8220 0.8221 0.8221
2260.000000 0.8221 0.8221 0.8221 0.8221 0.8221
2255.000000 0.8221 0.8221 0.8221 0.8221 0.8223
2250.000000 0.8225 0.8233 0.8242 0.8250 0.8259
2245.000000 0.8268 0.8278 0.8288 0.8299 0.8309
2240.000000 0.8318 0.8328 0.8340 0.8350 0.8360
2235.000000 0.8370 0.8381 0.8391 0.8401 0.8411
2230.000000 0.8421 0.8430 0.8438 0.8446 0.8454
2225.000000 0.8462 0.8470 0.8478 0.8486 0.8494
2220.000000 0.8502 0.8510 0.8518 0.8527 0.8535
2215.000000 0.8541 0.8548 0.8554 0.8560 0.8566
2210.000000 0.8573 0.8578 0.8586 0.8592 0.8599
2205.000000 0.8605 0.8612 0.8618 0.8625 0.8630
2200.000000 0.8635 0.8639 0.8644 0.8648 0.8653
2195.000000 0.8658 0.8663 0.8667 0.8671 0.8675
2190.000000 0.8681 0.8685 0.8690 0.8693 0.8697
2185.000000 0.8700 0.8703 0.8706 0.8710 0.8713
2180.000000 0.8716 0.8718 0.8723 0.8725 0.8727
2175.000000 0.8728 0.8727 0.8725 0.8723 0.8715
2170.000000 0.8707 0.8699 0.8692 0.8684 0.8675
2165.000000 0.8668 0.8661 0.8653 0.8645 0.8637
2160.000000 0.8630 0.8631 0.8632 0.8634 0.8637
2155.000000 0.8639 0.8642 0.8645 0.8648 0.8656
2150.000000 0.8664 0.8671 0.8680 0.8687 0.8695
2145.000000 0.8703 0.8711 0.8718 0.8727 0.8735
2140.000000 0.8743 0.8752 0.8761 0.8774 0.8787
2135.000000 0.8799 0.8812 0.8824 0.8836 0.8843
2130.000000 0.8850 0.8857 0.8864 0.8871 0.8878
2125.000000 0.8882 0.8886 0.8885 0.8885 0.8884
2120.000000 0.8883 0.8881 0.8878 0.8877 0.8875
2115.000000 0.8875 0.8875 0.8877 0.8878 0.8881
2110.000000 0.8884 0.8890 0.8897 0.8903 0.8910
2105.000000 0.8916 0.8923 0.8928 0.8935 0.8941
2100.000000 0.8948 0.8954 0.8961 0.8968 0.8978
2095.000000 0.8983 0.8988 0.8986 0.8985 0.8983
2090.000000 0.8981 0.8978 0.8977 0.8975 0.8973
2085.000000 0.8971 0.8971 0.8970 0.8970 0.8968
2080.000000 0.8968 0.8967 0.8967 0.8966 0.8965
2075.000000 0.8964 0.8963 0.8963 0.8963 0.8967
2070.000000 0.8971 0.8975 0.8980 0.8984 0.8988
2065.000000 0.8993 0.8998 0.9003 0.9008 0.9013
2060.000000 0.9018 0.9024 0.9028 0.9034 0.9039
2055.000000 0.9044 0.9050 0.9055 0.9060 0.9066
2050.000000 0.9071 0.9077 0.9083 0.9089 0.9095
2045.000000 0.9099 0.9104 0.9109 0.9114 0.9118
2040.000000 0.9123 0.9127 0.9132 0.9137 0.9142
2035.000000 0.9146 0.9151 0.9155 0.9160 0.9164
2030.000000 0.9168 0.9171 0.9175 0.9180 0.9184
2025.000000 0.9188 0.9192 0.9196 0.9201 0.9205
2020.000000 0.9209 0.9213 0.9217 0.9225 0.9234
2015.000000 0.9242 0.9251 0.9259 0.9268 0.9278
2010.000000 0.9289 0.9301 0.9313 0.9321 0.9332
2005.000000 0.9341 0.9350 0.9358 0.9367 0.9377
2000.000000 0.9387 0.9393 0.9396 0.9398 0.9401
1995.000000 0.9401 0.9401 0.9400 0.9399 0.9398
1990.000000 0.9396 0.9394 0.9392 0.9390 0.9388
1985.000000 0.9385 0.9383 0.9380 0.9378 0.9371
1980.000000 0.9364 0.9356 0.9349 0.9341 0.9331
1975.000000 0.9320 0.9308 0.9297 0.9286 0.9275
1970.000000 0.9267 0.9258 0.9249 0.9239 0.9234
1965.000000 0.9243 0.9256 0.9271 0.9286 0.9301
1960.000000 0.9315 0.9330 0.9345 0.9352 0.9359
1955.000000 0.9366 0.9373 0.9380 0.9387 0.9394
1950.000000 0.9398 0.9397 0.9397 0.9396 0.9396
1945.000000 0.9396 0.9395 0.9395 0.9394 0.9394
1940.000000 0.9393 0.9390 0.9386 0.9382 0.9378
1935.000000 0.9375 0.9371 0.9364 0.9354 0.9343
1930.000000 0.9333 0.9323 0.9314 0.9305 0.9295
1925.000000 0.9286 0.9277 0.9268 0.9259 0.9251
1920.000000 0.9242 0.9244 0.9262 0.9278 0.9296
1915.000000 0.9312 0.9328 0.9346 0.9354 0.9362
1910.000000 0.9368 0.9377 0.9384 0.9392 0.9399
1905.000000 0.9407 0.9414 0.9421 0.9428 0.9432
1900.000000 0.9435 0.9437 0.9439 0.9441 0.9443
1895.000000 0.9445 0.9448 0.9448 0.9449 0.9447
1890.000000 0.9445 0.9443 0.9442 0.9440 0.9438
1885.000000 0.9437 0.9433 0.9427 0.9421 0.9415
1880.000000 0.9409 0.9403 0.9397 0.9391 0.9384
1875.000000 0.9377 0.9370 0.9363 0.9356 0.9350
1870.000000 0.9343 0.9338 0.9332 0.9327 0.9321
1865.000000 0.9316 0.9310 0.9305 0.9299 0.9294
1860.000000 0.9289 0.9284 0.9280 0.9275 0.9271
1855.000000 0.9264 0.9256 0.9247 0.9236 0.9225
1850.000000 0.9218 0.9211 0.9204 0.9199 0.9202
1845.000000 0.9206 0.9209 0.9212 0.9218 0.9245
1840.000000 0.9233 0.9240 0.9247 0.9254 0.9264
1835.000000 0.9274 0.9284 0.9294 0.9304 0.9314
1830.000000 0.9323 0.9332 0.9343 0.9354 0.9359
1825.000000 0.9364 0.9368 0.9373 0.9378 0.9378
1820.000000 0.9380 0.9380 0.9381 0.9381 0.9382
1815.000000 0.9382 0.9384 0.9386 0.9387 0.9389
1810.000000 0.9391 0.9393 0.9395 0.9396 0.9397
1805.000000 0.9398 0.9399 0.9401 0.9402 0.9403
1800.000000 0.9404 0.9406 0.9407 0.9408 0.9409
1795.000000 0.9410 0.9412 0.9413 0.9414 0.9415
1790.000000 0.9415 0.9416 0.9416 0.9415 0.9415
1785.000000 0.9414 0.9414 0.9413 0.9412 0.9412
1780.000000 0.9411 0.9411 0.9410 0.9409 0.9409
1775.000000 0.9409 0.9409 0.9409 0.9408 0.9408
1770.000000 0.9408 0.9408 0.9408 0.9408 0.9408
1765.000000 0.9408 0.9404 0.9399 0.9393 0.9388
1760.000000 0.9383 0.9377 0.9371 0.9367 0.9361
1755.000000 0.9356 0.9349 0.9340 0.9331 0.9321
1750.000000 0.9312 0.9303 0.9293 0.9281 0.9270
1745.000000 0.9259 0.9248 0.9236 0.9225 0.9214
1740.000000 0.9203 0.9191 0.9180 0.9168 0.9158
1735.000000 0.9146 0.9130 0.9113 0.9097 0.9070
1730.000000 0.9038 0.9006 0.8973 0.8939 0.8900
1725.000000 0.8849 0.8790 0.8709 0.8636 0.8562
1720.000000 0.8478 0.8387 0.8293 0.8147 0.8001
1715.000000 0.7855 0.7708 0.7561 0.7415 0.7269
1710.000000 0.6022 0.5826 0.5682 0.5509 0.5303
1705.000000 0.5079 0.4843 0.4541 0.4239 0.3938
1700.000000 0.3636 0.3334 0.3032 0.2731 0.2429
1695.000000 0.2160 0.1676 0.1623 0.1607 0.1607
1690.000000 0.1607 0.1608 0.1612 0.1614 0.1615
1685.000000 0.1616 0.1617 0.1530 0.1242 0.0954
1680.000000 0.0752 0.0567 0.0390 0.0278 0.0241
1675.000000 0.0204 0.0172 0.0149 0.0133 0.0124
1670.000000 0.0114 0.0105 0.0099 0.0093 0.0088
1665.000000 0.0084 0.0097 0.0100 0.0114 0.0141
1660.000000 0.0178 0.0254 0.0351 0.0511 0.0699
1655.000000 0.0876 0.1180 0.1517 0.1694 0.1812
1650.000000 0.1885 0.1949 0.1998 0.2037 0.2068
1645.000000 0.2080 0.2085 0.2088 0.2111 0.2070
1640.000000 0.1252 0.1153 0.1089 0.1059 0.1030
1635.000000 0.1011 0.0991 0.0971 0.0947 0.0925
1630.000000 0.0902 0.0876 0.0853 0.0832 0.0819
1625.000000 0.0814 0.0813 0.0825 0.0879 0.0987
1620.000000 0.1186 0.1389 0.1592 0.1795 0.1999
1615.000000 0.2203 0.2406 0.2609 0.2813 0.2938
1610.000000 0.2862 0.2826 0.2807 0.2795 0.2717
1605.000000 0.2811 0.2835 0.2868 0.2901 0.2933
1600.000000 0.2763 0.3045 0.2418 0.2245 0.2087
1595.000000 0.2097 0.2133 0.2266 0.2664 0.3062
1590.000000 0.3459 0.3743 0.3900 0.4182 0.4421
1585.000000 0.4610 0.4751 0.4883 0.5015 0.5416
1580.000000 0.5687 0.5877 0.6059 0.6284 0.6565
1575.000000 0.6899 0.7062 0.7200 0.7337 0.7475
1570.000000 0.7615 0.7749 0.7861 0.7945 0.8005
1565.000000 0.8065 0.8115 0.8164 0.8201 0.8223
1560.000000 0.8244 0.8263 0.8263 0.8264 0.8285
1555.000000 0.8292 0.8293 0.8290 0.8285 0.8273
1550.000000 0.8261 0.8249 0.8236 0.8217 0.8198
1545.000000 0.8171 0.8138 0.8104 0.8069 0.7997
1540.000000 0.7912 0.7807 0.7675 0.7545 0.7417
1535.000000 0.7267 0.7091 0.6530 0.5615 0.5007
1530.000000 0.4399 0.3791 0.3183 0.2575 0.1968
1525.000000 0.1360 0.0752 0.0144 0.0112 0.0112
1520.000000 0.0112 0.0278 0.0639 0.0999 0.1359
1515.000000 0.1719 0.2080 0.2440 0.2800 0.3160
1510.000000 0.3521 0.3880 0.4241 0.4601 0.4962
1505.000000 0.5322 0.5682 0.6042 0.6403 0.6762
1500.000000 0.7058 0.7184 0.7249 0.7283 0.7312
1495.000000 0.7333 0.7345 0.7349 0.7388 0.7340
1490.000000 0.7328 0.7310 0.7290 0.7239 0.7187
1485.000000 0.7112 0.6995 0.6815 0.6601 0.6240
1480.000000 0.5745 0.5085 0.4822 0.4439 0.4056
1475.000000 0.3673 0.3290 0.2907 0.2524 0.2141
1470.000000 0.1759 0.1376 0.0992 0.0610 0.0283
1465.000000 0.0306 0.0292 0.0538 0.0789 0.1041
1460.000000 0.1292 0.1542 0.1794 0.2045 0.2297
1455.000000 0.2548 0.2632 0.2592 0.2397 0.2182
1450.000000 0.1967 0.1752 0.1717 0.1866 0.2078
1445.000000 0.2290 0.2502 0.2621 0.2562 0.2002
1440.000000 0.1442 0.0882 0.0446 0.0447 0.0449
1435.000000 0.0459 0.0537 0.0605 0.0645 0.0676
1430.000000 0.0687 0.0699 0.0710 0.0720 0.0726
1425.000000 0.0730 0.0735 0.0969 0.1284 0.1599
1420.000000 0.1914 0.2228 0.2543 0.2858 0.3173
1415.000000 0.3487 0.3802 0.4117 0.4432 0.4746
1410.000000 0.5060 0.5376 0.5690 0.6005 0.6266
1405.000000 0.6279 0.6279 0.6282 0.6158 0.5964
1400.000000 0.5769 0.5574 0.5379 0.5184 0.4989
1395.000000 0.4794 0.4600 0.4405 0.4210 0.4014
1390.000000 0.3820 0.3730 0.3750 0.3714 0.3714
1385.000000 0.3728 0.3753 0.3792 0.3824 0.3854
1380.000000 0.3884 0.3923 0.3995 0.4066 0.4191
1375.000000 0.4366 0.4542 0.4717 0.4893 0.5068
1370.000000 0.5244 0.5419 0.5595 0.5770 0.5946
1365.000000 0.6121 0.6297 0.6453 0.6474 0.6475
1360.000000 0.6475 0.6358 0.5995 0.5632 0.5269
1355.000000 0.4907 0.4544 0.4181 0.3818 0.3456
1350.000000 0.3093 0.2730 0.2367 0.2004 0.1642
1345.000000 0.1279 0.0916 0.0554 0.0337 0.0334
1340.000000 0.0328 0.0416 0.0593 0.0770 0.0946
1335.000000 0.1124 0.1301 0.1478 0.1654 0.1832
1330.000000 0.2009 0.2069 0.2097 0.2120 0.2135
1325.000000 0.2151 0.2156 0.2184 0.2025 0.1856
1320.000000 0.1687 0.1519 0.1469 0.1452 0.1436
1315.000000 0.1419 0.1402 0.1331 0.1185 0.1038
1310.000000 0.0891 0.0744 0.0597 0.0450 0.0304
1305.000000 0.0208 0.0158 0.0118 0.0139 0.0141
1300.000000 0.0149 0.0188 0.0251 0.0332 0.0389
1295.000000 0.0514 0.0851 0.1189 0.1526 0.1863
1290.000000 0.2201 0.2538 0.2550 0.2559 0.2484
1285.000000 0.2565 0.1886 0.1588 0.1289 0.0989
1280.000000 0.0692 0.0393 0.0216 0.0188 0.0170
1275.000000 0.0153 0.0146 0.0162 0.0179 0.0225
1270.000000 0.0287 0.0350 0.0411 0.0471 0.0532
1265.000000 0.0607 0.0737 0.0981 0.1225 0.1469
1260.000000 0.1712 0.1956 0.2200 0.2444 0.2688
1255.000000 0.2932 0.3176 0.3420 0.3662 0.3907
1250.000000 0.4151 0.4395 0.4639 0.4786 0.4770
1245.000000 0.4802 0.4750 0.4415 0.4080 0.3745
1240.000000 0.3410 0.3076 0.2741 0.2406 0.2072
1235.000000 0.1736 0.1402 0.1067 0.0845 0.0777
1230.000000 0.0743 0.0715 0.0690 0.0675 0.0662
1225.000000 0.0658 0.0659 0.0659 0.0675 0.0699
1220.000000 0.0734 0.0780 0.0829 0.0880 0.0939
1215.000000 0.1002 0.1208 0.1490 0.1773 0.2056
1210.000000 0.2338 0.2621 0.2903 0.3185 0.3468
1205.000000 0.3750 0.4034 0.4316 0.4599 0.4881
1200.000000 0.5164 0.5447 0.5729 0.5790 0.5847
1195.000000 0.5898 0.5950 0.6001 0.6052 0.6101
1190.000000 0.6138 0.6176 0.6201 0.6318 0.6436
1185.000000 0.6555 0.6674 0.6792 0.6911 0.7028
1180.000000 0.7148 0.7267 0.7371 0.7358 0.7358
1175.000000 0.7358 0.7346 0.7321 0.7018 0.6491
1170.000000 0.5962 0.5435 0.4907 0.4380 0.3852
1165.000000 0.3324 0.2796 0.2268 0.1740 0.0745
1160.000000 0.0750 0.0988 0.1270 0.1552 0.1834
1155.000000 0.2115 0.2397 0.2679 0.2961 0.3243
1150.000000 0.3524 0.3806 0.4088 0.4370 0.4651
1145.000000 0.5333 0.5215 0.5322 0.5329 0.4969
1140.000000 0.4610 0.4251 0.3892 0.3532 0.3173
1135.000000 0.2814 0.2455 0.2095 0.1735 0.1377
1130.000000 0.1018 0.0658 0.0299 0.0271 0.0250
1125.000000 0.0237 0.0233 0.0190 0.0246 0.0260
1120.000000 0.0307 0.0473 0.0641 0.0808 0.0975
1115.000000 0.1142 0.1333 0.1884 0.5049 0.5259
1110.000000 0.5405 0.5551 0.5686 0.5801 0.5916
1105.000000 0.6032 0.6255 0.6534 0.6844 0.7008
1100.000000 0.7175 0.7295 0.7384 0.7471 0.7561
1095.000000 0.7641 0.7721 0.7800 0.7880 0.7956
1090.000000 0.8032 0.8108 0.8192 0.8274 0.8333
1085.000000 0.8393 0.8452 0.8492 0.8532 0.8571
1080.000000 0.8602 0.8633 0.8663 0.8689 0.8710
1075.000000 0.8731 0.8752 0.8771 0.8787 0.8802
1070.000000 0.8817 0.8832 0.8847 0.8854 0.8862
1065.000000 0.8868 0.8878 0.8886 0.8895 0.8862
1060.000000 0.8912 0.8916 0.8920 0.8921 0.8914
1055.000000 0.8906 0.8668 0.8301 0.7932 0.7564
1050.000000 0.7196 0.7198 0.7178 0.7240 0.7497
1045.000000 0.7753 0.8008 0.8265 0.8418 0.8452
1040.000000 0.8485 0.8518 0.8552 0.8586 0.8618
1035.000000 0.8652 0.8681 0.8706 0.8731 0.8753
1030.000000 0.8765 0.8775 0.8783 0.8791 0.8799
1025.000000 0.8807 0.8815 0.8823 0.8831 0.8855
1020.000000 0.8878 0.8904 0.8928 0.8952 0.8975
1015.000000 0.8998 0.9015 0.9032 0.9048 0.9027
1010.000000 0.9062 0.9068 0.9066 0.9061 0.9054
1005.000000 0.9040 0.9025 0.9008 0.8984 0.8375
1000.000000 0.7393 0.6785 0.6807 0.6793 0.6986
995.000000 0.7189 0.7392 0.7595 0.7798 0.8001
990.000000 0.8204 0.8291 0.8273 0.8301 0.7842
985.000000 0.7075 0.6310 0.5545 0.4779 0.4014
980.000000 0.3248 0.2740 0.2750 0.2756 0.3034
975.000000 0.3820 0.4605 0.5390 0.6175 0.6960
970.000000 0.7745 0.8530 0.8657 0.8657 0.8623
965.000000 0.8647 0.8421 0.8141 0.7861 0.7581
960.000000 0.7301 0.7157 0.7168 0.7217 0.7368
955.000000 0.7518 0.7669 0.7819 0.7971 0.8121
950.000000 0.8273 0.8424 0.8473 0.8465 0.8487
945.000000 0.8481 0.8455 0.8400 0.8323 0.8245
940.000000 0.8168 0.8090 0.8012 0.7936 0.7858
935.000000 0.7781 0.7703 0.7625 0.7549 0.7471
930.000000 0.7394 0.7322 0.7303 0.7284 0.7268
925.000000 0.7258 0.7250 0.7241 0.7201 0.6961
920.000000 0.6719 0.6478 0.6239 0.5998 0.5757
915.000000 0.5516 0.5410 0.5404 0.5412 0.5503
910.000000 0.5810 0.6118 0.6425 0.6733 0.7041
905.000000 0.7348 0.7656 0.7962 0.8271 0.8578
900.000000 0.8692 0.8756 0.8815 0.8862 0.8910
895.000000 0.8964 0.9018 0.9077 0.9135 0.9244
890.000000 0.9325 0.9368 0.9385 0.9396 0.9404
885.000000 0.9408 0.9408 0.9408 0.9268 0.9131
880.000000 0.8993 0.8855 0.8717 0.8578 0.8441
875.000000 0.8306 0.8275 0.8384 0.8533 0.8682
870.000000 0.8831 0.8980 0.9128 0.9277 0.9425
865.000000 0.9575 0.9724 0.9839 0.9893 0.9910
860.000000 0.9928 0.9928 0.9927 0.9962 0.9962
855.000000 0.9959 0.9948 0.9923 0.9899 0.9874
850.000000 0.9838 0.9784 0.9730 0.9673 0.9606
845.000000 0.9258 0.8530 0.7803 0.7075 0.6348
840.000000 0.5620 0.4893 0.4340 0.4336 0.4610
835.000000 0.5444 0.6276 0.7108 0.7941 0.8774
830.000000 0.9599 0.9618 0.9606 0.9625 0.9624
825.000000 0.9215 0.8612 0.8008 0.7405 0.6801
820.000000 0.6199 0.6150 0.6130 0.6840 0.7805
815.000000 0.8768 0.9733 1.0125 1.0285 1.0334
810.000000 1.0363 1.0383 1.0382 1.0382 1.0381
805.000000 1.0381 1.0380 1.0380 1.0378 1.0378
800.000000 1.0378 1.0377 1.0377 1.0375 1.0375
795.000000 1.0375 1.0374 1.0374 1.0373 1.0373
790.000000 1.0371 1.0371 1.0371 1.0370 1.0370
785.000000 1.0368 1.0368 1.0368 1.0367 1.0367
780.000000 1.0366 1.0366 1.0365 1.0365 1.0364
775.000000 1.0363 1.0363 1.0362 1.0362 1.0361
770.000000 1.0360 1.0360 1.0359 1.0359 1.0358
765.000000 1.0358 1.0357 1.0356 1.0356 1.0355
760.000000 1.0355 1.0354 1.0354 1.0353 1.0352
755.000000 1.0352 1.0351 1.0351 1.0350 1.0349
750.000000 1.0349 1.0348 1.0348 1.0347 0.9933
745.000000 0.9760 0.9682 0.9605 0.9527 0.9437
740.000000 0.9348 0.9258 0.9166 0.9059 0.8811
735.000000 0.8515 0.8383 0.8315 0.8246 0.8224
730.000000 0.8209 0.8238 0.8238 0.8447 0.8656
725.000000 0.8865 0.9074 0.9283 0.9492 0.9700
720.000000 0.9909 1.0061 1.0146 1.0198 1.0238
715.000000 1.0264 1.0290 1.0317 1.0338 1.0350
710.000000 1.0363 1.0375 1.0383 1.0391 1.0398
705.000000 1.0405 1.0363 1.0409 1.0408 1.0406
700.000000 1.0405 1.0403 1.0392 1.0382 1.0371
695.000000 1.0361 1.0344 1.0324 1.0304 1.0284
690.000000 1.0264 1.0234 1.0191 1.0148 1.0085
685.000000 1.0006 0.9928 0.9850 0.9767 0.9651
680.000000 0.9536 0.9425 0.9249 0.8987 0.8725
675.000000 0.8464 0.8202 0.7940 0.7678 0.7661
670.000000 0.7646 0.7765 0.7886 0.8006 0.8125
665.000000 0.8245 0.8365 0.8364 0.8364 0.8287
660.000000 0.8189 0.8091 0.7993 0.7895 0.7797
655.000000 0.7699 0.7674 0.7665 0.7661 0.7660
650.000000 0.7657 0.7654 0.7651 0.7649 0.7647
645.000000 0.7644 0.7292 0.6851 0.6410 0.5969
640.000000 0.5529 0.5088 0.4647 0.4206 0.3764
635.000000 0.3324 0.2912 0.2902 0.3008 0.3538
630.000000 0.4068 0.4597 0.5127 0.5657 0.6187
625.000000 0.6715 0.7110 0.7214 0.7408 0.7919
620.000000 0.8061 0.8209 0.8410 0.8521 0.8607
615.000000 0.8686 0.8758 0.8858 0.8985 0.9061
610.000000 0.9140 0.9235 0.9296 0.9309 0.9318
605.000000 0.9299 0.9178 0.9060 0.8940 0.8925
600.000000 0.8928 0.9125 0.9321 0.9518 0.9715
595.000000 0.9859 0.9934 0.9971 1.0008 1.0034
590.000000 1.0056 1.0066 1.0075 1.0084 1.0091
585.000000 1.0099 1.0081 1.0108 1.0108 1.0108
580.000000 1.0100 1.0090 1.0081 1.0070 1.0047
575.000000 1.0024 0.9963 0.9892 0.9803 0.9695
570.000000 0.9590 0.9489 0.9367 0.9231 0.8905
565.000000 0.8731 0.8554 0.8378 0.8201 0.8025
560.000000 0.7848 0.7671 0.7651 0.7651 0.7647
555.000000 0.7672 0.7738 0.7908 0.8080 0.8251
550.000000 0.8423 0.8594 0.8765 0.8936 0.9107
545.000000 0.9278 0.9449 0.9621 0.9664 0.9678
540.000000 0.9527 0.9370 0.9213 0.9095 0.9095
535.000000 0.9132 0.9168 0.9307 0.9445 0.9583
530.000000 0.9721 0.9858 0.9907 0.9952 0.9998
525.000000 1.0016 1.0033 1.0049 1.0065 1.0081
520.000000 1.0093 1.0096 1.0113 1.0112 1.0107
515.000000 1.0102 1.0089 1.0075 1.0063 1.0050
510.000000 1.0038 1.0012 0.9981 0.9950 0.9918
505.000000 0.9890 0.9864 0.9839 0.9813 0.9788
500.000000 0.9771 0.9758 0.9743 0.9728 0.9714
495.000000 0.9703 0.9700 0.9677 0.9694 0.9691
490.000000 0.9688 0.9685 0.9682 0.9678 0.9675
485.000000 0.9673 0.9671 0.9668 0.9665 0.9660
##END=
