##TITLE=BUTANE, 1,2-DIBROMO-
##JCAMP-DX=4.24
##DATA TYPE=INFRARED SPECTRUM
##CLASS=COBLENTZ III
##ORIGIN=DOW CHEMICAL COMPANY
##OWNER=COBLENTZ SOCIETY
Collection (C) 2018 copyright by the U.S. Secretary of Commerce
on behalf of the United States of America. All rights reserved.
##DATE=1960/01/30
##NAMES=1,2-dibromobutane
##CAS REGISTRY NO=533-98-2
##MOLFORM=C4 H8 Br2
##BP=155-157 C
##SOURCE REFERENCE=COBLENTZ NO. 10002
##$NIST SOURCE=COBLENTZ
##$NIST IMAGE=cob10002
##SPECTROMETER/DATA SYSTEM=DOW KBr FOREPRISM-GRATING
##INSTRUMENT PARAMETERS=BLAZED AT 3.5, 12.0, 20.0 MICRON, CHANGED AT 5.0, 7.5, 14.9 MICRON
##STATE=SOLUTION (10% IN CCl4 FOR 3800-1330, AND 10% IN CS2 FOR 1330-430 CM^-^1)
##PATH LENGTH=0.011, 0.011 CM
$$SPECTRAL CONTAMINATION DUE TO CCl4 AROUND 1550, AND CS2 AROUND 850 CM^-^1
##SAMPLING PROCEDURE=TRANSMISSION
##RESOLUTION=4
##DATA PROCESSING=DIGITIZED BY NIST FROM HARD COPY (FROM TWO SEGMENTS)
##XUNITS=1/CM
##YUNITS=TRANSMITTANCE
##XFACTOR=1.000000
##YFACTOR=1
##DELTAX=0.870071
##FIRSTX=382.541
##LASTX=3794.96
##FIRSTY=0.983
##MAXX=3794.96
##MINX=382.541
##MAXY=1.036
##MINY=0.345217
##NPOINTS=3923
##XYDATA=(X++(Y..Y))
382.541000 0.9830 0.9820 0.9820 0.9820 0.9800
386.891357 0.9800 0.9790 0.9790 0.9780 0.9780
391.241715 0.9760 0.9760 0.9760 0.9750 0.9740
395.592072 0.9740 0.9720 0.9720 0.9710 0.9710
399.942429 0.9700 0.9700 0.9680 0.9680 0.9670
404.292786 0.9670 0.9660 0.9640 0.9640 0.9640
408.643144 0.9640 0.9630 0.9630 0.9630 0.9630
412.993501 0.9630 0.9610 0.9610 0.9610 0.9610
417.343858 0.9610 0.9610 0.9610 0.9610 0.9610
421.694216 0.9610 0.9600 0.9600 0.9600 0.9600
426.044573 0.9600 0.9590 0.9590 0.9590 0.9590
430.394930 0.9590 0.9570 0.9570 0.9570 0.9570
434.745288 0.9570 0.9570 0.9570 0.9570 0.9570
439.095645 0.9590 0.9590 0.9590 0.9590 0.9590
443.446002 0.9590 0.9590 0.9590 0.9590 0.9590
447.796359 0.9600 0.9600 0.9600 0.9600 0.9610
452.146717 0.9610 0.9630 0.9640 0.9660 0.9660
456.497074 0.9670 0.9680 0.9680 0.9680 0.9700
460.847431 0.9700 0.9700 0.9710 0.9710 0.9720
465.197789 0.9720 0.9740 0.9750 0.9760 0.9760
469.548146 0.9780 0.9780 0.9790 0.9820 0.9830
473.898503 0.9850 0.9860 0.9870 0.9890 0.9910
478.248860 0.9930 0.9930 0.9940 0.9970 1.0010
482.599218 1.0010 1.0020 1.0020 1.0020 1.0020
486.949575 1.0020 1.0010 1.0000 0.9980 0.9970
491.299932 0.9950 0.9950 0.9950 0.9950 0.9930
495.650290 0.9890 0.9830 0.9790 0.9780 0.9750
500.000647 0.9740 0.9700 0.9660 0.9610 0.9590
504.351004 0.9550 0.9480 0.9440 0.9370 0.9340
508.701361 0.9330 0.9330 0.9340 0.9370 0.9549
513.051719 0.9640 0.9720 0.9820 1.0020 1.0080
517.402076 1.0140 1.0170 1.0210 1.0240 1.0250
521.752433 1.0270 1.0270 1.0270 1.0250 1.0240
526.102791 1.0240 1.0240 1.0240 1.0230 1.0200
530.453148 1.0130 1.0080 1.0040 1.0010 1.0000
534.803505 0.9980 0.9970 0.9950 0.9930 0.9900
539.153863 0.9820 0.9720 0.9660 0.9530 0.9420
543.504220 0.9420 0.9719 0.9740 0.9740 0.9720
547.854577 0.9720 0.9710 0.9680 0.9630 0.9470
552.204934 0.9270 0.9230 0.9180 0.9060 0.8921
556.555292 0.8760 0.8580 0.8360 0.8120 0.7811
560.905649 0.7451 0.7031 0.6263 0.6031 0.5652
565.256006 0.5320 0.5010 0.4700 0.4370 0.4060
569.606364 0.3760 0.3760 0.3910 0.4069 0.4130
573.956721 0.4210 0.4320 0.4340 0.4490 0.4700
578.307078 0.4910 0.5379 0.6118 0.6838 0.7537
582.657435 0.8110 0.8350 0.8620 0.8730 0.9059
587.007793 0.9230 0.9469 0.9639 0.9799 0.9999
591.358150 1.0040 1.0050 1.0080 1.0090 1.0100
595.708507 1.0120 1.0130 1.0170 1.0190 1.0230
600.058865 1.0240 1.0270 1.0270 1.0280 1.0280
604.409222 1.0290 1.0310 1.0310 1.0320 1.0330
608.759579 1.0330 1.0350 1.0350 1.0360 1.0360
613.109936 1.0360 1.0360 1.0360 1.0350 1.0350
617.460294 1.0330 1.0330 1.0320 1.0310 1.0290
621.810651 1.0280 1.0280 1.0270 1.0250 1.0230
626.161008 1.0210 1.0200 1.0190 1.0140 1.0130
630.511366 1.0060 1.0000 0.9970 0.9930 0.9890
634.861723 0.9820 0.9750 0.9590 0.9510 0.9340
639.212080 0.9230 0.8941 0.8511 0.8201 0.7134
643.562438 0.7100 0.7130 0.7320 0.7670 0.7860
647.912795 0.8220 0.8380 0.8420 0.8659 0.8690
652.263152 0.8840 0.9000 0.9060 0.9110 0.9180
656.613509 0.9250 0.9320 0.9370 0.9380 0.9370
660.963867 0.9360 0.9300 0.9260 0.9210 0.9170
665.314224 0.9150 0.9170 0.9210 0.9320 0.9479
669.664581 0.9610 0.9670 0.9750 0.9910 0.9970
674.014939 1.0000 1.0020 1.0040 1.0050 1.0060
678.365296 1.0080 1.0080 1.0090 1.0100 1.0100
682.715653 1.0100 1.0100 1.0100 1.0100 1.0120
687.066010 1.0130 1.0140 1.0170 1.0190 1.0190
691.416368 1.0200 1.0210 1.0230 1.0230 1.0240
695.766725 1.0240 1.0240 1.0240 1.0240 1.0230
700.117082 1.0230 1.0230 1.0210 1.0210 1.0210
704.467440 1.0210 1.0210 1.0210 1.0210 1.0210
708.817797 1.0210 1.0210 1.0230 1.0230 1.0230
713.168154 1.0230 1.0240 1.0240 1.0240 1.0250
717.518511 1.0250 1.0250 1.0270 1.0270 1.0270
721.868869 1.0250 1.0240 1.0240 1.0240 1.0240
726.219226 1.0240 1.0250 1.0270 1.0270 1.0270
730.569583 1.0280 1.0280 1.0280 1.0280 1.0280
734.919941 1.0270 1.0270 1.0270 1.0270 1.0270
739.270298 1.0270 1.0280 1.0280 1.0280 1.0280
743.620655 1.0280 1.0280 1.0280 1.0280 1.0280
747.971013 1.0280 1.0280 1.0280 1.0270 1.0270
752.321370 1.0270 1.0270 1.0270 1.0270 1.0270
756.671727 1.0270 1.0250 1.0250 1.0240 1.0240
761.022084 1.0240 1.0240 1.0240 1.0230 1.0230
765.372442 1.0230 1.0230 1.0230 1.0210 1.0210
769.722799 1.0200 1.0140 1.0130 1.0130 1.0100
774.073156 1.0090 1.0060 1.0050 1.0020 1.0010
778.423514 0.9980 0.9950 0.9850 0.9790 0.9710
782.773871 0.9590 0.9530 0.9420 0.9370 0.9330
787.124228 0.9230 0.8941 0.8810 0.8660 0.8511
791.474585 0.8360 0.8200 0.8170 0.8200 0.8270
795.824943 0.8280 0.8270 0.8240 0.8160 0.8020
800.175300 0.7689 0.7179 0.6500 0.6480 0.6490
804.525657 0.6820 0.7129 0.7439 0.7749 0.8069
808.876015 0.8380 0.8580 0.8890 0.9140 0.9320
813.226372 0.9490 0.9590 0.9700 0.9790 0.9860
817.576729 0.9910 1.0000 1.0020 1.0040 1.0050
821.927086 1.0060 1.0080 1.0080 1.0080 1.0080
826.277444 1.0080 1.0080 1.0080 1.0080 1.0080
830.627801 1.0060 1.0060 1.0050 1.0040 1.0010
834.978158 1.0000 0.9970 0.9930 0.9860 0.9820
839.328516 0.9800 0.9750 0.9710 0.9660 0.9600
843.678873 0.9560 0.9490 0.9410 0.9340 0.9250
848.029230 0.9170 0.9060 0.8990 0.8880 0.8750
852.379588 0.8650 0.8550 0.8510 0.8490 0.8470
856.729945 0.8460 0.8460 0.8470 0.8490 0.8530
861.080302 0.8570 0.8580 0.8600 0.8610 0.8620
865.430659 0.8640 0.8660 0.8660 0.8660 0.8660
869.781017 0.8660 0.8660 0.8660 0.8680 0.8690
874.131374 0.8720 0.8850 0.8950 0.8950 0.8980
878.481731 0.9020 0.9080 0.9110 0.9130 0.9190
882.832089 0.9300 0.9330 0.9360 0.9400 0.9520
887.182446 0.9570 0.9600 0.9640 0.9660 0.9670
891.532803 0.9670 0.9670 0.9660 0.9660 0.9640
895.883160 0.9630 0.9600 0.9590 0.9550 0.9510
900.233518 0.9400 0.9320 0.9150 0.8990 0.8811
904.583875 0.8700 0.8650 0.8460 0.8450 0.8460
908.934232 0.8620 0.8790 0.9109 0.9150 0.9339
913.284590 0.9370 0.9330 0.9230 0.9140 0.9070
917.634947 0.8840 0.8540 0.8121 0.7881 0.7740
921.985304 0.7741 0.8230 0.8270 0.8500 0.8830
926.335661 0.8960 0.9250 0.9629 0.9760 0.9830
930.686019 1.0020 1.0040 1.0050 1.0120 1.0140
935.036376 1.0160 1.0160 1.0160 1.0170 1.0190
939.386733 1.0210 1.0210 1.0190 1.0170 1.0140
943.737091 1.0100 1.0080 1.0040 1.0010 0.9970
948.087448 0.9910 0.9900 1.0080 1.0140 1.0190
952.437805 1.0200 1.0210 1.0230 1.0230 1.0230
956.788163 1.0230 1.0230 1.0210 1.0210 1.0210
961.138520 1.0200 1.0190 1.0190 1.0170 1.0170
965.488877 1.0190 1.0200 1.0200 1.0200 1.0200
969.839234 1.0200 1.0200 1.0190 1.0190 1.0170
974.189592 1.0170 1.0170 1.0160 1.0160 1.0140
978.539949 1.0140 1.0130 1.0130 1.0130 1.0130
982.890306 1.0130 1.0130 1.0130 1.0140 1.0160
987.240664 1.0160 1.0170 1.0170 1.0170 1.0160
991.591021 1.0160 1.0160 1.0160 1.0140 1.0130
995.941378 1.0130 1.0120 1.0100 1.0100 1.0100
1000.291735 1.0120 1.0140 1.0140 1.0130 1.0130
1004.642093 1.0120 1.0120 1.0120 1.0120 1.0120
1008.992450 1.0120 1.0120 1.0100 1.0100 1.0090
1013.342807 1.0090 1.0090 1.0080 1.0060 1.0060
1017.693165 1.0050 1.0050 1.0040 1.0040 1.0020
1022.043522 1.0020 1.0020 1.0010 1.0010 1.0000
1026.393879 1.0000 0.9980 0.9970 0.9940 0.9930
1030.744236 0.9890 0.9850 0.9830 0.9800 0.9780
1035.094594 0.9710 0.9670 0.9600 0.9560 0.9530
1039.444951 0.9520 0.9520 0.9550 0.9590 0.9610
1043.795308 0.9660 0.9710 0.9780 0.9800 0.9830
1048.145666 0.9860 0.9870 0.9870 0.9860 0.9850
1052.496023 0.9820 0.9790 0.9790 0.9780 0.9700
1056.846380 0.9630 0.9560 0.9420 0.9330 0.9140
1061.196738 0.8950 0.8810 0.8800 0.8890 0.9080
1065.547095 0.9290 0.9400 0.9530 0.9610 0.9670
1069.897452 0.9740 0.9790 0.9850 0.9870 0.9900
1074.247809 0.9910 0.9910 0.9930 0.9950 0.9970
1078.598167 0.9980 1.0000 1.0010 1.0010 1.0020
1082.948524 1.0020 1.0020 1.0020 1.0010 1.0010
1087.298881 1.0000 1.0000 0.9980 0.9970 0.9940
1091.649239 0.9910 0.9890 0.9830 0.9820 0.9750
1095.999596 0.9600 0.9520 0.9300 0.9150 0.9140
1100.349953 0.9290 0.9490 0.9640 0.9740 0.9800
1104.700310 0.9820 0.9820 0.9800 0.9790 0.9800
1109.050668 0.9830 0.9870 0.9910 0.9950 0.9950
1113.401025 0.9930 0.9910 0.9860 0.9850 0.9790
1117.751382 0.9760 0.9660 0.9520 0.9400 0.9220
1122.101740 0.9130 0.9110 0.9140 0.9290 0.9530
1126.452097 0.9610 0.9630 0.9630 0.9630 0.9630
1130.802454 0.9600 0.9570 0.9530 0.9450 0.9410
1135.152811 0.9360 0.9320 0.9230 0.9130 0.8961
1139.503169 0.8829 0.8569 0.8309 0.7920 0.7580
1143.853526 0.7300 0.6830 0.6261 0.5821 0.5361
1148.203883 0.4929 0.4630 0.4610 0.4630 0.4790
1152.554241 0.4950 0.5120 0.5250 0.6268 0.7178
1156.904598 0.7541 0.8010 0.8340 0.8610 0.8800
1161.254955 0.9000 0.9170 0.9290 0.9370 0.9480
1165.605313 0.9550 0.9590 0.9630 0.9630 0.9640
1169.955670 0.9660 0.9660 0.9640 0.9630 0.9630
1174.306027 0.9610 0.9590 0.9560 0.9470 0.9320
1178.656384 0.9190 0.9170 0.8980 0.8421 0.8151
1183.006742 0.7920 0.7921 0.8360 0.8690 0.9130
1187.357099 0.9140 0.9140 0.9130 0.9020 0.8890
1191.707456 0.8750 0.8660 0.8570 0.8540 0.8430
1196.057814 0.8310 0.8150 0.8130 0.8150 0.8260
1200.408171 0.8460 0.8650 0.8810 0.8920 0.8980
1204.758528 0.9100 0.9180 0.9320 0.9360 0.9400
1209.108885 0.9400 0.9410 0.9410 0.9380 0.9300
1213.459243 0.9180 0.9100 0.8960 0.8880 0.8750
1217.809600 0.8680 0.8530 0.8460 0.8280 0.8110
1222.159957 0.7970 0.7860 0.7810 0.7730 0.7441
1226.510315 0.7259 0.7050 0.6969 0.6630 0.6630
1230.860672 0.7020 0.7250 0.7410 0.8079 0.8828
1235.211029 0.9101 0.9320 0.9450 0.9550 0.9600
1239.561386 0.9660 0.9710 0.9790 0.9820 0.9850
1243.911744 0.9870 0.9890 0.9900 0.9900 0.9910
1248.262101 0.9910 0.9910 0.9910 0.9910 0.9900
1252.612458 0.9870 0.9870 0.9860 0.9830 0.9800
1256.962816 0.9780 0.9750 0.9720 0.9710 0.9660
1261.313173 0.9570 0.9470 0.9380 0.9340 0.9290
1265.663530 0.9260 0.9210 0.9150 0.9130 0.9130
1270.013888 0.9110 0.9080 0.9070 0.9060 0.9060
1274.364245 0.9060 0.9040 0.9040 0.9060 0.9070
1278.714602 0.9110 0.9150 0.9190 0.9220 0.9260
1283.064959 0.9300 0.9330 0.9340 0.9340 0.9340
1287.415317 0.9330 0.9320 0.9230 0.9210 0.9180
1291.765674 0.9150 0.9140 0.9140 0.9130 0.9130
1296.116031 0.9110 0.9030 0.9000 0.8990 0.8850
1300.466389 0.8410 0.8090 0.8090 0.8649 0.9029
1304.816746 0.9140 0.9171 0.9420 0.9610 0.9700
1309.167103 0.9710 0.9720 0.9720 0.9720 0.9720
1313.517460 0.9720 0.9720 0.9720 0.9740 0.9740
1317.867818 0.9760 0.9760 0.9760 0.9780 0.9780
1322.218175 0.9780 0.9780 0.9760 0.9760 0.9760
1326.568532 0.9750 0.9750 0.9740 0.9740 0.9740
1330.918890 0.9740 0.9750 0.9750 0.9780 0.9790
1335.269247 0.9800 0.9800 0.9800 0.9800 0.9790
1339.619604 0.9790 0.9780 0.9760 0.9740 0.9720
1343.969961 0.9710 0.9700 0.9680 0.9680 0.9670
1348.320319 0.9640 0.9610 0.9610 0.9570 0.9470
1352.670676 0.9370 0.9340 0.9340 0.9370 0.9560
1357.021033 0.9560 0.9570 0.9570 0.9570 0.9570
1361.371391 0.9570 0.9560 0.9530 0.9510 0.9510
1365.721748 0.9490 0.9490 0.9490 0.9480 0.9470
1370.072105 0.9470 0.9450 0.9440 0.9440 0.9410
1374.422463 0.9380 0.9340 0.9260 0.9210 0.9130
1378.772820 0.8950 0.8790 0.8640 0.8171 0.7661
1383.123177 0.7519 0.7170 0.7100 0.7100 0.7250
1387.473534 0.7730 0.8310 0.8729 0.8950 0.9130
1391.823892 0.9320 0.9360 0.9400 0.9450 0.9630
1396.174249 0.9640 0.9640 0.9640 0.9640 0.9640
1400.524606 0.9640 0.9660 0.9660 0.9640 0.9640
1404.874964 0.9640 0.9640 0.9630 0.9610 0.9570
1409.225321 0.9560 0.9560 0.9530 0.9490 0.9470
1413.575678 0.9440 0.9420 0.9400 0.9360 0.9330
1417.926035 0.9220 0.9170 0.9030 0.8950 0.8790
1422.276393 0.8580 0.8540 0.8580 0.8620 0.8680
1426.626750 0.8690 0.8690 0.8660 0.8620 0.8490
1430.977107 0.8340 0.7900 0.7280 0.7010 0.5762
1435.327465 0.4950 0.4951 0.5320 0.5350 0.5390
1439.677822 0.5400 0.5510 0.5990 0.7128 0.7539
1444.028179 0.7770 0.7900 0.7940 0.7960 0.7960
1448.378536 0.7940 0.7920 0.7900 0.7790 0.7670
1452.728894 0.7399 0.7169 0.6939 0.6529 0.6190
1457.079251 0.6040 0.5960 0.5920 0.5910 0.5860
1461.429608 0.5820 0.5780 0.5760 0.5630 0.5320
1465.779966 0.5321 0.7050 0.7070 0.7430 0.7809
1470.130323 0.8111 0.8390 0.8600 0.8700 0.8810
1474.480680 0.8890 0.8910 0.8910 0.8940 0.8990
1478.831038 0.9020 0.9030 0.9030 0.9030 0.9020
1483.181395 0.9000 0.9000 0.9000 0.8980 0.8950
1487.531752 0.8940 0.8920 0.8910 0.8890 0.8840
1491.882109 0.8800 0.8790 0.8750 0.8720 0.8700
1496.232467 0.8680 0.8610 0.8530 0.8490 0.8490
1500.582824 0.8420 0.8360 0.8310 0.8270 0.8230
1504.933181 0.8170 0.8120 0.8050 0.7940 0.7850
1509.283539 0.7810 0.7790 0.7780 0.7740 0.7660
1513.633896 0.7580 0.7520 0.7480 0.7440 0.7390
1517.984253 0.7330 0.7280 0.7260 0.7220 0.7170
1522.334610 0.7110 0.7060 0.7020 0.6990 0.6950
1526.684968 0.6910 0.6860 0.6750 0.6680 0.6640
1531.035325 0.6570 0.6480 0.6350 0.6200 0.6050
1535.385682 0.5890 0.5820 0.5780 0.5760 0.5610
1539.736040 0.5440 0.5330 0.5240 0.5120 0.5010
1544.086397 0.4980 0.4900 0.4830 0.4780 0.4710
1548.436754 0.4700 0.4680 0.4680 0.4700 0.4710
1552.787111 0.4740 0.4780 0.4830 0.4940 0.5010
1557.137469 0.5040 0.5160 0.5250 0.5500 0.5540
1561.487826 0.5570 0.5590 0.5650 0.5740 0.5890
1565.838183 0.6040 0.6110 0.6220 0.6330 0.6450
1570.188541 0.6500 0.6570 0.6600 0.6630 0.6640
1574.538898 0.6690 0.6750 0.6770 0.6800 0.6820
1578.889255 0.6820 0.6830 0.6840 0.6870 0.6920
1583.239613 0.6940 0.6940 0.6950 0.6970 0.6990
1587.589970 0.7060 0.7100 0.7220 0.7250 0.7330
1591.940327 0.7410 0.7510 0.7600 0.7660 0.7750
1596.290684 0.7790 0.7920 0.8040 0.8130 0.8170
1600.641042 0.8300 0.8390 0.8500 0.8640 0.8720
1604.991399 0.8750 0.8810 0.8870 0.8920 0.8960
1609.341756 0.9000 0.9100 0.9100 0.9140 0.9190
1613.692114 0.9210 0.9220 0.9300 0.9340 0.9380
1618.042471 0.9400 0.9410 0.9410 0.9410 0.9420
1622.392828 0.9470 0.9480 0.9510 0.9530 0.9530
1626.743185 0.9550 0.9550 0.9550 0.9530 0.9530
1631.093543 0.9530 0.9530 0.9530 0.9530 0.9550
1635.443900 0.9550 0.9530 0.9520 0.9510 0.9510
1639.794257 0.9490 0.9490 0.9490 0.9480 0.9480
1644.144615 0.9490 0.9520 0.9530 0.9590 0.9600
1648.494972 0.9590 0.9570 0.9590 0.9600 0.9640
1652.845329 0.9670 0.9700 0.9700 0.9700 0.9710
1657.195686 0.9700 0.9700 0.9700 0.9700 0.9700
1661.546044 0.9700 0.9710 0.9720 0.9740 0.9760
1665.896401 0.9760 0.9760 0.9790 0.9790 0.9790
1670.246758 0.9760 0.9760 0.9750 0.9760 0.9780
1674.597116 0.9800 0.9820 0.9820 0.9820 0.9800
1678.947473 0.9800 0.9790 0.9800 0.9820 0.9830
1683.297830 0.9830 0.9850 0.9850 0.9830 0.9850
1687.648188 0.9850 0.9850 0.9860 0.9870 0.9860
1691.998545 0.9860 0.9850 0.9860 0.9890 0.9890
1696.348902 0.9910 0.9910 0.9910 0.9930 0.9950
1700.699259 0.9950 0.9940 0.9930 0.9910 0.9900
1705.049617 0.9910 0.9910 0.9900 0.9900 0.9900
1709.399974 0.9900 0.9890 0.9890 0.9890 0.9900
1713.750331 0.9900 0.9940 0.9940 0.9900 0.9890
1718.100689 0.9870 0.9870 0.9870 0.9890 0.9900
1722.451046 0.9930 0.9910 0.9910 0.9900 0.9900
1726.801403 0.9900 0.9900 0.9900 0.9900 0.9900
1731.151760 0.9900 0.9910 0.9940 0.9950 0.9950
1735.502118 0.9930 0.9910 0.9910 0.9930 0.9940
1739.852475 0.9940 0.9940 0.9930 0.9930 0.9930
1744.202832 0.9910 0.9910 0.9910 0.9900 0.9900
1748.553190 0.9900 0.9890 0.9890 0.9900 0.9910
1752.903547 0.9910 0.9900 0.9900 0.9900 0.9900
1757.253904 0.9910 0.9910 0.9910 0.9900 0.9900
1761.604261 0.9900 0.9910 0.9910 0.9900 0.9900
1765.954619 0.9900 0.9890 0.9890 0.9910 0.9910
1770.304976 0.9930 0.9930 0.9930 0.9930 0.9900
1774.655333 0.9900 0.9900 0.9900 0.9900 0.9900
1779.005691 0.9910 0.9910 0.9930 0.9930 0.9900
1783.356048 0.9890 0.9890 0.9870 0.9870 0.9870
1787.706405 0.9890 0.9900 0.9900 0.9900 0.9910
1792.056763 0.9900 0.9900 0.9890 0.9890 0.9890
1796.407120 0.9890 0.9890 0.9890 0.9890 0.9890
1800.757477 0.9890 0.9870 0.9870 0.9860 0.9860
1805.107834 0.9860 0.9860 0.9860 0.9860 0.9860
1809.458192 0.9860 0.9850 0.9850 0.9850 0.9850
1813.808549 0.9850 0.9860 0.9860 0.9870 0.9870
1818.158906 0.9860 0.9850 0.9850 0.9850 0.9820
1822.509264 0.9820 0.9800 0.9800 0.9800 0.9820
1826.859621 0.9830 0.9830 0.9850 0.9860 0.9860
1831.209978 0.9860 0.9870 0.9870 0.9870 0.9870
1835.560335 0.9860 0.9850 0.9830 0.9830 0.9830
1839.910693 0.9820 0.9820 0.9820 0.9820 0.9820
1844.261050 0.9820 0.9820 0.9820 0.9820 0.9830
1848.611407 0.9830 0.9830 0.9820 0.9820 0.9820
1852.961765 0.9820 0.9820 0.9830 0.9830 0.9830
1857.312122 0.9830 0.9830 0.9830 0.9830 0.9830
1861.662479 0.9860 0.9860 0.9850 0.9850 0.9830
1866.012836 0.9830 0.9830 0.9830 0.9830 0.9850
1870.363194 0.9850 0.9850 0.9850 0.9850 0.9850
1874.713551 0.9850 0.9850 0.9860 0.9860 0.9860
1879.063908 0.9860 0.9870 0.9890 0.9900 0.9900
1883.414266 0.9890 0.9890 0.9890 0.9890 0.9890
1887.764623 0.9890 0.9890 0.9890 0.9900 0.9900
1892.114980 0.9910 0.9910 0.9910 0.9910 0.9910
1896.465338 0.9910 0.9910 0.9910 0.9910 0.9900
1900.815695 0.9900 0.9910 0.9900 0.9900 0.9900
1905.166052 0.9900 0.9900 0.9910 0.9910 0.9910
1909.516409 0.9910 0.9910 0.9910 0.9930 0.9930
1913.866767 0.9930 0.9910 0.9910 0.9910 0.9910
1918.217124 0.9900 0.9900 0.9900 0.9900 0.9910
1922.567481 0.9910 0.9910 0.9930 0.9930 0.9930
1926.917839 0.9930 0.9930 0.9930 0.9930 0.9930
1931.268196 0.9930 0.9930 0.9930 0.9910 0.9910
1935.618553 0.9910 0.9910 0.9910 0.9910 0.9910
1939.968910 0.9910 0.9910 0.9910 0.9910 0.9910
1944.319268 0.9910 0.9910 0.9910 0.9910 0.9910
1948.669625 0.9910 0.9910 0.9910 0.9910 0.9910
1953.019982 0.9910 0.9910 0.9910 0.9910 0.9910
1957.370340 0.9910 0.9910 0.9910 0.9910 0.9910
1961.720697 0.9910 0.9910 0.9910 0.9910 0.9900
1966.071054 0.9900 0.9900 0.9910 0.9910 0.9910
1970.421411 0.9910 0.9910 0.9910 0.9910 0.9910
1974.771769 0.9910 0.9910 0.9910 0.9900 0.9900
1979.122126 0.9900 0.9900 0.9900 0.9900 0.9900
1983.472483 0.9870 0.9870 0.9870 0.9870 0.9870
1987.822841 0.9870 0.9870 0.9870 0.9870 0.9870
1992.173198 0.9870 0.9870 0.9860 0.9860 0.9850
1996.523555 0.9830 0.9830 0.9830 0.9850 0.9850
2000.873913 0.9860 0.9870 0.9870 0.9870 0.9870
2005.224270 0.9870 0.9870 0.9870 0.9870 0.9870
2009.574627 0.9870 0.9870 0.9870 0.9870 0.9870
2013.924984 0.9870 0.9870 0.9870 0.9881 0.9890
2018.275342 0.9890 0.9890 0.9895 0.9900 0.9905
2022.625699 0.9910 0.9910 0.9911 0.9926 0.9940
2026.976056 0.9940 0.9940 0.9945 0.9950 0.9950
2031.326414 0.9950 0.9950 0.9949 0.9944 0.9940
2035.676771 0.9940 0.9941 0.9946 0.9950 0.9950
2040.027128 0.9951 0.9961 0.9970 0.9970 0.9970
2044.377485 0.9970 0.9970 0.9970 0.9970 0.9970
2048.727843 0.9968 0.9958 0.9950 0.9950 0.9950
2053.078200 0.9950 0.9950 0.9950 0.9950 0.9950
2057.428557 0.9952 0.9962 0.9970 0.9970 0.9970
2061.778915 0.9970 0.9970 0.9970 0.9970 0.9970
2066.129272 0.9970 0.9970 0.9970 0.9970 0.9970
2070.479629 0.9970 0.9970 0.9970 0.9970 0.9970
2074.829986 0.9970 0.9970 0.9970 0.9970 0.9970
2079.180344 0.9970 0.9970 0.9970 0.9970 0.9970
2083.530701 0.9967 0.9957 0.9950 0.9950 0.9950
2087.881058 0.9950 0.9950 0.9950 0.9950 0.9950
2092.231416 0.9948 0.9943 0.9938 0.9933 0.9930
2096.581773 0.9930 0.9930 0.9930 0.9930 0.9930
2100.932130 0.9930 0.9930 0.9930 0.9930 0.9926
2105.282488 0.9916 0.9910 0.9910 0.9910 0.9910
2109.632845 0.9914 0.9924 0.9932 0.9937 0.9940
2113.983202 0.9940 0.9940 0.9940 0.9940 0.9940
2118.333559 0.9940 0.9940 0.9940 0.9940 0.9942
2122.683917 0.9947 0.9948 0.9943 0.9940 0.9940
2127.034274 0.9940 0.9940 0.9940 0.9940 0.9940
2131.384631 0.9940 0.9942 0.9947 0.9950 0.9950
2135.734989 0.9955 0.9965 0.9970 0.9970 0.9970
2140.085346 0.9970 0.9965 0.9955 0.9947 0.9942
2144.435703 0.9940 0.9940 0.9940 0.9940 0.9940
2148.786060 0.9940 0.9940 0.9940 0.9940 0.9940
2153.136418 0.9940 0.9940 0.9932 0.9917 0.9910
2157.486775 0.9910 0.9910 0.9910 0.9910 0.9910
2161.837132 0.9910 0.9910 0.9910 0.9910 0.9910
2166.187490 0.9910 0.9910 0.9910 0.9910 0.9910
2170.537847 0.9910 0.9910 0.9910 0.9910 0.9910
2174.888204 0.9910 0.9910 0.9910 0.9910 0.9910
2179.238561 0.9910 0.9910 0.9910 0.9910 0.9910
2183.588919 0.9910 0.9910 0.9910 0.9910 0.9910
2187.939276 0.9910 0.9910 0.9907 0.9902 0.9900
2192.289633 0.9900 0.9903 0.9908 0.9910 0.9910
2196.639991 0.9910 0.9910 0.9910 0.9910 0.9910
2200.990348 0.9910 0.9910 0.9910 0.9910 0.9910
2205.340705 0.9906 0.9901 0.9900 0.9900 0.9900
2209.691063 0.9900 0.9900 0.9900 0.9896 0.9891
2214.041420 0.9890 0.9890 0.9890 0.9890 0.9890
2218.391777 0.9890 0.9890 0.9890 0.9882 0.9872
2222.742134 0.9866 0.9861 0.9860 0.9860 0.9860
2227.092492 0.9860 0.9856 0.9851 0.9850 0.9850
2231.442849 0.9838 0.9823 0.9812 0.9802 0.9796
2235.793206 0.9791 0.9790 0.9790 0.9786 0.9781
2240.143564 0.9780 0.9780 0.9772 0.9761 0.9760
2244.493921 0.9760 0.9760 0.9760 0.9760 0.9760
2248.844278 0.9760 0.9760 0.9760 0.9760 0.9760
2253.194635 0.9760 0.9760 0.9760 0.9760 0.9760
2257.544993 0.9760 0.9760 0.9760 0.9760 0.9760
2261.895350 0.9760 0.9760 0.9760 0.9751 0.9741
2266.245707 0.9731 0.9721 0.9715 0.9710 0.9710
2270.596065 0.9710 0.9705 0.9700 0.9690 0.9680
2274.946422 0.9675 0.9670 0.9670 0.9670 0.9670
2279.296779 0.9670 0.9670 0.9670 0.9665 0.9660
2283.647136 0.9660 0.9660 0.9650 0.9640 0.9640
2287.997494 0.9640 0.9635 0.9630 0.9630 0.9630
2292.347851 0.9620 0.9610 0.9610 0.9610 0.9605
2296.698208 0.9600 0.9600 0.9600 0.9605 0.9611
2301.048566 0.9621 0.9630 0.9630 0.9630 0.9635
2305.398923 0.9641 0.9651 0.9660 0.9660 0.9660
2309.749280 0.9665 0.9670 0.9675 0.9680 0.9680
2314.099638 0.9681 0.9691 0.9700 0.9700 0.9701
2318.449995 0.9706 0.9711 0.9716 0.9720 0.9720
2322.800352 0.9721 0.9731 0.9740 0.9740 0.9741
2327.150709 0.9746 0.9751 0.9756 0.9760 0.9760
2331.501067 0.9760 0.9760 0.9760 0.9760 0.9762
2335.851424 0.9772 0.9780 0.9780 0.9780 0.9780
2340.201781 0.9781 0.9786 0.9790 0.9790 0.9790
2344.552139 0.9790 0.9790 0.9790 0.9790 0.9790
2348.902496 0.9791 0.9796 0.9800 0.9800 0.9800
2353.252853 0.9800 0.9800 0.9800 0.9800 0.9800
2357.603210 0.9800 0.9800 0.9800 0.9800 0.9800
2361.953568 0.9800 0.9803 0.9813 0.9820 0.9820
2366.303925 0.9820 0.9820 0.9820 0.9820 0.9820
2370.654282 0.9820 0.9820 0.9820 0.9820 0.9820
2375.004640 0.9822 0.9827 0.9830 0.9830 0.9833
2379.354997 0.9843 0.9850 0.9850 0.9852 0.9857
2383.705354 0.9862 0.9867 0.9870 0.9870 0.9870
2388.055711 0.9870 0.9870 0.9870 0.9870 0.9870
2392.406069 0.9870 0.9870 0.9870 0.9870 0.9870
2396.756426 0.9870 0.9870 0.9870 0.9870 0.9870
2401.106783 0.9870 0.9870 0.9870 0.9870 0.9870
2405.457141 0.9870 0.9874 0.9884 0.9890 0.9890
2409.807498 0.9890 0.9890 0.9890 0.9890 0.9890
2414.157855 0.9890 0.9890 0.9890 0.9890 0.9890
2418.508213 0.9885 0.9875 0.9870 0.9870 0.9870
2422.858570 0.9870 0.9875 0.9885 0.9890 0.9890
2427.208927 0.9892 0.9898 0.9903 0.9908 0.9910
2431.559284 0.9910 0.9910 0.9910 0.9910 0.9910
2435.909642 0.9907 0.9902 0.9900 0.9900 0.9897
2440.259999 0.9892 0.9884 0.9874 0.9870 0.9870
2444.610356 0.9870 0.9870 0.9870 0.9870 0.9870
2448.960714 0.9870 0.9870 0.9870 0.9870 0.9870
2453.311071 0.9870 0.9870 0.9870 0.9870 0.9876
2457.661428 0.9886 0.9893 0.9898 0.9900 0.9900
2462.011785 0.9903 0.9908 0.9910 0.9910 0.9910
2466.362143 0.9910 0.9916 0.9927 0.9930 0.9930
2470.712500 0.9930 0.9930 0.9930 0.9930 0.9930
2475.062857 0.9930 0.9930 0.9930 0.9930 0.9930
2479.413215 0.9930 0.9930 0.9923 0.9913 0.9907
2483.763572 0.9902 0.9900 0.9900 0.9900 0.9900
2488.113929 0.9900 0.9900 0.9900 0.9900 0.9900
2492.464286 0.9900 0.9900 0.9900 0.9900 0.9900
2496.814644 0.9900 0.9900 0.9900 0.9900 0.9900
2501.165001 0.9900 0.9904 0.9909 0.9910 0.9910
2505.515358 0.9910 0.9910 0.9910 0.9910 0.9906
2509.865716 0.9901 0.9900 0.9900 0.9896 0.9891
2514.216073 0.9890 0.9890 0.9890 0.9890 0.9894
2518.566430 0.9899 0.9900 0.9900 0.9904 0.9909
2522.916788 0.9918 0.9928 0.9930 0.9930 0.9930
2527.267145 0.9930 0.9921 0.9911 0.9910 0.9910
2531.617502 0.9910 0.9910 0.9910 0.9910 0.9910
2535.967859 0.9910 0.9910 0.9910 0.9910 0.9910
2540.318217 0.9910 0.9910 0.9910 0.9910 0.9910
2544.668574 0.9910 0.9919 0.9929 0.9930 0.9930
2549.018931 0.9921 0.9911 0.9910 0.9910 0.9905
2553.369289 0.9900 0.9900 0.9900 0.9900 0.9900
2557.719646 0.9900 0.9900 0.9905 0.9910 0.9910
2562.070003 0.9910 0.9910 0.9910 0.9910 0.9910
2566.420360 0.9910 0.9910 0.9910 0.9910 0.9910
2570.770718 0.9910 0.9910 0.9910 0.9905 0.9900
2575.121075 0.9900 0.9900 0.9900 0.9900 0.9900
2579.471432 0.9900 0.9900 0.9900 0.9900 0.9900
2583.821790 0.9900 0.9900 0.9900 0.9900 0.9900
2588.172147 0.9900 0.9895 0.9890 0.9890 0.9890
2592.522504 0.9890 0.9890 0.9890 0.9890 0.9890
2596.872861 0.9890 0.9890 0.9890 0.9890 0.9890
2601.223219 0.9890 0.9890 0.9890 0.9890 0.9890
2605.573576 0.9890 0.9890 0.9890 0.9890 0.9890
2609.923933 0.9890 0.9891 0.9896 0.9901 0.9906
2614.274291 0.9910 0.9910 0.9910 0.9910 0.9910
2618.624648 0.9910 0.9910 0.9910 0.9909 0.9904
2622.975005 0.9900 0.9900 0.9900 0.9900 0.9900
2627.325363 0.9900 0.9900 0.9900 0.9900 0.9900
2631.675720 0.9899 0.9894 0.9890 0.9890 0.9890
2636.026077 0.9890 0.9890 0.9890 0.9890 0.9890
2640.376434 0.9888 0.9877 0.9870 0.9870 0.9870
2644.726792 0.9870 0.9870 0.9870 0.9870 0.9870
2649.077149 0.9870 0.9870 0.9870 0.9870 0.9870
2653.427506 0.9870 0.9870 0.9870 0.9870 0.9870
2657.777864 0.9870 0.9870 0.9870 0.9870 0.9870
2662.128221 0.9870 0.9870 0.9870 0.9870 0.9870
2666.478578 0.9873 0.9883 0.9890 0.9890 0.9890
2670.828935 0.9890 0.9892 0.9897 0.9900 0.9900
2675.179293 0.9900 0.9900 0.9900 0.9900 0.9900
2679.529650 0.9900 0.9900 0.9900 0.9898 0.9893
2683.880007 0.9890 0.9890 0.9886 0.9876 0.9870
2688.230365 0.9870 0.9870 0.9870 0.9870 0.9870
2692.580722 0.9870 0.9870 0.9870 0.9870 0.9870
2696.931079 0.9870 0.9868 0.9863 0.9860 0.9860
2701.281436 0.9860 0.9860 0.9858 0.9853 0.9850
2705.631794 0.9850 0.9850 0.9850 0.9850 0.9850
2709.982151 0.9850 0.9850 0.9850 0.9850 0.9850
2714.332508 0.9850 0.9850 0.9850 0.9850 0.9850
2718.682866 0.9853 0.9858 0.9863 0.9868 0.9870
2723.033223 0.9870 0.9865 0.9855 0.9850 0.9850
2727.383580 0.9844 0.9834 0.9827 0.9822 0.9808
2731.733938 0.9788 0.9774 0.9764 0.9760 0.9760
2736.084295 0.9766 0.9776 0.9780 0.9780 0.9780
2740.434652 0.9780 0.9780 0.9780 0.9783 0.9788
2744.785009 0.9793 0.9798 0.9806 0.9816 0.9823
2749.135367 0.9828 0.9830 0.9830 0.9830 0.9830
2753.485724 0.9830 0.9830 0.9830 0.9830 0.9830
2757.836081 0.9830 0.9830 0.9830 0.9830 0.9830
2762.186439 0.9827 0.9822 0.9820 0.9820 0.9820
2766.536796 0.9820 0.9824 0.9829 0.9837 0.9847
2770.887153 0.9854 0.9859 0.9860 0.9860 0.9860
2775.237510 0.9860 0.9856 0.9851 0.9850 0.9850
2779.587868 0.9843 0.9832 0.9830 0.9830 0.9826
2783.938225 0.9821 0.9820 0.9820 0.9820 0.9820
2788.288582 0.9820 0.9820 0.9820 0.9820 0.9812
2792.638940 0.9802 0.9800 0.9800 0.9800 0.9800
2796.989297 0.9796 0.9791 0.9790 0.9790 0.9790
2801.339654 0.9790 0.9778 0.9763 0.9760 0.9760
2805.690012 0.9760 0.9760 0.9752 0.9742 0.9740
2810.040369 0.9740 0.9727 0.9712 0.9697 0.9682
2814.390726 0.9680 0.9680 0.9662 0.9642 0.9636
2818.741083 0.9631 0.9617 0.9602 0.9587 0.9572
2823.091441 0.9570 0.9570 0.9570 0.9570 0.9570
2827.441798 0.9570 0.9570 0.9570 0.9565 0.9560
2831.792155 0.9546 0.9531 0.9511 0.9491 0.9471
2836.142513 0.9451 0.9426 0.9401 0.9390 0.9380
2840.492870 0.9322 0.9262 0.9207 0.9152 0.9092
2844.843227 0.9032 0.8972 0.8912 0.8725 0.8534
2849.193584 0.8530 0.8530 0.8565 0.8601 0.8706
2853.543942 0.8811 0.8906 0.9001 0.9071 0.9141
2857.894299 0.9186 0.9230 0.9245 0.9260 0.9260
2862.244656 0.9260 0.9245 0.9229 0.9199 0.9169
2866.595014 0.9149 0.9128 0.9103 0.9075 0.9005
2870.945371 0.8935 0.8870 0.8794 0.8584 0.8382
2875.295728 0.8287 0.8180 0.7945 0.7699 0.7343
2879.646085 0.7020 0.7020 0.7043 0.7284 0.7535
2883.996443 0.7884 0.8205 0.8325 0.8442 0.8532
2888.346800 0.8613 0.8638 0.8666 0.8711 0.8753
2892.697157 0.8773 0.8791 0.8796 0.8799 0.8794
2897.047515 0.8790 0.8790 0.8788 0.8773 0.8757
2901.397872 0.8736 0.8716 0.8696 0.8668 0.8603
2905.748229 0.8549 0.8544 0.8536 0.8516 0.8482
2910.098587 0.8392 0.8288 0.8133 0.7973 0.7798
2914.448944 0.7637 0.7532 0.7419 0.7279 0.7152
2918.799301 0.7071 0.7010 0.7010 0.7026 0.7091
2923.149658 0.7167 0.7272 0.7366 0.7426 0.7475
2927.500016 0.7495 0.7510 0.7510 0.7496 0.7446
2931.850373 0.7358 0.7167 0.6994 0.6863 0.6695
2936.200730 0.6432 0.6227 0.6152 0.6100 0.6100
2940.551088 0.6179 0.6430 0.6685 0.6951 0.7156
2944.901445 0.7236 0.7321 0.7417 0.7500 0.7560
2949.251802 0.7632 0.7727 0.7793 0.7803 0.7805
2953.602159 0.7790 0.7767 0.7732 0.7682 0.7607
2957.952517 0.7551 0.7525 0.7437 0.7247 0.7072
2962.302874 0.6922 0.6736 0.6496 0.6237 0.5952
2966.653231 0.5614 0.5198 0.4801 0.4430 0.4056
2971.003589 0.3676 0.3458 0.3453 0.3452 0.3457
2975.353946 0.3469 0.3489 0.3533 0.3608 0.3744
2979.704303 0.3954 0.4174 0.4404 0.4699 0.5069
2984.054660 0.5419 0.5745 0.6064 0.6374 0.6670
2988.405018 0.6948 0.7240 0.7546 0.7802 0.8007
2992.755375 0.8195 0.8365 0.8493 0.8578 0.8648
2997.105732 0.8703 0.8761 0.8821 0.8886 0.8956
3001.456090 0.9021 0.9081 0.9142 0.9202 0.9257
3005.806447 0.9307 0.9349 0.9384 0.9406 0.9416
3010.156804 0.9440 0.9475 0.9507 0.9537 0.9553
3014.507162 0.9558 0.9560 0.9560 0.9563 0.9568
3018.857519 0.9579 0.9594 0.9603 0.9608 0.9619
3023.207876 0.9634 0.9646 0.9656 0.9660 0.9660
3027.558233 0.9660 0.9660 0.9666 0.9676 0.9680
3031.908591 0.9680 0.9686 0.9696 0.9700 0.9700
3036.258948 0.9703 0.9708 0.9710 0.9710 0.9710
3040.609305 0.9710 0.9710 0.9710 0.9710 0.9710
3044.959663 0.9710 0.9710 0.9713 0.9718 0.9727
3049.310020 0.9737 0.9740 0.9740 0.9744 0.9749
3053.660377 0.9750 0.9750 0.9750 0.9750 0.9750
3058.010734 0.9750 0.9750 0.9750 0.9750 0.9750
3062.361092 0.9750 0.9750 0.9750 0.9750 0.9750
3066.711449 0.9750 0.9750 0.9750 0.9750 0.9750
3071.061806 0.9750 0.9750 0.9754 0.9759 0.9760
3075.412164 0.9760 0.9760 0.9760 0.9768 0.9778
3079.762521 0.9784 0.9789 0.9790 0.9790 0.9802
3084.112878 0.9817 0.9820 0.9820 0.9820 0.9820
3088.463235 0.9812 0.9802 0.9800 0.9800 0.9800
3092.813593 0.9800 0.9800 0.9800 0.9800 0.9800
3097.163950 0.9800 0.9800 0.9809 0.9819 0.9820
3101.514307 0.9820 0.9820 0.9820 0.9820 0.9820
3105.864665 0.9820 0.9820 0.9820 0.9820 0.9820
3110.215022 0.9820 0.9806 0.9791 0.9790 0.9790
3114.565379 0.9795 0.9800 0.9800 0.9800 0.9809
3118.915737 0.9819 0.9820 0.9820 0.9825 0.9830
3123.266094 0.9830 0.9830 0.9830 0.9830 0.9830
3127.616451 0.9830 0.9830 0.9830 0.9830 0.9830
3131.966808 0.9825 0.9820 0.9820 0.9820 0.9820
3136.317166 0.9820 0.9810 0.9800 0.9800 0.9800
3140.667523 0.9795 0.9790 0.9790 0.9790 0.9790
3145.017880 0.9790 0.9790 0.9790 0.9790 0.9790
3149.368238 0.9790 0.9790 0.9790 0.9790 0.9795
3153.718595 0.9800 0.9800 0.9800 0.9800 0.9800
3158.068952 0.9795 0.9790 0.9790 0.9790 0.9790
3162.419309 0.9790 0.9790 0.9789 0.9784 0.9780
3166.769667 0.9780 0.9779 0.9769 0.9760 0.9760
3171.120024 0.9760 0.9760 0.9760 0.9760 0.9760
3175.470381 0.9760 0.9760 0.9760 0.9760 0.9760
3179.820739 0.9760 0.9760 0.9760 0.9760 0.9760
3184.171096 0.9760 0.9760 0.9760 0.9760 0.9760
3188.521453 0.9760 0.9760 0.9760 0.9760 0.9760
3192.871810 0.9760 0.9760 0.9760 0.9760 0.9760
3197.222168 0.9760 0.9760 0.9760 0.9760 0.9760
3201.572525 0.9760 0.9760 0.9760 0.9760 0.9760
3205.922882 0.9760 0.9760 0.9760 0.9760 0.9760
3210.273240 0.9760 0.9759 0.9754 0.9750 0.9750
3214.623597 0.9750 0.9750 0.9750 0.9750 0.9750
3218.973954 0.9750 0.9748 0.9743 0.9740 0.9740
3223.324312 0.9740 0.9740 0.9740 0.9740 0.9740
3227.674669 0.9740 0.9740 0.9740 0.9737 0.9727
3232.025026 0.9720 0.9720 0.9720 0.9720 0.9720
3236.375383 0.9720 0.9720 0.9720 0.9718 0.9713
3240.725741 0.9710 0.9710 0.9710 0.9710 0.9710
3245.076098 0.9710 0.9710 0.9710 0.9710 0.9710
3249.426455 0.9710 0.9710 0.9710 0.9710 0.9710
3253.776813 0.9710 0.9710 0.9710 0.9710 0.9710
3258.127170 0.9710 0.9710 0.9710 0.9710 0.9710
3262.477527 0.9710 0.9710 0.9710 0.9710 0.9710
3266.827884 0.9710 0.9710 0.9710 0.9710 0.9710
3271.178242 0.9710 0.9710 0.9710 0.9710 0.9710
3275.528599 0.9710 0.9710 0.9710 0.9710 0.9710
3279.878956 0.9710 0.9710 0.9710 0.9710 0.9710
3284.229314 0.9710 0.9710 0.9710 0.9710 0.9707
3288.579671 0.9702 0.9700 0.9700 0.9700 0.9700
3292.930028 0.9700 0.9700 0.9700 0.9700 0.9700
3297.280385 0.9700 0.9700 0.9700 0.9694 0.9684
3301.630743 0.9677 0.9672 0.9670 0.9670 0.9670
3305.981100 0.9670 0.9670 0.9670 0.9670 0.9670
3310.331457 0.9667 0.9662 0.9660 0.9660 0.9660
3314.681815 0.9660 0.9660 0.9660 0.9660 0.9660
3319.032172 0.9663 0.9668 0.9670 0.9670 0.9673
3323.382529 0.9678 0.9680 0.9680 0.9680 0.9680
3327.732887 0.9677 0.9672 0.9670 0.9670 0.9667
3332.083244 0.9662 0.9660 0.9660 0.9653 0.9643
3336.433601 0.9640 0.9640 0.9636 0.9631 0.9630
3340.783958 0.9630 0.9623 0.9613 0.9610 0.9610
3345.134316 0.9606 0.9601 0.9600 0.9600 0.9600
3349.484673 0.9600 0.9596 0.9591 0.9590 0.9590
3353.835030 0.9590 0.9590 0.9582 0.9572 0.9570
3358.185388 0.9570 0.9570 0.9570 0.9570 0.9570
3362.535745 0.9570 0.9570 0.9570 0.9570 0.9570
3366.886102 0.9570 0.9566 0.9561 0.9548 0.9532
3371.236459 0.9496 0.9456 0.9450 0.9450 0.9446
3375.586817 0.9441 0.9440 0.9440 0.9431 0.9421
3379.937174 0.9420 0.9420 0.9420 0.9420 0.9420
3384.287531 0.9420 0.9420 0.9420 0.9420 0.9420
3388.637889 0.9416 0.9410 0.9410 0.9410 0.9410
3392.988246 0.9410 0.9410 0.9410 0.9410 0.9410
3397.338603 0.9410 0.9410 0.9405 0.9400 0.9400
3401.688960 0.9400 0.9400 0.9400 0.9400 0.9400
3406.039318 0.9400 0.9400 0.9400 0.9400 0.9400
3410.389675 0.9400 0.9400 0.9400 0.9400 0.9400
3414.740032 0.9400 0.9400 0.9400 0.9400 0.9400
3419.090390 0.9400 0.9405 0.9410 0.9410 0.9410
3423.440747 0.9410 0.9410 0.9410 0.9410 0.9415
3427.791104 0.9420 0.9430 0.9441 0.9456 0.9470
3432.141462 0.9475 0.9480 0.9485 0.9490 0.9490
3436.491819 0.9491 0.9506 0.9520 0.9520 0.9520
3440.842176 0.9525 0.9531 0.9541 0.9550 0.9555
3445.192533 0.9560 0.9565 0.9571 0.9581 0.9590
3449.542891 0.9590 0.9591 0.9596 0.9600 0.9600
3453.893248 0.9600 0.9600 0.9602 0.9617 0.9630
3458.243605 0.9630 0.9632 0.9647 0.9661 0.9666
3462.593963 0.9670 0.9670 0.9670 0.9670 0.9670
3466.944320 0.9670 0.9670 0.9670 0.9671 0.9676
3471.294677 0.9680 0.9680 0.9682 0.9692 0.9700
3475.645034 0.9700 0.9701 0.9706 0.9710 0.9710
3479.995392 0.9711 0.9716 0.9720 0.9720 0.9720
3484.345749 0.9720 0.9720 0.9720 0.9720 0.9720
3488.696106 0.9720 0.9720 0.9722 0.9733 0.9740
3493.046464 0.9740 0.9741 0.9746 0.9750 0.9750
3497.396821 0.9751 0.9756 0.9760 0.9760 0.9764
3501.747178 0.9779 0.9790 0.9790 0.9790 0.9790
3506.097535 0.9791 0.9797 0.9800 0.9800 0.9803
3510.447893 0.9813 0.9820 0.9820 0.9822 0.9827
3514.798250 0.9830 0.9830 0.9830 0.9830 0.9830
3519.148607 0.9830 0.9830 0.9830 0.9830 0.9830
3523.498965 0.9830 0.9830 0.9830 0.9830 0.9830
3527.849322 0.9830 0.9834 0.9844 0.9850 0.9850
3532.199679 0.9850 0.9850 0.9850 0.9850 0.9850
3536.550037 0.9850 0.9852 0.9857 0.9860 0.9860
3540.900394 0.9860 0.9860 0.9860 0.9860 0.9860
3545.250751 0.9860 0.9860 0.9860 0.9860 0.9860
3549.601108 0.9862 0.9867 0.9870 0.9870 0.9870
3553.951466 0.9870 0.9870 0.9870 0.9870 0.9870
3558.301823 0.9870 0.9870 0.9870 0.9870 0.9875
3562.652180 0.9885 0.9893 0.9898 0.9900 0.9900
3567.002538 0.9903 0.9908 0.9910 0.9910 0.9907
3571.352895 0.9902 0.9900 0.9900 0.9900 0.9900
3575.703252 0.9900 0.9900 0.9900 0.9900 0.9900
3580.053609 0.9900 0.9900 0.9900 0.9900 0.9900
3584.403967 0.9903 0.9908 0.9910 0.9910 0.9910
3588.754324 0.9910 0.9910 0.9910 0.9907 0.9902
3593.104681 0.9900 0.9900 0.9897 0.9892 0.9890
3597.455039 0.9890 0.9884 0.9874 0.9870 0.9870
3601.805396 0.9876 0.9886 0.9890 0.9890 0.9890
3606.155753 0.9890 0.9883 0.9873 0.9870 0.9870
3610.506110 0.9877 0.9887 0.9893 0.9898 0.9900
3614.856468 0.9900 0.9900 0.9900 0.9900 0.9900
3619.206825 0.9900 0.9900 0.9900 0.9900 0.9900
3623.557182 0.9900 0.9904 0.9909 0.9910 0.9910
3627.907540 0.9910 0.9910 0.9910 0.9910 0.9906
3632.257897 0.9901 0.9900 0.9900 0.9900 0.9900
3636.608254 0.9900 0.9900 0.9904 0.9909 0.9918
3640.958612 0.9928 0.9934 0.9939 0.9952 0.9967
3645.308969 0.9970 0.9970 0.9970 0.9970 0.9962
3649.659326 0.9952 0.9946 0.9941 0.9940 0.9940
3654.009683 0.9936 0.9931 0.9930 0.9930 0.9930
3658.360041 0.9930 0.9930 0.9930 0.9934 0.9939
3662.710398 0.9940 0.9940 0.9940 0.9940 0.9940
3667.060755 0.9940 0.9940 0.9940 0.9940 0.9940
3671.411113 0.9940 0.9940 0.9936 0.9931 0.9930
3675.761470 0.9930 0.9930 0.9930 0.9930 0.9930
3680.111827 0.9930 0.9930 0.9930 0.9930 0.9930
3684.462184 0.9930 0.9930 0.9930 0.9930 0.9930
3688.812542 0.9930 0.9930 0.9935 0.9940 0.9940
3693.162899 0.9940 0.9945 0.9950 0.9950 0.9950
3697.513256 0.9950 0.9950 0.9945 0.9940 0.9940
3701.863614 0.9940 0.9935 0.9930 0.9920 0.9910
3706.213971 0.9910 0.9910 0.9910 0.9910 0.9910
3710.564328 0.9910 0.9905 0.9900 0.9900 0.9900
3714.914685 0.9900 0.9900 0.9900 0.9900 0.9905
3719.265043 0.9911 0.9921 0.9930 0.9930 0.9930
3723.615400 0.9930 0.9930 0.9935 0.9940 0.9945
3727.965757 0.9950 0.9950 0.9951 0.9961 0.9970
3732.316115 0.9975 0.9981 0.9991 1.0000 1.0000
3736.666472 1.0000 1.0000 1.0000 1.0000 1.0000
3741.016829 1.0000 1.0000 1.0000 1.0000 1.0000
3745.367187 1.0000 1.0000 0.9998 0.9988 0.9980
3749.717544 0.9980 0.9979 0.9974 0.9970 0.9970
3754.067901 0.9970 0.9970 0.9968 0.9958 0.9949
3758.418258 0.9944 0.9939 0.9934 0.9930 0.9930
3762.768616 0.9931 0.9936 0.9941 0.9946 0.9952
3767.118973 0.9962 0.9970 0.9970 0.9970 0.9970
3771.469330 0.9970 0.9970 0.9967 0.9957 0.9950
3775.819688 0.9950 0.9949 0.9944 0.9940 0.9940
3780.170045 0.9939 0.9934 0.9930 0.9930 0.9927
3784.520402 0.9917 0.9913 0.9923 0.9942 0.9982
3788.870759 1.0015 1.0030 1.0040 1.0040 1.0037
3793.221117 1.0027 1.0020 1.0020
##END=
