##TITLE=PHENOL, 2-METHYL-4,6-DINITRO-
##JCAMP-DX=4.24
##DATA TYPE=INFRARED SPECTRUM
##CLASS=COBLENTZ III
##ORIGIN=DOW CHEMICAL COMPANY
##OWNER=COBLENTZ SOCIETY
Collection (C) 2018 copyright by the U.S. Secretary of Commerce
on behalf of the United States of America. All rights reserved.
##DATE=1959/03/30
##NAMES=2-methyl-4,6-dinitrophenol
o-CRESOL, 4,6-DINITRO-
##CAS REGISTRY NO=534-52-1
##MOLFORM=C7 H6 N2 O5
##SOURCE REFERENCE=COBLENTZ NO. 10612
##$NIST SOURCE=COBLENTZ
##$NIST IMAGE=cob10612
##SPECTROMETER/DATA SYSTEM=DOW KBr FOREPRISM-GRATING
##INSTRUMENT PARAMETERS=BLAZED AT 3.5, 12.0, 20.0 MICRON, CHANGED AT 5.0, 7.5, 14.9 MICRON
##STATE=SOLID (SPLIT MULL, FLUOROLUBE FOR 3800-1330 AND NUJOL FOR 1330-460 CM ^-^1)
##PATH LENGTH=
$$ SAMPLE BELOW 1300 CM^-^1 IS ABOUT 60% OF AMOUNT ABOVE 1300 CM^-^1
$$ SEE SPECTRUM NO. 10605 FOR "SOLUTION" STATE
##SAMPLING PROCEDURE=TRANSMISSION
##RESOLUTION=4
##DATA PROCESSING=DIGITIZED BY NIST FROM HARD COPY (FROM TWO SEGMENTS)
##XUNITS=1/CM
##YUNITS=TRANSMITTANCE
##XFACTOR=1.000000
##YFACTOR=1
##DELTAX=0.926542
##FIRSTX=453.607
##LASTX=3785.45
##FIRSTY=0.899
##MAXX=3785.45
##MINX=453.607
##MAXY=1.071
##MINY=0.028
##NPOINTS=3597
##XYDATA=(X++(Y..Y))
453.607000 0.8990 0.8970 0.8970 0.8950 0.8920
458.239708 0.8920 0.8890 0.8890 0.8870 0.8870
462.872416 0.8870 0.8870 0.8850 0.8800 0.8760
467.505123 0.8750 0.8730 0.8730 0.8750 0.8760
472.137831 0.8770 0.8790 0.8800 0.8820 0.8830
476.770539 0.8850 0.8930 0.9020 0.9120 0.9190
481.403247 0.9250 0.9380 0.9390 0.9410 0.9420
486.035954 0.9420 0.9420 0.9420 0.9420 0.9420
490.668662 0.9430 0.9450 0.9450 0.9450 0.9450
495.301370 0.9450 0.9460 0.9480 0.9480 0.9480
499.934078 0.9490 0.9490 0.9490 0.9490 0.9490
504.566785 0.9510 0.9510 0.9510 0.9520 0.9540
509.199493 0.9550 0.9550 0.9560 0.9560 0.9560
513.832201 0.9560 0.9560 0.9560 0.9560 0.9550
518.464909 0.9550 0.9550 0.9580 0.9590 0.9620
523.097616 0.9620 0.9640 0.9640 0.9640 0.9640
527.730324 0.9640 0.9640 0.9620 0.9620 0.9610
532.363032 0.9610 0.9610 0.9610 0.9610 0.9610
536.995740 0.9620 0.9640 0.9680 0.9750 0.9770
541.628447 0.9770 0.9780 0.9780 0.9770 0.9740
546.261155 0.9710 0.9680 0.9560 0.9560 0.9640
550.893863 0.9710 0.9740 0.9780 0.9840 0.9979
555.526571 1.0010 1.0020 1.0040 1.0040 1.0080
560.159278 1.0100 1.0100 1.0140 1.0150 1.0150
564.791986 1.0170 1.0170 1.0170 1.0170 1.0170
569.424694 1.0180 1.0180 1.0200 1.0200 1.0200
574.057402 1.0200 1.0200 1.0210 1.0210 1.0210
578.690109 1.0210 1.0200 1.0180 1.0180 1.0180
583.322817 1.0170 1.0170 1.0110 1.0110 1.0170
587.955525 1.0210 1.0220 1.0220 1.0240 1.0250
592.588233 1.0250 1.0270 1.0270 1.0270 1.0270
597.220940 1.0270 1.0270 1.0270 1.0250 1.0250
601.853648 1.0240 1.0240 1.0220 1.0210 1.0210
606.486356 1.0220 1.0240 1.0240 1.0240 1.0220
611.119064 1.0210 1.0200 1.0180 1.0170 1.0170
615.751771 1.0150 1.0150 1.0150 1.0140 1.0120
620.384479 1.0110 1.0100 1.0080 1.0040 1.0010
625.017187 1.0010 1.0000 0.9890 0.9870 0.9850
629.649895 0.9790 0.9580 0.9390 0.9330 0.9120
634.282602 0.8990 0.8990 0.9060 0.9160 0.9409
638.915310 0.9560 0.9710 0.9790 1.0010 1.0040
643.548018 1.0050 1.0070 1.0070 1.0080 1.0080
648.180726 1.0080 1.0080 1.0080 1.0070 1.0070
652.813433 1.0050 1.0050 1.0040 1.0020 1.0020
657.446141 1.0010 1.0010 1.0000 0.9970 0.9940
662.078849 0.9910 0.9890 0.9820 0.9770 0.9740
666.711557 0.9690 0.9650 0.9610 0.9560 0.9480
671.344264 0.9420 0.9390 0.9330 0.9191 0.9120
675.976972 0.9100 0.8950 0.8800 0.8760 0.8700
680.609680 0.8600 0.8490 0.8360 0.8310 0.8240
685.242388 0.8140 0.8110 0.8060 0.8030 0.8010
689.875095 0.8000 0.8010 0.8040 0.8070 0.8100
694.507803 0.8110 0.8110 0.8080 0.8070 0.8040
699.140511 0.7970 0.7940 0.7840 0.7750 0.7680
703.773219 0.7600 0.7570 0.7290 0.7140 0.6820
708.405926 0.6131 0.5791 0.5601 0.5401 0.5012
713.038634 0.5010 0.5220 0.5660 0.6000 0.6160
717.671342 0.6290 0.6330 0.6460 0.6490 0.6729
722.304050 0.6750 0.6820 0.6960 0.7080 0.7160
726.936757 0.7390 0.7420 0.7580 0.7939 0.8129
731.569465 0.8230 0.8240 0.8260 0.8300 0.8310
736.202173 0.8540 0.8540 0.8520 0.8500 0.8062
740.834881 0.7499 0.6920 0.6910 0.7809 0.8040
745.467588 0.8539 0.9178 0.9429 0.9589 0.9660
750.100296 0.9680 0.9770 1.0110 1.0140 1.0240
754.733004 1.0270 1.0310 1.0330 1.0340 1.0350
759.365712 1.0370 1.0380 1.0400 1.0400 1.0400
763.998419 1.0400 1.0380 1.0350 1.0340 1.0280
768.631127 1.0120 0.9970 0.9220 0.8600 0.8600
773.263835 0.9019 0.9220 0.9429 1.0137 1.0240
777.896543 1.0330 1.0380 1.0400 1.0430 1.0450
782.529250 1.0470 1.0470 1.0450 1.0450 1.0440
787.161958 1.0430 1.0430 1.0410 1.0400 1.0350
791.794666 1.0310 1.0270 1.0220 1.0150 1.0080
796.427374 1.0040 1.0000 0.9750 0.9490 0.8851
801.060081 0.8700 0.8700 0.9019 0.9130 0.9329
805.692789 0.9510 0.9510 0.9390 0.9550 0.9750
810.325497 1.0109 1.0220 1.0220 1.0150 1.0100
814.958205 1.0010 0.9910 0.9810 0.9460 0.8901
819.590912 0.8890 0.9259 1.0477 1.0570 1.0640
824.223620 1.0660 1.0660 1.0670 1.0680 1.0700
828.856328 1.0700 1.0710 1.0710 1.0700 1.0700
833.489036 1.0700 1.0670 1.0660 1.0660 1.0640
838.121743 1.0660 1.0660 1.0670 1.0670 1.0660
842.754451 1.0660 1.0640 1.0630 1.0610 1.0610
847.387159 1.0600 1.0600 1.0610 1.0610 1.0630
852.019867 1.0630 1.0630 1.0630 1.0630 1.0610
856.652574 1.0610 1.0610 1.0630 1.0630 1.0640
861.285282 1.0640 1.0640 1.0640 1.0640 1.0640
865.917990 1.0660 1.0660 1.0640 1.0640 1.0610
870.550698 1.0580 1.0580 1.0560 1.0560 1.0530
875.183405 1.0510 1.0500 1.0480 1.0470 1.0470
879.816113 1.0470 1.0440 1.0410 1.0380 1.0370
884.448821 1.0350 1.0340 1.0340 1.0330 1.0310
889.081529 1.0300 1.0250 1.0240 1.0220 1.0210
893.714236 1.0210 1.0170 1.0110 1.0070 1.0020
898.346944 1.0010 0.9980 0.9659 0.9050 0.8850
902.979652 0.8850 0.9150 0.9330 0.9649 0.9879
907.612360 0.9940 0.9940 0.9920 0.9880 0.9850
912.245068 0.9840 0.9810 0.9750 0.9690 0.9580
916.877775 0.9410 0.9320 0.9180 0.8930 0.8590
921.510483 0.8160 0.7831 0.7720 0.7620 0.7411
926.143191 0.7210 0.7010 0.6810 0.6810 0.6910
930.775899 0.7120 0.8207 0.8360 0.8719 0.9228
935.408606 0.9560 0.9710 0.9680 0.9650 0.9640
940.041314 0.9540 0.9330 0.9121 0.8921 0.8531
944.674022 0.7970 0.7780 0.7599 0.6660 0.6660
949.306730 0.7060 0.7120 0.8597 0.9218 0.9778
953.939437 1.0020 1.0140 1.0210 1.0240 1.0250
958.572145 1.0250 1.0250 1.0270 1.0270 1.0270
963.204853 1.0270 1.0270 1.0250 1.0240 1.0240
967.837561 1.0240 1.0220 1.0220 1.0210 1.0200
972.470268 1.0200 1.0180 1.0180 1.0180 1.0180
977.102976 1.0180 1.0170 1.0150 1.0150 1.0140
981.735684 1.0140 1.0140 1.0140 1.0140 1.0120
986.368392 1.0110 1.0110 1.0100 1.0080 1.0050
991.001099 1.0020 1.0020 1.0010 1.0010 1.0010
995.633807 1.0000 0.9980 0.9950 0.9950 0.9940
1000.266515 0.9910 0.9810 0.9780 0.9740 0.9650
1004.899223 0.9590 0.9550 0.9430 0.9390 0.9330
1009.531930 0.9280 0.9120 0.8820 0.8340 0.8260
1014.164638 0.8010 0.7940 0.7940 0.8070 0.8309
1018.797346 0.8392 0.9120 0.9360 0.9620 0.9720
1023.430054 0.9750 0.9770 0.9770 0.9770 0.9750
1028.062761 0.9750 0.9710 0.9660 0.9610 0.9590
1032.695469 0.9580 0.9560 0.9560 0.9560 0.9550
1037.328177 0.9540 0.9450 0.9420 0.9410 0.9380
1041.960885 0.9360 0.9320 0.9260 0.9160 0.9090
1046.593592 0.9000 0.8920 0.8790 0.8760 0.8730
1051.226300 0.8700 0.8690 0.8670 0.8660 0.8640
1055.859008 0.8570 0.8540 0.8500 0.8360 0.8230
1060.491716 0.8110 0.7940 0.7830 0.7750 0.7670
1065.124423 0.7500 0.7320 0.7240 0.7060 0.6950
1069.757131 0.6750 0.6460 0.6140 0.6100 0.6060
1074.389839 0.6040 0.6060 0.6120 0.6130 0.6140
1079.022547 0.6120 0.6090 0.6000 0.5930 0.5890
1083.655254 0.5740 0.5540 0.5400 0.5250 0.5040
1088.287962 0.4880 0.4550 0.4081 0.3890 0.3890
1092.920670 0.3970 0.4080 0.4360 0.4770 0.6029
1097.553378 0.6759 0.7798 0.8409 0.8789 0.9288
1102.186085 0.9321 0.9610 0.9680 0.9780 0.9820
1106.818793 0.9880 0.9920 0.9920 0.9910 0.9850
1111.451501 0.9810 0.9780 0.9750 0.9710 0.9680
1116.084209 0.9650 0.9640 0.9610 0.9610 0.9590
1120.716916 0.9590 0.9580 0.9560 0.9560 0.9550
1125.349624 0.9540 0.9510 0.9450 0.9410 0.9380
1129.982332 0.9320 0.9230 0.9130 0.9120 0.8950
1134.615040 0.8920 0.8900 0.8750 0.8690 0.8540
1139.247747 0.8499 0.8140 0.8010 0.7930 0.7810
1143.880455 0.7700 0.7580 0.7410 0.7240 0.6931
1148.513163 0.6619 0.6139 0.5610 0.5480 0.5350
1153.145871 0.5020 0.4940 0.4890 0.4880 0.4890
1157.778578 0.4890 0.4920 0.5010 0.5241 0.6300
1162.411286 0.6620 0.6820 0.7749 0.8169 0.8499
1167.043994 0.8761 0.9000 0.9250 0.9320 0.9410
1171.676702 0.9540 0.9560 0.9580 0.9580 0.9560
1176.309409 0.9550 0.9540 0.9520 0.9490 0.9480
1180.942117 0.9490 0.9510 0.9520 0.9520 0.9550
1185.574825 0.9550 0.9540 0.9490 0.9490 0.9480
1190.207533 0.9460 0.9450 0.9420 0.9390 0.9360
1194.840240 0.9320 0.9260 0.9200 0.9150 0.9150
1199.472948 0.9090 0.8950 0.8850 0.8730 0.8690
1204.105656 0.8620 0.8500 0.8490 0.8390 0.8290
1208.738364 0.8210 0.7940 0.7800 0.7700 0.7580
1213.371071 0.7450 0.7240 0.7120 0.6810 0.6350
1218.003779 0.5960 0.5680 0.5401 0.4881 0.4740
1222.636487 0.4741 0.4951 0.5221 0.5831 0.6450
1227.269195 0.6830 0.6830 0.6600 0.5812 0.5022
1231.901902 0.4610 0.4559 0.4260 0.4220 0.4200
1236.534610 0.4220 0.4250 0.4350 0.4450 0.4560
1241.167318 0.4660 0.4680 0.4680 0.4680 0.4680
1245.800026 0.4680 0.4680 0.4680 0.4680 0.4690
1250.432733 0.4770 0.4810 0.4940 0.4970 0.5120
1255.065441 0.5220 0.5220 0.5250 0.5250 0.5200
1259.698149 0.5140 0.5110 0.5100 0.5080 0.5100
1264.330857 0.5140 0.5220 0.5300 0.5529 0.5630
1268.963564 0.5860 0.6030 0.6141 0.6530 0.6660
1273.596272 0.6750 0.6850 0.6990 0.7010 0.7010
1278.228980 0.7010 0.7010 0.7020 0.7020 0.7040
1282.861688 0.7050 0.7050 0.7080 0.7140 0.7220
1287.494395 0.7240 0.7270 0.7280 0.7280 0.7280
1292.127103 0.7270 0.7240 0.7150 0.7090 0.7060
1296.759811 0.7050 0.6990 0.6980 0.6950 0.6890
1301.392519 0.6880 0.6850 0.6820 0.6780 0.6720
1306.025226 0.6660 0.6620 0.6600 0.6590 0.6450
1310.657934 0.6360 0.6230 0.6170 0.5940 0.5810
1315.290642 0.5730 0.5610 0.5510 0.5450 0.5400
1319.923350 0.5050 0.4790 0.4450 0.4280 0.4061
1324.556057 0.3699 0.3408 0.2518 0.1619 0.0710
1329.188765 0.0570 0.0540 0.0530 0.0530 0.0510
1333.821473 0.0500 0.0480 0.0470 0.0380 0.0310
1338.454181 0.0300 0.0280 0.0280 0.0280 0.0280
1343.086888 0.0280 0.0280 0.0300 0.0310 0.0350
1347.719596 0.0380 0.0410 0.0450 0.0480 0.0560
1352.352304 0.0611 0.0801 0.1130 0.1290 0.1430
1356.985012 0.1580 0.1790 0.1880 0.2020 0.2210
1361.617720 0.2250 0.2320 0.2480 0.2600 0.2670
1366.250427 0.2740 0.2870 0.3070 0.3439 0.3560
1370.883135 0.3791 0.4100 0.4150 0.4280 0.4560
1375.515843 0.4690 0.4790 0.5000 0.5140 0.5250
1380.148551 0.5600 0.5560 0.5540 0.5530 0.5510
1384.781258 0.5480 0.5250 0.5010 0.4192 0.3861
1389.413966 0.3519 0.3161 0.3461 0.3801 0.4261
1394.046674 0.5770 0.6040 0.6300 0.6460 0.6600
1398.679382 0.6750 0.6780 0.6780 0.6780 0.6750
1403.312089 0.6730 0.6650 0.6590 0.6460 0.6400
1407.944797 0.6320 0.6299 0.6020 0.5890 0.5540
1412.577505 0.5510 0.5480 0.5240 0.4711 0.4151
1417.210213 0.3469 0.3289 0.3100 0.3070 0.3100
1421.842920 0.3290 0.3460 0.3640 0.4059 0.4260
1426.475628 0.4660 0.4781 0.5010 0.5120 0.5250
1431.108336 0.5250 0.5140 0.5120 0.5010 0.4811
1435.741044 0.4580 0.4550 0.4520 0.4490 0.4480
1440.373751 0.4460 0.4450 0.4430 0.4420 0.4410
1445.006459 0.4329 0.4159 0.3969 0.3770 0.3600
1449.639167 0.3570 0.3590 0.3750 0.3790 0.3960
1454.271875 0.4151 0.4450 0.4610 0.4650 0.4650
1458.904582 0.4620 0.4550 0.4350 0.4200 0.4080
1463.537290 0.3870 0.3790 0.3770 0.3770 0.3770
1468.169998 0.3790 0.3820 0.3890 0.4060 0.4609
1472.802706 0.4781 0.5042 0.5761 0.6020 0.6200
1477.435413 0.6470 0.6600 0.6720 0.6760 0.6790
1482.068121 0.6850 0.6860 0.6860 0.6890 0.6890
1486.700829 0.6890 0.6890 0.6890 0.6880 0.6830
1491.333537 0.6790 0.6750 0.6690 0.6660 0.6650
1495.966244 0.6600 0.6520 0.6330 0.6160 0.5960
1500.598952 0.5930 0.5890 0.5760 0.5740 0.5560
1505.231660 0.5510 0.5470 0.5350 0.5250 0.5220
1509.864368 0.5049 0.4790 0.4660 0.4590 0.4550
1514.497075 0.4450 0.4450 0.4430 0.4380 0.4350
1519.129783 0.4249 0.4059 0.3870 0.3770 0.3560
1523.762491 0.3400 0.3230 0.2870 0.2600 0.2350
1528.395199 0.2280 0.2150 0.2150 0.2320 0.2470
1533.027906 0.2540 0.2700 0.2840 0.2850 0.2840
1537.660614 0.2799 0.2609 0.2289 0.2059 0.1629
1542.293322 0.1200 0.1130 0.1020 0.0960 0.0900
1546.926030 0.0740 0.0680 0.0640 0.0641 0.1000
1551.558737 0.1190 0.1370 0.1530 0.1790 0.2548
1556.191445 0.2872 0.3532 0.4281 0.4510 0.4680
1560.824153 0.4770 0.4880 0.5020 0.5240 0.5510
1565.456861 0.5630 0.5741 0.5891 0.6070 0.6120
1570.089568 0.6140 0.6170 0.6190 0.6190 0.6190
1574.722276 0.6190 0.6160 0.6140 0.6070 0.6040
1579.354984 0.6020 0.5930 0.5860 0.5770 0.5670
1583.987692 0.5540 0.5500 0.5440 0.5370 0.5250
1588.620399 0.5110 0.5020 0.4780 0.4490 0.4350
1593.253107 0.4159 0.3819 0.3619 0.3340 0.3070
1597.885815 0.2550 0.2060 0.1650 0.1350 0.1330
1602.518523 0.1330 0.1320 0.1320 0.1320 0.1290
1607.151230 0.1230 0.1090 0.1070 0.1090 0.1220
1611.783938 0.1270 0.1290 0.1421 0.1632 0.2311
1616.416646 0.2610 0.2720 0.3290 0.3530 0.3820
1621.049354 0.4152 0.4770 0.4880 0.5010 0.5251
1625.682061 0.5890 0.6200 0.6470 0.6750 0.6890
1630.314769 0.7090 0.7151 0.7520 0.7650 0.7680
1634.947477 0.7680 0.7700 0.7780 0.7840 0.7850
1639.580185 0.7930 0.7941 0.8080 0.8130 0.8160
1644.212892 0.8240 0.8260 0.8300 0.8310 0.8340
1648.845600 0.8390 0.8400 0.8390 0.8370 0.8360
1653.478308 0.8360 0.8340 0.8330 0.8330 0.8330
1658.111016 0.8310 0.8310 0.8310 0.8310 0.8310
1662.743723 0.8330 0.8330 0.8330 0.8340 0.8340
1667.376431 0.8330 0.8300 0.8290 0.8270 0.8270
1672.009139 0.8260 0.8260 0.8260 0.8260 0.8260
1676.641847 0.8260 0.8260 0.8270 0.8270 0.8270
1681.274554 0.8260 0.8240 0.8180 0.8140 0.8140
1685.907262 0.8130 0.8110 0.8110 0.8100 0.8080
1690.539970 0.8080 0.8100 0.8110 0.8110 0.8110
1695.172678 0.8130 0.8130 0.8140 0.8140 0.8140
1699.805385 0.8130 0.8110 0.8110 0.8110 0.8110
1704.438093 0.8130 0.8130 0.8130 0.8130 0.8130
1709.070801 0.8130 0.8130 0.8140 0.8140 0.8130
1713.703509 0.8130 0.8130 0.8100 0.8080 0.8060
1718.336216 0.8030 0.8010 0.8000 0.7980 0.7950
1722.968924 0.7940 0.7930 0.7910 0.7930 0.7930
1727.601632 0.7950 0.7950 0.7970 0.8000 0.8030
1732.234340 0.8030 0.8010 0.8000 0.8000 0.8010
1736.867047 0.8030 0.8030 0.8040 0.8040 0.8060
1741.499755 0.8070 0.8110 0.8110 0.8130 0.8140
1746.132463 0.8160 0.8160 0.8160 0.8160 0.8160
1750.765171 0.8160 0.8170 0.8170 0.8170 0.8170
1755.397878 0.8170 0.8170 0.8170 0.8170 0.8160
1760.030586 0.8160 0.8140 0.8140 0.8140 0.8140
1764.663294 0.8130 0.8130 0.8130 0.8140 0.8140
1769.296002 0.8130 0.8130 0.8110 0.8100 0.8100
1773.928709 0.8080 0.8070 0.8070 0.8060 0.8030
1778.561417 0.8010 0.8000 0.7970 0.7950 0.7940
1783.194125 0.7930 0.7930 0.7930 0.7930 0.7900
1787.826833 0.7870 0.7840 0.7750 0.7710 0.7670
1792.459540 0.7610 0.7600 0.7570 0.7550 0.7550
1797.092248 0.7570 0.7580 0.7600 0.7670 0.7810
1801.724956 0.7870 0.7930 0.7930 0.7950 0.7980
1806.357664 0.8010 0.8030 0.8030 0.8030 0.8010
1810.990372 0.7980 0.7980 0.7970 0.7970 0.7970
1815.623079 0.7970 0.7970 0.7970 0.7970 0.7970
1820.255787 0.7970 0.7970 0.7950 0.7950 0.7950
1824.888495 0.7950 0.7940 0.7940 0.7940 0.7940
1829.521203 0.7930 0.7930 0.7930 0.7930 0.7910
1834.153910 0.7910 0.7880 0.7880 0.7870 0.7850
1838.786618 0.7840 0.7840 0.7840 0.7840 0.7830
1843.419326 0.7830 0.7830 0.7830 0.7830 0.7810
1848.052034 0.7810 0.7810 0.7830 0.7830 0.7840
1852.684741 0.7850 0.7850 0.7870 0.7880 0.7880
1857.317449 0.7900 0.7900 0.7910 0.7910 0.7910
1861.950157 0.7910 0.7930 0.7930 0.7930 0.7930
1866.582865 0.7930 0.7930 0.7910 0.7910 0.7910
1871.215572 0.7910 0.7910 0.7910 0.7910 0.7910
1875.848280 0.7910 0.7910 0.7910 0.7910 0.7910
1880.480988 0.7930 0.7930 0.7930 0.7930 0.7930
1885.113696 0.7930 0.7930 0.7930 0.7930 0.7930
1889.746403 0.7930 0.7930 0.7930 0.7930 0.7930
1894.379111 0.7930 0.7930 0.7930 0.7910 0.7910
1899.011819 0.7910 0.7910 0.7910 0.7910 0.7910
1903.644527 0.7900 0.7900 0.7880 0.7880 0.7880
1908.277234 0.7880 0.7900 0.7900 0.7900 0.7910
1912.909942 0.7910 0.7930 0.7930 0.7930 0.7910
1917.542650 0.7910 0.7910 0.7910 0.7900 0.7900
1922.175358 0.7880 0.7880 0.7870 0.7870 0.7870
1926.808065 0.7850 0.7840 0.7840 0.7840 0.7830
1931.440773 0.7830 0.7830 0.7830 0.7840 0.7840
1936.073481 0.7850 0.7850 0.7870 0.7870 0.7850
1940.706189 0.7840 0.7830 0.7830 0.7830 0.7830
1945.338896 0.7830 0.7830 0.7830 0.7810 0.7800
1949.971604 0.7780 0.7780 0.7780 0.7770 0.7770
1954.604312 0.7770 0.7750 0.7750 0.7750 0.7740
1959.237020 0.7740 0.7720 0.7720 0.7720 0.7720
1963.869727 0.7710 0.7700 0.7700 0.7700 0.7700
1968.502435 0.7700 0.7700 0.7700 0.7700 0.7710
1973.135143 0.7710 0.7710 0.7710 0.7700 0.7700
1977.767851 0.7710 0.7720 0.7720 0.7720 0.7720
1982.400558 0.7720 0.7740 0.7740 0.7740 0.7740
1987.033266 0.7740 0.7740 0.7740 0.7740 0.7740
1991.665974 0.7740 0.7740 0.7720 0.7710 0.7700
1996.298682 0.7680 0.7670 0.7670 0.7640 0.7640
2000.931389 0.7640 0.7640 0.7630 0.7620 0.7620
2005.564097 0.7620 0.7620 0.7620 0.7615 0.7610
2010.196805 0.7610 0.7610 0.7605 0.7600 0.7600
2014.829513 0.7599 0.7589 0.7580 0.7580 0.7579
2019.462220 0.7574 0.7570 0.7570 0.7569 0.7559
2024.094928 0.7550 0.7550 0.7549 0.7544 0.7538
2028.727636 0.7528 0.7519 0.7514 0.7507 0.7492
2033.360344 0.7480 0.7480 0.7480 0.7480 0.7479
2037.993051 0.7474 0.7470 0.7470 0.7470 0.7470
2042.625759 0.7468 0.7458 0.7450 0.7450 0.7450
2047.258467 0.7450 0.7449 0.7444 0.7440 0.7440
2051.891175 0.7440 0.7440 0.7437 0.7427 0.7420
2056.523882 0.7420 0.7420 0.7420 0.7418 0.7413
2061.156590 0.7410 0.7410 0.7406 0.7396 0.7390
2065.789298 0.7390 0.7388 0.7383 0.7380 0.7380
2070.422006 0.7378 0.7373 0.7370 0.7370 0.7370
2075.054713 0.7370 0.7370 0.7370 0.7370 0.7370
2079.687421 0.7370 0.7370 0.7370 0.7370 0.7370
2084.320129 0.7370 0.7370 0.7370 0.7370 0.7370
2088.952837 0.7365 0.7355 0.7350 0.7350 0.7347
2093.585544 0.7342 0.7340 0.7340 0.7340 0.7340
2098.218252 0.7340 0.7340 0.7334 0.7324 0.7320
2102.850960 0.7320 0.7317 0.7312 0.7310 0.7310
2107.483668 0.7304 0.7294 0.7287 0.7282 0.7277
2112.116375 0.7272 0.7270 0.7270 0.7270 0.7270
2116.749083 0.7263 0.7253 0.7250 0.7250 0.7250
2121.381791 0.7250 0.7247 0.7242 0.7240 0.7240
2126.014499 0.7240 0.7240 0.7233 0.7223 0.7220
2130.647206 0.7220 0.7220 0.7220 0.7209 0.7193
2135.279914 0.7186 0.7181 0.7180 0.7180 0.7172
2139.912622 0.7162 0.7156 0.7151 0.7150 0.7150
2144.545330 0.7146 0.7141 0.7140 0.7140 0.7140
2149.178037 0.7140 0.7131 0.7121 0.7120 0.7120
2153.810745 0.7120 0.7120 0.7116 0.7111 0.7110
2158.443453 0.7110 0.7110 0.7110 0.7101 0.7091
2163.076161 0.7090 0.7090 0.7085 0.7080 0.7070
2167.708868 0.7060 0.7055 0.7050 0.7050 0.7050
2172.341576 0.7045 0.7040 0.7030 0.7020 0.7015
2176.974284 0.7010 0.7010 0.7010 0.7010 0.7010
2181.606992 0.7010 0.7010 0.7010 0.7010 0.7010
2186.239699 0.7010 0.7010 0.7010 0.7010 0.7010
2190.872407 0.7010 0.7009 0.6999 0.6990 0.6990
2195.505115 0.6990 0.6990 0.6990 0.6990 0.6990
2200.137823 0.6990 0.6990 0.6990 0.6990 0.6990
2204.770530 0.6989 0.6984 0.6980 0.6980 0.6978
2209.403238 0.6968 0.6960 0.6960 0.6959 0.6954
2214.035946 0.6947 0.6932 0.6920 0.6920 0.6919
2218.668654 0.6914 0.6908 0.6897 0.6890 0.6890
2223.301361 0.6886 0.6871 0.6860 0.6860 0.6859
2227.934069 0.6853 0.6847 0.6837 0.6828 0.6823
2232.566777 0.6814 0.6793 0.6780 0.6780 0.6777
2237.199485 0.6767 0.6755 0.6740 0.6724 0.6709
2241.832192 0.6700 0.6700 0.6698 0.6693 0.6690
2246.464900 0.6690 0.6688 0.6683 0.6680 0.6680
2251.097608 0.6676 0.6666 0.6660 0.6660 0.6658
2255.730316 0.6653 0.6645 0.6635 0.6628 0.6623
2260.363024 0.6615 0.6605 0.6598 0.6592 0.6590
2264.995731 0.6590 0.6590 0.6590 0.6590 0.6590
2269.628439 0.6587 0.6582 0.6580 0.6580 0.6580
2274.261147 0.6580 0.6580 0.6580 0.6574 0.6564
2278.893855 0.6557 0.6552 0.6550 0.6550 0.6550
2283.526562 0.6550 0.6550 0.6550 0.6550 0.6550
2288.159270 0.6544 0.6534 0.6530 0.6530 0.6530
2292.791978 0.6530 0.6527 0.6522 0.6513 0.6503
2297.424686 0.6500 0.6500 0.6496 0.6491 0.6483
2302.057393 0.6473 0.6470 0.6470 0.6470 0.6470
2306.690101 0.6477 0.6488 0.6494 0.6499 0.6500
2311.322809 0.6500 0.6500 0.6500 0.6500 0.6500
2315.955517 0.6500 0.6500 0.6496 0.6491 0.6490
2320.588224 0.6490 0.6490 0.6490 0.6477 0.6462
2325.220932 0.6460 0.6460 0.6460 0.6460 0.6456
2329.853640 0.6451 0.6450 0.6450 0.6441 0.6431
2334.486348 0.6430 0.6430 0.6430 0.6430 0.6430
2339.119055 0.6430 0.6439 0.6449 0.6455 0.6460
2343.751763 0.6460 0.6460 0.6460 0.6460 0.6455
2348.384471 0.6450 0.6450 0.6450 0.6450 0.6450
2353.017179 0.6450 0.6450 0.6450 0.6450 0.6450
2357.649886 0.6450 0.6440 0.6430 0.6430 0.6430
2362.282594 0.6425 0.6420 0.6420 0.6419 0.6409
2366.915302 0.6400 0.6395 0.6390 0.6390 0.6389
2371.548010 0.6379 0.6369 0.6364 0.6360 0.6360
2376.180717 0.6359 0.6354 0.6350 0.6350 0.6348
2380.813425 0.6332 0.6320 0.6320 0.6318 0.6308
2385.446133 0.6300 0.6300 0.6300 0.6300 0.6300
2390.078841 0.6300 0.6299 0.6294 0.6290 0.6290
2394.711548 0.6290 0.6290 0.6290 0.6290 0.6286
2399.344256 0.6271 0.6259 0.6254 0.6250 0.6250
2403.976964 0.6247 0.6237 0.6230 0.6230 0.6228
2408.609672 0.6223 0.6220 0.6220 0.6220 0.6220
2413.242379 0.6220 0.6220 0.6220 0.6220 0.6220
2417.875087 0.6220 0.6220 0.6220 0.6220 0.6220
2422.507795 0.6220 0.6220 0.6216 0.6206 0.6200
2427.140503 0.6200 0.6200 0.6200 0.6200 0.6200
2431.773210 0.6200 0.6200 0.6198 0.6193 0.6190
2436.405918 0.6190 0.6190 0.6190 0.6185 0.6175
2441.038626 0.6167 0.6162 0.6160 0.6160 0.6155
2445.671334 0.6145 0.6140 0.6140 0.6140 0.6140
2450.304041 0.6140 0.6140 0.6137 0.6132 0.6130
2454.936749 0.6130 0.6127 0.6122 0.6120 0.6120
2459.569457 0.6120 0.6120 0.6120 0.6120 0.6120
2464.202165 0.6120 0.6113 0.6103 0.6097 0.6092
2468.834872 0.6090 0.6090 0.6090 0.6090 0.6090
2473.467580 0.6090 0.6090 0.6090 0.6083 0.6073
2478.100288 0.6070 0.6070 0.6070 0.6070 0.6070
2482.732996 0.6070 0.6070 0.6070 0.6070 0.6070
2487.365703 0.6066 0.6061 0.6060 0.6060 0.6060
2491.998411 0.6060 0.6060 0.6060 0.6052 0.6042
2496.631119 0.6040 0.6040 0.6040 0.6040 0.6040
2501.263827 0.6040 0.6036 0.6031 0.6030 0.6030
2505.896534 0.6030 0.6030 0.6026 0.6020 0.6020
2510.529242 0.6020 0.6020 0.6020 0.6011 0.6001
2515.161950 0.6000 0.6000 0.6000 0.6000 0.5995
2519.794658 0.5990 0.5990 0.5990 0.5990 0.5990
2524.427365 0.5980 0.5970 0.5965 0.5960 0.5960
2529.060073 0.5960 0.5950 0.5940 0.5935 0.5930
2533.692781 0.5930 0.5930 0.5930 0.5929 0.5919
2538.325489 0.5910 0.5910 0.5910 0.5910 0.5910
2542.958196 0.5905 0.5900 0.5900 0.5899 0.5894
2547.590904 0.5890 0.5890 0.5890 0.5890 0.5890
2552.223612 0.5890 0.5890 0.5890 0.5888 0.5878
2556.856320 0.5870 0.5870 0.5869 0.5864 0.5860
2561.489027 0.5860 0.5860 0.5860 0.5858 0.5848
2566.121735 0.5839 0.5834 0.5828 0.5818 0.5810
2570.754443 0.5810 0.5810 0.5810 0.5809 0.5804
2575.387151 0.5800 0.5800 0.5799 0.5793 0.5790
2580.019858 0.5790 0.5787 0.5777 0.5770 0.5770
2584.652566 0.5770 0.5770 0.5768 0.5763 0.5760
2589.285274 0.5760 0.5760 0.5760 0.5760 0.5760
2593.917982 0.5760 0.5760 0.5760 0.5760 0.5760
2598.550689 0.5760 0.5760 0.5760 0.5756 0.5746
2603.183397 0.5740 0.5740 0.5738 0.5733 0.5725
2607.816105 0.5715 0.5710 0.5710 0.5710 0.5710
2612.448813 0.5707 0.5702 0.5700 0.5700 0.5700
2617.081520 0.5700 0.5695 0.5685 0.5680 0.5680
2621.714228 0.5680 0.5680 0.5680 0.5680 0.5680
2626.346936 0.5680 0.5674 0.5664 0.5660 0.5660
2630.979644 0.5651 0.5636 0.5630 0.5630 0.5630
2635.612351 0.5630 0.5624 0.5614 0.5607 0.5602
2640.245059 0.5600 0.5600 0.5600 0.5600 0.5600
2644.877767 0.5600 0.5600 0.5600 0.5600 0.5600
2649.510475 0.5600 0.5600 0.5600 0.5600 0.5600
2654.143182 0.5600 0.5600 0.5600 0.5593 0.5582
2658.775890 0.5576 0.5571 0.5570 0.5570 0.5570
2663.408598 0.5570 0.5566 0.5561 0.5560 0.5560
2668.041306 0.5552 0.5542 0.5536 0.5531 0.5530
2672.674013 0.5530 0.5530 0.5530 0.5521 0.5511
2677.306721 0.5506 0.5501 0.5500 0.5500 0.5500
2681.939429 0.5500 0.5500 0.5500 0.5500 0.5500
2686.572137 0.5500 0.5500 0.5500 0.5500 0.5500
2691.204844 0.5500 0.5500 0.5500 0.5490 0.5480
2695.837552 0.5480 0.5480 0.5480 0.5480 0.5480
2700.470260 0.5480 0.5480 0.5480 0.5475 0.5470
2705.102968 0.5460 0.5450 0.5450 0.5450 0.5450
2709.735676 0.5450 0.5445 0.5440 0.5435 0.5430
2714.368383 0.5430 0.5430 0.5430 0.5429 0.5419
2719.001091 0.5410 0.5410 0.5410 0.5410 0.5410
2723.633799 0.5410 0.5410 0.5410 0.5410 0.5410
2728.266507 0.5409 0.5404 0.5400 0.5400 0.5398
2732.899214 0.5388 0.5379 0.5374 0.5370 0.5370
2737.531922 0.5370 0.5370 0.5368 0.5358 0.5350
2742.164630 0.5350 0.5350 0.5350 0.5350 0.5350
2746.797338 0.5349 0.5344 0.5340 0.5340 0.5340
2751.430045 0.5340 0.5340 0.5340 0.5338 0.5333
2756.062753 0.5327 0.5317 0.5310 0.5310 0.5310
2760.695461 0.5310 0.5308 0.5303 0.5300 0.5300
2765.328169 0.5296 0.5286 0.5278 0.5273 0.5266
2769.960876 0.5256 0.5248 0.5243 0.5240 0.5240
2774.593584 0.5240 0.5240 0.5240 0.5240 0.5240
2779.226292 0.5240 0.5240 0.5240 0.5240 0.5240
2783.859000 0.5240 0.5240 0.5240 0.5240 0.5240
2788.491707 0.5240 0.5240 0.5240 0.5240 0.5240
2793.124415 0.5235 0.5225 0.5220 0.5220 0.5217
2797.757123 0.5212 0.5207 0.5202 0.5200 0.5200
2802.389831 0.5194 0.5184 0.5180 0.5180 0.5180
2807.022538 0.5180 0.5180 0.5180 0.5171 0.5155
2811.655246 0.5150 0.5150 0.5147 0.5142 0.5133
2816.287954 0.5123 0.5120 0.5120 0.5117 0.5112
2820.920662 0.5110 0.5110 0.5107 0.5101 0.5079
2825.553369 0.5049 0.5033 0.5023 0.5013 0.5003
2830.186077 0.4992 0.4982 0.4976 0.4971 0.4958
2834.818785 0.4943 0.4921 0.4895 0.4886 0.4881
2839.451493 0.4856 0.4826 0.4808 0.4793 0.4790
2844.084200 0.4790 0.4786 0.4781 0.4780 0.4780
2848.716908 0.4780 0.4780 0.4780 0.4780 0.4780
2853.349616 0.4780 0.4784 0.4789 0.4790 0.4790
2857.982324 0.4799 0.4809 0.4810 0.4810 0.4815
2862.615031 0.4820 0.4820 0.4820 0.4829 0.4840
2867.247739 0.4840 0.4840 0.4845 0.4850 0.4850
2871.880447 0.4850 0.4860 0.4870 0.4870 0.4870
2876.513155 0.4870 0.4870 0.4855 0.4840 0.4830
2881.145862 0.4820 0.4805 0.4790 0.4790 0.4790
2885.778570 0.4785 0.4780 0.4775 0.4769 0.4759
2890.411278 0.4750 0.4745 0.4739 0.4729 0.4718
2895.043986 0.4703 0.4689 0.4684 0.4678 0.4657
2899.676693 0.4637 0.4612 0.4589 0.4584 0.4578
2904.309401 0.4568 0.4559 0.4554 0.4550 0.4550
2908.942109 0.4549 0.4544 0.4537 0.4522 0.4507
2913.574817 0.4492 0.4478 0.4468 0.4459 0.4454
2918.207524 0.4448 0.4438 0.4430 0.4430 0.4430
2922.840232 0.4430 0.4433 0.4443 0.4450 0.4450
2927.472940 0.4452 0.4457 0.4468 0.4493 0.4516
2932.105648 0.4536 0.4550 0.4550 0.4552 0.4557
2936.738355 0.4560 0.4560 0.4560 0.4560 0.4560
2941.371063 0.4560 0.4560 0.4560 0.4558 0.4553
2946.003771 0.4550 0.4550 0.4550 0.4550 0.4548
2950.636479 0.4543 0.4540 0.4540 0.4540 0.4540
2955.269186 0.4542 0.4547 0.4550 0.4550 0.4560
2959.901894 0.4580 0.4605 0.4635 0.4653 0.4658
2964.534602 0.4660 0.4660 0.4665 0.4675 0.4680
2969.167310 0.4680 0.4683 0.4688 0.4695 0.4706
2973.800017 0.4710 0.4710 0.4710 0.4710 0.4710
2978.432725 0.4710 0.4710 0.4710 0.4704 0.4694
2983.065433 0.4690 0.4690 0.4687 0.4682 0.4680
2987.698141 0.4680 0.4680 0.4680 0.4680 0.4680
2992.330848 0.4673 0.4663 0.4660 0.4660 0.4660
2996.963556 0.4660 0.4656 0.4651 0.4650 0.4650
3001.596264 0.4650 0.4650 0.4646 0.4641 0.4640
3006.228972 0.4640 0.4633 0.4622 0.4616 0.4611
3010.861679 0.4602 0.4592 0.4586 0.4581 0.4572
3015.494387 0.4562 0.4560 0.4560 0.4556 0.4551
3020.127095 0.4546 0.4541 0.4540 0.4540 0.4532
3024.759803 0.4521 0.4516 0.4511 0.4497 0.4482
3029.392510 0.4471 0.4461 0.4456 0.4450 0.4432
3034.025218 0.4412 0.4396 0.4381 0.4366 0.4351
3038.657926 0.4317 0.4282 0.4252 0.4222 0.4191
3043.290634 0.4161 0.4155 0.4150 0.4135 0.4120
3047.923341 0.4110 0.4100 0.4095 0.4090 0.4090
3052.556049 0.4090 0.4095 0.4100 0.4100 0.4101
3057.188757 0.4116 0.4130 0.4141 0.4150 0.4155
3061.821465 0.4160 0.4160 0.4160 0.4160 0.4160
3066.454172 0.4160 0.4160 0.4160 0.4160 0.4160
3071.086880 0.4161 0.4171 0.4180 0.4180 0.4181
3075.719588 0.4186 0.4191 0.4196 0.4200 0.4200
3080.352296 0.4200 0.4200 0.4200 0.4200 0.4200
3084.985003 0.4200 0.4199 0.4194 0.4186 0.4165
3089.617711 0.4148 0.4138 0.4126 0.4111 0.4098
3094.250419 0.4087 0.4053 0.3947 0.3843 0.3743
3098.883127 0.3641 0.3536 0.3432 0.3331 0.3234
3103.515834 0.3143 0.3054 0.2968 0.2910 0.2910
3108.148542 0.2920 0.2950 0.3062 0.3328 0.3546
3112.781250 0.3677 0.3802 0.3917 0.4022 0.4107
3117.413958 0.4192 0.4278 0.4340 0.4365 0.4380
3122.046665 0.4380 0.4376 0.4366 0.4360 0.4360
3126.679373 0.4360 0.4360 0.4358 0.4353 0.4350
3131.312081 0.4350 0.4350 0.4350 0.4345 0.4335
3135.944789 0.4328 0.4323 0.4320 0.4320 0.4312
3140.577496 0.4297 0.4287 0.4282 0.4275 0.4265
3145.210204 0.4257 0.4252 0.4250 0.4250 0.4244
3149.842912 0.4234 0.4230 0.4230 0.4227 0.4222
3154.475620 0.4220 0.4220 0.4220 0.4220 0.4211
3159.108328 0.4196 0.4181 0.4165 0.4150 0.4135
3163.741035 0.4114 0.4088 0.4070 0.4055 0.4040
3168.373743 0.4025 0.4010 0.3995 0.3983 0.3973
3173.006451 0.3963 0.3953 0.3943 0.3933 0.3926
3177.639159 0.3921 0.3909 0.3894 0.3882 0.3872
3182.271866 0.3862 0.3852 0.3827 0.3797 0.3782
3186.904574 0.3772 0.3750 0.3725 0.3708 0.3693
3191.537282 0.3666 0.3636 0.3626 0.3621 0.3608
3196.169990 0.3593 0.3561 0.3525 0.3511 0.3501
3200.802697 0.3483 0.3463 0.3447 0.3432 0.3403
3205.435405 0.3373 0.3370 0.3370 0.3311 0.3246
3210.068113 0.3240 0.3240 0.3235 0.3230 0.3221
3214.700821 0.3211 0.3191 0.3171 0.3165 0.3160
3219.333528 0.3145 0.3130 0.3071 0.3011 0.2990
3223.966236 0.2970 0.2950 0.2930 0.2900 0.2869
3228.598944 0.2819 0.2770 0.2755 0.2740 0.2724
3233.231652 0.2710 0.2705 0.2699 0.2684 0.2669
3237.864359 0.2659 0.2650 0.2645 0.2639 0.2629
3242.497067 0.2620 0.2614 0.2610 0.2610 0.2610
3247.129775 0.2610 0.2610 0.2610 0.2611 0.2616
3251.762483 0.2621 0.2632 0.2641 0.2646 0.2653
3256.395190 0.2668 0.2683 0.2698 0.2713 0.2728
3261.027898 0.2744 0.2764 0.2785 0.2811 0.2832
3265.660606 0.2842 0.2853 0.2869 0.2888 0.2924
3270.293314 0.2958 0.2988 0.3031 0.3106 0.3174
3274.926021 0.3225 0.3266 0.3286 0.3309 0.3339
3279.558729 0.3365 0.3380 0.3413 0.3483 0.3532
3284.191437 0.3537 0.3550 0.3580 0.3605 0.3620
3288.824145 0.3648 0.3699 0.3742 0.3772 0.3806
3293.456852 0.3846 0.3874 0.3884 0.3892 0.3897
3298.089560 0.3910 0.3936 0.3954 0.3964 0.3983
3302.722268 0.4013 0.4041 0.4066 0.4080 0.4080
3307.354976 0.4085 0.4095 0.4112 0.4137 0.4157
3311.987683 0.4173 0.4185 0.4195 0.4205 0.4215
3316.620391 0.4220 0.4220 0.4228 0.4243 0.4250
3321.253099 0.4250 0.4253 0.4258 0.4266 0.4276
3325.885807 0.4283 0.4288 0.4290 0.4290 0.4290
3330.518514 0.4290 0.4296 0.4306 0.4310 0.4310
3335.151222 0.4304 0.4294 0.4290 0.4290 0.4287
3339.783930 0.4282 0.4280 0.4280 0.4280 0.4280
3344.416638 0.4280 0.4280 0.4280 0.4280 0.4273
3349.049345 0.4263 0.4256 0.4251 0.4243 0.4233
3353.682053 0.4226 0.4221 0.4213 0.4203 0.4196
3358.314761 0.4191 0.4186 0.4181 0.4172 0.4162
3362.947469 0.4160 0.4160 0.4156 0.4151 0.4150
3367.580176 0.4150 0.4150 0.4150 0.4154 0.4159
3372.212884 0.4198 0.4243 0.4254 0.4259 0.4273
3376.845592 0.4288 0.4299 0.4309 0.4310 0.4310
3381.478300 0.4314 0.4320 0.4320 0.4320 0.4320
3386.111007 0.4320 0.4320 0.4320 0.4320 0.4320
3390.743715 0.4320 0.4320 0.4320 0.4320 0.4315
3395.376423 0.4310 0.4310 0.4310 0.4310 0.4310
3400.009131 0.4300 0.4290 0.4290 0.4290 0.4285
3404.641838 0.4280 0.4280 0.4280 0.4270 0.4260
3409.274546 0.4260 0.4260 0.4260 0.4260 0.4260
3413.907254 0.4260 0.4260 0.4260 0.4255 0.4249
3418.539962 0.4239 0.4227 0.4202 0.4180 0.4180
3423.172669 0.4179 0.4169 0.4160 0.4160 0.4159
3427.805377 0.4154 0.4150 0.4150 0.4150 0.4150
3432.438085 0.4150 0.4150 0.4150 0.4150 0.4150
3437.070793 0.4150 0.4148 0.4138 0.4130 0.4130
3441.703500 0.4130 0.4130 0.4129 0.4124 0.4120
3446.336208 0.4120 0.4117 0.4107 0.4100 0.4100
3450.968916 0.4099 0.4094 0.4090 0.4090 0.4088
3455.601624 0.4083 0.4080 0.4080 0.4080 0.4080
3460.234331 0.4077 0.4066 0.4058 0.4053 0.4050
3464.867039 0.4050 0.4044 0.4029 0.4016 0.4006
3469.499747 0.4000 0.4000 0.4000 0.4000 0.3998
3474.132455 0.3993 0.3990 0.3990 0.3990 0.3990
3478.765162 0.3985 0.3975 0.3970 0.3970 0.3970
3483.397870 0.3970 0.3968 0.3963 0.3960 0.3960
3488.030578 0.3960 0.3960 0.3957 0.3952 0.3950
3492.663286 0.3950 0.3950 0.3950 0.3953 0.3958
3497.295993 0.3960 0.3960 0.3963 0.3968 0.3976
3501.928701 0.3986 0.3990 0.3990 0.3990 0.3990
3506.561409 0.3990 0.3990 0.3990 0.3990 0.3990
3511.194117 0.3990 0.3990 0.3990 0.3990 0.3990
3515.826824 0.3983 0.3973 0.3970 0.3970 0.3967
3520.459532 0.3962 0.3960 0.3960 0.3960 0.3960
3525.092240 0.3960 0.3960 0.3960 0.3960 0.3960
3529.724948 0.3960 0.3956 0.3951 0.3950 0.3950
3534.357655 0.3950 0.3950 0.3942 0.3932 0.3930
3538.990363 0.3930 0.3930 0.3930 0.3930 0.3930
3543.623071 0.3930 0.3930 0.3926 0.3921 0.3920
3548.255779 0.3920 0.3920 0.3920 0.3920 0.3920
3552.888486 0.3911 0.3901 0.3900 0.3900 0.3900
3557.521194 0.3900 0.3900 0.3900 0.3895 0.3890
3562.153902 0.3890 0.3890 0.3890 0.3890 0.3890
3566.786610 0.3890 0.3890 0.3890 0.3890 0.3890
3571.419317 0.3890 0.3890 0.3890 0.3890 0.3890
3576.052025 0.3890 0.3890 0.3890 0.3890 0.3890
3580.684733 0.3890 0.3890 0.3890 0.3890 0.3890
3585.317441 0.3890 0.3890 0.3889 0.3879 0.3870
3589.950148 0.3870 0.3870 0.3870 0.3870 0.3870
3594.582856 0.3870 0.3870 0.3870 0.3870 0.3869
3599.215564 0.3864 0.3860 0.3860 0.3860 0.3860
3603.848272 0.3860 0.3860 0.3860 0.3860 0.3859
3608.480979 0.3854 0.3850 0.3850 0.3850 0.3850
3613.113687 0.3850 0.3850 0.3850 0.3850 0.3850
3617.746395 0.3850 0.3850 0.3850 0.3850 0.3850
3622.379103 0.3850 0.3850 0.3850 0.3850 0.3850
3627.011811 0.3850 0.3852 0.3857 0.3860 0.3860
3631.644518 0.3860 0.3860 0.3860 0.3860 0.3860
3636.277226 0.3860 0.3860 0.3860 0.3858 0.3853
3640.909934 0.3850 0.3850 0.3850 0.3850 0.3846
3645.542642 0.3836 0.3830 0.3830 0.3830 0.3830
3650.175349 0.3830 0.3830 0.3830 0.3830 0.3834
3654.808057 0.3845 0.3850 0.3850 0.3850 0.3850
3659.440765 0.3850 0.3850 0.3853 0.3858 0.3860
3664.073473 0.3860 0.3860 0.3860 0.3860 0.3860
3668.706180 0.3857 0.3852 0.3850 0.3850 0.3850
3673.338888 0.3850 0.3850 0.3850 0.3844 0.3834
3677.971596 0.3827 0.3822 0.3820 0.3820 0.3820
3682.604304 0.3820 0.3814 0.3804 0.3800 0.3800
3687.237011 0.3800 0.3800 0.3800 0.3800 0.3800
3691.869719 0.3800 0.3800 0.3800 0.3800 0.3800
3696.502427 0.3800 0.3800 0.3800 0.3800 0.3800
3701.135135 0.3800 0.3800 0.3800 0.3807 0.3817
3705.767842 0.3820 0.3820 0.3820 0.3820 0.3820
3710.400550 0.3820 0.3820 0.3820 0.3820 0.3820
3715.033258 0.3820 0.3820 0.3820 0.3820 0.3820
3719.665966 0.3820 0.3820 0.3820 0.3820 0.3820
3724.298673 0.3820 0.3820 0.3820 0.3820 0.3820
3728.931381 0.3820 0.3811 0.3801 0.3800 0.3800
3733.564089 0.3800 0.3800 0.3800 0.3800 0.3795
3738.196797 0.3790 0.3790 0.3790 0.3790 0.3790
3742.829504 0.3780 0.3770 0.3770 0.3770 0.3765
3747.462212 0.3760 0.3760 0.3760 0.3760 0.3760
3752.094920 0.3760 0.3760 0.3765 0.3770 0.3770
3756.727628 0.3770 0.3770 0.3770 0.3770 0.3770
3761.360335 0.3770 0.3770 0.3770 0.3770 0.3770
3765.993043 0.3770 0.3770 0.3770 0.3770 0.3769
3770.625751 0.3764 0.3760 0.3760 0.3759 0.3754
3775.258459 0.3749 0.3738 0.3729 0.3724 0.3718
3779.891166 0.3708 0.3699 0.3694 0.3688 0.3678
3784.523874 0.3670 0.3670
##END=
