##TITLE=ETHYNYLBENZENE
##JCAMP-DX=4.24
##DATA TYPE=INFRARED SPECTRUM
##CLASS=COBLENTZ
##ORIGIN=DOW CHEMICAL COMPANY
##OWNER=COBLENTZ SOCIETY
Collection (C) 2018 copyright by the U.S. Secretary of Commerce
on behalf of the United States of America. All rights reserved.
##DATE=Not specified, most likely prior to 1970
##CAS REGISTRY NO=536-74-3
##MOLFORM=C8 H6
##SOURCE REFERENCE=COBLENTZ NO. 205
##$NIST SOURCE=COBLENTZ
##$NIST IMAGE=cob205
##SPECTROMETER/DATA SYSTEM=Not specified, most likely a prism, grating, or hybrid spectrometer.
##STATE=SOLUTION (10% CCl4 FOR 2.5-7.5, 10% CS2 FOR 7.5-15 MICRON)
##PATH LENGTH=0.01 CM, 0.01 CM
##SAMPLING PROCEDURE=TRANSMISSION
##RESOLUTION=4
##DATA PROCESSING=DIGITIZED BY NIST FROM HARD COPY
##XUNITS=MICROMETERS
##YUNITS=TRANSMITTANCE
##XFACTOR=1.000000
##YFACTOR=1
##DELTAX=000.006477
##FIRSTX=2.028
##LASTX=15.9984
##FIRSTY=0.94
##MAXX=15.9984
##MINX=2.028
##MAXY=0.952
##MINY=0.039
##NPOINTS=2158
##XYDATA=(X++(Y..Y))
2.028000 0.9400 0.9400 0.9420 0.9400 0.9400
2.060398 0.9400 0.9400 0.9400 0.9400 0.9400
2.093000 0.9400 0.9400 0.9400 0.9370 0.9360
2.125398 0.9360 0.9360 0.9360 0.9360 0.9370
2.158000 0.9370 0.9390 0.9400 0.9400 0.9420
2.190398 0.9440 0.9470 0.9480 0.9480 0.9480
2.223000 0.9480 0.9480 0.9470 0.9470 0.9470
2.255398 0.9480 0.9470 0.9470 0.9470 0.9470
2.288000 0.9470 0.9470 0.9450 0.9450 0.9440
2.320398 0.9450 0.9450 0.9470 0.9480 0.9480
2.352000 0.9500 0.9500 0.9480 0.9480 0.9480
2.384398 0.9500 0.9480 0.9480 0.9470 0.9450
2.417000 0.9440 0.9420 0.9400 0.9400 0.9400
2.449398 0.9390 0.9390 0.9390 0.9390 0.9400
2.482000 0.9400 0.9420 0.9420 0.9420 0.9420
2.514398 0.9400 0.9370 0.9340 0.9330 0.9330
2.547000 0.9330 0.9310 0.9310 0.9310 0.9330
2.579398 0.9340 0.9360 0.9400 0.9450 0.9450
2.611000 0.9450 0.9470 0.9470 0.9450 0.9470
2.643398 0.9470 0.9470 0.9470 0.9480 0.9500
2.676000 0.9520 0.9520 0.9520 0.9500 0.9500
2.708398 0.9500 0.9470 0.9470 0.9450 0.9450
2.741000 0.9450 0.9470 0.9480 0.9480 0.9480
2.773398 0.9500 0.9500 0.9500 0.9500 0.9500
2.806000 0.9500 0.9500 0.9500 0.9470 0.9470
2.838398 0.9450 0.9450 0.9450 0.9450 0.9450
2.870000 0.9450 0.9450 0.9440 0.9440 0.9420
2.902398 0.9420 0.9400 0.9390 0.9360 0.9310
2.935000 0.9200 0.8930 0.8640 0.8370 0.7870
2.967398 0.7200 0.6520 0.5940 0.5070 0.4250
3.000000 0.3540 0.3470 0.3660 0.4050 0.4320
3.032398 0.4670 0.4970 0.7400 0.8030 0.8320
3.065000 0.8700 0.8850 0.8960 0.9100 0.9180
3.097398 0.9210 0.9230 0.9260 0.9280 0.9290
3.130000 0.9290 0.9280 0.9280 0.9250 0.9230
3.162398 0.9180 0.9150 0.9100 0.9040 0.8910
3.194000 0.8700 0.8450 0.8190 0.7890 0.7590
3.226398 0.7250 0.7170 0.7000 0.6850 0.6770
3.259000 0.6730 0.6710 0.6710 0.6770 0.6880
3.291398 0.6980 0.7080 0.7280 0.7460 0.7540
3.324000 0.7600 0.8270 0.8420 0.8670 0.8810
3.356398 0.8940 0.8990 0.9040 0.9070 0.9070
3.389000 0.9090 0.9070 0.9100 0.9120 0.9120
3.421398 0.9130 0.9150 0.9170 0.9180 0.9180
3.453000 0.9210 0.9210 0.9230 0.9250 0.9250
3.485398 0.9260 0.9290 0.9330 0.9340 0.9360
3.518000 0.9360 0.9370 0.9390 0.9400 0.9400
3.550398 0.9400 0.9400 0.9400 0.9420 0.9440
3.583000 0.9440 0.9440 0.9420 0.9420 0.9440
3.615398 0.9440 0.9440 0.9450 0.9450 0.9450
3.648000 0.9480 0.9480 0.9480 0.9480 0.9480
3.680398 0.9480 0.9480 0.9480 0.9480 0.9480
3.712000 0.9480 0.9480 0.9480 0.9480 0.9480
3.744398 0.9480 0.9480 0.9480 0.9480 0.9480
3.777000 0.9480 0.9480 0.9480 0.9480 0.9480
3.809398 0.9480 0.9480 0.9470 0.9470 0.9470
3.842000 0.9470 0.9470 0.9470 0.9470 0.9470
3.874398 0.9470 0.9470 0.9470 0.9470 0.9470
3.907000 0.9470 0.9480 0.9480 0.9480 0.9480
3.939398 0.9480 0.9480 0.9480 0.9480 0.9480
3.972000 0.9480 0.9480 0.9480 0.9480 0.9480
4.004398 0.9470 0.9480 0.9480 0.9480 0.9480
4.036000 0.9480 0.9480 0.9480 0.9480 0.9480
4.068398 0.9480 0.9480 0.9480 0.9480 0.9480
4.101000 0.9480 0.9500 0.9500 0.9500 0.9480
4.133398 0.9480 0.9470 0.9470 0.9450 0.9440
4.166000 0.9440 0.9440 0.9420 0.9420 0.9420
4.198398 0.9420 0.9440 0.9450 0.9450 0.9450
4.231000 0.9470 0.9480 0.9480 0.9480 0.9480
4.263398 0.9470 0.9470 0.9470 0.9480 0.9480
4.295000 0.9480 0.9480 0.9480 0.9480 0.9480
4.327398 0.9500 0.9500 0.9480 0.9480 0.9480
4.360000 0.9480 0.9480 0.9480 0.9480 0.9480
4.392398 0.9480 0.9470 0.9450 0.9450 0.9450
4.425000 0.9450 0.9450 0.9450 0.9450 0.9450
4.457398 0.9450 0.9470 0.9470 0.9480 0.9480
4.490000 0.9480 0.9480 0.9480 0.9480 0.9470
4.522398 0.9470 0.9480 0.9480 0.9480 0.9500
4.554000 0.9500 0.9480 0.9480 0.9500 0.9500
4.586398 0.9500 0.9500 0.9500 0.9500 0.9500
4.619000 0.9500 0.9500 0.9500 0.9520 0.9520
4.651398 0.9500 0.9480 0.9480 0.9480 0.9470
4.684000 0.9470 0.9440 0.9440 0.9370 0.9250
4.716398 0.8930 0.8850 0.8610 0.8460 0.8350
4.749000 0.8290 0.8290 0.8370 0.8580 0.8860
4.781398 0.9040 0.9170 0.9260 0.9310 0.9340
4.813000 0.9360 0.9370 0.9390 0.9420 0.9440
4.845398 0.9450 0.9470 0.9480 0.9480 0.9480
4.878000 0.9480 0.9480 0.9480 0.9480 0.9480
4.910398 0.9470 0.9450 0.9450 0.9480 0.9480
4.943000 0.9500 0.9480 0.9480 0.9500 0.9500
4.975398 0.9500 0.9470 0.9450 0.9440 0.9420
5.008000 0.9420 0.9420 0.9440 0.9440 0.9400
5.040398 0.9370 0.9330 0.9230 0.9100 0.9010
5.073000 0.8930 0.8830 0.8800 0.8750 0.8700
5.105398 0.8660 0.8620 0.8590 0.8580 0.8590
5.137000 0.8670 0.8810 0.8930 0.9090 0.9180
5.169398 0.9210 0.9250 0.9260 0.9280 0.9290
5.202000 0.9310 0.9330 0.9310 0.9310 0.9260
5.234398 0.9210 0.9130 0.9020 0.8930 0.8860
5.267000 0.8810 0.8780 0.8750 0.8740 0.8720
5.299398 0.8700 0.8690 0.8670 0.8670 0.8810
5.332000 0.8970 0.9090 0.9170 0.9210 0.9250
5.364398 0.9310 0.9330 0.9340 0.9340 0.9340
5.396000 0.9340 0.9340 0.9340 0.9340 0.9330
5.428398 0.9330 0.9310 0.9280 0.9250 0.9230
5.461000 0.9210 0.9180 0.9150 0.9100 0.9090
5.493398 0.9070 0.9020 0.8940 0.8830 0.8750
5.526000 0.8690 0.8660 0.8660 0.8700 0.8780
5.558398 0.8930 0.8960 0.9010 0.9070 0.9100
5.591000 0.9120 0.9120 0.9090 0.9090 0.9090
5.623398 0.9090 0.9070 0.9100 0.9100 0.9090
5.655000 0.8970 0.8830 0.8770 0.8700 0.8670
5.687398 0.8640 0.8620 0.8620 0.8660 0.8740
5.720000 0.8770 0.8780 0.8830 0.8850 0.8890
5.752398 0.8940 0.9010 0.9020 0.9010 0.8930
5.785000 0.8910 0.8890 0.8880 0.8910 0.8960
5.817398 0.8970 0.8960 0.8960 0.8960 0.8930
5.850000 0.8930 0.8910 0.8930 0.8960 0.8970
5.882398 0.8960 0.8960 0.8960 0.8940 0.8940
5.915000 0.8890 0.8880 0.8860 0.8800 0.8750
5.947398 0.8700 0.8690 0.8670 0.8670 0.8660
5.979000 0.8670 0.8700 0.8770 0.8800 0.8810
6.011398 0.8810 0.8850 0.8880 0.8930 0.8970
6.044000 0.9010 0.9070 0.9100 0.9120 0.9120
6.076398 0.9120 0.9120 0.9120 0.9120 0.9130
6.109000 0.9130 0.9130 0.9130 0.9100 0.9090
6.141398 0.9050 0.9050 0.9040 0.8990 0.8990
6.174000 0.8940 0.8910 0.8850 0.8540 0.8430
6.206398 0.8210 0.7890 0.7750 0.7650 0.7630
6.238000 0.7650 0.7680 0.7860 0.8050 0.8220
6.270398 0.8370 0.8400 0.8400 0.8370 0.8300
6.303000 0.8220 0.8160 0.8080 0.8020 0.7970
6.335398 0.8030 0.8080 0.8140 0.8210 0.8300
6.368000 0.8400 0.8450 0.8510 0.8540 0.8610
6.400398 0.8660 0.8690 0.8700 0.8720 0.8720
6.433000 0.8700 0.8700 0.8700 0.8700 0.8700
6.465398 0.8700 0.8720 0.8720 0.8700 0.8690
6.497000 0.8670 0.8640 0.8610 0.8590 0.8580
6.529398 0.8590 0.8590 0.8590 0.8580 0.8580
6.562000 0.8580 0.8580 0.8540 0.8510 0.8460
6.594398 0.8450 0.8450 0.8450 0.8450 0.8480
6.627000 0.8480 0.8460 0.8140 0.7320 0.6930
6.659398 0.6550 0.6100 0.5590 0.5030 0.4270
6.692000 0.3950 0.3950 0.4330 0.4650 0.4810
6.724398 0.4910 0.7320 0.7570 0.7680 0.7730
6.756000 0.8590 0.8720 0.8770 0.8780 0.8780
6.788398 0.8780 0.8770 0.8740 0.8720 0.8720
6.821000 0.8700 0.8700 0.8620 0.8480 0.7920
6.853398 0.7600 0.7060 0.6570 0.6060 0.5690
6.886000 0.5700 0.5510 0.5690 0.5770 0.5880
6.918398 0.7750 0.8210 0.8370 0.8500 0.8670
6.951000 0.8750 0.8800 0.8850 0.8880 0.8890
6.983398 0.8890 0.8930 0.8940 0.8940 0.8960
7.016000 0.8940 0.8970 0.8990 0.9050 0.9070
7.048398 0.9070 0.9070 0.9040 0.9020 0.9020
7.080000 0.9020 0.9010 0.9010 0.9010 0.9010
7.112398 0.8970 0.8960 0.8970 0.8970 0.8970
7.145000 0.8970 0.8960 0.8940 0.8930 0.8930
7.177398 0.8880 0.8860 0.8810 0.8780 0.8770
7.210000 0.8740 0.8740 0.8720 0.8720 0.8740
7.242398 0.8740 0.8740 0.8750 0.8780 0.8800
7.275000 0.8810 0.8830 0.8830 0.8850 0.8850
7.307398 0.8860 0.8890 0.8960 0.8990 0.9040
7.339000 0.9040 0.9040 0.9040 0.9040 0.9040
7.371398 0.9010 0.8990 0.8990 0.8960 0.8960
7.404000 0.8930 0.8890 0.8860 0.8850 0.8780
7.436398 0.8770 0.8720 0.8690 0.8640 0.8620
7.469000 0.8610 0.8560 0.8540 0.8540 0.8530
7.501398 0.8530 0.8540 0.8560 0.8560 0.8560
7.534000 0.8560 0.8540 0.8510 0.8480 0.8460
7.566398 0.8420 0.8400 0.8400 0.8370 0.8300
7.598000 0.8240 0.8210 0.8160 0.8140 0.8100
7.630398 0.8070 0.7990 0.7940 0.7910 0.7810
7.663000 0.7780 0.7750 0.7730 0.7710 0.7710
7.695398 0.7680 0.7650 0.7620 0.7620 0.7570
7.728000 0.7520 0.7480 0.7440 0.7400 0.7330
7.760398 0.7320 0.7320 0.7330 0.7380 0.7440
7.793000 0.7520 0.7600 0.7700 0.7760 0.7830
7.825398 0.7870 0.7920 0.7940 0.7950 0.7970
7.858000 0.7970 0.8000 0.8020 0.8030 0.8030
7.890398 0.8050 0.8070 0.8070 0.8080 0.8110
7.922000 0.8100 0.8070 0.8000 0.8000 0.7920
7.954398 0.7870 0.7830 0.7790 0.7760 0.7630
7.987000 0.7540 0.7400 0.7330 0.7250 0.7160
8.019398 0.7030 0.6900 0.6790 0.6710 0.6680
8.052000 0.6630 0.6570 0.6500 0.6390 0.6290
8.084398 0.6200 0.6100 0.6010 0.5910 0.5820
8.117000 0.5720 0.5590 0.5500 0.5400 0.5320
8.149398 0.5230 0.5100 0.5020 0.4990 0.4960
8.181000 0.4940 0.4920 0.4920 0.4960 0.5020
8.213398 0.5130 0.5230 0.5340 0.5450 0.5480
8.246000 0.5590 0.5700 0.5860 0.6280 0.6290
8.278398 0.6390 0.6610 0.6870 0.6960 0.7060
8.311000 0.7190 0.7250 0.7300 0.7350 0.7360
8.343398 0.7380 0.7400 0.7410 0.7410 0.7400
8.376000 0.7400 0.7400 0.7400 0.7430 0.7460
8.408398 0.7480 0.7490 0.7510 0.7520 0.7550
8.440000 0.7550 0.7550 0.7550 0.7550 0.7540
8.472398 0.7540 0.7540 0.7540 0.7540 0.7540
8.505000 0.7550 0.7570 0.7590 0.7620 0.7630
8.537398 0.7670 0.7680 0.7700 0.7710 0.7710
8.570000 0.7710 0.7710 0.7700 0.7700 0.7680
8.602398 0.7680 0.7670 0.7670 0.7670 0.7650
8.635000 0.7650 0.7700 0.7750 0.7760 0.7810
8.667398 0.7840 0.7860 0.7890 0.7940 0.7950
8.699000 0.7950 0.7970 0.7990 0.7990 0.8020
8.731398 0.8030 0.8070 0.8070 0.8070 0.8070
8.764000 0.8080 0.8080 0.8100 0.8110 0.8130
8.796398 0.8140 0.8140 0.8160 0.8180 0.8190
8.829000 0.8210 0.8220 0.8220 0.8240 0.8260
8.861398 0.8270 0.8300 0.8320 0.8350 0.8370
8.894000 0.8380 0.8380 0.8380 0.8380 0.8380
8.926398 0.8380 0.8400 0.8400 0.8380 0.8380
8.959000 0.8400 0.8400 0.8420 0.8430 0.8430
8.991398 0.8430 0.8420 0.8420 0.8400 0.8400
9.023000 0.8380 0.8370 0.8350 0.8340 0.8320
9.055398 0.8270 0.8240 0.8190 0.8140 0.8100
9.088000 0.8080 0.8070 0.8070 0.8070 0.8070
9.120398 0.8080 0.8140 0.8180 0.8210 0.8240
9.153000 0.8260 0.8290 0.8320 0.8350 0.8380
9.185398 0.8400 0.8430 0.8450 0.8450 0.8460
9.218000 0.8460 0.8460 0.8460 0.8450 0.8420
9.250398 0.8350 0.8320 0.8270 0.8220 0.8110
9.282000 0.8020 0.7870 0.7710 0.7410 0.7060
9.314398 0.7040 0.6840 0.6630 0.6250 0.6090
9.347000 0.5850 0.5830 0.5830 0.5850 0.6010
9.379398 0.6100 0.6500 0.6880 0.7030 0.7440
9.412000 0.7570 0.7700 0.7830 0.7950 0.8080
9.444398 0.8160 0.8300 0.8380 0.8430 0.8500
9.477000 0.8540 0.8580 0.8620 0.8660 0.8690
9.509398 0.8690 0.8690 0.8700 0.8700 0.8700
9.541000 0.8720 0.8720 0.8720 0.8720 0.8720
9.573398 0.8720 0.8740 0.8720 0.8740 0.8750
9.606000 0.8750 0.8750 0.8750 0.8750 0.8740
9.638398 0.8740 0.8720 0.8660 0.8590 0.8420
9.671000 0.8240 0.8030 0.7830 0.7830 0.6920
9.703398 0.6690 0.6470 0.6440 0.6250 0.5830
9.736000 0.5800 0.5830 0.5980 0.6150 0.6310
9.768398 0.6490 0.6950 0.7240 0.7650 0.7840
9.801000 0.8070 0.8140 0.8210 0.8290 0.8320
9.833398 0.8430 0.8500 0.8560 0.8590 0.8620
9.865000 0.8670 0.8700 0.8720 0.8740 0.8750
9.897398 0.8780 0.8800 0.8800 0.8810 0.8810
9.930000 0.8810 0.8810 0.8810 0.8810 0.8810
9.962398 0.8800 0.8800 0.8810 0.8800 0.8800
9.995000 0.8780 0.8800 0.8780 0.8780 0.8770
10.027398 0.8750 0.8750 0.8750 0.8750 0.8780
10.060000 0.8810 0.8850 0.8850 0.8860 0.8860
10.092398 0.8880 0.8880 0.8890 0.8890 0.8890
10.124000 0.8890 0.8890 0.8910 0.8890 0.8880
10.156398 0.8880 0.8880 0.8880 0.8860 0.8860
10.189000 0.8830 0.8830 0.8850 0.8860 0.8880
10.221398 0.8880 0.8880 0.8890 0.8890 0.8890
10.254000 0.8910 0.8930 0.8930 0.8930 0.8940
10.286398 0.8940 0.8940 0.8940 0.8940 0.8940
10.319000 0.8940 0.8940 0.8940 0.8940 0.8940
10.351398 0.8940 0.8940 0.8940 0.8940 0.8940
10.383000 0.8940 0.8940 0.8940 0.8930 0.8940
10.415398 0.8930 0.8930 0.8930 0.8940 0.8960
10.448000 0.8970 0.8970 0.8990 0.9010 0.9020
10.480398 0.9040 0.9050 0.9050 0.9050 0.9070
10.513000 0.9070 0.9070 0.9070 0.9070 0.9070
10.545398 0.9070 0.9070 0.9070 0.9070 0.9090
10.578000 0.9090 0.9090 0.9090 0.9070 0.9050
10.610398 0.9050 0.9040 0.9040 0.9010 0.8990
10.642000 0.8970 0.8970 0.8960 0.8960 0.8960
10.674398 0.8960 0.8970 0.8970 0.8970 0.8970
10.707000 0.8960 0.8940 0.8890 0.8860 0.8830
10.739398 0.8800 0.8750 0.8740 0.8700 0.8670
10.772000 0.8660 0.8640 0.8620 0.8610 0.8590
10.804398 0.8560 0.8510 0.8480 0.8420 0.8340
10.837000 0.8300 0.8240 0.8050 0.7920 0.7330
10.869398 0.7120 0.6880 0.6770 0.6650 0.6630
10.902000 0.6090 0.5530 0.5290 0.5290 0.5080
10.934398 0.4970 0.4750 0.4750 0.4760 0.4990
10.966000 0.5130 0.5270 0.5390 0.5500 0.5850
10.998398 0.6530 0.6960 0.7110 0.7220 0.7430
11.031000 0.7590 0.7710 0.7910 0.7970 0.8080
11.063398 0.8160 0.8270 0.8320 0.8420 0.8480
11.096000 0.8530 0.8610 0.8660 0.8720 0.8750
11.128398 0.8800 0.8850 0.8880 0.8890 0.8940
11.161000 0.8960 0.8990 0.8990 0.8990 0.9040
11.193398 0.9040 0.9050 0.9070 0.9090 0.9090
11.225000 0.9100 0.9100 0.9120 0.9120 0.9120
11.257398 0.9120 0.9100 0.9090 0.9050 0.8990
11.290000 0.8960 0.8930 0.8850 0.8780 0.8740
11.322398 0.8670 0.8610 0.8580 0.8530 0.8510
11.355000 0.8510 0.8540 0.8580 0.8610 0.8640
11.387398 0.8670 0.8720 0.8750 0.8780 0.8810
11.420000 0.8850 0.8910 0.8960 0.8970 0.8990
11.452398 0.9010 0.9050 0.9070 0.9090 0.9120
11.484000 0.9130 0.9150 0.9150 0.9150 0.9150
11.516398 0.9170 0.9150 0.9170 0.9170 0.9180
11.549000 0.9180 0.9180 0.9200 0.9200 0.9200
11.581398 0.9210 0.9200 0.9210 0.9210 0.9210
11.614000 0.9210 0.9230 0.9230 0.9230 0.9230
11.646398 0.9230 0.9250 0.9250 0.9250 0.9260
11.679000 0.9280 0.9280 0.9280 0.9280 0.9280
11.711398 0.9280 0.9280 0.9280 0.9280 0.9280
11.744000 0.9280 0.9280 0.9260 0.9250 0.9250
11.776398 0.9250 0.9230 0.9200 0.9180 0.9170
11.808000 0.9150 0.9100 0.9090 0.9070 0.9050
11.840398 0.9040 0.8990 0.8970 0.8970 0.8960
11.873000 0.8930 0.8880 0.8860 0.8830 0.8830
11.905398 0.8810 0.8810 0.8810 0.8810 0.8830
11.938000 0.8830 0.8830 0.8830 0.8850 0.8850
11.970398 0.8860 0.8860 0.8880 0.8910 0.8930
12.003000 0.8940 0.8940 0.8960 0.8960 0.8960
12.035398 0.8960 0.8970 0.8970 0.8970 0.8990
12.067000 0.8990 0.8990 0.9010 0.9010 0.9020
12.099398 0.9040 0.9040 0.9040 0.9040 0.9040
12.132000 0.9040 0.9050 0.9050 0.9050 0.9050
12.164398 0.9050 0.9050 0.9050 0.9050 0.9040
12.197000 0.9040 0.9040 0.9040 0.9040 0.9050
12.229398 0.9070 0.9070 0.9070 0.9070 0.9090
12.262000 0.9090 0.9090 0.9090 0.9100 0.9100
12.294398 0.9100 0.9100 0.9100 0.9120 0.9120
12.326000 0.9120 0.9120 0.9120 0.9120 0.9120
12.358398 0.9120 0.9120 0.9120 0.9100 0.9100
12.391000 0.9090 0.9070 0.9070 0.9070 0.9070
12.423398 0.9050 0.9050 0.9050 0.9040 0.9040
12.456000 0.9020 0.9020 0.9020 0.9020 0.8990
12.488398 0.8990 0.8990 0.8990 0.8990 0.8990
12.521000 0.8990 0.8990 0.8990 0.8990 0.8990
12.553398 0.8990 0.8990 0.8990 0.8990 0.8990
12.585000 0.8990 0.8990 0.8970 0.8970 0.8960
12.617398 0.8960 0.8940 0.8910 0.8890 0.8880
12.650000 0.8860 0.8860 0.8860 0.8860 0.8850
12.682398 0.8850 0.8830 0.8810 0.8810 0.8800
12.715000 0.8780 0.8780 0.8770 0.8740 0.8700
12.747398 0.8670 0.8670 0.8670 0.8640 0.8610
12.780000 0.8610 0.8610 0.8580 0.8540 0.8530
12.812398 0.8510 0.8500 0.8460 0.8430 0.8400
12.845000 0.8380 0.8350 0.8320 0.8270 0.8260
12.877398 0.8210 0.8160 0.8130 0.8110 0.8070
12.909000 0.8030 0.7990 0.7970 0.7920 0.7890
12.941398 0.7810 0.7750 0.7680 0.7630 0.7570
12.974000 0.7520 0.7460 0.7330 0.7060 0.6980
13.006398 0.6930 0.6690 0.6650 0.6580 0.6370
13.039000 0.6260 0.6040 0.5510 0.5350 0.5150
13.071398 0.4960 0.4750 0.4560 0.4350 0.4140
13.104000 0.4130 0.3470 0.3310 0.3140 0.2790
13.136398 0.2770 0.2180 0.1920 0.1670 0.1410
13.168000 0.1160 0.1140 0.0950 0.0840 0.0730
13.200398 0.0620 0.0510 0.0490 0.0490 0.0460
13.233000 0.0430 0.0430 0.0410 0.0410 0.0410
13.265398 0.0390 0.0390 0.0410 0.0440 0.0470
13.298000 0.0540 0.0600 0.0660 0.0840 0.0950
13.330398 0.1160 0.1510 0.1850 0.2080 0.2260
13.363000 0.2450 0.2830 0.3060 0.3280 0.3980
13.395398 0.4300 0.4640 0.5110 0.5260 0.5480
13.427000 0.5690 0.5930 0.6150 0.6260 0.6370
13.459398 0.6490 0.6600 0.6820 0.6950 0.7250
13.492000 0.7330 0.7400 0.7510 0.7590 0.7670
13.524398 0.7730 0.7780 0.7830 0.7890 0.7920
13.557000 0.7950 0.7990 0.8000 0.8030 0.8050
13.589398 0.8080 0.8100 0.8110 0.8110 0.8130
13.622000 0.8130 0.8130 0.8130 0.8130 0.8130
13.654398 0.8110 0.8100 0.8080 0.8070 0.8050
13.687000 0.8030 0.8000 0.7990 0.7970 0.7950
13.719398 0.7950 0.7950 0.7950 0.7950 0.7970
13.751000 0.8000 0.8050 0.8080 0.8140 0.8180
13.783398 0.8210 0.8260 0.8300 0.8340 0.8380
13.816000 0.8420 0.8460 0.8500 0.8530 0.8560
13.848398 0.8580 0.8590 0.8620 0.8670 0.8690
13.881000 0.8690 0.8700 0.8700 0.8720 0.8720
13.913398 0.8720 0.8720 0.8720 0.8720 0.8720
13.946000 0.8720 0.8700 0.8700 0.8700 0.8700
13.978398 0.8720 0.8720 0.8700 0.8700 0.8690
14.010000 0.8670 0.8660 0.8620 0.8590 0.8560
14.042398 0.8540 0.8510 0.8500 0.8450 0.8420
14.075000 0.8350 0.8320 0.8290 0.8240 0.8190
14.107398 0.8140 0.8100 0.8050 0.7990 0.7940
14.140000 0.7870 0.7810 0.7750 0.7670 0.7570
14.172398 0.7480 0.7360 0.7240 0.7080 0.7000
14.205000 0.6920 0.6810 0.6730 0.6630 0.6530
14.237398 0.6390 0.6290 0.6100 0.6070 0.5980
14.269000 0.5820 0.5640 0.5450 0.5240 0.5070
14.301398 0.4920 0.4810 0.4680 0.4540 0.4410
14.334000 0.4250 0.4090 0.3900 0.3700 0.3500
14.366398 0.3420 0.3340 0.3250 0.3040 0.2930
14.399000 0.2850 0.2590 0.2470 0.2290 0.2150
14.431398 0.2040 0.1910 0.1770 0.1650 0.1540
14.464000 0.1460 0.1400 0.1330 0.1290 0.1240
14.496398 0.1220 0.1220 0.1220 0.1240 0.1270
14.528000 0.1320 0.1430 0.1490 0.1570 0.1640
14.560398 0.1830 0.1960 0.2040 0.2230 0.2390
14.593000 0.2510 0.2770 0.3010 0.3250 0.3700
14.625398 0.3870 0.4170 0.4270 0.4460 0.4650
14.658000 0.4810 0.4910 0.5000 0.5190 0.5310
14.690398 0.5450 0.5510 0.5640 0.5700 0.5770
14.723000 0.5860 0.5940 0.6020 0.6070 0.6100
14.755398 0.6140 0.6170 0.6220 0.6260 0.6290
14.788000 0.6290 0.6330 0.6340 0.6340 0.6360
14.820398 0.6370 0.6370 0.6390 0.6390 0.6390
14.852000 0.6390 0.6390 0.6390 0.6390 0.6390
14.884398 0.6390 0.6390 0.6390 0.6390 0.6370
14.917000 0.6360 0.6340 0.6340 0.6310 0.6310
14.949398 0.6290 0.6290 0.6290 0.6290 0.6290
14.982000 0.6290 0.6260 0.6260 0.6250 0.6230
15.014398 0.6200 0.6180 0.6150 0.6140 0.6100
15.047000 0.6090 0.6060 0.5990 0.5960 0.5940
15.079398 0.5900 0.5850 0.5830 0.5800 0.5750
15.111000 0.5720 0.5690 0.5670 0.5620 0.5580
15.143398 0.5530 0.5480 0.5450 0.5400 0.5350
15.176000 0.5310 0.5260 0.5210 0.5150 0.5080
15.208398 0.5020 0.4990 0.4960 0.4890 0.4840
15.241000 0.4800 0.4730 0.4680 0.4650 0.4590
15.273398 0.4540 0.4490 0.4480 0.4430 0.4380
15.306000 0.4330 0.4300 0.4250 0.4220 0.4170
15.338398 0.4130 0.4090 0.4050 0.4000 0.3970
15.370000 0.3930 0.3890 0.3850 0.3820 0.3790
15.402398 0.3770 0.3760 0.3740 0.3730 0.3730
15.435000 0.3710 0.3730 0.3710 0.3700 0.3700
15.467398 0.3680 0.3680 0.3660 0.3660 0.3660
15.500000 0.3660 0.3660 0.3660 0.3660 0.3680
15.532398 0.3680 0.3680 0.3680 0.3700 0.3710
15.565000 0.3730 0.3760 0.3770 0.3790 0.3810
15.597398 0.3840 0.3870 0.3890 0.3900 0.3930
15.630000 0.3950 0.3980 0.4000 0.4010 0.4030
15.662398 0.4090 0.4140 0.4160 0.4210 0.4240
15.694000 0.4270 0.4290 0.4320 0.4350 0.4380
15.726398 0.4400 0.4430 0.4460 0.4490 0.4540
15.759000 0.4590 0.4620 0.4670 0.4720 0.4730
15.791398 0.4750 0.4800 0.4810 0.4830 0.4840
15.824000 0.4860 0.4880 0.4890 0.4910 0.4920
15.856398 0.4970 0.4990 0.5000 0.5000 0.5020
15.889000 0.5030 0.5050 0.5070 0.5080 0.5100
15.921398 0.5110 0.5110 0.5130 0.5130 0.5130
15.953000 0.5130 0.5110 0.5100 0.5080 0.5080
15.985398 0.5030 0.4990 0.5030
##END=
