##TITLE=BENZENE, ETHYNYL-
##JCAMP-DX=4.24
##DATA TYPE=INFRARED SPECTRUM
##CLASS=COBLENTZ
##ORIGIN=DOW CHEMICAL COMPANY
##OWNER=COBLENTZ SOCIETY
Collection (C) 2018 copyright by the U.S. Secretary of Commerce
on behalf of the United States of America. All rights reserved.
##DATE=1960
##NAMES=ethynylbenzene
##CAS REGISTRY NO=536-74-3
##MOLFORM=C8 H6
##SOURCE REFERENCE=COBLENTZ NO. 10492
##$NIST SOURCE=COBLENTZ
##$NIST IMAGE=cob-r10492
##SPECTROMETER/DATA SYSTEM=Not specified, most likely a prism, grating, or hybrid spectrometer.
##STATE=GAS (VAPOR PRESSURE OF LIQUID AT ROOM TEMPERATURE)
$$ SEE SPECTRUM NO. 10136 FOR "SOLUTION" STATE
$$ SEE SP. ACTA, VOL. 16, P. 918, 1960
##PATH LENGTH=400 CM CELL
##SAMPLING PROCEDURE=TRANSMISSION
##RESOLUTION=2
##DATA PROCESSING=DIGITIZED BY NIST FROM HARD COPY (FROM TWO SEGMENTS)
##XUNITS=1/CM
##YUNITS=TRANSMITTANCE
##XFACTOR=1.000000
##YFACTOR=1
##DELTAX=1.276771
##FIRSTX=455.107
##LASTX=3801.52
##FIRSTY=1.02
##MAXX=3801.52
##MINX=455.107
##MAXY=1.024
##MINY=0
##NPOINTS=2622
##XYDATA=(X++(Y..Y))
455.107000 1.0200 1.0180 1.0180 1.0180 1.0180
461.490855 1.0140 1.0100 1.0080 1.0060 1.0060
467.874711 1.0020 1.0000 0.9960 0.9920 0.9860
474.258566 0.9800 0.9760 0.9740 0.9720 0.9700
480.642421 0.9660 0.9580 0.9460 0.9460 0.9440
487.026277 0.9360 0.9280 0.9240 0.9180 0.9021
493.410132 0.8940 0.8760 0.8560 0.8500 0.8420
499.793988 0.7922 0.7621 0.7322 0.7121 0.6902
506.177843 0.6500 0.6380 0.6300 0.6300 0.6380
512.561698 0.6679 0.7078 0.7259 0.7598 0.7600
518.945554 0.6800 0.6480 0.6640 0.6780 0.6780
525.329409 0.6820 0.6880 0.6820 0.6721 0.5906
531.713264 0.5060 0.3341 0.6795 0.7079 0.6960
538.097120 0.6940 0.6940 0.6920 0.6940 0.7000
544.480975 0.7120 0.7440 0.7620 0.7820 0.8079
550.864831 0.8359 0.8758 0.8939 0.9000 0.9179
557.248686 0.9460 0.9580 0.9720 1.0059 1.0100
563.632541 1.0140 1.0220 1.0240 1.0240 1.0220
570.016397 1.0160 1.0160 1.0160 1.0160 1.0140
576.400252 1.0060 1.0060 1.0020 0.9960 0.9881
582.784107 0.9660 0.9580 0.9480 0.9360 0.9240
589.167963 0.9001 0.8403 0.7863 0.7125 0.6485
595.551818 0.5900 0.5281 0.4661 0.3403 0.2902
601.935674 0.2283 0.1822 0.1522 0.1143 0.0922
608.319529 0.0700 0.0021 0.0000 0.0020 0.0100
614.703384 0.0000 0.0000 0.0000 0.0000 0.0000
621.087240 0.0020 0.0020 0.0080 0.0120 0.0299
627.471095 0.1137 0.1279 0.2732 0.4469 0.2673
633.854950 0.1660 0.1280 0.0901 0.0202 0.0021
640.238806 0.0000 0.0000 0.0000 0.0000 0.0000
646.622661 0.0000 0.0999 0.0701 0.0401 0.0340
653.006517 0.0400 0.0400 0.0499 0.1136 0.1497
659.390372 0.2880 0.3240 0.3400 0.3659 0.3740
665.774227 0.3800 0.3800 0.3720 0.3422 0.2904
672.158083 0.2840 0.2520 0.2340 0.1741 0.1501
678.541938 0.1321 0.1240 0.1141 0.1041 0.1040
684.925793 0.0940 0.0820 0.0021 0.0020 0.0618
691.309649 0.0660 0.0978 0.0960 0.0900 0.1257
697.693504 0.1600 0.1760 0.1900 0.2179 0.2459
704.077360 0.2739 0.3337 0.3916 0.3940 0.5647
710.461215 0.5980 0.6779 0.7120 0.7439 0.7958
716.845070 0.8159 0.8797 0.8800 0.8800 0.8800
723.228926 0.8780 0.8740 0.8201 0.7701 0.7182
729.612781 0.6403 0.5922 0.5443 0.4963 0.3928
735.996636 0.1861 0.1181 0.1020 0.0860 0.0661
742.380492 0.0441 0.0420 0.0340 0.0280 0.0201
748.764347 0.0200 0.0100 0.0100 0.0040 0.0040
755.148202 0.0100 0.0120 0.0239 0.0280 0.0300
761.532058 0.0300 0.0300 0.0260 0.0260 0.1117
767.915913 0.1180 0.1598 0.2236 0.2776 0.3018
774.299769 0.4260 0.5719 0.6738 0.7019 0.7439
780.683624 0.7858 0.8377 0.8599 0.8739 0.8899
787.067479 0.9040 0.9060 0.9080 0.9140 0.9140
793.451335 0.9140 0.9160 0.9180 0.9180 0.9180
799.835190 0.9180 0.9180 0.9180 0.9200 0.9220
806.219045 0.9220 0.9280 0.9280 0.9300 0.9300
812.602901 0.9320 0.9320 0.9360 0.9380 0.9420
818.986756 0.9420 0.9400 0.9380 0.9380 0.9360
825.370612 0.9360 0.9380 0.9420 0.9420 0.9440
831.754467 0.9440 0.9440 0.9460 0.9440 0.9440
838.138322 0.9460 0.9460 0.9440 0.9440 0.9400
844.522178 0.9400 0.9380 0.9360 0.9360 0.9380
850.906033 0.9380 0.9360 0.9360 0.9360 0.9240
857.289888 0.9240 0.9220 0.9220 0.9200 0.9160
863.673744 0.8980 0.8800 0.8580 0.8500 0.8341
870.057599 0.8300 0.8280 0.8320 0.8320 0.8161
876.441455 0.8140 0.7980 0.7780 0.7640 0.7720
882.825310 0.7760 0.7800 0.7979 0.8079 0.8140
889.209165 0.8140 0.7980 0.7880 0.7840 0.7820
895.593021 0.7780 0.7740 0.7680 0.7620 0.7560
901.976876 0.7500 0.7480 0.7220 0.7100 0.6980
908.360731 0.7000 0.7040 0.6801 0.6065 0.5306
914.744587 0.3541 0.7336 0.7340 0.7340 0.7340
921.128442 0.7340 0.7360 0.7440 0.7539 0.7778
927.512298 0.7880 0.8040 0.8140 0.8340 0.8440
933.896153 0.8599 0.8739 0.8820 0.8899 0.8979
940.280008 0.8980 0.9040 0.9080 0.9100 0.9080
946.663864 0.9080 0.9080 0.9080 0.9080 0.9080
953.047719 0.9080 0.9080 0.9140 0.9120 0.9100
959.431574 0.9080 0.9080 0.9080 0.9080 0.9080
965.815430 0.9080 0.9060 0.9060 0.9060 0.9020
972.199285 0.9020 0.9020 0.9020 0.9060 0.9060
978.583140 0.8960 0.8960 0.9040 0.9040 0.9020
984.966996 0.9020 0.9020 0.8940 0.8940 0.8960
991.350851 0.8980 0.9000 0.9020 0.9020 0.9000
997.734707 0.8960 0.8940 0.8940 0.8900 0.8880
1004.118562 0.8860 0.8860 0.8800 0.8621 0.8520
1010.502417 0.8420 0.8181 0.7981 0.7682 0.7561
1016.886273 0.6200 0.5920 0.5740 0.5760 0.5800
1023.270128 0.5939 0.6059 0.6080 0.6120 0.6180
1029.653983 0.6180 0.6220 0.6280 0.6480 0.6799
1036.037839 0.7039 0.7617 0.7978 0.8238 0.8240
1042.421694 0.8260 0.8260 0.8200 0.8200 0.8160
1048.805550 0.8041 0.7980 0.7821 0.7661 0.7541
1055.189405 0.7480 0.7380 0.6941 0.6681 0.6481
1061.573260 0.6341 0.6320 0.6300 0.6320 0.6360
1067.957116 0.6520 0.6680 0.6680 0.6341 0.6081
1074.340971 0.6080 0.6180 0.6359 0.6658 0.6839
1080.724826 0.7300 0.7340 0.7460 0.7620 0.7720
1087.108682 0.7800 0.7880 0.7900 0.7960 0.7960
1093.492537 0.7980 0.8080 0.8280 0.8280 0.8180
1099.876393 0.8100 0.8100 0.8180 0.8240 0.8339
1106.260248 0.8360 0.8400 0.8520 0.8560 0.8600
1112.644103 0.8640 0.8720 0.8740 0.8780 0.8820
1119.027959 0.8840 0.8880 0.8900 0.8920 0.8920
1125.411814 0.8920 0.8920 0.8860 0.8860 0.8880
1131.795669 0.8840 0.8820 0.8780 0.8780 0.8780
1138.179525 0.8780 0.8740 0.8740 0.8700 0.8740
1144.563380 0.8760 0.8780 0.8760 0.8740 0.8640
1150.947236 0.8640 0.8640 0.8640 0.8640 0.8600
1157.331091 0.8600 0.8560 0.8560 0.8560 0.8540
1163.714946 0.8540 0.8520 0.8520 0.8441 0.8440
1170.098802 0.8520 0.8540 0.8560 0.8560 0.8520
1176.482657 0.8520 0.8480 0.8381 0.8380 0.8519
1182.866512 0.8560 0.8560 0.8560 0.8620 0.8620
1189.250368 0.8600 0.8600 0.8580 0.8560 0.8560
1195.634223 0.8560 0.8400 0.8220 0.8140 0.7941
1202.018079 0.7661 0.7361 0.7141 0.6902 0.6721
1208.401934 0.5900 0.5061 0.3383 0.1325 0.1061
1214.785789 0.0801 0.0621 0.0620 0.0660 0.1077
1221.169645 0.1040 0.0940 0.0840 0.0720 0.0640
1227.553500 0.1636 0.1839 0.2297 0.2558 0.3155
1233.937355 0.3720 0.4540 0.6058 0.6399 0.6938
1240.321211 0.6960 0.7020 0.7100 0.7279 0.7419
1246.705066 0.7580 0.7580 0.7440 0.7300 0.7101
1253.088921 0.6781 0.6621 0.6461 0.5943 0.5761
1259.472777 0.5760 0.5780 0.5900 0.6020 0.6080
1265.856632 0.6080 0.6120 0.6200 0.6200 0.6398
1272.240488 0.6800 0.7100 0.7280 0.7440 0.7779
1278.624343 0.7740 0.7700 0.7700 0.7640 0.7640
1285.008198 0.7620 0.7200 0.6521 0.5881 0.5681
1291.392054 0.5680 0.6038 0.6179 0.6180 0.6001
1297.775909 0.5800 0.5680 0.5680 0.5899 0.6040
1304.159764 0.6199 0.6399 0.6619 0.7117 0.7418
1310.543620 0.7520 0.7700 0.7840 0.7980 0.8120
1316.927475 0.8180 0.8200 0.8200 0.8180 0.8180
1323.311331 0.8180 0.8180 0.8180 0.8300 0.8300
1329.695186 0.8280 0.8240 0.8180 0.8140 0.7822
1336.079041 0.7820 0.7920 0.7980 0.8140 0.8140
1342.462897 0.8160 0.8180 0.8180 0.8180 0.8200
1348.846752 0.8200 0.8160 0.8140 0.8040 0.8020
1355.230607 0.8020 0.7980 0.7841 0.7741 0.7680
1361.614463 0.7680 0.7800 0.7820 0.7820 0.7800
1367.998318 0.7740 0.7740 0.7621 0.7620 0.7779
1374.382174 0.7800 0.7860 0.7960 0.7980 0.7980
1380.766029 0.7980 0.7960 0.7960 0.7940 0.7940
1387.149884 0.7980 0.8040 0.8000 0.7980 0.7960
1393.533740 0.7940 0.7940 0.7940 0.8000 0.8139
1399.917595 0.8140 0.8120 0.8120 0.8120 0.8100
1406.301450 0.8120 0.8120 0.8140 0.8140 0.8140
1412.685306 0.8000 0.7980 0.7960 0.7940 0.7880
1419.069161 0.7820 0.7780 0.7740 0.7720 0.7680
1425.453017 0.7620 0.7120 0.7020 0.6801 0.6621
1431.836872 0.6182 0.5782 0.5502 0.5460 0.5420
1438.220727 0.5280 0.5200 0.5280 0.5539 0.5799
1444.604583 0.6079 0.5742 0.5561 0.5381 0.5261
1450.988438 0.5520 0.5800 0.6239 0.6599 0.6700
1457.372293 0.6820 0.7278 0.7340 0.7420 0.7460
1463.756149 0.7460 0.7620 0.7720 0.7760 0.7660
1470.140004 0.7262 0.7240 0.7180 0.7101 0.6624
1476.523860 0.5800 0.4981 0.3123 0.2861 0.2541
1482.907715 0.1405 0.1221 0.1180 0.1200 0.1279
1489.291570 0.1320 0.1380 0.1420 0.1420 0.1121
1495.675426 0.1120 0.1518 0.2434 0.3254 0.3657
1502.059281 0.4100 0.6319 0.6480 0.6620 0.6700
1508.443136 0.6859 0.6999 0.7119 0.7160 0.7160
1514.826992 0.6960 0.6880 0.6860 0.6880 0.6940
1521.210847 0.7079 0.7140 0.7359 0.7439 0.7599
1527.594702 0.7640 0.7700 0.7620 0.7580 0.7560
1533.978558 0.7679 0.7680 0.7541 0.7480 0.7559
1540.362413 0.7640 0.7660 0.7780 0.7820 0.7840
1546.746269 0.7999 0.8000 0.8020 0.8080 0.8080
1553.130124 0.7900 0.7860 0.7800 0.7581 0.7580
1559.513979 0.7779 0.7959 0.7960 0.7781 0.7740
1565.897835 0.7680 0.7640 0.7281 0.7240 0.7200
1572.281690 0.7120 0.7100 0.6961 0.7099 0.7298
1578.665545 0.7300 0.7100 0.6701 0.6501 0.6341
1585.049401 0.6240 0.6200 0.6200 0.6061 0.5901
1591.433256 0.5680 0.5600 0.5520 0.5460 0.5380
1597.817112 0.5280 0.4842 0.4840 0.5138 0.5339
1604.200967 0.5400 0.5420 0.5500 0.5540 0.5919
1610.584822 0.6418 0.6818 0.6860 0.6979 0.7099
1616.968678 0.7180 0.7500 0.7819 0.7900 0.7960
1623.352533 0.7980 0.7980 0.8020 0.8040 0.8040
1629.736388 0.8060 0.8060 0.7800 0.7680 0.7680
1636.120244 0.7899 0.7960 0.7980 0.8000 0.7980
1642.504099 0.7960 0.7880 0.7640 0.7640 0.7839
1648.887955 0.7900 0.7900 0.7701 0.7640 0.7779
1655.271810 0.7780 0.7780 0.7700 0.7680 0.7401
1661.655665 0.7181 0.7120 0.7100 0.7080 0.7001
1668.039521 0.6960 0.6920 0.6940 0.7259 0.7260
1674.423376 0.6941 0.6940 0.7119 0.7259 0.7280
1680.807231 0.7440 0.7800 0.7760 0.7800 0.7860
1687.191087 0.7980 0.8000 0.8000 0.8079 0.8080
1693.574942 0.7980 0.7780 0.7760 0.7760 0.7740
1699.958798 0.7740 0.7780 0.7860 0.7880 0.7940
1706.342653 0.7980 0.8020 0.8020 0.8000 0.7960
1712.726508 0.7880 0.7781 0.7780 0.7760 0.7740
1719.110364 0.7740 0.7780 0.7940 0.7960 0.7880
1725.494219 0.7860 0.7800 0.7720 0.7680 0.7620
1731.878074 0.7500 0.7300 0.7300 0.7480 0.7480
1738.261930 0.7341 0.7300 0.7240 0.7200 0.7081
1744.645785 0.7060 0.7000 0.7000 0.7080 0.7100
1751.029640 0.7140 0.7200 0.7458 0.7460 0.7262
1757.413496 0.7260 0.7280 0.7280 0.7280 0.7340
1763.797351 0.7619 0.7759 0.7760 0.7740 0.7641
1770.181207 0.7640 0.7620 0.7620 0.7780 0.7780
1776.565062 0.7800 0.7860 0.7840 0.7840 0.7840
1782.948917 0.7800 0.7780 0.7720 0.7660 0.7620
1789.332773 0.7600 0.7500 0.7162 0.7120 0.7100
1795.716628 0.6940 0.6920 0.6900 0.6800 0.6800
1802.100483 0.6880 0.6979 0.7079 0.7120 0.6981
1808.484339 0.6940 0.6920 0.6960 0.7319 0.7639
1814.868194 0.7640 0.7700 0.7780 0.7780 0.7780
1821.252050 0.7780 0.7720 0.7620 0.7700 0.7620
1827.635905 0.7620 0.7520 0.7520 0.7699 0.7819
1834.019760 0.7880 0.7880 0.7820 0.7820 0.7960
1840.403616 0.7980 0.8000 0.8000 0.7881 0.7880
1846.787471 0.8000 0.8020 0.8000 0.8020 0.8040
1853.171326 0.8140 0.8080 0.8040 0.8000 0.7980
1859.555182 0.7980 0.7940 0.7840 0.7780 0.7700
1865.939037 0.7620 0.7441 0.7360 0.7360 0.7300
1872.322893 0.7260 0.7220 0.7140 0.7140 0.7240
1878.706748 0.7260 0.7419 0.7420 0.7122 0.6862
1885.090603 0.6800 0.6780 0.6760 0.6660 0.6660
1891.474459 0.6779 0.6899 0.6999 0.7020 0.7020
1897.858314 0.7080 0.7180 0.7240 0.7300 0.7340
1904.242169 0.7380 0.7420 0.7599 0.7779 0.7998
1910.626025 0.8000 0.8000 0.8040 0.8040 0.8020
1917.009880 0.8020 0.8000 0.8000 0.7980 0.7960
1923.393736 0.7920 0.7900 0.7880 0.7820 0.7800
1929.777591 0.7800 0.7641 0.7600 0.7521 0.7421
1936.161446 0.7400 0.7200 0.7120 0.7100 0.6921
1942.545302 0.6800 0.6800 0.6919 0.6940 0.7238
1948.929157 0.7240 0.7040 0.6800 0.6640 0.6640
1955.313012 0.6720 0.6760 0.6800 0.6860 0.6880
1961.696868 0.6940 0.7020 0.7060 0.7080 0.7080
1968.080723 0.7100 0.7199 0.7280 0.7300 0.7340
1974.464579 0.7440 0.7660 0.7780 0.7800 0.7880
1980.848434 0.8019 0.8080 0.8100 0.8100 0.8120
1987.232289 0.8120 0.8120 0.8120 0.8120 0.8120
1993.616145 0.8120 0.8120 0.8120 0.8120 0.8120
2000.000000 0.8140 0.8180 0.8220 0.8280 0.8340
2006.383855 0.8370 0.8400 0.8400 0.8400 0.8400
2012.767711 0.8400 0.8400 0.8400 0.8400 0.8400
2019.151566 0.8400 0.8400 0.8390 0.8380 0.8380
2025.535421 0.8380 0.8380 0.8380 0.8380 0.8380
2031.919277 0.8380 0.8380 0.8370 0.8360 0.8360
2038.303132 0.8360 0.8360 0.8360 0.8360 0.8360
2044.686988 0.8360 0.8360 0.8360 0.8360 0.8350
2051.070843 0.8340 0.8340 0.8340 0.8340 0.8340
2057.454698 0.8340 0.8340 0.8340 0.8341 0.8351
2063.838554 0.8360 0.8360 0.8359 0.8349 0.8339
2070.222409 0.8329 0.8320 0.8320 0.8320 0.8320
2076.606264 0.8319 0.8309 0.8300 0.8300 0.8300
2082.990120 0.8300 0.8300 0.8300 0.8299 0.8289
2089.373975 0.8277 0.8247 0.8218 0.8198 0.8180
2095.757831 0.8180 0.8177 0.8147 0.8116 0.8076
2102.141686 0.8031 0.7961 0.7893 0.7833 0.7769
2108.525541 0.7679 0.7577 0.7397 0.7194 0.6824
2114.909397 0.6477 0.6297 0.6109 0.5858 0.5639
2121.293252 0.5629 0.5621 0.5631 0.5645 0.5686
2127.677107 0.5732 0.5812 0.5914 0.6134 0.6350
2134.060963 0.6540 0.6751 0.7082 0.7408 0.7719
2140.444818 0.8000 0.8130 0.8242 0.8252 0.8260
2146.828674 0.8260 0.8260 0.8260 0.8260 0.8260
2153.212529 0.8260 0.8260 0.8260 0.8260 0.8260
2159.596384 0.8260 0.8258 0.8248 0.8238 0.8228
2165.980240 0.8222 0.8232 0.8238 0.8228 0.8216
2172.364095 0.8196 0.8180 0.8180 0.8180 0.8180
2178.747950 0.8180 0.8180 0.8182 0.8192 0.8202
2185.131806 0.8212 0.8220 0.8220 0.8218 0.8208
2191.515661 0.8200 0.8200 0.8198 0.8188 0.8180
2197.899517 0.8180 0.8180 0.8180 0.8180 0.8180
2204.283372 0.8180 0.8180 0.8180 0.8180 0.8180
2210.667227 0.8180 0.8180 0.8180 0.8180 0.8180
2217.051083 0.8177 0.8167 0.8160 0.8160 0.8157
2223.434938 0.8147 0.8140 0.8140 0.8140 0.8140
2229.818793 0.8143 0.8153 0.8160 0.8160 0.8157
2236.202649 0.8147 0.8140 0.8140 0.8137 0.8127
2242.586504 0.8117 0.8107 0.8100 0.8100 0.8097
2248.970360 0.8087 0.8080 0.8080 0.8077 0.8067
2255.354215 0.8057 0.8047 0.8040 0.8040 0.8040
2261.738070 0.8040 0.8037 0.8027 0.8017 0.8007
2268.121926 0.8000 0.8000 0.8003 0.8013 0.8020
2274.505781 0.8020 0.8023 0.8033 0.8043 0.8053
2280.889636 0.8063 0.8073 0.8080 0.8080 0.8080
2287.273492 0.8080 0.8083 0.8093 0.8103 0.8113
2293.657347 0.8123 0.8133 0.8140 0.8140 0.8140
2300.041202 0.8140 0.8137 0.8127 0.8117 0.8106
2306.425058 0.8096 0.8086 0.8073 0.8053 0.8029
2312.808913 0.7999 0.7980 0.7980 0.7973 0.7953
2319.192769 0.7921 0.7871 0.7825 0.7785 0.7749
2325.576624 0.7719 0.7704 0.7714 0.7728 0.7748
2331.960479 0.7764 0.7774 0.7780 0.7780 0.7780
2338.344335 0.7780 0.7780 0.7780 0.7776 0.7766
2344.728190 0.7760 0.7760 0.7764 0.7774 0.7788
2351.112045 0.7808 0.7836 0.7876 0.7904 0.7914
2357.495901 0.7920 0.7920 0.7924 0.7934 0.7940
2363.879756 0.7940 0.7940 0.7940 0.7940 0.7940
2370.263612 0.7940 0.7940 0.7944 0.7954 0.7960
2376.647467 0.7960 0.7960 0.7960 0.7964 0.7975
2383.031322 0.7980 0.7980 0.7985 0.7995 0.8005
2389.415178 0.8015 0.8025 0.8035 0.8045 0.8055
2395.799033 0.8060 0.8060 0.8060 0.8060 0.8055
2402.182888 0.8045 0.8040 0.8040 0.8045 0.8055
2408.566744 0.8060 0.8060 0.8060 0.8060 0.8060
2414.950599 0.8060 0.8055 0.8045 0.8035 0.8025
2421.334455 0.8020 0.8020 0.8015 0.8005 0.8000
2427.718310 0.8000 0.7995 0.7985 0.7980 0.7980
2434.102165 0.7980 0.7980 0.7980 0.7980 0.7980
2440.486021 0.7980 0.7980 0.7980 0.7980 0.7980
2446.869876 0.7985 0.7995 0.8000 0.8000 0.8011
2453.253731 0.8031 0.8045 0.8055 0.8060 0.8060
2459.637587 0.8060 0.8060 0.8060 0.8060 0.8060
2466.021442 0.8060 0.8054 0.8044 0.8034 0.8024
2472.405298 0.8020 0.8020 0.8020 0.8020 0.8014
2478.789153 0.8004 0.8000 0.8000 0.7994 0.7984
2485.173008 0.7980 0.7980 0.7980 0.7980 0.7980
2491.556864 0.7980 0.7980 0.7980 0.7980 0.7980
2497.940719 0.7980 0.7980 0.7980 0.7980 0.7974
2504.324574 0.7964 0.7960 0.7960 0.7960 0.7960
2510.708430 0.7954 0.7944 0.7940 0.7940 0.7940
2517.092285 0.7940 0.7940 0.7940 0.7940 0.7940
2523.476140 0.7940 0.7940 0.7940 0.7940 0.7946
2529.859996 0.7956 0.7960 0.7960 0.7966 0.7976
2536.243851 0.7980 0.7980 0.7980 0.7980 0.7973
2542.627707 0.7963 0.7953 0.7943 0.7940 0.7940
2549.011562 0.7940 0.7940 0.7940 0.7940 0.7947
2555.395417 0.7957 0.7960 0.7960 0.7960 0.7960
2561.779273 0.7960 0.7960 0.7960 0.7960 0.7960
2568.163128 0.7960 0.7953 0.7943 0.7940 0.7940
2574.546983 0.7919 0.7889 0.7880 0.7880 0.7873
2580.930839 0.7863 0.7860 0.7860 0.7860 0.7860
2587.314694 0.7867 0.7877 0.7873 0.7863 0.7860
2593.698550 0.7860 0.7860 0.7860 0.7860 0.7860
2600.082405 0.7860 0.7860 0.7860 0.7860 0.7853
2606.466260 0.7843 0.7826 0.7806 0.7800 0.7800
2612.850116 0.7815 0.7835 0.7862 0.7892 0.7915
2619.233971 0.7935 0.7933 0.7923 0.7905 0.7885
2625.617826 0.7873 0.7863 0.7860 0.7860 0.7860
2632.001682 0.7860 0.7860 0.7860 0.7860 0.7860
2638.385537 0.7868 0.7878 0.7880 0.7880 0.7888
2644.769393 0.7898 0.7908 0.7918 0.7928 0.7938
2651.153248 0.7940 0.7940 0.7940 0.7940 0.7940
2657.537103 0.7940 0.7940 0.7940 0.7932 0.7922
2663.920959 0.7904 0.7884 0.7880 0.7880 0.7864
2670.304814 0.7844 0.7840 0.7840 0.7856 0.7876
2676.688669 0.7880 0.7880 0.7872 0.7862 0.7860
2683.072525 0.7860 0.7860 0.7860 0.7852 0.7842
2689.456380 0.7840 0.7840 0.7848 0.7858 0.7868
2695.840236 0.7878 0.7888 0.7898 0.7917 0.7937
2702.224091 0.7940 0.7940 0.7940 0.7940 0.7940
2708.607946 0.7940 0.7932 0.7922 0.7903 0.7883
2714.991802 0.7871 0.7861 0.7851 0.7841 0.7831
2721.375657 0.7821 0.7820 0.7820 0.7820 0.7820
2727.759512 0.7820 0.7820 0.7820 0.7820 0.7820
2734.143368 0.7820 0.7837 0.7857 0.7869 0.7879
2740.527223 0.7880 0.7880 0.7880 0.7880 0.7871
2746.911079 0.7861 0.7860 0.7860 0.7860 0.7860
2753.294934 0.7860 0.7860 0.7851 0.7841 0.7840
2759.678789 0.7840 0.7840 0.7840 0.7840 0.7840
2766.062645 0.7831 0.7821 0.7820 0.7820 0.7811
2772.446500 0.7801 0.7791 0.7781 0.7761 0.7741
2778.830355 0.7740 0.7740 0.7731 0.7721 0.7720
2785.214211 0.7720 0.7720 0.7720 0.7711 0.7700
2791.598066 0.7690 0.7680 0.7670 0.7660 0.7660
2797.981921 0.7660 0.7650 0.7640 0.7650 0.7660
2804.365777 0.7670 0.7680 0.7709 0.7739 0.7769
2810.749632 0.7799 0.7810 0.7820 0.7820 0.7820
2817.133488 0.7820 0.7820 0.7810 0.7800 0.7800
2823.517343 0.7800 0.7800 0.7800 0.7800 0.7800
2829.901198 0.7800 0.7800 0.7800 0.7800 0.7800
2836.285054 0.7800 0.7800 0.7800 0.7800 0.7800
2842.668909 0.7779 0.7759 0.7739 0.7720 0.7720
2849.052764 0.7720 0.7720 0.7720 0.7710 0.7700
2855.436620 0.7690 0.7680 0.7680 0.7680 0.7670
2861.820475 0.7660 0.7650 0.7639 0.7619 0.7600
2868.204331 0.7600 0.7600 0.7600 0.7599 0.7579
2874.588186 0.7560 0.7560 0.7559 0.7549 0.7539
2880.972041 0.7529 0.7520 0.7520 0.7520 0.7520
2887.355897 0.7519 0.7509 0.7500 0.7500 0.7500
2893.739752 0.7500 0.7501 0.7511 0.7521 0.7531
2900.123607 0.7540 0.7540 0.7542 0.7562 0.7581
2906.507463 0.7591 0.7600 0.7600 0.7600 0.7600
2912.891318 0.7599 0.7589 0.7578 0.7558 0.7539
2919.275174 0.7529 0.7519 0.7509 0.7498 0.7478
2925.659029 0.7459 0.7449 0.7440 0.7440 0.7440
2932.042884 0.7440 0.7440 0.7440 0.7439 0.7429
2938.426740 0.7420 0.7420 0.7420 0.7420 0.7421
2944.810595 0.7431 0.7441 0.7451 0.7461 0.7471
2951.194450 0.7481 0.7491 0.7505 0.7535 0.7562
2957.578306 0.7572 0.7580 0.7580 0.7577 0.7557
2963.962161 0.7537 0.7517 0.7498 0.7488 0.7478
2970.346017 0.7468 0.7458 0.7448 0.7440 0.7440
2976.729872 0.7440 0.7440 0.7440 0.7440 0.7440
2983.113727 0.7440 0.7440 0.7440 0.7442 0.7452
2989.497583 0.7471 0.7531 0.7584 0.7604 0.7620
2995.881438 0.7620 0.7618 0.7608 0.7596 0.7576
3002.265293 0.7556 0.7536 0.7516 0.7496 0.7474
3008.649149 0.7444 0.7405 0.7335 0.7261 0.7171
3015.033004 0.7074 0.6954 0.6836 0.6724 0.6589
3021.416860 0.6379 0.6164 0.5934 0.5716 0.5536
3027.800715 0.5356 0.5176 0.5003 0.4853 0.4679
3034.184570 0.4429 0.4235 0.4215 0.4019 0.3279
3040.568426 0.2713 0.2683 0.2665 0.2685 0.2733
3046.952281 0.2853 0.2940 0.2940 0.2932 0.2902
3053.336136 0.2875 0.2854 0.2892 0.3082 0.3261
3059.719992 0.3411 0.3479 0.3329 0.3181 0.3041
3066.103847 0.2849 0.2519 0.2218 0.1995 0.1752
3072.487702 0.1462 0.1223 0.1103 0.1020 0.1020
3078.871558 0.1023 0.1033 0.1037 0.1027 0.1014
3085.255413 0.0994 0.0977 0.0967 0.1003 0.1143
3091.639269 0.1347 0.1697 0.1934 0.1913 0.1883
3098.023124 0.1833 0.1793 0.1773 0.1760 0.1760
3104.406979 0.1804 0.1934 0.2060 0.2181 0.2344
3110.790835 0.2594 0.2841 0.3081 0.3348 0.3668
3117.174690 0.3988 0.4308 0.4541 0.4601 0.4871
3123.558545 0.5501 0.6062 0.6502 0.6791 0.6821
3129.942401 0.6888 0.7018 0.7129 0.7209 0.7286
3136.326256 0.7356 0.7407 0.7427 0.7440 0.7440
3142.710112 0.7433 0.7413 0.7400 0.7400 0.7384
3149.093967 0.7344 0.7304 0.7264 0.7236 0.7226
3155.477822 0.7216 0.7206 0.7200 0.7200 0.7204
3161.861678 0.7214 0.7216 0.7206 0.7200 0.7200
3168.245533 0.7212 0.7242 0.7288 0.7359 0.7426
3174.629388 0.7486 0.7529 0.7549 0.7556 0.7546
3181.013244 0.7536 0.7526 0.7516 0.7506 0.7496
3187.397099 0.7486 0.7480 0.7480 0.7471 0.7451
3193.780955 0.7440 0.7440 0.7440 0.7440 0.7440
3200.164810 0.7440 0.7445 0.7455 0.7460 0.7460
3206.548665 0.7474 0.7504 0.7520 0.7520 0.7534
3212.932521 0.7564 0.7580 0.7580 0.7585 0.7595
3219.316376 0.7600 0.7600 0.7600 0.7600 0.7595
3225.700231 0.7585 0.7580 0.7580 0.7580 0.7580
3232.084087 0.7575 0.7565 0.7555 0.7545 0.7540
3238.467942 0.7540 0.7540 0.7540 0.7540 0.7540
3244.851798 0.7540 0.7540 0.7535 0.7525 0.7520
3251.235653 0.7520 0.7525 0.7535 0.7540 0.7540
3257.619508 0.7540 0.7540 0.7540 0.7540 0.7535
3264.003364 0.7525 0.7515 0.7505 0.7484 0.7454
3270.387219 0.7430 0.7410 0.7395 0.7385 0.7352
3276.771074 0.7302 0.7247 0.7187 0.7143 0.7113
3283.154930 0.7100 0.7100 0.7011 0.6851 0.6702
3289.538785 0.6562 0.6411 0.6251 0.6008 0.5698
3295.922640 0.5466 0.5296 0.5118 0.4936 0.4679
3302.306496 0.4369 0.4193 0.4113 0.3395 0.2225
3308.690351 0.1635 0.1455 0.1292 0.1142 0.0992
3315.074207 0.0842 0.0739 0.0669 0.0546 0.0386
3321.458062 0.0308 0.0288 0.0268 0.0248 0.0222
3327.841917 0.0192 0.0174 0.0164 0.0154 0.0144
3334.225773 0.0140 0.0140 0.0146 0.0156 0.0166
3340.609628 0.0176 0.0180 0.0180 0.0186 0.0196
3346.993483 0.0212 0.0232 0.1281 0.2965 0.3948
3353.377339 0.4548 0.5006 0.5386 0.5662 0.5882
3359.761194 0.6225 0.6636 0.6812 0.6862 0.6899
3366.145050 0.6929 0.6946 0.6956 0.6999 0.7059
3372.528905 0.7093 0.7113 0.7160 0.7220 0.7247
3378.912760 0.7257 0.7280 0.7310 0.7334 0.7354
3385.296616 0.7360 0.7360 0.7374 0.7394 0.7393
3391.680471 0.7383 0.7373 0.7363 0.7346 0.7326
3398.064326 0.7313 0.7303 0.7293 0.7283 0.7280
3404.448182 0.7280 0.7287 0.7297 0.7300 0.7300
3410.832037 0.7314 0.7334 0.7354 0.7374 0.7394
3417.215893 0.7414 0.7427 0.7437 0.7447 0.7457
3423.599748 0.7460 0.7460 0.7453 0.7443 0.7440
3429.983603 0.7440 0.7447 0.7457 0.7460 0.7460
3436.367459 0.7453 0.7443 0.7433 0.7423 0.7420
3442.751314 0.7420 0.7420 0.7420 0.7413 0.7403
3449.135169 0.7400 0.7400 0.7400 0.7400 0.7400
3455.519025 0.7400 0.7392 0.7382 0.7372 0.7362
3461.902880 0.7360 0.7360 0.7352 0.7342 0.7340
3468.286736 0.7340 0.7340 0.7340 0.7340 0.7340
3474.670591 0.7340 0.7340 0.7340 0.7340 0.7340
3481.054446 0.7340 0.7340 0.7340 0.7356 0.7376
3487.438302 0.7396 0.7416 0.7428 0.7438 0.7440
3493.822157 0.7440 0.7440 0.7440 0.7440 0.7440
3500.206012 0.7432 0.7422 0.7420 0.7420 0.7428
3506.589868 0.7438 0.7457 0.7477 0.7488 0.7498
3512.973723 0.7500 0.7500 0.7483 0.7463 0.7443
3519.357579 0.7423 0.7412 0.7402 0.7400 0.7400
3525.741434 0.7400 0.7400 0.7408 0.7419 0.7446
3532.125289 0.7476 0.7480 0.7480 0.7463 0.7443
3538.509145 0.7440 0.7440 0.7440 0.7440 0.7440
3544.893000 0.7440 0.7449 0.7459 0.7469 0.7479
3551.276855 0.7480 0.7480 0.7480 0.7480 0.7462
3557.660711 0.7442 0.7431 0.7421 0.7402 0.7382
3564.044566 0.7380 0.7380 0.7398 0.7418 0.7429
3570.428421 0.7439 0.7449 0.7459 0.7460 0.7460
3576.812277 0.7460 0.7460 0.7451 0.7441 0.7431
3583.196132 0.7421 0.7420 0.7420 0.7439 0.7459
3589.579988 0.7460 0.7460 0.7441 0.7421 0.7420
3595.963843 0.7420 0.7401 0.7381 0.7352 0.7322
3602.347698 0.7292 0.7262 0.7260 0.7260 0.7260
3608.731554 0.7260 0.7260 0.7260 0.7270 0.7280
3615.115409 0.7290 0.7300 0.7310 0.7320 0.7387
3621.499264 0.7457 0.7431 0.7401 0.7333 0.7263
3627.883120 0.7327 0.7397 0.7410 0.7420 0.7420
3634.266975 0.7420 0.7420 0.7420 0.7371 0.7321
3640.650831 0.7280 0.7240 0.7220 0.7200 0.7200
3647.034686 0.7200 0.7220 0.7240 0.7250 0.7260
3653.418541 0.7260 0.7260 0.7270 0.7280 0.7290
3659.802397 0.7300 0.7300 0.7300 0.7290 0.7280
3666.186252 0.7260 0.7239 0.7199 0.7159 0.7129
3672.570107 0.7100 0.7100 0.7103 0.7223 0.7340
3678.953963 0.7360 0.7379 0.7328 0.7280 0.7280
3685.337818 0.7280 0.7280 0.7280 0.7280 0.7281
3691.721674 0.7301 0.7321 0.7331 0.7339 0.7329
3698.105529 0.7319 0.7309 0.7299 0.7279 0.7260
3704.489384 0.7260 0.7259 0.7249 0.7240 0.7240
3710.873240 0.7240 0.7240 0.7241 0.7251 0.7260
3717.257095 0.7260 0.7260 0.7260 0.7260 0.7260
3723.640950 0.7260 0.7260 0.7256 0.7206 0.7157
3730.024806 0.7127 0.7100 0.7100 0.7102 0.7122
3736.408661 0.7142 0.7162 0.7180 0.7180 0.7180
3742.792517 0.7180 0.7182 0.7202 0.7221 0.7231
3749.176372 0.7242 0.7262 0.7281 0.7291 0.7300
3755.560227 0.7300 0.7298 0.7277 0.7260 0.7260
3761.944083 0.7260 0.7260 0.7263 0.7283 0.7301
3768.327938 0.7311 0.7323 0.7343 0.7361 0.7371
3774.711793 0.7380 0.7380 0.7381 0.7391 0.7400
3781.095649 0.7400 0.7399 0.7388 0.7375 0.7345
3787.479504 0.7317 0.7297 0.7280 0.7280 0.7278
3793.863360 0.7268 0.7260 0.7260 0.7262 0.7272
3800.247215 0.7280 0.7280
##END=
