##TITLE=PROPANOL, 2-AMINO-1-PHENYL-, HYDROCHLORIDE
##JCAMP-DX=4.24
##DATA TYPE=INFRARED SPECTRUM
##CLASS=COBLENTZ
##ORIGIN=SMITH KLINE & FRENCH LABS.
##OWNER=Copyright (C) 1987 by the Coblentz Society
Collection (C) 2018 copyright by the U.S. Secretary of Commerce
on behalf of the United States of America. All rights reserved.
##DATE=1970/06/18
##NAMES=2-amino-1-phenyl-1-propanol hydrochloride
Benzyl alcohol, 1-(1-aminoethyl)-, hydrochloride
##CAS REGISTRY NO=53631-70-2
##MOLFORM=C9 H14 Cl N O
##SOURCE REFERENCE=COBLENTZ NO. 9826
##$NIST SOURCE=COBLENTZ
##$NIST IMAGE=cob9826
##SPECTROMETER/DATA SYSTEM=PERKIN-ELMER 521 (GRATING)
##INSTRUMENT PARAMETERS=FILTERS AT 3130, 2475, 2000, 1150, 700, 410. GRATING CHANGES: 1999, 690 CM^-^1
##STATE=SOLID (OIL MULL, KBr PLATE)
$$ SEE SPECTRUM NO. 3623 FOR "KBr DISC" RUN, AND SPECTRUM NO. 5086 FOR "KCl DISC" RUN
##SAMPLING PROCEDURE=TRANSMISSION
##RESOLUTION=2
##DATA PROCESSING=DIGITIZED BY COBLENTZ SOCIETY (BATCH II) FROM HARD COPY
##XUNITS=1/CM
##YUNITS=TRANSMITTANCE
##XFACTOR=1.0
##YFACTOR=1
##FIRSTX=246
##LASTX=4000
##FIRSTY=0.2825
##MAXX=4000
##MINX=246
##MAXY=0.7807
##MINY=0.1255
##NPOINTS=3755
##XYDATA=(X++(Y..Y))
246.000000 0.2825 0.2819 0.2812 0.2808 0.2805
251.000000 0.2802 0.2799 0.2796 0.2793 0.2789
256.000000 0.2785 0.2780 0.2776 0.2771 0.2766
261.000000 0.2765 0.2763 0.2762 0.2761 0.2759
266.000000 0.2758 0.2757 0.2756 0.2756 0.2757
271.000000 0.2780 0.2757 0.2757 0.2758 0.2758
276.000000 0.2758 0.2756 0.2754 0.2753 0.2751
281.000000 0.2749 0.2747 0.2745 0.2744 0.2743
286.000000 0.2742 0.2741 0.2740 0.2738 0.2738
291.000000 0.2741 0.2748 0.2763 0.2777 0.2792
296.000000 0.2807 0.2821 0.2836 0.2843 0.2850
301.000000 0.2856 0.2863 0.2871 0.2880 0.2891
306.000000 0.2909 0.2926 0.2943 0.2963 0.2984
311.000000 0.3005 0.3039 0.3074 0.3110 0.3146
316.000000 0.3182 0.3218 0.3259 0.3300 0.3341
321.000000 0.3373 0.3404 0.3447 0.3476 0.3484
326.000000 0.3489 0.3493 0.3498 0.3502 0.3506
331.000000 0.3521 0.3582 0.3741 0.3857 0.3925
336.000000 0.3991 0.4051 0.4102 0.4153 0.4193
341.000000 0.4219 0.4240 0.4259 0.4277 0.4294
346.000000 0.4310 0.4327 0.4341 0.4354 0.4367
351.000000 0.4380 0.4392 0.4400 0.4407 0.4415
356.000000 0.4432 0.4473 0.4519 0.4588 0.4699
361.000000 0.5142 0.5284 0.5383 0.5464 0.5545
366.000000 0.5591 0.5633 0.5675 0.5712 0.5744
371.000000 0.5768 0.5793 0.5804 0.5816 0.5828
376.000000 0.5880 0.5841 0.5844 0.5845 0.5844
381.000000 0.5843 0.5836 0.5824 0.5811 0.5795
386.000000 0.5780 0.5764 0.5747 0.5729 0.5716
391.000000 0.5711 0.5716 0.5720 0.5725 0.5729
396.000000 0.5734 0.5742 0.5709 0.5619 0.5571
401.000000 0.5545 0.5402 0.5307 0.5230 0.5159
406.000000 0.5093 0.5041 0.4990 0.4946 0.4932
411.000000 0.4929 0.4924 0.4990 0.5364 0.5738
416.000000 0.6111 0.6502 0.6569 0.6605 0.6616
421.000000 0.6632 0.6634 0.6627 0.6592 0.6523
426.000000 0.6384 0.6245 0.6106 0.5968 0.5829
431.000000 0.5690 0.5552 0.5413 0.5263 0.5226
436.000000 0.5210 0.5220 0.5574 0.6758 0.6980
441.000000 0.7203 0.7309 0.7357 0.7387 0.7412
446.000000 0.7436 0.7443 0.7418 0.7435 0.7391
451.000000 0.7333 0.7115 0.6896 0.6677 0.6459
456.000000 0.6240 0.5989 0.5974 0.5994 0.6235
461.000000 0.6492 0.6750 0.7008 0.7164 0.7251
466.000000 0.7317 0.7374 0.7407 0.7434 0.7444
471.000000 0.7446 0.7447 0.7472 0.7448 0.7447
476.000000 0.7445 0.7444 0.7443 0.7434 0.7394
481.000000 0.7355 0.7324 0.7304 0.7295 0.7286
486.000000 0.7278 0.7270 0.7211 0.7131 0.7069
491.000000 0.7008 0.6938 0.6864 0.6794 0.6732
496.000000 0.6671 0.6609 0.6549 0.6489 0.6430
501.000000 0.6377 0.6324 0.6270 0.6221 0.6175
506.000000 0.6130 0.6084 0.6039 0.5993 0.5936
511.000000 0.5856 0.5775 0.5694 0.5616 0.5539
516.000000 0.5462 0.5385 0.5284 0.5142 0.4970
521.000000 0.4775 0.4614 0.4297 0.3980 0.3668
526.000000 0.3668 0.3656 0.3759 0.4158 0.4558
531.000000 0.4943 0.5102 0.5253 0.5479 0.5626
536.000000 0.5734 0.5831 0.5874 0.5905 0.5936
541.000000 0.5955 0.5971 0.5982 0.5982 0.5983
546.000000 0.5978 0.5971 0.5965 0.5959 0.5951
551.000000 0.5942 0.5932 0.5924 0.5917 0.5910
556.000000 0.5905 0.5899 0.5902 0.5941 0.6058
561.000000 0.6196 0.6328 0.6476 0.6662 0.6775
566.000000 0.6832 0.6870 0.6898 0.6924 0.6948
571.000000 0.6962 0.6971 0.6980 0.6988 0.6997
576.000000 0.6997 0.6982 0.6996 0.6995 0.6989
581.000000 0.6982 0.6971 0.6961 0.6948 0.6930
586.000000 0.6903 0.6871 0.6807 0.6738 0.6677
591.000000 0.6611 0.6544 0.6444 0.6326 0.6173
596.000000 0.6061 0.5970 0.5879 0.5788 0.5697
601.000000 0.5606 0.5515 0.5293 0.5177 0.5055
606.000000 0.4920 0.4862 0.4835 0.4829 0.4817
611.000000 0.4857 0.4976 0.5199 0.5271 0.5294
616.000000 0.5311 0.5327 0.5453 0.5636 0.5819
621.000000 0.6002 0.6185 0.6368 0.6551 0.6666
626.000000 0.6754 0.6844 0.6926 0.7005 0.7218
631.000000 0.7586 0.7599 0.7607 0.7612 0.7612
636.000000 0.7612 0.7614 0.7615 0.7617 0.7620
641.000000 0.7641 0.7721 0.7761 0.7785 0.7804
646.000000 0.7807 0.7807 0.7802 0.7756 0.7758
651.000000 0.7658 0.7589 0.7524 0.7434 0.7281
656.000000 0.7074 0.6866 0.6659 0.6451 0.6244
661.000000 0.6031 0.5883 0.5776 0.5783 0.5788
666.000000 0.5860 0.5931 0.6003 0.6075 0.6152
671.000000 0.6210 0.6288 0.7189 0.7281 0.7347
676.000000 0.7351 0.7390 0.7384 0.7370 0.7353
681.000000 0.7339 0.7323 0.7309 0.7285 0.7249
686.000000 0.7069 0.6889 0.6708 0.6528 0.6295
691.000000 0.6131 0.6030 0.5895 0.5748 0.5585
696.000000 0.5347 0.5042 0.4723 0.4565 0.3511
701.000000 0.2380 0.1953 0.1870 0.1863 0.1868
706.000000 0.1899 0.2015 0.2248 0.2482 0.2735
711.000000 0.2840 0.3267 0.3968 0.4669 0.5369
716.000000 0.6055 0.6129 0.6150 0.6171 0.6197
721.000000 0.6211 0.6221 0.6230 0.6239 0.6272
726.000000 0.6242 0.6233 0.6210 0.6116 0.6014
731.000000 0.5878 0.5695 0.5588 0.5423 0.5182
736.000000 0.5051 0.4896 0.4670 0.4237 0.3804
741.000000 0.3371 0.2938 0.1967 0.1921 0.1897
746.000000 0.1892 0.1936 0.1895 0.1919 0.1949
751.000000 0.2180 0.2543 0.2696 0.2705 0.2713
756.000000 0.2721 0.2728 0.3058 0.3628 0.4197
761.000000 0.4767 0.5336 0.6170 0.6430 0.6584
766.000000 0.6733 0.6866 0.6986 0.7239 0.7343
771.000000 0.7446 0.7519 0.7570 0.7594 0.7617
776.000000 0.7634 0.7650 0.7663 0.7673 0.7683
781.000000 0.7695 0.7708 0.7720 0.7733 0.7730
786.000000 0.7727 0.7710 0.7700 0.7676 0.7650
791.000000 0.7623 0.7593 0.7558 0.7523 0.7486
796.000000 0.7450 0.7395 0.7333 0.7240 0.7147
801.000000 0.7054 0.6960 0.6902 0.6903 0.6927
806.000000 0.7007 0.7086 0.7127 0.7143 0.7109
811.000000 0.6974 0.6830 0.6686 0.6542 0.6398
816.000000 0.6384 0.6391 0.6408 0.6677 0.6997
821.000000 0.7316 0.7488 0.7520 0.7523 0.7511
826.000000 0.7518 0.7513 0.7505 0.7493 0.7474
831.000000 0.7452 0.7430 0.7377 0.7299 0.7173
836.000000 0.7067 0.6975 0.6884 0.6620 0.6339
841.000000 0.6059 0.5778 0.5497 0.5217 0.4843
846.000000 0.4794 0.4814 0.4797 0.4874 0.5175
851.000000 0.5644 0.6112 0.6580 0.7048 0.7334
856.000000 0.7505 0.7543 0.7573 0.7582 0.7590
861.000000 0.7587 0.7587 0.7585 0.7583 0.7580
866.000000 0.7576 0.7573 0.7569 0.7563 0.7556
871.000000 0.7550 0.7543 0.7534 0.7520 0.7502
876.000000 0.7483 0.7465 0.7446 0.7427 0.7409
881.000000 0.7391 0.7373 0.7355 0.7337 0.7319
886.000000 0.7302 0.7289 0.7280 0.7271 0.7262
891.000000 0.7254 0.7248 0.7242 0.7236 0.7230
896.000000 0.7225 0.7216 0.7207 0.7198 0.7188
901.000000 0.7178 0.7160 0.7128 0.7092 0.7051
906.000000 0.6997 0.6929 0.6871 0.6813 0.6715
911.000000 0.6543 0.6328 0.6114 0.5899 0.5711
916.000000 0.5709 0.5716 0.5667 0.5950 0.6094
921.000000 0.6239 0.6276 0.6282 0.6277 0.6241
926.000000 0.6262 0.6250 0.6238 0.6224 0.6211
931.000000 0.6189 0.6153 0.5993 0.5667 0.5519
936.000000 0.5516 0.5475 0.5811 0.5958 0.6105
941.000000 0.6252 0.6399 0.6547 0.6621 0.6655
946.000000 0.6653 0.6647 0.6634 0.6625 0.6611
951.000000 0.6596 0.6581 0.6561 0.6541 0.6504
956.000000 0.6467 0.6430 0.6379 0.6313 0.6214
961.000000 0.5835 0.5667 0.5499 0.5331 0.5166
966.000000 0.5078 0.4980 0.4949 0.4949 0.4902
971.000000 0.4976 0.5013 0.5060 0.5108 0.5190
976.000000 0.5340 0.5463 0.5549 0.5590 0.5585
981.000000 0.5583 0.5561 0.5548 0.5530 0.5510
986.000000 0.5486 0.5448 0.5393 0.5318 0.5014
991.000000 0.4665 0.4412 0.4158 0.3905 0.3652
996.000000 0.3402 0.3330 0.3237 0.3227 0.3227
1001.000000 0.3324 0.3587 0.3851 0.4115 0.4379
1006.000000 0.4642 0.4869 0.4953 0.4978 0.4977
1011.000000 0.4968 0.4934 0.4744 0.4536 0.4328
1016.000000 0.4120 0.3912 0.3703 0.3495 0.3287
1021.000000 0.3079 0.2871 0.2663 0.2152 0.2011
1026.000000 0.1906 0.1824 0.1806 0.1793 0.1791
1031.000000 0.1788 0.1789 0.1793 0.1813 0.1885
1036.000000 0.2137 0.2389 0.2640 0.2892 0.3144
1041.000000 0.3396 0.3582 0.3641 0.3637 0.3652
1046.000000 0.3642 0.3629 0.3610 0.3563 0.3457
1051.000000 0.3259 0.2966 0.2673 0.2380 0.2087
1056.000000 0.1954 0.2001 0.1964 0.2201 0.2689
1061.000000 0.3177 0.3665 0.4153 0.4641 0.4927
1066.000000 0.4954 0.4957 0.4929 0.4902 0.4791
1071.000000 0.4680 0.4569 0.4458 0.4347 0.4235
1076.000000 0.4219 0.4211 0.4203 0.4194 0.4182
1081.000000 0.4099 0.3913 0.3727 0.3541 0.3403
1086.000000 0.3373 0.3365 0.3365 0.3385 0.3596
1091.000000 0.3897 0.4199 0.4501 0.4803 0.5105
1096.000000 0.5120 0.5120 0.5120 0.5109 0.5109
1101.000000 0.5095 0.5069 0.5021 0.4974 0.4936
1106.000000 0.4924 0.4912 0.4906 0.4900 0.4892
1111.000000 0.4874 0.4845 0.4794 0.4738 0.4691
1116.000000 0.4631 0.4531 0.4455 0.4381 0.4309
1121.000000 0.4237 0.4143 0.4020 0.3897 0.3775
1126.000000 0.3652 0.3563 0.3535 0.3533 0.3567
1131.000000 0.3728 0.3969 0.4211 0.4452 0.4661
1136.000000 0.4720 0.4743 0.4766 0.4795 0.4840
1141.000000 0.4903 0.4977 0.5053 0.5120 0.5159
1146.000000 0.5169 0.5175 0.5181 0.5184 0.5186
1151.000000 0.5187 0.5190 0.5193 0.5197 0.5210
1156.000000 0.5218 0.5221 0.5224 0.5198 0.5216
1161.000000 0.5209 0.5189 0.5163 0.5136 0.5104
1166.000000 0.5073 0.5041 0.5010 0.4976 0.4941
1171.000000 0.4901 0.4860 0.4782 0.4656 0.4524
1176.000000 0.4392 0.4260 0.4216 0.4207 0.4214
1181.000000 0.4210 0.4249 0.4339 0.4429 0.4519
1186.000000 0.4588 0.4589 0.4577 0.4497 0.4313
1191.000000 0.4129 0.3945 0.3761 0.3577 0.3393
1196.000000 0.3209 0.3025 0.2838 0.2775 0.2731
1201.000000 0.2698 0.2673 0.2653 0.2649 0.2648
1206.000000 0.2636 0.2651 0.2658 0.2671 0.2695
1211.000000 0.2880 0.3129 0.3377 0.3626 0.3875
1216.000000 0.4123 0.4372 0.4729 0.4864 0.4945
1221.000000 0.5018 0.5075 0.5105 0.5115 0.5100
1226.000000 0.5100 0.5091 0.5071 0.5045 0.4980
1231.000000 0.4902 0.4801 0.4707 0.4575 0.4362
1236.000000 0.4149 0.3937 0.3724 0.3512 0.3299
1241.000000 0.3086 0.2863 0.2847 0.2870 0.2845
1246.000000 0.3052 0.3144 0.3236 0.3328 0.3420
1251.000000 0.3512 0.3604 0.3699 0.3764 0.3777
1256.000000 0.3786 0.3794 0.3800 0.3809 0.3823
1261.000000 0.3838 0.3872 0.3974 0.4140 0.4307
1266.000000 0.4473 0.4640 0.4806 0.4973 0.5103
1271.000000 0.5206 0.5351 0.5414 0.5476 0.5519
1276.000000 0.5562 0.5582 0.5598 0.5601 0.5599
1281.000000 0.5591 0.5584 0.5569 0.5553 0.5534
1286.000000 0.5508 0.5480 0.5449 0.5417 0.5380
1291.000000 0.5342 0.5303 0.5262 0.5217 0.5163
1296.000000 0.5121 0.5128 0.5137 0.5152 0.5169
1301.000000 0.5190 0.5198 0.5198 0.5193 0.5173
1306.000000 0.5082 0.4979 0.4892 0.4834 0.4770
1311.000000 0.4701 0.4669 0.4647 0.4635 0.4625
1316.000000 0.4621 0.4438 0.4320 0.4169 0.4082
1321.000000 0.3955 0.3712 0.3469 0.3226 0.2983
1326.000000 0.2740 0.2559 0.2479 0.2394 0.2344
1331.000000 0.2328 0.2332 0.2341 0.2364 0.2420
1336.000000 0.2813 0.3295 0.3777 0.4259 0.4527
1341.000000 0.4666 0.4693 0.4717 0.4724 0.4724
1346.000000 0.4705 0.4713 0.4704 0.4685 0.4648
1351.000000 0.4598 0.4536 0.4460 0.4383 0.4306
1356.000000 0.4234 0.4163 0.4084 0.4005 0.3927
1361.000000 0.3853 0.3805 0.3765 0.3727 0.3685
1366.000000 0.3633 0.3572 0.3468 0.3405 0.3342
1371.000000 0.3259 0.3161 0.3054 0.2919 0.2786
1376.000000 0.2781 0.2778 0.2777 0.2776 0.2775
1381.000000 0.2775 0.2765 0.2735 0.2685 0.2622
1386.000000 0.2585 0.2587 0.2592 0.2581 0.2659
1391.000000 0.2728 0.2809 0.2909 0.3085 0.3261
1396.000000 0.3325 0.3387 0.3445 0.3492 0.3529
1401.000000 0.3566 0.3611 0.3658 0.3706 0.3763
1406.000000 0.3851 0.4448 0.4537 0.4584 0.4609
1411.000000 0.4619 0.4623 0.4583 0.4621 0.4614
1416.000000 0.4604 0.4591 0.4567 0.4537 0.4502
1421.000000 0.4455 0.4397 0.4340 0.4284 0.4222
1426.000000 0.4158 0.4051 0.3907 0.3758 0.3641
1431.000000 0.3532 0.3284 0.3153 0.3022 0.2866
1436.000000 0.2702 0.2515 0.2360 0.2213 0.2179
1441.000000 0.2163 0.2146 0.2106 0.2059 0.2005
1446.000000 0.1946 0.1879 0.1807 0.1735 0.1697
1451.000000 0.1674 0.1701 0.1705 0.1725 0.1767
1456.000000 0.1807 0.1849 0.1896 0.1933 0.1964
1461.000000 0.1984 0.2000 0.2005 0.2011 0.2020
1466.000000 0.2031 0.2042 0.2055 0.2071 0.2084
1471.000000 0.2097 0.2109 0.2162 0.2113 0.2079
1476.000000 0.2038 0.1998 0.1962 0.1927 0.1883
1481.000000 0.1819 0.1770 0.1737 0.1720 0.1719
1486.000000 0.1678 0.1731 0.1765 0.1834 0.1889
1491.000000 0.1909 0.1922 0.1931 0.1937 0.1946
1496.000000 0.1972 0.2045 0.2341 0.2625 0.2698
1501.000000 0.2717 0.2727 0.2737 0.2751 0.2795
1506.000000 0.2864 0.2934 0.2975 0.2988 0.2999
1511.000000 0.3009 0.3129 0.3441 0.3754 0.4066
1516.000000 0.4379 0.4691 0.4985 0.5044 0.5109
1521.000000 0.5165 0.5209 0.5240 0.5261 0.5265
1526.000000 0.5269 0.5270 0.5271 0.5273 0.5271
1531.000000 0.5265 0.5260 0.5254 0.5290 0.5235
1536.000000 0.5222 0.5209 0.5197 0.5184 0.5169
1541.000000 0.5153 0.5138 0.5122 0.5107 0.5093
1546.000000 0.5079 0.5064 0.5048 0.5032 0.4980
1551.000000 0.4914 0.4832 0.4744 0.4659 0.4571
1556.000000 0.4482 0.4404 0.4328 0.4272 0.4258
1561.000000 0.4246 0.4237 0.4228 0.4173 0.4078
1566.000000 0.3971 0.3823 0.3651 0.3470 0.3305
1571.000000 0.3143 0.2982 0.2760 0.2562 0.2389
1576.000000 0.2239 0.2101 0.2014 0.1948 0.1905
1581.000000 0.1884 0.1879 0.1878 0.1892 0.1910
1586.000000 0.1932 0.1956 0.1981 0.2005 0.2022
1591.000000 0.2032 0.2029 0.2012 0.1990 0.1968
1596.000000 0.1954 0.1952 0.1959 0.2016 0.2214
1601.000000 0.2411 0.2609 0.2806 0.3004 0.3201
1606.000000 0.3399 0.3596 0.3794 0.3996 0.4066
1611.000000 0.4072 0.4072 0.4120 0.4058 0.4019
1616.000000 0.3926 0.3799 0.3632 0.3566 0.3527
1621.000000 0.3511 0.3504 0.3511 0.3517 0.3539
1626.000000 0.3573 0.3700 0.3947 0.4195 0.4442
1631.000000 0.4689 0.4936 0.5183 0.5430 0.5677
1636.000000 0.5924 0.6171 0.6244 0.6250 0.6257
1641.000000 0.6266 0.6275 0.6283 0.6291 0.6303
1646.000000 0.6321 0.6358 0.6420 0.6424 0.6427
1651.000000 0.6429 0.6431 0.6432 0.6434 0.6435
1656.000000 0.6436 0.6439 0.6444 0.6450 0.6459
1661.000000 0.6469 0.6478 0.6487 0.6492 0.6496
1666.000000 0.6500 0.6502 0.6514 0.6503 0.6499
1671.000000 0.6496 0.6492 0.6483 0.6472 0.6462
1676.000000 0.6453 0.6445 0.6436 0.6428 0.6419
1681.000000 0.6412 0.6404 0.6396 0.6389 0.6385
1686.000000 0.6380 0.6375 0.6370 0.6365 0.6362
1691.000000 0.6363 0.6363 0.6363 0.6368 0.6376
1696.000000 0.6384 0.6392 0.6398 0.6403 0.6407
1701.000000 0.6393 0.6380 0.6364 0.6349 0.6340
1706.000000 0.6331 0.6322 0.6315 0.6312 0.6309
1711.000000 0.6305 0.6303 0.6301 0.6299 0.6296
1716.000000 0.6294 0.6293 0.6291 0.6290 0.6288
1721.000000 0.6287 0.6288 0.6288 0.6288 0.6288
1726.000000 0.6289 0.6289 0.6289 0.6289 0.6290
1731.000000 0.6286 0.6283 0.6279 0.6276 0.6272
1736.000000 0.6269 0.6264 0.6259 0.6254 0.6249
1741.000000 0.6244 0.6239 0.6234 0.6229 0.6224
1746.000000 0.6219 0.6214 0.6209 0.6204 0.6199
1751.000000 0.6193 0.6188 0.6183 0.6177 0.6170
1756.000000 0.6162 0.6155 0.6148 0.6141 0.6134
1761.000000 0.6127 0.6121 0.6116 0.6111 0.6106
1766.000000 0.6106 0.6106 0.6106 0.6107 0.6104
1771.000000 0.6100 0.6097 0.6093 0.6089 0.6083
1776.000000 0.6076 0.6070 0.6063 0.6057 0.6050
1781.000000 0.6045 0.6041 0.6036 0.6029 0.6023
1786.000000 0.6016 0.6010 0.6004 0.5997 0.5989
1791.000000 0.5981 0.5973 0.5964 0.5956 0.5951
1796.000000 0.5945 0.5940 0.5934 0.5932 0.5931
1801.000000 0.5929 0.5928 0.5926 0.5934 0.5942
1806.000000 0.5950 0.5958 0.5965 0.5972 0.5979
1811.000000 0.5974 0.5970 0.5962 0.5950 0.5938
1816.000000 0.5926 0.5916 0.5905 0.5895 0.5902
1821.000000 0.5908 0.5914 0.5921 0.5927 0.5932
1826.000000 0.5935 0.5937 0.5940 0.5939 0.5937
1831.000000 0.5936 0.5935 0.5933 0.5931 0.5929
1836.000000 0.5927 0.5925 0.5922 0.5920 0.5918
1841.000000 0.5916 0.5913 0.5910 0.5908 0.5905
1846.000000 0.5902 0.5899 0.5896 0.5893 0.5890
1851.000000 0.5886 0.5883 0.5880 0.5877 0.5874
1856.000000 0.5871 0.5868 0.5866 0.5864 0.5862
1861.000000 0.5860 0.5858 0.5855 0.5853 0.5851
1866.000000 0.5849 0.5847 0.5845 0.5842 0.5838
1871.000000 0.5835 0.5824 0.5807 0.5789 0.5768
1876.000000 0.5745 0.5722 0.5692 0.5659 0.5626
1881.000000 0.5591 0.5556 0.5520 0.5495 0.5470
1886.000000 0.5455 0.5448 0.5447 0.5447 0.5446
1891.000000 0.5445 0.5445 0.5444 0.5443 0.5436
1896.000000 0.5419 0.5402 0.5384 0.5366 0.5348
1901.000000 0.5327 0.5305 0.5283 0.5258 0.5232
1906.000000 0.5207 0.5182 0.5160 0.5138 0.5117
1911.000000 0.5099 0.5084 0.5068 0.5053 0.5037
1916.000000 0.5023 0.5011 0.4999 0.4987 0.4981
1921.000000 0.4980 0.4980 0.4979 0.4978 0.4978
1926.000000 0.4979 0.4960 0.4936 0.4913 0.4888
1931.000000 0.4858 0.4827 0.4789 0.4762 0.4747
1936.000000 0.4743 0.4741 0.4738 0.4711 0.4688
1941.000000 0.4664 0.4641 0.4619 0.4596 0.4574
1946.000000 0.4548 0.4523 0.4497 0.4472 0.4447
1951.000000 0.4422 0.4398 0.4373 0.4348 0.4324
1956.000000 0.4299 0.4274 0.4249 0.4222 0.4193
1961.000000 0.4175 0.4166 0.4159 0.4156 0.4153
1966.000000 0.4151 0.4148 0.4146 0.4144 0.4140
1971.000000 0.4128 0.4108 0.4088 0.4066 0.4044
1976.000000 0.4023 0.4001 0.3979 0.3956 0.3934
1981.000000 0.3911 0.3891 0.3871 0.3851 0.3839
1986.000000 0.3830 0.3820 0.3813 0.3812 0.3811
1991.000000 0.3810 0.3829 0.3817 0.3821 0.3826
1996.000000 0.3841 0.3856 0.3878 0.3898 0.3916
2001.000000 0.4012 0.4109 0.4215 0.4322 0.4428
2006.000000 0.4535 0.4598 0.4662 0.4671 0.4680
2011.000000 0.4687 0.4694 0.4704 0.4714 0.4728
2016.000000 0.4743 0.4756 0.4769 0.4782 0.4795
2021.000000 0.4830 0.4866 0.4899 0.4932 0.4959
2026.000000 0.4986 0.5012 0.5039 0.5079 0.5120
2031.000000 0.5165 0.5210 0.5243 0.5276 0.5281
2036.000000 0.5287 0.5288 0.5290 0.5291 0.5292
2041.000000 0.5293 0.5295 0.5296 0.5298 0.5299
2046.000000 0.5300 0.5302 0.5304 0.5306 0.5308
2051.000000 0.5310 0.5312 0.5314 0.5317 0.5320
2056.000000 0.5324 0.5327 0.5331 0.5335 0.5339
2061.000000 0.5342 0.5346 0.5351 0.5356 0.5361
2066.000000 0.5367 0.5376 0.5385 0.5399 0.5413
2071.000000 0.5414 0.5389 0.5413 0.5412 0.5410
2076.000000 0.5408 0.5406 0.5404 0.5402 0.5400
2081.000000 0.5398 0.5396 0.5394 0.5392 0.5390
2086.000000 0.5389 0.5387 0.5385 0.5383 0.5381
2091.000000 0.5379 0.5377 0.5375 0.5373 0.5371
2096.000000 0.5369 0.5366 0.5363 0.5359 0.5356
2101.000000 0.5353 0.5350 0.5346 0.5343 0.5339
2106.000000 0.5336 0.5332 0.5329 0.5326 0.5323
2111.000000 0.5320 0.5317 0.5314 0.5311 0.5308
2116.000000 0.5305 0.5302 0.5299 0.5296 0.5293
2121.000000 0.5290 0.5288 0.5286 0.5285 0.5283
2126.000000 0.5282 0.5280 0.5278 0.5276 0.5275
2131.000000 0.5273 0.5272 0.5270 0.5269 0.5267
2136.000000 0.5265 0.5263 0.5262 0.5260 0.5259
2141.000000 0.5257 0.5255 0.5253 0.5251 0.5249
2146.000000 0.5247 0.5245 0.5244 0.5242 0.5240
2151.000000 0.5238 0.5236 0.5234 0.5233 0.5231
2156.000000 0.5229 0.5227 0.5225 0.5223 0.5221
2161.000000 0.5218 0.5216 0.5213 0.5211 0.5208
2166.000000 0.5206 0.5203 0.5200 0.5197 0.5195
2171.000000 0.5192 0.5190 0.5187 0.5185 0.5182
2176.000000 0.5180 0.5177 0.5175 0.5172 0.5170
2181.000000 0.5167 0.5165 0.5162 0.5160 0.5157
2186.000000 0.5155 0.5152 0.5150 0.5147 0.5145
2191.000000 0.5142 0.5140 0.5137 0.5135 0.5134
2196.000000 0.5133 0.5131 0.5130 0.5128 0.5127
2201.000000 0.5125 0.5124 0.5122 0.5121 0.5119
2206.000000 0.5118 0.5116 0.5115 0.5115 0.5115
2211.000000 0.5114 0.5114 0.5114 0.5114 0.5114
2216.000000 0.5114 0.5113 0.5113 0.5113 0.5113
2221.000000 0.5112 0.5111 0.5109 0.5107 0.5104
2226.000000 0.5102 0.5100 0.5098 0.5096 0.5094
2231.000000 0.5092 0.5090 0.5087 0.5085 0.5083
2236.000000 0.5082 0.5081 0.5081 0.5080 0.5079
2241.000000 0.5078 0.5078 0.5077 0.5076 0.5076
2246.000000 0.5076 0.5076 0.5077 0.5077 0.5077
2251.000000 0.5077 0.5077 0.5077 0.5077 0.5078
2256.000000 0.5080 0.5081 0.5083 0.5084 0.5086
2261.000000 0.5087 0.5089 0.5088 0.5087 0.5082
2266.000000 0.5078 0.5073 0.5068 0.5056 0.5044
2271.000000 0.5019 0.4995 0.4962 0.4929 0.4904
2276.000000 0.4880 0.4867 0.4854 0.4845 0.4836
2281.000000 0.4832 0.4829 0.4825 0.4822 0.4818
2286.000000 0.4815 0.4811 0.4808 0.4804 0.4801
2291.000000 0.4798 0.4795 0.4791 0.4788 0.4784
2296.000000 0.4781 0.4777 0.4774 0.4770 0.4767
2301.000000 0.4763 0.4760 0.4756 0.4753 0.4749
2306.000000 0.4746 0.4742 0.4739 0.4735 0.4732
2311.000000 0.4727 0.4723 0.4718 0.4714 0.4709
2316.000000 0.4705 0.4700 0.4696 0.4691 0.4687
2321.000000 0.4683 0.4679 0.4674 0.4670 0.4664
2326.000000 0.4659 0.4653 0.4647 0.4641 0.4635
2331.000000 0.4629 0.4623 0.4617 0.4611 0.4605
2336.000000 0.4599 0.4593 0.4588 0.4584 0.4580
2341.000000 0.4577 0.4574 0.4571 0.4568 0.4565
2346.000000 0.4562 0.4559 0.4556 0.4552 0.4549
2351.000000 0.4546 0.4543 0.4541 0.4539 0.4536
2356.000000 0.4534 0.4532 0.4530 0.4527 0.4525
2361.000000 0.4522 0.4520 0.4518 0.4516 0.4513
2366.000000 0.4511 0.4509 0.4507 0.4504 0.4502
2371.000000 0.4499 0.4497 0.4495 0.4493 0.4490
2376.000000 0.4488 0.4485 0.4483 0.4480 0.4478
2381.000000 0.4476 0.4474 0.4471 0.4468 0.4462
2386.000000 0.4456 0.4450 0.4445 0.4439 0.4433
2391.000000 0.4422 0.4412 0.4397 0.4383 0.4365
2396.000000 0.4348 0.4328 0.4309 0.4299 0.4290
2401.000000 0.4282 0.4274 0.4266 0.4259 0.4253
2406.000000 0.4248 0.4245 0.4242 0.4238 0.4235
2411.000000 0.4231 0.4228 0.4224 0.4220 0.4213
2416.000000 0.4207 0.4199 0.4192 0.4184 0.4176
2421.000000 0.4163 0.4150 0.4134 0.4118 0.4098
2426.000000 0.4079 0.4055 0.4032 0.4009 0.3986
2431.000000 0.3965 0.3944 0.3924 0.3904 0.3885
2436.000000 0.3867 0.3845 0.3824 0.3796 0.3769
2441.000000 0.3741 0.3714 0.3686 0.3659 0.3640
2446.000000 0.3621 0.3601 0.3581 0.3575 0.3569
2451.000000 0.3566 0.3563 0.3563 0.3563 0.3562
2456.000000 0.3562 0.3561 0.3560 0.3559 0.3558
2461.000000 0.3554 0.3550 0.3542 0.3535 0.3528
2466.000000 0.3521 0.3511 0.3502 0.3483 0.3465
2471.000000 0.3444 0.3424 0.3402 0.3381 0.3371
2476.000000 0.3362 0.3355 0.3348 0.3345 0.3343
2481.000000 0.3342 0.3341 0.3343 0.3351 0.3347
2486.000000 0.3350 0.3352 0.3355 0.3362 0.3370
2491.000000 0.3378 0.3387 0.3395 0.3404 0.3413
2496.000000 0.3422 0.3433 0.3445 0.3456 0.3468
2501.000000 0.3480 0.3493 0.3508 0.3524 0.3539
2506.000000 0.3555 0.3562 0.3570 0.3572 0.3575
2511.000000 0.3572 0.3569 0.3565 0.3561 0.3554
2516.000000 0.3563 0.3541 0.3535 0.3529 0.3523
2521.000000 0.3515 0.3508 0.3498 0.3489 0.3479
2526.000000 0.3469 0.3457 0.3446 0.3430 0.3415
2531.000000 0.3400 0.3385 0.3369 0.3354 0.3337
2536.000000 0.3320 0.3301 0.3283 0.3264 0.3246
2541.000000 0.3227 0.3209 0.3187 0.3165 0.3142
2546.000000 0.3119 0.3096 0.3073 0.3051 0.3029
2551.000000 0.3006 0.2984 0.2961 0.2939 0.2915
2556.000000 0.2891 0.2865 0.2839 0.2816 0.2794
2561.000000 0.2779 0.2765 0.2752 0.2740 0.2733
2566.000000 0.2726 0.2724 0.2723 0.2722 0.2706
2571.000000 0.2719 0.2718 0.2718 0.2719 0.2720
2576.000000 0.2721 0.2725 0.2730 0.2734 0.2739
2581.000000 0.2745 0.2751 0.2757 0.2763 0.2769
2586.000000 0.2775 0.2784 0.2794 0.2806 0.2818
2591.000000 0.2830 0.2842 0.2850 0.2859 0.2868
2596.000000 0.2877 0.2885 0.2894 0.2898 0.2903
2601.000000 0.2906 0.2909 0.2908 0.2908 0.2906
2606.000000 0.2905 0.2904 0.2903 0.2902 0.2902
2611.000000 0.2902 0.2902 0.2901 0.2901 0.2901
2616.000000 0.2901 0.2900 0.2900 0.2898 0.2896
2621.000000 0.2894 0.2893 0.2891 0.2909 0.2887
2626.000000 0.2886 0.2884 0.2882 0.2880 0.2879
2631.000000 0.2877 0.2875 0.2873 0.2872 0.2870
2636.000000 0.2869 0.2867 0.2865 0.2863 0.2862
2641.000000 0.2859 0.2857 0.2854 0.2852 0.2849
2646.000000 0.2846 0.2843 0.2840 0.2837 0.2834
2651.000000 0.2831 0.2828 0.2822 0.2817 0.2810
2656.000000 0.2803 0.2795 0.2788 0.2781 0.2774
2661.000000 0.2767 0.2760 0.2747 0.2735 0.2720
2666.000000 0.2706 0.2692 0.2678 0.2664 0.2650
2671.000000 0.2637 0.2624 0.2612 0.2600 0.2587
2676.000000 0.2575 0.2565 0.2555 0.2547 0.2539
2681.000000 0.2531 0.2523 0.2517 0.2512 0.2509
2686.000000 0.2506 0.2503 0.2500 0.2496 0.2493
2691.000000 0.2490 0.2487 0.2486 0.2486 0.2486
2696.000000 0.2486 0.2486 0.2486 0.2486 0.2486
2701.000000 0.2486 0.2487 0.2487 0.2487 0.2487
2706.000000 0.2487 0.2487 0.2487 0.2487 0.2488
2711.000000 0.2488 0.2488 0.2488 0.2488 0.2484
2716.000000 0.2480 0.2476 0.2472 0.2468 0.2464
2721.000000 0.2456 0.2449 0.2440 0.2432 0.2423
2726.000000 0.2414 0.2405 0.2397 0.2387 0.2378
2731.000000 0.2368 0.2359 0.2349 0.2339 0.2329
2736.000000 0.2319 0.2309 0.2300 0.2290 0.2280
2741.000000 0.2269 0.2258 0.2245 0.2233 0.2221
2746.000000 0.2209 0.2197 0.2185 0.2172 0.2160
2751.000000 0.2148 0.2137 0.2125 0.2114 0.2102
2756.000000 0.2091 0.2079 0.2068 0.2056 0.2045
2761.000000 0.2033 0.2022 0.2010 0.1999 0.1988
2766.000000 0.1978 0.1967 0.1956 0.1945 0.1934
2771.000000 0.1923 0.1913 0.1902 0.1891 0.1880
2776.000000 0.1870 0.1859 0.1849 0.1838 0.1827
2781.000000 0.1817 0.1808 0.1804 0.1801 0.1797
2786.000000 0.1793 0.1789 0.1785 0.1781 0.1777
2791.000000 0.1773 0.1770 0.1768 0.1766 0.1763
2796.000000 0.1761 0.1759 0.1757 0.1754 0.1752
2801.000000 0.1750 0.1749 0.1747 0.1745 0.1740
2806.000000 0.1736 0.1726 0.1717 0.1707 0.1698
2811.000000 0.1689 0.1680 0.1670 0.1661 0.1650
2816.000000 0.1639 0.1627 0.1615 0.1602 0.1590
2821.000000 0.1578 0.1566 0.1554 0.1542 0.1530
2826.000000 0.1518 0.1506 0.1495 0.1483 0.1471
2831.000000 0.1459 0.1448 0.1435 0.1422 0.1409
2836.000000 0.1396 0.1382 0.1369 0.1356 0.1343
2841.000000 0.1329 0.1316 0.1303 0.1290 0.1279
2846.000000 0.1268 0.1266 0.1264 0.1262 0.1284
2851.000000 0.1258 0.1257 0.1256 0.1256 0.1256
2856.000000 0.1256 0.1255 0.1255 0.1255 0.1255
2861.000000 0.1255 0.1256 0.1257 0.1258 0.1259
2866.000000 0.1261 0.1262 0.1263 0.1264 0.1266
2871.000000 0.1267 0.1269 0.1270 0.1272 0.1274
2876.000000 0.1276 0.1277 0.1279 0.1281 0.1283
2881.000000 0.1284 0.1286 0.1288 0.1290 0.1291
2886.000000 0.1293 0.1295 0.1297 0.1297 0.1298
2891.000000 0.1299 0.1300 0.1300 0.1301 0.1302
2896.000000 0.1303 0.1303 0.1304 0.1305 0.1306
2901.000000 0.1306 0.1307 0.1308 0.1309 0.1309
2906.000000 0.1310 0.1311 0.1312 0.1313 0.1315
2911.000000 0.1316 0.1317 0.1318 0.1319 0.1320
2916.000000 0.1321 0.1322 0.1324 0.1325 0.1326
2921.000000 0.1327 0.1328 0.1329 0.1330 0.1331
2926.000000 0.1333 0.1335 0.1337 0.1339 0.1341
2931.000000 0.1343 0.1345 0.1347 0.1350 0.1352
2936.000000 0.1354 0.1356 0.1359 0.1361 0.1363
2941.000000 0.1365 0.1367 0.1369 0.1372 0.1374
2946.000000 0.1376 0.1378 0.1380 0.1382 0.1385
2951.000000 0.1387 0.1389 0.1391 0.1393 0.1395
2956.000000 0.1397 0.1399 0.1401 0.1403 0.1405
2961.000000 0.1407 0.1409 0.1411 0.1413 0.1415
2966.000000 0.1417 0.1419 0.1421 0.1423 0.1425
2971.000000 0.1427 0.1430 0.1432 0.1434 0.1436
2976.000000 0.1438 0.1440 0.1442 0.1444 0.1446
2981.000000 0.1448 0.1451 0.1453 0.1455 0.1457
2986.000000 0.1459 0.1461 0.1463 0.1465 0.1468
2991.000000 0.1470 0.1472 0.1474 0.1476 0.1478
2996.000000 0.1480 0.1482 0.1485 0.1487 0.1489
3001.000000 0.1491 0.1493 0.1495 0.1497 0.1499
3006.000000 0.1501 0.1503 0.1505 0.1507 0.1509
3011.000000 0.1511 0.1513 0.1515 0.1517 0.1519
3016.000000 0.1521 0.1523 0.1525 0.1527 0.1530
3021.000000 0.1535 0.1540 0.1545 0.1550 0.1555
3026.000000 0.1560 0.1565 0.1570 0.1576 0.1582
3031.000000 0.1588 0.1594 0.1600 0.1606 0.1612
3036.000000 0.1618 0.1624 0.1630 0.1633 0.1636
3041.000000 0.1638 0.1640 0.1642 0.1645 0.1647
3046.000000 0.1649 0.1651 0.1653 0.1655 0.1658
3051.000000 0.1660 0.1662 0.1664 0.1666 0.1667
3056.000000 0.1668 0.1669 0.1670 0.1671 0.1672
3061.000000 0.1673 0.1674 0.1675 0.1676 0.1677
3066.000000 0.1678 0.1679 0.1680 0.1681 0.1682
3071.000000 0.1683 0.1684 0.1685 0.1686 0.1687
3076.000000 0.1688 0.1689 0.1690 0.1691 0.1693
3081.000000 0.1695 0.1698 0.1700 0.1702 0.1704
3086.000000 0.1707 0.1709 0.1712 0.1714 0.1716
3091.000000 0.1718 0.1721 0.1723 0.1725 0.1727
3096.000000 0.1730 0.1732 0.1735 0.1737 0.1739
3101.000000 0.1741 0.1744 0.1747 0.1751 0.1755
3106.000000 0.1760 0.1764 0.1768 0.1772 0.1777
3111.000000 0.1781 0.1786 0.1790 0.1795 0.1799
3116.000000 0.1803 0.1806 0.1810 0.1812 0.1814
3121.000000 0.1816 0.1819 0.1821 0.1824 0.1826
3126.000000 0.1829 0.1830 0.1831 0.1831 0.1831
3131.000000 0.1831 0.1831 0.1831 0.1832 0.1831
3136.000000 0.1830 0.1826 0.1823 0.1819 0.1816
3141.000000 0.1812 0.1809 0.1793 0.1777 0.1760
3146.000000 0.1744 0.1730 0.1717 0.1712 0.1708
3151.000000 0.1708 0.1708 0.1708 0.1709 0.1709
3156.000000 0.1709 0.1710 0.1712 0.1713 0.1714
3161.000000 0.1715 0.1717 0.1717 0.1718 0.1719
3166.000000 0.1720 0.1720 0.1721 0.1722 0.1724
3171.000000 0.1725 0.1727 0.1728 0.1730 0.1744
3176.000000 0.1759 0.1790 0.1822 0.1843 0.1865
3181.000000 0.1866 0.1868 0.1869 0.1870 0.1871
3186.000000 0.1873 0.1874 0.1875 0.1876 0.1877
3191.000000 0.1878 0.1880 0.1881 0.1882 0.1884
3196.000000 0.1886 0.1887 0.1889 0.1891 0.1893
3201.000000 0.1894 0.1896 0.1898 0.1900 0.1902
3206.000000 0.1904 0.1906 0.1908 0.1910 0.1912
3211.000000 0.1913 0.1915 0.1917 0.1919 0.1920
3216.000000 0.1922 0.1923 0.1924 0.1925 0.1932
3221.000000 0.1927 0.1928 0.1928 0.1929 0.1929
3226.000000 0.1929 0.1929 0.1929 0.1929 0.1929
3231.000000 0.1926 0.1924 0.1921 0.1919 0.1916
3236.000000 0.1913 0.1909 0.1905 0.1901 0.1898
3241.000000 0.1892 0.1887 0.1878 0.1870 0.1861
3246.000000 0.1853 0.1844 0.1836 0.1827 0.1818
3251.000000 0.1803 0.1788 0.1772 0.1757 0.1741
3256.000000 0.1726 0.1712 0.1698 0.1684 0.1671
3261.000000 0.1657 0.1644 0.1630 0.1617 0.1604
3266.000000 0.1592 0.1580 0.1569 0.1559 0.1549
3271.000000 0.1542 0.1536 0.1529 0.1523 0.1516
3276.000000 0.1510 0.1504 0.1498 0.1493 0.1488
3281.000000 0.1482 0.1477 0.1471 0.1466 0.1456
3286.000000 0.1447 0.1436 0.1426 0.1418 0.1411
3291.000000 0.1413 0.1416 0.1418 0.1435 0.1424
3296.000000 0.1428 0.1433 0.1438 0.1443 0.1448
3301.000000 0.1454 0.1461 0.1468 0.1476 0.1482
3306.000000 0.1489 0.1495 0.1502 0.1508 0.1515
3311.000000 0.1521 0.1527 0.1533 0.1540 0.1545
3316.000000 0.1551 0.1557 0.1563 0.1568 0.1574
3321.000000 0.1578 0.1583 0.1587 0.1592 0.1597
3326.000000 0.1602 0.1604 0.1607 0.1608 0.1610
3331.000000 0.1612 0.1614 0.1616 0.1618 0.1620
3336.000000 0.1622 0.1623 0.1625 0.1625 0.1626
3341.000000 0.1626 0.1627 0.1627 0.1627 0.1627
3346.000000 0.1628 0.1628 0.1629 0.1630 0.1631
3351.000000 0.1632 0.1633 0.1634 0.1636 0.1637
3356.000000 0.1638 0.1639 0.1640 0.1641 0.1642
3361.000000 0.1644 0.1647 0.1650 0.1653 0.1656
3366.000000 0.1659 0.1662 0.1666 0.1669 0.1672
3371.000000 0.1675 0.1678 0.1687 0.1697 0.1709
3376.000000 0.1722 0.1736 0.1750 0.1766 0.1782
3381.000000 0.1799 0.1817 0.1834 0.1851 0.1866
3386.000000 0.1882 0.1896 0.1911 0.1917 0.1923
3391.000000 0.1928 0.1934 0.1940 0.1946 0.1952
3396.000000 0.1958 0.1962 0.1967 0.1971 0.1976
3401.000000 0.1990 0.2005 0.2020 0.2036 0.2057
3406.000000 0.2078 0.2105 0.2132 0.2157 0.2182
3411.000000 0.2205 0.2229 0.2252 0.2275 0.2296
3416.000000 0.2317 0.2334 0.2351 0.2368 0.2386
3421.000000 0.2403 0.2421 0.2438 0.2456 0.2473
3426.000000 0.2491 0.2508 0.2526 0.2544 0.2562
3431.000000 0.2579 0.2597 0.2614 0.2632 0.2649
3436.000000 0.2667 0.2684 0.2701 0.2718 0.2735
3441.000000 0.2752 0.2769 0.2786 0.2803 0.2820
3446.000000 0.2838 0.2860 0.2883 0.2905 0.2928
3451.000000 0.2950 0.2973 0.2995 0.3018 0.3040
3456.000000 0.3063 0.3085 0.3108 0.3130 0.3153
3461.000000 0.3175 0.3198 0.3220 0.3243 0.3263
3466.000000 0.3283 0.3303 0.3324 0.3344 0.3364
3471.000000 0.3385 0.3407 0.3431 0.3455 0.3478
3476.000000 0.3502 0.3526 0.3551 0.3575 0.3600
3481.000000 0.3624 0.3649 0.3677 0.3705 0.3734
3486.000000 0.3764 0.3788 0.3813 0.3832 0.3852
3491.000000 0.3866 0.3881 0.3896 0.3911 0.3936
3496.000000 0.3961 0.3980 0.4000 0.4019 0.4038
3501.000000 0.4053 0.4069 0.4084 0.4099 0.4114
3506.000000 0.4129 0.4141 0.4154 0.4163 0.4172
3511.000000 0.4181 0.4190 0.4199 0.4209 0.4218
3516.000000 0.4227 0.4236 0.4245 0.4254 0.4264
3521.000000 0.4273 0.4282 0.4291 0.4301 0.4312
3526.000000 0.4324 0.4336 0.4349 0.4361 0.4374
3531.000000 0.4386 0.4399 0.4408 0.4418 0.4424
3536.000000 0.4431 0.4437 0.4444 0.4450 0.4457
3541.000000 0.4463 0.4470 0.4476 0.4482 0.4486
3546.000000 0.4490 0.4493 0.4496 0.4499 0.4503
3551.000000 0.4506 0.4509 0.4512 0.4516 0.4519
3556.000000 0.4522 0.4525 0.4529 0.4530 0.4532
3561.000000 0.4533 0.4535 0.4536 0.4537 0.4538
3566.000000 0.4540 0.4541 0.4543 0.4544 0.4546
3571.000000 0.4546 0.4535 0.4546 0.4546 0.4546
3576.000000 0.4546 0.4545 0.4545 0.4545 0.4545
3581.000000 0.4545 0.4545 0.4545 0.4545 0.4545
3586.000000 0.4545 0.4544 0.4544 0.4543 0.4543
3591.000000 0.4542 0.4542 0.4541 0.4541 0.4540
3596.000000 0.4539 0.4538 0.4538 0.4537 0.4537
3601.000000 0.4536 0.4535 0.4534 0.4533 0.4531
3606.000000 0.4529 0.4527 0.4525 0.4523 0.4521
3611.000000 0.4519 0.4517 0.4515 0.4513 0.4511
3616.000000 0.4509 0.4507 0.4505 0.4503 0.4501
3621.000000 0.4499 0.4497 0.4495 0.4493 0.4490
3626.000000 0.4487 0.4484 0.4482 0.4479 0.4476
3631.000000 0.4473 0.4471 0.4468 0.4465 0.4462
3636.000000 0.4460 0.4457 0.4454 0.4451 0.4449
3641.000000 0.4446 0.4443 0.4440 0.4437 0.4434
3646.000000 0.4432 0.4429 0.4427 0.4424 0.4421
3651.000000 0.4418 0.4416 0.4413 0.4411 0.4408
3656.000000 0.4406 0.4403 0.4400 0.4397 0.4395
3661.000000 0.4392 0.4390 0.4387 0.4384 0.4381
3666.000000 0.4379 0.4375 0.4371 0.4367 0.4364
3671.000000 0.4360 0.4356 0.4352 0.4349 0.4345
3676.000000 0.4341 0.4337 0.4334 0.4330 0.4326
3681.000000 0.4322 0.4319 0.4316 0.4313 0.4310
3686.000000 0.4308 0.4305 0.4303 0.4300 0.4298
3691.000000 0.4295 0.4293 0.4290 0.4288 0.4285
3696.000000 0.4283 0.4280 0.4278 0.4276 0.4274
3701.000000 0.4273 0.4272 0.4271 0.4270 0.4269
3706.000000 0.4268 0.4266 0.4265 0.4264 0.4263
3711.000000 0.4262 0.4261 0.4260 0.4259 0.4258
3716.000000 0.4257 0.4255 0.4254 0.4253 0.4253
3721.000000 0.4253 0.4253 0.4252 0.4252 0.4251
3726.000000 0.4251 0.4251 0.4251 0.4250 0.4250
3731.000000 0.4249 0.4249 0.4249 0.4249 0.4248
3736.000000 0.4248 0.4247 0.4246 0.4245 0.4244
3741.000000 0.4242 0.4241 0.4240 0.4239 0.4237
3746.000000 0.4236 0.4235 0.4234 0.4233 0.4232
3751.000000 0.4230 0.4229 0.4228 0.4227 0.4222
3756.000000 0.4217 0.4212 0.4207 0.4202 0.4197
3761.000000 0.4193 0.4189 0.4185 0.4181 0.4178
3766.000000 0.4175 0.4173 0.4171 0.4169 0.4167
3771.000000 0.4165 0.4163 0.4161 0.4159 0.4157
3776.000000 0.4155 0.4153 0.4151 0.4149 0.4147
3781.000000 0.4145 0.4144 0.4142 0.4140 0.4138
3786.000000 0.4136 0.4134 0.4133 0.4131 0.4129
3791.000000 0.4127 0.4125 0.4122 0.4120 0.4118
3796.000000 0.4116 0.4113 0.4111 0.4109 0.4107
3801.000000 0.4105 0.4103 0.4100 0.4098 0.4096
3806.000000 0.4094 0.4091 0.4089 0.4087 0.4085
3811.000000 0.4083 0.4081 0.4079 0.4077 0.4075
3816.000000 0.4073 0.4071 0.4069 0.4067 0.4065
3821.000000 0.4063 0.4061 0.4059 0.4057 0.4055
3826.000000 0.4053 0.4051 0.4049 0.4047 0.4045
3831.000000 0.4043 0.4042 0.4040 0.4038 0.4036
3836.000000 0.4034 0.4032 0.4030 0.4028 0.4026
3841.000000 0.4024 0.4022 0.4020 0.4018 0.4016
3846.000000 0.4015 0.4013 0.4011 0.4009 0.4007
3851.000000 0.4005 0.4003 0.4001 0.3999 0.3997
3856.000000 0.3996 0.3994 0.3993 0.3991 0.3989
3861.000000 0.3987 0.3986 0.3984 0.3983 0.3981
3866.000000 0.3979 0.3977 0.3976 0.3974 0.3973
3871.000000 0.3971 0.3969 0.3967 0.3966 0.3964
3876.000000 0.3963 0.3961 0.3959 0.3957 0.3956
3881.000000 0.3954 0.3953 0.3951 0.3949 0.3946
3886.000000 0.3944 0.3941 0.3939 0.3936 0.3934
3891.000000 0.3932 0.3930 0.3927 0.3925 0.3922
3896.000000 0.3920 0.3917 0.3915 0.3913 0.3911
3901.000000 0.3908 0.3906 0.3903 0.3901 0.3898
3906.000000 0.3896 0.3894 0.3892 0.3889 0.3887
3911.000000 0.3884 0.3882 0.3879 0.3877 0.3875
3916.000000 0.3873 0.3870 0.3868 0.3866 0.3865
3921.000000 0.3863 0.3862 0.3860 0.3858 0.3856
3926.000000 0.3855 0.3853 0.3851 0.3849 0.3848
3931.000000 0.3846 0.3845 0.3843 0.3841 0.3839
3936.000000 0.3838 0.3836 0.3835 0.3833 0.3831
3941.000000 0.3829 0.3828 0.3826 0.3825 0.3823
3946.000000 0.3822 0.3821 0.3820 0.3818 0.3817
3951.000000 0.3816 0.3815 0.3814 0.3813 0.3811
3956.000000 0.3810 0.3809 0.3808 0.3806 0.3805
3961.000000 0.3804 0.3803 0.3801 0.3800 0.3800
3966.000000 0.3812 0.3800 0.3800 0.3800 0.3800
3971.000000 0.3799 0.3799 0.3799 0.3799 0.3799
3976.000000 0.3799 0.3799 0.3799 0.3799 0.3799
3981.000000 0.3798 0.3798 0.3798 0.3798 0.3798
3986.000000 0.3798 0.3798 0.3798 0.3797 0.3797
3991.000000 0.3797 0.3797 0.3797 0.3797 0.3797
3996.000000 0.3797 0.3797 0.3797 0.3797 0.3797
##END=
