##TITLE=BENZENE, ETHYNYL-
##JCAMP-DX=4.24
##DATA TYPE=INFRARED SPECTRUM
##CLASS=COBLENTZ III
##ORIGIN=DOW CHEMICAL COMPANY
##OWNER=COBLENTZ SOCIETY
Collection (C) 2018 copyright by the U.S. Secretary of Commerce
on behalf of the United States of America. All rights reserved.
##DATE=1959/06/04
##NAMES=ethynylbenzene
PHENYL ACETYLENE
##CAS REGISTRY NO=536-74-3
##MOLFORM=C8 H6
##SOURCE REFERENCE=COBLENTZ NO. 10136
##$NIST SOURCE=COBLENTZ
##$NIST IMAGE=cob10136
##SPECTROMETER/DATA SYSTEM=DOW KBr FOREPRISM-GRATING
##INSTRUMENT PARAMETERS=BLAZED AT 3.5, 12.0, 20.0 MICRON, CHANGED AT 5.0, 7.5, 14.9 MICRON
##STATE=SOLUTION (10% IN CCl4 FOR 3800-1333, 10% IN CS2 FOR 1333-450 CM^-^1)
##PATH LENGTH=0.011, 0.012 CM
$$SPECTRAL CONTAMINATION DUE TO CCl4 AROUND 1550, AND CS2 AROUND 855 CM^-^1
##SAMPLING PROCEDURE=TRANSMISSION
##RESOLUTION=4
##DATA PROCESSING=DIGITIZED BY NIST FROM HARD COPY (FROM TWO SEGMENTS)
##XUNITS=1/CM
##YUNITS=TRANSMITTANCE
##XFACTOR=1.000000
##YFACTOR=1
##DELTAX=0.869062
##FIRSTX=452.202
##LASTX=3799.83
##FIRSTY=0.974
##MAXX=3799.83
##MINX=452.202
##MAXY=1.033
##MINY=0
##NPOINTS=3853
##XYDATA=(X++(Y..Y))
452.202000 0.9740 0.9740 0.9740 0.9750 0.9750
456.547308 0.9750 0.9750 0.9750 0.9750 0.9760
460.892615 0.9790 0.9790 0.9810 0.9820 0.9850
465.237923 0.9870 0.9900 0.9970 1.0000 1.0020
469.583230 1.0040 1.0060 1.0060 1.0060 1.0080
473.928538 1.0100 1.0120 1.0130 1.0130 1.0140
478.273845 1.0140 1.0140 1.0160 1.0170 1.0170
482.619153 1.0170 1.0170 1.0170 1.0170 1.0170
486.964460 1.0170 1.0170 1.0180 1.0180 1.0170
491.309768 1.0170 1.0160 1.0160 1.0160 1.0140
495.655076 1.0130 1.0120 1.0100 1.0060 1.0010
500.000383 1.0000 0.9970 0.9940 0.9890 0.9830
504.345691 0.9740 0.9660 0.9560 0.9430 0.9220
508.690998 0.8871 0.8411 0.7543 0.6703 0.6063
513.036306 0.5670 0.5260 0.4471 0.5638 0.6718
517.381613 0.6969 0.8685 0.9527 0.9600 0.9600
521.726921 0.9560 0.9530 0.9290 0.9001 0.8481
526.072228 0.6725 0.5753 0.4694 0.3635 0.2615
530.417536 0.1620 0.1620 0.5668 0.7009 0.7968
534.762843 0.8499 0.8989 0.9299 0.9509 0.9639
539.108151 0.9790 1.0020 1.0090 1.0100 1.0140
543.453459 1.0170 1.0210 1.0230 1.0240 1.0270
547.798766 1.0280 1.0290 1.0310 1.0320 1.0330
552.144074 1.0330 1.0330 1.0330 1.0330 1.0330
556.489381 1.0330 1.0320 1.0320 1.0330 1.0330
560.834689 1.0320 1.0290 1.0280 1.0280 1.0270
565.179996 1.0270 1.0270 1.0250 1.0240 1.0230
569.525304 1.0200 1.0180 1.0160 1.0120 1.0080
573.870611 1.0040 1.0020 1.0000 0.9980 0.9970
578.215919 0.9940 0.9860 0.9760 0.9640 0.9560
582.561227 0.9530 0.9490 0.9360 0.9300 0.9220
586.906534 0.9110 0.9020 0.8910 0.8771 0.8342
591.251842 0.8120 0.8010 0.7880 0.7660 0.7380
595.597149 0.7081 0.6791 0.6481 0.6032 0.5562
599.942457 0.5290 0.5000 0.4390 0.3811 0.3321
604.287764 0.2671 0.1992 0.1342 0.1091 0.0851
608.633072 0.0580 0.0420 0.0280 0.0270 0.0280
612.978379 0.0310 0.0330 0.0370 0.0460 0.0550
617.323687 0.0660 0.1220 0.1460 0.1650 0.1790
621.668994 0.1940 0.2100 0.2289 0.2559 0.2928
626.014302 0.3400 0.3600 0.3780 0.3880 0.4040
630.359610 0.4080 0.4080 0.4070 0.4050 0.4040
634.704917 0.3960 0.3820 0.3590 0.3370 0.3141
639.050225 0.2861 0.2491 0.2022 0.1413 0.1271
643.395532 0.1080 0.0890 0.0610 0.0430 0.0240
647.740840 0.0200 0.0200 0.0210 0.0230 0.0290
652.086147 0.0360 0.0470 0.0580 0.1009 0.1299
656.431455 0.1579 0.1919 0.2229 0.2857 0.3159
660.776762 0.3970 0.4090 0.4240 0.4490 0.4830
665.122070 0.5060 0.5220 0.5330 0.5410 0.5460
669.467378 0.5600 0.5840 0.6070 0.6220 0.6360
673.812685 0.6550 0.6710 0.6859 0.6930 0.6940
678.157993 0.6940 0.6910 0.6850 0.6600 0.6361
682.503300 0.6091 0.5721 0.5411 0.5101 0.3986
686.848608 0.1920 0.1340 0.1040 0.0740 0.0321
691.193915 0.0001 0.0000 0.0000 0.0130 0.1006
695.539223 0.1540 0.2030 0.2490 0.2969 0.3439
699.884530 0.4158 0.6004 0.6199 0.6240 0.6787
704.229838 0.7320 0.7760 0.8030 0.8410 0.8650
708.575146 0.8800 0.9069 0.9259 0.9330 0.9410
712.920453 0.9480 0.9560 0.9630 0.9670 0.9700
717.265761 0.9740 0.9780 0.9790 0.9810 0.9830
721.611068 0.9830 0.9830 0.9830 0.9820 0.9810
725.956376 0.9790 0.9780 0.9760 0.9760 0.9740
730.301683 0.9700 0.9660 0.9590 0.9570 0.9530
734.646991 0.9520 0.9430 0.9330 0.9300 0.9220
738.992298 0.9150 0.9020 0.8870 0.8650 0.8460
743.337606 0.8290 0.8071 0.7781 0.7352 0.6972
747.682913 0.6369 0.5800 0.5370 0.4920 0.3931
752.028221 0.2722 0.1623 0.1151 0.0672 0.0003
756.373529 0.0000 0.0000 0.0000 0.0000 0.0000
760.718836 0.0160 0.0290 0.0509 0.1108 0.1727
765.064144 0.2420 0.3350 0.4389 0.5878 0.6249
769.409451 0.7058 0.7628 0.7999 0.8368 0.8539
773.754759 0.8710 0.8800 0.8910 0.8950 0.8990
778.100066 0.9140 0.9210 0.9320 0.9430 0.9530
782.445374 0.9640 0.9700 0.9750 0.9750 0.9760
786.790681 0.9810 0.9820 0.9850 0.9850 0.9870
791.135989 0.9890 0.9910 0.9930 0.9950 0.9950
795.481297 0.9970 0.9970 0.9970 0.9970 0.9970
799.826604 0.9970 0.9980 0.9980 0.9980 0.9980
804.171912 0.9980 1.0000 1.0010 1.0040 1.0050
808.517219 1.0050 1.0050 1.0050 1.0060 1.0080
812.862527 1.0080 1.0090 1.0100 1.0100 1.0100
817.207834 1.0090 1.0090 1.0080 1.0060 1.0060
821.553142 1.0050 1.0050 1.0050 1.0020 1.0020
825.898449 1.0010 1.0010 1.0010 1.0010 1.0000
830.243757 0.9970 0.9950 0.9910 0.9870 0.9830
834.589064 0.9780 0.9750 0.9680 0.9560 0.9530
838.934372 0.9490 0.9410 0.9330 0.9260 0.9151
843.279680 0.9110 0.9100 0.9050 0.8980 0.8920
847.624987 0.8900 0.8830 0.8770 0.8680 0.8570
851.970295 0.8480 0.8430 0.8380 0.8350 0.8340
856.315602 0.8330 0.8330 0.8330 0.8340 0.8390
860.660910 0.8450 0.8480 0.8490 0.8530 0.8580
865.006217 0.8620 0.8690 0.8710 0.8720 0.8730
869.351525 0.8770 0.8800 0.8830 0.8840 0.8840
873.696832 0.8840 0.8840 0.8830 0.8810 0.8790
878.042140 0.8720 0.8640 0.8350 0.8330 0.8350
882.387448 0.8450 0.8520 0.8729 0.8989 0.9179
886.732755 0.9370 0.9550 0.9630 0.9720 0.9810
891.078063 0.9900 0.9930 1.0000 1.0000 0.9980
895.423370 0.9980 0.9970 0.9970 0.9940 0.9930
899.768678 0.9910 0.9850 0.9760 0.9670 0.9590
904.113985 0.9510 0.9410 0.9260 0.9020 0.8721
908.459293 0.8521 0.8221 0.7961 0.6745 0.6183
912.804600 0.5570 0.5270 0.4970 0.4381 0.3781
917.149908 0.3780 0.5864 0.7016 0.7956 0.8518
921.495216 0.8650 0.8980 0.9440 0.9560 0.9680
925.840523 0.9720 0.9740 0.9740 0.9740 0.9750
930.185831 0.9760 0.9850 0.9910 1.0020 1.0100
934.531138 1.0130 1.0210 1.0230 1.0230 1.0230
938.876446 1.0240 1.0250 1.0250 1.0250 1.0250
943.221753 1.0240 1.0240 1.0240 1.0240 1.0230
947.567061 1.0230 1.0230 1.0230 1.0230 1.0210
951.912368 1.0210 1.0200 1.0180 1.0180 1.0170
956.257676 1.0160 1.0160 1.0140 1.0130 1.0100
960.602983 1.0090 1.0060 1.0050 1.0040 1.0020
964.948291 1.0020 1.0040 1.0040 1.0040 1.0050
969.293599 1.0050 1.0050 1.0050 1.0050 1.0040
973.638906 1.0040 1.0020 1.0020 1.0020 1.0010
977.984214 1.0010 1.0000 0.9970 0.9900 0.9870
982.329521 0.9860 0.9860 0.9870 0.9890 0.9900
986.674829 0.9900 0.9910 0.9910 0.9930 0.9980
991.020136 1.0000 1.0000 1.0000 1.0000 0.9980
995.365444 0.9980 0.9980 0.9970 0.9970 0.9950
999.710751 0.9950 0.9970 0.9970 0.9980 1.0000
1004.056059 1.0000 1.0000 0.9980 0.9980 0.9980
1008.401367 0.9980 0.9980 0.9980 0.9980 0.9970
1012.746674 0.9910 0.9890 0.9850 0.9790 0.9750
1017.091982 0.9640 0.9570 0.9520 0.9380 0.9260
1021.437289 0.9021 0.8761 0.8411 0.8032 0.7105
1025.782597 0.6360 0.5710 0.5060 0.4650 0.6357
1030.127904 0.7438 0.7949 0.8747 0.9427 0.9559
1034.473212 0.9660 0.9750 0.9760 0.9760 0.9760
1038.818519 0.9760 0.9750 0.9750 0.9710 0.9670
1043.163827 0.9640 0.9640 0.9640 0.9660 0.9680
1047.509134 0.9680 0.9670 0.9670 0.9670 0.9670
1051.854442 0.9670 0.9660 0.9640 0.9620 0.9600
1056.199750 0.9560 0.9530 0.9520 0.9510 0.9430
1060.545057 0.9330 0.9240 0.9070 0.8940 0.8710
1064.890365 0.8371 0.7742 0.7361 0.6942 0.6522
1069.235672 0.6100 0.5680 0.5480 0.5270 0.5709
1073.580980 0.7047 0.7848 0.8478 0.8749 0.8979
1077.926287 0.9140 0.9280 0.9410 0.9520 0.9630
1082.271595 0.9700 0.9710 0.9750 0.9780 0.9790
1086.616902 0.9810 0.9820 0.9820 0.9810 0.9810
1090.962210 0.9790 0.9760 0.9740 0.9700 0.9670
1095.307518 0.9630 0.9520 0.9340 0.9260 0.9250
1099.652825 0.9320 0.9340 0.9490 0.9659 0.9779
1103.998133 0.9870 1.0020 1.0050 1.0060 1.0120
1108.343440 1.0140 1.0170 1.0200 1.0240 1.0250
1112.688748 1.0270 1.0280 1.0290 1.0290 1.0290
1117.034055 1.0290 1.0290 1.0290 1.0290 1.0290
1121.379363 1.0290 1.0280 1.0280 1.0270 1.0270
1125.724670 1.0270 1.0250 1.0240 1.0240 1.0230
1130.069978 1.0210 1.0200 1.0170 1.0160 1.0120
1134.415285 1.0090 1.0050 1.0010 1.0010 1.0010
1138.760593 1.0000 0.9970 0.9930 0.9870 0.9850
1143.105901 0.9850 0.9850 0.9830 0.9820 0.9790
1147.451208 0.9780 0.9760 0.9750 0.9710 0.9660
1151.796516 0.9620 0.9530 0.9520 0.9470 0.9400
1156.141823 0.9320 0.9250 0.9210 0.9190 0.9220
1160.487131 0.9240 0.9280 0.9300 0.9320 0.9320
1164.832438 0.9320 0.9300 0.9300 0.9290 0.9280
1169.177746 0.9260 0.9240 0.9190 0.9140 0.9090
1173.523053 0.9020 0.8950 0.8950 0.8980 0.8990
1177.868361 0.8990 0.8980 0.8980 0.8960 0.8960
1182.213669 0.8980 0.8990 0.9000 0.9020 0.9020
1186.558976 0.9000 0.8950 0.8900 0.8810 0.8750
1190.904284 0.8670 0.8650 0.8670 0.8690 0.8730
1195.249591 0.8910 0.8950 0.8940 0.8900 0.8870
1199.594899 0.8790 0.8640 0.8480 0.8390 0.8290
1203.940206 0.8160 0.8000 0.7821 0.7611 0.7431
1208.285514 0.7240 0.7050 0.6870 0.6660 0.6480
1212.630821 0.6360 0.6161 0.5971 0.5761 0.5601
1216.976129 0.5540 0.5490 0.5420 0.5400 0.5380
1221.321437 0.5400 0.5410 0.5460 0.5589 0.5650
1225.666744 0.5800 0.5990 0.6140 0.6280 0.6360
1230.012052 0.6450 0.6600 0.6710 0.6770 0.6850
1234.357359 0.6930 0.7060 0.7160 0.7290 0.7420
1238.702667 0.7440 0.7530 0.7590 0.7670 0.7730
1243.047974 0.7770 0.7910 0.8050 0.8180 0.8310
1247.393282 0.8420 0.8540 0.8620 0.8670 0.8869
1251.738589 0.8920 0.8990 0.9020 0.9100 0.9100
1256.083897 0.9130 0.9150 0.9170 0.9170 0.9180
1260.429204 0.9190 0.9190 0.9190 0.9210 0.9210
1264.774512 0.9220 0.9220 0.9220 0.9220 0.9210
1269.119820 0.9190 0.9190 0.9170 0.9140 0.9100
1273.465127 0.9100 0.9050 0.9030 0.9020 0.9000
1277.810435 0.8980 0.8960 0.8900 0.8830 0.8710
1282.155742 0.8580 0.8450 0.8261 0.8220 0.8101
1286.501050 0.8100 0.8230 0.8410 0.8560 0.8620
1290.846357 0.8650 0.8680 0.8690 0.8690 0.8690
1295.191665 0.8690 0.8690 0.8710 0.8730 0.8750
1299.536972 0.8790 0.8830 0.8880 0.8920 0.8980
1303.882280 0.9020 0.9100 0.9130 0.9190 0.9250
1308.227588 0.9300 0.9330 0.9430 0.9480 0.9530
1312.572895 0.9590 0.9600 0.9640 0.9670 0.9710
1316.918203 0.9750 0.9760 0.9810 0.9830 0.9850
1321.263510 0.9860 0.9870 0.9890 0.9900 0.9900
1325.608818 0.9890 0.9870 0.9850 0.9790 0.9750
1329.954125 0.9710 0.9670 0.9670 0.9750 0.9760
1334.299433 0.9760 0.9720 0.9720 0.9740 0.9750
1338.644740 0.9760 0.9820 0.9910 0.9980 1.0020
1342.990048 1.0050 1.0050 1.0060 1.0100 1.0120
1347.335355 1.0120 1.0130 1.0130 1.0140 1.0140
1351.680663 1.0160 1.0160 1.0170 1.0170 1.0170
1356.025971 1.0170 1.0180 1.0180 1.0180 1.0180
1360.371278 1.0200 1.0200 1.0200 1.0170 1.0160
1364.716586 1.0130 1.0090 1.0050 1.0040 1.0020
1369.061893 1.0000 0.9950 0.9900 0.9890 0.9860
1373.407201 0.9860 0.9890 0.9900 0.9930 0.9930
1377.752508 0.9930 0.9900 0.9870 0.9830 0.9810
1382.097816 0.9780 0.9760 0.9780 0.9820 0.9850
1386.443123 0.9860 0.9890 0.9900 0.9930 0.9970
1390.788431 1.0010 1.0010 1.0010 1.0010 1.0010
1395.133739 1.0010 1.0000 1.0000 0.9980 0.9980
1399.479046 0.9970 0.9940 0.9910 0.9900 0.9860
1403.824354 0.9830 0.9760 0.9750 0.9740 0.9720
1408.169661 0.9740 0.9740 0.9740 0.9750 0.9760
1412.514969 0.9760 0.9780 0.9780 0.9790 0.9810
1416.860276 0.9820 0.9830 0.9830 0.9830 0.9830
1421.205584 0.9820 0.9820 0.9810 0.9810 0.9810
1425.550891 0.9780 0.9780 0.9760 0.9760 0.9750
1429.896199 0.9720 0.9680 0.9640 0.9630 0.9590
1434.241507 0.9530 0.9450 0.9340 0.9280 0.8841
1438.586814 0.8670 0.8610 0.8520 0.7992 0.7323
1442.932122 0.6750 0.6070 0.4132 0.2183 0.2170
1447.277429 0.2669 0.6807 0.7717 0.8367 0.8937
1451.622737 0.9170 0.9380 0.9480 0.9530 0.9560
1455.968044 0.9620 0.9660 0.9670 0.9700 0.9710
1460.313352 0.9720 0.9720 0.9680 0.9670 0.9640
1464.658659 0.9640 0.9640 0.9640 0.9640 0.9640
1469.003967 0.9640 0.9630 0.9620 0.9600 0.9560
1473.349274 0.9530 0.9450 0.9430 0.9410 0.9400
1477.694582 0.9260 0.9060 0.9000 0.8880 0.8640
1482.039890 0.8121 0.7891 0.7132 0.6751 0.6093
1486.385197 0.5420 0.3641 0.2511 0.1372 0.0811
1490.730505 0.0241 0.1047 0.1877 0.2697 0.3516
1495.075812 0.6071 0.6910 0.7460 0.8070 0.8190
1499.421120 0.8270 0.8340 0.8350 0.8340 0.8330
1503.766427 0.8310 0.8300 0.8270 0.8120 0.7950
1508.111735 0.7920 0.7920 0.7860 0.7800 0.7700
1512.457042 0.7570 0.7470 0.7400 0.7400 0.7430
1516.802350 0.7430 0.7440 0.7440 0.7430 0.7420
1521.147658 0.7380 0.7310 0.7270 0.7240 0.7230
1525.492965 0.7160 0.7050 0.7000 0.6930 0.6870
1529.838273 0.6770 0.6670 0.6520 0.6470 0.6430
1534.183580 0.6300 0.6280 0.6210 0.6140 0.6070
1538.528888 0.5940 0.5760 0.5600 0.5570 0.5500
1542.874195 0.5490 0.5460 0.5370 0.5270 0.5210
1547.219503 0.5180 0.5180 0.5180 0.5180 0.5190
1551.564810 0.5190 0.5210 0.5220 0.5250 0.5340
1555.910118 0.5350 0.5350 0.5750 0.5910 0.5970
1560.255425 0.6010 0.6050 0.6100 0.6160 0.6299
1564.600733 0.6370 0.6430 0.6440 0.6470 0.6470
1568.946041 0.6470 0.6450 0.6430 0.6390 0.6261
1573.291348 0.6050 0.5760 0.5480 0.5160 0.6198
1577.636656 0.6589 0.6769 0.6870 0.6930 0.7000
1581.981963 0.7050 0.7050 0.7080 0.7090 0.7120
1586.327271 0.7130 0.7160 0.7170 0.7170 0.7160
1590.672578 0.7160 0.7130 0.7100 0.7080 0.6980
1595.017886 0.6910 0.6820 0.6521 0.6301 0.6300
1599.363193 0.6740 0.7080 0.7550 0.8029 0.8389
1603.708501 0.8530 0.8690 0.8829 0.8989 0.9109
1608.053809 0.9240 0.9320 0.9400 0.9520 0.9560
1612.399116 0.9590 0.9600 0.9700 0.9750 0.9760
1616.744424 0.9780 0.9820 0.9850 0.9860 0.9870
1621.089731 0.9890 0.9930 0.9970 0.9970 0.9980
1625.435039 0.9980 0.9980 1.0010 1.0010 1.0040
1629.780346 1.0040 1.0080 1.0100 1.0100 1.0130
1634.125654 1.0130 1.0130 1.0140 1.0160 1.0160
1638.470961 1.0160 1.0160 1.0160 1.0160 1.0160
1642.816269 1.0170 1.0170 1.0170 1.0160 1.0160
1647.161577 1.0140 1.0130 1.0120 1.0090 1.0060
1651.506884 1.0050 1.0040 1.0040 1.0020 1.0010
1655.852192 1.0000 1.0010 1.0010 1.0000 1.0000
1660.197499 1.0000 0.9970 0.9890 0.9870 0.9850
1664.542807 0.9790 0.9780 0.9750 0.9521 0.9361
1668.888114 0.9330 0.9330 0.9360 0.9400 0.9450
1673.233422 0.9520 0.9709 0.9750 0.9790 0.9899
1677.578729 0.9980 1.0010 1.0010 1.0040 1.0080
1681.924037 1.0100 1.0100 1.0100 1.0100 1.0120
1686.269344 1.0120 1.0120 1.0130 1.0130 1.0140
1690.614652 1.0170 1.0180 1.0200 1.0200 1.0200
1694.959960 1.0200 1.0200 1.0200 1.0200 1.0170
1699.305267 1.0210 1.0210 1.0210 1.0170 1.0160
1703.650575 1.0140 1.0140 1.0140 1.0170 1.0200
1707.995882 1.0200 1.0210 1.0210 1.0170 1.0170
1712.341190 1.0170 1.0170 1.0160 1.0140 1.0120
1716.686497 1.0100 1.0090 1.0090 1.0090 1.0100
1721.031805 1.0120 1.0120 1.0120 1.0120 1.0120
1725.377112 1.0100 1.0100 1.0100 1.0090 1.0080
1729.722420 1.0050 1.0020 1.0010 0.9980 0.9930
1734.067728 0.9910 0.9900 0.9870 0.9850 0.9850
1738.413035 0.9850 0.9850 0.9850 0.9850 0.9830
1742.758343 0.9820 0.9810 0.9790 0.9750 0.9700
1747.103650 0.9640 0.9600 0.9560 0.9510 0.9380
1751.448958 0.9340 0.9320 0.9300 0.9320 0.9400
1755.794265 0.9490 0.9550 0.9670 0.9740 0.9820
1760.139573 1.0010 1.0050 1.0050 1.0080 1.0090
1764.484880 1.0100 1.0120 1.0120 1.0140 1.0160
1768.830188 1.0170 1.0170 1.0160 1.0160 1.0140
1773.175495 1.0140 1.0130 1.0100 1.0060 1.0050
1777.520803 1.0040 1.0050 1.0060 1.0080 1.0090
1781.866111 1.0100 1.0120 1.0120 1.0120 1.0120
1786.211418 1.0120 1.0100 1.0100 1.0060 1.0040
1790.556726 1.0000 0.9980 0.9970 0.9930 0.9850
1794.902033 0.9760 0.9740 0.9660 0.9570 0.9401
1799.247341 0.9440 0.9320 0.9210 0.9090 0.9070
1803.592648 0.9090 0.9180 0.9290 0.9469 0.9619
1807.937956 0.9680 0.9780 0.9860 0.9940 0.9950
1812.283263 1.0000 1.0000 0.9980 0.9980 0.9940
1816.628571 0.9930 0.9910 0.9910 0.9890 0.9870
1820.973879 0.9860 0.9850 0.9850 0.9850 0.9850
1825.319186 0.9860 0.9870 0.9890 0.9900 0.9970
1829.664494 0.9980 1.0020 1.0050 1.0080 1.0080
1834.009801 1.0100 1.0130 1.0130 1.0140 1.0140
1838.355109 1.0140 1.0140 1.0140 1.0140 1.0130
1842.700416 1.0130 1.0130 1.0130 1.0130 1.0130
1847.045724 1.0140 1.0140 1.0160 1.0140 1.0140
1851.391031 1.0140 1.0160 1.0170 1.0170 1.0160
1855.736339 1.0140 1.0140 1.0140 1.0140 1.0130
1860.081647 1.0120 1.0090 1.0090 1.0090 1.0080
1864.426954 1.0060 1.0040 1.0010 1.0010 1.0000
1868.772262 0.9980 0.9930 0.9860 0.9810 0.9760
1873.117569 0.9750 0.9670 0.9511 0.9440 0.9340
1877.462877 0.9250 0.9150 0.9060 0.8920 0.8920
1881.808184 0.9150 0.9210 0.9300 0.9469 0.9629
1886.153492 0.9680 0.9750 0.9760 0.9760 0.9760
1890.498799 0.9750 0.9700 0.9680 0.9630 0.9560
1894.844107 0.9440 0.9320 0.9300 0.9300 0.9320
1899.189414 0.9360 0.9519 0.9630 0.9749 0.9869
1903.534722 0.9900 1.0040 1.0060 1.0080 1.0090
1907.880030 1.0090 1.0100 1.0120 1.0130 1.0140
1912.225337 1.0140 1.0130 1.0130 1.0130 1.0120
1916.570645 1.0120 1.0120 1.0120 1.0130 1.0130
1920.915952 1.0140 1.0140 1.0140 1.0140 1.0140
1925.261260 1.0140 1.0130 1.0120 1.0120 1.0100
1929.606567 1.0090 1.0080 1.0060 1.0040 1.0020
1933.951875 1.0010 1.0010 1.0000 1.0000 0.9980
1938.297182 0.9970 0.9910 0.9850 0.9780 0.9750
1942.642490 0.9700 0.9550 0.9430 0.9360 0.9131
1946.987798 0.9020 0.8870 0.8720 0.8720 0.8810
1951.333105 0.8920 0.9030 0.9070 0.9239 0.9449
1955.678413 0.9570 0.9680 0.9750 0.9860 1.0020
1960.023720 1.0020 1.0010 1.0000 0.9890 0.9711
1964.369028 0.9590 0.9550 0.9450 0.9400 0.9370
1968.714335 0.9370 0.9380 0.9450 0.9560 0.9660
1973.059643 0.9700 0.9820 0.9870 0.9930 0.9980
1977.404950 1.0010 1.0060 1.0090 1.0090 1.0100
1981.750258 1.0100 1.0100 1.0100 1.0120 1.0130
1986.095565 1.0130 1.0130 1.0140 1.0170 1.0200
1990.440873 1.0200 1.0180 1.0180 1.0180 1.0170
1994.786181 1.0170 1.0170 1.0170 1.0130 1.0080
1999.131488 1.0050 1.0040 1.0040 1.0040 1.0045
2003.476796 1.0050 1.0050 1.0050 1.0050 1.0050
2007.822103 1.0055 1.0060 1.0060 1.0060 1.0070
2012.167411 1.0080 1.0080 1.0080 1.0080 1.0080
2016.512718 1.0080 1.0080 1.0080 1.0080 1.0080
2020.858026 1.0080 1.0070 1.0060 1.0060 1.0060
2025.203333 1.0060 1.0060 1.0070 1.0080 1.0099
2029.548641 1.0119 1.0149 1.0179 1.0194 1.0209
2033.893949 1.0171 1.0131 1.0130 1.0130 1.0130
2038.239256 1.0130 1.0145 1.0160 1.0160 1.0160
2042.584564 1.0150 1.0140 1.0140 1.0140 1.0130
2046.929871 1.0120 1.0106 1.0091 1.0090 1.0090
2051.275179 1.0090 1.0090 1.0090 1.0090 1.0090
2055.620486 1.0090 1.0090 1.0090 1.0090 1.0090
2059.965794 1.0085 1.0080 1.0080 1.0080 1.0080
2064.311101 1.0080 1.0071 1.0061 1.0060 1.0060
2068.656409 1.0070 1.0080 1.0080 1.0080 1.0080
2073.001717 1.0080 1.0080 1.0080 1.0080 1.0080
2077.347024 1.0080 1.0080 1.0071 1.0061 1.0060
2081.692332 1.0060 1.0060 1.0060 1.0055 1.0050
2086.037639 1.0045 1.0040 1.0031 1.0021 1.0015
2090.382947 1.0010 1.0010 1.0010 1.0005 1.0000
2094.728254 0.9991 0.9981 0.9966 0.9951 0.9941
2099.073562 0.9931 0.9912 0.9892 0.9858 0.9823
2103.418869 0.9774 0.9723 0.9715 0.9710 0.9659
2107.764177 0.9604 0.9434 0.9254 0.9102 0.8952
2112.109484 0.8821 0.8691 0.8630 0.8575 0.8506
2116.454792 0.8436 0.8239 0.8030 0.7820 0.7610
2120.800100 0.7590 0.7590 0.8393 0.9267 0.9390
2125.145407 0.9445 0.9619 0.9803 0.9834 0.9849
2129.490715 0.9945 1.0050 1.0074 1.0089 1.0090
2133.836022 1.0090 1.0103 1.0118 1.0125 1.0130
2138.181330 1.0130 1.0130 1.0130 1.0130 1.0130
2142.526637 1.0130 1.0130 1.0130 1.0130 1.0130
2146.871945 1.0130 1.0130 1.0130 1.0130 1.0130
2151.217252 1.0130 1.0130 1.0130 1.0130 1.0130
2155.562560 1.0130 1.0130 1.0130 1.0130 1.0135
2159.907868 1.0139 1.0140 1.0140 1.0140 1.0140
2164.253175 1.0140 1.0140 1.0140 1.0140 1.0140
2168.598483 1.0140 1.0140 1.0140 1.0140 1.0140
2172.943790 1.0140 1.0140 1.0140 1.0140 1.0140
2177.289098 1.0140 1.0140 1.0140 1.0140 1.0140
2181.634405 1.0140 1.0140 1.0140 1.0140 1.0140
2185.979713 1.0140 1.0140 1.0140 1.0140 1.0140
2190.325020 1.0140 1.0140 1.0140 1.0140 1.0140
2194.670328 1.0140 1.0140 1.0140 1.0140 1.0140
2199.015635 1.0140 1.0140 1.0140 1.0140 1.0140
2203.360943 1.0140 1.0140 1.0140 1.0140 1.0140
2207.706251 1.0140 1.0140 1.0140 1.0140 1.0140
2212.051558 1.0140 1.0140 1.0140 1.0136 1.0131
2216.396866 1.0130 1.0130 1.0130 1.0130 1.0126
2220.742173 1.0121 1.0120 1.0120 1.0120 1.0120
2225.087481 1.0112 1.0102 1.0100 1.0100 1.0109
2229.432788 1.0118 1.0120 1.0120 1.0112 1.0102
2233.778096 1.0100 1.0100 1.0096 1.0091 1.0086
2238.123403 1.0081 1.0068 1.0053 1.0038 1.0023
2242.468711 1.0016 1.0011 1.0010 1.0010 1.0006
2246.814019 1.0001 0.9992 0.9982 0.9976 0.9971
2251.159326 0.9970 0.9970 0.9974 0.9979 0.9980
2255.504634 0.9980 0.9988 0.9998 1.0000 1.0000
2259.849941 1.0000 1.0000 1.0000 1.0000 1.0000
2264.195249 1.0000 0.9992 0.9982 0.9976 0.9971
2268.540556 0.9970 0.9970 0.9958 0.9943 0.9928
2272.885864 0.9913 0.9890 0.9865 0.9848 0.9833
2277.231171 0.9830 0.9830 0.9830 0.9830 0.9838
2281.576479 0.9848 0.9854 0.9859 0.9860 0.9860
2285.921786 0.9864 0.9869 0.9870 0.9870 0.9870
2290.267094 0.9870 0.9870 0.9870 0.9878 0.9888
2294.612402 0.9890 0.9890 0.9890 0.9890 0.9890
2298.957709 0.9890 0.9890 0.9890 0.9882 0.9872
2303.303017 0.9870 0.9870 0.9870 0.9870 0.9870
2307.648324 0.9870 0.9870 0.9870 0.9866 0.9861
2311.993632 0.9860 0.9860 0.9860 0.9860 0.9856
2316.338939 0.9851 0.9850 0.9850 0.9827 0.9797
2320.684247 0.9747 0.9692 0.9630 0.9565 0.9550
2325.029554 0.9550 0.9612 0.9691 0.9741 0.9781
2329.374862 0.9821 0.9861 0.9882 0.9897 0.9900
2333.720170 0.9900 0.9858 0.9803 0.9771 0.9746
2338.065477 0.9717 0.9687 0.9649 0.9610 0.9589
2342.410785 0.9574 0.9581 0.9596 0.9702 0.9837
2346.756092 0.9878 0.9888 0.9898 0.9908 0.9918
2351.101400 0.9928 0.9945 0.9965 0.9974 0.9979
2355.446707 0.9980 0.9980 0.9954 0.9919 0.9888
2359.792015 0.9858 0.9880 0.9920 0.9960 1.0000
2364.137322 1.0010 1.0010 1.0010 1.0010 1.0014
2368.482630 1.0019 1.0028 1.0037 0.9976 0.9892
2372.827938 0.9810 0.9731 0.9840 1.0014 1.0060
2377.173245 1.0060 1.0067 1.0077 1.0080 1.0080
2381.518553 1.0080 1.0080 1.0080 1.0080 1.0073
2385.863860 1.0063 1.0060 1.0060 1.0060 1.0060
2390.209168 1.0060 1.0060 1.0060 1.0060 1.0060
2394.554475 1.0060 1.0060 1.0060 1.0060 1.0060
2398.899783 1.0067 1.0077 1.0084 1.0089 1.0090
2403.245090 1.0090 1.0090 1.0090 1.0090 1.0090
2407.590398 1.0090 1.0090 1.0090 1.0090 1.0090
2411.935705 1.0090 1.0090 1.0090 1.0090 1.0090
2416.281013 1.0090 1.0090 1.0090 1.0090 1.0090
2420.626321 1.0090 1.0090 1.0090 1.0090 1.0090
2424.971628 1.0090 1.0090 1.0090 1.0090 1.0090
2429.316936 1.0090 1.0090 1.0090 1.0090 1.0090
2433.662243 1.0090 1.0090 1.0090 1.0090 1.0090
2438.007551 1.0090 1.0090 1.0090 1.0090 1.0090
2442.352858 1.0090 1.0090 1.0090 1.0090 1.0090
2446.698166 1.0090 1.0090 1.0090 1.0090 1.0090
2451.043473 1.0090 1.0090 1.0090 1.0090 1.0087
2455.388781 1.0082 1.0080 1.0080 1.0080 1.0080
2459.734089 1.0080 1.0080 1.0080 1.0080 1.0080
2464.079396 1.0080 1.0073 1.0063 1.0060 1.0060
2468.424704 1.0060 1.0060 1.0060 1.0060 1.0060
2472.770011 1.0060 1.0060 1.0060 1.0060 1.0060
2477.115319 1.0060 1.0060 1.0060 1.0060 1.0057
2481.460626 1.0052 1.0050 1.0050 1.0053 1.0058
2485.805934 1.0057 1.0052 1.0050 1.0050 1.0050
2490.151241 1.0050 1.0050 1.0050 1.0050 1.0050
2494.496549 1.0050 1.0050 1.0050 1.0050 1.0047
2498.841856 1.0042 1.0040 1.0040 1.0043 1.0048
2503.187164 1.0050 1.0050 1.0050 1.0050 1.0050
2507.532472 1.0050 1.0053 1.0058 1.0060 1.0060
2511.877779 1.0060 1.0060 1.0060 1.0060 1.0060
2516.223087 1.0060 1.0060 1.0060 1.0066 1.0076
2520.568394 1.0080 1.0080 1.0080 1.0080 1.0080
2524.913702 1.0080 1.0074 1.0064 1.0060 1.0060
2529.259009 1.0060 1.0060 1.0060 1.0060 1.0057
2533.604317 1.0052 1.0050 1.0050 1.0050 1.0050
2537.949624 1.0050 1.0050 1.0050 1.0050 1.0050
2542.294932 1.0050 1.0050 1.0050 1.0050 1.0050
2546.640240 1.0050 1.0050 1.0047 1.0042 1.0034
2550.985547 1.0024 1.0020 1.0020 1.0020 1.0020
2555.330855 1.0020 1.0020 1.0020 1.0020 1.0020
2559.676162 1.0020 1.0020 1.0020 1.0017 1.0012
2564.021470 1.0010 1.0010 1.0010 1.0010 1.0010
2568.366777 1.0010 1.0007 1.0002 0.9994 0.9984
2572.712085 0.9977 0.9972 0.9973 0.9978 0.9980
2577.057392 0.9980 0.9980 0.9980 0.9986 0.9996
2581.402700 0.9994 0.9984 0.9980 0.9980 0.9980
2585.748008 0.9980 0.9980 0.9980 0.9986 0.9996
2590.093315 0.9994 0.9984 0.9986 0.9996 1.0000
2594.438623 1.0000 1.0000 1.0000 1.0003 1.0008
2598.783930 1.0010 1.0010 1.0007 1.0002 1.0003
2603.129238 1.0008 1.0010 1.0010 1.0007 1.0002
2607.474545 1.0003 1.0008 1.0010 1.0010 1.0007
2611.819853 1.0002 0.9994 0.9984 0.9980 0.9980
2616.165160 0.9977 0.9972 0.9964 0.9954 0.9950
2620.510468 0.9950 0.9959 0.9974 0.9980 0.9980
2624.855775 0.9986 0.9996 1.0000 1.0000 1.0000
2629.201083 1.0000 1.0000 1.0000 1.0000 1.0000
2633.546391 1.0000 1.0000 1.0000 1.0000 1.0000
2637.891698 1.0000 1.0000 1.0000 1.0000 1.0000
2642.237006 0.9994 0.9984 0.9980 0.9980 0.9980
2646.582313 0.9980 0.9980 0.9980 0.9980 0.9980
2650.927621 0.9977 0.9972 0.9970 0.9970 0.9970
2655.272928 0.9970 0.9970 0.9970 0.9970 0.9970
2659.618236 0.9970 0.9970 0.9964 0.9954 0.9950
2663.963543 0.9950 0.9947 0.9942 0.9940 0.9940
2668.308851 0.9940 0.9940 0.9940 0.9940 0.9940
2672.654159 0.9940 0.9937 0.9932 0.9930 0.9930
2676.999466 0.9930 0.9930 0.9930 0.9930 0.9930
2681.344774 0.9930 0.9933 0.9938 0.9940 0.9940
2685.690081 0.9943 0.9948 0.9950 0.9950 0.9950
2690.035389 0.9950 0.9950 0.9950 0.9947 0.9942
2694.380696 0.9940 0.9940 0.9940 0.9940 0.9937
2698.726004 0.9932 0.9930 0.9930 0.9930 0.9930
2703.071311 0.9930 0.9930 0.9930 0.9930 0.9930
2707.416619 0.9930 0.9930 0.9930 0.9930 0.9930
2711.761926 0.9930 0.9930 0.9930 0.9930 0.9930
2716.107234 0.9930 0.9930 0.9930 0.9930 0.9930
2720.452542 0.9930 0.9930 0.9930 0.9930 0.9930
2724.797849 0.9930 0.9930 0.9930 0.9925 0.9915
2729.143157 0.9910 0.9910 0.9910 0.9910 0.9910
2733.488464 0.9910 0.9907 0.9902 0.9900 0.9900
2737.833772 0.9900 0.9900 0.9898 0.9893 0.9885
2742.179079 0.9875 0.9870 0.9870 0.9870 0.9870
2746.524387 0.9870 0.9870 0.9870 0.9870 0.9868
2750.869694 0.9863 0.9860 0.9860 0.9860 0.9860
2755.215002 0.9860 0.9860 0.9860 0.9860 0.9860
2759.560310 0.9860 0.9858 0.9853 0.9850 0.9850
2763.905617 0.9850 0.9850 0.9850 0.9850 0.9850
2768.250925 0.9850 0.9850 0.9850 0.9850 0.9850
2772.596232 0.9850 0.9850 0.9850 0.9850 0.9850
2776.941540 0.9850 0.9845 0.9835 0.9830 0.9830
2781.286847 0.9828 0.9823 0.9813 0.9798 0.9783
2785.632155 0.9768 0.9758 0.9753 0.9750 0.9750
2789.977462 0.9750 0.9750 0.9752 0.9757 0.9771
2794.322770 0.9796 0.9812 0.9817 0.9822 0.9827
2798.668078 0.9830 0.9830 0.9830 0.9830 0.9830
2803.013385 0.9830 0.9830 0.9830 0.9830 0.9830
2807.358693 0.9830 0.9830 0.9830 0.9830 0.9830
2811.704000 0.9830 0.9828 0.9823 0.9820 0.9820
2816.049308 0.9818 0.9813 0.9805 0.9795 0.9790
2820.394615 0.9790 0.9788 0.9783 0.9780 0.9780
2824.739923 0.9780 0.9780 0.9780 0.9780 0.9780
2829.085230 0.9780 0.9776 0.9766 0.9760 0.9760
2833.430538 0.9760 0.9760 0.9760 0.9760 0.9758
2837.775845 0.9753 0.9750 0.9750 0.9743 0.9728
2842.121153 0.9716 0.9706 0.9696 0.9686 0.9680
2846.466461 0.9680 0.9680 0.9680 0.9680 0.9680
2850.811768 0.9680 0.9680 0.9680 0.9680 0.9680
2855.157076 0.9680 0.9680 0.9680 0.9678 0.9673
2859.502383 0.9668 0.9663 0.9654 0.9639 0.9628
2863.847691 0.9623 0.9616 0.9606 0.9600 0.9600
2868.192998 0.9600 0.9600 0.9598 0.9593 0.9590
2872.538306 0.9590 0.9586 0.9576 0.9568 0.9563
2876.883613 0.9560 0.9560 0.9560 0.9560 0.9562
2881.228921 0.9567 0.9574 0.9584 0.9592 0.9597
2885.574229 0.9600 0.9600 0.9604 0.9614 0.9620
2889.919536 0.9620 0.9620 0.9620 0.9620 0.9620
2894.264844 0.9620 0.9620 0.9620 0.9620 0.9616
2898.610151 0.9606 0.9600 0.9600 0.9598 0.9593
2902.955459 0.9590 0.9590 0.9590 0.9590 0.9586
2907.300766 0.9576 0.9570 0.9570 0.9568 0.9563
2911.646074 0.9558 0.9553 0.9544 0.9529 0.9514
2915.991381 0.9499 0.9488 0.9483 0.9478 0.9473
2920.336689 0.9466 0.9456 0.9446 0.9436 0.9426
2924.681996 0.9416 0.9404 0.9389 0.9372 0.9353
2929.027304 0.9338 0.9333 0.9350 0.9405 0.9460
2933.372612 0.9515 0.9550 0.9550 0.9552 0.9557
2937.717919 0.9560 0.9560 0.9560 0.9560 0.9560
2942.063227 0.9560 0.9560 0.9560 0.9560 0.9560
2946.408534 0.9560 0.9560 0.9560 0.9560 0.9558
2950.753842 0.9553 0.9546 0.9536 0.9527 0.9517
2955.099149 0.9507 0.9496 0.9488 0.9483 0.9475
2959.444457 0.9460 0.9446 0.9436 0.9425 0.9410
2963.789764 0.9396 0.9387 0.9371 0.9346 0.9325
2968.135072 0.9310 0.9298 0.9293 0.9288 0.9283
2972.480380 0.9282 0.9287 0.9295 0.9310 0.9320
2976.825687 0.9320 0.9320 0.9320 0.9320 0.9320
2981.170995 0.9320 0.9320 0.9320 0.9320 0.9320
2985.516302 0.9320 0.9320 0.9320 0.9317 0.9307
2989.861610 0.9297 0.9287 0.9280 0.9280 0.9280
2994.206917 0.9280 0.9277 0.9267 0.9257 0.9247
2998.552225 0.9235 0.9220 0.9200 0.9170 0.9147
3002.897532 0.9137 0.9125 0.9110 0.9100 0.9100
3007.242840 0.9094 0.9074 0.9050 0.9020 0.8990
3011.588148 0.8960 0.8929 0.8894 0.8854 0.8804
3015.933455 0.8757 0.8717 0.8665 0.8585 0.8501
3020.278763 0.8406 0.8271 0.8047 0.7787 0.7448
3024.624070 0.7163 0.7007 0.6900 0.6900 0.6919
3028.969378 0.6979 0.7070 0.7229 0.7348 0.7373
3033.314685 0.7390 0.7390 0.7367 0.7293 0.7151
3037.659993 0.6851 0.6640 0.6640 0.6784 0.7279
3042.005300 0.7633 0.7643 0.7653 0.7663 0.7675
3046.350608 0.7690 0.7700 0.7700 0.7682 0.7622
3050.695915 0.7532 0.7367 0.7227 0.7147 0.7084
3055.041223 0.7064 0.7037 0.6992 0.6915 0.6755
3059.386531 0.6549 0.6222 0.5989 0.5984 0.6006
3063.731838 0.6096 0.6179 0.6244 0.6291 0.6296
3068.077146 0.6297 0.6287 0.6280 0.6280 0.6291
3072.422453 0.6331 0.6416 0.6620 0.6793 0.6878
3076.767761 0.6940 0.6940 0.6912 0.6812 0.6700
3081.113068 0.6555 0.6407 0.6253 0.6098 0.5943
3085.458376 0.5786 0.5621 0.5500 0.5500 0.5517
3089.803683 0.5582 0.5721 0.6070 0.6380 0.6575
3094.148991 0.6724 0.6739 0.6796 0.6966 0.7199
3098.494299 0.7609 0.7913 0.7923 0.7929 0.7924
3102.839606 0.7919 0.7914 0.7911 0.7916 0.7930
3107.184914 0.7970 0.8037 0.8187 0.8348 0.8543
3111.530221 0.8718 0.8834 0.8923 0.8933 0.8948
3115.875529 0.8978 0.9009 0.9044 0.9082 0.9132
3120.220836 0.9179 0.9214 0.9246 0.9271 0.9291
3124.566144 0.9296 0.9300 0.9300 0.9302 0.9312
3128.911451 0.9321 0.9326 0.9330 0.9330 0.9329
3133.256759 0.9324 0.9320 0.9320 0.9318 0.9308
3137.602066 0.9300 0.9300 0.9298 0.9288 0.9278
3141.947374 0.9268 0.9258 0.9248 0.9238 0.9228
3146.292682 0.9220 0.9220 0.9219 0.9214 0.9207
3150.637989 0.9192 0.9163 0.9088 0.9030 0.9030
3154.983297 0.9051 0.9146 0.9224 0.9244 0.9268
3159.328604 0.9303 0.9331 0.9336 0.9342 0.9352
3163.673912 0.9361 0.9366 0.9371 0.9376 0.9382
3168.019219 0.9392 0.9401 0.9406 0.9412 0.9422
3172.364527 0.9431 0.9436 0.9440 0.9440 0.9440
3176.709834 0.9440 0.9441 0.9446 0.9452 0.9462
3181.055142 0.9471 0.9476 0.9481 0.9486 0.9490
3185.400450 0.9490 0.9492 0.9502 0.9510 0.9510
3189.745757 0.9511 0.9516 0.9520 0.9520 0.9520
3194.091065 0.9520 0.9521 0.9526 0.9529 0.9524
3198.436372 0.9520 0.9520 0.9521 0.9526 0.9530
3202.781680 0.9530 0.9530 0.9530 0.9530 0.9530
3207.126987 0.9530 0.9530 0.9530 0.9530 0.9530
3211.472295 0.9530 0.9529 0.9524 0.9520 0.9520
3215.817602 0.9520 0.9520 0.9520 0.9520 0.9519
3220.162910 0.9514 0.9510 0.9510 0.9510 0.9510
3224.508218 0.9508 0.9498 0.9490 0.9490 0.9490
3228.853525 0.9490 0.9490 0.9490 0.9489 0.9484
3233.198833 0.9480 0.9480 0.9480 0.9480 0.9477
3237.544140 0.9462 0.9450 0.9450 0.9449 0.9444
3241.889448 0.9438 0.9423 0.9410 0.9410 0.9409
3246.234755 0.9404 0.9398 0.9383 0.9369 0.9364
3250.580063 0.9358 0.9343 0.9329 0.9324 0.9318
3254.925370 0.9308 0.9300 0.9300 0.9298 0.9288
3259.270678 0.9277 0.9257 0.9235 0.9206 0.9177
3263.615985 0.9157 0.9137 0.9117 0.9095 0.9060
3267.961293 0.9024 0.8978 0.8935 0.8905 0.8863
3272.306601 0.8748 0.8644 0.8604 0.8562 0.8507
3276.651908 0.8447 0.8352 0.8258 0.8173 0.8078
3280.997216 0.7913 0.7752 0.7617 0.7484 0.7359
3285.342523 0.7228 0.7057 0.6877 0.6642 0.6391
3289.687831 0.6036 0.5704 0.5509 0.5313 0.5108
3294.033138 0.4895 0.4625 0.4366 0.4176 0.3987
3298.378446 0.3797 0.3602 0.3373 0.3128 0.2774
3302.723753 0.2420 0.2067 0.1733 0.1528 0.1335
3307.069061 0.1220 0.1105 0.0985 0.0859 0.0690
3311.414369 0.0538 0.0523 0.0509 0.0504 0.0500
3315.759676 0.0500 0.0498 0.0483 0.0465 0.0415
3320.104984 0.0368 0.0348 0.0329 0.0324 0.0321
3324.450291 0.0326 0.0332 0.0347 0.0364 0.0399
3328.795599 0.0439 0.0518 0.0632 0.1031 0.1424
3333.140906 0.1758 0.2070 0.2170 0.2282 0.2511
3337.486214 0.2783 0.3463 0.4110 0.4480 0.4877
3341.831521 0.5516 0.6126 0.6475 0.6806 0.6971
3346.176829 0.7135 0.7295 0.7450 0.7560 0.7667
3350.522136 0.7742 0.7814 0.7864 0.7923 0.8078
3354.867444 0.8234 0.8411 0.8578 0.8658 0.8738
3359.212752 0.8828 0.8914 0.8954 0.8997 0.9077
3363.558059 0.9151 0.9166 0.9182 0.9202 0.9223
3367.903367 0.9258 0.9291 0.9311 0.9332 0.9357
3372.248674 0.9382 0.9412 0.9440 0.9440 0.9441
3376.593982 0.9456 0.9470 0.9470 0.9471 0.9481
3380.939289 0.9491 0.9501 0.9510 0.9515 0.9520
3385.284597 0.9520 0.9521 0.9536 0.9550 0.9555
3389.629904 0.9561 0.9576 0.9590 0.9595 0.9600
3393.975212 0.9600 0.9601 0.9611 0.9620 0.9620
3398.320520 0.9620 0.9625 0.9630 0.9635 0.9641
3402.665827 0.9651 0.9660 0.9665 0.9670 0.9670
3407.011135 0.9670 0.9675 0.9680 0.9680 0.9681
3411.356442 0.9696 0.9711 0.9726 0.9740 0.9745
3415.701750 0.9750 0.9750 0.9750 0.9750 0.9751
3420.047057 0.9766 0.9780 0.9780 0.9780 0.9780
3424.392365 0.9780 0.9780 0.9780 0.9785 0.9790
3428.737672 0.9800 0.9810 0.9810 0.9810 0.9810
3433.082980 0.9810 0.9810 0.9810 0.9810 0.9810
3437.428287 0.9800 0.9790 0.9790 0.9790 0.9785
3441.773595 0.9780 0.9780 0.9780 0.9780 0.9780
3446.118903 0.9780 0.9780 0.9780 0.9780 0.9770
3450.464210 0.9760 0.9760 0.9760 0.9760 0.9760
3454.809518 0.9760 0.9760 0.9760 0.9760 0.9760
3459.154825 0.9760 0.9760 0.9760 0.9760 0.9760
3463.500133 0.9760 0.9760 0.9760 0.9760 0.9770
3467.845440 0.9780 0.9780 0.9780 0.9780 0.9780
3472.190748 0.9780 0.9780 0.9780 0.9780 0.9780
3476.536055 0.9780 0.9780 0.9780 0.9780 0.9780
3480.881363 0.9770 0.9760 0.9760 0.9760 0.9770
3485.226671 0.9780 0.9780 0.9780 0.9795 0.9810
3489.571978 0.9815 0.9820 0.9825 0.9830 0.9840
3493.917286 0.9850 0.9855 0.9860 0.9860 0.9860
3498.262593 0.9860 0.9860 0.9865 0.9870 0.9870
3502.607901 0.9870 0.9870 0.9870 0.9870 0.9870
3506.953208 0.9870 0.9870 0.9870 0.9870 0.9870
3511.298516 0.9870 0.9870 0.9870 0.9870 0.9870
3515.643823 0.9870 0.9870 0.9880 0.9890 0.9890
3519.989131 0.9890 0.9890 0.9890 0.9890 0.9890
3524.334439 0.9890 0.9890 0.9895 0.9900 0.9900
3528.679746 0.9900 0.9900 0.9900 0.9900 0.9900
3533.025054 0.9900 0.9900 0.9900 0.9900 0.9900
3537.370361 0.9900 0.9900 0.9900 0.9900 0.9900
3541.715669 0.9900 0.9900 0.9900 0.9900 0.9900
3546.060976 0.9900 0.9900 0.9900 0.9900 0.9900
3550.406284 0.9905 0.9910 0.9910 0.9910 0.9910
3554.751591 0.9910 0.9910 0.9910 0.9920 0.9930
3559.096899 0.9935 0.9940 0.9945 0.9950 0.9959
3563.442206 0.9969 0.9970 0.9970 0.9975 0.9980
3567.787514 0.9980 0.9980 0.9990 0.9999 1.0000
3572.132822 1.0000 0.9991 0.9981 0.9980 0.9980
3576.478129 0.9975 0.9970 0.9970 0.9970 0.9956
3580.823437 0.9941 0.9935 0.9930 0.9930 0.9930
3585.168744 0.9930 0.9930 0.9930 0.9930 0.9921
3589.514052 0.9911 0.9905 0.9900 0.9900 0.9900
3593.859359 0.9895 0.9890 0.9890 0.9890 0.9890
3598.204667 0.9890 0.9895 0.9900 0.9900 0.9900
3602.549974 0.9900 0.9900 0.9900 0.9900 0.9900
3606.895282 0.9900 0.9895 0.9890 0.9890 0.9890
3611.240590 0.9899 0.9909 0.9910 0.9910 0.9905
3615.585897 0.9900 0.9900 0.9900 0.9900 0.9900
3619.931205 0.9895 0.9890 0.9890 0.9890 0.9890
3624.276512 0.9890 0.9890 0.9890 0.9895 0.9900
3628.621820 0.9905 0.9910 0.9910 0.9910 0.9906
3632.967127 0.9901 0.9895 0.9890 0.9881 0.9871
3637.312435 0.9870 0.9870 0.9865 0.9860 0.9860
3641.657742 0.9860 0.9860 0.9860 0.9860 0.9860
3646.003050 0.9856 0.9851 0.9850 0.9850 0.9850
3650.348357 0.9850 0.9850 0.9850 0.9841 0.9831
3654.693665 0.9830 0.9830 0.9839 0.9849 0.9850
3659.038973 0.9850 0.9854 0.9859 0.9873 0.9888
3663.384280 0.9899 0.9909 0.9910 0.9910 0.9923
3667.729588 0.9938 0.9944 0.9949 0.9959 0.9969
3672.074895 0.9970 0.9970 0.9970 0.9970 0.9970
3676.420203 0.9970 0.9970 0.9970 0.9974 0.9979
3680.765510 0.9980 0.9980 0.9980 0.9980 0.9980
3685.110818 0.9980 0.9980 0.9980 0.9980 0.9980
3689.456125 0.9976 0.9971 0.9970 0.9970 0.9970
3693.801433 0.9970 0.9974 0.9979 0.9980 0.9980
3698.146741 0.9976 0.9971 0.9961 0.9951 0.9941
3702.492048 0.9932 0.9921 0.9911 0.9910 0.9910
3706.837356 0.9910 0.9910 0.9910 0.9910 0.9910
3711.182663 0.9910 0.9919 0.9928 0.9930 0.9930
3715.527971 0.9930 0.9930 0.9938 0.9948 0.9958
3719.873278 0.9968 0.9970 0.9970 0.9974 0.9979
3724.218586 0.9980 0.9980 0.9980 0.9980 0.9976
3728.563893 0.9971 0.9970 0.9970 0.9987 1.0007
3732.909201 1.0010 1.0010 1.0010 1.0010 1.0010
3737.254509 1.0010 1.0010 1.0010 1.0010 1.0010
3741.599816 1.0006 1.0001 0.9992 0.9982 0.9980
3745.945124 0.9980 0.9976 0.9971 0.9970 0.9970
3750.290431 0.9970 0.9970 0.9970 0.9970 0.9970
3754.635739 0.9970 0.9970 0.9970 0.9970 0.9970
3758.981046 0.9987 1.0007 1.0010 1.0010 1.0010
3763.326354 1.0010 1.0014 1.0019 1.0020 1.0020
3767.671661 1.0016 1.0011 1.0010 1.0010 1.0006
3772.016969 1.0001 1.0000 1.0000 1.0000 1.0000
3776.362276 1.0000 1.0000 1.0000 1.0000 0.9992
3780.707584 0.9982 0.9980 0.9980 0.9980 0.9980
3785.052892 0.9988 0.9998 1.0000 1.0000 1.0004
3789.398199 1.0009 1.0010 1.0010 1.0010 1.0010
3793.743507 1.0010 1.0010 1.0006 1.0001 1.0000
3798.088814 1.0000 1.0000 1.0000
##END=
