##TITLE=2-PROPENOIC ACID, 3-(3-HYDROXY-4-METHOXYPHENYL)-
##JCAMP-DX=4.24
##DATA TYPE=INFRARED SPECTRUM
##CLASS=COBLENTZ II
##ORIGIN=DOW CHEMICAL COMPANY
##OWNER=COBLENTZ SOCIETY
Collection (C) 2018 copyright by the U.S. Secretary of Commerce
on behalf of the United States of America. All rights reserved.
##DATE=1969/11/24
##NAMES=(2E)-3-(3-hydroxy-4-methoxyphenyl)-2-propenoic acid
##CAS REGISTRY NO=537-73-5
##MOLFORM=C10 H10 O4
##SOURCE REFERENCE=COBLENTZ NO. 10179
##$NIST SOURCE=COBLENTZ
##$NIST IMAGE=cob10179
##SPECTROMETER/DATA SYSTEM=DOW KBr FOREPRISM-GRATING
##INSTRUMENT PARAMETERS=BLAZED AT 3.5, 12.0, 20.0 MICRON, CHANGED AT 5.0, 7.5, 14.9 MICRON
##STATE=SOLID (SPLIT MULL, FLUOROLUBE FOR 3800-1340 AND NUJOL FOR 1340-470 CM ^-^1)
##SAMPLING PROCEDURE=TRANSMISSION
##RESOLUTION=4
##DATA PROCESSING=DIGITIZED BY NIST FROM HARD COPY (FROM TWO SEGMENTS)
##XUNITS=1/CM
##YUNITS=TRANSMITTANCE
##XFACTOR=1.000000
##YFACTOR=1
##DELTAX=0.871081
##FIRSTX=464.286
##LASTX=3798.78
##FIRSTY=0.953
##MAXX=3798.78
##MINX=464.286
##MAXY=1.006
##MINY=0.130001
##NPOINTS=3829
##XYDATA=(X++(Y..Y))
464.286000 0.9530 0.9520 0.9520 0.9510 0.9510
468.641405 0.9490 0.9460 0.9450 0.9440 0.9420
472.996810 0.9420 0.9410 0.9370 0.9360 0.9340
477.352214 0.9340 0.9310 0.9290 0.9260 0.9230
481.707619 0.9210 0.9180 0.9150 0.9140 0.9120
486.063024 0.9120 0.9070 0.9060 0.9020 0.8920
490.418429 0.8910 0.8890 0.8840 0.8780 0.8730
494.773833 0.8700 0.8680 0.8620 0.8550 0.8500
499.129238 0.8340 0.8200 0.8130 0.7950 0.7780
503.484643 0.7610 0.7411 0.7330 0.7191 0.7180
507.840048 0.7300 0.7510 0.7820 0.8209 0.8539
512.195453 0.8720 0.8909 0.9059 0.9170 0.9260
516.550857 0.9290 0.9300 0.9360 0.9410 0.9440
520.906262 0.9440 0.9450 0.9450 0.9460 0.9460
525.261667 0.9460 0.9450 0.9440 0.9440 0.9440
529.617072 0.9440 0.9450 0.9450 0.9460 0.9460
533.972476 0.9480 0.9480 0.9480 0.9460 0.9460
538.327881 0.9460 0.9440 0.9420 0.9410 0.9410
542.683286 0.9410 0.9380 0.9370 0.9360 0.9340
547.038691 0.9340 0.9340 0.9330 0.9310 0.9300
551.394095 0.9290 0.9260 0.9220 0.9190 0.9140
555.749500 0.9120 0.9080 0.9060 0.8950 0.8890
560.104905 0.8820 0.8780 0.8760 0.8730 0.8700
564.460310 0.8620 0.8510 0.8381 0.8340 0.8022
568.815715 0.7700 0.7510 0.7420 0.7420 0.7490
573.171119 0.7610 0.7750 0.7949 0.8139 0.8309
577.526524 0.8470 0.8610 0.8720 0.8820 0.8890
581.881929 0.8930 0.9020 0.9100 0.9120 0.9150
586.237334 0.9210 0.9260 0.9300 0.9340 0.9400
590.592738 0.9440 0.9460 0.9480 0.9520 0.9530
594.948143 0.9550 0.9560 0.9590 0.9630 0.9680
599.303548 0.9720 0.9740 0.9750 0.9740 0.9700
603.658953 0.9600 0.9520 0.9340 0.9120 0.9110
608.014358 0.9210 0.9220 0.9369 0.9489 0.9599
612.369762 0.9700 0.9760 0.9800 0.9830 0.9860
616.725167 0.9890 0.9900 0.9910 0.9940 0.9970
621.080572 0.9980 0.9980 0.9980 1.0000 1.0010
625.435977 1.0010 1.0020 1.0020 1.0020 1.0020
629.791381 1.0020 1.0020 1.0020 1.0020 1.0020
634.146786 1.0020 1.0020 1.0040 1.0040 1.0040
638.502191 1.0040 1.0040 1.0040 1.0040 1.0020
642.857596 1.0020 1.0020 1.0010 1.0010 1.0020
647.213001 1.0040 1.0040 1.0040 1.0040 1.0040
651.568405 1.0040 1.0040 1.0020 1.0020 1.0010
655.923810 1.0010 1.0010 1.0010 1.0010 1.0010
660.279215 1.0000 0.9980 0.9980 0.9970 0.9970
664.634620 0.9980 0.9980 1.0010 1.0010 1.0010
668.990024 1.0010 1.0000 0.9970 0.9950 0.9940
673.345429 0.9940 0.9930 0.9930 0.9910 0.9910
677.700834 0.9910 0.9900 0.9870 0.9820 0.9790
682.056239 0.9780 0.9670 0.9560 0.9440 0.9290
686.411644 0.9071 0.8801 0.8581 0.8470 0.8470
690.767048 0.8680 0.9170 0.9530 0.9740 0.9820
695.122453 0.9970 0.9980 1.0020 1.0040 1.0060
699.477858 1.0060 1.0050 1.0040 1.0040 1.0020
703.833263 1.0020 1.0010 1.0010 1.0000 0.9980
708.188667 0.9980 0.9970 0.9970 0.9950 0.9940
712.544072 0.9910 0.9900 0.9900 0.9870 0.9830
716.899477 0.9790 0.9780 0.9780 0.9780 0.9780
721.254882 0.9790 0.9790 0.9800 0.9820 0.9830
725.610286 0.9850 0.9850 0.9850 0.9860 0.9860
729.965691 0.9850 0.9800 0.9780 0.9750 0.9641
734.321096 0.9510 0.9340 0.9340 0.9450 0.9640
738.676501 0.9800 0.9900 0.9900 0.9910 0.9930
743.031906 0.9930 0.9910 0.9910 0.9900 0.9890
747.387310 0.9890 0.9860 0.9800 0.9780 0.9740
751.742715 0.9700 0.9570 0.9480 0.9330 0.9150
756.098120 0.8611 0.8051 0.7253 0.6403 0.6400
760.453525 0.7410 0.7720 0.7860 0.8399 0.9119
764.808929 0.9270 0.9330 0.9360 0.9370 0.9360
769.164334 0.9310 0.9260 0.9230 0.9230 0.9300
773.519739 0.9400 0.9490 0.9570 0.9709 0.9780
777.875144 0.9790 0.9860 0.9900 0.9950 0.9980
782.230549 0.9980 1.0000 1.0000 1.0000 1.0000
786.585953 1.0010 1.0010 1.0010 1.0010 1.0000
790.941358 1.0000 0.9980 0.9980 0.9970 0.9970
795.296763 0.9950 0.9940 0.9930 0.9930 0.9910
799.652168 0.9900 0.9890 0.9870 0.9850 0.9820
804.007572 0.9800 0.9790 0.9760 0.9750 0.9650
808.362977 0.9520 0.9370 0.9121 0.8871 0.8502
812.718382 0.7559 0.6240 0.5800 0.5361 0.4472
817.073787 0.4470 0.5018 0.5817 0.6766 0.7696
821.429192 0.8130 0.8540 0.8960 0.9230 0.9340
825.784596 0.9420 0.9530 0.9560 0.9610 0.9640
830.140001 0.9670 0.9700 0.9700 0.9700 0.9710
834.495406 0.9710 0.9710 0.9710 0.9720 0.9720
838.850811 0.9740 0.9740 0.9740 0.9740 0.9720
843.206215 0.9720 0.9710 0.9700 0.9680 0.9670
847.561620 0.9650 0.9640 0.9570 0.9490 0.9380
851.917025 0.9360 0.9220 0.9001 0.8532 0.7365
856.272430 0.6380 0.5380 0.5760 0.6779 0.8207
860.627834 0.8988 0.9150 0.9260 0.9310 0.9330
864.983239 0.9340 0.9370 0.9400 0.9440 0.9480
869.338644 0.9490 0.9510 0.9530 0.9530 0.9550
873.694049 0.9550 0.9550 0.9550 0.9550 0.9550
878.049454 0.9550 0.9550 0.9560 0.9560 0.9550
882.404858 0.9550 0.9530 0.9530 0.9530 0.9530
886.760263 0.9530 0.9520 0.9520 0.9490 0.9480
891.115668 0.9480 0.9480 0.9480 0.9460 0.9450
895.471073 0.9440 0.9440 0.9420 0.9420 0.9420
899.826477 0.9420 0.9410 0.9400 0.9370 0.9360
904.181882 0.9340 0.9330 0.9310 0.9310 0.9300
908.537287 0.9270 0.9220 0.9190 0.9150 0.9120
912.892692 0.9110 0.9040 0.9020 0.8970 0.8930
917.248097 0.8920 0.8840 0.8760 0.8700 0.8630
921.603501 0.8570 0.8500 0.8390 0.8320 0.8161
925.958906 0.8100 0.7970 0.7930 0.7740 0.7490
930.314311 0.7290 0.7180 0.7070 0.6761 0.6421
934.669716 0.6140 0.6140 0.6440 0.6430 0.6420
939.025120 0.6290 0.6240 0.6160 0.6060 0.6010
943.380525 0.5930 0.5890 0.5870 0.5860 0.5860
947.735930 0.5870 0.5890 0.5950 0.6020 0.6040
952.091335 0.6100 0.6210 0.6320 0.6470 0.6630
956.446740 0.6800 0.6930 0.7109 0.7259 0.7369
960.802144 0.7480 0.7490 0.7490 0.7450 0.7440
965.157549 0.7420 0.7440 0.7440 0.7460 0.7570
969.512954 0.7590 0.7520 0.7410 0.7230 0.6920
973.868359 0.6541 0.6281 0.5951 0.5950 0.6309
978.223763 0.6440 0.6780 0.7230 0.7610 0.7750
982.579168 0.7950 0.8209 0.8529 0.8988 0.9139
986.934573 0.9250 0.9290 0.9310 0.9340 0.9340
991.289978 0.9330 0.9330 0.9310 0.9310 0.9310
995.645383 0.9290 0.9290 0.9290 0.9270 0.9260
1000.000787 0.9230 0.9210 0.9180 0.9150 0.9120
1004.356192 0.9110 0.9040 0.9000 0.8920 0.8870
1008.711597 0.8800 0.8730 0.8660 0.8610 0.8540
1013.067002 0.8430 0.8310 0.8140 0.7940 0.7680
1017.422406 0.7490 0.6921 0.6461 0.5762 0.5601
1021.777811 0.5440 0.5300 0.5260 0.6049 0.6629
1026.133216 0.7249 0.7759 0.8239 0.8798 0.9039
1030.488621 0.9260 0.9330 0.9370 0.9420 0.9450
1034.844025 0.9480 0.9520 0.9530 0.9550 0.9550
1039.199430 0.9550 0.9560 0.9560 0.9560 0.9560
1043.554835 0.9570 0.9570 0.9560 0.9560 0.9560
1047.910240 0.9560 0.9560 0.9560 0.9560 0.9560
1052.265645 0.9560 0.9560 0.9560 0.9560 0.9570
1056.621049 0.9570 0.9570 0.9590 0.9590 0.9590
1060.976454 0.9570 0.9560 0.9560 0.9560 0.9550
1065.331859 0.9550 0.9550 0.9550 0.9530 0.9520
1069.687264 0.9480 0.9460 0.9460 0.9460 0.9460
1074.042668 0.9460 0.9460 0.9460 0.9460 0.9480
1078.398073 0.9480 0.9460 0.9460 0.9450 0.9450
1082.753478 0.9440 0.9440 0.9440 0.9420 0.9410
1087.108883 0.9410 0.9410 0.9400 0.9380 0.9380
1091.464288 0.9360 0.9360 0.9340 0.9330 0.9310
1095.819692 0.9310 0.9310 0.9300 0.9300 0.9270
1100.175097 0.9230 0.9220 0.9210 0.9170 0.9140
1104.530502 0.9120 0.9070 0.9030 0.9020 0.9020
1108.885907 0.8960 0.8920 0.8890 0.8840 0.8800
1113.241311 0.8730 0.8700 0.8620 0.8550 0.8510
1117.596716 0.8480 0.8380 0.8250 0.8120 0.7950
1121.952121 0.7850 0.7641 0.7411 0.7151 0.6782
1126.307526 0.6459 0.5520 0.5250 0.4970 0.4441
1130.662931 0.3722 0.3401 0.3081 0.2771 0.2471
1135.018335 0.2471 0.3220 0.3480 0.3680 0.5519
1139.373740 0.6209 0.6909 0.7509 0.7759 0.7969
1143.729145 0.8120 0.8160 0.8160 0.8120 0.8040
1148.084550 0.7860 0.7680 0.7311 0.6911 0.6651
1152.439954 0.6170 0.5750 0.5510 0.5250 0.4890
1156.795359 0.4810 0.5788 0.6009 0.6737 0.7856
1161.150764 0.8050 0.8340 0.8540 0.8720 0.8810
1165.506169 0.8870 0.8910 0.8920 0.8930 0.8930
1169.861573 0.8910 0.8820 0.8770 0.8700 0.8620
1174.216978 0.8570 0.8510 0.8420 0.8320 0.8191
1178.572383 0.8090 0.8050 0.8100 0.8320 0.8440
1182.927788 0.8510 0.8530 0.8540 0.8540 0.8510
1187.283193 0.8500 0.8430 0.8360 0.8310 0.8170
1191.638597 0.8130 0.8010 0.7940 0.7761 0.7591
1195.994002 0.7450 0.7290 0.6960 0.6590 0.6210
1200.349407 0.5741 0.5491 0.5251 0.4811 0.4382
1204.704812 0.4020 0.3790 0.3780 0.4050 0.4350
1209.060216 0.4530 0.5597 0.6019 0.6120 0.6130
1213.415621 0.6130 0.6140 0.6160 0.6160 0.6170
1217.771026 0.6280 0.6390 0.6540 0.6630 0.6740
1222.126431 0.6760 0.6740 0.6660 0.6590 0.6470
1226.481836 0.6350 0.6280 0.6061 0.5821 0.5700
1230.837240 0.5520 0.5450 0.5370 0.5140 0.5000
1235.192645 0.4680 0.4470 0.4350 0.4200 0.4130
1239.548050 0.4000 0.3740 0.3740 0.3820 0.3890
1243.903455 0.3980 0.4229 0.4579 0.4779 0.4880
1248.258859 0.4880 0.4800 0.4620 0.4430 0.4280
1252.614264 0.4060 0.3721 0.3381 0.3021 0.2442
1256.969669 0.1980 0.1750 0.1530 0.1310 0.1300
1261.325074 0.1310 0.1330 0.1360 0.1410 0.1420
1265.680479 0.1460 0.1490 0.1510 0.1520 0.1520
1270.035883 0.1530 0.1550 0.1560 0.1560 0.1570
1274.391288 0.1610 0.1670 0.1800 0.1970 0.2130
1278.746693 0.2579 0.3029 0.3559 0.4268 0.4679
1283.102098 0.5640 0.5970 0.6090 0.6100 0.6040
1287.457502 0.5950 0.5760 0.5551 0.5460 0.5380
1291.812907 0.5250 0.5120 0.5020 0.4910 0.4780
1296.168312 0.4610 0.4470 0.4320 0.4200 0.3971
1300.523717 0.3760 0.3600 0.3560 0.3480 0.3450
1304.879122 0.3380 0.3370 0.3340 0.3330 0.3310
1309.234526 0.3310 0.3310 0.3300 0.3290 0.3290
1313.589931 0.3220 0.3170 0.3030 0.2950 0.2890
1317.945336 0.2890 0.2920 0.2950 0.3150 0.3380
1322.300741 0.3610 0.3899 0.4279 0.4679 0.5507
1326.656145 0.5900 0.6080 0.6310 0.6920 0.7270
1331.011550 0.7450 0.7510 0.7530 0.7590 0.7720
1335.366955 0.7750 0.7850 0.8000 0.8140 0.8280
1339.722360 0.8360 0.8360 0.8400 0.8420 0.8420
1344.077764 0.8420 0.8390 0.8360 0.8320 0.8310
1348.433169 0.8140 0.8000 0.7751 0.7511 0.7341
1352.788574 0.7170 0.6960 0.6760 0.6620 0.6550
1357.143979 0.6530 0.6620 0.6690 0.6959 0.7229
1361.499384 0.7410 0.7610 0.7930 0.8140 0.8310
1365.854788 0.8420 0.8510 0.8610 0.8720 0.8770
1370.210193 0.8880 0.8950 0.8990 0.9030 0.9110
1374.565598 0.9120 0.9140 0.9170 0.9210 0.9250
1378.921003 0.9310 0.9360 0.9400 0.9420 0.9420
1383.276407 0.9410 0.9380 0.9340 0.9330 0.9310
1387.631812 0.9310 0.9300 0.9300 0.9290 0.9270
1391.987217 0.9270 0.9260 0.9260 0.9250 0.9230
1396.342622 0.9220 0.9210 0.9170 0.9150 0.9110
1400.698027 0.9040 0.9020 0.8970 0.8920 0.8850
1405.053431 0.8800 0.8760 0.8720 0.8680 0.8540
1409.408836 0.8400 0.8250 0.8130 0.7951 0.7791
1413.764241 0.7600 0.7400 0.7190 0.7000 0.6920
1418.119646 0.6870 0.6850 0.6870 0.6880 0.6890
1422.475050 0.6910 0.6910 0.6910 0.6890 0.6880
1426.830455 0.6870 0.6880 0.6970 0.7110 0.7379
1431.185860 0.7530 0.7680 0.7800 0.7870 0.7860
1435.541265 0.7760 0.7521 0.7251 0.6483 0.5643
1439.896670 0.5310 0.4990 0.4360 0.4360 0.4680
1444.252074 0.6077 0.6838 0.7139 0.7140 0.6961
1448.607479 0.6680 0.6470 0.6310 0.6310 0.6610
1452.962884 0.6820 0.6930 0.7020 0.7100 0.7249
1457.318289 0.7460 0.7760 0.8010 0.8130 0.8230
1461.673693 0.8310 0.8350 0.8510 0.8660 0.8780
1466.029098 0.8850 0.8910 0.8910 0.8880 0.8870
1470.384503 0.8850 0.8850 0.8840 0.8840 0.8840
1474.739908 0.8820 0.8820 0.8840 0.8840 0.8840
1479.095312 0.8850 0.8850 0.8840 0.8820 0.8800
1483.450717 0.8770 0.8740 0.8720 0.8700 0.8700
1487.806122 0.8690 0.8630 0.8580 0.8570 0.8530
1492.161527 0.8500 0.8430 0.8360 0.8320 0.8240
1496.516932 0.8140 0.8090 0.7890 0.7671 0.7331
1500.872336 0.6960 0.6840 0.6470 0.6020 0.5510
1505.227741 0.5260 0.5020 0.4362 0.3672 0.2893
1509.583146 0.2199 0.1740 0.1420 0.1440 0.1570
1513.938551 0.1969 0.2120 0.2280 0.2569 0.3148
1518.293955 0.3781 0.4581 0.5940 0.6540 0.6780
1522.649360 0.7020 0.7289 0.7489 0.7779 0.7979
1527.004765 0.8200 0.8350 0.8460 0.8550 0.8620
1531.360170 0.8680 0.8700 0.8720 0.8730 0.8740
1535.715575 0.8780 0.8850 0.8920 0.8990 0.9030
1540.070979 0.9100 0.9150 0.9170 0.9210 0.9220
1544.426384 0.9250 0.9270 0.9290 0.9300 0.9310
1548.781789 0.9310 0.9310 0.9310 0.9300 0.9290
1553.137194 0.9270 0.9260 0.9250 0.9250 0.9220
1557.492598 0.9210 0.9190 0.9180 0.9150 0.9140
1561.848003 0.9110 0.9060 0.9020 0.8960 0.8920
1566.203408 0.8910 0.8820 0.8800 0.8720 0.8620
1570.558813 0.8550 0.8480 0.8350 0.8250 0.8120
1574.914218 0.7940 0.7780 0.7590 0.7381 0.7151
1579.269622 0.6890 0.6730 0.6580 0.6610 0.6760
1583.625027 0.6920 0.7249 0.7509 0.7929 0.8050
1587.980432 0.8160 0.8230 0.8270 0.8250 0.8210
1592.335837 0.8190 0.8130 0.8050 0.7970 0.7860
1596.691241 0.7760 0.7680 0.7510 0.7290 0.7060
1601.046646 0.6840 0.6680 0.6471 0.6171 0.5951
1605.402051 0.5630 0.5450 0.5260 0.4840 0.4351
1609.757456 0.3741 0.3251 0.2811 0.2810 0.2880
1614.112861 0.3381 0.3890 0.4550 0.5529 0.5640
1618.468265 0.5640 0.5570 0.5490 0.4962 0.4323
1622.823670 0.4039 0.3710 0.3380 0.3040 0.2870
1627.179075 0.2840 0.2690 0.2690 0.3378 0.3898
1631.534480 0.4311 0.4771 0.5950 0.6320 0.6590
1635.889884 0.6910 0.6990 0.7070 0.7140 0.7230
1640.245289 0.7270 0.7340 0.7400 0.7450 0.7510
1644.600694 0.7560 0.7560 0.7490 0.7440 0.7360
1648.956099 0.7250 0.7100 0.6960 0.6820 0.6630
1653.311503 0.6470 0.6310 0.6061 0.5821 0.5611
1657.666908 0.5530 0.5450 0.5120 0.4770 0.4380
1662.022313 0.4190 0.3901 0.3571 0.3261 0.2971
1666.377718 0.2800 0.2550 0.2500 0.2340 0.2310
1670.733123 0.2340 0.2470 0.2500 0.2580 0.2680
1675.088527 0.2800 0.2950 0.3110 0.3220 0.3360
1679.443932 0.3530 0.3710 0.3750 0.3780 0.3830
1683.799337 0.3860 0.3860 0.3860 0.3850 0.3800
1688.154742 0.3800 0.3710 0.3610 0.3550 0.3480
1692.510146 0.3460 0.3480 0.3610 0.3780 0.3970
1696.865551 0.4250 0.4420 0.4799 0.5647 0.6078
1701.220956 0.6441 0.6761 0.7070 0.7310 0.7650
1705.576361 0.7930 0.8130 0.8290 0.8360 0.8420
1709.931766 0.8510 0.8610 0.8700 0.8780 0.8920
1714.287170 0.9030 0.9120 0.9180 0.9220 0.9250
1718.642575 0.9270 0.9310 0.9360 0.9420 0.9460
1722.997980 0.9530 0.9550 0.9570 0.9600 0.9630
1727.353385 0.9650 0.9670 0.9680 0.9680 0.9680
1731.708789 0.9680 0.9680 0.9680 0.9700 0.9710
1736.064194 0.9740 0.9740 0.9750 0.9760 0.9780
1740.419599 0.9780 0.9780 0.9780 0.9760 0.9760
1744.775004 0.9760 0.9760 0.9760 0.9760 0.9760
1749.130409 0.9750 0.9750 0.9750 0.9750 0.9740
1753.485813 0.9740 0.9750 0.9750 0.9750 0.9760
1757.841218 0.9760 0.9760 0.9780 0.9780 0.9780
1762.196623 0.9780 0.9780 0.9780 0.9760 0.9760
1766.552028 0.9750 0.9750 0.9750 0.9740 0.9720
1770.907432 0.9710 0.9710 0.9710 0.9700 0.9680
1775.262837 0.9680 0.9670 0.9670 0.9670 0.9670
1779.618242 0.9650 0.9640 0.9630 0.9610 0.9600
1783.973647 0.9600 0.9590 0.9570 0.9560 0.9560
1788.329051 0.9550 0.9550 0.9550 0.9550 0.9560
1792.684456 0.9560 0.9560 0.9560 0.9560 0.9550
1797.039861 0.9550 0.9550 0.9550 0.9550 0.9550
1801.395266 0.9560 0.9560 0.9560 0.9550 0.9550
1805.750671 0.9550 0.9550 0.9550 0.9550 0.9550
1810.106075 0.9550 0.9550 0.9550 0.9550 0.9560
1814.461480 0.9570 0.9560 0.9560 0.9560 0.9560
1818.816885 0.9530 0.9530 0.9550 0.9550 0.9550
1823.172290 0.9560 0.9550 0.9550 0.9550 0.9550
1827.527694 0.9530 0.9530 0.9530 0.9530 0.9530
1831.883099 0.9530 0.9530 0.9530 0.9530 0.9530
1836.238504 0.9530 0.9530 0.9530 0.9520 0.9520
1840.593909 0.9520 0.9520 0.9520 0.9520 0.9530
1844.949314 0.9520 0.9510 0.9510 0.9510 0.9510
1849.304718 0.9490 0.9490 0.9490 0.9480 0.9460
1853.660123 0.9460 0.9450 0.9450 0.9450 0.9440
1858.015528 0.9440 0.9440 0.9420 0.9420 0.9420
1862.370933 0.9410 0.9410 0.9380 0.9370 0.9340
1866.726337 0.9310 0.9290 0.9260 0.9250 0.9250
1871.081742 0.9270 0.9300 0.9310 0.9340 0.9370
1875.437147 0.9380 0.9400 0.9410 0.9420 0.9440
1879.792552 0.9440 0.9440 0.9420 0.9420 0.9420
1884.147957 0.9420 0.9420 0.9420 0.9420 0.9420
1888.503361 0.9410 0.9400 0.9400 0.9400 0.9380
1892.858766 0.9380 0.9380 0.9380 0.9380 0.9380
1897.214171 0.9400 0.9410 0.9410 0.9420 0.9440
1901.569576 0.9450 0.9450 0.9450 0.9450 0.9450
1905.924980 0.9460 0.9460 0.9460 0.9460 0.9450
1910.280385 0.9460 0.9460 0.9460 0.9460 0.9480
1914.635790 0.9480 0.9490 0.9490 0.9490 0.9490
1918.991195 0.9490 0.9480 0.9480 0.9480 0.9480
1923.346600 0.9480 0.9480 0.9480 0.9460 0.9460
1927.702004 0.9460 0.9460 0.9460 0.9460 0.9460
1932.057409 0.9450 0.9460 0.9460 0.9460 0.9460
1936.412814 0.9450 0.9450 0.9440 0.9440 0.9420
1940.768219 0.9420 0.9420 0.9420 0.9420 0.9440
1945.123623 0.9440 0.9440 0.9450 0.9450 0.9460
1949.479028 0.9460 0.9480 0.9490 0.9490 0.9490
1953.834433 0.9490 0.9490 0.9490 0.9490 0.9480
1958.189838 0.9480 0.9480 0.9480 0.9480 0.9480
1962.545242 0.9480 0.9480 0.9490 0.9490 0.9490
1966.900647 0.9490 0.9490 0.9490 0.9510 0.9510
1971.256052 0.9490 0.9480 0.9480 0.9490 0.9480
1975.611457 0.9480 0.9480 0.9480 0.9480 0.9480
1979.966862 0.9480 0.9480 0.9480 0.9480 0.9480
1984.322266 0.9480 0.9480 0.9480 0.9460 0.9460
1988.677671 0.9450 0.9440 0.9410 0.9380 0.9380
1993.033076 0.9400 0.9410 0.9410 0.9420 0.9420
1997.388481 0.9440 0.9440 0.9450 0.9440 0.9440
2001.743885 0.9440 0.9440 0.9440 0.9440 0.9440
2006.099290 0.9440 0.9440 0.9440 0.9440 0.9430
2010.454695 0.9420 0.9420 0.9420 0.9415 0.9410
2014.810100 0.9405 0.9400 0.9391 0.9380 0.9375
2019.165505 0.9370 0.9356 0.9341 0.9326 0.9311
2023.520909 0.9305 0.9300 0.9300 0.9300 0.9300
2027.876314 0.9300 0.9300 0.9300 0.9300 0.9300
2032.231719 0.9300 0.9300 0.9300 0.9300 0.9304
2036.587124 0.9309 0.9310 0.9310 0.9310 0.9310
2040.942528 0.9319 0.9329 0.9334 0.9339 0.9349
2045.297933 0.9359 0.9369 0.9378 0.9380 0.9380
2049.653338 0.9380 0.9380 0.9388 0.9398 0.9404
2054.008743 0.9409 0.9410 0.9410 0.9410 0.9410
2058.364148 0.9410 0.9410 0.9406 0.9401 0.9400
2062.719552 0.9400 0.9388 0.9373 0.9370 0.9370
2067.074957 0.9370 0.9370 0.9370 0.9370 0.9366
2071.430362 0.9361 0.9352 0.9342 0.9340 0.9340
2075.785767 0.9340 0.9340 0.9336 0.9331 0.9330
2080.141171 0.9330 0.9323 0.9313 0.9310 0.9310
2084.496576 0.9310 0.9310 0.9310 0.9310 0.9306
2088.851981 0.9301 0.9300 0.9300 0.9289 0.9274
2093.207386 0.9266 0.9261 0.9264 0.9269 0.9270
2097.562790 0.9270 0.9284 0.9304 0.9310 0.9310
2101.918195 0.9310 0.9310 0.9307 0.9302 0.9300
2106.273600 0.9300 0.9297 0.9292 0.9280 0.9265
2110.629005 0.9260 0.9260 0.9257 0.9252 0.9250
2114.984410 0.9250 0.9250 0.9250 0.9244 0.9234
2119.339814 0.9227 0.9222 0.9220 0.9220 0.9217
2123.695219 0.9212 0.9210 0.9210 0.9204 0.9194
2128.050624 0.9190 0.9190 0.9187 0.9182 0.9180
2132.406029 0.9180 0.9180 0.9180 0.9180 0.9180
2136.761433 0.9180 0.9180 0.9180 0.9180 0.9180
2141.116838 0.9180 0.9183 0.9188 0.9190 0.9190
2145.472243 0.9190 0.9190 0.9190 0.9190 0.9187
2149.827648 0.9182 0.9183 0.9188 0.9187 0.9182
2154.183053 0.9180 0.9180 0.9180 0.9180 0.9177
2158.538457 0.9172 0.9162 0.9147 0.9140 0.9140
2162.893862 0.9143 0.9148 0.9150 0.9150 0.9148
2167.249267 0.9143 0.9140 0.9140 0.9140 0.9140
2171.604672 0.9135 0.9125 0.9118 0.9113 0.9110
2175.960076 0.9110 0.9110 0.9110 0.9101 0.9081
2180.315481 0.9070 0.9070 0.9070 0.9070 0.9070
2184.670886 0.9070 0.9070 0.9070 0.9068 0.9063
2189.026291 0.9056 0.9046 0.9040 0.9040 0.9040
2193.381696 0.9040 0.9040 0.9040 0.9040 0.9040
2197.737100 0.9038 0.9033 0.9028 0.9023 0.9020
2202.092505 0.9020 0.9016 0.9006 0.8998 0.8993
2206.447910 0.8990 0.8990 0.8983 0.8963 0.8950
2210.803315 0.8950 0.8945 0.8930 0.8920 0.8920
2215.158719 0.8918 0.8913 0.8910 0.8910 0.8910
2219.514124 0.8910 0.8900 0.8870 0.8848 0.8843
2223.869529 0.8837 0.8827 0.8820 0.8820 0.8818
2228.224934 0.8813 0.8810 0.8810 0.8810 0.8810
2232.580339 0.8809 0.8804 0.8797 0.8787 0.8780
2236.935743 0.8780 0.8779 0.8774 0.8769 0.8764
2241.291148 0.8757 0.8747 0.8739 0.8734 0.8730
2245.646553 0.8730 0.8729 0.8724 0.8720 0.8720
2250.001958 0.8716 0.8701 0.8690 0.8690 0.8690
2254.357362 0.8690 0.8687 0.8672 0.8657 0.8642
2258.712767 0.8628 0.8618 0.8608 0.8598 0.8588
2263.068172 0.8578 0.8568 0.8558 0.8549 0.8544
2267.423577 0.8537 0.8522 0.8509 0.8504 0.8500
2271.778981 0.8500 0.8500 0.8500 0.8498 0.8488
2276.134386 0.8480 0.8480 0.8480 0.8480 0.8480
2280.489791 0.8480 0.8480 0.8480 0.8479 0.8474
2284.845196 0.8469 0.8464 0.8460 0.8460 0.8460
2289.200601 0.8460 0.8459 0.8449 0.8440 0.8440
2293.556005 0.8439 0.8434 0.8430 0.8430 0.8430
2297.911410 0.8430 0.8430 0.8430 0.8430 0.8425
2302.266815 0.8420 0.8420 0.8420 0.8420 0.8420
2306.622220 0.8420 0.8419 0.8409 0.8400 0.8400
2310.977624 0.8400 0.8400 0.8400 0.8400 0.8400
2315.333029 0.8395 0.8390 0.8390 0.8390 0.8385
2319.688434 0.8380 0.8370 0.8360 0.8360 0.8360
2324.043839 0.8360 0.8360 0.8355 0.8350 0.8350
2328.399244 0.8350 0.8345 0.8340 0.8330 0.8320
2332.754648 0.8320 0.8320 0.8320 0.8320 0.8320
2337.110053 0.8320 0.8315 0.8310 0.8310 0.8310
2341.465458 0.8300 0.8290 0.8280 0.8270 0.8260
2345.820863 0.8251 0.8245 0.8240 0.8235 0.8230
2350.176267 0.8216 0.8201 0.8200 0.8200 0.8195
2354.531672 0.8190 0.8190 0.8190 0.8181 0.8171
2358.887077 0.8165 0.8160 0.8151 0.8141 0.8140
2363.242482 0.8140 0.8140 0.8140 0.8140 0.8140
2367.597887 0.8140 0.8140 0.8136 0.8131 0.8130
2371.953291 0.8130 0.8126 0.8121 0.8120 0.8120
2376.308696 0.8120 0.8120 0.8111 0.8101 0.8100
2380.664101 0.8100 0.8096 0.8091 0.8090 0.8090
2385.019506 0.8077 0.8062 0.8056 0.8051 0.8050
2389.374910 0.8050 0.8046 0.8041 0.8032 0.8022
2393.730315 0.8016 0.8011 0.8010 0.8010 0.8006
2398.085720 0.8001 0.7992 0.7982 0.7976 0.7971
2402.441125 0.7962 0.7952 0.7946 0.7941 0.7940
2406.796529 0.7940 0.7936 0.7931 0.7930 0.7930
2411.151934 0.7922 0.7912 0.7906 0.7901 0.7896
2415.507339 0.7891 0.7883 0.7873 0.7863 0.7853
2419.862744 0.7843 0.7833 0.7826 0.7821 0.7813
2424.218149 0.7803 0.7796 0.7791 0.7786 0.7781
2428.573553 0.7773 0.7763 0.7756 0.7752 0.7747
2432.928958 0.7742 0.7733 0.7723 0.7717 0.7712
2437.284363 0.7710 0.7710 0.7707 0.7702 0.7690
2441.639768 0.7675 0.7663 0.7653 0.7647 0.7642
2445.995172 0.7637 0.7632 0.7620 0.7605 0.7597
2450.350577 0.7592 0.7584 0.7574 0.7570 0.7570
2454.705982 0.7567 0.7562 0.7557 0.7552 0.7541
2459.061387 0.7526 0.7517 0.7512 0.7504 0.7494
2463.416792 0.7487 0.7482 0.7474 0.7464 0.7457
2467.772196 0.7452 0.7441 0.7426 0.7417 0.7412
2472.127601 0.7401 0.7386 0.7374 0.7364 0.7360
2476.483006 0.7360 0.7346 0.7321 0.7307 0.7302
2480.838411 0.7289 0.7269 0.7257 0.7252 0.7245
2485.193815 0.7235 0.7225 0.7215 0.7202 0.7187
2489.549220 0.7172 0.7157 0.7147 0.7142 0.7135
2493.904625 0.7125 0.7117 0.7112 0.7107 0.7102
2498.260030 0.7095 0.7085 0.7078 0.7073 0.7060
2502.615435 0.7040 0.7023 0.7008 0.6998 0.6993
2506.970839 0.6985 0.6975 0.6968 0.6963 0.6958
2511.326244 0.6953 0.6945 0.6935 0.6930 0.6930
2515.681649 0.6928 0.6923 0.6920 0.6920 0.6922
2520.037054 0.6927 0.6930 0.6930 0.6930 0.6930
2524.392458 0.6930 0.6930 0.6928 0.6923 0.6914
2528.747863 0.6899 0.6890 0.6890 0.6888 0.6883
2533.103268 0.6874 0.6859 0.6850 0.6850 0.6848
2537.458673 0.6843 0.6836 0.6826 0.6818 0.6813
2541.814078 0.6808 0.6803 0.6800 0.6800 0.6796
2546.169482 0.6786 0.6780 0.6780 0.6778 0.6773
2550.524887 0.6770 0.6770 0.6768 0.6763 0.6760
2554.880292 0.6760 0.6757 0.6747 0.6738 0.6733
2559.235697 0.6730 0.6730 0.6728 0.6723 0.6720
2563.591101 0.6720 0.6717 0.6707 0.6699 0.6694
2567.946506 0.6690 0.6690 0.6689 0.6684 0.6676
2572.301911 0.6661 0.6650 0.6650 0.6647 0.6637
2576.657316 0.6629 0.6624 0.6619 0.6614 0.6610
2581.012720 0.6610 0.6611 0.6616 0.6621 0.6626
2585.368125 0.6632 0.6642 0.6651 0.6656 0.6662
2589.723530 0.6672 0.6681 0.6686 0.6691 0.6696
2594.078935 0.6702 0.6712 0.6721 0.6726 0.6730
2598.434340 0.6730 0.6730 0.6730 0.6731 0.6736
2602.789744 0.6740 0.6740 0.6740 0.6740 0.6742
2607.145149 0.6752 0.6762 0.6772 0.6783 0.6803
2611.500554 0.6823 0.6837 0.6852 0.6867 0.6882
2615.855959 0.6897 0.6911 0.6916 0.6922 0.6937
2620.211363 0.6950 0.6950 0.6948 0.6933 0.6920
2624.566768 0.6920 0.6920 0.6920 0.6919 0.6914
2628.922173 0.6909 0.6899 0.6890 0.6890 0.6890
2633.277578 0.6890 0.6890 0.6890 0.6891 0.6901
2637.632983 0.6910 0.6910 0.6910 0.6910 0.6910
2641.988387 0.6910 0.6910 0.6910 0.6910 0.6910
2646.343792 0.6910 0.6910 0.6911 0.6921 0.6930
2650.699197 0.6930 0.6930 0.6925 0.6920 0.6920
2655.054602 0.6920 0.6920 0.6920 0.6920 0.6920
2659.410006 0.6920 0.6920 0.6915 0.6910 0.6910
2663.765411 0.6910 0.6900 0.6890 0.6890 0.6890
2668.120816 0.6900 0.6910 0.6915 0.6920 0.6925
2672.476221 0.6930 0.6940 0.6950 0.6950 0.6950
2676.831626 0.6950 0.6950 0.6950 0.6950 0.6955
2681.187030 0.6960 0.6965 0.6970 0.6970 0.6970
2685.542435 0.6970 0.6970 0.6970 0.6970 0.6979
2689.897840 0.6989 0.6990 0.6990 0.6981 0.6971
2694.253245 0.6970 0.6970 0.6970 0.6970 0.6966
2698.608649 0.6960 0.6960 0.6960 0.6960 0.6960
2702.964054 0.6956 0.6951 0.6950 0.6950 0.6941
2707.319459 0.6931 0.6930 0.6930 0.6930 0.6930
2711.674864 0.6930 0.6930 0.6938 0.6948 0.6950
2716.030268 0.6950 0.6959 0.6968 0.6978 0.6988
2720.385673 0.6994 0.6999 0.7008 0.7018 0.7024
2724.741078 0.7029 0.7030 0.7030 0.7030 0.7030
2729.096483 0.7042 0.7057 0.7064 0.7069 0.7070
2733.451888 0.7070 0.7070 0.7070 0.7070 0.7070
2737.807292 0.7070 0.7070 0.7066 0.7061 0.7060
2742.162697 0.7060 0.7052 0.7042 0.7048 0.7058
2746.518102 0.7060 0.7060 0.7064 0.7069 0.7070
2750.873507 0.7070 0.7074 0.7079 0.7080 0.7080
2755.228911 0.7080 0.7080 0.7087 0.7097 0.7100
2759.584316 0.7100 0.7104 0.7109 0.7114 0.7118
2763.939721 0.7120 0.7120 0.7120 0.7120 0.7117
2768.295126 0.7112 0.7107 0.7102 0.7093 0.7083
2772.650531 0.7080 0.7080 0.7077 0.7072 0.7067
2777.005935 0.7062 0.7053 0.7043 0.7027 0.7007
2781.361340 0.6997 0.6992 0.6984 0.6974 0.6967
2785.716745 0.6962 0.6957 0.6952 0.6944 0.6934
2790.072150 0.6927 0.6922 0.6920 0.6920 0.6917
2794.427554 0.6912 0.6904 0.6894 0.6887 0.6882
2798.782959 0.6871 0.6856 0.6841 0.6826 0.6808
2803.138364 0.6788 0.6774 0.6764 0.6754 0.6744
2807.493769 0.6734 0.6724 0.6703 0.6673 0.6652
2811.849174 0.6637 0.6624 0.6614 0.6610 0.6610
2816.204578 0.6602 0.6587 0.6572 0.6557 0.6537
2820.559983 0.6512 0.6492 0.6477 0.6467 0.6462
2824.915388 0.6460 0.6460 0.6455 0.6445 0.6435
2829.270793 0.6425 0.6412 0.6398 0.6383 0.6368
2833.626197 0.6355 0.6345 0.6333 0.6318 0.6305
2837.981602 0.6295 0.6288 0.6283 0.6280 0.6280
2842.337007 0.6282 0.6287 0.6297 0.6312 0.6334
2846.692412 0.6364 0.6391 0.6416 0.6445 0.6480
2851.047817 0.6515 0.6550 0.6579 0.6599 0.6612
2855.403221 0.6617 0.6627 0.6641 0.6652 0.6657
2859.758626 0.6664 0.6674 0.6682 0.6687 0.6690
2864.114031 0.6690 0.6690 0.6690 0.6684 0.6669
2868.469436 0.6654 0.6639 0.6628 0.6623 0.6618
2872.824840 0.6613 0.6606 0.6596 0.6588 0.6583
2877.180245 0.6580 0.6580 0.6567 0.6533 0.6508
2881.535650 0.6503 0.6500 0.6500 0.6497 0.6487
2885.891055 0.6480 0.6480 0.6478 0.6473 0.6468
2890.246459 0.6463 0.6457 0.6447 0.6438 0.6433
2894.601864 0.6430 0.6430 0.6428 0.6423 0.6420
2898.957269 0.6420 0.6420 0.6420 0.6420 0.6420
2903.312674 0.6417 0.6407 0.6399 0.6394 0.6389
2907.668079 0.6384 0.6380 0.6380 0.6376 0.6361
2912.023483 0.6350 0.6350 0.6350 0.6350 0.6349
2916.378888 0.6344 0.6340 0.6340 0.6338 0.6328
2920.734293 0.6320 0.6320 0.6319 0.6314 0.6310
2925.089698 0.6310 0.6308 0.6298 0.6288 0.6278
2929.445102 0.6266 0.6246 0.6227 0.6212 0.6197
2933.800507 0.6182 0.6167 0.6152 0.6140 0.6140
2938.155912 0.6143 0.6158 0.6176 0.6211 0.6242
2942.511317 0.6258 0.6270 0.6270 0.6271 0.6276
2946.866722 0.6281 0.6286 0.6292 0.6307 0.6321
2951.222126 0.6331 0.6341 0.6351 0.6362 0.6377
2955.577531 0.6391 0.6396 0.6400 0.6400 0.6401
2959.932936 0.6411 0.6421 0.6426 0.6431 0.6436
2964.288341 0.6440 0.6440 0.6440 0.6435 0.6430
2968.643745 0.6425 0.6419 0.6409 0.6400 0.6395
2972.999150 0.6390 0.6395 0.6400 0.6400 0.6401
2977.354555 0.6421 0.6441 0.6451 0.6461 0.6481
2981.709960 0.6500 0.6505 0.6511 0.6526 0.6541
2986.065365 0.6566 0.6590 0.6600 0.6610 0.6620
2990.420769 0.6630 0.6645 0.6660 0.6675 0.6690
2994.776174 0.6690 0.6690 0.6695 0.6700 0.6700
2999.131579 0.6700 0.6700 0.6700 0.6700 0.6700
3003.486984 0.6695 0.6690 0.6675 0.6660 0.6660
3007.842388 0.6660 0.6655 0.6650 0.6655 0.6660
3012.197793 0.6698 0.6739 0.6759 0.6779 0.6809
3016.553198 0.6839 0.6873 0.6908 0.6915 0.6920
3020.908603 0.6925 0.6930 0.6930 0.6930 0.6930
3025.264007 0.6930 0.6930 0.6930 0.6939 0.6949
3029.619412 0.6950 0.6950 0.6941 0.6931 0.6930
3033.974817 0.6930 0.6930 0.6930 0.6939 0.6949
3038.330222 0.6954 0.6959 0.6960 0.6960 0.6960
3042.685627 0.6960 0.6960 0.6960 0.6960 0.6960
3047.041031 0.6964 0.6969 0.6979 0.6989 0.6990
3051.396436 0.6990 0.6994 0.6999 0.7000 0.7000
3055.751841 0.7008 0.7018 0.7040 0.7065 0.7070
3060.107246 0.7070 0.7086 0.7106 0.7114 0.7119
3064.462650 0.7128 0.7138 0.7144 0.7149 0.7158
3068.818055 0.7168 0.7174 0.7179 0.7192 0.7207
3073.173460 0.7218 0.7228 0.7238 0.7248 0.7254
3077.528865 0.7259 0.7271 0.7286 0.7294 0.7299
3081.884270 0.7311 0.7326 0.7334 0.7339 0.7347
3086.239674 0.7357 0.7364 0.7369 0.7381 0.7396
3090.595079 0.7404 0.7409 0.7410 0.7410 0.7410
3094.950484 0.7410 0.7414 0.7418 0.7427 0.7437
3099.305889 0.7443 0.7449 0.7464 0.7484 0.7504
3103.661293 0.7524 0.7544 0.7564 0.7577 0.7587
3108.016698 0.7590 0.7590 0.7593 0.7598 0.7610
3112.372103 0.7625 0.7633 0.7638 0.7643 0.7648
3116.727508 0.7656 0.7666 0.7670 0.7670 0.7673
3121.082913 0.7678 0.7686 0.7696 0.7700 0.7700
3125.438317 0.7703 0.7708 0.7710 0.7710 0.7713
3129.793722 0.7718 0.7729 0.7744 0.7750 0.7750
3134.149127 0.7753 0.7758 0.7760 0.7760 0.7766
3138.504532 0.7776 0.7780 0.7780 0.7780 0.7780
3142.859936 0.7780 0.7780 0.7780 0.7780 0.7783
3147.215341 0.7788 0.7790 0.7790 0.7790 0.7790
3151.570746 0.7790 0.7790 0.7790 0.7790 0.7790
3155.926151 0.7790 0.7790 0.7790 0.7790 0.7790
3160.281556 0.7793 0.7798 0.7800 0.7800 0.7800
3164.636960 0.7800 0.7800 0.7800 0.7800 0.7800
3168.992365 0.7805 0.7815 0.7820 0.7820 0.7820
3173.347770 0.7820 0.7815 0.7805 0.7800 0.7800
3177.703175 0.7800 0.7800 0.7798 0.7793 0.7788
3182.058579 0.7783 0.7776 0.7766 0.7760 0.7760
3186.413984 0.7760 0.7760 0.7760 0.7760 0.7764
3190.769389 0.7774 0.7780 0.7780 0.7776 0.7766
3195.124794 0.7760 0.7760 0.7758 0.7753 0.7748
3199.480198 0.7743 0.7736 0.7726 0.7720 0.7720
3203.835603 0.7720 0.7720 0.7720 0.7720 0.7720
3208.191008 0.7720 0.7718 0.7713 0.7708 0.7703
3212.546413 0.7696 0.7686 0.7678 0.7673 0.7667
3216.901818 0.7657 0.7650 0.7650 0.7648 0.7643
3221.257222 0.7640 0.7640 0.7638 0.7633 0.7630
3225.612627 0.7630 0.7630 0.7630 0.7627 0.7617
3229.968032 0.7610 0.7610 0.7609 0.7604 0.7600
3234.323437 0.7600 0.7599 0.7594 0.7587 0.7577
3238.678841 0.7570 0.7570 0.7570 0.7570 0.7570
3243.034246 0.7570 0.7569 0.7564 0.7559 0.7554
3247.389651 0.7550 0.7550 0.7546 0.7531 0.7515
3251.745056 0.7495 0.7478 0.7468 0.7458 0.7448
3256.100461 0.7440 0.7440 0.7437 0.7422 0.7407
3260.455865 0.7392 0.7379 0.7374 0.7370 0.7370
3264.811270 0.7369 0.7364 0.7360 0.7360 0.7358
3269.166675 0.7348 0.7339 0.7334 0.7327 0.7312
3273.522080 0.7298 0.7282 0.7269 0.7264 0.7260
3277.877484 0.7260 0.7259 0.7254 0.7248 0.7238
3282.232889 0.7226 0.7196 0.7169 0.7159 0.7148
3286.588294 0.7133 0.7120 0.7120 0.7119 0.7109
3290.943699 0.7098 0.7083 0.7069 0.7064 0.7059
3295.299104 0.7049 0.7039 0.7034 0.7029 0.7025
3299.654508 0.7019 0.7004 0.6988 0.6968 0.6949
3304.009913 0.6939 0.6930 0.6930 0.6929 0.6919
3308.365318 0.6908 0.6878 0.6849 0.6834 0.6819
3312.720723 0.6809 0.6799 0.6784 0.6769 0.6754
3317.076127 0.6740 0.6730 0.6719 0.6699 0.6680
3321.431532 0.6665 0.6650 0.6630 0.6610 0.6600
3325.786937 0.6590 0.6585 0.6580 0.6560 0.6540
3330.142342 0.6505 0.6470 0.6455 0.6440 0.6420
3334.497746 0.6400 0.6395 0.6390 0.6341 0.6291
3338.853151 0.6280 0.6270 0.6260 0.6250 0.6250
3343.208556 0.6250 0.6240 0.6230 0.6220 0.6210
3347.563961 0.6200 0.6190 0.6176 0.6161 0.6141
3351.919366 0.6121 0.6106 0.6091 0.6071 0.6051
3356.274770 0.6045 0.6040 0.6031 0.6021 0.6015
3360.630175 0.6010 0.6005 0.6000 0.5991 0.5981
3364.985580 0.5980 0.5980 0.5976 0.5971 0.5961
3369.340985 0.5951 0.5946 0.5941 0.5940 0.5940
3373.696389 0.5936 0.5931 0.5921 0.5911 0.5906
3378.051794 0.5901 0.5887 0.5872 0.5848 0.5824
3382.407199 0.5790 0.5755 0.5746 0.5741 0.5732
3386.762604 0.5722 0.5703 0.5683 0.5659 0.5634
3391.118009 0.5614 0.5594 0.5582 0.5572 0.5578
3395.473413 0.5588 0.5594 0.5599 0.5612 0.5627
3399.828818 0.5666 0.5711 0.5736 0.5756 0.5776
3404.184223 0.5796 0.5827 0.5862 0.5882 0.5897
3408.539628 0.5931 0.5970 0.6010 0.6050 0.6101
3412.895032 0.6156 0.6196 0.6232 0.6259 0.6284
3417.250437 0.6309 0.6334 0.6370 0.6410 0.6442
3421.605842 0.6472 0.6520 0.6575 0.6604 0.6624
3425.961247 0.6651 0.6681 0.6704 0.6724 0.6747
3430.316652 0.6772 0.6811 0.6857 0.6898 0.6938
3434.672056 0.6957 0.6967 0.7005 0.7054 0.7080
3439.027461 0.7095 0.7107 0.7117 0.7127 0.7137
3443.382866 0.7170 0.7215 0.7240 0.7255 0.7260
3447.738271 0.7260 0.7270 0.7285 0.7293 0.7298
3452.093675 0.7319 0.7349 0.7366 0.7376 0.7386
3456.449080 0.7396 0.7400 0.7400 0.7403 0.7408
3460.804485 0.7413 0.7418 0.7426 0.7436 0.7443
3465.159890 0.7448 0.7453 0.7458 0.7460 0.7460
3469.515295 0.7466 0.7476 0.7492 0.7512 0.7532
3473.870699 0.7551 0.7563 0.7568 0.7570 0.7570
3478.226104 0.7576 0.7586 0.7601 0.7621 0.7649
3482.581509 0.7684 0.7711 0.7731 0.7743 0.7748
3486.936914 0.7753 0.7758 0.7771 0.7791 0.7813
3491.292318 0.7838 0.7863 0.7888 0.7913 0.7938
3495.647723 0.7955 0.7965 0.7980 0.8000 0.8022
3500.003128 0.8047 0.8070 0.8090 0.8105 0.8115
3504.358533 0.8122 0.8127 0.8132 0.8137 0.8147
3508.713937 0.8162 0.8175 0.8185 0.8199 0.8219
3513.069342 0.8239 0.8259 0.8272 0.8277 0.8282
3517.424747 0.8287 0.8294 0.8304 0.8310 0.8310
3521.780152 0.8317 0.8331 0.8340 0.8340 0.8342
3526.135557 0.8347 0.8350 0.8350 0.8350 0.8350
3530.490961 0.8350 0.8350 0.8356 0.8371 0.8380
3534.846366 0.8380 0.8380 0.8380 0.8380 0.8380
3539.201771 0.8382 0.8387 0.8392 0.8397 0.8404
3543.557176 0.8414 0.8420 0.8420 0.8420 0.8420
3547.912580 0.8420 0.8420 0.8420 0.8420 0.8422
3552.267985 0.8427 0.8430 0.8430 0.8430 0.8430
3556.623390 0.8430 0.8430 0.8430 0.8430 0.8430
3560.978795 0.8430 0.8430 0.8430 0.8430 0.8430
3565.334200 0.8430 0.8430 0.8429 0.8424 0.8420
3569.689604 0.8420 0.8420 0.8420 0.8420 0.8420
3574.045009 0.8421 0.8426 0.8430 0.8430 0.8430
3578.400414 0.8430 0.8431 0.8436 0.8440 0.8440
3582.755819 0.8440 0.8440 0.8440 0.8440 0.8439
3587.111223 0.8434 0.8430 0.8430 0.8430 0.8430
3591.466628 0.8429 0.8424 0.8420 0.8420 0.8420
3595.822033 0.8420 0.8420 0.8420 0.8420 0.8420
3600.177438 0.8420 0.8420 0.8420 0.8420 0.8420
3604.532843 0.8420 0.8420 0.8420 0.8418 0.8408
3608.888247 0.8400 0.8400 0.8400 0.8400 0.8400
3613.243652 0.8400 0.8400 0.8400 0.8400 0.8400
3617.599057 0.8400 0.8400 0.8399 0.8394 0.8389
3621.954462 0.8384 0.8380 0.8380 0.8380 0.8380
3626.309866 0.8380 0.8380 0.8380 0.8380 0.8379
3630.665271 0.8369 0.8360 0.8360 0.8360 0.8360
3635.020676 0.8360 0.8360 0.8360 0.8355 0.8350
3639.376081 0.8350 0.8350 0.8350 0.8350 0.8350
3643.731485 0.8350 0.8345 0.8339 0.8329 0.8320
3648.086890 0.8320 0.8320 0.8320 0.8320 0.8320
3652.442295 0.8320 0.8320 0.8320 0.8320 0.8320
3656.797700 0.8315 0.8310 0.8310 0.8310 0.8310
3661.153105 0.8310 0.8310 0.8310 0.8300 0.8290
3665.508509 0.8290 0.8290 0.8290 0.8290 0.8290
3669.863914 0.8290 0.8290 0.8290 0.8290 0.8290
3674.219319 0.8290 0.8290 0.8290 0.8290 0.8290
3678.574724 0.8290 0.8285 0.8280 0.8280 0.8280
3682.930128 0.8275 0.8270 0.8270 0.8270 0.8270
3687.285533 0.8270 0.8270 0.8270 0.8261 0.8251
3691.640938 0.8250 0.8250 0.8250 0.8250 0.8250
3695.996343 0.8250 0.8245 0.8240 0.8240 0.8240
3700.351748 0.8240 0.8240 0.8240 0.8240 0.8240
3704.707152 0.8240 0.8244 0.8249 0.8246 0.8241
3709.062557 0.8236 0.8231 0.8230 0.8230 0.8221
3713.417962 0.8211 0.8210 0.8210 0.8210 0.8210
3717.773367 0.8210 0.8210 0.8210 0.8210 0.8210
3722.128771 0.8210 0.8210 0.8210 0.8206 0.8201
3726.484176 0.8200 0.8200 0.8200 0.8200 0.8200
3730.839581 0.8200 0.8196 0.8191 0.8182 0.8172
3735.194986 0.8170 0.8170 0.8170 0.8170 0.8166
3739.550391 0.8161 0.8160 0.8160 0.8160 0.8160
3743.905795 0.8160 0.8160 0.8152 0.8142 0.8140
3748.261200 0.8140 0.8140 0.8140 0.8140 0.8140
3752.616605 0.8140 0.8140 0.8140 0.8140 0.8136
3756.972010 0.8131 0.8130 0.8130 0.8130 0.8130
3761.327414 0.8126 0.8122 0.8120 0.8120 0.8113
3765.682819 0.8103 0.8100 0.8100 0.8100 0.8100
3770.038224 0.8100 0.8100 0.8100 0.8100 0.8100
3774.393629 0.8100 0.8100 0.8100 0.8107 0.8117
3778.749034 0.8120 0.8120 0.8120 0.8120 0.8120
3783.104438 0.8120 0.8120 0.8120 0.8120 0.8120
3787.459843 0.8114 0.8104 0.8100 0.8100 0.8100
3791.815248 0.8100 0.8100 0.8100 0.8100 0.8100
3796.170653 0.8100 0.8100 0.8100 0.8100
##END=
