##TITLE=BENZYL SULFIDE
$$ E.K. (W.L.)
##JCAMP-DX=4.24
##DATA TYPE=INFRARED SPECTRUM
##CLASS=COBLENTZ
##ORIGIN=WYANDOTTE CHEMICALS CORP., WYANDOTTE, MICHIGAN, USA
##OWNER=COBLENTZ SOCIETY
Collection (C) 2018 copyright by the U.S. Secretary of Commerce
on behalf of the United States of America. All rights reserved.
##DATE=Not specified, most likely prior to 1970
##NAMES=dibenzyl sulfide
[(benzylsulfanyl)methyl]benzene
##CAS REGISTRY NO=538-74-9
##MOLFORM=C14 H14 S
##MP=48-49 C
##SOURCE REFERENCE=COBLENTZ NO. 1346
##$NIST SOURCE=COBLENTZ
##$NIST IMAGE=cob1346
##SPECTROMETER/DATA SYSTEM=Not specified, most likely a prism, grating, or hybrid spectrometer.
##STATE=SOLID (MINERAL OIL MULL)
##SAMPLING PROCEDURE=TRANSMISSION
##RESOLUTION=4
##DATA PROCESSING=DIGITIZED BY NIST FROM HARD COPY
##XUNITS=MICROMETERS
##YUNITS=TRANSMITTANCE
##XFACTOR=1.000000
##YFACTOR=1
##DELTAX=000.006803
##FIRSTX=2.02
##LASTX=15.9864
##FIRSTY=0.323
##MAXX=15.9864
##MINX=2.02
##MAXY=0.933
##MINY=0.045
##NPOINTS=2054
##XYDATA=(X++(Y..Y))
2.020000 0.3230 0.3230 0.3210 0.3210 0.3190
2.054030 0.3190 0.3190 0.3190 0.3190 0.3210
2.088000 0.3240 0.3290 0.3380 0.3400 0.3400
2.122030 0.3380 0.3380 0.3330 0.3330 0.3330
2.156000 0.3330 0.3310 0.3280 0.3210 0.3180
2.190030 0.3110 0.3110 0.3140 0.3180 0.3290
2.224000 0.3330 0.3330 0.3280 0.3240 0.3180
2.258030 0.3180 0.3210 0.3210 0.3240 0.3230
2.293000 0.3190 0.3230 0.3210 0.3190 0.3180
2.327030 0.3180 0.3140 0.3160 0.3180 0.3190
2.361000 0.3190 0.3190 0.3210 0.3190 0.3190
2.395030 0.3160 0.3180 0.3180 0.3210 0.3230
2.429000 0.3230 0.3240 0.3230 0.3240 0.3280
2.463030 0.3330 0.3380 0.3350 0.3380 0.3400
2.497000 0.3410 0.3400 0.3330 0.3310 0.3310
2.531030 0.3330 0.3380 0.3400 0.3400 0.3450
2.565000 0.3500 0.3500 0.3480 0.3410 0.3410
2.599030 0.3410 0.3410 0.3410 0.3430 0.3520
2.633000 0.3550 0.3550 0.3580 0.3530 0.3520
2.667030 0.3500 0.3480 0.3500 0.3500 0.3500
2.701000 0.3500 0.3460 0.3430 0.3410 0.3380
2.735030 0.3350 0.3350 0.3330 0.3310 0.3310
2.769000 0.3280 0.3290 0.3310 0.3310 0.3290
2.803030 0.3240 0.3230 0.3230 0.3230 0.3230
2.837000 0.3230 0.3290 0.3290 0.3230 0.3210
2.871030 0.3180 0.3160 0.3160 0.3160 0.3160
2.905000 0.3180 0.3180 0.3180 0.3180 0.3180
2.939030 0.3190 0.3190 0.3190 0.3210 0.3210
2.973000 0.3230 0.3230 0.3230 0.3230 0.3230
3.007030 0.3230 0.3230 0.3230 0.3210 0.3210
3.041000 0.3190 0.3160 0.3140 0.3120 0.3070
3.075030 0.3010 0.3010 0.3090 0.3090 0.3090
3.109000 0.3060 0.3040 0.3020 0.3010 0.3010
3.143030 0.3010 0.3020 0.3020 0.3010 0.2900
3.177000 0.2850 0.2820 0.2780 0.2770 0.2730
3.211030 0.2680 0.2610 0.2500 0.2270 0.2150
3.245000 0.2070 0.1970 0.1830 0.1700 0.1510
3.279030 0.1470 0.1470 0.1490 0.1680 0.1680
3.313000 0.1640 0.1340 0.1150 0.1020 0.0880
3.347030 0.0760 0.0660 0.0540 0.0520 0.0510
3.381000 0.0470 0.0450 0.0450 0.0450 0.0490
3.415030 0.0490 0.0520 0.0560 0.0660 0.0830
3.449000 0.1020 0.1080 0.1080 0.1020 0.0960
3.483030 0.0910 0.0910 0.0960 0.1390 0.2000
3.517000 0.2840 0.3360 0.3800 0.3910 0.3970
3.551030 0.4040 0.4140 0.4230 0.4330 0.4370
3.585000 0.4480 0.4500 0.4480 0.4480 0.4480
3.619030 0.4430 0.4400 0.4380 0.4370 0.4310
3.653000 0.4300 0.4280 0.4260 0.4250 0.4300
3.687030 0.4430 0.4430 0.4380 0.4380 0.4300
3.721000 0.4280 0.4280 0.4260 0.4280 0.4310
3.755030 0.4310 0.4310 0.4350 0.4380 0.4420
3.789000 0.4430 0.4430 0.4430 0.4370 0.4380
3.823030 0.4450 0.4480 0.4540 0.4450 0.4540
3.857000 0.4590 0.4590 0.4550 0.4540 0.4480
3.891030 0.4480 0.4500 0.4520 0.4620 0.4620
3.925000 0.4620 0.4620 0.4620 0.4620 0.4600
3.959030 0.4550 0.4550 0.4590 0.4600 0.4640
3.993000 0.4670 0.4760 0.4770 0.4790 0.4770
4.027030 0.4770 0.4740 0.4600 0.4600 0.4670
4.061000 0.4720 0.4770 0.4770 0.4790 0.4790
4.095030 0.4790 0.4790 0.4620 0.4670 0.4710
4.129000 0.4810 0.4820 0.4760 0.4720 0.4760
4.163030 0.4840 0.4840 0.4860 0.4880 0.4880
4.197000 0.4880 0.4840 0.4820 0.4740 0.4570
4.231030 0.4430 0.4420 0.4430 0.4480 0.4550
4.265000 0.4650 0.4760 0.4810 0.4860 0.4890
4.299030 0.4910 0.4940 0.4980 0.5010 0.5030
4.333000 0.5050 0.5080 0.5080 0.5080 0.5080
4.367030 0.5080 0.5080 0.5060 0.5050 0.5010
4.401000 0.5050 0.5050 0.5100 0.5100 0.5080
4.435030 0.4960 0.5000 0.5050 0.5100 0.5170
4.469000 0.5170 0.5150 0.5130 0.5110 0.5100
4.503030 0.5080 0.5060 0.5060 0.5050 0.5050
4.537000 0.5050 0.5050 0.5060 0.5080 0.5110
4.571030 0.5150 0.5180 0.5220 0.5230 0.5250
4.605000 0.5280 0.5300 0.5250 0.5270 0.5280
4.639030 0.5340 0.5390 0.5400 0.5320 0.5320
4.673000 0.5320 0.5320 0.5350 0.5350 0.5350
4.707030 0.5350 0.5370 0.5390 0.5420 0.5400
4.741000 0.5400 0.5350 0.5370 0.5400 0.5490
4.775030 0.5520 0.5510 0.5490 0.5540 0.5590
4.810000 0.5510 0.5590 0.5620 0.5680 0.5680
4.844030 0.5680 0.5620 0.5560 0.5510 0.5560
4.878000 0.5610 0.5620 0.5640 0.5640 0.5640
4.912030 0.5640 0.5640 0.5680 0.5680 0.5640
4.946000 0.5590 0.5590 0.5590 0.5610 0.5730
4.980030 0.5660 0.5690 0.5710 0.5740 0.5760
5.014000 0.5780 0.5780 0.5780 0.5780 0.5690
5.048030 0.5590 0.5590 0.5570 0.5540 0.5400
5.082000 0.5270 0.5100 0.5010 0.5100 0.5390
5.116030 0.5490 0.5490 0.5390 0.4910 0.5000
5.150000 0.5130 0.5250 0.5370 0.5510 0.5690
5.184030 0.5610 0.5730 0.5790 0.5790 0.5780
5.218000 0.5680 0.5680 0.5690 0.5810 0.5790
5.252030 0.5710 0.5680 0.5620 0.5540 0.5450
5.286000 0.5370 0.5320 0.5320 0.5320 0.5300
5.320030 0.5300 0.5320 0.5440 0.5490 0.5510
5.354000 0.5610 0.5740 0.5790 0.5880 0.5810
5.388030 0.5880 0.5910 0.5930 0.5910 0.5900
5.422000 0.5830 0.5830 0.5880 0.5930 0.6000
5.456030 0.5930 0.5730 0.5690 0.5710 0.6000
5.490000 0.6000 0.5910 0.5610 0.5280 0.5130
5.524030 0.5130 0.5180 0.5450 0.5640 0.5780
5.558000 0.5850 0.5910 0.5960 0.6000 0.6070
5.592030 0.6050 0.6000 0.5960 0.5910 0.5860
5.626000 0.5780 0.5740 0.5740 0.5980 0.5880
5.660030 0.5680 0.5610 0.5660 0.5780 0.5780
5.694000 0.5810 0.5850 0.5950 0.5980 0.5980
5.728030 0.6000 0.6020 0.6100 0.6270 0.6320
5.762000 0.6300 0.5960 0.5910 0.5910 0.5950
5.796030 0.6340 0.6370 0.6370 0.6220 0.6000
5.830000 0.5910 0.5900 0.5910 0.5960 0.6030
5.864030 0.6080 0.6080 0.6080 0.6080 0.5880
5.898000 0.5900 0.6100 0.6170 0.6170 0.6080
5.932030 0.6080 0.5960 0.5980 0.6100 0.6170
5.966000 0.6170 0.6170 0.6190 0.6190 0.5980
6.000030 0.6030 0.6170 0.6240 0.6270 0.6320
6.034000 0.6410 0.6410 0.6320 0.6120 0.6120
6.068030 0.6390 0.6390 0.6340 0.6070 0.6000
6.102000 0.6000 0.5950 0.5950 0.5960 0.6130
6.136030 0.6190 0.6190 0.6120 0.6080 0.5850
6.170000 0.5200 0.4230 0.4210 0.4250 0.4980
6.204030 0.5130 0.5270 0.5540 0.5730 0.5730
6.238000 0.5320 0.4720 0.4710 0.4740 0.5060
6.272030 0.5390 0.5560 0.5780 0.6070 0.6070
6.306000 0.6050 0.6030 0.6020 0.5910 0.5900
6.340030 0.5910 0.5980 0.6080 0.6150 0.6170
6.374000 0.6170 0.6130 0.6080 0.6020 0.6000
6.408030 0.6020 0.6100 0.6190 0.6270 0.6360
6.442000 0.6630 0.6630 0.6590 0.6580 0.6580
6.476030 0.6540 0.6470 0.6420 0.6420 0.6490
6.510000 0.6530 0.6590 0.6610 0.6610 0.6610
6.544030 0.6510 0.6390 0.6320 0.6320 0.6360
6.578000 0.6370 0.6390 0.6410 0.5880 0.5510
6.612030 0.5030 0.3700 0.2430 0.1290 0.0950
6.646000 0.0930 0.0960 0.2210 0.3010 0.3350
6.680030 0.3450 0.3570 0.3720 0.3890 0.3910
6.714000 0.3870 0.3670 0.3530 0.3290 0.2950
6.748030 0.2780 0.2550 0.2480 0.2460 0.2430
6.782000 0.2390 0.2380 0.2340 0.2090 0.1510
6.816030 0.0710 0.0660 0.0710 0.1370 0.1800
6.850000 0.2120 0.2610 0.3110 0.3480 0.3720
6.884030 0.3960 0.4300 0.4550 0.4890 0.5060
6.918000 0.5220 0.5440 0.5620 0.5880 0.5980
6.952030 0.5980 0.5980 0.5980 0.5790 0.5640
6.986000 0.5220 0.4230 0.3670 0.3120 0.2550
7.020030 0.1660 0.1630 0.1630 0.1760 0.2770
7.054000 0.3450 0.4060 0.4740 0.4880 0.5010
7.088030 0.5170 0.5200 0.5230 0.5280 0.5280
7.122000 0.5300 0.5370 0.5390 0.5390 0.5370
7.156030 0.5270 0.5220 0.5130 0.4840 0.4640
7.190000 0.4470 0.4280 0.4140 0.3910 0.3890
7.224030 0.3910 0.4420 0.4940 0.5050 0.5150
7.259000 0.5340 0.5490 0.5610 0.5640 0.5680
7.293030 0.5780 0.6020 0.6300 0.6420 0.6460
7.327000 0.6460 0.6490 0.6510 0.6540 0.6560
7.361030 0.6580 0.6610 0.6610 0.6610 0.6610
7.395000 0.6610 0.6610 0.6610 0.6610 0.6630
7.429030 0.6640 0.6680 0.6710 0.6730 0.6760
7.463000 0.6760 0.6730 0.6660 0.6560 0.6410
7.497030 0.6240 0.6070 0.5900 0.5810 0.5810
7.531000 0.5860 0.6050 0.6240 0.6420 0.6530
7.565030 0.6630 0.6630 0.6660 0.6700 0.6750
7.599000 0.6810 0.6850 0.6880 0.6880 0.6880
7.633030 0.6900 0.6920 0.6950 0.7040 0.7090
7.667000 0.7090 0.7090 0.7090 0.7090 0.7090
7.701030 0.7090 0.7090 0.7090 0.7090 0.7100
7.735000 0.7140 0.7190 0.7270 0.7290 0.7270
7.769030 0.7240 0.7240 0.7240 0.7220 0.7190
7.803000 0.7170 0.7150 0.7140 0.7120 0.7120
7.837030 0.7120 0.7090 0.7100 0.7170 0.7190
7.871000 0.7220 0.7240 0.7270 0.7270 0.7270
7.905030 0.7270 0.7270 0.7240 0.7220 0.7210
7.939000 0.7170 0.7100 0.7040 0.6950 0.6900
7.973030 0.6880 0.6850 0.6830 0.6800 0.6630
8.007000 0.6490 0.6340 0.6200 0.6030 0.5790
8.041030 0.5520 0.5150 0.4250 0.3580 0.3550
8.075000 0.3570 0.4040 0.4740 0.4980 0.5200
8.109030 0.5620 0.6050 0.6390 0.6540 0.6660
8.143000 0.6870 0.7050 0.7170 0.7210 0.7260
8.177030 0.7380 0.7390 0.7390 0.7390 0.7410
8.211000 0.7340 0.7340 0.7360 0.7380 0.7410
8.245030 0.7410 0.7430 0.7440 0.7480 0.7410
8.279000 0.7260 0.7150 0.7040 0.6780 0.6460
8.313030 0.6190 0.6150 0.6170 0.6420 0.6980
8.347000 0.7260 0.7480 0.7500 0.7430 0.7390
8.381030 0.7380 0.7220 0.7050 0.6930 0.6710
8.415000 0.6700 0.6710 0.6870 0.6880 0.6930
8.449030 0.6950 0.6970 0.6980 0.6980 0.6980
8.483000 0.6980 0.6980 0.6980 0.6980 0.7000
8.517030 0.7050 0.7090 0.7090 0.7000 0.6560
8.551000 0.6220 0.6000 0.5690 0.5560 0.5560
8.585030 0.5590 0.6150 0.6510 0.6750 0.6920
8.619000 0.6970 0.7000 0.7050 0.7150 0.7260
8.653030 0.7310 0.7320 0.7360 0.7390 0.7410
8.687000 0.7390 0.7390 0.7340 0.7260 0.7140
8.721030 0.6970 0.6700 0.6410 0.6200 0.5910
8.755000 0.5900 0.5910 0.6030 0.6150 0.6300
8.789030 0.6490 0.6630 0.6730 0.6750 0.6780
8.823000 0.6880 0.6900 0.6900 0.6880 0.6830
8.857030 0.6780 0.6680 0.6640 0.6630 0.6610
8.891000 0.6610 0.6590 0.6590 0.6580 0.6580
8.925030 0.6560 0.6530 0.6470 0.6460 0.6460
8.959000 0.6460 0.6460 0.6470 0.6490 0.6540
8.993030 0.6590 0.6640 0.6700 0.6780 0.6870
9.027000 0.6970 0.7050 0.7140 0.7190 0.7220
9.061030 0.7260 0.7260 0.7290 0.7320 0.7340
9.095000 0.7360 0.7380 0.7390 0.7390 0.7380
9.129030 0.7340 0.7260 0.7220 0.7210 0.7190
9.163000 0.7090 0.7020 0.6980 0.7000 0.6980
9.197030 0.6920 0.6730 0.6640 0.6490 0.6170
9.231000 0.5740 0.5250 0.4110 0.3500 0.2900
9.265030 0.2510 0.2310 0.2100 0.1980 0.1950
9.299000 0.2000 0.2510 0.2950 0.3600 0.4280
9.333030 0.4820 0.5030 0.5230 0.5570 0.5810
9.367000 0.6020 0.6150 0.6270 0.6390 0.6530
9.401030 0.6710 0.6780 0.6850 0.6900 0.6950
9.435000 0.7020 0.7070 0.7100 0.7150 0.7210
9.469030 0.7240 0.7260 0.7290 0.7310 0.7310
9.503000 0.7340 0.7340 0.7360 0.7360 0.7380
9.537030 0.7380 0.7380 0.7380 0.7390 0.7390
9.571000 0.7390 0.7390 0.7390 0.7390 0.7390
9.605030 0.7380 0.7270 0.7240 0.7150 0.7070
9.639000 0.6950 0.6830 0.6700 0.6420 0.6020
9.673030 0.5560 0.5150 0.4600 0.4620 0.4890
9.707000 0.5170 0.5850 0.6220 0.6490 0.6630
9.741030 0.6900 0.7020 0.7090 0.7090 0.7140
9.776000 0.7310 0.7410 0.7430 0.7460 0.7530
9.810030 0.7580 0.7610 0.7650 0.7670 0.7680
9.844000 0.7680 0.7720 0.7750 0.7770 0.7770
9.878030 0.7780 0.7780 0.7770 0.7730 0.7670
9.912000 0.7550 0.7410 0.7070 0.6810 0.6780
9.946030 0.6810 0.7090 0.7410 0.7510 0.7670
9.980000 0.7750 0.7750 0.7750 0.7210 0.6930
10.014030 0.6590 0.6270 0.6240 0.6240 0.6460
10.048000 0.6680 0.6900 0.7120 0.7320 0.7630
10.082030 0.7750 0.7780 0.7840 0.8010 0.8020
10.116000 0.8110 0.8230 0.8230 0.8240 0.8240
10.150030 0.8260 0.8280 0.8280 0.8290 0.8280
10.184000 0.8280 0.8260 0.8260 0.8260 0.8240
10.218030 0.8240 0.8240 0.8190 0.8160 0.8120
10.252000 0.8040 0.7940 0.7800 0.7700 0.7680
10.286030 0.7700 0.7840 0.7950 0.8010 0.8160
10.320000 0.8240 0.8260 0.8280 0.8280 0.8310
10.354030 0.8380 0.8410 0.8410 0.8380 0.8330
10.388000 0.8310 0.8310 0.8310 0.8380 0.8460
10.422030 0.8480 0.8500 0.8500 0.8500 0.8500
10.456000 0.8500 0.8520 0.8550 0.8580 0.8620
10.490030 0.8620 0.8600 0.8580 0.8600 0.8620
10.524000 0.8630 0.8650 0.8670 0.8690 0.8690
10.558030 0.8700 0.8700 0.8700 0.8700 0.8700
10.592000 0.8650 0.8650 0.8690 0.8700 0.8750
10.626030 0.8770 0.8770 0.8770 0.8770 0.8770
10.660000 0.8750 0.8750 0.8740 0.8700 0.8650
10.694030 0.8620 0.8620 0.8620 0.8620 0.8670
10.728000 0.8750 0.8740 0.8650 0.8500 0.8450
10.762030 0.8450 0.8520 0.8500 0.8460 0.8400
10.796000 0.8310 0.8120 0.8010 0.7850 0.7600
10.830030 0.7310 0.7070 0.6950 0.6800 0.6710
10.864000 0.6700 0.6710 0.6750 0.6760 0.6710
10.898030 0.6420 0.6100 0.5780 0.5450 0.5150
10.932000 0.4840 0.4910 0.5100 0.5270 0.5900
10.966030 0.6660 0.7020 0.7310 0.7600 0.7890
11.000000 0.8120 0.8290 0.8350 0.8380 0.8410
11.034030 0.8430 0.8450 0.8480 0.8480 0.8400
11.068000 0.8180 0.8040 0.7800 0.7530 0.7260
11.102030 0.7020 0.6710 0.6490 0.6270 0.5900
11.136000 0.5730 0.5730 0.5760 0.5880 0.6070
11.170030 0.6390 0.6610 0.6880 0.7140 0.7380
11.204000 0.7580 0.7730 0.7870 0.7990 0.8090
11.238030 0.8180 0.8240 0.8290 0.8350 0.8400
11.272000 0.8430 0.8480 0.8520 0.8530 0.8570
11.306030 0.8600 0.8600 0.8620 0.8650 0.8700
11.340000 0.8740 0.8770 0.8800 0.8820 0.8860
11.374030 0.8870 0.8890 0.8910 0.8960 0.9010
11.408000 0.9030 0.9040 0.9040 0.9060 0.9080
11.442030 0.9090 0.9090 0.9110 0.9110 0.9130
11.476000 0.9140 0.9180 0.9200 0.9200 0.9200
11.510030 0.9200 0.9200 0.9200 0.9200 0.9200
11.544000 0.9200 0.9210 0.9230 0.9250 0.9260
11.578030 0.9260 0.9260 0.9260 0.9260 0.9280
11.612000 0.9300 0.9310 0.9330 0.9330 0.9310
11.646030 0.9300 0.9300 0.9300 0.9280 0.9280
11.680000 0.9280 0.9280 0.9260 0.9280 0.9250
11.714030 0.9160 0.9010 0.8890 0.8770 0.8600
11.748000 0.8480 0.8460 0.8460 0.8500 0.8580
11.782030 0.8650 0.8750 0.8890 0.8920 0.8960
11.816000 0.8990 0.9010 0.9030 0.8990 0.8940
11.850030 0.8750 0.8620 0.8580 0.8580 0.8570
11.884000 0.8580 0.8630 0.8770 0.8860 0.8960
11.918030 0.9060 0.9210 0.9260 0.9280 0.9300
11.952000 0.9300 0.9300 0.9280 0.9280 0.9260
11.986030 0.9250 0.9250 0.9250 0.9260 0.9260
12.020000 0.9260 0.9280 0.9280 0.9280 0.9280
12.054030 0.9260 0.9230 0.9210 0.9200 0.9180
12.088000 0.9060 0.8990 0.8960 0.8890 0.8800
12.122030 0.8620 0.8460 0.8380 0.8260 0.8060
12.156000 0.7820 0.7800 0.7820 0.7890 0.7950
12.190030 0.8090 0.8210 0.8330 0.8520 0.8620
12.224000 0.8770 0.8820 0.8860 0.8890 0.8940
12.258030 0.9010 0.9040 0.9080 0.9130 0.9140
12.293000 0.9140 0.9180 0.9200 0.9210 0.9260
12.327030 0.9260 0.9210 0.9060 0.8970 0.8840
12.361000 0.8690 0.8570 0.8500 0.8410 0.8330
12.395030 0.8190 0.8060 0.8020 0.7950 0.7870
12.429000 0.7780 0.7770 0.7780 0.8010 0.8140
12.463030 0.8310 0.8400 0.8400 0.8410 0.8570
12.497000 0.8670 0.8770 0.8770 0.8790 0.8800
12.531030 0.8820 0.8860 0.8870 0.8870 0.8890
12.565000 0.8910 0.8920 0.8920 0.8940 0.8940
12.599030 0.8940 0.8940 0.8920 0.8920 0.8910
12.633000 0.8870 0.8860 0.8840 0.8820 0.8790
12.667030 0.8770 0.8690 0.8620 0.8530 0.8520
12.701000 0.8500 0.8480 0.8380 0.8290 0.8190
12.735030 0.8110 0.8070 0.8020 0.7950 0.7840
12.769000 0.7560 0.7430 0.7290 0.7190 0.6930
12.803030 0.6640 0.6300 0.5850 0.5660 0.5280
12.837000 0.4380 0.3920 0.3450 0.2900 0.2380
12.871030 0.2000 0.1610 0.1440 0.1220 0.0930
12.905000 0.0710 0.0690 0.0710 0.0950 0.1120
12.939030 0.1410 0.1810 0.2310 0.2840 0.3380
12.973000 0.3870 0.4300 0.4620 0.4820 0.5030
13.007030 0.5390 0.5760 0.6020 0.6240 0.6440
13.041000 0.6640 0.6830 0.7000 0.7140 0.7260
13.075030 0.7360 0.7500 0.7560 0.7630 0.7680
13.109000 0.7780 0.7940 0.7950 0.7970 0.7990
13.143030 0.8010 0.8040 0.8090 0.8110 0.8140
13.177000 0.8160 0.8230 0.8240 0.8240 0.8230
13.211030 0.8230 0.8230 0.8240 0.8240 0.8230
13.245000 0.8190 0.8110 0.8110 0.8110 0.8090
13.279030 0.8090 0.8120 0.8120 0.8090 0.8040
13.313000 0.8040 0.8020 0.8010 0.7970 0.7970
13.347030 0.7950 0.7940 0.7920 0.7900 0.7890
13.381000 0.7890 0.7890 0.7900 0.7900 0.7900
13.415030 0.7890 0.7890 0.7890 0.7900 0.7890
13.449000 0.7890 0.7890 0.7890 0.7890 0.7890
13.483030 0.7890 0.7850 0.7820 0.7800 0.7780
13.517000 0.7770 0.7750 0.7750 0.7720 0.7700
13.551030 0.7670 0.7630 0.7610 0.7600 0.7600
13.585000 0.7560 0.7530 0.7440 0.7380 0.7360
13.619030 0.7320 0.7270 0.7220 0.7190 0.7190
13.653000 0.7140 0.7090 0.7070 0.7020 0.6950
13.687030 0.6870 0.6810 0.6780 0.6710 0.6640
13.721000 0.6540 0.6460 0.6410 0.6360 0.6290
13.755030 0.6220 0.6200 0.6130 0.5960 0.5810
13.789000 0.5780 0.5760 0.5690 0.5520 0.5400
13.823030 0.5220 0.5130 0.5080 0.4940 0.4810
13.857000 0.4710 0.4600 0.4480 0.4350 0.4280
13.891030 0.4200 0.4080 0.3940 0.3820 0.3690
13.925000 0.3570 0.3460 0.3350 0.3260 0.3180
13.959030 0.3040 0.2890 0.2820 0.2770 0.2670
13.993000 0.2550 0.2410 0.2270 0.2140 0.2000
14.027030 0.1880 0.1780 0.1700 0.1610 0.1540
14.061000 0.1490 0.1390 0.1320 0.1270 0.1130
14.095030 0.1030 0.1000 0.0880 0.0790 0.0760
14.129000 0.0760 0.0740 0.0730 0.0690 0.0690
14.163030 0.0680 0.0680 0.0660 0.0660 0.0640
14.197000 0.0640 0.0620 0.0620 0.0620 0.0620
14.231030 0.0620 0.0620 0.0620 0.0620 0.0620
14.265000 0.0640 0.0640 0.0660 0.0660 0.0690
14.299030 0.0730 0.0730 0.0780 0.0780 0.0790
14.333000 0.0830 0.0860 0.0880 0.0900 0.0900
14.367030 0.0910 0.0910 0.0930 0.0950 0.0950
14.401000 0.0960 0.0960 0.1000 0.1070 0.1150
14.435030 0.1300 0.1360 0.1410 0.1490 0.1610
14.469000 0.1800 0.1970 0.2190 0.2290 0.2310
14.503030 0.2380 0.2610 0.2840 0.3040 0.3190
14.537000 0.3260 0.3410 0.3500 0.3630 0.3750
14.571030 0.3920 0.4040 0.4060 0.4160 0.4300
14.605000 0.4400 0.4450 0.4480 0.4520 0.4590
14.639030 0.4650 0.4740 0.4790 0.4810 0.4820
14.673000 0.4820 0.4880 0.4910 0.4930 0.4940
14.707030 0.4960 0.4980 0.5000 0.5030 0.5050
14.741000 0.5100 0.5180 0.5180 0.5100 0.5080
14.775030 0.5080 0.5080 0.5080 0.5080 0.5080
14.810000 0.5100 0.5100 0.5080 0.4860 0.4810
14.844030 0.4740 0.4710 0.4690 0.4570 0.4570
14.878000 0.4540 0.4470 0.4450 0.4420 0.4400
14.912030 0.4370 0.4350 0.4350 0.4330 0.4330
14.946000 0.4350 0.4350 0.4380 0.4400 0.4420
14.980030 0.4420 0.4470 0.4500 0.4540 0.4570
15.014000 0.4570 0.4600 0.4620 0.4690 0.4760
15.048030 0.4820 0.4860 0.4910 0.4960 0.5010
15.082000 0.5050 0.5150 0.5220 0.5320 0.5420
15.116030 0.5540 0.5610 0.5760 0.5830 0.5850
15.150000 0.5880 0.5880 0.5880 0.5900 0.6080
15.184030 0.6200 0.6270 0.6320 0.6340 0.6340
15.218000 0.6340 0.6360 0.6390 0.6420 0.6420
15.252030 0.6440 0.6440 0.6470 0.6510 0.6530
15.286000 0.6580 0.6610 0.6640 0.6630 0.6610
15.320030 0.6580 0.6590 0.6590 0.6590 0.6580
15.354000 0.6560 0.6560 0.6590 0.6610 0.6630
15.388030 0.6640 0.6630 0.6590 0.6580 0.6580
15.422000 0.6540 0.6540 0.6530 0.6530 0.6530
15.456030 0.6510 0.6470 0.6460 0.6470 0.6470
15.490000 0.6470 0.6490 0.6490 0.6510 0.6510
15.524030 0.6530 0.6510 0.6470 0.6490 0.6490
15.558000 0.6510 0.6490 0.6460 0.6300 0.6290
15.592030 0.6290 0.6270 0.6270 0.6270 0.6270
15.626000 0.6250 0.6250 0.6240 0.6240 0.6220
15.660030 0.6200 0.6190 0.6170 0.6170 0.6150
15.694000 0.6130 0.6120 0.6080 0.6050 0.6020
15.728030 0.5960 0.5960 0.5950 0.5950 0.5930
15.762000 0.5910 0.5860 0.5860 0.5850 0.5810
15.796030 0.5790 0.5790 0.5780 0.5780 0.5760
15.830000 0.5730 0.5710 0.5680 0.5660 0.5640
15.864030 0.5610 0.5560 0.5510 0.5470 0.5450
15.898000 0.5450 0.5440 0.5440 0.5400 0.5390
15.932030 0.5370 0.5350 0.5350 0.5340 0.5340
15.966000 0.5320 0.5280 0.5230 0.5220
##END=
