##TITLE=1-CHLOROPROPANE
##JCAMP-DX=4.24
##DATA TYPE=INFRARED SPECTRUM
##CLASS=COBLENTZ
##ORIGIN=W.T. BOLLETER
##OWNER=COBLENTZ SOCIETY
Collection (C) 2018 copyright by the U.S. Secretary of Commerce
on behalf of the United States of America. All rights reserved.
##DATE=Not specified, most likely prior to 1970
##CAS REGISTRY NO=540-54-5
##MOLFORM=C3 H7 Cl
##SOURCE REFERENCE=COBLENTZ NO. 4477
##$NIST SOURCE=COBLENTZ
##$NIST IMAGE=cob4477
##SPECTROMETER/DATA SYSTEM=Not specified, most likely a prism, grating, or hybrid spectrometer.
##PATH LENGTH=0.0025 CM
##SAMPLING PROCEDURE=TRANSMISSION
##RESOLUTION=4
##DATA PROCESSING=DIGITIZED BY NIST FROM HARD COPY
##XUNITS=MICROMETERS
##YUNITS=TRANSMITTANCE
##XFACTOR=1.000000
##YFACTOR=1
##DELTAX=000.017525
##FIRSTX=14.578
##LASTX=38.0263
##FIRSTY=0.404
##MAXX=38.0263
##MINX=14.578
##MAXY=0.89
##MINY=0.017
##NPOINTS=1339
##XYDATA=(X++(Y..Y))
14.578000 0.4040 0.4020 0.4000 0.3880 0.3750
14.665689 0.3680 0.3570 0.3470 0.3340 0.3200
14.754000 0.3020 0.2960 0.2800 0.2700 0.2590
14.841689 0.2480 0.2320 0.2200 0.2000 0.1860
14.929000 0.1690 0.1530 0.1480 0.1440 0.1370
15.016689 0.1280 0.1160 0.0980 0.0710 0.0600
15.104000 0.0550 0.0480 0.0460 0.0390 0.0330
15.191689 0.0300 0.0280 0.0250 0.0230 0.0230
15.279000 0.0210 0.0190 0.0190 0.0190 0.0170
15.366689 0.0170 0.0170 0.0170 0.0170 0.0170
15.455000 0.0170 0.0170 0.0170 0.0190 0.0190
15.542689 0.0210 0.0230 0.0250 0.0280 0.0300
15.630000 0.0350 0.0420 0.0480 0.0500 0.0530
15.717689 0.0640 0.0760 0.1000 0.1070 0.1140
15.805000 0.1340 0.1520 0.1710 0.1890 0.2030
15.892689 0.2300 0.2480 0.2800 0.3000 0.3160
15.980000 0.3300 0.3470 0.3630 0.3770 0.3890
16.067689 0.4040 0.4160 0.4270 0.4400 0.4490
16.156000 0.4570 0.4700 0.4750 0.4830 0.4880
16.243689 0.5020 0.5110 0.5160 0.5220 0.5290
16.331000 0.5380 0.5490 0.5520 0.5630 0.5670
16.418689 0.5700 0.5720 0.5770 0.5810 0.5880
16.506000 0.5970 0.6020 0.6060 0.6130 0.6180
16.593689 0.6220 0.6260 0.6270 0.6290 0.6310
16.681000 0.6350 0.6380 0.6400 0.6470 0.6490
16.768689 0.6520 0.6580 0.6610 0.6650 0.6760
16.857000 0.6790 0.6850 0.6970 0.7010 0.7060
16.944689 0.7100 0.7130 0.7200 0.7280 0.7310
17.032000 0.7370 0.7400 0.7440 0.7450 0.7490
17.119689 0.7490 0.7530 0.7540 0.7580 0.7600
17.207000 0.7600 0.7600 0.7620 0.7620 0.7630
17.294689 0.7630 0.7630 0.7630 0.7630 0.7630
17.382000 0.7630 0.7620 0.7600 0.7580 0.7540
17.469689 0.7530 0.7530 0.7510 0.7510 0.7510
17.558000 0.7490 0.7490 0.7490 0.7510 0.7530
17.645689 0.7540 0.7580 0.7600 0.7620 0.7630
17.733000 0.7650 0.7710 0.7740 0.7760 0.7790
17.820689 0.7810 0.7830 0.7870 0.7900 0.7960
17.908000 0.7970 0.7990 0.8010 0.8030 0.8060
17.995689 0.8120 0.8150 0.8170 0.8190 0.8210
18.083000 0.8210 0.8220 0.8240 0.8260 0.8280
18.170689 0.8300 0.8310 0.8330 0.8350 0.8370
18.258000 0.8370 0.8380 0.8380 0.8400 0.8400
18.345689 0.8420 0.8420 0.8420 0.8420 0.8440
18.434000 0.8440 0.8440 0.8460 0.8460 0.8460
18.521689 0.8460 0.8470 0.8470 0.8470 0.8470
18.609000 0.8470 0.8490 0.8490 0.8490 0.8490
18.696689 0.8490 0.8490 0.8490 0.8490 0.8490
18.784000 0.8490 0.8490 0.8490 0.8490 0.8490
18.871689 0.8490 0.8490 0.8490 0.8490 0.8490
18.959000 0.8490 0.8490 0.8490 0.8490 0.8490
19.046689 0.8490 0.8490 0.8490 0.8490 0.8490
19.135000 0.8490 0.8490 0.8490 0.8490 0.8490
19.222689 0.8490 0.8490 0.8470 0.8470 0.8470
19.310000 0.8470 0.8470 0.8470 0.8470 0.8470
19.397689 0.8460 0.8460 0.8460 0.8460 0.8440
19.485000 0.8440 0.8440 0.8440 0.8440 0.8420
19.572689 0.8420 0.8420 0.8420 0.8400 0.8400
19.660000 0.8400 0.8400 0.8400 0.8380 0.8380
19.747689 0.8380 0.8380 0.8370 0.8370 0.8350
19.836000 0.8350 0.8350 0.8350 0.8350 0.8350
19.923689 0.8350 0.8350 0.8350 0.8350 0.8330
20.011000 0.8310 0.8310 0.8310 0.8300 0.8300
20.098689 0.8300 0.8280 0.8260 0.8260 0.8240
20.186000 0.8240 0.8240 0.8220 0.8220 0.8220
20.273689 0.8220 0.8220 0.8210 0.8210 0.8210
20.361000 0.8190 0.8190 0.8190 0.8190 0.8170
20.448689 0.8170 0.8170 0.8150 0.8150 0.8130
20.537000 0.8120 0.8120 0.8120 0.8120 0.8100
20.624689 0.8100 0.8100 0.8080 0.8080 0.8080
20.712000 0.8080 0.8060 0.8050 0.8050 0.8050
20.799689 0.8050 0.8030 0.8030 0.8030 0.8010
20.887000 0.8010 0.8010 0.8010 0.8010 0.8010
20.974689 0.8010 0.8010 0.8010 0.8010 0.8010
21.062000 0.8010 0.8010 0.8010 0.7990 0.7990
21.149689 0.7990 0.7990 0.7990 0.7990 0.7990
21.238000 0.7990 0.7990 0.7990 0.7970 0.7970
21.325689 0.7970 0.7970 0.7970 0.7970 0.7970
21.413000 0.7960 0.7960 0.7960 0.7940 0.7940
21.500689 0.7920 0.7920 0.7900 0.7880 0.7880
21.588000 0.7880 0.7880 0.7870 0.7870 0.7850
21.675689 0.7850 0.7830 0.7830 0.7830 0.7830
21.763000 0.7810 0.7810 0.7790 0.7790 0.7780
21.850689 0.7760 0.7740 0.7740 0.7720 0.7710
21.939000 0.7690 0.7690 0.7690 0.7670 0.7670
22.026689 0.7650 0.7630 0.7630 0.7620 0.7600
22.114000 0.7580 0.7580 0.7580 0.7560 0.7540
22.201689 0.7540 0.7530 0.7530 0.7510 0.7510
22.289000 0.7510 0.7490 0.7490 0.7470 0.7470
22.376689 0.7470 0.7450 0.7440 0.7440 0.7420
22.464000 0.7400 0.7400 0.7380 0.7370 0.7350
22.551689 0.7330 0.7310 0.7290 0.7260 0.7240
22.640000 0.7220 0.7200 0.7130 0.7100 0.7060
22.727689 0.7010 0.6990 0.6900 0.6830 0.6790
22.815000 0.6720 0.6650 0.6610 0.6580 0.6510
22.902689 0.6470 0.6360 0.6290 0.6180 0.6150
22.990000 0.6020 0.5920 0.5840 0.5610 0.5520
23.077689 0.5420 0.5290 0.5200 0.5090 0.5000
23.165000 0.4910 0.4810 0.4630 0.4490 0.4320
23.252689 0.4150 0.4020 0.3860 0.3700 0.3500
23.341000 0.3380 0.3160 0.3000 0.2980 0.2800
23.428689 0.2680 0.2620 0.2540 0.2500 0.2480
23.516000 0.2450 0.2390 0.2370 0.2370 0.2370
23.603689 0.2390 0.2480 0.2680 0.2790 0.2960
23.691000 0.3090 0.3220 0.3340 0.3520 0.3730
23.778689 0.3880 0.4000 0.4160 0.4340 0.4500
23.866000 0.4660 0.4840 0.4990 0.5270 0.5420
23.953689 0.5490 0.5590 0.5700 0.5810 0.5930
24.042000 0.6040 0.6180 0.6290 0.6400 0.6520
24.129689 0.6610 0.6690 0.6740 0.6810 0.6860
24.217000 0.6920 0.6990 0.7010 0.7030 0.7110
24.304689 0.7190 0.7260 0.7330 0.7380 0.7450
24.392000 0.7490 0.7540 0.7580 0.7630 0.7670
24.479689 0.7760 0.7780 0.7790 0.7810 0.7850
24.567000 0.7870 0.7880 0.7900 0.7940 0.7960
24.654689 0.7970 0.8010 0.8030 0.8060 0.8100
24.743000 0.8120 0.8130 0.8150 0.8190 0.8210
24.830689 0.8240 0.8260 0.8280 0.8300 0.8300
24.918000 0.8310 0.8330 0.8350 0.8350 0.8370
25.005689 0.8370 0.8370 0.8370 0.8370 0.8370
25.093000 0.8380 0.8380 0.8380 0.8380 0.8380
25.180689 0.8380 0.8380 0.8380 0.8370 0.8370
25.268000 0.8370 0.8370 0.8350 0.8350 0.8350
25.355689 0.8370 0.8370 0.8370 0.8370 0.8370
25.444000 0.8370 0.8370 0.8370 0.8370 0.8350
25.531689 0.8330 0.8330 0.8330 0.8330 0.8330
25.619000 0.8330 0.8330 0.8330 0.8330 0.8330
25.706689 0.8350 0.8350 0.8350 0.8330 0.8330
25.794000 0.8330 0.8330 0.8350 0.8350 0.8330
25.881689 0.8310 0.8310 0.8310 0.8310 0.8330
25.969000 0.8330 0.8330 0.8330 0.8310 0.8300
26.056689 0.8280 0.8260 0.8260 0.8240 0.8220
26.145000 0.8220 0.8210 0.8190 0.8190 0.8190
26.232689 0.8190 0.8170 0.8150 0.8150 0.8130
26.320000 0.8120 0.8100 0.8100 0.8100 0.8080
26.407689 0.8080 0.8060 0.8050 0.8050 0.8030
26.495000 0.8010 0.7990 0.7960 0.7940 0.7920
26.582689 0.7880 0.7870 0.7830 0.7790 0.7780
26.670000 0.7760 0.7720 0.7690 0.7630 0.7560
26.757689 0.7530 0.7510 0.7490 0.7450 0.7330
26.846000 0.7220 0.7170 0.7100 0.6990 0.6880
26.933689 0.6760 0.6610 0.6560 0.6510 0.6440
27.021000 0.6270 0.6080 0.5970 0.5790 0.5670
27.108689 0.5500 0.5380 0.5220 0.5020 0.5000
27.196000 0.4990 0.4720 0.4590 0.4470 0.4250
27.283689 0.4130 0.4020 0.3980 0.3820 0.3700
27.371000 0.3630 0.3550 0.3480 0.3390 0.3300
27.458689 0.3220 0.3200 0.3160 0.3130 0.3110
27.547000 0.3090 0.3090 0.3110 0.3110 0.3130
27.634689 0.3160 0.3180 0.3220 0.3290 0.3340
27.722000 0.3470 0.3520 0.3640 0.3730 0.3880
27.809689 0.4000 0.4110 0.4180 0.4290 0.4470
27.897000 0.4590 0.4740 0.4810 0.4970 0.5150
27.984689 0.5250 0.5380 0.5520 0.5650 0.5770
28.072000 0.5880 0.6010 0.6080 0.6180 0.6270
28.159689 0.6420 0.6510 0.6600 0.6690 0.6720
28.248000 0.6790 0.6900 0.7010 0.7030 0.7100
28.335689 0.7150 0.7220 0.7310 0.7420 0.7490
28.423000 0.7560 0.7630 0.7650 0.7710 0.7760
28.510689 0.7830 0.7900 0.7970 0.7990 0.8010
28.598000 0.8030 0.8060 0.8060 0.8080 0.8100
28.685689 0.8150 0.8170 0.8190 0.8220 0.8260
28.773000 0.8300 0.8330 0.8370 0.8380 0.8400
28.860689 0.8440 0.8460 0.8460 0.8470 0.8490
28.949000 0.8490 0.8510 0.8510 0.8530 0.8550
29.036689 0.8560 0.8580 0.8600 0.8600 0.8600
29.124000 0.8620 0.8640 0.8650 0.8650 0.8670
29.211689 0.8670 0.8670 0.8690 0.8710 0.8710
29.299000 0.8720 0.8740 0.8760 0.8760 0.8760
29.386689 0.8780 0.8780 0.8800 0.8800 0.8800
29.474000 0.8800 0.8810 0.8810 0.8810 0.8810
29.561689 0.8810 0.8810 0.8830 0.8830 0.8830
29.650000 0.8830 0.8830 0.8830 0.8850 0.8850
29.737689 0.8870 0.8870 0.8890 0.8890 0.8890
29.825000 0.8870 0.8870 0.8890 0.8890 0.8890
29.912689 0.8890 0.8890 0.8890 0.8890 0.8890
30.000000 0.8900 0.8900 0.8900 0.8900 0.8900
30.087689 0.8900 0.8900 0.8900 0.8900 0.8890
30.175000 0.8890 0.8890 0.8890 0.8870 0.8870
30.262689 0.8870 0.8870 0.8890 0.8890 0.8890
30.350000 0.8890 0.8890 0.8890 0.8890 0.8890
30.437689 0.8890 0.8890 0.8870 0.8870 0.8850
30.526000 0.8830 0.8830 0.8830 0.8830 0.8830
30.613689 0.8830 0.8810 0.8810 0.8810 0.8810
30.701000 0.8810 0.8810 0.8810 0.8800 0.8800
30.788689 0.8780 0.8780 0.8780 0.8760 0.8760
30.876000 0.8740 0.8720 0.8710 0.8710 0.8690
30.963689 0.8690 0.8690 0.8670 0.8670 0.8650
31.051000 0.8640 0.8640 0.8640 0.8620 0.8620
31.138689 0.8620 0.8620 0.8620 0.8620 0.8620
31.227000 0.8600 0.8600 0.8600 0.8580 0.8580
31.314689 0.8580 0.8580 0.8580 0.8580 0.8580
31.402000 0.8580 0.8560 0.8560 0.8560 0.8550
31.489689 0.8530 0.8530 0.8510 0.8490 0.8470
31.577000 0.8470 0.8460 0.8440 0.8380 0.8370
31.664689 0.8350 0.8350 0.8330 0.8310 0.8300
31.752000 0.8260 0.8220 0.8210 0.8190 0.8190
31.839689 0.8150 0.8130 0.8120 0.8100 0.8080
31.928000 0.8080 0.8060 0.8050 0.8050 0.8030
32.015689 0.8030 0.8010 0.7990 0.7990 0.7990
32.103000 0.7970 0.7970 0.7960 0.7960 0.7960
32.190689 0.7960 0.7940 0.7940 0.7940 0.7900
32.278000 0.7900 0.7880 0.7880 0.7870 0.7870
32.365689 0.7850 0.7830 0.7830 0.7810 0.7810
32.453000 0.7790 0.7790 0.7760 0.7720 0.7690
32.540689 0.7670 0.7650 0.7620 0.7620 0.7580
32.629000 0.7560 0.7530 0.7510 0.7490 0.7470
32.716689 0.7450 0.7440 0.7420 0.7420 0.7400
32.804000 0.7400 0.7380 0.7380 0.7370 0.7350
32.891689 0.7330 0.7330 0.7310 0.7290 0.7290
32.979000 0.7280 0.7260 0.7220 0.7170 0.7110
33.066689 0.7080 0.7060 0.7030 0.7010 0.6990
33.154000 0.6970 0.6880 0.6830 0.6760 0.6740
33.241689 0.6720 0.6690 0.6600 0.6560 0.6540
33.330000 0.6520 0.6510 0.6490 0.6420 0.6400
33.417689 0.6380 0.6360 0.6350 0.6350 0.6330
33.505000 0.6290 0.6260 0.6180 0.6130 0.6100
33.592689 0.6080 0.6040 0.6010 0.5990 0.5950
33.680000 0.5920 0.5880 0.5830 0.5790 0.5770
33.767689 0.5720 0.5680 0.5610 0.5560 0.5520
33.855000 0.5500 0.5490 0.5470 0.5420 0.5400
33.942689 0.5400 0.5380 0.5360 0.5340 0.5310
34.031000 0.5310 0.5290 0.5270 0.5270 0.5240
34.118689 0.5240 0.5220 0.5220 0.5200 0.5180
34.206000 0.5150 0.5150 0.5130 0.5130 0.5110
34.293689 0.5090 0.5080 0.5080 0.5080 0.5040
34.381000 0.5040 0.5040 0.5020 0.5020 0.5020
34.468689 0.5000 0.5000 0.5000 0.5000 0.4990
34.556000 0.4990 0.4990 0.4970 0.4970 0.4970
34.643689 0.4970 0.4970 0.4950 0.4950 0.4950
34.732000 0.4930 0.4930 0.4930 0.4910 0.4910
34.819689 0.4910 0.4910 0.4910 0.4910 0.4910
34.907000 0.4910 0.4910 0.4910 0.4910 0.4910
34.994689 0.4910 0.4910 0.4910 0.4930 0.4930
35.082000 0.4930 0.4950 0.4950 0.4950 0.4950
35.169689 0.4970 0.4970 0.4970 0.4970 0.4990
35.257000 0.4990 0.4990 0.4990 0.4990 0.4990
35.344689 0.4990 0.5000 0.5000 0.5020 0.5020
35.433000 0.5020 0.5020 0.5040 0.5040 0.5040
35.520689 0.5040 0.5040 0.5040 0.5040 0.5040
35.608000 0.5060 0.5080 0.5080 0.5080 0.5080
35.695689 0.5080 0.5080 0.5090 0.5090 0.5110
35.783000 0.5110 0.5110 0.5110 0.5110 0.5130
35.870689 0.5130 0.5150 0.5150 0.5150 0.5150
35.958000 0.5150 0.5150 0.5150 0.5150 0.5150
36.045689 0.5150 0.5150 0.5150 0.5150 0.5150
36.134000 0.5150 0.5150 0.5150 0.5150 0.5150
36.221689 0.5150 0.5150 0.5150 0.5150 0.5150
36.309000 0.5150 0.5150 0.5150 0.5150 0.5150
36.396689 0.5150 0.5150 0.5150 0.5150 0.5150
36.484000 0.5150 0.5150 0.5150 0.5150 0.5150
36.571689 0.5150 0.5150 0.5150 0.5150 0.5150
36.659000 0.5150 0.5160 0.5160 0.5160 0.5160
36.746689 0.5160 0.5160 0.5160 0.5160 0.5160
36.835000 0.5160 0.5160 0.5150 0.5150 0.5150
36.922689 0.5150 0.5150 0.5150 0.5150 0.5150
37.010000 0.5130 0.5130 0.5130 0.5130 0.5150
37.097689 0.5150 0.5150 0.5150 0.5160 0.5180
37.185000 0.5200 0.5220 0.5220 0.5220 0.5220
37.272689 0.5220 0.5240 0.5240 0.5130 0.5110
37.360000 0.5130 0.5130 0.5160 0.5160 0.5180
37.447689 0.5180 0.5200 0.5200 0.5200 0.5220
37.536000 0.5220 0.5220 0.5240 0.5240 0.5240
37.623689 0.5240 0.5240 0.5240 0.5240 0.5240
37.711000 0.5240 0.5240 0.5240 0.5240 0.5240
37.798689 0.5250 0.5250 0.5250 0.5250 0.5250
37.886000 0.5240 0.5240 0.5240 0.5240 0.5220
37.973689 0.5220 0.5200 0.5220 0.5220
##END=
