##TITLE=ISOOCTANE
##JCAMP-DX=4.24
##DATA TYPE=INFRARED SPECTRUM
##CLASS=COBLENTZ
##ORIGIN=DOW CHEMICAL COMPANY
##OWNER=COBLENTZ SOCIETY
Collection (C) 2018 copyright by the U.S. Secretary of Commerce
on behalf of the United States of America. All rights reserved.
##DATE=1975/05/27
##NAMES=2,2,4-trimethylpentane
PENTANE, 2,2,4-TRIMETHYL
##CAS REGISTRY NO=540-84-1
##MOLFORM=C8 H18
##SOURCE REFERENCE=COBLENTZ NO. 10494
##$NIST SOURCE=COBLENTZ
##$NIST IMAGE=cob-r10494
##SPECTROMETER/DATA SYSTEM=DIGILAB FTS-14 (2 CM^-^1 RESOLUTION)
##INSTRUMENT PARAMETERS=
$$ SPECTRAL CONTAMINATION DUE TO H2O IN THE 1600 CM^-^1 REGION.
##STATE=GAS (16 mmHg, N2 ADD, TOTAL PRESSURE 600 mmHg)
##PATH LENGTH=10 CM
##SAMPLING PROCEDURE=TRANSMISSION
##RESOLUTION=2
##DATA PROCESSING=DIGITIZED BY NIST FROM HARD COPY (FROM TWO SEGMENTS)
##XUNITS=1/CM
##YUNITS=TRANSMITTANCE
##XFACTOR=1.000000
##YFACTOR=1
##DELTAX=1.281029
##FIRSTX=470.456
##LASTX=3196.49
##FIRSTY=0.004
##MAXX=3196.49
##MINX=470.456
##MAXY=1.002
##MINY=0
##NPOINTS=2129
##XYDATA=(X++(Y..Y))
470.456000 0.0040 0.0040 0.0040 0.0040 0.0040
476.861144 0.0040 0.0040 0.0040 0.0040 0.0040
483.266288 0.0040 0.0040 0.0040 0.0040 0.0040
489.671432 0.0040 0.0040 0.0040 0.0040 0.0040
496.076576 0.0040 0.0040 0.0040 0.0040 0.0040
502.481720 0.0040 0.0040 0.0040 0.0040 0.0040
508.886864 0.0040 0.0040 0.0040 0.0040 0.0040
515.292008 0.0040 0.0040 0.0040 0.0040 0.0060
521.697152 0.0060 0.0060 0.0060 0.0080 0.0100
528.102296 0.0120 0.0140 0.0160 0.0180 0.0200
534.507440 0.0260 0.0160 0.0120 0.0140 0.0220
540.912584 0.0300 0.0360 0.0360 0.0320 0.0280
547.317728 0.0280 0.0320 0.0400 0.0420 0.0480
553.722872 0.0500 0.0520 0.0580 0.0620 0.0680
560.128016 0.0760 0.0780 0.0800 0.0800 0.0800
566.533160 0.0820 0.0860 0.0900 0.0979 0.1059
572.938304 0.1140 0.1180 0.1330 0.1370 0.1410
579.343449 0.1410 0.1430 0.1490 0.1609 0.1729
585.748593 0.1730 0.1810 0.1950 0.2010 0.2050
592.153737 0.2090 0.2170 0.2210 0.2250 0.2290
598.558881 0.2450 0.2560 0.2660 0.2760 0.2840
604.964025 0.2920 0.2960 0.3040 0.3060 0.3100
611.369169 0.3180 0.3300 0.3420 0.3520 0.3560
617.774313 0.3660 0.3720 0.3809 0.3870 0.4029
624.179457 0.4230 0.4250 0.4270 0.4370 0.4430
630.584601 0.4490 0.4550 0.4689 0.4750 0.4889
636.989745 0.4950 0.5060 0.5140 0.5200 0.5260
643.394889 0.5360 0.5440 0.5500 0.5560 0.5620
649.800033 0.5720 0.5820 0.5940 0.6060 0.6100
656.205177 0.6140 0.6220 0.6309 0.6350 0.6370
662.610321 0.6410 0.6530 0.6630 0.6670 0.6710
669.015465 0.6790 0.6909 0.6950 0.7010 0.7129
675.420609 0.7150 0.7170 0.7270 0.7330 0.7410
681.825753 0.7450 0.7520 0.7619 0.7660 0.7700
688.230897 0.7740 0.7780 0.7840 0.7880 0.7960
694.636041 0.8000 0.8020 0.8020 0.8060 0.8120
701.041185 0.8160 0.8220 0.8260 0.8300 0.8300
707.446329 0.8360 0.8420 0.8480 0.8480 0.8540
713.851473 0.8580 0.8600 0.8620 0.8640 0.8660
720.256617 0.8700 0.8720 0.8770 0.8790 0.8810
726.661761 0.8850 0.8870 0.8950 0.8950 0.8990
733.066905 0.9010 0.9010 0.9050 0.9050 0.9050
739.472049 0.9070 0.9090 0.9110 0.9130 0.9130
745.877193 0.9130 0.9150 0.9150 0.9170 0.9190
752.282337 0.9210 0.9250 0.9350 0.9350 0.9370
758.687481 0.9370 0.9410 0.9470 0.9510 0.9510
765.092625 0.9510 0.9510 0.9530 0.9550 0.9570
771.497769 0.9590 0.9590 0.9610 0.9610 0.9610
777.902913 0.9610 0.9610 0.9650 0.9670 0.9670
784.308057 0.9690 0.9690 0.9690 0.9690 0.9730
790.713202 0.9750 0.9790 0.9790 0.9810 0.9810
797.118346 0.9810 0.9830 0.9830 0.9830 0.9830
803.523490 0.9830 0.9830 0.9830 0.9830 0.9830
809.928634 0.9810 0.9810 0.9810 0.9810 0.9810
816.333778 0.9790 0.9790 0.9770 0.9770 0.9750
822.738922 0.9750 0.9750 0.9750 0.9750 0.9750
829.144066 0.9750 0.9730 0.9730 0.9730 0.9730
835.549210 0.9750 0.9750 0.9750 0.9750 0.9790
841.954354 0.9810 0.9830 0.9830 0.9830 0.9830
848.359498 0.9830 0.9830 0.9850 0.9870 0.9870
854.764642 0.9870 0.9870 0.9870 0.9870 0.9870
861.169786 0.9870 0.9870 0.9850 0.9850 0.9850
867.574930 0.9830 0.9830 0.9830 0.9810 0.9810
873.980074 0.9830 0.9830 0.9830 0.9830 0.9850
880.385218 0.9850 0.9850 0.9870 0.9870 0.9870
886.790362 0.9890 0.9910 0.9970 0.9970 1.0000
893.195506 1.0000 1.0020 1.0020 1.0000 1.0000
899.600650 1.0000 0.9970 0.9950 0.9910 0.9870
906.005794 0.9870 0.9850 0.9850 0.9830 0.9810
912.410938 0.9790 0.9790 0.9770 0.9750 0.9730
918.816082 0.9710 0.9690 0.9630 0.9610 0.9590
925.221226 0.9570 0.9550 0.9530 0.9470 0.9430
931.626370 0.9430 0.9430 0.9450 0.9490 0.9530
938.031514 0.9570 0.9610 0.9690 0.9710 0.9750
944.436658 0.9830 0.9850 0.9870 0.9890 0.9890
950.841802 0.9930 0.9950 0.9950 0.9950 0.9950
957.246946 0.9930 0.9930 0.9910 0.9870 0.9870
963.652090 0.9850 0.9830 0.9810 0.9790 0.9691
970.057234 0.9610 0.9490 0.9430 0.9350 0.9170
976.462378 0.8991 0.8870 0.8751 0.8621 0.8560
982.867522 0.8540 0.8540 0.8540 0.8580 0.8640
989.272666 0.8750 0.8830 0.8969 0.9149 0.9349
995.677810 0.9510 0.9610 0.9750 0.9830 0.9890
1002.082955 0.9950 0.9950 0.9950 0.9950 0.9970
1008.488099 0.9970 0.9970 0.9970 0.9950 0.9950
1014.893243 0.9950 0.9930 0.9930 0.9910 0.9910
1021.298387 0.9930 0.9970 0.9970 0.9970 0.9970
1027.703531 0.9970 0.9970 0.9970 1.0000 1.0000
1034.108675 1.0000 0.9970 0.9970 0.9970 0.9970
1040.513819 0.9970 0.9970 0.9950 0.9950 0.9930
1046.918963 0.9930 0.9930 0.9910 0.9910 0.9910
1053.324107 0.9910 0.9910 0.9910 0.9910 0.9930
1059.729251 0.9930 0.9950 0.9950 0.9970 0.9970
1066.134395 0.9970 0.9970 0.9970 0.9970 0.9970
1072.539539 0.9970 0.9970 0.9970 0.9950 0.9950
1078.944683 0.9950 0.9950 0.9930 0.9930 0.9910
1085.349827 0.9890 0.9890 0.9870 0.9870 0.9850
1091.754971 0.9830 0.9810 0.9790 0.9770 0.9750
1098.160115 0.9750 0.9730 0.9710 0.9670 0.9670
1104.565259 0.9650 0.9650 0.9650 0.9650 0.9630
1110.970403 0.9630 0.9650 0.9650 0.9670 0.9670
1117.375547 0.9690 0.9690 0.9690 0.9710 0.9710
1123.780691 0.9710 0.9710 0.9710 0.9730 0.9750
1130.185835 0.9750 0.9750 0.9770 0.9770 0.9770
1136.590979 0.9790 0.9830 0.9850 0.9850 0.9850
1142.996123 0.9850 0.9850 0.9850 0.9850 0.9850
1149.401267 0.9850 0.9850 0.9830 0.9830 0.9810
1155.806411 0.9810 0.9790 0.9730 0.9710 0.9611
1162.211555 0.9570 0.9490 0.9410 0.9250 0.9090
1168.616699 0.8970 0.8791 0.8501 0.8202 0.8140
1175.021843 0.8000 0.7960 0.7880 0.7820 0.7820
1181.426987 0.7880 0.7920 0.8000 0.8159 0.8339
1187.832131 0.8520 0.8750 0.9050 0.9170 0.9230
1194.237275 0.9230 0.9170 0.9150 0.9110 0.9011
1200.642419 0.8870 0.8720 0.8560 0.8440 0.8220
1207.047563 0.8041 0.7940 0.7781 0.7502 0.7311
1213.452708 0.7230 0.7190 0.7210 0.7250 0.7310
1219.857852 0.7390 0.7619 0.7859 0.7999 0.8199
1226.262996 0.8480 0.8680 0.8810 0.8950 0.9150
1232.668140 0.9290 0.9350 0.9350 0.9390 0.9390
1239.073284 0.9370 0.9310 0.9210 0.9110 0.8950
1245.478428 0.8770 0.8561 0.8321 0.8021 0.7801
1251.883572 0.7540 0.7410 0.7290 0.7210 0.7170
1258.288716 0.7130 0.7190 0.7429 0.7579 0.7719
1264.693860 0.7820 0.8020 0.8460 0.8620 0.8830
1271.099004 0.9069 0.9210 0.9270 0.9290 0.9330
1277.504148 0.9330 0.9290 0.9250 0.9170 0.9110
1283.909292 0.9090 0.9050 0.8990 0.8950 0.8950
1290.314436 0.8890 0.8850 0.8830 0.8790 0.8790
1296.719580 0.8790 0.8810 0.8810 0.8850 0.8890
1303.124724 0.8910 0.8990 0.8990 0.9030 0.9050
1309.529868 0.9090 0.9150 0.9190 0.9230 0.9230
1315.935012 0.9250 0.9290 0.9310 0.9350 0.9370
1322.340156 0.9390 0.9410 0.9410 0.9430 0.9450
1328.745300 0.9450 0.9450 0.9450 0.9470 0.9470
1335.150444 0.9490 0.9490 0.9470 0.9450 0.9430
1341.555588 0.9390 0.9370 0.9350 0.9310 0.9250
1347.960732 0.9210 0.9190 0.8991 0.8811 0.8442
1354.365876 0.8260 0.7940 0.7640 0.7310 0.6951
1360.771020 0.6451 0.5663 0.5063 0.4791 0.4373
1367.176164 0.3909 0.3280 0.3100 0.2720 0.2251
1373.581308 0.1931 0.1890 0.1910 0.1970 0.2209
1379.986452 0.2370 0.2540 0.2920 0.3200 0.3559
1386.391596 0.3829 0.4169 0.4529 0.5057 0.5537
1392.796740 0.5540 0.5500 0.5380 0.5320 0.5280
1399.201884 0.5160 0.5160 0.4871 0.4870 0.5218
1405.607028 0.5780 0.5900 0.5940 0.6080 0.6470
1412.012172 0.7368 0.7779 0.8199 0.8479 0.8679
1418.417316 0.8870 0.8970 0.9010 0.9010 0.9010
1424.822461 0.9030 0.9050 0.9050 0.9050 0.9030
1431.227605 0.9010 0.8970 0.8950 0.8850 0.8810
1437.632749 0.8790 0.8640 0.8520 0.8381 0.8340
1444.037893 0.8220 0.8100 0.8000 0.7880 0.7620
1450.443037 0.7410 0.7151 0.6971 0.6811 0.6611
1456.848181 0.6309 0.6079 0.5660 0.5220 0.4970
1463.253325 0.4690 0.4331 0.3991 0.3641 0.3361
1469.658469 0.3080 0.2820 0.2600 0.2390 0.2190
1476.063613 0.2090 0.2050 0.2070 0.2130 0.2229
1482.468757 0.2330 0.2470 0.2580 0.2760 0.3060
1488.873901 0.3479 0.3869 0.4109 0.4448 0.4947
1495.279045 0.5501 0.5721 0.6410 0.6970 0.7519
1501.684189 0.8059 0.8259 0.8479 0.8659 0.8809
1508.089333 0.8870 0.8930 0.9050 0.9170 0.9250
1514.494477 0.9290 0.9350 0.9350 0.9370 0.9390
1520.899621 0.9370 0.9330 0.9290 0.9310 0.9370
1527.304765 0.9430 0.9450 0.9470 0.9490 0.9490
1533.709909 0.9510 0.9510 0.9490 0.9470 0.9430
1540.115053 0.9390 0.9310 0.9270 0.9310 0.9370
1546.520197 0.9410 0.9450 0.9490 0.9510 0.9550
1552.925341 0.9570 0.9550 0.9550 0.9510 0.9450
1559.330485 0.9370 0.9270 0.9250 0.9270 0.9370
1565.735629 0.9490 0.9490 0.9490 0.9470 0.9450
1572.140773 0.9450 0.9430 0.9430 0.9410 0.9410
1578.545917 0.9250 0.9210 0.9250 0.9409 0.9390
1584.951061 0.9370 0.9370 0.9350 0.9350 0.9330
1591.356205 0.9330 0.9310 0.9310 0.9310 0.9290
1597.761349 0.9290 0.9290 0.9290 0.9290 0.9310
1604.166493 0.9290 0.9290 0.9290 0.9290 0.9290
1610.571637 0.9310 0.9310 0.9310 0.9330 0.9330
1616.976781 0.9330 0.9170 0.9150 0.9230 0.9330
1623.381925 0.9330 0.9310 0.9310 0.9290 0.9310
1629.787069 0.9310 0.9350 0.9370 0.9370 0.9330
1636.192214 0.9310 0.9170 0.9130 0.9170 0.9230
1642.597358 0.9330 0.9330 0.9330 0.9330 0.9330
1649.002502 0.9350 0.9350 0.9350 0.9350 0.9350
1655.407646 0.8971 0.8950 0.8970 0.9428 0.9430
1661.812790 0.9410 0.9410 0.9410 0.9390 0.9410
1668.217934 0.9410 0.9410 0.9390 0.9350 0.9350
1674.623078 0.9410 0.9410 0.9350 0.9310 0.9310
1681.028222 0.9350 0.9430 0.9430 0.9410 0.9410
1687.433366 0.9190 0.9170 0.9190 0.9470 0.9470
1693.838510 0.9470 0.9450 0.9450 0.9450 0.9291
1700.243654 0.9230 0.9210 0.9210 0.9230 0.9330
1706.648798 0.9390 0.9470 0.9470 0.9470 0.9470
1713.053942 0.9470 0.9470 0.9470 0.9450 0.9430
1719.459086 0.9330 0.9290 0.9290 0.9330 0.9370
1725.864230 0.9470 0.9470 0.9470 0.9470 0.9470
1732.269374 0.9450 0.9430 0.9430 0.9350 0.9270
1738.674518 0.9230 0.9250 0.9370 0.9450 0.9470
1745.079662 0.9470 0.9470 0.9490 0.9490 0.9490
1751.484806 0.9470 0.9470 0.9450 0.9430 0.9430
1757.889950 0.9470 0.9490 0.9530 0.9510 0.9510
1764.295094 0.9510 0.9510 0.9490 0.9490 0.9530
1770.700238 0.9550 0.9510 0.9490 0.9490 0.9490
1777.105382 0.9430 0.9430 0.9490 0.9530 0.9550
1783.510526 0.9550 0.9550 0.9550 0.9530 0.9530
1789.915670 0.9550 0.9550 0.9570 0.9570 0.9530
1796.320814 0.9530 0.9510 0.9490 0.9510 0.9510
1802.725958 0.9530 0.9530 0.9530 0.9530 0.9530
1809.131102 0.9530 0.9550 0.9550 0.9550 0.9550
1815.536246 0.9550 0.9550 0.9550 0.9550 0.9550
1821.941390 0.9570 0.9570 0.9570 0.9570 0.9550
1828.346534 0.9550 0.9550 0.9530 0.9530 0.9530
1834.751678 0.9530 0.9530 0.9550 0.9550 0.9550
1841.156822 0.9570 0.9570 0.9570 0.9570 0.9570
1847.561967 0.9570 0.9570 0.9570 0.9570 0.9570
1853.967111 0.9550 0.9550 0.9550 0.9550 0.9550
1860.372255 0.9550 0.9550 0.9550 0.9550 0.9550
1866.777399 0.9550 0.9550 0.9570 0.9570 0.9570
1873.182543 0.9570 0.9570 0.9550 0.9550 0.9550
1879.587687 0.9550 0.9550 0.9570 0.9550 0.9550
1885.992831 0.9550 0.9550 0.9550 0.9550 0.9550
1892.397975 0.9530 0.9530 0.9550 0.9550 0.9550
1898.803119 0.9550 0.9550 0.9590 0.9590 0.9570
1905.208263 0.9570 0.9570 0.9570 0.9570 0.9570
1911.613407 0.9570 0.9570 0.9570 0.9570 0.9570
1918.018551 0.9570 0.9570 0.9570 0.9550 0.9550
1924.423695 0.9570 0.9570 0.9570 0.9570 0.9570
1930.828839 0.9570 0.9570 0.9570 0.9570 0.9570
1937.233983 0.9570 0.9570 0.9570 0.9570 0.9550
1943.639127 0.9570 0.9570 0.9570 0.9570 0.9550
1950.044271 0.9550 0.9550 0.9550 0.9570 0.9570
1956.449415 0.9570 0.9570 0.9550 0.9550 0.9570
1962.854559 0.9570 0.9570 0.9570 0.9590 0.9590
1969.259703 0.9590 0.9590 0.9610 0.9610 0.9610
1975.664847 0.9610 0.9610 0.9610 0.9610 0.9590
1982.069991 0.9590 0.9590 0.9590 0.9570 0.9570
1988.475135 0.9570 0.9570 0.9530 0.9530 0.9530
1994.880279 0.9510 0.9490 0.9290 0.9250 0.9290
2001.285423 0.9350 0.9410 0.9490 0.9569 0.9580
2007.690567 0.9590 0.9590 0.9590 0.9600 0.9610
2014.095711 0.9610 0.9610 0.9610 0.9610 0.9610
2020.500855 0.9610 0.9610 0.9610 0.9610 0.9610
2026.905999 0.9610 0.9610 0.9610 0.9610 0.9610
2033.311143 0.9610 0.9610 0.9610 0.9610 0.9610
2039.716287 0.9620 0.9630 0.9630 0.9630 0.9639
2046.121431 0.9649 0.9650 0.9650 0.9660 0.9670
2052.526575 0.9670 0.9670 0.9670 0.9670 0.9670
2058.931720 0.9670 0.9670 0.9670 0.9670 0.9670
2065.336864 0.9670 0.9670 0.9670 0.9670 0.9596
2071.742008 0.9516 0.9510 0.9510 0.9594 0.9686
2078.147152 0.9700 0.9710 0.9710 0.9710 0.9701
2084.552296 0.9691 0.9690 0.9690 0.9690 0.9690
2090.957440 0.9690 0.9690 0.9699 0.9709 0.9710
2097.362584 0.9710 0.9701 0.9691 0.9690 0.9690
2103.767728 0.9681 0.9671 0.9670 0.9670 0.9670
2110.172872 0.9670 0.9661 0.9651 0.9650 0.9650
2116.578016 0.9659 0.9669 0.9670 0.9670 0.9670
2122.983160 0.9670 0.9679 0.9689 0.9690 0.9690
2129.388304 0.9690 0.9690 0.9690 0.9690 0.9699
2135.793448 0.9709 0.9710 0.9710 0.9710 0.9710
2142.198592 0.9710 0.9710 0.9719 0.9729 0.9730
2148.603736 0.9730 0.9730 0.9730 0.9739 0.9749
2155.008880 0.9750 0.9750 0.9750 0.9750 0.9750
2161.414024 0.9750 0.9750 0.9750 0.9750 0.9750
2167.819168 0.9750 0.9750 0.9750 0.9750 0.9750
2174.224312 0.9750 0.9750 0.9750 0.9750 0.9750
2180.629456 0.9741 0.9731 0.9730 0.9730 0.9730
2187.034600 0.9730 0.9730 0.9730 0.9721 0.9711
2193.439744 0.9710 0.9710 0.9710 0.9710 0.9710
2199.844888 0.9710 0.9710 0.9710 0.9710 0.9710
2206.250032 0.9710 0.9710 0.9710 0.9710 0.9710
2212.655176 0.9710 0.9719 0.9729 0.9730 0.9730
2219.060320 0.9747 0.9767 0.9770 0.9770 0.9770
2225.465464 0.9770 0.9778 0.9788 0.9790 0.9790
2231.870608 0.9799 0.9809 0.9810 0.9810 0.9810
2238.275752 0.9810 0.9810 0.9810 0.9810 0.9810
2244.680896 0.9810 0.9810 0.9810 0.9810 0.9810
2251.086040 0.9810 0.9810 0.9810 0.9810 0.9810
2257.491184 0.9810 0.9810 0.9810 0.9810 0.9802
2263.896328 0.9792 0.9790 0.9790 0.9790 0.9790
2270.301473 0.9782 0.9772 0.9770 0.9770 0.9770
2276.706617 0.9770 0.9770 0.9770 0.9762 0.9752
2283.111761 0.9750 0.9750 0.9750 0.9750 0.9750
2289.516905 0.9750 0.9750 0.9750 0.9758 0.9768
2295.922049 0.9770 0.9770 0.9770 0.9770 0.9770
2302.327193 0.9770 0.9778 0.9788 0.9790 0.9790
2308.732337 0.9798 0.9808 0.9810 0.9810 0.9818
2315.137481 0.9828 0.9830 0.9830 0.9830 0.9830
2321.542625 0.9830 0.9830 0.9830 0.9830 0.9822
2327.947769 0.9812 0.9810 0.9810 0.9810 0.9810
2334.352913 0.9810 0.9810 0.9818 0.9828 0.9830
2340.758057 0.9830 0.9838 0.9848 0.9850 0.9850
2347.163201 0.9842 0.9832 0.9822 0.9812 0.9810
2353.568345 0.9810 0.9803 0.9793 0.9782 0.9772
2359.973489 0.9770 0.9770 0.9762 0.9752 0.9750
2366.378633 0.9750 0.9742 0.9732 0.9730 0.9730
2372.783777 0.9730 0.9730 0.9730 0.9730 0.9730
2379.188921 0.9730 0.9730 0.9730 0.9730 0.9730
2385.594065 0.9722 0.9712 0.9710 0.9710 0.9710
2391.999209 0.9710 0.9710 0.9710 0.9710 0.9710
2398.404353 0.9710 0.9710 0.9710 0.9710 0.9717
2404.809497 0.9727 0.9730 0.9730 0.9730 0.9730
2411.214641 0.9730 0.9730 0.9730 0.9730 0.9745
2417.619785 0.9765 0.9770 0.9770 0.9770 0.9770
2424.024929 0.9770 0.9770 0.9777 0.9787 0.9790
2430.430073 0.9790 0.9790 0.9790 0.9790 0.9790
2436.835217 0.9790 0.9790 0.9790 0.9790 0.9790
2443.240361 0.9790 0.9790 0.9790 0.9783 0.9773
2449.645505 0.9770 0.9770 0.9770 0.9770 0.9770
2456.050649 0.9770 0.9770 0.9770 0.9763 0.9753
2462.455793 0.9750 0.9750 0.9750 0.9750 0.9743
2468.860937 0.9733 0.9730 0.9730 0.9723 0.9713
2475.266081 0.9710 0.9710 0.9710 0.9710 0.9710
2481.671226 0.9710 0.9710 0.9710 0.9710 0.9710
2488.076370 0.9710 0.9710 0.9717 0.9727 0.9730
2494.481514 0.9730 0.9730 0.9730 0.9730 0.9730
2500.886658 0.9730 0.9730 0.9730 0.9730 0.9730
2507.291802 0.9730 0.9730 0.9730 0.9737 0.9747
2513.696946 0.9750 0.9750 0.9757 0.9767 0.9770
2520.102090 0.9770 0.9770 0.9770 0.9770 0.9770
2526.507234 0.9770 0.9770 0.9770 0.9770 0.9770
2532.912378 0.9770 0.9764 0.9754 0.9744 0.9733
2539.317522 0.9730 0.9730 0.9723 0.9713 0.9710
2545.722666 0.9710 0.9710 0.9710 0.9704 0.9694
2552.127810 0.9684 0.9674 0.9670 0.9670 0.9664
2558.532954 0.9654 0.9644 0.9634 0.9630 0.9630
2564.938098 0.9624 0.9614 0.9604 0.9594 0.9584
2571.343242 0.9574 0.9570 0.9570 0.9564 0.9554
2577.748386 0.9538 0.9518 0.9504 0.9494 0.9490
2584.153530 0.9490 0.9484 0.9474 0.9470 0.9470
2590.558674 0.9464 0.9454 0.9450 0.9450 0.9444
2596.963818 0.9434 0.9424 0.9414 0.9404 0.9394
2603.368962 0.9390 0.9390 0.9378 0.9358 0.9344
2609.774106 0.9334 0.9330 0.9330 0.9330 0.9330
2616.179250 0.9324 0.9314 0.9310 0.9310 0.9310
2622.584394 0.9310 0.9310 0.9310 0.9310 0.9310
2628.989538 0.9304 0.9294 0.9284 0.9274 0.9270
2635.394682 0.9270 0.9264 0.9254 0.9244 0.9234
2641.799826 0.9212 0.9182 0.9164 0.9154 0.9150
2648.204970 0.9150 0.9156 0.9166 0.9170 0.9170
2654.610114 0.9176 0.9186 0.9190 0.9190 0.9196
2661.015258 0.9206 0.9210 0.9210 0.9216 0.9226
2667.420402 0.9230 0.9230 0.9218 0.9198 0.9190
2673.825546 0.9190 0.9184 0.9174 0.9159 0.9139
2680.230690 0.9124 0.9114 0.9099 0.9079 0.9065
2686.635834 0.9055 0.9028 0.8989 0.8970 0.8970
2693.040979 0.8964 0.8954 0.8944 0.8934 0.8924
2699.446123 0.8914 0.8899 0.8879 0.8865 0.8855
2705.851267 0.8845 0.8835 0.8825 0.8815 0.8810
2712.256411 0.8810 0.8805 0.8795 0.8779 0.8759
2718.661555 0.8714 0.8649 0.8598 0.8558 0.8524
2725.066699 0.8494 0.8453 0.8403 0.8359 0.8319
2731.471843 0.8295 0.8285 0.8285 0.8295 0.8315
2737.876987 0.8345 0.8375 0.8405 0.8451 0.8512
2744.282131 0.8551 0.8571 0.8591 0.8611 0.8625
2750.687275 0.8635 0.8640 0.8640 0.8640 0.8640
2757.092419 0.8635 0.8625 0.8620 0.8620 0.8615
2763.497563 0.8605 0.8600 0.8600 0.8605 0.8615
2769.902707 0.8625 0.8635 0.8645 0.8655 0.8665
2776.307851 0.8675 0.8685 0.8695 0.8700 0.8700
2782.712995 0.8700 0.8700 0.8700 0.8700 0.8700
2789.118139 0.8700 0.8690 0.8671 0.8641 0.8600
2795.523283 0.8575 0.8565 0.8550 0.8530 0.8495
2801.928427 0.8445 0.8400 0.8361 0.8316 0.8266
2808.333571 0.8235 0.8225 0.8182 0.8103 0.8027
2814.738715 0.7958 0.7906 0.7876 0.7823 0.7741
2821.143859 0.7656 0.7566 0.7474 0.7379 0.7292
2827.549003 0.7212 0.7161 0.7141 0.7079 0.6969
2833.954147 0.6868 0.6779 0.6680 0.6570 0.6470
2840.359291 0.6380 0.6226 0.5991 0.5793 0.5640
2846.764435 0.5474 0.5295 0.5094 0.4870 0.4667
2853.169579 0.4487 0.4312 0.4143 0.4000 0.3891
2859.574723 0.3774 0.3650 0.3527 0.3408 0.3262
2865.979867 0.3082 0.2858 0.2574 0.2371 0.2279
2872.385011 0.2042 0.1633 0.1204 0.0750 0.0469
2878.790155 0.0399 0.0338 0.0288 0.0247 0.0217
2885.195299 0.0196 0.0186 0.0180 0.0180 0.0197
2891.600443 0.0237 0.0276 0.0316 0.0340 0.0340
2898.005587 0.0331 0.0311 0.0287 0.0257 0.0227
2904.410732 0.0197 0.0167 0.0137 0.0112 0.0092
2910.815876 0.0072 0.0052 0.0036 0.0026 0.0024
2917.221020 0.0034 0.0044 0.0054 0.0068 0.0088
2923.626164 0.0130 0.0200 0.0253 0.0283 0.0333
2930.031308 0.0413 0.0472 0.0502 0.0520 0.0520
2936.436452 0.0508 0.0478 0.0444 0.0404 0.0349
2942.841596 0.0269 0.0193 0.0124 0.0072 0.0052
2949.246740 0.0040 0.0040 0.0032 0.0012 0.0000
2955.651884 0.0000 0.0000 0.0000 0.0000 0.0000
2962.057028 0.0000 0.0000 0.0000 0.0000 0.0000
2968.462172 0.0000 0.0000 0.0000 0.0000 0.0000
2974.867316 0.0000 0.0000 0.0000 0.0000 0.0004
2981.272460 0.0014 0.0043 0.0103 0.0267 0.0606
2987.677604 0.0882 0.1052 0.1223 0.1398 0.1584
2994.082748 0.1794 0.2047 0.2381 0.2705 0.3011
3000.487892 0.3312 0.3606 0.3895 0.4174 0.4442
3006.893036 0.4691 0.4939 0.5183 0.5418 0.5638
3013.298180 0.5847 0.6036 0.6224 0.6408 0.6581
3019.703324 0.6730 0.6877 0.7016 0.7147 0.7259
3026.108468 0.7368 0.7473 0.7565 0.7635 0.7705
3032.513612 0.7774 0.7837 0.7887 0.7930 0.7960
3038.918756 0.7987 0.8007 0.8030 0.8060 0.8083
3045.323900 0.8093 0.8100 0.8100 0.8103 0.8113
3051.729044 0.8123 0.8133 0.8147 0.8167 0.8183
3058.134188 0.8193 0.8200 0.8200 0.8200 0.8200
3064.539332 0.8197 0.8187 0.8180 0.8180 0.8180
3070.944476 0.8180 0.8180 0.8180 0.8183 0.8193
3077.349620 0.8200 0.8200 0.8203 0.8213 0.8220
3083.754764 0.8220 0.8223 0.8233 0.8243 0.8253
3090.159908 0.8260 0.8260 0.8257 0.8247 0.8240
3096.565052 0.8240 0.8240 0.8240 0.8240 0.8240
3102.970196 0.8240 0.8240 0.8240 0.8240 0.8237
3109.375340 0.8227 0.8220 0.8220 0.8217 0.8207
3115.780485 0.8200 0.8200 0.8200 0.8200 0.8197
3122.185629 0.8187 0.8177 0.8167 0.8155 0.8134
3128.590773 0.8120 0.8120 0.8117 0.8107 0.8097
3134.995917 0.8087 0.8077 0.8067 0.8057 0.8047
3141.401061 0.8040 0.8040 0.8037 0.8027 0.8012
3147.806205 0.7982 0.7957 0.7948 0.7937 0.7927
3154.211349 0.7920 0.7920 0.7917 0.7907 0.7897
3160.616493 0.7887 0.7877 0.7867 0.7857 0.7847
3167.021637 0.7840 0.7840 0.7833 0.7803 0.7778
3173.426781 0.7768 0.7760 0.7760 0.7755 0.7735
3179.831925 0.7720 0.7720 0.7717 0.7707 0.7697
3186.237069 0.7687 0.7677 0.7668 0.7658 0.7648
3192.642213 0.7640 0.7640 0.7640 0.7640
##END=
