##TITLE=1-CHLORO PROPANE
$$ E.K. (W.L.) NO. 701
##JCAMP-DX=4.24
##DATA TYPE=INFRARED SPECTRUM
##CLASS=COBLENTZ
##ORIGIN=WYANDOTTE CHEMICALS CORP., WYANDOTTE, MICHIGAN, USA
##OWNER=COBLENTZ SOCIETY
Collection (C) 2018 copyright by the U.S. Secretary of Commerce
on behalf of the United States of America. All rights reserved.
##DATE=Not specified, most likely prior to 1970
##NAMES=1-chloropropane
##CAS REGISTRY NO=540-54-5
##MOLFORM=C3 H7 Cl
##MP=45-47 C
##SOURCE REFERENCE=COBLENTZ NO. 169
##$NIST SOURCE=COBLENTZ
##$NIST IMAGE=cob169
##SPECTROMETER/DATA SYSTEM=Not specified, most likely a prism, grating, or hybrid spectrometer.
##STATE=LIQUID
##PATH LENGTH=0.005 CM
##SAMPLING PROCEDURE=TRANSMISSION
##RESOLUTION=4
##DATA PROCESSING=DIGITIZED BY NIST FROM HARD COPY
##XUNITS=MICROMETERS
##YUNITS=TRANSMITTANCE
##XFACTOR=1.000000
##YFACTOR=1
##DELTAX=000.006466
##FIRSTX=2.011
##LASTX=15.9954
##FIRSTY=0.982
##MAXX=15.9954
##MINX=2.011
##MAXY=0.988
##MINY=0.011
##NPOINTS=2164
##XYDATA=(X++(Y..Y))
2.011000 0.9820 0.9830 0.9850 0.9870 0.9880
2.043343 0.9880 0.9880 0.9870 0.9850 0.9850
2.075000 0.9830 0.9800 0.9780 0.9780 0.9780
2.107343 0.9800 0.9820 0.9850 0.9850 0.9800
2.140000 0.9690 0.9660 0.9610 0.9400 0.9200
2.172343 0.8990 0.8750 0.8600 0.8470 0.8440
2.205000 0.8360 0.8330 0.8310 0.8280 0.8260
2.237343 0.8250 0.8230 0.8230 0.8250 0.8280
2.269000 0.8300 0.8300 0.8260 0.8250 0.8230
2.301343 0.8250 0.8280 0.8380 0.8520 0.8570
2.334000 0.8670 0.8730 0.8750 0.8750 0.8730
2.366343 0.8720 0.8700 0.8700 0.8720 0.8730
2.399000 0.8770 0.8810 0.8860 0.8860 0.8880
2.431343 0.8910 0.8910 0.8930 0.8940 0.8980
2.463000 0.9070 0.9110 0.9140 0.9090 0.9120
2.495343 0.9140 0.9190 0.9220 0.9220 0.9170
2.528000 0.9140 0.9110 0.9090 0.9090 0.9090
2.560343 0.9110 0.9170 0.9150 0.9090 0.9070
2.593000 0.9070 0.9070 0.9070 0.9090 0.9110
2.625343 0.9120 0.9110 0.9110 0.9090 0.9090
2.657000 0.9060 0.8990 0.8960 0.8990 0.9040
2.689343 0.9060 0.9060 0.9070 0.9070 0.9110
2.722000 0.9110 0.9110 0.9140 0.9150 0.9150
2.754343 0.9120 0.9110 0.9040 0.9040 0.9060
2.787000 0.9090 0.9120 0.9140 0.9140 0.9150
2.819343 0.9150 0.9170 0.9170 0.9190 0.9190
2.851000 0.9190 0.9190 0.9190 0.9190 0.9190
2.883343 0.9200 0.9200 0.9200 0.9200 0.9200
2.916000 0.9190 0.9120 0.9120 0.9090 0.9060
2.948343 0.8990 0.8960 0.8960 0.8940 0.8930
2.981000 0.8930 0.8910 0.8910 0.8890 0.8890
3.013343 0.8890 0.8890 0.8880 0.8880 0.8890
3.045000 0.8890 0.8880 0.8810 0.8770 0.8730
3.077343 0.8700 0.8670 0.8650 0.8600 0.8540
3.110000 0.8430 0.8340 0.8220 0.8130 0.8050
3.142343 0.8020 0.7940 0.7890 0.7880 0.7890
3.175000 0.7920 0.8000 0.8090 0.8090 0.8020
3.207343 0.7920 0.7790 0.7680 0.7580 0.7540
3.239000 0.7520 0.7500 0.7470 0.7410 0.7390
3.271343 0.7230 0.6900 0.6390 0.5670 0.4750
3.304000 0.3590 0.2160 0.1550 0.0840 0.0120
3.336343 0.0120 0.0160 0.0190 0.0220 0.0220
3.369000 0.0220 0.0210 0.0170 0.0170 0.0210
3.401343 0.0240 0.0300 0.0330 0.0430 0.0510
3.433000 0.0590 0.0660 0.0660 0.0630 0.0530
3.465343 0.0530 0.0610 0.0800 0.1050 0.1350
3.498000 0.1680 0.1900 0.2280 0.2750 0.3310
3.530343 0.3910 0.4510 0.5090 0.5610 0.6010
3.562000 0.6290 0.6350 0.6470 0.6650 0.6840
3.594343 0.7070 0.7280 0.7470 0.7620 0.7760
3.627000 0.7780 0.7780 0.7730 0.7680 0.7540
3.659343 0.7390 0.7410 0.7580 0.7700 0.7810
3.692000 0.8050 0.8090 0.8050 0.8040 0.8000
3.724343 0.7960 0.7920 0.7910 0.7910 0.7920
3.756000 0.7940 0.8000 0.8090 0.8170 0.8250
3.788343 0.8300 0.8470 0.8490 0.8510 0.8520
3.821000 0.8520 0.8520 0.8540 0.8540 0.8550
3.853343 0.8570 0.8590 0.8590 0.8570 0.8550
3.886000 0.8510 0.8490 0.8490 0.8510 0.8540
3.918343 0.8570 0.8570 0.8590 0.8550 0.8510
3.950000 0.8470 0.8430 0.8340 0.8330 0.8340
3.982343 0.8360 0.8430 0.8440 0.8440 0.8440
4.015000 0.8380 0.8380 0.8380 0.8380 0.8390
4.047343 0.8430 0.8460 0.8460 0.8440 0.8440
4.080000 0.8390 0.8410 0.8470 0.8520 0.8570
4.112343 0.8600 0.8600 0.8570 0.8460 0.8390
4.144000 0.8330 0.8300 0.8220 0.8200 0.8220
4.176343 0.8250 0.8280 0.8310 0.8310 0.8310
4.209000 0.8330 0.8340 0.8340 0.8340 0.8360
4.241343 0.8390 0.8440 0.8470 0.8540 0.8570
4.274000 0.8620 0.8640 0.8620 0.8600 0.8550
4.306343 0.8520 0.8510 0.8510 0.8520 0.8600
4.338000 0.8590 0.8590 0.8570 0.8540 0.8520
4.370343 0.8510 0.8510 0.8490 0.8460 0.8430
4.403000 0.8360 0.8250 0.8220 0.8130 0.8120
4.435343 0.8120 0.8130 0.8220 0.8260 0.8300
4.468000 0.8330 0.8340 0.8380 0.8380 0.8410
4.500343 0.8410 0.8430 0.8430 0.8380 0.8340
4.532000 0.8310 0.8260 0.8230 0.8120 0.8100
4.564343 0.8120 0.8200 0.8230 0.8250 0.8260
4.597000 0.8280 0.8310 0.8330 0.8340 0.8360
4.629343 0.8380 0.8380 0.8390 0.8390 0.8390
4.662000 0.8390 0.8390 0.8390 0.8410 0.8430
4.694343 0.8460 0.8510 0.8520 0.8520 0.8520
4.726000 0.8510 0.8490 0.8460 0.8430 0.8440
4.758343 0.8460 0.8470 0.8470 0.8490 0.8490
4.791000 0.8490 0.8470 0.8460 0.8390 0.8390
4.823343 0.8410 0.8410 0.8410 0.8410 0.8460
4.856000 0.8430 0.8380 0.8390 0.8390 0.8440
4.888343 0.8430 0.8390 0.8430 0.8440 0.8470
4.920000 0.8520 0.8600 0.8650 0.8650 0.8620
4.952343 0.8540 0.8510 0.8440 0.8430 0.8440
4.985000 0.8490 0.8550 0.8590 0.8590 0.8600
5.017343 0.8640 0.8670 0.8670 0.8640 0.8620
5.050000 0.8600 0.8600 0.8600 0.8590 0.8590
5.082343 0.8590 0.8590 0.8570 0.8570 0.8570
5.114000 0.8570 0.8590 0.8590 0.8600 0.8620
5.146343 0.8600 0.8590 0.8570 0.8550 0.8550
5.179000 0.8540 0.8540 0.8520 0.8510 0.8510
5.211343 0.8490 0.8470 0.8460 0.8440 0.8410
5.244000 0.8390 0.8340 0.8330 0.8340 0.8340
5.276343 0.8340 0.8390 0.8460 0.8470 0.8460
5.308000 0.8430 0.8390 0.8330 0.8300 0.8300
5.340343 0.8330 0.8360 0.8380 0.8390 0.8430
5.373000 0.8470 0.8490 0.8490 0.8490 0.8490
5.405343 0.8490 0.8380 0.8410 0.8430 0.8430
5.437000 0.8490 0.8490 0.8470 0.8460 0.8410
5.469343 0.8390 0.8380 0.8360 0.8310 0.8380
5.502000 0.8340 0.8280 0.8250 0.8250 0.8260
5.534343 0.8380 0.8430 0.8470 0.8470 0.8470
5.567000 0.8440 0.8460 0.8470 0.8490 0.8550
5.599343 0.8570 0.8510 0.8460 0.8460 0.8460
5.631000 0.8440 0.8410 0.8390 0.8380 0.8360
5.663343 0.8360 0.8360 0.8340 0.8340 0.8330
5.696000 0.8330 0.8310 0.8300 0.8280 0.8260
5.728343 0.8250 0.8250 0.8250 0.8230 0.8230
5.761000 0.8230 0.8220 0.8200 0.8180 0.8170
5.793343 0.8150 0.8130 0.8120 0.8120 0.8100
5.825000 0.8090 0.8050 0.8020 0.8000 0.8050
5.857343 0.8120 0.8180 0.8220 0.8230 0.8220
5.890000 0.8100 0.8050 0.8040 0.8050 0.8050
5.922343 0.8040 0.8020 0.8020 0.8000 0.7970
5.955000 0.7960 0.7970 0.7990 0.8040 0.8070
5.987343 0.8070 0.8090 0.8100 0.8100 0.8100
6.019000 0.8100 0.8100 0.8100 0.8100 0.8090
6.051343 0.8020 0.8000 0.7990 0.7970 0.7960
6.084000 0.7940 0.7940 0.7920 0.7940 0.7940
6.116343 0.7940 0.7960 0.7970 0.7970 0.7990
6.149000 0.7960 0.7960 0.7880 0.7810 0.7780
6.181343 0.7750 0.7750 0.7730 0.7710 0.7710
6.213000 0.7710 0.7710 0.7710 0.7710 0.7700
6.245343 0.7700 0.7680 0.7650 0.7650 0.7660
6.278000 0.7680 0.7700 0.7710 0.7700 0.7680
6.310343 0.7680 0.7700 0.7710 0.7730 0.7730
6.343000 0.7780 0.7790 0.7790 0.7790 0.7780
6.375343 0.7780 0.7700 0.7700 0.7660 0.7650
6.407000 0.7630 0.7620 0.7600 0.7580 0.7570
6.439343 0.7550 0.7540 0.7520 0.7500 0.7490
6.472000 0.7470 0.7440 0.7390 0.7370 0.7340
6.504343 0.7260 0.7240 0.7230 0.7230 0.7210
6.537000 0.7160 0.7080 0.7000 0.6920 0.6840
6.569343 0.6760 0.6660 0.6580 0.6500 0.6370
6.601000 0.6240 0.6110 0.6000 0.5880 0.5770
6.633343 0.5660 0.5530 0.5400 0.5270 0.5120
6.666000 0.4960 0.4800 0.4610 0.4410 0.4190
6.698343 0.3930 0.3650 0.3340 0.3150 0.2940
6.731000 0.2730 0.2520 0.2260 0.1990 0.1630
6.763343 0.1220 0.0720 0.0420 0.0400 0.0400
6.795000 0.0420 0.0420 0.0420 0.0420 0.0430
6.827343 0.0430 0.0450 0.0450 0.0450 0.0430
6.860000 0.0420 0.0400 0.0400 0.0380 0.0370
6.892343 0.0350 0.0350 0.0370 0.0530 0.0690
6.925000 0.0870 0.1060 0.1260 0.1480 0.1710
6.957343 0.1940 0.2180 0.2420 0.2660 0.2920
6.989000 0.3170 0.3430 0.3650 0.3890 0.4120
7.021343 0.4360 0.4570 0.4780 0.4980 0.5090
7.054000 0.5170 0.5270 0.5320 0.5370 0.5380
7.086343 0.5480 0.5530 0.5550 0.5530 0.5500
7.119000 0.5330 0.5290 0.5250 0.5170 0.5040
7.151343 0.4880 0.4670 0.4410 0.4120 0.3800
7.183000 0.3410 0.2920 0.2450 0.1970 0.1480
7.215343 0.1010 0.1010 0.1400 0.1810 0.2210
7.248000 0.2620 0.3020 0.3430 0.3830 0.4150
7.280343 0.4720 0.5120 0.5370 0.5480 0.5690
7.312000 0.5820 0.5870 0.5920 0.5970 0.6030
7.344343 0.6050 0.6030 0.6000 0.5950 0.5870
7.377000 0.5770 0.5660 0.5500 0.5320 0.5090
7.409343 0.5060 0.4750 0.4330 0.3910 0.3650
7.442000 0.3540 0.2890 0.2630 0.2580 0.2370
7.474343 0.2370 0.2570 0.3200 0.3490 0.3640
7.506000 0.3850 0.3860 0.3860 0.3780 0.3520
7.538343 0.3330 0.3170 0.3040 0.2890 0.2710
7.571000 0.2500 0.2210 0.1820 0.1600 0.1320
7.603343 0.1060 0.0820 0.0640 0.0550 0.0400
7.636000 0.0250 0.0120 0.0110 0.0120 0.0220
7.668343 0.0300 0.0320 0.0370 0.0460 0.0610
7.700000 0.0770 0.0980 0.1210 0.1450 0.1710
7.732343 0.1970 0.2240 0.2520 0.2790 0.3050
7.765000 0.3280 0.3510 0.3700 0.3880 0.4010
7.797343 0.4110 0.4140 0.4220 0.4250 0.4270
7.830000 0.4270 0.4220 0.4040 0.3860 0.3650
7.862343 0.3390 0.3100 0.2750 0.2330 0.1990
7.894000 0.1710 0.1480 0.1290 0.1110 0.0900
7.926343 0.0670 0.0580 0.0530 0.0530 0.0790
7.959000 0.1060 0.1340 0.1610 0.1890 0.2160
7.991343 0.2440 0.2680 0.3520 0.3890 0.4220
8.024000 0.4490 0.4700 0.4900 0.5060 0.5190
8.056343 0.5300 0.5420 0.5530 0.5630 0.5760
8.088000 0.5880 0.6030 0.6050 0.6100 0.6180
8.120343 0.6290 0.6400 0.6520 0.6600 0.6630
8.153000 0.6680 0.6690 0.6730 0.6740 0.6760
8.185343 0.6760 0.6760 0.6730 0.6730 0.6710
8.218000 0.6650 0.6580 0.6560 0.6530 0.6450
8.250343 0.6440 0.6470 0.6580 0.6660 0.6730
8.282000 0.6810 0.6900 0.6990 0.7070 0.7150
8.314343 0.7230 0.7280 0.7310 0.7360 0.7420
8.347000 0.7450 0.7490 0.7500 0.7520 0.7540
8.379343 0.7550 0.7570 0.7620 0.7650 0.7680
8.412000 0.7710 0.7750 0.7760 0.7790 0.7830
8.444343 0.7840 0.7860 0.7880 0.7890 0.7890
8.476000 0.7910 0.7910 0.7890 0.7890 0.7890
8.508343 0.7890 0.7890 0.7890 0.7880 0.7880
8.541000 0.7880 0.7880 0.7890 0.7890 0.7890
8.573343 0.7890 0.7880 0.7830 0.7780 0.7700
8.606000 0.7630 0.7550 0.7500 0.7490 0.7500
8.638343 0.7540 0.7570 0.7600 0.7660 0.7710
8.670000 0.7780 0.7810 0.7830 0.7840 0.7840
8.702343 0.7860 0.7860 0.7860 0.7860 0.7880
8.735000 0.7890 0.7920 0.7960 0.7990 0.8020
8.767343 0.8040 0.8070 0.8090 0.8090 0.8100
8.800000 0.8100 0.8100 0.8100 0.8090 0.8090
8.832343 0.8070 0.8050 0.8040 0.8040 0.8020
8.864000 0.7990 0.7960 0.7920 0.7840 0.7760
8.896343 0.7730 0.7710 0.7730 0.7880 0.7860
8.929000 0.7780 0.7710 0.7660 0.7600 0.7550
8.961343 0.7520 0.7470 0.7420 0.7370 0.7330
8.994000 0.7280 0.7200 0.7110 0.7080 0.7050
9.026343 0.6970 0.6940 0.6940 0.6950 0.7020
9.058000 0.7030 0.7020 0.6990 0.6970 0.6940
9.090343 0.6920 0.6900 0.6840 0.6770 0.6730
9.123000 0.6660 0.6560 0.6550 0.6560 0.6580
9.155343 0.6600 0.6610 0.6630 0.6610 0.6610
9.188000 0.6600 0.6560 0.6530 0.6500 0.6470
9.220343 0.6450 0.6420 0.6350 0.6350 0.6310
9.252000 0.6260 0.6240 0.6260 0.6270 0.6320
9.284343 0.6340 0.6370 0.6340 0.6270 0.6260
9.317000 0.6220 0.6140 0.6050 0.5970 0.5900
9.349343 0.5820 0.5740 0.5640 0.5510 0.5500
9.381000 0.5510 0.5630 0.5720 0.5820 0.5930
9.413343 0.6030 0.6080 0.6130 0.6190 0.6310
9.446000 0.6370 0.6370 0.6320 0.6270 0.6260
9.478343 0.6240 0.6210 0.6180 0.6100 0.5970
9.511000 0.5840 0.5740 0.5660 0.5580 0.5430
9.543343 0.5160 0.5060 0.5030 0.4780 0.4750
9.575000 0.4540 0.4480 0.4430 0.4350 0.4330
9.607343 0.4250 0.4220 0.4200 0.4200 0.4220
9.640000 0.4250 0.4300 0.4360 0.4430 0.4430
9.672343 0.4360 0.4270 0.4170 0.4150 0.4190
9.705000 0.4300 0.4490 0.4700 0.4930 0.5120
9.737343 0.5350 0.5560 0.5740 0.5900 0.6050
9.769000 0.6190 0.6310 0.6420 0.6500 0.6580
9.801343 0.6660 0.6730 0.6770 0.6820 0.6870
9.834000 0.6920 0.6950 0.6990 0.7020 0.7050
9.866343 0.7080 0.7110 0.7160 0.7200 0.7240
9.899000 0.7290 0.7330 0.7330 0.7340 0.7360
9.931343 0.7370 0.7390 0.7420 0.7440 0.7440
9.963000 0.7440 0.7450 0.7470 0.7470 0.7470
9.995343 0.7490 0.7500 0.7500 0.7500 0.7500
10.028000 0.7520 0.7520 0.7540 0.7540 0.7540
10.060343 0.7550 0.7550 0.7570 0.7570 0.7570
10.093000 0.7580 0.7600 0.7600 0.7620 0.7630
10.125343 0.7660 0.7680 0.7710 0.7730 0.7730
10.157000 0.7710 0.7710 0.7700 0.7700 0.7700
10.189343 0.7680 0.7680 0.7680 0.7680 0.7680
10.222000 0.7680 0.7680 0.7680 0.7680 0.7700
10.254343 0.7700 0.7710 0.7710 0.7710 0.7730
10.287000 0.7730 0.7750 0.7750 0.7750 0.7730
10.319343 0.7730 0.7710 0.7700 0.7680 0.7680
10.351000 0.7660 0.7650 0.7650 0.7630 0.7620
10.383343 0.7580 0.7570 0.7550 0.7550 0.7540
10.416000 0.7520 0.7470 0.7470 0.7490 0.7500
10.448343 0.7520 0.7520 0.7500 0.7490 0.7490
10.481000 0.7490 0.7470 0.7470 0.7450 0.7440
10.513343 0.7420 0.7410 0.7410 0.7420 0.7450
10.545000 0.7490 0.7520 0.7540 0.7540 0.7540
10.577343 0.7540 0.7550 0.7550 0.7550 0.7550
10.610000 0.7550 0.7550 0.7570 0.7570 0.7570
10.642343 0.7570 0.7580 0.7580 0.7570 0.7570
10.675000 0.7570 0.7550 0.7540 0.7520 0.7500
10.707343 0.7490 0.7470 0.7450 0.7450 0.7440
10.739000 0.7420 0.7420 0.7390 0.7360 0.7310
10.771343 0.7280 0.7260 0.7230 0.7210 0.7200
10.804000 0.7180 0.7150 0.7110 0.7080 0.7050
10.836343 0.7000 0.6940 0.6860 0.6840 0.6820
10.869000 0.6790 0.6760 0.6730 0.6680 0.6650
10.901343 0.6580 0.6530 0.6470 0.6400 0.6340
10.933000 0.6260 0.6160 0.6080 0.5970 0.5870
10.965343 0.5760 0.5630 0.5500 0.5350 0.5210
10.998000 0.5040 0.4820 0.4590 0.4360 0.4150
11.030343 0.3910 0.3680 0.3460 0.3200 0.2960
11.063000 0.2700 0.2410 0.2130 0.1820 0.1500
11.095343 0.1160 0.0970 0.0840 0.0630 0.0500
11.127000 0.0420 0.0370 0.0350 0.0370 0.0420
11.159343 0.0450 0.0480 0.0510 0.0550 0.0590
11.192000 0.0660 0.0740 0.0820 0.0930 0.1080
11.224343 0.1220 0.1450 0.1660 0.1870 0.2080
11.256000 0.2290 0.2520 0.2730 0.2920 0.3130
11.288343 0.3330 0.3520 0.3700 0.3880 0.4060
11.321000 0.4220 0.4380 0.4510 0.4660 0.4770
11.353343 0.4880 0.4960 0.5040 0.5110 0.5160
11.386000 0.5190 0.5220 0.5270 0.5350 0.5420
11.418343 0.5500 0.5530 0.5610 0.5630 0.5630
11.450000 0.5630 0.5630 0.5610 0.5590 0.5590
11.482343 0.5580 0.5550 0.5510 0.5450 0.5380
11.515000 0.5320 0.5240 0.5140 0.5090 0.5030
11.547343 0.4960 0.4870 0.4750 0.4610 0.4400
11.580000 0.4280 0.4250 0.4090 0.3930 0.3770
11.612343 0.3590 0.3430 0.3250 0.3050 0.2860
11.644000 0.2630 0.2410 0.2130 0.1920 0.1810
11.676343 0.1600 0.1480 0.1400 0.1350 0.1320
11.709000 0.1310 0.1310 0.1340 0.1470 0.1650
11.741343 0.1810 0.1990 0.2150 0.2330 0.2500
11.774000 0.2660 0.2840 0.3000 0.3170 0.3340
11.806343 0.3510 0.3670 0.3830 0.3990 0.4140
11.838000 0.4300 0.4440 0.4590 0.4720 0.4870
11.870343 0.5000 0.5120 0.5240 0.5350 0.5460
11.903000 0.5560 0.5660 0.5760 0.5820 0.5900
11.935343 0.5950 0.6010 0.6060 0.6140 0.6210
11.968000 0.6240 0.6290 0.6320 0.6400 0.6420
12.000343 0.6450 0.6480 0.6500 0.6530 0.6550
12.032000 0.6550 0.6560 0.6560 0.6580 0.6580
12.064343 0.6600 0.6610 0.6630 0.6630 0.6650
12.097000 0.6650 0.6650 0.6630 0.6610 0.6610
12.129343 0.6600 0.6580 0.6560 0.6560 0.6550
12.162000 0.6550 0.6530 0.6530 0.6530 0.6530
12.194343 0.6520 0.6520 0.6500 0.6480 0.6480
12.226000 0.6470 0.6450 0.6440 0.6420 0.6420
12.258343 0.6390 0.6350 0.6320 0.6290 0.6270
12.291000 0.6240 0.6220 0.6180 0.6130 0.6050
12.323343 0.6010 0.5980 0.5930 0.5880 0.5840
12.356000 0.5770 0.5710 0.5640 0.5580 0.5500
12.388343 0.5420 0.5330 0.5250 0.5170 0.5080
12.420000 0.4980 0.4880 0.4770 0.4670 0.4560
12.452343 0.4440 0.4330 0.4200 0.4070 0.3930
12.485000 0.3780 0.3650 0.3490 0.3340 0.3200
12.517343 0.3040 0.2880 0.2730 0.2570 0.2390
12.550000 0.2230 0.2070 0.1900 0.1740 0.1560
12.582343 0.1400 0.1220 0.1110 0.0930 0.0820
12.614000 0.0690 0.0590 0.0560 0.0430 0.0400
12.646343 0.0300 0.0270 0.0240 0.0220 0.0210
12.679000 0.0190 0.0170 0.0170 0.0190 0.0210
12.711343 0.0220 0.0240 0.0270 0.0290 0.0330
12.744000 0.0380 0.0450 0.0550 0.0640 0.0770
12.776343 0.0900 0.1050 0.1190 0.1350 0.1520
12.808000 0.1690 0.1870 0.2050 0.2240 0.2420
12.840343 0.2600 0.2790 0.2970 0.3120 0.3260
12.873000 0.3410 0.3520 0.3640 0.3750 0.3850
12.905343 0.3930 0.4020 0.4110 0.4190 0.4270
12.938000 0.4350 0.4430 0.4510 0.4610 0.4690
12.970343 0.4780 0.4850 0.4880 0.4910 0.4930
13.002000 0.4930 0.4960 0.4980 0.5010 0.5040
13.034343 0.5080 0.5080 0.5110 0.5160 0.5190
13.067000 0.5210 0.5220 0.5240 0.5240 0.5220
13.099343 0.5220 0.5210 0.5210 0.5190 0.5160
13.131000 0.5140 0.5090 0.5040 0.5010 0.5000
13.163343 0.4980 0.4960 0.4930 0.4900 0.4850
13.196000 0.4820 0.4770 0.4700 0.4660 0.4590
13.228343 0.4540 0.4460 0.4400 0.4330 0.4270
13.261000 0.4190 0.4110 0.4020 0.3960 0.3880
13.293343 0.3800 0.3720 0.3640 0.3540 0.3460
13.325000 0.3380 0.3300 0.3220 0.3130 0.3050
13.357343 0.2970 0.2910 0.2830 0.2750 0.2710
13.390000 0.2650 0.2620 0.2580 0.2540 0.2490
13.422343 0.2450 0.2420 0.2370 0.2340 0.2310
13.455000 0.2260 0.2200 0.2150 0.2110 0.2050
13.487343 0.2050 0.2020 0.1990 0.1920 0.1860
13.519000 0.1740 0.1650 0.1550 0.1480 0.1400
13.551343 0.1340 0.1240 0.1190 0.1140 0.1100
13.584000 0.1030 0.0950 0.0840 0.0760 0.0670
13.616343 0.0630 0.0590 0.0560 0.0530 0.0510
13.649000 0.0480 0.0450 0.0430 0.0420 0.0400
13.681343 0.0380 0.0380 0.0380 0.0370 0.0370
13.713000 0.0350 0.0350 0.0330 0.0330 0.0330
13.745343 0.0330 0.0330 0.0330 0.0350 0.0350
13.778000 0.0350 0.0370 0.0370 0.0370 0.0380
13.810343 0.0380 0.0400 0.0400 0.0420 0.0420
13.843000 0.0420 0.0430 0.0450 0.0450 0.0480
13.875343 0.0510 0.0530 0.0610 0.0640 0.0710
13.907000 0.0760 0.0800 0.0850 0.0920 0.0970
13.939343 0.1030 0.1100 0.1160 0.1220 0.1270
13.972000 0.1370 0.1470 0.1530 0.1650 0.1690
14.004343 0.1810 0.1950 0.2110 0.2280 0.2390
14.037000 0.2450 0.2600 0.2730 0.2830 0.2920
14.069343 0.3020 0.3120 0.3220 0.3310 0.3410
14.101000 0.3520 0.3620 0.3720 0.3810 0.3910
14.133343 0.4010 0.4090 0.4190 0.4280 0.4360
14.166000 0.4460 0.4540 0.4620 0.4690 0.4750
14.198343 0.4820 0.4880 0.4950 0.5030 0.5090
14.231000 0.5160 0.5210 0.5270 0.5320 0.5350
14.263343 0.5380 0.5460 0.5510 0.5580 0.5610
14.295000 0.5660 0.5710 0.5740 0.5790 0.5840
14.327343 0.5870 0.5880 0.5900 0.5920 0.5930
14.360000 0.5950 0.5970 0.6000 0.6030 0.6050
14.392343 0.6060 0.6080 0.6100 0.6110 0.6130
14.425000 0.6140 0.6180 0.6190 0.6210 0.6220
14.457343 0.6220 0.6240 0.6240 0.6260 0.6270
14.489000 0.6270 0.6290 0.6290 0.6320 0.6320
14.521343 0.6340 0.6350 0.6370 0.6390 0.6390
14.554000 0.6390 0.6400 0.6400 0.6390 0.6390
14.586343 0.6370 0.6370 0.6350 0.6350 0.6370
14.619000 0.6390 0.6390 0.6390 0.6390 0.6390
14.651343 0.6370 0.6370 0.6370 0.6340 0.6290
14.683000 0.6290 0.6270 0.6270 0.6290 0.6290
14.715343 0.6270 0.6270 0.6260 0.6240 0.6180
14.748000 0.6160 0.6140 0.6130 0.6130 0.6130
14.780343 0.6130 0.6110 0.6100 0.6060 0.6010
14.813000 0.5980 0.5930 0.5920 0.5880 0.5870
14.845343 0.5840 0.5820 0.5800 0.5790 0.5770
14.877000 0.5760 0.5720 0.5670 0.5610 0.5590
14.909343 0.5560 0.5550 0.5510 0.5500 0.5450
14.942000 0.5430 0.5380 0.5370 0.5330 0.5320
14.974343 0.5300 0.5290 0.5270 0.5250 0.5220
15.006000 0.5210 0.5190 0.5160 0.5110 0.5090
15.038343 0.5080 0.5060 0.5040 0.5010 0.5000
15.071000 0.4960 0.4930 0.4900 0.4830 0.4770
15.103343 0.4660 0.4510 0.4480 0.4430 0.4380
15.136000 0.4320 0.4270 0.4200 0.4140 0.4090
15.168343 0.4020 0.3960 0.3910 0.3850 0.3800
15.200000 0.3750 0.3700 0.3650 0.3600 0.3570
15.232343 0.3550 0.3520 0.3510 0.3460 0.3410
15.265000 0.3340 0.3280 0.3200 0.3180 0.3150
15.297343 0.3120 0.3100 0.3070 0.3050 0.3040
15.330000 0.3020 0.3000 0.2990 0.2970 0.2970
15.362343 0.2960 0.2960 0.2940 0.2940 0.2940
15.394000 0.2940 0.2940 0.2960 0.2960 0.2970
15.426343 0.2970 0.3000 0.3020 0.3050 0.3070
15.459000 0.3100 0.3100 0.3120 0.3120 0.3120
15.491343 0.3130 0.3150 0.3200 0.3220 0.3260
15.524000 0.3310 0.3360 0.3410 0.3440 0.3470
15.556343 0.3470 0.3490 0.3490 0.3510 0.3510
15.588000 0.3540 0.3570 0.3620 0.3680 0.3730
15.620343 0.3780 0.3800 0.3850 0.3890 0.3980
15.653000 0.3990 0.4020 0.4110 0.4170 0.4250
15.685343 0.4320 0.4360 0.4400 0.4460 0.4510
15.718000 0.4570 0.4620 0.4660 0.4670 0.4750
15.750343 0.4770 0.4830 0.4880 0.4910 0.4950
15.782000 0.5000 0.5030 0.5090 0.5140 0.5190
15.814343 0.5250 0.5320 0.5380 0.5450 0.5510
15.847000 0.5550 0.5550 0.5590 0.5640 0.5690
15.879343 0.5710 0.5740 0.5770 0.5790 0.5800
15.912000 0.5820 0.5840 0.5870 0.5900 0.5930
15.944343 0.5970 0.5980 0.6060 0.6100 0.6100
15.976000 0.6110 0.6130 0.6140 0.6160
##END=
