##TITLE=2,2,4-TRIMETHYLPENTANE
##JCAMP-DX=4.24
##DATA TYPE=INFRARED SPECTRUM
##CLASS=COBLENTZ III
##ORIGIN=DOW CHEMICAL COMPANY
##OWNER=COBLENTZ SOCIETY
Collection (C) 2018 copyright by the U.S. Secretary of Commerce
on behalf of the United States of America. All rights reserved.
##DATE=1965/03/18
##CAS REGISTRY NO=540-84-1
##MOLFORM=C8 H18
##SOURCE REFERENCE=COBLENTZ NO. 6775
##$NIST SOURCE=COBLENTZ
##$NIST IMAGE=cob6775
##SPECTROMETER/DATA SYSTEM=DOW KBr FOREPRISM-GRATING
##INSTRUMENT PARAMETERS=GRATING BLAZED AT 3.5, 12.0, 20.0 MICRONS AND CHANGED AT 5.0, 7.5, 14.9 MICRONS
##STATE=SOLUTION (10% IN CCl4 FOR 3800-1330 CM^-^1, 10% IN CS2 FOR 1330-400 CM^-^1)
##PATH LENGTH=0.012 CM, 0.011 CM
$$SPECTRAL CONTAMINATION DUE TO CCl4 AROUND 1550, AND CS2 AROUND 855 CM^-^1
##SAMPLING PROCEDURE=TRANSMISSION
##RESOLUTION=4
##DATA PROCESSING=DIGITIZED BY NIST FROM HARD COPY (FROM TWO SEGMENTS)
##XUNITS=1/CM
##YUNITS=TRANSMITTANCE
##XFACTOR=1.000000
##YFACTOR=1
##DELTAX=0.878157
##FIRSTX=381.559
##LASTX=3797.59
##FIRSTY=0.281
##MAXX=3797.59
##MINX=381.559
##MAXY=1.06
##MINY=0.005
##NPOINTS=3891
##XYDATA=(X++(Y..Y))
381.559000 0.2810 0.2810 0.2810 0.2810 0.2810
385.949784 0.2810 0.2810 0.2820 0.2820 0.2840
390.340568 0.2850 0.2850 0.2860 0.2880 0.2910
394.731351 0.2930 0.3020 0.3040 0.3060 0.3140
399.122135 0.3210 0.3290 0.3370 0.3460 0.3540
403.512919 0.3610 0.3690 0.3760 0.3830 0.4019
407.903703 0.4370 0.4890 0.4910 0.5170 0.5420
412.294486 0.5680 0.5929 0.6189 0.6409 0.6778
416.685270 0.7130 0.7360 0.7570 0.7730 0.7870
421.076054 0.8000 0.8110 0.8170 0.8240 0.8300
425.466838 0.8340 0.8410 0.8480 0.8490 0.8520
429.857621 0.8560 0.8590 0.8660 0.8700 0.8730
434.248405 0.8740 0.8770 0.8820 0.8880 0.8910
438.639189 0.8920 0.8950 0.8970 0.9000 0.9020
443.029973 0.9040 0.9130 0.9140 0.9170 0.9180
447.420757 0.9210 0.9220 0.9240 0.9260 0.9290
451.811540 0.9310 0.9320 0.9320 0.9330 0.9350
456.202324 0.9370 0.9390 0.9420 0.9430 0.9440
460.593108 0.9510 0.9540 0.9540 0.9550 0.9570
464.983892 0.9570 0.9610 0.9610 0.9640 0.9660
469.374675 0.9680 0.9690 0.9710 0.9750 0.9760
473.765459 0.9770 0.9770 0.9770 0.9790 0.9820
478.156243 0.9820 0.9830 0.9830 0.9840 0.9860
482.547027 0.9870 0.9880 0.9880 0.9900 0.9910
486.937810 0.9910 0.9930 0.9940 0.9950 0.9970
491.328594 0.9980 0.9980 0.9980 0.9980 0.9980
495.719378 0.9980 1.0000 1.0000 1.0000 1.0000
500.110162 1.0010 1.0010 1.0010 1.0020 1.0020
504.500946 1.0020 1.0020 1.0040 1.0040 1.0040
508.891729 1.0050 1.0050 1.0050 1.0050 1.0050
513.282513 1.0060 1.0060 1.0060 1.0060 1.0060
517.673297 1.0060 1.0060 1.0060 1.0060 1.0060
522.064081 1.0060 1.0080 1.0080 1.0080 1.0080
526.454864 1.0090 1.0090 1.0110 1.0120 1.0120
530.845648 1.0120 1.0130 1.0130 1.0130 1.0130
535.236432 1.0150 1.0150 1.0150 1.0160 1.0160
539.627216 1.0170 1.0200 1.0220 1.0220 1.0220
544.018000 1.0220 1.0220 1.0230 1.0230 1.0230
548.408783 1.0230 1.0230 1.0240 1.0240 1.0260
552.799567 1.0270 1.0270 1.0280 1.0300 1.0300
557.190351 1.0300 1.0300 1.0310 1.0310 1.0310
561.581135 1.0330 1.0340 1.0340 1.0340 1.0350
565.971918 1.0350 1.0370 1.0370 1.0370 1.0380
570.362702 1.0400 1.0400 1.0420 1.0420 1.0440
574.753486 1.0440 1.0440 1.0450 1.0450 1.0450
579.144270 1.0460 1.0460 1.0460 1.0480 1.0480
583.535053 1.0480 1.0480 1.0480 1.0480 1.0480
587.925837 1.0480 1.0480 1.0490 1.0490 1.0490
592.316621 1.0490 1.0510 1.0510 1.0520 1.0530
596.707405 1.0530 1.0530 1.0530 1.0550 1.0550
601.098189 1.0560 1.0560 1.0560 1.0560 1.0560
605.488972 1.0560 1.0560 1.0560 1.0560 1.0560
609.879756 1.0560 1.0560 1.0550 1.0550 1.0550
614.270540 1.0550 1.0560 1.0560 1.0560 1.0560
618.661324 1.0560 1.0560 1.0570 1.0570 1.0570
623.052107 1.0570 1.0570 1.0570 1.0570 1.0570
627.442891 1.0570 1.0570 1.0560 1.0560 1.0560
631.833675 1.0550 1.0550 1.0550 1.0530 1.0520
636.224459 1.0520 1.0490 1.0480 1.0480 1.0480
640.615242 1.0460 1.0450 1.0440 1.0410 1.0380
645.006026 1.0370 1.0350 1.0340 1.0330 1.0310
649.396810 1.0310 1.0300 1.0300 1.0300 1.0300
653.787594 1.0300 1.0310 1.0310 1.0310 1.0330
658.178378 1.0340 1.0350 1.0350 1.0380 1.0400
662.569161 1.0400 1.0450 1.0460 1.0460 1.0480
666.959945 1.0480 1.0490 1.0490 1.0510 1.0510
671.350729 1.0510 1.0520 1.0520 1.0530 1.0530
675.741513 1.0530 1.0530 1.0550 1.0550 1.0550
680.132296 1.0550 1.0550 1.0530 1.0530 1.0530
684.523080 1.0520 1.0520 1.0520 1.0520 1.0520
688.913864 1.0520 1.0510 1.0510 1.0520 1.0530
693.304648 1.0530 1.0550 1.0550 1.0550 1.0550
697.695431 1.0550 1.0550 1.0550 1.0550 1.0530
702.086215 1.0550 1.0550 1.0550 1.0550 1.0550
706.476999 1.0550 1.0550 1.0530 1.0530 1.0530
710.867783 1.0530 1.0530 1.0530 1.0530 1.0530
715.258567 1.0530 1.0530 1.0530 1.0530 1.0530
719.649350 1.0550 1.0550 1.0550 1.0560 1.0560
724.040134 1.0560 1.0560 1.0560 1.0560 1.0560
728.430918 1.0560 1.0560 1.0560 1.0560 1.0560
732.821702 1.0560 1.0560 1.0560 1.0560 1.0560
737.212485 1.0560 1.0550 1.0530 1.0530 1.0520
741.603269 1.0490 1.0450 1.0400 1.0380 1.0380
745.994053 1.0380 1.0400 1.0450 1.0480 1.0490
750.384837 1.0510 1.0550 1.0570 1.0570 1.0590
754.775621 1.0590 1.0590 1.0590 1.0590 1.0590
759.166404 1.0590 1.0590 1.0590 1.0590 1.0590
763.557188 1.0590 1.0590 1.0590 1.0600 1.0590
767.947972 1.0590 1.0600 1.0590 1.0600 1.0600
772.338756 1.0590 1.0590 1.0570 1.0570 1.0560
776.729539 1.0560 1.0560 1.0550 1.0530 1.0530
781.120323 1.0520 1.0510 1.0490 1.0490 1.0480
785.511107 1.0480 1.0480 1.0460 1.0460 1.0460
789.901891 1.0460 1.0460 1.0450 1.0450 1.0450
794.292674 1.0450 1.0450 1.0450 1.0450 1.0450
798.683458 1.0450 1.0440 1.0420 1.0410 1.0400
803.074242 1.0380 1.0380 1.0370 1.0350 1.0340
807.465026 1.0330 1.0310 1.0300 1.0280 1.0270
811.855810 1.0240 1.0230 1.0220 1.0220 1.0220
816.246593 1.0200 1.0160 1.0150 1.0130 1.0130
820.637377 1.0110 1.0060 1.0050 1.0040 1.0040
825.028161 1.0020 1.0010 1.0010 1.0010 1.0010
829.418945 1.0010 1.0010 1.0010 1.0010 1.0010
833.809728 1.0010 1.0000 1.0000 1.0000 0.9980
838.200512 0.9940 0.9930 0.9900 0.9830 0.9770
842.591296 0.9750 0.9640 0.9550 0.9470 0.9400
846.982080 0.9330 0.9260 0.9170 0.9060 0.8950
851.372863 0.8850 0.8770 0.8710 0.8670 0.8660
855.763647 0.8620 0.8590 0.8560 0.8560 0.8560
860.154431 0.8570 0.8570 0.8590 0.8600 0.8660
864.545215 0.8680 0.8700 0.8740 0.8800 0.8880
868.935999 0.8890 0.8930 0.8970 0.9040 0.9070
873.326782 0.9110 0.9130 0.9180 0.9220 0.9290
877.717566 0.9320 0.9330 0.9360 0.9420 0.9510
882.108350 0.9550 0.9600 0.9640 0.9680 0.9760
886.499134 0.9760 0.9770 0.9790 0.9790 0.9820
890.889917 0.9840 0.9860 0.9870 0.9870 0.9870
895.280701 0.9870 0.9870 0.9870 0.9870 0.9870
899.671485 0.9870 0.9870 0.9880 0.9870 0.9870
904.062269 0.9870 0.9870 0.9860 0.9860 0.9830
908.453052 0.9820 0.9800 0.9790 0.9770 0.9710
912.843836 0.9650 0.9550 0.9460 0.9430 0.9420
917.234620 0.9420 0.9420 0.9420 0.9400 0.9400
921.625404 0.9390 0.9390 0.9370 0.9370 0.9370
926.016188 0.9390 0.9430 0.9470 0.9540 0.9570
930.406971 0.9640 0.9720 0.9760 0.9790 0.9800
934.797755 0.9820 0.9830 0.9840 0.9840 0.9840
939.188539 0.9840 0.9840 0.9840 0.9840 0.9840
943.579323 0.9840 0.9840 0.9830 0.9830 0.9830
947.970106 0.9830 0.9830 0.9830 0.9840 0.9840
952.360890 0.9840 0.9840 0.9840 0.9840 0.9840
956.751674 0.9840 0.9830 0.9830 0.9830 0.9820
961.142458 0.9770 0.9770 0.9760 0.9760 0.9760
965.533241 0.9710 0.9690 0.9660 0.9610 0.9570
969.924025 0.9570 0.9500 0.9350 0.9260 0.9140
974.314809 0.9060 0.8781 0.8451 0.8111 0.8080
978.705593 0.8090 0.8300 0.8450 0.8710 0.9139
983.096377 0.9529 0.9640 0.9710 0.9760 0.9770
987.487160 0.9800 0.9820 0.9830 0.9830 0.9840
991.877944 0.9840 0.9840 0.9840 0.9860 0.9840
996.268728 0.9840 0.9840 0.9840 0.9840 0.9840
1000.659512 0.9830 0.9840 0.9830 0.9830 0.9830
1005.050295 0.9830 0.9830 0.9830 0.9830 0.9830
1009.441079 0.9830 0.9830 0.9820 0.9830 0.9830
1013.831863 0.9830 0.9830 0.9830 0.9830 0.9840
1018.222647 0.9840 0.9840 0.9840 0.9860 0.9870
1022.613431 0.9870 0.9880 0.9880 0.9880 0.9900
1027.004214 0.9900 0.9900 0.9900 0.9900 0.9900
1031.394998 0.9910 0.9910 0.9910 0.9910 0.9910
1035.785782 0.9910 0.9910 0.9910 0.9910 0.9910
1040.176566 0.9910 0.9910 0.9910 0.9910 0.9910
1044.567349 0.9910 0.9910 0.9910 0.9910 0.9910
1048.958133 0.9910 0.9910 0.9910 0.9910 0.9910
1053.348917 0.9910 0.9910 0.9910 0.9910 0.9910
1057.739701 0.9900 0.9900 0.9900 0.9910 0.9910
1062.130484 0.9880 0.9880 0.9880 0.9870 0.9870
1066.521268 0.9870 0.9870 0.9870 0.9870 0.9870
1070.912052 0.9860 0.9860 0.9840 0.9830 0.9830
1075.302836 0.9830 0.9830 0.9830 0.9820 0.9820
1079.693620 0.9800 0.9800 0.9770 0.9760 0.9750
1084.084403 0.9730 0.9710 0.9690 0.9680 0.9660
1088.475187 0.9650 0.9620 0.9580 0.9540 0.9480
1092.865971 0.9460 0.9440 0.9430 0.9430 0.9440
1097.256755 0.9470 0.9480 0.9510 0.9530 0.9540
1101.647538 0.9540 0.9530 0.9530 0.9510 0.9510
1106.038322 0.9510 0.9510 0.9510 0.9510 0.9510
1110.429106 0.9530 0.9540 0.9550 0.9550 0.9550
1114.819890 0.9550 0.9570 0.9570 0.9580 0.9580
1119.210673 0.9580 0.9600 0.9600 0.9610 0.9610
1123.601457 0.9610 0.9610 0.9620 0.9620 0.9620
1127.992241 0.9620 0.9610 0.9610 0.9600 0.9600
1132.383025 0.9570 0.9570 0.9580 0.9570 0.9550
1136.773809 0.9550 0.9550 0.9540 0.9540 0.9540
1141.164592 0.9530 0.9480 0.9470 0.9460 0.9460
1145.555376 0.9440 0.9430 0.9420 0.9400 0.9400
1149.946160 0.9390 0.9350 0.9320 0.9310 0.9290
1154.336944 0.9250 0.9200 0.9170 0.9110 0.9080
1158.727727 0.9000 0.8950 0.8860 0.8730 0.8600
1163.118511 0.8490 0.8280 0.8010 0.7750 0.7500
1167.509295 0.7390 0.7220 0.7220 0.7579 0.7759
1171.900079 0.7980 0.8240 0.8510 0.8740 0.8890
1176.290862 0.8930 0.8960 0.8960 0.8970 0.8970
1180.681646 0.8960 0.8950 0.8930 0.8910 0.8890
1185.072430 0.8890 0.8860 0.8820 0.8800 0.8770
1189.463214 0.8730 0.8660 0.8570 0.8490 0.8380
1193.853998 0.8270 0.8080 0.7871 0.7661 0.7471
1198.244781 0.7290 0.7110 0.6970 0.6850 0.6770
1202.635565 0.6750 0.6750 0.6750 0.6750 0.6770
1207.026349 0.6770 0.6800 0.6950 0.7220 0.7400
1211.417133 0.7770 0.8079 0.8329 0.8480 0.8590
1215.807916 0.8670 0.8700 0.8750 0.8780 0.8810
1220.198700 0.8840 0.8850 0.8880 0.8880 0.8880
1224.589484 0.8880 0.8880 0.8880 0.8880 0.8880
1228.980268 0.8860 0.8850 0.8820 0.8780 0.8750
1233.371052 0.8710 0.8680 0.8670 0.8590 0.8510
1237.761835 0.8460 0.8280 0.8110 0.7931 0.7731
1242.152619 0.7469 0.7180 0.6930 0.6640 0.6350
1246.543403 0.6330 0.6330 0.6450 0.6709 0.7109
1250.934187 0.7530 0.7880 0.8240 0.8510 0.8660
1255.324970 0.8710 0.8780 0.8820 0.8880 0.8910
1259.715754 0.8920 0.8920 0.8930 0.8930 0.8930
1264.106538 0.8930 0.8930 0.8920 0.8920 0.8920
1268.497322 0.8910 0.8910 0.8860 0.8850 0.8810
1272.888105 0.8780 0.8730 0.8710 0.8670 0.8590
1277.278889 0.8510 0.8420 0.8310 0.8270 0.8260
1281.669673 0.8270 0.8300 0.8330 0.8400 0.8480
1286.060457 0.8560 0.8630 0.8680 0.8700 0.8730
1290.451241 0.8750 0.8780 0.8800 0.8810 0.8820
1294.842024 0.8840 0.8850 0.8860 0.8880 0.8880
1299.232808 0.8880 0.8910 0.8910 0.8920 0.8920
1303.623592 0.8930 0.8950 0.8960 0.8960 0.8960
1308.014376 0.8970 0.8970 0.8970 0.8970 0.8990
1312.405159 0.8990 0.8990 0.8990 0.8990 0.9000
1316.795943 0.8970 0.8970 0.8960 0.8960 0.8950
1321.186727 0.8950 0.8930 0.8930 0.8920 0.8910
1325.577511 0.8910 0.8890 0.8890 0.8890 0.8910
1329.968294 0.8910 0.8910 0.8890 0.8890 0.8820
1334.359078 0.8800 0.8750 0.8740 0.8710 0.8700
1338.749862 0.8680 0.8640 0.8590 0.8510 0.8440
1343.140646 0.8340 0.8240 0.8120 0.7951 0.7751
1347.531430 0.7530 0.7320 0.6930 0.6460 0.5870
1351.922213 0.5351 0.5330 0.5569 0.5799 0.6009
1356.312997 0.6020 0.6020 0.5570 0.5110 0.4660
1360.703781 0.4131 0.3571 0.3002 0.1734 0.1471
1365.094565 0.1220 0.0970 0.0730 0.0710 0.0730
1369.485348 0.1709 0.2449 0.3169 0.3938 0.4807
1373.876132 0.5661 0.6090 0.6380 0.6570 0.6740
1378.266916 0.6750 0.6740 0.6640 0.6490 0.6131
1382.657700 0.5639 0.5240 0.5240 0.5420 0.5760
1387.048483 0.6050 0.6080 0.6060 0.6020 0.5681
1391.439267 0.4549 0.3950 0.3400 0.3360 0.3400
1395.830051 0.3929 0.4409 0.5827 0.6588 0.7208
1400.220835 0.7680 0.7970 0.8060 0.8190 0.8300
1404.611619 0.8310 0.8330 0.8370 0.8380 0.8400
1409.002402 0.8400 0.8400 0.8400 0.8400 0.8400
1413.393186 0.8400 0.8400 0.8400 0.8380 0.8380
1417.783970 0.8370 0.8370 0.8340 0.8330 0.8300
1422.174754 0.8280 0.8270 0.8230 0.8190 0.8160
1426.565537 0.8120 0.8110 0.8020 0.7970 0.7940
1430.956321 0.7860 0.7730 0.7660 0.7570 0.7480
1435.347105 0.7390 0.7260 0.7180 0.7060 0.7030
1439.737889 0.6930 0.6860 0.6780 0.6710 0.6630
1444.128672 0.6590 0.6450 0.6310 0.6150 0.6000
1448.519456 0.5710 0.5370 0.5110 0.5020 0.4811
1452.910240 0.4620 0.4600 0.4560 0.4530 0.4460
1457.301024 0.4400 0.4270 0.4200 0.3951 0.3462
1461.691808 0.3220 0.3060 0.2780 0.2420 0.2220
1466.082591 0.1980 0.1730 0.1500 0.1041 0.1030
1470.473375 0.1040 0.1170 0.1290 0.1400 0.1610
1474.864159 0.1660 0.1690 0.1690 0.1720 0.1770
1479.254943 0.2000 0.2270 0.2620 0.2990 0.3390
1483.645726 0.3789 0.4159 0.4489 0.4889 0.5597
1488.036510 0.6060 0.6300 0.6450 0.6810 0.7100
1492.427294 0.7200 0.7310 0.7370 0.7400 0.7420
1496.818078 0.7460 0.7470 0.7470 0.7480 0.7480
1501.208862 0.7480 0.7470 0.7440 0.7430 0.7420
1505.599645 0.7400 0.7390 0.7370 0.7330 0.7320
1509.990429 0.7290 0.7260 0.7220 0.7170 0.7130
1514.381213 0.7100 0.7060 0.7040 0.7030 0.6990
1518.771997 0.6970 0.6960 0.6910 0.6840 0.6770
1523.162780 0.6740 0.6740 0.6730 0.6660 0.6620
1527.553564 0.6590 0.6560 0.6480 0.6440 0.6330
1531.944348 0.6260 0.6220 0.6160 0.6080 0.6010
1536.335132 0.5900 0.5870 0.5750 0.5680 0.5550
1540.725915 0.5430 0.5280 0.5150 0.5080 0.5030
1545.116699 0.4990 0.4930 0.4890 0.4880 0.4880
1549.507483 0.4880 0.4890 0.4910 0.4950 0.4960
1553.898267 0.4990 0.5000 0.5040 0.5130 0.5220
1558.289051 0.5330 0.5420 0.5510 0.5650 0.5800
1562.679834 0.5950 0.6010 0.6110 0.6150 0.6260
1567.070618 0.6300 0.6400 0.6420 0.6460 0.6490
1571.461402 0.6550 0.6590 0.6620 0.6640 0.6660
1575.852186 0.6670 0.6680 0.6700 0.6700 0.6710
1580.242969 0.6740 0.6780 0.6820 0.6850 0.6880
1584.633753 0.6910 0.6930 0.7020 0.7070 0.7140
1589.024537 0.7200 0.7280 0.7360 0.7460 0.7550
1593.415321 0.7660 0.7750 0.7840 0.7930 0.8060
1597.806104 0.8120 0.8200 0.8270 0.8350 0.8480
1602.196888 0.8560 0.8640 0.8700 0.8710 0.8750
1606.587672 0.8800 0.8880 0.8910 0.8930 0.8990
1610.978456 0.9070 0.9080 0.9100 0.9110 0.9130
1615.369240 0.9140 0.9150 0.9180 0.9200 0.9210
1619.760023 0.9240 0.9250 0.9260 0.9280 0.9280
1624.150807 0.9290 0.9310 0.9310 0.9320 0.9320
1628.541591 0.9320 0.9330 0.9330 0.9330 0.9350
1632.932375 0.9350 0.9350 0.9360 0.9370 0.9370
1637.323158 0.9370 0.9390 0.9390 0.9400 0.9400
1641.713942 0.9400 0.9400 0.9400 0.9400 0.9400
1646.104726 0.9400 0.9400 0.9400 0.9400 0.9400
1650.495510 0.9420 0.9420 0.9400 0.9400 0.9400
1654.886293 0.9400 0.9400 0.9400 0.9400 0.9400
1659.277077 0.9400 0.9400 0.9390 0.9400 0.9400
1663.667861 0.9400 0.9400 0.9400 0.9400 0.9400
1668.058645 0.9400 0.9400 0.9400 0.9430 0.9430
1672.449429 0.9420 0.9420 0.9420 0.9420 0.9420
1676.840212 0.9420 0.9400 0.9400 0.9400 0.9420
1681.230996 0.9420 0.9400 0.9400 0.9400 0.9400
1685.621780 0.9400 0.9400 0.9400 0.9400 0.9400
1690.012564 0.9400 0.9400 0.9400 0.9400 0.9400
1694.403347 0.9400 0.9400 0.9400 0.9400 0.9400
1698.794131 0.9400 0.9400 0.9390 0.9390 0.9390
1703.184915 0.9390 0.9390 0.9400 0.9400 0.9400
1707.575699 0.9400 0.9390 0.9390 0.9390 0.9390
1711.966483 0.9390 0.9390 0.9390 0.9400 0.9400
1716.357266 0.9400 0.9400 0.9400 0.9420 0.9420
1720.748050 0.9420 0.9420 0.9420 0.9430 0.9430
1725.138834 0.9430 0.9430 0.9440 0.9440 0.9440
1729.529618 0.9440 0.9460 0.9470 0.9470 0.9470
1733.920401 0.9470 0.9480 0.9480 0.9480 0.9500
1738.311185 0.9500 0.9510 0.9500 0.9510 0.9510
1742.701969 0.9510 0.9510 0.9510 0.9510 0.9530
1747.092753 0.9530 0.9530 0.9530 0.9540 0.9540
1751.483536 0.9550 0.9570 0.9570 0.9580 0.9600
1755.874320 0.9580 0.9600 0.9600 0.9600 0.9600
1760.265104 0.9600 0.9600 0.9600 0.9600 0.9610
1764.655888 0.9610 0.9610 0.9610 0.9620 0.9620
1769.046672 0.9620 0.9620 0.9620 0.9640 0.9640
1773.437455 0.9640 0.9640 0.9640 0.9650 0.9650
1777.828239 0.9650 0.9650 0.9650 0.9660 0.9660
1782.219023 0.9650 0.9650 0.9650 0.9650 0.9650
1786.609807 0.9650 0.9650 0.9650 0.9650 0.9650
1791.000590 0.9650 0.9650 0.9650 0.9660 0.9650
1795.391374 0.9650 0.9650 0.9650 0.9650 0.9650
1799.782158 0.9650 0.9650 0.9650 0.9650 0.9650
1804.172942 0.9650 0.9650 0.9650 0.9650 0.9650
1808.563725 0.9650 0.9650 0.9650 0.9650 0.9650
1812.954509 0.9650 0.9650 0.9660 0.9660 0.9660
1817.345293 0.9660 0.9660 0.9660 0.9660 0.9660
1821.736077 0.9660 0.9660 0.9660 0.9660 0.9660
1826.126861 0.9660 0.9660 0.9650 0.9650 0.9650
1830.517644 0.9650 0.9640 0.9640 0.9640 0.9640
1834.908428 0.9640 0.9640 0.9640 0.9620 0.9620
1839.299212 0.9620 0.9620 0.9620 0.9620 0.9620
1843.689996 0.9620 0.9640 0.9640 0.9640 0.9640
1848.080779 0.9640 0.9640 0.9650 0.9650 0.9650
1852.471563 0.9650 0.9660 0.9660 0.9660 0.9660
1856.862347 0.9660 0.9660 0.9660 0.9660 0.9650
1861.253131 0.9650 0.9660 0.9660 0.9660 0.9660
1865.643914 0.9660 0.9680 0.9680 0.9690 0.9690
1870.034698 0.9690 0.9690 0.9710 0.9710 0.9710
1874.425482 0.9710 0.9710 0.9710 0.9710 0.9710
1878.816266 0.9710 0.9710 0.9710 0.9690 0.9690
1883.207050 0.9690 0.9690 0.9710 0.9710 0.9710
1887.597833 0.9720 0.9720 0.9720 0.9720 0.9720
1891.988617 0.9720 0.9720 0.9730 0.9730 0.9730
1896.379401 0.9730 0.9730 0.9750 0.9750 0.9750
1900.770185 0.9750 0.9760 0.9760 0.9760 0.9760
1905.160968 0.9760 0.9760 0.9760 0.9760 0.9760
1909.551752 0.9760 0.9760 0.9760 0.9760 0.9760
1913.942536 0.9760 0.9760 0.9760 0.9760 0.9750
1918.333320 0.9750 0.9750 0.9750 0.9750 0.9730
1922.724103 0.9730 0.9730 0.9730 0.9730 0.9730
1927.114887 0.9720 0.9720 0.9720 0.9720 0.9730
1931.505671 0.9730 0.9720 0.9720 0.9720 0.9720
1935.896455 0.9720 0.9720 0.9720 0.9710 0.9710
1940.287239 0.9710 0.9720 0.9720 0.9720 0.9720
1944.678022 0.9720 0.9720 0.9730 0.9730 0.9730
1949.068806 0.9730 0.9730 0.9730 0.9730 0.9750
1953.459590 0.9750 0.9760 0.9760 0.9770 0.9800
1957.850374 0.9800 0.9770 0.9750 0.9720 0.9680
1962.241157 0.9680 0.9680 0.9680 0.9680 0.9660
1966.631941 0.9660 0.9660 0.9660 0.9660 0.9660
1971.022725 0.9660 0.9660 0.9650 0.9650 0.9650
1975.413509 0.9650 0.9640 0.9640 0.9640 0.9640
1979.804293 0.9640 0.9640 0.9620 0.9620 0.9620
1984.195076 0.9610 0.9610 0.9610 0.9610 0.9610
1988.585860 0.9610 0.9610 0.9610 0.9610 0.9610
1992.976644 0.9620 0.9620 0.9620 0.9620 0.9640
1997.367428 0.9640 0.9640 0.9650 0.9680 0.9695
2001.758211 0.9710 0.9715 0.9720 0.9725 0.9730
2006.148995 0.9740 0.9750 0.9750 0.9750 0.9750
2010.539779 0.9750 0.9750 0.9750 0.9750 0.9750
2014.930563 0.9750 0.9750 0.9750 0.9750 0.9750
2019.321346 0.9750 0.9750 0.9750 0.9750 0.9750
2023.712130 0.9750 0.9750 0.9750 0.9750 0.9750
2028.102914 0.9750 0.9750 0.9750 0.9755 0.9760
2032.493698 0.9760 0.9760 0.9760 0.9760 0.9760
2036.884482 0.9760 0.9760 0.9760 0.9760 0.9760
2041.275265 0.9760 0.9760 0.9760 0.9760 0.9760
2045.666049 0.9760 0.9760 0.9760 0.9760 0.9760
2050.056833 0.9760 0.9760 0.9760 0.9760 0.9760
2054.447617 0.9760 0.9760 0.9760 0.9760 0.9760
2058.838400 0.9760 0.9760 0.9760 0.9760 0.9760
2063.229184 0.9760 0.9760 0.9760 0.9760 0.9760
2067.619968 0.9760 0.9760 0.9760 0.9760 0.9760
2072.010752 0.9760 0.9760 0.9760 0.9760 0.9760
2076.401535 0.9760 0.9760 0.9760 0.9760 0.9755
2080.792319 0.9750 0.9750 0.9750 0.9750 0.9750
2085.183103 0.9750 0.9750 0.9750 0.9750 0.9750
2089.573887 0.9750 0.9750 0.9750 0.9750 0.9750
2093.964671 0.9750 0.9750 0.9750 0.9750 0.9750
2098.355454 0.9750 0.9750 0.9750 0.9750 0.9750
2102.746238 0.9750 0.9750 0.9750 0.9750 0.9750
2107.137022 0.9750 0.9750 0.9750 0.9750 0.9751
2111.527806 0.9756 0.9760 0.9760 0.9760 0.9760
2115.918589 0.9760 0.9760 0.9761 0.9766 0.9770
2120.309373 0.9770 0.9770 0.9770 0.9770 0.9770
2124.700157 0.9770 0.9770 0.9770 0.9770 0.9770
2129.090941 0.9770 0.9770 0.9770 0.9772 0.9782
2133.481724 0.9790 0.9790 0.9790 0.9790 0.9790
2137.872508 0.9790 0.9790 0.9790 0.9791 0.9796
2142.263292 0.9800 0.9800 0.9800 0.9800 0.9800
2146.654076 0.9800 0.9800 0.9800 0.9800 0.9800
2151.044860 0.9800 0.9800 0.9800 0.9800 0.9799
2155.435643 0.9794 0.9790 0.9790 0.9790 0.9790
2159.826427 0.9790 0.9790 0.9788 0.9778 0.9770
2164.217211 0.9770 0.9770 0.9770 0.9770 0.9770
2168.607995 0.9770 0.9770 0.9770 0.9770 0.9770
2172.998778 0.9770 0.9770 0.9770 0.9770 0.9770
2177.389562 0.9770 0.9770 0.9772 0.9782 0.9790
2181.780346 0.9790 0.9788 0.9778 0.9770 0.9770
2186.171130 0.9770 0.9770 0.9770 0.9770 0.9770
2190.561914 0.9770 0.9770 0.9770 0.9769 0.9764
2194.952697 0.9760 0.9760 0.9759 0.9754 0.9750
2199.343481 0.9750 0.9750 0.9750 0.9750 0.9750
2203.734265 0.9750 0.9750 0.9750 0.9750 0.9750
2208.125049 0.9750 0.9750 0.9750 0.9750 0.9750
2212.515832 0.9750 0.9750 0.9751 0.9756 0.9760
2216.906616 0.9760 0.9760 0.9760 0.9760 0.9760
2221.297400 0.9760 0.9760 0.9760 0.9760 0.9760
2225.688184 0.9760 0.9760 0.9760 0.9760 0.9760
2230.078967 0.9760 0.9760 0.9760 0.9760 0.9760
2234.469751 0.9760 0.9760 0.9760 0.9760 0.9760
2238.860535 0.9759 0.9754 0.9747 0.9737 0.9729
2243.251319 0.9724 0.9720 0.9720 0.9722 0.9727
2247.642103 0.9730 0.9730 0.9728 0.9723 0.9715
2252.032886 0.9700 0.9685 0.9670 0.9658 0.9653
2256.423670 0.9650 0.9650 0.9645 0.9630 0.9620
2260.814454 0.9620 0.9618 0.9613 0.9610 0.9610
2265.205238 0.9608 0.9603 0.9600 0.9600 0.9597
2269.596021 0.9587 0.9578 0.9573 0.9567 0.9557
2273.986805 0.9550 0.9550 0.9550 0.9550 0.9550
2278.377589 0.9550 0.9550 0.9550 0.9548 0.9543
2282.768373 0.9529 0.9499 0.9473 0.9453 0.9440
2287.159156 0.9440 0.9438 0.9433 0.9430 0.9430
2291.549940 0.9432 0.9437 0.9444 0.9454 0.9460
2295.940724 0.9460 0.9464 0.9474 0.9486 0.9501
2300.331508 0.9514 0.9524 0.9532 0.9537 0.9542
2304.722292 0.9547 0.9550 0.9550 0.9554 0.9564
2309.113075 0.9572 0.9577 0.9586 0.9601 0.9612
2313.503859 0.9617 0.9624 0.9634 0.9648 0.9668
2317.894643 0.9686 0.9701 0.9712 0.9717 0.9722
2322.285427 0.9727 0.9734 0.9744 0.9752 0.9757
2326.676210 0.9758 0.9753 0.9752 0.9757 0.9762
2331.066994 0.9767 0.9770 0.9770 0.9770 0.9770
2335.457778 0.9770 0.9770 0.9770 0.9770 0.9768
2339.848562 0.9763 0.9760 0.9760 0.9760 0.9760
2344.239345 0.9758 0.9753 0.9750 0.9750 0.9746
2348.630129 0.9736 0.9730 0.9730 0.9730 0.9730
2353.020913 0.9730 0.9730 0.9730 0.9730 0.9730
2357.411697 0.9730 0.9730 0.9730 0.9730 0.9730
2361.802481 0.9728 0.9723 0.9720 0.9720 0.9720
2366.193264 0.9720 0.9722 0.9727 0.9730 0.9730
2370.584048 0.9730 0.9730 0.9730 0.9730 0.9728
2374.974832 0.9723 0.9720 0.9720 0.9720 0.9720
2379.365616 0.9718 0.9713 0.9705 0.9695 0.9690
2383.756399 0.9690 0.9688 0.9683 0.9680 0.9680
2388.147183 0.9675 0.9665 0.9660 0.9660 0.9660
2392.537967 0.9660 0.9660 0.9660 0.9660 0.9660
2396.928751 0.9660 0.9660 0.9660 0.9660 0.9660
2401.319534 0.9660 0.9660 0.9660 0.9665 0.9675
2405.710318 0.9680 0.9680 0.9680 0.9680 0.9683
2410.101102 0.9688 0.9690 0.9690 0.9700 0.9720
2414.491886 0.9735 0.9745 0.9750 0.9750 0.9750
2418.882670 0.9750 0.9753 0.9758 0.9760 0.9760
2423.273453 0.9760 0.9760 0.9760 0.9760 0.9760
2427.664237 0.9760 0.9760 0.9760 0.9760 0.9760
2432.055021 0.9760 0.9760 0.9760 0.9760 0.9760
2436.445805 0.9760 0.9760 0.9760 0.9760 0.9760
2440.836588 0.9760 0.9760 0.9760 0.9760 0.9757
2445.227372 0.9752 0.9750 0.9750 0.9750 0.9750
2449.618156 0.9744 0.9734 0.9730 0.9730 0.9730
2454.008940 0.9730 0.9730 0.9730 0.9730 0.9730
2458.399724 0.9730 0.9730 0.9730 0.9730 0.9730
2462.790507 0.9730 0.9730 0.9730 0.9736 0.9746
2467.181291 0.9750 0.9750 0.9750 0.9750 0.9750
2471.572075 0.9750 0.9750 0.9750 0.9750 0.9750
2475.962859 0.9750 0.9750 0.9750 0.9750 0.9750
2480.353642 0.9750 0.9750 0.9750 0.9753 0.9758
2484.744426 0.9757 0.9752 0.9744 0.9734 0.9739
2489.135210 0.9754 0.9760 0.9760 0.9760 0.9760
2493.525994 0.9757 0.9752 0.9750 0.9750 0.9750
2497.916777 0.9750 0.9750 0.9750 0.9750 0.9750
2502.307561 0.9753 0.9758 0.9760 0.9760 0.9760
2506.698345 0.9760 0.9760 0.9760 0.9763 0.9768
2511.089129 0.9770 0.9770 0.9767 0.9762 0.9760
2515.479913 0.9760 0.9760 0.9760 0.9760 0.9760
2519.870696 0.9760 0.9760 0.9760 0.9760 0.9760
2524.261480 0.9760 0.9760 0.9760 0.9760 0.9760
2528.652264 0.9757 0.9752 0.9750 0.9750 0.9743
2533.043048 0.9733 0.9730 0.9730 0.9727 0.9722
2537.433831 0.9720 0.9720 0.9720 0.9720 0.9720
2541.824615 0.9720 0.9710 0.9695 0.9690 0.9690
2546.215399 0.9687 0.9682 0.9673 0.9663 0.9657
2550.606183 0.9652 0.9647 0.9642 0.9630 0.9615
2554.996966 0.9610 0.9610 0.9607 0.9602 0.9593
2559.387750 0.9583 0.9577 0.9571 0.9570 0.9570
2563.778534 0.9570 0.9570 0.9563 0.9553 0.9557
2568.169318 0.9567 0.9563 0.9553 0.9546 0.9541
2572.560102 0.9536 0.9531 0.9530 0.9530 0.9530
2576.950885 0.9530 0.9519 0.9504 0.9500 0.9500
2581.341669 0.9493 0.9483 0.9480 0.9480 0.9480
2585.732453 0.9480 0.9480 0.9480 0.9480 0.9480
2590.123237 0.9480 0.9480 0.9480 0.9480 0.9480
2594.514020 0.9480 0.9480 0.9480 0.9480 0.9480
2598.904804 0.9480 0.9480 0.9480 0.9480 0.9480
2603.295588 0.9480 0.9476 0.9471 0.9470 0.9470
2607.686372 0.9470 0.9470 0.9470 0.9470 0.9466
2612.077155 0.9461 0.9460 0.9460 0.9452 0.9442
2616.467939 0.9436 0.9431 0.9430 0.9430 0.9426
2620.858723 0.9421 0.9412 0.9402 0.9400 0.9400
2625.249507 0.9400 0.9400 0.9400 0.9400 0.9400
2629.640291 0.9400 0.9408 0.9418 0.9420 0.9420
2634.031074 0.9420 0.9420 0.9420 0.9420 0.9420
2638.421858 0.9420 0.9420 0.9420 0.9420 0.9420
2642.812642 0.9424 0.9429 0.9434 0.9439 0.9440
2647.203426 0.9440 0.9440 0.9440 0.9440 0.9440
2651.594209 0.9440 0.9440 0.9448 0.9458 0.9452
2655.984993 0.9442 0.9440 0.9440 0.9432 0.9422
2660.375777 0.9412 0.9402 0.9396 0.9391 0.9382
2664.766561 0.9372 0.9366 0.9361 0.9356 0.9351
2669.157345 0.9342 0.9332 0.9322 0.9312 0.9289
2673.548128 0.9264 0.9252 0.9242 0.9232 0.9222
2677.938912 0.9220 0.9220 0.9212 0.9202 0.9179
2682.329696 0.9154 0.9142 0.9131 0.9130 0.9130
2686.720480 0.9130 0.9130 0.9130 0.9130 0.9130
2691.111263 0.9130 0.9130 0.9130 0.9130 0.9130
2695.502047 0.9121 0.9111 0.9110 0.9110 0.9106
2699.892831 0.9101 0.9100 0.9100 0.9091 0.9081
2704.283615 0.9062 0.9042 0.9031 0.9021 0.8994
2708.674398 0.8964 0.8912 0.8857 0.8757 0.8652
2713.065182 0.8600 0.8555 0.8532 0.8512 0.8510
2717.455966 0.8510 0.8550 0.8596 0.8659 0.8724
2721.846750 0.8784 0.8844 0.8868 0.8888 0.8922
2726.237534 0.8957 0.8965 0.8970 0.8970 0.8970
2730.628317 0.8979 0.8989 0.8990 0.8990 0.8981
2735.019101 0.8971 0.8970 0.8970 0.8961 0.8951
2739.409885 0.8918 0.8883 0.8861 0.8841 0.8840
2743.800669 0.8840 0.8845 0.8850 0.8869 0.8889
2748.191452 0.8918 0.8948 0.8969 0.8989 0.9004
2752.582236 0.9019 0.9020 0.9020 0.9020 0.9020
2756.973020 0.9025 0.9030 0.9030 0.9030 0.9035
2761.363804 0.9040 0.9049 0.9059 0.9060 0.9060
2765.754587 0.9060 0.9060 0.9051 0.9041 0.9031
2770.145371 0.9021 0.9006 0.8990 0.8975 0.8960
2774.536155 0.8945 0.8930 0.8920 0.8910 0.8900
2778.926939 0.8890 0.8875 0.8860 0.8836 0.8811
2783.317723 0.8795 0.8780 0.8775 0.8770 0.8760
2787.708506 0.8750 0.8740 0.8730 0.8715 0.8700
2792.099290 0.8650 0.8600 0.8565 0.8530 0.8525
2796.490074 0.8520 0.8466 0.8411 0.8356 0.8300
2800.880858 0.8245 0.8190 0.8135 0.8080 0.8016
2805.271641 0.7951 0.7940 0.7929 0.7829 0.7729
2809.662425 0.7619 0.7509 0.7414 0.7319 0.7269
2814.053209 0.7220 0.7185 0.7150 0.7115 0.7079
2818.443993 0.7014 0.6949 0.6894 0.6839 0.6754
2822.834776 0.6669 0.6593 0.6518 0.6468 0.6417
2827.225560 0.6337 0.6258 0.6208 0.6153 0.5948
2831.616344 0.5743 0.5548 0.5359 0.5319 0.5273
2836.007128 0.5062 0.4855 0.4705 0.4555 0.4430
2840.397912 0.4304 0.4153 0.4002 0.3862 0.3721
2844.788695 0.3566 0.3419 0.3404 0.3390 0.3390
2849.179479 0.3390 0.3390 0.3389 0.3374 0.3358
2853.570263 0.3323 0.3288 0.3248 0.3206 0.3141
2857.961047 0.3065 0.2802 0.2539 0.2269 0.2004
2862.351830 0.1794 0.1585 0.1390 0.1204 0.1129
2866.742614 0.1044 0.0844 0.0650 0.0520 0.0399
2871.133398 0.0389 0.0380 0.0380 0.0381 0.0391
2875.524182 0.0404 0.0449 0.0496 0.0561 0.0626
2879.914965 0.0686 0.0744 0.0784 0.0821 0.0831
2884.305749 0.0840 0.0840 0.0837 0.0807 0.0777
2888.696533 0.0752 0.0728 0.0713 0.0696 0.0656
2893.087317 0.0609 0.0498 0.0398 0.0383 0.0368
2897.478101 0.0348 0.0327 0.0302 0.0279 0.0274
2901.868884 0.0270 0.0270 0.0270 0.0270 0.0271
2906.259668 0.0276 0.0283 0.0308 0.0332 0.0352
2910.650452 0.0372 0.0387 0.0403 0.0423 0.0441
2915.041236 0.0451 0.0466 0.0511 0.0555 0.0590
2919.432019 0.0620 0.0620 0.0619 0.0609 0.0597
2923.822803 0.0577 0.0557 0.0537 0.0515 0.0480
2928.213587 0.0445 0.0409 0.0374 0.0339 0.0303
2932.604371 0.0258 0.0214 0.0179 0.0147 0.0132
2936.995155 0.0119 0.0114 0.0107 0.0092 0.0078
2941.385938 0.0068 0.0059 0.0054 0.0050 0.0050
2945.776722 0.0050 0.0050 0.0050 0.0050 0.0050
2950.167506 0.0050 0.0050 0.0050 0.0050 0.0050
2954.558290 0.0050 0.0050 0.0050 0.0050 0.0050
2958.949073 0.0050 0.0051 0.0056 0.0060 0.0060
2963.339857 0.0060 0.0060 0.0060 0.0060 0.0062
2967.730641 0.0072 0.0081 0.0086 0.0092 0.0102
2972.121425 0.0112 0.0122 0.0133 0.0148 0.0175
2976.512208 0.0245 0.0311 0.0361 0.0429 0.0564
2980.902992 0.0696 0.0817 0.0940 0.1070 0.1171
2985.293776 0.1176 0.1226 0.1426 0.1626 0.1826
2989.684560 0.2029 0.2239 0.2447 0.2647 0.2844
2994.075344 0.3034 0.3222 0.3402 0.3569 0.3694
2998.466127 0.3822 0.3958 0.4168 0.4593 0.4967
3002.856911 0.5192 0.5425 0.5680 0.5889 0.5964
3007.247695 0.6070 0.6265 0.6461 0.6661 0.6898
3011.638479 0.7243 0.7501 0.7506 0.7533 0.7623
3016.029262 0.7713 0.7804 0.7895 0.7985 0.8069
3020.420046 0.8139 0.8205 0.8260 0.8315 0.8370
3024.810830 0.8420 0.8455 0.8481 0.8486 0.8505
3029.201614 0.8560 0.8614 0.8664 0.8714 0.8764
3033.592397 0.8811 0.8852 0.8884 0.8899 0.8917
3037.983181 0.8942 0.8969 0.8999 0.9027 0.9052
3042.373965 0.9076 0.9096 0.9110 0.9110 0.9113
3046.764749 0.9123 0.9131 0.9136 0.9144 0.9159
3051.155533 0.9176 0.9196 0.9212 0.9217 0.9223
3055.546316 0.9233 0.9242 0.9247 0.9252 0.9257
3059.937100 0.9263 0.9273 0.9282 0.9287 0.9293
3064.327884 0.9303 0.9310 0.9310 0.9312 0.9317
3068.718668 0.9320 0.9320 0.9322 0.9327 0.9335
3073.109451 0.9350 0.9360 0.9360 0.9362 0.9367
3077.500235 0.9370 0.9370 0.9373 0.9383 0.9390
3081.891019 0.9390 0.9392 0.9397 0.9400 0.9400
3086.281803 0.9403 0.9414 0.9420 0.9420 0.9420
3090.672586 0.9420 0.9420 0.9420 0.9420 0.9420
3095.063370 0.9420 0.9420 0.9422 0.9427 0.9430
3099.454154 0.9430 0.9430 0.9430 0.9430 0.9430
3103.844938 0.9430 0.9430 0.9430 0.9430 0.9428
3108.235722 0.9423 0.9420 0.9420 0.9420 0.9420
3112.626505 0.9420 0.9420 0.9420 0.9420 0.9416
3117.017289 0.9406 0.9400 0.9400 0.9398 0.9393
3121.408073 0.9386 0.9376 0.9370 0.9370 0.9370
3125.798857 0.9370 0.9368 0.9363 0.9360 0.9360
3130.189640 0.9358 0.9353 0.9350 0.9350 0.9346
3134.580424 0.9336 0.9330 0.9330 0.9328 0.9323
3138.971208 0.9318 0.9313 0.9310 0.9310 0.9306
3143.361992 0.9296 0.9290 0.9290 0.9288 0.9283
3147.752776 0.9280 0.9280 0.9276 0.9266 0.9260
3152.143559 0.9260 0.9258 0.9253 0.9250 0.9250
3156.534343 0.9250 0.9250 0.9248 0.9243 0.9240
3160.925127 0.9240 0.9240 0.9240 0.9235 0.9225
3165.315911 0.9220 0.9220 0.9218 0.9213 0.9210
3169.706694 0.9210 0.9210 0.9210 0.9208 0.9203
3174.097478 0.9200 0.9200 0.9200 0.9200 0.9200
3178.488262 0.9200 0.9200 0.9200 0.9200 0.9200
3182.879046 0.9200 0.9200 0.9200 0.9200 0.9200
3187.269829 0.9200 0.9200 0.9200 0.9200 0.9200
3191.660613 0.9202 0.9207 0.9210 0.9210 0.9210
3196.051397 0.9210 0.9210 0.9210 0.9210 0.9210
3200.442181 0.9210 0.9210 0.9212 0.9217 0.9220
3204.832965 0.9220 0.9220 0.9220 0.9220 0.9220
3209.223748 0.9225 0.9235 0.9243 0.9248 0.9253
3213.614532 0.9258 0.9260 0.9260 0.9265 0.9275
3218.005316 0.9283 0.9288 0.9295 0.9305 0.9310
3222.396100 0.9310 0.9313 0.9318 0.9320 0.9320
3226.786883 0.9323 0.9328 0.9335 0.9345 0.9355
3231.177667 0.9365 0.9375 0.9385 0.9393 0.9398
3235.568451 0.9408 0.9423 0.9430 0.9430 0.9433
3239.959235 0.9438 0.9445 0.9455 0.9463 0.9468
3244.350018 0.9473 0.9478 0.9480 0.9480 0.9486
3248.740802 0.9496 0.9503 0.9508 0.9510 0.9510
3253.131586 0.9516 0.9526 0.9530 0.9530 0.9533
3257.522370 0.9538 0.9540 0.9540 0.9543 0.9548
3261.913154 0.9559 0.9574 0.9586 0.9596 0.9603
3266.303937 0.9608 0.9613 0.9618 0.9620 0.9620
3270.694721 0.9626 0.9636 0.9640 0.9640 0.9640
3275.085505 0.9640 0.9643 0.9648 0.9650 0.9650
3279.476289 0.9650 0.9650 0.9650 0.9650 0.9653
3283.867072 0.9658 0.9660 0.9660 0.9660 0.9660
3288.257856 0.9660 0.9660 0.9660 0.9660 0.9660
3292.648640 0.9660 0.9660 0.9660 0.9660 0.9660
3297.039424 0.9660 0.9660 0.9660 0.9660 0.9660
3301.430207 0.9660 0.9660 0.9660 0.9660 0.9660
3305.820991 0.9660 0.9660 0.9660 0.9660 0.9666
3310.211775 0.9676 0.9680 0.9680 0.9680 0.9680
3314.602559 0.9680 0.9680 0.9680 0.9680 0.9680
3318.993343 0.9680 0.9683 0.9688 0.9690 0.9690
3323.384126 0.9696 0.9706 0.9710 0.9710 0.9710
3327.774910 0.9710 0.9710 0.9710 0.9710 0.9710
3332.165694 0.9710 0.9710 0.9713 0.9718 0.9720
3336.556478 0.9720 0.9720 0.9720 0.9720 0.9720
3340.947261 0.9720 0.9720 0.9720 0.9720 0.9720
3345.338045 0.9720 0.9720 0.9720 0.9720 0.9720
3349.728829 0.9720 0.9720 0.9720 0.9720 0.9723
3354.119613 0.9728 0.9730 0.9730 0.9730 0.9730
3358.510396 0.9730 0.9730 0.9730 0.9730 0.9730
3362.901180 0.9730 0.9730 0.9730 0.9730 0.9730
3367.291964 0.9730 0.9730 0.9730 0.9730 0.9730
3371.682748 0.9730 0.9737 0.9747 0.9750 0.9750
3376.073532 0.9750 0.9750 0.9750 0.9750 0.9754
3380.464315 0.9759 0.9764 0.9769 0.9770 0.9770
3384.855099 0.9770 0.9770 0.9770 0.9770 0.9770
3389.245883 0.9770 0.9770 0.9770 0.9770 0.9770
3393.636667 0.9770 0.9770 0.9770 0.9770 0.9770
3398.027450 0.9770 0.9766 0.9761 0.9760 0.9760
3402.418234 0.9764 0.9769 0.9770 0.9770 0.9770
3406.809018 0.9770 0.9770 0.9770 0.9778 0.9788
3411.199802 0.9794 0.9799 0.9808 0.9818 0.9824
3415.590586 0.9829 0.9834 0.9839 0.9840 0.9840
3419.981369 0.9848 0.9858 0.9864 0.9869 0.9874
3424.372153 0.9879 0.9880 0.9880 0.9880 0.9880
3428.762937 0.9888 0.9898 0.9900 0.9900 0.9900
3433.153721 0.9900 0.9900 0.9900 0.9900 0.9900
3437.544504 0.9900 0.9900 0.9900 0.9900 0.9900
3441.935288 0.9900 0.9900 0.9900 0.9904 0.9909
3446.326072 0.9906 0.9901 0.9900 0.9900 0.9900
3450.716856 0.9900 0.9900 0.9900 0.9904 0.9909
3455.107639 0.9910 0.9910 0.9910 0.9910 0.9910
3459.498423 0.9910 0.9910 0.9910 0.9910 0.9910
3463.889207 0.9910 0.9910 0.9910 0.9910 0.9910
3468.279991 0.9910 0.9910 0.9910 0.9910 0.9910
3472.670775 0.9910 0.9910 0.9910 0.9910 0.9910
3477.061558 0.9910 0.9910 0.9910 0.9918 0.9928
3481.452342 0.9934 0.9939 0.9940 0.9940 0.9940
3485.843126 0.9940 0.9944 0.9949 0.9950 0.9950
3490.233910 0.9950 0.9950 0.9950 0.9950 0.9950
3494.624693 0.9950 0.9950 0.9950 0.9959 0.9969
3499.015477 0.9970 0.9970 0.9970 0.9970 0.9970
3503.406261 0.9970 0.9970 0.9970 0.9970 0.9970
3507.797045 0.9970 0.9970 0.9970 0.9970 0.9970
3512.187828 0.9970 0.9970 0.9970 0.9970 0.9970
3516.578612 0.9974 0.9979 0.9989 0.9999 1.0000
3520.969396 1.0000 0.9991 0.9981 0.9980 0.9980
3525.360180 0.9980 0.9980 0.9980 0.9980 0.9989
3529.750964 0.9999 1.0000 1.0000 0.9991 0.9981
3534.141747 0.9980 0.9980 0.9980 0.9980 0.9980
3538.532531 0.9980 0.9989 0.9999 1.0000 1.0000
3542.923315 1.0000 1.0000 1.0000 1.0000 0.9991
3547.314099 0.9981 0.9980 0.9980 0.9980 0.9980
3551.704882 0.9980 0.9980 0.9980 0.9980 0.9980
3556.095666 0.9980 0.9980 0.9980 0.9980 0.9980
3560.486450 0.9980 0.9980 0.9990 1.0000 1.0000
3564.877234 1.0000 1.0000 1.0000 1.0000 1.0000
3569.268017 0.9990 0.9980 0.9980 0.9980 0.9990
3573.658801 1.0000 1.0000 1.0000 1.0005 1.0010
3578.049585 1.0005 1.0000 1.0000 1.0000 1.0000
3582.440369 1.0000 1.0000 1.0000 1.0000 1.0000
3586.831153 1.0005 1.0010 1.0010 1.0010 1.0010
3591.221936 1.0010 1.0010 1.0010 1.0010 1.0010
3595.612720 1.0010 1.0010 1.0015 1.0020 1.0020
3600.003504 1.0020 1.0030 1.0040 1.0040 1.0040
3604.394288 1.0040 1.0040 1.0030 1.0020 1.0020
3608.785071 1.0020 1.0020 1.0020 1.0020 1.0020
3613.175855 1.0020 1.0020 1.0015 1.0010 1.0010
3617.566639 1.0010 1.0010 1.0010 1.0010 1.0010
3621.957423 1.0010 1.0010 1.0010 1.0010 1.0010
3626.348207 1.0010 1.0005 1.0000 1.0000 1.0000
3630.738990 1.0005 1.0010 1.0010 1.0010 1.0010
3635.129774 1.0010 1.0015 1.0020 1.0020 1.0020
3639.520558 1.0020 1.0020 1.0020 1.0020 1.0020
3643.911342 1.0020 1.0020 1.0020 1.0020 1.0020
3648.302125 1.0020 1.0020 1.0020 1.0020 1.0020
3652.692909 1.0020 1.0020 1.0020 1.0015 1.0010
3657.083693 1.0010 1.0010 1.0010 1.0010 1.0010
3661.474477 1.0010 1.0010 1.0010 1.0010 1.0010
3665.865260 1.0010 1.0010 1.0010 1.0010 1.0015
3670.256044 1.0020 1.0015 1.0010 1.0010 1.0010
3674.646828 1.0010 1.0010 1.0010 1.0010 1.0010
3679.037612 1.0010 1.0005 1.0000 1.0000 1.0000
3683.428396 1.0000 1.0000 1.0000 0.9999 0.9989
3687.819179 0.9980 0.9980 0.9980 0.9980 0.9980
3692.209963 0.9980 0.9980 0.9980 0.9981 0.9991
3696.600747 1.0000 1.0000 1.0001 1.0006 1.0011
3700.991531 1.0016 1.0020 1.0020 1.0020 1.0020
3705.382314 1.0019 1.0014 1.0010 1.0010 1.0010
3709.773098 1.0010 1.0010 1.0010 1.0011 1.0016
3714.163882 1.0021 1.0031 1.0041 1.0046 1.0050
3718.554666 1.0050 1.0050 1.0050 1.0051 1.0056
3722.945449 1.0060 1.0060 1.0060 1.0060 1.0060
3727.336233 1.0060 1.0060 1.0060 1.0059 1.0054
3731.727017 1.0049 1.0044 1.0040 1.0040 1.0038
3736.117801 1.0028 1.0020 1.0020 1.0019 1.0014
3740.508585 1.0010 1.0010 1.0010 1.0010 1.0010
3744.899368 1.0010 1.0011 1.0016 1.0020 1.0020
3749.290152 1.0020 1.0020 1.0023 1.0038 1.0050
3753.680936 1.0050 1.0051 1.0056 1.0060 1.0060
3758.071720 1.0060 1.0060 1.0059 1.0054 1.0049
3762.462503 1.0044 1.0037 1.0022 1.0010 1.0010
3766.853287 1.0009 1.0004 1.0000 1.0000 1.0000
3771.244071 1.0000 1.0000 1.0000 0.9998 0.9988
3775.634855 0.9980 0.9980 0.9980 0.9980 0.9980
3780.025638 0.9980 0.9979 0.9974 0.9970 0.9970
3784.416422 0.9970 0.9970 0.9970 0.9970 0.9970
3788.807206 0.9970 0.9971 0.9976 0.9980 0.9980
3793.197990 0.9982 0.9992 1.0000 1.0000 1.0001
3797.588774 1.0006
##END=
