##TITLE=PROPANE, 1-CHLORO-
##JCAMP-DX=4.24
##DATA TYPE=INFRARED SPECTRUM
##CLASS=COBLENTZ III
##ORIGIN=DOW CHEMICAL COMPANY
##OWNER=COBLENTZ SOCIETY
Collection (C) 2018 copyright by the U.S. Secretary of Commerce
on behalf of the United States of America. All rights reserved.
##DATE=1960/09/15
##NAMES=1-chloropropane
##CAS REGISTRY NO=540-54-5
##MOLFORM=C3 H7 Cl
##SOURCE REFERENCE=COBLENTZ NO. 10014
##$NIST SOURCE=COBLENTZ
##$NIST IMAGE=cob10014
##SPECTROMETER/DATA SYSTEM=DOW KBr FOREPRISM-GRATING
##INSTRUMENT PARAMETERS=BLAZED AT 3.5, 12.0, 20.0 MICRON, CHANGED AT 5.0, 7.5, 14.9 MICRON
##STATE=SOLUTION (10% IN CCl4 FOR 3800-1333, AND 10% IN CS2 FOR 1333-440 CM^-^1)
##PATH LENGTH=0.011, 0.011 CM
$$SPECTRAL CONTAMINATION DUE TO CCl4 AROUND 1550 CM^-^1
##SAMPLING PROCEDURE=TRANSMISSION
##RESOLUTION=4
##DATA PROCESSING=DIGITIZED BY NIST FROM HARD COPY (FROM TWO SEGMENTS)
##XUNITS=1/CM
##YUNITS=TRANSMITTANCE
##XFACTOR=1.000000
##YFACTOR=1
##DELTAX=0.869095
##FIRSTX=431.287
##LASTX=3803.37
##FIRSTY=0.982
##MAXX=3803.37
##MINX=431.287
##MAXY=1.114
##MINY=0.031
##NPOINTS=3881
##XYDATA=(X++(Y..Y))
431.287000 0.9820 0.9830 0.9850 0.9860 0.9860
435.632473 0.9860 0.9870 0.9870 0.9900 0.9900
439.977947 0.9900 0.9910 0.9910 0.9930 0.9940
444.323420 0.9950 0.9950 1.0000 1.0010 1.0010
448.668893 1.0020 1.0020 1.0040 1.0050 1.0050
453.014367 1.0050 1.0060 1.0080 1.0080 1.0090
457.359840 1.0100 1.0120 1.0120 1.0130 1.0130
461.705313 1.0140 1.0160 1.0170 1.0190 1.0200
466.050787 1.0210 1.0230 1.0230 1.0230 1.0230
470.396260 1.0240 1.0240 1.0240 1.0250 1.0240
474.741733 1.0250 1.0280 1.0280 1.0290 1.0290
479.087207 1.0290 1.0310 1.0320 1.0320 1.0330
483.432680 1.0350 1.0360 1.0360 1.0380 1.0390
487.778153 1.0400 1.0400 1.0420 1.0420 1.0430
492.123627 1.0440 1.0440 1.0460 1.0470 1.0470
496.469100 1.0470 1.0480 1.0480 1.0470 1.0470
500.814573 1.0480 1.0480 1.0480 1.0480 1.0480
505.160047 1.0500 1.0500 1.0510 1.0520 1.0520
509.505520 1.0520 1.0520 1.0520 1.0540 1.0540
513.850993 1.0540 1.0550 1.0550 1.0570 1.0570
518.196467 1.0570 1.0580 1.0580 1.0590 1.0610
522.541940 1.0610 1.0620 1.0620 1.0620 1.0630
526.887413 1.0660 1.0670 1.0690 1.0700 1.0700
531.232887 1.0700 1.0700 1.0720 1.0720 1.0720
535.578360 1.0720 1.0730 1.0730 1.0730 1.0730
539.923833 1.0730 1.0730 1.0740 1.0760 1.0760
544.269307 1.0770 1.0770 1.0760 1.0760 1.0770
548.614780 1.0770 1.0770 1.0770 1.0770 1.0780
552.960253 1.0780 1.0780 1.0780 1.0780 1.0770
557.305727 1.0770 1.0780 1.0780 1.0780 1.0780
561.651200 1.0780 1.0780 1.0780 1.0780 1.0780
565.996673 1.0800 1.0800 1.0780 1.0780 1.0780
570.342147 1.0780 1.0780 1.0780 1.0780 1.0780
574.687620 1.0780 1.0780 1.0780 1.0780 1.0780
579.033093 1.0780 1.0780 1.0780 1.0780 1.0780
583.378567 1.0770 1.0760 1.0740 1.0730 1.0700
587.724040 1.0700 1.0700 1.0670 1.0660 1.0660
592.069513 1.0660 1.0660 1.0650 1.0650 1.0650
596.414987 1.0630 1.0580 1.0540 1.0520 1.0500
600.760460 1.0480 1.0460 1.0460 1.0430 1.0420
605.105933 1.0400 1.0390 1.0380 1.0360 1.0350
609.451407 1.0350 1.0350 1.0350 1.0350 1.0350
613.796880 1.0330 1.0330 1.0330 1.0320 1.0280
618.142353 1.0280 1.0270 1.0250 1.0230 1.0140
622.487827 1.0090 1.0060 1.0040 1.0010 0.9980
626.833300 0.9950 0.9850 0.9750 0.9631 0.9560
631.178773 0.9520 0.9330 0.9110 0.8910 0.8701
635.524247 0.8471 0.8191 0.7931 0.7631 0.7391
639.869720 0.7100 0.7010 0.6900 0.6421 0.5921
644.215193 0.5422 0.4942 0.4442 0.4181 0.3921
648.560667 0.3320 0.2731 0.2700 0.2710 0.2880
652.906140 0.3089 0.4027 0.4697 0.5267 0.5907
657.251613 0.7021 0.7740 0.8270 0.8720 0.8920
661.597087 0.9100 0.9220 0.9549 0.9680 0.9760
665.942560 0.9800 0.9830 0.9860 0.9900 1.0000
670.288033 1.0040 1.0130 1.0160 1.0170 1.0309
674.633507 1.0320 1.0350 1.0380 1.0400 1.0430
678.978980 1.0470 1.0500 1.0520 1.0540 1.0540
683.324453 1.0540 1.0520 1.0520 1.0520 1.0520
687.669927 1.0510 1.0510 1.0510 1.0510 1.0480
692.015400 1.0480 1.0480 1.0470 1.0470 1.0460
696.360873 1.0430 1.0400 1.0350 1.0320 1.0290
700.706347 1.0250 1.0230 1.0190 1.0120 1.0040
705.051820 1.0020 1.0000 0.9970 0.9860 0.9750
709.397293 0.9590 0.9530 0.9340 0.9130 0.8950
713.742767 0.8750 0.8491 0.8261 0.8160 0.8021
718.088240 0.7500 0.7020 0.6840 0.6650 0.6301
722.433713 0.5931 0.5432 0.4892 0.4551 0.4480
726.779187 0.4480 0.4490 0.4520 0.4530 0.4600
731.124660 0.4670 0.4710 0.4889 0.5139 0.5439
735.470133 0.5810 0.6180 0.6989 0.7519 0.7809
739.815607 0.8089 0.8220 0.8320 0.8459 0.8599
744.161080 0.8700 0.8880 0.8980 0.9180 0.9340
748.506553 0.9559 0.9719 0.9780 0.9860 1.0019
752.852027 1.0100 1.0140 1.0160 1.0170 1.0200
757.197500 1.0200 1.0200 1.0190 1.0190 1.0190
761.542973 1.0190 1.0170 1.0160 1.0130 1.0130
765.888447 1.0080 1.0010 1.0000 0.9980 0.9910
770.233920 0.9860 0.9790 0.9760 0.9660 0.9550
774.579393 0.9440 0.9340 0.9151 0.9001 0.8731
778.924867 0.8380 0.8260 0.7940 0.7550 0.7031
783.270340 0.6681 0.6331 0.5502 0.5012 0.4044
787.615813 0.3080 0.2820 0.2820 0.2880 0.3130
791.961287 0.4128 0.5058 0.5648 0.7065 0.7429
796.306760 0.7830 0.8380 0.8800 0.9150 0.9420
800.652233 0.9530 0.9640 0.9790 1.0019 1.0090
804.997707 1.0140 1.0210 1.0270 1.0330 1.0380
809.343180 1.0390 1.0460 1.0470 1.0510 1.0550
813.688653 1.0570 1.0580 1.0580 1.0590 1.0590
818.034127 1.0580 1.0580 1.0580 1.0570 1.0550
822.379600 1.0550 1.0550 1.0540 1.0540 1.0520
826.725073 1.0500 1.0480 1.0470 1.0440 1.0420
831.070547 1.0390 1.0330 1.0290 1.0240 1.0210
835.416020 1.0120 1.0020 0.9980 0.9930 0.9751
839.761493 0.9700 0.9550 0.9380 0.9150 0.8940
844.106967 0.8800 0.8581 0.8411 0.8151 0.7901
848.452440 0.7540 0.7180 0.7010 0.6630 0.6231
852.797913 0.6180 0.6050 0.6010 0.6030 0.6080
857.143387 0.6390 0.7260 0.7670 0.7790 0.7930
861.488860 0.8120 0.8339 0.8529 0.8640 0.8730
865.834333 0.8760 0.8880 0.8960 0.9040 0.9110
870.179807 0.9130 0.9150 0.9180 0.9190 0.9210
874.525280 0.9210 0.9210 0.9210 0.9190 0.9150
878.870753 0.9110 0.9080 0.9040 0.9020 0.8940
883.216227 0.8840 0.8760 0.8640 0.8490 0.8201
887.561700 0.7941 0.7631 0.7351 0.7091 0.6821
891.907173 0.6540 0.6070 0.5770 0.5500 0.5420
896.252647 0.5310 0.5200 0.5200 0.5907 0.7025
900.598120 0.7581 0.8051 0.8770 0.9220 0.9530
904.943593 0.9700 1.0039 1.0210 1.0270 1.0350
909.289067 1.0390 1.0470 1.0470 1.0510 1.0590
913.634540 1.0630 1.0670 1.0720 1.0740 1.0800
917.980013 1.0800 1.0820 1.0850 1.0890 1.0920
922.325487 1.0920 1.0960 1.0960 1.0970 1.0990
926.670960 1.0990 1.1010 1.1010 1.1030 1.1030
931.016433 1.1040 1.1040 1.1040 1.1040 1.1050
935.361907 1.1050 1.1050 1.1040 1.1040 1.1040
939.707380 1.1040 1.1030 1.1010 1.1000 1.0990
944.052853 1.0990 1.0990 1.0990 1.1010 1.1010
948.398327 1.1010 1.0990 1.0990 1.0990 1.0990
952.743800 1.0990 1.1000 1.1010 1.1030 1.1040
957.089273 1.1070 1.1080 1.1080 1.1100 1.1100
961.434747 1.1100 1.1100 1.1100 1.1100 1.1100
965.780220 1.1100 1.1100 1.1100 1.1100 1.1100
970.125693 1.1100 1.1100 1.1100 1.1100 1.1100
974.471167 1.1100 1.1080 1.1080 1.1050 1.1050
978.816640 1.1040 1.1030 1.1010 1.0970 1.0960
983.162113 1.0960 1.0960 1.0950 1.0930 1.0930
987.507587 1.0930 1.0920 1.0920 1.0920 1.0920
991.853060 1.0920 1.0920 1.0910 1.0910 1.0910
996.198533 1.0910 1.0910 1.0890 1.0890 1.0860
1000.544007 1.0850 1.0840 1.0820 1.0810 1.0800
1004.889480 1.0800 1.0780 1.0740 1.0730 1.0720
1009.234953 1.0700 1.0660 1.0650 1.0630 1.0610
1013.580427 1.0580 1.0550 1.0540 1.0470 1.0460
1017.925900 1.0380 1.0280 1.0240 1.0170 1.0090
1022.271373 1.0040 0.9970 0.9720 0.9550 0.9530
1026.616847 0.9530 0.9550 0.9550 0.9550 0.9550
1030.962320 0.9560 0.9560 0.9560 0.9560 0.9560
1035.307793 0.9590 0.9680 0.9780 0.9790 0.9800
1039.653267 0.9850 1.0000 1.0040 1.0090 1.0160
1043.998740 1.0230 1.0270 1.0280 1.0290 1.0290
1048.344213 1.0290 1.0290 1.0290 1.0290 1.0280
1052.689687 1.0250 1.0240 1.0210 1.0160 1.0080
1057.035160 1.0010 0.9970 0.9930 0.9910 0.9930
1061.380633 1.0000 1.0020 1.0090 1.0140 1.0160
1065.726107 1.0190 1.0190 1.0170 1.0130 1.0120
1070.071580 1.0120 1.0120 1.0120 1.0120 1.0130
1074.417053 1.0190 1.0230 1.0270 1.0290 1.0320
1078.762527 1.0330 1.0350 1.0360 1.0380 1.0380
1083.108000 1.0380 1.0380 1.0380 1.0390 1.0400
1087.453473 1.0420 1.0430 1.0430 1.0440 1.0440
1091.798947 1.0460 1.0470 1.0470 1.0470 1.0470
1096.144420 1.0470 1.0470 1.0480 1.0480 1.0480
1100.489893 1.0480 1.0500 1.0520 1.0540 1.0580
1104.835367 1.0610 1.0630 1.0660 1.0720 1.0730
1109.180840 1.0740 1.0760 1.0780 1.0800 1.0810
1113.526313 1.0820 1.0850 1.0850 1.0880 1.0890
1117.871787 1.0910 1.0910 1.0950 1.0960 1.0970
1122.217260 1.0970 1.0970 1.0970 1.0970 1.0960
1126.562733 1.0960 1.0960 1.0960 1.0960 1.0930
1130.908207 1.0920 1.0910 1.0910 1.0890 1.0890
1135.253680 1.0890 1.0890 1.0890 1.0910 1.0910
1139.599153 1.0920 1.0930 1.0930 1.0930 1.0930
1143.944627 1.0930 1.0920 1.0920 1.0920 1.0910
1148.290100 1.0910 1.0910 1.0920 1.0920 1.0920
1152.635573 1.0960 1.0970 1.1010 1.1040 1.1070
1156.981047 1.1100 1.1120 1.1120 1.1140 1.1140
1161.326520 1.1140 1.1140 1.1140 1.1140 1.1120
1165.671993 1.1120 1.1120 1.1110 1.1110 1.1100
1170.017467 1.1080 1.1070 1.1050 1.1030 1.1000
1174.362940 1.0990 1.0990 1.1000 1.1010 1.1040
1178.708413 1.1050 1.1070 1.1070 1.1050 1.1050
1183.053887 1.1040 1.1010 1.1000 1.0990 1.0970
1187.399360 1.0970 1.0970 1.0960 1.0950 1.0920
1191.744833 1.0910 1.0890 1.0860 1.0850 1.0810
1196.090307 1.0780 1.0730 1.0720 1.0660 1.0610
1200.435780 1.0550 1.0510 1.0480 1.0470 1.0470
1204.781253 1.0470 1.0470 1.0480 1.0510 1.0510
1209.126727 1.0520 1.0540 1.0540 1.0540 1.0540
1213.472200 1.0540 1.0520 1.0520 1.0520 1.0510
1217.817673 1.0500 1.0500 1.0480 1.0480 1.0470
1222.163147 1.0470 1.0430 1.0400 1.0380 1.0330
1226.508620 1.0280 1.0250 1.0200 1.0140 1.0090
1230.854093 1.0040 1.0000 0.9980 0.9950 0.9890
1235.199567 0.9830 0.9800 0.9740 0.9660 0.9600
1239.545040 0.9550 0.9410 0.9320 0.9180 0.9110
1243.890513 0.8910 0.8690 0.8431 0.8241 0.7832
1248.235987 0.7370 0.7160 0.6820 0.6480 0.5961
1252.581460 0.5401 0.4831 0.4800 0.4830 0.4930
1256.926933 0.5251 0.6030 0.6770 0.7330 0.7500
1261.272407 0.7670 0.7810 0.8019 0.8259 0.8489
1265.617880 0.8680 0.8910 0.9110 0.9190 0.9250
1269.963353 0.9260 0.9270 0.9290 0.9270 0.9270
1274.308827 0.9260 0.9250 0.9230 0.9190 0.9140
1278.654300 0.9040 0.8950 0.8910 0.8760 0.8640
1282.999773 0.8530 0.8410 0.8310 0.8110 0.7860
1287.345247 0.7590 0.7260 0.7100 0.6920 0.6691
1291.690720 0.6219 0.5759 0.5270 0.5020 0.4790
1296.036193 0.4660 0.4530 0.4400 0.4260 0.4150
1300.381667 0.4020 0.3950 0.3870 0.3840 0.3830
1304.727140 0.3840 0.4229 0.4470 0.4869 0.5378
1309.072613 0.6012 0.7070 0.7450 0.7770 0.7850
1313.418087 0.8050 0.8310 0.8410 0.8530 0.8640
1317.763560 0.8720 0.8810 0.8910 0.8960 0.9020
1322.109033 0.9030 0.9040 0.9040 0.9020 0.9000
1326.454507 0.8960 0.8910 0.8680 0.8430 0.8190
1330.799980 0.7900 0.7730 0.7710 0.7700 0.7361
1335.145453 0.7060 0.7050 0.7300 0.7580 0.8080
1339.490927 0.8549 0.8700 0.8890 0.8960 0.9030
1343.836400 0.9130 0.9180 0.9220 0.9320 0.9380
1348.181873 0.9470 0.9470 0.9510 0.9510 0.9520
1352.527347 0.9510 0.9510 0.9510 0.9510 0.9490
1356.872820 0.9480 0.9480 0.9470 0.9450 0.9440
1361.218293 0.9420 0.9400 0.9370 0.9340 0.9330
1365.563767 0.9320 0.9250 0.9180 0.9110 0.9020
1369.909240 0.8910 0.8790 0.8540 0.8360 0.8150
1374.254713 0.7940 0.7581 0.7321 0.6562 0.5803
1378.600187 0.5590 0.5360 0.5360 0.5480 0.5670
1382.945660 0.7218 0.7589 0.7929 0.8229 0.8459
1387.291133 0.8610 0.8760 0.8890 0.8940 0.9000
1391.636607 0.9130 0.9190 0.9220 0.9230 0.9250
1395.982080 0.9260 0.9320 0.9320 0.9330 0.9330
1400.327553 0.9330 0.9330 0.9330 0.9320 0.9290
1404.673027 0.9260 0.9250 0.9230 0.9220 0.9190
1409.018500 0.9150 0.9130 0.9110 0.9070 0.9040
1413.363973 0.9020 0.9000 0.8990 0.8980 0.8870
1417.709447 0.8760 0.8730 0.8700 0.8620 0.8570
1422.054920 0.8510 0.8420 0.8360 0.8310 0.8170
1426.400393 0.7980 0.7850 0.7630 0.7371 0.7250
1430.745867 0.7100 0.7030 0.6950 0.6770 0.6670
1435.091340 0.6580 0.6180 0.6100 0.5930 0.5770
1439.436813 0.5200 0.5059 0.4519 0.3960 0.3470
1443.782287 0.3500 0.3620 0.4678 0.5119 0.5120
1448.127760 0.5090 0.5000 0.4930 0.4800 0.4660
1452.473233 0.4410 0.4150 0.3940 0.3701 0.3301
1456.818707 0.3160 0.3150 0.3150 0.3160 0.3380
1461.164180 0.3460 0.3610 0.3790 0.3870 0.3890
1465.509653 0.3910 0.3920 0.3960 0.4190 0.4680
1469.855127 0.5120 0.5380 0.5959 0.6608 0.7089
1474.200600 0.7250 0.7500 0.7580 0.7670 0.7750
1478.546073 0.7860 0.7940 0.8000 0.8040 0.8070
1482.891547 0.8120 0.8150 0.8190 0.8200 0.8220
1487.237020 0.8220 0.8220 0.8200 0.8200 0.8200
1491.582493 0.8190 0.8170 0.8170 0.8150 0.8150
1495.927967 0.8130 0.8120 0.8110 0.8080 0.8070
1500.273440 0.8020 0.7980 0.7960 0.7940 0.7860
1504.618913 0.7780 0.7750 0.7740 0.7710 0.7690
1508.964387 0.7670 0.7630 0.7580 0.7500 0.7470
1513.309860 0.7450 0.7410 0.7390 0.7360 0.7330
1517.655333 0.7260 0.7200 0.7170 0.7160 0.7140
1522.000807 0.7100 0.7070 0.7060 0.7020 0.6980
1526.346280 0.6970 0.6940 0.6840 0.6820 0.6720
1530.691753 0.6610 0.6500 0.6410 0.6230 0.6160
1535.037227 0.6100 0.6030 0.5960 0.5820 0.5510
1539.382700 0.5360 0.5320 0.5250 0.5190 0.5130
1543.728173 0.5060 0.5010 0.5000 0.4970 0.4950
1548.073647 0.4940 0.4940 0.4950 0.4970 0.4970
1552.419120 0.5010 0.5050 0.5100 0.5120 0.5140
1556.764593 0.5320 0.5550 0.5670 0.5720 0.5740
1561.110067 0.5760 0.5800 0.5890 0.6010 0.6180
1565.455540 0.6300 0.6330 0.6450 0.6600 0.6690
1569.801013 0.6770 0.6770 0.6800 0.6840 0.6870
1574.146487 0.6940 0.6970 0.6990 0.6990 0.6990
1578.491960 0.7030 0.7060 0.7070 0.7090 0.7100
1582.837433 0.7130 0.7160 0.7240 0.7280 0.7320
1587.182907 0.7400 0.7430 0.7620 0.7670 0.7750
1591.528380 0.7780 0.7850 0.7960 0.8010 0.8150
1595.873853 0.8200 0.8340 0.8490 0.8600 0.8680
1600.219327 0.8760 0.8840 0.8910 0.8950 0.9070
1604.564800 0.9150 0.9210 0.9250 0.9330 0.9370
1608.910273 0.9420 0.9440 0.9490 0.9530 0.9530
1613.255747 0.9570 0.9630 0.9700 0.9710 0.9720
1617.601220 0.9740 0.9750 0.9760 0.9760 0.9790
1621.946693 0.9790 0.9790 0.9790 0.9790 0.9800
1626.292167 0.9820 0.9820 0.9820 0.9820 0.9830
1630.637640 0.9830 0.9850 0.9860 0.9890 0.9900
1634.983113 0.9910 0.9910 0.9910 0.9940 0.9970
1639.328587 0.9980 1.0000 1.0000 1.0000 1.0000
1643.674060 1.0000 1.0010 1.0010 1.0010 1.0010
1648.019533 1.0020 1.0020 1.0010 1.0010 1.0010
1652.365007 1.0010 1.0010 1.0010 1.0010 1.0000
1656.710480 1.0010 1.0010 1.0020 1.0020 1.0020
1661.055953 1.0040 1.0040 1.0040 1.0040 1.0040
1665.401427 1.0040 1.0040 1.0040 1.0040 1.0040
1669.746900 1.0040 1.0050 1.0050 1.0050 1.0060
1674.092373 1.0060 1.0080 1.0080 1.0080 1.0080
1678.437847 1.0080 1.0080 1.0080 1.0080 1.0080
1682.783320 1.0080 1.0080 1.0080 1.0080 1.0080
1687.128793 1.0060 1.0060 1.0060 1.0050 1.0050
1691.474267 1.0050 1.0050 1.0060 1.0080 1.0090
1695.819740 1.0090 1.0090 1.0090 1.0100 1.0100
1700.165213 1.0100 1.0100 1.0120 1.0120 1.0120
1704.510687 1.0120 1.0120 1.0120 1.0130 1.0130
1708.856160 1.0130 1.0130 1.0130 1.0130 1.0130
1713.201633 1.0130 1.0130 1.0130 1.0130 1.0130
1717.547107 1.0120 1.0120 1.0120 1.0130 1.0130
1721.892580 1.0130 1.0130 1.0130 1.0130 1.0130
1726.238053 1.0130 1.0130 1.0130 1.0130 1.0130
1730.583527 1.0130 1.0130 1.0130 1.0130 1.0130
1734.929000 1.0120 1.0120 1.0120 1.0120 1.0120
1739.274473 1.0120 1.0130 1.0130 1.0130 1.0130
1743.619947 1.0130 1.0130 1.0130 1.0140 1.0140
1747.965420 1.0140 1.0140 1.0140 1.0140 1.0140
1752.310893 1.0160 1.0140 1.0140 1.0140 1.0140
1756.656367 1.0140 1.0140 1.0140 1.0140 1.0140
1761.001840 1.0140 1.0160 1.0160 1.0140 1.0140
1765.347313 1.0140 1.0140 1.0140 1.0140 1.0140
1769.692787 1.0140 1.0140 1.0140 1.0140 1.0160
1774.038260 1.0160 1.0170 1.0170 1.0170 1.0200
1778.383733 1.0200 1.0200 1.0200 1.0200 1.0190
1782.729207 1.0170 1.0170 1.0170 1.0170 1.0170
1787.074680 1.0170 1.0170 1.0160 1.0160 1.0160
1791.420153 1.0140 1.0130 1.0130 1.0130 1.0130
1795.765627 1.0130 1.0130 1.0130 1.0130 1.0130
1800.111100 1.0130 1.0130 1.0130 1.0130 1.0130
1804.456573 1.0130 1.0130 1.0130 1.0120 1.0120
1808.802047 1.0100 1.0100 1.0100 1.0100 1.0100
1813.147520 1.0090 1.0090 1.0090 1.0090 1.0080
1817.492993 1.0080 1.0090 1.0090 1.0090 1.0090
1821.838467 1.0090 1.0090 1.0090 1.0080 1.0080
1826.183940 1.0080 1.0080 1.0080 1.0080 1.0080
1830.529413 1.0080 1.0080 1.0080 1.0080 1.0080
1834.874887 1.0080 1.0080 1.0090 1.0090 1.0090
1839.220360 1.0090 1.0090 1.0090 1.0090 1.0090
1843.565833 1.0100 1.0100 1.0090 1.0090 1.0090
1847.911307 1.0090 1.0090 1.0090 1.0100 1.0090
1852.256780 1.0090 1.0090 1.0090 1.0090 1.0100
1856.602253 1.0100 1.0090 1.0090 1.0090 1.0100
1860.947727 1.0100 1.0100 1.0100 1.0100 1.0120
1865.293200 1.0120 1.0100 1.0100 1.0100 1.0100
1869.638673 1.0100 1.0100 1.0100 1.0100 1.0100
1873.984147 1.0100 1.0100 1.0100 1.0100 1.0100
1878.329620 1.0100 1.0100 1.0100 1.0100 1.0120
1882.675093 1.0120 1.0100 1.0100 1.0100 1.0100
1887.020567 1.0100 1.0100 1.0100 1.0100 1.0100
1891.366040 1.0100 1.0120 1.0120 1.0120 1.0120
1895.711513 1.0130 1.0130 1.0130 1.0130 1.0130
1900.056987 1.0130 1.0130 1.0130 1.0130 1.0130
1904.402460 1.0130 1.0130 1.0130 1.0130 1.0130
1908.747933 1.0120 1.0120 1.0120 1.0120 1.0120
1913.093407 1.0120 1.0120 1.0120 1.0120 1.0120
1917.438880 1.0120 1.0120 1.0120 1.0120 1.0120
1921.784353 1.0130 1.0130 1.0130 1.0140 1.0160
1926.129827 1.0170 1.0170 1.0170 1.0170 1.0170
1930.475300 1.0170 1.0170 1.0170 1.0170 1.0170
1934.820773 1.0170 1.0190 1.0190 1.0170 1.0170
1939.166247 1.0170 1.0170 1.0170 1.0170 1.0170
1943.511720 1.0170 1.0170 1.0170 1.0190 1.0170
1947.857193 1.0170 1.0160 1.0140 1.0140 1.0130
1952.202667 1.0120 1.0120 1.0120 1.0200 1.0460
1956.548140 1.0470 1.0320 1.0190 1.0160 1.0160
1960.893613 1.0160 1.0160 1.0160 1.0160 1.0160
1965.239087 1.0160 1.0160 1.0160 1.0160 1.0160
1969.584560 1.0160 1.0160 1.0160 1.0160 1.0160
1973.930033 1.0160 1.0160 1.0160 1.0160 1.0160
1978.275507 1.0140 1.0130 1.0130 1.0130 1.0120
1982.620980 1.0120 1.0120 1.0130 1.0140 1.0140
1986.966453 1.0140 1.0160 1.0140 1.0120 1.0080
1991.311927 1.0020 1.0000 0.9980 0.9970 0.9970
1995.657400 0.9970 0.9970 0.9970 0.9970 0.9970
2000.002873 0.9970 0.9970 0.9970 0.9970 0.9970
2004.348347 0.9970 0.9970 0.9975 0.9980 0.9990
2008.693820 1.0000 1.0000 1.0000 1.0005 1.0010
2013.039293 1.0010 1.0010 1.0010 1.0010 1.0015
2017.384767 1.0020 1.0020 1.0020 1.0020 1.0020
2021.730240 1.0020 1.0020 1.0020 1.0020 1.0020
2026.075713 1.0020 1.0020 1.0020 1.0020 1.0020
2030.421187 1.0020 1.0020 1.0020 1.0020 1.0020
2034.766660 1.0020 1.0020 1.0020 1.0020 1.0020
2039.112133 1.0020 1.0020 1.0020 1.0020 1.0020
2043.457607 1.0020 1.0030 1.0040 1.0040 1.0040
2047.803080 1.0030 1.0020 1.0020 1.0020 1.0020
2052.148553 1.0020 1.0020 1.0020 1.0020 1.0020
2056.494027 1.0020 1.0020 1.0020 1.0020 1.0020
2060.839500 1.0020 1.0020 1.0020 1.0020 1.0020
2065.184973 1.0020 1.0020 1.0020 1.0020 1.0020
2069.530447 1.0020 1.0020 1.0020 1.0020 1.0020
2073.875920 1.0020 1.0020 1.0020 1.0020 1.0020
2078.221393 1.0020 1.0020 1.0020 1.0020 1.0020
2082.566867 1.0020 1.0020 1.0029 1.0039 1.0040
2086.912340 1.0040 1.0031 1.0020 1.0020 1.0020
2091.257813 1.0020 1.0020 1.0020 1.0020 1.0039
2095.603287 1.0059 1.0051 1.0041 1.0040 1.0040
2099.948760 1.0040 1.0040 1.0040 1.0040 1.0040
2104.294233 1.0040 1.0040 1.0040 1.0040 1.0040
2108.639707 1.0040 1.0040 1.0040 1.0040 1.0031
2112.985180 1.0021 1.0020 1.0020 1.0020 1.0020
2117.330653 1.0020 1.0020 1.0020 1.0020 1.0020
2121.676127 1.0020 1.0020 1.0020 1.0020 1.0020
2126.021600 1.0020 1.0020 1.0015 1.0010 1.0010
2130.367073 1.0010 1.0010 1.0010 1.0010 1.0010
2134.712547 1.0010 1.0010 1.0006 1.0000 1.0000
2139.058020 1.0000 1.0000 1.0000 1.0000 1.0000
2143.403493 1.0000 1.0000 1.0000 1.0000 1.0000
2147.748967 1.0000 1.0000 1.0000 1.0000 1.0000
2152.094440 1.0000 1.0000 1.0000 1.0000 1.0000
2156.439913 1.0000 1.0000 1.0000 0.9991 0.9981
2160.785387 0.9980 0.9980 0.9980 0.9980 0.9980
2165.130860 0.9980 0.9980 0.9980 0.9980 0.9980
2169.476333 0.9980 0.9980 0.9980 0.9980 0.9980
2173.821807 0.9980 0.9980 0.9980 0.9976 0.9971
2178.167280 0.9970 0.9970 0.9974 0.9979 0.9980
2182.512753 0.9980 0.9980 0.9980 0.9980 0.9980
2186.858227 0.9980 0.9980 0.9980 0.9980 0.9980
2191.203700 0.9980 0.9989 0.9999 1.0000 1.0000
2195.549173 0.9991 0.9981 0.9980 0.9980 0.9980
2199.894647 0.9980 0.9980 0.9980 0.9980 0.9980
2204.240120 0.9980 0.9980 0.9976 0.9971 0.9974
2208.585593 0.9979 0.9980 0.9980 0.9976 0.9971
2212.931067 0.9961 0.9951 0.9963 0.9978 0.9976
2217.276540 0.9971 0.9953 0.9933 0.9930 0.9930
2221.622013 0.9930 0.9930 0.9922 0.9912 0.9910
2225.967486 0.9910 0.9910 0.9910 0.9910 0.9910
2230.312960 0.9910 0.9910 0.9919 0.9929 0.9930
2234.658433 0.9930 0.9930 0.9930 0.9930 0.9930
2239.003906 0.9930 0.9930 0.9930 0.9930 0.9930
2243.349380 0.9930 0.9930 0.9930 0.9930 0.9930
2247.694853 0.9930 0.9930 0.9930 0.9930 0.9930
2252.040326 0.9930 0.9930 0.9930 0.9922 0.9912
2256.385800 0.9906 0.9901 0.9896 0.9891 0.9878
2260.731273 0.9862 0.9856 0.9851 0.9837 0.9822
2265.076746 0.9820 0.9820 0.9795 0.9765 0.9756
2269.422220 0.9751 0.9738 0.9723 0.9716 0.9711
2273.767693 0.9710 0.9710 0.9710 0.9710 0.9710
2278.113166 0.9710 0.9710 0.9710 0.9710 0.9710
2282.458640 0.9710 0.9710 0.9710 0.9710 0.9706
2286.804113 0.9701 0.9700 0.9700 0.9700 0.9700
2291.149586 0.9704 0.9709 0.9710 0.9710 0.9726
2295.495060 0.9746 0.9750 0.9750 0.9754 0.9759
2299.840533 0.9752 0.9742 0.9744 0.9749 0.9750
2304.186006 0.9750 0.9750 0.9750 0.9754 0.9759
2308.531480 0.9760 0.9760 0.9752 0.9742 0.9740
2312.876953 0.9740 0.9740 0.9740 0.9744 0.9749
2317.222426 0.9798 0.9858 0.9838 0.9798 0.9770
2321.567900 0.9745 0.9740 0.9740 0.9740 0.9740
2325.913373 0.9744 0.9749 0.9770 0.9795 0.9753
2330.258846 0.9692 0.9660 0.9635 0.9650 0.9675
2334.604320 0.9696 0.9716 0.9744 0.9774 0.9807
2338.949793 0.9842 0.9776 0.9681 0.9691 0.9731
2343.295266 0.9759 0.9784 0.9802 0.9817 0.9832
2347.640740 0.9847 0.9838 0.9823 0.9793 0.9758
2351.986213 0.9734 0.9714 0.9706 0.9701 0.9700
2356.331686 0.9700 0.9700 0.9700 0.9619 0.9515
2360.677160 0.9685 0.9940 1.0004 1.0009 1.0006
2365.022633 1.0001 1.0000 1.0000 1.0000 1.0000
2369.368106 1.0000 1.0000 1.0000 1.0000 1.0000
2373.713580 1.0000 1.0000 1.0000 1.0000 1.0000
2378.059053 1.0000 1.0000 1.0000 1.0000 1.0000
2382.404526 1.0000 1.0000 1.0000 1.0000 1.0000
2386.750000 1.0000 1.0000 1.0000 1.0000 1.0000
2391.095473 1.0000 1.0000 1.0000 1.0000 1.0000
2395.440946 1.0000 1.0000 1.0000 1.0000 1.0000
2399.786420 1.0000 1.0000 1.0000 1.0000 1.0000
2404.131893 1.0004 1.0009 1.0010 1.0010 1.0006
2408.477366 1.0001 1.0000 1.0000 1.0000 1.0000
2412.822840 1.0000 1.0000 1.0004 1.0009 1.0010
2417.168313 1.0010 1.0006 1.0001 1.0000 1.0000
2421.513786 1.0000 1.0000 1.0000 1.0000 1.0004
2425.859260 1.0009 1.0010 1.0010 1.0006 1.0001
2430.204733 1.0000 1.0000 1.0000 1.0000 1.0004
2434.550206 1.0009 1.0014 1.0019 1.0020 1.0020
2438.895680 1.0016 1.0011 1.0010 1.0010 1.0014
2443.241153 1.0019 1.0020 1.0020 1.0020 1.0020
2447.586626 1.0020 1.0020 1.0016 1.0012 1.0010
2451.932100 1.0010 1.0010 1.0010 1.0014 1.0019
2456.277573 1.0020 1.0020 1.0013 1.0003 1.0000
2460.623046 1.0000 1.0000 1.0000 1.0000 1.0000
2464.968520 1.0004 1.0009 1.0010 1.0010 1.0007
2469.313993 1.0002 1.0000 1.0000 1.0000 1.0000
2473.659466 1.0000 1.0000 1.0000 1.0000 1.0000
2478.004940 1.0000 1.0000 1.0000 1.0000 1.0000
2482.350413 1.0000 1.0000 1.0000 1.0000 1.0000
2486.695886 1.0000 1.0000 1.0000 1.0000 1.0000
2491.041360 1.0000 1.0000 1.0000 1.0000 1.0000
2495.386833 1.0000 1.0000 1.0000 1.0000 1.0000
2499.732306 1.0000 1.0000 1.0000 1.0000 1.0000
2504.077780 1.0000 1.0000 1.0000 1.0000 1.0000
2508.423253 1.0000 1.0000 1.0000 1.0000 1.0000
2512.768726 1.0000 1.0000 1.0000 1.0000 1.0000
2517.114200 1.0000 1.0000 1.0000 1.0000 1.0000
2521.459673 1.0000 1.0000 1.0000 1.0000 1.0000
2525.805146 1.0000 1.0000 1.0000 1.0000 1.0000
2530.150620 1.0000 1.0000 1.0000 1.0000 1.0000
2534.496093 1.0000 1.0000 1.0000 1.0000 1.0000
2538.841566 1.0000 1.0000 1.0000 1.0000 1.0000
2543.187040 1.0000 1.0000 1.0000 1.0000 1.0003
2547.532513 1.0008 1.0007 1.0002 1.0000 1.0000
2551.877986 1.0000 1.0000 1.0000 1.0000 1.0000
2556.223460 1.0000 1.0000 1.0000 1.0000 1.0000
2560.568933 1.0000 1.0000 1.0000 1.0000 1.0000
2564.914406 1.0000 1.0000 1.0000 1.0000 1.0000
2569.259880 1.0000 1.0000 1.0000 1.0000 1.0000
2573.605353 1.0000 1.0000 1.0000 1.0000 1.0000
2577.950826 1.0000 1.0000 1.0000 1.0000 1.0000
2582.296300 1.0000 1.0000 1.0000 1.0000 1.0000
2586.641773 1.0000 1.0000 1.0000 1.0000 1.0000
2590.987246 1.0000 1.0000 1.0000 1.0000 1.0000
2595.332720 1.0000 1.0000 1.0000 1.0000 1.0000
2599.678193 1.0000 1.0000 1.0000 1.0000 1.0000
2604.023666 1.0000 1.0000 1.0000 1.0000 1.0000
2608.369140 1.0000 1.0000 1.0000 1.0000 1.0000
2612.714613 0.9994 0.9984 0.9980 0.9980 0.9980
2617.060086 0.9980 0.9977 0.9972 0.9970 0.9970
2621.405560 0.9973 0.9978 0.9980 0.9980 0.9980
2625.751033 0.9980 0.9980 0.9980 0.9977 0.9972
2630.096506 0.9970 0.9970 0.9970 0.9970 0.9970
2634.441980 0.9970 0.9970 0.9970 0.9964 0.9954
2638.787453 0.9950 0.9950 0.9947 0.9942 0.9940
2643.132926 0.9940 0.9940 0.9940 0.9937 0.9932
2647.478400 0.9930 0.9930 0.9924 0.9914 0.9907
2651.823873 0.9902 0.9897 0.9892 0.9884 0.9874
2656.169346 0.9864 0.9854 0.9841 0.9826 0.9814
2660.514820 0.9804 0.9800 0.9800 0.9797 0.9792
2664.860293 0.9790 0.9790 0.9793 0.9798 0.9800
2669.205766 0.9800 0.9806 0.9816 0.9823 0.9828
2673.551240 0.9830 0.9830 0.9839 0.9853 0.9860
2677.896713 0.9860 0.9863 0.9868 0.9870 0.9870
2682.242186 0.9870 0.9870 0.9870 0.9870 0.9870
2686.587660 0.9870 0.9870 0.9870 0.9870 0.9870
2690.933133 0.9870 0.9870 0.9870 0.9870 0.9870
2695.278606 0.9870 0.9870 0.9870 0.9870 0.9870
2699.624080 0.9870 0.9870 0.9870 0.9870 0.9870
2703.969553 0.9870 0.9867 0.9862 0.9860 0.9860
2708.315026 0.9857 0.9852 0.9850 0.9850 0.9850
2712.660500 0.9850 0.9850 0.9850 0.9844 0.9834
2717.005973 0.9830 0.9830 0.9827 0.9822 0.9820
2721.351446 0.9820 0.9812 0.9797 0.9782 0.9767
2725.696920 0.9749 0.9729 0.9707 0.9682 0.9662
2730.042393 0.9647 0.9632 0.9617 0.9610 0.9610
2734.387866 0.9607 0.9602 0.9600 0.9600 0.9608
2738.733340 0.9623 0.9643 0.9668 0.9699 0.9733
2743.078813 0.9753 0.9758 0.9768 0.9783 0.9793
2747.424286 0.9798 0.9805 0.9815 0.9823 0.9828
2751.769760 0.9830 0.9830 0.9830 0.9830 0.9830
2756.115233 0.9830 0.9827 0.9822 0.9812 0.9797
2760.460706 0.9787 0.9782 0.9775 0.9765 0.9760
2764.806180 0.9760 0.9757 0.9752 0.9750 0.9750
2769.151653 0.9742 0.9727 0.9720 0.9720 0.9720
2773.497126 0.9720 0.9717 0.9712 0.9707 0.9702
2777.842600 0.9695 0.9685 0.9675 0.9665 0.9655
2782.188073 0.9645 0.9637 0.9632 0.9630 0.9630
2786.533546 0.9622 0.9607 0.9590 0.9570 0.9537
2790.879020 0.9492 0.9455 0.9425 0.9408 0.9403
2795.224493 0.9400 0.9400 0.9402 0.9407 0.9417
2799.569966 0.9433 0.9443 0.9448 0.9455 0.9465
2803.915440 0.9465 0.9455 0.9450 0.9450 0.9440
2808.260913 0.9420 0.9403 0.9388 0.9368 0.9343
2812.606386 0.9323 0.9308 0.9288 0.9263 0.9250
2816.951860 0.9250 0.9223 0.9168 0.9125 0.9095
2821.297333 0.9070 0.9050 0.9011 0.8951 0.8901
2825.642806 0.8861 0.8804 0.8729 0.8654 0.8579
2829.988280 0.8528 0.8503 0.8471 0.8431 0.8394
2834.333753 0.8358 0.8321 0.8281 0.8202 0.8083
2838.679226 0.7965 0.7850 0.7679 0.7444 0.7252
2843.024700 0.7107 0.7018 0.6993 0.6966 0.6936
2847.370173 0.6955 0.7030 0.7077 0.7092 0.7100
2851.715646 0.7100 0.7091 0.7071 0.7044 0.7009
2856.061120 0.6969 0.6924 0.6875 0.6820 0.6714
2860.406593 0.6549 0.6280 0.5885 0.5606 0.5467
2864.752066 0.5345 0.5245 0.5107 0.4922 0.4679
2869.097540 0.4361 0.4116 0.3956 0.3794 0.3630
2873.443013 0.3385 0.3046 0.2808 0.2693 0.2682
2877.788486 0.2797 0.2978 0.3243 0.3629 0.4169
2882.133960 0.4681 0.5161 0.5474 0.5574 0.5652
2886.479433 0.5702 0.5730 0.5730 0.5721 0.5701
2890.824906 0.5672 0.5632 0.5590 0.5545 0.5500
2895.170380 0.5455 0.5397 0.5323 0.5239 0.5144
2899.515853 0.5071 0.5026 0.4994 0.4979 0.4957
2903.861326 0.4927 0.4901 0.4881 0.4805 0.4655
2908.206800 0.4505 0.4355 0.4227 0.4127 0.4055
2912.552273 0.4020 0.3987 0.3957 0.3929 0.3905
2916.897746 0.3888 0.3883 0.3880 0.3880 0.3878
2921.243220 0.3873 0.3849 0.3799 0.3751 0.3706
2925.588693 0.3648 0.3573 0.3282 0.2693 0.2306
2929.934166 0.2201 0.2101 0.2006 0.1936 0.1901
2934.279640 0.1847 0.1767 0.1760 0.1860 0.1940
2938.625113 0.1991 0.2058 0.2148 0.2221 0.2271
2942.970586 0.2304 0.2314 0.2320 0.2320 0.2306
2947.316060 0.2271 0.2232 0.2187 0.2048 0.1768
2951.661533 0.1538 0.1384 0.1227 0.1067 0.0921
2956.007006 0.0795 0.0702 0.0657 0.0618 0.0588
2960.352480 0.0552 0.0507 0.0462 0.0417 0.0378
2964.697953 0.0348 0.0326 0.0316 0.0310 0.0310
2969.043426 0.0312 0.0317 0.0326 0.0341 0.0356
2973.388900 0.0371 0.0384 0.0394 0.0406 0.0421
2977.734373 0.0444 0.0479 0.0523 0.0583 0.0764
2982.079846 0.1139 0.1452 0.1667 0.1843 0.1958
2986.425320 0.2064 0.2154 0.2268 0.2422 0.2582
2990.770793 0.2748 0.2918 0.3092 0.3257 0.3407
2995.116266 0.3629 0.3969 0.4289 0.4579 0.4902
2999.461740 0.5281 0.5572 0.5712 0.5885 0.6114
3003.807213 0.6424 0.6874 0.7218 0.7378 0.7529
3008.152686 0.7665 0.7786 0.7880 0.7992 0.8132
3012.498160 0.8238 0.8288 0.8347 0.8422 0.8503
3016.843633 0.8592 0.8672 0.8731 0.8800 0.8885
3021.189106 0.8949 0.8974 0.9002 0.9037 0.9074
3025.534580 0.9114 0.9156 0.9201 0.9246 0.9291
3029.880053 0.9329 0.9354 0.9372 0.9377 0.9387
3034.225526 0.9407 0.9429 0.9454 0.9472 0.9477
3038.571000 0.9495 0.9540 0.9573 0.9583 0.9592
3042.916473 0.9597 0.9602 0.9607 0.9614 0.9623
3047.261946 0.9635 0.9650 0.9662 0.9667 0.9675
3051.607420 0.9690 0.9702 0.9707 0.9712 0.9717
3055.952893 0.9725 0.9740 0.9750 0.9750 0.9755
3060.298366 0.9770 0.9780 0.9780 0.9782 0.9787
3064.643840 0.9792 0.9797 0.9803 0.9813 0.9820
3068.989313 0.9820 0.9822 0.9827 0.9830 0.9830
3073.334786 0.9833 0.9843 0.9850 0.9850 0.9850
3077.680260 0.9850 0.9850 0.9850 0.9852 0.9857
3082.025733 0.9860 0.9860 0.9860 0.9860 0.9860
3086.371206 0.9860 0.9860 0.9860 0.9860 0.9860
3090.716680 0.9860 0.9860 0.9860 0.9860 0.9860
3095.062153 0.9860 0.9860 0.9860 0.9862 0.9867
3099.407626 0.9873 0.9883 0.9890 0.9890 0.9892
3103.753100 0.9897 0.9900 0.9900 0.9900 0.9900
3108.098573 0.9901 0.9906 0.9910 0.9910 0.9913
3112.444046 0.9923 0.9930 0.9930 0.9932 0.9937
3116.789520 0.9940 0.9940 0.9942 0.9947 0.9950
3121.134993 0.9950 0.9953 0.9963 0.9970 0.9970
3125.480466 0.9970 0.9970 0.9970 0.9970 0.9970
3129.825940 0.9970 0.9970 0.9970 0.9970 0.9970
3134.171413 0.9970 0.9970 0.9970 0.9970 0.9970
3138.516886 0.9970 0.9970 0.9970 0.9970 0.9970
3142.862360 0.9970 0.9970 0.9967 0.9957 0.9950
3147.207833 0.9950 0.9950 0.9950 0.9947 0.9937
3151.553306 0.9930 0.9930 0.9927 0.9917 0.9910
3155.898780 0.9910 0.9909 0.9904 0.9900 0.9900
3160.244253 0.9900 0.9900 0.9900 0.9900 0.9900
3164.589726 0.9900 0.9900 0.9900 0.9900 0.9900
3168.935200 0.9900 0.9900 0.9900 0.9900 0.9900
3173.280673 0.9900 0.9900 0.9900 0.9900 0.9900
3177.626146 0.9901 0.9906 0.9910 0.9910 0.9910
3181.971620 0.9910 0.9910 0.9910 0.9913 0.9923
3186.317093 0.9930 0.9930 0.9931 0.9936 0.9941
3190.662566 0.9946 0.9950 0.9950 0.9952 0.9962
3195.008040 0.9971 0.9976 0.9982 0.9992 1.0000
3199.353513 1.0000 0.9997 0.9987 0.9980 0.9980
3203.698986 0.9980 0.9980 0.9980 0.9980 0.9982
3208.044460 0.9992 1.0000 1.0000 1.0000 1.0000
3212.389933 1.0000 1.0000 1.0000 1.0000 1.0000
3216.735406 1.0000 1.0001 1.0006 1.0010 1.0010
3221.080880 1.0010 1.0010 1.0010 1.0010 1.0011
3225.426353 1.0016 1.0020 1.0020 1.0019 1.0014
3229.771826 1.0010 1.0010 1.0010 1.0010 1.0010
3234.117300 1.0010 1.0009 1.0004 1.0000 1.0000
3238.462773 1.0000 1.0000 1.0001 1.0006 1.0010
3242.808246 1.0010 1.0011 1.0016 1.0020 1.0020
3247.153720 1.0019 1.0014 1.0010 1.0010 1.0010
3251.499193 1.0010 1.0010 1.0010 1.0010 1.0010
3255.844666 1.0010 1.0010 1.0010 1.0010 1.0010
3260.190140 1.0010 1.0010 1.0010 1.0010 1.0010
3264.535613 1.0010 1.0010 1.0010 1.0010 1.0010
3268.881086 1.0010 1.0010 1.0010 1.0009 1.0004
3273.226560 1.0000 1.0000 1.0000 1.0000 1.0000
3277.572033 1.0000 1.0000 1.0000 1.0000 1.0000
3281.917506 1.0000 1.0000 1.0000 1.0000 1.0000
3286.262980 1.0000 1.0000 1.0000 1.0000 1.0000
3290.608453 1.0000 1.0000 1.0000 1.0000 1.0000
3294.953926 1.0000 1.0001 1.0006 1.0010 1.0010
3299.299400 1.0010 1.0010 1.0010 1.0010 1.0010
3303.644873 1.0010 1.0010 1.0010 1.0010 1.0010
3307.990346 1.0010 1.0010 1.0010 1.0010 1.0010
3312.335820 1.0010 1.0009 1.0004 1.0000 1.0000
3316.681293 1.0000 1.0000 1.0000 1.0000 1.0000
3321.026766 1.0000 1.0000 1.0000 0.9998 0.9988
3325.372240 0.9980 0.9980 0.9980 0.9980 0.9980
3329.717713 0.9980 0.9979 0.9974 0.9970 0.9970
3334.063186 0.9970 0.9970 0.9968 0.9958 0.9950
3338.408660 0.9950 0.9950 0.9950 0.9950 0.9950
3342.754133 0.9950 0.9950 0.9950 0.9950 0.9949
3347.099606 0.9944 0.9940 0.9940 0.9940 0.9940
3351.445080 0.9939 0.9934 0.9929 0.9919 0.9909
3355.790553 0.9898 0.9890 0.9890 0.9888 0.9878
3360.136026 0.9869 0.9864 0.9859 0.9854 0.9850
3364.481500 0.9850 0.9849 0.9839 0.9830 0.9830
3368.826973 0.9830 0.9830 0.9829 0.9824 0.9819
3373.172446 0.9809 0.9800 0.9800 0.9799 0.9794
3377.517920 0.9790 0.9790 0.9790 0.9790 0.9790
3381.863393 0.9790 0.9790 0.9790 0.9790 0.9790
3386.208866 0.9790 0.9790 0.9790 0.9790 0.9790
3390.554340 0.9790 0.9791 0.9796 0.9800 0.9800
3394.899813 0.9800 0.9800 0.9800 0.9800 0.9801
3399.245286 0.9811 0.9820 0.9820 0.9821 0.9826
3403.590760 0.9830 0.9830 0.9830 0.9830 0.9830
3407.936233 0.9830 0.9830 0.9830 0.9831 0.9841
3412.281706 0.9850 0.9850 0.9850 0.9850 0.9850
3416.627180 0.9850 0.9851 0.9856 0.9860 0.9860
3420.972653 0.9860 0.9860 0.9861 0.9865 0.9870
3425.318126 0.9870 0.9870 0.9870 0.9871 0.9881
3429.663600 0.9891 0.9896 0.9901 0.9906 0.9911
3434.009073 0.9921 0.9930 0.9930 0.9930 0.9930
3438.354546 0.9930 0.9935 0.9940 0.9940 0.9940
3442.700020 0.9945 0.9950 0.9950 0.9953 0.9978
3447.045493 1.0000 1.0000 1.0000 1.0000 0.9999
3451.390966 0.9989 0.9980 0.9980 0.9980 0.9980
3455.736440 0.9981 0.9991 1.0000 1.0000 1.0000
3460.081913 1.0000 1.0000 1.0006 1.0010 1.0010
3464.427386 1.0010 1.0005 1.0000 1.0000 1.0000
3468.772860 1.0000 1.0000 1.0000 1.0000 1.0000
3473.118333 1.0000 1.0005 1.0010 1.0010 1.0010
3477.463806 1.0015 1.0020 1.0020 1.0020 1.0020
3481.809280 1.0021 1.0031 1.0040 1.0045 1.0050
3486.154753 1.0050 1.0050 1.0055 1.0060 1.0060
3490.500226 1.0060 1.0060 1.0060 1.0060 1.0060
3494.845700 1.0060 1.0060 1.0055 1.0050 1.0055
3499.191173 1.0060 1.0060 1.0061 1.0071 1.0080
3503.536646 1.0080 1.0080 1.0080 1.0080 1.0080
3507.882120 1.0080 1.0080 1.0080 1.0080 1.0080
3512.227593 1.0080 1.0080 1.0080 1.0080 1.0080
3516.573066 1.0080 1.0080 1.0080 1.0080 1.0080
3520.918540 1.0080 1.0080 1.0080 1.0080 1.0080
3525.264013 1.0080 1.0080 1.0080 1.0080 1.0080
3529.609486 1.0080 1.0080 1.0080 1.0080 1.0080
3533.954960 1.0080 1.0080 1.0080 1.0080 1.0080
3538.300433 1.0080 1.0080 1.0080 1.0080 1.0080
3542.645906 1.0080 1.0085 1.0090 1.0090 1.0090
3546.991380 1.0090 1.0090 1.0095 1.0100 1.0100
3551.336853 1.0100 1.0100 1.0100 1.0100 1.0100
3555.682326 1.0110 1.0120 1.0120 1.0120 1.0120
3560.027800 1.0120 1.0120 1.0120 1.0110 1.0100
3564.373273 1.0090 1.0080 1.0070 1.0060 1.0055
3568.718746 1.0050 1.0050 1.0050 1.0050 1.0050
3573.064220 1.0050 1.0050 1.0050 1.0050 1.0050
3577.409693 1.0050 1.0055 1.0060 1.0060 1.0060
3581.755166 1.0060 1.0060 1.0060 1.0060 1.0055
3586.100640 1.0050 1.0055 1.0060 1.0060 1.0060
3590.446113 1.0060 1.0060 1.0060 1.0060 1.0055
3594.791586 1.0050 1.0050 1.0050 1.0050 1.0050
3599.137060 1.0050 1.0050 1.0055 1.0060 1.0060
3603.482533 1.0060 1.0060 1.0060 1.0060 1.0060
3607.828006 1.0060 1.0060 1.0060 1.0060 1.0060
3612.173480 1.0060 1.0060 1.0060 1.0060 1.0060
3616.518953 1.0060 1.0060 1.0060 1.0060 1.0060
3620.864426 1.0060 1.0060 1.0060 1.0060 1.0060
3625.209900 1.0060 1.0060 1.0060 1.0060 1.0060
3629.555373 1.0060 1.0060 1.0060 1.0070 1.0080
3633.900846 1.0080 1.0080 1.0080 1.0080 1.0080
3638.246320 1.0080 1.0080 1.0080 1.0080 1.0080
3642.591793 1.0070 1.0060 1.0055 1.0050 1.0026
3646.937266 1.0001 1.0000 1.0000 1.0000 1.0000
3651.282740 1.0000 1.0000 1.0000 1.0000 1.0000
3655.628213 1.0000 1.0000 1.0000 1.0000 1.0000
3659.973686 1.0000 1.0000 1.0000 1.0000 1.0000
3664.319160 1.0000 1.0000 1.0000 1.0005 1.0010
3668.664633 1.0005 1.0000 1.0000 1.0000 1.0000
3673.010106 1.0000 1.0000 1.0000 1.0000 1.0000
3677.355580 0.9990 0.9981 0.9966 0.9951 0.9912
3681.701053 0.9872 0.9870 0.9870 0.9884 0.9899
3686.046526 0.9900 0.9900 0.9952 1.0007 1.0015
3690.392000 1.0020 1.0020 1.0020 1.0020 1.0020
3694.737473 1.0029 1.0039 1.0040 1.0040 1.0040
3699.082946 1.0040 1.0040 1.0040 1.0040 1.0040
3703.428420 1.0040 1.0040 1.0040 1.0040 1.0040
3707.773893 1.0040 1.0040 1.0040 1.0040 1.0040
3712.119366 1.0040 1.0040 1.0040 1.0040 1.0040
3716.464840 1.0040 1.0040 1.0040 1.0040 1.0040
3720.810313 1.0040 1.0040 1.0040 1.0040 1.0040
3725.155786 1.0040 1.0031 1.0021 1.0029 1.0039
3729.501260 1.0040 1.0040 1.0045 1.0050 1.0045
3733.846733 1.0040 1.0045 1.0050 1.0050 1.0050
3738.192206 1.0050 1.0050 1.0050 1.0050 1.0050
3742.537680 1.0050 1.0050 1.0050 1.0055 1.0060
3746.883153 1.0055 1.0051 1.0055 1.0060 1.0060
3751.228626 1.0060 1.0060 1.0060 1.0060 1.0060
3755.574100 1.0060 1.0060 1.0060 1.0060 1.0060
3759.919573 1.0060 1.0060 1.0060 1.0055 1.0051
3764.265046 1.0046 1.0040 1.0040 1.0040 1.0031
3768.610520 1.0021 1.0020 1.0020 1.0020 1.0020
3772.955993 1.0020 1.0020 1.0020 1.0020 1.0038
3777.301466 1.0058 1.0069 1.0079 1.0071 1.0061
3781.646940 1.0051 1.0041 1.0031 1.0021 1.0020
3785.992413 1.0020 1.0020 1.0020 1.0020 1.0020
3790.337886 1.0020 1.0020 1.0020 1.0020 1.0011
3794.683360 1.0001 1.0000 1.0000 0.9991 0.9981
3799.028833 0.9976 0.9971 0.9974 0.9979 0.9976
3803.374306 0.9971
##END=
