##TITLE=BENZENE, 1,3-DICHLORO-
##JCAMP-DX=4.24
$$ By DXEDIT 1.05 (RS McDonald)
##DATA TYPE=INFRARED SPECTRUM
##CLASS=COBLENTZ II
##ORIGIN=DOW CHEMICAL COMPANY
##OWNER=COBLENTZ SOC.
Collection (C) 2018 copyright by the U.S. Secretary of Commerce
on behalf of the United States of America. All rights reserved.
##DATE=1962/02/21
##NAMES=1,3-dichlorobenzene
##CAS REGISTRY NO=541-73-1
##MOLFORM=C6 H4 Cl2
##SOURCE REFERENCE=COBLENTZ NO. 05654
##$NIST SOURCE=COBLENTZ
##$NIST IMAGE=cob5654
##SPECTROMETER/DATA SYSTEM=DOW KBr FOREPRISM-GRATING
##INSTRUMENT PARAMETERS=BLAZED AT 3.5, 12.0, 20.0 AND CHANGED AT 5.0, 7.5, 14.9 MICRON
##STATE=SOLUTION (10% CCl4 FOR 3800-1390, 10% CS2 FOR 1390-400) VS SOLVENT
##PATH LENGTH=0.0115 CM, 0.0118 CM
##SAMPLING PROCEDURE=TRANSMISSION
##RESOLUTION=2
##DATA PROCESSING=DIGITIZED BY COBLENTZ SOCIETY (BATCH I) FROM HARD COPY
##XUNITS=1/CM
##YUNITS=TRANSMITTANCE
##XLABEL=Wavenumbers (cm-1)
##YLABEL=% Transmission
##XFACTOR=1
##YFACTOR=1
##DELTAX=1
##FIRSTX=3820
##LASTX=379
##FIRSTY=0.8771
##MAXX=3820
##MINX=379
##MAXY=0.9112
##MINY=0.0028
##NPOINTS=3442
##XYDATA=(X++(Y..Y))
3820.000000 0.8771 0.8771 0.8771 0.8771 0.8770
3815.000000 0.8768 0.8768 0.8767 0.8767 0.8766
3810.000000 0.8765 0.8764 0.8763 0.8762 0.8762
3805.000000 0.8761 0.8760 0.8759 0.8758 0.8757
3800.000000 0.8756 0.8755 0.8755 0.8753 0.8752
3795.000000 0.8750 0.8748 0.8746 0.8744 0.8742
3790.000000 0.8740 0.8738 0.8736 0.8734 0.8732
3785.000000 0.8730 0.8728 0.8728 0.8728 0.8728
3780.000000 0.8728 0.8727 0.8727 0.8727 0.8727
3775.000000 0.8727 0.8727 0.8725 0.8723 0.8721
3770.000000 0.8718 0.8716 0.8714 0.8706 0.8699
3765.000000 0.8687 0.8675 0.8663 0.8651 0.8637
3760.000000 0.8623 0.8618 0.8616 0.8616 0.8617
3755.000000 0.8621 0.8625 0.8631 0.8636 0.8641
3750.000000 0.8646 0.8651 0.8656 0.8661 0.8666
3745.000000 0.8671 0.8675 0.8681 0.8686 0.8689
3740.000000 0.8693 0.8696 0.8700 0.8703 0.8706
3735.000000 0.8709 0.8713 0.8716 0.8718 0.8721
3730.000000 0.8725 0.8728 0.8732 0.8735 0.8739
3725.000000 0.8742 0.8745 0.8748 0.8752 0.8755
3720.000000 0.8758 0.8761 0.8764 0.8766 0.8768
3715.000000 0.8770 0.8771 0.8774 0.8777 0.8778
3710.000000 0.8781 0.8783 0.8785 0.8787 0.8789
3705.000000 0.8790 0.8791 0.8791 0.8792 0.8792
3700.000000 0.8792 0.8792 0.8793 0.8793 0.8793
3695.000000 0.8793 0.8793 0.8793 0.8792 0.8792
3690.000000 0.8791 0.8788 0.8785 0.8782 0.8778
3685.000000 0.8775 0.8771 0.8768 0.8766 0.8763
3680.000000 0.8760 0.8757 0.8754 0.8750 0.8747
3675.000000 0.8747 0.8748 0.8749 0.8750 0.8751
3670.000000 0.8752 0.8752 0.8753 0.8754 0.8755
3665.000000 0.8756 0.8757 0.8757 0.8758 0.8759
3660.000000 0.8760 0.8761 0.8762 0.8763 0.8764
3655.000000 0.8764 0.8765 0.8766 0.8767 0.8768
3650.000000 0.8768 0.8770 0.8771 0.8771 0.8773
3645.000000 0.8774 0.8775 0.8775 0.8777 0.8778
3640.000000 0.8778 0.8780 0.8781 0.8782 0.8783
3635.000000 0.8784 0.8785 0.8786 0.8787 0.8788
3630.000000 0.8789 0.8790 0.8791 0.8792 0.8793
3625.000000 0.8794 0.8795 0.8795 0.8796 0.8796
3620.000000 0.8797 0.8797 0.8798 0.8798 0.8798
3615.000000 0.8798 0.8799 0.8799 0.8800 0.8801
3610.000000 0.8803 0.8804 0.8806 0.8807 0.8809
3605.000000 0.8810 0.8812 0.8812 0.8813 0.8813
3600.000000 0.8813 0.8812 0.8812 0.8811 0.8811
3595.000000 0.8810 0.8810 0.8809 0.8809 0.8808
3590.000000 0.8808 0.8808 0.8808 0.8807 0.8807
3585.000000 0.8806 0.8806 0.8805 0.8805 0.8804
3580.000000 0.8804 0.8803 0.8803 0.8803 0.8803
3575.000000 0.8802 0.8802 0.8801 0.8801 0.8800
3570.000000 0.8800 0.8800 0.8800 0.8799 0.8799
3565.000000 0.8798 0.8798 0.8798 0.8798 0.8797
3560.000000 0.8797 0.8796 0.8796 0.8796 0.8796
3555.000000 0.8795 0.8795 0.8794 0.8794 0.8794
3550.000000 0.8795 0.8795 0.8796 0.8797 0.8798
3545.000000 0.8798 0.8799 0.8799 0.8800 0.8800
3540.000000 0.8801 0.8801 0.8802 0.8803 0.8804
3535.000000 0.8804 0.8805 0.8806 0.8807 0.8808
3530.000000 0.8809 0.8810 0.8811 0.8812 0.8813
3525.000000 0.8814 0.8816 0.8817 0.8818 0.8818
3520.000000 0.8820 0.8821 0.8821 0.8823 0.8824
3515.000000 0.8825 0.8825 0.8827 0.8828 0.8828
3510.000000 0.8830 0.8831 0.8833 0.8834 0.8835
3505.000000 0.8836 0.8838 0.8839 0.8840 0.8841
3500.000000 0.8842 0.8843 0.8845 0.8846 0.8847
3495.000000 0.8848 0.8850 0.8851 0.8852 0.8853
3490.000000 0.8855 0.8856 0.8857 0.8858 0.8859
3485.000000 0.8860 0.8862 0.8863 0.8864 0.8865
3480.000000 0.8866 0.8867 0.8868 0.8868 0.8870
3475.000000 0.8871 0.8871 0.8873 0.8874 0.8875
3470.000000 0.8875 0.8877 0.8878 0.8878 0.8880
3465.000000 0.8881 0.8882 0.8883 0.8884 0.8885
3460.000000 0.8886 0.8887 0.8888 0.8889 0.8890
3455.000000 0.8891 0.8892 0.8893 0.8894 0.8895
3450.000000 0.8896 0.8897 0.8898 0.8899 0.8900
3445.000000 0.8901 0.8902 0.8903 0.8904 0.8905
3440.000000 0.8906 0.8907 0.8908 0.8909 0.8910
3435.000000 0.8911 0.8912 0.8913 0.8914 0.8915
3430.000000 0.8916 0.8917 0.8918 0.8918 0.8920
3425.000000 0.8921 0.8921 0.8923 0.8924 0.8925
3420.000000 0.8925 0.8928 0.8932 0.8934 0.8937
3415.000000 0.8940 0.8943 0.8946 0.8949 0.8951
3410.000000 0.8954 0.8957 0.8960 0.8962 0.8965
3405.000000 0.8968 0.8971 0.8973 0.8975 0.8977
3400.000000 0.8978 0.8978 0.8980 0.8980 0.8981
3395.000000 0.8980 0.8978 0.8977 0.8975 0.8973
3390.000000 0.8971 0.8968 0.8967 0.8964 0.8962
3385.000000 0.8960 0.8958 0.8956 0.8954 0.8952
3380.000000 0.8950 0.8947 0.8945 0.8943 0.8941
3375.000000 0.8939 0.8937 0.8935 0.8933 0.8930
3370.000000 0.8928 0.8925 0.8924 0.8921 0.8920
3365.000000 0.8918 0.8918 0.8917 0.8917 0.8916
3360.000000 0.8915 0.8914 0.8913 0.8912 0.8911
3355.000000 0.8910 0.8909 0.8908 0.8908 0.8907
3350.000000 0.8906 0.8905 0.8904 0.8903 0.8902
3345.000000 0.8901 0.8900 0.8899 0.8899 0.8898
3340.000000 0.8897 0.8896 0.8895 0.8894 0.8894
3335.000000 0.8893 0.8893 0.8893 0.8893 0.8892
3330.000000 0.8892 0.8892 0.8892 0.8891 0.8891
3325.000000 0.8891 0.8891 0.8890 0.8890 0.8890
3320.000000 0.8890 0.8889 0.8889 0.8889 0.8889
3315.000000 0.8889 0.8889 0.8888 0.8888 0.8888
3310.000000 0.8888 0.8887 0.8887 0.8887 0.8887
3305.000000 0.8886 0.8886 0.8885 0.8885 0.8884
3300.000000 0.8883 0.8882 0.8882 0.8881 0.8880
3295.000000 0.8878 0.8878 0.8877 0.8875 0.8875
3290.000000 0.8875 0.8874 0.8873 0.8871 0.8871
3285.000000 0.8870 0.8870 0.8868 0.8868 0.8867
3280.000000 0.8866 0.8865 0.8865 0.8864 0.8864
3275.000000 0.8863 0.8862 0.8861 0.8861 0.8860
3270.000000 0.8860 0.8859 0.8858 0.8857 0.8857
3265.000000 0.8856 0.8856 0.8855 0.8854 0.8853
3260.000000 0.8853 0.8852 0.8851 0.8850 0.8850
3255.000000 0.8849 0.8849 0.8848 0.8847 0.8845
3250.000000 0.8844 0.8842 0.8841 0.8840 0.8839
3245.000000 0.8837 0.8836 0.8834 0.8833 0.8832
3240.000000 0.8831 0.8828 0.8828 0.8825 0.8825
3235.000000 0.8824 0.8823 0.8821 0.8820 0.8818
3230.000000 0.8817 0.8816 0.8815 0.8814 0.8813
3225.000000 0.8812 0.8811 0.8810 0.8809 0.8808
3220.000000 0.8808 0.8807 0.8806 0.8805 0.8804
3215.000000 0.8803 0.8802 0.8801 0.8801 0.8799
3210.000000 0.8798 0.8796 0.8794 0.8792 0.8791
3205.000000 0.8789 0.8787 0.8785 0.8783 0.8780
3200.000000 0.8777 0.8774 0.8771 0.8768 0.8765
3195.000000 0.8762 0.8760 0.8757 0.8754 0.8751
3190.000000 0.8748 0.8745 0.8742 0.8739 0.8736
3185.000000 0.8732 0.8728 0.8725 0.8723 0.8718
3180.000000 0.8716 0.8712 0.8708 0.8702 0.8697
3175.000000 0.8691 0.8686 0.8680 0.8675 0.8666
3170.000000 0.8657 0.8646 0.8635 0.8623 0.8611
3165.000000 0.8597 0.8583 0.8557 0.8531 0.8515
3160.000000 0.8499 0.8495 0.8490 0.8492 0.8493
3155.000000 0.8497 0.8501 0.8515 0.8528 0.8553
3150.000000 0.8577 0.8585 0.8593 0.8601 0.8609
3145.000000 0.8615 0.8621 0.8621 0.8624 0.8625
3140.000000 0.8627 0.8628 0.8630 0.8631 0.8633
3135.000000 0.8633 0.8633 0.8631 0.8630 0.8628
3130.000000 0.8627 0.8625 0.8625 0.8623 0.8621
3125.000000 0.8620 0.8618 0.8613 0.8607 0.8601
3120.000000 0.8595 0.8589 0.8583 0.8577 0.8571
3115.000000 0.8566 0.8560 0.8554 0.8548 0.8539
3110.000000 0.8531 0.8515 0.8500 0.8484 0.8468
3105.000000 0.8454 0.8441 0.8431 0.8421 0.8411
3100.000000 0.8401 0.8392 0.8384 0.8378 0.8375
3095.000000 0.8370 0.8366 0.8360 0.8355 0.8344
3090.000000 0.8334 0.8271 0.8209 0.8140 0.8071
3085.000000 0.8003 0.7935 0.7865 0.7798 0.7728
3080.000000 0.7661 0.7592 0.7524 0.7455 0.7343
3075.000000 0.7364 0.7341 0.7338 0.7337 0.7337
3070.000000 0.7338 0.7428 0.7519 0.7651 0.7782
3065.000000 0.7912 0.8044 0.8135 0.8225 0.8264
3060.000000 0.8302 0.8335 0.8368 0.8391 0.8414
3055.000000 0.8436 0.8459 0.8475 0.8493 0.8501
3050.000000 0.8510 0.8518 0.8527 0.8535 0.8543
3045.000000 0.8551 0.8560 0.8568 0.8575 0.8583
3040.000000 0.8590 0.8597 0.8605 0.8612 0.8620
3035.000000 0.8621 0.8625 0.8627 0.8628 0.8631
3030.000000 0.8633 0.8635 0.8637 0.8639 0.8641
3025.000000 0.8641 0.8641 0.8641 0.8641 0.8640
3020.000000 0.8639 0.8638 0.8637 0.8634 0.8632
3015.000000 0.8630 0.8628 0.8625 0.8623 0.8620
3010.000000 0.8620 0.8620 0.8671 0.8625 0.8628
3005.000000 0.8632 0.8636 0.8639 0.8642 0.8645
3000.000000 0.8649 0.8652 0.8656 0.8659 0.8663
2995.000000 0.8665 0.8667 0.8668 0.8671 0.8673
2990.000000 0.8675 0.8677 0.8680 0.8682 0.8684
2985.000000 0.8686 0.8688 0.8690 0.8692 0.8694
2980.000000 0.8696 0.8698 0.8700 0.8702 0.8704
2975.000000 0.8706 0.8708 0.8710 0.8712 0.8713
2970.000000 0.8715 0.8717 0.8718 0.8721 0.8723
2965.000000 0.8725 0.8728 0.8730 0.8732 0.8734
2960.000000 0.8737 0.8739 0.8742 0.8744 0.8747
2955.000000 0.8749 0.8751 0.8753 0.8756 0.8758
2950.000000 0.8761 0.8762 0.8763 0.8764 0.8766
2945.000000 0.8767 0.8768 0.8768 0.8771 0.8771
2940.000000 0.8773 0.8775 0.8777 0.8778 0.8780
2935.000000 0.8781 0.8783 0.8785 0.8787 0.8788
2930.000000 0.8790 0.8790 0.8791 0.8787 0.8784
2925.000000 0.8773 0.8762 0.8751 0.8741 0.8735
2920.000000 0.8730 0.8725 0.8720 0.8720 0.8721
2915.000000 0.8721 0.8721 0.8721 0.8721 0.8721
2910.000000 0.8723 0.8723 0.8724 0.8724 0.8725
2905.000000 0.8725 0.8727 0.8727 0.8728 0.8728
2900.000000 0.8728 0.8728 0.8730 0.8730 0.8731
2895.000000 0.8732 0.8733 0.8733 0.8733 0.8732
2890.000000 0.8732 0.8731 0.8730 0.8728 0.8728
2885.000000 0.8727 0.8725 0.8725 0.8725 0.8725
2880.000000 0.8725 0.8724 0.8724 0.8723 0.8723
2875.000000 0.8721 0.8721 0.8718 0.8715 0.8710
2870.000000 0.8705 0.8699 0.8694 0.8689 0.8684
2865.000000 0.8675 0.8666 0.8656 0.8646 0.8640
2860.000000 0.8635 0.8636 0.8637 0.8637 0.8638
2855.000000 0.8639 0.8640 0.8640 0.8641 0.8645
2850.000000 0.8649 0.8654 0.8659 0.8664 0.8668
2845.000000 0.8674 0.8680 0.8685 0.8690 0.8695
2840.000000 0.8700 0.8705 0.8711 0.8716 0.8721
2835.000000 0.8725 0.8725 0.8727 0.8721 0.8717
2830.000000 0.8712 0.8705 0.8698 0.8686 0.8674
2825.000000 0.8668 0.8663 0.8658 0.8654 0.8649
2820.000000 0.8645 0.8645 0.8646 0.8646 0.8647
2815.000000 0.8647 0.8648 0.8648 0.8649 0.8650
2810.000000 0.8651 0.8653 0.8656 0.8662 0.8668
2805.000000 0.8673 0.8678 0.8685 0.8691 0.8692
2800.000000 0.8693 0.8693 0.8694 0.8695 0.8696
2795.000000 0.8697 0.8698 0.8699 0.8700 0.8700
2790.000000 0.8701 0.8701 0.8702 0.8702 0.8702
2785.000000 0.8702 0.8702 0.8702 0.8702 0.8702
2780.000000 0.8702 0.8702 0.8702 0.8701 0.8701
2775.000000 0.8701 0.8701 0.8701 0.8701 0.8701
2770.000000 0.8701 0.8701 0.8701 0.8701 0.8701
2765.000000 0.8701 0.8701 0.8701 0.8701 0.8701
2760.000000 0.8701 0.8701 0.8701 0.8701 0.8701
2755.000000 0.8701 0.8701 0.8701 0.8701 0.8700
2750.000000 0.8699 0.8698 0.8697 0.8696 0.8695
2745.000000 0.8693 0.8692 0.8691 0.8690 0.8689
2740.000000 0.8688 0.8687 0.8686 0.8685 0.8684
2735.000000 0.8683 0.8682 0.8681 0.8680 0.8678
2730.000000 0.8678 0.8677 0.8675 0.8674 0.8673
2725.000000 0.8671 0.8668 0.8667 0.8665 0.8663
2720.000000 0.8661 0.8659 0.8657 0.8655 0.8653
2715.000000 0.8651 0.8649 0.8647 0.8645 0.8643
2710.000000 0.8641 0.8638 0.8636 0.8633 0.8630
2705.000000 0.8627 0.8625 0.8621 0.8618 0.8617
2700.000000 0.8616 0.8614 0.8612 0.8610 0.8608
2695.000000 0.8607 0.8607 0.8607 0.8610 0.8612
2690.000000 0.8614 0.8616 0.8618 0.8620 0.8621
2685.000000 0.8624 0.8625 0.8628 0.8630 0.8632
2680.000000 0.8634 0.8636 0.8638 0.8640 0.8642
2675.000000 0.8644 0.8646 0.8648 0.8651 0.8653
2670.000000 0.8656 0.8658 0.8661 0.8663 0.8665
2665.000000 0.8667 0.8670 0.8671 0.8675 0.8677
2660.000000 0.8680 0.8682 0.8685 0.8687 0.8689
2655.000000 0.8690 0.8692 0.8692 0.8693 0.8693
2650.000000 0.8693 0.8693 0.8694 0.8694 0.8695
2645.000000 0.8695 0.8696 0.8696 0.8697 0.8697
2640.000000 0.8698 0.8698 0.8699 0.8699 0.8700
2635.000000 0.8700 0.8701 0.8701 0.8702 0.8702
2630.000000 0.8702 0.8702 0.8703 0.8703 0.8703
2625.000000 0.8703 0.8703 0.8703 0.8704 0.8704
2620.000000 0.8704 0.8704 0.8705 0.8705 0.8705
2615.000000 0.8705 0.8706 0.8706 0.8706 0.8706
2610.000000 0.8707 0.8707 0.8707 0.8707 0.8707
2605.000000 0.8707 0.8708 0.8708 0.8708 0.8708
2600.000000 0.8708 0.8708 0.8708 0.8708 0.8708
2595.000000 0.8708 0.8708 0.8708 0.8708 0.8707
2590.000000 0.8707 0.8705 0.8704 0.8702 0.8700
2585.000000 0.8698 0.8696 0.8694 0.8692 0.8690
2580.000000 0.8688 0.8686 0.8684 0.8682 0.8681
2575.000000 0.8678 0.8678 0.8675 0.8675 0.8673
2570.000000 0.8671 0.8670 0.8668 0.8668 0.8667
2565.000000 0.8666 0.8666 0.8665 0.8665 0.8664
2560.000000 0.8664 0.8663 0.8663 0.8662 0.8662
2555.000000 0.8661 0.8661 0.8661 0.8661 0.8660
2550.000000 0.8660 0.8659 0.8659 0.8658 0.8658
2545.000000 0.8657 0.8657 0.8656 0.8656 0.8655
2540.000000 0.8655 0.8655 0.8655 0.8654 0.8654
2535.000000 0.8653 0.8653 0.8652 0.8652 0.8652
2530.000000 0.8652 0.8652 0.8653 0.8653 0.8654
2525.000000 0.8655 0.8656 0.8656 0.8657 0.8657
2520.000000 0.8658 0.8658 0.8659 0.8659 0.8660
2515.000000 0.8661 0.8662 0.8662 0.8662 0.8662
2510.000000 0.8662 0.8662 0.8662 0.8662 0.8663
2505.000000 0.8663 0.8663 0.8663 0.8663 0.8663
2500.000000 0.8663 0.8663 0.8663 0.8663 0.8664
2495.000000 0.8664 0.8664 0.8664 0.8664 0.8664
2490.000000 0.8664 0.8664 0.8665 0.8665 0.8665
2485.000000 0.8665 0.8665 0.8665 0.8665 0.8665
2480.000000 0.8665 0.8665 0.8665 0.8664 0.8664
2475.000000 0.8664 0.8664 0.8664 0.8664 0.8664
2470.000000 0.8664 0.8664 0.8664 0.8664 0.8664
2465.000000 0.8664 0.8665 0.8665 0.8666 0.8666
2460.000000 0.8667 0.8667 0.8668 0.8668 0.8668
2455.000000 0.8668 0.8670 0.8670 0.8671 0.8671
2450.000000 0.8671 0.8671 0.8673 0.8674 0.8675
2445.000000 0.8675 0.8675 0.8677 0.8678 0.8678
2440.000000 0.8678 0.8680 0.8681 0.8682 0.8683
2435.000000 0.8683 0.8684 0.8685 0.8687 0.8688
2430.000000 0.8689 0.8690 0.8691 0.8692 0.8694
2425.000000 0.8695 0.8696 0.8696 0.8697 0.8696
2420.000000 0.8694 0.8690 0.8686 0.8682 0.8678
2415.000000 0.8673 0.8668 0.8660 0.8653 0.8646
2410.000000 0.8640 0.8637 0.8634 0.8631 0.8628
2405.000000 0.8625 0.8623 0.8623 0.8624 0.8630
2400.000000 0.8637 0.8644 0.8651 0.8655 0.8660
2395.000000 0.8664 0.8668 0.8671 0.8677 0.8681
2390.000000 0.8686 0.8688 0.8690 0.8691 0.8693
2385.000000 0.8694 0.8696 0.8697 0.8698 0.8692
2380.000000 0.8686 0.8680 0.8674 0.8668 0.8663
2375.000000 0.8646 0.8628 0.8611 0.8593 0.8574
2370.000000 0.8556 0.8536 0.8517 0.8499 0.8481
2365.000000 0.8468 0.8455 0.8449 0.8449 0.8449
2360.000000 0.8455 0.8460 0.8465 0.8470 0.8475
2355.000000 0.8490 0.8505 0.8518 0.8534 0.8556
2350.000000 0.8578 0.8596 0.8614 0.8624 0.8634
2345.000000 0.8644 0.8654 0.8657 0.8661 0.8661
2340.000000 0.8661 0.8661 0.8661 0.8659 0.8657
2335.000000 0.8654 0.8651 0.8647 0.8644 0.8640
2330.000000 0.8637 0.8632 0.8628 0.8621 0.8615
2325.000000 0.8608 0.8602 0.8595 0.8589 0.8590
2320.000000 0.8592 0.8594 0.8597 0.8599 0.8602
2315.000000 0.8605 0.8608 0.8614 0.8621 0.8627
2310.000000 0.8634 0.8640 0.8647 0.8653 0.8660
2305.000000 0.8666 0.8673 0.8677 0.8681 0.8684
2300.000000 0.8688 0.8692 0.8696 0.8699 0.8703
2295.000000 0.8706 0.8710 0.8712 0.8715 0.8715
2290.000000 0.8716 0.8716 0.8717 0.8718 0.8718
2285.000000 0.8718 0.8720 0.8720 0.8721 0.8721
2280.000000 0.8723 0.8723 0.8724 0.8724 0.8725
2275.000000 0.8725 0.8725 0.8727 0.8727 0.8727
2270.000000 0.8727 0.8725 0.8725 0.8723 0.8721
2265.000000 0.8721 0.8720 0.8718 0.8718 0.8717
2260.000000 0.8716 0.8714 0.8713 0.8712 0.8711
2255.000000 0.8710 0.8709 0.8708 0.8707 0.8705
2250.000000 0.8703 0.8700 0.8698 0.8695 0.8693
2245.000000 0.8690 0.8688 0.8685 0.8683 0.8681
2240.000000 0.8678 0.8677 0.8675 0.8671 0.8671
2235.000000 0.8671 0.8675 0.8678 0.8682 0.8685
2230.000000 0.8689 0.8692 0.8696 0.8699 0.8703
2225.000000 0.8707 0.8711 0.8713 0.8715 0.8717
2220.000000 0.8718 0.8720 0.8721 0.8724 0.8725
2215.000000 0.8728 0.8730 0.8731 0.8733 0.8735
2210.000000 0.8737 0.8738 0.8740 0.8740 0.8740
2205.000000 0.8739 0.8738 0.8737 0.8736 0.8735
2200.000000 0.8735 0.8734 0.8733 0.8732 0.8731
2195.000000 0.8730 0.8730 0.8728 0.8728 0.8727
2190.000000 0.8725 0.8725 0.8725 0.8725 0.8725
2185.000000 0.8725 0.8725 0.8725 0.8725 0.8725
2180.000000 0.8725 0.8724 0.8724 0.8724 0.8724
2175.000000 0.8724 0.8724 0.8723 0.8723 0.8723
2170.000000 0.8723 0.8723 0.8723 0.8721 0.8721
2165.000000 0.8721 0.8721 0.8723 0.8724 0.8725
2160.000000 0.8727 0.8728 0.8728 0.8730 0.8732
2155.000000 0.8733 0.8734 0.8735 0.8737 0.8738
2150.000000 0.8739 0.8740 0.8742 0.8743 0.8744
2145.000000 0.8744 0.8744 0.8744 0.8745 0.8745
2140.000000 0.8746 0.8746 0.8747 0.8747 0.8748
2135.000000 0.8748 0.8749 0.8749 0.8750 0.8750
2130.000000 0.8750 0.8750 0.8751 0.8751 0.8751
2125.000000 0.8751 0.8751 0.8751 0.8751 0.8751
2120.000000 0.8751 0.8751 0.8752 0.8752 0.8752
2115.000000 0.8752 0.8752 0.8752 0.8752 0.8752
2110.000000 0.8753 0.8753 0.8753 0.8753 0.8753
2105.000000 0.8753 0.8754 0.8755 0.8756 0.8756
2100.000000 0.8757 0.8757 0.8758 0.8759 0.8760
2095.000000 0.8760 0.8761 0.8762 0.8763 0.8763
2090.000000 0.8764 0.8764 0.8765 0.8766 0.8767
2085.000000 0.8768 0.8770 0.8771 0.8773 0.8774
2080.000000 0.8775 0.8777 0.8778 0.8780 0.8782
2075.000000 0.8783 0.8785 0.8786 0.8788 0.8789
2070.000000 0.8791 0.8792 0.8794 0.8796 0.8798
2065.000000 0.8799 0.8801 0.8802 0.8802 0.8802
2060.000000 0.8802 0.8802 0.8802 0.8801 0.8801
2055.000000 0.8801 0.8801 0.8801 0.8801 0.8800
2050.000000 0.8800 0.8800 0.8800 0.8799 0.8799
2045.000000 0.8799 0.8799 0.8799 0.8799 0.8799
2040.000000 0.8799 0.8799 0.8799 0.8798 0.8798
2035.000000 0.8798 0.8798 0.8798 0.8798 0.8798
2030.000000 0.8798 0.8798 0.8798 0.8798 0.8798
2025.000000 0.8798 0.8798 0.8798 0.8798 0.8798
2020.000000 0.8798 0.8798 0.8798 0.8798 0.8798
2015.000000 0.8798 0.8798 0.8798 0.8798 0.8798
2010.000000 0.8798 0.8798 0.8798 0.8798 0.8799
2005.000000 0.8799 0.8799 0.8799 0.8800 0.8802
2000.000000 0.8805 0.8809 0.8820 0.8847 0.8887
1995.000000 0.8927 0.8970 0.9014 0.9046 0.8975
1990.000000 0.8918 0.8868 0.8847 0.8825 0.8817
1985.000000 0.8812 0.8806 0.8800 0.8796 0.8793
1980.000000 0.8790 0.8787 0.8785 0.8782 0.8778
1975.000000 0.8777 0.8775 0.8774 0.8771 0.8770
1970.000000 0.8768 0.8768 0.8768 0.8773 0.8778
1965.000000 0.8789 0.8832 0.8959 0.9086 0.9112
1960.000000 0.9089 0.9035 0.8980 0.8925 0.8871
1955.000000 0.8817 0.8790 0.8786 0.8783 0.8777
1950.000000 0.8768 0.8758 0.8742 0.8725 0.8709
1945.000000 0.8692 0.8659 0.8621 0.8554 0.8471
1940.000000 0.8338 0.8117 0.7999 0.7961 0.7988
1935.000000 0.7990 0.8034 0.8115 0.8251 0.8389
1930.000000 0.8468 0.8521 0.8570 0.8601 0.8632
1925.000000 0.8650 0.8667 0.8684 0.8700 0.8713
1920.000000 0.8720 0.8727 0.8728 0.8730 0.8730
1915.000000 0.8730 0.8721 0.8713 0.8704 0.8692
1910.000000 0.8678 0.8671 0.8668 0.8663 0.8663
1905.000000 0.8664 0.8666 0.8667 0.8668 0.8674
1900.000000 0.8680 0.8685 0.8691 0.8699 0.8759
1895.000000 0.8715 0.8721 0.8725 0.8730 0.8734
1890.000000 0.8738 0.8742 0.8745 0.8748 0.8752
1885.000000 0.8755 0.8755 0.8755 0.8754 0.8751
1880.000000 0.8747 0.8744 0.8741 0.8737 0.8728
1875.000000 0.8717 0.8706 0.8694 0.8671 0.8648
1870.000000 0.8586 0.8535 0.8487 0.8440 0.8314
1865.000000 0.8210 0.7955 0.8006 0.7991 0.7987
1860.000000 0.8015 0.8100 0.8218 0.8331 0.8417
1855.000000 0.8484 0.8545 0.8597 0.8623 0.8633
1850.000000 0.8633 0.8633 0.8633 0.8634 0.8636
1845.000000 0.8639 0.8641 0.8644 0.8654 0.8666
1840.000000 0.8677 0.8688 0.8700 0.8711 0.8718
1835.000000 0.8725 0.8733 0.8741 0.8748 0.8754
1830.000000 0.8760 0.8766 0.8771 0.8775 0.8780
1825.000000 0.8783 0.8786 0.8790 0.8793 0.8797
1820.000000 0.8800 0.8803 0.8803 0.8803 0.8802
1815.000000 0.8802 0.8802 0.8804 0.8805 0.8807
1810.000000 0.8808 0.8809 0.8806 0.8803 0.8799
1805.000000 0.8794 0.8789 0.8784 0.8775 0.8754
1800.000000 0.8728 0.8703 0.8675 0.8647 0.8610
1795.000000 0.8559 0.8506 0.8427 0.8338 0.8277
1790.000000 0.8230 0.8198 0.8165 0.8139 0.8150
1785.000000 0.8153 0.8154 0.8182 0.8239 0.8307
1780.000000 0.8374 0.8439 0.8495 0.8544 0.8590
1775.000000 0.8621 0.8651 0.8670 0.8689 0.8699
1770.000000 0.8705 0.8711 0.8716 0.8717 0.8718
1765.000000 0.8718 0.8718 0.8718 0.8718 0.8718
1760.000000 0.8717 0.8715 0.8713 0.8705 0.8696
1755.000000 0.8687 0.8678 0.8660 0.8621 0.8578
1750.000000 0.8532 0.8486 0.8444 0.8408 0.8371
1745.000000 0.8336 0.8288 0.8240 0.8202 0.8168
1740.000000 0.8134 0.8086 0.8045 0.7969 0.8001
1735.000000 0.8001 0.8033 0.8084 0.8137 0.8199
1730.000000 0.8260 0.8321 0.8382 0.8443 0.8485
1725.000000 0.8524 0.8560 0.8585 0.8610 0.8636
1720.000000 0.8657 0.8673 0.8689 0.8706 0.8721
1715.000000 0.8738 0.8749 0.8760 0.8770 0.8778
1710.000000 0.8787 0.8795 0.8801 0.8800 0.8800
1705.000000 0.8800 0.8794 0.8781 0.8767 0.8789
1700.000000 0.8746 0.8750 0.8755 0.8759 0.8764
1695.000000 0.8768 0.8771 0.8774 0.8775 0.8778
1690.000000 0.8780 0.8781 0.8782 0.8781 0.8775
1685.000000 0.8771 0.8767 0.8762 0.8755 0.8743
1680.000000 0.8732 0.8717 0.8692 0.8666 0.8641
1675.000000 0.8616 0.8580 0.8541 0.8504 0.8467
1670.000000 0.8435 0.8405 0.8390 0.8402 0.8387
1665.000000 0.8385 0.8390 0.8406 0.8431 0.8459
1660.000000 0.8488 0.8517 0.8549 0.8581 0.8612
1655.000000 0.8644 0.8675 0.8709 0.8743 0.8778
1650.000000 0.8810 0.8837 0.8864 0.8892 0.8911
1645.000000 0.8928 0.8968 0.8952 0.8957 0.8955
1640.000000 0.8954 0.8945 0.8928 0.8911 0.8890
1635.000000 0.8868 0.8857 0.8861 0.8863 0.8864
1630.000000 0.8865 0.8840 0.8809 0.8746 0.8674
1625.000000 0.8602 0.8508 0.8427 0.8404 0.8407
1620.000000 0.8440 0.8509 0.8571 0.8613 0.8639
1615.000000 0.8657 0.8664 0.8664 0.8663 0.8662
1610.000000 0.8662 0.8658 0.8668 0.8644 0.8637
1605.000000 0.8624 0.8609 0.8593 0.8577 0.8545
1600.000000 0.8507 0.8463 0.8386 0.8302 0.8207
1595.000000 0.8110 0.8012 0.7911 0.7808 0.7632
1590.000000 0.6858 0.5955 0.5051 0.4147 0.3243
1585.000000 0.2339 0.1435 0.0531 0.0065 0.0057
1580.000000 0.0028 0.0066 0.0105 0.0558 0.1009
1575.000000 0.1460 0.1912 0.2363 0.2814 0.3264
1570.000000 0.3716 0.4168 0.4384 0.4623 0.4867
1565.000000 0.5112 0.5356 0.5601 0.5845 0.6090
1560.000000 0.6334 0.6578 0.6822 0.7068 0.7311
1555.000000 0.7557 0.7789 0.7960 0.8044 0.8137
1550.000000 0.8240 0.8321 0.8360 0.8360 0.8360
1545.000000 0.8360 0.8360 0.8360 0.8361 0.8361
1540.000000 0.8366 0.8425 0.8468 0.8505 0.8540
1535.000000 0.8565 0.8581 0.8598 0.8615 0.8625
1530.000000 0.8637 0.8648 0.8659 0.8668 0.8680
1525.000000 0.8691 0.8699 0.8704 0.8709 0.8713
1520.000000 0.8718 0.8693 0.8728 0.8733 0.8734
1515.000000 0.8727 0.8716 0.8693 0.8666 0.8616
1510.000000 0.8565 0.8349 0.8062 0.7661 0.7260
1505.000000 0.6858 0.6366 0.6383 0.6377 0.6618
1500.000000 0.6943 0.7267 0.7591 0.7889 0.7960
1495.000000 0.8004 0.8045 0.8069 0.8081 0.8081
1490.000000 0.8081 0.8080 0.8044 0.7990 0.7933
1485.000000 0.7840 0.7468 0.7015 0.6562 0.6110
1480.000000 0.5658 0.5490 0.5474 0.5581 0.5699
1475.000000 0.5818 0.5936 0.6055 0.6065 0.6066
1470.000000 0.4885 0.2792 0.0699 0.0073 0.0076
1465.000000 0.0080 0.0044 0.0077 0.0799 0.1535
1460.000000 0.2270 0.3005 0.3740 0.4476 0.5210
1455.000000 0.5682 0.6018 0.6354 0.6690 0.6991
1450.000000 0.7068 0.7188 0.7308 0.7428 0.7548
1445.000000 0.7668 0.7788 0.7908 0.7976 0.7968
1440.000000 0.7865 0.7761 0.7708 0.7771 0.7908
1435.000000 0.8044 0.8178 0.8315 0.8350 0.8381
1430.000000 0.8386 0.8303 0.8217 0.8131 0.8045
1425.000000 0.7987 0.7978 0.7968 0.7958 0.7660
1420.000000 0.5997 0.4335 0.1615 0.1627 0.1672
1415.000000 0.2393 0.3113 0.3834 0.4555 0.5275
1410.000000 0.5996 0.6572 0.6618 0.6547 0.6105
1405.000000 0.5662 0.5220 0.4778 0.4395 0.4399
1400.000000 0.4606 0.5245 0.5885 0.6524 0.7162
1395.000000 0.7415 0.7606 0.7797 0.7987 0.8178
1390.000000 0.8368 0.8456 0.8516 0.8565 0.8607
1385.000000 0.8631 0.8650 0.8656 0.8656 0.8656
1380.000000 0.8656 0.8656 0.8660 0.8668 0.8678
1375.000000 0.8687 0.8696 0.8705 0.8714 0.8725
1370.000000 0.8739 0.8753 0.8767 0.8780 0.8794
1365.000000 0.8807 0.8820 0.8833 0.8845 0.8852
1360.000000 0.8859 0.8873 0.8871 0.8865 0.8857
1355.000000 0.8848 0.8843 0.8837 0.8833 0.8830
1350.000000 0.8827 0.8825 0.8821 0.8818 0.8813
1345.000000 0.8805 0.8797 0.8782 0.8756 0.8731
1340.000000 0.8694 0.8648 0.8592 0.8528 0.8464
1335.000000 0.8403 0.8346 0.8198 0.8044 0.7890
1330.000000 0.7792 0.7808 0.7868 0.8001 0.8134
1325.000000 0.8267 0.8356 0.8390 0.8424 0.8455
1320.000000 0.8482 0.8509 0.8523 0.8536 0.8540
1315.000000 0.8544 0.8515 0.8549 0.8542 0.8517
1310.000000 0.8485 0.8377 0.8347 0.8354 0.8374
1305.000000 0.8392 0.8405 0.8407 0.8408 0.8409
1300.000000 0.8399 0.8389 0.8375 0.8353 0.8331
1295.000000 0.8298 0.8257 0.8011 0.7686 0.7426
1290.000000 0.7440 0.7458 0.7596 0.7734 0.7871
1285.000000 0.8010 0.8148 0.8200 0.8251 0.8301
1280.000000 0.8346 0.8380 0.8400 0.8418 0.8430
1275.000000 0.8458 0.8451 0.8450 0.8450 0.8448
1270.000000 0.8445 0.8442 0.8433 0.8424 0.8410
1265.000000 0.8388 0.8363 0.8330 0.8286 0.8025
1260.000000 0.7149 0.7180 0.7171 0.7268 0.7493
1255.000000 0.7718 0.7942 0.8165 0.8351 0.8437
1250.000000 0.8470 0.8502 0.8518 0.8532 0.8547
1245.000000 0.8561 0.8575 0.8591 0.8607 0.8621
1240.000000 0.8638 0.8649 0.8661 0.8671 0.8678
1235.000000 0.8682 0.8687 0.8687 0.8688 0.8683
1230.000000 0.8681 0.8678 0.8675 0.8674 0.8671
1225.000000 0.8662 0.8646 0.8631 0.8615 0.8590
1220.000000 0.8546 0.8490 0.8425 0.8368 0.8316
1215.000000 0.8263 0.8208 0.8162 0.8125 0.8089
1210.000000 0.8060 0.8033 0.8045 0.8044 0.8053
1205.000000 0.8088 0.8128 0.8169 0.8213 0.8255
1200.000000 0.8336 0.8425 0.8461 0.8493 0.8506
1195.000000 0.8514 0.8541 0.8528 0.8537 0.8535
1190.000000 0.8532 0.8524 0.8504 0.8484 0.8438
1185.000000 0.8392 0.8349 0.8324 0.8316 0.8317
1180.000000 0.8317 0.8338 0.8348 0.8358 0.8366
1175.000000 0.8367 0.8368 0.8368 0.8361 0.8350
1170.000000 0.8330 0.8299 0.8268 0.8231 0.8184
1165.000000 0.8130 0.8044 0.7411 0.6961 0.6983
1160.000000 0.7176 0.7422 0.7668 0.7915 0.8047
1155.000000 0.8096 0.8137 0.8161 0.8186 0.8192
1150.000000 0.8192 0.8192 0.8192 0.8192 0.8196
1145.000000 0.8201 0.8214 0.8228 0.8245 0.8254
1140.000000 0.8260 0.8246 0.8244 0.8191 0.8128
1135.000000 0.8068 0.7962 0.7810 0.7501 0.6076
1130.000000 0.4372 0.1335 0.1334 0.1333 0.1345
1125.000000 0.1945 0.2665 0.3384 0.4105 0.4824
1120.000000 0.5544 0.6264 0.7025 0.7000 0.6755
1115.000000 0.6162 0.5568 0.4974 0.4877 0.4859
1110.000000 0.5389 0.5942 0.6496 0.6998 0.7172
1105.000000 0.7271 0.7353 0.7428 0.7525 0.7639
1100.000000 0.7705 0.7740 0.7721 0.7718 0.7676
1095.000000 0.7614 0.7546 0.7500 0.7461 0.7438
1090.000000 0.7408 0.7368 0.7317 0.7212 0.7103
1085.000000 0.6595 0.4288 0.0991 0.0983 0.0980
1080.000000 0.1791 0.2605 0.3458 0.3455 0.3394
1075.000000 0.2942 0.2489 0.1945 0.1965 0.2545
1070.000000 0.3639 0.4734 0.5829 0.6403 0.6471
1065.000000 0.6541 0.6608 0.6674 0.6743 0.6815
1060.000000 0.6889 0.7106 0.7411 0.7621 0.7751
1055.000000 0.7891 0.8011 0.8101 0.8161 0.8191
1050.000000 0.8220 0.8250 0.8280 0.8309 0.8334
1045.000000 0.8353 0.8371 0.8390 0.8408 0.8425
1040.000000 0.8431 0.8436 0.8442 0.8448 0.8453
1035.000000 0.8459 0.8465 0.8471 0.8477 0.8482
1030.000000 0.8484 0.8485 0.8478 0.8488 0.8490
1025.000000 0.8494 0.8499 0.8500 0.8500 0.8500
1020.000000 0.8500 0.8499 0.8494 0.8475 0.8447
1015.000000 0.8414 0.8394 0.8382 0.8415 0.8439
1010.000000 0.8451 0.8451 0.8452 0.8439 0.8421
1005.000000 0.8406 0.8371 0.8334 0.8295 0.7465
1000.000000 0.5628 0.5668 0.6272 0.6875 0.7481
995.000000 0.8078 0.8145 0.8195 0.8235 0.8264
990.000000 0.8290 0.8299 0.8308 0.8316 0.8325
985.000000 0.8331 0.8336 0.8341 0.8346 0.8349
980.000000 0.8352 0.8352 0.8352 0.8352 0.8351
975.000000 0.8347 0.8342 0.8321 0.8289 0.8235
970.000000 0.8150 0.8031 0.7937 0.7861 0.7815
965.000000 0.7781 0.7800 0.7818 0.7871 0.7937
960.000000 0.8001 0.8061 0.8124 0.8183 0.8228
955.000000 0.8245 0.8262 0.8278 0.8296 0.8313
950.000000 0.8328 0.8337 0.8347 0.8357 0.8366
945.000000 0.8375 0.8386 0.8395 0.8402 0.8409
940.000000 0.8417 0.8424 0.8431 0.8438 0.8446
935.000000 0.8453 0.8459 0.8462 0.8464 0.8467
930.000000 0.8468 0.8471 0.8473 0.8473 0.8473
925.000000 0.8473 0.8473 0.8473 0.8473 0.8471
920.000000 0.8501 0.8468 0.8466 0.8465 0.8463
915.000000 0.8461 0.8452 0.8444 0.8435 0.8425
910.000000 0.8417 0.8409 0.8397 0.8384 0.8371
905.000000 0.8358 0.8345 0.8332 0.8318 0.8305
900.000000 0.8285 0.8261 0.8236 0.8212 0.8187
895.000000 0.8164 0.8140 0.8115 0.8093 0.8068
890.000000 0.8045 0.8018 0.7991 0.7964 0.7941
885.000000 0.7918 0.7895 0.7858 0.7821 0.7765
880.000000 0.7707 0.7631 0.7549 0.7338 0.6526
875.000000 0.5696 0.4864 0.4032 0.3200 0.2370
870.000000 0.1538 0.0914 0.0900 0.1465 0.2279
865.000000 0.3093 0.3908 0.4722 0.5537 0.6351
860.000000 0.7150 0.7334 0.7497 0.7687 0.7815
855.000000 0.7921 0.7982 0.8043 0.8103 0.8156
850.000000 0.8190 0.8216 0.8242 0.8264 0.8284
845.000000 0.8297 0.8305 0.8305 0.8305 0.8294
840.000000 0.8282 0.8264 0.8234 0.8202 0.8124
835.000000 0.8045 0.7853 0.7675 0.7475 0.7210
830.000000 0.7243 0.7243 0.7243 0.7275 0.7356
825.000000 0.7493 0.7578 0.7662 0.7735 0.7792
820.000000 0.7849 0.7906 0.7962 0.8015 0.8053
815.000000 0.8082 0.8101 0.8118 0.8137 0.8143
810.000000 0.8130 0.8118 0.8107 0.8074 0.8031
805.000000 0.7988 0.7912 0.7811 0.7711 0.7621
800.000000 0.7533 0.7443 0.7325 0.7193 0.7060
795.000000 0.6912 0.5553 0.4738 0.3924 0.3109
790.000000 0.2294 0.1480 0.0665 0.0054 0.0075
785.000000 0.0072 0.0143 0.0214 0.0286 0.0347
780.000000 0.0347 0.0347 0.0315 0.0255 0.0195
775.000000 0.0133 0.0074 0.0034 0.0037 0.0740
770.000000 0.2116 0.3491 0.4867 0.6144 0.6926
765.000000 0.7106 0.7215 0.7306 0.7382 0.7453
760.000000 0.7607 0.7700 0.7767 0.7833 0.7900
755.000000 0.7951 0.7999 0.8046 0.8094 0.8139
750.000000 0.8172 0.8206 0.8240 0.8274 0.8308
745.000000 0.8337 0.8367 0.8396 0.8415 0.8434
740.000000 0.8453 0.8471 0.8487 0.8500 0.8513
735.000000 0.8525 0.8539 0.8547 0.8550 0.8550
730.000000 0.8550 0.8544 0.8539 0.8531 0.8521
725.000000 0.8534 0.8549 0.8565 0.8580 0.8589
720.000000 0.8596 0.8604 0.8611 0.8618 0.8625
715.000000 0.8625 0.8627 0.8628 0.8628 0.8628
710.000000 0.8627 0.8625 0.8623 0.8621 0.8615
705.000000 0.8608 0.8600 0.8593 0.8586 0.8578
700.000000 0.8571 0.8562 0.8544 0.8527 0.8510
695.000000 0.8493 0.8475 0.8439 0.8398 0.8356
690.000000 0.8315 0.8268 0.8223 0.8176 0.8118
685.000000 0.8026 0.7925 0.7811 0.7108 0.6124
680.000000 0.5140 0.4156 0.3173 0.2189 0.0184
675.000000 0.0237 0.0221 0.0222 0.0223 0.0811
670.000000 0.2544 0.4277 0.6010 0.7078 0.7058
665.000000 0.6995 0.6878 0.6762 0.6704 0.6700
660.000000 0.6974 0.7636 0.8214 0.8259 0.8304
655.000000 0.8348 0.8393 0.8437 0.8478 0.8516
650.000000 0.8550 0.8584 0.8618 0.8647 0.8663
645.000000 0.8678 0.8695 0.8699 0.8700 0.8701
640.000000 0.8678 0.8649 0.8605 0.8571 0.8563
635.000000 0.8570 0.8592 0.8615 0.8638 0.8662
630.000000 0.8685 0.8706 0.8724 0.8743 0.8761
625.000000 0.8778 0.8793 0.8808 0.8821 0.8836
620.000000 0.8851 0.8865 0.8870 0.8893 0.8875
615.000000 0.8878 0.8881 0.8881 0.8880 0.8878
610.000000 0.8878 0.8878 0.8877 0.8875 0.8875
605.000000 0.8874 0.8870 0.8867 0.8863 0.8859
600.000000 0.8855 0.8851 0.8847 0.8843 0.8839
595.000000 0.8835 0.8831 0.8827 0.8823 0.8818
590.000000 0.8815 0.8811 0.8807 0.8803 0.8800
585.000000 0.8798 0.8796 0.8794 0.8792 0.8789
580.000000 0.8787 0.8785 0.8783 0.8781 0.8778
575.000000 0.8777 0.8775 0.8775 0.8777 0.8778
570.000000 0.8781 0.8783 0.8785 0.8787 0.8789
565.000000 0.8791 0.8793 0.8796 0.8798 0.8798
560.000000 0.8798 0.8798 0.8797 0.8797 0.8796
555.000000 0.8795 0.8790 0.8781 0.8771 0.8762
550.000000 0.8753 0.8743 0.8736 0.8731 0.8725
545.000000 0.8718 0.8718 0.8721 0.8723 0.8724
540.000000 0.8725 0.8725 0.8725 0.8725 0.8723
535.000000 0.8720 0.8717 0.8714 0.8712 0.8709
530.000000 0.8706 0.8703 0.8695 0.8687 0.8680
525.000000 0.8671 0.8664 0.8656 0.8649 0.8641
520.000000 0.8633 0.8625 0.8618 0.8610 0.8603
515.000000 0.8596 0.8589 0.8582 0.8575 0.8568
510.000000 0.8561 0.8554 0.8547 0.8541 0.8537
505.000000 0.8533 0.8528 0.8525 0.8521 0.8517
500.000000 0.8516 0.8515 0.8514 0.8513 0.8513
495.000000 0.8511 0.8507 0.8502 0.8497 0.8493
490.000000 0.8488 0.8483 0.8474 0.8464 0.8453
485.000000 0.8443 0.8433 0.8423 0.8413 0.8414
480.000000 0.8414 0.8415 0.8415 0.8416 0.8416
475.000000 0.8417 0.8418 0.8418 0.8420 0.8421
470.000000 0.8423 0.8424 0.8425 0.8425 0.8428
465.000000 0.8428 0.8431 0.8433 0.8434 0.8436
460.000000 0.8438 0.8438 0.8439 0.8439 0.8440
455.000000 0.8440 0.8440 0.8441 0.8442 0.8442
450.000000 0.8443 0.8444 0.8444 0.8440 0.8437
445.000000 0.8434 0.8430 0.8397 0.8418 0.8409
440.000000 0.8399 0.8378 0.8357 0.8312 0.8234
435.000000 0.8150 0.8074 0.7741 0.7344 0.6946
430.000000 0.6548 0.6151 0.5753 0.5732 0.5721
425.000000 0.5724 0.5788 0.5916 0.6044 0.6172
420.000000 0.6300 0.6428 0.6556 0.6638 0.6697
415.000000 0.6751 0.6801 0.6853 0.6904 0.6948
410.000000 0.6987 0.7025 0.7058 0.7078 0.7101
405.000000 0.7121 0.7143 0.7161 0.7176 0.7192
400.000000 0.7207 0.7221 0.7234 0.7247 0.7258
395.000000 0.7271 0.7284 0.7294 0.7304 0.7312
390.000000 0.7322 0.7333 0.7342 0.7351 0.7358
385.000000 0.7367 0.7374 0.7381 0.7386 0.7391
380.000000 0.7396 0.7401
##END=
