##TITLE=HEXAMETHYLCYCLOTRISILOXANE
##JCAMP-DX=4.24
##DATA TYPE=INFRARED SPECTRUM
##CLASS=COBLENTZ II
##ORIGIN=DOW CORNING CORP.
##OWNER=COBLENTZ SOCIETY
Collection (C) 2018 copyright by the U.S. Secretary of Commerce
on behalf of the United States of America. All rights reserved.
##DATE=1965/09/03
##NAMES=2,2,4,4,6,6-hexamethyl-1,3,5,2,4,6-trioxatrisilinane
##CAS REGISTRY NO=541-05-9
##MOLFORM=C6 H18 O3 Si3
##MP=64 C
##SOURCE REFERENCE=COBLENTZ NO. 5535
##$NIST SOURCE=COBLENTZ
##$NIST IMAGE=cob5535
##SPECTROMETER/DATA SYSTEM=PERKIN-ELMER 521 (GRATING)
##INSTRUMENT PARAMETERS=FILTERS AT 3150, 2500, 2000, 1150, 700, 410. GRATING CHANGES: 2000, 630 CM^-^1
##STATE=SOLUTION (10% IN CCl4 FOR 3800-1300, 2% IN CS2 FOR 1300-650, AND 10% IN CCl4 FOR 650-250 CM^-^1)
$$ GLC PURE
##PATH LENGTH=0.011 CM, 0.020 CM, AND 0.012 CM
##SAMPLING PROCEDURE=TRANSMISSION
##RESOLUTION=2
##DATA PROCESSING=DIGITIZED BY NIST FROM HARD COPY (FROM TWO SEGMENTS)
##XUNITS=1/CM
##YUNITS=TRANSMITTANCE
##XFACTOR=1.000000
##YFACTOR=1
##DELTAX=0.937868
##FIRSTX=248.066
##LASTX=3794.15
##FIRSTY=0.775
##MAXX=3794.15
##MINX=248.066
##MAXY=0.896
##MINY=0.002
##NPOINTS=3782
##XYDATA=(X++(Y..Y))
248.066000 0.7750 0.7750 0.7750 0.7750 0.7750
252.755341 0.7750 0.7730 0.7730 0.7730 0.7730
257.444683 0.7720 0.7720 0.7710 0.7680 0.7660
262.134024 0.7630 0.7610 0.7580 0.7550 0.7530
266.823366 0.7510 0.7500 0.7480 0.7390 0.7320
271.512707 0.7240 0.7180 0.7120 0.7070 0.7020
276.202048 0.6950 0.6890 0.6810 0.6720 0.6620
280.891390 0.6500 0.6400 0.6320 0.6270 0.6220
285.580731 0.6160 0.6070 0.5930 0.5680 0.5420
290.270073 0.5111 0.4871 0.4601 0.4341 0.3822
294.959414 0.3540 0.3280 0.3010 0.2750 0.2480
299.648755 0.1253 0.0881 0.0531 0.0510 0.0530
304.338097 0.0530 0.0560 0.0590 0.0590 0.0590
309.027438 0.0600 0.0969 0.1687 0.1700 0.2068
313.716780 0.2430 0.2680 0.3330 0.4019 0.4519
318.406121 0.4889 0.5528 0.5929 0.6209 0.6379
323.095463 0.6520 0.6700 0.6950 0.7180 0.7200
327.784804 0.7220 0.7340 0.7579 0.7600 0.7869
332.474145 0.7870 0.7900 0.7910 0.7920 0.7940
337.163487 0.7950 0.7970 0.7990 0.8000 0.8000
341.852828 0.8000 0.8000 0.8000 0.7990 0.7990
346.542170 0.7990 0.7970 0.7970 0.7960 0.7960
351.231511 0.7940 0.7910 0.7890 0.7860 0.7810
355.920852 0.7760 0.7710 0.7660 0.7620 0.7570
360.610194 0.7530 0.7480 0.7430 0.7380 0.7320
365.299535 0.7260 0.7190 0.7120 0.7040 0.6950
369.988877 0.6860 0.6750 0.6640 0.6510 0.6360
374.678218 0.6250 0.6060 0.5821 0.5511 0.5171
379.367559 0.4790 0.4390 0.3960 0.3520 0.3081
384.056901 0.2631 0.2191 0.1781 0.1381 0.1022
388.746242 0.0690 0.0460 0.0230 0.0220 0.0230
393.435584 0.0250 0.0350 0.0440 0.0609 0.0630
398.124925 0.0800 0.0980 0.1160 0.2369 0.3269
402.814266 0.3949 0.4459 0.4859 0.5149 0.5359
407.503608 0.5530 0.5700 0.5890 0.6040 0.6180
412.192949 0.6300 0.6400 0.6500 0.6590 0.6650
416.882291 0.6720 0.6780 0.6830 0.6880 0.6910
421.571632 0.6960 0.7000 0.7040 0.7080 0.7120
426.260973 0.7150 0.7220 0.7260 0.7270 0.7290
430.950315 0.7320 0.7340 0.7370 0.7390 0.7430
435.639656 0.7440 0.7460 0.7470 0.7480 0.7500
440.328998 0.7500 0.7500 0.7500 0.7470 0.7440
445.018339 0.7420 0.7390 0.7370 0.7340 0.7310
449.707680 0.7240 0.7220 0.7200 0.7230 0.7290
454.397022 0.7360 0.7380 0.7420 0.7500 0.7550
459.086363 0.7610 0.7660 0.7700 0.7730 0.7770
463.775705 0.7810 0.7850 0.7870 0.7900 0.7920
468.465046 0.7950 0.7970 0.7990 0.8010 0.8040
473.154388 0.8050 0.8060 0.8060 0.8060 0.8080
477.843729 0.8100 0.8110 0.8140 0.8150 0.8190
482.533070 0.8190 0.8200 0.8210 0.8210 0.8230
487.222412 0.8240 0.8240 0.8250 0.8270 0.8270
491.911753 0.8290 0.8320 0.8330 0.8340 0.8340
496.601095 0.8340 0.8350 0.8340 0.8350 0.8350
501.290436 0.8370 0.8370 0.8380 0.8380 0.8380
505.979777 0.8390 0.8390 0.8400 0.8400 0.8400
510.669119 0.8400 0.8400 0.8400 0.8400 0.8400
515.358460 0.8400 0.8400 0.8390 0.8390 0.8390
520.047802 0.8400 0.8420 0.8420 0.8420 0.8420
524.737143 0.8430 0.8440 0.8450 0.8470 0.8470
529.426484 0.8450 0.8450 0.8440 0.8430 0.8430
534.115826 0.8400 0.8400 0.8400 0.8390 0.8390
538.805167 0.8380 0.8380 0.8370 0.8370 0.8370
543.494509 0.8350 0.8350 0.8340 0.8330 0.8330
548.183850 0.8320 0.8300 0.8300 0.8280 0.8270
552.873191 0.8250 0.8240 0.8230 0.8210 0.8200
557.562533 0.8190 0.8180 0.8160 0.8110 0.8060
562.251874 0.8010 0.7960 0.7940 0.7910 0.7860
566.941216 0.7850 0.7840 0.7770 0.7700 0.7650
571.630557 0.7600 0.7570 0.7560 0.7530 0.7520
576.319898 0.7480 0.7420 0.7390 0.7320 0.7220
581.009240 0.7120 0.7040 0.6990 0.7000 0.6900
585.698581 0.6800 0.6650 0.6550 0.6450 0.6130
590.387923 0.5691 0.5231 0.5061 0.4891 0.4551
595.077264 0.4360 0.4190 0.4010 0.3520 0.3160
599.766605 0.2820 0.1013 0.0561 0.0121 0.0070
604.455947 0.0060 0.0050 0.0050 0.0050 0.0050
609.145288 0.0060 0.0439 0.0450 0.1018 0.1658
613.834630 0.1670 0.1850 0.2030 0.2200 0.2610
618.523971 0.4648 0.4870 0.5658 0.5730 0.5730
623.213313 0.5010 0.5010 0.5210 0.5400 0.5600
627.902654 0.5920 0.6319 0.6500 0.6610 0.6690
632.591995 0.6720 0.6760 0.6800 0.6850 0.6880
637.281337 0.6940 0.7030 0.7080 0.7130 0.7150
641.970678 0.7170 0.7180 0.7190 0.7190 0.7200
646.660020 0.7200 0.7220 0.7659 0.8128 0.8638
651.349361 0.8640 0.8640 0.8640 0.8640 0.8640
656.038702 0.8640 0.8640 0.8640 0.8640 0.8630
660.728044 0.8630 0.8620 0.8610 0.8590 0.8590
665.417385 0.8580 0.8580 0.8570 0.8560 0.8560
670.106727 0.8540 0.8540 0.8530 0.8520 0.8510
674.796068 0.8470 0.8390 0.8350 0.8340 0.8300
679.485409 0.8210 0.8030 0.7890 0.7890 0.7890
684.174751 0.7890 0.7900 0.7950 0.8060 0.8150
688.864092 0.8250 0.8330 0.8450 0.8470 0.8470
693.553434 0.8470 0.8480 0.8480 0.8480 0.8480
698.242775 0.8480 0.8480 0.8480 0.8480 0.8480
702.932116 0.8480 0.8480 0.8490 0.8490 0.8520
707.621458 0.8530 0.8530 0.8530 0.8520 0.8520
712.310799 0.8520 0.8510 0.8510 0.8480 0.8450
717.000141 0.8440 0.8440 0.8380 0.8350 0.8350
721.689482 0.8370 0.8370 0.8370 0.8370 0.8370
726.378823 0.8370 0.8370 0.8370 0.8370 0.8370
731.068165 0.8350 0.8350 0.8350 0.8350 0.8350
735.757506 0.8350 0.8350 0.8340 0.8340 0.8340
740.446848 0.8340 0.8340 0.8340 0.8340 0.8340
745.136189 0.8330 0.8330 0.8320 0.8300 0.8280
749.825531 0.8280 0.8270 0.8270 0.8250 0.8250
754.514872 0.8240 0.8240 0.8210 0.8210 0.8200
759.204213 0.8160 0.8140 0.8110 0.8090 0.8060
763.893555 0.8060 0.8010 0.7970 0.7970 0.7940
768.582896 0.7940 0.7920 0.7870 0.7790 0.7730
773.272238 0.7700 0.7670 0.7650 0.7610 0.7550
777.961579 0.7480 0.7390 0.7290 0.7220 0.7130
782.650920 0.7040 0.6950 0.6860 0.6760 0.6670
787.340262 0.6560 0.6460 0.6330 0.6210 0.6080
792.029603 0.5930 0.5780 0.5610 0.5440 0.5250
796.718945 0.5030 0.4621 0.4211 0.3821 0.3421
801.408286 0.3009 0.2600 0.2150 0.1690 0.1190
806.097627 0.0691 0.0600 0.0530 0.0450 0.0370
810.786969 0.0360 0.0340 0.0340 0.0360 0.0400
815.476310 0.0450 0.0470 0.1179 0.1749 0.2498
820.165652 0.2511 0.2911 0.3720 0.3720 0.3980
824.854993 0.4240 0.4480 0.4999 0.5180 0.5439
829.544334 0.5690 0.5920 0.6080 0.6210 0.6320
834.233676 0.6410 0.6470 0.6550 0.6620 0.6710
838.923017 0.6790 0.6890 0.6930 0.7000 0.7040
843.612359 0.7100 0.7120 0.7120 0.7120 0.7120
848.301700 0.7090 0.7070 0.7050 0.7040 0.7030
852.991041 0.7030 0.7030 0.7030 0.7040 0.7040
857.680383 0.7040 0.6960 0.6860 0.6800 0.6760
862.369724 0.6740 0.6710 0.6660 0.6590 0.6401
867.059066 0.6300 0.6270 0.6080 0.5980 0.5940
871.748407 0.5930 0.5940 0.5990 0.6070 0.6210
876.437748 0.6370 0.6550 0.6740 0.6910 0.7100
881.127090 0.7280 0.7420 0.7550 0.7620 0.7720
885.816431 0.7790 0.7850 0.7870 0.7910 0.7940
890.505773 0.8000 0.8080 0.8090 0.8110 0.8140
895.195114 0.8150 0.8160 0.8180 0.8180 0.8190
899.884456 0.8190 0.8200 0.8200 0.8210 0.8230
904.573797 0.8230 0.8240 0.8240 0.8250 0.8250
909.263138 0.8250 0.8250 0.8250 0.8250 0.8250
913.952480 0.8250 0.8250 0.8250 0.8250 0.8270
918.641821 0.8270 0.8270 0.8270 0.8250 0.8250
923.331163 0.8250 0.8240 0.8240 0.8230 0.8230
928.020504 0.8210 0.8200 0.8200 0.8190 0.8180
932.709845 0.8180 0.8160 0.8150 0.8150 0.8140
937.399187 0.8130 0.8110 0.8080 0.8060 0.8030
942.088528 0.7990 0.7960 0.7940 0.7920 0.7910
946.777870 0.7900 0.7890 0.7890 0.7890 0.7870
951.467211 0.7870 0.7860 0.7860 0.7860 0.7850
956.156552 0.7850 0.7850 0.7810 0.7800 0.7790
960.845894 0.7760 0.7730 0.7720 0.7710 0.7680
965.535235 0.7630 0.7620 0.7580 0.7550 0.7500
970.224577 0.7440 0.7370 0.7340 0.7310 0.7220
974.913918 0.7170 0.7080 0.7030 0.6940 0.6880
979.603259 0.6610 0.6410 0.6270 0.6160 0.6070
984.292601 0.5980 0.5890 0.5770 0.5590 0.5341
988.981942 0.5009 0.4760 0.4540 0.4350 0.4160
993.671284 0.3950 0.3660 0.3291 0.2821 0.2202
998.360625 0.1428 0.0460 0.0340 0.0220 0.0110
1003.049966 0.0080 0.0070 0.0060 0.0050 0.0030
1007.739308 0.0020 0.0020 0.0020 0.0020 0.0020
1012.428649 0.0020 0.0020 0.0020 0.0020 0.0020
1017.117991 0.0020 0.0030 0.0030 0.0110 0.0110
1021.807332 0.0180 0.0320 0.0530 0.0769 0.1029
1026.496673 0.1280 0.1520 0.1720 0.2340 0.2860
1031.186015 0.3290 0.3669 0.3979 0.4279 0.4529
1035.875356 0.4791 0.5050 0.5230 0.5540 0.5740
1040.564698 0.5950 0.6120 0.6230 0.6330 0.6400
1045.254039 0.6430 0.6470 0.6510 0.6540 0.6570
1049.943381 0.6600 0.6640 0.6650 0.6660 0.6660
1054.632722 0.6700 0.6720 0.6760 0.6810 0.6950
1059.322063 0.7040 0.7090 0.7140 0.7180 0.7220
1064.011405 0.7240 0.7220 0.7240 0.7260 0.7270
1068.700746 0.7290 0.7360 0.7390 0.7420 0.7470
1073.390088 0.7510 0.7530 0.7570 0.7610 0.7610
1078.079429 0.7630 0.7660 0.7680 0.7700 0.7710
1082.768770 0.7710 0.7720 0.7730 0.7760 0.7770
1087.458112 0.7770 0.7770 0.7790 0.7790 0.7800
1092.147453 0.7820 0.7850 0.7870 0.7900 0.7940
1096.836795 0.7950 0.7960 0.7960 0.7970 0.7990
1101.526136 0.7990 0.8000 0.8010 0.8030 0.8030
1106.215477 0.8040 0.8050 0.8050 0.8060 0.8080
1110.904819 0.8080 0.8080 0.8090 0.8080 0.8090
1115.594160 0.8100 0.8100 0.8100 0.8080 0.8080
1120.283502 0.8080 0.8080 0.8080 0.8080 0.8090
1124.972843 0.8090 0.8110 0.8130 0.8130 0.8140
1129.662184 0.8150 0.8180 0.8200 0.8210 0.8210
1134.351526 0.8230 0.8240 0.8250 0.8250 0.8280
1139.040867 0.8290 0.8330 0.8330 0.8330 0.8330
1143.730209 0.8330 0.8330 0.8340 0.8340 0.8350
1148.419550 0.8350 0.8370 0.8370 0.8380 0.8390
1153.108891 0.8390 0.8390 0.8390 0.8390 0.8390
1157.798233 0.8390 0.8400 0.8400 0.8400 0.8400
1162.487574 0.8400 0.8420 0.8420 0.8430 0.8430
1167.176916 0.8440 0.8440 0.8440 0.8440 0.8440
1171.866257 0.8430 0.8430 0.8400 0.8400 0.8400
1176.555599 0.8400 0.8390 0.8390 0.8390 0.8390
1181.244940 0.8390 0.8390 0.8390 0.8390 0.8400
1185.934281 0.8420 0.8420 0.8430 0.8430 0.8430
1190.623623 0.8430 0.8420 0.8400 0.8400 0.8390
1195.312964 0.8390 0.8380 0.8370 0.8370 0.8370
1200.002306 0.8350 0.8370 0.8370 0.8380 0.8380
1204.691647 0.8390 0.8390 0.8400 0.8420 0.8420
1209.380988 0.8430 0.8430 0.8440 0.8440 0.8440
1214.070330 0.8430 0.8430 0.8420 0.8420 0.8370
1218.759671 0.8320 0.8290 0.8270 0.8250 0.8240
1223.449013 0.8230 0.8210 0.8190 0.8160 0.8130
1228.138354 0.8080 0.8000 0.7950 0.7890 0.7850
1232.827695 0.7820 0.7760 0.7670 0.7580 0.7470
1237.517037 0.7360 0.7230 0.7080 0.6900 0.6720
1242.206378 0.6509 0.6269 0.6009 0.5560 0.5410
1246.895720 0.5130 0.4840 0.4570 0.1386 0.0931
1251.585061 0.0490 0.0500 0.0510 0.0740 0.0970
1256.274402 0.1250 0.2798 0.4118 0.4140 0.5437
1260.963744 0.6320 0.6350 0.6500 0.6650 0.6780
1265.653085 0.7050 0.7280 0.7440 0.7580 0.7700
1270.342427 0.7810 0.7900 0.7960 0.8010 0.8040
1275.031768 0.8040 0.8040 0.8040 0.8040 0.8040
1279.721109 0.8040 0.8040 0.8040 0.8040 0.8040
1284.410451 0.8040 0.8040 0.8040 0.8040 0.8040
1289.099792 0.8040 0.8040 0.8040 0.8040 0.8040
1293.789134 0.8040 0.8040 0.8040 0.8040 0.8040
1298.478475 0.8040 0.8040 0.8040 0.8040 0.8040
1303.167816 0.8040 0.8040 0.8040 0.8040 0.8040
1307.857158 0.8040 0.8040 0.8040 0.8040 0.8040
1312.546499 0.8040 0.8040 0.8030 0.8040 0.8040
1317.235841 0.8040 0.8040 0.8040 0.8040 0.8040
1321.925182 0.8040 0.8040 0.8040 0.8050 0.8050
1326.614524 0.8080 0.8090 0.8100 0.8110 0.8130
1331.303865 0.8140 0.8150 0.8160 0.8180 0.8200
1335.993206 0.8240 0.8250 0.8250 0.8270 0.8250
1340.682548 0.8250 0.8250 0.8250 0.8250 0.8250
1345.371889 0.8250 0.8240 0.8240 0.8230 0.8210
1350.061231 0.8210 0.8190 0.8180 0.8140 0.8110
1354.750572 0.8090 0.8080 0.8060 0.8040 0.8010
1359.439913 0.7990 0.7960 0.7920 0.7890 0.7860
1364.129255 0.7820 0.7800 0.7760 0.7730 0.7710
1368.818596 0.7700 0.7670 0.7660 0.7650 0.7650
1373.507938 0.7600 0.7570 0.7530 0.7520 0.7470
1378.197279 0.7430 0.7370 0.7260 0.7130 0.7000
1382.886620 0.6850 0.6700 0.6520 0.6360 0.6170
1387.575962 0.5980 0.5590 0.5560 0.5560 0.5560
1392.265303 0.5580 0.5600 0.5610 0.5610 0.5680
1396.954645 0.5680 0.5690 0.5700 0.5700 0.5700
1401.643986 0.5690 0.5660 0.5650 0.5630 0.5600
1406.333327 0.5600 0.5610 0.5690 0.5700 0.5820
1411.022669 0.5891 0.6260 0.6360 0.6460 0.6540
1415.712010 0.6660 0.6700 0.6780 0.6850 0.6940
1420.401352 0.7000 0.7050 0.7050 0.7050 0.7050
1425.090693 0.7050 0.7050 0.7050 0.7050 0.6980
1429.780034 0.6900 0.6810 0.6740 0.6670 0.6610
1434.469376 0.6510 0.6450 0.6450 0.6460 0.6460
1439.158717 0.6480 0.6550 0.6750 0.6940 0.7070
1443.848059 0.7170 0.7220 0.7310 0.7340 0.7440
1448.537400 0.7530 0.7620 0.7730 0.7770 0.7770
1453.226741 0.7770 0.7770 0.7770 0.7750 0.7750
1457.916083 0.7750 0.7750 0.7750 0.7750 0.7750
1462.605424 0.7750 0.7790 0.7790 0.7810 0.7820
1467.294766 0.7840 0.7840 0.7850 0.7870 0.7890
1471.984107 0.7910 0.7910 0.7940 0.7960 0.7990
1476.673449 0.8010 0.8040 0.8060 0.8080 0.8100
1481.362790 0.8100 0.8180 0.8190 0.8200 0.8200
1486.052131 0.8210 0.8230 0.8230 0.8230 0.8240
1490.741473 0.8230 0.8240 0.8240 0.8240 0.8240
1495.430814 0.8240 0.8240 0.8240 0.8240 0.8240
1500.120156 0.8240 0.8240 0.8240 0.8210 0.8210
1504.809497 0.8210 0.8210 0.8210 0.8210 0.8210
1509.498838 0.8200 0.8200 0.8200 0.8200 0.8200
1514.188180 0.8190 0.8190 0.8190 0.8190 0.8110
1518.877521 0.8090 0.8090 0.8080 0.8050 0.8050
1523.566863 0.8050 0.8050 0.8050 0.8040 0.8040
1528.256204 0.8030 0.8030 0.7950 0.7860 0.7810
1532.945545 0.7760 0.7710 0.7610 0.7570 0.7530
1537.634887 0.7460 0.7370 0.7270 0.7190 0.7140
1542.324228 0.7130 0.7030 0.7020 0.7020 0.7020
1547.013570 0.7020 0.7020 0.7020 0.7050 0.7240
1551.702911 0.7330 0.7370 0.7390 0.7440 0.7560
1556.392252 0.7660 0.7730 0.7810 0.7870 0.7920
1561.081594 0.7970 0.8000 0.8030 0.8040 0.8060
1565.770935 0.8060 0.8080 0.8080 0.8060 0.8060
1570.460277 0.8050 0.8050 0.8040 0.8040 0.8030
1575.149618 0.8010 0.8000 0.7960 0.7960 0.7950
1579.838959 0.7920 0.7910 0.7890 0.7860 0.7790
1584.528301 0.7750 0.7700 0.7610 0.7600 0.7550
1589.217642 0.7470 0.7390 0.7330 0.7280 0.7230
1593.906984 0.7200 0.7180 0.7170 0.7150 0.7140
1598.596325 0.7150 0.7200 0.7230 0.7240 0.7260
1603.285667 0.7290 0.7330 0.7380 0.7410 0.7440
1607.975008 0.7480 0.7510 0.7530 0.7510 0.7480
1612.664349 0.7460 0.7460 0.7440 0.7430 0.7420
1617.353691 0.7410 0.7410 0.7410 0.7420 0.7430
1622.043032 0.7460 0.7470 0.7480 0.7480 0.7510
1626.732374 0.7550 0.7570 0.7610 0.7670 0.7720
1631.421715 0.7790 0.7900 0.7960 0.8030 0.8080
1636.111056 0.8110 0.8150 0.8190 0.8240 0.8290
1640.800398 0.8340 0.8390 0.8400 0.8440 0.8450
1645.489739 0.8450 0.8470 0.8480 0.8510 0.8520
1650.179081 0.8530 0.8540 0.8540 0.8540 0.8530
1654.868422 0.8530 0.8530 0.8530 0.8520 0.8520
1659.557763 0.8520 0.8530 0.8560 0.8570 0.8580
1664.247105 0.8590 0.8590 0.8610 0.8610 0.8610
1668.936446 0.8610 0.8610 0.8610 0.8610 0.8620
1673.625788 0.8620 0.8620 0.8620 0.8620 0.8620
1678.315129 0.8620 0.8620 0.8620 0.8620 0.8610
1683.004470 0.8610 0.8590 0.8590 0.8580 0.8570
1687.693812 0.8570 0.8560 0.8540 0.8540 0.8530
1692.383153 0.8510 0.8490 0.8480 0.8470 0.8450
1697.072495 0.8440 0.8420 0.8390 0.8390 0.8380
1701.761836 0.8380 0.8380 0.8380 0.8380 0.8390
1706.451177 0.8390 0.8400 0.8430 0.8450 0.8490
1711.140519 0.8530 0.8560 0.8580 0.8590 0.8590
1715.829860 0.8590 0.8610 0.8610 0.8610 0.8610
1720.519202 0.8610 0.8610 0.8590 0.8590 0.8590
1725.208543 0.8590 0.8580 0.8580 0.8570 0.8570
1729.897884 0.8570 0.8570 0.8570 0.8570 0.8570
1734.587226 0.8570 0.8570 0.8570 0.8580 0.8570
1739.276567 0.8570 0.8580 0.8590 0.8610 0.8620
1743.965909 0.8620 0.8630 0.8640 0.8660 0.8670
1748.655250 0.8680 0.8690 0.8710 0.8720 0.8720
1753.344592 0.8730 0.8730 0.8750 0.8750 0.8760
1758.033933 0.8760 0.8770 0.8770 0.8780 0.8780
1762.723274 0.8780 0.8800 0.8800 0.8810 0.8810
1767.412616 0.8810 0.8810 0.8800 0.8800 0.8780
1772.101957 0.8780 0.8770 0.8770 0.8770 0.8770
1776.791299 0.8770 0.8770 0.8770 0.8770 0.8770
1781.480640 0.8780 0.8780 0.8780 0.8780 0.8780
1786.169981 0.8780 0.8780 0.8780 0.8780 0.8780
1790.859323 0.8800 0.8800 0.8800 0.8800 0.8800
1795.548664 0.8800 0.8800 0.8800 0.8780 0.8780
1800.238006 0.8770 0.8770 0.8760 0.8730 0.8710
1804.927347 0.8680 0.8670 0.8670 0.8670 0.8660
1809.616688 0.8660 0.8640 0.8640 0.8640 0.8630
1814.306030 0.8630 0.8620 0.8620 0.8610 0.8590
1818.995371 0.8610 0.8620 0.8640 0.8660 0.8660
1823.684713 0.8670 0.8670 0.8680 0.8680 0.8690
1828.374054 0.8690 0.8690 0.8690 0.8690 0.8690
1833.063395 0.8690 0.8690 0.8690 0.8690 0.8680
1837.752737 0.8690 0.8690 0.8690 0.8710 0.8720
1842.442078 0.8730 0.8730 0.8750 0.8750 0.8750
1847.131420 0.8750 0.8750 0.8730 0.8730 0.8710
1851.820761 0.8710 0.8690 0.8690 0.8680 0.8670
1856.510102 0.8630 0.8620 0.8610 0.8610 0.8590
1861.199444 0.8580 0.8580 0.8590 0.8590 0.8610
1865.888785 0.8610 0.8610 0.8610 0.8620 0.8630
1870.578127 0.8660 0.8680 0.8710 0.8720 0.8720
1875.267468 0.8710 0.8710 0.8710 0.8710 0.8710
1879.956809 0.8710 0.8690 0.8690 0.8690 0.8690
1884.646151 0.8670 0.8670 0.8670 0.8660 0.8660
1889.335492 0.8640 0.8640 0.8660 0.8670 0.8720
1894.024834 0.8720 0.8730 0.8750 0.8750 0.8750
1898.714175 0.8750 0.8760 0.8760 0.8760 0.8760
1903.403517 0.8760 0.8760 0.8760 0.8760 0.8760
1908.092858 0.8760 0.8760 0.8760 0.8760 0.8760
1912.782199 0.8760 0.8760 0.8760 0.8760 0.8760
1917.471541 0.8750 0.8730 0.8720 0.8710 0.8690
1922.160882 0.8680 0.8670 0.8660 0.8660 0.8660
1926.850224 0.8640 0.8640 0.8640 0.8610 0.8590
1931.539565 0.8570 0.8530 0.8520 0.8430 0.8350
1936.228906 0.8300 0.8290 0.8280 0.8280 0.8300
1940.918248 0.8350 0.8370 0.8390 0.8440 0.8470
1945.607589 0.8510 0.8530 0.8560 0.8570 0.8620
1950.296931 0.8640 0.8670 0.8670 0.8680 0.8680
1954.986272 0.8690 0.8720 0.8730 0.8730 0.8750
1959.675613 0.8750 0.8750 0.8750 0.8750 0.8750
1964.364955 0.8730 0.8730 0.8720 0.8720 0.8710
1969.054296 0.8690 0.8670 0.8640 0.8630 0.8620
1973.743638 0.8620 0.8620 0.8620 0.8620 0.8630
1978.432979 0.8630 0.8630 0.8630 0.8660 0.8670
1983.122320 0.8680 0.8690 0.8710 0.8720 0.8730
1987.811662 0.8750 0.8760 0.8760 0.8760 0.8760
1992.501003 0.8760 0.8770 0.8770 0.8770 0.8770
1997.190345 0.8770 0.8780 0.8780 0.8810 0.8815
2001.879686 0.8820 0.8825 0.8830 0.8841 0.8850
2006.569027 0.8855 0.8860 0.8865 0.8870 0.8870
2011.258369 0.8870 0.8870 0.8871 0.8876 0.8880
2015.947710 0.8880 0.8879 0.8874 0.8869 0.8864
2020.637052 0.8859 0.8854 0.8847 0.8837 0.8829
2025.326393 0.8824 0.8817 0.8807 0.8795 0.8780
2030.015735 0.8767 0.8757 0.8750 0.8750 0.8750
2034.705076 0.8750 0.8744 0.8729 0.8709 0.8684
2039.394417 0.8659 0.8634 0.8608 0.8583 0.8563
2044.083759 0.8548 0.8537 0.8532 0.8533 0.8538
2048.773100 0.8545 0.8555 0.8560 0.8560 0.8583
2053.462442 0.8624 0.8646 0.8656 0.8689 0.8734
2058.151783 0.8753 0.8758 0.8760 0.8760 0.8757
2062.841124 0.8751 0.8743 0.8733 0.8715 0.8695
2067.530466 0.8671 0.8646 0.8628 0.8613 0.8610
2072.219807 0.8610 0.8602 0.8592 0.8598 0.8609
2076.909149 0.8632 0.8657 0.8687 0.8717 0.8734
2081.598490 0.8749 0.8755 0.8760 0.8760 0.8760
2086.287831 0.8760 0.8760 0.8765 0.8770 0.8775
2090.977173 0.8780 0.8790 0.8800 0.8805 0.8810
2095.666514 0.8810 0.8810 0.8810 0.8809 0.8804
2100.355856 0.8800 0.8800 0.8799 0.8788 0.8779
2105.045197 0.8774 0.8770 0.8770 0.8769 0.8764
2109.734538 0.8759 0.8754 0.8747 0.8737 0.8730
2114.423880 0.8730 0.8729 0.8723 0.8720 0.8720
2119.113221 0.8718 0.8713 0.8710 0.8710 0.8710
2123.802563 0.8710 0.8712 0.8717 0.8722 0.8727
2128.491904 0.8734 0.8745 0.8752 0.8757 0.8762
2133.181245 0.8768 0.8770 0.8770 0.8770 0.8770
2137.870587 0.8770 0.8770 0.8770 0.8770 0.8773
2142.559928 0.8778 0.8780 0.8780 0.8786 0.8796
2147.249270 0.8800 0.8800 0.8803 0.8808 0.8810
2151.938611 0.8810 0.8810 0.8810 0.8814 0.8819
2156.627952 0.8820 0.8820 0.8820 0.8820 0.8820
2161.317294 0.8820 0.8820 0.8820 0.8820 0.8820
2166.006635 0.8820 0.8820 0.8820 0.8820 0.8820
2170.695977 0.8820 0.8820 0.8820 0.8820 0.8820
2175.385318 0.8820 0.8820 0.8820 0.8820 0.8820
2180.074660 0.8820 0.8820 0.8820 0.8820 0.8820
2184.764001 0.8820 0.8820 0.8820 0.8820 0.8820
2189.453342 0.8820 0.8820 0.8820 0.8820 0.8820
2194.142684 0.8820 0.8820 0.8820 0.8819 0.8814
2198.832025 0.8811 0.8816 0.8820 0.8820 0.8820
2203.521367 0.8820 0.8820 0.8820 0.8820 0.8820
2208.210708 0.8820 0.8820 0.8820 0.8820 0.8822
2212.900049 0.8827 0.8830 0.8830 0.8830 0.8830
2217.589391 0.8830 0.8830 0.8830 0.8830 0.8830
2222.278732 0.8830 0.8830 0.8830 0.8830 0.8830
2226.968074 0.8830 0.8830 0.8830 0.8830 0.8830
2231.657415 0.8830 0.8830 0.8830 0.8830 0.8830
2236.346756 0.8827 0.8822 0.8820 0.8820 0.8820
2241.036098 0.8820 0.8820 0.8820 0.8820 0.8820
2245.725439 0.8820 0.8820 0.8820 0.8820 0.8820
2250.414781 0.8820 0.8820 0.8820 0.8820 0.8820
2255.104122 0.8820 0.8820 0.8820 0.8820 0.8820
2259.793463 0.8820 0.8820 0.8820 0.8820 0.8820
2264.482805 0.8820 0.8820 0.8820 0.8820 0.8820
2269.172146 0.8820 0.8820 0.8820 0.8820 0.8820
2273.861488 0.8820 0.8820 0.8820 0.8820 0.8820
2278.550829 0.8820 0.8820 0.8820 0.8820 0.8820
2283.240170 0.8820 0.8820 0.8820 0.8820 0.8820
2287.929512 0.8820 0.8820 0.8820 0.8820 0.8820
2292.618853 0.8820 0.8820 0.8820 0.8820 0.8820
2297.308195 0.8820 0.8820 0.8820 0.8820 0.8820
2301.997536 0.8820 0.8820 0.8820 0.8820 0.8820
2306.686877 0.8820 0.8820 0.8820 0.8820 0.8820
2311.376219 0.8820 0.8820 0.8820 0.8820 0.8820
2316.065560 0.8820 0.8820 0.8820 0.8820 0.8820
2320.754902 0.8820 0.8823 0.8828 0.8830 0.8830
2325.444243 0.8830 0.8830 0.8830 0.8830 0.8837
2330.133585 0.8847 0.8850 0.8850 0.8850 0.8850
2334.822926 0.8850 0.8850 0.8854 0.8859 0.8860
2339.512267 0.8860 0.8864 0.8869 0.8891 0.8916
2344.201609 0.8937 0.8958 0.8960 0.8960 0.8946
2348.890950 0.8931 0.8925 0.8920 0.8910 0.8900
2353.580292 0.8890 0.8880 0.8875 0.8870 0.8865
2358.269633 0.8859 0.8839 0.8820 0.8815 0.8810
2362.958974 0.8810 0.8811 0.8821 0.8830 0.8830
2367.648316 0.8830 0.8830 0.8829 0.8824 0.8820
2372.337657 0.8820 0.8820 0.8820 0.8820 0.8820
2377.026999 0.8820 0.8820 0.8820 0.8820 0.8819
2381.716340 0.8814 0.8810 0.8810 0.8810 0.8810
2386.405681 0.8810 0.8810 0.8810 0.8810 0.8808
2391.095023 0.8803 0.8800 0.8800 0.8800 0.8800
2395.784364 0.8800 0.8800 0.8800 0.8800 0.8800
2400.473706 0.8800 0.8803 0.8808 0.8810 0.8810
2405.163047 0.8810 0.8810 0.8810 0.8810 0.8810
2409.852388 0.8810 0.8810 0.8810 0.8810 0.8810
2414.541730 0.8810 0.8810 0.8810 0.8810 0.8810
2419.231071 0.8810 0.8810 0.8810 0.8810 0.8810
2423.920413 0.8810 0.8810 0.8810 0.8810 0.8806
2428.609754 0.8801 0.8804 0.8809 0.8810 0.8810
2433.299095 0.8810 0.8810 0.8810 0.8810 0.8815
2437.988437 0.8820 0.8820 0.8820 0.8820 0.8820
2442.677778 0.8820 0.8820 0.8820 0.8820 0.8820
2447.367120 0.8820 0.8820 0.8820 0.8815 0.8810
2452.056461 0.8810 0.8810 0.8810 0.8810 0.8810
2456.745803 0.8809 0.8804 0.8800 0.8800 0.8798
2461.435144 0.8788 0.8777 0.8762 0.8750 0.8750
2466.124485 0.8752 0.8763 0.8774 0.8789 0.8801
2470.813827 0.8806 0.8810 0.8810 0.8810 0.8810
2475.503168 0.8808 0.8803 0.8800 0.8800 0.8791
2480.192510 0.8765 0.8746 0.8736 0.8719 0.8694
2484.881851 0.8671 0.8651 0.8635 0.8625 0.8618
2489.571192 0.8612 0.8613 0.8618 0.8623 0.8628
2494.260534 0.8630 0.8630 0.8653 0.8693 0.8722
2498.949875 0.8742 0.8753 0.8758 0.8760 0.8760
2503.639217 0.8760 0.8760 0.8760 0.8760 0.8760
2508.328558 0.8760 0.8760 0.8760 0.8760 0.8760
2513.017899 0.8760 0.8760 0.8760 0.8760 0.8760
2517.707241 0.8760 0.8760 0.8760 0.8760 0.8760
2522.396582 0.8756 0.8751 0.8750 0.8750 0.8750
2527.085924 0.8750 0.8750 0.8750 0.8750 0.8750
2531.775265 0.8750 0.8750 0.8740 0.8730 0.8740
2536.464606 0.8750 0.8750 0.8750 0.8750 0.8750
2541.153948 0.8750 0.8750 0.8750 0.8750 0.8750
2545.843289 0.8750 0.8750 0.8750 0.8750 0.8750
2550.532631 0.8750 0.8750 0.8750 0.8750 0.8750
2555.221972 0.8751 0.8756 0.8760 0.8760 0.8761
2559.911313 0.8767 0.8770 0.8770 0.8772 0.8777
2564.600655 0.8780 0.8780 0.8780 0.8780 0.8780
2569.289996 0.8780 0.8780 0.8780 0.8780 0.8780
2573.979338 0.8778 0.8773 0.8770 0.8770 0.8770
2578.668679 0.8770 0.8770 0.8770 0.8767 0.8762
2583.358020 0.8760 0.8760 0.8760 0.8760 0.8760
2588.047362 0.8760 0.8757 0.8752 0.8750 0.8750
2592.736703 0.8750 0.8750 0.8750 0.8750 0.8743
2597.426045 0.8733 0.8730 0.8730 0.8730 0.8730
2602.115386 0.8726 0.8721 0.8720 0.8720 0.8716
2606.804728 0.8711 0.8710 0.8710 0.8710 0.8710
2611.494069 0.8710 0.8710 0.8710 0.8710 0.8710
2616.183410 0.8710 0.8715 0.8720 0.8720 0.8720
2620.872752 0.8720 0.8720 0.8715 0.8710 0.8700
2625.562093 0.8690 0.8690 0.8690 0.8685 0.8680
2630.251435 0.8675 0.8670 0.8670 0.8669 0.8664
2634.940776 0.8658 0.8643 0.8630 0.8630 0.8629
2639.630117 0.8624 0.8620 0.8620 0.8619 0.8614
2644.319459 0.8610 0.8610 0.8607 0.8597 0.8593
2649.008800 0.8603 0.8612 0.8617 0.8622 0.8627
2653.698142 0.8630 0.8630 0.8636 0.8651 0.8660
2658.387483 0.8660 0.8662 0.8667 0.8672 0.8677
2663.076824 0.8680 0.8680 0.8680 0.8680 0.8680
2667.766166 0.8680 0.8680 0.8680 0.8680 0.8680
2672.455507 0.8677 0.8672 0.8661 0.8646 0.8640
2677.144849 0.8640 0.8640 0.8640 0.8640 0.8640
2681.834190 0.8640 0.8640 0.8647 0.8657 0.8664
2686.523531 0.8669 0.8674 0.8679 0.8684 0.8689
2691.212873 0.8698 0.8708 0.8710 0.8710 0.8710
2695.902214 0.8710 0.8710 0.8710 0.8710 0.8710
2700.591556 0.8701 0.8691 0.8690 0.8690 0.8690
2705.280897 0.8690 0.8690 0.8690 0.8690 0.8690
2709.970238 0.8690 0.8690 0.8685 0.8680 0.8680
2714.659580 0.8680 0.8675 0.8670 0.8670 0.8670
2719.348921 0.8665 0.8660 0.8660 0.8658 0.8643
2724.038263 0.8630 0.8630 0.8630 0.8630 0.8630
2728.727604 0.8630 0.8630 0.8630 0.8629 0.8624
2733.416945 0.8620 0.8620 0.8620 0.8620 0.8620
2738.106287 0.8620 0.8618 0.8613 0.8610 0.8610
2742.795628 0.8606 0.8596 0.8590 0.8590 0.8588
2747.484970 0.8583 0.8578 0.8573 0.8570 0.8570
2752.174311 0.8563 0.8548 0.8538 0.8533 0.8525
2756.863653 0.8515 0.8502 0.8487 0.8472 0.8457
2761.552994 0.8447 0.8442 0.8437 0.8432 0.8421
2766.242335 0.8406 0.8397 0.8392 0.8384 0.8373
2770.931677 0.8360 0.8345 0.8333 0.8323 0.8309
2775.621018 0.8294 0.8283 0.8273 0.8270 0.8270
2780.310360 0.8270 0.8270 0.8270 0.8270 0.8274
2784.999701 0.8279 0.8280 0.8280 0.8280 0.8280
2789.689042 0.8280 0.8280 0.8280 0.8280 0.8280
2794.378384 0.8280 0.8280 0.8280 0.8280 0.8280
2799.067725 0.8275 0.8270 0.8270 0.8270 0.8260
2803.757067 0.8250 0.8245 0.8240 0.8240 0.8240
2808.446408 0.8240 0.8240 0.8240 0.8239 0.8234
2813.135749 0.8230 0.8230 0.8230 0.8230 0.8230
2817.825091 0.8230 0.8230 0.8230 0.8230 0.8230
2822.514432 0.8230 0.8230 0.8230 0.8230 0.8230
2827.203774 0.8230 0.8227 0.8217 0.8210 0.8210
2831.893115 0.8208 0.8203 0.8200 0.8200 0.8198
2836.582456 0.8193 0.8190 0.8190 0.8188 0.8183
2841.271798 0.8180 0.8180 0.8175 0.8165 0.8157
2845.961139 0.8152 0.8150 0.8150 0.8147 0.8142
2850.650481 0.8137 0.8132 0.8124 0.8114 0.8110
2855.339822 0.8110 0.8107 0.8102 0.8097 0.8092
2860.029163 0.8076 0.8056 0.8033 0.8007 0.7989
2864.718505 0.7974 0.7963 0.7953 0.7935 0.7915
2869.407846 0.7902 0.7892 0.7882 0.7872 0.7845
2874.097188 0.7815 0.7763 0.7708 0.7644 0.7578
2878.786529 0.7526 0.7475 0.7434 0.7393 0.7353
2883.475871 0.7313 0.7253 0.7193 0.7113 0.7032
2888.165212 0.6878 0.6722 0.6533 0.6350 0.6334
2892.854553 0.6321 0.6336 0.6356 0.6442 0.6527
2897.543895 0.6613 0.6698 0.6779 0.6859 0.6929
2902.233236 0.6999 0.7065 0.7127 0.7167 0.7206
2906.922578 0.7242 0.7272 0.7282 0.7292 0.7303
2911.611919 0.7310 0.7310 0.7307 0.7297 0.7272
2916.301260 0.7212 0.7162 0.7137 0.7112 0.7086
2920.990602 0.7058 0.7022 0.6991 0.6965 0.6932
2925.679943 0.6887 0.6839 0.6788 0.6733 0.6672
2930.369285 0.6595 0.6499 0.6394 0.6278 0.6146
2935.058626 0.6000 0.5872 0.5761 0.5612 0.5430
2939.747967 0.5217 0.4980 0.4722 0.4450 0.4168
2944.437309 0.3880 0.3594 0.3308 0.3041 0.2784
2949.126650 0.2554 0.2337 0.2162 0.2005 0.1716
2953.815992 0.1372 0.1077 0.0799 0.0722 0.0712
2958.505333 0.0718 0.0728 0.0829 0.0956 0.1110
2963.194674 0.1272 0.1393 0.1505 0.1970 0.2490
2967.884016 0.2920 0.3339 0.3713 0.4081 0.4412
2972.573357 0.4740 0.5021 0.5299 0.5538 0.5775
2977.262699 0.5977 0.6179 0.6351 0.6522 0.6664
2981.952040 0.6804 0.6921 0.7037 0.7133 0.7227
2986.641381 0.7297 0.7366 0.7422 0.7475 0.7516
2991.330723 0.7555 0.7585 0.7624 0.7704 0.7773
2996.020064 0.7788 0.7801 0.7806 0.7811 0.7816
3000.709406 0.7825 0.7845 0.7867 0.7892 0.7915
3005.398747 0.7930 0.7942 0.7947 0.7952 0.7957
3010.088088 0.7960 0.7960 0.7968 0.7988 0.8008
3014.777430 0.8028 0.8042 0.8047 0.8050 0.8050
3019.466771 0.8050 0.8050 0.8050 0.8050 0.8050
3024.156113 0.8050 0.8050 0.8050 0.8050 0.8050
3028.845454 0.8050 0.8050 0.8050 0.8050 0.8050
3033.534796 0.8050 0.8050 0.8050 0.8050 0.8050
3038.224137 0.8050 0.8050 0.8050 0.8050 0.8050
3042.913478 0.8050 0.8050 0.8050 0.8054 0.8059
3047.602820 0.8068 0.8078 0.8084 0.8089 0.8094
3052.292161 0.8099 0.8104 0.8109 0.8119 0.8129
3056.981503 0.8134 0.8140 0.8145 0.8150 0.8155
3061.670844 0.8160 0.8160 0.8160 0.8170 0.8180
3066.360185 0.8185 0.8190 0.8190 0.8190 0.8195
3071.049527 0.8200 0.8205 0.8210 0.8210 0.8210
3075.738868 0.8210 0.8210 0.8210 0.8210 0.8210
3080.428210 0.8210 0.8210 0.8210 0.8210 0.8210
3085.117551 0.8210 0.8210 0.8210 0.8212 0.8222
3089.806892 0.8231 0.8236 0.8241 0.8246 0.8250
3094.496234 0.8250 0.8253 0.8263 0.8272 0.8277
3099.185575 0.8280 0.8280 0.8282 0.8287 0.8290
3103.874917 0.8290 0.8292 0.8297 0.8304 0.8315
3108.564258 0.8320 0.8320 0.8322 0.8327 0.8333
3113.253599 0.8338 0.8340 0.8340 0.8348 0.8364
3117.942941 0.8376 0.8386 0.8390 0.8390 0.8390
3122.632282 0.8390 0.8390 0.8390 0.8390 0.8390
3127.321624 0.8390 0.8390 0.8390 0.8390 0.8390
3132.010965 0.8390 0.8390 0.8390 0.8390 0.8390
3136.700306 0.8386 0.8381 0.8380 0.8380 0.8380
3141.389648 0.8380 0.8380 0.8380 0.8380 0.8380
3146.078989 0.8380 0.8380 0.8380 0.8380 0.8385
3150.768331 0.8390 0.8395 0.8400 0.8410 0.8420
3155.457672 0.8420 0.8420 0.8420 0.8420 0.8420
3160.147013 0.8420 0.8409 0.8400 0.8400 0.8400
3164.836355 0.8395 0.8389 0.8384 0.8381 0.8386
3169.525696 0.8392 0.8408 0.8421 0.8426 0.8431
3174.215038 0.8436 0.8443 0.8458 0.8471 0.8476
3178.904379 0.8481 0.8486 0.8493 0.8503 0.8511
3183.593721 0.8517 0.8522 0.8527 0.8532 0.8537
3188.283062 0.8544 0.8554 0.8560 0.8560 0.8562
3192.972403 0.8567 0.8572 0.8577 0.8582 0.8587
3197.661745 0.8590 0.8590 0.8590 0.8590 0.8590
3202.351086 0.8590 0.8590 0.8590 0.8587 0.8582
3207.040428 0.8580 0.8580 0.8580 0.8580 0.8580
3211.729769 0.8580 0.8577 0.8572 0.8573 0.8578
3216.419110 0.8580 0.8580 0.8580 0.8580 0.8580
3221.108452 0.8580 0.8580 0.8580 0.8580 0.8580
3225.797793 0.8580 0.8580 0.8580 0.8580 0.8580
3230.487135 0.8580 0.8580 0.8580 0.8584 0.8589
3235.176476 0.8590 0.8590 0.8599 0.8609 0.8610
3239.865817 0.8610 0.8610 0.8610 0.8610 0.8610
3244.555159 0.8610 0.8610 0.8610 0.8610 0.8610
3249.244500 0.8610 0.8610 0.8610 0.8610 0.8610
3253.933842 0.8610 0.8610 0.8610 0.8610 0.8610
3258.623183 0.8610 0.8610 0.8608 0.8598 0.8590
3263.312524 0.8590 0.8589 0.8584 0.8581 0.8586
3268.001866 0.8590 0.8590 0.8590 0.8590 0.8590
3272.691207 0.8590 0.8590 0.8590 0.8590 0.8590
3277.380549 0.8590 0.8590 0.8594 0.8604 0.8610
3282.069890 0.8610 0.8610 0.8610 0.8610 0.8610
3286.759231 0.8610 0.8610 0.8610 0.8610 0.8610
3291.448573 0.8610 0.8613 0.8618 0.8626 0.8636
3296.137914 0.8640 0.8640 0.8640 0.8640 0.8640
3300.827256 0.8640 0.8640 0.8640 0.8640 0.8640
3305.516597 0.8640 0.8640 0.8636 0.8631 0.8630
3310.205939 0.8630 0.8630 0.8630 0.8630 0.8630
3314.895280 0.8630 0.8630 0.8626 0.8621 0.8620
3319.584621 0.8620 0.8620 0.8620 0.8620 0.8620
3324.273963 0.8620 0.8620 0.8620 0.8620 0.8620
3328.963304 0.8620 0.8620 0.8620 0.8620 0.8620
3333.652646 0.8625 0.8630 0.8630 0.8630 0.8630
3338.341987 0.8630 0.8630 0.8630 0.8630 0.8630
3343.031328 0.8636 0.8640 0.8640 0.8640 0.8640
3347.720670 0.8640 0.8640 0.8640 0.8640 0.8642
3352.410011 0.8652 0.8660 0.8660 0.8660 0.8660
3357.099353 0.8660 0.8660 0.8660 0.8660 0.8660
3361.788694 0.8660 0.8660 0.8660 0.8662 0.8667
3366.478035 0.8670 0.8670 0.8670 0.8670 0.8670
3371.167377 0.8670 0.8670 0.8670 0.8670 0.8670
3375.856718 0.8670 0.8670 0.8670 0.8670 0.8673
3380.546060 0.8678 0.8680 0.8680 0.8680 0.8680
3385.235401 0.8680 0.8680 0.8680 0.8680 0.8680
3389.924742 0.8680 0.8680 0.8680 0.8680 0.8680
3394.614084 0.8680 0.8680 0.8680 0.8680 0.8680
3399.303425 0.8680 0.8680 0.8680 0.8680 0.8680
3403.992767 0.8680 0.8680 0.8680 0.8680 0.8680
3408.682108 0.8680 0.8680 0.8680 0.8684 0.8689
3413.371449 0.8690 0.8690 0.8699 0.8709 0.8710
3418.060791 0.8710 0.8715 0.8720 0.8720 0.8720
3422.750132 0.8725 0.8730 0.8730 0.8730 0.8730
3427.439474 0.8730 0.8730 0.8730 0.8730 0.8731
3432.128815 0.8741 0.8750 0.8750 0.8750 0.8750
3436.818156 0.8750 0.8750 0.8750 0.8750 0.8751
3441.507498 0.8756 0.8760 0.8760 0.8760 0.8760
3446.196839 0.8760 0.8760 0.8760 0.8760 0.8760
3450.886181 0.8760 0.8760 0.8760 0.8760 0.8760
3455.575522 0.8760 0.8760 0.8760 0.8760 0.8760
3460.264864 0.8760 0.8760 0.8760 0.8760 0.8760
3464.954205 0.8762 0.8767 0.8770 0.8770 0.8770
3469.643546 0.8770 0.8770 0.8770 0.8770 0.8770
3474.332888 0.8770 0.8770 0.8770 0.8770 0.8773
3479.022229 0.8778 0.8780 0.8780 0.8780 0.8780
3483.711571 0.8780 0.8780 0.8780 0.8780 0.8780
3488.400912 0.8780 0.8780 0.8780 0.8780 0.8780
3493.090253 0.8788 0.8798 0.8800 0.8800 0.8800
3497.779595 0.8800 0.8800 0.8800 0.8800 0.8800
3502.468936 0.8800 0.8800 0.8800 0.8800 0.8800
3507.158278 0.8800 0.8805 0.8810 0.8810 0.8810
3511.847619 0.8810 0.8810 0.8810 0.8810 0.8810
3516.536960 0.8810 0.8810 0.8810 0.8810 0.8810
3521.226302 0.8810 0.8810 0.8810 0.8810 0.8810
3525.915643 0.8810 0.8810 0.8810 0.8810 0.8810
3530.604985 0.8810 0.8810 0.8810 0.8809 0.8804
3535.294326 0.8800 0.8800 0.8800 0.8800 0.8800
3539.983667 0.8800 0.8800 0.8800 0.8796 0.8786
3544.673009 0.8780 0.8780 0.8780 0.8780 0.8780
3549.362350 0.8780 0.8780 0.8780 0.8780 0.8780
3554.051692 0.8780 0.8780 0.8780 0.8780 0.8780
3558.741033 0.8780 0.8780 0.8780 0.8786 0.8796
3563.430374 0.8800 0.8800 0.8803 0.8808 0.8829
3568.119716 0.8859 0.8870 0.8870 0.8870 0.8870
3572.809057 0.8863 0.8853 0.8839 0.8824 0.8813
3577.498399 0.8802 0.8789 0.8773 0.8762 0.8752
3582.187740 0.8742 0.8732 0.8730 0.8730 0.8730
3586.877082 0.8730 0.8730 0.8730 0.8739 0.8749
3591.566423 0.8754 0.8760 0.8765 0.8770 0.8770
3596.255764 0.8770 0.8775 0.8780 0.8780 0.8780
3600.945106 0.8780 0.8780 0.8780 0.8780 0.8775
3605.634447 0.8770 0.8765 0.8760 0.8755 0.8749
3610.323789 0.8739 0.8730 0.8730 0.8729 0.8724
3615.013130 0.8720 0.8720 0.8719 0.8714 0.8708
3619.702471 0.8698 0.8690 0.8690 0.8690 0.8690
3624.391813 0.8690 0.8690 0.8694 0.8710 0.8722
3629.081154 0.8727 0.8733 0.8743 0.8750 0.8750
3633.770496 0.8752 0.8757 0.8760 0.8760 0.8762
3638.459837 0.8767 0.8770 0.8770 0.8772 0.8777
3643.149178 0.8785 0.8795 0.8800 0.8800 0.8803
3647.838520 0.8808 0.8813 0.8818 0.8823 0.8828
3652.527861 0.8830 0.8830 0.8830 0.8830 0.8836
3657.217203 0.8846 0.8843 0.8833 0.8830 0.8830
3661.906544 0.8830 0.8830 0.8826 0.8821 0.8813
3666.595885 0.8803 0.8789 0.8774 0.8754 0.8734
3671.285227 0.8722 0.8712 0.8698 0.8682 0.8676
3675.974568 0.8671 0.8666 0.8661 0.8651 0.8641
3680.663910 0.8640 0.8640 0.8635 0.8630 0.8625
3685.353251 0.8620 0.8620 0.8620 0.8625 0.8630
3690.042592 0.8630 0.8630 0.8635 0.8640 0.8651
3694.731934 0.8661 0.8671 0.8681 0.8696 0.8710
3699.421275 0.8710 0.8708 0.8693 0.8679 0.8674
3704.110617 0.8667 0.8647 0.8629 0.8624 0.8620
3708.799958 0.8620 0.8620 0.8620 0.8620 0.8620
3713.489299 0.8627 0.8652 0.8679 0.8709 0.8733
3718.178641 0.8743 0.8752 0.8757 0.8762 0.8767
3722.867982 0.8776 0.8791 0.8802 0.8807 0.8812
3727.557324 0.8817 0.8820 0.8820 0.8820 0.8820
3732.246665 0.8820 0.8820 0.8820 0.8820 0.8820
3736.936007 0.8820 0.8817 0.8812 0.8807 0.8802
3741.625348 0.8794 0.8784 0.8777 0.8772 0.8770
3746.314689 0.8770 0.8767 0.8762 0.8757 0.8752
3751.004031 0.8750 0.8750 0.8743 0.8733 0.8726
3755.693372 0.8721 0.8720 0.8720 0.8716 0.8711
3760.382714 0.8702 0.8692 0.8690 0.8690 0.8690
3765.072055 0.8690 0.8686 0.8681 0.8680 0.8680
3769.761396 0.8680 0.8680 0.8685 0.8690 0.8690
3774.450738 0.8690 0.8700 0.8710 0.8715 0.8720
3779.140079 0.8725 0.8731 0.8766 0.8800 0.8805
3783.829421 0.8810 0.8815 0.8820 0.8826 0.8830
3788.518762 0.8830 0.8831 0.8841 0.8850 0.8850
3793.208103 0.8851 0.8856
##END=
