##TITLE=METHANE, OXYBIS(CHLORO-
##JCAMP-DX=4.24
##DATA TYPE=INFRARED SPECTRUM
##CLASS=COBLENTZ
##ORIGIN=DOW CHEMICAL COMPANY
##OWNER=COBLENTZ SOCIETY
Collection (C) 2018 copyright by the U.S. Secretary of Commerce
on behalf of the United States of America. All rights reserved.
##DATE=1968/02/16
##NAMES=chloro(chloromethoxy)methane
bis(chloromethyl) ether
ETHER, BIS(CHLOROMETHYL)
##CAS REGISTRY NO=542-88-1
##MOLFORM=C2 H4 Cl2 O
##BP=106 C
##SOURCE REFERENCE=COBLENTZ NO. 10602
##$NIST SOURCE=COBLENTZ
##$NIST IMAGE=cob10602
##SPECTROMETER/DATA SYSTEM=DOW KBr FOREPRISM-GRATING
##INSTRUMENT PARAMETERS=BLAZED AT 3.5, 12.0, 20.0 MICRON, CHANGED AT 5.0, 7.5, 14.9 MICRON
##STATE=VAPOR (ABOUT 3 mmHg)
##PATH LENGTH=5 CM
$$SPECTRAL CONTAMINATION DUE TO AN UNKNOWN AROUND 2915 AND 1381 CM^-^1
$$ SEE SPECTRUM NO. 10603 FOR "SOLUTION" STATE
##SAMPLING PROCEDURE=TRANSMISSION
##RESOLUTION=4
##DATA PROCESSING=DIGITIZED BY NIST FROM HARD COPY (FROM TWO SEGMENTS)
##XUNITS=1/CM
##YUNITS=TRANSMITTANCE
##XFACTOR=1.000000
##YFACTOR=1
##DELTAX=0.947523
##FIRSTX=386.37
##LASTX=3785.13
##FIRSTY=0.745
##MAXX=3785.13
##MINX=386.37
##MAXY=1.041
##MINY=0.425
##NPOINTS=3588
##XYDATA=(X++(Y..Y))
386.370000 0.7450 0.7470 0.7480 0.7480 0.7500
391.107614 0.7510 0.7530 0.7540 0.7540 0.7540
395.845227 0.7540 0.7560 0.7590 0.7620 0.7650
400.582841 0.7660 0.7660 0.7670 0.7690 0.7760
405.320455 0.7760 0.7780 0.7780 0.7810 0.7840
410.058069 0.7880 0.7910 0.7920 0.7950 0.7970
414.795682 0.7980 0.8010 0.8030 0.8060 0.8060
419.533296 0.8090 0.8120 0.8130 0.8160 0.8190
424.270910 0.8200 0.8230 0.8260 0.8280 0.8310
429.008524 0.8340 0.8380 0.8420 0.8440 0.8440
433.746137 0.8470 0.8500 0.8510 0.8530 0.8530
438.483751 0.8560 0.8600 0.8630 0.8660 0.8700
443.221365 0.8750 0.8760 0.8790 0.8820 0.8850
447.958978 0.8880 0.8940 0.8940 0.8970 0.8980
452.696592 0.9010 0.9030 0.9060 0.9070 0.9080
457.434206 0.9110 0.9130 0.9160 0.9170 0.9190
462.171820 0.9200 0.9200 0.9220 0.9230 0.9230
466.909433 0.9250 0.9260 0.9280 0.9290 0.9320
471.647047 0.9320 0.9330 0.9350 0.9360 0.9360
476.384661 0.9380 0.9410 0.9440 0.9450 0.9470
481.122275 0.9480 0.9510 0.9530 0.9540 0.9540
485.859888 0.9570 0.9580 0.9580 0.9600 0.9600
490.597502 0.9610 0.9610 0.9610 0.9630 0.9630
495.335116 0.9640 0.9640 0.9640 0.9640 0.9640
500.072729 0.9640 0.9640 0.9640 0.9640 0.9640
504.810343 0.9640 0.9640 0.9640 0.9640 0.9630
509.547957 0.9630 0.9630 0.9630 0.9630 0.9610
514.285571 0.9610 0.9610 0.9600 0.9600 0.9580
519.023184 0.9580 0.9570 0.9570 0.9550 0.9540
523.760798 0.9530 0.9530 0.9510 0.9510 0.9530
528.498412 0.9540 0.9550 0.9550 0.9570 0.9570
533.236026 0.9570 0.9570 0.9570 0.9570 0.9580
537.973639 0.9580 0.9600 0.9600 0.9610 0.9610
542.711253 0.9610 0.9630 0.9630 0.9630 0.9630
547.448867 0.9640 0.9640 0.9640 0.9640 0.9640
552.186480 0.9640 0.9640 0.9640 0.9640 0.9640
556.924094 0.9640 0.9640 0.9640 0.9640 0.9640
561.661708 0.9640 0.9630 0.9630 0.9630 0.9630
566.399322 0.9630 0.9630 0.9630 0.9630 0.9610
571.136935 0.9610 0.9610 0.9610 0.9610 0.9610
575.874549 0.9600 0.9600 0.9580 0.9580 0.9580
580.612163 0.9580 0.9580 0.9600 0.9610 0.9610
585.349777 0.9610 0.9610 0.9610 0.9610 0.9610
590.087390 0.9600 0.9600 0.9600 0.9600 0.9600
594.825004 0.9600 0.9600 0.9580 0.9580 0.9580
599.562618 0.9580 0.9570 0.9570 0.9570 0.9570
604.300231 0.9550 0.9550 0.9550 0.9540 0.9540
609.037845 0.9530 0.9530 0.9530 0.9530 0.9530
613.775459 0.9510 0.9510 0.9510 0.9510 0.9500
618.513073 0.9500 0.9500 0.9500 0.9500 0.9500
623.250686 0.9500 0.9500 0.9500 0.9480 0.9480
627.988300 0.9480 0.9480 0.9500 0.9500 0.9500
632.725914 0.9500 0.9500 0.9500 0.9500 0.9500
637.463528 0.9480 0.9480 0.9480 0.9480 0.9480
642.201141 0.9480 0.9480 0.9480 0.9480 0.9480
646.938755 0.9480 0.9480 0.9480 0.9470 0.9470
651.676369 0.9470 0.9450 0.9450 0.9450 0.9440
656.413982 0.9440 0.9420 0.9410 0.9380 0.9360
661.151596 0.9350 0.9350 0.9330 0.9320 0.9300
665.889210 0.9260 0.9220 0.9160 0.9130 0.9100
670.626824 0.9060 0.8980 0.8910 0.8860 0.8760
675.364437 0.8730 0.8561 0.8192 0.7981 0.7761
680.102051 0.7530 0.7290 0.7120 0.6970 0.6910
684.839665 0.6760 0.6630 0.6540 0.6381 0.6310
689.577279 0.6190 0.6000 0.5800 0.5710 0.5650
694.314892 0.5630 0.5650 0.5770 0.5820 0.5880
699.052506 0.5930 0.6020 0.6130 0.6150 0.6160
703.790120 0.6160 0.6160 0.6160 0.6180 0.6280
708.527733 0.6600 0.7070 0.7180 0.7839 0.8199
713.265347 0.8379 0.8480 0.8510 0.8560 0.8699
718.002961 0.8890 0.8920 0.8970 0.9080 0.9130
722.740575 0.9200 0.9260 0.9330 0.9360 0.9440
727.478188 0.9480 0.9550 0.9570 0.9570 0.9600
732.215802 0.9610 0.9660 0.9690 0.9700 0.9720
736.953416 0.9730 0.9750 0.9750 0.9760 0.9770
741.691030 0.9770 0.9770 0.9790 0.9790 0.9800
746.428643 0.9820 0.9820 0.9820 0.9830 0.9830
751.166257 0.9830 0.9830 0.9850 0.9850 0.9850
755.903871 0.9850 0.9850 0.9850 0.9850 0.9860
760.641485 0.9860 0.9860 0.9860 0.9860 0.9860
765.379098 0.9860 0.9860 0.9860 0.9860 0.9860
770.116712 0.9880 0.9880 0.9880 0.9880 0.9880
774.854326 0.9880 0.9880 0.9880 0.9880 0.9880
779.591939 0.9860 0.9860 0.9860 0.9860 0.9860
784.329553 0.9860 0.9860 0.9860 0.9860 0.9860
789.067167 0.9860 0.9860 0.9860 0.9860 0.9860
793.804781 0.9860 0.9860 0.9860 0.9850 0.9850
798.542394 0.9850 0.9850 0.9860 0.9860 0.9860
803.280008 0.9860 0.9860 0.9860 0.9860 0.9860
808.017622 0.9850 0.9850 0.9850 0.9850 0.9850
812.755236 0.9850 0.9850 0.9850 0.9850 0.9850
817.492849 0.9830 0.9830 0.9830 0.9830 0.9830
822.230463 0.9830 0.9830 0.9830 0.9830 0.9830
826.968077 0.9830 0.9850 0.9850 0.9850 0.9850
831.705690 0.9850 0.9830 0.9830 0.9830 0.9830
836.443304 0.9830 0.9830 0.9830 0.9830 0.9850
841.180918 0.9830 0.9830 0.9830 0.9850 0.9850
845.918532 0.9850 0.9850 0.9850 0.9850 0.9850
850.656145 0.9850 0.9850 0.9850 0.9850 0.9850
855.393759 0.9850 0.9850 0.9850 0.9850 0.9850
860.131373 0.9850 0.9860 0.9860 0.9860 0.9860
864.868987 0.9860 0.9860 0.9860 0.9860 0.9860
869.606600 0.9860 0.9860 0.9860 0.9860 0.9860
874.344214 0.9850 0.9850 0.9850 0.9850 0.9830
879.081828 0.9830 0.9830 0.9850 0.9850 0.9850
883.819441 0.9850 0.9830 0.9830 0.9830 0.9830
888.557055 0.9850 0.9850 0.9850 0.9850 0.9850
893.294669 0.9850 0.9850 0.9850 0.9830 0.9830
898.032283 0.9820 0.9820 0.9800 0.9800 0.9790
902.769896 0.9790 0.9790 0.9790 0.9790 0.9770
907.507510 0.9770 0.9760 0.9750 0.9730 0.9720
912.245124 0.9700 0.9690 0.9670 0.9660 0.9640
916.982738 0.9610 0.9600 0.9570 0.9550 0.9530
921.720351 0.9500 0.9480 0.9440 0.9410 0.9360
926.457965 0.9350 0.9320 0.9230 0.9030 0.9000
931.195579 0.8970 0.8950 0.8940 0.8920 0.8910
935.933192 0.8890 0.8890 0.8910 0.8920 0.8940
940.670806 0.8940 0.8920 0.8920 0.8910 0.8910
945.408420 0.8920 0.8940 0.8980 0.9010 0.9080
950.146034 0.9160 0.9190 0.9190 0.9200 0.9200
954.883647 0.9220 0.9220 0.9220 0.9230 0.9230
959.621261 0.9320 0.9330 0.9330 0.9330 0.9350
964.358875 0.9360 0.9360 0.9350 0.9330 0.9300
969.096489 0.9330 0.9380 0.9450 0.9480 0.9500
973.834102 0.9510 0.9530 0.9540 0.9540 0.9540
978.571716 0.9540 0.9540 0.9540 0.9550 0.9550
983.309330 0.9550 0.9550 0.9550 0.9570 0.9580
988.046943 0.9610 0.9630 0.9640 0.9660 0.9660
992.784557 0.9660 0.9660 0.9660 0.9660 0.9660
997.522171 0.9660 0.9660 0.9660 0.9660 0.9660
1002.259785 0.9660 0.9640 0.9640 0.9640 0.9640
1006.997398 0.9640 0.9640 0.9630 0.9610 0.9610
1011.735012 0.9600 0.9600 0.9570 0.9570 0.9570
1016.472626 0.9550 0.9550 0.9550 0.9550 0.9550
1021.210240 0.9540 0.9540 0.9540 0.9540 0.9540
1025.947853 0.9530 0.9530 0.9510 0.9500 0.9500
1030.685467 0.9480 0.9480 0.9470 0.9450 0.9450
1035.423081 0.9440 0.9410 0.9390 0.9380 0.9350
1040.160694 0.9320 0.9250 0.9170 0.9130 0.9060
1044.898308 0.9000 0.8890 0.8750 0.8660 0.8630
1049.635922 0.8630 0.8610 0.8600 0.8600 0.8590
1054.373536 0.8590 0.8600 0.8670 0.8730 0.8849
1059.111149 0.9010 0.9330 0.9390 0.9420 0.9450
1063.848763 0.9470 0.9470 0.9480 0.9480 0.9500
1068.586377 0.9500 0.9480 0.9480 0.9480 0.9500
1073.323991 0.9500 0.9500 0.9480 0.9470 0.9470
1078.061604 0.9450 0.9420 0.9390 0.9360 0.9330
1082.799218 0.9330 0.9320 0.9290 0.9220 0.9140
1087.536832 0.9080 0.8920 0.8730 0.8570 0.8420
1092.274445 0.8141 0.7921 0.7820 0.7720 0.7511
1097.012059 0.7260 0.6660 0.5971 0.5561 0.5440
1101.749673 0.5310 0.5161 0.4811 0.4681 0.4471
1106.487287 0.4470 0.4680 0.4810 0.4810 0.4531
1111.224900 0.4251 0.4250 0.4798 0.4780 0.4521
1115.962514 0.4300 0.4310 0.5529 0.6399 0.8117
1120.700128 0.8260 0.8559 0.9128 0.9279 0.9330
1125.437742 0.9350 0.9410 0.9470 0.9500 0.9510
1130.175355 0.9530 0.9540 0.9540 0.9540 0.9540
1134.912969 0.9540 0.9540 0.9550 0.9550 0.9580
1139.650583 0.9640 0.9660 0.9670 0.9670 0.9690
1144.388196 0.9690 0.9690 0.9690 0.9690 0.9670
1149.125810 0.9670 0.9660 0.9660 0.9640 0.9610
1153.863424 0.9580 0.9550 0.9540 0.9530 0.9450
1158.601038 0.9380 0.9350 0.9350 0.9330 0.9330
1163.338651 0.9330 0.9330 0.9330 0.9350 0.9350
1168.076265 0.9360 0.9360 0.9390 0.9410 0.9420
1172.813879 0.9440 0.9470 0.9480 0.9540 0.9550
1177.551493 0.9580 0.9630 0.9640 0.9640 0.9660
1182.289106 0.9670 0.9670 0.9690 0.9690 0.9700
1187.026720 0.9700 0.9700 0.9720 0.9720 0.9720
1191.764334 0.9720 0.9720 0.9720 0.9720 0.9720
1196.501947 0.9730 0.9730 0.9730 0.9730 0.9730
1201.239561 0.9730 0.9730 0.9730 0.9730 0.9730
1205.977175 0.9730 0.9720 0.9720 0.9720 0.9700
1210.714789 0.9700 0.9690 0.9690 0.9690 0.9670
1215.452402 0.9660 0.9640 0.9630 0.9600 0.9580
1220.190016 0.9550 0.9540 0.9500 0.9330 0.9190
1224.927630 0.9140 0.8821 0.8730 0.8630 0.8530
1229.665244 0.8630 0.8700 0.8700 0.8610 0.8600
1234.402857 0.8610 0.8640 0.8700 0.8700 0.8511
1239.140471 0.8470 0.8440 0.8480 0.8510 0.8540
1243.878085 0.8570 0.9248 0.9419 0.9500 0.9530
1248.615698 0.9550 0.9550 0.9550 0.9550 0.9550
1253.353312 0.9570 0.9570 0.9570 0.9570 0.9550
1258.090926 0.9550 0.9550 0.9550 0.9550 0.9550
1262.828540 0.9550 0.9550 0.9570 0.9570 0.9550
1267.566153 0.9550 0.9550 0.9550 0.9550 0.9550
1272.303767 0.9570 0.9550 0.9550 0.9550 0.9550
1277.041381 0.9550 0.9550 0.9550 0.9550 0.9550
1281.778995 0.9550 0.9550 0.9570 0.9570 0.9570
1286.516608 0.9570 0.9570 0.9570 0.9570 0.9570
1291.254222 0.9570 0.9580 0.9580 0.9580 0.9580
1295.991836 0.9580 0.9570 0.9570 0.9570 0.9550
1300.729449 0.9550 0.9530 0.9530 0.9510 0.9480
1305.467063 0.9450 0.9440 0.9420 0.9380 0.9350
1310.204677 0.9350 0.9330 0.9320 0.9280 0.9230
1314.942291 0.9190 0.9140 0.9080 0.9030 0.8970
1319.679904 0.8940 0.8890 0.8880 0.8850 0.8830
1324.417518 0.8830 0.8850 0.8880 0.8910 0.8920
1329.155132 0.8940 0.8950 0.9010 0.9159 0.9250
1333.892746 0.9300 0.9330 0.9380 0.9420 0.9480
1338.630359 0.9570 0.9630 0.9660 0.9700 0.9730
1343.367973 0.9770 0.9790 0.9800 0.9820 0.9850
1348.105587 0.9860 0.9890 0.9920 0.9920 0.9920
1352.843200 0.9920 0.9920 0.9920 0.9920 0.9920
1357.580814 0.9920 0.9920 0.9920 0.9920 0.9940
1362.318428 0.9940 0.9940 0.9950 0.9950 0.9950
1367.056042 0.9970 0.9940 0.9940 0.9920 0.9920
1371.793655 0.9920 0.9920 0.9910 0.9910 0.9910
1376.531269 0.9910 0.9890 0.9860 0.9800 0.9720
1381.268883 0.9630 0.9760 0.9790 0.9820 0.9850
1386.006497 0.9880 0.9890 0.9890 0.9910 0.9920
1390.744110 0.9920 0.9920 0.9920 0.9920 0.9920
1395.481724 0.9920 0.9920 0.9910 0.9910 0.9910
1400.219338 0.9910 0.9910 0.9910 0.9910 0.9910
1404.956951 0.9910 0.9920 0.9920 0.9920 0.9920
1409.694565 0.9920 0.9920 0.9920 0.9920 0.9920
1414.432179 0.9920 0.9920 0.9920 0.9920 0.9910
1419.169793 0.9910 0.9910 0.9910 0.9890 0.9890
1423.907406 0.9890 0.9890 0.9890 0.9890 0.9890
1428.645020 0.9890 0.9890 0.9890 0.9890 0.9890
1433.382634 0.9890 0.9890 0.9890 0.9880 0.9880
1438.120248 0.9880 0.9860 0.9860 0.9860 0.9850
1442.857861 0.9850 0.9820 0.9790 0.9770 0.9760
1447.595475 0.9760 0.9750 0.9720 0.9690 0.9670
1452.333089 0.9660 0.9660 0.9640 0.9640 0.9640
1457.070703 0.9630 0.9630 0.9630 0.9640 0.9640
1461.808316 0.9640 0.9640 0.9640 0.9660 0.9660
1466.545930 0.9660 0.9670 0.9690 0.9720 0.9760
1471.283544 0.9760 0.9770 0.9770 0.9770 0.9790
1476.021157 0.9790 0.9800 0.9820 0.9830 0.9830
1480.758771 0.9860 0.9860 0.9860 0.9860 0.9860
1485.496385 0.9860 0.9860 0.9860 0.9860 0.9860
1490.233999 0.9860 0.9860 0.9860 0.9850 0.9850
1494.971612 0.9850 0.9850 0.9850 0.9850 0.9850
1499.709226 0.9850 0.9850 0.9850 0.9850 0.9850
1504.446840 0.9850 0.9850 0.9850 0.9850 0.9850
1509.184454 0.9850 0.9850 0.9850 0.9850 0.9850
1513.922067 0.9850 0.9850 0.9850 0.9850 0.9850
1518.659681 0.9850 0.9850 0.9830 0.9830 0.9850
1523.397295 0.9850 0.9850 0.9850 0.9850 0.9850
1528.134908 0.9850 0.9850 0.9850 0.9850 0.9850
1532.872522 0.9850 0.9850 0.9850 0.9850 0.9850
1537.610136 0.9850 0.9850 0.9850 0.9850 0.9830
1542.347750 0.9830 0.9830 0.9850 0.9850 0.9850
1547.085363 0.9850 0.9850 0.9850 0.9850 0.9850
1551.822977 0.9850 0.9850 0.9850 0.9850 0.9850
1556.560591 0.9850 0.9850 0.9850 0.9850 0.9860
1561.298205 0.9850 0.9850 0.9850 0.9860 0.9860
1566.035818 0.9860 0.9860 0.9860 0.9860 0.9860
1570.773432 0.9850 0.9850 0.9850 0.9860 0.9860
1575.511046 0.9860 0.9860 0.9860 0.9860 0.9860
1580.248659 0.9860 0.9860 0.9880 0.9880 0.9880
1584.986273 0.9880 0.9880 0.9880 0.9880 0.9880
1589.723887 0.9880 0.9880 0.9880 0.9880 0.9880
1594.461501 0.9880 0.9880 0.9880 0.9880 0.9880
1599.199114 0.9880 0.9880 0.9880 0.9880 0.9880
1603.936728 0.9880 0.9880 0.9880 0.9880 0.9880
1608.674342 0.9880 0.9880 0.9880 0.9880 0.9880
1613.411956 0.9860 0.9860 0.9850 0.9850 0.9850
1618.149569 0.9830 0.9830 0.9820 0.9800 0.9800
1622.887183 0.9800 0.9790 0.9790 0.9770 0.9770
1627.624797 0.9760 0.9760 0.9760 0.9760 0.9750
1632.362410 0.9750 0.9750 0.9730 0.9730 0.9730
1637.100024 0.9750 0.9750 0.9750 0.9760 0.9760
1641.837638 0.9770 0.9770 0.9770 0.9770 0.9790
1646.575252 0.9790 0.9790 0.9790 0.9790 0.9790
1651.312865 0.9800 0.9820 0.9830 0.9850 0.9850
1656.050479 0.9850 0.9850 0.9850 0.9850 0.9850
1660.788093 0.9850 0.9850 0.9850 0.9850 0.9850
1665.525707 0.9850 0.9850 0.9850 0.9830 0.9830
1670.263320 0.9830 0.9830 0.9850 0.9850 0.9850
1675.000934 0.9850 0.9830 0.9830 0.9830 0.9830
1679.738548 0.9830 0.9830 0.9830 0.9820 0.9820
1684.476161 0.9820 0.9820 0.9820 0.9820 0.9820
1689.213775 0.9820 0.9820 0.9820 0.9800 0.9790
1693.951389 0.9790 0.9790 0.9790 0.9790 0.9770
1698.689003 0.9770 0.9770 0.9770 0.9770 0.9770
1703.426616 0.9770 0.9770 0.9770 0.9770 0.9770
1708.164230 0.9770 0.9770 0.9770 0.9790 0.9790
1712.901844 0.9790 0.9790 0.9790 0.9790 0.9770
1717.639458 0.9790 0.9790 0.9790 0.9790 0.9800
1722.377071 0.9800 0.9800 0.9800 0.9800 0.9800
1727.114685 0.9800 0.9800 0.9800 0.9800 0.9820
1731.852299 0.9820 0.9820 0.9820 0.9820 0.9800
1736.589912 0.9770 0.9760 0.9750 0.9730 0.9730
1741.327526 0.9750 0.9760 0.9790 0.9790 0.9790
1746.065140 0.9790 0.9790 0.9770 0.9770 0.9770
1750.802754 0.9770 0.9770 0.9760 0.9760 0.9750
1755.540367 0.9730 0.9720 0.9720 0.9720 0.9720
1760.277981 0.9720 0.9720 0.9700 0.9700 0.9700
1765.015595 0.9700 0.9720 0.9730 0.9730 0.9730
1769.753209 0.9750 0.9750 0.9750 0.9760 0.9760
1774.490822 0.9760 0.9760 0.9760 0.9770 0.9770
1779.228436 0.9770 0.9770 0.9770 0.9770 0.9770
1783.966050 0.9770 0.9770 0.9770 0.9770 0.9770
1788.703663 0.9770 0.9770 0.9770 0.9770 0.9770
1793.441277 0.9770 0.9770 0.9770 0.9770 0.9770
1798.178891 0.9770 0.9770 0.9770 0.9770 0.9770
1802.916505 0.9770 0.9770 0.9770 0.9760 0.9760
1807.654118 0.9760 0.9760 0.9760 0.9760 0.9760
1812.391732 0.9760 0.9760 0.9770 0.9770 0.9770
1817.129346 0.9770 0.9770 0.9760 0.9760 0.9760
1821.866960 0.9760 0.9760 0.9760 0.9760 0.9760
1826.604573 0.9760 0.9760 0.9760 0.9750 0.9750
1831.342187 0.9760 0.9760 0.9760 0.9760 0.9770
1836.079801 0.9770 0.9760 0.9760 0.9760 0.9760
1840.817414 0.9770 0.9760 0.9760 0.9760 0.9760
1845.555028 0.9760 0.9760 0.9760 0.9760 0.9760
1850.292642 0.9730 0.9760 0.9760 0.9760 0.9760
1855.030256 0.9760 0.9760 0.9760 0.9760 0.9760
1859.767869 0.9770 0.9770 0.9760 0.9760 0.9760
1864.505483 0.9760 0.9760 0.9760 0.9760 0.9760
1869.243097 0.9760 0.9760 0.9760 0.9760 0.9760
1873.980711 0.9760 0.9760 0.9760 0.9760 0.9760
1878.718324 0.9760 0.9760 0.9760 0.9760 0.9760
1883.455938 0.9760 0.9770 0.9770 0.9770 0.9770
1888.193552 0.9770 0.9770 0.9770 0.9770 0.9770
1892.931165 0.9770 0.9770 0.9770 0.9760 0.9760
1897.668779 0.9760 0.9760 0.9760 0.9760 0.9760
1902.406393 0.9760 0.9760 0.9760 0.9760 0.9760
1907.144007 0.9760 0.9760 0.9760 0.9760 0.9760
1911.881620 0.9760 0.9760 0.9760 0.9760 0.9760
1916.619234 0.9760 0.9760 0.9760 0.9770 0.9770
1921.356848 0.9760 0.9760 0.9760 0.9760 0.9760
1926.094462 0.9760 0.9760 0.9760 0.9760 0.9760
1930.832075 0.9750 0.9750 0.9750 0.9750 0.9750
1935.569689 0.9750 0.9730 0.9730 0.9730 0.9730
1940.307303 0.9730 0.9730 0.9730 0.9730 0.9720
1945.044916 0.9720 0.9720 0.9720 0.9700 0.9700
1949.782530 0.9660 0.9660 0.9640 0.9640 0.9640
1954.520144 0.9640 0.9660 0.9670 0.9690 0.9700
1959.257758 0.9700 0.9700 0.9700 0.9700 0.9690
1963.995371 0.9690 0.9670 0.9670 0.9670 0.9670
1968.732985 0.9670 0.9670 0.9670 0.9670 0.9670
1973.470599 0.9670 0.9670 0.9670 0.9670 0.9670
1978.208213 0.9660 0.9660 0.9660 0.9660 0.9660
1982.945826 0.9640 0.9640 0.9640 0.9640 0.9640
1987.683440 0.9640 0.9640 0.9640 0.9640 0.9640
1992.421054 0.9640 0.9640 0.9630 0.9630 0.9630
1997.158667 0.9630 0.9640 0.9640 0.9640 0.9650
2001.896281 0.9660 0.9660 0.9660 0.9665 0.9670
2006.633895 0.9685 0.9705 1.0061 1.0410 1.0410
2011.371509 1.0410 1.0410 1.0410 1.0410 1.0410
2016.109122 1.0400 1.0390 1.0374 1.0360 1.0360
2020.846736 1.0359 1.0344 1.0330 1.0330 1.0329
2025.584350 1.0314 1.0299 1.0284 1.0269 1.0254
2030.321964 1.0240 1.0240 1.0240 1.0235 1.0230
2035.059577 1.0230 1.0230 1.0230 1.0230 1.0230
2039.797191 1.0230 1.0230 1.0231 1.0236 1.0240
2044.534805 1.0240 1.0242 1.0257 1.0271 1.0281
2049.272418 1.0290 1.0290 1.0291 1.0296 1.0300
2054.010032 1.0300 1.0302 1.0312 1.0320 1.0320
2058.747646 1.0320 1.0320 1.0320 1.0320 1.0320
2063.485260 1.0320 1.0320 1.0320 1.0320 1.0320
2068.222873 1.0320 1.0320 1.0320 1.0320 1.0320
2072.960487 1.0320 1.0320 1.0320 1.0321 1.0326
2077.698101 1.0330 1.0330 1.0330 1.0330 1.0330
2082.435715 1.0330 1.0330 1.0330 1.0330 1.0330
2087.173328 1.0329 1.0324 1.0320 1.0320 1.0320
2091.910942 1.0320 1.0320 1.0320 1.0320 1.0320
2096.648556 1.0320 1.0320 1.0317 1.0307 1.0300
2101.386169 1.0300 1.0300 1.0300 1.0300 1.0300
2106.123783 1.0300 1.0300 1.0298 1.0294 1.0290
2110.861397 1.0290 1.0290 1.0290 1.0287 1.0277
2115.599011 1.0270 1.0270 1.0268 1.0263 1.0257
2120.336624 1.0247 1.0240 1.0240 1.0238 1.0233
2125.074238 1.0230 1.0230 1.0230 1.0230 1.0230
2129.811852 1.0230 1.0230 1.0230 1.0230 1.0230
2134.549466 1.0230 1.0230 1.0230 1.0230 1.0230
2139.287079 1.0230 1.0230 1.0230 1.0230 1.0230
2144.024693 1.0230 1.0230 1.0230 1.0230 1.0230
2148.762307 1.0230 1.0230 1.0230 1.0230 1.0230
2153.499921 1.0230 1.0230 1.0230 1.0230 1.0230
2158.237534 1.0230 1.0230 1.0230 1.0230 1.0230
2162.975148 1.0230 1.0230 1.0230 1.0230 1.0230
2167.712762 1.0230 1.0230 1.0230 1.0228 1.0223
2172.450375 1.0220 1.0220 1.0220 1.0220 1.0220
2177.187989 1.0220 1.0220 1.0220 1.0220 1.0220
2181.925603 1.0220 1.0220 1.0220 1.0220 1.0220
2186.663217 1.0220 1.0220 1.0220 1.0220 1.0220
2191.400830 1.0220 1.0220 1.0220 1.0220 1.0220
2196.138444 1.0220 1.0223 1.0228 1.0230 1.0230
2200.876058 1.0230 1.0230 1.0230 1.0230 1.0230
2205.613672 1.0230 1.0227 1.0222 1.0220 1.0220
2210.351285 1.0220 1.0220 1.0220 1.0220 1.0220
2215.088899 1.0220 1.0214 1.0204 1.0200 1.0200
2219.826513 1.0200 1.0200 1.0200 1.0200 1.0200
2224.564126 1.0200 1.0200 1.0200 1.0200 1.0200
2229.301740 1.0200 1.0200 1.0200 1.0200 1.0200
2234.039354 1.0200 1.0200 1.0200 1.0200 1.0200
2238.776968 1.0200 1.0200 1.0200 1.0200 1.0200
2243.514581 1.0200 1.0200 1.0200 1.0200 1.0200
2248.252195 1.0200 1.0200 1.0200 1.0200 1.0200
2252.989809 1.0200 1.0200 1.0200 1.0200 1.0200
2257.727423 1.0200 1.0200 1.0208 1.0217 1.0220
2262.465036 1.0220 1.0220 1.0220 1.0220 1.0220
2267.202650 1.0220 1.0220 1.0220 1.0220 1.0224
2271.940264 1.0229 1.0230 1.0230 1.0230 1.0230
2276.677877 1.0230 1.0230 1.0230 1.0230 1.0230
2281.415491 1.0230 1.0230 1.0230 1.0230 1.0230
2286.153105 1.0230 1.0230 1.0230 1.0230 1.0230
2290.890719 1.0230 1.0230 1.0230 1.0230 1.0230
2295.628332 1.0230 1.0230 1.0230 1.0230 1.0230
2300.365946 1.0230 1.0234 1.0240 1.0249 1.0259
2305.103560 1.0260 1.0260 1.0260 1.0260 1.0260
2309.841174 1.0260 1.0260 1.0260 1.0260 1.0260
2314.578787 1.0260 1.0260 1.0265 1.0270 1.0270
2319.316401 1.0270 1.0270 1.0270 1.0270 1.0270
2324.054015 1.0270 1.0270 1.0270 1.0270 1.0270
2328.791628 1.0270 1.0270 1.0270 1.0270 1.0270
2333.529242 1.0280 1.0290 1.0290 1.0290 1.0290
2338.266856 1.0290 1.0280 1.0270 1.0270 1.0270
2343.004470 1.0270 1.0270 1.0265 1.0260 1.0260
2347.742083 1.0260 1.0250 1.0240 1.0240 1.0240
2352.479697 1.0240 1.0240 1.0235 1.0230 1.0230
2357.217311 1.0230 1.0225 1.0220 1.0220 1.0219
2361.954925 1.0209 1.0200 1.0200 1.0200 1.0195
2366.692538 1.0190 1.0190 1.0189 1.0179 1.0170
2371.430152 1.0165 1.0160 1.0160 1.0160 1.0160
2376.167766 1.0159 1.0149 1.0140 1.0140 1.0139
2380.905379 1.0134 1.0130 1.0130 1.0129 1.0119
2385.642993 1.0110 1.0110 1.0110 1.0110 1.0109
2390.380607 1.0104 1.0100 1.0100 1.0099 1.0089
2395.118221 1.0080 1.0080 1.0080 1.0080 1.0080
2399.855834 1.0080 1.0080 1.0080 1.0080 1.0080
2404.593448 1.0079 1.0074 1.0070 1.0070 1.0070
2409.331062 1.0070 1.0070 1.0070 1.0070 1.0070
2414.068676 1.0070 1.0070 1.0070 1.0070 1.0070
2418.806289 1.0070 1.0070 1.0070 1.0070 1.0070
2423.543903 1.0070 1.0070 1.0070 1.0070 1.0070
2428.281517 1.0070 1.0070 1.0070 1.0070 1.0070
2433.019130 1.0067 1.0057 1.0050 1.0050 1.0050
2437.756744 1.0050 1.0050 1.0050 1.0050 1.0050
2442.494358 1.0050 1.0050 1.0050 1.0050 1.0050
2447.231972 1.0050 1.0050 1.0050 1.0050 1.0050
2451.969585 1.0050 1.0050 1.0050 1.0050 1.0050
2456.707199 1.0050 1.0050 1.0050 1.0050 1.0050
2461.444813 1.0050 1.0050 1.0050 1.0050 1.0048
2466.182427 1.0043 1.0040 1.0040 1.0040 1.0040
2470.920040 1.0040 1.0040 1.0040 1.0040 1.0040
2475.657654 1.0040 1.0040 1.0040 1.0040 1.0040
2480.395268 1.0036 1.0026 1.0020 1.0020 1.0020
2485.132881 1.0020 1.0020 1.0020 1.0020 1.0020
2489.870495 1.0020 1.0020 1.0020 1.0020 1.0020
2494.608109 1.0020 1.0020 1.0020 1.0020 1.0020
2499.345723 1.0020 1.0020 1.0020 1.0020 1.0020
2504.083336 1.0020 1.0020 1.0020 1.0020 1.0020
2508.820950 1.0020 1.0020 1.0020 1.0020 1.0020
2513.558564 1.0020 1.0020 1.0020 1.0020 1.0020
2518.296178 1.0020 1.0020 1.0020 1.0020 1.0020
2523.033791 1.0020 1.0020 1.0020 1.0020 1.0020
2527.771405 1.0020 1.0020 1.0020 1.0020 1.0020
2532.509019 1.0020 1.0020 1.0020 1.0020 1.0020
2537.246632 1.0020 1.0020 1.0020 1.0020 1.0020
2541.984246 1.0020 1.0020 1.0020 1.0020 1.0020
2546.721860 1.0020 1.0020 1.0020 1.0020 1.0020
2551.459474 1.0020 1.0020 1.0020 1.0020 1.0020
2556.197087 1.0020 1.0020 1.0020 1.0020 1.0020
2560.934701 1.0020 1.0020 1.0020 1.0020 1.0020
2565.672315 1.0020 1.0020 1.0020 1.0020 1.0020
2570.409929 1.0020 1.0020 1.0020 1.0020 1.0020
2575.147542 1.0020 1.0020 1.0020 1.0020 1.0020
2579.885156 1.0020 1.0020 1.0020 1.0016 1.0012
2584.622770 1.0010 1.0010 1.0010 1.0010 1.0010
2589.360383 1.0010 1.0010 1.0010 1.0010 1.0010
2594.097997 1.0010 1.0010 1.0010 1.0010 1.0010
2598.835611 1.0010 1.0010 1.0010 1.0010 1.0010
2603.573225 1.0010 1.0010 1.0010 1.0010 1.0010
2608.310838 1.0010 1.0010 1.0010 1.0010 1.0010
2613.048452 1.0010 1.0010 1.0010 1.0010 1.0010
2617.786066 1.0010 1.0010 1.0010 1.0010 1.0010
2622.523680 1.0010 1.0010 1.0010 1.0010 1.0010
2627.261293 1.0010 1.0010 1.0010 1.0010 1.0010
2631.998907 1.0010 1.0010 1.0010 1.0010 1.0010
2636.736521 1.0010 1.0010 1.0010 1.0010 1.0010
2641.474134 1.0010 1.0010 1.0010 1.0010 1.0010
2646.211748 1.0010 1.0010 1.0010 1.0010 1.0010
2650.949362 1.0010 1.0010 1.0010 1.0010 1.0010
2655.686976 1.0010 1.0010 1.0010 1.0010 1.0010
2660.424589 1.0010 1.0010 1.0010 1.0010 1.0010
2665.162203 1.0010 1.0010 1.0010 1.0005 1.0000
2669.899817 1.0000 1.0000 1.0000 1.0000 1.0000
2674.637431 1.0000 1.0000 1.0000 1.0000 1.0000
2679.375044 1.0000 1.0000 1.0000 1.0000 1.0000
2684.112658 1.0000 1.0000 1.0000 1.0000 1.0000
2688.850272 1.0000 1.0000 1.0000 1.0000 1.0000
2693.587885 1.0000 0.9990 0.9980 0.9980 0.9980
2698.325499 0.9980 0.9980 0.9980 0.9980 0.9980
2703.063113 0.9980 0.9975 0.9970 0.9970 0.9970
2707.800727 0.9970 0.9970 0.9970 0.9970 0.9970
2712.538340 0.9970 0.9970 0.9970 0.9970 0.9970
2717.275954 0.9970 0.9970 0.9970 0.9970 0.9970
2722.013568 0.9970 0.9970 0.9969 0.9959 0.9950
2726.751182 0.9950 0.9950 0.9950 0.9949 0.9944
2731.488795 0.9940 0.9940 0.9940 0.9940 0.9938
2736.226409 0.9928 0.9920 0.9920 0.9920 0.9920
2740.964023 0.9920 0.9920 0.9920 0.9920 0.9920
2745.701636 0.9920 0.9920 0.9920 0.9920 0.9920
2750.439250 0.9920 0.9920 0.9920 0.9920 0.9920
2755.176864 0.9920 0.9920 0.9920 0.9920 0.9920
2759.914478 0.9920 0.9920 0.9920 0.9920 0.9920
2764.652091 0.9920 0.9920 0.9920 0.9920 0.9920
2769.389705 0.9920 0.9920 0.9920 0.9920 0.9920
2774.127319 0.9920 0.9920 0.9920 0.9919 0.9914
2778.864933 0.9907 0.9897 0.9889 0.9884 0.9877
2783.602546 0.9867 0.9858 0.9853 0.9847 0.9837
2788.340160 0.9828 0.9823 0.9820 0.9820 0.9820
2793.077774 0.9820 0.9820 0.9820 0.9820 0.9820
2797.815387 0.9820 0.9820 0.9820 0.9820 0.9822
2802.553001 0.9827 0.9830 0.9830 0.9830 0.9830
2807.290615 0.9830 0.9830 0.9830 0.9830 0.9830
2812.028229 0.9830 0.9830 0.9830 0.9830 0.9830
2816.765842 0.9830 0.9830 0.9834 0.9844 0.9850
2821.503456 0.9850 0.9850 0.9850 0.9850 0.9850
2826.241070 0.9846 0.9836 0.9830 0.9830 0.9828
2830.978684 0.9823 0.9809 0.9784 0.9770 0.9770
2835.716297 0.9768 0.9763 0.9751 0.9731 0.9708
2840.453911 0.9683 0.9670 0.9670 0.9675 0.9685
2845.191525 0.9690 0.9690 0.9697 0.9712 0.9720
2849.929138 0.9720 0.9723 0.9728 0.9730 0.9730
2854.666752 0.9735 0.9745 0.9750 0.9750 0.9753
2859.404366 0.9758 0.9763 0.9768 0.9770 0.9770
2864.141980 0.9770 0.9770 0.9770 0.9770 0.9770
2868.879593 0.9770 0.9770 0.9770 0.9767 0.9762
2873.617207 0.9760 0.9760 0.9757 0.9752 0.9744
2878.354821 0.9734 0.9727 0.9722 0.9714 0.9704
2883.092435 0.9700 0.9700 0.9697 0.9692 0.9690
2887.830048 0.9690 0.9674 0.9649 0.9631 0.9616
2892.567662 0.9607 0.9602 0.9594 0.9584 0.9577
2897.305276 0.9572 0.9564 0.9554 0.9537 0.9517
2902.042890 0.9507 0.9502 0.9494 0.9483 0.9477
2906.780503 0.9472 0.9463 0.9453 0.9450 0.9450
2911.518117 0.9447 0.9442 0.9440 0.9440 0.9440
2916.255731 0.9440 0.9443 0.9448 0.9467 0.9493
2920.993344 0.9514 0.9534 0.9551 0.9566 0.9581
2925.730958 0.9596 0.9604 0.9609 0.9621 0.9636
2930.468572 0.9647 0.9657 0.9664 0.9669 0.9677
2935.206186 0.9688 0.9694 0.9699 0.9708 0.9718
2939.943799 0.9720 0.9720 0.9720 0.9720 0.9720
2944.681413 0.9720 0.9720 0.9720 0.9712 0.9702
2949.419027 0.9700 0.9700 0.9696 0.9691 0.9690
2954.156641 0.9690 0.9682 0.9672 0.9666 0.9661
2958.894254 0.9648 0.9633 0.9622 0.9612 0.9598
2963.631868 0.9582 0.9576 0.9571 0.9562 0.9551
2968.369482 0.9529 0.9504 0.9487 0.9472 0.9470
2973.107095 0.9470 0.9474 0.9479 0.9489 0.9499
2977.844709 0.9522 0.9547 0.9559 0.9569 0.9583
2982.582323 0.9598 0.9632 0.9667 0.9679 0.9689
2987.319937 0.9695 0.9700 0.9732 0.9767 0.9784
2992.057550 0.9799 0.9814 0.9829 0.9839 0.9849
2996.795164 0.9855 0.9860 0.9869 0.9879 0.9885
3001.532778 0.9890 0.9890 0.9890 0.9900 0.9910
3006.270392 0.9910 0.9910 0.9910 0.9910 0.9900
3011.008005 0.9890 0.9890 0.9890 0.9890 0.9890
3015.745619 0.9885 0.9880 0.9880 0.9880 0.9880
3020.483233 0.9880 0.9870 0.9860 0.9860 0.9860
3025.220846 0.9855 0.9850 0.9850 0.9850 0.9840
3029.958460 0.9830 0.9830 0.9830 0.9825 0.9820
3034.696074 0.9810 0.9800 0.9800 0.9800 0.9800
3039.433688 0.9801 0.9811 0.9820 0.9820 0.9820
3044.171301 0.9820 0.9820 0.9825 0.9830 0.9830
3048.908915 0.9831 0.9841 0.9850 0.9855 0.9861
3053.646529 0.9871 0.9880 0.9885 0.9891 0.9901
3058.384143 0.9910 0.9910 0.9910 0.9910 0.9910
3063.121756 0.9910 0.9911 0.9916 0.9920 0.9920
3067.859370 0.9920 0.9920 0.9920 0.9920 0.9920
3072.596984 0.9920 0.9920 0.9920 0.9920 0.9920
3077.334597 0.9920 0.9920 0.9920 0.9920 0.9920
3082.072211 0.9920 0.9920 0.9920 0.9920 0.9920
3086.809825 0.9920 0.9920 0.9920 0.9920 0.9919
3091.547439 0.9914 0.9910 0.9910 0.9910 0.9910
3096.285052 0.9910 0.9910 0.9910 0.9910 0.9910
3101.022666 0.9910 0.9908 0.9898 0.9890 0.9890
3105.760280 0.9890 0.9890 0.9890 0.9890 0.9890
3110.497894 0.9890 0.9890 0.9890 0.9890 0.9890
3115.235507 0.9890 0.9890 0.9890 0.9890 0.9890
3119.973121 0.9890 0.9890 0.9890 0.9890 0.9890
3124.710735 0.9890 0.9890 0.9890 0.9890 0.9890
3129.448348 0.9890 0.9890 0.9890 0.9890 0.9890
3134.185962 0.9890 0.9890 0.9890 0.9890 0.9890
3138.923576 0.9890 0.9890 0.9890 0.9890 0.9890
3143.661190 0.9890 0.9890 0.9890 0.9890 0.9890
3148.398803 0.9890 0.9890 0.9890 0.9890 0.9890
3153.136417 0.9890 0.9890 0.9890 0.9890 0.9890
3157.874031 0.9890 0.9890 0.9890 0.9890 0.9890
3162.611645 0.9890 0.9890 0.9890 0.9890 0.9890
3167.349258 0.9890 0.9888 0.9883 0.9880 0.9880
3172.086872 0.9880 0.9880 0.9880 0.9880 0.9875
3176.824486 0.9865 0.9860 0.9860 0.9860 0.9860
3181.562099 0.9860 0.9860 0.9860 0.9860 0.9860
3186.299713 0.9860 0.9860 0.9860 0.9860 0.9860
3191.037327 0.9857 0.9852 0.9845 0.9835 0.9830
3195.774941 0.9830 0.9830 0.9830 0.9830 0.9830
3200.512554 0.9830 0.9830 0.9830 0.9830 0.9830
3205.250168 0.9830 0.9827 0.9822 0.9820 0.9820
3209.987782 0.9820 0.9820 0.9820 0.9820 0.9820
3214.725396 0.9820 0.9820 0.9820 0.9820 0.9820
3219.463009 0.9820 0.9820 0.9820 0.9820 0.9814
3224.200623 0.9804 0.9800 0.9800 0.9800 0.9800
3228.938237 0.9800 0.9800 0.9800 0.9800 0.9800
3233.675850 0.9800 0.9800 0.9800 0.9797 0.9792
3238.413464 0.9790 0.9790 0.9790 0.9790 0.9790
3243.151078 0.9790 0.9790 0.9790 0.9790 0.9790
3247.888692 0.9790 0.9790 0.9790 0.9790 0.9783
3252.626305 0.9773 0.9770 0.9770 0.9770 0.9770
3257.363919 0.9770 0.9770 0.9770 0.9770 0.9770
3262.101533 0.9770 0.9770 0.9770 0.9770 0.9770
3266.839147 0.9770 0.9770 0.9770 0.9770 0.9770
3271.576760 0.9770 0.9770 0.9770 0.9766 0.9761
3276.314374 0.9756 0.9751 0.9750 0.9750 0.9750
3281.051988 0.9750 0.9742 0.9732 0.9730 0.9730
3285.789601 0.9730 0.9730 0.9730 0.9730 0.9730
3290.527215 0.9730 0.9730 0.9730 0.9726 0.9721
3295.264829 0.9720 0.9720 0.9712 0.9702 0.9700
3300.002443 0.9700 0.9700 0.9700 0.9696 0.9691
3304.740056 0.9690 0.9690 0.9690 0.9690 0.9681
3309.477670 0.9671 0.9670 0.9670 0.9666 0.9661
3314.215284 0.9660 0.9660 0.9660 0.9660 0.9660
3318.952898 0.9660 0.9651 0.9641 0.9640 0.9640
3323.690511 0.9640 0.9640 0.9640 0.9640 0.9635
3328.428125 0.9630 0.9630 0.9630 0.9630 0.9630
3333.165739 0.9630 0.9630 0.9621 0.9611 0.9610
3337.903352 0.9610 0.9610 0.9610 0.9605 0.9600
3342.640966 0.9600 0.9600 0.9590 0.9580 0.9580
3347.378580 0.9580 0.9575 0.9570 0.9570 0.9570
3352.116194 0.9560 0.9550 0.9550 0.9550 0.9545
3356.853807 0.9540 0.9535 0.9530 0.9520 0.9510
3361.591421 0.9505 0.9500 0.9490 0.9480 0.9475
3366.329035 0.9470 0.9470 0.9470 0.9460 0.9450
3371.066649 0.9445 0.9440 0.9440 0.9440 0.9430
3375.804262 0.9420 0.9420 0.9420 0.9415 0.9409
3380.541876 0.9399 0.9390 0.9390 0.9390 0.9390
3385.279490 0.9390 0.9385 0.9380 0.9380 0.9379
3390.017103 0.9369 0.9360 0.9360 0.9360 0.9360
3394.754717 0.9360 0.9355 0.9350 0.9350 0.9350
3399.492331 0.9350 0.9350 0.9350 0.9350 0.9350
3404.229945 0.9350 0.9350 0.9350 0.9350 0.9350
3408.967558 0.9350 0.9351 0.9356 0.9360 0.9360
3413.705172 0.9360 0.9360 0.9360 0.9360 0.9360
3418.442786 0.9360 0.9362 0.9372 0.9380 0.9380
3423.180400 0.9380 0.9380 0.9380 0.9380 0.9380
3427.918013 0.9380 0.9380 0.9380 0.9381 0.9386
3432.655627 0.9390 0.9390 0.9390 0.9390 0.9392
3437.393241 0.9402 0.9411 0.9416 0.9422 0.9432
3442.130854 0.9440 0.9440 0.9441 0.9446 0.9453
3446.868468 0.9463 0.9471 0.9476 0.9483 0.9493
3451.606082 0.9500 0.9500 0.9501 0.9506 0.9513
3456.343696 0.9523 0.9530 0.9530 0.9530 0.9530
3461.081309 0.9532 0.9537 0.9540 0.9540 0.9542
3465.818923 0.9547 0.9550 0.9550 0.9550 0.9550
3470.556537 0.9550 0.9550 0.9550 0.9550 0.9550
3475.294151 0.9550 0.9550 0.9550 0.9550 0.9550
3480.031764 0.9550 0.9550 0.9550 0.9550 0.9550
3484.769378 0.9550 0.9550 0.9550 0.9550 0.9550
3489.506992 0.9550 0.9550 0.9550 0.9550 0.9554
3494.244605 0.9564 0.9570 0.9570 0.9570 0.9570
3498.982219 0.9570 0.9570 0.9572 0.9577 0.9580
3503.719833 0.9580 0.9584 0.9594 0.9600 0.9600
3508.457447 0.9600 0.9600 0.9602 0.9607 0.9610
3513.195060 0.9610 0.9615 0.9625 0.9630 0.9630
3517.932674 0.9630 0.9630 0.9630 0.9630 0.9632
3522.670288 0.9637 0.9640 0.9640 0.9640 0.9640
3527.407902 0.9640 0.9640 0.9640 0.9640 0.9640
3532.145515 0.9640 0.9645 0.9655 0.9660 0.9660
3536.883129 0.9660 0.9660 0.9660 0.9660 0.9660
3541.620743 0.9660 0.9655 0.9645 0.9640 0.9640
3546.358356 0.9640 0.9640 0.9640 0.9640 0.9646
3551.095970 0.9656 0.9660 0.9660 0.9660 0.9660
3555.833584 0.9663 0.9668 0.9670 0.9670 0.9670
3560.571198 0.9670 0.9670 0.9670 0.9670 0.9670
3565.308811 0.9670 0.9670 0.9670 0.9670 0.9670
3570.046425 0.9670 0.9670 0.9670 0.9670 0.9670
3574.784039 0.9670 0.9670 0.9670 0.9670 0.9670
3579.521653 0.9670 0.9670 0.9670 0.9670 0.9670
3584.259266 0.9670 0.9670 0.9670 0.9670 0.9670
3588.996880 0.9670 0.9670 0.9670 0.9670 0.9670
3593.734494 0.9677 0.9687 0.9683 0.9673 0.9670
3598.472108 0.9670 0.9670 0.9670 0.9670 0.9670
3603.209721 0.9670 0.9670 0.9670 0.9670 0.9670
3607.947335 0.9670 0.9670 0.9670 0.9670 0.9670
3612.684949 0.9670 0.9670 0.9670 0.9670 0.9670
3617.422562 0.9670 0.9670 0.9670 0.9670 0.9670
3622.160176 0.9670 0.9670 0.9670 0.9670 0.9670
3626.897790 0.9670 0.9670 0.9670 0.9670 0.9670
3631.635404 0.9670 0.9670 0.9678 0.9688 0.9690
3636.373017 0.9690 0.9690 0.9690 0.9690 0.9690
3641.110631 0.9682 0.9672 0.9670 0.9670 0.9670
3645.848245 0.9670 0.9670 0.9670 0.9670 0.9670
3650.585859 0.9670 0.9670 0.9670 0.9670 0.9670
3655.323472 0.9670 0.9670 0.9670 0.9670 0.9670
3660.061086 0.9670 0.9670 0.9670 0.9670 0.9670
3664.798700 0.9670 0.9670 0.9670 0.9670 0.9670
3669.536313 0.9670 0.9670 0.9670 0.9670 0.9670
3674.273927 0.9670 0.9670 0.9670 0.9670 0.9670
3679.011541 0.9670 0.9670 0.9670 0.9670 0.9670
3683.749155 0.9670 0.9670 0.9670 0.9670 0.9670
3688.486768 0.9670 0.9670 0.9670 0.9670 0.9670
3693.224382 0.9670 0.9670 0.9670 0.9680 0.9690
3697.961996 0.9690 0.9690 0.9690 0.9690 0.9690
3702.699610 0.9690 0.9690 0.9690 0.9690 0.9690
3707.437223 0.9690 0.9690 0.9690 0.9690 0.9690
3712.174837 0.9690 0.9690 0.9690 0.9690 0.9690
3716.912451 0.9690 0.9690 0.9690 0.9690 0.9695
3721.650064 0.9700 0.9700 0.9700 0.9700 0.9700
3726.387678 0.9700 0.9700 0.9695 0.9690 0.9690
3731.125292 0.9690 0.9690 0.9689 0.9679 0.9670
3735.862906 0.9670 0.9670 0.9670 0.9670 0.9670
3740.600519 0.9670 0.9670 0.9670 0.9670 0.9670
3745.338133 0.9670 0.9670 0.9670 0.9670 0.9670
3750.075747 0.9669 0.9664 0.9660 0.9660 0.9660
3754.813361 0.9660 0.9660 0.9660 0.9660 0.9660
3759.550974 0.9660 0.9660 0.9660 0.9660 0.9660
3764.288588 0.9660 0.9660 0.9660 0.9660 0.9660
3769.026202 0.9660 0.9660 0.9660 0.9660 0.9660
3773.763815 0.9660 0.9660 0.9660 0.9660 0.9660
3778.501429 0.9658 0.9648 0.9642 0.9653 0.9660
3783.239043 0.9660 0.9657 0.9647
##END=
