##TITLE=METHANE, OXYBIS(CHLORO-
##JCAMP-DX=4.24
##DATA TYPE=INFRARED SPECTRUM
##CLASS=COBLENTZ III
##ORIGIN=DOW CHEMICAL COMPANY
##OWNER=COBLENTZ SOCIETY
Collection (C) 2018 copyright by the U.S. Secretary of Commerce
on behalf of the United States of America. All rights reserved.
##DATE=1968/02/16
##NAMES=chloro(chloromethoxy)methane
bis(chloromethyl) ether
ETHER, BIS(CHLOROMETHYL)
##CAS REGISTRY NO=542-88-1
##MOLFORM=C2 H4 Cl2 O
##BP=106 C
##SOURCE REFERENCE=COBLENTZ NO. 10603
##$NIST SOURCE=COBLENTZ
##$NIST IMAGE=cob10603
##SPECTROMETER/DATA SYSTEM=DOW KBr FOREPRISM-GRATING
##INSTRUMENT PARAMETERS=BLAZED AT 3.5, 12.0, 20.0 MICRON, CHANGED AT 5.0, 7.5, 14.9 MICRON
##STATE=SOLUTION (10% IN CCl4 FOR 3800-1333, 10% IN CS2 FOR 1333-400 CM^-^1)
##PATH LENGTH=0.011, 0.010 CM
$$ SEE SPECTRUM NO. 10601 AND 10602 FOR "VAPOR" STATES
$$SPECTRAL CONTAMINATION DUE TO CCl4 AROUND 1550, AND CS2 AROUND 855 CM^-^1
##SAMPLING PROCEDURE=TRANSMISSION
##RESOLUTION=4
##DATA PROCESSING=DIGITIZED BY NIST FROM HARD COPY (FROM TWO SEGMENTS)
##XUNITS=1/CM
##YUNITS=TRANSMITTANCE
##XFACTOR=1.000000
##YFACTOR=1
##DELTAX=0.946832
##FIRSTX=390.386
##LASTX=3787.62
##FIRSTY=0.318
##MAXX=3787.62
##MINX=390.386
##MAXY=1.001
##MINY=0
##NPOINTS=3589
##XYDATA=(X++(Y..Y))
390.386000 0.3180 0.3200 0.3210 0.3270 0.3330
395.120159 0.3360 0.3390 0.3450 0.3520 0.3550
399.854318 0.3650 0.3840 0.3870 0.4200 0.4230
404.588476 0.4300 0.4798 0.4939 0.5109 0.5279
409.322635 0.5470 0.5600 0.5730 0.5810 0.5850
414.056794 0.5870 0.5890 0.5920 0.5980 0.6000
418.790953 0.6000 0.6010 0.6010 0.6000 0.6000
423.525112 0.5980 0.5980 0.5980 0.5980 0.6000
428.259271 0.6000 0.6010 0.6030 0.6070 0.6170
432.993429 0.6439 0.6590 0.6749 0.6929 0.7238
437.727588 0.7490 0.7620 0.7750 0.7810 0.7940
442.461747 0.7960 0.7970 0.8000 0.8030 0.8110
447.195906 0.8110 0.8140 0.8200 0.8210 0.8230
451.930065 0.8240 0.8270 0.8280 0.8300 0.8310
456.664224 0.8330 0.8370 0.8400 0.8430 0.8490
461.398382 0.8510 0.8510 0.8520 0.8560 0.8610
466.132541 0.8710 0.8730 0.8770 0.8800 0.8840
470.866700 0.8840 0.8870 0.8890 0.8900 0.8930
475.600859 0.8960 0.8980 0.8990 0.9010 0.9020
480.335018 0.9050 0.9080 0.9080 0.9100 0.9110
485.069176 0.9120 0.9140 0.9150 0.9170 0.9180
489.803335 0.9200 0.9200 0.9210 0.9230 0.9240
494.537494 0.9240 0.9260 0.9270 0.9290 0.9290
499.271653 0.9300 0.9300 0.9320 0.9320 0.9330
504.005812 0.9330 0.9330 0.9350 0.9350 0.9350
508.739971 0.9360 0.9360 0.9360 0.9360 0.9360
513.474129 0.9360 0.9360 0.9360 0.9360 0.9360
518.208288 0.9360 0.9360 0.9360 0.9360 0.9350
522.942447 0.9350 0.9350 0.9330 0.9330 0.9320
527.676606 0.9320 0.9320 0.9320 0.9320 0.9330
532.410765 0.9330 0.9350 0.9360 0.9380 0.9390
537.144924 0.9390 0.9410 0.9410 0.9420 0.9420
541.879082 0.9430 0.9430 0.9430 0.9430 0.9450
546.613241 0.9450 0.9460 0.9460 0.9460 0.9460
551.347400 0.9460 0.9450 0.9450 0.9450 0.9430
556.081559 0.9430 0.9430 0.9430 0.9420 0.9420
560.815718 0.9410 0.9410 0.9390 0.9390 0.9380
565.549876 0.9380 0.9380 0.9360 0.9360 0.9360
570.284035 0.9350 0.9350 0.9330 0.9320 0.9300
575.018194 0.9290 0.9290 0.9270 0.9260 0.9240
579.752353 0.9230 0.9200 0.9170 0.9170 0.9150
584.486512 0.9140 0.9120 0.9110 0.9100 0.9080
589.220671 0.9070 0.8990 0.8960 0.8950 0.8930
593.954829 0.8920 0.8900 0.8870 0.8860 0.8830
598.688988 0.8820 0.8800 0.8790 0.8740 0.8710
603.423147 0.8680 0.8650 0.8620 0.8590 0.8550
608.157306 0.8520 0.8510 0.8390 0.8330 0.8300
612.891465 0.8240 0.8180 0.8140 0.7991 0.7940
617.625624 0.7830 0.7780 0.7680 0.7580 0.7400
622.359782 0.7270 0.7240 0.7091 0.6961 0.6910
627.093941 0.6760 0.6680 0.6600 0.6440 0.6380
631.828100 0.6310 0.6190 0.6160 0.6041 0.5921
636.562259 0.5810 0.5510 0.5390 0.5290 0.5110
641.296418 0.5000 0.4791 0.4670 0.4570 0.4461
646.030576 0.4260 0.4150 0.4050 0.3930 0.3770
650.764735 0.3551 0.3231 0.2941 0.2860 0.2771
655.498894 0.2660 0.2550 0.2430 0.2250 0.2150
660.233053 0.1881 0.1651 0.1381 0.1280 0.1190
664.967212 0.1130 0.1060 0.0820 0.0570 0.0470
669.701371 0.0380 0.0250 0.0140 0.0110 0.0070
674.435529 0.0040 0.0010 0.0000 0.0000 0.0000
679.169688 0.0000 0.0000 0.0000 0.0000 0.0000
683.903847 0.0000 0.0000 0.0000 0.0010 0.0020
688.638006 0.0020 0.0050 0.0080 0.0110 0.0219
693.372165 0.0230 0.0290 0.0330 0.0380 0.0470
698.106324 0.0480 0.0500 0.0580 0.0610 0.0690
702.840482 0.0750 0.0790 0.0790 0.0870 0.1040
707.574641 0.1219 0.1379 0.1559 0.1719 0.2128
712.308800 0.2330 0.2430 0.2889 0.3169 0.3399
717.042959 0.3619 0.3979 0.4259 0.4688 0.5317
721.777118 0.5420 0.5510 0.5760 0.6010 0.6090
726.511276 0.6439 0.6470 0.6629 0.6819 0.6999
731.245435 0.7090 0.7250 0.7300 0.7410 0.7520
735.979594 0.7620 0.7750 0.7800 0.7929 0.7960
740.713753 0.8110 0.8140 0.8200 0.8250 0.8330
745.447912 0.8360 0.8430 0.8480 0.8520 0.8550
750.182071 0.8590 0.8640 0.8650 0.8700 0.8710
754.916229 0.8740 0.8770 0.8830 0.8900 0.8920
759.650388 0.8930 0.8950 0.8950 0.8980 0.8990
764.384547 0.9010 0.9020 0.9050 0.9070 0.9110
769.118706 0.9140 0.9170 0.9180 0.9200 0.9210
773.852865 0.9210 0.9230 0.9230 0.9230 0.9240
778.587024 0.9240 0.9240 0.9240 0.9240 0.9240
783.321182 0.9260 0.9260 0.9260 0.9260 0.9260
788.055341 0.9270 0.9290 0.9290 0.9300 0.9300
792.789500 0.9300 0.9300 0.9300 0.9300 0.9320
797.523659 0.9320 0.9320 0.9330 0.9330 0.9330
802.257818 0.9350 0.9350 0.9350 0.9360 0.9360
806.991976 0.9360 0.9380 0.9390 0.9390 0.9410
811.726135 0.9410 0.9410 0.9410 0.9410 0.9390
816.460294 0.9390 0.9380 0.9360 0.9350 0.9350
821.194453 0.9330 0.9320 0.9320 0.9320 0.9300
825.928612 0.9270 0.9260 0.9240 0.9230 0.9230
830.662771 0.9210 0.9210 0.9200 0.9180 0.9150
835.396929 0.9140 0.9120 0.9120 0.9110 0.8990
840.131088 0.8930 0.8920 0.8870 0.8790 0.8730
844.865247 0.8610 0.8560 0.8530 0.8340 0.8240
849.599406 0.8210 0.8170 0.8120 0.8090 0.8080
854.333565 0.8090 0.8110 0.8150 0.8210 0.8230
859.067724 0.8270 0.8300 0.8310 0.8330 0.8360
863.801882 0.8400 0.8430 0.8510 0.8520 0.8530
868.536041 0.8560 0.8590 0.8610 0.8620 0.8700
873.270200 0.8710 0.8740 0.8770 0.8790 0.8820
878.004359 0.8860 0.8900 0.8920 0.8930 0.8950
882.738518 0.8980 0.8980 0.8980 0.8990 0.8990
887.472676 0.8990 0.8990 0.8990 0.8990 0.8980
892.206835 0.8980 0.8960 0.8960 0.8960 0.8960
896.940994 0.8950 0.8950 0.8920 0.8900 0.8900
901.675153 0.8870 0.8870 0.8830 0.8770 0.8740
906.409312 0.8710 0.8640 0.8580 0.8490 0.8420
911.143471 0.8340 0.8310 0.8230 0.8140 0.7940
915.877629 0.7661 0.7590 0.7271 0.6931 0.6602
920.611788 0.6480 0.6350 0.6040 0.5661 0.5161
925.345947 0.4791 0.4601 0.4391 0.3614 0.3172
930.080106 0.2890 0.2720 0.2560 0.2241 0.1911
934.814265 0.1601 0.1281 0.1121 0.0951 0.0632
939.548424 0.0630 0.1220 0.1480 0.1720 0.1880
944.282582 0.2997 0.3229 0.3818 0.4637 0.5247
949.016741 0.5760 0.6469 0.6530 0.6540 0.6530
953.750900 0.6480 0.6440 0.6321 0.6191 0.5921
958.485059 0.5130 0.4410 0.3681 0.2941 0.2212
963.219218 0.2210 0.2579 0.3456 0.5879 0.6736
967.953376 0.7150 0.7410 0.8000 0.8080 0.8110
972.687535 0.8120 0.8120 0.8120 0.8090 0.8030
977.421694 0.7960 0.7710 0.7710 0.8299 0.8340
982.155853 0.8529 0.8709 0.8800 0.8919 0.8930
986.890012 0.8960 0.8990 0.9010 0.9010 0.9010
991.624171 0.9010 0.9010 0.9010 0.9010 0.9010
996.358329 0.8990 0.8980 0.8930 0.8900 0.8890
1001.092488 0.8870 0.8860 0.8830 0.8820 0.8790
1005.826647 0.8760 0.8710 0.8590 0.8530 0.8450
1010.560806 0.8360 0.8310 0.8230 0.8140 0.7961
1015.294965 0.7780 0.7490 0.7340 0.7160 0.6841
1020.029124 0.6621 0.6461 0.6291 0.5852 0.5850
1024.763282 0.5970 0.6000 0.6629 0.6940 0.7219
1029.497441 0.7240 0.7220 0.7130 0.7070 0.6911
1034.231600 0.6760 0.6620 0.6480 0.6340 0.6290
1038.965759 0.5911 0.5322 0.5220 0.5220 0.5479
1043.699918 0.5660 0.6010 0.6469 0.6650 0.6929
1048.434076 0.7349 0.7519 0.7560 0.7580 0.7580
1053.168235 0.7560 0.7530 0.7490 0.7440 0.7410
1057.902394 0.7380 0.7240 0.7130 0.7060 0.6960
1062.636553 0.6850 0.6760 0.6630 0.6500 0.6460
1067.370712 0.6400 0.6320 0.6171 0.6041 0.5811
1072.104871 0.5530 0.5380 0.5250 0.5020 0.4910
1076.839029 0.4790 0.4690 0.4571 0.4072 0.3801
1081.573188 0.3430 0.3000 0.2840 0.2680 0.2271
1086.307347 0.1662 0.1192 0.1090 0.0732 0.0382
1091.041506 0.0130 0.0070 0.0020 0.0010 0.0000
1095.775665 0.0000 0.0000 0.0000 0.0000 0.0000
1100.509824 0.0000 0.0000 0.0000 0.0000 0.0000
1105.243982 0.0010 0.0040 0.0080 0.0170 0.0389
1109.978141 0.1220 0.1990 0.2220 0.2899 0.3080
1114.712300 0.3369 0.3639 0.4048 0.4269 0.4787
1119.446459 0.5130 0.5560 0.5750 0.5780 0.5890
1124.180618 0.6259 0.6340 0.6509 0.6600 0.6839
1128.914776 0.6940 0.7120 0.7270 0.7340 0.7520
1133.648935 0.7660 0.7770 0.7860 0.7940 0.7970
1138.383094 0.8030 0.8230 0.8300 0.8310 0.8340
1143.117253 0.8390 0.8420 0.8450 0.8480 0.8490
1147.851412 0.8490 0.8490 0.8480 0.8460 0.8400
1152.585571 0.8340 0.8310 0.8240 0.8150 0.8060
1157.319729 0.7940 0.7580 0.7250 0.7250 0.7489
1162.053888 0.7530 0.7769 0.8527 0.8709 0.8770
1166.788047 0.8830 0.8900 0.8920 0.8950 0.8960
1171.522206 0.8980 0.8990 0.9020 0.9050 0.9110
1176.256365 0.9110 0.9140 0.9150 0.9180 0.9200
1180.990524 0.9200 0.9210 0.9210 0.9210 0.9210
1185.724682 0.9210 0.9210 0.9210 0.9210 0.9210
1190.458841 0.9210 0.9200 0.9200 0.9200 0.9180
1195.193000 0.9180 0.9170 0.9150 0.9150 0.9110
1199.927159 0.9110 0.9100 0.9070 0.9020 0.8980
1204.661318 0.8930 0.8920 0.8900 0.8830 0.8790
1209.395476 0.8710 0.8680 0.8640 0.8550 0.8520
1214.129635 0.8430 0.8360 0.8310 0.8240 0.8170
1218.863794 0.7771 0.7252 0.6912 0.6651 0.6282
1223.597953 0.5910 0.5051 0.4431 0.3801 0.3152
1228.332112 0.2193 0.1233 0.0782 0.0302 0.0300
1233.066271 0.0760 0.1310 0.2529 0.3548 0.5386
1237.800429 0.6028 0.6778 0.7268 0.7937 0.8020
1242.534588 0.8140 0.8230 0.8300 0.8310 0.8360
1247.268747 0.8400 0.8430 0.8460 0.8480 0.8490
1252.002906 0.8510 0.8510 0.8490 0.8400 0.8360
1256.737065 0.8340 0.8310 0.8200 0.8170 0.8120
1261.471224 0.8020 0.7940 0.7810 0.7750 0.7590
1266.205382 0.7460 0.7330 0.7121 0.6931 0.6811
1270.939541 0.6760 0.6740 0.6720 0.6710 0.6710
1275.673700 0.6720 0.6740 0.6750 0.6760 0.6790
1280.407859 0.6900 0.6930 0.7090 0.7250 0.7410
1285.142018 0.7520 0.7659 0.7740 0.7840 0.7930
1289.876176 0.7970 0.8080 0.8110 0.8120 0.8120
1294.610335 0.8080 0.8020 0.7940 0.7890 0.7681
1299.344494 0.7550 0.7430 0.7310 0.7280 0.7120
1304.078653 0.6970 0.6810 0.6760 0.6601 0.6381
1308.812812 0.6160 0.5640 0.5011 0.4790 0.4571
1313.546971 0.3992 0.3243 0.2941 0.2661 0.2382
1318.281129 0.1960 0.1190 0.1190 0.1370 0.1430
1323.015288 0.1500 0.1719 0.1820 0.2158 0.2936
1327.749447 0.3180 0.3799 0.5627 0.5949 0.6189
1332.483606 0.6320 0.6469 0.6599 0.6739 0.6869
1337.217765 0.7000 0.7130 0.7270 0.7400 0.7530
1341.951924 0.7620 0.7680 0.7770 0.7939 0.8020
1346.686082 0.8230 0.8330 0.8370 0.8420 0.8520
1351.420241 0.8580 0.8640 0.8700 0.8710 0.8730
1356.154400 0.8760 0.8770 0.8800 0.8830 0.8900
1360.888559 0.8920 0.8930 0.8950 0.8980 0.8990
1365.622718 0.9010 0.9020 0.9040 0.9070 0.9080
1370.356876 0.9100 0.9110 0.9120 0.9120 0.9140
1375.091035 0.9140 0.9140 0.9140 0.9120 0.9120
1379.825194 0.9120 0.9120 0.9120 0.9140 0.9180
1384.559353 0.9210 0.9260 0.9320 0.9320 0.9330
1389.293512 0.9350 0.9350 0.9350 0.9360 0.9360
1394.027671 0.9380 0.9380 0.9380 0.9380 0.9390
1398.761829 0.9390 0.9390 0.9390 0.9380 0.9380
1403.495988 0.9380 0.9360 0.9360 0.9360 0.9350
1408.230147 0.9350 0.9350 0.9330 0.9320 0.9320
1412.964306 0.9300 0.9300 0.9260 0.9240 0.9230
1417.698465 0.9210 0.9180 0.9170 0.9170 0.9140
1422.432624 0.9140 0.9120 0.9110 0.9110 0.9100
1427.166782 0.9080 0.9070 0.9050 0.9040 0.9010
1431.900941 0.8990 0.8980 0.8950 0.8930 0.8920
1436.635100 0.8920 0.8890 0.8870 0.8830 0.8770
1441.369259 0.8730 0.8710 0.8620 0.8530 0.8430
1446.103418 0.8300 0.8150 0.7871 0.7133 0.6662
1450.837576 0.6190 0.6010 0.5171 0.4671 0.4151
1455.571735 0.3702 0.3700 0.4795 0.5656 0.7291
1460.305894 0.7550 0.7690 0.7710 0.7720 0.7750
1465.040053 0.7770 0.7929 0.7970 0.8517 0.8739
1469.774212 0.8800 0.8820 0.8840 0.8840 0.8860
1474.508371 0.8870 0.8890 0.8890 0.8900 0.8900
1479.242529 0.8890 0.8890 0.8870 0.8860 0.8840
1483.976688 0.8830 0.8820 0.8800 0.8790 0.8770
1488.710847 0.8760 0.8740 0.8730 0.8700 0.8680
1493.445006 0.8670 0.8640 0.8620 0.8530 0.8480
1498.179165 0.8430 0.8370 0.8330 0.8310 0.8210
1502.913324 0.8180 0.8150 0.8120 0.8110 0.8030
1507.647482 0.7960 0.7940 0.7810 0.7750 0.7680
1512.381641 0.7620 0.7590 0.7580 0.7580 0.7500
1517.115800 0.7430 0.7340 0.7280 0.7240 0.7180
1521.849959 0.7150 0.7100 0.7070 0.6990 0.6940
1526.584118 0.6910 0.6780 0.6750 0.6630 0.6600
1531.318276 0.6510 0.6440 0.6380 0.6320 0.6191
1536.052435 0.6160 0.6130 0.5950 0.5880 0.5690
1540.786594 0.5630 0.5500 0.5361 0.5280 0.5230
1545.520753 0.5140 0.5110 0.5080 0.5070 0.5050
1550.254912 0.5050 0.5070 0.5080 0.5110 0.5140
1554.989071 0.5230 0.5260 0.5350 0.5390 0.5500
1559.723229 0.5640 0.5730 0.5760 0.5879 0.6009
1564.457388 0.6060 0.6160 0.6200 0.6290 0.6460
1569.191547 0.6590 0.6600 0.6620 0.6650 0.6690
1573.925706 0.6710 0.6710 0.6720 0.6740 0.6750
1578.659865 0.6780 0.6780 0.6790 0.6820 0.6900
1583.394024 0.6900 0.6930 0.6960 0.7050 0.7100
1588.128182 0.7180 0.7300 0.7380 0.7410 0.7589
1592.862341 0.7750 0.7780 0.7830 0.7940 0.8000
1597.596500 0.8269 0.8400 0.8480 0.8510 0.8560
1602.330659 0.8640 0.8730 0.8800 0.8920 0.8930
1607.064818 0.9020 0.9050 0.9100 0.9100 0.9110
1611.798976 0.9110 0.9120 0.9140 0.9150 0.9170
1616.533135 0.9170 0.9180 0.9200 0.9200 0.9210
1621.267294 0.9230 0.9240 0.9320 0.9330 0.9360
1626.001453 0.9410 0.9420 0.9460 0.9510 0.9520
1630.735612 0.9540 0.9550 0.9550 0.9580 0.9610
1635.469771 0.9630 0.9640 0.9670 0.9690 0.9710
1640.203929 0.9730 0.9730 0.9740 0.9760 0.9760
1644.938088 0.9770 0.9770 0.9790 0.9790 0.9800
1649.672247 0.9800 0.9800 0.9800 0.9800 0.9800
1654.406406 0.9800 0.9800 0.9800 0.9800 0.9800
1659.140565 0.9820 0.9820 0.9830 0.9830 0.9830
1663.874724 0.9830 0.9830 0.9830 0.9850 0.9850
1668.608882 0.9850 0.9850 0.9860 0.9860 0.9860
1673.343041 0.9860 0.9850 0.9850 0.9850 0.9850
1678.077200 0.9850 0.9850 0.9850 0.9830 0.9830
1682.811359 0.9830 0.9830 0.9830 0.9830 0.9830
1687.545518 0.9830 0.9830 0.9830 0.9820 0.9820
1692.279676 0.9820 0.9800 0.9800 0.9800 0.9800
1697.013835 0.9820 0.9830 0.9830 0.9850 0.9850
1701.747994 0.9860 0.9860 0.9860 0.9860 0.9880
1706.482153 0.9880 0.9880 0.9880 0.9890 0.9890
1711.216312 0.9890 0.9890 0.9890 0.9890 0.9890
1715.950471 0.9890 0.9890 0.9890 0.9890 0.9880
1720.684629 0.9880 0.9880 0.9860 0.9860 0.9860
1725.418788 0.9860 0.9860 0.9850 0.9850 0.9850
1730.152947 0.9830 0.9830 0.9830 0.9830 0.9820
1734.887106 0.9820 0.9820 0.9820 0.9800 0.9790
1739.621265 0.9790 0.9790 0.9770 0.9770 0.9770
1744.355424 0.9740 0.9730 0.9730 0.9740 0.9760
1749.089582 0.9760 0.9760 0.9770 0.9770 0.9770
1753.823741 0.9770 0.9790 0.9790 0.9790 0.9790
1758.557900 0.9790 0.9790 0.9790 0.9790 0.9790
1763.292059 0.9770 0.9770 0.9770 0.9770 0.9770
1768.026218 0.9760 0.9760 0.9740 0.9740 0.9740
1772.760376 0.9760 0.9760 0.9760 0.9760 0.9760
1777.494535 0.9760 0.9760 0.9760 0.9760 0.9760
1782.228694 0.9760 0.9760 0.9760 0.9740 0.9740
1786.962853 0.9740 0.9740 0.9740 0.9740 0.9730
1791.697012 0.9710 0.9710 0.9710 0.9700 0.9700
1796.431171 0.9700 0.9700 0.9700 0.9700 0.9710
1801.165329 0.9710 0.9710 0.9710 0.9730 0.9730
1805.899488 0.9730 0.9730 0.9740 0.9770 0.9770
1810.633647 0.9770 0.9770 0.9770 0.9770 0.9770
1815.367806 0.9770 0.9770 0.9770 0.9790 0.9790
1820.101965 0.9790 0.9790 0.9790 0.9790 0.9790
1824.836124 0.9790 0.9790 0.9790 0.9790 0.9790
1829.570282 0.9790 0.9790 0.9790 0.9790 0.9790
1834.304441 0.9770 0.9770 0.9770 0.9770 0.9770
1839.038600 0.9770 0.9770 0.9770 0.9770 0.9760
1843.772759 0.9760 0.9760 0.9760 0.9760 0.9760
1848.506918 0.9740 0.9740 0.9740 0.9740 0.9740
1853.241076 0.9740 0.9740 0.9740 0.9730 0.9730
1857.975235 0.9730 0.9710 0.9700 0.9700 0.9700
1862.709394 0.9700 0.9700 0.9700 0.9700 0.9700
1867.443553 0.9700 0.9700 0.9710 0.9710 0.9730
1872.177712 0.9740 0.9760 0.9760 0.9760 0.9770
1876.911871 0.9770 0.9770 0.9790 0.9790 0.9790
1881.646029 0.9790 0.9790 0.9790 0.9790 0.9790
1886.380188 0.9790 0.9790 0.9790 0.9770 0.9770
1891.114347 0.9770 0.9760 0.9760 0.9740 0.9730
1895.848506 0.9730 0.9730 0.9730 0.9730 0.9740
1900.582665 0.9760 0.9760 0.9770 0.9770 0.9790
1905.316824 0.9800 0.9820 0.9820 0.9830 0.9830
1910.050982 0.9830 0.9850 0.9850 0.9850 0.9850
1914.785141 0.9850 0.9850 0.9850 0.9850 0.9850
1919.519300 0.9850 0.9850 0.9830 0.9830 0.9830
1924.253459 0.9830 0.9830 0.9830 0.9830 0.9830
1928.987618 0.9830 0.9850 0.9850 0.9850 0.9850
1933.721776 0.9850 0.9850 0.9850 0.9850 0.9830
1938.455935 0.9830 0.9830 0.9830 0.9830 0.9830
1943.190094 0.9820 0.9820 0.9800 0.9800 0.9800
1947.924253 0.9800 0.9800 0.9790 0.9770 0.9770
1952.658412 0.9770 0.9760 0.9760 0.9760 0.9760
1957.392571 0.9760 0.9760 0.9760 0.9760 0.9760
1962.126729 0.9740 0.9740 0.9740 0.9740 0.9730
1966.860888 0.9730 0.9730 0.9730 0.9730 0.9730
1971.595047 0.9730 0.9730 0.9710 0.9710 0.9710
1976.329206 0.9710 0.9710 0.9700 0.9700 0.9700
1981.063365 0.9700 0.9700 0.9690 0.9690 0.9690
1985.797524 0.9670 0.9670 0.9670 0.9660 0.9640
1990.531682 0.9640 0.9630 0.9610 0.9580 0.9570
1995.265841 0.9570 0.9550 0.9550 0.9550 0.9520
2000.000000 0.9510 0.9500 0.9490 0.9485 0.9480
2004.734159 0.9480 0.9480 0.9470 0.9460 0.9455
2009.468318 0.9450 0.9450 0.9450 0.9436 0.9421
2014.202476 0.9402 0.9382 0.9312 0.9237 0.9148
2018.936635 0.9058 0.8977 0.8898 0.8836 0.8776
2023.670794 0.8726 0.8676 0.8534 0.8380 0.8269
2028.404953 0.8164 0.8060 0.7956 0.7872 0.7793
2033.139112 0.7780 0.7780 0.7825 0.7880 0.7931
2037.873271 0.7981 0.8225 0.8509 0.8747 0.8976
2042.607429 0.9141 0.9290 0.9411 0.9526 0.9597
2047.341588 0.9657 0.9709 0.9758 0.9781 0.9796
2052.075747 0.9808 0.9817 0.9820 0.9820 0.9824
2056.809906 0.9829 0.9830 0.9830 0.9837 0.9847
2061.544065 0.9854 0.9859 0.9860 0.9860 0.9867
2066.278224 0.9877 0.9890 0.9905 0.9920 0.9935
2071.012382 0.9950 0.9965 0.9980 0.9995 1.0000
2075.746541 1.0000 1.0003 1.0008 1.0010 1.0010
2080.480700 1.0010 1.0010 1.0010 1.0010 1.0010
2085.214859 1.0010 1.0010 1.0010 1.0010 1.0010
2089.949018 1.0007 1.0002 1.0000 1.0000 1.0000
2094.683176 1.0000 0.9994 0.9984 0.9980 0.9980
2099.417335 0.9980 0.9980 0.9980 0.9980 0.9980
2104.151494 0.9980 0.9972 0.9957 0.9947 0.9942
2108.885653 0.9935 0.9925 0.9918 0.9913 0.9905
2113.619812 0.9895 0.9883 0.9868 0.9858 0.9853
2118.353971 0.9831 0.9792 0.9763 0.9748 0.9711
2123.088129 0.9647 0.9604 0.9589 0.9561 0.9516
2127.822288 0.9461 0.9392 0.9346 0.9336 0.9371
2132.556447 0.9477 0.9572 0.9652 0.9720 0.9769
2137.290606 0.9815 0.9855 0.9886 0.9900 0.9912
2142.024765 0.9917 0.9923 0.9933 0.9940 0.9940
2146.758924 0.9940 0.9940 0.9940 0.9940 0.9937
2151.493082 0.9927 0.9918 0.9913 0.9910 0.9910
2156.227241 0.9907 0.9897 0.9889 0.9884 0.9876
2160.961400 0.9861 0.9846 0.9831 0.9816 0.9801
2165.695559 0.9786 0.9771 0.9753 0.9723 0.9675
2170.429718 0.9565 0.9480 0.9480 0.9505 0.9620
2175.163876 0.9713 0.9728 0.9742 0.9752 0.9761
2179.898035 0.9766 0.9770 0.9770 0.9770 0.9770
2184.632194 0.9770 0.9770 0.9771 0.9781 0.9790
2189.366353 0.9790 0.9790 0.9790 0.9791 0.9796
2194.100512 0.9800 0.9800 0.9802 0.9817 0.9832
2198.834671 0.9846 0.9860 0.9860 0.9861 0.9876
2203.568829 0.9891 0.9901 0.9910 0.9910 0.9910
2208.302988 0.9915 0.9920 0.9920 0.9920 0.9930
2213.037147 0.9940 0.9940 0.9940 0.9940 0.9940
2217.771306 0.9940 0.9940 0.9940 0.9940 0.9930
2222.505465 0.9920 0.9920 0.9920 0.9920 0.9920
2227.239624 0.9915 0.9910 0.9910 0.9910 0.9900
2231.973782 0.9890 0.9885 0.9880 0.9871 0.9861
2236.707941 0.9855 0.9850 0.9841 0.9831 0.9825
2241.442100 0.9820 0.9807 0.9792 0.9790 0.9790
2246.176259 0.9781 0.9771 0.9770 0.9770 0.9753
2250.910418 0.9733 0.9730 0.9730 0.9721 0.9712
2255.644576 0.9706 0.9701 0.9700 0.9700 0.9700
2260.378735 0.9700 0.9704 0.9709 0.9710 0.9710
2265.112894 0.9722 0.9737 0.9748 0.9758 0.9764
2269.847053 0.9769 0.9770 0.9770 0.9770 0.9770
2274.581212 0.9766 0.9761 0.9760 0.9760 0.9753
2279.315371 0.9743 0.9740 0.9740 0.9736 0.9731
2284.049529 0.9730 0.9730 0.9730 0.9730 0.9730
2288.783688 0.9730 0.9730 0.9730 0.9730 0.9730
2293.517847 0.9730 0.9730 0.9730 0.9730 0.9733
2298.252006 0.9738 0.9746 0.9756 0.9763 0.9768
2302.986165 0.9770 0.9770 0.9776 0.9786 0.9790
2307.720324 0.9790 0.9784 0.9774 0.9770 0.9770
2312.454482 0.9776 0.9786 0.9790 0.9790 0.9790
2317.188641 0.9790 0.9793 0.9798 0.9805 0.9815
2321.922800 0.9820 0.9820 0.9815 0.9805 0.9800
2326.656959 0.9800 0.9800 0.9800 0.9800 0.9800
2331.391118 0.9800 0.9800 0.9798 0.9793 0.9785
2336.125276 0.9775 0.9770 0.9770 0.9770 0.9770
2340.859435 0.9768 0.9763 0.9755 0.9745 0.9738
2345.593594 0.9733 0.9726 0.9716 0.9710 0.9710
2350.327753 0.9714 0.9724 0.9738 0.9758 0.9770
2355.061912 0.9770 0.9768 0.9763 0.9756 0.9746
2359.796071 0.9738 0.9733 0.9726 0.9716 0.9708
2364.530229 0.9703 0.9700 0.9700 0.9700 0.9700
2369.264388 0.9698 0.9693 0.9690 0.9690 0.9690
2373.998547 0.9690 0.9690 0.9690 0.9691 0.9696
2378.732706 0.9701 0.9706 0.9710 0.9710 0.9713
2383.466865 0.9723 0.9731 0.9736 0.9743 0.9753
2388.201024 0.9760 0.9760 0.9761 0.9766 0.9772
2392.935182 0.9782 0.9790 0.9790 0.9791 0.9796
2397.669341 0.9800 0.9800 0.9800 0.9800 0.9797
2402.403500 0.9782 0.9769 0.9764 0.9758 0.9748
2407.137659 0.9736 0.9711 0.9685 0.9656 0.9626
2411.871818 0.9602 0.9579 0.9574 0.9569 0.9559
2416.605976 0.9550 0.9550 0.9551 0.9561 0.9571
2421.340135 0.9576 0.9581 0.9596 0.9611 0.9621
2426.074294 0.9631 0.9646 0.9661 0.9681 0.9702
2430.808453 0.9737 0.9772 0.9812 0.9850 0.9855
2435.542612 0.9860 0.9870 0.9880 0.9880 0.9880
2440.276771 0.9885 0.9890 0.9890 0.9890 0.9890
2445.010929 0.9890 0.9890 0.9890 0.9890 0.9890
2449.745088 0.9890 0.9890 0.9890 0.9890 0.9890
2454.479247 0.9890 0.9885 0.9880 0.9880 0.9880
2459.213406 0.9880 0.9880 0.9880 0.9880 0.9880
2463.947565 0.9880 0.9880 0.9880 0.9880 0.9880
2468.681724 0.9871 0.9861 0.9860 0.9860 0.9860
2473.415882 0.9860 0.9860 0.9860 0.9860 0.9860
2478.150041 0.9860 0.9860 0.9860 0.9860 0.9860
2482.884200 0.9860 0.9860 0.9860 0.9860 0.9860
2487.618359 0.9860 0.9860 0.9860 0.9860 0.9868
2492.352518 0.9878 0.9880 0.9880 0.9880 0.9880
2497.086676 0.9880 0.9880 0.9884 0.9889 0.9890
2501.820835 0.9890 0.9890 0.9890 0.9890 0.9890
2506.554994 0.9890 0.9890 0.9897 0.9907 0.9910
2511.289153 0.9910 0.9910 0.9910 0.9910 0.9910
2516.023312 0.9910 0.9910 0.9910 0.9910 0.9910
2520.757471 0.9910 0.9910 0.9910 0.9910 0.9910
2525.491629 0.9910 0.9910 0.9910 0.9910 0.9904
2530.225788 0.9894 0.9890 0.9890 0.9896 0.9906
2534.959947 0.9910 0.9910 0.9904 0.9894 0.9890
2539.694106 0.9890 0.9887 0.9882 0.9880 0.9880
2544.428265 0.9880 0.9880 0.9880 0.9880 0.9880
2549.162424 0.9880 0.9880 0.9880 0.9880 0.9880
2553.896582 0.9880 0.9880 0.9880 0.9880 0.9880
2558.630741 0.9880 0.9880 0.9880 0.9880 0.9880
2563.364900 0.9882 0.9887 0.9890 0.9890 0.9888
2568.099059 0.9883 0.9880 0.9880 0.9882 0.9887
2572.833218 0.9890 0.9890 0.9890 0.9890 0.9890
2577.567376 0.9890 0.9890 0.9890 0.9890 0.9890
2582.301535 0.9890 0.9890 0.9890 0.9890 0.9890
2587.035694 0.9890 0.9888 0.9883 0.9880 0.9880
2591.769853 0.9880 0.9880 0.9880 0.9880 0.9880
2596.504012 0.9880 0.9880 0.9880 0.9881 0.9886
2601.238171 0.9890 0.9890 0.9890 0.9890 0.9890
2605.972329 0.9890 0.9889 0.9884 0.9877 0.9867
2610.706488 0.9860 0.9860 0.9859 0.9854 0.9850
2615.440647 0.9850 0.9848 0.9838 0.9829 0.9824
2620.174806 0.9818 0.9808 0.9799 0.9794 0.9790
2624.908965 0.9790 0.9790 0.9790 0.9788 0.9778
2629.643124 0.9770 0.9770 0.9770 0.9770 0.9770
2634.377282 0.9770 0.9770 0.9770 0.9771 0.9781
2639.111441 0.9792 0.9807 0.9821 0.9826 0.9830
2643.845600 0.9830 0.9831 0.9841 0.9850 0.9850
2648.579759 0.9850 0.9850 0.9850 0.9855 0.9860
2653.313918 0.9860 0.9860 0.9860 0.9860 0.9860
2658.048076 0.9860 0.9860 0.9860 0.9860 0.9860
2662.782235 0.9860 0.9860 0.9855 0.9850 0.9850
2667.516394 0.9850 0.9850 0.9850 0.9840 0.9830
2672.250553 0.9830 0.9830 0.9830 0.9830 0.9830
2676.984712 0.9830 0.9816 0.9801 0.9800 0.9800
2681.718871 0.9800 0.9800 0.9800 0.9800 0.9800
2686.453029 0.9800 0.9809 0.9819 0.9825 0.9829
2691.187188 0.9830 0.9830 0.9830 0.9830 0.9830
2695.921347 0.9830 0.9830 0.9830 0.9830 0.9830
2700.655506 0.9830 0.9830 0.9830 0.9830 0.9830
2705.389665 0.9830 0.9830 0.9830 0.9830 0.9830
2710.123824 0.9830 0.9830 0.9830 0.9830 0.9830
2714.857982 0.9830 0.9830 0.9830 0.9830 0.9830
2719.592141 0.9830 0.9830 0.9830 0.9830 0.9830
2724.326300 0.9830 0.9830 0.9830 0.9830 0.9830
2729.060459 0.9830 0.9830 0.9830 0.9830 0.9827
2733.794618 0.9822 0.9820 0.9820 0.9820 0.9820
2738.528776 0.9813 0.9803 0.9800 0.9800 0.9800
2743.262935 0.9800 0.9800 0.9800 0.9800 0.9800
2747.997094 0.9797 0.9792 0.9793 0.9798 0.9800
2752.731253 0.9800 0.9800 0.9800 0.9800 0.9800
2757.465412 0.9800 0.9800 0.9797 0.9792 0.9784
2762.199571 0.9774 0.9767 0.9762 0.9760 0.9760
2766.933729 0.9741 0.9706 0.9682 0.9667 0.9647
2771.667888 0.9622 0.9592 0.9557 0.9535 0.9525
2776.402047 0.9525 0.9535 0.9547 0.9562 0.9580
2781.136206 0.9600 0.9642 0.9706 0.9745 0.9755
2785.870365 0.9762 0.9767 0.9775 0.9785 0.9790
2790.604524 0.9790 0.9790 0.9790 0.9790 0.9790
2795.338682 0.9790 0.9790 0.9786 0.9776 0.9770
2800.072841 0.9770 0.9768 0.9763 0.9760 0.9760
2804.807000 0.9760 0.9760 0.9760 0.9760 0.9756
2809.541159 0.9746 0.9740 0.9740 0.9740 0.9740
2814.275318 0.9740 0.9740 0.9738 0.9733 0.9730
2819.009476 0.9730 0.9730 0.9730 0.9730 0.9730
2823.743635 0.9730 0.9730 0.9727 0.9717 0.9710
2828.477794 0.9710 0.9710 0.9710 0.9709 0.9704
2833.211953 0.9700 0.9700 0.9700 0.9700 0.9700
2837.946112 0.9700 0.9699 0.9694 0.9690 0.9690
2842.680271 0.9690 0.9690 0.9688 0.9678 0.9670
2847.414429 0.9670 0.9669 0.9664 0.9658 0.9648
2852.148588 0.9638 0.9623 0.9609 0.9604 0.9600
2856.882747 0.9600 0.9598 0.9583 0.9569 0.9559
2861.616906 0.9548 0.9533 0.9518 0.9503 0.9490
2866.351065 0.9490 0.9490 0.9485 0.9479 0.9469
2871.085224 0.9457 0.9423 0.9389 0.9369 0.9350
2875.819382 0.9350 0.9344 0.9255 0.9167 0.9107
2880.553541 0.9047 0.8988 0.8930 0.8915 0.8898
2885.287700 0.8798 0.8699 0.8574 0.8450 0.8380
2890.021859 0.8311 0.8241 0.8172 0.8032 0.7891
2894.756018 0.7890 0.7890 0.8060 0.8234 0.8654
2899.490176 0.9082 0.9181 0.9266 0.9270 0.9270
2904.224335 0.9284 0.9299 0.9309 0.9319 0.9320
2908.958494 0.9320 0.9325 0.9329 0.9330 0.9330
2913.692653 0.9330 0.9330 0.9330 0.9330 0.9330
2918.426812 0.9330 0.9330 0.9330 0.9326 0.9321
2923.160971 0.9320 0.9320 0.9312 0.9302 0.9296
2927.895129 0.9291 0.9282 0.9272 0.9258 0.9243
2932.629288 0.9228 0.9213 0.9198 0.9183 0.9180
2937.363447 0.9180 0.9157 0.9127 0.9066 0.8996
2942.097606 0.8957 0.8927 0.8912 0.8903 0.8889
2946.831765 0.8874 0.8812 0.8732 0.8637 0.8537
2951.565924 0.8401 0.8251 0.8196 0.8176 0.8152
2956.300082 0.8127 0.7914 0.7621 0.7297 0.6958
2961.034241 0.6735 0.6566 0.6394 0.6220 0.6045
2965.768400 0.5871 0.5691 0.5507 0.5302 0.5086
2970.502559 0.4868 0.4649 0.4890 0.5392 0.5652
2975.236718 0.5766 0.6043 0.6421 0.6687 0.6881
2979.970876 0.7359 0.8031 0.8371 0.8475 0.8531
2984.705035 0.8551 0.8624 0.8739 0.8854 0.8969
2989.439194 0.9048 0.9098 0.9142 0.9182 0.9203
2994.173353 0.9208 0.9215 0.9225 0.9233 0.9238
2998.907512 0.9245 0.9255 0.9267 0.9282 0.9292
3003.641671 0.9297 0.9300 0.9300 0.9305 0.9315
3008.375829 0.9320 0.9320 0.9315 0.9305 0.9293
3013.109988 0.9278 0.9268 0.9263 0.9256 0.9246
3017.844147 0.9238 0.9233 0.9220 0.9195 0.9174
3022.578306 0.9159 0.9144 0.9129 0.9118 0.9113
3027.312465 0.9102 0.9082 0.9053 0.9008 0.8974
3032.046624 0.8960 0.8946 0.8936 0.8933 0.8943
3036.780782 0.8965 0.9010 0.9053 0.9093 0.9153
3041.514941 0.9258 0.9348 0.9408 0.9450 0.9450
3046.249100 0.9456 0.9476 0.9494 0.9509 0.9523
3050.983259 0.9533 0.9540 0.9540 0.9541 0.9546
3055.717418 0.9550 0.9550 0.9552 0.9562 0.9570
3060.451576 0.9570 0.9571 0.9576 0.9580 0.9580
3065.185735 0.9580 0.9580 0.9580 0.9580 0.9580
3069.919894 0.9580 0.9580 0.9580 0.9580 0.9580
3074.654053 0.9580 0.9580 0.9580 0.9580 0.9580
3079.388212 0.9580 0.9580 0.9580 0.9580 0.9580
3084.122371 0.9580 0.9580 0.9580 0.9580 0.9579
3088.856529 0.9574 0.9570 0.9570 0.9570 0.9570
3093.590688 0.9570 0.9570 0.9570 0.9570 0.9570
3098.324847 0.9570 0.9570 0.9560 0.9550 0.9550
3103.059006 0.9550 0.9550 0.9550 0.9550 0.9550
3107.793165 0.9550 0.9550 0.9550 0.9550 0.9550
3112.527324 0.9550 0.9550 0.9550 0.9550 0.9550
3117.261482 0.9550 0.9550 0.9545 0.9540 0.9540
3121.995641 0.9540 0.9545 0.9550 0.9550 0.9550
3126.729800 0.9550 0.9550 0.9550 0.9550 0.9550
3131.463959 0.9550 0.9550 0.9550 0.9550 0.9550
3136.198118 0.9550 0.9550 0.9550 0.9550 0.9550
3140.932276 0.9550 0.9550 0.9550 0.9550 0.9550
3145.666435 0.9550 0.9550 0.9558 0.9568 0.9570
3150.400594 0.9570 0.9570 0.9570 0.9570 0.9570
3155.134753 0.9570 0.9570 0.9570 0.9570 0.9574
3159.868912 0.9579 0.9580 0.9580 0.9588 0.9598
3164.603071 0.9600 0.9600 0.9600 0.9600 0.9600
3169.337229 0.9600 0.9604 0.9609 0.9617 0.9627
3174.071388 0.9630 0.9630 0.9630 0.9630 0.9630
3178.805547 0.9630 0.9630 0.9630 0.9633 0.9638
3183.539706 0.9640 0.9640 0.9640 0.9640 0.9640
3188.273865 0.9640 0.9640 0.9640 0.9640 0.9640
3193.008024 0.9640 0.9640 0.9640 0.9640 0.9640
3197.742182 0.9640 0.9640 0.9640 0.9640 0.9640
3202.476341 0.9640 0.9640 0.9640 0.9640 0.9646
3207.210500 0.9656 0.9660 0.9660 0.9668 0.9683
3211.944659 0.9690 0.9690 0.9690 0.9690 0.9693
3216.678818 0.9698 0.9700 0.9700 0.9700 0.9700
3221.412976 0.9700 0.9700 0.9700 0.9700 0.9702
3226.147135 0.9707 0.9710 0.9710 0.9710 0.9710
3230.881294 0.9710 0.9710 0.9715 0.9724 0.9730
3235.615453 0.9730 0.9730 0.9730 0.9730 0.9730
3240.349612 0.9730 0.9730 0.9730 0.9730 0.9732
3245.083771 0.9737 0.9740 0.9740 0.9740 0.9740
3249.817929 0.9740 0.9740 0.9740 0.9740 0.9740
3254.552088 0.9740 0.9740 0.9740 0.9740 0.9740
3259.286247 0.9740 0.9740 0.9740 0.9740 0.9740
3264.020406 0.9740 0.9740 0.9740 0.9743 0.9753
3268.754565 0.9760 0.9760 0.9760 0.9760 0.9760
3273.488724 0.9760 0.9760 0.9760 0.9761 0.9766
3278.222882 0.9770 0.9770 0.9770 0.9770 0.9770
3282.957041 0.9770 0.9770 0.9770 0.9772 0.9782
3287.691200 0.9790 0.9790 0.9790 0.9790 0.9790
3292.425359 0.9790 0.9791 0.9796 0.9800 0.9800
3297.159518 0.9800 0.9800 0.9800 0.9800 0.9802
3301.893676 0.9811 0.9820 0.9820 0.9820 0.9820
3306.627835 0.9820 0.9820 0.9820 0.9820 0.9820
3311.361994 0.9820 0.9821 0.9826 0.9830 0.9830
3316.096153 0.9830 0.9830 0.9831 0.9841 0.9850
3320.830312 0.9850 0.9850 0.9850 0.9850 0.9850
3325.564471 0.9850 0.9850 0.9850 0.9850 0.9850
3330.298629 0.9850 0.9850 0.9850 0.9850 0.9850
3335.032788 0.9850 0.9850 0.9850 0.9850 0.9850
3339.766947 0.9850 0.9850 0.9850 0.9850 0.9840
3344.501106 0.9830 0.9830 0.9830 0.9830 0.9830
3349.235265 0.9830 0.9830 0.9839 0.9849 0.9850
3353.969424 0.9850 0.9850 0.9850 0.9850 0.9850
3358.703582 0.9850 0.9850 0.9854 0.9859 0.9860
3363.437741 0.9860 0.9860 0.9860 0.9860 0.9860
3368.171900 0.9869 0.9879 0.9880 0.9880 0.9880
3372.906059 0.9880 0.9880 0.9880 0.9880 0.9880
3377.640218 0.9872 0.9862 0.9860 0.9860 0.9860
3382.374376 0.9860 0.9860 0.9860 0.9860 0.9860
3387.108535 0.9868 0.9878 0.9872 0.9862 0.9860
3391.842694 0.9860 0.9860 0.9860 0.9860 0.9860
3396.576853 0.9860 0.9860 0.9860 0.9860 0.9860
3401.311012 0.9860 0.9860 0.9860 0.9867 0.9877
3406.045171 0.9873 0.9863 0.9860 0.9860 0.9860
3410.779329 0.9860 0.9860 0.9860 0.9860 0.9860
3415.513488 0.9860 0.9860 0.9860 0.9860 0.9860
3420.247647 0.9860 0.9857 0.9852 0.9853 0.9858
3424.981806 0.9860 0.9860 0.9860 0.9860 0.9860
3429.715965 0.9860 0.9860 0.9860 0.9860 0.9860
3434.450124 0.9860 0.9860 0.9865 0.9875 0.9880
3439.184282 0.9880 0.9880 0.9880 0.9880 0.9880
3443.918441 0.9880 0.9880 0.9880 0.9880 0.9880
3448.652600 0.9880 0.9880 0.9880 0.9880 0.9880
3453.386759 0.9880 0.9880 0.9880 0.9880 0.9880
3458.120918 0.9880 0.9880 0.9880 0.9880 0.9880
3462.855076 0.9880 0.9880 0.9880 0.9880 0.9880
3467.589235 0.9880 0.9880 0.9880 0.9880 0.9880
3472.323394 0.9880 0.9880 0.9880 0.9880 0.9880
3477.057553 0.9880 0.9880 0.9880 0.9880 0.9880
3481.791712 0.9877 0.9867 0.9860 0.9860 0.9860
3486.525871 0.9860 0.9860 0.9860 0.9863 0.9873
3491.260029 0.9880 0.9880 0.9880 0.9880 0.9880
3495.994188 0.9880 0.9880 0.9880 0.9880 0.9880
3500.728347 0.9880 0.9880 0.9881 0.9886 0.9889
3505.462506 0.9884 0.9880 0.9880 0.9880 0.9880
3510.196665 0.9880 0.9880 0.9881 0.9886 0.9890
3514.930824 0.9890 0.9890 0.9890 0.9890 0.9890
3519.664982 0.9890 0.9890 0.9890 0.9890 0.9890
3524.399141 0.9890 0.9890 0.9890 0.9890 0.9890
3529.133300 0.9890 0.9890 0.9889 0.9884 0.9880
3533.867459 0.9880 0.9880 0.9880 0.9880 0.9880
3538.601618 0.9880 0.9880 0.9880 0.9880 0.9880
3543.335776 0.9880 0.9880 0.9880 0.9880 0.9880
3548.069935 0.9880 0.9880 0.9880 0.9885 0.9890
3552.804094 0.9890 0.9890 0.9885 0.9880 0.9880
3557.538253 0.9880 0.9880 0.9880 0.9870 0.9860
3562.272412 0.9860 0.9860 0.9870 0.9880 0.9880
3567.006571 0.9880 0.9880 0.9880 0.9871 0.9861
3571.740729 0.9860 0.9860 0.9869 0.9879 0.9880
3576.474888 0.9880 0.9880 0.9880 0.9880 0.9880
3581.209047 0.9880 0.9880 0.9884 0.9889 0.9890
3585.943206 0.9890 0.9890 0.9890 0.9890 0.9890
3590.677365 0.9890 0.9890 0.9890 0.9890 0.9890
3595.411524 0.9890 0.9890 0.9890 0.9890 0.9890
3600.145682 0.9890 0.9890 0.9898 0.9908 0.9910
3604.879841 0.9910 0.9910 0.9910 0.9910 0.9910
3609.614000 0.9910 0.9910 0.9902 0.9893 0.9890
3614.348159 0.9890 0.9890 0.9890 0.9890 0.9890
3619.082318 0.9890 0.9890 0.9890 0.9890 0.9890
3623.816476 0.9890 0.9890 0.9890 0.9890 0.9890
3628.550635 0.9890 0.9890 0.9890 0.9890 0.9887
3633.284794 0.9882 0.9880 0.9880 0.9880 0.9880
3638.018953 0.9883 0.9888 0.9890 0.9890 0.9887
3642.753112 0.9882 0.9880 0.9880 0.9880 0.9880
3647.487271 0.9880 0.9880 0.9880 0.9880 0.9874
3652.221429 0.9864 0.9860 0.9860 0.9860 0.9860
3656.955588 0.9860 0.9860 0.9860 0.9860 0.9860
3661.689747 0.9860 0.9860 0.9860 0.9860 0.9860
3666.423906 0.9860 0.9860 0.9860 0.9860 0.9860
3671.158065 0.9860 0.9860 0.9860 0.9860 0.9860
3675.892224 0.9865 0.9875 0.9880 0.9880 0.9880
3680.626382 0.9880 0.9882 0.9887 0.9890 0.9890
3685.360541 0.9890 0.9890 0.9890 0.9890 0.9890
3690.094700 0.9890 0.9894 0.9904 0.9910 0.9910
3694.828859 0.9910 0.9910 0.9910 0.9910 0.9910
3699.563018 0.9910 0.9910 0.9910 0.9910 0.9910
3704.297176 0.9907 0.9897 0.9890 0.9890 0.9890
3709.031335 0.9890 0.9890 0.9890 0.9890 0.9890
3713.765494 0.9890 0.9890 0.9890 0.9890 0.9890
3718.499653 0.9890 0.9890 0.9890 0.9889 0.9884
3723.233812 0.9880 0.9880 0.9880 0.9880 0.9880
3727.967971 0.9880 0.9880 0.9880 0.9880 0.9880
3732.702129 0.9880 0.9880 0.9878 0.9868 0.9860
3737.436288 0.9860 0.9860 0.9860 0.9860 0.9860
3742.170447 0.9860 0.9860 0.9860 0.9860 0.9860
3746.904606 0.9860 0.9860 0.9860 0.9861 0.9871
3751.638765 0.9880 0.9880 0.9880 0.9880 0.9880
3756.372924 0.9880 0.9880 0.9880 0.9880 0.9880
3761.107082 0.9880 0.9880 0.9880 0.9885 0.9890
3765.841241 0.9890 0.9890 0.9890 0.9890 0.9890
3770.575400 0.9891 0.9900 0.9910 0.9910 0.9910
3775.309559 0.9910 0.9910 0.9910 0.9910 0.9910
3780.043718 0.9910 0.9910 0.9910 0.9910 0.9910
3784.777876 0.9910 0.9910 0.9910 0.9910
##END=
