##TITLE=Hexylamine, 1,5-dimethyl-
##JCAMP-DX=4.24
##DATA TYPE=INFRARED SPECTRUM
##CLASS=COBLENTZ III
##ORIGIN=DOW CHEMICAL COMPANY
##OWNER=Copyright (C) 1987 by the Coblentz Society
Collection (C) 2018 copyright by the U.S. Secretary of Commerce
on behalf of the United States of America. All rights reserved.
##DATE=1965/08/19
##NAMES=6-methyl-2-heptanamine
1,5-dimethylhexylamine
##CAS REGISTRY NO=543-82-8
##MOLFORM=C8 H19 N
##SOURCE REFERENCE=COBLENTZ NO. 8169
##$NIST SOURCE=COBLENTZ
##$NIST IMAGE=cob8169
##SPECTROMETER/DATA SYSTEM=DOW KBr FOREPRISM-GRATING
##INSTRUMENT PARAMETERS=BLAZED AT 3.5, 12.0, 20.0 MICRON AND CHANGED AT 5.0, 7.5, 14.9 MICRON
##STATE=SOLUTION (10% CCl4 FOR 3800-450 CM^-^1)
##PATH LENGTH=0.011 CM
$$ REACTS SLIGHTLY WITH CS2
$$SPECTRAL CONTAMINATION DUE TO CCl4 AROUND 1550, 1200-1280, 950-1050,700-850, AND AN UNKNOWN AROUND 3670 CM^-^1
##SAMPLING PROCEDURE=TRANSMISSION
##RESOLUTION=2
##DATA PROCESSING=DIGITIZED BY COBLENTZ SOCIETY (BATCH II) FROM HARD COPY
##XUNITS=1/CM
##YUNITS=TRANSMITTANCE
##XFACTOR=1.0
##YFACTOR=1
##FIRSTX=458
##LASTX=3804
##FIRSTY=0.5624
##MAXX=3804
##MINX=458
##MAXY=0.9076
##MINY=0.003
##NPOINTS=3347
##XYDATA=(X++(Y..Y))
458.000000 0.5624 0.5627 0.5629 0.5631 0.5633
463.000000 0.5634 0.5635 0.5636 0.5637 0.5638
468.000000 0.5639 0.5640 0.5641 0.5643 0.5644
473.000000 0.5646 0.5647 0.5649 0.5651 0.5652
478.000000 0.5660 0.5671 0.5682 0.5695 0.5715
483.000000 0.5734 0.5754 0.5781 0.5811 0.5840
488.000000 0.5870 0.5914 0.5960 0.6006 0.6052
493.000000 0.6098 0.6147 0.6202 0.6257 0.6312
498.000000 0.6366 0.6420 0.6470 0.6520 0.6569
503.000000 0.6585 0.6598 0.6593 0.6588 0.6582
508.000000 0.6575 0.6565 0.6556 0.6546 0.6535
513.000000 0.6524 0.6513 0.6502 0.6491 0.6480
518.000000 0.6469 0.6459 0.6448 0.6438 0.6427
523.000000 0.6426 0.6430 0.6435 0.6439 0.6444
528.000000 0.6450 0.6457 0.6464 0.6471 0.6479
533.000000 0.6488 0.6497 0.6511 0.6529 0.6548
538.000000 0.6566 0.6585 0.6604 0.6628 0.6657
543.000000 0.6686 0.6715 0.6745 0.6775 0.6804
548.000000 0.6825 0.6840 0.6855 0.6870 0.6884
553.000000 0.6896 0.6899 0.6902 0.6905 0.6909
558.000000 0.6911 0.6913 0.6915 0.6916 0.6918
563.000000 0.6916 0.6914 0.6911 0.6909 0.6908
568.000000 0.6906 0.6904 0.6902 0.6901 0.6906
573.000000 0.6911 0.6916 0.6921 0.6926 0.6935
578.000000 0.6947 0.6958 0.6969 0.6981 0.6992
583.000000 0.7004 0.7023 0.7042 0.7056 0.7036
588.000000 0.7015 0.6995 0.6976 0.6957 0.6944
593.000000 0.6934 0.6923 0.6921 0.6926 0.6935
598.000000 0.6953 0.6970 0.6997 0.7024 0.7046
603.000000 0.7058 0.7070 0.7081 0.7082 0.7080
608.000000 0.7078 0.7065 0.7035 0.6995 0.6954
613.000000 0.6907 0.6865 0.6840 0.6815 0.6790
618.000000 0.6766 0.6741 0.6719 0.6702 0.6684
623.000000 0.6667 0.6649 0.6632 0.6614 0.6605
628.000000 0.6599 0.6594 0.6613 0.6656 0.6702
633.000000 0.6583 0.6898 0.7100 0.7190 0.7217
638.000000 0.7220 0.7223 0.7226 0.7230 0.7233
643.000000 0.7231 0.7230 0.7228 0.7226 0.7226
648.000000 0.7233 0.7228 0.7229 0.7229 0.7230
653.000000 0.7226 0.7221 0.7210 0.7199 0.7189
658.000000 0.7176 0.7147 0.7118 0.7070 0.7056
663.000000 0.7042 0.7040 0.7039 0.7038 0.7005
668.000000 0.6927 0.6970 0.7013 0.7056 0.7099
673.000000 0.7142 0.7185 0.7228 0.7271 0.7306
678.000000 0.7295 0.7280 0.7263 0.7243 0.7220
683.000000 0.7194 0.7169 0.7143 0.7116 0.7085
688.000000 0.7054 0.7022 0.6985 0.6948 0.6911
693.000000 0.6868 0.6814 0.6760 0.6695 0.6623
698.000000 0.6550 0.6470 0.6391 0.6321 0.6250
703.000000 0.6180 0.6117 0.6054 0.5991 0.5926
708.000000 0.5847 0.5769 0.5700 0.5647 0.5595
713.000000 0.5505 0.5033 0.4826 0.4399 0.4081
718.000000 0.3967 0.3494 0.3181 0.3006 0.2828
723.000000 0.2547 0.2254 0.1949 0.1672 0.1353
728.000000 0.1104 0.0953 0.0812 0.0679 0.0329
733.000000 0.0168 0.0111 0.0080 0.0080 0.0080
738.000000 0.0080 0.0080 0.0080 0.0080 0.0080
743.000000 0.0080 0.0080 0.0080 0.0080 0.0080
748.000000 0.0080 0.0080 0.0080 0.0080 0.0080
753.000000 0.0080 0.0080 0.0080 0.0080 0.0080
758.000000 0.0080 0.0080 0.0080 0.0080 0.0080
763.000000 0.0080 0.0080 0.0080 0.0080 0.0080
768.000000 0.0080 0.0080 0.0080 0.0080 0.0080
773.000000 0.0080 0.0080 0.0080 0.0080 0.0080
778.000000 0.0080 0.0080 0.0080 0.0080 0.0080
783.000000 0.0080 0.0080 0.0080 0.0080 0.0080
788.000000 0.0080 0.0080 0.0080 0.0080 0.0080
793.000000 0.0080 0.0080 0.0080 0.0080 0.0080
798.000000 0.0080 0.0080 0.0080 0.0080 0.0080
803.000000 0.0080 0.0080 0.0080 0.0080 0.0080
808.000000 0.0080 0.0095 0.0118 0.0160 0.0195
813.000000 0.0230 0.0277 0.0366 0.0469 0.0563
818.000000 0.0623 0.0683 0.0743 0.0831 0.0947
823.000000 0.1109 0.1250 0.1400 0.1629 0.1765
828.000000 0.1886 0.1977 0.2067 0.2147 0.2218
833.000000 0.2279 0.2337 0.2384 0.2431 0.2477
838.000000 0.2524 0.2570 0.2635 0.2685 0.2783
843.000000 0.2902 0.3033 0.3162 0.3286 0.3386
848.000000 0.3474 0.3562 0.3640 0.3717 0.3793
853.000000 0.3859 0.3926 0.3963 0.3998 0.4034
858.000000 0.4066 0.4088 0.4110 0.4130 0.4149
863.000000 0.4168 0.4186 0.4211 0.4240 0.4272
868.000000 0.4305 0.4345 0.4387 0.4472 0.4569
873.000000 0.4737 0.4833 0.4916 0.4999 0.5088
878.000000 0.5196 0.5303 0.5438 0.5543 0.5608
883.000000 0.5674 0.5740 0.5795 0.5848 0.5902
888.000000 0.5955 0.6014 0.6080 0.6145 0.6207
893.000000 0.6262 0.6316 0.6371 0.6415 0.6446
898.000000 0.6476 0.6507 0.6538 0.6568 0.6599
903.000000 0.6625 0.6649 0.6672 0.6696 0.6719
908.000000 0.6740 0.6756 0.6769 0.6765 0.6755
913.000000 0.6732 0.6708 0.6683 0.6681 0.6685
918.000000 0.6689 0.6697 0.6736 0.6784 0.6853
923.000000 0.7007 0.7091 0.7157 0.7178 0.7191
928.000000 0.7194 0.7198 0.7201 0.7201 0.7202
933.000000 0.7203 0.7204 0.7208 0.7212 0.7217
938.000000 0.7233 0.7249 0.7265 0.7282 0.7308
943.000000 0.7334 0.7360 0.7366 0.7370 0.7365
948.000000 0.7357 0.7346 0.7329 0.7309 0.7288
953.000000 0.7267 0.7243 0.7215 0.7180 0.7144
958.000000 0.7081 0.7010 0.6935 0.6830 0.6724
963.000000 0.6610 0.6496 0.6391 0.6294 0.6197
968.000000 0.6123 0.6049 0.5976 0.5903 0.5836
973.000000 0.5798 0.5786 0.5782 0.5786 0.5791
978.000000 0.5798 0.5824 0.5878 0.5972 0.6145
983.000000 0.6211 0.6273 0.6314 0.6345 0.6355
988.000000 0.6361 0.6363 0.6356 0.6345 0.6321
993.000000 0.6293 0.6264 0.6208 0.6144 0.6064
998.000000 0.5990 0.5928 0.5898 0.5869 0.5868
1003.000000 0.5866 0.5868 0.5872 0.5886 0.5911
1008.000000 0.5947 0.6000 0.6079 0.6186 0.6319
1013.000000 0.6408 0.6486 0.6565 0.6670 0.6877
1018.000000 0.7044 0.7176 0.7254 0.7332 0.7405
1023.000000 0.7459 0.7500 0.7535 0.7569 0.7602
1028.000000 0.7635 0.7660 0.7674 0.7700 0.7692
1033.000000 0.7695 0.7692 0.7684 0.7672 0.7657
1038.000000 0.7633 0.7609 0.7586 0.7563 0.7540
1043.000000 0.7516 0.7490 0.7463 0.7437 0.7408
1048.000000 0.7378 0.7348 0.7319 0.7290 0.7270
1053.000000 0.7250 0.7231 0.7211 0.7193 0.7174
1058.000000 0.7156 0.7145 0.7135 0.7124 0.7114
1063.000000 0.7112 0.7121 0.7113 0.7115 0.7117
1068.000000 0.7119 0.7122 0.7128 0.7135 0.7142
1073.000000 0.7149 0.7157 0.7172 0.7188 0.7201
1078.000000 0.7203 0.7204 0.7239 0.7189 0.7175
1083.000000 0.7161 0.7143 0.7126 0.7109 0.7092
1088.000000 0.7075 0.7061 0.7047 0.7033 0.7020
1093.000000 0.7006 0.6994 0.6984 0.6973 0.6963
1098.000000 0.6952 0.6942 0.6932 0.6921 0.6911
1103.000000 0.6904 0.6900 0.6896 0.6892 0.6888
1108.000000 0.6899 0.6953 0.6988 0.7035 0.7083
1113.000000 0.7124 0.7157 0.7159 0.7187 0.7151
1118.000000 0.7117 0.7075 0.7036 0.6985 0.6914
1123.000000 0.6839 0.6751 0.6659 0.6574 0.6493
1128.000000 0.6412 0.6338 0.6270 0.6227 0.6207
1133.000000 0.6192 0.6178 0.6179 0.6180 0.6181
1138.000000 0.6182 0.6173 0.6142 0.6111 0.6062
1143.000000 0.6002 0.5936 0.5861 0.5772 0.5683
1148.000000 0.5567 0.5497 0.5438 0.5499 0.5517
1153.000000 0.5638 0.5830 0.5949 0.6040 0.6099
1158.000000 0.6158 0.6199 0.6213 0.6206 0.6184
1163.000000 0.6146 0.6111 0.6100 0.6103 0.6112
1168.000000 0.6161 0.6280 0.6649 0.7117 0.7261
1173.000000 0.7318 0.7350 0.7378 0.7406 0.7426
1178.000000 0.7433 0.7439 0.7462 0.7415 0.7395
1183.000000 0.7363 0.7325 0.7287 0.7252 0.7217
1188.000000 0.7183 0.7148 0.7113 0.7078 0.7043
1193.000000 0.7010 0.6977 0.6944 0.6912 0.6879
1198.000000 0.6846 0.6814 0.6781 0.6749 0.6706
1203.000000 0.6660 0.6615 0.6570 0.6524 0.6479
1208.000000 0.6433 0.6386 0.6316 0.6246 0.6235
1213.000000 0.6244 0.6273 0.6301 0.6328 0.6355
1218.000000 0.6382 0.6408 0.6435 0.6461 0.6481
1223.000000 0.6501 0.6521 0.6541 0.6561 0.6564
1228.000000 0.6560 0.6552 0.6535 0.6518 0.6501
1233.000000 0.6473 0.6443 0.6412 0.6378 0.6335
1238.000000 0.6291 0.6248 0.6205 0.6161 0.6107
1243.000000 0.6053 0.6008 0.5976 0.5970 0.5970
1248.000000 0.5970 0.5985 0.6004 0.6026 0.6070
1253.000000 0.6114 0.6160 0.6207 0.6299 0.6442
1258.000000 0.6543 0.6675 0.6812 0.6949 0.7085
1263.000000 0.7180 0.7243 0.7288 0.7334 0.7375
1268.000000 0.7397 0.7419 0.7441 0.7463 0.7479
1273.000000 0.7494 0.7509 0.7524 0.7539 0.7554
1278.000000 0.7569 0.7584 0.7607 0.7630 0.7653
1283.000000 0.7680 0.7711 0.7742 0.7756 0.7760
1288.000000 0.7750 0.7760 0.7755 0.7749 0.7743
1293.000000 0.7736 0.7728 0.7721 0.7705 0.7689
1298.000000 0.7673 0.7657 0.7641 0.7625 0.7614
1303.000000 0.7606 0.7597 0.7592 0.7594 0.7596
1308.000000 0.7598 0.7600 0.7603 0.7588 0.7572
1313.000000 0.7552 0.7516 0.7479 0.7418 0.7356
1318.000000 0.7295 0.7202 0.7108 0.7030 0.6976
1323.000000 0.6922 0.6875 0.6838 0.6801 0.6779
1328.000000 0.6786 0.6797 0.6746 0.6674 0.6595
1333.000000 0.6513 0.6422 0.6335 0.6255 0.6174
1338.000000 0.6115 0.6061 0.6007 0.5954 0.5902
1343.000000 0.5852 0.5803 0.5802 0.5793 0.5800
1348.000000 0.5820 0.5857 0.5913 0.5993 0.5996
1353.000000 0.5997 0.5998 0.6000 0.6001 0.6016
1358.000000 0.5909 0.5827 0.5377 0.4821 0.4265
1363.000000 0.3709 0.3153 0.2597 0.2474 0.2473
1368.000000 0.2755 0.3209 0.3663 0.3728 0.3728
1373.000000 0.3730 0.3750 0.3735 0.3749 0.3766
1378.000000 0.3715 0.3541 0.3368 0.3194 0.3021
1383.000000 0.2847 0.2674 0.2573 0.2589 0.4089
1388.000000 0.5825 0.6051 0.6197 0.6322 0.6498
1393.000000 0.6716 0.6891 0.7091 0.7268 0.7374
1398.000000 0.7464 0.7529 0.7595 0.7639 0.7665
1403.000000 0.7691 0.7711 0.7722 0.7733 0.7744
1408.000000 0.7714 0.7749 0.7750 0.7751 0.7749
1413.000000 0.7740 0.7730 0.7716 0.7702 0.7675
1418.000000 0.7647 0.7620 0.7591 0.7563 0.7532
1423.000000 0.7498 0.7460 0.7409 0.7351 0.7271
1428.000000 0.7190 0.7111 0.7031 0.6938 0.6789
1433.000000 0.6622 0.6366 0.6259 0.6151 0.6045
1438.000000 0.5939 0.5833 0.5733 0.5634 0.5534
1443.000000 0.5429 0.5299 0.5103 0.4791 0.3553
1448.000000 0.3395 0.3226 0.3038 0.2838 0.2636
1453.000000 0.2519 0.2437 0.2355 0.2273 0.2191
1458.000000 0.2095 0.1992 0.1912 0.1867 0.1822
1463.000000 0.1818 0.1822 0.1847 0.1835 0.1896
1468.000000 0.2368 0.2839 0.3310 0.3782 0.4253
1473.000000 0.4725 0.5196 0.5668 0.6035 0.6302
1478.000000 0.6549 0.6599 0.6649 0.6699 0.6730
1483.000000 0.6752 0.6775 0.6792 0.6804 0.6804
1488.000000 0.6846 0.6785 0.6763 0.6738 0.6701
1493.000000 0.6664 0.6626 0.6586 0.6545 0.6503
1498.000000 0.6462 0.6420 0.6379 0.6337 0.6296
1503.000000 0.6255 0.6213 0.6168 0.6114 0.6060
1508.000000 0.6006 0.5931 0.5855 0.5780 0.5720
1513.000000 0.5691 0.5661 0.5632 0.5603 0.5574
1518.000000 0.5545 0.5509 0.5474 0.5438 0.5398
1523.000000 0.5346 0.5293 0.5241 0.5189 0.5123
1528.000000 0.5055 0.4987 0.4920 0.4857 0.4795
1533.000000 0.4732 0.4661 0.4583 0.4506 0.4394
1538.000000 0.4245 0.4086 0.3928 0.3887 0.3838
1543.000000 0.3784 0.3742 0.3700 0.3673 0.3648
1548.000000 0.3638 0.3628 0.3630 0.3639 0.3659
1553.000000 0.3688 0.3720 0.3765 0.3824 0.3901
1558.000000 0.3967 0.4033 0.4093 0.4147 0.4200
1563.000000 0.4250 0.4296 0.4341 0.4387 0.4432
1568.000000 0.4482 0.4533 0.4573 0.4570 0.4611
1573.000000 0.4564 0.4560 0.4556 0.4551 0.4545
1578.000000 0.4540 0.4538 0.4540 0.4542 0.4541
1583.000000 0.4564 0.4584 0.4610 0.4644 0.4678
1588.000000 0.4720 0.4765 0.4809 0.4853 0.4896
1593.000000 0.4938 0.4980 0.5022 0.5065 0.5121
1598.000000 0.5176 0.5232 0.5279 0.5317 0.5460
1603.000000 0.5377 0.5387 0.5395 0.5397 0.5400
1608.000000 0.5402 0.5405 0.5405 0.5404 0.5403
1613.000000 0.5402 0.5402 0.5403 0.5404 0.5380
1618.000000 0.5405 0.5406 0.5408 0.5416 0.5425
1623.000000 0.5434 0.5473 0.5524 0.5572 0.5620
1628.000000 0.5670 0.5719 0.5768 0.5818 0.5867
1633.000000 0.5916 0.5964 0.6013 0.6062 0.6110
1638.000000 0.6159 0.6207 0.6256 0.6304 0.6352
1643.000000 0.6396 0.6436 0.6476 0.6516 0.6556
1648.000000 0.6596 0.6639 0.6668 0.6686 0.6701
1653.000000 0.6706 0.6712 0.6717 0.6729 0.6743
1658.000000 0.6789 0.6853 0.6928 0.6985 0.7042
1663.000000 0.7100 0.7157 0.7207 0.7238 0.7269
1668.000000 0.7300 0.7330 0.7361 0.7394 0.7434
1673.000000 0.7473 0.7504 0.7534 0.7564 0.7593
1678.000000 0.7623 0.7654 0.7689 0.7723 0.7757
1683.000000 0.7791 0.7826 0.7860 0.7895 0.7929
1688.000000 0.7964 0.7999 0.8033 0.8066 0.8099
1693.000000 0.8132 0.8164 0.8197 0.8230 0.8261
1698.000000 0.8287 0.8313 0.8339 0.8366 0.8389
1703.000000 0.8401 0.8413 0.8425 0.8437 0.8449
1708.000000 0.8461 0.8473 0.8481 0.8489 0.8497
1713.000000 0.8505 0.8513 0.8521 0.8529 0.8536
1718.000000 0.8542 0.8549 0.8556 0.8563 0.8570
1723.000000 0.8577 0.8584 0.8596 0.8608 0.8620
1728.000000 0.8632 0.8644 0.8653 0.8662 0.8672
1733.000000 0.8681 0.8691 0.8700 0.8709 0.8719
1738.000000 0.8726 0.8734 0.8741 0.8748 0.8756
1743.000000 0.8763 0.8770 0.8777 0.8785 0.8792
1748.000000 0.8799 0.8807 0.8814 0.8821 0.8829
1753.000000 0.8836 0.8841 0.8846 0.8850 0.8855
1758.000000 0.8860 0.8865 0.8869 0.8874 0.8879
1763.000000 0.8884 0.8887 0.8889 0.8891 0.8893
1768.000000 0.8895 0.8897 0.8899 0.8901 0.8903
1773.000000 0.8904 0.8906 0.8907 0.8908 0.8909
1778.000000 0.8910 0.8911 0.8912 0.8913 0.8913
1783.000000 0.8914 0.8914 0.8914 0.8914 0.8914
1788.000000 0.8914 0.8914 0.8913 0.8913 0.8913
1793.000000 0.8913 0.8913 0.8913 0.8913 0.8913
1798.000000 0.8913 0.8913 0.8912 0.8912 0.8912
1803.000000 0.8912 0.8911 0.8911 0.8911 0.8910
1808.000000 0.8910 0.8909 0.8909 0.8909 0.8908
1813.000000 0.8908 0.8908 0.8907 0.8907 0.8907
1818.000000 0.8906 0.8906 0.8906 0.8905 0.8905
1823.000000 0.8904 0.8904 0.8904 0.8903 0.8903
1828.000000 0.8903 0.8903 0.8902 0.8902 0.8902
1833.000000 0.8901 0.8901 0.8901 0.8901 0.8897
1838.000000 0.8900 0.8900 0.8899 0.8899 0.8899
1843.000000 0.8899 0.8898 0.8899 0.8899 0.8899
1848.000000 0.8900 0.8900 0.8900 0.8900 0.8901
1853.000000 0.8901 0.8901 0.8902 0.8902 0.8902
1858.000000 0.8902 0.8903 0.8903 0.8903 0.8904
1863.000000 0.8904 0.8904 0.8905 0.8906 0.8907
1868.000000 0.8908 0.8909 0.8910 0.8911 0.8912
1873.000000 0.8913 0.8914 0.8915 0.8916 0.8917
1878.000000 0.8918 0.8919 0.8920 0.8921 0.8922
1883.000000 0.8923 0.8924 0.8925 0.8926 0.8927
1888.000000 0.8928 0.8929 0.8930 0.8931 0.8932
1893.000000 0.8933 0.8934 0.8935 0.8936 0.8936
1898.000000 0.8937 0.8938 0.8939 0.8940 0.8941
1903.000000 0.8942 0.8941 0.8940 0.8940 0.8939
1908.000000 0.8938 0.8938 0.8937 0.8936 0.8936
1913.000000 0.8935 0.8934 0.8933 0.8933 0.8932
1918.000000 0.8930 0.8929 0.8927 0.8925 0.8924
1923.000000 0.8922 0.8920 0.8918 0.8917 0.8915
1928.000000 0.8913 0.8912 0.8910 0.8908 0.8907
1933.000000 0.8905 0.8903 0.8902 0.8900 0.8899
1938.000000 0.8897 0.8895 0.8894 0.8893 0.8892
1943.000000 0.8892 0.8891 0.8891 0.8890 0.8889
1948.000000 0.8889 0.8888 0.8888 0.8887 0.8886
1953.000000 0.8886 0.8885 0.8884 0.8883 0.8882
1958.000000 0.8881 0.8880 0.8879 0.8877 0.8876
1963.000000 0.8875 0.8874 0.8872 0.8871 0.8870
1968.000000 0.8869 0.8868 0.8866 0.8864 0.8862
1973.000000 0.8861 0.8859 0.8857 0.8855 0.8853
1978.000000 0.8852 0.8850 0.8848 0.8846 0.8845
1983.000000 0.8843 0.8841 0.8839 0.8848 0.8858
1988.000000 0.8869 0.8880 0.8890 0.8901 0.8911
1993.000000 0.8922 0.8933 0.8943 0.8954 0.8964
1998.000000 0.8975 0.8975 0.8975 0.8974 0.8974
2003.000000 0.8973 0.8973 0.8972 0.8971 0.8970
2008.000000 0.8969 0.8968 0.8967 0.8966 0.8965
2013.000000 0.8964 0.8963 0.8962 0.8961 0.8961
2018.000000 0.8961 0.8961 0.8962 0.8962 0.8963
2023.000000 0.8963 0.8963 0.8963 0.8964 0.8964
2028.000000 0.8965 0.8965 0.8965 0.8964 0.8964
2033.000000 0.8963 0.8963 0.8962 0.8962 0.8961
2038.000000 0.8960 0.8959 0.8959 0.8958 0.8958
2043.000000 0.8957 0.8957 0.8956 0.8956 0.8955
2048.000000 0.8955 0.8954 0.8954 0.8953 0.8953
2053.000000 0.8952 0.8952 0.8952 0.8953 0.8954
2058.000000 0.8955 0.8956 0.8957 0.8958 0.8959
2063.000000 0.8960 0.8961 0.8961 0.8962 0.8963
2068.000000 0.8964 0.8965 0.8966 0.8967 0.8968
2073.000000 0.8969 0.8970 0.8970 0.8971 0.8972
2078.000000 0.8973 0.8974 0.8975 0.8976 0.8977
2083.000000 0.8978 0.8979 0.8979 0.8980 0.8980
2088.000000 0.8981 0.8981 0.8981 0.8981 0.8982
2093.000000 0.8982 0.8983 0.8983 0.8984 0.8984
2098.000000 0.8984 0.8984 0.8985 0.8985 0.8986
2103.000000 0.8986 0.8987 0.8987 0.8987 0.8987
2108.000000 0.8988 0.8989 0.8990 0.8991 0.8992
2113.000000 0.8993 0.8994 0.8995 0.8996 0.8997
2118.000000 0.8998 0.8998 0.8999 0.9000 0.9001
2123.000000 0.9002 0.9003 0.9004 0.9005 0.9006
2128.000000 0.9007 0.9008 0.9009 0.9010 0.9011
2133.000000 0.9011 0.9012 0.9013 0.9014 0.9014
2138.000000 0.9015 0.9015 0.9016 0.9016 0.9017
2143.000000 0.9018 0.9019 0.9019 0.9020 0.9020
2148.000000 0.9021 0.9022 0.9023 0.9023 0.9024
2153.000000 0.9024 0.9025 0.9025 0.9026 0.9027
2158.000000 0.9028 0.9028 0.9029 0.9030 0.9031
2163.000000 0.9032 0.9033 0.9034 0.9035 0.9035
2168.000000 0.9036 0.9037 0.9038 0.9039 0.9040
2173.000000 0.9041 0.9042 0.9043 0.9044 0.9044
2178.000000 0.9045 0.9046 0.9047 0.9048 0.9049
2183.000000 0.9050 0.9051 0.9052 0.9053 0.9054
2188.000000 0.9055 0.9055 0.9056 0.9057 0.9058
2193.000000 0.9058 0.9059 0.9059 0.9060 0.9061
2198.000000 0.9062 0.9062 0.9063 0.9064 0.9065
2203.000000 0.9065 0.9066 0.9066 0.9067 0.9068
2208.000000 0.9069 0.9069 0.9070 0.9070 0.9071
2213.000000 0.9072 0.9073 0.9073 0.9074 0.9075
2218.000000 0.9076 0.9075 0.9075 0.9074 0.9074
2223.000000 0.9073 0.9072 0.9071 0.9071 0.9070
2228.000000 0.9069 0.9068 0.9068 0.9067 0.9067
2233.000000 0.9066 0.9065 0.9064 0.9064 0.9063
2238.000000 0.9062 0.9061 0.9061 0.9060 0.9059
2243.000000 0.9056 0.9053 0.9049 0.9046 0.9042
2248.000000 0.9039 0.9035 0.9031 0.9027 0.9024
2253.000000 0.9020 0.9016 0.9011 0.9006 0.9001
2258.000000 0.8996 0.8990 0.8985 0.8980 0.8975
2263.000000 0.8969 0.8964 0.8959 0.8954 0.8948
2268.000000 0.8943 0.8938 0.8934 0.8930 0.8926
2273.000000 0.8922 0.8918 0.8914 0.8910 0.8906
2278.000000 0.8902 0.8897 0.8893 0.8889 0.8886
2283.000000 0.8886 0.8886 0.8886 0.8886 0.8886
2288.000000 0.8886 0.8886 0.8886 0.8886 0.8886
2293.000000 0.8886 0.8886 0.8888 0.8871 0.8894
2298.000000 0.8898 0.8901 0.8905 0.8908 0.8912
2303.000000 0.8917 0.8923 0.8929 0.8935 0.8941
2308.000000 0.8947 0.8953 0.8959 0.8964 0.8970
2313.000000 0.8976 0.8982 0.8988 0.8994 0.8999
2318.000000 0.9005 0.9011 0.9017 0.9023 0.9029
2323.000000 0.9034 0.9040 0.9043 0.9046 0.9048
2328.000000 0.9051 0.9053 0.9056 0.9055 0.9055
2333.000000 0.9055 0.9055 0.9054 0.9054 0.9053
2338.000000 0.9053 0.9052 0.9052 0.9050 0.9049
2343.000000 0.9047 0.9046 0.9045 0.9044 0.9042
2348.000000 0.9041 0.9040 0.9039 0.9037 0.9036
2353.000000 0.9035 0.9034 0.9032 0.9031 0.9029
2358.000000 0.9028 0.9026 0.9025 0.9023 0.9021
2363.000000 0.9019 0.9018 0.9017 0.9016 0.9015
2368.000000 0.9014 0.9013 0.9012 0.9011 0.9010
2373.000000 0.9009 0.9008 0.9007 0.9006 0.9005
2378.000000 0.9004 0.9003 0.9002 0.9001 0.9000
2383.000000 0.8998 0.8997 0.8996 0.8996 0.8995
2388.000000 0.8995 0.8995 0.8995 0.8994 0.8994
2393.000000 0.8993 0.8993 0.8993 0.8993 0.8992
2398.000000 0.8992 0.8992 0.8992 0.8991 0.8991
2403.000000 0.8991 0.8991 0.8990 0.8990 0.8990
2408.000000 0.8990 0.8989 0.8989 0.8988 0.8988
2413.000000 0.8987 0.8986 0.8985 0.8985 0.8984
2418.000000 0.8983 0.8982 0.8982 0.8981 0.8980
2423.000000 0.8979 0.8979 0.8978 0.8978 0.8977
2428.000000 0.8976 0.8975 0.8975 0.8974 0.8973
2433.000000 0.8972 0.8972 0.8970 0.8969 0.8968
2438.000000 0.8967 0.8965 0.8964 0.8963 0.8962
2443.000000 0.8960 0.8959 0.8958 0.8957 0.8955
2448.000000 0.8954 0.8953 0.8952 0.8951 0.8950
2453.000000 0.8948 0.8947 0.8944 0.8941 0.8938
2458.000000 0.8936 0.8933 0.8930 0.8927 0.8924
2463.000000 0.8921 0.8919 0.8916 0.8913 0.8910
2468.000000 0.8907 0.8904 0.8902 0.8899 0.8896
2473.000000 0.8893 0.8890 0.8887 0.8885 0.8882
2478.000000 0.8879 0.8876 0.8873 0.8869 0.8866
2483.000000 0.8863 0.8860 0.8856 0.8853 0.8849
2488.000000 0.8846 0.8843 0.8840 0.8836 0.8833
2493.000000 0.8829 0.8826 0.8823 0.8820 0.8816
2498.000000 0.8813 0.8809 0.8806 0.8803 0.8800
2503.000000 0.8796 0.8793 0.8789 0.8786 0.8782
2508.000000 0.8778 0.8774 0.8771 0.8767 0.8764
2513.000000 0.8760 0.8756 0.8752 0.8749 0.8745
2518.000000 0.8742 0.8739 0.8737 0.8735 0.8733
2523.000000 0.8730 0.8728 0.8726 0.8724 0.8722
2528.000000 0.8720 0.8717 0.8715 0.8713 0.8711
2533.000000 0.8708 0.8706 0.8704 0.8702 0.8699
2538.000000 0.8697 0.8695 0.8693 0.8691 0.8689
2543.000000 0.8687 0.8685 0.8683 0.8681 0.8679
2548.000000 0.8678 0.8676 0.8674 0.8672 0.8671
2553.000000 0.8669 0.8667 0.8665 0.8664 0.8662
2558.000000 0.8660 0.8656 0.8653 0.8645 0.8638
2563.000000 0.8630 0.8623 0.8615 0.8608 0.8601
2568.000000 0.8594 0.8586 0.8579 0.8571 0.8563
2573.000000 0.8551 0.8539 0.8527 0.8516 0.8504
2578.000000 0.8493 0.8481 0.8469 0.8457 0.8446
2583.000000 0.8434 0.8423 0.8411 0.8400 0.8388
2588.000000 0.8376 0.8364 0.8353 0.8341 0.8330
2593.000000 0.8321 0.8313 0.8304 0.8296 0.8287
2598.000000 0.8279 0.8270 0.8262 0.8253 0.8245
2603.000000 0.8236 0.8228 0.8221 0.8214 0.8208
2608.000000 0.8203 0.8197 0.8192 0.8187 0.8182
2613.000000 0.8179 0.8177 0.8175 0.8173 0.8171
2618.000000 0.8169 0.8167 0.8165 0.8163 0.8162
2623.000000 0.8162 0.8162 0.8162 0.8162 0.8162
2628.000000 0.8162 0.8162 0.8162 0.8162 0.8162
2633.000000 0.8162 0.8163 0.8161 0.8160 0.8156
2638.000000 0.8153 0.8145 0.8138 0.8131 0.8124
2643.000000 0.8116 0.8109 0.8102 0.8095 0.8087
2648.000000 0.8080 0.8072 0.8065 0.8057 0.8049
2653.000000 0.8041 0.8034 0.8026 0.8019 0.8014
2658.000000 0.8010 0.8009 0.8008 0.8007 0.8007
2663.000000 0.8006 0.8005 0.8005 0.8006 0.8008
2668.000000 0.8010 0.8012 0.8014 0.8016 0.8018
2673.000000 0.8020 0.8022 0.8024 0.8026 0.8028
2678.000000 0.8030 0.8032 0.8034 0.8036 0.8038
2683.000000 0.8039 0.8041 0.8042 0.8043 0.8044
2688.000000 0.8045 0.8045 0.8046 0.8042 0.8038
2693.000000 0.8031 0.8024 0.8017 0.8011 0.8000
2698.000000 0.7990 0.7977 0.7965 0.7952 0.7940
2703.000000 0.7923 0.7906 0.7882 0.7858 0.7834
2708.000000 0.7810 0.7786 0.7762 0.7737 0.7713
2713.000000 0.7688 0.7663 0.7638 0.7613 0.7588
2718.000000 0.7563 0.7543 0.7524 0.7522 0.7522
2723.000000 0.7517 0.7515 0.7513 0.7512 0.7514
2728.000000 0.7516 0.7518 0.7520 0.7522 0.7525
2733.000000 0.7529 0.7533 0.7537 0.7542 0.7546
2738.000000 0.7551 0.7555 0.7560 0.7566 0.7572
2743.000000 0.7578 0.7584 0.7590 0.7596 0.7597
2748.000000 0.7599 0.7596 0.7593 0.7589 0.7586
2753.000000 0.7577 0.7569 0.7560 0.7552 0.7543
2758.000000 0.7534 0.7525 0.7517 0.7508 0.7500
2763.000000 0.7493 0.7486 0.7479 0.7472 0.7465
2768.000000 0.7458 0.7449 0.7521 0.7429 0.7418
2773.000000 0.7407 0.7396 0.7384 0.7372 0.7360
2778.000000 0.7348 0.7321 0.7294 0.7260 0.7227
2783.000000 0.7189 0.7151 0.7118 0.7085 0.7058
2788.000000 0.7032 0.7005 0.6979 0.6952 0.6926
2793.000000 0.6896 0.6866 0.6833 0.6800 0.6766
2798.000000 0.6733 0.6700 0.6667 0.6628 0.6589
2803.000000 0.6541 0.6494 0.6446 0.6399 0.6347
2808.000000 0.6296 0.6235 0.6175 0.6114 0.6053
2813.000000 0.5985 0.5918 0.5847 0.5776 0.5705
2818.000000 0.5634 0.5350 0.5067 0.4945 0.4824
2823.000000 0.4691 0.4558 0.4444 0.4331 0.4249
2828.000000 0.4167 0.4084 0.4002 0.3844 0.3686
2833.000000 0.3507 0.3328 0.3149 0.2971 0.2792
2838.000000 0.2614 0.2435 0.2256 0.2077 0.1899
2843.000000 0.1720 0.1541 0.1372 0.1204 0.1170
2848.000000 0.1136 0.1117 0.1099 0.1089 0.1079
2853.000000 0.1071 0.1064 0.1057 0.1050 0.1037
2858.000000 0.1024 0.1006 0.0988 0.0958 0.0928
2863.000000 0.0897 0.0867 0.0837 0.0807 0.0776
2868.000000 0.0746 0.0716 0.0686 0.0656 0.0626
2873.000000 0.0611 0.0572 0.0591 0.0587 0.0624
2878.000000 0.0661 0.0746 0.0831 0.0916 0.1001
2883.000000 0.1063 0.1125 0.1124 0.1123 0.1120
2888.000000 0.1117 0.1111 0.1106 0.1095 0.1103
2893.000000 0.0916 0.0747 0.0609 0.0472 0.0442
2898.000000 0.0412 0.0392 0.0373 0.0354 0.0336
2903.000000 0.0322 0.0308 0.0294 0.0281 0.0268
2908.000000 0.0255 0.0242 0.0230 0.0217 0.0204
2913.000000 0.0191 0.0179 0.0168 0.0157 0.0146
2918.000000 0.0136 0.0125 0.0115 0.0106 0.0097
2923.000000 0.0095 0.0093 0.0092 0.0090 0.0095
2928.000000 0.0098 0.0108 0.0118 0.0128 0.0139
2933.000000 0.0151 0.0164 0.0176 0.0188 0.0195
2938.000000 0.0203 0.0211 0.0219 0.0226 0.0248
2943.000000 0.0231 0.0228 0.0199 0.0170 0.0146
2948.000000 0.0123 0.0104 0.0086 0.0072 0.0058
2953.000000 0.0049 0.0040 0.0036 0.0032 0.0032
2958.000000 0.0032 0.0030 0.0033 0.0030 0.0031
2963.000000 0.0032 0.0034 0.0036 0.0039 0.0049
2968.000000 0.0060 0.0208 0.0356 0.0526 0.0696
2973.000000 0.0865 0.1035 0.1204 0.1374 0.1544
2978.000000 0.1714 0.1883 0.2053 0.2222 0.2392
2983.000000 0.2561 0.2731 0.2901 0.3071 0.3240
2988.000000 0.3410 0.3579 0.3749 0.3919 0.4089
2993.000000 0.4258 0.4428 0.4597 0.4767 0.5048
2998.000000 0.5329 0.5434 0.5539 0.5641 0.5744
3003.000000 0.5855 0.5966 0.6036 0.6107 0.6161
3008.000000 0.6216 0.6261 0.6306 0.6341 0.6376
3013.000000 0.6411 0.6446 0.6472 0.6498 0.6518
3018.000000 0.6539 0.6560 0.6581 0.6598 0.6616
3023.000000 0.6630 0.6645 0.6659 0.6674 0.6688
3028.000000 0.6703 0.6717 0.6732 0.6746 0.6761
3033.000000 0.6773 0.6785 0.6793 0.6802 0.6810
3038.000000 0.6819 0.6827 0.6835 0.6843 0.6852
3043.000000 0.6860 0.6869 0.6877 0.6885 0.6893
3048.000000 0.6902 0.6910 0.6919 0.6926 0.6934
3053.000000 0.6941 0.6948 0.6955 0.6962 0.6969
3058.000000 0.6976 0.6982 0.6988 0.6992 0.6996
3063.000000 0.7000 0.7004 0.7008 0.7012 0.7016
3068.000000 0.7020 0.7024 0.7028 0.7032 0.7036
3073.000000 0.7039 0.7043 0.7047 0.7051 0.7054
3078.000000 0.7058 0.7062 0.7066 0.7069 0.7073
3083.000000 0.7075 0.7078 0.7080 0.7082 0.7084
3088.000000 0.7086 0.7086 0.7087 0.7087 0.7087
3093.000000 0.7086 0.7086 0.7086 0.7086 0.7085
3098.000000 0.7084 0.7084 0.7084 0.7083 0.7082
3103.000000 0.7081 0.7081 0.7080 0.7079 0.7078
3108.000000 0.7077 0.7074 0.7072 0.7070 0.7068
3113.000000 0.7065 0.7063 0.7061 0.7059 0.7055
3118.000000 0.7052 0.7046 0.7040 0.7034 0.7029
3123.000000 0.7023 0.7017 0.7010 0.7004 0.6996
3128.000000 0.6989 0.6981 0.6973 0.6965 0.6957
3133.000000 0.6949 0.6941 0.6933 0.6926 0.6914
3138.000000 0.6903 0.6891 0.6879 0.6867 0.6855
3143.000000 0.6842 0.6830 0.6818 0.6806 0.6794
3148.000000 0.6782 0.6769 0.6757 0.6744 0.6732
3153.000000 0.6718 0.6705 0.6692 0.6679 0.6665
3158.000000 0.6652 0.6638 0.6625 0.6611 0.6598
3163.000000 0.6585 0.6572 0.6559 0.6547 0.6535
3168.000000 0.6523 0.6511 0.6499 0.6487 0.6475
3173.000000 0.6463 0.6451 0.6438 0.6426 0.6414
3178.000000 0.6402 0.6395 0.6389 0.6383 0.6377
3183.000000 0.6371 0.6365 0.6359 0.6354 0.6348
3188.000000 0.6342 0.6336 0.6331 0.6325 0.6319
3193.000000 0.6317 0.6316 0.6315 0.6315 0.6315
3198.000000 0.6315 0.6314 0.6303 0.6313 0.6313
3203.000000 0.6312 0.6312 0.6311 0.6311 0.6311
3208.000000 0.6312 0.6314 0.6317 0.6320 0.6323
3213.000000 0.6325 0.6328 0.6330 0.6333 0.6336
3218.000000 0.6339 0.6341 0.6344 0.6348 0.6353
3223.000000 0.6357 0.6361 0.6365 0.6370 0.6374
3228.000000 0.6379 0.6379 0.6379 0.6376 0.6379
3233.000000 0.6371 0.6369 0.6363 0.6357 0.6349
3238.000000 0.6341 0.6333 0.6325 0.6317 0.6309
3243.000000 0.6300 0.6292 0.6283 0.6275 0.6266
3248.000000 0.6257 0.6248 0.6240 0.6231 0.6222
3253.000000 0.6213 0.6204 0.6195 0.6186 0.6175
3258.000000 0.6165 0.6155 0.6145 0.6135 0.6125
3263.000000 0.6115 0.6105 0.6094 0.6084 0.6074
3268.000000 0.6064 0.6054 0.6044 0.6032 0.6021
3273.000000 0.6008 0.5996 0.5983 0.5971 0.5959
3278.000000 0.5947 0.5934 0.5922 0.5909 0.5897
3283.000000 0.5884 0.5872 0.5859 0.5847 0.5834
3288.000000 0.5822 0.5810 0.5798 0.5787 0.5777
3293.000000 0.5766 0.5756 0.5745 0.5735 0.5724
3298.000000 0.5714 0.5703 0.5693 0.5682 0.5672
3303.000000 0.5662 0.5652 0.5641 0.5631 0.5620
3308.000000 0.5609 0.5598 0.5588 0.5577 0.5567
3313.000000 0.5556 0.5546 0.5535 0.5525 0.5514
3318.000000 0.5504 0.5493 0.5483 0.5472 0.5462
3323.000000 0.5451 0.5440 0.5429 0.5419 0.5408
3328.000000 0.5398 0.5387 0.5377 0.5366 0.5356
3333.000000 0.5345 0.5335 0.5324 0.5314 0.5303
3338.000000 0.5293 0.5282 0.5272 0.5261 0.5251
3343.000000 0.5240 0.5230 0.5219 0.5209 0.5198
3348.000000 0.5188 0.5177 0.5166 0.5156 0.5146
3353.000000 0.5136 0.5127 0.5118 0.5109 0.5100
3358.000000 0.5091 0.5082 0.5073 0.5063 0.5054
3363.000000 0.5045 0.5036 0.5027 0.5018 0.5009
3368.000000 0.5000 0.4991 0.4983 0.4979 0.4975
3373.000000 0.4970 0.4966 0.4962 0.4958 0.4954
3378.000000 0.4950 0.4946 0.4942 0.4938 0.4934
3383.000000 0.4932 0.4925 0.4933 0.4936 0.4939
3388.000000 0.4942 0.4945 0.4948 0.4952 0.4957
3393.000000 0.4961 0.4965 0.4969 0.4974 0.4978
3398.000000 0.4982 0.4986 0.4991 0.4995 0.4999
3403.000000 0.5003 0.5007 0.5010 0.5014 0.5017
3408.000000 0.5021 0.5024 0.5028 0.5031 0.5035
3413.000000 0.5038 0.5042 0.5046 0.5050 0.5054
3418.000000 0.5058 0.5062 0.5067 0.5071 0.5075
3423.000000 0.5079 0.5083 0.5087 0.5091 0.5095
3428.000000 0.5100 0.5104 0.5108 0.5112 0.5116
3433.000000 0.5120 0.5124 0.5128 0.5133 0.5137
3438.000000 0.5142 0.5147 0.5153 0.5158 0.5164
3443.000000 0.5169 0.5174 0.5179 0.5185 0.5190
3448.000000 0.5196 0.5201 0.5207 0.5212 0.5218
3453.000000 0.5224 0.5231 0.5239 0.5247 0.5254
3458.000000 0.5262 0.5270 0.5278 0.5286 0.5294
3463.000000 0.5301 0.5309 0.5317 0.5325 0.5333
3468.000000 0.5341 0.5348 0.5356 0.5364 0.5372
3473.000000 0.5380 0.5388 0.5396 0.5404 0.5414
3478.000000 0.5425 0.5438 0.5451 0.5464 0.5477
3483.000000 0.5490 0.5503 0.5516 0.5529 0.5541
3488.000000 0.5553 0.5564 0.5576 0.5587 0.5599
3493.000000 0.5610 0.5621 0.5632 0.5644 0.5655
3498.000000 0.5666 0.5677 0.5689 0.5700 0.5711
3503.000000 0.5722 0.5734 0.5745 0.5757 0.5770
3508.000000 0.5783 0.5797 0.5812 0.5826 0.5840
3513.000000 0.5854 0.5868 0.5882 0.5897 0.5911
3518.000000 0.5925 0.5939 0.5954 0.5969 0.5985
3523.000000 0.6002 0.6019 0.6036 0.6053 0.6070
3528.000000 0.6087 0.6104 0.6121 0.6138 0.6155
3533.000000 0.6172 0.6189 0.6206 0.6223 0.6239
3538.000000 0.6255 0.6270 0.6286 0.6301 0.6316
3543.000000 0.6331 0.6347 0.6362 0.6377 0.6392
3548.000000 0.6408 0.6423 0.6438 0.6453 0.6469
3553.000000 0.6484 0.6500 0.6515 0.6530 0.6545
3558.000000 0.6561 0.6576 0.6591 0.6607 0.6623
3563.000000 0.6640 0.6658 0.6675 0.6693 0.6710
3568.000000 0.6728 0.6745 0.6763 0.6780 0.6798
3573.000000 0.6815 0.6833 0.6850 0.6868 0.6885
3578.000000 0.6903 0.6920 0.6938 0.6955 0.6972
3583.000000 0.6989 0.7006 0.7023 0.7040 0.7057
3588.000000 0.7074 0.7091 0.7108 0.7125 0.7142
3593.000000 0.7159 0.7176 0.7193 0.7211 0.7228
3598.000000 0.7245 0.7263 0.7282 0.7301 0.7320
3603.000000 0.7339 0.7358 0.7376 0.7395 0.7414
3608.000000 0.7433 0.7452 0.7471 0.7489 0.7508
3613.000000 0.7522 0.7536 0.7550 0.7564 0.7578
3618.000000 0.7592 0.7606 0.7620 0.7634 0.7648
3623.000000 0.7662 0.7676 0.7690 0.7704 0.7717
3628.000000 0.7731 0.7744 0.7757 0.7769 0.7782
3633.000000 0.7795 0.7808 0.7820 0.7833 0.7846
3638.000000 0.7859 0.7872 0.7885 0.7898 0.7912
3643.000000 0.7923 0.7935 0.7939 0.7944 0.7948
3648.000000 0.7964 0.7948 0.7945 0.7941 0.7938
3653.000000 0.7929 0.7921 0.7904 0.7888 0.7860
3658.000000 0.7832 0.7799 0.7766 0.7730 0.7695
3663.000000 0.7662 0.7629 0.7605 0.7581 0.7575
3668.000000 0.7570 0.7571 0.7572 0.7573 0.7521
3673.000000 0.7576 0.7577 0.7653 0.7729 0.7833
3678.000000 0.7937 0.8007 0.8077 0.8136 0.8195
3683.000000 0.8233 0.8272 0.8296 0.8321 0.8341
3688.000000 0.8361 0.8379 0.8397 0.8406 0.8415
3693.000000 0.8424 0.8433 0.8442 0.8451 0.8460
3698.000000 0.8469 0.8478 0.8487 0.8496 0.8505
3703.000000 0.8513 0.8521 0.8529 0.8538 0.8546
3708.000000 0.8554 0.8562 0.8571 0.8577 0.8583
3713.000000 0.8588 0.8593 0.8597 0.8602 0.8607
3718.000000 0.8612 0.8616 0.8621 0.8626 0.8631
3723.000000 0.8633 0.8636 0.8638 0.8641 0.8643
3728.000000 0.8646 0.8648 0.8651 0.8653 0.8656
3733.000000 0.8658 0.8661 0.8662 0.8664 0.8665
3738.000000 0.8667 0.8668 0.8670 0.8671 0.8672
3743.000000 0.8673 0.8675 0.8676 0.8678 0.8679
3748.000000 0.8681 0.8682 0.8684 0.8685 0.8687
3753.000000 0.8688 0.8690 0.8692 0.8694 0.8695
3758.000000 0.8697 0.8698 0.8700 0.8701 0.8703
3763.000000 0.8704 0.8705 0.8706 0.8707 0.8708
3768.000000 0.8710 0.8711 0.8712 0.8713 0.8714
3773.000000 0.8715 0.8717 0.8717 0.8718 0.8719
3778.000000 0.8705 0.8721 0.8722 0.8723 0.8724
3783.000000 0.8725 0.8727 0.8728 0.8729 0.8729
3788.000000 0.8730 0.8730 0.8731 0.8731 0.8732
3793.000000 0.8731 0.8731 0.8730 0.8730 0.8729
3798.000000 0.8728 0.8727 0.8727 0.8726 0.8726
3803.000000 0.8725 0.8725
##END=
