##TITLE=2-Ethyl-2-propyl-1-hexanol
##JCAMP-DX=4.24
$$ By DXEDIT 1.05 (RS McDonald)
##DATA TYPE=INFRARED SPECTRUM
##CLASS=COBLENTZ III
##ORIGIN=DOW CHEMICAL COMPANY
##OWNER=COPYRIGHT (C) 1988 by COBLENTZ SOCIETY INC.
Collection (C) 2018 copyright by the U.S. Secretary of Commerce
on behalf of the United States of America. All rights reserved.
##DATE=1965/02/16
##CAS REGISTRY NO=54461-00-6
##MOLFORM=C11 H24 O
##BP=105 C AT 10 mmHg
##SOURCE REFERENCE=COBLENTZ NO. 6766
##$NIST SOURCE=COBLENTZ
##$NIST IMAGE=cob6766
##SPECTROMETER/DATA SYSTEM=DOW KBr FOREPRISM-GRATING
##INSTRUMENT PARAMETERS=BLAZED AT 3.5, 12.0, 20.0 MICRON AND CHANGED AT 5.0, 7.5, 14.9 MICRON
##STATE=SOLUTION (10% CCl4 FOR 3800-1330, 10% CS2 FOR 1330-450 CM^-^1)
##PATH LENGTH=0.011 CM, 0.011 CM
$$SPECTRAL CONTAMINATION DUE TO CS2 AROUND 850 AND CCl4 AROUND 1550 CM^-^1 HAVE BEEN SUBTRACTED
$$ SPECTRAL FEATURE AT 1986 CM^-^1 IS AN ARTIFACT CAUSED BY GRATING CHANGE
##SAMPLING PROCEDURE=TRANSMISSION
##RESOLUTION=2
##DATA PROCESSING=DIGITIZED BY COBLENTZ SOCIETY (BATCH I) FROM HARD COPY
##XUNITS=1/CM
##YUNITS=TRANSMITTANCE
##XFACTOR=1
##YFACTOR=1
##DELTAX=1
##FIRSTX=3800
##LASTX=459
##FIRSTY=0.9282
##MAXX=3800
##MINX=459
##MAXY=0.987
##MINY=-0.0036
##NPOINTS=3342
##XYDATA=(X++(Y..Y))
3800.000000 0.9282 0.9281 0.9281 0.9282 0.9294
3795.000000 0.9282 0.9294 0.9294 0.9293 0.9292
3790.000000 0.9290 0.9290 0.9289 0.9287 0.9287
3785.000000 0.9286 0.9273 0.9265 0.9264 0.9277
3780.000000 0.9280 0.9264 0.9275 0.9277 0.9276
3775.000000 0.9256 0.9273 0.9270 0.9268 0.9265
3770.000000 0.9263 0.9261 0.9259 0.9256 0.9254
3765.000000 0.9252 0.9249 0.9247 0.9246 0.9244
3760.000000 0.9254 0.9251 0.9241 0.9241 0.9240
3755.000000 0.9239 0.9239 0.9237 0.9237 0.9237
3750.000000 0.9237 0.9237 0.9237 0.9237 0.9237
3745.000000 0.9239 0.9240 0.9241 0.9244 0.9244
3740.000000 0.9247 0.9254 0.9270 0.9271 0.9273
3735.000000 0.9275 0.9268 0.9259 0.9280 0.9281
3730.000000 0.9283 0.9284 0.9285 0.9286 0.9287
3725.000000 0.9288 0.9289 0.9289 0.9290 0.9289
3720.000000 0.9288 0.9268 0.9267 0.9281 0.9279
3715.000000 0.9275 0.9273 0.9270 0.9273 0.9277
3710.000000 0.9268 0.9276 0.9273 0.9268 0.9265
3705.000000 0.9261 0.9258 0.9254 0.9250 0.9246
3700.000000 0.9243 0.9239 0.9235 0.9230 0.9210
3695.000000 0.9201 0.9198 0.9194 0.9190 0.9185
3690.000000 0.9181 0.9176 0.9172 0.9163 0.9144
3685.000000 0.9137 0.9130 0.9124 0.9118 0.9110
3680.000000 0.9104 0.9098 0.9091 0.9084 0.9077
3675.000000 0.9068 0.9061 0.9053 0.9046 0.9035
3670.000000 0.9040 0.9013 0.8996 0.8960 0.8924
3665.000000 0.8883 0.8843 0.8833 0.8825 0.8821
3660.000000 0.8817 0.8814 0.8811 0.8805 0.8798
3655.000000 0.8791 0.8784 0.8776 0.8769 0.8761
3650.000000 0.8753 0.8741 0.8728 0.8698 0.8669
3645.000000 0.8598 0.8528 0.7840 0.7153 0.6910
3640.000000 0.6667 0.6424 0.6181 0.5938 0.5695
3635.000000 0.5501 0.5306 0.5213 0.4958 0.5052
3630.000000 0.4975 0.4965 0.4967 0.5002 0.5027
3625.000000 0.5084 0.5140 0.5243 0.5347 0.5484
3620.000000 0.5622 0.5813 0.6003 0.6197 0.6394
3615.000000 0.6589 0.6784 0.6980 0.7176 0.7371
3610.000000 0.7567 0.7761 0.7943 0.8077 0.8196
3605.000000 0.8221 0.8246 0.8270 0.8293 0.8333
3600.000000 0.8354 0.8375 0.8412 0.8436 0.8451
3595.000000 0.8462 0.8475 0.8483 0.8493 0.8500
3590.000000 0.8508 0.8512 0.8517 0.8521 0.8526
3585.000000 0.8527 0.8529 0.8530 0.8531 0.8533
3580.000000 0.8531 0.8530 0.8527 0.8519 0.8506
3575.000000 0.8482 0.8474 0.8395 0.8309 0.8234
3570.000000 0.8169 0.8157 0.8144 0.8140 0.8136
3565.000000 0.8129 0.8126 0.8119 0.8111 0.8102
3560.000000 0.8093 0.8067 0.8042 0.8015 0.7991
3555.000000 0.7976 0.7931 0.7900 0.7881 0.7847
3550.000000 0.7811 0.7769 0.7746 0.7711 0.7678
3545.000000 0.7636 0.7601 0.7565 0.7521 0.7468
3540.000000 0.7404 0.7354 0.7296 0.7239 0.7180
3535.000000 0.7114 0.7048 0.6984 0.6923 0.6863
3530.000000 0.6804 0.6731 0.6672 0.6622 0.6571
3525.000000 0.6524 0.6477 0.6428 0.6380 0.6327
3520.000000 0.6274 0.6215 0.6158 0.6123 0.6089
3515.000000 0.6057 0.6025 0.5995 0.5962 0.5936
3510.000000 0.5909 0.5880 0.5853 0.5835 0.5818
3505.000000 0.5801 0.5785 0.5770 0.5753 0.5738
3500.000000 0.5722 0.5710 0.5699 0.5688 0.5676
3495.000000 0.5664 0.5654 0.5642 0.5631 0.5618
3490.000000 0.5604 0.5591 0.5577 0.5563 0.5549
3485.000000 0.5536 0.5522 0.5509 0.5495 0.5481
3480.000000 0.5468 0.5453 0.5439 0.5424 0.5411
3475.000000 0.5396 0.5382 0.5368 0.5354 0.5340
3470.000000 0.5327 0.5312 0.5298 0.5283 0.5270
3465.000000 0.5255 0.5241 0.5227 0.5212 0.5197
3460.000000 0.5183 0.5169 0.5155 0.5140 0.5127
3455.000000 0.5113 0.5099 0.5086 0.5073 0.5059
3450.000000 0.5047 0.5033 0.5020 0.5007 0.4993
3445.000000 0.4979 0.4967 0.4953 0.4940 0.4927
3440.000000 0.4914 0.4904 0.4893 0.4883 0.4873
3435.000000 0.4864 0.4854 0.4844 0.4834 0.4825
3430.000000 0.4815 0.4804 0.4795 0.4786 0.4776
3425.000000 0.4757 0.4755 0.4747 0.4737 0.4728
3420.000000 0.4718 0.4709 0.4698 0.4690 0.4680
3415.000000 0.4671 0.4661 0.4652 0.4644 0.4634
3410.000000 0.4625 0.4615 0.4606 0.4603 0.4593
3405.000000 0.4580 0.4572 0.4564 0.4555 0.4547
3400.000000 0.4538 0.4530 0.4521 0.4513 0.4505
3395.000000 0.4496 0.4488 0.4480 0.4474 0.4467
3390.000000 0.4460 0.4453 0.4446 0.4437 0.4432
3385.000000 0.4426 0.4420 0.4415 0.4411 0.4406
3380.000000 0.4400 0.4395 0.4390 0.4385 0.4380
3375.000000 0.4376 0.4372 0.4368 0.4365 0.4360
3370.000000 0.4327 0.4354 0.4350 0.4346 0.4342
3365.000000 0.4338 0.4335 0.4334 0.4334 0.4334
3360.000000 0.4334 0.4334 0.4335 0.4339 0.4344
3355.000000 0.4350 0.4355 0.4359 0.4364 0.4371
3350.000000 0.4377 0.4382 0.4390 0.4396 0.4403
3345.000000 0.4419 0.4429 0.4434 0.4455 0.4459
3340.000000 0.4473 0.4486 0.4510 0.4523 0.4535
3335.000000 0.4545 0.4565 0.4585 0.4605 0.4625
3330.000000 0.4645 0.4665 0.4685 0.4705 0.4726
3325.000000 0.4746 0.4766 0.4786 0.4805 0.4832
3320.000000 0.4857 0.4887 0.4915 0.4943 0.4972
3315.000000 0.5001 0.5031 0.5065 0.5114 0.5150
3310.000000 0.5187 0.5223 0.5258 0.5286 0.5331
3305.000000 0.5358 0.5383 0.5403 0.5430 0.5457
3300.000000 0.5485 0.5512 0.5539 0.5566 0.5593
3295.000000 0.5622 0.5652 0.5682 0.5713 0.5744
3290.000000 0.5775 0.5805 0.5837 0.5866 0.5896
3285.000000 0.5932 0.5967 0.6014 0.6048 0.6072
3280.000000 0.6109 0.6154 0.6185 0.6206 0.6241
3275.000000 0.6280 0.6311 0.6340 0.6372 0.6400
3270.000000 0.6432 0.6462 0.6493 0.6525 0.6555
3265.000000 0.6588 0.6619 0.6653 0.6686 0.6716
3260.000000 0.6750 0.6781 0.6814 0.6846 0.6865
3255.000000 0.6906 0.6933 0.6957 0.6983 0.7008
3250.000000 0.7032 0.7057 0.7081 0.7107 0.7131
3245.000000 0.7148 0.7172 0.7202 0.7227 0.7250
3240.000000 0.7274 0.7296 0.7321 0.7345 0.7368
3235.000000 0.7386 0.7403 0.7422 0.7441 0.7459
3230.000000 0.7477 0.7495 0.7513 0.7530 0.7535
3225.000000 0.7557 0.7588 0.7605 0.7623 0.7637
3220.000000 0.7652 0.7665 0.7679 0.7693 0.7707
3215.000000 0.7721 0.7735 0.7748 0.7763 0.7776
3210.000000 0.7791 0.7803 0.7803 0.7813 0.7827
3205.000000 0.7840 0.7853 0.7865 0.7880 0.7892
3200.000000 0.7908 0.7931 0.7936 0.7957 0.7963
3195.000000 0.7986 0.8001 0.8013 0.8026 0.8039
3190.000000 0.8043 0.8056 0.8076 0.8087 0.8090
3185.000000 0.8096 0.8109 0.8118 0.8127 0.8138
3180.000000 0.8148 0.8158 0.8168 0.8178 0.8188
3175.000000 0.8195 0.8201 0.8206 0.8211 0.8217
3170.000000 0.8222 0.8225 0.8231 0.8235 0.8242
3165.000000 0.8247 0.8261 0.8276 0.8274 0.8281
3160.000000 0.8294 0.8300 0.8295 0.8308 0.8307
3155.000000 0.8309 0.8329 0.8338 0.8346 0.8353
3150.000000 0.8360 0.8367 0.8358 0.8364 0.8372
3145.000000 0.8377 0.8382 0.8390 0.8396 0.8406
3140.000000 0.8424 0.8430 0.8436 0.8441 0.8447
3135.000000 0.8452 0.8459 0.8465 0.8472 0.8478
3130.000000 0.8484 0.8489 0.8496 0.8500 0.8504
3125.000000 0.8509 0.8515 0.8519 0.8523 0.8527
3120.000000 0.8532 0.8536 0.8539 0.8541 0.8544
3115.000000 0.8546 0.8549 0.8551 0.8554 0.8556
3110.000000 0.8560 0.8562 0.8564 0.8576 0.8584
3105.000000 0.8584 0.8584 0.8584 0.8584 0.8584
3100.000000 0.8598 0.8600 0.8598 0.8614 0.8632
3095.000000 0.8649 0.8648 0.8646 0.8643 0.8628
3090.000000 0.8624 0.8604 0.8590 0.8593 0.8594
3085.000000 0.8571 0.8556 0.8551 0.8547 0.8542
3080.000000 0.8537 0.8531 0.8538 0.8547 0.8545
3075.000000 0.8537 0.8543 0.8538 0.8515 0.8505
3070.000000 0.8499 0.8477 0.8487 0.8463 0.8457
3065.000000 0.8451 0.8442 0.8420 0.8414 0.8406
3060.000000 0.8404 0.8408 0.8401 0.8386 0.8368
3055.000000 0.8369 0.8361 0.8344 0.8334 0.8335
3050.000000 0.8332 0.8323 0.8313 0.8302 0.8305
3045.000000 0.8296 0.8298 0.8303 0.8307 0.8311
3040.000000 0.8315 0.8291 0.8269 0.8238 0.8192
3035.000000 0.8151 0.8122 0.8076 0.8037 0.8001
3030.000000 0.7959 0.7922 0.7898 0.7854 0.7810
3025.000000 0.7774 0.7738 0.7714 0.7689 0.7665
3020.000000 0.7641 0.7627 0.7605 0.7575 0.7531
3015.000000 0.7500 0.7471 0.7406 0.7342 0.7295
3010.000000 0.7249 0.7183 0.7115 0.6793 0.6486
3005.000000 0.6273 0.6050 0.5971 0.5890 0.5829
3000.000000 0.5776 0.5709 0.5640 0.5554 0.5470
2995.000000 0.5384 0.5300 0.5171 0.5036 0.4681
2990.000000 0.4326 0.4035 0.3743 0.3593 0.3443
2985.000000 0.3196 0.2951 0.2691 0.2431 0.2170
2980.000000 0.1912 0.1656 0.1394 0.1131 0.0874
2975.000000 0.0613 0.0353 0.0092 -0.0036 -0.0036
2970.000000 -0.0036 -0.0036 -0.0036 -0.0036 -0.0036
2965.000000 -0.0036 -0.0036 -0.0036 -0.0036 -0.0036
2960.000000 -0.0036 -0.0036 -0.0036 -0.0036 -0.0036
2955.000000 -0.0036 -0.0036 -0.0036 -0.0036 -0.0036
2950.000000 -0.0036 -0.0036 -0.0036 -0.0036 -0.0036
2945.000000 -0.0036 -0.0036 -0.0036 -0.0036 -0.0036
2940.000000 -0.0036 -0.0036 -0.0036 -0.0036 -0.0036
2935.000000 -0.0036 -0.0036 -0.0036 -0.0036 -0.0036
2930.000000 -0.0036 -0.0036 -0.0036 -0.0036 -0.0036
2925.000000 -0.0036 -0.0036 -0.0036 -0.0036 -0.0036
2920.000000 -0.0036 -0.0036 -0.0036 -0.0036 -0.0036
2915.000000 -0.0036 -0.0036 -0.0036 -0.0036 -0.0036
2910.000000 -0.0036 -0.0036 -0.0036 -0.0036 -0.0036
2905.000000 -0.0036 -0.0036 -0.0036 -0.0036 -0.0036
2900.000000 -0.0036 -0.0036 -0.0036 -0.0036 -0.0036
2895.000000 -0.0036 -0.0036 -0.0036 -0.0036 -0.0001
2890.000000 0.0037 0.0075 0.0113 0.0127 0.0161
2885.000000 0.0142 0.0144 0.0073 0.0003 -0.0036
2880.000000 -0.0036 -0.0036 -0.0036 -0.0036 -0.0036
2875.000000 -0.0036 -0.0036 -0.0036 -0.0036 -0.0036
2870.000000 -0.0036 -0.0036 -0.0036 -0.0036 -0.0036
2865.000000 -0.0036 -0.0036 -0.0036 -0.0036 -0.0036
2860.000000 -0.0036 0.0117 0.0438 0.0664 0.0891
2855.000000 0.1118 0.1341 0.1568 0.1794 0.2021
2850.000000 0.2247 0.2474 0.2701 0.2929 0.3162
2845.000000 0.3505 0.3846 0.4035 0.4236 0.4408
2840.000000 0.4578 0.4714 0.4857 0.4957 0.5053
2835.000000 0.5148 0.5249 0.5332 0.5415 0.5489
2830.000000 0.5564 0.5648 0.5716 0.5814 0.5905
2825.000000 0.5982 0.6071 0.6171 0.6250 0.6328
2820.000000 0.6393 0.6455 0.6507 0.6569 0.6633
2815.000000 0.6685 0.6739 0.6779 0.6818 0.6856
2810.000000 0.6895 0.6933 0.6981 0.7024 0.7063
2805.000000 0.7100 0.7136 0.7171 0.7206 0.7241
2800.000000 0.7277 0.7311 0.7347 0.7379 0.7414
2795.000000 0.7439 0.7465 0.7489 0.7512 0.7527
2790.000000 0.7560 0.7574 0.7599 0.7624 0.7648
2785.000000 0.7676 0.7707 0.7721 0.7736 0.7766
2780.000000 0.7795 0.7813 0.7832 0.7850 0.7867
2775.000000 0.7885 0.7903 0.7915 0.7930 0.7940
2770.000000 0.7952 0.7963 0.7974 0.7985 0.7996
2765.000000 0.8007 0.8019 0.8028 0.8041 0.8049
2760.000000 0.8058 0.8066 0.8076 0.8083 0.8091
2755.000000 0.8097 0.8103 0.8109 0.8116 0.8121
2750.000000 0.8126 0.8126 0.8128 0.8128 0.8128
2745.000000 0.8126 0.8126 0.8122 0.8119 0.8112
2740.000000 0.8106 0.8096 0.8087 0.8072 0.8058
2735.000000 0.8040 0.8023 0.8004 0.7986 0.7969
2730.000000 0.7952 0.7945 0.7938 0.7933 0.7934
2725.000000 0.7935 0.7942 0.7953 0.7965 0.7983
2720.000000 0.8002 0.8041 0.8080 0.8118 0.8156
2715.000000 0.8191 0.8227 0.8262 0.8297 0.8318
2710.000000 0.8340 0.8361 0.8384 0.8405 0.8426
2705.000000 0.8446 0.8469 0.8487 0.8505 0.8518
2700.000000 0.8532 0.8544 0.8556 0.8570 0.8583
2695.000000 0.8596 0.8609 0.8616 0.8623 0.8626
2690.000000 0.8629 0.8631 0.8634 0.8637 0.8640
2685.000000 0.8642 0.8645 0.8648 0.8651 0.8652
2680.000000 0.8654 0.8654 0.8654 0.8654 0.8656
2675.000000 0.8656 0.8656 0.8656 0.8657 0.8657
2670.000000 0.8657 0.8657 0.8657 0.8657 0.8659
2665.000000 0.8659 0.8659 0.8659 0.8660 0.8661
2660.000000 0.8663 0.8664 0.8669 0.8687 0.8689
2655.000000 0.8691 0.8693 0.8695 0.8698 0.8694
2650.000000 0.8685 0.8687 0.8698 0.8709 0.8711
2645.000000 0.8703 0.8698 0.8700 0.8714 0.8709
2640.000000 0.8706 0.8708 0.8711 0.8713 0.8716
2635.000000 0.8717 0.8737 0.8739 0.8740 0.8726
2630.000000 0.8730 0.8749 0.8752 0.8755 0.8758
2625.000000 0.8761 0.8766 0.8769 0.8772 0.8775
2620.000000 0.8779 0.8782 0.8787 0.8790 0.8793
2615.000000 0.8796 0.8800 0.8804 0.8807 0.8810
2610.000000 0.8814 0.8817 0.8822 0.8825 0.8828
2605.000000 0.8831 0.8835 0.8838 0.8842 0.8845
2600.000000 0.8849 0.8853 0.8858 0.8863 0.8868
2595.000000 0.8872 0.8877 0.8882 0.8887 0.8891
2590.000000 0.8896 0.8901 0.8906 0.8910 0.8915
2585.000000 0.8920 0.8925 0.8929 0.8934 0.8938
2580.000000 0.8944 0.8948 0.8953 0.8958 0.8962
2575.000000 0.8966 0.8971 0.8976 0.8981 0.8985
2570.000000 0.8990 0.8995 0.9000 0.9004 0.9009
2565.000000 0.9015 0.9020 0.9025 0.9030 0.9036
2560.000000 0.9040 0.9046 0.9051 0.9057 0.9062
2555.000000 0.9067 0.9073 0.9078 0.9083 0.9089
2550.000000 0.9093 0.9099 0.9103 0.9110 0.9115
2545.000000 0.9120 0.9125 0.9131 0.9136 0.9141
2540.000000 0.9146 0.9152 0.9156 0.9162 0.9168
2535.000000 0.9173 0.9178 0.9184 0.9189 0.9194
2530.000000 0.9198 0.9205 0.9209 0.9213 0.9217
2525.000000 0.9220 0.9224 0.9227 0.9231 0.9234
2520.000000 0.9238 0.9242 0.9245 0.9248 0.9251
2515.000000 0.9254 0.9258 0.9262 0.9266 0.9269
2510.000000 0.9272 0.9275 0.9279 0.9283 0.9287
2505.000000 0.9290 0.9293 0.9296 0.9301 0.9304
2500.000000 0.9307 0.9310 0.9314 0.9317 0.9322
2495.000000 0.9324 0.9326 0.9327 0.9328 0.9329
2490.000000 0.9330 0.9330 0.9331 0.9332 0.9333
2485.000000 0.9334 0.9335 0.9335 0.9336 0.9349
2480.000000 0.9357 0.9358 0.9359 0.9359 0.9360
2475.000000 0.9361 0.9362 0.9363 0.9364 0.9364
2470.000000 0.9365 0.9366 0.9366 0.9366 0.9366
2465.000000 0.9366 0.9366 0.9366 0.9366 0.9366
2460.000000 0.9366 0.9366 0.9357 0.9356 0.9355
2455.000000 0.9346 0.9346 0.9358 0.9365 0.9365
2450.000000 0.9351 0.9359 0.9362 0.9359 0.9357
2445.000000 0.9355 0.9354 0.9352 0.9350 0.9348
2440.000000 0.9347 0.9344 0.9342 0.9340 0.9339
2435.000000 0.9337 0.9335 0.9332 0.9332 0.9328
2430.000000 0.9327 0.9324 0.9324 0.9321 0.9318
2425.000000 0.9313 0.9310 0.9306 0.9302 0.9297
2420.000000 0.9294 0.9290 0.9287 0.9283 0.9278
2415.000000 0.9275 0.9271 0.9268 0.9265 0.9263
2410.000000 0.9262 0.9265 0.9271 0.9262 0.9273
2405.000000 0.9271 0.9269 0.9267 0.9265 0.9263
2400.000000 0.9263 0.9263 0.9264 0.9264 0.9266
2395.000000 0.9266 0.9267 0.9267 0.9268 0.9268
2390.000000 0.9269 0.9287 0.9288 0.9289 0.9291
2385.000000 0.9297 0.9316 0.9319 0.9327 0.9344
2380.000000 0.9347 0.9358 0.9372 0.9384 0.9397
2375.000000 0.9401 0.9414 0.9426 0.9429 0.9432
2370.000000 0.9435 0.9424 0.9423 0.9426 0.9429
2365.000000 0.9431 0.9437 0.9439 0.9442 0.9447
2360.000000 0.9469 0.9475 0.9495 0.9502 0.9525
2355.000000 0.9543 0.9547 0.9550 0.9554 0.9549
2350.000000 0.9541 0.9544 0.9557 0.9579 0.9589
2345.000000 0.9590 0.9581 0.9577 0.9580 0.9582
2340.000000 0.9584 0.9570 0.9587 0.9590 0.9573
2335.000000 0.9572 0.9591 0.9590 0.9590 0.9593
2330.000000 0.9609 0.9604 0.9599 0.9598 0.9606
2325.000000 0.9607 0.9614 0.9607 0.9602 0.9594
2320.000000 0.9587 0.9579 0.9573 0.9565 0.9558
2315.000000 0.9551 0.9544 0.9536 0.9527 0.9518
2310.000000 0.9508 0.9501 0.9492 0.9484 0.9477
2305.000000 0.9473 0.9469 0.9465 0.9462 0.9457
2300.000000 0.9454 0.9457 0.9466 0.9464 0.9462
2295.000000 0.9460 0.9457 0.9455 0.9453 0.9450
2290.000000 0.9448 0.9445 0.9430 0.9423 0.9422
2285.000000 0.9422 0.9422 0.9405 0.9403 0.9403
2280.000000 0.9403 0.9402 0.9385 0.9386 0.9383
2275.000000 0.9371 0.9376 0.9379 0.9377 0.9368
2270.000000 0.9372 0.9367 0.9360 0.9363 0.9367
2265.000000 0.9360 0.9357 0.9360 0.9365 0.9354
2260.000000 0.9353 0.9358 0.9346 0.9348 0.9352
2255.000000 0.9356 0.9342 0.9346 0.9351 0.9354
2250.000000 0.9341 0.9346 0.9350 0.9354 0.9358
2245.000000 0.9357 0.9348 0.9353 0.9357 0.9361
2240.000000 0.9365 0.9369 0.9375 0.9379 0.9383
2235.000000 0.9375 0.9373 0.9377 0.9383 0.9387
2230.000000 0.9391 0.9395 0.9400 0.9404 0.9408
2225.000000 0.9411 0.9414 0.9418 0.9419 0.9406
2220.000000 0.9411 0.9414 0.9418 0.9421 0.9423
2215.000000 0.9426 0.9431 0.9434 0.9439 0.9440
2210.000000 0.9442 0.9443 0.9445 0.9446 0.9448
2205.000000 0.9449 0.9452 0.9453 0.9454 0.9455
2200.000000 0.9457 0.9458 0.9460 0.9461 0.9461
2195.000000 0.9448 0.9465 0.9461 0.9448 0.9447
2190.000000 0.9449 0.9449 0.9450 0.9450 0.9451
2185.000000 0.9452 0.9463 0.9460 0.9454 0.9454
2180.000000 0.9455 0.9455 0.9470 0.9474 0.9475
2175.000000 0.9475 0.9475 0.9475 0.9478 0.9478
2170.000000 0.9479 0.9476 0.9460 0.9460 0.9460
2165.000000 0.9460 0.9462 0.9462 0.9463 0.9464
2160.000000 0.9466 0.9467 0.9469 0.9470 0.9472
2155.000000 0.9473 0.9475 0.9476 0.9479 0.9480
2150.000000 0.9482 0.9483 0.9485 0.9486 0.9488
2145.000000 0.9489 0.9491 0.9492 0.9493 0.9494
2140.000000 0.9496 0.9497 0.9498 0.9499 0.9500
2135.000000 0.9502 0.9503 0.9504 0.9505 0.9506
2130.000000 0.9507 0.9508 0.9509 0.9509 0.9509
2125.000000 0.9509 0.9509 0.9509 0.9493 0.9505
2120.000000 0.9508 0.9508 0.9508 0.9506 0.9506
2115.000000 0.9505 0.9505 0.9505 0.9505 0.9504
2110.000000 0.9504 0.9503 0.9502 0.9501 0.9501
2105.000000 0.9500 0.9500 0.9498 0.9497 0.9495
2100.000000 0.9493 0.9491 0.9477 0.9469 0.9482
2095.000000 0.9484 0.9466 0.9479 0.9479 0.9474
2090.000000 0.9471 0.9468 0.9465 0.9463 0.9460
2085.000000 0.9458 0.9455 0.9454 0.9452 0.9450
2080.000000 0.9449 0.9447 0.9444 0.9442 0.9440
2075.000000 0.9438 0.9436 0.9433 0.9431 0.9427
2070.000000 0.9424 0.9421 0.9418 0.9415 0.9411
2065.000000 0.9408 0.9405 0.9402 0.9401 0.9399
2060.000000 0.9396 0.9394 0.9393 0.9396 0.9408
2055.000000 0.9405 0.9403 0.9401 0.9391 0.9386
2050.000000 0.9394 0.9381 0.9370 0.9367 0.9364
2045.000000 0.9362 0.9359 0.9359 0.9359 0.9358
2040.000000 0.9358 0.9356 0.9356 0.9356 0.9356
2035.000000 0.9356 0.9356 0.9358 0.9359 0.9361
2030.000000 0.9363 0.9365 0.9373 0.9383 0.9375
2025.000000 0.9386 0.9401 0.9403 0.9406 0.9408
2020.000000 0.9411 0.9414 0.9418 0.9420 0.9423
2015.000000 0.9426 0.9430 0.9433 0.9438 0.9440
2010.000000 0.9442 0.9444 0.9447 0.9449 0.9451
2005.000000 0.9452 0.9454 0.9455 0.9456 0.9456
2000.000000 0.9456 0.9456 0.9438 0.9408 0.9387
1995.000000 0.9354 0.9320 0.9285 0.9248 0.9212
1990.000000 0.9178 0.9143 0.9129 0.9115 0.9085
1985.000000 0.9076 0.9076 0.9075 0.9080 0.9081
1980.000000 0.9083 0.9082 0.9068 0.9070 0.9073
1975.000000 0.9075 0.9078 0.9081 0.9084 0.9086
1970.000000 0.9089 0.9091 0.9095 0.9099 0.9115
1965.000000 0.9117 0.9115 0.9133 0.9143 0.9147
1960.000000 0.9152 0.9156 0.9161 0.9166 0.9170
1955.000000 0.9173 0.9161 0.9166 0.9170 0.9175
1950.000000 0.9176 0.9165 0.9170 0.9175 0.9179
1945.000000 0.9183 0.9186 0.9189 0.9194 0.9199
1940.000000 0.9203 0.9206 0.9210 0.9215 0.9219
1935.000000 0.9223 0.9226 0.9230 0.9234 0.9239
1930.000000 0.9242 0.9246 0.9249 0.9254 0.9257
1925.000000 0.9262 0.9266 0.9270 0.9273 0.9277
1920.000000 0.9282 0.9286 0.9289 0.9293 0.9297
1915.000000 0.9301 0.9305 0.9308 0.9311 0.9314
1910.000000 0.9316 0.9319 0.9322 0.9339 0.9346
1905.000000 0.9349 0.9351 0.9354 0.9358 0.9360
1900.000000 0.9362 0.9365 0.9368 0.9371 0.9372
1895.000000 0.9375 0.9376 0.9379 0.9380 0.9375
1890.000000 0.9364 0.9366 0.9367 0.9369 0.9370
1885.000000 0.9373 0.9385 0.9394 0.9395 0.9396
1880.000000 0.9398 0.9399 0.9400 0.9401 0.9404
1875.000000 0.9422 0.9424 0.9425 0.9426 0.9428
1870.000000 0.9429 0.9430 0.9432 0.9433 0.9435
1865.000000 0.9436 0.9436 0.9438 0.9440 0.9440
1860.000000 0.9440 0.9442 0.9442 0.9454 0.9450
1855.000000 0.9443 0.9445 0.9446 0.9446 0.9447
1850.000000 0.9448 0.9448 0.9449 0.9450 0.9450
1845.000000 0.9451 0.9452 0.9452 0.9452 0.9452
1840.000000 0.9452 0.9451 0.9451 0.9451 0.9444
1835.000000 0.9432 0.9431 0.9431 0.9431 0.9431
1830.000000 0.9431 0.9430 0.9430 0.9430 0.9429
1825.000000 0.9429 0.9428 0.9428 0.9427 0.9427
1820.000000 0.9426 0.9444 0.9444 0.9442 0.9442
1815.000000 0.9442 0.9442 0.9441 0.9441 0.9441
1810.000000 0.9441 0.9434 0.9423 0.9423 0.9423
1805.000000 0.9423 0.9413 0.9405 0.9405 0.9407
1800.000000 0.9408 0.9409 0.9410 0.9410 0.9411
1795.000000 0.9412 0.9413 0.9414 0.9415 0.9416
1790.000000 0.9416 0.9415 0.9415 0.9415 0.9415
1785.000000 0.9415 0.9414 0.9414 0.9414 0.9414
1780.000000 0.9413 0.9412 0.9411 0.9411 0.9399
1775.000000 0.9390 0.9389 0.9386 0.9383 0.9381
1770.000000 0.9378 0.9375 0.9375 0.9377 0.9378
1765.000000 0.9378 0.9381 0.9382 0.9384 0.9385
1760.000000 0.9385 0.9388 0.9403 0.9401 0.9401
1755.000000 0.9400 0.9400 0.9399 0.9396 0.9396
1750.000000 0.9396 0.9395 0.9393 0.9393 0.9392
1745.000000 0.9389 0.9387 0.9383 0.9372 0.9360
1740.000000 0.9347 0.9333 0.9320 0.9303 0.9281
1735.000000 0.9257 0.9221 0.9199 0.9183 0.9175
1730.000000 0.9176 0.9177 0.9179 0.9180 0.9183
1725.000000 0.9185 0.9187 0.9189 0.9192 0.9195
1720.000000 0.9198 0.9203 0.9207 0.9211 0.9216
1715.000000 0.9219 0.9220 0.9222 0.9223 0.9225
1710.000000 0.9226 0.9228 0.9230 0.9234 0.9237
1705.000000 0.9240 0.9245 0.9250 0.9255 0.9260
1700.000000 0.9265 0.9271 0.9275 0.9280 0.9286
1695.000000 0.9290 0.9295 0.9300 0.9306 0.9310
1690.000000 0.9315 0.9321 0.9323 0.9327 0.9332
1685.000000 0.9336 0.9340 0.9344 0.9347 0.9352
1680.000000 0.9356 0.9359 0.9363 0.9368 0.9371
1675.000000 0.9374 0.9375 0.9386 0.9400 0.9403
1670.000000 0.9406 0.9407 0.9411 0.9414 0.9416
1665.000000 0.9419 0.9421 0.9425 0.9429 0.9432
1660.000000 0.9451 0.9440 0.9442 0.9463 0.9465
1655.000000 0.9467 0.9469 0.9469 0.9455 0.9472
1650.000000 0.9468 0.9465 0.9462 0.9458 0.9394
1645.000000 0.9462 0.9454 0.9445 0.9446 0.9441
1640.000000 0.9429 0.9415 0.9416 0.9408 0.9406
1635.000000 0.9395 0.9380 0.9380 0.9367 0.9368
1630.000000 0.9354 0.9356 0.9340 0.9339 0.9320
1625.000000 0.9295 0.9304 0.9306 0.9316 0.9307
1620.000000 0.9290 0.9289 0.9291 0.9293 0.9307
1615.000000 0.9325 0.9340 0.9352 0.9365 0.9379
1610.000000 0.9368 0.9377 0.9369 0.9340 0.9347
1605.000000 0.9317 0.9334 0.9311 0.9307 0.9219
1600.000000 0.9193 0.9138 0.9099 0.9049 0.8984
1595.000000 0.8930 0.8881 0.8843 0.8863 0.8892
1590.000000 0.8873 0.8882 0.8871 0.8858 0.8851
1585.000000 0.8830 0.8849 0.8874 0.8845 0.8848
1580.000000 0.8836 0.8830 0.8802 0.8794 0.8767
1575.000000 0.8762 0.8775 0.8774 0.8746 0.8760
1570.000000 0.8729 0.8719 0.8660 0.8593 0.8524
1565.000000 0.8479 0.8440 0.8397 0.8338 0.8297
1560.000000 0.8303 0.8303 0.8283 0.8234 0.8241
1555.000000 0.8279 0.8244 0.8283 0.8380 0.8464
1550.000000 0.8508 0.8494 0.8451 0.8435 0.8434
1545.000000 0.8452 0.8470 0.8533 0.8580 0.8601
1540.000000 0.8613 0.8594 0.8574 0.8559 0.8657
1535.000000 0.8728 0.8729 0.8728 0.8716 0.8697
1530.000000 0.8688 0.8703 0.8720 0.8736 0.8753
1525.000000 0.8739 0.8742 0.8731 0.8726 0.8706
1520.000000 0.8701 0.8697 0.8675 0.8663 0.8647
1515.000000 0.8618 0.8599 0.8573 0.8554 0.8518
1510.000000 0.8487 0.8460 0.8423 0.8386 0.8352
1505.000000 0.8319 0.8299 0.8273 0.8241 0.8223
1500.000000 0.8209 0.8197 0.8170 0.8153 0.8142
1495.000000 0.8156 0.8137 0.8149 0.8097 0.8057
1490.000000 0.7999 0.7906 0.7805 0.7692 0.7531
1485.000000 0.7356 0.7176 0.6815 0.6133 0.4530
1480.000000 0.4359 0.4129 0.3958 0.3820 0.3716
1475.000000 0.3601 0.3473 0.3349 0.3208 0.2483
1470.000000 0.1608 0.0736 0.0676 0.0665 0.0690
1465.000000 0.0703 0.0712 0.0726 0.0759 0.0801
1460.000000 0.0870 0.0946 0.1039 0.1138 0.1244
1455.000000 0.1370 0.1499 0.1642 0.1890 0.2288
1450.000000 0.2759 0.3060 0.3379 0.3967 0.4556
1445.000000 0.5148 0.5735 0.6000 0.6146 0.6275
1440.000000 0.6362 0.6462 0.6563 0.6703 0.6846
1435.000000 0.6973 0.7094 0.7182 0.7265 0.7356
1430.000000 0.7446 0.7559 0.7662 0.7721 0.7781
1425.000000 0.7809 0.7818 0.7827 0.7843 0.7860
1420.000000 0.7870 0.7882 0.7850 0.7893 0.7877
1415.000000 0.7866 0.7856 0.7849 0.7836 0.7812
1410.000000 0.7789 0.7747 0.7699 0.7651 0.7567
1405.000000 0.7483 0.7404 0.7323 0.7245 0.7167
1400.000000 0.7089 0.7023 0.6964 0.6907 0.6839
1395.000000 0.6769 0.6701 0.6623 0.6542 0.6460
1390.000000 0.6389 0.6322 0.6243 0.6107 0.5187
1385.000000 0.4814 0.4415 0.3997 0.3058 0.3173
1380.000000 0.3083 0.3087 0.3727 0.4407 0.5083
1375.000000 0.5754 0.5956 0.6080 0.6200 0.6316
1370.000000 0.6423 0.6551 0.6649 0.6738 0.6827
1365.000000 0.6946 0.7060 0.7146 0.7240 0.7271
1360.000000 0.7300 0.7318 0.7325 0.7262 0.7318
1355.000000 0.7318 0.7317 0.7302 0.7277 0.7243
1350.000000 0.7206 0.7162 0.7123 0.7084 0.7052
1345.000000 0.7027 0.7006 0.6982 0.6973 0.6970
1340.000000 0.6971 0.7004 0.7043 0.7082 0.7120
1335.000000 0.7157 0.7196 0.7235 0.7277 0.7319
1330.000000 0.7358 0.7378 0.7413 0.7443 0.7471
1325.000000 0.7486 0.7511 0.7530 0.7543 0.7573
1320.000000 0.7600 0.7621 0.7627 0.7634 0.7640
1315.000000 0.7640 0.7638 0.7635 0.7633 0.7631
1310.000000 0.7629 0.7627 0.7628 0.7631 0.7639
1305.000000 0.7648 0.7649 0.7667 0.7685 0.7705
1300.000000 0.7730 0.7752 0.7776 0.7799 0.7827
1295.000000 0.7856 0.7875 0.7893 0.7910 0.7921
1290.000000 0.7927 0.7940 0.7952 0.7965 0.7977
1285.000000 0.7989 0.8000 0.8008 0.8015 0.8022
1280.000000 0.8028 0.8036 0.8043 0.8049 0.8071
1275.000000 0.8077 0.8083 0.8089 0.8094 0.8100
1270.000000 0.8104 0.8111 0.8116 0.8126 0.8141
1265.000000 0.8145 0.8157 0.8167 0.8168 0.8169
1260.000000 0.8169 0.8169 0.8169 0.8168 0.8168
1255.000000 0.8162 0.8143 0.8095 0.8037 0.8000
1250.000000 0.7984 0.7983 0.7983 0.7983 0.7982
1245.000000 0.7975 0.7960 0.7959 0.7958 0.7957
1240.000000 0.7956 0.7961 0.7970 0.7969 0.7968
1235.000000 0.7967 0.7965 0.7974 0.7980 0.7979
1230.000000 0.7979 0.7959 0.7976 0.7975 0.7973
1225.000000 0.7973 0.7972 0.7971 0.7968 0.7963
1220.000000 0.7956 0.7951 0.7950 0.7950 0.7950
1215.000000 0.7956 0.7963 0.7992 0.8029 0.8054
1210.000000 0.8081 0.8111 0.8140 0.8170 0.8199
1205.000000 0.8226 0.8253 0.8280 0.8308 0.8335
1200.000000 0.8361 0.8389 0.8399 0.8424 0.8452
1195.000000 0.8478 0.8498 0.8537 0.8557 0.8569
1190.000000 0.8584 0.8598 0.8610 0.8613 0.8618
1185.000000 0.8624 0.8625 0.8612 0.8588 0.8543
1180.000000 0.8488 0.8422 0.8406 0.8402 0.8445
1175.000000 0.8404 0.8408 0.8412 0.8416 0.8420
1170.000000 0.8422 0.8424 0.8426 0.8445 0.8447
1165.000000 0.8447 0.8446 0.8434 0.8417 0.8395
1160.000000 0.8367 0.8339 0.8305 0.8264 0.8223
1155.000000 0.8181 0.8140 0.8097 0.8061 0.8023
1150.000000 0.8003 0.8022 0.8016 0.8024 0.8036
1145.000000 0.8062 0.8089 0.8111 0.8167 0.8225
1140.000000 0.8297 0.8397 0.8513 0.8695 0.8786
1135.000000 0.8880 0.8951 0.9005 0.9070 0.9127
1130.000000 0.9183 0.9221 0.9258 0.9293 0.9327
1125.000000 0.9354 0.9378 0.9399 0.9414 0.9422
1120.000000 0.9424 0.9377 0.9407 0.9396 0.9399
1115.000000 0.9383 0.9369 0.9342 0.9315 0.9279
1110.000000 0.9227 0.9171 0.9073 0.8985 0.8849
1105.000000 0.8718 0.7884 0.7883 0.7899 0.7915
1100.000000 0.7929 0.7940 0.7945 0.7944 0.7933
1095.000000 0.7905 0.7861 0.7789 0.7638 0.7500
1090.000000 0.7363 0.7225 0.7089 0.7011 0.7000
1085.000000 0.7008 0.7029 0.7071 0.7154 0.7237
1080.000000 0.7329 0.7445 0.7540 0.7608 0.7657
1075.000000 0.7705 0.7743 0.7721 0.7725 0.7688
1070.000000 0.7381 0.7150 0.6921 0.6692 0.6461
1065.000000 0.6232 0.6003 0.5774 0.5553 0.5325
1060.000000 0.5096 0.4854 0.4644 0.4487 0.4420
1055.000000 0.4370 0.4323 0.4268 0.4201 0.4131
1050.000000 0.4047 0.3844 0.3227 0.3208 0.3193
1045.000000 0.3169 0.3143 0.3077 0.2971 0.2395
1040.000000 0.1751 0.1107 0.0839 0.0747 0.0651
1035.000000 0.0590 0.0547 0.0517 0.0493 0.0477
1030.000000 0.0438 0.0487 0.0552 0.0662 0.0821
1025.000000 0.0989 0.1183 0.1439 0.2439 0.2899
1020.000000 0.3180 0.3434 0.4178 0.4496 0.5029
1015.000000 0.5290 0.5551 0.5811 0.6071 0.6333
1010.000000 0.6595 0.6856 0.7035 0.7116 0.7196
1005.000000 0.7271 0.7330 0.7414 0.7502 0.7590
1000.000000 0.7682 0.7768 0.7834 0.7869 0.7900
995.000000 0.7921 0.7939 0.7948 0.7953 0.7953
990.000000 0.7950 0.7935 0.7923 0.7912 0.7899
985.000000 0.7891 0.7828 0.7876 0.7892 0.7934
980.000000 0.7982 0.8034 0.8087 0.8140 0.8194
975.000000 0.8249 0.8301 0.8342 0.8365 0.8410
970.000000 0.8425 0.8437 0.8442 0.8444 0.8454
965.000000 0.8433 0.8381 0.8095 0.7859 0.7633
960.000000 0.7561 0.7536 0.7518 0.7508 0.7455
955.000000 0.7503 0.7536 0.7591 0.7657 0.7735
950.000000 0.7813 0.7894 0.7991 0.8080 0.8166
945.000000 0.8272 0.8419 0.8636 0.8826 0.8902
940.000000 0.8958 0.8991 0.9013 0.9026 0.9031
935.000000 0.9030 0.9020 0.8993 0.8930 0.8830
930.000000 0.8684 0.8559 0.8472 0.8414 0.8367
925.000000 0.8324 0.8299 0.8278 0.8276 0.8275
920.000000 0.8311 0.8356 0.8420 0.8479 0.8562
915.000000 0.8636 0.8712 0.8786 0.8871 0.8966
910.000000 0.9060 0.9120 0.9157 0.9157 0.9178
905.000000 0.9191 0.9189 0.9168 0.9161 0.9113
900.000000 0.9032 0.8891 0.8685 0.8579 0.8548
895.000000 0.8540 0.8558 0.8557 0.8599 0.8644
890.000000 0.8772 0.8900 0.9030 0.9134 0.9260
885.000000 0.9289 0.9355 0.9406 0.9441 0.9486
880.000000 0.9504 0.9495 0.9446 0.9362 0.9354
875.000000 0.9355 0.9367 0.9381 0.9394 0.9412
870.000000 0.9432 0.9450 0.9469 0.9504 0.9516
865.000000 0.9533 0.9563 0.9586 0.9591 0.9602
860.000000 0.9621 0.9620 0.9610 0.9587 0.9580
855.000000 0.9570 0.9547 0.9505 0.9493 0.9521
850.000000 0.9539 0.9545 0.9618 0.9690 0.9677
845.000000 0.9662 0.9631 0.9624 0.9621 0.9617
840.000000 0.9644 0.9687 0.9662 0.9670 0.9664
835.000000 0.9670 0.9686 0.9692 0.9710 0.9726
830.000000 0.9742 0.9760 0.9761 0.9767 0.9772
825.000000 0.9779 0.9794 0.9805 0.9817 0.9811
820.000000 0.9853 0.9813 0.9816 0.9819 0.9838
815.000000 0.9838 0.9834 0.9831 0.9848 0.9862
810.000000 0.9862 0.9870 0.9853 0.9828 0.9823
805.000000 0.9819 0.9803 0.9787 0.9771 0.9745
800.000000 0.9717 0.9688 0.9642 0.9595 0.9498
795.000000 0.9101 0.8965 0.8838 0.8716 0.8610
790.000000 0.8475 0.8351 0.8255 0.8221 0.8189
785.000000 0.8157 0.8123 0.8072 0.8024 0.7984
780.000000 0.7931 0.7886 0.7835 0.7788 0.7759
775.000000 0.7699 0.7792 0.7857 0.7979 0.8114
770.000000 0.8259 0.8403 0.8529 0.8661 0.8803
765.000000 0.8876 0.8900 0.8950 0.8909 0.8906
760.000000 0.8892 0.8877 0.8861 0.8846 0.8829
755.000000 0.8811 0.8796 0.8779 0.8749 0.8720
750.000000 0.8691 0.8653 0.8596 0.8530 0.8421
745.000000 0.8312 0.8027 0.7850 0.7752 0.7695
740.000000 0.7658 0.7623 0.7597 0.7578 0.7516
735.000000 0.7548 0.7555 0.7573 0.7604 0.7657
730.000000 0.7721 0.7797 0.7798 0.7868 0.7969
725.000000 0.7733 0.8247 0.8338 0.8436 0.8536
720.000000 0.8632 0.8686 0.8737 0.8798 0.8853
715.000000 0.8911 0.9011 0.9080 0.9120 0.9154
710.000000 0.9177 0.9201 0.9220 0.9238 0.9253
705.000000 0.9266 0.9280 0.9311 0.9324 0.9340
700.000000 0.9369 0.9377 0.9385 0.9390 0.9397
695.000000 0.9411 0.9429 0.9434 0.9440 0.9444
690.000000 0.9474 0.9453 0.9467 0.9474 0.9474
685.000000 0.9466 0.9455 0.9460 0.9453 0.9442
680.000000 0.9448 0.9436 0.9448 0.9452 0.9472
675.000000 0.9470 0.9432 0.9395 0.9342 0.9319
670.000000 0.9297 0.9345 0.9362 0.9192 0.9043
665.000000 0.8999 0.8974 0.8942 0.8912 0.8907
660.000000 0.8918 0.8929 0.8935 0.8954 0.8965
655.000000 0.8964 0.8959 0.8961 0.8950 0.8957
650.000000 0.8946 0.8936 0.8924 0.8917 0.8903
645.000000 0.8906 0.8902 0.8891 0.8895 0.8891
640.000000 0.8884 0.8885 0.8874 0.8863 0.8872
635.000000 0.8878 0.8864 0.8868 0.8864 0.8854
630.000000 0.8857 0.8866 0.8859 0.8864 0.8849
625.000000 0.8849 0.8848 0.8832 0.8833 0.8825
620.000000 0.8817 0.8813 0.8819 0.8805 0.8784
615.000000 0.8775 0.8758 0.8735 0.8725 0.8716
610.000000 0.8704 0.8692 0.8682 0.8659 0.8640
605.000000 0.8627 0.8613 0.8601 0.8601 0.8602
600.000000 0.8603 0.8605 0.8607 0.8612 0.8617
595.000000 0.8622 0.8628 0.8629 0.8624 0.8619
590.000000 0.8612 0.8605 0.8596 0.8582 0.8569
585.000000 0.8564 0.8548 0.8544 0.8540 0.8536
580.000000 0.8531 0.8528 0.8528 0.8516 0.8521
575.000000 0.8530 0.8554 0.8566 0.8577 0.8589
570.000000 0.8602 0.8613 0.8624 0.8613 0.8619
565.000000 0.8639 0.8639 0.8629 0.8618 0.8635
560.000000 0.8632 0.8631 0.8626 0.8616 0.8605
555.000000 0.8584 0.8564 0.8550 0.8523 0.8515
550.000000 0.8505 0.8490 0.8474 0.8459 0.8444
545.000000 0.8432 0.8420 0.8410 0.8408 0.8406
540.000000 0.8405 0.8407 0.8421 0.8426 0.8443
535.000000 0.8441 0.8436 0.8450 0.8453 0.8455
530.000000 0.8458 0.8461 0.8462 0.8465 0.8479
525.000000 0.8488 0.8490 0.8493 0.8495 0.8498
520.000000 0.8499 0.8502 0.8503 0.8507 0.8509
515.000000 0.8512 0.8514 0.8517 0.8519 0.8522
510.000000 0.8524 0.8525 0.8525 0.8526 0.8527
505.000000 0.8528 0.8528 0.8529 0.8529 0.8529
500.000000 0.8527 0.8524 0.8522 0.8520 0.8517
495.000000 0.8513 0.8508 0.8502 0.8499 0.8494
490.000000 0.8489 0.8484 0.8480 0.8475 0.8468
485.000000 0.8462 0.8456 0.8449 0.8443 0.8438
480.000000 0.8432 0.8424 0.8415 0.8406 0.8397
475.000000 0.8387 0.8378 0.8368 0.8359 0.8348
470.000000 0.8340 0.8331 0.8320 0.8311 0.8299
465.000000 0.8291 0.8279 0.8268 0.8257 0.8245
460.000000 0.8234 0.8221
##END=
