##TITLE=TRICHLORO ACETONITRILE
##JCAMP-DX=4.24
##DATA TYPE=INFRARED SPECTRUM
##CLASS=COBLENTZ
##ORIGIN=DOW CHEMICAL COMPANY
##OWNER=COBLENTZ SOCIETY
Collection (C) 2018 copyright by the U.S. Secretary of Commerce
on behalf of the United States of America. All rights reserved.
##DATE=Not specified, most likely prior to 1970
##NAMES=trichloroacetonitrile
##CAS REGISTRY NO=545-06-2
##MOLFORM=C2 Cl3 N
##SOURCE REFERENCE=COBLENTZ NO. 3256
##$NIST SOURCE=COBLENTZ
##$NIST IMAGE=cob3256
##SPECTROMETER/DATA SYSTEM=Not specified, most likely a prism, grating, or hybrid spectrometer.
##STATE=SOLUTION (10% CCl4 FOR 5000-1330, 10% CS2 FOR 1330-625 CM^-^1)
##PATH LENGTH=0.0125 CM, 0.0125 CM
$$SPECTRAL CONTAMINATION DUE TO CS2 AROUND 850 AND CCl4 AROUND 1550 CM^-^1
##SAMPLING PROCEDURE=TRANSMISSION
##RESOLUTION=4
##DATA PROCESSING=DIGITIZED BY NIST FROM HARD COPY
##XUNITS=MICROMETERS
##YUNITS=TRANSMITTANCE
##XFACTOR=1.000000
##YFACTOR=1
##DELTAX=000.006873
##FIRSTX=2.034
##LASTX=15.918
##FIRSTY=0.9
##MAXX=15.918
##MINX=2.034
##MAXY=0.948
##MINY=0
##NPOINTS=2021
##XYDATA=(X++(Y..Y))
2.034000 0.9000 0.9000 0.9000 0.9000 0.9000
2.068381 0.9000 0.9000 0.9000 0.9000 0.9000
2.103000 0.9000 0.9000 0.9000 0.9000 0.9000
2.137381 0.9020 0.9020 0.9030 0.9030 0.9030
2.172000 0.9050 0.9050 0.9050 0.9030 0.9030
2.206381 0.9030 0.9030 0.9030 0.9030 0.9030
2.241000 0.9030 0.9030 0.9030 0.9050 0.9050
2.275381 0.9050 0.9050 0.9070 0.9070 0.9070
2.309000 0.9090 0.9090 0.9090 0.9090 0.9090
2.343381 0.9090 0.9090 0.9090 0.9090 0.9090
2.378000 0.9070 0.9070 0.9090 0.9100 0.9100
2.412381 0.9100 0.9100 0.9100 0.9100 0.9090
2.447000 0.9090 0.9070 0.9070 0.9070 0.9070
2.481381 0.9090 0.9090 0.9090 0.9090 0.9090
2.515000 0.9090 0.9090 0.9090 0.9090 0.9090
2.549381 0.9090 0.9090 0.9090 0.9090 0.9090
2.584000 0.9090 0.9090 0.9100 0.9100 0.9100
2.618381 0.9100 0.9100 0.9100 0.9100 0.9100
2.653000 0.9100 0.9100 0.9100 0.9100 0.9090
2.687381 0.9090 0.9090 0.9100 0.9100 0.9120
2.722000 0.9120 0.9150 0.9150 0.9120 0.9120
2.756381 0.9120 0.9120 0.9120 0.9120 0.9120
2.790000 0.9120 0.9120 0.9120 0.9120 0.9120
2.824381 0.9120 0.9120 0.9120 0.9120 0.9120
2.859000 0.9120 0.9120 0.9120 0.9120 0.9150
2.893381 0.9150 0.9170 0.9170 0.9170 0.9170
2.928000 0.9170 0.9170 0.9170 0.9170 0.9170
2.962381 0.9170 0.9170 0.9170 0.9170 0.9170
2.997000 0.9170 0.9170 0.9170 0.9170 0.9150
3.031381 0.9150 0.9150 0.9150 0.9150 0.9150
3.065000 0.9150 0.9150 0.9150 0.9150 0.9170
3.099381 0.9170 0.9150 0.9150 0.9150 0.9150
3.134000 0.9150 0.9140 0.9140 0.9140 0.9150
3.168381 0.9150 0.9150 0.9140 0.9140 0.9150
3.203000 0.9150 0.9150 0.9150 0.9150 0.9150
3.237381 0.9120 0.9120 0.9100 0.9120 0.9150
3.271000 0.9150 0.9120 0.9120 0.9120 0.9120
3.305381 0.9120 0.9120 0.9120 0.9120 0.9120
3.340000 0.9100 0.9090 0.9070 0.9050 0.9050
3.374381 0.9020 0.9020 0.9020 0.9030 0.9050
3.409000 0.9070 0.9090 0.9100 0.9150 0.9150
3.443381 0.9100 0.9100 0.9100 0.9100 0.9120
3.478000 0.9120 0.9170 0.9170 0.9190 0.9210
3.512381 0.9210 0.9210 0.9210 0.9210 0.9210
3.546000 0.9210 0.9210 0.9240 0.9240 0.9240
3.580381 0.9240 0.9240 0.9240 0.9220 0.9220
3.615000 0.9220 0.9220 0.9220 0.9220 0.9220
3.649381 0.9220 0.9260 0.9260 0.9260 0.9270
3.684000 0.9270 0.9270 0.9270 0.9270 0.9270
3.718381 0.9270 0.9270 0.9270 0.9270 0.9270
3.753000 0.9290 0.9290 0.9290 0.9290 0.9290
3.787381 0.9290 0.9290 0.9290 0.9290 0.9290
3.821000 0.9290 0.9290 0.9290 0.9290 0.9290
3.855381 0.9290 0.9290 0.9290 0.9290 0.9290
3.890000 0.9290 0.9290 0.9310 0.9310 0.9310
3.924381 0.9310 0.9310 0.9310 0.9310 0.9310
3.959000 0.9310 0.9310 0.9310 0.9310 0.9310
3.993381 0.9310 0.9310 0.9330 0.9340 0.9340
4.027000 0.9340 0.9340 0.9310 0.9310 0.9310
4.061381 0.9290 0.9290 0.9290 0.9270 0.9260
4.096000 0.9210 0.9190 0.9170 0.9120 0.9120
4.130381 0.9170 0.9210 0.9220 0.9270 0.9290
4.165000 0.9310 0.9290 0.9290 0.9270 0.9260
4.199381 0.9220 0.9170 0.9150 0.9120 0.9100
4.234000 0.9090 0.9090 0.9070 0.9070 0.9070
4.268381 0.9050 0.9050 0.9050 0.9030 0.9030
4.302000 0.9050 0.9050 0.9070 0.9070 0.9070
4.336381 0.9070 0.9030 0.9020 0.8910 0.8810
4.371000 0.8690 0.8500 0.8470 0.8210 0.8060
4.405381 0.7970 0.7590 0.7510 0.7590 0.7800
4.440000 0.7990 0.9100 0.9270 0.9290 0.9290
4.474381 0.9290 0.9310 0.9330 0.9340 0.9360
4.509000 0.9360 0.9360 0.9380 0.9390 0.9380
4.543381 0.9380 0.9380 0.9380 0.9390 0.9380
4.577000 0.9380 0.9360 0.9340 0.9340 0.9360
4.611381 0.9360 0.9380 0.9380 0.9380 0.9380
4.646000 0.9390 0.9410 0.9450 0.9450 0.9450
4.680381 0.9460 0.9460 0.9460 0.9460 0.9460
4.715000 0.9460 0.9460 0.9480 0.9480 0.9480
4.749381 0.9450 0.9430 0.9380 0.9360 0.9340
4.784000 0.9330 0.9330 0.9330 0.9330 0.9360
4.818381 0.9360 0.9380 0.9390 0.9390 0.9390
4.852000 0.9390 0.9390 0.9390 0.9390 0.9390
4.886381 0.9390 0.9390 0.9390 0.9390 0.9380
4.921000 0.9380 0.9360 0.9340 0.9340 0.9330
4.955381 0.9310 0.9310 0.9290 0.9290 0.9290
4.990000 0.9310 0.9340 0.9360 0.9360 0.9380
5.024381 0.9380 0.9380 0.9380 0.9390 0.9390
5.058000 0.9390 0.9410 0.9450 0.9460 0.9460
5.092381 0.9460 0.9460 0.9460 0.9460 0.9460
5.127000 0.9460 0.9460 0.9460 0.9460 0.9460
5.161381 0.9460 0.9460 0.9460 0.9460 0.9460
5.196000 0.9480 0.9480 0.9460 0.9460 0.9460
5.230381 0.9460 0.9460 0.9460 0.9460 0.9460
5.265000 0.9460 0.9460 0.9450 0.9450 0.9450
5.299381 0.9430 0.9430 0.9390 0.9390 0.9390
5.333000 0.9390 0.9380 0.9360 0.9340 0.9340
5.367381 0.9340 0.9340 0.9340 0.9340 0.9340
5.402000 0.9330 0.9310 0.9290 0.9290 0.9290
5.436381 0.9270 0.9270 0.9260 0.9260 0.9260
5.471000 0.9260 0.9260 0.9260 0.9290 0.9310
5.505381 0.9340 0.9340 0.9360 0.9360 0.9380
5.540000 0.9390 0.9410 0.9410 0.9450 0.9450
5.574381 0.9450 0.9460 0.9460 0.9460 0.9450
5.608000 0.9450 0.9450 0.9410 0.9390 0.9390
5.642381 0.9390 0.9390 0.9390 0.9410 0.9410
5.677000 0.9450 0.9450 0.9410 0.9390 0.9380
5.711381 0.9360 0.9340 0.9340 0.9330 0.9310
5.746000 0.9310 0.9290 0.9290 0.9290 0.9290
5.780381 0.9310 0.9310 0.9340 0.9360 0.9360
5.814000 0.9360 0.9360 0.9360 0.9360 0.9360
5.848381 0.9360 0.9360 0.9360 0.9360 0.9360
5.883000 0.9380 0.9380 0.9380 0.9380 0.9380
5.917381 0.9380 0.9380 0.9380 0.9380 0.9380
5.952000 0.9380 0.9360 0.9360 0.9340 0.9290
5.986381 0.9290 0.9340 0.9360 0.9380 0.9380
6.021000 0.9380 0.9380 0.9380 0.9380 0.9380
6.055381 0.9360 0.9290 0.9290 0.9260 0.9210
6.089000 0.9190 0.9140 0.9090 0.9070 0.9050
6.123381 0.8980 0.8970 0.8880 0.8790 0.8710
6.158000 0.8660 0.8570 0.8550 0.8430 0.8300
6.192381 0.8180 0.8040 0.7850 0.7660 0.7580
6.227000 0.7390 0.7180 0.6990 0.6800 0.6680
6.261381 0.6560 0.6480 0.6390 0.6290 0.6200
6.296000 0.6170 0.6100 0.6070 0.6000 0.5960
6.330381 0.5900 0.5790 0.5640 0.5600 0.5500
6.364000 0.5470 0.5380 0.5350 0.5210 0.5070
6.398381 0.4900 0.4780 0.4660 0.4660 0.4610
6.433000 0.4590 0.4590 0.4630 0.4750 0.4850
6.467381 0.4970 0.5070 0.5180 0.5240 0.5400
6.502000 0.5450 0.5450 0.5380 0.5300 0.5260
6.536381 0.5180 0.5090 0.5060 0.5000 0.5060
6.570000 0.5090 0.5180 0.5360 0.5760 0.6080
6.604381 0.6500 0.7030 0.7540 0.7580 0.7890
6.639000 0.7990 0.8090 0.8160 0.8280 0.8380
6.673381 0.8490 0.8590 0.8690 0.8790 0.8850
6.708000 0.8860 0.8860 0.8900 0.8970 0.8980
6.742381 0.8980 0.8980 0.9000 0.9050 0.9050
6.777000 0.9090 0.9120 0.9140 0.9150 0.9150
6.811381 0.9150 0.9150 0.9170 0.9170 0.9190
6.845000 0.9210 0.9240 0.9260 0.9260 0.9260
6.879381 0.9270 0.9270 0.9270 0.9290 0.9290
6.914000 0.9290 0.9290 0.9290 0.9290 0.9290
6.948381 0.9290 0.9290 0.9290 0.9290 0.9310
6.983000 0.9310 0.9310 0.9310 0.9310 0.9310
7.017381 0.9310 0.9330 0.9310 0.9310 0.9310
7.052000 0.9310 0.9310 0.9310 0.9310 0.9310
7.086381 0.9310 0.9310 0.9310 0.9310 0.9310
7.120000 0.9310 0.9310 0.9310 0.9290 0.9290
7.154381 0.9290 0.9290 0.9290 0.9290 0.9290
7.189000 0.9290 0.9310 0.9310 0.9330 0.9330
7.223381 0.9330 0.9340 0.9340 0.9340 0.9360
7.258000 0.9360 0.9360 0.9360 0.9360 0.9360
7.292381 0.9380 0.9380 0.9380 0.9380 0.9390
7.326000 0.9390 0.9450 0.9460 0.9460 0.9460
7.360381 0.9460 0.9460 0.9480 0.9480 0.9480
7.395000 0.9460 0.9460 0.9460 0.9460 0.9460
7.429381 0.9450 0.9450 0.9450 0.9460 0.9460
7.464000 0.9460 0.9460 0.9460 0.9460 0.9460
7.498381 0.9460 0.9460 0.9450 0.9450 0.9450
7.533000 0.9450 0.9390 0.9390 0.9390 0.9380
7.567381 0.9360 0.9360 0.9340 0.9290 0.9220
7.601000 0.9210 0.9190 0.9190 0.9170 0.9170
7.635381 0.9170 0.9170 0.9170 0.9190 0.9190
7.670000 0.9190 0.9190 0.9190 0.9190 0.9190
7.704381 0.9190 0.9190 0.9170 0.9150 0.9140
7.739000 0.9140 0.9140 0.9140 0.9140 0.9140
7.773381 0.9100 0.9090 0.9090 0.9050 0.9020
7.808000 0.8980 0.8970 0.8970 0.8970 0.8950
7.842381 0.8900 0.8880 0.8860 0.8860 0.8860
7.876000 0.8860 0.8880 0.8930 0.8950 0.8970
7.910381 0.8980 0.9030 0.9030 0.9030 0.9050
7.945000 0.9070 0.9070 0.9090 0.9090 0.9090
7.979381 0.9090 0.9090 0.9090 0.9090 0.9100
8.014000 0.9120 0.9120 0.9120 0.9120 0.9120
8.048381 0.9120 0.9090 0.9090 0.9090 0.9090
8.082000 0.9090 0.9070 0.9070 0.9070 0.9070
8.116381 0.9070 0.9070 0.9070 0.9070 0.9070
8.151000 0.9070 0.9070 0.9070 0.9070 0.9070
8.185381 0.9070 0.9070 0.9070 0.9070 0.9070
8.220000 0.9070 0.9050 0.9050 0.9050 0.9050
8.254381 0.9050 0.9050 0.9050 0.9050 0.9050
8.289000 0.9050 0.9050 0.9030 0.9020 0.9000
8.323381 0.8970 0.8970 0.8970 0.8970 0.8970
8.357000 0.8950 0.8950 0.8950 0.8950 0.8950
8.391381 0.8930 0.8930 0.8930 0.8930 0.8930
8.426000 0.8930 0.8930 0.8950 0.8950 0.8950
8.460381 0.8950 0.8950 0.8970 0.8970 0.8970
8.495000 0.8970 0.8970 0.8970 0.8970 0.8970
8.529381 0.8970 0.8970 0.8970 0.8970 0.8970
8.564000 0.8970 0.8970 0.8970 0.8970 0.8970
8.598381 0.8970 0.8950 0.8950 0.8950 0.8950
8.632000 0.8950 0.8950 0.8950 0.8950 0.8950
8.666381 0.8950 0.8950 0.8930 0.8930 0.8930
8.701000 0.8930 0.8930 0.8910 0.8910 0.8900
8.735381 0.8900 0.8900 0.8900 0.8900 0.8900
8.770000 0.8900 0.8900 0.8910 0.8910 0.8910
8.804381 0.8910 0.8910 0.8910 0.8910 0.8910
8.838000 0.8910 0.8900 0.8900 0.8880 0.8880
8.872381 0.8880 0.8880 0.8880 0.8880 0.8880
8.907000 0.8880 0.8880 0.8880 0.8880 0.8880
8.941381 0.8900 0.8910 0.8910 0.8910 0.8930
8.976000 0.8930 0.8930 0.8930 0.8930 0.8930
9.010381 0.8930 0.8930 0.8930 0.8930 0.8930
9.045000 0.8930 0.8930 0.8910 0.8910 0.8910
9.079381 0.8910 0.8910 0.8910 0.8910 0.8930
9.113000 0.8930 0.8930 0.8930 0.8930 0.8950
9.147381 0.8950 0.8950 0.8970 0.8970 0.8970
9.182000 0.8980 0.8980 0.8980 0.8980 0.8980
9.216381 0.8970 0.8970 0.8970 0.8970 0.8970
9.251000 0.8950 0.8950 0.8950 0.8950 0.8950
9.285381 0.8950 0.8950 0.8950 0.8930 0.8930
9.320000 0.8910 0.8880 0.8880 0.8860 0.8860
9.354381 0.8860 0.8860 0.8860 0.8850 0.8850
9.388000 0.8830 0.8810 0.8780 0.8740 0.8740
9.422381 0.8690 0.8690 0.8670 0.8640 0.8570
9.457000 0.8520 0.8430 0.8370 0.8280 0.8190
9.491381 0.8160 0.8070 0.7970 0.7970 0.7890
9.526000 0.7890 0.7850 0.7830 0.7780 0.7770
9.560381 0.7750 0.7700 0.7680 0.7610 0.7560
9.595000 0.7460 0.7350 0.7180 0.7100 0.6940
9.629381 0.6680 0.6480 0.6190 0.5880 0.5570
9.663000 0.5180 0.4800 0.4390 0.3910 0.3490
9.697381 0.3000 0.2690 0.2220 0.2070 0.1980
9.732000 0.1780 0.1780 0.2070 0.2410 0.4090
9.766381 0.4800 0.5280 0.5780 0.6460 0.6860
9.801000 0.7350 0.7660 0.7870 0.8020 0.8090
9.835381 0.8180 0.8260 0.8280 0.8350 0.8380
9.869000 0.8430 0.8450 0.8470 0.8490 0.8490
9.903381 0.8540 0.8540 0.8570 0.8590 0.8640
9.938000 0.8670 0.8690 0.8730 0.8740 0.8740
9.972381 0.8740 0.8760 0.8760 0.8780 0.8780
10.007000 0.8780 0.8780 0.8760 0.8760 0.8740
10.041381 0.8740 0.8740 0.8740 0.8690 0.8690
10.076000 0.8660 0.8640 0.8590 0.8570 0.8490
10.110381 0.8450 0.8380 0.8280 0.8250 0.8160
10.144000 0.8060 0.7950 0.7850 0.7770 0.7650
10.178381 0.7470 0.7280 0.7080 0.6940 0.6740
10.213000 0.6550 0.6380 0.6190 0.6050 0.5900
10.247381 0.5790 0.5780 0.5740 0.5710 0.5710
10.282000 0.5780 0.5860 0.5960 0.6080 0.6190
10.316381 0.6290 0.6460 0.6580 0.6680 0.6790
10.351000 0.6960 0.6980 0.7100 0.7160 0.7250
10.385381 0.7350 0.7490 0.7630 0.7680 0.7770
10.419000 0.7820 0.7870 0.7940 0.7950 0.8130
10.453381 0.8160 0.8260 0.8330 0.8370 0.8380
10.488000 0.8450 0.8470 0.8550 0.8570 0.8640
10.522381 0.8670 0.8710 0.8730 0.8730 0.8730
10.557000 0.8740 0.8740 0.8760 0.8760 0.8780
10.591381 0.8780 0.8790 0.8790 0.8790 0.8810
10.625000 0.8810 0.8830 0.8830 0.8830 0.8830
10.659381 0.8830 0.8850 0.8850 0.8860 0.8860
10.694000 0.8900 0.8900 0.8900 0.8910 0.8910
10.728381 0.8910 0.8910 0.8910 0.8930 0.8930
10.763000 0.8930 0.8950 0.8950 0.8950 0.8950
10.797381 0.8950 0.8950 0.8950 0.8950 0.8950
10.832000 0.8950 0.8950 0.8950 0.8950 0.8950
10.866381 0.8950 0.8950 0.8950 0.8950 0.8950
10.900000 0.8950 0.8950 0.8950 0.8950 0.8950
10.934381 0.8930 0.8930 0.8930 0.8910 0.8910
10.969000 0.8910 0.8910 0.8900 0.8900 0.8880
11.003381 0.8880 0.8880 0.8880 0.8880 0.8880
11.038000 0.8900 0.8900 0.8900 0.8900 0.8900
11.072381 0.8880 0.8860 0.8860 0.8850 0.8850
11.107000 0.8850 0.8830 0.8830 0.8810 0.8810
11.141381 0.8780 0.8740 0.8730 0.8730 0.8710
11.175000 0.8710 0.8710 0.8690 0.8660 0.8640
11.209381 0.8610 0.8610 0.8570 0.8540 0.8520
11.244000 0.8470 0.8450 0.8430 0.8380 0.8350
11.278381 0.8330 0.8280 0.8250 0.8230 0.8230
11.313000 0.8180 0.8140 0.8130 0.8070 0.8060
11.347381 0.8010 0.7950 0.7950 0.7940 0.7900
11.381000 0.7890 0.7870 0.7830 0.7750 0.7730
11.415381 0.7730 0.7680 0.7650 0.7630 0.7580
11.450000 0.7540 0.7530 0.7470 0.7470 0.7440
11.484381 0.7440 0.7420 0.7370 0.7350 0.7340
11.519000 0.7320 0.7280 0.7270 0.7230 0.7230
11.553381 0.7220 0.7220 0.7180 0.7160 0.7160
11.588000 0.7150 0.7130 0.7100 0.7100 0.7080
11.622381 0.7080 0.7080 0.7060 0.7040 0.7040
11.656000 0.7040 0.7040 0.7040 0.7040 0.7040
11.690381 0.7040 0.7040 0.7040 0.7060 0.7080
11.725000 0.7130 0.7150 0.7160 0.7230 0.7250
11.759381 0.7270 0.7350 0.7370 0.7420 0.7470
11.794000 0.7560 0.7630 0.7660 0.7730 0.7750
11.828381 0.7770 0.7830 0.7870 0.7940 0.7950
11.863000 0.7950 0.8010 0.8040 0.8070 0.8130
11.897381 0.8140 0.8160 0.8180 0.8230 0.8230
11.931000 0.8250 0.8260 0.8260 0.8280 0.8280
11.965381 0.8280 0.8300 0.8310 0.8330 0.8330
12.000000 0.8330 0.8330 0.8330 0.8310 0.8310
12.034381 0.8300 0.8300 0.8280 0.8260 0.8250
12.069000 0.8250 0.8230 0.8230 0.8230 0.8210
12.103381 0.8180 0.8160 0.8140 0.8130 0.8110
12.137000 0.8070 0.8040 0.8020 0.8010 0.7950
12.171381 0.7950 0.7940 0.7900 0.7870 0.7800
12.206000 0.7750 0.7710 0.7660 0.7660 0.7630
12.240381 0.7560 0.7540 0.7470 0.7470 0.7440
12.275000 0.7420 0.7370 0.7340 0.7270 0.7230
12.309381 0.7160 0.7150 0.7130 0.7060 0.6960
12.344000 0.6940 0.6860 0.6770 0.6680 0.6650
12.378381 0.6560 0.6460 0.6430 0.6270 0.6220
12.412000 0.6120 0.6000 0.5950 0.5860 0.5760
12.446381 0.5590 0.5480 0.5360 0.5190 0.5040
12.481000 0.4900 0.4800 0.4590 0.4400 0.4270
12.515381 0.3990 0.3770 0.3580 0.3310 0.2980
12.550000 0.2720 0.2500 0.2220 0.2000 0.1780
12.584381 0.1680 0.1280 0.1010 0.0780 0.0540
12.619000 0.0390 0.0320 0.0240 0.0130 0.0100
12.653381 0.0030 0.0010 0.0000 0.0000 0.0000
12.687000 0.0000 0.0000 0.0000 0.0000 0.0000
12.721381 0.0000 0.0000 0.0000 0.0000 0.0000
12.756000 0.0000 0.0000 0.0000 0.0000 0.0000
12.790381 0.0000 0.0000 0.0000 0.0000 0.0000
12.825000 0.0000 0.0000 0.0000 0.0000 0.0010
12.859381 0.0030 0.0080 0.0120 0.0180 0.0240
12.893000 0.0320 0.0420 0.0510 0.0610 0.0680
12.927381 0.0820 0.0990 0.1110 0.1230 0.1380
12.962000 0.1500 0.1620 0.1800 0.1900 0.1980
12.996381 0.2070 0.2240 0.2290 0.2410 0.2520
13.031000 0.2590 0.2650 0.2720 0.2790 0.2830
13.065381 0.2910 0.3000 0.3010 0.3100 0.3190
13.100000 0.3220 0.3310 0.3390 0.3430 0.3510
13.134381 0.3610 0.3720 0.3800 0.3910 0.3990
13.168000 0.4110 0.4200 0.4300 0.4370 0.4450
13.202381 0.4590 0.4680 0.4760 0.4830 0.4880
13.237000 0.4950 0.4970 0.5060 0.5120 0.5140
13.271381 0.5180 0.5240 0.5260 0.5280 0.5280
13.306000 0.5310 0.5330 0.5330 0.5330 0.5330
13.340381 0.5350 0.5360 0.5380 0.5420 0.5430
13.375000 0.5430 0.5470 0.5500 0.5540 0.5550
13.409381 0.5570 0.5640 0.5660 0.5720 0.5760
13.443000 0.5830 0.5860 0.5930 0.5950 0.6070
13.477381 0.6150 0.6220 0.6260 0.6360 0.6460
13.512000 0.6560 0.6650 0.6750 0.6840 0.6940
13.546381 0.7040 0.7130 0.7220 0.7250 0.7350
13.581000 0.7400 0.7490 0.7610 0.7660 0.7730
13.615381 0.7800 0.7830 0.7850 0.7920 0.7940
13.649000 0.7950 0.8040 0.8110 0.8130 0.8160
13.683381 0.8210 0.8210 0.8250 0.8260 0.8300
13.718000 0.8310 0.8330 0.8370 0.8400 0.8400
13.752381 0.8420 0.8420 0.8430 0.8450 0.8450
13.787000 0.8490 0.8500 0.8500 0.8500 0.8500
13.821381 0.8500 0.8520 0.8520 0.8520 0.8540
13.856000 0.8540 0.8540 0.8540 0.8550 0.8550
13.890381 0.8550 0.8550 0.8550 0.8550 0.8550
13.924000 0.8550 0.8550 0.8550 0.8550 0.8540
13.958381 0.8540 0.8540 0.8540 0.8540 0.8550
13.993000 0.8550 0.8550 0.8540 0.8540 0.8540
14.027381 0.8540 0.8520 0.8520 0.8520 0.8520
14.062000 0.8520 0.8540 0.8540 0.8540 0.8540
14.096381 0.8540 0.8540 0.8540 0.8540 0.8540
14.131000 0.8550 0.8550 0.8550 0.8550 0.8550
14.165381 0.8550 0.8550 0.8550 0.8570 0.8570
14.199000 0.8570 0.8550 0.8550 0.8550 0.8550
14.233381 0.8540 0.8540 0.8540 0.8540 0.8540
14.268000 0.8540 0.8540 0.8540 0.8540 0.8540
14.302381 0.8540 0.8520 0.8520 0.8500 0.8500
14.337000 0.8500 0.8500 0.8500 0.8500 0.8500
14.371381 0.8500 0.8490 0.8490 0.8470 0.8490
14.405000 0.8470 0.8470 0.8470 0.8450 0.8450
14.439381 0.8430 0.8430 0.8430 0.8430 0.8430
14.474000 0.8430 0.8420 0.8420 0.8420 0.8420
14.508381 0.8420 0.8420 0.8420 0.8420 0.8420
14.543000 0.8420 0.8420 0.8420 0.8420 0.8420
14.577381 0.8420 0.8420 0.8420 0.8420 0.8400
14.612000 0.8400 0.8400 0.8400 0.8380 0.8380
14.646381 0.8370 0.8370 0.8370 0.8350 0.8350
14.680000 0.8330 0.8330 0.8330 0.8310 0.8310
14.714381 0.8310 0.8310 0.8310 0.8310 0.8300
14.749000 0.8300 0.8260 0.8260 0.8260 0.8250
14.783381 0.8250 0.8250 0.8250 0.8250 0.8250
14.818000 0.8230 0.8230 0.8210 0.8210 0.8190
14.852381 0.8160 0.8160 0.8130 0.8110 0.8060
14.887000 0.8060 0.8040 0.8040 0.8020 0.8020
14.921381 0.8020 0.8020 0.8020 0.8020 0.8020
14.955000 0.8020 0.8020 0.8020 0.8020 0.8010
14.989381 0.8010 0.8010 0.8010 0.8010 0.7990
15.024000 0.7970 0.7950 0.7940 0.7900 0.7900
15.058381 0.7890 0.7890 0.7870 0.7850 0.7830
15.093000 0.7820 0.7820 0.7770 0.7770 0.7750
15.127381 0.7730 0.7710 0.7710 0.7710 0.7660
15.162000 0.7660 0.7650 0.7650 0.7630 0.7610
15.196381 0.7590 0.7560 0.7560 0.7560 0.7540
15.230000 0.7530 0.7530 0.7510 0.7470 0.7460
15.264381 0.7460 0.7440 0.7440 0.7420 0.7420
15.299000 0.7400 0.7370 0.7370 0.7350 0.7350
15.333381 0.7340 0.7340 0.7320 0.7320 0.7320
15.368000 0.7300 0.7280 0.7280 0.7270 0.7270
15.402381 0.7270 0.7270 0.7270 0.7250 0.7250
15.436000 0.7250 0.7250 0.7250 0.7250 0.7250
15.470381 0.7250 0.7250 0.7250 0.7250 0.7250
15.505000 0.7250 0.7250 0.7250 0.7250 0.7250
15.539381 0.7250 0.7250 0.7250 0.7250 0.7270
15.574000 0.7270 0.7270 0.7280 0.7270 0.7270
15.608381 0.7270 0.7270 0.7270 0.7270 0.7270
15.643000 0.7270 0.7270 0.7270 0.7270 0.7270
15.677381 0.7270 0.7270 0.7270 0.7270 0.7270
15.711000 0.7270 0.7270 0.7270 0.7270 0.7270
15.745381 0.7270 0.7280 0.7280 0.7280 0.7280
15.780000 0.7280 0.7280 0.7280 0.7280 0.7270
15.814381 0.7270 0.7280 0.7280 0.7280 0.7270
15.849000 0.7270 0.7270 0.7270 0.7270 0.7270
15.883381 0.7270 0.7270 0.7270 0.7270 0.7250
15.918000 0.7250
##END=
