##TITLE=4,5-Oxazoledione, 2-phenyl-, 4-phenylhydrazone
##JCAMP-DX=4.24
##DATA TYPE=INFRARED SPECTRUM
##CLASS=COBLENTZ
##ORIGIN=ABBOTT LABORATORIES
##OWNER=Copyright (C) 1987 by the Coblentz Society
Collection (C) 2018 copyright by the U.S. Secretary of Commerce
on behalf of the United States of America. All rights reserved.
##DATE=1963/10/21
##NAMES=(4E)-2-phenyl-1,3-oxazole-4,5-dione 4-(phenylhydrazone)
##CAS REGISTRY NO=54506-04-6
##MOLFORM=C15 H11 N3 O2
##MP=207-208 C
$$ SPECTRAL FEATURE AT 1000 CM^-^1 IS PROBABLY AN ARTIFACT CAUSED BY FILTER CHANGE
##SOURCE REFERENCE=COBLENTZ NO. 5245
##$NIST SOURCE=COBLENTZ
##$NIST IMAGE=cob5245
##SPECTROMETER/DATA SYSTEM=PERKIN-ELMER 21 (GRATING)
$$ INACTIVE (CHCl3) AROUND 1200-1250
##INSTRUMENT PARAMETERS=FILTER AT ABOUT 10 MICRONS
##STATE=SOLUTION 2% (CHCl3 FOR 2.5-12.5 microns)
##PATH LENGTH=0.03 CM
##RESOLUTION=2
##XUNITS=1/CM
##YUNITS=TRANSMITTANCE
##XFACTOR=1.0
##YFACTOR=1
##FIRSTX=804
##LASTX=4000
##FIRSTY=0.6826
##MAXX=4000
##MINX=804
##MAXY=0.8863
##MINY=0.0207
##NPOINTS=3197
##XYDATA=(X++(Y..Y))
804.000000 0.6826 0.6816 0.6805 0.6793 0.6783
809.000000 0.6771 0.6760 0.6748 0.6738 0.6732
814.000000 0.6728 0.6723 0.6719 0.6715 0.6713
819.000000 0.6713 0.6714 0.6718 0.6735 0.6763
824.000000 0.6814 0.6881 0.6952 0.7029 0.7107
829.000000 0.7199 0.7265 0.7277 0.7274 0.7265
834.000000 0.7257 0.7234 0.7186 0.7126 0.7059
839.000000 0.6993 0.6898 0.6797 0.6678 0.6559
844.000000 0.6394 0.6180 0.6008 0.5810 0.5591
849.000000 0.5310 0.5023 0.4738 0.4453 0.4169
854.000000 0.3885 0.3602 0.3320 0.3038 0.2754
859.000000 0.2489 0.2244 0.1972 0.1648 0.1387
864.000000 0.1154 0.0964 0.0844 0.0791 0.0786
869.000000 0.0820 0.0917 0.1076 0.1267 0.1571
874.000000 0.1882 0.2426 0.3119 0.3810 0.4446
879.000000 0.4715 0.5042 0.5572 0.5922 0.6135
884.000000 0.6297 0.6387 0.6414 0.6395 0.6352
889.000000 0.6274 0.6177 0.6097 0.6073 0.6191
894.000000 0.6344 0.6606 0.6867 0.7136 0.7335
899.000000 0.7389 0.7427 0.7443 0.7455 0.7463
904.000000 0.7462 0.7461 0.7461 0.7381 0.7317
909.000000 0.7250 0.7147 0.7012 0.6851 0.6561
914.000000 0.6190 0.5818 0.5448 0.5105 0.4843
919.000000 0.4697 0.4715 0.4891 0.5353 0.5814
924.000000 0.6273 0.6699 0.6911 0.7107 0.7239
929.000000 0.7362 0.7475 0.7562 0.7635 0.7683
934.000000 0.7728 0.7744 0.7758 0.7771 0.7785
939.000000 0.7805 0.7845 0.7876 0.7887 0.7899
944.000000 0.7904 0.7897 0.7900 0.7890 0.7880
949.000000 0.7862 0.7837 0.7799 0.7760 0.7711
954.000000 0.7655 0.7592 0.7510 0.7413 0.7308
959.000000 0.7203 0.7091 0.6979 0.6864 0.6747
964.000000 0.6598 0.6447 0.6272 0.6053 0.5828
969.000000 0.5594 0.5366 0.5128 0.4839 0.4330
974.000000 0.3821 0.3313 0.2835 0.2553 0.2317
979.000000 0.2104 0.2033 0.2046 0.2085 0.2154
984.000000 0.2275 0.2393 0.2503 0.2609 0.2741
989.000000 0.3007 0.3446 0.3751 0.4058 0.4364
994.000000 0.4670 0.4955 0.5007 0.5003 0.4911
999.000000 0.4803 0.4729 0.4996 0.6283 0.6993
1004.000000 0.7126 0.7259 0.7381 0.7483 0.7564
1009.000000 0.7619 0.7650 0.7666 0.7678 0.7679
1014.000000 0.7678 0.7693 0.7656 0.7642 0.7620
1019.000000 0.7592 0.7557 0.7521 0.7483 0.7451
1024.000000 0.7432 0.7464 0.7497 0.7535 0.7557
1029.000000 0.7575 0.7580 0.7568 0.7551 0.7524
1034.000000 0.7491 0.7449 0.7409 0.7376 0.7351
1039.000000 0.7332 0.7323 0.7291 0.7232 0.7162
1044.000000 0.7090 0.7028 0.6971 0.6913 0.6857
1049.000000 0.6802 0.6746 0.6698 0.6666 0.6665
1054.000000 0.6664 0.6664 0.6666 0.6656 0.6599
1059.000000 0.6528 0.6448 0.6344 0.6055 0.5751
1064.000000 0.5486 0.5198 0.4934 0.4678 0.4038
1069.000000 0.3479 0.3396 0.3628 0.3983 0.4337
1074.000000 0.4691 0.5044 0.5397 0.5749 0.6100
1079.000000 0.6356 0.6353 0.6351 0.6312 0.6276
1084.000000 0.6223 0.6155 0.6026 0.5853 0.5702
1089.000000 0.5433 0.4848 0.4286 0.3726 0.3167
1094.000000 0.2950 0.2999 0.3211 0.3428 0.3642
1099.000000 0.3848 0.3884 0.3765 0.3301 0.2838
1104.000000 0.2412 0.2256 0.2178 0.2143 0.2163
1109.000000 0.2162 0.2334 0.2891 0.3474 0.4054
1114.000000 0.4635 0.5215 0.5793 0.6348 0.6525
1119.000000 0.6711 0.6840 0.6923 0.6948 0.6933
1124.000000 0.6945 0.6937 0.6907 0.6869 0.6835
1129.000000 0.6782 0.6723 0.6659 0.6587 0.6509
1134.000000 0.6431 0.6356 0.6292 0.6279 0.6265
1139.000000 0.6252 0.6248 0.6244 0.6241 0.6242
1144.000000 0.6244 0.6232 0.6193 0.6139 0.6091
1149.000000 0.6058 0.6031 0.6005 0.5992 0.5983
1154.000000 0.5973 0.5964 0.5957 0.5954 0.5950
1159.000000 0.5931 0.5817 0.5683 0.5595 0.5509
1164.000000 0.5385 0.5030 0.4263 0.3497 0.2860
1169.000000 0.2804 0.2808 0.2894 0.2981 0.3069
1174.000000 0.3156 0.3224 0.3250 0.3276 0.3301
1179.000000 0.3324 0.3334 0.3320 0.3300 0.3255
1184.000000 0.3050 0.2815 0.2671 0.2575 0.2528
1189.000000 0.2478 0.2426 0.2400 0.2376 0.2351
1194.000000 0.2328 0.2303 0.2280 0.2256 0.2232
1199.000000 0.2208 0.2184 0.2161 0.2137 0.2113
1204.000000 0.2090 0.2066 0.2043 0.2019 0.1996
1209.000000 0.1972 0.1949 0.1926 0.1902 0.1880
1214.000000 0.1856 0.1833 0.1809 0.1787 0.1764
1219.000000 0.1741 0.1718 0.1695 0.1672 0.1649
1224.000000 0.1626 0.1603 0.1581 0.1558 0.1535
1229.000000 0.1513 0.1490 0.1465 0.1441 0.1421
1234.000000 0.1409 0.1400 0.1396 0.1399 0.1403
1239.000000 0.1414 0.1434 0.1466 0.1513 0.1567
1244.000000 0.1622 0.1677 0.1734 0.1877 0.2096
1249.000000 0.2315 0.2533 0.2751 0.2968 0.3186
1254.000000 0.3403 0.3619 0.3835 0.4051 0.4267
1259.000000 0.4451 0.4542 0.4548 0.4560 0.4525
1264.000000 0.4500 0.4428 0.4333 0.4207 0.4027
1269.000000 0.3592 0.3102 0.2611 0.2123 0.1656
1274.000000 0.1484 0.1435 0.1420 0.1428 0.1452
1279.000000 0.1555 0.1663 0.1770 0.1877 0.1984
1284.000000 0.2092 0.2195 0.2231 0.2234 0.2233
1289.000000 0.2167 0.2088 0.2010 0.1941 0.1949
1294.000000 0.1963 0.1935 0.2030 0.2110 0.2175
1299.000000 0.2245 0.2343 0.2491 0.2901 0.3108
1304.000000 0.3292 0.3597 0.3916 0.4191 0.4213
1309.000000 0.4218 0.4099 0.3995 0.3891 0.3787
1314.000000 0.3712 0.3708 0.3743 0.3905 0.4018
1319.000000 0.4095 0.4107 0.3821 0.3254 0.2686
1324.000000 0.2120 0.1555 0.1049 0.0878 0.0817
1329.000000 0.0787 0.0814 0.1064 0.1625 0.2194
1334.000000 0.2762 0.3329 0.3895 0.4461 0.5026
1339.000000 0.5590 0.6108 0.6372 0.6422 0.6444
1344.000000 0.6636 0.6820 0.7039 0.7185 0.7285
1349.000000 0.7341 0.7394 0.7436 0.7453 0.7469
1354.000000 0.7484 0.7500 0.7514 0.7523 0.7534
1359.000000 0.7544 0.7554 0.7561 0.7566 0.7571
1364.000000 0.7576 0.7580 0.7584 0.7586 0.7586
1369.000000 0.7587 0.7588 0.7589 0.7589 0.7587
1374.000000 0.7586 0.7585 0.7583 0.7582 0.7581
1379.000000 0.7577 0.7572 0.7567 0.7561 0.7556
1384.000000 0.7551 0.7546 0.7560 0.7544 0.7543
1389.000000 0.7549 0.7558 0.7566 0.7581 0.7599
1394.000000 0.7616 0.7638 0.7661 0.7681 0.7699
1399.000000 0.7717 0.7724 0.7728 0.7731 0.7731
1404.000000 0.7730 0.7728 0.7727 0.7723 0.7721
1409.000000 0.7718 0.7715 0.7714 0.7715 0.7715
1414.000000 0.7716 0.7718 0.7721 0.7724 0.7726
1419.000000 0.7729 0.7733 0.7735 0.7728 0.7708
1424.000000 0.7683 0.7658 0.7632 0.7604 0.7576
1429.000000 0.7547 0.7504 0.7445 0.7385 0.7325
1434.000000 0.7265 0.7205 0.7123 0.7012 0.6895
1439.000000 0.6854 0.6829 0.6786 0.6557 0.6165
1444.000000 0.5772 0.5380 0.4989 0.4598 0.4208
1449.000000 0.3819 0.3430 0.3041 0.2721 0.2704
1454.000000 0.3452 0.4788 0.6123 0.7326 0.7535
1459.000000 0.7555 0.7563 0.7564 0.7534 0.7557
1464.000000 0.7546 0.7529 0.7488 0.7434 0.7379
1469.000000 0.7139 0.6895 0.6651 0.6407 0.6163
1474.000000 0.5920 0.5678 0.5430 0.5224 0.5140
1479.000000 0.5062 0.4990 0.4920 0.4848 0.4773
1484.000000 0.4683 0.4592 0.4498 0.4390 0.4274
1489.000000 0.4055 0.3615 0.3136 0.2659 0.2188
1494.000000 0.1995 0.1990 0.2118 0.2309 0.2504
1499.000000 0.2699 0.2895 0.3089 0.3283 0.3373
1504.000000 0.3359 0.3088 0.2753 0.2417 0.2082
1509.000000 0.1778 0.1614 0.1565 0.1539 0.1524
1514.000000 0.1516 0.1508 0.1526 0.1540 0.1574
1519.000000 0.1617 0.1661 0.1706 0.1751 0.1792
1524.000000 0.1830 0.1864 0.1891 0.1906 0.1913
1529.000000 0.1918 0.1924 0.1931 0.1963 0.2011
1534.000000 0.2107 0.2302 0.2590 0.2938 0.3286
1539.000000 0.3633 0.3979 0.4325 0.4670 0.5015
1544.000000 0.5360 0.5704 0.6048 0.6292 0.6326
1549.000000 0.6353 0.6372 0.6374 0.6375 0.6376
1554.000000 0.6402 0.6370 0.6363 0.6349 0.6335
1559.000000 0.6316 0.6278 0.6215 0.6140 0.6068
1564.000000 0.5999 0.5941 0.5891 0.5847 0.5809
1569.000000 0.5768 0.5724 0.5663 0.5390 0.5014
1574.000000 0.4639 0.4264 0.3890 0.3516 0.3143
1579.000000 0.2770 0.2397 0.2026 0.1654 0.1283
1584.000000 0.1136 0.1119 0.1134 0.1339 0.1625
1589.000000 0.1914 0.2203 0.2491 0.2779 0.2954
1594.000000 0.2974 0.2970 0.2710 0.2293 0.1877
1599.000000 0.1461 0.1045 0.0630 0.0335 0.0248
1604.000000 0.0249 0.0294 0.0463 0.0738 0.1013
1609.000000 0.1288 0.1562 0.1835 0.2091 0.2219
1614.000000 0.2221 0.2240 0.2217 0.2140 0.1993
1619.000000 0.1842 0.1691 0.1540 0.1389 0.1238
1624.000000 0.1088 0.0938 0.0788 0.0638 0.0525
1629.000000 0.0464 0.0393 0.0329 0.0289 0.0291
1634.000000 0.0296 0.0303 0.0279 0.0357 0.0459
1639.000000 0.0570 0.0844 0.1204 0.1565 0.1924
1644.000000 0.2282 0.2641 0.2999 0.3357 0.3714
1649.000000 0.4071 0.4393 0.4546 0.4615 0.4647
1654.000000 0.4667 0.4686 0.4770 0.4973 0.5200
1659.000000 0.5428 0.5655 0.5880 0.6107 0.6265
1664.000000 0.6469 0.6599 0.6639 0.6674 0.6699
1669.000000 0.6730 0.6822 0.6947 0.7031 0.7083
1674.000000 0.7127 0.7172 0.7212 0.7244 0.7276
1679.000000 0.7308 0.7328 0.7340 0.7351 0.7363
1684.000000 0.7374 0.7385 0.7397 0.7413 0.7433
1689.000000 0.7459 0.7484 0.7501 0.7513 0.7529
1694.000000 0.7529 0.7529 0.7523 0.7515 0.7508
1699.000000 0.7500 0.7488 0.7473 0.7456 0.7435
1704.000000 0.7410 0.7384 0.7357 0.7328 0.7300
1709.000000 0.7271 0.7242 0.7197 0.7152 0.7101
1714.000000 0.7046 0.6983 0.6899 0.6803 0.6736
1719.000000 0.6678 0.6622 0.6579 0.6554 0.6533
1724.000000 0.6518 0.6507 0.6489 0.6428 0.6341
1729.000000 0.6295 0.6261 0.6229 0.6207 0.6191
1734.000000 0.6175 0.6160 0.6151 0.6150 0.6148
1739.000000 0.6147 0.6147 0.6149 0.6153 0.6157
1744.000000 0.6161 0.6167 0.6174 0.6182 0.6190
1749.000000 0.6201 0.6215 0.6230 0.6244 0.6257
1754.000000 0.6262 0.6262 0.6259 0.6256 0.6252
1759.000000 0.6248 0.6244 0.6240 0.6234 0.6223
1764.000000 0.6209 0.6194 0.6180 0.6163 0.6136
1769.000000 0.6110 0.6083 0.6050 0.6006 0.5950
1774.000000 0.5811 0.5665 0.5470 0.5211 0.4952
1779.000000 0.4693 0.4434 0.4175 0.3917 0.3659
1784.000000 0.3401 0.3143 0.2886 0.2630 0.2373
1789.000000 0.2117 0.1861 0.1605 0.1350 0.1095
1794.000000 0.0840 0.0631 0.0519 0.0431 0.0351
1799.000000 0.0296 0.0270 0.0256 0.0207 0.0238
1804.000000 0.0237 0.0236 0.0240 0.0244 0.0250
1809.000000 0.0262 0.0299 0.0343 0.0409 0.0505
1814.000000 0.0623 0.0738 0.0903 0.1128 0.1353
1819.000000 0.1577 0.1801 0.2025 0.2248 0.2472
1824.000000 0.2695 0.2918 0.3140 0.3363 0.3585
1829.000000 0.3807 0.4028 0.4249 0.4471 0.4692
1834.000000 0.4913 0.5065 0.5153 0.5187 0.5254
1839.000000 0.5291 0.5319 0.5348 0.5369 0.5385
1844.000000 0.5398 0.5412 0.5426 0.5441 0.5458
1849.000000 0.5474 0.5489 0.5506 0.5525 0.5546
1854.000000 0.5566 0.5587 0.5607 0.5629 0.5662
1859.000000 0.5701 0.5740 0.5809 0.6042 0.6406
1864.000000 0.6520 0.6639 0.6752 0.6844 0.6906
1869.000000 0.6965 0.7023 0.7072 0.7117 0.7160
1874.000000 0.7204 0.7247 0.7311 0.7393 0.7487
1879.000000 0.7563 0.7628 0.7685 0.7742 0.7843
1884.000000 0.7988 0.8026 0.8063 0.8097 0.8120
1889.000000 0.8141 0.8159 0.8171 0.8174 0.8177
1894.000000 0.8180 0.8182 0.8185 0.8188 0.8191
1899.000000 0.8193 0.8195 0.8196 0.8198 0.8200
1904.000000 0.8201 0.8203 0.8204 0.8198 0.8194
1909.000000 0.8190 0.8186 0.8183 0.8182 0.8180
1914.000000 0.8180 0.8178 0.8178 0.8179 0.8183
1919.000000 0.8187 0.8192 0.8196 0.8200 0.8203
1924.000000 0.8204 0.8205 0.8206 0.8207 0.8208
1929.000000 0.8209 0.8210 0.8209 0.8207 0.8205
1934.000000 0.8204 0.8202 0.8200 0.8199 0.8197
1939.000000 0.8195 0.8192 0.8189 0.8187 0.8184
1944.000000 0.8182 0.8179 0.8176 0.8174 0.8171
1949.000000 0.8168 0.8166 0.8163 0.8160 0.8155
1954.000000 0.8151 0.8147 0.8143 0.8139 0.8134
1959.000000 0.8130 0.8125 0.8119 0.8113 0.8107
1964.000000 0.8101 0.8099 0.8096 0.8093 0.8091
1969.000000 0.8092 0.8097 0.8103 0.8109 0.8115
1974.000000 0.8120 0.8126 0.8132 0.8143 0.8156
1979.000000 0.8174 0.8192 0.8210 0.8222 0.8235
1984.000000 0.8248 0.8261 0.8273 0.8287 0.8300
1989.000000 0.8312 0.8325 0.8338 0.8351 0.8365
1994.000000 0.8379 0.8394 0.8409 0.8423 0.8438
1999.000000 0.8455 0.8476 0.8498 0.8520 0.8542
2004.000000 0.8567 0.8593 0.8620 0.8640 0.8655
2009.000000 0.8661 0.8667 0.8673 0.8679 0.8684
2014.000000 0.8690 0.8696 0.8701 0.8705 0.8710
2019.000000 0.8715 0.8720 0.8724 0.8729 0.8733
2024.000000 0.8737 0.8742 0.8746 0.8751 0.8755
2029.000000 0.8760 0.8763 0.8767 0.8771 0.8774
2034.000000 0.8777 0.8780 0.8784 0.8788 0.8791
2039.000000 0.8795 0.8799 0.8802 0.8806 0.8809
2044.000000 0.8813 0.8816 0.8819 0.8822 0.8825
2049.000000 0.8828 0.8830 0.8833 0.8836 0.8839
2054.000000 0.8842 0.8844 0.8846 0.8846 0.8844
2059.000000 0.8841 0.8838 0.8836 0.8833 0.8830
2064.000000 0.8827 0.8824 0.8821 0.8817 0.8814
2069.000000 0.8810 0.8807 0.8804 0.8801 0.8797
2074.000000 0.8794 0.8790 0.8787 0.8783 0.8780
2079.000000 0.8777 0.8773 0.8770 0.8767 0.8764
2084.000000 0.8762 0.8760 0.8758 0.8756 0.8754
2089.000000 0.8752 0.8750 0.8749 0.8749 0.8749
2094.000000 0.8749 0.8749 0.8749 0.8749 0.8749
2099.000000 0.8749 0.8750 0.8750 0.8750 0.8750
2104.000000 0.8750 0.8750 0.8750 0.8750 0.8749
2109.000000 0.8749 0.8749 0.8749 0.8748 0.8748
2114.000000 0.8748 0.8748 0.8747 0.8747 0.8747
2119.000000 0.8746 0.8746 0.8745 0.8745 0.8745
2124.000000 0.8745 0.8745 0.8745 0.8745 0.8745
2129.000000 0.8745 0.8744 0.8744 0.8744 0.8744
2134.000000 0.8744 0.8744 0.8744 0.8744 0.8744
2139.000000 0.8744 0.8744 0.8744 0.8744 0.8744
2144.000000 0.8744 0.8744 0.8744 0.8744 0.8743
2149.000000 0.8743 0.8743 0.8743 0.8742 0.8742
2154.000000 0.8742 0.8742 0.8742 0.8742 0.8741
2159.000000 0.8741 0.8741 0.8740 0.8740 0.8740
2164.000000 0.8740 0.8740 0.8740 0.8739 0.8739
2169.000000 0.8739 0.8739 0.8738 0.8738 0.8738
2174.000000 0.8738 0.8738 0.8737 0.8737 0.8737
2179.000000 0.8737 0.8736 0.8736 0.8736 0.8736
2184.000000 0.8736 0.8736 0.8737 0.8737 0.8738
2189.000000 0.8738 0.8739 0.8739 0.8739 0.8740
2194.000000 0.8740 0.8741 0.8741 0.8742 0.8742
2199.000000 0.8742 0.8742 0.8743 0.8743 0.8744
2204.000000 0.8744 0.8744 0.8744 0.8745 0.8746
2209.000000 0.8747 0.8748 0.8749 0.8751 0.8752
2214.000000 0.8754 0.8755 0.8757 0.8759 0.8760
2219.000000 0.8765 0.8772 0.8779 0.8786 0.8793
2224.000000 0.8800 0.8807 0.8814 0.8821 0.8828
2229.000000 0.8826 0.8838 0.8842 0.8846 0.8850
2234.000000 0.8855 0.8859 0.8863 0.8862 0.8860
2239.000000 0.8856 0.8852 0.8848 0.8843 0.8839
2244.000000 0.8835 0.8831 0.8826 0.8822 0.8817
2249.000000 0.8813 0.8809 0.8806 0.8803 0.8800
2254.000000 0.8797 0.8795 0.8792 0.8790 0.8787
2259.000000 0.8785 0.8782 0.8779 0.8777 0.8774
2264.000000 0.8772 0.8769 0.8767 0.8764 0.8761
2269.000000 0.8759 0.8756 0.8754 0.8751 0.8749
2274.000000 0.8746 0.8744 0.8742 0.8739 0.8737
2279.000000 0.8734 0.8732 0.8730 0.8727 0.8725
2284.000000 0.8722 0.8720 0.8718 0.8715 0.8712
2289.000000 0.8710 0.8707 0.8705 0.8704 0.8702
2294.000000 0.8700 0.8698 0.8696 0.8693 0.8691
2299.000000 0.8689 0.8687 0.8685 0.8684 0.8682
2304.000000 0.8680 0.8678 0.8676 0.8674 0.8672
2309.000000 0.8670 0.8669 0.8667 0.8665 0.8663
2314.000000 0.8661 0.8659 0.8658 0.8656 0.8655
2319.000000 0.8653 0.8651 0.8650 0.8648 0.8646
2324.000000 0.8645 0.8643 0.8642 0.8640 0.8638
2329.000000 0.8637 0.8635 0.8634 0.8633 0.8631
2334.000000 0.8629 0.8627 0.8626 0.8624 0.8623
2339.000000 0.8621 0.8620 0.8618 0.8617 0.8616
2344.000000 0.8614 0.8612 0.8610 0.8609 0.8608
2349.000000 0.8606 0.8605 0.8604 0.8602 0.8600
2354.000000 0.8599 0.8597 0.8596 0.8595 0.8593
2359.000000 0.8592 0.8590 0.8589 0.8587 0.8585
2364.000000 0.8584 0.8583 0.8581 0.8580 0.8578
2369.000000 0.8577 0.8574 0.8571 0.8568 0.8565
2374.000000 0.8561 0.8558 0.8554 0.8550 0.8547
2379.000000 0.8543 0.8540 0.8536 0.8533 0.8529
2384.000000 0.8526 0.8523 0.8520 0.8516 0.8513
2389.000000 0.8508 0.8504 0.8499 0.8494 0.8490
2394.000000 0.8485 0.8481 0.8477 0.8472 0.8468
2399.000000 0.8464 0.8461 0.8459 0.8458 0.8457
2404.000000 0.8455 0.8455 0.8454 0.8452 0.8451
2409.000000 0.8450 0.8449 0.8447 0.8446 0.8446
2414.000000 0.8444 0.8443 0.8442 0.8441 0.8440
2419.000000 0.8439 0.8438 0.8437 0.8436 0.8435
2424.000000 0.8434 0.8432 0.8432 0.8431 0.8430
2429.000000 0.8430 0.8429 0.8428 0.8427 0.8427
2434.000000 0.8426 0.8425 0.8424 0.8423 0.8422
2439.000000 0.8422 0.8421 0.8420 0.8419 0.8418
2444.000000 0.8417 0.8414 0.8411 0.8406 0.8401
2449.000000 0.8397 0.8392 0.8387 0.8382 0.8377
2454.000000 0.8373 0.8368 0.8364 0.8359 0.8354
2459.000000 0.8353 0.8353 0.8352 0.8351 0.8351
2464.000000 0.8350 0.8350 0.8349 0.8349 0.8349
2469.000000 0.8349 0.8349 0.8349 0.8350 0.8351
2474.000000 0.8352 0.8353 0.8369 0.8356 0.8357
2479.000000 0.8358 0.8358 0.8360 0.8361 0.8363
2484.000000 0.8368 0.8373 0.8380 0.8387 0.8395
2489.000000 0.8402 0.8409 0.8415 0.8420 0.8425
2494.000000 0.8429 0.8433 0.8438 0.8442 0.8447
2499.000000 0.8451 0.8456 0.8459 0.8463 0.8466
2504.000000 0.8469 0.8471 0.8474 0.8476 0.8479
2509.000000 0.8482 0.8484 0.8487 0.8490 0.8493
2514.000000 0.8495 0.8497 0.8500 0.8503 0.8506
2519.000000 0.8509 0.8512 0.8515 0.8518 0.8520
2524.000000 0.8524 0.8527 0.8530 0.8532 0.8535
2529.000000 0.8538 0.8541 0.8543 0.8547 0.8550
2534.000000 0.8553 0.8557 0.8560 0.8564 0.8567
2539.000000 0.8570 0.8573 0.8577 0.8580 0.8584
2544.000000 0.8587 0.8591 0.8594 0.8598 0.8601
2549.000000 0.8605 0.8608 0.8611 0.8615 0.8618
2554.000000 0.8621 0.8623 0.8626 0.8629 0.8632
2559.000000 0.8635 0.8638 0.8641 0.8644 0.8647
2564.000000 0.8649 0.8652 0.8655 0.8658 0.8661
2569.000000 0.8664 0.8667 0.8670 0.8672 0.8674
2574.000000 0.8675 0.8676 0.8675 0.8675 0.8674
2579.000000 0.8674 0.8673 0.8673 0.8672 0.8671
2584.000000 0.8670 0.8670 0.8669 0.8668 0.8667
2589.000000 0.8667 0.8667 0.8666 0.8666 0.8665
2594.000000 0.8664 0.8663 0.8663 0.8662 0.8661
2599.000000 0.8660 0.8658 0.8656 0.8654 0.8653
2604.000000 0.8651 0.8649 0.8647 0.8645 0.8643
2609.000000 0.8642 0.8640 0.8637 0.8635 0.8633
2614.000000 0.8631 0.8630 0.8628 0.8626 0.8624
2619.000000 0.8622 0.8620 0.8619 0.8617 0.8615
2624.000000 0.8613 0.8611 0.8609 0.8607 0.8605
2629.000000 0.8603 0.8603 0.8603 0.8603 0.8603
2634.000000 0.8603 0.8604 0.8604 0.8604 0.8605
2639.000000 0.8605 0.8606 0.8606 0.8606 0.8607
2644.000000 0.8607 0.8607 0.8608 0.8608 0.8608
2649.000000 0.8609 0.8610 0.8610 0.8611 0.8612
2654.000000 0.8613 0.8615 0.8617 0.8619 0.8621
2659.000000 0.8622 0.8624 0.8627 0.8629 0.8631
2664.000000 0.8633 0.8635 0.8637 0.8639 0.8640
2669.000000 0.8642 0.8645 0.8647 0.8649 0.8651
2674.000000 0.8653 0.8655 0.8656 0.8658 0.8660
2679.000000 0.8662 0.8663 0.8665 0.8667 0.8669
2684.000000 0.8670 0.8672 0.8674 0.8675 0.8677
2689.000000 0.8679 0.8681 0.8682 0.8684 0.8686
2694.000000 0.8688 0.8689 0.8691 0.8693 0.8694
2699.000000 0.8696 0.8698 0.8700 0.8701 0.8703
2704.000000 0.8703 0.8703 0.8704 0.8704 0.8704
2709.000000 0.8704 0.8704 0.8704 0.8704 0.8704
2714.000000 0.8704 0.8705 0.8705 0.8705 0.8705
2719.000000 0.8705 0.8705 0.8703 0.8702 0.8700
2724.000000 0.8698 0.8696 0.8693 0.8691 0.8688
2729.000000 0.8686 0.8684 0.8681 0.8679 0.8677
2734.000000 0.8675 0.8673 0.8671 0.8668 0.8666
2739.000000 0.8664 0.8661 0.8659 0.8657 0.8654
2744.000000 0.8652 0.8650 0.8647 0.8645 0.8643
2749.000000 0.8640 0.8638 0.8636 0.8634 0.8632
2754.000000 0.8631 0.8631 0.8631 0.8630 0.8629
2759.000000 0.8629 0.8628 0.8628 0.8628 0.8632
2764.000000 0.8627 0.8627 0.8626 0.8626 0.8626
2769.000000 0.8625 0.8625 0.8625 0.8624 0.8624
2774.000000 0.8624 0.8623 0.8623 0.8623 0.8623
2779.000000 0.8623 0.8623 0.8623 0.8623 0.8624
2784.000000 0.8625 0.8625 0.8625 0.8625 0.8626
2789.000000 0.8627 0.8627 0.8628 0.8628 0.8628
2794.000000 0.8629 0.8630 0.8630 0.8631 0.8631
2799.000000 0.8631 0.8632 0.8632 0.8633 0.8634
2804.000000 0.8636 0.8637 0.8639 0.8642 0.8645
2809.000000 0.8648 0.8650 0.8653 0.8655 0.8658
2814.000000 0.8661 0.8664 0.8666 0.8669 0.8672
2819.000000 0.8675 0.8678 0.8681 0.8683 0.8686
2824.000000 0.8689 0.8692 0.8695 0.8698 0.8700
2829.000000 0.8703 0.8706 0.8709 0.8712 0.8715
2834.000000 0.8718 0.8721 0.8724 0.8727 0.8729
2839.000000 0.8732 0.8734 0.8737 0.8738 0.8739
2844.000000 0.8740 0.8742 0.8743 0.8744 0.8745
2849.000000 0.8746 0.8747 0.8748 0.8749 0.8750
2854.000000 0.8752 0.8753 0.8754 0.8755 0.8756
2859.000000 0.8757 0.8758 0.8759 0.8760 0.8762
2864.000000 0.8763 0.8763 0.8764 0.8765 0.8765
2869.000000 0.8765 0.8765 0.8766 0.8766 0.8766
2874.000000 0.8767 0.8767 0.8768 0.8769 0.8769
2879.000000 0.8769 0.8769 0.8770 0.8770 0.8770
2884.000000 0.8770 0.8770 0.8770 0.8808 0.8769
2889.000000 0.8768 0.8768 0.8767 0.8766 0.8766
2894.000000 0.8765 0.8765 0.8764 0.8763 0.8763
2899.000000 0.8762 0.8762 0.8759 0.8756 0.8752
2904.000000 0.8749 0.8744 0.8739 0.8734 0.8730
2909.000000 0.8725 0.8720 0.8715 0.8710 0.8704
2914.000000 0.8699 0.8694 0.8688 0.8682 0.8677
2919.000000 0.8671 0.8665 0.8659 0.8653 0.8648
2924.000000 0.8642 0.8637 0.8631 0.8625 0.8619
2929.000000 0.8614 0.8608 0.8602 0.8596 0.8590
2934.000000 0.8583 0.8576 0.8568 0.8561 0.8553
2939.000000 0.8546 0.8538 0.8531 0.8524 0.8516
2944.000000 0.8509 0.8502 0.8494 0.8487 0.8479
2949.000000 0.8474 0.8468 0.8463 0.8457 0.8452
2954.000000 0.8446 0.8441 0.8436 0.8431 0.8425
2959.000000 0.8420 0.8415 0.8410 0.8405 0.8400
2964.000000 0.8395 0.8390 0.8384 0.8379 0.8374
2969.000000 0.8369 0.8364 0.8359 0.8354 0.8349
2974.000000 0.8344 0.8339 0.8333 0.8330 0.8326
2979.000000 0.8322 0.8319 0.8315 0.8312 0.8308
2984.000000 0.8305 0.8301 0.8298 0.8294 0.8291
2989.000000 0.8287 0.8284 0.8280 0.8277 0.8273
2994.000000 0.8270 0.8266 0.8263 0.8260 0.8256
2999.000000 0.8252 0.8249 0.8245 0.8242 0.8239
3004.000000 0.8235 0.8232 0.8229 0.8226 0.8224
3009.000000 0.8221 0.8219 0.8217 0.8215 0.8213
3014.000000 0.8211 0.8209 0.8207 0.8205 0.8203
3019.000000 0.8201 0.8199 0.8197 0.8195 0.8193
3024.000000 0.8192 0.8190 0.8188 0.8186 0.8185
3029.000000 0.8183 0.8182 0.8181 0.8180 0.8179
3034.000000 0.8177 0.8176 0.8175 0.8174 0.8173
3039.000000 0.8172 0.8171 0.8170 0.8169 0.8168
3044.000000 0.8167 0.8166 0.8164 0.8163 0.8162
3049.000000 0.8161 0.8160 0.8159 0.8158 0.8157
3054.000000 0.8156 0.8155 0.8154 0.8153 0.8152
3059.000000 0.8151 0.8124 0.8149 0.8148 0.8147
3064.000000 0.8147 0.8147 0.8148 0.8148 0.8149
3069.000000 0.8149 0.8150 0.8150 0.8151 0.8151
3074.000000 0.8152 0.8152 0.8153 0.8154 0.8154
3079.000000 0.8155 0.8155 0.8156 0.8156 0.8157
3084.000000 0.8158 0.8160 0.8161 0.8163 0.8165
3089.000000 0.8168 0.8170 0.8172 0.8175 0.8177
3094.000000 0.8179 0.8182 0.8185 0.8187 0.8190
3099.000000 0.8192 0.8194 0.8197 0.8199 0.8201
3104.000000 0.8204 0.8206 0.8208 0.8211 0.8213
3109.000000 0.8215 0.8218 0.8220 0.8223 0.8226
3114.000000 0.8230 0.8234 0.8239 0.8244 0.8248
3119.000000 0.8253 0.8257 0.8262 0.8267 0.8272
3124.000000 0.8277 0.8282 0.8286 0.8291 0.8296
3129.000000 0.8301 0.8305 0.8310 0.8315 0.8319
3134.000000 0.8325 0.8331 0.8337 0.8343 0.8349
3139.000000 0.8356 0.8362 0.8368 0.8375 0.8381
3144.000000 0.8387 0.8394 0.8400 0.8406 0.8412
3149.000000 0.8418 0.8424 0.8431 0.8437 0.8443
3154.000000 0.8449 0.8455 0.8461 0.8467 0.8472
3159.000000 0.8477 0.8482 0.8487 0.8492 0.8497
3164.000000 0.8502 0.8507 0.8512 0.8517 0.8522
3169.000000 0.8527 0.8532 0.8537 0.8542 0.8546
3174.000000 0.8548 0.8550 0.8553 0.8555 0.8556
3179.000000 0.8557 0.8558 0.8559 0.8560 0.8561
3184.000000 0.8562 0.8567 0.8564 0.8565 0.8566
3189.000000 0.8566 0.8565 0.8564 0.8563 0.8561
3194.000000 0.8559 0.8557 0.8555 0.8552 0.8551
3199.000000 0.8549 0.8547 0.8546 0.8544 0.8543
3204.000000 0.8541 0.8540 0.8538 0.8537 0.8535
3209.000000 0.8534 0.8532 0.8531 0.8529 0.8527
3214.000000 0.8526 0.8525 0.8523 0.8522 0.8521
3219.000000 0.8519 0.8518 0.8516 0.8515 0.8514
3224.000000 0.8513 0.8511 0.8510 0.8509 0.8507
3229.000000 0.8506 0.8504 0.8503 0.8502 0.8501
3234.000000 0.8500 0.8498 0.8496 0.8495 0.8493
3239.000000 0.8491 0.8490 0.8488 0.8486 0.8485
3244.000000 0.8483 0.8482 0.8481 0.8479 0.8477
3249.000000 0.8476 0.8474 0.8472 0.8471 0.8469
3254.000000 0.8467 0.8466 0.8464 0.8463 0.8461
3259.000000 0.8459 0.8458 0.8456 0.8454 0.8453
3264.000000 0.8451 0.8449 0.8448 0.8446 0.8444
3269.000000 0.8441 0.8437 0.8434 0.8430 0.8426
3274.000000 0.8421 0.8417 0.8412 0.8407 0.8403
3279.000000 0.8398 0.8393 0.8389 0.8384 0.8379
3284.000000 0.8375 0.8370 0.8366 0.8361 0.8357
3289.000000 0.8353 0.8347 0.8340 0.8333 0.8326
3294.000000 0.8319 0.8312 0.8305 0.8298 0.8291
3299.000000 0.8283 0.8276 0.8269 0.8261 0.8254
3304.000000 0.8247 0.8239 0.8232 0.8223 0.8206
3309.000000 0.8189 0.8171 0.8154 0.8130 0.8104
3314.000000 0.8078 0.8052 0.8025 0.7999 0.7973
3319.000000 0.7946 0.7920 0.7894 0.7867 0.7841
3324.000000 0.7815 0.7789 0.7763 0.7737 0.7711
3329.000000 0.7685 0.7659 0.7632 0.7606 0.7580
3334.000000 0.7554 0.7528 0.7502 0.7476 0.7450
3339.000000 0.7424 0.7398 0.7373 0.7347 0.7321
3344.000000 0.7295 0.7269 0.7243 0.7217 0.7191
3349.000000 0.7166 0.7140 0.7114 0.7088 0.7063
3354.000000 0.7037 0.7012 0.6986 0.6960 0.6934
3359.000000 0.6909 0.6883 0.6857 0.6832 0.6806
3364.000000 0.6780 0.6755 0.6729 0.6704 0.6678
3369.000000 0.6652 0.6627 0.6602 0.6577 0.6551
3374.000000 0.6532 0.6527 0.6523 0.6520 0.6517
3379.000000 0.6515 0.6515 0.6515 0.6515 0.6517
3384.000000 0.6564 0.6612 0.6659 0.6706 0.6762
3389.000000 0.6828 0.6893 0.6958 0.7024 0.7089
3394.000000 0.7155 0.7221 0.7286 0.7351 0.7417
3399.000000 0.7482 0.7547 0.7612 0.7677 0.7742
3404.000000 0.7808 0.7873 0.7938 0.8003 0.8068
3409.000000 0.8133 0.8198 0.8246 0.8263 0.8280
3414.000000 0.8297 0.8314 0.8322 0.8326 0.8330
3419.000000 0.8335 0.8339 0.8343 0.8347 0.8351
3424.000000 0.8356 0.8360 0.8363 0.8367 0.8371
3429.000000 0.8374 0.8378 0.8381 0.8384 0.8387
3434.000000 0.8390 0.8394 0.8397 0.8400 0.8404
3439.000000 0.8407 0.8410 0.8413 0.8416 0.8419
3444.000000 0.8422 0.8424 0.8427 0.8429 0.8432
3449.000000 0.8434 0.8437 0.8440 0.8443 0.8445
3454.000000 0.8448 0.8451 0.8454 0.8456 0.8459
3459.000000 0.8462 0.8465 0.8468 0.8472 0.8475
3464.000000 0.8478 0.8481 0.8485 0.8488 0.8491
3469.000000 0.8495 0.8498 0.8501 0.8505 0.8508
3474.000000 0.8511 0.8514 0.8517 0.8520 0.8524
3479.000000 0.8527 0.8530 0.8534 0.8537 0.8540
3484.000000 0.8543 0.8547 0.8550 0.8553 0.8556
3489.000000 0.8559 0.8561 0.8564 0.8566 0.8569
3494.000000 0.8571 0.8573 0.8575 0.8577 0.8578
3499.000000 0.8579 0.8579 0.8580 0.8581 0.8581
3504.000000 0.8581 0.8581 0.8581 0.8581 0.8581
3509.000000 0.8581 0.8581 0.8581 0.8582 0.8582
3514.000000 0.8582 0.8582 0.8582 0.8582 0.8582
3519.000000 0.8582 0.8582 0.8582 0.8583 0.8583
3524.000000 0.8583 0.8583 0.8583 0.8583 0.8583
3529.000000 0.8583 0.8583 0.8583 0.8584 0.8584
3534.000000 0.8584 0.8584 0.8584 0.8585 0.8585
3539.000000 0.8585 0.8585 0.8585 0.8585 0.8585
3544.000000 0.8585 0.8585 0.8585 0.8586 0.8586
3549.000000 0.8586 0.8586 0.8586 0.8586 0.8586
3554.000000 0.8586 0.8586 0.8586 0.8586 0.8586
3559.000000 0.8586 0.8586 0.8586 0.8586 0.8586
3564.000000 0.8586 0.8586 0.8586 0.8601 0.8586
3569.000000 0.8586 0.8586 0.8586 0.8586 0.8586
3574.000000 0.8586 0.8586 0.8586 0.8587 0.8587
3579.000000 0.8587 0.8588 0.8588 0.8589 0.8589
3584.000000 0.8589 0.8590 0.8590 0.8591 0.8591
3589.000000 0.8591 0.8592 0.8592 0.8593 0.8593
3594.000000 0.8593 0.8593 0.8593 0.8593 0.8594
3599.000000 0.8594 0.8595 0.8595 0.8595 0.8596
3604.000000 0.8596 0.8597 0.8597 0.8597 0.8598
3609.000000 0.8598 0.8598 0.8599 0.8599 0.8600
3614.000000 0.8600 0.8600 0.8601 0.8601 0.8602
3619.000000 0.8603 0.8603 0.8604 0.8605 0.8606
3624.000000 0.8608 0.8609 0.8611 0.8612 0.8614
3629.000000 0.8615 0.8617 0.8619 0.8621 0.8622
3634.000000 0.8624 0.8626 0.8627 0.8629 0.8631
3639.000000 0.8632 0.8634 0.8636 0.8637 0.8639
3644.000000 0.8640 0.8642 0.8643 0.8645 0.8647
3649.000000 0.8648 0.8650 0.8652 0.8653 0.8655
3654.000000 0.8656 0.8658 0.8659 0.8661 0.8663
3659.000000 0.8665 0.8667 0.8669 0.8671 0.8672
3664.000000 0.8674 0.8676 0.8678 0.8680 0.8682
3669.000000 0.8684 0.8686 0.8687 0.8689 0.8691
3674.000000 0.8693 0.8695 0.8697 0.8698 0.8700
3679.000000 0.8702 0.8703 0.8705 0.8707 0.8709
3684.000000 0.8710 0.8712 0.8714 0.8716 0.8718
3689.000000 0.8720 0.8721 0.8723 0.8725 0.8727
3694.000000 0.8727 0.8728 0.8729 0.8730 0.8730
3699.000000 0.8731 0.8731 0.8731 0.8731 0.8731
3704.000000 0.8731 0.8731 0.8731 0.8731 0.8731
3709.000000 0.8731 0.8731 0.8731 0.8731 0.8731
3714.000000 0.8731 0.8731 0.8731 0.8731 0.8731
3719.000000 0.8731 0.8731 0.8731 0.8731 0.8731
3724.000000 0.8731 0.8731 0.8731 0.8731 0.8731
3729.000000 0.8731 0.8731 0.8731 0.8732 0.8732
3734.000000 0.8732 0.8732 0.8732 0.8732 0.8732
3739.000000 0.8732 0.8732 0.8732 0.8732 0.8732
3744.000000 0.8732 0.8732 0.8732 0.8732 0.8732
3749.000000 0.8732 0.8733 0.8734 0.8735 0.8736
3754.000000 0.8737 0.8738 0.8738 0.8739 0.8740
3759.000000 0.8741 0.8742 0.8743 0.8744 0.8745
3764.000000 0.8746 0.8746 0.8747 0.8748 0.8749
3769.000000 0.8750 0.8751 0.8752 0.8753 0.8754
3774.000000 0.8755 0.8756 0.8757 0.8758 0.8759
3779.000000 0.8760 0.8761 0.8761 0.8762 0.8763
3784.000000 0.8764 0.8765 0.8766 0.8767 0.8768
3789.000000 0.8768 0.8769 0.8770 0.8771 0.8772
3794.000000 0.8773 0.8774 0.8775 0.8775 0.8776
3799.000000 0.8777 0.8778 0.8779 0.8780 0.8781
3804.000000 0.8782 0.8783 0.8784 0.8785 0.8786
3809.000000 0.8787 0.8788 0.8789 0.8789 0.8790
3814.000000 0.8791 0.8792 0.8793 0.8794 0.8795
3819.000000 0.8795 0.8796 0.8797 0.8798 0.8799
3824.000000 0.8799 0.8800 0.8801 0.8801 0.8802
3829.000000 0.8803 0.8803 0.8803 0.8804 0.8804
3834.000000 0.8804 0.8805 0.8805 0.8805 0.8806
3839.000000 0.8806 0.8806 0.8807 0.8807 0.8807
3844.000000 0.8808 0.8808 0.8808 0.8809 0.8809
3849.000000 0.8809 0.8810 0.8810 0.8810 0.8811
3854.000000 0.8811 0.8811 0.8812 0.8812 0.8812
3859.000000 0.8813 0.8813 0.8813 0.8814 0.8814
3864.000000 0.8815 0.8815 0.8815 0.8816 0.8816
3869.000000 0.8816 0.8817 0.8817 0.8817 0.8818
3874.000000 0.8818 0.8818 0.8819 0.8819 0.8819
3879.000000 0.8820 0.8820 0.8820 0.8821 0.8821
3884.000000 0.8821 0.8821 0.8822 0.8822 0.8822
3889.000000 0.8823 0.8823 0.8823 0.8824 0.8824
3894.000000 0.8824 0.8825 0.8825 0.8826 0.8826
3899.000000 0.8827 0.8827 0.8828 0.8828 0.8828
3904.000000 0.8829 0.8829 0.8829 0.8830 0.8830
3909.000000 0.8830 0.8831 0.8831 0.8831 0.8832
3914.000000 0.8832 0.8832 0.8833 0.8833 0.8833
3919.000000 0.8834 0.8834 0.8835 0.8835 0.8836
3924.000000 0.8836 0.8837 0.8837 0.8837 0.8837
3929.000000 0.8837 0.8837 0.8838 0.8838 0.8838
3934.000000 0.8838 0.8838 0.8838 0.8838 0.8839
3939.000000 0.8839 0.8839 0.8839 0.8839 0.8839
3944.000000 0.8840 0.8840 0.8840 0.8840 0.8840
3949.000000 0.8840 0.8841 0.8841 0.8841 0.8841
3954.000000 0.8841 0.8841 0.8842 0.8842 0.8842
3959.000000 0.8842 0.8842 0.8842 0.8843 0.8843
3964.000000 0.8843 0.8843 0.8843 0.8843 0.8843
3969.000000 0.8843 0.8843 0.8843 0.8843 0.8843
3974.000000 0.8843 0.8844 0.8844 0.8844 0.8844
3979.000000 0.8844 0.8844 0.8845 0.8845 0.8845
3984.000000 0.8845 0.8845 0.8845 0.8845 0.8846
3989.000000 0.8846 0.8846 0.8846 0.8846 0.8846
3994.000000 0.8847 0.8847 0.8847 0.8847 0.8847
3999.000000 0.8847 0.8847
##END=
