##TITLE=4'-(BENZYLOXY) ACETOPHENONE
##JCAMP-DX=4.24
##DATA TYPE=INFRARED SPECTRUM
##CLASS=COBLENTZ III
##ORIGIN=WESTERN REGIONAL RES. USDA
##OWNER=COBLENTZ SOCIETY
Collection (C) 2018 copyright by the U.S. Secretary of Commerce
on behalf of the United States of America. All rights reserved.
##DATE=1964/06/04
##NAMES=1-[4-(benzyloxy)phenyl]ethanone
##CAS REGISTRY NO=54696-05-8
##MOLFORM=C15 H14 O2
##SOURCE REFERENCE=COBLENTZ NO. 7550
##$NIST SOURCE=COBLENTZ
##$NIST IMAGE=cob7550
##SPECTROMETER/DATA SYSTEM=BECKMAN IR-7 (GRATING)
##INSTRUMENT PARAMETERS=GRATING CHANGED AT 3000, 2200, 1150 CM^-^1
##STATE=SOLID (NUJOL MULL)
##PATH LENGTH=
$$ SPECTRAL CONTAMINATION DUE TO OIL AROUND 2900 CM^-^1
##SAMPLING PROCEDURE=TRANSMISSION
##RESOLUTION=4
##DATA PROCESSING=DIGITIZED BY NIST FROM HARD COPY (FROM TWO SEGMENTS)
##XUNITS=1/CM
##YUNITS=TRANSMITTANCE
##XFACTOR=1.000000
##YFACTOR=1
##DELTAX=0.749712
##FIRSTX=598.039
##LASTX=4003.98
##FIRSTY=0.724
##MAXX=4003.98
##MINX=598.039
##MAXY=0.846
##MINY=0.0782387
##NPOINTS=4544
##XYDATA=(X++(Y..Y))
598.039000 0.7240 0.7110 0.6990 0.6880 0.6760
601.787559 0.6650 0.6650 0.6680 0.6859 0.7119
605.536118 0.7310 0.7860 0.7880 0.8050 0.8060
609.284676 0.8120 0.8190 0.8230 0.8290 0.8340
613.033235 0.8360 0.8370 0.8370 0.8370 0.8340
616.781794 0.8190 0.8170 0.8180 0.8230 0.8260
620.530353 0.8280 0.8320 0.8400 0.8430 0.8460
624.278912 0.8460 0.8460 0.8360 0.8251 0.8121
628.027471 0.8040 0.7970 0.7960 0.7950 0.7970
631.776029 0.7980 0.8070 0.8199 0.8270 0.8330
635.524588 0.8360 0.8390 0.8420 0.8430 0.8440
639.273147 0.8440 0.8440 0.8440 0.8440 0.8440
643.021706 0.8430 0.8430 0.8430 0.8420 0.8400
646.770265 0.8390 0.8370 0.8340 0.8320 0.8310
650.518824 0.8310 0.8310 0.8340 0.8340 0.8350
654.267382 0.8350 0.8340 0.8340 0.8330 0.8310
658.015941 0.8300 0.8290 0.8280 0.8280 0.8260
661.764500 0.8260 0.8250 0.8130 0.8110 0.8110
665.513059 0.8120 0.8150 0.8190 0.8210 0.8210
669.261618 0.8200 0.8190 0.8170 0.8160 0.8150
673.010176 0.8140 0.8140 0.8140 0.8140 0.8150
676.758735 0.8150 0.8150 0.8150 0.8140 0.8140
680.507294 0.8130 0.8120 0.8120 0.8110 0.8110
684.255853 0.8090 0.8080 0.8050 0.8010 0.7960
688.004412 0.7900 0.7820 0.7730 0.7610 0.7600
691.752971 0.7600 0.7610 0.7660 0.7720 0.7760
695.501529 0.7790 0.7800 0.7800 0.7800 0.7790
699.250088 0.7730 0.7561 0.7411 0.6664 0.6382
702.998647 0.6100 0.5600 0.5360 0.4971 0.4581
706.747206 0.4201 0.3821 0.3820 0.3820 0.4447
710.495765 0.5070 0.5679 0.6788 0.7299 0.7360
714.244324 0.7450 0.7510 0.7560 0.7590 0.7610
717.992882 0.7620 0.7620 0.7620 0.7620 0.7620
721.741441 0.7630 0.7640 0.7650 0.7650 0.7660
725.490000 0.7680 0.7690 0.7700 0.7710 0.7710
729.238559 0.7720 0.7720 0.7730 0.7730 0.7730
732.987118 0.7730 0.7740 0.7750 0.7750 0.7750
736.735676 0.7750 0.7750 0.7750 0.7740 0.7740
740.484235 0.7740 0.7740 0.7730 0.7720 0.7710
744.232794 0.7660 0.7610 0.7530 0.7381 0.7290
747.981353 0.7210 0.7080 0.6840 0.6401 0.6091
751.729912 0.5791 0.5382 0.5350 0.4992 0.4632
755.478471 0.4280 0.3920 0.3740 0.3560 0.3211
759.227029 0.3210 0.4395 0.4440 0.5564 0.6654
762.975588 0.6950 0.7150 0.7300 0.7410 0.7490
766.724147 0.7560 0.7560 0.7600 0.7620 0.7630
770.472706 0.7650 0.7680 0.7710 0.7710 0.7720
774.221265 0.7730 0.7750 0.7780 0.7800 0.7820
777.969824 0.7820 0.7830 0.7830 0.7840 0.7850
781.718382 0.7850 0.7860 0.7860 0.7870 0.7880
785.466941 0.7880 0.7880 0.7880 0.7880 0.7880
789.215500 0.7880 0.7870 0.7870 0.7860 0.7860
792.964059 0.7860 0.7860 0.7850 0.7850 0.7850
796.712618 0.7850 0.7850 0.7840 0.7820 0.7780
800.461176 0.7740 0.7710 0.7700 0.7680 0.7660
804.209735 0.7650 0.7640 0.7630 0.7630 0.7620
807.958294 0.7620 0.7620 0.7610 0.7610 0.7600
811.706853 0.7600 0.7590 0.7590 0.7590 0.7590
815.455412 0.7570 0.7560 0.7520 0.7310 0.6911
819.203971 0.6561 0.6421 0.6271 0.5763 0.5104
822.952529 0.4420 0.4140 0.3751 0.3590 0.3420
826.701088 0.3091 0.2423 0.2400 0.2420 0.4409
830.449647 0.6629 0.6860 0.7010 0.7110 0.7180
834.198206 0.7240 0.7330 0.7410 0.7440 0.7460
837.946765 0.7480 0.7500 0.7500 0.7500 0.7520
841.695324 0.7530 0.7530 0.7530 0.7530 0.7530
845.443882 0.7510 0.7500 0.7470 0.7400 0.7390
849.192441 0.7380 0.7340 0.7320 0.7280 0.7240
852.941000 0.7180 0.7070 0.6930 0.6740 0.6491
856.689559 0.6320 0.6151 0.6120 0.6110 0.6120
860.438118 0.6390 0.6720 0.6970 0.7180 0.7350
864.186676 0.7490 0.7600 0.7680 0.7730 0.7740
867.935235 0.7780 0.7790 0.7820 0.7820 0.7820
871.683794 0.7820 0.7810 0.7800 0.7800 0.7790
875.432353 0.7790 0.7790 0.7780 0.7770 0.7770
879.180912 0.7770 0.7770 0.7770 0.7760 0.7760
882.929471 0.7760 0.7760 0.7760 0.7760 0.7760
886.678029 0.7750 0.7740 0.7730 0.7730 0.7730
890.426588 0.7730 0.7720 0.7720 0.7710 0.7710
894.175147 0.7710 0.7710 0.7720 0.7720 0.7730
897.923706 0.7730 0.7730 0.7730 0.7730 0.7710
901.672265 0.7710 0.7700 0.7700 0.7680 0.7680
905.420824 0.7660 0.7620 0.7590 0.7560 0.7550
909.169382 0.7530 0.7480 0.7420 0.7310 0.7161
912.917941 0.6960 0.6560 0.6430 0.6310 0.6270
916.666500 0.6340 0.6878 0.6980 0.7119 0.7229
920.415059 0.7300 0.7370 0.7410 0.7440 0.7460
924.163618 0.7480 0.7500 0.7510 0.7520 0.7530
927.912176 0.7530 0.7530 0.7530 0.7540 0.7530
931.660735 0.7530 0.7530 0.7520 0.7510 0.7510
935.409294 0.7490 0.7450 0.7400 0.7360 0.7330
939.157853 0.7320 0.7300 0.7300 0.7300 0.7290
942.906412 0.7270 0.7240 0.7220 0.7180 0.7130
946.654971 0.7060 0.7000 0.6950 0.6880 0.6790
950.403529 0.6680 0.6540 0.6340 0.6210 0.6080
954.152088 0.5861 0.5282 0.5200 0.5180 0.5200
957.900647 0.5240 0.5380 0.5660 0.6468 0.6739
961.649206 0.6860 0.7029 0.7140 0.7230 0.7300
965.397765 0.7330 0.7370 0.7380 0.7380 0.7360
969.146324 0.7360 0.7330 0.7300 0.7260 0.7230
972.894882 0.7220 0.7210 0.7210 0.7210 0.7210
976.643441 0.7210 0.7140 0.7100 0.7040 0.6980
980.392000 0.6900 0.6840 0.6760 0.6630 0.6361
984.140559 0.6190 0.6011 0.5671 0.5461 0.5360
987.889118 0.5340 0.5360 0.5390 0.5570 0.5859
991.637676 0.6040 0.6080 0.6070 0.6000 0.5821
995.386235 0.5490 0.5040 0.4720 0.4500 0.4360
999.134794 0.4280 0.4210 0.4140 0.4040 0.3881
1002.883353 0.3760 0.3620 0.3320 0.2841 0.2710
1006.631912 0.2710 0.2810 0.2830 0.3069 0.4713
1010.380471 0.5380 0.5949 0.6180 0.6399 0.6490
1014.129029 0.6600 0.6700 0.6819 0.6989 0.7040
1017.877588 0.7100 0.7130 0.7200 0.7210 0.7210
1021.626147 0.7210 0.7210 0.7270 0.7300 0.7340
1025.374706 0.7350 0.7400 0.7450 0.7500 0.7560
1029.123265 0.7600 0.7640 0.7670 0.7700 0.7740
1032.871824 0.7750 0.7760 0.7760 0.7750 0.7750
1036.620382 0.7750 0.7740 0.7740 0.7730 0.7740
1040.368941 0.7750 0.7760 0.7770 0.7780 0.7780
1044.117500 0.7780 0.7790 0.7790 0.7780 0.7780
1047.866059 0.7760 0.7730 0.7730 0.7710 0.7710
1051.614618 0.7700 0.7700 0.7690 0.7680 0.7670
1055.363176 0.7660 0.7650 0.7650 0.7640 0.7630
1059.111735 0.7630 0.7620 0.7620 0.7620 0.7600
1062.860294 0.7590 0.7570 0.7560 0.7550 0.7530
1066.608853 0.7510 0.7500 0.7470 0.7440 0.7420
1070.357412 0.7390 0.7350 0.7300 0.7220 0.7150
1074.105971 0.7070 0.7050 0.7000 0.6980 0.7010
1077.854529 0.7150 0.7190 0.7210 0.7240 0.7270
1081.603088 0.7280 0.7290 0.7290 0.7290 0.7290
1085.351647 0.7290 0.7300 0.7300 0.7300 0.7310
1089.100206 0.7310 0.7320 0.7330 0.7360 0.7360
1092.848765 0.7360 0.7360 0.7360 0.7330 0.7320
1096.597324 0.7270 0.7180 0.7120 0.7040 0.7040
1100.345882 0.7010 0.6980 0.6960 0.6940 0.6920
1104.094441 0.6910 0.6900 0.6890 0.6890 0.6880
1107.843000 0.6860 0.6830 0.6790 0.6740 0.6720
1111.591559 0.6690 0.6650 0.6600 0.6550 0.6480
1115.340118 0.6410 0.6370 0.6330 0.6250 0.6150
1119.088676 0.6110 0.6110 0.6150 0.6260 0.6379
1122.837235 0.6430 0.6460 0.6500 0.6510 0.6520
1126.585794 0.6520 0.6520 0.6520 0.6520 0.6520
1130.334353 0.6510 0.6500 0.6490 0.6460 0.6440
1134.082912 0.6430 0.6410 0.6400 0.6390 0.6370
1137.831471 0.6340 0.6330 0.6310 0.6280 0.6240
1141.580029 0.6210 0.6200 0.6140 0.6100 0.6020
1145.328588 0.6000 0.5880 0.5810 0.5680 0.5600
1149.077147 0.5441 0.5301 0.5300 0.5360 0.5440
1152.825706 0.5510 0.5590 0.5690 0.5690 0.5680
1156.574265 0.5610 0.5510 0.5361 0.5151 0.4981
1160.322824 0.4820 0.4680 0.4540 0.4400 0.4230
1164.071382 0.3951 0.3791 0.3730 0.3660 0.3421
1167.819941 0.2960 0.2160 0.2010 0.2000 0.2000
1171.568500 0.2080 0.2140 0.2857 0.4363 0.5007
1175.317059 0.5360 0.5540 0.5710 0.5920 0.6110
1179.065618 0.6499 0.6650 0.6740 0.6840 0.6959
1182.814176 0.7060 0.7180 0.7260 0.7300 0.7320
1186.562735 0.7330 0.7340 0.7320 0.7290 0.7270
1190.311294 0.7230 0.7200 0.7180 0.7150 0.7140
1194.059853 0.7130 0.7120 0.7100 0.7080 0.7040
1197.808412 0.7010 0.6930 0.6870 0.6820 0.6780
1201.556971 0.6750 0.6720 0.6690 0.6640 0.6610
1205.305529 0.6560 0.6520 0.6450 0.6390 0.6360
1209.054088 0.6320 0.6230 0.6140 0.6080 0.6030
1212.802647 0.6000 0.5960 0.5910 0.5870 0.5810
1216.551206 0.5770 0.5720 0.5630 0.5530 0.5401
1220.299765 0.5300 0.5210 0.5150 0.5050 0.4990
1224.048324 0.4870 0.4800 0.4750 0.4690 0.4620
1227.796882 0.4490 0.4300 0.4110 0.3830 0.3760
1231.545441 0.3710 0.3650 0.3521 0.3440 0.3380
1235.294000 0.3280 0.3150 0.3040 0.2950 0.2810
1239.042559 0.2630 0.2441 0.2251 0.2061 0.1911
1242.791118 0.1800 0.1750 0.1590 0.1560 0.1530
1246.539676 0.1530 0.1540 0.1689 0.1800 0.2079
1250.288235 0.2310 0.2510 0.2660 0.2780 0.2840
1254.036794 0.2940 0.3030 0.3150 0.3319 0.3469
1257.785353 0.3850 0.4080 0.4300 0.4500 0.4690
1261.533912 0.4860 0.5020 0.5179 0.5319 0.5459
1265.282471 0.5590 0.5720 0.5850 0.5970 0.6090
1269.031029 0.6220 0.6260 0.6260 0.6230 0.6200
1272.779588 0.5790 0.5500 0.4841 0.4790 0.4790
1276.528147 0.4810 0.5029 0.5627 0.6337 0.6589
1280.276706 0.6790 0.6950 0.7060 0.7150 0.7210
1284.025265 0.7260 0.7300 0.7330 0.7330 0.7340
1287.773824 0.7340 0.7330 0.7290 0.7260 0.7210
1291.522382 0.7170 0.7100 0.7030 0.6891 0.6781
1295.270941 0.6550 0.6420 0.6290 0.6050 0.5721
1299.019500 0.5431 0.5041 0.4930 0.4830 0.4830
1302.768059 0.4880 0.5060 0.5470 0.5780 0.5980
1306.516618 0.6140 0.6489 0.6749 0.6870 0.6870
1310.265176 0.6860 0.6850 0.6710 0.6570 0.6400
1314.013735 0.6340 0.6260 0.6230 0.6230 0.6250
1317.762294 0.6460 0.6690 0.6920 0.6980 0.7010
1321.510853 0.7010 0.7010 0.7010 0.7050 0.7100
1325.259412 0.7170 0.7270 0.7330 0.7420 0.7480
1329.007971 0.7550 0.7590 0.7620 0.7620 0.7620
1332.756529 0.7640 0.7650 0.7660 0.7670 0.7680
1336.505088 0.7680 0.7680 0.7680 0.7650 0.7630
1340.253647 0.7600 0.7560 0.7540 0.7440 0.7420
1344.002206 0.7380 0.7290 0.7210 0.7110 0.7001
1347.750765 0.6860 0.6730 0.6380 0.6190 0.6000
1351.499324 0.5611 0.5211 0.4841 0.4502 0.3883
1355.247882 0.3760 0.3650 0.3600 0.3580 0.3760
1358.996441 0.4548 0.4959 0.5299 0.5549 0.5749
1362.745000 0.5900 0.6000 0.6090 0.6170 0.6370
1366.493559 0.6400 0.6400 0.6410 0.6410 0.6400
1370.242118 0.6280 0.6170 0.6070 0.6000 0.5940
1373.990676 0.5810 0.5690 0.5620 0.5570 0.5560
1377.739235 0.5550 0.5540 0.5510 0.5240 0.5120
1381.487794 0.4980 0.4691 0.4401 0.4290 0.4260
1385.236353 0.4260 0.4400 0.5050 0.5400 0.6368
1388.984912 0.6879 0.7199 0.7389 0.7490 0.7540
1392.733471 0.7590 0.7690 0.7760 0.7820 0.7820
1396.482029 0.7810 0.7760 0.7760 0.7730 0.7700
1400.230588 0.7680 0.7680 0.7680 0.7680 0.7670
1403.979147 0.7660 0.7660 0.7650 0.7650 0.7650
1407.727706 0.7650 0.7630 0.7610 0.7530 0.7500
1411.476265 0.7410 0.7330 0.7171 0.7031 0.6841
1415.224824 0.6430 0.6270 0.6110 0.5850 0.5810
1418.973382 0.5810 0.6149 0.6150 0.6140 0.6140
1422.721941 0.6110 0.6050 0.5970 0.5960 0.5970
1426.470500 0.5990 0.6040 0.6100 0.6399 0.6500
1430.219059 0.6560 0.6610 0.6630 0.6690 0.6700
1433.967618 0.6710 0.6720 0.6720 0.6720 0.6660
1437.716176 0.6650 0.6570 0.6460 0.6340 0.6270
1441.464735 0.6200 0.6160 0.6050 0.5960 0.5880
1445.213294 0.5780 0.5660 0.5520 0.5350 0.5130
1448.961853 0.4881 0.4571 0.4201 0.4110 0.4110
1452.710412 0.4350 0.4590 0.4650 0.4770 0.4790
1456.458971 0.4800 0.4790 0.4780 0.4760 0.4720
1460.207529 0.4580 0.4450 0.4420 0.4400 0.4410
1463.956088 0.4560 0.4660 0.4760 0.4979 0.5239
1467.704647 0.5380 0.5550 0.5760 0.5970 0.6409
1471.453206 0.6510 0.6640 0.6720 0.6800 0.6890
1475.201765 0.6960 0.7010 0.7050 0.7090 0.7140
1478.950324 0.7180 0.7230 0.7240 0.7260 0.7260
1482.698882 0.7270 0.7280 0.7280 0.7280 0.7280
1486.447441 0.7270 0.7270 0.7260 0.7230 0.7180
1490.196000 0.7090 0.6990 0.6910 0.6840 0.6830
1493.944559 0.6820 0.6830 0.6890 0.7059 0.7080
1497.693118 0.7070 0.7010 0.6970 0.6481 0.6360
1501.441676 0.6230 0.6051 0.6020 0.5771 0.5531
1505.190235 0.5280 0.5040 0.4790 0.4570 0.4570
1508.938794 0.4690 0.5109 0.6386 0.6898 0.7348
1512.687353 0.7500 0.7600 0.7680 0.7730 0.7770
1516.435912 0.7790 0.7790 0.7800 0.7850 0.7920
1520.184471 0.7940 0.7920 0.7910 0.7900 0.7870
1523.933029 0.7850 0.7830 0.7810 0.7780 0.7760
1527.681588 0.7740 0.7720 0.7700 0.7640 0.7620
1531.430147 0.7600 0.7590 0.7570 0.7520 0.7500
1535.178706 0.7480 0.7470 0.7470 0.7470 0.7480
1538.927265 0.7500 0.7500 0.7500 0.7470 0.7470
1542.675824 0.7440 0.7420 0.7410 0.7390 0.7370
1546.424382 0.7360 0.7340 0.7330 0.7300 0.7290
1550.172941 0.7270 0.7240 0.7210 0.7190 0.7170
1553.921500 0.7150 0.7130 0.7130 0.7130 0.7120
1557.670059 0.7090 0.7050 0.7000 0.6940 0.6860
1561.418618 0.6810 0.6790 0.6730 0.6710 0.6690
1565.167176 0.6610 0.6550 0.6480 0.6440 0.6410
1568.915735 0.6360 0.6330 0.6290 0.6230 0.6210
1572.664294 0.6190 0.6140 0.6050 0.6020 0.6000
1576.412853 0.5910 0.5850 0.5760 0.5730 0.5620
1580.161412 0.5490 0.5280 0.5060 0.4910 0.4780
1583.909971 0.4630 0.4480 0.4311 0.4131 0.3951
1587.658529 0.3820 0.3700 0.3570 0.3440 0.3181
1591.407088 0.2801 0.2601 0.2421 0.2221 0.2091
1595.155647 0.2000 0.1990 0.2000 0.2230 0.2310
1598.904206 0.2659 0.2949 0.3209 0.3966 0.4318
1602.652765 0.4630 0.4970 0.5300 0.5619 0.5929
1606.401324 0.6409 0.6569 0.6650 0.6819 0.7009
1610.149882 0.7180 0.7260 0.7300 0.7320 0.7350
1613.898441 0.7410 0.7480 0.7500 0.7560 0.7570
1617.647000 0.7590 0.7620 0.7650 0.7680 0.7710
1621.395559 0.7740 0.7760 0.7790 0.7820 0.7820
1625.144118 0.7830 0.7830 0.7850 0.7850 0.7860
1628.892676 0.7860 0.7860 0.7850 0.7850 0.7840
1632.641235 0.7820 0.7780 0.7700 0.7640 0.7590
1636.389794 0.7510 0.7460 0.7460 0.7480 0.7500
1640.138353 0.7590 0.7650 0.7680 0.7690 0.7690
1643.886912 0.7700 0.7710 0.7730 0.7740 0.7750
1647.635471 0.7750 0.7740 0.7700 0.7660 0.7630
1651.384029 0.7620 0.7620 0.7610 0.7590 0.7570
1655.132588 0.7530 0.7460 0.7440 0.7360 0.7300
1658.881147 0.7270 0.7180 0.7070 0.7010 0.6980
1662.629706 0.6880 0.6740 0.6560 0.6360 0.6270
1666.378265 0.6170 0.6001 0.5851 0.5760 0.5372
1670.126824 0.4790 0.4121 0.3780 0.3441 0.2851
1673.875382 0.2431 0.1982 0.1831 0.1730 0.1660
1677.623941 0.1640 0.1640 0.1650 0.1850 0.2070
1681.372500 0.2259 0.2260 0.2868 0.4134 0.4657
1685.121059 0.5160 0.5700 0.6579 0.6840 0.7099
1688.869618 0.7329 0.7539 0.7729 0.7820 0.7910
1692.618176 0.7980 0.8050 0.8100 0.8140 0.8190
1696.366735 0.8220 0.8250 0.8270 0.8280 0.8300
1700.115294 0.8310 0.8310 0.8320 0.8330 0.8340
1703.863853 0.8340 0.8340 0.8340 0.8340 0.8330
1707.612412 0.8330 0.8320 0.8310 0.8280 0.8260
1711.360971 0.8250 0.8240 0.8230 0.8230 0.8230
1715.109529 0.8230 0.8220 0.8210 0.8210 0.8200
1718.858088 0.8200 0.8200 0.8190 0.8180 0.8180
1722.606647 0.8170 0.8170 0.8170 0.8170 0.8160
1726.355206 0.8160 0.8150 0.8150 0.8140 0.8140
1730.103765 0.8140 0.8140 0.8140 0.8140 0.8130
1733.852324 0.8130 0.8130 0.8130 0.8120 0.8120
1737.600882 0.8110 0.8110 0.8110 0.8110 0.8100
1741.349441 0.8100 0.8090 0.8090 0.8080 0.8080
1745.098000 0.8080 0.8080 0.8080 0.8070 0.8070
1748.846559 0.8060 0.8060 0.8050 0.8050 0.8050
1752.595118 0.8050 0.8050 0.8050 0.8040 0.8040
1756.343676 0.8030 0.8030 0.8020 0.8010 0.8000
1760.092235 0.7990 0.7980 0.7970 0.7960 0.7940
1763.840794 0.7940 0.7920 0.7890 0.7880 0.7880
1767.589353 0.7870 0.7860 0.7860 0.7880 0.7880
1771.337912 0.7890 0.7900 0.7920 0.7940 0.7950
1775.086471 0.7970 0.7990 0.8000 0.8010 0.8010
1778.835029 0.8020 0.8030 0.8030 0.8040 0.8040
1782.583588 0.8050 0.8050 0.8050 0.8050 0.8050
1786.332147 0.8050 0.8060 0.8060 0.8060 0.8060
1790.080706 0.8050 0.8050 0.8050 0.8050 0.8050
1793.829265 0.8050 0.8040 0.8040 0.8030 0.8020
1797.577824 0.8020 0.8020 0.8020 0.8010 0.8010
1801.326382 0.8000 0.8000 0.8000 0.8000 0.8000
1805.074941 0.8000 0.7990 0.7990 0.7990 0.7980
1808.823500 0.7970 0.7970 0.7970 0.7970 0.7960
1812.572059 0.7960 0.7960 0.7960 0.7950 0.7950
1816.320618 0.7950 0.7940 0.7940 0.7940 0.7940
1820.069176 0.7940 0.7930 0.7930 0.7930 0.7910
1823.817735 0.7910 0.7890 0.7880 0.7880 0.7870
1827.566294 0.7860 0.7860 0.7850 0.7850 0.7850
1831.314853 0.7850 0.7850 0.7840 0.7840 0.7840
1835.063412 0.7850 0.7850 0.7850 0.7860 0.7870
1838.811971 0.7880 0.7880 0.7880 0.7880 0.7880
1842.560529 0.7890 0.7890 0.7900 0.7910 0.7910
1846.309088 0.7910 0.7900 0.7890 0.7880 0.7880
1850.057647 0.7880 0.7880 0.7870 0.7860 0.7860
1853.806206 0.7860 0.7860 0.7860 0.7850 0.7850
1857.554765 0.7850 0.7850 0.7840 0.7840 0.7830
1861.303324 0.7830 0.7830 0.7830 0.7830 0.7830
1865.051882 0.7820 0.7820 0.7820 0.7810 0.7810
1868.800441 0.7800 0.7800 0.7800 0.7790 0.7790
1872.549000 0.7790 0.7790 0.7760 0.7760 0.7750
1876.297559 0.7740 0.7730 0.7730 0.7730 0.7730
1880.046118 0.7730 0.7740 0.7740 0.7760 0.7780
1883.794676 0.7780 0.7790 0.7790 0.7790 0.7780
1887.543235 0.7780 0.7770 0.7770 0.7760 0.7740
1891.291794 0.7730 0.7700 0.7670 0.7660 0.7650
1895.040353 0.7610 0.7570 0.7530 0.7500 0.7460
1898.788912 0.7420 0.7400 0.7400 0.7420 0.7450
1902.537471 0.7490 0.7520 0.7560 0.7590 0.7600
1906.286029 0.7620 0.7650 0.7680 0.7690 0.7700
1910.034588 0.7710 0.7710 0.7710 0.7720 0.7720
1913.783147 0.7720 0.7720 0.7720 0.7710 0.7710
1917.531706 0.7710 0.7710 0.7710 0.7710 0.7710
1921.280265 0.7720 0.7720 0.7730 0.7730 0.7730
1925.028824 0.7740 0.7740 0.7750 0.7730 0.7720
1928.777382 0.7710 0.7710 0.7710 0.7700 0.7700
1932.525941 0.7700 0.7700 0.7700 0.7700 0.7710
1936.274500 0.7710 0.7710 0.7710 0.7710 0.7710
1940.023059 0.7710 0.7700 0.7690 0.7680 0.7680
1943.771618 0.7680 0.7670 0.7670 0.7670 0.7660
1947.520176 0.7660 0.7660 0.7660 0.7660 0.7650
1951.268735 0.7650 0.7650 0.7650 0.7650 0.7640
1955.017294 0.7630 0.7630 0.7620 0.7620 0.7620
1958.765853 0.7610 0.7600 0.7590 0.7590 0.7590
1962.514412 0.7580 0.7570 0.7560 0.7560 0.7560
1966.262971 0.7550 0.7550 0.7530 0.7510 0.7480
1970.011529 0.7480 0.7470 0.7470 0.7470 0.7470
1973.760088 0.7470 0.7470 0.7480 0.7490 0.7500
1977.508647 0.7500 0.7500 0.7500 0.7500 0.7500
1981.257206 0.7510 0.7510 0.7510 0.7510 0.7510
1985.005765 0.7510 0.7500 0.7500 0.7480 0.7470
1988.754324 0.7460 0.7450 0.7440 0.7440 0.7440
1992.502882 0.7440 0.7440 0.7450 0.7470 0.7480
1996.251441 0.7490 0.7490 0.7500 0.7500 0.7500
2000.000000 0.7500 0.7498 0.7495 0.7493 0.7490
2003.748559 0.7488 0.7485 0.7483 0.7480 0.7482
2007.497118 0.7485 0.7487 0.7490 0.7490 0.7490
2011.245676 0.7490 0.7490 0.7490 0.7490 0.7490
2014.994235 0.7490 0.7492 0.7495 0.7497 0.7500
2018.742794 0.7500 0.7500 0.7500 0.7500 0.7500
2022.491353 0.7500 0.7500 0.7500 0.7500 0.7500
2026.239912 0.7500 0.7500 0.7500 0.7500 0.7500
2029.988471 0.7500 0.7500 0.7500 0.7500 0.7500
2033.737029 0.7498 0.7495 0.7493 0.7490 0.7490
2037.485588 0.7490 0.7490 0.7490 0.7488 0.7485
2041.234147 0.7483 0.7480 0.7480 0.7480 0.7480
2044.982706 0.7480 0.7478 0.7475 0.7473 0.7470
2048.731265 0.7470 0.7470 0.7470 0.7470 0.7470
2052.479824 0.7470 0.7470 0.7470 0.7472 0.7475
2056.228382 0.7477 0.7480 0.7480 0.7480 0.7480
2059.976941 0.7480 0.7480 0.7480 0.7480 0.7480
2063.725500 0.7480 0.7480 0.7480 0.7480 0.7482
2067.474059 0.7485 0.7487 0.7490 0.7490 0.7490
2071.222618 0.7490 0.7490 0.7490 0.7490 0.7490
2074.971176 0.7490 0.7490 0.7490 0.7490 0.7490
2078.719735 0.7490 0.7490 0.7490 0.7490 0.7488
2082.468294 0.7485 0.7483 0.7480 0.7480 0.7480
2086.216853 0.7480 0.7480 0.7478 0.7475 0.7473
2089.965412 0.7470 0.7470 0.7470 0.7470 0.7470
2093.713971 0.7468 0.7465 0.7463 0.7460 0.7458
2097.462529 0.7455 0.7453 0.7450 0.7448 0.7445
2101.211088 0.7443 0.7440 0.7440 0.7440 0.7440
2104.959647 0.7440 0.7440 0.7440 0.7440 0.7440
2108.708206 0.7440 0.7440 0.7440 0.7440 0.7440
2112.456765 0.7440 0.7440 0.7440 0.7442 0.7445
2116.205324 0.7447 0.7450 0.7450 0.7450 0.7450
2119.953882 0.7450 0.7452 0.7455 0.7457 0.7460
2123.702441 0.7460 0.7460 0.7460 0.7460 0.7462
2127.451000 0.7465 0.7467 0.7470 0.7470 0.7470
2131.199559 0.7470 0.7470 0.7472 0.7475 0.7477
2134.948118 0.7480 0.7480 0.7480 0.7480 0.7480
2138.696676 0.7478 0.7475 0.7473 0.7470 0.7470
2142.445235 0.7470 0.7470 0.7470 0.7470 0.7470
2146.193794 0.7470 0.7470 0.7468 0.7465 0.7463
2149.942353 0.7460 0.7458 0.7455 0.7453 0.7450
2153.690912 0.7450 0.7450 0.7450 0.7450 0.7448
2157.439471 0.7445 0.7443 0.7440 0.7440 0.7440
2161.188029 0.7440 0.7440 0.7438 0.7435 0.7433
2164.936588 0.7430 0.7430 0.7430 0.7430 0.7430
2168.685147 0.7428 0.7425 0.7423 0.7420 0.7420
2172.433706 0.7420 0.7420 0.7420 0.7418 0.7415
2176.182265 0.7413 0.7410 0.7410 0.7410 0.7410
2179.930824 0.7410 0.7408 0.7405 0.7403 0.7400
2183.679382 0.7400 0.7400 0.7400 0.7400 0.7398
2187.427941 0.7395 0.7393 0.7390 0.7390 0.7390
2191.176500 0.7390 0.7390 0.7390 0.7390 0.7390
2194.925059 0.7390 0.7388 0.7385 0.7383 0.7380
2198.673618 0.7378 0.7375 0.7373 0.7370 0.7370
2202.422176 0.7370 0.7370 0.7370 0.7368 0.7365
2206.170735 0.7363 0.7360 0.7360 0.7360 0.7360
2209.919294 0.7360 0.7360 0.7360 0.7360 0.7360
2213.667853 0.7360 0.7360 0.7360 0.7360 0.7358
2217.416412 0.7355 0.7353 0.7350 0.7348 0.7345
2221.164971 0.7343 0.7340 0.7338 0.7335 0.7333
2224.913529 0.7330 0.7330 0.7330 0.7330 0.7330
2228.662088 0.7330 0.7330 0.7330 0.7330 0.7328
2232.410647 0.7325 0.7323 0.7320 0.7320 0.7320
2236.159206 0.7320 0.7320 0.7320 0.7320 0.7320
2239.907765 0.7320 0.7320 0.7320 0.7320 0.7320
2243.656324 0.7320 0.7320 0.7320 0.7320 0.7320
2247.404882 0.7320 0.7320 0.7320 0.7318 0.7315
2251.153441 0.7313 0.7310 0.7310 0.7310 0.7310
2254.902000 0.7310 0.7310 0.7310 0.7310 0.7310
2258.650559 0.7310 0.7310 0.7310 0.7310 0.7310
2262.399118 0.7310 0.7310 0.7310 0.7308 0.7305
2266.147676 0.7303 0.7300 0.7300 0.7300 0.7300
2269.896235 0.7300 0.7298 0.7295 0.7293 0.7290
2273.644794 0.7286 0.7281 0.7276 0.7271 0.7270
2277.393353 0.7270 0.7270 0.7270 0.7268 0.7265
2281.141912 0.7263 0.7260 0.7260 0.7260 0.7260
2284.890471 0.7260 0.7258 0.7255 0.7253 0.7250
2288.639029 0.7248 0.7245 0.7243 0.7240 0.7240
2292.387588 0.7240 0.7240 0.7240 0.7238 0.7236
2296.136147 0.7233 0.7231 0.7228 0.7225 0.7223
2299.884706 0.7220 0.7218 0.7215 0.7213 0.7210
2303.633265 0.7210 0.7210 0.7210 0.7210 0.7210
2307.381824 0.7210 0.7210 0.7210 0.7210 0.7210
2311.130382 0.7210 0.7210 0.7210 0.7210 0.7210
2314.878941 0.7210 0.7210 0.7210 0.7210 0.7210
2318.627500 0.7210 0.7210 0.7210 0.7210 0.7210
2322.376059 0.7210 0.7210 0.7210 0.7210 0.7210
2326.124618 0.7210 0.7210 0.7210 0.7210 0.7210
2329.873176 0.7210 0.7208 0.7205 0.7203 0.7200
2333.621735 0.7200 0.7200 0.7200 0.7200 0.7200
2337.370294 0.7200 0.7200 0.7200 0.7200 0.7200
2341.118853 0.7200 0.7200 0.7200 0.7200 0.7200
2344.867412 0.7200 0.7198 0.7196 0.7193 0.7191
2348.615971 0.7190 0.7190 0.7190 0.7190 0.7190
2352.364529 0.7190 0.7190 0.7190 0.7188 0.7186
2356.113088 0.7183 0.7181 0.7180 0.7180 0.7180
2359.861647 0.7180 0.7180 0.7180 0.7180 0.7180
2363.610206 0.7180 0.7180 0.7180 0.7180 0.7178
2367.358765 0.7176 0.7173 0.7171 0.7170 0.7170
2371.107324 0.7170 0.7170 0.7168 0.7166 0.7163
2374.855882 0.7161 0.7158 0.7156 0.7153 0.7151
2378.604441 0.7146 0.7141 0.7136 0.7131 0.7130
2382.353000 0.7130 0.7130 0.7130 0.7128 0.7126
2386.101559 0.7123 0.7121 0.7116 0.7111 0.7106
2389.850118 0.7101 0.7098 0.7096 0.7093 0.7091
2393.598676 0.7086 0.7081 0.7076 0.7071 0.7068
2397.347235 0.7066 0.7063 0.7061 0.7054 0.7047
2401.095794 0.7039 0.7032 0.7028 0.7026 0.7023
2404.844353 0.7021 0.7018 0.7016 0.7013 0.7011
2408.592912 0.7010 0.7010 0.7010 0.7010 0.7010
2412.341471 0.7010 0.7010 0.7010 0.7010 0.7010
2416.090029 0.7010 0.7010 0.7010 0.7010 0.7010
2419.838588 0.7010 0.7010 0.7010 0.7010 0.7010
2423.587147 0.7012 0.7014 0.7017 0.7019 0.7020
2427.335706 0.7020 0.7020 0.7020 0.7020 0.7020
2431.084265 0.7020 0.7020 0.7020 0.7020 0.7020
2434.832824 0.7020 0.7018 0.7016 0.7013 0.7011
2438.581382 0.7010 0.7010 0.7010 0.7010 0.7010
2442.329941 0.7010 0.7010 0.7010 0.7008 0.7006
2446.078500 0.7003 0.7001 0.6998 0.6996 0.6993
2449.827059 0.6991 0.6986 0.6981 0.6976 0.6971
2453.575618 0.6970 0.6970 0.6970 0.6970 0.6968
2457.324176 0.6966 0.6963 0.6961 0.6958 0.6956
2461.072735 0.6953 0.6951 0.6950 0.6950 0.6950
2464.821294 0.6950 0.6948 0.6946 0.6943 0.6941
2468.569853 0.6938 0.6936 0.6933 0.6931 0.6928
2472.318412 0.6926 0.6923 0.6921 0.6920 0.6920
2476.066971 0.6920 0.6920 0.6918 0.6916 0.6913
2479.815529 0.6911 0.6906 0.6901 0.6896 0.6891
2483.564088 0.6890 0.6890 0.6890 0.6890 0.6890
2487.312647 0.6890 0.6890 0.6890 0.6890 0.6890
2491.061206 0.6890 0.6890 0.6890 0.6890 0.6890
2494.809765 0.6890 0.6890 0.6890 0.6890 0.6890
2498.558324 0.6890 0.6890 0.6890 0.6890 0.6892
2502.306882 0.6894 0.6897 0.6899 0.6902 0.6904
2506.055441 0.6907 0.6909 0.6910 0.6910 0.6910
2509.804000 0.6910 0.6910 0.6910 0.6910 0.6910
2513.552559 0.6910 0.6910 0.6910 0.6910 0.6908
2517.301118 0.6906 0.6903 0.6901 0.6898 0.6896
2521.049676 0.6893 0.6891 0.6886 0.6881 0.6876
2524.798235 0.6871 0.6866 0.6862 0.6857 0.6852
2528.546794 0.6845 0.6837 0.6830 0.6822 0.6818
2532.295353 0.6816 0.6813 0.6811 0.6807 0.6802
2536.043912 0.6797 0.6792 0.6787 0.6782 0.6776
2539.792471 0.6771 0.6766 0.6761 0.6756 0.6751
2543.541029 0.6750 0.6750 0.6750 0.6750 0.6748
2547.289588 0.6746 0.6743 0.6741 0.6738 0.6736
2551.038147 0.6733 0.6731 0.6732 0.6734 0.6737
2554.786706 0.6739 0.6740 0.6740 0.6740 0.6740
2558.535265 0.6742 0.6744 0.6747 0.6749 0.6750
2562.283824 0.6750 0.6750 0.6750 0.6750 0.6750
2566.032382 0.6750 0.6750 0.6748 0.6746 0.6743
2569.780941 0.6741 0.6740 0.6740 0.6740 0.6740
2573.529500 0.6740 0.6740 0.6740 0.6740 0.6738
2577.278059 0.6736 0.6733 0.6731 0.6730 0.6730
2581.026618 0.6730 0.6730 0.6728 0.6726 0.6723
2584.775176 0.6721 0.6718 0.6716 0.6713 0.6711
2588.523735 0.6707 0.6702 0.6697 0.6692 0.6690
2592.272294 0.6690 0.6690 0.6690 0.6690 0.6690
2596.020853 0.6690 0.6690 0.6687 0.6682 0.6677
2599.769412 0.6672 0.6668 0.6666 0.6663 0.6661
2603.517971 0.6660 0.6660 0.6660 0.6660 0.6660
2607.266529 0.6660 0.6660 0.6660 0.6658 0.6656
2611.015088 0.6653 0.6651 0.6650 0.6650 0.6650
2614.763647 0.6650 0.6650 0.6650 0.6650 0.6650
2618.512206 0.6650 0.6650 0.6650 0.6650 0.6650
2622.260765 0.6650 0.6650 0.6650 0.6652 0.6654
2626.009324 0.6657 0.6659 0.6660 0.6660 0.6660
2629.757882 0.6660 0.6660 0.6660 0.6660 0.6660
2633.506441 0.6660 0.6660 0.6660 0.6660 0.6660
2637.255000 0.6660 0.6660 0.6660 0.6660 0.6660
2641.003559 0.6660 0.6660 0.6660 0.6660 0.6660
2644.752118 0.6660 0.6660 0.6660 0.6660 0.6660
2648.500676 0.6660 0.6660 0.6660 0.6660 0.6660
2652.249235 0.6660 0.6660 0.6660 0.6658 0.6656
2655.997794 0.6653 0.6651 0.6648 0.6646 0.6643
2659.746353 0.6641 0.6638 0.6636 0.6633 0.6631
2663.494912 0.6628 0.6626 0.6623 0.6621 0.6618
2667.243471 0.6616 0.6613 0.6611 0.6608 0.6606
2670.992029 0.6603 0.6601 0.6598 0.6596 0.6593
2674.740588 0.6591 0.6590 0.6590 0.6590 0.6590
2678.489147 0.6587 0.6582 0.6577 0.6572 0.6570
2682.237706 0.6570 0.6570 0.6570 0.6569 0.6566
2685.986265 0.6564 0.6561 0.6560 0.6560 0.6560
2689.734824 0.6560 0.6560 0.6560 0.6560 0.6560
2693.483382 0.6560 0.6560 0.6560 0.6560 0.6560
2697.231941 0.6560 0.6560 0.6560 0.6560 0.6560
2700.980500 0.6560 0.6560 0.6560 0.6560 0.6560
2704.729059 0.6560 0.6560 0.6560 0.6560 0.6560
2708.477618 0.6560 0.6560 0.6560 0.6560 0.6559
2712.226176 0.6556 0.6554 0.6551 0.6550 0.6550
2715.974735 0.6550 0.6550 0.6550 0.6550 0.6550
2719.723294 0.6550 0.6547 0.6542 0.6537 0.6532
2723.471853 0.6528 0.6526 0.6523 0.6521 0.6518
2727.220412 0.6516 0.6513 0.6511 0.6508 0.6506
2730.968971 0.6503 0.6501 0.6500 0.6500 0.6500
2734.717529 0.6500 0.6500 0.6500 0.6500 0.6500
2738.466088 0.6500 0.6500 0.6500 0.6500 0.6499
2742.214647 0.6496 0.6494 0.6491 0.6490 0.6490
2745.963206 0.6490 0.6490 0.6490 0.6490 0.6490
2749.711765 0.6490 0.6490 0.6490 0.6490 0.6490
2753.460324 0.6490 0.6490 0.6490 0.6490 0.6492
2757.208882 0.6494 0.6496 0.6499 0.6500 0.6500
2760.957441 0.6500 0.6500 0.6499 0.6496 0.6494
2764.706000 0.6491 0.6490 0.6490 0.6490 0.6490
2768.454559 0.6490 0.6490 0.6490 0.6490 0.6490
2772.203118 0.6490 0.6490 0.6490 0.6490 0.6490
2775.951676 0.6490 0.6490 0.6490 0.6490 0.6490
2779.700235 0.6490 0.6489 0.6486 0.6484 0.6481
2783.448794 0.6480 0.6480 0.6480 0.6480 0.6480
2787.197353 0.6480 0.6480 0.6480 0.6477 0.6472
2790.945912 0.6467 0.6462 0.6457 0.6452 0.6447
2794.694471 0.6442 0.6434 0.6424 0.6414 0.6404
2798.443029 0.6396 0.6388 0.6381 0.6373 0.6366
2802.191588 0.6358 0.6351 0.6343 0.6336 0.6328
2805.940147 0.6321 0.6314 0.6303 0.6291 0.6278
2809.688706 0.6265 0.6254 0.6244 0.6234 0.6224
2813.437265 0.6211 0.6196 0.6181 0.6166 0.6157
2817.185824 0.6152 0.6147 0.6142 0.6137 0.6132
2820.934382 0.6127 0.6122 0.6116 0.6108 0.6101
2824.682941 0.6093 0.6085 0.6075 0.6065 0.6055
2828.431500 0.6041 0.6023 0.6006 0.5988 0.5965
2832.180059 0.5938 0.5910 0.5883 0.5848 0.5805
2835.928618 0.5763 0.5720 0.5614 0.5446 0.5279
2839.677176 0.5112 0.4945 0.4778 0.4610 0.4443
2843.425735 0.4303 0.4183 0.4063 0.3943 0.3825
2847.174294 0.3708 0.3590 0.3473 0.3410 0.3393
2850.922853 0.3376 0.3358 0.3236 0.3024 0.2811
2854.671412 0.2599 0.2471 0.2416 0.2361 0.2306
2858.419971 0.2277 0.2272 0.2267 0.2262 0.2260
2862.168529 0.2260 0.2260 0.2260 0.2261 0.2264
2865.917088 0.2266 0.2269 0.2271 0.2274 0.2276
2869.665647 0.2279 0.2288 0.2303 0.2318 0.2333
2873.414206 0.2348 0.2363 0.2378 0.2393 0.2423
2877.162765 0.2465 0.2508 0.2550 0.2604 0.2669
2880.911324 0.2734 0.2799 0.2831 0.2834 0.2836
2884.659882 0.2839 0.2839 0.2836 0.2834 0.2831
2888.408441 0.2825 0.2815 0.2805 0.2795 0.2771
2892.157000 0.2734 0.2696 0.2659 0.2613 0.2558
2895.905559 0.2503 0.2448 0.2392 0.2333 0.2275
2899.654118 0.2217 0.2156 0.2094 0.2032 0.1969
2903.402676 0.1898 0.1818 0.1738 0.1658 0.1589
2907.151235 0.1529 0.1469 0.1409 0.1353 0.1301
2910.899794 0.1248 0.1196 0.1155 0.1125 0.1095
2914.648353 0.1065 0.1035 0.1005 0.0975 0.0945
2918.396912 0.0915 0.0885 0.0855 0.0825 0.0806
2922.145471 0.0799 0.0791 0.0784 0.0782 0.0787
2925.894029 0.0792 0.0797 0.0823 0.0871 0.0919
2929.642588 0.0967 0.0995 0.1005 0.1015 0.1025
2933.391147 0.1043 0.1068 0.1093 0.1118 0.1133
2937.139706 0.1138 0.1143 0.1148 0.1154 0.1161
2940.888265 0.1169 0.1176 0.1180 0.1180 0.1180
2944.636824 0.1180 0.1180 0.1180 0.1180 0.1180
2948.385382 0.1174 0.1162 0.1149 0.1137 0.1130
2952.133941 0.1130 0.1130 0.1130 0.1143 0.1170
2955.882500 0.1198 0.1225 0.1262 0.1310 0.1358
2959.631059 0.1406 0.1450 0.1490 0.1530 0.1570
2963.379618 0.1626 0.1699 0.1771 0.1843 0.1907
2967.128176 0.1962 0.2017 0.2072 0.2130 0.2193
2970.876735 0.2255 0.2317 0.2387 0.2464 0.2542
2974.625294 0.2619 0.2694 0.2766 0.2839 0.2911
2978.373853 0.2979 0.3041 0.3104 0.3166 0.3258
2982.122412 0.3385 0.3512 0.3640 0.3731 0.3779
2985.870971 0.3826 0.3873 0.3914 0.3947 0.3980
2989.619529 0.4013 0.4044 0.4071 0.4098 0.4126
2993.368088 0.4151 0.4173 0.4196 0.4218 0.4242
2997.116647 0.4267 0.4292 0.4317 0.4345 0.4378
3000.865206 0.4410 0.4443 0.4481 0.4526 0.4571
3004.613765 0.4616 0.4668 0.4731 0.4793 0.4856
3008.362324 0.4901 0.4926 0.4951 0.4976 0.4995
3012.110882 0.5008 0.5020 0.5033 0.5046 0.5061
3015.859441 0.5076 0.5091 0.5109 0.5129 0.5149
3019.608000 0.5169 0.5182 0.5187 0.5192 0.5197
3023.356559 0.5201 0.5204 0.5206 0.5209 0.5211
3027.105118 0.5214 0.5216 0.5219 0.5221 0.5224
3030.853676 0.5226 0.5229 0.5231 0.5234 0.5236
3034.602235 0.5239 0.5242 0.5247 0.5252 0.5257
3038.350794 0.5261 0.5264 0.5266 0.5269 0.5272
3042.099353 0.5277 0.5282 0.5287 0.5291 0.5294
3045.847912 0.5296 0.5299 0.5303 0.5311 0.5318
3049.596471 0.5326 0.5330 0.5330 0.5330 0.5330
3053.345029 0.5331 0.5334 0.5336 0.5339 0.5342
3057.093588 0.5347 0.5352 0.5357 0.5360 0.5360
3060.842147 0.5360 0.5360 0.5362 0.5367 0.5372
3064.590706 0.5377 0.5381 0.5384 0.5386 0.5389
3068.339265 0.5391 0.5394 0.5396 0.5399 0.5402
3072.087824 0.5407 0.5412 0.5417 0.5422 0.5427
3075.836382 0.5432 0.5437 0.5443 0.5451 0.5458
3079.584941 0.5466 0.5472 0.5477 0.5482 0.5487
3083.333500 0.5491 0.5494 0.5496 0.5499 0.5500
3087.082059 0.5500 0.5500 0.5500 0.5501 0.5504
3090.830618 0.5506 0.5509 0.5510 0.5510 0.5510
3094.579176 0.5510 0.5511 0.5514 0.5516 0.5519
3098.327735 0.5521 0.5524 0.5526 0.5528 0.5530
3102.076294 0.5530 0.5530 0.5530 0.5530 0.5530
3105.824853 0.5530 0.5530 0.5530 0.5530 0.5530
3109.573412 0.5530 0.5530 0.5530 0.5530 0.5530
3113.321971 0.5530 0.5530 0.5530 0.5530 0.5530
3117.070529 0.5530 0.5530 0.5530 0.5530 0.5530
3120.819088 0.5530 0.5530 0.5530 0.5530 0.5530
3124.567647 0.5530 0.5530 0.5530 0.5530 0.5530
3128.316206 0.5530 0.5530 0.5530 0.5530 0.5530
3132.064765 0.5530 0.5530 0.5530 0.5530 0.5530
3135.813324 0.5530 0.5530 0.5530 0.5530 0.5530
3139.561882 0.5530 0.5530 0.5530 0.5530 0.5530
3143.310441 0.5530 0.5530 0.5530 0.5530 0.5530
3147.059000 0.5530 0.5530 0.5530 0.5530 0.5530
3150.807559 0.5530 0.5530 0.5530 0.5530 0.5530
3154.556118 0.5530 0.5530 0.5530 0.5530 0.5530
3158.304676 0.5530 0.5530 0.5530 0.5530 0.5530
3162.053235 0.5530 0.5530 0.5530 0.5530 0.5530
3165.801794 0.5530 0.5530 0.5530 0.5530 0.5530
3169.550353 0.5530 0.5530 0.5530 0.5530 0.5530
3173.298912 0.5530 0.5530 0.5530 0.5530 0.5530
3177.047471 0.5530 0.5530 0.5530 0.5530 0.5530
3180.796029 0.5530 0.5530 0.5530 0.5530 0.5530
3184.544588 0.5530 0.5530 0.5530 0.5530 0.5530
3188.293147 0.5530 0.5530 0.5530 0.5530 0.5530
3192.041706 0.5530 0.5530 0.5530 0.5530 0.5530
3195.790265 0.5530 0.5530 0.5530 0.5530 0.5530
3199.538824 0.5530 0.5530 0.5530 0.5530 0.5530
3203.287382 0.5530 0.5530 0.5530 0.5530 0.5530
3207.035941 0.5530 0.5530 0.5530 0.5529 0.5527
3210.784500 0.5524 0.5522 0.5520 0.5520 0.5520
3214.533059 0.5520 0.5520 0.5520 0.5520 0.5520
3218.281618 0.5520 0.5520 0.5520 0.5520 0.5519
3222.030176 0.5517 0.5514 0.5512 0.5510 0.5510
3225.778735 0.5510 0.5510 0.5510 0.5510 0.5510
3229.527294 0.5510 0.5509 0.5507 0.5504 0.5502
3233.275853 0.5500 0.5500 0.5500 0.5500 0.5500
3237.024412 0.5500 0.5500 0.5500 0.5500 0.5500
3240.772971 0.5500 0.5500 0.5500 0.5500 0.5500
3244.521529 0.5500 0.5500 0.5500 0.5500 0.5500
3248.270088 0.5499 0.5497 0.5494 0.5492 0.5490
3252.018647 0.5490 0.5490 0.5490 0.5490 0.5490
3255.767206 0.5490 0.5490 0.5489 0.5487 0.5484
3259.515765 0.5482 0.5480 0.5480 0.5480 0.5480
3263.264324 0.5480 0.5480 0.5480 0.5480 0.5479
3267.012882 0.5477 0.5474 0.5472 0.5470 0.5470
3270.761441 0.5470 0.5470 0.5470 0.5470 0.5470
3274.510000 0.5470 0.5470 0.5470 0.5470 0.5470
3278.258559 0.5469 0.5467 0.5464 0.5462 0.5459
3282.007118 0.5457 0.5454 0.5452 0.5450 0.5450
3285.755676 0.5450 0.5450 0.5449 0.5447 0.5444
3289.504235 0.5442 0.5440 0.5440 0.5440 0.5440
3293.252794 0.5440 0.5440 0.5440 0.5440 0.5439
3297.001353 0.5437 0.5434 0.5432 0.5430 0.5430
3300.749912 0.5430 0.5430 0.5429 0.5427 0.5424
3304.498471 0.5422 0.5420 0.5420 0.5420 0.5420
3308.247029 0.5420 0.5420 0.5420 0.5420 0.5419
3311.995588 0.5417 0.5414 0.5412 0.5409 0.5407
3315.744147 0.5404 0.5402 0.5399 0.5397 0.5394
3319.492706 0.5392 0.5390 0.5390 0.5390 0.5390
3323.241265 0.5390 0.5390 0.5390 0.5390 0.5390
3326.989824 0.5390 0.5390 0.5390 0.5390 0.5390
3330.738382 0.5390 0.5390 0.5390 0.5390 0.5390
3334.486941 0.5390 0.5389 0.5387 0.5384 0.5382
3338.235500 0.5379 0.5377 0.5374 0.5372 0.5369
3341.984059 0.5367 0.5364 0.5362 0.5360 0.5360
3345.732618 0.5360 0.5360 0.5360 0.5360 0.5360
3349.481176 0.5360 0.5360 0.5360 0.5360 0.5360
3353.229735 0.5360 0.5360 0.5360 0.5360 0.5360
3356.978294 0.5360 0.5360 0.5360 0.5360 0.5360
3360.726853 0.5360 0.5360 0.5360 0.5360 0.5360
3364.475412 0.5360 0.5360 0.5360 0.5360 0.5360
3368.223971 0.5360 0.5360 0.5360 0.5360 0.5360
3371.972529 0.5360 0.5360 0.5360 0.5359 0.5357
3375.721088 0.5354 0.5352 0.5350 0.5350 0.5350
3379.469647 0.5350 0.5350 0.5350 0.5350 0.5350
3383.218206 0.5349 0.5347 0.5344 0.5342 0.5340
3386.966765 0.5340 0.5340 0.5340 0.5339 0.5337
3390.715324 0.5334 0.5332 0.5330 0.5330 0.5330
3394.463882 0.5330 0.5330 0.5330 0.5330 0.5330
3398.212441 0.5330 0.5330 0.5330 0.5330 0.5330
3401.961000 0.5330 0.5330 0.5330 0.5329 0.5327
3405.709559 0.5324 0.5322 0.5320 0.5320 0.5320
3409.458118 0.5320 0.5319 0.5317 0.5314 0.5312
3413.206676 0.5310 0.5310 0.5310 0.5310 0.5309
3416.955235 0.5307 0.5304 0.5302 0.5300 0.5300
3420.703794 0.5300 0.5300 0.5300 0.5300 0.5300
3424.452353 0.5300 0.5300 0.5300 0.5300 0.5300
3428.200912 0.5299 0.5297 0.5294 0.5292 0.5290
3431.949471 0.5290 0.5290 0.5290 0.5289 0.5287
3435.698029 0.5284 0.5282 0.5280 0.5280 0.5280
3439.446588 0.5280 0.5280 0.5280 0.5280 0.5280
3443.195147 0.5279 0.5277 0.5274 0.5272 0.5270
3446.943706 0.5270 0.5270 0.5270 0.5269 0.5267
3450.692265 0.5264 0.5262 0.5260 0.5260 0.5260
3454.440824 0.5260 0.5259 0.5254 0.5249 0.5244
3458.189382 0.5240 0.5240 0.5240 0.5240 0.5240
3461.937941 0.5240 0.5240 0.5240 0.5240 0.5240
3465.686500 0.5240 0.5240 0.5240 0.5237 0.5234
3469.435059 0.5232 0.5230 0.5230 0.5230 0.5230
3473.183618 0.5229 0.5227 0.5224 0.5222 0.5220
3476.932176 0.5220 0.5220 0.5220 0.5219 0.5217
3480.680735 0.5214 0.5212 0.5210 0.5210 0.5210
3484.429294 0.5210 0.5210 0.5210 0.5210 0.5210
3488.177853 0.5210 0.5210 0.5210 0.5210 0.5210
3491.926412 0.5210 0.5210 0.5210 0.5210 0.5210
3495.674971 0.5210 0.5210 0.5210 0.5210 0.5210
3499.423529 0.5210 0.5210 0.5210 0.5210 0.5210
3503.172088 0.5210 0.5210 0.5210 0.5210 0.5210
3506.920647 0.5210 0.5210 0.5210 0.5210 0.5210
3510.669206 0.5210 0.5210 0.5210 0.5210 0.5210
3514.417765 0.5210 0.5210 0.5210 0.5210 0.5210
3518.166324 0.5210 0.5207 0.5205 0.5202 0.5200
3521.914882 0.5200 0.5200 0.5200 0.5200 0.5200
3525.663441 0.5200 0.5200 0.5200 0.5200 0.5200
3529.412000 0.5200 0.5199 0.5197 0.5194 0.5192
3533.160559 0.5190 0.5190 0.5190 0.5190 0.5190
3536.909118 0.5190 0.5190 0.5190 0.5190 0.5190
3540.657676 0.5190 0.5190 0.5190 0.5187 0.5185
3544.406235 0.5182 0.5180 0.5180 0.5180 0.5180
3548.154794 0.5180 0.5180 0.5180 0.5180 0.5180
3551.903353 0.5180 0.5180 0.5180 0.5180 0.5180
3555.651912 0.5180 0.5180 0.5180 0.5180 0.5180
3559.400471 0.5180 0.5180 0.5177 0.5175 0.5172
3563.149029 0.5170 0.5170 0.5170 0.5170 0.5170
3566.897588 0.5170 0.5170 0.5170 0.5170 0.5167
3570.646147 0.5165 0.5162 0.5160 0.5160 0.5160
3574.394706 0.5160 0.5160 0.5160 0.5160 0.5160
3578.143265 0.5160 0.5157 0.5155 0.5152 0.5150
3581.891824 0.5150 0.5150 0.5150 0.5150 0.5150
3585.640382 0.5150 0.5150 0.5150 0.5150 0.5150
3589.388941 0.5150 0.5150 0.5150 0.5150 0.5150
3593.137500 0.5150 0.5150 0.5150 0.5150 0.5150
3596.886059 0.5150 0.5150 0.5150 0.5150 0.5147
3600.634618 0.5145 0.5142 0.5140 0.5140 0.5140
3604.383176 0.5140 0.5140 0.5140 0.5140 0.5140
3608.131735 0.5140 0.5140 0.5140 0.5140 0.5140
3611.880294 0.5137 0.5135 0.5132 0.5130 0.5130
3615.628853 0.5130 0.5130 0.5130 0.5130 0.5130
3619.377412 0.5130 0.5130 0.5130 0.5130 0.5130
3623.125971 0.5130 0.5127 0.5125 0.5122 0.5120
3626.874529 0.5117 0.5115 0.5112 0.5110 0.5107
3630.623088 0.5105 0.5102 0.5100 0.5097 0.5095
3634.371647 0.5092 0.5090 0.5090 0.5090 0.5090
3638.120206 0.5090 0.5087 0.5085 0.5082 0.5080
3641.868765 0.5077 0.5075 0.5072 0.5070 0.5070
3645.617324 0.5070 0.5070 0.5070 0.5070 0.5070
3649.365882 0.5070 0.5070 0.5070 0.5070 0.5070
3653.114441 0.5070 0.5067 0.5065 0.5062 0.5060
3656.863000 0.5057 0.5055 0.5052 0.5050 0.5050
3660.611559 0.5050 0.5050 0.5050 0.5047 0.5045
3664.360118 0.5042 0.5040 0.5040 0.5040 0.5040
3668.108676 0.5040 0.5037 0.5035 0.5032 0.5030
3671.857235 0.5027 0.5025 0.5022 0.5020 0.5020
3675.605794 0.5020 0.5020 0.5020 0.5017 0.5015
3679.354353 0.5012 0.5010 0.5010 0.5010 0.5010
3683.102912 0.5010 0.5007 0.5005 0.5002 0.5000
3686.851471 0.4997 0.4995 0.4992 0.4990 0.4990
3690.600029 0.4990 0.4990 0.4990 0.4987 0.4985
3694.348588 0.4982 0.4980 0.4980 0.4980 0.4980
3698.097147 0.4980 0.4977 0.4975 0.4972 0.4970
3701.845706 0.4970 0.4970 0.4970 0.4970 0.4967
3705.594265 0.4965 0.4962 0.4960 0.4960 0.4960
3709.342824 0.4960 0.4960 0.4957 0.4955 0.4952
3713.091382 0.4950 0.4950 0.4950 0.4950 0.4950
3716.839941 0.4950 0.4950 0.4950 0.4950 0.4950
3720.588500 0.4950 0.4950 0.4950 0.4947 0.4945
3724.337059 0.4942 0.4940 0.4940 0.4940 0.4940
3728.085618 0.4940 0.4937 0.4935 0.4932 0.4930
3731.834176 0.4930 0.4930 0.4930 0.4930 0.4927
3735.582735 0.4925 0.4922 0.4920 0.4920 0.4920
3739.331294 0.4920 0.4920 0.4917 0.4915 0.4912
3743.079853 0.4910 0.4910 0.4910 0.4910 0.4910
3746.828412 0.4907 0.4905 0.4902 0.4900 0.4897
3750.576971 0.4895 0.4892 0.4890 0.4890 0.4890
3754.325529 0.4890 0.4890 0.4890 0.4890 0.4890
3758.074088 0.4890 0.4887 0.4885 0.4882 0.4880
3761.822647 0.4880 0.4880 0.4880 0.4880 0.4877
3765.571206 0.4875 0.4872 0.4870 0.4867 0.4865
3769.319765 0.4862 0.4860 0.4860 0.4860 0.4860
3773.068324 0.4860 0.4860 0.4860 0.4860 0.4860
3776.816882 0.4857 0.4855 0.4852 0.4850 0.4850
3780.565441 0.4850 0.4850 0.4850 0.4847 0.4845
3784.314000 0.4842 0.4840 0.4840 0.4840 0.4840
3788.062559 0.4840 0.4840 0.4840 0.4840 0.4840
3791.811118 0.4840 0.4840 0.4840 0.4840 0.4840
3795.559676 0.4840 0.4840 0.4840 0.4837 0.4835
3799.308235 0.4832 0.4830 0.4825 0.4820 0.4815
3803.056794 0.4810 0.4810 0.4810 0.4810 0.4810
3806.805353 0.4810 0.4810 0.4810 0.4810 0.4810
3810.553912 0.4810 0.4810 0.4810 0.4807 0.4805
3814.302471 0.4802 0.4800 0.4797 0.4795 0.4792
3818.051029 0.4790 0.4787 0.4785 0.4782 0.4780
3821.799588 0.4780 0.4780 0.4780 0.4780 0.4780
3825.548147 0.4780 0.4780 0.4780 0.4777 0.4775
3829.296706 0.4772 0.4770 0.4767 0.4765 0.4762
3833.045265 0.4760 0.4757 0.4755 0.4752 0.4750
3836.793824 0.4750 0.4750 0.4750 0.4750 0.4750
3840.542382 0.4750 0.4750 0.4750 0.4747 0.4745
3844.290941 0.4742 0.4740 0.4740 0.4740 0.4740
3848.039500 0.4740 0.4737 0.4735 0.4732 0.4730
3851.788059 0.4730 0.4730 0.4730 0.4730 0.4728
3855.536618 0.4725 0.4723 0.4720 0.4720 0.4720
3859.285176 0.4720 0.4720 0.4720 0.4720 0.4720
3863.033735 0.4720 0.4720 0.4720 0.4720 0.4720
3866.782294 0.4717 0.4715 0.4712 0.4710 0.4710
3870.530853 0.4710 0.4710 0.4710 0.4707 0.4705
3874.279412 0.4702 0.4700 0.4700 0.4700 0.4700
3878.027971 0.4700 0.4698 0.4695 0.4693 0.4690
3881.776529 0.4690 0.4690 0.4690 0.4690 0.4690
3885.525088 0.4690 0.4690 0.4690 0.4688 0.4685
3889.273647 0.4682 0.4680 0.4680 0.4680 0.4680
3893.022206 0.4680 0.4677 0.4675 0.4672 0.4670
3896.770765 0.4667 0.4665 0.4662 0.4660 0.4660
3900.519324 0.4660 0.4660 0.4660 0.4660 0.4660
3904.267882 0.4660 0.4660 0.4658 0.4655 0.4653
3908.016441 0.4650 0.4648 0.4645 0.4643 0.4640
3911.765000 0.4640 0.4640 0.4640 0.4640 0.4638
3915.513559 0.4635 0.4633 0.4630 0.4628 0.4625
3919.262118 0.4622 0.4620 0.4620 0.4620 0.4620
3923.010676 0.4620 0.4617 0.4615 0.4612 0.4610
3926.759235 0.4610 0.4610 0.4610 0.4610 0.4608
3930.507794 0.4605 0.4603 0.4600 0.4600 0.4600
3934.256353 0.4600 0.4600 0.4600 0.4600 0.4600
3938.004912 0.4600 0.4598 0.4595 0.4593 0.4590
3941.753471 0.4588 0.4585 0.4583 0.4580 0.4580
3945.502029 0.4580 0.4580 0.4580 0.4578 0.4575
3949.250588 0.4573 0.4570 0.4570 0.4570 0.4570
3952.999147 0.4570 0.4570 0.4570 0.4570 0.4570
3956.747706 0.4565 0.4560 0.4555 0.4550 0.4550
3960.496265 0.4550 0.4550 0.4550 0.4550 0.4550
3964.244824 0.4550 0.4550 0.4550 0.4550 0.4550
3967.993382 0.4550 0.4550 0.4550 0.4550 0.4550
3971.741941 0.4548 0.4545 0.4543 0.4540 0.4540
3975.490500 0.4540 0.4540 0.4540 0.4538 0.4535
3979.239059 0.4533 0.4530 0.4530 0.4530 0.4530
3982.987618 0.4530 0.4528 0.4525 0.4523 0.4520
3986.736176 0.4520 0.4520 0.4520 0.4520 0.4520
3990.484735 0.4520 0.4520 0.4520 0.4518 0.4515
3994.233294 0.4513 0.4510 0.4510 0.4510 0.4510
3997.981853 0.4510 0.4508 0.4505 0.4503 0.4500
4001.730412 0.4500 0.4500 0.4500 0.4500
##END=
