##TITLE=DIETHOXYMETHYLVINYLSILANE
##JCAMP-DX=4.24
##DATA TYPE=INFRARED SPECTRUM
##CLASS=COBLENTZ
##ORIGIN=PENINSULAR CHEMRESEARCH, INC., GAINESVILLE, FLORIDA
##OWNER=COBLENTZ SOCIETY
Collection (C) 2018 copyright by the U.S. Secretary of Commerce
on behalf of the United States of America. All rights reserved.
##DATE=Not specified, most likely prior to 1970
##NAMES=diethoxy(methyl)vinylsilane
##CAS REGISTRY NO=5507-44-8
##MOLFORM=C7 H16 O2 Si
##SOURCE REFERENCE=COBLENTZ NO. 4920
##$NIST SOURCE=COBLENTZ
##$NIST IMAGE=cob4920
##SPECTROMETER/DATA SYSTEM=BECKMAN IR-4 (HYBRID PRISM-GRATING)
##STATE=SOLID (BETWEEN SALTS)
##SAMPLING PROCEDURE=TRANSMISSION
##RESOLUTION=4
$$ MW 160.29
##DATA PROCESSING=DIGITIZED BY NIST FROM HARD COPY
##XUNITS=MICROMETERS
##YUNITS=TRANSMITTANCE
##XFACTOR=1.000000
##YFACTOR=1
##DELTAX=000.004992
##FIRSTX=2.035
##LASTX=15.013
##FIRSTY=0.961
##MAXX=15.013
##MINX=2.035
##MAXY=0.971
##MINY=0.046
##NPOINTS=2601
##XYDATA=(X++(Y..Y))
2.035000 0.9610 0.9610 0.9610 0.9600 0.9550
2.059968 0.9530 0.9510 0.9500 0.9470 0.9460
2.085000 0.9450 0.9450 0.9450 0.9460 0.9470
2.109968 0.9480 0.9480 0.9500 0.9510 0.9530
2.135000 0.9560 0.9580 0.9580 0.9600 0.9580
2.159968 0.9560 0.9520 0.9480 0.9450 0.9400
2.185000 0.9380 0.9350 0.9320 0.9300 0.9250
2.209968 0.9150 0.9120 0.9120 0.9110 0.9110
2.235000 0.9110 0.9120 0.9120 0.9130 0.9170
2.259968 0.9220 0.9230 0.9250 0.9280 0.9310
2.285000 0.9320 0.9330 0.9330 0.9350 0.9360
2.309968 0.9380 0.9400 0.9410 0.9420 0.9430
2.334000 0.9430 0.9450 0.9450 0.9450 0.9430
2.358968 0.9420 0.9410 0.9410 0.9400 0.9400
2.384000 0.9400 0.9380 0.9350 0.9330 0.9320
2.408968 0.9310 0.9300 0.9300 0.9300 0.9280
2.434000 0.9280 0.9280 0.9300 0.9300 0.9310
2.458968 0.9320 0.9330 0.9360 0.9370 0.9370
2.484000 0.9410 0.9420 0.9420 0.9410 0.9400
2.508968 0.9380 0.9360 0.9350 0.9300 0.9260
2.534000 0.9230 0.9220 0.9210 0.9210 0.9200
2.558968 0.9200 0.9200 0.9200 0.9200 0.9180
2.584000 0.9180 0.9170 0.9110 0.9070 0.9060
2.608968 0.9020 0.9010 0.8980 0.8920 0.8880
2.634000 0.8860 0.8820 0.8800 0.8760 0.8750
2.658968 0.8720 0.8720 0.8710 0.8710 0.8700
2.684000 0.8670 0.8660 0.8630 0.8620 0.8600
2.708968 0.8570 0.8550 0.8510 0.8480 0.8460
2.734000 0.8420 0.8380 0.8350 0.8300 0.8270
2.758968 0.8250 0.8230 0.8220 0.8200 0.8180
2.784000 0.8160 0.8130 0.8120 0.8110 0.8100
2.808968 0.8100 0.8100 0.8110 0.8120 0.8130
2.834000 0.8160 0.8170 0.8180 0.8200 0.8210
2.858968 0.8210 0.8220 0.8230 0.8250 0.8270
2.884000 0.8280 0.8310 0.8320 0.8330 0.8370
2.908968 0.8400 0.8430 0.8430 0.8450 0.8450
2.933000 0.8470 0.8480 0.8510 0.8520 0.8570
2.957968 0.8620 0.8670 0.8700 0.8720 0.8750
2.983000 0.8760 0.8800 0.8810 0.8820 0.8850
3.007968 0.8860 0.8880 0.8900 0.8900 0.8910
3.033000 0.8910 0.8910 0.8920 0.8920 0.8920
3.057968 0.8920 0.8910 0.8910 0.8910 0.8900
3.083000 0.8900 0.8900 0.8880 0.8880 0.8870
3.107968 0.8860 0.8860 0.8860 0.8850 0.8850
3.133000 0.8850 0.8830 0.8820 0.8820 0.8810
3.157968 0.8780 0.8760 0.8720 0.8660 0.8610
3.183000 0.8530 0.8450 0.8400 0.8280 0.8120
3.207968 0.7940 0.7700 0.7450 0.7200 0.6940
3.233000 0.6690 0.6460 0.6220 0.6100 0.5960
3.257968 0.5800 0.5710 0.5690 0.5660 0.5390
3.283000 0.5050 0.4680 0.4240 0.3780 0.3280
3.307968 0.2980 0.2670 0.2120 0.1810 0.1620
3.333000 0.1220 0.0710 0.0710 0.0780 0.0880
3.357968 0.1010 0.1090 0.1240 0.1370 0.1380
3.383000 0.1380 0.1370 0.1360 0.1370 0.1390
3.407968 0.1430 0.1480 0.1560 0.1630 0.1710
3.433000 0.1790 0.1910 0.2090 0.2330 0.2620
3.457968 0.2970 0.3730 0.4130 0.4550 0.4950
3.483000 0.5350 0.5710 0.6460 0.6750 0.6990
3.507968 0.7190 0.7360 0.7510 0.7650 0.7790
3.532000 0.7940 0.8020 0.8080 0.8110 0.8130
3.556968 0.8130 0.8130 0.8110 0.8080 0.8070
3.582000 0.8050 0.8030 0.8020 0.8010 0.8010
3.606968 0.8020 0.8020 0.8050 0.8060 0.8080
3.632000 0.8180 0.8270 0.8360 0.8420 0.8710
3.656968 0.8880 0.9110 0.9170 0.9200 0.9210
3.682000 0.9210 0.9210 0.9200 0.9200 0.9200
3.706968 0.9210 0.9210 0.9210 0.9210 0.9210
3.732000 0.9210 0.9220 0.9220 0.9220 0.9230
3.756968 0.9230 0.9250 0.9250 0.9270 0.9310
3.782000 0.9360 0.9380 0.9410 0.9430 0.9450
3.806968 0.9460 0.9470 0.9470 0.9480 0.9500
3.832000 0.9500 0.9500 0.9500 0.9500 0.9510
3.856968 0.9520 0.9550 0.9550 0.9560 0.9560
3.882000 0.9570 0.9570 0.9580 0.9580 0.9600
3.906968 0.9610 0.9610 0.9620 0.9620 0.9620
3.932000 0.9620 0.9610 0.9600 0.9600 0.9580
3.956968 0.9580 0.9580 0.9580 0.9600 0.9600
3.982000 0.9600 0.9600 0.9600 0.9580 0.9580
4.006968 0.9570 0.9560 0.9560 0.9550 0.9520
4.032000 0.9500 0.9480 0.9480 0.9470 0.9470
4.056968 0.9480 0.9500 0.9520 0.9550 0.9570
4.082000 0.9570 0.9580 0.9580 0.9600 0.9600
4.106968 0.9610 0.9620 0.9620 0.9630 0.9630
4.131000 0.9630 0.9630 0.9620 0.9610 0.9600
4.155968 0.9570 0.9550 0.9510 0.9470 0.9400
4.181000 0.9380 0.9350 0.9320 0.9310 0.9310
4.205968 0.9310 0.9320 0.9320 0.9330 0.9360
4.231000 0.9370 0.9380 0.9380 0.9400 0.9410
4.255968 0.9420 0.9420 0.9430 0.9430 0.9460
4.281000 0.9460 0.9500 0.9520 0.9530 0.9530
4.305968 0.9550 0.9550 0.9550 0.9550 0.9530
4.331000 0.9530 0.9520 0.9520 0.9520 0.9530
4.355968 0.9530 0.9550 0.9550 0.9550 0.9550
4.381000 0.9530 0.9530 0.9530 0.9510 0.9500
4.405968 0.9480 0.9470 0.9470 0.9470 0.9480
4.431000 0.9510 0.9530 0.9530 0.9560 0.9560
4.455968 0.9580 0.9580 0.9580 0.9570 0.9570
4.481000 0.9560 0.9550 0.9520 0.9500 0.9500
4.505968 0.9480 0.9480 0.9480 0.9470 0.9460
4.531000 0.9460 0.9460 0.9470 0.9480 0.9480
4.555968 0.9500 0.9520 0.9550 0.9550 0.9560
4.581000 0.9560 0.9570 0.9570 0.9600 0.9610
4.605968 0.9630 0.9650 0.9650 0.9650 0.9660
4.631000 0.9660 0.9670 0.9670 0.9670 0.9680
4.655968 0.9700 0.9700 0.9700 0.9700 0.9680
4.681000 0.9680 0.9680 0.9680 0.9670 0.9670
4.705968 0.9670 0.9680 0.9680 0.9680 0.9680
4.730000 0.9700 0.9700 0.9700 0.9700 0.9710
4.754968 0.9710 0.9710 0.9710 0.9710 0.9700
4.780000 0.9670 0.9670 0.9670 0.9670 0.9700
4.804968 0.9680 0.9680 0.9680 0.9680 0.9680
4.830000 0.9680 0.9680 0.9670 0.9660 0.9660
4.854968 0.9650 0.9630 0.9630 0.9600 0.9560
4.880000 0.9510 0.9510 0.9480 0.9470 0.9470
4.904968 0.9470 0.9470 0.9470 0.9470 0.9480
4.930000 0.9480 0.9500 0.9500 0.9510 0.9510
4.954968 0.9520 0.9520 0.9520 0.9520 0.9510
4.980000 0.9510 0.9520 0.9520 0.9520 0.9510
5.004968 0.9480 0.9480 0.9470 0.9470 0.9460
5.030000 0.9460 0.9450 0.9430 0.9420 0.9410
5.054968 0.9400 0.9380 0.9360 0.9350 0.9330
5.080000 0.9320 0.9260 0.9250 0.9160 0.9130
5.104968 0.9100 0.9050 0.9020 0.8980 0.8920
5.130000 0.8860 0.8810 0.8770 0.8730 0.8720
5.154968 0.8710 0.8710 0.8710 0.8720 0.8730
5.180000 0.8760 0.8770 0.8800 0.8810 0.8870
5.204968 0.8910 0.8910 0.8920 0.8930 0.8930
5.230000 0.8930 0.8950 0.8950 0.8960 0.8960
5.254968 0.8970 0.8980 0.9000 0.9010 0.9020
5.280000 0.9050 0.9100 0.9120 0.9130 0.9130
5.304968 0.9150 0.9150 0.9160 0.9160 0.9180
5.329000 0.9200 0.9180 0.9210 0.9210 0.9220
5.353968 0.9220 0.9210 0.9200 0.9200 0.9180
5.379000 0.9180 0.9180 0.9180 0.9180 0.9180
5.403968 0.9180 0.9170 0.9170 0.9170 0.9170
5.429000 0.9170 0.9170 0.9170 0.9170 0.9180
5.453968 0.9180 0.9200 0.9200 0.9200 0.9210
5.479000 0.9210 0.9210 0.9210 0.9220 0.9220
5.503968 0.9230 0.9230 0.9230 0.9230 0.9230
5.529000 0.9250 0.9250 0.9230 0.9230 0.9230
5.553968 0.9230 0.9250 0.9260 0.9300 0.9300
5.579000 0.9300 0.9300 0.9300 0.9270 0.9270
5.603968 0.9270 0.9270 0.9280 0.9280 0.9280
5.629000 0.9280 0.9310 0.9310 0.9310 0.9310
5.653968 0.9300 0.9300 0.9280 0.9280 0.9250
5.679000 0.9210 0.9200 0.9200 0.9210 0.9210
5.703968 0.9220 0.9220 0.9230 0.9250 0.9270
5.729000 0.9270 0.9300 0.9300 0.9300 0.9300
5.753968 0.9300 0.9280 0.9280 0.9270 0.9250
5.779000 0.9210 0.9200 0.9210 0.9250 0.9260
5.803968 0.9270 0.9270 0.9270 0.9260 0.9260
5.829000 0.9230 0.9230 0.9250 0.9250 0.9260
5.853968 0.9260 0.9280 0.9300 0.9300 0.9270
5.879000 0.9260 0.9230 0.9230 0.9220 0.9220
5.903968 0.9220 0.9250 0.9270 0.9300 0.9300
5.928000 0.9310 0.9310 0.9310 0.9300 0.9300
5.952968 0.9300 0.9300 0.9300 0.9280 0.9280
5.978000 0.9280 0.9270 0.9270 0.9260 0.9230
6.002968 0.9210 0.9210 0.9210 0.9200 0.9200
6.028000 0.9180 0.9200 0.9200 0.9200 0.9200
6.052968 0.9200 0.9180 0.9160 0.9170 0.9170
6.078000 0.9180 0.9180 0.9170 0.9160 0.9130
6.102968 0.9100 0.9030 0.9020 0.9000 0.8980
6.128000 0.8970 0.8960 0.8950 0.8920 0.8900
6.152968 0.8870 0.8830 0.8780 0.8720 0.8670
6.178000 0.8580 0.8460 0.8300 0.8060 0.7740
6.202968 0.7320 0.7120 0.6910 0.6600 0.6600
6.228000 0.6770 0.6960 0.7150 0.7340 0.7510
6.252968 0.7990 0.8450 0.8700 0.8810 0.8850
6.278000 0.8950 0.9020 0.9020 0.9010 0.9000
6.302968 0.8970 0.8950 0.8930 0.8910 0.8900
6.328000 0.8910 0.8910 0.8900 0.8880 0.8860
6.352968 0.8830 0.8820 0.8810 0.8780 0.8770
6.378000 0.8760 0.8750 0.8730 0.8750 0.8750
6.402968 0.8770 0.8800 0.8800 0.8800 0.8780
6.428000 0.8770 0.8760 0.8730 0.8730 0.8720
6.452968 0.8730 0.8730 0.8750 0.8760 0.8770
6.478000 0.8780 0.8800 0.8800 0.8800 0.8800
6.502968 0.8800 0.8800 0.8780 0.8770 0.8760
6.527000 0.8760 0.8760 0.8760 0.8760 0.8760
6.551968 0.8770 0.8780 0.8780 0.8800 0.8800
6.577000 0.8800 0.8800 0.8800 0.8780 0.8720
6.601968 0.8670 0.8630 0.8600 0.8600 0.8580
6.627000 0.8580 0.8570 0.8570 0.8560 0.8530
6.651968 0.8520 0.8480 0.8460 0.8400 0.8330
6.677000 0.8250 0.8150 0.8050 0.8000 0.7910
6.701968 0.7900 0.7890 0.7900 0.7920 0.7950
6.727000 0.7970 0.8020 0.8050 0.8120 0.8130
6.751968 0.8150 0.8120 0.8100 0.8080 0.8020
6.777000 0.8000 0.7970 0.7950 0.7920 0.7870
6.801968 0.7800 0.7700 0.7600 0.7520 0.7420
6.827000 0.7320 0.7190 0.7140 0.7040 0.7010
6.851968 0.7000 0.6990 0.6960 0.6950 0.6940
6.877000 0.6860 0.6840 0.6790 0.6710 0.6650
6.901968 0.6650 0.6670 0.6760 0.6850 0.6950
6.927000 0.7060 0.7170 0.7290 0.7400 0.7490
6.951968 0.7500 0.7500 0.7490 0.7460 0.7450
6.977000 0.7410 0.7350 0.7290 0.7190 0.7050
7.001968 0.6850 0.6670 0.6520 0.6390 0.6270
7.027000 0.6150 0.6040 0.5980 0.5910 0.5790
7.051968 0.5650 0.5490 0.5300 0.4980 0.4890
7.077000 0.4800 0.4710 0.4700 0.4700 0.4730
7.101968 0.4740 0.4750 0.4750 0.4710 0.4660
7.126000 0.4640 0.4610 0.4580 0.4530 0.4430
7.150968 0.4430 0.4360 0.4350 0.4360 0.4530
7.176000 0.4710 0.4900 0.5090 0.5260 0.5440
7.200968 0.5610 0.5780 0.5940 0.6240 0.6370
7.226000 0.6510 0.6620 0.6740 0.6840 0.6920
7.250968 0.6960 0.6990 0.7010 0.7040 0.7070
7.276000 0.7110 0.7160 0.7220 0.7300 0.7390
7.300968 0.7520 0.7640 0.7740 0.7840 0.7910
7.326000 0.7990 0.8060 0.8110 0.8160 0.8210
7.350968 0.8250 0.8280 0.8320 0.8350 0.8380
7.376000 0.8410 0.8450 0.8470 0.8510 0.8530
7.400968 0.8570 0.8600 0.8600 0.8610 0.8620
7.426000 0.8630 0.8630 0.8630 0.8630 0.8630
7.450968 0.8650 0.8650 0.8660 0.8660 0.8670
7.476000 0.8670 0.8680 0.8670 0.8670 0.8670
7.500968 0.8660 0.8660 0.8650 0.8630 0.8610
7.526000 0.8610 0.8600 0.8600 0.8570 0.8550
7.550968 0.8520 0.8480 0.8430 0.8400 0.8360
7.576000 0.8310 0.8270 0.8230 0.8200 0.8160
7.600968 0.8120 0.8080 0.8050 0.8010 0.7970
7.626000 0.7920 0.7850 0.7770 0.7720 0.7640
7.650968 0.7540 0.7370 0.7270 0.7170 0.7090
7.676000 0.7010 0.6950 0.6890 0.6840 0.6800
7.700968 0.6790 0.6770 0.6790 0.6800 0.6870
7.725000 0.6910 0.6970 0.7050 0.7120 0.7210
7.749968 0.7270 0.7320 0.7340 0.7360 0.7360
7.775000 0.7340 0.7300 0.7250 0.7190 0.7140
7.799968 0.7070 0.7010 0.6940 0.6860 0.6770
7.825000 0.6690 0.6590 0.6490 0.6360 0.6240
7.849968 0.6090 0.6010 0.5930 0.5750 0.5560
7.875000 0.5360 0.5140 0.4890 0.4630 0.4340
7.899968 0.4040 0.3700 0.3220 0.3100 0.2980
7.925000 0.2780 0.2770 0.2780 0.2850 0.2980
7.949968 0.3420 0.3700 0.4040 0.4410 0.4780
7.975000 0.5100 0.5400 0.5690 0.5950 0.6410
7.999968 0.6600 0.6790 0.6940 0.7070 0.7200
8.025000 0.7300 0.7370 0.7450 0.7500 0.7540
8.049968 0.7550 0.7600 0.7610 0.7640 0.7640
8.075000 0.7650 0.7660 0.7690 0.7700 0.7710
8.099968 0.7720 0.7720 0.7720 0.7750 0.7750
8.125000 0.7770 0.7770 0.7790 0.7790 0.7790
8.149968 0.7790 0.7790 0.7790 0.7770 0.7770
8.175000 0.7770 0.7770 0.7770 0.7760 0.7750
8.199968 0.7750 0.7750 0.7740 0.7740 0.7710
8.225000 0.7710 0.7700 0.7650 0.7620 0.7600
8.249968 0.7570 0.7550 0.7520 0.7510 0.7500
8.275000 0.7500 0.7470 0.7440 0.7390 0.7360
8.299968 0.7320 0.7290 0.7250 0.7210 0.7170
8.324000 0.7110 0.7110 0.7100 0.7070 0.7060
8.348968 0.7020 0.6990 0.6950 0.6900 0.6820
8.374000 0.6790 0.6740 0.6690 0.6650 0.6590
8.398968 0.6540 0.6470 0.6410 0.6340 0.6260
8.424000 0.6160 0.6060 0.6010 0.5950 0.5830
8.448968 0.5690 0.5540 0.5380 0.5190 0.4980
8.474000 0.4840 0.4690 0.4550 0.4390 0.4240
8.498968 0.4080 0.3900 0.3730 0.3550 0.3380
8.524000 0.3230 0.3090 0.3040 0.2990 0.2920
8.548968 0.2870 0.2800 0.2790 0.2790 0.2800
8.574000 0.2820 0.2840 0.2870 0.2980 0.3130
8.598968 0.3140 0.3180 0.3290 0.3340 0.3420
8.624000 0.3480 0.3570 0.3640 0.3730 0.3800
8.648968 0.3870 0.3920 0.3970 0.3980 0.3990
8.674000 0.4000 0.4010 0.4010 0.4010 0.4010
8.698968 0.4000 0.3990 0.3970 0.3930 0.3840
8.724000 0.3770 0.3740 0.3690 0.3650 0.3620
8.748968 0.3580 0.3530 0.3430 0.3380 0.3320
8.774000 0.3230 0.3130 0.3030 0.2980 0.2920
8.798968 0.2800 0.2680 0.2580 0.2470 0.2380
8.824000 0.2300 0.2230 0.2130 0.2050 0.2000
8.848968 0.1930 0.1830 0.1740 0.1640 0.1530
8.874000 0.1440 0.1360 0.1280 0.1240 0.1190
8.898968 0.1140 0.1110 0.1070 0.1010 0.0960
8.923000 0.0890 0.0830 0.0780 0.0730 0.0680
8.947968 0.0610 0.0580 0.0560 0.0540 0.0520
8.973000 0.0520 0.0510 0.0510 0.0490 0.0490
8.997968 0.0480 0.0480 0.0470 0.0470 0.0470
9.023000 0.0470 0.0470 0.0470 0.0470 0.0470
9.047968 0.0470 0.0470 0.0480 0.0480 0.0480
9.073000 0.0490 0.0520 0.0580 0.0640 0.0710
9.097968 0.0740 0.0780 0.0790 0.0810 0.0810
9.123000 0.0790 0.0780 0.0780 0.0770 0.0720
9.147968 0.0710 0.0680 0.0640 0.0610 0.0580
9.173000 0.0540 0.0530 0.0520 0.0490 0.0480
9.197968 0.0480 0.0470 0.0470 0.0460 0.0460
9.223000 0.0460 0.0460 0.0460 0.0460 0.0460
9.247968 0.0460 0.0460 0.0460 0.0470 0.0470
9.273000 0.0480 0.0490 0.0510 0.0520 0.0530
9.297968 0.0560 0.0580 0.0630 0.0670 0.0760
9.323000 0.0820 0.0910 0.0980 0.1080 0.1170
9.347968 0.1270 0.1340 0.1410 0.1440 0.1540
9.373000 0.1630 0.1690 0.1770 0.1840 0.1920
9.397968 0.2020 0.2140 0.2290 0.2400 0.2500
9.423000 0.2590 0.2670 0.2730 0.2790 0.2850
9.447968 0.2920 0.2980 0.3120 0.3190 0.3280
9.473000 0.3420 0.3490 0.3630 0.3690 0.3740
9.497968 0.3800 0.3840 0.3890 0.3950 0.4000
9.522000 0.4060 0.4130 0.4180 0.4200 0.4210
9.546968 0.4230 0.4250 0.4280 0.4330 0.4400
9.572000 0.4430 0.4460 0.4460 0.4480 0.4490
9.596968 0.4510 0.4560 0.4590 0.4600 0.4610
9.622000 0.4640 0.4650 0.4660 0.4660 0.4690
9.646968 0.4740 0.4780 0.4840 0.4880 0.4940
9.672000 0.4980 0.5000 0.5030 0.5050 0.5090
9.696968 0.5110 0.5160 0.5210 0.5250 0.5350
9.722000 0.5390 0.5430 0.5450 0.5490 0.5510
9.746968 0.5530 0.5540 0.5540 0.5540 0.5540
9.772000 0.5530 0.5530 0.5490 0.5480 0.5450
9.796968 0.5290 0.5210 0.5140 0.5060 0.5000
9.822000 0.4910 0.4810 0.4690 0.4530 0.4340
9.846968 0.4090 0.3930 0.3770 0.3640 0.3530
9.872000 0.3480 0.3390 0.3320 0.3230 0.3220
9.896968 0.3230 0.3300 0.3400 0.3500 0.3590
9.922000 0.3690 0.3750 0.3870 0.4010 0.4160
9.946968 0.4330 0.4500 0.4660 0.4840 0.5030
9.972000 0.5200 0.5380 0.5550 0.5730 0.5900
9.996968 0.6210 0.6350 0.6470 0.6600 0.6700
10.022000 0.6740 0.6770 0.6820 0.6890 0.6940
10.046968 0.6990 0.7040 0.7070 0.7090 0.7110
10.072000 0.7140 0.7140 0.7150 0.7160 0.7160
10.096968 0.7140 0.7120 0.7100 0.7100 0.7070
10.121000 0.7040 0.7010 0.7000 0.6990 0.6990
10.145968 0.6970 0.6960 0.6940 0.6900 0.6840
10.171000 0.6800 0.6740 0.6660 0.6570 0.6520
10.195968 0.6400 0.6300 0.6200 0.6090 0.6040
10.221000 0.5980 0.5860 0.5750 0.5630 0.5500
10.245968 0.5390 0.5250 0.5130 0.5000 0.4860
10.271000 0.4730 0.4590 0.4450 0.4310 0.4160
10.295968 0.4030 0.3880 0.3730 0.3580 0.3430
10.321000 0.3280 0.3130 0.3050 0.2970 0.2800
10.345968 0.2700 0.2620 0.2530 0.2440 0.2350
10.371000 0.2240 0.2100 0.2070 0.2020 0.1970
10.395968 0.1910 0.1860 0.1790 0.1740 0.1730
10.421000 0.1690 0.1670 0.1640 0.1640 0.1610
10.445968 0.1590 0.1580 0.1570 0.1560 0.1540
10.471000 0.1530 0.1530 0.1540 0.1560 0.1580
10.495968 0.1630 0.1690 0.1730 0.1770 0.1790
10.521000 0.1830 0.1870 0.1890 0.1910 0.1910
10.545968 0.1920 0.1930 0.1970 0.2030 0.2090
10.571000 0.2140 0.2190 0.2240 0.2290 0.2340
10.595968 0.2390 0.2440 0.2490 0.2540 0.2590
10.621000 0.2650 0.2720 0.2780 0.2850 0.2920
10.645968 0.2980 0.3130 0.3180 0.3200 0.3270
10.671000 0.3350 0.3430 0.3520 0.3600 0.3690
10.695968 0.3780 0.3870 0.3930 0.3990 0.4040
10.720000 0.4200 0.4310 0.4410 0.4490 0.4580
10.744968 0.4680 0.4830 0.4960 0.5080 0.5190
10.770000 0.5290 0.5380 0.5460 0.5540 0.5630
10.794968 0.5700 0.5780 0.5850 0.5940 0.6110
10.820000 0.6210 0.6320 0.6450 0.6570 0.6620
10.844968 0.6690 0.6750 0.6810 0.6870 0.6950
10.870000 0.7020 0.7100 0.7160 0.7240 0.7310
10.894968 0.7370 0.7440 0.7490 0.7510 0.7520
10.920000 0.7550 0.7560 0.7590 0.7610 0.7640
10.944968 0.7660 0.7690 0.7720 0.7770 0.7810
10.970000 0.7850 0.7860 0.7870 0.7900 0.7950
10.994968 0.7990 0.8010 0.8030 0.8050 0.8060
11.020000 0.8060 0.8070 0.8080 0.8080 0.8100
11.044968 0.8100 0.8110 0.8120 0.8120 0.8120
11.070000 0.8120 0.8130 0.8130 0.8130 0.8130
11.094968 0.8130 0.8130 0.8130 0.8130 0.8150
11.120000 0.8150 0.8150 0.8160 0.8160 0.8160
11.144968 0.8160 0.8150 0.8150 0.8150 0.8130
11.170000 0.8130 0.8120 0.8120 0.8100 0.8080
11.194968 0.8050 0.8030 0.8010 0.8000 0.7990
11.220000 0.7960 0.7940 0.7920 0.7900 0.7870
11.244968 0.7860 0.7820 0.7810 0.7800 0.7790
11.270000 0.7760 0.7760 0.7750 0.7740 0.7740
11.294968 0.7740 0.7720 0.7710 0.7710 0.7700
11.319000 0.7670 0.7660 0.7650 0.7650 0.7650
11.343968 0.7660 0.7670 0.7710 0.7720 0.7740
11.369000 0.7750 0.7750 0.7750 0.7750 0.7750
11.393968 0.7750 0.7760 0.7760 0.7760 0.7760
11.419000 0.7770 0.7770 0.7760 0.7760 0.7760
11.443968 0.7770 0.7770 0.7770 0.7790 0.7790
11.469000 0.7800 0.7800 0.7800 0.7800 0.7790
11.493968 0.7790 0.7790 0.7770 0.7760 0.7750
11.519000 0.7750 0.7740 0.7740 0.7740 0.7740
11.543968 0.7740 0.7720 0.7710 0.7710 0.7700
11.569000 0.7690 0.7670 0.7610 0.7520 0.7510
11.593968 0.7470 0.7440 0.7390 0.7360 0.7350
11.619000 0.7310 0.7300 0.7270 0.7260 0.7220
11.643968 0.7190 0.7120 0.7110 0.7110 0.7090
11.669000 0.7050 0.7020 0.7010 0.6990 0.6970
11.693968 0.6970 0.6960 0.6950 0.6950 0.6940
11.719000 0.6910 0.6870 0.6840 0.6760 0.6720
11.743968 0.6650 0.6590 0.6570 0.6540 0.6510
11.769000 0.6500 0.6490 0.6390 0.6370 0.6340
11.793968 0.6290 0.6220 0.6160 0.6090 0.6070
11.819000 0.6040 0.6000 0.5960 0.5930 0.5850
11.843968 0.5750 0.5640 0.5580 0.5490 0.5450
11.869000 0.5380 0.5340 0.5280 0.5240 0.5190
11.893968 0.5130 0.5040 0.4990 0.4940 0.4860
11.918000 0.4800 0.4730 0.4660 0.4600 0.4590
11.942968 0.4540 0.4480 0.4380 0.4290 0.4180
11.968000 0.4100 0.4000 0.3920 0.3830 0.3730
11.992968 0.3630 0.3530 0.3430 0.3320 0.3220
12.018000 0.3100 0.3050 0.2990 0.2880 0.2750
12.042968 0.2630 0.2520 0.2400 0.2300 0.2230
12.068000 0.2140 0.2080 0.2000 0.1960 0.1890
12.092968 0.1840 0.1790 0.1770 0.1730 0.1720
12.118000 0.1710 0.1690 0.1680 0.1680 0.1670
12.142968 0.1670 0.1660 0.1640 0.1630 0.1630
12.168000 0.1640 0.1660 0.1670 0.1670 0.1720
12.192968 0.1730 0.1730 0.1720 0.1710 0.1710
12.218000 0.1690 0.1690 0.1710 0.1710 0.1730
12.242968 0.1760 0.1760 0.1730 0.1710 0.1670
12.268000 0.1640 0.1620 0.1580 0.1530 0.1470
12.292968 0.1410 0.1340 0.1290 0.1280 0.1270
12.318000 0.1260 0.1230 0.1220 0.1220 0.1210
12.342968 0.1210 0.1190 0.1180 0.1140 0.1130
12.368000 0.1120 0.1120 0.1120 0.1120 0.1130
12.392968 0.1140 0.1140 0.1160 0.1160 0.1180
12.418000 0.1190 0.1210 0.1220 0.1230 0.1230
12.442968 0.1260 0.1290 0.1310 0.1330 0.1330
12.468000 0.1370 0.1390 0.1420 0.1440 0.1470
12.492968 0.1480 0.1490 0.1490 0.1510 0.1510
12.517000 0.1530 0.1540 0.1560 0.1580 0.1610
12.541968 0.1640 0.1680 0.1730 0.1790 0.1870
12.567000 0.1940 0.2000 0.2070 0.2130 0.2180
12.591968 0.2230 0.2290 0.2350 0.2400 0.2470
12.617000 0.2530 0.2600 0.2670 0.2740 0.2820
12.641968 0.2880 0.2920 0.2950 0.2990 0.3050
12.667000 0.3080 0.3100 0.3140 0.3180 0.3190
12.691968 0.3200 0.3220 0.3290 0.3300 0.3320
12.717000 0.3340 0.3340 0.3340 0.3330 0.3300
12.741968 0.3300 0.3280 0.3250 0.3230 0.3200
12.767000 0.3190 0.3180 0.3170 0.3170 0.3140
12.791968 0.3080 0.3040 0.3020 0.2990 0.2930
12.817000 0.2780 0.2690 0.2630 0.2600 0.2550
12.841968 0.2500 0.2430 0.2350 0.2280 0.2190
12.867000 0.2120 0.2030 0.1960 0.1890 0.1830
12.891968 0.1780 0.1730 0.1660 0.1570 0.1480
12.917000 0.1470 0.1380 0.1340 0.1320 0.1280
12.941968 0.1270 0.1260 0.1260 0.1260 0.1270
12.967000 0.1270 0.1280 0.1280 0.1310 0.1320
12.991968 0.1330 0.1340 0.1360 0.1380 0.1410
13.017000 0.1420 0.1440 0.1470 0.1490 0.1520
13.041968 0.1560 0.1620 0.1670 0.1720 0.1770
13.067000 0.1810 0.1860 0.1920 0.1980 0.2050
13.091968 0.2150 0.2250 0.2320 0.2380 0.2470
13.116000 0.2550 0.2640 0.2740 0.2830 0.2920
13.140968 0.2990 0.3100 0.3150 0.3220 0.3290
13.166000 0.3350 0.3430 0.3500 0.3590 0.3670
13.190968 0.3750 0.3840 0.3930 0.4030 0.4110
13.216000 0.4210 0.4300 0.4340 0.4380 0.4430
13.240968 0.4480 0.4550 0.4610 0.4690 0.4760
13.266000 0.4840 0.4910 0.4990 0.5040 0.5130
13.290968 0.5210 0.5280 0.5340 0.5400 0.5450
13.316000 0.5510 0.5580 0.5640 0.5700 0.5780
13.340968 0.5830 0.5860 0.5900 0.5940 0.5980
13.366000 0.6050 0.6070 0.6110 0.6150 0.6190
13.390968 0.6220 0.6260 0.6300 0.6320 0.6360
13.416000 0.6400 0.6440 0.6470 0.6510 0.6550
13.440968 0.6570 0.6590 0.6600 0.6600 0.6610
13.466000 0.6610 0.6610 0.6610 0.6610 0.6610
13.490968 0.6600 0.6590 0.6590 0.6590 0.6590
13.516000 0.6570 0.6570 0.6570 0.6560 0.6560
13.540968 0.6560 0.6550 0.6550 0.6550 0.6550
13.566000 0.6540 0.6540 0.6520 0.6520 0.6500
13.590968 0.6490 0.6470 0.6450 0.6420 0.6390
13.616000 0.6360 0.6350 0.6320 0.6310 0.6300
13.640968 0.6270 0.6250 0.6200 0.6200 0.6170
13.666000 0.6160 0.6140 0.6110 0.6070 0.6040
13.690968 0.6010 0.6000 0.5990 0.5980 0.5990
13.715000 0.5990 0.6000 0.6000 0.5990 0.5980
13.739968 0.5960 0.5960 0.5980 0.5980 0.5990
13.765000 0.6010 0.6020 0.6020 0.6020 0.6040
13.789968 0.6040 0.6040 0.6050 0.6050 0.6060
13.815000 0.6060 0.6060 0.6060 0.6070 0.6070
13.839968 0.6090 0.6090 0.6070 0.6070 0.6050
13.865000 0.6050 0.6040 0.6000 0.6000 0.5990
13.889968 0.5980 0.5960 0.5950 0.5940 0.5930
13.915000 0.5910 0.5900 0.5890 0.5880 0.5850
13.939968 0.5810 0.5800 0.5790 0.5780 0.5760
13.965000 0.5750 0.5690 0.5660 0.5630 0.5600
13.989968 0.5580 0.5580 0.5560 0.5550 0.5530
14.015000 0.5510 0.5490 0.5460 0.5410 0.5410
14.039968 0.5390 0.5380 0.5350 0.5340 0.5300
14.065000 0.5290 0.5280 0.5280 0.5280 0.5290
14.089968 0.5290 0.5300 0.5300 0.5300 0.5300
14.115000 0.5290 0.5290 0.5280 0.5280 0.5280
14.139968 0.5290 0.5300 0.5300 0.5300 0.5310
14.165000 0.5310 0.5340 0.5360 0.5430 0.5460
14.189968 0.5480 0.5510 0.5550 0.5560 0.5590
14.215000 0.5630 0.5680 0.5730 0.5780 0.5830
14.239968 0.5860 0.5900 0.5910 0.5940 0.5980
14.265000 0.6070 0.6110 0.6140 0.6190 0.6200
14.289968 0.6210 0.6240 0.6260 0.6300 0.6340
14.314000 0.6390 0.6410 0.6420 0.6440 0.6460
14.338968 0.6470 0.6490 0.6510 0.6540 0.6550
14.364000 0.6570 0.6600 0.6620 0.6660 0.6690
14.388968 0.6720 0.6750 0.6790 0.6820 0.6850
14.414000 0.6920 0.6940 0.6950 0.6960 0.6970
14.438968 0.6970 0.6970 0.6990 0.6990 0.7000
14.464000 0.7040 0.7060 0.7090 0.7110 0.7120
14.488968 0.7140 0.7150 0.7160 0.7160 0.7190
14.514000 0.7190 0.7200 0.7210 0.7220 0.7240
14.538968 0.7250 0.7270 0.7310 0.7350 0.7350
14.564000 0.7360 0.7370 0.7390 0.7390 0.7390
14.588968 0.7400 0.7410 0.7410 0.7410 0.7410
14.614000 0.7410 0.7420 0.7420 0.7420 0.7420
14.638968 0.7420 0.7410 0.7410 0.7410 0.7400
14.664000 0.7390 0.7390 0.7370 0.7360 0.7340
14.688968 0.7320 0.7320 0.7320 0.7320 0.7320
14.714000 0.7320 0.7320 0.7320 0.7320 0.7310
14.738968 0.7310 0.7300 0.7290 0.7250 0.7250
14.764000 0.7240 0.7240 0.7240 0.7220 0.7210
14.788968 0.7200 0.7150 0.7140 0.7110 0.7100
14.814000 0.7060 0.7020 0.7010 0.6990 0.6990
14.838968 0.6970 0.6920 0.6910 0.6890 0.6870
14.864000 0.6850 0.6820 0.6770 0.6750 0.6720
14.888968 0.6710 0.6700 0.6690 0.6670 0.6660
14.913000 0.6650 0.6620 0.6610 0.6600 0.6560
14.937968 0.6560 0.6550 0.6560 0.6560 0.6560
14.963000 0.6570 0.6570 0.6570 0.6570 0.6570
14.987968 0.6590 0.6590 0.6590 0.6590 0.6590
15.013000 0.6590
##END=
