##TITLE=BENZAMIDE
##JCAMP-DX=4.24
##DATA TYPE=INFRARED SPECTRUM
##CLASS=COBLENTZ III
##ORIGIN=DOW CHEMICAL COMPANY
##OWNER=COBLENTZ SOCIETY
Collection (C) 2018 copyright by the U.S. Secretary of Commerce
on behalf of the United States of America. All rights reserved.
##DATE=1963/11/07
##CAS REGISTRY NO=55-21-0
##MOLFORM=C7 H7 N O
##SOURCE REFERENCE=COBLENTZ NO. 10214
##$NIST SOURCE=COBLENTZ
##$NIST IMAGE=cob10214
##SPECTROMETER/DATA SYSTEM=BECKMAN IR-9 (GRATING)
##INSTRUMENT PARAMETERS=ORDER CHANGES AT 670, 1200, 2000 CM^-^1
##STATE=SOLID (SPLIT MULL, FLUOROLUBE FOR 3800-1333 AND NUJOL FOR 1333-420 CM ^-^1)
##PATH LENGTH=
$$ SEE SPECTRUM NO. 9871 FOR "NUJOL MULL" STATE
##SAMPLING PROCEDURE=TRANSMISSION
##RESOLUTION=4
##DATA PROCESSING=DIGITIZED BY NIST FROM HARD COPY (FROM TWO SEGMENTS)
##XUNITS=1/CM
##YUNITS=TRANSMITTANCE
##XFACTOR=1.000000
##YFACTOR=1
##DELTAX=0.852275
##FIRSTX=415.625
##LASTX=3796.6
##FIRSTY=0.621
##MAXX=3796.6
##MINX=415.625
##MAXY=0.986
##MINY=0.0580067
##NPOINTS=3968
##XYDATA=(X++(Y..Y))
415.625000 0.6210 0.6180 0.6160 0.6140 0.6120
419.886376 0.6120 0.6120 0.6130 0.6140 0.6170
424.147752 0.6220 0.6280 0.6300 0.6320 0.6320
428.409128 0.6340 0.6410 0.6490 0.6570 0.6610
432.670504 0.6640 0.6740 0.6800 0.6860 0.6920
436.931880 0.6960 0.7010 0.7050 0.7090 0.7130
441.193256 0.7200 0.7250 0.7260 0.7290 0.7330
445.454632 0.7410 0.7460 0.7490 0.7530 0.7540
449.716008 0.7570 0.7600 0.7620 0.7660 0.7660
453.977384 0.7690 0.7720 0.7740 0.7760 0.7770
458.238760 0.7780 0.7810 0.7810 0.7840 0.7860
462.500136 0.7880 0.7900 0.7930 0.7940 0.7960
466.761512 0.7960 0.7980 0.8000 0.8020 0.8040
471.022888 0.8060 0.8080 0.8080 0.8100 0.8120
475.284263 0.8120 0.8130 0.8140 0.8160 0.8170
479.545639 0.8180 0.8200 0.8210 0.8220 0.8220
483.807015 0.8220 0.8240 0.8240 0.8240 0.8240
488.068391 0.8250 0.8260 0.8280 0.8280 0.8280
492.329767 0.8290 0.8290 0.8300 0.8300 0.8300
496.591143 0.8300 0.8300 0.8300 0.8300 0.8300
500.852519 0.8300 0.8300 0.8300 0.8300 0.8300
505.113895 0.8300 0.8300 0.8300 0.8300 0.8300
509.375271 0.8300 0.8300 0.8290 0.8290 0.8280
513.636647 0.8280 0.8250 0.8240 0.8220 0.8200
517.898023 0.8180 0.8170 0.8160 0.8120 0.8010
522.159399 0.7980 0.7960 0.7920 0.7781 0.7700
526.420775 0.7600 0.7490 0.7400 0.7280 0.6920
530.682151 0.6640 0.6381 0.6280 0.6140 0.6080
534.943527 0.6080 0.6120 0.6280 0.6440 0.6540
539.204903 0.6839 0.7059 0.7239 0.7399 0.7490
543.466279 0.7580 0.7690 0.7780 0.7850 0.7940
547.727655 0.7960 0.8000 0.8020 0.8060 0.8100
551.989031 0.8130 0.8140 0.8160 0.8180 0.8180
556.250407 0.8210 0.8220 0.8250 0.8250 0.8260
560.511783 0.8280 0.8280 0.8290 0.8290 0.8290
564.773159 0.8300 0.8300 0.8320 0.8320 0.8320
569.034535 0.8320 0.8320 0.8320 0.8320 0.8320
573.295911 0.8320 0.8320 0.8320 0.8300 0.8290
577.557287 0.8290 0.8280 0.8280 0.8260 0.8250
581.818663 0.8250 0.8250 0.8250 0.8250 0.8240
586.080039 0.8220 0.8200 0.8180 0.8160 0.8090
590.341414 0.8010 0.7960 0.7890 0.7890 0.7920
594.602790 0.7930 0.7930 0.7940 0.7960 0.7960
598.864166 0.7960 0.7940 0.7940 0.7930 0.7920
603.125542 0.7860 0.7850 0.7810 0.7780 0.7760
607.386918 0.7740 0.7700 0.7700 0.7640 0.7580
611.648294 0.7480 0.7420 0.7400 0.7300 0.7240
615.909670 0.7210 0.7060 0.6891 0.6820 0.6820
620.171046 0.6980 0.7090 0.7170 0.7180 0.7180
624.432422 0.7160 0.7080 0.6940 0.6890 0.6760
628.693798 0.6680 0.6600 0.6320 0.6100 0.6010
632.955174 0.5860 0.5611 0.5331 0.4931 0.4571
637.216550 0.4140 0.3700 0.3440 0.3370 0.3370
641.477926 0.3619 0.4368 0.4779 0.5019 0.5249
645.739302 0.5380 0.5440 0.5460 0.5460 0.5490
650.000678 0.5490 0.5460 0.5450 0.5440 0.5440
654.262054 0.5440 0.5440 0.5450 0.5460 0.5480
658.523430 0.5490 0.5530 0.5600 0.5620 0.5640
662.784806 0.5680 0.5730 0.5780 0.5850 0.5880
667.046182 0.5920 0.5940 0.5980 0.6000 0.6010
671.307558 0.6060 0.6140 0.6260 0.6280 0.6320
675.568934 0.6340 0.6370 0.6440 0.6440 0.6460
679.830310 0.6480 0.6520 0.6530 0.6520 0.6380
684.091686 0.6300 0.6021 0.5761 0.5362 0.4982
688.353062 0.4620 0.4420 0.4170 0.4140 0.4170
692.614438 0.4300 0.4639 0.4780 0.4940 0.5119
696.875814 0.5410 0.5490 0.5610 0.5640 0.5660
701.137189 0.5660 0.5610 0.5480 0.5340 0.5121
705.398565 0.4890 0.4680 0.4540 0.4360 0.4250
709.659941 0.4200 0.4200 0.4340 0.4599 0.4879
713.921317 0.5050 0.5340 0.5620 0.5890 0.6090
718.182693 0.6260 0.6370 0.6480 0.6570 0.6580
722.444069 0.6600 0.6610 0.6620 0.6660 0.6740
726.705445 0.6740 0.6800 0.6840 0.6890 0.7010
730.966821 0.7080 0.7160 0.7180 0.7220 0.7250
735.228197 0.7260 0.7300 0.7330 0.7360 0.7370
739.489573 0.7400 0.7400 0.7420 0.7440 0.7450
743.750949 0.7460 0.7460 0.7460 0.7460 0.7480
748.012325 0.7480 0.7480 0.7480 0.7450 0.7440
752.273701 0.7420 0.7410 0.7400 0.7360 0.7330
756.535077 0.7300 0.7260 0.7240 0.7220 0.7130
760.796453 0.7060 0.6940 0.6900 0.6810 0.6760
765.057829 0.6620 0.6540 0.6450 0.6300 0.6210
769.319205 0.6080 0.5940 0.5860 0.5740 0.5660
773.580581 0.5600 0.5560 0.5530 0.5530 0.5540
777.841957 0.5570 0.5600 0.5620 0.5730 0.5859
782.103333 0.5890 0.5930 0.6010 0.6050 0.6060
786.364709 0.6080 0.6060 0.6020 0.5980 0.5781
790.626085 0.5660 0.5500 0.5380 0.5340 0.5240
794.887461 0.5180 0.5160 0.5160 0.5170 0.5200
799.148837 0.5370 0.5540 0.5800 0.6020 0.6140
803.410213 0.6360 0.6609 0.6809 0.7039 0.7140
807.671589 0.7220 0.7220 0.7160 0.7040 0.6890
811.932965 0.6730 0.6610 0.6490 0.6460 0.6450
816.194340 0.6460 0.6500 0.6610 0.6690 0.6740
820.455716 0.6920 0.7090 0.7140 0.7220 0.7290
824.717092 0.7400 0.7450 0.7520 0.7580 0.7620
828.978468 0.7690 0.7760 0.7810 0.7860 0.7880
833.239844 0.7930 0.7930 0.7940 0.7960 0.8000
837.501220 0.8010 0.8020 0.8050 0.8060 0.8060
841.762596 0.8080 0.8080 0.8080 0.8080 0.8060
846.023972 0.8040 0.8020 0.8000 0.7960 0.7900
850.285348 0.7810 0.7780 0.7760 0.7760 0.7770
854.546724 0.7850 0.7930 0.7960 0.8000 0.8040
858.808100 0.8060 0.8120 0.8120 0.8130 0.8130
863.069476 0.8130 0.8140 0.8140 0.8140 0.8160
867.330852 0.8170 0.8180 0.8180 0.8180 0.8200
871.592228 0.8200 0.8200 0.8200 0.8200 0.8200
875.853604 0.8200 0.8200 0.8200 0.8200 0.8200
880.114980 0.8210 0.8200 0.8200 0.8200 0.8200
884.376356 0.8200 0.8210 0.8210 0.8210 0.8210
888.637732 0.8210 0.8200 0.8200 0.8200 0.8200
892.899108 0.8200 0.8200 0.8180 0.8170 0.8160
897.160484 0.8160 0.8160 0.8160 0.8140 0.8140
901.421860 0.8140 0.8140 0.8140 0.8160 0.8160
905.683236 0.8160 0.8160 0.8160 0.8160 0.8160
909.944612 0.8160 0.8160 0.8160 0.8160 0.8160
914.205988 0.8140 0.8140 0.8130 0.8120 0.8120
918.467364 0.8040 0.7980 0.7810 0.7540 0.7340
922.728740 0.7340 0.7370 0.7490 0.7660 0.7760
926.990116 0.7860 0.7890 0.7900 0.7930 0.7940
931.251491 0.7960 0.8010 0.8040 0.8060 0.8080
935.512867 0.8120 0.8120 0.8130 0.8130 0.8130
939.774243 0.8130 0.8140 0.8140 0.8140 0.8140
944.035619 0.8140 0.8140 0.8140 0.8140 0.8140
948.296995 0.8140 0.8140 0.8140 0.8140 0.8130
952.558371 0.8130 0.8130 0.8120 0.8120 0.8120
956.819747 0.8120 0.8100 0.8100 0.8100 0.8090
961.081123 0.8080 0.8060 0.8060 0.8060 0.8060
965.342499 0.8060 0.8050 0.8040 0.8020 0.8010
969.603875 0.8010 0.8000 0.8000 0.8000 0.8000
973.865251 0.8000 0.7980 0.7970 0.7970 0.7970
978.126627 0.7970 0.7970 0.7970 0.7980 0.7980
982.388003 0.7980 0.8000 0.8000 0.8000 0.8000
986.649379 0.8000 0.8010 0.8010 0.8010 0.8010
990.910755 0.8010 0.8010 0.8010 0.8010 0.8010
995.172131 0.8010 0.8010 0.8020 0.8020 0.8020
999.433507 0.8020 0.8020 0.8010 0.8010 0.7960
1003.694883 0.7820 0.7650 0.7650 0.7810 0.7920
1007.956259 0.7940 0.7970 0.8000 0.8010 0.8010
1012.217635 0.8010 0.8010 0.8010 0.8010 0.8010
1016.479011 0.8000 0.8000 0.7970 0.7960 0.7960
1020.740387 0.7930 0.7920 0.7880 0.7840 0.7770
1025.001763 0.7760 0.7600 0.7380 0.6881 0.6023
1029.263139 0.6022 0.6660 0.6770 0.7040 0.7480
1033.524515 0.7650 0.7800 0.7860 0.7930 0.7940
1037.785891 0.7960 0.7970 0.7980 0.7980 0.8000
1042.047266 0.8000 0.8000 0.8000 0.8000 0.8000
1046.308642 0.8000 0.8000 0.8000 0.7980 0.7980
1050.570018 0.7980 0.7980 0.7980 0.7980 0.7980
1054.831394 0.7970 0.7970 0.7970 0.7960 0.7960
1059.092770 0.7960 0.7940 0.7930 0.7930 0.7930
1063.354146 0.7930 0.7920 0.7900 0.7900 0.7880
1067.615522 0.7850 0.7810 0.7810 0.7770 0.7760
1071.876898 0.7730 0.7690 0.7600 0.7570 0.7500
1076.138274 0.7450 0.7440 0.7450 0.7480 0.7490
1080.399650 0.7540 0.7600 0.7620 0.7640 0.7650
1084.661026 0.7680 0.7680 0.7690 0.7690 0.7700
1088.922402 0.7700 0.7700 0.7700 0.7700 0.7690
1093.183778 0.7690 0.7690 0.7680 0.7650 0.7650
1097.445154 0.7620 0.7610 0.7610 0.7600 0.7570
1101.706530 0.7570 0.7540 0.7520 0.7490 0.7480
1105.967906 0.7450 0.7420 0.7400 0.7400 0.7380
1110.229282 0.7300 0.7260 0.7200 0.7130 0.7080
1114.490658 0.6980 0.6900 0.6770 0.6690 0.6600
1118.752034 0.6450 0.6260 0.6010 0.5651 0.5500
1123.013410 0.5249 0.4970 0.4760 0.4570 0.4540
1127.274786 0.4540 0.4730 0.4940 0.5419 0.5809
1131.536162 0.6260 0.6440 0.6580 0.6760 0.6840
1135.797538 0.6860 0.6900 0.6930 0.6920 0.6880
1140.058914 0.6690 0.6519 0.6100 0.5920 0.5620
1144.320290 0.5400 0.5240 0.5170 0.5170 0.5250
1148.581666 0.5441 0.5700 0.5980 0.6200 0.6370
1152.843042 0.6450 0.6580 0.6610 0.6740 0.6760
1157.104417 0.6780 0.6850 0.6900 0.6930 0.6980
1161.365793 0.7020 0.7060 0.7080 0.7120 0.7160
1165.627169 0.7220 0.7220 0.7250 0.7250 0.7260
1169.888545 0.7290 0.7290 0.7280 0.7280 0.7260
1174.149921 0.7250 0.7220 0.7220 0.7170 0.7130
1178.411297 0.7060 0.7000 0.6690 0.6291 0.5841
1182.672673 0.5840 0.5890 0.6160 0.6440 0.6700
1186.934049 0.6900 0.6970 0.7090 0.7180 0.7220
1191.195425 0.7260 0.7300 0.7320 0.7320 0.7330
1195.456801 0.7330 0.7330 0.7330 0.7330 0.7330
1199.718177 0.7300 0.7290 0.7280 0.7260 0.7250
1203.979553 0.7250 0.7250 0.7250 0.7220 0.7220
1208.240929 0.7220 0.7210 0.7210 0.7180 0.7180
1212.502305 0.7170 0.7170 0.7160 0.7140 0.7140
1216.763681 0.7140 0.7140 0.7140 0.7140 0.7130
1221.025057 0.7130 0.7140 0.7140 0.7140 0.7130
1225.286433 0.7130 0.7120 0.7120 0.7120 0.7100
1229.547809 0.7090 0.7060 0.7060 0.7050 0.7020
1233.809185 0.7020 0.7010 0.7010 0.7000 0.6980
1238.070561 0.6970 0.6960 0.6940 0.6920 0.6900
1242.331937 0.6890 0.6860 0.6840 0.6810 0.6800
1246.593313 0.6780 0.6770 0.6740 0.6720 0.6680
1250.854689 0.6640 0.6610 0.6600 0.6600 0.6600
1255.116065 0.6600 0.6600 0.6600 0.6600 0.6600
1259.377441 0.6600 0.6600 0.6600 0.6600 0.6600
1263.638817 0.6580 0.6580 0.6560 0.6560 0.6560
1267.900193 0.6540 0.6540 0.6540 0.6530 0.6520
1272.161568 0.6500 0.6480 0.6460 0.6460 0.6460
1276.422944 0.6460 0.6450 0.6440 0.6410 0.6380
1280.684320 0.6360 0.6340 0.6330 0.6320 0.6300
1284.945696 0.6300 0.6300 0.6300 0.6290 0.6290
1289.207072 0.6290 0.6260 0.6250 0.6240 0.6210
1293.468448 0.6180 0.6160 0.6080 0.6020 0.5890
1297.729824 0.5820 0.5740 0.5620 0.5440 0.5380
1301.991200 0.5320 0.5360 0.5500 0.5680 0.5820
1306.252576 0.5930 0.6040 0.6140 0.6200 0.6250
1310.513952 0.6280 0.6290 0.6290 0.6290 0.6300
1314.775328 0.6300 0.6300 0.6300 0.6300 0.6300
1319.036704 0.6320 0.6340 0.6370 0.6400 0.6420
1323.298080 0.6420 0.6440 0.6440 0.6450 0.6450
1327.559456 0.6450 0.6450 0.6440 0.6410 0.6400
1331.820832 0.6380 0.6380 0.6370 0.6370 0.6370
1336.082208 0.6360 0.6340 0.6340 0.6330 0.6330
1340.343584 0.6320 0.6320 0.6320 0.6300 0.6300
1344.604960 0.6300 0.6290 0.6290 0.6290 0.6290
1348.866336 0.6290 0.6300 0.6320 0.6340 0.6360
1353.127712 0.6370 0.6380 0.6400 0.6400 0.6410
1357.389088 0.6410 0.6410 0.6400 0.6380 0.6370
1361.650464 0.6330 0.6300 0.6300 0.6290 0.6210
1365.911840 0.6160 0.6090 0.6050 0.6010 0.5980
1370.173216 0.5890 0.5840 0.5740 0.5730 0.5650
1374.434592 0.5610 0.5530 0.5480 0.5360 0.5250
1378.695968 0.5140 0.5059 0.4880 0.4720 0.4660
1382.957344 0.4560 0.4380 0.4250 0.4090 0.4050
1387.218719 0.3879 0.3700 0.3560 0.3370 0.3180
1391.480095 0.3010 0.2940 0.2840 0.2770 0.2650
1395.741471 0.2500 0.2330 0.2220 0.2160 0.2090
1400.002847 0.2000 0.1840 0.1720 0.1700 0.1700
1404.264223 0.1720 0.1780 0.1900 0.1940 0.2130
1408.525599 0.2320 0.2570 0.2840 0.3260 0.3660
1412.786975 0.3961 0.4261 0.4561 0.4770 0.5020
1417.048351 0.5290 0.5600 0.5730 0.6040 0.6609
1421.309727 0.6770 0.6920 0.7060 0.7240 0.7410
1425.571103 0.7580 0.7760 0.7860 0.8000 0.8100
1429.832479 0.8130 0.8290 0.8400 0.8410 0.8450
1434.093855 0.8490 0.8500 0.8530 0.8530 0.8530
1438.355231 0.8540 0.8530 0.8519 0.8330 0.8130
1442.616607 0.8020 0.7840 0.7740 0.7280 0.6900
1446.877983 0.6456 0.5457 0.4290 0.4290 0.4542
1451.139359 0.5861 0.6680 0.7080 0.7370 0.7490
1455.400735 0.7680 0.7780 0.7880 0.7960 0.8130
1459.662111 0.8220 0.8410 0.8500 0.8520 0.8520
1463.923487 0.8520 0.8520 0.8530 0.8540 0.8560
1468.184863 0.8570 0.8570 0.8560 0.8560 0.8540
1472.446239 0.8540 0.8540 0.8560 0.8560 0.8560
1476.707615 0.8560 0.8560 0.8560 0.8560 0.8560
1480.968991 0.8540 0.8530 0.8520 0.8500 0.8490
1485.230367 0.8480 0.8450 0.8440 0.8440 0.8420
1489.491743 0.8410 0.8380 0.8360 0.8280 0.8200
1493.753119 0.8050 0.7940 0.7900 0.7900 0.7930
1498.014494 0.7960 0.7980 0.8080 0.8140 0.8180
1502.275870 0.8180 0.8200 0.8210 0.8210 0.8210
1506.537246 0.8210 0.8210 0.8210 0.8200 0.8200
1510.798622 0.8210 0.8210 0.8220 0.8220 0.8240
1515.059998 0.8240 0.8240 0.8240 0.8240 0.8220
1519.321374 0.8220 0.8220 0.8220 0.8210 0.8200
1523.582750 0.8180 0.8160 0.8130 0.8130 0.8130
1527.844126 0.8120 0.8120 0.8100 0.8040 0.8010
1532.105502 0.8000 0.7970 0.7960 0.7940 0.7930
1536.366878 0.7900 0.7860 0.7800 0.7780 0.7780
1540.628254 0.7770 0.7760 0.7760 0.7740 0.7730
1544.889630 0.7720 0.7650 0.7600 0.7570 0.7490
1549.151006 0.7480 0.7450 0.7410 0.7380 0.7340
1553.412382 0.7320 0.7280 0.7260 0.7240 0.7170
1557.673758 0.7160 0.7160 0.7140 0.7140 0.7090
1561.935134 0.6890 0.6780 0.6740 0.6650 0.6580
1566.196510 0.6459 0.6320 0.6210 0.6139 0.5839
1570.457886 0.5500 0.5240 0.4940 0.4660 0.4260
1574.719262 0.3929 0.3566 0.2278 0.1500 0.1452
1578.980638 0.2420 0.2811 0.3780 0.4740 0.6378
1583.242014 0.7211 0.7611 0.7820 0.7890 0.7890
1587.503390 0.7850 0.7780 0.7760 0.7610 0.7500
1591.764766 0.7370 0.7300 0.7210 0.7080 0.6960
1596.026142 0.6890 0.6760 0.6610 0.6520 0.6320
1600.287518 0.6089 0.5779 0.5540 0.5460 0.5360
1604.548894 0.5300 0.5240 0.5100 0.4880 0.4660
1608.810270 0.4499 0.4179 0.3839 0.3499 0.3170
1613.071645 0.3040 0.2810 0.2680 0.2600 0.2450
1617.333021 0.2320 0.2280 0.2200 0.2120 0.2000
1621.594397 0.1820 0.1680 0.1500 0.1340 0.1320
1625.855773 0.1320 0.1421 0.1681 0.2011 0.2401
1630.117149 0.2680 0.2930 0.3210 0.3320 0.3440
1634.378525 0.3450 0.3530 0.3530 0.3560 0.3570
1638.639901 0.3610 0.3610 0.3460 0.3340 0.3180
1642.901277 0.3050 0.2940 0.2840 0.2770 0.2680
1647.162653 0.2570 0.2290 0.1980 0.1720 0.1690
1651.424029 0.1660 0.1650 0.1640 0.1539 0.1129
1655.685405 0.0770 0.0690 0.0660 0.0640 0.0620
1659.946781 0.0600 0.0600 0.0580 0.0600 0.0610
1664.208157 0.0650 0.0700 0.0770 0.0800 0.0880
1668.469533 0.0961 0.1121 0.1422 0.1941 0.2250
1672.730909 0.2370 0.2480 0.2650 0.3120 0.3620
1676.992285 0.3891 0.4081 0.4261 0.4621 0.5010
1681.253661 0.5160 0.5330 0.5360 0.5440 0.5650
1685.515037 0.6421 0.6540 0.6651 0.6820 0.6940
1689.776413 0.7130 0.7290 0.7440 0.7600 0.7660
1694.037789 0.7700 0.7770 0.7820 0.7930 0.8100
1698.299165 0.8160 0.8200 0.8240 0.8340 0.8520
1702.560541 0.8700 0.8720 0.8740 0.8800 0.8850
1706.821917 0.8940 0.9100 0.9160 0.9210 0.9260
1711.083293 0.9330 0.9330 0.9360 0.9370 0.9380
1715.344669 0.9380 0.9400 0.9410 0.9420 0.9450
1719.606045 0.9500 0.9600 0.9650 0.9680 0.9690
1723.867421 0.9700 0.9730 0.9760 0.9770 0.9780
1728.128796 0.9780 0.9780 0.9800 0.9800 0.9800
1732.390172 0.9810 0.9810 0.9810 0.9820 0.9820
1736.651548 0.9820 0.9840 0.9850 0.9860 0.9850
1740.912924 0.9850 0.9860 0.9860 0.9860 0.9860
1745.174300 0.9860 0.9860 0.9860 0.9860 0.9860
1749.435676 0.9850 0.9850 0.9850 0.9850 0.9850
1753.697052 0.9860 0.9850 0.9850 0.9850 0.9850
1757.958428 0.9850 0.9850 0.9840 0.9840 0.9820
1762.219804 0.9820 0.9810 0.9810 0.9810 0.9800
1766.481180 0.9800 0.9810 0.9810 0.9810 0.9810
1770.742556 0.9810 0.9800 0.9800 0.9810 0.9820
1775.003932 0.9840 0.9840 0.9840 0.9850 0.9860
1779.265308 0.9860 0.9860 0.9860 0.9860 0.9860
1783.526684 0.9860 0.9860 0.9860 0.9860 0.9860
1787.788060 0.9860 0.9850 0.9840 0.9820 0.9820
1792.049436 0.9820 0.9820 0.9820 0.9820 0.9820
1796.310812 0.9820 0.9820 0.9810 0.9810 0.9800
1800.572188 0.9800 0.9800 0.9800 0.9780 0.9770
1804.833564 0.9760 0.9700 0.9650 0.9620 0.9570
1809.094940 0.9540 0.9500 0.9480 0.9490 0.9520
1813.356316 0.9540 0.9580 0.9620 0.9660 0.9680
1817.617692 0.9700 0.9720 0.9730 0.9760 0.9770
1821.879068 0.9770 0.9770 0.9770 0.9770 0.9780
1826.140444 0.9780 0.9770 0.9770 0.9770 0.9780
1830.401820 0.9780 0.9780 0.9780 0.9780 0.9780
1834.663196 0.9780 0.9780 0.9780 0.9780 0.9780
1838.924571 0.9780 0.9800 0.9800 0.9780 0.9780
1843.185947 0.9780 0.9780 0.9780 0.9780 0.9770
1847.447323 0.9770 0.9770 0.9770 0.9780 0.9780
1851.708699 0.9770 0.9770 0.9770 0.9770 0.9760
1855.970075 0.9760 0.9760 0.9760 0.9760 0.9740
1860.231451 0.9740 0.9730 0.9720 0.9720 0.9700
1864.492827 0.9700 0.9700 0.9690 0.9690 0.9680
1868.754203 0.9680 0.9660 0.9660 0.9660 0.9660
1873.015579 0.9650 0.9650 0.9640 0.9620 0.9620
1877.276955 0.9620 0.9610 0.9600 0.9600 0.9570
1881.538331 0.9570 0.9570 0.9560 0.9540 0.9530
1885.799707 0.9490 0.9460 0.9420 0.9380 0.9370
1890.061083 0.9340 0.9340 0.9330 0.9330 0.9330
1894.322459 0.9340 0.9340 0.9360 0.9370 0.9380
1898.583835 0.9380 0.9380 0.9380 0.9380 0.9380
1902.845211 0.9380 0.9370 0.9360 0.9340 0.9330
1907.106587 0.9330 0.9320 0.9300 0.9300 0.9300
1911.367963 0.9320 0.9330 0.9360 0.9360 0.9370
1915.629339 0.9370 0.9380 0.9380 0.9400 0.9400
1919.890715 0.9400 0.9400 0.9400 0.9410 0.9410
1924.152091 0.9410 0.9410 0.9410 0.9410 0.9410
1928.413467 0.9410 0.9410 0.9410 0.9410 0.9410
1932.674843 0.9410 0.9410 0.9410 0.9410 0.9410
1936.936219 0.9410 0.9410 0.9410 0.9410 0.9410
1941.197595 0.9400 0.9400 0.9400 0.9380 0.9380
1945.458971 0.9380 0.9380 0.9380 0.9370 0.9360
1949.720347 0.9340 0.9320 0.9300 0.9240 0.9200
1953.981722 0.9130 0.9120 0.9100 0.9120 0.9140
1958.243098 0.9180 0.9240 0.9260 0.9280 0.9300
1962.504474 0.9300 0.9320 0.9320 0.9320 0.9320
1966.765850 0.9320 0.9320 0.9320 0.9320 0.9300
1971.027226 0.9280 0.9260 0.9250 0.9240 0.9240
1975.288602 0.9250 0.9260 0.9320 0.9320 0.9330
1979.549978 0.9330 0.9340 0.9360 0.9360 0.9360
1983.811354 0.9360 0.9360 0.9360 0.9360 0.9360
1988.072730 0.9340 0.9340 0.9340 0.9340 0.9340
1992.334106 0.9340 0.9330 0.9330 0.9259 0.8920
1996.595482 0.8920 0.9120 0.9250 0.9300 0.9320
2000.856858 0.9320 0.9320 0.9320 0.9320 0.9320
2005.118234 0.9320 0.9320 0.9320 0.9320 0.9320
2009.379610 0.9320 0.9320 0.9320 0.9320 0.9320
2013.640986 0.9320 0.9320 0.9320 0.9310 0.9300
2017.902362 0.9300 0.9300 0.9310 0.9320 0.9320
2022.163738 0.9320 0.9310 0.9300 0.9300 0.9300
2026.425114 0.9300 0.9300 0.9295 0.9290 0.9285
2030.686490 0.9280 0.9270 0.9260 0.9260 0.9260
2034.947866 0.9260 0.9260 0.9255 0.9250 0.9250
2039.209242 0.9250 0.9245 0.9240 0.9225 0.9210
2043.470618 0.9210 0.9210 0.9210 0.9210 0.9210
2047.731994 0.9210 0.9205 0.9200 0.9190 0.9180
2051.993370 0.9170 0.9160 0.9150 0.9140 0.9135
2056.254746 0.9130 0.9125 0.9120 0.9120 0.9120
2060.516122 0.9110 0.9100 0.9090 0.9080 0.9080
2064.777498 0.9080 0.9061 0.9041 0.9030 0.9020
2069.038873 0.9015 0.9010 0.9010 0.9010 0.9005
2073.300249 0.9000 0.9000 0.9000 0.9000 0.9000
2077.561625 0.9005 0.9010 0.9010 0.9010 0.9005
2081.823001 0.9000 0.9000 0.9000 0.9000 0.9000
2086.084377 0.9000 0.9000 0.8990 0.8980 0.8980
2090.345753 0.8980 0.8980 0.8980 0.8980 0.8980
2094.607129 0.8975 0.8970 0.8965 0.8960 0.8960
2098.868505 0.8960 0.8960 0.8960 0.8946 0.8931
2103.129881 0.8930 0.8930 0.8925 0.8920 0.8920
2107.391257 0.8920 0.8920 0.8920 0.8911 0.8901
2111.652633 0.8900 0.8900 0.8895 0.8890 0.8890
2115.914009 0.8890 0.8885 0.8880 0.8880 0.8880
2120.175385 0.8866 0.8851 0.8850 0.8850 0.8850
2124.436761 0.8850 0.8850 0.8850 0.8850 0.8850
2128.698137 0.8845 0.8840 0.8840 0.8840 0.8831
2132.959513 0.8821 0.8820 0.8820 0.8820 0.8820
2137.220889 0.8815 0.8810 0.8810 0.8810 0.8805
2141.482265 0.8800 0.8791 0.8781 0.8775 0.8770
2145.743641 0.8770 0.8770 0.8770 0.8770 0.8765
2150.005017 0.8760 0.8760 0.8760 0.8760 0.8760
2154.266393 0.8751 0.8741 0.8740 0.8740 0.8735
2158.527769 0.8730 0.8730 0.8730 0.8730 0.8730
2162.789145 0.8725 0.8720 0.8711 0.8701 0.8700
2167.050521 0.8700 0.8700 0.8700 0.8695 0.8690
2171.311897 0.8672 0.8652 0.8650 0.8650 0.8645
2175.573273 0.8640 0.8631 0.8621 0.8620 0.8620
2179.834649 0.8620 0.8620 0.8615 0.8610 0.8610
2184.096024 0.8610 0.8605 0.8600 0.8600 0.8600
2188.357400 0.8591 0.8581 0.8575 0.8570 0.8565
2192.618776 0.8560 0.8560 0.8560 0.8551 0.8541
2196.880152 0.8540 0.8540 0.8535 0.8531 0.8530
2201.141528 0.8530 0.8526 0.8521 0.8511 0.8501
2205.402904 0.8500 0.8500 0.8500 0.8500 0.8500
2209.664280 0.8500 0.8496 0.8491 0.8490 0.8490
2213.925656 0.8477 0.8462 0.8460 0.8460 0.8456
2218.187032 0.8451 0.8446 0.8441 0.8431 0.8421
2222.448408 0.8416 0.8411 0.8410 0.8410 0.8406
2226.709784 0.8401 0.8391 0.8381 0.8376 0.8371
2230.971160 0.8366 0.8361 0.8351 0.8341 0.8336
2235.232536 0.8331 0.8330 0.8330 0.8326 0.8321
2239.493912 0.8311 0.8301 0.8296 0.8291 0.8286
2243.755288 0.8281 0.8280 0.8280 0.8271 0.8261
2248.016664 0.8260 0.8260 0.8256 0.8251 0.8237
2252.278040 0.8222 0.8216 0.8211 0.8210 0.8210
2256.539416 0.8206 0.8201 0.8200 0.8200 0.8187
2260.800792 0.8172 0.8170 0.8170 0.8170 0.8170
2265.062168 0.8170 0.8170 0.8170 0.8170 0.8170
2269.323544 0.8170 0.8166 0.8161 0.8160 0.8160
2273.584920 0.8160 0.8160 0.8151 0.8141 0.8140
2277.846296 0.8140 0.8136 0.8131 0.8126 0.8121
2282.107672 0.8120 0.8120 0.8111 0.8101 0.8091
2286.369048 0.8081 0.8080 0.8080 0.8071 0.8061
2290.630424 0.8056 0.8051 0.8050 0.8050 0.8046
2294.891799 0.8041 0.8040 0.8040 0.8040 0.8040
2299.153175 0.8031 0.8021 0.8016 0.8011 0.8010
2303.414551 0.8010 0.8006 0.8001 0.8000 0.8000
2307.675927 0.8000 0.8000 0.8000 0.8000 0.8000
2311.937303 0.8000 0.8000 0.8000 0.8004 0.8009
2316.198679 0.8010 0.8010 0.8006 0.8001 0.8000
2320.460055 0.8000 0.7987 0.7972 0.7970 0.7970
2324.721431 0.7966 0.7961 0.7960 0.7960 0.7960
2328.982807 0.7960 0.7952 0.7942 0.7940 0.7940
2333.244183 0.7940 0.7940 0.7936 0.7931 0.7930
2337.505559 0.7930 0.7930 0.7930 0.7930 0.7930
2341.766935 0.7930 0.7930 0.7930 0.7930 0.7930
2346.028311 0.7930 0.7930 0.7930 0.7930 0.7930
2350.289687 0.7930 0.7930 0.7934 0.7939 0.7940
2354.551063 0.7940 0.7940 0.7940 0.7940 0.7940
2358.812439 0.7940 0.7940 0.7940 0.7940 0.7940
2363.073815 0.7940 0.7940 0.7940 0.7940 0.7940
2367.335191 0.7940 0.7940 0.7940 0.7940 0.7940
2371.596567 0.7940 0.7940 0.7940 0.7940 0.7940
2375.857943 0.7940 0.7940 0.7936 0.7931 0.7930
2380.119319 0.7930 0.7926 0.7921 0.7920 0.7920
2384.380695 0.7920 0.7920 0.7920 0.7920 0.7920
2388.642071 0.7920 0.7920 0.7920 0.7920 0.7920
2392.903447 0.7920 0.7920 0.7920 0.7920 0.7920
2397.164823 0.7920 0.7912 0.7902 0.7900 0.7900
2401.426199 0.7900 0.7900 0.7900 0.7900 0.7896
2405.687575 0.7891 0.7890 0.7890 0.7890 0.7890
2409.948950 0.7886 0.7881 0.7872 0.7862 0.7860
2414.210326 0.7860 0.7860 0.7860 0.7856 0.7851
2418.471702 0.7850 0.7850 0.7846 0.7841 0.7832
2422.733078 0.7822 0.7820 0.7820 0.7816 0.7811
2426.994454 0.7810 0.7810 0.7810 0.7810 0.7810
2431.255830 0.7810 0.7810 0.7810 0.7810 0.7810
2435.517206 0.7810 0.7810 0.7810 0.7810 0.7810
2439.778582 0.7810 0.7810 0.7810 0.7806 0.7801
2444.039958 0.7800 0.7800 0.7800 0.7800 0.7792
2448.301334 0.7782 0.7780 0.7780 0.7780 0.7780
2452.562710 0.7780 0.7780 0.7780 0.7780 0.7780
2456.824086 0.7780 0.7776 0.7771 0.7770 0.7770
2461.085462 0.7770 0.7770 0.7770 0.7770 0.7766
2465.346838 0.7761 0.7760 0.7760 0.7760 0.7760
2469.608214 0.7760 0.7760 0.7760 0.7760 0.7752
2473.869590 0.7742 0.7740 0.7740 0.7740 0.7740
2478.130966 0.7740 0.7740 0.7740 0.7740 0.7736
2482.392342 0.7731 0.7730 0.7730 0.7730 0.7730
2486.653718 0.7730 0.7730 0.7730 0.7730 0.7730
2490.915094 0.7730 0.7730 0.7730 0.7726 0.7721
2495.176470 0.7712 0.7702 0.7700 0.7700 0.7700
2499.437846 0.7700 0.7696 0.7691 0.7686 0.7681
2503.699222 0.7680 0.7680 0.7680 0.7680 0.7672
2507.960598 0.7662 0.7660 0.7660 0.7656 0.7651
2512.221974 0.7650 0.7650 0.7646 0.7641 0.7640
2516.483350 0.7640 0.7632 0.7622 0.7620 0.7620
2520.744726 0.7616 0.7611 0.7610 0.7610 0.7610
2525.006101 0.7610 0.7610 0.7610 0.7610 0.7610
2529.267477 0.7610 0.7610 0.7610 0.7610 0.7610
2533.528853 0.7610 0.7610 0.7610 0.7614 0.7619
2537.790229 0.7620 0.7620 0.7620 0.7620 0.7620
2542.051605 0.7620 0.7620 0.7620 0.7620 0.7620
2546.312981 0.7620 0.7620 0.7620 0.7620 0.7620
2550.574357 0.7620 0.7616 0.7611 0.7610 0.7610
2554.835733 0.7610 0.7610 0.7610 0.7610 0.7610
2559.097109 0.7610 0.7606 0.7601 0.7600 0.7600
2563.358485 0.7600 0.7600 0.7600 0.7600 0.7593
2567.619861 0.7583 0.7580 0.7580 0.7576 0.7571
2571.881237 0.7570 0.7570 0.7570 0.7570 0.7566
2576.142613 0.7561 0.7560 0.7560 0.7553 0.7543
2580.403989 0.7536 0.7531 0.7526 0.7521 0.7513
2584.665365 0.7503 0.7496 0.7491 0.7486 0.7481
2588.926741 0.7480 0.7480 0.7473 0.7463 0.7460
2593.188117 0.7460 0.7456 0.7451 0.7450 0.7450
2597.449493 0.7446 0.7441 0.7440 0.7440 0.7433
2601.710869 0.7423 0.7420 0.7420 0.7420 0.7420
2605.972245 0.7420 0.7420 0.7420 0.7420 0.7416
2610.233621 0.7411 0.7407 0.7401 0.7400 0.7400
2614.494997 0.7400 0.7400 0.7393 0.7383 0.7380
2618.756373 0.7380 0.7380 0.7380 0.7380 0.7380
2623.017749 0.7376 0.7371 0.7367 0.7362 0.7360
2627.279125 0.7360 0.7360 0.7360 0.7353 0.7343
2631.540501 0.7340 0.7340 0.7340 0.7340 0.7337
2635.801877 0.7331 0.7330 0.7330 0.7327 0.7322
2640.063252 0.7320 0.7320 0.7320 0.7320 0.7313
2644.324628 0.7303 0.7300 0.7300 0.7297 0.7292
2648.586004 0.7290 0.7290 0.7280 0.7265 0.7260
2652.847380 0.7260 0.7257 0.7252 0.7250 0.7250
2657.108756 0.7250 0.7250 0.7247 0.7242 0.7240
2661.370132 0.7240 0.7233 0.7223 0.7220 0.7220
2665.631508 0.7217 0.7212 0.7210 0.7210 0.7207
2669.892884 0.7202 0.7200 0.7200 0.7193 0.7183
2674.154260 0.7180 0.7180 0.7180 0.7180 0.7177
2678.415636 0.7172 0.7167 0.7162 0.7153 0.7143
2682.677012 0.7137 0.7132 0.7127 0.7122 0.7113
2686.938388 0.7103 0.7097 0.7092 0.7087 0.7082
2691.199764 0.7073 0.7063 0.7060 0.7060 0.7060
2695.461140 0.7060 0.7057 0.7052 0.7050 0.7050
2699.722516 0.7047 0.7042 0.7033 0.7023 0.7017
2703.983892 0.7012 0.7010 0.7010 0.7010 0.7010
2708.245268 0.7007 0.7002 0.6993 0.6983 0.6977
2712.506644 0.6972 0.6967 0.6962 0.6953 0.6943
2716.768020 0.6937 0.6932 0.6927 0.6922 0.6910
2721.029396 0.6895 0.6880 0.6865 0.6857 0.6852
2725.290772 0.6850 0.6850 0.6847 0.6842 0.6840
2729.552148 0.6840 0.6830 0.6815 0.6807 0.6802
2733.813524 0.6793 0.6783 0.6777 0.6772 0.6767
2738.074900 0.6762 0.6754 0.6744 0.6734 0.6724
2742.336276 0.6720 0.6720 0.6710 0.6695 0.6687
2746.597652 0.6682 0.6680 0.6680 0.6674 0.6664
2750.859027 0.6654 0.6644 0.6630 0.6615 0.6607
2755.120403 0.6602 0.6594 0.6584 0.6574 0.6564
2759.381779 0.6547 0.6527 0.6510 0.6496 0.6481
2763.643155 0.6466 0.6460 0.6460 0.6457 0.6452
2767.904531 0.6450 0.6450 0.6447 0.6442 0.6430
2772.165907 0.6415 0.6401 0.6386 0.6380 0.6380
2776.427283 0.6377 0.6372 0.6370 0.6370 0.6370
2780.688659 0.6370 0.6367 0.6362 0.6360 0.6360
2784.950035 0.6360 0.6360 0.6360 0.6360 0.6363
2789.211411 0.6368 0.6373 0.6378 0.6386 0.6396
2793.472787 0.6400 0.6400 0.6415 0.6440 0.6450
2797.734163 0.6450 0.6453 0.6458 0.6460 0.6460
2801.995539 0.6457 0.6452 0.6453 0.6458 0.6460
2806.256915 0.6460 0.6460 0.6460 0.6460 0.6460
2810.518291 0.6460 0.6460 0.6460 0.6460 0.6460
2814.779667 0.6460 0.6460 0.6460 0.6460 0.6460
2819.041043 0.6460 0.6460 0.6466 0.6476 0.6480
2823.302419 0.6480 0.6480 0.6480 0.6483 0.6488
2827.563795 0.6490 0.6490 0.6490 0.6490 0.6490
2831.825171 0.6490 0.6490 0.6490 0.6490 0.6490
2836.086547 0.6490 0.6490 0.6490 0.6490 0.6490
2840.347923 0.6490 0.6487 0.6482 0.6474 0.6464
2844.609299 0.6457 0.6452 0.6447 0.6442 0.6434
2848.870675 0.6424 0.6408 0.6388 0.6365 0.6340
2853.132051 0.6321 0.6306 0.6297 0.6292 0.6290
2857.393427 0.6290 0.6290 0.6290 0.6290 0.6290
2861.654803 0.6290 0.6290 0.6290 0.6290 0.6290
2865.916178 0.6290 0.6293 0.6298 0.6300 0.6300
2870.177554 0.6300 0.6300 0.6306 0.6316 0.6320
2874.438930 0.6320 0.6320 0.6320 0.6320 0.6320
2878.700306 0.6320 0.6320 0.6320 0.6320 0.6320
2882.961682 0.6320 0.6314 0.6304 0.6300 0.6300
2887.223058 0.6300 0.6300 0.6297 0.6292 0.6290
2891.484434 0.6290 0.6287 0.6282 0.6274 0.6264
2895.745810 0.6254 0.6244 0.6231 0.6216 0.6207
2900.007186 0.6202 0.6192 0.6177 0.6167 0.6162
2904.268562 0.6151 0.6136 0.6130 0.6130 0.6121
2908.529938 0.6106 0.6100 0.6100 0.6094 0.6084
2912.791314 0.6069 0.6049 0.6040 0.6040 0.6034
2917.052690 0.6024 0.6006 0.5981 0.5950 0.5915
2921.314066 0.5894 0.5884 0.5871 0.5857 0.5842
2925.575442 0.5827 0.5814 0.5804 0.5792 0.5777
2929.836818 0.5767 0.5762 0.5754 0.5744 0.5740
2934.098194 0.5740 0.5740 0.5740 0.5740 0.5740
2938.359570 0.5737 0.5732 0.5730 0.5730 0.5733
2942.620946 0.5738 0.5740 0.5740 0.5740 0.5740
2946.882322 0.5740 0.5740 0.5745 0.5755 0.5760
2951.143698 0.5760 0.5760 0.5760 0.5760 0.5760
2955.405074 0.5760 0.5760 0.5760 0.5760 0.5755
2959.666450 0.5745 0.5737 0.5732 0.5730 0.5730
2963.927826 0.5730 0.5730 0.5727 0.5722 0.5720
2968.189202 0.5720 0.5715 0.5705 0.5697 0.5692
2972.450578 0.5687 0.5682 0.5675 0.5665 0.5660
2976.711954 0.5660 0.5657 0.5652 0.5650 0.5650
2980.973329 0.5650 0.5650 0.5647 0.5642 0.5640
2985.234705 0.5640 0.5635 0.5625 0.5620 0.5620
2989.496081 0.5615 0.5605 0.5592 0.5577 0.5562
2993.757457 0.5547 0.5537 0.5532 0.5527 0.5522
2998.018833 0.5515 0.5505 0.5495 0.5485 0.5464
3002.280209 0.5435 0.5417 0.5412 0.5407 0.5402
3006.541585 0.5395 0.5385 0.5377 0.5372 0.5362
3010.802961 0.5347 0.5340 0.5340 0.5337 0.5332
3015.064337 0.5317 0.5292 0.5275 0.5265 0.5255
3019.325713 0.5245 0.5222 0.5187 0.5157 0.5132
3023.587089 0.5104 0.5074 0.5047 0.5022 0.4987
3027.848465 0.4942 0.4905 0.4875 0.4857 0.4852
3032.109841 0.4850 0.4850 0.4853 0.4858 0.4860
3036.371217 0.4860 0.4860 0.4860 0.4855 0.4845
3040.632593 0.4835 0.4825 0.4815 0.4805 0.4795
3044.893969 0.4785 0.4777 0.4772 0.4760 0.4740
3049.155345 0.4718 0.4693 0.4663 0.4628 0.4583
3053.416721 0.4528 0.4500 0.4500 0.4485 0.4455
3057.678097 0.4420 0.4380 0.4340 0.4300 0.4265
3061.939473 0.4235 0.4208 0.4183 0.4170 0.4170
3066.200849 0.4177 0.4192 0.4212 0.4237 0.4262
3070.462225 0.4287 0.4307 0.4322 0.4332 0.4337
3074.723601 0.4345 0.4355 0.4360 0.4360 0.4360
3078.984977 0.4360 0.4360 0.4360 0.4360 0.4360
3083.246353 0.4360 0.4360 0.4360 0.4360 0.4360
3087.507729 0.4360 0.4360 0.4360 0.4360 0.4360
3091.769104 0.4360 0.4360 0.4355 0.4345 0.4340
3096.030480 0.4340 0.4338 0.4333 0.4328 0.4323
3100.291856 0.4313 0.4298 0.4283 0.4268 0.4258
3104.553232 0.4253 0.4243 0.4228 0.4215 0.4205
3108.814608 0.4193 0.4178 0.4168 0.4163 0.4155
3113.075984 0.4145 0.4138 0.4133 0.4118 0.4093
3117.337360 0.4071 0.4051 0.4026 0.3996 0.3968
3121.598736 0.3943 0.3909 0.3864 0.3833 0.3818
3125.860112 0.3798 0.3773 0.3737 0.3687 0.3639
3130.121488 0.3594 0.3544 0.3490 0.3455 0.3445
3134.382864 0.3424 0.3389 0.3349 0.3305 0.3255
3138.644240 0.3200 0.3145 0.3090 0.3033 0.2972
3142.905616 0.2912 0.2852 0.2797 0.2747 0.2702
3147.166992 0.2662 0.2606 0.2531 0.2463 0.2403
3151.428368 0.2350 0.2305 0.2262 0.2222 0.2184
3155.689744 0.2149 0.2110 0.2065 0.2013 0.1953
3159.951120 0.1904 0.1869 0.1832 0.1792 0.1759
3164.212496 0.1734 0.1711 0.1691 0.1671 0.1651
3168.473872 0.1636 0.1626 0.1618 0.1613 0.1608
3172.735248 0.1603 0.1596 0.1586 0.1584 0.1594
3176.996624 0.1620 0.1665 0.1717 0.1777 0.1845
3181.258000 0.1925 0.2025 0.2150 0.2233 0.2263
3185.519376 0.2289 0.2309 0.2359 0.2449 0.2552
3189.780752 0.2671 0.2781 0.2875 0.2964 0.3045
3194.042128 0.3125 0.3205 0.3292 0.3386 0.3477
3198.303504 0.3562 0.3647 0.3732 0.3814 0.3894
3202.564880 0.3966 0.4026 0.4081 0.4131 0.4168
3206.826255 0.4188 0.4225 0.4285 0.4345 0.4406
3211.087631 0.4444 0.4454 0.4466 0.4481 0.4499
3215.349007 0.4519 0.4541 0.4566 0.4597 0.4637
3219.610383 0.4683 0.4738 0.4789 0.4834 0.4868
3223.871759 0.4888 0.4916 0.4956 0.4988 0.5008
3228.133135 0.5028 0.5048 0.5068 0.5088 0.5104
3232.394511 0.5114 0.5122 0.5127 0.5132 0.5137
3236.655887 0.5148 0.5168 0.5180 0.5180 0.5180
3240.917263 0.5180 0.5178 0.5173 0.5170 0.5170
3245.178639 0.5170 0.5170 0.5164 0.5149 0.5136
3249.440015 0.5126 0.5112 0.5092 0.5074 0.5059
3253.701391 0.5044 0.5029 0.5018 0.5013 0.5008
3257.962767 0.5003 0.4994 0.4979 0.4962 0.4942
3262.224143 0.4924 0.4909 0.4896 0.4886 0.4876
3266.485519 0.4866 0.4858 0.4853 0.4842 0.4822
3270.746895 0.4808 0.4803 0.4796 0.4786 0.4778
3275.008271 0.4773 0.4768 0.4763 0.4754 0.4739
3279.269647 0.4720 0.4695 0.4672 0.4652 0.4632
3283.531023 0.4612 0.4594 0.4579 0.4564 0.4549
3287.792399 0.4528 0.4498 0.4472 0.4452 0.4427
3292.053775 0.4392 0.4361 0.4336 0.4312 0.4292
3296.315151 0.4268 0.4238 0.4210 0.4185 0.4160
3300.576527 0.4135 0.4114 0.4099 0.4084 0.4069
3304.837903 0.4056 0.4046 0.4040 0.4040 0.4034
3309.099279 0.4019 0.4010 0.4010 0.4008 0.4003
3313.360655 0.4000 0.4000 0.3996 0.3986 0.3978
3317.622031 0.3973 0.3968 0.3963 0.3947 0.3912
3321.883406 0.3883 0.3863 0.3841 0.3816 0.3789
3326.144782 0.3759 0.3726 0.3686 0.3642 0.3591
3330.406158 0.3532 0.3457 0.3378 0.3293 0.3233
3334.667534 0.3213 0.3193 0.3173 0.3138 0.3078
3338.928910 0.2991 0.2856 0.2729 0.2614 0.2538
3343.190286 0.2533 0.2521 0.2496 0.2462 0.2412
3347.451662 0.2341 0.2237 0.2134 0.2034 0.1934
3351.713038 0.1834 0.1732 0.1627 0.1556 0.1546
3355.974414 0.1498 0.1378 0.1258 0.1138 0.1030
3360.235790 0.0945 0.0871 0.0816 0.0771 0.0746
3364.497166 0.0725 0.0710 0.0696 0.0686 0.0675
3368.758542 0.0660 0.0648 0.0643 0.0642 0.0647
3373.019918 0.0676 0.0751 0.0821 0.0881 0.0971
3377.281294 0.1121 0.1274 0.1434 0.1598 0.1769
3381.542670 0.1922 0.2042 0.2164 0.2289 0.2420
3385.804046 0.2565 0.2719 0.2888 0.3068 0.3268
3390.065422 0.3476 0.3701 0.3911 0.4090 0.4242
3394.326798 0.4337 0.4426 0.4506 0.4626 0.4828
3398.588174 0.5003 0.5128 0.5246 0.5351 0.5472
3402.849550 0.5627 0.5777 0.5917 0.6025 0.6070
3407.110926 0.6131 0.6226 0.6321 0.6416 0.6512
3411.372302 0.6612 0.6706 0.6786 0.6859 0.6920
3415.633678 0.6967 0.6987 0.7020 0.7080 0.7140
3419.895054 0.7200 0.7256 0.7306 0.7356 0.7406
3424.156430 0.7453 0.7493 0.7523 0.7533 0.7551
3428.417806 0.7586 0.7623 0.7663 0.7696 0.7716
3432.679182 0.7737 0.7757 0.7770 0.7770 0.7772
3436.940557 0.7777 0.7783 0.7793 0.7802 0.7807
3441.201933 0.7810 0.7810 0.7812 0.7817 0.7820
3445.463309 0.7820 0.7820 0.7820 0.7818 0.7813
3449.724685 0.7810 0.7810 0.7810 0.7810 0.7808
3453.986061 0.7803 0.7800 0.7800 0.7797 0.7787
3458.247437 0.7780 0.7780 0.7778 0.7773 0.7770
3462.508813 0.7770 0.7769 0.7764 0.7760 0.7760
3466.770189 0.7757 0.7747 0.7740 0.7740 0.7738
3471.031565 0.7733 0.7728 0.7723 0.7717 0.7707
3475.292941 0.7699 0.7694 0.7689 0.7684 0.7677
3479.554317 0.7667 0.7657 0.7647 0.7636 0.7621
3483.815693 0.7610 0.7610 0.7609 0.7604 0.7597
3488.077069 0.7587 0.7579 0.7574 0.7569 0.7564
3492.338445 0.7554 0.7534 0.7516 0.7501 0.7489
3496.599821 0.7484 0.7477 0.7467 0.7459 0.7454
3500.861197 0.7446 0.7431 0.7419 0.7414 0.7410
3505.122573 0.7410 0.7409 0.7404 0.7397 0.7387
3509.383949 0.7379 0.7374 0.7369 0.7364 0.7357
3513.645325 0.7347 0.7337 0.7327 0.7316 0.7301
3517.906701 0.7290 0.7290 0.7286 0.7271 0.7259
3522.168077 0.7254 0.7249 0.7244 0.7237 0.7227
3526.429453 0.7219 0.7214 0.7210 0.7210 0.7209
3530.690829 0.7204 0.7197 0.7187 0.7180 0.7180
3534.952205 0.7179 0.7174 0.7169 0.7164 0.7157
3539.213581 0.7147 0.7139 0.7134 0.7129 0.7124
3543.474957 0.7117 0.7107 0.7099 0.7094 0.7089
3547.736332 0.7084 0.7077 0.7067 0.7060 0.7060
3551.997708 0.7059 0.7054 0.7050 0.7050 0.7049
3556.259084 0.7044 0.7040 0.7040 0.7036 0.7021
3560.520460 0.7009 0.7004 0.6997 0.6987 0.6980
3564.781836 0.6980 0.6979 0.6974 0.6970 0.6970
3569.043212 0.6969 0.6964 0.6957 0.6947 0.6940
3573.304588 0.6940 0.6939 0.6934 0.6929 0.6924
3577.565964 0.6920 0.6920 0.6918 0.6908 0.6898
3581.827340 0.6888 0.6880 0.6880 0.6878 0.6868
3586.088716 0.6860 0.6860 0.6857 0.6847 0.6837
3590.350092 0.6828 0.6820 0.6820 0.6819 0.6814
3594.611468 0.6810 0.6810 0.6809 0.6804 0.6800
3598.872844 0.6800 0.6798 0.6788 0.6780 0.6780
3603.134220 0.6779 0.6774 0.6770 0.6770 0.6770
3607.395596 0.6770 0.6769 0.6764 0.6760 0.6760
3611.656972 0.6760 0.6760 0.6758 0.6748 0.6740
3615.918348 0.6740 0.6740 0.6740 0.6739 0.6734
3620.179724 0.6729 0.6724 0.6718 0.6708 0.6700
3624.441100 0.6700 0.6699 0.6694 0.6689 0.6684
3628.702476 0.6678 0.6668 0.6660 0.6660 0.6659
3632.963852 0.6654 0.6649 0.6644 0.6638 0.6628
3637.225228 0.6620 0.6620 0.6619 0.6614 0.6609
3641.486604 0.6604 0.6600 0.6600 0.6600 0.6600
3645.747980 0.6598 0.6588 0.6579 0.6574 0.6569
3650.009356 0.6564 0.6560 0.6560 0.6558 0.6548
3654.270732 0.6540 0.6540 0.6540 0.6540 0.6539
3658.532108 0.6534 0.6530 0.6530 0.6529 0.6524
3662.793483 0.6520 0.6520 0.6518 0.6508 0.6500
3667.054859 0.6500 0.6499 0.6494 0.6490 0.6490
3671.316235 0.6490 0.6490 0.6490 0.6490 0.6489
3675.577611 0.6484 0.6480 0.6480 0.6480 0.6480
3679.838987 0.6478 0.6468 0.6460 0.6460 0.6460
3684.100363 0.6460 0.6459 0.6454 0.6450 0.6450
3688.361739 0.6449 0.6444 0.6440 0.6440 0.6440
3692.623115 0.6440 0.6438 0.6428 0.6420 0.6420
3696.884491 0.6419 0.6414 0.6409 0.6404 0.6400
3701.145867 0.6400 0.6400 0.6400 0.6398 0.6388
3705.407243 0.6380 0.6380 0.6380 0.6380 0.6379
3709.668619 0.6374 0.6370 0.6370 0.6369 0.6364
3713.929995 0.6360 0.6360 0.6358 0.6348 0.6340
3718.191371 0.6340 0.6340 0.6340 0.6340 0.6340
3722.452747 0.6340 0.6340 0.6339 0.6334 0.6330
3726.714123 0.6330 0.6330 0.6330 0.6330 0.6330
3730.975499 0.6329 0.6324 0.6320 0.6320 0.6320
3735.236875 0.6320 0.6318 0.6308 0.6300 0.6300
3739.498251 0.6300 0.6300 0.6299 0.6294 0.6290
3743.759627 0.6290 0.6290 0.6290 0.6289 0.6284
3748.021003 0.6280 0.6280 0.6278 0.6268 0.6260
3752.282379 0.6260 0.6260 0.6260 0.6259 0.6254
3756.543755 0.6250 0.6250 0.6249 0.6244 0.6240
3760.805131 0.6240 0.6238 0.6228 0.6220 0.6220
3765.066507 0.6219 0.6214 0.6210 0.6210 0.6210
3769.327883 0.6210 0.6209 0.6204 0.6200 0.6200
3773.589259 0.6198 0.6188 0.6180 0.6180 0.6180
3777.850634 0.6180 0.6179 0.6174 0.6170 0.6170
3782.112010 0.6170 0.6170 0.6169 0.6164 0.6159
3786.373386 0.6149 0.6140 0.6140 0.6140 0.6140
3790.634762 0.6140 0.6140 0.6140 0.6140 0.6139
3794.896138 0.6134 0.6130 0.6130
##END=
