##TITLE=CARBONIC ACID, BIS(o-METHOXYPHENYL) ESTER
##JCAMP-DX=4.24
##DATA TYPE=INFRARED SPECTRUM
##CLASS=COBLENTZ III
##ORIGIN=WESTERN REGIONAL RES. USDA
##OWNER=COBLENTZ SOCIETY
Collection (C) 2018 copyright by the U.S. Secretary of Commerce
on behalf of the United States of America. All rights reserved.
##DATE=1964/06/23
##NAMES=bis(2-methoxyphenyl) carbonate
PHENOL, o-METHOXY-, CARBONATE
##CAS REGISTRY NO=553-17-3
##MOLFORM=C15 H14 O5
##SOURCE REFERENCE=COBLENTZ NO. 6195
##$NIST SOURCE=COBLENTZ
##$NIST IMAGE=cob6195
##SPECTROMETER/DATA SYSTEM=BECKMAN IR-7 (GRATING)
##INSTRUMENT PARAMETERS=GRATING CHANGES AT 3000, 2200, 1150 CM^-^1
##STATE=SOLID (NUJOL MULL)
##PATH LENGTH=
$$SPECTRAL CONTAMINATIN DUE TO OIL AROUND 2900 CM^-^1
##SAMPLING PROCEDURE=TRANSMISSION
##RESOLUTION=4
##DATA PROCESSING=DIGITIZED BY NIST FROM HARD COPY (FROM TWO SEGMENTS)
##XUNITS=1/CM
##YUNITS=TRANSMITTANCE
##XFACTOR=1.000000
##YFACTOR=1
##DELTAX=0.647250
##FIRSTX=596.117
##LASTX=3963.11
##FIRSTY=0.811
##MAXX=3963.11
##MINX=596.117
##MAXY=0.848
##MINY=0.076
##NPOINTS=5203
##XYDATA=(X++(Y..Y))
596.117000 0.8110 0.8160 0.8210 0.8240 0.8270
599.353252 0.8300 0.8320 0.8320 0.8340 0.8340
602.589503 0.8350 0.8350 0.8360 0.8110 0.8160
605.825755 0.8210 0.8240 0.8270 0.8300 0.8320
609.062006 0.8320 0.8340 0.8340 0.8350 0.8350
612.298258 0.8360 0.8360 0.8370 0.8380 0.8390
615.534509 0.8390 0.8390 0.8400 0.8390 0.8390
618.770761 0.8390 0.8370 0.8370 0.8360 0.8360
622.007013 0.8360 0.8360 0.8350 0.8350 0.8350
625.243264 0.8340 0.8340 0.8340 0.8340 0.8330
628.479516 0.8330 0.8320 0.8320 0.8320 0.8320
631.715767 0.8320 0.8320 0.8320 0.8310 0.8310
634.952019 0.8300 0.8300 0.8280 0.8270 0.8250
638.188270 0.8240 0.8210 0.8200 0.8190 0.8180
641.424522 0.8180 0.8190 0.8210 0.8230 0.8250
644.660773 0.8270 0.8280 0.8280 0.8290 0.8300
647.897025 0.8300 0.8300 0.8300 0.8300 0.8290
651.133277 0.8290 0.8280 0.8280 0.8280 0.8270
654.369528 0.8270 0.8270 0.8270 0.8270 0.8270
657.605780 0.8260 0.8250 0.8240 0.8230 0.8230
660.842031 0.8230 0.8230 0.8230 0.8230 0.8230
664.078283 0.8230 0.8240 0.8240 0.8250 0.8250
667.314534 0.8250 0.8250 0.8250 0.8230 0.8230
670.550786 0.8230 0.8210 0.8210 0.8190 0.8190
673.787038 0.8180 0.8180 0.8180 0.8190 0.8200
677.023289 0.8200 0.8210 0.8210 0.8210 0.8210
680.259541 0.8210 0.8200 0.8200 0.8190 0.8190
683.495792 0.8180 0.8180 0.8160 0.8160 0.8150
686.732044 0.8140 0.8130 0.8120 0.8120 0.8090
689.968295 0.8070 0.8070 0.8030 0.8030 0.8000
693.204547 0.7930 0.7860 0.7700 0.7620 0.7620
696.440799 0.7620 0.7710 0.7750 0.7790 0.7870
699.677050 0.8000 0.8050 0.8090 0.8110 0.8110
702.913302 0.8120 0.8120 0.8120 0.8120 0.8120
706.149553 0.8120 0.8120 0.8120 0.8120 0.8110
709.385805 0.8100 0.8090 0.8080 0.8070 0.8070
712.622056 0.8070 0.8050 0.8050 0.8040 0.8030
715.858308 0.8020 0.8020 0.8000 0.7990 0.7970
719.094560 0.7950 0.7940 0.7920 0.7900 0.7890
722.330811 0.7870 0.7840 0.7780 0.7670 0.7660
725.567063 0.7620 0.7550 0.7480 0.7410 0.7410
728.803314 0.7430 0.7430 0.7470 0.7510 0.7550
732.039566 0.7550 0.7550 0.7550 0.7540 0.7530
735.275817 0.7480 0.7430 0.7370 0.7330 0.7290
738.512069 0.7230 0.7180 0.7030 0.6930 0.6800
741.748320 0.6660 0.6270 0.5751 0.5061 0.3065
744.984572 0.2660 0.2490 0.2380 0.2090 0.2080
748.220824 0.2070 0.2070 0.2070 0.2080 0.2080
751.457075 0.2130 0.2170 0.2260 0.2690 0.3100
754.693327 0.3520 0.3760 0.3990 0.4000 0.4209
757.929578 0.4380 0.4650 0.4910 0.5180 0.5630
761.165830 0.6079 0.6290 0.6490 0.7048 0.7140
764.402081 0.7210 0.7410 0.7420 0.7400 0.6930
767.638333 0.6880 0.6790 0.6630 0.6311 0.6250
770.874585 0.6160 0.6160 0.6330 0.6520 0.6710
774.110836 0.6950 0.7180 0.7300 0.7390 0.7460
777.347088 0.7580 0.7640 0.7640 0.7660 0.7660
780.583339 0.7550 0.7480 0.7430 0.7340 0.7250
783.819591 0.7170 0.7160 0.7170 0.7230 0.7280
787.055842 0.7330 0.7380 0.7430 0.7470 0.7480
790.292094 0.7500 0.7640 0.7710 0.7790 0.7920
793.528346 0.8030 0.8120 0.8190 0.8240 0.8260
796.764597 0.8270 0.8280 0.8280 0.8280 0.8280
800.000849 0.8280 0.8280 0.8280 0.8280 0.8280
803.237100 0.8280 0.8280 0.8280 0.8270 0.8270
806.473352 0.8270 0.8270 0.8260 0.8260 0.8250
809.709603 0.8250 0.8250 0.8250 0.8240 0.8230
812.945855 0.8230 0.8220 0.8210 0.8210 0.8200
816.182107 0.8190 0.8180 0.8170 0.8160 0.8150
819.418358 0.8130 0.8110 0.8070 0.8020 0.7960
822.654610 0.7850 0.7590 0.7540 0.7320 0.6880
825.890861 0.6880 0.6870 0.6880 0.7050 0.7130
829.127113 0.7210 0.7370 0.7540 0.7590 0.7660
832.363364 0.7730 0.7800 0.7920 0.8160 0.8170
835.599616 0.8180 0.8180 0.8180 0.8180 0.8180
838.835867 0.8180 0.8180 0.8180 0.8170 0.8170
842.072119 0.8170 0.8160 0.8140 0.8140 0.8120
845.308371 0.8080 0.8020 0.8000 0.7990 0.7990
848.544622 0.7980 0.7980 0.7960 0.7930 0.7890
851.780874 0.7850 0.7670 0.7510 0.7500 0.7510
855.017125 0.7620 0.7680 0.7730 0.7940 0.7950
858.253377 0.7960 0.7980 0.8000 0.8020 0.8040
861.489628 0.8060 0.8070 0.8070 0.8090 0.8100
864.725880 0.8100 0.8110 0.8110 0.8110 0.8110
867.962132 0.8110 0.8110 0.8110 0.8110 0.8110
871.198383 0.8100 0.8100 0.8090 0.8090 0.8090
874.434635 0.8090 0.8090 0.8080 0.8080 0.8070
877.670886 0.8070 0.8060 0.8060 0.8050 0.8050
880.907138 0.8040 0.8030 0.8030 0.8020 0.8020
884.143389 0.8010 0.8000 0.8000 0.7990 0.7980
887.379641 0.7980 0.7970 0.7970 0.7960 0.7960
890.615893 0.7930 0.7910 0.7890 0.7880 0.7840
893.852144 0.7640 0.7610 0.7610 0.7660 0.7700
897.088396 0.7730 0.7750 0.7820 0.7850 0.7870
900.324647 0.7890 0.7910 0.7920 0.7940 0.7950
903.560899 0.7950 0.7950 0.7950 0.7950 0.7950
906.797150 0.7950 0.7950 0.7950 0.7950 0.7950
910.033402 0.7950 0.7940 0.7930 0.7930 0.7920
913.269654 0.7920 0.7910 0.7910 0.7910 0.7910
916.505905 0.7910 0.7900 0.7890 0.7890 0.7880
919.742157 0.7870 0.7870 0.7860 0.7860 0.7860
922.978408 0.7850 0.7850 0.7840 0.7840 0.7840
926.214660 0.7830 0.7820 0.7820 0.7810 0.7800
929.450911 0.7780 0.7750 0.7690 0.7650 0.7610
932.687163 0.7550 0.7490 0.7430 0.7370 0.7320
935.923414 0.7080 0.7060 0.7070 0.7070 0.7080
939.159666 0.7130 0.7200 0.7210 0.7190 0.7140
942.395918 0.7130 0.7140 0.7220 0.7360 0.7510
945.632169 0.7570 0.7600 0.7620 0.7640 0.7650
948.868421 0.7660 0.7680 0.7690 0.7700 0.7700
952.104672 0.7700 0.7700 0.7700 0.7700 0.7690
955.340924 0.7690 0.7680 0.7680 0.7660 0.7650
958.577175 0.7640 0.7640 0.7630 0.7620 0.7620
961.813427 0.7620 0.7610 0.7600 0.7600 0.7590
965.049679 0.7580 0.7570 0.7560 0.7550 0.7530
968.285930 0.7510 0.7480 0.7450 0.7410 0.7390
971.522182 0.7390 0.7380 0.7380 0.7370 0.7370
974.758433 0.7370 0.7370 0.7370 0.7380 0.7390
977.994685 0.7390 0.7400 0.7410 0.7420 0.7430
981.230936 0.7440 0.7440 0.7460 0.7470 0.7480
984.467188 0.7480 0.7480 0.7480 0.7470 0.7460
987.703440 0.7460 0.7450 0.7440 0.7430 0.7430
990.939691 0.7410 0.7400 0.7390 0.7370 0.7350
994.175943 0.7320 0.7290 0.7270 0.7250 0.7240
997.412194 0.7220 0.7200 0.7170 0.7140 0.7040
1000.648446 0.6960 0.6880 0.6770 0.6600 0.6261
1003.884697 0.6069 0.5629 0.5060 0.4900 0.4900
1007.120949 0.4900 0.4910 0.5040 0.5170 0.5420
1010.357201 0.5670 0.5800 0.5920 0.6170 0.6360
1013.593452 0.6420 0.6430 0.6440 0.6410 0.6410
1016.829704 0.6380 0.6260 0.6060 0.5930 0.5760
1020.065955 0.5650 0.5460 0.3691 0.3111 0.3100
1023.302207 0.3110 0.3220 0.3340 0.3630 0.3860
1026.538458 0.4080 0.4310 0.4540 0.4949 0.5130
1029.774710 0.5311 0.5620 0.5750 0.5870 0.6250
1033.010961 0.6390 0.6530 0.6730 0.6740 0.6750
1036.247213 0.6750 0.6740 0.6730 0.6660 0.6550
1039.483465 0.6470 0.6290 0.5591 0.4452 0.4430
1042.719716 0.3990 0.3991 0.4271 0.4650 0.5010
1045.955968 0.5380 0.5650 0.5920 0.6320 0.6480
1049.192219 0.6630 0.6770 0.6930 0.7050 0.7110
1052.428471 0.7150 0.7210 0.7250 0.7270 0.7290
1055.664722 0.7290 0.7300 0.7300 0.7300 0.7300
1058.900974 0.7300 0.7300 0.7300 0.7290 0.7270
1062.137226 0.7260 0.7240 0.7240 0.7230 0.7230
1065.373477 0.7230 0.7220 0.7220 0.7210 0.7210
1068.609729 0.7200 0.7190 0.7190 0.7180 0.7180
1071.845980 0.7180 0.7170 0.7170 0.7160 0.7150
1075.082232 0.7140 0.7130 0.7130 0.7130 0.7120
1078.318483 0.7110 0.7110 0.7100 0.7060 0.7050
1081.554735 0.7040 0.7040 0.7030 0.7020 0.7010
1084.790987 0.7000 0.6980 0.6960 0.6930 0.6910
1088.027238 0.6890 0.6880 0.6870 0.6840 0.6800
1091.263490 0.6770 0.6720 0.6680 0.6620 0.6560
1094.499741 0.6500 0.6350 0.6270 0.6190 0.6100
1097.735993 0.6000 0.5720 0.5500 0.5030 0.4481
1100.972244 0.4188 0.3039 0.2280 0.1810 0.1620
1104.208496 0.1620 0.1620 0.1620 0.1630 0.1780
1107.444748 0.1890 0.1991 0.2420 0.2670 0.2920
1110.680999 0.3260 0.3600 0.3790 0.3970 0.4280
1113.917251 0.4460 0.4641 0.5010 0.5160 0.5300
1117.153502 0.5520 0.5700 0.5770 0.5840 0.5950
1120.389754 0.6060 0.6160 0.6280 0.6360 0.6420
1123.626005 0.6440 0.6460 0.6490 0.6510 0.6520
1126.862257 0.6530 0.6540 0.6550 0.6550 0.6560
1130.098508 0.6550 0.6550 0.6540 0.6520 0.6490
1133.334760 0.6470 0.6470 0.6450 0.6410 0.6390
1136.571012 0.6370 0.6330 0.6270 0.6250 0.6180
1139.807263 0.6150 0.6140 0.6090 0.6010 0.5970
1143.043515 0.5750 0.5680 0.5610 0.5520 0.5380
1146.279766 0.5080 0.4937 0.3759 0.3370 0.3020
1149.516018 0.2560 0.2260 0.1900 0.1720 0.1550
1152.752269 0.1390 0.1380 0.1370 0.1380 0.1450
1155.988521 0.1490 0.1530 0.1550 0.1550 0.1550
1159.224773 0.1560 0.1600 0.1650 0.1700 0.1750
1162.461024 0.1850 0.1900 0.1960 0.2060 0.2120
1165.697276 0.2130 0.2130 0.1920 0.1920 0.1930
1168.933527 0.1940 0.2250 0.2550 0.2849 0.3309
1172.169779 0.3771 0.4071 0.4370 0.4560 0.4750
1175.406030 0.4990 0.5080 0.5160 0.5430 0.5630
1178.642282 0.5740 0.5840 0.6000 0.6110 0.6180
1181.878534 0.6230 0.6270 0.6310 0.6330 0.6330
1185.114785 0.6320 0.6310 0.6270 0.6160 0.6080
1188.351037 0.6010 0.5960 0.5920 0.5890 0.5860
1191.587288 0.5840 0.5770 0.5720 0.5610 0.5480
1194.823540 0.5340 0.5080 0.4950 0.4740 0.4241
1198.059791 0.4220 0.4220 0.4260 0.4350 0.4470
1201.296043 0.4590 0.4920 0.5080 0.5240 0.5490
1204.532295 0.5640 0.5770 0.5830 0.5880 0.5950
1207.768546 0.6030 0.6040 0.6040 0.6020 0.6010
1211.004798 0.5980 0.5970 0.5900 0.5700 0.5570
1214.241049 0.5460 0.5360 0.5290 0.5270 0.5200
1217.477301 0.5090 0.5070 0.5030 0.4980 0.4960
1220.713552 0.4930 0.4920 0.4860 0.4800 0.4750
1223.949804 0.4710 0.4680 0.4650 0.4580 0.4490
1227.186055 0.4430 0.4360 0.4270 0.4200 0.4140
1230.422307 0.4059 0.3719 0.3200 0.2940 0.2740
1233.658559 0.2470 0.2260 0.1801 0.1560 0.1191
1236.894810 0.1070 0.0980 0.0900 0.0840 0.0780
1240.131062 0.0760 0.0760 0.0760 0.0770 0.0780
1243.367313 0.0800 0.0820 0.0870 0.0900 0.0950
1246.603565 0.0970 0.1000 0.1070 0.1140 0.1200
1249.839816 0.1240 0.1240 0.1240 0.1240 0.1240
1253.076068 0.1240 0.1230 0.1220 0.1210 0.1190
1256.312320 0.1170 0.1140 0.1100 0.1070 0.1060
1259.548571 0.1060 0.1060 0.1060 0.1060 0.1100
1262.784823 0.1150 0.1240 0.1290 0.1340 0.1440
1266.021074 0.1540 0.1690 0.1810 0.1920 0.2010
1269.257326 0.2151 0.2530 0.2650 0.2780 0.3170
1272.493577 0.3340 0.3500 0.3770 0.3880 0.3990
1275.729829 0.4180 0.4340 0.4490 0.4550 0.4610
1278.966081 0.4740 0.4870 0.4880 0.4880 0.4880
1282.202332 0.4880 0.4828 0.3699 0.3060 0.2810
1285.438584 0.2510 0.2220 0.2210 0.2220 0.2400
1288.674835 0.2510 0.2620 0.2730 0.2810 0.3060
1291.911087 0.3310 0.3790 0.3980 0.4160 0.4450
1295.147338 0.4560 0.4680 0.4900 0.5130 0.5240
1298.383590 0.5350 0.5490 0.5630 0.5730 0.5770
1301.619842 0.5790 0.5810 0.5840 0.5820 0.5820
1304.856093 0.5810 0.5620 0.5530 0.5410 0.5130
1308.092345 0.4970 0.4789 0.4430 0.4250 0.4070
1311.328596 0.3740 0.3460 0.3400 0.3350 0.3350
1314.564848 0.3381 0.3670 0.3820 0.3930 0.4050
1317.801099 0.4340 0.4430 0.4520 0.4830 0.5040
1321.037351 0.5110 0.5180 0.5470 0.5710 0.5820
1324.273602 0.5930 0.6110 0.6250 0.6380 0.6430
1327.509854 0.6480 0.6550 0.6610 0.6680 0.6760
1330.746106 0.6820 0.6870 0.6930 0.6970 0.7010
1333.982357 0.7040 0.7060 0.7070 0.7090 0.7110
1337.218609 0.7130 0.7140 0.7140 0.7160 0.7160
1340.454860 0.7170 0.7180 0.7180 0.7190 0.7200
1343.691112 0.7200 0.7200 0.7200 0.7210 0.7210
1346.927363 0.7210 0.7210 0.7210 0.7210 0.7210
1350.163615 0.7210 0.7210 0.7210 0.7210 0.7210
1353.399867 0.7210 0.7210 0.7220 0.7220 0.7220
1356.636118 0.7220 0.7210 0.7210 0.7200 0.7200
1359.872370 0.7200 0.7190 0.7180 0.7180 0.7180
1363.108621 0.7170 0.7140 0.7110 0.7090 0.7040
1366.344873 0.6960 0.6910 0.6880 0.6830 0.6790
1369.581124 0.6770 0.6770 0.6760 0.6750 0.6730
1372.817376 0.6730 0.6720 0.6710 0.6700 0.6670
1376.053628 0.6630 0.6580 0.6530 0.6400 0.6320
1379.289879 0.6250 0.6180 0.6100 0.6020 0.6010
1382.526131 0.6000 0.6020 0.6040 0.6130 0.6280
1385.762382 0.6370 0.6400 0.6430 0.6480 0.6530
1388.998634 0.6570 0.6630 0.6680 0.6730 0.6790
1392.234885 0.6850 0.6910 0.6980 0.7050 0.7060
1395.471137 0.7070 0.7090 0.7110 0.7120 0.7120
1398.707389 0.7140 0.7160 0.7160 0.7160 0.7160
1401.943640 0.7160 0.7160 0.7150 0.7150 0.7140
1405.179892 0.7140 0.7140 0.7140 0.7140 0.7140
1408.416143 0.7140 0.7140 0.7140 0.7140 0.7130
1411.652395 0.7130 0.7130 0.7130 0.7130 0.7130
1414.888646 0.7130 0.7120 0.7120 0.7120 0.7110
1418.124898 0.7110 0.7100 0.7100 0.7060 0.7040
1421.361149 0.7010 0.7000 0.6990 0.6990 0.6980
1424.597401 0.6980 0.6970 0.6960 0.6960 0.6950
1427.833653 0.6940 0.6940 0.6910 0.6910 0.6890
1431.069904 0.6880 0.6860 0.6860 0.6840 0.6820
1434.306156 0.6770 0.6720 0.6640 0.6570 0.6510
1437.542407 0.6360 0.6278 0.5770 0.5650 0.5509
1440.778659 0.4909 0.4210 0.3870 0.3870 0.4020
1444.014910 0.4200 0.4320 0.4330 0.4340 0.4370
1447.251162 0.4490 0.4530 0.4570 0.4830 0.5020
1450.487414 0.5080 0.5150 0.5270 0.5270 0.5280
1453.723665 0.5280 0.5020 0.4820 0.4450 0.4280
1456.959917 0.4109 0.3739 0.3490 0.3480 0.3480
1460.196168 0.3500 0.3570 0.3600 0.3670 0.3670
1463.432420 0.3650 0.3649 0.3489 0.3200 0.3130
1466.668671 0.2970 0.2970 0.2970 0.3120 0.3270
1469.904923 0.3560 0.3650 0.3830 0.4020 0.4200
1473.141175 0.4380 0.4550 0.4950 0.5090 0.5220
1476.377426 0.5380 0.5490 0.5570 0.5670 0.5750
1479.613678 0.5820 0.5930 0.6030 0.6090 0.6160
1482.849929 0.6240 0.6270 0.6310 0.6330 0.6340
1486.086181 0.6350 0.6350 0.6340 0.6340 0.6330
1489.322432 0.6320 0.6300 0.6250 0.6190 0.6140
1492.558684 0.6090 0.5970 0.5620 0.5450 0.5130
1495.794936 0.4969 0.4789 0.4430 0.4219 0.3770
1499.031187 0.3509 0.2560 0.1780 0.1540 0.1400
1502.267439 0.1390 0.1391 0.1631 0.1870 0.1950
1505.503690 0.2030 0.2080 0.2430 0.2610 0.2790
1508.739942 0.3041 0.3281 0.3821 0.4110 0.4400
1511.976193 0.4490 0.4580 0.4580 0.4820 0.5060
1515.212445 0.5180 0.5291 0.5530 0.5620 0.5740
1518.448696 0.5820 0.5890 0.6080 0.6230 0.6300
1521.684948 0.6360 0.6390 0.6410 0.6430 0.6450
1524.921200 0.6450 0.6460 0.6460 0.6460 0.6460
1528.157451 0.6460 0.6470 0.6500 0.6520 0.6570
1531.393703 0.6630 0.6670 0.6730 0.6740 0.6810
1534.629954 0.6860 0.6910 0.6980 0.7020 0.7040
1537.866206 0.7060 0.7070 0.7080 0.7100 0.7110
1541.102457 0.7130 0.7150 0.7170 0.7190 0.7200
1544.338709 0.7220 0.7240 0.7260 0.7280 0.7300
1547.574961 0.7310 0.7340 0.7360 0.7370 0.7380
1550.811212 0.7380 0.7390 0.7390 0.7390 0.7400
1554.047464 0.7410 0.7410 0.7410 0.7410 0.7400
1557.283715 0.7400 0.7400 0.7400 0.7400 0.7400
1560.519967 0.7400 0.7400 0.7400 0.7410 0.7410
1563.756218 0.7420 0.7420 0.7430 0.7430 0.7430
1566.992470 0.7430 0.7430 0.7430 0.7430 0.7430
1570.228722 0.7430 0.7430 0.7420 0.7420 0.7410
1573.464973 0.7410 0.7410 0.7410 0.7400 0.7390
1576.701225 0.7390 0.7380 0.7380 0.7370 0.7370
1579.937476 0.7360 0.7340 0.7300 0.7290 0.7260
1583.173728 0.7250 0.7230 0.7220 0.7200 0.7190
1586.409979 0.7170 0.7140 0.7110 0.7020 0.6960
1589.646231 0.6890 0.6800 0.6700 0.6580 0.6280
1592.882483 0.6260 0.6240 0.6260 0.6270 0.6370
1596.118734 0.6460 0.6540 0.6660 0.6730 0.6770
1599.354986 0.6810 0.6820 0.6830 0.6820 0.6820
1602.591237 0.6750 0.6700 0.6670 0.6580 0.6400
1605.827489 0.6310 0.6230 0.6150 0.6080 0.6010
1609.063740 0.5940 0.5880 0.5770 0.5720 0.5670
1612.299992 0.5630 0.5590 0.5560 0.5460 0.5330
1615.536243 0.5040 0.4910 0.4770 0.4750 0.4740
1618.772495 0.4740 0.4790 0.4891 0.5221 0.5560
1622.008747 0.5810 0.6060 0.6350 0.6450 0.6550
1625.244998 0.6791 0.7030 0.7110 0.7190 0.7290
1628.481250 0.7340 0.7360 0.7370 0.7370 0.7390
1631.717501 0.7410 0.7420 0.7430 0.7440 0.7440
1634.953753 0.7450 0.7460 0.7460 0.7490 0.7490
1638.190004 0.7500 0.7500 0.7500 0.7500 0.7500
1641.426256 0.7500 0.7500 0.7500 0.7500 0.7500
1644.662508 0.7500 0.7500 0.7490 0.7480 0.7480
1647.898759 0.7480 0.7480 0.7480 0.7480 0.7480
1651.135011 0.7490 0.7490 0.7490 0.7500 0.7500
1654.371262 0.7510 0.7510 0.7520 0.7520 0.7510
1657.607514 0.7510 0.7500 0.7500 0.7500 0.7500
1660.843765 0.7490 0.7480 0.7480 0.7480 0.7480
1664.080017 0.7480 0.7470 0.7470 0.7480 0.7480
1667.316269 0.7490 0.7490 0.7490 0.7490 0.7490
1670.552520 0.7490 0.7490 0.7490 0.7490 0.7490
1673.788772 0.7490 0.7490 0.7480 0.7480 0.7480
1677.025023 0.7480 0.7480 0.7480 0.7470 0.7470
1680.261275 0.7460 0.7460 0.7450 0.7450 0.7450
1683.497526 0.7440 0.7440 0.7430 0.7430 0.7420
1686.733778 0.7410 0.7410 0.7410 0.7410 0.7410
1689.970030 0.7420 0.7420 0.7420 0.7430 0.7430
1693.206281 0.7430 0.7430 0.7430 0.7420 0.7420
1696.442533 0.7410 0.7400 0.7390 0.7390 0.7390
1699.678784 0.7380 0.7370 0.7360 0.7340 0.7320
1702.915036 0.7310 0.7320 0.7320 0.7330 0.7340
1706.151287 0.7350 0.7360 0.7370 0.7380 0.7390
1709.387539 0.7400 0.7400 0.7420 0.7420 0.7430
1712.623790 0.7430 0.7430 0.7430 0.7430 0.7430
1715.860042 0.7430 0.7420 0.7420 0.7410 0.7400
1719.096294 0.7400 0.7400 0.7390 0.7390 0.7390
1722.332545 0.7380 0.7370 0.7370 0.7360 0.7360
1725.568797 0.7350 0.7340 0.7340 0.7330 0.7320
1728.805048 0.7320 0.7320 0.7310 0.7300 0.7290
1732.041300 0.7270 0.7260 0.7220 0.7210 0.7200
1735.277551 0.7180 0.7150 0.7130 0.7100 0.7050
1738.513803 0.7020 0.7010 0.6990 0.6940 0.6900
1741.750055 0.6820 0.6760 0.6750 0.6750 0.6750
1744.986306 0.6790 0.6830 0.6910 0.6960 0.6990
1748.222558 0.7040 0.7050 0.7070 0.7080 0.7090
1751.458809 0.7100 0.7110 0.7110 0.7110 0.7100
1754.695061 0.7090 0.7050 0.7020 0.6990 0.6970
1757.931312 0.6960 0.6960 0.6950 0.6930 0.6920
1761.167564 0.6910 0.6890 0.6880 0.6860 0.6840
1764.403816 0.6810 0.6780 0.6750 0.6730 0.6700
1767.640067 0.6670 0.6640 0.6600 0.6560 0.6520
1770.876319 0.6410 0.6340 0.6270 0.6190 0.6090
1774.112570 0.5979 0.5699 0.5402 0.2880 0.2798
1777.348822 0.1910 0.1630 0.1280 0.1170 0.1170
1780.585073 0.1160 0.1170 0.1180 0.1240 0.1300
1783.821325 0.1400 0.1500 0.1590 0.1690 0.1810
1787.057577 0.1890 0.1971 0.2161 0.2360 0.2490
1790.293828 0.2620 0.2890 0.3130 0.3360 0.3560
1793.530080 0.3851 0.3991 0.4141 0.4410 0.4540
1796.766331 0.4671 0.4910 0.5040 0.5150 0.5360
1800.002583 0.5561 0.5750 0.5830 0.5910 0.6060
1803.238834 0.6190 0.6300 0.6390 0.6430 0.6470
1806.475086 0.6521 0.6680 0.6770 0.6820 0.6840
1809.711337 0.6860 0.6880 0.6940 0.6980 0.7000
1812.947589 0.7050 0.7070 0.7090 0.7130 0.7150
1816.183841 0.7170 0.7180 0.7200 0.7210 0.7220
1819.420092 0.7230 0.7230 0.7250 0.7260 0.7270
1822.656344 0.7280 0.7290 0.7290 0.7290 0.7290
1825.892595 0.7300 0.7300 0.7300 0.7300 0.7300
1829.128847 0.7300 0.7310 0.7310 0.7310 0.7320
1832.365098 0.7320 0.7320 0.7320 0.7340 0.7340
1835.601350 0.7350 0.7360 0.7360 0.7370 0.7370
1838.837602 0.7400 0.7420 0.7430 0.7450 0.7460
1842.073853 0.7470 0.7480 0.7480 0.7500 0.7500
1845.310105 0.7510 0.7520 0.7520 0.7530 0.7530
1848.546356 0.7540 0.7540 0.7540 0.7540 0.7540
1851.782608 0.7540 0.7540 0.7540 0.7530 0.7510
1855.018859 0.7500 0.7480 0.7460 0.7450 0.7430
1858.255111 0.7430 0.7430 0.7440 0.7450 0.7460
1861.491363 0.7480 0.7480 0.7490 0.7490 0.7480
1864.727614 0.7480 0.7480 0.7460 0.7450 0.7440
1867.963866 0.7430 0.7440 0.7460 0.7470 0.7480
1871.200117 0.7500 0.7500 0.7500 0.7510 0.7510
1874.436369 0.7500 0.7500 0.7500 0.7500 0.7490
1877.672620 0.7480 0.7480 0.7480 0.7480 0.7500
1880.908872 0.7500 0.7510 0.7520 0.7530 0.7530
1884.145124 0.7540 0.7540 0.7550 0.7550 0.7550
1887.381375 0.7550 0.7560 0.7560 0.7560 0.7560
1890.617627 0.7560 0.7560 0.7560 0.7560 0.7560
1893.853878 0.7560 0.7550 0.7550 0.7550 0.7550
1897.090130 0.7550 0.7540 0.7540 0.7540 0.7520
1900.326381 0.7510 0.7500 0.7480 0.7480 0.7470
1903.562633 0.7460 0.7460 0.7460 0.7460 0.7460
1906.798884 0.7450 0.7450 0.7450 0.7430 0.7430
1910.035136 0.7410 0.7400 0.7400 0.7400 0.7410
1913.271388 0.7410 0.7410 0.7430 0.7440 0.7450
1916.507639 0.7460 0.7480 0.7490 0.7500 0.7510
1919.743891 0.7520 0.7520 0.7530 0.7540 0.7550
1922.980142 0.7550 0.7560 0.7570 0.7590 0.7600
1926.216394 0.7610 0.7610 0.7610 0.7620 0.7620
1929.452645 0.7620 0.7620 0.7630 0.7630 0.7630
1932.688897 0.7630 0.7630 0.7630 0.7630 0.7630
1935.925149 0.7620 0.7620 0.7620 0.7610 0.7610
1939.161400 0.7610 0.7600 0.7590 0.7590 0.7590
1942.397652 0.7570 0.7550 0.7530 0.7510 0.7500
1945.633903 0.7500 0.7500 0.7510 0.7520 0.7540
1948.870155 0.7540 0.7560 0.7570 0.7590 0.7600
1952.106406 0.7610 0.7610 0.7620 0.7630 0.7650
1955.342658 0.7660 0.7680 0.7680 0.7690 0.7700
1958.578910 0.7700 0.7700 0.7710 0.7710 0.7700
1961.815161 0.7700 0.7710 0.7710 0.7700 0.7700
1965.051413 0.7700 0.7700 0.7700 0.7700 0.7700
1968.287664 0.7700 0.7700 0.7700 0.7700 0.7700
1971.523916 0.7700 0.7700 0.7700 0.7700 0.7700
1974.760167 0.7700 0.7700 0.7710 0.7710 0.7710
1977.996419 0.7710 0.7710 0.7710 0.7710 0.7710
1981.232671 0.7710 0.7710 0.7720 0.7720 0.7720
1984.468922 0.7720 0.7720 0.7720 0.7720 0.7720
1987.705174 0.7720 0.7720 0.7720 0.7720 0.7720
1990.941425 0.7720 0.7710 0.7710 0.7710 0.7710
1994.177677 0.7710 0.7710 0.7710 0.7700 0.7700
1997.413928 0.7700 0.7700 0.7690 0.7690 0.7680
2000.650180 0.7680 0.7680 0.7680 0.7680 0.7677
2003.886431 0.7675 0.7672 0.7670 0.7670 0.7670
2007.122683 0.7670 0.7669 0.7666 0.7664 0.7661
2010.358935 0.7660 0.7660 0.7660 0.7660 0.7660
2013.595186 0.7660 0.7660 0.7660 0.7658 0.7656
2016.831438 0.7653 0.7650 0.7652 0.7655 0.7657
2020.067689 0.7660 0.7660 0.7660 0.7660 0.7660
2023.303941 0.7660 0.7660 0.7660 0.7659 0.7657
2026.540192 0.7654 0.7652 0.7650 0.7650 0.7650
2029.776444 0.7650 0.7650 0.7650 0.7650 0.7650
2033.012696 0.7652 0.7654 0.7657 0.7659 0.7660
2036.248947 0.7660 0.7660 0.7660 0.7660 0.7660
2039.485199 0.7660 0.7660 0.7660 0.7660 0.7660
2042.721450 0.7660 0.7660 0.7660 0.7660 0.7660
2045.957702 0.7660 0.7660 0.7660 0.7661 0.7664
2049.193953 0.7666 0.7669 0.7670 0.7670 0.7670
2052.430205 0.7670 0.7672 0.7674 0.7677 0.7679
2055.666457 0.7680 0.7680 0.7680 0.7680 0.7680
2058.902708 0.7680 0.7680 0.7680 0.7680 0.7680
2062.138960 0.7680 0.7680 0.7680 0.7680 0.7680
2065.375211 0.7680 0.7680 0.7680 0.7680 0.7680
2068.611463 0.7680 0.7680 0.7680 0.7681 0.7684
2071.847714 0.7686 0.7689 0.7690 0.7690 0.7690
2075.083966 0.7690 0.7690 0.7690 0.7690 0.7690
2078.320218 0.7692 0.7695 0.7697 0.7700 0.7700
2081.556469 0.7700 0.7700 0.7700 0.7700 0.7700
2084.792721 0.7700 0.7700 0.7700 0.7700 0.7700
2088.028972 0.7700 0.7700 0.7700 0.7700 0.7700
2091.265224 0.7700 0.7700 0.7700 0.7700 0.7700
2094.501475 0.7700 0.7700 0.7700 0.7700 0.7700
2097.737727 0.7700 0.7702 0.7705 0.7707 0.7710
2100.973978 0.7710 0.7710 0.7710 0.7710 0.7710
2104.210230 0.7710 0.7710 0.7710 0.7710 0.7710
2107.446482 0.7710 0.7710 0.7710 0.7710 0.7710
2110.682733 0.7710 0.7710 0.7710 0.7710 0.7712
2113.918985 0.7714 0.7717 0.7719 0.7722 0.7725
2117.155236 0.7727 0.7730 0.7730 0.7730 0.7730
2120.391488 0.7730 0.7730 0.7730 0.7730 0.7730
2123.627739 0.7733 0.7735 0.7738 0.7741 0.7743
2126.863991 0.7746 0.7748 0.7750 0.7750 0.7750
2130.100243 0.7750 0.7750 0.7750 0.7750 0.7750
2133.336494 0.7752 0.7754 0.7757 0.7759 0.7762
2136.572746 0.7765 0.7767 0.7770 0.7770 0.7770
2139.808997 0.7770 0.7770 0.7770 0.7770 0.7770
2143.045249 0.7770 0.7773 0.7775 0.7778 0.7780
2146.281500 0.7780 0.7780 0.7780 0.7781 0.7784
2149.517752 0.7786 0.7789 0.7790 0.7790 0.7790
2152.754004 0.7790 0.7792 0.7794 0.7797 0.7799
2155.990255 0.7800 0.7800 0.7800 0.7800 0.7802
2159.226507 0.7805 0.7807 0.7810 0.7810 0.7810
2162.462758 0.7810 0.7810 0.7813 0.7815 0.7818
2165.699010 0.7820 0.7820 0.7820 0.7820 0.7821
2168.935261 0.7824 0.7826 0.7829 0.7830 0.7830
2172.171513 0.7830 0.7830 0.7832 0.7834 0.7837
2175.407765 0.7839 0.7840 0.7840 0.7840 0.7840
2178.644016 0.7842 0.7845 0.7847 0.7850 0.7850
2181.880268 0.7850 0.7850 0.7850 0.7853 0.7856
2185.116519 0.7858 0.7860 0.7860 0.7860 0.7860
2188.352771 0.7861 0.7864 0.7866 0.7869 0.7870
2191.589022 0.7870 0.7870 0.7870 0.7870 0.7870
2194.825274 0.7870 0.7870 0.7872 0.7875 0.7877
2198.061525 0.7880 0.7882 0.7885 0.7887 0.7890
2201.297777 0.7890 0.7890 0.7890 0.7890 0.7890
2204.534029 0.7890 0.7890 0.7891 0.7893 0.7896
2207.770280 0.7898 0.7901 0.7904 0.7906 0.7909
2211.006532 0.7910 0.7910 0.7910 0.7910 0.7910
2214.242783 0.7910 0.7910 0.7910 0.7912 0.7915
2217.479035 0.7917 0.7920 0.7922 0.7925 0.7927
2220.715286 0.7930 0.7930 0.7930 0.7930 0.7930
2223.951538 0.7930 0.7930 0.7930 0.7930 0.7930
2227.187790 0.7930 0.7930 0.7930 0.7930 0.7930
2230.424041 0.7930 0.7931 0.7934 0.7937 0.7939
2233.660293 0.7940 0.7940 0.7940 0.7940 0.7942
2236.896544 0.7945 0.7947 0.7950 0.7950 0.7950
2240.132796 0.7950 0.7950 0.7950 0.7950 0.7950
2243.369047 0.7950 0.7947 0.7945 0.7942 0.7939
2246.605299 0.7937 0.7934 0.7932 0.7930 0.7930
2249.841551 0.7930 0.7930 0.7930 0.7930 0.7930
2253.077802 0.7930 0.7927 0.7921 0.7916 0.7911
2256.314054 0.7904 0.7896 0.7888 0.7881 0.7857
2259.550305 0.7831 0.7805 0.7779 0.7759 0.7738
2262.786557 0.7718 0.7700 0.7703 0.7706 0.7708
2266.022808 0.7710 0.7710 0.7710 0.7710 0.7711
2269.259060 0.7714 0.7716 0.7719 0.7730 0.7751
2272.495312 0.7772 0.7792 0.7808 0.7821 0.7834
2275.731563 0.7847 0.7858 0.7869 0.7879 0.7889
2278.967815 0.7897 0.7905 0.7913 0.7920 0.7928
2282.204066 0.7936 0.7944 0.7950 0.7953 0.7956
2285.440318 0.7958 0.7960 0.7960 0.7960 0.7960
2288.676569 0.7961 0.7964 0.7966 0.7969 0.7971
2291.912821 0.7974 0.7976 0.7979 0.7982 0.7984
2295.149072 0.7987 0.7989 0.7992 0.7995 0.7997
2298.385324 0.8000 0.8005 0.8010 0.8015 0.8020
2301.621576 0.8020 0.8020 0.8020 0.8020 0.8020
2304.857827 0.8020 0.8020 0.8020 0.8020 0.8020
2308.094079 0.8020 0.8021 0.8024 0.8026 0.8029
2311.330330 0.8030 0.8030 0.8030 0.8030 0.8032
2314.566582 0.8034 0.8037 0.8039 0.8042 0.8045
2317.802833 0.8047 0.8050 0.8050 0.8050 0.8050
2321.039085 0.8050 0.8053 0.8055 0.8058 0.8060
2324.275337 0.8060 0.8060 0.8060 0.8061 0.8063
2327.511588 0.8066 0.8069 0.8069 0.8066 0.8064
2330.747840 0.8061 0.8060 0.8060 0.8060 0.8060
2333.984091 0.8060 0.8060 0.8060 0.8060 0.8058
2337.220343 0.8055 0.8053 0.8050 0.8050 0.8050
2340.456594 0.8050 0.8050 0.8050 0.8050 0.8050
2343.692846 0.8050 0.8050 0.8050 0.8050 0.8051
2346.929098 0.8053 0.8056 0.8058 0.8060 0.8060
2350.165349 0.8060 0.8060 0.8061 0.8064 0.8067
2353.401601 0.8069 0.8070 0.8070 0.8070 0.8070
2356.637852 0.8072 0.8075 0.8077 0.8080 0.8080
2359.874104 0.8080 0.8080 0.8080 0.8083 0.8085
2363.110355 0.8088 0.8090 0.8090 0.8090 0.8090
2366.346607 0.8091 0.8093 0.8096 0.8098 0.8101
2369.582858 0.8104 0.8106 0.8109 0.8111 0.8114
2372.819110 0.8117 0.8119 0.8120 0.8120 0.8120
2376.055362 0.8120 0.8120 0.8120 0.8120 0.8120
2379.291613 0.8122 0.8125 0.8128 0.8130 0.8130
2382.527865 0.8130 0.8130 0.8130 0.8133 0.8136
2385.764116 0.8138 0.8140 0.8140 0.8140 0.8140
2389.000368 0.8140 0.8140 0.8140 0.8140 0.8140
2392.236619 0.8140 0.8140 0.8140 0.8142 0.8144
2395.472871 0.8147 0.8149 0.8150 0.8150 0.8150
2398.709123 0.8150 0.8152 0.8155 0.8158 0.8160
2401.945374 0.8160 0.8160 0.8160 0.8160 0.8160
2405.181626 0.8160 0.8160 0.8161 0.8163 0.8166
2408.417877 0.8169 0.8171 0.8174 0.8176 0.8179
2411.654129 0.8180 0.8180 0.8180 0.8180 0.8182
2414.890380 0.8184 0.8187 0.8189 0.8192 0.8195
2418.126632 0.8197 0.8200 0.8202 0.8205 0.8207
2421.362884 0.8210 0.8210 0.8210 0.8210 0.8210
2424.599135 0.8213 0.8216 0.8218 0.8220 0.8220
2427.835387 0.8220 0.8220 0.8220 0.8220 0.8220
2431.071638 0.8220 0.8220 0.8220 0.8220 0.8220
2434.307890 0.8218 0.8216 0.8213 0.8210 0.8210
2437.544141 0.8210 0.8210 0.8210 0.8210 0.8210
2440.780393 0.8210 0.8210 0.8210 0.8210 0.8210
2444.016645 0.8210 0.8210 0.8210 0.8210 0.8210
2447.252896 0.8210 0.8210 0.8210 0.8210 0.8210
2450.489148 0.8210 0.8210 0.8213 0.8218 0.8223
2453.725399 0.8228 0.8230 0.8230 0.8230 0.8230
2456.961651 0.8232 0.8235 0.8237 0.8240 0.8242
2460.197902 0.8245 0.8248 0.8250 0.8250 0.8250
2463.434154 0.8250 0.8250 0.8250 0.8250 0.8250
2466.670405 0.8251 0.8253 0.8256 0.8259 0.8261
2469.906657 0.8264 0.8266 0.8269 0.8270 0.8270
2473.142909 0.8270 0.8270 0.8270 0.8270 0.8270
2476.379160 0.8270 0.8268 0.8265 0.8263 0.8260
2479.615412 0.8260 0.8260 0.8260 0.8260 0.8257
2482.851663 0.8255 0.8252 0.8250 0.8250 0.8250
2486.087915 0.8250 0.8250 0.8250 0.8250 0.8250
2489.324166 0.8250 0.8250 0.8250 0.8250 0.8249
2492.560418 0.8246 0.8243 0.8241 0.8242 0.8244
2495.796670 0.8247 0.8249 0.8250 0.8250 0.8250
2499.032921 0.8250 0.8250 0.8250 0.8250 0.8250
2502.269173 0.8250 0.8250 0.8250 0.8251 0.8256
2505.505424 0.8261 0.8267 0.8270 0.8270 0.8270
2508.741676 0.8270 0.8271 0.8274 0.8276 0.8279
2511.977927 0.8280 0.8280 0.8280 0.8280 0.8282
2515.214179 0.8284 0.8287 0.8290 0.8292 0.8295
2518.450431 0.8297 0.8300 0.8300 0.8300 0.8300
2521.686682 0.8300 0.8300 0.8300 0.8300 0.8300
2524.922934 0.8300 0.8300 0.8300 0.8300 0.8300
2528.159185 0.8300 0.8300 0.8300 0.8300 0.8300
2531.395437 0.8300 0.8301 0.8304 0.8307 0.8309
2534.631688 0.8312 0.8314 0.8317 0.8320 0.8320
2537.867940 0.8320 0.8320 0.8320 0.8318 0.8315
2541.104192 0.8312 0.8310 0.8310 0.8310 0.8310
2544.340443 0.8310 0.8307 0.8304 0.8302 0.8300
2547.576695 0.8300 0.8300 0.8300 0.8300 0.8300
2550.812946 0.8300 0.8300 0.8300 0.8300 0.8300
2554.049198 0.8300 0.8298 0.8296 0.8293 0.8290
2557.285449 0.8290 0.8290 0.8290 0.8290 0.8290
2560.521701 0.8290 0.8290 0.8290 0.8287 0.8285
2563.757952 0.8282 0.8280 0.8280 0.8280 0.8280
2566.994204 0.8279 0.8277 0.8274 0.8271 0.8270
2570.230456 0.8270 0.8270 0.8270 0.8269 0.8266
2573.466707 0.8263 0.8261 0.8258 0.8256 0.8253
2576.702959 0.8250 0.8250 0.8250 0.8250 0.8250
2579.939210 0.8243 0.8235 0.8227 0.8220 0.8217
2583.175462 0.8215 0.8212 0.8211 0.8213 0.8216
2586.411713 0.8218 0.8222 0.8227 0.8232 0.8237
2589.647965 0.8241 0.8244 0.8246 0.8249 0.8253
2592.884217 0.8258 0.8263 0.8268 0.8272 0.8274
2596.120468 0.8277 0.8280 0.8284 0.8289 0.8294
2599.356720 0.8300 0.8305 0.8310 0.8315 0.8320
2602.592971 0.8320 0.8320 0.8320 0.8319 0.8317
2605.829223 0.8314 0.8312 0.8309 0.8307 0.8304
2609.065474 0.8301 0.8298 0.8292 0.8287 0.8282
2612.301726 0.8280 0.8280 0.8280 0.8280 0.8280
2615.537978 0.8280 0.8280 0.8280 0.8278 0.8275
2618.774229 0.8273 0.8270 0.8270 0.8270 0.8270
2622.010481 0.8270 0.8270 0.8270 0.8270 0.8270
2625.246732 0.8270 0.8270 0.8270 0.8271 0.8273
2628.482984 0.8276 0.8279 0.8280 0.8280 0.8280
2631.719235 0.8280 0.8280 0.8280 0.8280 0.8280
2634.955487 0.8284 0.8289 0.8294 0.8299 0.8302
2638.191739 0.8305 0.8307 0.8310 0.8312 0.8315
2641.427990 0.8318 0.8320 0.8326 0.8331 0.8336
2644.664242 0.8341 0.8343 0.8346 0.8348 0.8351
2647.900493 0.8353 0.8356 0.8359 0.8360 0.8360
2651.136745 0.8360 0.8360 0.8362 0.8364 0.8367
2654.372996 0.8369 0.8374 0.8379 0.8384 0.8389
2657.609248 0.8390 0.8390 0.8390 0.8390 0.8393
2660.845499 0.8395 0.8398 0.8400 0.8400 0.8400
2664.081751 0.8400 0.8400 0.8400 0.8400 0.8400
2667.318003 0.8400 0.8400 0.8400 0.8400 0.8400
2670.554254 0.8400 0.8400 0.8400 0.8400 0.8400
2673.790506 0.8400 0.8400 0.8400 0.8400 0.8400
2677.026757 0.8400 0.8400 0.8400 0.8400 0.8400
2680.263009 0.8400 0.8400 0.8400 0.8400 0.8400
2683.499260 0.8400 0.8400 0.8401 0.8403 0.8406
2686.735512 0.8408 0.8410 0.8410 0.8410 0.8410
2689.971764 0.8410 0.8410 0.8410 0.8410 0.8415
2693.208015 0.8422 0.8430 0.8438 0.8442 0.8444
2696.444267 0.8447 0.8450 0.8452 0.8455 0.8457
2699.680518 0.8460 0.8462 0.8465 0.8468 0.8470
2702.916770 0.8473 0.8475 0.8478 0.8480 0.8480
2706.153021 0.8480 0.8480 0.8480 0.8480 0.8480
2709.389273 0.8480 0.8480 0.8480 0.8480 0.8480
2712.625525 0.8480 0.8480 0.8480 0.8480 0.8480
2715.861776 0.8480 0.8480 0.8480 0.8480 0.8480
2719.098028 0.8480 0.8480 0.8480 0.8480 0.8480
2722.334279 0.8480 0.8480 0.8480 0.8480 0.8480
2725.570531 0.8480 0.8480 0.8480 0.8480 0.8480
2728.806782 0.8480 0.8480 0.8480 0.8480 0.8480
2732.043034 0.8480 0.8478 0.8476 0.8473 0.8471
2735.279286 0.8468 0.8466 0.8463 0.8460 0.8460
2738.515537 0.8460 0.8460 0.8460 0.8460 0.8460
2741.751789 0.8460 0.8460 0.8460 0.8460 0.8460
2744.988040 0.8460 0.8460 0.8460 0.8460 0.8459
2748.224292 0.8457 0.8454 0.8451 0.8451 0.8454
2751.460543 0.8456 0.8459 0.8460 0.8460 0.8460
2754.696795 0.8460 0.8460 0.8460 0.8460 0.8460
2757.933046 0.8460 0.8460 0.8460 0.8460 0.8463
2761.169298 0.8465 0.8468 0.8470 0.8470 0.8470
2764.405550 0.8470 0.8471 0.8473 0.8476 0.8478
2767.641801 0.8480 0.8480 0.8480 0.8480 0.8480
2770.878053 0.8480 0.8480 0.8480 0.8480 0.8480
2774.114304 0.8480 0.8480 0.8480 0.8480 0.8480
2777.350556 0.8480 0.8478 0.8475 0.8473 0.8470
2780.586807 0.8467 0.8465 0.8462 0.8460 0.8457
2783.823059 0.8455 0.8452 0.8449 0.8447 0.8444
2787.059311 0.8442 0.8439 0.8436 0.8434 0.8431
2790.295562 0.8430 0.8430 0.8430 0.8430 0.8428
2793.531814 0.8426 0.8423 0.8421 0.8418 0.8416
2796.768065 0.8413 0.8410 0.8408 0.8405 0.8403
2800.004317 0.8400 0.8397 0.8395 0.8392 0.8390
2803.240568 0.8390 0.8390 0.8390 0.8389 0.8384
2806.476820 0.8378 0.8373 0.8370 0.8370 0.8370
2809.713072 0.8370 0.8366 0.8358 0.8351 0.8343
2812.949323 0.8338 0.8336 0.8333 0.8331 0.8326
2816.185575 0.8321 0.8316 0.8311 0.8306 0.8300
2819.421826 0.8295 0.8290 0.8285 0.8280 0.8275
2822.658078 0.8270 0.8264 0.8259 0.8254 0.8247
2825.894329 0.8234 0.8221 0.8208 0.8196 0.8186
2829.130581 0.8175 0.8165 0.8153 0.8141 0.8128
2832.366833 0.8115 0.8100 0.8085 0.8069 0.8054
2835.603084 0.8033 0.8009 0.7986 0.7963 0.7897
2838.839336 0.7825 0.7753 0.7681 0.7624 0.7567
2842.075587 0.7511 0.7430 0.7160 0.6889 0.6619
2845.311839 0.6333 0.5995 0.5657 0.5320 0.5074
2848.548090 0.4999 0.4924 0.4850 0.4749 0.4618
2851.784342 0.4488 0.4357 0.4269 0.4204 0.4140
2855.020593 0.4075 0.4056 0.4051 0.4046 0.4041
2858.256845 0.4038 0.4035 0.4033 0.4030 0.4033
2861.493097 0.4035 0.4038 0.4043 0.4066 0.4089
2864.729348 0.4112 0.4136 0.4159 0.4182 0.4205
2867.965600 0.4229 0.4255 0.4281 0.4307 0.4332
2871.201851 0.4358 0.4384 0.4410 0.4428 0.4441
2874.438103 0.4454 0.4466 0.4478 0.4488 0.4498
2877.674354 0.4509 0.4538 0.4569 0.4600 0.4630
2880.910606 0.4661 0.4692 0.4723 0.4754 0.4785
2884.146858 0.4816 0.4847 0.4877 0.4906 0.4934
2887.383109 0.4962 0.4981 0.4984 0.4986 0.4989
2890.619361 0.4989 0.4986 0.4984 0.4981 0.4980
2893.855612 0.4980 0.4980 0.4980 0.4944 0.4895
2897.091864 0.4846 0.4797 0.4655 0.4498 0.4341
2900.328115 0.4183 0.4073 0.3963 0.3853 0.3755
2903.564367 0.3724 0.3694 0.3663 0.3631 0.3597
2906.800619 0.3564 0.3530 0.3479 0.3399 0.3319
2910.036870 0.3239 0.3172 0.3118 0.3064 0.3010
2913.273122 0.2886 0.2721 0.2556 0.2391 0.2296
2916.509373 0.2224 0.2151 0.2079 0.2036 0.1998
2919.745625 0.1959 0.1920 0.1923 0.1925 0.1928
2922.981876 0.1930 0.1933 0.1935 0.1938 0.1950
2926.218128 0.1995 0.2039 0.2083 0.2128 0.2171
2929.454380 0.2215 0.2259 0.2287 0.2300 0.2313
2932.690631 0.2325 0.2352 0.2385 0.2419 0.2452
2935.926883 0.2476 0.2496 0.2517 0.2538 0.2558
2939.163134 0.2579 0.2599 0.2620 0.2646 0.2672
2942.399386 0.2697 0.2720 0.2720 0.2720 0.2720
2945.635637 0.2719 0.2717 0.2714 0.2712 0.2695
2948.871889 0.2654 0.2612 0.2571 0.2550 0.2550
2952.108140 0.2550 0.2550 0.2558 0.2571 0.2584
2955.344392 0.2597 0.2610 0.2623 0.2636 0.2649
2958.580644 0.2671 0.2694 0.2717 0.2740 0.2766
2961.816895 0.2792 0.2818 0.2844 0.2869 0.2895
2965.053147 0.2921 0.2950 0.2989 0.3027 0.3066
2968.289398 0.3105 0.3143 0.3182 0.3221 0.3275
2971.525650 0.3344 0.3414 0.3484 0.3564 0.3652
2974.761901 0.3740 0.3827 0.3916 0.4004 0.4093
2977.998153 0.4182 0.4279 0.4377 0.4475 0.4573
2981.234405 0.4671 0.4769 0.4867 0.4961 0.5036
2984.470656 0.5111 0.5186 0.5261 0.5338 0.5416
2987.706908 0.5493 0.5563 0.5623 0.5682 0.5741
2990.943159 0.5800 0.5860 0.5919 0.5978 0.6055
2994.179411 0.6143 0.6231 0.6318 0.6367 0.6403
2997.415662 0.6439 0.6475 0.6509 0.6543 0.6576
3000.651914 0.6610 0.6662 0.6714 0.6766 0.6818
3003.888166 0.6864 0.6910 0.6957 0.6997 0.7020
3007.124417 0.7043 0.7066 0.7088 0.7109 0.7130
3010.360669 0.7150 0.7187 0.7239 0.7290 0.7342
3013.596920 0.7370 0.7385 0.7401 0.7416 0.7422
3016.833172 0.7425 0.7427 0.7430 0.7423 0.7415
3020.069423 0.7408 0.7400 0.7387 0.7374 0.7361
3023.305675 0.7348 0.7330 0.7312 0.7294 0.7280
3026.541927 0.7280 0.7280 0.7280 0.7290 0.7313
3029.778178 0.7336 0.7359 0.7384 0.7410 0.7435
3033.014430 0.7461 0.7484 0.7504 0.7525 0.7545
3036.250681 0.7570 0.7596 0.7622 0.7647 0.7657
3039.486933 0.7665 0.7672 0.7680 0.7688 0.7696
3042.723184 0.7703 0.7714 0.7742 0.7771 0.7799
3045.959436 0.7823 0.7836 0.7849 0.7862 0.7870
3049.195687 0.7870 0.7870 0.7870 0.7867 0.7862
3052.431939 0.7857 0.7852 0.7848 0.7846 0.7843
3055.668191 0.7841 0.7836 0.7831 0.7826 0.7820
3058.904442 0.7813 0.7805 0.7797 0.7789 0.7769
3062.140694 0.7748 0.7727 0.7709 0.7701 0.7693
3065.376945 0.7686 0.7680 0.7680 0.7680 0.7680
3068.613197 0.7676 0.7666 0.7655 0.7645 0.7639
3071.849448 0.7636 0.7634 0.7631 0.7628 0.7626
3075.085700 0.7623 0.7621 0.7620 0.7620 0.7620
3078.321952 0.7620 0.7620 0.7620 0.7620 0.7620
3081.558203 0.7620 0.7620 0.7620 0.7621 0.7626
3084.794455 0.7631 0.7636 0.7644 0.7660 0.7675
3088.030706 0.7691 0.7703 0.7711 0.7719 0.7726
3091.266958 0.7735 0.7746 0.7756 0.7766 0.7782
3094.503209 0.7800 0.7818 0.7836 0.7874 0.7918
3097.739461 0.7961 0.8005 0.8024 0.8039 0.8055
3100.975713 0.8070 0.8075 0.8080 0.8086 0.8091
3104.211964 0.8099 0.8107 0.8115 0.8123 0.8133
3107.448216 0.8144 0.8154 0.8162 0.8167 0.8172
3110.684467 0.8178 0.8180 0.8180 0.8180 0.8180
3113.920719 0.8182 0.8184 0.8187 0.8189 0.8190
3117.156970 0.8190 0.8190 0.8190 0.8188 0.8185
3120.393222 0.8183 0.8180 0.8180 0.8180 0.8180
3123.629474 0.8180 0.8177 0.8174 0.8172 0.8169
3126.865725 0.8167 0.8164 0.8161 0.8160 0.8160
3130.101977 0.8160 0.8160 0.8160 0.8160 0.8160
3133.338228 0.8160 0.8160 0.8160 0.8160 0.8160
3136.574480 0.8164 0.8169 0.8174 0.8180 0.8182
3139.810731 0.8185 0.8188 0.8190 0.8195 0.8200
3143.046983 0.8206 0.8211 0.8216 0.8221 0.8226
3146.283234 0.8233 0.8243 0.8253 0.8264 0.8271
3149.519486 0.8274 0.8276 0.8279 0.8283 0.8288
3152.755738 0.8293 0.8298 0.8302 0.8304 0.8307
3155.991989 0.8310 0.8310 0.8310 0.8310 0.8310
3159.228241 0.8312 0.8315 0.8318 0.8320 0.8320
3162.464492 0.8320 0.8320 0.8320 0.8320 0.8320
3165.700744 0.8320 0.8320 0.8320 0.8320 0.8320
3168.936995 0.8320 0.8320 0.8320 0.8320 0.8321
3172.173247 0.8324 0.8327 0.8329 0.8330 0.8330
3175.409499 0.8330 0.8330 0.8330 0.8330 0.8330
3178.645750 0.8330 0.8330 0.8330 0.8330 0.8330
3181.882002 0.8333 0.8335 0.8338 0.8340 0.8340
3185.118253 0.8340 0.8340 0.8340 0.8340 0.8340
3188.354505 0.8340 0.8340 0.8340 0.8340 0.8340
3191.590756 0.8341 0.8344 0.8347 0.8349 0.8350
3194.827008 0.8350 0.8350 0.8350 0.8352 0.8355
3198.063260 0.8357 0.8360 0.8360 0.8360 0.8360
3201.299511 0.8360 0.8360 0.8360 0.8360 0.8360
3204.535763 0.8360 0.8360 0.8360 0.8361 0.8363
3207.772014 0.8366 0.8369 0.8370 0.8370 0.8370
3211.008266 0.8370 0.8370 0.8370 0.8370 0.8370
3214.244517 0.8370 0.8370 0.8370 0.8370 0.8372
3217.480769 0.8375 0.8377 0.8380 0.8380 0.8380
3220.717021 0.8380 0.8380 0.8383 0.8385 0.8388
3223.953272 0.8390 0.8390 0.8390 0.8390 0.8390
3227.189524 0.8390 0.8390 0.8390 0.8391 0.8394
3230.425775 0.8396 0.8399 0.8401 0.8404 0.8407
3233.662027 0.8409 0.8412 0.8414 0.8417 0.8420
3236.898278 0.8420 0.8420 0.8420 0.8420 0.8420
3240.134530 0.8420 0.8420 0.8420 0.8420 0.8420
3243.370781 0.8420 0.8420 0.8420 0.8420 0.8420
3246.607033 0.8420 0.8420 0.8420 0.8420 0.8421
3249.843285 0.8424 0.8426 0.8429 0.8430 0.8430
3253.079536 0.8430 0.8430 0.8430 0.8430 0.8430
3256.315788 0.8430 0.8430 0.8430 0.8430 0.8430
3259.552039 0.8432 0.8435 0.8438 0.8440 0.8440
3262.788291 0.8440 0.8440 0.8440 0.8440 0.8440
3266.024542 0.8440 0.8441 0.8443 0.8446 0.8449
3269.260794 0.8450 0.8450 0.8450 0.8450 0.8450
3272.497046 0.8450 0.8450 0.8450 0.8448 0.8446
3275.733297 0.8443 0.8441 0.8440 0.8440 0.8440
3278.969549 0.8440 0.8440 0.8440 0.8440 0.8440
3282.205800 0.8440 0.8440 0.8440 0.8439 0.8437
3285.442052 0.8434 0.8432 0.8429 0.8427 0.8424
3288.678303 0.8421 0.8419 0.8416 0.8414 0.8411
3291.914555 0.8410 0.8410 0.8410 0.8410 0.8410
3295.150807 0.8410 0.8410 0.8410 0.8408 0.8405
3298.387058 0.8403 0.8400 0.8400 0.8400 0.8400
3301.623310 0.8400 0.8397 0.8395 0.8392 0.8391
3304.859561 0.8393 0.8396 0.8398 0.8401 0.8403
3308.095813 0.8406 0.8409 0.8410 0.8410 0.8410
3311.332064 0.8410 0.8410 0.8410 0.8410 0.8410
3314.568316 0.8412 0.8414 0.8417 0.8420 0.8422
3317.804568 0.8425 0.8427 0.8430 0.8430 0.8430
3321.040819 0.8430 0.8430 0.8430 0.8430 0.8430
3324.277071 0.8430 0.8430 0.8430 0.8430 0.8430
3327.513322 0.8430 0.8430 0.8430 0.8431 0.8434
3330.749574 0.8436 0.8439 0.8440 0.8440 0.8440
3333.985825 0.8440 0.8440 0.8440 0.8440 0.8440
3337.222077 0.8438 0.8435 0.8433 0.8430 0.8430
3340.458328 0.8430 0.8430 0.8430 0.8430 0.8430
3343.694580 0.8430 0.8430 0.8430 0.8430 0.8430
3346.930832 0.8430 0.8430 0.8430 0.8430 0.8430
3350.167083 0.8430 0.8430 0.8430 0.8429 0.8426
3353.403335 0.8423 0.8421 0.8420 0.8420 0.8420
3356.639586 0.8420 0.8418 0.8415 0.8413 0.8410
3359.875838 0.8410 0.8410 0.8410 0.8410 0.8410
3363.112089 0.8410 0.8410 0.8409 0.8407 0.8404
3366.348341 0.8402 0.8399 0.8397 0.8394 0.8391
3369.584593 0.8390 0.8390 0.8390 0.8390 0.8390
3372.820844 0.8390 0.8390 0.8390 0.8390 0.8390
3376.057096 0.8390 0.8390 0.8390 0.8390 0.8390
3379.293347 0.8390 0.8393 0.8395 0.8398 0.8400
3382.529599 0.8403 0.8405 0.8408 0.8410 0.8410
3385.765850 0.8410 0.8410 0.8410 0.8410 0.8410
3389.002102 0.8410 0.8410 0.8410 0.8410 0.8410
3392.238354 0.8410 0.8410 0.8410 0.8410 0.8410
3395.474605 0.8410 0.8410 0.8410 0.8410 0.8410
3398.710857 0.8410 0.8410 0.8410 0.8410 0.8410
3401.947108 0.8410 0.8410 0.8410 0.8410 0.8410
3405.183360 0.8410 0.8410 0.8410 0.8410 0.8410
3408.419611 0.8410 0.8410 0.8410 0.8410 0.8410
3411.655863 0.8410 0.8410 0.8410 0.8410 0.8410
3414.892115 0.8408 0.8406 0.8403 0.8400 0.8400
3418.128366 0.8400 0.8400 0.8400 0.8400 0.8400
3421.364618 0.8400 0.8400 0.8397 0.8395 0.8392
3424.600869 0.8390 0.8390 0.8390 0.8390 0.8390
3427.837121 0.8390 0.8390 0.8390 0.8390 0.8390
3431.073372 0.8390 0.8390 0.8390 0.8390 0.8390
3434.309624 0.8390 0.8390 0.8390 0.8390 0.8390
3437.545875 0.8390 0.8390 0.8390 0.8390 0.8390
3440.782127 0.8390 0.8390 0.8390 0.8390 0.8390
3444.018379 0.8390 0.8390 0.8390 0.8390 0.8390
3447.254630 0.8390 0.8390 0.8390 0.8390 0.8390
3450.490882 0.8390 0.8390 0.8390 0.8390 0.8390
3453.727133 0.8390 0.8390 0.8390 0.8390 0.8390
3456.963385 0.8390 0.8390 0.8390 0.8390 0.8390
3460.199636 0.8390 0.8390 0.8390 0.8390 0.8390
3463.435888 0.8390 0.8390 0.8391 0.8393 0.8396
3466.672140 0.8398 0.8400 0.8400 0.8400 0.8400
3469.908391 0.8400 0.8400 0.8400 0.8400 0.8400
3473.144643 0.8400 0.8400 0.8400 0.8402 0.8404
3476.380894 0.8407 0.8410 0.8410 0.8410 0.8410
3479.617146 0.8410 0.8410 0.8410 0.8410 0.8410
3482.853397 0.8410 0.8410 0.8410 0.8410 0.8410
3486.089649 0.8410 0.8410 0.8410 0.8410 0.8410
3489.325901 0.8410 0.8410 0.8410 0.8410 0.8410
3492.562152 0.8408 0.8406 0.8403 0.8401 0.8400
3495.798404 0.8400 0.8400 0.8400 0.8400 0.8400
3499.034655 0.8400 0.8400 0.8398 0.8395 0.8392
3502.270907 0.8390 0.8390 0.8390 0.8390 0.8390
3505.507158 0.8390 0.8390 0.8390 0.8390 0.8390
3508.743410 0.8390 0.8390 0.8390 0.8390 0.8390
3511.979662 0.8390 0.8388 0.8386 0.8383 0.8381
3515.215913 0.8378 0.8376 0.8373 0.8370 0.8370
3518.452165 0.8370 0.8370 0.8370 0.8370 0.8370
3521.688416 0.8370 0.8370 0.8370 0.8370 0.8370
3524.924668 0.8369 0.8367 0.8364 0.8362 0.8360
3528.160919 0.8360 0.8360 0.8360 0.8359 0.8356
3531.397171 0.8354 0.8351 0.8348 0.8346 0.8343
3534.633422 0.8341 0.8336 0.8331 0.8326 0.8321
3537.869674 0.8316 0.8310 0.8305 0.8300 0.8300
3541.105926 0.8300 0.8300 0.8300 0.8300 0.8300
3544.342177 0.8300 0.8300 0.8300 0.8300 0.8300
3547.578429 0.8300 0.8300 0.8300 0.8300 0.8301
3550.814680 0.8304 0.8306 0.8309 0.8310 0.8310
3554.050932 0.8310 0.8310 0.8312 0.8315 0.8317
3557.287183 0.8320 0.8320 0.8320 0.8320 0.8320
3560.523435 0.8323 0.8325 0.8328 0.8330 0.8333
3563.759687 0.8335 0.8338 0.8341 0.8343 0.8346
3566.995938 0.8348 0.8351 0.8353 0.8356 0.8359
3570.232190 0.8360 0.8360 0.8360 0.8360 0.8362
3573.468441 0.8364 0.8367 0.8369 0.8370 0.8370
3576.704693 0.8370 0.8370 0.8370 0.8370 0.8370
3579.940944 0.8370 0.8370 0.8370 0.8370 0.8370
3583.177196 0.8373 0.8375 0.8378 0.8381 0.8383
3586.413448 0.8386 0.8388 0.8390 0.8390 0.8390
3589.649699 0.8390 0.8390 0.8390 0.8390 0.8390
3592.885951 0.8390 0.8390 0.8390 0.8390 0.8390
3596.122202 0.8390 0.8390 0.8390 0.8390 0.8390
3599.358454 0.8390 0.8390 0.8390 0.8390 0.8390
3602.594705 0.8390 0.8390 0.8390 0.8390 0.8390
3605.830957 0.8390 0.8390 0.8390 0.8388 0.8383
3609.067209 0.8378 0.8373 0.8367 0.8362 0.8357
3612.303460 0.8352 0.8350 0.8350 0.8350 0.8350
3615.539712 0.8352 0.8354 0.8357 0.8360 0.8360
3618.775963 0.8360 0.8360 0.8360 0.8360 0.8360
3622.012215 0.8360 0.8360 0.8360 0.8360 0.8360
3625.248466 0.8361 0.8363 0.8366 0.8368 0.8370
3628.484718 0.8370 0.8370 0.8370 0.8373 0.8378
3631.720969 0.8383 0.8388 0.8390 0.8390 0.8390
3634.957221 0.8390 0.8392 0.8395 0.8397 0.8400
3638.193473 0.8400 0.8400 0.8400 0.8400 0.8395
3641.429724 0.8390 0.8385 0.8379 0.8371 0.8364
3644.665976 0.8356 0.8349 0.8347 0.8344 0.8342
3647.902227 0.8339 0.8337 0.8334 0.8331 0.8329
3651.138479 0.8326 0.8324 0.8321 0.8320 0.8320
3654.374730 0.8320 0.8320 0.8318 0.8315 0.8313
3657.610982 0.8310 0.8310 0.8310 0.8310 0.8310
3660.847234 0.8307 0.8305 0.8302 0.8300 0.8300
3664.083485 0.8300 0.8300 0.8300 0.8300 0.8300
3667.319737 0.8300 0.8299 0.8296 0.8294 0.8291
3670.555988 0.8289 0.8286 0.8284 0.8281 0.8280
3673.792240 0.8280 0.8280 0.8280 0.8278 0.8276
3677.028491 0.8273 0.8270 0.8270 0.8270 0.8270
3680.264743 0.8270 0.8267 0.8265 0.8262 0.8260
3683.500995 0.8260 0.8260 0.8260 0.8259 0.8257
3686.737246 0.8254 0.8252 0.8250 0.8250 0.8250
3689.973498 0.8250 0.8250 0.8250 0.8250 0.8250
3693.209749 0.8250 0.8250 0.8250 0.8250 0.8250
3696.446001 0.8250 0.8250 0.8250 0.8250 0.8250
3699.682252 0.8250 0.8250 0.8253 0.8255 0.8258
3702.918504 0.8260 0.8260 0.8260 0.8260 0.8261
3706.154756 0.8263 0.8266 0.8268 0.8270 0.8270
3709.391007 0.8270 0.8270 0.8269 0.8266 0.8264
3712.627259 0.8261 0.8258 0.8256 0.8253 0.8251
3715.863510 0.8250 0.8250 0.8250 0.8250 0.8250
3719.099762 0.8250 0.8250 0.8250 0.8247 0.8245
3722.336013 0.8242 0.8240 0.8237 0.8235 0.8232
3725.572265 0.8229 0.8224 0.8218 0.8213 0.8209
3728.808516 0.8206 0.8204 0.8201 0.8199 0.8196
3732.044768 0.8193 0.8191 0.8190 0.8190 0.8190
3735.281020 0.8190 0.8190 0.8190 0.8190 0.8190
3738.517271 0.8190 0.8190 0.8190 0.8190 0.8190
3741.753523 0.8190 0.8190 0.8190 0.8190 0.8190
3744.989774 0.8190 0.8191 0.8193 0.8196 0.8198
3748.226026 0.8201 0.8204 0.8206 0.8209 0.8210
3751.462277 0.8210 0.8210 0.8210 0.8212 0.8214
3754.698529 0.8217 0.8219 0.8222 0.8225 0.8227
3757.934781 0.8230 0.8235 0.8240 0.8245 0.8250
3761.171032 0.8250 0.8250 0.8250 0.8250 0.8250
3764.407284 0.8250 0.8250 0.8250 0.8250 0.8250
3767.643535 0.8250 0.8250 0.8250 0.8250 0.8250
3770.879787 0.8247 0.8242 0.8237 0.8232 0.8230
3774.116038 0.8230 0.8230 0.8230 0.8230 0.8230
3777.352290 0.8230 0.8230 0.8230 0.8230 0.8230
3780.588542 0.8230 0.8230 0.8230 0.8230 0.8230
3783.824793 0.8230 0.8230 0.8230 0.8230 0.8230
3787.061045 0.8230 0.8230 0.8230 0.8230 0.8230
3790.297296 0.8230 0.8227 0.8222 0.8217 0.8212
3793.533548 0.8207 0.8202 0.8196 0.8191 0.8186
3796.769799 0.8181 0.8176 0.8171 0.8165 0.8160
3800.006051 0.8155 0.8150 0.8147 0.8145 0.8142
3803.242303 0.8140 0.8140 0.8140 0.8140 0.8141
3806.478554 0.8143 0.8146 0.8148 0.8151 0.8154
3809.714806 0.8156 0.8159 0.8160 0.8160 0.8160
3812.951057 0.8160 0.8162 0.8164 0.8167 0.8169
3816.187309 0.8172 0.8175 0.8177 0.8180 0.8180
3819.423560 0.8180 0.8180 0.8180 0.8180 0.8180
3822.659812 0.8180 0.8180 0.8180 0.8180 0.8180
3825.896063 0.8179 0.8177 0.8174 0.8172 0.8170
3829.132315 0.8170 0.8170 0.8170 0.8170 0.8170
3832.368567 0.8170 0.8170 0.8168 0.8166 0.8163
3835.604818 0.8161 0.8158 0.8155 0.8153 0.8150
3838.841070 0.8148 0.8145 0.8143 0.8140 0.8140
3842.077321 0.8140 0.8140 0.8140 0.8137 0.8134
3845.313573 0.8132 0.8129 0.8127 0.8124 0.8122
3848.549824 0.8120 0.8120 0.8120 0.8120 0.8119
3851.786076 0.8116 0.8114 0.8111 0.8110 0.8110
3855.022328 0.8110 0.8110 0.8112 0.8115 0.8117
3858.258579 0.8120 0.8120 0.8120 0.8120 0.8120
3861.494831 0.8123 0.8125 0.8128 0.8130 0.8133
3864.731082 0.8136 0.8138 0.8140 0.8140 0.8140
3867.967334 0.8140 0.8141 0.8144 0.8146 0.8149
3871.203585 0.8151 0.8154 0.8156 0.8159 0.8162
3874.439837 0.8164 0.8167 0.8169 0.8170 0.8170
3877.676089 0.8170 0.8170 0.8170 0.8170 0.8170
3880.912340 0.8170 0.8167 0.8165 0.8162 0.8160
3884.148592 0.8160 0.8160 0.8160 0.8160 0.8160
3887.384843 0.8160 0.8160 0.8159 0.8156 0.8154
3890.621095 0.8151 0.8149 0.8146 0.8143 0.8141
3893.857346 0.8140 0.8140 0.8140 0.8140 0.8138
3897.093598 0.8135 0.8133 0.8130 0.8130 0.8130
3900.329850 0.8130 0.8130 0.8130 0.8130 0.8130
3903.566101 0.8130 0.8127 0.8124 0.8122 0.8120
3906.802353 0.8120 0.8120 0.8120 0.8120 0.8120
3910.038604 0.8120 0.8120 0.8119 0.8116 0.8113
3913.274856 0.8111 0.8110 0.8110 0.8110 0.8110
3916.511107 0.8110 0.8110 0.8110 0.8110 0.8110
3919.747359 0.8110 0.8110 0.8110 0.8110 0.8110
3922.983610 0.8110 0.8110 0.8110 0.8110 0.8110
3926.219862 0.8110 0.8110 0.8110 0.8110 0.8110
3929.456114 0.8110 0.8110 0.8110 0.8111 0.8114
3932.692365 0.8117 0.8119 0.8120 0.8120 0.8120
3935.928617 0.8120 0.8122 0.8125 0.8127 0.8130
3939.164868 0.8130 0.8130 0.8130 0.8130 0.8127
3942.401120 0.8125 0.8122 0.8120 0.8120 0.8120
3945.637371 0.8120 0.8120 0.8120 0.8120 0.8120
3948.873623 0.8119 0.8116 0.8114 0.8111 0.8110
3952.109875 0.8110 0.8110 0.8110 0.8110 0.8110
3955.346126 0.8110 0.8110 0.8110 0.8110 0.8110
3958.582378 0.8110 0.8110 0.8110 0.8110 0.8110
3961.818629 0.8110 0.8110 0.8110
##END=
