##TITLE=OCTAMETHYLCYCLOTETRASILOXANE
##JCAMP-DX=4.24
##DATA TYPE=INFRARED SPECTRUM
##CLASS=COBLENTZ III
##ORIGIN=DOW CORNING CORP.
##OWNER=COBLENTZ SOCIETY
Collection (C) 2018 copyright by the U.S. Secretary of Commerce
on behalf of the United States of America. All rights reserved.
##DATE=1965/02/01
##NAMES=2,2,4,4,6,6,8,8-octamethyl-1,3,5,7,2,4,6,8-tetraoxatetrasilocane
##CAS REGISTRY NO=556-67-2
##MOLFORM=C8 H24 O4 Si4
##BP=175 C
##SOURCE REFERENCE=COBLENTZ NO. 5539
##$NIST SOURCE=COBLENTZ
##$NIST IMAGE=cob5539
##SPECTROMETER/DATA SYSTEM=PERKIN-ELMER 521 (GRATING)
##INSTRUMENT PARAMETERS=FILTERS AT 3150, 2500, 2000, 1150, 700, 410. GRATING CHANGES: 2000, 630 CM^-^1
##STATE=SOLUTION (6% IN CCl4 FOR 3800-1300, 2% IN CS2 FOR 1300-640, AND 6% IN CCl4 FOR 640-250 CM^-^1)
##PATH LENGTH=0.011 CM, 0.020 CM, AND 0.011 CM
##SAMPLING PROCEDURE=TRANSMISSION
##RESOLUTION=2
##DATA PROCESSING=DIGITIZED BY NIST FROM HARD COPY (FROM TWO SEGMENTS)
##XUNITS=1/CM
##YUNITS=TRANSMITTANCE
##XFACTOR=1.000000
##YFACTOR=1
##DELTAX=0.947605
##FIRSTX=242.196
##LASTX=3792.87
##FIRSTY=0.973
##MAXX=3792.87
##MINX=242.196
##MAXY=0.973999
##MINY=0.038
##NPOINTS=3748
##XYDATA=(X++(Y..Y))
242.196000 0.9730 0.9740 0.9700 0.9680 0.9640
246.934023 0.9620 0.9730 0.9740 0.9700 0.9680
251.672046 0.9640 0.9620 0.9590 0.9560 0.9530
256.410069 0.9490 0.9480 0.9460 0.9410 0.9360
261.148092 0.9330 0.9320 0.9320 0.9290 0.9280
265.886116 0.9260 0.9250 0.9220 0.9190 0.9170
270.624139 0.9140 0.9130 0.9120 0.9100 0.9080
275.362162 0.9060 0.9040 0.9000 0.8970 0.8920
280.100185 0.8860 0.8850 0.8820 0.8780 0.8730
284.838208 0.8720 0.8710 0.8710 0.8710 0.8710
289.576231 0.8720 0.8720 0.8720 0.8730 0.8730
294.314254 0.8750 0.8750 0.8750 0.8750 0.8750
299.052277 0.8720 0.8700 0.8670 0.8650 0.8630
303.790300 0.8600 0.8580 0.8550 0.8510 0.8490
308.528323 0.8460 0.8420 0.8370 0.8320 0.8280
313.266347 0.8230 0.8180 0.8150 0.8130 0.8040
318.004370 0.7970 0.7930 0.7870 0.7780 0.7640
322.742393 0.7510 0.7340 0.6971 0.6751 0.6541
327.480416 0.6300 0.6080 0.5850 0.5141 0.4741
332.218439 0.4391 0.3802 0.3561 0.3351 0.3151
336.956462 0.2990 0.2820 0.2441 0.2410 0.2400
341.694485 0.2380 0.2370 0.2340 0.2320 0.2320
346.432508 0.2260 0.2120 0.2090 0.1831 0.1631
351.170531 0.1480 0.1370 0.1280 0.1220 0.1160
355.908554 0.1090 0.0910 0.0880 0.0880 0.0910
360.646578 0.0950 0.1000 0.1090 0.1170 0.1299
365.384601 0.1320 0.1460 0.1600 0.1740 0.1880
370.122624 0.2020 0.2299 0.2300 0.2250 0.2041
374.860647 0.1950 0.1880 0.1740 0.1570 0.1400
379.598670 0.1231 0.1081 0.1080 0.1229 0.1399
384.336693 0.1570 0.1740 0.1900 0.2020 0.2688
389.074716 0.3368 0.3938 0.4518 0.5177 0.5359
393.812739 0.5530 0.5870 0.6170 0.6469 0.6739
398.550762 0.6969 0.7060 0.7160 0.7319 0.7419
403.288785 0.7590 0.7690 0.7780 0.7820 0.7860
408.026809 0.7880 0.7930 0.7970 0.8030 0.8129
412.764832 0.8180 0.8230 0.8280 0.8300 0.8320
417.502855 0.8340 0.8360 0.8370 0.8380 0.8420
422.240878 0.8430 0.8430 0.8430 0.8450 0.8460
426.978901 0.8480 0.8490 0.8500 0.8510 0.8520
431.716924 0.8530 0.8560 0.8570 0.8600 0.8600
436.454947 0.8600 0.8620 0.8620 0.8630 0.8630
441.192970 0.8640 0.8640 0.8640 0.8650 0.8650
445.930993 0.8650 0.8650 0.8650 0.8650 0.8650
450.669017 0.8650 0.8650 0.8640 0.8640 0.8640
455.407040 0.8630 0.8620 0.8620 0.8600 0.8600
460.145063 0.8590 0.8580 0.8570 0.8550 0.8530
464.883086 0.8490 0.8460 0.8440 0.8430 0.8410
469.621109 0.8380 0.8370 0.8350 0.8320 0.8300
474.359132 0.8280 0.8280 0.8270 0.8270 0.8280
479.097155 0.8320 0.8360 0.8410 0.8460 0.8480
483.835178 0.8490 0.8500 0.8500 0.8510 0.8520
488.573201 0.8530 0.8550 0.8560 0.8570 0.8580
493.311224 0.8590 0.8600 0.8620 0.8620 0.8620
498.049248 0.8620 0.8630 0.8630 0.8630 0.8630
502.787271 0.8630 0.8630 0.8630 0.8620 0.8620
507.525294 0.8600 0.8590 0.8590 0.8570 0.8560
512.263317 0.8530 0.8520 0.8480 0.8460 0.8450
517.001340 0.8440 0.8430 0.8410 0.8390 0.8340
521.739363 0.8270 0.8250 0.8200 0.8130 0.8030
526.477386 0.8000 0.7950 0.7900 0.7860 0.7810
531.215409 0.7760 0.7620 0.7461 0.7350 0.7240
535.953432 0.6810 0.6620 0.6430 0.6260 0.6080
540.691455 0.5910 0.5721 0.5311 0.5091 0.4821
545.429479 0.4600 0.4430 0.4380 0.4290 0.4180
550.167502 0.4150 0.4180 0.4220 0.4290 0.4380
554.905525 0.4450 0.4490 0.4810 0.5050 0.5449
559.643548 0.5590 0.5730 0.5989 0.6229 0.6469
564.381571 0.6670 0.6860 0.6960 0.7040 0.7200
569.119594 0.7340 0.7470 0.7590 0.7690 0.7780
573.857617 0.7860 0.7900 0.7940 0.8020 0.8030
578.595640 0.8140 0.8160 0.8180 0.8210 0.8220
583.333663 0.8240 0.8250 0.8280 0.8290 0.8310
588.071687 0.8320 0.8350 0.8360 0.8380 0.8390
592.809710 0.8420 0.8430 0.8450 0.8460 0.8490
597.547733 0.8500 0.8500 0.8510 0.8530 0.8550
602.285756 0.8570 0.8580 0.8600 0.8620 0.8630
607.023779 0.8640 0.8660 0.8670 0.8690 0.8700
611.761802 0.8710 0.8720 0.8720 0.8730 0.8750
616.499825 0.8750 0.8760 0.8760 0.8760 0.8770
621.237848 0.8770 0.8770 0.8770 0.8770 0.8770
625.975871 0.8770 0.8780 0.8780 0.8780 0.8780
630.713894 0.8780 0.8780 0.8780 0.8780 0.8780
635.451918 0.8780 0.8780 0.8780 0.8780 0.8780
640.189941 0.8780 0.8780 0.8780 0.8780 0.8790
644.927964 0.8790 0.8790 0.8790 0.8790 0.8780
649.665987 0.8730 0.8700 0.8630 0.8450 0.8360
654.404010 0.8350 0.8370 0.8430 0.8460 0.8500
659.142033 0.8570 0.8640 0.8670 0.8710 0.8710
663.880056 0.8720 0.8710 0.8660 0.8650 0.8630
668.618079 0.8600 0.8570 0.8490 0.8430 0.8390
673.356102 0.8380 0.8350 0.8300 0.8250 0.8200
678.094125 0.8140 0.8070 0.7950 0.7870 0.7740
682.832149 0.7620 0.7371 0.7211 0.6981 0.6861
687.570172 0.6740 0.6510 0.6440 0.6440 0.6620
692.308195 0.6720 0.6820 0.6920 0.7189 0.7459
697.046218 0.7460 0.7670 0.8070 0.8080 0.8310
701.784241 0.8549 0.8560 0.8590 0.8620 0.8640
706.522264 0.8660 0.8690 0.8710 0.8730 0.8730
711.260287 0.8780 0.8790 0.8790 0.8820 0.8820
715.998310 0.8820 0.8820 0.8830 0.8830 0.8830
720.736333 0.8840 0.8840 0.8840 0.8840 0.8840
725.474356 0.8850 0.8850 0.8850 0.8850 0.8860
730.212380 0.8860 0.8860 0.8860 0.8860 0.8860
734.950403 0.8860 0.8860 0.8860 0.8860 0.8860
739.688426 0.8860 0.8850 0.8850 0.8840 0.8840
744.426449 0.8830 0.8830 0.8820 0.8820 0.8800
749.164472 0.8800 0.8790 0.8780 0.8780 0.8770
753.902495 0.8770 0.8760 0.8760 0.8750 0.8710
758.640518 0.8700 0.8630 0.8580 0.8530 0.8480
763.378541 0.8450 0.8420 0.8370 0.8310 0.8300
768.116564 0.8270 0.8160 0.8140 0.8100 0.8020
772.854588 0.7940 0.7860 0.7720 0.7650 0.7590
777.592611 0.7420 0.6951 0.6751 0.6531 0.6480
782.330634 0.6440 0.6410 0.6370 0.6200 0.6000
787.068657 0.5281 0.5071 0.4891 0.4820 0.4730
791.806680 0.4630 0.4540 0.4450 0.4350 0.4260
796.544703 0.3651 0.3211 0.2781 0.2212 0.1981
801.282726 0.1490 0.1320 0.0950 0.0780 0.0600
806.020749 0.0430 0.0420 0.0430 0.0500 0.0610
810.758772 0.0840 0.0990 0.1130 0.1300 0.1530
815.496795 0.1829 0.1850 0.2199 0.2389 0.2569
820.234819 0.2891 0.3790 0.4110 0.4420 0.4949
824.972842 0.5389 0.5570 0.5740 0.6049 0.6279
829.710865 0.6480 0.6630 0.6770 0.6890 0.6960
834.448888 0.7020 0.7130 0.7230 0.7320 0.7390
839.186911 0.7470 0.7540 0.7590 0.7650 0.7680
843.924934 0.7690 0.7720 0.7720 0.7730 0.7730
848.662957 0.7710 0.7690 0.7680 0.7660 0.7650
853.400980 0.7650 0.7640 0.7640 0.7650 0.7660
858.139003 0.7670 0.7720 0.7760 0.7820 0.7870
862.877026 0.7920 0.7930 0.7950 0.8010 0.8070
867.615050 0.8090 0.8150 0.8180 0.8210 0.8220
872.353073 0.8220 0.8220 0.8220 0.8230 0.8240
877.091096 0.8280 0.8310 0.8360 0.8390 0.8430
881.829119 0.8460 0.8510 0.8550 0.8620 0.8660
886.567142 0.8720 0.8760 0.8800 0.8840 0.8890
891.305165 0.8930 0.8970 0.8990 0.9010 0.9050
896.043188 0.9070 0.9110 0.9130 0.9140 0.9150
900.781211 0.9150 0.9170 0.9170 0.9180 0.9180
905.519234 0.9180 0.9190 0.9200 0.9270 0.9320
910.257258 0.9340 0.9350 0.9360 0.9360 0.9360
914.995281 0.9360 0.9360 0.9360 0.9360 0.9360
919.733304 0.9360 0.9360 0.9360 0.9360 0.9360
924.471327 0.9360 0.9360 0.9360 0.9360 0.9360
929.209350 0.9360 0.9360 0.9360 0.9360 0.9350
933.947373 0.9350 0.9340 0.9340 0.9340 0.9340
938.685396 0.9340 0.9340 0.9330 0.9330 0.9320
943.423419 0.9310 0.9310 0.9290 0.9290 0.9280
948.161442 0.9280 0.9260 0.9260 0.9250 0.9240
952.899465 0.9240 0.9220 0.9210 0.9210 0.9200
957.637489 0.9180 0.9180 0.9170 0.9150 0.9140
962.375512 0.9130 0.9120 0.9110 0.9080 0.9080
967.113535 0.9080 0.9070 0.9070 0.9070 0.9060
971.851558 0.9050 0.9030 0.9000 0.8980 0.8960
976.589581 0.8920 0.8890 0.8860 0.8840 0.8820
981.327604 0.8780 0.8760 0.8730 0.8690 0.8640
986.065627 0.8600 0.8570 0.8530 0.8460 0.8430
990.803650 0.8390 0.8360 0.8290 0.8270 0.8240
995.541673 0.8220 0.8200 0.8170 0.8160 0.8090
1000.279696 0.8070 0.8030 0.7930 0.7920 0.7880
1005.017720 0.7850 0.7820 0.7810 0.7780 0.7760
1009.755743 0.7680 0.7620 0.7590 0.7540 0.7500
1014.493766 0.7400 0.7310 0.7230 0.7170 0.7100
1019.231789 0.6910 0.6820 0.6740 0.6640 0.6560
1023.969812 0.6480 0.6400 0.6320 0.6230 0.6140
1028.707835 0.6050 0.5950 0.5850 0.5740 0.5490
1033.445858 0.4981 0.4840 0.4700 0.4560 0.4421
1038.183881 0.4280 0.4140 0.3860 0.3720 0.3580
1042.921904 0.3520 0.3460 0.3151 0.2731 0.2351
1047.659927 0.2190 0.2030 0.1840 0.1640 0.1460
1052.397951 0.1200 0.1100 0.0950 0.0880 0.0800
1057.135974 0.0650 0.0520 0.0470 0.0450 0.0440
1061.873997 0.0430 0.0420 0.0400 0.0390 0.0390
1066.612020 0.0380 0.0380 0.0380 0.0380 0.0380
1071.350043 0.0390 0.0390 0.0390 0.0390 0.0400
1076.088066 0.0400 0.0420 0.0430 0.0450 0.0470
1080.826089 0.0500 0.0510 0.0530 0.0540 0.0570
1085.564112 0.0610 0.0660 0.0710 0.0860 0.0910
1090.302135 0.1090 0.1270 0.1529 0.1779 0.2049
1095.040159 0.2320 0.2460 0.2590 0.2860 0.3110
1099.778182 0.3380 0.3629 0.3859 0.3980 0.4100
1104.516205 0.4310 0.4490 0.4670 0.4810 0.4920
1109.254228 0.5150 0.5330 0.5430 0.5520 0.5669
1113.992251 0.5820 0.5950 0.6030 0.6120 0.6220
1118.730274 0.6320 0.6410 0.6510 0.6600 0.6680
1123.468297 0.6740 0.6770 0.6820 0.6850 0.6890
1128.206320 0.6950 0.7000 0.7130 0.7250 0.7320
1132.944343 0.7370 0.7390 0.7400 0.7400 0.7410
1137.682366 0.7440 0.7470 0.7520 0.7570 0.7600
1142.420390 0.7650 0.7680 0.7710 0.7740 0.7760
1147.158413 0.7780 0.7800 0.7830 0.7930 0.8000
1151.896436 0.8070 0.8110 0.8180 0.8270 0.8280
1156.634459 0.8310 0.8370 0.8420 0.8450 0.8480
1161.372482 0.8490 0.8500 0.8520 0.8570 0.8630
1166.110505 0.8710 0.8760 0.8780 0.8790 0.8820
1170.848528 0.8830 0.8850 0.8860 0.8860 0.8890
1175.586551 0.8900 0.8920 0.8930 0.8940 0.8970
1180.324574 0.8980 0.9000 0.9030 0.9030 0.9030
1185.062597 0.9040 0.9040 0.9050 0.9050 0.9050
1189.800621 0.9060 0.9060 0.9070 0.9070 0.9070
1194.538644 0.9070 0.9070 0.9070 0.9070 0.9070
1199.276667 0.9070 0.9070 0.9070 0.9070 0.9070
1204.014690 0.9070 0.9070 0.9070 0.9070 0.9060
1208.752713 0.9060 0.9060 0.9060 0.9050 0.9050
1213.490736 0.9040 0.9040 0.9030 0.9010 0.9010
1218.228759 0.9000 0.8990 0.8980 0.8980 0.8970
1222.966782 0.8940 0.8900 0.8860 0.8820 0.8780
1227.704805 0.8730 0.8720 0.8710 0.8650 0.8620
1232.442828 0.8570 0.8440 0.8390 0.8340 0.8290
1237.180852 0.8170 0.8080 0.8000 0.7850 0.7750
1241.918875 0.7690 0.7590 0.7450 0.7310 0.6861
1246.656898 0.6680 0.6499 0.5250 0.4950 0.4630
1251.394921 0.4331 0.3392 0.2762 0.2122 0.1582
1256.132944 0.0510 0.0510 0.1230 0.1960 0.2669
1260.870967 0.3529 0.3969 0.4389 0.5247 0.5748
1265.608990 0.6261 0.6860 0.7460 0.7650 0.7660
1270.347013 0.7690 0.7730 0.7760 0.7800 0.7830
1275.085036 0.7860 0.7880 0.7900 0.7930 0.7950
1279.823060 0.7970 0.8010 0.8020 0.8060 0.8060
1284.561083 0.8070 0.8070 0.8080 0.8090 0.8090
1289.299106 0.8100 0.8110 0.8110 0.8130 0.8140
1294.037129 0.8140 0.8150 0.8150 0.8150 0.8150
1298.775152 0.8150 0.8150 0.8150 0.8150 0.8150
1303.513175 0.8150 0.8150 0.8150 0.8150 0.8160
1308.251198 0.8160 0.8160 0.8160 0.8160 0.8150
1312.989221 0.8150 0.8150 0.8150 0.8140 0.8140
1317.727244 0.8140 0.8130 0.8130 0.8130 0.8130
1322.465267 0.8110 0.8100 0.8090 0.8080 0.8080
1327.203291 0.8070 0.8060 0.8040 0.8030 0.8010
1331.941314 0.8010 0.8010 0.8000 0.7990 0.7990
1336.679337 0.7970 0.7960 0.7960 0.7960 0.7950
1341.417360 0.7950 0.7960 0.7960 0.7970 0.7990
1346.155383 0.8000 0.8010 0.8020 0.8030 0.8030
1350.893406 0.8040 0.8060 0.8070 0.8080 0.8080
1355.631429 0.8090 0.8100 0.8100 0.8100 0.8100
1360.369452 0.8100 0.8100 0.8080 0.8080 0.8080
1365.107475 0.8070 0.8070 0.8060 0.8030 0.8030
1369.845498 0.8020 0.8010 0.8000 0.7990 0.7970
1374.583522 0.7960 0.7950 0.7940 0.7930 0.7900
1379.321545 0.7880 0.7870 0.7860 0.7820 0.7780
1384.059568 0.7740 0.7720 0.7690 0.7670 0.7640
1388.797591 0.7610 0.7540 0.7450 0.7370 0.7270
1393.535614 0.7180 0.6960 0.6850 0.6750 0.6640
1398.273637 0.6560 0.6480 0.6410 0.6340 0.6300
1403.011660 0.6210 0.6160 0.6130 0.6090 0.6020
1407.749683 0.5960 0.5880 0.5860 0.5870 0.5960
1412.487706 0.6050 0.6130 0.6210 0.6300 0.6509
1417.225730 0.6650 0.6820 0.6980 0.7050 0.7120
1421.963753 0.7260 0.7400 0.7410 0.7450 0.7460
1426.701776 0.7520 0.7530 0.7550 0.7550 0.7570
1431.439799 0.7570 0.7580 0.7580 0.7580 0.7570
1436.177822 0.7570 0.7550 0.7550 0.7530 0.7510
1440.915845 0.7500 0.7480 0.7460 0.7450 0.7420
1445.653868 0.7410 0.7410 0.7420 0.7420 0.7470
1450.391891 0.7520 0.7540 0.7620 0.7780 0.7850
1455.129914 0.7890 0.7900 0.7940 0.8000 0.8020
1459.867937 0.8030 0.8070 0.8090 0.8110 0.8130
1464.605961 0.8140 0.8150 0.8150 0.8160 0.8170
1469.343984 0.8170 0.8170 0.8180 0.8180 0.8180
1474.082007 0.8170 0.8170 0.8160 0.8160 0.8160
1478.820030 0.8170 0.8180 0.8180 0.8200 0.8200
1483.558053 0.8210 0.8220 0.8230 0.8240 0.8250
1488.296076 0.8270 0.8270 0.8280 0.8290 0.8300
1493.034099 0.8300 0.8300 0.8300 0.8310 0.8320
1497.772122 0.8320 0.8340 0.8340 0.8340 0.8340
1502.510145 0.8340 0.8320 0.8320 0.8320 0.8310
1507.248168 0.8310 0.8310 0.8300 0.8300 0.8300
1511.986192 0.8290 0.8290 0.8280 0.8280 0.8270
1516.724215 0.8270 0.8250 0.8250 0.8240 0.8230
1521.462238 0.8220 0.8220 0.8210 0.8200 0.8200
1526.200261 0.8200 0.8200 0.8180 0.8170 0.8160
1530.938284 0.8150 0.8130 0.8110 0.8110 0.8100
1535.676307 0.8090 0.8080 0.8060 0.8030 0.8020
1540.414330 0.8000 0.7990 0.7960 0.7950 0.7940
1545.152353 0.7920 0.7920 0.7880 0.7860 0.7850
1549.890376 0.7830 0.7820 0.7810 0.7800 0.7800
1554.628399 0.7800 0.7800 0.7810 0.7820 0.7850
1559.366423 0.7850 0.7870 0.7880 0.7900 0.7920
1564.104446 0.7940 0.7960 0.7990 0.8010 0.8030
1568.842469 0.8060 0.8080 0.8090 0.8100 0.8110
1573.580492 0.8130 0.8140 0.8150 0.8160 0.8170
1578.318515 0.8180 0.8200 0.8210 0.8220 0.8230
1583.056538 0.8230 0.8250 0.8270 0.8290 0.8300
1587.794561 0.8310 0.8320 0.8340 0.8340 0.8340
1592.532584 0.8340 0.8340 0.8320 0.8310 0.8310
1597.270607 0.8300 0.8300 0.8290 0.8270 0.8240
1602.008631 0.8230 0.8220 0.8200 0.8180 0.8170
1606.746654 0.8160 0.8150 0.8150 0.8150 0.8150
1611.484677 0.8150 0.8160 0.8160 0.8170 0.8170
1616.222700 0.8170 0.8170 0.8170 0.8170 0.8170
1620.960723 0.8180 0.8180 0.8180 0.8180 0.8180
1625.698746 0.8200 0.8200 0.8200 0.8200 0.8210
1630.436769 0.8210 0.8210 0.8220 0.8220 0.8220
1635.174792 0.8230 0.8230 0.8230 0.8240 0.8240
1639.912815 0.8270 0.8280 0.8290 0.8300 0.8310
1644.650838 0.8340 0.8360 0.8370 0.8390 0.8410
1649.388862 0.8410 0.8410 0.8410 0.8420 0.8420
1654.126885 0.8420 0.8420 0.8420 0.8420 0.8420
1658.864908 0.8420 0.8420 0.8420 0.8420 0.8420
1663.602931 0.8420 0.8420 0.8420 0.8420 0.8420
1668.340954 0.8420 0.8420 0.8420 0.8420 0.8410
1673.078977 0.8410 0.8410 0.8390 0.8390 0.8390
1677.817000 0.8380 0.8370 0.8360 0.8350 0.8340
1682.555023 0.8320 0.8310 0.8310 0.8300 0.8300
1687.293046 0.8290 0.8280 0.8280 0.8280 0.8280
1692.031069 0.8270 0.8270 0.8270 0.8250 0.8250
1696.769093 0.8250 0.8250 0.8240 0.8240 0.8230
1701.507116 0.8230 0.8230 0.8230 0.8230 0.8230
1706.245139 0.8230 0.8230 0.8230 0.8240 0.8240
1710.983162 0.8240 0.8250 0.8250 0.8250 0.8240
1715.721185 0.8270 0.8270 0.8280 0.8290 0.8290
1720.459208 0.8300 0.8310 0.8310 0.8320 0.8340
1725.197231 0.8340 0.8350 0.8360 0.8360 0.8370
1729.935254 0.8380 0.8380 0.8390 0.8410 0.8410
1734.673277 0.8420 0.8420 0.8420 0.8430 0.8430
1739.411301 0.8440 0.8440 0.8440 0.8440 0.8440
1744.149324 0.8440 0.8440 0.8440 0.8440 0.8440
1748.887347 0.8440 0.8440 0.8440 0.8440 0.8440
1753.625370 0.8440 0.8440 0.8440 0.8440 0.8440
1758.363393 0.8440 0.8440 0.8440 0.8440 0.8440
1763.101416 0.8430 0.8430 0.8430 0.8430 0.8430
1767.839439 0.8430 0.8430 0.8430 0.8430 0.8440
1772.577462 0.8450 0.8450 0.8460 0.8480 0.8480
1777.315485 0.8480 0.8490 0.8490 0.8500 0.8500
1782.053508 0.8510 0.8510 0.8510 0.8510 0.8510
1786.791532 0.8520 0.8520 0.8520 0.8520 0.8520
1791.529555 0.8520 0.8520 0.8520 0.8520 0.8520
1796.267578 0.8520 0.8520 0.8520 0.8520 0.8520
1801.005601 0.8520 0.8520 0.8520 0.8520 0.8520
1805.743624 0.8530 0.8530 0.8530 0.8530 0.8530
1810.481647 0.8530 0.8530 0.8530 0.8530 0.8530
1815.219670 0.8530 0.8530 0.8530 0.8530 0.8530
1819.957693 0.8530 0.8530 0.8530 0.8550 0.8550
1824.695716 0.8550 0.8550 0.8530 0.8550 0.8560
1829.433739 0.8560 0.8580 0.8580 0.8580 0.8580
1834.171763 0.8580 0.8580 0.8580 0.8580 0.8580
1838.909786 0.8570 0.8570 0.8560 0.8560 0.8560
1843.647809 0.8560 0.8560 0.8560 0.8560 0.8560
1848.385832 0.8560 0.8560 0.8560 0.8560 0.8560
1853.123855 0.8560 0.8560 0.8560 0.8560 0.8560
1857.861878 0.8570 0.8570 0.8580 0.8560 0.8560
1862.599901 0.8560 0.8560 0.8560 0.8560 0.8570
1867.337924 0.8570 0.8580 0.8580 0.8580 0.8580
1872.075947 0.8570 0.8550 0.8550 0.8550 0.8550
1876.813970 0.8550 0.8550 0.8550 0.8560 0.8570
1881.551994 0.8570 0.8580 0.8570 0.8580 0.8580
1886.290017 0.8580 0.8590 0.8590 0.8590 0.8600
1891.028040 0.8600 0.8600 0.8600 0.8580 0.8580
1895.766063 0.8560 0.8560 0.8560 0.8560 0.8550
1900.504086 0.8550 0.8550 0.8550 0.8550 0.8550
1905.242109 0.8550 0.8530 0.8520 0.8520 0.8500
1909.980132 0.8510 0.8490 0.8490 0.8480 0.8480
1914.718155 0.8460 0.8460 0.8450 0.8450 0.8440
1919.456178 0.8450 0.8450 0.8460 0.8480 0.8480
1924.194202 0.8490 0.8500 0.8500 0.8510 0.8510
1928.932225 0.8510 0.8510 0.8490 0.8480 0.8460
1933.670248 0.8450 0.8430 0.8430 0.8420 0.8420
1938.408271 0.8410 0.8380 0.8380 0.8370 0.8360
1943.146294 0.8340 0.8340 0.8340 0.8340 0.8340
1947.884317 0.8340 0.8350 0.8350 0.8360 0.8360
1952.622340 0.8370 0.8370 0.8380 0.8390 0.8390
1957.360363 0.8410 0.8420 0.8430 0.8440 0.8450
1962.098386 0.8460 0.8480 0.8490 0.8500 0.8500
1966.836409 0.8510 0.8510 0.8520 0.8520 0.8530
1971.574433 0.8550 0.8560 0.8560 0.8570 0.8580
1976.312456 0.8590 0.8590 0.8600 0.8600 0.8620
1981.050479 0.8620 0.8630 0.8630 0.8640 0.8650
1985.788502 0.8650 0.8660 0.8660 0.8670 0.8670
1990.526525 0.8690 0.8690 0.8700 0.8700 0.8710
1995.264548 0.8720 0.8720 0.8730 0.8750 0.8760
2000.002571 0.8770 0.8770 0.8770 0.8770 0.8770
2004.740594 0.8770 0.8770 0.8775 0.8780 0.8780
2009.478617 0.8780 0.8780 0.8780 0.8785 0.8790
2014.216640 0.8790 0.8790 0.8790 0.8790 0.8790
2018.954664 0.8790 0.8790 0.8789 0.8784 0.8780
2023.692687 0.8780 0.8779 0.8774 0.8770 0.8770
2028.430710 0.8769 0.8764 0.8760 0.8760 0.8759
2033.168733 0.8754 0.8750 0.8750 0.8747 0.8737
2037.906756 0.8730 0.8730 0.8728 0.8723 0.8720
2042.644779 0.8720 0.8720 0.8720 0.8720 0.8720
2047.382802 0.8720 0.8720 0.8720 0.8720 0.8720
2052.120825 0.8720 0.8720 0.8720 0.8720 0.8720
2056.858848 0.8718 0.8713 0.8712 0.8718 0.8720
2061.596871 0.8720 0.8720 0.8720 0.8720 0.8720
2066.334895 0.8720 0.8720 0.8720 0.8720 0.8720
2071.072918 0.8720 0.8717 0.8712 0.8710 0.8710
2075.810941 0.8710 0.8710 0.8710 0.8710 0.8710
2080.548964 0.8710 0.8713 0.8718 0.8723 0.8729
2085.286987 0.8737 0.8747 0.8757 0.8767 0.8774
2090.025010 0.8779 0.8784 0.8789 0.8790 0.8790
2094.763033 0.8794 0.8799 0.8800 0.8800 0.8800
2099.501056 0.8800 0.8800 0.8800 0.8800 0.8800
2104.239079 0.8800 0.8800 0.8809 0.8819 0.8820
2108.977103 0.8820 0.8820 0.8820 0.8820 0.8820
2113.715126 0.8820 0.8820 0.8820 0.8820 0.8820
2118.453149 0.8820 0.8810 0.8800 0.8800 0.8800
2123.191172 0.8795 0.8790 0.8790 0.8790 0.8790
2127.929195 0.8790 0.8790 0.8790 0.8790 0.8790
2132.667218 0.8790 0.8790 0.8790 0.8791 0.8796
2137.405241 0.8802 0.8812 0.8821 0.8826 0.8830
2142.143264 0.8830 0.8830 0.8830 0.8830 0.8830
2146.881287 0.8830 0.8830 0.8830 0.8830 0.8829
2151.619310 0.8824 0.8820 0.8820 0.8820 0.8820
2156.357334 0.8820 0.8820 0.8820 0.8820 0.8820
2161.095357 0.8820 0.8820 0.8820 0.8822 0.8827
2165.833380 0.8830 0.8830 0.8832 0.8837 0.8840
2170.571403 0.8840 0.8842 0.8847 0.8850 0.8850
2175.309426 0.8852 0.8857 0.8860 0.8860 0.8863
2180.047449 0.8868 0.8870 0.8870 0.8875 0.8885
2184.785472 0.8890 0.8890 0.8890 0.8890 0.8890
2189.523495 0.8890 0.8890 0.8890 0.8890 0.8890
2194.261518 0.8890 0.8890 0.8890 0.8890 0.8890
2198.999541 0.8890 0.8890 0.8890 0.8890 0.8890
2203.737565 0.8890 0.8890 0.8894 0.8899 0.8900
2208.475588 0.8900 0.8900 0.8900 0.8904 0.8909
2213.213611 0.8910 0.8910 0.8910 0.8910 0.8910
2217.951634 0.8910 0.8910 0.8910 0.8910 0.8910
2222.689657 0.8910 0.8910 0.8910 0.8910 0.8910
2227.427680 0.8910 0.8910 0.8910 0.8910 0.8910
2232.165703 0.8910 0.8910 0.8910 0.8910 0.8910
2236.903726 0.8910 0.8910 0.8910 0.8910 0.8910
2241.641749 0.8910 0.8910 0.8910 0.8910 0.8910
2246.379773 0.8910 0.8910 0.8910 0.8910 0.8910
2251.117796 0.8910 0.8910 0.8910 0.8910 0.8910
2255.855819 0.8910 0.8910 0.8910 0.8910 0.8910
2260.593842 0.8910 0.8910 0.8910 0.8910 0.8910
2265.331865 0.8910 0.8910 0.8911 0.8916 0.8920
2270.069888 0.8920 0.8920 0.8920 0.8920 0.8920
2274.807911 0.8920 0.8920 0.8920 0.8920 0.8920
2279.545934 0.8920 0.8920 0.8920 0.8920 0.8920
2284.283957 0.8920 0.8920 0.8920 0.8920 0.8922
2289.021980 0.8927 0.8930 0.8930 0.8930 0.8930
2293.760004 0.8932 0.8937 0.8940 0.8940 0.8940
2298.498027 0.8940 0.8945 0.8955 0.8963 0.8968
2303.236050 0.8970 0.8970 0.8970 0.8970 0.8973
2307.974073 0.8978 0.8983 0.8988 0.8993 0.8998
2312.712096 0.9003 0.9008 0.9016 0.9027 0.9033
2317.450119 0.9038 0.9043 0.9049 0.9057 0.9067
2322.188142 0.9070 0.9070 0.9070 0.9070 0.9070
2326.926165 0.9070 0.9070 0.9070 0.9070 0.9070
2331.664188 0.9070 0.9070 0.9070 0.9070 0.9070
2336.402211 0.9070 0.9070 0.9070 0.9070 0.9070
2341.140235 0.9070 0.9070 0.9070 0.9070 0.9075
2345.878258 0.9080 0.9089 0.9099 0.9105 0.9110
2350.616281 0.9110 0.9110 0.9110 0.9110 0.9110
2355.354304 0.9110 0.9110 0.9110 0.9105 0.9100
2360.092327 0.9100 0.9099 0.9089 0.9079 0.9059
2364.830350 0.9040 0.9035 0.9029 0.9019 0.9010
2369.568373 0.9010 0.9010 0.9010 0.9009 0.8999
2374.306396 0.8986 0.8961 0.8939 0.8934 0.8928
2379.044419 0.8918 0.8910 0.8910 0.8910 0.8910
2383.782442 0.8910 0.8910 0.8911 0.8916 0.8919
2388.520466 0.8914 0.8909 0.8904 0.8900 0.8900
2393.258489 0.8900 0.8900 0.8900 0.8900 0.8904
2397.996512 0.8914 0.8920 0.8920 0.8920 0.8920
2402.734535 0.8920 0.8920 0.8920 0.8920 0.8918
2407.472558 0.8913 0.8910 0.8910 0.8910 0.8910
2412.210581 0.8910 0.8910 0.8910 0.8910 0.8910
2416.948604 0.8910 0.8910 0.8910 0.8910 0.8910
2421.686627 0.8910 0.8910 0.8910 0.8910 0.8910
2426.424650 0.8910 0.8910 0.8910 0.8910 0.8910
2431.162674 0.8910 0.8910 0.8910 0.8910 0.8910
2435.900697 0.8910 0.8910 0.8910 0.8910 0.8910
2440.638720 0.8910 0.8910 0.8910 0.8910 0.8910
2445.376743 0.8910 0.8910 0.8910 0.8910 0.8910
2450.114766 0.8910 0.8910 0.8910 0.8910 0.8910
2454.852789 0.8910 0.8910 0.8910 0.8910 0.8910
2459.590812 0.8910 0.8910 0.8906 0.8900 0.8900
2464.328835 0.8900 0.8900 0.8900 0.8900 0.8900
2469.066858 0.8900 0.8900 0.8900 0.8900 0.8900
2473.804881 0.8900 0.8900 0.8900 0.8900 0.8900
2478.542905 0.8900 0.8900 0.8900 0.8900 0.8900
2483.280928 0.8900 0.8900 0.8900 0.8895 0.8889
2488.018951 0.8879 0.8869 0.8859 0.8849 0.8844
2492.756974 0.8840 0.8840 0.8841 0.8846 0.8850
2497.494997 0.8850 0.8851 0.8856 0.8860 0.8860
2502.233020 0.8861 0.8866 0.8870 0.8870 0.8873
2506.971043 0.8883 0.8890 0.8890 0.8890 0.8890
2511.709066 0.8890 0.8890 0.8892 0.8897 0.8900
2516.447089 0.8900 0.8900 0.8900 0.8900 0.8900
2521.185112 0.8902 0.8907 0.8910 0.8910 0.8912
2525.923136 0.8917 0.8920 0.8920 0.8920 0.8920
2530.661159 0.8918 0.8913 0.8910 0.8910 0.8910
2535.399182 0.8910 0.8910 0.8910 0.8910 0.8910
2540.137205 0.8910 0.8910 0.8910 0.8910 0.8907
2544.875228 0.8902 0.8900 0.8900 0.8900 0.8900
2549.613251 0.8900 0.8900 0.8900 0.8900 0.8900
2554.351274 0.8900 0.8897 0.8892 0.8890 0.8890
2559.089297 0.8890 0.8890 0.8890 0.8890 0.8890
2563.827320 0.8890 0.8890 0.8890 0.8890 0.8890
2568.565344 0.8890 0.8890 0.8890 0.8890 0.8890
2573.303367 0.8890 0.8890 0.8890 0.8890 0.8890
2578.041390 0.8881 0.8871 0.8870 0.8870 0.8870
2582.779413 0.8870 0.8870 0.8870 0.8870 0.8870
2587.517436 0.8870 0.8870 0.8870 0.8870 0.8870
2592.255459 0.8870 0.8870 0.8870 0.8870 0.8870
2596.993482 0.8870 0.8870 0.8870 0.8870 0.8870
2601.731505 0.8870 0.8870 0.8870 0.8870 0.8870
2606.469528 0.8870 0.8869 0.8864 0.8860 0.8860
2611.207551 0.8860 0.8860 0.8860 0.8860 0.8860
2615.945575 0.8860 0.8859 0.8854 0.8850 0.8850
2620.683598 0.8850 0.8850 0.8850 0.8850 0.8850
2625.421621 0.8850 0.8849 0.8844 0.8840 0.8840
2630.159644 0.8840 0.8840 0.8840 0.8840 0.8840
2634.897667 0.8840 0.8840 0.8840 0.8840 0.8840
2639.635690 0.8838 0.8833 0.8832 0.8837 0.8840
2644.373713 0.8840 0.8840 0.8840 0.8840 0.8840
2649.111736 0.8840 0.8840 0.8835 0.8825 0.8820
2653.849759 0.8820 0.8815 0.8805 0.8797 0.8792
2658.587782 0.8787 0.8782 0.8780 0.8780 0.8780
2663.325806 0.8780 0.8780 0.8780 0.8780 0.8780
2668.063829 0.8783 0.8788 0.8793 0.8798 0.8807
2672.801852 0.8817 0.8823 0.8828 0.8830 0.8830
2677.539875 0.8830 0.8830 0.8830 0.8830 0.8830
2682.277898 0.8830 0.8818 0.8803 0.8800 0.8800
2687.015921 0.8808 0.8818 0.8820 0.8820 0.8824
2691.753944 0.8829 0.8830 0.8830 0.8830 0.8830
2696.491967 0.8830 0.8830 0.8816 0.8801 0.8800
2701.229990 0.8800 0.8800 0.8800 0.8800 0.8800
2705.968013 0.8800 0.8800 0.8800 0.8800 0.8800
2710.706037 0.8800 0.8800 0.8800 0.8800 0.8800
2715.444060 0.8800 0.8801 0.8811 0.8820 0.8825
2720.182083 0.8830 0.8835 0.8840 0.8834 0.8830
2724.920106 0.8830 0.8830 0.8830 0.8830 0.8830
2729.658129 0.8829 0.8824 0.8820 0.8820 0.8820
2734.396152 0.8820 0.8820 0.8820 0.8818 0.8808
2739.134175 0.8802 0.8813 0.8817 0.8807 0.8800
2743.872198 0.8800 0.8799 0.8794 0.8788 0.8783
2748.610221 0.8780 0.8780 0.8778 0.8773 0.8770
2753.348245 0.8770 0.8770 0.8770 0.8770 0.8770
2758.086268 0.8770 0.8770 0.8768 0.8763 0.8753
2762.824291 0.8738 0.8730 0.8730 0.8728 0.8723
2767.562314 0.8718 0.8713 0.8710 0.8710 0.8707
2772.300337 0.8702 0.8697 0.8692 0.8684 0.8674
2777.038360 0.8667 0.8662 0.8654 0.8644 0.8634
2781.776383 0.8624 0.8611 0.8596 0.8581 0.8566
2786.514406 0.8547 0.8527 0.8517 0.8512 0.8510
2791.252429 0.8510 0.8507 0.8501 0.8500 0.8500
2795.990452 0.8500 0.8500 0.8500 0.8500 0.8500
2800.728476 0.8500 0.8500 0.8500 0.8500 0.8500
2805.466499 0.8500 0.8500 0.8500 0.8500 0.8500
2810.204522 0.8500 0.8500 0.8500 0.8500 0.8500
2814.942545 0.8491 0.8481 0.8480 0.8480 0.8480
2819.680568 0.8480 0.8480 0.8480 0.8480 0.8480
2824.418591 0.8470 0.8460 0.8460 0.8460 0.8445
2829.156614 0.8430 0.8425 0.8420 0.8420 0.8420
2833.894637 0.8415 0.8410 0.8410 0.8410 0.8410
2838.632660 0.8410 0.8410 0.8410 0.8410 0.8410
2843.370683 0.8410 0.8410 0.8410 0.8410 0.8410
2848.108707 0.8410 0.8410 0.8412 0.8422 0.8430
2852.846730 0.8430 0.8431 0.8436 0.8440 0.8440
2857.584753 0.8440 0.8440 0.8437 0.8427 0.8411
2862.322776 0.8375 0.8344 0.8324 0.8307 0.8297
2867.060799 0.8288 0.8283 0.8278 0.8273 0.8265
2871.798822 0.8249 0.8234 0.8219 0.8208 0.8203
2876.536845 0.8192 0.8172 0.8154 0.8139 0.8121
2881.274868 0.8101 0.8079 0.8053 0.8033 0.8018
2886.012891 0.8000 0.7980 0.7960 0.7940 0.7914
2890.750915 0.7884 0.7854 0.7824 0.7794 0.7763
2895.488938 0.7719 0.7664 0.7600 0.7529 0.7435
2900.226961 0.7324 0.7249 0.7199 0.7151 0.7106
2904.964984 0.7090 0.7090 0.7117 0.7157 0.7197
2909.703007 0.7238 0.7344 0.7480 0.7541 0.7571
2914.441030 0.7584 0.7589 0.7627 0.7677 0.7728
2919.179053 0.7778 0.7794 0.7799 0.7796 0.7791
2923.917076 0.7778 0.7763 0.7752 0.7742 0.7732
2928.655099 0.7722 0.7716 0.7711 0.7697 0.7682
2933.393122 0.7653 0.7623 0.7602 0.7582 0.7553
2938.131146 0.7522 0.7193 0.6837 0.6772 0.6722
2942.869169 0.6681 0.6641 0.6601 0.6560 0.6450
2947.607192 0.6339 0.6254 0.6168 0.6093 0.6004
2952.345215 0.5551 0.5109 0.4893 0.4682 0.4551
2957.083238 0.4401 0.4030 0.3677 0.3470 0.3265
2961.821261 0.3063 0.2835 0.2442 0.2110 0.2110
2966.559284 0.2127 0.2228 0.2327 0.2423 0.2564
2971.297307 0.2891 0.3214 0.3521 0.3793 0.3939
2976.035330 0.4085 0.4233 0.4447 0.4839 0.5178
2980.773353 0.5379 0.5579 0.5775 0.6019 0.6366
2985.511377 0.6646 0.6787 0.6928 0.7069 0.7199
2990.249400 0.7310 0.7408 0.7483 0.7555 0.7620
2994.987423 0.7676 0.7717 0.7755 0.7790 0.7823
2999.725446 0.7854 0.7882 0.7907 0.7937 0.7972
3004.463469 0.8007 0.8042 0.8063 0.8068 0.8073
3009.201492 0.8078 0.8080 0.8080 0.8083 0.8088
3013.939515 0.8093 0.8098 0.8100 0.8100 0.8103
3018.677538 0.8108 0.8110 0.8110 0.8110 0.8110
3023.415561 0.8110 0.8110 0.8107 0.8102 0.8100
3028.153584 0.8100 0.8093 0.8083 0.8076 0.8071
3032.891608 0.8066 0.8061 0.8052 0.8042 0.8036
3037.629631 0.8031 0.8022 0.8012 0.8002 0.7992
3042.367654 0.7990 0.7990 0.7982 0.7972 0.7966
3047.105677 0.7961 0.7960 0.7960 0.7964 0.7969
3051.843700 0.7983 0.7999 0.8009 0.8019 0.8025
3056.581723 0.8030 0.8049 0.8069 0.8084 0.8099
3061.319746 0.8115 0.8130 0.8135 0.8140 0.8150
3066.057769 0.8160 0.8170 0.8180 0.8190 0.8200
3070.795792 0.8205 0.8210 0.8215 0.8220 0.8225
3075.533816 0.8230 0.8230 0.8230 0.8230 0.8231
3080.271839 0.8236 0.8240 0.8240 0.8241 0.8246
3085.009862 0.8250 0.8250 0.8250 0.8250 0.8250
3089.747885 0.8250 0.8252 0.8262 0.8270 0.8270
3094.485908 0.8267 0.8257 0.8250 0.8250 0.8249
3099.223931 0.8244 0.8239 0.8233 0.8230 0.8230
3103.961954 0.8228 0.8223 0.8218 0.8213 0.8208
3108.699977 0.8203 0.8196 0.8186 0.8180 0.8180
3113.438000 0.8178 0.8173 0.8170 0.8170 0.8168
3118.176023 0.8163 0.8160 0.8160 0.8158 0.8153
3122.914047 0.8150 0.8150 0.8148 0.8142 0.8137
3127.652070 0.8132 0.8125 0.8114 0.8110 0.8110
3132.390093 0.8107 0.8102 0.8100 0.8100 0.8097
3137.128116 0.8092 0.8090 0.8090 0.8090 0.8090
3141.866139 0.8087 0.8082 0.8080 0.8080 0.8080
3146.604162 0.8080 0.8080 0.8080 0.8084 0.8089
3151.342185 0.8094 0.8099 0.8100 0.8100 0.8104
3156.080208 0.8109 0.8110 0.8110 0.8118 0.8128
3160.818231 0.8134 0.8139 0.8148 0.8158 0.8168
3165.556254 0.8179 0.8189 0.8199 0.8204 0.8209
3170.294278 0.8214 0.8220 0.8225 0.8230 0.8239
3175.032301 0.8249 0.8264 0.8279 0.8290 0.8300
3179.770324 0.8310 0.8320 0.8330 0.8340 0.8350
3184.508347 0.8360 0.8370 0.8381 0.8396 0.8410
3189.246370 0.8421 0.8430 0.8435 0.8440 0.8445
3193.984393 0.8450 0.8455 0.8461 0.8471 0.8481
3198.722416 0.8486 0.8491 0.8496 0.8501 0.8506
3203.460439 0.8510 0.8510 0.8511 0.8516 0.8520
3208.198462 0.8520 0.8521 0.8526 0.8530 0.8530
3212.936485 0.8533 0.8543 0.8550 0.8550 0.8551
3217.674509 0.8556 0.8560 0.8560 0.8562 0.8567
3222.412532 0.8570 0.8570 0.8572 0.8577 0.8582
3227.150555 0.8587 0.8592 0.8597 0.8604 0.8614
3231.888578 0.8622 0.8627 0.8632 0.8637 0.8642
3236.626601 0.8647 0.8650 0.8650 0.8652 0.8657
3241.364624 0.8663 0.8668 0.8670 0.8670 0.8675
3246.102647 0.8685 0.8693 0.8698 0.8700 0.8700
3250.840670 0.8703 0.8708 0.8710 0.8710 0.8710
3255.578693 0.8710 0.8710 0.8710 0.8713 0.8718
3260.316717 0.8720 0.8720 0.8720 0.8720 0.8720
3265.054740 0.8720 0.8724 0.8729 0.8730 0.8730
3269.792763 0.8730 0.8730 0.8730 0.8730 0.8738
3274.530786 0.8748 0.8750 0.8750 0.8754 0.8759
3279.268809 0.8760 0.8760 0.8760 0.8760 0.8760
3284.006832 0.8760 0.8764 0.8769 0.8770 0.8770
3288.744855 0.8770 0.8770 0.8770 0.8770 0.8775
3293.482878 0.8780 0.8780 0.8780 0.8780 0.8780
3298.220901 0.8780 0.8780 0.8780 0.8780 0.8780
3302.958924 0.8780 0.8780 0.8780 0.8780 0.8780
3307.696948 0.8785 0.8790 0.8790 0.8790 0.8790
3312.434971 0.8790 0.8785 0.8780 0.8780 0.8780
3317.172994 0.8780 0.8780 0.8780 0.8780 0.8780
3321.911017 0.8780 0.8780 0.8780 0.8780 0.8780
3326.649040 0.8780 0.8780 0.8780 0.8780 0.8780
3331.387063 0.8780 0.8780 0.8780 0.8780 0.8780
3336.125086 0.8780 0.8780 0.8780 0.8782 0.8787
3340.863109 0.8792 0.8797 0.8800 0.8800 0.8800
3345.601132 0.8800 0.8800 0.8800 0.8804 0.8814
3350.339155 0.8820 0.8820 0.8820 0.8820 0.8820
3355.077179 0.8820 0.8822 0.8827 0.8830 0.8830
3359.815202 0.8830 0.8830 0.8830 0.8830 0.8830
3364.553225 0.8830 0.8830 0.8830 0.8830 0.8830
3369.291248 0.8833 0.8838 0.8840 0.8840 0.8840
3374.029271 0.8840 0.8840 0.8840 0.8840 0.8840
3378.767294 0.8840 0.8840 0.8840 0.8840 0.8840
3383.505317 0.8840 0.8840 0.8840 0.8840 0.8840
3388.243340 0.8840 0.8840 0.8844 0.8849 0.8850
3392.981363 0.8850 0.8850 0.8850 0.8850 0.8850
3397.719387 0.8850 0.8850 0.8850 0.8850 0.8850
3402.457410 0.8850 0.8850 0.8850 0.8850 0.8850
3407.195433 0.8850 0.8850 0.8850 0.8850 0.8850
3411.933456 0.8850 0.8855 0.8860 0.8860 0.8860
3416.671479 0.8860 0.8860 0.8860 0.8860 0.8860
3421.409502 0.8860 0.8860 0.8860 0.8860 0.8860
3426.147525 0.8860 0.8860 0.8860 0.8860 0.8860
3430.885548 0.8860 0.8860 0.8860 0.8860 0.8860
3435.623571 0.8860 0.8860 0.8860 0.8860 0.8860
3440.361594 0.8860 0.8860 0.8860 0.8860 0.8860
3445.099618 0.8860 0.8860 0.8860 0.8860 0.8860
3449.837641 0.8861 0.8866 0.8870 0.8870 0.8870
3454.575664 0.8870 0.8870 0.8870 0.8870 0.8870
3459.313687 0.8870 0.8870 0.8870 0.8870 0.8870
3464.051710 0.8870 0.8870 0.8870 0.8870 0.8870
3468.789733 0.8870 0.8870 0.8870 0.8870 0.8870
3473.527756 0.8870 0.8870 0.8870 0.8870 0.8870
3478.265779 0.8870 0.8870 0.8870 0.8870 0.8870
3483.003802 0.8870 0.8870 0.8870 0.8870 0.8870
3487.741825 0.8870 0.8870 0.8870 0.8870 0.8870
3492.479849 0.8870 0.8870 0.8870 0.8870 0.8870
3497.217872 0.8870 0.8870 0.8870 0.8870 0.8870
3501.955895 0.8870 0.8870 0.8870 0.8870 0.8870
3506.693918 0.8870 0.8870 0.8870 0.8870 0.8870
3511.431941 0.8870 0.8870 0.8870 0.8870 0.8870
3516.169964 0.8870 0.8870 0.8870 0.8870 0.8870
3520.907987 0.8870 0.8870 0.8870 0.8870 0.8870
3525.646010 0.8870 0.8870 0.8870 0.8870 0.8870
3530.384033 0.8870 0.8870 0.8870 0.8870 0.8870
3535.122056 0.8870 0.8870 0.8870 0.8870 0.8870
3539.860080 0.8870 0.8870 0.8870 0.8870 0.8870
3544.598103 0.8870 0.8870 0.8870 0.8870 0.8870
3549.336126 0.8870 0.8870 0.8870 0.8870 0.8870
3554.074149 0.8870 0.8870 0.8870 0.8870 0.8870
3558.812172 0.8870 0.8870 0.8870 0.8870 0.8870
3563.550195 0.8870 0.8870 0.8870 0.8870 0.8870
3568.288218 0.8870 0.8870 0.8870 0.8870 0.8870
3573.026241 0.8870 0.8870 0.8870 0.8870 0.8870
3577.764264 0.8868 0.8863 0.8860 0.8860 0.8860
3582.502288 0.8860 0.8860 0.8860 0.8858 0.8853
3587.240311 0.8850 0.8850 0.8850 0.8850 0.8848
3591.978334 0.8843 0.8840 0.8840 0.8838 0.8833
3596.716357 0.8830 0.8830 0.8830 0.8830 0.8830
3601.454380 0.8830 0.8827 0.8822 0.8820 0.8820
3606.192403 0.8820 0.8820 0.8814 0.8804 0.8797
3610.930426 0.8792 0.8787 0.8782 0.8780 0.8780
3615.668449 0.8777 0.8772 0.8770 0.8770 0.8770
3620.406472 0.8770 0.8770 0.8770 0.8770 0.8770
3625.144495 0.8770 0.8770 0.8770 0.8770 0.8770
3629.882519 0.8770 0.8774 0.8779 0.8784 0.8789
3634.620542 0.8790 0.8790 0.8790 0.8790 0.8790
3639.358565 0.8790 0.8790 0.8790 0.8781 0.8771
3644.096588 0.8770 0.8770 0.8770 0.8770 0.8765
3648.834611 0.8760 0.8760 0.8760 0.8755 0.8750
3653.572634 0.8740 0.8730 0.8730 0.8730 0.8730
3658.310657 0.8730 0.8725 0.8720 0.8725 0.8731
3663.048680 0.8741 0.8750 0.8750 0.8750 0.8755
3667.786703 0.8760 0.8760 0.8760 0.8760 0.8760
3672.524726 0.8760 0.8760 0.8760 0.8760 0.8760
3677.262750 0.8760 0.8760 0.8760 0.8760 0.8760
3682.000773 0.8760 0.8759 0.8754 0.8748 0.8738
3686.738796 0.8729 0.8724 0.8720 0.8720 0.8719
3691.476819 0.8713 0.8708 0.8703 0.8698 0.8693
3696.214842 0.8690 0.8690 0.8686 0.8676 0.8668
3700.952865 0.8663 0.8660 0.8660 0.8660 0.8660
3705.690888 0.8660 0.8660 0.8660 0.8660 0.8662
3710.428911 0.8667 0.8670 0.8670 0.8670 0.8670
3715.166934 0.8670 0.8670 0.8670 0.8670 0.8675
3719.904958 0.8685 0.8690 0.8690 0.8690 0.8690
3724.642981 0.8690 0.8690 0.8690 0.8690 0.8693
3729.381004 0.8698 0.8700 0.8700 0.8700 0.8700
3734.119027 0.8703 0.8708 0.8710 0.8710 0.8710
3738.857050 0.8710 0.8710 0.8710 0.8714 0.8719
3743.595073 0.8720 0.8720 0.8724 0.8729 0.8730
3748.333096 0.8730 0.8730 0.8730 0.8730 0.8730
3753.071119 0.8730 0.8730 0.8730 0.8730 0.8726
3757.809142 0.8721 0.8720 0.8720 0.8720 0.8720
3762.547165 0.8716 0.8710 0.8705 0.8700 0.8700
3767.285189 0.8700 0.8700 0.8700 0.8695 0.8690
3772.023212 0.8690 0.8690 0.8680 0.8670 0.8680
3776.761235 0.8690 0.8690 0.8690 0.8690 0.8690
3781.499258 0.8690 0.8690 0.8690 0.8690 0.8695
3786.237281 0.8700 0.8700 0.8701 0.8706 0.8710
3790.975304 0.8710 0.8710 0.8710
##END=
