##TITLE=Ether, allyl ethyl
##JCAMP-DX=4.24
$$ By DXEDIT 1.05 (RS McDonald)
##DATA TYPE=INFRARED SPECTRUM
##CLASS=COBLENTZ III
##ORIGIN=DOW CHEMICAL COMPANY
##OWNER=COPYRIGHT (C) 1988 by COBLENTZ SOCIETY INC.
Collection (C) 2018 copyright by the U.S. Secretary of Commerce
on behalf of the United States of America. All rights reserved.
##DATE=1965/08/06
##NAMES=allyl ethyl ether
3-ethoxy-1-propene
##CAS REGISTRY NO=557-31-3
##MOLFORM=C5 H10 O
##SOURCE REFERENCE=COBLENTZ NO. 6414
##$NIST SOURCE=COBLENTZ
##$NIST IMAGE=cob6414
##SPECTROMETER/DATA SYSTEM=BECKMAN IR-9 (GRATING)
##INSTRUMENT PARAMETERS=ORDER CHANGES: 670, 1200, 2000 CM^-^1
##STATE=SOLUTION (10% CCl4 FOR 3800-1330, 10% CS2 FOR 1330-400)
##PATH LENGTH=0.011 CM, 0.010 CM
$$SPECTRAL CONTAMINATIONS DUE TO CCl4 AROUND 1550 CM^-^1 HAVE BEEN SUBTRACTED
$$SPECTRAL CONTAMINATION DUE TO AN UNKNOWN AROUND 400 CM^-^1
##SAMPLING PROCEDURE=TRANSMISSION
##RESOLUTION=2
##DATA PROCESSING=DIGITIZED BY COBLENTZ SOCIETY (BATCH I) FROM HARD COPY
##XUNITS=1/CM
##YUNITS=TRANSMITTANCE
##XFACTOR=1
##YFACTOR=1
##DELTAX=1
##FIRSTX=3794
##LASTX=409
##FIRSTY=0.8498
##MAXX=3794
##MINX=409
##MAXY=0.8835
##MINY=0.0129
##NPOINTS=3386
##XYDATA=(X++(Y..Y))
3794.000000 0.8498 0.8498 0.8499 0.8499 0.8500
3789.000000 0.8500 0.8501 0.8501 0.8502 0.8502
3784.000000 0.8496 0.8492 0.8493 0.8501 0.8505
3779.000000 0.8496 0.8504 0.8506 0.8507 0.8497
3774.000000 0.8508 0.8508 0.8509 0.8509 0.8509
3769.000000 0.8509 0.8508 0.8507 0.8507 0.8506
3764.000000 0.8505 0.8504 0.8504 0.8503 0.8508
3759.000000 0.8506 0.8501 0.8500 0.8500 0.8499
3754.000000 0.8499 0.8497 0.8496 0.8495 0.8495
3749.000000 0.8494 0.8494 0.8493 0.8492 0.8491
3744.000000 0.8491 0.8489 0.8488 0.8487 0.8486
3739.000000 0.8487 0.8494 0.8492 0.8490 0.8488
3734.000000 0.8482 0.8477 0.8481 0.8484 0.8483
3729.000000 0.8480 0.8477 0.8473 0.8470 0.8467
3724.000000 0.8464 0.8461 0.8458 0.8454 0.8451
3719.000000 0.8437 0.8435 0.8440 0.8436 0.8432
3714.000000 0.8428 0.8424 0.8423 0.8422 0.8414
3709.000000 0.8417 0.8412 0.8407 0.8403 0.8397
3704.000000 0.8394 0.8390 0.8386 0.8382 0.8378
3699.000000 0.8374 0.8371 0.8368 0.8358 0.8357
3694.000000 0.8360 0.8363 0.8367 0.8369 0.8375
3689.000000 0.8377 0.8382 0.8382 0.8379 0.8384
3684.000000 0.8389 0.8395 0.8401 0.8407 0.8414
3679.000000 0.8420 0.8427 0.8433 0.8441 0.8445
3674.000000 0.8450 0.8454 0.8458 0.8462 0.8478
3669.000000 0.8473 0.8477 0.8482 0.8487 0.8486
3664.000000 0.8485 0.8482 0.8479 0.8476 0.8473
3659.000000 0.8470 0.8469 0.8465 0.8462 0.8460
3654.000000 0.8457 0.8454 0.8451 0.8448 0.8445
3649.000000 0.8441 0.8438 0.8435 0.8432 0.8429
3644.000000 0.8425 0.8423 0.8420 0.8418 0.8418
3639.000000 0.8418 0.8420 0.8420 0.8421 0.8421
3634.000000 0.8423 0.8425 0.8434 0.8434 0.8431
3629.000000 0.8424 0.8429 0.8437 0.8437 0.8437
3624.000000 0.8439 0.8440 0.8441 0.8441 0.8442
3619.000000 0.8442 0.8444 0.8445 0.8446 0.8446
3614.000000 0.8449 0.8448 0.8448 0.8448 0.8448
3609.000000 0.8447 0.8438 0.8447 0.8447 0.8446
3604.000000 0.8446 0.8442 0.8438 0.8445 0.8441
3599.000000 0.8434 0.8439 0.8444 0.8444 0.8443
3594.000000 0.8443 0.8442 0.8442 0.8442 0.8442
3589.000000 0.8441 0.8441 0.8430 0.8419 0.8398
3584.000000 0.8376 0.8378 0.8381 0.8382 0.8385
3579.000000 0.8385 0.8388 0.8389 0.8388 0.8385
3574.000000 0.8394 0.8395 0.8393 0.8388 0.8388
3569.000000 0.8388 0.8388 0.8387 0.8387 0.8386
3564.000000 0.8385 0.8384 0.8384 0.8383 0.8383
3559.000000 0.8380 0.8378 0.8372 0.8368 0.8374
3554.000000 0.8360 0.8355 0.8361 0.8356 0.8349
3549.000000 0.8339 0.8342 0.8338 0.8333 0.8325
3544.000000 0.8320 0.8319 0.8315 0.8312 0.8301
3539.000000 0.8300 0.8292 0.8291 0.8289 0.8284
3534.000000 0.8278 0.8273 0.8269 0.8263 0.8259
3529.000000 0.8242 0.8238 0.8233 0.8228 0.8223
3524.000000 0.8218 0.8212 0.8208 0.8202 0.8198
3519.000000 0.8193 0.8188 0.8183 0.8179 0.8177
3514.000000 0.8175 0.8172 0.8170 0.8166 0.8163
3509.000000 0.8160 0.8159 0.8156 0.8153 0.8150
3504.000000 0.8149 0.8146 0.8144 0.8141 0.8138
3499.000000 0.8137 0.8136 0.8134 0.8132 0.8130
3494.000000 0.8128 0.8127 0.8126 0.8127 0.8150
3489.000000 0.8133 0.8137 0.8140 0.8144 0.8148
3484.000000 0.8152 0.8156 0.8159 0.8163 0.8166
3479.000000 0.8170 0.8174 0.8178 0.8182 0.8185
3474.000000 0.8189 0.8192 0.8196 0.8199 0.8203
3469.000000 0.8208 0.8211 0.8215 0.8221 0.8225
3464.000000 0.8229 0.8233 0.8237 0.8242 0.8247
3459.000000 0.8251 0.8255 0.8259 0.8262 0.8266
3454.000000 0.8273 0.8277 0.8281 0.8285 0.8289
3449.000000 0.8293 0.8299 0.8303 0.8307 0.8311
3444.000000 0.8314 0.8318 0.8323 0.8327 0.8332
3439.000000 0.8336 0.8341 0.8345 0.8349 0.8352
3434.000000 0.8356 0.8362 0.8366 0.8370 0.8373
3429.000000 0.8377 0.8381 0.8383 0.8386 0.8379
3424.000000 0.8390 0.8394 0.8397 0.8399 0.8402
3419.000000 0.8404 0.8406 0.8407 0.8411 0.8413
3414.000000 0.8415 0.8417 0.8422 0.8423 0.8427
3409.000000 0.8428 0.8429 0.8434 0.8433 0.8429
3404.000000 0.8430 0.8430 0.8431 0.8431 0.8432
3399.000000 0.8432 0.8433 0.8433 0.8433 0.8433
3394.000000 0.8434 0.8434 0.8435 0.8435 0.8436
3389.000000 0.8436 0.8437 0.8437 0.8437 0.8437
3384.000000 0.8438 0.8438 0.8439 0.8439 0.8440
3379.000000 0.8441 0.8442 0.8443 0.8445 0.8446
3374.000000 0.8447 0.8448 0.8450 0.8451 0.8463
3369.000000 0.8455 0.8455 0.8457 0.8458 0.8458
3364.000000 0.8461 0.8461 0.8461 0.8461 0.8459
3359.000000 0.8458 0.8458 0.8458 0.8457 0.8455
3354.000000 0.8455 0.8455 0.8454 0.8453 0.8453
3349.000000 0.8453 0.8453 0.8454 0.8455 0.8464
3344.000000 0.8466 0.8458 0.8468 0.8459 0.8459
3339.000000 0.8461 0.8473 0.8473 0.8471 0.8464
3334.000000 0.8465 0.8465 0.8466 0.8468 0.8469
3329.000000 0.8471 0.8472 0.8474 0.8476 0.8478
3324.000000 0.8480 0.8481 0.8483 0.8485 0.8487
3319.000000 0.8488 0.8490 0.8491 0.8493 0.8494
3314.000000 0.8496 0.8497 0.8510 0.8512 0.8514
3309.000000 0.8515 0.8515 0.8509 0.8517 0.8516
3304.000000 0.8513 0.8505 0.8505 0.8504 0.8504
3299.000000 0.8504 0.8504 0.8504 0.8504 0.8503
3294.000000 0.8503 0.8502 0.8502 0.8500 0.8499
3289.000000 0.8497 0.8496 0.8494 0.8493 0.8491
3284.000000 0.8489 0.8497 0.8495 0.8483 0.8484
3279.000000 0.8491 0.8487 0.8477 0.8504 0.8484
3274.000000 0.8483 0.8482 0.8478 0.8475 0.8474
3269.000000 0.8471 0.8468 0.8465 0.8464 0.8461
3264.000000 0.8458 0.8454 0.8452 0.8449 0.8447
3259.000000 0.8444 0.8442 0.8440 0.8430 0.8439
3254.000000 0.8439 0.8438 0.8438 0.8437 0.8437
3249.000000 0.8437 0.8437 0.8436 0.8436 0.8428
3244.000000 0.8428 0.8434 0.8434 0.8433 0.8433
3239.000000 0.8433 0.8433 0.8433 0.8433 0.8431
3234.000000 0.8431 0.8431 0.8431 0.8431 0.8431
3229.000000 0.8430 0.8430 0.8429 0.8420 0.8422
3224.000000 0.8430 0.8430 0.8430 0.8430 0.8430
3219.000000 0.8430 0.8430 0.8429 0.8427 0.8426
3214.000000 0.8424 0.8423 0.8423 0.8422 0.8420
3209.000000 0.8420 0.8410 0.8406 0.8405 0.8405
3204.000000 0.8404 0.8402 0.8402 0.8401 0.8401
3199.000000 0.8407 0.8400 0.8404 0.8398 0.8405
3194.000000 0.8404 0.8403 0.8402 0.8401 0.8394
3189.000000 0.8394 0.8398 0.8397 0.8389 0.8384
3184.000000 0.8383 0.8382 0.8382 0.8381 0.8381
3179.000000 0.8380 0.8380 0.8379 0.8378 0.8377
3174.000000 0.8377 0.8376 0.8376 0.8375 0.8375
3169.000000 0.8373 0.8372 0.8370 0.8370 0.8370
3164.000000 0.8375 0.8379 0.8372 0.8373 0.8378
3159.000000 0.8377 0.8369 0.8371 0.8366 0.8360
3154.000000 0.8369 0.8367 0.8367 0.8364 0.8363
3149.000000 0.8359 0.8345 0.8342 0.8339 0.8335
3144.000000 0.8332 0.8328 0.8325 0.8322 0.8323
3139.000000 0.8315 0.8307 0.8298 0.8289 0.8281
3134.000000 0.8273 0.8263 0.8256 0.8244 0.8231
3129.000000 0.8218 0.8206 0.8194 0.8181 0.8169
3124.000000 0.8155 0.8128 0.8100 0.8069 0.8040
3119.000000 0.8004 0.7970 0.7927 0.7884 0.7799
3114.000000 0.7715 0.7604 0.7494 0.7433 0.7373
3109.000000 0.7315 0.7260 0.7208 0.7156 0.7090
3104.000000 0.7027 0.6949 0.6871 0.6796 0.6729
3099.000000 0.6657 0.6584 0.6503 0.6421 0.6301
3094.000000 0.6174 0.6025 0.5874 0.5718 0.5567
3089.000000 0.5411 0.5257 0.5148 0.5057 0.5036
3084.000000 0.5037 0.5040 0.5044 0.5154 0.5267
3079.000000 0.5445 0.5626 0.5812 0.5994 0.6128
3074.000000 0.6269 0.6370 0.6465 0.6564 0.6665
3069.000000 0.6757 0.6866 0.6957 0.7058 0.7117
3064.000000 0.7175 0.7201 0.7234 0.7258 0.7285
3059.000000 0.7306 0.7320 0.7324 0.7327 0.7335
3054.000000 0.7343 0.7341 0.7345 0.7353 0.7370
3049.000000 0.7354 0.7350 0.7343 0.7343 0.7329
3044.000000 0.7322 0.7312 0.7301 0.7282 0.7265
3039.000000 0.7227 0.7189 0.7144 0.7094 0.7014
3034.000000 0.6942 0.6851 0.6765 0.6539 0.6311
3029.000000 0.6069 0.5833 0.5592 0.5353 0.5305
3024.000000 0.5257 0.5255 0.5254 0.5262 0.5271
3019.000000 0.5286 0.5297 0.5308 0.5315 0.5326
3014.000000 0.5340 0.5347 0.5355 0.5353 0.5353
3009.000000 0.5337 0.5319 0.5295 0.5278 0.5045
3004.000000 0.4806 0.4524 0.4242 0.3961 0.3684
2999.000000 0.3404 0.3123 0.2844 0.2564 0.2284
2994.000000 0.2003 0.1727 0.1448 0.1167 0.0887
2989.000000 0.0621 0.0359 0.0355 0.0355 0.0356
2984.000000 0.0357 0.0363 0.0370 0.0391 0.0413
2979.000000 0.0469 0.0524 0.0605 0.0688 0.0891
2974.000000 0.1095 0.1297 0.1501 0.1703 0.1907
2969.000000 0.2112 0.2316 0.2520 0.2723 0.2926
2964.000000 0.3130 0.3333 0.3536 0.3739 0.3943
2959.000000 0.4092 0.4253 0.4230 0.4231 0.4232
2954.000000 0.4236 0.4240 0.4242 0.4079 0.3916
2949.000000 0.3653 0.3392 0.3141 0.2890 0.2808
2944.000000 0.2729 0.2647 0.2567 0.2484 0.2404
2939.000000 0.2323 0.2242 0.2211 0.2171 0.2177
2934.000000 0.2177 0.2177 0.2177 0.2347 0.2517
2929.000000 0.2691 0.2865 0.3012 0.3159 0.3156
2924.000000 0.3154 0.3152 0.3150 0.3146 0.3174
2919.000000 0.3136 0.3127 0.3108 0.3091 0.3064
2914.000000 0.3037 0.3008 0.2980 0.2933 0.2886
2909.000000 0.2840 0.2797 0.2637 0.2473 0.2245
2904.000000 0.2017 0.1999 0.1980 0.1961 0.1943
2899.000000 0.1925 0.1907 0.1890 0.1873 0.1829
2894.000000 0.1785 0.1690 0.1594 0.1564 0.1535
2889.000000 0.1491 0.1448 0.1377 0.1308 0.1139
2884.000000 0.0971 0.0876 0.0781 0.0741 0.0702
2879.000000 0.0653 0.0605 0.0574 0.0546 0.0541
2874.000000 0.0535 0.0535 0.0536 0.0546 0.0555
2869.000000 0.0568 0.0583 0.0597 0.0611 0.0632
2864.000000 0.0653 0.0670 0.0688 0.0711 0.0734
2859.000000 0.0764 0.0795 0.0822 0.0849 0.0880
2854.000000 0.0910 0.0942 0.0974 0.1015 0.1056
2849.000000 0.1115 0.1173 0.1229 0.1287 0.1343
2844.000000 0.1399 0.1472 0.1548 0.1638 0.1726
2839.000000 0.1791 0.1858 0.1926 0.1991 0.2064
2834.000000 0.2141 0.2237 0.2335 0.2420 0.2507
2829.000000 0.2585 0.2660 0.2754 0.2846 0.3223
2824.000000 0.3601 0.3667 0.3724 0.3789 0.3850
2819.000000 0.4007 0.4161 0.4313 0.4465 0.4565
2814.000000 0.4666 0.4738 0.4809 0.4881 0.4953
2809.000000 0.5018 0.5088 0.5157 0.5225 0.5287
2804.000000 0.5351 0.5376 0.5402 0.5416 0.5431
2799.000000 0.5440 0.5449 0.5450 0.5453 0.5453
2794.000000 0.5453 0.5453 0.5450 0.5440 0.5437
2789.000000 0.5422 0.5411 0.5398 0.5385 0.5379
2784.000000 0.5383 0.5379 0.5386 0.5401 0.5414
2779.000000 0.5457 0.5500 0.5584 0.5668 0.5752
2774.000000 0.5836 0.5903 0.5970 0.6028 0.6087
2769.000000 0.6140 0.6195 0.6240 0.6287 0.6334
2764.000000 0.6381 0.6421 0.6463 0.6502 0.6541
2759.000000 0.6580 0.6618 0.6669 0.6720 0.6773
2754.000000 0.6826 0.6933 0.7041 0.7085 0.7131
2749.000000 0.7133 0.7135 0.7137 0.7141 0.7143
2744.000000 0.7146 0.7149 0.7153 0.7156 0.7159
2739.000000 0.7166 0.7174 0.7189 0.7204 0.7221
2734.000000 0.7235 0.7252 0.7267 0.7283 0.7298
2729.000000 0.7313 0.7330 0.7345 0.7361 0.7383
2724.000000 0.7405 0.7427 0.7448 0.7468 0.7489
2719.000000 0.7505 0.7520 0.7537 0.7552 0.7568
2714.000000 0.7584 0.7599 0.7616 0.7632 0.7647
2709.000000 0.7656 0.7666 0.7672 0.7679 0.7686
2704.000000 0.7693 0.7699 0.7705 0.7711 0.7715
2699.000000 0.7720 0.7724 0.7735 0.7747 0.7791
2694.000000 0.7835 0.7874 0.7911 0.7941 0.7971
2689.000000 0.7995 0.8017 0.8027 0.8039 0.8046
2684.000000 0.8053 0.8059 0.8065 0.8069 0.8075
2679.000000 0.8078 0.8084 0.8088 0.8092 0.8097
2674.000000 0.8103 0.8121 0.8140 0.8164 0.8189
2669.000000 0.8212 0.8235 0.8253 0.8271 0.8287
2664.000000 0.8306 0.8323 0.8341 0.8355 0.8370
2659.000000 0.8381 0.8394 0.8414 0.8424 0.8429
2654.000000 0.8436 0.8441 0.8447 0.8449 0.8446
2649.000000 0.8448 0.8454 0.8460 0.8461 0.8457
2644.000000 0.8452 0.8453 0.8460 0.8456 0.8453
2639.000000 0.8453 0.8453 0.8452 0.8452 0.8452
2634.000000 0.8460 0.8452 0.8445 0.8427 0.8421
2629.000000 0.8421 0.8411 0.8400 0.8390 0.8378
2624.000000 0.8366 0.8358 0.8352 0.8348 0.8345
2619.000000 0.8341 0.8325 0.8334 0.8332 0.8331
2614.000000 0.8330 0.8333 0.8336 0.8345 0.8352
2609.000000 0.8359 0.8369 0.8377 0.8385 0.8392
2604.000000 0.8400 0.8407 0.8415 0.8424 0.8431
2599.000000 0.8438 0.8446 0.8452 0.8459 0.8465
2594.000000 0.8473 0.8479 0.8486 0.8492 0.8500
2589.000000 0.8505 0.8512 0.8518 0.8527 0.8533
2584.000000 0.8540 0.8546 0.8554 0.8560 0.8566
2579.000000 0.8574 0.8580 0.8586 0.8592 0.8597
2574.000000 0.8604 0.8609 0.8615 0.8621 0.8628
2569.000000 0.8633 0.8639 0.8645 0.8652 0.8657
2564.000000 0.8663 0.8667 0.8670 0.8674 0.8678
2559.000000 0.8682 0.8686 0.8689 0.8692 0.8695
2554.000000 0.8699 0.8702 0.8706 0.8709 0.8713
2549.000000 0.8716 0.8719 0.8722 0.8726 0.8729
2544.000000 0.8734 0.8737 0.8740 0.8743 0.8746
2539.000000 0.8747 0.8749 0.8751 0.8753 0.8754
2534.000000 0.8756 0.8759 0.8761 0.8762 0.8764
2529.000000 0.8766 0.8768 0.8769 0.8771 0.8773
2524.000000 0.8774 0.8776 0.8777 0.8778 0.8778
2519.000000 0.8780 0.8781 0.8781 0.8784 0.8785
2514.000000 0.8786 0.8787 0.8789 0.8790 0.8791
2509.000000 0.8792 0.8793 0.8794 0.8795 0.8796
2504.000000 0.8797 0.8798 0.8799 0.8800 0.8801
2499.000000 0.8801 0.8802 0.8802 0.8803 0.8803
2494.000000 0.8804 0.8804 0.8805 0.8806 0.8806
2489.000000 0.8806 0.8805 0.8801 0.8798 0.8793
2484.000000 0.8789 0.8785 0.8781 0.8785 0.8788
2479.000000 0.8785 0.8781 0.8779 0.8777 0.8774
2474.000000 0.8772 0.8769 0.8767 0.8766 0.8766
2469.000000 0.8767 0.8768 0.8768 0.8769 0.8770
2464.000000 0.8771 0.8771 0.8772 0.8772 0.8771
2459.000000 0.8771 0.8765 0.8762 0.8761 0.8754
2454.000000 0.8752 0.8759 0.8761 0.8759 0.8749
2449.000000 0.8752 0.8752 0.8749 0.8747 0.8744
2444.000000 0.8739 0.8736 0.8735 0.8732 0.8732
2439.000000 0.8732 0.8732 0.8732 0.8732 0.8732
2434.000000 0.8732 0.8732 0.8732 0.8732 0.8732
2429.000000 0.8732 0.8732 0.8732 0.8732 0.8732
2424.000000 0.8732 0.8734 0.8735 0.8736 0.8736
2419.000000 0.8738 0.8739 0.8739 0.8739 0.8741
2414.000000 0.8742 0.8743 0.8744 0.8745 0.8746
2409.000000 0.8750 0.8756 0.8753 0.8761 0.8763
2404.000000 0.8764 0.8765 0.8766 0.8767 0.8768
2399.000000 0.8769 0.8770 0.8770 0.8770 0.8769
2394.000000 0.8769 0.8769 0.8769 0.8768 0.8768
2389.000000 0.8771 0.8765 0.8753 0.8743 0.8733
2384.000000 0.8732 0.8716 0.8707 0.8699 0.8683
2379.000000 0.8672 0.8664 0.8654 0.8644 0.8629
2374.000000 0.8621 0.8617 0.8609 0.8606 0.8602
2369.000000 0.8594 0.8592 0.8592 0.8592 0.8591
2364.000000 0.8591 0.8591 0.8593 0.8593 0.8605
2359.000000 0.8607 0.8616 0.8622 0.8635 0.8645
2354.000000 0.8648 0.8650 0.8652 0.8649 0.8645
2349.000000 0.8647 0.8655 0.8668 0.8676 0.8678
2344.000000 0.8673 0.8671 0.8673 0.8674 0.8676
2339.000000 0.8668 0.8678 0.8680 0.8673 0.8672
2334.000000 0.8686 0.8687 0.8690 0.8692 0.8705
2329.000000 0.8706 0.8708 0.8712 0.8722 0.8728
2324.000000 0.8737 0.8738 0.8754 0.8743 0.8745
2319.000000 0.8747 0.8749 0.8751 0.8753 0.8755
2314.000000 0.8757 0.8759 0.8762 0.8763 0.8765
2309.000000 0.8754 0.8745 0.8736 0.8728 0.8720
2304.000000 0.8713 0.8706 0.8699 0.8691 0.8684
2299.000000 0.8681 0.8681 0.8679 0.8678 0.8675
2294.000000 0.8674 0.8672 0.8671 0.8671 0.8671
2289.000000 0.8671 0.8662 0.8658 0.8658 0.8656
2284.000000 0.8656 0.8649 0.8652 0.8653 0.8656
2279.000000 0.8658 0.8652 0.8656 0.8657 0.8650
2274.000000 0.8653 0.8656 0.8656 0.8651 0.8654
2269.000000 0.8652 0.8649 0.8652 0.8655 0.8654
2264.000000 0.8656 0.8661 0.8666 0.8664 0.8666
2259.000000 0.8671 0.8667 0.8671 0.8677 0.8682
2254.000000 0.8677 0.8682 0.8687 0.8691 0.8687
2249.000000 0.8692 0.8697 0.8702 0.8708 0.8707
2244.000000 0.8704 0.8709 0.8714 0.8718 0.8724
2239.000000 0.8728 0.8733 0.8737 0.8742 0.8739
2234.000000 0.8741 0.8745 0.8750 0.8754 0.8760
2229.000000 0.8763 0.8767 0.8770 0.8770 0.8771
2224.000000 0.8769 0.8765 0.8759 0.8745 0.8742
2219.000000 0.8737 0.8734 0.8730 0.8726 0.8724
2214.000000 0.8723 0.8721 0.8720 0.8719 0.8718
2209.000000 0.8716 0.8715 0.8714 0.8713 0.8712
2204.000000 0.8711 0.8709 0.8708 0.8708 0.8709
2199.000000 0.8710 0.8712 0.8714 0.8715 0.8708
2194.000000 0.8719 0.8718 0.8711 0.8712 0.8714
2189.000000 0.8715 0.8718 0.8718 0.8722 0.8723
2184.000000 0.8731 0.8730 0.8728 0.8729 0.8731
2179.000000 0.8733 0.8744 0.8747 0.8749 0.8750
2174.000000 0.8752 0.8753 0.8755 0.8757 0.8759
2169.000000 0.8759 0.8752 0.8753 0.8755 0.8756
2164.000000 0.8756 0.8757 0.8757 0.8756 0.8755
2159.000000 0.8753 0.8750 0.8747 0.8745 0.8742
2154.000000 0.8740 0.8737 0.8735 0.8732 0.8730
2149.000000 0.8727 0.8725 0.8722 0.8720 0.8718
2144.000000 0.8715 0.8713 0.8711 0.8708 0.8704
2139.000000 0.8700 0.8697 0.8693 0.8690 0.8686
2134.000000 0.8682 0.8673 0.8666 0.8656 0.8648
2129.000000 0.8644 0.8641 0.8641 0.8641 0.8641
2124.000000 0.8641 0.8641 0.8632 0.8639 0.8641
2119.000000 0.8643 0.8645 0.8648 0.8651 0.8654
2114.000000 0.8658 0.8661 0.8666 0.8669 0.8673
2109.000000 0.8676 0.8679 0.8684 0.8691 0.8696
2104.000000 0.8701 0.8706 0.8711 0.8716 0.8722
2099.000000 0.8727 0.8724 0.8724 0.8737 0.8741
2094.000000 0.8734 0.8745 0.8749 0.8751 0.8753
2089.000000 0.8755 0.8757 0.8759 0.8762 0.8764
2084.000000 0.8766 0.8768 0.8769 0.8773 0.8776
2079.000000 0.8777 0.8777 0.8777 0.8777 0.8776
2074.000000 0.8773 0.8772 0.8771 0.8769 0.8768
2069.000000 0.8763 0.8761 0.8755 0.8750 0.8746
2064.000000 0.8742 0.8738 0.8734 0.8730 0.8724
2059.000000 0.8721 0.8717 0.8714 0.8719 0.8714
2054.000000 0.8710 0.8706 0.8697 0.8691 0.8693
2049.000000 0.8681 0.8671 0.8665 0.8660 0.8654
2044.000000 0.8649 0.8643 0.8638 0.8632 0.8626
2039.000000 0.8620 0.8616 0.8608 0.8599 0.8591
2034.000000 0.8584 0.8575 0.8568 0.8560 0.8551
2029.000000 0.8543 0.8539 0.8531 0.8513 0.8507
2024.000000 0.8502 0.8492 0.8482 0.8470 0.8460
2019.000000 0.8448 0.8437 0.8425 0.8413 0.8401
2014.000000 0.8392 0.8379 0.8367 0.8355 0.8342
2009.000000 0.8330 0.8318 0.8306 0.8295 0.8281
2004.000000 0.8268 0.8252 0.8237 0.8213 0.8192
1999.000000 0.8193 0.8144 0.8133 0.8130 0.8130
1994.000000 0.8159 0.8193 0.8218 0.8241 0.8255
1989.000000 0.8258 0.8262 0.8265 0.8265 0.8283
1984.000000 0.8305 0.8327 0.8347 0.8361 0.8376
1979.000000 0.8388 0.8392 0.8406 0.8411 0.8414
1974.000000 0.8420 0.8424 0.8428 0.8435 0.8439
1969.000000 0.8442 0.8444 0.8446 0.8454 0.8454
1964.000000 0.8452 0.8462 0.8467 0.8469 0.8471
1959.000000 0.8473 0.8474 0.8475 0.8476 0.8476
1954.000000 0.8468 0.8468 0.8465 0.8461 0.8456
1949.000000 0.8444 0.8436 0.8429 0.8424 0.8424
1944.000000 0.8424 0.8424 0.8424 0.8427 0.8428
1939.000000 0.8431 0.8433 0.8435 0.8458 0.8480
1934.000000 0.8487 0.8497 0.8510 0.8522 0.8534
1929.000000 0.8546 0.8559 0.8570 0.8582 0.8595
1924.000000 0.8605 0.8608 0.8610 0.8613 0.8617
1919.000000 0.8620 0.8622 0.8625 0.8626 0.8627
1914.000000 0.8627 0.8625 0.8623 0.8620 0.8617
1909.000000 0.8615 0.8612 0.8618 0.8619 0.8617
1904.000000 0.8617 0.8617 0.8617 0.8618 0.8620
1899.000000 0.8622 0.8624 0.8626 0.8628 0.8628
1894.000000 0.8628 0.8628 0.8629 0.8625 0.8618
1889.000000 0.8618 0.8618 0.8618 0.8618 0.8620
1884.000000 0.8628 0.8632 0.8625 0.8602 0.8578
1879.000000 0.8554 0.8526 0.8490 0.8457 0.8430
1874.000000 0.8395 0.8357 0.8318 0.8279 0.8244
1869.000000 0.8211 0.8177 0.8143 0.8109 0.8080
1864.000000 0.8053 0.8026 0.8007 0.7998 0.7988
1859.000000 0.7977 0.7967 0.7964 0.7953 0.7949
1854.000000 0.7949 0.7949 0.7949 0.7952 0.7973
1849.000000 0.7995 0.8017 0.8037 0.8059 0.8085
1844.000000 0.8121 0.8156 0.8191 0.8226 0.8261
1839.000000 0.8295 0.8330 0.8363 0.8392 0.8420
1834.000000 0.8453 0.8481 0.8506 0.8531 0.8556
1829.000000 0.8582 0.8607 0.8632 0.8648 0.8661
1824.000000 0.8673 0.8686 0.8697 0.8709 0.8722
1819.000000 0.8740 0.8748 0.8756 0.8763 0.8771
1814.000000 0.8778 0.8784 0.8790 0.8795 0.8801
1809.000000 0.8802 0.8801 0.8807 0.8812 0.8817
1804.000000 0.8816 0.8812 0.8795 0.8817 0.8819
1799.000000 0.8820 0.8820 0.8820 0.8817 0.8814
1794.000000 0.8812 0.8807 0.8800 0.8793 0.8785
1789.000000 0.8778 0.8771 0.8763 0.8755 0.8750
1784.000000 0.8745 0.8741 0.8735 0.8730 0.8722
1779.000000 0.8713 0.8704 0.8696 0.8681 0.8667
1774.000000 0.8659 0.8651 0.8643 0.8642 0.8640
1769.000000 0.8644 0.8644 0.8644 0.8644 0.8642
1764.000000 0.8641 0.8633 0.8623 0.8616 0.8607
1759.000000 0.8601 0.8601 0.8595 0.8588 0.8582
1754.000000 0.8574 0.8568 0.8561 0.8555 0.8547
1749.000000 0.8540 0.8533 0.8525 0.8517 0.8509
1744.000000 0.8502 0.8498 0.8500 0.8500 0.8501
1739.000000 0.8503 0.8504 0.8507 0.8510 0.8513
1734.000000 0.8515 0.8519 0.8522 0.8526 0.8529
1729.000000 0.8532 0.8535 0.8538 0.8538 0.8541
1724.000000 0.8539 0.8539 0.8538 0.8537 0.8537
1719.000000 0.8536 0.8535 0.8534 0.8534 0.8533
1714.000000 0.8533 0.8534 0.8532 0.8532 0.8532
1709.000000 0.8533 0.8533 0.8533 0.8534 0.8534
1704.000000 0.8534 0.8534 0.8535 0.8537 0.8537
1699.000000 0.8539 0.8539 0.8539 0.8536 0.8534
1694.000000 0.8531 0.8527 0.8523 0.8519 0.8515
1689.000000 0.8512 0.8509 0.8505 0.8500 0.8495
1684.000000 0.8491 0.8488 0.8484 0.8480 0.8476
1679.000000 0.8471 0.8465 0.8460 0.8454 0.8449
1674.000000 0.8442 0.8440 0.8437 0.8427 0.8417
1669.000000 0.8406 0.8395 0.8384 0.8360 0.8334
1664.000000 0.8306 0.8264 0.8195 0.8132 0.8094
1659.000000 0.8042 0.7996 0.7946 0.7884 0.7820
1654.000000 0.7743 0.7667 0.7585 0.5560 0.5566
1649.000000 0.5584 0.5935 0.6167 0.6403 0.6642
1644.000000 0.6875 0.7108 0.7344 0.7583 0.7721
1639.000000 0.7783 0.7851 0.7915 0.7982 0.8031
1634.000000 0.8073 0.8122 0.8150 0.8162 0.8186
1629.000000 0.8194 0.8193 0.8201 0.8190 0.8173
1624.000000 0.8174 0.8171 0.8177 0.8171 0.8162
1619.000000 0.8161 0.8151 0.8143 0.8146 0.8148
1614.000000 0.8149 0.8147 0.8147 0.8155 0.8146
1609.000000 0.8151 0.8150 0.8127 0.8127 0.8105
1604.000000 0.8125 0.8104 0.8074 0.8016 0.7991
1599.000000 0.7946 0.7908 0.7864 0.7766 0.7627
1594.000000 0.7537 0.7475 0.7435 0.7418 0.7387
1589.000000 0.7368 0.7357 0.7356 0.7374 0.7383
1584.000000 0.7399 0.7418 0.7407 0.7401 0.7387
1579.000000 0.7377 0.7354 0.7342 0.7313 0.7270
1574.000000 0.7237 0.7191 0.7078 0.6986 0.6888
1569.000000 0.6812 0.6732 0.6656 0.6580 0.6510
1564.000000 0.6439 0.6389 0.6354 0.6344 0.6388
1559.000000 0.6430 0.6472 0.6522 0.6579 0.6652
1554.000000 0.6712 0.6765 0.6843 0.6910 0.6955
1549.000000 0.7011 0.7050 0.7090 0.7158 0.7207
1544.000000 0.7253 0.7291 0.7322 0.7333 0.7342
1539.000000 0.7339 0.7339 0.7317 0.7329 0.7365
1534.000000 0.7434 0.7488 0.7518 0.7548 0.7554
1529.000000 0.7560 0.7572 0.7581 0.7602 0.7625
1524.000000 0.7655 0.7678 0.7709 0.7728 0.7753
1519.000000 0.7776 0.7790 0.7816 0.7844 0.7865
1514.000000 0.7874 0.7866 0.7867 0.7858 0.7854
1509.000000 0.7872 0.7887 0.7903 0.7905 0.7876
1504.000000 0.7847 0.7814 0.7776 0.7730 0.7758
1499.000000 0.7606 0.7521 0.7431 0.7330 0.7249
1494.000000 0.7162 0.7076 0.6590 0.5840 0.5095
1489.000000 0.4967 0.4954 0.4997 0.5251 0.5501
1484.000000 0.5755 0.6016 0.6283 0.6547 0.6812
1479.000000 0.6782 0.6744 0.6679 0.6608 0.6550
1474.000000 0.6510 0.6508 0.6505 0.6501 0.6496
1469.000000 0.6465 0.6390 0.6321 0.6242 0.6138
1464.000000 0.5573 0.5015 0.4139 0.4166 0.4166
1459.000000 0.4252 0.4343 0.4437 0.4532 0.4568
1454.000000 0.4570 0.4502 0.4211 0.4112 0.4151
1449.000000 0.4164 0.4183 0.4207 0.4277 0.4384
1444.000000 0.4485 0.4750 0.5071 0.5401 0.5348
1439.000000 0.5330 0.5314 0.5293 0.5252 0.5210
1434.000000 0.5177 0.5148 0.5117 0.5073 0.5024
1429.000000 0.4971 0.4914 0.4859 0.4807 0.4752
1424.000000 0.4182 0.4075 0.4134 0.4295 0.4457
1419.000000 0.4620 0.4782 0.4944 0.5101 0.5262
1414.000000 0.5300 0.5299 0.5299 0.5295 0.5280
1409.000000 0.5061 0.4840 0.4620 0.4401 0.4179
1404.000000 0.3960 0.3741 0.3519 0.3300 0.3102
1399.000000 0.3102 0.3095 0.3233 0.3508 0.3784
1394.000000 0.4060 0.4335 0.4611 0.4887 0.5096
1389.000000 0.5093 0.4995 0.4836 0.4773 0.4756
1384.000000 0.4730 0.4697 0.4666 0.4635 0.4607
1379.000000 0.3753 0.3779 0.3734 0.3812 0.4041
1374.000000 0.4274 0.4506 0.4739 0.4972 0.5204
1369.000000 0.5437 0.5669 0.5902 0.6135 0.6367
1364.000000 0.6582 0.6562 0.6563 0.6198 0.5732
1359.000000 0.5267 0.4801 0.3983 0.3951 0.3951
1354.000000 0.4027 0.4115 0.4203 0.4291 0.4379
1349.000000 0.4467 0.4456 0.4474 0.3813 0.3073
1344.000000 0.2649 0.2651 0.2837 0.3444 0.4049
1339.000000 0.4655 0.5263 0.5871 0.6746 0.6904
1334.000000 0.7033 0.7154 0.7231 0.7284 0.7319
1329.000000 0.7344 0.7377 0.7412 0.7434 0.7452
1324.000000 0.7476 0.7497 0.7509 0.7524 0.7538
1319.000000 0.7564 0.7565 0.7571 0.7576 0.7565
1314.000000 0.7555 0.7535 0.7506 0.7477 0.7443
1309.000000 0.7399 0.7354 0.7308 0.7246 0.7168
1304.000000 0.7070 0.6963 0.6859 0.6776 0.6707
1299.000000 0.6639 0.6549 0.6481 0.6452 0.6431
1294.000000 0.6414 0.6401 0.6418 0.6475 0.6557
1289.000000 0.6613 0.6650 0.6608 0.6597 0.6561
1284.000000 0.6477 0.6365 0.6242 0.6149 0.6055
1279.000000 0.5962 0.5870 0.5779 0.5705 0.5650
1274.000000 0.5594 0.5545 0.5509 0.5476 0.5444
1269.000000 0.5406 0.5369 0.5383 0.5398 0.5491
1264.000000 0.5700 0.5923 0.6161 0.6438 0.6720
1259.000000 0.6902 0.7035 0.7126 0.7218 0.7285
1254.000000 0.7328 0.7362 0.7399 0.7420 0.7427
1249.000000 0.7432 0.7407 0.7372 0.7339 0.7308
1244.000000 0.7275 0.7274 0.7278 0.7315 0.7360
1239.000000 0.7416 0.7474 0.7527 0.7582 0.7637
1234.000000 0.7685 0.7736 0.7783 0.7817 0.7842
1229.000000 0.7857 0.7866 0.7869 0.7875 0.7894
1224.000000 0.7877 0.7868 0.7856 0.7845 0.7830
1219.000000 0.7816 0.7802 0.7787 0.7772 0.7757
1214.000000 0.7733 0.7712 0.7695 0.7671 0.7648
1209.000000 0.7625 0.7606 0.7585 0.7565 0.7544
1204.000000 0.7522 0.7476 0.7417 0.7372 0.7330
1199.000000 0.7287 0.7241 0.7203 0.7154 0.7094
1194.000000 0.7034 0.6982 0.6873 0.6764 0.6674
1189.000000 0.6588 0.6499 0.6389 0.6277 0.6159
1184.000000 0.6044 0.5801 0.5569 0.5277 0.4796
1179.000000 0.4478 0.4452 0.4425 0.4416 0.4410
1174.000000 0.4373 0.4259 0.4144 0.4029 0.3914
1169.000000 0.3799 0.3685 0.3575 0.3459 0.3344
1164.000000 0.3229 0.3113 0.3006 0.2923 0.2838
1159.000000 0.2755 0.2654 0.2554 0.2383 0.2137
1154.000000 0.2058 0.1670 0.1662 0.1663 0.1670
1149.000000 0.1682 0.1693 0.1709 0.1726 0.1740
1144.000000 0.1742 0.1742 0.1738 0.1684 0.1528
1139.000000 0.1404 0.1192 0.1029 0.0912 0.0763
1134.000000 0.0599 0.0510 0.0429 0.0361 0.0330
1129.000000 0.0303 0.0297 0.0293 0.0289 0.0291
1124.000000 0.0293 0.0294 0.0297 0.0308 0.0321
1119.000000 0.0299 0.0269 0.0238 0.0211 0.0184
1114.000000 0.0166 0.0153 0.0139 0.0132 0.0130
1109.000000 0.0129 0.0129 0.0129 0.0132 0.0139
1104.000000 0.0152 0.0164 0.0177 0.0216 0.0263
1099.000000 0.0342 0.0428 0.0538 0.0676 0.0997
1094.000000 0.1245 0.1530 0.1741 0.1894 0.2088
1089.000000 0.2264 0.2440 0.2615 0.2791 0.2967
1084.000000 0.3032 0.3001 0.3001 0.2998 0.2880
1079.000000 0.2696 0.2511 0.2328 0.2144 0.2121
1074.000000 0.2120 0.2129 0.2156 0.2360 0.2505
1069.000000 0.2650 0.2801 0.2953 0.3103 0.3242
1064.000000 0.3381 0.3576 0.3740 0.3900 0.4058
1059.000000 0.4210 0.4374 0.4532 0.4685 0.4842
1054.000000 0.5000 0.5159 0.5316 0.5477 0.5639
1049.000000 0.5798 0.5887 0.5939 0.5972 0.5987
1044.000000 0.6027 0.6014 0.6018 0.6018 0.6013
1039.000000 0.5996 0.5963 0.5918 0.5869 0.5777
1034.000000 0.5686 0.5602 0.5519 0.5367 0.5158
1029.000000 0.4914 0.4739 0.4620 0.4573 0.4529
1024.000000 0.4492 0.4439 0.4338 0.4180 0.4015
1019.000000 0.3850 0.3674 0.3689 0.3694 0.3714
1014.000000 0.3735 0.3796 0.4013 0.4159 0.4239
1009.000000 0.4223 0.4229 0.4226 0.4193 0.4120
1004.000000 0.4009 0.3648 0.3136 0.2624 0.2112
999.000000 0.1601 0.1525 0.1529 0.1538 0.1546
994.000000 0.1554 0.1721 0.1991 0.2260 0.2429
989.000000 0.2482 0.2515 0.2570 0.2640 0.2756
984.000000 0.2894 0.3103 0.3643 0.4185 0.4661
979.000000 0.4801 0.4940 0.5084 0.5225 0.5366
974.000000 0.5506 0.5782 0.5916 0.6049 0.6175
969.000000 0.6312 0.6450 0.6643 0.6779 0.6872
964.000000 0.6941 0.7002 0.7036 0.7057 0.7069
959.000000 0.7082 0.7092 0.7089 0.7106 0.7108
954.000000 0.7108 0.7058 0.7003 0.6946 0.6889
949.000000 0.6806 0.6708 0.6627 0.6569 0.6510
944.000000 0.6451 0.6375 0.6288 0.6130 0.5873
939.000000 0.5619 0.5363 0.5107 0.4852 0.4597
934.000000 0.4342 0.4086 0.3831 0.3211 0.2765
929.000000 0.2318 0.1872 0.1427 0.0981 0.0534
924.000000 0.0405 0.0393 0.0392 0.0392 0.0396
919.000000 0.0435 0.0500 0.0620 0.0816 0.1410
914.000000 0.1948 0.2487 0.3027 0.3568 0.3967
909.000000 0.4641 0.5312 0.5925 0.6194 0.6380
904.000000 0.6488 0.6595 0.6721 0.6816 0.6876
899.000000 0.6899 0.6926 0.6935 0.6943 0.6948
894.000000 0.6953 0.6941 0.6913 0.6861 0.6750
889.000000 0.6415 0.6081 0.5742 0.5682 0.5698
884.000000 0.5774 0.5926 0.6073 0.6290 0.6689
879.000000 0.6774 0.6800 0.6825 0.6851 0.6881
874.000000 0.6926 0.7032 0.7116 0.7189 0.7243
869.000000 0.7272 0.7292 0.7323 0.7333 0.7346
864.000000 0.7358 0.7369 0.7366 0.7358 0.7353
859.000000 0.7334 0.7303 0.7245 0.7187 0.7129
854.000000 0.7053 0.6926 0.6656 0.6579 0.6540
849.000000 0.6521 0.6611 0.6787 0.6874 0.6964
844.000000 0.7031 0.7086 0.7237 0.7473 0.7715
839.000000 0.7965 0.8115 0.8145 0.8171 0.8219
834.000000 0.8251 0.8272 0.8293 0.8306 0.8314
829.000000 0.8315 0.8307 0.8305 0.8301 0.8297
824.000000 0.8283 0.8258 0.8208 0.8154 0.8110
819.000000 0.8078 0.8075 0.8075 0.8094 0.8107
814.000000 0.8175 0.8232 0.8281 0.8313 0.8315
809.000000 0.8319 0.8310 0.8289 0.8277 0.8267
804.000000 0.8247 0.8228 0.8262 0.8299 0.8337
799.000000 0.8374 0.8406 0.8436 0.8466 0.8497
794.000000 0.8519 0.8545 0.8573 0.8603 0.8614
789.000000 0.8634 0.8653 0.8674 0.8693 0.8709
784.000000 0.8723 0.8726 0.8731 0.8739 0.8741
779.000000 0.8750 0.8756 0.8758 0.8767 0.8776
774.000000 0.8786 0.8789 0.8835 0.8788 0.8788
769.000000 0.8779 0.8774 0.8773 0.8772 0.8762
764.000000 0.8759 0.8758 0.8756 0.8755 0.8753
759.000000 0.8751 0.8750 0.8748 0.8746 0.8745
754.000000 0.8745 0.8752 0.8751 0.8747 0.8746
749.000000 0.8744 0.8743 0.8742 0.8740 0.8740
744.000000 0.8739 0.8737 0.8736 0.8734 0.8733
739.000000 0.8732 0.8729 0.8727 0.8725 0.8722
734.000000 0.8720 0.8717 0.8715 0.8714 0.8721
729.000000 0.8719 0.8717 0.8715 0.8715 0.8720
724.000000 0.8715 0.8716 0.8719 0.8721 0.8719
719.000000 0.8709 0.8702 0.8705 0.8704 0.8699
714.000000 0.8708 0.8712 0.8713 0.8712 0.8710
709.000000 0.8709 0.8707 0.8706 0.8704 0.8702
704.000000 0.8701 0.8710 0.8707 0.8702 0.8704
699.000000 0.8697 0.8691 0.8685 0.8679 0.8677
694.000000 0.8676 0.8670 0.8664 0.8657 0.8651
689.000000 0.8641 0.8640 0.8635 0.8625 0.8617
684.000000 0.8599 0.8579 0.8551 0.8523 0.8505
679.000000 0.8475 0.8463 0.8442 0.8428 0.8404
674.000000 0.8360 0.8324 0.8280 0.8244 0.8226
669.000000 0.8266 0.8281 0.8179 0.8087 0.8048
664.000000 0.8019 0.7985 0.7959 0.7941 0.7927
659.000000 0.7887 0.7629 0.7735 0.7677 0.7678
654.000000 0.7682 0.7683 0.7676 0.7683 0.7681
649.000000 0.7680 0.7677 0.7686 0.7694 0.7707
644.000000 0.7714 0.7715 0.7722 0.7727 0.7718
639.000000 0.7711 0.7696 0.7680 0.7673 0.7667
634.000000 0.7654 0.7650 0.7645 0.7649 0.7659
629.000000 0.7671 0.7675 0.7685 0.7709 0.7737
624.000000 0.7764 0.7780 0.7807 0.7834 0.7859
619.000000 0.7889 0.7924 0.7948 0.7966 0.7994
614.000000 0.8017 0.8036 0.8063 0.8081 0.8097
609.000000 0.8114 0.8128 0.8139 0.8151 0.8167
604.000000 0.8182 0.8192 0.8201 0.8210 0.8221
599.000000 0.8230 0.8239 0.8247 0.8274 0.8259
594.000000 0.8251 0.8242 0.8232 0.8220 0.8198
589.000000 0.8173 0.8144 0.8116 0.8100 0.8109
584.000000 0.8111 0.8121 0.8130 0.8141 0.8151
579.000000 0.8161 0.8161 0.8150 0.8137 0.8125
574.000000 0.8120 0.8100 0.8072 0.8044 0.8016
569.000000 0.7989 0.7950 0.7898 0.7858 0.7799
564.000000 0.7655 0.7525 0.7405 0.6781 0.6704
559.000000 0.6704 0.6704 0.6704 0.6735 0.6761
554.000000 0.6810 0.6891 0.7195 0.7356 0.7455
549.000000 0.7553 0.7665 0.7761 0.7824 0.7883
544.000000 0.7920 0.7960 0.7989 0.8006 0.8022
539.000000 0.8035 0.8056 0.8068 0.8088 0.8090
534.000000 0.8090 0.8101 0.8145 0.8111 0.8110
529.000000 0.8112 0.8112 0.8113 0.8120 0.8120
524.000000 0.8116 0.8109 0.8103 0.8098 0.8091
519.000000 0.8078 0.8064 0.8052 0.8038 0.8025
514.000000 0.8011 0.7994 0.7975 0.7955 0.7937
509.000000 0.7917 0.7897 0.7879 0.7862 0.7844
504.000000 0.7827 0.7809 0.7789 0.7773 0.7753
499.000000 0.7736 0.7718 0.7693 0.7667 0.7641
494.000000 0.7609 0.7576 0.7540 0.7504 0.7461
489.000000 0.7418 0.7357 0.7333 0.7337 0.7338
484.000000 0.7338 0.7338 0.7338 0.7338 0.7337
479.000000 0.7336 0.7334 0.7333 0.7330 0.7318
474.000000 0.7306 0.7295 0.7282 0.7260 0.7240
469.000000 0.7218 0.7196 0.7173 0.7143 0.7111
464.000000 0.7079 0.7048 0.7016 0.6977 0.6939
459.000000 0.6899 0.6860 0.6822 0.6784 0.6749
454.000000 0.6714 0.6679 0.6643 0.6608 0.6572
449.000000 0.6533 0.6496 0.6458 0.6418 0.6373
444.000000 0.6327 0.6281 0.6235 0.6177 0.6119
439.000000 0.6062 0.6007 0.5895 0.5823 0.5750
434.000000 0.5679 0.5606 0.5535 0.5462 0.5391
429.000000 0.5318 0.5246 0.5166 0.5084 0.5002
424.000000 0.4846 0.4690 0.4580 0.4470 0.4057
419.000000 0.3804 0.3534 0.3286 0.3055 0.2693
414.000000 0.2136 0.2008 0.1889 0.1763 0.1466
409.000000 0.1169
##END=
