##TITLE=2-QuinolineCarboxylic acid, 4-hydroxy-8-methoxy-, ethyl ester
##JCAMP-DX=4.24
##DATA TYPE=INFRARED SPECTRUM
##CLASS=COBLENTZ II
##ORIGIN=K. K. DEB-NCI FREDERICK CANCER RESEARCH CENTER
##OWNER=Copyright (C) 1987 by the Coblentz Society
Collection (C) 2018 copyright by the U.S. Secretary of Commerce
on behalf of the United States of America. All rights reserved.
##DATE=1976/02/26
##NAMES=ethyl 4-hydroxy-8-methoxy-2-quinolinecarboxylate
Quinaldic acid, 4-hydroxy-8-methoxy-, ethyl ester
##CAS REGISTRY NO=55895-59-5
##MOLFORM=C13 H13 N O4
##SOURCE REFERENCE=COBLENTZ NO. 9702
##$NIST SOURCE=COBLENTZ
##$NIST IMAGE=cob9702
##SPECTROMETER/DATA SYSTEM=PERKIN-ELMER 180 (GRATING)
##INSTRUMENT PARAMETERS=GRATINGS: 2000, 1000, 500, 250 CM^-^1; FILTER CHANGE: 2970, 2000, 1485, 1000, 743, 500, 372, 250, 186 CM^-^1.
##STATE=SOLID (SPLIT MULL), HALOCARBON FOR 3800-1330 CM^-^1, NUJOL FOR 1330-400 CM^-^1
$$ PURITY - ANALYTICAL
$$ SEE SECTRUM NO. 9018 FOR "MELT" AND SPECTRUM NO. 9701 FOR "PELLET" RUN
##SAMPLING PROCEDURE=TRANSMISSION
##RESOLUTION=2
##DATA PROCESSING=DIGITIZED BY COBLENTZ SOCIETY (BATCH II) FROM HARD COPY
##XUNITS=1/CM
##YUNITS=TRANSMITTANCE
##XFACTOR=1.0
##YFACTOR=1
##FIRSTX=397
##LASTX=3790
##FIRSTY=0.7112
##MAXX=3790
##MINX=397
##MAXY=0.9321
##MINY=0.0145
##NPOINTS=3394
##XYDATA=(X++(Y..Y))
397.000000 0.7112 0.7209 0.7282 0.7354 0.7425
402.000000 0.7487 0.7546 0.7606 0.7665 0.7725
407.000000 0.7778 0.7832 0.7885 0.7939 0.7992
412.000000 0.8047 0.8101 0.8156 0.8198 0.8221
417.000000 0.8243 0.8266 0.8289 0.8305 0.8314
422.000000 0.8323 0.8331 0.8340 0.8348 0.8355
427.000000 0.8363 0.8370 0.8407 0.8385 0.8388
432.000000 0.8376 0.8361 0.8331 0.8300 0.8270
437.000000 0.8226 0.8176 0.8127 0.8081 0.8036
442.000000 0.7992 0.7953 0.7914 0.7875 0.7835
447.000000 0.7791 0.7742 0.7694 0.7672 0.7657
452.000000 0.7671 0.7666 0.7713 0.7759 0.7805
457.000000 0.7833 0.7831 0.7826 0.7818 0.7808
462.000000 0.7794 0.7777 0.7750 0.7723 0.7696
467.000000 0.7668 0.7639 0.7596 0.7551 0.7502
472.000000 0.7449 0.7395 0.7342 0.7262 0.7172
477.000000 0.7084 0.7019 0.6954 0.6889 0.6824
482.000000 0.6749 0.6667 0.6586 0.6478 0.6352
487.000000 0.6226 0.6100 0.5974 0.5848 0.5721
492.000000 0.5595 0.5469 0.5378 0.5339 0.5336
497.000000 0.5383 0.5431 0.5479 0.5525 0.5475
502.000000 0.5338 0.5200 0.5062 0.4925 0.4844
507.000000 0.4854 0.5073 0.5366 0.5660 0.5953
512.000000 0.6246 0.6540 0.6771 0.6755 0.6759
517.000000 0.6581 0.6364 0.6146 0.5928 0.5711
522.000000 0.5493 0.5275 0.5092 0.5025 0.4984
527.000000 0.4966 0.4955 0.4959 0.4955 0.4993
532.000000 0.5031 0.5145 0.5259 0.5373 0.5487
537.000000 0.5600 0.5714 0.5828 0.5942 0.6056
542.000000 0.6121 0.6174 0.6238 0.6305 0.6372
547.000000 0.6455 0.6538 0.6621 0.6685 0.6748
552.000000 0.6811 0.6875 0.6930 0.6985 0.7046
557.000000 0.7098 0.7133 0.7149 0.7151 0.7137
562.000000 0.7112 0.7087 0.7062 0.7028 0.7007
567.000000 0.6997 0.7007 0.7038 0.7121 0.7205
572.000000 0.7288 0.7372 0.7453 0.7460 0.7447
577.000000 0.7270 0.7091 0.6911 0.6732 0.6553
582.000000 0.6373 0.6194 0.6186 0.6299 0.6626
587.000000 0.6953 0.7280 0.7608 0.7766 0.7874
592.000000 0.7957 0.7988 0.8013 0.8038 0.8063
597.000000 0.8083 0.8099 0.8115 0.8131 0.8147
602.000000 0.8164 0.8172 0.8180 0.8188 0.8195
607.000000 0.8203 0.8210 0.8213 0.8216 0.8227
612.000000 0.8217 0.8213 0.8209 0.8205 0.8192
617.000000 0.8168 0.8141 0.8106 0.8071 0.8027
622.000000 0.7969 0.7903 0.7803 0.7722 0.7654
627.000000 0.7584 0.7396 0.7002 0.6608 0.6214
632.000000 0.5820 0.5426 0.5032 0.4638 0.4244
637.000000 0.3850 0.3456 0.3140 0.2980 0.2920
642.000000 0.2873 0.2827 0.2785 0.2764 0.2773
647.000000 0.2775 0.2921 0.3169 0.3417 0.3666
652.000000 0.3914 0.4162 0.4410 0.4658 0.4906
657.000000 0.5155 0.5403 0.5651 0.5899 0.6147
662.000000 0.6395 0.6644 0.6892 0.7140 0.7388
667.000000 0.7636 0.7884 0.8133 0.8381 0.8596
672.000000 0.8733 0.8888 0.9024 0.9116 0.9198
677.000000 0.9243 0.9280 0.9292 0.9305 0.9314
682.000000 0.9321 0.9310 0.9284 0.9249 0.9185
687.000000 0.9119 0.8927 0.8612 0.8296 0.7981
692.000000 0.7665 0.7350 0.7329 0.7490 0.7747
697.000000 0.8004 0.8260 0.8517 0.8895 0.8872
702.000000 0.8872 0.8482 0.7794 0.7106 0.6418
707.000000 0.6012 0.6015 0.6246 0.6571 0.6897
712.000000 0.7222 0.7547 0.7873 0.8198 0.8394
717.000000 0.8373 0.8314 0.8291 0.8302 0.8353
722.000000 0.8404 0.8455 0.8505 0.8556 0.8606
727.000000 0.8664 0.8690 0.8708 0.8726 0.8734
732.000000 0.8739 0.8744 0.8737 0.8738 0.8730
737.000000 0.8718 0.8705 0.8691 0.8677 0.8647
742.000000 0.8607 0.8570 0.8456 0.8298 0.7807
747.000000 0.7041 0.6274 0.5508 0.4742 0.4280
752.000000 0.4282 0.4277 0.4692 0.5097 0.5503
757.000000 0.5908 0.6234 0.6270 0.6307 0.6350
762.000000 0.6515 0.6742 0.6970 0.7197 0.7425
767.000000 0.7652 0.7880 0.8141 0.8131 0.7434
772.000000 0.6642 0.5850 0.5057 0.4265 0.3473
777.000000 0.2680 0.1888 0.1312 0.1312 0.1494
782.000000 0.2317 0.3141 0.3964 0.4689 0.4717
787.000000 0.4759 0.5300 0.5936 0.6572 0.7207
792.000000 0.7843 0.8479 0.9054 0.9168 0.9178
797.000000 0.9183 0.9180 0.9177 0.9171 0.9156
802.000000 0.9096 0.8678 0.8260 0.7842 0.7424
807.000000 0.7006 0.6588 0.6169 0.5751 0.5333
812.000000 0.5281 0.5243 0.5231 0.5215 0.5282
817.000000 0.5862 0.6441 0.7021 0.7600 0.8180
822.000000 0.8732 0.8875 0.8947 0.9000 0.9026
827.000000 0.9051 0.9063 0.9069 0.9086 0.9067
832.000000 0.9061 0.9053 0.9030 0.8994 0.8944
837.000000 0.8889 0.8789 0.8676 0.8571 0.8138
842.000000 0.7642 0.7146 0.6650 0.6154 0.6005
847.000000 0.6122 0.6412 0.6702 0.6993 0.7283
852.000000 0.7480 0.7490 0.6082 0.5011 0.3939
857.000000 0.3814 0.3799 0.3789 0.3612 0.3384
862.000000 0.3156 0.3119 0.3611 0.4117 0.4623
867.000000 0.5129 0.5635 0.6141 0.6647 0.7153
872.000000 0.7659 0.8165 0.8388 0.8406 0.8394
877.000000 0.8322 0.8250 0.8194 0.8197 0.8271
882.000000 0.8408 0.8544 0.8681 0.8795 0.8799
887.000000 0.8788 0.8778 0.8758 0.8698 0.8618
892.000000 0.8539 0.8459 0.8380 0.8300 0.8221
897.000000 0.8141 0.8062 0.8001 0.7984 0.8066
902.000000 0.8360 0.8653 0.8771 0.8781 0.8787
907.000000 0.8786 0.8782 0.8798 0.8712 0.8666
912.000000 0.8625 0.8599 0.8598 0.8590 0.8610
917.000000 0.8672 0.8724 0.8759 0.8759 0.8759
922.000000 0.8757 0.8766 0.8749 0.8742 0.8733
927.000000 0.8719 0.8705 0.8692 0.8680 0.8671
932.000000 0.8662 0.8654 0.8646 0.8638 0.8630
937.000000 0.8622 0.8614 0.8606 0.8597 0.8588
942.000000 0.8579 0.8570 0.8562 0.8553 0.8545
947.000000 0.8536 0.8528 0.8517 0.8503 0.8490
952.000000 0.8476 0.8459 0.8434 0.8409 0.8384
957.000000 0.8359 0.8330 0.8299 0.8268 0.8232
962.000000 0.8196 0.8159 0.8124 0.8089 0.8050
967.000000 0.7993 0.7935 0.7878 0.7851 0.7851
972.000000 0.7866 0.7897 0.7928 0.7959 0.7957
977.000000 0.7951 0.7874 0.7780 0.7687 0.7593
982.000000 0.7499 0.7405 0.7311 0.6999 0.6717
987.000000 0.6425 0.6132 0.5839 0.5705 0.5704
992.000000 0.5792 0.5896 0.6001 0.6106 0.6211
997.000000 0.6306 0.6299 0.6155 0.6337 0.5409
1002.000000 0.5035 0.4662 0.4288 0.3915 0.3541
1007.000000 0.3168 0.2794 0.2421 0.2047 0.1833
1012.000000 0.1789 0.1772 0.1768 0.1773 0.2040
1017.000000 0.2435 0.2830 0.3225 0.3620 0.4015
1022.000000 0.4410 0.4805 0.5200 0.5596 0.5991
1027.000000 0.6386 0.6901 0.7018 0.7090 0.7157
1032.000000 0.7211 0.7245 0.7269 0.7277 0.7285
1037.000000 0.7299 0.7279 0.7271 0.7261 0.7246
1042.000000 0.7220 0.7186 0.7122 0.7037 0.6928
1047.000000 0.6396 0.5748 0.5100 0.4452 0.3584
1052.000000 0.3594 0.3826 0.4173 0.4520 0.4868
1057.000000 0.5215 0.5563 0.5592 0.5578 0.5186
1062.000000 0.4723 0.4259 0.3796 0.3332 0.2869
1067.000000 0.2405 0.2321 0.2311 0.3538 0.4215
1072.000000 0.4892 0.5569 0.6246 0.6895 0.7002
1077.000000 0.7075 0.7120 0.7127 0.7136 0.7137
1082.000000 0.7128 0.7120 0.7106 0.7093 0.7082
1087.000000 0.7069 0.7054 0.7040 0.7023 0.7001
1092.000000 0.6963 0.6894 0.6610 0.6510 0.6413
1097.000000 0.6114 0.5717 0.5321 0.4924 0.4527
1102.000000 0.4291 0.4291 0.4285 0.4555 0.4944
1107.000000 0.5333 0.5722 0.6110 0.6209 0.6222
1112.000000 0.6201 0.5992 0.5724 0.5456 0.5188
1117.000000 0.4919 0.4651 0.4550 0.4543 0.4663
1122.000000 0.4526 0.5381 0.5740 0.6100 0.6459
1127.000000 0.6779 0.6790 0.6800 0.6791 0.6787
1132.000000 0.6757 0.6484 0.6210 0.5937 0.5664
1137.000000 0.5390 0.5117 0.4992 0.4624 0.4158
1142.000000 0.3692 0.3226 0.2761 0.2295 0.2023
1147.000000 0.1996 0.2171 0.2590 0.3010 0.3429
1152.000000 0.3848 0.4267 0.4686 0.5105 0.5524
1157.000000 0.5944 0.6363 0.6570 0.6568 0.6568
1162.000000 0.6397 0.6261 0.6125 0.5989 0.5853
1167.000000 0.5717 0.5580 0.5555 0.5544 0.5655
1172.000000 0.5779 0.5903 0.6027 0.6151 0.6276
1177.000000 0.6370 0.6378 0.6312 0.6034 0.5757
1182.000000 0.5479 0.5201 0.4924 0.4487 0.4509
1187.000000 0.4661 0.4973 0.5284 0.5596 0.5907
1192.000000 0.6219 0.6531 0.6842 0.7154 0.7268
1197.000000 0.7281 0.7284 0.7285 0.7275 0.7262
1202.000000 0.7242 0.7221 0.7181 0.7147 0.7113
1207.000000 0.7071 0.7019 0.6958 0.6891 0.6803
1212.000000 0.6681 0.6569 0.6456 0.6344 0.6159
1217.000000 0.5786 0.5334 0.4886 0.4437 0.4025
1222.000000 0.3572 0.3019 0.2466 0.1913 0.1361
1227.000000 0.0808 0.0551 0.0529 0.0523 0.0515
1232.000000 0.0807 0.1419 0.2030 0.2642 0.3254
1237.000000 0.3866 0.4478 0.5089 0.5323 0.5319
1242.000000 0.5313 0.5022 0.4699 0.4377 0.4054
1247.000000 0.3731 0.3408 0.3085 0.2763 0.2440
1252.000000 0.2117 0.1794 0.1471 0.1149 0.0826
1257.000000 0.0560 0.0446 0.0337 0.0270 0.0210
1262.000000 0.0193 0.0175 0.0145 0.0174 0.0180
1267.000000 0.0189 0.0201 0.0222 0.0252 0.0285
1272.000000 0.0318 0.0422 0.0686 0.0949 0.1213
1277.000000 0.1477 0.1740 0.2004 0.2268 0.2531
1282.000000 0.2795 0.3058 0.3322 0.3586 0.3811
1287.000000 0.3804 0.3730 0.3554 0.3377 0.3201
1292.000000 0.3024 0.2848 0.2672 0.2495 0.2319
1297.000000 0.2142 0.1966 0.1819 0.1758 0.1824
1302.000000 0.1828 0.2067 0.2377 0.2687 0.2997
1307.000000 0.3307 0.3617 0.3927 0.4237 0.4547
1312.000000 0.4857 0.5167 0.5477 0.5787 0.6098
1317.000000 0.6408 0.6718 0.7028 0.7220 0.7267
1322.000000 0.7279 0.7287 0.7290 0.7296 0.7288
1327.000000 0.7284 0.7276 0.7261 0.6990 0.6706
1332.000000 0.6422 0.6137 0.5853 0.5569 0.5285
1337.000000 0.5001 0.4717 0.4433 0.4141 0.4157
1342.000000 0.4271 0.4633 0.4996 0.5358 0.5720
1347.000000 0.6083 0.6445 0.6807 0.7170 0.7428
1352.000000 0.7464 0.7482 0.7482 0.7479 0.7475
1357.000000 0.7468 0.7451 0.7415 0.7353 0.7278
1362.000000 0.7196 0.6910 0.6575 0.6239 0.5904
1367.000000 0.5568 0.5232 0.4897 0.4561 0.4226
1372.000000 0.3703 0.3706 0.3759 0.4287 0.4814
1377.000000 0.5342 0.5869 0.6397 0.6913 0.7045
1382.000000 0.7130 0.7183 0.7186 0.7188 0.7187
1387.000000 0.7186 0.7195 0.7211 0.7231 0.7260
1392.000000 0.7293 0.7336 0.7379 0.7421 0.7463
1397.000000 0.7502 0.7537 0.7572 0.7605 0.7629
1402.000000 0.7653 0.7676 0.7700 0.7724 0.7739
1407.000000 0.7752 0.7766 0.7779 0.7802 0.7798
1412.000000 0.7798 0.7786 0.7773 0.7759 0.7742
1417.000000 0.7719 0.7696 0.7674 0.7653 0.7641
1422.000000 0.7631 0.7622 0.7606 0.7575 0.7537
1427.000000 0.7498 0.7448 0.7241 0.6950 0.6658
1432.000000 0.6367 0.6076 0.5785 0.5494 0.5124
1437.000000 0.5170 0.5399 0.5629 0.5858 0.6088
1442.000000 0.6317 0.6546 0.6548 0.6545 0.6497
1447.000000 0.6309 0.6122 0.5935 0.5747 0.5560
1452.000000 0.5544 0.5544 0.5659 0.5879 0.6098
1457.000000 0.6318 0.6537 0.6757 0.6976 0.7034
1462.000000 0.7046 0.7054 0.7054 0.7046 0.7042
1467.000000 0.7021 0.6775 0.6426 0.6077 0.5728
1472.000000 0.5379 0.5030 0.4681 0.4332 0.4299
1477.000000 0.4511 0.5400 0.6289 0.7178 0.7338
1482.000000 0.7433 0.7552 0.7677 0.7803 0.7963
1487.000000 0.8002 0.8041 0.8060 0.8068 0.8058
1492.000000 0.8071 0.8072 0.8068 0.8065 0.8059
1497.000000 0.8050 0.8032 0.8014 0.7996 0.7976
1502.000000 0.7952 0.7929 0.7904 0.7872 0.7840
1507.000000 0.7804 0.7763 0.7722 0.7677 0.7630
1512.000000 0.7582 0.7532 0.7476 0.7420 0.7364
1517.000000 0.7251 0.7137 0.7001 0.6850 0.6633
1522.000000 0.6372 0.6180 0.6032 0.5829 0.5400
1527.000000 0.4981 0.4561 0.4142 0.3723 0.3304
1532.000000 0.2884 0.2465 0.2046 0.2025 0.2011
1537.000000 0.2530 0.3128 0.3726 0.4325 0.4923
1542.000000 0.5522 0.6120 0.6718 0.6758 0.6769
1547.000000 0.6763 0.6771 0.6762 0.6709 0.6628
1552.000000 0.6546 0.6465 0.6384 0.6303 0.6222
1557.000000 0.6140 0.6059 0.5978 0.5897 0.5816
1562.000000 0.5743 0.5667 0.5568 0.5379 0.5239
1567.000000 0.5107 0.4863 0.4515 0.4245 0.3976
1572.000000 0.3706 0.3436 0.3166 0.2896 0.2627
1577.000000 0.2357 0.1847 0.1587 0.1468 0.1349
1582.000000 0.1255 0.1171 0.1067 0.0956 0.0901
1587.000000 0.0877 0.0858 0.0860 0.1137 0.1543
1592.000000 0.1949 0.2356 0.2762 0.3168 0.3575
1597.000000 0.3981 0.4106 0.4097 0.3860 0.3607
1602.000000 0.3355 0.3102 0.2850 0.2597 0.2344
1607.000000 0.2092 0.1839 0.1587 0.1334 0.1127
1612.000000 0.1117 0.1629 0.2235 0.2841 0.3446
1617.000000 0.3750 0.3736 0.3627 0.3518 0.3454
1622.000000 0.3650 0.3922 0.4194 0.4466 0.4738
1627.000000 0.5009 0.5281 0.5553 0.5825 0.6070
1632.000000 0.6295 0.6471 0.6610 0.6748 0.6912
1637.000000 0.7114 0.7279 0.7408 0.7509 0.7598
1642.000000 0.7687 0.7760 0.7803 0.7847 0.7890
1647.000000 0.7934 0.7972 0.8009 0.8047 0.8085
1652.000000 0.8124 0.8163 0.8202 0.8235 0.8265
1657.000000 0.8296 0.8326 0.8356 0.8386 0.8415
1662.000000 0.8444 0.8473 0.8486 0.8494 0.8503
1667.000000 0.8511 0.8519 0.8523 0.8520 0.8517
1672.000000 0.8511 0.8499 0.8487 0.8474 0.8460
1677.000000 0.8448 0.8451 0.8457 0.8458 0.8481
1682.000000 0.8496 0.8510 0.8518 0.8523 0.8522
1687.000000 0.8521 0.8519 0.8514 0.8509 0.8505
1692.000000 0.8501 0.8496 0.8492 0.8486 0.8471
1697.000000 0.8446 0.8415 0.8360 0.8309 0.8243
1702.000000 0.8173 0.8104 0.8014 0.7917 0.7817
1707.000000 0.7717 0.7614 0.7509 0.7293 0.6817
1712.000000 0.6371 0.5925 0.5479 0.5032 0.4586
1717.000000 0.4140 0.3694 0.3248 0.2802 0.2356
1722.000000 0.1910 0.1586 0.1613 0.1837 0.2848
1727.000000 0.3858 0.4868 0.5878 0.6888 0.7299
1732.000000 0.7397 0.7526 0.7692 0.7810 0.7888
1737.000000 0.7953 0.8014 0.8057 0.8101 0.8144
1742.000000 0.8198 0.8257 0.8317 0.8370 0.8421
1747.000000 0.8473 0.8512 0.8544 0.8576 0.8608
1752.000000 0.8639 0.8670 0.8701 0.8721 0.8737
1757.000000 0.8752 0.8768 0.8783 0.8793 0.8800
1762.000000 0.8807 0.8814 0.8820 0.8846 0.8824
1767.000000 0.8826 0.8829 0.8830 0.8829 0.8829
1772.000000 0.8828 0.8828 0.8828 0.8827 0.8826
1777.000000 0.8823 0.8821 0.8819 0.8817 0.8815
1782.000000 0.8811 0.8808 0.8804 0.8801 0.8797
1787.000000 0.8794 0.8790 0.8787 0.8783 0.8780
1792.000000 0.8776 0.8772 0.8768 0.8764 0.8760
1797.000000 0.8756 0.8752 0.8748 0.8745 0.8744
1802.000000 0.8742 0.8741 0.8740 0.8738 0.8737
1807.000000 0.8735 0.8734 0.8733 0.8733 0.8734
1812.000000 0.8734 0.8734 0.8731 0.8726 0.8722
1817.000000 0.8727 0.8735 0.8743 0.8749 0.8755
1822.000000 0.8761 0.8768 0.8776 0.8783 0.8791
1827.000000 0.8799 0.8807 0.8815 0.8822 0.8830
1832.000000 0.8837 0.8844 0.8850 0.8857 0.8858
1837.000000 0.8859 0.8860 0.8860 0.8861 0.8861
1842.000000 0.8862 0.8862 0.8861 0.8861 0.8860
1847.000000 0.8859 0.8859 0.8858 0.8857 0.8857
1852.000000 0.8855 0.8850 0.8846 0.8841 0.8837
1857.000000 0.8832 0.8829 0.8825 0.8821 0.8818
1862.000000 0.8814 0.8810 0.8806 0.8803 0.8799
1867.000000 0.8795 0.8792 0.8788 0.8787 0.8787
1872.000000 0.8787 0.8787 0.8786 0.8786 0.8786
1877.000000 0.8786 0.8786 0.8788 0.8790 0.8792
1882.000000 0.8795 0.8797 0.8799 0.8802 0.8804
1887.000000 0.8807 0.8809 0.8812 0.8814 0.8817
1892.000000 0.8820 0.8822 0.8825 0.8827 0.8830
1897.000000 0.8832 0.8832 0.8832 0.8833 0.8833
1902.000000 0.8834 0.8834 0.8834 0.8835 0.8835
1907.000000 0.8835 0.8836 0.8836 0.8836 0.8835
1912.000000 0.8834 0.8833 0.8832 0.8831 0.8829
1917.000000 0.8828 0.8827 0.8826 0.8824 0.8823
1922.000000 0.8821 0.8819 0.8818 0.8816 0.8815
1927.000000 0.8813 0.8812 0.8810 0.8808 0.8807
1932.000000 0.8805 0.8804 0.8802 0.8800 0.8800
1937.000000 0.8802 0.8805 0.8808 0.8812 0.8817
1942.000000 0.8822 0.8821 0.8819 0.8816 0.8813
1947.000000 0.8811 0.8803 0.8795 0.8787 0.8779
1952.000000 0.8772 0.8765 0.8759 0.8754 0.8749
1957.000000 0.8743 0.8738 0.8734 0.8734 0.8736
1962.000000 0.8739 0.8741 0.8744 0.8746 0.8749
1967.000000 0.8755 0.8761 0.8768 0.8776 0.8784
1972.000000 0.8792 0.8798 0.8801 0.8804 0.8807
1977.000000 0.8810 0.8813 0.8815 0.8818 0.8817
1982.000000 0.8817 0.8817 0.8816 0.8816 0.8816
1987.000000 0.8815 0.8816 0.8818 0.8819 0.8821
1992.000000 0.8822 0.8824 0.8826 0.8830 0.8836
1997.000000 0.8843 0.8847 0.8853 0.8869 0.8880
2002.000000 0.8888 0.8894 0.8897 0.8896 0.8896
2007.000000 0.8894 0.8893 0.8891 0.8890 0.8888
2012.000000 0.8887 0.8885 0.8883 0.8881 0.8880
2017.000000 0.8878 0.8877 0.8875 0.8873 0.8871
2022.000000 0.8870 0.8868 0.8866 0.8863 0.8861
2027.000000 0.8858 0.8856 0.8853 0.8851 0.8848
2032.000000 0.8846 0.8843 0.8841 0.8838 0.8836
2037.000000 0.8833 0.8831 0.8828 0.8826 0.8823
2042.000000 0.8821 0.8818 0.8815 0.8811 0.8807
2047.000000 0.8803 0.8800 0.8796 0.8793 0.8789
2052.000000 0.8785 0.8781 0.8778 0.8774 0.8770
2057.000000 0.8766 0.8762 0.8757 0.8752 0.8746
2062.000000 0.8741 0.8736 0.8731 0.8726 0.8721
2067.000000 0.8716 0.8711 0.8705 0.8700 0.8695
2072.000000 0.8690 0.8685 0.8680 0.8675 0.8670
2077.000000 0.8664 0.8659 0.8654 0.8649 0.8644
2082.000000 0.8640 0.8635 0.8631 0.8626 0.8621
2087.000000 0.8616 0.8612 0.8607 0.8602 0.8597
2092.000000 0.8593 0.8588 0.8584 0.8579 0.8574
2097.000000 0.8569 0.8565 0.8560 0.8555 0.8550
2102.000000 0.8546 0.8541 0.8537 0.8532 0.8527
2107.000000 0.8522 0.8517 0.8512 0.8508 0.8503
2112.000000 0.8498 0.8493 0.8488 0.8483 0.8479
2117.000000 0.8474 0.8469 0.8467 0.8466 0.8466
2122.000000 0.8466 0.8465 0.8465 0.8465 0.8465
2127.000000 0.8464 0.8464 0.8465 0.8466 0.8469
2132.000000 0.8473 0.8477 0.8481 0.8485 0.8490
2137.000000 0.8494 0.8499 0.8503 0.8508 0.8513
2142.000000 0.8518 0.8522 0.8527 0.8529 0.8532
2147.000000 0.8533 0.8535 0.8533 0.8532 0.8530
2152.000000 0.8528 0.8526 0.8524 0.8522 0.8520
2157.000000 0.8518 0.8516 0.8512 0.8508 0.8503
2162.000000 0.8499 0.8495 0.8491 0.8487 0.8483
2167.000000 0.8479 0.8475 0.8471 0.8468 0.8464
2172.000000 0.8460 0.8456 0.8453 0.8449 0.8445
2177.000000 0.8441 0.8438 0.8434 0.8430 0.8426
2182.000000 0.8423 0.8421 0.8419 0.8416 0.8414
2187.000000 0.8412 0.8410 0.8407 0.8405 0.8403
2192.000000 0.8401 0.8398 0.8396 0.8394 0.8392
2197.000000 0.8389 0.8387 0.8385 0.8383 0.8381
2202.000000 0.8379 0.8377 0.8375 0.8373 0.8372
2207.000000 0.8370 0.8368 0.8366 0.8364 0.8362
2212.000000 0.8361 0.8359 0.8357 0.8355 0.8353
2217.000000 0.8351 0.8350 0.8348 0.8346 0.8344
2222.000000 0.8342 0.8340 0.8339 0.8337 0.8335
2227.000000 0.8333 0.8331 0.8329 0.8327 0.8325
2232.000000 0.8323 0.8321 0.8319 0.8317 0.8315
2237.000000 0.8313 0.8312 0.8310 0.8308 0.8306
2242.000000 0.8304 0.8302 0.8300 0.8298 0.8296
2247.000000 0.8294 0.8292 0.8290 0.8288 0.8286
2252.000000 0.8285 0.8283 0.8281 0.8279 0.8278
2257.000000 0.8277 0.8276 0.8274 0.8273 0.8271
2262.000000 0.8270 0.8269 0.8268 0.8266 0.8265
2267.000000 0.8263 0.8262 0.8261 0.8260 0.8258
2272.000000 0.8257 0.8255 0.8254 0.8252 0.8251
2277.000000 0.8249 0.8248 0.8245 0.8243 0.8241
2282.000000 0.8239 0.8236 0.8234 0.8232 0.8230
2287.000000 0.8227 0.8225 0.8222 0.8220 0.8218
2292.000000 0.8216 0.8214 0.8212 0.8209 0.8207
2297.000000 0.8205 0.8203 0.8201 0.8199 0.8197
2302.000000 0.8195 0.8193 0.8191 0.8189 0.8187
2307.000000 0.8187 0.8187 0.8187 0.8187 0.8186
2312.000000 0.8186 0.8186 0.8186 0.8186 0.8186
2317.000000 0.8185 0.8185 0.8185 0.8185 0.8186
2322.000000 0.8188 0.8191 0.8194 0.8196 0.8199
2327.000000 0.8202 0.8205 0.8208 0.8211 0.8214
2332.000000 0.8217 0.8219 0.8222 0.8225 0.8228
2337.000000 0.8231 0.8235 0.8238 0.8242 0.8245
2342.000000 0.8249 0.8252 0.8256 0.8258 0.8261
2347.000000 0.8262 0.8263 0.8263 0.8264 0.8265
2352.000000 0.8266 0.8266 0.8267 0.8268 0.8269
2357.000000 0.8269 0.8270 0.8271 0.8272 0.8272
2362.000000 0.8273 0.8274 0.8275 0.8275 0.8276
2367.000000 0.8277 0.8278 0.8278 0.8279 0.8279
2372.000000 0.8279 0.8279 0.8279 0.8279 0.8279
2377.000000 0.8279 0.8279 0.8279 0.8280 0.8280
2382.000000 0.8280 0.8280 0.8280 0.8280 0.8280
2387.000000 0.8280 0.8280 0.8280 0.8280 0.8281
2392.000000 0.8282 0.8283 0.8284 0.8285 0.8286
2397.000000 0.8287 0.8288 0.8289 0.8290 0.8290
2402.000000 0.8291 0.8291 0.8292 0.8292 0.8293
2407.000000 0.8293 0.8294 0.8294 0.8295 0.8295
2412.000000 0.8296 0.8296 0.8297 0.8298 0.8299
2417.000000 0.8299 0.8300 0.8300 0.8301 0.8301
2422.000000 0.8302 0.8302 0.8303 0.8303 0.8303
2427.000000 0.8303 0.8304 0.8304 0.8305 0.8305
2432.000000 0.8306 0.8306 0.8306 0.8306 0.8307
2437.000000 0.8307 0.8308 0.8308 0.8309 0.8309
2442.000000 0.8309 0.8309 0.8310 0.8310 0.8311
2447.000000 0.8311 0.8312 0.8312 0.8312 0.8312
2452.000000 0.8313 0.8313 0.8314 0.8314 0.8315
2457.000000 0.8315 0.8315 0.8315 0.8316 0.8316
2462.000000 0.8317 0.8317 0.8318 0.8318 0.8318
2467.000000 0.8318 0.8318 0.8317 0.8317 0.8316
2472.000000 0.8316 0.8315 0.8315 0.8314 0.8314
2477.000000 0.8314 0.8314 0.8313 0.8313 0.8313
2482.000000 0.8313 0.8313 0.8314 0.8314 0.8315
2487.000000 0.8315 0.8316 0.8316 0.8317 0.8317
2492.000000 0.8318 0.8318 0.8319 0.8319 0.8320
2497.000000 0.8320 0.8321 0.8321 0.8322 0.8322
2502.000000 0.8323 0.8323 0.8324 0.8323 0.8323
2507.000000 0.8322 0.8321 0.8319 0.8318 0.8316
2512.000000 0.8315 0.8313 0.8311 0.8309 0.8308
2517.000000 0.8306 0.8305 0.8303 0.8302 0.8300
2522.000000 0.8299 0.8297 0.8296 0.8294 0.8292
2527.000000 0.8290 0.8289 0.8288 0.8287 0.8286
2532.000000 0.8285 0.8283 0.8282 0.8281 0.8280
2537.000000 0.8279 0.8278 0.8277 0.8276 0.8274
2542.000000 0.8273 0.8272 0.8271 0.8270 0.8270
2547.000000 0.8269 0.8268 0.8267 0.8266 0.8265
2552.000000 0.8264 0.8263 0.8263 0.8262 0.8261
2557.000000 0.8260 0.8259 0.8258 0.8257 0.8256
2562.000000 0.8255 0.8254 0.8253 0.8252 0.8251
2567.000000 0.8249 0.8248 0.8247 0.8246 0.8245
2572.000000 0.8244 0.8243 0.8242 0.8241 0.8240
2577.000000 0.8239 0.8238 0.8236 0.8235 0.8233
2582.000000 0.8232 0.8231 0.8230 0.8228 0.8227
2587.000000 0.8225 0.8224 0.8222 0.8221 0.8219
2592.000000 0.8218 0.8219 0.8221 0.8223 0.8225
2597.000000 0.8227 0.8229 0.8231 0.8234 0.8236
2602.000000 0.8238 0.8238 0.8238 0.8236 0.8234
2607.000000 0.8231 0.8229 0.8227 0.8225 0.8222
2612.000000 0.8220 0.8217 0.8215 0.8213 0.8211
2617.000000 0.8207 0.8204 0.8199 0.8195 0.8191
2622.000000 0.8187 0.8183 0.8179 0.8176 0.8173
2627.000000 0.8170 0.8167 0.8164 0.8161 0.8157
2632.000000 0.8154 0.8151 0.8148 0.8150 0.8152
2637.000000 0.8156 0.8161 0.8166 0.8172 0.8177
2642.000000 0.8183 0.8186 0.8190 0.8191 0.8193
2647.000000 0.8194 0.8196 0.8198 0.8200 0.8201
2652.000000 0.8203 0.8203 0.8203 0.8201 0.8200
2657.000000 0.8199 0.8198 0.8196 0.8195 0.8193
2662.000000 0.8192 0.8191 0.8191 0.8190 0.8189
2667.000000 0.8188 0.8187 0.8186 0.8186 0.8184
2672.000000 0.8183 0.8181 0.8179 0.8177 0.8175
2677.000000 0.8173 0.8172 0.8170 0.8168 0.8166
2682.000000 0.8164 0.8162 0.8161 0.8159 0.8157
2687.000000 0.8155 0.8154 0.8152 0.8150 0.8148
2692.000000 0.8147 0.8145 0.8143 0.8141 0.8140
2697.000000 0.8138 0.8136 0.8134 0.8132 0.8130
2702.000000 0.8129 0.8127 0.8125 0.8123 0.8121
2707.000000 0.8118 0.8116 0.8114 0.8112 0.8110
2712.000000 0.8108 0.8106 0.8104 0.8102 0.8100
2717.000000 0.8098 0.8096 0.8094 0.8092 0.8090
2722.000000 0.8088 0.8086 0.8084 0.8082 0.8080
2727.000000 0.8079 0.8078 0.8077 0.8076 0.8075
2732.000000 0.8074 0.8073 0.8072 0.8071 0.8070
2737.000000 0.8068 0.8067 0.8066 0.8065 0.8065
2742.000000 0.8065 0.8065 0.8065 0.8065 0.8065
2747.000000 0.8062 0.8060 0.8057 0.8055 0.8054
2752.000000 0.8053 0.8052 0.8051 0.8049 0.8048
2757.000000 0.8047 0.8046 0.8046 0.8046 0.8046
2762.000000 0.8046 0.8046 0.8046 0.8046 0.8046
2767.000000 0.8046 0.8046 0.8045 0.8045 0.8044
2772.000000 0.8043 0.8042 0.8041 0.8040 0.8040
2777.000000 0.8039 0.8038 0.8037 0.8036 0.8035
2782.000000 0.8034 0.8032 0.8031 0.8028 0.8026
2787.000000 0.8023 0.8021 0.8018 0.8016 0.8012
2792.000000 0.8009 0.8004 0.7999 0.7994 0.7989
2797.000000 0.7983 0.7978 0.7973 0.7968 0.7963
2802.000000 0.7958 0.7953 0.7948 0.7943 0.7938
2807.000000 0.7931 0.7924 0.7917 0.7910 0.7903
2812.000000 0.7897 0.7890 0.7883 0.7876 0.7869
2817.000000 0.7862 0.7855 0.7848 0.7841 0.7834
2822.000000 0.7827 0.7817 0.7808 0.7789 0.7771
2827.000000 0.7752 0.7734 0.7715 0.7697 0.7678
2832.000000 0.7660 0.7641 0.7623 0.7604 0.7586
2837.000000 0.7568 0.7550 0.7526 0.7503 0.7481
2842.000000 0.7459 0.7452 0.7446 0.7446 0.7446
2847.000000 0.7451 0.7456 0.7462 0.7469 0.7476
2852.000000 0.7483 0.7499 0.7515 0.7528 0.7542
2857.000000 0.7548 0.7554 0.7555 0.7556 0.7554
2862.000000 0.7552 0.7549 0.7547 0.7545 0.7543
2867.000000 0.7541 0.7539 0.7536 0.7533 0.7530
2872.000000 0.7527 0.7524 0.7521 0.7518 0.7515
2877.000000 0.7512 0.7509 0.7504 0.7500 0.7495
2882.000000 0.7491 0.7484 0.7478 0.7471 0.7464
2887.000000 0.7456 0.7449 0.7441 0.7434 0.7426
2892.000000 0.7419 0.7410 0.7401 0.7392 0.7384
2897.000000 0.7375 0.7366 0.7357 0.7348 0.7339
2902.000000 0.7331 0.7322 0.7313 0.7301 0.7290
2907.000000 0.7277 0.7265 0.7252 0.7240 0.7228
2912.000000 0.7216 0.7205 0.7195 0.7184 0.7173
2917.000000 0.7162 0.7152 0.7141 0.7130 0.7119
2922.000000 0.7109 0.7093 0.7078 0.7060 0.7043
2927.000000 0.7025 0.7008 0.6990 0.6972 0.6952
2932.000000 0.6933 0.6912 0.6892 0.6871 0.6850
2937.000000 0.6828 0.6807 0.6780 0.6753 0.6726
2942.000000 0.6699 0.6680 0.6661 0.6651 0.6642
2947.000000 0.6641 0.6641 0.6644 0.6630 0.6695
2952.000000 0.6743 0.6800 0.6858 0.6915 0.6972
2957.000000 0.7029 0.7087 0.7103 0.7119 0.7124
2962.000000 0.7129 0.7129 0.7144 0.7128 0.7128
2967.000000 0.7126 0.7125 0.7101 0.7078 0.7051
2972.000000 0.7025 0.6998 0.6971 0.6944 0.6918
2977.000000 0.6891 0.6865 0.6838 0.6811 0.6795
2982.000000 0.6779 0.6782 0.6754 0.6787 0.6789
2987.000000 0.6792 0.6796 0.6800 0.6804 0.6813
2992.000000 0.6823 0.6833 0.6844 0.6855 0.6867
2997.000000 0.6882 0.6897 0.6921 0.6946 0.6983
3002.000000 0.7021 0.7062 0.7103 0.7144 0.7186
3007.000000 0.7227 0.7268 0.7278 0.7318 0.7293
3012.000000 0.7298 0.7297 0.7297 0.7294 0.7291
3017.000000 0.7280 0.7270 0.7258 0.7247 0.7238
3022.000000 0.7230 0.7222 0.7215 0.7211 0.7208
3027.000000 0.7205 0.7202 0.7204 0.7207 0.7210
3032.000000 0.7213 0.7216 0.7215 0.7225 0.7230
3037.000000 0.7236 0.7243 0.7250 0.7258 0.7269
3042.000000 0.7280 0.7291 0.7302 0.7310 0.7351
3047.000000 0.7321 0.7323 0.7318 0.7314 0.7298
3052.000000 0.7283 0.7262 0.7242 0.7220 0.7199
3057.000000 0.7176 0.7153 0.7129 0.7105 0.7082
3062.000000 0.7060 0.7038 0.7016 0.6995 0.6974
3067.000000 0.6957 0.6941 0.6932 0.6904 0.6922
3072.000000 0.6921 0.6923 0.6925 0.6928 0.6932
3077.000000 0.6965 0.6998 0.7056 0.7114 0.7172
3082.000000 0.7230 0.7263 0.7296 0.7300 0.7304
3087.000000 0.7306 0.7308 0.7309 0.7311 0.7312
3092.000000 0.7313 0.7313 0.7313 0.7313 0.7313
3097.000000 0.7312 0.7311 0.7310 0.7310 0.7309
3102.000000 0.7309 0.7308 0.7308 0.7308 0.7308
3107.000000 0.7310 0.7312 0.7314 0.7316 0.7319
3112.000000 0.7323 0.7328 0.7328 0.7338 0.7343
3117.000000 0.7345 0.7347 0.7343 0.7339 0.7334
3122.000000 0.7330 0.7325 0.7321 0.7316 0.7311
3127.000000 0.7305 0.7300 0.7294 0.7289 0.7282
3132.000000 0.7275 0.7268 0.7261 0.7254 0.7248
3137.000000 0.7246 0.7244 0.7243 0.7242 0.7241
3142.000000 0.7240 0.7239 0.7238 0.7237 0.7236
3147.000000 0.7236 0.7236 0.7236 0.7237 0.7237
3152.000000 0.7238 0.7238 0.7239 0.7241 0.7243
3157.000000 0.7245 0.7247 0.7248 0.7250 0.7252
3162.000000 0.7254 0.7255 0.7257 0.7259 0.7261
3167.000000 0.7263 0.7265 0.7267 0.7270 0.7272
3172.000000 0.7274 0.7276 0.7278 0.7277 0.7276
3177.000000 0.7275 0.7275 0.7274 0.7274 0.7273
3182.000000 0.7273 0.7272 0.7272 0.7270 0.7268
3187.000000 0.7266 0.7264 0.7261 0.7259 0.7254
3192.000000 0.7249 0.7244 0.7239 0.7234 0.7229
3197.000000 0.7223 0.7218 0.7213 0.7208 0.7202
3202.000000 0.7196 0.7189 0.7182 0.7175 0.7168
3207.000000 0.7161 0.7154 0.7146 0.7139 0.7132
3212.000000 0.7126 0.7121 0.7117 0.7112 0.7108
3217.000000 0.7103 0.7098 0.7093 0.7089 0.7084
3222.000000 0.7080 0.7075 0.7071 0.7066 0.7061
3227.000000 0.7056 0.7052 0.7048 0.7045 0.7042
3232.000000 0.7040 0.7037 0.7035 0.7032 0.7029
3237.000000 0.7026 0.7024 0.7021 0.7019 0.7016
3242.000000 0.7013 0.7011 0.7009 0.7007 0.7006
3247.000000 0.7004 0.7002 0.7000 0.6998 0.6996
3252.000000 0.6994 0.6992 0.6991 0.6989 0.6987
3257.000000 0.6985 0.6983 0.6980 0.6977 0.6974
3262.000000 0.6971 0.6968 0.6965 0.6962 0.6959
3267.000000 0.6956 0.6953 0.6950 0.6947 0.6943
3272.000000 0.6939 0.6935 0.6931 0.6927 0.6924
3277.000000 0.6920 0.6916 0.6912 0.6908 0.6904
3282.000000 0.6900 0.6896 0.6893 0.6889 0.6885
3287.000000 0.6880 0.6875 0.6870 0.6865 0.6860
3292.000000 0.6855 0.6850 0.6845 0.6840 0.6835
3297.000000 0.6830 0.6825 0.6820 0.6815 0.6810
3302.000000 0.6805 0.6800 0.6795 0.6788 0.6782
3307.000000 0.6776 0.6770 0.6764 0.6758 0.6751
3312.000000 0.6745 0.6739 0.6733 0.6727 0.6721
3317.000000 0.6712 0.6703 0.6693 0.6684 0.6675
3322.000000 0.6666 0.6656 0.6647 0.6637 0.6628
3327.000000 0.6616 0.6605 0.6593 0.6581 0.6569
3332.000000 0.6557 0.6540 0.6524 0.6503 0.6483
3337.000000 0.6462 0.6442 0.6421 0.6401 0.6376
3342.000000 0.6352 0.6324 0.6296 0.6267 0.6239
3347.000000 0.6211 0.6183 0.6153 0.6124 0.6094
3352.000000 0.6064 0.6034 0.6004 0.5974 0.5944
3357.000000 0.5895 0.5847 0.5796 0.5745 0.5672
3362.000000 0.5600 0.5491 0.5382 0.5091 0.4800
3367.000000 0.4598 0.4397 0.4195 0.3994 0.3792
3372.000000 0.3590 0.3388 0.3187 0.2985 0.2784
3377.000000 0.2582 0.2381 0.2179 0.1978 0.1944
3382.000000 0.1913 0.2000 0.2089 0.2670 0.3251
3387.000000 0.3832 0.4413 0.4993 0.5574 0.5976
3392.000000 0.6379 0.6388 0.6393 0.6400 0.6403
3397.000000 0.6402 0.6401 0.6389 0.6378 0.6356
3402.000000 0.6334 0.6311 0.6289 0.6266 0.6244
3407.000000 0.6221 0.6199 0.6176 0.6154 0.6131
3412.000000 0.6109 0.6086 0.6064 0.6042 0.6020
3417.000000 0.5997 0.5975 0.5952 0.5930 0.5907
3422.000000 0.5885 0.5862 0.5840 0.5817 0.5794
3427.000000 0.5786 0.5779 0.5780 0.5772 0.5783
3432.000000 0.5785 0.5786 0.5788 0.5792 0.5796
3437.000000 0.5801 0.5806 0.5817 0.5828 0.5839
3442.000000 0.5850 0.5861 0.5872 0.5883 0.5894
3447.000000 0.5913 0.5932 0.5952 0.5973 0.5991
3452.000000 0.6010 0.6028 0.6047 0.6050 0.6054
3457.000000 0.6056 0.6059 0.6060 0.6062 0.6059
3462.000000 0.6057 0.6052 0.6048 0.6041 0.6034
3467.000000 0.6027 0.6020 0.6001 0.5983 0.5955
3472.000000 0.5928 0.5901 0.5875 0.5848 0.5822
3477.000000 0.5802 0.5783 0.5766 0.5749 0.5732
3482.000000 0.5715 0.5698 0.5681 0.5659 0.5637
3487.000000 0.5574 0.5511 0.5448 0.5386 0.5323
3492.000000 0.5260 0.5197 0.5134 0.5071 0.5009
3497.000000 0.4946 0.4883 0.4820 0.4758 0.4695
3502.000000 0.4632 0.4569 0.4507 0.4444 0.4381
3507.000000 0.4318 0.4256 0.4193 0.4130 0.4067
3512.000000 0.4004 0.3941 0.3879 0.3823 0.3767
3517.000000 0.3751 0.3735 0.3723 0.3711 0.3703
3522.000000 0.3696 0.3693 0.3699 0.3689 0.3688
3527.000000 0.3690 0.3693 0.3725 0.3757 0.3830
3532.000000 0.3903 0.3975 0.4048 0.4121 0.4194
3537.000000 0.4266 0.4339 0.4412 0.4485 0.4557
3542.000000 0.4630 0.4703 0.4776 0.4848 0.4921
3547.000000 0.4984 0.5048 0.5091 0.5134 0.5175
3552.000000 0.5217 0.5253 0.5289 0.5320 0.5352
3557.000000 0.5383 0.5415 0.5449 0.5483 0.5536
3562.000000 0.5590 0.5643 0.5697 0.5732 0.5768
3567.000000 0.5795 0.5822 0.5848 0.5875 0.5902
3572.000000 0.5929 0.5955 0.5982 0.6007 0.6032
3577.000000 0.6051 0.6071 0.6090 0.6110 0.6129
3582.000000 0.6148 0.6167 0.6187 0.6206 0.6225
3587.000000 0.6244 0.6264 0.6283 0.6303 0.6323
3592.000000 0.6343 0.6362 0.6382 0.6402 0.6422
3597.000000 0.6442 0.6462 0.6481 0.6501 0.6519
3602.000000 0.6537 0.6555 0.6573 0.6590 0.6608
3607.000000 0.6626 0.6644 0.6662 0.6680 0.6711
3612.000000 0.6742 0.6780 0.6818 0.6855 0.6893
3617.000000 0.6927 0.6962 0.6997 0.7032 0.7067
3622.000000 0.7102 0.7118 0.7134 0.7150 0.7166
3627.000000 0.7181 0.7197 0.7213 0.7229 0.7243
3632.000000 0.7258 0.7270 0.7283 0.7295 0.7308
3637.000000 0.7316 0.7325 0.7328 0.7331 0.7334
3642.000000 0.7338 0.7341 0.7344 0.7347 0.7350
3647.000000 0.7353 0.7356 0.7356 0.7356 0.7355
3652.000000 0.7355 0.7355 0.7357 0.7354 0.7354
3657.000000 0.7353 0.7353 0.7351 0.7350 0.7348
3662.000000 0.7347 0.7345 0.7343 0.7341 0.7340
3667.000000 0.7338 0.7337 0.7335 0.7334 0.7332
3672.000000 0.7331 0.7329 0.7327 0.7325 0.7324
3677.000000 0.7322 0.7321 0.7319 0.7317 0.7315
3682.000000 0.7314 0.7312 0.7311 0.7309 0.7308
3687.000000 0.7306 0.7304 0.7302 0.7301 0.7299
3692.000000 0.7298 0.7296 0.7295 0.7293 0.7291
3697.000000 0.7289 0.7288 0.7286 0.7285 0.7283
3702.000000 0.7282 0.7280 0.7278 0.7276 0.7275
3707.000000 0.7273 0.7272 0.7270 0.7269 0.7267
3712.000000 0.7265 0.7263 0.7262 0.7260 0.7259
3717.000000 0.7256 0.7254 0.7251 0.7249 0.7247
3722.000000 0.7245 0.7242 0.7240 0.7237 0.7235
3727.000000 0.7233 0.7231 0.7228 0.7226 0.7223
3732.000000 0.7221 0.7218 0.7216 0.7214 0.7212
3737.000000 0.7209 0.7207 0.7204 0.7202 0.7200
3742.000000 0.7198 0.7196 0.7194 0.7191 0.7189
3747.000000 0.7187 0.7185 0.7183 0.7181 0.7178
3752.000000 0.7176 0.7174 0.7172 0.7170 0.7168
3757.000000 0.7165 0.7163 0.7161 0.7159 0.7157
3762.000000 0.7155 0.7153 0.7151 0.7149 0.7147
3767.000000 0.7145 0.7143 0.7141 0.7139 0.7137
3772.000000 0.7136 0.7134 0.7132 0.7130 0.7128
3777.000000 0.7126 0.7124 0.7122 0.7121 0.7119
3782.000000 0.7117 0.7115 0.7113 0.7111 0.7109
3787.000000 0.7107 0.7108 0.7105 0.7105
##END=
