##TITLE=CARBON TETRABROMIDE
##JCAMP-DX=4.24
##DATA TYPE=INFRARED SPECTRUM
##CLASS=COBLENTZ III
##ORIGIN=DOW CHEMICAL COMPANY
##OWNER=COBLENTZ SOC.
Collection (C) 2018 copyright by the U.S. Secretary of Commerce
on behalf of the United States of America. All rights reserved.
##DATE=1969/05/07
##NAMES=tetrabromomethane
##CAS REGISTRY NO=558-13-4
##MOLFORM=C Br4
##SOURCE REFERENCE=COBLENTZ NO. 06047
##$NIST SOURCE=COBLENTZ
##$NIST IMAGE=cob6047
##SPECTROMETER/DATA SYSTEM=BECKMAN IR-9 (GRATING)
##INSTRUMENT PARAMETERS=ORDER CHANGES: 670, 1200, 2000 CM^-^1
##STATE=SOLID (KBr DISC)
##SAMPLING PROCEDURE=TRANSMISSION
##RESOLUTION=2
##DATA PROCESSING=DIGITIZED BY COBLENTZ SOCIETY (BATCH I) FROM HARD COPY
##XUNITS=1/CM
##YUNITS=TRANSMITTANCE
##XLABEL=Wavenumbers (cm-1)
##YLABEL=% Transmission
##XFACTOR=1
##YFACTOR=1
##DELTAX=1
##FIRSTX=401
##LASTX=3800
##FIRSTY=0.4958
##MAXX=3800
##MINX=401
##MAXY=0.8613
##MINY=0.0666
##NPOINTS=3400
##XYDATA=(X++(Y..Y))
401.000000 0.4958 0.4995 0.5033 0.5086 0.5140
406.000000 0.5186 0.5226 0.5267 0.5308 0.6640
411.000000 0.6643 0.6647 0.6651 0.6657 0.6661
416.000000 0.6667 0.6671 0.6676 0.6682 0.6687
421.000000 0.6693 0.6700 0.6706 0.6728 0.6718
426.000000 0.6725 0.6731 0.6735 0.6739 0.6742
431.000000 0.6745 0.6749 0.6751 0.6755 0.6757
436.000000 0.6757 0.6758 0.6758 0.6758 0.6760
441.000000 0.6760 0.6758 0.6758 0.6757 0.6756
446.000000 0.6755 0.6753 0.6748 0.6742 0.6736
451.000000 0.6730 0.6725 0.6717 0.6710 0.6701
456.000000 0.6695 0.6687 0.6678 0.6669 0.6661
461.000000 0.6651 0.6642 0.6633 0.6624 0.6621
466.000000 0.6619 0.6618 0.6615 0.6615 0.6612
471.000000 0.6612 0.6615 0.6619 0.6621 0.6624
476.000000 0.6626 0.6636 0.6648 0.6660 0.6674
481.000000 0.6690 0.6706 0.6721 0.6740 0.6758
486.000000 0.6778 0.6797 0.6815 0.6833 0.6851
491.000000 0.6868 0.6886 0.6904 0.6919 0.6935
496.000000 0.6950 0.6965 0.6981 0.6996 0.7011
501.000000 0.7025 0.7040 0.7053 0.7065 0.7080
506.000000 0.7089 0.7095 0.7101 0.7107 0.7112
511.000000 0.7118 0.7125 0.7128 0.7132 0.7135
516.000000 0.7138 0.7142 0.7145 0.7153 0.7164
521.000000 0.7174 0.7185 0.7195 0.7206 0.7215
526.000000 0.7226 0.7237 0.7247 0.7256 0.7265
531.000000 0.7272 0.7282 0.7290 0.7298 0.7307
536.000000 0.7314 0.7321 0.7326 0.7334 0.7340
541.000000 0.7347 0.7353 0.7360 0.7365 0.7371
546.000000 0.7376 0.7382 0.7387 0.7392 0.7398
551.000000 0.7403 0.7408 0.7412 0.7418 0.7422
556.000000 0.7426 0.7432 0.7436 0.7441 0.7445
561.000000 0.7449 0.7454 0.7458 0.7461 0.7467
566.000000 0.7471 0.7471 0.7474 0.7475 0.7475
571.000000 0.7476 0.7478 0.7478 0.7478 0.7478
576.000000 0.7478 0.7478 0.7478 0.7476 0.7475
581.000000 0.7474 0.7471 0.7471 0.7468 0.7467
586.000000 0.7465 0.7464 0.7462 0.7461 0.7458
591.000000 0.7456 0.7453 0.7449 0.7445 0.7439
596.000000 0.7433 0.7425 0.7418 0.7411 0.7405
601.000000 0.7398 0.7391 0.7384 0.7375 0.7365
606.000000 0.7355 0.7345 0.7335 0.7321 0.7306
611.000000 0.7292 0.7276 0.7261 0.7243 0.7221
616.000000 0.7201 0.7175 0.7151 0.7125 0.7100
621.000000 0.7074 0.7032 0.6984 0.6935 0.6884
626.000000 0.6822 0.6760 0.6684 0.6556 0.6480
631.000000 0.6412 0.6325 0.6207 0.6089 0.5737
636.000000 0.5598 0.5459 0.5294 0.5153 0.5077
641.000000 0.5001 0.4925 0.4845 0.4758 0.4672
646.000000 0.3762 0.3508 0.3309 0.3121 0.2951
651.000000 0.2817 0.2703 0.2589 0.2384 0.2203
656.000000 0.2034 0.1753 0.1495 0.1290 0.1045
661.000000 0.0820 0.0734 0.0687 0.0678 0.0680
666.000000 0.0682 0.0666 0.0698 0.0717 0.0768
671.000000 0.0924 0.1188 0.1442 0.1698 0.1844
676.000000 0.1860 0.1876 0.2157 0.2525 0.2894
681.000000 0.3262 0.4466 0.4786 0.4982 0.5132
686.000000 0.5260 0.5407 0.5571 0.5738 0.5906
691.000000 0.6007 0.6094 0.6181 0.6288 0.6396
696.000000 0.6503 0.6608 0.6701 0.6778 0.6858
701.000000 0.6931 0.7003 0.7068 0.7111 0.7153
706.000000 0.7195 0.7232 0.7265 0.7300 0.7334
711.000000 0.7365 0.7394 0.7421 0.7451 0.7478
716.000000 0.7507 0.7528 0.7549 0.7569 0.7590
721.000000 0.7611 0.7632 0.7648 0.7662 0.7676
726.000000 0.7692 0.7706 0.7721 0.7736 0.7750
731.000000 0.7765 0.7772 0.7781 0.7789 0.7796
736.000000 0.7804 0.7811 0.7818 0.7815 0.7845
741.000000 0.7772 0.7728 0.7678 0.7649 0.7618
746.000000 0.7588 0.7555 0.7555 0.7557 0.7560
751.000000 0.7571 0.7544 0.7619 0.7658 0.7701
756.000000 0.7733 0.7765 0.7794 0.7824 0.7855
761.000000 0.7890 0.7925 0.7948 0.7968 0.7991
766.000000 0.8012 0.8034 0.8053 0.8068 0.8085
771.000000 0.8101 0.8115 0.8128 0.8141 0.8153
776.000000 0.8165 0.8178 0.8191 0.8203 0.8216
781.000000 0.8223 0.8228 0.8232 0.8236 0.8240
786.000000 0.8245 0.8249 0.8253 0.8253 0.8253
791.000000 0.8252 0.8251 0.8251 0.8250 0.8249
796.000000 0.8248 0.8246 0.8242 0.8238 0.8233
801.000000 0.8232 0.8247 0.8262 0.8277 0.8292
806.000000 0.8305 0.8318 0.8332 0.8345 0.8359
811.000000 0.8371 0.8386 0.8400 0.8413 0.8427
816.000000 0.8438 0.8444 0.8448 0.8441 0.8434
821.000000 0.8427 0.8428 0.8438 0.8452 0.8468
826.000000 0.8482 0.8495 0.8508 0.8521 0.8537
831.000000 0.8555 0.8573 0.8586 0.8593 0.8600
836.000000 0.8607 0.8612 0.8612 0.8612 0.8613
841.000000 0.8613 0.8613 0.8613 0.8610 0.8607
846.000000 0.8604 0.8599 0.8594 0.8589 0.8584
851.000000 0.8578 0.8573 0.8566 0.8561 0.8557
856.000000 0.8552 0.8547 0.8542 0.8537 0.8532
861.000000 0.8528 0.8523 0.8520 0.8517 0.8515
866.000000 0.8512 0.8509 0.8506 0.8504 0.8501
871.000000 0.8497 0.8493 0.8488 0.8484 0.8480
876.000000 0.8475 0.8471 0.8468 0.8464 0.8459
881.000000 0.8455 0.8451 0.8447 0.8443 0.8438
886.000000 0.8434 0.8430 0.8425 0.8421 0.8417
891.000000 0.8413 0.8409 0.8404 0.8398 0.8393
896.000000 0.8387 0.8381 0.8375 0.8370 0.8366
901.000000 0.8362 0.8358 0.8354 0.8350 0.8346
906.000000 0.8343 0.8339 0.8335 0.8331 0.8327
911.000000 0.8323 0.8320 0.8316 0.8312 0.8309
916.000000 0.8307 0.8305 0.8302 0.8300 0.8298
921.000000 0.8295 0.8290 0.8285 0.8280 0.8275
926.000000 0.8270 0.8261 0.8247 0.8232 0.8218
931.000000 0.8203 0.8188 0.8171 0.8156 0.8140
936.000000 0.8124 0.8108 0.8098 0.8088 0.8076
941.000000 0.8071 0.8068 0.8065 0.8061 0.8058
946.000000 0.8058 0.8058 0.8058 0.8060 0.8060
951.000000 0.8060 0.8060 0.8060 0.8060 0.8060
956.000000 0.8058 0.8058 0.8057 0.8057 0.8047
961.000000 0.8036 0.8025 0.8014 0.8001 0.7989
966.000000 0.7975 0.7964 0.7951 0.7933 0.7915
971.000000 0.7898 0.7880 0.7861 0.7840 0.7815
976.000000 0.7793 0.7768 0.7736 0.7728 0.7725
981.000000 0.7724 0.7724 0.7724 0.7725 0.7726
986.000000 0.7728 0.7731 0.7731 0.7728 0.7725
991.000000 0.7721 0.7718 0.7715 0.7712 0.7708
996.000000 0.7701 0.7693 0.7685 0.7678 0.7669
1001.000000 0.7661 0.7654 0.7646 0.7638 0.7630
1006.000000 0.7621 0.7614 0.7606 0.7598 0.7590
1011.000000 0.7582 0.7575 0.7567 0.7560 0.7551
1016.000000 0.7544 0.7537 0.7528 0.7521 0.7514
1021.000000 0.7506 0.7499 0.7492 0.7485 0.7478
1026.000000 0.7471 0.7465 0.7458 0.7453 0.7446
1031.000000 0.7440 0.7433 0.7425 0.7419 0.7414
1036.000000 0.7408 0.7403 0.7397 0.7391 0.7385
1041.000000 0.7378 0.7374 0.7368 0.7361 0.7361
1046.000000 0.7360 0.7358 0.7358 0.7357 0.7356
1051.000000 0.7354 0.7350 0.7346 0.7341 0.7337
1056.000000 0.7333 0.7328 0.7321 0.7314 0.7305
1061.000000 0.7297 0.7289 0.7280 0.7271 0.7264
1066.000000 0.7256 0.7247 0.7239 0.7231 0.7222
1071.000000 0.7215 0.7207 0.7199 0.7191 0.7183
1076.000000 0.7175 0.7165 0.7154 0.7141 0.7128
1081.000000 0.7124 0.7121 0.7119 0.7117 0.7115
1086.000000 0.7112 0.7112 0.7112 0.7111 0.7118
1091.000000 0.7118 0.7118 0.7118 0.7119 0.7119
1096.000000 0.7125 0.7128 0.7134 0.7141 0.7148
1101.000000 0.7156 0.7164 0.7172 0.7181 0.7190
1106.000000 0.7198 0.7207 0.7214 0.7219 0.7226
1111.000000 0.7234 0.7242 0.7249 0.7256 0.7264
1116.000000 0.7271 0.7278 0.7286 0.7293 0.7301
1121.000000 0.7308 0.7315 0.7322 0.7330 0.7337
1126.000000 0.7341 0.7346 0.7350 0.7354 0.7358
1131.000000 0.7362 0.7368 0.7371 0.7375 0.7381
1136.000000 0.7385 0.7388 0.7392 0.7396 0.7399
1141.000000 0.7403 0.7407 0.7410 0.7414 0.7418
1146.000000 0.7421 0.7425 0.7425 0.7425 0.7421
1151.000000 0.7415 0.7411 0.7406 0.7401 0.7397
1156.000000 0.7394 0.7390 0.7387 0.7383 0.7382
1161.000000 0.7380 0.7378 0.7375 0.7374 0.7371
1166.000000 0.7369 0.7369 0.7369 0.7371 0.7371
1171.000000 0.7371 0.7371 0.7372 0.7374 0.7374
1176.000000 0.7375 0.7375 0.7375 0.7376 0.7376
1181.000000 0.7378 0.7380 0.7384 0.7387 0.7391
1186.000000 0.7394 0.7398 0.7403 0.7408 0.7414
1191.000000 0.7418 0.7424 0.7430 0.7435 0.7441
1196.000000 0.7441 0.7440 0.7439 0.7437 0.7436
1201.000000 0.7435 0.7425 0.7415 0.7405 0.7395
1206.000000 0.7380 0.7364 0.7351 0.7340 0.7328
1211.000000 0.7317 0.7305 0.7294 0.7282 0.7274
1216.000000 0.7265 0.7258 0.7250 0.7242 0.7236
1221.000000 0.7230 0.7225 0.7233 0.7235 0.7256
1226.000000 0.7268 0.7281 0.7295 0.7308 0.7322
1231.000000 0.7335 0.7347 0.7358 0.7369 0.7368
1236.000000 0.7368 0.7365 0.7361 0.7358 0.7355
1241.000000 0.7351 0.7349 0.7347 0.7345 0.7344
1246.000000 0.7342 0.7342 0.7341 0.7341 0.7342
1251.000000 0.7342 0.7343 0.7344 0.7344 0.7346
1256.000000 0.7347 0.7351 0.7358 0.7364 0.7368
1261.000000 0.7374 0.7382 0.7390 0.7391 0.7391
1266.000000 0.7385 0.7378 0.7368 0.7360 0.7348
1271.000000 0.7328 0.7308 0.7305 0.7304 0.7304
1276.000000 0.7304 0.7317 0.7330 0.7342 0.7355
1281.000000 0.7365 0.7375 0.7386 0.7397 0.7407
1286.000000 0.7412 0.7418 0.7421 0.7426 0.7432
1291.000000 0.7436 0.7436 0.7436 0.7436 0.7437
1296.000000 0.7437 0.7437 0.7434 0.7428 0.7421
1301.000000 0.7414 0.7408 0.7401 0.7393 0.7384
1306.000000 0.7375 0.7367 0.7358 0.7349 0.7341
1311.000000 0.7330 0.7318 0.7306 0.7294 0.7282
1316.000000 0.7271 0.7267 0.7261 0.7257 0.7251
1321.000000 0.7247 0.7241 0.7235 0.7215 0.7196
1326.000000 0.7176 0.7145 0.7111 0.7080 0.7053
1331.000000 0.7025 0.7003 0.6994 0.6986 0.6980
1336.000000 0.6981 0.6982 0.6983 0.6983 0.6983
1341.000000 0.6981 0.6978 0.6975 0.6974 0.6974
1346.000000 0.6974 0.6974 0.6974 0.6974 0.6974
1351.000000 0.6974 0.6978 0.6984 0.6991 0.6997
1356.000000 0.7003 0.7008 0.7012 0.7021 0.7028
1361.000000 0.7036 0.7044 0.7047 0.7049 0.7051
1366.000000 0.7053 0.7055 0.7057 0.7057 0.7058
1371.000000 0.7058 0.7058 0.7058 0.7060 0.7060
1376.000000 0.7061 0.7061 0.7061 0.7060 0.7060
1381.000000 0.7058 0.7058 0.7058 0.7057 0.7057
1386.000000 0.7056 0.7056 0.7055 0.7054 0.7054
1391.000000 0.7053 0.7053 0.7051 0.7050 0.7048
1396.000000 0.7046 0.7044 0.7042 0.7040 0.7039
1401.000000 0.7040 0.7041 0.7042 0.7044 0.7046
1406.000000 0.7047 0.7049 0.7051 0.7051 0.7054
1411.000000 0.7056 0.7057 0.7058 0.7061 0.7061
1416.000000 0.7064 0.7065 0.7067 0.7068 0.7071
1421.000000 0.7071 0.7071 0.7069 0.7068 0.7068
1426.000000 0.7065 0.7065 0.7062 0.7062 0.7062
1431.000000 0.7062 0.7061 0.7057 0.7054 0.7050
1436.000000 0.7041 0.7030 0.7018 0.7006 0.6995
1441.000000 0.6983 0.6971 0.6969 0.6968 0.6967
1446.000000 0.6965 0.6965 0.6968 0.6969 0.6972
1451.000000 0.6975 0.6976 0.6980 0.6982 0.6985
1456.000000 0.6989 0.6993 0.6997 0.7001 0.7006
1461.000000 0.7010 0.7014 0.7014 0.7014 0.7014
1466.000000 0.7014 0.7015 0.7015 0.7015 0.7015
1471.000000 0.7015 0.7012 0.7011 0.7008 0.7007
1476.000000 0.7005 0.6992 0.6972 0.6949 0.6924
1481.000000 0.6899 0.6878 0.6860 0.6841 0.6821
1486.000000 0.6805 0.6789 0.6772 0.6757 0.6754
1491.000000 0.6754 0.6755 0.6762 0.6769 0.6778
1496.000000 0.6785 0.6793 0.6807 0.6821 0.6835
1501.000000 0.6848 0.6858 0.6869 0.6882 0.6889
1506.000000 0.6894 0.6899 0.6904 0.6910 0.6915
1511.000000 0.6918 0.6921 0.6921 0.6922 0.6924
1516.000000 0.6925 0.6925 0.6925 0.6925 0.6922
1521.000000 0.6921 0.6918 0.6917 0.6915 0.6912
1526.000000 0.6911 0.6910 0.6908 0.6905 0.6900
1531.000000 0.6895 0.6890 0.6885 0.6880 0.6875
1536.000000 0.6875 0.6875 0.6875 0.6876 0.6878
1541.000000 0.6878 0.6880 0.6881 0.6883 0.6885
1546.000000 0.6887 0.6890 0.6892 0.6894 0.6896
1551.000000 0.6898 0.6900 0.6901 0.6904 0.6905
1556.000000 0.6907 0.6908 0.6911 0.6911 0.6911
1561.000000 0.6911 0.6911 0.6911 0.6911 0.6910
1566.000000 0.6910 0.6908 0.6906 0.6903 0.6901
1571.000000 0.6898 0.6896 0.6893 0.6889 0.6883
1576.000000 0.6876 0.6871 0.6865 0.6858 0.6851
1581.000000 0.6846 0.6840 0.6834 0.6828 0.6821
1586.000000 0.6815 0.6810 0.6800 0.6789 0.6776
1591.000000 0.6765 0.6755 0.6746 0.6744 0.6743
1596.000000 0.6741 0.6740 0.6738 0.6736 0.6735
1601.000000 0.6733 0.6732 0.6732 0.6731 0.6731
1606.000000 0.6730 0.6730 0.6726 0.6721 0.6715
1611.000000 0.6711 0.6705 0.6700 0.6694 0.6689
1616.000000 0.6686 0.6683 0.6680 0.6676 0.6674
1621.000000 0.6671 0.6668 0.6665 0.6661 0.6658
1626.000000 0.6656 0.6654 0.6651 0.6649 0.6647
1631.000000 0.6645 0.6642 0.6640 0.6628 0.6636
1636.000000 0.6633 0.6631 0.6628 0.6628 0.6628
1641.000000 0.6628 0.6628 0.6628 0.6628 0.6628
1646.000000 0.6626 0.6626 0.6626 0.6626 0.6628
1651.000000 0.6628 0.6631 0.6632 0.6633 0.6635
1656.000000 0.6636 0.6637 0.6639 0.6644 0.6649
1661.000000 0.6654 0.6658 0.6662 0.6668 0.6672
1666.000000 0.6678 0.6682 0.6687 0.6691 0.6695
1671.000000 0.6698 0.6701 0.6706 0.6708 0.6712
1676.000000 0.6717 0.6719 0.6724 0.6728 0.6731
1681.000000 0.6735 0.6739 0.6742 0.6746 0.6750
1686.000000 0.6754 0.6757 0.6761 0.6765 0.6771
1691.000000 0.6775 0.6781 0.6786 0.6791 0.6796
1696.000000 0.6801 0.6807 0.6811 0.6811 0.6814
1701.000000 0.6815 0.6818 0.6818 0.6821 0.6822
1706.000000 0.6825 0.6826 0.6828 0.6830 0.6832
1711.000000 0.6834 0.6835 0.6835 0.6835 0.6835
1716.000000 0.6835 0.6835 0.6836 0.6836 0.6836
1721.000000 0.6836 0.6836 0.6836 0.6836 0.6836
1726.000000 0.6836 0.6836 0.6836 0.6837 0.6837
1731.000000 0.6837 0.6836 0.6836 0.6835 0.6835
1736.000000 0.6834 0.6834 0.6833 0.6833 0.6832
1741.000000 0.6832 0.6831 0.6831 0.6831 0.6831
1746.000000 0.6831 0.6831 0.6831 0.6831 0.6831
1751.000000 0.6831 0.6831 0.6831 0.6832 0.6832
1756.000000 0.6832 0.6832 0.6832 0.6832 0.6832
1761.000000 0.6832 0.6832 0.6832 0.6832 0.6832
1766.000000 0.6832 0.6831 0.6831 0.6830 0.6830
1771.000000 0.6828 0.6828 0.6828 0.6828 0.6826
1776.000000 0.6825 0.6825 0.6825 0.6825 0.6824
1781.000000 0.6822 0.6822 0.6821 0.6821 0.6821
1786.000000 0.6821 0.6819 0.6818 0.6818 0.6818
1791.000000 0.6818 0.6817 0.6815 0.6815 0.6815
1796.000000 0.6815 0.6814 0.6812 0.6812 0.6811
1801.000000 0.6811 0.6811 0.6810 0.6808 0.6808
1806.000000 0.6808 0.6807 0.6807 0.6806 0.6805
1811.000000 0.6805 0.6804 0.6804 0.6803 0.6801
1816.000000 0.6801 0.6801 0.6800 0.6798 0.6797
1821.000000 0.6795 0.6794 0.6792 0.6791 0.6789
1826.000000 0.6788 0.6786 0.6785 0.6784 0.6783
1831.000000 0.6782 0.6781 0.6778 0.6778 0.6776
1836.000000 0.6775 0.6775 0.6774 0.6771 0.6771
1841.000000 0.6768 0.6768 0.6767 0.6765 0.6764
1846.000000 0.6761 0.6761 0.6758 0.6758 0.6757
1851.000000 0.6756 0.6756 0.6756 0.6755 0.6755
1856.000000 0.6755 0.6755 0.6755 0.6755 0.6755
1861.000000 0.6754 0.6754 0.6754 0.6754 0.6754
1866.000000 0.6754 0.6754 0.6751 0.6749 0.6747
1871.000000 0.6744 0.6742 0.6740 0.6737 0.6735
1876.000000 0.6732 0.6730 0.6728 0.6725 0.6722
1881.000000 0.6719 0.6718 0.6715 0.6712 0.6711
1886.000000 0.6708 0.6706 0.6704 0.6701 0.6700
1891.000000 0.6699 0.6698 0.6697 0.6696 0.6694
1896.000000 0.6693 0.6692 0.6691 0.6690 0.6689
1901.000000 0.6688 0.6687 0.6686 0.6685 0.6684
1906.000000 0.6683 0.6682 0.6681 0.6678 0.6676
1911.000000 0.6675 0.6674 0.6671 0.6669 0.6668
1916.000000 0.6667 0.6665 0.6662 0.6661 0.6660
1921.000000 0.6658 0.6656 0.6654 0.6651 0.6651
1926.000000 0.6649 0.6647 0.6645 0.6643 0.6642
1931.000000 0.6640 0.6638 0.6636 0.6634 0.6632
1936.000000 0.6630 0.6628 0.6625 0.6624 0.6621
1941.000000 0.6619 0.6618 0.6615 0.6614 0.6611
1946.000000 0.6610 0.6608 0.6605 0.6603 0.6601
1951.000000 0.6599 0.6597 0.6594 0.6592 0.6590
1956.000000 0.6588 0.6586 0.6583 0.6581 0.6578
1961.000000 0.6576 0.6574 0.6571 0.6569 0.6567
1966.000000 0.6565 0.6562 0.6560 0.6558 0.6556
1971.000000 0.6553 0.6551 0.6549 0.6546 0.6544
1976.000000 0.6542 0.6539 0.6537 0.6535 0.6532
1981.000000 0.6530 0.6528 0.6525 0.6522 0.6521
1986.000000 0.6518 0.6518 0.6517 0.6517 0.6517
1991.000000 0.6515 0.6515 0.6515 0.6515 0.6515
1996.000000 0.6514 0.6514 0.6512 0.6512 0.6512
2001.000000 0.6508 0.6503 0.6498 0.6493 0.6488
2006.000000 0.6483 0.6478 0.6474 0.6468 0.6464
2011.000000 0.6458 0.6454 0.6449 0.6444 0.6439
2016.000000 0.6434 0.6428 0.6424 0.6418 0.6412
2021.000000 0.6407 0.6401 0.6396 0.6391 0.6385
2026.000000 0.6380 0.6374 0.6369 0.6362 0.6358
2031.000000 0.6352 0.6347 0.6343 0.6340 0.6337
2036.000000 0.6334 0.6331 0.6328 0.6325 0.6322
2041.000000 0.6319 0.6316 0.6312 0.6310 0.6307
2046.000000 0.6305 0.6302 0.6299 0.6296 0.6293
2051.000000 0.6290 0.6287 0.6284 0.6281 0.6279
2056.000000 0.6278 0.6277 0.6276 0.6275 0.6275
2061.000000 0.6274 0.6273 0.6272 0.6272 0.6271
2066.000000 0.6270 0.6269 0.6269 0.6268 0.6267
2071.000000 0.6266 0.6266 0.6265 0.6264 0.6262
2076.000000 0.6262 0.6260 0.6260 0.6260 0.6259
2081.000000 0.6258 0.6258 0.6257 0.6256 0.6255
2086.000000 0.6255 0.6255 0.6255 0.6254 0.6254
2091.000000 0.6254 0.6254 0.6254 0.6254 0.6254
2096.000000 0.6254 0.6254 0.6254 0.6254 0.6254
2101.000000 0.6253 0.6253 0.6253 0.6253 0.6253
2106.000000 0.6253 0.6253 0.6253 0.6253 0.6253
2111.000000 0.6253 0.6253 0.6252 0.6252 0.6251
2116.000000 0.6251 0.6250 0.6250 0.6249 0.6248
2121.000000 0.6247 0.6247 0.6246 0.6246 0.6244
2126.000000 0.6242 0.6239 0.6236 0.6233 0.6231
2131.000000 0.6228 0.6226 0.6223 0.6220 0.6217
2136.000000 0.6215 0.6212 0.6209 0.6206 0.6204
2141.000000 0.6201 0.6198 0.6195 0.6193 0.6190
2146.000000 0.6187 0.6184 0.6182 0.6179 0.6177
2151.000000 0.6175 0.6174 0.6172 0.6171 0.6169
2156.000000 0.6168 0.6166 0.6165 0.6162 0.6162
2161.000000 0.6160 0.6160 0.6158 0.6157 0.6155
2166.000000 0.6154 0.6152 0.6151 0.6149 0.6148
2171.000000 0.6146 0.6145 0.6143 0.6142 0.6140
2176.000000 0.6139 0.6138 0.6137 0.6136 0.6136
2181.000000 0.6135 0.6134 0.6133 0.6133 0.6132
2186.000000 0.6132 0.6131 0.6130 0.6129 0.6129
2191.000000 0.6128 0.6127 0.6126 0.6126 0.6125
2196.000000 0.6125 0.6124 0.6123 0.6122 0.6122
2201.000000 0.6121 0.6120 0.6119 0.6119 0.6118
2206.000000 0.6118 0.6117 0.6116 0.6115 0.6115
2211.000000 0.6114 0.6114 0.6112 0.6110 0.6108
2216.000000 0.6107 0.6105 0.6103 0.6101 0.6099
2221.000000 0.6097 0.6096 0.6094 0.6092 0.6090
2226.000000 0.6089 0.6087 0.6085 0.6083 0.6082
2231.000000 0.6080 0.6078 0.6076 0.6075 0.6073
2236.000000 0.6071 0.6069 0.6068 0.6066 0.6064
2241.000000 0.6062 0.6060 0.6059 0.6057 0.6055
2246.000000 0.6054 0.6052 0.6050 0.6048 0.6046
2251.000000 0.6044 0.6043 0.6041 0.6039 0.6037
2256.000000 0.6036 0.6034 0.6032 0.6030 0.6029
2261.000000 0.6027 0.6026 0.6024 0.6022 0.6020
2266.000000 0.6019 0.6017 0.6015 0.6012 0.6012
2271.000000 0.6010 0.6008 0.6006 0.6005 0.6003
2276.000000 0.6001 0.5999 0.5998 0.5996 0.5994
2281.000000 0.5992 0.5991 0.5990 0.5989 0.5988
2286.000000 0.5987 0.5986 0.5986 0.5985 0.5984
2291.000000 0.5983 0.5982 0.5981 0.5980 0.5979
2296.000000 0.5978 0.5977 0.5976 0.5975 0.5974
2301.000000 0.5973 0.5973 0.5972 0.5971 0.5970
2306.000000 0.5969 0.5968 0.5967 0.5966 0.5965
2311.000000 0.5964 0.5964 0.5964 0.5965 0.5966
2316.000000 0.5967 0.5968 0.5969 0.5969 0.5970
2321.000000 0.5971 0.5972 0.5973 0.5974 0.5974
2326.000000 0.5975 0.5976 0.5977 0.5977 0.5978
2331.000000 0.5979 0.5980 0.5981 0.5982 0.5982
2336.000000 0.5983 0.5984 0.5985 0.5985 0.5986
2341.000000 0.5987 0.5988 0.5989 0.5990 0.5990
2346.000000 0.5991 0.5992 0.5993 0.5993 0.5994
2351.000000 0.5995 0.5996 0.5996 0.5997 0.5998
2356.000000 0.5999 0.5999 0.6000 0.6001 0.6002
2361.000000 0.6002 0.6003 0.6004 0.6005 0.6005
2366.000000 0.6004 0.6003 0.6001 0.5998 0.5995
2371.000000 0.5992 0.5989 0.5985 0.5982 0.5979
2376.000000 0.5976 0.5973 0.5970 0.5965 0.5960
2381.000000 0.5954 0.5949 0.5943 0.5937 0.5931
2386.000000 0.5925 0.5919 0.5912 0.5907 0.5901
2391.000000 0.5894 0.5888 0.5881 0.5875 0.5868
2396.000000 0.5862 0.5855 0.5849 0.5842 0.5836
2401.000000 0.5834 0.5832 0.5830 0.5829 0.5827
2406.000000 0.5826 0.5825 0.5824 0.5822 0.5821
2411.000000 0.5819 0.5818 0.5817 0.5816 0.5815
2416.000000 0.5815 0.5814 0.5814 0.5812 0.5812
2421.000000 0.5812 0.5812 0.5810 0.5810 0.5809
2426.000000 0.5808 0.5806 0.5805 0.5803 0.5802
2431.000000 0.5800 0.5799 0.5797 0.5796 0.5794
2436.000000 0.5793 0.5792 0.5791 0.5789 0.5788
2441.000000 0.5786 0.5785 0.5783 0.5782 0.5781
2446.000000 0.5780 0.5779 0.5778 0.5777 0.5776
2451.000000 0.5774 0.5773 0.5772 0.5771 0.5770
2456.000000 0.5769 0.5768 0.5767 0.5766 0.5765
2461.000000 0.5764 0.5762 0.5762 0.5760 0.5760
2466.000000 0.5759 0.5758 0.5757 0.5756 0.5755
2471.000000 0.5753 0.5752 0.5751 0.5750 0.5749
2476.000000 0.5748 0.5747 0.5746 0.5745 0.5744
2481.000000 0.5743 0.5742 0.5741 0.5740 0.5739
2486.000000 0.5738 0.5737 0.5736 0.5736 0.5736
2491.000000 0.5736 0.5736 0.5735 0.5735 0.5735
2496.000000 0.5735 0.5735 0.5735 0.5735 0.5735
2501.000000 0.5734 0.5734 0.5734 0.5734 0.5734
2506.000000 0.5734 0.5734 0.5734 0.5733 0.5733
2511.000000 0.5732 0.5731 0.5730 0.5729 0.5728
2516.000000 0.5727 0.5725 0.5724 0.5723 0.5722
2521.000000 0.5721 0.5720 0.5719 0.5718 0.5717
2526.000000 0.5716 0.5715 0.5714 0.5712 0.5712
2531.000000 0.5712 0.5710 0.5710 0.5709 0.5708
2536.000000 0.5708 0.5707 0.5706 0.5705 0.5704
2541.000000 0.5703 0.5703 0.5702 0.5701 0.5700
2546.000000 0.5700 0.5699 0.5698 0.5697 0.5696
2551.000000 0.5695 0.5695 0.5693 0.5692 0.5691
2556.000000 0.5690 0.5689 0.5688 0.5687 0.5686
2561.000000 0.5685 0.5684 0.5683 0.5682 0.5680
2566.000000 0.5679 0.5678 0.5677 0.5676 0.5675
2571.000000 0.5674 0.5673 0.5672 0.5671 0.5670
2576.000000 0.5669 0.5667 0.5666 0.5665 0.5664
2581.000000 0.5662 0.5662 0.5660 0.5660 0.5659
2586.000000 0.5658 0.5656 0.5655 0.5654 0.5653
2591.000000 0.5651 0.5650 0.5648 0.5647 0.5645
2596.000000 0.5644 0.5642 0.5641 0.5639 0.5638
2601.000000 0.5636 0.5635 0.5633 0.5632 0.5631
2606.000000 0.5630 0.5628 0.5627 0.5625 0.5624
2611.000000 0.5622 0.5621 0.5619 0.5618 0.5616
2616.000000 0.5615 0.5612 0.5612 0.5610 0.5609
2621.000000 0.5608 0.5607 0.5605 0.5604 0.5602
2626.000000 0.5601 0.5599 0.5598 0.5596 0.5595
2631.000000 0.5593 0.5592 0.5590 0.5589 0.5587
2636.000000 0.5586 0.5585 0.5584 0.5582 0.5581
2641.000000 0.5579 0.5578 0.5576 0.5575 0.5573
2646.000000 0.5572 0.5571 0.5570 0.5568 0.5567
2651.000000 0.5565 0.5564 0.5562 0.5560 0.5559
2656.000000 0.5558 0.5557 0.5556 0.5554 0.5553
2661.000000 0.5551 0.5550 0.5548 0.5547 0.5545
2666.000000 0.5544 0.5542 0.5541 0.5539 0.5538
2671.000000 0.5536 0.5534 0.5532 0.5530 0.5528
2676.000000 0.5527 0.5525 0.5523 0.5521 0.5519
2681.000000 0.5517 0.5515 0.5512 0.5512 0.5510
2686.000000 0.5508 0.5506 0.5504 0.5502 0.5501
2691.000000 0.5499 0.5497 0.5495 0.5493 0.5491
2696.000000 0.5490 0.5488 0.5486 0.5484 0.5483
2701.000000 0.5481 0.5480 0.5478 0.5477 0.5475
2706.000000 0.5474 0.5472 0.5471 0.5470 0.5469
2711.000000 0.5467 0.5466 0.5464 0.5462 0.5460
2716.000000 0.5460 0.5458 0.5457 0.5455 0.5454
2721.000000 0.5452 0.5451 0.5450 0.5449 0.5447
2726.000000 0.5446 0.5444 0.5443 0.5441 0.5440
2731.000000 0.5438 0.5437 0.5435 0.5434 0.5433
2736.000000 0.5432 0.5430 0.5429 0.5427 0.5426
2741.000000 0.5424 0.5423 0.5421 0.5420 0.5418
2746.000000 0.5417 0.5415 0.5414 0.5412 0.5410
2751.000000 0.5409 0.5408 0.5406 0.5405 0.5403
2756.000000 0.5402 0.5400 0.5399 0.5397 0.5396
2761.000000 0.5394 0.5393 0.5391 0.5390 0.5388
2766.000000 0.5387 0.5386 0.5385 0.5383 0.5382
2771.000000 0.5380 0.5379 0.5377 0.5376 0.5374
2776.000000 0.5373 0.5371 0.5370 0.5368 0.5367
2781.000000 0.5365 0.5364 0.5362 0.5360 0.5359
2786.000000 0.5358 0.5356 0.5355 0.5353 0.5351
2791.000000 0.5349 0.5347 0.5345 0.5343 0.5341
2796.000000 0.5339 0.5337 0.5335 0.5333 0.5331
2801.000000 0.5329 0.5328 0.5326 0.5324 0.5322
2806.000000 0.5320 0.5318 0.5316 0.5314 0.5312
2811.000000 0.5310 0.5308 0.5306 0.5304 0.5302
2816.000000 0.5300 0.5298 0.5297 0.5295 0.5293
2821.000000 0.5291 0.5289 0.5287 0.5285 0.5283
2826.000000 0.5281 0.5278 0.5276 0.5273 0.5270
2831.000000 0.5267 0.5265 0.5262 0.5259 0.5256
2836.000000 0.5253 0.5250 0.5248 0.5245 0.5242
2841.000000 0.5239 0.5237 0.5234 0.5231 0.5228
2846.000000 0.5225 0.5222 0.5220 0.5217 0.5214
2851.000000 0.5210 0.5209 0.5206 0.5203 0.5200
2856.000000 0.5198 0.5195 0.5192 0.5189 0.5186
2861.000000 0.5183 0.5181 0.5178 0.5175 0.5172
2866.000000 0.5170 0.5167 0.5164 0.5160 0.5158
2871.000000 0.5155 0.5153 0.5151 0.5150 0.5149
2876.000000 0.5148 0.5146 0.5145 0.5143 0.5142
2881.000000 0.5140 0.5139 0.5137 0.5136 0.5134
2886.000000 0.5133 0.5131 0.5130 0.5128 0.5127
2891.000000 0.5125 0.5124 0.5123 0.5122 0.5120
2896.000000 0.5119 0.5117 0.5116 0.5114 0.5112
2901.000000 0.5110 0.5110 0.5108 0.5107 0.5105
2906.000000 0.5104 0.5102 0.5101 0.5100 0.5099
2911.000000 0.5097 0.5095 0.5093 0.5092 0.5090
2916.000000 0.5088 0.5086 0.5085 0.5083 0.5081
2921.000000 0.5079 0.5077 0.5075 0.5074 0.5072
2926.000000 0.5070 0.5068 0.5067 0.5065 0.5062
2931.000000 0.5060 0.5060 0.5058 0.5056 0.5054
2936.000000 0.5053 0.5051 0.5049 0.5047 0.5045
2941.000000 0.5043 0.5042 0.5040 0.5039 0.5038
2946.000000 0.5038 0.5037 0.5036 0.5035 0.5035
2951.000000 0.5034 0.5033 0.5032 0.5032 0.5031
2956.000000 0.5030 0.5029 0.5029 0.5028 0.5027
2961.000000 0.5026 0.5026 0.5025 0.5024 0.5023
2966.000000 0.5023 0.5023 0.5023 0.5024 0.5025
2971.000000 0.5026 0.5027 0.5028 0.5029 0.5030
2976.000000 0.5031 0.5032 0.5033 0.5034 0.5035
2981.000000 0.5036 0.5037 0.5038 0.5039 0.5040
2986.000000 0.5041 0.5042 0.5043 0.5044 0.5045
2991.000000 0.5046 0.5047 0.5048 0.5049 0.5050
2996.000000 0.5051 0.5052 0.5053 0.5054 0.5056
3001.000000 0.5057 0.5058 0.5059 0.5060 0.5060
3006.000000 0.5062 0.5062 0.5065 0.5066 0.5067
3011.000000 0.5068 0.5069 0.5070 0.5071 0.5072
3016.000000 0.5074 0.5075 0.5076 0.5076 0.5077
3021.000000 0.5077 0.5077 0.5077 0.5078 0.5078
3026.000000 0.5078 0.5078 0.5079 0.5079 0.5079
3031.000000 0.5079 0.5080 0.5080 0.5080 0.5080
3036.000000 0.5080 0.5079 0.5079 0.5077 0.5075
3041.000000 0.5072 0.5070 0.5067 0.5065 0.5062
3046.000000 0.5060 0.5058 0.5056 0.5053 0.5051
3051.000000 0.5048 0.5045 0.5044 0.5042 0.5040
3056.000000 0.5039 0.5037 0.5035 0.5033 0.5032
3061.000000 0.5030 0.5028 0.5026 0.5025 0.5023
3066.000000 0.5021 0.5019 0.5018 0.5016 0.5014
3071.000000 0.5012 0.5010 0.5009 0.5007 0.5005
3076.000000 0.5003 0.5001 0.5000 0.4998 0.4996
3081.000000 0.4994 0.4992 0.4990 0.4988 0.4985
3086.000000 0.4983 0.4981 0.4979 0.4976 0.4974
3091.000000 0.4971 0.4969 0.4967 0.4965 0.4962
3096.000000 0.4960 0.4957 0.4955 0.4953 0.4951
3101.000000 0.4948 0.4946 0.4944 0.4942 0.4939
3106.000000 0.4937 0.4934 0.4932 0.4930 0.4928
3111.000000 0.4925 0.4923 0.4921 0.4919 0.4916
3116.000000 0.4914 0.4910 0.4909 0.4907 0.4905
3121.000000 0.4902 0.4900 0.4897 0.4895 0.4893
3126.000000 0.4891 0.4889 0.4887 0.4885 0.4883
3131.000000 0.4881 0.4879 0.4877 0.4875 0.4873
3136.000000 0.4871 0.4869 0.4867 0.4865 0.4864
3141.000000 0.4862 0.4860 0.4858 0.4856 0.4854
3146.000000 0.4852 0.4850 0.4848 0.4846 0.4844
3151.000000 0.4842 0.4840 0.4838 0.4837 0.4835
3156.000000 0.4833 0.4831 0.4829 0.4827 0.4825
3161.000000 0.4823 0.4821 0.4819 0.4817 0.4815
3166.000000 0.4812 0.4810 0.4810 0.4808 0.4806
3171.000000 0.4804 0.4802 0.4800 0.4798 0.4796
3176.000000 0.4794 0.4792 0.4790 0.4788 0.4786
3181.000000 0.4783 0.4780 0.4777 0.4775 0.4772
3186.000000 0.4770 0.4767 0.4765 0.4762 0.4760
3191.000000 0.4757 0.4755 0.4752 0.4749 0.4746
3196.000000 0.4744 0.4741 0.4739 0.4736 0.4734
3201.000000 0.4731 0.4729 0.4726 0.4723 0.4720
3206.000000 0.4718 0.4715 0.4712 0.4710 0.4708
3211.000000 0.4705 0.4703 0.4700 0.4698 0.4695
3216.000000 0.4692 0.4689 0.4687 0.4684 0.4682
3221.000000 0.4679 0.4677 0.4674 0.4672 0.4669
3226.000000 0.4667 0.4664 0.4660 0.4658 0.4656
3231.000000 0.4653 0.4650 0.4647 0.4644 0.4641
3236.000000 0.4638 0.4635 0.4632 0.4629 0.4626
3241.000000 0.4623 0.4620 0.4617 0.4614 0.4610
3246.000000 0.4608 0.4605 0.4602 0.4599 0.4596
3251.000000 0.4593 0.4590 0.4587 0.4584 0.4581
3256.000000 0.4578 0.4574 0.4571 0.4568 0.4565
3261.000000 0.4562 0.4559 0.4556 0.4553 0.4550
3266.000000 0.4547 0.4544 0.4541 0.4538 0.4535
3271.000000 0.4532 0.4529 0.4526 0.4523 0.4520
3276.000000 0.4517 0.4514 0.4510 0.4508 0.4505
3281.000000 0.4501 0.4498 0.4495 0.4492 0.4489
3286.000000 0.4486 0.4482 0.4479 0.4476 0.4473
3291.000000 0.4470 0.4467 0.4462 0.4460 0.4457
3296.000000 0.4454 0.4451 0.4448 0.4444 0.4441
3301.000000 0.4438 0.4435 0.4432 0.4429 0.4425
3306.000000 0.4422 0.4419 0.4416 0.4412 0.4410
3311.000000 0.4406 0.4403 0.4400 0.4397 0.4394
3316.000000 0.4391 0.4387 0.4384 0.4381 0.4378
3321.000000 0.4375 0.4372 0.4368 0.4365 0.4362
3326.000000 0.4359 0.4355 0.4352 0.4348 0.4344
3331.000000 0.4340 0.4336 0.4332 0.4329 0.4325
3336.000000 0.4321 0.4317 0.4314 0.4310 0.4306
3341.000000 0.4302 0.4298 0.4294 0.4291 0.4287
3346.000000 0.4283 0.4279 0.4276 0.4272 0.4268
3351.000000 0.4264 0.4260 0.4256 0.4253 0.4249
3356.000000 0.4245 0.4241 0.4238 0.4234 0.4230
3361.000000 0.4226 0.4222 0.4218 0.4215 0.4210
3366.000000 0.4207 0.4203 0.4200 0.4196 0.4192
3371.000000 0.4188 0.4184 0.4180 0.4177 0.4173
3376.000000 0.4169 0.4165 0.4162 0.4159 0.4156
3381.000000 0.4153 0.4150 0.4147 0.4144 0.4141
3386.000000 0.4139 0.4136 0.4133 0.4130 0.4127
3391.000000 0.4124 0.4121 0.4118 0.4115 0.4112
3396.000000 0.4109 0.4106 0.4103 0.4100 0.4097
3401.000000 0.4094 0.4091 0.4088 0.4084 0.4082
3406.000000 0.4079 0.4076 0.4073 0.4070 0.4066
3411.000000 0.4064 0.4060 0.4059 0.4057 0.4055
3416.000000 0.4054 0.4052 0.4050 0.4049 0.4048
3421.000000 0.4046 0.4045 0.4043 0.4042 0.4040
3426.000000 0.4039 0.4037 0.4034 0.4032 0.4032
3431.000000 0.4030 0.4029 0.4027 0.4026 0.4024
3436.000000 0.4023 0.4021 0.4020 0.4018 0.4016
3441.000000 0.4014 0.4012 0.4010 0.4009 0.4008
3446.000000 0.4007 0.4005 0.4004 0.4003 0.4002
3451.000000 0.4000 0.4000 0.4000 0.4000 0.4000
3456.000000 0.4000 0.3999 0.3999 0.3998 0.3997
3461.000000 0.3997 0.3997 0.3996 0.3996 0.3995
3466.000000 0.3995 0.3994 0.3994 0.3993 0.3993
3471.000000 0.3993 0.3993 0.3994 0.3995 0.3996
3476.000000 0.3997 0.3997 0.3998 0.3999 0.4000
3481.000000 0.4000 0.4002 0.4003 0.4004 0.4004
3486.000000 0.4005 0.4006 0.4007 0.4008 0.4009
3491.000000 0.4009 0.4009 0.4010 0.4012 0.4012
3496.000000 0.4014 0.4014 0.4014 0.4016 0.4016
3501.000000 0.4018 0.4020 0.4021 0.4023 0.4024
3506.000000 0.4025 0.4026 0.4028 0.4029 0.4030
3511.000000 0.4032 0.4032 0.4034 0.4036 0.4037
3516.000000 0.4039 0.4040 0.4041 0.4042 0.4044
3521.000000 0.4045 0.4047 0.4048 0.4049 0.4050
3526.000000 0.4052 0.4053 0.4055 0.4056 0.4057
3531.000000 0.4059 0.4060 0.4062 0.4066 0.4068
3536.000000 0.4071 0.4073 0.4075 0.4077 0.4080
3541.000000 0.4082 0.4084 0.4087 0.4089 0.4091
3546.000000 0.4094 0.4096 0.4099 0.4101 0.4103
3551.000000 0.4105 0.4108 0.4110 0.4112 0.4115
3556.000000 0.4117 0.4119 0.4122 0.4125 0.4129
3561.000000 0.4132 0.4136 0.4139 0.4143 0.4146
3566.000000 0.4150 0.4153 0.4157 0.4160 0.4162
3571.000000 0.4166 0.4170 0.4173 0.4177 0.4180
3576.000000 0.4184 0.4187 0.4191 0.4194 0.4198
3581.000000 0.4201 0.4205 0.4208 0.4212 0.4215
3586.000000 0.4219 0.4222 0.4226 0.4229 0.4232
3591.000000 0.4235 0.4239 0.4242 0.4246 0.4249
3596.000000 0.4252 0.4255 0.4258 0.4260 0.4265
3601.000000 0.4268 0.4271 0.4274 0.4277 0.4280
3606.000000 0.4283 0.4286 0.4290 0.4293 0.4296
3611.000000 0.4299 0.4302 0.4305 0.4308 0.4310
3616.000000 0.4315 0.4318 0.4321 0.4324 0.4327
3621.000000 0.4330 0.4333 0.4336 0.4339 0.4341
3626.000000 0.4344 0.4346 0.4349 0.4352 0.4355
3631.000000 0.4357 0.4360 0.4362 0.4365 0.4367
3636.000000 0.4370 0.4372 0.4375 0.4378 0.4381
3641.000000 0.4383 0.4386 0.4388 0.4391 0.4392
3646.000000 0.4394 0.4395 0.4397 0.4398 0.4400
3651.000000 0.4401 0.4403 0.4404 0.4406 0.4407
3656.000000 0.4409 0.4410 0.4412 0.4412 0.4415
3661.000000 0.4416 0.4418 0.4419 0.4421 0.4422
3666.000000 0.4423 0.4424 0.4426 0.4427 0.4428
3671.000000 0.4429 0.4430 0.4431 0.4433 0.4434
3676.000000 0.4435 0.4436 0.4437 0.4438 0.4440
3681.000000 0.4441 0.4442 0.4443 0.4444 0.4444
3686.000000 0.4445 0.4445 0.4446 0.4446 0.4447
3691.000000 0.4447 0.4448 0.4448 0.4449 0.4449
3696.000000 0.4450 0.4450 0.4451 0.4451 0.4452
3701.000000 0.4452 0.4453 0.4453 0.4454 0.4454
3706.000000 0.4455 0.4455 0.4456 0.4456 0.4457
3711.000000 0.4457 0.4457 0.4456 0.4456 0.4456
3716.000000 0.4456 0.4456 0.4456 0.4456 0.4456
3721.000000 0.4455 0.4455 0.4455 0.4455 0.4455
3726.000000 0.4455 0.4454 0.4454 0.4454 0.4454
3731.000000 0.4454 0.4454 0.4453 0.4453 0.4453
3736.000000 0.4453 0.4452 0.4452 0.4452 0.4452
3741.000000 0.4451 0.4451 0.4451 0.4451 0.4450
3746.000000 0.4450 0.4450 0.4450 0.4449 0.4449
3751.000000 0.4448 0.4448 0.4448 0.4448 0.4446
3756.000000 0.4444 0.4442 0.4441 0.4439 0.4437
3761.000000 0.4435 0.4434 0.4432 0.4430 0.4428
3766.000000 0.4427 0.4425 0.4423 0.4421 0.4420
3771.000000 0.4418 0.4416 0.4414 0.4412 0.4410
3776.000000 0.4408 0.4406 0.4404 0.4402 0.4400
3781.000000 0.4398 0.4397 0.4395 0.4393 0.4391
3786.000000 0.4389 0.4387 0.4385 0.4383 0.4381
3791.000000 0.4379 0.4377 0.4375 0.4373 0.4371
3796.000000 0.4370 0.4368 0.4366 0.4365 0.4365
##END=
