##TITLE=2-PROPANONE,p-CHLOROPHENYL-
##JCAMP-DX=4.24
##DATA TYPE=INFRARED SPECTRUM
##CLASS=COBLENTZ III
##ORIGIN=ABBOTT LABORATORIES
##OWNER=Copyright (C) 1987 by the Coblentz Society
Collection (C) 2018 copyright by the U.S. Secretary of Commerce
on behalf of the United States of America. All rights reserved.
##DATE=1961/11/02
##NAMES=1-(4-chlorophenyl)acetone
Acetone, (p-chlorophenyl)-,
##CAS REGISTRY NO=5586-88-9
##MOLFORM=C9 H9 Cl O
##SOURCE REFERENCE=COBLENTZ NO. 5365
##$NIST SOURCE=COBLENTZ
##$NIST IMAGE=cob5365
##SPECTROMETER/DATA SYSTEM=PERKIN-ELMER 21 (GRATING)
##INSTRUMENT PARAMETERS=FILTER AT ABOUT 10 MICRONS
##STATE=SOLUTION 7% (CS2 FOR 7.5-15 microns, AND CCl4 FOR 2.5-7.5 microns)
##PATH LENGTH=0.01 CM
##RESOLUTION=2
##XUNITS=1/CM
##YUNITS=TRANSMITTANCE
##XFACTOR=1.0
##YFACTOR=1
##FIRSTX=667
##LASTX=4000
##FIRSTY=0.753
##MAXX=4000
##MINX=667
##MAXY=0.9415
##MINY=0.0704
##NPOINTS=3334
##XYDATA=(X++(Y..Y))
667.000000 0.7530 0.7490 0.7482 0.7475 0.7524
672.000000 0.7648 0.7868 0.8129 0.8358 0.8557
677.000000 0.8685 0.8741 0.8803 0.8870 0.8887
682.000000 0.8899 0.8901 0.8904 0.8905 0.8902
687.000000 0.8904 0.8905 0.8906 0.8901 0.8866
692.000000 0.8821 0.8802 0.8804 0.8806 0.8785
697.000000 0.8749 0.8697 0.8633 0.8556 0.8460
702.000000 0.8333 0.8206 0.8092 0.8002 0.7624
707.000000 0.7245 0.6876 0.6655 0.6654 0.6918
712.000000 0.7270 0.7620 0.8008 0.8303 0.8505
717.000000 0.8650 0.8739 0.8800 0.8847 0.8876
722.000000 0.8901 0.8915 0.8930 0.8944 0.8957
727.000000 0.8962 0.8964 0.8964 0.8952 0.8960
732.000000 0.8952 0.8943 0.8918 0.8889 0.8856
737.000000 0.8825 0.8793 0.8760 0.8724 0.8708
742.000000 0.8702 0.8696 0.8694 0.8691 0.8688
747.000000 0.8681 0.8675 0.8664 0.8643 0.8602
752.000000 0.8525 0.8449 0.8378 0.8282 0.8190
757.000000 0.8100 0.8015 0.7932 0.7835 0.7696
762.000000 0.7542 0.7264 0.6965 0.6586 0.6335
767.000000 0.6068 0.5788 0.5531 0.5333 0.5210
772.000000 0.5093 0.4994 0.4927 0.4898 0.4880
777.000000 0.4924 0.4980 0.5076 0.5316 0.5603
782.000000 0.5889 0.6176 0.6464 0.6767 0.6965
787.000000 0.7128 0.7241 0.7335 0.7422 0.7493
792.000000 0.7538 0.7555 0.7557 0.7538 0.7524
797.000000 0.7497 0.7462 0.7415 0.7350 0.7288
802.000000 0.7226 0.7160 0.7088 0.7010 0.6933
807.000000 0.6837 0.6733 0.6629 0.6524 0.6402
812.000000 0.6264 0.6103 0.5924 0.5744 0.5570
817.000000 0.5338 0.5112 0.4901 0.4698 0.4411
822.000000 0.4074 0.3796 0.3656 0.3656 0.3630
827.000000 0.3712 0.3847 0.4111 0.4389 0.4665
832.000000 0.4942 0.5217 0.5492 0.5706 0.5842
837.000000 0.5961 0.6084 0.6188 0.6285 0.6363
842.000000 0.6438 0.6509 0.6614 0.6746 0.6901
847.000000 0.7047 0.7191 0.7335 0.7479 0.7623
852.000000 0.7766 0.7912 0.8053 0.8170 0.8251
857.000000 0.8282 0.8302 0.8314 0.8357 0.8439
862.000000 0.8472 0.8484 0.8480 0.8475 0.8470
867.000000 0.8467 0.8467 0.8466 0.8465 0.8464
872.000000 0.8463 0.8462 0.8462 0.8461 0.8460
877.000000 0.8465 0.8472 0.8479 0.8486 0.8501
882.000000 0.8520 0.8539 0.8558 0.8580 0.8602
887.000000 0.8624 0.8644 0.8659 0.8658 0.8658
892.000000 0.8654 0.8650 0.8646 0.8647 0.8655
897.000000 0.8666 0.8678 0.8690 0.8703 0.8707
902.000000 0.8711 0.8715 0.8713 0.8711 0.8712
907.000000 0.8716 0.8727 0.8744 0.8757 0.8755
912.000000 0.8749 0.8738 0.8715 0.8688 0.8668
917.000000 0.8651 0.8638 0.8626 0.8613 0.8597
922.000000 0.8580 0.8563 0.8546 0.8528 0.8509
927.000000 0.8490 0.8470 0.8453 0.8435 0.8416
932.000000 0.8414 0.8419 0.8425 0.8442 0.8459
937.000000 0.8476 0.8487 0.8493 0.8493 0.8488
942.000000 0.8482 0.8475 0.8466 0.8456 0.8488
947.000000 0.8423 0.8422 0.8420 0.8419 0.8429
952.000000 0.8442 0.8438 0.8417 0.8380 0.8335
957.000000 0.8293 0.8279 0.8266 0.8251 0.8236
962.000000 0.8209 0.8161 0.8112 0.8055 0.7994
967.000000 0.7937 0.7883 0.7846 0.7830 0.7822
972.000000 0.7821 0.7802 0.7828 0.7876 0.7962
977.000000 0.8033 0.8097 0.8132 0.8134 0.8128
982.000000 0.8120 0.8110 0.8091 0.8071 0.8051
987.000000 0.8027 0.7998 0.7969 0.7936 0.7904
992.000000 0.7873 0.7843 0.7817 0.7796 0.7775
997.000000 0.7753 0.7718 0.7678 0.7641 0.7596
1002.000000 0.7524 0.7415 0.7262 0.7115 0.6671
1007.000000 0.5897 0.5128 0.4360 0.3594 0.2830
1012.000000 0.2419 0.2430 0.4772 0.6434 0.7386
1017.000000 0.7586 0.7799 0.7946 0.8054 0.8133
1022.000000 0.8206 0.8262 0.8319 0.8359 0.8396
1027.000000 0.8428 0.8458 0.8479 0.8497 0.8516
1032.000000 0.8524 0.8531 0.8536 0.8539 0.8541
1037.000000 0.8522 0.8534 0.8528 0.8522 0.8515
1042.000000 0.8507 0.8499 0.8490 0.8481 0.8469
1047.000000 0.8457 0.8443 0.8424 0.8405 0.8384
1052.000000 0.8357 0.8327 0.8291 0.8238 0.8181
1057.000000 0.8131 0.8091 0.8063 0.8039 0.8016
1062.000000 0.7994 0.7976 0.7954 0.7919 0.7830
1067.000000 0.7736 0.7669 0.7592 0.7342 0.7062
1072.000000 0.6783 0.6504 0.6226 0.5948 0.5706
1077.000000 0.5391 0.4756 0.4106 0.3458 0.2918
1082.000000 0.2701 0.2558 0.2441 0.2386 0.2399
1087.000000 0.2489 0.2975 0.3460 0.3944 0.4427
1092.000000 0.4844 0.4912 0.4936 0.4972 0.5054
1097.000000 0.5204 0.5693 0.6180 0.6667 0.7110
1102.000000 0.7256 0.7422 0.7569 0.7656 0.7702
1107.000000 0.7726 0.7729 0.7729 0.7720 0.7721
1112.000000 0.7714 0.7700 0.7684 0.7647 0.7592
1117.000000 0.7533 0.7472 0.7345 0.7206 0.7069
1122.000000 0.6931 0.6793 0.6656 0.6519 0.6382
1127.000000 0.6245 0.6109 0.5973 0.5869 0.5747
1132.000000 0.5641 0.5542 0.5444 0.5365 0.5289
1137.000000 0.5212 0.5135 0.5027 0.4893 0.4661
1142.000000 0.4449 0.4190 0.3941 0.3750 0.3643
1147.000000 0.3625 0.3625 0.3829 0.4262 0.4695
1152.000000 0.5127 0.5558 0.5989 0.6370 0.6522
1157.000000 0.6642 0.6770 0.6921 0.7004 0.7055
1162.000000 0.7064 0.7062 0.7065 0.7049 0.7018
1167.000000 0.6958 0.6929 0.6927 0.6935 0.6952
1172.000000 0.6970 0.6960 0.6941 0.6914 0.6879
1177.000000 0.6839 0.6797 0.6759 0.6732 0.6718
1182.000000 0.6738 0.6755 0.6787 0.6821 0.6852
1187.000000 0.6886 0.6924 0.6943 0.6931 0.6931
1192.000000 0.6915 0.6849 0.6696 0.6541 0.6387
1197.000000 0.6233 0.6080 0.5927 0.5773 0.5620
1202.000000 0.5468 0.5316 0.5164 0.5011 0.4860
1207.000000 0.4709 0.4558 0.4407 0.4256 0.4179
1212.000000 0.4144 0.4149 0.4155 0.4164 0.4205
1217.000000 0.4464 0.4722 0.4980 0.5238 0.5495
1222.000000 0.5751 0.6007 0.6264 0.6519 0.6863
1227.000000 0.7048 0.7148 0.7235 0.7322 0.7426
1232.000000 0.7528 0.7620 0.7678 0.7720 0.7746
1237.000000 0.7759 0.7764 0.7763 0.7762 0.7747
1242.000000 0.7749 0.7740 0.7723 0.7704 0.7681
1247.000000 0.7658 0.7634 0.7606 0.7577 0.7546
1252.000000 0.7517 0.7487 0.7453 0.7416 0.7379
1257.000000 0.7341 0.7309 0.7279 0.7249 0.7218
1262.000000 0.7184 0.7150 0.7115 0.7079 0.7043
1267.000000 0.6997 0.6941 0.6845 0.6761 0.6711
1272.000000 0.6696 0.6699 0.6699 0.6721 0.6755
1277.000000 0.6817 0.6899 0.7050 0.7241 0.7298
1282.000000 0.7308 0.7299 0.7293 0.7269 0.7241
1287.000000 0.7218 0.7196 0.7173 0.7138 0.7094
1292.000000 0.7046 0.6962 0.6896 0.6840 0.6771
1297.000000 0.6700 0.6624 0.6546 0.6472 0.6398
1302.000000 0.6316 0.6235 0.6156 0.6079 0.6022
1307.000000 0.5990 0.5963 0.5947 0.5933 0.5923
1312.000000 0.5923 0.5925 0.5931 0.5942 0.5978
1317.000000 0.6073 0.6195 0.6318 0.6441 0.6563
1322.000000 0.6656 0.6678 0.6699 0.6720 0.6747
1327.000000 0.6780 0.6819 0.6858 0.6876 0.6879
1332.000000 0.6782 0.6842 0.6778 0.6555 0.6316
1337.000000 0.6077 0.5840 0.5603 0.5337 0.4939
1342.000000 0.4507 0.4074 0.3643 0.3212 0.2782
1347.000000 0.2421 0.2431 0.2600 0.3006 0.3428
1352.000000 0.3851 0.4272 0.4693 0.5113 0.5532
1357.000000 0.5951 0.6369 0.6779 0.7041 0.7204
1362.000000 0.7356 0.7476 0.7530 0.7575 0.7600
1367.000000 0.7613 0.7618 0.7619 0.7616 0.7610
1372.000000 0.7614 0.7599 0.7591 0.7580 0.7568
1377.000000 0.7557 0.7543 0.7522 0.7497 0.7472
1382.000000 0.7434 0.7352 0.7195 0.7032 0.6869
1387.000000 0.6707 0.6545 0.6382 0.6221 0.6059
1392.000000 0.5898 0.5736 0.5576 0.5415 0.5254
1397.000000 0.5121 0.5075 0.5066 0.5067 0.5059
1402.000000 0.5077 0.5086 0.5098 0.5110 0.5123
1407.000000 0.5141 0.5160 0.5184 0.5215 0.5253
1412.000000 0.5295 0.5337 0.5381 0.5436 0.5492
1417.000000 0.5549 0.5607 0.5656 0.5716 0.5810
1422.000000 0.5914 0.6018 0.6122 0.6224 0.6327
1427.000000 0.6431 0.6534 0.6637 0.6739 0.6841
1432.000000 0.6943 0.7046 0.7148 0.7250 0.7350
1437.000000 0.7430 0.7499 0.7570 0.7644 0.7737
1442.000000 0.7823 0.7881 0.7932 0.7962 0.7980
1447.000000 0.7981 0.7981 0.7980 0.7970 0.7977
1452.000000 0.7973 0.7968 0.7961 0.7950 0.7939
1457.000000 0.7918 0.7892 0.7863 0.7820 0.7759
1462.000000 0.7690 0.7618 0.7542 0.7466 0.7385
1467.000000 0.7303 0.7223 0.6868 0.6359 0.5849
1472.000000 0.5340 0.4833 0.4325 0.3819 0.3313
1477.000000 0.2808 0.2303 0.1800 0.1427 0.1370
1482.000000 0.1367 0.1356 0.1650 0.2365 0.3079
1487.000000 0.3792 0.4504 0.5215 0.5957 0.6712
1492.000000 0.6866 0.7074 0.7281 0.7489 0.7696
1497.000000 0.7902 0.8068 0.8131 0.8191 0.8250
1502.000000 0.8310 0.8374 0.8440 0.8502 0.8558
1507.000000 0.8612 0.8666 0.8720 0.8774 0.8829
1512.000000 0.8887 0.8932 0.8960 0.8983 0.8997
1517.000000 0.9006 0.9014 0.9026 0.9040 0.9056
1522.000000 0.9079 0.9107 0.9135 0.9164 0.9190
1527.000000 0.9213 0.9234 0.9244 0.9251 0.9252
1532.000000 0.9251 0.9243 0.9238 0.9231 0.9223
1537.000000 0.9211 0.9197 0.9177 0.9154 0.9129
1542.000000 0.9103 0.9077 0.9050 0.9025 0.9002
1547.000000 0.8979 0.8955 0.8931 0.8906 0.8881
1552.000000 0.8856 0.8831 0.8807 0.8782 0.8758
1557.000000 0.8735 0.8714 0.8698 0.8683 0.8668
1562.000000 0.8652 0.8637 0.8625 0.8613 0.8602
1567.000000 0.8590 0.8578 0.8567 0.8555 0.8539
1572.000000 0.8519 0.8498 0.8478 0.8455 0.8420
1577.000000 0.8364 0.8287 0.8205 0.8123 0.8042
1582.000000 0.7960 0.7879 0.7798 0.7717 0.7635
1587.000000 0.7584 0.7571 0.7571 0.7577 0.7632
1592.000000 0.7708 0.7785 0.7862 0.7938 0.8015
1597.000000 0.8092 0.8168 0.8239 0.8290 0.8321
1602.000000 0.8346 0.8364 0.8376 0.8382 0.8387
1607.000000 0.8390 0.8392 0.8394 0.8414 0.8394
1612.000000 0.8392 0.8391 0.8389 0.8382 0.8377
1617.000000 0.8370 0.8363 0.8357 0.8348 0.8339
1622.000000 0.8330 0.8316 0.8299 0.8283 0.8267
1627.000000 0.8251 0.8235 0.8217 0.8197 0.8177
1632.000000 0.8156 0.8127 0.8096 0.8066 0.8029
1637.000000 0.7989 0.7950 0.7910 0.7862 0.7837
1642.000000 0.7832 0.7827 0.7822 0.7819 0.7816
1647.000000 0.7816 0.7815 0.7815 0.7815 0.7815
1652.000000 0.7815 0.7814 0.7810 0.7805 0.7801
1657.000000 0.7795 0.7785 0.7771 0.7757 0.7738
1662.000000 0.7719 0.7700 0.7680 0.7661 0.7641
1667.000000 0.7621 0.7601 0.7580 0.7554 0.7529
1672.000000 0.7503 0.7478 0.7451 0.7419 0.7383
1677.000000 0.7348 0.7312 0.7272 0.7216 0.7160
1682.000000 0.7099 0.7026 0.6949 0.6814 0.6548
1687.000000 0.6208 0.5868 0.5528 0.5189 0.4850
1692.000000 0.4512 0.4174 0.3837 0.3499 0.3162
1697.000000 0.2826 0.2491 0.2155 0.1820 0.1485
1702.000000 0.1176 0.1000 0.0909 0.0825 0.0768
1707.000000 0.0739 0.0727 0.0723 0.0704 0.0744
1712.000000 0.0759 0.0774 0.0794 0.0879 0.1105
1717.000000 0.1402 0.1699 0.1996 0.2292 0.2588
1722.000000 0.2884 0.3179 0.3475 0.3769 0.4064
1727.000000 0.4358 0.4651 0.4945 0.5237 0.5530
1732.000000 0.5823 0.6115 0.6369 0.6529 0.6637
1737.000000 0.6734 0.6821 0.6905 0.7003 0.7142
1742.000000 0.7293 0.7376 0.7446 0.7517 0.7593
1747.000000 0.7672 0.7749 0.7800 0.7843 0.7885
1752.000000 0.7926 0.7960 0.7994 0.8027 0.8062
1757.000000 0.8095 0.8125 0.8154 0.8183 0.8212
1762.000000 0.8239 0.8264 0.8285 0.8306 0.8326
1767.000000 0.8347 0.8367 0.8388 0.8415 0.8449
1772.000000 0.8489 0.8536 0.8602 0.8657 0.8697
1777.000000 0.8726 0.8755 0.8784 0.8813 0.8840
1782.000000 0.8866 0.8892 0.8919 0.8940 0.8956
1787.000000 0.8970 0.8984 0.8997 0.9010 0.9023
1792.000000 0.9033 0.9043 0.9052 0.9061 0.9071
1797.000000 0.9080 0.9087 0.9093 0.9099 0.9106
1802.000000 0.9112 0.9118 0.9124 0.9129 0.9134
1807.000000 0.9138 0.9143 0.9149 0.9153 0.9158
1812.000000 0.9162 0.9167 0.9171 0.9176 0.9181
1817.000000 0.9185 0.9189 0.9193 0.9198 0.9203
1822.000000 0.9214 0.9227 0.9241 0.9256 0.9273
1827.000000 0.9284 0.9291 0.9295 0.9295 0.9294
1832.000000 0.9293 0.9314 0.9291 0.9289 0.9286
1837.000000 0.9283 0.9281 0.9277 0.9271 0.9264
1842.000000 0.9257 0.9250 0.9243 0.9237 0.9228
1847.000000 0.9216 0.9202 0.9188 0.9174 0.9160
1852.000000 0.9145 0.9124 0.9101 0.9078 0.9055
1857.000000 0.9031 0.9003 0.8972 0.8940 0.8908
1862.000000 0.8874 0.8840 0.8804 0.8771 0.8742
1867.000000 0.8718 0.8695 0.8672 0.8647 0.8617
1872.000000 0.8596 0.8581 0.8573 0.8572 0.8563
1877.000000 0.8567 0.8577 0.8612 0.8659 0.8711
1882.000000 0.8762 0.8813 0.8864 0.8916 0.8967
1887.000000 0.9018 0.9069 0.9120 0.9169 0.9214
1892.000000 0.9245 0.9269 0.9287 0.9301 0.9310
1897.000000 0.9315 0.9320 0.9325 0.9329 0.9330
1902.000000 0.9331 0.9332 0.9332 0.9331 0.9330
1907.000000 0.9329 0.9329 0.9365 0.9329 0.9329
1912.000000 0.9330 0.9331 0.9331 0.9331 0.9332
1917.000000 0.9332 0.9333 0.9333 0.9333 0.9334
1922.000000 0.9336 0.9339 0.9343 0.9346 0.9348
1927.000000 0.9352 0.9355 0.9358 0.9362 0.9366
1932.000000 0.9370 0.9374 0.9379 0.9383 0.9387
1937.000000 0.9390 0.9393 0.9393 0.9392 0.9391
1942.000000 0.9391 0.9390 0.9390 0.9388 0.9387
1947.000000 0.9387 0.9386 0.9385 0.9385 0.9384
1952.000000 0.9383 0.9383 0.9382 0.9381 0.9381
1957.000000 0.9381 0.9380 0.9380 0.9380 0.9379
1962.000000 0.9379 0.9379 0.9378 0.9378 0.9378
1967.000000 0.9377 0.9377 0.9377 0.9377 0.9377
1972.000000 0.9377 0.9377 0.9378 0.9378 0.9378
1977.000000 0.9378 0.9378 0.9378 0.9378 0.9379
1982.000000 0.9379 0.9379 0.9379 0.9379 0.9379
1987.000000 0.9379 0.9379 0.9380 0.9380 0.9380
1992.000000 0.9380 0.9380 0.9380 0.9381 0.9382
1997.000000 0.9383 0.9383 0.9384 0.9385 0.9385
2002.000000 0.9386 0.9386 0.9387 0.9388 0.9388
2007.000000 0.9389 0.9389 0.9390 0.9390 0.9390
2012.000000 0.9391 0.9391 0.9391 0.9392 0.9392
2017.000000 0.9392 0.9393 0.9393 0.9393 0.9393
2022.000000 0.9394 0.9394 0.9394 0.9395 0.9395
2027.000000 0.9395 0.9396 0.9396 0.9396 0.9397
2032.000000 0.9397 0.9398 0.9398 0.9398 0.9399
2037.000000 0.9399 0.9399 0.9399 0.9400 0.9400
2042.000000 0.9400 0.9401 0.9401 0.9401 0.9400
2047.000000 0.9400 0.9400 0.9400 0.9399 0.9399
2052.000000 0.9399 0.9399 0.9399 0.9398 0.9398
2057.000000 0.9398 0.9397 0.9397 0.9397 0.9397
2062.000000 0.9397 0.9396 0.9396 0.9396 0.9396
2067.000000 0.9395 0.9395 0.9395 0.9395 0.9395
2072.000000 0.9394 0.9393 0.9393 0.9392 0.9392
2077.000000 0.9391 0.9390 0.9389 0.9388 0.9388
2082.000000 0.9387 0.9386 0.9385 0.9385 0.9383
2087.000000 0.9382 0.9382 0.9381 0.9380 0.9379
2092.000000 0.9379 0.9378 0.9377 0.9376 0.9375
2097.000000 0.9375 0.9374 0.9373 0.9372 0.9371
2102.000000 0.9370 0.9369 0.9369 0.9368 0.9368
2107.000000 0.9367 0.9365 0.9365 0.9364 0.9363
2112.000000 0.9362 0.9362 0.9361 0.9360 0.9359
2117.000000 0.9358 0.9358 0.9357 0.9356 0.9356
2122.000000 0.9356 0.9355 0.9355 0.9355 0.9355
2127.000000 0.9355 0.9355 0.9355 0.9354 0.9354
2132.000000 0.9354 0.9354 0.9354 0.9354 0.9354
2137.000000 0.9353 0.9353 0.9353 0.9353 0.9353
2142.000000 0.9353 0.9352 0.9352 0.9352 0.9352
2147.000000 0.9352 0.9352 0.9353 0.9354 0.9355
2152.000000 0.9356 0.9357 0.9358 0.9359 0.9360
2157.000000 0.9360 0.9362 0.9363 0.9364 0.9365
2162.000000 0.9366 0.9367 0.9368 0.9369 0.9370
2167.000000 0.9371 0.9372 0.9373 0.9373 0.9374
2172.000000 0.9375 0.9376 0.9377 0.9378 0.9379
2177.000000 0.9380 0.9381 0.9381 0.9382 0.9383
2182.000000 0.9384 0.9384 0.9385 0.9386 0.9387
2187.000000 0.9388 0.9389 0.9389 0.9389 0.9389
2192.000000 0.9388 0.9388 0.9388 0.9388 0.9388
2197.000000 0.9388 0.9388 0.9388 0.9388 0.9388
2202.000000 0.9388 0.9388 0.9388 0.9388 0.9388
2207.000000 0.9388 0.9388 0.9387 0.9387 0.9386
2212.000000 0.9385 0.9384 0.9383 0.9382 0.9381
2217.000000 0.9380 0.9379 0.9378 0.9377 0.9376
2222.000000 0.9375 0.9374 0.9373 0.9372 0.9371
2227.000000 0.9370 0.9369 0.9367 0.9366 0.9364
2232.000000 0.9363 0.9361 0.9360 0.9358 0.9357
2237.000000 0.9355 0.9354 0.9352 0.9351 0.9348
2242.000000 0.9344 0.9340 0.9336 0.9333 0.9329
2247.000000 0.9326 0.9322 0.9319 0.9315 0.9311
2252.000000 0.9307 0.9304 0.9300 0.9297 0.9294
2257.000000 0.9290 0.9288 0.9285 0.9282 0.9280
2262.000000 0.9277 0.9274 0.9271 0.9268 0.9265
2267.000000 0.9262 0.9259 0.9257 0.9257 0.9257
2272.000000 0.9258 0.9259 0.9259 0.9260 0.9261
2277.000000 0.9262 0.9262 0.9263 0.9264 0.9264
2282.000000 0.9266 0.9268 0.9271 0.9273 0.9275
2287.000000 0.9278 0.9280 0.9282 0.9284 0.9286
2292.000000 0.9289 0.9291 0.9294 0.9296 0.9298
2297.000000 0.9301 0.9303 0.9304 0.9306 0.9307
2302.000000 0.9308 0.9310 0.9311 0.9313 0.9314
2307.000000 0.9316 0.9317 0.9319 0.9320 0.9322
2312.000000 0.9324 0.9325 0.9326 0.9328 0.9330
2317.000000 0.9332 0.9333 0.9335 0.9337 0.9339
2322.000000 0.9341 0.9344 0.9346 0.9347 0.9349
2327.000000 0.9352 0.9354 0.9356 0.9358 0.9358
2332.000000 0.9359 0.9360 0.9360 0.9361 0.9361
2337.000000 0.9362 0.9362 0.9363 0.9363 0.9363
2342.000000 0.9363 0.9363 0.9364 0.9364 0.9365
2347.000000 0.9365 0.9366 0.9368 0.9369 0.9370
2352.000000 0.9371 0.9372 0.9373 0.9375 0.9376
2357.000000 0.9377 0.9379 0.9380 0.9381 0.9382
2362.000000 0.9383 0.9385 0.9386 0.9387 0.9389
2367.000000 0.9390 0.9391 0.9392 0.9393 0.9394
2372.000000 0.9396 0.9396 0.9396 0.9397 0.9397
2377.000000 0.9398 0.9398 0.9399 0.9399 0.9400
2382.000000 0.9400 0.9400 0.9401 0.9401 0.9402
2387.000000 0.9402 0.9403 0.9403 0.9403 0.9404
2392.000000 0.9404 0.9405 0.9405 0.9406 0.9406
2397.000000 0.9407 0.9407 0.9407 0.9408 0.9408
2402.000000 0.9409 0.9409 0.9410 0.9410 0.9410
2407.000000 0.9411 0.9411 0.9411 0.9411 0.9412
2412.000000 0.9412 0.9412 0.9413 0.9413 0.9413
2417.000000 0.9413 0.9414 0.9414 0.9414 0.9414
2422.000000 0.9414 0.9415 0.9415 0.9415 0.9415
2427.000000 0.9415 0.9414 0.9414 0.9413 0.9413
2432.000000 0.9412 0.9412 0.9412 0.9411 0.9411
2437.000000 0.9410 0.9410 0.9410 0.9409 0.9409
2442.000000 0.9408 0.9408 0.9407 0.9407 0.9407
2447.000000 0.9406 0.9406 0.9405 0.9405 0.9404
2452.000000 0.9404 0.9403 0.9402 0.9401 0.9400
2457.000000 0.9400 0.9399 0.9398 0.9396 0.9395
2462.000000 0.9394 0.9394 0.9392 0.9391 0.9390
2467.000000 0.9389 0.9388 0.9387 0.9386 0.9384
2472.000000 0.9383 0.9381 0.9380 0.9378 0.9377
2477.000000 0.9375 0.9374 0.9372 0.9371 0.9369
2482.000000 0.9368 0.9366 0.9364 0.9363 0.9361
2487.000000 0.9359 0.9358 0.9356 0.9355 0.9353
2492.000000 0.9352 0.9351 0.9349 0.9348 0.9346
2497.000000 0.9344 0.9343 0.9341 0.9340 0.9338
2502.000000 0.9337 0.9337 0.9337 0.9337 0.9337
2507.000000 0.9338 0.9339 0.9340 0.9340 0.9341
2512.000000 0.9342 0.9343 0.9344 0.9344 0.9345
2517.000000 0.9346 0.9347 0.9347 0.9347 0.9348
2522.000000 0.9348 0.9348 0.9348 0.9348 0.9349
2527.000000 0.9349 0.9349 0.9349 0.9349 0.9350
2532.000000 0.9350 0.9350 0.9350 0.9350 0.9351
2537.000000 0.9351 0.9351 0.9351 0.9351 0.9351
2542.000000 0.9351 0.9351 0.9352 0.9352 0.9352
2547.000000 0.9352 0.9352 0.9353 0.9353 0.9353
2552.000000 0.9353 0.9353 0.9353 0.9353 0.9353
2557.000000 0.9354 0.9354 0.9354 0.9354 0.9354
2562.000000 0.9354 0.9354 0.9354 0.9354 0.9354
2567.000000 0.9354 0.9354 0.9354 0.9353 0.9353
2572.000000 0.9353 0.9353 0.9353 0.9353 0.9353
2577.000000 0.9353 0.9353 0.9353 0.9352 0.9352
2582.000000 0.9352 0.9351 0.9350 0.9350 0.9349
2587.000000 0.9349 0.9348 0.9348 0.9348 0.9347
2592.000000 0.9347 0.9347 0.9346 0.9345 0.9345
2597.000000 0.9344 0.9344 0.9343 0.9343 0.9343
2602.000000 0.9342 0.9341 0.9341 0.9340 0.9340
2607.000000 0.9339 0.9339 0.9339 0.9338 0.9337
2612.000000 0.9337 0.9336 0.9335 0.9335 0.9334
2617.000000 0.9333 0.9332 0.9332 0.9331 0.9330
2622.000000 0.9329 0.9329 0.9328 0.9327 0.9326
2627.000000 0.9325 0.9324 0.9323 0.9323 0.9322
2632.000000 0.9321 0.9320 0.9319 0.9318 0.9317
2637.000000 0.9317 0.9316 0.9315 0.9314 0.9314
2642.000000 0.9313 0.9312 0.9312 0.9311 0.9310
2647.000000 0.9309 0.9309 0.9308 0.9307 0.9306
2652.000000 0.9305 0.9304 0.9303 0.9303 0.9302
2657.000000 0.9301 0.9301 0.9300 0.9299 0.9298
2662.000000 0.9298 0.9297 0.9296 0.9296 0.9295
2667.000000 0.9294 0.9294 0.9293 0.9292 0.9291
2672.000000 0.9291 0.9290 0.9289 0.9289 0.9288
2677.000000 0.9287 0.9287 0.9286 0.9285 0.9284
2682.000000 0.9284 0.9283 0.9282 0.9282 0.9281
2687.000000 0.9280 0.9280 0.9279 0.9279 0.9279
2692.000000 0.9278 0.9277 0.9276 0.9276 0.9275
2697.000000 0.9275 0.9275 0.9275 0.9276 0.9276
2702.000000 0.9276 0.9277 0.9277 0.9278 0.9279
2707.000000 0.9279 0.9279 0.9280 0.9280 0.9281
2712.000000 0.9282 0.9282 0.9282 0.9283 0.9284
2717.000000 0.9284 0.9285 0.9285 0.9285 0.9286
2722.000000 0.9286 0.9286 0.9286 0.9286 0.9286
2727.000000 0.9285 0.9285 0.9285 0.9285 0.9285
2732.000000 0.9285 0.9284 0.9283 0.9282 0.9279
2737.000000 0.9276 0.9272 0.9269 0.9265 0.9261
2742.000000 0.9258 0.9255 0.9251 0.9248 0.9245
2747.000000 0.9241 0.9238 0.9235 0.9231 0.9228
2752.000000 0.9225 0.9222 0.9216 0.9209 0.9203
2757.000000 0.9196 0.9190 0.9184 0.9177 0.9171
2762.000000 0.9164 0.9158 0.9151 0.9145 0.9138
2767.000000 0.9132 0.9126 0.9119 0.9112 0.9104
2772.000000 0.9096 0.9088 0.9080 0.9072 0.9064
2777.000000 0.9057 0.9049 0.9041 0.9033 0.9024
2782.000000 0.9016 0.9008 0.9000 0.8992 0.8985
2787.000000 0.8977 0.8969 0.8961 0.8953 0.8945
2792.000000 0.8936 0.8928 0.8919 0.8911 0.8902
2797.000000 0.8894 0.8885 0.8877 0.8869 0.8860
2802.000000 0.8851 0.8843 0.8835 0.8826 0.8818
2807.000000 0.8810 0.8801 0.8792 0.8784 0.8775
2812.000000 0.8767 0.8756 0.8746 0.8735 0.8723
2817.000000 0.8710 0.8698 0.8685 0.8673 0.8660
2822.000000 0.8647 0.8634 0.8622 0.8609 0.8596
2827.000000 0.8584 0.8571 0.8555 0.8539 0.8523
2832.000000 0.8506 0.8489 0.8472 0.8454 0.8437
2837.000000 0.8420 0.8404 0.8389 0.8375 0.8360
2842.000000 0.8347 0.8334 0.8321 0.8309 0.8296
2847.000000 0.8283 0.8273 0.8264 0.8255 0.8248
2852.000000 0.8245 0.8241 0.8238 0.8235 0.8233
2857.000000 0.8230 0.8229 0.8229 0.8229 0.8229
2862.000000 0.8229 0.8229 0.8244 0.8228 0.8228
2867.000000 0.8228 0.8228 0.8228 0.8228 0.8227
2872.000000 0.8227 0.8227 0.8227 0.8227 0.8227
2877.000000 0.8228 0.8228 0.8228 0.8228 0.8229
2882.000000 0.8229 0.8229 0.8229 0.8229 0.8229
2887.000000 0.8230 0.8230 0.8230 0.8230 0.8231
2892.000000 0.8231 0.8231 0.8232 0.8232 0.8232
2897.000000 0.8232 0.8232 0.8232 0.8232 0.8232
2902.000000 0.8232 0.8232 0.8233 0.8233 0.8233
2907.000000 0.8233 0.8233 0.8233 0.8233 0.8233
2912.000000 0.8233 0.8233 0.8232 0.8232 0.8232
2917.000000 0.8232 0.8231 0.8231 0.8231 0.8230
2922.000000 0.8230 0.8230 0.8229 0.8229 0.8228
2927.000000 0.8228 0.8227 0.8227 0.8227 0.8226
2932.000000 0.8224 0.8221 0.8219 0.8216 0.8212
2937.000000 0.8209 0.8206 0.8202 0.8199 0.8196
2942.000000 0.8193 0.8189 0.8186 0.8182 0.8177
2947.000000 0.8172 0.8167 0.8162 0.8157 0.8152
2952.000000 0.8148 0.8143 0.8138 0.8133 0.8129
2957.000000 0.8124 0.8120 0.8117 0.8115 0.8113
2962.000000 0.8111 0.8109 0.8107 0.8105 0.8103
2967.000000 0.8101 0.8099 0.8097 0.8096 0.8094
2972.000000 0.8093 0.8093 0.8094 0.8094 0.8095
2977.000000 0.8096 0.8097 0.8098 0.8099 0.8100
2982.000000 0.8100 0.8101 0.8085 0.8103 0.8104
2987.000000 0.8105 0.8107 0.8109 0.8111 0.8113
2992.000000 0.8115 0.8117 0.8118 0.8121 0.8123
2997.000000 0.8126 0.8132 0.8143 0.8155 0.8166
3002.000000 0.8180 0.8194 0.8208 0.8223 0.8239
3007.000000 0.8255 0.8272 0.8292 0.8315 0.8339
3012.000000 0.8362 0.8386 0.8410 0.8433 0.8456
3017.000000 0.8476 0.8497 0.8517 0.8531 0.8542
3022.000000 0.8554 0.8565 0.8576 0.8587 0.8598
3027.000000 0.8609 0.8620 0.8631 0.8641 0.8652
3032.000000 0.8662 0.8672 0.8683 0.8691 0.8698
3037.000000 0.8706 0.8714 0.8721 0.8727 0.8734
3042.000000 0.8741 0.8747 0.8754 0.8760 0.8767
3047.000000 0.8774 0.8781 0.8788 0.8795 0.8803
3052.000000 0.8810 0.8817 0.8824 0.8831 0.8838
3057.000000 0.8845 0.8852 0.8859 0.8867 0.8875
3062.000000 0.8883 0.8891 0.8899 0.8907 0.8915
3067.000000 0.8923 0.8931 0.8939 0.8947 0.8954
3072.000000 0.8960 0.8965 0.8970 0.8974 0.8978
3077.000000 0.8981 0.8985 0.9045 0.8992 0.8995
3082.000000 0.8998 0.9002 0.9006 0.9009 0.9013
3087.000000 0.9015 0.9016 0.9017 0.9018 0.9019
3092.000000 0.9019 0.9020 0.9020 0.9021 0.9022
3097.000000 0.9023 0.9023 0.9023 0.9023 0.9023
3102.000000 0.9022 0.9022 0.9021 0.9021 0.9020
3107.000000 0.9020 0.9019 0.9019 0.9018 0.9017
3112.000000 0.9017 0.9016 0.9015 0.9014 0.9013
3117.000000 0.9012 0.9010 0.9007 0.9005 0.9003
3122.000000 0.9000 0.8998 0.8995 0.8993 0.8990
3127.000000 0.8988 0.8986 0.8983 0.8981 0.8978
3132.000000 0.8976 0.8973 0.8971 0.8969 0.8966
3137.000000 0.8964 0.8961 0.8958 0.8955 0.8952
3142.000000 0.8949 0.8946 0.8942 0.8940 0.8937
3147.000000 0.8934 0.8931 0.8928 0.8925 0.8922
3152.000000 0.8919 0.8916 0.8914 0.8911 0.8908
3157.000000 0.8905 0.8902 0.8899 0.8896 0.8893
3162.000000 0.8890 0.8887 0.8884 0.8881 0.8879
3167.000000 0.8876 0.8873 0.8870 0.8867 0.8864
3172.000000 0.8861 0.8858 0.8856 0.8853 0.8850
3177.000000 0.8847 0.8844 0.8841 0.8838 0.8836
3182.000000 0.8833 0.8830 0.8827 0.8825 0.8822
3187.000000 0.8819 0.8816 0.8813 0.8810 0.8806
3192.000000 0.8803 0.8800 0.8797 0.8794 0.8790
3197.000000 0.8787 0.8784 0.8781 0.8778 0.8775
3202.000000 0.8772 0.8769 0.8766 0.8763 0.8760
3207.000000 0.8757 0.8753 0.8750 0.8748 0.8746
3212.000000 0.8744 0.8742 0.8740 0.8738 0.8736
3217.000000 0.8734 0.8733 0.8731 0.8729 0.8728
3222.000000 0.8726 0.8724 0.8722 0.8720 0.8718
3227.000000 0.8716 0.8715 0.8713 0.8711 0.8711
3232.000000 0.8710 0.8709 0.8709 0.8709 0.8709
3237.000000 0.8709 0.8709 0.8708 0.8708 0.8708
3242.000000 0.8708 0.8708 0.8708 0.8708 0.8708
3247.000000 0.8708 0.8708 0.8708 0.8708 0.8707
3252.000000 0.8707 0.8707 0.8707 0.8707 0.8707
3257.000000 0.8707 0.8707 0.8707 0.8708 0.8708
3262.000000 0.8708 0.8708 0.8708 0.8708 0.8708
3267.000000 0.8708 0.8708 0.8708 0.8708 0.8708
3272.000000 0.8708 0.8708 0.8708 0.8708 0.8708
3277.000000 0.8708 0.8708 0.8708 0.8708 0.8709
3282.000000 0.8709 0.8709 0.8709 0.8709 0.8708
3287.000000 0.8707 0.8707 0.8706 0.8705 0.8704
3292.000000 0.8703 0.8702 0.8701 0.8701 0.8700
3297.000000 0.8699 0.8699 0.8698 0.8697 0.8697
3302.000000 0.8696 0.8695 0.8694 0.8694 0.8693
3307.000000 0.8692 0.8690 0.8688 0.8686 0.8684
3312.000000 0.8681 0.8678 0.8675 0.8672 0.8668
3317.000000 0.8666 0.8663 0.8660 0.8657 0.8653
3322.000000 0.8650 0.8647 0.8644 0.8639 0.8631
3327.000000 0.8624 0.8617 0.8610 0.8602 0.8594
3332.000000 0.8586 0.8578 0.8573 0.8570 0.8567
3337.000000 0.8564 0.8561 0.8558 0.8556 0.8553
3342.000000 0.8550 0.8548 0.8546 0.8544 0.8542
3347.000000 0.8540 0.8540 0.8539 0.8538 0.8538
3352.000000 0.8537 0.8537 0.8536 0.8536 0.8536
3357.000000 0.8536 0.8536 0.8536 0.8536 0.8521
3362.000000 0.8538 0.8539 0.8540 0.8541 0.8541
3367.000000 0.8542 0.8543 0.8543 0.8544 0.8546
3372.000000 0.8547 0.8548 0.8550 0.8555 0.8560
3377.000000 0.8564 0.8569 0.8574 0.8580 0.8587
3382.000000 0.8593 0.8599 0.8607 0.8615 0.8623
3387.000000 0.8631 0.8639 0.8646 0.8654 0.8661
3392.000000 0.8669 0.8676 0.8682 0.8689 0.8696
3397.000000 0.8703 0.8710 0.8717 0.8724 0.8731
3402.000000 0.8737 0.8743 0.8748 0.8754 0.8760
3407.000000 0.8765 0.8771 0.8776 0.8782 0.8787
3412.000000 0.8791 0.8796 0.8800 0.8804 0.8808
3417.000000 0.8813 0.8817 0.8821 0.8826 0.8830
3422.000000 0.8834 0.8838 0.8843 0.8847 0.8851
3427.000000 0.8855 0.8859 0.8863 0.8867 0.8871
3432.000000 0.8875 0.8878 0.8882 0.8886 0.8890
3437.000000 0.8894 0.8897 0.8901 0.8905 0.8909
3442.000000 0.8913 0.8917 0.8920 0.8923 0.8926
3447.000000 0.8929 0.8932 0.8935 0.8938 0.8941
3452.000000 0.8943 0.8946 0.8949 0.8952 0.8955
3457.000000 0.8958 0.8961 0.8964 0.8967 0.8970
3462.000000 0.8973 0.8976 0.8979 0.8981 0.8984
3467.000000 0.8987 0.8989 0.8991 0.8993 0.8994
3472.000000 0.8996 0.8997 0.8999 0.9000 0.9001
3477.000000 0.9002 0.9004 0.9005 0.9007 0.9008
3482.000000 0.9010 0.9011 0.9012 0.9013 0.9015
3487.000000 0.9016 0.9017 0.9018 0.9020 0.9021
3492.000000 0.9022 0.9023 0.9024 0.9025 0.9026
3497.000000 0.9027 0.9028 0.9029 0.9029 0.9030
3502.000000 0.9031 0.9032 0.9033 0.9034 0.9035
3507.000000 0.9036 0.9037 0.9038 0.9039 0.9040
3512.000000 0.9041 0.9042 0.9043 0.9044 0.9044
3517.000000 0.9045 0.9046 0.9046 0.9047 0.9047
3522.000000 0.9048 0.9048 0.9048 0.9048 0.9048
3527.000000 0.9049 0.9049 0.9049 0.9049 0.9049
3532.000000 0.9056 0.9049 0.9049 0.9049 0.9049
3537.000000 0.9049 0.9049 0.9049 0.9049 0.9049
3542.000000 0.9049 0.9049 0.9049 0.9049 0.9049
3547.000000 0.9049 0.9049 0.9049 0.9049 0.9049
3552.000000 0.9050 0.9050 0.9050 0.9050 0.9050
3557.000000 0.9050 0.9050 0.9050 0.9050 0.9050
3562.000000 0.9050 0.9050 0.9050 0.9050 0.9050
3567.000000 0.9049 0.9049 0.9049 0.9049 0.9049
3572.000000 0.9048 0.9048 0.9048 0.9048 0.9048
3577.000000 0.9048 0.9048 0.9048 0.9048 0.9048
3582.000000 0.9047 0.9047 0.9047 0.9047 0.9047
3587.000000 0.9047 0.9047 0.9047 0.9047 0.9047
3592.000000 0.9046 0.9046 0.9046 0.9046 0.9046
3597.000000 0.9046 0.9045 0.9045 0.9045 0.9045
3602.000000 0.9045 0.9045 0.9045 0.9045 0.9045
3607.000000 0.9045 0.9044 0.9044 0.9044 0.9044
3612.000000 0.9044 0.9044 0.9044 0.9044 0.9044
3617.000000 0.9044 0.9043 0.9043 0.9043 0.9043
3622.000000 0.9043 0.9043 0.9042 0.9042 0.9042
3627.000000 0.9042 0.9042 0.9042 0.9042 0.9042
3632.000000 0.9042 0.9042 0.9041 0.9041 0.9041
3637.000000 0.9041 0.9041 0.9041 0.9041 0.9041
3642.000000 0.9041 0.9041 0.9041 0.9040 0.9040
3647.000000 0.9040 0.9040 0.9040 0.9039 0.9039
3652.000000 0.9039 0.9039 0.9039 0.9039 0.9039
3657.000000 0.9039 0.9039 0.9039 0.9039 0.9038
3662.000000 0.9038 0.9038 0.9038 0.9038 0.9037
3667.000000 0.9037 0.9037 0.9037 0.9037 0.9037
3672.000000 0.9037 0.9037 0.9037 0.9037 0.9037
3677.000000 0.9036 0.9036 0.9036 0.9036 0.9036
3682.000000 0.9036 0.9036 0.9036 0.9036 0.9036
3687.000000 0.9036 0.9035 0.9035 0.9035 0.9035
3692.000000 0.9035 0.9034 0.9034 0.9034 0.9034
3697.000000 0.9034 0.9034 0.9034 0.9034 0.9034
3702.000000 0.9034 0.9034 0.9033 0.9033 0.9033
3707.000000 0.9033 0.9033 0.9033 0.9032 0.9032
3712.000000 0.9032 0.9032 0.9032 0.9032 0.9032
3717.000000 0.9032 0.9032 0.9032 0.9032 0.9031
3722.000000 0.9031 0.9031 0.9031 0.9031 0.9030
3727.000000 0.9030 0.9030 0.9030 0.9030 0.9030
3732.000000 0.9029 0.9029 0.9029 0.9028 0.9028
3737.000000 0.9027 0.9027 0.9027 0.9027 0.9027
3742.000000 0.9027 0.9026 0.9026 0.9026 0.9025
3747.000000 0.9025 0.9025 0.9024 0.9024 0.9024
3752.000000 0.9024 0.9024 0.9023 0.9023 0.9023
3757.000000 0.9022 0.9022 0.9022 0.9021 0.9021
3762.000000 0.9021 0.9020 0.9020 0.9020 0.9019
3767.000000 0.9019 0.9019 0.9019 0.9019 0.9018
3772.000000 0.9018 0.9018 0.9017 0.9017 0.9017
3777.000000 0.9016 0.9016 0.9016 0.9016 0.9016
3782.000000 0.9016 0.9015 0.9015 0.9015 0.9014
3787.000000 0.9014 0.9013 0.9013 0.9013 0.9013
3792.000000 0.9013 0.9013 0.9012 0.9012 0.9012
3797.000000 0.9011 0.9011 0.9011 0.9010 0.9010
3802.000000 0.9010 0.9010 0.9010 0.9010 0.9009
3807.000000 0.9009 0.9009 0.9008 0.9008 0.9007
3812.000000 0.9007 0.9007 0.9007 0.9007 0.9007
3817.000000 0.9006 0.9006 0.9006 0.9005 0.9005
3822.000000 0.9005 0.9004 0.9004 0.9004 0.9003
3827.000000 0.9003 0.9003 0.9002 0.9002 0.9002
3832.000000 0.9002 0.9002 0.9002 0.9001 0.9001
3837.000000 0.9001 0.9000 0.9000 0.9000 0.8999
3842.000000 0.8999 0.8999 0.8999 0.8999 0.8999
3847.000000 0.8998 0.8998 0.8998 0.8997 0.8997
3852.000000 0.8997 0.8996 0.8996 0.8996 0.8996
3857.000000 0.8996 0.8996 0.8995 0.8995 0.8995
3862.000000 0.8994 0.8994 0.8993 0.8993 0.8993
3867.000000 0.8993 0.8993 0.8993 0.8992 0.8992
3872.000000 0.8992 0.8992 0.8992 0.8992 0.8991
3877.000000 0.8991 0.8991 0.8991 0.8991 0.8991
3882.000000 0.8990 0.8990 0.8990 0.8990 0.8990
3887.000000 0.8990 0.8990 0.8989 0.8989 0.8989
3892.000000 0.8989 0.8989 0.8989 0.8988 0.8988
3897.000000 0.8988 0.8988 0.8988 0.8988 0.8987
3902.000000 0.8987 0.8987 0.8987 0.8987 0.8987
3907.000000 0.8987 0.8987 0.8987 0.8987 0.8987
3912.000000 0.8987 0.8987 0.8987 0.8987 0.8987
3917.000000 0.8987 0.8987 0.8987 0.8987 0.8987
3922.000000 0.8987 0.8987 0.8987 0.8987 0.8987
3927.000000 0.8987 0.8987 0.8987 0.8987 0.8987
3932.000000 0.8987 0.8987 0.8987 0.8987 0.8987
3937.000000 0.8987 0.8987 0.8987 0.8987 0.8987
3942.000000 0.8987 0.8987 0.8987 0.8987 0.8987
3947.000000 0.8987 0.8987 0.8987 0.8987 0.8987
3952.000000 0.8987 0.8987 0.8987 0.8987 0.8986
3957.000000 0.8986 0.8986 0.8986 0.8986 0.8986
3962.000000 0.8986 0.8986 0.8986 0.8986 0.8986
3967.000000 0.8986 0.8986 0.8986 0.8986 0.8986
3972.000000 0.8986 0.8986 0.8986 0.8986 0.8986
3977.000000 0.8986 0.8986 0.8986 0.8986 0.8986
3982.000000 0.8986 0.8986 0.8986 0.8986 0.8986
3987.000000 0.8986 0.8986 0.8986 0.8986 0.8986
3992.000000 0.8986 0.8986 0.8986 0.8986 0.8986
3997.000000 0.8986 0.8986 0.8986 0.8986
##END=
