##TITLE=Carbon Tetrachloride
##JCAMP-DX=4.24
##DATA TYPE=INFRARED SPECTRUM
##CLASS=IUPAC A
##ORIGIN=NIST, Analytical Chemistry Division, 301-975-3108
##OWNER=COPYRIGHT (C) 2000 by the U.S. Secretary of Commerce
##DATE=00/02/01
##$SPECTRA VERSION=1.10
##$UNCERTAINTY IN Y=2.1 % relative (B=1.1E-04,C=2.7E-09,D=1.4E-13)
##CAS NAME=Carbon tetrachloride
##CAS REGISTRY NO=56-23-5
##MOLFORM=C Cl4
##MP=-22.99 C
##BP=76.54 C
##$NIST SOURCE=QUANT-IR
##SPECTROMETER/DATA SYSTEM=IFS66V (Bruker)
##INSTRUMENT PARAMETERS=KBr Beam Splitter; MCT Detector; Multipass cell
##STATE=gas
##SAMPLE DESCRIPTION=Carbon Tetrachloride Primary Gas Standard
##PRESSURE=101.3 Pa
##TEMPERATURE=23 C
##SAMPLING PROCEDURE=1 L/min Flow
##RESOLUTION=0.9640
##DATA PROCESSING=3-Term B-H Apodization
##XUNITS=cm-1
##YUNITS=(micromol/mol)-1m-1 (base 10)
##XFACTOR=1.0
##YFACTOR=7.2759E-12
##DELTAX=0.4820
##FIRSTX=575.17
##LASTX=3974.605
##FIRSTY=-8.30E-07
##MAXX=3974.12
##MINX=575.17
##MAXY=.0056253
##MINY=-3.34E-06
##NPOINTS=7052
##XYDATA=(X++(Y..Y))
575.17-114115-62278 85434 175811 103523 23109
577.58 36508 57385 53399 41500 56726 109101
580.47 100826 126988 229145 195834 93513 63098
583.37 52211 71878 25170-70995-73372-21669
586.26-743 5853 9740 8838 52714 94008
589.15 58046 30828-285-53183-52869-11626
592.04-25977-41147-4023 38861 42900-3239
594.94-56982-46115-3429 1021-2131-2426
597.83-24575 11003 41467 14383-1574 15494
600.72 17518-6468-28774-18778-85 18912
603.62 34580 51445 42875 40365 36444 4327
606.51-1807 21653 34434 19151-28731-50440
609.40-40688-12734 13979 31409 48222 36325
612.29-8358-13388 8592 18624 8248-4592
615.19-26211-14894 14132 7889-9208 33048
618.08 89983 91710 76019 89268 84534 75864
620.97 111984 168130 169407 114507 62272 70769
623.86 106398 132571 145138 150271 156929 189101
626.76 199575 175020 140170 128158 126757 130359
629.65 135803 161420 194265 190009 155911 131480
632.54 110685 87009 63039 61591 53484 48959
635.44 48367 47851 45053 44374 26773 2495
638.33 2192 16044 7291-2901 1098 20265
641.22 32285 46453 53345 45486 23965 15252
644.11-2609-21136-20218 1857 9195-3493
647.01-23092-19381-2525 9436-2563-8885
649.90 10276 33253 35209 39188 29092 14745
652.79-3403-12937-16765-10507-574 5303
655.68 8729 21409 31108 53161 53089 25046
658.58-7243-1865 23322 38218 21650-10581
661.47-23059-11846-7085-293-5460-2724
664.36 6856 10952 3312 3838-1926-19017
667.26-28513-1736 17440-9893-39640-15621
670.15 6693 14683 14432 2659-27253-30425
673.04-4615 30834 45686 48606 41669 25592
675.93-3411-21795-35099-18051 10936 29765
678.83 25810-1571-21823 6779 26231 26644
681.72 12268 4500 13387 25100 21980 19755
684.61-6695-30718-39196-24405-7440 2867
687.50 8805 26676 44549 54897 29662 14679
690.40 13969 11177 7560 25866 32568 28158
693.29 19909 17098 2649-5630 2634 40172
696.18 61327 61395 51116 31293 2894 2812
699.08 18444 35129 39104 55746 59285 50618
701.97 31660 17521 6894 22140 31585 40234
704.86 50859 54410 41371 30794 22214 34977
707.75 41407 51800 56194 50959 41497 39448
710.65 26099 38457 53257 56103 59845 80276
713.54 66120 42866 27642 34583 47474 48077
716.43 32807 47652 64471 73235 70748 70050
719.32 59173 69410 75050 77296 96390 139202
722.22 154503 164224 167331 167606 168812 190607
725.11 206985 239114 272466 304576 316740 328174
728.00 345121 384632 408150 428638 458345 524298
730.90 583259 631602 672401 733053 800192 878608
733.79 947552 1036757 1140798 1260961 1374278 1508317
736.68 1660969 1846332 2032552 2231902 2438161 2668076
739.57 2921235 3211329 3507015 3854299 4258434 4711343
742.47 5179889 5686588 6211501 6755224 7285598 7846356
745.36 8445321 9129760 9906909 10820272 11867276 13016352
748.25 14147893 15202328 16141924 17091959 18192523 19568027
751.14 21153620 22761020 24207551 25561077 27023450 28833392
754.04 31062370 33567663 35799834 37442277 38688713 40049280
756.93 41926963 44488444 47595054 50779084 52703834 53175392
759.82 54139894 56380529 58856289 60450909 60486674 60386405
762.72 61657855 65445997 72399109 78041119 77551244 73573474
765.61 70591692 70020367 72625437 77590677 83853895 93003658
768.50 102529216 105731172 97006758 81618137 71489772 71254808
771.39 80778421 102347328 130716733 137576999 113569776 92669423
774.29 89331284 91638407 94216901 96899680 99601043 102161610
777.18 104404484 106361139 107825824 108580550 108626152 108118146
780.07 106965290 105093180 102404961 99059202 95015838 90395068
782.96 85401553 80311512 75552838 72148637 70857853 72583345
785.86 77773748 86365255 98195896 113910048 134163189 160102912
788.75 192149124 230634300 276384381 329989589 389528766 452997489
791.64 521810726 594474237 662282737 716218475 748044257 762952819
794.54 773145185 772995518 753982339 720161263 681105320 635079840
797.43 574206897 499206353 410614673 338693163 300104162 272296994
800.32 242543056 210664870 176397345 145748317 124628250 108623495
803.21 94085524 80357496 68837270 59586085 51594527 44401848
806.11 38213879 32816306 28131094 24071939 20660696 17733687
809.00 15299430 13214742 11499515 10042063 8838734 7773426
811.89 6896749 6136262 5520699 4967056 4514644 4092309
814.78 3725328 3366742 3081020 2808830 2596219 2387501
817.68 2207289 1998829 1799099 1587693 1443422 1323140
820.57 1229753 1132106 1076067 992344 916445 842614
823.46 790588 710624 642910 578184 557364 516919
826.36 479031 425499 383280 341097 336900 318565
829.25 299252 260135 240301 214080 206622 196148
832.14 194721 156712 140846 129199 123958 105013
835.03 117143 127249 140108 129343 110746 75001
837.93 71066 67628 68633 56722 73172 82940
840.82 77613 51619 47389 42867 53791 51255
843.71 63823 72761 77791 73897 77622 66185
846.60 66581 54670 58620 64191 73440 68241
849.50 74019 75478 73118 38508 23495 34862
852.39 64106 72940 83798 81977 77438 49931
855.28 34566 27989 43387 57323 76399 79519
858.18 71230 47165 41665 35419 44590 53054
861.07 64044 62163 61276 53241 56617 48158
863.96 44223 40492 43657 44555 60270 63159
866.85 63132 61586 74087 71073 65198 65957
869.75 90966 98714 97759 85530 80116 73948
872.64 79256 88223 97429 88514 94544 101210
875.53 102561 92477 92285 84001 81989 86201
878.42 99453 103319 113347 108011 101717 97274
881.32 98354 99333 110602 102549 101072 105053
884.21 104022 91089 93415 96924 95836 82483
887.10 81763 81510 88991 87547 80113 70724
889.99 73359 61434 56102 64635 78861 79922
892.89 86495 87176 84846 68891 59256 55042
895.78 61071 56127 60091 67235 71191 65011
898.67 60345 49169 45634 39796 47926 60335
901.57 70118 59922 51846 47864 50819 45705
904.46 41725 38257 45586 42759 40514 39206
907.35 40994 36366 29136 17709 24168 33993
910.24 46711 44097 36149 23028 16841 18138
913.14 28531 24761 24730 28864 30483 23427
916.03 26740 23729 17861 9821 8830 2363
918.92 3417 7081 4246-5382-5018-8253
921.81 1584 19661 33227 22663 14323 13556
924.71 14960 5378 1748 3932 8209 10695
927.60 20297 22622 24588 12736-1147-5321
930.49 3674 8617 20633 26699 26292 21391
933.39 23585 17779 9461 1563 2180 4860
936.28 11473 10780 14732 12605 9471 5576
939.17 8550 10712 18733 20250 20794 18371
942.06 19783 14979 11403 10070 13487 14626
944.96 23108 29142 38607 35054 28319 24773
947.85 26279 26888 34492 34279 32781 29684
950.74 27625 20125 14881 4982 5295 13429
953.63 27476 34631 42851 47196 44898 38625
956.53 42632 44112 50733 54901 58677 57378
959.42 53810 48076 52166 55344 65550 77604
962.31 88867 95890 108216 115940 120388 118843
965.21 125352 131824 136403 139347 155180 174525
968.10 193005 198561 193565 183795 190998 206159
970.99 222578 230250 239977 252473 268683 277262
973.88 285355 290651 296876 295922 300738 309898
976.78 319540 323891 327199 320772 319517 318176
979.67 324140 335264 347096 347387 341899 330413
982.56 328414 335276 344130 348468 359236 363696
985.45 359454 344459 326863 298495 278013 283548
988.35 310102 340815 375745 399376 396264 352797
991.24 317600 313167 324098 339046 366082 392696
994.13 410523 422221 437555 445830 457868 471035
997.03 484530 494627 508602 524374 547192 565375
999.92 574775 574848 581370 591576 606399 624512
1002.81 653325 673300 680974 684673 692560 698900
1005.70 706611 712008 723768 740678 754029 745869
1008.60 731841 723978 726187 726981 729802 729548
1011.49 725423 715215 701450 681844 680986 691542
1014.38 692722 671831 649581 639718 643684 645002
1017.27 638200 619075 598104 575496 560278 541867
1020.17 518671 495720 473782 438188 401603 375506
1023.06 358501 338773 330240 322821 304704 273315
1025.95 242400 217308 199756 178827 168010 165100
1028.85 160629 147561 129925 107256 86448 64286
1031.74 49783 41914 44198 45538 41844 29083
1034.63 17824 10595 4172-6149-8170-8011
1037.52-6783-6918-7032-16437-26275-26502
1040.42-10075 894-597-12744-17402-9392
1043.31-2221-9915-14539-13775-13233-18226
1046.20-13787-4508 3203 2086-3884-12947
1049.09-17085-18672-13670-6526 5402 16134
1051.99 23017 20019 8328-9042-14063-8430
1054.88 6687 19677 21761 10378 5957 5975
1057.77 14623 26281 32394 28679 25399 33400
1060.67 45598 40611 41453 51907 53283 50432
1063.56 57301 61412 65312 66480 68265 69344
1066.45 69102 65463 70608 83893 93625 84118
1069.34 71070 61904 59906 54609 54843 62151
1072.24 66687 75420 95833 101900 91364 71699
1075.13 56654 48385 55348 64011 67550 74049
1078.02 80920 69300 53539 44542 42560 41962
1080.91 44427 37530 30674 29620 33376 26951
1083.81 11943 4333 14086 23238 27155 21846
1086.70 17416 12300 3045-3578-2262 332
1089.59 8277 15456 20977 25948 29265 17997
1092.49 5368-2234-7670-7663 7178 15403
1095.38 15448 19996 26042 24861 26146 31240
1098.27 39845 39776 36962 35813 38151 37819
1101.16 35926 30156 26783 27507 35363 45917
1104.06 55942 50764 40553 36799 39716 41530
1106.95 49598 57913 57069 50320 50132 48188
1109.84 50898 59553 69016 68509 70936 74616
1112.73 71725 70039 75211 74022 71281 69108
1115.63 76092 90263 98444 88822 78000 64828
1118.52 52533 45604 42589 44176 53673 53483
1121.41 44479 35077 31073 24661 16134 12340
1124.31 24438 34134 33633 35912 38164 24298
1127.20 5754-13295-22981-21927-14253-7047
1130.09-1941-7703-24133-42734-48106-40711
1132.98-20838-12132-20600-33343-37876-39928
1135.88-42178-51899-59081-56213-48716-40541
1138.77-31674-35938-44744-51101-56448-56966
1141.66-47312-42149-37071-27664-19450-29349
1144.55-44053-53174-54722-49144-39505-35904
1147.45-33668-31298-30871-40715-47765-47052
1150.34-39752-31477-21158-15776-22293-33113
1153.23-32272-30749-32309-33370-28896-23381
1156.13-14179-11451-20408-32732-31273-28940
1159.02-31985-33936-25973-14177-6399-11418
1161.91-19710-27233-30871-29515-25264-24931
1164.80-15257-1076 3611-9973-23114-24076
1167.70-17282-13230-12266-10219-2634 2446
1170.59-1426-12108-15556-11082 224 5446
1173.48 6050 6004 8479 7165-69-8294
1176.37-4610 1855 5357 12453 24719 25041
1179.27 15051 5230-1383-6149-3554 846
1182.16 6316 14650 25774 22470 9646-510
1185.05-2132 4083 22376 39245 44297 36302
1187.95 28991 21293 10018 9141 25290 37518
1190.84 43724 44791 47458 45084 37448 35717
1193.73 37393 38285 45954 55534 63909 64784
1196.62 70156 73831 66269 60044 64824 66368
1199.52 72818 86390 92991 87380 86114 84344
1202.41 86728 96611 106537 112013 120088 127048
1205.30 131095 127552 122937 126237 141043 157438
1208.19 174141 186267 191498 183662 173993 169304
1211.09 170603 175510 185372 196562 212369 223564
1213.98 227408 229496 235657 240540 250238 266984
1216.87 285566 295090 295617 284364 270747 259839
1219.77 248231 241017 256013 283898 311244 328700
1222.66 334159 335421 345003 355169 367196 378356
1225.55 367494 325922 289722 272869 259298 237654
1228.44 224818 232337 261032 303712 356236 408956
1231.34 434277 390260 307890 250758 233123 236938
1234.23 250464 259697 261281 257685 257636 256456
1237.12 261420 273653 291964 308445 317303 322912
1240.01 329639 326309 316286 302585 292879 294455
1242.91 313129 337743 358530 374050 390069 409343
1245.80 436700 463880 488768 511723 538801 564600
1248.69 586372 598143 607909 633270 675196 715399
1251.59 751684 784107 817039 846029 872913 885336
1254.48 886971 882464 882287 909332 945923 958256
1257.37 949211 927526 898271 861275 821050 768308
1260.26 721726 718141 741492 748141 738714 713689
1263.16 675713 623327 533943 400857 299967 279931
1266.05 297681 306953 300449 280185 261586 248280
1268.94 236866 220338 200471 183492 170057 154453
1271.83 147141 148532 154930 161650 160925 158254
1274.73 162367 161414 162811 162607 157537 153353
1277.62 156615 163008 159096 146359 134589 120890
1280.51 109392 108055 116895 121138 123296 125809
1283.41 130722 127133 109003 88361 79802 77903
1286.30 71946 66223 75263 82013 73945 56873
1289.19 41391 28261 23033 23371 27030 33791
1292.08 39336 33675 25768 20643 17279 14819
1294.98 11920 7367 6926 4361 1695-2688
1297.87-6797-8342-7174-5006 5629 11821
1300.76 9537 5193-883-10915-16170-17123
1303.65-13048-9269-9092-10079-11144-22103
1306.55-36860-40560-32297-29384-29577-25650
1309.44-18978-16064-16318-24491-31329-30389
1312.33-23070-20044-23465-27056-28469-30394
1315.23-32646-39364-43681-46541-46056-43697
1318.12-39030-34773-32406-34703-39360-41853
1321.01-34298-27563-25236-24081-24113-26072
1323.90-25969-29119-34032-39982-35844-23166
1326.80-16651-20640-24924-31466-41295-50073
1329.69-46648-36365-27594-20605-10553-13375
1332.58-23928-27175-31890-42383-38979-24315
1335.47-13139-17430-23321-22132-27709-43827
1338.37-49951-43245-35997-31708-22029-16456
1341.26-16659-21510-29339-38377-38988-29676
1344.15-16359-9086-4243-9487-24747-39356
1347.05-46077-47153-41147-30801-23324-25045
1349.94-28790-38203-54413-65758-53354-31324
1352.83-18331-4315 18127 31764 38911 46004
1355.72 43727 32116 21321 21731 32069 24038
1358.62 2328-17265-34641-46920-40628-24688
1361.51-19689-25254-30591-30622-17717-3622
1364.40 1581 1436 614-2614 3761 14459
1367.29 21546 20638 11671-3283-11873-6454
1370.19 6932 12028 11503 10131 3674-11665
1373.08-21181-15880-4167 1848 16665 29460
1375.97 25841 16688 11263 11870 14398 1763
1378.87-4547 8584 24466 33777 30399 13655
1381.76 3256 878 1792 8092 17954 18696
1384.65 11987 5206-2037-16040-38985-52199
1387.54-29910-7332 1786 5998 4382 2395
1390.44 5083 2681-3421-5709-1979-4048
1393.33-23246-50715-42129-22725-27218-26963
1396.22-14053-9188-8581-8059-25896-56549
1399.11-52155-28280-18679-14574-4638 919
1402.01-1128-9483-19927-31613-44239-57142
1404.90-47961-24293-13091-12317-10751-15254
1407.79-24353-30929-32744-27604-19694-16345
1410.69-7179-1030-9892-23723-30244-33254
1413.58-34692-31256-20565-17480-21328-27425
1416.47-40243-53170-50116-53592-100379-142486
1419.36-95793-31860-18616-22073-24317-30165
1422.26-31077-30261-29415-25695-22461-27043
1425.15-30804-30861-29541-31042-31672-29167
1428.04-24189-25010-37972-48982-40873-30277
1430.93-26306-27452-25249-19318-19274-28350
1433.83-34012-38075-41505-54626-109187-150612
1436.72-99362-34044-18945-23811-28727-33797
1439.61-32741-27898-20725-13717-11024-15086
1442.51-17398-19321-27006-36116-35860-26616
1445.40-16736-16608-21884-38379-64256-69391
1448.29-51895-37304-29988-27842-25424-25428
1451.18-31945-42166-45347-44441-39269-32872
1454.08-30649-37907-49424-97242-196344-226411
1456.97-149724-102550-87652-61667-41635-25878
1459.86-18650-26158-35637-40534-37913-29264
1462.75-18999-18758-43433-84318-82274-45611
1465.65-31542-34063-27190-19240-13601-9270
1468.54-13143-24210-29524-34283-49086-85047
1471.43-115715-96278-81003-107696-94891-52716
1474.33-36177-40301-55631-61192-37518-17159
1477.22-15041-20929-25325-23802-21273-22236
1480.11-24911-27609-23653-19464-19139-22192
1483.00-25555-27167-21242-9323-329-4192
1485.90-17251-46238-69945-57788-37383-33851
1488.79-39773-47622-49406-52092-38954-21022
1491.68-13484-8844-4229 701 3797-109
1494.57-9187-50780-121492-118119-47442-9658
1497.47-5704-25184-34242-6467 15645 11970
1500.36 6853 7479 16346 31309 40631 41400
1503.25 39069 31288-2927-91876-139405-98173
1506.15-108153-124797-44970 18196 25876 30329
1509.04 33088 36804 52304 70420 76242 59038
1511.93 57231 79977 88338 84635 81175 81716
1514.82 99053 113504 103200 80383 66344 74471
1517.72 99351 114363 117382 101110 79267 45731
1520.61-7200 17368 85677 99099 119783 155401
1523.50 171736 172469 152958 132783 151060 172950
1526.39 165951 159538 173043 182077 195515 221043
1529.29 240692 251923 258457 254219 248544 244653
1532.18 231823 207489 190953 211168 256562 279767
1535.07 289282 304233 328922 358672 384472 386113
1537.97 319163 230510 244720 274550 293068 380434
1540.86 430284 397718 417056 501076 545527 556369
1543.75 563239 551255 558321 615401 674317 710546
1546.64 741441 763467 776385 788970 801946 807329
1549.54 817136 847482 891163 926085 948328 961576
1552.43 972760 972928 943770 937313 1009993 1085080
1555.32 1117059 1125932 1104457 1049409 999527 958565
1558.21 991620 1085398 1089204 1066902 1149212 1257456
1561.11 1296360 1286798 1283055 1297642 1312820 1325841
1564.00 1340489 1364455 1397445 1419710 1426382 1414162
1566.89 1383409 1350848 1315956 1277906 1246176 1241806
1569.79 1287716 1333832 1341380 1327597 1304413 1269142
1572.68 1234381 1209566 1191280 1179510 1166832 1096370
1575.57 1011253 1068635 1191195 1233604 1230020 1215235
1578.46 1194777 1175656 1162102 1155174 1153695 1150798
1581.36 1143979 1133381 1119240 1107210 1107699 1106681
1584.25 1107949 1119134 1113538 1090335 1076714 1073238
1587.14 1067352 1062317 1061341 1050699 1045045 1052168
1590.03 1054093 1059069 1079150 1076498 1037978 1003361
1592.93 994218 999160 1001457 1002643 1013432 1012228
1595.82 984302 942620 920877 930392 935925 922582
1598.71 911228 899584 881122 855943 830511 812509
1601.61 798883 779798 756048 735528 719868 698313
1604.50 667872 636372 610404 583945 555609 534233
1607.39 520736 503626 477475 444680 418043 395973
1610.28 373559 356210 345318 330695 312781 291723
1613.18 266597 241551 224658 211068 181491 92283
1616.07-14973 1691 91402 121962 112869 99038
1618.96 89583 83299 79249 74972 68552 60254
1621.85 44034 8237-34664-40155-8493 12387
1624.75 17316 14930 9655-2493-24691-48122
1627.64-45695-28193-18862-17614-17327-15485
1630.53-15515-22807-28882-28972-26896-26283
1633.43-30810-57197-117930-193428-189981-104223
1636.32-54109-55112-50915-34681-23926-19853
1639.21-18421-23032-29255-32031-28873-23102
1642.10-15413-12265-15521-20731-27381-50743
1645.00-116963-165050-117444-67796-67314-69385
1647.89-60926-41506-27612-26096-30582-37499
1650.78-50079-121097-245889-325472-329144-241595
1653.67-151426-116811-72631-40539-31506-28923
1656.57-28845-36530-45216-46828-41187-36976
1659.46-34781-35129-36842-41900-55044-88852
1662.35-108321-78606-44065-35173-35118-36891
1665.25-38046-39475-41936-49259-55845-60807
1668.14-82409-125482-124306-76656-54486-67958
1671.03-75335-58660-43088-38220-36937-43558
1673.92-74023-137412-160333-107173-59180-47876
1676.82-44014-41210-42207-46753-54538-63163
1679.71-61788-51156-42302-42659-49484-74125
1682.60-110295-129743-173551-279160-285313-151423
1685.49-64851-50574-46909-48338-57327-60701
1688.39-52551-55315-67074-62840-48006-40430
1691.28-40005-42181-45058-48571-49429-50670
1694.17-64789-141489-273020-278423-147524-74445
1697.07-63475-56518-60994-94145-177761-261202
1699.96-264019-196012-111465-63582-51323-52769
1702.85-55758-69267-85979-75310-55556-67430
1705.74-87601-76649-52794-42804-40627-43112
1708.64-45593-51038-59619-60656-53595-48618
1711.53-45622-44128-45820-57263-67186-77748
1714.42-101627-98351-65469-65284-134958-213749
1717.31-180116-123370-112001-82892-55057-48622
1720.21-45362-43919-44466-43810-43737-48094
1723.10-47524-42269-42874-46911-46512-41842
1725.99-36988-38918-39145-34400-35008-41918
1728.89-51417-66060-68470-59731-55178-56065
1731.78-63206-107252-171486-181103-186795-189149
1734.67-119749-59516-45046-44099-45794-50837
1737.56-52871-51130-64270-105546-117878-76840
1740.46-44084-41304-46147-51773-59083-59932
1743.35-48679-42711-43261-43484-44865-47924
1746.24-53048-58129-57947-64861-72361-65587
1749.13-53011-51475-79808-129212-131221-83891
1752.03-52450-44287-38767-33477-30778-34513
1754.92-39693-45551-61763-73035-58831-43570
1757.81-38277-38777-39068-38145-39695-45644
1760.71-67927-96105-82359-45658-31370-28799
1763.60-26671-29032-28047-22023-18432-20040
1766.49-21250-37307-66954-64377-32395-13934
1769.38-9538-16030-36444-49621-50488-95260
1772.28-127258-70686-14668-2846 77-3511
1775.17-5660 2608 10027 10838 9489 7834
1778.06 10824 14713 14639 6526-4906-4918
1780.95 7617 15992 16287 14725 18133 20018
1783.85 9418-9803-10743 851 7196 6981
1786.74 3850 374-4343-5022 447 2880
1789.63-4402-24097-32381-24058-43034-83157
1792.53-67582-13027 18779 26208 22534 15533
1795.42 16549 22442 22658 21947 26929 27568
1798.31 17201-4144-10128 8001 17127 12415
1801.20 9731 5069 3848 8372 12944 16643
1804.10 18868 16952 13604 11565 10235 5011
1806.99-1840-1422 5284 4371-3002-8885
1809.88-15715-20579-20276-22692-24024-22246
1812.77-21377-22213-22690-23734-25798-29145
1815.67-30529-32128-35299-35544-32651-33016
1818.56-37281-40360-35813-30573-31844-40466
1821.45-44758-39703-35915-36556-36053-44981
1824.35-68569-76281-55924-40727-38777-39453
1827.24-36973-38053-50027-66532-83282-90075
1830.13-69666-45808-37059-38022-40278-39476
1833.02-38515-42153-46437-46157-42504-41664
1835.92-43344-47101-46276-39202-35987-38533
1838.81-39757-42714-48731-51931-48147-44732
1841.70-44298-44364-53685-90931-127430-103519
1844.59-53925-34591-33711-36508-42588-53673
1847.49-55814-44682-35074-34585-35173-35573
1850.38-34899-33994-38385-42573-37650-31474
1853.27-31612-37859-40028-36903-33495-34312
1856.17-34291-29061-23270-23344-29405-36237
1859.06-38957-36234-33542-38103-42983-43027
1861.95-36464-28590-25683-24792-27993-37302
1864.84-40484-39527-38888-36467-39425-47687
1867.74-48406-55313-73291-69749-48616-38084
1870.63-34180-33833-36287-38986-42406-47345
1873.52-48858-47696-42458-34614-32113-34023
1876.41-34141-35364-38533-41112-38405-32478
1879.31-30082-33471-35506-38527-46854-54731
1882.20-56265-52277-47077-44139-43786-46089
1885.09-52576-56776-51677-45460-42271-43705
1887.99-47000-56497-67606-63816-51995-49260
1890.88-50251-49336-47060-44579-40621-39685
1893.77-46150-56312-61302-59695-55030-49615
1896.66-46007-48709-52357-54217-53457-49858
1899.56-47179-51038-54943-58459-60150-54758
1902.45-45895-45766-53347-56342-51466-45273
1905.34-41419-41719-42762-42734-45282-50889
1908.23-51781-48731-49499-50593-43570-36377
1911.13-30334-27421-32482-38162-37655-35196
1914.02-33318-32332-32942-35304-38824-46737
1916.91-58680-69860-62362-47309-42557-41096
1919.81-41321-47764-53537-59859-71869-80665
1922.70-78112-71714-66319-62761-62951-61470
1925.59-55383-53039-54174-52259-47713-46037
1928.48-46627-46119-46293-51454-53824-52255
1931.38-53488-54978-47864-42054-47917-55797
1934.27-58948-58992-55827-53224-52452-52993
1937.16-49766-45576-43759-47397-54762-58424
1940.05-56173-53531-53221-58138-66456-68152
1942.95-65505-65173-60995-55622-54167-52191
1945.84-45845-41456-41881-46565-53534-56475
1948.73-52178-47612-44137-41387-40654-45409
1951.63-51642-53796-55144-56604-50817-40904
1954.52-34834-38519-46320-51104-51919-52873
1957.41-49534-43339-41094-41334-40120-40143
1960.30-42794-46583-45294-40447-40103-45311
1963.20-47937-47500-46090-44880-47359-51658
1966.09-51170-51458-51008-41198-33409-33880
1968.98-35596-39195-42147-43595-43972-44638
1971.87-44949-46480-55239-73024-83113-60077
1974.77-28230-22962-27858-32350-34636-35457
1977.66-38766-43195-42627-39127-34608-31910
1980.55-32095-34980-35544-32454-36751-45538
1983.45-45712-43403-43039-43297-40525-35593
1986.34-32672-32051-30946-31483-36824-42034
1989.23-38770-35505-36440-40110-45056-41721
1992.12-35631-33018-27360-25913-30849-36701
1995.02-39668-41693-41426-35941-28816-25771
1997.91-24378-24766-29161-34131-33547-30944
2000.80-30937-32740-30632-26236-21485-20919
2003.69-26860-32569-37361-41518-40308-38793
2006.59-38956-36439-30998-30331-33151-35801
2009.48-34490-30012-25650-23071-23988-29024
2012.37-35770-38746-37318-35131-29975-26388
2015.27-26117-25770-26796-28814-31799-39199
2018.16-43659-41221-35673-32747-31286-30069
2021.05-31208-35642-38070-37320-35764-31603
2023.94-26630-29170-34287-34066-31621-35651
2026.84-41138-40995-35736-31776-31626-35402
2029.73-39178-42345-45369-45318-40850-36983
2032.62-37851-40016-37794-37666-40412-41902
2035.51-42122-41299-36475-31733-32532-35895
2038.41-36235-36854-38739-41919-45972-43871
2041.30-39264-40673-38265-31307-30578-37401
2044.19-44863-47281-42673-38646-38625-40653
2047.09-42657-45853-49662-50843-49186-46698
2049.98-41576-34258-31277-32621-35062-39789
2052.87-43628-44636-43606-44845-44384-41256
2055.76-38873-40693-44639-47558-50169-49092
2058.66-41585-35853-34751-38857-45847-52146
2061.55-54432-53130-47907-43339-42044-45018
2064.44-46758-44698-45130-46909-48588-51612
2067.33-49619-42933-38741-42119-46867-49405
2070.23-50566-48470-47625-49788-45543-41021
2073.12-45391-50701-51244-49925-47759-46132
2076.01-43225-41240-38339-39147-46268-50639
2078.91-50276-48305-48983-51443-47038-34985
2081.80-29147-36512-43415-49006-55410-55361
2084.69-48460-36899-27323-34747-48851-52362
2087.58-50828-51564-51285-48952-42608-33207
2090.48-33518-42117-49486-53262-53985-53448
2093.37-46074-30667-18327-25250-41708-53223
2096.26-57804-55540-47789-37914-19330-8136
2099.15-22453-38644-42629-46347-52204-54517
2102.05-45844-24799-19188-34213-43018-47025
2104.94-50061-51723-49214-31980-11812-18191
2107.83-36487-43366-46149-47483-45037-37147
2110.73-14590-3704-19497-33854-39040-40734
2113.62-42160-42574-26836-6936-16779-37145
2116.51-42264-40719-37245-36219-28663-7621
2119.40-5321-27349-39505-36963-32380-32577
2122.30-29586-8958 530-25866-47313-51515
2125.19-50770-46502-38955-20623-3771-15190
2128.08-33217-38401-40413-42201-40613-33818
2130.97-24823-29425-40218-43604-43190-41615
2133.87-38519-31447-19735-17289-26831-33002
2136.76-32711-33589-33238-29313-24403-27722
2139.65-40130-49086-51326-50391-44879-41733
2142.55-42709-43446-41789-40810-41977-40848
2145.44-36153-28749-23931-30507-41393-47983
2148.33-49224-44429-37553-29928-22350-27947
2151.22-39914-42971-40020-39611-39903-28251
2154.12-16056-22242-34377-40649-38953-35260
2157.01-25709-5051-798-20835-36121-42439
2159.90-42682-38873-25272-5662-10647-31212
2162.79-38820-39172-39978-33898-6487 8272
2165.69-12053-29759-33655-35008-36089-21888
2168.58 4147-1243-25964-37862-41787-39626
2171.47-23682 4396 10767-15404-34019-32749
2174.37-27926-22314-3555 5706-13438-30872
2177.26-30770-23798-18887-4455 13164 3689
2180.15-19063-27746-25953-19070-527 21030
2183.04 17971-2835-5938-1676-3167 7831
2185.94 25137 20398 1110-7228-10250-9160
2188.83 5690 22958 23076 10580 11549 16086
2191.72 19949 27307 41288 46019 35537 30749
2194.61 31030 40655 51638 62014 57154 48411
2197.51 40664 37858 45007 64595 79600 75922
2200.40 71950 71480 72410 74948 84598 87804
2203.29 84193 78452 76501 77430 85890 90405
2206.19 87517 84279 91524 96113 99205 103727
2209.08 101945 91643 91339 97530 101114 99897
2211.97 99501 94434 89987 89713 91924 93205
2214.86 94190 90224 82707 77530 74377 67470
2217.76 61785 61645 59204 49906 42076 34931
2220.65 28526 21853 12499-176-12895-21019
2223.54-18104-11703-2741 12305 27238 37634
2226.43 45738 52112 55100 54907 62844 79744
2229.33 96257 105569 107507 106279 112203 121564
2232.22 127815 134296 139747 142435 144933 146622
2235.11 147957 146202 143095 139794 137798 141219
2238.01 146900 146400 145345 144406 138149 129305
2240.90 121766 115246 112476 108538 102771 97657
2243.79 90309 80872 71631 60657 51556 46714
2246.68 46995 47205 40058 27935 16455 9637
2249.58 7497 8070 11297 9502 3479-3751
2252.47-13694-20546-21753-25124-30254-34762
2255.36-36677-34551-30295-31365-36728-41922
2258.25-42586-41937-47153-50327-43631-39056
2261.15-43274-48551-47276-40153-35244-38354
2264.04-43855-48091-45020-39783-43332-51856
2266.93-54344-50309-45893-45862-47395-49923
2269.83-48866-42429-38357-39771-42563-47829
2272.72-50595-47268-45780-47204-43295-41083
2275.61-45272-48449-48551-46689-43671-44997
2278.50-47213-47045-45778-45215-45624-46133
2281.40-44055-44550-46849-43832-39894-40329
2284.29-39927-40534-42835-42831-41177-40442
2287.18-38775-37584-40916-45321-43207-42673
2290.07-46061-42921-32611-27101-28621-34052
2292.97-41389-47707-47725-41187-35167-31337
2295.86-29317-32003-34405-32570-28529-27516
2298.75-28955-30745-33674-38030-37937-34222
2301.65-30778-28295-27762-29553-33707-37249
2304.54-37135-34616-31638-30029-27624-25968
2307.43-22618-20359-23462-24025-18232-11210
2310.32-7285-10848-17968-21904-18996-12665
2313.22-7209-5828-11750-14907-10429-12091
2316.11-16978-14883-3224 7031 7693 3262
2319.00 1208-543-3996-4615-343 4162
2321.89 3082-6166-10233-4092-3192-12080
2324.79-14617-9562-4910 3889 14918 16088
2327.68 10046 5867 10625 15991 11677 5099
2330.57 3441-1395-11229-13434-2389 2863
2333.47-5593-5124 6222 5544 184 5769
2336.36 10869 4708 2235 8570 8481 4938
2339.25 13693 18673 6566 1694 10601 9735
2342.14 304 1266 8168 9161 9465 8746
2345.04 5282 703-101-984-5287-5310
2347.93-4359-8179-10418-10384-11986-16186
2350.82-19852-16988-16106-23095-25764-27782
2353.71-35603-41069-41587-39764-34712-34121
2356.61-42742-48828-49348-51364-47110-42528
2359.50-48549-49539-43827-44391-43849-47736
2362.39-53111-51395-51466-48473-46660-53513
2365.29-53302-50355-50081-45224-40891-38988
2368.18-39748-39221-34366-33661-35787-38443
2371.07-35989-31989-34048-35447-35323-35948
2373.96-36364-37913-41426-45055-41991-37723
2376.86-36166-34184-32495-33373-35661-37237
2379.75-35664-31622-31390-37368-41948-42404
2382.64-40027-37878-36426-35998-38185-39979
2385.53-37212-32807-33429-38841-39786-37096
2388.43-36044-36183-37212-40423-43614-44119
2391.32-45605-46087-41350-37615-41101-46717
2394.21-45505-41539-42440-47352-49566-47921
2397.11-46096-46447-46445-45464-43908-44316
2400.00-45810-46212-47634-51427-52805-49022
2402.89-45059-41923-38732-41603-44494-43607
2405.78-44911-46508-48252-51613-53320-52882
2408.68-48195-44024-44953-47590-51874-56406
2411.57-55760-52031-51232-51486-51108-52237
2414.46-49048-44830-47074-50028-48855-48196
2417.35-48281-47984-48561-49720-51176-54487
2420.25-56826-56718-56771-57863-57093-54719
2423.14-50581-49829-53936-56155-55656-55637
2426.03-56275-59140-63915-64808-58006-50285
2428.93-45171-46786-54430-57575-55935-54600
2431.82-51430-50934-54433-57462-63584-69904
2434.71-67982-62859-63611-68498-69195-64874
2437.60-58056-53483-50944-51911-53206-53254
2440.50-52343-49275-52662-60537-60503-57926
2443.39-59229-61893-63216-60847-57923-59194
2446.28-61394-61289-59104-57978-61056-61798
2449.17-57597-55636-54938-54181-57446-61143
2452.07-57525-51882-49941-51923-55539-58128
2454.96-57391-54247-52069-51517-49890-51897
2457.85-58502-61792-60614-56952-54725-56750
2460.75-57860-56388-57148-61835-61458-57576
2463.64-55096-50875-47647-49411-53181-54187
2466.53-54706-58049-63655-65589-60124-55065
2469.42-55413-59740-63849-62278-58980-61698
2472.32-63790-63595-66334-69349-69810-66653
2475.21-60689-54507-51685-55218-59921-60805
2478.10-57953-56387-57686-57050-52820-48455
2480.99-48655-53040-57545-60935-57072-46682
2483.89-43265-47163-51142-53862-53937-55554
2486.78-59830-62144-59987-57204-55945-55838
2489.67-55034-54200-53346-55255-59460-62356
2492.57-61024-56500-56937-60651-61744-61313
2495.46-61510-62362-60723-57462-54703-56170
2498.35-60224-62476-61171-59746-63858-65563
2501.24-60201-60042-65211-65859-64114-65075
2504.14-64609-65806-74261-80167-76463-68387
2507.03-62232-62885-68600-73406-73297-72199
2509.92-67897-64574-66047-65909-65802-69021
2512.81-73043-72810-68016-64926-66498-71172
2515.71-73742-71814-69527-68733-68786-69772
2518.60-68281-64602-65182-67015-67573-73886
2521.49-78433-77337-73967-67130-60781-57911
2524.39-59678-65652-71716-75649-74436-70377
2527.28-67628-66579-65714-66318-70474-75989
2530.17-76328-71231-65115-62748-62895-63008
2533.06-67491-71609-71753-73599-75878-76221
2535.96-70499-62742-62939-69215-73696-74680
2538.85-73413-73890-75126-73496-68683-65222
2541.74-66439-71890-75830-75324-74666-74244
2544.63-72159-71511-69134-66241-68067-68831
2547.53-64806-63334-63176-60704-62616-68652
2550.42-72780-77888-82711-84234-83041-79848
2553.31-78237-74596-67010-60450-57280-64931
2556.21-78336-82203-80700-82038-81188-73281
2559.10-65200-65384-71110-78139-80640-76647
2561.99-73250-69711-65712-66386-70606-75831
2564.88-78877-78187-76688-76235-76278-74376
2567.78-70824-69369-69230-73231-76542-72802
2570.67-69934-67782-64381-66566-68761-68812
2573.56-68885-68397-71945-77069-76674-71887
2576.45-65873-61975-63975-69057-74090-77412
2579.35-72055-65902-64395-65822-69951-70870
2582.24-68943-69773-72816-75390-74331-72445
2585.13-72978-71727-71098-73447-75787-77705
2588.03-77835-73209-66116-65226-70018-72258
2590.92-68832-67623-73424-78633-76992-74223
2593.81-73597-73511-72336-70795-73873-77331
2596.70-76692-74184-72491-73148-70530-66714
2599.60-69827-74291-75365-75564-73211-70944
2602.49-70328-69837-68038-65229-63830-66958
2605.38-70802-71421-71877-73026-72715-71878
2608.27-74557-79772-79907-73970-68707-68199
2611.17-68414-67761-68461-70813-70394-68021
2614.06-67613-65319-65769-75240-77674-70775
2616.95-69680-69044-68914-73999-73484-71508
2619.85-72544-68840-64368-64452-64927-68840
2622.74-73620-73385-70838-71139-72314-73392
2625.63-77645-78517-73621-74113-77112-75518
2628.52-69631-64794-65536-71371-79255-77126
2631.42-67820-65948-67326-68206-71149-73722
2634.31-74975-73304-67376-67063-72699-77148
2637.20-78077-75834-71404-68894-69686-74533
2640.09-79848-79993-75216-70202-69174-69983
2642.99-72753-77089-76740-74991-73712-75242
2645.88-77257-73605-68747-68302-72942-78343
2648.77-80362-76556-72338-74064-74569-75429
2651.67-82330-85297-81266-81668-83195-80277
2654.56-79975-77864-72528-75744-80222-77661
2657.45-74298-73485-73852-74235-71655-68991
2660.34-69600-69823-72386-80096-83986-80735
2663.24-80904-83170-82162-85278-85303-78466
2666.13-75990-78975-81822-79106-72731-72112
2669.02-78103-83036-80424-77718-79629-78678
2671.91-73187-70303-74125-81862-84285-76426
2674.81-70589-72025-73105-74143-77453-79627
2677.70-82829-90755-89277-81112-83762-84150
2680.59-75334-73074-78156-81443-80145-79802
2683.49-81150-82134-84860-85833-82487-80096
2686.38-81078-81860-82804-86793-87487-85191
2689.27-83796-80123-76447-77288-82973-86048
2692.16-83263-83503-80105-73561-79158-91933
2695.06-95010-88537-86529-87990-87321-86480
2697.95-89470-93250-95084-96210-94035-87122
2700.84-79329-72972-69700-70690-70463-69094
2703.73-68046-66493-69458-76614-81209-83712
2706.63-87889-91712-93115-92930-93136-93339
2709.52-89291-85364-81967-78600-71650-65482
2712.41-71800-79555-80173-81112-83222-81499
2715.31-79666-81118-81296-80854-81740-84537
2718.20-85008-81781-80280-82903-85198-79494
2721.09-73063-77513-88526-90376-81826-78466
2723.98-78586-74886-76788-80262-79518-78589
2726.88-75727-76232-79655-77298-70609-71032
2729.77-80545-86021-86111-83672-77472-73776
2732.66-74599-74573-71682-71419-77780-83384
2735.55-80309-75870-76778-82051-88880-90295
2738.45-86939-83267-78536-74037-74980-80183
2741.34-82188-79937-76320-72249-72608-80775
2744.23-84355-80290-82535-84126-78076-78404
2747.12-85611-85344-78045-72575-73712-79559
2750.02-81359-76803-74635-78406-83793-84740
2752.91-80348-76745-79735-83817-79335-73982
2755.80-73035-74752-77633-76097-74718-79778
2758.70-88766-92102-86317-77036-69016-69344
2761.59-75974-79121-80765-81944-82290-84398
2764.48-85850-86495-86414-81482-77110-81104
2767.37-89155-97162-100420-93691-84003-80470
2770.27-77162-73311-74202-79598-87306-88462
2773.16-84205-84036-84932-84465-84428-84649
2776.05-86469-87790-87066-85456-82514-81215
2778.94-81747-80715-82152-86933-88023-90323
2781.84-94876-90539-80356-77662-77180-75954
2784.73-77689-79731-81885-85510-86928-82750
2787.62-79565-77948-77476-79541-80905-82016
2790.52-85501-87632-85945-84281-83772-82371
2793.41-82412-86002-89486-87760-82812-75935
2796.30-68137-68638-74335-77269-79789-85042
2799.19-91834-96023-95343-88764-85945-88326
2802.09-85670-82495-82311-83411-86260-87131
2804.98-84292-77829-72636-73637-74123-76456
2807.87-83441-84452-78167-76278-78850-81761
2810.76-84616-84525-85252-84198-78042-74254
2813.66-74307-75954-79911-83967-85511-86217
2816.55-86267-82201-77396-75710-77202-81180
2819.44-85512-85418-83890-81369-73276-66613
2822.34-69753-74816-73201-74095-76904-76006
2825.23-78662-82349-81042-78787-75516-73181
2828.12-75826-80827-85424-87540-90047-90186
2831.01-82747-76346-78757-82164-81060-79609
2833.91-80059-82653-81684-69781-58690-59793
2836.80-65610-72005-78031-80715-79967-78673
2839.69-82846-89620-87074-81466-84193-87175
2842.58-84551-83080-81383-72431-66215-70344
2845.48-76314-76412-71323-68242-70754-76148
2848.37-78571-73078-66671-71420-78829-76567
2851.26-74732-79338-83610-84568-79258-68533
2854.16-61933-64482-73101-75542-68207-61894
2857.05-61718-64709-71311-78383-75663-71700
2859.94-77433-84766-80154-70699-71032-73534
2862.83-68099-64253-71566-82300-90158-91995
2865.73-87587-84797-80629-72524-71588-76783
2868.62-81040-80001-74828-71001-71176-71879
2871.51-67625-65854-72175-80759-85043-85485
2874.40-87724-86917-77989-69366-68232-71545
2877.30-74124-76876-82326-81888-72775-69166
2880.19-73903-77285-80993-87678-89346-82912
2883.08-76979-76536-74801-71372-70992-69538
2885.98-69721-75860-78805-78985-79896-79655
2888.87-80922-81837-78568-73051-69565-73372
2891.76-83138-86303-83982-80595-72152-67703
2894.65-74968-85356-93617-99316-91313-77799
2897.55-74622-72682-67956-70796-81422-88128
2900.44-91451-94071-91886-84078-76471-74574
2903.33-77466-78914-78358-83254-92460-95012
2906.22-93476-92788-85789-79235-82574-85860
2909.12-82095-80881-85744-89869-90585-84556
2912.01-76222-73682-75170-80410-88434-92165
2914.90-90235-85234-87312-101225-109244-104164
2917.80-99784-94757-87384-83651-78218-76173
2920.69-80120-79336-83324-90062-87831-84654
2923.58-86280-90356-91731-91780-95212-96593
2926.47-98804-106548-111179-110168-109189-105155
2929.37-99197-100011-102272-99562-93923-87119
2932.26-83208-81192-79915-80882-81549-84602
2935.15-89875-92505-91594-89660-91394-93614
2938.04-97216-101579-96077-86400-86588-92670
2940.94-95853-93956-88469-89244-94561-94117
2943.83-90403-83719-82490-88633-88152-88411
2946.72-100658-108727-104901-101035-96384-89376
2949.62-86643-85855-85288-85263-86120-89430
2952.51-94017-95667-93758-90972-86751-82765
2955.40-80316-81803-88748-93303-91810-92242
2958.29-92190-85700-76720-70722-65060-43794
2961.19-23657-65370-132927-145770-130108-122103
2964.08-113181-103185-98407-93506-86790-80448
2966.97-79246-82810-86283-87891-88603-89257
2969.86-93349-95506-94960-97896-99343-95840
2972.76-99538-109270-105880-89706-83913-93603
2975.65-97094-88316-77945-70078-68398-73191
2978.54-80543-86659-86439-85109-86125-81090
2981.44-82158-90640-89659-84246-86962-94784
2984.33-98862-92167-80964-77941-79808-75700
2987.22-75045-79825-76657-69521-70766-75196
2990.11-77013-74188-70079-70208-72062-71398
2993.01-69686-70142-71072-71038-73509-80731
2995.90-86932-86972-81592-78866-86676-87730
2998.79-79464-77263-77029-72496-71991-73432
3001.68-70841-69889-72299-73883-74598-74792
3004.58-75531-78240-84064-86412-84066-81815
3007.47-82513-84465-81979-74905-68696-68728
3010.36-73972-79094-85333-88436-86039-85658
3013.26-84461-82476-84860-80738-70706-71747
3016.15-82381-89932-94758-97131-91141-82277
3019.04-74200-70437-71718-72004-76623-83568
3021.93-83579-81646-81576-80248-81037-84196
3024.83-87351-84015-74167-70244-70362-70386
3027.72-74241-79324-82661-82587-79888-77713
3030.61-78455-75928-68707-67452-78528-88588
3033.50-88927-87599-88717-88881-86387-81908
3036.40-73761-67600-70729-80788-91111-96131
3039.29-92891-82731-74603-72225-72662-74084
3042.18-76970-78869-79882-76887-69072-64771
3045.08-72555-81990-81257-80275-80773-78018
3047.97-79415-83978-80985-72926-75500-86752
3050.86-90255-84362-83382-87279-89876-88837
3053.75-84518-80949-77112-75639-80958-87372
3056.65-85814-72321-59964-63573-76884-83800
3059.54-78530-67938-66351-70447-72109-75134
3062.43-77900-78266-78111-75162-75591-81098
3065.32-82984-73326-63711-67680-72403-62243
3068.22-49984-53129-63740-68643-67545-65027
3071.11-62925-62281-64655-69960-76844-75549
3074.00-65570-59578-56839-53330-54258-57048
3076.90-61003-70529-73675-65031-60213-61932
3079.79-64454-68099-70224-64493-57388-56142
3082.68-57265-61458-66614-65617-64083-64303
3085.57-59338-55082-59572-66577-66662-58259
3088.47-49504-48494-48498-45434-45449-50532
3091.36-57416-57351-47499-42391-46383-51337
3094.25-54235-54025-54033-56000-51822-37961
3097.14-32560-37664-43255-42568-37940-43690
3100.04-49720-50356-47471-40230-38431-38091
3102.93-37984-36500-31144-26431-27306-33003
3105.82-35361-31186-30369-37491-43281-36465
3108.72-24265-21082-20621-16339-14517-16687
3111.61-18428-21593-26501-25185-18367-15447
3114.50-15653-13857-17968-24521-21329-11937
3117.39-8023-9090-9491-8191-5747-7871
3120.29-12077-12684-12547-12411-12858-12338
3123.18-12231-7016 1847 6098 9681 10377
3126.07 3785-2482-1201 3764 5741 7119
3128.96 7687 5424 4994 9525 5400-2806
3131.86 2246 14070 18429 13774 6341 7015
3134.75 17536 25964 27900 28040 24417 20477
3137.64 20870 19714 16917 16943 16919 23415
3140.54 31179 29507 26831 26731 22431 17087
3143.43 15294 23402 29546 20779 15940 24916
3146.32 34405 37640 40015 38037 32117 31786
3149.21 27003 24814 33376 38107 35262 29972
3152.11 30747 42194 54995 57930 50154 42367
3155.00 42262 46147 46060 47639 47429 39459
3157.89 31622 32023 40282 47219 49569 46972
3160.78 41914 40414 40597 40867 44273 49667
3163.68 54057 58363 58788 54562 47953 42504
3166.57 37247 33081 35400 42038 43456 41192
3169.46 46492 53804 52084 44175 41307 50871
3172.36 65970 71354 65360 61232 57614 49433
3175.25 46192 52365 59285 58103 47865 41905
3178.14 45791 49851 51015 54397 54299 51592
3181.03 52407 49922 44603 45251 47950 50013
3183.93 53367 57863 62135 64034 64139 63558
3186.82 61937 57668 49771 47145 49783 53216
3189.71 49604 41392 40601 48774 53468 54013
3192.60 57992 58744 55104 56668 62076 60889
3195.50 56802 51368 44729 45379 51142 57519
3198.39 56056 48660 41153 38868 45395 54909
3201.28 60950 62252 61881 58664 55408 59832
3204.18 66177 63460 55112 57098 65327 63089
3207.07 54891 52203 54896 57387 52484 53693
3209.96 65992 69798 68172 70936 67136 62709
3212.85 60474 55843 52544 50548 52227 59294
3215.75 69432 81792 83848 72790 60534 52730
3218.64 50523 53720 55063 50646 47029 50965
3221.53 53273 49750 51770 62366 69188 70019
3224.42 72911 77230 73270 68864 72010 72009
3227.32 69600 73427 75425 72705 70651 67681
3230.21 59931 55574 54180 50798 47331 50959
3233.10 58199 59564 57898 63341 71204 69999
3236.00 63965 65406 66798 54730 48723 62037
3238.89 65741 54215 52798 58864 61181 60619
3241.78 57853 57721 57223 57539 56713 58180
3244.67 64285 63008 60874 71498 78728 72782
3247.57 70412 73450 65985 53158 52690 59400
3250.46 60181 58141 60136 62467 63459 62083
3253.35 54851 50992 49002 46670 48037 52575
3256.24 60557 66153 61965 57176 58234 57622
3259.14 51324 49483 52788 53559 54006 57048
3262.03 54093 49355 51810 53918 49551 51638
3264.92 60762 66361 66056 58403 52579 51799
3267.82 41643 30849 32325 41301 49223 51365
3270.71 49785 45922 42801 43869 41421 35675
3273.60 39200 47467 47415 42923 42490 47666
3276.49 48708 45758 43328 39333 37641 38517
3279.39 33727 28381 26014 26745 31135 29785
3282.28 19416 17703 24842 29562 33542 38010
3285.17 40116 37966 29168 19177 19945 34469
3288.06 41793 33096 24370 23823 25644 21423
3290.96 13814 8595 12867 22283 23212 16815
3293.85 11873 14392 23191 27624 23368 24041
3296.74 28468 29588 29654 27330 28260 34633
3299.64 30222 19676 15144 12954 11602 9225
3302.53 747-2133 3909 6557 4965 13470
3305.42 25393 23023 9832 5868 10686 3591
3308.31-12969-12162 3610 12461 7259 2004
3311.21 5824 10310 11478 7719-1153-4306
3314.10-3330-1225-3658-12471-19822-21886
3316.99-16632-11198-12309-19729-23007-14687
3319.88-9413-8396-4068 485-2579-3470
3322.78 2060 2267 673 3959 4635 407
3325.67-2811-4720-6986-4641-2283-8262
3328.56-19262-24207-23918-11613 3705-2242
3331.46-16154-18319-15161-14155-15320-18835
3334.35-21801-19331-15988-16038-15588-11326
3337.24-11280-18566-28366-31506-23146-13860
3340.13-15908-22356-19939-11826-21488-37657
3343.03-36988-32408-28486-19206-14941-18221
3345.92-24510-25067-27177-29845-27027-24958
3348.81-26267-25526-21963-20223-17190-14810
3351.70-19875-27746-30238-25630-21058-21069
3354.60-23751-25514-25480-25924-28682-25955
3357.49-28256-38264-38588-32031-37654-46649
3360.38-44052-39070-39416-40712-42441-41416
3363.28-34146-29955-31682-34311-37018-36651
3366.17-33670-30047-32228-36565-41124-41668
3369.06-36179-32262-31014-36133-43476-44029
3371.95-37956-30995-30473-38037-44458-44633
3374.85-45744-45193-46151-45176-40253-37438
3377.74-37498-45353-51776-49515-45734-41655
3380.63-43473-49725-46215-39679-43019-46503
3383.52-53429-64617-67107-58150-50389-46435
3386.42-40408-40867-47415-48296-43898-43509
3389.31-43354-41839-49209-53356-48221-53586
3392.20-66100-65692-60293-55070-45284-41078
3395.10-45910-47469-50955-55896-55722-56045
3397.99-60654-62630-59118-53414-47741-45577
3400.88-49350-55566-64780-73073-72166-61109
3403.77-56613-61415-62209-57456-53017-50134
3406.67-47245-50128-59226-63925-64162-65196
3409.56-68128-68708-68622-63404-55281-55517
3412.45-59090-57206-57519-60291-57991-53321
3415.34-53789-57653-58122-58486-63116-64771
3418.24-62846-58844-56400-57284-58062-58602
3421.13-60873-64138-68491-69402-62340-58919
3424.02-64887-60163-50081-60837-76531-71192
3426.92-63909-69859-75126-66028-58255-60074
3429.81-64522-75059-81105-72032-63112-65129
3432.70-69500-69693-74298-78226-69863-58430
3435.59-63894-66932-58747-60686-67430-67791
3438.49-67548-71682-75778-74551-71790-63387
3441.38-55342-61977-76534-80444-77885-75858
3444.27-78799-84263-72960-59783-70173-79327
3447.16-68151-62062-72404-77679-70377-60436
3450.06-57130-60627-65140-67724-67771-68054
3452.95-74105-81666-80635-78992-85940-80568
3455.84-63598-55246-58033-60798-59428-59835
3458.74-60203-61948-68040-75057-86724-90290
3461.63-77421-67253-71160-82786-86997-83748
3464.52-80570-70912-65943-81381-96586-84727
3467.41-64471-56434-61697-78773-91890-91444
3470.31-88343-87023-87053-88034-86038-83907
3473.20-84067-87262-90649-86520-78275-74603
3476.09-79425-86651-91448-91418-87918-80191
3478.98-72572-63485-61554-71921-77947-81142
3481.88-86287-90008-96681-100657-95866-91539
3484.77-99980-104053-94055-86490-87600-93308
3487.66-100043-100706-98688-101760-107023-101406
3490.56-92612-95290-106211-103867-88591-78296
3493.45-69568-61878-63725-67238-66083-68095
3496.34-73771-73941-76519-87086-91850-89475
3499.23-88319-89432-98661-107530-110317-112445
3502.13-116518-118455-118827-116853-109870-105171
3505.02-111115-116281-112821-102721-93850-94156
3507.91-100305-106507-111666-108208-102345-106322
3510.80-113047-111579-109768-118200-132620-131204
3513.70-115465-105133-99639-101448-111360-108385
3516.59-97318-96859-101357-108725-117284-118280
3519.48-113790-105951-103629-107111-109008-114137
3522.38-121176-119668-113325-107421-107808-114134
3525.27-116825-116082-118560-114604-108490-116288
3528.16-132169-134749-121452-113579-118766-125061
3531.05-124961-119215-117582-118510-118988-112744
3533.95-102621-103643-109869-111250-116575-120228
3536.84-111930-104651-114235-124331-121439-118833
3539.73-125856-130900-129610-125957-123977-121683
3542.62-121862-123699-122656-125901-131696-128416
3545.52-123267-121667-118991-110770-109664-117100
3548.41-123438-130483-139148-140190-134051-128508
3551.30-130129-133157-131036-126223-123965-120881
3554.20-117263-116581-117172-114909-111506-110810
3557.09-113039-115442-116789-111144-108733-117297
3559.98-121738-118420-118312-119900-124571-123070
3562.87-119088-120033-120727-122519-125790-129809
3565.77-134314-128624-119925-132408-145425-133997
3568.66-114889-106294-113008-113441-106616-106151
3571.55-108534-107218-107355-113374-116248-113221
3574.44-113331-115119-112327-101845-96532-97642
3577.34-99797-101380-104347-107654-106048-104127
3580.23-99096-88467-87772-92356-98406-111960
3583.12-125812-126863-120463-113777-114235-128710
3586.02-147663-148028-143446-148707-162308-152729
3588.91-112137-88125-93866-105800-109541-107166
3591.80-106795-117919-131610-127916-116319-115995
3594.69-124497-121481-115181-116657-114517-110005
3597.59-112600-119458-122613-120023-120435-128649
3600.48-132606-122994-113758-113022-114775-111408
3603.37-108427-108663-110801-114025-115592-118669
3606.26-129512-135209-133306-136934-161276-187018
3609.16-168031-127486-108504-112467-135115-164013
3612.05-180195-163897-135958-129540-140019-141772
3614.94-129982-119067-121071-135581-160758-170657
3617.84-155890-155637-186901-193406-153643-128629
3620.73-125928-112770-106551-118030-132265-141535
3623.62-136819-121341-117502-126725-131843-123261
3626.51-115001-133604-183389-208547-209808-232143
3629.41-209433-150457-130288-125824-118057-118219
3632.30-124299-131299-137407-130230-118954-113691
3635.19-109455-109473-111973-110273-114909-119949
3638.08-119631-118199-112025-105585-108672-113648
3640.98-115808-119734-120500-114910-110792-112930
3643.87-122356-130363-129363-123507-134244-162998
3646.76-185977-178382-162763-192862-241482-217589
3649.66-172799-176641-183657-154702-117520-111572
3652.55-118983-120811-127545-138277-146217-158588
3655.44-196182-220833-191408-154325-139896-132824
3658.33-127256-125340-128241-134925-139869-135107
3661.23-127906-129185-134027-135659-137887-139921
3664.12-142208-144244-146262-144225-140493-139604
3667.01-138708-147229-174624-185593-168128-181004
3669.90-257429-288749-214973-154556-144447-145291
3672.80-154884-166544-189028-231814-267497-301416
3675.69-287969-215855-178046-164911-157462-161710
3678.58-165768-164426-153376-143657-142904-144358
3681.48-140786-129925-121574-124312-137391-146826
3684.37-147230-146638-146509-145240-147617-152030
3687.26-204828-306533-310768-218566-168001-170327
3690.15-195000-217886-198228-153660-139488-149592
3693.05-154440-152652-154310-156163-155622-151722
3695.94-153487-155949-151233-146893-143414-141060
3698.83-146656-152275-154915-158637-177871-196564
3701.72-183577-157547-149982-155139-163267-166219
3704.62-162484-156107-152455-155837-161080-160701
3707.51-158069-164004-193206-208820-182926-155687
3710.40-159160-197880-264544-274534-211838-174305
3713.30-176464-182658-182106-175702-170391-160409
3716.19-146242-143866-157351-168302-175342-178742
3719.08-169132-159719-158103-156668-167448-187998
3721.97-191061-179570-179354-187158-187397-180995
3724.87-170516-168958-187341-190027-173300-162647
3727.76-157112-156813-163853-166729-155737-151944
3730.65-180439-242924-289129-249574-187072-172845
3733.54-188790-215932-230727-212562-204213-247916
3736.44-260925-205202-173038-176920-170361-158754
3739.33-163476-171103-178117-184177-181013-171828
3742.22-168309-184079-255198-390849-460097-363066
3745.12-242127-191930-176493-176069-177258-177355
3748.01-206033-296730-354973-284165-203204-186518
3750.90-221120-315539-353815-267831-196147-179092
3753.79-176884-179602-179248-181155-195000-201358
3756.69-194586-188579-185109-184849-190879-207255
3759.58-209999-184660-161855-154189-160711-166945
3762.47-162878-156759-156923-159952-167308-186579
3765.36-204831-196740-182162-175287-168988-164357
3768.26-166444-188865-224464-219090-183340-169091
3771.15-166879-157465-153200-157195-168538-175785
3774.04-169665-163655-167345-173588-178385-173179
3776.94-165689-167420-176392-191116-202020-190953
3779.83-172223-161512-157942-159512-164594-168374
3782.72-165163-164700-174104-178010-169799-159318
3785.61-161878-168706-174509-177317-172298-156857
3788.51-144150-146179-151140-153433-153689-150236
3791.40-153973-159683-162822-165072-165057-163318
3794.29-162777-163221-173659-193008-199721-192132
3797.18-189266-186973-183525-180614-184775-194990
3800.08-221880-303959-347302-267212-191125-174697
3802.97-175674-179908-177094-167463-163488-172672
3805.86-215512-274543-265444-202729-166834-154666
3808.76-151025-152688-157338-159240-161954-167159
3811.65-171796-171925-174008-174884-171310-171085
3814.54-192249-270222-352349-313361-225056-188110
3817.43-178784-176887-170851-163551-181170-226208
3820.33-258464-263813-256675-218952-187998-185499
3823.22-183690-175866-162884-153302-157386-168513
3826.11-181765-182924-178200-182073-184228-173566
3829.00-163153-164635-174064-193292-219473-212633
3831.90-179733-170012-174638-175233-193348-226437
3834.79-228555-208021-202495-201261-244927-336572
3837.68-335845-250086-206454-200205-196834-203144
3840.58-215469-197959-170024-163024-178852-203913
3843.47-208168-195684-191915-187614-180809-174882
3846.36-173176-172683-171035-168694-168802-173773
3849.25-179345-182100-195144-231664-306651-335797
3852.15-277236-255248-342586-444025-402076-270992
3855.04-204770-194257-203392-214245-202337-185050
3857.93-181459-178844-181374-183873-182405-191357
3860.82-219688-236123-212657-181275-173602-179057
3863.72-194363-230157-253771-231660-209705-201432
3866.61-188230-173786-175215-198455-231197-269942
3869.50-307136-280983-222740-200028-196387-190580
3872.40-182972-189034-211847-226016-216343-197124
3875.29-189139-190759-191578-186372-184454-193571
3878.18-206265-207217-220478-246558-250122-233515
3881.07-214678-198785-189692-192842-199252-198667
3883.97-204315-230523-278421-290855-250847-215248
3886.86-206692-208857-211236-210045-208100-202093
3889.75-200665-228064-258002-242868-216550-207241
3892.64-201096-199399-202440-200086-203369-207738
3895.54-204037-202325-203379-202674-207081-218164
3898.43-246328-260900-234280-208559-209689-238614
3901.32-265362-240184-206821-214374-251295-276318
3904.22-260968-235973-224828-215795-204434-194034
3907.11-193320-202539-209672-210376-211457-213898
3910.00-213234-205388-202842-206963-203827-198118
3912.89-205925-211759-203415-192994-195003-203698
3915.79-212576-228009-244582-235308-217481-210649
3918.68-210115-218648-224723-215904-206829-204290
3921.57-204744-201871-207329-219498-225555-220783
3924.46-214595-208772-197198-189529-197916-207490
3927.36-206911-203487-199233-191088-191483-199394
3930.25-204553-203776-206504-216622-219499-205558
3933.14-190575-189702-203201-216925-224295-226761
3936.04-225031-217047-210470-206721-201848-196306
3938.93-200488-206962-208869-211712-218384-213740
3941.82-206563-211558-212403-206025-211153-211017
3944.71-196934-187685-196995-213729-218052-213703
3947.61-213448-210517-202055-186788-178737-180719
3950.50-180524-174249-172814-184382-198469-201391
3953.39-198748-195612-195236-200671-205613-202801
3956.28-202176-208178-213568-208293-199070-192874
3959.18-189783-191698-198836-198141-193559-200800
3962.07-207586-201972-200295-204267-206787-201700
3964.96-197919-200187-203273-207241-212765-209744
3967.86-206075-209575-209148-200757-200317-209165
3970.75-212637-206099-207159-210627-205556-203458
3973.64-205766-198996
##END=
