##TITLE=Carbon Tetrachloride
##JCAMP-DX=4.24
##DATA TYPE=INFRARED SPECTRUM
##CLASS=IUPAC A
##ORIGIN=NIST, Analytical Chemistry Division, 301-975-3108
##OWNER=COPYRIGHT (C) 2000 by the U.S. Secretary of Commerce
##DATE=00/02/01
##$SPECTRA VERSION=1.10
##$UNCERTAINTY IN Y=2.1 % relative (B=1.1E-04,C=2.7E-09,D=1.4E-13)
##CAS NAME=Carbon tetrachloride
##CAS REGISTRY NO=56-23-5
##MOLFORM=C Cl4
##MP=-22.99 C
##BP=76.54 C
##$NIST SOURCE=QUANT-IR
##SPECTROMETER/DATA SYSTEM=IFS66V (Bruker)
##INSTRUMENT PARAMETERS=KBr Beam Splitter; MCT Detector; Multipass cell
##STATE=gas
##SAMPLE DESCRIPTION=Carbon Tetrachloride Primary Gas Standard
##PRESSURE=101.3 Pa
##TEMPERATURE=23 C
##SAMPLING PROCEDURE=1 L/min Flow
##RESOLUTION=0.9640
##DATA PROCESSING=Triangular Apodization
##XUNITS=cm-1
##YUNITS=(micromol/mol)-1m-1 (base 10)
##XFACTOR=1.0
##YFACTOR=7.2759E-12
##DELTAX=0.4820
##FIRSTX=575.17
##LASTX=3974.605
##FIRSTY=-7.03E-07
##MAXX=3974.12
##MINX=575.17
##MAXY=.0054809
##MINY=-3.48E-06
##NPOINTS=7052
##XYDATA=(X++(Y..Y))
575.17-96692-65707 97828 212273 103336 6710
577.58 62691 69470 67561 56644 46857 145862
580.47 108929 86233 278587 202091 69913 96138
583.37 38441 99144 59726-83509-52292 2933
586.26 16272 11300 36363 5187 56464 127642
589.15 48476 42184 27938-49380-47334 24113
592.04-10911-41874 15696 47636 63328 11448
594.94-49571-39405 29249 9221 4205 32233
597.83-33172 26396 72299 15926 8435 31045
600.72 37753 8232-18023 16 15526 35069
603.62 42087 71526 52942 44347 69061 5256
606.51 14174 37136 49110 43595-18158-33428
609.40-19099 1259 37479 36187 66691 60822
612.29-2782 1759 30167 38047 21512 20990
615.19-11942-2955 45789 30234-440 43879
618.08 122930 104472 81812 112036 108618 80729
620.97 124625 187248 191134 129861 73122 89152
623.86 132356 147678 163613 168425 162848 207327
626.76 218567 189770 154139 146281 148733 148596
629.65 155312 167803 220466 203754 169061 147617
632.54 131852 110659 77369 89498 75140 68299
635.44 73768 67143 67388 65360 57340 17144
638.33 26709 44826 32606 18347 24606 46045
641.22 54151 66075 77193 69409 41770 41769
644.11 26829 258 4811 28271 38966 21799
647.01 1873 4247 26499 37908 27008 9179
649.90 38950 63005 54885 67015 54720 40857
652.79 26335 13431 16494 14074 34291 32462
655.68 35866 53124 52387 82376 85151 53986
658.58 19294 24294 58627 65914 59876 13053
661.47 9175 24828 23228 35532 27199 25468
664.36 43783 43335 35685 34695 39276 14121
667.26 3129 29046 66422 25410-14781 26792
670.15 46942 46139 53105 44517 9681 4688
673.04 36701 68946 85020 80699 81773 65490
675.93 35725 23760 6463 20574 59931 65784
678.83 75844 41712 11369 56827 73383 67963
681.72 61739 41608 63163 72134 63906 71863
684.61 42954 16274 14543 23769 50834 50738
687.50 60447 75225 92984 113005 78901 62119
690.40 75640 65581 59941 82747 93226 80921
693.29 78880 76923 65983 53906 60727 101459
696.18 128543 113848 118889 95345 67659 66851
699.08 89523 104775 102622 123625 131228 117640
701.97 105172 91665 78520 98448 112908 107971
704.86 134217 129493 122725 111383 102212 119838
707.75 127745 130976 149492 133477 130553 134927
710.65 114692 128767 156151 147499 150684 184302
713.54 168192 139415 136701 133964 163319 159591
716.43 140051 159303 185473 186143 191055 193289
719.32 181101 194041 213624 201500 227571 278311
722.22 292571 297297 316727 309606 318229 344898
725.11 363331 392947 437343 465726 488916 495986
728.00 520029 566162 598173 615471 650103 721499
730.90 792869 834431 887732 947260 1027564 1108246
733.79 1186305 1273201 1393395 1514751 1638705 1771737
736.68 1936740 2124324 2325057 2519129 2746629 2971131
739.57 3239864 3538699 3842288 4183078 4607778 5056277
742.47 5532528 6035445 6572549 7122692 7662249 8228960
745.36 8844951 9528146 10318284 11209688 12258235 13394321
748.25 14527737 15584038 16534833 17474977 18585190 19933017
751.14 21541573 23135113 24589654 25912654 27372065 29140377
754.04 31306257 33812398 36061299 37651480 38911209 40253589
756.93 42124596 44625449 47561601 50840405 52992596 52994999
759.82 54012170 56451908 58854219 60775981 60645616 60502055
762.72 62040761 64801075 72085814 78483292 77380074 73124118
765.61 71040208 70362085 73015932 78354249 83025116 91918334
768.50 101272585 105679965 97454135 81140855 72683216 72901604
771.39 81410167 98578232 130247676 141146603 109049223 90083411
774.29 91422090 92684918 95154621 97353496 100056346 102353845
777.18 104557990 106346301 107910910 108556114 108694150 108227201
780.07 107266881 105548832 103107087 100042349 96442863 92185319
782.96 87789330 83290801 79074595 76300711 75530730 77628384
785.86 83240615 92126663 103980215 119769136 139718758 165264994
788.75 196758509 234002000 278106611 329787336 387584133 447311176
791.64 512172391 582432148 646378608 699177892 729515896 739518794
794.54 752408738 753294169 734742246 700505516 663073933 623069134
797.43 560806837 496733144 405546839 333413726 303651772 274754217
800.32 244346317 213770530 179777174 147867912 129223861 112641489
803.21 98427557 83919041 72494024 63206295 55076968 47580596
806.11 41326616 35759445 30935516 26718941 23201504 20111603
809.00 17573132 15339442 13514972 11929929 10633711 9446558
811.89 8484359 7625415 6935125 6293581 5773457 5283139
814.78 4859454 4432448 4107644 3776327 3522626 3269322
817.68 3051713 2808665 2579268 2330939 2159065 2020741
820.57 1894172 1763934 1692838 1586560 1477242 1392945
823.46 1321470 1225180 1138383 1053183 1024930 969848
826.36 910110 853700 791791 737525 723968 697383
829.25 662514 615031 584114 552381 531256 511985
832.14 512425 454869 432522 421793 406224 376775
835.03 381516 390519 389055 379551 353482 308736
837.93 302915 298536 292800 271673 281761 297564
840.82 279711 249506 243874 234942 243841 236795
843.71 237984 257083 244384 244759 244674 227335
846.60 229363 213018 209769 220243 221158 215383
849.50 214035 217141 217414 176479 153496 170983
852.39 196995 199711 207089 204491 201243 170218
855.28 152040 147463 157416 172725 183652 191600
858.18 178736 151069 148503 140647 144660 156956
861.07 160681 161514 156058 147186 150811 143687
863.96 132070 135123 132107 131693 147301 151563
866.85 144897 143174 157053 155285 143267 140522
869.75 171385 175853 170620 161760 151398 150726
872.64 147348 161579 170396 155251 160065 172477
875.53 168316 157346 158284 151885 142981 151261
878.42 163088 162676 174509 170667 156229 160062
881.32 155433 154332 171791 158662 151133 165078
884.21 158256 144205 144504 153012 149201 133011
887.10 133511 133239 137708 141471 127679 118135
889.99 125682 112857 99030 115632 126762 124881
892.89 130510 132671 129935 113832 102444 98926
895.78 107779 99867 98877 113690 110590 107126
898.67 101695 89905 88083 80529 85786 100905
901.57 110202 98532 87129 87284 88301 85157
904.46 78060 74140 83417 81073 72752 77778
907.35 74071 74079 65353 50687 59502 67586
910.24 80757 78303 67222 58463 47759 50544
913.14 63800 57422 52354 63297 61960 51771
916.03 57625 56158 46701 40363 39713 34191
918.92 29111 41820 33281 22750 27333 20778
921.81 27513 48306 63444 49108 37532 42814
924.71 42640 34076 25234 34732 33665 36059
927.60 46985 46693 50379 41086 21368 20911
930.49 31361 32491 44207 53144 48371 43994
933.39 47022 43898 31102 27182 25026 29057
936.28 36171 32609 37593 37119 30853 29018
939.17 31173 32701 40804 43165 40975 40322
942.06 40683 38825 30526 33395 35296 34936
944.96 44918 47643 59767 56851 44894 47013
947.85 45954 45893 54726 54970 49930 50401
950.74 46974 39928 36545 25669 24409 34717
953.63 47174 54634 58478 68834 62592 55468
956.53 62882 62232 68291 74603 74892 77596
959.42 72001 65878 72120 74748 82024 97970
962.31 105624 112544 124404 133456 137221 134697
965.21 140907 150940 152935 155127 169936 190831
968.10 206701 215137 208884 197495 205734 222949
970.99 237829 245544 252088 266547 282079 290487
973.88 296910 303240 310209 308925 310702 324378
976.78 330761 335122 341317 331239 332646 331674
979.67 334288 348339 358617 359619 353766 343268
982.56 338156 349931 356524 358193 369824 375425
985.45 369898 355580 341473 316498 288956 301396
988.35 324894 352670 385055 408037 413058 362960
991.24 325926 332818 339778 353942 377864 408564
994.13 420952 431817 450169 455886 467211 482847
997.03 494271 505138 517822 533056 554900 575093
999.92 583208 582288 589203 601193 614647 629696
1002.81 659769 682045 683590 690476 697009 705041
1005.70 711428 717543 725493 744067 759574 749800
1008.60 733456 728295 731002 731783 732214 734880
1011.49 728020 719373 708966 684023 683198 698036
1014.38 698477 676855 651291 644435 647504 649801
1017.27 641666 622040 602112 578646 564096 549441
1020.17 521241 500884 481711 446841 407040 384513
1023.06 370292 345750 337275 333661 312751 282978
1025.95 250783 227466 213084 189538 176412 177947
1028.85 169498 158368 139417 117872 98540 76279
1031.74 61999 53721 55347 57926 52448 40895
1034.63 26343 23345 16444 4268 2740 4366
1037.52 3031 3471 4386-4455-16235-18308
1040.42 858 12069 8672-2658-11896 1372
1043.31 9436-1761-7161-3276-2305-10179
1046.20-6041 5456 10813 11391 3850-3804
1049.09-8088-8862-4911 2628 11930 24505
1051.99 28865 28339 17123-1751-5336 493
1054.88 13999 28337 31550 15444 14760 14465
1057.77 20324 36400 38706 38351 29259 39429
1060.67 57459 46239 43418 63999 59003 54746
1063.56 65228 67649 70925 73507 72746 76697
1066.45 75618 71542 74109 89147 101571 88378
1069.34 76080 67543 67994 62979 57855 73521
1072.24 71337 77226 102573 107036 95616 76535
1075.13 63472 53841 61035 73926 69665 77860
1078.02 88509 74527 56684 51342 49016 46625
1080.91 52626 43807 35126 35456 39759 36526
1083.81 17072 9007 22115 29572 33564 27524
1086.70 21056 22231 7671 3777 5276 7035
1089.59 14031 22762 24965 29874 36751 23520
1092.49 9225 6887-159-3681 15215 24852
1095.38 17153 26745 32460 29989 30842 35390
1098.27 46127 45159 40365 41152 42781 43604
1101.16 41027 36546 31681 33572 40213 49614
1104.06 62434 56432 42985 42647 45929 46477
1106.95 52389 65303 61674 53001 56810 53362
1109.84 54535 64044 75373 71861 72157 82582
1112.73 73647 72811 80889 78129 75365 73228
1115.63 77201 93573 103777 89069 80884 70525
1118.52 54440 52658 46885 46813 59207 58934
1121.41 47019 39139 35702 31428 21517 15014
1124.31 28810 42410 33046 38272 44067 26848
1127.20 10668-7480-18771-14788-9766-2224
1130.09 1778-1436-18871-38138-41337-37776
1132.98-14799-5190-17908-29891-33218-34687
1135.88-35926-44715-56525-48223-44114-37072
1138.77-25498-30776-42645-43443-51484-53336
1141.66-40003-37072-34483-25309-12840-25288
1144.55-41655-46186-50944-43577-34018-31189
1147.45-30736-27661-24561-36387-44202-41052
1150.34-35506-26678-19416-9325-18533-31545
1153.23-27460-24495-28569-29123-24275-20382
1156.13-11185-5873-15964-31562-26348-21766
1159.02-28208-29745-22837-10080-1901-7923
1161.91-17041-21602-27355-24820-18200-22533
1164.80-12942 3024 8954-6204-21905-18384
1167.70-13252-7008-9565-6487-214 7711
1170.59 2924-9101-11183-8021 5365 9728
1173.48 8341 9224 11206 12328 4367-5747
1176.37-677 8722 7378 14221 28618 29842
1179.27 15783 10010 3071-1862 1071 6365
1182.16 9741 16143 31083 27213 12006 4580
1185.05 3172 7164 25798 43513 47526 38396
1187.95 30617 29374 13194 11212 32218 41197
1190.84 47276 47094 49677 52221 37449 41747
1193.73 42353 41677 50248 58586 69385 66236
1196.62 71372 81268 68435 61723 71749 70513
1199.52 73672 91545 98565 88000 91082 89509
1202.41 88238 102464 110397 114828 122670 130466
1205.30 134399 132594 125505 129661 145180 160171
1208.19 175794 187353 194371 185905 175332 173881
1211.09 174226 179628 189498 198740 214758 227662
1213.98 228555 231188 238756 243191 250312 268086
1216.87 286293 294676 296134 285800 270457 265271
1219.77 253740 243147 259304 288179 311663 330980
1222.66 333781 333007 344748 354333 361349 377360
1225.55 370670 323819 288394 278810 267517 244885
1228.44 230589 240022 265546 305950 351933 400943
1231.34 435776 391268 301232 254498 240021 244148
1234.23 256953 265788 266581 260844 264303 261347
1237.12 265605 278674 294266 313764 318592 323529
1240.01 333373 329386 320181 308926 298639 300528
1242.91 318840 345557 363109 379116 394138 412121
1245.80 440193 466966 490700 511927 539138 564957
1248.69 586609 601086 605425 631908 675698 712617
1251.59 747868 776933 811331 835542 865809 877269
1254.48 876791 879314 866971 899570 937902 945992
1257.37 935278 915193 888323 851235 817136 768977
1260.26 711882 712630 741843 739242 729416 704622
1263.16 664011 618525 543369 404470 298307 293432
1266.05 309988 314521 307125 283933 265124 253552
1268.94 241654 227032 204568 189267 178355 160471
1271.83 152607 156154 158230 168939 165266 158864
1274.73 169347 162615 165524 167502 158925 156642
1277.62 155813 168250 160522 147773 137778 125608
1280.51 112275 110206 122489 123456 125079 126327
1283.41 131121 131553 109988 90088 81630 83707
1286.30 76551 65453 78102 86495 75600 58985
1289.19 45214 32236 26597 28903 29284 36487
1292.08 43596 36258 26715 25032 19062 18713
1294.98 15616 9091 11106 7335 4735 1635
1297.87-4192-4651-2441-4619 8670 15799
1300.76 9309 7789 2345-8768-13181-13882
1303.65-11071-5054-7947-8593-7716-17243
1306.55-35490-38342-26726-25050-28423-22906
1309.44-16227-14788-12766-21951-30112-27778
1312.33-20962-15641-23251-24310-26411-28342
1315.23-28714-37386-40323-43060-43237-40114
1318.12-37064-31580-30317-31420-36359-41015
1321.01-31366-23697-24996-21367-22332-25020
1323.90-23231-26853-30512-37720-36053-18963
1326.80-14430-20157-23519-27956-37855-47948
1329.69-44134-32178-24966-21862-7511-9838
1332.58-26816-23378-26696-42084-37546-21886
1335.47-9509-15716-26002-18001-23460-42179
1338.37-49029-38200-32174-31759-19504-14494
1341.26-16107-19119-26728-35860-37352-27727
1344.15-13232-9783-3415-6445-24462-36637
1347.05-43047-43370-39485-28070-20168-24533
1349.94-26624-33389-49303-64254-50259-23150
1352.83-17187-5538 20373 32598 34048 47634
1355.72 42342 32463 20550 17741 36397 25561
1358.62 769-13173-30284-44207-39433-17603
1361.51-17234-22620-27205-29655-15691 374
1364.40 2305 1916 4203-3382 4584 16203
1367.29 21377 22029 13094-933-11620-4893
1370.19 10125 13902 10411 11964 6955-9151
1373.08-20197-13532 2206 145 16222 34227
1375.97 23926 17823 11741 10844 21167 3243
1378.87-7351 13258 23574 34906 32746 12666
1381.76 3578 4830 2034 8842 19268 20761
1384.65 10141 6895-1038-11022-32494-57023
1387.54-22516-2520-233 9262 3562 2124
1390.44 6297 4932-3899-5711-1047-1836
1393.33-14536-56530-40926-9685-30718-26624
1396.22-10857-7384-11780-4500-17176-61670
1399.11-50588-19258-18505-15262-3959 1847
1402.01-1432-8755-18705-29713-37730-56701
1404.90-48144-17356-12476-13216-9775-12554
1407.79-24770-27325-32124-25862-15897-17696
1410.69-8044 2861-10364-23458-28774-30066
1413.58-32996-31767-18159-15708-23445-24167
1416.47-38394-54545-50825-41011-86800-157200
1419.36-88409-16211-24087-22621-22926-30457
1422.26-30335-27447-29843-24616-19855-26319
1425.15-30474-28962-27895-28955-31507-27651
1428.04-24273-20571-35772-51008-37325-27617
1430.93-24989-26612-26716-17610-17592-29209
1433.83-34263-35443-45848-40364-97181-165367
1436.72-89537-20403-22855-24315-27921-33388
1439.61-31762-26198-20920-12741-9965-15395
1442.51-18229-16310-25679-35053-35377-25736
1445.40-14695-17124-21998-30885-66122-68177
1448.29-46596-35275-28856-27941-25791-23927
1451.18-30337-42678-43482-43498-39489-33120
1454.08-30485-41001-51223-72354-195446-240555
1456.97-118627-95304-94056-53934-45794-25186
1459.86-18172-26759-36032-39285-38007-29097
1462.75-19533-17158-33593-88727-85202-33078
1465.65-29770-36695-26037-17983-16042-8230
1468.54-12528-26416-29873-32944-45068-74902
1471.43-124607-90149-57985-117822-94862-41125
1474.33-38084-36055-53177-65971-33002-13526
1477.22-16224-19288-26839-21432-20168-20685
1480.11-22830-27527-22120-17158-18201-20271
1483.00-23843-25856-21144-9173 1617-5919
1485.90-13661-39729-75645-51516-31657-32610
1488.79-35626-48811-40742-53672-36746-15480
1491.68-14942-7097-5370 420 3976-2160
1494.57-8832-28872-129558-122480-26211-11944
1497.47 139-22524-42320 1 20867 10084
1500.36 7686 8653 14803 32652 39932 38259
1503.25 37206 26298 14947-84948-161168-58520
1506.15-90933-148016-23788 28946 17857 34074
1509.04 34033 35516 53528 69334 83759 57343
1511.93 50962 89166 87880 85094 84355 78797
1514.82 98907 118712 103767 82446 67930 73507
1517.72 105553 112307 120200 103267 75362 73599
1520.61-18383 16249 116909 89318 118975 161841
1523.50 167493 176319 158103 125924 154454 183700
1526.39 166929 157331 181435 185355 193224 226249
1529.29 240221 251049 259597 254730 246679 249458
1532.18 236352 215973 192994 212327 268934 282982
1535.07 289421 306093 327091 358170 378377 392506
1537.97 341592 205802 266904 303374 270458 397413
1540.86 454989 386625 404894 520191 544289 550187
1543.75 571411 554429 549808 622228 677687 704810
1546.64 738956 761201 772027 785663 802291 807519
1549.54 813162 844809 889839 922657 942609 956448
1552.43 964933 978977 946529 917481 1013724 1084714
1555.32 1103349 1115853 1106481 1037741 1012367 958734
1558.21 970981 1119695 1095424 1040558 1147265 1262828
1561.11 1288437 1273833 1270463 1293661 1304605 1319580
1564.00 1331433 1352109 1388461 1407163 1412454 1405815
1566.89 1369325 1344447 1311999 1275496 1248435 1229304
1569.79 1285850 1332758 1330219 1316866 1298543 1262633
1572.68 1228567 1206901 1189640 1171825 1174467 1122904
1575.57 983705 1067040 1213549 1220850 1221596 1208074
1578.46 1188652 1171432 1158335 1151637 1150780 1148079
1581.36 1140487 1130992 1118477 1101447 1107955 1106041
1584.25 1098464 1120045 1112235 1084269 1072641 1073299
1587.14 1065436 1057029 1063437 1047967 1038641 1053538
1590.03 1051180 1047752 1076056 1077994 1029951 998562
1592.93 991112 998760 999727 993352 1009259 1009242
1595.82 981364 938406 911620 930527 936054 914111
1598.71 906557 895493 876698 852957 825316 809194
1601.61 796521 777978 752169 731613 717718 697339
1604.50 665510 634133 609956 585822 554564 533516
1607.39 521686 504183 479533 444009 419299 399835
1610.28 375152 356823 348641 331786 313796 293794
1613.18 268806 241684 225510 210855 191182 120520
1616.07-29630 5376 120167 122071 114641 99898
1618.96 92340 86288 81062 78528 68959 63061
1621.85 48417 19247-33338-39106 3477 15780
1624.75 19418 15833 11857 1125-17352-47940
1627.64-42354-20440-16629-14705-16666-13620
1630.53-12462-21168-28518-27128-25848-27810
1633.43-27976-52968-99616-191740-197083-81036
1636.32-45509-58900-52237-31439-23687-20697
1639.21-17145-22545-28443-31594-27422-23370
1642.10-15552-11620-18040-21529-30652-39292
1645.00-104251-183821-102123-53304-73233-65668
1647.89-64993-39952-28605-30352-32949-47152
1650.78-47584-99482-251921-300158-329782-226338
1653.67-124689-133127-65440-42348-34902-32457
1656.57-28973-37053-46232-47324-40016-37062
1659.46-34931-35943-36767-43323-48129-83006
1662.35-116407-71420-38527-37131-35699-37828
1665.25-38332-40349-40854-49744-56679-60335
1668.14-68386-128955-129591-64347-49963-67994
1671.03-80970-54813-42688-41274-38163-45865
1673.92-60496-135018-170643-93427-52581-51479
1676.82-45462-41856-43254-47019-53111-64236
1679.71-62547-51814-41948-47159-49401-71227
1682.60-114950-131067-135798-280133-305922-116531
1685.49-60841-58488-49537-48925-58383-65505
1688.39-49512-52125-71002-63432-46287-41387
1691.28-41668-44020-46331-51388-52845-54921
1694.17-64579-108535-282900-295272-111516-73390
1697.07-74907-57930-68502-83636-167762-262310
1699.96-254648-190033-101639-63529-54870-57193
1702.85-56760-64485-92576-76605-48121-63758
1705.74-94249-75106-48734-44625-40827-44558
1708.64-46367-48507-61117-60662-52277-48702
1711.53-46550-45535-44922-57220-71619-66324
1714.42-106477-104205-60697-58868-114232-238273
1717.31-166596-98996-126245-76442-53214-51468
1720.21-46745-43817-46164-44199-42392-48639
1723.10-49411-39585-42918-47136-46622-42369
1725.99-35291-39538-41924-33365-35176-44070
1728.89-47646-68126-69717-57548-56466-59497
1731.78-61999-90036-187602-164150-165598-207349
1734.67-104310-54169-50167-46445-47215-52247
1737.56-55549-52101-53760-105021-126869-66817
1740.46-40958-43317-47746-50179-58419-62463
1743.35-45950-41659-45310-42500-45663-47343
1746.24-51704-60258-54597-62132-75006-64540
1749.13-53311-49354-68331-132375-135436-71163
1752.03-50735-45983-40102-34468-31129-34686
1754.92-42214-41370-58686-77751-54074-41848
1757.81-38290-38659-40771-36708-41463-42793
1760.71-59063-101244-82732-35484-33351-30018
1763.60-25465-29839-29422-21743-17807-22741
1766.49-20925-28348-71655-66639-25202-15530
1769.38-11321-14749-34960-59673-32387-84468
1772.28-146675-55719-6463-9184 1232-3996
1775.17-9162 3733 10182 9795 9708 6354
1778.06 10294 14661 14593 8809-6106-5912
1780.95 9518 16775 15838 12737 17052 20497
1783.85 13359-13399-10865 4330 6465 8164
1786.74 2139 2513-4990-5815 1022 2456
1789.63-845-24116-37411-16651-28656-91291
1792.53-68056-2551 17348 25079 21342 13592
1795.42 14408 24347 21947 18960 27199 26687
1798.31 20606-4090-15410 13678 19085 9317
1801.20 12075 4987 3123 10004 12380 16438
1804.10 18757 16764 12673 11221 10582 6456
1806.99-2764-2614 6888 5528-5076-6953
1809.88-15009-21235-17355-22003-24051-20582
1812.77-20812-21726-22296-23051-24872-28817
1815.67-30080-29931-35360-35078-31371-31645
1818.56-36069-41196-34988-29588-30173-39911
1821.45-46508-37427-34990-37781-36241-38545
1824.35-68668-79869-50135-38712-39550-40419
1827.24-38275-35378-50334-63966-77987-92992
1830.13-65959-42137-37629-37767-41757-39122
1833.02-37678-41220-46729-45910-41057-41308
1835.92-42058-46422-47683-37412-35023-39807
1838.81-39303-41411-48226-52610-47154-43807
1841.70-45792-45201-48586-80491-136235-100637
1844.59-43686-36421-35041-37828-40028-53801
1847.49-57146-42718-33062-35497-35174-34992
1850.38-36066-31735-37557-43956-36715-30624
1853.27-29890-38515-39872-36108-32072-33480
1856.17-35507-28536-23383-22380-29892-35563
1859.06-39206-35926-30982-37846-42280-42491
1861.95-36711-26620-27129-25208-25790-39100
1864.84-40203-37437-40399-35153-37066-50271
1867.74-47302-47173-76741-70105-42660-39115
1870.63-34179-33651-36875-38640-40946-47190
1873.52-47504-46503-43280-32720-31776-35052
1876.41-33671-34677-37866-41137-38705-31917
1879.31-29057-34711-36040-36373-46698-53616
1882.20-55812-50557-46616-43053-44304-44181
1885.09-51543-57932-49781-45337-41289-44491
1887.99-46027-52893-69575-63203-48132-48938
1890.88-50444-48666-46636-44867-41101-38396
1893.77-45586-55815-60951-57818-54384-49364
1896.66-44369-48691-52080-53224-53322-49806
1899.56-44912-51515-54017-56422-60420-54600
1902.45-44320-43481-54220-56029-50522-44525
1905.34-40914-41364-43671-41732-43969-50726
1908.23-52038-46138-47747-52148-41720-36261
1911.13-31753-25504-33373-38874-37466-34484
1914.02-33929-32193-33238-36103-37795-46530
1916.91-54442-72061-61949-42737-44410-41734
1919.81-40236-48673-54092-56571-70658-80208
1922.70-75783-69143-65967-60221-62599-61965
1925.59-53798-51596-54878-52127-47036-45402
1928.48-47229-46469-44332-51799-54294-50237
1931.38-52018-56483-48183-38785-48906-55614
1934.27-57679-58592-54452-52630-50974-53713
1937.16-49355-45407-43644-46048-55213-58238
1940.05-55322-52701-52892-55396-67336-67003
1942.95-62257-65188-60326-53369-53900-52882
1945.84-45420-40929-42287-45297-53279-56740
1948.73-50572-46940-44273-41479-40099-44353
1951.63-52542-52155-52998-56895-50496-40666
1954.52-33766-38385-46626-50970-49746-52443
1957.41-49837-41334-41012-41735-39863-39591
1960.30-41876-46731-45831-39138-38817-45752
1963.20-47710-46293-46280-43473-45975-52298
1966.09-49630-48509-53792-39442-32071-35542
1968.98-34839-39502-41973-43125-43626-43980
1971.87-45631-44471-52929-67641-87121-60094
1974.77-20671-26412-28625-32913-35351-34313
1977.66-37740-43468-41722-38604-34365-31400
1980.55-32031-34316-37866-29992-35042-47474
1983.45-43960-41953-42032-42657-40692-34362
1986.34-32535-32282-31335-30324-35678-43700
1989.23-37483-33849-37136-36842-46982-40555
1992.12-33088-35283-26298-25292-31007-36605
1995.02-38623-40033-41563-35315-27714-26016
1997.91-25071-23866-28709-34686-33067-29799
2000.80-29789-33221-30273-26199-22229-19209
2003.69-28406-31835-35851-41891-38806-37048
2006.59-38606-36957-29269-29964-32681-35436
2009.48-34632-28970-26282-22562-24321-27878
2012.37-35938-38325-35438-35482-29455-25174
2015.27-27500-25013-27053-29277-29766-38894
2018.16-43442-40332-34363-32159-31766-29519
2021.05-30418-35280-38273-35580-35912-32219
2023.94-24971-28721-35378-34400-29584-34918
2026.84-41364-40769-34929-31341-31180-35270
2029.73-39155-40648-45005-44774-40389-35551
2032.62-37051-41308-36522-36505-40675-40926
2035.51-41124-41357-36604-30407-32332-36781
2038.41-35724-36037-38946-39567-46780-43822
2041.30-35978-41568-39571-29811-30138-37201
2044.19-44416-47704-41476-37592-38569-40417
2047.09-42264-44320-49432-49595-48066-45584
2049.98-42589-32886-31496-33382-34372-39772
2052.87-43135-44668-41661-44672-44430-40633
2055.76-38410-39696-45184-45756-49400-49815
2058.66-40320-35866-34664-38545-45383-51655
2061.55-53010-52837-46871-42809-41262-44384
2064.44-48250-42457-45199-46642-46690-51753
2067.33-49648-42473-37339-42120-47383-47631
2070.23-51117-47390-45316-51231-45799-38082
2073.12-45865-50756-49959-49541-46230-46669
2076.01-41951-41998-38584-36761-47626-49527
2078.91-50080-46581-47384-51231-48369-34625
2081.80-26535-38861-43299-46422-55659-54013
2084.69-47956-38710-24427-33982-51579-50938
2087.58-48724-50711-50543-47587-44981-30677
2090.48-33409-42527-48718-52440-51396-53017
2093.37-46397-32401-15642-25672-42915-51764
2096.26-56030-54703-44664-40501-21610-3053
2099.15-25718-41064-40565-44021-51361-52087
2102.05-49996-22068-15247-39277-41251-45674
2104.94-48799-48657-50587-35039-6693-18042
2107.83-40778-40655-44410-46997-41189-42130
2110.73-14264 1531-24533-33746-37976-39557
2113.62-38717-44173-31244 331-17481-41139
2116.51-39265-40292-34830-34174-35059-4526
2119.40-1328-31730-39968-34873-30973-29651
2122.30-35410-10583 9249-31581-48105-47331
2125.19-50205-42801-40589-23974 2040-16944
2128.08-37032-35571-39486-41049-39791-35757
2130.97-21602-28359-42349-41267-42413-39988
2133.87-37833-33111-19091-15110-29019-33688
2136.76-30893-33353-33398-29959-24150-25509
2139.65-41164-48488-48849-50564-42974-40217
2142.55-42457-42921-41338-38758-42228-39978
2145.44-36399-29620-22103-30282-41900-45993
2148.33-48879-42840-36376-32194-19786-26737
2151.22-42015-41560-38781-36152-42564-29209
2154.12-11843-23423-34205-40422-37105-32790
2157.01-30989-3378 3258-25598-34568-41212
2159.90-40500-37187-30413-109-9122-35577
2162.79-36226-37274-35807-39823-6568 16376
2165.69-18505-29676-32086-31510-35500-28850
2168.58 11811-149-30940-34006-40080-37420
2171.47-27949 5949 16745-20091-35013-30118
2174.37-23806-26322-4173 12666-16789-31039
2177.26-29798-19203-19988-8607 18718 4604
2180.15-22208-25291-22852-18949-3219 24100
2183.04 21745-9295-4929 3792-6134 5436
2185.94 28532 22945-3327-4042-7031-10391
2188.83 6446 24359 28118 4002 16013 16027
2191.72 21839 24771 41254 50977 29719 35807
2194.61 26578 45558 45730 67977 52935 50669
2197.51 40433 39976 43188 64132 83914 71663
2200.40 72063 70551 74058 71086 86505 86943
2203.29 84107 77139 77981 75058 86915 90930
2206.19 88182 80604 93225 95894 96312 103554
2209.08 103761 88229 90494 97870 101110 97421
2211.97 100030 93902 88355 89769 91172 92200
2214.86 93108 90728 80439 77180 74685 68186
2217.76 59461 62562 60505 48885 42687 35954
2220.65 28870 24000 14509 2841-8865-18794
2223.54-13337-6839-1819 15622 28728 38678
2226.43 45774 52806 57231 54558 62081 80355
2229.33 95852 104828 107292 103849 110485 122522
2232.22 124790 133239 138062 140115 143138 144119
2235.11 146495 144523 141132 139323 135409 138929
2238.01 146935 143626 142000 143767 135882 127255
2240.90 121172 113009 111871 108218 100402 97570
2243.79 89517 79818 72342 60738 51836 46948
2246.68 46287 49065 39784 28912 16775 10779
2249.58 9211 7590 12887 10249 2581-1488
2252.47-13327-20520-19179-23653-28897-33031
2255.36-35537-34090-28266-30190-35932-41016
2258.25-42604-38180-46014-51229-41937-36204
2261.15-42880-47841-47334-39270-33297-38666
2264.04-42449-48420-45406-36960-42210-51780
2266.93-53889-49076-44091-45568-46125-48911
2269.83-49732-40996-37397-40328-41380-46781
2272.72-51609-45284-43831-48615-42658-38673
2275.61-46092-47561-47721-46825-41818-44475
2278.50-47254-46081-45168-44403-44625-46489
2281.40-42950-42547-48112-43068-38090-41067
2284.29-39452-39134-43271-42108-40301-40158
2287.18-38994-36281-39574-46757-41618-40022
2290.07-46566-43700-31232-26738-29226-33367
2292.97-40680-46530-47954-39060-34710-31627
2295.86-28067-31953-34670-32564-27722-27165
2298.75-29230-30357-32202-38012-37627-32709
2301.65-31009-27408-28061-28384-33279-36680
2304.54-36147-33881-30076-30242-26316-26030
2307.43-23061-17805-24106-24265-17832-11558
2310.32-6563-10538-18024-21708-18880-11562
2313.22-8216-3662-12110-17284-7166-11178
2316.11-16774-15756-3019 8208 7110 1955
2319.00 755 738-4427-4877-393 4030
2321.89 5043-6558-12520-2075-164-13012
2324.79-14948-6365-5609 2509 16414 15613
2327.68 9661 3922 9570 17986 10837 3259
2330.57 4262 987-10979-15180-1007 7667
2333.47-7972-7923 10496 6438-3223 6008
2336.36 13902 3658-460 11065 10238 777
2339.25 13120 23640 3578-1737 13656 11974
2342.14-2709 682 10656 7322 9374 8411
2345.04 5591-324-572 1263-7261-5220
2347.93-2758-8975-10908-9545-12085-14783
2350.82-21820-16704-13263-25500-25711-25027
2353.71-36065-40377-40006-40056-34406-31233
2356.61-43379-49388-45644-52142-47617-37530
2359.50-50101-51158-39258-47136-41856-45591
2362.39-56046-46978-52628-48649-41819-56234
2365.29-52087-47024-52143-42888-41252-37952
2368.18-39224-41173-32109-34425-34679-39124
2371.07-36988-29091-35747-34989-34935-36028
2373.96-35841-37557-39574-46208-40907-36229
2376.86-36787-33904-32273-33001-35606-36984
2379.75-36362-31160-30009-37899-41599-41964
2382.64-39267-37271-36670-34909-37896-40277
2385.53-37463-32098-32044-39991-39967-35905
2388.43-36314-36028-36973-39523-44471-42387
2391.32-44849-46757-41091-36199-40338-47919
2394.21-45425-40250-41532-47468-49478-47189
2397.11-44975-46381-46031-45459-43354-43704
2400.00-46299-45509-46593-50620-53299-47745
2402.89-44319-43353-36897-41908-46121-41687
2405.78-45532-46235-47008-51733-51976-53229
2408.68-48085-42509-45919-46865-50986-56392
2411.57-55752-50192-50883-51832-49195-53114
2414.46-49546-42718-47372-50889-47945-47802
2417.35-48648-47395-48567-49747-50317-54083
2420.25-56819-55784-55591-57829-56185-55088
2423.14-50262-48308-54905-55924-54974-55363
2426.03-55683-57720-63016-65445-56665-50460
2428.93-45317-45170-55996-57641-54377-55487
2431.82-51166-49691-56118-55790-62283-70482
2434.71-67467-60787-61991-68665-68089-64793
2437.60-56596-54116-50222-52089-53899-52114
2440.50-54428-47745-51071-62693-59770-56238
2443.39-59194-60843-63454-60472-56524-58820
2446.28-61423-60708-59235-55912-61150-62576
2449.17-55936-55408-55622-52926-56333-62463
2452.07-56864-51183-49814-51690-55343-57886
2454.96-57307-53684-51400-52547-49690-50203
2457.85-59513-60898-60417-56513-53282-57081
2460.75-58018-56078-54854-62834-61223-55625
2463.64-56189-50674-47392-49063-54397-53818
2466.53-54293-56915-62990-66441-59081-54181
2469.42-55234-58971-64433-62623-56402-62175
2472.32-64295-61488-66085-68184-69204-65968
2475.21-60342-54668-50606-55366-60003-60836
2478.10-57279-54978-57991-57018-53099-47925
2480.99-48251-53438-56312-60678-58895-44585
2483.89-43123-48356-50707-54716-53183-54512
2486.78-59477-62253-59053-56652-55365-56140
2489.67-54584-54653-52925-54548-59546-61590
2492.57-62200-54456-56567-61097-61252-60787
2495.46-60414-62665-60219-57787-54041-55774
2498.35-60562-62224-61806-57346-63868-67533
2501.24-58242-58639-66609-65734-62569-65693
2504.14-65111-62906-74179-80335-75413-68043
2507.03-61262-62648-68013-74354-71089-72698
2509.92-67762-62470-67703-65344-65244-68128
2512.81-73008-73026-67184-64339-65916-70786
2515.71-74181-70654-68939-68480-68018-69589
2518.60-69210-63091-64971-68791-64587-74064
2521.49-78489-75067-74663-66183-61118-58121
2524.39-59397-66032-70771-75593-73890-69335
2527.28-67243-66693-65786-65646-69382-76025
2530.17-75977-70681-64605-62107-64751-61280
2533.06-67683-72563-69793-73352-74553-76417
2535.96-71230-61075-62613-69822-73315-74572
2538.85-72139-72968-74941-73541-68394-64823
2541.74-65883-71596-76397-73913-73661-74634
2544.63-70497-71708-69673-64373-68218-70162
2547.53-63561-62992-65131-59891-62051-70063
2550.42-71468-76906-82371-82432-82920-77556
2553.31-77843-75359-66164-62269-56476-63404
2556.21-80730-81269-78158-81058-81716-73282
2559.10-63737-65764-70678-77551-81524-74398
2561.99-73224-70402-64820-66608-70329-75345
2564.88-78920-77037-75973-75289-75948-74685
2567.78-69518-70167-68058-72067-78496-70650
2570.67-69440-69431-62092-67480-69198-67687
2573.56-70023-66790-71049-77316-76108-71286
2576.45-66251-61159-64009-69532-71881-79317
2579.35-70805-64813-65307-64414-70947-71087
2582.24-67846-69474-72175-75436-74271-70478
2585.13-74058-71080-70186-73476-74983-76796
2588.03-77618-73832-64837-64567-70422-73369
2590.92-68403-65980-73140-79547-75840-73125
2593.81-73513-72888-73272-68842-73781-77503
2596.70-75863-73972-70940-73734-71540-64463
2599.60-70095-74856-73757-75932-72339-70276
2602.49-70121-69758-68181-65481-63149-66715
2605.38-71737-70437-71388-72785-72833-70845
2608.27-73115-79750-79913-73174-67432-68522
2611.17-68714-67452-67692-70975-70921-66325
2614.06-68778-65987-62324-76391-79904-66523
2616.95-70948-69631-65808-76198-72821-69041
2619.85-74195-68656-62892-66147-63935-68267
2622.74-74403-73063-69802-70680-73040-71307
2625.63-77403-80027-70739-73497-77418-75315
2628.52-69874-63678-66296-69053-80658-78179
2631.42-64764-66496-68250-67050-71470-73152
2634.31-74082-74914-65764-66282-73147-76684
2637.20-77469-75844-70715-68897-69192-73603
2640.09-80202-79319-75216-68878-69733-70080
2642.99-71187-78556-75351-74995-72934-73869
2645.88-78752-72889-68728-67429-73182-77713
2648.77-80691-76687-69992-75353-75148-72771
2651.67-82679-86536-78439-80555-84801-77594
2654.56-79864-79879-69286-75729-81668-76491
2657.45-73671-73445-73260-74786-72003-67795
2660.34-71012-69867-70912-80039-85445-78356
2663.24-79525-85036-78830-85149-86877-76111
2666.13-75641-78360-82178-79915-71421-71515
2669.02-77525-84406-79513-75604-80194-79255
2671.91-72809-69589-73513-81190-86291-74944
2674.81-69077-73464-73305-73426-77769-80118
2677.70-79245-91817-91029-75561-84614-86709
2680.59-72808-72589-78565-82302-79201-79003
2683.49-81778-80600-84578-86206-81726-79121
2686.38-81242-82237-80740-87279-87358-83248
2689.27-84601-79846-76214-76460-82535-88064
2692.16-79914-84415-82245-70824-78068-92852
2695.06-96218-85330-86032-88145-87313-85000
2697.95-88918-92926-93261-95145-93633-86141
2700.84-78969-73518-68817-72097-70949-68878
2703.73-69732-66143-69112-77487-81377-82227
2706.63-87326-90977-92022-91947-90866-94174
2709.52-87126-85298-81055-79094-73965-62308
2712.41-73090-81256-78884-79916-83916-81121
2715.31-77985-81990-80601-80744-80546-84327
2718.20-85437-80677-79614-81513-86892-79621
2721.09-71362-75985-89200-91927-78850-77188
2723.98-81441-72255-76683-81684-77383-80084
2726.88-74412-75072-80683-78141-70081-68666
2729.77-82212-85432-84386-84398-76298-72992
2732.66-74962-75500-71690-70267-77192-85074
2735.55-79590-74724-76866-80517-89201-89632
2738.45-85334-83057-78802-73395-74023-80863
2741.34-82079-79318-76591-72669-70400-81401
2744.23-86599-76470-82147-86579-75734-76208
2747.12-87116-85393-77273-72132-72766-80025
2750.02-82510-75742-73821-77892-83746-84954
2752.91-79780-75505-78157-86174-78120-73172
2755.80-73707-73529-79386-75827-73833-78439
2758.70-88437-92328-84895-77639-68343-68422
2761.59-78176-78310-80385-82207-80887-84369
2764.48-85414-85056-87293-81780-75321-81434
2767.37-88252-95660-100454-93202-81198-81443
2770.27-78164-72556-75054-78085-88177-89074
2773.16-81700-84109-85060-83516-84682-83505
2776.05-86152-87618-86064-85646-81980-80391
2778.94-82791-80354-80447-88452-86684-87789
2781.84-95469-91515-77006-78620-78104-74941
2784.73-78415-79520-81181-84441-88168-80957
2787.62-79565-78269-76614-80100-80960-80821
2790.52-85103-87850-84942-83389-84058-81926
2793.41-81437-85057-89632-87001-81857-77841
2796.30-66665-68868-76134-77093-79446-83807
2799.19-91619-94251-96004-87037-83379-90425
2802.09-84498-81647-82684-82004-86297-86438
2804.98-84229-78318-70655-75595-74224-74499
2807.87-84140-85781-76084-75851-79485-80294
2810.76-85556-82693-84345-85474-76624-74178
2813.66-74855-75532-79566-83967-84695-84713
2816.55-86709-81580-76899-75551-77138-80005
2819.44-86055-84245-82240-82628-73318-65241
2822.34-69447-77771-71401-73301-78877-74018
2825.23-77830-83489-79416-79033-75837-72117
2828.12-76267-80026-85719-85832-88473-91136
2831.01-82081-74130-78923-83006-80005-79104
2833.91-78947-81256-83820-70006-56772-61768
2836.80-66202-71785-78202-80307-79953-77418
2839.69-80559-91209-86898-78099-84030-87852
2842.58-82782-81297-83479-71917-64462-70931
2845.48-76711-77092-70657-67675-70397-75770
2848.37-79356-73892-64120-70662-81648-75214
2851.26-72698-79536-82339-83890-80019-67525
2854.16-61931-63278-73949-77025-67290-61396
2857.05-62568-64975-69427-80886-75027-69320
2859.94-76008-86326-80658-67478-70958-75901
2862.83-68552-62249-72267-81926-88823-92266
2865.73-84717-83828-82550-70201-71519-76635
2868.62-81066-80123-73981-70714-70380-74115
2871.51-67406-64913-72274-80715-85132-82905
2874.40-86562-87803-77251-68404-68376-72259
2877.30-74514-74944-82235-83773-71094-67737
2880.19-75645-76999-78955-87390-89556-81875
2883.08-74922-77233-75562-69922-72216-70378
2885.98-67419-77617-78489-77593-80448-78233
2888.87-80236-82067-78445-73163-69537-71328
2891.76-84773-85921-81660-82570-71956-66250
2894.65-75314-86031-89937-100681-91410-73790
2897.55-76077-74666-67541-69407-83214-87325
2900.44-89517-93426-91585-83647-75828-74282
2903.33-78225-80143-77397-81483-93412-94510
2906.22-90180-94308-85569-76714-82854-87830
2909.12-81011-79344-86336-88582-90935-85003
2912.01-74782-74823-75491-79476-89156-91674
2914.90-90659-84925-83652-101443-110619-100083
2917.80-98746-95651-84604-85764-78558-73856
2920.69-84391-77369-81859-93024-86308-84269
2923.58-85580-90854-92256-89619-96230-96412
2926.47-96062-106446-110844-107419-108340-105583
2929.37-96156-99464-102535-98290-94224-86211
2932.26-83380-82300-79197-82459-81131-84016
2935.15-90284-91969-91976-87818-91743-93171
2938.04-94493-103066-96386-83902-86075-93410
2940.94-94979-95095-86634-87457-96554-92171
2943.83-91733-83345-79960-91932-88562-84354
2946.72-100907-110049-101246-100148-97044-87387
2949.62-87234-85919-85341-85513-85640-88697
2952.51-93650-95460-92227-91097-86229-82966
2955.40-80609-80546-88627-94401-89171-91090
2958.29-92572-85200-76195-70329-68644-55125
2961.19-14275-60026-145884-140444-121456-121337
2964.08-111743-100394-98678-93384-87385-80385
2966.97-79112-83653-86614-87503-89178-87547
2969.86-93414-96147-92549-97373-100585-93558
2972.76-95941-110469-107051-87455-79859-95511
2975.65-97969-86787-78438-70446-68419-74263
2978.54-79703-87717-86078-82096-89328-79285
2981.44-79092-93581-89330-81992-85853-93754
2984.33-98923-92221-78618-76558-82651-74632
2987.22-72664-82110-77460-67088-71290-75242
2990.11-77108-74654-68649-70448-72341-71975
2993.01-68786-70655-71415-71349-72016-80557
2995.90-86620-86450-81944-74211-88069-89342
2998.79-75807-77047-78748-70971-71314-75404
3001.68-69897-69509-72873-73689-74674-74493
3004.58-75654-76541-84195-86291-82810-81050
3007.47-80975-84801-81875-75034-68416-68347
3010.36-75327-77895-84557-89452-83205-85476
3013.26-84963-79294-85997-82863-68382-70848
3016.15-83711-89086-91921-97976-88951-82133
3019.04-74210-69283-74211-70997-75321-85273
3021.93-82479-80054-82374-78919-80488-83007
3024.83-86620-85799-71397-70660-71754-69373
3027.72-74489-78833-82347-82008-79533-76065
3030.61-78821-77278-68763-65270-78824-90082
3033.50-86880-86099-87576-88625-84728-82864
3036.40-73920-67011-70540-80541-90245-94923
3039.29-92680-81277-73720-72485-73140-73348
3042.18-77298-77788-79623-77701-69358-63085
3045.08-71695-85108-78737-79098-82003-76399
3047.97-77742-84947-82364-70648-73664-87705
3050.86-91526-81412-82208-87108-88544-89031
3053.75-82455-81383-76947-74054-80124-86703
3056.65-86921-72675-57703-62993-77735-83958
3059.54-79231-65482-65655-72495-70411-74891
3062.43-77917-76376-78988-73599-73859-79916
3065.32-84134-73280-59957-67239-75226-63156
3068.22-47074-53541-64944-68736-66565-64658
3071.11-62814-61654-64486-67853-76562-76552
3074.00-62746-59281-58418-52395-54656-58386
3076.90-58038-70460-75676-62170-59187-62413
3079.79-63508-66592-71077-64120-55460-57167
3082.68-56687-60027-67806-64323-61795-65640
3085.57-58947-53028-58720-66487-66434-58116
3088.47-47091-49136-49812-44805-45041-49655
3091.36-56743-59402-45459-41043-47178-50620
3094.25-54190-52853-52154-54731-54845-35147
3097.14-31848-38751-42724-45665-32820-45034
3100.04-49442-48050-49327-36502-39506-37136
3102.93-37387-37300-30753-26292-26252-33307
3105.82-36531-30043-28303-36293-43933-36981
3108.72-20701-21590-22113-16032-13870-17861
3111.61-18035-20036-26837-25663-16752-14427
3114.50-17743-11922-16353-25808-21378-10288
3117.39-7221-10182-8790-9572-4273-7396
3120.29-12997-11308-12441-10867-13024-10258
3123.18-12129-8092 4424 4110 9349 11302
3126.07 3902-3372-1024 5378 5396 7023
3128.96 8457 6050 2547 12242 7889-5506
3131.86 2675 15508 19136 14460 6317 5577
3134.75 18945 26658 26262 28267 24714 18691
3137.64 22143 20812 15782 19539 15698 22414
3140.54 33979 28086 25355 28590 22164 18661
3143.43 13987 22788 34896 19259 14586 25886
3146.32 36230 35699 39750 40056 28209 35297
3149.21 27885 21767 36430 38253 36504 30080
3152.11 29700 41948 55314 58369 49124 41371
3155.00 41223 48541 44295 47060 49563 39169
3157.89 32301 31111 42133 46957 49793 47478
3160.78 41074 40945 41896 40696 44280 50395
3163.68 52599 58374 58137 54453 47368 43071
3166.57 38954 33050 35696 43578 45777 38971
3169.46 46522 55235 53145 44259 40554 49869
3172.36 66771 72333 62470 60178 59788 48777
3175.25 45352 52712 59664 59911 47383 40638
3178.14 47407 51408 49484 55249 55461 49299
3181.03 54010 51334 43441 46357 49275 49785
3183.93 53950 57166 62517 63235 63552 63055
3186.82 61156 59589 48341 47904 49440 54770
3189.71 51416 41002 39953 50559 55377 51389
3192.60 59344 59449 54301 54654 64486 59634
3195.50 56576 53487 43241 46868 50153 59285
3198.39 56363 48925 42614 38326 46857 55131
3201.28 61945 60882 62435 59374 53937 59260
3204.18 67539 65009 53075 55287 68438 63396
3207.07 53841 52765 54521 60782 52567 50122
3209.96 69636 70153 64098 73768 65848 61486
3212.85 62753 54929 54536 51173 52461 60333
3215.75 67060 81738 84641 70630 60629 53118
3218.64 50610 54679 56999 51583 46010 52283
3221.53 56329 49387 50772 63829 70288 68597
3224.42 71144 78798 73386 65546 74007 72667
3227.32 67071 73970 75968 71291 69844 69566
3230.21 58789 55857 55814 52382 47353 50817
3233.10 60450 60579 56580 62153 72934 70265
3236.00 61865 63669 71489 54591 43799 65302
3238.89 70287 49928 53271 60721 60505 62257
3241.78 56193 59518 56684 58628 57842 55721
3244.67 67385 64094 56997 71801 81673 69710
3247.57 67947 75356 67953 50368 53030 61480
3250.46 61187 56552 60900 62488 62231 64504
3253.35 53089 51717 51015 46222 49700 51865
3256.24 60152 67854 61288 55302 58697 59560
3259.14 50540 48767 54669 53898 52391 58849
3262.03 55023 47452 52316 56837 48256 50096
3264.92 62333 64477 67120 57429 49473 55663
3267.82 42615 29722 33874 41679 50698 50513
3270.71 50073 46125 41624 44829 44048 33703
3273.60 38819 49748 47481 42593 40855 48805
3276.49 49174 44020 44645 38824 36414 40845
3279.39 33573 28446 27371 25814 32038 33462
3282.28 17868 17312 27842 29114 33366 37749
3285.17 39453 38683 30066 19443 17379 35808
3288.06 44679 31008 23791 23022 28095 21373
3290.96 15631 8167 12524 24671 24197 16945
3293.85 12223 13879 23878 30378 21210 23288
3296.74 30272 27843 30814 26924 24882 37067
3299.64 30728 17047 16632 13138 11392 12488
3302.53 757-2943 6364 9253 2835 11933
3305.42 27445 24050 7727 3280 13845 7548
3308.31-15437-12825 6094 14473 7285-678
3311.21 7290 9931 10914 9727-3276-3327
3314.10-3381-1047-1222-13331-17498-22707
3316.99-14728-10279-10303-18370-25317-11294
3319.88-8199-9135-4728 2765-2803-6222
3322.78 4913 1899-1005 4231 5638-713
3325.67-2870-3452-8092-4904-1073-6408
3328.56-20605-21253-24248-14587 9266-2834
3331.46-18721-17757-13541-14274-14210-18032
3334.35-22180-18808-14502-15871-16929-10763
3337.24-10281-18073-27296-32652-22526-11550
3340.13-15331-23464-23084-7545-18781-42474
3343.03-33100-30313-30476-17195-15354-16750
3345.92-27070-23168-25624-31395-25129-24163
3348.81-25619-26659-19799-21526-17656-13781
3351.70-19329-28116-30429-25119-19951-21130
3354.60-23828-25522-25910-23557-31525-24841
3357.49-25014-40486-39891-28048-35952-49257
3360.38-42099-37183-39195-39944-40796-43223
3363.28-32367-29220-32386-33269-37574-35734
3366.17-34800-28040-32850-35868-40054-43304
3369.06-33618-33855-29226-35675-43731-44018
3371.95-37676-30752-29275-38023-46226-41488
3374.85-46878-43124-45444-46582-37929-39615
3377.74-34557-45590-52954-47351-46315-40793
3380.63-40947-52226-47078-35823-45825-45387
3383.52-50765-64587-67084-56165-47879-49241
3386.42-38526-40135-48267-49604-41686-43728
3389.31-45569-38566-49470-56924-44363-50693
3392.20-68879-63526-57592-57064-44399-38921
3395.10-49220-46281-49741-57490-54380-54410
3397.99-60016-62830-57765-53750-47726-45086
3400.88-50257-54552-63417-72138-73254-58657
3403.77-53719-63087-61647-57222-51960-51902
3406.67-46722-48842-60444-63606-63069-63318
3409.56-68330-66545-68216-64570-52482-55164
3412.45-60987-55934-55967-61611-57794-52611
3415.34-52672-59029-57927-56312-63781-63975
3418.24-62459-58671-55133-58106-57794-58282
3421.13-60426-63400-66955-70986-61348-55073
3424.02-67607-63513-44499-59422-81766-69041
3426.92-60274-68865-78123-64831-55516-63105
3429.81-61216-74570-83043-70677-60489-65111
3432.70-71252-67037-72802-79204-71659-52671
3435.59-65092-71743-53787-61360-68686-67417
3438.49-65943-70665-76549-72117-72689-64741
3441.38-53177-60429-79188-79314-76191-75554
3444.27-73961-88274-73899-53147-70688-84550
3447.16-65535-57971-73983-78685-69596-59920
3450.06-56423-61736-64959-68194-67731-66888
3452.95-72291-82754-80403-72816-88121-81727
3455.84-60955-54819-58752-63201-57940-61225
3458.74-60839-60686-69759-71828-85542-93222
3461.63-74567-66271-69198-84152-87153-80312
3464.52-82644-71620-61597-79441-101478-83598
3467.41-62160-58504-59777-79632-93421-89152
3470.31-86693-86793-84947-89043-84583-83708
3473.20-83018-85813-91307-86414-77742-73388
3476.09-79648-85952-91187-89492-88348-78649
3478.98-74058-65118-58173-76492-77383-80032
3481.88-87280-87629-95701-101055-95857-86772
3484.77-99734-106911-91098-85915-87532-92267
3487.66-100585-100240-96724-98964-108642-100901
3490.56-89994-92093-106970-105562-83933-79833
3493.45-71182-60989-64823-70330-65674-67612
3496.34-76310-74569-73373-89244-92284-87752
3499.23-89814-86905-98715-108109-108453-110586
3502.13-115488-117100-116623-117157-109312-101913
3505.02-110971-116449-112099-103205-92240-94523
3507.91-101058-104870-112647-108844-99268-105833
3510.80-114692-111060-107746-114528-133274-132383
3513.70-110590-106306-99766-98032-114413-110374
3516.59-93157-99077-100854-107148-118236-116438
3519.48-114290-104851-101976-109413-107354-112302
3522.38-122234-118492-112879-106988-106027-115186
3525.27-117267-112964-119785-116153-105077-114577
3528.16-132203-136891-118177-111220-118904-124628
3531.05-125610-116533-117210-117529-118665-115279
3533.95-99320-103901-112430-109023-115212-122752
3536.84-112105-100838-114249-127317-119866-115753
3539.73-126033-130650-128406-124487-123711-121402
3542.62-119857-125766-120321-123838-133310-126827
3545.52-121658-120941-121287-109778-108199-119387
3548.41-122242-128406-138758-139476-132559-126338
3551.30-128780-133485-130075-124553-123541-121287
3554.20-115787-116562-117114-115408-110664-110612
3557.09-113256-114172-118424-111431-104994-119015
3559.98-123006-115380-119558-116906-125805-123314
3562.87-115945-121874-119014-122484-124860-127781
3565.77-134060-131701-111992-131227-148945-131279
3568.66-114470-102015-116080-115254-103736-106854
3571.55-109060-107981-104585-114238-116711-111026
3574.44-112379-114123-114256-100051-96043-98967
3577.34-99524-102094-102102-109808-103750-103932
3580.23-102346-86139-89204-95037-96577-111113
3583.12-126966-125759-119707-113807-112741-124771
3586.02-151809-144263-140434-142488-160502-159569
3588.91-105475-87108-95709-109207-109637-108550
3591.80-104488-115707-134372-127461-113725-112713
3594.69-127735-121448-111022-119266-114584-109085
3597.59-111734-120072-122886-119528-117380-127906
3600.48-134433-121249-112110-112793-116523-111301
3603.37-108119-109809-110521-115153-116758-115755
3606.26-130897-136299-132305-133605-152537-194306
3609.16-166548-122129-110747-111862-135161-160699
3612.05-182399-163282-130311-127580-142033-143754
3614.94-130195-118135-122935-132003-160850-174828
3617.84-151609-144720-186402-202109-143180-124219
3620.73-134119-112318-104854-120966-130918-142269
3623.62-139096-118658-116536-127986-135428-125089
3626.51-115616-125197-186002-214484-183484-239454
3629.41-213045-133658-134724-129350-117380-119064
3632.30-125602-128538-139851-129823-116197-116298
3635.19-108923-109103-115491-107808-114972-121738
3638.08-117046-119945-112562-104272-109142-115998
3640.98-113614-120686-121445-115087-111171-112706
3643.87-122932-131725-132204-121702-131716-161533
3646.76-188505-180446-153121-177761-256913-213817
3649.66-154640-178384-187192-157873-110327-115398
3652.55-124584-120529-128976-139265-149129-149511
3655.44-190246-229184-183219-148557-141528-134205
3658.33-128074-126332-128368-134662-141489-135926
3661.23-126039-129646-135806-134738-138521-139404
3664.12-142469-143306-146920-145017-139823-141777
3667.01-141206-141001-177571-191890-166488-160804
3669.90-254791-308417-195808-148796-152773-145690
3672.80-159035-170434-179142-237429-251790-294699
3675.69-299710-192338-181995-167397-155093-165193
3678.58-163688-167727-152050-143038-143389-145286
3681.48-143095-130919-122577-124240-139256-149149
3684.37-146566-146784-149505-144606-154141-152111
3687.26-176839-319560-319055-194643-166595-171138
3690.15-189507-223088-201146-145692-138738-154197
3693.05-155884-151179-154863-155647-156962-150012
3695.94-152083-158896-148966-147814-144966-139425
3698.83-148441-152527-156516-154823-172843-201365
3701.72-182392-152464-150514-155314-163339-166977
3704.62-161446-157041-151037-156240-162776-160778
3707.51-160516-156637-192134-216210-180152-152492
3710.40-161863-183795-266324-285540-193764-171054
3713.30-178711-182907-182830-173248-171108-162935
3716.19-146278-141976-160429-168479-171898-181937
3719.08-167271-157878-161636-155696-163316-191241
3721.97-191923-175034-176618-188895-185466-181330
3724.87-171749-161029-191269-192805-167876-165261
3727.76-157059-157482-163713-172881-156917-151078
3730.65-175986-232340-302085-244990-174102-177418
3733.54-186514-215940-234409-214731-183833-250274
3736.44-274890-190764-168033-185103-173323-156127
3739.33-167316-173216-177169-188109-182843-175780
3742.22-172517-185522-233567-378809-478854-342331
3745.12-223546-200347-176993-184668-181521-184837
3748.01-189669-287534-378493-270043-191209-198261
3750.90-199961-313461-375913-244499-189647-185842
3753.79-176542-184480-180554-178363-195736-204272
3756.69-190158-190435-182800-186901-184819-206530
3759.58-214185-180145-161912-153648-161413-170456
3762.47-162481-156968-157598-162089-164666-182869
3765.36-209074-193567-177873-177625-168188-166584
3768.26-165063-179890-229416-221787-172147-169428
3771.15-170725-156433-154046-156849-167527-179025
3774.04-167874-161687-167887-171867-179526-173693
3776.94-162876-168301-174244-187606-204007-189078
3779.83-168817-162660-157192-160654-163027-170914
3782.72-164066-161440-174571-178303-170476-155465
3785.61-162673-168342-172558-176691-172298-158053
3788.51-140287-149190-151634-153069-156292-147921
3791.40-154466-160812-161394-165755-164785-163224
3794.29-163892-163156-169743-194663-200736-187258
3797.18-189608-187151-183791-182481-182639-203513
3800.08-200261-294106-369751-246464-180575-181593
3802.97-174585-184174-178940-168881-165503-171887
3805.86-200156-283238-267504-187905-168563-156763
3808.76-153137-154145-159625-160421-161715-167949
3811.65-173061-171818-173616-178984-171576-176005
3814.54-183098-249659-371464-306396-204069-194369
3817.43-177269-182734-174547-164638-175261-227392
3820.33-259085-250535-262079-213595-180104-191006
3823.22-182164-178814-163984-152585-159866-167036
3826.11-183930-183968-173675-182195-186204-174085
3829.00-161629-166462-174711-186336-222650-217578
3831.90-170249-171687-180048-174473-186060-232517
3834.79-231137-199131-209633-200843-216881-350676
3837.68-341812-226195-206056-204093-197031-196999
3840.58-223116-198700-166653-165489-174966-208551
3843.47-209141-189507-193295-187560-180873-175275
3846.36-173493-174846-171801-171000-169645-175434
3849.25-184868-181216-200574-216434-304540-353878
3852.15-261814-238079-321409-458777-403457-242863
3855.04-207326-197841-202208-221728-202502-181694
3857.93-186488-178260-182646-187612-181934-187404
3860.82-216322-242839-209595-177922-175222-183479
3863.72-188372-226346-262274-222803-205228-205189
3866.61-189685-175813-174418-199365-231422-254186
3869.50-313814-280542-207187-203689-196639-195214
3872.40-181701-186770-211453-228044-215048-194242
3875.29-188282-191752-193595-186807-184032-191636
3878.18-211730-203701-212513-250340-246329-230753
3881.07-212559-200346-188254-193754-203562-197798
3883.97-204974-219616-278222-295875-240844-211352
3886.86-206922-209834-211646-209750-208183-205885
3889.75-193922-222334-266329-238135-209290-210476
3892.64-199950-198036-205817-197789-201896-210984
3895.54-201438-202045-205427-200735-209392-211962
3898.43-241962-269353-227026-207213-206893-231325
3901.32-276690-237222-199355-212389-247410-281673
3904.22-254523-230120-224641-215973-204967-194404
3907.11-191622-204196-209826-209039-209668-212611
3910.00-214132-203720-199630-209126-204702-193597
3912.89-205639-214165-202673-191310-194550-205386
3915.79-210345-222020-247988-233044-211532-213105
3918.68-205785-217837-226517-213194-205422-202961
3921.57-207080-199613-204906-219303-224469-218759
3924.46-210978-210700-196691-186612-197457-209563
3927.36-204301-202110-200809-189203-190027-200272
3930.25-204344-203113-202037-216161-220312-204856
3933.14-188606-188610-203047-216860-221468-224331
3936.04-223808-214797-208332-206508-202760-193739
3938.93-199975-207854-207350-207853-219329-214076
3941.82-199986-212703-213993-199602-211027-213658
3944.71-194714-185982-194065-215883-216541-208862
3947.61-212609-208021-203037-185221-176417-182810
3950.50-181434-175380-170132-184204-199358-200059
3953.39-196642-195452-192409-199639-206164-200784
3956.28-199266-206203-213395-206988-196448-193196
3959.18-188816-189788-199241-199993-187964-200260
3962.07-209833-198172-198585-202855-207080-200537
3964.96-195028-200706-201819-204355-213144-208698
3967.86-201389-209631-209782-198200-197163-208867
3970.75-213941-201705-204318-212850-202143-200135
3973.64-208288-196789
##END=
