##TITLE=Carbon Tetrachloride
##JCAMP-DX=4.24
##DATA TYPE=INFRARED SPECTRUM
##CLASS=IUPAC A
##ORIGIN=NIST, Analytical Chemistry Division, 301-975-3108
##OWNER=COPYRIGHT (C) 2000 by the U.S. Secretary of Commerce
##DATE=00/02/01
##$SPECTRA VERSION=1.10
##$UNCERTAINTY IN Y=2.1 % relative (B=1.1E-04,C=2.7E-09,D=1.4E-13)
##CAS NAME=Carbon tetrachloride
##CAS REGISTRY NO=56-23-5
##MOLFORM=C Cl4
##MP=-22.99 C
##BP=76.54 C
##$NIST SOURCE=QUANT-IR
##SPECTROMETER/DATA SYSTEM=IFS66V (Bruker)
##INSTRUMENT PARAMETERS=KBr Beam Splitter; MCT Detector; Multipass cell
##STATE=gas
##SAMPLE DESCRIPTION=Carbon Tetrachloride Primary Gas Standard
##PRESSURE=101.3 Pa
##TEMPERATURE=23 C
##SAMPLING PROCEDURE=1 L/min Flow
##RESOLUTION=1.9290
##DATA PROCESSING=3-Term B-H Apodization
##XUNITS=cm-1
##YUNITS=(micromol/mol)-1m-1 (base 10)
##XFACTOR=1.0
##YFACTOR=7.2759E-12
##DELTAX=0.9645
##FIRSTX=575.652
##LASTX=3974.605
##FIRSTY=0
##MAXX=3973.64
##MINX=575.65
##MAXY=.0054908
##MINY=-2.53E-06
##NPOINTS=3526
##XYDATA=(X++(Y..Y))
575.65 801 71316 69510 49336 60361 93857
580.47 143026 143996 90486 33627-17330-26365
586.26 996 29754 50183 23826-18914-30500
592.04-13094 7051-4908-21506-10564-3133
597.83 7722 14148 8785-4475-5488 16070
603.62 37297 34115 20285 14649 322-22963
609.40-9153 19888 20441 6262 4368-3505
615.19-5065 8445 41699 74432 85909 102569
620.97 129077 115246 99157 121991 153489 172628
626.76 165594 140437 138847 159928 166097 133130
632.54 91745 63546 52215 45803 34569 16367
638.33 7810 7049 20712 37468 35972 12495
644.11-5293-6509-6605-9201-2318 6034
649.90 22758 28089 13428-5418-6071 4767
655.68 23493 35127 25072 14091 15726 794
661.47-8840-5653 1172 3914-450-9857
667.25-7864-10570-7746 2174-3216-6758
673.04 19298 35089 18250-9531-6493 8765
678.83 7315 7156 15783 14710 16912 5197
684.61-15791-18878 2205 24775 35007 22796
690.40 16159 20409 23761 12962 11870 31765
696.18 47093 30086 18904 30157 47029 41495
701.97 26632 24186 39068 42735 36989 36117
707.75 46993 46219 40846 42041 56713 60491
713.54 50039 39516 43831 51645 65402 67338
719.32 72202 89868 127957 155865 172688 195092
725.11 242852 291433 335571 379480 441944 525227
730.89 630406 742412 882821 1052623 1268926 1531116
736.68 1860706 2245459 2699145 3239669 3916276 4745167
742.47 5713237 6761090 7904405 9249279 10965733 13011407
748.25 15126654 17256763 19769093 22664571 25707749 29226132
754.04 33328925 37101266 40568330 44952887 49746895 53371519
759.82 56549546 59354853 61894296 67384309 73378649 73755347
765.61 73262094 79843032 91748219 95661406 85527720 83126945
771.39 103078704 115646906 103657391 94275603 96911430 101829991
777.18 105756079 107770065 107318843 104176901 98257773 89984891
782.96 80928048 74736055 76593256 90612381 119583719 167499887
788.75 239248086 337206069 458114644 587933447 694590463 750961930
794.53 754662417 709598871 619681955 492435098 364773924 275088674
800.32 210019643 153641141 111666958 82635323 61288738 45531551
806.11 33695013 24814364 18299126 13636321 10326529 7977300
811.89 6284325 5065555 4144614 3425516 2854160 2404764
817.68 1999070 1635413 1349395 1153671 993406 852151
823.46 714897 603180 512236 432098 360560 314316
829.25 265721 225828 193759 164453 132940 121835
835.03 123152 117695 89434 71766 67975 70821
840.82 59163 52041 56375 69287 72502 69066
846.60 61989 65612 69682 66962 49272 49050
852.39 66574 73198 54517 44780 56321 66874
858.17 54285 46304 51734 59315 55501 49748
863.96 44763 50856 59069 66302 68903 78062
869.75 87948 87429 81522 86981 92772 97148
875.53 93574 88900 91212 102197 104405 101885
881.32 101437 103964 101216 97748 92656 88024
887.10 84204 82729 73899 66711 68547 79326
892.89 80953 71542 60560 60536 63758 62595
898.67 52348 49414 55583 58027 50947 45975
904.46 42365 42060 39259 33836 28153 33962
910.24 36213 28248 22504 25378 26657 26255
916.03 20605 12919 6009 3346-1525 1404
921.81 13719 20217 14197 8388 6585 13276
927.60 17440 11466 4101 11310 20714 22492
933.39 15083 7675 6545 10900 10729 9929
939.17 12671 18186 18288 15525 13209 18726
944.96 27589 31462 28318 29621 31447 28860
950.74 19587 12707 17710 32912 41611 43538
956.53 46442 53212 54566 53910 60200 77461
962.31 96573 112387 121818 131711 147326 172050
968.10 188628 194584 207682 230582 253446 274923
973.88 288957 299052 309964 320211 321823 324333
979.67 334041 340506 336455 338633 349264 354584
985.45 337567 308263 304171 341475 371268 355070
991.24 331806 348061 386438 421193 446767 471292
997.03 496897 527866 557275 577393 596870 629513
1002.81 663365 685392 699313 716539 734456 739157
1008.60 730826 727705 724661 711277 693692 684432
1014.38 668829 650013 637023 614697 578303 538791
1020.17 492677 437562 383377 345358 313858 271761
1025.95 223025 186656 164097 141675 106908 71123
1031.74 49498 40938 28364 11830-1449-6578
1037.52-9512-15512-16239-8940-8697-9679
1043.31-10451-13109-12822-6061-3668-9827
1049.09-13047-3079 10713 11617-349-424
1054.88 10140 12525 12937 21961 29001 35106
1060.67 42028 48513 54135 60702 65782 68261
1066.45 71519 79478 78390 66653 59110 64174
1072.24 78942 87175 73739 59878 62718 70157
1078.02 64313 50711 42342 37243 30906 22440
1083.81 15655 18903 19359 10780 2234 4254
1089.59 14162 21261 14824 2400 823 10905
1095.38 19796 25962 32110 36929 37305 35772
1101.16 31924 33649 42691 46030 42108 45139
1106.95 51551 52404 52333 59643 67838 71728
1112.73 72473 72798 75935 84592 82949 66265
1118.52 50778 47676 46355 37122 25105 22068
1124.31 28727 31874 18006-4956-15084-11178
1130.09-16773-31941-32955-25046-29924-40470
1135.88-49520-50636-43079-41099-48577-50423
1141.66-41841-31911-34937-45561-46042-37976
1147.45-34901-39228-40745-31403-24575-27621
1153.23-31422-29506-22856-19895-25931-30291
1159.02-27341-18311-16351-23503-26709-19410
1164.80-9673-11182-17344-14616-7981-4436
1170.59-7606-6228 1502 5884 3185-978
1176.37 2444 12935 16323 7522-513 3231
1182.16 13062 14569 7283 12894 29238 32681
1187.95 22393 20662 32739 42729 42243 39174
1193.73 42810 54193 64568 67721 65996 70573
1199.52 81330 87000 88707 97802 112075 123323
1205.30 127429 135564 157121 177781 180492 175222
1211.09 180351 198537 217967 231193 245161 267365
1216.87 284543 280157 262255 258813 284835 318488
1222.66 339023 355303 357706 325411 278320 247701
1228.44 254649 312619 373961 356917 284174 249121
1234.23 253521 258330 262222 278642 302883 319598
1240.01 319188 307520 309042 336705 374096 414981
1245.80 462651 513124 559559 599015 646341 712787
1251.59 782061 839735 873964 889945 914803 936521
1257.37 916276 854575 780630 740392 731477 695044
1263.16 588040 429618 321176 294728 278227 249378
1268.94 218033 186211 161626 153842 157317 160525
1274.73 161341 160059 157893 155834 143915 124868
1280.51 115618 119664 124252 116476 95600 78692
1286.30 73664 71194 55814 35356 27794 31255
1292.08 30291 22419 14683 9018 3608-2142
1297.87-5355-888 5373 2489-7712-12982
1303.65-11613-13126-23527-32213-30709-24289
1309.44-20534-23508-25997-24511-26364-31466
1315.23-38440-43392-41881-37115-36303-35721
1321.01-30259-25698-26248-30431-32535-26844
1326.80-24425-33051-40992-35195-22718-19405
1332.58-27394-32779-26750-21024-26674-37431
1338.37-39731-30306-22024-24537-31112-25928
1344.15-14782-17577-33217-40094-33463-30366
1349.94-41310-48577-32488-1823 25531 37650
1355.72 33000 25396 12479-13905-32506-30485
1361.51-26221-21644-9395-741 3451 11416
1367.29 12549 2502-167 6588 4682-6593
1373.08-8924 4922 18228 18156 11562 7001
1378.87 12777 21893 15710 6622 9166 12119
1384.65 2240-18714-29276-14898 521 3452
1390.44 695-3800-15382-30266-30976-21549
1396.22-14171-20555-35293-31376-14616-6095
1402.01-13161-31271-40984-29683-16725-18598
1407.79-25922-24652-15298-11425-20373-29443
1413.58-27746-24060-31646-47932-74401-88104
1419.36-57661-28881-27506-28934-27111-27445
1425.15-29739-30184-28984-32097-37297-33594
1430.93-26533-23836-28338-41953-73732-92449
1436.72-60868-31272-29058-25518-17773-16134
1442.51-22454-28876-26217-25335-40952-52227
1448.29-42241-30364-30493-37833-40456-37503
1454.08-54524-115204-156112-120437-66536-36043
1459.86-29821-33483-30370-37492-56402-52201
1465.65-33319-20722-16197-23398-44524-75993
1471.43-94173-87858-65023-49494-43461-29188
1477.22-21622-22621-23664-23783-22254-22482
1483.00-20972-12902-16414-38397-48551-43116
1488.79-44248-41633-26076-10222-2488-14206
1494.57-55408-70725-38724-18269-6912 6718
1500.36 14797 27561 33919 3440-63017-102347
1506.15-76674-15113 25895 44049 59732 67274
1511.93 74869 83142 90783 96178 87561 87416
1517.72 100771 88703 51261 49127 95936 142149
1523.50 157334 154266 159554 169518 187452 218159
1529.29 244093 250278 237304 219190 229827 269613
1535.07 311530 347921 338873 288159 291027 356769
1540.86 421210 486339 540748 570084 623720 699533
1546.64 755219 787055 813986 857910 914815 952960
1552.43 962238 987736 1056397 1091281 1049737 1015403
1558.21 1048936 1121987 1215917 1279075 1302206 1329135
1564.00 1368817 1402463 1396641 1347474 1290518 1277402
1569.79 1307472 1311568 1268708 1217182 1167000 1110939
1575.57 1119784 1187771 1206515 1180928 1159913 1147260
1581.36 1131287 1115083 1109740 1107682 1093378 1075056
1587.14 1062997 1054468 1053776 1061333 1052366 1020934
1592.93 1002731 1003669 991511 957097 932150 918717
1598.71 893751 855772 815384 776948 737049 691802
1604.50 638779 585113 539202 496496 447427 398765
1610.28 360297 327215 288737 245926 187757 99560
1616.07 58483 87574 98755 85500 72745 49849
1621.85 9773-12337 431 8100-9218-29978
1627.64-30099-20336-18003-22308-26938-37042
1633.43-82283-133098-113809-63318-36910-24866
1639.21-24472-26930-22416-17741-29083-71184
1645.00-106702-91741-64326-44929-34236-58910
1650.78-152863-249734-226146-127791-59156-35323
1656.57-37059-41194-38832-38072-51630-73503
1662.35-69844-46572-37782-41218-50811-72852
1668.14-94902-86770-68413-56173-46482-65416
1673.92-104113-99155-61668-45477-49390-55340
1679.71-52078-53777-83813-149577-203581-159606
1685.49-78175-53193-55784-58333-55254-46514
1691.28-43700-48249-76212-153174-185171-119477
1697.07-78617-127639-196729-175014-96438-61898
1702.85-66977-71290-71278-65738-51102-45637
1708.64-51426-54682-50404-48817-59662-77973
1714.42-86515-109604-147872-135177-87456-56158
1720.21-45644-44760-45362-45056-44311-41948
1725.99-38604-38178-45710-57553-60774-71146
1731.78-115744-162018-148393-89084-52413-50124
1737.56-63917-83187-75235-53688-51330-52688
1743.35-47202-45109-49357-56650-62877-63268
1749.13-74035-96106-84916-52455-36982-37899
1754.92-49498-57117-49258-40527-41484-55689
1760.71-68505-54424-33947-27085-23413-25367
1766.49-39877-43509-27315-25957-50361-76214
1772.28-60527-19852-2515 2883 8167 10405
1778.06 10689 5779 3832 10683 15662 11347
1783.85 1330-90 3212 634-1700-5621
1789.63-18446-37838-47492-21072 12047 19747
1795.42 20671 23154 18534 7157 5873 9699
1801.20 8173 9621 14509 15310 11231 5185
1806.99 1905-735-8773-17538-21653-22427
1812.77-22626-24686-28419-32186-33997-35267
1818.56-35866-35421-37795-39068-39985-50819
1824.35-58094-48825-40480-46541-64383-71061
1830.13-55004-41356-39852-42367-43861-43869
1835.92-43687-41152-39863-43880-47397-47048
1841.70-56692-81913-81670-52461-41269-46535
1847.49-44167-37348-35234-36553-37312-35717
1853.27-35913-36182-33508-29212-28287-33017
1859.06-36431-38449-37832-31704-29152-34239
1864.84-38334-40208-46626-57093-57382-44543
1870.63-36990-39827-44716-44075-37985-34660
1876.41-36257-37311-34862-34771-41468-49656
1882.20-50519-47071-48357-50693-47722-47653
1887.99-55113-57818-52618-48201-44701-45438
1893.77-52686-55911-51879-50316-51664-51153
1899.56-52415-55434-53324-50811-50727-46943
1905.34-43212-44572-48135-49491-45884-37804
1911.13-32927-34563-35014-34085-37823-49014
1916.91-57208-51693-44937-49416-62020-72391
1922.70-71359-64928-59526-54937-50937-47769
1928.48-47410-50206-52433-50909-49233-53156
1934.27-56219-54383-51012-48116-49888-54219
1940.05-55904-59827-64414-63013-57152-50387
1945.84-45750-47916-51183-48099-44239-46755
1951.63-51997-51385-44408-42666-47968-49578
1957.41-45347-41727-41915-43346-43226-44508
1963.20-46317-47297-49431-48854-42228-37100
1968.98-38921-42614-45172-52759-62565-53270
1974.77-34622-31471-36449-39771-38111-34548
1980.55-33958-36584-41215-43488-41285-36683
1986.34-33077-34305-37299-38296-39680-38814
1992.12-33121-30764-35136-38577-34600-28333
1997.91-27560-30791-31898-30373-26607-25826
2003.69-31860-38022-38623-35467-33115-32829
2009.48-29721-26739-30098-34914-33374-28728
2015.27-27109-30590-36653-38238-34255-32356
2021.05-34490-35349-32313-31141-33196-36309
2026.84-37149-35059-36386-41155-42259-39849
2032.62-38545-39327-40491-38879-35345-35137
2038.41-37842-41291-42067-38908-35680-38344
2044.19-42174-41326-41666-45744-48114-44465
2049.98-37347-35076-39066-43103-43608-42135
2055.76-42747-46033-44917-40165-41734-48628
2061.55-49960-46207-44708-45628-47269-47919
2067.33-44917-44291-47449-48717-47051-46039
2073.12-48004-48746-45570-42089-42919-47267
2078.91-49202-46420-39693-39429-47245-48744
2084.69-40942-40237-47664-50375-45816-40145
2090.48-42835-49745-47067-35390-34238-46490
2096.26-49033-34985-24847-33186-45257-45134
2102.05-35226-34946-44344-45206-33361-28672
2107.83-38386-42352-30909-21185-28674-37893
2113.62-33173-24943-30299-37158-30676-20765
2119.40-24476-32578-28213-19654-27480-43165
2125.19-40907-25831-22770-33677-38465-34610
2130.97-34312-39587-38905-30479-25397-29196
2136.76-31779-30315-33959-43711-47152-44396
2142.55-42420-41408-37763-32462-34616-42445
2148.33-41208-33140-32514-38214-37413-29884
2154.12-28275-33920-29083-17698-22048-34807
2159.90-31551-21773-26605-34156-24145-13693
2165.69-22066-29194-19451-16374-28823-27725
2171.47-12432-14833-24518-17702-11788-19877
2177.26-19981-7537-6699-16943-10779 4100
2183.04 3913 728 8344 9507-464 146
2188.83 11635 15656 18512 29074 36568 36553
2194.61 43018 51695 49058 47798 60930 71963
2200.40 73882 77842 82251 80930 81631 85855
2206.19 89530 95066 98693 96765 96935 98046
2211.97 94900 91964 91619 87456 78339 68586
2217.76 60080 49253 35395 19363 644-12132
2223.54-7157 12588 34550 49195 61076 79901
2229.33 99039 110076 120885 132836 141406 145338
2235.11 144694 141818 142519 144414 140570 129610
2240.90 117532 107334 95845 80055 62765 50482
2246.68 41871 28072 14471 9181 5452-4968
2252.47-17071-26077-32038-33671-34783-39438
2258.25-43872-45157-44186-44114-41754-41121
2264.04-43465-45076-48245-49354-47781-46981
2269.83-43774-42479-45631-47228-45427-44739
2275.61-46159-46417-45840-46141-45749-45345
2281.40-44795-43150-41062-41190-41496-40404
2287.18-40277-42439-43084-38803-33131-35995
2292.97-42143-40253-34027-31974-31036-29799
2298.75-31714-34880-33586-30464-31275-34440
2304.54-33783-29938-25595-22882-19711-14452
2310.32-13795-16448-13329-10305-11576-12865
2316.11-8443 272 2951-466-1305-537
2321.89-3151-6576-8908-6632 3520 10400
2327.68 10932 10412 6022-2387-5879-3471
2333.47-187 2977 5351 5980 6812 9439
2339.25 10477 8053 5829 5350 7362 6664
2345.04 2429-1875-4896-7852-11303-15211
2350.82-18208-22598-30100-37095-38463-39796
2356.61-45292-48054-47054-46320-45822-48123
2362.39-50296-50191-50706-49966-45317-40702
2368.18-37542-35968-35564-34855-34843-36325
2373.96-38974-40974-38607-35155-34460-34926
2379.75-34539-37080-39682-38610-37491-37201
2385.53-36065-36787-37312-37636-40373-43578
2391.32-43320-42112-43071-44295-45971-47272
2397.11-46425-45425-45199-47084-49285-47810
2402.89-43434-42327-44152-47095-50176-50127
2408.68-47513-49093-52777-53062-51561-50075
2414.46-48221-48229-48456-48689-50426-53817
2420.25-56282-56516-54193-52954-54463-56645
2426.03-59471-59251-53103-50958-53877-54124
2431.82-53986-59086-64613-65979-65867-62609
2437.60-55916-52746-52272-53303-56686-59526
2443.39-60689-60628-60005-60068-59814-59085
2449.17-56836-56437-56681-54317-53590-55476
2454.96-54364-52451-54440-58094-57859-56859
2460.75-57691-59039-56954-52481-51172-54208
2466.53-58718-60766-58911-59501-61201-62282
2472.32-64720-67007-64043-57954-56489-58195
2478.10-57501-54851-51984-53681-55074-50783
2483.89-48852-52519-56625-59068-57911-55816
2489.67-54896-56784-59101-59201-59734-61232
2495.46-60633-58435-58109-60365-61902-62529
2501.24-62890-64259-65447-69457-73127-69901
2507.03-67185-70100-70147-67259-66620-69059
2512.81-69702-68550-69774-70866-69580-68307
2518.60-66785-68047-72546-73778-67529-62660
2524.39-66131-71434-70569-67782-68827-72037
2530.17-69995-65409-65517-69791-73142-72116
2535.96-68087-69104-72779-73795-71487-69163
2541.74-71149-74107-73429-70885-68377-66605
2547.53-64153-63876-68862-76928-81331-79499
2553.31-72212-65459-68660-77563-79289-73735
2559.10-70694-74556-75120-70771-69706-74074
2564.88-76893-76220-73483-71520-72217-71816
2570.67-68466-67356-68428-70817-73109-70676
2576.45-66722-69234-71698-68950-67508-69354
2582.24-71224-73165-73108-72582-73901-75306
2588.03-72206-69147-69428-71615-74509-74963
2593.81-73245-73382-74738-74388-71821-70693
2599.60-72521-73738-71734-69071-66839-67830
2605.38-70646-72408-74065-76109-73770-69725
2611.17-68624-69256-68339-68389-71268-71991
2616.95-70621-71649-71527-68585-66500-68973
2622.74-71511-72393-74233-75791-75184-72607
2628.52-69456-71463-72363-69288-69384-72055
2634.31-71533-71347-74158-74222-72175-74510
2640.09-75913-72898-71918-74437-75300-74878
2645.88-72873-72384-75343-76088-75062-77920
2651.66-81449-82108-80316-77686-76597-76343
2657.45-74511-72705-70856-72370-77573-81318
2663.24-82528-82856-80598-78940-77259-76657
2669.02-78745-79189-76475-75378-77600-76673
2674.81-73684-75423-80599-85212-84569-80579
2680.59-77855-79033-80755-82603-83232-82164
2686.38-82590-84859-84287-81026-80346-82634
2692.16-81584-81243-86330-89206-87879-88808
2697.95-92032-92752-85759-76126-70838-69189
2703.73-69967-75941-83831-89919-92345-90837
2709.52-85202-77424-73046-76408-80534-81347
2715.30-80980-81811-82828-82807-81823-80135
2721.09-81249-83678-80567-77863-78143-78097
2726.88-77071-75709-76711-81549-81204-76618
2732.66-73863-75301-78211-79484-82747-86077
2738.45-82576-78249-78395-78161-76260-78678
2744.23-81499-81535-81459-80585-77418-77300
2750.02-77986-79604-81053-80458-79198-76718
2755.80-75313-77017-81765-84715-78701-74422
2761.59-77587-81627-84047-84799-82812-85318
2767.37-91930-90720-81969-77398-80470-84789
2773.16-84957-84705-85424-86269-84731-82510
2778.94-82512-86019-89319-86914-80359-77930
2784.73-80179-83286-82314-79671-79812-82897
2790.52-85105-84709-83883-85475-84009-77009
2796.30-73041-77498-85600-91408-90258-86758
2802.09-84293-84322-83669-79016-75494-77987
2807.87-80070-79719-81400-83657-81396-77451
2813.66-77827-82371-84398-81721-78890-81114
2819.44-82883-78575-72694-72484-74764-77455
2825.23-79356-78221-76895-80923-86101-85782
2831.01-81490-80248-80614-78637-70613-65754
2836.80-71198-78051-81680-84636-85021-84534
2842.58-81310-74992-72319-72844-72260-73510
2848.37-73174-73435-76200-79491-78863-71976
2854.16-68529-69106-66243-67635-72923-76491
2859.94-77749-74971-70730-71726-80174-86858
2865.73-83402-77386-76515-76771-73305-70332
2871.51-71358-78381-84158-81862-74520-72846
2877.30-76601-77143-74745-78122-83367-82277
2883.08-76755-72738-71626-74821-78382-80057
2888.87-78809-75637-76954-81239-78459-76269
2894.65-83984-89483-82153-74165-76046-85189
2900.44-89340-84276-78384-79228-85213-91062
2906.22-89449-84723-82999-84459-86195-83009
2912.01-78357-81980-87526-90969-97671-100979
2917.80-93842-84513-79731-81712-85435-87344
2923.58-89374-93064-97849-104687-107815-104956
2929.37-100948-96667-88869-82860-81905-85751
2935.15-89745-91737-94294-95437-92061-91532
2940.94-92037-91786-90635-87569-87419-94003
2946.72-100964-99562-91838-86960-86534-90013
2952.51-92494-89873-84879-85350-89685-90397
2958.29-83222-68161-56756-81431-118702-121450
2964.08-105964-93153-84661-83746-87050-90745
2969.86-94247-96965-99582-100706-95530-91056
2975.65-85064-76089-75966-82511-84840-84777
2981.44-86297-88670-91319-88855-81368-77587
2987.22-75901-73935-73620-73288-71482-70868
2993.01-70765-73498-79528-83410-83469-82597
2998.79-78494-74410-72147-71927-73223-75644
3004.58-79497-83148-83307-81249-75821-73555
3010.36-78980-84826-85274-83165-78930-79076
3016.15-86999-90622-82827-74728-74838-79779
3021.93-81709-81964-82910-80156-73886-73244
3027.72-77734-80394-78370-74649-75302-82916
3033.50-87662-86527-80006-75295-81315-88367
3039.29-83299-75805-75057-77000-74413-72612
3045.08-76790-80074-80118-79829-79345-82785
3050.86-85746-86888-85998-81784-80060-80479
3056.65-74010-71147-74660-72739-71054-74611
3062.43-76879-77533-77523-73671-67675-61664
3068.22-59425-63851-65034-65332-69318-69530
3074.00-62006-56727-59282-65504-65789-64355
3079.79-65520-63304-59570-61539-63937-62216
3085.57-60442-61488-57436-50442-47940-50856
3091.36-51392-48676-50104-53392-50860-43093
3097.14-39194-41227-44482-46328-42621-38388
3102.93-34244-30777-31049-33345-35384-32443
3108.72-23720-18159-17850-21272-21448-17909
3114.50-17141-18362-14343-9787-8181-9338
3120.29-11478-12547-10923-4774 3771 5602
3126.07 2569 2984 5843 6399 5375 4986
3131.86 9632 11932 14004 21361 25115 22343
3137.64 19354 18989 23534 27053 24706 20893
3143.43 21577 22817 27179 34425 35604 31287
3149.21 30526 32953 35288 42875 49632 47086
3155.00 45413 44847 40085 38142 43332 44870
3160.78 42410 43308 49492 54584 52100 43349
3166.57 38122 39763 44663 47959 48598 54482
3172.36 62909 60446 53774 52813 52341 48246
3178.14 49089 52097 52101 49053 47748 50996
3183.93 57466 62042 61882 56236 51232 48725
3189.71 46432 48317 54046 56812 58322 57361
3195.50 52213 49769 51836 48427 46079 52717
3201.28 59316 59674 60454 60692 60275 58921
3207.07 56019 55129 59317 65698 67573 62994
3212.85 56862 54613 62609 72919 69812 58200
3218.64 53001 51280 50834 53443 61163 69440
3224.42 72951 72010 71649 72458 71499 65433
3230.21 57539 52287 53379 58278 63966 66676
3236.00 64155 59180 58072 57843 58124 58919
3241.78 58170 57748 59852 63714 69513 72286
3247.57 67955 60197 57795 59572 61111 58667
3253.35 52794 49921 54565 59906 59380 55368
3259.14 52822 53280 53983 52540 52253 55842
3264.92 60788 57976 47951 39390 41622 47121
3270.71 46400 42475 41094 43159 45010 45692
3276.49 44745 40615 35858 30648 28112 25592
3282.28 24106 29015 35232 33083 27945 30104
3288.06 31012 25465 19298 15422 17267 17566
3293.85 18629 22944 26179 28020 29358 28290
3299.64 21989 13718 7176 3270 6305 13629
3305.42 15927 9381 555-1972 3719 6590
3311.21 7586 4733-695-4954-11585-16497
3316.99-15859-16585-14327-7953-3049-853
3322.78 1336 2198 117-3601-5738-11581
3328.56-16874-12084-8816-13547-16056-17934
3334.35-18167-15902-14820-19878-23415-20457
3340.13-18304-21529-28843-30017-22952-20951
3345.92-24617-27084-26184-23926-20226-19881
3351.70-23805-24964-23386-24654-26336-29172
3357.49-33432-37542-40673-41419-40440-38082
3363.28-34094-34125-34441-33893-36182-37636
3369.06-35449-37248-38628-36222-38129-43455
3374.85-45000-43139-41121-44414-46713-45606
3380.63-44892-44845-49612-57888-56405-48031
3386.42-44359-45100-44392-45844-50167-56623
3392.20-59750-53828-47011-48567-53464-57614
3397.99-58302-53831-50778-57612-65317-64201
3403.77-60140-56590-52157-54106-60746-65708
3409.56-66437-62557-58152-57846-57537-56306
3415.34-56814-60041-61658-59930-58073-59997
3421.13-63782-65179-62258-60116-63335-68501
3426.92-68996-66003-65017-70474-70935-68479
3432.70-70610-71071-66122-63166-63751-67341
3438.49-71164-71180-65988-67513-74848-78237
3444.27-75704-71495-69982-70278-69462-64858
3450.06-62578-66283-71268-77451-79984-73781
3455.84-63096-59458-60486-65523-75435-80089
3461.63-76835-79187-80367-77025-79371-77035
3467.41-69345-76701-86828-88178-86549-85899
3473.20-86141-83904-80983-84956-86890-79252
3478.98-70117-72090-81228-90505-95545-97211
3484.77-96125-92764-93920-99054-101321-100263
3490.56-98884-94621-80353-68362-66186-69795
3496.34-75796-83965-89171-94664-104043-112592
3502.13-116160-114356-111167-110037-103816-99994
3507.91-104041-107152-108164-112447-119597-120672
3513.70-110546-105115-103587-102685-108269-112828
3519.48-109407-108758-113604-115387-112159-113118
3525.27-115382-115746-120241-124497-121679-121197
3531.05-120494-117372-111569-108425-111694-114005
3536.84-113836-118181-123108-126726-126029-123560
3542.62-123496-126168-125935-120927-115685-119174
3548.41-129285-134716-132525-130347-126551-121348
3554.20-117204-114524-113029-113703-113647-115952
3559.98-118839-120867-121331-121298-123786-127972
3565.77-129235-131386-126894-115859-110014-108267
3571.55-108543-111771-113598-111439-104450-100124
3577.34-101900-104548-101048-94562-96744-110619
3583.12-119610-121209-130484-143725-148411-134432
3588.91-109356-102907-109189-117856-122176-120763
3594.69-118833-115976-114338-117544-121749-124947
3600.48-121842-115443-111425-110841-114106-122151
3606.26-132291-148163-157153-139700-131199-150603
3612.05-154241-141445-133398-130054-140770-157822
3617.84-168312-165761-140935-120489-122109-130240
3623.62-127831-124886-128084-152204-191895-201578
3629.41-166761-132045-123594-128100-125895-116660
3635.19-111417-113232-116430-115287-111336-113213
3640.98-116546-116139-117991-124923-135794-157212
3646.76-177436-196387-200281-179696-149631-125660
3652.55-124178-140392-168636-185481-164976-138118
3658.33-129981-132698-133355-132539-135435-140022
3664.12-143084-142959-143425-155681-176133-208768
3669.90-223194-185420-157726-178752-229227-259653
3675.69-226522-178884-162885-158105-149043-140838
3681.48-132643-132107-140755-146095-150945-187939
3687.26-240541-229768-195638-188777-169347-152524
3693.05-152803-154529-153946-152207-147758-146193
3698.83-152070-166253-175780-167197-159366-160707
3704.62-158428-157430-161447-174594-182940-181697
3710.40-207616-226385-200601-180763-173180-160556
3716.19-155297-164714-169993-164711-165866-177562
3721.97-183431-183272-179653-178347-177241-167713
3727.76-161101-161510-179383-221456-227439-202992
3733.54-206026-220310-226933-209823-179855-167902
3739.33-171490-177241-181573-233801-327842-324080
3745.12-231602-184970-206979-262188-264197-242547
3750.90-269924-258075-202397-181338-186274-192605
3756.69-190613-191256-195120-183340-165779-161430
3762.47-160428-166427-182329-188446-177722-174541
3768.26-190701-197341-178121-162308-162078-167741
3774.04-169213-171540-171847-175049-184843-183258
3779.83-168582-162773-165088-169078-169976-167136
3785.61-168517-169586-159140-150942-151236-154095
3791.40-158496-163080-164296-171087-184705-191072
3797.18-187118-187889-217224-265426-253469-199668
3802.97-176325-174337-196281-227387-208643-168484
3808.76-155723-159913-166369-171592-174208-198086
3814.54-256026-268572-215209-179497-183983-219066
3820.33-242246-221871-191107-173189-163875-169259
3826.11-178327-179770-173851-175046-191042-195559
3831.90-182763-187770-207262-214279-236150-276132
3837.68-259609-215674-201736-191365-182070-191365
3843.47-195512-186948-177665-172608-171061-175552
3849.25-195501-245668-288437-320345-348392-295849
3855.04-222137-201585-191343-182940-185247-200372
3860.82-209351-195501-193502-217437-223089-202287
3866.61-188753-211617-254159-255683-217349-194637
3872.40-198886-208818-202434-192096-189637-196708
3878.18-213803-231530-227107-206649-196878-207275
3883.97-237483-254210-232108-212430-208124-210773
3889.75-225343-229892-213530-202850-202281-204030
3895.54-203823-208290-224795-235302-228935-232990
3901.32-234129-236297-248934-240212-216428-202421
3907.11-202597-209192-210849-207996-204451-204210
3912.89-203521-201039-207550-223803-226915-218540
3918.68-216096-213915-207247-207722-215043-216833
3924.46-206979-199803-201629-201401-196885-198912
3930.25-205535-210179-204641-201555-212431-221320
3936.04-216648-207297-202278-205757-211161-212412
3941.82-210530-209260-204013-200504-207046-212541
3947.61-205440-191603-180970-178999-186202-195684
3953.39-198019-200338-203694-206814-204125-196802
3959.18-194181-197034-200259-202818-203085-202223
3964.96-202333-206563-208728-207504-205302-206696
3970.75-208097-207354-204402-201445
##END=
