##TITLE=CARBON TETRACHLORIDE
##JCAMP-DX=4.24
##DATA TYPE=INFRARED SPECTRUM
##CLASS=COBLENTZ
##ORIGIN=DOW CHEMICAL COMPANY
##OWNER=COBLENTZ SOCIETY
Collection (C) 2018 copyright by the U.S. Secretary of Commerce
on behalf of the United States of America. All rights reserved.
##DATE=1963/09/30
##NAMES=tetrachloromethane
##CAS REGISTRY NO=56-23-5
##MOLFORM=C Cl4
##SOURCE REFERENCE=COBLENTZ NO. 6468
##$NIST SOURCE=COBLENTZ
##$NIST IMAGE=cob6468
##SPECTROMETER/DATA SYSTEM=BECKMAN IR-9 (GRATING)
##INSTRUMENT PARAMETERS=ORDER CHANGES: 670, 1200, 2000 CM^-^1
##STATE=SOLUTION (1% CS2)
##PATH LENGTH=0.10 CM
##SAMPLING PROCEDURE=TRANSMISSION
##RESOLUTION=2
##DATA PROCESSING=DIGITIZED BY NIST FROM HARD COPY (FROM TWO SEGMENTS)
##XUNITS=1/CM
##YUNITS=TRANSMITTANCE
##XFACTOR=1.000000
##YFACTOR=1
##DELTAX=0.879251
##FIRSTX=396.249
##LASTX=3794.55
##FIRSTY=0.782
##MAXX=3794.55
##MINX=396.249
##MAXY=1.042
##MINY=0
##NPOINTS=3866
##XYDATA=(X++(Y..Y))
396.249000 0.7820 0.7810 0.7820 0.7810 0.7790
400.645253 0.7790 0.7780 0.7770 0.7750 0.7720
405.041505 0.7700 0.7680 0.7640 0.7630 0.7600
409.437758 0.7570 0.7560 0.7470 0.7430 0.7390
413.834010 0.7350 0.7270 0.7250 0.7240 0.7220
418.230263 0.7220 0.7210 0.7200 0.7180 0.7170
422.626515 0.7160 0.7130 0.7100 0.7070 0.7070
427.022768 0.7060 0.7060 0.6950 0.6850 0.6820
431.419020 0.6730 0.6600 0.6560 0.6440 0.6320
435.815273 0.6280 0.6140 0.6090 0.6010 0.5910
440.211525 0.5260 0.5110 0.4870 0.4760 0.4570
444.607778 0.4340 0.4151 0.4040 0.3930 0.3731
449.004031 0.3440 0.3310 0.3180 0.3150 0.3150
453.400283 0.3150 0.3170 0.3190 0.3240 0.3240
457.796536 0.3280 0.3310 0.3360 0.3370 0.3400
462.192788 0.3430 0.3440 0.3440 0.3460 0.3440
466.589041 0.3430 0.3430 0.3390 0.3330 0.3190
470.985293 0.3110 0.3030 0.2930 0.2890 0.2820
475.381546 0.2750 0.2650 0.2610 0.2570 0.2560
479.777798 0.2570 0.2590 0.2630 0.2670 0.2680
484.174051 0.2740 0.2810 0.2920 0.3110 0.3280
488.570303 0.3440 0.3610 0.3969 0.4299 0.4619
492.966556 0.4880 0.5290 0.5400 0.5490 0.5720
497.362809 0.5900 0.6169 0.6519 0.6669 0.6889
501.759061 0.7060 0.7210 0.7360 0.7380 0.7500
506.155314 0.7570 0.7739 0.7830 0.7900 0.7920
510.551566 0.8060 0.8150 0.8190 0.8220 0.8280
514.947819 0.8310 0.8320 0.8370 0.8390 0.8420
519.344071 0.8420 0.8370 0.8330 0.8310 0.8280
523.740324 0.8100 0.8000 0.7900 0.7721 0.7591
528.136576 0.7250 0.7070 0.6740 0.6600 0.6350
532.532829 0.6300 0.6210 0.6130 0.6130 0.6140
536.929081 0.6200 0.6270 0.6380 0.6600 0.7040
541.325334 0.7270 0.7699 0.7830 0.7920 0.7960
545.721586 0.8030 0.8080 0.8110 0.8170 0.8330
550.117839 0.8430 0.8530 0.8580 0.8670 0.8690
554.514092 0.8710 0.8780 0.8790 0.8800 0.8830
558.910344 0.8820 0.8800 0.8760 0.8710 0.8690
563.306597 0.8670 0.8640 0.8580 0.8500 0.8490
567.702849 0.8430 0.8390 0.8360 0.8350 0.8350
572.099102 0.8350 0.8370 0.8400 0.8440 0.8470
576.495354 0.8500 0.8570 0.8610 0.8680 0.8780
580.891607 0.8890 0.8940 0.9010 0.9080 0.9110
585.287859 0.9220 0.9290 0.9320 0.9340 0.9390
589.684112 0.9440 0.9510 0.9540 0.9550 0.9570
594.080364 0.9590 0.9610 0.9610 0.9610 0.9610
598.476617 0.9570 0.9550 0.9520 0.9500 0.9450
602.872870 0.9410 0.9390 0.9330 0.9300 0.9260
607.269122 0.9190 0.9110 0.9050 0.8930 0.8870
611.665375 0.8760 0.8680 0.8580 0.8490 0.8211
616.061627 0.8080 0.7950 0.7740 0.7640 0.7211
620.457880 0.6891 0.6481 0.6281 0.5951 0.5163
624.854132 0.5040 0.4760 0.4750 0.4680 0.4520
629.250385 0.4300 0.3761 0.3730 0.3720 0.3720
633.646637 0.3760 0.4150 0.4880 0.5110 0.5559
638.042890 0.6019 0.7736 0.7989 0.8139 0.8260
642.439142 0.8440 0.8470 0.8540 0.8600 0.8670
646.835395 0.8670 0.8680 0.8690 0.8690 0.8620
651.231648 0.8570 0.8510 0.8460 0.8460 0.8330
655.627900 0.8290 0.8250 0.8130 0.8100 0.7990
660.024153 0.7920 0.7770 0.7640 0.7520 0.7470
664.420405 0.7470 0.7380 0.7350 0.7250 0.7220
668.816658 0.7140 0.7060 0.7030 0.6960 0.6910
673.212910 0.6840 0.6800 0.6780 0.6780 0.6770
677.609163 0.6740 0.6680 0.6590 0.6440 0.6280
682.005415 0.6170 0.6030 0.5980 0.5741 0.5481
686.401668 0.5360 0.5230 0.5050 0.4870 0.4650
690.797920 0.4450 0.4231 0.4011 0.3871 0.3681
695.194173 0.3510 0.3470 0.3290 0.3060 0.2860
699.590426 0.2700 0.2500 0.2350 0.2220 0.2100
703.986678 0.1960 0.1780 0.1630 0.1550 0.1380
708.382931 0.1260 0.1140 0.0771 0.0760 0.0621
712.779183 0.0510 0.0470 0.0360 0.0330 0.0290
717.175436 0.0230 0.0180 0.0120 0.0080 0.0040
721.571688 0.0010 0.0010 0.0010 0.0010 0.0010
725.967941 0.0010 0.0010 0.0010 0.0010 0.0010
730.364193 0.0010 0.0010 0.0010 0.0000 0.0000
734.760446 0.0000 0.0000 0.0000 0.0000 0.0000
739.156698 0.0000 0.0000 0.0000 0.0000 0.0000
743.552951 0.0000 0.0000 0.0000 0.0000 0.0000
747.949204 0.0000 0.0000 0.0000 0.0000 0.0000
752.345456 0.0000 0.0000 0.0000 0.0000 0.0000
756.741709 0.0000 0.0000 0.0000 0.0000 0.0000
761.137961 0.0000 0.0000 0.0000 0.0000 0.0000
765.534214 0.0000 0.0000 0.0000 0.0000 0.0000
769.930466 0.0000 0.0000 0.0000 0.0000 0.0000
774.326719 0.0000 0.0000 0.0000 0.0000 0.0000
778.722971 0.0000 0.0000 0.0000 0.0000 0.0000
783.119224 0.0000 0.0000 0.0000 0.0000 0.0000
787.515476 0.0000 0.0000 0.0000 0.0000 0.0000
791.911729 0.0000 0.0000 0.0000 0.0000 0.0000
796.307982 0.0000 0.0000 0.0000 0.0000 0.0000
800.704234 0.0000 0.0000 0.0000 0.0000 0.0000
805.100487 0.0000 0.0000 0.0000 0.0000 0.0000
809.496739 0.0000 0.0000 0.0000 0.0000 0.0000
813.892992 0.0000 0.0000 0.0000 0.0000 0.0000
818.289244 0.0000 0.0000 0.0000 0.0000 0.0000
822.685497 0.0000 0.0000 0.0000 0.0000 0.0000
827.081749 0.0000 0.0000 0.0000 0.0000 0.0000
831.478002 0.0010 0.0010 0.0020 0.0020 0.0040
835.874254 0.0040 0.0050 0.0050 0.0060 0.0180
840.270507 0.0260 0.0400 0.0490 0.0590 0.0600
844.666759 0.0650 0.0700 0.0810 0.0850 0.0980
849.063012 0.1100 0.1280 0.1499 0.1739 0.1820
853.459265 0.1960 0.2090 0.2200 0.2290 0.2380
857.855517 0.2450 0.2470 0.2719 0.2830 0.3009
862.251770 0.3190 0.3250 0.3320 0.3400 0.3430
866.648022 0.3570 0.3600 0.3680 0.3710 0.3849
871.044275 0.3960 0.4050 0.4140 0.4150 0.4250
875.440527 0.4360 0.4450 0.4620 0.4750 0.4830
879.836780 0.5010 0.5230 0.5470 0.5580 0.5690
884.233032 0.5770 0.5850 0.5880 0.6010 0.6100
888.629285 0.6140 0.6160 0.6280 0.6320 0.6440
893.025537 0.6500 0.6550 0.6600 0.6670 0.6730
897.421790 0.6770 0.6820 0.6910 0.6960 0.7060
901.818043 0.7170 0.7270 0.7270 0.7380 0.7390
906.214295 0.7420 0.7540 0.7590 0.7630 0.7720
910.610548 0.7770 0.7820 0.7890 0.7930 0.7950
915.006800 0.7970 0.8030 0.8100 0.8130 0.8170
919.403053 0.8290 0.8420 0.8490 0.8510 0.8530
923.799305 0.8570 0.8570 0.8570 0.8580 0.8580
928.195558 0.8570 0.8540 0.8510 0.8500 0.8490
932.591810 0.8440 0.8430 0.8330 0.8310 0.8290
936.988063 0.8260 0.8190 0.8150 0.8110 0.8080
941.384315 0.8010 0.7960 0.7930 0.7880 0.7850
945.780568 0.7770 0.7740 0.7680 0.7630 0.7530
950.176821 0.7400 0.7280 0.7210 0.7070 0.6920
954.573073 0.6820 0.6660 0.6451 0.6310 0.6171
958.969326 0.6080 0.5939 0.5110 0.4880 0.4550
963.365578 0.4340 0.4041 0.3850 0.3571 0.3281
967.761831 0.3010 0.2750 0.2520 0.2290 0.2100
972.158083 0.1781 0.1620 0.1480 0.1191 0.1190
976.554336 0.1050 0.0960 0.0870 0.0770 0.0760
980.950588 0.0740 0.0740 0.0740 0.0780 0.0850
985.346841 0.0900 0.0950 0.0990 0.1020 0.1030
989.743093 0.1100 0.1170 0.1240 0.1270 0.1280
994.139346 0.1280 0.1280 0.1280 0.1270 0.1260
998.535599 0.1170 0.1130 0.0851 0.0800 0.0740
1002.931851 0.0660 0.0630 0.0620 0.0600 0.0590
1007.328104 0.0590 0.0590 0.0600 0.0600 0.0620
1011.724356 0.0630 0.0720 0.0730 0.0780 0.0950
1016.120609 0.0990 0.1030 0.1170 0.1459 0.1709
1020.516861 0.2241 0.3040 0.3440 0.3620 0.3790
1024.913114 0.4139 0.4439 0.4719 0.4969 0.5229
1029.309366 0.5491 0.5900 0.6280 0.6740 0.6850
1033.705619 0.7060 0.7220 0.7360 0.7430 0.7570
1038.101871 0.7720 0.7770 0.7830 0.7950 0.8030
1042.498124 0.8030 0.8060 0.8060 0.8060 0.8060
1046.894377 0.8010 0.8010 0.7970 0.7960 0.7770
1051.290629 0.7650 0.7560 0.7430 0.7280 0.7170
1055.686882 0.7060 0.6920 0.6780 0.6750 0.6550
1060.083134 0.6340 0.6170 0.6050 0.5901 0.5771
1064.479387 0.5730 0.5620 0.5480 0.5400 0.5380
1068.875639 0.5370 0.5360 0.5370 0.5380 0.5420
1073.271892 0.5470 0.5510 0.5540 0.5590 0.5650
1077.668144 0.5870 0.5910 0.6030 0.6160 0.6439
1082.064397 0.6590 0.6850 0.6910 0.7070 0.7170
1086.460649 0.7250 0.7320 0.7400 0.7450 0.7490
1090.856902 0.7560 0.7590 0.7590 0.7590 0.7570
1095.253155 0.7570 0.7560 0.7560 0.7490 0.7470
1099.649407 0.7420 0.7240 0.7210 0.7090 0.7030
1104.045660 0.6920 0.6890 0.6780 0.6740 0.6670
1108.441912 0.6600 0.6590 0.6490 0.6460 0.6450
1112.838165 0.6440 0.6440 0.6460 0.6560 0.6620
1117.234417 0.6740 0.6890 0.7060 0.7220 0.7390
1121.630670 0.7770 0.7970 0.8170 0.8320 0.8509
1126.026922 0.8650 0.8780 0.8900 0.8910 0.9030
1130.423175 0.9160 0.9320 0.9360 0.9400 0.9450
1134.819427 0.9510 0.9550 0.9570 0.9620 0.9630
1139.215680 0.9660 0.9690 0.9750 0.9770 0.9800
1143.611932 0.9800 0.9840 0.9840 0.9860 0.9870
1148.008185 0.9870 0.9880 0.9880 0.9880 0.9880
1152.404438 0.9880 0.9880 0.9870 0.9870 0.9870
1156.800690 0.9870 0.9870 0.9870 0.9860 0.9830
1161.196943 0.9800 0.9790 0.9790 0.9790 0.9770
1165.593195 0.9750 0.9700 0.9680 0.9650 0.9570
1169.989448 0.9520 0.9440 0.9390 0.9330 0.9300
1174.385700 0.9210 0.9110 0.9030 0.8910 0.8900
1178.781953 0.8780 0.8640 0.8510 0.8320 0.8180
1183.178205 0.8110 0.7950 0.7780 0.7630 0.7401
1187.574458 0.7270 0.7040 0.6820 0.6600 0.6320
1191.970710 0.6210 0.6080 0.5880 0.5800 0.5262
1196.366963 0.5060 0.4880 0.4700 0.4500 0.4230
1200.763216 0.3871 0.3621 0.3391 0.3221 0.3110
1205.159468 0.2930 0.2830 0.2540 0.2530 0.2350
1209.555721 0.2180 0.2030 0.1910 0.1800 0.1700
1213.951973 0.1630 0.1560 0.1500 0.1480 0.1410
1218.348226 0.1320 0.1280 0.1260 0.1240 0.1230
1222.744478 0.1240 0.1260 0.1270 0.1410 0.1440
1227.140731 0.1480 0.1600 0.1670 0.1750 0.1840
1231.536983 0.1920 0.1990 0.2060 0.2070 0.2110
1235.933236 0.2110 0.2110 0.2110 0.2100 0.2030
1240.329488 0.1910 0.1820 0.1670 0.1560 0.1460
1244.725741 0.1410 0.1310 0.1240 0.1120 0.0990
1249.121994 0.0880 0.0870 0.0800 0.0780 0.0770
1253.518246 0.0740 0.0730 0.0700 0.0690 0.0690
1257.914499 0.0690 0.0720 0.0760 0.0830 0.0950
1262.310751 0.0990 0.1030 0.1140 0.1240 0.1639
1266.707004 0.1710 0.2070 0.2600 0.2830 0.3290
1271.103256 0.3540 0.4069 0.4180 0.4439 0.4570
1275.499509 0.4801 0.5180 0.5380 0.5510 0.5630
1279.895761 0.6010 0.6300 0.6500 0.6859 0.7159
1284.292014 0.7240 0.7450 0.7670 0.7950 0.8170
1288.688266 0.8280 0.8490 0.8490 0.8620 0.8889
1293.084519 0.8900 0.8940 0.9090 0.9140 0.9250
1297.480772 0.9270 0.9330 0.9360 0.9400 0.9430
1301.877024 0.9470 0.9480 0.9510 0.9520 0.9540
1306.273277 0.9550 0.9570 0.9570 0.9570 0.9610
1310.669529 0.9630 0.9650 0.9660 0.9680 0.9700
1315.065782 0.9730 0.9760 0.9770 0.9790 0.9790
1319.462034 0.9800 0.9810 0.9840 0.9860 0.9860
1323.858287 0.9870 0.9870 0.9870 0.9870 0.9880
1328.254539 0.9880 0.9900 0.9910 0.9930 0.9940
1332.650792 0.9940 0.9950 0.9980 0.9980 1.0000
1337.047044 1.0000 1.0010 1.0020 1.0020 1.0020
1341.443297 1.0080 1.0110 1.0130 1.0160 1.0180
1345.839550 1.0180 1.0190 1.0200 1.0200 1.0220
1350.235802 1.0230 1.0240 1.0240 1.0230 1.0230
1354.632055 1.0230 1.0230 1.0230 1.0230 1.0230
1359.028307 1.0230 1.0230 1.0220 1.0220 1.0220
1363.424560 1.0200 1.0220 1.0220 1.0220 1.0220
1367.820812 1.0200 1.0200 1.0200 1.0200 1.0220
1372.217065 1.0200 1.0200 1.0200 1.0200 1.0200
1376.613317 1.0190 1.0190 1.0190 1.0190 1.0190
1381.009570 1.0220 1.0220 1.0160 1.0160 1.0160
1385.405822 1.0150 1.0130 1.0120 1.0120 1.0120
1389.802075 1.0120 1.0120 1.0120 1.0110 1.0110
1394.198327 1.0110 1.0090 1.0090 1.0090 1.0090
1398.594580 1.0110 1.0090 1.0080 1.0060 1.0040
1402.990833 1.0020 1.0000 0.9980 0.9980 0.9970
1407.387085 0.9970 0.9970 0.9950 0.9950 0.9950
1411.783338 0.9950 0.9950 0.9950 0.9950 0.9940
1416.179590 0.9970 0.9970 0.9980 0.9970 0.9970
1420.575843 0.9950 0.9950 0.9940 0.9930 0.9900
1424.972095 0.9880 0.9880 0.9870 0.9870 0.9860
1429.368348 0.9840 0.9810 0.9800 0.9800 0.9800
1433.764600 0.9800 0.9790 0.9790 0.9790 0.9790
1438.160853 0.9770 0.9770 0.9760 0.9750 0.9750
1442.557105 0.9730 0.9720 0.9700 0.9700 0.9690
1446.953358 0.9690 0.9680 0.9680 0.9680 0.9630
1451.349611 0.9590 0.9570 0.9550 0.9520 0.9470
1455.745863 0.9450 0.9430 0.9410 0.9410 0.9400
1460.142116 0.9340 0.9250 0.9140 0.9030 0.8940
1464.538368 0.8900 0.8900 0.8870 0.8820 0.8750
1468.934621 0.8730 0.8510 0.8440 0.8350 0.8330
1473.330873 0.8320 0.8260 0.8150 0.8110 0.7950
1477.727126 0.7830 0.7810 0.7630 0.7400 0.7250
1482.123378 0.7090 0.6980 0.6910 0.6750 0.6601
1486.519631 0.6390 0.6210 0.6170 0.6050 0.5920
1490.915883 0.5740 0.5440 0.5131 0.4881 0.4661
1495.312136 0.4550 0.4340 0.4320 0.4030 0.3870
1499.708389 0.3710 0.3540 0.3360 0.3141 0.2951
1504.104641 0.2650 0.2530 0.2500 0.2380 0.2380
1508.500894 0.2350 0.2310 0.2270 0.2100 0.1891
1512.897146 0.1670 0.1520 0.1480 0.1350 0.1260
1517.293399 0.1200 0.1170 0.0990 0.0910 0.0880
1521.689651 0.0870 0.0850 0.0840 0.0800 0.0770
1526.085904 0.0650 0.0630 0.0620 0.0580 0.0520
1530.482156 0.0480 0.0410 0.0380 0.0370 0.0340
1534.878409 0.0330 0.0310 0.0300 0.0290 0.0260
1539.274661 0.0220 0.0220 0.0200 0.0200 0.0200
1543.670914 0.0200 0.0190 0.0190 0.0160 0.0130
1548.067167 0.0130 0.0120 0.0090 0.0090 0.0090
1552.463419 0.0090 0.0080 0.0080 0.0080 0.0080
1556.859672 0.0080 0.0080 0.0080 0.0080 0.0090
1561.255924 0.0090 0.0090 0.0090 0.0090 0.0110
1565.652177 0.0110 0.0120 0.0130 0.0130 0.0150
1570.048429 0.0160 0.0160 0.0190 0.0220 0.0240
1574.444682 0.0290 0.0290 0.0300 0.0300 0.0310
1578.840934 0.0330 0.0330 0.0340 0.0360 0.0360
1583.237187 0.0360 0.0370 0.0380 0.0400 0.0420
1587.633439 0.0470 0.0490 0.0520 0.0590 0.0660
1592.029692 0.0730 0.0800 0.0830 0.0870 0.0940
1596.425945 0.1020 0.1100 0.1210 0.1410 0.1629
1600.822197 0.1890 0.2130 0.2360 0.2570 0.2750
1605.218450 0.2860 0.3179 0.3310 0.3619 0.3959
1609.614702 0.4260 0.4480 0.4810 0.5130 0.5420
1614.010955 0.5470 0.5490 0.5740 0.5900 0.6050
1618.407207 0.6190 0.6370 0.6520 0.6780 0.7090
1622.803460 0.7250 0.7400 0.7420 0.7520 0.7669
1627.199712 0.7780 0.7950 0.8040 0.8140 0.8260
1631.595965 0.8360 0.8470 0.8570 0.8620 0.8690
1635.992217 0.8720 0.8750 0.8820 0.8850 0.8900
1640.388470 0.8960 0.9050 0.9150 0.9230 0.9260
1644.784723 0.9320 0.9340 0.9360 0.9360 0.9370
1649.180975 0.9400 0.9440 0.9480 0.9520 0.9570
1653.577228 0.9570 0.9580 0.9630 0.9660 0.9720
1657.973480 0.9730 0.9760 0.9800 0.9840 0.9870
1662.369733 0.9900 0.9910 0.9930 0.9930 0.9940
1666.765985 0.9970 0.9980 0.9980 1.0000 1.0010
1671.162238 1.0020 1.0050 1.0050 1.0060 1.0080
1675.558490 1.0080 1.0090 1.0110 1.0110 1.0110
1679.954743 1.0110 1.0120 1.0130 1.0130 1.0150
1684.350995 1.0160 1.0180 1.0200 1.0200 1.0200
1688.747248 1.0200 1.0220 1.0220 1.0220 1.0230
1693.143500 1.0230 1.0230 1.0230 1.0230 1.0240
1697.539753 1.0240 1.0240 1.0240 1.0240 1.0260
1701.936006 1.0260 1.0260 1.0260 1.0270 1.0270
1706.332258 1.0270 1.0270 1.0270 1.0290 1.0290
1710.728511 1.0290 1.0290 1.0290 1.0290 1.0290
1715.124763 1.0290 1.0290 1.0290 1.0290 1.0290
1719.521016 1.0290 1.0290 1.0300 1.0310 1.0310
1723.917268 1.0310 1.0310 1.0310 1.0310 1.0310
1728.313521 1.0310 1.0310 1.0310 1.0310 1.0310
1732.709773 1.0310 1.0330 1.0330 1.0330 1.0340
1737.106026 1.0360 1.0360 1.0360 1.0340 1.0330
1741.502278 1.0330 1.0330 1.0330 1.0330 1.0310
1745.898531 1.0310 1.0330 1.0330 1.0330 1.0310
1750.294784 1.0310 1.0330 1.0330 1.0340 1.0340
1754.691036 1.0340 1.0340 1.0340 1.0340 1.0340
1759.087289 1.0340 1.0340 1.0340 1.0330 1.0310
1763.483541 1.0300 1.0310 1.0300 1.0300 1.0290
1767.879794 1.0300 1.0300 1.0300 1.0290 1.0300
1772.276046 1.0300 1.0310 1.0310 1.0310 1.0300
1776.672299 1.0290 1.0290 1.0260 1.0270 1.0270
1781.068551 1.0270 1.0260 1.0260 1.0240 1.0240
1785.464804 1.0240 1.0230 1.0230 1.0220 1.0220
1789.861056 1.0220 1.0190 1.0190 1.0180 1.0160
1794.257309 1.0160 1.0160 1.0150 1.0130 1.0130
1798.653562 1.0110 1.0060 1.0060 1.0040 1.0040
1803.049814 1.0040 1.0020 1.0020 1.0020 1.0000
1807.446067 1.0000 0.9980 0.9950 0.9930 0.9910
1811.842319 0.9900 0.9900 0.9900 0.9880 0.9860
1816.238572 0.9830 0.9830 0.9810 0.9810 0.9800
1820.634824 0.9790 0.9770 0.9760 0.9760 0.9750
1825.031077 0.9730 0.9720 0.9700 0.9700 0.9700
1829.427329 0.9690 0.9690 0.9690 0.9690 0.9680
1833.823582 0.9680 0.9680 0.9660 0.9650 0.9630
1838.219834 0.9620 0.9610 0.9590 0.9580 0.9570
1842.616087 0.9570 0.9570 0.9570 0.9570 0.9570
1847.012340 0.9570 0.9550 0.9550 0.9550 0.9540
1851.408592 0.9520 0.9470 0.9450 0.9440 0.9430
1855.804845 0.9430 0.9430 0.9430 0.9430 0.9430
1860.201097 0.9430 0.9430 0.9440 0.9450 0.9450
1864.597350 0.9470 0.9480 0.9480 0.9540 0.9540
1868.993602 0.9580 0.9610 0.9630 0.9660 0.9690
1873.389855 0.9720 0.9730 0.9750 0.9760 0.9770
1877.786107 0.9800 0.9800 0.9810 0.9870 0.9900
1882.182360 0.9910 0.9910 0.9910 0.9930 0.9930
1886.578612 0.9940 0.9950 0.9950 1.0000 0.9980
1890.974865 1.0000 1.0000 1.0000 1.0000 1.0000
1895.371118 1.0000 1.0000 1.0000 1.0000 1.0000
1899.767370 1.0000 1.0000 1.0010 1.0010 1.0010
1904.163623 1.0000 1.0010 1.0010 1.0020 1.0020
1908.559875 1.0020 1.0040 1.0040 1.0040 1.0050
1912.956128 1.0050 1.0060 1.0060 1.0080 1.0080
1917.352380 1.0090 1.0090 1.0110 1.0120 1.0130
1921.748633 1.0150 1.0160 1.0180 1.0190 1.0190
1926.144885 1.0200 1.0200 1.0200 1.0200 1.0200
1930.541138 1.0200 1.0220 1.0220 1.0220 1.0220
1934.937390 1.0220 1.0220 1.0220 1.0220 1.0220
1939.333643 1.0200 1.0200 1.0200 1.0190 1.0190
1943.729895 1.0180 1.0180 1.0160 1.0150 1.0150
1948.126148 1.0150 1.0130 1.0130 1.0120 1.0120
1952.522401 1.0110 1.0110 1.0090 1.0090 1.0080
1956.918653 1.0080 1.0060 1.0060 1.0050 1.0050
1961.314906 1.0020 1.0020 1.0010 1.0010 1.0010
1965.711158 1.0010 1.0000 1.0000 0.9980 0.9970
1970.107411 0.9950 0.9940 0.9930 0.9930 0.9910
1974.503663 0.9900 0.9900 0.9880 0.9880 0.9870
1978.899916 0.9870 0.9860 0.9860 0.9840 0.9840
1983.296168 0.9830 0.9810 0.9810 0.9800 0.9800
1987.692421 0.9790 0.9790 0.9770 0.9770 0.9760
1992.088673 0.9730 0.9720 0.9700 0.9700 0.9690
1996.484926 0.9680 0.9660 0.9630 0.9620 0.9590
2000.881179 0.9590 0.9590 0.9585 0.9580 0.9575
2005.277431 0.9570 0.9570 0.9570 0.9560 0.9550
2009.673684 0.9550 0.9550 0.9550 0.9550 0.9560
2014.069936 0.9570 0.9575 0.9580 0.9585 0.9590
2018.466189 0.9600 0.9610 0.9620 0.9630 0.9640
2022.862441 0.9650 0.9670 0.9690 0.9710 0.9730
2027.258694 0.9765 0.9800 0.9815 0.9830 0.9850
2031.654946 0.9870 0.9875 0.9880 0.9890 0.9900
2036.051199 0.9905 0.9910 0.9920 0.9930 0.9935
2040.447451 0.9940 0.9945 0.9950 0.9960 0.9970
2044.843704 0.9975 0.9980 0.9980 0.9980 0.9990
2049.239957 1.0000 1.0000 1.0000 1.0000 1.0000
2053.636209 1.0005 1.0010 1.0010 1.0010 1.0025
2058.032462 1.0040 1.0040 1.0040 1.0045 1.0050
2062.428714 1.0055 1.0060 1.0060 1.0060 1.0070
2066.824967 1.0080 1.0085 1.0090 1.0105 1.0120
2071.221219 1.0135 1.0150 1.0165 1.0180 1.0200
2075.617472 1.0220 1.0220 1.0220 1.0225 1.0230
2080.013724 1.0235 1.0240 1.0255 1.0270 1.0270
2084.409977 1.0270 1.0280 1.0290 1.0295 1.0300
2088.806229 1.0305 1.0310 1.0320 1.0330 1.0335
2093.202482 1.0340 1.0340 1.0340 1.0350 1.0360
2097.598735 1.0360 1.0360 1.0365 1.0370 1.0370
2101.994987 1.0370 1.0375 1.0380 1.0380 1.0380
2106.391240 1.0390 1.0400 1.0400 1.0400 1.0405
2110.787492 1.0410 1.0415 1.0420 1.0420 1.0420
2115.183745 1.0420 1.0420 1.0420 1.0420 1.0420
2119.579997 1.0420 1.0420 1.0420 1.0420 1.0420
2123.976250 1.0420 1.0420 1.0420 1.0420 1.0420
2128.372502 1.0420 1.0420 1.0420 1.0420 1.0420
2132.768755 1.0420 1.0420 1.0420 1.0420 1.0420
2137.165007 1.0420 1.0420 1.0420 1.0420 1.0420
2141.561260 1.0420 1.0420 1.0420 1.0420 1.0420
2145.957513 1.0420 1.0420 1.0420 1.0420 1.0420
2150.353765 1.0420 1.0420 1.0420 1.0420 1.0420
2154.750018 1.0420 1.0420 1.0420 1.0420 1.0420
2159.146270 1.0420 1.0420 1.0420 1.0420 1.0420
2163.542523 1.0420 1.0420 1.0420 1.0420 1.0420
2167.938775 1.0420 1.0420 1.0420 1.0420 1.0420
2172.335028 1.0420 1.0420 1.0420 1.0420 1.0420
2176.731280 1.0415 1.0410 1.0410 1.0410 1.0410
2181.127533 1.0410 1.0410 1.0410 1.0410 1.0410
2185.523785 1.0410 1.0410 1.0405 1.0400 1.0400
2189.920038 1.0400 1.0400 1.0400 1.0400 1.0400
2194.316291 1.0400 1.0400 1.0385 1.0370 1.0370
2198.712543 1.0370 1.0370 1.0370 1.0365 1.0360
2203.108796 1.0350 1.0340 1.0340 1.0340 1.0340
2207.505048 1.0340 1.0335 1.0330 1.0330 1.0330
2211.901301 1.0320 1.0310 1.0305 1.0300 1.0295
2216.297553 1.0290 1.0290 1.0290 1.0290 1.0290
2220.693806 1.0280 1.0270 1.0265 1.0260 1.0250
2225.090058 1.0240 1.0235 1.0230 1.0230 1.0230
2229.486311 1.0230 1.0230 1.0225 1.0219 1.0199
2233.882563 1.0180 1.0170 1.0160 1.0155 1.0150
2238.278816 1.0140 1.0130 1.0120 1.0109 1.0074
2242.675068 1.0040 1.0025 1.0010 0.9994 0.9980
2247.071321 0.9975 0.9969 0.9934 0.9899 0.9864
2251.467574 0.9829 0.9799 0.9769 0.9749 0.9729
2255.863826 0.9694 0.9659 0.9624 0.9588 0.9533
2260.260079 0.9479 0.9439 0.9399 0.9364 0.9329
2264.656331 0.9309 0.9288 0.9238 0.9189 0.9169
2269.052584 0.9147 0.9072 0.8998 0.8953 0.8908
2273.448836 0.8869 0.8829 0.8789 0.8749 0.8719
2277.845089 0.8689 0.8649 0.8608 0.8558 0.8507
2282.241341 0.8452 0.8398 0.8363 0.8330 0.8325
2286.637594 0.8318 0.8283 0.8249 0.8214 0.8179
2291.033846 0.8159 0.8140 0.8135 0.8130 0.8120
2295.430099 0.8110 0.8110 0.8110 0.8120 0.8130
2299.826352 0.8135 0.8140 0.8140 0.8140 0.8145
2304.222604 0.8151 0.8166 0.8181 0.8201 0.8221
2308.618857 0.8251 0.8281 0.8296 0.8310 0.8320
2313.015109 0.8331 0.8361 0.8391 0.8411 0.8431
2317.411362 0.8451 0.8471 0.8481 0.8490 0.8495
2321.807614 0.8500 0.8505 0.8511 0.8531 0.8550
2326.203867 0.8560 0.8571 0.8586 0.8600 0.8605
2330.600119 0.8612 0.8652 0.8691 0.8706 0.8721
2334.996372 0.8736 0.8750 0.8755 0.8761 0.8776
2339.392624 0.8791 0.8806 0.8821 0.8841 0.8861
2343.788877 0.8876 0.8891 0.8911 0.8931 0.8946
2348.185130 0.8960 0.8970 0.8981 0.9006 0.9035
2352.581382 0.9110 0.9182 0.9217 0.9251 0.9261
2356.977635 0.9271 0.9281 0.9291 0.9306 0.9320
2361.373887 0.9325 0.9331 0.9351 0.9370 0.9380
2365.770140 0.9390 0.9400 0.9411 0.9426 0.9441
2370.166392 0.9461 0.9482 0.9512 0.9542 0.9582
2374.562645 0.9622 0.9652 0.9681 0.9701 0.9721
2378.958897 0.9741 0.9761 0.9776 0.9791 0.9811
2383.355150 0.9831 0.9856 0.9881 0.9896 0.9911
2387.751402 0.9921 0.9931 0.9941 0.9951 0.9966
2392.147655 0.9981 0.9991 1.0000 1.0000 1.0000
2396.543908 1.0005 1.0010 1.0015 1.0021 1.0031
2400.940160 1.0040 1.0045 1.0050 1.0055 1.0061
2405.336413 1.0071 1.0080 1.0085 1.0091 1.0101
2409.732665 1.0110 1.0115 1.0120 1.0125 1.0131
2414.128918 1.0141 1.0150 1.0155 1.0161 1.0176
2418.525170 1.0190 1.0190 1.0190 1.0190 1.0190
2422.921423 1.0195 1.0200 1.0200 1.0200 1.0200
2427.317675 1.0201 1.0211 1.0220 1.0220 1.0220
2431.713928 1.0220 1.0220 1.0225 1.0230 1.0230
2436.110180 1.0230 1.0230 1.0230 1.0235 1.0240
2440.506433 1.0240 1.0240 1.0240 1.0240 1.0240
2444.902686 1.0241 1.0251 1.0260 1.0260 1.0260
2449.298938 1.0260 1.0260 1.0260 1.0260 1.0260
2453.695191 1.0260 1.0260 1.0260 1.0260 1.0260
2458.091443 1.0260 1.0260 1.0260 1.0260 1.0260
2462.487696 1.0260 1.0260 1.0260 1.0260 1.0260
2466.883948 1.0260 1.0260 1.0260 1.0260 1.0260
2471.280201 1.0260 1.0260 1.0260 1.0260 1.0260
2475.676453 1.0260 1.0260 1.0260 1.0260 1.0260
2480.072706 1.0260 1.0265 1.0269 1.0254 1.0240
2484.468958 1.0240 1.0240 1.0240 1.0240 1.0240
2488.865211 1.0240 1.0240 1.0240 1.0240 1.0240
2493.261464 1.0240 1.0240 1.0240 1.0240 1.0240
2497.657716 1.0240 1.0240 1.0240 1.0240 1.0240
2502.053969 1.0240 1.0240 1.0240 1.0240 1.0240
2506.450221 1.0240 1.0240 1.0240 1.0240 1.0240
2510.846474 1.0235 1.0230 1.0230 1.0230 1.0230
2515.242726 1.0230 1.0230 1.0230 1.0230 1.0230
2519.638979 1.0230 1.0230 1.0230 1.0230 1.0230
2524.035231 1.0230 1.0225 1.0220 1.0220 1.0220
2528.431484 1.0220 1.0220 1.0220 1.0220 1.0220
2532.827736 1.0220 1.0220 1.0220 1.0220 1.0220
2537.223989 1.0220 1.0220 1.0225 1.0230 1.0230
2541.620241 1.0230 1.0230 1.0230 1.0230 1.0230
2546.016494 1.0230 1.0230 1.0230 1.0230 1.0230
2550.412747 1.0230 1.0230 1.0230 1.0225 1.0220
2554.808999 1.0220 1.0220 1.0220 1.0220 1.0225
2559.205252 1.0230 1.0225 1.0220 1.0220 1.0219
2563.601504 1.0209 1.0200 1.0200 1.0200 1.0200
2567.997757 1.0200 1.0200 1.0200 1.0195 1.0190
2572.394009 1.0190 1.0190 1.0190 1.0190 1.0190
2576.790262 1.0190 1.0185 1.0180 1.0180 1.0180
2581.186514 1.0180 1.0180 1.0180 1.0179 1.0169
2585.582767 1.0160 1.0160 1.0160 1.0155 1.0150
2589.979019 1.0150 1.0150 1.0150 1.0150 1.0150
2594.375272 1.0149 1.0139 1.0130 1.0130 1.0130
2598.771525 1.0130 1.0130 1.0125 1.0120 1.0120
2603.167777 1.0120 1.0120 1.0120 1.0115 1.0110
2607.564030 1.0110 1.0110 1.0110 1.0111 1.0115
2611.960282 1.0120 1.0120 1.0120 1.0120 1.0120
2616.356535 1.0115 1.0110 1.0110 1.0110 1.0110
2620.752787 1.0110 1.0110 1.0110 1.0110 1.0110
2625.149040 1.0110 1.0110 1.0110 1.0110 1.0110
2629.545292 1.0110 1.0110 1.0109 1.0099 1.0090
2633.941545 1.0090 1.0090 1.0090 1.0090 1.0090
2638.337797 1.0090 1.0090 1.0091 1.0101 1.0110
2642.734050 1.0110 1.0110 1.0110 1.0111 1.0115
2647.130303 1.0120 1.0115 1.0110 1.0110 1.0109
2651.526555 1.0099 1.0091 1.0101 1.0110 1.0110
2655.922808 1.0110 1.0110 1.0110 1.0110 1.0110
2660.319060 1.0110 1.0110 1.0110 1.0110 1.0110
2664.715313 1.0110 1.0110 1.0110 1.0110 1.0110
2669.111565 1.0110 1.0110 1.0110 1.0109 1.0099
2673.507818 1.0090 1.0090 1.0090 1.0090 1.0090
2677.904070 1.0090 1.0090 1.0090 1.0090 1.0085
2682.300323 1.0080 1.0080 1.0080 1.0080 1.0080
2686.696575 1.0080 1.0080 1.0080 1.0080 1.0080
2691.092828 1.0080 1.0080 1.0080 1.0080 1.0080
2695.489081 1.0080 1.0080 1.0080 1.0079 1.0069
2699.885333 1.0060 1.0060 1.0060 1.0060 1.0059
2704.281586 1.0054 1.0050 1.0050 1.0050 1.0050
2708.677838 1.0049 1.0044 1.0040 1.0040 1.0040
2713.074091 1.0040 1.0040 1.0040 1.0040 1.0040
2717.470343 1.0040 1.0040 1.0040 1.0040 1.0040
2721.866596 1.0040 1.0039 1.0029 1.0020 1.0020
2726.262848 1.0020 1.0020 1.0019 1.0014 1.0010
2730.659101 1.0010 1.0010 1.0010 1.0010 1.0010
2735.055353 1.0010 1.0010 1.0010 1.0010 1.0010
2739.451606 1.0010 1.0010 1.0010 1.0011 1.0016
2743.847859 1.0019 1.0014 1.0010 1.0010 1.0010
2748.244111 1.0010 1.0010 1.0010 1.0009 1.0004
2752.640364 1.0000 1.0000 0.9999 0.9989 0.9980
2757.036616 0.9980 0.9981 0.9991 1.0000 1.0000
2761.432869 1.0000 1.0000 1.0000 1.0000 1.0001
2765.829121 1.0006 1.0010 1.0010 1.0010 1.0010
2770.225374 1.0011 1.0016 1.0020 1.0020 1.0020
2774.621626 1.0020 1.0020 1.0020 1.0020 1.0020
2779.017879 1.0020 1.0020 1.0020 1.0020 1.0020
2783.414131 1.0020 1.0020 1.0020 1.0020 1.0020
2787.810384 1.0020 1.0020 1.0020 1.0020 1.0019
2792.206636 1.0014 1.0010 1.0010 1.0010 1.0010
2796.602889 1.0010 1.0010 1.0011 1.0016 1.0020
2800.999142 1.0020 1.0020 1.0020 1.0020 1.0020
2805.395394 1.0020 1.0020 1.0020 1.0020 1.0021
2809.791647 1.0031 1.0040 1.0040 1.0040 1.0040
2814.187899 1.0041 1.0046 1.0049 1.0044 1.0040
2818.584152 1.0040 1.0040 1.0040 1.0040 1.0040
2822.980404 1.0040 1.0040 1.0040 1.0040 1.0040
2827.376657 1.0040 1.0040 1.0040 1.0040 1.0040
2831.772909 1.0040 1.0040 1.0040 1.0040 1.0040
2836.169162 1.0040 1.0040 1.0040 1.0040 1.0040
2840.565414 1.0040 1.0040 1.0040 1.0040 1.0040
2844.961667 1.0040 1.0040 1.0040 1.0040 1.0040
2849.357920 1.0040 1.0040 1.0040 1.0040 1.0040
2853.754172 1.0040 1.0040 1.0040 1.0040 1.0040
2858.150425 1.0041 1.0046 1.0050 1.0050 1.0051
2862.546677 1.0056 1.0059 1.0054 1.0051 1.0056
2866.942930 1.0060 1.0060 1.0060 1.0060 1.0060
2871.339182 1.0060 1.0060 1.0060 1.0060 1.0060
2875.735435 1.0060 1.0060 1.0061 1.0071 1.0079
2880.131687 1.0069 1.0060 1.0060 1.0062 1.0072
2884.527940 1.0080 1.0080 1.0079 1.0069 1.0060
2888.924192 1.0060 1.0060 1.0060 1.0059 1.0054
2893.320445 1.0050 1.0050 1.0049 1.0044 1.0040
2897.716698 1.0040 1.0039 1.0029 1.0020 1.0020
2902.112950 1.0020 1.0020 1.0019 1.0014 1.0010
2906.509203 1.0010 1.0008 0.9993 0.9980 0.9980
2910.905455 0.9980 0.9980 0.9979 0.9974 0.9970
2915.301708 0.9970 0.9970 0.9970 0.9968 0.9958
2919.697960 0.9950 0.9950 0.9949 0.9944 0.9940
2924.094213 0.9940 0.9940 0.9940 0.9940 0.9940
2928.490465 0.9940 0.9940 0.9940 0.9940 0.9940
2932.886718 0.9940 0.9940 0.9940 0.9939 0.9934
2937.282970 0.9931 0.9936 0.9940 0.9940 0.9940
2941.679223 0.9940 0.9940 0.9940 0.9940 0.9940
2946.075476 0.9940 0.9940 0.9941 0.9946 0.9950
2950.471728 0.9950 0.9952 0.9962 0.9970 0.9970
2954.867981 0.9971 0.9976 0.9980 0.9980 0.9982
2959.264233 0.9992 1.0000 1.0000 1.0000 1.0000
2963.660486 1.0001 1.0006 1.0010 1.0010 1.0010
2968.056738 1.0010 1.0010 1.0010 1.0010 1.0010
2972.452991 1.0010 1.0010 1.0010 1.0010 1.0010
2976.849243 1.0010 1.0010 1.0010 1.0010 1.0010
2981.245496 1.0010 1.0010 1.0010 1.0010 1.0010
2985.641748 1.0010 1.0010 1.0010 1.0010 1.0010
2990.038001 1.0010 1.0010 1.0010 1.0010 1.0010
2994.434254 1.0010 1.0010 1.0010 1.0010 1.0010
2998.830506 1.0010 1.0010 1.0009 1.0004 1.0000
3003.226759 1.0000 1.0000 1.0000 0.9998 0.9988
3007.623011 0.9980 0.9980 0.9980 0.9980 0.9980
3012.019264 0.9980 0.9979 0.9974 0.9970 0.9970
3016.415516 0.9970 0.9970 0.9970 0.9970 0.9968
3020.811769 0.9958 0.9949 0.9944 0.9939 0.9934
3025.208021 0.9930 0.9930 0.9930 0.9930 0.9930
3029.604274 0.9930 0.9930 0.9930 0.9930 0.9930
3034.000526 0.9930 0.9930 0.9930 0.9930 0.9930
3038.396779 0.9930 0.9930 0.9930 0.9928 0.9918
3042.793032 0.9910 0.9910 0.9910 0.9910 0.9910
3047.189284 0.9910 0.9910 0.9910 0.9910 0.9910
3051.585537 0.9910 0.9910 0.9910 0.9910 0.9910
3055.981789 0.9910 0.9909 0.9904 0.9900 0.9900
3060.378042 0.9900 0.9900 0.9900 0.9900 0.9900
3064.774294 0.9900 0.9900 0.9900 0.9898 0.9888
3069.170547 0.9880 0.9880 0.9879 0.9874 0.9870
3073.566799 0.9870 0.9869 0.9864 0.9860 0.9860
3077.963052 0.9860 0.9860 0.9861 0.9866 0.9869
3082.359304 0.9864 0.9860 0.9860 0.9858 0.9848
3086.755557 0.9842 0.9852 0.9860 0.9860 0.9860
3091.151809 0.9860 0.9860 0.9860 0.9860 0.9860
3095.548062 0.9860 0.9860 0.9860 0.9860 0.9860
3099.944315 0.9860 0.9860 0.9860 0.9860 0.9860
3104.340567 0.9860 0.9860 0.9860 0.9860 0.9860
3108.736820 0.9860 0.9860 0.9860 0.9860 0.9860
3113.133072 0.9860 0.9860 0.9860 0.9860 0.9860
3117.529325 0.9860 0.9860 0.9860 0.9860 0.9860
3121.925577 0.9860 0.9860 0.9860 0.9860 0.9861
3126.321830 0.9866 0.9870 0.9870 0.9870 0.9870
3130.718082 0.9870 0.9870 0.9870 0.9870 0.9870
3135.114335 0.9870 0.9870 0.9870 0.9870 0.9870
3139.510587 0.9870 0.9870 0.9870 0.9870 0.9870
3143.906840 0.9870 0.9870 0.9870 0.9870 0.9870
3148.303093 0.9870 0.9870 0.9870 0.9870 0.9870
3152.699345 0.9870 0.9870 0.9870 0.9870 0.9870
3157.095598 0.9870 0.9870 0.9870 0.9870 0.9870
3161.491850 0.9870 0.9870 0.9870 0.9871 0.9876
3165.888103 0.9880 0.9880 0.9880 0.9880 0.9880
3170.284355 0.9880 0.9880 0.9880 0.9880 0.9880
3174.680608 0.9880 0.9880 0.9880 0.9880 0.9880
3179.076860 0.9880 0.9880 0.9880 0.9880 0.9880
3183.473113 0.9880 0.9880 0.9880 0.9880 0.9880
3187.869365 0.9880 0.9880 0.9880 0.9880 0.9880
3192.265618 0.9880 0.9880 0.9880 0.9880 0.9880
3196.661871 0.9880 0.9879 0.9874 0.9870 0.9870
3201.058123 0.9870 0.9870 0.9870 0.9870 0.9870
3205.454376 0.9870 0.9869 0.9864 0.9860 0.9860
3209.850628 0.9860 0.9860 0.9860 0.9860 0.9860
3214.246881 0.9860 0.9858 0.9848 0.9840 0.9840
3218.643133 0.9840 0.9840 0.9839 0.9834 0.9830
3223.039386 0.9830 0.9830 0.9830 0.9830 0.9830
3227.435638 0.9830 0.9830 0.9830 0.9830 0.9830
3231.831891 0.9830 0.9830 0.9830 0.9830 0.9830
3236.228143 0.9830 0.9830 0.9830 0.9830 0.9830
3240.624396 0.9830 0.9830 0.9830 0.9830 0.9830
3245.020649 0.9831 0.9836 0.9840 0.9840 0.9840
3249.416901 0.9840 0.9840 0.9840 0.9839 0.9834
3253.813154 0.9830 0.9830 0.9828 0.9818 0.9809
3258.209406 0.9804 0.9800 0.9800 0.9800 0.9800
3262.605659 0.9800 0.9800 0.9800 0.9800 0.9801
3267.001911 0.9806 0.9810 0.9810 0.9810 0.9810
3271.398164 0.9810 0.9810 0.9810 0.9810 0.9809
3275.794416 0.9804 0.9800 0.9800 0.9800 0.9800
3280.190669 0.9800 0.9800 0.9800 0.9800 0.9800
3284.586921 0.9800 0.9799 0.9794 0.9790 0.9790
3288.983174 0.9790 0.9790 0.9790 0.9790 0.9790
3293.379427 0.9790 0.9788 0.9778 0.9770 0.9770
3297.775679 0.9770 0.9770 0.9770 0.9770 0.9770
3302.171932 0.9770 0.9770 0.9770 0.9769 0.9764
3306.568184 0.9760 0.9760 0.9760 0.9760 0.9760
3310.964437 0.9760 0.9759 0.9754 0.9750 0.9750
3315.360689 0.9750 0.9750 0.9750 0.9750 0.9750
3319.756942 0.9750 0.9750 0.9750 0.9750 0.9750
3324.153194 0.9750 0.9750 0.9750 0.9750 0.9748
3328.549447 0.9738 0.9730 0.9730 0.9730 0.9730
3332.945699 0.9730 0.9730 0.9730 0.9730 0.9730
3337.341952 0.9730 0.9730 0.9730 0.9729 0.9724
3341.738205 0.9720 0.9720 0.9720 0.9720 0.9720
3346.134457 0.9720 0.9720 0.9720 0.9720 0.9720
3350.530710 0.9720 0.9720 0.9718 0.9708 0.9700
3354.926962 0.9700 0.9700 0.9700 0.9700 0.9700
3359.323215 0.9700 0.9700 0.9700 0.9700 0.9699
3363.719467 0.9694 0.9690 0.9690 0.9690 0.9690
3368.115720 0.9690 0.9690 0.9690 0.9690 0.9690
3372.511972 0.9690 0.9689 0.9684 0.9680 0.9680
3376.908225 0.9680 0.9680 0.9680 0.9680 0.9680
3381.304477 0.9680 0.9678 0.9668 0.9660 0.9660
3385.700730 0.9660 0.9660 0.9660 0.9660 0.9659
3390.096982 0.9654 0.9650 0.9650 0.9650 0.9650
3394.493235 0.9650 0.9650 0.9650 0.9650 0.9650
3398.889488 0.9650 0.9650 0.9650 0.9650 0.9650
3403.285740 0.9650 0.9650 0.9650 0.9650 0.9650
3407.681993 0.9650 0.9650 0.9650 0.9650 0.9650
3412.078245 0.9650 0.9650 0.9650 0.9650 0.9650
3416.474498 0.9650 0.9650 0.9650 0.9650 0.9650
3420.870750 0.9650 0.9650 0.9650 0.9650 0.9650
3425.267003 0.9650 0.9650 0.9650 0.9650 0.9650
3429.663255 0.9650 0.9650 0.9650 0.9650 0.9650
3434.059508 0.9650 0.9650 0.9650 0.9650 0.9650
3438.455760 0.9650 0.9650 0.9650 0.9650 0.9650
3442.852013 0.9650 0.9650 0.9650 0.9650 0.9650
3447.248266 0.9650 0.9650 0.9650 0.9650 0.9650
3451.644518 0.9650 0.9650 0.9650 0.9650 0.9650
3456.040771 0.9650 0.9650 0.9650 0.9650 0.9650
3460.437023 0.9650 0.9650 0.9650 0.9650 0.9650
3464.833276 0.9650 0.9650 0.9650 0.9650 0.9650
3469.229528 0.9650 0.9650 0.9650 0.9650 0.9650
3473.625781 0.9650 0.9650 0.9650 0.9650 0.9650
3478.022033 0.9650 0.9650 0.9650 0.9650 0.9650
3482.418286 0.9650 0.9650 0.9650 0.9650 0.9650
3486.814538 0.9650 0.9651 0.9656 0.9660 0.9660
3491.210791 0.9662 0.9672 0.9680 0.9680 0.9680
3495.607044 0.9680 0.9680 0.9680 0.9680 0.9680
3500.003296 0.9680 0.9680 0.9681 0.9686 0.9690
3504.399549 0.9690 0.9690 0.9690 0.9690 0.9690
3508.795801 0.9690 0.9690 0.9690 0.9690 0.9691
3513.192054 0.9696 0.9700 0.9700 0.9700 0.9700
3517.588306 0.9699 0.9694 0.9690 0.9690 0.9690
3521.984559 0.9690 0.9690 0.9690 0.9690 0.9690
3526.380811 0.9691 0.9696 0.9702 0.9713 0.9717
3530.777064 0.9707 0.9700 0.9700 0.9700 0.9700
3535.173316 0.9700 0.9700 0.9700 0.9700 0.9700
3539.569569 0.9700 0.9700 0.9700 0.9700 0.9700
3543.965822 0.9700 0.9700 0.9700 0.9700 0.9700
3548.362074 0.9700 0.9700 0.9700 0.9700 0.9700
3552.758327 0.9700 0.9700 0.9700 0.9700 0.9700
3557.154579 0.9700 0.9700 0.9700 0.9700 0.9700
3561.550832 0.9700 0.9700 0.9700 0.9700 0.9700
3565.947084 0.9700 0.9700 0.9700 0.9700 0.9700
3570.343337 0.9700 0.9700 0.9700 0.9700 0.9700
3574.739589 0.9700 0.9700 0.9700 0.9700 0.9700
3579.135842 0.9700 0.9700 0.9700 0.9700 0.9699
3583.532094 0.9694 0.9690 0.9690 0.9690 0.9690
3587.928347 0.9690 0.9690 0.9690 0.9690 0.9690
3592.324600 0.9690 0.9690 0.9690 0.9690 0.9690
3596.720852 0.9690 0.9690 0.9690 0.9690 0.9690
3601.117105 0.9690 0.9689 0.9684 0.9680 0.9680
3605.513357 0.9680 0.9680 0.9680 0.9680 0.9680
3609.909610 0.9680 0.9677 0.9667 0.9660 0.9660
3614.305862 0.9660 0.9660 0.9660 0.9660 0.9659
3618.702115 0.9654 0.9647 0.9637 0.9630 0.9630
3623.098367 0.9630 0.9630 0.9630 0.9630 0.9633
3627.494620 0.9643 0.9650 0.9650 0.9650 0.9650
3631.890872 0.9650 0.9650 0.9651 0.9656 0.9660
3636.287125 0.9660 0.9660 0.9660 0.9660 0.9660
3640.683377 0.9660 0.9660 0.9660 0.9660 0.9660
3645.079630 0.9660 0.9659 0.9654 0.9650 0.9650
3649.475883 0.9651 0.9656 0.9660 0.9660 0.9660
3653.872135 0.9660 0.9660 0.9660 0.9660 0.9660
3658.268388 0.9660 0.9660 0.9660 0.9660 0.9660
3662.664640 0.9660 0.9659 0.9654 0.9650 0.9650
3667.060893 0.9650 0.9650 0.9647 0.9637 0.9630
3671.457145 0.9630 0.9630 0.9630 0.9630 0.9630
3675.853398 0.9633 0.9643 0.9650 0.9650 0.9651
3680.249650 0.9656 0.9659 0.9654 0.9650 0.9650
3684.645903 0.9647 0.9637 0.9630 0.9630 0.9629
3689.042155 0.9624 0.9620 0.9620 0.9616 0.9601
3693.438408 0.9590 0.9590 0.9589 0.9584 0.9579
3697.834661 0.9574 0.9567 0.9557 0.9550 0.9550
3702.230913 0.9549 0.9544 0.9537 0.9527 0.9519
3706.627166 0.9514 0.9506 0.9491 0.9479 0.9474
3711.023418 0.9467 0.9457 0.9450 0.9450 0.9449
3715.419671 0.9444 0.9440 0.9440 0.9440 0.9440
3719.815923 0.9440 0.9440 0.9440 0.9440 0.9441
3724.212176 0.9446 0.9453 0.9463 0.9471 0.9476
3728.608428 0.9483 0.9493 0.9501 0.9506 0.9510
3733.004681 0.9510 0.9511 0.9516 0.9520 0.9520
3737.400933 0.9523 0.9533 0.9541 0.9546 0.9550
3741.797186 0.9550 0.9550 0.9550 0.9550 0.9550
3746.193439 0.9553 0.9563 0.9570 0.9570 0.9570
3750.589691 0.9570 0.9570 0.9570 0.9570 0.9570
3754.985944 0.9570 0.9570 0.9570 0.9570 0.9570
3759.382196 0.9570 0.9570 0.9570 0.9567 0.9557
3763.778449 0.9550 0.9550 0.9550 0.9550 0.9550
3768.174701 0.9550 0.9550 0.9550 0.9550 0.9550
3772.570954 0.9550 0.9550 0.9550 0.9550 0.9550
3776.967206 0.9550 0.9550 0.9550 0.9550 0.9550
3781.363459 0.9550 0.9550 0.9550 0.9550 0.9550
3785.759711 0.9550 0.9550 0.9550 0.9550 0.9550
3790.155964 0.9550 0.9550 0.9550 0.9550 0.9550
3794.552217 0.9550
##END=
