##TITLE=Carbon Tetrachloride
##JCAMP-DX=4.24
##DATA TYPE=INFRARED SPECTRUM
##CLASS=IUPAC A
##ORIGIN=NIST, Analytical Chemistry Division, 301-975-3108
##OWNER=COPYRIGHT (C) 2000 by the U.S. Secretary of Commerce
##DATE=00/02/01
##$SPECTRA VERSION=1.10
##$UNCERTAINTY IN Y=2.1 % relative (B=1.1E-04,C=2.7E-09,D=1.4E-13)
##CAS NAME=Carbon tetrachloride
##CAS REGISTRY NO=56-23-5
##MOLFORM=C Cl4
##MP=-22.99 C
##BP=76.54 C
##$NIST SOURCE=QUANT-IR
##SPECTROMETER/DATA SYSTEM=IFS66V (Bruker)
##INSTRUMENT PARAMETERS=KBr Beam Splitter; MCT Detector; Multipass cell
##STATE=gas
##SAMPLE DESCRIPTION=Carbon Tetrachloride Primary Gas Standard
##PRESSURE=101.3 Pa
##TEMPERATURE=23 C
##SAMPLING PROCEDURE=1 L/min Flow
##RESOLUTION=1.9290
##DATA PROCESSING=Boxcar Apodization
##XUNITS=cm-1
##YUNITS=(micromol/mol)-1m-1 (base 10)
##XFACTOR=1.0
##YFACTOR=7.2759E-12
##DELTAX=0.9645
##FIRSTX=575.652
##LASTX=3974.605
##FIRSTY=-2.43E-07
##MAXX=3973.64
##MINX=575.65
##MAXY=.0056828
##MINY=-3.50E-06
##NPOINTS=3526
##XYDATA=(X++(Y..Y))
575.65-33425 172928 46959 18080 86892 38756
580.47 191535 188639 49260 68669-49516-71805
586.26 61982-45368 148328-13131-12478-66006
592.04 4523-1660 58535-134284 99927-101734
597.83 89384-46783 72744-59451 22361-28278
603.62 100759-5956 57660-41769 95015-136798
609.40 56766-29562 112211-106491 114830-100436
615.19 70766-74524 100027 37265 147213 2672
620.97 245074 59869 100098 99259 189298 141788
626.76 238353 58048 189434 96692 271048 54274
632.54 159602-20331 126650-30582 125145-77971
638.33 90702-78735 87107-19539 118702-59156
644.11 46985-73546 79066-111033 100715-101499
649.90 121108-45285 101729-105014 74905-78822
655.68 99221-26029 116589-111648 152701-116575
661.47 82248-98332 95027-88890 107858-127304
667.25 98972-98757 55904-57054 86718-132482
673.04 126733-38602 120889-124381 65971-46634
678.83 84363-100214 139595-108497 133384-83609
684.61 68721-136270 114626-88508 173947-104943
690.40 125572-95823 153212-106867 110289-89994
696.18 204434-106247 126821-95659 185859-74095
701.97 140762-116421 179017-79737 164773-111900
707.75 197828-90133 176754-110764 206552-72363
713.54 198214-131029 216286-133266 257297-115566
719.32 248489-108519 317836-12952 348800-4958
725.11 427481 115739 518913 181939 630263 303146
730.89 857532 494671 1111641 786785 1504185 1244287
736.68 2095391 1965369 2923791 2921576 4114160 4404383
742.47 5976176 6441767 8147796 8750325 11105627 12647430
748.25 15641539 16613006 19882820 22396778 26001437 28092567
754.04 34213135 37101899 40402878 43508443 51999243 52563819
759.82 56518389 60721267 60266674 63635187 81097747 72694868
765.61 69515548 75725381 93553559 109763964 82211678 62667374
771.39 104353481 147627742 84536306 93420097 95543349 103297916
777.18 105725911 109574704 107749023 105931623 98861291 90984846
782.96 79809942 71524263 70853514 85327300 111702895 157892261
788.75 227328165 327637335 451261828 594668953 726885192 764777731
794.53 781049272 722200595 641094905 502190350 325829202 274619972
800.32 210123307 143266150 107279598 80409395 58151963 44883044
806.11 31820658 24463332 16996521 13603248 9478990 8171640
811.89 5667907 5348309 3701631 3721567 2451715 2721410
817.68 1692750 1881676 1020052 1422846 720681 1108200
823.46 462711 817233 290813 655106 114789 544391
829.25 51858 416759 2960 359565-67581 299007
835.03-60855 328094-111616 249934-119019 261749
840.82-114225 206192-105793 230815-76783 223502
846.60-96757 214677-76410 226752-100018 161124
852.39-47056 213705-70577 142251-58098 205054
858.17-68040 147312-57481 178272-56559 161594
863.96-71543 155636-41289 168024-28779 162993
869.75 9346 183229-25215 186123-1541 192066
875.53 8588 170035-2045 194431 26954 176125
881.32 22553 184948 25209 172420 18913 163415
887.10 2679 168162-4205 137975-14791 161092
892.89 14485 145363-20961 132547-7048 142608
898.67-22219 107805-6678 134513-25047 119173
904.46-32764 115918-31830 109804-53643 101903
910.24-13873 82838-44154 90602-35496 90049
916.03-38154 72641-58419 66482-59717 43459
921.81-32521 83936-46544 66694-57760 70317
927.60-30529 71672-67503 69054-28507 79039
933.39-35044 53419-48175 66616-38863 56650
939.17-39878 73300-31311 66389-41190 64656
944.96-18135 88135-28119 78443-12704 77914
950.74-24231 49651-35071 84832 1465 85914
956.53-2458 102599 13327 92969 9363 122542
962.31 52927 162062 75728 175133 95566 216011
968.10 165943 217964 167860 271068 212241 319747
973.88 252216 336131 268595 367628 283236 354059
979.67 297211 391867 289462 370668 314898 400997
985.45 316910 328447 239847 375257 379796 391147
991.24 261676 380673 353526 464751 407210 509123
997.03 458095 558970 534522 610671 553569 659145
1002.81 644094 717136 667861 741955 710838 785888
1008.60 683297 765737 693571 756440 640650 729046
1014.38 644433 661925 622838 649406 547010 570584
1020.17 470048 468594 342091 368537 295828 306060
1025.95 183825 209626 131701 184749 74859 95771
1031.74 5606 82157-2630 41221-36292 20535
1037.52-34059 15118-63878 41412-48428 22023
1043.31-36659 13314-45669 21833-19839 11807
1049.09-46241 18930-8535 52194-38796 13960
1054.88-1244 39405-27060 58987-950 60704
1060.67 17646 73848 28387 85887 42516 95628
1066.45 38032 109766 66684 80356 34428 79329
1072.24 54847 131453 48687 66684 42137 97286
1078.02 54646 57173 27540 55905 9867 50774
1083.81-22732 48910 2176 32968-26025 20775
1089.59-5235 48788 2597 11253-25364 34553
1095.38 1512 44673 11376 62599 13859 60289
1101.16 10537 43121 30031 73697 12695 63169
1106.95 37782 73915 24102 81381 50543 93467
1112.73 50352 97099 44233 112867 75370 81375
1118.52 24623 62573 39402 51542 7931 26606
1124.31 18846 53131 15164-3218-39760 10601
1130.09-17535-32412-59358 12266-53702-20886
1135.88-68182-45299-52293-16793-70667-40598
1141.66-58573-10711-37552-46871-60571-22436
1147.45-42352-25730-65513-15549-27043-19646
1153.23-44919-19902-37907 7586-49734-13000
1159.02-51367 1548-19758-19123-39940-15648
1164.80-9407 6233-44631 6138-29293 23463
1170.59-29788 2222-5792 19010-3743 3095
1176.37-12620 25999 17573 14581-17917 10280
1182.16 4755 39827-17830 14105 30917 52800
1187.95 5424 18552 28314 58706 33346 45657
1193.73 26396 67234 56375 84274 49789 75231
1199.52 75983 103668 68024 109050 100687 140655
1205.30 117298 132419 148026 200543 176543 174599
1211.09 166228 204757 217895 237351 231710 272097
1216.87 296025 290740 253945 240092 277561 339739
1222.66 329636 356845 384359 333102 260933 246544
1228.44 213577 305872 416400 421013 213025 253250
1234.23 246941 273499 240563 284439 298559 335918
1240.01 319778 311393 277404 349900 364958 416022
1245.80 457059 518846 560022 606652 617048 729231
1251.59 774330 858001 884532 884517 894658 984285
1257.37 914140 881672 750919 712254 759417 714159
1263.16 642997 396199 242254 338752 261047 263978
1268.94 207125 196099 140776 156798 152725 169090
1274.73 152252 173677 140944 174608 140530 127044
1280.51 96243 133304 114883 143673 73553 88639
1286.30 53682 96767 48126 35386 11182 45260
1292.08 27593 26555 7680 15457-2841 5570
1297.87-18289 3638 5227 15152-19932-10344
1303.65-17176 683-29062-37946-32256-23390
1309.44-16356-20028-38686-10400-35500-21721
1315.23-45843-41022-51072-26771-40025-37812
1321.01-32155-17702-31676-20919-49500-17207
1326.80-21354-27921-55525-36029-18615-10008
1332.58-29981-41728-27708-9342-28533-36010
1338.37-55997-19984-24515-9921-50257-23839
1344.15-11898 443-48854-43084-36898-13749
1349.94-44746-63847-40569 5398 25124 57140
1355.72 23908 26642 26338-16222-55721-19835
1361.51-25159-33495-2482 4905-5953 15353
1367.29 26001-6643-9749 16748 10479-10566
1373.08-22825 7241 28976 18839 9606 7521
1378.87-5267 50312 6014 2939 3189 27672
1384.65-945-6731-68058 5170-1183 10231
1390.44-2863-1916-2880-49619-31020-19114
1396.22-16012 5212-68342-25727-15938 6880
1402.01-12002-26186-66848-21325-10035-12467
1407.79-35931-26310-16948 3328-24858-35115
1413.58-32151-13397-27406-55116-43668-161397
1419.36-24520-16421-33254-29418-26680-23299
1425.15-35021-27004-33987-16790-58498-23062
1430.93-32272-14825-28581-38105-45328-172979
1436.72-22799-19742-37326-27950-12439-13290
1442.51-19451-37073-30306-7103-41153-77844
1448.29-30340-30646-19700-47002-41317-39050
1454.08-19724-99184-256251-76335-81123-6846
1459.86-34292-35587-38840 1081-100714-46012
1465.65-26795-26498 1249-33582-18150-99259
1471.43-97048-100878-65422-20536-82949 2653
1477.22-33172-15392-28484-22049-24755-15078
1483.00-35663-4965 2226-47589-72440-14947
1488.79-61183-41990-33324 6080-15551 25929
1494.57-64379-139784 19673-37133-12305 29060
1500.36-11996 48862 24652 65195-111413-113681
1506.15-120634 23000 34170 29431 79977 57686
1511.93 72132 97264 66265 132846 66505 77536
1517.72 112361 122196 22560 8834 117758 142379
1523.50 191512 116179 184121 151681 186968 212122
1529.29 265667 246648 255436 198164 202331 294633
1535.07 289857 369148 396557 233615 242474 396069
1540.86 405131 474117 597353 520008 620299 714469
1546.64 768044 786819 810572 833871 942134 954203
1552.43 988151 905736 1110794 1121936 1078050 909840
1558.21 1111334 1040832 1277610 1290770 1290842 1327663
1564.00 1360148 1428953 1420207 1348540 1280512 1218363
1569.79 1356501 1320757 1286789 1180010 1217890 1069149
1575.57 1036314 1285365 1191596 1190840 1139362 1164657
1581.36 1123778 1114888 1096861 1127419 1089948 1068927
1587.14 1066308 1049593 1047608 1060821 1089159 989974
1592.93 1002763 997477 1029078 929627 930064 927935
1598.71 899813 856766 810253 782267 733867 701691
1604.50 635920 582453 532890 505865 447664 388561
1610.28 362109 323803 305253 221115 243352 76703
1616.07-35769 169087 71591 102566 57870 80470
1621.85-2961-48734 21200 14231 4028-57263
1627.64-26716-16735-13703-23480-28809-28563
1633.43-31697-226454-108181-33506-52934-2162
1639.21-34032-24955-30955-2918-26063-33650
1645.00-195128-45435-86128-30527-31498-23910
1650.78-99738-376981-244156-93073-48591-16143
1656.57-44154-43706-39323-32556-37063-89849
1662.35-99330-6448-60092-15741-73073-29585
1668.14-157228-60935-74356-55452-44456-18509
1673.92-159612-116605-29959-48230-41890-64907
1679.71-58778-23114-92026-98640-309190-179281
1685.49 1561-83114-33104-77474-47599-54902
1691.28-21854-74002-12553-156405-320958-27228
1697.07-79595-53263-307796-192990-51665-45463
1702.85-77204-74553-60568-92437-26323-51682
1708.64-43145-71189-39279-50500-45390-89899
1714.42-100176-43219-232336-126987-81529-41376
1720.21-47035-41218-49491-41986-46806-42853
1725.99-36234-37626-35195-70359-63507-43685
1731.78-104268-205279-180827-62695-26923-69045
1737.56-27304-124426-79867-28535-58032-60002
1743.35-39888-45513-44748-60961-59334-79617
1749.13-25756-151175-85028-35620-36337-30265
1754.92-46554-77197-40939-37359-40101-37795
1760.71-105873-47930-19753-35065-18847-18766
1766.49-31873-86292 12482-35862-23898-114123
1772.28-86565 24922-19008 9707 8673 9066
1778.06 14624 9783-13460 24995 7535 30069
1783.85-17470 2584 7624 1871-10878 13871
1789.63-33198-15181-91866-21463 45913 1132
1795.42 33137 11416 43066-17163 10714 14892
1801.20 4990 4286 21865 13534 15744 1407
1806.99-383 5879-9301-21957-20737-25382
1812.77-18467-26806-25373-36082-32914-34150
1818.56-40142-30550-37294-47329-26426-49869
1824.35-79346-38495-37455-37883-62710-102598
1830.13-35611-42373-34919-45749-43931-43180
1835.92-44471-45166-28972-51891-42788-57487
1841.70-23481-105419-114423-17989-40707-52492
1847.49-49840-27265-40879-29311-47552-26973
1853.27-39523-37322-32993-32264-16855-42350
1859.06-32426-39263-43834-29852-20250-39684
1864.84-39057-38056-41972-59868-74569-31673
1870.63-35000-38082-47198-50657-32273-34252
1876.41-33668-44244-30328-33031-37081-57300
1882.20-53031-42396-45551-58895-44908-39987
1887.99-58367-68291-42803-54622-40727-40350
1893.77-54076-65944-43994-50659-53261-52221
1899.56-45086-65089-51507-45153-58423-44824
1905.34-39815-44036-49005-52099-48015-39388
1911.13-21753-43268-31704-35131-31053-47704
1916.91-71129-50808-34510-50991-55255-88133
1922.70-67071-66638-57580-56141-49365-48747
1928.48-42140-54269-50300-58317-37027-59415
1934.27-57597-54533-51209-47500-42275-65530
1940.05-46665-62532-66169-68040-52459-56244
1945.84-35601-49999-54871-50990-36011-48694
1951.63-51129-61810-36372-38589-50817-55417
1957.41-41247-42714-36975-50335-37473-46187
1963.20-47691-44943-49925-54577-41745-29529
1968.98-41871-41370-48185-38675-80965-66197
1974.77-7577-42787-27653-49881-35128-34000
1980.55-32349-35235-41692-48105-39274-40153
1986.34-26648-34951-39352-37946-36693-48817
1992.12-25418-30265-31202-48853-31338-28878
1997.91-19278-40002-25851-37627-22266-22554
2003.69-29978-45264-35827-40427-24107-41771
2009.48-26359-25099-24612-44968-30471-29929
2015.27-21971-31144-35590-48046-25746-35614
2021.05-28686-46427-23227-34709-29332-38790
2026.84-39813-33220-30857-47512-42039-40288
2032.62-35396-41723-37783-47132-25075-41427
2038.41-30419-48765-38795-45247-26629-39149
2044.19-47403-39534-37431-48944-48850-50466
2049.98-30960-33158-38006-47635-41779-44943
2055.76-35078-53179-46343-37627-33407-57907
2061.55-50307-45529-40709-50525-40144-58731
2067.33-37527-43896-48313-51307-46237-43972
2073.12-47095-54973-41034-45792-32061-59255
2078.91-40190-60612-27841-37753-46627-63726
2084.69-29366-34656-55327-49873-51903-30772
2090.48-40268-55958-54544-31701-14638-64267
2096.26-50692-44996 4611-48788-36858-69001
2102.05-13582-36609-44044-60148-27624-11883
2107.83-50640-45179-42006 7279-42820-34672
2113.62-52329 4127-43694-36075-45099 909
2119.40-28022-38642-36430-5688-16593-63755
2125.19-43888-22993-2394-52018-34284-41051
2130.97-17855-55664-33736-39582-5666-43423
2136.76-25571-37342-16156-60844-42461-47923
2142.55-37442-46099-37895-31734-22175-57081
2148.33-41275-31424-21289-50869-35261-34624
2154.12-9532-52307-30752-9816-5963-59024
2159.90-29807-13622-15835-58450-20012 980
2165.69-18956-52977-7958-2937-35903-53534
2171.47 18564-16117-38871-21205 12191-36642
2177.26-25676-4406 15525-42793-12901 17396
2183.04 9697-19426 20840 16784-5105-18690
2188.83 33948 5467 19175 21890 56697 18134
2194.61 46842 56894 57630 22913 74681 74017
2200.40 73886 69930 97020 70597 83381 85881
2206.19 90139 89451 112575 85223 101579 97871
2211.97 99370 82230 101370 84457 83613 61470
2217.76 66467 47674 37505 19598 3879-28147
2223.54-8990 6961 44552 48222 58623 71778
2229.33 117332 96927 128461 127820 150392 139549
2235.11 155325 130250 148438 141282 151297 123534
2240.90 120619 103119 103606 76157 66128 38194
2246.68 56196 21940 12814 2654 17753-10495
2252.47-15598-29494-30912-40615-22639-50281
2258.25-34449-59244-28998-58261-33241-41050
2264.04-46225-42176-47471-57831-36430-58947
2269.83-36118-42770-43924-53770-40240-46416
2275.61-43747-52278-37804-54656-37994-52558
2281.40-37854-52175-30657-49025-35635-47527
2287.18-29788-52313-35859-52635-15621-41601
2292.97-41790-51024-20067-40937-25279-33987
2298.75-22803-46236-27879-34266-21620-45844
2304.54-27532-36661-18910-26583-19380-16497
2310.32-1079-33495-3368-12915-7959-17519
2316.11-12689 4983 9120-6433-1145 1887
2321.89-1295-11971-1243-24053 15927 9305
2327.68 12569 8218 15702-11810-5741-4860
2333.47 1921 106 10324 1984 9748 3613
2339.25 22345-3847 17470-9254 20442-317
2345.04 10095-10910 3535-16061-2087-24817
2350.82-9857-27771-21993-48922-33368-38317
2356.61-44600-56664-36998-56930-34578-54911
2362.39-47946-52960-45423-59939-37773-45511
2368.18-32759-38358-33231-38236-28960-42437
2373.96-30301-53195-30586-41201-24702-46848
2379.75-22438-43911-37503-43641-28786-48197
2385.53-24620-45155-32345-40273-35216-50381
2391.32-41281-41128-42625-46357-41194-55386
2397.11-38810-52816-36610-53404-43989-59033
2402.89-31439-49121-37345-52696-44732-61310
2408.68-35424-54292-50247-59919-42793-60744
2414.46-36381-57968-40288-55941-41056-62629
2420.25-49393-65456-47639-55377-50852-61158
2426.03-52099-74624-41094-52045-53901-59149
2431.82-44783-62563-66101-67641-62394-73387
2437.60-44379-58265-48224-54072-54484-64597
2443.39-55398-68398-50470-70283-49225-70970
2449.17-46490-61930-54226-59568-42007-68493
2454.96-45568-59117-42106-73382-46765-65284
2460.75-48036-69126-52259-56686-41260-62771
2466.53-48527-77251-43232-69614-54417-67801
2472.32-57382-76146-62310-58517-47902-69508
2478.10-47917-66184-39556-58711-57414-52700
2483.89-37670-63079-46240-72218-48090-64075
2489.67-45954-61638-57243-62764-53148-69016
2495.46-55275-64711-47117-71726-51397-74166
2501.24-50202-76340-54650-73914-74460-76533
2507.03-51024-84960-62248-74018-56334-77432
2512.81-66534-70404-63969-81287-58764-79298
2518.60-56198-73878-64782-89411-57579-64878
2524.39-55806-87181-60661-75554-55546-86915
2530.17-63042-69615-54848-80158-64308-87482
2535.96-51696-77194-67992-80604-68135-69631
2541.74-65193-84119-65885-79230-58694-76442
2547.53-55513-68209-59263-86506-78060-87150
2553.31-69312-63762-56610-93283-72883-84379
2559.10-50554-91404-67673-78699-54522-86942
2564.88-69246-85070-66498-75787-65111-84171
2570.67-56355-75044-61264-75748-69520-82060
2576.45-50500-77937-70471-73324-56609-81169
2582.24-58660-86361-62549-81932-61724-90119
2588.03-63053-72662-65133-74101-72035-82082
2593.81-65328-78653-69584-82796-64007-75657
2599.60-64514-86350-60043-81000-53873-76497
2605.38-62580-82688-61230-90425-65789-74818
2611.17-60405-77849-62439-70294-67327-82627
2616.95-56997-83501-63189-79189-51815-79577
2622.74-64894-78829-65280-88219-62533-89233
2628.52-50143-83712-68986-72263-60014-83222
2634.31-64902-73082-70766-85058-57949-83487
2640.09-73637-77546-60378-86632-65750-83882
2645.88-67185-72569-73537-84331-63787-84799
2651.66-77682-88275-75453-83121-67303-88269
2657.45-62757-84250-59745-77664-70800-93084
2663.24-69766-97866-67976-87912-71917-77111
2669.02-77632-84203-73440-73588-77347-85487
2674.81-60145-85165-68447-101018-73969-92279
2680.59-62223-91929-69776-91719-77547-88176
2686.38-73064-94518-79424-86555-68965-94268
2692.16-76428-79222-84468-99780-76282-97127
2697.95-82363-108086-78270-80749-60412-79990
2703.73-55077-85982-75084-101031-84522-102204
2709.52-76726-87467-55432-87830-74134-89343
2715.30-72866-87992-77961-88586-76206-87762
2721.09-65921-104124-65502-86803-69062-88971
2726.88-65409-89618-56131-101473-71321-84472
2732.66-64039-80112-75487-84286-71409-103369
2738.45-71962-83875-68408-94291-57285-92469
2744.23-71799-93263-66561-100466-56777-93074
2750.02-65730-87143-77888-83495-76610-81634
2755.80-65879-86176-66894-108074-63618-78104
2761.59-70939-91166-74050-97938-72019-85835
2767.37-92898-103099-69631-82107-69289-101078
2773.16-71066-96953-72454-100064-74015-91905
2778.94-70141-95598-82011-102670-63289-89044
2784.73-66427-98632-72443-87546-68324-93213
2790.52-77185-95410-70865-96079-80680-84123
2796.30-56194-89607-71770-111274-76363-98763
2802.09-71802-93205-78853-87957-60182-88598
2807.87-75157-84251-72635-95562-74435-83011
2813.66-65421-94435-76905-93615-62520-92774
2819.44-76093-92331-54332-85234-63396-87474
2825.23-71081-90947-59945-92606-76878-103232
2831.01-62357-95538-65760-97254-59338-64891
2836.80-64564-91242-67673-100145-72426-95536
2842.58-75910-81574-56900-91980-51856-91595
2848.37-60341-80506-69874-84328-81562-74187
2854.16-54049-88392-49921-73028-71098-78749
2859.94-78161-79195-64636-70936-73949-103276
2865.73-75142-82013-65017-93839-57409-84589
2871.51-51595-93324-75408-99411-56845-80552
2877.30-68275-93156-56520-87856-77982-95648
2883.08-62443-85383-55611-86933-69390-89602
2888.87-73057-82165-60818-101189-68325-76515
2894.65-73825-113963-66827-81515-58450-100609
2900.44-84647-95441-61276-90762-70054-110143
2906.22-79686-90868-74278-90859-80706-97168
2912.01-58562-91884-84414-92771-89442-121557
2917.80-79601-96044-62516-93272-76310-98352
2923.58-75523-107342-81196-119920-99870-117061
2929.37-85238-116433-71439-95309-65178-99048
2935.15-79251-104143-77576-119214-69587-107210
2940.94-81001-100295-85234-94339-74039-102145
2946.72-96613-115671-74612-100091-69605-104492
2952.51-81417-107391-64826-98504-75636-112665
2958.29-64943-96941-15051-69920-159108-117964
2964.08-101642-98117-72922-89048-81048-97649
2969.86-86189-108188-84614-121616-80481-97899
2975.65-88521-69715-68508-91914-82196-84754
2981.44-85537-89311-89285-101536-67276-85727
2987.22-69973-79244-65161-85402-58320-82956
2993.01-58957-80780-69914-100050-66063-101959
2998.79-62722-86931-59070-82822-61408-87337
3004.58-64681-101801-66587-99658-61730-78668
3010.36-68020-101849-71658-97342-68130-79692
3016.15-81178-109763-70979-79732-61343-93832
3021.93-72854-88951-75062-96012-56592-81941
3027.72-67929-95526-65474-89166-51053-104476
3033.50-73931-102860-69928-77426-66428-114370
3039.29-68590-83474-61082-93058-64925-74747
3045.08-69918-94552-63370-99415-57418-99969
3050.86-74026-96890-79990-91032-62149-102449
3056.65-61979-66492-83012-72642-62067-82512
3062.43-73169-79996-76370-80940-57201-76153
3068.22-34329-87278-49799-74922-56724-92543
3074.00-42337-69459-38846-87545-53160-70996
3079.79-58311-78478-39118-76736-52791-77977
3085.57-39299-82409-45918-58605-34456-60054
3091.36-50964-47147-45169-61287-50306-46309
3097.14-25575-55264-27977-67684-26288-50314
3102.93-26048-35154-23142-42134-25137-53248
3108.72-2534-34191 2540-39904-9900-30241
3114.50 2310-41447 2711-22008 5138-19788
3120.29-1663-24147-1212-20908 21831-2486
3126.07 10103-11659 23926-11319 26082-19921
3131.86 29315 2137 15547 16574 40597 7445
3137.64 33883 171 38148 17733 40216 1159
3143.43 37206 11084 30087 33809 45519 21937
3149.21 32309 32857 35792 31216 73737 28124
3155.00 56667 37995 52010 15549 63324 34447
3160.78 51332 29062 60017 49036 66361 31300
3166.57 41679 32365 50878 45432 53661 36405
3172.36 88676 47092 62644 36073 77234 22271
3178.14 67092 37530 69624 33329 59293 35064
3183.93 72737 50230 78615 43983 57844 42499
3189.71 53567 32307 72204 42198 71456 48813
3195.50 65088 26810 76291 33250 51208 39732
3201.28 81492 39674 76834 48517 69883 52707
3207.07 62442 44761 65044 60118 81388 51814
3212.85 68280 36606 69262 71958 90448 32368
3218.64 71554 34037 65996 34678 75073 58656
3224.42 89783 56298 85364 57748 90690 50239
3230.21 72485 32553 67472 42976 79820 54462
3236.00 82583 38421 74090 45066 67501 51093
3241.78 68148 44543 72268 49000 83201 63997
3247.57 83971 42205 68168 49250 72366 52900
3253.35 59866 36131 61658 58113 66959 47531
3259.14 58491 43951 67053 39480 63914 38081
3264.92 82103 46355 63173 17866 50115 45670
3270.71 53096 35562 43797 38132 53567 35096
3276.49 60262 25492 51654 14997 38799 19906
3282.28 24296 22129 46168 33593 21910 26592
3288.06 47229 8044 38842-10223 38643 3900
3293.85 23910 19160 31357 23524 33876 27182
3299.64 29406 2815 18666-12867 15457 2924
3305.42 37821-8907 20104-34716 35357-18295
3311.21 28942-7271 7492-13344 2924-40640
3316.99 7819-36392-3058-19129 11849-15217
3322.78 15190-9646 15745-20507 8924-17102
3328.56-19759-21093 16084-39507 5938-37126
3334.35-3594-31310 3639-30078-23890-21979
3340.13-12566-22564-24176-49689-3505-30470
3345.92-14378-41347-13301-37667-8292-24610
3351.70-17583-38780-6702-38743-14316-37660
3357.49-25369-46115-32493-53984-25605-57860
3363.28-12436-50283-23058-43474-21847-58830
3369.06-14429-50249-33849-41407-23454-61880
3374.85-29451-62197-18651-60534-38588-52792
3380.63-36592-54574-29460-81406-47114-56129
3386.42-27336-63853-27144-58050-37736-65779
3392.20-58462-64443-28185-60395-43158-68280
3397.99-52268-65230-31733-66180-65267-72891
3403.77-46450-74156-33189-63250-52698-76569
3409.56-59182-74823-41383-71674-46664-66755
3415.34-43194-72204-53405-70867-44230-70375
3421.13-53033-80986-48713-70786-45009-91747
3426.92-48525-90831-31677-100332-53809-79425
3432.70-55231-95002-43169-81747-42747-86620
3438.49-52092-97185-42862-75609-70616-86671
3444.27-73013-71423-67554-72304-69252-71034
3450.06-45879-83035-52737-95779-66818-98041
3455.84-35292-78035-43168-76458-60198-110024
3461.63-46859-97520-75406-79251-66163-111136
3467.41-25699-101157-76606-101873-72699-98772
3473.20-71481-105847-53127-105894-75499-99643
3478.98-42921-86467-67177-104969-87658-104374
3484.77-93531-96023-81132-114568-88061-117916
3490.56-75764-127846-55313-81630-46180-88392
3496.34-54351-104558-74784-103169-93170-128124
3502.13-103719-133766-86365-135796-87007-104403
3507.91-96322-121722-90233-128505-98695-157487
3513.70-78383-123117-92279-108905-93552-138502
3519.48-87652-121622-98265-140016-87212-130486
3525.27-102544-129755-95589-160827-86679-150142
3531.05-97099-140429-92880-119405-95272-139344
3536.84-83898-144616-98763-151851-106836-140928
3542.62-102627-146195-111107-139881-92856-131115
3548.41-115318-160383-108151-152733-108283-139103
3554.20-96874-136007-87719-139609-88363-136947
3559.98-100340-139307-104697-138237-100990-154103
3565.77-105287-150454-123904-115835-101941-118415
3571.55-93069-127447-99748-130586-88432-108779
3577.34-88965-120701-92307-102487-74061-126648
3583.12-119664-120278-116195-166914-129288-182976
3588.91-51668-135383-79961-141757-109936-132702
3594.69-106088-132366-91812-137992-101479-146760
3600.48-109162-125378-98976-120832-99987-132235
3606.26-123982-143436-183724-143137-80610-193863
3612.05-150655-135103-137545-123437-123679-188708
3617.84-134392-223781-98905-139797-83377-179539
3623.62-87376-157468-93662-153784-190624-256426
3629.41-137775-132846-102459-148922-118060-124966
3635.19-94273-127460-102107-138424-84206-133870
3640.98-98788-140060-82148-165267-84644-200352
3646.76-145407-218132-212944-176280-158491-102127
3652.55-122640-139261-150055-241539-139798-142152
3658.33-111419-148715-124392-137913-125960-151414
3664.12-131796-160397-119778-163882-172632-182367
3669.90-307690-141409-140997-169790-213200-332616
3675.69-212661-156826-159343-171424-135376-152062
3681.48-125246-122565-150270-143136-153906-125973
3687.26-325858-242376-123631-261956-124719-164732
3693.05-139235-170744-138253-169346-134111-151849
3698.83-141801-166087-193099-167383-138337-184892
3704.62-139650-168360-150570-167931-215318-147128
3710.40-188535-310717-136149-209046-156707-179899
3716.19-118782-191925-159475-180162-131983-210852
3721.97-161968-203459-166214-180947-183286-170624
3727.76-141961-187294-119096-266043-266992-136112
3733.54-244290-193201-255870-220211-154455-173987
3739.33-158617-193339-173161-151087-411970-419892
3745.12-115652-230402-115085-338865-304751-131262
3750.90-345953-295147-135217-208473-155938-226769
3756.69-167709-198362-194267-208790-125429-191472
3762.47-136911-173164-171747-221354-153292-177795
3768.26-170225-253527-133369-188636-124556-208628
3774.04-132533-202331-150226-184294-172557-220541
3779.83-129982-185676-143334-188310-157478-181516
3785.61-142543-207437-131014-165327-134050-171993
3791.40-136217-189798-139627-184711-167575-226445
3797.18-150614-221142-136024-353870-268613-157409
3802.97-181834-175971-146184-303527-199997-147310
3808.76-152767-160461-166104-172661-180383-150550
3814.54-274635-361823-130831-217238-123770-249561
3820.33-259772-237909-154748-206329-121372-195630
3826.11-161053-202704-158077-172679-181356-239637
3831.90-137636-200471-197905-251387-142395-385890
3837.68-240001-195001-198999-218268-131189-230264
3843.47-178759-205951-155031-192492-147644-193978
3849.25-158767-242437-350625-218484-481888-281864
3855.04-153530-248059-157511-203357-158971-209905
3860.82-225116-200132-145710-258335-223707-208852
3866.61-161929-195028-274754-307174-164760-217438
3872.40-157126-261701-168176-215055-162291-214594
3878.18-186899-265010-226215-204437-181187-208950
3883.97-211901-327001-184096-227783-196499-211816
3889.75-209702-278988-169356-230403-172262-234768
3895.54-175292-229242-186236-303705-162777-274159
3901.32-224887-214255-277632-245996-202614-205494
3907.11-185792-229238-196624-224600-186037-218675
3912.89-193140-212934-177636-252896-222987-218918
3918.68-205212-235923-183242-221078-198815-246488
3924.46-184841-209839-185575-229220-165104-223075
3930.25-180205-240245-188443-200805-202622-246526
3936.04-200115-223143-178892-222274-197677-231349
3941.82-190919-227741-194072-200298-197633-233885
3947.61-194412-204207-160173-194417-159338-230773
3953.39-167752-225728-180340-228866-192681-207312
3959.18-174788-216575-179785-226021-180217-227750
3964.96-171756-235225-184951-233462-178002-229368
3970.75-189344-226879-186999-217677
##END=
