##TITLE=Carbon Tetrachloride
##JCAMP-DX=4.24
##DATA TYPE=INFRARED SPECTRUM
##CLASS=IUPAC A
##ORIGIN=NIST, Analytical Chemistry Division, 301-975-3108
##OWNER=COPYRIGHT (C) 2000 by the U.S. Secretary of Commerce
##DATE=00/02/01
##$SPECTRA VERSION=1.10
##$UNCERTAINTY IN Y=2.1 % relative (B=1.1E-04,C=2.7E-09,D=1.4E-13)
##CAS NAME=Carbon tetrachloride
##CAS REGISTRY NO=56-23-5
##MOLFORM=C Cl4
##MP=-22.99 C
##BP=76.54 C
##$NIST SOURCE=QUANT-IR
##SPECTROMETER/DATA SYSTEM=IFS66V (Bruker)
##INSTRUMENT PARAMETERS=KBr Beam Splitter; MCT Detector; Multipass cell
##STATE=gas
##SAMPLE DESCRIPTION=Carbon Tetrachloride Primary Gas Standard
##PRESSURE=101.3 Pa
##TEMPERATURE=23 C
##SAMPLING PROCEDURE=1 L/min Flow
##RESOLUTION=1.9290
##DATA PROCESSING=Triangular Apodization
##XUNITS=cm-1
##YUNITS=(micromol/mol)-1m-1 (base 10)
##XFACTOR=1.0
##YFACTOR=7.2759E-12
##DELTAX=0.9645
##FIRSTX=575.652
##LASTX=3974.605
##FIRSTY=6.73E-08
##MAXX=3973.64
##MINX=575.65
##MAXY=.0052658
##MINY=-2.47E-06
##NPOINTS=3526
##XYDATA=(X++(Y..Y))
575.65 9259 120530 82482 65237 83869 102444
580.47 166063 169975 98721 67023 1166-1452
586.26 33222 46310 84270 50226 214-1069
592.04 9409 44003 23127-3341 26323 20183
597.83 36564 43350 37818 25812 18034 46778
603.62 67485 65319 43132 47856 38754 1554
609.40 20965 60030 54055 32951 44796 30587
615.19 31189 43190 73941 115968 115878 126792
620.97 173615 150038 121873 162636 183437 209561
626.76 202145 170780 169408 196408 207345 168811
632.54 128987 104786 94710 91180 81754 60069
638.33 55938 52969 64612 87192 84481 60958
644.11 39332 48077 46083 40371 53013 54760
649.90 75829 84705 67443 48342 50484 62801
655.68 77456 99034 81567 67733 84798 61022
661.47 52793 61607 65698 72067 69353 55192
667.25 65961 62437 59061 83877 72112 61709
673.04 98014 117738 99517 67185 73857 103029
678.83 89627 92910 109678 101272 111867 105607
684.61 78244 80701 104307 127871 143698 127453
690.40 123160 133645 141620 131255 126491 154683
696.18 179431 156136 146110 165185 187697 185421
701.97 168832 171265 194468 202606 196296 199644
707.75 220164 223290 219897 226257 248684 262173
713.54 252663 249641 264646 275622 303598 309880
719.32 323637 346805 400118 438894 462535 494196
725.11 558525 622593 677322 738650 815674 917372
730.89 1046291 1171745 1338461 1526446 1771439 2050409
736.68 2411420 2819878 3300807 3861921 4559406 5408215
742.47 6407335 7478196 8639857 9970100 11682334 13765254
748.25 15913197 17934771 20438987 23419526 26332106 29652074
754.04 33930953 37680434 40725925 45020005 50278894 53369500
759.82 56550548 60015322 61376923 66694312 74884454 73890456
765.61 72443626 78463797 91802440 98527067 85317799 77541200
771.39 103933730 120934897 99957560 92997379 98511505 102237124
777.18 106422931 108195566 108227587 105617041 100834898 93864827
782.96 86360218 81283000 84261786 99053740 127382927 173003006
788.75 240404197 332304142 444131425 568077646 670716148 719495855
794.53 723737643 680742057 600845437 479462611 350931950 274777829
800.32 215014627 156651838 117294152 88943021 67220142 51297915
806.11 38983988 29652547 22713695 17623533 13932143 11202695
811.89 9181447 7661806 6495341 5535822 4774788 4158808
817.68 3617778 3105961 2716439 2419760 2173612 1944682
823.46 1739392 1552196 1416445 1273055 1153368 1065068
829.25 976802 890803 834617 766781 708109 662549
835.03 646564 616225 562229 522050 503306 488987
840.82 459998 430963 426123 421433 414840 394442
846.60 376948 367694 364412 353402 322577 308082
852.39 327584 323580 295591 271513 285110 289862
858.17 267067 248978 255373 255255 246590 234687
863.96 224984 225771 231782 232142 231086 231708
869.75 245436 236032 225341 229490 232109 232328
875.53 228088 216143 217065 226612 226851 216975
881.32 217537 216405 212683 204447 200600 190959
887.10 186472 184342 173863 161869 162836 172548
892.89 174354 159841 147708 146024 149931 147252
898.67 134317 126629 137195 136122 126601 120719
904.46 116419 114600 111922 105324 95249 102021
910.24 107318 91851 87322 89827 90099 87978
916.03 82979 72970 65926 64204 57973 55455
921.81 72778 76458 68311 62163 59083 65058
927.60 72005 62886 51972 60970 71201 70414
933.39 63735 53319 53560 58117 57572 53677
939.17 57357 62583 62485 58390 55556 59353
944.96 70265 73023 67075 68754 72103 68543
950.74 60597 50414 56083 72557 80905 79378
956.53 82699 90690 92724 89225 95852 112887
962.31 131780 146746 155178 164252 177291 203905
968.10 223021 221226 237175 259690 280638 301976
973.88 315502 322990 334556 346432 346888 346083
979.67 359259 367249 359025 360517 373245 380348
985.45 366753 332061 324227 366747 406043 380140
991.24 350969 373888 413703 445257 467954 491980
997.03 515730 545169 577342 593923 609973 642966
1002.81 678860 696604 709449 723835 745539 749609
1008.60 736596 735648 735350 721263 698949 695798
1014.38 679631 654171 648526 624330 586474 549160
1020.17 506867 452078 396990 360699 334710 291321
1025.95 241299 205066 185199 164810 129249 91273
1031.74 70396 65111 51423 33002 20152 14052
1037.52 14293 4348 1497 13832 9377 8195
1043.31 9573 4401 4124 11501 16344 6568
1049.09 2820 12188 28712 30374 13085 12877
1054.88 30241 28046 25761 38889 43656 48558
1060.67 56594 61643 67282 73064 79033 80554
1066.45 81229 92196 92789 77024 71454 74402
1072.24 89985 102507 84352 67672 74140 83165
1078.02 77126 59278 55198 49077 43935 36085
1083.81 25380 32432 33697 23196 14046 15727
1089.59 26472 34396 28523 12334 12301 24096
1095.38 32011 35989 42666 47779 47053 47039
1101.16 42455 41573 54790 57702 50047 54201
1106.95 63310 62078 60214 68707 77504 79694
1112.73 80682 80938 80835 92798 92705 72968
1118.52 57021 56122 57165 46242 33603 29052
1124.31 37548 41765 28872 1792-7772 947
1130.09-3190-25845-24841-11117-21220-30280
1135.88-39107-42810-31411-29247-40015-42019
1141.66-33097-21255-23849-39369-37309-27992
1147.45-24429-30328-34391-22265-13835-20515
1153.23-23001-22355-14435-9625-18775-21943
1159.02-20585-9150-6035-16818-18850-12967
1164.80 1233-2791-11757-6066-518 5578
1170.59-1093-71 10259 13585 11622 5289
1176.37 8714 20706 26006 14358 6121 10153
1182.16 22182 25431 12345 17919 39585 42235
1187.95 28356 25808 41793 51496 50032 45887
1193.73 49586 61844 72569 75891 72330 76358
1199.52 90480 95519 94364 104731 119320 131685
1205.30 134355 138858 162666 185993 186792 179210
1211.09 185261 204504 224815 235606 246573 269583
1216.87 290270 285191 266210 259167 288975 324482
1222.66 337130 352638 364007 328286 282908 255504
1228.44 255284 310666 386965 367698 276352 254112
1234.23 267204 268419 269184 285103 310970 327114
1240.01 329273 315110 315007 347755 383389 419915
1245.80 467704 515184 563059 598035 639768 707817
1251.59 772517 828068 863162 868579 893704 923735
1257.37 899981 842988 763737 722562 725220 689658
1263.16 597030 425084 317098 314423 290230 258427
1268.94 229399 196939 171082 163029 168207 167981
1274.73 168488 166208 161768 162340 151396 128572
1280.51 120060 124743 129846 123278 99229 82676
1286.30 78197 79550 63162 39359 33224 38892
1292.08 37568 27262 20782 15053 10402 4459
1297.87-366 3925 12121 8617-3684-8789
1303.65-5985-5788-17851-28220-24317-19320
1309.44-13648-19249-22635-18366-21779-25999
1315.23-32739-38667-36756-30570-30738-32619
1321.01-24986-21041-21620-25545-30373-22098
1326.80-17782-28365-38200-31672-16878-14141
1332.58-23418-31388-22149-15402-21590-33847
1338.37-36815-25413-16474-19212-29624-23835
1344.15-8847-11530-30889-37600-27822-22178
1349.94-35037-46563-27950 1791 27347 40306
1355.72 31262 25255 19098-10953-31454-22372
1361.51-19705-20055-3624 3621 3686 14385
1367.29 18365 2999 750 11841 10202-4062
1373.08-7730 8328 23548 19725 14754 8198
1378.87 13012 28495 17875 5770 12071 15833
1384.65 7499-14422-30378-8784 5303 5172
1390.44 2269-933-8995-30187-26457-18324
1396.22-9580-13232-36363-28736-9973-3042
1402.01-8500-28032-40985-25402-10627-15508
1407.79-24347-23188-12419-6615-18390-28561
1413.58-26102-18545-29741-41563-64440-94269
1419.36-48174-19974-28410-26836-24359-24321
1425.15-27601-27889-25737-27107-37347-29913
1430.93-24578-20538-27650-34010-64497-100300
1436.72-50124-21947-31037-23847-15492-13428
1442.51-20133-28661-25055-17909-38136-53593
1448.29-37300-26736-27178-37615-40019-37113
1454.08-39016-106853-163335-106565-58901-32350
1459.86-26704-36857-26847-28746-59766-49142
1465.65-28023-20783-13339-22730-36873-73628
1471.43-88110-83973-57458-41460-46226-23050
1477.22-18843-21382-20325-22168-18347-19289
1483.00-21091-9886-7859-38174-47164-33068
1488.79-40249-39685-21836-7057-2205-1190
1494.57-52307-76974-20669-15869-5518 12659
1500.36 12890 27596 37635 16988-58796-97049
1506.15-70429-790 33495 41985 66473 66989
1511.93 77620 86518 90028 104891 88315 86119
1517.72 109256 102781 53146 50403 106031 150314
1523.50 164221 153362 166741 174552 189013 222298
1529.29 248885 254245 245835 222484 232452 281030
1535.07 309733 356056 358206 286538 292560 378215
1540.86 423976 489390 553977 563613 619778 703469
1546.64 752320 784819 806359 850498 910368 952635
1552.43 955075 967254 1051851 1098747 1042119 1001047
1558.21 1053766 1108826 1212530 1273140 1280814 1313034
1564.00 1347211 1388917 1382086 1335874 1274506 1257886
1569.79 1303323 1305869 1256833 1205559 1176779 1101190
1575.57 1102042 1200606 1199784 1168700 1151312 1142605
1581.36 1126557 1107597 1102839 1105296 1087636 1068082
1587.14 1058945 1048940 1044133 1055624 1050720 1009255
1592.93 991914 997841 989401 944899 921969 914043
1598.71 886755 848253 807907 771817 731945 689572
1604.50 636493 582961 538426 499809 449671 399928
1610.28 363130 331685 293502 247003 210267 104722
1616.07 54034 112382 106398 89004 78692 62317
1621.85 16397-11643 12031 18293-1443-27712
1627.64-23882-12545-13552-18104-26466-25977
1633.43-65068-140451-104327-48551-36607-20238
1639.21-22849-27629-21160-17556-21093-63561
1645.00-114092-81020-60954-46183-35192-46314
1650.78-132542-260228-217165-109035-54853-33793
1656.57-39104-43074-38240-36361-44560-76079
1662.35-70445-39444-37490-41296-47851-65602
1668.14-98680-81593-62406-59715-41357-54793
1673.92-110105-100615-50956-45726-48183-59160
1679.71-52640-50665-77291-132804-214433-155975
1685.49-57156-57618-55918-59777-56894-46916
1691.28-43949-54611-56782-151133-202882-102760
1697.07-65270-114177-207657-175702-78583-59068
1702.85-70536-70677-68699-69151-47314-44759
1708.64-51520-56750-49212-48394-55530-81861
1714.42-82239-92771-154682-131336-78160-54429
1720.21-45267-45695-45398-44636-44178-42279
1725.99-38683-37964-43803-60424-61543-61442
1731.78-106808-163218-148833-77640-48403-52777
1737.56-57246-87948-75637-45083-52632-53702
1743.35-45738-43694-49028-54410-63587-60784
1749.13-62733-101010-84015-44905-37682-35451
1754.92-48391-59272-46349-38837-38821-50132
1760.71-72881-51000-29007-28482-23881-20716
1766.49-39470-48666-20988-22694-43144-79175
1772.28-61809-8528-4494 1601 8793 8541
1778.06 12545 5633 1874 11823 16025 13508
1783.85-585-385 6620-307-1420-2445
1789.63-16136-30714-51892-18769 19809 16254
1795.42 19294 22560 21521 4151 6120 13170
1801.20 7126 9290 15464 15342 11596 4741
1806.99 1498 1563-8025-16898-20153-21044
1812.77-20837-23319-26756-31163-32248-33395
1818.56-35432-32793-36798-39588-35127-48611
1824.35-60464-45339-38291-42228-62438-73738
1830.13-49844-38631-39427-41522-43392-41822
1835.92-43619-40280-37733-43366-47606-46196
1841.70-47173-83258-85417-42793-38458-48682
1847.49-43442-35174-34593-35436-37590-33571
1853.27-35018-35657-32893-28776-25918-33665
1859.06-34937-36802-38561-30301-26907-34723
1864.84-38079-38320-43229-55867-58452-40682
1870.63-34950-38834-44159-44038-36148-33235
1876.41-35736-37790-34022-33111-39951-49583
1882.20-49911-43990-46709-51171-46235-43957
1887.99-54849-57712-49556-47857-43866-42597
1893.77-52395-56106-49171-48416-51621-49416
1899.56-49826-55690-51597-47925-51251-45645
1905.34-41485-43382-47202-48283-45797-36830
1911.13-30983-35678-35209-33599-35940-47241
1916.91-59149-49952-42329-47849-59817-72203
1922.70-68687-62030-58216-53451-50469-46699
1928.48-46315-49300-52084-50465-46416-52412
1934.27-55990-52438-50803-46359-48393-54713
1940.05-53454-57461-63739-61143-55519-49814
1945.84-43606-46687-51960-47112-42219-45240
1951.63-51490-51775-42277-40099-48219-49177
1957.41-43966-40340-40931-43460-41646-43408
1963.20-45832-45098-48130-48964-41162-35092
1968.98-38807-42427-43748-47506-64743-53675
1974.77-28887-32113-35898-39861-37630-33034
1980.55-33562-34975-40555-42558-40174-35951
1986.34-31541-33238-37478-36274-38484-39177
1992.12-31594-28721-34357-38749-34023-26538
1997.91-26410-30977-30935-30303-26202-23702
2003.69-31456-37485-37612-34072-31176-32997
2009.48-29566-24669-29107-35317-32790-27457
2015.27-26369-29021-36387-38147-32493-30744
2021.05-33764-35705-30788-30197-32465-35343
2026.84-37490-33158-34678-40863-41646-38058
2032.62-37525-37931-39949-38656-33680-34512
2038.41-36706-40557-41487-38465-33674-37164
2044.19-43067-39485-39882-44549-47497-44092
2049.98-35869-33547-38896-42580-42947-40900
2055.76-40708-45848-45239-37924-39689-48870
2061.55-49593-43941-43755-44701-45707-48257
2067.33-43268-42380-47270-47728-46199-43847
2073.12-47329-48168-44775-40713-41253-47001
2078.91-47781-46943-37902-36683-47479-50219
2084.69-38023-37594-48349-49217-45789-37180
2090.48-41017-49658-48540-32646-30293-47469
2096.26-50711-33979-20713-33300-45374-46625
2102.05-31493-32217-44440-46899-31115-24467
2107.83-39025-43870-30613-16629-28691-39412
2113.62-33758-20114-29735-38613-31155-16918
2119.40-23397-34611-29368-15820-24493-45695
2125.19-41702-22606-19524-35317-38809-32382
2130.97-31514-39553-39173-29240-22967-29735
2136.76-32625-28790-31132-44058-46192-41672
2142.55-40972-40091-38196-30159-32011-43154
2148.33-41469-29973-30330-38319-37698-27800
2154.12-24720-35498-30848-13425-19290-37816
2159.90-31784-16679-24441-37379-23715-7903
2165.69-21956-32772-16988-10212-31096-30806
2171.47-5770-12223-28894-15550-6309-20689
2177.26-22210-3422-1959-19979-11689 9931
2183.04 4405-2244 10526 14201-1973-490
2188.83 16468 16953 16977 30492 39500 34571
2194.61 41813 55449 49434 44335 62339 73964
2200.40 71192 76762 83468 79474 80204 86716
2206.19 87481 94030 99102 94246 95110 98269
2211.97 93217 89754 91125 87036 77311 67786
2217.76 60597 50679 36616 23810 5256-8750
2223.54-3307 16787 38344 51802 59499 79508
2229.33 100276 107141 118066 130667 138169 142361
2235.11 142018 137751 138787 141849 138044 126579
2240.90 114268 105729 94804 79971 61779 49726
2246.68 44408 29533 13861 10609 8383-3312
2252.47-15950-22985-30629-31227-31596-37500
2258.25-41746-43636-40826-43586-39858-38510
2264.04-43626-41915-47340-48197-44919-46807
2269.83-42293-40025-45204-46369-43969-42697
2275.61-45627-45109-44162-45176-44389-43905
2281.40-43836-42278-39503-40120-41121-39071
2287.18-38728-41244-42524-38847-30436-34171
2292.97-42969-39455-31636-31458-31105-28238
2298.75-30503-34744-33004-28481-29662-34029
2304.54-32595-28649-24387-21665-20589-12913
2310.32-12078-18195-12136-8828-11025-12487
2316.11-9605 1979 3666-1446-1856 1172
2321.89-3153-5509-7506-8175 5007 11253
2327.68 9144 10666 7240-2752-5854-1757
2333.47 27 3585 5598 6335 5907 9589
2339.25 10970 7376 6043 4231 7755 6934
2345.04 1835-1975-4799-7544-10857-15234
2350.82-17753-21267-28875-37062-37272-36561
2356.61-44991-46900-44873-45670-43702-46761
2362.39-49794-47763-49249-49396-43793-39675
2368.18-37151-34976-35816-34037-34446-35495
2373.96-37834-40996-37894-33905-33870-35362
2379.75-33134-36174-40178-37224-36579-37412
2385.53-34750-36631-37302-36360-39636-43369
2391.32-42914-40302-43153-43026-45142-46856
2397.11-45373-44767-44178-45868-48989-47763
2402.89-42021-41747-44001-45880-49891-50128
2408.68-45724-47731-53065-51808-50513-49834
2414.46-47033-47959-48227-47927-49540-53139
2420.25-55427-55980-53391-51423-54404-55102
2426.03-58324-60225-51257-49290-54965-53770
2431.82-52261-57967-64703-63587-64802-62629
2437.60-54042-52394-52502-51964-56738-58529
2443.39-59942-59699-58749-59413-58591-58960
2449.17-55631-55157-57414-53065-52337-55884
2454.96-54181-51109-53426-58528-56877-55635
2460.75-56728-58557-57225-51177-50761-53549
2466.53-58124-61245-56887-58765-60974-60627
2472.32-63396-66289-64136-55675-55640-58333
2478.10-56710-55020-50454-52778-56896-49393
2483.89-47878-52701-55741-59068-57008-55244
2489.67-54125-55850-59556-57855-58904-60699
2495.46-60549-57447-57230-60277-61284-62154
2501.24-61749-64245-64120-67489-74274-68392
2507.03-64561-70539-69789-65984-65445-68616
2512.81-69877-66450-69353-70511-68353-68098
2518.60-65987-66350-71942-74303-66842-60471
2524.39-65608-72071-69922-66267-67374-72388
2530.17-70030-63678-64867-69183-72683-72419
2535.96-65947-68162-72753-72890-71417-67097
2541.74-70564-73836-72553-70059-67590-66765
2547.53-64111-62933-67883-76263-80589-78444
2553.31-72537-63073-67366-78121-79286-72488
2559.10-68005-75020-75520-69350-68106-73944
2564.88-76370-75134-72984-69763-71923-72054
2570.67-67243-66786-68220-69299-73505-70674
2576.45-64365-68721-72898-67375-66649-69327
2582.24-70105-72924-72402-71370-72555-75714
2588.03-71391-67783-69527-70211-74506-74343
2593.81-72067-72171-74383-73865-71146-69232
2599.60-72071-73611-70736-68957-66000-67102
2605.38-70702-71577-72409-76120-73251-68206
2611.17-68143-69191-68242-66533-71631-71716
2616.95-68876-71274-71512-68159-65155-68752
2622.74-71743-70775-73634-75056-74170-72946
2628.52-67081-71311-73367-67434-68562-72483
2634.31-71144-69295-74541-74237-69975-73954
2640.09-76669-71399-70605-74691-74306-74594
2645.88-72616-70439-75904-75939-73309-77051
2651.66-81147-80792-79844-76297-75784-76363
2657.45-73631-72913-70406-71084-77671-80701
2663.24-80804-82827-78960-78409-77066-74837
2669.02-78913-78768-76135-73255-78492-76690
2674.81-72290-74889-79567-85087-83799-79746
2680.59-76443-79006-80000-81715-83217-80799
2686.38-81406-84384-84305-79739-78952-83243
2692.16-81491-78499-86693-88910-85984-87164
2697.95-90497-92582-85264-74626-71151-69967
2703.73-69331-75629-83333-88579-91072-89498
2709.52-84790-76956-71409-76535-80863-80402
2715.30-80227-80634-82673-81418-81956-78703
2721.09-79596-84772-79237-76428-78353-77311
2726.88-76972-75370-74463-82324-80996-75402
2732.66-73480-74206-79188-77663-81312-86598
2738.45-81745-76076-78519-78607-74438-78173
2744.23-81714-80064-80504-81123-75453-77434
2750.02-77348-78409-81421-78684-79701-75658
2755.80-75052-76042-80264-86531-77370-72413
2761.59-78205-80996-83103-85016-81432-82377
2767.37-92766-90535-80566-75783-80218-85245
2773.16-83773-83735-84423-85833-84284-81450
2778.94-81597-84583-89305-86773-78805-77169
2784.73-79524-83437-82120-78394-79133-82173
2790.52-84913-83815-82209-84619-85117-75956
2796.30-71950-77160-84641-91507-88664-85504
2802.09-83097-83064-84333-78345-73889-77996
2807.87-80656-77967-80557-83532-81321-75963
2813.66-76752-81948-84384-80942-76992-80154
2819.44-83434-78253-71114-72471-74759-76395
2825.23-79671-77764-75283-79634-86079-85295
2831.01-79358-79422-79602-79593-70725-63262
2836.80-72266-78046-80058-84091-83388-83125
2842.58-81842-73124-71526-73847-70498-74198
2848.37-72590-72143-75758-77879-80315-69911
2854.16-67103-71432-64719-66787-73620-74869
2859.94-78132-74321-70412-69537-79553-87366
2865.73-82430-74932-75970-77342-72628-70232
2871.51-69848-77674-84286-81779-72831-71198
2877.30-77383-77521-72747-76662-83953-81505
2883.08-75673-72564-70703-74557-78214-79010
2888.87-79391-73977-75322-82758-78426-72690
2894.65-83545-91173-81023-72442-74721-85075
2900.44-90135-83108-77038-78504-83976-91468
2906.22-88764-82841-82695-82982-86847-83485
2912.01-76059-81744-88661-87710-96554-101303
2917.80-92316-83678-78896-81560-86181-86519
2923.58-88703-92423-95830-103234-107198-102453
2929.37-99122-96813-88038-82332-81593-85392
2935.15-90188-90110-93046-96162-89584-90915
2940.94-91763-90295-91355-86428-86133-92283
2946.72-101217-98911-89985-86269-85546-89206
2952.51-92531-89660-83215-83994-89330-90523
2958.29-83183-73194-50743-77064-126286-116858
2964.08-102460-92470-83313-83485-87298-89743
2969.86-93541-95623-97032-101332-92670-89900
2975.65-87032-73581-75318-83557-84600-82927
2981.44-86106-86310-90881-88846-79112-77012
2987.22-76370-72780-73628-73487-70812-71048
2993.01-70633-71969-79448-82877-81405-82525
2998.79-77456-73648-72113-71328-73368-74640
3004.58-78533-82875-81692-81434-75353-71361
3010.36-78831-84844-83750-82911-78355-75855
3016.15-86835-91285-81654-72759-74071-79999
3021.93-81292-79749-82782-80373-72345-71894
3027.72-77987-79941-78222-73930-72876-83148
3033.50-86621-85745-80061-71902-80069-89999
3039.29-81990-73512-74316-77656-74441-69988
3045.08-77377-79586-78640-79950-76914-82277
3050.86-84735-84767-85999-79815-77446-82413
3056.65-72457-67913-77339-71066-69311-74288
3062.43-76232-75041-77595-72030-67374-61580
3068.22-57008-65300-64619-62700-68910-70107
3074.00-60672-55380-57891-66306-65064-61409
3079.79-65987-62738-57207-60636-63894-61005
3085.57-57699-61821-57045-48952-46650-50548
3091.36-52294-45908-49216-52545-51436-41035
3097.14-38093-40994-42814-46736-40747-37370
3102.93-34472-28878-31142-31573-34923-32765
3108.72-22026-17778-16768-21294-21883-16149
3114.50-15606-19262-13419-8755-7966-8216
3120.29-11186-11062-10613-4896 5136 6957
3126.07 1306 3402 6928 6805 6899 3803
3131.86 11545 13415 11702 22981 25724 22022
3137.64 19885 18435 23891 28478 25388 20107
3143.43 23368 23458 26011 36349 36328 31039
3149.21 30065 35555 33611 42556 52018 45234
3155.00 44592 46830 40134 36691 45295 46122
3160.78 41963 43031 49210 55478 52916 43374
3166.57 37891 41232 44960 50340 47280 53036
3172.36 65120 60519 51757 53282 54590 47013
3178.14 49615 53235 52899 49715 47729 51238
3183.93 57673 62092 62377 56230 50629 51025
3189.71 46336 48415 55603 56675 57949 59024
3195.50 52017 48735 54846 49657 44581 54012
3201.28 61251 58515 60898 61006 60001 60404
3207.07 55989 55630 58724 66711 68030 63328
3212.85 57551 53957 61229 75540 70740 56173
3218.64 54469 52808 51991 53856 61256 70340
3224.42 72856 71352 70704 72218 71962 65860
3230.21 58131 52720 54196 59050 64089 67404
3236.00 64811 58290 59031 58733 57934 60533
3241.78 58354 58208 60318 63304 69184 72864
3247.57 68407 59181 57871 60198 61512 60093
3253.35 53027 49606 54771 61600 59252 55765
3259.14 52399 54030 54886 52912 52044 54849
3264.92 61912 58498 48780 38179 41995 49597
3270.71 46441 43078 40493 44391 44884 45620
3276.49 45495 40186 37171 30542 29425 27675
3282.28 23395 29544 36739 34804 25037 31581
3288.06 32506 25158 21181 14391 20108 18494
3293.85 18111 24600 25719 28276 28268 29522
3299.64 21722 14338 8586 3942 6113 15077
3305.42 17137 10114 1190-3205 6786 6014
3311.21 8157 6053-1973-2250-10546-16470
3316.99-12438-15522-14089-6082-2472-819
3322.78 1143 2682 494-4325-4461-9096
3328.56-19470-10104-5964-15043-14234-17313
3334.35-17747-15489-12722-19002-24714-18302
3340.13-17995-18885-28874-30820-20303-19486
3345.92-24524-26521-25063-23778-19713-18009
3351.70-24621-24946-21841-24717-25902-27862
3357.49-33177-35680-40088-39747-39054-38134
3363.28-31925-33773-34806-31959-35675-38420
3369.06-33145-36399-40079-33780-37141-43423
3374.85-44083-42940-38702-44021-47079-43519
3380.63-45338-43227-46916-58487-56219-45433
3386.42-43310-45949-43422-45143-49165-54723
3392.20-60696-52700-44786-48238-53038-56310
3397.99-58573-53262-48184-56184-66482-62018
3403.77-58569-57231-50429-52872-60705-64107
3409.56-66017-61385-56315-57504-57507-55294
3415.34-55855-59260-61759-58886-57125-58651
3421.13-63510-64660-61892-58125-62452-68319
3426.92-68214-65554-61578-71392-70732-65127
3432.70-70394-71216-64610-62442-63044-66478
3438.49-70200-72313-63563-65434-75270-76745
3444.27-75317-68968-69915-68449-70736-63610
3450.06-61396-66468-69711-76020-79669-73918
3455.84-60854-59778-61251-63297-75568-81316
3461.63-72833-78151-82208-72215-80088-79765
3467.41-63916-76760-88059-85654-85734-83629
3473.20-85914-83758-77971-84196-87912-79332
3478.98-68169-71890-81263-89617-94767-94706
3484.77-96608-89773-92583-97876-100281-97923
3490.56-96317-96391-79286-67505-67502-70789
3496.34-75507-84714-89154-92018-103478-110434
3502.13-114894-112501-107839-110751-103039-96764
3507.91-105301-106149-106922-109896-117823-122253
3513.70-106679-103972-105117-99491-108133-113736
3519.48-107691-106179-113666-115468-109875-111595
3525.27-116374-112631-118607-125461-117960-120296
3531.05-119442-116530-111611-105705-112550-114201
3536.84-111539-117749-121548-125710-125102-121388
3542.62-121951-124872-125802-120162-114241-116633
3548.41-129227-133940-129473-128803-125754-119537
3554.20-116749-113964-111960-114097-112374-115126
3559.98-118339-119482-120924-119436-121766-127863
3565.77-125647-130107-127673-112043-110425-107624
3571.55-107556-111151-112783-111548-103703-98586
3577.34-101897-104986-102474-93717-94844-111196
3583.12-121840-115990-128647-140728-146825-136754
3588.91-102760-103997-109116-117282-122856-117953
3594.69-119112-115050-112885-117225-120125-124781
3600.48-121567-114013-111845-110824-113695-122178
3606.26-130262-142874-163259-135860-121042-155619
3612.05-154779-135677-136621-125386-139901-156602
3617.84-163447-168691-137830-116894-121927-134327
3623.62-126376-126402-126135-143878-191613-203442
3629.41-160991-126155-123350-129301-127764-114963
3635.19-111609-112825-117674-116116-110238-113095
3640.98-118752-115987-117383-127513-130855-158504
3646.76-171253-191880-199971-174277-151311-121371
3652.55-126834-137426-164821-190756-160633-134010
3658.33-129856-134271-134472-131507-135833-140181
3664.12-143138-145148-140127-157184-170785-200960
3669.90-235159-176557-152007-174533-222204-266676
3675.69-219877-168372-163844-160413-147959-143609
3681.48-133303-131688-143797-149501-147786-172342
3687.26-253642-224715-177518-198018-164881-149462
3693.05-154856-154392-153453-152999-147624-145640
3698.83-150788-163438-179446-163725-155760-163370
3704.62-156869-157825-159679-171769-190291-168148
3710.40-203288-235716-188586-177828-176118-159465
3716.19-152547-165807-172653-162500-162418-179132
3721.97-181381-182152-178046-175107-180607-165787
3727.76-161765-164616-166898-227859-232130-187122
3733.54-208272-214453-228135-210872-174845-169873
3739.33-172695-184645-179160-208208-340681-332235
3745.12-208905-186476-194222-273584-269703-210573
3750.90-281443-262324-187937-182848-186208-194871
3756.69-188907-186325-198188-183303-161602-164115
3762.47-161011-162504-183444-189760-175799-167463
3768.26-190279-200988-173684-159921-161426-169452
3774.04-166977-171272-171607-169512-185596-184231
3779.83-164203-161668-164955-167445-170959-163782
3785.61-166478-171866-157595-149051-152966-153407
3791.40-158476-163978-163672-167601-185655-191109
3797.18-186125-184925-201533-272950-256047-183154
3802.97-181499-171425-186783-237084-207905-159823
3808.76-158499-160980-168300-172984-176527-180978
3814.54-258854-277390-200403-178943-178118-216363
3820.33-247888-215511-186806-175279-161597-169793
3826.11-179820-179968-174632-168931-193354-199451
3831.90-177899-183042-213215-210387-218434-286011
3837.68-257355-200034-206354-192608-176017-194018
3843.47-196829-185683-177776-174757-172118-179930
3849.25-187037-245354-288752-291707-362288-288051
3855.04-202980-210297-190668-184582-183509-198696
3860.82-215904-191932-184858-220973-225566-199726
3866.61-184902-201952-258696-257557-208397-191396
3872.40-196744-212629-200803-190378-189775-194475
3878.18-210295-231564-228282-201066-197296-200889
3883.97-234267-260113-223961-207915-210520-203840
3889.75-225137-232227-208205-200878-202155-203775
3895.54-203961-203623-222207-239758-218189-233543
3901.32-233185-224593-252999-236854-212893-199774
3907.11-201230-209179-209561-206396-202416-202621
3912.89-204187-198571-202519-224091-226495-211898
3918.68-214728-213451-204019-204280-213487-216742
3924.46-204353-195613-201604-201456-193570-197457
3930.25-202943-210493-203286-195271-211461-220322
3936.04-213956-204546-199296-203527-209832-210080
3941.82-207007-207752-202991-194997-205354-211188
3947.61-203938-188945-180098-177194-184396-196431
3953.39-194496-197997-200668-204270-203468-192713
3959.18-192364-195047-198265-200471-200902-199978
3964.96-198625-204562-206322-204931-201737-203859
3970.75-205927-204172-202430-198033
##END=
