##TITLE=Carbon tetrachloride
##JCAMP-DX=4.24
$$ By DXEDIT 1.05 (RS McDonald)
##DATA TYPE=INFRARED SPECTRUM
##CLASS=COBLENTZ III
##ORIGIN=DOW CHEMICAL COMPANY
##OWNER=COPYRIGHT (C) 1988 by COBLENTZ SOCIETY INC.
Collection (C) 2018 copyright by the U.S. Secretary of Commerce
on behalf of the United States of America. All rights reserved.
##DATE=1966/04/07
##NAMES=tetrachloromethane
##CAS REGISTRY NO=56-23-5
##MOLFORM=C Cl4
##SOURCE REFERENCE=COBLENTZ NO. 06470
##$NIST SOURCE=COBLENTZ
##$NIST IMAGE=cob6470
##SPECTROMETER/DATA SYSTEM=DOW KBr FOREPRISM-GRATING
##INSTRUMENT PARAMETERS=BLAZED AT 3.5, 12.0, 20.0 MICRON AND CHANGED AT 5.0, 7.5, 14.9 MICRON
##STATE=LIQUID (NEAT)
##PATH LENGTH=0.010 CM
##SAMPLING PROCEDURE=TRANSMISSION
##RESOLUTION=2
##DATA PROCESSING=DIGITIZED BY COBLENTZ SOCIETY (BATCH I) FROM HARD COPY
##XUNITS=1/CM
##YUNITS=TRANSMITTANCE
##XFACTOR=1
##YFACTOR=1
##DELTAX=1
##FIRSTX=3792
##LASTX=380
##FIRSTY=0.8927
##MAXX=3792
##MINX=380
##MAXY=0.8933
##MINY=0.0001
##NPOINTS=3413
##XYDATA=(X++(Y..Y))
3792.000000 0.8927 0.8927 0.8927 0.8927 0.8928
3787.000000 0.8928 0.8928 0.8928 0.8928 0.8928
3782.000000 0.8928 0.8928 0.8928 0.8928 0.8928
3777.000000 0.8928 0.8928 0.8928 0.8930 0.8930
3772.000000 0.8930 0.8930 0.8930 0.8930 0.8931
3767.000000 0.8931 0.8931 0.8931 0.8931 0.8931
3762.000000 0.8931 0.8931 0.8932 0.8932 0.8932
3757.000000 0.8932 0.8932 0.8932 0.8933 0.8933
3752.000000 0.8933 0.8932 0.8932 0.8932 0.8932
3747.000000 0.8932 0.8932 0.8931 0.8931 0.8931
3742.000000 0.8931 0.8931 0.8931 0.8930 0.8930
3737.000000 0.8930 0.8930 0.8928 0.8928 0.8928
3732.000000 0.8928 0.8928 0.8928 0.8928 0.8928
3727.000000 0.8928 0.8928 0.8928 0.8928 0.8927
3722.000000 0.8927 0.8925 0.8925 0.8925 0.8925
3717.000000 0.8924 0.8924 0.8923 0.8923 0.8921
3712.000000 0.8921 0.8921 0.8921 0.8920 0.8920
3707.000000 0.8918 0.8918 0.8918 0.8918 0.8917
3702.000000 0.8917 0.8916 0.8916 0.8915 0.8915
3697.000000 0.8914 0.8914 0.8913 0.8912 0.8911
3692.000000 0.8911 0.8910 0.8910 0.8909 0.8909
3687.000000 0.8908 0.8908 0.8907 0.8907 0.8906
3682.000000 0.8906 0.8905 0.8905 0.8904 0.8904
3677.000000 0.8903 0.8903 0.8902 0.8902 0.8901
3672.000000 0.8901 0.8900 0.8899 0.8898 0.8897
3667.000000 0.8896 0.8895 0.8894 0.8893 0.8892
3662.000000 0.8892 0.8891 0.8890 0.8889 0.8888
3657.000000 0.8887 0.8886 0.8885 0.8884 0.8883
3652.000000 0.8882 0.8881 0.8880 0.8878 0.8878
3647.000000 0.8878 0.8877 0.8875 0.8875 0.8874
3642.000000 0.8873 0.8871 0.8871 0.8870 0.8868
3637.000000 0.8868 0.8867 0.8866 0.8866 0.8865
3632.000000 0.8864 0.8863 0.8862 0.8862 0.8862
3627.000000 0.8862 0.8862 0.8862 0.8862 0.8862
3622.000000 0.8862 0.8862 0.8862 0.8862 0.8863
3617.000000 0.8863 0.8863 0.8863 0.8863 0.8863
3612.000000 0.8863 0.8863 0.8863 0.8863 0.8863
3607.000000 0.8863 0.8863 0.8863 0.8863 0.8863
3602.000000 0.8863 0.8863 0.8863 0.8863 0.8864
3597.000000 0.8864 0.8864 0.8864 0.8864 0.8864
3592.000000 0.8864 0.8864 0.8864 0.8864 0.8864
3587.000000 0.8864 0.8864 0.8864 0.8864 0.8864
3582.000000 0.8864 0.8864 0.8864 0.8864 0.8865
3577.000000 0.8865 0.8865 0.8865 0.8865 0.8864
3572.000000 0.8864 0.8863 0.8863 0.8862 0.8862
3567.000000 0.8861 0.8860 0.8859 0.8859 0.8858
3562.000000 0.8858 0.8857 0.8856 0.8855 0.8855
3557.000000 0.8854 0.8853 0.8852 0.8852 0.8851
3552.000000 0.8851 0.8850 0.8849 0.8848 0.8848
3547.000000 0.8847 0.8847 0.8846 0.8845 0.8844
3542.000000 0.8844 0.8843 0.8842 0.8841 0.8841
3537.000000 0.8840 0.8840 0.8839 0.8838 0.8837
3532.000000 0.8837 0.8836 0.8836 0.8835 0.8834
3527.000000 0.8833 0.8833 0.8832 0.8831 0.8830
3522.000000 0.8830 0.8828 0.8828 0.8828 0.8827
3517.000000 0.8825 0.8825 0.8825 0.8825 0.8824
3512.000000 0.8823 0.8821 0.8821 0.8820 0.8818
3507.000000 0.8818 0.8817 0.8816 0.8815 0.8814
3502.000000 0.8813 0.8812 0.8812 0.8811 0.8810
3497.000000 0.8809 0.8808 0.8807 0.8806 0.8805
3492.000000 0.8804 0.8803 0.8802 0.8801 0.8800
3487.000000 0.8799 0.8799 0.8798 0.8797 0.8796
3482.000000 0.8795 0.8794 0.8793 0.8792 0.8791
3477.000000 0.8790 0.8789 0.8788 0.8787 0.8786
3472.000000 0.8785 0.8784 0.8784 0.8783 0.8782
3467.000000 0.8781 0.8780 0.8778 0.8778 0.8777
3462.000000 0.8775 0.8775 0.8775 0.8775 0.8775
3457.000000 0.8775 0.8775 0.8774 0.8774 0.8774
3452.000000 0.8774 0.8774 0.8774 0.8774 0.8774
3447.000000 0.8774 0.8774 0.8774 0.8774 0.8773
3442.000000 0.8773 0.8773 0.8773 0.8773 0.8773
3437.000000 0.8773 0.8773 0.8773 0.8773 0.8773
3432.000000 0.8773 0.8771 0.8771 0.8771 0.8771
3427.000000 0.8771 0.8771 0.8771 0.8771 0.8771
3422.000000 0.8771 0.8771 0.8771 0.8771 0.8771
3417.000000 0.8771 0.8771 0.8771 0.8771 0.8771
3412.000000 0.8771 0.8771 0.8771 0.8771 0.8771
3407.000000 0.8770 0.8770 0.8770 0.8770 0.8770
3402.000000 0.8770 0.8770 0.8770 0.8770 0.8770
3397.000000 0.8770 0.8770 0.8770 0.8770 0.8770
3392.000000 0.8770 0.8770 0.8770 0.8770 0.8770
3387.000000 0.8770 0.8770 0.8770 0.8770 0.8770
3382.000000 0.8770 0.8770 0.8770 0.8770 0.8770
3377.000000 0.8770 0.8770 0.8770 0.8770 0.8770
3372.000000 0.8770 0.8770 0.8770 0.8770 0.8770
3367.000000 0.8770 0.8770 0.8770 0.8770 0.8770
3362.000000 0.8770 0.8770 0.8770 0.8770 0.8770
3357.000000 0.8770 0.8770 0.8770 0.8770 0.8770
3352.000000 0.8770 0.8770 0.8770 0.8770 0.8770
3347.000000 0.8770 0.8770 0.8770 0.8771 0.8771
3342.000000 0.8773 0.8774 0.8775 0.8775 0.8777
3337.000000 0.8778 0.8778 0.8780 0.8781 0.8782
3332.000000 0.8783 0.8784 0.8785 0.8786 0.8787
3327.000000 0.8788 0.8789 0.8790 0.8791 0.8791
3322.000000 0.8792 0.8793 0.8794 0.8795 0.8796
3317.000000 0.8797 0.8798 0.8799 0.8800 0.8801
3312.000000 0.8802 0.8803 0.8804 0.8805 0.8806
3307.000000 0.8807 0.8808 0.8809 0.8810 0.8811
3302.000000 0.8812 0.8813 0.8814 0.8815 0.8816
3297.000000 0.8816 0.8817 0.8817 0.8818 0.8818
3292.000000 0.8818 0.8818 0.8818 0.8818 0.8820
3287.000000 0.8820 0.8820 0.8820 0.8821 0.8821
3282.000000 0.8821 0.8821 0.8823 0.8823 0.8823
3277.000000 0.8823 0.8824 0.8824 0.8825 0.8825
3272.000000 0.8825 0.8825 0.8825 0.8825 0.8827
3267.000000 0.8827 0.8828 0.8828 0.8828 0.8828
3262.000000 0.8828 0.8828 0.8830 0.8830 0.8830
3257.000000 0.8830 0.8831 0.8831 0.8832 0.8832
3252.000000 0.8833 0.8833 0.8833 0.8833 0.8833
3247.000000 0.8833 0.8833 0.8833 0.8833 0.8832
3242.000000 0.8832 0.8831 0.8831 0.8831 0.8831
3237.000000 0.8830 0.8830 0.8830 0.8830 0.8828
3232.000000 0.8828 0.8828 0.8828 0.8828 0.8828
3227.000000 0.8827 0.8827 0.8827 0.8827 0.8825
3222.000000 0.8825 0.8825 0.8825 0.8825 0.8825
3217.000000 0.8825 0.8825 0.8824 0.8824 0.8823
3212.000000 0.8823 0.8823 0.8823 0.8821 0.8821
3207.000000 0.8821 0.8821 0.8821 0.8821 0.8820
3202.000000 0.8820 0.8820 0.8820 0.8818 0.8818
3197.000000 0.8818 0.8818 0.8818 0.8818 0.8818
3192.000000 0.8820 0.8821 0.8821 0.8821 0.8823
3187.000000 0.8824 0.8825 0.8825 0.8827 0.8827
3182.000000 0.8828 0.8828 0.8830 0.8831 0.8832
3177.000000 0.8832 0.8833 0.8834 0.8835 0.8835
3172.000000 0.8836 0.8837 0.8838 0.8839 0.8840
3167.000000 0.8840 0.8841 0.8842 0.8843 0.8844
3162.000000 0.8845 0.8845 0.8846 0.8847 0.8848
3157.000000 0.8849 0.8850 0.8850 0.8851 0.8852
3152.000000 0.8853 0.8853 0.8854 0.8855 0.8856
3147.000000 0.8857 0.8858 0.8858 0.8858 0.8858
3142.000000 0.8858 0.8858 0.8859 0.8859 0.8859
3137.000000 0.8859 0.8860 0.8860 0.8860 0.8860
3132.000000 0.8860 0.8860 0.8861 0.8861 0.8861
3127.000000 0.8861 0.8861 0.8861 0.8862 0.8862
3122.000000 0.8862 0.8862 0.8863 0.8863 0.8863
3117.000000 0.8863 0.8863 0.8863 0.8864 0.8864
3112.000000 0.8864 0.8864 0.8865 0.8865 0.8865
3107.000000 0.8865 0.8865 0.8865 0.8866 0.8866
3102.000000 0.8866 0.8866 0.8867 0.8867 0.8867
3097.000000 0.8867 0.8867 0.8867 0.8867 0.8866
3092.000000 0.8865 0.8864 0.8864 0.8863 0.8863
3087.000000 0.8862 0.8862 0.8861 0.8860 0.8859
3082.000000 0.8859 0.8858 0.8858 0.8857 0.8856
3077.000000 0.8855 0.8855 0.8854 0.8854 0.8852
3072.000000 0.8851 0.8849 0.8847 0.8845 0.8844
3067.000000 0.8842 0.8841 0.8839 0.8838 0.8836
3062.000000 0.8834 0.8832 0.8831 0.8828 0.8828
3057.000000 0.8825 0.8825 0.8823 0.8821 0.8820
3052.000000 0.8818 0.8816 0.8815 0.8813 0.8812
3047.000000 0.8811 0.8810 0.8809 0.8808 0.8806
3042.000000 0.8805 0.8804 0.8803 0.8801 0.8800
3037.000000 0.8799 0.8798 0.8796 0.8795 0.8794
3032.000000 0.8793 0.8791 0.8790 0.8789 0.8788
3027.000000 0.8786 0.8785 0.8784 0.8783 0.8782
3022.000000 0.8781 0.8778 0.8778 0.8777 0.8775
3017.000000 0.8775 0.8775 0.8775 0.8775 0.8775
3012.000000 0.8775 0.8775 0.8775 0.8775 0.8775
3007.000000 0.8775 0.8775 0.8775 0.8775 0.8775
3002.000000 0.8775 0.8774 0.8774 0.8774 0.8774
2997.000000 0.8774 0.8774 0.8774 0.8774 0.8773
2992.000000 0.8771 0.8771 0.8771 0.8770 0.8768
2987.000000 0.8768 0.8767 0.8766 0.8766 0.8765
2982.000000 0.8764 0.8763 0.8762 0.8761 0.8760
2977.000000 0.8759 0.8759 0.8758 0.8757 0.8756
2972.000000 0.8755 0.8754 0.8754 0.8753 0.8752
2967.000000 0.8751 0.8750 0.8749 0.8749 0.8748
2962.000000 0.8747 0.8746 0.8746 0.8746 0.8747
2957.000000 0.8747 0.8748 0.8748 0.8748 0.8748
2952.000000 0.8749 0.8749 0.8749 0.8749 0.8749
2947.000000 0.8748 0.8748 0.8747 0.8747 0.8746
2942.000000 0.8745 0.8744 0.8744 0.8743 0.8742
2937.000000 0.8740 0.8739 0.8737 0.8735 0.8733
2932.000000 0.8732 0.8730 0.8728 0.8725 0.8723
2927.000000 0.8718 0.8716 0.8712 0.8708 0.8702
2922.000000 0.8697 0.8687 0.8677 0.8670 0.8663
2917.000000 0.8658 0.8654 0.8649 0.8645 0.8643
2912.000000 0.8641 0.8640 0.8640 0.8639 0.8639
2907.000000 0.8638 0.8638 0.8637 0.8637 0.8636
2902.000000 0.8636 0.8635 0.8635 0.8634 0.8634
2897.000000 0.8633 0.8633 0.8632 0.8632 0.8631
2892.000000 0.8631 0.8630 0.8630 0.8628 0.8628
2887.000000 0.8627 0.8627 0.8625 0.8625 0.8624
2882.000000 0.8624 0.8623 0.8621 0.8621 0.8621
2877.000000 0.8620 0.8618 0.8618 0.8618 0.8617
2872.000000 0.8616 0.8615 0.8615 0.8614 0.8614
2867.000000 0.8614 0.8614 0.8613 0.8613 0.8613
2862.000000 0.8613 0.8613 0.8613 0.8612 0.8612
2857.000000 0.8612 0.8612 0.8612 0.8612 0.8612
2852.000000 0.8612 0.8611 0.8611 0.8611 0.8612
2847.000000 0.8612 0.8612 0.8612 0.8612 0.8612
2842.000000 0.8612 0.8612 0.8612 0.8613 0.8615
2837.000000 0.8618 0.8621 0.8624 0.8628 0.8631
2832.000000 0.8635 0.8639 0.8643 0.8647 0.8652
2827.000000 0.8656 0.8661 0.8663 0.8666 0.8668
2822.000000 0.8671 0.8671 0.8671 0.8670 0.8670
2817.000000 0.8668 0.8668 0.8667 0.8667 0.8666
2812.000000 0.8666 0.8665 0.8664 0.8663 0.8663
2807.000000 0.8662 0.8662 0.8661 0.8661 0.8661
2802.000000 0.8661 0.8661 0.8661 0.8661 0.8661
2797.000000 0.8660 0.8660 0.8660 0.8660 0.8660
2792.000000 0.8660 0.8660 0.8660 0.8660 0.8660
2787.000000 0.8659 0.8659 0.8659 0.8659 0.8659
2782.000000 0.8659 0.8659 0.8659 0.8659 0.8659
2777.000000 0.8658 0.8658 0.8658 0.8658 0.8658
2772.000000 0.8658 0.8658 0.8658 0.8658 0.8658
2767.000000 0.8658 0.8658 0.8658 0.8658 0.8657
2762.000000 0.8657 0.8657 0.8657 0.8657 0.8657
2757.000000 0.8657 0.8657 0.8656 0.8656 0.8656
2752.000000 0.8656 0.8655 0.8655 0.8654 0.8654
2747.000000 0.8653 0.8653 0.8653 0.8653 0.8652
2742.000000 0.8652 0.8651 0.8651 0.8651 0.8651
2737.000000 0.8650 0.8650 0.8649 0.8649 0.8648
2732.000000 0.8648 0.8648 0.8648 0.8647 0.8647
2727.000000 0.8646 0.8646 0.8645 0.8645 0.8645
2722.000000 0.8645 0.8644 0.8644 0.8643 0.8643
2717.000000 0.8643 0.8643 0.8642 0.8642 0.8641
2712.000000 0.8641 0.8641 0.8641 0.8641 0.8641
2707.000000 0.8641 0.8641 0.8641 0.8641 0.8641
2702.000000 0.8641 0.8641 0.8641 0.8641 0.8641
2697.000000 0.8641 0.8642 0.8642 0.8642 0.8642
2692.000000 0.8642 0.8642 0.8642 0.8642 0.8642
2687.000000 0.8642 0.8642 0.8642 0.8642 0.8642
2682.000000 0.8642 0.8642 0.8642 0.8642 0.8642
2677.000000 0.8642 0.8643 0.8643 0.8643 0.8643
2672.000000 0.8643 0.8642 0.8642 0.8641 0.8641
2667.000000 0.8640 0.8640 0.8639 0.8639 0.8638
2662.000000 0.8638 0.8637 0.8637 0.8636 0.8636
2657.000000 0.8635 0.8635 0.8634 0.8633 0.8632
2652.000000 0.8632 0.8631 0.8631 0.8630 0.8630
2647.000000 0.8628 0.8628 0.8628 0.8628 0.8627
2642.000000 0.8627 0.8625 0.8625 0.8624 0.8623
2637.000000 0.8621 0.8621 0.8620 0.8618 0.8617
2632.000000 0.8616 0.8615 0.8614 0.8613 0.8612
2627.000000 0.8611 0.8610 0.8608 0.8607 0.8606
2622.000000 0.8605 0.8604 0.8603 0.8602 0.8601
2617.000000 0.8599 0.8598 0.8597 0.8596 0.8595
2612.000000 0.8594 0.8593 0.8592 0.8590 0.8589
2607.000000 0.8588 0.8587 0.8586 0.8585 0.8584
2602.000000 0.8583 0.8581 0.8580 0.8578 0.8578
2597.000000 0.8577 0.8577 0.8575 0.8575 0.8575
2592.000000 0.8575 0.8575 0.8575 0.8575 0.8575
2587.000000 0.8575 0.8575 0.8574 0.8574 0.8574
2582.000000 0.8574 0.8573 0.8573 0.8573 0.8573
2577.000000 0.8573 0.8573 0.8571 0.8571 0.8571
2572.000000 0.8571 0.8571 0.8571 0.8571 0.8571
2567.000000 0.8571 0.8571 0.8570 0.8570 0.8570
2562.000000 0.8570 0.8568 0.8568 0.8568 0.8568
2557.000000 0.8568 0.8568 0.8568 0.8568 0.8568
2552.000000 0.8568 0.8568 0.8568 0.8568 0.8568
2547.000000 0.8568 0.8568 0.8568 0.8568 0.8568
2542.000000 0.8570 0.8570 0.8570 0.8570 0.8570
2537.000000 0.8570 0.8570 0.8570 0.8571 0.8571
2532.000000 0.8571 0.8571 0.8571 0.8571 0.8571
2527.000000 0.8571 0.8571 0.8571 0.8571 0.8571
2522.000000 0.8571 0.8571 0.8573 0.8573 0.8573
2517.000000 0.8573 0.8573 0.8573 0.8573 0.8573
2512.000000 0.8574 0.8574 0.8574 0.8573 0.8573
2507.000000 0.8571 0.8571 0.8571 0.8571 0.8570
2502.000000 0.8570 0.8568 0.8568 0.8568 0.8568
2497.000000 0.8567 0.8567 0.8566 0.8565 0.8564
2492.000000 0.8564 0.8563 0.8563 0.8562 0.8562
2487.000000 0.8561 0.8561 0.8560 0.8560 0.8559
2482.000000 0.8559 0.8558 0.8558 0.8557 0.8557
2477.000000 0.8556 0.8555 0.8554 0.8554 0.8553
2472.000000 0.8553 0.8552 0.8552 0.8551 0.8551
2467.000000 0.8550 0.8550 0.8549 0.8549 0.8548
2462.000000 0.8548 0.8547 0.8547 0.8546 0.8546
2457.000000 0.8545 0.8545 0.8544 0.8544 0.8543
2452.000000 0.8543 0.8542 0.8542 0.8541 0.8541
2447.000000 0.8540 0.8540 0.8540 0.8540 0.8540
2442.000000 0.8540 0.8540 0.8540 0.8540 0.8540
2437.000000 0.8539 0.8539 0.8539 0.8539 0.8539
2432.000000 0.8539 0.8539 0.8539 0.8539 0.8539
2427.000000 0.8539 0.8539 0.8538 0.8538 0.8538
2422.000000 0.8538 0.8538 0.8538 0.8538 0.8538
2417.000000 0.8537 0.8537 0.8537 0.8537 0.8536
2412.000000 0.8536 0.8536 0.8536 0.8535 0.8535
2407.000000 0.8535 0.8535 0.8534 0.8534 0.8534
2402.000000 0.8534 0.8533 0.8533 0.8533 0.8533
2397.000000 0.8532 0.8532 0.8532 0.8532 0.8532
2392.000000 0.8532 0.8532 0.8532 0.8532 0.8532
2387.000000 0.8532 0.8533 0.8533 0.8533 0.8533
2382.000000 0.8533 0.8533 0.8534 0.8534 0.8535
2377.000000 0.8535 0.8536 0.8536 0.8536 0.8537
2372.000000 0.8538 0.8542 0.8547 0.8552 0.8557
2367.000000 0.8561 0.8566 0.8570 0.8575 0.8578
2362.000000 0.8584 0.8588 0.8593 0.8597 0.8602
2357.000000 0.8606 0.8611 0.8615 0.8620 0.8625
2352.000000 0.8630 0.8634 0.8638 0.8639 0.8639
2347.000000 0.8639 0.8638 0.8625 0.8614 0.8601
2342.000000 0.8588 0.8573 0.8558 0.8555 0.8556
2337.000000 0.8556 0.8559 0.8564 0.8568 0.8575
2332.000000 0.8581 0.8587 0.8593 0.8596 0.8600
2327.000000 0.8602 0.8604 0.8606 0.8608 0.8610
2322.000000 0.8611 0.8611 0.8610 0.8608 0.8606
2317.000000 0.8603 0.8601 0.8598 0.8595 0.8591
2312.000000 0.8587 0.8582 0.8578 0.8571 0.8566
2307.000000 0.8559 0.8552 0.8545 0.8538 0.8530
2302.000000 0.8521 0.8511 0.8501 0.8489 0.8478
2297.000000 0.8460 0.8442 0.8428 0.8414 0.8407
2292.000000 0.8401 0.8395 0.8389 0.8386 0.8383
2287.000000 0.8380 0.8377 0.8374 0.8371 0.8368
2282.000000 0.8368 0.8367 0.8366 0.8365 0.8364
2277.000000 0.8364 0.8364 0.8365 0.8368 0.8371
2272.000000 0.8375 0.8380 0.8384 0.8390 0.8397
2267.000000 0.8404 0.8412 0.8418 0.8425 0.8433
2262.000000 0.8440 0.8447 0.8455 0.8463 0.8471
2257.000000 0.8480 0.8488 0.8495 0.8503 0.8505
2252.000000 0.8507 0.8509 0.8511 0.8513 0.8516
2247.000000 0.8518 0.8520 0.8520 0.8520 0.8520
2242.000000 0.8518 0.8518 0.8518 0.8517 0.8517
2237.000000 0.8516 0.8516 0.8515 0.8514 0.8513
2232.000000 0.8513 0.8512 0.8512 0.8511 0.8511
2227.000000 0.8510 0.8509 0.8508 0.8508 0.8507
2222.000000 0.8507 0.8507 0.8507 0.8507 0.8507
2217.000000 0.8506 0.8506 0.8506 0.8506 0.8505
2212.000000 0.8505 0.8505 0.8505 0.8505 0.8505
2207.000000 0.8504 0.8504 0.8504 0.8504 0.8503
2202.000000 0.8503 0.8503 0.8503 0.8503 0.8503
2197.000000 0.8502 0.8502 0.8502 0.8502 0.8501
2192.000000 0.8501 0.8500 0.8500 0.8499 0.8499
2187.000000 0.8498 0.8498 0.8497 0.8497 0.8496
2182.000000 0.8496 0.8496 0.8496 0.8495 0.8495
2177.000000 0.8494 0.8494 0.8493 0.8493 0.8492
2172.000000 0.8492 0.8491 0.8491 0.8490 0.8490
2167.000000 0.8490 0.8490 0.8489 0.8489 0.8488
2162.000000 0.8488 0.8487 0.8487 0.8486 0.8486
2157.000000 0.8486 0.8486 0.8486 0.8487 0.8487
2152.000000 0.8488 0.8488 0.8489 0.8489 0.8490
2147.000000 0.8490 0.8491 0.8491 0.8492 0.8492
2142.000000 0.8493 0.8493 0.8494 0.8494 0.8495
2137.000000 0.8495 0.8496 0.8496 0.8497 0.8497
2132.000000 0.8498 0.8498 0.8499 0.8499 0.8500
2127.000000 0.8500 0.8501 0.8501 0.8502 0.8502
2122.000000 0.8502 0.8502 0.8502 0.8502 0.8502
2117.000000 0.8502 0.8502 0.8502 0.8502 0.8502
2112.000000 0.8503 0.8503 0.8503 0.8503 0.8503
2107.000000 0.8503 0.8503 0.8503 0.8503 0.8503
2102.000000 0.8503 0.8503 0.8503 0.8503 0.8503
2097.000000 0.8503 0.8503 0.8503 0.8504 0.8504
2092.000000 0.8504 0.8504 0.8504 0.8504 0.8504
2087.000000 0.8504 0.8504 0.8504 0.8504 0.8504
2082.000000 0.8504 0.8504 0.8504 0.8504 0.8504
2077.000000 0.8504 0.8504 0.8504 0.8505 0.8505
2072.000000 0.8505 0.8505 0.8505 0.8505 0.8505
2067.000000 0.8505 0.8505 0.8505 0.8505 0.8505
2062.000000 0.8505 0.8505 0.8505 0.8505 0.8505
2057.000000 0.8503 0.8502 0.8501 0.8500 0.8499
2052.000000 0.8498 0.8496 0.8495 0.8494 0.8493
2047.000000 0.8492 0.8491 0.8489 0.8488 0.8487
2042.000000 0.8486 0.8485 0.8484 0.8482 0.8481
2037.000000 0.8480 0.8478 0.8478 0.8477 0.8475
2032.000000 0.8474 0.8473 0.8471 0.8470 0.8468
2027.000000 0.8468 0.8467 0.8466 0.8466 0.8465
2022.000000 0.8465 0.8464 0.8464 0.8463 0.8463
2017.000000 0.8462 0.8461 0.8460 0.8460 0.8459
2012.000000 0.8459 0.8458 0.8458 0.8457 0.8457
2007.000000 0.8456 0.8456 0.8455 0.8455 0.8454
2002.000000 0.8454 0.8453 0.8452 0.8451 0.8450
1997.000000 0.8449 0.8448 0.8446 0.8445 0.8444
1992.000000 0.8444 0.8444 0.8445 0.8447 0.8448
1987.000000 0.8449 0.8451 0.8452 0.8453 0.8455
1982.000000 0.8456 0.8457 0.8458 0.8460 0.8461
1977.000000 0.8462 0.8464 0.8465 0.8466 0.8468
1972.000000 0.8471 0.8474 0.8477 0.8480 0.8483
1967.000000 0.8486 0.8489 0.8491 0.8494 0.8497
1962.000000 0.8500 0.8503 0.8506 0.8509 0.8512
1957.000000 0.8515 0.8517 0.8520 0.8521 0.8524
1952.000000 0.8527 0.8528 0.8532 0.8534 0.8536
1947.000000 0.8539 0.8541 0.8543 0.8546 0.8548
1942.000000 0.8551 0.8553 0.8555 0.8558 0.8560
1937.000000 0.8562 0.8565 0.8567 0.8568 0.8571
1932.000000 0.8574 0.8577 0.8578 0.8578 0.8580
1927.000000 0.8581 0.8582 0.8583 0.8584 0.8584
1922.000000 0.8585 0.8586 0.8587 0.8588 0.8589
1917.000000 0.8589 0.8590 0.8591 0.8592 0.8593
1912.000000 0.8594 0.8594 0.8595 0.8595 0.8595
1907.000000 0.8595 0.8596 0.8596 0.8596 0.8596
1902.000000 0.8596 0.8596 0.8596 0.8596 0.8596
1897.000000 0.8597 0.8597 0.8597 0.8597 0.8597
1892.000000 0.8597 0.8597 0.8597 0.8597 0.8597
1887.000000 0.8598 0.8598 0.8598 0.8598 0.8598
1882.000000 0.8598 0.8598 0.8598 0.8598 0.8598
1877.000000 0.8599 0.8599 0.8599 0.8599 0.8599
1872.000000 0.8599 0.8599 0.8599 0.8599 0.8600
1867.000000 0.8600 0.8600 0.8600 0.8600 0.8600
1862.000000 0.8600 0.8600 0.8600 0.8600 0.8598
1857.000000 0.8597 0.8596 0.8595 0.8593 0.8592
1852.000000 0.8591 0.8590 0.8588 0.8587 0.8587
1847.000000 0.8586 0.8586 0.8585 0.8585 0.8585
1842.000000 0.8584 0.8584 0.8584 0.8583 0.8583
1837.000000 0.8583 0.8582 0.8582 0.8582 0.8581
1832.000000 0.8581 0.8581 0.8580 0.8580 0.8580
1827.000000 0.8578 0.8578 0.8578 0.8578 0.8580
1822.000000 0.8581 0.8583 0.8584 0.8586 0.8587
1817.000000 0.8589 0.8590 0.8592 0.8594 0.8595
1812.000000 0.8597 0.8598 0.8600 0.8601 0.8603
1807.000000 0.8604 0.8606 0.8608 0.8609 0.8611
1802.000000 0.8612 0.8613 0.8615 0.8616 0.8617
1797.000000 0.8618 0.8620 0.8621 0.8623 0.8624
1792.000000 0.8625 0.8627 0.8628 0.8630 0.8632
1787.000000 0.8635 0.8637 0.8639 0.8642 0.8644
1782.000000 0.8647 0.8649 0.8651 0.8654 0.8656
1777.000000 0.8659 0.8661 0.8663 0.8666 0.8668
1772.000000 0.8670 0.8671 0.8674 0.8675 0.8678
1767.000000 0.8681 0.8683 0.8685 0.8687 0.8689
1762.000000 0.8692 0.8694 0.8696 0.8698 0.8700
1757.000000 0.8701 0.8702 0.8702 0.8703 0.8704
1752.000000 0.8705 0.8706 0.8707 0.8708 0.8709
1747.000000 0.8710 0.8711 0.8712 0.8713 0.8713
1742.000000 0.8714 0.8715 0.8716 0.8717 0.8718
1737.000000 0.8718 0.8718 0.8718 0.8718 0.8718
1732.000000 0.8717 0.8716 0.8715 0.8714 0.8713
1727.000000 0.8712 0.8712 0.8711 0.8710 0.8709
1722.000000 0.8708 0.8707 0.8706 0.8706 0.8705
1717.000000 0.8704 0.8703 0.8702 0.8701 0.8700
1712.000000 0.8700 0.8708 0.8698 0.8697 0.8696
1707.000000 0.8695 0.8694 0.8693 0.8693 0.8692
1702.000000 0.8691 0.8690 0.8689 0.8688 0.8687
1697.000000 0.8687 0.8686 0.8686 0.8685 0.8684
1692.000000 0.8684 0.8683 0.8683 0.8682 0.8681
1687.000000 0.8681 0.8680 0.8680 0.8678 0.8678
1682.000000 0.8678 0.8677 0.8677 0.8675 0.8675
1677.000000 0.8675 0.8675 0.8677 0.8678 0.8678
1672.000000 0.8680 0.8681 0.8683 0.8684 0.8684
1667.000000 0.8684 0.8683 0.8678 0.8674 0.8668
1662.000000 0.8664 0.8660 0.8655 0.8650 0.8646
1657.000000 0.8641 0.8637 0.8634 0.8631 0.8628
1652.000000 0.8625 0.8620 0.8613 0.8606 0.8599
1647.000000 0.8592 0.8585 0.8578 0.8571 0.8568
1642.000000 0.8566 0.8563 0.8560 0.8558 0.8555
1637.000000 0.8552 0.8550 0.8547 0.8538 0.8528
1632.000000 0.8518 0.8507 0.8497 0.8487 0.8477
1627.000000 0.8467 0.8457 0.8443 0.8428 0.8413
1622.000000 0.8398 0.8382 0.8367 0.8347 0.8325
1617.000000 0.8306 0.8284 0.8261 0.8237 0.8214
1612.000000 0.8190 0.8167 0.8136 0.8101 0.8068
1607.000000 0.8035 0.8001 0.7962 0.7922 0.7883
1602.000000 0.7843 0.7803 0.7749 0.7695 0.7641
1597.000000 0.7587 0.7506 0.7411 0.7314 0.7196
1592.000000 0.7078 0.6901 0.6730 0.6625 0.6521
1587.000000 0.6417 0.6316 0.6223 0.6115 0.6056
1582.000000 0.6028 0.6000 0.5972 0.5944 0.5919
1577.000000 0.5897 0.5885 0.5872 0.5858 0.5829
1572.000000 0.5793 0.5758 0.5706 0.5653 0.5600
1567.000000 0.5543 0.5485 0.5428 0.5370 0.5312
1562.000000 0.5236 0.5154 0.5038 0.4904 0.4819
1557.000000 0.4724 0.4583 0.4408 0.4369 0.4343
1552.000000 0.4340 0.4339 0.4295 0.4367 0.4419
1547.000000 0.4486 0.4550 0.4614 0.4703 0.4807
1542.000000 0.4889 0.4979 0.5068 0.5159 0.5249
1537.000000 0.5339 0.5429 0.5520 0.5610 0.5721
1532.000000 0.5857 0.5945 0.6031 0.6083 0.6134
1527.000000 0.6184 0.6234 0.6291 0.6349 0.6407
1522.000000 0.6464 0.6521 0.6598 0.6680 0.6755
1517.000000 0.6811 0.6865 0.6921 0.6976 0.7032
1512.000000 0.7083 0.7134 0.7185 0.7236 0.7287
1507.000000 0.7338 0.7389 0.7441 0.7492 0.7541
1502.000000 0.7585 0.7628 0.7674 0.7718 0.7761
1497.000000 0.7795 0.7826 0.7858 0.7890 0.7921
1492.000000 0.7953 0.7985 0.8014 0.8042 0.8071
1487.000000 0.8099 0.8119 0.8140 0.8161 0.8182
1482.000000 0.8199 0.8216 0.8234 0.8248 0.8261
1477.000000 0.8273 0.8286 0.8299 0.8312 0.8325
1472.000000 0.8337 0.8349 0.8361 0.8373 0.8385
1467.000000 0.8395 0.8399 0.8402 0.8406 0.8409
1462.000000 0.8413 0.8416 0.8420 0.8423 0.8427
1457.000000 0.8430 0.8433 0.8435 0.8437 0.8439
1452.000000 0.8440 0.8442 0.8444 0.8445 0.8447
1447.000000 0.8448 0.8451 0.8455 0.8458 0.8461
1442.000000 0.8465 0.8468 0.8471 0.8475 0.8478
1437.000000 0.8481 0.8483 0.8486 0.8488 0.8491
1432.000000 0.8493 0.8495 0.8498 0.8502 0.8506
1427.000000 0.8509 0.8513 0.8517 0.8521 0.8525
1422.000000 0.8528 0.8533 0.8537 0.8541 0.8545
1417.000000 0.8548 0.8552 0.8555 0.8559 0.8562
1412.000000 0.8565 0.8568 0.8571 0.8575 0.8578
1407.000000 0.8582 0.8585 0.8588 0.8591 0.8595
1402.000000 0.8598 0.8601 0.8605 0.8608 0.8611
1397.000000 0.8614 0.8618 0.8621 0.8624 0.8628
1392.000000 0.8631 0.8634 0.8638 0.8642 0.8641
1387.000000 0.8616 0.8550 0.8507 0.8495 0.8492
1382.000000 0.8492 0.8510 0.8523 0.8573 0.8635
1377.000000 0.8673 0.8673 0.8673 0.8671 0.8668
1372.000000 0.8667 0.8664 0.8661 0.8659 0.8659
1367.000000 0.8659 0.8659 0.8659 0.8659 0.8659
1362.000000 0.8657 0.8653 0.8650 0.8647 0.8641
1357.000000 0.8632 0.8624 0.8615 0.8601 0.8586
1352.000000 0.8571 0.8557 0.8543 0.8530 0.8518
1347.000000 0.8505 0.8497 0.8493 0.8490 0.8486
1342.000000 0.8482 0.8478 0.8475 0.8471 0.8468
1337.000000 0.8464 0.8460 0.8457 0.8453 0.8450
1332.000000 0.8447 0.8443 0.8440 0.8437 0.8434
1327.000000 0.8431 0.8428 0.8424 0.8421 0.8418
1322.000000 0.8415 0.8412 0.8410 0.8408 0.8406
1317.000000 0.8404 0.8402 0.8399 0.8397 0.8395
1312.000000 0.8393 0.8391 0.8389 0.8387 0.8385
1307.000000 0.8383 0.8382 0.8380 0.8378 0.8377
1302.000000 0.8375 0.8374 0.8373 0.8371 0.8370
1297.000000 0.8368 0.8365 0.8362 0.8359 0.8356
1292.000000 0.8353 0.8350 0.8344 0.8336 0.8328
1287.000000 0.8321 0.8313 0.8303 0.8292 0.8282
1282.000000 0.8263 0.8244 0.8218 0.8182 0.8144
1277.000000 0.8101 0.8060 0.8018 0.7971 0.7917
1272.000000 0.7861 0.7807 0.7735 0.7658 0.7584
1267.000000 0.7475 0.7357 0.7258 0.7164 0.7068
1262.000000 0.6950 0.6812 0.6501 0.6451 0.6407
1257.000000 0.6377 0.6350 0.6336 0.6334 0.6339
1252.000000 0.6344 0.6403 0.6371 0.6389 0.6408
1247.000000 0.6439 0.6469 0.6500 0.6532 0.6601
1242.000000 0.6671 0.6764 0.6867 0.6944 0.7014
1237.000000 0.7078 0.7128 0.7174 0.7197 0.7206
1232.000000 0.7211 0.7218 0.7219 0.7221 0.7221
1227.000000 0.7218 0.7200 0.7171 0.7139 0.7106
1222.000000 0.7072 0.7036 0.6992 0.6948 0.6918
1217.000000 0.6887 0.6848 0.6834 0.6871 0.6821
1212.000000 0.6817 0.6812 0.6808 0.6886 0.6956
1207.000000 0.7019 0.7085 0.7155 0.7235 0.7314
1202.000000 0.7375 0.7425 0.7474 0.7522 0.7571
1197.000000 0.7621 0.7671 0.7722 0.7775 0.7819
1192.000000 0.7854 0.7889 0.7922 0.7958 0.7992
1187.000000 0.8024 0.8055 0.8086 0.8115 0.8147
1182.000000 0.8178 0.8208 0.8236 0.8263 0.8291
1177.000000 0.8318 0.8347 0.8375 0.8404 0.8432
1172.000000 0.8458 0.8480 0.8502 0.8524 0.8545
1167.000000 0.8573 0.8596 0.8618 0.8640 0.8668
1162.000000 0.8685 0.8689 0.8743 0.8621 0.8618
1157.000000 0.8615 0.8612 0.8609 0.8608 0.8608
1152.000000 0.8609 0.8610 0.8611 0.8612 0.8612
1147.000000 0.8612 0.8612 0.8612 0.8612 0.8611
1142.000000 0.8610 0.8609 0.8608 0.8607 0.8605
1137.000000 0.8603 0.8601 0.8599 0.8597 0.8594
1132.000000 0.8592 0.8590 0.8588 0.8587 0.8585
1127.000000 0.8581 0.8575 0.8571 0.8566 0.8559
1122.000000 0.8544 0.8520 0.8497 0.8458 0.8411
1117.000000 0.8375 0.8343 0.8311 0.8294 0.8277
1112.000000 0.8270 0.8263 0.8257 0.8256 0.8255
1107.000000 0.8259 0.8264 0.8268 0.8271 0.8275
1102.000000 0.8278 0.8282 0.8286 0.8291 0.8296
1097.000000 0.8302 0.8309 0.8315 0.8321 0.8325
1092.000000 0.8327 0.8328 0.8332 0.8333 0.8328
1087.000000 0.8317 0.8331 0.8281 0.8257 0.8227
1082.000000 0.8211 0.8196 0.8181 0.8167 0.8153
1077.000000 0.8140 0.8128 0.8115 0.8101 0.8086
1072.000000 0.8071 0.8062 0.8058 0.8056 0.8053
1067.000000 0.8058 0.8035 0.8075 0.8087 0.8099
1062.000000 0.8110 0.8121 0.8134 0.8148 0.8161
1057.000000 0.8175 0.8191 0.8205 0.8218 0.8233
1052.000000 0.8247 0.8261 0.8275 0.8290 0.8304
1047.000000 0.8320 0.8336 0.8352 0.8368 0.8381
1042.000000 0.8393 0.8404 0.8413 0.8421 0.8428
1037.000000 0.8435 0.8439 0.8438 0.8437 0.8436
1032.000000 0.8431 0.8410 0.8375 0.8309 0.8254
1027.000000 0.8211 0.8162 0.8108 0.8030 0.7935
1022.000000 0.7851 0.7767 0.7649 0.7522 0.7408
1017.000000 0.7294 0.7178 0.7064 0.6949 0.6834
1012.000000 0.6718 0.6605 0.6490 0.6390 0.6351
1007.000000 0.6314 0.6301 0.6296 0.6292 0.6293
1002.000000 0.6304 0.6329 0.6358 0.6391 0.6441
997.000000 0.6491 0.6550 0.6612 0.6674 0.6734
992.000000 0.6785 0.6851 0.6868 0.6871 0.6874
987.000000 0.6905 0.6861 0.6818 0.6757 0.6690
982.000000 0.6636 0.6584 0.6530 0.6514 0.6514
977.000000 0.6512 0.6478 0.6542 0.6584 0.6651
972.000000 0.6758 0.6878 0.6992 0.7083 0.7174
967.000000 0.7258 0.7334 0.7411 0.7487 0.7562
962.000000 0.7637 0.7711 0.7786 0.7849 0.7905
957.000000 0.7960 0.8015 0.8061 0.8105 0.8147
952.000000 0.8180 0.8209 0.8238 0.8262 0.8285
947.000000 0.8307 0.8328 0.8349 0.8368 0.8387
942.000000 0.8399 0.8409 0.8410 0.8411 0.8412
937.000000 0.8414 0.8416 0.8418 0.8420 0.8420
932.000000 0.8420 0.8421 0.8427 0.8441 0.8457
927.000000 0.8474 0.8492 0.8509 0.8525 0.8536
922.000000 0.8537 0.8538 0.8539 0.8539 0.8536
917.000000 0.8528 0.8528 0.8524 0.8518 0.8513
912.000000 0.8496 0.8465 0.8430 0.8421 0.8418
907.000000 0.8413 0.8409 0.8404 0.8400 0.8395
902.000000 0.8391 0.8382 0.8373 0.8365 0.8356
897.000000 0.8347 0.8338 0.8328 0.8320 0.8311
892.000000 0.8302 0.8292 0.8283 0.8273 0.8263
887.000000 0.8253 0.8243 0.8233 0.8223 0.8213
882.000000 0.8204 0.8194 0.8185 0.8175 0.8165
877.000000 0.8156 0.8147 0.8134 0.8111 0.8088
872.000000 0.8050 0.8008 0.7962 0.7897 0.7835
867.000000 0.7819 0.7805 0.7790 0.7781 0.7771
862.000000 0.7764 0.7755 0.7746 0.7721 0.7694
857.000000 0.7665 0.7637 0.7610 0.7578 0.7545
852.000000 0.7511 0.7471 0.7428 0.7387 0.7306
847.000000 0.7180 0.6843 0.6734 0.6592 0.6449
842.000000 0.6334 0.6233 0.6133 0.6023 0.5895
837.000000 0.5767 0.5623 0.5423 0.5223 0.4854
832.000000 0.3764 0.3584 0.3407 0.3248 0.3088
827.000000 0.2920 0.2694 0.2483 0.2281 0.1572
822.000000 0.1329 0.1182 0.0655 0.0530 0.0390
817.000000 0.0294 0.0197 0.0100 0.0003 0.0001
812.000000 0.0001 0.0001 0.0001 0.0001 0.0001
807.000000 0.0001 0.0001 0.0001 0.0001 0.0001
802.000000 0.0001 0.0001 0.0001 0.0001 0.0001
797.000000 0.0001 0.0001 0.0001 0.0001 0.0001
792.000000 0.0001 0.0001 0.0001 0.0001 0.0001
787.000000 0.0001 0.0001 0.0001 0.0001 0.0001
782.000000 0.0001 0.0001 0.0001 0.0001 0.0001
777.000000 0.0002 0.0002 0.0002 0.0002 0.0002
772.000000 0.0002 0.0002 0.0002 0.0002 0.0002
767.000000 0.0002 0.0002 0.0002 0.0002 0.0002
762.000000 0.0002 0.0002 0.0002 0.0002 0.0002
757.000000 0.0002 0.0002 0.0002 0.0002 0.0002
752.000000 0.0002 0.0002 0.0002 0.0002 0.0002
747.000000 0.0002 0.0002 0.0002 0.0002 0.0002
742.000000 0.0002 0.0002 0.0002 0.0002 0.0002
737.000000 0.0002 0.0002 0.0002 0.0002 0.0236
732.000000 0.0506 0.0776 0.0975 0.1073 0.1957
727.000000 0.2368 0.2695 0.3371 0.3574 0.3771
722.000000 0.3938 0.4106 0.4292 0.4494 0.4681
717.000000 0.4847 0.5012 0.5245 0.5526 0.5997
712.000000 0.6303 0.6437 0.6560 0.6683 0.6741
707.000000 0.6797 0.6853 0.6908 0.6953 0.6996
702.000000 0.7039 0.7082 0.7137 0.7233 0.7328
697.000000 0.7419 0.7501 0.7547 0.7592 0.7638
692.000000 0.7684 0.7728 0.7775 0.7819 0.7862
687.000000 0.7906 0.7950 0.7993 0.8036 0.8080
682.000000 0.8140 0.8199 0.8258 0.8318 0.8357
677.000000 0.8396 0.8434 0.8468 0.8496 0.8523
672.000000 0.8547 0.8560 0.8573 0.8586 0.8598
667.000000 0.8608 0.8618 0.8628 0.8640 0.8649
662.000000 0.8656 0.8664 0.8671 0.8680 0.8687
657.000000 0.8695 0.8703 0.8710 0.8717 0.8724
652.000000 0.8731 0.8737 0.8744 0.8751 0.8757
647.000000 0.8764 0.8771 0.8777 0.8783 0.8789
642.000000 0.8795 0.8801 0.8807 0.8813 0.8820
637.000000 0.8768 0.8830 0.8831 0.8831 0.8832
632.000000 0.8834 0.8834 0.8831 0.8828 0.7972
627.000000 0.8804 0.8703 0.7994 0.8010 0.8035
622.000000 0.8065 0.8117 0.8168 0.8205 0.8241
617.000000 0.8277 0.8312 0.8348 0.8382 0.8411
612.000000 0.8439 0.8468 0.8497 0.8523 0.8547
607.000000 0.8571 0.8596 0.8620 0.8632 0.8641
602.000000 0.8650 0.8659 0.8666 0.8670 0.8674
597.000000 0.8678 0.8682 0.8686 0.8689 0.8693
592.000000 0.8694 0.8694 0.8694 0.8694 0.8694
587.000000 0.8693 0.8693 0.8693 0.8692 0.8690
582.000000 0.8686 0.8682 0.8678 0.8674 0.8670
577.000000 0.8666 0.8662 0.8655 0.8643 0.8631
572.000000 0.8618 0.8606 0.8594 0.8580 0.8567
567.000000 0.8554 0.8541 0.8528 0.8514 0.8507
562.000000 0.8503 0.8498 0.8494 0.8489 0.8484
557.000000 0.8481 0.8480 0.8478 0.8478 0.8477
552.000000 0.8475 0.8475 0.8474 0.8471 0.8471
547.000000 0.8468 0.8468 0.8462 0.8455 0.8449
542.000000 0.8436 0.8418 0.8401 0.8384 0.8364
537.000000 0.8342 0.8320 0.8299 0.8277 0.8255
532.000000 0.8231 0.8208 0.8184 0.8157 0.8128
527.000000 0.8107 0.8119 0.8099 0.8101 0.8112
522.000000 0.8128 0.8146 0.8165 0.8186 0.8206
517.000000 0.8223 0.8235 0.8248 0.8260 0.8267
512.000000 0.8274 0.8281 0.8284 0.8287 0.8290
507.000000 0.8293 0.8354 0.8297 0.8298 0.8300
502.000000 0.8301 0.8303 0.8303 0.8303 0.8304
497.000000 0.8304 0.8304 0.8301 0.8297 0.8292
492.000000 0.8287 0.8270 0.8244 0.8218 0.8171
487.000000 0.8100 0.7884 0.7824 0.7765 0.7706
482.000000 0.7649 0.7598 0.7547 0.7496 0.7445
477.000000 0.7411 0.7385 0.7358 0.7337 0.7318
472.000000 0.7305 0.7300 0.7307 0.7331 0.7328
467.000000 0.7345 0.7361 0.7378 0.7394 0.7403
462.000000 0.7411 0.7421 0.7425 0.7428 0.7432
457.000000 0.7435 0.7435 0.7435 0.7432 0.7421
452.000000 0.7410 0.7395 0.7376 0.7360 0.7340
447.000000 0.7319 0.7299 0.7284 0.7268 0.7251
442.000000 0.7241 0.7239 0.7290 0.7246 0.7250
437.000000 0.7255 0.7267 0.7284 0.7301 0.7321
432.000000 0.7344 0.7365 0.7380 0.7388 0.7397
427.000000 0.7405 0.7412 0.7421 0.7431 0.7440
422.000000 0.7450 0.7460 0.7465 0.7472 0.7478
417.000000 0.7485 0.7489 0.7528 0.7495 0.7497
412.000000 0.7499 0.7499 0.7496 0.7493 0.7490
407.000000 0.7487 0.7482 0.7475 0.7468 0.7461
402.000000 0.7455 0.7448 0.7441 0.7434 0.7426
397.000000 0.7418 0.7411 0.7404 0.7397 0.7389
392.000000 0.7381 0.7375 0.7371 0.7368 0.7365
387.000000 0.7362 0.7360 0.7357 0.7354 0.7355
382.000000 0.7355 0.7355 0.7355
##END=
