##TITLE=Carbon Tetrachloride
##JCAMP-DX=4.24
##DATA TYPE=INFRARED SPECTRUM
##CLASS=IUPAC A
##ORIGIN=NIST, Analytical Chemistry Division, 301-975-3108
##OWNER=COPYRIGHT (C) 2000 by the U.S. Secretary of Commerce
##DATE=00/02/01
##$SPECTRA VERSION=1.10
##$UNCERTAINTY IN Y=2.1 % relative (B=1.1E-04,C=2.7E-09,D=1.4E-13)
##CAS NAME=Carbon tetrachloride
##CAS REGISTRY NO=56-23-5
##MOLFORM=C Cl4
##MP=-22.99 C
##BP=76.54 C
##$NIST SOURCE=QUANT-IR
##SPECTROMETER/DATA SYSTEM=IFS66V (Bruker)
##INSTRUMENT PARAMETERS=KBr Beam Splitter; MCT Detector; Multipass cell
##STATE=gas
##SAMPLE DESCRIPTION=Carbon Tetrachloride Primary Gas Standard
##PRESSURE=101.3 Pa
##TEMPERATURE=23 C
##SAMPLING PROCEDURE=1 L/min Flow
##RESOLUTION=0.9640
##DATA PROCESSING=Happ Genzel Apodization
##XUNITS=cm-1
##YUNITS=(micromol/mol)-1m-1 (base 10)
##XFACTOR=1.0
##YFACTOR=7.2759E-12
##DELTAX=0.4820
##FIRSTX=575.17
##LASTX=3974.605
##FIRSTY=-9.73E-07
##MAXX=3974.12
##MINX=575.17
##MAXY=.0056544
##MINY=-3.49E-06
##NPOINTS=7052
##XYDATA=(X++(Y..Y))
575.17-133802-85561 93843 221724 98808-2496
577.58 39738 64681 51295 43570 34321 137778
580.47 91519 95028 271713 214170 59219 80193
583.37 26457 97616 37443-96541-85932-7579
586.26-2668 7651 11753 760 42268 128897
589.15 38066 40749 1877-59575-73997 16039
592.04-34132-50052-8290 51004 48720 5975
594.94-79376-48387 3550 8387-16636 22445
597.83-56603 23225 50425 16185-18039 28369
600.72 15122 2546-46950-9184-10046 30149
603.62 22240 68519 32696 43322 43698-374
606.51-13509 31678 30805 37711-45600-48105
609.40-51189-5967 10973 35733 45846 56670
612.29-31007-8363 2037 33981-4336 11030
615.19-44522-12053 16591 20319-33329 36010
618.08 99005 102269 57121 104551 79467 71666
620.97 98244 189738 172843 123428 37698 75486
623.86 100943 143960 136549 162374 136944 206026
626.76 196905 187151 124200 136164 117206 139082
629.65 124022 164486 197040 204269 142947 140762
632.54 101045 99834 43898 77124 41188 57854
635.44 39397 57530 34708 56787 21532 4184
638.33-10689 33060-3430 4642-13755 34700
641.22 19395 59158 44613 61562 6551 30480
644.11-13062-14579-36604 16887 2487 9458
647.01-39958-11064-12667 26548-14212-5129
649.90-1644 51967 19269 56236 16845 27690
652.79-16668-3098-28938-1533-9556 17383
655.68-6629 37056 12764 71287 47113 38424
658.58-27845 4727 15935 54154 16603-6141
661.47-39546 3490-21563 15997-19497 6391
664.36-2542 25229-10786 15890-9268-8801
667.26-49316 10229 18678 3816-69104 1864
670.15-3566 28379 2813 22342-47801-23070
673.04-19756 49172 34593 62945 29852 43203
675.93-21489-6278-56417-7477 1371 45717
678.83 18521 12793-51607 27241 15073 43436
681.72-2021 13187-883 44543 3320 42848
684.61-23337-19026-58478-10664-19353 18331
687.50-9507 42995 27580 82245 9092 26574
690.40 393 27967-15305 45643 19402 44039
693.29 2227 36481-14604 7781-21345 60397
696.18 51507 76214 38433 50096-20582 16479
699.08 1374 57006 16151 77185 44258 69917
701.97 12685 36092-18232 42085 15890 54111
704.86 37040 74570 22930 49472-2304 56359
707.75 22162 69780 41737 69535 19494 64575
710.65-1496 57553 38112 75630 32699 111206
713.54 47117 60033 4649 51205 31532 73347
716.43 3121 68749 46350 95897 48270 95684
719.32 31171 91982 56882 94019 67794 169953
722.22 132476 186298 147338 189563 140558 216908
725.11 179713 261836 249741 332000 293655 351097
728.00 314526 414056 384441 452125 424166 551633
730.90 561737 657420 643320 756968 772389 907461
733.79 917579 1059151 1111892 1289823 1343617 1531622
736.68 1627185 1874068 2003827 2256892 2407705 2691268
739.57 2884538 3242650 3467689 3871678 4220335 4740656
742.47 5140818 5715380 6174612 6793675 7245468 7874064
745.36 8396033 9147207 9849313 10828156 11812109 13056519
748.25 14126492 15264339 16105803 17099209 18103608 19558935
751.14 21115756 22834726 24192642 25580462 26916495 28796261
754.04 30950412 33667424 35885705 37561795 38623433 39991319
756.93 41750776 44437330 47487048 51068956 53059244 53043880
759.82 53790658 56423768 58925471 60907412 60445698 60133423
762.72 61269441 64640686 72521516 79594676 78121807 73284694
765.61 70130668 69497059 71990657 77783601 82904223 92985802
768.50 103454712 108401480 98491500 80245299 69594203 69700970
771.39 78623293 99869913 134846942 146010078 111119373 88732750
774.29 88866518 91722940 94136067 96944696 99570340 102288036
777.18 104381949 106507186 107898776 108781379 108635075 108316855
780.07 107000973 105345343 102410253 99289946 95019607 90569450
782.96 85301099 80415672 75153271 71931998 70164778 72096931
785.86 77010165 86004027 97320326 113321255 132949937 159184355
788.75 190888086 229522671 274735574 329063837 388903053 452170600
791.64 520509201 595764107 664335791 720853023 751511248 762711677
794.54 774875816 777146934 756446555 721189349 681032992 639652733
797.43 574672878 504624953 406439622 330849756 299297914 272940340
800.32 242794740 211303598 176085263 143113628 124301277 108071252
803.21 94379106 79593742 68644236 59179431 51683661 44008117
806.11 38259871 32528363 28176573 23804149 20723036 17505627
809.00 15373200 13021308 11576039 9878743 8931597 7628406
811.89 6983000 6006838 5611129 4851367 4603463 3991519
814.78 3815081 3263434 3166233 2713717 2676517 2303851
817.68 2289209 1923277 1875525 1502592 1506713 1253320
820.57 1297139 1056727 1146665 930725 973698 779792
823.46 855097 651066 699544 511382 617854 463474
826.36 533041 373223 434232 281706 390436 270014
829.25 351934 207523 289565 163351 254251 145582
832.14 252346 104063 184399 84851 171273 54563
835.03 159594 86284 184499 90973 155352 26995
837.93 110688 28472 110628 12011 110498 51605
840.82 117546 10307 83722 4131 91896 14758
843.71 95355 44109 109672 40418 113873 30028
846.60 102509 19573 88529 33597 107002 35401
849.50 104745 45020 112264 3903 46555 2131
852.39 99230 41970 115737 52535 112291 18299
855.28 60784-3770 70857 29834 105266 55961
858.18 101369 15513 69100 6514 69505 28365
861.07 90806 37696 87239 25793 83647 24037
863.96 66460 16768 67608 17204 86754 41070
866.85 86313 34536 101135 49254 86853 36168
869.75 118993 77872 121470 62975 100873 51791
872.64 98134 67501 123562 63255 114538 82901
875.53 125240 69204 114630 63437 99588 64796
878.42 122064 81015 136527 89768 118627 78589
881.32 117317 76608 135593 82150 116512 89533
884.21 124700 69234 110751 80462 117010 60734
887.10 100259 61979 107927 72345 97609 49464
889.99 95248 43419 68523 47393 99356 60749
892.89 104910 70414 105248 50281 75153 35356
895.78 81469 37538 74437 53246 88588 48495
898.67 78271 30708 63212 20631 62540 45100
901.57 90581 43701 65706 31526 67644 30707
904.46 56632 20315 63178 28485 53529 25217
907.35 55868 22827 45345-1862 39081 18105
910.24 64830 30833 50821 8297 28883 1678
913.14 46680 10094 36209 16768 46319 6470
916.03 41971 11426 31071-4892 23269-11426
918.92 13827-2532 18140-21369 10086-24108
921.81 12043 7743 51996 9256 23914 1700
924.71 29390-7316 11029-6923 20201-3393
927.60 34741 9576 39796 1959 7858-20097
930.49 17753-5705 33667 16874 38633 7659
933.39 37049 7331 20189-11265 13246-7880
936.28 25601-2896 27991 1451 20916-7413
939.17 20647-2488 31791 9228 32396 6318
942.06 32109 4277 21224-1661 25641 1045
944.96 35911 15934 53142 25097 37408 13629
947.85 37452 13958 47380 24006 43116 19097
950.74 39506 8486 27258-7869 13946 2077
953.63 39348 24429 52672 39461 55835 25268
956.53 54548 32297 61356 45294 69069 48334
959.42 64398 35352 63120 44006 74434 68683
962.31 99451 84607 119042 106777 131815 106907
965.21 134884 123140 146566 126703 164039 165312
968.10 204811 191399 204564 169915 199133 196597
970.99 234120 220427 248447 242243 280016 267757
973.88 295254 280716 308301 285356 308454 301174
976.78 329903 313893 339896 309073 329525 307690
979.67 331580 326411 358367 339592 352006 320029
982.56 334355 327074 354041 337701 369214 357067
985.45 369945 335923 337737 290053 279135 272337
988.35 317890 331305 386107 394992 415289 341891
991.24 317546 304215 331197 328853 373219 387873
994.13 419214 412671 448035 436554 465375 463418
997.03 493073 485948 516305 514769 555837 559542
999.92 584780 565172 588470 583183 613917 613758
1002.81 662759 669403 687986 676806 699966 691532
1005.70 714387 703742 729411 733626 766717 739458
1008.60 737431 714484 734320 719170 737381 723332
1011.49 733802 707877 711831 669304 685692 686503
1014.38 705063 664820 653620 629815 651536 639452
1017.27 648107 611646 606141 566217 567903 536755
1020.17 524780 488051 484316 431635 405774 366437
1023.06 367665 328394 336708 318732 314064 266396
1025.95 247867 208491 208507 169703 172370 159705
1028.85 168506 141988 137525 99842 93997 55744
1031.74 55542 32937 51051 40170 50153 22557
1034.63 22687 4318 12116-15099-1819-14557
1037.52 10-14024 2025-22918-21284-37637
1040.42-1639-3032 8071-20365-14789-15290
1043.31 8331-17721-9574-19992-4838-27208
1046.20-8604-10054 10931-2915 2721-20132
1049.09-11332-26074-7910-13437 11360 11084
1051.99 30724 15589 16361-18607-9413-16758
1054.88 13347 15365 31971 1191 11994-1655
1057.77 19051 22640 39364 24061 27607 26216
1060.67 56826 33195 43142 50464 59303 41765
1063.56 64521 55412 71520 60922 73603 64141
1066.45 75892 57806 74383 78250 104809 77941
1069.34 76376 54037 67080 48285 57414 59019
1072.24 71297 65645 105856 99040 99165 64331
1075.13 61922 38907 60577 60851 71508 67520
1078.02 91743 64007 57363 37532 48666 34415
1080.91 53314 31474 34937 22749 41033 24120
1083.81 15567-5547 20590 18598 34591 16441
1086.70 21560 9707 6497-9962 2824-5906
1089.59 13317 11250 25832 20375 38435 12862
1092.49 8619-6898-3178-17118 14238 13286
1095.38 17795 15193 32995 18940 30645 24742
1098.27 47483 35133 41356 30101 43764 33087
1101.16 41787 24743 30945 21025 40159 40023
1104.06 65038 46772 43546 30528 45608 34987
1106.95 53908 55509 63605 42573 56832 41784
1109.84 54749 53844 77194 62412 74592 72649
1112.73 75682 63022 82463 68883 76504 62292
1115.63 79114 86201 108439 82616 83577 60496
1118.52 55226 40984 46491 36865 61087 50806
1121.41 48782 29126 36259 20878 20186 3559
1124.31 29463 33371 36033 30869 47356 19544
1127.20 10952-19725-20917-27310-9668-11390
1130.09 4710-10002-18625-50961-44720-49439
1132.98-13089-12816-15552-40072-33544-44614
1135.88-35915-56171-58071-60377-44637-45842
1138.77-23812-39378-41839-54835-52776-64696
1141.66-40490-47042-33410-33119-9749-33376
1144.55-41337-58345-52147-54396-33399-40192
1147.45-29437-35902-23357-46084-45270-52289
1150.34-35744-35902-16825-16714-16948-40999
1153.23-27493-34147-28095-39262-24018-29252
1156.13-8417-13281-14591-41504-26439-31631
1159.02-28013-40483-22450-17880 1051-15401
1161.91-15861-31872-27788-34795-18793-32067
1164.80-12126-3388 12111-14103-22678-28746
1167.70-13273-15600-9264-15025 1236 815
1170.59 4192-18187-12603-17208 6184 2378
1173.48 9882 1487 12908 4861 4323-15239
1176.37-1436-196 7777 7092 31211 24049
1179.27 17636 1283 2220-11736 130-3020
1182.16 9849 8932 33653 20466 12571-6103
1185.05 890-2970 26719 37869 51044 31888
1187.95 32088 19758 11388 676 31379 34373
1190.84 48846 40304 51617 44128 38111 32191
1193.73 41655 32502 49971 51096 70654 58930
1196.62 73821 73579 69610 52535 71145 61038
1199.52 74608 83976 100759 80678 91184 79784
1202.41 88264 93355 111533 107183 124241 123631
1205.30 136573 124259 125016 119686 145317 153081
1208.19 179194 183029 198760 179836 176514 164560
1211.09 173847 170523 189495 191216 217137 221774
1213.98 231214 224541 240185 235969 252126 262886
1216.87 291354 292739 301794 281368 272836 257172
1219.77 251722 232088 257157 281047 316205 328083
1222.66 338620 329238 349063 351510 369551 379062
1225.55 379112 319932 288475 269197 265523 232288
1228.44 224056 225120 262010 298506 359221 408551
1231.34 453712 395399 303520 239911 233118 231502
1234.23 255266 257484 266488 252156 262645 251187
1237.12 263603 269086 295333 307278 321179 318243
1240.01 335989 323694 320574 298546 294231 287390
1242.91 315334 335716 362862 370439 393247 403567
1245.80 440786 460651 493126 506703 542875 561595
1248.69 591925 595970 607609 625831 680360 711953
1251.59 756756 779287 822490 841441 879956 884274
1254.48 890156 881256 877010 904728 954906 958975
1257.37 954299 925455 903386 857561 827445 765965
1260.26 714133 708808 750885 746466 745237 712738
1263.16 680448 626267 549663 390880 283579 271590
1266.05 303599 306647 306715 276246 263270 245108
1268.94 240706 218652 202276 179653 174328 149563
1271.83 148008 145455 156756 161167 164541 152217
1274.73 168295 156816 165964 161641 159317 149964
1277.62 157047 163990 162987 143107 137853 118101
1280.51 110133 102308 121990 118123 126347 121976
1283.41 134854 128246 111905 82846 80938 76545
1286.30 75704 58587 79178 82573 78479 53142
1289.19 44290 23642 24707 20417 28917 30782
1292.08 45228 31013 27526 17990 19631 12002
1294.98 15854 2478 11328 741 5378-5802
1297.87-4211-12343-3090-11265 10204 10964
1300.76 12184 2564 3418-15337-13833-21026
1303.65-10403-10783-6371-13402-5939-23600
1306.55-36741-46516-27291-31533-28007-29181
1309.44-14844-19115-11079-27780-30340-34439
1312.33-19590-20700-21470-30088-25418-33704
1315.23-28000-43519-40598-50269-43450-46974
1318.12-36215-37209-28623-37127-36371-47749
1321.01-30764-29133-22724-26566-20549-30107
1323.90-21766-32191-30173-45127-35445-24132
1326.80-11283-24292-21421-33707-37953-56191
1329.69-44863-38841-23580-25831-4041-14043
1332.58-24223-29302-26430-49346-38175-26741
1335.47-6276-19924-23487-22803-21935-49311
1338.37-50173-45685-31675-37103-17444-18482
1341.26-12890-24000-25670-43297-37905-33874
1344.15-11133-12645 818-9781-22637-43659
1347.05-44281-51081-39579-33032-18067-28246
1349.94-24937-39156-52018-74124-53164-30016
1352.83-16768-9389 22994 31380 39310 46898
1355.72 47379 29895 21705 15345 40114 24340
1358.62 3061-19384-32834-53195-41257-23264
1361.51-15626-27981-28544-36595-15212-3926
1364.40 5232-2002 5314-8593 6028 12530
1367.29 25697 19471 15802-7125-12304-11130
1370.19 12168 10371 13783 8252 9071-15927
1373.08-21483-20698 2066-4541 19522 31569
1375.97 28557 13415 12975 7263 22416-2438
1378.87-7620 7228 27377 33858 36453 8939
1381.76 3941-1372 2836 4507 22689 17936
1384.65 13912 2569 2091-17152-35473-66682
1387.54-24072-7398 4516 5043 7132-2149
1390.44 9590 609-1240-10660 2640-4583
1393.33-14993-64774-41891-16384-28267-32454
1396.22-8845-10761-7450-6987-17222-70034
1399.11-53223-25767-15649-19202-723-206
1402.01 2671-11916-16901-34673-39790-65131
1404.90-49584-22049-9302-15361-7320-15775
1407.79-23704-33110-32501-30555-15319-20832
1410.69-4839 983-7135-27921-28420-35676
1413.58-32870-36322-15621-18512-19323-28094
1416.47-36748-60665-47169-45889-93295-172094
1419.36-93839-19945-15904-25150-20273-34318
1422.26-28900-32134-28083-28241-17711-30019
1425.15-29350-33394-26526-33335-30355-31804
1428.04-21360-23987-35476-57069-37781-31379
1430.93-22738-30531-24365-20114-14568-32025
1433.83-32236-39592-40549-45361-105251-180519
1436.72-96222-22964-15188-26409-26005-37579
1439.61-31212-30262-18938-14850-7297-17733
1442.51-16114-19307-24857-39996-35935-28761
1445.40-12315-17903-18725-35758-68419-76277
1448.29-47965-38296-26569-30579-22773-26396
1451.18-28231-46941-43042-47916-37128-34680
1454.08-25756-40793-42655-81606-208962-260656
1456.97-129778-99962-91328-59577-40681-25896
1459.86-13202-28316-34458-44090-36869-32139
1462.75-14874-16925-34107-98100-89201-39069
1465.65-26724-39480-24872-20278-12375-9123
1468.54-9247-28269-27695-34502-42723-84832
1471.43-128802-98071-61795-125123-98611-46379
1474.33-31958-39479-54386-72227-32913-15053
1477.22-12257-22690-25443-25418-18614-24060
1480.11-22321-31761-21340-20617-16492-24244
1483.00-23550-30914-20415-11268 5250-5851
1485.90-11362-47226-78784-59938-30712-35519
1488.79-35597-53762-43539-59958-37523-19425
1491.68-12482-9703-3461-181 6615-1151
1494.57-3778-38224-140295-137186-31154-9146
1497.47 2901-28538-43682-4893 23871 8985
1500.36 7692 4454 16002 31434 44109 39713
1503.25 41809 31759 14883-99192-170037-75672
1506.15-102192-159290-31602 29289 23976 30413
1509.04 34935 31586 54282 69561 85517 53356
1511.93 50667 85186 90868 82827 83104 75277
1514.82 100835 118443 106707 77030 63844 67839
1517.72 105316 113385 123417 101430 77877 58771
1520.61-28616 2769 111029 87308 119841 158514
1523.50 175616 174282 158344 118080 154007 178528
1526.39 167954 150292 179273 178572 193696 221615
1529.29 244116 250000 263422 252232 249219 244907
1532.18 236522 204672 185550 201033 267715 278371
1535.07 290936 299221 330950 356089 390634 396085
1537.97 336751 191673 250956 283429 267108 391587
1540.86 455374 380822 398991 516619 550798 553634
1543.75 570611 547752 544685 616967 681111 708459
1546.64 744964 764053 777600 786609 806127 805051
1549.54 814219 842446 895904 926202 952343 959256
1552.43 975782 978483 945592 910181 1017462 1091638
1555.32 1122711 1127134 1118046 1040359 1005588 942612
1558.21 969219 1116129 1096517 1035575 1146690 1274650
1561.11 1305802 1283748 1278386 1298909 1313050 1325613
1564.00 1339253 1360789 1401350 1421595 1429983 1418449
1566.89 1382777 1350716 1318313 1274889 1245175 1225944
1569.79 1290847 1341927 1345494 1327298 1308714 1267890
1572.68 1232620 1208176 1190923 1176422 1178910 1110633
1575.57 969828 1054926 1217832 1236308 1233593 1214618
1578.46 1196034 1173001 1162468 1152337 1155731 1150083
1581.36 1146118 1132468 1121324 1101531 1110536 1106021
1584.25 1104260 1123191 1118919 1085908 1075659 1073245
1587.14 1068927 1058337 1066792 1047940 1042239 1053648
1590.03 1055479 1051865 1085697 1084759 1036592 996793
1592.93 992660 999032 1004132 997085 1017891 1016455
1595.82 988904 937461 913658 931262 942674 918786
1598.71 913060 899667 883663 855134 829653 810412
1601.61 801399 779889 756309 732885 722466 699236
1604.50 669150 633582 611837 583779 555140 530883
1607.39 523301 503719 481020 441123 418559 395334
1610.28 373823 352908 348180 329784 314385 291664
1613.18 267768 238721 224406 212184 193493 104971
1616.07-49199-15391 113402 124445 115574 95684
1618.96 91063 81189 80649 74350 69740 60119
1621.85 49364 10272-41641-51818-726 12143
1624.75 21363 12269 13692-3312-20205-57463
1627.64-46642-27135-15909-19103-16248-17073
1630.53-11655-25061-28589-31100-24445-28365
1633.43-24282-53266-108571-212161-211884-90600
1636.32-42754-59363-53245-33265-21864-20945
1639.21-15621-24097-28588-34775-27663-25144
1642.10-13227-11816-14441-21773-24739-41240
1645.00-114094-196352-111190-55281-70544-69561
1647.89-65274-38817-25622-24849-30295-38269
1650.78-40489-101371-264770-331855-353950-241566
1653.67-130116-130887-63072-39893-27421-32273
1656.57-23656-39252-44039-51234-37805-39264
1659.46-31781-37433-33806-43659-47294-91628
1662.35-121196-78735-35948-36517-32717-39272
1665.25-35705-41893-38132-51971-54378-61085
1668.14-71194-138737-135482-68643-46245-70152
1671.03-81860-57384-39889-39399-34223-41960
1673.92-62022-146364-180877-101997-50074-49093
1676.82-42933-41347-40524-47490-52358-67081
1679.71-62234-52421-38115-44394-44066-71740
1682.60-114714-130357-148042-302548-326048-127743
1685.49-52965-50565-46503-45873-58405-64780
1688.39-49052-52400-71799-65196-45410-39567
1691.28-39267-42562-44328-49629-49328-49711
1694.17-54815-119369-303258-317359-119974-66652
1697.07-64208-54925-56263-83307-173343-283632
1699.96-273730-202920-98945-59768-46844-55534
1702.85-51907-67844-92601-79345-45368-66195
1705.74-95368-80131-46910-43960-37653-45200
1708.64-43620-51024-60241-64090-50935-50085
1711.53-43637-45741-41486-59164-67796-72557
1714.42-106735-109805-53910-55768-120654-253056
1717.31-177574-108747-122231-80980-49069-50256
1720.21-43874-44321-43937-45046-40973-50512
1723.10-48107-41256-41167-49254-45973-43657
1725.99-33437-40798-39640-34058-32168-43942
1728.89-47282-70776-70171-58643-53768-56574
1731.78-56416-96708-191409-178908-178564-217291
1734.67-108668-52666-41423-46432-42341-53837
1737.56-52045-51441-53160-113294-131769-72580
1740.46-36577-42030-45144-52244-58563-65289
1743.35-44922-42749-42641-44250-43328-49059
1746.24-50813-62217-53861-65619-75068-67791
1749.13-49832-47612-70313-142422-142923-77388
1752.03-47444-45552-37762-34222-28103-35373
1754.92-39368-43807-60009-82708-55345-43418
1757.81-35576-40369-38387-38464-38390-43865
1760.71-62120-109064-86610-38757-29589-30259
1763.60-23986-31083-28338-22448-15750-22339
1766.49-17712-32317-74691-73031-25192-14004
1769.38-6106-14473-34932-59399-34590-95234
1772.28-154656-64985-3492-4912 3208-4432
1775.17-8074 2567 12556 9756 11176 5184
1778.06 11988 14211 17417 6642-6307-9533
1780.95 10786 16004 18485 11370 20153 20539
1783.85 14691-17010-11728 1602 9182 6798
1786.74 4325 188-4081-8121 2985 2494
1789.63 1131-28264-36675-19160-32175-100982
1792.53-74589-6252 23527 27087 24445 12509
1795.42 16106 23414 24051 18606 29624 27905
1798.31 21856-8219-16485 11040 21338 9331
1801.20 12327 3060 3272 8017 13753 15994
1804.10 20684 16400 14019 10455 11937 4977
1806.99-2779-4125 8296 5177-3448-8918
1809.88-15068-23419-17747-24205-23933-22743
1812.77-20062-23393-21559-24594-24326-30762
1815.67-29614-32299-35184-37424-30663-33343
1818.56-36018-43757-34542-30463-28854-42359
1821.45-46556-39708-33782-38517-33701-41138
1824.35-70979-85463-51385-39478-37198-41728
1827.24-35401-36342-48373-67958-82051-99490
1830.13-67795-43476-34366-38835-40222-40556
1833.02-36290-42979-46520-48085-40475-42482
1835.92-41630-48858-47401-38734-33663-40331
1838.81-38438-42614-48499-54514-47194-44284
1841.70-44412-43656-47221-87681-144163-108771
1844.59-43790-33499-32071-37628-39302-57001
1847.49-58008-45087-31475-36160-34008-36690
1850.38-34498-33378-37036-46451-36277-31569
1853.27-28549-40468-39912-38093-31296-35298
1856.17-34993-29789-21401-22636-28730-37724
1859.06-39375-37428-30351-39388-42930-45275
1861.95-36193-27693-25011-25152-24804-40428
1864.84-40372-39572-39332-35914-36655-51420
1867.74-46719-50997-79023-74878-43324-38955
1870.63-32245-34359-35319-40050-40572-49514
1873.52-48097-49322-42657-33889-30217-35876
1876.41-32736-35905-37534-43272-38298-32593
1879.31-27604-35087-34836-37465-46630-56508
1882.20-56975-52843-46119-44118-42963-45668
1885.09-51819-60583-50061-46349-39815-45037
1887.99-44673-56026-70820-66686-47917-50026
1890.88-49768-50593-45907-46117-39214-38886
1893.77-44357-58515-61738-61078-54072-50770
1896.66-42963-50124-51455-55891-52810-51353
1899.56-43765-52938-53728-59487-60904-56729
1902.45-42910-44560-53990-58878-50649-45708
1905.34-39617-42403-42515-42950-43387-53046
1908.23-52005-48432-47920-54391-41740-37277
1911.13-29342-25942-31731-40671-36883-35950
1914.02-32220-33143-31247-36859-36121-47955
1916.91-55867-76404-62893-44693-41962-41875
1919.81-38612-49158-53144-58541-71930-84131
1922.70-77910-71806-65854-62045-62783-63637
1925.59-53488-52795-54448-53650-46125-46310
1928.48-46181-47247-43588-53341-54086-52108
1931.38-52132-58339-47073-39342-47383-57753
1934.27-58301-60933-54374-54147-50637-55342
1937.16-48769-46106-41894-47044-55086-60438
1940.05-55414-53701-51827-57271-67925-69821
1942.95-63365-67387-60504-55143-53515-54366
1945.84-44383-41268-40426-46681-53433-59353
1948.73-50744-48440-43081-42164-38409-45854
1951.63-52049-54774-53448-59756-50374-41493
1954.52-31295-39008-45896-53342-50125-55022
1957.41-49491-42933-39759-42851-38849-40556
1960.30-41379-48696-45476-40096-37830-47039
1963.20-47843-48111-45759-44546-46041-53899
1966.09-50239-51131-53874-40694-30636-35148
1968.98-34015-40298-41703-44473-43275-45174
1971.87-44675-45332-52832-73597-91023-63539
1974.77-18627-24211-26347-34218-33850-35969
1977.66-37048-45821-41829-40451-33263-32211
1980.55-30717-35934-36538-31026-34394-49425
1983.45-44650-43910-41910-44832-40372-35705
1986.34-31413-33113-30005-31087-35603-45475
1989.23-37620-34963-36023-39263-47205-42860
1992.12-33074-35832-24972-25556-29806-38438
1995.02-38773-42760-41905-37201-26720-26564
1997.91-23370-24617-27963-36599-32922-31243
2000.80-29343-34845-30060-27126-20254-19590
2003.69-26903-33410-36184-44110-39135-39148
2006.59-38601-38518-28507-30728-32284-37396
2009.48-34613-30297-25010-22773-22792-28965
2012.37-36108-40511-36136-36977-28823-26039
2015.27-26013-25913-25850-29934-29293-40990
2018.16-44236-42780-33959-33352-30641-30406
2021.05-29485-36984-38134-37872-35525-33226
2023.94-23478-29665-34694-35895-28581-36469
2026.84-41447-43151-34274-32048-29799-36416
2029.73-38631-42824-45293-47128-39940-36672
2032.62-36439-42592-36029-37776-40170-42849
2035.51-41309-43113-35889-30971-31255-37666
2038.41-35307-37113-38247-41617-47113-45481
2041.30-36091-42827-38945-30260-28305-38140
2044.19-44983-49871-41528-38384-37709-41334
2047.09-41934-45938-49967-51803-48762-47528
2049.98-42073-33473-29802-33545-33402-41082
2052.87-43092-46424-41528-46431-44093-41970
2055.76-37124-40931-44447-48093-49823-51997
2058.66-39667-36199-32613-39374-44883-54158
2061.55-53813-55190-46654-43639-40272-45790
2064.44-47684-44017-44505-47852-46990-53729
2067.33-49911-43235-36070-42712-47044-49712
2070.23-51129-48800-45557-52584-45211-38892
2073.12-45011-52620-50513-51150-46393-47704
2076.01-41794-42471-37326-37394-47295-51594
2078.91-50508-47934-47849-53444-48535-34426
2081.80-24660-38450-43031-48691-56671-57049
2084.69-48628-38134-22213-33683-51792-53307
2087.58-49644-52206-51507-49470-44213-30515
2090.48-31602-43236-49402-54882-52693-56006
2093.37-46701-31965-12193-24651-42331-55204
2096.26-58141-57761-46406-41223-18456-850
2099.15-23199-42079-41804-45782-52970-56054
2102.05-49929-21365-12626-38775-42090-48201
2104.94-49479-52634-51764-35054-3391-16699
2107.83-39811-43857-45560-49480-43824-42820
2110.73-11783 3876-22009-35284-39650-40865
2113.62-41336-46260-29967 2240-15257-42012
2116.51-42134-41854-36006-36780-33822-2932
2119.40 1735-31952-41684-37719-30505-32914
2122.30-34062-8946 13165-31299-49484-52717
2125.19-50790-47384-40360-23409 6013-16054
2128.08-35938-39101-39400-43981-40236-36555
2130.97-19860-28953-42021-44358-42908-42368
2133.87-38426-33871-16978-14632-27739-35245
2136.76-31114-34675-33311-30465-22154-25755
2139.65-40889-51211-50578-52704-43328-41376
2142.55-42378-44504-41324-40302-42401-41812
2145.44-36274-29295-20362-30338-42172-49080
2148.33-50218-45201-36668-31795-18108-26886
2151.22-42297-44210-39198-38748-43007-29585
2154.12-9930-22736-34715-43269-38320-36045
2157.01-29481-1819 6769-24971-36248-44561
2159.90-42436-40752-28463 930-6355-36724
2162.79-38374-40117-38806-41488-3648 18507
2165.69-15346-32488-33611-34758-38033-28393
2168.58 14531 2089-30379-38386-42769-41942
2171.47-27627 8557 20449-19867-37571-33624
2174.37-26071-27249-1973 14161-15709-34401
2177.26-32345-22026-21098-7416 21320 5963
2180.15-23057-29595-25845-22052-1973 26407
2183.04 23827-9820-6471 1056-6666 5203
2185.94 31173 23883-2895-7771-9613-13798
2188.83 6249 25218 28850 3601 13601 15239
2191.72 19852 25645 41504 53378 28854 35308
2194.61 23523 46213 45619 70949 53318 51188
2197.51 37893 37248 41763 64291 86852 72106
2200.40 74344 67883 76435 68338 90849 84859
2203.29 88910 72960 81095 70518 91604 87589
2206.19 92534 76360 97402 92374 102145 101130
2209.08 108741 84547 93889 94728 105901 95557
2211.97 104222 91332 91515 86926 94511 90892
2214.86 97145 89528 83447 75399 77050 65946
2217.76 61413 60814 62757 47297 43767 33267
2220.65 29852 21066 14632-1659-11880-25333
2223.54-16956-12894-3603 11691 29247 36918
2226.43 47041 51468 57624 51683 61930 78975
2229.33 98820 105838 109620 103281 112202 122234
2232.22 127850 133892 141281 141285 146259 145378
2235.11 149812 145422 143947 138972 137423 139365
2238.01 150006 145100 145820 145090 139425 127830
2240.90 122982 113025 113861 108345 102861 97678
2243.79 91501 79709 73142 59424 51454 45074
2246.68 47168 48757 41275 27369 16015 7981
2249.58 8158 6077 13600 9623 3862-3316
2252.47-13677-23056-19814-25810-29480-36096
2255.36-36557-36251-27936-31383-36027-43547
2258.25-42759-40473-46888-53880-42184-37456
2261.15-42594-50678-47836-40660-32098-39437
2264.04-42623-50890-44977-38172-41399-54306
2266.93-54818-51278-43716-46828-46081-51334
2269.83-49731-42392-36221-40822-40940-48901
2272.72-51789-47218-43849-49954-42108-39808
2275.61-45381-49685-47975-48221-41387-45811
2278.50-47062-47970-44820-45860-44542-47932
2281.40-42590-44359-47949-44680-37648-41861
2284.29-38899-40558-42966-43821-40058-41485
2287.18-38158-37246-39432-48416-41713-41994
2290.07-47048-45578-30410-26352-27529-34115
2292.97-41032-49318-49020-41065-34214-31974
2295.86-27257-32895-34680-33837-26981-27701
2298.75-28412-31233-32347-39806-38248-34256
2301.65-30474-28095-27157-29289-33370-38673
2304.54-36856-35537-30253-31374-26357-27164
2307.43-22230-18948-23872-26045-17648-11504
2310.32-4847-10796-18045-23957-19146-12770
2313.22-6352-4294-11545-18615-6936-12599
2316.11-17355-18234-1928 8505 9474 1588
2319.00 1868-502-3992-6513 473 4172
2321.89 6321-8197-12497-3287 455-14889
2324.79-15818-9126-5419 2028 18498 16490
2327.68 10660 2799 10929 18187 12543 2789
2330.57 4934-348-12224-17618-535 6756
2333.47-7894-9195 10989 6051-2728 5357
2336.36 14924 2950-89 10305 10523 354
2339.25 14699 23802 4416-2838 14360 11635
2342.14-2387-787 11250 7691 10618 8532
2345.04 6401-926 89 347-6740-5790
2347.93-2438-9223-10765-10022-11434-15948
2350.82-21701-17007-12873-25618-25503-26134
2353.71-36247-42512-41188-41295-33567-31819
2356.61-43279-51162-47131-53985-47296-39169
2359.50-49886-52571-39873-47009-41682-47198
2362.39-55906-49589-52624-49243-42553-57111
2365.29-53189-49054-52069-44501-40538-38623
2368.18-39216-41720-31827-34377-34563-40300
2371.07-36429-29923-34733-35926-34615-36697
2373.96-35436-38349-40079-47874-41320-37373
2376.86-36121-34568-31461-33529-35359-38266
2379.75-35976-31333-29122-38619-42170-43523
2382.64-39394-38105-36093-35562-37865-41462
2385.53-37298-32090-31569-40667-40294-36608
2388.43-35822-36191-36635-40284-44598-43596
2391.32-45453-47861-40831-36208-40025-49127
2394.21-45596-40769-40965-48649-49905-48446
2397.11-44867-47258-46037-46227-42947-44379
2400.00-45967-46288-46615-52180-53901-49129
2402.89-44221-43173-36266-42136-45640-42633
2405.78-44979-46866-47193-52716-52927-54444
2408.68-47884-42723-44922-47337-51342-57949
2411.57-56301-51299-50708-52488-49589-54087
2414.46-49132-43193-46732-51728-47940-48469
2417.35-48135-48083-48027-50319-50053-55244
2420.25-56973-57137-55757-59093-56573-55921
2423.14-49435-48769-54403-57115-54935-56115
2426.03-55356-59043-64019-67447-57171-50476
2428.93-43558-45273-55645-59012-54848-55909
2431.82-50459-49962-55058-56704-62808-72600
2434.71-68142-61924-61842-70534-69177-66443
2437.60-56381-54221-49318-52436-53349-53157
2440.50-53442-47741-50817-63520-60448-56998
2443.39-59022-62117-64019-61263-56494-59317
2446.28-61804-61791-59031-56718-61459-63641
2449.17-56170-55865-54953-53483-56526-63812
2452.07-57194-51475-48776-52011-55350-59183
2454.96-57607-54316-51158-52502-48908-50569
2457.85-59606-62618-60971-57063-53068-57619
2460.75-58097-56491-55188-63857-62007-56747
2463.64-55963-50619-46534-48836-54172-54193
2466.53-54057-57538-64059-67871-59481-54119
2469.42-54478-59814-65000-63313-56544-62544
2472.32-64442-62537-66437-69863-70413-67401
2475.21-60465-54354-49722-55455-60463-61945
2478.10-57419-55628-58170-57946-52804-47595
2480.99-47471-53601-57118-62547-59041-44672
2483.89-41472-48018-50570-55332-52889-55372
2486.78-59709-63858-59338-57469-55049-56726
2489.67-54364-54882-52345-54900-59715-63063
2492.57-62242-54942-56129-61755-61623-61590
2495.46-60681-63599-60442-58009-53291-55878
2498.35-60517-63304-61489-58013-64170-68228
2501.24-58133-58882-66509-66669-62693-66055
2504.14-64432-63695-74755-82814-76615-68681
2507.03-60071-62571-67975-75645-72137-73772
2509.92-67527-63019-67054-65804-64969-68821
2512.81-73854-74140-67284-64168-65632-71724
2515.71-74843-71757-69027-68901-68173-70515
2518.60-68946-63511-64475-68676-64822-75068
2521.49-79585-77309-75052-66895-60000-57343
2524.39-58324-66293-71440-77302-74612-70305
2527.28-66908-67030-65171-65873-69608-77591
2530.17-77144-71651-64094-62123-63562-61591
2533.06-67408-73375-70285-74318-75405-78135
2535.96-70881-61020-61240-70398-73760-75847
2538.85-72293-74145-75314-74725-67934-64688
2541.74-65077-72550-76767-75387-74048-75481
2544.63-70892-72481-69293-64920-68111-70690
2547.53-63480-63117-64201-59596-61302-69957
2550.42-71966-78009-83562-84429-83882-78987
2553.31-78638-75958-66092-60693-54636-63168
2556.21-81336-83149-79455-82556-82879-73588
2559.10-62884-64733-70667-78934-82568-75783
2561.99-73395-70290-64231-66052-70184-76379
2564.88-79683-78337-76277-76282-76376-75378
2567.78-69530-70022-67743-73241-78754-72081
2570.67-69374-69288-61840-67435-69071-68561
2573.56-69459-67304-71258-78783-77152-72340
2576.45-65362-60908-62945-70001-72953-80743
2579.35-71307-65025-64102-64851-70883-71748
2582.24-67885-69596-72648-76378-74657-71289
2585.13-73965-71515-70150-73895-75527-78194
2588.03-78518-74453-64124-64276-70330-74116
2590.92-68039-65996-73355-80749-76753-73710
2593.81-73626-73526-73016-69190-73926-78505
2596.70-76694-74447-71268-74349-71088-64687
2599.60-69569-75701-74580-76916-72598-70924
2602.49-69984-70446-67976-65384-62422-66952
2605.38-71726-71308-71531-73551-72826-71273
2608.27-73448-81330-80993-74075-67072-68620
2611.17-68419-67732-67637-71737-70928-67101
2614.06-68314-65494-62354-77469-80505-68038
2616.95-70184-69731-66132-76785-73176-70455
2619.85-73915-69441-62265-65753-63271-68993
2622.74-74586-74236-69627-71273-72537-72411
2625.63-77983-81019-71123-74076-78003-76541
2628.52-69475-63363-65000-70142-81721-79463
2631.42-64762-66128-67405-67745-71047-74428
2634.31-74621-75622-65029-66330-72708-78314
2637.20-78092-76955-70365-68805-68457-74519
2640.09-80936-81082-75215-69244-68791-70154
2642.99-71332-79328-76045-75523-72801-74834
2645.88-79047-73568-67954-67060-72948-78943
2648.77-81564-77172-69943-75259-74616-73489
2651.67-83210-87752-79200-81522-84885-78995
2654.56-80131-79954-69163-76035-82027-77642
2657.45-73489-73604-73438-75216-71738-67824
2660.34-70196-69484-70726-81052-86080-79501
2663.24-79875-85358-79780-86382-87351-76908
2666.13-74924-79048-82856-80526-70833-71085
2669.02-77796-85512-80042-76310-80483-79911
2671.91-72505-68865-73276-82621-87306-75539
2674.81-68505-72895-72925-73593-77638-80206
2677.70-80337-93491-91682-76915-84753-87322
2680.59-72718-71885-78415-82983-79439-79440
2683.49-81586-81419-85139-87184-81950-79393
2686.38-81065-82439-81215-88129-88104-84466
2689.27-84680-80156-75424-76304-83067-88568
2692.16-81059-84787-81741-69945-77749-94015
2695.06-97995-86193-86370-88324-87809-85126
2697.95-89546-93817-94898-96886-95125-87213
2700.84-78870-72825-68137-71594-70537-68812
2703.73-68616-65411-68256-77638-81586-83210
2706.63-87798-92590-92968-93436-92032-95536
2709.52-88125-85964-81386-79516-72491-61457
2712.41-72094-81624-79585-80642-84350-81702
2715.31-78233-82158-80988-80925-80950-85087
2718.20-86165-81024-79685-82242-87774-79554
2721.09-70608-75672-90811-93224-79876-77274
2723.98-80910-72514-76592-81933-78450-80016
2726.88-74491-75354-81222-78414-69214-68211
2729.77-82369-86957-86065-85117-76543-72788
2732.66-74795-75539-71091-69824-77636-85941
2735.55-80311-74468-76330-81151-90499-91181
2738.45-86685-83572-78755-72795-73818-81206
2741.34-83052-79975-76610-71640-70281-81805
2744.23-87264-77331-82941-86700-76190-76204
2747.12-88114-86596-77638-71150-72584-80418
2750.02-83249-75852-73423-78004-84760-86061
2752.91-80090-75349-78809-86780-78938-72839
2755.80-73065-73681-79492-75712-73493-78566
2758.70-90117-94204-86584-77169-67220-67477
2761.59-77724-78877-80866-82422-81465-84830
2764.48-86007-86250-87742-81767-74583-80950
2767.37-88851-98018-102585-94711-81630-81113
2770.27-77516-71930-73793-78459-89041-90052
2773.16-82423-84234-85328-84135-84659-84087
2776.05-86550-88489-86786-86205-81877-80784
2778.94-82306-80491-80473-88950-87157-89492
2781.84-96828-92725-77273-77996-77591-74810
2784.73-78121-79484-81762-85302-89156-81546
2787.62-79710-77706-76790-79813-81229-81069
2790.52-85920-88594-85826-83782-84334-81996
2793.41-81605-85846-90833-88335-82720-77110
2796.30-65649-67592-75539-77039-79430-84280
2799.19-92851-96342-97333-87689-84009-90622
2802.09-85201-81823-82383-82687-86840-87846
2804.98-84896-78185-70215-74845-73599-74916
2807.87-84882-86648-76482-75372-79347-81021
2810.76-86101-83643-85553-85863-77081-73441
2813.66-74376-75177-80044-84440-85882-85673
2816.55-87839-81907-76997-74842-77098-80505
2819.44-87075-85398-83603-83181-72965-64268
2822.34-68966-77533-71741-73486-78645-74519
2825.23-78313-84045-80622-79164-75681-71578
2828.12-75923-80404-86579-86910-90319-92258
2831.01-82628-73810-78883-83466-80830-79316
2833.91-79523-82829-84771-69708-55196-59708
2836.80-65386-71991-78772-81368-80266-77489
2839.69-81544-92428-87950-78669-84566-88750
2842.58-84018-82414-83987-71613-63554-70310
2845.48-77516-77756-70670-67061-70167-76585
2848.37-80464-73715-63608-70523-82154-75854
2851.26-73039-79788-84122-85585-81003-67162
2854.16-60440-62671-74642-78095-67453-60648
2857.05-61163-64441-69980-81831-75490-69387
2859.94-76633-87978-81551-67513-70784-75784
2862.83-68052-60984-71590-82712-91215-93732
2865.73-86667-84695-82781-69845-70861-76764
2868.62-82312-80927-74340-70296-70546-73799
2871.51-66874-63883-71923-81588-86311-84344
2874.40-88315-89076-77813-67512-67490-71826
2877.30-74439-75598-83577-84514-71061-66985
2880.19-74997-77221-79769-88931-91245-82799
2883.08-75172-77302-75423-70122-71594-69719
2885.98-67331-77504-79206-78381-80727-78855
2888.87-81050-82762-79121-72566-68439-71197
2891.76-85430-87382-83232-82684-71127-64936
2894.65-74468-86536-92701-103033-92968-73982
2897.55-75379-73487-66537-68203-83476-88280
2900.44-91480-94884-93375-83834-75375-73325
2903.33-78054-79660-77082-81759-94509-96005
2906.22-92135-95072-85810-76343-82841-87986
2909.12-81326-79034-86651-89869-92406-85122
2912.01-74570-73169-74703-79186-89958-92823
2914.90-91388-83878-83975-102635-113175-102473
2917.80-100253-95815-85654-84724-77957-73300
2920.69-83328-77079-82385-93070-87386-83682
2923.58-85682-90992-92554-90050-96464-96483
2926.47-96983-107510-112734-109427-109945-106221
2929.37-96927-99884-103721-99654-94618-86123
2932.26-82909-81423-78925-81541-80883-83839
2935.15-90859-92811-92434-88069-91902-93377
2938.04-96184-104351-97288-83532-85535-93611
2940.94-96561-95246-86915-87470-97175-93483
2943.83-92035-82370-80012-91200-88411-84423
2946.72-102119-111975-103850-101174-97656-87573
2949.62-86844-85639-85271-85180-85542-89110
2952.51-94560-96739-93315-91775-86316-82790
2955.40-79522-80503-89013-95542-90336-92527
2958.29-93628-86355-75722-70248-67973-47962
2961.19-7171-57535-150342-148885-127183-122706
2964.08-114292-100693-99663-93051-87669-78599
2966.97-78821-82399-87383-87215-89676-87373
2969.86-94461-96137-93888-97872-101516-93686
2972.76-97525-112542-109296-87055-79656-95749
2975.65-100130-87706-78030-68527-67283-72668
2978.54-80759-87926-87384-82702-89689-78628
2981.44-80119-93423-91022-81475-86580-94806
2984.33-101911-92800-79349-75808-82966-73952
2987.22-73618-81814-78367-66278-71101-75215
2990.11-78382-74397-68987-69788-72853-71622
2993.01-69071-69995-71626-70407-72489-80616
2995.90-88814-87337-82509-74318-89632-89870
2998.79-77469-76492-79254-70556-71795-74649
3001.68-70482-68631-73235-73416-75330-74054
3004.58-75954-76555-85531-87130-84141-81040
3007.47-82113-85478-83095-74598-67582-67205
3010.36-74848-78250-85929-90255-84756-86005
3013.26-85338-80273-86799-82797-67532-69662
3016.15-83655-90542-94291-99867-90963-82345
3019.04-73581-68597-73208-70423-75884-85625
3021.93-83897-80545-82758-79161-80937-83802
3024.83-88599-86225-71974-69507-71208-68751
3027.72-74644-79132-83872-82598-80426-76140
3030.61-79727-76931-67955-63872-79191-91165
3033.50-88782-86942-88907-89660-86300-83061
3036.40-73563-65295-69660-80486-92531-97182
3039.29-95100-81514-73840-71277-73245-72927
3042.18-78040-78211-81117-77775-68915-61501
3045.08-72062-85287-80543-79461-82594-76328
3047.97-78755-85451-83204-69539-73835-88262
3050.86-93419-81943-82860-87485-90603-89714
3053.75-83976-81147-77126-73505-81182-88346
3056.65-89184-71883-56501-61045-79108-85645
3059.54-80708-64743-65584-71408-71637-74772
3062.43-79288-77093-80066-73534-74911-81080
3065.32-86402-73300-60067-67259-76590-62813
3068.22-45847-51783-65444-69713-67759-64756
3071.11-62991-61297-64611-68811-78843-77889
3074.00-63961-58798-57882-51679-54191-57344
3076.90-59006-71688-77475-62902-59195-61907
3079.79-64385-67697-72628-64623-55676-56191
3082.68-56653-60654-68730-65423-63034-66193
3085.57-59195-52849-59018-68235-68333-58722
3088.47-47001-48723-49539-44538-44456-50011
3091.36-58560-60320-45936-40051-47019-51137
3094.25-55554-53420-53827-56296-55772-34703
3097.14-30623-37943-43980-45043-33703-44593
3100.04-51221-49747-50313-36950-39766-37058
3102.93-38719-37160-31308-25007-26331-33471
3105.82-37530-30017-28589-37426-46372-38039
3108.72-21213-20885-21997-15507-13531-17110
3111.61-18312-20460-28384-26303-17508-14040
3114.50-17566-11580-17403-26846-23001-10116
3117.39-7057-9563-9571-8877-4556-6982
3120.29-13844-11808-13457-11280-14130-11122
3123.18-13843-8088 3657 5637 9927 12604
3126.07 3303-3881-2567 5533 4878 7864
3128.96 7754 6113 2059 12796 6458-6286
3131.86 604 16389 19773 14914 4269 4813
3134.75 18031 28067 27083 29619 24186 19428
3137.64 21022 21055 14799 18767 14271 23291
3140.54 33685 29709 25129 28977 21610 17503
3143.43 12248 23414 34319 19215 12389 25398
3146.32 36012 37450 40276 40583 28430 34750
3149.21 26208 21494 35118 39498 35786 29075
3152.11 27816 42383 56611 60939 49318 41307
3155.00 40387 48635 44445 48129 49524 39203
3157.89 30091 29920 41139 47974 50398 47960
3160.78 40448 40530 40539 40435 43312 50794
3163.68 53008 59937 59085 55607 47065 42822
3166.57 37223 31648 34200 43395 44913 38689
3169.46 46013 56142 53311 43358 38316 49730
3172.36 67908 74679 63634 61304 59063 48512
3175.25 43514 52867 60277 61100 46173 39847
3178.14 45693 51457 49220 55913 54899 50221
3181.03 53230 51365 42168 45622 47887 49930
3183.93 52885 58128 62331 64861 63517 64595
3186.82 61194 60216 46979 47370 48366 55704
3189.71 50320 40081 37887 50249 54762 52211
3192.60 59163 59976 53753 55243 64323 61204
3195.50 56367 53113 41603 45804 49545 60436
3198.39 56477 49034 40109 36846 44948 55662
3201.28 62076 62246 62389 59413 52893 59707
3204.18 67896 65723 51797 55620 68108 64773
3207.07 52620 52080 53623 60750 50516 50489
3209.96 68591 71855 64772 74635 65929 62416
3212.85 61295 55345 52309 50306 50354 59898
3215.75 67432 84755 86463 72862 59240 52310
3218.64 48594 54783 55929 51306 44085 52141
3221.53 54608 48907 48763 64340 70047 69933
3224.42 71298 80415 72902 66710 72899 73612
3227.32 66506 75125 75787 73088 69559 70476
3230.21 57638 55842 54019 51871 44918 50485
3233.10 59423 60923 55506 62829 73375 71517
3236.00 61517 64894 70991 53831 42276 65567
3238.89 70004 50611 51052 60952 60356 62661
3241.78 55504 59419 55768 58700 56161 56374
3244.67 66559 64022 56443 72746 82512 71247
3247.57 68385 76559 67629 49629 51106 61460
3250.46 60626 57010 59954 63420 62561 65143
3253.35 52442 51496 48964 45968 47364 52126
3256.24 60089 69578 61146 56126 57951 60252
3259.14 49185 48818 53177 54464 51875 59709
3262.03 54025 47747 51237 56934 47039 50193
3264.92 61901 67195 67752 58497 49606 55790
3267.82 41218 28071 30895 41653 50535 51990
3270.71 50025 46344 40938 45202 42546 33385
3273.60 37399 50640 47392 42897 39938 49811
3276.49 48996 45624 43587 39454 35680 41391
3279.39 32669 28411 25091 26128 31485 33598
3282.28 15986 16159 25806 29767 32912 39012
3285.17 40208 40008 29157 17623 15734 36579
3288.06 45982 32196 22796 22828 27763 21590
3290.96 13818 6455 11126 25049 24244 16872
3293.85 9868 13406 23349 31180 20665 23784
3296.74 29305 29656 30012 27634 24936 38910
3299.64 30774 18254 14476 13630 10281 12549
3302.53-1807-3570 4104 9282 993 13220
3305.42 28125 26562 6460 3967 13079 7639
3308.31-18713-14681 4844 16468 6564-199
3311.21 5790 11533 11309 10536-4167-3880
3314.10-4387-15-1989-13275-20406-23819
3316.99-16630-9517-11381-19398-27662-11954
3319.88-9409-8560-5389 3683-3775-5367
3322.78 3848 3008-1517 5337 5381 457
3325.67-3918-3252-9306-3897-1263-5824
3328.56-22340-23459-27145-13374 9865-750
3331.46-19883-18686-14745-13584-15187-18181
3334.35-23928-18791-15660-15344-17744-9437
3337.24-10442-17303-30235-33576-24287-9924
3340.13-16007-23242-23607-5687-20268-42542
3343.03-37314-30708-32001-16020-15234-15539
3345.92-28157-22947-27572-31140-26895-23752
3348.81-26999-26364-21072-20640-17738-12372
3351.70-19852-28339-32565-24765-20706-19743
3354.60-24983-24797-26881-23224-32253-23626
3357.49-26413-40427-41482-27594-37251-49842
3360.38-44408-37171-40012-40180-42882-43222
3363.28-33420-28000-32701-33037-38914-35873
3366.17-35355-27282-32972-35870-41899-43629
3369.06-34870-32614-29207-35498-45347-45024
3371.95-38592-29211-29133-37509-47497-42346
3374.85-47828-43583-46952-46433-39009-37915
3377.74-34989-45608-54646-48446-46962-39792
3380.63-42248-52064-48063-35190-45307-44779
3383.52-52476-66276-70194-57285-48984-48167
3386.42-38429-39285-49082-49656-42566-43075
3389.31-45302-38028-50612-56228-45490-50559
3392.20-71192-65194-60328-56220-44846-37276
3395.10-49044-45519-51108-56976-56035-54138
3397.99-61962-63368-59850-52929-47859-43285
3400.88-50212-53861-65628-73958-75853-58538
3403.77-54529-62682-63595-56960-52758-50308
3406.67-46526-47600-61573-63906-64842-63464
3409.56-70116-67367-70539-64056-53305-54160
3412.45-61749-55668-57136-61397-58984-51580
3415.34-53300-58339-58895-56157-65054-64555
3418.24-63978-58043-55871-57190-58575-57678
3421.13-61281-63324-69286-71250-62277-54762
3424.02-68900-61914-44607-58479-84065-69759
3426.92-61348-68874-80273-64545-55949-60579
3429.81-62651-75245-85975-70767-61191-63739
3432.70-72460-66742-75350-79969-72790-51698
3435.59-65844-70505-55118-59648-69889-67119
3438.49-67115-70663-78466-73000-74293-63106
3441.38-52447-59079-80609-80795-77925-75160
3444.27-76670-89242-74390-52194-71220-85124
3447.16-66594-56989-74859-80077-71084-58618
3450.06-55909-60429-65784-67916-68403-66099
3452.95-73961-83384-82141-74229-90611-82775
3455.84-61490-52508-58519-62085-58508-59949
3458.74-60558-59931-69424-72596-88445-94862
3461.63-76064-64330-69308-84620-89364-81782
3464.52-83614-69861-61154-80100-104794-85222
3467.41-61587-54455-58717-79560-95752-90952
3470.31-88135-86855-86496-89077-85993-83210
3473.20-83955-86130-93442-86475-78307-71520
3476.09-80332-85909-93774-90502-90324-78584
3478.98-74139-62059-57794-74132-78612-79583
3481.88-88196-87749-98185-101791-97390-86418
3484.77-102087-107379-93320-83942-87884-91709
3487.66-102791-100241-98567-99389-111363-101106
3490.56-90832-91998-110213-106936-86272-78265
3493.45-70394-58646-64053-68430-65605-66156
3496.34-76461-72913-74343-88394-94432-87372
3499.23-90013-85622-100216-108100-111208-110761
3502.13-118198-117747-119862-117363-110708-101032
3505.02-112674-117288-114877-101988-92293-92284
3507.91-101639-105069-114832-108305-100210-104928
3510.80-116328-110777-108348-115264-137189-134481
3513.70-113137-104574-99075-97718-115779-110275
3516.59-93858-96520-101252-107198-120393-117839
3519.48-115907-103751-102674-107756-108686-112325
3522.38-124636-119298-114302-105314-106946-114474
3525.27-118911-113281-121428-115031-105408-113692
3528.16-135770-138341-120251-109581-120040-125121
3531.05-127896-116376-118537-117323-121174-113803
3533.95-99939-101722-113060-108447-117588-122531
3536.84-113170-98695-115498-127010-122158-114804
3539.73-128038-131104-131172-124190-125386-120267
3542.62-121853-124382-122280-123556-135951-126949
3545.52-123727-120194-122525-107534-108601-117166
3548.41-124183-128471-142226-140549-135077-125565
3551.30-130871-133552-132620-124271-125287-120340
3554.20-117226-115449-118806-114314-111814-109049
3557.09-114485-113789-120187-109553-106346-117685
3559.98-125346-115105-120493-116746-127821-122876
3562.87-117764-120505-120513-121921-126267-128598
3565.77-136996-130576-113688-131486-153376-133088
3568.66-114850-100032-117068-114182-105322-104867
3571.55-110504-106294-106243-113383-119144-110584
3574.44-114508-114225-116349-98635-96443-96703
3577.34-100805-100447-104407-108690-106444-103168
3580.23-103121-83460-88760-91259-97802-109893
3583.12-130953-126112-122420-110675-113398-124305
3586.02-155761-146167-143221-144446-167500-161777
3588.91-106417-81783-93341-107900-110747-106839
3591.80-104507-115802-137396-128472-114604-112112
3594.69-129324-121441-112702-118033-115594-107621
3597.59-112237-119735-124776-118711-118990-128452
3600.48-137458-121229-112876-111283-117615-109966
3603.37-108640-107594-111282-113572-116894-114850
3606.26-132129-136420-132901-132207-158376-199280
3609.16-172678-120213-106512-106896-135826-163780
3612.05-189728-165075-131569-124426-144002-143501
3614.94-131143-114497-120993-130775-165029-176833
3617.84-153247-145560-192884-206782-147189-122366
3620.73-131966-109851-102596-118133-133036-143859
3623.62-140706-117212-115309-127000-135980-122951
3626.51-110628-124177-189674-218776-195184-246888
3629.41-219747-135546-131033-126209-116945-115793
3632.30-126165-128719-142732-129611-117902-113392
3635.19-109449-107150-115609-106457-116129-120789
3638.08-119681-118930-113240-102010-109370-114088
3640.98-115480-119550-123340-112998-111226-109469
3643.87-124510-130276-133407-117372-132310-161492
3646.76-195539-179447-154177-181421-266072-219565
3649.66-158514-177435-192609-157287-108310-109712
3652.55-122060-118166-127619-138151-147819-150479
3655.44-197405-236440-190282-148453-139785-132399
3658.33-126899-123996-127986-134282-143057-135093
3661.23-126232-127681-136308-133909-139353-138535
3664.12-143580-142792-148335-143829-140239-139235
3667.01-138868-139909-179470-193397-163041-162360
3669.90-265396-320775-203188-144796-144537-143167
3672.80-154409-166911-180394-238278-263752-308642
3675.69-309443-197582-178857-162732-155200-162051
3678.58-166462-166987-153153-140895-143326-144504
3681.48-143563-128453-120220-120988-139120-148614
3684.37-147384-145838-147937-143060-149605-144805
3687.26-184187-333309-335525-200712-160720-165863
3690.15-194356-227240-206264-142913-136331-150426
3693.05-157655-149394-156440-154545-158740-148349
3695.94-154368-157245-151550-145454-145451-136750
3698.83-149110-150893-157382-153015-177857-203972
3701.72-187528-150665-149727-153035-165802-166417
3704.62-164052-154572-152023-153838-164483-158964
3707.51-159801-154890-197384-218695-183372-147102
3710.40-156214-186127-278114-294786-200319-166774
3713.30-177276-183462-184348-173836-172310-161251
3716.19-144491-138836-159812-168534-175200-182505
3719.08-168950-156696-160263-153255-164515-192393
3721.97-195351-175219-178110-188957-189010-180991
3724.87-171194-160540-193605-194179-170491-162290
3727.76-156411-154646-164685-170326-155331-144029
3730.65-174972-240313-314587-251580-174134-169206
3733.54-186051-217710-239308-212602-187317-254738
3736.44-282833-192839-166564-180098-173689-151570
3739.33-166064-169566-179046-185238-183664-169175
3742.22-167407-173203-238779-398772-507569-359037
3745.12-225455-187850-173529-175917-178947-173193
3748.01-190542-296940-395217-277344-189707-180898
3750.90-204257-323063-393508-251971-188216-176062
3753.79-177287-179114-181103-175580-198448-204022
3756.69-193747-188268-184563-184008-188084-208535
3759.58-219594-180339-161297-149054-162580-168210
3762.47-164593-153509-158258-158015-166256-183344
3765.36-214662-195042-181351-174582-169911-162099
3768.26-164605-180948-237270-225339-176630-166007
3771.15-171420-153921-153505-153999-170283-178390
3774.04-170500-159617-169067-171584-182574-172510
3776.94-164298-165392-176399-189390-209375-190790
3779.83-170925-159705-157664-158194-165217-169629
3782.72-165850-160106-177495-178762-172771-153439
3785.61-163588-167351-176202-177545-175788-155869
3788.51-140634-145653-152881-151917-157078-146117
3791.40-155372-159224-163776-164551-166639-161587
3794.29-164363-160135-171771-195170-204872-188049
3797.18-191215-185972-184503-178741-183190-195852
3800.08-205576-306789-386441-256048-179399-172920
3802.97-175202-181029-179639-165118-162601-165980
3805.86-207594-291712-279853-189920-166371-150801
3808.76-152676-149357-160814-156604-163579-164871
3811.65-175522-168813-176163-174404-172582-166584
3814.54-182620-258603-390163-319094-210175-185286
3817.43-177282-177612-173229-157108-175490-227717
3820.33-268288-258963-269694-213937-181842-186338
3823.22-185339-176089-163994-148034-158707-165311
3826.11-186654-183236-176251-181427-188756-172393
3829.00-161084-162680-173884-188267-228339-219870
3831.90-171468-167764-177549-171263-187591-235016
3834.79-234886-200441-205916-193929-225257-362029
3837.68-358415-231069-203555-198591-198008-196106
3840.58-227495-197249-166679-157621-177157-207796
3843.47-214478-189208-195675-185556-183014-171680
3846.36-175011-171117-173120-166322-169825-170975
3849.25-183806-176402-195846-216995-316199-361755
3852.15-265405-231521-334004-480656-423991-246705
3855.04-199049-189562-203328-219359-204999-178335
3857.93-185411-174716-183343-183916-181963-184786
3860.82-222436-245685-214675-173530-173501-176763
3863.72-190669-228443-270531-225344-209055-201109
3866.61-191289-168085-173119-194098-234765-261795
3869.50-326941-286740-211763-197835-197261-191518
3872.40-180543-183894-214805-230522-219473-192623
3875.29-188759-189436-195069-183858-183947-189941
3878.18-212823-202441-216654-252742-254304-232605
3881.07-214974-196906-188069-190279-204075-194582
3883.97-203835-220580-288422-303029-248295-208166
3886.86-206565-207664-213555-208450-210283-201544
3889.75-194638-223666-273389-241634-212867-206845
3892.64-201556-195886-206942-196172-204328-209246
3895.54-204164-200037-206378-198961-209036-211528
3898.43-248842-272411-232321-202554-205664-234228
3901.32-282664-239139-197951-208071-253260-286949
3904.22-261886-231265-226074-215415-205459-191182
3907.11-191699-202453-212423-208661-212487-212704
3910.00-217134-202343-202209-207677-206913-191849
3912.89-208533-213625-205624-187932-195711-202466
3915.79-213293-223584-254316-234671-215426-209503
3918.68-208794-217203-231053-212886-207828-200937
3921.57-208974-197320-207621-219241-229712-219261
3924.46-215170-209510-198094-183781-199348-209036
3927.36-208284-201683-202721-187063-191300-198860
3930.25-207417-201847-205372-216821-225179-204004
3933.14-189119-184862-205273-216705-226821-225352
3936.04-228784-214338-211847-204834-205033-191137
3938.93-202453-206246-210872-207606-223746-213045
3941.82-203907-211452-217236-199415-214723-213202
3944.71-197111-182092-196458-215734-221763-209657
3947.61-216759-208932-206344-183111-177685-180327
3950.50-183369-172254-170727-182517-202871-200749
3953.39-200010-194085-194990-199152-209573-200384
3956.28-202171-206434-217946-207423-199474-191220
3959.18-190352-188477-202354-198549-190973-199365
3962.07-213455-197965-201312-202347-210913-199440
3964.96-197890-198869-204951-204283-217176-208268
3967.86-205195-209097-213377-196742-199770-208576
3970.75-217784-201442-208030-212134-205918-199853
3973.64-211033-195945
##END=
