##TITLE=Carbon tetrachloride
##JCAMP-DX=4.24
##DATA TYPE=INFRARED SPECTRUM
##CLASS=COBLENTZ
##ORIGIN=DOW CHEMICAL COMPANY
##OWNER=Copyright (C) 1987 by the Coblentz Society
Collection (C) 2018 copyright by the U.S. Secretary of Commerce
on behalf of the United States of America. All rights reserved.
##DATE=1964
##NAMES=tetrachloromethane
METHANE, TETRACHLORO-
##CAS REGISTRY NO=56-23-5
##MOLFORM=C Cl4
##SOURCE REFERENCE=COBLENTZ NO. 8821
##$NIST SOURCE=COBLENTZ
##$NIST IMAGE=cob8821
##SPECTROMETER/DATA SYSTEM=DOW KBr FOREPRISM-GRATING
##INSTRUMENT PARAMETERS=GRATING CHANGED AT 5.0, 7.5, 15.0 MICRON
##STATE=GAS (100 mmHg, N2 ADDED, TOTAL PRESSURE 600 mmHg)
##PATH LENGTH=5 CM
$$ SPECTRAL CONTAMINATION DUE TO CS2 AROUND 1545 CM^-^1
##SAMPLING PROCEDURE=TRANSMISSION
##RESOLUTION=2
##DATA PROCESSING=DIGITIZED BY COBLENTZ SOCIETY (BATCH II) FROM HARD COPY
##XUNITS=1/CM
##YUNITS=TRANSMITTANCE
##XFACTOR=1.0
##YFACTOR=1
##FIRSTX=457
##LASTX=3778
##FIRSTY=0.8443
##MAXX=3778
##MINX=457
##MAXY=0.9043
##MINY=0.0019
##NPOINTS=3322
##XYDATA=(X++(Y..Y))
457.000000 0.8443 0.8436 0.8432 0.8429 0.8426
462.000000 0.8422 0.8418 0.8415 0.8411 0.8407
467.000000 0.8404 0.8400 0.8396 0.8393 0.8389
472.000000 0.8385 0.8382 0.8378 0.8375 0.8371
477.000000 0.8367 0.8370 0.8372 0.8374 0.8380
482.000000 0.8395 0.8411 0.8426 0.8444 0.8462
487.000000 0.8480 0.8498 0.8515 0.8531 0.8547
492.000000 0.8563 0.8579 0.8595 0.8611 0.8628
497.000000 0.8641 0.8654 0.8668 0.8681 0.8694
502.000000 0.8700 0.8707 0.8713 0.8719 0.8725
507.000000 0.8731 0.8737 0.8740 0.8743 0.8746
512.000000 0.8748 0.8751 0.8754 0.8755 0.8756
517.000000 0.8757 0.8758 0.8759 0.8760 0.8761
522.000000 0.8762 0.8763 0.8764 0.8765 0.8766
527.000000 0.8767 0.8767 0.8768 0.8768 0.8769
532.000000 0.8769 0.8770 0.8770 0.8771 0.8771
537.000000 0.8773 0.8776 0.8779 0.8782 0.8785
542.000000 0.8788 0.8791 0.8795 0.8799 0.8803
547.000000 0.8807 0.8812 0.8816 0.8820 0.8824
552.000000 0.8828 0.8833 0.8836 0.8840 0.8844
557.000000 0.8848 0.8851 0.8855 0.8859 0.8862
562.000000 0.8866 0.8870 0.8873 0.8877 0.8881
567.000000 0.8884 0.8885 0.8887 0.8889 0.8891
572.000000 0.8893 0.8894 0.8896 0.8898 0.8900
577.000000 0.8902 0.8904 0.8905 0.8907 0.8909
582.000000 0.8911 0.8911 0.8912 0.8912 0.8912
587.000000 0.8913 0.8913 0.8913 0.8914 0.8914
592.000000 0.8914 0.8915 0.8915 0.8915 0.8916
597.000000 0.8916 0.8916 0.8916 0.8913 0.8910
602.000000 0.8907 0.8904 0.8900 0.8897 0.8894
607.000000 0.8891 0.8888 0.8885 0.8882 0.8879
612.000000 0.8875 0.8872 0.8869 0.8866 0.8862
617.000000 0.8859 0.8855 0.8852 0.8848 0.8845
622.000000 0.8842 0.8838 0.8835 0.8842 0.8853
627.000000 0.8863 0.8874 0.8885 0.8897 0.8909
632.000000 0.8921 0.8933 0.8940 0.8945 0.8905
637.000000 0.8956 0.8959 0.8960 0.8961 0.8962
642.000000 0.8963 0.8963 0.8963 0.8962 0.8961
647.000000 0.8961 0.8960 0.8959 0.8958 0.8956
652.000000 0.8955 0.8954 0.8952 0.8951 0.8950
657.000000 0.8949 0.8949 0.8948 0.8948 0.8947
662.000000 0.8947 0.8947 0.8948 0.8959 0.8970
667.000000 0.8989 0.9023 0.9012 0.9000 0.8978
672.000000 0.8953 0.8932 0.8921 0.8917 0.8916
677.000000 0.8917 0.8917 0.8917 0.8916 0.8915
682.000000 0.8914 0.8914 0.8911 0.8909 0.8906
687.000000 0.8904 0.8901 0.8897 0.8893 0.8888
692.000000 0.8884 0.8879 0.8874 0.8868 0.8863
697.000000 0.8857 0.8852 0.8843 0.8831 0.8820
702.000000 0.8808 0.8796 0.8785 0.8773 0.8762
707.000000 0.8748 0.8733 0.8718 0.8703 0.8688
712.000000 0.8671 0.8645 0.8620 0.8595 0.8570
717.000000 0.8545 0.8518 0.8484 0.8450 0.8416
722.000000 0.8376 0.8331 0.8286 0.8228 0.8145
727.000000 0.8062 0.7981 0.7899 0.7814 0.7674
732.000000 0.7536 0.7405 0.7274 0.7140 0.7005
737.000000 0.6870 0.6742 0.6621 0.6500 0.6317
742.000000 0.6035 0.5609 0.5182 0.4756 0.4329
747.000000 0.3902 0.2352 0.1883 0.1661 0.1139
752.000000 0.0611 0.0445 0.0353 0.0294 0.0235
757.000000 0.0178 0.0145 0.0111 0.0094 0.0081
762.000000 0.0069 0.0057 0.0054 0.0051 0.0046
767.000000 0.0042 0.0038 0.0036 0.0034 0.0032
772.000000 0.0030 0.0027 0.0024 0.0024 0.0023
777.000000 0.0023 0.0023 0.0023 0.0023 0.0022
782.000000 0.0022 0.0022 0.0022 0.0021 0.0021
787.000000 0.0021 0.0021 0.0021 0.0020 0.0020
792.000000 0.0020 0.0020 0.0020 0.0019 0.0019
797.000000 0.0019 0.0019 0.0019 0.0026 0.0036
802.000000 0.0061 0.0096 0.0190 0.0359 0.0549
807.000000 0.0694 0.2083 0.3533 0.4192 0.4697
812.000000 0.5201 0.5706 0.6210 0.6715 0.7219
817.000000 0.7705 0.7805 0.7917 0.8055 0.8165
822.000000 0.8277 0.8475 0.8585 0.8653 0.8718
827.000000 0.8769 0.8804 0.8838 0.8857 0.8875
832.000000 0.8887 0.8890 0.8893 0.8896 0.8900
837.000000 0.8903 0.8905 0.8907 0.8909 0.8910
842.000000 0.8912 0.8913 0.8912 0.8912 0.8911
847.000000 0.8910 0.8909 0.8908 0.8908 0.8907
852.000000 0.8906 0.8906 0.8905 0.8905 0.8904
857.000000 0.8904 0.8904 0.8903 0.8902 0.8902
862.000000 0.8901 0.8900 0.8900 0.8900 0.8900
867.000000 0.8900 0.8900 0.8900 0.8900 0.8900
872.000000 0.8901 0.8916 0.8902 0.8903 0.8904
877.000000 0.8906 0.8907 0.8908 0.8909 0.8909
882.000000 0.8909 0.8908 0.8908 0.8907 0.8907
887.000000 0.8907 0.8906 0.8906 0.8906 0.8905
892.000000 0.8905 0.8905 0.8904 0.8904 0.8904
897.000000 0.8903 0.8899 0.8892 0.8885 0.8878
902.000000 0.8872 0.8865 0.8858 0.8851 0.8843
907.000000 0.8835 0.8827 0.8818 0.8810 0.8803
912.000000 0.8796 0.8793 0.8795 0.8797 0.8799
917.000000 0.8807 0.8821 0.8835 0.8849 0.8863
922.000000 0.8878 0.8895 0.8911 0.8927 0.8943
927.000000 0.8955 0.8966 0.8976 0.8986 0.8997
932.000000 0.9007 0.9015 0.9016 0.9018 0.9019
937.000000 0.9020 0.9022 0.9023 0.9023 0.9023
942.000000 0.9023 0.9023 0.9024 0.9024 0.9024
947.000000 0.9021 0.9018 0.9015 0.9012 0.9003
952.000000 0.8994 0.8985 0.8976 0.8967 0.8959
957.000000 0.8950 0.8941 0.8932 0.8923 0.8914
962.000000 0.8905 0.8896 0.8887 0.8878 0.8872
967.000000 0.8865 0.8859 0.8853 0.8847 0.8840
972.000000 0.8834 0.8829 0.8826 0.8823 0.8821
977.000000 0.8818 0.8815 0.8813 0.8810 0.8807
982.000000 0.8807 0.8807 0.8807 0.8799 0.8790
987.000000 0.8782 0.8773 0.8765 0.8750 0.8731
992.000000 0.8712 0.8692 0.8672 0.8652 0.8632
997.000000 0.8613 0.8600 0.8588 0.8576 0.8563
1002.000000 0.8551 0.8538 0.8529 0.8522 0.8515
1007.000000 0.8508 0.8515 0.8508 0.8511 0.8522
1012.000000 0.8534 0.8545 0.8563 0.8582 0.8601
1017.000000 0.8631 0.8664 0.8697 0.8730 0.8763
1022.000000 0.8797 0.8822 0.8845 0.8867 0.8890
1027.000000 0.8912 0.8929 0.8943 0.8957 0.8970
1032.000000 0.8971 0.8972 0.8973 0.8974 0.8973
1037.000000 0.8971 0.8970 0.8968 0.8966 0.8965
1042.000000 0.8961 0.8956 0.8950 0.8944 0.8938
1047.000000 0.8932 0.8926 0.8920 0.8913 0.8906
1052.000000 0.8899 0.8893 0.8886 0.8879 0.8872
1057.000000 0.8866 0.8860 0.8854 0.8847 0.8841
1062.000000 0.8835 0.8829 0.8826 0.8825 0.8824
1067.000000 0.8823 0.8821 0.8820 0.8819 0.8824
1072.000000 0.8830 0.8836 0.8842 0.8848 0.8854
1077.000000 0.8860 0.8867 0.8873 0.8880 0.8886
1082.000000 0.8892 0.8897 0.8902 0.8908 0.8913
1087.000000 0.8914 0.8914 0.8914 0.8914 0.8914
1092.000000 0.8915 0.8916 0.8917 0.8917 0.8918
1097.000000 0.8918 0.8916 0.8914 0.8912 0.8910
1102.000000 0.8908 0.8908 0.8908 0.8908 0.8908
1107.000000 0.8908 0.8909 0.8911 0.8913 0.8915
1112.000000 0.8918 0.8912 0.8924 0.8928 0.8931
1117.000000 0.8934 0.8937 0.8940 0.8943 0.8946
1122.000000 0.8952 0.8960 0.8968 0.8976 0.8985
1127.000000 0.8993 0.9003 0.9012 0.9019 0.9021
1132.000000 0.9022 0.9015 0.9007 0.8996 0.8988
1137.000000 0.8979 0.8971 0.8964 0.8962 0.8963
1142.000000 0.8964 0.8966 0.8968 0.8970 0.8972
1147.000000 0.8975 0.8977 0.8979 0.8981 0.8983
1152.000000 0.8985 0.8987 0.8990 0.8993 0.8996
1157.000000 0.8999 0.9001 0.9004 0.9005 0.9007
1162.000000 0.9009 0.9011 0.9013 0.9015 0.9017
1167.000000 0.9019 0.9020 0.9022 0.9024 0.9025
1172.000000 0.9023 0.9015 0.9006 0.8998 0.8990
1177.000000 0.8983 0.8981 0.8997 0.9011 0.9025
1182.000000 0.9032 0.9038 0.9043 0.9042 0.9040
1187.000000 0.9039 0.9034 0.9030 0.9026 0.9022
1192.000000 0.9016 0.9010 0.9003 0.8997 0.8991
1197.000000 0.8984 0.8977 0.8970 0.8964 0.8957
1202.000000 0.8950 0.8943 0.8937 0.8930 0.8924
1207.000000 0.8917 0.8911 0.8904 0.8898 0.8892
1212.000000 0.8887 0.8881 0.8875 0.8870 0.8864
1217.000000 0.8858 0.8851 0.8843 0.8836 0.8828
1222.000000 0.8828 0.8830 0.8833 0.8835 0.8837
1227.000000 0.8839 0.8841 0.8842 0.8842 0.8835
1232.000000 0.8828 0.8819 0.8811 0.8802 0.8794
1237.000000 0.8780 0.8765 0.8750 0.8736 0.8721
1242.000000 0.8706 0.8689 0.8671 0.8653 0.8631
1247.000000 0.8609 0.8583 0.8556 0.8529 0.8496
1252.000000 0.8454 0.8423 0.8375 0.8366 0.8334
1257.000000 0.8360 0.8369 0.8389 0.8421 0.8449
1262.000000 0.8481 0.8522 0.8563 0.8600 0.8636
1267.000000 0.8672 0.8701 0.8731 0.8758 0.8784
1272.000000 0.8795 0.8801 0.8802 0.8804 0.8805
1277.000000 0.8807 0.8808 0.8809 0.8809 0.8810
1282.000000 0.8811 0.8812 0.8813 0.8815 0.8817
1287.000000 0.8818 0.8820 0.8822 0.8826 0.8829
1292.000000 0.8830 0.8830 0.8831 0.8832 0.8832
1297.000000 0.8833 0.8834 0.8833 0.8832 0.8830
1302.000000 0.8829 0.8828 0.8827 0.8827 0.8827
1307.000000 0.8827 0.8827 0.8827 0.8827 0.8827
1312.000000 0.8827 0.8828 0.8828 0.8828 0.8829
1317.000000 0.8829 0.8830 0.8830 0.8830 0.8831
1322.000000 0.8831 0.8831 0.8832 0.8832 0.8832
1327.000000 0.8833 0.8833 0.8833 0.8833 0.8833
1332.000000 0.8833 0.8833 0.8833 0.8833 0.8833
1337.000000 0.8834 0.8834 0.8834 0.8836 0.8839
1342.000000 0.8842 0.8845 0.8848 0.8851 0.8854
1347.000000 0.8857 0.8860 0.8867 0.8875 0.8883
1352.000000 0.8891 0.8899 0.8907 0.8911 0.8914
1357.000000 0.8917 0.8920 0.8912 0.8901 0.8893
1362.000000 0.8885 0.8874 0.8864 0.8854 0.8843
1367.000000 0.8833 0.8823 0.8814 0.8804 0.8796
1372.000000 0.8789 0.8783 0.8777 0.8770 0.8764
1377.000000 0.8760 0.8756 0.8752 0.8747 0.8743
1382.000000 0.8739 0.8736 0.8733 0.8731 0.8728
1387.000000 0.8726 0.8723 0.8721 0.8718 0.8716
1392.000000 0.8715 0.8715 0.8715 0.8715 0.8715
1397.000000 0.8716 0.8716 0.8717 0.8718 0.8718
1402.000000 0.8719 0.8720 0.8722 0.8724 0.8726
1407.000000 0.8728 0.8730 0.8733 0.8735 0.8737
1412.000000 0.8738 0.8739 0.8740 0.8742 0.8746
1417.000000 0.8749 0.8754 0.8762 0.8756 0.8750
1422.000000 0.8743 0.8737 0.8731 0.8726 0.8727
1427.000000 0.8729 0.8732 0.8735 0.8738 0.8741
1432.000000 0.8744 0.8749 0.8755 0.8760 0.8766
1437.000000 0.8766 0.8766 0.8766 0.8750 0.8746
1442.000000 0.8744 0.8743 0.8746 0.8749 0.8752
1447.000000 0.8754 0.8757 0.8760 0.8761 0.8763
1452.000000 0.8764 0.8766 0.8768 0.8770 0.8773
1457.000000 0.8775 0.8777 0.8780 0.8778 0.8776
1462.000000 0.8774 0.8772 0.8770 0.8768 0.8765
1467.000000 0.8764 0.8762 0.8760 0.8759 0.8757
1472.000000 0.8755 0.8753 0.8750 0.8746 0.8743
1477.000000 0.8740 0.8738 0.8737 0.8735 0.8734
1482.000000 0.8732 0.8731 0.8729 0.8728 0.8730
1487.000000 0.8731 0.8732 0.8733 0.8734 0.8735
1492.000000 0.8736 0.8737 0.8739 0.8741 0.8742
1497.000000 0.8744 0.8741 0.8733 0.8725 0.8717
1502.000000 0.8711 0.8718 0.8725 0.8737 0.8749
1507.000000 0.8756 0.8741 0.8703 0.8666 0.8622
1512.000000 0.8582 0.8554 0.8526 0.8498 0.8471
1517.000000 0.8444 0.8417 0.8393 0.8370 0.8346
1522.000000 0.8323 0.8300 0.8279 0.8257 0.8236
1527.000000 0.8217 0.8202 0.8197 0.8195 0.8220
1532.000000 0.8246 0.8269 0.8271 0.8258 0.8181
1537.000000 0.8123 0.8072 0.8023 0.7989 0.7968
1542.000000 0.7968 0.7968 0.7974 0.7982 0.7999
1547.000000 0.8021 0.8047 0.8074 0.8094 0.8094
1552.000000 0.8085 0.8076 0.8069 0.8062 0.8063
1557.000000 0.8068 0.8073 0.8077 0.8046 0.7994
1562.000000 0.7951 0.7905 0.7894 0.7891 0.7893
1567.000000 0.7901 0.7908 0.7922 0.7936 0.7964
1572.000000 0.7981 0.7997 0.8001 0.7998 0.7992
1577.000000 0.7973 0.7954 0.7952 0.7969 0.8001
1582.000000 0.8019 0.8024 0.8029 0.8034 0.8039
1587.000000 0.8044 0.8049 0.8054 0.8059 0.8063
1592.000000 0.8069 0.8076 0.8084 0.8091 0.8104
1597.000000 0.8118 0.8139 0.8162 0.8187 0.8215
1602.000000 0.8244 0.8272 0.8301 0.8330 0.8358
1607.000000 0.8387 0.8416 0.8447 0.8481 0.8515
1612.000000 0.8549 0.8569 0.8585 0.8602 0.8609
1617.000000 0.8614 0.8618 0.8627 0.8640 0.8653
1622.000000 0.8666 0.8676 0.8676 0.8676 0.8674
1627.000000 0.8672 0.8670 0.8668 0.8666 0.8664
1632.000000 0.8661 0.8659 0.8656 0.8648 0.8640
1637.000000 0.8632 0.8625 0.8621 0.8616 0.8612
1642.000000 0.8608 0.8609 0.8610 0.8611 0.8612
1647.000000 0.8614 0.8618 0.8622 0.8626 0.8632
1652.000000 0.8642 0.8650 0.8656 0.8662 0.8668
1657.000000 0.8674 0.8679 0.8684 0.8690 0.8696
1662.000000 0.8702 0.8709 0.8713 0.8713 0.8709
1667.000000 0.8706 0.8702 0.8699 0.8700 0.8700
1672.000000 0.8700 0.8700 0.8703 0.8707 0.8710
1677.000000 0.8714 0.8717 0.8725 0.8742 0.8761
1682.000000 0.8783 0.8795 0.8788 0.8782 0.8777
1687.000000 0.8771 0.8765 0.8756 0.8753 0.8750
1692.000000 0.8748 0.8748 0.8748 0.8748 0.8748
1697.000000 0.8749 0.8749 0.8749 0.8749 0.8749
1702.000000 0.8750 0.8751 0.8753 0.8754 0.8755
1707.000000 0.8757 0.8758 0.8759 0.8760 0.8762
1712.000000 0.8763 0.8764 0.8766 0.8770 0.8774
1717.000000 0.8775 0.8775 0.8776 0.8777 0.8778
1722.000000 0.8777 0.8776 0.8776 0.8775 0.8774
1727.000000 0.8772 0.8771 0.8769 0.8768 0.8766
1732.000000 0.8765 0.8763 0.8761 0.8758 0.8756
1737.000000 0.8754 0.8751 0.8749 0.8747 0.8744
1742.000000 0.8742 0.8740 0.8737 0.8735 0.8733
1747.000000 0.8730 0.8729 0.8728 0.8726 0.8725
1752.000000 0.8724 0.8722 0.8721 0.8720 0.8718
1757.000000 0.8717 0.8716 0.8714 0.8713 0.8711
1762.000000 0.8710 0.8709 0.8710 0.8711 0.8712
1767.000000 0.8714 0.8715 0.8716 0.8719 0.8724
1772.000000 0.8729 0.8734 0.8733 0.8726 0.8718
1777.000000 0.8710 0.8702 0.8694 0.8690 0.8690
1782.000000 0.8689 0.8688 0.8687 0.8686 0.8686
1787.000000 0.8685 0.8684 0.8684 0.8685 0.8685
1792.000000 0.8686 0.8686 0.8687 0.8687 0.8688
1797.000000 0.8688 0.8689 0.8688 0.8688 0.8688
1802.000000 0.8688 0.8688 0.8687 0.8687 0.8687
1807.000000 0.8687 0.8687 0.8686 0.8686 0.8686
1812.000000 0.8685 0.8683 0.8682 0.8681 0.8680
1817.000000 0.8679 0.8678 0.8676 0.8675 0.8674
1822.000000 0.8673 0.8672 0.8671 0.8670 0.8668
1827.000000 0.8668 0.8667 0.8666 0.8665 0.8664
1832.000000 0.8663 0.8663 0.8662 0.8661 0.8660
1837.000000 0.8659 0.8658 0.8658 0.8657 0.8656
1842.000000 0.8655 0.8654 0.8653 0.8652 0.8651
1847.000000 0.8650 0.8649 0.8648 0.8647 0.8645
1852.000000 0.8644 0.8643 0.8641 0.8639 0.8636
1857.000000 0.8634 0.8632 0.8630 0.8631 0.8634
1862.000000 0.8638 0.8642 0.8646 0.8657 0.8668
1867.000000 0.8678 0.8686 0.8689 0.8681 0.8671
1872.000000 0.8658 0.8646 0.8638 0.8638 0.8638
1877.000000 0.8638 0.8638 0.8638 0.8638 0.8637
1882.000000 0.8636 0.8636 0.8635 0.8634 0.8633
1887.000000 0.8632 0.8630 0.8629 0.8628 0.8626
1892.000000 0.8625 0.8624 0.8623 0.8621 0.8621
1897.000000 0.8621 0.8621 0.8621 0.8621 0.8621
1902.000000 0.8621 0.8622 0.8623 0.8624 0.8624
1907.000000 0.8625 0.8626 0.8626 0.8627 0.8628
1912.000000 0.8629 0.8629 0.8630 0.8631 0.8632
1917.000000 0.8632 0.8633 0.8634 0.8635 0.8636
1922.000000 0.8636 0.8637 0.8638 0.8639 0.8639
1927.000000 0.8639 0.8638 0.8638 0.8637 0.8637
1932.000000 0.8637 0.8636 0.8637 0.8638 0.8640
1937.000000 0.8642 0.8644 0.8646 0.8647 0.8649
1942.000000 0.8651 0.8653 0.8654 0.8656 0.8659
1947.000000 0.8661 0.8664 0.8666 0.8669 0.8671
1952.000000 0.8674 0.8677 0.8678 0.8678 0.8679
1957.000000 0.8680 0.8681 0.8681 0.8680 0.8680
1962.000000 0.8679 0.8679 0.8679 0.8678 0.8678
1967.000000 0.8678 0.8677 0.8677 0.8677 0.8676
1972.000000 0.8676 0.8676 0.8675 0.8675 0.8674
1977.000000 0.8673 0.8671 0.8670 0.8669 0.8668
1982.000000 0.8667 0.8666 0.8665 0.8664 0.8664
1987.000000 0.8663 0.8662 0.8661 0.8661 0.8660
1992.000000 0.8659 0.8659 0.8658 0.8657 0.8658
1997.000000 0.8658 0.8659 0.8660 0.8660 0.8660
2002.000000 0.8661 0.8661 0.8662 0.8662 0.8662
2007.000000 0.8662 0.8663 0.8663 0.8664 0.8664
2012.000000 0.8664 0.8664 0.8665 0.8665 0.8666
2017.000000 0.8666 0.8667 0.8667 0.8668 0.8668
2022.000000 0.8669 0.8669 0.8670 0.8670 0.8670
2027.000000 0.8670 0.8671 0.8671 0.8672 0.8673
2032.000000 0.8674 0.8674 0.8675 0.8675 0.8676
2037.000000 0.8676 0.8677 0.8677 0.8678 0.8678
2042.000000 0.8679 0.8679 0.8680 0.8680 0.8681
2047.000000 0.8681 0.8682 0.8682 0.8683 0.8683
2052.000000 0.8684 0.8684 0.8685 0.8685 0.8686
2057.000000 0.8686 0.8686 0.8686 0.8687 0.8687
2062.000000 0.8688 0.8688 0.8689 0.8689 0.8689
2067.000000 0.8689 0.8690 0.8690 0.8691 0.8691
2072.000000 0.8692 0.8692 0.8692 0.8692 0.8693
2077.000000 0.8693 0.8694 0.8694 0.8695 0.8695
2082.000000 0.8696 0.8696 0.8696 0.8696 0.8697
2087.000000 0.8697 0.8697 0.8697 0.8698 0.8698
2092.000000 0.8698 0.8698 0.8698 0.8698 0.8699
2097.000000 0.8699 0.8699 0.8699 0.8699 0.8699
2102.000000 0.8700 0.8700 0.8700 0.8700 0.8700
2107.000000 0.8700 0.8701 0.8701 0.8701 0.8701
2112.000000 0.8701 0.8701 0.8702 0.8702 0.8702
2117.000000 0.8702 0.8702 0.8702 0.8703 0.8703
2122.000000 0.8704 0.8704 0.8705 0.8706 0.8707
2127.000000 0.8707 0.8708 0.8708 0.8709 0.8709
2132.000000 0.8710 0.8711 0.8712 0.8712 0.8713
2137.000000 0.8713 0.8714 0.8715 0.8716 0.8716
2142.000000 0.8717 0.8717 0.8718 0.8719 0.8720
2147.000000 0.8720 0.8721 0.8721 0.8722 0.8723
2152.000000 0.8724 0.8724 0.8725 0.8725 0.8726
2157.000000 0.8727 0.8728 0.8728 0.8729 0.8729
2162.000000 0.8730 0.8731 0.8732 0.8732 0.8733
2167.000000 0.8733 0.8734 0.8734 0.8735 0.8735
2172.000000 0.8736 0.8736 0.8737 0.8737 0.8737
2177.000000 0.8737 0.8738 0.8738 0.8739 0.8739
2182.000000 0.8740 0.8740 0.8741 0.8741 0.8742
2187.000000 0.8742 0.8743 0.8743 0.8744 0.8744
2192.000000 0.8745 0.8745 0.8746 0.8746 0.8747
2197.000000 0.8747 0.8748 0.8748 0.8749 0.8749
2202.000000 0.8750 0.8750 0.8751 0.8751 0.8752
2207.000000 0.8752 0.8753 0.8753 0.8753 0.8753
2212.000000 0.8753 0.8753 0.8753 0.8753 0.8753
2217.000000 0.8753 0.8753 0.8753 0.8753 0.8753
2222.000000 0.8753 0.8753 0.8753 0.8753 0.8753
2227.000000 0.8753 0.8753 0.8753 0.8753 0.8752
2232.000000 0.8752 0.8752 0.8752 0.8752 0.8752
2237.000000 0.8752 0.8752 0.8752 0.8752 0.8752
2242.000000 0.8752 0.8752 0.8752 0.8752 0.8752
2247.000000 0.8752 0.8752 0.8752 0.8752 0.8752
2252.000000 0.8752 0.8752 0.8752 0.8752 0.8752
2257.000000 0.8751 0.8751 0.8751 0.8751 0.8751
2262.000000 0.8751 0.8751 0.8751 0.8751 0.8751
2267.000000 0.8751 0.8751 0.8751 0.8751 0.8751
2272.000000 0.8751 0.8750 0.8750 0.8750 0.8750
2277.000000 0.8750 0.8750 0.8750 0.8750 0.8750
2282.000000 0.8750 0.8750 0.8750 0.8750 0.8750
2287.000000 0.8749 0.8749 0.8750 0.8751 0.8752
2292.000000 0.8754 0.8755 0.8757 0.8758 0.8760
2297.000000 0.8761 0.8762 0.8763 0.8765 0.8766
2302.000000 0.8768 0.8769 0.8771 0.8773 0.8775
2307.000000 0.8781 0.8787 0.8793 0.8799 0.8805
2312.000000 0.8811 0.8816 0.8822 0.8826 0.8831
2317.000000 0.8836 0.8841 0.8845 0.8850 0.8854
2322.000000 0.8859 0.8864 0.8869 0.8872 0.8876
2327.000000 0.8878 0.8880 0.8881 0.8883 0.8885
2332.000000 0.8887 0.8889 0.8891 0.8892 0.8894
2337.000000 0.8896 0.8898 0.8900 0.8902 0.8902
2342.000000 0.8902 0.8901 0.8901 0.8900 0.8900
2347.000000 0.8899 0.8899 0.8898 0.8898 0.8897
2352.000000 0.8897 0.8896 0.8896 0.8894 0.8893
2357.000000 0.8889 0.8886 0.8882 0.8879 0.8875
2362.000000 0.8872 0.8868 0.8865 0.8861 0.8857
2367.000000 0.8852 0.8847 0.8840 0.8834 0.8827
2372.000000 0.8820 0.8813 0.8806 0.8799 0.8793
2377.000000 0.8786 0.8779 0.8773 0.8767 0.8760
2382.000000 0.8754 0.8747 0.8741 0.8735 0.8729
2387.000000 0.8726 0.8723 0.8723 0.8723 0.8723
2392.000000 0.8723 0.8723 0.8723 0.8723 0.8723
2397.000000 0.8722 0.8722 0.8722 0.8722 0.8722
2402.000000 0.8722 0.8722 0.8722 0.8722 0.8722
2407.000000 0.8722 0.8722 0.8722 0.8722 0.8722
2412.000000 0.8722 0.8721 0.8721 0.8721 0.8721
2417.000000 0.8721 0.8721 0.8721 0.8721 0.8721
2422.000000 0.8721 0.8721 0.8721 0.8721 0.8721
2427.000000 0.8721 0.8721 0.8721 0.8721 0.8720
2432.000000 0.8720 0.8720 0.8720 0.8720 0.8720
2437.000000 0.8720 0.8720 0.8720 0.8720 0.8720
2442.000000 0.8720 0.8720 0.8720 0.8720 0.8720
2447.000000 0.8719 0.8719 0.8719 0.8719 0.8719
2452.000000 0.8719 0.8719 0.8719 0.8719 0.8719
2457.000000 0.8719 0.8719 0.8719 0.8719 0.8719
2462.000000 0.8719 0.8719 0.8719 0.8718 0.8718
2467.000000 0.8718 0.8718 0.8718 0.8718 0.8718
2472.000000 0.8718 0.8718 0.8718 0.8718 0.8718
2477.000000 0.8718 0.8718 0.8718 0.8718 0.8718
2482.000000 0.8718 0.8717 0.8717 0.8717 0.8717
2487.000000 0.8717 0.8717 0.8717 0.8717 0.8717
2492.000000 0.8717 0.8717 0.8717 0.8717 0.8717
2497.000000 0.8717 0.8717 0.8716 0.8716 0.8716
2502.000000 0.8716 0.8716 0.8716 0.8716 0.8716
2507.000000 0.8716 0.8716 0.8716 0.8716 0.8716
2512.000000 0.8716 0.8716 0.8716 0.8716 0.8716
2517.000000 0.8715 0.8715 0.8715 0.8715 0.8715
2522.000000 0.8715 0.8715 0.8715 0.8715 0.8715
2527.000000 0.8715 0.8715 0.8715 0.8715 0.8715
2532.000000 0.8715 0.8715 0.8715 0.8714 0.8714
2537.000000 0.8714 0.8714 0.8714 0.8714 0.8714
2542.000000 0.8714 0.8714 0.8714 0.8714 0.8714
2547.000000 0.8714 0.8714 0.8714 0.8714 0.8713
2552.000000 0.8713 0.8713 0.8713 0.8713 0.8713
2557.000000 0.8713 0.8713 0.8713 0.8713 0.8713
2562.000000 0.8713 0.8713 0.8713 0.8713 0.8713
2567.000000 0.8713 0.8713 0.8712 0.8712 0.8712
2572.000000 0.8712 0.8712 0.8712 0.8712 0.8712
2577.000000 0.8712 0.8712 0.8712 0.8712 0.8712
2582.000000 0.8712 0.8712 0.8712 0.8712 0.8712
2587.000000 0.8711 0.8711 0.8711 0.8711 0.8711
2592.000000 0.8711 0.8711 0.8711 0.8711 0.8711
2597.000000 0.8711 0.8711 0.8711 0.8711 0.8711
2602.000000 0.8711 0.8710 0.8710 0.8710 0.8710
2607.000000 0.8710 0.8710 0.8710 0.8710 0.8710
2612.000000 0.8710 0.8710 0.8710 0.8710 0.8710
2617.000000 0.8710 0.8710 0.8710 0.8710 0.8709
2622.000000 0.8709 0.8709 0.8709 0.8709 0.8709
2627.000000 0.8709 0.8709 0.8709 0.8709 0.8709
2632.000000 0.8709 0.8709 0.8709 0.8709 0.8709
2637.000000 0.8708 0.8708 0.8708 0.8708 0.8708
2642.000000 0.8708 0.8708 0.8708 0.8708 0.8708
2647.000000 0.8708 0.8708 0.8708 0.8708 0.8708
2652.000000 0.8708 0.8708 0.8708 0.8707 0.8707
2657.000000 0.8707 0.8707 0.8707 0.8707 0.8707
2662.000000 0.8707 0.8707 0.8707 0.8707 0.8707
2667.000000 0.8707 0.8707 0.8707 0.8707 0.8707
2672.000000 0.8707 0.8706 0.8706 0.8706 0.8706
2677.000000 0.8706 0.8706 0.8706 0.8706 0.8706
2682.000000 0.8706 0.8706 0.8706 0.8706 0.8706
2687.000000 0.8706 0.8706 0.8705 0.8705 0.8705
2692.000000 0.8705 0.8705 0.8705 0.8705 0.8705
2697.000000 0.8705 0.8705 0.8705 0.8705 0.8705
2702.000000 0.8705 0.8705 0.8705 0.8705 0.8705
2707.000000 0.8704 0.8704 0.8704 0.8704 0.8704
2712.000000 0.8704 0.8704 0.8704 0.8704 0.8704
2717.000000 0.8704 0.8704 0.8704 0.8704 0.8704
2722.000000 0.8704 0.8704 0.8704 0.8703 0.8703
2727.000000 0.8703 0.8703 0.8703 0.8703 0.8703
2732.000000 0.8703 0.8703 0.8703 0.8703 0.8703
2737.000000 0.8703 0.8703 0.8703 0.8703 0.8702
2742.000000 0.8702 0.8702 0.8702 0.8702 0.8702
2747.000000 0.8702 0.8702 0.8702 0.8702 0.8702
2752.000000 0.8702 0.8702 0.8702 0.8702 0.8702
2757.000000 0.8702 0.8702 0.8701 0.8701 0.8701
2762.000000 0.8701 0.8701 0.8701 0.8701 0.8701
2767.000000 0.8701 0.8701 0.8701 0.8701 0.8701
2772.000000 0.8701 0.8701 0.8701 0.8700 0.8700
2777.000000 0.8700 0.8700 0.8700 0.8700 0.8700
2782.000000 0.8700 0.8700 0.8700 0.8700 0.8701
2787.000000 0.8701 0.8702 0.8703 0.8704 0.8704
2792.000000 0.8705 0.8706 0.8707 0.8707 0.8708
2797.000000 0.8708 0.8709 0.8709 0.8709 0.8709
2802.000000 0.8710 0.8710 0.8710 0.8710 0.8711
2807.000000 0.8711 0.8711 0.8711 0.8712 0.8712
2812.000000 0.8712 0.8712 0.8713 0.8714 0.8716
2817.000000 0.8717 0.8719 0.8720 0.8722 0.8724
2822.000000 0.8726 0.8727 0.8729 0.8731 0.8733
2827.000000 0.8734 0.8736 0.8737 0.8739 0.8742
2832.000000 0.8745 0.8748 0.8751 0.8754 0.8757
2837.000000 0.8758 0.8760 0.8762 0.8764 0.8765
2842.000000 0.8767 0.8768 0.8770 0.8771 0.8772
2847.000000 0.8771 0.8771 0.8771 0.8771 0.8770
2852.000000 0.8770 0.8769 0.8769 0.8768 0.8768
2857.000000 0.8767 0.8767 0.8766 0.8766 0.8765
2862.000000 0.8765 0.8764 0.8763 0.8762 0.8762
2867.000000 0.8761 0.8760 0.8758 0.8756 0.8754
2872.000000 0.8752 0.8750 0.8748 0.8746 0.8744
2877.000000 0.8744 0.8744 0.8744 0.8744 0.8744
2882.000000 0.8745 0.8745 0.8746 0.8746 0.8746
2887.000000 0.8746 0.8747 0.8747 0.8748 0.8752
2892.000000 0.8756 0.8760 0.8764 0.8768 0.8772
2897.000000 0.8776 0.8781 0.8786 0.8792 0.8797
2902.000000 0.8803 0.8808 0.8814 0.8816 0.8818
2907.000000 0.8820 0.8822 0.8824 0.8826 0.8820
2912.000000 0.8815 0.8808 0.8802 0.8793 0.8785
2917.000000 0.8776 0.8768 0.8759 0.8751 0.8743
2922.000000 0.8735 0.8728 0.8722 0.8720 0.8719
2927.000000 0.8718 0.8717 0.8716 0.8715 0.8713
2932.000000 0.8712 0.8711 0.8710 0.8708 0.8707
2937.000000 0.8706 0.8706 0.8705 0.8704 0.8703
2942.000000 0.8702 0.8701 0.8700 0.8699 0.8698
2947.000000 0.8697 0.8697 0.8696 0.8695 0.8694
2952.000000 0.8693 0.8692 0.8691 0.8689 0.8688
2957.000000 0.8687 0.8686 0.8684 0.8683 0.8682
2962.000000 0.8681 0.8680 0.8679 0.8677 0.8675
2967.000000 0.8672 0.8670 0.8667 0.8665 0.8662
2972.000000 0.8660 0.8658 0.8656 0.8653 0.8651
2977.000000 0.8648 0.8646 0.8643 0.8641 0.8639
2982.000000 0.8638 0.8636 0.8635 0.8633 0.8632
2987.000000 0.8630 0.8629 0.8627 0.8626 0.8624
2992.000000 0.8623 0.8622 0.8621 0.8620 0.8619
2997.000000 0.8618 0.8618 0.8617 0.8616 0.8615
3002.000000 0.8614 0.8613 0.8612 0.8610 0.8609
3007.000000 0.8608 0.8607 0.8605 0.8604 0.8602
3012.000000 0.8601 0.8600 0.8599 0.8597 0.8596
3017.000000 0.8594 0.8593 0.8591 0.8590 0.8588
3022.000000 0.8586 0.8584 0.8582 0.8580 0.8578
3027.000000 0.8575 0.8573 0.8571 0.8569 0.8567
3032.000000 0.8565 0.8562 0.8560 0.8558 0.8556
3037.000000 0.8554 0.8552 0.8550 0.8548 0.8545
3042.000000 0.8543 0.8542 0.8541 0.8540 0.8540
3047.000000 0.8539 0.8539 0.8538 0.8538 0.8537
3052.000000 0.8537 0.8536 0.8536 0.8535 0.8535
3057.000000 0.8534 0.8534 0.8533 0.8533 0.8532
3062.000000 0.8532 0.8531 0.8531 0.8531 0.8531
3067.000000 0.8530 0.8530 0.8530 0.8530 0.8529
3072.000000 0.8529 0.8529 0.8529 0.8528 0.8528
3077.000000 0.8528 0.8528 0.8527 0.8527 0.8527
3082.000000 0.8527 0.8526 0.8526 0.8526 0.8526
3087.000000 0.8525 0.8525 0.8525 0.8525 0.8524
3092.000000 0.8524 0.8524 0.8524 0.8523 0.8523
3097.000000 0.8523 0.8523 0.8522 0.8522 0.8522
3102.000000 0.8522 0.8521 0.8521 0.8520 0.8520
3107.000000 0.8519 0.8519 0.8519 0.8519 0.8518
3112.000000 0.8518 0.8517 0.8517 0.8516 0.8516
3117.000000 0.8516 0.8516 0.8515 0.8515 0.8514
3122.000000 0.8514 0.8513 0.8513 0.8513 0.8513
3127.000000 0.8512 0.8512 0.8511 0.8511 0.8510
3132.000000 0.8510 0.8510 0.8510 0.8509 0.8509
3137.000000 0.8508 0.8508 0.8508 0.8508 0.8508
3142.000000 0.8508 0.8508 0.8508 0.8508 0.8508
3147.000000 0.8508 0.8508 0.8508 0.8508 0.8508
3152.000000 0.8508 0.8508 0.8508 0.8508 0.8508
3157.000000 0.8508 0.8508 0.8508 0.8508 0.8508
3162.000000 0.8508 0.8507 0.8507 0.8507 0.8507
3167.000000 0.8507 0.8507 0.8507 0.8507 0.8507
3172.000000 0.8507 0.8507 0.8507 0.8507 0.8507
3177.000000 0.8507 0.8507 0.8507 0.8507 0.8507
3182.000000 0.8507 0.8507 0.8507 0.8507 0.8507
3187.000000 0.8506 0.8506 0.8506 0.8506 0.8505
3192.000000 0.8505 0.8505 0.8505 0.8504 0.8504
3197.000000 0.8504 0.8504 0.8503 0.8503 0.8503
3202.000000 0.8503 0.8502 0.8502 0.8502 0.8502
3207.000000 0.8501 0.8501 0.8501 0.8501 0.8501
3212.000000 0.8501 0.8500 0.8500 0.8500 0.8500
3217.000000 0.8499 0.8499 0.8499 0.8499 0.8498
3222.000000 0.8498 0.8498 0.8498 0.8497 0.8497
3227.000000 0.8497 0.8497 0.8496 0.8496 0.8496
3232.000000 0.8496 0.8495 0.8495 0.8495 0.8495
3237.000000 0.8494 0.8494 0.8494 0.8494 0.8494
3242.000000 0.8494 0.8494 0.8494 0.8494 0.8495
3247.000000 0.8495 0.8495 0.8495 0.8495 0.8495
3252.000000 0.8495 0.8495 0.8496 0.8496 0.8496
3257.000000 0.8496 0.8496 0.8496 0.8496 0.8496
3262.000000 0.8497 0.8497 0.8497 0.8497 0.8497
3267.000000 0.8497 0.8497 0.8497 0.8497 0.8497
3272.000000 0.8498 0.8498 0.8498 0.8498 0.8498
3277.000000 0.8498 0.8498 0.8498 0.8499 0.8499
3282.000000 0.8499 0.8499 0.8499 0.8499 0.8499
3287.000000 0.8499 0.8500 0.8500 0.8500 0.8500
3292.000000 0.8500 0.8500 0.8500 0.8500 0.8500
3297.000000 0.8500 0.8501 0.8501 0.8501 0.8501
3302.000000 0.8501 0.8501 0.8501 0.8501 0.8501
3307.000000 0.8501 0.8501 0.8501 0.8501 0.8501
3312.000000 0.8501 0.8501 0.8501 0.8501 0.8501
3317.000000 0.8501 0.8502 0.8502 0.8502 0.8502
3322.000000 0.8502 0.8502 0.8502 0.8502 0.8502
3327.000000 0.8502 0.8502 0.8502 0.8502 0.8502
3332.000000 0.8502 0.8502 0.8502 0.8502 0.8502
3337.000000 0.8502 0.8503 0.8503 0.8503 0.8503
3342.000000 0.8503 0.8503 0.8503 0.8503 0.8503
3347.000000 0.8503 0.8503 0.8503 0.8503 0.8503
3352.000000 0.8503 0.8503 0.8503 0.8503 0.8503
3357.000000 0.8503 0.8503 0.8503 0.8504 0.8504
3362.000000 0.8504 0.8504 0.8504 0.8504 0.8504
3367.000000 0.8504 0.8504 0.8504 0.8504 0.8504
3372.000000 0.8504 0.8504 0.8504 0.8504 0.8504
3377.000000 0.8504 0.8504 0.8504 0.8505 0.8505
3382.000000 0.8505 0.8505 0.8505 0.8505 0.8505
3387.000000 0.8505 0.8505 0.8505 0.8505 0.8505
3392.000000 0.8506 0.8507 0.8508 0.8508 0.8509
3397.000000 0.8510 0.8511 0.8511 0.8512 0.8513
3402.000000 0.8514 0.8515 0.8516 0.8516 0.8517
3407.000000 0.8518 0.8519 0.8519 0.8520 0.8521
3412.000000 0.8522 0.8523 0.8524 0.8524 0.8525
3417.000000 0.8526 0.8527 0.8527 0.8528 0.8529
3422.000000 0.8530 0.8531 0.8532 0.8532 0.8533
3427.000000 0.8534 0.8535 0.8535 0.8536 0.8537
3432.000000 0.8538 0.8539 0.8540 0.8541 0.8542
3437.000000 0.8543 0.8544 0.8545 0.8546 0.8547
3442.000000 0.8548 0.8549 0.8550 0.8551 0.8552
3447.000000 0.8553 0.8554 0.8555 0.8556 0.8557
3452.000000 0.8558 0.8559 0.8560 0.8561 0.8562
3457.000000 0.8563 0.8564 0.8565 0.8578 0.8567
3462.000000 0.8568 0.8568 0.8569 0.8569 0.8570
3467.000000 0.8570 0.8571 0.8571 0.8572 0.8573
3472.000000 0.8574 0.8574 0.8575 0.8575 0.8576
3477.000000 0.8576 0.8577 0.8577 0.8578 0.8579
3482.000000 0.8580 0.8581 0.8582 0.8583 0.8584
3487.000000 0.8585 0.8586 0.8587 0.8589 0.8590
3492.000000 0.8591 0.8592 0.8593 0.8594 0.8595
3497.000000 0.8596 0.8597 0.8598 0.8600 0.8601
3502.000000 0.8602 0.8603 0.8604 0.8605 0.8606
3507.000000 0.8607 0.8608 0.8609 0.8610 0.8611
3512.000000 0.8612 0.8613 0.8614 0.8615 0.8616
3517.000000 0.8617 0.8618 0.8619 0.8620 0.8621
3522.000000 0.8623 0.8623 0.8624 0.8624 0.8625
3527.000000 0.8626 0.8627 0.8627 0.8628 0.8628
3532.000000 0.8629 0.8629 0.8630 0.8631 0.8632
3537.000000 0.8632 0.8633 0.8633 0.8634 0.8634
3542.000000 0.8635 0.8635 0.8636 0.8637 0.8638
3547.000000 0.8638 0.8639 0.8639 0.8640 0.8640
3552.000000 0.8641 0.8641 0.8641 0.8641 0.8642
3557.000000 0.8642 0.8642 0.8642 0.8643 0.8643
3562.000000 0.8643 0.8643 0.8643 0.8643 0.8644
3567.000000 0.8644 0.8644 0.8644 0.8645 0.8645
3572.000000 0.8645 0.8645 0.8646 0.8646 0.8646
3577.000000 0.8646 0.8647 0.8647 0.8647 0.8647
3582.000000 0.8648 0.8648 0.8648 0.8648 0.8649
3587.000000 0.8649 0.8649 0.8649 0.8650 0.8649
3592.000000 0.8649 0.8648 0.8648 0.8647 0.8647
3597.000000 0.8646 0.8645 0.8644 0.8644 0.8643
3602.000000 0.8643 0.8642 0.8641 0.8640 0.8640
3607.000000 0.8639 0.8638 0.8636 0.8634 0.8632
3612.000000 0.8630 0.8628 0.8626 0.8624 0.8622
3617.000000 0.8620 0.8618 0.8616 0.8614 0.8615
3622.000000 0.8617 0.8625 0.8634 0.8642 0.8651
3627.000000 0.8660 0.8669 0.8676 0.8684 0.8683
3632.000000 0.8683 0.8674 0.8666 0.8658 0.8650
3637.000000 0.8644 0.8638 0.8634 0.8631 0.8628
3642.000000 0.8625 0.8621 0.8618 0.8617 0.8616
3647.000000 0.8618 0.8620 0.8621 0.8623 0.8626
3652.000000 0.8629 0.8633 0.8638 0.8642 0.8646
3657.000000 0.8650 0.8655 0.8659 0.8664 0.8663
3662.000000 0.8662 0.8661 0.8660 0.8657 0.8654
3667.000000 0.8649 0.8644 0.8638 0.8633 0.8627
3672.000000 0.8621 0.8615 0.8610 0.8606 0.8603
3677.000000 0.8600 0.8598 0.8595 0.8593 0.8590
3682.000000 0.8587 0.8590 0.8593 0.8606 0.8619
3687.000000 0.8629 0.8639 0.8639 0.8639 0.8640
3692.000000 0.8641 0.8642 0.8644 0.8645 0.8647
3697.000000 0.8649 0.8651 0.8652 0.8654 0.8656
3702.000000 0.8658 0.8659 0.8661 0.8663 0.8665
3707.000000 0.8666 0.8668 0.8669 0.8670 0.8671
3712.000000 0.8672 0.8673 0.8675 0.8676 0.8677
3717.000000 0.8678 0.8679 0.8680 0.8681 0.8681
3722.000000 0.8682 0.8683 0.8684 0.8684 0.8685
3727.000000 0.8686 0.8687 0.8687 0.8687 0.8687
3732.000000 0.8687 0.8686 0.8686 0.8685 0.8685
3737.000000 0.8684 0.8684 0.8683 0.8683 0.8682
3742.000000 0.8682 0.8681 0.8681 0.8678 0.8676
3747.000000 0.8673 0.8671 0.8668 0.8666 0.8663
3752.000000 0.8661 0.8658 0.8656 0.8653 0.8651
3757.000000 0.8649 0.8647 0.8647 0.8647 0.8647
3762.000000 0.8647 0.8647 0.8647 0.8649 0.8651
3767.000000 0.8653 0.8655 0.8657 0.8660 0.8662
3772.000000 0.8664 0.8666 0.8668 0.8670 0.8672
3777.000000 0.8673 0.8675
##END=
