##TITLE=Carbon Tetrachloride
##JCAMP-DX=4.24
##DATA TYPE=INFRARED SPECTRUM
##CLASS=IUPAC A
##ORIGIN=NIST, Analytical Chemistry Division, 301-975-3108
##OWNER=COPYRIGHT (C) 2000 by the U.S. Secretary of Commerce
##DATE=00/02/01
##$SPECTRA VERSION=1.10
##$UNCERTAINTY IN Y=2.1 % relative (B=1.1E-04,C=2.7E-09,D=1.4E-13)
##CAS NAME=Carbon tetrachloride
##CAS REGISTRY NO=56-23-5
##MOLFORM=C Cl4
##MP=-22.99 C
##BP=76.54 C
##$NIST SOURCE=QUANT-IR
##SPECTROMETER/DATA SYSTEM=IFS66V (Bruker)
##INSTRUMENT PARAMETERS=KBr Beam Splitter; MCT Detector; Multipass cell
##STATE=gas
##SAMPLE DESCRIPTION=Carbon Tetrachloride Primary Gas Standard
##PRESSURE=101.3 Pa
##TEMPERATURE=23 C
##SAMPLING PROCEDURE=1 L/min Flow
##RESOLUTION=1.9290
##DATA PROCESSING=NB Strong Apodization
##XUNITS=cm-1
##YUNITS=(micromol/mol)-1m-1 (base 10)
##XFACTOR=1.0
##YFACTOR=7.2759E-12
##DELTAX=0.9645
##FIRSTX=575.652
##LASTX=3974.605
##FIRSTY=-8.31E-08
##MAXX=3973.64
##MINX=575.65
##MAXY=.0055508
##MINY=-2.55E-06
##NPOINTS=3526
##XYDATA=(X++(Y..Y))
575.65-11432 94820 68645 41331 60742 85089
580.47 154766 156134 85484 37407-26605-35369
586.26 7081 23016 66235 23241-23847-37021
592.04-12827 12389 915-36290 595-12349
597.83 14942 10996 15264-10477-7088 12589
603.62 46396 32515 20985 11633 10769-38920
609.40-6375 21303 29914-5968 15314-12459
615.19-805-1252 46084 75773 89618 91150
620.97 146492 111049 92003 120064 157694 173883
626.76 174817 129637 139201 156981 181000 127348
632.54 95158 54412 57612 40397 43343 6841
638.33 13979-2123 25300 35636 46180 5631
644.11-4037-11506 1038-19384 6583-4628
649.90 32401 25362 21201-16561-720-3159
655.68 30124 34176 32326 818 30773-10002
661.47-3592-13283 9170-2558 9506-21991
667.25 2338-18487-4626 742 4184-22712
673.04 29925 34253 28542-24341-2582 8109
678.83 12729-3416 28303 3108 28674-3
684.61-11984-31963 11411 17025 50211 11072
690.40 23200 11088 36974 1882 16082 22357
696.18 65825 17584 23963 19072 62068 33577
701.97 33834 9752 52636 34371 46467 21807
707.75 61554 35852 50908 27184 70668 52128
713.54 61878 23209 57899 35187 83364 51997
719.32 84905 70184 145366 144113 186277 174549
725.11 258232 278103 350594 360944 454474 504083
730.89 649016 718118 898168 1024796 1282977 1498494
736.68 1873502 2214304 2707224 3196367 3912592 4699064
742.47 5726175 6725447 7901072 9158083 10929322 12978035
748.25 15179767 17146110 19720960 22644597 25668979 29027491
754.04 33466112 37181508 40388987 44746919 50158073 53329944
759.82 56566717 59636590 61233172 66869710 75037832 73841583
765.61 71856896 78546361 92977397 99346955 84235008 77326173
771.39 104468033 122662820 101047370 92259967 96824299 102054022
777.18 106010666 108224342 107692420 104671896 98621510 90206987
782.96 80523464 73441601 74575674 88360668 116619294 163710599
788.75 234921168 333444824 455976813 591499120 704166024 758644630
794.53 762895819 716106691 626906754 493554659 355327524 272145034
800.32 209635931 150643127 109662470 81603749 60321125 45014382
806.11 33181251 24491548 17963804 13466955 10140482 7913836
811.89 6175099 5052958 4084812 3431572 2804727 2426866
817.68 1970273 1644746 1309835 1172261 968805 873297
823.46 690736 617485 493467 449581 336060 334528
829.25 247004 239971 178138 181208 113454 134227
835.03 109174 138982 70891 84275 51593 89216
840.82 44224 62758 41898 84059 61243 82315
846.60 47179 77734 58508 83022 34163 55005
852.39 59216 88986 42737 48996 47227 82382
858.17 43190 52226 42699 70941 46394 59000
863.96 33422 59262 51026 75527 59786 84524
869.75 83473 96146 70599 95389 85107 106121
875.53 86947 94418 82021 111394 98806 107395
881.32 94486 111536 94996 104016 86664 94049
887.10 76940 91111 67326 71179 60200 87505
892.89 77250 77763 52080 65999 58584 70811
898.67 45040 52510 51311 65849 44116 51876
904.46 35668 48470 33861 40407 19261 40110
910.24 34090 32075 15623 31213 21683 32227
916.03 16118 17688-90 9264-7362 3037
921.81 11044 27426 8908 12749-96 18220
927.60 15302 16743-4358 15875 17896 28408
933.39 11008 10394 1181 16372 6805 13108
939.17 7885 23622 14606 19718 7553 21879
944.96 24688 37331 22705 33523 28497 33893
950.74 15828 13921 11747 38397 39414 46685
956.53 41658 58239 51645 56046 54401 81015
962.31 93469 117450 117955 134591 141344 176992
968.10 188806 194991 202994 234182 250047 279751
973.88 286536 301764 306476 325647 318548 325298
979.67 331553 346714 331407 339808 347045 361686
985.45 338223 306342 292040 345289 379909 358951
991.24 319375 347982 384774 426136 443462 474369
997.03 492799 530460 557091 580337 590979 631755
1002.81 663767 689107 696056 718116 734597 745124
1008.60 725592 730639 723922 715718 687392 689479
1014.38 667534 649327 637502 619682 575661 542225
1020.17 492297 440161 377348 346185 314333 275724
1025.95 217843 186436 161467 147319 104543 70931
1031.74 43869 45306 26484 13720-5513-4747
1037.52-10618-13860-21721-3205-12004-7291
1043.31-12050-11383-16690-3117-3443-8513
1049.09-17836-1997 11135 17287-5713-1154
1054.88 11124 14996 7914 25697 26655 36946
1060.67 40190 50707 51836 62923 64358 70479
1066.45 67630 83403 79262 66936 55407 63845
1072.24 77676 94557 71596 57546 60382 74629
1078.02 64713 50054 40811 38946 29555 24785
1083.81 10589 21916 19507 12560-1677 4439
1089.59 12900 25612 14883 1288-3089 13331
1095.38 18750 27323 30561 39752 35466 38328
1101.16 29405 32985 42742 49656 38288 46033
1106.95 51562 54341 48690 61362 67176 73842
1112.73 70757 74522 72069 88464 84806 67166
1118.52 46540 48711 47177 38773 22347 20880
1124.31 28333 36217 19338-6954-19554-7585
1130.09-14865-34674-36673-19445-31374-39050
1135.88-52035-51814-42811-37419-51408-51212
1141.66-43551-28084-33801-47542-48532-35804
1147.45-34280-38475-44758-29608-23054-27075
1153.23-33321-29538-23574-16058-28301-29865
1159.02-30426-15535-15049-23886-29366-19675
1164.80-7625-9022-21238-13348-9346-850
1170.59-10262-6670 1561 7992 2936-1819
1176.37-35 15097 18446 7899-3773 2801
1182.16 13721 18436 2944 11028 31658 36627
1187.95 19465 18202 32915 45715 41849 38672
1193.73 40275 55451 64979 69938 63610 69819
1199.52 81922 89133 85686 97975 111583 126023
1205.30 126138 132955 156412 182608 181337 173454
1211.09 177251 198990 219116 231658 242466 268263
1216.87 288784 283169 259549 252608 283334 322847
1222.66 338135 356671 365467 327968 274497 243154
1228.44 243500 310304 390019 371087 270775 243769
1234.23 254184 259892 258409 277893 303651 323300
1240.01 321192 305928 302344 337002 373169 413934
1245.80 461861 514050 561012 598611 640749 714030
1251.59 782833 844405 877964 887230 912787 946842
1257.37 921626 858975 772837 732726 737755 706368
1263.16 601508 418779 301546 299100 278916 250426
1268.94 217488 186174 157453 152505 157318 161479
1274.73 160898 161345 156101 158925 144975 123395
1280.51 112047 120705 125276 120813 93047 77626
1286.30 71506 75511 56117 33175 24746 33324
1292.08 31174 22532 13806 9528 3205-1723
1297.87-7653-914 6850 4705-9615-13866
1303.65-11648-10422-24266-34339-31408-23889
1309.44-18995-23403-27872-22647-26745-30383
1315.23-39229-44216-43168-35458-36518-36864
1321.01-30183-24305-26159-29815-35404-25573
1326.80-22258-32694-44407-36310-20889-16844
1332.58-28022-35514-26728-18225-26020-38611
1338.37-42928-29235-20498-22544-34712-26917
1344.15-12232-13960-36054-42572-33154-26520
1349.94-41965-53548-35047-670 27527 41853
1355.72 32107 25871 16265-15306-37954-29251
1361.51-25888-24269-7991 600 1555 12744
1367.29 15782 323-2697 9012 6808-8309
1373.08-12715 5305 21338 18893 11272 5399
1378.87 10409 27105 15303 4094 8715 15244
1384.65 3887-19081-36725-12943 2457 4558
1390.44 352-2574-13417-34354-32266-21162
1396.22-12289-16625-41357-32817-13242-2993
1402.01-11258-31988-46622-29084-13623-17388
1407.79-28144-26121-14624-8073-20785-31753
1413.58-28512-21175-30663-46597-72781-102147
1419.36-53918-22988-28498-29527-26632-26787
1425.15-30478-30335-28643-30261-40692-33105
1430.93-26363-22067-27758-38231-72430-108244
1436.72-56414-25356-31007-26385-16357-14714
1442.51-22078-31211-26588-20677-41635-58041
1448.29-41192-28467-28571-39375-41805-35610
1454.08-43631-116336-177357-117996-63912-30554
1459.86-28588-35692-29346-31589-64399-53679
1465.65-31350-20433-13212-22522-40402-79988
1471.43-97762-91498-63569-45224-48959-25149
1477.22-21253-22357-24026-24070-22014-21939
1483.00-23720-10630-11347-41503-53234-38853
1488.79-46228-43958-26389-7930-1632-5055
1494.57-60213-84940-30056-18853-8350 10082
1500.36 11361 29528 38367 14735-71081-112927
1506.15-85484-7860 29953 42075 63179 66056
1511.93 74591 84499 88445 102143 84347 83517
1517.72 105898 96423 43125 38131 98481 147015
1523.50 162779 149081 161373 167224 185078 218448
1529.29 248665 252479 240191 212960 223129 272501
1535.07 309041 356136 351848 274339 277151 362800
1540.86 418863 486252 550847 561190 619630 704577
1546.64 759483 787847 810953 853633 919749 958222
1552.43 962146 972606 1065797 1107026 1050132 995813
1558.21 1050334 1111292 1225914 1286619 1299450 1327130
1564.00 1368297 1410338 1404726 1349101 1283092 1265200
1569.79 1316160 1319759 1270277 1212999 1174884 1097354
1575.57 1102248 1205754 1211486 1179717 1157049 1149454
1581.36 1131002 1113157 1108021 1111554 1093590 1073329
1587.14 1063132 1053126 1051398 1063788 1059451 1015866
1592.93 999307 1005423 998584 952701 929875 921646
1598.71 896065 855971 814535 777601 737425 693838
1604.50 638686 583588 538107 498553 447449 396288
1610.28 359576 328066 290368 244969 199243 90359
1616.07 38505 99537 100034 85645 72899 55749
1621.85 6101-21363 3513 12700-7649-35751
1627.64-31143-18571-16807-22411-27497-30456
1633.43-75614-153142-117304-55803-37237-21217
1639.21-24817-28146-23163-14893-23511-68493
1645.00-122868-88504-64585-43408-30245-44980
1650.78-145872-280223-238022-118478-52471-30441
1656.57-37689-42587-38778-35547-48367-79230
1662.35-75474-40278-38118-38882-50566-68566
1668.14-105393-85670-67273-57109-41878-57231
1673.92-116384-105745-54572-43185-48540-57972
1679.71-52136-47539-78989-144934-228855-166694
1685.49-60708-53100-54389-60498-55834-45971
1691.28-41252-48638-60968-159901-213705-106692
1697.07-64488-117703-221084-185346-83941-55149
1702.85-69124-71910-70877-69854-47387-44333
1708.64-51337-57334-49123-47165-56902-81645
1714.42-85366-99837-163854-139606-83386-52315
1720.21-44606-44438-45867-44792-44765-42212
1725.99-38104-36985-43895-60464-60638-63036
1731.78-113669-175014-158242-82240-45520-50293
1737.56-59113-91383-77914-47601-51835-54696
1743.35-45876-44222-48683-56898-64046-63093
1749.13-66996-106599-88213-47611-35175-35621
1754.92-49723-61512-48372-39036-39353-53813
1760.71-76396-54545-30126-27879-22603-22231
1766.49-40932-50817-21380-22937-47247-86110
1772.28-66776-11237-2769 3044 8893 10220
1778.06 12089 5671 846 12234 16352 13962
1783.85-1815-691 4948 329-2361-2680
1789.63-18645-36536-57342-21983 19579 18485
1795.42 21083 23309 21954 3202 5472 11465
1801.20 7189 8567 15844 15804 11928 4358
1806.99 1480 829-8749-18662-21991-22746
1812.77-21985-24633-28133-32866-33915-35214
1818.56-36553-34374-37989-40231-36860-51158
1824.35-62837-47577-38197-43798-65822-77613
1830.13-52505-39516-39136-42825-44141-43655
1835.92-44255-41347-38034-44604-47994-46690
1841.70-50438-88073-89538-45738-38717-48871
1847.49-45194-35654-35247-36055-38651-34570
1853.27-36183-36750-33750-29024-26320-34235
1859.06-36210-38705-39426-30953-27089-35063
1864.84-38873-39314-45319-58851-61077-42364
1870.63-35250-39488-45751-45531-36991-33823
1876.41-36176-38555-34162-33541-40809-51507
1882.20-51455-45707-47907-52478-47054-45545
1887.99-56285-60004-51351-48779-43892-43774
1893.77-53525-58023-50608-49830-52338-50900
1899.56-51332-57275-53152-49717-52181-46766
1905.34-42074-44257-48523-50344-46842-37438
1911.13-30852-35687-35043-33545-36005-49176
1916.91-60762-51693-42293-48431-61698-75545
1922.70-71637-64738-59328-54936-50778-47453
1928.48-46491-50598-52901-51643-47144-53879
1934.27-57167-54447-51120-47292-48822-55842
1940.05-54643-59798-65587-63967-56844-50726
1945.84-43773-47870-52670-48441-42498-46453
1951.63-52830-53394-42827-41088-48954-50974
1957.41-44835-41193-41340-44311-42430-44563
1963.20-46684-46759-49790-50408-41931-35322
1968.98-38988-42941-44646-50600-67403-55943
1974.77-29419-31542-36059-41344-38173-33969
1980.55-33461-36103-41621-44518-41421-36901
1986.34-31751-34105-37954-38019-39687-40576
1992.12-31935-29587-34973-40634-34695-27429
1997.91-26279-31999-31683-31384-25895-24382
2003.69-31765-39480-38920-35709-31910-34148
2009.48-29557-25478-29397-36844-33562-28331
2015.27-26001-30151-37282-39975-33133-31929
2021.05-34244-36993-31173-30968-32734-36807
2026.84-37981-34289-35298-42358-42785-39617
2032.62-38007-39406-40721-39930-33907-35285
2038.41-37109-42265-42410-39535-33897-38209
2044.19-43572-40886-40655-46260-49070-45558
2049.98-36037-33939-39079-44011-43772-42046
2055.76-41537-47372-45782-38850-40109-50423
2061.55-50801-45611-44095-45952-46711-49561
2067.33-43869-43576-47924-49380-46901-45293
2073.12-48144-49891-45271-41716-41461-48675
2078.91-49042-48385-37725-37791-48291-51718
2084.69-38622-38403-49232-51361-46605-37980
2090.48-41832-51777-49371-33336-30235-49602
2096.26-51962-35144-19357-34037-46497-48802
2102.05-31720-33387-45745-48684-31666-24737
2107.83-40411-45205-31580-15852-29629-40075
2113.62-35379-20028-31149-39418-32481-16566
2119.40-24004-35309-29783-15677-25102-47956
2125.19-43259-23459-18778-36477-39578-34382
2130.97-31916-41903-39804-30652-22238-30719
2136.76-32143-30015-31335-46300-47706-44354
2142.55-41838-42179-38279-31183-32483-45260
2148.33-42411-31609-30521-40386-38440-29261
2154.12-25226-37335-30640-14214-19183-39778
2159.90-32557-18316-25126-39426-23956-8961
2165.69-22107-34410-17282-12134-31952-32640
2171.47-6339-13644-29079-17675-7013-22774
2177.26-22888-5111-2657-22179-12526 8220
2183.04 4750-3230 10546 12333-2859-3293
2188.83 15203 15014 16968 29075 39748 33673
2194.61 42707 54374 49601 43056 62660 73832
2200.40 73140 77022 84647 79593 81151 86230
2206.19 89092 94823 100914 95253 97064 98902
2211.97 95150 90583 93062 87968 78773 67696
2217.76 60988 49561 35709 19989 285-16041
2223.54-9341 11916 36604 49664 59494 79156
2229.33 102071 108762 121209 132997 142691 145486
2235.11 145969 140204 142729 145027 142512 129175
2240.90 117375 107179 97129 80061 62214 48758
2246.68 44126 27639 12848 8437 7676-5263
2252.47-17504-26598-32674-34307-33127-40394
2258.25-43584-46681-42573-45834-40757-40540
2264.04-44084-44362-48564-50529-46467-48547
2269.83-42866-41669-45843-48343-44768-44473
2275.61-46247-47023-44963-47011-45094-45910
2281.40-44416-44008-39798-41808-41328-40818
2287.18-39018-43422-43263-40342-30209-35847
2292.97-43583-41769-32006-32648-30781-29567
2298.75-30722-36592-33445-30069-30075-36055
2304.54-33688-30542-24751-23187-20268-13797
2310.32-12066-19073-12392-9763-11267-14081
2316.11-9630 1721 4456-1579-1605 358
2321.89-3008-7094-8762-9531 5220 11361
2327.68 10866 10808 7604-4022-6759-3522
2333.47-38 2832 6046 5653 6655 9221
2339.25 12030 6963 6597 3652 8893 6664
2345.04 2965-2810-4205-8445-10447-16211
2350.82-17360-22486-29426-39079-38038-38772
2356.61-45820-49341-46027-47311-44370-48701
2362.39-50588-50148-50413-51478-44586-40892
2368.18-36969-35950-35517-35004-34172-36649
2373.96-38259-42720-38107-35134-33510-36215
2379.75-32970-37580-40231-38886-36606-38383
2385.53-34713-37563-37036-37401-39836-44750
2391.32-43295-41575-43129-44348-45592-48325
2397.11-45763-45965-44171-47469-49440-49250
2402.89-41838-42498-43528-47415-50221-51565
2408.68-45739-49148-53249-53789-50779-51104
2414.46-46886-49043-47852-49043-49393-54691
2420.25-55999-57676-53485-52668-54224-56794
2426.03-59207-61681-51340-50142-54555-54662
2431.82-52269-59329-65515-66092-66008-64179
2437.60-54249-52888-51856-52908-56671-60159
2443.39-60418-61353-59072-60986-58945-60407
2449.17-55630-56695-57091-54415-52116-57152
2454.96-53824-52300-53133-60092-57008-57218
2460.75-56776-60394-57025-52265-49773-54684
2466.53-58222-62865-57054-60193-60874-62439
2472.32-64037-68576-64496-57118-55317-59606
2478.10-56925-55959-50116-54058-56439-50433
2483.89-47032-53468-55931-60731-57186-56352
2489.67-53722-57083-59421-59341-58986-62217
2495.46-60492-58625-56787-61481-61164-63541
2501.24-61623-65440-64057-69672-74577-70287
2507.03-64736-71975-69988-67401-65249-70089
2512.81-69831-68150-69364-72152-68568-69357
2518.60-65538-67905-72364-76340-66513-61415
2524.39-65046-73819-70022-67749-67301-74187
2530.17-69882-64910-64072-70775-73053-73981
2535.96-65790-69382-72867-74807-71307-68415
2541.74-70534-75556-73021-71539-67422-67615
2547.53-63200-63436-67580-78288-81897-80879
2553.31-72098-63687-66746-80084-79915-74168
2559.10-67755-76608-75406-70809-67554-75488
2564.88-76772-77199-72853-71338-71835-73413
2570.67-67006-67715-67719-71059-73638-71974
2576.45-64135-69994-72636-68932-66092-70451
2582.24-70085-74594-72346-73002-72786-77365
2588.03-71398-68865-68924-71616-74721-75918
2593.81-72233-73601-74598-75450-70970-70569
2599.60-71989-75311-70778-70073-65273-68243
2605.38-70265-73243-72781-78053-73390-69588
2611.17-67698-70310-67756-67933-71404-73252
2616.95-68945-72828-71346-69352-64493-69914
2622.74-71339-72624-73570-77111-74385-74246
2628.52-66836-72695-72931-68848-68163-73654
2634.31-70941-70811-74443-75566-70080-75413
2640.09-76608-72832-70359-75851-74594-75912
2645.88-72243-71683-75689-77138-73370-78420
2651.66-81623-82892-80089-77833-75690-77650
2657.45-73450-73776-69477-72144-77368-82652
2663.24-81449-84605-79332-79737-76753-76139
2669.02-78963-80149-75980-74523-78234-77798
2674.81-71740-75771-79636-87322-84185-81330
2680.59-75921-80138-79806-83481-83126-82372
2686.38-81447-86121-84386-81022-78819-84327
2692.16-81132-79968-86678-90817-86446-89111
2697.95-91510-95238-85541-75704-69565-69908
2703.73-67912-76526-83407-91292-92207-92293
2709.52-84889-77827-70308-77356-80596-82115
2715.30-80097-82273-82632-83332-81613-80262
2721.09-79626-86471-79148-78030-77596-79064
2726.88-76245-76566-74187-84149-81039-76900
2732.66-72461-75436-78468-79431-81634-88740
2738.45-81794-77811-77774-79919-73845-79780
2744.23-81277-82338-80319-82746-75061-78617
2750.02-76837-80170-81209-80644-79283-76930
2755.80-74151-77277-80607-88318-77077-73419
2761.59-77156-82630-83344-86505-81192-84453
2767.37-93375-92940-80215-76580-79446-86893
2773.16-83773-85538-84307-87794-83981-82948
2778.94-80979-86729-89631-88897-78225-78178
2784.73-78910-85232-81781-79829-78437-83882
2790.52-84893-85673-82277-86763-84782-77077
2796.30-70376-78046-84742-94163-89340-87577
2802.09-82873-85065-84050-79600-73152-79048
2807.87-80189-79622-80523-85403-81133-77192
2813.66-76141-83777-84546-82742-76633-82099
2819.44-83383-79957-70175-73293-73836-78267
2825.23-79229-79363-74588-81648-86274-87838
2831.01-79297-81281-79633-81273-69301-63868
2836.80-70709-79709-80424-86386-83980-85753
2842.58-81549-74801-70569-74826-70079-75401
2848.37-72038-73580-75608-80310-80313-71414
2854.16-66564-71683-64053-67456-73208-76830
2859.94-78427-75587-69520-70412-79890-89903
2865.73-83042-76768-75456-78879-71880-71011
2871.51-68755-79743-84703-84127-72093-72540
2877.30-76599-79061-72169-78553-84044-83969
2883.08-75262-73466-69619-75825-77926-81172
2888.87-78814-75385-74964-84286-77657-74383
2894.65-83501-93719-80874-73224-73483-87245
2900.44-90459-85211-75938-79487-83879-93883
2906.22-89073-84652-81905-84802-86600-84583
2912.01-75186-82638-87910-90255-97428-104405
2917.80-92834-84813-77311-82457-85106-88160
2923.58-87992-94180-96024-106460-108161-105919
2929.37-99578-98992-87140-83167-79855-86838
2935.15-89338-92489-93049-98316-89527-92727
2940.94-91316-92472-90658-87716-85251-94517
2946.72-101960-101830-89839-87479-84570-91296
2952.51-92415-91732-82326-85771-89140-93231
2958.29-82815-71015-47240-78123-128381-123173
2964.08-104738-93256-82517-83664-86628-91272
2969.86-93763-97847-98360-103656-93855-91774
2975.65-86236-73985-74304-84214-84930-84409
2981.44-86235-88479-91934-90806-79396-78003
2987.22-75628-73995-72962-74590-70122-71896
2993.01-69444-73457-79163-85369-81954-84783
2998.79-77147-75147-70851-72587-72191-76337
3004.58-78269-85261-82072-83405-74277-72635
3010.36-78128-87132-84320-84782-77508-77658
3016.15-87218-94097-81793-73810-73036-81560
3021.93-81240-82190-82874-82160-71492-73142
3027.72-77323-82292-77633-75237-72073-85293
3033.50-87302-88646-79143-73560-79868-92675
3039.29-82327-75228-73515-79222-73576-71612
3045.08-76570-81766-78656-81655-76762-84377
3050.86-85071-87817-86222-82051-77969-83827
3056.65-72329-69443-76685-72598-69309-75668
3062.43-76807-77625-78125-74456-66892-62431
3068.22-56084-66589-63989-65231-68897-72744
3074.00-59983-56567-56980-68452-64994-64175
3079.79-65660-64880-56812-62751-63812-63474
3085.57-58007-64153-56996-50370-45933-52074
3091.36-52051-47702-49362-54945-51738-42628
3097.14-37199-42333-43176-49085-41167-39341
3102.93-33636-30456-30242-33959-35261-35154
3108.72-21359-18786-15564-23334-21219-18324
3114.50-15111-21284-12938-10306-6765-10022
3120.29-10870-13765-10783-6621 6378 5760
3126.07 2423 1447 7749 5143 7134 1898
3131.86 11842 11338 12927 21692 27403 21007
3137.64 20270 16614 24854 27297 26195 18382
3143.43 23050 21423 26728 35442 37321 29797
3149.21 30153 33349 34265 41917 53394 45053
3155.00 45999 45253 40618 34936 45765 44715
3160.78 42539 41319 50461 55263 54269 41744
3166.57 37385 38775 45372 48434 48041 52326
3172.36 66990 59964 53289 51464 55238 45119
3178.14 50252 51444 53990 47530 48006 49223
3183.93 59005 61683 64130 55047 51281 48473
3189.71 46333 46331 56200 55659 59612 57512
3195.50 52779 46923 55048 47126 44817 51810
3201.28 62289 57677 61937 59793 61105 58771
3207.07 56251 53539 59379 65950 69654 62244
3212.85 57411 51532 62549 75137 72805 54715
3218.64 54196 49827 51685 51126 62176 69328
3224.42 74972 70552 72524 71474 73862 64442
3230.21 58416 49738 54053 56939 65613 66472
3236.00 66083 56701 59390 56771 58695 58646
3241.78 58909 56284 60708 62132 70995 72700
3247.57 69837 57769 58076 58793 62579 58801
3253.35 52961 47558 55061 60755 60439 54493
3259.14 52781 52512 55458 51326 52606 54018
3264.92 63757 58093 49085 35821 41856 48165
3270.71 47334 41510 40730 42910 45831 44983
3276.49 46552 39334 37356 28827 29078 25194
3282.28 23001 28150 37567 33712 25890 30173
3288.06 33431 23947 20749 12208 19561 16355
3293.85 18394 22969 26758 27672 29945 29065
3299.64 22808 12520 7930 928 6301 13564
3305.42 19021 8239 1234-6089 7115 4606
3311.21 9874 4246-536-5003-10637-19539
3316.99-13336-18687-14154-8493-1427-2129
3322.78 2606 1685 1687-5489-3823-11805
3328.56-19119-12403-5269-16429-14170-19695
3334.35-17424-17087-12174-20955-24659-20298
3340.13-17135-20792-29432-33126-20311-20854
3345.92-24104-28751-25198-25390-18773-19442
3351.70-23897-26581-21384-25899-25201-29601
3357.49-32874-38281-40412-42614-39356-40138
3363.28-31501-35487-33835-34028-35143-40192
3369.06-32821-38364-39146-35752-36381-45651
3374.85-44170-44846-38247-45982-46698-45910
3380.63-44354-44910-47122-61501-56754-47712
3386.42-42303-47126-42576-46478-48800-57671
3392.20-61210-54815-44012-49220-52760-58856
3397.99-58694-54687-47494-58163-66926-65102
3403.77-58796-58478-49521-54150-60462-67088
3409.56-66565-63651-56007-59088-56872-56882
3415.34-55233-61286-61548-60835-56344-60541
3421.13-63267-67161-61088-60070-61550-71160
3426.92-67856-67828-60951-73971-70107-68285
3432.70-69719-73997-63798-64206-61653-68823
3438.49-70086-74405-62867-67208-75271-79747
3444.27-75730-70979-69576-70496-70226-64974
3450.06-60221-67704-69454-79345-80246-76549
3455.84-59501-60486-58733-65373-75058-84076
3461.63-72975-80927-81129-75650-79201-81258
3467.41-62779-78489-87632-89446-85305-86675
3473.20-85413-86004-77344-86947-87592-81213
3478.98-66044-72360-80139-92321-95329-98042
3484.77-96484-92202-92247-100840-100775-101581
3490.56-97138-99200-77851-67879-63947-71099
3496.34-73579-86266-88010-94572-103369-114500
3502.13-115951-116139-108476-113277-102114-98864
3507.91-103875-108701-106195-113147-118669-125788
3513.70-106725-106042-103024-101854-107240-116446
3519.48-107039-108779-112955-118350-109216-114325
3525.27-114983-115958-118188-128904-118067-123663
3531.05-118935-119682-109787-108090-110723-116622
3536.84-110460-120398-121223-129433-124766-124546
3542.62-121329-128232-125486-122619-112494-119024
3548.41-129001-138043-130210-132450-125345-122537
3554.20-115401-116159-110556-116122-111129-117597
3559.98-117494-122540-120163-122229-121579-130826
3565.77-126731-133964-127899-114691-108945-108928
3571.55-106741-113300-112954-113847-102715-99832
3577.34-100712-106845-100962-93947-92850-112912
3583.12-121142-119472-128788-146637-149525-140580
3588.91-101126-104078-106621-120362-122187-121491
3594.69-118081-117189-111673-119210-120063-127742
3600.48-121304-115772-110021-111210-112186-123021
3606.26-130514-148059-164448-138439-121528-157706
3612.05-156464-139419-133843-127080-138579-161404
3617.84-166782-174408-136704-118370-118186-136370
3623.62-124268-127121-122386-149061-196381-213192
3629.41-163734-127850-120239-131088-126442-116545
3635.19-109001-114180-115994-117742-108022-114644
3640.98-115993-117599-114320-128117-129575-161491
3646.76-174458-200070-205132-180334-149887-120180
3652.55-122154-138299-168161-196498-163335-135242
3658.33-127131-134589-132944-132245-134502-141138
3664.12-142641-144660-139363-155964-173341-208239
3669.90-239769-179432-149031-173915-229996-276327
3675.69-226912-171174-161707-160280-147425-142133
3681.48-130921-129764-142216-146973-146136-178420
3687.26-259398-233794-183165-198750-165022-150436
3693.05-152130-156125-152704-154170-146223-145705
3698.83-149876-166599-180542-166701-155837-163855
3704.62-156486-157894-158889-174570-188614-173032
3710.40-206755-241799-192761-181016-173558-160937
3716.19-149777-167761-171188-164732-161197-181600
3721.97-182359-185468-178130-178159-179587-167111
3727.76-158867-161909-168898-231701-236080-191440
3733.54-208380-218830-232883-212977-174401-166482
3739.33-170012-180488-174108-217062-351498-346330
3745.12-212465-179982-193125-278438-272339-221449
3750.90-284312-268866-189499-180550-183885-196976
3756.69-188213-190648-197990-186365-159846-164052
3762.47-157702-164952-183072-194049-174571-171157
3768.26-190595-206467-173405-161990-158337-172060
3774.04-165761-174531-169881-174149-185793-188630
3779.83-163549-163601-163207-170990-169820-167356
3785.61-166183-174923-156276-150676-149808-155272
3791.40-156555-166062-161449-170799-184634-195524
3797.18-183893-186599-205677-283114-261509-189366
3802.97-175335-171133-189188-242659-210958-161474
3808.76-153662-159958-166333-172679-172388-186795
3814.54-264920-287500-203682-177431-174418-222992
3820.33-251171-223806-185815-175412-157972-170987
3826.11-178154-182842-171741-171840-192279-202576
3831.90-175728-186072-210019-214948-223340-295569
3837.68-262160-207289-202400-193986-174161-195838
3843.47-196243-188242-175226-173874-168432-175771
3849.25-186763-247590-295763-308729-374068-297568
3855.04-206025-206036-188407-183170-181021-201650
3860.82-215186-193814-184575-224265-227395-201738
3866.61-181175-206288-262770-266261-209686-192541
3872.40-194701-216150-200001-192649-186372-196682
3878.18-211049-237780-229639-204416-193274-203930
3883.97-237050-267144-226720-211200-207152-208267
3889.75-225661-237647-208400-203607-199711-206941
3895.54-201163-207633-222509-244416-220570-237484
3901.32-233657-231528-255382-242862-213484-200726
3907.11-200301-211785-210275-209463-202335-205435
3912.89-203327-200667-203114-228562-228521-216990
3918.68-215311-216769-204040-207640-214552-221271
3924.46-204639-198940-200910-204566-193061-200290
3930.25-203558-214487-203087-198864-212123-225583
3936.04-215801-207973-199050-206867-210786-214426
3941.82-208542-211569-203164-198601-206465-216292
3947.61-205450-192066-178176-178908-183605-199975
3953.39-195278-202277-201701-209446-204089-196739
3959.18-191837-198694-198649-205039-201397-204239
3964.96-199045-209307-207302-209802-202404-208587
3970.75-206916-209220-203041-202391
##END=
