##TITLE=Carbon Tetrachloride
##JCAMP-DX=4.24
##DATA TYPE=INFRARED SPECTRUM
##CLASS=IUPAC A
##ORIGIN=NIST, Analytical Chemistry Division, 301-975-3108
##OWNER=COPYRIGHT (C) 2000 by the U.S. Secretary of Commerce
##DATE=00/02/01
##$SPECTRA VERSION=1.10
##$UNCERTAINTY IN Y=2.1 % relative (B=1.1E-04,C=2.7E-09,D=1.4E-13)
##CAS NAME=Carbon tetrachloride
##CAS REGISTRY NO=56-23-5
##MOLFORM=C Cl4
##MP=-22.99 C
##BP=76.54 C
##$NIST SOURCE=QUANT-IR
##SPECTROMETER/DATA SYSTEM=IFS66V (Bruker)
##INSTRUMENT PARAMETERS=KBr Beam Splitter; MCT Detector; Multipass cell
##STATE=gas
##SAMPLE DESCRIPTION=Carbon Tetrachloride Primary Gas Standard
##PRESSURE=101.3 Pa
##TEMPERATURE=23 C
##SAMPLING PROCEDURE=1 L/min Flow
##RESOLUTION=0.9640
##DATA PROCESSING=Boxcar Apodization
##XUNITS=cm-1
##YUNITS=(micromol/mol)-1m-1 (base 10)
##XFACTOR=1.0
##YFACTOR=7.2759E-12
##DELTAX=0.4820
##FIRSTX=575.17
##LASTX=3974.605
##FIRSTY=-1.15E-06
##MAXX=3974.12
##MINX=575.17
##MAXY=.0057268
##MINY=-4.84E-06
##NPOINTS=7052
##XYDATA=(X++(Y..Y))
575.17-158362-122268 72942 358738 50653-48710
577.58 52251 98969-2926 130190-112126 280320
580.47 54934-11879 384708 291506-136893 284734
583.37-180188 250567 18384-131205-130526 63433
586.26-50397 42639-15964 45558-87070 340897
589.15-150016 174284-80190 21030-227103 188374
592.04-143106-2263-68534 126303-5221 97042
594.94-195399 15043-49430 115715-184322 242443
597.83-284333 175952-25718 102624-143673 154564
600.72-94161 130773-200060 132730-149574 172870
603.62-123274 211284-72942 100698 25663 28783
606.51-94462 133162-79069 184926-189152 58969
609.40-156997 85632-68753 122411-62102 221261
612.29-208761 131657-134808 191850-165736 176229
615.19-197826 92583-70525 143943-177408 125725
618.08 40018 209963-86862 240383-21103 153309
620.97-26128 333499 70024 252189-123725 200024
623.86-16001 274837-1574 320678-43202 373728
626.76 63793 330796-24795 265403-4550 253221
629.65 16285 246310 121699 323625 8229 276736
632.54-44101 264165-139821 252488-115278 195125
635.44-89435 184397-91641 179953-82282 105439
638.33-145694 188318-150601 148355-175576 201865
641.22-145229 221203-114705 239911-178483 205118
644.11-168208 130905-200546 178570-143088 166214
647.01-203903 136562-162821 188600-162355 128779
649.90-160472 238679-171428 245002-156727 193853
652.79-175759 144169-174197 137026-152301 177061
655.68-185659 227586-184976 259528-111856 205771
658.58-201927 144894-115796 194466-103418 118895
661.47-200724 178246-200220 195658-187161 156718
664.36-150956 184628-170660 166986-150251 143562
667.26-223006 163249-113720 183153-297262 211229
670.15-187724 211507-182982 227813-251957 153141
673.04-205503 240928-143758 244576-154321 245038
675.93-230406 199654-262850 169384-164943 221577
678.83-154121 218454-300355 258985-186115 240788
681.72-187677 188536-195249 263395-226519 279758
684.61-240795 181174-264571 182942-208684 220292
687.50-226077 266227-209010 341201-230974 237366
690.40-207912 249658-253635 276060-192929 258381
693.29-219317 263218-236982 226660-258372 283937
696.18-142630 272242-162515 273689-259216 242184
699.08-234673 311561-245511 331535-193832 312747
701.97-233158 286486-279139 286081-206238 264205
704.86-175943 307031-217537 300145-268652 316977
707.75-226976 308903-191628 319304-252320 354178
710.65-294537 326868-218999 349517-269055 420266
713.54-229959 320738-258521 302870-226508 362525
716.43-301811 355516-230073 382427-246959 403260
719.32-279630 384583-219403 374103-246335 494750
722.22-171919 480742-142786 491162-182089 543105
725.11-145517 575499-62974 653947-24527 676083
728.00-31874 761564 48817 790751 64999 895979
730.90 234477 991403 300767 1094851 424472 1262060
733.79 562728 1401416 756649 1651601 978520 1887870
736.68 1253160 2239579 1641789 2613170 2040361 3059718
739.57 2482128 3648697 3055360 4249175 3806838 5156714
742.47 4703299 6146219 5721787 7260032 6776976 8324501
745.36 7919734 9579391 9365877 11247729 11311086 13546047
748.25 13659299 15797508 15624843 17536804 17552160 19957693
751.14 20634982 23396126 23724056 26082978 26263920 29273383
754.04 30214994 34344268 35540035 38234014 38014435 40434453
756.93 40933915 44974044 46688105 51865272 53591110 53011430
759.82 52572555 57413569 57964669 62680266 59711731 59924454
762.72 61043122 63142803 71735879 83735842 77786874 73289730
765.61 68771427 70144627 68711482 81492440 78199055 95301416
768.50 102370045 114141016 101035313 76909137 67249062 67754844
771.39 76697002 93991957 136782238 171207367 96448966 85318173
774.29 88990211 92125927 93515269 97595349 98855558 103213896
777.18 103559460 107469951 107207669 109940758 107648826 109631532
780.07 105916138 106902700 101139407 100884447 93718801 92191494
782.96 83634359 82301812 72794895 73510487 67384897 73308616
785.86 73981156 87783763 93874556 114904154 129078693 160041895
788.75 187303070 230124232 270367624 329585814 386598834 453663672
791.64 514326120 601882052 663014694 729941166 757515847 759067810
794.54 776416426 787089780 754672464 729956743 667276046 664247926
797.43 554693577 531825916 391201459 316828899 303272359 272497730
800.32 243656185 211096721 179450691 133243920 129831181 102455582
803.21 99425267 74527729 71592318 55881155 54467364 40989559
806.11 40596296 30077133 30183013 21592979 22587249 15501865
809.00 17101656 11210089 13169061 8223621 10452085 6090480
811.89 8394788 4580137 6949291 3518583 5864599 2744594
814.78 5029161 2051650 4326403 1572728 3764460 1240812
817.68 3324703 920534 2862560 526559 2420990 352743
820.57 2187865 162380 2013270 108096 1768439-15799
823.46 1648290-125498 1466573-265833 1370445-255181
826.36 1234053-315055 1119033-414961 1070608-391844
829.25 1014389-450611 936936-481372 894737-505169
832.14 915471-538034 791501-510284 767418-538713
835.03 726590-465599 734228-448598 707230-528913
837.93 644416-495555 635757-508967 604381-422873
840.82 606392-483119 566022-475238 561228-436501
843.71 521655-367872 528238-389815 556881-416527
846.60 545564-412653 502523-376646 522292-378736
849.50 515222-369926 543419-411970 435154-401999
852.39 512463-364125 519421-346695 517564-374732
855.28 436479-380659 435742-329353 462370-293681
858.18 465715-354054 427988-345480 406694-302591
861.07 422576-290229 418284-308033 412546-292403
863.96 374187-292983 382393-306581 407823-269365
866.85 398957-287797 422532-260154 398219-292944
869.75 442360-223887 417773-224816 379962-224898
872.64 369489-212236 418496-229091 390434-185841
875.53 402684-211302 390508-203405 359252-203536
878.42 396702-193409 405910-162345 362125-168783
881.32 372487-192212 408232-173011 351683-142910
884.21 369964-180195 350743-158499 367983-193315
887.10 346509-180972 344566-155548 332087-196562
889.99 341135-186905 283344-177488 336375-177061
892.89 340240-162437 344127-184669 304873-201244
895.78 318130-188244 283985-152015 301640-168123
898.67 300995-195226 287813-202624 274592-167273
901.57 311346-166885 267622-173022 272900-170806
904.46 258900-188069 268157-164045 238231-160035
907.35 244629-168842 248435-214529 244264-186254
910.24 268979-160621 239594-178379 212753-193048
913.14 245150-176870 211467-159804 234238-186206
916.03 228463-165169 206613-182446 198059-179019
918.92 170294-158555 188836-203608 193821-205101
921.81 180450-163913 235726-160970 180143-155875
924.71 191079-162766 157147-156247 177566-170679
927.60 206138-159922 208670-154677 160877-186788
930.49 188028-175170 196137-136741 196189-153765
933.39 195940-143029 169703-165594 168008-169166
936.28 192712-169710 190885-154541 176147-165971
939.17 179140-162697 189856-142684 183206-144550
942.06 181597-140170 164137-150971 181066-160546
944.96 198225-146514 212844-119987 176015-128737
947.85 183566-137424 197718-118741 183504-122726
950.74 185743-139613 176935-155252 151357-137606
953.63 178857-109348 182271-87822 193761-122461
956.53 201616-111736 199194-87296 200896-82281
959.42 200664-107001 202332-91715 202491-58330
962.31 231358-50671 253633-25412 268486-29983
965.21 264870-3664 277406-8618 291879 38289
968.10 335248 66858 338257 30196 327715 67927
970.99 365827 92874 372767 113828 411471 139353
973.88 423771 151161 440075 157844 428284 179351
976.78 458427 180448 480855 170308 461206 181367
979.67 449046 207602 481108 222624 471109 203369
982.56 441265 215789 472652 215423 488181 245302
985.45 486842 221719 451589 187996 366744 165779
988.35 426667 216089 504889 278855 556189 222821
991.24 405535 206890 430076 224694 470768 294041
994.13 524002 299786 564844 323618 571887 358507
997.03 599840 378418 623061 404997 662715 457199
999.92 695262 454465 693501 477306 720010 502878
1002.81 766332 580871 779125 582360 794947 595862
1005.70 811434 606382 823315 633248 878247 639844
1008.60 833193 611488 836194 619352 835147 627199
1011.49 835914 602050 826867 553084 783033 591085
1014.38 812702 567782 743451 529770 749709 544143
1017.27 751669 510328 708126 463893 663162 449556
1020.17 613892 391996 586429 338279 494760 265559
1023.06 473591 222512 430358 232299 408860 174551
1025.95 338321 110043 308465 73642 255175 77812
1028.85 255396 56378 228414 6513 189124-40568
1031.74 147184-62263 140915-45401 139170-62082
1034.63 103514-81209 104765-110823 88482-103601
1037.52 90254-107030 98795-114807 69861-140520
1040.42 95022-88392 98162-105761 60443-99427
1043.31 105373-110430 75591-107514 88722-120557
1046.20 74763-91252 94662-82334 84888-104021
1049.09 70664-110046 73199-95103 90555-67038
1051.99 113971-65831 107263-113637 77347-107709
1054.88 101440-71226 131416-96963 100087-84680
1057.77 90405-43774 109902-42148 92769-54741
1060.67 148642-45930 102450-6220 130790-42041
1063.56 148369-24638 149314-13911 147209-10698
1066.45 155766-23965 150722-5460 201181-9882
1069.34 159706-31879 148922-24999 118714-3256
1072.24 144688-25460 199270 19117 185370-22011
1075.13 144839-47692 135124-5162 140669-13258
1078.02 182932-16114 132107-43628 132408-54514
1080.91 144007-50559 110432-55789 118397-42729
1083.81 85888-90279 100807-55787 110022-51105
1086.70 80532-43426 62908-75251 69570-74900
1089.59 79667-53342 93609-53202 118891-57736
1092.49 71629-72104 66782-97559 86754-43237
1095.38 71755-47125 104097-52854 101372-50948
1098.27 124797-34555 108139-38619 112473-34236
1101.16 110853-43405 97712-50555 111426-35483
1104.06 144873-20796 106393-38809 116518-35495
1106.95 117981-6247 137194-38316 136772-34619
1109.84 125144-20199 155381-7919 133620 19319
1112.73 136159-9123 158295-2962 147180-9002
1115.63 143827 16177 192028 5579 153031-548
1118.52 110456-17916 109000-35009 132507-9528
1121.41 109939-35660 99544-39545 83259-67307
1124.31 89286-13406 86646-32666 123403-50137
1127.20 78341-85262 35188-87533 50769-72879
1130.09 69981-70061 50203-127854 27361-129842
1132.98 61442-70314 47136-107121 29230-106500
1135.88 25999-109854-13031-111421 11426-108718
1138.77 43658-96404 10694-109903 8176-137925
1141.66 33370-115466 32266-104660 68490-97472
1144.55 14372-115241 1743-114847 30570-101275
1147.45 31630-100147 46529-109702 9801-109389
1150.34 18904-89664 34786-64460 43233-109917
1153.23 35642-92445 32142-104356 41277-96096
1156.13 56251-71694 53537-116517 38557-88084
1159.02 29954-103256 35607-77164 67016-74714
1161.91 40629-88873 28680-98516 50470-100750
1164.80 45722-58536 76228-66908 18825-75329
1167.70 32420-57878 35065-64128 49504-46066
1170.59 61559-79457 45087-80412 68031-51588
1173.48 62696-51928 64967-43773 58279-73528
1176.37 47307-43124 52503-45722 84967-17335
1179.27 59731-45650 52388-67014 53171-56533
1182.16 65699-54137 99390-32002 64015-62939
1185.05 56448-64963 82320-11384 108389-20384
1187.95 77407-21225 57775-64272 95187-21915
1190.84 104951-11354 96241 10427 70678-10220
1193.73 92706-25635 108006-9890 136547-2612
1196.62 124972 30858 121907-13710 137802 407
1199.52 125804 29306 169761 11143 153908 24809
1202.41 133983 45001 165595 51872 177882 71399
1205.30 191302 73996 174541 60437 203135 95234
1208.19 238055 125759 261687 124871 226286 111979
1211.09 225573 114977 245132 134143 270525 175511
1213.98 281010 170679 293799 184542 298182 212205
1216.87 345894 243192 355241 235636 314245 213377
1219.77 302326 171943 302249 237115 362390 287486
1222.66 388536 273239 400658 304450 412211 335073
1225.55 448589 260966 328919 221582 320618 180856
1228.44 264016 173983 305592 248304 408606 354860
1231.34 533826 365547 326647 187515 275484 179830
1234.23 308138 207284 324011 191416 322086 195121
1237.12 311162 221074 339084 267466 368400 264666
1240.01 393148 273888 370500 250720 338233 235032
1242.91 358767 294254 409448 322726 442804 348090
1245.80 493828 409668 546482 452036 594534 513126
1248.69 641794 554313 647383 568066 739120 655491
1251.59 816585 718363 884202 782567 936110 846263
1254.48 921165 861667 887069 868880 1006063 921515
1257.37 999329 881974 953078 808803 875858 733075
1260.26 732842 651526 818490 692435 800563 668889
1263.16 727265 582722 626912 336276 282310 233859
1266.05 348948 267481 355770 231438 301317 206293
1268.94 279504 184552 237395 138026 219081 106164
1271.83 181351 112023 187600 129494 208668 96585
1274.73 225629 106169 206228 131775 186765 122787
1277.62 176598 145671 194140 107585 174990 81431
1280.51 146810 53223 172388 73114 168922 80197
1283.41 172553 101510 146345 41909 114905 40679
1286.30 121905 2883 125298 47815 120978 9937
1289.19 86156-19084 60864-15901 64748-9900
1292.08 91780-8307 62030-17179 56047-28560
1294.98 62641-48945 62351-47500 51741-49963
1297.87 39735-61040 49248-67312 59048-26296
1300.76 49855-37267 48248-60542 26597-61500
1303.65 25826-43876 29855-53428 36769-58146
1306.55-3333-93315 19544-70596 8568-70795
1309.44 30205-64050 36454-69066 4358-72610
1312.33 15864-49330 9560-66042 14188-77247
1315.23 20044-90902 3522-93285-3652-86512
1318.12 1996-75115 12068-77119 7025-96924
1321.01 12266-65051 13307-64505 22119-76192
1323.90 25240-77067 15126-89021-2920-57787
1326.80 33212-68645 21735-74935 7085-106103
1329.69-2956-81442 24716-78454 46459-47511
1332.58 3574-65820 23062-102570 2486-68694
1335.47 41957-56453 3461-53425 22410-93963
1338.37-16800-84281 15520-89239 31972-61003
1341.26 30317-65635 18868-89673 2792-81133
1344.15 39773-59964 45390-42442 11283-82012
1347.05-9075-88731-5201-70673 27001-70667
1349.94 15527-73662-13296-120759-26090-48764
1352.83 9816-46827 58795 9247 55627 31288
1355.72 74603-75 55145-34572 92070-6482
1358.62 28556-46903-3089-88196-21599-40205
1361.51 14609-61625 7960-80675 21747-36023
1364.40 45318-47085 55912-60393 47815-25093
1367.29 65067-15412 55302-45186 19292-53174
1370.19 56588-26179 49472-29561 55297-60200
1373.08 16192-70712 59158-58424 57536 8735
1375.97 58899-22443 51636-41848 77534-41979
1378.87 9886-14122 54406 5784 78838-31820
1381.76 34184-30888 31966-31431 60939-12474
1384.65 45918-34409 45537-62823 26763-153402
1387.54 42308-49695 41623-27888 45332-47014
1390.44 55094-40023 40970-60990 55194-56402
1393.33 56599-140705-8895-20096-15216-66898
1396.22 30710-43130 23320-43594 48153-143459
1399.11-16821-47956 17076-59731 39126-34735
1402.01 41059-49529 22904-77193 7000-111611
1404.90-28764-36155 17587-45215 21376-36411
1407.79-4761-55214-9862-62632 23628-58923
1410.69 23620-17190 20764-62207 3426-68970
1413.58 2937-80355 27203-50854 11264-59190
1416.47 5132-112069-6473-77263-12080-298908
1419.36-36070-23618 4742-56384 17865-73189
1422.26 4233-61956 1108-62353 22032-65844
1425.15 1556-65001 5431-62649-3673-60341
1428.04 6679-47832 1004-108275 4389-65725
1430.93 13025-63233 2248-47619 21724-66233
1433.83-5920-59664-26413-54426-43156-301025
1436.72-36571-30662 8603-55248 5894-71225
1439.61-2514-58186 7170-40633 23310-45409
1442.51 5824-38030-739-67981-13926-55264
1445.40 18269-40762-717-38724-63880-108705
1448.29-12976-68899 7819-64512 10231-58075
1451.18 10921-89781-4802-85566-3145-68016
1454.08 11598-70696-23383-59601-191208-399755
1456.97-5388-150176-77324-65162-28797-43938
1459.86 19115-57905-6679-75853-7357-66772
1462.75 23918-53528 27671-158902-81939-36445
1465.65-2332-73942 3817-42773 8133-29847
1468.54 21993-61572-793-56616-16592-89829
1471.43-141409-138336 39257-221150-65341-53730
1474.33-10265-60820-18880-130833 11235-38050
1477.22 12337-43872-8273-47092 8026-52322
1480.11 9822-67352 9733-47863 12629-53101
1483.00 6241-63542 8090-43829 45378-39343
1485.90 21096-59153-87710-77572 8994-76540
1488.79 15718-114443 18407-117240-4609-34633
1491.68 1255-22398 8969-13540 21849-8791
1494.57-6320 7165-176091-204184 58122-66533
1497.47 57543-55218-52342-11921 58958-22240
1500.36 31901-18884 31485 14750 70324 12273
1503.25 73153-1823 68757-94178-278845 8117
1506.15-68109-292064 59483 16228 29573 18666
1509.04 58669-4197 88033 33977 134153 23524
1511.93 42199 97583 99230 64635 108889 41382
1514.82 120791 113704 127151 51987 85365 25470
1517.72 149216 82683 149223 103908 47851 121940
1520.61-77775-64406 240131-14913 173106 130262
1523.50 209866 141023 216328 40314 201367 157148
1526.39 205591 90905 233621 140774 211752 204473
1529.29 271488 219865 298854 224268 270886 223596
1532.18 268669 174408 211317 136552 341268 227178
1535.07 334973 251901 373926 309684 446570 341014
1537.97 474144 11761 329190 307525 181411 426756
1540.86 519660 333914 351490 574960 545552 538882
1543.75 596152 542716 511109 625042 703972 683812
1546.64 770481 746549 798482 759908 837062 780135
1549.54 831199 808671 932533 897631 986562 927176
1552.43 1006832 951911 1012154 783899 1103003 1051345
1555.32 1174322 1073604 1204894 959753 1063985 915102
1558.21 885463 1218869 1106949 949809 1164422 1302183
1561.11 1320596 1274885 1267588 1307098 1311111 1323530
1564.00 1344975 1341619 1421353 1414385 1438667 1425309
1566.89 1382211 1341567 1340576 1243091 1283429 1157963
1569.79 1327153 1338980 1363575 1309800 1331865 1253584
1572.68 1237307 1200716 1196459 1168208 1175562 1197421
1575.57 843103 1038075 1306093 1191543 1271015 1188287
1578.46 1219682 1148580 1183325 1127671 1178926 1129648
1581.36 1168941 1109315 1150040 1066301 1135263 1097050
1584.25 1097719 1126742 1140370 1061022 1089537 1057902
1587.14 1092765 1024304 1103354 1023933 1048567 1045778
1590.03 1077099 1014712 1113360 1092105 1039006 975447
1592.93 1004409 982448 1032366 959910 1048586 1004219
1595.82 1012885 917611 908374 922046 975661 886297
1598.71 937750 882188 902385 841434 839863 794040
1601.61 819175 767264 770073 713225 741587 687072
1604.50 685276 613587 628562 571046 568714 507551
1607.39 547517 482525 509394 413280 437847 378818
1610.28 391371 327865 372905 310780 331022 279154
1613.18 281506 224314 229567 212451 194177 172934
1616.07-142892-52604 198983 79625 154527 60594
1618.96 118753 56896 100333 58455 85470 44308
1621.85 71672 2348-32632-106653 57001-29556
1624.75 64625-28699 55547-41617 27240-109546
1627.64-20587-44555 6974-40678 5177-41831
1630.53 18466-51793-6191-57666 6004-62300
1633.43 16479-81418-57298-255414-266051-41897
1636.32-28845-76083-50848-36002-9299-37057
1639.21 5017-42361-10582-56848-7443-45675
1642.10 5077-23511-1416-35776-9444-49403
1645.00-53987-319095-52180-41038-91636-50809
1647.89-91259-19079-32450-16227-37371-27848
1650.78-63490 553-377187-267665-436364-247840
1653.67-32120-241156 27754-97009 25780-82022
1656.57 25799-80734-7474-92696 1791-75343
1659.46 3896-71502 761-76800-10720-103168
1662.35-145598-82250-3669-64997-2885-70075
1665.25-3756-75911-624-87905-19440-102404
1668.14-6281-191516-147985-50254-32234-74944
1671.03-96886-53698-26490-57359-10386-66730
1673.92-15714-165416-232538-75731-32774-64804
1676.82-28737-54197-23964-65507-28958-93831
1679.71-42761-76091-6830-73171-14782-83320
1682.60-101670-176553-51203-345596-453391-9216
1685.49-78785-36448-55296-36034-59415-78419
1688.39-38305-44775-84295-69648-35701-43837
1691.28-33468-48235-38413-54226-50113-42596
1694.17-65921-41111-355511-443409 15053-111750
1697.07-43092-65955-41014-82164-128278-369718
1699.96-238027-261076-32056-92955-10016-86699
1702.85-28304-72209-97200-102252-8017-75677
1705.74-102242-99009-13953-71742-9116-70179
1708.64-22978-65245-45877-88763-24708-74327
1711.53-18876-70747-14238-75829-65191-65843
1714.42-95606-173599 24912-118217 9319-426496
1717.31-110551-85105-162143-66178-34372-66268
1720.21-28764-56752-30862-61641-20493-68110
1723.10-39453-48304-26608-68013-28112-65624
1725.99-7926-60804-26971-48048-8492-71557
1728.89-14931-98523-61848-61247-49362-56572
1731.78-63792-39044-264237-173757-105609-353677
1734.67-10592-92604-1521-83384-5087-88259
1737.56-22235-85416-1337-141878-158526-59194
1740.46-17888-57587-29859-68378-36971-99148
1743.35-14571-61546-27049-60129-24386-70743
1746.24-23116-95538-23535-82975-67193-85541
1749.13-26955-67524-21792-186370-160456-58542
1752.03-38319-57649-24546-48724-10048-49627
1754.92-27427-56979-29440-134397-15315-69736
1757.81-10088-60912-22696-52490-21493-63729
1760.71-19871-159132-81375-26306-25208-43099
1763.60-5339-48403-16396-36147 3474-40231
1766.49-6388-21624-83210-107865 18462-44424
1769.38 24537-39318 4507-122613 24258-83945
1772.28-241079-23612 14524-25435 23556-15648
1775.17-6238-4783 28529-7389 31004-16543
1778.06 30082-1713 35515-5695 6569-36973
1780.95 38418-5953 44845-18605 47869-5784
1783.85 54655-58123 7296-9740 22383-2706
1786.74 13398-9821 10342-32011 29183-23168
1789.63 35709-55284-29165-35590 29193-172021
1792.53-65324 1219 35371 18189 39569-4603
1795.42 25396 15133 40762-6039 53983 8428
1798.31 47290-24084-26695 14949 39647-15011
1801.20 35840-15222 12957-838 23746 5018
1804.10 33861 5590 24172-1251 24064-3182
1806.99 4937-20389 24777-1491 1143-16122
1809.88-2167-44129 3672-41365-12027-34289
1812.77-6511-37468-7422-38649-8960-45871
1815.67-17296-42112-24395-53440-13066-48961
1818.56-17164-67084-15898-45521-9880-56476
1821.45-41884-47540-19251-53942-21777-41292
1824.35-60143-125959-16250-58827-17543-61446
1827.24-19887-45571-31258-91125-50580-146437
1830.13-38806-56820-16999-52453-28884-54457
1833.02-19782-56656-34251-65021-22387-58154
1835.92-25996-61600-41975-45864-18848-56043
1838.81-25136-51883-38456-68557-37790-47783
1841.70-42608-45251-40980-63762-190218-117047
1844.59-8005-54072-10972-59322-13644-79177
1847.49-48591-58820-9526-55367-17957-50113
1850.38-24088-43181-19789-71151-15456-50002
1853.27-4653-62877-23973-54149-14734-47102
1856.17-28310-38481-10979-28648-20259-48584
1859.06-29841-52423-10012-55758-30554-58989
1861.95-27985-32554-16053-38380-3376-61251
1864.84-28872-46337-34482-43647-19298-70181
1867.74-39749-39527-89024-95167-13367-61411
1870.63-12123-50049-19972-56415-21928-68250
1873.52-33365-62333-34907-41072-16106-52302
1876.41-17305-49191-23492-58654-27142-43982
1879.31-11461-48908-26451-40338-41775-64256
1882.20-53155-58608-39073-50076-35259-53832
1885.09-37021-84349-28669-65710-18834-62897
1887.99-29549-61755-69132-83820-24245-67274
1890.88-35546-65461-30934-61303-25851-48316
1893.77-29910-74123-50685-75151-38622-69057
1896.66-20231-69932-33778-74239-35174-72546
1899.56-18063-74982-36355-73025-51019-71854
1902.45-27131-50801-47426-72500-38530-57087
1905.34-26325-53176-33335-53281-28449-68361
1908.23-41893-59254-29711-79093-21407-51852
1911.13-19125-30683-21695-56208-23381-49076
1914.02-17881-48833-11781-59098-10022-74066
1916.91-24939-109865-49756-46583-35223-53072
1919.81-22393-62013-45915-61148-65085-98687
1922.70-69196-77475-61186-65129-55707-76954
1925.59-40482-60382-47398-64969-33480-56798
1928.48-34660-62458-24330-69674-44226-61511
1931.38-38041-75646-38234-39133-40941-70667
1934.27-44420-78335-36825-71376-31252-75149
1937.16-33197-58741-29522-53924-48505-71609
1940.05-46295-60507-45220-58570-66290-81096
1942.95-47031-83765-49510-62905-42659-69466
1945.84-30825-50949-29112-56313-41766-77786
1948.73-33914-62991-29000-56040-22941-56884
1951.63-43023-68283-34990-81699-33298-58910
1954.52-9035-55640-30159-72886-30903-72232
1957.41-38969-51310-27347-57182-24903-53070
1960.30-27000-63254-36407-48865-23315-60677
1963.20-38927-55823-39293-50790-35223-66543
1966.09-43061-50689-60232-42214-17607-49473
1968.98-19251-53023-31642-53867-35375-51125
1971.87-41084-46607-46607-73590-100607-86079
1974.77 26141-55682-1102-55940-16630-51955
1977.66-17994-66618-25101-56085-19306-43021
1980.55-19884-43703-33851-35646-17420-72764
1983.45-26948-57856-28320-57687-31338-44144
1986.34-20372-44454-19383-40350-21169-64550
1989.23-25253-39557-33949-37328-49094-52670
1992.12-13727-58639-4698-38631-15897-53449
1995.02-25941-54051-33222-50027-11239-39550
1997.91-11577-34715-14085-53604-19419-43762
2000.80-13846-51099-17903-37399-12370-21515
2003.69-22320-42987-22145-62151-23961-51539
2006.59-25415-56444-9777-44291-20020-48906
2009.48-27906-35976-19433-27060-16108-34125
2012.37-29780-52859-22417-51437-17784-31979
2015.27-20429-33079-14670-44720-10683-57306
2018.16-33212-56897-19396-45016-20081-40914
2021.05-16203-49058-29583-47169-24461-49707
2023.94-3518-43841-22723-53490-7998-51720
2026.84-29340-59432-18956-44874-15200-48803
2029.73-28717-51602-36443-59641-28605-46699
2032.62-21332-61444-19847-48388-30935-53506
2035.51-29887-55775-26783-37259-20481-50401
2038.41-25123-43987-33059-44617-43173-58804
2041.30-16691-58666-31987-35463-16391-48958
2044.19-34638-65155-29425-46154-29205-49115
2047.09-35301-50237-46539-57697-43308-52557
2049.98-40007-36409-20085-45877-18220-56364
2052.87-28270-64416-22580-62872-31902-53769
2055.76-24498-49952-36308-57941-36889-71896
2058.66-20655-51817-15289-53850-29668-71429
2061.55-38335-72330-32033-55108-28470-52985
2064.44-46316-45575-38084-58424-32943-68349
2067.33-40389-53702-21647-52108-41844-54119
2070.23-47295-57089-30956-68107-37974-39208
2073.12-39076-64666-38044-65464-30842-63620
2076.01-27413-53538-31695-34261-50410-53058
2078.91-49362-50633-40207-62904-44597-43355
2081.80-3412-55565-33536-52661-54579-65564
2084.69-39641-52670-2697-37317-56190-55997
2087.58-44143-56132-51105-47817-51694-23147
2090.48-26540-51875-39765-69425-36051-74805
2093.37-32079-52729 16616-38908-32638-68379
2096.26-47016-73873-30894-55148-19046 19612
2099.15-30427-49138-37253-45093-55919-53960
2102.05-61079-19868 14852-69530-20607-64797
2104.94-37056-63160-43642-59323 30187-25846
2107.83-42236-48111-35550-66375-23971-67618
2110.73-3780 25371-38648-30548-42976-40988
2113.62-38465-48386-49091 33094-18455-56144
2116.51-32578-50429-31114-33005-51260 6069
2119.40 24379-55460-33405-47231-19830-38698
2122.30-32496-33078 70932-75441-30487-67869
2125.19-39579-59880-26019-54313 51341-39471
2128.08-28790-49089-26098-60761-22694-60657
2130.97 5844-39067-40145-49353-36911-50462
2133.87-28932-48552-4541-14435-25183-47008
2136.76-17847-46190-24625-40704-12402-26371
2139.65-37672-62915-37431-68929-30103-48599
2142.55-35791-51534-36807-41659-40632-47272
2145.44-30244-39352-4869-37537-39005-54199
2148.33-47209-53260-24382-48754 378-30617
2151.22-45446-46627-37334-36119-46299-42206
2154.12 16592-39570-22767-57751-29966-38387
2157.01-36658-3819 37687-54815-17963-60363
2159.90-34271-43567-40663 15120 9396-64603
2162.79-17763-60255-15461-71849 3360 48194
2165.69-35651-31484-31666-40276-24970-66283
2168.58 56636-2946-40701-33715-46978-41995
2171.47-36783 8114 54930-47708-29672-45869
2174.37-8991-46143-1401 40859-32603-32842
2177.26-39837-14357-22117-25456 49396 2554
2180.15-29513-33597-20335-30955-2984 29371
2183.04 48877-40195 2389 6569-13150-4763
2185.94 46822 30577-14683-8846 1650-36673
2188.83 24152 7381 67920-40884 43129-841
2191.72 24889 28787 19069 106589-36526 103739
2194.61-52592 120986-29525 145662-2982 92398
2197.51 9166 50449 34517 49994 127440 28962
2200.40 117481 19032 132316 3395 155959 26318
2203.29 150406 7952 147261-214 158887 26365
2206.19 159203 3081 164575 34923 154278 47678
2209.08 172754 20380 146123 45473 158307 44001
2211.97 153155 50221 125474 53540 126310 61257
2214.86 124651 68828 102725 53065 100206 46981
2217.76 75955 41901 89818 20443 67460 11783
2220.65 49221 2709 35760-22762 10181-52496
2223.54 2557-26964 4496 854 44180 22781
2226.43 62653 34860 79052 30371 74063 65172
2229.33 116109 92112 127609 85135 121310 118008
2232.22 133022 125620 154071 127088 161640 129525
2235.11 166122 132027 155990 127755 148136 122084
2238.01 170931 129081 156662 137252 151812 112683
2240.90 139206 95409 127966 99386 109636 90523
2243.79 102422 66986 86697 47654 59627 36174
2246.68 51294 48531 46745 21251 22271-3822
2249.58 21243-10403 29382 766 10539-8628
2252.47-4772-39513-2924-39543-16641-49388
2255.36-24522-51821-11637-42096-26120-53084
2258.25-38713-41879-38950-70426-30188-41945
2261.15-34250-62719-39000-53578-12167-57145
2264.04-25371-68373-35600-43472-28373-69731
2266.93-44232-64617-27189-61393-32469-62545
2269.83-44029-50227-22468-54320-27669-58536
2272.72-47641-54723-29276-66994-30856-43486
2275.61-40176-59424-36460-63405-24539-58697
2278.50-37003-58908-33408-57371-31442-62292
2281.40-30903-50169-44255-54351-22530-56234
2284.29-27640-47845-36465-53262-29138-52344
2287.18-28484-46554-24281-67678-27588-48721
2290.07-40697-60200-16325-33498-19698-39837
2292.97-35174-55899-48098-44291-26504-42133
2295.86-13731-43954-26246-45093-15152-36482
2298.75-19754-40552-20957-50728-33161-37645
2301.65-27443-30380-23414-32672-27267-48313
2304.54-27575-47066-16588-45339-13564-37237
2307.43-17248-18853-20870-35896-8227-21393
2310.32 8299-18991-10761-34103-13467-17442
2313.22-1168-7362-263-42065 17770-29483
2316.11-3560-37429 11900 1292 21945-11456
2319.00 11682-7714 4147-19273 12609-8105
2321.89 24396-21444-9868-9686 18228-30891
2324.79-10654-12797 966-12948 38052 4301
2327.68 23378-12666 18322 17267 20199-10052
2330.57 15355-4406-6580-33213 7749 12803
2333.47-8355-27516 32731-1259-3565-2242
2336.36 32017-7811-992 9743 22914-17620
2339.25 19757 35211 1209-18889 30585 9736
2342.14-2883-13351 30636-9399 24642-2100
2345.04 17240-10399 3019 3741-10245-9037
2347.93 6244-16109-8617-10436-10463-14697
2350.82-24353-22515 3196-40745-19120-25160
2353.71-35422-49258-33858-50227-27883-30175
2356.61-39594-64982-30469-68174-44381-33222
2359.50-47840-71322-13530-69916-27014-47687
2362.39-66243-39991-55343-58910-20577-77498
2365.29-46052-45541-60258-39480-40464-41770
2368.18-29435-59492-12521-49230-21561-50245
2371.07-35826-24017-37809-38270-28573-45061
2373.96-25295-49480-25419-64898-30590-42786
2376.86-31520-40197-24478-39026-29748-44792
2379.75-31548-37493-16739-49657-34732-52044
2382.64-32422-43018-32320-37972-33176-48702
2385.53-32847-36285-21541-50262-37394-37093
2388.43-34691-37191-35355-39068-48051-42069
2391.32-42707-55248-35770-38227-31936-60705
2394.21-39289-45209-31887-57911-43793-56164
2397.11-35084-56406-38077-54246-35658-48666
2400.00-43094-49975-40874-56654-53043-53150
2402.89-35830-54879-23188-48183-46967-39998
2405.78-44453-51186-39193-61877-44852-62827
2408.68-44466-40920-45190-48297-47245-63952
2411.57-54637-52530-45089-62001-37683-64973
2414.46-45081-42747-42350-60945-39592-54422
2417.35-43450-52785-41742-57942-41101-63059
2420.25-51146-64490-45964-69883-47036-65527
2423.14-42385-49801-52745-62874-48041-63089
2426.03-47909-65007-56253-81156-46639-57771
2428.93-37283-43994-56250-65883-45734-65088
2431.82-44657-49373-56640-57049-55963-84545
2434.71-61351-67592-49268-85442-57001-81335
2437.60-41123-67044-37388-59443-51128-52439
2440.50-56861-46463-41605-76674-54727-57576
2443.39-57921-63035-64171-64647-50458-62431
2446.28-60907-63271-59222-54345-59754-72555
2449.17-46722-61840-51061-57150-47349-77323
2452.07-48736-56808-41765-57108-50362-65238
2454.96-53869-58701-44528-59089-45098-47622
2457.85-62923-63845-59447-61653-43964-65735
2460.75-52329-63924-43304-74194-60279-53853
2463.64-59973-48711-45721-46256-57974-53214
2466.53-52698-58073-61131-76879-53584-55849
2469.42-50616-62124-63620-71098-44833-69329
2472.32-64419-59611-67486-70815-70015-70938
2475.21-56529-59182-40911-60831-57450-67131
2478.10-54332-54911-58598-60429-51495-48236
2480.99-42202-59006-52386-66278-63999-40227
2483.89-35720-56143-41348-66521-43198-61878
2486.78-52360-74697-50056-65644-45802-66039
2489.67-45910-62421-46256-56484-59846-62637
2492.57-67274-50098-53919-67319-56604-67641
2495.46-52451-72934-52958-65422-45757-58748
2498.35-59299-65128-63048-54209-61858-79525
2501.24-48226-59866-67241-71440-54958-72005
2504.14-63261-59593-73705-92367-69621-77186
2507.03-47888-71394-56658-90975-58849-84318
2509.92-64077-58791-71831-64167-63597-68974
2512.81-73688-79120-62968-65521-62210-73728
2515.71-76559-71951-66501-71999-64067-73930
2518.60-68990-63857-57225-82016-48989-84587
2521.49-78927-76116-78473-65998-57409-60050
2524.39-50958-73795-64117-86180-69764-74362
2527.28-61377-72363-60237-69499-63046-85036
2530.17-74758-74822-61144-60254-67465-57759
2533.06-64661-83470-58523-84555-66218-87698
2535.96-67727-61426-53370-79426-66353-85385
2538.85-63078-80711-69884-82594-61196-69003
2541.74-58108-77419-75627-78776-67238-85218
2544.63-60995-79672-67179-63847-65168-79243
2547.53-56244-64607-66512-58398-55477-77802
2550.42-66124-79767-85792-82151-88384-75102
2553.31-78658-82127-58860-66939-47948-57948
2556.21-90574-83157-75702-84516-84836-76673
2559.10-55138-67176-68627-78922-89268-70574
2561.99-74459-73733-58082-69083-66948-78841
2564.88-80061-79644-73565-79241-72093-83507
2567.78-59688-78529-60500-73866-84525-70169
2570.67-64101-80889-47396-76509-66295-68114
2573.56-71874-65168-67721-85607-73916-76250
2576.45-61638-63166-54911-81480-58293-98647
2579.35-61396-67101-63810-61783-73055-74914
2582.24-63049-72146-70194-78879-76725-65610
2585.13-79110-70308-66739-77954-71575-82324
2588.03-75171-82526-54888-67283-66644-81982
2590.92-63224-65334-70312-88478-73144-73454
2593.81-74874-70882-78351-62698-75186-82213
2596.70-73169-79401-64160-79727-71981-60365
2599.60-67486-83634-65400-86954-64997-75985
2602.49-65036-75534-63981-69743-56610-68669
2605.38-73289-71135-69730-76130-71353-72961
2608.27-67257-88390-78922-78431-59061-74414
2611.17-64652-71217-62676-75639-71690-64438
2614.06-68726-71226-48880-84935-88629-57107
2616.95-72968-76762-50082-92971-65702-70825
2619.85-74344-76002-49223-78974-51419-75234
2622.74-71998-79977-63074-74575-71765-72298
2625.63-73322-94547-57137-80351-76371-79467
2628.52-69884-58531-68122-64181-86078-89089
2631.42-50376-74016-63469-69984-66795-82033
2634.31-64309-91279-50384-72963-66795-86257
2637.20-71292-85799-61974-74518-62302-76765
2640.09-81492-83808-74311-68733-65369-76839
2642.99-59337-93825-65479-82931-68276-73235
2645.88-85126-70669-68777-63317-74078-79938
2648.77-81484-83376-58378-83508-72884-69765
2651.67-82788-97641-69629-83099-89734-75349
2654.56-76766-92764-53236-82744-83173-78634
2657.45-69795-76967-69562-78956-72139-63586
2660.34-73401-69325-65940-83302-90911-77578
2663.24-72581-99202-65817-92952-91608-71811
2666.13-74107-79946-81896-88007-61693-74998
2669.02-71343-95655-76002-73858-82342-82768
2671.91-70813-66192-73160-80631-96726-71990
2674.81-62637-78719-69558-74991-74365-87925
2677.70-68028-101482-100298-61766-88898-98062
2680.59-60674-75492-74676-90063-74762-79734
2683.49-83430-79132-84750-92054-78251-80480
2686.38-77998-88808-72014-95101-87969-81422
2689.27-88071-80022-72554-77526-77203-102298
2692.16-67880-90583-88164-57903-79839-92717
2695.06-111221-72397-93369-84007-93354-78669
2697.95-91970-94765-93451-98411-96758-88028
2700.84-75767-76956-60241-77748-68579-67897
2703.73-71182-63346-64460-82029-80567-83524
2706.63-85119-98325-86674-102303-79503-111006
2709.52-75457-94815-75812-80967-79831-46880
2712.41-77115-85590-76874-79908-86122-84654
2715.31-70391-90119-75344-85035-76912-86293
2718.20-90447-76039-83239-75035-98070-76478
2721.09-68218-70320-95620-100077-74831-71454
2723.98-93303-61435-77586-89430-68777-90049
2726.88-67833-74475-84930-79313-69801-57745
2729.77-91053-86722-83410-91604-71678-72838
2732.66-73782-79117-68946-68072-74795-93833
2735.55-78663-70635-79218-75282-96785-91042
2738.45-85902-84159-79872-70744-70508-84618
2741.34-83938-79415-77317-72152-64764-81288
2744.23-100052-63387-87162-92645-72359-68678
2747.12-97621-85358-78459-68003-71188-80422
2750.02-89639-71157-73023-76624-86205-89523
2752.91-77836-75918-71536-98676-74254-70135
2755.80-77737-65090-89678-70114-74813-73793
2758.70-93462-98634-84605-79152-65105-60226
2761.59-86776-74092-82151-84642-77511-87520
2764.48-85868-84818-89976-85451-64956-86187
2767.37-84717-101166-103969-100772-71305-86592
2770.27-78133-67001-77234-72551-93476-95179
2773.16-74659-87790-85507-82447-86704-82097
2776.05-86115-92019-82624-91269-77962-81626
2778.94-81639-84542-69886-101118-79609-90815
2781.84-96286-104105-62598-84700-77742-70127
2784.73-82811-75169-86229-77926-101591-71357
2787.62-85285-75049-76330-79607-83775-76909
2790.52-88073-89904-86054-81214-87506-80050
2793.41-81027-84509-93785-90263-78384-85300
2796.30-56716-66853-80193-73360-82472-78402
2799.19-99808-91060-105205-85230-75915-101683
2802.09-79510-82003-83718-79648-88749-89577
2804.98-82901-84868-57869-84382-69558-72248
2807.87-86501-93735-70248-73783-84207-73567
2810.76-95233-77316-86822-90831-73306-72144
2813.66-76605-71407-82549-82833-90082-79124
2816.55-96549-76224-80534-69514-81586-74207
2819.44-94128-83479-81147-89459-70558-62089
2822.34-63066-89615-63796-72412-85683-68448
2825.23-77529-90010-76635-80541-78479-64291
2828.12-81691-74089-93859-82076-91247-96397
2831.01-83608-66573-80906-86471-79008-79440
2833.91-79333-80049-92815-70714-44251-65227
2836.80-62284-72786-79842-82258-80816-76989
2839.69-75331-100604-90436-69492-88325-90863
2842.58-84239-76659-94024-67883-57908-72406
2845.48-77820-81916-67980-65705-69309-76633
2848.37-83746-76634-56869-66313-94002-70337
2851.26-70584-81472-85062-84578-88457-60026
2854.16-62523-55989-78417-84481-62867-61130
2857.05-57304-70202-58132-97416-69147-68369
2859.94-72003-95707-85909-57223-73138-78850
2862.83-71272-49735-76956-80917-92656-98151
2865.73-84490-80267-95234-56225-76249-72921
2868.62-86248-82514-71901-71859-65043-82077
2871.51-63232-60172-73197-80699-92055-78516
2874.40-90240-93621-77299-63204-67779-71099
2877.30-77568-70473-85594-91971-66029-61897
2880.19-79819-76840-75512-92634-93708-84105
2883.08-68841-81019-77088-65942-72915-74162
2885.98-56150-86600-77624-75506-85850-73988
2888.87-83223-83042-81648-69302-71101-61363
2891.76-94250-88910-76947-92228-66139-61668
2894.65-71360-94522-83069-113363-98881-58769
2897.55-84598-70469-69421-55873-95766-82388
2900.44-94546-93416-98648-81026-75574-69262
2903.33-80562-80994-75646-76526-100090-99462
2906.22-83852-104142-85117-69093-84495-92727
2909.12-80408-72070-93917-84268-98896-85396
2912.01-70709-72760-76585-72254-97969-88964
2914.90-96685-81447-76746-103379-126786-91197
2917.80-104481-99438-78692-88123-82820-56439
2920.69-103140-63966-81628-102572-82330-84004
2923.58-84282-90630-98546-80490-103870-95150
2926.47-92207-109969-117073-105371-111250-111471
2929.37-88935-101041-108131-96104-99465-81818
2932.26-82830-84186-73566-86176-78694-80701
2935.15-96308-88296-99851-79255-96860-92976
2938.04-90831-111890-100273-75717-85032-96526
2940.94-95383-99346-85538-77699-112211-81552
2943.83-102605-77841-72709-99234-90936-71693
2946.72-107627-119685-98322-100919-104622-78132
2949.62-92562-82207-86729-84933-84207-89267
2952.51-93646-101984-87586-98020-81389-86115
2955.40-76429-80151-85402-106303-80562-97186
2958.29-93615-90097-70360-73864-61695-76735
2961.19 32938-31247-209380-131613-128705-119202
2964.08-124883-84660-113929-81365-99451-66472
2966.97-86056-74283-97686-76431-101916-74350
2969.86-103230-94102-93795-93893-111235-86451
2972.76-93026-119102-116744-82102-68930-102253
2975.65-107386-81068-83522-62174-68362-69873
2978.54-83499-85249-98602-63330-112022-63916
2981.44-79577-97590-97540-69238-93975-86662
2984.33-114647-87432-83481-61620-101254-61620
2987.22-75440-81366-89233-50002-81316-68355
2990.11-85130-72657-67724-68263-75410-71475
2993.01-68175-68760-74701-67313-73333-75697
2995.90-99379-77269-98795-49731-107238-88432
2998.79-75855-70277-91633-59335-75674-75202
3001.68-72330-61450-81694-65274-84142-64817
3004.58-85529-64738-95167-83830-86797-78251
3007.47-81794-86722-86259-72081-68814-60209
3010.36-81925-72967-86906-96609-78771-86874
3013.26-91212-70091-93106-88783-58512-67336
3016.15-86240-93939-86912-111866-84811-84421
3019.04-75034-59352-83741-62475-75656-89824
3021.93-85790-73551-91626-71264-85131-80822
3024.83-89429-94439-63844-68490-77545-59134
3027.72-82410-72028-92440-75718-88816-65549
3030.61-88189-74153-72157-51949-83422-96557
3033.50-86321-86752-88008-93159-83144-86811
3036.40-74224-58776-71588-76045-99750-92164
3039.29-106326-71833-79300-63102-82336-62165
3042.18-88640-69170-88884-74931-73305-52653
3045.08-70352-95464-76464-75146-92532-66842
3047.97-82267-82472-95588-55025-77373-84388
3050.86-108193-67960-88333-84986-92470-91862
3053.75-81945-80834-81082-64187-87682-83005
3056.65-101478-66665-54465-51090-90865-79680
3059.54-94348-49894-69800-71434-72953-68771
3062.43-90599-63399-95555-60578-81757-73263
3065.32-98651-70947-53438-64661-87146-63874
3068.22-36003-50801-69856-69789-69390-61923
3071.11-66735-55319-69812-61764-84262-83270
3074.00-58952-56346-64367-44278-56269-59253
3076.90-53961-70537-92102-50267-63197-58779
3079.79-67919-61740-81382-63080-51465-58103
3082.68-56453-55673-76482-63692-58407-73180
3085.57-57669-48771-57550-72692-68517-63543
3088.47-37673-52234-51579-42081-43234-49684
3091.36-57550-69795-40971-33670-54027-44007
3094.25-64892-45306-60887-45867-76050-18340
3097.14-31553-40737-37809-61626-13566-52789
3100.04-56484-37365-71913-12841-58265-23506
3102.93-47485-33471-35445-19487-27457-30550
3105.82-46305-24027-27710-35202-52335-43620
3108.72-10715-23316-25382-12774-12011-17838
3111.61-20509-13656-36293-24647-20177-4142
3114.50-31008 386-20086-28929-28740-3676
3117.39-6528-11675-7666-11916-2992-849
3120.29-25286-127-25596 1547-26909 21
3123.18-21351-10181 10060 2547 8429 20804
3126.07-2359-975-12183 18288-6525 18088
3128.96-1610 19281-16898 29094 4445-11483
3131.86-4883 25505 16382 21957-2994 3535
3134.75 15606 38188 16902 39745 18700 21435
3137.64 15473 33561-2555 36552-1425 28633
3140.54 35539 34406 12915 44361 9128 27998
3143.43 1381 21867 49060 12357 5380 28785
3146.32 37508 39744 32037 60040 3708 54530
3149.21 19616 13274 42563 39584 36234 30942
3152.11 17560 48633 52615 73916 38969 48878
3155.00 25975 65541 31832 52792 53542 36874
3157.89 30300 22821 46110 47852 50122 53588
3160.78 32660 45490 36826 44255 35126 61477
3163.68 41525 71343 51723 64010 39877 46898
3166.57 36254 29809 31335 45280 51054 30209
3169.46 46123 61560 53513 44588 30333 50677
3172.36 66916 87452 52624 65518 60149 50072
3175.25 33233 60953 53626 75127 35829 41366
3178.14 40319 62561 36672 65170 53545 47788
3181.03 52578 60191 29547 53606 43062 53431
3183.93 48627 62280 57939 72631 53645 77446
3186.82 45548 81466 25280 63143 32642 70295
3189.71 44705 43449 27598 56345 58670 44057
3192.60 64788 61140 52445 49419 71639 62148
3195.50 48565 68798 21047 62391 31842 78023
3198.39 47974 54777 36690 33424 44992 56370
3201.28 64679 61708 61069 66152 42024 65004
3204.18 65025 77490 38954 56088 71196 72918
3207.07 39337 63329 38566 79062 40185 46087
3209.96 71073 85299 41254 99147 50795 68038
3212.85 60915 55437 49562 55594 38707 72301
3215.75 52137 98265 85834 76126 52272 58621
3218.64 37615 64195 49977 61554 28713 62501
3221.53 51386 54233 33997 77764 63346 77972
3224.42 57757 96233 66150 65333 70487 86094
3227.32 47598 91056 65464 84614 53807 91275
3230.21 38595 68451 43657 63775 32298 55522
3233.10 56917 69173 45670 64799 75388 77251
3236.00 54261 62725 80589 56846 20034 79631
3238.89 78271 41077 45209 74666 44681 82635
3241.78 34013 78539 40194 69351 52344 51881
3244.67 70896 71112 40597 78766 90843 66809
3247.57 62011 84839 71777 40733 48249 68150
3250.46 59053 56773 55520 73485 47825 86036
3253.35 33689 62624 43329 48460 42792 56940
3256.24 50222 86271 49966 62117 48303 76307
3259.14 34722 55825 46559 65976 35499 76002
3262.03 45886 51046 41909 73200 33988 51342
3264.92 63720 68212 68296 66019 31140 76300
3267.82 32560 26345 27615 43101 52313 53819
3270.71 47398 52363 31240 52153 42939 32021
3273.60 27018 67012 36043 54265 23215 64649
3276.49 41771 50208 38778 48192 19732 60395
3279.39 18688 37580 16734 32112 21555 54036
3282.28-2068 20084 25225 32881 27040 46650
3285.17 33153 50235 22990 22474 932 43548
3288.06 55959 25127 24935 15473 37890 16412
3290.96 17376 2917 3795 36446 19696 22657
3293.85 544 18845 13574 50670 3287 31226
3296.74 26910 32973 24659 39544 2809 61981
3299.64 21154 22025 6552 25422-6816 35052
3302.53-20616 5238-7084 29087-20583 23268
3305.42 23570 43611-10245 8307 8048 29591
3308.31-44015-7951-1054 31406-880-899
3311.21 2118 21052-1273 30939-25280 10010
3314.10-14905 5768 1374-17602-17822-29243
3316.99-17151-2804-17553-5554-53557 10677
3319.88-23184 2656-20119 20951-12821-7384
3322.78 6796 8196-12889 15315 272 7370
3325.67-15491 11807-26168 8940-11592 12640
3328.56-43161-8720-38161-19852 26538 658
3331.46-31329-13706-17667-8964-20286-9509
3334.35-36318-9424-23130-4462-32962 4496
3337.24-18440-6712-40890-28887-37207 10472
3340.13-30257-9226-48945 21159-25099-50421
3343.03-41590-14225-58301 11616-38254 11648
3345.92-56290-2292-37820-28931-29617-18506
3348.81-30131-28179-18358-20302-23711-1232
3351.70-27036-21702-45132-14092-29312-7232
3354.60-39378-9134-46778 1818-58126-5928
3357.49-30438-37507-57232-8693-42080-54537
3360.38-46640-29070-46613-35547-44559-46302
3363.28-34692-17573-45646-17613-56434-19319
3366.17-53952-7980-45669-28326-43681-51315
3369.06-25636-39980-22395-34335-51317-42421
3371.95-44803-20265-34500-25476-68607-20243
3374.85-67682-29069-53367-49859-31502-45686
3377.74-26185-44845-66811-36047-59025-29719
3380.63-44073-50518-63664-9192-67404-29841
3383.52-57025-64492-79692-53722-43195-57759
3386.42-30748-37029-53088-51781-41263-36397
3389.31-60477-18784-60503-59353-44657-33575
3392.20-96109-50644-68243-51534-55133-14144
3395.10-73414-27055-60725-52713-63177-42688
3397.99-71826-58210-66951-44917-57607-28047
3400.88-64533-38949-77998-63431-94490-44769
3403.77-54725-63835-67946-53201-54750-47669
3406.67-52024-32550-78307-51533-78386-46535
3409.56-88060-51809-82992-60202-54116-44518
3412.45-76711-44053-61737-59478-65533-43204
3415.34-57180-54341-68831-40258-80595-53570
3418.24-74159-50622-59249-53236-64363-50404
3421.13-67971-56542-74508-69842-71278-33702
3424.02-87408-60891-38804-41875-116913-49572
3426.92-69728-53565-103755-52167-54232-63741
3429.81-59542-68818-105951-56501-68885-47924
3432.70-95508-43195-92940-66445-98564-18970
3435.59-81229-76801-45078-56873-80694-57683
3438.49-75571-56808-98095-54302-91554-53991
3441.38-55936-42761-100312-72465-80721-76860
3444.27-65629-102253-82480-27641-79226-96109
3447.16-65377-39921-88446-78081-76366-51757
3450.06-56886-57782-70148-63600-75756-56042
3452.95-79916-77979-99468-45857-115221-77917
3455.84-61667-44651-61689-64986-55710-58563
3458.74-67421-46533-83717-58948-93334-106528
3461.63-69157-61724-65585-85582-101408-65032
3464.52-101259-61003-59140-66011-133946-75521
3467.41-59143-53359-52325-78999-108102-83674
3470.31-90790-86398-83987-92451-86292-78836
3473.20-90338-74174-109833-74449-91189-52095
3476.09-97194-69211-113603-72048-110475-61559
3478.98-86433-58023-47107-82514-81587-67765
3481.88-105167-69013-114066-90289-116364-60200
3484.77-117675-107587-96595-71411-100542-74812
3487.66-122320-85185-113308-77543-136468-86580
3490.56-99649-74502-125190-110960-79286-77897
3493.45-78105-44894-71288-66323-70489-53490
3496.34-91391-64580-73885-85177-110412-66384
3499.23-113323-59227-119534-96110-124653-94923
3502.13-133838-104965-131494-107606-126006-78099
3505.02-129593-107755-127235-93155-97360-79606
3507.91-116801-88278-132532-100067-103307-93127
3510.80-134097-98050-117167-98061-153516-138204
3513.70-106753-102977-106124-78717-133669-111078
3516.59-85005-97308-106192-93665-139796-101828
3519.48-133255-89492-107533-104514-115544-96853
3522.38-145224-104359-128242-91704-114154-105363
3525.27-136061-92425-139187-108974-105013-102764
3528.16-147881-140504-123750-91833-136842-109026
3531.05-150969-92909-136562-102091-133640-111160
3533.95-100136-88261-134730-87274-131589-115222
3536.84-130534-70587-132469-120795-136058-91077
3539.73-148937-116212-148030-106780-140990-107570
3542.62-129183-119028-132080-102660-163811-104207
3545.52-143172-97856-149359-84555-119348-107562
3548.41-137399-109954-162767-126548-151013-106410
3551.30-144830-122749-147491-107777-139555-109489
3554.20-126450-103431-132501-102212-124376-92094
3557.09-133298-92959-142904-94385-111607-106029
3559.98-150971-84845-149877-87551-151765-112196
3562.87-118918-120640-121777-117435-132535-120466
3565.77-143644-138007-100161-120951-187399-106377
3568.66-141126-61989-147742-100545-112454-93454
3571.55-123921-96235-112148-102470-140090-86921
3574.44-136317-91189-145905-72518-112332-83279
3577.34-112406-91249-109956-104614-116937-83781
3580.23-134654-48851-113055-71957-114519-84629
3583.12-164241-99570-149938-81035-140599-82268
3586.02-206140-111653-166758-119848-179552-187015
3588.91-85084-75622-92866-112172-112959-104161
3591.80-106973-99099-163621-114474-125999-88136
3594.69-154194-112456-109659-120055-121686-96911
3597.59-118556-112812-137073-108034-125275-115278
3600.48-162378-101464-126220-93141-138694-92884
3603.37-121111-95284-122808-100374-135143-90817
3606.26-150660-130183-136737-126663-140618-231545
3609.16-182619-90605-126925-74771-161858-136117
3612.05-230272-148692-138118-99163-169705-128839
3614.94-151521-85881-144273-101762-185003-181671
3617.84-157367-115208-204611-243181-123976-105389
3620.73-160386-92198-100525-117829-136449-140278
3623.62-159627-96965-122061-117893-153198-113874
3626.51-113890-99769-191445-275443-113821-304859
3629.41-244624-76559-164170-108152-130398-94336
3632.30-151275-99378-174656-111563-126696-103714
3635.19-122675-84313-144933-78453-133351-113605
3638.08-124995-113353-125883-83616-121075-107802
3640.98-121773-108468-143195-91865-132130-81790
3643.87-151419-104417-169494-78158-156786-129330
3646.76-241271-154993-174705-105450-365483-194626
3649.66-131858-184634-206204-168846-81385-110630
3652.55-135895-101191-140061-125006-166924-126032
3655.44-191105-283483-171953-139867-144999-127531
3658.33-131163-116316-134756-123856-158145-127039
3661.23-130841-114668-154899-114551-158106-120381
3664.12-161343-125317-165034-132375-149360-126814
3667.01-158105-106016-200832-203056-163410-122168
3669.90-255141-432558-125455-155279-139669-145153
3672.80-142032-192555-131925-281378-244017-292197
3675.69-411648-88098-239092-129008-165092-158304
3678.58-167755-171603-155440-129364-153268-134083
3681.48-160065-114520-129366-104572-150932-146096
3684.37-152174-137492-158984-132593-151572-162024
3687.26-97845-407913-394610-125201-183089-144027
3690.15-199607-232429-242755-94917-155113-133905
3693.05-184301-119208-184949-127124-188148-121710
3695.94-170734-148825-163406-126600-171510-103473
3698.83-179670-123408-186273-123914-187689-208852
3701.72-208858-116411-172432-130046-187300-151376
3704.62-180641-138003-167178-130668-194581-128041
3707.51-195530-108158-223341-226017-196951-109031
3710.40-186126-133575-308806-351003-149526-168210
3713.30-180672-178412-198040-158323-185844-154706
3716.19-151937-116899-176946-162728-173674-191236
3719.08-170954-141989-176769-140007-160669-198006
3721.97-211011-156138-183970-186405-199902-166189
3724.87-196632-116817-226517-193565-163274-164266
3727.76-156693-147901-168347-172921-166246-112262
3730.65-195969-188674-405199-228972-150734-173929
3733.54-176649-220120-253143-226197-140324-258145
3736.44-361191-124596-183794-168318-203896-108548
3739.33-199676-145121-196517-172188-204417-146695
3742.22-186405-143776-228692-357339-665563-288969
3745.12-216074-183852-168955-173890-187607-163792
3748.01-180724-240221-545553-199263-191402-176207
3750.90-181342-285813-551730-131844-232632-140914
3753.79-201533-157066-208158-141986-221421-201285
3756.69-193008-187937-184298-181811-188845-192582
3759.58-265460-139537-190461-114979-187188-152740
3762.47-185340-128018-181180-134994-188588-145390
3765.36-266694-162471-199422-158051-188329-138783
3768.26-190296-130460-289459-222248-168427-150168
3771.15-200561-124649-175612-130757-186640-171630
3774.04-185918-133381-194559-145249-210082-155686
3776.94-174210-149776-193028-164206-244539-172460
3779.83-179830-148606-165487-148461-173620-162360
3782.72-182601-130237-207334-155099-205426-114215
3785.61-193014-144274-195558-162948-193603-147041
3788.51-138742-138646-168920-129677-186826-115034
3791.40-177963-142976-178411-150413-183694-143053
3794.29-182744-142766-178071-186072-233501-156842
3797.18-215447-169024-196055-173018-174786-212981
3800.08-176927-265061-534056-163223-194726-159804
3802.97-181726-175371-193536-151465-168569-159806
3805.86-177802-324930-328068-122222-209803-109136
3808.76-189057-111292-198512-122338-194683-132214
3811.65-211289-135340-204473-150903-199190-132154
3814.54-214348-159030-535295-282491-188330-188863
3817.43-173890-173623-190645-132183-181752-204187
3820.33-328607-191585-346602-168271-187872-181344
3823.22-196456-163385-185375-114695-188517-133134
3826.11-217215-168834-182873-168213-210827-157775
3829.00-168082-148059-191410-158800-253913-238179
3831.90-143085-171016-184851-167036-167544-254947
3834.79-255958-165633-226182-198887-150104-427070
3837.68-422112-141062-250141-157304-243415-132721
3840.58-296761-160579-183336-133902-187272-196804
3843.47-253974-139953-239420-149284-216361-138903
3846.36-203510-144595-200635-137417-199483-133006
3849.25-231096-124217-243525-156179-332437-438311
3852.15-212352-216350-286118-563447-481914-149314
3855.04-238852-155874-218910-214414-231343-134089
3857.93-228610-135896-211443-165196-200084-156433
3860.82-235674-257540-228016-140669-195756-154386
3863.72-210002-181831-355689-160438-246512-170239
3866.61-227763-127200-203846-147315-293555-184982
3869.50-409345-276535-187952-202584-196631-193408
3872.40-181990-164301-231537-226250-239476-166003
3875.29-207911-166811-223775-156317-208228-154899
3878.18-253451-175907-213370-265071-263329-222469
3881.07-225540-182816-201161-162763-243627-153062
3883.97-242459-164449-329730-315965-246121-185703
3886.86-222647-189886-234177-189085-227925-190300
3889.75-201408-183179-340433-207090-223471-193895
3892.64-220445-165127-243129-164286-223647-199278
3895.54-218112-176493-236918-164974-240342-180021
3898.43-256263-300340-223356-185233-222184-187536
3901.32-355268-208302-194994-194508-252810-313064
3904.22-260121-214829-240777-202997-219037-176225
3907.11-198242-191902-231291-188901-232159-190154
3910.00-245885-177000-217961-190650-237137-152624
3912.89-238127-195361-231755-154891-221236-176951
3915.79-243256-179696-306360-207446-226529-197490
3918.68-220517-192737-270998-176124-240584-163068
3921.57-249686-159849-232424-197495-256818-198656
3924.46-229799-197536-217168-154127-219616-197259
3927.36-225944-178087-232500-157840-209842-181477
3930.25-228453-184251-216316-200949-254376-181251
3933.14-206741-155853-230700-195338-252584-198167
3936.04-261578-182852-240595-173735-241665-150820
3938.93-234721-178764-241920-170507-259892-192610
3941.82-213897-191892-254666-155208-247359-198053
3944.71-214403-155806-211139-202844-250415-173801
3947.61-252598-176056-242006-153385-193606-164823
3950.50-203237-155539-180286-163604-228896-181388
3953.39-217797-177112-209991-177855-238027-174874
3956.28-222290-182508-246428-186896-216331-172705
3959.18-209329-163703-225456-187079-198417-177494
3962.07-251366-160917-231045-172303-243779-172803
3964.96-217280-177717-229833-174103-249182-185535
3967.86-220421-189318-243941-166088-221098-183667
3970.75-254197-166898-229321-199464-224519-168955
3973.64-247313-168419
##END=
