##TITLE=Carbon Tetrachloride
##JCAMP-DX=4.24
##DATA TYPE=INFRARED SPECTRUM
##CLASS=IUPAC A
##ORIGIN=NIST, Analytical Chemistry Division, 301-975-3108
##OWNER=COPYRIGHT (C) 2000 by the U.S. Secretary of Commerce
##DATE=00/02/01
##$SPECTRA VERSION=1.10
##$UNCERTAINTY IN Y=2.1 % relative (B=1.1E-04,C=2.7E-09,D=1.4E-13)
##CAS NAME=Carbon tetrachloride
##CAS REGISTRY NO=56-23-5
##MOLFORM=C Cl4
##MP=-22.99 C
##BP=76.54 C
##$NIST SOURCE=QUANT-IR
##SPECTROMETER/DATA SYSTEM=IFS66V (Bruker)
##INSTRUMENT PARAMETERS=KBr Beam Splitter; MCT Detector; Multipass cell
##STATE=gas
##SAMPLE DESCRIPTION=Carbon Tetrachloride Primary Gas Standard
##PRESSURE=101.3 Pa
##TEMPERATURE=23 C
##SAMPLING PROCEDURE=1 L/min Flow
##RESOLUTION=1.9290
##DATA PROCESSING=Happ Genzel Apodization
##XUNITS=cm-1
##YUNITS=(micromol/mol)-1m-1 (base 10)
##XFACTOR=1.0
##YFACTOR=7.2759E-12
##DELTAX=0.9645
##FIRSTX=575.652
##LASTX=3974.605
##FIRSTY=-9.30E-08
##MAXX=3973.64
##MINX=575.65
##MAXY=.0055567
##MINY=-2.57E-06
##NPOINTS=3526
##XYDATA=(X++(Y..Y))
575.65-12785 96253 69360 40619 59909 85111
580.47 155617 157149 85896 36923-27390-35795
586.26 6346 24089 66385 24270-24978-37383
592.04-13175 13654 159-35759-637-11112
597.83 13872 12210 14666-10075-8197 13176
603.62 46366 33342 20042 12729 9971-38655
609.40-7810 23064 29042-4968 14100-11270
615.19-2255-730 45274 77112 88497 91947
620.97 146416 111881 90623 120226 157563 175029
626.76 174474 129962 137723 158317 180806 128589
632.54 93786 55094 56462 41624 42352 7808
638.33 12693-1379 24238 36961 45771 6368
644.11-5312-10526-4-18318 5205-3484
649.90 31357 27023 20110-15803-2073-2276
655.68 29245 35773 31025 2001 29582-8575
661.47-5287-12056 7982-1062 8207-20841
667.25 1145-17453-5840 2178 2972-22102
673.04 28780 36341 27502-23874-3927 9569
678.83 11553-2299 27026 4549 27512 1600
684.61-13720-31087 9872 18912 49047 12586
690.40 21307 12714 35748 3240 13977 24145
696.18 64822 19206 21716 20622 60930 35453
701.97 31853 11079 51153 36375 44525 23394
707.75 59928 37881 48841 28782 68989 54415
713.54 59823 25066 55504 37493 81159 54455
719.32 82125 72218 143147 146830 183717 176433
725.11 255783 280684 348146 363123 451353 506526
730.89 645904 720737 894342 1027254 1278702 1500617
736.68 1869025 2216494 2702152 3197238 3905965 4700063
742.47 5720948 6727956 7893191 9154717 10917923 12982485
748.25 15174856 17143264 19708399 22648387 25652205 29022172
754.04 33467405 37196963 40357760 44750787 50170377 53345935
759.82 56575618 59646653 61148750 66886468 75129580 73899904
765.61 71681802 78405385 93179153 99665783 84057125 76792262
771.39 104712866 123080518 101137018 91860234 96842473 102068862
777.18 106053663 108265462 107750906 104719566 98675075 90223464
782.96 80476181 73281110 74347413 88071659 116269115 163242606
788.75 234423033 332968009 455757057 592013413 705089926 759786063
794.53 763712609 717046113 627710793 493451511 354646432 271541320
800.32 209561993 150378013 109379106 81471337 60224558 44930039
806.11 33136522 24437869 17936253 13434546 10128878 7895599
811.89 6171822 5042122 4086149 3423986 2806917 2421852
817.68 1973670 1639293 1311778 1167910 972092 869864
823.46 693433 613982 496318 446394 338568 331635
829.25 249685 237097 180707 178737 115548 131400
835.03 111910 136905 73250 81392 53956 87153
840.82 46445 60283 43849 82183 63467 80329
846.60 48986 75662 60694 81413 35624 52842
852.39 61137 87952 44115 46922 48840 81331
858.17 44654 50376 44161 69698 47953 57472
863.96 34660 57786 52438 74324 60872 83298
869.75 84914 95018 71637 94064 86425 105065
875.53 88169 93083 82988 110460 100011 106276
881.32 95453 110625 96028 103038 87669 92990
887.10 77944 90213 68367 69925 61034 86687
892.89 78506 76793 52830 64922 59687 70050
898.67 45808 51392 52310 65123 45040 50843
904.46 36594 47525 34935 39415 19955 39303
910.24 35151 31224 16236 30417 22562 31504
916.03 16987 16840 636 8548-6795 2124
921.81 11877 26962 9686 11853 503 17499
927.60 16317 15981-3886 15038 18815 27904
933.39 11687 9569 1749 15795 7509 12342
939.17 8505 23051 15365 19026 8051 21133
944.96 25485 36794 23289 32827 29232 33439
950.74 16381 13057 12139 37933 40183 46040
956.53 42169 57763 52298 55304 54765 80367
962.31 94168 116963 118582 133841 141713 176670
968.10 189497 194402 203232 233683 250617 279363
973.88 287158 301188 307026 325308 319047 324603
979.67 332166 346401 331825 339065 347630 361732
985.45 338972 305344 291531 345062 381367 358656
991.24 319003 346955 385451 425813 443999 473837
997.03 493142 530056 557731 579927 591102 631314
1002.81 664418 688915 696325 717681 735333 744902
1008.60 725988 730067 724726 715220 687760 689129
1014.38 667991 648872 637986 619651 576074 541949
1020.17 492908 439743 377380 345660 314964 275497
1025.95 217980 185695 161919 147156 105038 70143
1031.74 44071 44933 27049 13219-5296-5171
1037.52-10116-14454-21359-3608-11445-7770
1043.31-11590-11824-16486-3355-2923-8886
1049.09-17811-2442 11812 17189-5630-1719
1054.88 11642 14691 8127 25305 27103 36544
1060.67 40547 50392 52142 62614 64777 70086
1066.45 67871 83276 79778 66605 55384 63321
1072.24 78170 94682 71935 56869 60525 74724
1078.02 65067 49753 40921 38739 29927 24377
1083.81 10756 21598 20063 12253-1616 3976
1089.59 13230 25667 15251 807-3091 13106
1095.38 19094 27033 30876 39535 35816 38097
1101.16 29533 32583 43125 49548 38415 45666
1106.95 51976 54085 48810 61050 67561 73616
1112.73 71085 74116 72266 88380 85407 66896
1118.52 46472 48471 47549 38679 22302 20507
1124.31 28546 36461 19682-7407-19709-7509
1130.09-14476-35196-36615-19479-30910-39369
1135.88-51990-52192-42489-37413-51299-51682
1141.66-43383-27947-33509-47882-48611-35829
1147.45-33922-38744-44806-29728-22684-27184
1153.23-33316-29828-23256-16134-28033-30327
1159.02-30306-15576-14696-24072-29532-19813
1164.80-7239-9111-21182-13749-8946-994
1170.59-10116-7012 1779 8038 3084-2108
1176.37-84 15144 18826 7773-3913 2499
1182.16 14122 18432 2840 10616 32087 36821
1187.95 19384 17776 33074 45843 42037 38373
1193.73 40262 55306 65317 69880 63616 69535
1199.52 82197 89057 85714 97655 111838 126045
1205.30 126175 132531 156542 182889 181632 173116
1211.09 177049 198899 219353 231561 242330 268300
1216.87 289285 283470 259238 251933 283262 323062
1222.66 338245 356915 366185 328277 274264 242258
1228.44 242478 310079 391963 371961 270293 242514
1234.23 254524 259773 258285 277574 303921 323574
1240.01 321567 305486 301972 336648 373265 413709
1245.80 461846 514091 561281 598292 640532 713753
1251.59 783229 844818 878407 886860 912997 947422
1257.37 922832 858995 772166 732057 738094 708182
1263.16 602474 417622 300037 298559 279651 250185
1268.94 217698 185879 157237 152162 157440 161429
1274.73 161080 161181 156263 158978 145281 123049
1280.51 111900 120503 125775 120852 93212 77093
1286.30 71688 75604 56409 32741 24629 33321
1292.08 31429 22440 13829 9441 3321-1875
1297.87-7725-1054 7150 4767-9625-14132
1303.65-11479-10300-24248-34583-31523-23813
1309.44-18826-23486-27855-22717-26530-30465
1315.23-39165-44453-43146-35436-36456-37017
1321.01-30125-24260-25970-29995-35455-25614
1326.80-21913-32775-44658-36509-20647-16602
1332.58-28083-35783-26705-18007-25830-38896
1338.37-43077-29338-20103-22595-34856-27179
1344.15-11806-13778-36149-42988-32984-26242
1349.94-42001-54069-35334-656 27959 42086
1355.72 32206 25941 16588-15515-38328-29343
1361.51-25854-24416-7933 695 1467 12894
1367.29 16012 171-2919 9188 7070-8539
1373.08-13060 5318 21622 19048 11255 5051
1378.87 10506 27268 15525 3706 8780 15421
1384.65 4322-19545-37013-13190 2916 4576
1390.44 376-2357-13441-34544-32564-21145
1396.22-11831-16655-41539-33301-12932-2740
1402.01-10918-32295-46963-29223-13201-17319
1407.79-28297-26370-14430-7853-20721-32064
1413.58-28508-20956-30567-46081-73472-102654
1419.36-54232-22173-28485-29672-26532-26784
1425.15-30467-30465-28408-30381-40699-33362
1430.93-26121-22024-27604-37574-73113-108877
1436.72-56744-24505-31106-26535-16214-14515
1442.51-22095-31446-26514-20312-41762-58418
1448.29-41371-28050-28525-39391-42105-35114
1454.08-42516-117089-178502-118950-62881-30316
1459.86-28258-36039-28879-31616-64606-54199
1465.65-31160-20164-13188-21985-40424-80035
1471.43-98441-91814-63247-45293-48799-25362
1477.22-20804-22514-23979-24158-21898-22060
1483.00-23831-10389-10926-41829-53441-38880
1488.79-46087-44419-26232-8002-989-4477
1494.57-60940-85596-30223-18298-8489 10044
1500.36 11517 29235 39592 15093-71189-114761
1506.15-85890-7562 30499 42186 63172 66162
1511.93 74598 84313 88779 102178 84357 83026
1517.72 106595 96939 42382 37132 98308 148034
1523.50 162795 149236 160961 167307 184630 218673
1529.29 248925 253064 240194 212339 222666 272235
1535.07 309253 357178 352639 273254 275868 362722
1540.86 418957 486634 551075 560992 618887 705103
1546.64 760015 787967 810467 853474 919940 959251
1552.43 961304 972062 1066053 1109239 1049366 995139
1558.21 1048579 1111728 1226017 1287750 1299321 1326663
1564.00 1368528 1411060 1405690 1349379 1281869 1264574
1569.79 1316383 1321167 1269990 1213386 1174832 1095891
1575.57 1101351 1206269 1213056 1179137 1157075 1149389
1581.36 1131158 1112780 1108071 1111723 1093743 1073173
1587.14 1063056 1052992 1051115 1064311 1059737 1015809
1592.93 998593 1005987 998841 952673 929472 921938
1598.71 896369 855966 814527 777557 737610 693940
1604.50 638759 583354 538090 498672 447456 396094
1610.28 359374 328361 290121 245658 199772 89203
1616.07 37445 99327 101232 85107 73396 56006
1621.85 5727-22038 3456 13485-7758-36074
1627.64-31461-18338-16658-22454-27523-29343
1633.43-75909-154231-118240-55218-36738-21229
1639.21-24585-28434-23102-14727-22473-69156
1645.00-123334-89361-63911-43580-29524-43156
1650.78-146209-282369-239943-117668-51367-30092
1656.57-37588-42798-38773-35157-48202-79857
1662.35-75713-40255-37483-39201-49812-69069
1668.14-105561-86248-66898-57276-41006-57051
1673.92-117134-106537-54166-42552-48663-58182
1679.71-51964-47242-77652-145692-230638-167529
1685.49-59700-52039-54879-60344-56177-45592
1691.28-41510-47793-59921-161181-215222-107080
1697.07-61438-118065-222581-186871-82841-54217
1702.85-69269-71938-71148-69830-47428-43862
1708.64-51585-57356-49230-46732-56838-82001
1714.42-84664-99994-164396-140805-82753-51946
1720.21-44387-44469-45851-44830-44782-42238
1725.99-38082-36744-43869-60665-60515-62237
1731.78-113596-176332-159213-81698-44895-49696
1737.56-59343-91737-78304-47184-51681-54907
1743.35-45826-44039-48665-56845-64389-62511
1749.13-67120-106976-88890-47185-34771-35424
1754.92-49866-61762-48479-38818-38937-54034
1760.71-76797-54797-29787-27790-22570-21809
1766.49-41405-50947-21461-21948-47475-86948
1772.28-67200-10936-2247 2843 9002 10258
1778.06 12225 5537 774 12094 16762 13902
1783.85-1874-879 5134 257-2226-2698
1789.63-18181-37031-57929-22161 20036 18848
1795.42 20741 23730 21867 3164 5246 11643
1801.20 7112 8505 15887 15966 11926 4301
1806.99 1474 931-8719-18756-22090-22715
1812.77-21987-24552-28174-32880-33930-35247
1818.56-36546-34319-38053-40191-36658-51261
1824.35-63119-47680-37794-43513-66185-77940
1830.13-52626-39093-39138-42831-44177-43651
1835.92-44333-41269-37996-44503-48280-46250
1841.70-50232-88591-90096-45480-38185-49161
1847.49-45244-35615-35069-36189-38596-34617
1853.27-36120-36831-33823-28877-26293-34178
1859.06-36293-38740-39553-30863-26949-35055
1864.84-38970-39190-45198-59131-61280-42338
1870.63-34943-39474-45893-45617-36971-33661
1876.41-36243-38593-34162-33342-40812-51650
1882.20-51562-45578-47902-52589-46999-45363
1887.99-56416-60120-51410-48689-43846-43604
1893.77-53647-58141-50596-49722-52421-50815
1899.56-51347-57340-53174-49680-52224-46806
1905.34-41944-44208-48572-50443-46967-37310
1911.13-30786-35636-35163-33400-35836-49267
1916.91-61036-51736-42073-48172-61857-75688
1922.70-71831-64648-59338-54910-50786-47365
1928.48-46463-50555-53065-51555-47104-53830
1934.27-57309-54473-51120-47150-48846-55812
1940.05-54679-59711-65762-64013-56927-50608
1945.84-43686-47801-52851-48430-42393-46330
1951.63-53032-53477-42752-40898-49057-51086
1957.41-44855-41052-41382-44285-42451-44524
1963.20-46710-46726-49849-50543-41887-35195
1968.98-38908-43058-44419-50627-67801-56080
1974.77-29226-31171-36273-41349-38271-33879
1980.55-33396-36059-41682-44587-41514-36834
1986.34-31680-34051-38012-37981-39779-40621
1992.12-31935-29363-35058-40739-34811-27230
1997.91-26274-31955-31833-31366-25877-24201
2003.69-31792-39560-39066-35600-31948-34140
2009.48-29624-25277-29421-36926-33691-28218
2015.27-25923-30054-37438-40027-33167-31739
2021.05-34377-36981-31229-30819-32755-36844
2026.84-38056-34196-35245-42406-42897-39563
2032.62-37985-39355-40849-39886-33937-35115
2038.41-37192-42232-42584-39463-33813-38165
2044.19-43683-40864-40572-46266-49244-45593
2049.98-35968-33769-39109-44062-43860-41937
2055.76-41531-47425-45909-38665-40034-50501
2061.55-50958-45519-44086-45865-46828-49551
2067.33-43889-43445-47985-49446-46884-45215
2073.12-48192-49939-45348-41526-41503-48582
2078.91-49300-48339-37689-37514-48525-51853
2084.69-38514-38205-49299-51600-46559-37838
2090.48-41697-52012-49600-33035-30025-49685
2096.26-52510-34865-19154-33715-47026-48799
2102.05-31681-33012-46044-48929-31496-24457
2107.83-40438-45707-31367-15651-29381-40626
2113.62-35229-19931-30903-39915-32402-16381
2119.40-23797-35681-29847-15297-24958-48290
2125.19-43651-23061-18596-36477-39937-34138
2130.97-31930-41882-40144-30408-22203-30593
2136.76-32406-29738-31354-46292-47963-44245
2142.55-41858-42209-38367-30950-32434-45381
2148.33-42649-31358-30452-40443-38715-28982
2154.12-25190-37465-30895-13758-19094-40040
2159.90-32813-17867-25157-39749-24037-8462
2165.69-22205-34740-17186-11702-32365-32831
2171.47-6072-13365-29545-17576-6781-22845
2177.26-23299-4715-2528-22441-12807 8629
2183.04 4754-3416 10613 12669-3189-3411
2188.83 15232 15201 16639 29294 39769 33655
2194.61 42538 54745 49450 42867 62583 74140
2200.40 73003 77093 84673 79643 81009 86287
2206.19 88998 94945 100929 95307 96950 99072
2211.97 95070 90601 93052 88165 78699 67732
2217.76 60978 49663 35719 20103 117-16338
2223.54-9730 11953 36726 49775 59259 79253
2229.33 102114 108911 121038 133176 142683 145691
2235.11 145900 140232 142591 145244 142581 129267
2240.90 117254 107269 97160 80176 61997 48793
2246.68 44139 27738 12576 8482 7751-5155
2252.47-17626-26615-32823-34229-33164-40251
2258.25-43823-46545-42728-45737-40815-40442
2264.04-44097-44332-48640-50503-46563-48485
2269.83-42920-41502-45929-48377-44787-44376
2275.61-46331-46970-45031-46924-45199-45806
2281.40-44551-43906-39859-41698-41468-40690
2287.18-39078-43320-43526-40224-30155-35651
2292.97-43877-41751-32024-32509-30901-29398
2298.75-30790-36594-33588-29875-30127-36030
2304.54-33863-30459-24776-23151-20377-13605
2310.32-12116-19065-12522-9569-11308-14199
2316.11-9726 1860 4577-1624-1665 453
2321.89-3024-7033-8981-9566 5175 11586
2327.68 10812 10949 7627-4062-6938-3499
2333.47-61 2882 6042 5700 6542 9350
2339.25 11980 7114 6386 3763 8801 6874
2345.04 2846-2730-4318-8316-10555-16121
2350.82-17442-22305-29539-39120-38099-38625
2356.61-45934-49343-46134-47174-44426-48613
2362.39-50710-50064-50511-51476-44672-40784
2368.18-36993-35883-35569-34941-34210-36528
2373.96-38383-42696-38252-34945-33618-36107
2379.75-33024-37478-40397-38797-36692-38279
2385.53-34797-37462-37130-37277-39882-44783
2391.32-43345-41509-43141-44305-45659-48287
2397.11-45866-45846-44224-47357-49632-49196
2402.89-41885-42325-43604-47317-50394-51512
2408.68-45749-49005-53412-53736-50886-50982
2414.46-46983-48909-47979-48895-49468-54598
2420.25-56153-57639-53535-52548-54273-56690
2426.03-59386-61691-51357-49947-54684-54624
2431.82-52200-59277-65640-66075-66141-64158
2437.60-54276-52745-51890-52818-56722-60141
2443.39-60520-61262-59177-60853-59101-60305
2449.17-55700-56590-57236-54284-52169-57093
2454.96-53983-52066-53247-60025-57179-57032
2460.75-56882-60369-57172-52106-49782-54521
2466.53-58440-62775-57168-60021-61011-62309
2472.32-64115-68625-64627-56943-55336-59542
2478.10-57113-55826-50119-53993-56626-50320
2483.89-47000-53331-56118-60657-57345-56206
2489.67-53754-57006-59531-59272-59028-62185
2495.46-60622-58475-56854-61358-61340-63384
2501.24-61761-65305-64099-69596-74812-70169
2507.03-64739-71890-70204-67222-65282-70050
2512.81-69941-68026-69449-72095-68698-69231
2518.60-65607-67700-72563-76384-66607-61101
2524.39-65138-73823-70216-67502-67400-74169
2530.17-70066-64691-64095-70661-73312-73879
2535.96-65835-69188-73025-74817-71357-68262
2541.74-70584-75546-73171-71413-67527-67519
2547.53-63271-63216-67613-78272-82106-80937
2553.31-72147-63392-66721-80115-80242-73923
2559.10-67783-76504-75692-70577-67580-75380
2564.88-76980-77135-72926-71181-71972-73356
2570.67-67085-67553-67785-70969-73850-71885
2576.45-64112-69884-72852-68809-66132-70309
2582.24-70245-74476-72515-72798-72938-77323
2588.03-71515-68708-68939-71555-74830-75898
2593.81-72268-73486-74725-75413-71030-70398
2599.60-72123-75242-70948-69906-65352-68066
2605.38-70430-73098-72916-78005-73556-69410
2611.17-67755-70269-67806-67797-71541-73184
2616.95-69026-72700-71567-69182-64536-69784
2622.74-71497-72488-73699-77000-74620-74054
2628.52-66907-72570-73140-68681-68195-73641
2634.31-71016-70660-74598-75506-70096-75322
2640.09-76811-72683-70396-75757-74751-75846
2645.88-72279-71550-75804-77101-73375-78309
2651.66-81768-82873-80181-77702-75790-77546
2657.45-73602-73637-69533-71946-77525-82563
2663.24-81629-84486-79472-79622-76806-76033
2669.02-79028-80204-75957-74421-78357-77762
2674.81-71765-75535-79819-87262-84434-81120
2680.59-76011-79964-79950-83387-83269-82237
2686.38-81501-86086-84552-80851-78862-84314
2692.16-81189-79788-86791-90826-86513-88911
2697.95-91704-95272-85721-75485-69621-69725
2703.73-67955-76337-83585-91235-92411-92246
2709.52-85083-77598-70298-77195-80803-82032
2715.30-80157-82188-82727-83278-81729-80057
2721.09-79774-86399-79328-77796-77749-78942
2726.88-76431-76306-74318-84055-81312-76724
2732.66-72462-75337-78584-79285-81754-88749
2738.45-81957-77558-77949-79781-73941-79582
2744.23-81520-82151-80545-82564-75232-78391
2750.02-76979-80067-81317-80613-79358-76840
2755.80-74197-77044-80844-88316-77217-73109
2761.59-77259-82550-83510-86446-81187-84277
2767.37-93622-93024-80231-76271-79581-86819
2773.16-83963-85328-84477-87684-84153-82756
2778.94-81036-86590-89912-88818-78317-77884
2784.73-79076-85159-81970-79627-78501-83773
2790.52-85088-85542-82345-86709-85027-76885
2796.30-70347-77783-85000-94105-89586-87374
2802.09-82960-84955-84265-79448-73146-78941
2807.87-80356-79473-80605-85398-81288-76974
2813.66-76174-83697-84805-82585-76675-81945
2819.44-83688-79818-70229-73066-73990-78137
2825.23-79447-79211-74634-81442-86587-87721
2831.01-79443-81012-79897-81240-69367-63534
2836.80-70795-79649-80603-86258-84153-85676
2842.58-81745-74574-70687-74629-70282-75215
2848.37-72204-73401-75662-80355-80499-71242
2854.16-66619-71592-64129-67252-73309-76848
2859.94-78535-75597-69449-70178-80020-90019
2865.73-83218-76506-75588-78784-72085-70706
2871.51-68835-79562-85079-84052-72136-72250
2877.30-76848-78963-72203-78348-84336-83911
2883.08-75397-73222-69707-75659-78101-81121
2888.87-78976-75139-75058-84292-77797-74005
2894.65-83706-93827-81091-72805-73498-87199
2900.44-90820-85068-75962-79181-84081-93867
2906.22-89293-84461-81931-84691-86847-84463
2912.01-75157-82472-88065-90075-97620-104467
2917.80-93074-84514-77347-82262-85309-87999
2923.58-88131-93968-96163-106359-108462-105752
2929.37-99778-98855-87327-82850-79945-86666
2935.15-89562-92271-93312-98157-89717-92483
2940.94-91500-92369-90809-87555-85207-94384
2946.72-102286-101801-89963-87179-84688-91119
2952.51-92733-91578-82417-85458-89456-93111
2958.29-83336-70664-46604-77839-129038-123691
2964.08-104595-93117-82455-83481-86724-91175
2969.86-93908-97673-98590-103588-93991-91717
2975.65-86346-73776-74187-84272-85029-84345
2981.44-86227-88435-92118-90805-79438-77835
2987.22-75747-73856-73080-74484-70252-71735
2993.01-69529-73238-79374-85256-82187-84624
2998.79-77360-74917-70978-72401-72331-76128
3004.58-78472-85112-82342-83277-74389-72304
3010.36-78282-87078-84549-84676-77538-77367
3016.15-87430-94219-81947-73470-73082-81496
3021.93-81408-82033-83100-82083-71536-72860
3027.72-77529-82225-77874-74906-72172-85103
3033.50-87653-88588-79256-73158-80027-92747
3039.29-82587-74874-73626-79190-73682-71367
3045.08-76716-81674-78881-81409-76925-84166
3050.86-85287-87716-86437-81821-78111-83814
3056.65-72358-69263-76808-72595-69224-75639
3062.43-76899-77584-78261-74409-67051-62131
3068.22-56195-66414-64243-64927-69187-72695
3074.00-60178-56138-57145-68376-65209-63954
3079.79-65891-64744-56878-62532-64126-63242
3085.57-58169-64043-57264-50106-45934-52051
3091.36-52181-47571-49344-55035-51917-42448
3097.14-37209-42119-43434-48972-41382-39172
3102.93-33747-30282-30295-33831-35544-35061
3108.72-21539-18412-15727-23189-21516-18037
3114.50-15295-21163-13180-10041-6875-9855
3120.29-11032-13668-11048-6503 6359 6028
3126.07 2177 1572 7584 5441 6838 2052
3131.86 11685 11501 12690 21879 27405 21193
3137.64 20005 16711 24676 27630 26018 18487
3143.43 22862 21495 26561 35652 37376 29771
3149.21 30042 33408 34059 42082 53402 45233
3155.00 45774 45537 40364 34984 45639 45005
3160.78 42298 41342 50341 55567 54275 41784
3166.57 37136 38785 45350 48587 47781 52446
3172.36 67021 60274 52925 51700 55056 45293
3178.14 49930 51755 53845 47694 47713 49346
3183.93 58852 61971 64075 55171 51106 48593
3189.71 46108 46417 56076 55872 59481 57792
3195.50 52502 47058 54944 47323 44417 52015
3201.28 62209 57896 61727 59980 60991 58916
3207.07 56117 53520 59228 66162 69657 62436
3212.85 57173 51449 62350 75602 72782 54810
3218.64 53857 50067 51397 51224 61965 69625
3224.42 74875 70729 72286 71720 73757 64704
3230.21 58139 49823 53764 57128 65469 66801
3236.00 65906 56840 59164 56939 58539 58813
3241.78 58767 56386 60503 62259 70879 73036
3247.57 69726 57831 57813 58948 62541 58998
3253.35 52783 47497 54951 60972 60436 54542
3259.14 52608 52636 55361 51479 52316 54198
3264.92 63698 58483 48840 35760 41649 48409
3270.71 47337 41508 40590 43000 45744 45164
3276.49 46434 39551 37161 28946 28949 25278
3282.28 22783 28175 37720 33799 25686 30273
3288.06 33427 24191 20416 12371 19352 16532
3293.85 18197 23070 26736 27720 29943 29239
3299.64 22758 12607 7734 943 6030 13867
3305.42 18988 8567 762-5900 6811 4982
3311.21 9688 4490-721-4783-10880-19408
3316.99-13561-18501-14457-8274-1543-1956
3322.78 2444 1942 1522-5352-3871-11710
3328.56-19454-12208-5319-16195-14482-19453
3334.35-17725-16852-12203-20871-24877-20248
3340.13-17045-20629-29690-33147-20382-20536
3345.92-24313-28654-25393-25268-18834-19224
3351.70-24095-26488-21495-25715-25337-29438
3357.49-32991-38186-40594-42478-39594-39938
3363.28-31648-35270-34050-33774-35370-40053
3369.06-32938-38201-39376-35521-36462-45532
3374.85-44488-44595-38362-45808-46929-45777
3380.63-44479-44631-47239-61509-57106-47406
3386.42-42404-46958-42744-46232-48893-57621
3392.20-61530-54698-43982-48987-52931-58789
3397.99-58953-54511-47409-58022-67237-65031
3403.77-58943-58312-49577-53880-60640-67050
3409.56-66802-63499-56087-58915-57069-56684
3415.34-55323-61173-61771-60693-56408-60342
3421.13-63484-67091-61252-59746-61739-70991
3426.92-68258-67422-61165-73758-70453-67933
3432.70-69989-73867-64029-63848-61868-68531
3438.49-70462-74248-62951-66902-75472-79815
3444.27-75797-70898-69543-70504-70367-64819
3450.06-60255-67472-69658-79166-80704-76360
3455.84-59631-60129-58893-65026-75445-83954
3461.63-73121-80729-81395-75345-79559-81048
3467.41-62821-78083-88100-89312-85445-86460
3473.20-85707-85755-77465-86707-88082-80986
3478.98-66055-71970-80347-92256-95509-98016
3484.77-96607-92012-92282-100738-101065-101303
3490.56-97506-99095-78119-67379-64098-70799
3496.34-73789-86105-88202-94313-103542-114429
3502.13-116282-115897-108706-113134-102277-98525
3507.91-104047-108597-106328-112797-119137-125671
3513.70-106955-105681-103230-101527-107465-116399
3519.48-107222-108395-113286-118200-109379-114055
3525.27-115269-115594-118524-128668-118429-123262
3531.05-119334-119461-109970-107717-111008-116383
3536.84-110699-120028-121591-129217-125088-124225
3542.62-121516-128047-125841-122392-112533-118643
3548.41-129360-137935-130488-132192-125649-122249
3554.20-115646-115838-110832-115813-111396-117292
3559.98-117776-122331-120420-121905-121838-130586
3565.77-126971-133907-128168-114491-108947-108766
3571.55-106849-113125-113254-113745-102852-99513
3577.34-100858-106828-101207-93580-92753-112904
3583.12-121417-119194-128839-146531-150356-140293
3588.91-101278-103281-107006-120158-122530-121309
3594.69-118291-116946-111823-118913-120350-127638
3600.48-121578-115545-110110-110980-112237-122890
3606.26-130374-148243-165064-138075-121166-157764
3612.05-157036-139255-133726-126748-138627-161173
3617.84-167548-174346-137151-117345-118581-136088
3623.62-124811-126575-122255-148413-197306-213869
3629.41-164013-126973-120190-131081-126774-116291
3635.19-109011-113954-116336-117536-108174-114318
3640.98-116404-117176-114687-127488-129942-160979
3646.76-174863-200156-205682-180635-149591-119864
3652.55-121742-137916-168672-196958-163815-134518
3658.33-127115-134498-133123-132036-134591-141015
3664.12-142921-144426-139325-155725-172860-209036
3669.90-240411-179679-147735-173163-230736-277388
3675.69-227455-170289-161549-160319-147543-142025
3681.48-130814-129576-142232-147266-144976-178535
3687.26-260479-234240-182943-198378-165614-149618
3693.05-152387-155978-152923-154043-146333-145438
3698.83-149722-166716-180934-166615-155779-163712
3704.62-156712-157632-158680-174858-188652-172415
3710.40-207171-242250-193244-180151-174133-160447
3716.19-149759-167563-171735-164273-161295-181377
3721.97-182819-185293-178206-178088-179825-166933
3727.76-159034-161100-168735-232358-236576-191268
3733.54-207544-219447-233184-213267-174133-165935
3739.33-170174-180672-172724-216372-353606-347870
3745.12-212323-177321-193322-279363-272594-220824
3750.90-284697-269970-189019-179451-184401-196800
3756.69-188408-190345-198562-186206-159900-163646
3762.47-157864-164473-183519-194205-174649-170395
3768.26-191191-206584-173843-161100-158738-171675
3774.04-166194-174205-170107-173726-186336-188577
3779.83-163726-163057-163480-170820-170138-166978
3785.61-166507-174832-156563-150194-150021-154985
3791.40-156833-165860-161604-170356-185111-195367
3797.18-184382-185231-205925-283938-262626-188702
3802.97-174846-170451-189359-243338-211727-160725
3808.76-153283-159988-166315-172930-171718-186063
3814.54-266122-288412-204062-175737-174358-222895
3820.33-252372-223767-185836-174827-158107-170520
3826.11-178640-182798-171742-171312-192801-202657
3831.90-175667-185382-210836-213901-223721-296051
3837.68-263278-206306-202522-193731-174139-195522
3843.47-196916-187929-175422-173502-168681-175164
3849.25-186196-248094-295176-309745-374965-298404
3855.04-204950-205358-188980-182539-180963-201663
3860.82-215842-193340-184252-224361-228269-201453
3866.61-180392-205786-263839-266836-209772-191369
3872.40-195169-215995-200570-192065-186532-196137
3878.18-211310-238037-230141-204097-192957-203226
3883.97-237776-267474-227147-210486-207250-207794
3889.75-226175-237708-208735-202904-200098-206624
3895.54-201462-206872-223261-244087-220990-237093
3901.32-233802-231331-255710-243286-213288-200284
3907.11-200361-211689-210603-209248-202465-205253
3912.89-203598-200223-203144-228631-228949-216695
3918.68-215460-216682-204126-207212-214951-221265
3924.46-204832-198474-201243-204357-193272-199809
3930.25-203949-214441-203247-198372-212332-225688
3936.04-216136-207620-199111-206590-211121-214252
3941.82-208743-211477-203277-198247-206612-216414
3947.61-205779-191787-178233-178423-183913-199751
3953.39-195669-201880-202008-209322-204405-196432
3959.18-191933-198446-198941-204786-201752-203864
3964.96-199318-208982-207742-209474-202649-208283
3970.75-207239-209018-203278-202103
##END=
