##TITLE=Carbon Tetrachloride
##JCAMP-DX=4.24
##DATA TYPE=INFRARED SPECTRUM
##CLASS=IUPAC A
##ORIGIN=NIST, Analytical Chemistry Division, 301-975-3108
##OWNER=COPYRIGHT (C) 2000 by the U.S. Secretary of Commerce
##DATE=00/02/01
##$SPECTRA VERSION=1.10
##$UNCERTAINTY IN Y=2.1 % relative (B=1.1E-04,C=2.7E-09,D=1.4E-13)
##CAS NAME=Carbon tetrachloride
##CAS REGISTRY NO=56-23-5
##MOLFORM=C Cl4
##MP=-22.99 C
##BP=76.54 C
##$NIST SOURCE=QUANT-IR
##SPECTROMETER/DATA SYSTEM=IFS66V (Bruker)
##INSTRUMENT PARAMETERS=KBr Beam Splitter; MCT Detector; Multipass cell
##STATE=gas
##SAMPLE DESCRIPTION=Carbon Tetrachloride Primary Gas Standard
##PRESSURE=101.3 Pa
##TEMPERATURE=23 C
##SAMPLING PROCEDURE=1 L/min Flow
##RESOLUTION=0.9640
##DATA PROCESSING=NB Strong Apodization
##XUNITS=cm-1
##YUNITS=(micromol/mol)-1m-1 (base 10)
##XFACTOR=1.0
##YFACTOR=7.2759E-12
##DELTAX=0.4820
##FIRSTX=575.17
##LASTX=3974.605
##FIRSTY=-9.56E-07
##MAXX=3974.12
##MINX=575.17
##MAXY=.0056519
##MINY=-3.47E-06
##NPOINTS=7052
##XYDATA=(X++(Y..Y))
575.17-131525-83185 92035 218735 98238-95
577.58 39760 64388 50185 45656 33559 137418
580.47 92080 96501 268875 213395 58932 83346
583.37 24562 97913 35321-93983-85094-7888
586.26-3531 8142 10930 2974 40406 129480
589.15 35985 42757-447-56667-74897 16521
592.04-35750-47643-9067 51057 46585 6928
594.94-79047-46576 1344 9999-18916 24680
597.83-57975 25387 47311 17974-18753 29664
600.72 12725 4492-48240-6936-12197 32216
603.62 20244 69750 31508 44213 42409 847
606.51-13777 32806 28479 38873-46894-45709
609.40-52324-4722 9515 37208 43486 57967
612.29-32327-5504-494 35797-6672 13027
615.19-45781-9867 14091 21630-33487 37788
618.08 96306 103443 56171 105814 77675 74275
620.97 97114 190262 169756 125413 37132 77935
623.86 98814 145583 134300 164684 135193 207890
626.76 193909 189046 122722 138280 115508 140669
629.65 123072 166001 194852 205177 141427 142873
632.54 98729 102207 41912 79401 38965 60031
635.44 37466 59308 33045 58053 19747 6424
638.33-12218 34539-5619 7192-15720 36860
641.22 17085 61424 41843 63789 4342 32720
644.11-15466-11880-38368 18796-209 11545
647.01-41666-8544-14985 28150-16227-2344
649.90-3923 54031 16677 58620 14192 30026
652.79-18754-845-30789 595-11807 19656
655.68-8974 39687 10337 73486 43942 40733
658.58-29279 7287 13732 55324 14392-3687
661.47-41241 5742-24062 18243-21725 8855
664.36-4909 27184-12777 17944-11738-6455
667.26-50674 12311 15215 6380-70703 4704
670.15-6759 31021-196 24714-50019-19691
673.04-22250 51350 31725 65439 26923 45785
675.93-24211-3270-58580-4580-1359 47771
678.83 15263 15950-53699 30233 11574 45965
681.72-4570 16279-3695 47293 142 45574
684.61-26462-15671-60867-7822-22352 21153
687.50-12320 46307 23991 84921 5961 30160
690.40-2872 31128-18044 48623 15953 47142
693.29-804 39413-17748 11392-23901 63120
696.18 48083 78954 35252 53008-23229 20207
699.08-2143 60318 12807 80548 40418 73259
701.97 9204 39769-21243 45376 12590 57334
704.86 33737 77492 19519 53140-5547 59887
707.75 18658 73172 38000 73130 15781 68321
710.65-4963 61592 33833 79734 28941 114622
713.54 42840 64103 1389 55084 27356 77016
716.43-335 72960 42000 99851 44046 99792
719.32 27333 96095 52574 98642 63967 173762
722.22 127958 190520 142946 193986 136468 221380
725.11 175411 266470 245151 336146 288974 355994
728.00 310170 418610 379367 457302 419999 556386
730.90 556601 662095 638888 762034 767609 912254
733.79 912939 1064543 1107095 1294788 1338807 1537252
736.68 1622599 1879279 1998856 2262220 2402863 2697191
739.57 2879637 3248394 3462928 3878641 4215404 4746894
742.47 5135391 5722108 6168458 6799944 7239368 7881433
745.36 8391077 9155509 9845395 10837512 11807381 13063116
748.25 14117757 15268920 16098841 17109102 18102490 19570126
751.14 21109150 22838218 24183024 25590241 26915247 28813687
754.04 30947730 33670284 35864871 37561509 38617494 40010721
756.93 41754938 44458721 47482264 51046752 53023590 53060528
759.82 53810033 56444047 58889229 60888616 60432697 60161588
762.72 61323035 64715459 72484158 79479353 78031686 73323899
765.61 70165480 69586375 71995027 77854111 82915885 93052802
768.50 103293227 108165223 98348474 80350156 69810664 69861595
771.39 78897369 100067612 134296222 145469625 111075054 89217030
774.29 88945078 91706776 94137720 96951977 99558202 102292549
777.18 104365227 106510119 107871760 108781632 108609510 108321667
780.07 106968880 105348757 102377855 99297048 94986987 90585019
782.96 85273573 80448208 75150155 72002045 70193081 72195509
785.86 77041760 86099511 97356271 113444261 133023598 159334566
788.75 190976179 229693440 274860637 329203731 388935298 452326114
791.64 520534611 595745290 664006439 720420020 751187892 762639245
794.54 774689364 776797305 756059526 721269837 680683976 639660356
797.43 574054819 504573448 406642439 331593588 299539079 272817376
800.32 242780634 211207978 176218251 143230544 124496306 108000095
803.21 94466728 79573481 68745213 59155141 51739396 43988763
806.11 38311222 32508185 28219683 23787055 20760480 17487888
809.00 15405764 13003473 11604870 9860524 8956364 7610498
811.89 7006020 5989514 5631719 4834457 4622361 3974628
814.78 3832726 3247719 3183217 2698620 2692353 2289123
817.68 2303484 1908894 1889387 1490245 1520587 1240703
820.57 1309872 1045007 1158353 918896 985421 768835
823.46 865779 640058 710752 501355 628143 453069
826.36 542885 363450 444129 272689 399877 260327
829.25 361038 198520 298773 154410 263555 136398
832.14 260850 95397 193446 76237 179486 46863
835.03 167760 78307 191932 82915 162860 19857
837.93 118464 20874 117838 5307 117555 44192
840.82 124110 3793 90691-2423 98265 8652
843.71 101498 37936 115569 34410 119854 23920
846.60 108552 13712 94643 27687 112616 29702
849.50 110676 38922 117531-1613 53013-3339
852.39 104602 36170 121349 46681 117526 12920
855.28 66482-8695 76079 24765 110089 50554
858.18 106236 10712 74232 1784 74406 23600
861.07 95298 32961 91857 21311 88057 19546
863.96 70984 12398 72089 12967 91045 36424
866.85 90860 30294 105354 44584 91608 32111
869.75 123159 73243 125526 58991 104882 48045
872.64 102227 63431 127263 59494 118621 78770
875.53 128971 65472 118374 59679 103584 61109
878.42 125759 77275 139997 86059 122290 75071
881.32 121027 73058 138917 78640 120193 85942
884.21 127888 66097 114303 76807 120306 57431
887.10 103826 58661 111152 68807 101004 46299
889.99 98315 40214 72116 44230 102380 57501
892.89 108209 66946 108347 47023 78673 32196
895.78 84522 34520 77625 50128 91427 45419
898.67 81322 27641 66367 17745 65787 41935
901.57 93212 40726 68795 28731 70390 27784
904.46 59597 17624 65826 25697 56280 22600
907.35 58457 19951 48150-4445 42144 15211
910.24 67386 27921 53452 5729 31778-877
913.14 49090 7491 38957 14073 48786 4030
916.03 44501 8739 33597-7255 25593-13644
918.92 16232-5044 20437-23689 12577-26415
921.81 14795 5116 53950 6885 26466-552
924.71 31375-9386 13342-9096 22432-5599
927.60 37016 7155 41875-426 10403-22179
930.49 20039-7938 35894 14422 40827 5566
933.39 39115 5059 22392-13294 15549-10126
936.28 27805-5156 30202-873 23176-9542
939.17 22909-4639 33905 6984 34526 4256
942.06 34091 2197 23391-3727 27818-1101
944.96 38197 13707 55093 22884 39568 11664
947.85 39524 11991 49325 21889 45157 17054
950.74 41488 6411 29269-9750 16166 190
953.63 41149 22543 54501 37389 57738 23442
956.53 56571 30344 63306 43347 70880 46355
959.42 66314 33576 65067 42212 76371 66780
962.31 101246 82819 120884 104755 133627 105167
965.21 136788 121198 148399 125107 165985 163444
968.10 206394 189295 206361 168374 201211 194725
970.99 235777 218631 250356 240480 281702 265885
973.88 297076 278873 309984 283669 310345 299377
976.78 331650 311949 341659 307223 331423 306013
979.67 333458 324701 359838 337766 353553 318592
982.56 336175 325458 355609 336153 370794 355197
985.45 371397 334265 339038 288719 281133 271287
988.35 319499 329759 387647 392655 416164 340438
991.24 319746 303079 332635 327709 374631 386222
994.13 420604 411182 449499 435023 466983 461875
997.03 494529 484486 517890 513382 557289 557803
999.92 586132 563765 590101 581710 615523 612494
1002.81 664015 667751 689253 675575 701287 690183
1005.70 715709 702483 730965 732104 767721 737863
1008.60 739041 713252 735717 717782 738743 721819
1011.49 735171 706247 713268 668152 687474 684828
1014.38 705998 663392 655289 628726 652876 637849
1017.27 649304 610148 607573 564964 569200 535313
1020.17 526133 486739 485378 430228 407412 365185
1023.06 369039 327196 338140 317157 315095 265085
1025.95 249364 207259 209785 168585 173816 158441
1028.85 169544 140645 138725 98547 95322 54528
1031.74 57032 31819 52331 38791 51193 21379
1034.63 24008 3072 13314-16236-453-15858
1037.52 1305-15348 3167-24309-19695-38649
1040.42-400-4621 9086-21400-13292-16554
1043.31 9269-18947-8135-21311-3675-28282
1046.20-7247-11295 11921-4187 3839-21214
1049.09-10092-27130-6697-14496 12488 9858
1051.99 31707 14177 17508-19644-7889-17857
1054.88 14612 13792 33042 2 13368-2653
1057.77 20191 21522 40107 23085 28924 25186
1060.67 57560 32259 44365 49284 60221 40886
1063.56 65622 54239 72591 59845 74677 63013
1066.45 76922 56849 75765 76940 105658 76591
1069.34 77735 52987 68110 47371 58541 57941
1072.24 72470 64736 106802 97420 100232 63200
1075.13 63266 38080 61684 59673 72660 66425
1078.02 92502 62743 58691 36497 49908 33235
1080.91 54346 30266 36227 21765 41869 22858
1083.81 16813-6278 21701 17368 35436 15524
1086.70 22425 8776 7395-10682 3778-6754
1089.59 14262 10232 26846 19307 39165 11817
1092.49 9730-7866-2052-17809 15056 12187
1095.38 18785 14335 33785 17971 31796 23751
1098.27 48349 34040 42404 29197 44684 32075
1101.16 42681 23809 32022 20151 41275 38951
1104.06 65758 45645 44690 29688 46545 34158
1106.95 54887 54315 64523 41628 57906 40763
1109.84 55978 52786 78003 61520 75528 71625
1112.73 76615 62210 83349 67796 77538 61480
1115.63 80306 85011 109139 81542 84534 59598
1118.52 56199 40184 47502 36090 61836 49668
1121.41 49702 28354 37106 19894 21202 3026
1124.31 30235 32335 36937 29996 47979 18444
1127.20 11920-20454-19816-28040-8817-12303
1130.09 5392-11177-17677-51740-43363-50241
1132.98-12311-14159-14704-40793-32578-45508
1135.88-35257-56891-57114-61042-43815-46677
1138.77-23227-40315-40954-55666-51772-65449
1141.66-39589-48078-32267-34156-9148-34417
1144.55-40339-59014-51181-55158-32664-41117
1147.45-28498-36872-22657-46927-44243-52969
1150.34-34957-36602-16168-17764-16197-41616
1153.23-26579-35129-27187-40059-23067-30097
1156.13-7615-14489-13697-42152-25488-32661
1159.02-27137-41117-21496-18843 1649-16321
1161.91-15000-32629-26815-35655-17955-32795
1164.80-11104-4453 12513-14836-21711-29229
1167.70-12719-16308-8593-15559 1887-125
1170.59 4837-18874-11554-17942 6900 1455
1173.48 10659 798 13578 3967 5058-15719
1176.37-668-972 8548 6531 31636 23162
1179.27 18307 681 2962-12331 938-3817
1182.16 10759 8147 34195 19432 13439-6730
1185.05 1859-3531 27504 36824 51523 31217
1187.95 32761 18971 12350 233 32145 33376
1190.84 49544 39648 52123 43459 38790 31656
1193.73 42324 31852 50879 50169 71372 58214
1196.62 74567 72568 70436 51931 71934 60271
1199.52 75631 82948 101403 79859 92054 79058
1202.41 89172 92624 112170 106483 125000 122808
1205.30 137160 123475 125957 119130 146165 152240
1208.19 179963 182043 199315 179001 177397 163926
1211.09 174677 169834 190313 190538 217797 220875
1213.98 231917 223894 240888 235329 253010 262198
1216.87 291906 291823 302259 280658 273562 256458
1219.77 252499 231836 258130 280358 316641 327162
1222.66 339242 328703 349784 350862 370278 377853
1225.55 379220 319291 289674 268527 266013 231759
1228.44 225158 224873 262949 297990 360060 407234
1231.34 452976 393933 304689 240174 234167 230973
1234.23 255912 256530 267207 251396 263445 250517
1237.12 264484 268547 295928 306464 321808 317555
1240.01 336537 322805 321219 297922 295138 287086
1242.91 316099 334976 363402 369759 394043 402988
1245.80 441544 459823 493852 506039 543597 560811
1248.69 592368 595257 608633 625442 681110 711006
1251.59 757558 778416 823301 840583 880385 883480
1254.48 890435 881001 877961 904508 954916 957919
1257.37 954722 924649 903927 856853 827733 765506
1260.26 715653 708697 751276 745312 745714 711787
1263.16 680960 624727 549389 390929 285843 271871
1266.05 303870 305692 307074 275672 263991 244591
1268.94 241121 218048 202896 179148 174856 149161
1271.83 148713 145079 157240 160456 165146 151641
1274.73 168940 156163 166537 161039 159727 149799
1277.62 157440 163420 163200 142681 138322 117574
1280.51 110957 101875 122554 117399 126994 121476
1283.41 135199 127435 112338 82620 81618 75835
1286.30 76344 58255 79793 81619 78896 52588
1289.19 44933 23226 25367 19937 29542 30185
1292.08 45565 30405 28130 17506 20193 11389
1294.98 16477 1865 11999 37 6015-6459
1297.87-3481-13005-2337-11802 10786 10161
1300.76 12737 1948 3934-15852-13145-21484
1303.65-9882-11385-5855-13931-5611-24249
1306.55-35921-46848-26822-32210-27317-29720
1309.44-14292-19825-10618-28355-29611-34811
1312.33-19212-21304-20996-30545-24858-34339
1315.23-27437-44135-39919-50822-42826-47492
1318.12-35666-37804-28146-37789-35696-48156
1321.01-30184-29801-22194-27152-19985-30699
1323.90-21169-32896-29579-45489-34701-24824
1326.80-10937-24885-20832-34426-37296-56575
1329.69-44065-39564-22923-26426-3695-14768
1332.58-23512-29901-25958-49711-37248-27462
1335.47-6043-20470-22808-23458-21653-49648
1338.37-49309-46305-31098-37662-16840-19264
1341.26-12346-24684-25079-43760-37034-34475
1344.15-10580-13341 1219-10548-22102-43997
1347.05-43663-51460-38944-33663-17672-28866
1349.94-24460-39898-51375-74109-52523-30657
1352.83-16332-9614 23209 30891 39632 46417
1355.72 47518 29460 22517 14960 40309 23510
1358.62 3588-19761-32353-53170-40696-23866
1361.51-15464-28438-27906-36861-14642-4682
1364.40 5717-2658 5942-9066 6765 11864
1367.29 26085 18771 16196-7525-11453-11521
1370.19 12538 9694 14347 7577 9460-16432
1373.08-20486-21293 2646-5007 20064 30729
1375.97 28895 12999 13719 6646 22692-2841
1378.87-6769 6928 27611 33144 36670 8574
1381.76 4604-1783 3407 4122 22967 17298
1384.65 14418 2044 2579-18162-34354-66870
1387.54-23186-8457 5025 4394 7674-2616
1390.44 10084-107-500-11214 3321-5863
1393.33-14299-64724-41111-17317-27862-32496
1396.22-8607-11336-6845-8082-16763-70008
1399.11-52143-26661-15291-19544-280-911
1402.01 3091-12513-16320-35335-39219-65173
1404.90-48845-22696-9186-15672-7087-16208
1407.79-23344-33333-31975-30954-14941-21165
1410.69-4461 258-6845-28174-27882-36171
1413.58-32220-36721-15243-19165-18865-28757
1416.47-36209-60863-46585-47814-92166-171175
1419.36-92614-21700-15852-25440-19897-34709
1422.26-28379-32606-27548-28736-17381-30503
1425.15-28777-33826-26158-33737-29884-32125
1428.04-21080-24724-34904-57230-37134-32101
1430.93-22349-30902-23832-20688-14322-32361
1433.83-31850-39813-40403-46903-104172-179407
1436.72-95093-24734-15181-26717-25599-37889
1439.61-30708-30623-18540-15337-7055-18049
1442.51-15753-19769-24565-40146-35364-29135
1445.40-12162-18290-18753-36160-67748-76103
1448.29-47632-38945-26180-31042-22322-27056
1451.18-27768-47353-42396-48375-36573-35267
1454.08-25513-41075-43251-83191-206694-259430
1456.97-129310-101694-90489-59908-40604-26302
1459.86-13176-28753-33928-44376-36284-32594
1462.75-14469-18157-33825-97691-88056-39884
1465.65-26838-39570-24470-20692-12046-9659
1468.54-9009-28542-27264-35016-43034-84896
1471.43-127313-98868-61872-125179-97202-47415
1474.33-32095-40092-53655-72170-32424-15939
1477.22-12057-22938-25023-25712-18332-24515
1480.11-21869-32076-20882-21136-16144-24672
1483.00-23090-31200-19811-11825 5493-6478
1485.90-11400-47329-77823-60021-30678-36342
1488.79-34845-54487-42742-60330-36889-20010
1491.68-12319-9869-3267-397 6607-1156
1494.57-4725-38739-138589-136201-31088-10814
1497.47 3115-28703-42618-5240 23566 8607
1500.36 8198 4303 16424 31009 44276 39235
1503.25 42290 30749 13720-97885-168662-76588
1506.15-102175-157903-31022 27312 24337 30182
1509.04 35236 31421 54891 68730 85463 53418
1511.93 51338 84831 90665 82630 83506 75320
1514.82 101084 117639 106696 76884 64767 67664
1517.72 105641 112689 123225 101529 77128 58722
1520.61-26924 3098 110852 86227 121252 157399
1523.50 175858 173213 159061 118184 154788 177208
1526.39 168607 150093 179783 178115 194377 221145
1529.29 244291 249521 263609 251823 249646 244368
1532.18 236619 204338 186970 200819 268020 277251
1535.07 291800 298784 331689 355358 391149 393168
1537.97 337943 192425 252124 282897 268429 391005
1540.86 453423 382014 400337 515970 549855 553632
1543.75 570244 548130 545734 616991 680711 708109
1546.64 745134 763520 777957 786269 806309 804753
1549.54 815053 842319 896148 925472 952611 958834
1552.43 976074 977030 947069 910765 1018629 1089676
1555.32 1123194 1125591 1118407 1039472 1006263 944288
1558.21 970079 1114521 1095677 1037814 1147592 1272857
1561.11 1304811 1283988 1278761 1298966 1312936 1325602
1564.00 1339586 1360802 1401326 1421141 1429667 1418060
1566.89 1382807 1350538 1318535 1274471 1246353 1226420
1569.79 1291350 1340704 1345344 1326912 1308696 1267696
1572.68 1233000 1208159 1191165 1176645 1176986 1110991
1575.57 972355 1056501 1216360 1234638 1234129 1214024
1578.46 1196446 1172773 1162933 1152125 1156019 1149677
1581.36 1146386 1132003 1121779 1101420 1110762 1105919
1584.25 1104570 1122745 1118677 1085911 1076161 1072857
1587.14 1069317 1058014 1066965 1047727 1042774 1053257
1590.03 1055836 1051935 1085467 1083790 1036812 997225
1592.93 993164 998622 1004486 996911 1018057 1015533
1595.82 988840 937729 914519 930923 942553 918478
1598.71 913449 899209 883763 854919 830020 810307
1601.61 801482 779562 756618 732767 722577 698799
1604.50 669373 633480 612046 583492 555539 530776
1607.39 523553 503157 481244 440920 418970 395015
1610.28 374224 352739 348410 329423 314583 291349
1613.18 267963 238738 224607 212047 191682 105047
1616.07-46817-13881 112522 122821 116257 95256
1618.96 91552 80886 80927 74061 69947 59770
1621.85 49122 9823-40436-51559-336 11086
1624.75 21894 11619 14175-4179-19623-57463
1627.64-45854-27701-15788-19407-15874-17466
1630.53-11448-25409-28074-31460-24019-28941
1633.43-24134-54617-108559-210565-210218-91211
1636.32-44090-59170-52835-33535-21844-21201
1639.21-15487-24416-28221-34949-27318-25374
1642.10-13085-12154-14300-21917-24775-42834
1645.00-112860-195155-110479-56715-70702-68959
1647.89-65373-38680-26062-24861-30432-37932
1650.78-42485-101458-265161-329084-352638-241760
1653.67-130521-131882-61966-41501-26647-33038
1656.57-23160-39898-43296-51643-37293-39847
1659.46-31307-37971-33342-44269-47486-91471
1662.35-120052-78745-36312-37059-32286-39716
1665.25-35228-42410-37726-52494-53676-62155
1668.14-71088-138208-134230-69264-47130-69913
1671.03-81346-57438-40020-39701-33948-42890
1673.92-62520-145548-179331-101989-50979-49325
1676.82-42704-41658-40345-47843-52072-67203
1679.71-61674-52847-37906-44881-44108-72360
1682.60-113687-131599-149092-300312-323614-127903
1685.49-55472-50177-46742-46013-58236-64581
1688.39-49259-52622-71455-64964-45528-39814
1691.28-39211-42664-44266-49610-49354-49596
1694.17-56685-120388-300305-315118-120289-69054
1697.07-63562-55319-56657-84768-172839-282656
1699.96-271381-203462-99010-61171-46539-55910
1702.85-51896-68108-91808-79336-45884-66595
1705.74-94463-80090-46909-44524-37333-45536
1708.64-43393-51364-59808-64216-50649-50497
1711.53-43284-46151-41422-59265-67739-73025
1714.42-105796-109758-53514-58862-119183-252038
1717.31-176171-110143-121970-80726-49610-50425
1720.21-43693-44579-43681-45295-40843-50609
1723.10-47819-41559-41058-49390-45591-43966
1725.99-33292-41031-39263-34449-31967-44383
1728.89-47014-70833-69708-58866-53853-56471
1731.78-57680-96563-190598-179032-177789-216932
1734.67-107597-54723-40946-46990-41918-54264
1737.56-51396-52293-53412-112892-130528-72775
1740.46-37225-42307-44898-52588-58077-65404
1743.35-44674-43219-42353-44517-43084-49445
1746.24-50414-62499-53669-65938-74511-67896
1749.13-49702-48714-70390-141665-141731-77777
1752.03-47983-45659-37563-34486-28033-35589
1754.92-39139-44380-59466-82679-54788-44127
1757.81-35323-40639-38117-38739-38162-44648
1760.71-61832-108515-85881-39380-29783-30354
1763.60-23892-31236-27989-22741-15635-22457
1766.49-17970-32702-73843-72678-25084-14793
1769.38-5806-15352-34062-59714-35328-94880
1772.28-153087-64617-4675-5178 3330-4599
1775.17-7693 2403 12593 9469 11449 5003
1778.06 12284 13887 17462 6332-5793-9565
1780.95 11035 15442 18838 11095 20572 19779
1783.85 14978-17045-11101 1226 9200 6618
1786.74 4455-12-3768-8281 3299 1882
1789.63 1218-28327-35892-20298-32115-100295
1792.53-73342-6990 23093 26768 24549 12517
1795.42 16391 23078 24273 18448 29883 27336
1798.31 21844-8017-15879 10743 21190 9133
1801.20 12580 2870 3594 7857 13878 15815
1804.10 20756 16207 14215 10321 11995 4781
1806.99-2450-4154 8284 4903-3288-9079
1809.88-14835-23551-17550-24432-23648-22955
1812.77-19915-23576-21363-24828-24146-30911
1815.67-29442-32511-34938-37555-30503-33696
1818.56-35713-43871-34242-30866-28802-42435
1821.45-46197-39891-33727-38614-33760-41668
1824.35-70364-85201-51111-40168-36927-41882
1827.24-35258-36789-48197-68348-81398-99373
1830.13-67306-44146-34331-39040-39958-40743
1833.02-36197-43202-46200-48240-40301-42770
1835.92-41479-48920-47117-38971-33620-40478
1838.81-38283-42867-48272-54508-47086-44440
1841.70-44341-43793-48028-87468-143009-108205
1844.59-44308-34224-31731-38037-39111-57088
1847.49-57465-45369-31435-36425-33769-36856
1850.38-34312-33699-36797-46528-35935-32032
1853.27-28374-40669-39520-38331-31195-35449
1856.17-34734-29892-21416-22878-28623-37778
1859.06-39075-37644-30280-39631-42620-45295
1861.95-36040-27924-24891-25441-24699-40525
1864.84-40095-39723-39161-36189-36596-51368
1867.74-46807-51278-78496-74655-43295-39431
1870.63-31996-34679-35074-40311-40358-49684
1873.52-47834-49409-42450-34160-30136-36029
1876.41-32541-36168-37321-43351-38031-32869
1879.31-27542-35209-34723-37678-46552-56440
1882.20-56785-52900-46088-44258-42899-45927
1885.09-51549-60655-49732-46729-39622-45300
1887.99-44637-56214-70339-66705-47893-50365
1890.88-49473-50787-45695-46277-39083-39231
1893.77-44255-58588-61405-61229-53822-51071
1896.66-42816-50426-51139-56110-52457-51683
1899.56-43589-53234-53462-59676-60554-56824
1902.45-42945-44881-53743-58853-50460-45936
1905.34-39540-42571-42325-43176-43283-53120
1908.23-51725-48746-47677-54491-41472-37517
1911.13-29241-26252-31600-40698-36657-36168
1914.02-32024-33416-30998-37203-35832-48470
1916.91-55456-76335-62491-45089-41902-42036
1919.81-38584-49285-53024-58785-71754-84006
1922.70-77717-71931-65817-62213-62631-63668
1925.59-53426-53020-54236-53732-46036-46534
1928.48-45952-47478-43478-53489-53801-52366
1931.38-51968-58296-46973-39704-47316-57791
1934.27-58040-61104-54130-54461-50395-55517
1937.16-48511-46349-41854-47258-54880-60430
1940.05-55293-53844-51874-57408-67688-69868
1942.95-63247-67496-60294-55404-53338-54437
1945.84-44248-41534-40357-46899-53154-59413
1948.73-50518-48693-42875-42401-38345-46057
1951.63-51776-54969-53223-59867-49999-41853
1954.52-31236-39359-45557-53521-49891-55150
1957.41-49241-43190-39645-42993-38676-40817
1960.30-41216-48760-45224-40366-37785-47140
1963.20-47632-48212-45651-44751-45948-53907
1966.09-50196-51144-53654-40787-30700-35346
1968.98-33849-40474-41507-44586-43178-45240
1971.87-44634-45509-53055-73475-90161-63626
1974.77-18824-24877-25896-34500-33537-36292
1977.66-36814-45975-41516-40658-33105-32435
1980.55-30653-35972-36352-31334-34297-49477
1983.45-44336-44200-41729-44932-40174-35894
1986.34-31320-33242-29873-31381-35400-45481
1989.23-37463-35147-36059-39299-46973-42940
1992.12-32934-36031-24781-25944-29603-38566
1995.02-38583-42886-41625-37342-26628-26778
1997.91-23219-24888-27784-36678-32668-31521
2000.80-29174-34962-29830-27253-20246-19806
2003.69-26800-33524-35992-44205-38914-39413
2006.59-38316-38681-28379-31023-32095-37456
2009.48-34434-30389-24972-22912-22805-29095
2012.37-35903-40577-35947-37089-28709-26227
2015.27-25903-26060-25705-30155-29170-41155
2018.16-43872-42915-33838-33557-30470-30620
2021.05-29398-37092-37919-38018-35284-33414
2023.94-23419-29954-34332-36081-28492-36741
2026.84-41098-43252-34096-32335-29691-36580
2029.73-38467-42968-45089-47178-39789-36970
2032.62-36252-42711-35865-38028-39977-42979
2035.51-41138-43173-35746-31235-31165-37739
2038.41-35180-37243-38203-41718-46859-45596
2041.30-36038-42930-38673-30531-28337-38308
2044.19-44698-49895-41381-38619-37626-41430
2047.09-41875-46028-49844-51810-48691-47526
2049.98-41964-33646-29772-33727-33248-41291
2052.87-42786-46634-41337-46625-43826-42161
2055.76-37064-41111-44285-48255-49547-52093
2058.66-39451-36550-32480-39664-44637-54310
2061.55-53505-55336-46458-43889-40230-45848
2064.44-47538-44132-44443-47987-46855-53806
2067.33-49622-43461-36084-42863-46898-49763
2070.23-50964-48964-45472-52584-45080-39189
2073.12-44930-52645-50296-51350-46179-47900
2076.01-41619-42580-37337-37545-47251-51475
2078.91-50458-48052-47821-53394-48220-34742
2081.80-24744-38623-42842-48824-56457-57015
2084.69-48367-38346-22434-33927-51494-53229
2087.58-49677-52218-51470-49335-44201-30688
2090.48-31761-43293-49163-55029-52449-56125
2093.37-46228-32321-12324-25102-42001-55247
2096.26-57810-57872-46189-41106-18617-1335
2099.15-23302-41760-41799-45848-52956-55744
2102.05-49662-21808-12843-38943-41644-48463
2104.94-49264-52755-51191-35249-3722-17143
2107.83-39421-43866-45399-49651-43450-42671
2110.73-11981 3372-22116-34930-39647-40873
2113.62-41364-45777-30041 1752-15572-41693
2116.51-41870-41941-36063-36571-33567-3353
2119.40 1311-31916-41144-37846-30538-32971
2122.30-33400-9583 12881-31694-48675-52904
2125.19-50551-47540-39799-23819 5798-16538
2128.08-35382-39223-39234-44147-39831-36797
2130.97-19902-29274-41736-44351-42816-42462
2133.87-38192-33903-17059-14994-27557-35218
2136.76-31001-34822-33074-30557-22239-26035
2139.65-40712-51203-50340-52801-43205-41613
2142.55-42262-44523-41287-40396-42310-41804
2145.44-36101-29482-20468-30547-41989-49038
2148.33-50014-45295-36467-31981-18229-27132
2151.22-42051-44071-39298-38779-42660-29721
2154.12-10108-23121-34345-43265-38218-35955
2157.01-29159-2320 6496-25179-35727-44676
2159.90-42278-40513-28372 390-6577-36665
2162.79-37875-40542-38335-41198-3893 17856
2165.69-15460-32018-33593-34944-37380-28489
2168.58 14171 1470-30036-38148-42782-41574
2171.47-27318 7946 19971-19972-36833-33834
2174.37-25879-27036-2200 13671-15860-33820
2177.26-32335-22075-20796-7482 20901 5539
2180.15-22660-29417-25735-21837-1804 25709
2183.04 23655-9625-6159 819-6349 5333
2185.94 30701 23578-2658-7691-9428-13721
2188.83 6639 24409 29073 3398 14127 14895
2191.72 20035 25940 40900 53712 28091 36460
2194.61 22599 47382 44505 71629 52393 51864
2197.51 37544 37679 42046 63950 86883 71519
2200.40 75124 67140 77294 67618 91619 83795
2203.29 89788 72102 82116 69713 92488 86444
2206.19 93509 75630 98263 91469 103022 100163
2209.08 109390 83932 94847 93886 106542 94869
2211.97 104789 90740 92143 86493 94936 90482
2214.86 97406 89121 83814 75151 77242 65699
2217.76 61818 60463 62937 46981 44130 32965
2220.65 30144 20724 14856-1984-11457-25417
2223.54-16625-13070-3296 11524 29325 36670
2226.43 47250 51135 57813 51599 62366 78742
2229.33 98889 105448 109782 103247 112424 122051
2232.22 127954 133755 141382 141087 146466 145148
2235.11 149964 145197 144121 138816 137744 139186
2238.01 150102 144877 146020 144808 139548 127656
2240.90 123229 112887 114022 108154 103006 97506
2243.79 91604 79548 73277 59295 51676 45089
2246.68 47235 48546 41224 27306 16232 7914
2249.58 8406 5930 13679 9387 3961-3496
2252.47-13462-23118-19655-26066-29267-36240
2255.36-36268-36408-27854-31655-35879-43544
2258.25-42650-40704-46729-53794-42085-37794
2261.15-42491-50668-47537-40917-32033-39745
2264.04-42351-50932-44756-38523-41356-54342
2266.93-54482-51481-43603-47065-45924-51408
2269.83-49475-42587-36178-41020-40833-48984
2272.72-51526-47410-43751-50001-41992-40071
2275.61-45250-49744-47765-48396-41279-46024
2278.50-46832-48109-44672-46060-44359-48043
2281.40-42508-44521-47712-44799-37580-42014
2284.29-38759-40732-42793-43911-39946-41606
2287.18-38006-37531-39252-48472-41566-42257
2290.07-46752-45569-30363-26642-27489-34244
2292.97-40942-49244-48826-41153-34159-32145
2295.86-27201-33053-34425-33942-26903-27896
2298.75-28270-31402-32243-39833-38078-34328
2301.65-30453-28168-27160-29404-33268-38713
2304.54-36658-35705-30094-31549-26205-27246
2307.43-22173-19129-23752-26001-17488-11720
2310.32-4857-11013-17851-23916-18991-12856
2313.22-6366-4575-11287-18696-6788-12972
2316.11-16945-18240-1767 8118 9529 1503
2319.00 2015-681-3796-6561 668 3851
2321.89 6321-8238-12116-3560 386-14896
2324.79-15525-9265-5196 1912 18494 16109
2327.68 10904 2847 11063 17862 12606 2796
2330.57 4985-602-11936-17414-603 6371
2333.47-7586-9086 10874 5788-2338 5226
2336.36 14780 2930 211 10047 10554 546
2339.25 14674 23381 4625-2595 14239 11319
2342.14-2025-811 11315 7448 10824 8284
2345.04 6521-931 123 264-6639-5799
2347.93-2486-9257-10659-10077-11504-15931
2350.82-21515-17150-12908-25660-25374-26334
2353.71-36148-42472-41055-41304-33596-32092
2356.61-43113-51191-47007-53976-47215-39467
2359.50-49659-52629-39727-47258-41604-47267
2362.39-55815-49557-52550-49393-42544-57150
2365.29-53013-49132-52029-44441-40610-38748
2368.18-39033-41837-31672-34677-34393-40285
2371.07-36369-30040-34741-35900-34567-36804
2373.96-35305-38581-39884-47917-41139-37555
2376.86-36021-34647-31437-33642-35266-38277
2379.75-35823-31531-29127-38728-41943-43581
2382.64-39310-38192-36052-35678-37796-41431
2385.53-37172-32304-31572-40657-40145-36686
2388.43-35831-36210-36691-40262-44558-43624
2391.32-45408-47796-40775-36463-39971-49079
2394.21-45421-40992-40948-48698-49701-48567
2397.11-44793-47378-45889-46323-42901-44474
2400.00-45878-46365-46620-52179-53732-49212
2402.89-44120-43307-36272-42214-45523-42685
2405.78-44971-46921-47135-52804-52766-54439
2408.68-47846-42851-44946-47390-51317-57878
2411.57-56187-51429-50641-52596-49491-54105
2414.46-49022-43405-46677-51719-47855-48581
2417.35-48042-48182-47947-50427-49985-55333
2420.25-56808-57262-55651-59198-56398-55996
2423.14-49425-48935-54306-57116-54865-56223
2426.03-55301-59208-63802-67428-57013-50636
2428.93-43639-45440-55499-58979-54763-55965
2431.82-50451-50071-55028-56808-62749-72518
2434.71-67947-62201-61776-70627-68861-66608
2437.60-56221-54452-49241-52536-53286-53129
2440.50-53393-47920-50839-63442-60301-57144
2443.39-59034-62098-63912-61291-56541-59382
2446.28-61724-61748-59059-56827-61362-63610
2449.17-56127-55985-54856-53673-56421-63782
2452.07-57020-51670-48767-52124-55254-59183
2454.96-57483-54420-51114-52532-48955-50672
2457.85-59549-62517-60887-57166-53068-57706
2460.75-57909-56677-55152-63841-61885-56781
2463.64-55954-50597-46679-48846-54134-54160
2466.53-54120-57626-63921-67782-59417-54298
2469.42-54520-59855-64800-63372-56581-62603
2472.32-64352-62601-66464-69804-70322-67383
2475.21-60394-54505-49771-55563-60305-61913
2478.10-57421-55712-58119-57873-52777-47734
2480.99-47501-53666-57056-62403-58902-44829
2483.89-41590-48106-50406-55415-52790-55563
2486.78-59542-63888-59193-57642-54940-56840
2489.67-54238-54981-52332-54988-59691-62935
2492.57-62214-55027-56196-61739-61507-61710
2495.46-60584-63668-60284-58125-53299-55991
2498.35-60450-63218-61500-58154-64066-68144
2501.24-58168-59073-66346-66672-62696-66065
2504.14-64438-63877-74670-82674-76412-68860
2507.03-60067-62845-67766-75731-71948-73824
2509.92-67499-63115-67052-65762-65061-68852
2512.81-73732-74080-67274-64315-65668-71692
2515.71-74735-71764-69037-68957-68156-70489
2518.60-68863-63668-64385-68798-64789-75154
2521.49-79409-77265-75005-66890-60053-57492
2524.39-58326-66400-71287-77296-74464-70416
2527.28-66873-67098-65124-66030-69562-77556
2530.17-76963-71672-64172-62149-63586-61678
2533.06-67356-73387-70181-74491-75231-78102
2535.96-70756-61266-61290-70458-73558-75927
2538.85-72218-74275-75151-74747-67870-64873
2541.74-65098-72572-76613-75459-73962-75561
2544.63-70812-72526-69224-65072-68032-70646
2547.53-63481-63182-64123-59716-61337-69981
2550.42-71923-78040-83505-84329-83893-79000
2553.31-78583-75931-66019-60833-54842-63276
2556.21-81157-83004-79541-82534-82684-73627
2559.10-63008-64898-70676-78811-82479-75760
2561.99-73408-70298-64276-66185-70160-76360
2564.88-79584-78342-76274-76348-76250-75450
2567.78-69451-70157-67771-73241-78607-72118
2570.67-69321-69385-61814-67556-68957-68571
2573.56-69457-67393-71271-78713-77001-72370
2576.45-65350-61110-62888-70170-72721-80744
2579.35-71151-65199-64153-64892-70816-71700
2582.24-67908-69695-72603-76300-74672-71295
2585.13-73969-71507-70198-73938-75461-78231
2588.03-78332-74485-64170-64491-70190-74049
2590.92-68031-66211-73286-80648-76690-73779
2593.81-73659-73444-73070-69241-73958-78433
2596.70-76595-74548-71253-74313-71042-64852
2599.60-69562-75704-74447-76989-72487-71056
2602.49-69910-70486-67883-65474-62475-66992
2605.38-71641-71311-71541-73537-72775-71403
2608.27-73448-81288-80784-74173-67100-68710
2611.17-68320-67826-67629-71700-70882-67151
2614.06-68227-65627-62483-77343-80327-68119
2616.95-70204-69817-66097-76820-73026-70601
2619.85-73748-69516-62225-65918-63197-69130
2622.74-74387-74255-69639-71329-72499-72538
2625.63-77814-81020-71107-74254-77833-76463
2628.52-69519-63428-65179-70145-81486-79383
2631.42-64817-66314-67296-67854-70965-74518
2634.31-74400-75702-64982-66605-72562-78343
2637.20-77918-77022-70296-68965-68479-74571
2640.09-80804-80984-75206-69355-68765-70304
2642.99-71214-79398-75857-75645-72819-74840
2645.88-78961-73484-68100-67134-72984-78876
2648.77-81388-77254-69976-75306-74570-73661
2651.67-83077-87659-79244-81578-84786-79067
2654.56-80023-79998-69219-76173-81802-77660
2657.45-73516-73675-73393-75172-71743-67871
2660.34-70201-69526-70842-80966-85915-79621
2663.24-79828-85421-79743-86397-87178-76981
2666.13-75074-79052-82683-80518-70865-71341
2669.02-77665-85422-79993-76444-80415-79804
2671.91-72558-69004-73401-82448-87128-75568
2674.81-68652-72926-72861-73707-77522-80337
2677.70-80362-93303-91580-77099-84734-87146
2680.59-72768-72162-78274-82946-79420-79493
2683.49-81582-81452-85094-87114-81932-79520
2686.38-80986-82528-81196-88123-88017-84479
2689.27-84656-80135-75504-76478-82888-88584
2692.16-81013-84761-81677-70144-78013-93677
2695.06-97914-86165-86581-88162-87882-85154
2697.95-89595-93765-94883-96830-95014-87219
2700.84-78855-72960-68147-71630-70476-68820
2703.73-68611-65505-68333-77603-81510-83282
2706.63-87751-92605-92829-93598-91856-95636
2709.52-87950-86119-81323-79408-72583-61634
2712.41-72196-81426-79597-80691-84237-81750
2715.31-78229-82225-80876-81029-80955-85039
2718.20-86112-80998-79872-82141-87675-79463
2721.09-70900-75803-90596-93005-80019-77288
2723.98-80917-72546-76653-81899-78330-80091
2726.88-74487-75459-81095-78270-69440-68332
2729.77-82346-86812-85997-85088-76543-72934
2732.66-74741-75490-71122-70010-77578-85785
2735.55-80262-74568-76479-81117-90436-91050
2738.45-86699-83546-78751-72922-73896-81151
2741.34-82949-79955-76582-71751-70464-81640
2744.23-87191-77382-82994-86495-76351-76329
2747.12-88006-86378-77715-71281-72704-80295
2750.02-83145-75861-73592-78025-84658-85960
2752.91-80068-75573-78739-86679-78861-72935
2755.80-73193-73596-79500-75614-73707-78619
2758.70-90005-94027-86481-77213-67422-67548
2761.59-77720-78777-80887-82418-81473-84842
2764.48-85985-86240-87615-81821-74690-81114
2767.37-88788-97971-102313-94727-81694-81170
2770.27-77481-71988-73958-78456-88910-89963
2773.16-82466-84307-85275-84131-84689-84108
2776.05-86531-88482-86715-86230-81872-80858
2778.94-82217-80626-80433-88982-87088-89639
2781.84-96537-92713-77322-78133-77534-74845
2784.73-78188-79404-81898-85134-89168-81446
2787.62-79836-77678-76866-79776-81246-81098
2790.52-85914-88493-85846-83788-84337-81996
2793.41-81709-85830-90720-88304-82610-77169
2796.30-65763-67727-75489-76969-79567-84231
2799.19-92897-96146-97261-87782-84064-90597
2802.09-85107-81925-82418-82698-86820-87780
2804.98-84756-78317-70228-74927-73570-75062
2807.87-84720-86520-76554-75465-79409-80918
2810.76-86140-83599-85539-85765-77108-73532
2813.66-74422-75191-80087-84334-85937-85579
2816.55-87843-81801-77144-74830-77232-80432
2819.44-87040-85352-83576-83088-72945-64552
2822.34-68916-77469-71735-73542-78593-74563
2825.23-78345-83966-80565-79154-75730-71613
2828.12-76067-80291-86608-86877-90298-92074
2831.01-82669-73985-78919-83359-80808-79366
2833.91-79601-82721-84544-69744-55405-59875
2836.80-65331-72011-78700-81290-80240-77652
2839.69-81560-92243-87889-78827-84614-88578
2842.58-84101-82354-83882-71628-63788-70378
2845.48-77343-77675-70692-67197-70232-76521
2848.37-80272-73707-63870-70538-81992-75806
2851.26-73216-79779-84064-85414-80950-67164
2854.16-60719-62751-74519-77895-67441-60838
2857.05-61144-64634-69852-81750-75344-69697
2859.94-76629-87712-81470-67698-70885-75539
2862.83-68142-61156-71733-82607-91088-93616
2865.73-86732-84594-82806-69861-71117-76664
2868.62-82228-80840-74342-70449-70481-73748
2871.51-66880-64071-71997-81437-86287-84354
2874.40-88280-88888-77819-67670-67604-71761
2877.30-74481-75647-83446-84338-71172-67164
2880.19-74971-77216-79834-88850-91034-82852
2883.08-75265-77288-75384-70181-71548-69815
2885.98-67368-77519-79102-78387-80752-78837
2888.87-81090-82640-79102-72550-68680-71240
2891.76-85340-87267-83166-82643-71140-65246
2894.65-74457-86588-92563-102779-92888-74124
2897.55-75520-73288-66815-68252-83504-88103
2900.44-91553-94737-93292-83799-75537-73401
2903.33-78030-79589-77231-81832-94363-95958
2906.22-92099-94991-85786-76568-82846-87806
2909.12-81409-79117-86719-89714-92314-85056
2912.01-74694-73243-74816-79177-89955-92622
2914.90-91355-84024-84255-102454-112973-102411
2917.80-100298-95775-85694-84677-78123-73251
2920.69-83410-77047-82494-92905-87295-83848
2923.58-85725-90889-92600-90037-96484-96466
2926.47-97113-107442-112625-109424-109869-106214
2929.37-97034-99940-103630-99538-94656-86147
2932.26-82949-81470-78914-81579-80915-83868
2935.15-90864-92640-92518-88058-91961-93409
2938.04-96180-104159-97190-83737-85676-93558
2940.94-96411-95183-87097-87464-97209-93242
2943.83-92084-82456-80159-91054-88437-84659
2946.72-102055-111717-103843-101157-97660-87574
2949.62-86974-85576-85310-85187-85590-89159
2952.51-94458-96724-93226-91827-86250-82867
2955.40-79566-80673-88882-95504-90291-92606
2958.29-93430-86344-75741-70418-67342-48164
2961.19-8474-57960-149421-147944-127652-122556
2964.08-114386-100641-99853-92813-87843-78560
2966.97-79058-82258-87484-87033-89844-87304
2969.86-94524-96005-94029-97775-101457-93810
2972.76-97694-112247-108991-87317-79980-95621
2975.65-99877-87616-78168-68585-67461-72687
2978.54-80781-87685-87545-82526-89775-78599
2981.44-80382-93155-90975-81564-86828-94594
2984.33-101794-92580-79684-75744-82989-73887
2987.22-73857-81531-78397-66317-71326-75032
2990.11-78354-74332-69101-69818-72798-71592
2993.01-69129-69992-71617-70427-72647-80516
2995.90-88811-87017-82817-74319-89667-89537
2998.79-77695-76455-79253-70543-71917-74503
3001.68-70566-68635-73317-73272-75452-73920
3004.58-76145-76487-85571-86944-84191-81091
3007.47-82153-85374-83009-74580-67776-67234
3010.36-74915-78229-85862-90175-84770-85982
3013.26-85376-80310-86690-82658-67748-69902
3016.15-83543-90542-94156-99804-90813-82395
3019.04-73715-68604-73282-70438-75977-85451
3021.93-83891-80520-82828-79101-81068-83784
3024.83-88427-86142-72058-69598-71251-68729
3027.72-74794-78975-83918-82419-80568-76092
3030.61-79762-76714-68174-64076-79204-90940
3033.50-88730-87041-88851-89647-86221-83000
3036.40-73604-65458-69863-80416-92512-96901
3039.29-95075-81440-74087-71205-73393-72813
3042.18-78164-78071-81139-77574-69051-61748
3045.08-72072-85099-80522-79473-82594-76322
3047.97-78940-85163-83204-69653-74164-87945
3050.86-93350-81922-83081-87397-90532-89662
3053.75-83985-81121-77223-73570-81323-88065
3056.65-89014-71819-56936-61160-79089-85219
3059.54-80755-64817-65794-71289-71717-74682
3062.43-79381-76899-80195-73428-75189-80880
3065.32-86222-73252-60412-67258-76256-62763
3068.22-46178-51961-65308-69561-67770-64724
3071.11-63079-61277-64761-68790-78692-77705
3074.00-64050-58851-57905-51717-54250-57366
3076.90-59148-71495-77316-62870-59450-61833
3079.79-64484-67599-72511-64569-55802-56244
3082.68-56734-60632-68637-65404-63059-66110
3085.57-59172-53061-59067-68109-68094-58789
3088.47-47112-48784-49445-44594-44575-50079
3091.36-58358-60154-46020-40226-47113-50975
3094.25-55607-53300-54043-55969-55750-34727
3097.14-30934-37986-43683-45160-33748-44706
3100.04-51135-49496-50494-36768-40073-36851
3102.93-38833-36983-31376-25082-26493-33330
3105.82-37446-30027-28827-37378-46076-37969
3108.72-21367-20986-21884-15554-13631-17073
3111.61-18384-20447-28316-26104-17699-13980
3114.50-17649-11591-17552-26571-22904-10214
3117.39-7178-9561-9491-8875-4675-6955
3120.29-13890-11622-13651-11100-14289-11003
3123.18-13800-8007 3588 5603 9865 12492
3126.07 3229-3607-2617 5608 4708 8018
3128.96 7503 6363 1980 12748 6265-5939
3131.86 716 16284 19491 14930 4388 5085
3134.75 17906 28024 26935 29653 24090 19614
3137.64 20869 21186 14641 18978 14244 23432
3140.54 33395 29785 25060 29064 21387 17728
3143.43 12408 23352 34041 19238 12733 25407
3146.32 35831 37526 40022 40746 28286 34857
3149.21 26155 21734 35093 39274 35734 29249
3152.11 27974 42517 56277 60840 49172 41661
3155.00 40272 48729 44342 48178 49338 39162
3157.89 30334 30022 41158 47853 50274 47968
3160.78 40454 40641 40457 40588 43240 50912
3163.68 52856 60011 58849 55677 47008 42878
3166.57 37206 31802 34302 43240 44874 38818
3169.46 46094 55944 53136 43507 38544 49916
3172.36 67601 74537 63595 61399 58895 48671
3175.25 43640 53005 59957 61033 46153 40174
3178.14 45573 51514 49148 55934 54792 50336
3181.03 53108 51384 42185 45779 47774 50021
3183.93 52859 58183 62203 64931 63361 64776
3186.82 60892 60408 46808 47754 48162 55718
3189.71 50078 40353 38013 50189 54690 52242
3192.60 59154 59821 53923 55281 64211 61167
3195.50 56230 53280 41501 46191 49302 60480
3198.39 56196 49121 40185 37032 45028 55557
3201.28 61995 62223 62287 59481 52971 59864
3204.18 67572 65703 51948 55832 67806 64727
3207.07 52605 52400 53402 60742 50547 50806
3209.96 68308 71902 64634 74763 65700 62593
3212.85 61193 55390 52293 50467 50319 60143
3215.75 67316 84679 86083 72920 59261 52526
3218.64 48592 54868 55653 51475 44113 52232
3221.53 54342 49156 48820 64399 69754 70152
3224.42 71180 80363 72795 66960 72730 73696
3227.32 66461 75293 75475 73323 69312 70616
3230.21 57472 56128 53779 52017 44947 50674
3233.10 59190 60935 55601 62948 73119 71442
3236.00 61694 64894 70648 54041 42616 65426
3238.89 69622 50851 51178 61001 60057 62902
3241.78 55267 59685 55566 58802 56163 56491
3244.67 66360 64060 56663 72724 82192 71345
3247.57 68516 76324 67506 49895 51270 61329
3250.46 60529 57154 59878 63543 62297 65262
3253.35 52290 51711 48838 46109 47364 52302
3256.24 59904 69517 60978 56427 57748 60285
3259.14 49123 49085 52961 54627 51756 59748
3262.03 53832 48055 51080 56924 47060 50421
3264.92 61809 67074 67539 58683 49538 55765
3267.82 41046 28418 31032 41622 50407 51937
3270.71 49927 46442 40954 45182 42409 33664
3273.60 37397 50608 47096 43202 39869 49884
3276.49 48780 45741 43446 39653 35546 41476
3279.39 32457 28634 25025 26359 31177 33587
3282.28 16006 16476 25669 29798 32863 39063
3285.17 40013 39980 28992 17983 15946 36458
3288.06 45644 32129 23094 22768 27733 21416
3290.96 13919 6670 11181 24953 23974 17009
3293.85 9925 13684 23068 31182 20598 24007
3296.74 29146 29703 29840 27900 24830 38900
3299.64 30454 18533 14392 13825 10028 12656
3302.53-1923-3145 3794 9397 1011 13509
3305.42 27625 26480 6530 4339 12611 7624
3308.31-18547-14142 4519 16263 6490 77
3311.21 5724 11591 11004 10675-4299-3567
3314.10-4509-50-2122-13298-20228-23705
3316.99-16624-9599-11672-19077-27679-11749
3319.88-9772-8246-5580 3668-3825-5170
3322.78 3692 3019-1489 5393 5150 619
3325.67-4052-3074-9407-3674-1677-5688
3328.56-22455-23174-26955-13319 9445-950
3331.46-19637-18501-14878-13556-15332-18054
3334.35-23940-18631-15896-15166-17825-9350
3337.24-10762-17226-30224-33173-24446-9971
3340.13-16362-22741-23745-5878-20542-42089
3343.03-37337-30544-32180-15749-15803-15205
3345.92-28372-22716-27769-30918-26964-23806
3348.81-26959-26309-21110-20585-17807-12435
3351.70-20040-28086-32549-24623-20968-19623
3354.60-25167-24498-27202-22949-32418-23509
3357.49-26765-40055-41469-27745-37427-49520
3360.38-44398-37242-40097-40143-42845-43064
3363.28-33539-28020-32891-32815-39103-35546
3366.17-35607-27166-33203-35776-41820-43571
3369.06-34789-32780-29274-35566-45232-44813
3371.95-38656-29245-29458-37270-47621-42079
3374.85-48066-43429-46996-46364-38959-38084
3377.74-35096-45561-54555-48264-47106-39809
3380.63-42451-51702-48204-35142-45572-44631
3383.52-52727-65999-69990-57327-49019-48188
3386.42-38496-39463-48938-49525-42716-42962
3389.31-45429-38067-50658-55918-45843-50558
3392.20-71114-64888-60513-55955-45164-37216
3395.10-49238-45315-51325-56729-56158-54128
3397.99-62020-63141-59914-52804-48087-43220
3400.88-50459-53721-65827-73554-75809-58555
3403.77-54822-62549-63488-56952-52830-50229
3406.67-46763-47575-61670-63587-65096-63273
3409.56-70301-67156-70576-63882-53593-54113
3412.45-61754-55588-57304-61200-58998-51627
3415.34-53458-58146-59039-56075-65187-64297
3418.24-64076-57976-56021-57114-58641-57628
3421.13-61390-63277-69291-70959-62522-54809
3424.02-68794-61657-45222-58396-83839-69430
3426.92-61942-68616-80142-64445-56210-60627
3429.81-62807-75067-85788-70583-61661-63534
3432.70-72629-66559-75652-79362-73053-51804
3435.59-65955-70186-55335-59760-69797-66977
3438.49-67394-70449-78596-72732-74377-62920
3441.38-52947-59070-80544-80520-77983-75337
3444.27-76653-88882-74398-52637-71281-84583
3447.16-66775-57279-74867-79674-71115-58712
3450.06-56099-60400-65793-67784-68495-66132
3452.95-74122-83001-82387-74157-90594-82330
3455.84-61786-52716-58512-61995-58546-59910
3458.74-60686-59856-69619-72585-88318-94528
3461.63-76052-64710-69460-84387-89343-81617
3464.52-83639-69788-61788-79913-104383-84891
3467.41-61928-54738-58956-79438-95521-90826
3470.31-88237-86878-86493-89035-85989-83208
3473.20-84133-85984-93464-86171-78631-71465
3476.09-80634-85585-93954-90150-90511-78366
3478.98-74225-62186-58014-74072-78566-79505
3481.88-88370-87583-98381-101328-97669-86473
3484.77-102179-106929-93479-84008-88161-91504
3487.66-102897-99924-98966-99163-111391-100770
3490.56-91318-92022-110013-106623-86395-78283
3493.45-70469-58752-64190-68212-65794-66108
3496.34-76457-72860-74619-88148-94462-87125
3499.23-90387-85477-100489-107719-111413-110607
3502.13-118350-117533-119997-117049-110980-101033
3505.02-112889-116903-114884-101886-92630-92235
3507.91-101840-104837-114831-108091-100582-104835
3510.80-116311-110559-108790-115237-136949-134128
3513.70-113276-104634-99342-97744-115616-110036
3516.59-94095-96621-101378-107065-120463-117473
3519.48-116059-103706-102915-107604-108892-112190
3522.38-124676-118960-114518-105279-107239-114199
3525.27-119057-113137-121475-114823-105824-113804
3528.16-135544-137902-120496-109710-120291-124688
3531.05-128080-116169-118872-117107-121158-113615
3533.95-100301-101663-113161-108303-117796-122022
3536.84-113434-98830-115746-126479-122399-114778
3539.73-128263-130692-131378-124001-125577-120162
3542.62-122013-124177-122567-123359-136062-126570
3545.52-124164-119828-122709-107413-109011-116933
3548.41-124397-128293-142310-140140-135336-125503
3551.30-131114-133227-132767-124133-125457-120150
3554.20-117454-115317-118910-114100-112082-108871
3557.09-114763-113486-120278-109412-106794-117353
3559.98-125483-114785-120965-116424-127977-122642
3562.87-117955-120473-120551-121901-126361-128567
3565.77-136757-130531-114195-131368-153118-132501
3568.66-115567-99926-117283-113734-105667-104786
3571.55-110540-106193-106530-113120-119258-110355
3574.44-114907-113751-116542-98419-96860-96506
3577.34-100935-100374-104505-108474-106633-102810
3580.23-103368-83274-89239-90939-98294-109559
3583.12-131060-125548-122829-110374-114218-123836
3586.02-155925-145513-143884-144432-167029-161182
3588.91-106635-82571-93389-107715-110614-106833
3591.80-104897-115669-137251-128021-115158-112038
3594.69-129280-121222-112955-117918-115575-107697
3597.59-112447-119522-124770-118639-119350-128145
3600.48-137404-120971-113347-111067-117746-109738
3603.37-108918-107448-111494-113300-117187-114763
3606.26-132245-136077-133044-132790-158272-198412
3609.16-172234-120490-107348-106843-136413-163088
3612.05-189404-164499-132347-124534-144074-142883
3614.94-131496-114409-121619-130710-164920-176080
3617.84-153736-146232-192299-205851-147473-122836
3620.73-131859-109784-103107-118136-132990-143438
3623.62-140644-117273-115809-126719-135837-122727
3626.51-111392-124863-188788-218886-195039-246365
3629.41-218918-136085-131861-125654-117437-115603
3632.30-126546-128321-142797-129248-118249-113221
3635.19-109770-106891-115860-106268-116395-120507
3638.08-119780-118705-113382-102054-109560-113885
3640.98-115662-119314-123429-112736-111694-109264
3643.87-124882-129629-133746-117254-133206-160903
3646.76-195303-178689-155971-181034-265174-218618
3649.66-159840-177583-191605-157263-108896-110029
3652.55-121972-118086-127957-137790-148120-151006
3655.44-197036-235473-189919-149097-139946-132317
3658.33-127062-123992-128198-134105-142984-134899
3661.23-126578-127572-136457-133657-139629-138266
3664.12-143840-142555-148458-143608-140493-138966
3667.01-139364-140059-179347-192481-163841-163979
3669.90-263947-319162-202772-146507-144445-143446
3672.80-154178-167562-180277-238590-263717-307140
3675.69-309136-197221-180405-162151-155730-161973
3678.58-166331-166787-153213-141010-143520-144211
3681.48-143591-128301-120655-121040-139172-148298
3684.37-147485-145723-148054-143059-149348-146398
3687.26-184787-331474-333515-201231-162434-165933
3690.15-194534-226066-206044-143213-137272-149891
3693.05-157859-149094-156870-154067-159050-148159
3695.94-154636-156882-151770-145198-145825-136505
3698.83-149555-150370-157773-153094-178075-203075
3701.72-187486-150773-150358-152743-165978-166023
3704.62-164226-154396-152449-153545-164765-158398
3707.51-160499-154989-197431-217507-183624-147331
3710.40-157482-186402-276946-293407-200563-167969
3713.30-177231-183192-184403-173690-172388-160960
3716.19-144939-138979-159910-168359-175153-182223
3719.08-169014-156742-160391-153405-164820-191925
3721.97-195130-175357-178430-188657-189035-180607
3724.87-171788-160578-193579-193578-170668-162438
3727.76-156486-154812-164626-169909-155635-144352
3730.65-176350-239272-313344-250685-175352-169922
3733.54-186150-217536-238386-213030-188463-253861
3736.44-281755-192790-167969-179353-173964-151493
3739.33-166564-169169-179332-184787-183783-169004
3742.22-167958-174082-240863-396504-504945-357729
3745.12-227607-188427-173719-175969-178823-173640
3748.01-192497-295379-393433-276241-191619-181767
3750.90-205944-321027-391996-251027-190561-175630
3753.79-177769-178668-181511-175522-198534-203598
3756.69-193804-188355-184581-184123-188473-207945
3759.58-219420-179875-162151-148915-162923-167657
3762.47-164851-153346-158628-157723-166975-182819
3765.36-214609-194446-181909-174304-170204-161840
3768.26-165550-180754-236785-224393-177330-166088
3771.15-171505-153662-154038-153870-170427-177873
3774.04-170754-159530-169484-171184-182678-172190
3776.94-164724-165308-176818-188980-209239-190340
3779.83-171327-159705-157874-158163-165311-169287
3782.72-166169-160001-177780-178037-173195-153261
3785.61-164107-166955-176446-177153-175721-155819
3788.51-141048-145584-153026-151555-157375-145892
3791.40-155755-158885-163994-164282-166839-161364
3794.29-164597-160153-172179-194640-204875-187812
3797.18-191582-185672-184642-178915-183086-196300
3800.08-207124-305250-384770-255128-181525-172888
3802.97-175355-180769-179611-165105-162852-166860
3805.86-207868-290171-279024-189970-167613-150259
3808.76-153364-148871-161265-156122-164124-164379
3811.65-175888-168426-176541-173927-173002-166387
3814.54-184867-257593-388589-317295-211683-185916
3817.43-177297-177460-173292-157432-176428-226907
3820.33-268472-257849-269877-213468-182837-186165
3823.22-185314-175772-164369-147924-159303-164925
3826.11-186738-182840-176677-181203-188659-172197
3829.00-161548-162581-174390-188198-227731-219334
3831.90-171880-168198-177306-171739-187876-234307
3834.79-234557-200563-205960-195206-225994-360162
3837.68-356809-231412-205251-197724-199019-195460
3840.58-227575-196409-167543-157861-177585-207002
3843.47-214576-188860-196279-184915-183541-171320
3846.36-175452-170691-173493-165950-170421-170398
3849.25-184410-175801-197065-217492-315212-360085
3852.15-265614-234688-333894-477579-422370-247585
3855.04-201002-189339-203686-218552-205267-178153
3857.93-185982-174292-183777-183440-182475-185031
3860.82-222339-244668-214687-173827-174054-176554
3863.72-191675-227473-270362-224549-210110-200403
3866.61-191727-167901-174171-193517-235824-260909
3869.50-326271-285673-212650-198370-197042-191466
3872.40-180912-184138-214804-229773-219530-192593
3875.29-189303-189048-195297-183511-184657-189531
3878.18-212949-202449-217080-252230-253887-232508
3881.07-215180-196838-188617-189943-204409-194063
3883.97-204947-220534-288043-301661-248547-208652
3886.86-206979-207378-213746-208198-210385-201374
3889.75-195664-223234-272944-240906-213646-206617
3892.64-201941-195601-207238-195911-204667-208811
3895.54-204470-199773-206745-198584-209594-211673
3898.43-248624-271560-232285-203016-206693-233584
3901.32-282120-238449-199148-208675-252901-286151
3904.22-261673-231531-226285-215137-205658-191219
3907.11-192081-202211-212499-208407-212844-212295
3910.00-217310-202144-202682-207154-207241-191741
3912.89-208915-212903-205956-187832-196242-202003
3915.79-213963-223071-254276-234070-215963-209421
3918.68-209234-216805-231168-212369-208533-200437
3921.57-209417-197011-208206-218737-229792-218976
3924.46-215436-209120-198441-183852-199651-208531
3927.36-208523-201341-202990-186886-191797-198503
3930.25-207524-201698-205794-216403-225102-203649
3933.14-189772-184823-205612-216205-227104-224871
3936.04-229078-213931-212374-204315-205511-190847
3938.93-202988-205655-211375-207245-223892-212653
3941.82-204503-210990-217508-199213-215054-212513
3944.71-197499-182256-196877-215142-221953-209315
3947.61-217221-208299-206650-182882-178226-180009
3950.50-183442-172135-171253-182311-202902-200349
3953.39-200272-193889-195393-198832-209732-200078
3956.28-202687-206075-218043-207032-199832-190998
3959.18-190748-188311-202421-198230-191501-199028
3962.07-213589-197576-201940-201851-211156-199098
3964.96-198367-198539-205337-203935-217359-207915
3967.86-205688-208679-213539-196541-200389-208023
3970.75-217982-201227-208433-211622-206324-199576
3973.64-211219-195675
##END=
