##TITLE=Disiloxane, 1,1,3,3-tetramethyl-1,3-diphenyl-
##JCAMP-DX=4.24
##DATA TYPE=INFRARED SPECTRUM
##CLASS=COBLENTZ II
##ORIGIN=DOW CORNING CORP.
##OWNER=Copyright (C) 1987 by the Coblentz Society
Collection (C) 2018 copyright by the U.S. Secretary of Commerce
on behalf of the United States of America. All rights reserved.
##DATE=1965/11/09
##NAMES=bis[dimethyl(phenyl)silyl] ether
1,1,3,3-tetramethyl-1,3-diphenyldisiloxane
##CAS REGISTRY NO=56-33-7
##MOLFORM=C16 H22 O Si2
##BP=292 C
##SOURCE REFERENCE=COBLENTZ NO. 5530
##$NIST SOURCE=COBLENTZ
##$NIST IMAGE=cob5530
##SPECTROMETER/DATA SYSTEM=PERKIN-ELMER 521 (GRATING)
##INSTRUMENT PARAMETERS=FILTERS AT 3150, 2500, 2000, 1150, 700, 410. GRATING CHANGES: 2000, 630
##STATE=SOLUTION (11% CCl4 FOR 3800-1300, 3% CS2 FOR 1300-650, AND 11% CCl4 FOR 650-250)
##PATH LENGTH=0.010 CM, 0.011 CM, AND 0.010 CM
##RESOLUTION=2
##XUNITS=1/CM
##YUNITS=TRANSMITTANCE
##XFACTOR=1.0
##YFACTOR=1
##FIRSTX=222
##LASTX=3816
##FIRSTY=0.936
##MAXX=3816
##MINX=222
##MAXY=0.8961
##MINY=0.0791
##NPOINTS=3595
##XYDATA=(X++(Y..Y))
222.000000 0.9360 0.9328 0.9302 0.9276 0.9250
227.000000 0.9224 0.9199 0.9173 0.9147 0.9121
232.000000 0.9095 0.9069 0.9043 0.9017 0.9002
237.000000 0.8990 0.8978 0.8967 0.8955 0.8947
242.000000 0.8950 0.8953 0.8956 0.8959 0.8961
247.000000 0.8958 0.8920 0.8877 0.8825 0.8780
252.000000 0.8759 0.8738 0.8716 0.8695 0.8678
257.000000 0.8663 0.8649 0.8634 0.8620 0.8603
262.000000 0.8584 0.8566 0.8547 0.8531 0.8517
267.000000 0.8503 0.8489 0.8475 0.8461 0.8447
272.000000 0.8433 0.8417 0.8399 0.8382 0.8365
277.000000 0.8347 0.8330 0.8312 0.8295 0.8278
282.000000 0.8260 0.8243 0.8226 0.8208 0.8191
287.000000 0.8172 0.8154 0.8135 0.8117 0.8098
292.000000 0.8080 0.8062 0.8043 0.8025 0.8006
297.000000 0.7988 0.7970 0.7951 0.7933 0.7915
302.000000 0.7897 0.7879 0.7861 0.7843 0.7825
307.000000 0.7807 0.7788 0.7770 0.7752 0.7731
312.000000 0.7708 0.7685 0.7662 0.7639 0.7616
317.000000 0.7593 0.7570 0.7541 0.7502 0.7462
322.000000 0.7423 0.7383 0.7341 0.7291 0.7240
327.000000 0.7190 0.7139 0.7075 0.7012 0.6944
332.000000 0.6863 0.6794 0.6750 0.6714 0.6730
337.000000 0.6732 0.6737 0.6746 0.6758 0.6778
342.000000 0.6813 0.6882 0.6984 0.7188 0.7468
347.000000 0.7695 0.7815 0.7895 0.7937 0.7959
352.000000 0.7972 0.7979 0.7979 0.7979 0.7991
357.000000 0.7974 0.7968 0.7957 0.7943 0.7911
362.000000 0.7871 0.7815 0.7740 0.7645 0.7556
367.000000 0.7473 0.7391 0.7177 0.6954 0.6731
372.000000 0.6508 0.6286 0.6063 0.5840 0.5617
377.000000 0.5394 0.5171 0.4948 0.4726 0.4503
382.000000 0.4280 0.4162 0.4053 0.3938 0.3817
387.000000 0.3697 0.3576 0.3402 0.3214 0.3002
392.000000 0.2773 0.2703 0.2688 0.2681 0.2710
397.000000 0.2706 0.2937 0.3270 0.3604 0.3937
402.000000 0.4271 0.4604 0.4938 0.5271 0.5605
407.000000 0.5938 0.6272 0.6505 0.6713 0.6975
412.000000 0.7232 0.7468 0.7639 0.7779 0.7913
417.000000 0.8005 0.8096 0.8161 0.8212 0.8262
422.000000 0.8313 0.8364 0.8392 0.8420 0.8447
427.000000 0.8475 0.8502 0.8529 0.8542 0.8556
432.000000 0.8569 0.8582 0.8590 0.8594 0.8598
437.000000 0.8592 0.8603 0.8600 0.8597 0.8594
442.000000 0.8583 0.8570 0.8553 0.8536 0.8485
447.000000 0.8435 0.8368 0.8300 0.8203 0.8096
452.000000 0.7984 0.7867 0.7473 0.7253 0.6968
457.000000 0.6812 0.6687 0.6292 0.5825 0.5359
462.000000 0.4892 0.4425 0.3958 0.3492 0.3094
467.000000 0.3096 0.3098 0.3576 0.3985 0.4395
472.000000 0.4804 0.5213 0.5622 0.6031 0.6441
477.000000 0.6850 0.7259 0.7668 0.7890 0.8084
482.000000 0.8157 0.8225 0.8282 0.8323 0.8365
487.000000 0.8406 0.8448 0.8480 0.8507 0.8535
492.000000 0.8559 0.8569 0.8579 0.8588 0.8598
497.000000 0.8608 0.8617 0.8627 0.8634 0.8636
502.000000 0.8639 0.8638 0.8644 0.8646 0.8649
507.000000 0.8649 0.8645 0.8641 0.8638 0.8634
512.000000 0.8631 0.8627 0.8624 0.8620 0.8616
517.000000 0.8612 0.8607 0.8601 0.8596 0.8591
522.000000 0.8585 0.8580 0.8575 0.8565 0.8547
527.000000 0.8528 0.8510 0.8491 0.8473 0.8447
532.000000 0.8420 0.8393 0.8367 0.8340 0.8313
537.000000 0.8286 0.8257 0.8227 0.8197 0.8167
542.000000 0.8136 0.8106 0.8076 0.8046 0.8007
547.000000 0.7967 0.7927 0.7827 0.7872 0.7874
552.000000 0.7890 0.7908 0.7928 0.7960 0.8007
557.000000 0.8054 0.8088 0.8122 0.8156 0.8190
562.000000 0.8231 0.8278 0.8324 0.8371 0.8417
567.000000 0.8461 0.8505 0.8548 0.8592 0.8626
572.000000 0.8638 0.8650 0.8662 0.8674 0.8685
577.000000 0.8685 0.8686 0.8686 0.8686 0.8744
582.000000 0.8687 0.8687 0.8687 0.8687 0.8687
587.000000 0.8686 0.8685 0.8685 0.8684 0.8684
592.000000 0.8683 0.8683 0.8679 0.8670 0.8661
597.000000 0.8652 0.8642 0.8633 0.8624 0.8601
602.000000 0.8576 0.8550 0.8524 0.8494 0.8460
607.000000 0.8440 0.8558 0.8637 0.8664 0.8691
612.000000 0.8693 0.8695 0.8678 0.8659 0.8639
617.000000 0.8605 0.8570 0.8533 0.8496 0.8463
622.000000 0.8440 0.8417 0.8391 0.8361 0.8329
627.000000 0.8297 0.8258 0.8219 0.8173 0.8122
632.000000 0.8064 0.7988 0.7920 0.7851 0.7781
637.000000 0.7692 0.7345 0.6998 0.6651 0.6303
642.000000 0.5956 0.5609 0.5262 0.5016 0.4979
647.000000 0.4993 0.5288 0.5928 0.6568 0.7208
652.000000 0.7848 0.8108 0.8120 0.8128 0.8183
657.000000 0.8140 0.8137 0.8135 0.8119 0.8097
662.000000 0.8071 0.8044 0.8015 0.7981 0.7949
667.000000 0.7920 0.7891 0.7862 0.7833 0.7806
672.000000 0.7780 0.7756 0.7740 0.7724 0.7707
677.000000 0.7691 0.7675 0.7658 0.7641 0.7614
682.000000 0.7571 0.7434 0.7254 0.6844 0.6434
687.000000 0.6024 0.5614 0.5204 0.4794 0.4383
692.000000 0.3973 0.3563 0.3258 0.3258 0.3239
697.000000 0.3247 0.3298 0.3650 0.4001 0.4352
702.000000 0.4704 0.5055 0.5406 0.5758 0.6109
707.000000 0.6460 0.6673 0.6708 0.6661 0.6635
712.000000 0.6586 0.6511 0.6336 0.6038 0.5740
717.000000 0.5442 0.5145 0.4847 0.4651 0.4652
722.000000 0.4663 0.4775 0.4968 0.5161 0.5355
727.000000 0.5548 0.5723 0.5763 0.5794 0.5805
732.000000 0.5815 0.5817 0.5818 0.5819 0.5816
737.000000 0.5814 0.5921 0.6166 0.6411 0.6656
742.000000 0.6901 0.7147 0.7388 0.7530 0.7641
747.000000 0.7728 0.7792 0.7826 0.7848 0.7866
752.000000 0.7870 0.7931 0.7877 0.7873 0.7867
757.000000 0.7860 0.7829 0.7791 0.7754 0.7718
762.000000 0.7667 0.7616 0.7557 0.7489 0.7412
767.000000 0.7313 0.7214 0.7065 0.6914 0.6612
772.000000 0.5830 0.5440 0.5050 0.4660 0.4269
777.000000 0.3879 0.3489 0.3099 0.2708 0.2318
782.000000 0.1944 0.1821 0.1774 0.1774 0.1769
787.000000 0.1771 0.1795 0.1837 0.1895 0.1952
792.000000 0.1993 0.2033 0.2094 0.2663 0.3439
797.000000 0.4216 0.4993 0.5770 0.6218 0.6305
802.000000 0.6366 0.6395 0.6415 0.6427 0.6429
807.000000 0.6419 0.6396 0.6348 0.6266 0.6146
812.000000 0.5953 0.5815 0.5563 0.5189 0.4815
817.000000 0.4441 0.4066 0.3692 0.3318 0.2944
822.000000 0.2569 0.2195 0.1845 0.1823 0.1821
827.000000 0.1831 0.1825 0.2327 0.2745 0.3164
832.000000 0.3582 0.4001 0.4419 0.4600 0.4713
837.000000 0.4895 0.5125 0.5405 0.5917 0.6115
842.000000 0.6264 0.6372 0.6479 0.6587 0.6696
847.000000 0.6805 0.6914 0.7001 0.7089 0.7176
852.000000 0.7247 0.7303 0.7359 0.7415 0.7471
857.000000 0.7528 0.7585 0.7643 0.7719 0.7795
862.000000 0.7851 0.7889 0.7926 0.7964 0.8001
867.000000 0.8039 0.8074 0.8099 0.8124 0.8149
872.000000 0.8173 0.8198 0.8223 0.8248 0.8272
877.000000 0.8289 0.8306 0.8324 0.8341 0.8358
882.000000 0.8370 0.8379 0.8387 0.8396 0.8404
887.000000 0.8413 0.8421 0.8428 0.8434 0.8439
892.000000 0.8445 0.8450 0.8456 0.8461 0.8467
897.000000 0.8472 0.8478 0.8485 0.8492 0.8499
902.000000 0.8506 0.8513 0.8520 0.8527 0.8534
907.000000 0.8543 0.8555 0.8568 0.8580 0.8592
912.000000 0.8604 0.8607 0.8611 0.8614 0.8618
917.000000 0.8622 0.8625 0.8629 0.8632 0.8636
922.000000 0.8636 0.8660 0.8634 0.8634 0.8633
927.000000 0.8632 0.8631 0.8630 0.8630 0.8629
932.000000 0.8628 0.8627 0.8626 0.8625 0.8630
937.000000 0.8634 0.8639 0.8643 0.8647 0.8652
942.000000 0.8656 0.8661 0.8660 0.8657 0.8653
947.000000 0.8650 0.8647 0.8643 0.8640 0.8635
952.000000 0.8628 0.8621 0.8614 0.8607 0.8600
957.000000 0.8593 0.8585 0.8578 0.8571 0.8564
962.000000 0.8557 0.8547 0.8537 0.8527 0.8517
967.000000 0.8507 0.8498 0.8488 0.8478 0.8468
972.000000 0.8453 0.8434 0.8416 0.8397 0.8378
977.000000 0.8357 0.8332 0.8307 0.8281 0.8256
982.000000 0.8223 0.8177 0.8131 0.8054 0.7961
987.000000 0.7733 0.7273 0.6812 0.6352 0.6175
992.000000 0.6164 0.6664 0.7208 0.7753 0.7735
997.000000 0.7720 0.7675 0.7591 0.7506 0.7421
1002.000000 0.7336 0.7251 0.7166 0.7081 0.6969
1007.000000 0.6858 0.6789 0.6719 0.6649 0.6504
1012.000000 0.6342 0.6176 0.6008 0.5822 0.5601
1017.000000 0.5395 0.5110 0.4807 0.4504 0.4201
1022.000000 0.4062 0.4426 0.4860 0.5258 0.5255
1027.000000 0.5243 0.4871 0.4598 0.4325 0.4060
1032.000000 0.3968 0.3892 0.3801 0.3706 0.3570
1037.000000 0.3427 0.3326 0.3225 0.3124 0.3040
1042.000000 0.2956 0.2872 0.2789 0.2708 0.2647
1047.000000 0.2587 0.2535 0.2484 0.2452 0.2421
1052.000000 0.2404 0.2389 0.2371 0.2373 0.2376
1057.000000 0.2383 0.2396 0.2420 0.2444 0.2469
1062.000000 0.2509 0.2553 0.2600 0.2648 0.2711
1067.000000 0.2800 0.2888 0.2969 0.3059 0.3203
1072.000000 0.3667 0.3817 0.3968 0.4118 0.4268
1077.000000 0.4419 0.4569 0.4719 0.4870 0.5020
1082.000000 0.5170 0.5321 0.5471 0.5622 0.5772
1087.000000 0.5922 0.6073 0.6198 0.6266 0.6333
1092.000000 0.6386 0.6436 0.6475 0.6499 0.6519
1097.000000 0.6496 0.6478 0.6453 0.6399 0.6349
1102.000000 0.6258 0.6131 0.5961 0.5800 0.5372
1107.000000 0.4794 0.4215 0.3636 0.3057 0.2478
1112.000000 0.1899 0.1746 0.1750 0.2070 0.1745
1117.000000 0.4372 0.5524 0.6400 0.6595 0.6752
1122.000000 0.6895 0.7053 0.7234 0.7557 0.7776
1127.000000 0.7965 0.8052 0.8138 0.8186 0.8230
1132.000000 0.8256 0.8282 0.8307 0.8326 0.8346
1137.000000 0.8366 0.8380 0.8391 0.8403 0.8392
1142.000000 0.8380 0.8369 0.8356 0.8355 0.8362
1147.000000 0.8369 0.8379 0.8389 0.8400 0.8410
1152.000000 0.8426 0.8441 0.8456 0.8470 0.8483
1157.000000 0.8496 0.8508 0.8521 0.8534 0.8542
1162.000000 0.8550 0.8558 0.8565 0.8568 0.8569
1167.000000 0.8570 0.8571 0.8572 0.8572 0.8565
1172.000000 0.8557 0.8550 0.8541 0.8525 0.8509
1177.000000 0.8494 0.8477 0.8458 0.8419 0.8443
1182.000000 0.8446 0.8456 0.8474 0.8501 0.8538
1187.000000 0.8572 0.8597 0.8616 0.8625 0.8633
1192.000000 0.8642 0.8647 0.8650 0.8653 0.8656
1197.000000 0.8659 0.8662 0.8665 0.8668 0.8671
1202.000000 0.8673 0.8676 0.8679 0.8682 0.8678
1207.000000 0.8673 0.8669 0.8664 0.8654 0.8633
1212.000000 0.8613 0.8592 0.8570 0.8549 0.8527
1217.000000 0.8503 0.8477 0.8451 0.8425 0.8395
1222.000000 0.8366 0.8337 0.8317 0.8291 0.8243
1227.000000 0.8190 0.8130 0.8069 0.8009 0.7915
1232.000000 0.7806 0.7697 0.7531 0.7370 0.7214
1237.000000 0.7030 0.6586 0.6098 0.5610 0.5123
1242.000000 0.4635 0.4147 0.3659 0.3172 0.2775
1247.000000 0.2770 0.2783 0.3042 0.3641 0.4240
1252.000000 0.4839 0.5438 0.6037 0.6635 0.6884
1257.000000 0.7014 0.7143 0.7308 0.7522 0.7794
1262.000000 0.7984 0.8133 0.8240 0.8317 0.8372
1267.000000 0.8427 0.8460 0.8492 0.8517 0.8540
1272.000000 0.8554 0.8563 0.8571 0.8580 0.8580
1277.000000 0.8576 0.8580 0.8569 0.8557 0.8545
1282.000000 0.8525 0.8504 0.8479 0.8450 0.8423
1287.000000 0.8405 0.8388 0.8382 0.8386 0.8397
1292.000000 0.8408 0.8424 0.8440 0.8375 0.8285
1297.000000 0.8196 0.8106 0.8016 0.7927 0.7837
1302.000000 0.7725 0.7658 0.7585 0.7521 0.7446
1307.000000 0.7357 0.7280 0.7224 0.7196 0.7197
1312.000000 0.7196 0.7323 0.7394 0.7461 0.7510
1317.000000 0.7558 0.7633 0.7729 0.7816 0.7883
1322.000000 0.7905 0.7917 0.7928 0.7940 0.7950
1327.000000 0.7959 0.7967 0.7976 0.7983 0.7984
1332.000000 0.7986 0.8016 0.8102 0.8235 0.8359
1337.000000 0.8381 0.8425 0.8383 0.8379 0.8376
1342.000000 0.8370 0.8365 0.8359 0.8354 0.8351
1347.000000 0.8347 0.8344 0.8340 0.8337 0.8334
1352.000000 0.8330 0.8323 0.8314 0.8306 0.8297
1357.000000 0.8280 0.8253 0.8225 0.8192 0.8158
1362.000000 0.8120 0.8060 0.8000 0.7952 0.7924
1367.000000 0.7909 0.7908 0.7927 0.7960 0.7988
1372.000000 0.8011 0.8015 0.8017 0.8014 0.8003
1377.000000 0.7988 0.7912 0.7818 0.7724 0.7630
1382.000000 0.7536 0.7443 0.7349 0.7255 0.7161
1387.000000 0.7067 0.6974 0.6880 0.6786 0.6692
1392.000000 0.6598 0.6505 0.6411 0.6317 0.6223
1397.000000 0.6130 0.6036 0.5948 0.5853 0.5826
1402.000000 0.5833 0.5824 0.5866 0.5909 0.6067
1407.000000 0.6226 0.6385 0.6525 0.6548 0.6573
1412.000000 0.6545 0.6525 0.6492 0.6456 0.6405
1417.000000 0.6179 0.5183 0.4187 0.3190 0.2194
1422.000000 0.1198 0.0791 0.0813 0.0888 0.2728
1427.000000 0.4567 0.6406 0.7008 0.7237 0.7339
1432.000000 0.7381 0.7422 0.7469 0.7526 0.7583
1437.000000 0.7635 0.7687 0.7743 0.7798 0.7853
1442.000000 0.7902 0.7951 0.7999 0.8048 0.8091
1447.000000 0.8134 0.8176 0.8211 0.8242 0.8274
1452.000000 0.8286 0.8294 0.8301 0.8305 0.8309
1457.000000 0.8313 0.8316 0.8319 0.8320 0.8322
1462.000000 0.8323 0.8357 0.8326 0.8327 0.8327
1467.000000 0.8327 0.8328 0.8324 0.8316 0.8307
1472.000000 0.8299 0.8284 0.8260 0.8220 0.8180
1477.000000 0.8139 0.8098 0.7472 0.6776 0.6773
1482.000000 0.6973 0.7462 0.7950 0.8439 0.8544
1487.000000 0.8582 0.8601 0.8620 0.8635 0.8646
1492.000000 0.8657 0.8662 0.8665 0.8668 0.8670
1497.000000 0.8673 0.8676 0.8678 0.8679 0.8680
1502.000000 0.8681 0.8681 0.8682 0.8684 0.8686
1507.000000 0.8687 0.8689 0.8691 0.8693 0.8695
1512.000000 0.8697 0.8699 0.8701 0.8703 0.8706
1517.000000 0.8708 0.8721 0.8709 0.8709 0.8708
1522.000000 0.8708 0.8708 0.8708 0.8707 0.8704
1527.000000 0.8701 0.8698 0.8695 0.8692 0.8689
1532.000000 0.8686 0.8683 0.8680 0.8671 0.8662
1537.000000 0.8654 0.8645 0.8636 0.8621 0.8605
1542.000000 0.8597 0.8598 0.8598 0.8598 0.8599
1547.000000 0.8602 0.8608 0.8615 0.8621 0.8628
1552.000000 0.8634 0.8639 0.8639 0.8639 0.8637
1557.000000 0.8626 0.8615 0.8604 0.8584 0.8563
1562.000000 0.8542 0.8520 0.8498 0.8476 0.8448
1567.000000 0.8420 0.8391 0.8360 0.8329 0.8298
1572.000000 0.8267 0.8235 0.8194 0.8143 0.8092
1577.000000 0.8041 0.7979 0.7914 0.7813 0.7628
1582.000000 0.7351 0.7096 0.6841 0.6603 0.6604
1587.000000 0.6609 0.6630 0.7214 0.7604 0.7995
1592.000000 0.8125 0.8123 0.8137 0.8113 0.8099
1597.000000 0.8074 0.8046 0.8015 0.7981 0.7949
1602.000000 0.7920 0.7898 0.7885 0.7887 0.7884
1607.000000 0.7891 0.7902 0.7921 0.7940 0.7973
1612.000000 0.8009 0.8048 0.8096 0.8145 0.8191
1617.000000 0.8233 0.8276 0.8317 0.8345 0.8374
1622.000000 0.8388 0.8395 0.8403 0.8410 0.8408
1627.000000 0.8406 0.8403 0.8388 0.8374 0.8362
1632.000000 0.8351 0.8358 0.8372 0.8387 0.8403
1637.000000 0.8418 0.8433 0.8448 0.8463 0.8479
1642.000000 0.8494 0.8509 0.8524 0.8540 0.8554
1647.000000 0.8565 0.8575 0.8582 0.8587 0.8592
1652.000000 0.8598 0.8603 0.8609 0.8615 0.8622
1657.000000 0.8628 0.8635 0.8641 0.8644 0.8646
1662.000000 0.8649 0.8651 0.8652 0.8653 0.8654
1667.000000 0.8654 0.8655 0.8687 0.8659 0.8661
1672.000000 0.8663 0.8666 0.8668 0.8671 0.8673
1677.000000 0.8676 0.8678 0.8677 0.8677 0.8676
1682.000000 0.8676 0.8674 0.8671 0.8667 0.8664
1687.000000 0.8661 0.8656 0.8652 0.8647 0.8642
1692.000000 0.8636 0.8629 0.8623 0.8616 0.8607
1697.000000 0.8595 0.8584 0.8573 0.8558 0.8538
1702.000000 0.8511 0.8472 0.8432 0.8388 0.8332
1707.000000 0.8276 0.8191 0.8108 0.8045 0.7982
1712.000000 0.7908 0.7842 0.7815 0.7816 0.7821
1717.000000 0.7823 0.7835 0.7873 0.8040 0.8130
1722.000000 0.8212 0.8290 0.8350 0.8410 0.8489
1727.000000 0.8557 0.8596 0.8608 0.8618 0.8624
1732.000000 0.8630 0.8637 0.8640 0.8640 0.8641
1737.000000 0.8641 0.8641 0.8640 0.8640 0.8639
1742.000000 0.8639 0.8636 0.8632 0.8629 0.8625
1747.000000 0.8615 0.8603 0.8591 0.8574 0.8549
1752.000000 0.8525 0.8500 0.8476 0.8455 0.8458
1757.000000 0.8461 0.8471 0.8486 0.8500 0.8518
1762.000000 0.8547 0.8576 0.8605 0.8636 0.8666
1767.000000 0.8665 0.8661 0.8650 0.8639 0.8633
1772.000000 0.8638 0.8656 0.8681 0.8717 0.8748
1777.000000 0.8773 0.8797 0.8821 0.8845 0.8869
1782.000000 0.8901 0.8955 0.8941 0.8895 0.8777
1787.000000 0.8804 0.8759 0.8721 0.8721 0.8721
1792.000000 0.8720 0.8718 0.8714 0.8710 0.8707
1797.000000 0.8706 0.8705 0.8695 0.8682 0.8659
1802.000000 0.8635 0.8603 0.8568 0.8514 0.8455
1807.000000 0.8388 0.8313 0.8222 0.8099 0.8003
1812.000000 0.7960 0.7964 0.7973 0.7981 0.8146
1817.000000 0.8220 0.8296 0.8376 0.8446 0.8510
1822.000000 0.8544 0.8570 0.8584 0.8583 0.8582
1827.000000 0.8579 0.8576 0.8586 0.8607 0.8629
1832.000000 0.8651 0.8673 0.8701 0.8734 0.8755
1837.000000 0.8769 0.8777 0.8777 0.8776 0.8773
1842.000000 0.8770 0.8767 0.8794 0.8758 0.8753
1847.000000 0.8753 0.8754 0.8755 0.8756 0.8757
1852.000000 0.8758 0.8758 0.8758 0.8758 0.8753
1857.000000 0.8748 0.8743 0.8738 0.8729 0.8720
1862.000000 0.8710 0.8698 0.8683 0.8668 0.8640
1867.000000 0.8606 0.8550 0.8476 0.8402 0.8328
1872.000000 0.8254 0.8181 0.8107 0.8033 0.7974
1877.000000 0.7977 0.7957 0.8070 0.8208 0.8334
1882.000000 0.8338 0.8340 0.8341 0.8328 0.8304
1887.000000 0.8272 0.8239 0.8206 0.8175 0.8144
1892.000000 0.8113 0.8092 0.8081 0.8053 0.8123
1897.000000 0.8210 0.8297 0.8384 0.8471 0.8550
1902.000000 0.8586 0.8610 0.8630 0.8651 0.8668
1907.000000 0.8684 0.8692 0.8696 0.8700 0.8704
1912.000000 0.8705 0.8704 0.8733 0.8703 0.8702
1917.000000 0.8700 0.8698 0.8696 0.8694 0.8691
1922.000000 0.8685 0.8679 0.8672 0.8666 0.8659
1927.000000 0.8652 0.8645 0.8638 0.8631 0.8624
1932.000000 0.8617 0.8607 0.8589 0.8571 0.8545
1937.000000 0.8519 0.8492 0.8416 0.8352 0.8274
1942.000000 0.8195 0.8123 0.8064 0.8013 0.7961
1947.000000 0.7915 0.7917 0.7920 0.7893 0.7938
1952.000000 0.8025 0.8120 0.8212 0.8266 0.8313
1957.000000 0.8359 0.8381 0.8379 0.8378 0.8379
1962.000000 0.8379 0.8396 0.8422 0.8447 0.8472
1967.000000 0.8496 0.8523 0.8552 0.8580 0.8609
1972.000000 0.8635 0.8657 0.8680 0.8701 0.8719
1977.000000 0.8737 0.8755 0.8766 0.8778 0.8790
1982.000000 0.8801 0.8811 0.8821 0.8831 0.8841
1987.000000 0.8850 0.8859 0.8868 0.8877 0.8885
1992.000000 0.8897 0.8890 0.8888 0.8886 0.8884
1997.000000 0.8881 0.8875 0.8870 0.8865 0.8860
2002.000000 0.8855 0.8853 0.8851 0.8848 0.8846
2007.000000 0.8844 0.8842 0.8840 0.8838 0.8836
2012.000000 0.8835 0.8834 0.8833 0.8832 0.8831
2017.000000 0.8830 0.8829 0.8827 0.8825 0.8823
2022.000000 0.8822 0.8820 0.8818 0.8816 0.8815
2027.000000 0.8814 0.8813 0.8811 0.8810 0.8809
2032.000000 0.8808 0.8808 0.8808 0.8808 0.8808
2037.000000 0.8808 0.8809 0.8810 0.8811 0.8812
2042.000000 0.8814 0.8815 0.8817 0.8818 0.8819
2047.000000 0.8820 0.8822 0.8823 0.8825 0.8826
2052.000000 0.8828 0.8829 0.8830 0.8831 0.8833
2057.000000 0.8834 0.8836 0.8837 0.8838 0.8839
2062.000000 0.8841 0.8842 0.8843 0.8842 0.8842
2067.000000 0.8842 0.8842 0.8842 0.8842 0.8841
2072.000000 0.8841 0.8841 0.8841 0.8841 0.8841
2077.000000 0.8841 0.8841 0.8841 0.8841 0.8841
2082.000000 0.8842 0.8842 0.8842 0.8842 0.8842
2087.000000 0.8842 0.8842 0.8841 0.8841 0.8840
2092.000000 0.8840 0.8839 0.8839 0.8838 0.8838
2097.000000 0.8837 0.8837 0.8836 0.8836 0.8835
2102.000000 0.8835 0.8834 0.8834 0.8833 0.8833
2107.000000 0.8832 0.8831 0.8830 0.8830 0.8829
2112.000000 0.8829 0.8828 0.8828 0.8827 0.8827
2117.000000 0.8826 0.8826 0.8825 0.8825 0.8824
2122.000000 0.8824 0.8823 0.8823 0.8822 0.8822
2127.000000 0.8821 0.8821 0.8820 0.8820 0.8819
2132.000000 0.8818 0.8817 0.8817 0.8816 0.8816
2137.000000 0.8815 0.8815 0.8814 0.8814 0.8813
2142.000000 0.8813 0.8812 0.8812 0.8811 0.8811
2147.000000 0.8810 0.8810 0.8809 0.8809 0.8808
2152.000000 0.8808 0.8807 0.8807 0.8806 0.8806
2157.000000 0.8805 0.8804 0.8803 0.8803 0.8802
2162.000000 0.8802 0.8801 0.8801 0.8800 0.8800
2167.000000 0.8799 0.8799 0.8798 0.8798 0.8797
2172.000000 0.8797 0.8796 0.8796 0.8795 0.8795
2177.000000 0.8794 0.8794 0.8793 0.8793 0.8792
2182.000000 0.8792 0.8791 0.8790 0.8789 0.8789
2187.000000 0.8788 0.8788 0.8788 0.8788 0.8788
2192.000000 0.8788 0.8788 0.8789 0.8789 0.8789
2197.000000 0.8789 0.8789 0.8789 0.8789 0.8788
2202.000000 0.8788 0.8787 0.8786 0.8785 0.8785
2207.000000 0.8784 0.8783 0.8782 0.8782 0.8781
2212.000000 0.8780 0.8779 0.8779 0.8778 0.8778
2217.000000 0.8777 0.8776 0.8775 0.8774 0.8773
2222.000000 0.8773 0.8772 0.8771 0.8770 0.8769
2227.000000 0.8768 0.8768 0.8767 0.8766 0.8765
2232.000000 0.8765 0.8764 0.8764 0.8765 0.8766
2237.000000 0.8767 0.8768 0.8769 0.8770 0.8771
2242.000000 0.8772 0.8773 0.8775 0.8776 0.8777
2247.000000 0.8778 0.8779 0.8780 0.8781 0.8782
2252.000000 0.8783 0.8784 0.8785 0.8786 0.8787
2257.000000 0.8789 0.8791 0.8792 0.8794 0.8795
2262.000000 0.8797 0.8799 0.8801 0.8802 0.8804
2267.000000 0.8805 0.8807 0.8809 0.8811 0.8813
2272.000000 0.8816 0.8819 0.8822 0.8825 0.8828
2277.000000 0.8831 0.8834 0.8837 0.8840 0.8843
2282.000000 0.8846 0.8849 0.8852 0.8854 0.8857
2287.000000 0.8860 0.8863 0.8855 0.8848 0.8840
2292.000000 0.8833 0.8825 0.8818 0.8809 0.8801
2297.000000 0.8794 0.8788 0.8784 0.8780 0.8776
2302.000000 0.8772 0.8769 0.8767 0.8769 0.8772
2307.000000 0.8775 0.8778 0.8780 0.8783 0.8786
2312.000000 0.8790 0.8795 0.8801 0.8806 0.8812
2317.000000 0.8817 0.8823 0.8828 0.8834 0.8839
2322.000000 0.8844 0.8849 0.8855 0.8858 0.8861
2327.000000 0.8861 0.8861 0.8861 0.8861 0.8861
2332.000000 0.8862 0.8859 0.8856 0.8850 0.8844
2337.000000 0.8840 0.8836 0.8832 0.8829 0.8826
2342.000000 0.8823 0.8820 0.8817 0.8815 0.8814
2347.000000 0.8812 0.8811 0.8809 0.8808 0.8806
2352.000000 0.8805 0.8804 0.8803 0.8802 0.8801
2357.000000 0.8800 0.8800 0.8799 0.8799 0.8798
2362.000000 0.8797 0.8796 0.8796 0.8795 0.8794
2367.000000 0.8793 0.8793 0.8793 0.8793 0.8792
2372.000000 0.8792 0.8791 0.8791 0.8790 0.8790
2377.000000 0.8789 0.8789 0.8789 0.8789 0.8788
2382.000000 0.8788 0.8787 0.8787 0.8786 0.8786
2387.000000 0.8785 0.8785 0.8785 0.8785 0.8784
2392.000000 0.8784 0.8783 0.8783 0.8782 0.8782
2397.000000 0.8782 0.8782 0.8782 0.8782 0.8782
2402.000000 0.8782 0.8782 0.8782 0.8782 0.8782
2407.000000 0.8782 0.8782 0.8782 0.8782 0.8781
2412.000000 0.8781 0.8781 0.8781 0.8781 0.8781
2417.000000 0.8781 0.8781 0.8781 0.8781 0.8781
2422.000000 0.8781 0.8781 0.8781 0.8780 0.8780
2427.000000 0.8780 0.8780 0.8780 0.8780 0.8780
2432.000000 0.8780 0.8779 0.8779 0.8779 0.8779
2437.000000 0.8778 0.8778 0.8777 0.8777 0.8776
2442.000000 0.8776 0.8776 0.8776 0.8775 0.8775
2447.000000 0.8774 0.8774 0.8774 0.8774 0.8773
2452.000000 0.8773 0.8772 0.8772 0.8772 0.8772
2457.000000 0.8773 0.8774 0.8774 0.8775 0.8775
2462.000000 0.8776 0.8776 0.8776 0.8775 0.8775
2467.000000 0.8774 0.8774 0.8773 0.8772 0.8771
2472.000000 0.8771 0.8767 0.8763 0.8758 0.8753
2477.000000 0.8748 0.8744 0.8739 0.8734 0.8729
2482.000000 0.8724 0.8719 0.8714 0.8713 0.8712
2487.000000 0.8714 0.8717 0.8719 0.8722 0.8724
2492.000000 0.8727 0.8729 0.8732 0.8734 0.8737
2497.000000 0.8739 0.8742 0.8744 0.8747 0.8749
2502.000000 0.8752 0.8754 0.8757 0.8759 0.8761
2507.000000 0.8763 0.8766 0.8768 0.8771 0.8773
2512.000000 0.8775 0.8777 0.8780 0.8779 0.8779
2517.000000 0.8779 0.8779 0.8778 0.8778 0.8777
2522.000000 0.8776 0.8775 0.8774 0.8772 0.8771
2527.000000 0.8769 0.8768 0.8767 0.8766 0.8764
2532.000000 0.8763 0.8761 0.8760 0.8758 0.8757
2537.000000 0.8756 0.8755 0.8754 0.8753 0.8752
2542.000000 0.8751 0.8750 0.8749 0.8747 0.8746
2547.000000 0.8745 0.8744 0.8743 0.8742 0.8741
2552.000000 0.8740 0.8739 0.8738 0.8737 0.8736
2557.000000 0.8734 0.8733 0.8732 0.8732 0.8731
2562.000000 0.8731 0.8730 0.8730 0.8730 0.8730
2567.000000 0.8729 0.8729 0.8728 0.8728 0.8727
2572.000000 0.8727 0.8726 0.8726 0.8725 0.8725
2577.000000 0.8724 0.8724 0.8723 0.8723 0.8722
2582.000000 0.8722 0.8721 0.8721 0.8720 0.8720
2587.000000 0.8719 0.8718 0.8717 0.8717 0.8716
2592.000000 0.8716 0.8715 0.8715 0.8714 0.8714
2597.000000 0.8713 0.8712 0.8711 0.8711 0.8710
2602.000000 0.8710 0.8709 0.8709 0.8708 0.8707
2607.000000 0.8706 0.8706 0.8705 0.8705 0.8704
2612.000000 0.8704 0.8703 0.8703 0.8702 0.8701
2617.000000 0.8700 0.8700 0.8699 0.8699 0.8698
2622.000000 0.8698 0.8697 0.8697 0.8696 0.8696
2627.000000 0.8695 0.8694 0.8693 0.8693 0.8693
2632.000000 0.8693 0.8693 0.8694 0.8694 0.8694
2637.000000 0.8694 0.8694 0.8694 0.8695 0.8695
2642.000000 0.8695 0.8695 0.8695 0.8695 0.8695
2647.000000 0.8695 0.8696 0.8696 0.8696 0.8696
2652.000000 0.8696 0.8696 0.8697 0.8697 0.8697
2657.000000 0.8696 0.8696 0.8695 0.8695 0.8694
2662.000000 0.8693 0.8692 0.8692 0.8691 0.8690
2667.000000 0.8689 0.8689 0.8688 0.8687 0.8686
2672.000000 0.8686 0.8685 0.8685 0.8684 0.8683
2677.000000 0.8682 0.8682 0.8681 0.8680 0.8679
2682.000000 0.8679 0.8678 0.8678 0.8678 0.8678
2687.000000 0.8678 0.8678 0.8678 0.8679 0.8679
2692.000000 0.8679 0.8679 0.8679 0.8679 0.8679
2697.000000 0.8679 0.8680 0.8680 0.8680 0.8680
2702.000000 0.8680 0.8683 0.8686 0.8690 0.8694
2707.000000 0.8698 0.8703 0.8707 0.8711 0.8715
2712.000000 0.8719 0.8723 0.8727 0.8730 0.8734
2717.000000 0.8737 0.8740 0.8743 0.8747 0.8749
2722.000000 0.8752 0.8752 0.8752 0.8752 0.8753
2727.000000 0.8752 0.8751 0.8748 0.8746 0.8744
2732.000000 0.8742 0.8739 0.8737 0.8735 0.8733
2737.000000 0.8730 0.8728 0.8725 0.8723 0.8720
2742.000000 0.8717 0.8714 0.8711 0.8708 0.8705
2747.000000 0.8702 0.8699 0.8696 0.8693 0.8689
2752.000000 0.8685 0.8681 0.8678 0.8674 0.8670
2757.000000 0.8666 0.8662 0.8658 0.8654 0.8650
2762.000000 0.8646 0.8642 0.8638 0.8633 0.8628
2767.000000 0.8619 0.8610 0.8600 0.8591 0.8582
2772.000000 0.8573 0.8563 0.8554 0.8541 0.8529
2777.000000 0.8508 0.8488 0.8469 0.8451 0.8444
2782.000000 0.8437 0.8430 0.8423 0.8416 0.8409
2787.000000 0.8408 0.8407 0.8406 0.8405 0.8403
2792.000000 0.8402 0.8400 0.8399 0.8397 0.8396
2797.000000 0.8394 0.8393 0.8391 0.8390 0.8389
2802.000000 0.8388 0.8386 0.8384 0.8382 0.8381
2807.000000 0.8379 0.8378 0.8376 0.8375 0.8373
2812.000000 0.8372 0.8370 0.8369 0.8367 0.8366
2817.000000 0.8364 0.8363 0.8361 0.8360 0.8358
2822.000000 0.8356 0.8354 0.8353 0.8351 0.8350
2827.000000 0.8348 0.8347 0.8345 0.8344 0.8342
2832.000000 0.8341 0.8339 0.8338 0.8336 0.8335
2837.000000 0.8333 0.8332 0.8330 0.8329 0.8327
2842.000000 0.8326 0.8325 0.8324 0.8323 0.8323
2847.000000 0.8322 0.8322 0.8321 0.8321 0.8320
2852.000000 0.8319 0.8318 0.8318 0.8317 0.8317
2857.000000 0.8316 0.8316 0.8309 0.8302 0.8291
2862.000000 0.8280 0.8266 0.8253 0.8239 0.8226
2867.000000 0.8212 0.8199 0.8185 0.8171 0.8157
2872.000000 0.8144 0.8127 0.8111 0.8088 0.8066
2877.000000 0.8040 0.8015 0.7978 0.7942 0.7883
2882.000000 0.7824 0.7769 0.7715 0.7664 0.7613
2887.000000 0.7571 0.7530 0.7446 0.7362 0.7276
2892.000000 0.7191 0.7106 0.7021 0.6936 0.6851
2897.000000 0.6800 0.6749 0.6746 0.6744 0.6756
2902.000000 0.6744 0.6842 0.6917 0.6992 0.7067
2907.000000 0.7141 0.7216 0.7290 0.7365 0.7434
2912.000000 0.7503 0.7515 0.7527 0.7530 0.7534
2917.000000 0.7536 0.7539 0.7538 0.7537 0.7532
2922.000000 0.7539 0.7522 0.7517 0.7502 0.7487
2927.000000 0.7460 0.7433 0.7380 0.7328 0.7281
2932.000000 0.7235 0.7186 0.7137 0.7086 0.7036
2937.000000 0.6987 0.6938 0.6886 0.6834 0.6782
2942.000000 0.6730 0.6547 0.6365 0.6167 0.5969
2947.000000 0.5770 0.5572 0.5373 0.5175 0.4932
2952.000000 0.4690 0.4426 0.4163 0.3899 0.3635
2957.000000 0.3371 0.3107 0.2843 0.2579 0.2335
2962.000000 0.2073 0.2093 0.2094 0.2096 0.2099
2967.000000 0.2317 0.2535 0.2797 0.3060 0.3323
2972.000000 0.3586 0.3848 0.4111 0.4373 0.4636
2977.000000 0.4899 0.5162 0.5424 0.5687 0.5949
2982.000000 0.6212 0.6475 0.6738 0.6878 0.7019
2987.000000 0.7014 0.7009 0.7001 0.7051 0.6976
2992.000000 0.6960 0.6947 0.6934 0.6904 0.6875
2997.000000 0.6827 0.6779 0.6714 0.6649 0.6501
3002.000000 0.6353 0.6186 0.6019 0.5852 0.5685
3007.000000 0.5581 0.5478 0.5470 0.5462 0.5455
3012.000000 0.5448 0.5442 0.5436 0.5430 0.5424
3017.000000 0.5418 0.5412 0.5406 0.5400 0.5391
3022.000000 0.5382 0.5372 0.5306 0.5351 0.5340
3027.000000 0.5376 0.5412 0.5541 0.5671 0.5801
3032.000000 0.5931 0.6060 0.6190 0.6319 0.6449
3037.000000 0.6512 0.6576 0.6574 0.6587 0.6570
3042.000000 0.6569 0.6394 0.6220 0.6035 0.5850
3047.000000 0.5665 0.5480 0.5295 0.5111 0.4926
3052.000000 0.4741 0.4595 0.4449 0.4449 0.4460
3057.000000 0.4485 0.4521 0.4672 0.4823 0.4973
3062.000000 0.5124 0.5197 0.5270 0.5119 0.4969
3067.000000 0.4758 0.5304 0.4337 0.4127 0.3916
3072.000000 0.3705 0.3498 0.3291 0.3291 0.3291
3077.000000 0.3291 0.3292 0.3675 0.3277 0.4554
3082.000000 0.5051 0.5547 0.6043 0.6445 0.6847
3087.000000 0.6839 0.6831 0.6819 0.6808 0.6795
3092.000000 0.6782 0.6816 0.6851 0.6953 0.7056
3097.000000 0.7158 0.7261 0.7363 0.7466 0.7568
3102.000000 0.7671 0.7773 0.7875 0.7982 0.8090
3107.000000 0.8148 0.8206 0.8228 0.8251 0.8257
3112.000000 0.8263 0.8266 0.8269 0.8270 0.8298
3117.000000 0.8274 0.8276 0.8277 0.8279 0.8279
3122.000000 0.8279 0.8278 0.8277 0.8274 0.8271
3127.000000 0.8265 0.8260 0.8254 0.8248 0.8202
3132.000000 0.8157 0.8105 0.8054 0.8002 0.7951
3137.000000 0.7899 0.7847 0.7836 0.7826 0.7823
3142.000000 0.7820 0.8023 0.7797 0.8299 0.8371
3147.000000 0.8381 0.8391 0.8400 0.8409 0.8418
3152.000000 0.8428 0.8436 0.8444 0.8451 0.8459
3157.000000 0.8467 0.8475 0.8481 0.8488 0.8494
3162.000000 0.8500 0.8506 0.8513 0.8519 0.8525
3167.000000 0.8531 0.8538 0.8543 0.8548 0.8553
3172.000000 0.8559 0.8564 0.8569 0.8574 0.8580
3177.000000 0.8584 0.8589 0.8593 0.8598 0.8602
3182.000000 0.8606 0.8610 0.8614 0.8618 0.8623
3187.000000 0.8627 0.8631 0.8635 0.8640 0.8644
3192.000000 0.8648 0.8651 0.8655 0.8659 0.8663
3197.000000 0.8666 0.8670 0.8674 0.8678 0.8681
3202.000000 0.8685 0.8689 0.8693 0.8696 0.8699
3207.000000 0.8702 0.8706 0.8709 0.8712 0.8715
3212.000000 0.8719 0.8722 0.8726 0.8728 0.8731
3217.000000 0.8732 0.8733 0.8734 0.8736 0.8737
3222.000000 0.8739 0.8740 0.8742 0.8743 0.8745
3227.000000 0.8746 0.8748 0.8749 0.8751 0.8752
3232.000000 0.8754 0.8755 0.8757 0.8758 0.8759
3237.000000 0.8760 0.8762 0.8763 0.8765 0.8766
3242.000000 0.8767 0.8768 0.8769 0.8770 0.8771
3247.000000 0.8772 0.8773 0.8774 0.8775 0.8776
3252.000000 0.8777 0.8778 0.8779 0.8780 0.8781
3257.000000 0.8782 0.8783 0.8784 0.8785 0.8786
3262.000000 0.8787 0.8788 0.8789 0.8790 0.8791
3267.000000 0.8792 0.8793 0.8794 0.8795 0.8796
3272.000000 0.8797 0.8798 0.8799 0.8800 0.8801
3277.000000 0.8802 0.8803 0.8804 0.8805 0.8806
3282.000000 0.8807 0.8808 0.8809 0.8810 0.8811
3287.000000 0.8812 0.8813 0.8814 0.8815 0.8816
3292.000000 0.8817 0.8817 0.8818 0.8818 0.8818
3297.000000 0.8818 0.8819 0.8819 0.8819 0.8819
3302.000000 0.8819 0.8819 0.8820 0.8820 0.8820
3307.000000 0.8820 0.8821 0.8821 0.8821 0.8821
3312.000000 0.8822 0.8822 0.8822 0.8822 0.8823
3317.000000 0.8823 0.8823 0.8823 0.8824 0.8824
3322.000000 0.8824 0.8824 0.8825 0.8825 0.8825
3327.000000 0.8825 0.8826 0.8826 0.8826 0.8826
3332.000000 0.8826 0.8826 0.8827 0.8827 0.8827
3337.000000 0.8827 0.8827 0.8827 0.8828 0.8828
3342.000000 0.8828 0.8828 0.8828 0.8828 0.8828
3347.000000 0.8828 0.8829 0.8829 0.8829 0.8829
3352.000000 0.8829 0.8829 0.8830 0.8830 0.8830
3357.000000 0.8830 0.8830 0.8830 0.8830 0.8830
3362.000000 0.8831 0.8831 0.8831 0.8831 0.8831
3367.000000 0.8831 0.8831 0.8831 0.8832 0.8832
3372.000000 0.8833 0.8833 0.8834 0.8834 0.8834
3377.000000 0.8834 0.8835 0.8835 0.8836 0.8836
3382.000000 0.8837 0.8837 0.8837 0.8837 0.8838
3387.000000 0.8838 0.8839 0.8839 0.8839 0.8839
3392.000000 0.8840 0.8840 0.8841 0.8841 0.8842
3397.000000 0.8842 0.8842 0.8842 0.8843 0.8843
3402.000000 0.8844 0.8844 0.8845 0.8845 0.8845
3407.000000 0.8845 0.8846 0.8846 0.8847 0.8847
3412.000000 0.8848 0.8848 0.8848 0.8848 0.8849
3417.000000 0.8849 0.8850 0.8850 0.8850 0.8850
3422.000000 0.8850 0.8849 0.8849 0.8849 0.8849
3427.000000 0.8849 0.8849 0.8848 0.8848 0.8848
3432.000000 0.8848 0.8848 0.8848 0.8847 0.8847
3437.000000 0.8847 0.8847 0.8847 0.8847 0.8846
3442.000000 0.8846 0.8846 0.8846 0.8846 0.8846
3447.000000 0.8845 0.8845 0.8845 0.8845 0.8845
3452.000000 0.8845 0.8844 0.8844 0.8844 0.8844
3457.000000 0.8844 0.8844 0.8843 0.8843 0.8843
3462.000000 0.8843 0.8843 0.8843 0.8842 0.8842
3467.000000 0.8842 0.8842 0.8842 0.8842 0.8842
3472.000000 0.8842 0.8841 0.8841 0.8841 0.8841
3477.000000 0.8841 0.8841 0.8841 0.8841 0.8841
3482.000000 0.8841 0.8841 0.8841 0.8840 0.8840
3487.000000 0.8840 0.8840 0.8840 0.8840 0.8840
3492.000000 0.8840 0.8840 0.8840 0.8840 0.8840
3497.000000 0.8840 0.8840 0.8839 0.8839 0.8839
3502.000000 0.8839 0.8839 0.8839 0.8839 0.8839
3507.000000 0.8839 0.8839 0.8839 0.8839 0.8838
3512.000000 0.8838 0.8838 0.8838 0.8838 0.8838
3517.000000 0.8838 0.8838 0.8838 0.8838 0.8837
3522.000000 0.8837 0.8837 0.8837 0.8836 0.8836
3527.000000 0.8836 0.8836 0.8835 0.8835 0.8835
3532.000000 0.8835 0.8834 0.8834 0.8834 0.8834
3537.000000 0.8833 0.8833 0.8833 0.8833 0.8832
3542.000000 0.8832 0.8832 0.8832 0.8831 0.8831
3547.000000 0.8831 0.8831 0.8830 0.8830 0.8830
3552.000000 0.8830 0.8829 0.8829 0.8829 0.8829
3557.000000 0.8828 0.8828 0.8828 0.8828 0.8828
3562.000000 0.8828 0.8828 0.8828 0.8828 0.8828
3567.000000 0.8828 0.8828 0.8828 0.8828 0.8827
3572.000000 0.8827 0.8827 0.8827 0.8827 0.8827
3577.000000 0.8827 0.8827 0.8827 0.8827 0.8827
3582.000000 0.8827 0.8826 0.8826 0.8826 0.8826
3587.000000 0.8825 0.8825 0.8823 0.8822 0.8812
3592.000000 0.8803 0.8793 0.8783 0.8775 0.8767
3597.000000 0.8759 0.8752 0.8744 0.8737 0.8729
3602.000000 0.8722 0.8718 0.8715 0.8712 0.8710
3607.000000 0.8707 0.8705 0.8702 0.8700 0.8697
3612.000000 0.8694 0.8692 0.8690 0.8689 0.8689
3617.000000 0.8688 0.8688 0.8687 0.8686 0.8685
3622.000000 0.8685 0.8684 0.8684 0.8683 0.8683
3627.000000 0.8682 0.8682 0.8681 0.8681 0.8682
3632.000000 0.8683 0.8684 0.8686 0.8687 0.8688
3637.000000 0.8689 0.8690 0.8691 0.8692 0.8693
3642.000000 0.8694 0.8695 0.8697 0.8698 0.8699
3647.000000 0.8701 0.8703 0.8704 0.8706 0.8708
3652.000000 0.8710 0.8712 0.8714 0.8715 0.8717
3657.000000 0.8719 0.8721 0.8722 0.8723 0.8722
3662.000000 0.8721 0.8720 0.8720 0.8719 0.8719
3667.000000 0.8718 0.8718 0.8715 0.8713 0.8707
3672.000000 0.8702 0.8697 0.8692 0.8686 0.8681
3677.000000 0.8675 0.8670 0.8661 0.8652 0.8639
3682.000000 0.8626 0.8611 0.8596 0.8580 0.8564
3687.000000 0.8548 0.8532 0.8514 0.8496 0.8476
3692.000000 0.8456 0.8449 0.8443 0.8442 0.8441
3697.000000 0.8450 0.8460 0.8475 0.8491 0.8504
3702.000000 0.8518 0.8531 0.8544 0.8557 0.8571
3707.000000 0.8581 0.8592 0.8601 0.8610 0.8619
3712.000000 0.8628 0.8637 0.8646 0.8655 0.8665
3717.000000 0.8670 0.8676 0.8680 0.8685 0.8689
3722.000000 0.8693 0.8693 0.8693 0.8693 0.8693
3727.000000 0.8692 0.8692 0.8692 0.8692 0.8691
3732.000000 0.8691 0.8691 0.8692 0.8692 0.8692
3737.000000 0.8692 0.8692 0.8692 0.8692 0.8692
3742.000000 0.8693 0.8693 0.8693 0.8693 0.8694
3747.000000 0.8694 0.8695 0.8695 0.8696 0.8696
3752.000000 0.8697 0.8697 0.8697 0.8697 0.8698
3757.000000 0.8699 0.8700 0.8701 0.8703 0.8704
3762.000000 0.8706 0.8707 0.8709 0.8710 0.8712
3767.000000 0.8713 0.8715 0.8717 0.8720 0.8723
3772.000000 0.8727 0.8730 0.8734 0.8737 0.8741
3777.000000 0.8744 0.8747 0.8750 0.8754 0.8756
3782.000000 0.8759 0.8761 0.8764 0.8766 0.8769
3787.000000 0.8771 0.8774 0.8775 0.8777 0.8778
3792.000000 0.8780 0.8781 0.8782 0.8783 0.8784
3797.000000 0.8785 0.8786 0.8787 0.8789 0.8790
3802.000000 0.8791 0.8792 0.8793 0.8794 0.8796
3807.000000 0.8797 0.8798 0.8799 0.8800 0.8801
3812.000000 0.8802 0.8803 0.8805 0.8806 0.8807
##END=
