##TITLE=Imidazole-4,5-dicarboxylic acid
##JCAMP-DX=4.24
##DATA TYPE=INFRARED SPECTRUM
##CLASS=COBLENTZ III
##ORIGIN=SOUTHERN RESEARCH INSTITUTE
##OWNER=Copyright (C) 1987 by the Coblentz Society
Collection (C) 2018 copyright by the U.S. Secretary of Commerce
on behalf of the United States of America. All rights reserved.
##DATE=1956/09/25
##NAMES=1H-imidazole-4,5-dicarboxylic acid
##CAS REGISTRY NO=570-22-9
##MOLFORM=C5 H4 N2 O4
##SOURCE REFERENCE=COBLENTZ NO. 8346
##$NIST SOURCE=COBLENTZ
##$NIST IMAGE=cob8346
##SPECTROMETER/DATA SYSTEM=PERKIN-ELMER 21 (GRATING)
##INSTRUMENT PARAMETERS=FILTER AT ABOUT 10 MICRON
##STATE=SOLID (0.8 mg / 650 mg KBr DISC)
$$SPECTRAL CONTAMINATION DUE TO H2O AROUND 3400 CM^-^1
##SAMPLING PROCEDURE=TRANSMISSION
##RESOLUTION=2
##DATA PROCESSING=DIGITIZED BY COBLENTZ SOCIETY (BATCH II) FROM HARD COPY
##XUNITS=1/CM
##YUNITS=TRANSMITTANCE
##XFACTOR=1.0
##YFACTOR=1
##FIRSTX=622
##LASTX=4000
##FIRSTY=0.4179
##MAXX=4000
##MINX=622
##MAXY=1.0073
##MINY=0.005
##NPOINTS=3379
##XYDATA=(X++(Y..Y))
622.000000 0.4179 0.4212 0.4176 0.4292 0.4349
627.000000 0.4460 0.4606 0.4822 0.5116 0.5411
632.000000 0.5706 0.6000 0.6295 0.6590 0.6885
637.000000 0.7474 0.7685 0.7778 0.7867 0.7909
642.000000 0.7950 0.7992 0.8033 0.8072 0.8104
647.000000 0.8136 0.8168 0.8201 0.8245 0.8290
652.000000 0.8346 0.8440 0.8515 0.8569 0.8623
657.000000 0.8676 0.8731 0.8786 0.8840 0.8894
662.000000 0.8945 0.8997 0.9049 0.9101 0.9152
667.000000 0.9203 0.9254 0.9297 0.9330 0.9363
672.000000 0.9396 0.9429 0.9462 0.9498 0.9536
677.000000 0.9574 0.9612 0.9650 0.9684 0.9714
682.000000 0.9745 0.9769 0.9775 0.9781 0.9787
687.000000 0.9793 0.9801 0.9822 0.9842 0.9880
692.000000 0.9919 0.9940 0.9957 0.9975 0.9985
697.000000 0.9991 0.9993 0.9994 0.9995 0.9997
702.000000 1.0003 1.0010 1.0017 1.0028 1.0040
707.000000 1.0052 1.0059 1.0067 1.0070 1.0071
712.000000 1.0073 1.0066 1.0067 1.0061 1.0052
717.000000 1.0043 1.0034 1.0017 0.9999 0.9981
722.000000 0.9960 0.9933 0.9906 0.9880 0.9856
727.000000 0.9833 0.9810 0.9786 0.9763 0.9739
732.000000 0.9716 0.9692 0.9668 0.9644 0.9619
737.000000 0.9593 0.9537 0.9462 0.9398 0.9353
742.000000 0.9307 0.9263 0.9223 0.9182 0.9142
747.000000 0.9101 0.9060 0.9020 0.8979 0.8920
752.000000 0.8853 0.8775 0.8215 0.7834 0.7224
757.000000 0.6614 0.6004 0.5394 0.4785 0.4175
762.000000 0.3964 0.3968 0.3959 0.4743 0.5207
767.000000 0.5671 0.6135 0.6599 0.7063 0.7473
772.000000 0.7526 0.7556 0.7580 0.7593 0.7600
777.000000 0.7598 0.7592 0.7574 0.7578 0.7566
782.000000 0.7547 0.7526 0.7504 0.7478 0.7449
787.000000 0.7404 0.7356 0.7269 0.7184 0.7114
792.000000 0.7045 0.6987 0.6930 0.6874 0.6804
797.000000 0.6732 0.6659 0.6574 0.6475 0.6330
802.000000 0.6026 0.5885 0.5765 0.5679 0.5593
807.000000 0.5490 0.5465 0.5465 0.5465 0.5465
812.000000 0.5462 0.5460 0.5452 0.5443 0.5331
817.000000 0.5216 0.5102 0.4987 0.4872 0.4758
822.000000 0.4643 0.4528 0.4414 0.3879 0.3696
827.000000 0.3560 0.3441 0.3311 0.3169 0.3073
832.000000 0.2987 0.2892 0.2784 0.2694 0.2631
837.000000 0.2568 0.2504 0.2442 0.2381 0.2320
842.000000 0.2259 0.2195 0.2127 0.2058 0.1990
847.000000 0.1937 0.1889 0.1842 0.1794 0.1746
852.000000 0.1701 0.1662 0.1623 0.1584 0.1544
857.000000 0.1505 0.1463 0.1410 0.1357 0.1305
862.000000 0.1250 0.1186 0.1123 0.1039 0.1024
867.000000 0.1018 0.1013 0.1008 0.1004 0.1000
872.000000 0.1000 0.1001 0.1001 0.1003 0.1004
877.000000 0.1005 0.1007 0.1006 0.1005 0.1003
882.000000 0.1001 0.0998 0.0995 0.0989 0.0982
887.000000 0.0976 0.0970 0.0964 0.0959 0.0953
892.000000 0.0948 0.0943 0.0939 0.0936 0.0937
897.000000 0.0931 0.0930 0.0932 0.0934 0.0942
902.000000 0.0953 0.0964 0.0981 0.1001 0.1024
907.000000 0.1050 0.1077 0.1114 0.1165 0.1217
912.000000 0.1283 0.1349 0.1404 0.1457 0.1510
917.000000 0.1571 0.1637 0.2000 0.2131 0.2233
922.000000 0.2494 0.2754 0.3015 0.3276 0.3537
927.000000 0.3797 0.4058 0.4303 0.4415 0.4437
932.000000 0.4446 0.4468 0.4439 0.4423 0.4399
937.000000 0.4377 0.4343 0.4250 0.4136 0.4021
942.000000 0.3907 0.3793 0.3678 0.3564 0.3449
947.000000 0.3335 0.3221 0.3106 0.2970 0.2871
952.000000 0.2801 0.2733 0.2663 0.2589 0.2514
957.000000 0.2452 0.2391 0.2329 0.2270 0.2211
962.000000 0.2146 0.2069 0.2030 0.1992 0.1958
967.000000 0.1940 0.1929 0.1924 0.1918 0.1914
972.000000 0.1886 0.1920 0.1923 0.1930 0.1936
977.000000 0.1943 0.1951 0.1959 0.1968 0.1979
982.000000 0.1990 0.2001 0.2012 0.2023 0.2033
987.000000 0.2044 0.2055 0.2068 0.2080 0.2091
992.000000 0.2091 0.2092 0.2095 0.2098 0.2110
997.000000 0.2122 0.2135 0.2153 0.2171 0.2193
1002.000000 0.2215 0.2243 0.2274 0.2305 0.2339
1007.000000 0.2374 0.2408 0.2447 0.2486 0.2526
1012.000000 0.2569 0.2612 0.2655 0.2696 0.2735
1017.000000 0.2774 0.2813 0.2851 0.2900 0.2950
1022.000000 0.3001 0.3049 0.3093 0.3138 0.3184
1027.000000 0.3230 0.3270 0.3299 0.3327 0.3355
1032.000000 0.3379 0.3402 0.3424 0.3446 0.3464
1037.000000 0.3483 0.3491 0.3494 0.3496 0.3495
1042.000000 0.3514 0.3488 0.3483 0.3478 0.3473
1047.000000 0.3467 0.3456 0.3442 0.3425 0.3409
1052.000000 0.3392 0.3375 0.3352 0.3328 0.3266
1057.000000 0.3208 0.3153 0.2753 0.2613 0.2529
1062.000000 0.2491 0.2486 0.2495 0.2462 0.2528
1067.000000 0.2549 0.2723 0.2960 0.3197 0.3434
1072.000000 0.3581 0.3629 0.3656 0.3693 0.3730
1077.000000 0.3758 0.3787 0.3823 0.3868 0.3902
1082.000000 0.3933 0.3963 0.3994 0.4024 0.4051
1087.000000 0.4078 0.4105 0.4130 0.4151 0.4172
1092.000000 0.4194 0.4215 0.4237 0.4251 0.4265
1097.000000 0.4278 0.4292 0.4305 0.4316 0.4327
1102.000000 0.4338 0.4349 0.4360 0.4371 0.4383
1107.000000 0.4394 0.4406 0.4418 0.4429 0.4440
1112.000000 0.4451 0.4462 0.4472 0.4482 0.4492
1117.000000 0.4502 0.4512 0.4522 0.4530 0.4538
1122.000000 0.4545 0.4547 0.4548 0.4550 0.4552
1127.000000 0.4554 0.4557 0.4559 0.4564 0.4572
1132.000000 0.4579 0.4588 0.4598 0.4590 0.4587
1137.000000 0.4584 0.4581 0.4578 0.4575 0.4570
1142.000000 0.4566 0.4561 0.4556 0.4549 0.4541
1147.000000 0.4534 0.4526 0.4519 0.4512 0.4502
1152.000000 0.4493 0.4484 0.4474 0.4460 0.4445
1157.000000 0.4430 0.4415 0.4400 0.4385 0.4370
1162.000000 0.4351 0.4332 0.4313 0.4293 0.4272
1167.000000 0.4243 0.4215 0.4195 0.4174 0.4153
1172.000000 0.4134 0.4120 0.4118 0.4114 0.4127
1177.000000 0.4133 0.4140 0.4148 0.4156 0.4164
1182.000000 0.4174 0.4183 0.4194 0.4209 0.4223
1187.000000 0.4244 0.4264 0.4289 0.4844 0.4955
1192.000000 0.5065 0.5175 0.5285 0.5396 0.5506
1197.000000 0.5616 0.5727 0.5837 0.5947 0.6058
1202.000000 0.6149 0.6281 0.6411 0.6502 0.6550
1207.000000 0.6590 0.6613 0.6618 0.6622 0.6632
1212.000000 0.6617 0.6612 0.6602 0.6591 0.6581
1217.000000 0.6558 0.6532 0.6503 0.6473 0.6444
1222.000000 0.6415 0.6373 0.6330 0.6287 0.6209
1227.000000 0.6112 0.5968 0.5822 0.5642 0.5447
1232.000000 0.5253 0.5058 0.4863 0.4669 0.4474
1237.000000 0.4279 0.4085 0.3890 0.3696 0.3501
1242.000000 0.3306 0.3112 0.2917 0.2717 0.2563
1247.000000 0.2520 0.2520 0.2509 0.2516 0.2545
1252.000000 0.2663 0.2809 0.2954 0.3099 0.3244
1257.000000 0.3389 0.3534 0.3686 0.3748 0.3805
1262.000000 0.3861 0.3927 0.3996 0.4069 0.4142
1267.000000 0.4221 0.4340 0.5420 0.5621 0.5878
1272.000000 0.6021 0.6361 0.6497 0.6614 0.6775
1277.000000 0.6865 0.6924 0.6982 0.7025 0.7068
1282.000000 0.7111 0.7153 0.7193 0.7233 0.7272
1287.000000 0.7301 0.7322 0.7329 0.7348 0.7341
1292.000000 0.7343 0.7345 0.7346 0.7346 0.7346
1297.000000 0.7340 0.7329 0.7318 0.7305 0.7291
1302.000000 0.7277 0.7263 0.7247 0.7230 0.7214
1307.000000 0.7197 0.7182 0.7166 0.7151 0.7134
1312.000000 0.7118 0.7101 0.7085 0.7068 0.7050
1317.000000 0.7031 0.7013 0.6989 0.6962 0.6934
1322.000000 0.6907 0.6875 0.6843 0.6811 0.6776
1327.000000 0.6734 0.6692 0.6650 0.6605 0.6560
1332.000000 0.6513 0.6428 0.6343 0.6194 0.6171
1337.000000 0.6145 0.6120 0.6089 0.6056 0.6020
1342.000000 0.5980 0.5932 0.5875 0.5819 0.5741
1347.000000 0.5660 0.5572 0.5463 0.5328 0.5148
1352.000000 0.4987 0.4860 0.4709 0.4554 0.4197
1357.000000 0.3948 0.3813 0.3678 0.3550 0.3427
1362.000000 0.3159 0.2993 0.2749 0.2504 0.2259
1367.000000 0.2014 0.1770 0.1596 0.1466 0.1300
1372.000000 0.1142 0.1029 0.0929 0.0836 0.0692
1377.000000 0.0494 0.0397 0.0377 0.0392 0.0396
1382.000000 0.0415 0.0428 0.0450 0.0478 0.0520
1387.000000 0.0630 0.0706 0.0774 0.0837 0.0906
1392.000000 0.0984 0.1127 0.1388 0.1518 0.1633
1397.000000 0.1782 0.1880 0.2007 0.2179 0.2210
1402.000000 0.2221 0.2221 0.2213 0.2214 0.2206
1407.000000 0.2197 0.2180 0.2164 0.2129 0.2087
1412.000000 0.2040 0.1988 0.1933 0.1817 0.1657
1417.000000 0.1550 0.1480 0.1389 0.1269 0.1186
1422.000000 0.1113 0.1077 0.1041 0.1005 0.0969
1427.000000 0.0933 0.0900 0.0867 0.0846 0.0828
1432.000000 0.0815 0.0805 0.0796 0.0789 0.0783
1437.000000 0.0778 0.0772 0.0760 0.0715 0.0646
1442.000000 0.0444 0.0331 0.0273 0.0213 0.0153
1447.000000 0.0107 0.0086 0.0076 0.0050 0.0064
1452.000000 0.0062 0.0063 0.0064 0.0065 0.0067
1457.000000 0.0068 0.0072 0.0076 0.0079 0.0084
1462.000000 0.0091 0.0098 0.0104 0.0111 0.0118
1467.000000 0.0126 0.0138 0.0151 0.0165 0.0181
1472.000000 0.0196 0.0217 0.0240 0.0294 0.0357
1477.000000 0.0455 0.0572 0.0689 0.0807 0.0924
1482.000000 0.1067 0.1101 0.1135 0.1191 0.1254
1487.000000 0.1356 0.1425 0.1476 0.1542 0.1620
1492.000000 0.1704 0.1800 0.1871 0.1902 0.1904
1497.000000 0.1907 0.1915 0.1905 0.1905 0.1900
1502.000000 0.1891 0.1881 0.1856 0.1803 0.1735
1507.000000 0.1682 0.1634 0.1592 0.1568 0.1561
1512.000000 0.1554 0.1547 0.1531 0.1504 0.1445
1517.000000 0.1337 0.1254 0.1188 0.1121 0.1069
1522.000000 0.1017 0.0934 0.0882 0.0836 0.0766
1527.000000 0.0648 0.0685 0.0666 0.0660 0.0658
1532.000000 0.0666 0.0676 0.0689 0.0702 0.0715
1537.000000 0.0724 0.0729 0.0729 0.0730 0.0730
1542.000000 0.0742 0.0727 0.0721 0.0715 0.0709
1547.000000 0.0703 0.0697 0.0691 0.0684 0.0677
1552.000000 0.0667 0.0658 0.0649 0.0636 0.0621
1557.000000 0.0584 0.0548 0.0512 0.0479 0.0455
1562.000000 0.0433 0.0415 0.0397 0.0388 0.0389
1567.000000 0.0389 0.0389 0.0390 0.0402 0.0395
1572.000000 0.0399 0.0407 0.0417 0.0439 0.0473
1577.000000 0.0512 0.0549 0.0603 0.0641 0.0659
1582.000000 0.0679 0.0910 0.0997 0.1097 0.1154
1587.000000 0.1190 0.1203 0.1216 0.1228 0.1238
1592.000000 0.1249 0.1268 0.1296 0.1349 0.1430
1597.000000 0.1467 0.1498 0.1524 0.1549 0.1574
1602.000000 0.1603 0.1632 0.1671 0.1737 0.1805
1607.000000 0.1840 0.1868 0.1900 0.1938 0.1976
1612.000000 0.2013 0.2047 0.2081 0.2115 0.2150
1617.000000 0.2184 0.2219 0.2254 0.2288 0.2323
1622.000000 0.2358 0.2392 0.2427 0.2457 0.2483
1627.000000 0.2510 0.2536 0.2564 0.2592 0.2620
1632.000000 0.2657 0.2706 0.2847 0.2868 0.2886
1637.000000 0.2904 0.2924 0.2945 0.2966 0.2988
1642.000000 0.3010 0.3033 0.3055 0.3080 0.3116
1647.000000 0.3152 0.3189 0.3228 0.3269 0.3315
1652.000000 0.3361 0.3410 0.3459 0.3509 0.3550
1657.000000 0.3585 0.3619 0.3654 0.3696 0.3739
1662.000000 0.3783 0.3833 0.3890 0.3976 0.4082
1667.000000 0.4300 0.4408 0.4480 0.4539 0.4599
1672.000000 0.4634 0.4666 0.4699 0.4731 0.4791
1677.000000 0.4864 0.4936 0.5002 0.5067 0.5132
1682.000000 0.5196 0.5261 0.5343 0.5408 0.5449
1687.000000 0.5490 0.5581 0.5678 0.5739 0.5800
1692.000000 0.5853 0.5896 0.5938 0.5977 0.6009
1697.000000 0.6055 0.6113 0.6172 0.6237 0.6270
1702.000000 0.6299 0.6329 0.6361 0.6394 0.6428
1707.000000 0.6461 0.6495 0.6530 0.6565 0.6599
1712.000000 0.6639 0.6680 0.6721 0.6762 0.6800
1717.000000 0.6837 0.6874 0.6911 0.6949 0.6987
1722.000000 0.7024 0.7051 0.7078 0.7105 0.7132
1727.000000 0.7153 0.7170 0.7188 0.7205 0.7222
1732.000000 0.7235 0.7247 0.7260 0.7273 0.7282
1737.000000 0.7290 0.7297 0.7305 0.7312 0.7320
1742.000000 0.7326 0.7341 0.7334 0.7337 0.7341
1747.000000 0.7345 0.7349 0.7353 0.7356 0.7358
1752.000000 0.7360 0.7362 0.7363 0.7365 0.7366
1757.000000 0.7366 0.7365 0.7365 0.7365 0.7364
1762.000000 0.7356 0.7347 0.7338 0.7324 0.7308
1767.000000 0.7289 0.7266 0.7256 0.7253 0.7251
1772.000000 0.7248 0.7245 0.7244 0.7243 0.7242
1777.000000 0.7242 0.7242 0.7242 0.7242 0.7242
1782.000000 0.7242 0.7242 0.7242 0.7242 0.7242
1787.000000 0.7242 0.7242 0.7242 0.7242 0.7242
1792.000000 0.7242 0.7242 0.7242 0.7242 0.7242
1797.000000 0.7242 0.7241 0.7242 0.7243 0.7244
1802.000000 0.7245 0.7246 0.7246 0.7247 0.7248
1807.000000 0.7249 0.7251 0.7253 0.7255 0.7257
1812.000000 0.7259 0.7256 0.7252 0.7248 0.7245
1817.000000 0.7241 0.7238 0.7234 0.7230 0.7227
1822.000000 0.7223 0.7220 0.7216 0.7211 0.7206
1827.000000 0.7200 0.7194 0.7189 0.7183 0.7178
1832.000000 0.7172 0.7167 0.7161 0.7155 0.7149
1837.000000 0.7143 0.7137 0.7130 0.7124 0.7118
1842.000000 0.7111 0.7105 0.7099 0.7093 0.7086
1847.000000 0.7081 0.7076 0.7071 0.7066 0.7061
1852.000000 0.7056 0.7051 0.7046 0.7041 0.7038
1857.000000 0.7034 0.7031 0.7027 0.7023 0.7020
1862.000000 0.7019 0.7019 0.7018 0.7017 0.7017
1867.000000 0.7016 0.7016 0.7015 0.7015 0.7016
1872.000000 0.7017 0.7018 0.7019 0.7019 0.7020
1877.000000 0.7021 0.7022 0.7023 0.7025 0.7027
1882.000000 0.7028 0.7020 0.7032 0.7033 0.7035
1887.000000 0.7037 0.7039 0.7041 0.7044 0.7047
1892.000000 0.7050 0.7053 0.7055 0.7058 0.7061
1897.000000 0.7065 0.7068 0.7071 0.7074 0.7077
1902.000000 0.7080 0.7084 0.7087 0.7090 0.7093
1907.000000 0.7096 0.7100 0.7105 0.7110 0.7114
1912.000000 0.7119 0.7124 0.7129 0.7134 0.7138
1917.000000 0.7143 0.7148 0.7153 0.7158 0.7163
1922.000000 0.7167 0.7173 0.7178 0.7184 0.7189
1927.000000 0.7195 0.7200 0.7206 0.7211 0.7217
1932.000000 0.7222 0.7228 0.7234 0.7239 0.7245
1937.000000 0.7251 0.7257 0.7263 0.7269 0.7275
1942.000000 0.7281 0.7287 0.7293 0.7300 0.7306
1947.000000 0.7312 0.7318 0.7324 0.7330 0.7336
1952.000000 0.7342 0.7348 0.7354 0.7359 0.7362
1957.000000 0.7366 0.7369 0.7372 0.7376 0.7379
1962.000000 0.7382 0.7386 0.7385 0.7384 0.7383
1967.000000 0.7382 0.7381 0.7381 0.7383 0.7385
1972.000000 0.7387 0.7390 0.7398 0.7407 0.7416
1977.000000 0.7425 0.7432 0.7438 0.7445 0.7451
1982.000000 0.7458 0.7464 0.7471 0.7477 0.7483
1987.000000 0.7490 0.7496 0.7503 0.7509 0.7516
1992.000000 0.7522 0.7529 0.7535 0.7542 0.7548
1997.000000 0.7554 0.7561 0.7567 0.7574 0.7580
2002.000000 0.7587 0.7593 0.7600 0.7606 0.7612
2007.000000 0.7619 0.7625 0.7632 0.7638 0.7645
2012.000000 0.7651 0.7658 0.7664 0.7671 0.7677
2017.000000 0.7683 0.7690 0.7696 0.7703 0.7709
2022.000000 0.7716 0.7727 0.7736 0.7745 0.7754
2027.000000 0.7763 0.7772 0.7782 0.7791 0.7801
2032.000000 0.7810 0.7819 0.7829 0.7838 0.7847
2037.000000 0.7857 0.7866 0.7876 0.7888 0.7901
2042.000000 0.7914 0.7927 0.7940 0.7952 0.7964
2047.000000 0.7974 0.7984 0.7995 0.8005 0.8015
2052.000000 0.8026 0.8036 0.8046 0.8055 0.8064
2057.000000 0.8074 0.8083 0.8093 0.8102 0.8111
2062.000000 0.8121 0.8132 0.8143 0.8154 0.8164
2067.000000 0.8173 0.8177 0.8181 0.8185 0.8190
2072.000000 0.8194 0.8198 0.8202 0.8206 0.8208
2077.000000 0.8208 0.8208 0.8209 0.8209 0.8210
2082.000000 0.8210 0.8210 0.8211 0.8211 0.8211
2087.000000 0.8212 0.8212 0.8211 0.8209 0.8206
2092.000000 0.8203 0.8201 0.8199 0.8202 0.8205
2097.000000 0.8208 0.8220 0.8232 0.8244 0.8256
2102.000000 0.8269 0.8282 0.8295 0.8305 0.8309
2107.000000 0.8314 0.8318 0.8322 0.8326 0.8327
2112.000000 0.8328 0.8329 0.8331 0.8331 0.8331
2117.000000 0.8331 0.8331 0.8331 0.8331 0.8331
2122.000000 0.8331 0.8331 0.8331 0.8332 0.8332
2127.000000 0.8333 0.8334 0.8335 0.8335 0.8336
2132.000000 0.8337 0.8314 0.8339 0.8339 0.8339
2137.000000 0.8338 0.8337 0.8337 0.8336 0.8336
2142.000000 0.8335 0.8335 0.8334 0.8333 0.8333
2147.000000 0.8332 0.8331 0.8330 0.8328 0.8327
2152.000000 0.8325 0.8323 0.8322 0.8320 0.8319
2157.000000 0.8317 0.8315 0.8313 0.8311 0.8309
2162.000000 0.8307 0.8305 0.8303 0.8300 0.8295
2167.000000 0.8291 0.8287 0.8283 0.8278 0.8273
2172.000000 0.8267 0.8261 0.8255 0.8250 0.8244
2177.000000 0.8238 0.8232 0.8226 0.8220 0.8214
2182.000000 0.8208 0.8202 0.8196 0.8190 0.8184
2187.000000 0.8178 0.8170 0.8163 0.8155 0.8148
2192.000000 0.8140 0.8133 0.8125 0.8118 0.8110
2197.000000 0.8103 0.8095 0.8088 0.8080 0.8073
2202.000000 0.8066 0.8058 0.8051 0.8044 0.8037
2207.000000 0.8029 0.8020 0.8012 0.8003 0.7994
2212.000000 0.7986 0.7977 0.7968 0.7960 0.7951
2217.000000 0.7942 0.7934 0.7925 0.7916 0.7906
2222.000000 0.7897 0.7888 0.7878 0.7869 0.7860
2227.000000 0.7850 0.7841 0.7832 0.7822 0.7815
2232.000000 0.7808 0.7801 0.7794 0.7787 0.7780
2237.000000 0.7773 0.7770 0.7767 0.7764 0.7760
2242.000000 0.7757 0.7754 0.7751 0.7748 0.7744
2247.000000 0.7739 0.7735 0.7730 0.7724 0.7719
2252.000000 0.7713 0.7704 0.7694 0.7683 0.7673
2257.000000 0.7662 0.7652 0.7642 0.7632 0.7623
2262.000000 0.7613 0.7604 0.7595 0.7585 0.7576
2267.000000 0.7566 0.7556 0.7547 0.7537 0.7527
2272.000000 0.7517 0.7507 0.7499 0.7491 0.7483
2277.000000 0.7467 0.7451 0.7434 0.7417 0.7397
2282.000000 0.7377 0.7357 0.7337 0.7316 0.7295
2287.000000 0.7274 0.7253 0.7232 0.7210 0.7187
2292.000000 0.7164 0.7142 0.7123 0.7104 0.7085
2297.000000 0.7066 0.7047 0.7031 0.7015 0.6999
2302.000000 0.6976 0.6941 0.6895 0.6815 0.6758
2307.000000 0.6728 0.6699 0.6683 0.6668 0.6652
2312.000000 0.6637 0.6621 0.6606 0.6593 0.6581
2317.000000 0.6569 0.6556 0.6544 0.6532 0.6521
2322.000000 0.6510 0.6499 0.6488 0.6477 0.6466
2327.000000 0.6455 0.6444 0.6433 0.6425 0.6416
2332.000000 0.6408 0.6399 0.6390 0.6382 0.6373
2337.000000 0.6364 0.6356 0.6347 0.6339 0.6330
2342.000000 0.6322 0.6314 0.6306 0.6298 0.6290
2347.000000 0.6282 0.6274 0.6266 0.6258 0.6250
2352.000000 0.6242 0.6234 0.6226 0.6218 0.6210
2357.000000 0.6203 0.6197 0.6190 0.6183 0.6176
2362.000000 0.6169 0.6162 0.6156 0.6150 0.6144
2367.000000 0.6138 0.6132 0.6126 0.6120 0.6114
2372.000000 0.6109 0.6102 0.6094 0.6086 0.6078
2377.000000 0.6070 0.6062 0.6051 0.6039 0.6027
2382.000000 0.6016 0.6004 0.5993 0.5980 0.5966
2387.000000 0.5952 0.5937 0.5923 0.5909 0.5894
2392.000000 0.5880 0.5865 0.5853 0.5840 0.5828
2397.000000 0.5815 0.5803 0.5791 0.5778 0.5766
2402.000000 0.5753 0.5741 0.5728 0.5715 0.5703
2407.000000 0.5690 0.5678 0.5660 0.5643 0.5625
2412.000000 0.5607 0.5590 0.5579 0.5570 0.5560
2417.000000 0.5551 0.5542 0.5533 0.5523 0.5514
2422.000000 0.5505 0.5495 0.5486 0.5478 0.5478
2427.000000 0.5477 0.5477 0.5476 0.5474 0.5471
2432.000000 0.5469 0.5466 0.5463 0.5461 0.5458
2437.000000 0.5453 0.5439 0.5425 0.5411 0.5397
2442.000000 0.5382 0.5357 0.5330 0.5317 0.5305
2447.000000 0.5295 0.5285 0.5276 0.5267 0.5257
2452.000000 0.5248 0.5237 0.5223 0.5209 0.5196
2457.000000 0.5182 0.5168 0.5155 0.5141 0.5128
2462.000000 0.5115 0.5102 0.5090 0.5077 0.5064
2467.000000 0.5051 0.5039 0.5026 0.5013 0.5000
2472.000000 0.4988 0.4976 0.4965 0.4954 0.4942
2477.000000 0.4931 0.4919 0.4908 0.4896 0.4885
2482.000000 0.4874 0.4862 0.4851 0.4839 0.4829
2487.000000 0.4818 0.4807 0.4796 0.4786 0.4775
2492.000000 0.4764 0.4753 0.4738 0.4723 0.4708
2497.000000 0.4694 0.4676 0.4658 0.4640 0.4623
2502.000000 0.4605 0.4587 0.4570 0.4556 0.4545
2507.000000 0.4541 0.4537 0.4534 0.4530 0.4527
2512.000000 0.4523 0.4520 0.4516 0.4510 0.4505
2517.000000 0.4500 0.4495 0.4489 0.4482 0.4471
2522.000000 0.4461 0.4448 0.4428 0.4404 0.4374
2527.000000 0.4344 0.4315 0.4285 0.4256 0.4226
2532.000000 0.4197 0.4173 0.4152 0.4131 0.4110
2537.000000 0.4089 0.4069 0.4049 0.4029 0.4010
2542.000000 0.3990 0.3970 0.3952 0.3935 0.3917
2547.000000 0.3900 0.3883 0.3866 0.3848 0.3831
2552.000000 0.3810 0.3790 0.3770 0.3749 0.3729
2557.000000 0.3708 0.3687 0.3666 0.3645 0.3624
2562.000000 0.3603 0.3582 0.3561 0.3539 0.3518
2567.000000 0.3496 0.3475 0.3460 0.3447 0.3434
2572.000000 0.3421 0.3408 0.3395 0.3383 0.3370
2577.000000 0.3357 0.3346 0.3335 0.3324 0.3313
2582.000000 0.3302 0.3291 0.3281 0.3270 0.3259
2587.000000 0.3248 0.3237 0.3226 0.3216 0.3206
2592.000000 0.3196 0.3185 0.3175 0.3165 0.3155
2597.000000 0.3145 0.3135 0.3125 0.3117 0.3111
2602.000000 0.3105 0.3098 0.3092 0.3086 0.3079
2607.000000 0.3073 0.3072 0.3072 0.3072 0.3071
2612.000000 0.3071 0.3070 0.3070 0.3070 0.3069
2617.000000 0.3069 0.3069 0.3069 0.3069 0.3070
2622.000000 0.3070 0.3071 0.3071 0.3071 0.3072
2627.000000 0.3072 0.3073 0.3073 0.3073 0.3073
2632.000000 0.3073 0.3072 0.3071 0.3070 0.3070
2637.000000 0.3069 0.3068 0.3063 0.3058 0.3053
2642.000000 0.3048 0.3043 0.3038 0.3032 0.3023
2647.000000 0.3013 0.3002 0.2991 0.2980 0.2972
2652.000000 0.2966 0.2960 0.2954 0.2948 0.2942
2657.000000 0.2936 0.2932 0.2928 0.2924 0.2920
2662.000000 0.2916 0.2913 0.2909 0.2906 0.2903
2667.000000 0.2900 0.2897 0.2894 0.2892 0.2890
2672.000000 0.2888 0.2887 0.2885 0.2883 0.2881
2677.000000 0.2879 0.2877 0.2875 0.2873 0.2872
2682.000000 0.2868 0.2864 0.2860 0.2856 0.2852
2687.000000 0.2848 0.2844 0.2840 0.2836 0.2832
2692.000000 0.2831 0.2831 0.2830 0.2830 0.2830
2697.000000 0.2830 0.2830 0.2830 0.2830 0.2830
2702.000000 0.2829 0.2829 0.2829 0.2829 0.2829
2707.000000 0.2829 0.2829 0.2830 0.2830 0.2830
2712.000000 0.2831 0.2831 0.2831 0.2827 0.2822
2717.000000 0.2817 0.2812 0.2805 0.2793 0.2781
2722.000000 0.2769 0.2757 0.2744 0.2736 0.2729
2727.000000 0.2721 0.2714 0.2707 0.2699 0.2694
2732.000000 0.2689 0.2684 0.2680 0.2675 0.2671
2737.000000 0.2666 0.2662 0.2659 0.2656 0.2652
2742.000000 0.2649 0.2646 0.2643 0.2639 0.2636
2747.000000 0.2634 0.2633 0.2631 0.2630 0.2629
2752.000000 0.2628 0.2627 0.2625 0.2626 0.2628
2757.000000 0.2629 0.2627 0.2632 0.2634 0.2635
2762.000000 0.2637 0.2638 0.2640 0.2641 0.2644
2767.000000 0.2648 0.2651 0.2655 0.2659 0.2663
2772.000000 0.2667 0.2670 0.2674 0.2678 0.2681
2777.000000 0.2685 0.2688 0.2692 0.2695 0.2699
2782.000000 0.2702 0.2706 0.2709 0.2713 0.2717
2787.000000 0.2721 0.2724 0.2728 0.2732 0.2736
2792.000000 0.2740 0.2743 0.2747 0.2751 0.2755
2797.000000 0.2759 0.2764 0.2768 0.2772 0.2776
2802.000000 0.2780 0.2784 0.2788 0.2792 0.2795
2807.000000 0.2799 0.2803 0.2807 0.2813 0.2819
2812.000000 0.2826 0.2833 0.2839 0.2846 0.2853
2817.000000 0.2858 0.2862 0.2866 0.2870 0.2873
2822.000000 0.2876 0.2879 0.2882 0.2883 0.2884
2827.000000 0.2884 0.2885 0.2886 0.2887 0.2887
2832.000000 0.2888 0.2889 0.2890 0.2891 0.2892
2837.000000 0.2893 0.2894 0.2895 0.2896 0.2897
2842.000000 0.2898 0.2899 0.2900 0.2901 0.2902
2847.000000 0.2903 0.2904 0.2906 0.2908 0.2910
2852.000000 0.2912 0.2914 0.2916 0.2918 0.2920
2857.000000 0.2922 0.2925 0.2927 0.2930 0.2932
2862.000000 0.2933 0.2933 0.2934 0.2934 0.2934
2867.000000 0.2935 0.2935 0.2935 0.2935 0.2935
2872.000000 0.2935 0.2935 0.2935 0.2935 0.2935
2877.000000 0.2935 0.2935 0.2935 0.2936 0.2936
2882.000000 0.2937 0.2937 0.2937 0.2938 0.2938
2887.000000 0.2938 0.2939 0.2939 0.2940 0.2940
2892.000000 0.2940 0.2941 0.2941 0.2942 0.2942
2897.000000 0.2942 0.2943 0.2943 0.2943 0.2944
2902.000000 0.2944 0.2945 0.2945 0.2944 0.2944
2907.000000 0.2944 0.2943 0.2943 0.2942 0.2942
2912.000000 0.2942 0.2941 0.2941 0.2941 0.2940
2917.000000 0.2940 0.2939 0.2939 0.2940 0.2941
2922.000000 0.2942 0.2943 0.2944 0.2945 0.2947
2927.000000 0.2948 0.2949 0.2950 0.2951 0.2952
2932.000000 0.2953 0.2954 0.2955 0.2955 0.2956
2937.000000 0.2957 0.2958 0.2958 0.2958 0.2958
2942.000000 0.2958 0.2958 0.2957 0.2957 0.2958
2947.000000 0.2963 0.2968 0.2973 0.2978 0.2983
2952.000000 0.2988 0.2993 0.2998 0.3003 0.3008
2957.000000 0.3012 0.3017 0.3022 0.3026 0.3031
2962.000000 0.3039 0.3047 0.3055 0.3062 0.3070
2967.000000 0.3078 0.3086 0.3094 0.3103 0.3113
2972.000000 0.3124 0.3134 0.3144 0.3155 0.3165
2977.000000 0.3175 0.3187 0.3204 0.3220 0.3236
2982.000000 0.3253 0.3269 0.3285 0.3301 0.3315
2987.000000 0.3330 0.3344 0.3359 0.3373 0.3388
2992.000000 0.3402 0.3416 0.3431 0.3445 0.3460
2997.000000 0.3473 0.3485 0.3497 0.3509 0.3522
3002.000000 0.3534 0.3546 0.3558 0.3571 0.3583
3007.000000 0.3595 0.3607 0.3620 0.3633 0.3646
3012.000000 0.3659 0.3672 0.3685 0.3698 0.3711
3017.000000 0.3724 0.3737 0.3749 0.3761 0.3772
3022.000000 0.3784 0.3795 0.3807 0.3819 0.3830
3027.000000 0.3842 0.3854 0.3865 0.3877 0.3885
3032.000000 0.3893 0.3902 0.3910 0.3918 0.3926
3037.000000 0.3935 0.3943 0.3951 0.3959 0.3967
3042.000000 0.3977 0.3988 0.3998 0.4008 0.4018
3047.000000 0.4029 0.4039 0.4048 0.4057 0.4065
3052.000000 0.4074 0.4083 0.4091 0.4096 0.4101
3057.000000 0.4106 0.4110 0.4114 0.4117 0.4119
3062.000000 0.4122 0.4124 0.4126 0.4129 0.4131
3067.000000 0.4134 0.4136 0.4138 0.4141 0.4143
3072.000000 0.4145 0.4147 0.4149 0.4151 0.4153
3077.000000 0.4155 0.4158 0.4160 0.4162 0.4165
3082.000000 0.4169 0.4172 0.4176 0.4180 0.4183
3087.000000 0.4187 0.4191 0.4198 0.4195 0.4196
3092.000000 0.4197 0.4198 0.4200 0.4201 0.4202
3097.000000 0.4203 0.4204 0.4205 0.4206 0.4204
3102.000000 0.4202 0.4199 0.4197 0.4194 0.4192
3107.000000 0.4189 0.4187 0.4181 0.4171 0.4161
3112.000000 0.4150 0.4140 0.4129 0.4119 0.4109
3117.000000 0.4077 0.4040 0.3998 0.3957 0.3916
3122.000000 0.3850 0.3775 0.3723 0.3692 0.3678
3127.000000 0.3675 0.3674 0.3692 0.3665 0.3746
3132.000000 0.3770 0.3796 0.3822 0.3848 0.3875
3137.000000 0.3903 0.3930 0.3961 0.4001 0.4041
3142.000000 0.4093 0.4151 0.4237 0.4330 0.4424
3147.000000 0.4506 0.4576 0.4639 0.4938 0.5026
3152.000000 0.5120 0.5223 0.5299 0.5358 0.5415
3157.000000 0.5467 0.5520 0.5573 0.5628 0.5683
3162.000000 0.5721 0.5751 0.5781 0.5811 0.5832
3167.000000 0.5848 0.5864 0.5880 0.5896 0.5913
3172.000000 0.5929 0.5945 0.5961 0.5977 0.5993
3177.000000 0.6009 0.6025 0.6041 0.6058 0.6075
3182.000000 0.6093 0.6107 0.6120 0.6134 0.6147
3187.000000 0.6160 0.6175 0.6189 0.6204 0.6219
3192.000000 0.6233 0.6248 0.6262 0.6277 0.6290
3197.000000 0.6304 0.6317 0.6330 0.6343 0.6358
3202.000000 0.6376 0.6394 0.6412 0.6430 0.6448
3207.000000 0.6465 0.6480 0.6496 0.6511 0.6527
3212.000000 0.6543 0.6558 0.6574 0.6589 0.6605
3217.000000 0.6621 0.6634 0.6646 0.6659 0.6672
3222.000000 0.6684 0.6697 0.6710 0.6722 0.6735
3227.000000 0.6747 0.6758 0.6769 0.6779 0.6790
3232.000000 0.6801 0.6812 0.6823 0.6834 0.6845
3237.000000 0.6852 0.6859 0.6865 0.6872 0.6878
3242.000000 0.6885 0.6891 0.6897 0.6904 0.6910
3247.000000 0.6917 0.6923 0.6929 0.6935 0.6941
3252.000000 0.6947 0.6953 0.6959 0.6965 0.6971
3257.000000 0.6977 0.6983 0.6989 0.6994 0.6996
3262.000000 0.6998 0.6999 0.7001 0.7002 0.7004
3267.000000 0.7005 0.7007 0.7008 0.7010 0.7010
3272.000000 0.7010 0.7009 0.7009 0.7008 0.7008
3277.000000 0.7008 0.7007 0.7007 0.7006 0.7006
3282.000000 0.7005 0.7005 0.7004 0.7004 0.7001
3287.000000 0.6998 0.6995 0.6992 0.6988 0.6985
3292.000000 0.6982 0.6979 0.6976 0.6973 0.6970
3297.000000 0.6967 0.6964 0.6961 0.6958 0.6954
3302.000000 0.6950 0.6945 0.6940 0.6936 0.6931
3307.000000 0.6926 0.6921 0.6916 0.6911 0.6907
3312.000000 0.6902 0.6897 0.6892 0.6887 0.6883
3317.000000 0.6878 0.6872 0.6866 0.6861 0.6855
3322.000000 0.6850 0.6844 0.6839 0.6833 0.6827
3327.000000 0.6822 0.6816 0.6811 0.6805 0.6798
3332.000000 0.6791 0.6784 0.6777 0.6770 0.6763
3337.000000 0.6756 0.6749 0.6742 0.6735 0.6727
3342.000000 0.6720 0.6713 0.6706 0.6699 0.6692
3347.000000 0.6685 0.6678 0.6672 0.6665 0.6658
3352.000000 0.6651 0.6645 0.6638 0.6631 0.6624
3357.000000 0.6618 0.6612 0.6605 0.6599 0.6593
3362.000000 0.6587 0.6581 0.6575 0.6568 0.6562
3367.000000 0.6556 0.6550 0.6543 0.6536 0.6529
3372.000000 0.6522 0.6515 0.6509 0.6502 0.6495
3377.000000 0.6488 0.6484 0.6481 0.6479 0.6476
3382.000000 0.6473 0.6470 0.6467 0.6467 0.6470
3387.000000 0.6473 0.6476 0.6479 0.6482 0.6486
3392.000000 0.6489 0.6492 0.6495 0.6498 0.6501
3397.000000 0.6504 0.6507 0.6510 0.6513 0.6516
3402.000000 0.6519 0.6522 0.6525 0.6529 0.6534
3407.000000 0.6541 0.6549 0.6556 0.6563 0.6570
3412.000000 0.6578 0.6585 0.6592 0.6600 0.6607
3417.000000 0.6616 0.6626 0.6635 0.6645 0.6655
3422.000000 0.6664 0.6674 0.6683 0.6693 0.6702
3427.000000 0.6711 0.6721 0.6730 0.6740 0.6749
3432.000000 0.6764 0.6779 0.6795 0.6810 0.6826
3437.000000 0.6841 0.6856 0.6871 0.6885 0.6900
3442.000000 0.6915 0.6930 0.6944 0.6959 0.6974
3447.000000 0.6988 0.7003 0.7017 0.7032 0.7046
3452.000000 0.7060 0.7074 0.7088 0.7103 0.7117
3457.000000 0.7131 0.7146 0.7161 0.7177 0.7192
3462.000000 0.7207 0.7222 0.7237 0.7253 0.7268
3467.000000 0.7279 0.7289 0.7300 0.7311 0.7322
3472.000000 0.7333 0.7346 0.7359 0.7372 0.7384
3477.000000 0.7397 0.7410 0.7427 0.7444 0.7462
3482.000000 0.7480 0.7498 0.7516 0.7535 0.7554
3487.000000 0.7573 0.7591 0.7610 0.7636 0.7669
3492.000000 0.7701 0.7716 0.7731 0.7746 0.7761
3497.000000 0.7776 0.7791 0.7804 0.7816 0.7829
3502.000000 0.7841 0.7854 0.7866 0.7879 0.7893
3507.000000 0.7911 0.7930 0.7948 0.7966 0.7985
3512.000000 0.8003 0.8022 0.8041 0.8061 0.8080
3517.000000 0.8099 0.8118 0.8136 0.8153 0.8170
3522.000000 0.8188 0.8205 0.8222 0.8239 0.8256
3527.000000 0.8273 0.8290 0.8307 0.8324 0.8341
3532.000000 0.8358 0.8375 0.8392 0.8409 0.8426
3537.000000 0.8445 0.8464 0.8482 0.8501 0.8520
3542.000000 0.8539 0.8558 0.8577 0.8596 0.8615
3547.000000 0.8633 0.8652 0.8671 0.8690 0.8709
3552.000000 0.8728 0.8751 0.8773 0.8795 0.8817
3557.000000 0.8832 0.8845 0.8858 0.8870 0.8883
3562.000000 0.8896 0.8908 0.8921 0.8934 0.8951
3567.000000 0.8971 0.8992 0.9012 0.9033 0.9056
3572.000000 0.9079 0.9103 0.9124 0.9142 0.9160
3577.000000 0.9179 0.9197 0.9217 0.9238 0.9257
3582.000000 0.9275 0.9294 0.9312 0.9331 0.9344
3587.000000 0.9356 0.9368 0.9381 0.9393 0.9405
3592.000000 0.9416 0.9427 0.9438 0.9449 0.9460
3597.000000 0.9465 0.9471 0.9477 0.9483 0.9489
3602.000000 0.9495 0.9501 0.9507 0.9513 0.9519
3607.000000 0.9523 0.9526 0.9530 0.9534 0.9538
3612.000000 0.9542 0.9551 0.9560 0.9569 0.9578
3617.000000 0.9587 0.9596 0.9606 0.9615 0.9624
3622.000000 0.9636 0.9654 0.9672 0.9691 0.9709
3627.000000 0.9724 0.9739 0.9754 0.9768 0.9781
3632.000000 0.9787 0.9794 0.9800 0.9807 0.9813
3637.000000 0.9820 0.9827 0.9833 0.9838 0.9844
3642.000000 0.9849 0.9855 0.9860 0.9866 0.9871
3647.000000 0.9877 0.9880 0.9883 0.9885 0.9888
3652.000000 0.9891 0.9893 0.9896 0.9899 0.9901
3657.000000 0.9904 0.9906 0.9907 0.9908 0.9909
3662.000000 0.9909 0.9910 0.9911 0.9912 0.9912
3667.000000 0.9913 0.9914 0.9915 0.9916 0.9917
3672.000000 0.9918 0.9919 0.9920 0.9929 0.9941
3677.000000 0.9953 0.9965 0.9976 0.9987 0.9998
3682.000000 1.0008 1.0009 1.0010 1.0011 1.0011
3687.000000 1.0012 1.0013 1.0014 1.0015 1.0016
3692.000000 1.0016 1.0017 1.0018 1.0018 1.0019
3697.000000 1.0020 1.0020 1.0021 1.0021 1.0022
3702.000000 1.0023 1.0023 1.0024 1.0025 1.0025
3707.000000 1.0026 1.0027 1.0028 1.0030 1.0031
3712.000000 1.0032 1.0033 1.0034 1.0035 1.0037
3717.000000 1.0038 1.0039 1.0040 1.0041 1.0042
3722.000000 1.0044 1.0044 1.0044 1.0044 1.0043
3727.000000 1.0043 1.0043 1.0043 1.0043 1.0043
3732.000000 1.0042 1.0042 1.0042 1.0042 1.0042
3737.000000 1.0042 1.0040 1.0038 1.0036 1.0035
3742.000000 1.0033 1.0031 1.0029 1.0027 1.0025
3747.000000 1.0024 1.0022 1.0020 1.0018 1.0016
3752.000000 1.0014 1.0013 1.0011 1.0009 1.0007
3757.000000 1.0004 1.0002 1.0000 0.9997 0.9995
3762.000000 0.9992 0.9990 0.9988 0.9985 0.9983
3767.000000 0.9981 0.9978 0.9976 0.9973 0.9971
3772.000000 0.9969 0.9966 0.9964 0.9963 0.9962
3777.000000 0.9962 0.9962 0.9961 0.9961 0.9960
3782.000000 0.9960 0.9959 0.9959 0.9958 0.9958
3787.000000 0.9957 0.9957 0.9957 0.9956 0.9956
3792.000000 0.9955 0.9955 0.9954 0.9954 0.9953
3797.000000 0.9953 0.9952 0.9952 0.9951 0.9951
3802.000000 0.9950 0.9950 0.9949 0.9949 0.9948
3807.000000 0.9948 0.9947 0.9947 0.9946 0.9946
3812.000000 0.9945 0.9945 0.9944 0.9944 0.9943
3817.000000 0.9943 0.9942 0.9941 0.9941 0.9940
3822.000000 0.9940 0.9939 0.9938 0.9938 0.9937
3827.000000 0.9936 0.9936 0.9935 0.9934 0.9934
3832.000000 0.9933 0.9932 0.9932 0.9931 0.9930
3837.000000 0.9930 0.9929 0.9929 0.9928 0.9927
3842.000000 0.9927 0.9926 0.9925 0.9925 0.9924
3847.000000 0.9924 0.9923 0.9923 0.9922 0.9922
3852.000000 0.9921 0.9921 0.9920 0.9920 0.9919
3857.000000 0.9919 0.9918 0.9918 0.9917 0.9917
3862.000000 0.9916 0.9916 0.9915 0.9915 0.9914
3867.000000 0.9913 0.9913 0.9912 0.9912 0.9911
3872.000000 0.9909 0.9908 0.9906 0.9904 0.9902
3877.000000 0.9900 0.9899 0.9897 0.9895 0.9893
3882.000000 0.9892 0.9890 0.9888 0.9886 0.9884
3887.000000 0.9883 0.9881 0.9879 0.9877 0.9876
3892.000000 0.9874 0.9873 0.9871 0.9870 0.9868
3897.000000 0.9867 0.9865 0.9864 0.9862 0.9861
3902.000000 0.9860 0.9858 0.9857 0.9855 0.9854
3907.000000 0.9852 0.9851 0.9849 0.9848 0.9847
3912.000000 0.9846 0.9845 0.9844 0.9843 0.9842
3917.000000 0.9841 0.9840 0.9839 0.9838 0.9837
3922.000000 0.9836 0.9835 0.9834 0.9833 0.9832
3927.000000 0.9831 0.9830 0.9829 0.9829 0.9828
3932.000000 0.9827 0.9826 0.9825 0.9824 0.9824
3937.000000 0.9823 0.9822 0.9821 0.9820 0.9820
3942.000000 0.9819 0.9818 0.9817 0.9847 0.9816
3947.000000 0.9818 0.9820 0.9822 0.9824 0.9827
3952.000000 0.9829 0.9831 0.9833 0.9836 0.9838
3957.000000 0.9840 0.9842 0.9845 0.9854 0.9865
3962.000000 0.9872 0.9876 0.9880 0.9885 0.9888
3967.000000 0.9890 0.9891 0.9893 0.9892 0.9890
3972.000000 0.9888 0.9886 0.9884 0.9882 0.9880
3977.000000 0.9878 0.9876 0.9877 0.9877 0.9878
3982.000000 0.9878 0.9878 0.9879 0.9879 0.9879
3987.000000 0.9880 0.9880 0.9881 0.9881 0.9881
3992.000000 0.9882 0.9882 0.9883 0.9883 0.9883
3997.000000 0.9884 0.9884 0.9884 0.9884
##END=
