##TITLE=Stearic acid
##JCAMP-DX=4.24
$$ By DXEDIT 1.05 (RS McDonald)
##DATA TYPE=INFRARED SPECTRUM
##CLASS=COBLENTZ III
##ORIGIN=DOW CHEMICAL COMPANY
##OWNER=COPYRIGHT (C) 1988 by COBLENTZ SOCIETY INC.
Collection (C) 2018 copyright by the U.S. Secretary of Commerce
on behalf of the United States of America. All rights reserved.
##DATE=1965/03/02
##CAS REGISTRY NO=57-11-4
##MOLFORM=C18 H36 O2
##SOURCE REFERENCE=COBLENTZ NO. 6411
##$NIST SOURCE=COBLENTZ
##$NIST IMAGE=cob6411
##SPECTROMETER/DATA SYSTEM=DOW KBr FOREPRISM-GRATING
##INSTRUMENT PARAMETERS=BLAZED AT 3.5, 12.0, 20.0 MICRON AND CHANGED AT 5.0, 7.5, 14.9 MICRON
##STATE=SOLUTION (2% CCl4 FOR 3800-1330, 2% CS2 FOR 1330-450 CM^-^1)
##PATH LENGTH=0.011 CM, 0.011 CM
$$SPECTRAL CONTAMINATIONS DUE TO CS2 AROUND 650, 850 AND CCl4 AROUND 1550 CM^-^1 HAVE BEEN SUBTRACTED
##SAMPLING PROCEDURE=TRANSMISSION
##RESOLUTION=2
##DATA PROCESSING=DIGITIZED BY COBLENTZ SOCIETY (BATCH I) FROM HARD COPY
##XUNITS=1/CM
##YUNITS=TRANSMITTANCE
##XFACTOR=1
##YFACTOR=1
##DELTAX=1
##FIRSTX=3796
##LASTX=455
##FIRSTY=0.9202
##MAXX=3796
##MINX=455
##MAXY=0.9814
##MINY=0.1243
##NPOINTS=3342
##XYDATA=(X++(Y..Y))
3796.000000 0.9202 0.9195 0.9204 0.9202 0.9202
3791.000000 0.9200 0.9199 0.9198 0.9197 0.9196
3786.000000 0.9195 0.9194 0.9186 0.9179 0.9178
3781.000000 0.9186 0.9188 0.9176 0.9183 0.9183
3776.000000 0.9182 0.9168 0.9179 0.9176 0.9175
3771.000000 0.9173 0.9171 0.9170 0.9169 0.9168
3766.000000 0.9168 0.9167 0.9167 0.9166 0.9166
3761.000000 0.9165 0.9171 0.9169 0.9164 0.9163
3756.000000 0.9163 0.9162 0.9162 0.9162 0.9163
3751.000000 0.9163 0.9164 0.9164 0.9165 0.9165
3746.000000 0.9166 0.9166 0.9167 0.9167 0.9168
3741.000000 0.9168 0.9169 0.9172 0.9182 0.9182
3736.000000 0.9183 0.9183 0.9178 0.9172 0.9178
3731.000000 0.9183 0.9183 0.9181 0.9181 0.9181
3726.000000 0.9181 0.9180 0.9180 0.9179 0.9179
3721.000000 0.9178 0.9178 0.9165 0.9166 0.9177
3716.000000 0.9177 0.9176 0.9176 0.9174 0.9176
3711.000000 0.9179 0.9174 0.9179 0.9178 0.9175
3706.000000 0.9174 0.9172 0.9171 0.9169 0.9167
3701.000000 0.9165 0.9164 0.9162 0.9161 0.9161
3696.000000 0.9150 0.9149 0.9150 0.9150 0.9150
3691.000000 0.9150 0.9151 0.9151 0.9151 0.9148
3686.000000 0.9139 0.9139 0.9140 0.9140 0.9141
3681.000000 0.9141 0.9141 0.9141 0.9142 0.9142
3676.000000 0.9143 0.9143 0.9144 0.9144 0.9144
3671.000000 0.9144 0.9155 0.9147 0.9146 0.9146
3666.000000 0.9147 0.9147 0.9147 0.9147 0.9148
3661.000000 0.9148 0.9148 0.9148 0.9150 0.9150
3656.000000 0.9150 0.9150 0.9150 0.9148 0.9148
3651.000000 0.9148 0.9148 0.9148 0.9148 0.9147
3646.000000 0.9147 0.9147 0.9147 0.9146 0.9146
3641.000000 0.9145 0.9145 0.9145 0.9145 0.9144
3636.000000 0.9144 0.9143 0.9143 0.9144 0.9153
3631.000000 0.9151 0.9147 0.9137 0.9141 0.9147
3626.000000 0.9146 0.9145 0.9144 0.9143 0.9142
3621.000000 0.9141 0.9140 0.9139 0.9138 0.9137
3616.000000 0.9136 0.9133 0.9132 0.9131 0.9130
3611.000000 0.9129 0.9128 0.9126 0.9116 0.9125
3606.000000 0.9124 0.9123 0.9122 0.9117 0.9112
3601.000000 0.9118 0.9112 0.9103 0.9109 0.9114
3596.000000 0.9112 0.9110 0.9110 0.9109 0.9107
3591.000000 0.9107 0.9106 0.9105 0.9105 0.9105
3586.000000 0.9105 0.9104 0.9104 0.9103 0.9103
3581.000000 0.9103 0.9103 0.9085 0.9068 0.9053
3576.000000 0.9036 0.9022 0.9021 0.9021 0.9017
3571.000000 0.9011 0.9013 0.9014 0.9016 0.9020
3566.000000 0.9024 0.9029 0.9035 0.9040 0.9046
3561.000000 0.9051 0.9058 0.9063 0.9069 0.9072
3556.000000 0.9076 0.9089 0.9082 0.9086 0.9100
3551.000000 0.9103 0.9104 0.9102 0.9113 0.9114
3546.000000 0.9114 0.9111 0.9111 0.9117 0.9119
3541.000000 0.9119 0.9113 0.9116 0.9112 0.9117
3536.000000 0.9120 0.9120 0.9120 0.9117 0.9114
3531.000000 0.9107 0.9102 0.9085 0.9078 0.9069
3526.000000 0.9060 0.9046 0.9036 0.9025 0.9016
3521.000000 0.9008 0.8998 0.8994 0.8994 0.8994
3516.000000 0.8998 0.9000 0.9003 0.9007 0.9010
3511.000000 0.9012 0.9014 0.9014 0.9015 0.9016
3506.000000 0.9017 0.9017 0.9018 0.9019 0.9020
3501.000000 0.9021 0.9022 0.9022 0.9023 0.9024
3496.000000 0.9025 0.9025 0.9026 0.9026 0.9027
3491.000000 0.9027 0.9028 0.9028 0.9028 0.9028
3486.000000 0.9029 0.9029 0.9029 0.9029 0.9030
3481.000000 0.9030 0.9030 0.9030 0.9031 0.9031
3476.000000 0.9031 0.9031 0.9032 0.9032 0.9032
3471.000000 0.9032 0.9033 0.9033 0.9033 0.9033
3466.000000 0.9034 0.9034 0.9035 0.9035 0.9035
3461.000000 0.9035 0.9036 0.9036 0.9036 0.9036
3456.000000 0.9036 0.9037 0.9037 0.9037 0.9038
3451.000000 0.9038 0.9039 0.9039 0.9040 0.9040
3446.000000 0.9041 0.9041 0.9042 0.9042 0.9042
3441.000000 0.9042 0.9044 0.9044 0.9045 0.9045
3436.000000 0.9045 0.9045 0.9045 0.9045 0.9047
3431.000000 0.9047 0.9048 0.9048 0.9048 0.9047
3426.000000 0.9047 0.9037 0.9046 0.9045 0.9045
3421.000000 0.9045 0.9045 0.9045 0.9045 0.9045
3416.000000 0.9045 0.9045 0.9045 0.9044 0.9044
3411.000000 0.9042 0.9042 0.9042 0.9041 0.9046
3406.000000 0.9045 0.9039 0.9038 0.9036 0.9035
3401.000000 0.9034 0.9033 0.9032 0.9031 0.9030
3396.000000 0.9029 0.9027 0.9026 0.9024 0.9022
3391.000000 0.9020 0.9018 0.9016 0.9013 0.9011
3386.000000 0.9009 0.9007 0.9005 0.9003 0.9000
3381.000000 0.8999 0.8997 0.8995 0.8993 0.8990
3376.000000 0.8990 0.8987 0.8986 0.8984 0.8983
3371.000000 0.8981 0.8990 0.8979 0.8977 0.8975
3366.000000 0.8974 0.8970 0.8966 0.8960 0.8956
3361.000000 0.8952 0.8948 0.8943 0.8937 0.8934
3356.000000 0.8930 0.8923 0.8917 0.8909 0.8902
3351.000000 0.8895 0.8889 0.8883 0.8879 0.8874
3346.000000 0.8870 0.8875 0.8873 0.8858 0.8863
3341.000000 0.8848 0.8843 0.8841 0.8850 0.8848
3336.000000 0.8846 0.8836 0.8833 0.8833 0.8832
3331.000000 0.8831 0.8831 0.8830 0.8830 0.8829
3326.000000 0.8829 0.8829 0.8829 0.8828 0.8828
3321.000000 0.8827 0.8827 0.8826 0.8825 0.8824
3316.000000 0.8824 0.8823 0.8822 0.8821 0.8832
3311.000000 0.8831 0.8830 0.8829 0.8827 0.8819
3306.000000 0.8827 0.8826 0.8822 0.8813 0.8812
3301.000000 0.8811 0.8811 0.8810 0.8809 0.8808
3296.000000 0.8808 0.8806 0.8804 0.8802 0.8800
3291.000000 0.8795 0.8791 0.8784 0.8780 0.8774
3286.000000 0.8769 0.8763 0.8759 0.8764 0.8758
3281.000000 0.8742 0.8739 0.8740 0.8733 0.8719
3276.000000 0.8716 0.8717 0.8712 0.8706 0.8699
3271.000000 0.8694 0.8687 0.8681 0.8676 0.8670
3266.000000 0.8663 0.8657 0.8651 0.8644 0.8639
3261.000000 0.8633 0.8627 0.8621 0.8616 0.8609
3256.000000 0.8593 0.8597 0.8591 0.8584 0.8579
3251.000000 0.8572 0.8565 0.8557 0.8551 0.8543
3246.000000 0.8538 0.8525 0.8519 0.8517 0.8511
3241.000000 0.8503 0.8497 0.8489 0.8481 0.8474
3236.000000 0.8469 0.8462 0.8455 0.8448 0.8442
3231.000000 0.8435 0.8428 0.8421 0.8414 0.8405
3226.000000 0.8390 0.8385 0.8387 0.8380 0.8373
3221.000000 0.8366 0.8359 0.8352 0.8346 0.8339
3216.000000 0.8332 0.8325 0.8320 0.8313 0.8307
3211.000000 0.8300 0.8294 0.8287 0.8271 0.8263
3206.000000 0.8258 0.8250 0.8244 0.8238 0.8232
3201.000000 0.8226 0.8220 0.8220 0.8208 0.8207
3196.000000 0.8195 0.8197 0.8190 0.8184 0.8177
3191.000000 0.8169 0.8159 0.8153 0.8151 0.8146
3186.000000 0.8132 0.8122 0.8114 0.8109 0.8103
3181.000000 0.8095 0.8087 0.8079 0.8071 0.8061
3176.000000 0.8054 0.8047 0.8039 0.8030 0.8022
3171.000000 0.8013 0.8005 0.7998 0.7990 0.7982
3166.000000 0.7973 0.7965 0.7962 0.7960 0.7945
3161.000000 0.7939 0.7935 0.7926 0.7910 0.7906
3156.000000 0.7893 0.7881 0.7881 0.7873 0.7864
3151.000000 0.7856 0.7846 0.7838 0.7820 0.7810
3146.000000 0.7801 0.7792 0.7783 0.7774 0.7766
3141.000000 0.7759 0.7757 0.7749 0.7740 0.7732
3136.000000 0.7724 0.7716 0.7708 0.7701 0.7693
3131.000000 0.7687 0.7680 0.7673 0.7665 0.7657
3126.000000 0.7650 0.7643 0.7636 0.7629 0.7623
3121.000000 0.7615 0.7609 0.7601 0.7596 0.7588
3116.000000 0.7582 0.7575 0.7569 0.7561 0.7555
3111.000000 0.7548 0.7542 0.7534 0.7527 0.7526
3106.000000 0.7523 0.7516 0.7510 0.7502 0.7495
3101.000000 0.7490 0.7492 0.7486 0.7480 0.7481
3096.000000 0.7485 0.7488 0.7481 0.7475 0.7468
3091.000000 0.7452 0.7444 0.7431 0.7420 0.7419
3086.000000 0.7421 0.7407 0.7399 0.7397 0.7395
3081.000000 0.7391 0.7390 0.7386 0.7389 0.7395
3076.000000 0.7395 0.7392 0.7396 0.7395 0.7384
3071.000000 0.7380 0.7375 0.7363 0.7369 0.7357
3066.000000 0.7355 0.7349 0.7344 0.7331 0.7325
3061.000000 0.7320 0.7318 0.7319 0.7314 0.7303
3056.000000 0.7291 0.7290 0.7284 0.7272 0.7266
3051.000000 0.7266 0.7262 0.7254 0.7248 0.7243
3046.000000 0.7244 0.7239 0.7241 0.7245 0.7251
3041.000000 0.7256 0.7263 0.7261 0.7258 0.7254
3036.000000 0.7244 0.7233 0.7230 0.7217 0.7209
3031.000000 0.7207 0.7201 0.7194 0.7191 0.7185
3026.000000 0.7178 0.7176 0.7175 0.7173 0.7171
3021.000000 0.7169 0.7168 0.7173 0.7173 0.7171
3016.000000 0.7161 0.7157 0.7155 0.7153 0.7150
3011.000000 0.7147 0.7144 0.7140 0.7135 0.7124
3006.000000 0.7123 0.7124 0.7119 0.7110 0.7099
3001.000000 0.7093 0.7093 0.7084 0.7072 0.7063
2996.000000 0.7054 0.7044 0.7035 0.7033 0.7027
2991.000000 0.7014 0.7001 0.6980 0.6963 0.6940
2986.000000 0.6920 0.6895 0.6873 0.6849 0.6826
2981.000000 0.6802 0.6781 0.6759 0.6728 0.6694
2976.000000 0.6668 0.6625 0.6583 0.6531 0.6479
2971.000000 0.6417 0.6357 0.6292 0.6225 0.6152
2966.000000 0.6079 0.6006 0.5934 0.5839 0.5744
2961.000000 0.5544 0.5343 0.4899 0.4448 0.4424
2956.000000 0.4407 0.4389 0.4372 0.4359 0.4342
2951.000000 0.4324 0.4308 0.4290 0.4273 0.4231
2946.000000 0.4190 0.4102 0.4019 0.3849 0.3682
2941.000000 0.3511 0.3345 0.3177 0.3009 0.2841
2936.000000 0.2673 0.2501 0.2332 0.2164 0.1996
2931.000000 0.1827 0.1659 0.1490 0.1322 0.1290
2926.000000 0.1259 0.1260 0.1243 0.1264 0.1266
2921.000000 0.1345 0.1426 0.1550 0.1674 0.1798
2916.000000 0.1922 0.2047 0.2171 0.2296 0.2420
2911.000000 0.2544 0.2669 0.2793 0.2920 0.3045
2906.000000 0.3166 0.3290 0.3414 0.3538 0.3663
2901.000000 0.3786 0.3911 0.4035 0.4160 0.4284
2896.000000 0.4408 0.4532 0.4657 0.4781 0.4905
2891.000000 0.5029 0.5154 0.5278 0.5402 0.5526
2886.000000 0.5651 0.5749 0.5847 0.5866 0.5886
2881.000000 0.5889 0.5913 0.5895 0.5899 0.5874
2876.000000 0.5863 0.5816 0.5769 0.5722 0.5676
2871.000000 0.5629 0.5582 0.5534 0.5488 0.5242
2866.000000 0.4996 0.4682 0.4368 0.4054 0.3739
2861.000000 0.3424 0.3110 0.2957 0.2802 0.2804
2856.000000 0.2794 0.2810 0.2810 0.3039 0.3270
2851.000000 0.3535 0.3802 0.4067 0.4332 0.4598
2846.000000 0.4870 0.5136 0.5400 0.5662 0.5934
2841.000000 0.6263 0.6590 0.6678 0.6775 0.6841
2836.000000 0.6902 0.6937 0.6979 0.7021 0.7061
2831.000000 0.7093 0.7127 0.7165 0.7191 0.7227
2826.000000 0.7259 0.7281 0.7312 0.7352 0.7376
2821.000000 0.7414 0.7444 0.7459 0.7471 0.7489
2816.000000 0.7506 0.7525 0.7544 0.7557 0.7572
2811.000000 0.7583 0.7596 0.7606 0.7623 0.7640
2806.000000 0.7652 0.7664 0.7675 0.7682 0.7693
2801.000000 0.7701 0.7709 0.7717 0.7727 0.7734
2796.000000 0.7745 0.7753 0.7762 0.7773 0.7785
2791.000000 0.7793 0.7813 0.7817 0.7829 0.7841
2786.000000 0.7853 0.7869 0.7886 0.7893 0.7899
2781.000000 0.7911 0.7922 0.7927 0.7932 0.7938
2776.000000 0.7944 0.7950 0.7956 0.7962 0.7969
2771.000000 0.7975 0.7980 0.7987 0.7994 0.7998
2766.000000 0.8005 0.8009 0.8013 0.8016 0.8021
2761.000000 0.8024 0.8028 0.8031 0.8035 0.8036
2756.000000 0.8039 0.8039 0.8042 0.8043 0.8047
2751.000000 0.8048 0.8050 0.8052 0.8054 0.8056
2746.000000 0.8058 0.8060 0.8062 0.8063 0.8065
2741.000000 0.8066 0.8067 0.8067 0.8068 0.8069
2736.000000 0.8070 0.8071 0.8072 0.8072 0.8073
2731.000000 0.8073 0.8075 0.8077 0.8078 0.8079
2726.000000 0.8080 0.8080 0.8081 0.8081 0.8083
2721.000000 0.8084 0.8084 0.8084 0.8085 0.8087
2716.000000 0.8088 0.8088 0.8088 0.8090 0.8091
2711.000000 0.8091 0.8091 0.8092 0.8094 0.8094
2706.000000 0.8094 0.8095 0.8097 0.8097 0.8098
2701.000000 0.8098 0.8098 0.8098 0.8098 0.8098
2696.000000 0.8098 0.8098 0.8098 0.8095 0.8094
2691.000000 0.8091 0.8091 0.8088 0.8088 0.8083
2686.000000 0.8080 0.8076 0.8072 0.8067 0.8063
2681.000000 0.8057 0.8053 0.8047 0.8043 0.8039
2676.000000 0.8034 0.8028 0.8025 0.8019 0.8013
2671.000000 0.8007 0.8001 0.7994 0.7986 0.7982
2666.000000 0.7976 0.7972 0.7968 0.7968 0.7968
2661.000000 0.7968 0.7971 0.7974 0.7977 0.7989
2656.000000 0.7992 0.7995 0.7997 0.8001 0.8004
2651.000000 0.8003 0.8000 0.8003 0.8011 0.8018
2646.000000 0.8021 0.8019 0.8017 0.8019 0.8030
2641.000000 0.8028 0.8028 0.8031 0.8035 0.8038
2636.000000 0.8041 0.8045 0.8059 0.8062 0.8064
2631.000000 0.8058 0.8062 0.8074 0.8078 0.8081
2626.000000 0.8083 0.8087 0.8090 0.8093 0.8097
2621.000000 0.8100 0.8104 0.8107 0.8109 0.8113
2616.000000 0.8116 0.8119 0.8122 0.8125 0.8128
2611.000000 0.8132 0.8135 0.8138 0.8142 0.8145
2606.000000 0.8148 0.8151 0.8153 0.8157 0.8161
2601.000000 0.8165 0.8168 0.8171 0.8175 0.8178
2596.000000 0.8183 0.8186 0.8189 0.8192 0.8196
2591.000000 0.8198 0.8203 0.8205 0.8209 0.8212
2586.000000 0.8217 0.8220 0.8224 0.8227 0.8230
2581.000000 0.8233 0.8238 0.8241 0.8245 0.8248
2576.000000 0.8250 0.8253 0.8257 0.8260 0.8265
2571.000000 0.8269 0.8272 0.8275 0.8279 0.8282
2566.000000 0.8286 0.8291 0.8297 0.8301 0.8305
2561.000000 0.8311 0.8316 0.8321 0.8326 0.8331
2556.000000 0.8336 0.8341 0.8346 0.8350 0.8356
2551.000000 0.8360 0.8367 0.8371 0.8376 0.8381
2546.000000 0.8386 0.8391 0.8395 0.8401 0.8405
2541.000000 0.8412 0.8419 0.8423 0.8430 0.8435
2536.000000 0.8442 0.8447 0.8454 0.8458 0.8464
2531.000000 0.8471 0.8477 0.8483 0.8489 0.8495
2526.000000 0.8501 0.8506 0.8512 0.8516 0.8524
2521.000000 0.8529 0.8534 0.8539 0.8546 0.8551
2516.000000 0.8556 0.8561 0.8567 0.8572 0.8578
2511.000000 0.8583 0.8589 0.8595 0.8601 0.8606
2506.000000 0.8611 0.8616 0.8623 0.8628 0.8633
2501.000000 0.8638 0.8644 0.8650 0.8655 0.8660
2496.000000 0.8666 0.8672 0.8678 0.8683 0.8688
2491.000000 0.8693 0.8700 0.8705 0.8710 0.8714
2486.000000 0.8719 0.8725 0.8730 0.8734 0.8739
2481.000000 0.8750 0.8760 0.8764 0.8769 0.8773
2476.000000 0.8778 0.8783 0.8788 0.8791 0.8797
2471.000000 0.8801 0.8807 0.8811 0.8816 0.8820
2466.000000 0.8825 0.8828 0.8833 0.8835 0.8837
2461.000000 0.8839 0.8842 0.8843 0.8841 0.8842
2456.000000 0.8844 0.8842 0.8844 0.8854 0.8861
2451.000000 0.8863 0.8856 0.8865 0.8869 0.8870
2446.000000 0.8871 0.8872 0.8874 0.8875 0.8877
2441.000000 0.8878 0.8879 0.8880 0.8882 0.8883
2436.000000 0.8885 0.8886 0.8888 0.8889 0.8890
2431.000000 0.8891 0.8892 0.8894 0.8895 0.8895
2426.000000 0.8897 0.8897 0.8898 0.8899 0.8899
2421.000000 0.8901 0.8902 0.8902 0.8902 0.8904
2416.000000 0.8905 0.8906 0.8907 0.8907 0.8908
2411.000000 0.8909 0.8910 0.8915 0.8920 0.8916
2406.000000 0.8925 0.8925 0.8926 0.8927 0.8928
2401.000000 0.8928 0.8929 0.8930 0.8931 0.8931
2396.000000 0.8932 0.8932 0.8933 0.8934 0.8935
2391.000000 0.8936 0.8937 0.8950 0.8952 0.8953
2386.000000 0.8955 0.8958 0.8969 0.8972 0.8978
2381.000000 0.8989 0.8992 0.9000 0.9010 0.9019
2376.000000 0.9028 0.9032 0.9043 0.9051 0.9056
2371.000000 0.9061 0.9066 0.9064 0.9068 0.9075
2366.000000 0.9083 0.9090 0.9097 0.9101 0.9105
2361.000000 0.9108 0.9143 0.9123 0.9132 0.9132
2356.000000 0.9144 0.9151 0.9149 0.9147 0.9145
2351.000000 0.9138 0.9130 0.9127 0.9131 0.9140
2346.000000 0.9143 0.9141 0.9131 0.9125 0.9122
2341.000000 0.9121 0.9119 0.9108 0.9115 0.9114
2336.000000 0.9102 0.9099 0.9110 0.9108 0.9107
2331.000000 0.9109 0.9119 0.9118 0.9118 0.9120
2326.000000 0.9128 0.9133 0.9140 0.9139 0.9139
2321.000000 0.9138 0.9138 0.9136 0.9133 0.9131
2316.000000 0.9129 0.9127 0.9125 0.9121 0.9116
2311.000000 0.9111 0.9106 0.9100 0.9095 0.9090
2306.000000 0.9086 0.9080 0.9075 0.9072 0.9069
2301.000000 0.9064 0.9061 0.9062 0.9067 0.9066
2296.000000 0.9066 0.9065 0.9065 0.9064 0.9064
2291.000000 0.9064 0.9064 0.9062 0.9053 0.9050
2286.000000 0.9050 0.9050 0.9052 0.9042 0.9042
2281.000000 0.9042 0.9043 0.9042 0.9032 0.9032
2276.000000 0.9031 0.9022 0.9023 0.9023 0.9020
2271.000000 0.9015 0.9020 0.9018 0.9015 0.9020
2266.000000 0.9024 0.9020 0.9020 0.9025 0.9030
2261.000000 0.9028 0.9030 0.9035 0.9031 0.9034
2256.000000 0.9040 0.9046 0.9040 0.9044 0.9048
2251.000000 0.9053 0.9048 0.9052 0.9057 0.9062
2246.000000 0.9067 0.9069 0.9066 0.9072 0.9077
2241.000000 0.9084 0.9090 0.9096 0.9102 0.9107
2236.000000 0.9112 0.9110 0.9110 0.9113 0.9116
2231.000000 0.9117 0.9119 0.9120 0.9120 0.9120
2226.000000 0.9122 0.9124 0.9125 0.9125 0.9124
2221.000000 0.9115 0.9116 0.9116 0.9117 0.9118
2216.000000 0.9119 0.9119 0.9120 0.9121 0.9122
2211.000000 0.9122 0.9123 0.9123 0.9124 0.9124
2206.000000 0.9125 0.9125 0.9126 0.9126 0.9127
2201.000000 0.9127 0.9128 0.9128 0.9129 0.9129
2196.000000 0.9129 0.9120 0.9131 0.9129 0.9121
2191.000000 0.9121 0.9121 0.9121 0.9121 0.9121
2186.000000 0.9121 0.9121 0.9127 0.9125 0.9121
2181.000000 0.9120 0.9119 0.9119 0.9129 0.9131
2176.000000 0.9131 0.9131 0.9131 0.9130 0.9130
2171.000000 0.9130 0.9130 0.9129 0.9118 0.9118
2166.000000 0.9118 0.9117 0.9117 0.9117 0.9117
2161.000000 0.9117 0.9117 0.9117 0.9117 0.9117
2156.000000 0.9117 0.9116 0.9116 0.9116 0.9116
2151.000000 0.9116 0.9117 0.9117 0.9118 0.9118
2146.000000 0.9119 0.9119 0.9119 0.9119 0.9120
2141.000000 0.9120 0.9121 0.9121 0.9122 0.9122
2136.000000 0.9122 0.9122 0.9123 0.9123 0.9124
2131.000000 0.9124 0.9125 0.9125 0.9125 0.9125
2126.000000 0.9126 0.9126 0.9127 0.9127 0.9118
2121.000000 0.9128 0.9130 0.9130 0.9131 0.9131
2116.000000 0.9132 0.9132 0.9133 0.9133 0.9134
2111.000000 0.9135 0.9136 0.9136 0.9137 0.9137
2106.000000 0.9137 0.9137 0.9139 0.9139 0.9141
2101.000000 0.9141 0.9140 0.9140 0.9132 0.9129
2096.000000 0.9138 0.9139 0.9129 0.9138 0.9139
2091.000000 0.9137 0.9137 0.9137 0.9137 0.9137
2086.000000 0.9137 0.9136 0.9136 0.9136 0.9136
2081.000000 0.9135 0.9135 0.9135 0.9135 0.9134
2076.000000 0.9134 0.9133 0.9133 0.9133 0.9133
2071.000000 0.9132 0.9132 0.9131 0.9131 0.9130
2066.000000 0.9130 0.9129 0.9129 0.9129 0.9129
2061.000000 0.9128 0.9128 0.9128 0.9128 0.9129
2056.000000 0.9138 0.9138 0.9138 0.9138 0.9133
2051.000000 0.9131 0.9137 0.9131 0.9125 0.9124
2046.000000 0.9124 0.9124 0.9124 0.9124 0.9124
2041.000000 0.9123 0.9123 0.9123 0.9123 0.9122
2036.000000 0.9122 0.9122 0.9122 0.9121 0.9121
2031.000000 0.9121 0.9121 0.9121 0.9125 0.9128
2026.000000 0.9120 0.9125 0.9132 0.9130 0.9130
2021.000000 0.9129 0.9129 0.9128 0.9128 0.9127
2016.000000 0.9127 0.9126 0.9126 0.9125 0.9124
2011.000000 0.9123 0.9122 0.9121 0.9120 0.9119
2006.000000 0.9118 0.9117 0.9117 0.9116 0.9115
2001.000000 0.9112 0.9110 0.9108 0.9101 0.9094
1996.000000 0.9091 0.9091 0.9093 0.9094 0.9097
1991.000000 0.9099 0.9100 0.9101 0.9103 0.9104
1986.000000 0.9096 0.9096 0.9099 0.9103 0.9105
1981.000000 0.9108 0.9111 0.9113 0.9105 0.9109
1976.000000 0.9112 0.9115 0.9118 0.9119 0.9120
1971.000000 0.9120 0.9123 0.9123 0.9125 0.9126
1966.000000 0.9135 0.9134 0.9130 0.9140 0.9145
1961.000000 0.9146 0.9147 0.9149 0.9151 0.9153
1956.000000 0.9155 0.9157 0.9148 0.9149 0.9151
1951.000000 0.9153 0.9153 0.9143 0.9144 0.9145
1946.000000 0.9146 0.9147 0.9148 0.9148 0.9149
1941.000000 0.9151 0.9152 0.9153 0.9153 0.9153
1936.000000 0.9153 0.9155 0.9155 0.9155 0.9155
1931.000000 0.9155 0.9156 0.9156 0.9156 0.9156
1926.000000 0.9156 0.9156 0.9156 0.9156 0.9155
1921.000000 0.9155 0.9155 0.9155 0.9155 0.9155
1916.000000 0.9155 0.9155 0.9155 0.9155 0.9155
1911.000000 0.9155 0.9175 0.9152 0.9150 0.9158
1906.000000 0.9159 0.9158 0.9156 0.9154 0.9152
1901.000000 0.9151 0.9149 0.9148 0.9146 0.9143
1896.000000 0.9141 0.9138 0.9135 0.9133 0.9129
1891.000000 0.9123 0.9113 0.9110 0.9107 0.9105
1886.000000 0.9102 0.9100 0.9104 0.9108 0.9106
1881.000000 0.9104 0.9103 0.9102 0.9100 0.9099
1876.000000 0.9097 0.9107 0.9107 0.9104 0.9103
1871.000000 0.9101 0.9100 0.9098 0.9096 0.9095
1866.000000 0.9093 0.9092 0.9090 0.9088 0.9087
1861.000000 0.9085 0.9084 0.9081 0.9080 0.9085
1856.000000 0.9081 0.9074 0.9073 0.9071 0.9070
1851.000000 0.9069 0.9067 0.9066 0.9064 0.9063
1846.000000 0.9062 0.9060 0.9059 0.9058 0.9057
1841.000000 0.9056 0.9056 0.9055 0.9054 0.9053
1836.000000 0.9048 0.9040 0.9039 0.9038 0.9037
1831.000000 0.9036 0.9034 0.9033 0.9032 0.9030
1826.000000 0.9029 0.9028 0.9026 0.9025 0.9024
1821.000000 0.9022 0.9021 0.9031 0.9029 0.9029
1816.000000 0.9029 0.9029 0.9029 0.9029 0.9029
1811.000000 0.9029 0.9029 0.9025 0.9017 0.9017
1806.000000 0.9017 0.9017 0.9011 0.9006 0.9006
1801.000000 0.9006 0.9006 0.9008 0.9008 0.9009
1796.000000 0.9009 0.9010 0.9011 0.9012 0.9013
1791.000000 0.9014 0.9015 0.9016 0.9017 0.9018
1786.000000 0.9019 0.9020 0.9020 0.9019 0.9019
1781.000000 0.9019 0.9019 0.9018 0.9017 0.9016
1776.000000 0.9008 0.9001 0.8999 0.8997 0.8987
1771.000000 0.8973 0.8956 0.8930 0.8904 0.8880
1766.000000 0.8858 0.8835 0.8809 0.8779 0.8749
1761.000000 0.8719 0.8691 0.8667 0.8642 0.8611
1756.000000 0.8583 0.8555 0.8537 0.8519 0.8514
1751.000000 0.8512 0.8509 0.8509 0.8509 0.8513
1746.000000 0.8517 0.8522 0.8526 0.8531 0.8535
1741.000000 0.8536 0.8537 0.8537 0.8530 0.8519
1736.000000 0.8496 0.8473 0.8451 0.8425 0.8375
1731.000000 0.8324 0.8269 0.8211 0.8145 0.8043
1726.000000 0.7934 0.7787 0.7620 0.7441 0.7308
1721.000000 0.7184 0.7028 0.6566 0.5972 0.4944
1716.000000 0.4393 0.3842 0.3292 0.2741 0.2191
1711.000000 0.1760 0.1778 0.1748 0.1751 0.1804
1706.000000 0.2281 0.2756 0.3232 0.3708 0.4183
1701.000000 0.4659 0.5135 0.5473 0.5957 0.6192
1696.000000 0.6360 0.6526 0.7022 0.7187 0.7352
1691.000000 0.7653 0.7815 0.7899 0.7977 0.8049
1686.000000 0.8119 0.8190 0.8261 0.8326 0.8393
1681.000000 0.8455 0.8499 0.8545 0.8591 0.8636
1676.000000 0.8670 0.8702 0.8731 0.8764 0.8802
1671.000000 0.8826 0.8842 0.8859 0.8876 0.8893
1666.000000 0.8910 0.8927 0.8944 0.8960 0.8977
1661.000000 0.8994 0.9019 0.9024 0.9036 0.9062
1656.000000 0.9076 0.9089 0.9103 0.9115 0.9120
1651.000000 0.9143 0.9149 0.9157 0.9159 0.9163
1646.000000 0.9172 0.9182 0.9186 0.9189 0.9199
1641.000000 0.9208 0.9211 0.9231 0.9222 0.9227
1636.000000 0.9237 0.9240 0.9240 0.9250 0.9250
1631.000000 0.9259 0.9257 0.9266 0.9261 0.9264
1626.000000 0.9256 0.9245 0.9256 0.9260 0.9270
1621.000000 0.9266 0.9257 0.9256 0.9251 0.9248
1616.000000 0.9255 0.9264 0.9261 0.9243 0.9229
1611.000000 0.9224 0.9202 0.9179 0.9140 0.9092
1606.000000 0.9057 0.9000 0.8992 0.8962 0.8949
1601.000000 0.8904 0.8902 0.8889 0.8868 0.8841
1596.000000 0.8784 0.8695 0.8610 0.8529 0.8344
1591.000000 0.8243 0.8182 0.8171 0.8154 0.8137
1586.000000 0.8129 0.8115 0.8122 0.8132 0.8110
1581.000000 0.8102 0.8086 0.8074 0.8048 0.8034
1576.000000 0.8011 0.8000 0.8001 0.7992 0.7978
1571.000000 0.7973 0.7931 0.7903 0.7851 0.7816
1566.000000 0.7771 0.7737 0.7706 0.7669 0.7567
1561.000000 0.7513 0.7487 0.7458 0.7416 0.7354
1556.000000 0.7297 0.7255 0.7191 0.7117 0.6998
1551.000000 0.7033 0.7049 0.7035 0.7009 0.6981
1546.000000 0.6956 0.6926 0.6945 0.7093 0.7180
1541.000000 0.7279 0.7378 0.7434 0.7519 0.7583
1536.000000 0.7666 0.7763 0.7813 0.7861 0.7897
1531.000000 0.7926 0.7944 0.7960 0.7979 0.7998
1526.000000 0.8026 0.8059 0.8105 0.8143 0.8189
1521.000000 0.8220 0.8255 0.8291 0.8316 0.8346
1516.000000 0.8376 0.8398 0.8425 0.8446 0.8458
1511.000000 0.8462 0.8470 0.8480 0.8483 0.8485
1506.000000 0.8489 0.8494 0.8504 0.8513 0.8516
1501.000000 0.8528 0.8560 0.8596 0.8620 0.8647
1496.000000 0.8676 0.8712 0.8736 0.8770 0.8797
1491.000000 0.8822 0.8846 0.8873 0.8899 0.8929
1486.000000 0.8960 0.8982 0.9005 0.9044 0.9089
1481.000000 0.9120 0.9123 0.9105 0.9075 0.9043
1476.000000 0.9001 0.9007 0.8976 0.8956 0.8906
1471.000000 0.8620 0.8154 0.7690 0.7075 0.7074
1466.000000 0.7065 0.7065 0.7169 0.7244 0.7311
1461.000000 0.7382 0.7447 0.7460 0.7455 0.7465
1456.000000 0.7475 0.7551 0.7647 0.7735 0.7824
1451.000000 0.7931 0.7993 0.8075 0.8096 0.8089
1446.000000 0.8084 0.8084 0.8084 0.8085 0.8087
1441.000000 0.8092 0.8088 0.8093 0.8099 0.8104
1436.000000 0.8111 0.8117 0.8126 0.8134 0.8146
1431.000000 0.8163 0.8171 0.8177 0.8173 0.8170
1426.000000 0.8183 0.8184 0.8182 0.8177 0.8170
1421.000000 0.8154 0.8132 0.8105 0.8070 0.8024
1416.000000 0.7944 0.7871 0.7798 0.7726 0.7643
1411.000000 0.7624 0.7624 0.7648 0.7753 0.7939
1406.000000 0.8122 0.8306 0.8481 0.8610 0.8725
1401.000000 0.8789 0.8848 0.8894 0.8937 0.8970
1396.000000 0.8994 0.9019 0.9037 0.9053 0.9069
1391.000000 0.9085 0.9111 0.9136 0.9147 0.9172
1386.000000 0.9198 0.9227 0.9255 0.9205 0.9179
1381.000000 0.9148 0.9115 0.9060 0.9025 0.8990
1376.000000 0.8948 0.8916 0.8916 0.8918 0.8920
1371.000000 0.8922 0.8924 0.8928 0.8934 0.8938
1366.000000 0.8941 0.8942 0.8943 0.8945 0.8945
1361.000000 0.8943 0.8940 0.8933 0.8921 0.8912
1356.000000 0.8889 0.8879 0.8869 0.8866 0.8866
1351.000000 0.8866 0.8874 0.8883 0.8890 0.8891
1346.000000 0.8889 0.8888 0.8883 0.8877 0.8864
1341.000000 0.8859 0.8850 0.8846 0.8847 0.8847
1336.000000 0.8847 0.8848 0.8848 0.8848 0.8848
1331.000000 0.8847 0.8845 0.8832 0.8830 0.8828
1326.000000 0.8824 0.8813 0.8811 0.8805 0.8793
1321.000000 0.8776 0.8757 0.8739 0.8719 0.8701
1316.000000 0.8684 0.8660 0.8634 0.8608 0.8581
1311.000000 0.8555 0.8528 0.8501 0.8473 0.8441
1306.000000 0.8404 0.8366 0.8321 0.8292 0.8266
1301.000000 0.8239 0.8213 0.8194 0.8174 0.8153
1296.000000 0.8138 0.8127 0.8109 0.8090 0.8072
1291.000000 0.8050 0.8028 0.8010 0.7993 0.7976
1286.000000 0.7959 0.7944 0.7928 0.7913 0.7899
1281.000000 0.7888 0.7886 0.7886 0.7874 0.7873
1276.000000 0.7882 0.7908 0.7966 0.8003 0.8035
1271.000000 0.8064 0.8096 0.8148 0.8199 0.8239
1266.000000 0.8275 0.8300 0.8327 0.8355 0.8370
1261.000000 0.8384 0.8398 0.8411 0.8422 0.8431
1256.000000 0.8440 0.8449 0.8459 0.8459 0.8467
1251.000000 0.8476 0.8485 0.8493 0.8503 0.8509
1246.000000 0.8516 0.8522 0.8518 0.8518 0.8518
1241.000000 0.8517 0.8517 0.8523 0.8533 0.8537
1236.000000 0.8540 0.8543 0.8557 0.8587 0.8614
1231.000000 0.8641 0.8668 0.8695 0.8722 0.8754
1226.000000 0.8765 0.8774 0.8786 0.8796 0.8806
1221.000000 0.8818 0.8828 0.8839 0.8852 0.8864
1216.000000 0.8877 0.8889 0.8902 0.8919 0.8941
1211.000000 0.8956 0.8971 0.8985 0.9000 0.9015
1206.000000 0.9031 0.9045 0.9062 0.9078 0.9093
1201.000000 0.9108 0.9123 0.9139 0.9144 0.9159
1196.000000 0.9179 0.9197 0.9217 0.9248 0.9268
1191.000000 0.9285 0.9305 0.9328 0.9349 0.9362
1186.000000 0.9376 0.9389 0.9397 0.9399 0.9393
1181.000000 0.9383 0.9378 0.9373 0.9365 0.9352
1176.000000 0.9342 0.9343 0.9351 0.9359 0.9372
1171.000000 0.9383 0.9395 0.9413 0.9431 0.9448
1166.000000 0.9452 0.9457 0.9461 0.9465 0.9467
1161.000000 0.9468 0.9470 0.9472 0.9472 0.9474
1156.000000 0.9474 0.9475 0.9475 0.9477 0.9478
1151.000000 0.9471 0.9475 0.9480 0.9472 0.9470
1146.000000 0.9471 0.9471 0.9472 0.9460 0.9472
1141.000000 0.9472 0.9474 0.9486 0.9501 0.9515
1136.000000 0.9520 0.9532 0.9533 0.9524 0.9525
1131.000000 0.9526 0.9527 0.9524 0.9517 0.9517
1126.000000 0.9517 0.9517 0.9516 0.9515 0.9522
1121.000000 0.9519 0.9500 0.9480 0.9455 0.9431
1116.000000 0.9418 0.9397 0.9382 0.9368 0.9355
1111.000000 0.9350 0.9345 0.9339 0.9328 0.9333
1106.000000 0.9328 0.9332 0.9336 0.9342 0.9352
1101.000000 0.9362 0.9377 0.9391 0.9406 0.9433
1096.000000 0.9430 0.9420 0.9410 0.9400 0.9389
1091.000000 0.9379 0.9370 0.9364 0.9357 0.9351
1086.000000 0.9348 0.9346 0.9343 0.9341 0.9336
1081.000000 0.9324 0.9321 0.9315 0.9303 0.9297
1076.000000 0.9284 0.9280 0.9276 0.9282 0.9288
1071.000000 0.9288 0.9290 0.9298 0.9307 0.9314
1066.000000 0.9323 0.9331 0.9339 0.9346 0.9364
1061.000000 0.9371 0.9377 0.9371 0.9391 0.9399
1056.000000 0.9395 0.9398 0.9401 0.9404 0.9407
1051.000000 0.9412 0.9424 0.9426 0.9429 0.9432
1046.000000 0.9436 0.9438 0.9441 0.9444 0.9447
1041.000000 0.9449 0.9452 0.9455 0.9458 0.9460
1036.000000 0.9462 0.9465 0.9467 0.9469 0.9472
1031.000000 0.9473 0.9464 0.9465 0.9468 0.9470
1026.000000 0.9470 0.9462 0.9464 0.9466 0.9468
1021.000000 0.9470 0.9472 0.9474 0.9476 0.9478
1016.000000 0.9480 0.9482 0.9485 0.9488 0.9490
1011.000000 0.9493 0.9496 0.9498 0.9491 0.9491
1006.000000 0.9493 0.9494 0.9485 0.9485 0.9485
1001.000000 0.9485 0.9483 0.9481 0.9478 0.9466
996.000000 0.9462 0.9456 0.9452 0.9447 0.9448
991.000000 0.9450 0.9446 0.9441 0.9438 0.9434
986.000000 0.9429 0.9426 0.9421 0.9418 0.9413
981.000000 0.9407 0.9397 0.9387 0.9376 0.9368
976.000000 0.9358 0.9345 0.9329 0.9312 0.9288
971.000000 0.9282 0.9268 0.9254 0.9241 0.9226
966.000000 0.9213 0.9199 0.9171 0.9141 0.9119
961.000000 0.9096 0.9074 0.9051 0.9029 0.9004
956.000000 0.8978 0.8952 0.8926 0.8900 0.8872
951.000000 0.8844 0.8816 0.8788 0.8760 0.8732
946.000000 0.8704 0.8676 0.8648 0.8624 0.8603
941.000000 0.8585 0.8567 0.8550 0.8536 0.8525
936.000000 0.8512 0.8503 0.8497 0.8459 0.8484
931.000000 0.8482 0.8491 0.8498 0.8507 0.8515
926.000000 0.8523 0.8535 0.8545 0.8557 0.8572
921.000000 0.8586 0.8600 0.8616 0.8641 0.8653
916.000000 0.8680 0.8699 0.8718 0.8737 0.8762
911.000000 0.8788 0.8808 0.8828 0.8855 0.8877
906.000000 0.8885 0.8903 0.8916 0.8927 0.8946
901.000000 0.8959 0.8980 0.8992 0.9009 0.9023
896.000000 0.9035 0.9048 0.9114 0.9065 0.9081
891.000000 0.9096 0.9107 0.9120 0.9140 0.9150
886.000000 0.9158 0.9163 0.9176 0.9183 0.9176
881.000000 0.9171 0.9164 0.9152 0.9139 0.9118
876.000000 0.9097 0.9077 0.9059 0.9048 0.9037
871.000000 0.9029 0.9019 0.9008 0.8999 0.9001
866.000000 0.8992 0.8985 0.8992 0.8994 0.8989
861.000000 0.8987 0.8988 0.8986 0.8979 0.8966
856.000000 0.8944 0.8931 0.8912 0.8884 0.8851
851.000000 0.8808 0.8807 0.8890 0.8954 0.8987
846.000000 0.9006 0.9028 0.9033 0.9047 0.9057
841.000000 0.9062 0.9079 0.9107 0.9127 0.9161
836.000000 0.9174 0.9199 0.9230 0.9249 0.9272
831.000000 0.9294 0.9321 0.9346 0.9362 0.9384
826.000000 0.9405 0.9428 0.9455 0.9484 0.9507
821.000000 0.9513 0.9525 0.9538 0.9548 0.9558
816.000000 0.9580 0.9585 0.9591 0.9598 0.9616
811.000000 0.9628 0.9631 0.9643 0.9640 0.9630
806.000000 0.9633 0.9639 0.9636 0.9634 0.9630
801.000000 0.9622 0.9618 0.9612 0.9605 0.9600
796.000000 0.9595 0.9590 0.9575 0.9567 0.9566
791.000000 0.9576 0.9565 0.9563 0.9562 0.9561
786.000000 0.9560 0.9559 0.9555 0.9542 0.9531
781.000000 0.9531 0.9523 0.9524 0.9521 0.9515
776.000000 0.9516 0.9517 0.9518 0.9512 0.9507
771.000000 0.9508 0.9508 0.9501 0.9498 0.9499
766.000000 0.9499 0.9489 0.9487 0.9487 0.9487
761.000000 0.9488 0.9488 0.9488 0.9489 0.9489
756.000000 0.9489 0.9489 0.9492 0.9502 0.9503
751.000000 0.9503 0.9503 0.9504 0.9504 0.9505
746.000000 0.9501 0.9496 0.9492 0.9488 0.9484
741.000000 0.9480 0.9475 0.9471 0.9467 0.9463
736.000000 0.9457 0.9453 0.9448 0.9443 0.9436
731.000000 0.9428 0.9429 0.9421 0.9412 0.9382
726.000000 0.9350 0.9314 0.9263 0.9221 0.9186
721.000000 0.9149 0.9111 0.9070 0.9064 0.9081
716.000000 0.9070 0.9082 0.9106 0.9136 0.9171
711.000000 0.9212 0.9253 0.9292 0.9327 0.9363
706.000000 0.9391 0.9419 0.9447 0.9467 0.9470
701.000000 0.9474 0.9486 0.9490 0.9493 0.9497
696.000000 0.9500 0.9510 0.9520 0.9524 0.9527
691.000000 0.9530 0.9534 0.9538 0.9549 0.9556
686.000000 0.9560 0.9562 0.9565 0.9578 0.9583
681.000000 0.9585 0.9598 0.9599 0.9623 0.9633
676.000000 0.9652 0.9658 0.9642 0.9636 0.9624
671.000000 0.9621 0.9648 0.9744 0.9814 0.9743
666.000000 0.9686 0.9692 0.9711 0.9718 0.9725
661.000000 0.9738 0.9751 0.9764 0.9763 0.9766
656.000000 0.9762 0.9744 0.9730 0.9714 0.9685
651.000000 0.9669 0.9644 0.9619 0.9599 0.9583
646.000000 0.9563 0.9552 0.9538 0.9520 0.9527
641.000000 0.9528 0.9524 0.9527 0.9526 0.9524
636.000000 0.9535 0.9544 0.9540 0.9548 0.9556
631.000000 0.9559 0.9573 0.9590 0.9594 0.9606
626.000000 0.9607 0.9620 0.9633 0.9633 0.9646
621.000000 0.9659 0.9671 0.9684 0.9704 0.9709
616.000000 0.9710 0.9716 0.9718 0.9718 0.9724
611.000000 0.9730 0.9730 0.9730 0.9730 0.9723
606.000000 0.9719 0.9722 0.9722 0.9725 0.9726
601.000000 0.9726 0.9729 0.9730 0.9734 0.9735
596.000000 0.9738 0.9741 0.9743 0.9747 0.9749
591.000000 0.9754 0.9757 0.9762 0.9765 0.9765
586.000000 0.9766 0.9771 0.9766 0.9768 0.9769
581.000000 0.9772 0.9773 0.9775 0.9778 0.9769
576.000000 0.9765 0.9765 0.9775 0.9775 0.9776
571.000000 0.9776 0.9773 0.9771 0.9766 0.9751
566.000000 0.9750 0.9757 0.9751 0.9738 0.9734
561.000000 0.9729 0.9723 0.9716 0.9709 0.9703
556.000000 0.9697 0.9683 0.9671 0.9665 0.9650
551.000000 0.9648 0.9646 0.9639 0.9633 0.9626
546.000000 0.9621 0.9615 0.9608 0.9602 0.9595
541.000000 0.9589 0.9581 0.9576 0.9580 0.9575
536.000000 0.9576 0.9563 0.9549 0.9547 0.9537
531.000000 0.9528 0.9517 0.9507 0.9498 0.9489
526.000000 0.9489 0.9486 0.9478 0.9471 0.9462
521.000000 0.9455 0.9447 0.9440 0.9431 0.9421
516.000000 0.9410 0.9402 0.9392 0.9382 0.9372
511.000000 0.9363 0.9354 0.9343 0.9334 0.9324
506.000000 0.9313 0.9303 0.9293 0.9282 0.9272
501.000000 0.9261 0.9248 0.9236 0.9223 0.9210
496.000000 0.9197 0.9184 0.9171 0.9157 0.9143
491.000000 0.9130 0.9117 0.9109 0.9099 0.9091
486.000000 0.9084 0.9082 0.9079 0.9077 0.9074
481.000000 0.9072 0.9068 0.9062 0.9056 0.9050
476.000000 0.9044 0.9037 0.9031 0.9025 0.9019
471.000000 0.9010 0.9002 0.8995 0.8986 0.8977
466.000000 0.8969 0.8959 0.8950 0.8942 0.8933
461.000000 0.8924 0.8915 0.8906 0.8894 0.8884
456.000000 0.8873 0.8861
##END=
