##TITLE=Stearic acid
##JCAMP-DX=4.24
$$ By DXEDIT 1.05 (RS McDonald)
##DATA TYPE=INFRARED SPECTRUM
##CLASS=COBLENTZ III
##ORIGIN=DOW CHEMICAL COMPANY
##OWNER=COPYRIGHT (C) 1988 by COBLENTZ SOCIETY INC.
Collection (C) 2018 copyright by the U.S. Secretary of Commerce
on behalf of the United States of America. All rights reserved.
##DATE=1964/09/24
##CAS REGISTRY NO=57-11-4
##MOLFORM=C18 H36 O2
##SOURCE REFERENCE=COBLENTZ NO. 6410
##$NIST SOURCE=COBLENTZ
##$NIST IMAGE=cob6410
##SPECTROMETER/DATA SYSTEM=DOW KBr FOREPRISM-GRATING
##INSTRUMENT PARAMETERS=BLAZED AT 3.5, 12.0, 20.0 MICRON AND CHANGED AT 5.0, 7.5, 14.9 MICRON
##STATE=SOLUTION (10% CCl4 FOR 3800-1330, 10% CS2 FOR 1330-450 CM^-^1)
##PATH LENGTH=0.011 CM, 0.011 CM
$$SPECTRAL CONTAMINATIONS DUE TO CS2 AROUND 650, 850 AND CCl4 AROUND 1550 CM^-^1 HAVE BEEN SUBTRACTED
##SAMPLING PROCEDURE=TRANSMISSION
##RESOLUTION=2
##DATA PROCESSING=DIGITIZED BY COBLENTZ SOCIETY (BATCH I) FROM HARD COPY
##XUNITS=1/CM
##YUNITS=TRANSMITTANCE
##XFACTOR=1
##YFACTOR=1
##DELTAX=1
##FIRSTX=3796
##LASTX=455
##FIRSTY=0.9058
##MAXX=3796
##MINX=455
##MAXY=0.9146
##MINY=0
##NPOINTS=3342
##XYDATA=(X++(Y..Y))
3796.000000 0.9058 0.9052 0.9059 0.9059 0.9059
3791.000000 0.9059 0.9059 0.9059 0.9059 0.9057
3786.000000 0.9056 0.9054 0.9047 0.9043 0.9042
3781.000000 0.9047 0.9048 0.9040 0.9045 0.9045
3776.000000 0.9044 0.9035 0.9045 0.9046 0.9047
3771.000000 0.9047 0.9048 0.9048 0.9049 0.9050
3766.000000 0.9051 0.9051 0.9052 0.9052 0.9053
3761.000000 0.9054 0.9059 0.9059 0.9056 0.9056
3756.000000 0.9057 0.9058 0.9059 0.9059 0.9060
3751.000000 0.9060 0.9061 0.9062 0.9063 0.9063
3746.000000 0.9064 0.9064 0.9064 0.9064 0.9064
3741.000000 0.9063 0.9063 0.9066 0.9072 0.9071
3736.000000 0.9071 0.9070 0.9066 0.9060 0.9065
3731.000000 0.9068 0.9068 0.9068 0.9068 0.9067
3726.000000 0.9067 0.9066 0.9064 0.9062 0.9061
3721.000000 0.9059 0.9058 0.9047 0.9047 0.9053
3716.000000 0.9052 0.9050 0.9049 0.9047 0.9048
3711.000000 0.9050 0.9046 0.9049 0.9048 0.9045
3706.000000 0.9042 0.9040 0.9037 0.9034 0.9031
3701.000000 0.9028 0.9026 0.9023 0.9020 0.9015
3696.000000 0.9004 0.8997 0.8993 0.8988 0.8984
3691.000000 0.8974 0.8964 0.8949 0.8933 0.8923
3686.000000 0.8908 0.8907 0.8906 0.8905 0.8905
3681.000000 0.8904 0.8904 0.8909 0.8914 0.8921
3676.000000 0.8927 0.8932 0.8937 0.8942 0.8948
3671.000000 0.8950 0.8961 0.8955 0.8953 0.8953
3666.000000 0.8953 0.8953 0.8953 0.8953 0.8953
3661.000000 0.8953 0.8953 0.8952 0.8952 0.8951
3656.000000 0.8951 0.8950 0.8950 0.8949 0.8948
3651.000000 0.8947 0.8947 0.8946 0.8946 0.8945
3646.000000 0.8944 0.8943 0.8943 0.8942 0.8942
3641.000000 0.8941 0.8941 0.8940 0.8940 0.8939
3636.000000 0.8939 0.8938 0.8938 0.8938 0.8945
3631.000000 0.8944 0.8942 0.8935 0.8938 0.8942
3626.000000 0.8942 0.8941 0.8941 0.8940 0.8939
3621.000000 0.8938 0.8938 0.8937 0.8936 0.8935
3616.000000 0.8933 0.8933 0.8933 0.8932 0.8930
3611.000000 0.8930 0.8930 0.8928 0.8920 0.8926
3606.000000 0.8926 0.8925 0.8925 0.8920 0.8917
3601.000000 0.8919 0.8913 0.8898 0.8894 0.8886
3596.000000 0.8874 0.8871 0.8871 0.8871 0.8876
3591.000000 0.8881 0.8886 0.8891 0.8897 0.8902
3586.000000 0.8907 0.8912 0.8917 0.8922 0.8927
3581.000000 0.8932 0.8936 0.8938 0.8941 0.8925
3576.000000 0.8909 0.8847 0.8796 0.8794 0.8790
3571.000000 0.8785 0.8787 0.8826 0.8865 0.8888
3566.000000 0.8911 0.8928 0.8945 0.8952 0.8961
3561.000000 0.8960 0.8960 0.8959 0.8958 0.8956
3556.000000 0.8955 0.8960 0.8949 0.8948 0.8954
3551.000000 0.8952 0.8948 0.8940 0.8944 0.8937
3546.000000 0.8931 0.8921 0.8915 0.8914 0.8909
3541.000000 0.8897 0.8882 0.8870 0.8853 0.8834
3536.000000 0.8815 0.8794 0.8774 0.8755 0.8738
3531.000000 0.8723 0.8712 0.8696 0.8689 0.8686
3526.000000 0.8684 0.8683 0.8682 0.8681 0.8681
3521.000000 0.8684 0.8688 0.8693 0.8698 0.8703
3516.000000 0.8709 0.8718 0.8726 0.8736 0.8747
3511.000000 0.8757 0.8766 0.8776 0.8785 0.8795
3506.000000 0.8804 0.8810 0.8816 0.8820 0.8824
3501.000000 0.8828 0.8832 0.8833 0.8834 0.8835
3496.000000 0.8836 0.8837 0.8838 0.8839 0.8840
3491.000000 0.8840 0.8841 0.8841 0.8842 0.8843
3486.000000 0.8844 0.8844 0.8845 0.8845 0.8846
3481.000000 0.8847 0.8848 0.8848 0.8848 0.8848
3476.000000 0.8848 0.8847 0.8846 0.8845 0.8844
3471.000000 0.8843 0.8842 0.8840 0.8839 0.8837
3466.000000 0.8836 0.8833 0.8832 0.8830 0.8829
3461.000000 0.8828 0.8827 0.8825 0.8823 0.8820
3456.000000 0.8819 0.8816 0.8813 0.8812 0.8810
3451.000000 0.8808 0.8806 0.8803 0.8801 0.8798
3446.000000 0.8796 0.8793 0.8791 0.8788 0.8786
3441.000000 0.8783 0.8780 0.8777 0.8775 0.8772
3436.000000 0.8768 0.8765 0.8763 0.8760 0.8757
3431.000000 0.8753 0.8750 0.8746 0.8743 0.8740
3426.000000 0.8736 0.8725 0.8727 0.8723 0.8717
3421.000000 0.8713 0.8707 0.8702 0.8697 0.8691
3416.000000 0.8686 0.8681 0.8676 0.8670 0.8662
3411.000000 0.8655 0.8648 0.8640 0.8632 0.8629
3406.000000 0.8620 0.8610 0.8604 0.8597 0.8592
3401.000000 0.8586 0.8580 0.8574 0.8568 0.8561
3396.000000 0.8555 0.8549 0.8543 0.8537 0.8531
3391.000000 0.8520 0.8510 0.8499 0.8488 0.8477
3386.000000 0.8466 0.8454 0.8443 0.8429 0.8414
3381.000000 0.8399 0.8386 0.8371 0.8357 0.8342
3376.000000 0.8329 0.8316 0.8302 0.8288 0.8276
3371.000000 0.8263 0.8257 0.8237 0.8223 0.8210
3366.000000 0.8196 0.8184 0.8172 0.8158 0.8145
3361.000000 0.8132 0.8120 0.8107 0.8093 0.8081
3356.000000 0.8069 0.8055 0.8042 0.8034 0.8025
3351.000000 0.8016 0.8008 0.8000 0.7990 0.7982
3346.000000 0.7974 0.7975 0.7971 0.7960 0.7960
3341.000000 0.7949 0.7942 0.7938 0.7940 0.7932
3336.000000 0.7923 0.7906 0.7897 0.7890 0.7882
3331.000000 0.7877 0.7873 0.7869 0.7865 0.7860
3326.000000 0.7856 0.7849 0.7844 0.7833 0.7825
3321.000000 0.7814 0.7806 0.7796 0.7787 0.7777
3316.000000 0.7768 0.7759 0.7750 0.7739 0.7738
3311.000000 0.7729 0.7721 0.7712 0.7701 0.7686
3306.000000 0.7684 0.7675 0.7663 0.7642 0.7626
3301.000000 0.7611 0.7595 0.7578 0.7563 0.7547
3296.000000 0.7531 0.7513 0.7498 0.7479 0.7462
3291.000000 0.7444 0.7427 0.7408 0.7391 0.7372
3286.000000 0.7355 0.7337 0.7321 0.7311 0.7294
3281.000000 0.7270 0.7256 0.7246 0.7227 0.7205
3276.000000 0.7191 0.7179 0.7163 0.7141 0.7119
3271.000000 0.7096 0.7074 0.7050 0.7026 0.7004
3266.000000 0.6981 0.6957 0.6935 0.6910 0.6888
3261.000000 0.6868 0.6848 0.6829 0.6809 0.6789
3256.000000 0.6763 0.6750 0.6731 0.6710 0.6692
3251.000000 0.6672 0.6653 0.6632 0.6611 0.6594
3246.000000 0.6578 0.6559 0.6541 0.6528 0.6512
3241.000000 0.6495 0.6479 0.6462 0.6446 0.6429
3236.000000 0.6413 0.6396 0.6380 0.6362 0.6346
3231.000000 0.6329 0.6313 0.6296 0.6280 0.6263
3226.000000 0.6241 0.6225 0.6213 0.6197 0.6180
3221.000000 0.6163 0.6146 0.6127 0.6107 0.6087
3216.000000 0.6068 0.6048 0.6029 0.6009 0.5990
3211.000000 0.5969 0.5950 0.5929 0.5906 0.5885
3206.000000 0.5866 0.5846 0.5827 0.5807 0.5787
3201.000000 0.5767 0.5749 0.5732 0.5708 0.5690
3196.000000 0.5666 0.5649 0.5628 0.5607 0.5586
3191.000000 0.5565 0.5541 0.5520 0.5502 0.5480
3186.000000 0.5456 0.5433 0.5412 0.5391 0.5370
3181.000000 0.5353 0.5335 0.5319 0.5302 0.5285
3176.000000 0.5268 0.5252 0.5235 0.5219 0.5201
3171.000000 0.5186 0.5170 0.5152 0.5137 0.5119
3166.000000 0.5103 0.5086 0.5072 0.5058 0.5039
3161.000000 0.5022 0.5007 0.4989 0.4968 0.4952
3156.000000 0.4932 0.4913 0.4899 0.4883 0.4866
3151.000000 0.4848 0.4831 0.4812 0.4790 0.4773
3146.000000 0.4755 0.4738 0.4720 0.4702 0.4684
3141.000000 0.4670 0.4658 0.4642 0.4629 0.4615
3136.000000 0.4600 0.4585 0.4570 0.4556 0.4542
3131.000000 0.4527 0.4513 0.4498 0.4484 0.4470
3126.000000 0.4455 0.4437 0.4418 0.4400 0.4382
3121.000000 0.4364 0.4346 0.4328 0.4310 0.4292
3116.000000 0.4273 0.4254 0.4237 0.4219 0.4202
3111.000000 0.4186 0.4167 0.4151 0.4134 0.4118
3106.000000 0.4103 0.4087 0.4071 0.4054 0.4037
3101.000000 0.4020 0.4005 0.3987 0.3969 0.3954
3096.000000 0.3939 0.3931 0.3917 0.3908 0.3898
3091.000000 0.3886 0.3877 0.3864 0.3851 0.3843
3086.000000 0.3835 0.3822 0.3810 0.3802 0.3794
3081.000000 0.3788 0.3781 0.3773 0.3769 0.3765
3076.000000 0.3762 0.3756 0.3753 0.3747 0.3739
3071.000000 0.3731 0.3725 0.3716 0.3715 0.3704
3066.000000 0.3698 0.3690 0.3683 0.3672 0.3665
3061.000000 0.3658 0.3652 0.3646 0.3639 0.3625
3056.000000 0.3612 0.3601 0.3590 0.3577 0.3565
3051.000000 0.3555 0.3545 0.3533 0.3521 0.3509
3046.000000 0.3500 0.3488 0.3480 0.3471 0.3464
3041.000000 0.3454 0.3447 0.3436 0.3429 0.3421
3036.000000 0.3414 0.3406 0.3400 0.3390 0.3383
3031.000000 0.3375 0.3370 0.3362 0.3357 0.3352
3026.000000 0.3348 0.3346 0.3345 0.3343 0.3342
3021.000000 0.3340 0.3339 0.3339 0.3339 0.3335
3016.000000 0.3330 0.3324 0.3319 0.3313 0.3308
3011.000000 0.3303 0.3298 0.3289 0.3280 0.3265
3006.000000 0.3255 0.3245 0.3234 0.3211 0.3187
3001.000000 0.3158 0.3132 0.3103 0.3073 0.3050
2996.000000 0.3027 0.3003 0.2979 0.2958 0.2935
2991.000000 0.2906 0.2877 0.2847 0.2818 0.2788
2986.000000 0.2758 0.2692 0.2627 0.2555 0.2483
2981.000000 0.2404 0.2325 0.2217 0.2108 0.2035
2976.000000 0.1964 0.1891 0.1819 0.1403 0.0987
2971.000000 0.0924 0.0862 0.0821 0.0781 0.0752
2966.000000 0.0724 0.0695 0.0667 0.0638 0.0609
2961.000000 0.0582 0.0557 0.0539 0.0520 0.0505
2956.000000 0.0491 0.0478 0.0466 0.0455 0.0443
2951.000000 0.0431 0.0420 0.0408 0.0397 0.0371
2946.000000 0.0345 0.0316 0.0287 0.0220 0.0155
2941.000000 0.0130 0.0106 0.0089 0.0072 0.0062
2936.000000 0.0053 0.0049 0.0045 0.0041 0.0038
2931.000000 0.0034 0.0031 0.0030 0.0029 0.0029
2926.000000 0.0029 0.0029 0.0029 0.0029 0.0029
2921.000000 0.0028 0.0028 0.0027 0.0027 0.0026
2916.000000 0.0026 0.0027 0.0029 0.0033 0.0038
2911.000000 0.0060 0.0083 0.0108 0.0136 0.0171
2906.000000 0.0207 0.0248 0.0288 0.0330 0.0372
2901.000000 0.0420 0.0467 0.0514 0.0561 0.0614
2896.000000 0.0668 0.0722 0.0777 0.0815 0.0852
2891.000000 0.0890 0.0929 0.0968 0.1007 0.1053
2886.000000 0.1099 0.1131 0.1166 0.1193 0.1219
2881.000000 0.1241 0.1332 0.1265 0.1267 0.1266
2876.000000 0.1268 0.1269 0.1270 0.1259 0.1248
2871.000000 0.1211 0.1174 0.1131 0.1088 0.1037
2866.000000 0.0985 0.0900 0.0815 0.0659 0.0503
2861.000000 0.0422 0.0341 0.0271 0.0201 0.0163
2856.000000 0.0096 0.0121 0.0116 0.0111 0.0107
2851.000000 0.0130 0.0154 0.0318 0.0483 0.0634
2846.000000 0.0784 0.0909 0.1033 0.1280 0.1531
2841.000000 0.1681 0.1831 0.1926 0.2022 0.2122
2836.000000 0.2222 0.2341 0.2460 0.2698 0.2937
2831.000000 0.3021 0.3104 0.3180 0.3252 0.3328
2826.000000 0.3402 0.3434 0.3471 0.3512 0.3545
2821.000000 0.3583 0.3619 0.3654 0.3688 0.3723
2816.000000 0.3759 0.3791 0.3823 0.3853 0.3883
2811.000000 0.3913 0.3943 0.3973 0.4005 0.4038
2806.000000 0.4068 0.4098 0.4126 0.4157 0.4187
2801.000000 0.4220 0.4252 0.4286 0.4321 0.4355
2796.000000 0.4390 0.4426 0.4461 0.4497 0.4532
2791.000000 0.4572 0.4617 0.4657 0.4699 0.4740
2786.000000 0.4779 0.4818 0.4859 0.4894 0.4929
2781.000000 0.4966 0.5003 0.5029 0.5055 0.5081
2776.000000 0.5106 0.5132 0.5158 0.5172 0.5188
2771.000000 0.5200 0.5213 0.5225 0.5238 0.5250
2766.000000 0.5262 0.5273 0.5287 0.5298 0.5311
2761.000000 0.5322 0.5334 0.5344 0.5353 0.5357
2756.000000 0.5357 0.5358 0.5355 0.5351 0.5348
2751.000000 0.5344 0.5341 0.5339 0.5337 0.5334
2746.000000 0.5332 0.5329 0.5327 0.5325 0.5325
2741.000000 0.5325 0.5328 0.5331 0.5334 0.5337
2736.000000 0.5340 0.5343 0.5348 0.5351 0.5355
2731.000000 0.5359 0.5364 0.5368 0.5372 0.5376
2726.000000 0.5382 0.5386 0.5390 0.5394 0.5399
2721.000000 0.5402 0.5405 0.5408 0.5411 0.5413
2716.000000 0.5417 0.5420 0.5423 0.5426 0.5428
2711.000000 0.5432 0.5466 0.5438 0.5441 0.5442
2706.000000 0.5443 0.5443 0.5443 0.5443 0.5443
2701.000000 0.5425 0.5407 0.5389 0.5370 0.5352
2696.000000 0.5336 0.5318 0.5301 0.5283 0.5267
2691.000000 0.5251 0.5237 0.5221 0.5209 0.5195
2686.000000 0.5181 0.5166 0.5151 0.5133 0.5115
2681.000000 0.5101 0.5087 0.5076 0.5065 0.5056
2676.000000 0.5048 0.5042 0.5037 0.5032 0.5013
2671.000000 0.5024 0.5022 0.5027 0.5033 0.5041
2666.000000 0.5050 0.5059 0.5069 0.5079 0.5089
2661.000000 0.5100 0.5110 0.5120 0.5131 0.5146
2656.000000 0.5157 0.5168 0.5178 0.5188 0.5198
2651.000000 0.5207 0.5214 0.5225 0.5240 0.5254
2646.000000 0.5266 0.5273 0.5284 0.5295 0.5310
2641.000000 0.5320 0.5331 0.5342 0.5353 0.5365
2636.000000 0.5376 0.5388 0.5405 0.5416 0.5428
2631.000000 0.5435 0.5447 0.5463 0.5475 0.5486
2626.000000 0.5499 0.5510 0.5523 0.5534 0.5546
2621.000000 0.5558 0.5569 0.5580 0.5593 0.5604
2616.000000 0.5616 0.5626 0.5635 0.5643 0.5652
2611.000000 0.5660 0.5668 0.5676 0.5685 0.5693
2606.000000 0.5701 0.5709 0.5718 0.5726 0.5734
2601.000000 0.5740 0.5748 0.5754 0.5759 0.5764
2596.000000 0.5769 0.5774 0.5779 0.5785 0.5790
2591.000000 0.5794 0.5800 0.5805 0.5810 0.5816
2586.000000 0.5822 0.5827 0.5833 0.5839 0.5845
2581.000000 0.5853 0.5860 0.5866 0.5873 0.5879
2576.000000 0.5887 0.5893 0.5900 0.5906 0.5914
2571.000000 0.5920 0.5927 0.5934 0.5941 0.5949
2566.000000 0.5956 0.5962 0.5969 0.5976 0.5984
2561.000000 0.5991 0.5998 0.6005 0.6013 0.6020
2556.000000 0.6028 0.6048 0.6068 0.6088 0.6108
2551.000000 0.6127 0.6147 0.6164 0.6183 0.6200
2546.000000 0.6219 0.6237 0.6255 0.6273 0.6291
2541.000000 0.6308 0.6327 0.6345 0.6363 0.6382
2536.000000 0.6402 0.6423 0.6445 0.6467 0.6489
2531.000000 0.6511 0.6534 0.6555 0.6577 0.6599
2526.000000 0.6621 0.6643 0.6666 0.6680 0.6695
2521.000000 0.6708 0.6722 0.6735 0.6748 0.6762
2516.000000 0.6774 0.6788 0.6802 0.6814 0.6829
2511.000000 0.6842 0.6856 0.6869 0.6883 0.6896
2506.000000 0.6909 0.6923 0.6935 0.6950 0.6963
2501.000000 0.6976 0.6990 0.7003 0.7017 0.7028
2496.000000 0.7039 0.7053 0.7065 0.7077 0.7089
2491.000000 0.7100 0.7113 0.7124 0.7135 0.7149
2486.000000 0.7161 0.7172 0.7185 0.7196 0.7209
2481.000000 0.7225 0.7240 0.7252 0.7264 0.7274
2476.000000 0.7286 0.7295 0.7304 0.7316 0.7326
2471.000000 0.7335 0.7345 0.7355 0.7365 0.7376
2466.000000 0.7386 0.7395 0.7406 0.7415 0.7426
2461.000000 0.7436 0.7446 0.7455 0.7462 0.7472
2456.000000 0.7482 0.7488 0.7498 0.7514 0.7526
2451.000000 0.7535 0.7538 0.7550 0.7562 0.7569
2446.000000 0.7579 0.7587 0.7596 0.7603 0.7613
2441.000000 0.7620 0.7631 0.7639 0.7647 0.7657
2436.000000 0.7665 0.7672 0.7682 0.7691 0.7699
2431.000000 0.7708 0.7716 0.7725 0.7735 0.7742
2426.000000 0.7750 0.7756 0.7761 0.7767 0.7771
2421.000000 0.7776 0.7782 0.7788 0.7793 0.7798
2416.000000 0.7802 0.7808 0.7812 0.7819 0.7823
2411.000000 0.7828 0.7835 0.7842 0.7851 0.7853
2406.000000 0.7863 0.7869 0.7873 0.7879 0.7883
2401.000000 0.7889 0.7894 0.7900 0.7905 0.7910
2396.000000 0.7916 0.7920 0.7926 0.7930 0.7937
2391.000000 0.7941 0.7946 0.7958 0.7963 0.7967
2386.000000 0.7972 0.7978 0.7987 0.7992 0.8000
2381.000000 0.8009 0.8013 0.8021 0.8031 0.8039
2376.000000 0.8048 0.8052 0.8060 0.8068 0.8074
2371.000000 0.8078 0.8081 0.8079 0.8081 0.8086
2366.000000 0.8089 0.8092 0.8095 0.8098 0.8102
2361.000000 0.8106 0.8115 0.8120 0.8130 0.8135
2356.000000 0.8146 0.8156 0.8158 0.8161 0.8164
2351.000000 0.8164 0.8162 0.8164 0.8171 0.8180
2346.000000 0.8186 0.8188 0.8184 0.8183 0.8185
2341.000000 0.8187 0.8189 0.8184 0.8194 0.8198
2336.000000 0.8194 0.8193 0.8203 0.8196 0.8189
2331.000000 0.8183 0.8183 0.8175 0.8169 0.8166
2326.000000 0.8165 0.8162 0.8161 0.8153 0.8147
2321.000000 0.8146 0.8146 0.8145 0.8145 0.8144
2316.000000 0.8144 0.8143 0.8143 0.8142 0.8142
2311.000000 0.8141 0.8139 0.8136 0.8135 0.8135
2306.000000 0.8134 0.8131 0.8131 0.8129 0.8128
2301.000000 0.8127 0.8125 0.8127 0.8135 0.8135
2296.000000 0.8135 0.8135 0.8136 0.8136 0.8136
2291.000000 0.8136 0.8136 0.8136 0.8131 0.8131
2286.000000 0.8131 0.8134 0.8136 0.8133 0.8137
2281.000000 0.8141 0.8145 0.8149 0.8145 0.8150
2276.000000 0.8152 0.8149 0.8153 0.8157 0.8160
2271.000000 0.8159 0.8163 0.8162 0.8162 0.8165
2266.000000 0.8169 0.8168 0.8169 0.8172 0.8174
2261.000000 0.8171 0.8173 0.8176 0.8173 0.8175
2256.000000 0.8179 0.8183 0.8179 0.8182 0.8185
2251.000000 0.8187 0.8184 0.8186 0.8191 0.8194
2246.000000 0.8197 0.8198 0.8196 0.8199 0.8202
2241.000000 0.8204 0.8208 0.8211 0.8214 0.8218
2236.000000 0.8221 0.8218 0.8219 0.8222 0.8225
2231.000000 0.8228 0.8231 0.8233 0.8236 0.8239
2226.000000 0.8243 0.8246 0.8248 0.8250 0.8252
2221.000000 0.8247 0.8249 0.8251 0.8253 0.8254
2216.000000 0.8256 0.8258 0.8260 0.8262 0.8264
2211.000000 0.8265 0.8267 0.8270 0.8272 0.8273
2206.000000 0.8276 0.8276 0.8279 0.8280 0.8280
2201.000000 0.8280 0.8282 0.8282 0.8282 0.8282
2196.000000 0.8282 0.8276 0.8283 0.8281 0.8276
2191.000000 0.8276 0.8278 0.8278 0.8278 0.8278
2186.000000 0.8279 0.8279 0.8285 0.8284 0.8282
2181.000000 0.8282 0.8282 0.8282 0.8289 0.8293
2176.000000 0.8293 0.8295 0.8296 0.8297 0.8298
2171.000000 0.8299 0.8300 0.8299 0.8293 0.8294
2166.000000 0.8295 0.8296 0.8297 0.8298 0.8299
2161.000000 0.8300 0.8301 0.8301 0.8302 0.8303
2156.000000 0.8304 0.8304 0.8305 0.8305 0.8305
2151.000000 0.8305 0.8305 0.8305 0.8306 0.8306
2146.000000 0.8306 0.8306 0.8306 0.8306 0.8307
2141.000000 0.8307 0.8307 0.8307 0.8308 0.8308
2136.000000 0.8308 0.8308 0.8310 0.8310 0.8311
2131.000000 0.8311 0.8311 0.8311 0.8312 0.8312
2126.000000 0.8313 0.8313 0.8315 0.8316 0.8309
2121.000000 0.8317 0.8319 0.8319 0.8320 0.8322
2116.000000 0.8323 0.8323 0.8325 0.8326 0.8326
2111.000000 0.8327 0.8329 0.8330 0.8332 0.8333
2106.000000 0.8333 0.8334 0.8336 0.8338 0.8340
2101.000000 0.8341 0.8342 0.8343 0.8339 0.8338
2096.000000 0.8347 0.8348 0.8342 0.8349 0.8349
2091.000000 0.8349 0.8350 0.8350 0.8350 0.8350
2086.000000 0.8351 0.8351 0.8351 0.8351 0.8352
2081.000000 0.8349 0.8347 0.8344 0.8342 0.8340
2076.000000 0.8338 0.8336 0.8333 0.8330 0.8329
2071.000000 0.8325 0.8324 0.8322 0.8319 0.8317
2066.000000 0.8315 0.8313 0.8311 0.8308 0.8308
2061.000000 0.8306 0.8305 0.8303 0.8302 0.8301
2056.000000 0.8307 0.8305 0.8303 0.8301 0.8297
2051.000000 0.8294 0.8297 0.8291 0.8286 0.8284
2046.000000 0.8282 0.8281 0.8280 0.8278 0.8277
2041.000000 0.8277 0.8277 0.8275 0.8275 0.8274
2036.000000 0.8274 0.8274 0.8274 0.8273 0.8273
2031.000000 0.8270 0.8270 0.8270 0.8272 0.8273
2026.000000 0.8266 0.8270 0.8273 0.8271 0.8271
2021.000000 0.8270 0.8269 0.8268 0.8268 0.8267
2016.000000 0.8266 0.8264 0.8264 0.8263 0.8262
2011.000000 0.8260 0.8259 0.8258 0.8257 0.8255
2006.000000 0.8254 0.8252 0.8251 0.8249 0.8248
2001.000000 0.8243 0.8237 0.8233 0.8216 0.8198
1996.000000 0.8185 0.8167 0.8143 0.8125 0.8112
1991.000000 0.8111 0.8111 0.8111 0.8110 0.8110
1986.000000 0.8108 0.8111 0.8115 0.8119 0.8121
1981.000000 0.8121 0.8118 0.8116 0.8107 0.8106
1976.000000 0.8106 0.8106 0.8104 0.8104 0.8103
1971.000000 0.8103 0.8103 0.8101 0.8101 0.8099
1966.000000 0.8104 0.8099 0.8095 0.8101 0.8102
1961.000000 0.8100 0.8100 0.8098 0.8097 0.8095
1956.000000 0.8093 0.8093 0.8083 0.8082 0.8080
1951.000000 0.8079 0.8076 0.8069 0.8067 0.8066
1946.000000 0.8065 0.8063 0.8062 0.8061 0.8059
1941.000000 0.8057 0.8056 0.8055 0.8053 0.8051
1936.000000 0.8050 0.8050 0.8046 0.8044 0.8042
1931.000000 0.8039 0.8036 0.8033 0.8031 0.8027
1926.000000 0.8024 0.8021 0.8019 0.8016 0.8013
1921.000000 0.8010 0.8007 0.8004 0.7999 0.7996
1916.000000 0.7991 0.7988 0.7984 0.7981 0.7978
1911.000000 0.7974 0.7971 0.7967 0.7964 0.7965
1906.000000 0.7963 0.7960 0.7955 0.7952 0.7948
1901.000000 0.7944 0.7940 0.7937 0.7933 0.7929
1896.000000 0.7924 0.7920 0.7916 0.7911 0.7906
1891.000000 0.7900 0.7891 0.7887 0.7881 0.7878
1886.000000 0.7874 0.7871 0.7873 0.7873 0.7870
1881.000000 0.7868 0.7865 0.7862 0.7860 0.7857
1876.000000 0.7853 0.7859 0.7855 0.7853 0.7851
1871.000000 0.7848 0.7845 0.7842 0.7840 0.7836
1866.000000 0.7831 0.7826 0.7820 0.7815 0.7809
1861.000000 0.7803 0.7797 0.7793 0.7788 0.7786
1856.000000 0.7779 0.7771 0.7765 0.7759 0.7753
1851.000000 0.7746 0.7737 0.7729 0.7721 0.7714
1846.000000 0.7704 0.7697 0.7689 0.7680 0.7672
1841.000000 0.7665 0.7656 0.7649 0.7643 0.7635
1836.000000 0.7625 0.7613 0.7606 0.7599 0.7591
1831.000000 0.7584 0.7576 0.7569 0.7563 0.7557
1826.000000 0.7551 0.7543 0.7538 0.7532 0.7525
1821.000000 0.7520 0.7513 0.7515 0.7508 0.7503
1816.000000 0.7498 0.7492 0.7488 0.7481 0.7476
1811.000000 0.7471 0.7466 0.7458 0.7447 0.7442
1806.000000 0.7435 0.7429 0.7421 0.7411 0.7406
1801.000000 0.7400 0.7395 0.7389 0.7382 0.7374
1796.000000 0.7366 0.7359 0.7350 0.7341 0.7332
1791.000000 0.7323 0.7315 0.7307 0.7299 0.7291
1786.000000 0.7284 0.7274 0.7267 0.7259 0.7250
1781.000000 0.7241 0.7231 0.7222 0.7212 0.7187
1776.000000 0.7156 0.7130 0.7103 0.7064 0.7019
1771.000000 0.6974 0.6930 0.6882 0.6835 0.6786
1766.000000 0.6735 0.6679 0.6624 0.6570 0.6504
1761.000000 0.6415 0.6310 0.6199 0.6130 0.6069
1756.000000 0.6024 0.5978 0.5934 0.5889 0.5843
1751.000000 0.5798 0.5753 0.5704 0.5654 0.5605
1746.000000 0.5555 0.5501 0.5440 0.5379 0.5317
1741.000000 0.5245 0.5174 0.5102 0.5027 0.4914
1736.000000 0.4801 0.4657 0.4484 0.4334 0.4194
1731.000000 0.4046 0.3859 0.3450 0.3260 0.3012
1726.000000 0.2079 0.1981 0.1915 0.1818 0.1719
1721.000000 0.1596 0.1425 0.1239 0.0257 0.0096
1716.000000 0.0042 0.0032 0.0027 0.0000 0.0021
1711.000000 0.0021 0.0022 0.0032 0.0041 0.0051
1706.000000 0.0090 0.0133 0.0176 0.0280 0.0388
1701.000000 0.0543 0.0759 0.1421 0.1661 0.1890
1696.000000 0.2259 0.2455 0.2637 0.2817 0.3033
1691.000000 0.3253 0.3467 0.3683 0.3890 0.4074
1686.000000 0.4259 0.4482 0.4832 0.5036 0.5208
1681.000000 0.5372 0.5452 0.5534 0.5615 0.5695
1676.000000 0.5777 0.5870 0.5964 0.6062 0.6159
1671.000000 0.6248 0.6313 0.6379 0.6443 0.6508
1666.000000 0.6572 0.6637 0.6681 0.6721 0.6759
1661.000000 0.6800 0.6845 0.6878 0.6917 0.6955
1656.000000 0.6984 0.7013 0.7043 0.7071 0.7096
1651.000000 0.7129 0.7160 0.7187 0.7210 0.7234
1646.000000 0.7261 0.7290 0.7312 0.7337 0.7363
1641.000000 0.7396 0.7422 0.7451 0.7478 0.7496
1636.000000 0.7517 0.7534 0.7550 0.7573 0.7589
1631.000000 0.7608 0.7619 0.7640 0.7651 0.7665
1626.000000 0.7672 0.7677 0.7696 0.7742 0.7730
1621.000000 0.7737 0.7742 0.7745 0.7749 0.7754
1616.000000 0.7759 0.7767 0.7772 0.7776 0.7783
1611.000000 0.7782 0.7769 0.7764 0.7757 0.7744
1606.000000 0.7745 0.7729 0.7735 0.7714 0.7705
1601.000000 0.7673 0.7670 0.7659 0.7621 0.7579
1596.000000 0.7520 0.7446 0.7376 0.7301 0.7226
1591.000000 0.7154 0.7063 0.6990 0.6926 0.6861
1586.000000 0.6859 0.6853 0.6855 0.6861 0.6847
1581.000000 0.6837 0.6821 0.6810 0.6788 0.6778
1576.000000 0.6758 0.6748 0.6745 0.6726 0.6693
1571.000000 0.6677 0.6633 0.6576 0.6512 0.6424
1566.000000 0.6322 0.6240 0.6163 0.6090 0.6053
1561.000000 0.6022 0.6007 0.5947 0.5866 0.5809
1556.000000 0.5784 0.5790 0.5788 0.5792 0.5808
1551.000000 0.5808 0.5815 0.5844 0.5862 0.5877
1546.000000 0.5890 0.5906 0.5957 0.6004 0.6103
1541.000000 0.6305 0.6377 0.6440 0.6501 0.6527
1536.000000 0.6559 0.6602 0.6631 0.6658 0.6689
1531.000000 0.6720 0.6742 0.6769 0.6798 0.6828
1526.000000 0.6862 0.6891 0.6918 0.6938 0.6965
1521.000000 0.6984 0.7011 0.7037 0.7057 0.7072
1516.000000 0.7086 0.7096 0.7109 0.7118 0.7131
1511.000000 0.7140 0.7163 0.7187 0.7205 0.7216
1506.000000 0.7227 0.7236 0.7251 0.7264 0.7268
1501.000000 0.7281 0.7293 0.7306 0.7312 0.7318
1496.000000 0.7326 0.7338 0.7325 0.7319 0.7313
1491.000000 0.7306 0.7298 0.7289 0.7280 0.7267
1486.000000 0.7259 0.7252 0.7238 0.7216 0.7197
1481.000000 0.7177 0.7072 0.6917 0.6567 0.6178
1476.000000 0.5934 0.5728 0.5551 0.5244 0.4205
1471.000000 0.3166 0.2164 0.2203 0.2163 0.2253
1466.000000 0.2350 0.2448 0.2543 0.2610 0.2655
1461.000000 0.2705 0.2753 0.2796 0.2847 0.2907
1456.000000 0.3132 0.3544 0.3897 0.3961 0.4016
1451.000000 0.4052 0.4086 0.4150 0.4123 0.4106
1446.000000 0.4085 0.4066 0.4044 0.4024 0.4022
1441.000000 0.4033 0.4026 0.4039 0.4052 0.4069
1436.000000 0.4086 0.4102 0.4121 0.4138 0.4157
1431.000000 0.4177 0.4196 0.4212 0.4245 0.4227
1426.000000 0.4233 0.4223 0.4185 0.4131 0.4080
1421.000000 0.4024 0.3967 0.3882 0.3765 0.3634
1416.000000 0.3449 0.3274 0.3099 0.3070 0.3058
1411.000000 0.3229 0.3494 0.3759 0.4024 0.4288
1406.000000 0.4553 0.4818 0.5082 0.5347 0.5610
1401.000000 0.5877 0.6183 0.6328 0.6466 0.6557
1396.000000 0.6630 0.6704 0.6781 0.6828 0.6875
1391.000000 0.6908 0.6935 0.6959 0.6962 0.6975
1386.000000 0.6986 0.6997 0.6981 0.6926 0.6854
1381.000000 0.6749 0.6378 0.6025 0.6007 0.6131
1376.000000 0.6298 0.6464 0.6628 0.6638 0.6637
1371.000000 0.6619 0.6595 0.6606 0.6634 0.6680
1366.000000 0.6727 0.6771 0.6788 0.6785 0.6803
1361.000000 0.6754 0.6688 0.6629 0.6592 0.6555
1356.000000 0.6526 0.6505 0.6485 0.6470 0.6456
1351.000000 0.6442 0.6432 0.6417 0.6393 0.6354
1346.000000 0.6301 0.6248 0.6214 0.6183 0.6154
1341.000000 0.6144 0.6142 0.6144 0.6147 0.6151
1336.000000 0.6155 0.6159 0.6159 0.6159 0.6159
1331.000000 0.6148 0.6135 0.6115 0.6089 0.6031
1326.000000 0.5972 0.5895 0.5817 0.5737 0.5647
1321.000000 0.5561 0.5484 0.5432 0.5381 0.5331
1316.000000 0.5281 0.5228 0.5174 0.5119 0.5034
1311.000000 0.4932 0.4828 0.4719 0.4624 0.4546
1306.000000 0.4467 0.4394 0.4326 0.4263 0.4206
1301.000000 0.4164 0.4122 0.4080 0.4038 0.3996
1296.000000 0.3955 0.3915 0.3872 0.3814 0.3737
1291.000000 0.3681 0.3630 0.3603 0.3571 0.3546
1286.000000 0.3539 0.3541 0.3502 0.3543 0.3572
1281.000000 0.3629 0.3692 0.3779 0.3847 0.3900
1276.000000 0.3959 0.4018 0.4085 0.4151 0.4220
1271.000000 0.4279 0.4334 0.4390 0.4439 0.4485
1266.000000 0.4531 0.4576 0.4621 0.4660 0.4695
1261.000000 0.4729 0.4753 0.4776 0.4795 0.4809
1256.000000 0.4826 0.4841 0.4910 0.4868 0.4879
1251.000000 0.4881 0.4876 0.4866 0.4847 0.4823
1246.000000 0.4795 0.4768 0.4742 0.4727 0.4717
1241.000000 0.4717 0.4717 0.4718 0.4748 0.4749
1236.000000 0.4791 0.4830 0.4869 0.4910 0.4950
1231.000000 0.4989 0.5030 0.5071 0.5112 0.5153
1226.000000 0.5194 0.5238 0.5286 0.5334 0.5383
1221.000000 0.5432 0.5481 0.5530 0.5580 0.5630
1216.000000 0.5680 0.5728 0.5776 0.5824 0.5875
1211.000000 0.5934 0.6003 0.6070 0.6121 0.6172
1206.000000 0.6223 0.6274 0.6324 0.6368 0.6410
1201.000000 0.6452 0.6494 0.6537 0.6579 0.6650
1196.000000 0.6721 0.6792 0.6861 0.6929 0.6993
1191.000000 0.7055 0.7118 0.7227 0.7299 0.7345
1186.000000 0.7391 0.7408 0.7424 0.7436 0.7443
1181.000000 0.7457 0.7478 0.7502 0.7529 0.7554
1176.000000 0.7576 0.7597 0.7619 0.7639 0.7661
1171.000000 0.7684 0.7705 0.7727 0.7750 0.7778
1166.000000 0.7801 0.7822 0.7844 0.7864 0.7883
1161.000000 0.7902 0.7921 0.7940 0.7959 0.7977
1156.000000 0.7996 0.8013 0.8030 0.8048 0.8067
1151.000000 0.8079 0.8099 0.8120 0.8133 0.8149
1146.000000 0.8169 0.8188 0.8206 0.8216 0.8243
1141.000000 0.8269 0.8303 0.8346 0.8396 0.8445
1136.000000 0.8482 0.8517 0.8540 0.8541 0.8549
1131.000000 0.8555 0.8566 0.8555 0.8516 0.8446
1126.000000 0.8380 0.8265 0.8166 0.8101 0.8041
1121.000000 0.7978 0.7912 0.7847 0.7781 0.7747
1116.000000 0.7765 0.7729 0.7730 0.7750 0.7793
1111.000000 0.7844 0.7890 0.7933 0.7971 0.8016
1106.000000 0.8050 0.8091 0.8133 0.8176 0.8202
1101.000000 0.8229 0.8255 0.8255 0.8255 0.8242
1096.000000 0.8229 0.8222 0.8214 0.8213 0.8219
1091.000000 0.8233 0.8245 0.8262 0.8280 0.8301
1086.000000 0.8321 0.8339 0.8353 0.8368 0.8379
1081.000000 0.8379 0.8379 0.8377 0.8371 0.8368
1076.000000 0.8362 0.8362 0.8373 0.8390 0.8408
1071.000000 0.8421 0.8435 0.8446 0.8459 0.8472
1066.000000 0.8484 0.8497 0.8509 0.8520 0.8540
1061.000000 0.8552 0.8564 0.8566 0.8586 0.8597
1056.000000 0.8599 0.8607 0.8613 0.8620 0.8627
1051.000000 0.8636 0.8649 0.8656 0.8662 0.8669
1046.000000 0.8675 0.8681 0.8688 0.8694 0.8700
1041.000000 0.8701 0.8704 0.8709 0.8712 0.8715
1036.000000 0.8718 0.8720 0.8723 0.8726 0.8728
1031.000000 0.8731 0.8724 0.8727 0.8729 0.8730
1026.000000 0.8731 0.8726 0.8727 0.8729 0.8729
1021.000000 0.8729 0.8728 0.8726 0.8724 0.8722
1016.000000 0.8717 0.8711 0.8706 0.8699 0.8693
1011.000000 0.8688 0.8681 0.8673 0.8657 0.8648
1006.000000 0.8640 0.8632 0.8616 0.8608 0.8599
1001.000000 0.8588 0.8576 0.8562 0.8547 0.8528
996.000000 0.8509 0.8492 0.8473 0.8454 0.8440
991.000000 0.8421 0.8397 0.8373 0.8349 0.8325
986.000000 0.8301 0.8269 0.8238 0.8205 0.8175
981.000000 0.8124 0.8067 0.8012 0.7954 0.7892
976.000000 0.7829 0.7765 0.7678 0.7589 0.7500
971.000000 0.7367 0.7224 0.7117 0.7006 0.6894
966.000000 0.6705 0.6625 0.6537 0.6479 0.6457
961.000000 0.6439 0.6421 0.6391 0.6340 0.6277
956.000000 0.6211 0.6107 0.6002 0.5855 0.5719
951.000000 0.5635 0.5550 0.5479 0.5417 0.5356
946.000000 0.5290 0.5206 0.5135 0.5082 0.5022
941.000000 0.4947 0.4901 0.4870 0.4846 0.4834
936.000000 0.4824 0.4824 0.4824 0.4824 0.4847
931.000000 0.4881 0.4930 0.4970 0.5010 0.5049
926.000000 0.5095 0.5145 0.5196 0.5246 0.5296
921.000000 0.5368 0.5441 0.5515 0.5585 0.5639
916.000000 0.5702 0.5761 0.5819 0.5865 0.5912
911.000000 0.5961 0.6007 0.6052 0.6107 0.6160
906.000000 0.6211 0.6265 0.6318 0.6363 0.6414
901.000000 0.6460 0.6512 0.6564 0.6623 0.6664
896.000000 0.6701 0.6738 0.6786 0.6827 0.6861
891.000000 0.6896 0.6930 0.6959 0.6993 0.7023
886.000000 0.7050 0.7075 0.7105 0.7130 0.7146
881.000000 0.7168 0.7186 0.7201 0.7213 0.7226
876.000000 0.7239 0.7245 0.7253 0.7260 0.7266
871.000000 0.7271 0.7279 0.7281 0.7283 0.7291
866.000000 0.7290 0.7294 0.7311 0.7325 0.7334
861.000000 0.7345 0.7363 0.7379 0.7398 0.7415
856.000000 0.7455 0.7510 0.7539 0.7598 0.7683
851.000000 0.7781 0.7845 0.7896 0.7937 0.7972
846.000000 0.8006 0.8040 0.8062 0.8093 0.8123
841.000000 0.8160 0.8210 0.8260 0.8271 0.8297
836.000000 0.8317 0.8344 0.8363 0.8377 0.8400
831.000000 0.8419 0.8440 0.8457 0.8473 0.8491
826.000000 0.8508 0.8522 0.8538 0.8556 0.8573
821.000000 0.8583 0.8595 0.8607 0.8619 0.8634
816.000000 0.8649 0.8653 0.8645 0.8637 0.8636
811.000000 0.8635 0.8635 0.8641 0.8639 0.8633
806.000000 0.8636 0.8643 0.8643 0.8645 0.8646
801.000000 0.8654 0.8666 0.8677 0.8688 0.8699
796.000000 0.8711 0.8723 0.8729 0.8740 0.8754
791.000000 0.8772 0.8767 0.8767 0.8763 0.8760
786.000000 0.8750 0.8739 0.8727 0.8701 0.8693
781.000000 0.8691 0.8689 0.8694 0.8699 0.8698
776.000000 0.8701 0.8701 0.8701 0.8696 0.8692
771.000000 0.8692 0.8692 0.8685 0.8682 0.8681
766.000000 0.8681 0.8674 0.8672 0.8672 0.8670
761.000000 0.8670 0.8666 0.8663 0.8662 0.8659
756.000000 0.8656 0.8653 0.8651 0.8646 0.8635
751.000000 0.8625 0.8612 0.8593 0.8575 0.8556
746.000000 0.8537 0.8509 0.8477 0.8445 0.8413
741.000000 0.8375 0.8330 0.8286 0.8240 0.8187
736.000000 0.8135 0.8086 0.8038 0.7987 0.7931
731.000000 0.7874 0.7812 0.7742 0.7648 0.7542
726.000000 0.7268 0.6995 0.6715 0.6501 0.6505
721.000000 0.6509 0.6683 0.6927 0.7171 0.7421
716.000000 0.7692 0.7793 0.7902 0.8007 0.8111
711.000000 0.8202 0.8284 0.8368 0.8438 0.8502
706.000000 0.8562 0.8618 0.8673 0.8712 0.8739
701.000000 0.8768 0.8802 0.8824 0.8848 0.8871
696.000000 0.8880 0.8891 0.8902 0.8908 0.8908
691.000000 0.8908 0.8904 0.8892 0.8882 0.8863
686.000000 0.8838 0.8814 0.8797 0.8787 0.8770
681.000000 0.8753 0.8742 0.8724 0.8722 0.8715
676.000000 0.8716 0.8710 0.8696 0.8693 0.8687
671.000000 0.8694 0.8749 0.8875 0.8953 0.8896
666.000000 0.8844 0.8840 0.8844 0.8845 0.8831
661.000000 0.8824 0.8819 0.8812 0.8799 0.8790
656.000000 0.8771 0.8753 0.8736 0.8741 0.8741
651.000000 0.8754 0.8758 0.8763 0.8769 0.8773
646.000000 0.8770 0.8776 0.8779 0.8778 0.8783
641.000000 0.8784 0.8777 0.8775 0.8769 0.8758
636.000000 0.8757 0.8751 0.8737 0.8729 0.8688
631.000000 0.8699 0.8693 0.8708 0.8719 0.8736
626.000000 0.8748 0.8766 0.8784 0.8793 0.8812
621.000000 0.8830 0.8848 0.8868 0.8921 0.8919
616.000000 0.8912 0.8922 0.8920 0.8905 0.8893
611.000000 0.8861 0.8842 0.8828 0.8814 0.8793
606.000000 0.8782 0.8784 0.8784 0.8791 0.8804
601.000000 0.8817 0.8831 0.8849 0.8867 0.8886
596.000000 0.8905 0.8922 0.8942 0.8958 0.8971
591.000000 0.8981 0.8995 0.9008 0.9020 0.9030
586.000000 0.9040 0.9054 0.9063 0.9074 0.9089
581.000000 0.9102 0.9109 0.9115 0.9123 0.9135
576.000000 0.9124 0.9128 0.9140 0.9146 0.9139
571.000000 0.9132 0.9125 0.9118 0.9111 0.9094
566.000000 0.9088 0.9089 0.9079 0.9063 0.9057
561.000000 0.9049 0.9042 0.9034 0.9024 0.9015
556.000000 0.9005 0.8991 0.8978 0.8968 0.8951
551.000000 0.8946 0.8939 0.8930 0.8920 0.8910
546.000000 0.8900 0.8891 0.8882 0.8871 0.8860
541.000000 0.8848 0.8837 0.8827 0.8823 0.8813
536.000000 0.8808 0.8795 0.8780 0.8774 0.8763
531.000000 0.8748 0.8733 0.8717 0.8702 0.8687
526.000000 0.8677 0.8663 0.8649 0.8632 0.8611
521.000000 0.8594 0.8574 0.8555 0.8537 0.8517
516.000000 0.8498 0.8479 0.8460 0.8443 0.8425
511.000000 0.8408 0.8390 0.8373 0.8354 0.8338
506.000000 0.8321 0.8302 0.8280 0.8258 0.8237
501.000000 0.8214 0.8193 0.8169 0.8140 0.8112
496.000000 0.8083 0.8054 0.8024 0.8002 0.7984
491.000000 0.7966 0.7949 0.7931 0.7924 0.7915
486.000000 0.7906 0.7895 0.7887 0.7877 0.7869
481.000000 0.7858 0.7851 0.7844 0.7837 0.7830
476.000000 0.7825 0.7821 0.7818 0.7815 0.7814
471.000000 0.7814 0.7815 0.7816 0.7817 0.7818
466.000000 0.7820 0.7820 0.7821 0.7822 0.7826
461.000000 0.7835 0.7843 0.7852 0.7863 0.7870
456.000000 0.7875 0.7879
##END=
