##TITLE=STEARIC ACID
##JCAMP-DX=4.24
##DATA TYPE=INFRARED SPECTRUM
##CLASS=COBLENTZ
##ORIGIN=HORMEL INSTITUTE
##OWNER=COBLENTZ SOCIETY
Collection (C) 2018 copyright by the U.S. Secretary of Commerce
on behalf of the United States of America. All rights reserved.
##DATE=Not specified, most likely prior to 1970
##CAS REGISTRY NO=57-11-4
##MOLFORM=C18 H36 O2
##SOURCE REFERENCE=COBLENTZ NO. 2010
##$NIST SOURCE=COBLENTZ
##$NIST IMAGE=cob2010
##SPECTROMETER/DATA SYSTEM=PERKIN-ELMER
##STATE=SOLID
##PATH LENGTH=FILM
##SAMPLING PROCEDURE=TRANSMISSION
##RESOLUTION=4
##DATA PROCESSING=DIGITIZED BY NIST FROM HARD COPY
##XUNITS=MICROMETERS
##YUNITS=TRANSMITTANCE
##XFACTOR=1.000000
##YFACTOR=1
##DELTAX=000.006781
##FIRSTX=2.034
##LASTX=15.0743
##FIRSTY=0.789
##MAXX=15.0743
##MINX=2.034
##MAXY=0.881
##MINY=0.032
##NPOINTS=1924
##XYDATA=(X++(Y..Y))
2.034000 0.7890 0.7890 0.7900 0.7900 0.7900
2.067925 0.7920 0.7920 0.7920 0.7920 0.7940
2.102000 0.7940 0.7940 0.7940 0.7950 0.7950
2.135925 0.7950 0.7950 0.7950 0.7950 0.7950
2.170000 0.7970 0.7970 0.7970 0.7970 0.7970
2.203925 0.7970 0.7970 0.7970 0.7970 0.7970
2.237000 0.7970 0.7970 0.7970 0.7970 0.7950
2.270925 0.7920 0.7870 0.7800 0.7680 0.7600
2.305000 0.7580 0.7600 0.7630 0.7680 0.7700
2.338925 0.7700 0.7700 0.7700 0.7700 0.7680
2.373000 0.7680 0.7670 0.7670 0.7670 0.7670
2.406925 0.7670 0.7670 0.7670 0.7670 0.7670
2.441000 0.7680 0.7700 0.7790 0.7800 0.7840
2.474925 0.7850 0.7890 0.7900 0.7920 0.7940
2.509000 0.7950 0.7950 0.7950 0.7950 0.7950
2.542925 0.7950 0.7950 0.7950 0.7950 0.7970
2.576000 0.7970 0.7970 0.7970 0.7990 0.7990
2.609925 0.8010 0.8010 0.8010 0.8020 0.8020
2.644000 0.8040 0.8040 0.8060 0.8060 0.8070
2.677925 0.8070 0.8070 0.8070 0.8070 0.8070
2.712000 0.8070 0.8070 0.8070 0.8070 0.8090
2.745925 0.8090 0.8090 0.8090 0.8090 0.8090
2.780000 0.8090 0.8090 0.8090 0.8090 0.8110
2.813925 0.8120 0.8120 0.8140 0.8140 0.8160
2.848000 0.8160 0.8170 0.8170 0.8190 0.8190
2.881925 0.8170 0.8170 0.8160 0.8160 0.8140
2.915000 0.8120 0.8120 0.8120 0.8110 0.8090
2.948925 0.8070 0.8070 0.8060 0.8060 0.8040
2.983000 0.8010 0.7990 0.7940 0.7890 0.7800
3.016925 0.7770 0.7750 0.7700 0.7700 0.7670
3.051000 0.7630 0.7600 0.7530 0.7500 0.7500
3.084925 0.7380 0.7330 0.7260 0.7200 0.7110
3.119000 0.7030 0.6930 0.6910 0.6840 0.6790
3.152925 0.6710 0.6660 0.6590 0.6500 0.6400
3.187000 0.6290 0.6170 0.6050 0.5930 0.5900
3.220925 0.5760 0.5680 0.5660 0.5510 0.5490
3.255000 0.5390 0.5320 0.5220 0.5190 0.5040
3.288925 0.4900 0.4770 0.4700 0.4620 0.4560
3.322000 0.4510 0.4410 0.4350 0.4310 0.4240
3.355925 0.3860 0.3490 0.2790 0.2150 0.1600
3.390000 0.1290 0.1020 0.0740 0.0590 0.0430
3.423925 0.0320 0.0320 0.0320 0.0400 0.0450
3.458000 0.0670 0.0800 0.0910 0.0970 0.0990
3.491925 0.0910 0.0740 0.0720 0.0750 0.1610
3.526000 0.2290 0.2840 0.3170 0.3550 0.3860
3.559925 0.4110 0.4310 0.4430 0.4530 0.4600
3.594000 0.4700 0.4800 0.4920 0.4940 0.5000
3.627925 0.5020 0.5100 0.5120 0.5190 0.5210
3.661000 0.5220 0.5260 0.5270 0.5290 0.5290
3.694925 0.5290 0.5260 0.5240 0.5210 0.5160
3.729000 0.5140 0.5100 0.5090 0.5050 0.5050
3.762925 0.5050 0.5070 0.5070 0.5090 0.5090
3.797000 0.5100 0.5140 0.5170 0.5210 0.5240
3.830925 0.5310 0.5360 0.5410 0.5460 0.5510
3.865000 0.5530 0.5540 0.5560 0.5590 0.5590
3.898925 0.5630 0.5640 0.5680 0.5730 0.5800
3.933000 0.5830 0.5860 0.5930 0.6000 0.6100
3.966925 0.6180 0.6180 0.6270 0.6300 0.6350
4.001000 0.6400 0.6500 0.6570 0.6610 0.6640
4.034925 0.6660 0.6690 0.6790 0.6810 0.6840
4.068000 0.6910 0.6940 0.6960 0.7010 0.7010
4.101925 0.7040 0.7060 0.7090 0.7130 0.7160
4.136000 0.7200 0.7210 0.7230 0.7250 0.7260
4.169925 0.7300 0.7330 0.7360 0.7360 0.7380
4.204000 0.7400 0.7400 0.7400 0.7400 0.7400
4.237925 0.7410 0.7410 0.7410 0.7410 0.7410
4.272000 0.7410 0.7410 0.7430 0.7430 0.7430
4.305925 0.7470 0.7470 0.7500 0.7520 0.7550
4.340000 0.7580 0.7630 0.7670 0.7680 0.7680
4.373925 0.7680 0.7700 0.7720 0.7720 0.7740
4.407000 0.7770 0.7770 0.7790 0.7800 0.7820
4.440925 0.7840 0.7870 0.7890 0.7920 0.7920
4.475000 0.7940 0.7950 0.7970 0.7990 0.7990
4.508925 0.7990 0.7990 0.7990 0.7970 0.7970
4.543000 0.7970 0.7970 0.7970 0.7950 0.7950
4.576925 0.7940 0.7940 0.7940 0.7940 0.7970
4.611000 0.7970 0.7970 0.7970 0.7970 0.7970
4.644925 0.7990 0.8010 0.8010 0.8010 0.8020
4.679000 0.8040 0.8060 0.8070 0.8090 0.8090
4.712925 0.8110 0.8110 0.8110 0.8110 0.8110
4.746000 0.8110 0.8110 0.8110 0.8110 0.8110
4.779925 0.8120 0.8120 0.8120 0.8120 0.8140
4.814000 0.8140 0.8140 0.8140 0.8140 0.8160
4.847925 0.8160 0.8160 0.8140 0.8140 0.8160
4.882000 0.8160 0.8140 0.8140 0.8140 0.8120
4.915925 0.8120 0.8110 0.8110 0.8110 0.8090
4.950000 0.8090 0.8090 0.8090 0.8110 0.8120
4.983925 0.8120 0.8120 0.8120 0.8140 0.8140
5.018000 0.8140 0.8140 0.8140 0.8120 0.8110
5.051925 0.8110 0.8110 0.8110 0.8110 0.8110
5.086000 0.8090 0.8070 0.8040 0.8020 0.8010
5.119925 0.8010 0.8020 0.8020 0.8020 0.8020
5.153000 0.8020 0.8020 0.8020 0.8010 0.8010
5.186925 0.8010 0.8010 0.8010 0.8010 0.8010
5.221000 0.7970 0.7970 0.7950 0.7940 0.7940
5.254925 0.7940 0.7920 0.7900 0.7900 0.7900
5.289000 0.7870 0.7870 0.7850 0.7850 0.7850
5.322925 0.7850 0.7840 0.7840 0.7840 0.7840
5.357000 0.7820 0.7800 0.7800 0.7790 0.7790
5.390925 0.7790 0.7790 0.7790 0.7770 0.7750
5.425000 0.7750 0.7740 0.7720 0.7720 0.7720
5.458925 0.7720 0.7700 0.7680 0.7670 0.7630
5.492000 0.7620 0.7600 0.7580 0.7580 0.7580
5.525925 0.7600 0.7620 0.7630 0.7670 0.7670
5.560000 0.7680 0.7670 0.7630 0.7630 0.7620
5.593925 0.7600 0.7600 0.7620 0.7620 0.7630
5.628000 0.7650 0.7670 0.7670 0.7680 0.7680
5.661925 0.7700 0.7700 0.7700 0.7680 0.7680
5.696000 0.7650 0.7600 0.7500 0.7350 0.7110
5.729925 0.7010 0.6860 0.6760 0.6710 0.6640
5.764000 0.6500 0.6200 0.5910 0.5460 0.5160
5.797925 0.4130 0.2930 0.2320 0.1630 0.1230
5.832000 0.0860 0.0720 0.0590 0.0430 0.0380
5.865925 0.0380 0.0380 0.0420 0.0520 0.0530
5.899000 0.0640 0.0840 0.0940 0.1340 0.1750
5.932925 0.2020 0.2360 0.2910 0.3600 0.3840
5.967000 0.4510 0.5020 0.5440 0.5710 0.6020
6.000925 0.6300 0.6470 0.6640 0.6790 0.6860
6.035000 0.7010 0.7110 0.7250 0.7330 0.7400
6.068925 0.7450 0.7530 0.7570 0.7600 0.7620
6.103000 0.7670 0.7700 0.7720 0.7790 0.7820
6.136925 0.7840 0.7850 0.7900 0.7920 0.7940
6.171000 0.7950 0.8010 0.8010 0.8040 0.8070
6.204925 0.8090 0.8110 0.8120 0.8120 0.8120
6.238000 0.8140 0.8160 0.8190 0.8210 0.8210
6.271925 0.8220 0.8220 0.8220 0.8220 0.8220
6.306000 0.8220 0.8240 0.8240 0.8260 0.8260
6.339925 0.8240 0.8240 0.8220 0.8220 0.8210
6.374000 0.8210 0.8190 0.8190 0.8190 0.8190
6.407925 0.8210 0.8210 0.8210 0.8210 0.8190
6.442000 0.8190 0.8190 0.8190 0.8170 0.8170
6.475925 0.8160 0.8160 0.8140 0.8140 0.8140
6.510000 0.8120 0.8120 0.8120 0.8120 0.8120
6.543925 0.8120 0.8120 0.8140 0.8120 0.8120
6.577000 0.8120 0.8120 0.8120 0.8120 0.8120
6.610925 0.8120 0.8110 0.8090 0.8090 0.8070
6.645000 0.8060 0.8020 0.8020 0.8020 0.8010
6.678925 0.7950 0.7940 0.7870 0.7840 0.7820
6.713000 0.7800 0.7700 0.7600 0.7520 0.7330
6.746925 0.7160 0.7010 0.6520 0.5810 0.5140
6.781000 0.4770 0.4700 0.4510 0.4260 0.3760
6.814925 0.3420 0.3250 0.3220 0.3250 0.4030
6.849000 0.4450 0.4510 0.4800 0.5040 0.5260
6.882925 0.5370 0.5430 0.5440 0.5440 0.5340
6.917000 0.5260 0.5220 0.5190 0.5160 0.5100
6.950925 0.5020 0.4830 0.4720 0.4670 0.4650
6.984000 0.4700 0.4750 0.5020 0.5320 0.5610
7.017925 0.5750 0.5900 0.5950 0.5950 0.5660
7.052000 0.5220 0.4650 0.4240 0.4230 0.4240
7.085925 0.4380 0.4530 0.4870 0.5240 0.5430
7.120000 0.6120 0.6370 0.6670 0.6930 0.7010
7.153925 0.7090 0.7230 0.7330 0.7410 0.7450
7.188000 0.7500 0.7520 0.7520 0.7500 0.7450
7.221925 0.7410 0.7350 0.7330 0.7210 0.7090
7.256000 0.7030 0.7010 0.7010 0.6990 0.6990
7.289925 0.7010 0.7010 0.7030 0.7030 0.7010
7.323000 0.6990 0.6910 0.6760 0.6660 0.6570
7.356925 0.6440 0.6400 0.6390 0.6390 0.6390
7.391000 0.6400 0.6400 0.6400 0.6400 0.6420
7.424925 0.6420 0.6500 0.6640 0.6810 0.6910
7.459000 0.6940 0.7010 0.7030 0.6930 0.6810
7.492925 0.6540 0.6340 0.6230 0.6220 0.6250
7.527000 0.6390 0.6500 0.6570 0.6570 0.6520
7.560925 0.6220 0.5590 0.5240 0.4650 0.4430
7.595000 0.3620 0.3520 0.3440 0.3400 0.3400
7.628925 0.3520 0.3570 0.3570 0.3420 0.2860
7.662000 0.2780 0.2580 0.2000 0.1930 0.1920
7.695925 0.1920 0.1930 0.2220 0.2520 0.2830
7.730000 0.3150 0.3370 0.3600 0.3760 0.3920
7.763925 0.4110 0.4310 0.4510 0.4650 0.4820
7.798000 0.4870 0.5000 0.5040 0.5070 0.5160
7.831925 0.5410 0.5630 0.5910 0.6220 0.6340
7.866000 0.6540 0.6610 0.6640 0.6660 0.6690
7.899925 0.6690 0.6550 0.6400 0.6070 0.5980
7.934000 0.5930 0.5880 0.5930 0.6150 0.6440
7.967925 0.6720 0.7010 0.7090 0.7230 0.7300
8.002000 0.7330 0.7330 0.7260 0.7210 0.7090
8.035925 0.6810 0.6620 0.6440 0.6170 0.6130
8.069000 0.6120 0.6130 0.6550 0.6940 0.7150
8.102925 0.7300 0.7430 0.7500 0.7500 0.7500
8.137000 0.7500 0.7330 0.7160 0.7010 0.6640
8.170925 0.6350 0.6150 0.5900 0.5850 0.5830
8.205000 0.5860 0.6320 0.6610 0.6910 0.7060
8.238925 0.7200 0.7260 0.7330 0.7330 0.7230
8.273000 0.7200 0.7060 0.6840 0.6540 0.6220
8.306925 0.5910 0.5730 0.5690 0.5690 0.6030
8.341000 0.6320 0.6660 0.6910 0.7110 0.7310
8.374925 0.7360 0.7380 0.7380 0.7130 0.6710
8.408000 0.6620 0.6390 0.5850 0.5830 0.5860
8.441925 0.6340 0.6810 0.7010 0.7150 0.7330
8.476000 0.7520 0.7550 0.7700 0.7740 0.7800
8.509925 0.7820 0.7850 0.7900 0.7950 0.8010
8.544000 0.8010 0.8020 0.8040 0.8060 0.8070
8.577925 0.8090 0.8110 0.8110 0.8110 0.8120
8.612000 0.8140 0.8160 0.8160 0.8190 0.8210
8.645925 0.8220 0.8220 0.8240 0.8240 0.8290
8.680000 0.8290 0.8290 0.8310 0.8330 0.8330
8.713925 0.8340 0.8340 0.8360 0.8360 0.8360
8.748000 0.8380 0.8380 0.8380 0.8390 0.8390
8.781925 0.8390 0.8390 0.8390 0.8390 0.8390
8.815000 0.8390 0.8390 0.8390 0.8380 0.8340
8.848925 0.8330 0.8290 0.8260 0.8210 0.8170
8.883000 0.8120 0.8090 0.8020 0.7990 0.7990
8.916925 0.8010 0.8020 0.8070 0.8110 0.8120
8.951000 0.8160 0.8190 0.8220 0.8220 0.8220
8.984925 0.8220 0.8220 0.8220 0.8210 0.8170
9.019000 0.8110 0.8020 0.7900 0.7720 0.7530
9.052925 0.7410 0.7360 0.7360 0.7410 0.7520
9.087000 0.7650 0.7820 0.7850 0.7940 0.8010
9.120925 0.8040 0.8090 0.8120 0.8160 0.8190
9.154000 0.8260 0.8290 0.8310 0.8330 0.8340
9.187925 0.8360 0.8360 0.8380 0.8380 0.8380
9.222000 0.8380 0.8380 0.8390 0.8390 0.8390
9.255925 0.8390 0.8390 0.8390 0.8380 0.8380
9.290000 0.8360 0.8340 0.8330 0.8290 0.8220
9.323925 0.8220 0.8220 0.8240 0.8240 0.8260
9.358000 0.8270 0.8290 0.8310 0.8330 0.8330
9.391925 0.8330 0.8330 0.8310 0.8290 0.8290
9.426000 0.8260 0.8240 0.8220 0.8220 0.8210
9.459925 0.8210 0.8210 0.8210 0.8210 0.8220
9.493000 0.8220 0.8260 0.8260 0.8270 0.8270
9.526925 0.8290 0.8290 0.8290 0.8290 0.8290
9.561000 0.8290 0.8270 0.8270 0.8260 0.8220
9.594925 0.8220 0.8210 0.8190 0.8170 0.8160
9.629000 0.8110 0.8090 0.8060 0.8020 0.8010
9.662925 0.7940 0.7920 0.7920 0.7920 0.7920
9.697000 0.7940 0.7940 0.7940 0.7950 0.7970
9.730925 0.8010 0.8010 0.8010 0.8010 0.8010
9.765000 0.7970 0.7940 0.7920 0.7890 0.7890
9.798925 0.7850 0.7790 0.7680 0.7600 0.7600
9.833000 0.7620 0.7630 0.7650 0.7670 0.7670
9.866925 0.7680 0.7700 0.7700 0.7720 0.7740
9.900000 0.7740 0.7740 0.7740 0.7740 0.7740
9.933925 0.7740 0.7740 0.7740 0.7720 0.7700
9.968000 0.7680 0.7670 0.7670 0.7670 0.7670
10.001925 0.7650 0.7650 0.7650 0.7630 0.7630
10.036000 0.7630 0.7630 0.7620 0.7620 0.7600
10.069925 0.7580 0.7570 0.7550 0.7520 0.7500
10.104000 0.7450 0.7430 0.7400 0.7400 0.7400
10.137925 0.7400 0.7400 0.7400 0.7400 0.7380
10.172000 0.7350 0.7330 0.7310 0.7300 0.7260
10.205925 0.7230 0.7180 0.7150 0.7110 0.7030
10.239000 0.7010 0.6990 0.6890 0.6810 0.6760
10.272925 0.6670 0.6610 0.6520 0.6400 0.6300
10.307000 0.6200 0.6120 0.6050 0.5860 0.5730
10.340925 0.5640 0.5560 0.5510 0.5480 0.5320
10.375000 0.5260 0.5210 0.5190 0.5090 0.5040
10.408925 0.5040 0.5000 0.4990 0.4950 0.4900
10.443000 0.4900 0.4830 0.4750 0.4650 0.4600
10.476925 0.4510 0.4400 0.4330 0.4260 0.4230
10.511000 0.4210 0.4180 0.4130 0.4110 0.4040
10.544925 0.4030 0.4010 0.3960 0.3860 0.3810
10.579000 0.3760 0.3700 0.3700 0.3650 0.3600
10.612925 0.3590 0.3590 0.3590 0.3590 0.3600
10.646000 0.3640 0.3720 0.3760 0.3870 0.3940
10.679925 0.4030 0.4110 0.4260 0.4350 0.4430
10.714000 0.4530 0.4620 0.4730 0.4850 0.4920
10.747925 0.5100 0.5210 0.5310 0.5430 0.5540
10.782000 0.5640 0.5730 0.5830 0.5910 0.6000
10.815925 0.6100 0.6180 0.6200 0.6220 0.6320
10.850000 0.6400 0.6450 0.6500 0.6590 0.6620
10.883925 0.6660 0.6660 0.6690 0.6710 0.6740
10.918000 0.6740 0.6740 0.6740 0.6740 0.6720
10.951925 0.6690 0.6660 0.6620 0.6610 0.6610
10.985000 0.6610 0.6610 0.6620 0.6660 0.6690
11.018925 0.6720 0.6790 0.6810 0.6860 0.6890
11.053000 0.6940 0.6940 0.6990 0.6990 0.7010
11.086925 0.7030 0.7060 0.7080 0.7080 0.7090
11.121000 0.7090 0.7090 0.7090 0.7090 0.7090
11.154925 0.7090 0.7090 0.7090 0.7090 0.7090
11.189000 0.7090 0.7090 0.7110 0.7110 0.7110
11.222925 0.7110 0.7110 0.7130 0.7130 0.7130
11.257000 0.7150 0.7160 0.7200 0.7210 0.7300
11.290925 0.7330 0.7360 0.7380 0.7410 0.7450
11.324000 0.7470 0.7500 0.7520 0.7520 0.7530
11.357925 0.7530 0.7530 0.7520 0.7520 0.7520
11.392000 0.7520 0.7520 0.7600 0.7650 0.7700
11.425925 0.7800 0.7800 0.7840 0.7900 0.7990
11.460000 0.8010 0.8020 0.8040 0.8060 0.8070
11.493925 0.8090 0.8120 0.8140 0.8160 0.8170
11.528000 0.8190 0.8210 0.8220 0.8240 0.8240
11.561925 0.8260 0.8270 0.8270 0.8290 0.8310
11.596000 0.8310 0.8310 0.8310 0.8330 0.8330
11.629925 0.8330 0.8340 0.8340 0.8360 0.8360
11.664000 0.8360 0.8380 0.8380 0.8380 0.8380
11.697925 0.8380 0.8380 0.8390 0.8390 0.8390
11.731000 0.8390 0.8390 0.8390 0.8390 0.8410
11.764925 0.8410 0.8410 0.8410 0.8410 0.8410
11.799000 0.8410 0.8410 0.8430 0.8430 0.8410
11.832925 0.8410 0.8410 0.8410 0.8410 0.8410
11.867000 0.8390 0.8390 0.8390 0.8390 0.8410
11.900925 0.8440 0.8480 0.8490 0.8490 0.8490
11.935000 0.8510 0.8510 0.8510 0.8510 0.8530
11.968925 0.8540 0.8560 0.8560 0.8560 0.8560
12.003000 0.8560 0.8560 0.8580 0.8580 0.8580
12.036925 0.8580 0.8580 0.8580 0.8580 0.8580
12.070000 0.8580 0.8580 0.8580 0.8600 0.8600
12.103925 0.8600 0.8600 0.8600 0.8610 0.8610
12.138000 0.8610 0.8610 0.8610 0.8610 0.8630
12.171925 0.8610 0.8610 0.8610 0.8610 0.8610
12.206000 0.8610 0.8610 0.8610 0.8610 0.8610
12.239925 0.8600 0.8600 0.8580 0.8580 0.8560
12.274000 0.8530 0.8530 0.8510 0.8490 0.8440
12.307925 0.8360 0.8290 0.8210 0.8090 0.8010
12.342000 0.7900 0.7900 0.7900 0.7920 0.7990
12.375925 0.8040 0.8120 0.8190 0.8260 0.8380
12.409000 0.8490 0.8530 0.8540 0.8560 0.8580
12.442925 0.8600 0.8600 0.8610 0.8610 0.8610
12.477000 0.8630 0.8630 0.8630 0.8650 0.8650
12.510925 0.8660 0.8660 0.8660 0.8660 0.8660
12.545000 0.8660 0.8660 0.8680 0.8680 0.8680
12.578925 0.8680 0.8680 0.8680 0.8680 0.8680
12.613000 0.8680 0.8680 0.8680 0.8680 0.8680
12.646925 0.8680 0.8680 0.8680 0.8680 0.8680
12.681000 0.8680 0.8680 0.8680 0.8660 0.8650
12.714925 0.8650 0.8630 0.8610 0.8600 0.8560
12.749000 0.8530 0.8490 0.8490 0.8480 0.8480
12.782925 0.8480 0.8480 0.8490 0.8490 0.8530
12.816000 0.8580 0.8630 0.8650 0.8660 0.8680
12.849925 0.8700 0.8700 0.8710 0.8730 0.8760
12.884000 0.8780 0.8780 0.8780 0.8780 0.8800
12.917925 0.8800 0.8800 0.8800 0.8800 0.8800
12.952000 0.8800 0.8800 0.8800 0.8800 0.8800
12.985925 0.8800 0.8800 0.8800 0.8800 0.8800
13.020000 0.8800 0.8780 0.8780 0.8780 0.8780
13.053925 0.8780 0.8780 0.8760 0.8730 0.8710
13.088000 0.8700 0.8680 0.8560 0.8430 0.8380
13.121925 0.8310 0.8240 0.8190 0.8090 0.8070
13.155000 0.8070 0.8070 0.8110 0.8190 0.8220
13.188925 0.8310 0.8430 0.8480 0.8510 0.8580
13.223000 0.8630 0.8680 0.8680 0.8700 0.8730
13.256925 0.8760 0.8780 0.8780 0.8800 0.8800
13.291000 0.8800 0.8800 0.8800 0.8800 0.8810
13.324925 0.8810 0.8810 0.8810 0.8810 0.8810
13.359000 0.8810 0.8800 0.8780 0.8780 0.8760
13.392925 0.8760 0.8760 0.8760 0.8750 0.8710
13.427000 0.8700 0.8680 0.8680 0.8650 0.8600
13.460925 0.8600 0.8600 0.8600 0.8600 0.8600
13.495000 0.8600 0.8600 0.8610 0.8610 0.8610
13.528925 0.8600 0.8560 0.8560 0.8540 0.8480
13.562000 0.8480 0.8460 0.8410 0.8360 0.8310
13.595925 0.8210 0.8110 0.8010 0.7890 0.7790
13.630000 0.7700 0.7630 0.7570 0.7480 0.7380
13.663925 0.7310 0.7280 0.7260 0.7150 0.7040
13.698000 0.6910 0.6690 0.6610 0.6420 0.6270
13.731925 0.6030 0.5910 0.5860 0.5810 0.5810
13.766000 0.5810 0.5830 0.5880 0.5910 0.5930
13.799925 0.5980 0.5980 0.5980 0.5980 0.5980
13.834000 0.5980 0.5980 0.5830 0.5680 0.5480
13.867925 0.5320 0.5220 0.5050 0.4950 0.4730
13.901000 0.4680 0.4650 0.4650 0.4680 0.4830
13.934925 0.5220 0.5430 0.5630 0.5850 0.6120
13.969000 0.6290 0.6540 0.6930 0.6990 0.7090
14.002925 0.7260 0.7380 0.7520 0.7630 0.7740
14.037000 0.7840 0.7870 0.7970 0.8090 0.8110
14.070925 0.8160 0.8160 0.8170 0.8190 0.8290
14.105000 0.8310 0.8360 0.8360 0.8380 0.8390
14.138925 0.8410 0.8440 0.8480 0.8480 0.8490
14.173000 0.8490 0.8510 0.8510 0.8510 0.8530
14.206925 0.8530 0.8530 0.8530 0.8530 0.8530
14.240000 0.8530 0.8530 0.8530 0.8530 0.8510
14.273925 0.8510 0.8510 0.8510 0.8510 0.8490
14.308000 0.8480 0.8460 0.8460 0.8430 0.8390
14.341925 0.8380 0.8360 0.8330 0.8290 0.8270
14.376000 0.8220 0.8190 0.8170 0.8120 0.8040
14.409925 0.7990 0.7900 0.7820 0.7770 0.7750
14.444000 0.7670 0.7580 0.7530 0.7430 0.7360
14.477925 0.7350 0.7260 0.7160 0.7090 0.7030
14.512000 0.6990 0.6980 0.6960 0.6940 0.6940
14.545925 0.6940 0.6930 0.6930 0.6930 0.6940
14.580000 0.6940 0.6960 0.6990 0.7060 0.7090
14.613925 0.7160 0.7210 0.7230 0.7280 0.7330
14.647000 0.7380 0.7480 0.7530 0.7570 0.7580
14.680925 0.7600 0.7630 0.7670 0.7740 0.7770
14.715000 0.7790 0.7850 0.7870 0.7890 0.7900
14.748925 0.7940 0.7950 0.7970 0.7970 0.7990
14.783000 0.8020 0.8020 0.8040 0.8060 0.8070
14.816925 0.8070 0.8070 0.8070 0.8070 0.8070
14.851000 0.8090 0.8110 0.8110 0.8120 0.8120
14.884925 0.8140 0.8160 0.8160 0.8170 0.8170
14.919000 0.8170 0.8190 0.8190 0.8190 0.8190
14.952925 0.8190 0.8190 0.8190 0.8190 0.8190
14.986000 0.8190 0.8190 0.8240 0.8310 0.8360
15.019925 0.8390 0.8430 0.8480 0.8510 0.8560
15.054000 0.8580 0.8600 0.8630 0.8630
##END=
