##TITLE=N(2-BROMOETHYL)PHTHALIMIDE
$$ E. K. CO. (WHITE LABEL)
##JCAMP-DX=4.24
##DATA TYPE=INFRARED SPECTRUM
##CLASS=COBLENTZ
##ORIGIN=WYANDOTTE CHEMICALS CORP., WYANDOTTE, MICHIGAN, USA
##OWNER=COBLENTZ SOCIETY
Collection (C) 2018 copyright by the U.S. Secretary of Commerce
on behalf of the United States of America. All rights reserved.
##DATE=Not specified, most likely prior to 1970
##NAMES=2-(2-bromoethyl)-1H-isoindole-1,3(2H)-dione
##CAS REGISTRY NO=574-98-1
##MOLFORM=C10 H8 Br N O2
##MP=80-82 C
##SOURCE REFERENCE=COBLENTZ NO. 2875
##$NIST SOURCE=COBLENTZ
##$NIST IMAGE=cob2875
##SPECTROMETER/DATA SYSTEM=Not specified, most likely a prism, grating, or hybrid spectrometer.
##STATE=SOLID (MINERAL OIL MULL)
##PATH LENGTH=
$$SPECTRAL CONTAMINATION DUE TO OIL AROUND 2900 CM^-^1
##SAMPLING PROCEDURE=TRANSMISSION
##RESOLUTION=4
##DATA PROCESSING=DIGITIZED BY NIST FROM HARD COPY
##XUNITS=MICROMETERS
##YUNITS=TRANSMITTANCE
##XFACTOR=1.000000
##YFACTOR=1
##DELTAX=000.006629
##FIRSTX=2.027
##LASTX=16
##FIRSTY=0.601
##MAXX=16
##MINX=2.027
##MAXY=0.948
##MINY=0.034
##NPOINTS=2109
##XYDATA=(X++(Y..Y))
2.027000 0.6010 0.6010 0.6010 0.6010 0.6010
2.060160 0.6010 0.6010 0.6010 0.6010 0.6010
2.093000 0.6010 0.6010 0.6030 0.6030 0.6030
2.126160 0.6030 0.6060 0.6060 0.6100 0.6100
2.159000 0.6110 0.6110 0.6110 0.6110 0.6100
2.192160 0.6100 0.6080 0.6060 0.6050 0.6030
2.225000 0.6010 0.6000 0.5980 0.5980 0.5980
2.258160 0.5980 0.6000 0.6000 0.6010 0.6030
2.292000 0.6050 0.6060 0.6060 0.6080 0.6080
2.325160 0.6110 0.6150 0.6160 0.6180 0.6180
2.358000 0.6160 0.6160 0.6160 0.6150 0.6130
2.391160 0.6130 0.6150 0.6160 0.6180 0.6200
2.424000 0.6200 0.6200 0.6230 0.6250 0.6300
2.457160 0.6300 0.6300 0.6330 0.6350 0.6360
2.491000 0.6400 0.6400 0.6410 0.6410 0.6400
2.524160 0.6400 0.6400 0.6400 0.6400 0.6410
2.557000 0.6450 0.6500 0.6500 0.6510 0.6530
2.590160 0.6530 0.6510 0.6510 0.6500 0.6500
2.623000 0.6480 0.6480 0.6460 0.6460 0.6480
2.656160 0.6530 0.6600 0.6610 0.6610 0.6610
2.689000 0.6610 0.6610 0.6610 0.6610 0.6610
2.722160 0.6610 0.6610 0.6600 0.6580 0.6580
2.756000 0.6600 0.6650 0.6680 0.6690 0.6690
2.789160 0.6690 0.6710 0.6730 0.6730 0.6730
2.822000 0.6730 0.6730 0.6710 0.6710 0.6710
2.855160 0.6710 0.6710 0.6690 0.6690 0.6690
2.888000 0.6690 0.6660 0.6650 0.6650 0.6630
2.921160 0.6610 0.6600 0.6550 0.6530 0.6500
2.955000 0.6500 0.6460 0.6400 0.6400 0.6410
2.988160 0.6430 0.6460 0.6530 0.6580 0.6630
3.021000 0.6690 0.6710 0.6710 0.6710 0.6690
3.054160 0.6690 0.6650 0.6630 0.6630 0.6650
3.087000 0.6690 0.6710 0.6710 0.6690 0.6690
3.120160 0.6690 0.6650 0.6630 0.6610 0.6580
3.153000 0.6560 0.6530 0.6510 0.6510 0.6530
3.186160 0.6530 0.6550 0.6550 0.6510 0.6500
3.220000 0.6480 0.6430 0.6380 0.6310 0.6250
3.253160 0.6210 0.6200 0.6110 0.5620 0.5270
3.286000 0.5200 0.5120 0.5000 0.4970 0.4940
3.319160 0.4940 0.4920 0.4360 0.3780 0.3200
3.352000 0.2730 0.2070 0.1420 0.0760 0.0380
3.385160 0.0360 0.0360 0.0360 0.0380 0.0380
3.419000 0.0390 0.0460 0.0610 0.0760 0.0890
3.452160 0.1060 0.1140 0.1160 0.1140 0.1110
3.485000 0.1010 0.1010 0.1020 0.1220 0.1520
3.518160 0.2000 0.2230 0.3010 0.3530 0.4670
3.551000 0.5350 0.5770 0.6000 0.6100 0.6130
3.584160 0.6160 0.6260 0.6330 0.6400 0.6460
3.617000 0.6480 0.6500 0.6510 0.6530 0.6550
3.650160 0.6550 0.6550 0.6530 0.6500 0.6480
3.684000 0.6480 0.6500 0.6500 0.6500 0.6510
3.717160 0.6510 0.6530 0.6530 0.6550 0.6550
3.750000 0.6550 0.6550 0.6580 0.6600 0.6610
3.783160 0.6630 0.6630 0.6630 0.6630 0.6650
3.816000 0.6650 0.6680 0.6710 0.6740 0.6760
3.849160 0.6780 0.6790 0.6810 0.6830 0.6830
3.883000 0.6890 0.6890 0.6910 0.6930 0.6940
3.916160 0.6940 0.6960 0.6980 0.7010 0.7030
3.949000 0.7040 0.7060 0.7080 0.7090 0.7090
3.982160 0.7090 0.7110 0.7130 0.7140 0.7160
4.015000 0.7180 0.7180 0.7180 0.7180 0.7180
4.048160 0.7180 0.7180 0.7180 0.7180 0.7190
4.081000 0.7190 0.7190 0.7190 0.7190 0.7190
4.114160 0.7190 0.7190 0.7190 0.7210 0.7210
4.148000 0.7240 0.7260 0.7280 0.7280 0.7280
4.181160 0.7280 0.7280 0.7290 0.7290 0.7290
4.214000 0.7310 0.7310 0.7340 0.7360 0.7360
4.247160 0.7330 0.7260 0.7190 0.7110 0.7090
4.280000 0.7090 0.7110 0.7130 0.7190 0.7230
4.313160 0.7280 0.7290 0.7290 0.7310 0.7340
4.347000 0.7390 0.7410 0.7460 0.7520 0.7590
4.380160 0.7610 0.7620 0.7670 0.7690 0.7710
4.413000 0.7710 0.7710 0.7710 0.7710 0.7710
4.446160 0.7710 0.7710 0.7710 0.7710 0.7760
4.479000 0.7770 0.7770 0.7770 0.7790 0.7790
4.512160 0.7790 0.7790 0.7790 0.7810 0.7820
4.545000 0.7820 0.7840 0.7870 0.7870 0.7890
4.578160 0.7910 0.7920 0.7920 0.7940 0.7960
4.612000 0.7960 0.7970 0.7970 0.7990 0.7990
4.645160 0.7990 0.8000 0.8000 0.8000 0.8000
4.678000 0.8000 0.8020 0.8090 0.8100 0.8150
4.711160 0.8170 0.8190 0.8190 0.8200 0.8200
4.744000 0.8220 0.8240 0.8270 0.8320 0.8340
4.777160 0.8350 0.8370 0.8390 0.8390 0.8400
4.811000 0.8420 0.8420 0.8420 0.8440 0.8450
4.844160 0.8470 0.8470 0.8490 0.8490 0.8520
4.877000 0.8520 0.8520 0.8520 0.8500 0.8500
4.910160 0.8500 0.8500 0.8500 0.8500 0.8570
4.943000 0.8590 0.8600 0.8600 0.8620 0.8620
4.976160 0.8620 0.8620 0.8620 0.8640 0.8640
5.009000 0.8620 0.8570 0.8550 0.8520 0.8500
5.042160 0.8490 0.8500 0.8520 0.8550 0.8570
5.076000 0.8600 0.8670 0.8720 0.8770 0.8780
5.109160 0.8770 0.8720 0.8680 0.8590 0.8570
5.142000 0.8570 0.8570 0.8600 0.8670 0.8780
5.175160 0.8820 0.8850 0.8870 0.8870 0.8880
5.208000 0.8880 0.8880 0.8880 0.8870 0.8830
5.241160 0.8820 0.8800 0.8800 0.8820 0.8850
5.275000 0.8920 0.8970 0.9020 0.9050 0.9050
5.308160 0.9020 0.8980 0.8980 0.9000 0.9080
5.341000 0.9130 0.9180 0.9180 0.9200 0.9200
5.374160 0.9200 0.9200 0.9220 0.9280 0.9300
5.407000 0.9300 0.9280 0.9180 0.9120 0.9050
5.440160 0.8920 0.8900 0.8900 0.8930 0.8950
5.473000 0.9030 0.9030 0.9000 0.8900 0.8880
5.506160 0.8900 0.9170 0.9300 0.9380 0.9410
5.540000 0.9430 0.9460 0.9480 0.9450 0.9430
5.573160 0.9360 0.9280 0.9200 0.9130 0.9030
5.606000 0.8750 0.8450 0.8290 0.7860 0.7290
5.639160 0.6480 0.5980 0.5140 0.4240 0.2860
5.672000 0.2850 0.2860 0.3150 0.3410 0.3690
5.705160 0.3960 0.4160 0.4290 0.4320 0.4320
5.739000 0.4190 0.3660 0.2960 0.2330 0.1950
5.772160 0.1450 0.0940 0.0740 0.0560 0.0440
5.805000 0.0390 0.0360 0.0340 0.0340 0.0340
5.838160 0.0340 0.0360 0.0560 0.0670 0.0860
5.871000 0.1010 0.1210 0.1450 0.1600 0.1700
5.904160 0.1790 0.1840 0.1900 0.2000 0.2150
5.937000 0.2350 0.2500 0.2620 0.2730 0.2880
5.970160 0.3060 0.3280 0.3490 0.3710 0.3910
6.004000 0.4110 0.4260 0.4340 0.4410 0.4510
6.037160 0.4660 0.4850 0.5040 0.5220 0.5350
6.070000 0.5380 0.5400 0.5430 0.5530 0.5730
6.103160 0.5880 0.5920 0.5930 0.5950 0.5950
6.136000 0.5950 0.5900 0.5870 0.5750 0.5620
6.169160 0.5520 0.5500 0.5500 0.5550 0.5580
6.203000 0.5620 0.5650 0.5680 0.5770 0.5970
6.236160 0.6250 0.6460 0.6600 0.6660 0.6730
6.269000 0.6790 0.6810 0.6840 0.6860 0.6880
6.302160 0.6890 0.6990 0.7080 0.7140 0.7210
6.335000 0.7280 0.7290 0.7310 0.7330 0.7330
6.368160 0.7340 0.7420 0.7460 0.7540 0.7610
6.402000 0.7710 0.7770 0.7770 0.7740 0.7670
6.435160 0.7610 0.7590 0.7570 0.7570 0.7590
6.468000 0.7640 0.7690 0.7740 0.7770 0.7770
6.501160 0.7740 0.7740 0.7740 0.7740 0.7740
6.534000 0.7760 0.7790 0.7840 0.7940 0.8000
6.567160 0.8020 0.8050 0.8050 0.7990 0.7970
6.600000 0.7960 0.7970 0.8040 0.8040 0.8040
6.633160 0.8000 0.7990 0.7970 0.7990 0.8090
6.667000 0.8100 0.8100 0.8090 0.8070 0.8020
6.700160 0.7990 0.7920 0.7890 0.7770 0.7620
6.733000 0.7340 0.6790 0.6260 0.5930 0.4950
6.766160 0.3410 0.2120 0.1870 0.1870 0.1920
6.799000 0.2250 0.2430 0.2550 0.2620 0.2710
6.832160 0.2850 0.2960 0.3010 0.3030 0.3100
6.866000 0.3180 0.3250 0.3340 0.3510 0.3740
6.899160 0.3940 0.4020 0.4040 0.4040 0.3990
6.932000 0.3640 0.2170 0.2050 0.1940 0.1920
6.965160 0.1920 0.1950 0.2370 0.2650 0.3160
6.998000 0.3810 0.4440 0.4970 0.5250 0.5430
7.031160 0.5480 0.5500 0.5480 0.5190 0.4870
7.064000 0.4570 0.4390 0.4210 0.3960 0.3540
7.097160 0.2830 0.2170 0.1850 0.1370 0.0870
7.131000 0.0840 0.0790 0.0770 0.0770 0.0790
7.164160 0.0810 0.0890 0.0970 0.1160 0.1290
7.197000 0.1570 0.1840 0.2080 0.2180 0.2320
7.230160 0.2380 0.2430 0.2480 0.2500 0.2530
7.263000 0.2630 0.2750 0.2900 0.2980 0.2980
7.296160 0.2700 0.2250 0.2170 0.2150 0.2170
7.330000 0.2320 0.2350 0.2430 0.2470 0.2470
7.363160 0.2470 0.2480 0.2630 0.2760 0.3030
7.396000 0.3310 0.3640 0.3990 0.4190 0.4390
7.429160 0.4490 0.4490 0.4470 0.4340 0.4140
7.462000 0.3910 0.3590 0.3310 0.3230 0.3180
7.495160 0.3130 0.3050 0.2930 0.2700 0.2480
7.528000 0.2470 0.2470 0.2480 0.2750 0.3030
7.561160 0.3410 0.3790 0.4090 0.4310 0.4470
7.595000 0.4640 0.4840 0.4940 0.5020 0.5120
7.628160 0.5220 0.5350 0.5450 0.5520 0.5580
7.661000 0.5620 0.5620 0.5580 0.5500 0.5380
7.694160 0.5240 0.5040 0.4870 0.4840 0.4840
7.727000 0.4850 0.5040 0.5190 0.5330 0.5520
7.760160 0.5670 0.5800 0.5880 0.5880 0.5870
7.794000 0.5820 0.5720 0.5700 0.5700 0.5730
7.827160 0.5900 0.6050 0.6200 0.6310 0.6400
7.860000 0.6430 0.6430 0.6460 0.6480 0.6530
7.893160 0.6560 0.6560 0.6550 0.6500 0.6480
7.926000 0.6460 0.6410 0.6410 0.6410 0.6410
7.959160 0.6400 0.6400 0.6400 0.6400 0.6400
7.992000 0.6510 0.6650 0.6760 0.6880 0.6960
8.025160 0.7040 0.7110 0.7180 0.7230 0.7310
8.059000 0.7330 0.7340 0.7330 0.7140 0.6610
8.092160 0.6160 0.5500 0.4040 0.3980 0.3860
8.125000 0.3840 0.3860 0.4390 0.4660 0.4950
8.158160 0.5220 0.5480 0.5730 0.5930 0.6130
8.191000 0.6300 0.6450 0.6560 0.6660 0.6740
8.224160 0.6860 0.6960 0.6990 0.6990 0.7010
8.258000 0.7040 0.7040 0.7060 0.7080 0.7090
8.291160 0.7080 0.7030 0.6980 0.6910 0.6910
8.324000 0.6930 0.7040 0.7140 0.7240 0.7280
8.357160 0.7280 0.7230 0.7090 0.6930 0.6690
8.390000 0.6550 0.6330 0.6150 0.6080 0.6060
8.423160 0.6080 0.6250 0.6450 0.6650 0.6840
8.456000 0.7030 0.7180 0.7290 0.7340 0.7360
8.489160 0.7360 0.7340 0.7290 0.7160 0.6890
8.523000 0.6600 0.6350 0.6210 0.6180 0.6180
8.556160 0.6200 0.6430 0.6560 0.6740 0.6930
8.589000 0.6980 0.7110 0.7230 0.7260 0.7260
8.622160 0.7230 0.7230 0.7230 0.7210 0.7210
8.655000 0.7280 0.7370 0.7420 0.7470 0.7490
8.688160 0.7520 0.7520 0.7490 0.7410 0.7360
8.722000 0.7340 0.7370 0.7490 0.7570 0.7690
8.755160 0.7870 0.7970 0.7970 0.7970 0.7910
8.788000 0.7690 0.7610 0.7510 0.7410 0.7340
8.821160 0.7330 0.7340 0.7540 0.7740 0.7920
8.854000 0.8000 0.8090 0.8140 0.8190 0.8220
8.887160 0.8250 0.8250 0.8250 0.8270 0.8270
8.920000 0.8290 0.8290 0.8300 0.8320 0.8350
8.953160 0.8390 0.8420 0.8420 0.8420 0.8420
8.987000 0.8450 0.8490 0.8500 0.8550 0.8570
9.020160 0.8590 0.8590 0.8590 0.8590 0.8550
9.053000 0.8520 0.8500 0.8500 0.8490 0.8420
9.086160 0.8350 0.8200 0.8040 0.7840 0.7510
9.119000 0.7060 0.6510 0.6100 0.5620 0.4940
9.152160 0.4470 0.4190 0.4090 0.4070 0.4110
9.186000 0.4620 0.4870 0.5070 0.5320 0.5730
9.219160 0.5820 0.5830 0.5830 0.5780 0.5630
9.252000 0.5430 0.5140 0.4770 0.4310 0.3760
9.285160 0.3110 0.2830 0.2630 0.2520 0.2430
9.318000 0.2400 0.2380 0.2380 0.2430 0.2530
9.351160 0.2650 0.2780 0.3030 0.3310 0.3660
9.384000 0.3980 0.4290 0.4590 0.4870 0.5120
9.417160 0.5370 0.5600 0.5800 0.6000 0.6150
9.451000 0.6300 0.6410 0.6500 0.6550 0.6630
9.484160 0.6690 0.6790 0.6890 0.6910 0.6940
9.517000 0.6940 0.6960 0.6990 0.7010 0.7040
9.550160 0.7060 0.7080 0.7080 0.7090 0.7110
9.583000 0.7110 0.7110 0.7110 0.7130 0.7180
9.616160 0.7210 0.7240 0.7280 0.7330 0.7340
9.650000 0.7340 0.7340 0.7330 0.7310 0.7260
9.683160 0.7140 0.6980 0.6780 0.6690 0.6600
9.716000 0.6580 0.6610 0.6730 0.6860 0.6980
9.749160 0.7080 0.7190 0.7330 0.7460 0.7590
9.782000 0.7690 0.7740 0.7770 0.7820 0.7960
9.815160 0.8000 0.8020 0.8040 0.8040 0.8040
9.848000 0.8040 0.8040 0.8040 0.8020 0.7960
9.881160 0.7790 0.7540 0.6990 0.6610 0.6380
9.915000 0.6230 0.6180 0.6150 0.6160 0.6280
9.948160 0.6400 0.6530 0.6660 0.6780 0.6890
9.981000 0.7040 0.7130 0.7290 0.7440 0.7570
10.014160 0.7690 0.7790 0.7870 0.7910 0.7970
10.047000 0.8020 0.8070 0.8090 0.8120 0.8140
10.080160 0.8150 0.8150 0.8150 0.8150 0.8120
10.114000 0.8090 0.8020 0.7970 0.7910 0.7720
10.147160 0.7310 0.6960 0.6480 0.6160 0.5900
10.180000 0.5470 0.5150 0.5050 0.4870 0.4800
10.213160 0.4790 0.4790 0.4790 0.4770 0.4720
10.246000 0.4570 0.4560 0.4560 0.4590 0.4670
10.279160 0.4850 0.5100 0.5320 0.5470 0.5620
10.313000 0.5730 0.5830 0.5920 0.5980 0.6050
10.346160 0.6160 0.6300 0.6430 0.6560 0.6680
10.379000 0.6780 0.6880 0.6980 0.7060 0.7140
10.412160 0.7230 0.7310 0.7340 0.7390 0.7470
10.445000 0.7520 0.7570 0.7610 0.7640 0.7670
10.478160 0.7690 0.7710 0.7740 0.7760 0.7770
10.511000 0.7790 0.7840 0.7890 0.7920 0.7970
10.544160 0.7990 0.7990 0.7990 0.8000 0.8020
10.578000 0.8070 0.8120 0.8140 0.8150 0.8150
10.611160 0.8150 0.8150 0.8170 0.8170 0.8200
10.644000 0.8240 0.8250 0.8270 0.8290 0.8290
10.677160 0.8290 0.8290 0.8290 0.8300 0.8300
10.710000 0.8300 0.8290 0.8250 0.8240 0.8190
10.743160 0.8170 0.8150 0.8100 0.8070 0.7990
10.777000 0.7920 0.7790 0.7610 0.7410 0.7160
10.810160 0.6840 0.6600 0.6460 0.6360 0.6310
10.843000 0.6310 0.6330 0.6410 0.6500 0.6610
10.876160 0.6730 0.6890 0.7040 0.7180 0.7290
10.909000 0.7390 0.7510 0.7590 0.7670 0.7740
10.942160 0.7820 0.7890 0.7970 0.7990 0.8000
10.975000 0.8040 0.8050 0.8090 0.8120 0.8170
11.008160 0.8220 0.8270 0.8320 0.8370 0.8390
11.042000 0.8420 0.8440 0.8450 0.8470 0.8490
11.075160 0.8490 0.8500 0.8500 0.8520 0.8540
11.108000 0.8570 0.8590 0.8590 0.8600 0.8600
11.141160 0.8590 0.8590 0.8550 0.8540 0.8540
11.174000 0.8520 0.8500 0.8490 0.8470 0.8440
11.207160 0.8400 0.8370 0.8350 0.8350 0.8350
11.241000 0.8350 0.8390 0.8400 0.8440 0.8470
11.274160 0.8490 0.8500 0.8540 0.8550 0.8570
11.307000 0.8570 0.8590 0.8600 0.8600 0.8600
11.340160 0.8590 0.8590 0.8570 0.8570 0.8590
11.373000 0.8590 0.8600 0.8620 0.8640 0.8670
11.406160 0.8680 0.8720 0.8730 0.8750 0.8770
11.439000 0.8780 0.8780 0.8780 0.8780 0.8770
11.472160 0.8720 0.8680 0.8600 0.8520 0.8440
11.506000 0.8320 0.8120 0.7920 0.7490 0.6880
11.539160 0.6350 0.6100 0.5850 0.5520 0.5500
11.572000 0.5500 0.5530 0.5700 0.5850 0.6010
11.605160 0.6210 0.6430 0.6650 0.6780 0.6940
11.638000 0.7060 0.7260 0.7370 0.7510 0.7640
11.671160 0.7760 0.7820 0.7890 0.7970 0.8000
11.705000 0.8040 0.8090 0.8100 0.8150 0.8200
11.738160 0.8300 0.8350 0.8370 0.8390 0.8400
11.771000 0.8440 0.8470 0.8470 0.8490 0.8500
11.804160 0.8500 0.8470 0.8440 0.8390 0.8350
11.837000 0.8300 0.8290 0.8270 0.8270 0.8290
11.870160 0.8340 0.8400 0.8470 0.8490 0.8500
11.903000 0.8520 0.8540 0.8570 0.8620 0.8640
11.936160 0.8670 0.8670 0.8670 0.8670 0.8680
11.970000 0.8680 0.8680 0.8680 0.8680 0.8700
12.003160 0.8720 0.8730 0.8750 0.8750 0.8750
12.036000 0.8770 0.8800 0.8800 0.8780 0.8770
12.069160 0.8770 0.8770 0.8750 0.8750 0.8770
12.102000 0.8800 0.8800 0.8800 0.8800 0.8820
12.135160 0.8820 0.8820 0.8800 0.8800 0.8800
12.169000 0.8800 0.8780 0.8780 0.8780 0.8780
12.202160 0.8780 0.8780 0.8800 0.8800 0.8800
12.235000 0.8780 0.8770 0.8750 0.8730 0.8730
12.268160 0.8730 0.8720 0.8700 0.8700 0.8700
12.301000 0.8700 0.8700 0.8700 0.8700 0.8700
12.334160 0.8700 0.8680 0.8670 0.8640 0.8640
12.367000 0.8620 0.8570 0.8490 0.8420 0.8350
12.400160 0.8270 0.8140 0.7960 0.7790 0.7570
12.434000 0.7330 0.6880 0.6550 0.6300 0.6130
12.467160 0.5870 0.5830 0.5820 0.5820 0.5850
12.500000 0.5970 0.6130 0.6360 0.6500 0.6610
12.533160 0.6710 0.6790 0.6910 0.7040 0.7240
12.566000 0.7540 0.7720 0.7960 0.8140 0.8270
12.599160 0.8300 0.8470 0.8540 0.8550 0.8590
12.633000 0.8620 0.8620 0.8620 0.8570 0.8550
12.666160 0.8540 0.8540 0.8570 0.8590 0.8650
12.699000 0.8700 0.8720 0.8770 0.8770 0.8780
12.732160 0.8800 0.8800 0.8800 0.8800 0.8800
12.765000 0.8770 0.8770 0.8750 0.8730 0.8730
12.798160 0.8730 0.8730 0.8730 0.8730 0.8730
12.831000 0.8750 0.8750 0.8770 0.8770 0.8770
12.864160 0.8770 0.8750 0.8720 0.8720 0.8700
12.898000 0.8700 0.8730 0.8750 0.8750 0.8730
12.931160 0.8720 0.8680 0.8680 0.8650 0.8640
12.964000 0.8640 0.8640 0.8640 0.8640 0.8620
12.997160 0.8620 0.8600 0.8590 0.8570 0.8550
13.030000 0.8520 0.8520 0.8490 0.8470 0.8470
13.063160 0.8450 0.8450 0.8420 0.8390 0.8370
13.097000 0.8340 0.8300 0.8270 0.8220 0.8190
13.130160 0.8170 0.8100 0.8070 0.8000 0.7970
13.163000 0.7910 0.7860 0.7790 0.7720 0.7690
13.196160 0.7640 0.7610 0.7570 0.7570 0.7560
13.229000 0.7540 0.7540 0.7560 0.7570 0.7570
13.262160 0.7610 0.7640 0.7660 0.7660 0.7660
13.295000 0.7670 0.7670 0.7670 0.7670 0.7670
13.328160 0.7670 0.7670 0.7670 0.7670 0.7670
13.362000 0.7670 0.7660 0.7620 0.7570 0.7560
13.395160 0.7520 0.7510 0.7490 0.7470 0.7420
13.428000 0.7410 0.7370 0.7340 0.7290 0.7230
13.461160 0.7190 0.7160 0.7090 0.7010 0.6940
13.494000 0.6840 0.6760 0.6680 0.6600 0.6550
13.527160 0.6480 0.6410 0.6350 0.6280 0.6250
13.561000 0.6200 0.6180 0.6130 0.6100 0.6010
13.594160 0.6010 0.5950 0.5880 0.5750 0.5620
13.627000 0.5520 0.5470 0.5320 0.5170 0.4990
13.660160 0.4820 0.4640 0.4440 0.4240 0.4020
13.693000 0.3790 0.3630 0.3460 0.3280 0.3080
13.726160 0.2950 0.2830 0.2710 0.2680 0.2660
13.759000 0.2660 0.2680 0.2750 0.2810 0.2860
13.792160 0.2950 0.3050 0.3130 0.3250 0.3300
13.826000 0.3310 0.3310 0.3280 0.3150 0.3030
13.859160 0.2850 0.2530 0.2320 0.2130 0.2000
13.892000 0.1920 0.1870 0.1840 0.1820 0.1820
13.925160 0.1970 0.2130 0.2270 0.2450 0.2650
13.958000 0.2900 0.3050 0.3250 0.3390 0.3480
13.991160 0.3560 0.3630 0.3630 0.3590 0.3460
14.025000 0.3390 0.3250 0.3050 0.2830 0.2580
14.058160 0.2520 0.2450 0.2430 0.2430 0.2470
14.091000 0.2660 0.2800 0.2900 0.3100 0.3340
14.124160 0.3640 0.3880 0.4070 0.4260 0.4540
14.157000 0.4790 0.5020 0.5250 0.5470 0.5670
14.190160 0.5830 0.6000 0.6150 0.6330 0.6480
14.223000 0.6610 0.6730 0.6830 0.6910 0.7030
14.256160 0.7190 0.7280 0.7360 0.7410 0.7470
14.290000 0.7520 0.7610 0.7640 0.7670 0.7710
14.323160 0.7770 0.7840 0.7870 0.7910 0.7940
14.356000 0.7960 0.7960 0.7970 0.7990 0.7990
14.389160 0.8000 0.8000 0.8020 0.8020 0.8000
14.422000 0.7990 0.7970 0.7890 0.7860 0.7860
14.455160 0.7840 0.7820 0.7820 0.7820 0.7840
14.489000 0.7860 0.7870 0.7920 0.7970 0.7990
14.522160 0.8000 0.8020 0.8020 0.8040 0.8050
14.555000 0.8070 0.8090 0.8100 0.8140 0.8170
14.588160 0.8190 0.8200 0.8250 0.8270 0.8270
14.621000 0.8300 0.8320 0.8370 0.8390 0.8390
14.654160 0.8420 0.8440 0.8470 0.8490 0.8500
14.688000 0.8520 0.8520 0.8540 0.8540 0.8550
14.721160 0.8550 0.8550 0.8550 0.8550 0.8550
14.754000 0.8550 0.8550 0.8550 0.8540 0.8540
14.787160 0.8540 0.8520 0.8520 0.8500 0.8490
14.820000 0.8470 0.8450 0.8450 0.8440 0.8420
14.853160 0.8400 0.8390 0.8370 0.8350 0.8320
14.886000 0.8290 0.8250 0.8250 0.8190 0.8140
14.919160 0.8090 0.8040 0.8000 0.7970 0.7910
14.953000 0.7870 0.7840 0.7810 0.7770 0.7740
14.986160 0.7690 0.7620 0.7570 0.7520 0.7470
15.019000 0.7420 0.7370 0.7360 0.7290 0.7260
15.052160 0.7240 0.7240 0.7240 0.7240 0.7240
15.085000 0.7280 0.7360 0.7440 0.7510 0.7610
15.118160 0.7690 0.7810 0.7890 0.7940 0.7970
15.152000 0.8000 0.8040 0.8090 0.8140 0.8150
15.185160 0.8150 0.8150 0.8150 0.8150 0.8140
15.218000 0.8140 0.8120 0.8100 0.8100 0.8090
15.251160 0.8070 0.8000 0.8000 0.7990 0.7970
15.284000 0.7970 0.7960 0.7910 0.7910 0.7910
15.317160 0.7910 0.7890 0.7860 0.7820 0.7820
15.350000 0.7790 0.7760 0.7720 0.7710 0.7690
15.383160 0.7670 0.7660 0.7620 0.7620 0.7610
15.417000 0.7590 0.7590 0.7570 0.7560 0.7540
15.450160 0.7510 0.7490 0.7470 0.7460 0.7410
15.483000 0.7410 0.7390 0.7370 0.7360 0.7340
15.516160 0.7330 0.7330 0.7330 0.7330 0.7310
15.549000 0.7290 0.7260 0.7240 0.7230 0.7230
15.582160 0.7210 0.7210 0.7190 0.7190 0.7190
15.616000 0.7190 0.7190 0.7190 0.7180 0.7160
15.649160 0.7130 0.7110 0.7110 0.7090 0.7040
15.682000 0.7030 0.7010 0.6990 0.6980 0.6980
15.715160 0.6910 0.6860 0.6830 0.6830 0.6830
15.748000 0.6830 0.6810 0.6810 0.6790 0.6760
15.781160 0.6710 0.6680 0.6680 0.6660 0.6650
15.814000 0.6630 0.6610 0.6580 0.6510 0.6500
15.847160 0.6500 0.6500 0.6500 0.6500 0.6480
15.881000 0.6460 0.6460 0.6410 0.6400 0.6400
15.914160 0.6400 0.6380 0.6350 0.6310 0.6300
15.947000 0.6280 0.6260 0.6260 0.6260 0.6260
15.980160 0.6230 0.6230 0.6180 0.6130
##END=
