##TITLE=1,2-PROPANEDIOL
##JCAMP-DX=4.24
##DATA TYPE=INFRARED SPECTRUM
##CLASS=COBLENTZ III
##ORIGIN=DOW CHEMICAL COMPANY
##OWNER=COBLENTZ SOCIETY
Collection (C) 2018 copyright by the U.S. Secretary of Commerce
on behalf of the United States of America. All rights reserved.
##DATE=1974/05/14
##NAMES=propylene glycol
PROPYLENE GLYCOL
##CAS REGISTRY NO=57-55-6
##MOLFORM=C3 H8 O2
##SOURCE REFERENCE=COBLENTZ NO. 10081
##$NIST SOURCE=COBLENTZ
##$NIST IMAGE=cob10081
##SPECTROMETER/DATA SYSTEM=PERKIN-ELMER 521 (GRATING)
##INSTRUMENT PARAMETERS=FILTERS AT 3150, 2500, 2000, 1150, 700, 410 AND GRATING CHANGES AT 2000, 630 CM^-^1
##STATE=LIQUID (NEAT)
##PATH LENGTH=CAPILLARY
$$ SEE SPECTRUM NO. 5974 FOR "PRISM" RUN
##SAMPLING PROCEDURE=TRANSMISSION
##RESOLUTION=4
##DATA PROCESSING=DIGITIZED BY NIST FROM HARD COPY (FROM TWO SEGMENTS)
##XUNITS=1/CM
##YUNITS=TRANSMITTANCE
##XFACTOR=1.000000
##YFACTOR=1
##DELTAX=0.921661
##FIRSTX=249.77
##LASTX=3796.32
##FIRSTY=0.06
##MAXX=3796.32
##MINX=249.77
##MAXY=0.9
##MINY=0.06
##NPOINTS=3849
##XYDATA=(X++(Y..Y))
249.770000 0.0600 0.0600 0.0600 0.0600 0.0620
254.378305 0.0620 0.0620 0.0600 0.0600 0.0600
258.986610 0.0600 0.0620 0.0620 0.0620 0.0630
263.594915 0.0630 0.0630 0.0630 0.0640 0.0640
268.203221 0.0640 0.0650 0.0650 0.0650 0.0650
272.811526 0.0650 0.0670 0.0680 0.0690 0.0700
277.419831 0.0720 0.0740 0.0750 0.0770 0.0770
282.028136 0.0780 0.0790 0.0790 0.0790 0.0800
286.636441 0.0800 0.0800 0.0800 0.0820 0.0820
291.244746 0.0830 0.0840 0.0840 0.0850 0.0850
295.853052 0.0850 0.0850 0.0870 0.0880 0.0900
300.461357 0.0920 0.0950 0.0990 0.1010 0.1030
305.069662 0.1040 0.1060 0.1080 0.1110 0.1130
309.677967 0.1150 0.1180 0.1180 0.1200 0.1210
314.286272 0.1230 0.1230 0.1250 0.1250 0.1260
318.894577 0.1290 0.1310 0.1330 0.1350 0.1380
323.502883 0.1390 0.1400 0.1410 0.1450 0.1460
328.111188 0.1480 0.1500 0.1510 0.1560 0.1590
332.719493 0.1620 0.1660 0.1690 0.1700 0.1720
337.327798 0.1740 0.1770 0.1840 0.1870 0.1950
341.936103 0.1990 0.2050 0.2130 0.2200 0.2260
346.544408 0.2280 0.2310 0.2370 0.2460 0.2530
351.152714 0.2590 0.2620 0.2680 0.2730 0.2790
355.761019 0.2830 0.2880 0.2920 0.2960 0.3080
360.369324 0.3200 0.3240 0.3280 0.3330 0.3350
364.977629 0.3420 0.3450 0.3510 0.3530 0.3610
369.585934 0.3690 0.3750 0.3790 0.3830 0.3850
374.194239 0.3890 0.3980 0.4040 0.4090 0.4120
378.802545 0.4170 0.4210 0.4290 0.4300 0.4350
383.410850 0.4390 0.4440 0.4470 0.4500 0.4510
388.019155 0.4570 0.4620 0.4660 0.4710 0.4750
392.627460 0.4780 0.4830 0.4870 0.4900 0.4930
397.235765 0.4960 0.5000 0.5040 0.5080 0.5110
401.844070 0.5160 0.5190 0.5220 0.5270 0.5280
406.452376 0.5360 0.5390 0.5410 0.5430 0.5440
411.060681 0.5500 0.5580 0.5630 0.5690 0.5750
415.668986 0.5780 0.5800 0.5820 0.5820 0.5870
420.277291 0.5900 0.5980 0.6000 0.6050 0.6060
424.885596 0.6100 0.6110 0.6130 0.6160 0.6190
429.493901 0.6230 0.6260 0.6290 0.6330 0.6340
434.102207 0.6360 0.6380 0.6390 0.6400 0.6440
438.710512 0.6460 0.6480 0.6480 0.6490 0.6490
443.318817 0.6510 0.6510 0.6550 0.6560 0.6560
447.927122 0.6570 0.6590 0.6600 0.6640 0.6660
452.535427 0.6670 0.6690 0.6690 0.6700 0.6700
457.143732 0.6700 0.6700 0.6700 0.6700 0.6700
461.752038 0.6710 0.6710 0.6710 0.6720 0.6720
466.360343 0.6720 0.6710 0.6710 0.6710 0.6700
470.968648 0.6700 0.6700 0.6700 0.6700 0.6700
475.576953 0.6700 0.6700 0.6700 0.6710 0.6720
480.185258 0.6740 0.6750 0.6760 0.6760 0.6770
484.793563 0.6790 0.6800 0.6810 0.6810 0.6820
489.401869 0.6820 0.6820 0.6820 0.6820 0.6820
494.010174 0.6820 0.6820 0.6820 0.6820 0.6820
498.618479 0.6820 0.6820 0.6810 0.6800 0.6790
503.226784 0.6790 0.6770 0.6770 0.6770 0.6760
507.835089 0.6760 0.6760 0.6750 0.6720 0.6710
512.443394 0.6700 0.6690 0.6660 0.6650 0.6620
517.051700 0.6610 0.6600 0.6570 0.6550 0.6540
521.660005 0.6510 0.6500 0.6490 0.6500 0.6510
526.268310 0.6510 0.6520 0.6550 0.6550 0.6600
530.876615 0.6640 0.6670 0.6700 0.6740 0.6760
535.484920 0.6790 0.6800 0.6820 0.6840 0.6840
540.093225 0.6850 0.6860 0.6860 0.6860 0.6860
544.701530 0.6860 0.6860 0.6860 0.6860 0.6860
549.309836 0.6860 0.6860 0.6860 0.6860 0.6860
553.918141 0.6860 0.6860 0.6860 0.6860 0.6860
558.526446 0.6860 0.6860 0.6860 0.6860 0.6860
563.134751 0.6850 0.6850 0.6850 0.6850 0.6850
567.743056 0.6850 0.6850 0.6850 0.6850 0.6850
572.351361 0.6850 0.6850 0.6850 0.6850 0.6850
576.959667 0.6850 0.6850 0.6850 0.6850 0.6850
581.567972 0.6850 0.6850 0.6850 0.6850 0.6850
586.176277 0.6850 0.6850 0.6850 0.6850 0.6850
590.784582 0.6850 0.6850 0.6850 0.6850 0.6850
595.392887 0.6850 0.6850 0.6850 0.6850 0.6860
600.001192 0.6860 0.6870 0.6860 0.6870 0.6870
604.609498 0.6870 0.6870 0.6870 0.6870 0.6890
609.217803 0.6890 0.6890 0.6890 0.6890 0.6900
613.826108 0.6890 0.6890 0.6890 0.6890 0.6910
618.434413 0.6910 0.6910 0.6910 0.6910 0.6910
623.042718 0.6910 0.6910 0.6910 0.6910 0.6910
627.651023 0.6910 0.6910 0.6900 0.6890 0.6870
632.259329 0.6860 0.6850 0.6850 0.6850 0.6850
636.867634 0.6850 0.6850 0.6840 0.6840 0.6840
641.475939 0.6840 0.6840 0.6850 0.6850 0.6850
646.084244 0.6840 0.6840 0.6840 0.6840 0.6840
650.692549 0.6840 0.6840 0.6820 0.6820 0.6820
655.300854 0.6840 0.6840 0.6840 0.6850 0.6850
659.909160 0.6860 0.6890 0.6890 0.6900 0.6900
664.517465 0.6910 0.6910 0.6920 0.6950 0.7000
669.125770 0.7020 0.7050 0.7050 0.7060 0.7060
673.734075 0.7070 0.7070 0.7080 0.7080 0.7100
678.342380 0.7110 0.7120 0.7130 0.7160 0.7170
682.950685 0.7180 0.7180 0.7180 0.7200 0.7200
687.558991 0.7200 0.7210 0.7220 0.7230 0.7230
692.167296 0.7250 0.7260 0.7280 0.7300 0.7310
696.775601 0.7320 0.7320 0.7330 0.7330 0.7330
701.383906 0.7350 0.7350 0.7360 0.7360 0.7370
705.992211 0.7380 0.7380 0.7400 0.7400 0.7400
710.600516 0.7400 0.7410 0.7410 0.7420 0.7420
715.208822 0.7450 0.7460 0.7470 0.7500 0.7500
719.817127 0.7510 0.7510 0.7520 0.7520 0.7530
724.425432 0.7540 0.7570 0.7570 0.7570 0.7580
729.033737 0.7590 0.7590 0.7610 0.7620 0.7630
733.642042 0.7630 0.7640 0.7660 0.7660 0.7670
738.250347 0.7680 0.7690 0.7690 0.7710 0.7720
742.858653 0.7720 0.7720 0.7730 0.7740 0.7760
747.466958 0.7760 0.7760 0.7770 0.7780 0.7790
752.075263 0.7790 0.7820 0.7820 0.7820 0.7830
756.683568 0.7840 0.7860 0.7860 0.7870 0.7880
761.291873 0.7890 0.7890 0.7920 0.7930 0.7930
765.900178 0.7940 0.7940 0.7960 0.7960 0.7970
770.508484 0.7970 0.7980 0.7980 0.7990 0.8000
775.116789 0.8000 0.8000 0.8020 0.8030 0.8030
779.725094 0.8030 0.8040 0.8040 0.8040 0.8040
784.333399 0.8040 0.8040 0.8040 0.8040 0.8040
788.941704 0.8040 0.8040 0.8030 0.8030 0.8020
793.550009 0.8000 0.7980 0.7970 0.7960 0.7930
798.158315 0.7920 0.7820 0.7780 0.7760 0.7680
802.766620 0.7670 0.7670 0.7670 0.7680 0.7690
807.374925 0.7740 0.7780 0.7820 0.7920 0.7970
811.983230 0.8070 0.8100 0.8130 0.8140 0.8140
816.591535 0.8130 0.8130 0.8130 0.8130 0.8120
821.199840 0.8100 0.8090 0.8080 0.8070 0.8030
825.808145 0.8020 0.7970 0.7920 0.7830 0.7740
830.416451 0.7630 0.7420 0.7300 0.7130 0.6860
835.024756 0.6690 0.6510 0.6310 0.6190 0.6180
839.633061 0.6190 0.6290 0.6380 0.6450 0.6590
844.241366 0.6750 0.6940 0.7150 0.7330 0.7510
848.849671 0.7570 0.7780 0.7960 0.8040 0.8100
853.457976 0.8170 0.8240 0.8290 0.8320 0.8340
858.066282 0.8370 0.8400 0.8440 0.8450 0.8470
862.674587 0.8470 0.8480 0.8480 0.8490 0.8500
867.282892 0.8500 0.8500 0.8500 0.8510 0.8510
871.891197 0.8500 0.8500 0.8500 0.8500 0.8500
876.499502 0.8500 0.8500 0.8500 0.8500 0.8500
881.107807 0.8500 0.8500 0.8490 0.8500 0.8500
885.716113 0.8490 0.8490 0.8480 0.8480 0.8480
890.324418 0.8470 0.8450 0.8440 0.8440 0.8430
894.932723 0.8420 0.8400 0.8390 0.8390 0.8380
899.541028 0.8350 0.8330 0.8300 0.8270 0.8240
904.149333 0.8220 0.8170 0.8120 0.8070 0.7990
908.757638 0.7940 0.7810 0.7680 0.7540 0.7410
913.365944 0.7250 0.7100 0.6960 0.6810 0.6670
917.974249 0.6550 0.6440 0.6340 0.6330 0.6330
922.582554 0.6330 0.6340 0.6390 0.6430 0.6480
927.190859 0.6500 0.6540 0.6560 0.6610 0.6650
931.799164 0.6710 0.6760 0.6800 0.6850 0.6900
936.407469 0.6920 0.7000 0.7070 0.7100 0.7110
941.015775 0.7110 0.7120 0.7120 0.7130 0.7130
945.624080 0.7150 0.7150 0.7170 0.7210 0.7330
950.232385 0.7510 0.7660 0.7780 0.7890 0.7990
954.840690 0.8070 0.8140 0.8220 0.8270 0.8280
959.448995 0.8320 0.8330 0.8330 0.8330 0.8330
964.057300 0.8330 0.8330 0.8320 0.8320 0.8290
968.665606 0.8290 0.8290 0.8270 0.8240 0.8220
973.273911 0.8190 0.8170 0.8140 0.8120 0.8090
977.882216 0.8040 0.7990 0.7940 0.7790 0.7640
982.490521 0.7510 0.7380 0.7250 0.7100 0.6950
987.098826 0.6760 0.6540 0.6390 0.6380 0.6380
991.707131 0.6400 0.6500 0.6620 0.6790 0.6940
996.315437 0.7060 0.7210 0.7350 0.7540 0.7660
1000.923742 0.7760 0.7790 0.7830 0.7830 0.7830
1005.532047 0.7820 0.7810 0.7790 0.7760 0.7760
1010.140352 0.7730 0.7690 0.7610 0.7570 0.7520
1014.748657 0.7450 0.7410 0.7370 0.7280 0.7170
1019.356962 0.7030 0.6910 0.6810 0.6690 0.6540
1023.965268 0.6390 0.6230 0.6060 0.5890 0.5720
1028.573573 0.5550 0.5310 0.5090 0.4860 0.4611
1033.181878 0.4370 0.4150 0.3940 0.3760 0.3610
1037.790183 0.3510 0.3340 0.3230 0.3150 0.3140
1042.398488 0.3140 0.3140 0.3150 0.3170 0.3170
1047.006793 0.3200 0.3220 0.3300 0.3380 0.3450
1051.615099 0.3510 0.3600 0.3700 0.3840 0.3980
1056.223404 0.4110 0.4250 0.4370 0.4470 0.4719
1060.831709 0.4830 0.4970 0.5020 0.5060 0.5070
1065.440014 0.5070 0.5060 0.5060 0.5030 0.5020
1070.048319 0.4980 0.4960 0.4950 0.4950 0.4930
1074.656624 0.4930 0.4930 0.4930 0.4950 0.4960
1079.264930 0.4980 0.5010 0.5040 0.5110 0.5140
1083.873235 0.5190 0.5230 0.5320 0.5460 0.5490
1088.481540 0.5530 0.5570 0.5650 0.5740 0.5830
1093.089845 0.5900 0.5970 0.5980 0.6080 0.6140
1097.698150 0.6190 0.6210 0.6250 0.6300 0.6340
1102.306455 0.6380 0.6400 0.6410 0.6460 0.6480
1106.914760 0.6490 0.6500 0.6500 0.6540 0.6540
1111.523066 0.6550 0.6550 0.6550 0.6540 0.6540
1116.131371 0.6520 0.6520 0.6510 0.6490 0.6450
1120.739676 0.6400 0.6330 0.6290 0.6230 0.6140
1125.347981 0.6040 0.5930 0.5800 0.5670 0.5530
1129.956286 0.5390 0.5280 0.5140 0.5080 0.5070
1134.564591 0.5070 0.5080 0.5090 0.5120 0.5130
1139.172897 0.5160 0.5240 0.5270 0.5410 0.5530
1143.781202 0.5690 0.5740 0.5830 0.5990 0.6100
1148.389507 0.6250 0.6460 0.6670 0.6850 0.7020
1152.997812 0.7250 0.7360 0.7520 0.7620 0.7710
1157.606117 0.7760 0.7820 0.7880 0.7930 0.7940
1162.214422 0.7960 0.7970 0.7990 0.8000 0.8020
1166.822728 0.8020 0.8020 0.8020 0.8020 0.8020
1171.431033 0.8020 0.8020 0.8020 0.8020 0.8020
1176.039338 0.8020 0.8000 0.8000 0.8000 0.7990
1180.647643 0.7980 0.7980 0.7980 0.7980 0.7970
1185.255948 0.7970 0.7960 0.7960 0.7940 0.7930
1189.864253 0.7910 0.7880 0.7860 0.7830 0.7810
1194.472559 0.7780 0.7770 0.7760 0.7760 0.7720
1199.080864 0.7710 0.7680 0.7620 0.7580 0.7560
1203.689169 0.7540 0.7520 0.7510 0.7480 0.7450
1208.297474 0.7420 0.7420 0.7400 0.7370 0.7300
1212.905779 0.7270 0.7260 0.7250 0.7230 0.7220
1217.514084 0.7210 0.7200 0.7200 0.7180 0.7180
1222.122390 0.7170 0.7170 0.7170 0.7170 0.7170
1226.730695 0.7170 0.7180 0.7180 0.7200 0.7200
1231.339000 0.7200 0.7200 0.7200 0.7210 0.7220
1235.947305 0.7230 0.7230 0.7250 0.7250 0.7250
1240.555610 0.7250 0.7260 0.7260 0.7260 0.7260
1245.163915 0.7260 0.7260 0.7260 0.7250 0.7250
1249.772221 0.7250 0.7230 0.7230 0.7210 0.7200
1254.380526 0.7170 0.7150 0.7110 0.7100 0.7080
1258.988831 0.7080 0.7070 0.7070 0.7050 0.7020
1263.597136 0.7000 0.6960 0.6920 0.6900 0.6870
1268.205441 0.6860 0.6850 0.6840 0.6810 0.6800
1272.813746 0.6790 0.6770 0.6760 0.6760 0.6740
1277.422052 0.6720 0.6710 0.6710 0.6710 0.6700
1282.030357 0.6700 0.6700 0.6700 0.6700 0.6710
1286.638662 0.6740 0.6750 0.6770 0.6790 0.6800
1291.246967 0.6800 0.6810 0.6820 0.6840 0.6840
1295.855272 0.6850 0.6860 0.6870 0.6870 0.6870
1300.463577 0.6870 0.6870 0.6870 0.6870 0.6870
1305.071883 0.6860 0.6850 0.6850 0.6840 0.6840
1309.680188 0.6840 0.6820 0.6810 0.6810 0.6800
1314.288493 0.6790 0.6770 0.6760 0.6710 0.6690
1318.896798 0.6670 0.6670 0.6650 0.6640 0.6640
1323.505103 0.6620 0.6620 0.6620 0.6610 0.6610
1328.113408 0.6610 0.6620 0.6640 0.6640 0.6650
1332.721714 0.6660 0.6660 0.6670 0.6690 0.6690
1337.330019 0.6700 0.6720 0.6740 0.6760 0.6770
1341.938324 0.6790 0.6790 0.6790 0.6800 0.6800
1346.546629 0.6800 0.6800 0.6800 0.6800 0.6800
1351.154934 0.6800 0.6790 0.6790 0.6770 0.6760
1355.763239 0.6750 0.6750 0.6740 0.6700 0.6670
1360.371545 0.6640 0.6570 0.6540 0.6500 0.6450
1364.979850 0.6410 0.6380 0.6340 0.6300 0.6280
1369.588155 0.6200 0.6090 0.6040 0.6030 0.6010
1374.196460 0.6010 0.6010 0.6030 0.6040 0.6050
1378.804765 0.6080 0.6100 0.6180 0.6240 0.6250
1383.413070 0.6260 0.6290 0.6290 0.6300 0.6300
1388.021375 0.6310 0.6310 0.6310 0.6310 0.6310
1392.629681 0.6310 0.6310 0.6300 0.6300 0.6300
1397.237986 0.6300 0.6300 0.6290 0.6290 0.6290
1401.846291 0.6290 0.6290 0.6290 0.6290 0.6290
1406.454596 0.6290 0.6290 0.6290 0.6290 0.6290
1411.062901 0.6290 0.6290 0.6300 0.6300 0.6310
1415.671206 0.6310 0.6330 0.6330 0.6340 0.6340
1420.279512 0.6350 0.6360 0.6390 0.6400 0.6430
1424.887817 0.6440 0.6450 0.6450 0.6460 0.6460
1429.496122 0.6460 0.6490 0.6490 0.6500 0.6500
1434.104427 0.6500 0.6500 0.6500 0.6500 0.6490
1438.712732 0.6490 0.6490 0.6480 0.6480 0.6460
1443.321037 0.6450 0.6440 0.6410 0.6400 0.6390
1447.929343 0.6380 0.6350 0.6340 0.6340 0.6310
1452.537648 0.6310 0.6300 0.6300 0.6300 0.6300
1457.145953 0.6300 0.6310 0.6330 0.6330 0.6340
1461.754258 0.6340 0.6380 0.6430 0.6460 0.6500
1466.362563 0.6590 0.6660 0.6710 0.6760 0.6800
1470.970868 0.6870 0.6960 0.7070 0.7130 0.7200
1475.579174 0.7250 0.7320 0.7410 0.7430 0.7520
1480.187479 0.7560 0.7620 0.7680 0.7730 0.7760
1484.795784 0.7810 0.7880 0.7930 0.7970 0.7980
1489.404089 0.8020 0.8040 0.8120 0.8140 0.8150
1494.012394 0.8150 0.8180 0.8190 0.8230 0.8240
1498.620699 0.8270 0.8280 0.8300 0.8330 0.8340
1503.229005 0.8340 0.8340 0.8350 0.8370 0.8380
1507.837310 0.8430 0.8430 0.8440 0.8450 0.8470
1512.445615 0.8470 0.8470 0.8480 0.8490 0.8510
1517.053920 0.8530 0.8550 0.8550 0.8560 0.8560
1521.662225 0.8580 0.8590 0.8590 0.8590 0.8590
1526.270530 0.8600 0.8600 0.8600 0.8600 0.8610
1530.878836 0.8610 0.8630 0.8640 0.8640 0.8640
1535.487141 0.8640 0.8650 0.8650 0.8650 0.8650
1540.095446 0.8650 0.8650 0.8660 0.8680 0.8680
1544.703751 0.8680 0.8690 0.8690 0.8690 0.8700
1549.312056 0.8700 0.8700 0.8700 0.8700 0.8700
1553.920361 0.8710 0.8710 0.8710 0.8710 0.8710
1558.528667 0.8710 0.8710 0.8730 0.8730 0.8740
1563.136972 0.8740 0.8740 0.8740 0.8740 0.8740
1567.745277 0.8740 0.8740 0.8740 0.8740 0.8740
1572.353582 0.8750 0.8750 0.8750 0.8750 0.8750
1576.961887 0.8750 0.8750 0.8750 0.8750 0.8750
1581.570192 0.8760 0.8750 0.8750 0.8750 0.8750
1586.178498 0.8750 0.8760 0.8760 0.8750 0.8750
1590.786803 0.8740 0.8740 0.8750 0.8750 0.8750
1595.395108 0.8750 0.8760 0.8760 0.8760 0.8760
1600.003413 0.8760 0.8760 0.8750 0.8760 0.8760
1604.611718 0.8750 0.8750 0.8760 0.8780 0.8780
1609.220023 0.8780 0.8780 0.8780 0.8780 0.8780
1613.828329 0.8780 0.8780 0.8780 0.8790 0.8790
1618.436634 0.8790 0.8790 0.8790 0.8790 0.8790
1623.044939 0.8790 0.8790 0.8790 0.8790 0.8790
1627.653244 0.8790 0.8790 0.8790 0.8790 0.8790
1632.261549 0.8790 0.8790 0.8790 0.8790 0.8790
1636.869854 0.8790 0.8790 0.8790 0.8790 0.8790
1641.478160 0.8790 0.8790 0.8790 0.8790 0.8790
1646.086465 0.8800 0.8800 0.8800 0.8800 0.8800
1650.694770 0.8800 0.8800 0.8800 0.8800 0.8800
1655.303075 0.8800 0.8800 0.8800 0.8800 0.8800
1659.911380 0.8800 0.8800 0.8800 0.8810 0.8810
1664.519685 0.8810 0.8810 0.8830 0.8830 0.8830
1669.127990 0.8830 0.8840 0.8840 0.8850 0.8880
1673.736296 0.8890 0.8900 0.8900 0.8900 0.8900
1678.344601 0.8900 0.8900 0.8900 0.8910 0.8910
1682.952906 0.8930 0.8930 0.8930 0.8930 0.8930
1687.561211 0.8940 0.8940 0.8940 0.8940 0.8950
1692.169516 0.8950 0.8940 0.8940 0.8940 0.8940
1696.777821 0.8940 0.8940 0.8950 0.8950 0.8950
1701.386127 0.8940 0.8950 0.8950 0.8950 0.8950
1705.994432 0.8940 0.8940 0.8940 0.8940 0.8940
1710.602737 0.8940 0.8940 0.8940 0.8940 0.8940
1715.211042 0.8940 0.8940 0.8940 0.8940 0.8940
1719.819347 0.8940 0.8940 0.8940 0.8940 0.8940
1724.427652 0.8940 0.8940 0.8940 0.8940 0.8940
1729.035958 0.8940 0.8940 0.8940 0.8940 0.8940
1733.644263 0.8940 0.8940 0.8940 0.8940 0.8940
1738.252568 0.8940 0.8940 0.8940 0.8960 0.8960
1742.860873 0.8960 0.8960 0.8960 0.8960 0.8950
1747.469178 0.8950 0.8950 0.8950 0.8950 0.8960
1752.077483 0.8960 0.8960 0.8960 0.8950 0.8950
1756.685789 0.8950 0.8950 0.8950 0.8950 0.8950
1761.294094 0.8950 0.8960 0.8960 0.8960 0.8960
1765.902399 0.8960 0.8960 0.8960 0.8960 0.8960
1770.510704 0.8960 0.8960 0.8960 0.8960 0.8960
1775.119009 0.8960 0.8960 0.8960 0.8960 0.8960
1779.727314 0.8960 0.8960 0.8960 0.8960 0.8960
1784.335620 0.8960 0.8960 0.8960 0.8960 0.8960
1788.943925 0.8960 0.8940 0.8940 0.8940 0.8940
1793.552230 0.8940 0.8940 0.8940 0.8940 0.8940
1798.160535 0.8940 0.8940 0.8940 0.8940 0.8940
1802.768840 0.8940 0.8940 0.8940 0.8940 0.8940
1807.377145 0.8940 0.8940 0.8940 0.8940 0.8940
1811.985451 0.8940 0.8940 0.8940 0.8940 0.8940
1816.593756 0.8940 0.8940 0.8940 0.8940 0.8940
1821.202061 0.8940 0.8940 0.8940 0.8940 0.8940
1825.810366 0.8940 0.8940 0.8940 0.8940 0.8940
1830.418671 0.8940 0.8940 0.8940 0.8940 0.8940
1835.026976 0.8940 0.8940 0.8940 0.8940 0.8940
1839.635282 0.8940 0.8940 0.8930 0.8930 0.8940
1844.243587 0.8940 0.8940 0.8940 0.8940 0.8940
1848.851892 0.8940 0.8940 0.8940 0.8950 0.8950
1853.460197 0.8940 0.8940 0.8940 0.8940 0.8940
1858.068502 0.8940 0.8940 0.8940 0.8940 0.8930
1862.676807 0.8930 0.8940 0.8940 0.8940 0.8940
1867.285113 0.8930 0.8930 0.8930 0.8930 0.8930
1871.893418 0.8930 0.8930 0.8930 0.8930 0.8930
1876.501723 0.8930 0.8930 0.8930 0.8930 0.8930
1881.110028 0.8930 0.8930 0.8930 0.8930 0.8930
1885.718333 0.8930 0.8930 0.8930 0.8930 0.8930
1890.326638 0.8930 0.8930 0.8930 0.8930 0.8930
1894.934944 0.8930 0.8930 0.8930 0.8930 0.8930
1899.543249 0.8930 0.8930 0.8930 0.8940 0.8930
1904.151554 0.8930 0.8930 0.8930 0.8930 0.8930
1908.759859 0.8930 0.8930 0.8930 0.8930 0.8930
1913.368164 0.8930 0.8930 0.8930 0.8930 0.8930
1917.976469 0.8930 0.8930 0.8930 0.8930 0.8930
1922.584775 0.8930 0.8930 0.8930 0.8910 0.8910
1927.193080 0.8910 0.8910 0.8910 0.8910 0.8910
1931.801385 0.8910 0.8910 0.8910 0.8910 0.8910
1936.409690 0.8910 0.8910 0.8910 0.8910 0.8910
1941.017995 0.8910 0.8910 0.8910 0.8910 0.8910
1945.626300 0.8910 0.8910 0.8910 0.8910 0.8910
1950.234605 0.8910 0.8900 0.8900 0.8900 0.8910
1954.842911 0.8910 0.8900 0.8890 0.8890 0.8890
1959.451216 0.8890 0.8890 0.8890 0.8890 0.8890
1964.059521 0.8890 0.8890 0.8890 0.8890 0.8890
1968.667826 0.8910 0.8910 0.8910 0.8910 0.8890
1973.276131 0.8890 0.8890 0.8880 0.8880 0.8860
1977.884436 0.8860 0.8860 0.8860 0.8860 0.8850
1982.492742 0.8850 0.8850 0.8840 0.8840 0.8830
1987.101047 0.8830 0.8830 0.8830 0.8810 0.8810
1991.709352 0.8790 0.8760 0.8730 0.8700 0.8660
1996.317657 0.8630 0.8559 0.8140 0.8330 0.8701
2000.925962 0.8841 0.8980 0.8990 0.9000 0.9000
2005.534267 0.8998 0.8838 0.8680 0.8685 0.8691
2010.142573 0.8762 0.8830 0.8835 0.8840 0.8840
2014.750878 0.8840 0.8840 0.8840 0.8840 0.8840
2019.359183 0.8840 0.8840 0.8840 0.8840 0.8840
2023.967488 0.8840 0.8840 0.8840 0.8840 0.8840
2028.575793 0.8840 0.8840 0.8840 0.8840 0.8840
2033.184098 0.8840 0.8840 0.8840 0.8840 0.8840
2037.792404 0.8840 0.8840 0.8840 0.8840 0.8840
2042.400709 0.8840 0.8840 0.8840 0.8840 0.8840
2047.009014 0.8840 0.8840 0.8840 0.8840 0.8840
2051.617319 0.8840 0.8840 0.8840 0.8840 0.8840
2056.225624 0.8840 0.8840 0.8840 0.8840 0.8840
2060.833929 0.8840 0.8840 0.8840 0.8840 0.8840
2065.442235 0.8840 0.8840 0.8840 0.8840 0.8840
2070.050540 0.8840 0.8840 0.8840 0.8840 0.8840
2074.658845 0.8840 0.8840 0.8840 0.8840 0.8840
2079.267150 0.8841 0.8846 0.8850 0.8850 0.8850
2083.875455 0.8850 0.8850 0.8850 0.8850 0.8850
2088.483760 0.8850 0.8850 0.8850 0.8850 0.8850
2093.092066 0.8850 0.8850 0.8850 0.8850 0.8850
2097.700371 0.8850 0.8850 0.8850 0.8850 0.8850
2102.308676 0.8850 0.8850 0.8850 0.8850 0.8850
2106.916981 0.8850 0.8850 0.8850 0.8850 0.8850
2111.525286 0.8850 0.8850 0.8850 0.8850 0.8850
2116.133591 0.8850 0.8850 0.8850 0.8850 0.8850
2120.741897 0.8850 0.8850 0.8850 0.8850 0.8850
2125.350202 0.8850 0.8850 0.8850 0.8850 0.8850
2129.958507 0.8850 0.8850 0.8850 0.8850 0.8850
2134.566812 0.8850 0.8850 0.8850 0.8850 0.8848
2139.175117 0.8843 0.8840 0.8840 0.8840 0.8840
2143.783422 0.8838 0.8833 0.8830 0.8830 0.8830
2148.391728 0.8830 0.8830 0.8830 0.8830 0.8830
2153.000033 0.8830 0.8830 0.8830 0.8830 0.8830
2157.608338 0.8830 0.8830 0.8830 0.8830 0.8830
2162.216643 0.8830 0.8830 0.8830 0.8830 0.8830
2166.824948 0.8830 0.8830 0.8830 0.8830 0.8830
2171.433253 0.8830 0.8830 0.8830 0.8830 0.8830
2176.041559 0.8830 0.8830 0.8830 0.8830 0.8830
2180.649864 0.8830 0.8830 0.8830 0.8830 0.8830
2185.258169 0.8830 0.8830 0.8830 0.8830 0.8830
2189.866474 0.8830 0.8830 0.8825 0.8815 0.8810
2194.474779 0.8810 0.8810 0.8810 0.8810 0.8810
2199.083084 0.8810 0.8810 0.8810 0.8810 0.8810
2203.691390 0.8810 0.8810 0.8810 0.8810 0.8810
2208.299695 0.8810 0.8810 0.8810 0.8810 0.8810
2212.908000 0.8810 0.8810 0.8810 0.8810 0.8810
2217.516305 0.8810 0.8810 0.8810 0.8810 0.8810
2222.124610 0.8810 0.8810 0.8810 0.8810 0.8810
2226.732915 0.8810 0.8810 0.8810 0.8810 0.8810
2231.341220 0.8810 0.8810 0.8810 0.8810 0.8810
2235.949526 0.8807 0.8802 0.8800 0.8800 0.8800
2240.557831 0.8800 0.8800 0.8800 0.8797 0.8792
2245.166136 0.8790 0.8790 0.8790 0.8790 0.8790
2249.774441 0.8790 0.8790 0.8790 0.8790 0.8790
2254.382746 0.8790 0.8790 0.8790 0.8790 0.8790
2258.991051 0.8790 0.8790 0.8790 0.8786 0.8781
2263.599357 0.8780 0.8780 0.8773 0.8763 0.8756
2268.207662 0.8751 0.8746 0.8741 0.8740 0.8740
2272.815967 0.8736 0.8731 0.8730 0.8730 0.8730
2277.424272 0.8730 0.8730 0.8730 0.8730 0.8730
2282.032577 0.8722 0.8712 0.8710 0.8710 0.8710
2286.640882 0.8710 0.8710 0.8710 0.8706 0.8701
2291.249188 0.8700 0.8700 0.8700 0.8700 0.8700
2295.857493 0.8700 0.8696 0.8691 0.8690 0.8690
2300.465798 0.8690 0.8690 0.8690 0.8690 0.8690
2305.074103 0.8690 0.8690 0.8690 0.8686 0.8681
2309.682408 0.8680 0.8680 0.8680 0.8680 0.8680
2314.290713 0.8680 0.8680 0.8680 0.8680 0.8680
2318.899019 0.8680 0.8680 0.8680 0.8680 0.8680
2323.507324 0.8680 0.8680 0.8680 0.8680 0.8680
2328.115629 0.8680 0.8680 0.8680 0.8680 0.8680
2332.723934 0.8680 0.8680 0.8680 0.8680 0.8680
2337.332239 0.8680 0.8680 0.8680 0.8680 0.8680
2341.940544 0.8680 0.8671 0.8661 0.8660 0.8660
2346.548850 0.8660 0.8660 0.8660 0.8660 0.8660
2351.157155 0.8660 0.8660 0.8660 0.8660 0.8660
2355.765460 0.8660 0.8660 0.8660 0.8660 0.8660
2360.373765 0.8660 0.8670 0.8680 0.8680 0.8680
2364.982070 0.8670 0.8660 0.8660 0.8660 0.8660
2369.590375 0.8660 0.8660 0.8660 0.8660 0.8660
2374.198681 0.8660 0.8660 0.8660 0.8660 0.8655
2378.806986 0.8650 0.8650 0.8650 0.8650 0.8650
2383.415291 0.8650 0.8650 0.8650 0.8650 0.8650
2388.023596 0.8650 0.8650 0.8650 0.8650 0.8650
2392.631901 0.8650 0.8650 0.8650 0.8650 0.8645
2397.240206 0.8640 0.8640 0.8640 0.8640 0.8641
2401.848512 0.8646 0.8649 0.8644 0.8639 0.8634
2406.456817 0.8630 0.8630 0.8630 0.8630 0.8630
2411.065122 0.8630 0.8630 0.8630 0.8630 0.8630
2415.673427 0.8630 0.8630 0.8628 0.8618 0.8610
2420.281732 0.8610 0.8609 0.8604 0.8600 0.8600
2424.890037 0.8600 0.8600 0.8600 0.8600 0.8600
2429.498343 0.8600 0.8600 0.8600 0.8599 0.8594
2434.106648 0.8590 0.8590 0.8589 0.8584 0.8580
2438.714953 0.8580 0.8580 0.8580 0.8578 0.8568
2443.323258 0.8558 0.8548 0.8539 0.8534 0.8530
2447.931563 0.8530 0.8530 0.8530 0.8528 0.8518
2452.539868 0.8509 0.8504 0.8500 0.8500 0.8500
2457.148174 0.8500 0.8500 0.8500 0.8500 0.8500
2461.756479 0.8500 0.8500 0.8499 0.8494 0.8489
2466.364784 0.8484 0.8480 0.8480 0.8479 0.8474
2470.973089 0.8470 0.8470 0.8470 0.8470 0.8467
2475.581394 0.8457 0.8450 0.8450 0.8450 0.8450
2480.189699 0.8450 0.8450 0.8448 0.8443 0.8440
2484.798005 0.8440 0.8440 0.8440 0.8440 0.8440
2489.406310 0.8440 0.8440 0.8440 0.8440 0.8438
2494.014615 0.8433 0.8430 0.8430 0.8430 0.8430
2498.622920 0.8430 0.8430 0.8430 0.8430 0.8430
2503.231225 0.8430 0.8430 0.8430 0.8430 0.8430
2507.839530 0.8430 0.8430 0.8430 0.8430 0.8430
2512.447835 0.8430 0.8428 0.8423 0.8420 0.8420
2517.056141 0.8420 0.8420 0.8420 0.8420 0.8416
2521.664446 0.8406 0.8400 0.8400 0.8400 0.8400
2526.272751 0.8400 0.8400 0.8400 0.8400 0.8400
2530.881056 0.8400 0.8400 0.8400 0.8398 0.8393
2535.489361 0.8390 0.8390 0.8390 0.8390 0.8390
2540.097666 0.8390 0.8390 0.8390 0.8390 0.8390
2544.705972 0.8390 0.8390 0.8390 0.8390 0.8390
2549.314277 0.8390 0.8387 0.8382 0.8380 0.8380
2553.922582 0.8380 0.8380 0.8380 0.8380 0.8377
2558.530887 0.8372 0.8370 0.8370 0.8370 0.8370
2563.139192 0.8364 0.8354 0.8350 0.8350 0.8350
2567.747497 0.8350 0.8350 0.8350 0.8350 0.8350
2572.355803 0.8350 0.8350 0.8350 0.8350 0.8347
2576.964108 0.8342 0.8340 0.8340 0.8340 0.8340
2581.572413 0.8340 0.8340 0.8337 0.8332 0.8327
2586.180718 0.8322 0.8320 0.8320 0.8320 0.8320
2590.789023 0.8314 0.8304 0.8300 0.8300 0.8297
2595.397328 0.8292 0.8290 0.8290 0.8290 0.8290
2600.005634 0.8290 0.8290 0.8287 0.8282 0.8280
2604.613939 0.8280 0.8277 0.8272 0.8263 0.8253
2609.222244 0.8247 0.8242 0.8240 0.8240 0.8236
2613.830549 0.8231 0.8226 0.8221 0.8220 0.8220
2618.438854 0.8220 0.8220 0.8213 0.8203 0.8196
2623.047159 0.8191 0.8186 0.8181 0.8180 0.8180
2627.655465 0.8176 0.8171 0.8170 0.8170 0.8170
2632.263770 0.8170 0.8170 0.8170 0.8162 0.8152
2636.872075 0.8150 0.8150 0.8150 0.8150 0.8150
2641.480380 0.8150 0.8146 0.8141 0.8136 0.8131
2646.088685 0.8130 0.8130 0.8130 0.8130 0.8130
2650.696990 0.8130 0.8126 0.8121 0.8120 0.8120
2655.305296 0.8120 0.8120 0.8120 0.8120 0.8120
2659.913601 0.8120 0.8112 0.8102 0.8100 0.8100
2664.521906 0.8100 0.8100 0.8100 0.8100 0.8100
2669.130211 0.8100 0.8100 0.8100 0.8100 0.8100
2673.738516 0.8100 0.8100 0.8100 0.8100 0.8096
2678.346821 0.8091 0.8090 0.8090 0.8086 0.8081
2682.955127 0.8080 0.8080 0.8075 0.8070 0.8061
2687.563432 0.8051 0.8050 0.8050 0.8045 0.8040
2692.171737 0.8040 0.8040 0.8040 0.8040 0.8040
2696.780042 0.8040 0.8035 0.8030 0.8035 0.8040
2701.388347 0.8035 0.8030 0.8030 0.8030 0.8025
2705.996652 0.8020 0.8020 0.8020 0.8020 0.8020
2710.604958 0.8020 0.8020 0.8020 0.8020 0.8010
2715.213263 0.8000 0.8000 0.8000 0.8000 0.8000
2719.821568 0.8000 0.8000 0.8000 0.8000 0.8000
2724.429873 0.8000 0.8000 0.8000 0.8000 0.8000
2729.038178 0.8000 0.8000 0.8000 0.8000 0.8000
2733.646483 0.8000 0.7995 0.7990 0.7990 0.7990
2738.254789 0.7990 0.7990 0.7995 0.8000 0.8000
2742.863094 0.8000 0.8000 0.8000 0.7995 0.7988
2747.471399 0.7963 0.7937 0.7897 0.7859 0.7844
2752.079704 0.7830 0.7825 0.7819 0.7814 0.7809
2756.688009 0.7799 0.7789 0.7784 0.7779 0.7774
2761.296314 0.7769 0.7764 0.7759 0.7749 0.7740
2765.904620 0.7740 0.7739 0.7734 0.7729 0.7724
2770.512925 0.7719 0.7714 0.7708 0.7698 0.7689
2775.121230 0.7684 0.7679 0.7674 0.7670 0.7670
2779.729535 0.7668 0.7653 0.7638 0.7622 0.7607
2784.337840 0.7592 0.7579 0.7574 0.7567 0.7552
2788.946145 0.7537 0.7522 0.7507 0.7492 0.7478
2793.554451 0.7468 0.7459 0.7454 0.7448 0.7438
2798.162756 0.7429 0.7424 0.7419 0.7414 0.7406
2802.771061 0.7386 0.7368 0.7358 0.7345 0.7325
2807.379366 0.7307 0.7291 0.7274 0.7249 0.7226
2811.987671 0.7211 0.7194 0.7168 0.7143 0.7118
2816.595976 0.7095 0.7075 0.7060 0.7060 0.7056
2821.204281 0.7041 0.7026 0.7011 0.6994 0.6974
2825.812587 0.6953 0.6928 0.6904 0.6884 0.6865
2830.420892 0.6850 0.6834 0.6814 0.6794 0.6774
2835.029197 0.6757 0.6747 0.6732 0.6707 0.6682
2839.637502 0.6657 0.6627 0.6587 0.6550 0.6520
2844.245807 0.6497 0.6487 0.6473 0.6453 0.6426
2848.854112 0.6386 0.6345 0.6305 0.6262 0.6212
2853.462418 0.6163 0.6118 0.6079 0.6049 0.6009
2858.070723 0.5954 0.5886 0.5796 0.5719 0.5664
2862.679028 0.5620 0.5595 0.5572 0.5552 0.5536
2867.287333 0.5526 0.5516 0.5506 0.5500 0.5500
2871.895638 0.5500 0.5500 0.5504 0.5514 0.5522
2876.503943 0.5527 0.5530 0.5530 0.5532 0.5537
2881.112249 0.5540 0.5540 0.5542 0.5547 0.5550
2885.720554 0.5550 0.5550 0.5550 0.5550 0.5550
2890.328859 0.5548 0.5543 0.5540 0.5540 0.5538
2894.937164 0.5533 0.5528 0.5523 0.5508 0.5483
2899.545469 0.5460 0.5440 0.5417 0.5392 0.5370
2904.153774 0.5350 0.5322 0.5287 0.5267 0.5262
2908.762080 0.5252 0.5237 0.5204 0.5154 0.5114
2913.370385 0.5084 0.5062 0.5047 0.5040 0.5040
2917.978690 0.5037 0.5032 0.5030 0.5030 0.5027
2922.586995 0.5022 0.5020 0.5020 0.5023 0.5028
2927.195300 0.5030 0.5030 0.5033 0.5038 0.5049
2931.803605 0.5064 0.5076 0.5086 0.5125 0.5185
2936.411911 0.5261 0.5347 0.5405 0.5445 0.5500
2941.020216 0.5565 0.5618 0.5663 0.5708 0.5753
2945.628521 0.5773 0.5778 0.5780 0.5780 0.5780
2950.236826 0.5780 0.5777 0.5772 0.5764 0.5754
2954.845131 0.5724 0.5684 0.5614 0.5528 0.5427
2959.453436 0.5317 0.5193 0.5063 0.4970 0.4894
2964.061742 0.4867 0.4862 0.4863 0.4868 0.4880
2968.670047 0.4895 0.4921 0.4951 0.4984 0.5019
2973.278352 0.5068 0.5124 0.5186 0.5252 0.5324
2977.886657 0.5399 0.5474 0.5549 0.5660 0.5786
2982.494962 0.5915 0.6045 0.6190 0.6340 0.6475
2987.103267 0.6605 0.6725 0.6840 0.6944 0.7044
2991.711573 0.7130 0.7211 0.7287 0.7363 0.7418
2996.319878 0.7469 0.7511 0.7551 0.7568 0.7578
3000.928183 0.7615 0.7660 0.7674 0.7679 0.7680
3005.536488 0.7680 0.7680 0.7680 0.7680 0.7680
3010.144793 0.7680 0.7680 0.7676 0.7671 0.7670
3014.753098 0.7670 0.7666 0.7661 0.7660 0.7660
3019.361404 0.7660 0.7660 0.7652 0.7642 0.7632
3023.969709 0.7622 0.7620 0.7620 0.7616 0.7611
3028.578014 0.7601 0.7591 0.7590 0.7590 0.7586
3033.186319 0.7581 0.7576 0.7571 0.7566 0.7561
3037.794624 0.7551 0.7541 0.7540 0.7540 0.7527
3042.402929 0.7512 0.7506 0.7501 0.7491 0.7481
3047.011235 0.7471 0.7461 0.7460 0.7460 0.7455
3051.619540 0.7450 0.7441 0.7431 0.7425 0.7420
3056.227845 0.7415 0.7410 0.7405 0.7400 0.7391
3060.836150 0.7381 0.7371 0.7361 0.7346 0.7331
3065.444455 0.7320 0.7310 0.7295 0.7280 0.7270
3070.052760 0.7260 0.7245 0.7230 0.7215 0.7200
3074.661066 0.7180 0.7160 0.7135 0.7110 0.7105
3079.269371 0.7100 0.7080 0.7060 0.7045 0.7030
3083.877676 0.7015 0.6999 0.6974 0.6950 0.6935
3088.485981 0.6920 0.6905 0.6890 0.6875 0.6859
3093.094286 0.6839 0.6819 0.6804 0.6789 0.6774
3097.702591 0.6759 0.6739 0.6720 0.6710 0.6699
3102.310896 0.6679 0.6658 0.6633 0.6609 0.6588
3106.919202 0.6569 0.6559 0.6549 0.6534 0.6519
3111.527507 0.6504 0.6489 0.6474 0.6460 0.6455
3116.135812 0.6448 0.6423 0.6399 0.6389 0.6378
3120.744117 0.6352 0.6326 0.6291 0.6256 0.6226
3125.352422 0.6196 0.6166 0.6138 0.6123 0.6106
3129.960727 0.6076 0.6049 0.6039 0.6026 0.6001
3134.569033 0.5976 0.5951 0.5928 0.5913 0.5895
3139.177338 0.5859 0.5826 0.5801 0.5779 0.5774
3143.785643 0.5771 0.5776 0.5780 0.5780 0.5779
3148.393948 0.5774 0.5768 0.5758 0.5747 0.5732
3153.002253 0.5712 0.5672 0.5631 0.5586 0.5542
3157.610558 0.5501 0.5460 0.5415 0.5374 0.5349
3162.218864 0.5324 0.5299 0.5278 0.5268 0.5255
3166.827169 0.5235 0.5215 0.5195 0.5173 0.5143
3171.435474 0.5114 0.5089 0.5064 0.5039 0.5017
3176.043779 0.5007 0.4996 0.4981 0.4960 0.4925
3180.652084 0.4896 0.4881 0.4857 0.4812 0.4773
3185.260389 0.4748 0.4723 0.4698 0.4670 0.4635
3189.868695 0.4604 0.4584 0.4567 0.4557 0.4542
3194.477000 0.4517 0.4498 0.4493 0.4477 0.4437
3199.085305 0.4400 0.4370 0.4340 0.4310 0.4281
3203.693610 0.4256 0.4231 0.4206 0.4181 0.4156
3208.301915 0.4131 0.4106 0.4083 0.4063 0.4041
3212.910220 0.4016 0.3989 0.3959 0.3930 0.3905
3217.518526 0.3882 0.3862 0.3842 0.3822 0.3806
3222.126831 0.3796 0.3784 0.3769 0.3756 0.3746
3226.735136 0.3734 0.3719 0.3704 0.3689 0.3670
3231.343441 0.3644 0.3613 0.3573 0.3539 0.3514
3235.951746 0.3493 0.3478 0.3463 0.3448 0.3436
3240.560051 0.3426 0.3411 0.3391 0.3367 0.3336
3245.168357 0.3309 0.3284 0.3259 0.3234 0.3211
3249.776662 0.3191 0.3180 0.3180 0.3173 0.3158
3254.384967 0.3148 0.3143 0.3128 0.3103 0.3080
3258.993272 0.3060 0.3045 0.3035 0.3015 0.2985
3263.601577 0.2957 0.2932 0.2910 0.2890 0.2875
3268.209882 0.2865 0.2855 0.2845 0.2835 0.2825
3272.818188 0.2812 0.2797 0.2782 0.2767 0.2738
3277.426493 0.2698 0.2669 0.2649 0.2634 0.2624
3282.034798 0.2609 0.2589 0.2577 0.2572 0.2567
3286.643103 0.2562 0.2554 0.2544 0.2534 0.2524
3291.251408 0.2514 0.2504 0.2494 0.2484 0.2477
3295.859713 0.2472 0.2464 0.2454 0.2441 0.2426
3300.468019 0.2417 0.2412 0.2401 0.2386 0.2377
3305.076324 0.2372 0.2367 0.2362 0.2350 0.2335
3309.684629 0.2330 0.2330 0.2327 0.2322 0.2317
3314.292934 0.2312 0.2310 0.2310 0.2310 0.2310
3318.901239 0.2310 0.2310 0.2307 0.2302 0.2300
3323.509544 0.2300 0.2300 0.2300 0.2300 0.2300
3328.117850 0.2300 0.2300 0.2300 0.2300 0.2300
3332.726155 0.2300 0.2300 0.2300 0.2300 0.2300
3337.334460 0.2300 0.2300 0.2300 0.2300 0.2300
3341.942765 0.2300 0.2300 0.2300 0.2300 0.2300
3346.551070 0.2300 0.2300 0.2300 0.2300 0.2304
3351.159375 0.2309 0.2310 0.2310 0.2310 0.2310
3355.767681 0.2310 0.2310 0.2310 0.2310 0.2314
3360.375986 0.2319 0.2320 0.2320 0.2324 0.2329
3364.984291 0.2330 0.2330 0.2330 0.2330 0.2330
3369.592596 0.2330 0.2330 0.2330 0.2338 0.2348
3374.200901 0.2354 0.2359 0.2364 0.2369 0.2370
3378.809206 0.2370 0.2374 0.2379 0.2388 0.2398
3383.417511 0.2408 0.2418 0.2420 0.2420 0.2433
3388.025817 0.2448 0.2454 0.2459 0.2464 0.2469
3392.634122 0.2470 0.2470 0.2474 0.2479 0.2489
3397.242427 0.2499 0.2504 0.2509 0.2519 0.2529
3401.850732 0.2534 0.2539 0.2563 0.2588 0.2599
3406.459037 0.2609 0.2615 0.2620 0.2629 0.2639
3411.067342 0.2654 0.2669 0.2688 0.2708 0.2715
3415.675648 0.2720 0.2729 0.2739 0.2754 0.2769
3420.283953 0.2779 0.2789 0.2814 0.2839 0.2840
3424.892258 0.2840 0.2854 0.2869 0.2889 0.2909
3429.500563 0.2924 0.2939 0.2959 0.2979 0.2990
3434.108868 0.3000 0.3015 0.3030 0.3040 0.3050
3438.717173 0.3090 0.3130 0.3150 0.3170 0.3185
3443.325479 0.3200 0.3235 0.3270 0.3285 0.3300
3447.933784 0.3315 0.3330 0.3350 0.3370 0.3380
3452.542089 0.3391 0.3406 0.3421 0.3436 0.3451
3457.150394 0.3476 0.3502 0.3532 0.3561 0.3576
3461.758699 0.3593 0.3638 0.3681 0.3696 0.3711
3466.367004 0.3726 0.3742 0.3772 0.3802 0.3833
3470.975310 0.3864 0.3904 0.3942 0.3962 0.3981
3475.583615 0.3991 0.4001 0.4006 0.4014 0.4054
3480.191920 0.4096 0.4151 0.4206 0.4261 0.4312
3484.800225 0.4327 0.4343 0.4368 0.4394 0.4424
3489.408530 0.4453 0.4473 0.4494 0.4524 0.4554
3494.016835 0.4579 0.4605 0.4635 0.4666 0.4701
3498.625141 0.4736 0.4771 0.4807 0.4847 0.4887
3503.233446 0.4927 0.4967 0.5007 0.5047 0.5087
3507.841751 0.5129 0.5174 0.5217 0.5252 0.5288
3512.450056 0.5328 0.5365 0.5390 0.5416 0.5446
3517.058361 0.5477 0.5512 0.5551 0.5601 0.5649
3521.666666 0.5689 0.5727 0.5757 0.5780 0.5780
3526.274972 0.5787 0.5817 0.5848 0.5878 0.5911
3530.883277 0.5956 0.5998 0.6028 0.6057 0.6082
3535.491582 0.6108 0.6138 0.6165 0.6185 0.6215
3540.099887 0.6270 0.6328 0.6393 0.6450 0.6485
3544.708192 0.6516 0.6536 0.6558 0.6583 0.6606
3549.316497 0.6626 0.6649 0.6679 0.6709 0.6739
3553.924803 0.6768 0.6793 0.6820 0.6850 0.6875
3558.533108 0.6890 0.6910 0.6940 0.6968 0.6994
3563.141413 0.7028 0.7078 0.7119 0.7144 0.7169
3567.749718 0.7194 0.7221 0.7251 0.7279 0.7304
3572.358023 0.7331 0.7361 0.7395 0.7435 0.7473
3576.966328 0.7508 0.7536 0.7551 0.7571 0.7602
3581.574634 0.7630 0.7655 0.7684 0.7719 0.7746
3586.182939 0.7761 0.7774 0.7784 0.7804 0.7840
3590.791244 0.7873 0.7903 0.7924 0.7934 0.7951
3595.399549 0.7976 0.8003 0.8033 0.8061 0.8086
3600.007854 0.8109 0.8129 0.8149 0.8169 0.8194
3604.616159 0.8224 0.8249 0.8269 0.8289 0.8309
3609.224465 0.8327 0.8342 0.8359 0.8379 0.8397
3613.832770 0.8412 0.8427 0.8442 0.8457 0.8472
3618.441075 0.8483 0.8488 0.8495 0.8505 0.8518
3623.049380 0.8533 0.8545 0.8555 0.8565 0.8575
3627.657685 0.8583 0.8588 0.8595 0.8605 0.8623
3632.265990 0.8648 0.8671 0.8691 0.8703 0.8708
3636.874296 0.8716 0.8726 0.8733 0.8738 0.8740
3641.482601 0.8740 0.8746 0.8756 0.8766 0.8776
3646.090906 0.8780 0.8780 0.8780 0.8780 0.8780
3650.699211 0.8780 0.8780 0.8780 0.8783 0.8788
3655.307516 0.8790 0.8790 0.8790 0.8790 0.8790
3659.915821 0.8790 0.8793 0.8798 0.8800 0.8800
3664.524126 0.8797 0.8792 0.8790 0.8790 0.8790
3669.132432 0.8790 0.8793 0.8798 0.8800 0.8800
3673.740737 0.8797 0.8792 0.8790 0.8790 0.8790
3678.349042 0.8790 0.8793 0.8798 0.8800 0.8800
3682.957347 0.8800 0.8800 0.8800 0.8800 0.8800
3687.565652 0.8800 0.8800 0.8800 0.8800 0.8800
3692.173957 0.8800 0.8800 0.8800 0.8800 0.8800
3696.782263 0.8800 0.8800 0.8800 0.8800 0.8800
3701.390568 0.8804 0.8809 0.8803 0.8793 0.8790
3705.998873 0.8790 0.8790 0.8790 0.8790 0.8790
3710.607178 0.8790 0.8790 0.8790 0.8790 0.8790
3715.215483 0.8790 0.8790 0.8790 0.8790 0.8790
3719.823788 0.8790 0.8790 0.8790 0.8790 0.8790
3724.432094 0.8790 0.8790 0.8790 0.8790 0.8790
3729.040399 0.8790 0.8790 0.8790 0.8790 0.8790
3733.648704 0.8790 0.8790 0.8790 0.8794 0.8799
3738.257009 0.8800 0.8800 0.8800 0.8800 0.8800
3742.865314 0.8800 0.8800 0.8800 0.8800 0.8800
3747.473619 0.8800 0.8800 0.8800 0.8800 0.8800
3752.081925 0.8800 0.8800 0.8800 0.8800 0.8800
3756.690230 0.8804 0.8809 0.8810 0.8810 0.8810
3761.298535 0.8810 0.8806 0.8801 0.8800 0.8800
3765.906840 0.8800 0.8800 0.8800 0.8800 0.8800
3770.515145 0.8800 0.8800 0.8800 0.8805 0.8810
3775.123450 0.8810 0.8810 0.8810 0.8810 0.8810
3779.731756 0.8810 0.8805 0.8800 0.8805 0.8810
3784.340061 0.8810 0.8810 0.8810 0.8810 0.8810
3788.948366 0.8810 0.8810 0.8810 0.8805 0.8800
3793.556671 0.8800 0.8800 0.8800 0.8800
##END=
