##TITLE=17Beta-HYDROXYANDROST-4-EN-3-ONE, PROPIONATE
##JCAMP-DX=4.24
##DATA TYPE=INFRARED SPECTRUM
##CLASS=COBLENTZ III
##ORIGIN=THE WORCESTER FOUNDATION FOR EXPERIMENTAL BIOLOGY, Neal L. McNiven
##OWNER=COBLENTZ SOCIETY
Collection (C) 2018 copyright by the U.S. Secretary of Commerce
on behalf of the United States of America. All rights reserved.
##DATE=1964/06/17
##NAMES=3-oxoandrost-4-en-17-yl propionate
##CAS REGISTRY NO=57-85-2
##MOLFORM=C22 H32 O3
##SOURCE REFERENCE=COBLENTZ NO. 5426
##$NIST SOURCE=COBLENTZ
##$NIST IMAGE=cob5426
##SPECTROMETER/DATA SYSTEM=BECKMAN IR-7
##STATE=SOLID (KBr DISC)
##SAMPLING PROCEDURE=TRANSMISSION
##RESOLUTION=4
##DATA PROCESSING=DIGITIZED BY NIST FROM HARD COPY (FROM TWO SEGMENTS)
##XUNITS=1/CM
##YUNITS=TRANSMITTANCE
##XFACTOR=1.000000
##YFACTOR=1
##DELTAX=0.729547
##FIRSTX=597.811
##LASTX=4014.28
##FIRSTY=0.764
##MAXX=4014.28
##MINX=597.811
##MAXY=1.006
##MINY=0.001
##NPOINTS=4684
##XYDATA=(X++(Y..Y))
597.811000 0.7640 0.7630 0.7570 0.7131 0.6940
601.458736 0.6890 0.6790 0.6690 0.6590 0.6500
605.106473 0.6420 0.6360 0.6320 0.6290 0.6280
608.754209 0.6290 0.6300 0.6350 0.6410 0.6440
612.401945 0.6470 0.6490 0.6510 0.6520 0.6520
616.049682 0.6520 0.6530 0.6540 0.6550 0.6580
619.697418 0.6610 0.6700 0.6760 0.6810 0.6840
623.345154 0.6850 0.6870 0.6870 0.6880 0.6890
626.992891 0.6910 0.6940 0.6980 0.7020 0.7050
630.640627 0.7090 0.7130 0.7170 0.7200 0.7240
634.288363 0.7260 0.7300 0.7320 0.7350 0.7370
637.936100 0.7380 0.7430 0.7480 0.7540 0.7590
641.583836 0.7660 0.7710 0.7770 0.7820 0.7870
645.231573 0.7910 0.7940 0.7960 0.7970 0.8000
648.879309 0.8050 0.8090 0.8130 0.8160 0.8210
652.527045 0.8260 0.8310 0.8380 0.8460 0.8500
656.174782 0.8510 0.8510 0.8510 0.8510 0.8490
659.822518 0.8480 0.8460 0.8460 0.8470 0.8470
663.470254 0.8510 0.8540 0.8560 0.8560 0.8560
667.117991 0.8570 0.8570 0.8570 0.8590 0.8660
670.765727 0.8800 0.8900 0.8980 0.9020 0.9060
674.413463 0.9070 0.9150 0.9150 0.9170 0.9170
678.061200 0.9160 0.9090 0.9080 0.8970 0.8910
681.708936 0.8870 0.8830 0.8721 0.8541 0.8252
685.356672 0.8030 0.7800 0.7171 0.6891 0.6830
689.004409 0.6830 0.7149 0.7568 0.8237 0.8538
692.652145 0.8790 0.8980 0.9130 0.9250 0.9340
696.299881 0.9410 0.9490 0.9560 0.9650 0.9750
699.947618 0.9760 0.9760 0.9750 0.9750 0.9740
703.595354 0.9730 0.9720 0.9730 0.9760 0.9810
707.243090 0.9850 0.9870 0.9890 0.9900 0.9920
710.890827 0.9900 0.9870 0.9840 0.9810 0.9790
714.538563 0.9810 0.9850 0.9890 0.9910 0.9950
718.186300 1.0000 1.0000 1.0010 1.0020 1.0000
721.834036 1.0000 1.0000 0.9990 0.9970 0.9930
725.481772 0.9910 0.9900 0.9900 0.9900 0.9910
729.129509 0.9950 1.0050 1.0050 1.0050 1.0060
732.777245 1.0050 1.0000 0.9970 0.9940 0.9920
736.424981 0.9900 0.9890 0.9870 0.9860 0.9830
740.072718 0.9810 0.9800 0.9810 0.9810 0.9820
743.720454 0.9820 0.9830 0.9840 0.9840 0.9840
747.368190 0.9850 0.9860 0.9860 0.9860 0.9860
751.015927 0.9890 0.9920 0.9920 0.9910 0.9890
754.663663 0.9860 0.9860 0.9830 0.9820 0.9830
758.311399 0.9840 0.9870 0.9890 0.9920 0.9940
761.959136 0.9970 1.0000 1.0010 1.0020 1.0010
765.606872 1.0000 0.9970 0.9960 0.9920 0.9910
769.254608 0.9870 0.9810 0.9720 0.9620 0.9530
772.902345 0.9240 0.8831 0.8551 0.8241 0.8090
776.550081 0.7931 0.7801 0.7322 0.8295 0.8569
780.197817 0.8700 0.8930 0.9230 0.9450 0.9679
783.845554 0.9810 0.9840 0.9850 0.9860 0.9870
787.493290 0.9860 0.9840 0.9840 0.9840 0.9810
791.141027 0.9800 0.9790 0.9780 0.9780 0.9780
794.788763 0.9760 0.9760 0.9750 0.9710 0.9650
798.436499 0.9311 0.9121 0.8941 0.8761 0.8581
802.084236 0.8400 0.8220 0.8040 0.7950 0.7860
805.731972 0.7531 0.7480 0.7480 0.7550 0.7998
809.379708 0.8160 0.8310 0.8460 0.8600 0.8740
813.027445 0.8860 0.8980 0.9090 0.9180 0.9260
816.675181 0.9320 0.9360 0.9380 0.9390 0.9390
820.322917 0.9380 0.9280 0.9280 0.9230 0.9150
823.970654 0.9040 0.8930 0.8830 0.8750 0.8720
827.618390 0.8610 0.8590 0.8590 0.8630 0.8670
831.266126 0.8670 0.8640 0.8560 0.8450 0.8350
834.913863 0.8240 0.8140 0.8030 0.7980 0.7920
838.561599 0.7920 0.8459 0.8520 0.8879 0.9040
842.209335 0.9279 0.9280 0.9280 0.9280 0.9270
845.857072 0.9250 0.9240 0.9230 0.9220 0.9200
849.504808 0.9200 0.9180 0.9170 0.9150 0.9110
853.152544 0.9080 0.9040 0.8531 0.8271 0.8021
856.800281 0.7900 0.7770 0.7521 0.7261 0.6196
860.448017 0.5140 0.4081 0.3031 0.2631 0.2630
864.095754 0.3408 0.4038 0.4449 0.5217 0.5698
867.743490 0.6110 0.6180 0.6250 0.6380 0.6729
871.391226 0.7049 0.7339 0.7609 0.8088 0.8279
875.038963 0.8450 0.8590 0.8720 0.8800 0.8870
878.686699 0.8910 0.8980 0.9010 0.8990 0.8980
882.334435 0.8980 0.8970 0.8960 0.8960 0.8790
885.982172 0.8461 0.8131 0.8040 0.7950 0.7761
889.629908 0.7480 0.7190 0.6910 0.6910 0.6990
893.277644 0.7399 0.8048 0.8249 0.8399 0.8519
896.925381 0.8590 0.8660 0.8720 0.8790 0.8890
900.573117 0.9030 0.9210 0.9240 0.9240 0.9240
904.220853 0.9160 0.9090 0.9060 0.9010 0.8960
907.868590 0.8910 0.8770 0.8770 0.8730 0.8720
911.516326 0.8710 0.8700 0.8690 0.8650 0.8590
915.164062 0.8500 0.8420 0.8410 0.8430 0.8480
918.811799 0.8550 0.8600 0.8670 0.8740 0.8820
922.459535 0.8880 0.8880 0.8890 0.8900 0.8890
926.107271 0.8750 0.8620 0.8560 0.8460 0.8380
929.755008 0.8290 0.8280 0.8290 0.8290 0.8290
933.402744 0.8280 0.8260 0.8060 0.7930 0.7800
937.050481 0.7212 0.6522 0.6311 0.6121 0.5941
940.698217 0.5570 0.5190 0.5190 0.5999 0.6250
944.345953 0.6479 0.6759 0.7059 0.7249 0.7708
947.993690 0.7740 0.7740 0.7710 0.7460 0.7310
951.641426 0.7160 0.7020 0.6781 0.6651 0.6590
955.289162 0.6590 0.6990 0.7000 0.6970 0.6760
958.936899 0.6740 0.6750 0.6870 0.6980 0.7030
962.584635 0.7160 0.7280 0.7290 0.7240 0.7180
966.232371 0.7140 0.7140 0.7240 0.7340 0.7430
969.880108 0.7530 0.7620 0.7940 0.7970 0.7980
973.527844 0.8000 0.8010 0.8010 0.8010 0.8010
977.175580 0.8010 0.8010 0.8010 0.7990 0.7970
980.823317 0.7900 0.7850 0.7750 0.7650 0.7610
984.471053 0.7420 0.7170 0.6930 0.6780 0.6770
988.118789 0.6780 0.6920 0.6970 0.7060 0.7279
991.766526 0.7290 0.7290 0.7210 0.7070 0.7020
995.414262 0.6960 0.6821 0.6681 0.6571 0.6550
999.061998 0.6410 0.6400 0.6760 0.7149 0.7150
1002.709735 0.7140 0.7120 0.7080 0.7030 0.6970
1006.357471 0.6890 0.6840 0.6700 0.6470 0.6200
1010.005208 0.6040 0.5870 0.5511 0.5151 0.4791
1013.652944 0.4440 0.4180 0.3920 0.3680 0.3411
1017.300680 0.3141 0.2861 0.2591 0.2321 0.2320
1020.948417 0.2590 0.2870 0.3140 0.3280 0.3310
1024.596153 0.3390 0.3550 0.3729 0.4139 0.4359
1028.243889 0.4580 0.4790 0.4980 0.5160 0.5300
1031.891626 0.5310 0.5310 0.5300 0.4902 0.4562
1035.539362 0.4240 0.4100 0.3950 0.3640 0.3301
1039.187098 0.2911 0.2780 0.2611 0.2441 0.2251
1042.834835 0.2250 0.2380 0.2490 0.2600 0.2700
1046.482571 0.2889 0.3109 0.3518 0.4227 0.4529
1050.130307 0.4820 0.5060 0.5280 0.5480 0.5640
1053.778044 0.5800 0.6019 0.6100 0.6160 0.6200
1057.425780 0.6220 0.6220 0.6200 0.6070 0.6010
1061.073516 0.5940 0.5810 0.5671 0.5491 0.5251
1064.721253 0.4960 0.4580 0.4090 0.3920 0.3760
1068.368989 0.3560 0.3460 0.3390 0.3290 0.3111
1072.016725 0.2780 0.2500 0.2340 0.2250 0.2170
1075.664462 0.2080 0.2040 0.1990 0.1910 0.1900
1079.312198 0.1890 0.1900 0.2050 0.2220 0.2390
1082.959935 0.2550 0.2749 0.2979 0.3229 0.3509
1086.607671 0.4080 0.4360 0.4630 0.4879 0.5089
1090.255407 0.5269 0.5429 0.5490 0.5490 0.5500
1093.903144 0.5490 0.5240 0.5240 0.5270 0.5549
1097.550880 0.5730 0.6099 0.6279 0.6439 0.6599
1101.198616 0.6720 0.6810 0.6870 0.6890 0.6900
1104.846353 0.6940 0.6950 0.6940 0.6870 0.6850
1108.494089 0.6810 0.6600 0.6280 0.6120 0.6040
1112.141825 0.5940 0.5761 0.5591 0.5411 0.5221
1115.789562 0.5050 0.5050 0.5190 0.5350 0.5500
1119.437298 0.5650 0.5799 0.6039 0.6149 0.6240
1123.085034 0.6370 0.6540 0.6710 0.6720 0.6720
1126.732771 0.6570 0.6391 0.6201 0.6011 0.5910
1130.380507 0.5820 0.5620 0.5620 0.6080 0.6260
1134.028243 0.6410 0.6550 0.6680 0.6800 0.6920
1137.675980 0.7020 0.7100 0.7170 0.7210 0.7260
1141.323716 0.7270 0.7310 0.7320 0.7320 0.7320
1144.971452 0.7320 0.7320 0.7320 0.7320 0.7310
1148.619189 0.7280 0.7180 0.7011 0.6761 0.6750
1152.266925 0.6750 0.6760 0.6770 0.6780 0.6790
1155.914662 0.6810 0.6820 0.6840 0.6840 0.6840
1159.562398 0.6810 0.6770 0.6730 0.6680 0.6670
1163.210134 0.6630 0.6580 0.6530 0.6470 0.6410
1166.857871 0.6330 0.6230 0.6110 0.6040 0.5970
1170.505607 0.5800 0.5621 0.5381 0.5171 0.4921
1174.153343 0.4660 0.4390 0.4110 0.3980 0.3850
1177.801080 0.3611 0.3391 0.3201 0.3051 0.2731
1181.448816 0.2560 0.2400 0.2250 0.2250 0.2330
1185.096552 0.2420 0.2510 0.2699 0.2839 0.2940
1188.744289 0.2990 0.3050 0.3100 0.3220 0.3250
1192.392025 0.3270 0.3310 0.3350 0.3390 0.3440
1196.039761 0.3500 0.3550 0.3600 0.3670 0.3730
1199.687498 0.3790 0.3850 0.3860 0.3860 0.3860
1203.335234 0.3860 0.3850 0.3670 0.3570 0.3500
1206.982970 0.3450 0.3390 0.3310 0.3190 0.3001
1210.630707 0.2730 0.2360 0.2140 0.2080 0.2000
1214.278443 0.1960 0.1910 0.1830 0.1750 0.1670
1217.926179 0.1590 0.1510 0.1430 0.1430 0.1510
1221.573916 0.1590 0.1600 0.1580 0.1431 0.1350
1225.221652 0.1290 0.1190 0.1080 0.1000 0.0900
1228.869389 0.0900 0.0910 0.0950 0.0980 0.1060
1232.517125 0.1140 0.1140 0.1120 0.1020 0.0990
1236.164861 0.0950 0.0940 0.0910 0.0870 0.0870
1239.812598 0.0860 0.0870 0.0900 0.0930 0.0980
1243.460334 0.1060 0.1140 0.1230 0.1300 0.1400
1247.108070 0.1400 0.1320 0.1190 0.1170 0.1170
1250.755807 0.1300 0.1410 0.1430 0.1510 0.1689
1254.403543 0.1690 0.1690 0.1690 0.1680 0.1670
1258.051279 0.1670 0.1640 0.1610 0.1590 0.1510
1261.699016 0.1430 0.1370 0.1370 0.1270 0.1190
1265.346752 0.1120 0.1060 0.0990 0.0910 0.0830
1268.994488 0.0820 0.0820 0.0910 0.1000 0.1060
1272.642225 0.1240 0.1430 0.1609 0.1799 0.2178
1276.289961 0.2390 0.2610 0.2830 0.3070 0.3339
1279.937697 0.3599 0.4268 0.4529 0.4600 0.4600
1283.585434 0.4590 0.4580 0.4320 0.4150 0.4070
1287.233170 0.3990 0.3830 0.3670 0.3521 0.3520
1290.880906 0.4200 0.4580 0.4920 0.5200 0.5449
1294.528643 0.5659 0.6019 0.6179 0.6329 0.6489
1298.176379 0.6620 0.6630 0.6630 0.6600 0.6470
1301.824116 0.6250 0.6130 0.6060 0.5980 0.5741
1305.471852 0.5500 0.5500 0.5620 0.5740 0.5860
1309.119588 0.6279 0.6280 0.6101 0.6040 0.5980
1312.767325 0.5580 0.5420 0.5240 0.5060 0.4880
1316.415061 0.4690 0.4510 0.4351 0.4350 0.4579
1320.062797 0.4790 0.5000 0.5190 0.5190 0.5000
1323.710534 0.4900 0.4780 0.4491 0.4171 0.4080
1327.358270 0.3980 0.3720 0.3470 0.3470 0.3610
1331.006006 0.3750 0.4029 0.4170 0.4309 0.4420
1334.653743 0.4610 0.4840 0.5150 0.5420 0.5670
1338.301479 0.5670 0.5680 0.5680 0.5670 0.5331
1341.949215 0.5220 0.5070 0.4830 0.4810 0.4730
1345.596952 0.4700 0.4590 0.4490 0.4390 0.4280
1349.244688 0.4170 0.4170 0.4320 0.4820 0.4930
1352.892424 0.5030 0.5220 0.5360 0.5460 0.5510
1356.540161 0.5560 0.5590 0.5610 0.5780 0.6030
1360.187897 0.6120 0.6230 0.6310 0.6410 0.6529
1363.835633 0.6660 0.6760 0.6760 0.6760 0.6670
1367.483370 0.6550 0.6470 0.6330 0.6200 0.6070
1371.131106 0.6010 0.5950 0.5890 0.5730 0.5660
1374.778842 0.5600 0.5600 0.5720 0.5720 0.5690
1378.426579 0.5620 0.5220 0.4760 0.4530 0.4290
1382.074315 0.4280 0.4260 0.4130 0.4060 0.3980
1385.722052 0.3890 0.3750 0.3610 0.3610 0.4089
1389.369788 0.4788 0.5249 0.5569 0.5779 0.6178
1393.017524 0.6470 0.6630 0.6770 0.6880 0.6970
1396.665261 0.7050 0.7100 0.7160 0.7190 0.7240
1400.312997 0.7270 0.7310 0.7340 0.7390 0.7390
1403.960733 0.7400 0.7390 0.7380 0.7340 0.7290
1407.608470 0.7220 0.7140 0.7050 0.6940 0.6830
1411.256206 0.6700 0.6560 0.6410 0.6251 0.6091
1414.903942 0.6000 0.5910 0.5720 0.5520 0.5360
1418.551679 0.5350 0.5360 0.5430 0.5510 0.5580
1422.199415 0.5650 0.5710 0.5730 0.5730 0.5740
1425.847151 0.5510 0.5390 0.5191 0.4333 0.4111
1429.494888 0.4000 0.3890 0.3680 0.3470 0.3470
1433.142624 0.3630 0.3780 0.3850 0.4059 0.4199
1436.790360 0.4360 0.4540 0.4590 0.4590 0.4560
1440.438097 0.4440 0.4360 0.4181 0.4011 0.3970
1444.085833 0.3920 0.3750 0.3550 0.3270 0.3000
1447.733569 0.3000 0.3030 0.3200 0.3379 0.3500
1451.381306 0.3580 0.3630 0.3680 0.3710 0.3740
1455.029042 0.3800 0.3999 0.4030 0.4050 0.4060
1458.676779 0.4070 0.4080 0.4110 0.4130 0.4200
1462.324515 0.4280 0.4420 0.4540 0.4640 0.4720
1465.972251 0.4800 0.4880 0.4970 0.5320 0.5639
1469.619988 0.6209 0.6459 0.6689 0.6889 0.7079
1473.267724 0.7260 0.7410 0.7550 0.7670 0.7780
1476.915460 0.7880 0.8050 0.8110 0.8180 0.8230
1480.563197 0.8320 0.8390 0.8440 0.8480 0.8510
1484.210933 0.8530 0.8520 0.8540 0.8560 0.8570
1487.858669 0.8580 0.8610 0.8630 0.8650 0.8670
1491.506406 0.8700 0.8720 0.8750 0.8760 0.8780
1495.154142 0.8800 0.8810 0.8820 0.8820 0.8820
1498.801878 0.8840 0.8840 0.8840 0.8840 0.8850
1502.449615 0.8860 0.8870 0.8870 0.8870 0.8870
1506.097351 0.8870 0.8870 0.8870 0.8880 0.8880
1509.745087 0.8880 0.8880 0.8890 0.8900 0.8900
1513.392824 0.8910 0.8910 0.8910 0.8910 0.8920
1517.040560 0.8920 0.8910 0.8910 0.8920 0.8920
1520.688296 0.8930 0.8920 0.8920 0.8930 0.8930
1524.336033 0.8930 0.8930 0.8930 0.8930 0.8930
1527.983769 0.8930 0.8930 0.8920 0.8910 0.8910
1531.631506 0.8900 0.8890 0.8890 0.8890 0.8890
1535.279242 0.8890 0.8870 0.8870 0.8860 0.8840
1538.926978 0.8830 0.8810 0.8780 0.8760 0.8690
1542.574715 0.8620 0.8600 0.8580 0.8540 0.8510
1546.222451 0.8510 0.8470 0.8440 0.8380 0.8360
1549.870187 0.8370 0.8480 0.8510 0.8540 0.8560
1553.517924 0.8570 0.8590 0.8610 0.8640 0.8670
1557.165660 0.8700 0.8780 0.8780 0.8770 0.8750
1560.813396 0.8730 0.8700 0.8670 0.8640 0.8620
1564.461133 0.8610 0.8600 0.8590 0.8590 0.8570
1568.108869 0.8550 0.8520 0.8480 0.8450 0.8400
1571.756605 0.8350 0.8300 0.8240 0.8190 0.8130
1575.404342 0.8060 0.8030 0.7990 0.7920 0.7840
1579.052078 0.7770 0.7680 0.7620 0.7570 0.7530
1582.699814 0.7500 0.7490 0.7480 0.7470 0.7460
1586.347551 0.7450 0.7440 0.7420 0.7390 0.7340
1589.995287 0.7290 0.7210 0.7130 0.7010 0.6870
1593.643023 0.6700 0.6501 0.6281 0.6011 0.5861
1597.290760 0.5710 0.5370 0.4980 0.4560 0.4081
1600.938496 0.3810 0.3551 0.3151 0.2462 0.2281
1604.586233 0.2100 0.2010 0.1920 0.1750 0.1570
1608.233969 0.1570 0.1740 0.2009 0.2060 0.2160
1611.881705 0.2320 0.2520 0.2760 0.3020 0.3300
1615.529442 0.3590 0.4159 0.4409 0.4639 0.4819
1619.177178 0.4970 0.5050 0.5330 0.5480 0.5490
1622.824914 0.5490 0.5490 0.5480 0.5460 0.5440
1626.472651 0.5380 0.5340 0.5330 0.5310 0.5220
1630.120387 0.5110 0.4970 0.4900 0.4770 0.4640
1633.768123 0.4500 0.4370 0.4240 0.4110 0.4050
1637.415860 0.3980 0.3860 0.3740 0.3611 0.3501
1641.063596 0.3390 0.3280 0.3180 0.3090 0.3000
1644.711332 0.2920 0.2850 0.2780 0.2730 0.2690
1648.359069 0.2660 0.2630 0.2250 0.2080 0.1900
1652.006805 0.1601 0.1341 0.1111 0.0911 0.0741
1655.654541 0.0610 0.0480 0.0390 0.0310 0.0230
1659.302278 0.0180 0.0130 0.0070 0.0060 0.0040
1662.950014 0.0020 0.0020 0.0020 0.0020 0.0010
1666.597750 0.0010 0.0020 0.0020 0.0030 0.0040
1670.245487 0.0070 0.0070 0.0250 0.0420 0.0640
1673.893223 0.0690 0.0840 0.0980 0.1129 0.1329
1677.540960 0.1560 0.1780 0.2190 0.2370 0.2550
1681.188696 0.2720 0.2870 0.3020 0.3160 0.3300
1684.836432 0.3420 0.3550 0.3660 0.3770 0.3870
1688.484169 0.4070 0.4160 0.4200 0.4260 0.4549
1692.131905 0.4580 0.4760 0.4810 0.4910 0.5030
1695.779641 0.5190 0.5370 0.5470 0.5530 0.5620
1699.427378 0.5620 0.5620 0.5620 0.5620 0.5620
1703.075114 0.5430 0.5390 0.5310 0.5210 0.5110
1706.722850 0.4930 0.4670 0.4380 0.4050 0.3870
1710.370587 0.3700 0.3341 0.3001 0.2691 0.2411
1714.018323 0.2090 0.1770 0.1300 0.0990 0.0790
1717.666059 0.0660 0.0580 0.0500 0.0420 0.0340
1721.313796 0.0310 0.0270 0.0220 0.0210 0.0220
1724.961532 0.0230 0.0250 0.0270 0.0300 0.0320
1728.609268 0.0370 0.0400 0.0740 0.0910 0.1130
1732.257005 0.1340 0.1500 0.1669 0.2218 0.2568
1735.904741 0.2890 0.3210 0.3510 0.4080 0.4340
1739.552477 0.4590 0.4820 0.5059 0.5269 0.5469
1743.200214 0.5660 0.6010 0.6170 0.6320 0.6460
1746.847950 0.6580 0.6710 0.6810 0.6920 0.7010
1750.495687 0.7090 0.7170 0.7240 0.7290 0.7340
1754.143423 0.7390 0.7500 0.7580 0.7660 0.7710
1757.791159 0.7770 0.7800 0.7840 0.7860 0.7890
1761.438896 0.7910 0.7940 0.7960 0.8000 0.8010
1765.086632 0.8030 0.8050 0.8060 0.8080 0.8090
1768.734368 0.8110 0.8120 0.8140 0.8140 0.8160
1772.382105 0.8170 0.8180 0.8190 0.8200 0.8210
1776.029841 0.8210 0.8270 0.8320 0.8360 0.8400
1779.677577 0.8430 0.8460 0.8480 0.8510 0.8520
1783.325314 0.8540 0.8560 0.8570 0.8590 0.8620
1786.973050 0.8640 0.8670 0.8710 0.8750 0.8750
1790.620786 0.8760 0.8770 0.8770 0.8770 0.8780
1794.268523 0.8790 0.8790 0.8800 0.8810 0.8820
1797.916259 0.8830 0.8840 0.8850 0.8860 0.8880
1801.563995 0.8900 0.8920 0.8930 0.8960 0.8970
1805.211732 0.8990 0.9010 0.9040 0.9060 0.9070
1808.859468 0.9090 0.9120 0.9140 0.9150 0.9170
1812.507204 0.9200 0.9210 0.9230 0.9250 0.9260
1816.154941 0.9280 0.9290 0.9310 0.9320 0.9330
1819.802677 0.9330 0.9350 0.9350 0.9360 0.9360
1823.450414 0.9360 0.9360 0.9370 0.9380 0.9410
1827.098150 0.9410 0.9410 0.9410 0.9410 0.9420
1830.745886 0.9430 0.9430 0.9440 0.9440 0.9440
1834.393623 0.9440 0.9440 0.9450 0.9440 0.9450
1838.041359 0.9460 0.9450 0.9460 0.9460 0.9470
1841.689095 0.9480 0.9490 0.9490 0.9490 0.9490
1845.336832 0.9490 0.9490 0.9490 0.9490 0.9490
1848.984568 0.9490 0.9490 0.9480 0.9470 0.9470
1852.632304 0.9470 0.9470 0.9460 0.9460 0.9460
1856.280041 0.9460 0.9450 0.9440 0.9430 0.9410
1859.927777 0.9410 0.9410 0.9410 0.9410 0.9410
1863.575513 0.9410 0.9410 0.9420 0.9420 0.9420
1867.223250 0.9420 0.9420 0.9430 0.9430 0.9440
1870.870986 0.9440 0.9440 0.9440 0.9440 0.9420
1874.518722 0.9410 0.9410 0.9400 0.9400 0.9400
1878.166459 0.9390 0.9390 0.9390 0.9390 0.9390
1881.814195 0.9390 0.9380 0.9380 0.9380 0.9380
1885.461931 0.9400 0.9410 0.9410 0.9410 0.9430
1889.109668 0.9440 0.9460 0.9460 0.9460 0.9460
1892.757404 0.9460 0.9460 0.9460 0.9450 0.9440
1896.405141 0.9430 0.9420 0.9410 0.9410 0.9410
1900.052877 0.9410 0.9410 0.9410 0.9420 0.9420
1903.700613 0.9420 0.9430 0.9440 0.9440 0.9440
1907.348350 0.9440 0.9440 0.9450 0.9450 0.9460
1910.996086 0.9460 0.9460 0.9470 0.9470 0.9470
1914.643822 0.9480 0.9480 0.9490 0.9490 0.9490
1918.291559 0.9490 0.9490 0.9490 0.9490 0.9490
1921.939295 0.9490 0.9490 0.9490 0.9490 0.9490
1925.587031 0.9490 0.9490 0.9480 0.9480 0.9480
1929.234768 0.9470 0.9470 0.9470 0.9470 0.9470
1932.882504 0.9470 0.9470 0.9470 0.9470 0.9460
1936.530240 0.9460 0.9460 0.9460 0.9460 0.9460
1940.177977 0.9460 0.9460 0.9460 0.9460 0.9450
1943.825713 0.9450 0.9450 0.9440 0.9430 0.9420
1947.473449 0.9410 0.9410 0.9410 0.9410 0.9410
1951.121186 0.9410 0.9400 0.9390 0.9380 0.9380
1954.768922 0.9380 0.9380 0.9380 0.9380 0.9380
1958.416658 0.9380 0.9380 0.9380 0.9380 0.9380
1962.064395 0.9380 0.9380 0.9390 0.9390 0.9390
1965.712131 0.9390 0.9390 0.9390 0.9390 0.9390
1969.359868 0.9390 0.9390 0.9380 0.9380 0.9380
1973.007604 0.9380 0.9380 0.9380 0.9380 0.9380
1976.655340 0.9370 0.9370 0.9360 0.9360 0.9360
1980.303077 0.9360 0.9360 0.9360 0.9360 0.9360
1983.950813 0.9350 0.9350 0.9340 0.9340 0.9340
1987.598549 0.9330 0.9330 0.9330 0.9330 0.9330
1991.246286 0.9330 0.9330 0.9330 0.9330 0.9320
1994.894022 0.9320 0.9320 0.9320 0.9320 0.9320
1998.541758 0.9320 0.9310 0.9310 0.9310 0.9310
2002.189495 0.9310 0.9310 0.9310 0.9310 0.9310
2005.837231 0.9310 0.9310 0.9310 0.9310 0.9310
2009.484967 0.9307 0.9305 0.9302 0.9300 0.9300
2013.132704 0.9300 0.9300 0.9300 0.9300 0.9300
2016.780440 0.9300 0.9300 0.9300 0.9300 0.9300
2020.428176 0.9300 0.9297 0.9295 0.9292 0.9290
2024.075913 0.9287 0.9285 0.9282 0.9280 0.9280
2027.723649 0.9280 0.9280 0.9280 0.9280 0.9280
2031.371385 0.9280 0.9279 0.9277 0.9274 0.9272
2035.019122 0.9269 0.9267 0.9264 0.9262 0.9260
2038.666858 0.9260 0.9260 0.9260 0.9260 0.9260
2042.314595 0.9260 0.9260 0.9259 0.9257 0.9254
2045.962331 0.9252 0.9250 0.9250 0.9250 0.9250
2049.610067 0.9250 0.9250 0.9250 0.9250 0.9250
2053.257804 0.9250 0.9250 0.9250 0.9249 0.9246
2056.905540 0.9244 0.9241 0.9240 0.9240 0.9240
2060.553276 0.9240 0.9239 0.9236 0.9234 0.9231
2064.201013 0.9230 0.9230 0.9230 0.9230 0.9230
2067.848749 0.9230 0.9230 0.9230 0.9230 0.9230
2071.496485 0.9230 0.9230 0.9230 0.9230 0.9230
2075.144222 0.9230 0.9230 0.9230 0.9230 0.9230
2078.791958 0.9230 0.9230 0.9230 0.9230 0.9230
2082.439694 0.9230 0.9230 0.9230 0.9230 0.9230
2086.087431 0.9230 0.9230 0.9230 0.9230 0.9230
2089.735167 0.9230 0.9230 0.9230 0.9230 0.9230
2093.382903 0.9234 0.9239 0.9244 0.9249 0.9259
2097.030640 0.9269 0.9279 0.9289 0.9294 0.9300
2100.678376 0.9305 0.9310 0.9315 0.9320 0.9325
2104.326112 0.9330 0.9330 0.9330 0.9330 0.9330
2107.973849 0.9332 0.9335 0.9337 0.9340 0.9342
2111.621585 0.9345 0.9347 0.9350 0.9350 0.9350
2115.269321 0.9350 0.9350 0.9353 0.9355 0.9358
2118.917058 0.9360 0.9360 0.9360 0.9360 0.9360
2122.564794 0.9360 0.9360 0.9360 0.9360 0.9360
2126.212531 0.9360 0.9360 0.9360 0.9360 0.9360
2129.860267 0.9360 0.9360 0.9360 0.9360 0.9360
2133.508003 0.9360 0.9360 0.9360 0.9360 0.9360
2137.155740 0.9360 0.9360 0.9360 0.9360 0.9360
2140.803476 0.9360 0.9360 0.9360 0.9360 0.9360
2144.451212 0.9360 0.9360 0.9360 0.9360 0.9360
2148.098949 0.9359 0.9357 0.9354 0.9352 0.9349
2151.746685 0.9347 0.9344 0.9341 0.9340 0.9340
2155.394421 0.9340 0.9340 0.9339 0.9336 0.9334
2159.042158 0.9331 0.9330 0.9330 0.9330 0.9330
2162.689894 0.9330 0.9330 0.9330 0.9330 0.9329
2166.337630 0.9326 0.9324 0.9321 0.9320 0.9320
2169.985367 0.9320 0.9320 0.9320 0.9320 0.9320
2173.633103 0.9320 0.9320 0.9320 0.9320 0.9320
2177.280839 0.9320 0.9320 0.9320 0.9320 0.9318
2180.928576 0.9316 0.9313 0.9311 0.9310 0.9310
2184.576312 0.9310 0.9310 0.9308 0.9306 0.9303
2188.224048 0.9301 0.9296 0.9291 0.9286 0.9281
2191.871785 0.9271 0.9258 0.9246 0.9233 0.9203
2195.519521 0.9168 0.9133 0.9098 0.9054 0.9009
2199.167258 0.8964 0.8919 0.8889 0.8864 0.8838
2202.814994 0.8813 0.8790 0.8767 0.8745 0.8722
2206.462730 0.8718 0.8715 0.8713 0.8710 0.8710
2210.110467 0.8710 0.8710 0.8710 0.8708 0.8705
2213.758203 0.8703 0.8700 0.8700 0.8700 0.8700
2217.405939 0.8700 0.8698 0.8695 0.8692 0.8690
2221.053676 0.8690 0.8690 0.8690 0.8690 0.8690
2224.701412 0.8690 0.8690 0.8690 0.8690 0.8690
2228.349148 0.8690 0.8690 0.8687 0.8685 0.8682
2231.996885 0.8680 0.8680 0.8680 0.8680 0.8680
2235.644621 0.8680 0.8680 0.8680 0.8680 0.8677
2239.292357 0.8674 0.8672 0.8670 0.8670 0.8670
2242.940094 0.8670 0.8670 0.8670 0.8670 0.8670
2246.587830 0.8670 0.8670 0.8670 0.8670 0.8670
2250.235566 0.8670 0.8670 0.8670 0.8668 0.8663
2253.883303 0.8658 0.8653 0.8649 0.8647 0.8644
2257.531039 0.8642 0.8638 0.8633 0.8628 0.8623
2261.178775 0.8620 0.8620 0.8620 0.8620 0.8620
2264.826512 0.8620 0.8620 0.8620 0.8618 0.8613
2268.474248 0.8608 0.8603 0.8599 0.8596 0.8594
2272.121985 0.8591 0.8590 0.8590 0.8590 0.8590
2275.769721 0.8587 0.8582 0.8577 0.8572 0.8569
2279.417457 0.8566 0.8564 0.8561 0.8560 0.8560
2283.065194 0.8560 0.8560 0.8560 0.8560 0.8560
2286.712930 0.8560 0.8560 0.8560 0.8560 0.8560
2290.360666 0.8562 0.8564 0.8567 0.8569 0.8570
2294.008403 0.8570 0.8570 0.8570 0.8570 0.8570
2297.656139 0.8570 0.8570 0.8570 0.8570 0.8570
2301.303875 0.8570 0.8570 0.8570 0.8570 0.8570
2304.951612 0.8570 0.8570 0.8570 0.8570 0.8570
2308.599348 0.8570 0.8570 0.8570 0.8570 0.8570
2312.247084 0.8570 0.8570 0.8570 0.8570 0.8570
2315.894821 0.8570 0.8570 0.8570 0.8570 0.8570
2319.542557 0.8572 0.8575 0.8577 0.8580 0.8580
2323.190293 0.8580 0.8580 0.8580 0.8583 0.8585
2326.838030 0.8588 0.8590 0.8590 0.8590 0.8590
2330.485766 0.8590 0.8590 0.8590 0.8590 0.8590
2334.133502 0.8590 0.8590 0.8590 0.8590 0.8590
2337.781239 0.8590 0.8590 0.8590 0.8590 0.8590
2341.428975 0.8590 0.8590 0.8590 0.8590 0.8590
2345.076712 0.8590 0.8587 0.8585 0.8582 0.8579
2348.724448 0.8577 0.8574 0.8572 0.8570 0.8570
2352.372184 0.8570 0.8570 0.8569 0.8567 0.8564
2356.019921 0.8562 0.8560 0.8560 0.8560 0.8560
2359.667657 0.8560 0.8560 0.8560 0.8560 0.8559
2363.315393 0.8557 0.8554 0.8552 0.8550 0.8550
2366.963130 0.8550 0.8550 0.8549 0.8547 0.8544
2370.610866 0.8542 0.8540 0.8540 0.8540 0.8540
2374.258602 0.8540 0.8540 0.8540 0.8540 0.8540
2377.906339 0.8540 0.8540 0.8540 0.8539 0.8536
2381.554075 0.8534 0.8531 0.8530 0.8530 0.8530
2385.201811 0.8530 0.8529 0.8526 0.8524 0.8521
2388.849548 0.8519 0.8516 0.8514 0.8511 0.8510
2392.497284 0.8510 0.8510 0.8510 0.8510 0.8510
2396.145020 0.8510 0.8510 0.8508 0.8506 0.8503
2399.792757 0.8501 0.8498 0.8496 0.8493 0.8491
2403.440493 0.8488 0.8486 0.8483 0.8481 0.8478
2407.088229 0.8476 0.8473 0.8471 0.8468 0.8466
2410.735966 0.8463 0.8460 0.8458 0.8455 0.8453
2414.383702 0.8450 0.8448 0.8445 0.8443 0.8440
2418.031439 0.8438 0.8435 0.8433 0.8430 0.8430
2421.679175 0.8430 0.8430 0.8430 0.8428 0.8425
2425.326911 0.8423 0.8420 0.8418 0.8415 0.8413
2428.974648 0.8410 0.8410 0.8410 0.8410 0.8410
2432.622384 0.8410 0.8410 0.8410 0.8410 0.8410
2436.270120 0.8410 0.8410 0.8410 0.8407 0.8405
2439.917857 0.8402 0.8400 0.8400 0.8400 0.8400
2443.565593 0.8400 0.8397 0.8395 0.8392 0.8390
2447.213329 0.8387 0.8385 0.8382 0.8380 0.8380
2450.861066 0.8380 0.8380 0.8380 0.8377 0.8375
2454.508802 0.8372 0.8370 0.8367 0.8365 0.8362
2458.156538 0.8359 0.8357 0.8354 0.8352 0.8350
2461.804275 0.8350 0.8350 0.8350 0.8349 0.8347
2465.452011 0.8344 0.8342 0.8340 0.8340 0.8340
2469.099747 0.8340 0.8339 0.8337 0.8334 0.8332
2472.747484 0.8329 0.8327 0.8324 0.8322 0.8320
2476.395220 0.8320 0.8320 0.8320 0.8319 0.8316
2480.042956 0.8314 0.8311 0.8310 0.8310 0.8310
2483.690693 0.8310 0.8309 0.8306 0.8304 0.8301
2487.338429 0.8300 0.8300 0.8300 0.8300 0.8300
2490.986166 0.8300 0.8300 0.8300 0.8303 0.8308
2494.633902 0.8313 0.8318 0.8320 0.8320 0.8320
2498.281638 0.8320 0.8320 0.8320 0.8320 0.8320
2501.929375 0.8320 0.8320 0.8320 0.8320 0.8322
2505.577111 0.8324 0.8327 0.8329 0.8328 0.8326
2509.224847 0.8323 0.8321 0.8320 0.8320 0.8320
2512.872584 0.8320 0.8320 0.8320 0.8320 0.8320
2516.520320 0.8318 0.8316 0.8313 0.8311 0.8308
2520.168056 0.8305 0.8303 0.8300 0.8296 0.8291
2523.815793 0.8286 0.8281 0.8278 0.8275 0.8273
2527.463529 0.8270 0.8268 0.8265 0.8263 0.8260
2531.111265 0.8255 0.8250 0.8245 0.8240 0.8240
2534.759002 0.8240 0.8240 0.8240 0.8240 0.8240
2538.406738 0.8240 0.8240 0.8240 0.8240 0.8240
2542.054474 0.8240 0.8235 0.8230 0.8225 0.8220
2545.702211 0.8217 0.8215 0.8212 0.8210 0.8205
2549.349947 0.8200 0.8195 0.8189 0.8184 0.8179
2552.997683 0.8174 0.8170 0.8167 0.8165 0.8162
2556.645420 0.8159 0.8154 0.8149 0.8144 0.8140
2560.293156 0.8140 0.8140 0.8140 0.8140 0.8137
2563.940893 0.8134 0.8132 0.8130 0.8130 0.8130
2567.588629 0.8130 0.8130 0.8130 0.8130 0.8130
2571.236365 0.8129 0.8127 0.8124 0.8122 0.8120
2574.884102 0.8120 0.8120 0.8120 0.8120 0.8120
2578.531838 0.8120 0.8120 0.8119 0.8117 0.8114
2582.179574 0.8111 0.8110 0.8110 0.8110 0.8110
2585.827311 0.8110 0.8110 0.8110 0.8110 0.8108
2589.475047 0.8103 0.8098 0.8093 0.8089 0.8086
2593.122783 0.8084 0.8081 0.8078 0.8073 0.8067
2596.770520 0.8062 0.8060 0.8060 0.8060 0.8060
2600.418256 0.8057 0.8052 0.8047 0.8042 0.8039
2604.065992 0.8036 0.8034 0.8031 0.8027 0.8022
2607.713729 0.8017 0.8012 0.8008 0.8006 0.8003
2611.361465 0.8001 0.7997 0.7992 0.7987 0.7982
2615.009201 0.7978 0.7976 0.7973 0.7971 0.7972
2618.656938 0.7974 0.7977 0.7979 0.7980 0.7980
2622.304674 0.7980 0.7980 0.7984 0.7989 0.7994
2625.952410 0.7999 0.8002 0.8004 0.8007 0.8010
2629.600147 0.8010 0.8010 0.8010 0.8010 0.8006
2633.247883 0.8001 0.7996 0.7991 0.7988 0.7985
2636.895620 0.7983 0.7980 0.7973 0.7965 0.7958
2640.543356 0.7950 0.7945 0.7940 0.7935 0.7930
2644.191092 0.7925 0.7920 0.7915 0.7910 0.7905
2647.838829 0.7900 0.7895 0.7890 0.7882 0.7875
2651.486565 0.7867 0.7860 0.7857 0.7855 0.7852
2655.134301 0.7850 0.7850 0.7850 0.7850 0.7850
2658.782038 0.7850 0.7850 0.7850 0.7850 0.7855
2662.429774 0.7861 0.7866 0.7870 0.7870 0.7870
2666.077510 0.7870 0.7870 0.7873 0.7876 0.7878
2669.725247 0.7879 0.7877 0.7874 0.7872 0.7870
2673.372983 0.7870 0.7870 0.7870 0.7870 0.7870
2677.020719 0.7870 0.7870 0.7870 0.7870 0.7870
2680.668456 0.7870 0.7870 0.7870 0.7870 0.7870
2684.316192 0.7869 0.7867 0.7864 0.7862 0.7860
2687.963928 0.7860 0.7860 0.7860 0.7860 0.7860
2691.611665 0.7860 0.7860 0.7859 0.7856 0.7854
2695.259401 0.7851 0.7850 0.7850 0.7850 0.7850
2698.907137 0.7849 0.7846 0.7844 0.7841 0.7837
2702.554874 0.7832 0.7827 0.7822 0.7819 0.7816
2706.202610 0.7814 0.7811 0.7807 0.7802 0.7797
2709.850347 0.7792 0.7789 0.7786 0.7784 0.7781
2713.498083 0.7779 0.7776 0.7773 0.7771 0.7765
2717.145819 0.7758 0.7750 0.7743 0.7738 0.7736
2720.793556 0.7733 0.7731 0.7727 0.7722 0.7716
2724.441292 0.7711 0.7708 0.7706 0.7703 0.7701
2728.089028 0.7696 0.7691 0.7686 0.7681 0.7674
2731.736765 0.7667 0.7659 0.7652 0.7644 0.7636
2735.384501 0.7629 0.7621 0.7620 0.7620 0.7620
2739.032237 0.7620 0.7624 0.7629 0.7634 0.7639
2742.679974 0.7646 0.7654 0.7662 0.7669 0.7677
2746.327710 0.7684 0.7692 0.7699 0.7702 0.7705
2749.975446 0.7707 0.7710 0.7710 0.7710 0.7710
2753.623183 0.7710 0.7710 0.7710 0.7710 0.7710
2757.270919 0.7705 0.7700 0.7695 0.7690 0.7680
2760.918655 0.7669 0.7659 0.7650 0.7645 0.7640
2764.566392 0.7635 0.7630 0.7625 0.7620 0.7614
2768.214128 0.7610 0.7607 0.7605 0.7602 0.7599
2771.861864 0.7594 0.7589 0.7584 0.7579 0.7568
2775.509601 0.7558 0.7548 0.7538 0.7525 0.7513
2779.157337 0.7500 0.7486 0.7466 0.7445 0.7425
2782.805074 0.7402 0.7372 0.7342 0.7311 0.7282
2786.452810 0.7254 0.7227 0.7199 0.7175 0.7160
2790.100546 0.7145 0.7130 0.7043 0.6812 0.6581
2793.748283 0.6349 0.6118 0.5887 0.5656 0.5425
2797.396019 0.5257 0.5197 0.5137 0.5076 0.5017
2801.043755 0.4959 0.4901 0.4844 0.4786 0.4728
2804.691492 0.4670 0.4612 0.4555 0.4497 0.4439
2808.339228 0.4381 0.4322 0.4261 0.4199 0.4138
2811.986964 0.4110 0.4110 0.4110 0.4110 0.4128
2815.634701 0.4161 0.4194 0.4226 0.4265 0.4308
2819.282437 0.4350 0.4393 0.4455 0.4531 0.4606
2822.930173 0.4682 0.4712 0.4714 0.4717 0.4719
2826.577910 0.4660 0.4567 0.4474 0.4381 0.4286
2830.225646 0.4191 0.4095 0.4000 0.3828 0.3622
2833.873382 0.3416 0.3210 0.3004 0.2798 0.2592
2837.521119 0.2386 0.2330 0.2330 0.2330 0.2330
2841.168855 0.2373 0.2425 0.2478 0.2531 0.2586
2844.816591 0.2641 0.2696 0.2752 0.2809 0.2867
2848.464328 0.2925 0.2983 0.3187 0.3413 0.3639
2852.112064 0.3866 0.3894 0.3900 0.3905 0.3910
2855.759801 0.3905 0.3900 0.3895 0.3890 0.3686
2859.407537 0.3467 0.3248 0.3030 0.2994 0.2966
2863.055273 0.2938 0.2911 0.2910 0.2910 0.2910
2866.703010 0.2910 0.2969 0.3027 0.3086 0.3146
2870.350746 0.3229 0.3312 0.3395 0.3470 0.3467
2873.998482 0.3465 0.3462 0.3439 0.3260 0.3082
2877.646219 0.2903 0.2737 0.2647 0.2556 0.2466
2881.293955 0.2375 0.2282 0.2189 0.2096 0.2003
2884.941691 0.1907 0.1812 0.1716 0.1629 0.1576
2888.589428 0.1524 0.1471 0.1418 0.1365 0.1313
2892.237164 0.1260 0.1208 0.1157 0.1107 0.1057
2895.884900 0.1010 0.0975 0.0939 0.0903 0.0873
2899.532637 0.0853 0.0833 0.0813 0.0800 0.0800
2903.180373 0.0800 0.0800 0.0818 0.0863 0.0908
2906.828109 0.0953 0.1004 0.1061 0.1119 0.1177
2910.475846 0.1210 0.1210 0.1210 0.1210 0.1190
2914.123582 0.1144 0.1099 0.1054 0.1017 0.0989
2917.771318 0.0962 0.0934 0.0908 0.0882 0.0857
2921.419055 0.0832 0.0806 0.0778 0.0750 0.0723
2925.066791 0.0710 0.0710 0.0710 0.0710 0.0719
2928.714527 0.0734 0.0749 0.0765 0.0781 0.0799
2932.362264 0.0816 0.0834 0.0847 0.0857 0.0867
2936.010000 0.0877 0.0892 0.0910 0.0927 0.0945
2939.657737 0.0964 0.0984 0.1004 0.1024 0.1037
2943.305473 0.1047 0.1057 0.1067 0.1081 0.1096
2946.953209 0.1111 0.1126 0.1155 0.1188 0.1220
2950.600946 0.1253 0.1284 0.1314 0.1344 0.1374
2954.248682 0.1407 0.1440 0.1473 0.1506 0.1530
2957.896418 0.1553 0.1575 0.1598 0.1616 0.1634
2961.544155 0.1651 0.1669 0.1679 0.1689 0.1699
2965.191891 0.1709 0.1808 0.1911 0.2014 0.2117
2968.839627 0.2288 0.2461 0.2635 0.2808 0.2887
2972.487364 0.2965 0.3043 0.3120 0.3123 0.3125
2976.135100 0.3128 0.3132 0.3197 0.3263 0.3328
2979.782836 0.3393 0.3459 0.3524 0.3590 0.3660
2983.430573 0.3790 0.3920 0.4050 0.4170 0.4235
2987.078309 0.4301 0.4366 0.4431 0.4497 0.4562
2990.726045 0.4627 0.4693 0.4758 0.4824 0.4889
2994.373782 0.4953 0.5013 0.5074 0.5134 0.5187
2998.021518 0.5217 0.5248 0.5278 0.5308 0.5341
3001.669254 0.5374 0.5407 0.5438 0.5469 0.5499
3005.316991 0.5529 0.5591 0.5727 0.5862 0.5998
3008.964727 0.6091 0.6093 0.6096 0.6098 0.6099
3012.612464 0.6097 0.6094 0.6091 0.6089 0.6086
3016.260200 0.6084 0.6081 0.6076 0.6065 0.6055
3019.907936 0.6045 0.6034 0.6022 0.6009 0.5996
3023.555673 0.5977 0.5949 0.5921 0.5894 0.5869
3027.203409 0.5846 0.5823 0.5801 0.5777 0.5752
3030.851145 0.5726 0.5701 0.5690 0.5690 0.5690
3034.498882 0.5690 0.5770 0.5911 0.6052 0.6193
3038.146618 0.6338 0.6486 0.6634 0.6783 0.6859
3041.794354 0.6889 0.6920 0.6951 0.6976 0.6998
3045.442091 0.7021 0.7044 0.7063 0.7080 0.7098
3049.089827 0.7115 0.7131 0.7146 0.7161 0.7176
3052.737563 0.7190 0.7202 0.7215 0.7227 0.7236
3056.385300 0.7243 0.7251 0.7258 0.7266 0.7274
3060.033036 0.7281 0.7289 0.7292 0.7295 0.7297
3063.680772 0.7300 0.7304 0.7309 0.7314 0.7319
3067.328509 0.7320 0.7320 0.7320 0.7320 0.7322
3070.976245 0.7325 0.7327 0.7330 0.7332 0.7335
3074.623981 0.7337 0.7340 0.7340 0.7340 0.7340
3078.271718 0.7340 0.7343 0.7345 0.7348 0.7350
3081.919454 0.7350 0.7350 0.7350 0.7350 0.7350
3085.567191 0.7350 0.7350 0.7350 0.7347 0.7345
3089.214927 0.7342 0.7340 0.7340 0.7340 0.7340
3092.862663 0.7340 0.7340 0.7340 0.7340 0.7340
3096.510400 0.7340 0.7340 0.7340 0.7340 0.7337
3100.158136 0.7335 0.7332 0.7330 0.7330 0.7330
3103.805872 0.7330 0.7329 0.7327 0.7324 0.7322
3107.453609 0.7320 0.7320 0.7320 0.7320 0.7320
3111.101345 0.7320 0.7320 0.7320 0.7320 0.7320
3114.749081 0.7320 0.7320 0.7319 0.7317 0.7314
3118.396818 0.7312 0.7308 0.7303 0.7298 0.7293
3122.044554 0.7290 0.7290 0.7290 0.7290 0.7288
3125.692290 0.7283 0.7278 0.7273 0.7269 0.7266
3129.340027 0.7264 0.7261 0.7260 0.7260 0.7260
3132.987763 0.7260 0.7260 0.7260 0.7260 0.7260
3136.635499 0.7259 0.7256 0.7254 0.7251 0.7250
3140.283236 0.7250 0.7250 0.7250 0.7249 0.7246
3143.930972 0.7244 0.7241 0.7240 0.7240 0.7240
3147.578708 0.7240 0.7240 0.7240 0.7240 0.7240
3151.226445 0.7240 0.7240 0.7240 0.7240 0.7238
3154.874181 0.7236 0.7233 0.7231 0.7230 0.7230
3158.521918 0.7230 0.7230 0.7230 0.7230 0.7230
3162.169654 0.7230 0.7230 0.7230 0.7230 0.7230
3165.817390 0.7230 0.7230 0.7230 0.7230 0.7230
3169.465127 0.7230 0.7230 0.7230 0.7230 0.7230
3173.112863 0.7230 0.7230 0.7230 0.7230 0.7230
3176.760599 0.7230 0.7230 0.7230 0.7230 0.7230
3180.408336 0.7230 0.7230 0.7230 0.7230 0.7228
3184.056072 0.7225 0.7223 0.7220 0.7220 0.7220
3187.703808 0.7220 0.7220 0.7220 0.7220 0.7220
3191.351545 0.7220 0.7220 0.7220 0.7220 0.7220
3194.999281 0.7217 0.7215 0.7212 0.7210 0.7210
3198.647017 0.7210 0.7210 0.7210 0.7207 0.7205
3202.294754 0.7202 0.7200 0.7197 0.7195 0.7192
3205.942490 0.7190 0.7190 0.7190 0.7190 0.7190
3209.590226 0.7187 0.7185 0.7182 0.7180 0.7180
3213.237963 0.7180 0.7180 0.7180 0.7180 0.7180
3216.885699 0.7180 0.7179 0.7177 0.7174 0.7172
3220.533435 0.7169 0.7167 0.7164 0.7162 0.7160
3224.181172 0.7160 0.7160 0.7160 0.7160 0.7160
3227.828908 0.7160 0.7160 0.7160 0.7160 0.7160
3231.476645 0.7160 0.7160 0.7160 0.7160 0.7160
3235.124381 0.7159 0.7156 0.7154 0.7151 0.7150
3238.772117 0.7150 0.7150 0.7150 0.7150 0.7150
3242.419854 0.7150 0.7150 0.7150 0.7150 0.7150
3246.067590 0.7150 0.7149 0.7146 0.7144 0.7141
3249.715326 0.7138 0.7136 0.7133 0.7131 0.7130
3253.363063 0.7130 0.7130 0.7130 0.7128 0.7126
3257.010799 0.7123 0.7121 0.7120 0.7120 0.7120
3260.658535 0.7120 0.7118 0.7116 0.7113 0.7111
3264.306272 0.7108 0.7106 0.7103 0.7101 0.7098
3267.954008 0.7096 0.7093 0.7091 0.7088 0.7086
3271.601744 0.7083 0.7081 0.7074 0.7066 0.7059
3275.249481 0.7051 0.7044 0.7036 0.7029 0.7021
3278.897217 0.7016 0.7011 0.7006 0.7001 0.6993
3282.544953 0.6986 0.6978 0.6971 0.6963 0.6956
3286.192690 0.6948 0.6941 0.6938 0.6935 0.6933
3289.840426 0.6930 0.6928 0.6925 0.6923 0.6920
3293.488162 0.6920 0.6920 0.6920 0.6920 0.6917
3297.135899 0.6915 0.6912 0.6910 0.6910 0.6910
3300.783635 0.6910 0.6910 0.6905 0.6900 0.6895
3304.431372 0.6890 0.6887 0.6885 0.6882 0.6880
3308.079108 0.6877 0.6875 0.6872 0.6869 0.6861
3311.726844 0.6854 0.6846 0.6838 0.6828 0.6818
3315.374581 0.6808 0.6796 0.6779 0.6761 0.6744
3319.022317 0.6726 0.6705 0.6685 0.6665 0.6649
3322.670053 0.6644 0.6639 0.6634 0.6631 0.6633
3326.317790 0.6636 0.6638 0.6643 0.6653 0.6663
3329.965526 0.6673 0.6683 0.6693 0.6704 0.6714
3333.613262 0.6726 0.6741 0.6756 0.6771 0.6786
3337.260999 0.6801 0.6816 0.6831 0.6843 0.6851
3340.908735 0.6858 0.6866 0.6871 0.6874 0.6876
3344.556471 0.6879 0.6881 0.6884 0.6886 0.6889
3348.204208 0.6890 0.6890 0.6890 0.6890 0.6891
3351.851944 0.6894 0.6896 0.6899 0.6900 0.6900
3355.499680 0.6900 0.6900 0.6900 0.6900 0.6900
3359.147417 0.6900 0.6900 0.6900 0.6900 0.6900
3362.795153 0.6900 0.6900 0.6900 0.6900 0.6900
3366.442889 0.6900 0.6900 0.6900 0.6900 0.6900
3370.090626 0.6900 0.6900 0.6900 0.6900 0.6900
3373.738362 0.6900 0.6900 0.6900 0.6900 0.6900
3377.386099 0.6898 0.6896 0.6893 0.6891 0.6890
3381.033835 0.6890 0.6890 0.6890 0.6890 0.6890
3384.681571 0.6890 0.6890 0.6890 0.6890 0.6890
3388.329308 0.6890 0.6888 0.6885 0.6883 0.6880
3391.977044 0.6880 0.6880 0.6880 0.6880 0.6880
3395.624780 0.6880 0.6880 0.6880 0.6880 0.6880
3399.272517 0.6880 0.6880 0.6878 0.6875 0.6872
3402.920253 0.6870 0.6867 0.6865 0.6862 0.6860
3406.567989 0.6855 0.6850 0.6845 0.6840 0.6840
3410.215726 0.6840 0.6840 0.6840 0.6837 0.6835
3413.863462 0.6832 0.6830 0.6827 0.6825 0.6822
3417.511198 0.6819 0.6811 0.6804 0.6796 0.6788
3421.158935 0.6778 0.6768 0.6758 0.6745 0.6720
3424.806671 0.6694 0.6669 0.6649 0.6647 0.6644
3428.454407 0.6642 0.6641 0.6643 0.6646 0.6648
3432.102144 0.6652 0.6660 0.6667 0.6675 0.6682
3435.749880 0.6690 0.6697 0.6705 0.6712 0.6720
3439.397616 0.6727 0.6735 0.6741 0.6743 0.6746
3443.045353 0.6748 0.6752 0.6757 0.6762 0.6767
3446.693089 0.6774 0.6784 0.6794 0.6805 0.6815
3450.340826 0.6825 0.6835 0.6845 0.6852 0.6857
3453.988562 0.6862 0.6867 0.6873 0.6878 0.6883
3457.636298 0.6888 0.6894 0.6901 0.6909 0.6917
3461.284035 0.6921 0.6924 0.6926 0.6929 0.6931
3464.931771 0.6934 0.6936 0.6939 0.6940 0.6940
3468.579507 0.6940 0.6940 0.6942 0.6944 0.6947
3472.227244 0.6949 0.6950 0.6950 0.6950 0.6950
3475.874980 0.6952 0.6954 0.6957 0.6959 0.6962
3479.522716 0.6964 0.6967 0.6969 0.6970 0.6970
3483.170453 0.6970 0.6970 0.6972 0.6974 0.6977
3486.818189 0.6979 0.6980 0.6980 0.6980 0.6980
3490.465925 0.6982 0.6985 0.6987 0.6990 0.6992
3494.113662 0.6995 0.6997 0.7000 0.7004 0.7009
3497.761398 0.7014 0.7019 0.7024 0.7029 0.7034
3501.409134 0.7039 0.7042 0.7045 0.7047 0.7050
3505.056871 0.7055 0.7060 0.7065 0.7070 0.7075
3508.704607 0.7080 0.7085 0.7090 0.7093 0.7095
3512.352343 0.7098 0.7100 0.7108 0.7115 0.7123
3516.000080 0.7130 0.7133 0.7135 0.7138 0.7140
3519.647816 0.7145 0.7150 0.7156 0.7160 0.7160
3523.295553 0.7160 0.7160 0.7160 0.7163 0.7165
3526.943289 0.7168 0.7170 0.7173 0.7175 0.7178
3530.591025 0.7180 0.7183 0.7185 0.7188 0.7191
3534.238762 0.7196 0.7201 0.7206 0.7211 0.7216
3537.886498 0.7221 0.7226 0.7231 0.7233 0.7236
3541.534234 0.7238 0.7242 0.7247 0.7252 0.7257
3545.181971 0.7261 0.7263 0.7266 0.7268 0.7272
3548.829707 0.7277 0.7282 0.7287 0.7291 0.7293
3552.477443 0.7296 0.7298 0.7301 0.7304 0.7306
3556.125180 0.7309 0.7311 0.7314 0.7316 0.7319
3559.772916 0.7322 0.7327 0.7332 0.7337 0.7341
3563.420652 0.7344 0.7346 0.7349 0.7351 0.7354
3567.068389 0.7356 0.7359 0.7361 0.7364 0.7366
3570.716125 0.7369 0.7373 0.7378 0.7383 0.7388
3574.363861 0.7392 0.7394 0.7397 0.7399 0.7400
3578.011598 0.7400 0.7400 0.7400 0.7403 0.7408
3581.659334 0.7413 0.7418 0.7420 0.7420 0.7420
3585.307070 0.7420 0.7423 0.7428 0.7434 0.7439
3588.954807 0.7442 0.7444 0.7447 0.7449 0.7452
3592.602543 0.7454 0.7457 0.7460 0.7462 0.7465
3596.250280 0.7467 0.7470 0.7472 0.7475 0.7477
3599.898016 0.7480 0.7480 0.7480 0.7480 0.7480
3603.545752 0.7482 0.7485 0.7487 0.7490 0.7490
3607.193489 0.7490 0.7490 0.7490 0.7492 0.7495
3610.841225 0.7497 0.7500 0.7500 0.7500 0.7500
3614.488961 0.7500 0.7505 0.7510 0.7515 0.7520
3618.136698 0.7522 0.7525 0.7527 0.7530 0.7533
3621.784434 0.7535 0.7538 0.7540 0.7543 0.7545
3625.432170 0.7548 0.7550 0.7550 0.7550 0.7550
3629.079907 0.7550 0.7550 0.7550 0.7550 0.7550
3632.727643 0.7550 0.7550 0.7550 0.7550 0.7553
3636.375379 0.7555 0.7558 0.7560 0.7560 0.7560
3640.023116 0.7560 0.7561 0.7563 0.7566 0.7568
3643.670852 0.7570 0.7570 0.7570 0.7570 0.7571
3647.318588 0.7573 0.7576 0.7578 0.7580 0.7580
3650.966325 0.7580 0.7580 0.7580 0.7580 0.7580
3654.614061 0.7580 0.7580 0.7580 0.7580 0.7580
3658.261797 0.7580 0.7580 0.7580 0.7580 0.7580
3661.909534 0.7580 0.7580 0.7580 0.7580 0.7580
3665.557270 0.7580 0.7580 0.7579 0.7576 0.7574
3669.205006 0.7571 0.7570 0.7570 0.7570 0.7570
3672.852743 0.7570 0.7570 0.7570 0.7570 0.7569
3676.500479 0.7566 0.7564 0.7561 0.7559 0.7556
3680.148216 0.7554 0.7551 0.7550 0.7550 0.7550
3683.795952 0.7550 0.7547 0.7542 0.7537 0.7532
3687.443688 0.7528 0.7526 0.7523 0.7521 0.7518
3691.091425 0.7516 0.7513 0.7511 0.7508 0.7506
3694.739161 0.7503 0.7501 0.7500 0.7500 0.7500
3698.386897 0.7500 0.7500 0.7500 0.7500 0.7500
3702.034634 0.7500 0.7500 0.7500 0.7500 0.7502
3705.682370 0.7504 0.7507 0.7510 0.7514 0.7519
3709.330106 0.7524 0.7529 0.7532 0.7535 0.7537
3712.977843 0.7540 0.7542 0.7545 0.7547 0.7550
3716.625579 0.7550 0.7550 0.7550 0.7550 0.7550
3720.273315 0.7550 0.7550 0.7550 0.7550 0.7550
3723.921052 0.7550 0.7550 0.7550 0.7550 0.7550
3727.568788 0.7550 0.7553 0.7555 0.7558 0.7560
3731.216524 0.7560 0.7560 0.7560 0.7560 0.7560
3734.864261 0.7560 0.7560 0.7560 0.7560 0.7560
3738.511997 0.7560 0.7560 0.7560 0.7560 0.7560
3742.159733 0.7560 0.7560 0.7560 0.7560 0.7560
3745.807470 0.7560 0.7560 0.7560 0.7560 0.7560
3749.455206 0.7560 0.7560 0.7559 0.7557 0.7554
3753.102943 0.7552 0.7550 0.7550 0.7550 0.7550
3756.750679 0.7550 0.7550 0.7550 0.7550 0.7549
3760.398415 0.7547 0.7544 0.7542 0.7539 0.7537
3764.046152 0.7534 0.7532 0.7530 0.7530 0.7530
3767.693888 0.7530 0.7530 0.7530 0.7530 0.7530
3771.341624 0.7530 0.7530 0.7530 0.7530 0.7530
3774.989361 0.7530 0.7530 0.7530 0.7530 0.7530
3778.637097 0.7530 0.7530 0.7529 0.7526 0.7524
3782.284833 0.7521 0.7520 0.7520 0.7520 0.7520
3785.932570 0.7520 0.7520 0.7520 0.7520 0.7519
3789.580306 0.7516 0.7514 0.7511 0.7510 0.7510
3793.228042 0.7510 0.7510 0.7510 0.7510 0.7510
3796.875779 0.7510 0.7508 0.7506 0.7503 0.7501
3800.523515 0.7500 0.7500 0.7500 0.7500 0.7500
3804.171251 0.7500 0.7500 0.7500 0.7500 0.7500
3807.818988 0.7500 0.7500 0.7498 0.7496 0.7493
3811.466724 0.7491 0.7490 0.7490 0.7490 0.7490
3815.114460 0.7488 0.7485 0.7483 0.7480 0.7480
3818.762197 0.7480 0.7480 0.7480 0.7480 0.7480
3822.409933 0.7480 0.7480 0.7478 0.7475 0.7473
3826.057670 0.7470 0.7470 0.7470 0.7470 0.7470
3829.705406 0.7470 0.7470 0.7470 0.7470 0.7467
3833.353142 0.7465 0.7462 0.7460 0.7460 0.7460
3837.000879 0.7460 0.7460 0.7460 0.7460 0.7460
3840.648615 0.7460 0.7460 0.7460 0.7460 0.7460
3844.296351 0.7460 0.7460 0.7460 0.7460 0.7457
3847.944088 0.7455 0.7452 0.7450 0.7450 0.7450
3851.591824 0.7450 0.7450 0.7450 0.7450 0.7450
3855.239560 0.7449 0.7447 0.7444 0.7442 0.7439
3858.887297 0.7437 0.7434 0.7432 0.7430 0.7430
3862.535033 0.7430 0.7430 0.7429 0.7427 0.7424
3866.182769 0.7422 0.7420 0.7420 0.7420 0.7420
3869.830506 0.7420 0.7420 0.7420 0.7420 0.7419
3873.478242 0.7417 0.7414 0.7412 0.7409 0.7407
3877.125978 0.7404 0.7402 0.7400 0.7400 0.7400
3880.773715 0.7400 0.7400 0.7400 0.7400 0.7400
3884.421451 0.7400 0.7400 0.7400 0.7400 0.7399
3888.069187 0.7396 0.7394 0.7391 0.7390 0.7390
3891.716924 0.7390 0.7390 0.7389 0.7386 0.7384
3895.364660 0.7381 0.7380 0.7380 0.7380 0.7380
3899.012397 0.7380 0.7380 0.7380 0.7380 0.7378
3902.660133 0.7376 0.7373 0.7371 0.7370 0.7370
3906.307869 0.7370 0.7370 0.7370 0.7370 0.7370
3909.955606 0.7370 0.7370 0.7370 0.7370 0.7370
3913.603342 0.7370 0.7370 0.7370 0.7370 0.7370
3917.251078 0.7370 0.7370 0.7370 0.7368 0.7365
3920.898815 0.7363 0.7360 0.7360 0.7360 0.7360
3924.546551 0.7360 0.7360 0.7360 0.7360 0.7360
3928.194287 0.7358 0.7355 0.7353 0.7350 0.7350
3931.842024 0.7350 0.7350 0.7350 0.7348 0.7345
3935.489760 0.7343 0.7340 0.7340 0.7340 0.7340
3939.137496 0.7340 0.7340 0.7340 0.7340 0.7340
3942.785233 0.7340 0.7340 0.7340 0.7340 0.7337
3946.432969 0.7335 0.7332 0.7330 0.7330 0.7330
3950.080705 0.7330 0.7330 0.7330 0.7330 0.7330
3953.728442 0.7330 0.7327 0.7325 0.7322 0.7320
3957.376178 0.7320 0.7320 0.7320 0.7320 0.7320
3961.023914 0.7320 0.7320 0.7320 0.7320 0.7320
3964.671651 0.7320 0.7320 0.7320 0.7320 0.7320
3968.319387 0.7320 0.7320 0.7320 0.7320 0.7319
3971.967124 0.7317 0.7314 0.7312 0.7310 0.7310
3975.614860 0.7310 0.7310 0.7310 0.7310 0.7310
3979.262596 0.7310 0.7310 0.7310 0.7310 0.7310
3982.910333 0.7310 0.7310 0.7310 0.7310 0.7309
3986.558069 0.7306 0.7304 0.7301 0.7300 0.7300
3990.205805 0.7300 0.7300 0.7300 0.7300 0.7300
3993.853542 0.7300 0.7300 0.7300 0.7300 0.7300
3997.501278 0.7300 0.7300 0.7300 0.7300 0.7300
4001.149014 0.7300 0.7300 0.7300 0.7300 0.7300
4004.796751 0.7300 0.7300 0.7300 0.7300 0.7300
4008.444487 0.7300 0.7300 0.7300 0.7300 0.7300
4012.092223 0.7300 0.7300 0.7300 0.7300
##END=
