##TITLE=ANISOLE, o-BROMO-
##JCAMP-DX=4.24
##DATA TYPE=INFRARED SPECTRUM
##CLASS=COBLENTZ III
##ORIGIN=DOW CHEMICAL COMPANY
##OWNER=COBLENTZ SOC.
Collection (C) 2018 copyright by the U.S. Secretary of Commerce
on behalf of the United States of America. All rights reserved.
##DATE=1963/08/21
##NAMES=2-bromophenyl methyl ether
1-bromo-2-methoxybenzene
##CAS REGISTRY NO=578-57-4
##MOLFORM=C7 H7 Br O
##SOURCE REFERENCE=COBLENTZ NO. 07958
##$NIST SOURCE=COBLENTZ
##$NIST IMAGE=cob7958
##SPECTROMETER/DATA SYSTEM=DOW KBr FOREPRISM-GRATING
##INSTRUMENT PARAMETERS=BLAZED AT 3.5, 12.0, 20.0 MICRON AND CHANGED AT 5.0, 7.5, 14.9 MICRON
##STATE=SOLUTION (10% CCl4 FOR 3800-1330, 10% CS2 FOR 1330-400 CM^-^1)
##PATH LENGTH=0.010 CM, 0.010 CM
$$SPECTRAL CONTAMINATION DUE TO CS2 AROUND 855, CCl4 AROUND 1555, AND AN UNKNOWN AROUND 400 CM^-^1
##SAMPLING PROCEDURE=TRANSMISSION
##RESOLUTION=2
##DATA PROCESSING=DIGITIZED BY COBLENTZ SOCIETY (BATCH I) FROM HARD COPY
##XUNITS=1/CM
##YUNITS=TRANSMITTANCE
##XLABEL=Wavenumbers (cm-1)
##YLABEL=% Transmission
##XFACTOR=1
##YFACTOR=1
##DELTAX=1
##FIRSTX=385
##LASTX=3794
##FIRSTY=0.2232
##MAXX=3794
##MINX=385
##MAXY=0.9365
##MINY=0.0065
##NPOINTS=3410
##XYDATA=(X++(Y..Y))
385.000000 0.2232 0.2217 0.2204 0.2194 0.2188
390.000000 0.2190 0.2195 0.2206 0.2233 0.2262
395.000000 0.2313 0.2381 0.2483 0.2589 0.2754
400.000000 0.3181 0.3373 0.3564 0.3757 0.3949
405.000000 0.4141 0.4377 0.4476 0.4619 0.4823
410.000000 0.5126 0.5766 0.5928 0.6087 0.6180
415.000000 0.6273 0.6365 0.6448 0.6526 0.6606
420.000000 0.6675 0.6742 0.6790 0.6814 0.6839
425.000000 0.6849 0.6849 0.6850 0.6860 0.6793
430.000000 0.6715 0.6612 0.6480 0.6346 0.6212
435.000000 0.6079 0.5946 0.5817 0.5817 0.6019
440.000000 0.6229 0.6439 0.6650 0.6860 0.6994
445.000000 0.7087 0.7147 0.7193 0.7224 0.7256
450.000000 0.7287 0.7318 0.7341 0.7365 0.7388
455.000000 0.7406 0.7418 0.7430 0.7442 0.7453
460.000000 0.7464 0.7468 0.7471 0.7475 0.7480
465.000000 0.7485 0.7489 0.7492 0.7492 0.7493
470.000000 0.7493 0.7493 0.7491 0.7481 0.7471
475.000000 0.7461 0.7444 0.7407 0.7367 0.7300
480.000000 0.7235 0.7178 0.7133 0.7114 0.7115
485.000000 0.7134 0.7176 0.7238 0.7328 0.7384
490.000000 0.7449 0.7537 0.7578 0.7618 0.7647
495.000000 0.7671 0.7694 0.7710 0.7725 0.7742
500.000000 0.7753 0.7758 0.7765 0.7764 0.7762
505.000000 0.7761 0.7761 0.7761 0.7760 0.7758
510.000000 0.7758 0.7758 0.7757 0.7757 0.7756
515.000000 0.7755 0.7755 0.7754 0.7754 0.7753
520.000000 0.7753 0.7751 0.7749 0.7745 0.7742
525.000000 0.7738 0.7734 0.7728 0.7721 0.7712
530.000000 0.7705 0.7697 0.7689 0.7678 0.7665
535.000000 0.7651 0.7637 0.7619 0.7599 0.7578
540.000000 0.7576 0.7574 0.7572 0.7578 0.7591
545.000000 0.7612 0.7635 0.7654 0.7658 0.7664
550.000000 0.7667 0.7668 0.7668 0.7664 0.7658
555.000000 0.7651 0.7643 0.7628 0.7607 0.7585
560.000000 0.7557 0.7530 0.7498 0.7447 0.7393
565.000000 0.7331 0.7240 0.7118 0.6990 0.6856
570.000000 0.6721 0.6587 0.6488 0.6488 0.6476
575.000000 0.6815 0.6985 0.7154 0.7321 0.7499
580.000000 0.7606 0.7683 0.7731 0.7778 0.7807
585.000000 0.7892 0.8103 0.8314 0.8333 0.8336
590.000000 0.8228 0.8096 0.8034 0.8025 0.8018
595.000000 0.8010 0.8003 0.7996 0.7989 0.7989
600.000000 0.7989 0.7992 0.8001 0.8015 0.8031
605.000000 0.8054 0.8088 0.8130 0.8134 0.8111
610.000000 0.8087 0.8055 0.8053 0.8051 0.8051
615.000000 0.8049 0.8048 0.8047 0.8046 0.8044
620.000000 0.8039 0.8034 0.8028 0.8021 0.8010
625.000000 0.7999 0.7983 0.7965 0.7950 0.7934
630.000000 0.7914 0.7893 0.7871 0.7850 0.7825
635.000000 0.7801 0.7776 0.7747 0.7712 0.7678
640.000000 0.7636 0.7578 0.7521 0.7454 0.7384
645.000000 0.7312 0.7226 0.7133 0.7040 0.6918
650.000000 0.6794 0.6640 0.6439 0.6218 0.5992
655.000000 0.5710 0.5226 0.4742 0.4259 0.3775
660.000000 0.3292 0.3013 0.3028 0.5538 0.6615
665.000000 0.6792 0.7042 0.7215 0.7330 0.7439
670.000000 0.7532 0.7604 0.7675 0.7741 0.7792
675.000000 0.7843 0.7886 0.7911 0.7935 0.7951
680.000000 0.7955 0.7960 0.7964 0.7982 0.7956
685.000000 0.7947 0.7930 0.7907 0.7871 0.7851
690.000000 0.7851 0.7851 0.7841 0.7891 0.7921
695.000000 0.7941 0.7953 0.7960 0.7980 0.7958
700.000000 0.7945 0.7924 0.7899 0.7868 0.7822
705.000000 0.7734 0.7607 0.7354 0.7097 0.6825
710.000000 0.6908 0.7107 0.7307 0.7506 0.7610
715.000000 0.7656 0.7687 0.7698 0.7700 0.7701
720.000000 0.7680 0.7696 0.7689 0.7678 0.7662
725.000000 0.7618 0.7590 0.7568 0.7555 0.7538
730.000000 0.7515 0.7490 0.7455 0.7389 0.7304
735.000000 0.7212 0.7121 0.6968 0.6668 0.6405
740.000000 0.6184 0.5257 0.4120 0.2984 0.1846
745.000000 0.0464 0.0266 0.0134 0.0078 0.0065
750.000000 0.0072 0.0088 0.0180 0.0711 0.1351
755.000000 0.1990 0.2629 0.3268 0.3908 0.4547
760.000000 0.5187 0.5519 0.5850 0.6048 0.6276
765.000000 0.6587 0.6955 0.7189 0.7301 0.7401
770.000000 0.7483 0.7564 0.7611 0.7657 0.7701
775.000000 0.7739 0.7771 0.7790 0.7801 0.7799
780.000000 0.7799 0.7792 0.7784 0.7765 0.7741
785.000000 0.7711 0.7665 0.7607 0.7536 0.7449
790.000000 0.7358 0.7226 0.6636 0.6175 0.5714
795.000000 0.5252 0.5200 0.5612 0.5980 0.6348
800.000000 0.6715 0.7084 0.7375 0.7482 0.7578
805.000000 0.7654 0.7721 0.7784 0.7841 0.7893
810.000000 0.7937 0.7958 0.7978 0.7999 0.8008
815.000000 0.8046 0.8021 0.8021 0.8021 0.8018
820.000000 0.8007 0.7995 0.7974 0.7962 0.7951
825.000000 0.7999 0.8041 0.8065 0.8067 0.8054
830.000000 0.8055 0.8041 0.8024 0.8003 0.7964
835.000000 0.7924 0.7861 0.7769 0.7528 0.7371
840.000000 0.7385 0.7431 0.7478 0.7499 0.7497
845.000000 0.7491 0.7480 0.7464 0.7442 0.7411
850.000000 0.7357 0.7249 0.7186 0.7078 0.6967
855.000000 0.6924 0.6904 0.6897 0.6901 0.6906
860.000000 0.6911 0.6926 0.6943 0.6958 0.6985
865.000000 0.7011 0.7039 0.7069 0.7107 0.7144
870.000000 0.7180 0.7212 0.7247 0.7282 0.7322
875.000000 0.7362 0.7404 0.7445 0.7485 0.7525
880.000000 0.7565 0.7604 0.7643 0.7681 0.7719
885.000000 0.7756 0.7787 0.7818 0.7850 0.7882
890.000000 0.7949 0.8011 0.8058 0.8103 0.8138
895.000000 0.8168 0.8191 0.8209 0.8231 0.8257
900.000000 0.8274 0.8288 0.8302 0.8315 0.8324
905.000000 0.8332 0.8341 0.8341 0.8327 0.8339
910.000000 0.8334 0.8328 0.8321 0.8315 0.8295
915.000000 0.8275 0.8253 0.8218 0.8184 0.8122
920.000000 0.8054 0.7664 0.7335 0.7006 0.6676
925.000000 0.6379 0.6373 0.6791 0.7108 0.7424
930.000000 0.7741 0.7926 0.7978 0.8036 0.8110
935.000000 0.8164 0.8212 0.8238 0.8257 0.8265
940.000000 0.8274 0.8282 0.8290 0.8296 0.8303
945.000000 0.8310 0.8313 0.8314 0.8315 0.8315
950.000000 0.8315 0.8315 0.8313 0.8310 0.8307
955.000000 0.8301 0.8293 0.8285 0.8277 0.8268
960.000000 0.8258 0.8249 0.8240 0.8230 0.8221
965.000000 0.8214 0.8206 0.8199 0.8191 0.8183
970.000000 0.8175 0.8168 0.8161 0.8155 0.8148
975.000000 0.8142 0.8135 0.8128 0.8121 0.8114
980.000000 0.8107 0.8099 0.8092 0.8084 0.8076
985.000000 0.8069 0.8061 0.8053 0.8042 0.8032
990.000000 0.8021 0.8011 0.7992 0.7971 0.7951
995.000000 0.7930 0.7904 0.7861 0.7818 0.7784
1000.000000 0.7751 0.7717 0.7684 0.7630 0.7572
1005.000000 0.7515 0.7457 0.7399 0.7341 0.7268
1010.000000 0.7187 0.7105 0.7008 0.6878 0.6748
1015.000000 0.6597 0.6377 0.6214 0.6068 0.5869
1020.000000 0.5531 0.5006 0.4482 0.3958 0.3432
1025.000000 0.2909 0.2384 0.1860 0.1546 0.1514
1030.000000 0.1452 0.1101 0.0749 0.0397 0.0372
1035.000000 0.1512 0.2880 0.4248 0.5616 0.6465
1040.000000 0.6583 0.6645 0.6664 0.6667 0.6651
1045.000000 0.6632 0.6517 0.6424 0.6003 0.5392
1050.000000 0.4782 0.4172 0.3560 0.2951 0.2341
1055.000000 0.1729 0.1120 0.0510 0.0371 0.0378
1060.000000 0.2028 0.3397 0.4304 0.4593 0.5162
1065.000000 0.5422 0.5638 0.6035 0.6576 0.6851
1070.000000 0.7030 0.7190 0.7275 0.7348 0.7421
1075.000000 0.7499 0.7580 0.7661 0.7741 0.7819
1080.000000 0.7888 0.7946 0.8001 0.8041 0.8081
1085.000000 0.8118 0.8143 0.8168 0.8192 0.8213
1090.000000 0.8225 0.8238 0.8250 0.8262 0.8268
1095.000000 0.8274 0.8280 0.8287 0.8289 0.8291
1100.000000 0.8292 0.8293 0.8309 0.8286 0.8278
1105.000000 0.8270 0.8260 0.8248 0.8231 0.8214
1110.000000 0.8187 0.8158 0.8108 0.8056 0.7961
1115.000000 0.7862 0.7755 0.7622 0.7501 0.7381
1120.000000 0.7244 0.7100 0.6696 0.6169 0.5642
1125.000000 0.5116 0.4618 0.4639 0.5632 0.6295
1130.000000 0.6957 0.7292 0.7418 0.7545 0.7689
1135.000000 0.7775 0.7824 0.7861 0.7884 0.7887
1140.000000 0.7901 0.7881 0.7861 0.7838 0.7815
1145.000000 0.7796 0.7778 0.7761 0.7743 0.7728
1150.000000 0.7714 0.7699 0.7687 0.7687 0.7688
1155.000000 0.7700 0.7712 0.7654 0.7294 0.6934
1160.000000 0.6575 0.6215 0.5948 0.6096 0.5930
1165.000000 0.6762 0.7096 0.7428 0.7681 0.7741
1170.000000 0.7706 0.7691 0.7669 0.7639 0.7615
1175.000000 0.7567 0.7385 0.7204 0.7022 0.6841
1180.000000 0.6660 0.6494 0.6458 0.6449 0.6434
1185.000000 0.6465 0.6589 0.6832 0.7075 0.7318
1190.000000 0.7561 0.7736 0.7811 0.7889 0.7951
1195.000000 0.8012 0.8064 0.8100 0.8135 0.8157
1200.000000 0.8175 0.8182 0.8189 0.8189 0.8190
1205.000000 0.8189 0.8189 0.8182 0.8175 0.8168
1210.000000 0.8158 0.8150 0.8139 0.8122 0.8107
1215.000000 0.8091 0.8075 0.8058 0.8039 0.8018
1220.000000 0.8000 0.7981 0.7961 0.7930 0.7899
1225.000000 0.7868 0.7835 0.7790 0.7744 0.7698
1230.000000 0.7634 0.7560 0.7445 0.7165 0.6895
1235.000000 0.6721 0.6578 0.6436 0.6304 0.6164
1240.000000 0.6001 0.5812 0.5547 0.5288 0.5038
1245.000000 0.4717 0.4134 0.2576 0.2143 0.1709
1250.000000 0.1275 0.0841 0.0408 0.0195 0.0197
1255.000000 0.0206 0.0340 0.1586 0.2833 0.4079
1260.000000 0.4921 0.5006 0.5015 0.5012 0.4880
1265.000000 0.4446 0.4012 0.3579 0.3145 0.2712
1270.000000 0.2278 0.1844 0.1411 0.1162 0.1155
1275.000000 0.1134 0.1151 0.1185 0.1230 0.1273
1280.000000 0.1329 0.1383 0.1516 0.1986 0.2458
1285.000000 0.2929 0.3400 0.3871 0.4342 0.4524
1290.000000 0.4525 0.4517 0.4370 0.4073 0.3775
1295.000000 0.3478 0.3180 0.2883 0.2584 0.2288
1300.000000 0.1990 0.1758 0.1754 0.2525 0.3354
1305.000000 0.4184 0.5012 0.5862 0.6775 0.6917
1310.000000 0.7049 0.7157 0.7264 0.7358 0.7440
1315.000000 0.7521 0.7576 0.7633 0.7689 0.7739
1320.000000 0.7790 0.7826 0.7858 0.7888 0.7917
1325.000000 0.7938 0.7958 0.7978 0.7995 0.8010
1330.000000 0.8025 0.8040 0.8055 0.8061 0.8068
1335.000000 0.8075 0.8082 0.8089 0.8096 0.8103
1340.000000 0.8108 0.8111 0.8115 0.8119 0.8124
1345.000000 0.8128 0.8132 0.8136 0.8137 0.8138
1350.000000 0.8139 0.8139 0.8140 0.8140 0.8139
1355.000000 0.8135 0.8131 0.8126 0.8122 0.8118
1360.000000 0.8115 0.8114 0.8111 0.8110 0.8108
1365.000000 0.8108 0.8108 0.8111 0.8115 0.8117
1370.000000 0.8111 0.8093 0.8061 0.8018 0.7956
1375.000000 0.7906 0.7860 0.7819 0.7780 0.7740
1380.000000 0.7700 0.7657 0.7606 0.7599 0.7587
1385.000000 0.7618 0.7684 0.7741 0.7790 0.7837
1390.000000 0.7878 0.7918 0.7961 0.7993 0.8006
1395.000000 0.7988 0.7989 0.7981 0.7965 0.7951
1400.000000 0.7936 0.7921 0.7907 0.7897 0.7893
1405.000000 0.7890 0.7890 0.7895 0.7900 0.7908
1410.000000 0.7918 0.7911 0.7890 0.7860 0.7830
1415.000000 0.7806 0.7782 0.7758 0.7733 0.7708
1420.000000 0.7683 0.7651 0.7608 0.7565 0.7511
1425.000000 0.7444 0.7358 0.7225 0.7071 0.6907
1430.000000 0.6699 0.5671 0.5076 0.4484 0.3891
1435.000000 0.3299 0.2706 0.2114 0.1521 0.1418
1440.000000 0.1777 0.2977 0.4176 0.5376 0.5804
1445.000000 0.5728 0.5162 0.4598 0.4032 0.3468
1450.000000 0.2903 0.2338 0.2513 0.3128 0.3744
1455.000000 0.3929 0.3772 0.3614 0.3518 0.3629
1460.000000 0.3668 0.3479 0.3288 0.3098 0.2907
1465.000000 0.2717 0.2527 0.2335 0.2146 0.2043
1470.000000 0.2040 0.2527 0.2948 0.3368 0.3684
1475.000000 0.3677 0.3695 0.3192 0.2526 0.1860
1480.000000 0.1195 0.0529 0.0322 0.0187 0.0135
1485.000000 0.0103 0.0104 0.0132 0.0162 0.0785
1490.000000 0.1686 0.2589 0.5160 0.5397 0.5518
1495.000000 0.5702 0.5782 0.5832 0.5839 0.5848
1500.000000 0.5875 0.5977 0.6035 0.6060 0.6030
1505.000000 0.6002 0.5930 0.5875 0.5809 0.5733
1510.000000 0.5687 0.5723 0.5742 0.5807 0.5897
1515.000000 0.6141 0.6221 0.6257 0.6266 0.6266
1520.000000 0.6266 0.6247 0.6227 0.6202 0.6176
1525.000000 0.6150 0.6121 0.6091 0.6060 0.6031
1530.000000 0.5993 0.5944 0.5896 0.5848 0.5782
1535.000000 0.5710 0.5639 0.5560 0.5454 0.5351
1540.000000 0.5257 0.5164 0.5070 0.4985 0.4899
1545.000000 0.4794 0.4698 0.4652 0.4606 0.4539
1550.000000 0.4471 0.4435 0.4402 0.4372 0.4360
1555.000000 0.4354 0.4357 0.4362 0.4375 0.4403
1560.000000 0.4431 0.4460 0.4488 0.4525 0.4553
1565.000000 0.4567 0.4577 0.4560 0.4564 0.4547
1570.000000 0.4518 0.4470 0.4376 0.4204 0.3930
1575.000000 0.3659 0.3386 0.3242 0.3318 0.3449
1580.000000 0.3580 0.3694 0.3625 0.3490 0.3356
1585.000000 0.3222 0.3088 0.2953 0.2819 0.2684
1590.000000 0.2550 0.2416 0.2282 0.2171 0.2134
1595.000000 0.2337 0.2734 0.3133 0.3530 0.3928
1600.000000 0.4326 0.4723 0.5494 0.5692 0.5812
1605.000000 0.5933 0.6034 0.6132 0.6229 0.6322
1610.000000 0.6411 0.6487 0.6562 0.6638 0.6786
1615.000000 0.6947 0.7095 0.7256 0.7476 0.7545
1620.000000 0.7612 0.7681 0.7724 0.7765 0.7807
1625.000000 0.7849 0.7882 0.7912 0.7945 0.7976
1630.000000 0.8008 0.8041 0.8072 0.8097 0.8119
1635.000000 0.8138 0.8155 0.8165 0.8169 0.8182
1640.000000 0.8202 0.8225 0.8250 0.8267 0.8275
1645.000000 0.8275 0.8250 0.8205 0.8206 0.8224
1650.000000 0.8243 0.8261 0.8158 0.8055 0.8049
1655.000000 0.8067 0.8090 0.8115 0.8130 0.8132
1660.000000 0.8122 0.8114 0.8105 0.8096 0.8087
1665.000000 0.8078 0.8068 0.8057 0.8044 0.8025
1670.000000 0.8008 0.7996 0.7997 0.7998 0.7997
1675.000000 0.7997 0.8024 0.8054 0.8083 0.8082
1680.000000 0.8078 0.8058 0.8015 0.8005 0.8005
1685.000000 0.8012 0.8030 0.8058 0.8101 0.8131
1690.000000 0.8168 0.8204 0.8237 0.8264 0.8283
1695.000000 0.8291 0.8297 0.8303 0.8310 0.8317
1700.000000 0.8325 0.8333 0.8341 0.8337 0.8333
1705.000000 0.8328 0.8321 0.8312 0.8301 0.8290
1710.000000 0.8281 0.8271 0.8256 0.8237 0.8218
1715.000000 0.8218 0.8218 0.8212 0.8225 0.8252
1720.000000 0.8285 0.8320 0.8344 0.8358 0.8366
1725.000000 0.8373 0.8375 0.8370 0.8366 0.8355
1730.000000 0.8344 0.8323 0.8324 0.8314 0.8314
1735.000000 0.8317 0.8325 0.8333 0.8340 0.8347
1740.000000 0.8355 0.8368 0.8380 0.8384 0.8384
1745.000000 0.8384 0.8375 0.8365 0.8350 0.8334
1750.000000 0.8318 0.8293 0.8268 0.8240 0.8202
1755.000000 0.8164 0.8125 0.8086 0.8047 0.8008
1760.000000 0.7969 0.7932 0.7893 0.7908 0.7955
1765.000000 0.8001 0.8049 0.8095 0.8142 0.8189
1770.000000 0.8235 0.8282 0.8328 0.8375 0.8405
1775.000000 0.8418 0.8432 0.8437 0.8442 0.8446
1780.000000 0.8450 0.8451 0.8451 0.8451 0.8451
1785.000000 0.8449 0.8447 0.8445 0.8444 0.8443
1790.000000 0.8442 0.8438 0.8432 0.8425 0.8418
1795.000000 0.8411 0.8404 0.8390 0.8377 0.8363
1800.000000 0.8349 0.8318 0.8328 0.8328 0.8333
1805.000000 0.8338 0.8346 0.8355 0.8363 0.8370
1810.000000 0.8377 0.8383 0.8390 0.8396 0.8394
1815.000000 0.8393 0.8389 0.8380 0.8371 0.8365
1820.000000 0.8357 0.8352 0.8351 0.8351 0.8355
1825.000000 0.8362 0.8375 0.8392 0.8408 0.8421
1830.000000 0.8430 0.8438 0.8446 0.8444 0.8436
1835.000000 0.8428 0.8418 0.8407 0.8396 0.8385
1840.000000 0.8371 0.8351 0.8330 0.8309 0.8280
1845.000000 0.8256 0.8250 0.8243 0.8235 0.8225
1850.000000 0.8218 0.8215 0.8212 0.8209 0.8210
1855.000000 0.8218 0.8236 0.8256 0.8273 0.8289
1860.000000 0.8306 0.8321 0.8339 0.8352 0.8347
1865.000000 0.8341 0.8336 0.8328 0.8323 0.8318
1870.000000 0.8325 0.8340 0.8345 0.8344 0.8344
1875.000000 0.8343 0.8341 0.8340 0.8337 0.8334
1880.000000 0.8330 0.8325 0.8318 0.8288 0.8238
1885.000000 0.8178 0.8112 0.8044 0.7958 0.7872
1890.000000 0.7833 0.7818 0.7843 0.7883 0.7940
1895.000000 0.7997 0.8047 0.8097 0.8135 0.8168
1900.000000 0.8200 0.8237 0.8284 0.8335 0.8385
1905.000000 0.8392 0.8392 0.8408 0.8386 0.8383
1910.000000 0.8378 0.8375 0.8371 0.8367 0.8363
1915.000000 0.8358 0.8354 0.8349 0.8344 0.8339
1920.000000 0.8334 0.8327 0.8314 0.8298 0.8253
1925.000000 0.8211 0.8175 0.8140 0.8112 0.8099
1930.000000 0.8095 0.8075 0.8118 0.8178 0.8241
1935.000000 0.8296 0.8343 0.8383 0.8418 0.8433
1940.000000 0.8448 0.8463 0.8471 0.8475 0.8480
1945.000000 0.8485 0.8490 0.8509 0.8542 0.8596
1950.000000 0.8605 0.8588 0.8566 0.8548 0.8543
1955.000000 0.8555 0.8578 0.8931 0.9324 0.9365
1960.000000 0.9204 0.8935 0.8666 0.8546 0.8528
1965.000000 0.8513 0.8505 0.8498 0.8490 0.8486
1970.000000 0.8481 0.8477 0.8473 0.8473 0.8473
1975.000000 0.8473 0.8473 0.8473 0.8474 0.8475
1980.000000 0.8478 0.8480 0.8481 0.8483 0.8485
1985.000000 0.8474 0.8488 0.8489 0.8490 0.8491
1990.000000 0.8492 0.8492 0.8492 0.8492 0.8491
1995.000000 0.8491 0.8490 0.8485 0.8478 0.8473
2000.000000 0.8462 0.8450 0.8438 0.8432 0.8425
2005.000000 0.8421 0.8417 0.8413 0.8409 0.8405
2010.000000 0.8401 0.8397 0.8393 0.8392 0.8392
2015.000000 0.8391 0.8391 0.8390 0.8390 0.8389
2020.000000 0.8389 0.8423 0.8458 0.8499 0.8540
2025.000000 0.8561 0.8582 0.8592 0.8602 0.8558
2030.000000 0.8515 0.8452 0.8389 0.8301 0.8214
2035.000000 0.8161 0.8108 0.8061 0.8017 0.7958
2040.000000 0.7900 0.7850 0.7801 0.7801 0.7801
2045.000000 0.7801 0.7787 0.7811 0.7822 0.7839
2050.000000 0.7855 0.7867 0.7878 0.7890 0.7901
2055.000000 0.7911 0.7922 0.7930 0.7938 0.7945
2060.000000 0.7951 0.7958 0.7964 0.7967 0.7969
2065.000000 0.7972 0.7976 0.7976 0.7976 0.7976
2070.000000 0.7976 0.7976 0.7976 0.7975 0.7974
2075.000000 0.7968 0.7962 0.7958 0.7956 0.7953
2080.000000 0.7950 0.7946 0.7943 0.7955 0.7967
2085.000000 0.7981 0.7996 0.8011 0.8025 0.8040
2090.000000 0.8055 0.8069 0.8086 0.8101 0.8117
2095.000000 0.8132 0.8147 0.8158 0.8171 0.8185
2100.000000 0.8198 0.8201 0.8204 0.8204 0.8204
2105.000000 0.8205 0.8206 0.8207 0.8208 0.8213
2110.000000 0.8218 0.8224 0.8231 0.8237 0.8244
2115.000000 0.8252 0.8261 0.8270 0.8278 0.8281
2120.000000 0.8282 0.8283 0.8283 0.8283 0.8282
2125.000000 0.8275 0.8268 0.8261 0.8255 0.8247
2130.000000 0.8240 0.8231 0.8223 0.8214 0.8206
2135.000000 0.8196 0.8187 0.8172 0.8160 0.8150
2140.000000 0.8140 0.8140 0.8140 0.8139 0.8139
2145.000000 0.8138 0.8138 0.8137 0.8137 0.8137
2150.000000 0.8138 0.8138 0.8139 0.8139 0.8139
2155.000000 0.8139 0.8140 0.8140 0.8140 0.8140
2160.000000 0.8141 0.8141 0.8142 0.8142 0.8142
2165.000000 0.8142 0.8142 0.8142 0.8142 0.8142
2170.000000 0.8142 0.8142 0.8142 0.8142 0.8142
2175.000000 0.8142 0.8142 0.8141 0.8141 0.8140
2180.000000 0.8140 0.8139 0.8139 0.8138 0.8138
2185.000000 0.8137 0.8136 0.8135 0.8135 0.8134
2190.000000 0.8134 0.8133 0.8132 0.8131 0.8131
2195.000000 0.8130 0.8130 0.8128 0.8128 0.8125
2200.000000 0.8125 0.8124 0.8122 0.8121 0.8119
2205.000000 0.8118 0.8117 0.8115 0.8114 0.8111
2210.000000 0.8111 0.8108 0.8108 0.8104 0.8101
2215.000000 0.8096 0.8092 0.8087 0.8083 0.8078
2220.000000 0.8075 0.8069 0.8065 0.8061 0.8058
2225.000000 0.8053 0.8049 0.8044 0.8040 0.8036
2230.000000 0.8032 0.8026 0.8022 0.8018 0.8014
2235.000000 0.8010 0.8006 0.8001 0.7997 0.7990
2240.000000 0.7984 0.7976 0.7969 0.7961 0.7955
2245.000000 0.7948 0.7941 0.7934 0.7926 0.7919
2250.000000 0.7912 0.7906 0.7899 0.7892 0.7885
2255.000000 0.7878 0.7871 0.7864 0.7857 0.7846
2260.000000 0.7835 0.7822 0.7811 0.7800 0.7789
2265.000000 0.7776 0.7765 0.7754 0.7743 0.7731
2270.000000 0.7719 0.7708 0.7699 0.7689 0.7678
2275.000000 0.7668 0.7660 0.7672 0.7649 0.7699
2280.000000 0.7711 0.7726 0.7743 0.7753 0.7764
2285.000000 0.7772 0.7782 0.7791 0.7800 0.7800
2290.000000 0.7800 0.7799 0.7798 0.7796 0.7795
2295.000000 0.7794 0.7793 0.7792 0.7791 0.7789
2300.000000 0.7788 0.7787 0.7786 0.7784 0.7783
2305.000000 0.7782 0.7781 0.7781 0.7781 0.7780
2310.000000 0.7780 0.7780 0.7780 0.7778 0.7778
2315.000000 0.7778 0.7778 0.7778 0.7778 0.7778
2320.000000 0.7778 0.7780 0.7781 0.7781 0.7782
2325.000000 0.7783 0.7784 0.7784 0.7785 0.7786
2330.000000 0.7787 0.7789 0.7791 0.7793 0.7795
2335.000000 0.7796 0.7798 0.7800 0.7801 0.7804
2340.000000 0.7807 0.7815 0.7822 0.7831 0.7839
2345.000000 0.7849 0.7860 0.7871 0.7883 0.7885
2350.000000 0.7885 0.7885 0.7883 0.7876 0.7871
2355.000000 0.7865 0.7861 0.7857 0.7853 0.7850
2360.000000 0.7848 0.7845 0.7842 0.7840 0.7840
2365.000000 0.7840 0.7842 0.7843 0.7845 0.7847
2370.000000 0.7850 0.7854 0.7858 0.7861 0.7865
2375.000000 0.7869 0.7875 0.7878 0.7883 0.7888
2380.000000 0.7893 0.7899 0.7905 0.7911 0.7917
2385.000000 0.7922 0.7928 0.7935 0.7941 0.7947
2390.000000 0.7953 0.7958 0.7964 0.7965 0.7968
2395.000000 0.7969 0.7972 0.7974 0.7975 0.7975
2400.000000 0.7976 0.7976 0.7976 0.7976 0.7975
2405.000000 0.7974 0.7972 0.7971 0.7969 0.7968
2410.000000 0.7968 0.7965 0.7965 0.7968 0.7974
2415.000000 0.7980 0.7986 0.7993 0.8000 0.8006
2420.000000 0.8011 0.8012 0.8015 0.8015 0.8017
2425.000000 0.8018 0.8018 0.8018 0.8018 0.8018
2430.000000 0.8018 0.8018 0.8018 0.8018 0.8018
2435.000000 0.8018 0.8018 0.8017 0.8017 0.8015
2440.000000 0.8015 0.8015 0.8014 0.8011 0.8011
2445.000000 0.8010 0.8008 0.8007 0.8006 0.8005
2450.000000 0.8004 0.8003 0.8001 0.8000 0.7999
2455.000000 0.7998 0.7997 0.7995 0.7994 0.7993
2460.000000 0.7992 0.7990 0.7988 0.7986 0.7985
2465.000000 0.7983 0.7982 0.7980 0.7978 0.7976
2470.000000 0.7975 0.7972 0.7971 0.7969 0.7968
2475.000000 0.7967 0.7965 0.7962 0.7961 0.7960
2480.000000 0.7958 0.7956 0.7954 0.7950 0.7947
2485.000000 0.7943 0.7940 0.7937 0.7934 0.7930
2490.000000 0.7926 0.7922 0.7919 0.7915 0.7912
2495.000000 0.7908 0.7908 0.7908 0.7908 0.7915
2500.000000 0.7921 0.7921 0.7921 0.7921 0.7921
2505.000000 0.7919 0.7918 0.7914 0.7911 0.7907
2510.000000 0.7904 0.7900 0.7897 0.7892 0.7887
2515.000000 0.7881 0.7875 0.7871 0.7865 0.7860
2520.000000 0.7855 0.7849 0.7844 0.7839 0.7834
2525.000000 0.7828 0.7824 0.7818 0.7814 0.7808
2530.000000 0.7804 0.7798 0.7793 0.7784 0.7775
2535.000000 0.7765 0.7756 0.7741 0.7726 0.7711
2540.000000 0.7695 0.7678 0.7664 0.7658 0.7640
2545.000000 0.7654 0.7655 0.7657 0.7658 0.7665
2550.000000 0.7671 0.7687 0.7701 0.7721 0.7740
2555.000000 0.7758 0.7775 0.7785 0.7795 0.7804
2560.000000 0.7814 0.7815 0.7818 0.7818 0.7818
2565.000000 0.7818 0.7818 0.7819 0.7821 0.7819
2570.000000 0.7818 0.7824 0.7825 0.7828 0.7830
2575.000000 0.7831 0.7833 0.7835 0.7835 0.7834
2580.000000 0.7832 0.7828 0.7824 0.7819 0.7817
2585.000000 0.7812 0.7808 0.7805 0.7801 0.7796
2590.000000 0.7792 0.7787 0.7786 0.7785 0.7776
2595.000000 0.7794 0.7801 0.7822 0.7844 0.7868
2600.000000 0.7895 0.7915 0.7938 0.7950 0.7962
2605.000000 0.7975 0.7988 0.7991 0.7994 0.7997
2610.000000 0.8000 0.8003 0.8006 0.8008 0.8011
2615.000000 0.8014 0.8015 0.8017 0.8018 0.8019
2620.000000 0.8021 0.8022 0.8024 0.8025 0.8026
2625.000000 0.8028 0.8030 0.8031 0.8033 0.8034
2630.000000 0.8036 0.8037 0.8038 0.8039 0.8041
2635.000000 0.8042 0.8044 0.8045 0.8047 0.8048
2640.000000 0.8050 0.8051 0.8053 0.8054 0.8056
2645.000000 0.8058 0.8060 0.8061 0.8064 0.8065
2650.000000 0.8068 0.8069 0.8071 0.8072 0.8075
2655.000000 0.8076 0.8078 0.8080 0.8082 0.8083
2660.000000 0.8085 0.8086 0.8087 0.8088 0.8089
2665.000000 0.8090 0.8091 0.8092 0.8094 0.8095
2670.000000 0.8096 0.8096 0.8097 0.8097 0.8098
2675.000000 0.8098 0.8099 0.8099 0.8099 0.8099
2680.000000 0.8100 0.8100 0.8100 0.8100 0.8099
2685.000000 0.8099 0.8098 0.8096 0.8094 0.8092
2690.000000 0.8091 0.8089 0.8088 0.8086 0.8084
2695.000000 0.8082 0.8081 0.8078 0.8075 0.8072
2700.000000 0.8071 0.8068 0.8065 0.8061 0.8058
2705.000000 0.8056 0.8054 0.8051 0.8048 0.8045
2710.000000 0.8042 0.8039 0.8037 0.8034 0.8031
2715.000000 0.8028 0.8025 0.8025 0.8025 0.8025
2720.000000 0.8025 0.8025 0.8025 0.8025 0.8025
2725.000000 0.8025 0.8025 0.8024 0.8024 0.8024
2730.000000 0.8024 0.8024 0.8024 0.8024 0.8024
2735.000000 0.8025 0.8026 0.8028 0.8030 0.8032
2740.000000 0.8034 0.8035 0.8037 0.8038 0.8040
2745.000000 0.8042 0.8044 0.8045 0.8047 0.8048
2750.000000 0.8050 0.8051 0.8054 0.8056 0.8058
2755.000000 0.8060 0.8062 0.8065 0.8067 0.8068
2760.000000 0.8071 0.8072 0.8071 0.8071 0.8067
2765.000000 0.8061 0.8057 0.8049 0.8041 0.8034
2770.000000 0.8026 0.8021 0.8015 0.8011 0.8007
2775.000000 0.8007 0.8007 0.8010 0.8012 0.8018
2780.000000 0.8025 0.8039 0.8054 0.8064 0.8074
2785.000000 0.8075 0.8076 0.8076 0.8076 0.8076
2790.000000 0.8075 0.8075 0.8074 0.8071 0.8068
2795.000000 0.8065 0.8064 0.8058 0.8054 0.8048
2800.000000 0.8043 0.8037 0.8032 0.8021 0.8011
2805.000000 0.8001 0.7992 0.7978 0.7964 0.7949
2810.000000 0.7934 0.7918 0.7905 0.7885 0.7865
2815.000000 0.7843 0.7819 0.7797 0.7774 0.7732
2820.000000 0.7691 0.7647 0.7604 0.7535 0.7467
2825.000000 0.7389 0.7311 0.7124 0.6937 0.6588
2830.000000 0.6239 0.5890 0.5542 0.5193 0.4845
2835.000000 0.4498 0.4152 0.4221 0.4120 0.4600
2840.000000 0.4910 0.5221 0.5532 0.5842 0.6153
2845.000000 0.6462 0.6772 0.7083 0.7394 0.7553
2850.000000 0.7712 0.7728 0.7746 0.7753 0.7760
2855.000000 0.7757 0.7782 0.7750 0.7745 0.7738
2860.000000 0.7731 0.7718 0.7708 0.7681 0.7654
2865.000000 0.7628 0.7601 0.7576 0.7551 0.7531
2870.000000 0.7511 0.7501 0.7492 0.7491 0.7490
2875.000000 0.7475 0.7461 0.7378 0.7296 0.7199
2880.000000 0.7101 0.7069 0.7039 0.7032 0.7025
2885.000000 0.7050 0.7075 0.7110 0.7145 0.7155
2890.000000 0.7165 0.7164 0.7161 0.7148 0.7134
2895.000000 0.7033 0.6933 0.6734 0.6535 0.6505
2900.000000 0.6475 0.6462 0.6451 0.6447 0.6446
2905.000000 0.6446 0.6446 0.6456 0.6465 0.6545
2910.000000 0.6625 0.6640 0.6656 0.6658 0.6661
2915.000000 0.6664 0.6667 0.6669 0.6674 0.6765
2920.000000 0.6858 0.6862 0.6867 0.6869 0.6926
2925.000000 0.6876 0.6880 0.6668 0.6458 0.6233
2930.000000 0.6007 0.5781 0.5555 0.5329 0.5103
2935.000000 0.4877 0.4652 0.4541 0.4430 0.4430
2940.000000 0.4430 0.4816 0.5015 0.5212 0.5410
2945.000000 0.5609 0.5808 0.5880 0.6016 0.5871
2950.000000 0.5791 0.5710 0.5630 0.5549 0.5469
2955.000000 0.5388 0.5308 0.5227 0.5147 0.5137
2960.000000 0.5114 0.5227 0.5328 0.5451 0.5575
2965.000000 0.5698 0.5822 0.5945 0.6068 0.6191
2970.000000 0.6315 0.6438 0.6561 0.6745 0.6928
2975.000000 0.7025 0.7121 0.7186 0.7250 0.7294
2980.000000 0.7339 0.7374 0.7408 0.7418 0.7428
2985.000000 0.7431 0.7450 0.7434 0.7433 0.7428
2990.000000 0.7425 0.7411 0.7396 0.7351 0.7308
2995.000000 0.7191 0.7074 0.6936 0.6798 0.6660
3000.000000 0.6522 0.6385 0.6247 0.6109 0.5972
3005.000000 0.5875 0.5779 0.5840 0.5902 0.6022
3010.000000 0.5786 0.6262 0.6382 0.6501 0.6622
3015.000000 0.6743 0.6862 0.6972 0.7083 0.7142
3020.000000 0.7201 0.7234 0.7268 0.7298 0.7328
3025.000000 0.7358 0.7390 0.7419 0.7451 0.7471
3030.000000 0.7493 0.7511 0.7530 0.7545 0.7561
3035.000000 0.7568 0.7575 0.7575 0.7575 0.7575
3040.000000 0.7574 0.7568 0.7565 0.7558 0.7551
3045.000000 0.7540 0.7530 0.7514 0.7499 0.7480
3050.000000 0.7461 0.7439 0.7418 0.7396 0.7375
3055.000000 0.7351 0.7330 0.7295 0.7260 0.7143
3060.000000 0.7026 0.6784 0.6542 0.6521 0.6500
3065.000000 0.6496 0.6515 0.6494 0.6497 0.6511
3070.000000 0.6525 0.6597 0.6668 0.6735 0.6803
3075.000000 0.6862 0.6922 0.6971 0.7018 0.7165
3080.000000 0.7314 0.7368 0.7422 0.7456 0.7489
3085.000000 0.7518 0.7548 0.7590 0.7632 0.7655
3090.000000 0.7678 0.7687 0.7697 0.7706 0.7715
3095.000000 0.7728 0.7741 0.7758 0.7775 0.7811
3100.000000 0.7847 0.7951 0.8058 0.8083 0.8108
3105.000000 0.8122 0.8138 0.8150 0.8161 0.8171
3110.000000 0.8182 0.8188 0.8194 0.8199 0.8205
3115.000000 0.8210 0.8216 0.8220 0.8225 0.8227
3120.000000 0.8228 0.8231 0.8234 0.8236 0.8238
3125.000000 0.8240 0.8242 0.8244 0.8246 0.8247
3130.000000 0.8248 0.8249 0.8250 0.8251 0.8253
3135.000000 0.8254 0.8255 0.8256 0.8257 0.8258
3140.000000 0.8259 0.8260 0.8261 0.8262 0.8263
3145.000000 0.8264 0.8265 0.8266 0.8267 0.8268
3150.000000 0.8268 0.8270 0.8271 0.8273 0.8274
3155.000000 0.8275 0.8275 0.8277 0.8278 0.8278
3160.000000 0.8280 0.8281 0.8283 0.8284 0.8285
3165.000000 0.8286 0.8287 0.8288 0.8289 0.8290
3170.000000 0.8292 0.8293 0.8294 0.8295 0.8297
3175.000000 0.8298 0.8299 0.8300 0.8301 0.8302
3180.000000 0.8304 0.8305 0.8306 0.8307 0.8308
3185.000000 0.8309 0.8311 0.8312 0.8313 0.8314
3190.000000 0.8315 0.8316 0.8318 0.8318 0.8320
3195.000000 0.8321 0.8323 0.8324 0.8325 0.8325
3200.000000 0.8327 0.8328 0.8330 0.8331 0.8332
3205.000000 0.8333 0.8335 0.8336 0.8337 0.8338
3210.000000 0.8339 0.8340 0.8342 0.8343 0.8344
3215.000000 0.8345 0.8346 0.8347 0.8349 0.8350
3220.000000 0.8351 0.8352 0.8354 0.8355 0.8356
3225.000000 0.8357 0.8358 0.8359 0.8360 0.8361
3230.000000 0.8362 0.8363 0.8364 0.8365 0.8366
3235.000000 0.8367 0.8368 0.8368 0.8368 0.8370
3240.000000 0.8371 0.8371 0.8373 0.8374 0.8375
3245.000000 0.8375 0.8375 0.8377 0.8378 0.8378
3250.000000 0.8381 0.8383 0.8385 0.8387 0.8389
3255.000000 0.8390 0.8392 0.8394 0.8396 0.8398
3260.000000 0.8400 0.8402 0.8404 0.8405 0.8407
3265.000000 0.8409 0.8411 0.8413 0.8415 0.8417
3270.000000 0.8418 0.8420 0.8421 0.8424 0.8425
3275.000000 0.8428 0.8430 0.8432 0.8434 0.8435
3280.000000 0.8437 0.8439 0.8441 0.8443 0.8445
3285.000000 0.8447 0.8449 0.8450 0.8452 0.8454
3290.000000 0.8456 0.8458 0.8460 0.8461 0.8463
3295.000000 0.8465 0.8467 0.8468 0.8471 0.8473
3300.000000 0.8475 0.8475 0.8478 0.8478 0.8481
3305.000000 0.8482 0.8484 0.8485 0.8487 0.8488
3310.000000 0.8490 0.8491 0.8493 0.8494 0.8495
3315.000000 0.8496 0.8498 0.8499 0.8501 0.8502
3320.000000 0.8504 0.8505 0.8507 0.8508 0.8510
3325.000000 0.8511 0.8513 0.8514 0.8516 0.8517
3330.000000 0.8518 0.8520 0.8521 0.8523 0.8525
3335.000000 0.8525 0.8527 0.8528 0.8530 0.8531
3340.000000 0.8533 0.8534 0.8536 0.8537 0.8539
3345.000000 0.8540 0.8542 0.8543 0.8544 0.8545
3350.000000 0.8547 0.8548 0.8550 0.8551 0.8553
3355.000000 0.8554 0.8556 0.8557 0.8559 0.8560
3360.000000 0.8561 0.8562 0.8564 0.8565 0.8567
3365.000000 0.8568 0.8570 0.8571 0.8573 0.8574
3370.000000 0.8575 0.8577 0.8578 0.8578 0.8578
3375.000000 0.8578 0.8578 0.8578 0.8578 0.8578
3380.000000 0.8578 0.8578 0.8578 0.8578 0.8580
3385.000000 0.8580 0.8580 0.8580 0.8580 0.8580
3390.000000 0.8581 0.8581 0.8581 0.8581 0.8581
3395.000000 0.8581 0.8581 0.8581 0.8582 0.8582
3400.000000 0.8582 0.8582 0.8582 0.8582 0.8583
3405.000000 0.8583 0.8583 0.8583 0.8583 0.8583
3410.000000 0.8584 0.8584 0.8584 0.8584 0.8585
3415.000000 0.8585 0.8585 0.8585 0.8585 0.8585
3420.000000 0.8586 0.8586 0.8586 0.8586 0.8587
3425.000000 0.8587 0.8587 0.8587 0.8587 0.8587
3430.000000 0.8587 0.8587 0.8587 0.8586 0.8586
3435.000000 0.8585 0.8585 0.8584 0.8584 0.8584
3440.000000 0.8584 0.8583 0.8583 0.8582 0.8582
3445.000000 0.8581 0.8581 0.8581 0.8581 0.8580
3450.000000 0.8578 0.8578 0.8578 0.8578 0.8578
3455.000000 0.8578 0.8578 0.8577 0.8577 0.8575
3460.000000 0.8575 0.8575 0.8575 0.8575 0.8575
3465.000000 0.8574 0.8574 0.8573 0.8573 0.8571
3470.000000 0.8571 0.8571 0.8571 0.8570 0.8570
3475.000000 0.8568 0.8568 0.8568 0.8568 0.8567
3480.000000 0.8567 0.8566 0.8566 0.8565 0.8565
3485.000000 0.8564 0.8564 0.8563 0.8563 0.8562
3490.000000 0.8562 0.8561 0.8561 0.8560 0.8560
3495.000000 0.8559 0.8559 0.8559 0.8559 0.8558
3500.000000 0.8558 0.8558 0.8558 0.8558 0.8558
3505.000000 0.8558 0.8558 0.8558 0.8558 0.8558
3510.000000 0.8558 0.8558 0.8558 0.8557 0.8557
3515.000000 0.8557 0.8557 0.8557 0.8557 0.8557
3520.000000 0.8557 0.8557 0.8557 0.8557 0.8557
3525.000000 0.8557 0.8557 0.8557 0.8557 0.8557
3530.000000 0.8557 0.8557 0.8557 0.8556 0.8556
3535.000000 0.8556 0.8557 0.8557 0.8557 0.8557
3540.000000 0.8557 0.8557 0.8557 0.8557 0.8558
3545.000000 0.8558 0.8558 0.8558 0.8558 0.8558
3550.000000 0.8558 0.8558 0.8559 0.8559 0.8559
3555.000000 0.8559 0.8559 0.8559 0.8559 0.8559
3560.000000 0.8560 0.8560 0.8560 0.8560 0.8560
3565.000000 0.8560 0.8561 0.8561 0.8561 0.8561
3570.000000 0.8561 0.8561 0.8561 0.8561 0.8562
3575.000000 0.8562 0.8562 0.8562 0.8562 0.8562
3580.000000 0.8563 0.8563 0.8564 0.8564 0.8565
3585.000000 0.8565 0.8566 0.8566 0.8567 0.8567
3590.000000 0.8568 0.8568 0.8568 0.8568 0.8570
3595.000000 0.8570 0.8571 0.8571 0.8571 0.8571
3600.000000 0.8573 0.8573 0.8574 0.8574 0.8575
3605.000000 0.8575 0.8575 0.8575 0.8577 0.8577
3610.000000 0.8578 0.8578 0.8578 0.8578 0.8578
3615.000000 0.8578 0.8578 0.8578 0.8578 0.8578
3620.000000 0.8578 0.8578 0.8578 0.8578 0.8578
3625.000000 0.8578 0.8578 0.8578 0.8578 0.8578
3630.000000 0.8578 0.8578 0.8578 0.8578 0.8578
3635.000000 0.8578 0.8578 0.8578 0.8580 0.8580
3640.000000 0.8580 0.8580 0.8580 0.8580 0.8580
3645.000000 0.8580 0.8580 0.8580 0.8580 0.8580
3650.000000 0.8580 0.8580 0.8580 0.8580 0.8580
3655.000000 0.8580 0.8580 0.8580 0.8581 0.8581
3660.000000 0.8581 0.8581 0.8581 0.8580 0.8578
3665.000000 0.8577 0.8575 0.8575 0.8574 0.8573
3670.000000 0.8571 0.8571 0.8571 0.8575 0.8578
3675.000000 0.8581 0.8585 0.8588 0.8592 0.8595
3680.000000 0.8598 0.8600 0.8603 0.8605 0.8607
3685.000000 0.8609 0.8611 0.8613 0.8615 0.8617
3690.000000 0.8618 0.8621 0.8624 0.8625 0.8628
3695.000000 0.8630 0.8632 0.8633 0.8635 0.8635
3700.000000 0.8636 0.8637 0.8638 0.8639 0.8640
3705.000000 0.8641 0.8642 0.8643 0.8644 0.8644
3710.000000 0.8645 0.8646 0.8647 0.8648 0.8649
3715.000000 0.8650 0.8651 0.8652 0.8653 0.8654
3720.000000 0.8655 0.8656 0.8657 0.8658 0.8659
3725.000000 0.8660 0.8661 0.8662 0.8663 0.8664
3730.000000 0.8665 0.8666 0.8667 0.8668 0.8668
3735.000000 0.8668 0.8670 0.8671 0.8673 0.8674
3740.000000 0.8675 0.8675 0.8677 0.8678 0.8678
3745.000000 0.8680 0.8682 0.8683 0.8684 0.8685
3750.000000 0.8686 0.8687 0.8689 0.8690 0.8691
3755.000000 0.8692 0.8693 0.8695 0.8697 0.8699
3760.000000 0.8702 0.8705 0.8708 0.8710 0.8713
3765.000000 0.8716 0.8718 0.8721 0.8724 0.8724
3770.000000 0.8725 0.8725 0.8725 0.8727 0.8728
3775.000000 0.8728 0.8728 0.8728 0.8730 0.8730
3780.000000 0.8731 0.8731 0.8732 0.8732 0.8732
3785.000000 0.8732 0.8732 0.8732 0.8732 0.8732
3790.000000 0.8732 0.8732 0.8732 0.8732 0.8733
##END=
