##TITLE=CHOLESTEROL
$$ E.K. (W.L.)
##JCAMP-DX=4.24
##DATA TYPE=INFRARED SPECTRUM
##CLASS=COBLENTZ
##ORIGIN=WYANDOTTE CHEMICALS CORP., WYANDOTTE, MICHIGAN, USA
##OWNER=COBLENTZ SOCIETY
Collection (C) 2018 copyright by the U.S. Secretary of Commerce
on behalf of the United States of America. All rights reserved.
##DATE=Not specified, most likely prior to 1970
##NAMES=cholest-5-en-3-ol
##CAS REGISTRY NO=57-88-5
##MOLFORM=C27 H46 O
##MP=149 C
##SOURCE REFERENCE=COBLENTZ NO. 1300
##$NIST SOURCE=COBLENTZ
##$NIST IMAGE=cob1300
##SPECTROMETER/DATA SYSTEM=Not specified, most likely a prism, grating, or hybrid spectrometer.
##STATE=SOLID (MINERAL OIL MULL)
##SAMPLING PROCEDURE=TRANSMISSION
##RESOLUTION=4
##DATA PROCESSING=DIGITIZED BY NIST FROM HARD COPY
##XUNITS=MICROMETERS
##YUNITS=TRANSMITTANCE
##XFACTOR=1.000000
##YFACTOR=1
##DELTAX=000.006806
##FIRSTX=2.02
##LASTX=15.9934
##FIRSTY=0.74
##MAXX=15.9934
##MINX=2.02
##MAXY=0.938
##MINY=0.025
##NPOINTS=2054
##XYDATA=(X++(Y..Y))
2.020000 0.7400 0.7410 0.7410 0.7410 0.7410
2.054047 0.7410 0.7410 0.7430 0.7430 0.7430
2.088000 0.7450 0.7450 0.7450 0.7450 0.7470
2.122047 0.7470 0.7470 0.7470 0.7450 0.7380
2.157000 0.7280 0.7240 0.7190 0.7060 0.6910
2.191047 0.6800 0.6630 0.6310 0.6110 0.5920
2.225000 0.5820 0.5800 0.5800 0.5800 0.5800
2.259047 0.5800 0.5820 0.5870 0.5950 0.6040
2.293000 0.6060 0.6090 0.6110 0.6120 0.6140
2.327047 0.6160 0.6160 0.6160 0.6170 0.6170
2.361000 0.6190 0.6190 0.6230 0.6290 0.6340
2.395047 0.6360 0.6410 0.6530 0.6630 0.6700
2.429000 0.6750 0.6770 0.6790 0.6790 0.6800
2.463047 0.6820 0.6850 0.6910 0.6920 0.6960
2.497000 0.6990 0.6990 0.6970 0.6970 0.6990
2.531047 0.7010 0.7060 0.7140 0.7160 0.7240
2.565000 0.7310 0.7350 0.7430 0.7480 0.7450
2.599047 0.7360 0.7330 0.7300 0.7310 0.7430
2.633000 0.7470 0.7600 0.7670 0.7670 0.7650
2.667047 0.7640 0.7640 0.7620 0.7620 0.7690
2.701000 0.7770 0.7790 0.7790 0.7790 0.7790
2.735047 0.7770 0.7720 0.7670 0.7580 0.7500
2.769000 0.7400 0.7300 0.7180 0.7140 0.7070
2.803047 0.6970 0.6850 0.6740 0.6570 0.6400
2.837000 0.6190 0.5990 0.5750 0.5500 0.5210
2.871047 0.4820 0.4320 0.4170 0.3850 0.3440
2.905000 0.3020 0.2680 0.2460 0.2320 0.2190
2.939047 0.2080 0.1930 0.1810 0.1760 0.1680
2.973000 0.1640 0.1570 0.1510 0.1470 0.1390
3.007047 0.1350 0.1320 0.1370 0.1540 0.1680
3.041000 0.1960 0.2170 0.2610 0.2850 0.3100
3.075047 0.3290 0.3630 0.3680 0.3930 0.4170
3.109000 0.4240 0.4390 0.4440 0.4490 0.4530
3.143047 0.4600 0.4650 0.4700 0.4770 0.4830
3.177000 0.4900 0.4990 0.5050 0.5070 0.5160
3.211047 0.5190 0.5190 0.5190 0.5190 0.5190
3.246000 0.5140 0.5000 0.4920 0.4730 0.4320
3.280047 0.3920 0.3530 0.3360 0.3200 0.3020
3.314000 0.2410 0.1660 0.0930 0.0350 0.0270
3.348047 0.0250 0.0250 0.0280 0.0300 0.0300
3.382000 0.0300 0.0320 0.0320 0.0330 0.0330
3.416047 0.0330 0.0330 0.0350 0.0350 0.0350
3.450000 0.0350 0.0350 0.0350 0.0350 0.0390
3.484047 0.0400 0.0400 0.0390 0.0390 0.0390
3.518000 0.0390 0.0400 0.0440 0.0520 0.0710
3.552047 0.0960 0.1230 0.1590 0.2020 0.2410
3.586000 0.2780 0.3120 0.3460 0.3760 0.4190
3.620047 0.4270 0.4380 0.4460 0.4510 0.4550
3.654000 0.4550 0.4510 0.4430 0.4320 0.4320
3.688047 0.4320 0.4380 0.4560 0.4650 0.4710
3.722000 0.4800 0.4820 0.4820 0.4800 0.4800
3.756047 0.4710 0.4700 0.4710 0.4770 0.4820
3.790000 0.4900 0.4990 0.5090 0.5170 0.5280
3.824047 0.5380 0.5440 0.5510 0.5580 0.5630
3.858000 0.5700 0.5770 0.5850 0.5940 0.6040
3.892047 0.6140 0.6260 0.6310 0.6360 0.6430
3.926000 0.6480 0.6550 0.6620 0.6680 0.6740
3.960047 0.6740 0.6790 0.6870 0.6970 0.7040
3.994000 0.7090 0.7130 0.7160 0.7180 0.7210
4.028047 0.7240 0.7300 0.7330 0.7380 0.7410
4.062000 0.7430 0.7430 0.7470 0.7470 0.7470
4.096047 0.7470 0.7480 0.7500 0.7500 0.7520
4.130000 0.7520 0.7530 0.7530 0.7570 0.7600
4.164047 0.7640 0.7650 0.7650 0.7670 0.7670
4.198000 0.7670 0.7670 0.7670 0.7650 0.7640
4.232047 0.7600 0.7480 0.7410 0.7410 0.7410
4.266000 0.7430 0.7450 0.7480 0.7580 0.7740
4.300047 0.7800 0.7860 0.7910 0.7940 0.7990
4.334000 0.8040 0.8110 0.8210 0.8330 0.8480
4.368047 0.8530 0.8550 0.8550 0.8520 0.8380
4.403000 0.8330 0.8280 0.8250 0.8210 0.8230
4.437047 0.8250 0.8280 0.8250 0.8210 0.8210
4.471000 0.8210 0.8230 0.8280 0.8330 0.8350
4.505047 0.8350 0.8380 0.8310 0.8310 0.8310
4.539000 0.8310 0.8310 0.8310 0.8370 0.8400
4.573047 0.8430 0.8480 0.8520 0.8550 0.8570
4.607000 0.8590 0.8600 0.8620 0.8620 0.8640
4.641047 0.8640 0.8640 0.8650 0.8650 0.8650
4.675000 0.8650 0.8650 0.8670 0.8690 0.8720
4.709047 0.8760 0.8810 0.8820 0.8860 0.8870
4.743000 0.8890 0.8890 0.8890 0.8890 0.8890
4.777047 0.8890 0.8890 0.8890 0.8890 0.8890
4.811000 0.8890 0.8890 0.8890 0.8890 0.8890
4.845047 0.8890 0.8890 0.8910 0.8910 0.8930
4.879000 0.8930 0.8930 0.8940 0.8960 0.8990
4.913047 0.9010 0.9030 0.9030 0.9030 0.9030
4.947000 0.9030 0.9030 0.9030 0.9040 0.9040
4.981047 0.9080 0.9080 0.9110 0.9110 0.9110
5.015000 0.9110 0.9110 0.9110 0.9110 0.9110
5.049047 0.9110 0.9100 0.9110 0.9160 0.9210
5.083000 0.9230 0.9230 0.9210 0.9160 0.9160
5.117047 0.9180 0.9200 0.9210 0.9210 0.9230
5.151000 0.9230 0.9250 0.9250 0.9230 0.9180
5.185047 0.9200 0.9200 0.9230 0.9250 0.9250
5.219000 0.9230 0.9180 0.9180 0.9200 0.9210
5.253047 0.9250 0.9280 0.9280 0.9280 0.9280
5.287000 0.9250 0.9250 0.9230 0.9230 0.9230
5.321047 0.9230 0.9230 0.9230 0.9250 0.9250
5.355000 0.9250 0.9180 0.9180 0.9210 0.9210
5.389047 0.9320 0.9330 0.9330 0.9320 0.9300
5.423000 0.9300 0.9200 0.9160 0.9160 0.9200
5.457047 0.9350 0.9380 0.9380 0.9300 0.9150
5.491000 0.9150 0.9180 0.9300 0.9300 0.9300
5.525047 0.9280 0.9280 0.9250 0.9250 0.9210
5.560000 0.9200 0.9210 0.9180 0.9130 0.9110
5.594047 0.9110 0.9110 0.9300 0.9280 0.9200
5.628000 0.9180 0.9100 0.9010 0.9010 0.9060
5.662047 0.9230 0.9230 0.9200 0.9010 0.8910
5.696000 0.8790 0.8520 0.8500 0.8520 0.8520
5.730047 0.8640 0.8690 0.8720 0.8810 0.8890
5.764000 0.8930 0.8930 0.8890 0.8110 0.8110
5.798047 0.8160 0.8500 0.8640 0.8860 0.8870
5.832000 0.8810 0.8650 0.8590 0.8570 0.8590
5.866047 0.8620 0.8810 0.8890 0.8890 0.8770
5.900000 0.8620 0.8480 0.8430 0.8420 0.8380
5.934047 0.8280 0.8130 0.7430 0.7400 0.7400
5.968000 0.7600 0.7790 0.7840 0.7920 0.7890
6.002047 0.7840 0.7770 0.7670 0.7670 0.7670
6.036000 0.7670 0.7650 0.7620 0.7620 0.7620
6.070047 0.7650 0.8030 0.8520 0.8530 0.8500
6.104000 0.8300 0.8300 0.8310 0.8450 0.8520
6.138047 0.8600 0.8600 0.8530 0.8480 0.8450
6.172000 0.8420 0.8370 0.8310 0.8300 0.8310
6.206047 0.8400 0.8400 0.8430 0.8470 0.8550
6.240000 0.8590 0.8590 0.8520 0.8520 0.8520
6.274047 0.8520 0.8520 0.8520 0.8520 0.8570
6.308000 0.8620 0.8640 0.8690 0.8690 0.8640
6.342047 0.8370 0.8330 0.8370 0.8520 0.8620
6.376000 0.8690 0.8720 0.8740 0.8690 0.8530
6.410047 0.8450 0.8350 0.8230 0.8210 0.8210
6.444000 0.8230 0.8400 0.8500 0.8500 0.8430
6.478047 0.8280 0.8180 0.8110 0.8030 0.7940
6.512000 0.7920 0.7920 0.7920 0.7920 0.7800
6.546047 0.7750 0.7650 0.7550 0.7410 0.7300
6.580000 0.7180 0.7070 0.6960 0.6820 0.6680
6.614047 0.6500 0.6430 0.6360 0.6330 0.6210
6.649000 0.6060 0.5850 0.5650 0.5410 0.4970
6.683047 0.4480 0.4020 0.3590 0.3080 0.2540
6.717000 0.2030 0.1620 0.1220 0.0810 0.0300
6.751047 0.0300 0.0320 0.0330 0.0330 0.0350
6.785000 0.0370 0.0370 0.0370 0.0370 0.0370
6.819047 0.0370 0.0370 0.0370 0.0370 0.0370
6.853000 0.0370 0.0370 0.0390 0.0400 0.0420
6.887047 0.0450 0.0500 0.0560 0.0610 0.0670
6.921000 0.0710 0.0830 0.0930 0.1080 0.1270
6.955047 0.1520 0.1860 0.2080 0.2130 0.2810
6.989000 0.3140 0.3410 0.3660 0.3870 0.4040
7.023047 0.4170 0.4310 0.4390 0.4460 0.4530
7.057000 0.4630 0.4660 0.4700 0.4750 0.4780
7.091047 0.4850 0.4900 0.4940 0.4950 0.4950
7.125000 0.4920 0.4820 0.4650 0.4380 0.4020
7.159047 0.3530 0.2920 0.2290 0.1680 0.1000
7.193000 0.0620 0.0440 0.0330 0.0330 0.0330
7.227047 0.0330 0.0330 0.0350 0.0440 0.0500
7.261000 0.0520 0.0560 0.0560 0.0570 0.0570
7.295047 0.0570 0.0590 0.0830 0.1200 0.1470
7.329000 0.1680 0.1810 0.1910 0.1980 0.2020
7.363047 0.2030 0.2070 0.2120 0.2200 0.2320
7.397000 0.2390 0.2460 0.2520 0.2630 0.2730
7.431047 0.2800 0.2810 0.2810 0.2810 0.2800
7.465000 0.2590 0.2590 0.2610 0.2880 0.3080
7.499047 0.3440 0.3610 0.3750 0.3870 0.3980
7.533000 0.4090 0.4190 0.4260 0.4310 0.4340
7.567047 0.4360 0.4360 0.4360 0.4360 0.4360
7.601000 0.4320 0.4290 0.4290 0.4290 0.4290
7.635047 0.4310 0.4380 0.4430 0.4480 0.4550
7.669000 0.4610 0.4680 0.4750 0.4830 0.4920
7.703047 0.4990 0.5050 0.5120 0.5190 0.5260
7.737000 0.5290 0.5310 0.5330 0.5330 0.5330
7.771047 0.5330 0.5330 0.5290 0.5190 0.5120
7.806000 0.4950 0.4780 0.4730 0.4700 0.4700
7.840047 0.4680 0.4680 0.4680 0.4710 0.4920
7.874000 0.5070 0.5310 0.5630 0.5780 0.5780
7.908047 0.5770 0.5610 0.5360 0.5070 0.4710
7.942000 0.4700 0.4710 0.4900 0.5220 0.5410
7.976047 0.5500 0.5550 0.5500 0.5410 0.5290
8.010000 0.5140 0.5040 0.5000 0.4880 0.4780
8.044047 0.4750 0.4770 0.4830 0.4900 0.5000
8.078000 0.5090 0.5190 0.5310 0.5390 0.5500
8.112047 0.5560 0.5600 0.5610 0.5650 0.5610
8.146000 0.5500 0.5290 0.5280 0.5280 0.5330
8.180047 0.5360 0.5460 0.5610 0.5770 0.5920
8.214000 0.6010 0.6040 0.6110 0.6120 0.6120
8.248047 0.6110 0.6090 0.5990 0.5950 0.5870
8.282000 0.5820 0.5770 0.5700 0.5630 0.5530
8.316047 0.5430 0.5310 0.5210 0.5090 0.4940
8.350000 0.4780 0.4730 0.4650 0.4580 0.4560
8.384047 0.4600 0.4750 0.4920 0.5160 0.5330
8.418000 0.5480 0.5580 0.5680 0.5780 0.5840
8.452047 0.5850 0.5890 0.5890 0.5840 0.5730
8.486000 0.5610 0.5500 0.5330 0.5210 0.5020
8.520047 0.4990 0.4990 0.5020 0.5220 0.5410
8.554000 0.5430 0.5410 0.5390 0.5260 0.5140
8.588047 0.5120 0.5120 0.5140 0.5240 0.5360
8.622000 0.5390 0.5440 0.5500 0.5600 0.5680
8.656047 0.5780 0.5870 0.5890 0.5890 0.5870
8.690000 0.5780 0.5670 0.5480 0.5330 0.5140
8.724047 0.5000 0.4880 0.4870 0.4880 0.4900
8.758000 0.4900 0.4900 0.4770 0.4700 0.4650
8.792047 0.4580 0.4530 0.4490 0.4490 0.4510
8.826000 0.4580 0.4580 0.4680 0.4870 0.5120
8.860047 0.5410 0.5670 0.5900 0.6040 0.6070
8.895000 0.6070 0.6020 0.5970 0.5890 0.5800
8.929047 0.5680 0.5580 0.5430 0.5170 0.4990
8.963000 0.4780 0.4630 0.4610 0.4630 0.4730
8.997047 0.4830 0.4940 0.5050 0.5190 0.5330
9.031000 0.5480 0.5630 0.5770 0.5890 0.5970
9.065047 0.6010 0.6020 0.6020 0.6010 0.5870
9.099000 0.5820 0.5750 0.5720 0.5650 0.5560
9.133047 0.5480 0.5380 0.5260 0.5140 0.4990
9.167000 0.4820 0.4660 0.4550 0.4530 0.4550
9.201047 0.4650 0.4710 0.4770 0.4900 0.5040
9.235000 0.5050 0.5110 0.5110 0.5020 0.4900
9.269047 0.4710 0.4530 0.4310 0.4100 0.3920
9.303000 0.3660 0.3370 0.3080 0.2780 0.2490
9.337047 0.2200 0.1910 0.1660 0.1420 0.1250
9.371000 0.1120 0.1030 0.0960 0.0910 0.0840
9.405047 0.0830 0.0790 0.0780 0.0780 0.0780
9.439000 0.0790 0.0810 0.0860 0.0950 0.1080
9.473047 0.1290 0.1440 0.1680 0.1880 0.2070
9.507000 0.2220 0.2370 0.2510 0.2640 0.2750
9.541047 0.2860 0.2970 0.3070 0.3170 0.3200
9.575000 0.3240 0.3320 0.3410 0.3510 0.3630
9.609047 0.3750 0.3870 0.3980 0.4070 0.4170
9.643000 0.4260 0.4310 0.4290 0.4190 0.4050
9.677047 0.3880 0.3710 0.3530 0.3320 0.3120
9.711000 0.2850 0.2580 0.2390 0.2340 0.2340
9.745047 0.2390 0.2540 0.2780 0.2950 0.3140
9.779000 0.3320 0.3590 0.3970 0.4150 0.4270
9.813047 0.4310 0.4340 0.4410 0.4410 0.4410
9.847000 0.4410 0.4340 0.4190 0.4050 0.3920
9.881047 0.3820 0.3730 0.3710 0.3730 0.3880
9.915000 0.4150 0.4440 0.4750 0.4970 0.5170
9.949047 0.5340 0.5500 0.5610 0.5730 0.5840
9.983000 0.5900 0.5990 0.6070 0.6140 0.6140
10.017047 0.6110 0.6090 0.6010 0.5970 0.5890
10.052000 0.5800 0.5600 0.5380 0.5170 0.4940
10.086047 0.4800 0.4580 0.4390 0.4360 0.4380
10.120000 0.4440 0.4560 0.4700 0.4850 0.5020
10.154047 0.5190 0.5340 0.5460 0.5530 0.5600
10.188000 0.5680 0.5730 0.5780 0.5800 0.5840
10.222047 0.5890 0.5890 0.5890 0.5870 0.5850
10.256000 0.5840 0.5820 0.5780 0.5780 0.5770
10.290047 0.5750 0.5730 0.5720 0.5700 0.5670
10.324000 0.5560 0.5460 0.5310 0.5160 0.4970
10.358047 0.4800 0.4600 0.4390 0.4150 0.3920
10.392000 0.3660 0.3390 0.3170 0.3080 0.2930
10.426047 0.2930 0.2920 0.2930 0.3050 0.3150
10.460000 0.3170 0.3200 0.3200 0.3100 0.2830
10.494047 0.2680 0.2640 0.2680 0.2920 0.3100
10.528000 0.3390 0.3750 0.4170 0.4510 0.4800
10.562047 0.5020 0.5220 0.5410 0.5560 0.5720
10.596000 0.5850 0.5870 0.5940 0.5950 0.5950
10.630047 0.5920 0.5900 0.5720 0.5550 0.5430
10.664000 0.5290 0.5190 0.5170 0.5190 0.5290
10.698047 0.5390 0.5500 0.5630 0.5770 0.5900
10.732000 0.5990 0.6020 0.6060 0.6040 0.5970
10.766047 0.5870 0.5720 0.5650 0.5510 0.5380
10.800000 0.5310 0.5290 0.5310 0.5390 0.5720
10.834047 0.5920 0.6060 0.6170 0.6280 0.6310
10.868000 0.6330 0.6340 0.6340 0.6360 0.6380
10.902047 0.6400 0.6410 0.6410 0.6430 0.6500
10.936000 0.6570 0.6600 0.6650 0.6720 0.6820
10.970047 0.6920 0.7040 0.7160 0.7240 0.7330
11.004000 0.7400 0.7410 0.7430 0.7430 0.7450
11.038047 0.7480 0.7520 0.7600 0.7650 0.7690
11.072000 0.7690 0.7690 0.7690 0.7670 0.7670
11.106047 0.7670 0.7650 0.7640 0.7620 0.7580
11.140000 0.7470 0.7380 0.7300 0.7230 0.7160
11.174047 0.7110 0.7020 0.6940 0.6850 0.6790
11.209000 0.6700 0.6630 0.6600 0.6580 0.6570
11.243047 0.6550 0.6500 0.6480 0.6430 0.6380
11.277000 0.6340 0.6340 0.6310 0.6310 0.6310
11.311047 0.6310 0.6310 0.6400 0.6480 0.6530
11.345000 0.6620 0.6750 0.6870 0.6970 0.7010
11.379047 0.7070 0.7230 0.7360 0.7450 0.7470
11.413000 0.7480 0.7520 0.7530 0.7550 0.7600
11.447047 0.7740 0.7800 0.7840 0.7870 0.7910
11.481000 0.7940 0.7970 0.8010 0.8040 0.8060
11.515047 0.8090 0.8130 0.8140 0.8160 0.8200
11.549000 0.8210 0.8230 0.8230 0.8230 0.8210
11.583047 0.8200 0.8200 0.8200 0.8180 0.8180
11.617000 0.8180 0.8160 0.8180 0.8180 0.8200
11.651047 0.8200 0.8200 0.8160 0.8110 0.8060
11.685000 0.8010 0.7940 0.7840 0.7770 0.7740
11.719047 0.7600 0.7480 0.7410 0.7260 0.7110
11.753000 0.6990 0.6850 0.6740 0.6580 0.6530
11.787047 0.6530 0.6510 0.6460 0.6430 0.6340
11.821000 0.6260 0.6140 0.6070 0.5820 0.5600
11.855047 0.5390 0.5020 0.4610 0.4310 0.4020
11.889000 0.3800 0.3480 0.3390 0.3390 0.3410
11.923047 0.3420 0.3610 0.3920 0.4070 0.4260
11.957000 0.4410 0.4530 0.4650 0.4730 0.4820
11.991047 0.4900 0.5000 0.5090 0.5190 0.5210
12.025000 0.5220 0.5280 0.5330 0.5380 0.5430
12.059047 0.5500 0.5560 0.5630 0.5720 0.5800
12.093000 0.5900 0.5990 0.6090 0.6190 0.6360
12.127047 0.6430 0.6480 0.6570 0.6600 0.6750
12.161000 0.6840 0.6920 0.6940 0.6940 0.6940
12.195047 0.6940 0.6910 0.6910 0.6910 0.6920
12.229000 0.6920 0.6940 0.6960 0.6990 0.7070
12.263047 0.7110 0.7110 0.7090 0.7040 0.6960
12.298000 0.6840 0.6630 0.6550 0.6410 0.6340
12.332047 0.6310 0.6310 0.6310 0.6310 0.6310
12.366000 0.6310 0.6290 0.6210 0.6040 0.5840
12.400047 0.5600 0.5380 0.5160 0.4950 0.4780
12.434000 0.4650 0.4550 0.4430 0.4290 0.4150
12.468047 0.3900 0.3680 0.3420 0.3200 0.3020
12.502000 0.2920 0.2880 0.2900 0.3050 0.3220
12.536047 0.3250 0.3920 0.4220 0.4730 0.5020
12.570000 0.5360 0.5630 0.5950 0.6240 0.6500
12.604047 0.6720 0.6910 0.7090 0.7240 0.7380
12.638000 0.7480 0.7600 0.7690 0.7770 0.7840
12.672047 0.7910 0.7960 0.7990 0.8010 0.8110
12.706000 0.8130 0.8160 0.8180 0.8180 0.8180
12.740047 0.8180 0.8200 0.8200 0.8200 0.8200
12.774000 0.8200 0.8200 0.8200 0.8200 0.8200
12.808047 0.8200 0.8200 0.8200 0.8210 0.8200
12.842000 0.8200 0.8200 0.8180 0.8140 0.8110
12.876047 0.8090 0.8080 0.8080 0.8080 0.8080
12.910000 0.8060 0.8060 0.8060 0.8040 0.8040
12.944047 0.8040 0.8040 0.8040 0.8040 0.8040
12.978000 0.8040 0.8040 0.8060 0.8060 0.8060
13.012047 0.8060 0.8080 0.8080 0.8080 0.8080
13.046000 0.8080 0.8090 0.8110 0.8140 0.8180
13.080047 0.8180 0.8140 0.8110 0.8110 0.8110
13.114000 0.8090 0.8110 0.8180 0.8180 0.8160
13.148047 0.8130 0.8110 0.8080 0.8060 0.8060
13.182000 0.8040 0.8040 0.8040 0.8040 0.8040
13.216047 0.8040 0.8030 0.8030 0.8010 0.7960
13.250000 0.7920 0.7870 0.7860 0.7820 0.7820
13.284047 0.7800 0.7800 0.7770 0.7740 0.7720
13.318000 0.7690 0.7670 0.7650 0.7600 0.7480
13.352047 0.7400 0.7350 0.7280 0.7190 0.7140
13.386000 0.6990 0.6870 0.6740 0.6630 0.6510
13.420047 0.6410 0.6310 0.6110 0.6010 0.5840
13.455000 0.5750 0.5700 0.5650 0.5580 0.5550
13.489047 0.5460 0.5440 0.5410 0.5380 0.5360
13.523000 0.5360 0.5330 0.5290 0.5280 0.5260
13.557047 0.5210 0.5190 0.5170 0.5190 0.5190
13.591000 0.5210 0.5220 0.5280 0.5360 0.5380
13.625047 0.5390 0.5430 0.5460 0.5510 0.5530
13.659000 0.5550 0.5610 0.5630 0.5630 0.5600
13.693047 0.5600 0.5600 0.5610 0.5610 0.5650
13.727000 0.5680 0.5680 0.5680 0.5680 0.5680
13.761047 0.5670 0.5630 0.5600 0.5580 0.5550
13.795000 0.5530 0.5500 0.5480 0.5460 0.5410
13.829047 0.5390 0.5390 0.5390 0.5390 0.5390
13.863000 0.5410 0.5430 0.5460 0.5530 0.5630
13.897047 0.5730 0.5850 0.5990 0.6090 0.6170
13.931000 0.6260 0.6380 0.6480 0.6620 0.6740
13.965047 0.6840 0.6920 0.6990 0.7070 0.7160
13.999000 0.7280 0.7350 0.7470 0.7520 0.7550
14.033047 0.7580 0.7620 0.7670 0.7700 0.7770
14.067000 0.7820 0.7890 0.7960 0.8010 0.8040
14.101047 0.8040 0.8080 0.8090 0.8110 0.8130
14.135000 0.8160 0.8200 0.8230 0.8280 0.8310
14.169047 0.8330 0.8330 0.8330 0.8330 0.8350
14.203000 0.8350 0.8330 0.8330 0.8330 0.8330
14.237047 0.8310 0.8300 0.8280 0.8280 0.8250
14.271000 0.8180 0.8160 0.8140 0.8110 0.8090
14.305047 0.8080 0.8060 0.8040 0.8040 0.8040
14.339000 0.8040 0.8030 0.8030 0.8030 0.8030
14.373047 0.8030 0.8060 0.8110 0.8140 0.8180
14.407000 0.8210 0.8250 0.8260 0.8310 0.8330
14.441047 0.8350 0.8350 0.8350 0.8370 0.8380
14.475000 0.8380 0.8400 0.8400 0.8420 0.8420
14.509047 0.8430 0.8430 0.8450 0.8450 0.8420
14.544000 0.8400 0.8370 0.8350 0.8330 0.8330
14.578047 0.8310 0.8310 0.8300 0.8300 0.8300
14.612000 0.8300 0.8280 0.8280 0.8280 0.8280
14.646047 0.8250 0.8230 0.8230 0.8230 0.8210
14.680000 0.8210 0.8200 0.8200 0.8180 0.8160
14.714047 0.8110 0.8060 0.8030 0.7990 0.7970
14.748000 0.7960 0.7960 0.7940 0.7920 0.7910
14.782047 0.7890 0.7870 0.7840 0.7800 0.7800
14.816000 0.7770 0.7750 0.7740 0.7720 0.7700
14.850047 0.7670 0.7670 0.7650 0.7650 0.7640
14.884000 0.7620 0.7600 0.7600 0.7600 0.7580
14.918047 0.7570 0.7570 0.7520 0.7500 0.7480
14.952000 0.7430 0.7360 0.7280 0.7160 0.7140
14.986047 0.7090 0.7020 0.6920 0.6820 0.6700
15.020000 0.6570 0.6430 0.6310 0.6170 0.6040
15.054047 0.5920 0.5720 0.5680 0.5650 0.5650
15.088000 0.5670 0.5680 0.5700 0.5730 0.5800
15.122047 0.5870 0.5950 0.6040 0.6110 0.6160
15.156000 0.6240 0.6340 0.6450 0.6510 0.6580
15.190047 0.6670 0.6670 0.6680 0.6720 0.6770
15.224000 0.6800 0.6820 0.6820 0.6840 0.6840
15.258047 0.6820 0.6820 0.6800 0.6790 0.6770
15.292000 0.6770 0.6790 0.6790 0.6790 0.6770
15.326047 0.6740 0.6720 0.6670 0.6650 0.6670
15.360000 0.6680 0.6700 0.6700 0.6700 0.6680
15.394047 0.6670 0.6670 0.6630 0.6620 0.6580
15.428000 0.6570 0.6510 0.6500 0.6480 0.6430
15.462047 0.6410 0.6400 0.6400 0.6380 0.6340
15.496000 0.6310 0.6280 0.6230 0.6210 0.6190
15.530047 0.6190 0.6170 0.6170 0.6160 0.6120
15.564000 0.6110 0.6090 0.6060 0.6020 0.6010
15.598047 0.6010 0.6010 0.6010 0.6010 0.6010
15.632000 0.6010 0.6010 0.6010 0.6010 0.6010
15.666047 0.5990 0.5990 0.5990 0.5990 0.5970
15.701000 0.5970 0.5970 0.5970 0.5970 0.5990
15.735047 0.5990 0.5990 0.5990 0.5990 0.5990
15.769000 0.5970 0.5920 0.5850 0.5850 0.5820
15.803047 0.5780 0.5750 0.5720 0.5720 0.5680
15.837000 0.5650 0.5650 0.5670 0.5670 0.5680
15.871047 0.5680 0.5680 0.5670 0.5650 0.5610
15.905000 0.5580 0.5560 0.5510 0.5460 0.5440
15.939047 0.5410 0.5410 0.5410 0.5410 0.5410
15.973000 0.5390 0.5390 0.5390 0.5380
##END=
