##TITLE=2-Nitronaphthalene
##JCAMP-DX=4.24
$$ By DXEDIT 1.05 (RS McDonald)
##DATA TYPE=INFRARED SPECTRUM
##CLASS=COBLENTZ III
##ORIGIN=DOW CHEMICAL COMPANY
##OWNER=COPYRIGHT (C) 1988 by COBLENTZ SOCIETY INC.
Collection (C) 2018 copyright by the U.S. Secretary of Commerce
on behalf of the United States of America. All rights reserved.
##DATE=1961/08/23
##CAS REGISTRY NO=581-89-5
##MOLFORM=C10 H7 N O2
##SOURCE REFERENCE=COBLENTZ NO. 8549
##$NIST SOURCE=COBLENTZ
##$NIST IMAGE=cob8549
##SPECTROMETER/DATA SYSTEM=DOW KBr FOREPRISM-GRATING
##INSTRUMENT PARAMETERS=BLAZED AT 3.5, 12.0, 20.0 MICRON AND CHANGED AT 5.0, 7.5, 14.9 MICRON
##STATE=SOLUTION (2% CCl4 FOR 3800-1330, 2% CS2 FOR 1330-450 CM^-^1)
##PATH LENGTH=0.011 CM, 0.011 CM
##SAMPLING PROCEDURE=TRANSMISSION
##RESOLUTION=2
##DATA PROCESSING=DIGITIZED BY COBLENTZ SOCIETY (BATCH I) FROM HARD COPY
##XUNITS=1/CM
##YUNITS=TRANSMITTANCE
##XFACTOR=1
##YFACTOR=1
##DELTAX=1
##FIRSTX=3788
##LASTX=440
##FIRSTY=0.8684
##MAXX=3788
##MINX=440
##MAXY=0.9536
##MINY=0.1044
##NPOINTS=3349
##XYDATA=(X++(Y..Y))
3788.000000 0.8684 0.8680 0.8679 0.8672 0.8658
3783.000000 0.8647 0.8642 0.8645 0.8643 0.8630
3778.000000 0.8635 0.8635 0.8635 0.8622 0.8632
3773.000000 0.8632 0.8632 0.8632 0.8632 0.8635
3768.000000 0.8637 0.8639 0.8641 0.8643 0.8646
3763.000000 0.8648 0.8650 0.8653 0.8663 0.8665
3758.000000 0.8663 0.8666 0.8670 0.8673 0.8676
3753.000000 0.8679 0.8683 0.8687 0.8692 0.8695
3748.000000 0.8699 0.8702 0.8706 0.8709 0.8714
3743.000000 0.8717 0.8721 0.8724 0.8728 0.8735
3738.000000 0.8748 0.8750 0.8751 0.8753 0.8748
3733.000000 0.8743 0.8752 0.8758 0.8759 0.8754
3728.000000 0.8748 0.8744 0.8740 0.8734 0.8730
3723.000000 0.8725 0.8721 0.8716 0.8711 0.8694
3718.000000 0.8690 0.8696 0.8692 0.8687 0.8683
3713.000000 0.8680 0.8681 0.8682 0.8676 0.8681
3708.000000 0.8678 0.8678 0.8678 0.8679 0.8681
3703.000000 0.8682 0.8684 0.8685 0.8687 0.8688
3698.000000 0.8691 0.8696 0.8690 0.8693 0.8699
3693.000000 0.8705 0.8711 0.8713 0.8715 0.8715
3688.000000 0.8715 0.8711 0.8699 0.8697 0.8695
3683.000000 0.8693 0.8691 0.8688 0.8686 0.8683
3678.000000 0.8683 0.8683 0.8683 0.8683 0.8683
3673.000000 0.8683 0.8685 0.8685 0.8695 0.8686
3668.000000 0.8685 0.8682 0.8682 0.8682 0.8681
3663.000000 0.8680 0.8678 0.8678 0.8677 0.8675
3658.000000 0.8675 0.8675 0.8674 0.8673 0.8673
3653.000000 0.8673 0.8673 0.8673 0.8673 0.8673
3648.000000 0.8674 0.8674 0.8674 0.8674 0.8674
3643.000000 0.8674 0.8674 0.8674 0.8675 0.8675
3638.000000 0.8675 0.8675 0.8675 0.8674 0.8674
3633.000000 0.8676 0.8686 0.8685 0.8682 0.8672
3628.000000 0.8676 0.8684 0.8684 0.8683 0.8683
3623.000000 0.8682 0.8682 0.8679 0.8677 0.8674
3618.000000 0.8672 0.8669 0.8666 0.8663 0.8661
3613.000000 0.8658 0.8656 0.8655 0.8654 0.8653
3608.000000 0.8643 0.8653 0.8653 0.8652 0.8652
3603.000000 0.8647 0.8642 0.8651 0.8647 0.8639
3598.000000 0.8646 0.8653 0.8654 0.8648 0.8642
3593.000000 0.8631 0.8618 0.8596 0.8576 0.8553
3588.000000 0.8531 0.8517 0.8504 0.8513 0.8523
3583.000000 0.8537 0.8550 0.8564 0.8578 0.8588
3578.000000 0.8598 0.8607 0.8612 0.8616 0.8634
3573.000000 0.8640 0.8642 0.8639 0.8643 0.8647
3568.000000 0.8651 0.8655 0.8659 0.8664 0.8668
3563.000000 0.8668 0.8668 0.8668 0.8668 0.8668
3558.000000 0.8668 0.8667 0.8667 0.8678 0.8667
3553.000000 0.8667 0.8678 0.8678 0.8675 0.8668
3548.000000 0.8677 0.8677 0.8677 0.8671 0.8669
3543.000000 0.8676 0.8676 0.8675 0.8667 0.8669
3538.000000 0.8665 0.8669 0.8673 0.8672 0.8672
3533.000000 0.8671 0.8671 0.8670 0.8670 0.8656
3528.000000 0.8656 0.8655 0.8655 0.8654 0.8654
3523.000000 0.8653 0.8653 0.8652 0.8652 0.8651
3518.000000 0.8651 0.8649 0.8649 0.8648 0.8648
3513.000000 0.8647 0.8647 0.8646 0.8646 0.8645
3508.000000 0.8645 0.8645 0.8646 0.8646 0.8647
3503.000000 0.8647 0.8648 0.8648 0.8649 0.8650
3498.000000 0.8651 0.8651 0.8652 0.8652 0.8653
3493.000000 0.8653 0.8654 0.8654 0.8655 0.8656
3488.000000 0.8657 0.8657 0.8658 0.8658 0.8659
3483.000000 0.8659 0.8661 0.8661 0.8662 0.8663
3478.000000 0.8664 0.8664 0.8665 0.8665 0.8666
3473.000000 0.8666 0.8667 0.8667 0.8668 0.8669
3468.000000 0.8670 0.8670 0.8671 0.8671 0.8672
3463.000000 0.8672 0.8672 0.8672 0.8672 0.8672
3458.000000 0.8672 0.8672 0.8672 0.8672 0.8672
3453.000000 0.8672 0.8672 0.8672 0.8672 0.8672
3448.000000 0.8672 0.8672 0.8672 0.8672 0.8671
3443.000000 0.8671 0.8671 0.8671 0.8671 0.8671
3438.000000 0.8671 0.8671 0.8671 0.8671 0.8671
3433.000000 0.8671 0.8671 0.8671 0.8671 0.8671
3428.000000 0.8671 0.8671 0.8671 0.8660 0.8670
3423.000000 0.8671 0.8672 0.8672 0.8672 0.8672
3418.000000 0.8674 0.8674 0.8674 0.8674 0.8675
3413.000000 0.8675 0.8675 0.8675 0.8677 0.8677
3408.000000 0.8678 0.8685 0.8685 0.8679 0.8679
3403.000000 0.8679 0.8681 0.8681 0.8682 0.8682
3398.000000 0.8682 0.8682 0.8682 0.8682 0.8684
3393.000000 0.8684 0.8685 0.8685 0.8686 0.8686
3388.000000 0.8687 0.8687 0.8688 0.8690 0.8691
3383.000000 0.8691 0.8692 0.8693 0.8694 0.8694
3378.000000 0.8695 0.8696 0.8697 0.8697 0.8698
3373.000000 0.8698 0.8699 0.8700 0.8712 0.8702
3368.000000 0.8702 0.8703 0.8704 0.8704 0.8705
3363.000000 0.8706 0.8707 0.8707 0.8708 0.8708
3358.000000 0.8709 0.8710 0.8711 0.8711 0.8712
3353.000000 0.8713 0.8714 0.8714 0.8715 0.8715
3348.000000 0.8715 0.8715 0.8715 0.8725 0.8729
3343.000000 0.8718 0.8728 0.8717 0.8717 0.8717
3338.000000 0.8730 0.8730 0.8729 0.8718 0.8718
3333.000000 0.8718 0.8718 0.8718 0.8719 0.8719
3328.000000 0.8719 0.8719 0.8720 0.8720 0.8720
3323.000000 0.8720 0.8720 0.8720 0.8721 0.8721
3318.000000 0.8721 0.8721 0.8722 0.8722 0.8722
3313.000000 0.8722 0.8735 0.8734 0.8734 0.8733
3308.000000 0.8730 0.8721 0.8730 0.8729 0.8725
3303.000000 0.8716 0.8714 0.8713 0.8713 0.8712
3298.000000 0.8712 0.8711 0.8710 0.8709 0.8709
3293.000000 0.8708 0.8707 0.8706 0.8706 0.8705
3288.000000 0.8704 0.8703 0.8703 0.8702 0.8702
3283.000000 0.8713 0.8711 0.8699 0.8701 0.8710
3278.000000 0.8706 0.8695 0.8700 0.8707 0.8706
3273.000000 0.8705 0.8705 0.8705 0.8705 0.8704
3268.000000 0.8704 0.8704 0.8704 0.8704 0.8704
3263.000000 0.8703 0.8703 0.8703 0.8703 0.8703
3258.000000 0.8703 0.8701 0.8690 0.8702 0.8702
3253.000000 0.8702 0.8702 0.8701 0.8701 0.8701
3248.000000 0.8701 0.8701 0.8701 0.8693 0.8693
3243.000000 0.8699 0.8699 0.8699 0.8699 0.8698
3238.000000 0.8698 0.8698 0.8698 0.8698 0.8698
3233.000000 0.8698 0.8699 0.8699 0.8699 0.8699
3228.000000 0.8700 0.8698 0.8688 0.8690 0.8701
3223.000000 0.8701 0.8701 0.8701 0.8702 0.8702
3218.000000 0.8702 0.8702 0.8703 0.8703 0.8703
3213.000000 0.8703 0.8704 0.8704 0.8704 0.8704
3208.000000 0.8695 0.8693 0.8693 0.8693 0.8694
3203.000000 0.8694 0.8694 0.8694 0.8696 0.8705
3198.000000 0.8698 0.8705 0.8700 0.8709 0.8710
3193.000000 0.8710 0.8711 0.8711 0.8706 0.8707
3188.000000 0.8713 0.8713 0.8705 0.8701 0.8702
3183.000000 0.8702 0.8703 0.8704 0.8706 0.8707
3178.000000 0.8709 0.8710 0.8712 0.8714 0.8716
3173.000000 0.8717 0.8719 0.8720 0.8721 0.8723
3168.000000 0.8724 0.8726 0.8728 0.8728 0.8736
3163.000000 0.8743 0.8737 0.8739 0.8744 0.8746
3158.000000 0.8739 0.8744 0.8738 0.8735 0.8744
3153.000000 0.8744 0.8744 0.8744 0.8744 0.8743
3148.000000 0.8728 0.8728 0.8728 0.8727 0.8727
3143.000000 0.8726 0.8724 0.8728 0.8736 0.8734
3138.000000 0.8733 0.8730 0.8729 0.8726 0.8723
3133.000000 0.8720 0.8717 0.8713 0.8710 0.8706
3128.000000 0.8703 0.8700 0.8698 0.8695 0.8692
3123.000000 0.8689 0.8688 0.8684 0.8681 0.8678
3118.000000 0.8675 0.8670 0.8665 0.8659 0.8655
3113.000000 0.8649 0.8643 0.8635 0.8629 0.8622
3108.000000 0.8616 0.8615 0.8614 0.8606 0.8600
3103.000000 0.8590 0.8581 0.8570 0.8570 0.8552
3098.000000 0.8532 0.8524 0.8517 0.8512 0.8495
3093.000000 0.8474 0.8452 0.8421 0.8399 0.8387
3088.000000 0.8379 0.8383 0.8390 0.8378 0.8372
3083.000000 0.8372 0.8372 0.8361 0.8351 0.8325
3078.000000 0.8306 0.8281 0.8249 0.8207 0.8178
3073.000000 0.8103 0.8015 0.7924 0.7834 0.7802
3068.000000 0.7751 0.7777 0.7773 0.7770 0.7765
3063.000000 0.7769 0.7781 0.7852 0.7926 0.8010
3058.000000 0.8085 0.8138 0.8190 0.8224 0.8253
3053.000000 0.8274 0.8302 0.8333 0.8362 0.8387
3048.000000 0.8413 0.8426 0.8450 0.8463 0.8484
3043.000000 0.8501 0.8518 0.8532 0.8546 0.8547
3038.000000 0.8548 0.8547 0.8536 0.8529 0.8529
3033.000000 0.8518 0.8512 0.8516 0.8515 0.8513
3028.000000 0.8520 0.8520 0.8520 0.8526 0.8533
3023.000000 0.8543 0.8552 0.8559 0.8570 0.8588
3018.000000 0.8599 0.8606 0.8602 0.8611 0.8619
3013.000000 0.8624 0.8629 0.8634 0.8640 0.8645
3008.000000 0.8647 0.8643 0.8651 0.8663 0.8666
3003.000000 0.8662 0.8656 0.8656 0.8663 0.8662
2998.000000 0.8656 0.8655 0.8655 0.8654 0.8653
2993.000000 0.8660 0.8663 0.8663 0.8662 0.8660
2988.000000 0.8660 0.8659 0.8659 0.8658 0.8656
2983.000000 0.8656 0.8655 0.8653 0.8656 0.8664
2978.000000 0.8659 0.8654 0.8661 0.8660 0.8659
2973.000000 0.8658 0.8658 0.8657 0.8656 0.8663
2968.000000 0.8667 0.8664 0.8663 0.8661 0.8660
2963.000000 0.8658 0.8656 0.8654 0.8653 0.8663
2958.000000 0.8661 0.8647 0.8645 0.8643 0.8645
2953.000000 0.8652 0.8649 0.8645 0.8644 0.8641
2948.000000 0.8640 0.8631 0.8621 0.8617 0.8621
2943.000000 0.8616 0.8616 0.8607 0.8608 0.8603
2938.000000 0.8595 0.8586 0.8579 0.8560 0.8550
2933.000000 0.8541 0.8531 0.8521 0.8512 0.8503
2928.000000 0.8493 0.8483 0.8474 0.8463 0.8454
2923.000000 0.8443 0.8428 0.8411 0.8402 0.8393
2918.000000 0.8385 0.8379 0.8373 0.8371 0.8370
2913.000000 0.8375 0.8381 0.8392 0.8403 0.8424
2908.000000 0.8456 0.8474 0.8480 0.8497 0.8515
2903.000000 0.8526 0.8537 0.8544 0.8552 0.8553
2898.000000 0.8554 0.8555 0.8556 0.8557 0.8558
2893.000000 0.8559 0.8560 0.8560 0.8562 0.8563
2888.000000 0.8563 0.8565 0.8566 0.8567 0.8569
2883.000000 0.8570 0.8570 0.8572 0.8573 0.8574
2878.000000 0.8574 0.8562 0.8573 0.8570 0.8570
2873.000000 0.8569 0.8567 0.8566 0.8565 0.8563
2868.000000 0.8560 0.8559 0.8557 0.8553 0.8551
2863.000000 0.8548 0.8546 0.8542 0.8538 0.8532
2858.000000 0.8527 0.8515 0.8505 0.8490 0.8463
2853.000000 0.8449 0.8436 0.8424 0.8411 0.8400
2848.000000 0.8388 0.8383 0.8386 0.8390 0.8391
2843.000000 0.8414 0.8451 0.8465 0.8476 0.8487
2838.000000 0.8506 0.8518 0.8523 0.8526 0.8534
2833.000000 0.8541 0.8547 0.8553 0.8559 0.8576
2828.000000 0.8574 0.8589 0.8597 0.8592 0.8599
2823.000000 0.8617 0.8613 0.8632 0.8640 0.8637
2818.000000 0.8628 0.8628 0.8629 0.8629 0.8630
2813.000000 0.8630 0.8631 0.8631 0.8632 0.8632
2808.000000 0.8640 0.8646 0.8647 0.8647 0.8647
2803.000000 0.8647 0.8648 0.8648 0.8649 0.8649
2798.000000 0.8649 0.8649 0.8650 0.8650 0.8650
2793.000000 0.8650 0.8649 0.8641 0.8649 0.8639
2788.000000 0.8639 0.8639 0.8640 0.8645 0.8654
2783.000000 0.8647 0.8642 0.8649 0.8656 0.8656
2778.000000 0.8657 0.8657 0.8658 0.8658 0.8659
2773.000000 0.8659 0.8660 0.8660 0.8661 0.8661
2768.000000 0.8662 0.8662 0.8663 0.8663 0.8663
2763.000000 0.8663 0.8663 0.8663 0.8665 0.8665
2758.000000 0.8666 0.8666 0.8666 0.8666 0.8668
2753.000000 0.8668 0.8669 0.8669 0.8670 0.8670
2748.000000 0.8670 0.8670 0.8670 0.8670 0.8672
2743.000000 0.8672 0.8673 0.8673 0.8673 0.8673
2738.000000 0.8673 0.8673 0.8675 0.8675 0.8675
2733.000000 0.8675 0.8676 0.8676 0.8676 0.8676
2728.000000 0.8677 0.8677 0.8678 0.8678 0.8678
2723.000000 0.8678 0.8679 0.8679 0.8679 0.8679
2718.000000 0.8680 0.8680 0.8681 0.8681 0.8681
2713.000000 0.8681 0.8682 0.8682 0.8683 0.8683
2708.000000 0.8683 0.8683 0.8683 0.8683 0.8683
2703.000000 0.8683 0.8683 0.8683 0.8683 0.8683
2698.000000 0.8683 0.8683 0.8684 0.8684 0.8684
2693.000000 0.8684 0.8684 0.8684 0.8684 0.8684
2688.000000 0.8684 0.8684 0.8684 0.8684 0.8684
2683.000000 0.8684 0.8685 0.8685 0.8685 0.8685
2678.000000 0.8686 0.8686 0.8687 0.8687 0.8687
2673.000000 0.8687 0.8688 0.8688 0.8688 0.8688
2668.000000 0.8689 0.8689 0.8689 0.8689 0.8690
2663.000000 0.8690 0.8690 0.8690 0.8691 0.8691
2658.000000 0.8692 0.8704 0.8705 0.8705 0.8705
2653.000000 0.8705 0.8706 0.8701 0.8693 0.8693
2648.000000 0.8699 0.8706 0.8706 0.8698 0.8693
2643.000000 0.8692 0.8701 0.8695 0.8692 0.8692
2638.000000 0.8692 0.8692 0.8692 0.8692 0.8704
2633.000000 0.8704 0.8704 0.8691 0.8692 0.8703
2628.000000 0.8703 0.8703 0.8703 0.8703 0.8703
2623.000000 0.8703 0.8703 0.8703 0.8703 0.8703
2618.000000 0.8703 0.8702 0.8702 0.8702 0.8702
2613.000000 0.8702 0.8702 0.8702 0.8702 0.8702
2608.000000 0.8702 0.8702 0.8702 0.8702 0.8702
2603.000000 0.8701 0.8701 0.8701 0.8701 0.8701
2598.000000 0.8701 0.8701 0.8701 0.8701 0.8701
2593.000000 0.8701 0.8701 0.8701 0.8701 0.8701
2588.000000 0.8701 0.8701 0.8702 0.8702 0.8702
2583.000000 0.8702 0.8702 0.8702 0.8702 0.8702
2578.000000 0.8702 0.8702 0.8702 0.8702 0.8702
2573.000000 0.8702 0.8701 0.8701 0.8701 0.8701
2568.000000 0.8701 0.8701 0.8701 0.8701 0.8701
2563.000000 0.8701 0.8701 0.8701 0.8701 0.8701
2558.000000 0.8701 0.8700 0.8700 0.8700 0.8700
2553.000000 0.8700 0.8700 0.8699 0.8699 0.8699
2548.000000 0.8699 0.8699 0.8699 0.8698 0.8698
2543.000000 0.8698 0.8698 0.8698 0.8698 0.8697
2538.000000 0.8697 0.8697 0.8697 0.8697 0.8697
2533.000000 0.8697 0.8697 0.8696 0.8696 0.8696
2528.000000 0.8696 0.8696 0.8696 0.8695 0.8695
2523.000000 0.8695 0.8695 0.8695 0.8695 0.8695
2518.000000 0.8695 0.8695 0.8695 0.8695 0.8695
2513.000000 0.8695 0.8696 0.8696 0.8696 0.8696
2508.000000 0.8697 0.8697 0.8697 0.8697 0.8698
2503.000000 0.8698 0.8698 0.8697 0.8699 0.8699
2498.000000 0.8699 0.8698 0.8698 0.8698 0.8700
2493.000000 0.8699 0.8699 0.8699 0.8701 0.8700
2488.000000 0.8700 0.8700 0.8702 0.8701 0.8701
2483.000000 0.8701 0.8701 0.8709 0.8715 0.8715
2478.000000 0.8715 0.8715 0.8716 0.8716 0.8716
2473.000000 0.8716 0.8717 0.8717 0.8717 0.8717
2468.000000 0.8717 0.8717 0.8717 0.8717 0.8717
2463.000000 0.8717 0.8717 0.8717 0.8717 0.8717
2458.000000 0.8711 0.8710 0.8709 0.8703 0.8703
2453.000000 0.8712 0.8716 0.8716 0.8706 0.8713
2448.000000 0.8716 0.8715 0.8715 0.8715 0.8715
2443.000000 0.8714 0.8714 0.8713 0.8713 0.8713
2438.000000 0.8713 0.8712 0.8712 0.8710 0.8710
2433.000000 0.8710 0.8710 0.8709 0.8709 0.8709
2428.000000 0.8709 0.8708 0.8708 0.8707 0.8707
2423.000000 0.8707 0.8707 0.8706 0.8706 0.8706
2418.000000 0.8706 0.8705 0.8705 0.8705 0.8705
2413.000000 0.8705 0.8705 0.8705 0.8705 0.8708
2408.000000 0.8714 0.8709 0.8718 0.8717 0.8717
2403.000000 0.8715 0.8715 0.8714 0.8714 0.8714
2398.000000 0.8714 0.8713 0.8713 0.8712 0.8712
2393.000000 0.8712 0.8713 0.8713 0.8714 0.8727
2388.000000 0.8728 0.8728 0.8728 0.8729 0.8740
2383.000000 0.8739 0.8741 0.8749 0.8749 0.8750
2378.000000 0.8755 0.8759 0.8765 0.8774 0.8789
2373.000000 0.8804 0.8812 0.8820 0.8829 0.8830
2368.000000 0.8836 0.8844 0.8854 0.8862 0.8872
2363.000000 0.8880 0.8889 0.8898 0.8919 0.8927
2358.000000 0.8947 0.8950 0.8966 0.8964 0.8954
2353.000000 0.8942 0.8931 0.8914 0.8896 0.8882
2348.000000 0.8876 0.8885 0.8887 0.8887 0.8878
2343.000000 0.8874 0.8874 0.8874 0.8874 0.8863
2338.000000 0.8872 0.8875 0.8865 0.8866 0.8881
2333.000000 0.8883 0.8885 0.8888 0.8902 0.8901
2328.000000 0.8903 0.8906 0.8917 0.8921 0.8930
2323.000000 0.8929 0.8928 0.8920 0.8913 0.8900
2318.000000 0.8888 0.8876 0.8865 0.8850 0.8838
2313.000000 0.8824 0.8810 0.8798 0.8787 0.8775
2308.000000 0.8764 0.8754 0.8743 0.8737 0.8731
2303.000000 0.8726 0.8722 0.8719 0.8718 0.8723
2298.000000 0.8731 0.8731 0.8731 0.8731 0.8731
2293.000000 0.8731 0.8731 0.8731 0.8731 0.8731
2288.000000 0.8723 0.8719 0.8720 0.8720 0.8721
2283.000000 0.8714 0.8717 0.8722 0.8729 0.8732
2278.000000 0.8727 0.8732 0.8736 0.8731 0.8737
2273.000000 0.8742 0.8745 0.8741 0.8746 0.8746
2268.000000 0.8745 0.8751 0.8756 0.8754 0.8755
2263.000000 0.8760 0.8765 0.8761 0.8764 0.8769
2258.000000 0.8765 0.8768 0.8773 0.8777 0.8770
2253.000000 0.8772 0.8775 0.8776 0.8766 0.8769
2248.000000 0.8771 0.8773 0.8776 0.8774 0.8767
2243.000000 0.8769 0.8770 0.8773 0.8777 0.8779
2238.000000 0.8781 0.8783 0.8785 0.8778 0.8777
2233.000000 0.8779 0.8782 0.8784 0.8787 0.8788
2228.000000 0.8790 0.8791 0.8793 0.8794 0.8795
2223.000000 0.8796 0.8796 0.8786 0.8786 0.8788
2218.000000 0.8789 0.8792 0.8793 0.8794 0.8794
2213.000000 0.8796 0.8797 0.8799 0.8801 0.8802
2208.000000 0.8804 0.8806 0.8808 0.8809 0.8811
2203.000000 0.8812 0.8814 0.8815 0.8817 0.8819
2198.000000 0.8821 0.8823 0.8823 0.8815 0.8828
2193.000000 0.8826 0.8818 0.8819 0.8820 0.8821
2188.000000 0.8822 0.8823 0.8824 0.8825 0.8833
2183.000000 0.8833 0.8828 0.8828 0.8831 0.8832
2178.000000 0.8843 0.8845 0.8848 0.8849 0.8851
2173.000000 0.8852 0.8853 0.8854 0.8855 0.8854
2168.000000 0.8844 0.8845 0.8846 0.8846 0.8846
2163.000000 0.8846 0.8846 0.8846 0.8846 0.8846
2158.000000 0.8847 0.8847 0.8847 0.8847 0.8847
2153.000000 0.8847 0.8847 0.8847 0.8848 0.8848
2148.000000 0.8848 0.8848 0.8848 0.8848 0.8849
2143.000000 0.8849 0.8849 0.8849 0.8850 0.8850
2138.000000 0.8851 0.8851 0.8851 0.8851 0.8852
2133.000000 0.8852 0.8853 0.8853 0.8853 0.8853
2128.000000 0.8854 0.8854 0.8855 0.8855 0.8856
2123.000000 0.8856 0.8845 0.8854 0.8857 0.8857
2118.000000 0.8858 0.8858 0.8859 0.8859 0.8860
2113.000000 0.8860 0.8861 0.8861 0.8862 0.8862
2108.000000 0.8863 0.8863 0.8864 0.8864 0.8865
2103.000000 0.8865 0.8866 0.8866 0.8867 0.8867
2098.000000 0.8859 0.8855 0.8867 0.8869 0.8859
2093.000000 0.8870 0.8873 0.8874 0.8875 0.8876
2088.000000 0.8879 0.8880 0.8882 0.8883 0.8884
2083.000000 0.8884 0.8884 0.8884 0.8886 0.8890
2078.000000 0.8894 0.8898 0.8902 0.8908 0.8913
2073.000000 0.8918 0.8923 0.8928 0.8936 0.8944
2068.000000 0.8954 0.8959 0.8965 0.8961 0.8957
2063.000000 0.8944 0.8931 0.8920 0.8910 0.8903
2058.000000 0.8897 0.8895 0.8899 0.8899 0.8903
2053.000000 0.8907 0.8905 0.8912 0.8929 0.8930
2048.000000 0.8933 0.8939 0.8947 0.8953 0.8961
2043.000000 0.8961 0.8961 0.8957 0.8954 0.8947
2038.000000 0.8941 0.8933 0.8927 0.8920 0.8912
2033.000000 0.8905 0.8898 0.8892 0.8886 0.8888
2028.000000 0.8893 0.8899 0.8891 0.8898 0.8906
2023.000000 0.8917 0.8928 0.8941 0.8954 0.8965
2018.000000 0.8976 0.8978 0.8978 0.8978 0.8975
2013.000000 0.8972 0.8969 0.8966 0.8964 0.8962
2008.000000 0.8962 0.8962 0.8963 0.8965 0.8967
2003.000000 0.8969 0.8972 0.8977 0.8982 0.8987
1998.000000 0.8986 0.8983 0.8987 0.8990 0.8995
1993.000000 0.9001 0.9007 0.9014 0.9019 0.9019
1988.000000 0.8852 0.8662 0.8483 0.8482 0.8483
1983.000000 0.8484 0.8486 0.8487 0.8489 0.8489
1978.000000 0.8478 0.8476 0.8474 0.8472 0.8467
1973.000000 0.8461 0.8455 0.8449 0.8443 0.8439
1968.000000 0.8434 0.8432 0.8435 0.8429 0.8432
1963.000000 0.8521 0.8604 0.8686 0.8688 0.8615
1958.000000 0.8541 0.8466 0.8473 0.8480 0.8475
1953.000000 0.8483 0.8487 0.8487 0.8481 0.8467
1948.000000 0.8462 0.8463 0.8463 0.8463 0.8460
1943.000000 0.8457 0.8445 0.8433 0.8420 0.8407
1938.000000 0.8394 0.8385 0.8377 0.8373 0.8373
1933.000000 0.8374 0.8385 0.8396 0.8406 0.8415
1928.000000 0.8422 0.8420 0.8420 0.8412 0.8403
1923.000000 0.8393 0.8384 0.8375 0.8367 0.8362
1918.000000 0.8359 0.8358 0.8358 0.8363 0.8373
1913.000000 0.8382 0.8390 0.8401 0.8410 0.8419
1908.000000 0.8430 0.8450 0.8459 0.8463 0.8467
1903.000000 0.8471 0.8475 0.8479 0.8484 0.8487
1898.000000 0.8489 0.8491 0.8493 0.8494 0.8497
1893.000000 0.8499 0.8499 0.8495 0.8487 0.8487
1888.000000 0.8487 0.8487 0.8486 0.8485 0.8491
1883.000000 0.8494 0.8494 0.8491 0.8489 0.8483
1878.000000 0.8478 0.8473 0.8468 0.8474 0.8471
1873.000000 0.8471 0.8471 0.8471 0.8471 0.8466
1868.000000 0.8463 0.8459 0.8454 0.8451 0.8449
1863.000000 0.8446 0.8443 0.8440 0.8437 0.8434
1858.000000 0.8431 0.8435 0.8429 0.8420 0.8416
1853.000000 0.8413 0.8409 0.8405 0.8402 0.8402
1848.000000 0.8400 0.8398 0.8398 0.8398 0.8398
1843.000000 0.8398 0.8400 0.8400 0.8400 0.8400
1838.000000 0.8400 0.8400 0.8394 0.8386 0.8386
1833.000000 0.8386 0.8386 0.8393 0.8401 0.8407
1828.000000 0.8413 0.8411 0.8409 0.8391 0.8373
1823.000000 0.8356 0.8337 0.8320 0.8307 0.8305
1818.000000 0.8305 0.8309 0.8314 0.8318 0.8329
1813.000000 0.8339 0.8351 0.8361 0.8373 0.8379
1808.000000 0.8378 0.8388 0.8397 0.8405 0.8408
1803.000000 0.8411 0.8420 0.8428 0.8439 0.8448
1798.000000 0.8459 0.8470 0.8480 0.8492 0.8498
1793.000000 0.8504 0.8504 0.8502 0.8501 0.8499
1788.000000 0.8496 0.8494 0.8492 0.8491 0.8489
1783.000000 0.8480 0.8485 0.8484 0.8484 0.8484
1778.000000 0.8484 0.8485 0.8478 0.8473 0.8470
1773.000000 0.8464 0.8445 0.8427 0.8412 0.8398
1768.000000 0.8408 0.8422 0.8439 0.8455 0.8472
1763.000000 0.8484 0.8494 0.8503 0.8512 0.8519
1758.000000 0.8532 0.8536 0.8537 0.8537 0.8537
1753.000000 0.8536 0.8536 0.8536 0.8536 0.8536
1748.000000 0.8534 0.8531 0.8528 0.8525 0.8522
1743.000000 0.8516 0.8506 0.8494 0.8481 0.8479
1738.000000 0.8485 0.8495 0.8505 0.8510 0.8511
1733.000000 0.8511 0.8509 0.8504 0.8502 0.8499
1728.000000 0.8496 0.8495 0.8495 0.8496 0.8499
1723.000000 0.8502 0.8513 0.8524 0.8536 0.8547
1718.000000 0.8560 0.8573 0.8582 0.8591 0.8587
1713.000000 0.8556 0.8518 0.8511 0.8507 0.8505
1708.000000 0.8511 0.8516 0.8526 0.8535 0.8546
1703.000000 0.8556 0.8567 0.8579 0.8586 0.8589
1698.000000 0.8592 0.8585 0.8576 0.8561 0.8538
1693.000000 0.8522 0.8507 0.8495 0.8488 0.8480
1688.000000 0.8474 0.8472 0.8470 0.8467 0.8466
1683.000000 0.8464 0.8463 0.8463 0.8464 0.8464
1678.000000 0.8465 0.8467 0.8469 0.8481 0.8492
1673.000000 0.8508 0.8530 0.8543 0.8554 0.8552
1668.000000 0.8550 0.8548 0.8545 0.8546 0.8546
1663.000000 0.8549 0.8551 0.8553 0.8567 0.8561
1658.000000 0.8566 0.8586 0.8594 0.8604 0.8613
1653.000000 0.8620 0.8618 0.8635 0.8641 0.8647
1648.000000 0.8647 0.8639 0.8632 0.8617 0.8595
1643.000000 0.8572 0.8554 0.8534 0.8507 0.8479
1638.000000 0.8460 0.8427 0.8228 0.7189 0.7189
1633.000000 0.7198 0.7364 0.7611 0.7847 0.7933
1628.000000 0.7990 0.8044 0.8087 0.8120 0.8163
1623.000000 0.8192 0.8231 0.8235 0.8239 0.8249
1618.000000 0.8239 0.8223 0.8191 0.8146 0.7993
1613.000000 0.7845 0.7764 0.6912 0.5998 0.6041
1608.000000 0.6131 0.6269 0.6424 0.6561 0.6761
1603.000000 0.6885 0.7006 0.7084 0.7196 0.7261
1598.000000 0.7352 0.7382 0.7382 0.7346 0.7280
1593.000000 0.7225 0.7209 0.7203 0.7183 0.7178
1588.000000 0.7166 0.7141 0.7137 0.7142 0.7158
1583.000000 0.7184 0.7185 0.7193 0.7193 0.7201
1578.000000 0.7193 0.7199 0.7193 0.7183 0.7181
1573.000000 0.7155 0.7115 0.7102 0.7007 0.6833
1568.000000 0.6698 0.6589 0.6516 0.6517 0.6535
1563.000000 0.6579 0.6650 0.6777 0.6896 0.6841
1558.000000 0.6685 0.6507 0.6330 0.6165 0.5976
1553.000000 0.5772 0.5572 0.5351 0.5002 0.3777
1548.000000 0.3669 0.3564 0.3447 0.3452 0.3411
1543.000000 0.3395 0.3403 0.3483 0.3541 0.3590
1538.000000 0.3637 0.3696 0.3598 0.3475 0.3260
1533.000000 0.3077 0.3020 0.3149 0.3647 0.4144
1528.000000 0.4634 0.5071 0.5188 0.5230 0.5284
1523.000000 0.5332 0.5895 0.6615 0.6672 0.6734
1518.000000 0.6775 0.6804 0.6820 0.6797 0.6778
1513.000000 0.6745 0.6725 0.6677 0.6171 0.4907
1508.000000 0.3476 0.3451 0.3625 0.4272 0.4915
1503.000000 0.5550 0.6173 0.6798 0.7284 0.7432
1498.000000 0.7587 0.7713 0.7771 0.7825 0.7836
1493.000000 0.7850 0.7865 0.7880 0.7940 0.7992
1488.000000 0.8040 0.8083 0.8119 0.8157 0.8199
1483.000000 0.8249 0.8298 0.8342 0.8355 0.8348
1478.000000 0.8334 0.8321 0.8320 0.8320 0.8317
1473.000000 0.8330 0.8339 0.8342 0.8343 0.8341
1468.000000 0.8337 0.8344 0.8339 0.8345 0.8319
1463.000000 0.8295 0.8260 0.8237 0.8215 0.8191
1458.000000 0.8173 0.8171 0.8172 0.8171 0.8168
1453.000000 0.8172 0.8178 0.8181 0.8175 0.8166
1448.000000 0.8161 0.8119 0.7990 0.7787 0.7582
1443.000000 0.7273 0.7281 0.7284 0.7289 0.7351
1438.000000 0.7470 0.7625 0.7762 0.7948 0.8078
1433.000000 0.8240 0.8348 0.8403 0.8431 0.8454
1428.000000 0.8466 0.8468 0.8480 0.8486 0.8480
1423.000000 0.8469 0.8449 0.8427 0.8416 0.8405
1418.000000 0.8398 0.8395 0.8395 0.8416 0.8438
1413.000000 0.8459 0.8479 0.8500 0.8517 0.8534
1408.000000 0.8550 0.8566 0.8577 0.8585 0.8591
1403.000000 0.8582 0.8596 0.8590 0.8584 0.8569
1398.000000 0.8552 0.8522 0.8456 0.8378 0.8255
1393.000000 0.8177 0.8151 0.8158 0.8197 0.8314
1388.000000 0.8418 0.8485 0.8553 0.8620 0.8623
1383.000000 0.8600 0.8560 0.8522 0.8485 0.8447
1378.000000 0.8420 0.8393 0.8329 0.8242 0.8131
1373.000000 0.7947 0.7764 0.7580 0.7444 0.7437
1368.000000 0.7457 0.7507 0.7550 0.7574 0.7574
1363.000000 0.7574 0.7547 0.6914 0.6132 0.5348
1358.000000 0.4567 0.3784 0.2997 0.1743 0.1632
1353.000000 0.1569 0.1489 0.1353 0.1190 0.1078
1348.000000 0.1044 0.1046 0.1448 0.1851 0.2252
1343.000000 0.2654 0.3053 0.3453 0.3852 0.4252
1338.000000 0.4309 0.4320 0.4292 0.4253 0.4214
1333.000000 0.4212 0.4266 0.4687 0.5110 0.5524
1328.000000 0.5945 0.6367 0.6882 0.7282 0.7573
1323.000000 0.7830 0.8032 0.8196 0.8340 0.8485
1318.000000 0.8621 0.8751 0.8815 0.8873 0.8912
1313.000000 0.8948 0.8982 0.9012 0.9037 0.9062
1308.000000 0.9089 0.9119 0.9151 0.9183 0.9203
1303.000000 0.9219 0.9234 0.9248 0.9261 0.9272
1298.000000 0.9281 0.9291 0.9297 0.9309 0.9309
1293.000000 0.9310 0.9308 0.9301 0.9293 0.9294
1288.000000 0.9300 0.9310 0.9329 0.9348 0.9366
1283.000000 0.9386 0.9404 0.9413 0.9424 0.9435
1278.000000 0.9442 0.9449 0.9467 0.9474 0.9470
1273.000000 0.9459 0.9422 0.9361 0.8996 0.8638
1268.000000 0.8623 0.8800 0.9025 0.9207 0.9308
1263.000000 0.9353 0.9390 0.9415 0.9434 0.9454
1258.000000 0.9465 0.9476 0.9485 0.9495 0.9505
1253.000000 0.9501 0.9504 0.9509 0.9515 0.9520
1248.000000 0.9536 0.9526 0.9525 0.9523 0.9511
1243.000000 0.9508 0.9503 0.9488 0.9298 0.9095
1238.000000 0.8732 0.8738 0.8736 0.8865 0.9049
1233.000000 0.9207 0.9260 0.9294 0.9326 0.9337
1228.000000 0.9347 0.9358 0.9369 0.9381 0.9391
1223.000000 0.9399 0.9426 0.9419 0.9428 0.9433
1218.000000 0.9426 0.9408 0.9384 0.9371 0.9360
1213.000000 0.9354 0.9342 0.9319 0.9293 0.9261
1208.000000 0.9228 0.9195 0.9158 0.9121 0.9010
1203.000000 0.8867 0.8751 0.8702 0.8713 0.8753
1198.000000 0.8780 0.8816 0.8854 0.8879 0.8907
1193.000000 0.8946 0.8973 0.8992 0.9009 0.9018
1188.000000 0.9026 0.9035 0.9041 0.9047 0.9053
1183.000000 0.9052 0.9038 0.9021 0.9015 0.9007
1178.000000 0.9021 0.9030 0.9035 0.9044 0.9058
1173.000000 0.9069 0.9078 0.9085 0.9092 0.9099
1168.000000 0.9107 0.9121 0.9123 0.9118 0.9113
1163.000000 0.9108 0.9095 0.9078 0.9060 0.9038
1158.000000 0.9016 0.8995 0.8963 0.8927 0.8882
1153.000000 0.8823 0.8703 0.8570 0.8515 0.8529
1148.000000 0.8689 0.8837 0.8866 0.8870 0.8872
1143.000000 0.8847 0.8800 0.8703 0.8687 0.8722
1138.000000 0.8815 0.8889 0.8923 0.8941 0.8942
1133.000000 0.8685 0.8390 0.8379 0.8476 0.8687
1128.000000 0.8897 0.9051 0.9090 0.9129 0.9163
1123.000000 0.9169 0.9182 0.9194 0.9198 0.9200
1118.000000 0.9201 0.9202 0.9215 0.9213 0.9208
1113.000000 0.9203 0.9199 0.9195 0.9190 0.9183
1108.000000 0.9170 0.9173 0.9158 0.9154 0.9150
1103.000000 0.9146 0.9142 0.9138 0.9133 0.9126
1098.000000 0.9119 0.9113 0.9105 0.9094 0.9080
1093.000000 0.9066 0.9050 0.9031 0.9001 0.8953
1088.000000 0.8888 0.8765 0.8379 0.7727 0.7075
1083.000000 0.6324 0.6316 0.6588 0.6944 0.7298
1078.000000 0.7647 0.7909 0.8059 0.8195 0.8398
1073.000000 0.8500 0.8596 0.8659 0.8723 0.8778
1068.000000 0.8811 0.8842 0.8871 0.8890 0.8909
1063.000000 0.8929 0.8958 0.8980 0.8991 0.8989
1058.000000 0.9012 0.9024 0.9021 0.9033 0.9043
1053.000000 0.9048 0.9050 0.9057 0.9071 0.9075
1048.000000 0.9078 0.9081 0.9084 0.9087 0.9089
1043.000000 0.9092 0.9094 0.9094 0.9094 0.9093
1038.000000 0.9092 0.9091 0.9090 0.9090 0.9087
1033.000000 0.9084 0.9080 0.9076 0.9059 0.9055
1028.000000 0.9051 0.9044 0.9033 0.9014 0.9004
1023.000000 0.8976 0.8882 0.8787 0.8709 0.8716
1018.000000 0.8720 0.8790 0.8866 0.8907 0.8944
1013.000000 0.8966 0.8985 0.8996 0.8997 0.8991
1008.000000 0.8970 0.8959 0.8960 0.8960 0.8951
1003.000000 0.8954 0.8960 0.8966 0.8972 0.8977
998.000000 0.8977 0.8969 0.8973 0.8976 0.8979
993.000000 0.8981 0.8989 0.8999 0.9001 0.9002
988.000000 0.9005 0.9006 0.9009 0.9009 0.9011
983.000000 0.9011 0.9011 0.9011 0.9011 0.9012
978.000000 0.9012 0.9011 0.9009 0.9005 0.9004
973.000000 0.8999 0.8989 0.8989 0.8977 0.8966
968.000000 0.8946 0.8911 0.8833 0.8759 0.8685
963.000000 0.8611 0.8603 0.8603 0.8633 0.8705
958.000000 0.8749 0.8763 0.8753 0.8586 0.8417
953.000000 0.8249 0.8108 0.8122 0.8126 0.8388
948.000000 0.8652 0.8749 0.8772 0.8794 0.8815
943.000000 0.8827 0.8839 0.8850 0.8864 0.8876
938.000000 0.8889 0.8898 0.8906 0.8916 0.8924
933.000000 0.8933 0.8939 0.8946 0.8953 0.8979
928.000000 0.8965 0.8968 0.8970 0.8971 0.8971
923.000000 0.8971 0.8962 0.8953 0.8943 0.8933
918.000000 0.8926 0.8903 0.8892 0.8861 0.8830
913.000000 0.8790 0.8747 0.8653 0.8352 0.7516
908.000000 0.6686 0.5854 0.5582 0.5591 0.6061
903.000000 0.6625 0.7196 0.7763 0.8338 0.8474
898.000000 0.8546 0.8574 0.8598 0.8347 0.7678
893.000000 0.6931 0.7006 0.7378 0.7752 0.8132
888.000000 0.8323 0.8407 0.8455 0.8501 0.8548
883.000000 0.8594 0.8614 0.8636 0.8589 0.8553
878.000000 0.8545 0.8533 0.8513 0.8494 0.8450
873.000000 0.8392 0.8334 0.8276 0.8176 0.8054
868.000000 0.7797 0.6407 0.5193 0.5197 0.5605
863.000000 0.6302 0.6996 0.7698 0.7853 0.7922
858.000000 0.7974 0.8012 0.8046 0.8065 0.8064
853.000000 0.8063 0.8074 0.8137 0.8251 0.8378
848.000000 0.8472 0.8564 0.8597 0.8624 0.8618
843.000000 0.8617 0.8617 0.8616 0.8629 0.8653
838.000000 0.8677 0.8705 0.8713 0.8732 0.8752
833.000000 0.8758 0.8761 0.8758 0.8755 0.8768
828.000000 0.8742 0.8728 0.8703 0.8678 0.8656
823.000000 0.8616 0.8540 0.8414 0.7635 0.4541
818.000000 0.4535 0.4881 0.5415 0.5943 0.6468
813.000000 0.6996 0.7534 0.8073 0.8191 0.8233
808.000000 0.8265 0.8261 0.8273 0.8264 0.6957
803.000000 0.3335 0.3306 0.3306 0.4652 0.6054
798.000000 0.7455 0.8109 0.8247 0.8362 0.8451
793.000000 0.8497 0.8539 0.8591 0.8615 0.8642
788.000000 0.8664 0.8680 0.8695 0.8710 0.8718
783.000000 0.8711 0.8707 0.8707 0.8698 0.8699
778.000000 0.8696 0.8689 0.8670 0.8653 0.8600
773.000000 0.8400 0.8162 0.8029 0.7397 0.5616
768.000000 0.3838 0.2794 0.2897 0.3735 0.4575
763.000000 0.5418 0.6196 0.6175 0.4832 0.3360
758.000000 0.3370 0.4618 0.5538 0.6458 0.7520
753.000000 0.7701 0.7874 0.8004 0.8132 0.8249
748.000000 0.8360 0.8448 0.8525 0.8571 0.8595
743.000000 0.8606 0.8598 0.8597 0.8604 0.8614
738.000000 0.8642 0.8670 0.8694 0.8716 0.8737
733.000000 0.8759 0.8778 0.8789 0.8809 0.8814
728.000000 0.8816 0.8818 0.8823 0.8832 0.8831
723.000000 0.8830 0.8831 0.8832 0.8829 0.8818
718.000000 0.8806 0.8808 0.8805 0.8805 0.8819
713.000000 0.8827 0.8832 0.8836 0.8842 0.8847
708.000000 0.8853 0.8858 0.8864 0.8869 0.8876
703.000000 0.8894 0.8895 0.8901 0.8912 0.8912
698.000000 0.8914 0.8915 0.8917 0.8924 0.8934
693.000000 0.8935 0.8937 0.8939 0.8953 0.8942
688.000000 0.8951 0.8954 0.8953 0.8952 0.8952
683.000000 0.8962 0.8963 0.8961 0.8972 0.8971
678.000000 0.8995 0.9006 0.9029 0.9034 0.9017
673.000000 0.9007 0.8987 0.8978 0.8994 0.9081
668.000000 0.9134 0.9044 0.8968 0.8972 0.9024
663.000000 0.9085 0.9146 0.9217 0.9265 0.9258
658.000000 0.9240 0.9229 0.9203 0.9161 0.9115
653.000000 0.9066 0.9019 0.8986 0.8959 0.8945
648.000000 0.8932 0.8930 0.8942 0.8964 0.8984
643.000000 0.8995 0.9004 0.9008 0.9009 0.9019
638.000000 0.9022 0.9023 0.9035 0.9045 0.9040
633.000000 0.9048 0.9057 0.9061 0.9076 0.9094
628.000000 0.9098 0.9114 0.9119 0.9135 0.9154
623.000000 0.9154 0.9166 0.9180 0.9192 0.9208
618.000000 0.9227 0.9228 0.9224 0.9231 0.9230
613.000000 0.9225 0.9266 0.9235 0.9238 0.9241
608.000000 0.9244 0.9236 0.9227 0.9224 0.9212
603.000000 0.9194 0.9150 0.9103 0.9054 0.8535
598.000000 0.7836 0.7847 0.7980 0.8211 0.8442
593.000000 0.8673 0.8875 0.8928 0.8981 0.9034
588.000000 0.9075 0.9109 0.9146 0.9207 0.9250
583.000000 0.9265 0.9265 0.9265 0.9264 0.9263
578.000000 0.9264 0.9253 0.9256 0.9262 0.9282
573.000000 0.9291 0.9298 0.9305 0.9312 0.9317
568.000000 0.9320 0.9311 0.9317 0.9334 0.9334
563.000000 0.9328 0.9332 0.9334 0.9336 0.9337
558.000000 0.9340 0.9340 0.9342 0.9335 0.9332
553.000000 0.9332 0.9323 0.9327 0.9330 0.9328
548.000000 0.9326 0.9320 0.9316 0.9310 0.9304
543.000000 0.9298 0.9292 0.9286 0.9277 0.9272
538.000000 0.9274 0.9259 0.9255 0.9236 0.9216
533.000000 0.9212 0.9202 0.9191 0.9186 0.9186
528.000000 0.9187 0.9176 0.9187 0.9196 0.9200
523.000000 0.9205 0.9209 0.9214 0.9220 0.9226
518.000000 0.9232 0.9237 0.9242 0.9243 0.9247
513.000000 0.9249 0.9250 0.9253 0.9256 0.9256
508.000000 0.9257 0.9255 0.9252 0.9250 0.9247
503.000000 0.9245 0.9240 0.9233 0.9227 0.9221
498.000000 0.9213 0.9205 0.9190 0.9176 0.9160
493.000000 0.9125 0.9091 0.9055 0.9000 0.8923
488.000000 0.8826 0.8624 0.8428 0.8353 0.8298
483.000000 0.8258 0.8231 0.8213 0.8200 0.8196
478.000000 0.8175 0.8203 0.8217 0.8231 0.8244
473.000000 0.8256 0.8267 0.8302 0.8275 0.8256
468.000000 0.8236 0.8213 0.8188 0.8165 0.8155
463.000000 0.8153 0.8153 0.8159 0.8176 0.8209
458.000000 0.8243 0.8276 0.8307 0.8338 0.8369
453.000000 0.8400 0.8430 0.8457 0.8485 0.8513
448.000000 0.8535 0.8555 0.8576 0.8590 0.8602
443.000000 0.8614 0.8626 0.8646 0.8647
##END=
