##TITLE=Alpha-HYDROXYACETOPHENONE
##JCAMP-DX=4.24
##DATA TYPE=INFRARED SPECTRUM
##CLASS=COBLENTZ III
##ORIGIN=WYANDOTTE CHEMICALS CORP.
##OWNER=Copyright (C) 1987 by the Coblentz Society
Collection (C) 2018 copyright by the U.S. Secretary of Commerce
on behalf of the United States of America. All rights reserved.
##DATE=Not specified, most likely prior to 1970
##NAMES=2-hydroxy-1-phenylethanone
Glycolophenone
##CAS REGISTRY NO=582-24-1
##MOLFORM=C8 H8 O2
##MP=85-87 C
##SOURCE REFERENCE=COBLENTZ NO. 5942
##$NIST SOURCE=COBLENTZ
##$NIST IMAGE=cob5942
##SPECTROMETER/DATA SYSTEM=BAIRD (GRATING)
##INSTRUMENT PARAMETERS=NaCl PRISM
##STATE=SOLUTION (CCl4 FOR 2-10.5, CS2 FOR 9.8-16 MICRON) VS SOLVENT
$$SEE 5748 FOR MULL STATE
##PATH LENGTH=0.01 CM, AND 0.01 CM , REFERENCE CELLS : 0.05 CM
$$SPECTRAL CONTAMINATION DUE TO CCl4 AROUND 1560 CM^-^1
##RESOLUTION=2
##XUNITS=1/CM
##YUNITS=TRANSMITTANCE
##XFACTOR=1.0
##YFACTOR=1
##FIRSTX=627
##LASTX=4000
##FIRSTY=0.7902
##MAXX=4000
##MINX=627
##MAXY=0.9413
##MINY=0.0368
##NPOINTS=3374
##XYDATA=(X++(Y..Y))
627.000000 0.7902 0.7890 0.7885 0.7885 0.7878
632.000000 0.7863 0.7834 0.7803 0.7767 0.7758
637.000000 0.7680 0.7630 0.7580 0.7535 0.7498
642.000000 0.7462 0.7424 0.7385 0.7344 0.7284
647.000000 0.7224 0.7143 0.7050 0.6957 0.6856
652.000000 0.6727 0.6599 0.6453 0.6262 0.6046
657.000000 0.5882 0.5868 0.5774 0.6197 0.6403
662.000000 0.6574 0.6712 0.6806 0.6846 0.6864
667.000000 0.6872 0.6854 0.6844 0.6807 0.6750
672.000000 0.6634 0.6474 0.6254 0.5981 0.5646
677.000000 0.4890 0.4044 0.3202 0.2678 0.2457
682.000000 0.2368 0.2328 0.2698 0.3130 0.3560
687.000000 0.3990 0.4429 0.4822 0.5145 0.5454
692.000000 0.5652 0.5789 0.5865 0.5898 0.5817
697.000000 0.5863 0.5809 0.5723 0.5528 0.5165
702.000000 0.4480 0.3886 0.3291 0.2698 0.2107
707.000000 0.1613 0.1583 0.1556 0.2234 0.2830
712.000000 0.3424 0.4017 0.4608 0.5449 0.5974
717.000000 0.6305 0.6501 0.6678 0.6848 0.6994
722.000000 0.7136 0.7245 0.7353 0.7444 0.7531
727.000000 0.7589 0.7628 0.7653 0.7617 0.7652
732.000000 0.7643 0.7617 0.7563 0.7453 0.7295
737.000000 0.7129 0.6938 0.6742 0.6562 0.6405
742.000000 0.6272 0.6172 0.6069 0.5944 0.5698
747.000000 0.5061 0.4503 0.3946 0.3391 0.2837
752.000000 0.2298 0.2249 0.2572 0.3276 0.3979
757.000000 0.5088 0.5586 0.6345 0.6579 0.6721
762.000000 0.6841 0.6931 0.7016 0.7131 0.7219
767.000000 0.7279 0.7317 0.7330 0.7343 0.7354
772.000000 0.7364 0.7385 0.7374 0.7356 0.7340
777.000000 0.7322 0.7300 0.7277 0.7252 0.7212
782.000000 0.7162 0.7101 0.7033 0.6965 0.6898
787.000000 0.6831 0.6764 0.6677 0.6589 0.6505
792.000000 0.6424 0.6391 0.6414 0.6448 0.6473
797.000000 0.6497 0.6521 0.6550 0.6579 0.6608
802.000000 0.6637 0.6665 0.6693 0.6746 0.6878
807.000000 0.7048 0.7248 0.7439 0.7569 0.7660
812.000000 0.7715 0.7769 0.7810 0.7835 0.7860
817.000000 0.7871 0.7873 0.7912 0.7866 0.7846
822.000000 0.7824 0.7803 0.7780 0.7758 0.7736
827.000000 0.7714 0.7692 0.7668 0.7644 0.7619
832.000000 0.7594 0.7570 0.7546 0.7522 0.7499
837.000000 0.7477 0.7454 0.7432 0.7410 0.7387
842.000000 0.7364 0.7342 0.7319 0.7287 0.7254
847.000000 0.7220 0.7199 0.7189 0.7195 0.7194
852.000000 0.7202 0.7212 0.7221 0.7232 0.7241
857.000000 0.7251 0.7260 0.7270 0.7283 0.7299
862.000000 0.7315 0.7331 0.7347 0.7363 0.7377
867.000000 0.7388 0.7400 0.7411 0.7421 0.7432
872.000000 0.7444 0.7456 0.7476 0.7495 0.7514
877.000000 0.7534 0.7551 0.7566 0.7581 0.7596
882.000000 0.7610 0.7608 0.7596 0.7594 0.7579
887.000000 0.7560 0.7541 0.7523 0.7492 0.7461
892.000000 0.7428 0.7396 0.7365 0.7332 0.7303
897.000000 0.7273 0.7243 0.7214 0.7180 0.7146
902.000000 0.7112 0.7079 0.7044 0.6998 0.6952
907.000000 0.6907 0.6845 0.6781 0.6714 0.6633
912.000000 0.6551 0.6470 0.6377 0.6261 0.6145
917.000000 0.6035 0.5943 0.5930 0.5928 0.5929
922.000000 0.5931 0.5937 0.5945 0.5924 0.5854
927.000000 0.5757 0.5671 0.5613 0.5586 0.5576
932.000000 0.5533 0.5617 0.5695 0.5786 0.5927
937.000000 0.6059 0.6171 0.6247 0.6323 0.6387
942.000000 0.6439 0.6490 0.6531 0.6552 0.6570
947.000000 0.6562 0.6545 0.6518 0.6481 0.6413
952.000000 0.6321 0.6225 0.6123 0.6015 0.5878
957.000000 0.5730 0.5549 0.5366 0.5182 0.4909
962.000000 0.4502 0.4097 0.3692 0.3288 0.2885
967.000000 0.2483 0.2117 0.1893 0.1688 0.1476
972.000000 0.1342 0.1269 0.1252 0.1278 0.1318
977.000000 0.1415 0.1619 0.1880 0.2183 0.2485
982.000000 0.2787 0.3088 0.3388 0.3688 0.3987
987.000000 0.4286 0.4584 0.4889 0.5142 0.5310
992.000000 0.5420 0.5515 0.5593 0.5613 0.5624
997.000000 0.5591 0.5402 0.5118 0.4836 0.4572
1002.000000 0.4531 0.4514 0.5660 0.7152 0.7469
1007.000000 0.7535 0.7560 0.7565 0.7558 0.7547
1012.000000 0.7527 0.7503 0.7472 0.7437 0.7400
1017.000000 0.7356 0.7309 0.7247 0.7180 0.7098
1022.000000 0.6908 0.6643 0.6380 0.6116 0.5886
1027.000000 0.5833 0.6009 0.6690 0.7370 0.7611
1032.000000 0.7781 0.7917 0.8011 0.8078 0.8122
1037.000000 0.8161 0.8180 0.8194 0.8192 0.8163
1042.000000 0.8158 0.8130 0.8100 0.8071 0.8042
1047.000000 0.8014 0.7988 0.7958 0.7923 0.7887
1052.000000 0.7849 0.7801 0.7752 0.7702 0.7629
1057.000000 0.7553 0.7474 0.7395 0.7316 0.7210
1062.000000 0.7096 0.6962 0.6770 0.6471 0.6157
1067.000000 0.5843 0.5530 0.5217 0.4905 0.4614
1072.000000 0.4468 0.4409 0.4387 0.4505 0.4834
1077.000000 0.5197 0.5560 0.5780 0.5803 0.5800
1082.000000 0.5782 0.5673 0.5388 0.5103 0.4819
1087.000000 0.4535 0.4252 0.3969 0.3687 0.3405
1092.000000 0.3125 0.2844 0.2564 0.2249 0.2088
1097.000000 0.2021 0.2046 0.2017 0.2032 0.2097
1102.000000 0.2196 0.2288 0.2366 0.2432 0.2546
1107.000000 0.2713 0.2880 0.3047 0.3214 0.3380
1112.000000 0.3546 0.3712 0.3877 0.4042 0.4207
1117.000000 0.4371 0.4535 0.4699 0.4806 0.4885
1122.000000 0.4947 0.4983 0.4995 0.4992 0.4984
1127.000000 0.4979 0.4981 0.5095 0.5341 0.5586
1132.000000 0.5831 0.6076 0.6320 0.6560 0.6691
1137.000000 0.6754 0.6796 0.6820 0.6832 0.6831
1142.000000 0.6829 0.6821 0.6811 0.6785 0.6744
1147.000000 0.6690 0.6610 0.6517 0.6388 0.6202
1152.000000 0.6016 0.5831 0.5646 0.5461 0.5276
1157.000000 0.5092 0.4898 0.4646 0.4508 0.4402
1162.000000 0.4329 0.4259 0.4195 0.4154 0.4112
1167.000000 0.4070 0.4025 0.3980 0.3932 0.3866
1172.000000 0.3799 0.3480 0.3336 0.3244 0.3176
1177.000000 0.3141 0.3134 0.3167 0.3109 0.3632
1182.000000 0.3885 0.4138 0.4391 0.4643 0.4895
1187.000000 0.5147 0.5367 0.5444 0.5483 0.5508
1192.000000 0.5516 0.5497 0.5515 0.5508 0.5495
1197.000000 0.5475 0.5444 0.5410 0.5360 0.5288
1202.000000 0.5186 0.5085 0.4984 0.4883 0.4783
1207.000000 0.4681 0.4581 0.4481 0.4381 0.4281
1212.000000 0.4181 0.4082 0.3982 0.3883 0.3784
1217.000000 0.3685 0.3586 0.3487 0.3389 0.3291
1222.000000 0.3193 0.3095 0.2998 0.2909 0.2762
1227.000000 0.2589 0.2494 0.2442 0.2377 0.2399
1232.000000 0.2407 0.2422 0.2454 0.2516 0.2644
1237.000000 0.2760 0.2827 0.2857 0.2875 0.2884
1242.000000 0.2866 0.2885 0.2879 0.2870 0.2860
1247.000000 0.2850 0.2837 0.2823 0.2809 0.2794
1252.000000 0.2779 0.2760 0.2741 0.2721 0.2702
1257.000000 0.2683 0.2662 0.2641 0.2619 0.2594
1262.000000 0.2562 0.2530 0.2480 0.2347 0.2131
1267.000000 0.1992 0.1877 0.1762 0.1647 0.1532
1272.000000 0.1409 0.1287 0.1189 0.1094 0.0991
1277.000000 0.0828 0.0729 0.0655 0.0600 0.0559
1282.000000 0.0537 0.0528 0.0522 0.0527 0.0544
1287.000000 0.0554 0.0580 0.0610 0.0645 0.0695
1292.000000 0.0745 0.0906 0.1129 0.1352 0.1574
1297.000000 0.1796 0.2055 0.2203 0.2329 0.2454
1302.000000 0.2579 0.2704 0.2829 0.2953 0.3078
1307.000000 0.3202 0.3326 0.3445 0.3489 0.3496
1312.000000 0.3380 0.3221 0.3063 0.2905 0.2747
1317.000000 0.2589 0.2432 0.2275 0.2120 0.2053
1322.000000 0.2046 0.2351 0.2713 0.3074 0.3435
1327.000000 0.3795 0.4128 0.4382 0.4668 0.4879
1332.000000 0.5152 0.5498 0.5726 0.6101 0.6342
1337.000000 0.6482 0.6584 0.6677 0.6766 0.6849
1342.000000 0.6936 0.7033 0.7101 0.7153 0.7192
1347.000000 0.7217 0.7239 0.7254 0.7269 0.7280
1352.000000 0.7284 0.7289 0.7292 0.7291 0.7308
1357.000000 0.7279 0.7264 0.7231 0.7193 0.7139
1362.000000 0.7013 0.6888 0.6762 0.6637 0.6512
1367.000000 0.6387 0.6262 0.6137 0.6013 0.5915
1372.000000 0.5870 0.5834 0.5852 0.5893 0.5964
1377.000000 0.6037 0.6110 0.6183 0.6255 0.6313
1382.000000 0.6330 0.6332 0.6329 0.6313 0.6207
1387.000000 0.6093 0.5979 0.5865 0.5751 0.5638
1392.000000 0.5524 0.5411 0.5298 0.5186 0.5073
1397.000000 0.4960 0.4848 0.4736 0.4623 0.4511
1402.000000 0.4400 0.4288 0.4177 0.4065 0.3955
1407.000000 0.3842 0.3736 0.3636 0.3536 0.3456
1412.000000 0.3388 0.3319 0.3253 0.3195 0.3141
1417.000000 0.3115 0.3108 0.3111 0.3120 0.3136
1422.000000 0.3367 0.3577 0.3785 0.3994 0.4202
1427.000000 0.4410 0.4618 0.4825 0.5033 0.5239
1432.000000 0.5446 0.5653 0.5859 0.6064 0.6270
1437.000000 0.6475 0.6680 0.6824 0.6862 0.6863
1442.000000 0.6867 0.6863 0.6852 0.6655 0.6304
1447.000000 0.5944 0.5584 0.5225 0.4867 0.4509
1452.000000 0.4152 0.3795 0.3438 0.3083 0.2727
1457.000000 0.2396 0.2275 0.2263 0.2262 0.2414
1462.000000 0.3016 0.3679 0.4341 0.5002 0.5662
1467.000000 0.6321 0.6973 0.7215 0.7539 0.7765
1472.000000 0.7863 0.7961 0.8081 0.8207 0.8337
1477.000000 0.8455 0.8539 0.8599 0.8638 0.8672
1482.000000 0.8686 0.8696 0.8705 0.8711 0.8712
1487.000000 0.8712 0.8672 0.8700 0.8694 0.8686
1492.000000 0.8672 0.8653 0.8619 0.8489 0.8316
1497.000000 0.8143 0.7969 0.7796 0.7624 0.7381
1502.000000 0.7376 0.7374 0.7377 0.7450 0.7555
1507.000000 0.7661 0.7767 0.7873 0.8025 0.7980
1512.000000 0.7978 0.7975 0.7970 0.7963 0.7945
1517.000000 0.7919 0.7893 0.7867 0.7841 0.7813
1522.000000 0.7784 0.7755 0.7726 0.7695 0.7664
1527.000000 0.7633 0.7601 0.7570 0.7539 0.7508
1532.000000 0.7477 0.7446 0.7415 0.7382 0.7347
1537.000000 0.7313 0.7279 0.7244 0.7208 0.7172
1542.000000 0.7137 0.7098 0.7054 0.7010 0.6965
1547.000000 0.6920 0.6868 0.6789 0.6713 0.6657
1552.000000 0.6614 0.6574 0.6544 0.6520 0.6499
1557.000000 0.6487 0.6482 0.6486 0.6490 0.6495
1562.000000 0.6501 0.6507 0.6512 0.6518 0.6524
1567.000000 0.6530 0.6537 0.6543 0.6548 0.6552
1572.000000 0.6552 0.6536 0.6548 0.6543 0.6534
1577.000000 0.6524 0.6514 0.6501 0.6485 0.6469
1582.000000 0.6436 0.6383 0.6320 0.6267 0.6215
1587.000000 0.6078 0.5845 0.5588 0.5331 0.5074
1592.000000 0.4817 0.4561 0.4290 0.4276 0.4292
1597.000000 0.4402 0.4575 0.4748 0.4920 0.5083
1602.000000 0.5167 0.5200 0.5140 0.4981 0.4671
1607.000000 0.4361 0.4052 0.3743 0.3482 0.3416
1612.000000 0.3421 0.3648 0.3959 0.4269 0.4579
1617.000000 0.4888 0.5197 0.5507 0.5815 0.6123
1622.000000 0.6431 0.6578 0.6639 0.6692 0.6742
1627.000000 0.6796 0.6855 0.6910 0.6954 0.6994
1632.000000 0.7033 0.7067 0.7102 0.7120 0.7127
1637.000000 0.7130 0.7125 0.7122 0.7116 0.7102
1642.000000 0.7066 0.7009 0.6941 0.6863 0.6792
1647.000000 0.6739 0.6687 0.6621 0.6555 0.6489
1652.000000 0.6416 0.6341 0.6254 0.6100 0.5908
1657.000000 0.5777 0.5689 0.5581 0.5443 0.5364
1662.000000 0.5288 0.5216 0.5150 0.5086 0.5020
1667.000000 0.4950 0.4878 0.4806 0.4734 0.4653
1672.000000 0.4508 0.4217 0.3883 0.3549 0.3216
1677.000000 0.2883 0.2550 0.2219 0.1887 0.1556
1682.000000 0.1225 0.0895 0.0653 0.0527 0.0461
1687.000000 0.0424 0.0395 0.0373 0.0369 0.0368
1692.000000 0.0368 0.0372 0.0379 0.0411 0.0403
1697.000000 0.0420 0.0437 0.0454 0.0468 0.0480
1702.000000 0.0489 0.0498 0.0505 0.0512 0.0518
1707.000000 0.0525 0.0532 0.0541 0.0554 0.0585
1712.000000 0.0713 0.0823 0.0911 0.0991 0.1062
1717.000000 0.1112 0.1166 0.1218 0.1250 0.1269
1722.000000 0.1288 0.1307 0.1326 0.1344 0.1368
1727.000000 0.1398 0.1431 0.1464 0.1494 0.1524
1732.000000 0.1571 0.1627 0.1685 0.1745 0.1808
1737.000000 0.1873 0.1947 0.2034 0.2135 0.2280
1742.000000 0.3032 0.3244 0.3529 0.3832 0.4011
1747.000000 0.4199 0.4386 0.4574 0.4760 0.4946
1752.000000 0.5133 0.5320 0.5506 0.5692 0.5877
1757.000000 0.6063 0.6247 0.6432 0.6617 0.6802
1762.000000 0.6987 0.7171 0.7354 0.7538 0.7681
1767.000000 0.7762 0.7791 0.7814 0.7834 0.7853
1772.000000 0.7872 0.7892 0.7911 0.7939 0.7975
1777.000000 0.8016 0.8061 0.8111 0.8167 0.8230
1782.000000 0.8299 0.8359 0.8412 0.8448 0.8470
1787.000000 0.8492 0.8503 0.8510 0.8516 0.8521
1792.000000 0.8519 0.8515 0.8512 0.8508 0.8503
1797.000000 0.8494 0.8485 0.8475 0.8467 0.8460
1802.000000 0.8455 0.8450 0.8447 0.8447 0.8449
1807.000000 0.8451 0.8455 0.8460 0.8469 0.8478
1812.000000 0.8491 0.8514 0.8537 0.8568 0.8601
1817.000000 0.8635 0.8666 0.8700 0.8738 0.8779
1822.000000 0.8819 0.8851 0.8881 0.8910 0.8934
1827.000000 0.8957 0.8979 0.9001 0.9021 0.9036
1832.000000 0.9050 0.9064 0.9077 0.9091 0.9105
1837.000000 0.9118 0.9128 0.9136 0.9142 0.9149
1842.000000 0.9156 0.9163 0.9168 0.9170 0.9173
1847.000000 0.9174 0.9176 0.9177 0.9179 0.9178
1852.000000 0.9176 0.9175 0.9173 0.9171 0.9169
1857.000000 0.9164 0.9158 0.9152 0.9146 0.9140
1862.000000 0.9134 0.9125 0.9115 0.9106 0.9096
1867.000000 0.9087 0.9076 0.9065 0.9053 0.9041
1872.000000 0.9029 0.9017 0.9005 0.8995 0.8984
1877.000000 0.8973 0.8963 0.8953 0.8942 0.8932
1882.000000 0.8922 0.8913 0.8906 0.8900 0.8894
1887.000000 0.8888 0.8883 0.8883 0.8883 0.8883
1892.000000 0.8883 0.8883 0.8883 0.8886 0.8890
1897.000000 0.8893 0.8897 0.8902 0.8908 0.8917
1902.000000 0.8926 0.8934 0.8943 0.8951 0.8960
1907.000000 0.8969 0.8978 0.8988 0.8999 0.9010
1912.000000 0.9021 0.9031 0.9042 0.9051 0.9058
1917.000000 0.9065 0.9073 0.9080 0.9086 0.9084
1922.000000 0.9081 0.9079 0.9076 0.9072 0.9065
1927.000000 0.9058 0.9051 0.9045 0.9037 0.9028
1932.000000 0.9019 0.9011 0.9002 0.8993 0.8985
1937.000000 0.8979 0.8975 0.8971 0.8968 0.8964
1942.000000 0.8960 0.8957 0.8953 0.8951 0.8951
1947.000000 0.8951 0.8956 0.8961 0.8966 0.8971
1952.000000 0.8977 0.8983 0.8988 0.8994 0.8999
1957.000000 0.9009 0.9019 0.9029 0.9039 0.9050
1962.000000 0.9064 0.9080 0.9097 0.9113 0.9130
1967.000000 0.9148 0.9171 0.9194 0.9217 0.9234
1972.000000 0.9250 0.9266 0.9279 0.9290 0.9297
1977.000000 0.9305 0.9313 0.9320 0.9325 0.9328
1982.000000 0.9329 0.9332 0.9334 0.9336 0.9337
1987.000000 0.9339 0.9340 0.9342 0.9343 0.9344
1992.000000 0.9345 0.9347 0.9348 0.9348 0.9349
1997.000000 0.9350 0.9350 0.9351 0.9353 0.9353
2002.000000 0.9354 0.9354 0.9355 0.9354 0.9354
2007.000000 0.9354 0.9354 0.9354 0.9353 0.9353
2012.000000 0.9353 0.9353 0.9353 0.9352 0.9352
2017.000000 0.9352 0.9351 0.9350 0.9349 0.9348
2022.000000 0.9346 0.9345 0.9344 0.9343 0.9341
2027.000000 0.9340 0.9339 0.9338 0.9337 0.9335
2032.000000 0.9334 0.9333 0.9331 0.9329 0.9327
2037.000000 0.9325 0.9324 0.9322 0.9320 0.9318
2042.000000 0.9316 0.9315 0.9313 0.9311 0.9309
2047.000000 0.9308 0.9307 0.9306 0.9305 0.9304
2052.000000 0.9304 0.9303 0.9303 0.9302 0.9302
2057.000000 0.9302 0.9301 0.9301 0.9301 0.9301
2062.000000 0.9301 0.9302 0.9303 0.9304 0.9304
2067.000000 0.9306 0.9307 0.9307 0.9308 0.9309
2072.000000 0.9310 0.9311 0.9312 0.9314 0.9317
2077.000000 0.9319 0.9322 0.9324 0.9327 0.9330
2082.000000 0.9333 0.9338 0.9343 0.9347 0.9413
2087.000000 0.9355 0.9360 0.9364 0.9368 0.9372
2092.000000 0.9376 0.9380 0.9383 0.9387 0.9390
2097.000000 0.9391 0.9392 0.9392 0.9390 0.9389
2102.000000 0.9387 0.9385 0.9383 0.9381 0.9380
2107.000000 0.9378 0.9375 0.9372 0.9370 0.9366
2112.000000 0.9363 0.9360 0.9357 0.9355 0.9351
2117.000000 0.9347 0.9343 0.9339 0.9335 0.9331
2122.000000 0.9327 0.9324 0.9320 0.9316 0.9312
2127.000000 0.9307 0.9303 0.9299 0.9295 0.9291
2132.000000 0.9287 0.9283 0.9279 0.9274 0.9270
2137.000000 0.9266 0.9262 0.9258 0.9254 0.9251
2142.000000 0.9248 0.9246 0.9244 0.9242 0.9239
2147.000000 0.9237 0.9235 0.9233 0.9231 0.9229
2152.000000 0.9226 0.9224 0.9222 0.9220 0.9219
2157.000000 0.9219 0.9219 0.9219 0.9219 0.9220
2162.000000 0.9220 0.9221 0.9221 0.9222 0.9222
2167.000000 0.9221 0.9221 0.9220 0.9219 0.9218
2172.000000 0.9218 0.9217 0.9216 0.9215 0.9214
2177.000000 0.9214 0.9213 0.9213 0.9212 0.9210
2182.000000 0.9207 0.9205 0.9202 0.9199 0.9197
2187.000000 0.9194 0.9191 0.9189 0.9186 0.9184
2192.000000 0.9182 0.9179 0.9177 0.9174 0.9172
2197.000000 0.9169 0.9166 0.9164 0.9161 0.9159
2202.000000 0.9156 0.9154 0.9151 0.9148 0.9146
2207.000000 0.9143 0.9141 0.9138 0.9135 0.9132
2212.000000 0.9129 0.9127 0.9124 0.9122 0.9119
2217.000000 0.9116 0.9113 0.9111 0.9108 0.9106
2222.000000 0.9103 0.9100 0.9097 0.9094 0.9091
2227.000000 0.9088 0.9085 0.9082 0.9079 0.9076
2232.000000 0.9073 0.9070 0.9067 0.9064 0.9062
2237.000000 0.9059 0.9056 0.9053 0.9050 0.9045
2242.000000 0.9040 0.9035 0.9030 0.9025 0.9019
2247.000000 0.9014 0.9009 0.9005 0.9000 0.8994
2252.000000 0.8989 0.8984 0.8979 0.8974 0.8968
2257.000000 0.8963 0.8958 0.8953 0.8948 0.8943
2262.000000 0.8938 0.8933 0.8928 0.8923 0.8919
2267.000000 0.8915 0.8911 0.8907 0.8903 0.8899
2272.000000 0.8896 0.8892 0.8889 0.8885 0.8881
2277.000000 0.8877 0.8874 0.8870 0.8868 0.8866
2282.000000 0.8864 0.8862 0.8860 0.8858 0.8856
2287.000000 0.8854 0.8852 0.8850 0.8848 0.8846
2292.000000 0.8845 0.8843 0.8841 0.8839 0.8838
2297.000000 0.8837 0.8836 0.8835 0.8834 0.8833
2302.000000 0.8832 0.8831 0.8830 0.8829 0.8828
2307.000000 0.8826 0.8823 0.8821 0.8818 0.8815
2312.000000 0.8813 0.8811 0.8808 0.8805 0.8803
2317.000000 0.8800 0.8798 0.8795 0.8792 0.8790
2322.000000 0.8787 0.8785 0.8782 0.8778 0.8775
2327.000000 0.8771 0.8766 0.8762 0.8758 0.8754
2332.000000 0.8750 0.8746 0.8742 0.8737 0.8733
2337.000000 0.8729 0.8725 0.8721 0.8718 0.8714
2342.000000 0.8710 0.8706 0.8701 0.8697 0.8693
2347.000000 0.8689 0.8685 0.8681 0.8677 0.8672
2352.000000 0.8667 0.8662 0.8657 0.8652 0.8647
2357.000000 0.8642 0.8637 0.8632 0.8628 0.8623
2362.000000 0.8618 0.8613 0.8608 0.8603 0.8598
2367.000000 0.8592 0.8586 0.8580 0.8573 0.8567
2372.000000 0.8560 0.8553 0.8547 0.8540 0.8534
2377.000000 0.8528 0.8521 0.8515 0.8508 0.8502
2382.000000 0.8496 0.8489 0.8483 0.8477 0.8470
2387.000000 0.8464 0.8457 0.8449 0.8441 0.8432
2392.000000 0.8423 0.8414 0.8405 0.8396 0.8388
2397.000000 0.8379 0.8370 0.8361 0.8352 0.8343
2402.000000 0.8334 0.8326 0.8317 0.8308 0.8299
2407.000000 0.8290 0.8282 0.8273 0.8264 0.8255
2412.000000 0.8245 0.8235 0.8223 0.8210 0.8198
2417.000000 0.8186 0.8174 0.8162 0.8150 0.8138
2422.000000 0.8125 0.8113 0.8101 0.8089 0.8078
2427.000000 0.8066 0.8053 0.8041 0.8029 0.8017
2432.000000 0.8005 0.7992 0.7979 0.7966 0.7952
2437.000000 0.7939 0.7925 0.7911 0.7897 0.7884
2442.000000 0.7870 0.7856 0.7843 0.7829 0.7816
2447.000000 0.7802 0.7788 0.7775 0.7760 0.7746
2452.000000 0.7730 0.7715 0.7699 0.7682 0.7666
2457.000000 0.7651 0.7635 0.7619 0.7603 0.7587
2462.000000 0.7570 0.7554 0.7538 0.7522 0.7506
2467.000000 0.7490 0.7473 0.7457 0.7440 0.7424
2472.000000 0.7407 0.7390 0.7374 0.7358 0.7341
2477.000000 0.7324 0.7308 0.7291 0.7275 0.7258
2482.000000 0.7242 0.7225 0.7209 0.7192 0.7176
2487.000000 0.7160 0.7143 0.7127 0.7110 0.7089
2492.000000 0.7068 0.7042 0.7011 0.6981 0.6951
2497.000000 0.6921 0.6894 0.6870 0.6846 0.6822
2502.000000 0.6798 0.6772 0.6744 0.6717 0.6684
2507.000000 0.6651 0.6623 0.6602 0.6581 0.6563
2512.000000 0.6545 0.6530 0.6519 0.6508 0.6501
2517.000000 0.6496 0.6490 0.6485 0.6479 0.6479
2522.000000 0.6479 0.6479 0.6481 0.6482 0.6483
2527.000000 0.6488 0.6491 0.6496 0.6500 0.6504
2532.000000 0.6508 0.6512 0.6518 0.6524 0.6530
2537.000000 0.6538 0.6545 0.6554 0.6563 0.6573
2542.000000 0.6585 0.6598 0.6611 0.6624 0.6640
2547.000000 0.6671 0.6702 0.6736 0.6772 0.6808
2552.000000 0.6823 0.6838 0.6851 0.6859 0.6868
2557.000000 0.6873 0.6877 0.6895 0.6880 0.6879
2562.000000 0.6878 0.6878 0.6878 0.6877 0.6877
2567.000000 0.6876 0.6876 0.6875 0.6874 0.6873
2572.000000 0.6872 0.6869 0.6866 0.6863 0.6858
2577.000000 0.6853 0.6848 0.6843 0.6838 0.6833
2582.000000 0.6827 0.6822 0.6816 0.6811 0.6806
2587.000000 0.6801 0.6795 0.6791 0.6787 0.6782
2592.000000 0.6779 0.6775 0.6772 0.6770 0.6768
2597.000000 0.6766 0.6764 0.6762 0.6760 0.6758
2602.000000 0.6756 0.6755 0.6755 0.6754 0.6754
2607.000000 0.6753 0.6753 0.6753 0.6751 0.6748
2612.000000 0.6745 0.6742 0.6738 0.6734 0.6726
2617.000000 0.6719 0.6711 0.6702 0.6694 0.6684
2622.000000 0.6671 0.6658 0.6645 0.6632 0.6619
2627.000000 0.6603 0.6586 0.6569 0.6551 0.6533
2632.000000 0.6515 0.6497 0.6479 0.6461 0.6444
2637.000000 0.6427 0.6409 0.6392 0.6374 0.6355
2642.000000 0.6337 0.6318 0.6299 0.6280 0.6263
2647.000000 0.6249 0.6235 0.6221 0.6207 0.6193
2652.000000 0.6180 0.6167 0.6154 0.6140 0.6127
2657.000000 0.6115 0.6107 0.6098 0.6094 0.6094
2662.000000 0.6094 0.6094 0.6095 0.6096 0.6061
2667.000000 0.6105 0.6110 0.6148 0.6189 0.6229
2672.000000 0.6261 0.6292 0.6323 0.6347 0.6372
2677.000000 0.6395 0.6412 0.6430 0.6447 0.6464
2682.000000 0.6480 0.6495 0.6509 0.6523 0.6537
2687.000000 0.6551 0.6564 0.6569 0.6573 0.6576
2692.000000 0.6577 0.6579 0.6580 0.6581 0.6582
2697.000000 0.6607 0.6583 0.6584 0.6584 0.6583
2702.000000 0.6582 0.6581 0.6580 0.6578 0.6576
2707.000000 0.6574 0.6571 0.6565 0.6556 0.6546
2712.000000 0.6538 0.6530 0.6522 0.6514 0.6506
2717.000000 0.6499 0.6491 0.6483 0.6475 0.6460
2722.000000 0.6440 0.6421 0.6403 0.6386 0.6368
2727.000000 0.6351 0.6334 0.6317 0.6300 0.6283
2732.000000 0.6267 0.6250 0.6232 0.6215 0.6198
2737.000000 0.6181 0.6164 0.6148 0.6131 0.6114
2742.000000 0.6097 0.6080 0.6064 0.6047 0.6030
2747.000000 0.6013 0.5996 0.5980 0.5963 0.5946
2752.000000 0.5929 0.5913 0.5896 0.5879 0.5862
2757.000000 0.5845 0.5829 0.5812 0.5795 0.5779
2762.000000 0.5763 0.5746 0.5729 0.5713 0.5696
2767.000000 0.5679 0.5663 0.5646 0.5630 0.5614
2772.000000 0.5597 0.5581 0.5564 0.5547 0.5531
2777.000000 0.5514 0.5498 0.5482 0.5466 0.5449
2782.000000 0.5433 0.5416 0.5400 0.5383 0.5367
2787.000000 0.5351 0.5335 0.5318 0.5302 0.5286
2792.000000 0.5270 0.5253 0.5237 0.5221 0.5204
2797.000000 0.5188 0.5172 0.5156 0.5140 0.5124
2802.000000 0.5108 0.5091 0.5075 0.5059 0.5043
2807.000000 0.5027 0.5011 0.4995 0.4979 0.4963
2812.000000 0.4947 0.4931 0.4915 0.4899 0.4883
2817.000000 0.4867 0.4851 0.4835 0.4819 0.4803
2822.000000 0.4787 0.4771 0.4755 0.4739 0.4723
2827.000000 0.4707 0.4691 0.4676 0.4660 0.4645
2832.000000 0.4629 0.4613 0.4597 0.4581 0.4565
2837.000000 0.4549 0.4534 0.4518 0.4503 0.4487
2842.000000 0.4471 0.4456 0.4440 0.4424 0.4408
2847.000000 0.4392 0.4377 0.4362 0.4346 0.4331
2852.000000 0.4315 0.4299 0.4284 0.4268 0.4252
2857.000000 0.4237 0.4221 0.4206 0.4191 0.4175
2862.000000 0.4160 0.4144 0.4129 0.4113 0.4098
2867.000000 0.4082 0.4067 0.4052 0.4037 0.4021
2872.000000 0.4006 0.3990 0.3975 0.3959 0.3944
2877.000000 0.3929 0.3917 0.3904 0.3892 0.3881
2882.000000 0.3870 0.3860 0.3849 0.3839 0.3829
2887.000000 0.3818 0.3802 0.3785 0.3769 0.3755
2892.000000 0.3741 0.3727 0.3715 0.3704 0.3694
2897.000000 0.3685 0.3677 0.3670 0.3662 0.3657
2902.000000 0.3653 0.3648 0.3645 0.3644 0.3643
2907.000000 0.3643 0.3648 0.3653 0.3659 0.3632
2912.000000 0.3672 0.3678 0.3687 0.3700 0.3714
2917.000000 0.3727 0.3741 0.3755 0.3769 0.3784
2922.000000 0.3803 0.3821 0.3839 0.3862 0.3886
2927.000000 0.3909 0.3932 0.3955 0.3978 0.4001
2932.000000 0.4025 0.4048 0.4071 0.4094 0.4117
2937.000000 0.4140 0.4163 0.4186 0.4209 0.4232
2942.000000 0.4255 0.4278 0.4301 0.4321 0.4337
2947.000000 0.4353 0.4369 0.4372 0.4374 0.4375
2952.000000 0.4377 0.4379 0.4381 0.4382 0.4383
2957.000000 0.4384 0.4384 0.4385 0.4385 0.4386
2962.000000 0.4386 0.4386 0.4385 0.4385 0.4398
2967.000000 0.4383 0.4381 0.4380 0.4373 0.4366
2972.000000 0.4359 0.4350 0.4338 0.4327 0.4315
2977.000000 0.4303 0.4292 0.4280 0.4268 0.4257
2982.000000 0.4245 0.4233 0.4221 0.4210 0.4198
2987.000000 0.4187 0.4175 0.4163 0.4152 0.4140
2992.000000 0.4129 0.4117 0.4106 0.4094 0.4082
2997.000000 0.4071 0.4059 0.4048 0.4036 0.4025
3002.000000 0.4013 0.4002 0.3990 0.3978 0.3967
3007.000000 0.3956 0.3944 0.3933 0.3921 0.3910
3012.000000 0.3898 0.3887 0.3875 0.3864 0.3853
3017.000000 0.3841 0.3830 0.3818 0.3807 0.3796
3022.000000 0.3784 0.3773 0.3762 0.3750 0.3739
3027.000000 0.3727 0.3716 0.3705 0.3694 0.3683
3032.000000 0.3671 0.3660 0.3648 0.3637 0.3626
3037.000000 0.3615 0.3604 0.3592 0.3581 0.3570
3042.000000 0.3558 0.3547 0.3536 0.3525 0.3514
3047.000000 0.3503 0.3491 0.3480 0.3469 0.3458
3052.000000 0.3447 0.3437 0.3438 0.3435 0.3433
3057.000000 0.3433 0.3433 0.3434 0.3435 0.3438
3062.000000 0.3442 0.3445 0.3452 0.3468 0.3483
3067.000000 0.3499 0.3523 0.3555 0.3587 0.3619
3072.000000 0.3651 0.3683 0.3715 0.3748 0.3780
3077.000000 0.3812 0.3844 0.3876 0.3908 0.3940
3082.000000 0.3972 0.4004 0.4036 0.4067 0.4099
3087.000000 0.4131 0.4163 0.4194 0.4226 0.4257
3092.000000 0.4288 0.4320 0.4351 0.4362 0.4373
3097.000000 0.4383 0.4393 0.4403 0.4412 0.4422
3102.000000 0.4431 0.4439 0.4447 0.4455 0.4463
3107.000000 0.4471 0.4479 0.4487 0.4493 0.4499
3112.000000 0.4504 0.4510 0.4514 0.4519 0.4523
3117.000000 0.4528 0.4532 0.4537 0.4541 0.4546
3122.000000 0.4550 0.4555 0.4559 0.4564 0.4568
3127.000000 0.4573 0.4577 0.4582 0.4586 0.4591
3132.000000 0.4595 0.4599 0.4604 0.4610 0.4615
3137.000000 0.4620 0.4625 0.4631 0.4637 0.4642
3142.000000 0.4647 0.4653 0.4658 0.4663 0.4669
3147.000000 0.4675 0.4680 0.4686 0.4691 0.4697
3152.000000 0.4702 0.4708 0.4714 0.4719 0.4725
3157.000000 0.4733 0.4742 0.4752 0.4761 0.4771
3162.000000 0.4780 0.4789 0.4798 0.4808 0.4817
3167.000000 0.4827 0.4836 0.4847 0.4859 0.4872
3172.000000 0.4884 0.4897 0.4909 0.4922 0.4935
3177.000000 0.4948 0.4961 0.4975 0.4988 0.5003
3182.000000 0.5018 0.5033 0.5048 0.5063 0.5078
3187.000000 0.5093 0.5108 0.5122 0.5136 0.5149
3192.000000 0.5162 0.5175 0.5186 0.5198 0.5209
3197.000000 0.5220 0.5231 0.5242 0.5253 0.5264
3202.000000 0.5275 0.5286 0.5297 0.5308 0.5319
3207.000000 0.5330 0.5340 0.5351 0.5361 0.5370
3212.000000 0.5380 0.5389 0.5398 0.5408 0.5417
3217.000000 0.5426 0.5435 0.5445 0.5454 0.5463
3222.000000 0.5473 0.5482 0.5491 0.5500 0.5509
3227.000000 0.5519 0.5528 0.5537 0.5547 0.5556
3232.000000 0.5565 0.5575 0.5584 0.5594 0.5604
3237.000000 0.5615 0.5625 0.5636 0.5647 0.5658
3242.000000 0.5669 0.5681 0.5692 0.5704 0.5715
3247.000000 0.5726 0.5737 0.5749 0.5760 0.5771
3252.000000 0.5782 0.5793 0.5804 0.5815 0.5825
3257.000000 0.5834 0.5844 0.5853 0.5863 0.5872
3262.000000 0.5881 0.5891 0.5900 0.5910 0.5919
3267.000000 0.5928 0.5938 0.5947 0.5957 0.5967
3272.000000 0.5976 0.5985 0.5995 0.6004 0.6013
3277.000000 0.6021 0.6028 0.6034 0.6040 0.6046
3282.000000 0.6052 0.6058 0.6063 0.6069 0.6074
3287.000000 0.6080 0.6085 0.6091 0.6096 0.6102
3292.000000 0.6107 0.6113 0.6118 0.6120 0.6122
3297.000000 0.6123 0.6125 0.6127 0.6128 0.6130
3302.000000 0.6132 0.6133 0.6133 0.6133 0.6133
3307.000000 0.6134 0.6134 0.6134 0.6134 0.6134
3312.000000 0.6153 0.6135 0.6135 0.6135 0.6135
3317.000000 0.6135 0.6135 0.6135 0.6135 0.6133
3322.000000 0.6131 0.6130 0.6128 0.6127 0.6125
3327.000000 0.6123 0.6121 0.6119 0.6118 0.6116
3332.000000 0.6115 0.6113 0.6111 0.6109 0.6107
3337.000000 0.6104 0.6102 0.6097 0.6093 0.6088
3342.000000 0.6084 0.6079 0.6074 0.6070 0.6065
3347.000000 0.6060 0.6055 0.6049 0.6044 0.6039
3352.000000 0.6033 0.6027 0.6021 0.6015 0.6009
3357.000000 0.6002 0.5996 0.5990 0.5984 0.5977
3362.000000 0.5969 0.5962 0.5955 0.5947 0.5940
3367.000000 0.5932 0.5924 0.5917 0.5909 0.5901
3372.000000 0.5894 0.5886 0.5878 0.5869 0.5859
3377.000000 0.5850 0.5841 0.5831 0.5821 0.5811
3382.000000 0.5800 0.5790 0.5781 0.5771 0.5762
3387.000000 0.5753 0.5744 0.5735 0.5727 0.5718
3392.000000 0.5710 0.5701 0.5693 0.5685 0.5677
3397.000000 0.5669 0.5662 0.5656 0.5649 0.5643
3402.000000 0.5637 0.5631 0.5625 0.5619 0.5612
3407.000000 0.5606 0.5600 0.5594 0.5588 0.5582
3412.000000 0.5576 0.5570 0.5564 0.5558 0.5552
3417.000000 0.5547 0.5541 0.5535 0.5529 0.5523
3422.000000 0.5517 0.5510 0.5504 0.5497 0.5491
3427.000000 0.5485 0.5478 0.5472 0.5465 0.5459
3432.000000 0.5453 0.5446 0.5440 0.5438 0.5436
3437.000000 0.5434 0.5432 0.5430 0.5428 0.5427
3442.000000 0.5425 0.5423 0.5422 0.5420 0.5418
3447.000000 0.5416 0.5414 0.5414 0.5415 0.5416
3452.000000 0.5417 0.5418 0.5415 0.5422 0.5424
3457.000000 0.5426 0.5428 0.5430 0.5432 0.5433
3462.000000 0.5435 0.5438 0.5441 0.5444 0.5447
3467.000000 0.5450 0.5454 0.5459 0.5464 0.5469
3472.000000 0.5474 0.5480 0.5487 0.5493 0.5499
3477.000000 0.5505 0.5523 0.5542 0.5561 0.5580
3482.000000 0.5598 0.5612 0.5625 0.5639 0.5652
3487.000000 0.5673 0.5714 0.5756 0.5797 0.5839
3492.000000 0.5873 0.5895 0.5917 0.5939 0.5961
3497.000000 0.5984 0.6008 0.6031 0.6055 0.6078
3502.000000 0.6108 0.6143 0.6177 0.6212 0.6247
3507.000000 0.6301 0.6365 0.6428 0.6492 0.6556
3512.000000 0.6591 0.6618 0.6644 0.6671 0.6698
3517.000000 0.6718 0.6738 0.6757 0.6776 0.6795
3522.000000 0.6876 0.6965 0.7055 0.7145 0.7234
3527.000000 0.7279 0.7318 0.7358 0.7398 0.7438
3532.000000 0.7463 0.7488 0.7513 0.7537 0.7562
3537.000000 0.7585 0.7609 0.7632 0.7655 0.7679
3542.000000 0.7700 0.7722 0.7743 0.7765 0.7786
3547.000000 0.7805 0.7824 0.7843 0.7862 0.7881
3552.000000 0.7898 0.7914 0.7930 0.7946 0.7962
3557.000000 0.7979 0.7995 0.8011 0.8027 0.8043
3562.000000 0.8061 0.8079 0.8097 0.8115 0.8133
3567.000000 0.8152 0.8171 0.8189 0.8208 0.8227
3572.000000 0.8241 0.8253 0.8265 0.8277 0.8289
3577.000000 0.8300 0.8310 0.8320 0.8329 0.8339
3582.000000 0.8349 0.8359 0.8369 0.8379 0.8389
3587.000000 0.8398 0.8407 0.8416 0.8425 0.8434
3592.000000 0.8443 0.8450 0.8457 0.8464 0.8471
3597.000000 0.8479 0.8486 0.8493 0.8500 0.8507
3602.000000 0.8514 0.8521 0.8529 0.8536 0.8543
3607.000000 0.8550 0.8557 0.8564 0.8570 0.8577
3612.000000 0.8584 0.8590 0.8593 0.8597 0.8600
3617.000000 0.8604 0.8608 0.8612 0.8615 0.8619
3622.000000 0.8623 0.8627 0.8630 0.8634 0.8638
3627.000000 0.8641 0.8645 0.8649 0.8652 0.8656
3632.000000 0.8660 0.8664 0.8667 0.8671 0.8674
3637.000000 0.8677 0.8680 0.8683 0.8687 0.8690
3642.000000 0.8694 0.8697 0.8700 0.8704 0.8707
3647.000000 0.8710 0.8713 0.8716 0.8719 0.8722
3652.000000 0.8724 0.8726 0.8728 0.8731 0.8732
3657.000000 0.8734 0.8736 0.8738 0.8740 0.8742
3662.000000 0.8744 0.8745 0.8747 0.8749 0.8751
3667.000000 0.8753 0.8755 0.8757 0.8759 0.8761
3672.000000 0.8763 0.8765 0.8767 0.8769 0.8771
3677.000000 0.8772 0.8774 0.8776 0.8778 0.8780
3682.000000 0.8782 0.8784 0.8786 0.8788 0.8790
3687.000000 0.8792 0.8794 0.8796 0.8798 0.8801
3692.000000 0.8803 0.8805 0.8807 0.8809 0.8812
3697.000000 0.8814 0.8816 0.8818 0.8820 0.8823
3702.000000 0.8825 0.8827 0.8829 0.8832 0.8834
3707.000000 0.8837 0.8839 0.8842 0.8845 0.8849
3712.000000 0.8853 0.8856 0.8860 0.8864 0.8867
3717.000000 0.8871 0.8875 0.8879 0.8883 0.8886
3722.000000 0.8890 0.8893 0.8897 0.8901 0.8904
3727.000000 0.8908 0.8912 0.8916 0.8919 0.8923
3732.000000 0.8927 0.8930 0.8934 0.8938 0.8941
3737.000000 0.8945 0.8949 0.8952 0.8956 0.8960
3742.000000 0.8964 0.8967 0.8971 0.8974 0.8977
3747.000000 0.8981 0.8984 0.8987 0.8989 0.8991
3752.000000 0.8993 0.8996 0.8998 0.9000 0.9003
3757.000000 0.9005 0.9007 0.9010 0.9011 0.9012
3762.000000 0.9013 0.9014 0.9015 0.9015 0.9016
3767.000000 0.9016 0.9016 0.9016 0.9016 0.9040
3772.000000 0.9017 0.9017 0.9018 0.9018 0.9018
3777.000000 0.9019 0.9019 0.9019 0.9019 0.9019
3782.000000 0.9019 0.9020 0.9020 0.9020 0.9020
3787.000000 0.9020 0.9021 0.9021 0.9021 0.9022
3792.000000 0.9022 0.9022 0.9022 0.9022 0.9022
3797.000000 0.9022 0.9022 0.9022 0.9021 0.9021
3802.000000 0.9021 0.9021 0.9021 0.9021 0.9020
3807.000000 0.9020 0.9020 0.9020 0.9020 0.9019
3812.000000 0.9019 0.9019 0.9019 0.9019 0.9019
3817.000000 0.9018 0.9018 0.9018 0.9018 0.9018
3822.000000 0.9018 0.9017 0.9017 0.9017 0.9017
3827.000000 0.9017 0.9017 0.9016 0.9016 0.9016
3832.000000 0.9016 0.9016 0.9016 0.9015 0.9015
3837.000000 0.9015 0.9015 0.9015 0.9015 0.9015
3842.000000 0.9015 0.9015 0.9015 0.9015 0.9015
3847.000000 0.9015 0.9015 0.9015 0.9015 0.9015
3852.000000 0.9015 0.9014 0.9014 0.9014 0.9014
3857.000000 0.9014 0.9014 0.9014 0.9014 0.9014
3862.000000 0.9014 0.9014 0.9013 0.9013 0.9013
3867.000000 0.9013 0.9013 0.9013 0.9013 0.9013
3872.000000 0.9013 0.9013 0.9013 0.9013 0.9013
3877.000000 0.9013 0.9013 0.9013 0.9013 0.9013
3882.000000 0.9012 0.9012 0.9012 0.9012 0.9012
3887.000000 0.9012 0.9012 0.9012 0.9012 0.9012
3892.000000 0.9012 0.9012 0.9012 0.9012 0.9012
3897.000000 0.9012 0.9012 0.9012 0.9012 0.9012
3902.000000 0.9012 0.9012 0.9012 0.9012 0.9012
3907.000000 0.9011 0.9011 0.9011 0.9011 0.9011
3912.000000 0.9011 0.9011 0.9011 0.9011 0.9011
3917.000000 0.9011 0.9011 0.9011 0.9011 0.9011
3922.000000 0.9011 0.9011 0.9011 0.9010 0.9010
3927.000000 0.9010 0.9010 0.9010 0.9010 0.9010
3932.000000 0.9010 0.9010 0.9010 0.9010 0.9010
3937.000000 0.9010 0.9009 0.9009 0.9009 0.9009
3942.000000 0.9009 0.9009 0.9008 0.9008 0.9008
3947.000000 0.9008 0.9008 0.9008 0.9007 0.9007
3952.000000 0.9007 0.9007 0.9007 0.9007 0.9006
3957.000000 0.9006 0.9006 0.9006 0.9006 0.9006
3962.000000 0.9005 0.9005 0.9005 0.9005 0.9005
3967.000000 0.9005 0.9005 0.9004 0.9004 0.9004
3972.000000 0.9004 0.9004 0.9004 0.9003 0.9003
3977.000000 0.9003 0.9003 0.9003 0.9003 0.9002
3982.000000 0.9002 0.9002 0.9002 0.9002 0.9002
3987.000000 0.9002 0.9001 0.9001 0.9001 0.9001
3992.000000 0.9001 0.9001 0.9000 0.9000 0.9000
3997.000000 0.9000 0.9000 0.9000 0.9000
##END=
