##TITLE=Pyridine, 3,4-dimethyl-
##JCAMP-DX=4.24
$$ By DXEDIT 1.05 (RS McDonald)
##DATA TYPE=INFRARED SPECTRUM
##CLASS=COBLENTZ III
##ORIGIN=DOW CHEMICAL COMPANY
##OWNER=COPYRIGHT (C) 1988 by COBLENTZ SOCIETY INC.
Collection (C) 2018 copyright by the U.S. Secretary of Commerce
on behalf of the United States of America. All rights reserved.
##DATE=1961/12/05
##NAMES=3,4-dimethylpyridine
3,4-Lutidine
##CAS REGISTRY NO=583-58-4
##MOLFORM=C7 H9 N
##SOURCE REFERENCE=COBLENTZ NO. 9170
##$NIST SOURCE=COBLENTZ
##$NIST IMAGE=cob9170
##SPECTROMETER/DATA SYSTEM=DOW KBr FOREPRISM-GRATING
##INSTRUMENT PARAMETERS=BLAZED AT 3.5, 12.0, 20.0 MICRON AND CHANGED AT 5.0, 7.5, 14.9 MICRON
##STATE=SOLUTION (10% CCl4 FOR 3800-1330, 10% CS2 FOR 1330-450 CM^-^1)
$$ STRUCTURE VERIFIED BY SOLUTION SPECTRUM FROM ROY WARD, BRITISH PETROLEUM CHEMICALS INTERNATIONAL, LTD.
##PATH LENGTH=0.011 CM, 0.011 CM
$$SPECTRAL CONTAMINATION DUE TO CS2 AROUND 850, CCl4 AROUND 1550 CM^-^1 HAVE BEEN SUBTRACTED
$$SPECTRAL CONTAMINATION DUE TO H2O AROUND 3400 CM^-^1
$$ SEE SPECTRUM NO. 1860 FOR "PRISM" RUN
##SAMPLING PROCEDURE=TRANSMISSION
##RESOLUTION=2
##DATA PROCESSING=DIGITIZED BY COBLENTZ SOCIETY (BATCH I) FROM HARD COPY
##XUNITS=1/CM
##YUNITS=TRANSMITTANCE
##XFACTOR=1
##YFACTOR=1
##DELTAX=1
##FIRSTX=3800
##LASTX=450
##FIRSTY=0.9358
##MAXX=3800
##MINX=450
##MAXY=0.988
##MINY=0.051
##NPOINTS=3351
##XYDATA=(X++(Y..Y))
3800.000000 0.9358 0.9358 0.9358 0.9360 0.9369
3795.000000 0.9358 0.9370 0.9369 0.9369 0.9368
3790.000000 0.9367 0.9366 0.9365 0.9364 0.9363
3785.000000 0.9361 0.9349 0.9339 0.9337 0.9348
3780.000000 0.9351 0.9337 0.9347 0.9348 0.9347
3775.000000 0.9329 0.9344 0.9342 0.9340 0.9337
3770.000000 0.9336 0.9334 0.9342 0.9330 0.9328
3765.000000 0.9325 0.9325 0.9324 0.9324 0.9323
3760.000000 0.9329 0.9328 0.9320 0.9319 0.9317
3755.000000 0.9317 0.9317 0.9319 0.9322 0.9328
3750.000000 0.9333 0.9346 0.9359 0.9377 0.9396
3745.000000 0.9412 0.9428 0.9444 0.9461 0.9464
3740.000000 0.9467 0.9461 0.9464 0.9449 0.9435
3735.000000 0.9419 0.9396 0.9373 0.9370 0.9371
3730.000000 0.9366 0.9366 0.9365 0.9365 0.9365
3725.000000 0.9367 0.9369 0.9370 0.9372 0.9363
3720.000000 0.9356 0.9327 0.9318 0.9328 0.9324
3715.000000 0.9321 0.9318 0.9316 0.9319 0.9323
3710.000000 0.9317 0.9325 0.9324 0.9323 0.9322
3705.000000 0.9320 0.9319 0.9316 0.9314 0.9311
3700.000000 0.9306 0.9303 0.9299 0.9296 0.9279
3695.000000 0.9272 0.9268 0.9260 0.9252 0.9243
3690.000000 0.9234 0.9215 0.9198 0.9152 0.9099
3685.000000 0.8958 0.8817 0.8659 0.8501 0.8416
3680.000000 0.8322 0.8332 0.8332 0.8335 0.8338
3675.000000 0.8381 0.8426 0.8477 0.8528 0.8581
3670.000000 0.8648 0.8684 0.8730 0.8775 0.8820
3665.000000 0.8862 0.8905 0.8947 0.8989 0.9014
3660.000000 0.9041 0.9061 0.9084 0.9105 0.9127
3655.000000 0.9148 0.9169 0.9189 0.9210 0.9230
3650.000000 0.9250 0.9268 0.9288 0.9307 0.9326
3645.000000 0.9323 0.9322 0.9309 0.9298 0.9292
3640.000000 0.9287 0.9285 0.9284 0.9282 0.9281
3635.000000 0.9281 0.9281 0.9286 0.9302 0.9304
3630.000000 0.9302 0.9300 0.9314 0.9324 0.9325
3625.000000 0.9320 0.9314 0.9311 0.9308 0.9305
3620.000000 0.9303 0.9301 0.9300 0.9299 0.9299
3615.000000 0.9297 0.9297 0.9296 0.9295 0.9294
3610.000000 0.9294 0.9292 0.9278 0.9291 0.9289
3605.000000 0.9288 0.9286 0.9281 0.9274 0.9281
3600.000000 0.9275 0.9262 0.9270 0.9276 0.9275
3595.000000 0.9273 0.9271 0.9269 0.9267 0.9265
3590.000000 0.9263 0.9260 0.9258 0.9255 0.9253
3585.000000 0.9240 0.9229 0.9208 0.9187 0.9169
3580.000000 0.9152 0.9148 0.9148 0.9148 0.9147
3575.000000 0.9145 0.9161 0.9165 0.9164 0.9159
3570.000000 0.9163 0.9167 0.9172 0.9173 0.9175
3565.000000 0.9175 0.9175 0.9172 0.9169 0.9166
3560.000000 0.9164 0.9160 0.9159 0.9156 0.9154
3555.000000 0.9165 0.9148 0.9147 0.9159 0.9156
3550.000000 0.9148 0.9138 0.9147 0.9144 0.9142
3545.000000 0.9132 0.9127 0.9132 0.9130 0.9127
3540.000000 0.9115 0.9116 0.9108 0.9111 0.9113
3535.000000 0.9110 0.9107 0.9103 0.9099 0.9095
3530.000000 0.9092 0.9073 0.9070 0.9066 0.9062
3525.000000 0.9059 0.9054 0.9051 0.9048 0.9044
3520.000000 0.9041 0.9036 0.9033 0.9029 0.9026
3515.000000 0.9022 0.9019 0.9013 0.9008 0.9002
3510.000000 0.8999 0.8993 0.8989 0.8984 0.8980
3505.000000 0.8974 0.8969 0.8964 0.8960 0.8953
3500.000000 0.8949 0.8946 0.8942 0.8936 0.8932
3495.000000 0.8927 0.8923 0.8917 0.8913 0.8909
3490.000000 0.8904 0.8901 0.8896 0.8892 0.8889
3485.000000 0.8885 0.8881 0.8876 0.8872 0.8868
3480.000000 0.8864 0.8859 0.8855 0.8851 0.8848
3475.000000 0.8844 0.8840 0.8837 0.8835 0.8832
3470.000000 0.8830 0.8827 0.8824 0.8820 0.8818
3465.000000 0.8815 0.8813 0.8810 0.8807 0.8804
3460.000000 0.8801 0.8798 0.8795 0.8793 0.8791
3455.000000 0.8788 0.8786 0.8782 0.8780 0.8778
3450.000000 0.8776 0.8773 0.8771 0.8768 0.8765
3445.000000 0.8763 0.8761 0.8759 0.8757 0.8754
3440.000000 0.8752 0.8750 0.8748 0.8745 0.8742
3435.000000 0.8741 0.8738 0.8735 0.8732 0.8727
3430.000000 0.8724 0.8720 0.8717 0.8713 0.8710
3425.000000 0.8693 0.8701 0.8698 0.8695 0.8690
3420.000000 0.8685 0.8682 0.8678 0.8674 0.8670
3415.000000 0.8665 0.8662 0.8658 0.8654 0.8649
3410.000000 0.8645 0.8640 0.8636 0.8637 0.8633
3405.000000 0.8622 0.8618 0.8613 0.8607 0.8602
3400.000000 0.8597 0.8592 0.8585 0.8580 0.8576
3395.000000 0.8569 0.8563 0.8556 0.8549 0.8542
3390.000000 0.8535 0.8527 0.8521 0.8516 0.8509
3385.000000 0.8502 0.8496 0.8492 0.8487 0.8484
3380.000000 0.8480 0.8476 0.8473 0.8473 0.8473
3375.000000 0.8475 0.8478 0.8479 0.8482 0.8486
3370.000000 0.8502 0.8493 0.8495 0.8498 0.8501
3365.000000 0.8503 0.8506 0.8508 0.8511 0.8513
3360.000000 0.8516 0.8520 0.8523 0.8524 0.8527
3355.000000 0.8530 0.8532 0.8536 0.8539 0.8542
3350.000000 0.8545 0.8547 0.8550 0.8553 0.8556
3345.000000 0.8570 0.8576 0.8566 0.8581 0.8569
3340.000000 0.8573 0.8575 0.8592 0.8595 0.8596
3335.000000 0.8586 0.8590 0.8593 0.8597 0.8601
3330.000000 0.8605 0.8608 0.8613 0.8616 0.8620
3325.000000 0.8623 0.8627 0.8631 0.8636 0.8639
3320.000000 0.8643 0.8646 0.8650 0.8653 0.8658
3315.000000 0.8661 0.8665 0.8670 0.8690 0.8696
3310.000000 0.8702 0.8708 0.8712 0.8708 0.8726
3305.000000 0.8731 0.8733 0.8729 0.8735 0.8740
3300.000000 0.8747 0.8753 0.8759 0.8764 0.8771
3295.000000 0.8776 0.8782 0.8789 0.8796 0.8803
3290.000000 0.8811 0.8818 0.8825 0.8833 0.8840
3285.000000 0.8847 0.8855 0.8877 0.8883 0.8877
3280.000000 0.8887 0.8905 0.8909 0.8905 0.8917
3275.000000 0.8934 0.8941 0.8947 0.8955 0.8961
3270.000000 0.8968 0.8975 0.8982 0.8988 0.8996
3265.000000 0.9000 0.9005 0.9010 0.9016 0.9020
3260.000000 0.9025 0.9030 0.9036 0.9038 0.9029
3255.000000 0.9046 0.9049 0.9052 0.9055 0.9055
3250.000000 0.9056 0.9057 0.9059 0.9052 0.9047
3245.000000 0.9033 0.9028 0.9030 0.9025 0.9017
3240.000000 0.9013 0.9007 0.9002 0.8995 0.8990
3235.000000 0.8984 0.8978 0.8972 0.8965 0.8957
3230.000000 0.8951 0.8944 0.8936 0.8927 0.8906
3225.000000 0.8900 0.8905 0.8897 0.8890 0.8881
3220.000000 0.8873 0.8865 0.8855 0.8847 0.8837
3215.000000 0.8827 0.8817 0.8807 0.8798 0.8790
3210.000000 0.8782 0.8777 0.8759 0.8752 0.8746
3205.000000 0.8741 0.8738 0.8735 0.8735 0.8735
3200.000000 0.8737 0.8747 0.8740 0.8748 0.8742
3195.000000 0.8760 0.8769 0.8776 0.8784 0.8792
3190.000000 0.8791 0.8799 0.8814 0.8820 0.8817
3185.000000 0.8820 0.8827 0.8829 0.8831 0.8833
3180.000000 0.8835 0.8836 0.8838 0.8839 0.8843
3175.000000 0.8844 0.8847 0.8847 0.8850 0.8852
3170.000000 0.8854 0.8855 0.8857 0.8859 0.8861
3165.000000 0.8862 0.8871 0.8882 0.8876 0.8878
3160.000000 0.8887 0.8888 0.8880 0.8887 0.8882
3155.000000 0.8879 0.8894 0.8897 0.8899 0.8900
3150.000000 0.8903 0.8903 0.8890 0.8891 0.8891
3145.000000 0.8893 0.8896 0.8896 0.8898 0.8903
3140.000000 0.8914 0.8916 0.8916 0.8916 0.8914
3135.000000 0.8913 0.8911 0.8909 0.8906 0.8903
3130.000000 0.8902 0.8899 0.8896 0.8889 0.8882
3125.000000 0.8875 0.8868 0.8861 0.8854 0.8843
3120.000000 0.8833 0.8822 0.8812 0.8798 0.8784
3115.000000 0.8768 0.8753 0.8739 0.8724 0.8703
3110.000000 0.8685 0.8651 0.8619 0.8536 0.8451
3105.000000 0.8373 0.8295 0.8241 0.8185 0.8148
3100.000000 0.8122 0.8076 0.8028 0.8035 0.8044
3095.000000 0.8059 0.8060 0.8063 0.8065 0.8056
3090.000000 0.8057 0.8046 0.8040 0.8044 0.8050
3085.000000 0.8031 0.8016 0.7998 0.7981 0.7947
3080.000000 0.7913 0.7801 0.7700 0.7622 0.7536
3075.000000 0.7291 0.7056 0.6973 0.6876 0.6711
3070.000000 0.6548 0.6375 0.6223 0.6050 0.5887
3065.000000 0.5725 0.5561 0.5534 0.5534 0.5548
3060.000000 0.5583 0.5669 0.5748 0.5822 0.5895
3055.000000 0.5979 0.6058 0.6117 0.6182 0.6204
3050.000000 0.6224 0.6230 0.6236 0.6241 0.6265
3045.000000 0.6254 0.6263 0.6260 0.6259 0.6240
3040.000000 0.6221 0.6107 0.5994 0.5845 0.5688
3035.000000 0.5533 0.5384 0.5227 0.5074 0.4928
3030.000000 0.4779 0.4743 0.4744 0.4741 0.4770
3025.000000 0.4839 0.4907 0.4943 0.4980 0.4977
3020.000000 0.4975 0.4755 0.4553 0.4527 0.4515
3015.000000 0.4528 0.4542 0.4659 0.4776 0.4893
3010.000000 0.5011 0.5128 0.5245 0.5354 0.5474
3005.000000 0.5564 0.5664 0.5641 0.5635 0.5632
3000.000000 0.5636 0.5336 0.5033 0.4716 0.4399
2995.000000 0.4082 0.3765 0.3646 0.3524 0.3522
2990.000000 0.3519 0.3519 0.3519 0.3548 0.3579
2985.000000 0.3636 0.3692 0.3723 0.3757 0.3770
2980.000000 0.3785 0.3799 0.3808 0.3821 0.3840
2975.000000 0.3916 0.3991 0.4080 0.4173 0.4264
2970.000000 0.4356 0.4453 0.4548 0.4639 0.4731
2965.000000 0.4802 0.4863 0.4869 0.4866 0.4763
2960.000000 0.4660 0.4507 0.4346 0.4178 0.4019
2955.000000 0.3872 0.3732 0.3736 0.3740 0.3838
2950.000000 0.3935 0.4034 0.4131 0.4226 0.4318
2945.000000 0.4416 0.4519 0.4615 0.4715 0.4809
2940.000000 0.5009 0.4960 0.5009 0.5015 0.5022
2935.000000 0.4784 0.4555 0.4316 0.4077 0.3836
2930.000000 0.3597 0.3573 0.3567 0.3642 0.3735
2925.000000 0.3999 0.4265 0.4529 0.4792 0.5051
2920.000000 0.5315 0.5541 0.5767 0.5913 0.6060
2915.000000 0.6199 0.6339 0.6408 0.6478 0.6533
2910.000000 0.6589 0.6632 0.6686 0.6715 0.6732
2905.000000 0.6751 0.6770 0.6783 0.6834 0.6810
2900.000000 0.6825 0.6833 0.6844 0.6851 0.6852
2895.000000 0.6852 0.6847 0.6836 0.6825 0.6712
2890.000000 0.6598 0.6550 0.6502 0.6476 0.6449
2885.000000 0.6427 0.6406 0.6392 0.6379 0.6368
2880.000000 0.6358 0.6349 0.6343 0.6328 0.6305
2875.000000 0.6331 0.6329 0.6328 0.6328 0.6346
2870.000000 0.6364 0.6420 0.6476 0.6529 0.6583
2865.000000 0.6631 0.6679 0.6721 0.6762 0.6810
2860.000000 0.6859 0.6954 0.7050 0.7103 0.7157
2855.000000 0.7213 0.7259 0.7325 0.7393 0.7482
2850.000000 0.7572 0.7660 0.7749 0.7839 0.7940
2845.000000 0.8029 0.8115 0.8197 0.8296 0.8385
2840.000000 0.8468 0.8517 0.8578 0.8604 0.8620
2835.000000 0.8636 0.8661 0.8682 0.8704 0.8726
2830.000000 0.8748 0.8782 0.8795 0.8827 0.8850
2825.000000 0.8853 0.8869 0.8899 0.8902 0.8932
2820.000000 0.8948 0.8960 0.8963 0.8975 0.8985
2815.000000 0.8998 0.9010 0.9022 0.9034 0.9045
2810.000000 0.9057 0.9066 0.9086 0.9101 0.9110
2805.000000 0.9119 0.9127 0.9136 0.9144 0.9151
2800.000000 0.9159 0.9163 0.9170 0.9176 0.9182
2795.000000 0.9187 0.9192 0.9196 0.9197 0.9190
2790.000000 0.9203 0.9195 0.9198 0.9200 0.9192
2785.000000 0.9213 0.9225 0.9219 0.9215 0.9226
2780.000000 0.9235 0.9237 0.9240 0.9241 0.9242
2775.000000 0.9242 0.9242 0.9240 0.9238 0.9226
2770.000000 0.9215 0.9204 0.9193 0.9184 0.9174
2765.000000 0.9168 0.9161 0.9160 0.9158 0.9160
2760.000000 0.9165 0.9174 0.9185 0.9201 0.9218
2755.000000 0.9232 0.9247 0.9250 0.9254 0.9256
2750.000000 0.9258 0.9252 0.9247 0.9223 0.9200
2745.000000 0.9139 0.9079 0.9015 0.8951 0.8921
2740.000000 0.8891 0.8879 0.8867 0.8863 0.8863
2735.000000 0.8862 0.8865 0.8871 0.8877 0.8901
2730.000000 0.8925 0.8954 0.8983 0.9017 0.9051
2725.000000 0.9080 0.9108 0.9133 0.9158 0.9183
2720.000000 0.9207 0.9227 0.9247 0.9265 0.9284
2715.000000 0.9302 0.9320 0.9326 0.9333 0.9329
2710.000000 0.9325 0.9320 0.9318 0.9315 0.9312
2705.000000 0.9313 0.9313 0.9313 0.9315 0.9316
2700.000000 0.9316 0.9316 0.9318 0.9319 0.9320
2695.000000 0.9320 0.9320 0.9322 0.9323 0.9323
2690.000000 0.9326 0.9327 0.9328 0.9329 0.9331
2685.000000 0.9332 0.9333 0.9334 0.9335 0.9337
2680.000000 0.9339 0.9340 0.9341 0.9342 0.9344
2675.000000 0.9344 0.9345 0.9346 0.9347 0.9347
2670.000000 0.9348 0.9348 0.9348 0.9348 0.9347
2665.000000 0.9347 0.9348 0.9350 0.9353 0.9355
2660.000000 0.9358 0.9360 0.9365 0.9381 0.9384
2655.000000 0.9386 0.9388 0.9391 0.9393 0.9388
2650.000000 0.9377 0.9377 0.9383 0.9391 0.9390
2645.000000 0.9379 0.9372 0.9372 0.9382 0.9374
2640.000000 0.9368 0.9367 0.9364 0.9362 0.9360
2635.000000 0.9357 0.9371 0.9368 0.9364 0.9344
2630.000000 0.9342 0.9352 0.9348 0.9341 0.9335
2625.000000 0.9327 0.9322 0.9315 0.9307 0.9300
2620.000000 0.9292 0.9285 0.9281 0.9278 0.9278
2615.000000 0.9288 0.9300 0.9309 0.9319 0.9327
2610.000000 0.9338 0.9346 0.9355 0.9360 0.9365
2605.000000 0.9370 0.9376 0.9380 0.9386 0.9390
2600.000000 0.9397 0.9400 0.9403 0.9405 0.9408
2595.000000 0.9412 0.9415 0.9417 0.9420 0.9422
2590.000000 0.9424 0.9425 0.9427 0.9429 0.9431
2585.000000 0.9433 0.9436 0.9436 0.9436 0.9435
2580.000000 0.9432 0.9431 0.9429 0.9427 0.9426
2575.000000 0.9424 0.9422 0.9420 0.9419 0.9416
2570.000000 0.9414 0.9412 0.9410 0.9407 0.9405
2565.000000 0.9403 0.9400 0.9398 0.9397 0.9396
2560.000000 0.9395 0.9394 0.9394 0.9393 0.9393
2555.000000 0.9392 0.9390 0.9390 0.9390 0.9390
2550.000000 0.9390 0.9393 0.9395 0.9396 0.9398
2545.000000 0.9399 0.9401 0.9402 0.9404 0.9405
2540.000000 0.9408 0.9409 0.9411 0.9412 0.9413
2535.000000 0.9414 0.9416 0.9417 0.9418 0.9418
2530.000000 0.9418 0.9417 0.9417 0.9417 0.9417
2525.000000 0.9417 0.9417 0.9417 0.9417 0.9417
2520.000000 0.9417 0.9417 0.9417 0.9416 0.9416
2515.000000 0.9416 0.9416 0.9416 0.9416 0.9414
2510.000000 0.9414 0.9413 0.9412 0.9410 0.9409
2505.000000 0.9408 0.9407 0.9403 0.9400 0.9395
2500.000000 0.9392 0.9385 0.9378 0.9366 0.9353
2495.000000 0.9338 0.9323 0.9300 0.9278 0.9249
2490.000000 0.9220 0.9190 0.9159 0.9132 0.9105
2485.000000 0.9082 0.9060 0.9041 0.9023 0.9015
2480.000000 0.8987 0.8995 0.8984 0.8998 0.9012
2475.000000 0.9037 0.9062 0.9076 0.9091 0.9105
2470.000000 0.9120 0.9132 0.9148 0.9159 0.9170
2465.000000 0.9181 0.9193 0.9203 0.9214 0.9224
2460.000000 0.9235 0.9246 0.9249 0.9257 0.9264
2455.000000 0.9266 0.9274 0.9292 0.9306 0.9312
2450.000000 0.9307 0.9324 0.9334 0.9341 0.9347
2445.000000 0.9353 0.9360 0.9363 0.9367 0.9367
2440.000000 0.9367 0.9367 0.9367 0.9364 0.9361
2435.000000 0.9357 0.9355 0.9351 0.9350 0.9347
2430.000000 0.9344 0.9344 0.9346 0.9348 0.9350
2425.000000 0.9351 0.9353 0.9355 0.9357 0.9361
2420.000000 0.9366 0.9370 0.9374 0.9378 0.9384
2415.000000 0.9386 0.9386 0.9387 0.9386 0.9384
2410.000000 0.9382 0.9386 0.9391 0.9384 0.9393
2405.000000 0.9391 0.9389 0.9387 0.9385 0.9381
2400.000000 0.9379 0.9377 0.9375 0.9373 0.9371
2395.000000 0.9369 0.9366 0.9366 0.9366 0.9366
2390.000000 0.9366 0.9382 0.9382 0.9386 0.9390
2385.000000 0.9397 0.9414 0.9419 0.9427 0.9446
2380.000000 0.9453 0.9467 0.9486 0.9502 0.9520
2375.000000 0.9527 0.9545 0.9560 0.9569 0.9578
2370.000000 0.9586 0.9583 0.9588 0.9597 0.9604
2365.000000 0.9614 0.9622 0.9631 0.9640 0.9648
2360.000000 0.9670 0.9676 0.9691 0.9694 0.9706
2355.000000 0.9702 0.9685 0.9657 0.9630 0.9599
2350.000000 0.9564 0.9544 0.9533 0.9524 0.9507
2345.000000 0.9489 0.9460 0.9449 0.9443 0.9442
2340.000000 0.9442 0.9431 0.9445 0.9458 0.9453
2335.000000 0.9462 0.9489 0.9499 0.9508 0.9519
2330.000000 0.9541 0.9544 0.9548 0.9556 0.9572
2325.000000 0.9582 0.9595 0.9596 0.9599 0.9600
2320.000000 0.9601 0.9604 0.9607 0.9611 0.9617
2315.000000 0.9617 0.9618 0.9606 0.9594 0.9575
2310.000000 0.9556 0.9544 0.9532 0.9523 0.9513
2305.000000 0.9505 0.9499 0.9501 0.9503 0.9505
2300.000000 0.9508 0.9516 0.9530 0.9533 0.9537
2295.000000 0.9541 0.9546 0.9551 0.9555 0.9559
2290.000000 0.9565 0.9569 0.9561 0.9560 0.9565
2285.000000 0.9570 0.9574 0.9562 0.9565 0.9569
2280.000000 0.9574 0.9577 0.9566 0.9569 0.9571
2275.000000 0.9560 0.9564 0.9568 0.9567 0.9559
2270.000000 0.9563 0.9559 0.9554 0.9557 0.9562
2265.000000 0.9555 0.9551 0.9555 0.9558 0.9549
2260.000000 0.9549 0.9551 0.9537 0.9535 0.9532
2255.000000 0.9530 0.9512 0.9509 0.9508 0.9503
2250.000000 0.9485 0.9481 0.9477 0.9477 0.9477
2245.000000 0.9471 0.9460 0.9461 0.9463 0.9464
2240.000000 0.9466 0.9467 0.9469 0.9469 0.9469
2235.000000 0.9458 0.9453 0.9452 0.9452 0.9450
2230.000000 0.9449 0.9445 0.9441 0.9437 0.9434
2225.000000 0.9431 0.9429 0.9425 0.9421 0.9405
2220.000000 0.9403 0.9403 0.9403 0.9403 0.9403
2215.000000 0.9404 0.9405 0.9408 0.9411 0.9414
2210.000000 0.9418 0.9421 0.9425 0.9428 0.9432
2205.000000 0.9436 0.9442 0.9446 0.9450 0.9455
2200.000000 0.9461 0.9465 0.9470 0.9476 0.9479
2195.000000 0.9472 0.9491 0.9492 0.9486 0.9490
2190.000000 0.9495 0.9499 0.9504 0.9507 0.9510
2185.000000 0.9513 0.9525 0.9524 0.9519 0.9520
2180.000000 0.9522 0.9524 0.9538 0.9543 0.9545
2175.000000 0.9546 0.9548 0.9548 0.9550 0.9551
2170.000000 0.9551 0.9548 0.9530 0.9518 0.9507
2165.000000 0.9493 0.9479 0.9474 0.9474 0.9474
2160.000000 0.9478 0.9484 0.9491 0.9496 0.9501
2155.000000 0.9505 0.9509 0.9511 0.9515 0.9516
2150.000000 0.9518 0.9519 0.9521 0.9517 0.9512
2145.000000 0.9506 0.9501 0.9489 0.9479 0.9473
2140.000000 0.9468 0.9470 0.9473 0.9477 0.9482
2135.000000 0.9486 0.9491 0.9495 0.9500 0.9504
2130.000000 0.9509 0.9514 0.9520 0.9524 0.9529
2125.000000 0.9536 0.9545 0.9556 0.9554 0.9577
2120.000000 0.9589 0.9600 0.9610 0.9620 0.9630
2115.000000 0.9637 0.9646 0.9642 0.9637 0.9617
2110.000000 0.9594 0.9579 0.9565 0.9545 0.9526
2105.000000 0.9508 0.9489 0.9477 0.9465 0.9464
2100.000000 0.9463 0.9462 0.9450 0.9453 0.9474
2095.000000 0.9484 0.9478 0.9498 0.9505 0.9509
2090.000000 0.9515 0.9520 0.9525 0.9529 0.9534
2085.000000 0.9538 0.9541 0.9541 0.9541 0.9540
2080.000000 0.9538 0.9530 0.9523 0.9518 0.9512
2075.000000 0.9510 0.9509 0.9508 0.9507 0.9508
2070.000000 0.9511 0.9513 0.9517 0.9520 0.9524
2065.000000 0.9527 0.9530 0.9530 0.9530 0.9529
2060.000000 0.9528 0.9517 0.9508 0.9503 0.9508
2055.000000 0.9501 0.9501 0.9500 0.9497 0.9504
2050.000000 0.9521 0.9525 0.9530 0.9543 0.9555
2045.000000 0.9567 0.9580 0.9592 0.9605 0.9610
2040.000000 0.9616 0.9621 0.9626 0.9623 0.9621
2035.000000 0.9613 0.9607 0.9590 0.9576 0.9562
2030.000000 0.9550 0.9540 0.9538 0.9536 0.9517
2025.000000 0.9516 0.9519 0.9513 0.9507 0.9500
2020.000000 0.9495 0.9490 0.9484 0.9483 0.9482
2015.000000 0.9482 0.9482 0.9482 0.9482 0.9483
2010.000000 0.9484 0.9485 0.9486 0.9486 0.9487
2005.000000 0.9487 0.9488 0.9491 0.9493 0.9496
2000.000000 0.9500 0.9506 0.9508 0.9506 0.9491
1995.000000 0.9472 0.9456 0.9453 0.9451 0.9441
1990.000000 0.9374 0.9245 0.9156 0.9156 0.9145
1985.000000 0.9147 0.9156 0.9166 0.9173 0.9180
1980.000000 0.9188 0.9191 0.9180 0.9186 0.9188
1975.000000 0.9193 0.9199 0.9208 0.9216 0.9227
1970.000000 0.9236 0.9243 0.9246 0.9248 0.9260
1965.000000 0.9261 0.9259 0.9274 0.9288 0.9356
1960.000000 0.9492 0.9570 0.9478 0.9333 0.9233
1955.000000 0.9245 0.9235 0.9233 0.9218 0.9202
1950.000000 0.9182 0.9152 0.9134 0.9115 0.9098
1945.000000 0.9082 0.9065 0.9050 0.9034 0.9017
1940.000000 0.9006 0.8997 0.8989 0.8986 0.8984
1935.000000 0.8975 0.8941 0.8882 0.8830 0.8777
1930.000000 0.8726 0.8675 0.8632 0.8596 0.8568
1925.000000 0.8541 0.8526 0.8522 0.8552 0.8621
1920.000000 0.8707 0.8795 0.8852 0.8904 0.8940
1915.000000 0.8968 0.8997 0.9024 0.9045 0.9062
1910.000000 0.9080 0.9097 0.9107 0.9126 0.9140
1905.000000 0.9146 0.9151 0.9196 0.9162 0.9167
1900.000000 0.9171 0.9172 0.9173 0.9172 0.9169
1895.000000 0.9159 0.9149 0.9130 0.9110 0.9083
1890.000000 0.9047 0.9012 0.8977 0.8935 0.8896
1885.000000 0.8862 0.8798 0.8826 0.8824 0.8838
1880.000000 0.8873 0.8911 0.8951 0.8990 0.9030
1875.000000 0.9084 0.9118 0.9149 0.9170 0.9187
1870.000000 0.9205 0.9222 0.9230 0.9237 0.9238
1865.000000 0.9238 0.9239 0.9240 0.9241 0.9241
1860.000000 0.9242 0.9242 0.9241 0.9249 0.9244
1855.000000 0.9235 0.9231 0.9228 0.9224 0.9217
1850.000000 0.9205 0.9191 0.9176 0.9156 0.9136
1845.000000 0.9116 0.9098 0.9080 0.9062 0.9049
1840.000000 0.9042 0.9028 0.9028 0.9026 0.9018
1835.000000 0.9009 0.9009 0.9009 0.9020 0.9034
1830.000000 0.9057 0.9080 0.9103 0.9120 0.9136
1825.000000 0.9153 0.9162 0.9171 0.9178 0.9188
1820.000000 0.9196 0.9219 0.9225 0.9232 0.9238
1815.000000 0.9243 0.9250 0.9256 0.9262 0.9266
1810.000000 0.9271 0.9268 0.9262 0.9265 0.9269
1805.000000 0.9274 0.9266 0.9259 0.9260 0.9260
1800.000000 0.9261 0.9261 0.9261 0.9261 0.9260
1795.000000 0.9257 0.9253 0.9243 0.9225 0.9196
1790.000000 0.9169 0.9148 0.9127 0.9106 0.9085
1785.000000 0.9066 0.9029 0.9037 0.9037 0.9042
1780.000000 0.9054 0.9064 0.9078 0.9089 0.9094
1775.000000 0.9104 0.9120 0.9137 0.9152 0.9169
1770.000000 0.9183 0.9197 0.9211 0.9226 0.9237
1765.000000 0.9249 0.9258 0.9264 0.9299 0.9276
1760.000000 0.9279 0.9281 0.9293 0.9285 0.9270
1755.000000 0.9254 0.9238 0.9221 0.9197 0.9172
1750.000000 0.9147 0.9118 0.9085 0.9051 0.9017
1745.000000 0.8990 0.8962 0.8935 0.8914 0.8899
1740.000000 0.8885 0.8871 0.8846 0.8860 0.8883
1735.000000 0.8915 0.8946 0.8976 0.9006 0.9036
1730.000000 0.9065 0.9092 0.9118 0.9144 0.9169
1725.000000 0.9196 0.9223 0.9249 0.9276 0.9303
1720.000000 0.9321 0.9337 0.9354 0.9368 0.9367
1715.000000 0.9368 0.9356 0.9346 0.9335 0.9328
1710.000000 0.9323 0.9318 0.9314 0.9311 0.9311
1705.000000 0.9313 0.9313 0.9315 0.9315 0.9317
1700.000000 0.9319 0.9321 0.9322 0.9325 0.9326
1695.000000 0.9327 0.9330 0.9331 0.9334 0.9337
1690.000000 0.9338 0.9341 0.9342 0.9342 0.9342
1685.000000 0.9342 0.9343 0.9343 0.9333 0.9314
1680.000000 0.9294 0.9272 0.9268 0.9269 0.9268
1675.000000 0.9268 0.9269 0.9274 0.9283 0.9282
1670.000000 0.9281 0.9279 0.9277 0.9270 0.9263
1665.000000 0.9258 0.9254 0.9249 0.9245 0.9244
1660.000000 0.9256 0.9242 0.9239 0.9252 0.9252
1655.000000 0.9252 0.9252 0.9251 0.9224 0.9208
1650.000000 0.9172 0.9106 0.9045 0.8946 0.8843
1645.000000 0.8768 0.8634 0.8354 0.8296 0.8243
1640.000000 0.8185 0.8153 0.8134 0.8108 0.8102
1635.000000 0.8094 0.8083 0.8087 0.8082 0.8088
1630.000000 0.8087 0.8101 0.8101 0.8116 0.8116
1625.000000 0.8111 0.8132 0.8147 0.8171 0.8162
1620.000000 0.8141 0.8118 0.8094 0.8053 0.7985
1615.000000 0.7919 0.7852 0.7777 0.7688 0.7604
1610.000000 0.7398 0.6964 0.6404 0.5505 0.5377
1605.000000 0.4513 0.3633 0.3132 0.2630 0.2108
1600.000000 0.1593 0.1064 0.0715 0.0739 0.0744
1595.000000 0.0748 0.0811 0.0993 0.1394 0.1808
1590.000000 0.2223 0.2652 0.3086 0.3516 0.3955
1585.000000 0.4394 0.4843 0.5302 0.5734 0.6178
1580.000000 0.6333 0.6410 0.6454 0.6510 0.6546
1575.000000 0.6570 0.6608 0.6629 0.6648 0.6682
1570.000000 0.6675 0.6666 0.6585 0.6388 0.6194
1565.000000 0.6012 0.5830 0.5641 0.5627 0.5698
1560.000000 0.5801 0.5910 0.6027 0.6128 0.6237
1555.000000 0.6387 0.6530 0.6666 0.6830 0.6998
1550.000000 0.7133 0.7237 0.7342 0.7442 0.7549
1545.000000 0.7644 0.7739 0.7833 0.7913 0.7962
1540.000000 0.8005 0.8031 0.8056 0.8044 0.8081
1535.000000 0.8145 0.8179 0.8207 0.8241 0.8276
1530.000000 0.8317 0.8375 0.8424 0.8468 0.8481
1525.000000 0.8489 0.8510 0.8520 0.8525 0.8495
1520.000000 0.8482 0.8467 0.8438 0.8424 0.8401
1515.000000 0.8364 0.8337 0.8301 0.8276 0.8228
1510.000000 0.8171 0.8119 0.8087 0.8016 0.7925
1505.000000 0.7654 0.7344 0.7067 0.6785 0.6475
1500.000000 0.5845 0.5151 0.4458 0.3781 0.2665
1495.000000 0.2650 0.2750 0.3185 0.3615 0.4044
1490.000000 0.4467 0.4890 0.5292 0.5369 0.5498
1485.000000 0.5742 0.5989 0.6248 0.6514 0.6776
1480.000000 0.7020 0.7241 0.7325 0.7327 0.7319
1475.000000 0.7301 0.7279 0.7246 0.7157 0.7029
1470.000000 0.6891 0.6697 0.6525 0.6411 0.6318
1465.000000 0.6251 0.6176 0.6104 0.5959 0.5640
1460.000000 0.5322 0.5001 0.4676 0.4358 0.4039
1455.000000 0.3718 0.3396 0.3080 0.2762 0.2444
1450.000000 0.2124 0.1926 0.1884 0.1883 0.1882
1445.000000 0.1883 0.1931 0.2049 0.2164 0.2276
1440.000000 0.2554 0.2903 0.3255 0.3605 0.3955
1435.000000 0.4305 0.4656 0.5007 0.5359 0.5717
1430.000000 0.6069 0.6419 0.6683 0.6804 0.6921
1425.000000 0.7028 0.7120 0.7135 0.7155 0.7173
1420.000000 0.7185 0.7197 0.7198 0.7198 0.7154
1415.000000 0.6980 0.6817 0.6665 0.6528 0.5556
1410.000000 0.3685 0.1814 0.1455 0.1449 0.1442
1405.000000 0.2166 0.2913 0.3661 0.4408 0.5157
1400.000000 0.5904 0.6653 0.7406 0.7716 0.7760
1395.000000 0.7768 0.7794 0.7795 0.7786 0.7699
1390.000000 0.6780 0.5861 0.4930 0.4010 0.3417
1385.000000 0.3412 0.3456 0.5335 0.6055 0.6773
1380.000000 0.7458 0.7451 0.7339 0.7186 0.7054
1375.000000 0.7046 0.7387 0.7783 0.8180 0.8339
1370.000000 0.8444 0.8549 0.8683 0.8818 0.8905
1365.000000 0.8986 0.9043 0.9087 0.9132 0.9156
1360.000000 0.9179 0.9195 0.9189 0.9183 0.9157
1355.000000 0.9144 0.9132 0.9120 0.9107 0.9095
1350.000000 0.9083 0.9072 0.9064 0.9051 0.9033
1345.000000 0.9018 0.9001 0.8979 0.8963 0.8957
1340.000000 0.8947 0.8940 0.8942 0.8948 0.8953
1335.000000 0.8959 0.8965 0.8970 0.8981 0.8993
1330.000000 0.9005 0.9001 0.9014 0.9024 0.9033
1325.000000 0.9030 0.9039 0.9038 0.9032 0.9035
1320.000000 0.9038 0.9041 0.9045 0.9053 0.9050
1315.000000 0.9038 0.9025 0.8995 0.8965 0.8926
1310.000000 0.8844 0.8636 0.8260 0.7883 0.7506
1305.000000 0.7285 0.7266 0.7301 0.7732 0.8166
1300.000000 0.8599 0.8744 0.8842 0.8923 0.9008
1295.000000 0.9076 0.9129 0.9183 0.9203 0.9213
1290.000000 0.9221 0.9239 0.9256 0.9269 0.9277
1285.000000 0.9284 0.9291 0.9298 0.9305 0.9311
1280.000000 0.9318 0.9325 0.9329 0.9329 0.9345
1275.000000 0.9347 0.9348 0.9348 0.9349 0.9350
1270.000000 0.9350 0.9349 0.9347 0.9347 0.9357
1265.000000 0.9354 0.9358 0.9365 0.9361 0.9356
1260.000000 0.9351 0.9345 0.9340 0.9336 0.9330
1255.000000 0.9326 0.9326 0.9312 0.9309 0.9309
1250.000000 0.9307 0.9302 0.9294 0.9244 0.9194
1245.000000 0.9143 0.9073 0.9016 0.8959 0.8904
1240.000000 0.8853 0.8852 0.8863 0.8863 0.8856
1235.000000 0.8840 0.8801 0.8758 0.8741 0.8723
1230.000000 0.8737 0.8749 0.8902 0.8968 0.9035
1225.000000 0.9088 0.9128 0.9170 0.9209 0.9243
1220.000000 0.9275 0.9305 0.9318 0.9333 0.9345
1215.000000 0.9355 0.9356 0.9353 0.9374 0.9374
1210.000000 0.9369 0.9362 0.9357 0.9352 0.9346
1205.000000 0.9332 0.9304 0.9275 0.9214 0.9142
1200.000000 0.9065 0.8853 0.7943 0.6703 0.5463
1195.000000 0.4223 0.2985 0.2544 0.2544 0.2543
1190.000000 0.2554 0.4200 0.6489 0.7862 0.8270
1185.000000 0.8629 0.8745 0.8803 0.8812 0.8827
1180.000000 0.8836 0.8845 0.8856 0.8864 0.8851
1175.000000 0.8789 0.8737 0.8727 0.8722 0.8800
1170.000000 0.8953 0.9102 0.9189 0.9271 0.9335
1165.000000 0.9375 0.9414 0.9440 0.9464 0.9483
1160.000000 0.9500 0.9517 0.9529 0.9537 0.9545
1155.000000 0.9554 0.9558 0.9558 0.9558 0.9548
1150.000000 0.9551 0.9553 0.9540 0.9523 0.9508
1145.000000 0.9488 0.9456 0.9398 0.9397 0.9390
1140.000000 0.9389 0.9406 0.9454 0.9514 0.9562
1135.000000 0.9624 0.9658 0.9668 0.9689 0.9713
1130.000000 0.9738 0.9755 0.9770 0.9794 0.9813
1125.000000 0.9821 0.9821 0.9821 0.9832 0.9840
1120.000000 0.9841 0.9842 0.9842 0.9843 0.9857
1115.000000 0.9858 0.9857 0.9851 0.9844 0.9825
1110.000000 0.9789 0.9755 0.9739 0.9745 0.9726
1105.000000 0.9725 0.9725 0.9725 0.9723 0.9718
1100.000000 0.9704 0.9683 0.9665 0.9659 0.9652
1095.000000 0.9646 0.9642 0.9640 0.9636 0.9633
1090.000000 0.9620 0.9605 0.9586 0.9566 0.9553
1085.000000 0.9539 0.9525 0.9503 0.9478 0.9443
1080.000000 0.9419 0.9361 0.9296 0.9192 0.9067
1075.000000 0.8936 0.8805 0.8608 0.8415 0.8109
1070.000000 0.7119 0.6177 0.5233 0.5172 0.5219
1065.000000 0.5770 0.6322 0.6874 0.7435 0.7990
1060.000000 0.8405 0.8657 0.8829 0.8915 0.8958
1055.000000 0.8996 0.9017 0.9037 0.9057 0.9063
1050.000000 0.9075 0.9074 0.9059 0.9004 0.8888
1045.000000 0.8725 0.8611 0.8583 0.8558 0.8555
1040.000000 0.8601 0.8696 0.8774 0.8805 0.8820
1035.000000 0.8831 0.8858 0.8840 0.8823 0.8795
1030.000000 0.8724 0.8631 0.8316 0.7994 0.7671
1025.000000 0.7339 0.7019 0.6699 0.6378 0.6058
1020.000000 0.5727 0.5743 0.5889 0.6193 0.6497
1015.000000 0.6801 0.7105 0.7408 0.7713 0.8017
1010.000000 0.8322 0.8482 0.8503 0.8505 0.8407
1005.000000 0.8238 0.8058 0.7891 0.7723 0.7557
1000.000000 0.7389 0.7329 0.7342 0.7437 0.7661
995.000000 0.7886 0.8111 0.8321 0.8408 0.8496
990.000000 0.8583 0.8653 0.8668 0.8679 0.8681
985.000000 0.8652 0.8575 0.8481 0.8460 0.8455
980.000000 0.8580 0.8711 0.8842 0.8908 0.8950
975.000000 0.8992 0.9034 0.9064 0.9084 0.9125
970.000000 0.9154 0.9182 0.9206 0.9224 0.9241
965.000000 0.9259 0.9271 0.9276 0.9278 0.9279
960.000000 0.9279 0.9279 0.9281 0.9285 0.9294
955.000000 0.9305 0.9319 0.9334 0.9350 0.9364
950.000000 0.9377 0.9387 0.9397 0.9406 0.9416
945.000000 0.9425 0.9435 0.9440 0.9445 0.9450
940.000000 0.9454 0.9458 0.9462 0.9467 0.9466
935.000000 0.9475 0.9479 0.9482 0.9482 0.9478
930.000000 0.9474 0.9464 0.9448 0.9416 0.9385
925.000000 0.9374 0.9368 0.9366 0.9363 0.9333
920.000000 0.9272 0.9206 0.9147 0.9058 0.9005
915.000000 0.8998 0.9008 0.9059 0.9120 0.9184
910.000000 0.9212 0.9238 0.9271 0.9297 0.9315
905.000000 0.9342 0.9362 0.9375 0.9399 0.9413
900.000000 0.9437 0.9446 0.9465 0.9486 0.9502
895.000000 0.9519 0.9550 0.9564 0.9591 0.9611
890.000000 0.9621 0.9635 0.9651 0.9647 0.9650
885.000000 0.9646 0.9654 0.9653 0.9641 0.9639
880.000000 0.9633 0.9617 0.9600 0.9583 0.9561
875.000000 0.9535 0.9509 0.9490 0.9476 0.9464
870.000000 0.9454 0.9446 0.9437 0.9446 0.9436
865.000000 0.9418 0.9417 0.9411 0.9392 0.9387
860.000000 0.9392 0.9382 0.9376 0.9360 0.9356
855.000000 0.9361 0.9347 0.9320 0.9285 0.9230
850.000000 0.9165 0.9071 0.8968 0.8827 0.8572
845.000000 0.8284 0.7990 0.7713 0.7442 0.6288
840.000000 0.4867 0.3474 0.3305 0.3524 0.4165
835.000000 0.4808 0.5453 0.6089 0.6730 0.7368
830.000000 0.7444 0.7447 0.6748 0.6103 0.5459
825.000000 0.4818 0.4180 0.3543 0.2904 0.2264
820.000000 0.1627 0.0529 0.0510 0.0686 0.1545
815.000000 0.2404 0.3261 0.4120 0.4988 0.5857
810.000000 0.6854 0.7032 0.8166 0.8361 0.8496
805.000000 0.8612 0.8706 0.8800 0.8895 0.8993
800.000000 0.9092 0.9156 0.9207 0.9258 0.9294
795.000000 0.9324 0.9341 0.9358 0.9378 0.9403
790.000000 0.9396 0.9401 0.9406 0.9408 0.9409
785.000000 0.9410 0.9409 0.9396 0.9388 0.9388
780.000000 0.9384 0.9393 0.9397 0.9404 0.9424
775.000000 0.9445 0.9475 0.9485 0.9486 0.9487
770.000000 0.9488 0.9478 0.9473 0.9472 0.9470
765.000000 0.9456 0.9452 0.9450 0.9447 0.9444
760.000000 0.9432 0.9416 0.9387 0.9346 0.9290
755.000000 0.9138 0.8582 0.8371 0.8372 0.8652
750.000000 0.8931 0.9142 0.9206 0.9229 0.9251
745.000000 0.9267 0.9283 0.9299 0.9315 0.9336
740.000000 0.9321 0.9321 0.9322 0.9318 0.9314
735.000000 0.9296 0.9265 0.9219 0.9125 0.8924
730.000000 0.8695 0.8575 0.7289 0.5824 0.4359
725.000000 0.2895 0.2668 0.2948 0.3944 0.4939
720.000000 0.5934 0.6920 0.7904 0.8672 0.8811
715.000000 0.8963 0.9084 0.9164 0.9212 0.9255
710.000000 0.9298 0.9319 0.9338 0.9357 0.9377
705.000000 0.9391 0.9400 0.9423 0.9430 0.9441
700.000000 0.9463 0.9470 0.9476 0.9483 0.9489
695.000000 0.9502 0.9518 0.9523 0.9529 0.9533
690.000000 0.9537 0.9542 0.9559 0.9568 0.9573
685.000000 0.9572 0.9572 0.9587 0.9589 0.9588
680.000000 0.9602 0.9597 0.9631 0.9650 0.9682
675.000000 0.9692 0.9674 0.9669 0.9653 0.9651
670.000000 0.9679 0.9799 0.9880 0.9778 0.9691
665.000000 0.9679 0.9616 0.9614 0.9610 0.9613
660.000000 0.9622 0.9580 0.9428 0.9276 0.9190
655.000000 0.9129 0.9140 0.9138 0.9154 0.9201
650.000000 0.9236 0.9272 0.9308 0.9337 0.9351
645.000000 0.9379 0.9400 0.9415 0.9443 0.9460
640.000000 0.9474 0.9497 0.9512 0.9528 0.9553
635.000000 0.9567 0.9563 0.9576 0.9588 0.9595
630.000000 0.9614 0.9630 0.9630 0.9643 0.9642
625.000000 0.9655 0.9666 0.9653 0.9658 0.9663
620.000000 0.9668 0.9675 0.9689 0.9687 0.9676
615.000000 0.9676 0.9671 0.9655 0.9646 0.9637
610.000000 0.9627 0.9617 0.9582 0.9535 0.9482
605.000000 0.9396 0.8966 0.8027 0.7740 0.7725
600.000000 0.7879 0.8379 0.8882 0.9274 0.9342
595.000000 0.9408 0.9465 0.9521 0.9567 0.9614
590.000000 0.9664 0.9681 0.9694 0.9685 0.9676
585.000000 0.9671 0.9655 0.9653 0.9653 0.9655
580.000000 0.9660 0.9665 0.9670 0.9662 0.9662
575.000000 0.9667 0.9686 0.9693 0.9694 0.9694
570.000000 0.9694 0.9696 0.9694 0.9678 0.9680
565.000000 0.9694 0.9691 0.9677 0.9677 0.9676
560.000000 0.9676 0.9676 0.9675 0.9673 0.9673
555.000000 0.9662 0.9653 0.9651 0.9633 0.9629
550.000000 0.9626 0.9617 0.9613 0.9612 0.9613
545.000000 0.9614 0.9581 0.9533 0.9508 0.9497
540.000000 0.9487 0.9483 0.9492 0.9475 0.9455
535.000000 0.9402 0.9317 0.9231 0.9098 0.8961
530.000000 0.8751 0.7838 0.6884 0.5929 0.4979
525.000000 0.4026 0.3257 0.3267 0.3425 0.5145
520.000000 0.6861 0.8294 0.8408 0.8499 0.8604
515.000000 0.8707 0.8767 0.8740 0.8064 0.7197
510.000000 0.6330 0.6170 0.6313 0.6821 0.7329
505.000000 0.7837 0.8345 0.8873 0.9050 0.9193
500.000000 0.9309 0.9360 0.9410 0.9427 0.9438
495.000000 0.9448 0.9459 0.9464 0.9467 0.9471
490.000000 0.9475 0.9479 0.9483 0.9487 0.9490
485.000000 0.9492 0.9493 0.9495 0.9498 0.9500
480.000000 0.9502 0.9504 0.9505 0.9506 0.9506
475.000000 0.9506 0.9505 0.9505 0.9504 0.9504
470.000000 0.9503 0.9503 0.9502 0.9501 0.9500
465.000000 0.9499 0.9498 0.9496 0.9495 0.9493
460.000000 0.9480 0.9487 0.9484 0.9480 0.9475
455.000000 0.9464 0.9453 0.9442 0.9434 0.9427
450.000000 0.9421
##END=
