##TITLE=THIAZIDE, HYDROCHLORO-
##JCAMP-DX=4.24
$$ By DXEDIT 1.05 (RS McDonald)
##DATA TYPE=INFRARED SPECTRUM
##CLASS=COBLENTZ III
##ORIGIN=BECKMAN INSTRUMENTS, KENNETH STINE
##OWNER=COBLENTZ SOC.
Collection (C) 2018 copyright by the U.S. Secretary of Commerce
on behalf of the United States of America. All rights reserved.
##DATE=1969/05/07
##NAMES=6-chloro-3,4-dihydro-2H-1,2,4-benzothiadiazine-7-sulfonamide 1,1-dioxide
6-CHLORO-3,4-DIHYDRO-7-SULFAMOYL-2H-1,2,4-BENZOTHIADIAZINE 1,1-DIOXIDE
##CAS REGISTRY NO=58-93-5
##MOLFORM=C7 H8 Cl N3 O4 S2
##SOURCE REFERENCE=COBLENTZ NO. 06021
##$NIST SOURCE=COBLENTZ
##$NIST IMAGE=cob6021
##SPECTROMETER/DATA SYSTEM=BECKMAN IR-12 (GRATING)
##INSTRUMENT PARAMETERS=FILTERS AT 303, 473, 790, 1036, 1880, 2930 CM^-^1. GRATING CHANGE: 300.5, 650.0, 2000.4 CM^-^1
##STATE=SOLID (1.5 mg / 350 mg KBr DISC) VS AIR
$$ SEE SPECTRUM NO 5069 FOR "PRISM" SPECTRUM
##SAMPLING PROCEDURE=TRANSMISSION
##RESOLUTION=2
##DATA PROCESSING=DIGITIZED BY COBLENTZ SOCIETY (BATCH I) FROM HARD COPY
##XUNITS=1/CM
##YUNITS=TRANSMITTANCE
##XLABEL=Wavenumbers (cm-1)
##YLABEL=Transmittance
##XFACTOR=1
##YFACTOR=1
##DELTAX=1
##FIRSTX=4000
##LASTX=237
##FIRSTY=0.7862
##MAXX=4000
##MINX=237
##MAXY=0.9352
##MINY=0.0465
##NPOINTS=3764
##XYDATA=(X++(Y..Y))
4000.000000 0.7862 0.7862 0.7862 0.7862 0.7864
3995.000000 0.7864 0.7865 0.7865 0.7865 0.7865
3990.000000 0.7865 0.7865 0.7867 0.7867 0.7868
3985.000000 0.7868 0.7868 0.7868 0.7868 0.7868
3980.000000 0.7869 0.7871 0.7871 0.7872 0.7874
3975.000000 0.7875 0.7875 0.7876 0.7878 0.7878
3970.000000 0.7880 0.7880 0.7881 0.7882 0.7883
3965.000000 0.7884 0.7885 0.7886 0.7887 0.7887
3960.000000 0.7888 0.7888 0.7889 0.7889 0.7890
3955.000000 0.7890 0.7891 0.7891 0.7892 0.7892
3950.000000 0.7893 0.7893 0.7894 0.7894 0.7895
3945.000000 0.7895 0.7896 0.7896 0.7897 0.7897
3940.000000 0.7898 0.7899 0.7900 0.7900 0.7901
3935.000000 0.7901 0.7901 0.7901 0.7901 0.7901
3930.000000 0.7903 0.7903 0.7903 0.7903 0.7904
3925.000000 0.7901 0.7898 0.7893 0.7889 0.7884
3920.000000 0.7880 0.7878 0.7875 0.7875 0.7875
3915.000000 0.7875 0.7875 0.7875 0.7875 0.7875
3910.000000 0.7875 0.7875 0.7875 0.7875 0.7875
3905.000000 0.7875 0.7875 0.7876 0.7878 0.7878
3900.000000 0.7880 0.7881 0.7883 0.7884 0.7885
3895.000000 0.7886 0.7888 0.7889 0.7891 0.7892
3890.000000 0.7893 0.7894 0.7896 0.7897 0.7898
3885.000000 0.7899 0.7901 0.7901 0.7903 0.7904
3880.000000 0.7906 0.7907 0.7908 0.7908 0.7911
3875.000000 0.7911 0.7912 0.7914 0.7915 0.7917
3870.000000 0.7918 0.7921 0.7922 0.7924 0.7925
3865.000000 0.7928 0.7930 0.7931 0.7933 0.7935
3860.000000 0.7937 0.7939 0.7941 0.7942 0.7944
3855.000000 0.7946 0.7948 0.7949 0.7951 0.7953
3850.000000 0.7955 0.7956 0.7958 0.7960 0.7961
3845.000000 0.7962 0.7965 0.7967 0.7968 0.7971
3840.000000 0.7972 0.7975 0.7976 0.7978 0.7981
3835.000000 0.7983 0.7985 0.7987 0.7989 0.7991
3830.000000 0.7994 0.7996 0.7998 0.8000 0.8001
3825.000000 0.8004 0.8006 0.8008 0.8010 0.8011
3820.000000 0.8014 0.8015 0.8018 0.8018 0.8018
3815.000000 0.8018 0.8018 0.8018 0.8018 0.8018
3810.000000 0.8018 0.8018 0.8018 0.8018 0.8018
3805.000000 0.8018 0.8018 0.8018 0.8018 0.8018
3800.000000 0.8018 0.8018 0.8018 0.8018 0.8018
3795.000000 0.8018 0.8018 0.8018 0.8018 0.8019
3790.000000 0.8021 0.8021 0.8022 0.8024 0.8025
3785.000000 0.8025 0.8026 0.8026 0.8028 0.8028
3780.000000 0.8030 0.8031 0.8032 0.8033 0.8034
3775.000000 0.8034 0.8035 0.8036 0.8037 0.8038
3770.000000 0.8039 0.8040 0.8041 0.8042 0.8043
3765.000000 0.8043 0.8044 0.8045 0.8046 0.8047
3760.000000 0.8048 0.8049 0.8050 0.8051 0.8053
3755.000000 0.8054 0.8056 0.8057 0.8058 0.8060
3750.000000 0.8061 0.8062 0.8065 0.8065 0.8068
3745.000000 0.8069 0.8071 0.8072 0.8075 0.8075
3740.000000 0.8078 0.8078 0.8081 0.8082 0.8084
3735.000000 0.8085 0.8087 0.8088 0.8090 0.8092
3730.000000 0.8094 0.8095 0.8097 0.8098 0.8100
3725.000000 0.8101 0.8103 0.8105 0.8107 0.8108
3720.000000 0.8111 0.8112 0.8115 0.8117 0.8118
3715.000000 0.8121 0.8122 0.8125 0.8126 0.8128
3710.000000 0.8131 0.8133 0.8135 0.8137 0.8139
3705.000000 0.8141 0.8143 0.8145 0.8175 0.8148
3700.000000 0.8150 0.8151 0.8151 0.8153 0.8154
3695.000000 0.8154 0.8154 0.8154 0.8153 0.8147
3690.000000 0.8142 0.8136 0.8131 0.8125 0.8119
3685.000000 0.8115 0.8110 0.8104 0.8098 0.8088
3680.000000 0.8078 0.8068 0.8058 0.8048 0.8038
3675.000000 0.8026 0.8017 0.8007 0.7997 0.7987
3670.000000 0.7976 0.7967 0.7957 0.7946 0.7936
3665.000000 0.7922 0.7911 0.7898 0.7886 0.7872
3660.000000 0.7861 0.7848 0.7836 0.7822 0.7811
3655.000000 0.7798 0.7786 0.7775 0.7764 0.7757
3650.000000 0.7750 0.7743 0.7737 0.7730 0.7724
3645.000000 0.7717 0.7710 0.7703 0.7697 0.7690
3640.000000 0.7683 0.7675 0.7669 0.7662 0.7657
3635.000000 0.7650 0.7643 0.7636 0.7630 0.7622
3630.000000 0.7615 0.7608 0.7603 0.7596 0.7590
3625.000000 0.7586 0.7583 0.7580 0.7576 0.7574
3620.000000 0.7571 0.7568 0.7565 0.7561 0.7558
3615.000000 0.7556 0.7553 0.7550 0.7547 0.7544
3610.000000 0.7541 0.7538 0.7535 0.7532 0.7528
3605.000000 0.7525 0.7522 0.7519 0.7517 0.7512
3600.000000 0.7510 0.7508 0.7507 0.7505 0.7504
3595.000000 0.7501 0.7501 0.7499 0.7498 0.7496
3590.000000 0.7494 0.7492 0.7491 0.7489 0.7488
3585.000000 0.7486 0.7485 0.7483 0.7482 0.7480
3580.000000 0.7478 0.7476 0.7475 0.7474 0.7471
3575.000000 0.7469 0.7468 0.7467 0.7465 0.7464
3570.000000 0.7462 0.7461 0.7460 0.7458 0.7457
3565.000000 0.7455 0.7454 0.7451 0.7450 0.7449
3560.000000 0.7448 0.7447 0.7446 0.7445 0.7444
3555.000000 0.7443 0.7442 0.7441 0.7440 0.7439
3550.000000 0.7438 0.7437 0.7436 0.7435 0.7434
3545.000000 0.7433 0.7432 0.7431 0.7430 0.7428
3540.000000 0.7428 0.7426 0.7425 0.7425 0.7424
3535.000000 0.7422 0.7421 0.7421 0.7419 0.7418
3530.000000 0.7418 0.7417 0.7415 0.7415 0.7414
3525.000000 0.7411 0.7411 0.7410 0.7408 0.7408
3520.000000 0.7407 0.7406 0.7405 0.7404 0.7403
3515.000000 0.7401 0.7401 0.7400 0.7399 0.7398
3510.000000 0.7397 0.7396 0.7395 0.7392 0.7390
3505.000000 0.7387 0.7385 0.7382 0.7378 0.7375
3500.000000 0.7374 0.7371 0.7368 0.7365 0.7362
3495.000000 0.7360 0.7357 0.7354 0.7351 0.7347
3490.000000 0.7342 0.7334 0.7325 0.7318 0.7311
3485.000000 0.7303 0.7295 0.7287 0.7278 0.7271
3480.000000 0.7262 0.7255 0.7248 0.7234 0.7221
3475.000000 0.7207 0.7194 0.7180 0.7167 0.7153
3470.000000 0.7140 0.7121 0.7105 0.7078 0.7051
3465.000000 0.7025 0.6998 0.6971 0.6945 0.6906
3460.000000 0.6868 0.6807 0.6746 0.6692 0.6638
3455.000000 0.6591 0.6544 0.6496 0.6449 0.6401
3450.000000 0.6354 0.6305 0.6257 0.6212 0.6168
3445.000000 0.6126 0.6084 0.6033 0.5982 0.5917
3440.000000 0.5853 0.5775 0.5698 0.5610 0.5525
3435.000000 0.5439 0.5353 0.5266 0.5180 0.5093
3430.000000 0.5007 0.4921 0.4835 0.4748 0.4662
3425.000000 0.4575 0.4489 0.4403 0.4317 0.4230
3420.000000 0.4144 0.4057 0.3971 0.3884 0.3799
3415.000000 0.3712 0.3626 0.3539 0.3453 0.3366
3410.000000 0.3280 0.3194 0.3108 0.3022 0.2935
3405.000000 0.2849 0.2763 0.2676 0.2590 0.2504
3400.000000 0.2418 0.2341 0.2264 0.2253 0.2242
3395.000000 0.2232 0.2222 0.2214 0.2206 0.2198
3390.000000 0.2190 0.2182 0.2175 0.2165 0.2155
3385.000000 0.2096 0.2037 0.1969 0.1900 0.1831
3380.000000 0.1762 0.1693 0.1625 0.1556 0.1487
3375.000000 0.1418 0.1349 0.1280 0.1212 0.1154
3370.000000 0.1096 0.1095 0.1092 0.1091 0.1109
3365.000000 0.1095 0.1101 0.1109 0.1117 0.1135
3360.000000 0.1154 0.1234 0.1314 0.1413 0.1512
3355.000000 0.1611 0.1710 0.1809 0.1908 0.2006
3350.000000 0.2105 0.2204 0.2303 0.2402 0.2501
3345.000000 0.2600 0.2699 0.2798 0.2897 0.2996
3340.000000 0.3095 0.3194 0.3293 0.3392 0.3491
3335.000000 0.3590 0.3689 0.3759 0.3830 0.3864
3330.000000 0.3898 0.3914 0.3930 0.3942 0.3954
3325.000000 0.3962 0.3972 0.3976 0.3996 0.3984
3320.000000 0.3988 0.3988 0.3988 0.3980 0.3974
3315.000000 0.3966 0.3959 0.3938 0.3916 0.3894
3310.000000 0.3873 0.3849 0.3826 0.3776 0.3727
3305.000000 0.3674 0.3621 0.3566 0.3514 0.3460
3300.000000 0.3408 0.3355 0.3302 0.3248 0.3195
3295.000000 0.3142 0.3089 0.3034 0.2982 0.2929
3290.000000 0.2876 0.2823 0.2770 0.2716 0.2663
3285.000000 0.2610 0.2557 0.2504 0.2451 0.2397
3280.000000 0.2344 0.2291 0.2238 0.2213 0.2188
3275.000000 0.2184 0.2201 0.2182 0.2183 0.2188
3270.000000 0.2193 0.2205 0.2218 0.2257 0.2297
3265.000000 0.2345 0.2394 0.2442 0.2490 0.2538
3260.000000 0.2585 0.2634 0.2682 0.2730 0.2778
3255.000000 0.2826 0.2875 0.2923 0.2971 0.3019
3250.000000 0.3067 0.3115 0.3163 0.3210 0.3259
3245.000000 0.3307 0.3356 0.3404 0.3452 0.3500
3240.000000 0.3548 0.3596 0.3644 0.3692 0.3740
3235.000000 0.3772 0.3805 0.3820 0.3834 0.3850
3230.000000 0.3864 0.3873 0.3882 0.3888 0.3894
3225.000000 0.3899 0.3905 0.3909 0.3916 0.3916
3220.000000 0.3925 0.3918 0.3918 0.3918 0.3918
3215.000000 0.3912 0.3906 0.3900 0.3894 0.3888
3210.000000 0.3882 0.3862 0.3843 0.3806 0.3768
3205.000000 0.3725 0.3682 0.3638 0.3594 0.3550
3200.000000 0.3507 0.3462 0.3418 0.3375 0.3332
3195.000000 0.3288 0.3245 0.3200 0.3157 0.3113
3190.000000 0.3070 0.3026 0.2982 0.2938 0.2895
3185.000000 0.2851 0.2808 0.2764 0.2720 0.2676
3180.000000 0.2633 0.2597 0.2557 0.2558 0.2554
3175.000000 0.2555 0.2556 0.2561 0.2566 0.2575
3170.000000 0.2584 0.2616 0.2647 0.2712 0.2778
3165.000000 0.2843 0.2908 0.2973 0.3039 0.3104
3160.000000 0.3169 0.3234 0.3300 0.3364 0.3430
3155.000000 0.3496 0.3560 0.3626 0.3692 0.3757
3150.000000 0.3823 0.3888 0.3953 0.4018 0.4084
3145.000000 0.4149 0.4214 0.4279 0.4345 0.4410
3140.000000 0.4476 0.4541 0.4606 0.4671 0.4737
3135.000000 0.4802 0.4867 0.4932 0.4998 0.5062
3130.000000 0.5129 0.5194 0.5259 0.5282 0.5306
3125.000000 0.5327 0.5348 0.5369 0.5391 0.5410
3120.000000 0.5431 0.5437 0.5443 0.5449 0.5456
3115.000000 0.5458 0.5458 0.5459 0.5458 0.5457
3110.000000 0.5456 0.5455 0.5454 0.5453 0.5452
3105.000000 0.5449 0.5447 0.5443 0.5440 0.5436
3100.000000 0.5433 0.5431 0.5430 0.5430 0.5432
3095.000000 0.5443 0.5454 0.5465 0.5477 0.5494
3090.000000 0.5512 0.5529 0.5547 0.5566 0.5585
3085.000000 0.5607 0.5630 0.5653 0.5676 0.5703
3080.000000 0.5730 0.5778 0.5826 0.5834 0.5843
3075.000000 0.5846 0.5850 0.5849 0.5848 0.5846
3070.000000 0.5844 0.5840 0.5839 0.5839 0.5841
3065.000000 0.5845 0.5849 0.5864 0.5880 0.5896
3060.000000 0.5912 0.5929 0.5945 0.5967 0.5989
3055.000000 0.6012 0.6035 0.6057 0.6080 0.6103
3050.000000 0.6126 0.6149 0.6172 0.6194 0.6216
3045.000000 0.6238 0.6260 0.6282 0.6304 0.6326
3040.000000 0.6348 0.6370 0.6392 0.6414 0.6436
3035.000000 0.6458 0.6480 0.6501 0.6525 0.6547
3030.000000 0.6569 0.6593 0.6615 0.6638 0.6661
3025.000000 0.6684 0.6707 0.6728 0.6751 0.6772
3020.000000 0.6794 0.6811 0.6828 0.6845 0.6862
3015.000000 0.6880 0.6897 0.6914 0.6931 0.6948
3010.000000 0.6965 0.6982 0.7000 0.7017 0.7034
3005.000000 0.7051 0.7068 0.7086 0.7104 0.7117
3000.000000 0.7131 0.7143 0.7155 0.7167 0.7178
2995.000000 0.7191 0.7204 0.7215 0.7228 0.7234
2990.000000 0.7240 0.7240 0.7241 0.7253 0.7258
2985.000000 0.7258 0.7257 0.7256 0.7254 0.7251
2980.000000 0.7248 0.7245 0.7243 0.7239 0.7235
2975.000000 0.7210 0.7185 0.7171 0.7157 0.7151
2970.000000 0.7148 0.7148 0.7148 0.7147 0.7147
2965.000000 0.7148 0.7150 0.7151 0.7154 0.7155
2960.000000 0.7156 0.7128 0.7101 0.7065 0.7028
2955.000000 0.6993 0.6958 0.6921 0.6886 0.6850
2950.000000 0.6814 0.6799 0.6784 0.6781 0.6780
2945.000000 0.6778 0.6780 0.6789 0.6799 0.6828
2940.000000 0.6858 0.6888 0.6918 0.6949 0.6981
2935.000000 0.7007 0.7033 0.7050 0.7068 0.7085
2930.000000 0.7103 0.7119 0.7138 0.7151 0.7165
2925.000000 0.7178 0.7192 0.7205 0.7218 0.7232
2920.000000 0.7246 0.7255 0.7265 0.7271 0.7278
2915.000000 0.7286 0.7293 0.7300 0.7307 0.7311
2910.000000 0.7315 0.7318 0.7321 0.7324 0.7325
2905.000000 0.7325 0.7324 0.7321 0.7321 0.7317
2900.000000 0.7317 0.7317 0.7319 0.7325 0.7332
2895.000000 0.7337 0.7343 0.7349 0.7356 0.7361
2890.000000 0.7368 0.7374 0.7380 0.7384 0.7389
2885.000000 0.7389 0.7390 0.7390 0.7391 0.7396
2880.000000 0.7401 0.7412 0.7425 0.7445 0.7464
2875.000000 0.7488 0.7512 0.7521 0.7531 0.7536
2870.000000 0.7542 0.7544 0.7547 0.7549 0.7551
2865.000000 0.7551 0.7551 0.7547 0.7557 0.7536
2860.000000 0.7528 0.7519 0.7511 0.7501 0.7492
2855.000000 0.7482 0.7471 0.7458 0.7447 0.7428
2850.000000 0.7410 0.7384 0.7358 0.7328 0.7298
2845.000000 0.7272 0.7248 0.7228 0.7208 0.7191
2840.000000 0.7174 0.7164 0.7155 0.7155 0.7155
2835.000000 0.7150 0.7149 0.7181 0.7214 0.7258
2830.000000 0.7304 0.7351 0.7400 0.7426 0.7455
2825.000000 0.7475 0.7497 0.7517 0.7538 0.7561
2820.000000 0.7585 0.7614 0.7644 0.7672 0.7703
2815.000000 0.7730 0.7758 0.7783 0.7808 0.7833
2810.000000 0.7858 0.7871 0.7885 0.7897 0.7908
2805.000000 0.7921 0.7933 0.7945 0.7958 0.7969
2800.000000 0.7982 0.7989 0.7996 0.8003 0.8011
2795.000000 0.8018 0.8025 0.8033 0.8040 0.8047
2790.000000 0.8055 0.8061 0.8067 0.8071 0.8075
2785.000000 0.8080 0.8085 0.8089 0.8094 0.8097
2780.000000 0.8101 0.8103 0.8105 0.8107 0.8108
2775.000000 0.8111 0.8114 0.8114 0.8115 0.8114
2770.000000 0.8111 0.8108 0.8106 0.8103 0.8101
2765.000000 0.8099 0.8097 0.8095 0.8094 0.8092
2760.000000 0.8091 0.8089 0.8088 0.8086 0.8085
2755.000000 0.8083 0.8082 0.8082 0.8082 0.8083
2750.000000 0.8084 0.8085 0.8087 0.8088 0.8090
2745.000000 0.8098 0.8107 0.8115 0.8125 0.8133
2740.000000 0.8142 0.8151 0.8162 0.8172 0.8183
2735.000000 0.8192 0.8201 0.8205 0.8210 0.8214
2730.000000 0.8218 0.8221 0.8227 0.8231 0.8235
2725.000000 0.8239 0.8244 0.8246 0.8249 0.8251
2720.000000 0.8254 0.8256 0.8259 0.8261 0.8264
2715.000000 0.8266 0.8268 0.8271 0.8274 0.8275
2710.000000 0.8278 0.8278 0.8281 0.8282 0.8284
2705.000000 0.8285 0.8287 0.8288 0.8289 0.8281
2700.000000 0.8273 0.8264 0.8256 0.8247 0.8239
2695.000000 0.8232 0.8225 0.8220 0.8215 0.8209
2690.000000 0.8204 0.8201 0.8200 0.8200 0.8203
2685.000000 0.8206 0.8209 0.8212 0.8215 0.8217
2680.000000 0.8220 0.8223 0.8225 0.8228 0.8231
2675.000000 0.8233 0.8235 0.8237 0.8239 0.8241
2670.000000 0.8244 0.8246 0.8248 0.8250 0.8252
2665.000000 0.8254 0.8256 0.8258 0.8260 0.8262
2660.000000 0.8265 0.8267 0.8268 0.8271 0.8273
2655.000000 0.8274 0.8275 0.8277 0.8278 0.8278
2650.000000 0.8278 0.8280 0.8281 0.8281 0.8282
2645.000000 0.8283 0.8284 0.8284 0.8285 0.8286
2640.000000 0.8287 0.8287 0.8288 0.8289 0.8290
2635.000000 0.8290 0.8291 0.8292 0.8293 0.8294
2630.000000 0.8295 0.8295 0.8295 0.8295 0.8295
2625.000000 0.8295 0.8295 0.8295 0.8296 0.8296
2620.000000 0.8296 0.8296 0.8296 0.8296 0.8296
2615.000000 0.8296 0.8296 0.8296 0.8297 0.8297
2610.000000 0.8297 0.8296 0.8296 0.8295 0.8295
2605.000000 0.8294 0.8294 0.8293 0.8293 0.8292
2600.000000 0.8292 0.8291 0.8291 0.8290 0.8289
2595.000000 0.8286 0.8283 0.8278 0.8275 0.8273
2590.000000 0.8270 0.8261 0.8253 0.8246 0.8240
2585.000000 0.8238 0.8236 0.8233 0.8231 0.8228
2580.000000 0.8228 0.8228 0.8230 0.8232 0.8234
2575.000000 0.8244 0.8255 0.8268 0.8282 0.8295
2570.000000 0.8309 0.8320 0.8332 0.8342 0.8352
2565.000000 0.8362 0.8373 0.8383 0.8393 0.8399
2560.000000 0.8405 0.8409 0.8414 0.8418 0.8423
2555.000000 0.8427 0.8431 0.8433 0.8435 0.8436
2550.000000 0.8438 0.8439 0.8441 0.8442 0.8443
2545.000000 0.8443 0.8444 0.8444 0.8445 0.8445
2540.000000 0.8446 0.8446 0.8447 0.8447 0.8448
2535.000000 0.8448 0.8449 0.8449 0.8450 0.8450
2530.000000 0.8451 0.8452 0.8453 0.8454 0.8455
2525.000000 0.8456 0.8458 0.8459 0.8460 0.8461
2520.000000 0.8462 0.8463 0.8465 0.8466 0.8467
2515.000000 0.8467 0.8468 0.8468 0.8470 0.8471
2510.000000 0.8471 0.8473 0.8474 0.8475 0.8475
2505.000000 0.8477 0.8478 0.8478 0.8480 0.8481
2500.000000 0.8482 0.8483 0.8484 0.8485 0.8486
2495.000000 0.8487 0.8489 0.8491 0.8493 0.8495
2490.000000 0.8498 0.8500 0.8503 0.8505 0.8508
2485.000000 0.8511 0.8515 0.8521 0.8527 0.8532
2480.000000 0.8538 0.8543 0.8549 0.8554 0.8559
2475.000000 0.8563 0.8567 0.8571 0.8575 0.8578
2470.000000 0.8583 0.8587 0.8591 0.8595 0.8600
2465.000000 0.8604 0.8608 0.8612 0.8616 0.8620
2460.000000 0.8624 0.8628 0.8632 0.8635 0.8638
2455.000000 0.8641 0.8644 0.8646 0.8649 0.8652
2450.000000 0.8655 0.8658 0.8661 0.8664 0.8667
2445.000000 0.8670 0.8673 0.8675 0.8678 0.8682
2440.000000 0.8685 0.8688 0.8691 0.8694 0.8697
2435.000000 0.8700 0.8703 0.8705 0.8708 0.8710
2430.000000 0.8713 0.8715 0.8718 0.8720 0.8721
2425.000000 0.8724 0.8727 0.8728 0.8732 0.8735
2420.000000 0.8738 0.8742 0.8746 0.8749 0.8753
2415.000000 0.8756 0.8760 0.8764 0.8768 0.8771
2410.000000 0.8775 0.8778 0.8783 0.8786 0.8790
2405.000000 0.8793 0.8797 0.8801 0.8805 0.8808
2400.000000 0.8812 0.8815 0.8818 0.8823 0.8827
2395.000000 0.8830 0.8834 0.8838 0.8843 0.8847
2390.000000 0.8852 0.8856 0.8861 0.8865 0.8870
2385.000000 0.8875 0.8880 0.8884 0.8889 0.8894
2380.000000 0.8899 0.8903 0.8908 0.8912 0.8917
2375.000000 0.8921 0.8927 0.8931 0.8936 0.8940
2370.000000 0.8945 0.8947 0.8949 0.8951 0.8954
2365.000000 0.8956 0.8958 0.8960 0.8962 0.8964
2360.000000 0.8966 0.8968 0.8971 0.8973 0.8975
2355.000000 0.8977 0.8978 0.8978 0.8980 0.8980
2350.000000 0.8981 0.8981 0.8982 0.8982 0.8982
2345.000000 0.8982 0.8983 0.8983 0.8984 0.8984
2340.000000 0.8984 0.8983 0.8983 0.8982 0.8981
2335.000000 0.8980 0.8978 0.8978 0.8977 0.8975
2330.000000 0.8975 0.8974 0.8973 0.8971 0.8971
2325.000000 0.8970 0.8968 0.8968 0.8967 0.8966
2320.000000 0.8965 0.8964 0.8963 0.8962 0.8961
2315.000000 0.8960 0.8959 0.8958 0.8957 0.8954
2310.000000 0.8951 0.8948 0.8946 0.8943 0.8940
2305.000000 0.8937 0.8934 0.8931 0.8928 0.8925
2300.000000 0.8921 0.8918 0.8917 0.8915 0.8914
2295.000000 0.8913 0.8912 0.8911 0.8911 0.8911
2290.000000 0.8911 0.8911 0.8911 0.8911 0.8912
2285.000000 0.8912 0.8912 0.8912 0.8913 0.8913
2280.000000 0.8914 0.8915 0.8917 0.8918 0.8920
2275.000000 0.8921 0.8921 0.8923 0.8925 0.8925
2270.000000 0.8928 0.8928 0.8930 0.8931 0.8933
2265.000000 0.8934 0.8936 0.8937 0.8938 0.8939
2260.000000 0.8941 0.8942 0.8943 0.8944 0.8946
2255.000000 0.8947 0.8949 0.8950 0.8952 0.8953
2250.000000 0.8954 0.8955 0.8957 0.8958 0.8960
2245.000000 0.8961 0.8962 0.8963 0.8965 0.8966
2240.000000 0.8968 0.8968 0.8970 0.8971 0.8973
2235.000000 0.8974 0.8975 0.8977 0.8978 0.8980
2230.000000 0.8981 0.8982 0.8984 0.8985 0.8987
2225.000000 0.8988 0.8989 0.8990 0.8992 0.8993
2220.000000 0.8995 0.8996 0.8997 0.8997 0.8998
2215.000000 0.8999 0.9000 0.9000 0.9001 0.9002
2210.000000 0.9003 0.9003 0.9004 0.9005 0.9006
2205.000000 0.9006 0.9007 0.9008 0.9009 0.9009
2200.000000 0.9010 0.9011 0.9012 0.9012 0.9013
2195.000000 0.9014 0.9015 0.9015 0.9016 0.9017
2190.000000 0.9018 0.9018 0.9018 0.9018 0.9020
2185.000000 0.9021 0.9021 0.9021 0.9023 0.9024
2180.000000 0.9025 0.9025 0.9025 0.9025 0.9027
2175.000000 0.9027 0.9028 0.9028 0.9030 0.9030
2170.000000 0.9031 0.9031 0.9032 0.9032 0.9033
2165.000000 0.9033 0.9034 0.9034 0.9035 0.9036
2160.000000 0.9037 0.9037 0.9038 0.9038 0.9039
2155.000000 0.9039 0.9040 0.9040 0.9041 0.9042
2150.000000 0.9043 0.9043 0.9044 0.9044 0.9045
2145.000000 0.9045 0.9046 0.9046 0.9047 0.9048
2140.000000 0.9049 0.9049 0.9050 0.9050 0.9051
2135.000000 0.9051 0.9052 0.9052 0.9053 0.9054
2130.000000 0.9055 0.9055 0.9056 0.9056 0.9057
2125.000000 0.9057 0.9058 0.9059 0.9060 0.9060
2120.000000 0.9061 0.9062 0.9063 0.9063 0.9064
2115.000000 0.9065 0.9066 0.9066 0.9067 0.9067
2110.000000 0.9068 0.9068 0.9070 0.9070 0.9071
2105.000000 0.9071 0.9073 0.9073 0.9074 0.9074
2100.000000 0.9075 0.9075 0.9077 0.9077 0.9078
2095.000000 0.9078 0.9080 0.9080 0.9081 0.9082
2090.000000 0.9083 0.9083 0.9084 0.9084 0.9085
2085.000000 0.9086 0.9087 0.9087 0.9088 0.9089
2080.000000 0.9090 0.9090 0.9091 0.9091 0.9092
2075.000000 0.9093 0.9094 0.9094 0.9095 0.9096
2070.000000 0.9097 0.9098 0.9099 0.9100 0.9101
2065.000000 0.9102 0.9103 0.9104 0.9106 0.9107
2060.000000 0.9108 0.9109 0.9110 0.9111 0.9112
2055.000000 0.9113 0.9114 0.9115 0.9116 0.9117
2050.000000 0.9118 0.9118 0.9120 0.9121 0.9123
2045.000000 0.9124 0.9125 0.9125 0.9127 0.9128
2040.000000 0.9128 0.9130 0.9131 0.9132 0.9133
2035.000000 0.9133 0.9134 0.9134 0.9135 0.9135
2030.000000 0.9136 0.9136 0.9137 0.9137 0.9138
2025.000000 0.9138 0.9139 0.9139 0.9140 0.9140
2020.000000 0.9141 0.9141 0.9142 0.9142 0.9143
2015.000000 0.9143 0.9144 0.9145 0.9146 0.9146
2010.000000 0.9147 0.9147 0.9148 0.9148 0.9149
2005.000000 0.9149 0.9149 0.9149 0.9149 0.9149
2000.000000 0.9149 0.9148 0.9148 0.9148 0.9148
1995.000000 0.9148 0.9148 0.9148 0.9148 0.9148
1990.000000 0.9148 0.9147 0.9147 0.9147 0.9147
1985.000000 0.9147 0.9147 0.9149 0.9150 0.9151
1980.000000 0.9152 0.9154 0.9155 0.9156 0.9158
1975.000000 0.9159 0.9160 0.9161 0.9163 0.9164
1970.000000 0.9165 0.9166 0.9168 0.9168 0.9170
1965.000000 0.9171 0.9173 0.9174 0.9175 0.9178
1960.000000 0.9180 0.9182 0.9184 0.9186 0.9188
1955.000000 0.9190 0.9192 0.9193 0.9195 0.9197
1950.000000 0.9199 0.9201 0.9203 0.9205 0.9207
1945.000000 0.9209 0.9211 0.9213 0.9215 0.9217
1940.000000 0.9218 0.9221 0.9224 0.9227 0.9228
1935.000000 0.9232 0.9234 0.9237 0.9239 0.9241
1930.000000 0.9244 0.9246 0.9249 0.9251 0.9254
1925.000000 0.9256 0.9259 0.9263 0.9268 0.9273
1920.000000 0.9278 0.9284 0.9289 0.9294 0.9299
1915.000000 0.9304 0.9310 0.9315 0.9320 0.9325
1910.000000 0.9330 0.9333 0.9337 0.9340 0.9344
1905.000000 0.9348 0.9351 0.9352 0.9349 0.9345
1900.000000 0.9342 0.9339 0.9335 0.9332 0.9328
1895.000000 0.9325 0.9324 0.9323 0.9321 0.9320
1890.000000 0.9318 0.9317 0.9315 0.9314 0.9312
1885.000000 0.9311 0.9309 0.9309 0.9308 0.9308
1880.000000 0.9307 0.9307 0.9306 0.9306 0.9305
1875.000000 0.9305 0.9304 0.9304 0.9303 0.9303
1870.000000 0.9302 0.9302 0.9302 0.9302 0.9302
1865.000000 0.9302 0.9301 0.9301 0.9301 0.9301
1860.000000 0.9301 0.9301 0.9301 0.9301 0.9301
1855.000000 0.9301 0.9302 0.9302 0.9303 0.9303
1850.000000 0.9304 0.9304 0.9305 0.9305 0.9306
1845.000000 0.9307 0.9308 0.9309 0.9310 0.9312
1840.000000 0.9313 0.9314 0.9315 0.9316 0.9316
1835.000000 0.9316 0.9316 0.9316 0.9321 0.9311
1830.000000 0.9307 0.9297 0.9287 0.9275 0.9260
1825.000000 0.9244 0.9228 0.9212 0.9194 0.9180
1820.000000 0.9170 0.9157 0.9144 0.9144 0.9144
1815.000000 0.9150 0.9157 0.9164 0.9171 0.9178
1810.000000 0.9185 0.9192 0.9199 0.9206 0.9211
1805.000000 0.9216 0.9221 0.9225 0.9230 0.9235
1800.000000 0.9240 0.9245 0.9250 0.9255 0.9259
1795.000000 0.9261 0.9263 0.9265 0.9267 0.9268
1790.000000 0.9271 0.9274 0.9275 0.9278 0.9278
1785.000000 0.9278 0.9280 0.9281 0.9281 0.9282
1780.000000 0.9283 0.9283 0.9284 0.9285 0.9285
1775.000000 0.9286 0.9290 0.9293 0.9297 0.9301
1770.000000 0.9304 0.9308 0.9312 0.9315 0.9318
1765.000000 0.9323 0.9325 0.9327 0.9328 0.9328
1760.000000 0.9330 0.9331 0.9332 0.9333 0.9334
1755.000000 0.9334 0.9335 0.9336 0.9337 0.9337
1750.000000 0.9337 0.9337 0.9337 0.9337 0.9337
1745.000000 0.9337 0.9335 0.9331 0.9325 0.9321
1740.000000 0.9317 0.9312 0.9307 0.9303 0.9298
1735.000000 0.9293 0.9288 0.9283 0.9278 0.9273
1730.000000 0.9268 0.9264 0.9259 0.9254 0.9250
1725.000000 0.9249 0.9248 0.9246 0.9245 0.9244
1720.000000 0.9242 0.9241 0.9240 0.9238 0.9237
1715.000000 0.9236 0.9234 0.9233 0.9231 0.9228
1710.000000 0.9227 0.9225 0.9223 0.9221 0.9218
1705.000000 0.9217 0.9215 0.9213 0.9211 0.9207
1700.000000 0.9203 0.9199 0.9195 0.9191 0.9187
1695.000000 0.9183 0.9180 0.9175 0.9165 0.9155
1690.000000 0.9145 0.9135 0.9124 0.9114 0.9104
1685.000000 0.9094 0.9084 0.9073 0.9059 0.9039
1680.000000 0.9018 0.8998 0.8977 0.8957 0.8936
1675.000000 0.8916 0.8895 0.8875 0.8842 0.8803
1670.000000 0.8764 0.8725 0.8687 0.8648 0.8609
1665.000000 0.8571 0.8532 0.8493 0.8455 0.8416
1660.000000 0.8377 0.8325 0.8261 0.8197 0.8133
1655.000000 0.8068 0.8004 0.7928 0.7854 0.7778
1650.000000 0.7701 0.7632 0.7562 0.7494 0.7424
1645.000000 0.7355 0.7288 0.7219 0.7153 0.7085
1640.000000 0.7018 0.6950 0.6878 0.6806 0.6733
1635.000000 0.6661 0.6575 0.6485 0.6395 0.6305
1630.000000 0.6145 0.5840 0.5566 0.5473 0.5380
1625.000000 0.5262 0.5015 0.4912 0.4638 0.4341
1620.000000 0.4044 0.3748 0.3450 0.3154 0.2858
1615.000000 0.2561 0.2264 0.1968 0.1671 0.1374
1610.000000 0.1077 0.0781 0.0517 0.0504 0.0498
1605.000000 0.0498 0.0510 0.0531 0.0575 0.0627
1600.000000 0.0685 0.0770 0.0987 0.1253 0.1519
1595.000000 0.1784 0.2051 0.2317 0.2583 0.2849
1590.000000 0.3115 0.3380 0.3647 0.3912 0.4179
1585.000000 0.4445 0.4710 0.4977 0.5243 0.5509
1580.000000 0.5775 0.6041 0.6307 0.6428 0.6471
1575.000000 0.6486 0.6521 0.6500 0.6504 0.6404
1570.000000 0.6235 0.6067 0.5899 0.5730 0.5562
1565.000000 0.5394 0.5225 0.5057 0.4888 0.4720
1560.000000 0.4552 0.4409 0.4398 0.4402 0.4409
1555.000000 0.4441 0.4489 0.4540 0.4621 0.4704
1550.000000 0.4790 0.4874 0.4936 0.4947 0.4950
1545.000000 0.4949 0.4949 0.4948 0.4947 0.4947
1540.000000 0.4943 0.4937 0.4931 0.4917 0.4903
1535.000000 0.4889 0.4852 0.4808 0.4760 0.4678
1530.000000 0.4427 0.4177 0.3926 0.3676 0.3425
1525.000000 0.3175 0.2924 0.2691 0.2691 0.2691
1520.000000 0.2713 0.2816 0.3008 0.3200 0.3393
1515.000000 0.3586 0.3779 0.3971 0.4164 0.4357
1510.000000 0.4549 0.4742 0.4935 0.5127 0.5320
1505.000000 0.5512 0.5705 0.5898 0.6091 0.6283
1500.000000 0.6475 0.6668 0.6856 0.6894 0.6921
1495.000000 0.6997 0.7080 0.7164 0.7248 0.7332
1490.000000 0.7415 0.7500 0.7583 0.7667 0.7751
1485.000000 0.7835 0.7918 0.8003 0.8087 0.8161
1480.000000 0.8162 0.8164 0.8178 0.8165 0.8141
1475.000000 0.8107 0.7928 0.7734 0.7540 0.7345
1470.000000 0.7151 0.6957 0.6761 0.6607 0.6591
1465.000000 0.6588 0.6625 0.6651 0.6718 0.6805
1460.000000 0.6867 0.6928 0.6999 0.7085 0.7172
1455.000000 0.7261 0.7349 0.7437 0.7525 0.7614
1450.000000 0.7701 0.7790 0.7878 0.7965 0.7969
1445.000000 0.7968 0.7968 0.7960 0.7944 0.7825
1440.000000 0.7697 0.7569 0.7442 0.7314 0.7187
1435.000000 0.7058 0.6932 0.6804 0.6676 0.6549
1430.000000 0.6461 0.6461 0.6461 0.6555 0.6649
1425.000000 0.6744 0.6838 0.6932 0.7026 0.7121
1420.000000 0.7215 0.7301 0.7368 0.7421 0.7453
1415.000000 0.7484 0.7515 0.7541 0.7555 0.7569
1410.000000 0.7584 0.7597 0.7611 0.7628 0.7647
1405.000000 0.7665 0.7686 0.7700 0.7705 0.7708
1400.000000 0.7712 0.7712 0.7717 0.7718 0.7718
1395.000000 0.7718 0.7710 0.7675 0.7588 0.7343
1390.000000 0.7291 0.7238 0.7183 0.7121 0.7058
1385.000000 0.6948 0.6608 0.6210 0.5812 0.5414
1380.000000 0.5015 0.4616 0.4218 0.3818 0.3421
1375.000000 0.3247 0.3429 0.3634 0.3840 0.4045
1370.000000 0.4251 0.4385 0.4471 0.4566 0.4666
1365.000000 0.4757 0.4842 0.4910 0.4968 0.5044
1360.000000 0.5044 0.5044 0.4954 0.4715 0.4477
1355.000000 0.4238 0.4000 0.3760 0.3523 0.3284
1350.000000 0.3046 0.2807 0.2569 0.2330 0.2092
1345.000000 0.1853 0.1615 0.1376 0.1138 0.0899
1340.000000 0.0721 0.0644 0.0645 0.0646 0.0676
1335.000000 0.0747 0.0770 0.0792 0.0838 0.0915
1330.000000 0.0992 0.1035 0.1060 0.0959 0.0878
1325.000000 0.0797 0.0716 0.0636 0.0555 0.0473
1320.000000 0.0465 0.0618 0.0866 0.1115 0.1364
1315.000000 0.1613 0.1861 0.2110 0.2359 0.2607
1310.000000 0.2856 0.3105 0.3359 0.3409 0.3432
1305.000000 0.3443 0.3448 0.3453 0.3409 0.3345
1300.000000 0.3307 0.3427 0.3634 0.3842 0.4050
1295.000000 0.4257 0.4465 0.4673 0.4880 0.5088
1290.000000 0.5296 0.5503 0.5710 0.5919 0.6127
1285.000000 0.6334 0.6542 0.6651 0.6651 0.6651
1280.000000 0.6450 0.6249 0.6047 0.5846 0.5645
1275.000000 0.5562 0.5560 0.5683 0.5821 0.5960
1270.000000 0.6098 0.6236 0.6375 0.6493 0.6530
1265.000000 0.6597 0.6681 0.6764 0.6847 0.6930
1260.000000 0.7014 0.7097 0.7180 0.7262 0.7347
1255.000000 0.7430 0.7512 0.7596 0.7661 0.7685
1250.000000 0.7649 0.7354 0.6857 0.6359 0.5862
1245.000000 0.5399 0.5387 0.5538 0.5701 0.5864
1240.000000 0.6027 0.6190 0.6353 0.6515 0.6678
1235.000000 0.6842 0.7005 0.7168 0.7331 0.7494
1230.000000 0.7657 0.7819 0.7983 0.8031 0.8069
1225.000000 0.8098 0.8121 0.8112 0.8112 0.8112
1220.000000 0.8111 0.8106 0.8085 0.8065 0.8036
1215.000000 0.7984 0.7932 0.7799 0.7719 0.7665
1210.000000 0.7626 0.7588 0.7547 0.7505 0.7464
1205.000000 0.7326 0.7211 0.7095 0.6971 0.6751
1200.000000 0.6366 0.6238 0.6099 0.5908 0.5659
1195.000000 0.5302 0.4946 0.4589 0.4233 0.3876
1190.000000 0.3520 0.3164 0.2807 0.2451 0.2094
1185.000000 0.1737 0.1381 0.1025 0.0830 0.0821
1180.000000 0.0841 0.0878 0.0960 0.1011 0.1005
1175.000000 0.1005 0.0959 0.0901 0.0842 0.0783
1170.000000 0.0725 0.0666 0.0608 0.0538 0.0537
1165.000000 0.0535 0.0579 0.0633 0.0688 0.0742
1160.000000 0.0796 0.0850 0.0862 0.0872 0.0753
1155.000000 0.0643 0.0498 0.0498 0.0498 0.0500
1150.000000 0.0535 0.0677 0.0912 0.1174 0.1437
1145.000000 0.1699 0.1962 0.2224 0.2487 0.2749
1140.000000 0.3011 0.3274 0.3536 0.3799 0.4060
1135.000000 0.4324 0.4586 0.4848 0.5110 0.5160
1130.000000 0.5074 0.4807 0.4539 0.4271 0.4004
1125.000000 0.3736 0.3468 0.3112 0.3109 0.3356
1120.000000 0.3688 0.4018 0.4351 0.4683 0.5014
1115.000000 0.5346 0.5678 0.6007 0.6130 0.6253
1110.000000 0.6437 0.6640 0.6774 0.6831 0.6862
1105.000000 0.6894 0.6921 0.6938 0.6953 0.6955
1100.000000 0.6955 0.6956 0.6955 0.6951 0.6930
1095.000000 0.6910 0.6892 0.6905 0.6914 0.6922
1090.000000 0.6908 0.6851 0.6708 0.6542 0.6426
1085.000000 0.6315 0.6204 0.6094 0.5926 0.5564
1080.000000 0.5326 0.5097 0.4873 0.4739 0.4632
1075.000000 0.4547 0.4490 0.4456 0.4446 0.4436
1070.000000 0.4419 0.4298 0.3964 0.3632 0.3300
1065.000000 0.2969 0.2637 0.2305 0.1973 0.1833
1060.000000 0.1833 0.2017 0.2249 0.2480 0.2712
1055.000000 0.2944 0.3176 0.3408 0.3640 0.3872
1050.000000 0.4104 0.4335 0.4567 0.4799 0.5031
1045.000000 0.5262 0.5495 0.5727 0.5859 0.5930
1040.000000 0.5971 0.6017 0.6034 0.6064 0.5908
1035.000000 0.5702 0.5496 0.5291 0.5085 0.4879
1030.000000 0.4673 0.4467 0.4260 0.4055 0.3998
1025.000000 0.3997 0.4016 0.4208 0.4466 0.4724
1020.000000 0.4981 0.5239 0.5497 0.5754 0.6012
1015.000000 0.6270 0.6504 0.6694 0.6840 0.6917
1010.000000 0.7068 0.7248 0.7571 0.7806 0.7848
1005.000000 0.7889 0.7930 0.7961 0.7978 0.7997
1000.000000 0.8015 0.8032 0.8050 0.8065 0.8076
995.000000 0.8089 0.8100 0.8108 0.8117 0.8125
990.000000 0.8134 0.8143 0.8148 0.8151 0.8156
985.000000 0.8160 0.8171 0.8168 0.8168 0.8168
980.000000 0.8162 0.8156 0.8149 0.8143 0.8136
975.000000 0.8117 0.8093 0.8069 0.8046 0.8021
970.000000 0.7982 0.7937 0.7892 0.7838 0.7767
965.000000 0.7685 0.7608 0.7571 0.7537 0.7505
960.000000 0.7472 0.7104 0.6930 0.6748 0.6661
955.000000 0.6571 0.6476 0.6352 0.6210 0.6070
950.000000 0.5929 0.5788 0.5647 0.5506 0.5365
945.000000 0.5224 0.5084 0.4943 0.4802 0.4709
940.000000 0.4702 0.4699 0.4730 0.4760 0.4767
935.000000 0.4773 0.4781 0.4802 0.4822 0.4862
930.000000 0.4937 0.5010 0.5084 0.5158 0.5231
925.000000 0.5305 0.5379 0.5452 0.5526 0.5600
920.000000 0.5674 0.5747 0.5821 0.5895 0.5968
915.000000 0.6008 0.6021 0.5847 0.5621 0.5395
910.000000 0.5170 0.4939 0.4936 0.4949 0.5008
905.000000 0.5092 0.5157 0.5218 0.5277 0.5335
900.000000 0.5393 0.5497 0.5633 0.5766 0.5835
895.000000 0.5847 0.5854 0.5878 0.5972 0.6039
890.000000 0.6088 0.6138 0.6190 0.6251 0.6312
885.000000 0.6371 0.6428 0.6485 0.6528 0.6568
880.000000 0.6597 0.6614 0.6625 0.6631 0.6628
875.000000 0.6622 0.6603 0.6581 0.6578 0.6576
870.000000 0.6568 0.6375 0.6153 0.5930 0.5708
865.000000 0.5485 0.5262 0.5040 0.4817 0.4594
860.000000 0.4414 0.4402 0.4571 0.4794 0.5017
855.000000 0.5240 0.5462 0.5686 0.5910 0.6133
850.000000 0.6356 0.6578 0.6801 0.7025 0.7249
845.000000 0.7471 0.7695 0.7842 0.7889 0.7911
840.000000 0.7925 0.7937 0.7969 0.8080 0.8141
835.000000 0.8192 0.8217 0.8243 0.8251 0.8255
830.000000 0.8256 0.8257 0.8255 0.8254 0.8252
825.000000 0.8250 0.8242 0.8233 0.8224 0.8214
820.000000 0.8205 0.8195 0.8186 0.8175 0.8147
815.000000 0.8111 0.8075 0.8040 0.8005 0.7968
810.000000 0.7934 0.7878 0.7818 0.7760 0.7701
805.000000 0.7642 0.7583 0.7524 0.7464 0.7405
800.000000 0.7310 0.7188 0.7040 0.6786 0.6656
795.000000 0.6515 0.6354 0.6178 0.6003 0.5827
790.000000 0.5652 0.5476 0.5301 0.5125 0.4950
785.000000 0.4774 0.4599 0.4423 0.4248 0.4072
780.000000 0.3897 0.3721 0.3546 0.3464 0.3464
775.000000 0.3471 0.3496 0.3548 0.3609 0.3668
770.000000 0.3729 0.3789 0.3850 0.3909 0.3970
765.000000 0.4030 0.4091 0.4151 0.4210 0.4271
760.000000 0.4302 0.4295 0.4133 0.4027 0.3922
755.000000 0.3816 0.3710 0.3605 0.3500 0.3394
750.000000 0.3289 0.3260 0.3295 0.3388 0.3480
745.000000 0.3574 0.3666 0.3759 0.3852 0.3945
740.000000 0.4038 0.4131 0.4224 0.4305 0.4362
735.000000 0.4399 0.4428 0.4472 0.4520 0.4596
730.000000 0.4683 0.4771 0.4858 0.4946 0.5034
725.000000 0.5121 0.5209 0.5297 0.5384 0.5472
720.000000 0.5560 0.5647 0.5709 0.5755 0.5775
715.000000 0.5803 0.5790 0.5626 0.5338 0.5051
710.000000 0.4664 0.4673 0.4712 0.4923 0.5134
705.000000 0.5344 0.5488 0.5485 0.5481 0.5466
700.000000 0.5440 0.5401 0.5357 0.5321 0.5294
695.000000 0.5275 0.5284 0.5302 0.5355 0.5371
690.000000 0.5388 0.5391 0.5319 0.5188 0.5057
685.000000 0.4926 0.4795 0.4664 0.4532 0.4401
680.000000 0.4270 0.4139 0.4008 0.3877 0.3778
675.000000 0.3773 0.3782 0.3797 0.3832 0.3877
670.000000 0.4335 0.4902 0.5470 0.6037 0.6472
665.000000 0.6487 0.6522 0.6568 0.6618 0.6668
660.000000 0.6725 0.6815 0.6919 0.6910 0.6888
655.000000 0.6788 0.6803 0.6821 0.6825 0.6804
650.000000 0.6748 0.6621 0.6449 0.6276 0.6103
645.000000 0.5930 0.5757 0.5585 0.5412 0.5137
640.000000 0.5143 0.5191 0.5360 0.5529 0.5699
635.000000 0.5868 0.6012 0.6034 0.6050 0.6058
630.000000 0.6060 0.6062 0.6062 0.6036 0.6017
625.000000 0.6015 0.6014 0.6001 0.5988 0.5854
620.000000 0.5659 0.5465 0.5270 0.5076 0.4881
615.000000 0.4686 0.4492 0.4297 0.4103 0.3908
610.000000 0.3712 0.3518 0.3374 0.3374 0.3387
605.000000 0.3418 0.3450 0.3506 0.3568 0.3639
600.000000 0.3848 0.4077 0.4306 0.4535 0.4764
595.000000 0.4992 0.5221 0.5450 0.5679 0.5908
590.000000 0.6136 0.6291 0.6308 0.6325 0.6343
585.000000 0.6536 0.6578 0.6600 0.6604 0.6592
580.000000 0.6593 0.6593 0.6615 0.6644 0.6661
575.000000 0.6651 0.6647 0.6625 0.6632 0.6651
570.000000 0.6668 0.6680 0.6675 0.6614 0.6421
565.000000 0.6251 0.6080 0.5909 0.5739 0.5568
560.000000 0.5397 0.5226 0.5056 0.4885 0.4714
555.000000 0.4543 0.4373 0.4202 0.4030 0.3859
550.000000 0.3689 0.3518 0.3348 0.3177 0.3006
545.000000 0.2835 0.2665 0.2494 0.2351 0.2348
540.000000 0.2425 0.2622 0.2820 0.3017 0.3214
535.000000 0.3412 0.3609 0.3807 0.4005 0.4056
530.000000 0.4068 0.4030 0.3914 0.3799 0.3532
525.000000 0.3532 0.3534 0.3564 0.3671 0.3779
520.000000 0.3887 0.3994 0.4102 0.4210 0.4317
515.000000 0.4425 0.4532 0.4640 0.4748 0.4855
510.000000 0.4962 0.5071 0.5189 0.5164 0.5085
505.000000 0.5007 0.4928 0.4850 0.4772 0.4693
500.000000 0.4615 0.4536 0.4525 0.4516 0.4560
495.000000 0.4612 0.4665 0.4717 0.4769 0.4821
490.000000 0.4873 0.4925 0.4977 0.5026 0.5046
485.000000 0.4959 0.4866 0.4773 0.4680 0.4587
480.000000 0.4494 0.4401 0.4308 0.4215 0.4122
475.000000 0.4029 0.3936 0.3843 0.3750 0.3657
470.000000 0.3564 0.3471 0.3482 0.3538 0.3630
465.000000 0.3725 0.3818 0.3912 0.4006 0.4100
460.000000 0.4194 0.4288 0.4381 0.4475 0.4569
455.000000 0.4662 0.4756 0.4850 0.4944 0.5038
450.000000 0.5124 0.5185 0.5245 0.5283 0.5322
445.000000 0.5360 0.5414 0.5462 0.5508 0.5510
440.000000 0.5510 0.5510 0.5496 0.5486 0.5486
435.000000 0.5486 0.5487 0.5502 0.5516 0.5538
430.000000 0.5580 0.5625 0.5671 0.5718 0.5765
425.000000 0.5815 0.5865 0.5915 0.5959 0.5996
420.000000 0.6033 0.6071 0.6108 0.6146 0.6183
415.000000 0.6232 0.6267 0.6295 0.6312 0.6320
410.000000 0.6328 0.6329 0.6359 0.6391 0.6395
405.000000 0.6396 0.6390 0.6375 0.6355 0.6354
400.000000 0.6379 0.6444 0.6508 0.6571 0.6628
395.000000 0.6646 0.6651 0.6658 0.6700 0.6732
390.000000 0.6748 0.6754 0.6751 0.6745 0.6695
385.000000 0.6649 0.6639 0.6547 0.6486 0.6425
380.000000 0.6365 0.6305 0.6244 0.6184 0.6123
375.000000 0.6008 0.6008 0.6009 0.6016 0.6048
370.000000 0.6084 0.6151 0.6198 0.6214 0.6212
365.000000 0.6212 0.6231 0.6249 0.6316 0.6411
360.000000 0.6451 0.6471 0.6468 0.6467 0.6471
355.000000 0.6532 0.6550 0.6555 0.6560 0.6565
350.000000 0.6571 0.6571 0.6572 0.6531 0.6506
345.000000 0.6476 0.6449 0.6445 0.6444 0.6442
340.000000 0.6441 0.6439 0.6438 0.6415 0.6391
335.000000 0.6382 0.6374 0.6366 0.6358 0.6312
330.000000 0.6205 0.6109 0.6021 0.5933 0.5845
325.000000 0.5758 0.5670 0.5582 0.5471 0.5472
320.000000 0.5472 0.5474 0.5516 0.5541 0.5566
315.000000 0.5591 0.5729 0.5853 0.6008 0.6028
310.000000 0.6047 0.6074 0.6101 0.6166 0.6315
305.000000 0.6439 0.6551 0.6628 0.6696 0.6746
300.000000 0.6793 0.6830 0.6860 0.6849 0.6882
295.000000 0.6872 0.6861 0.6838 0.6815 0.6796
290.000000 0.6776 0.6758 0.6740 0.6721 0.6703
285.000000 0.6685 0.6667 0.6649 0.6630 0.6608
280.000000 0.6588 0.6565 0.6542 0.6514 0.6486
275.000000 0.6461 0.6408 0.6318 0.6228 0.6138
270.000000 0.6048 0.5958 0.5868 0.5778 0.5689
265.000000 0.5599 0.5509 0.5419 0.5329 0.5239
260.000000 0.5149 0.5059 0.4969 0.4880 0.4790
255.000000 0.4700 0.4610 0.4520 0.4430 0.4340
250.000000 0.4250 0.4160 0.4070 0.3980 0.3891
245.000000 0.3800 0.3710 0.3621 0.3530 0.3441
240.000000 0.3350 0.3260 0.3172 0.3082
##END=
