##TITLE=THIAZIDE, HYDROCHLORO-
##JCAMP-DX=4.24
$$ By DXEDIT 1.05 (RS McDonald)
##DATA TYPE=INFRARED SPECTRUM
##CLASS=COBLENTZ II
##ORIGIN=BECKMAN INSTRUMENTS, KENNETH STINE
##OWNER=COBLENTZ SOC.
Collection (C) 2018 copyright by the U.S. Secretary of Commerce
on behalf of the United States of America. All rights reserved.
##DATE=1969/05/07
##NAMES=6-chloro-3,4-dihydro-2H-1,2,4-benzothiadiazine-7-sulfonamide 1,1-dioxide
6-CHLORO-3,4-DIHYDRO-7-SULFAMOYL-2H-1,2,4-BENZOTHIADIAZINE 1,1-DIOXIDE
##CAS REGISTRY NO=58-93-5
##MOLFORM=C7 H8 Cl N3 O4 S2
##SOURCE REFERENCE=COBLENTZ NO. 06020
##$NIST SOURCE=COBLENTZ
##$NIST IMAGE=cob6020
##SPECTROMETER/DATA SYSTEM=BECKMAN IR-12 (GRATING)
##INSTRUMENT PARAMETERS=FILTERS AT 303, 473, 790, 1036, 1880, 2930 CM^-^1; GRATING CHANGE: 300.5, 650.0, 2000.4 CM^-^1
##STATE=SOLID (SPLIT MULL)
$$ SEE SPECTRUM NO 5069 FOR "PRISM" SPECTRUM
##PATH LENGTH=KBr PLATES AND FLUOROLUBE MEDIUM FOR 4000-1360; CsI PLATES AND NUJOL MEDIUM FOR 1360-200
##SAMPLING PROCEDURE=TRANSMISSION
##RESOLUTION=2
##DATA PROCESSING=DIGITIZED BY COBLENTZ SOCIETY (BATCH I) FROM HARD COPY
##XUNITS=1/CM
##YUNITS=TRANSMITTANCE
##XLABEL=Wavenumbers (cm-1)
##YLABEL=Transmittance
##XFACTOR=1
##YFACTOR=1
##DELTAX=1
##FIRSTX=4000
##LASTX=203
##FIRSTY=0.7178
##MAXX=4000
##MINX=203
##MAXY=0.9578
##MINY=0.0692
##NPOINTS=3798
##XYDATA=(X++(Y..Y))
4000.000000 0.7178 0.7178 0.7178 0.7178 0.7178
3995.000000 0.7178 0.7180 0.7180 0.7181 0.7181
3990.000000 0.7182 0.7182 0.7183 0.7183 0.7183
3985.000000 0.7183 0.7183 0.7182 0.7182 0.7182
3980.000000 0.7182 0.7181 0.7181 0.7180 0.7180
3975.000000 0.7178 0.7178 0.7178 0.7178 0.7176
3970.000000 0.7176 0.7175 0.7175 0.7174 0.7174
3965.000000 0.7174 0.7174 0.7175 0.7176 0.7178
3960.000000 0.7178 0.7180 0.7182 0.7183 0.7184
3955.000000 0.7185 0.7187 0.7188 0.7190 0.7191
3950.000000 0.7193 0.7195 0.7197 0.7198 0.7200
3945.000000 0.7201 0.7203 0.7205 0.7207 0.7208
3940.000000 0.7210 0.7211 0.7214 0.7215 0.7217
3935.000000 0.7218 0.7218 0.7219 0.7221 0.7222
3930.000000 0.7224 0.7225 0.7226 0.7228 0.7228
3925.000000 0.7230 0.7232 0.7233 0.7234 0.7235
3920.000000 0.7236 0.7237 0.7239 0.7240 0.7242
3915.000000 0.7243 0.7245 0.7246 0.7248 0.7249
3910.000000 0.7251 0.7251 0.7254 0.7255 0.7257
3905.000000 0.7258 0.7260 0.7261 0.7262 0.7264
3900.000000 0.7265 0.7267 0.7268 0.7269 0.7271
3895.000000 0.7272 0.7275 0.7276 0.7278 0.7280
3890.000000 0.7282 0.7284 0.7286 0.7287 0.7289
3885.000000 0.7290 0.7292 0.7294 0.7296 0.7297
3880.000000 0.7299 0.7301 0.7303 0.7304 0.7306
3875.000000 0.7308 0.7310 0.7311 0.7312 0.7315
3870.000000 0.7317 0.7318 0.7319 0.7321 0.7324
3865.000000 0.7325 0.7326 0.7328 0.7331 0.7333
3860.000000 0.7336 0.7338 0.7340 0.7342 0.7345
3855.000000 0.7347 0.7349 0.7351 0.7354 0.7356
3850.000000 0.7358 0.7360 0.7362 0.7365 0.7367
3845.000000 0.7368 0.7371 0.7372 0.7375 0.7378
3840.000000 0.7380 0.7384 0.7388 0.7391 0.7395
3835.000000 0.7399 0.7403 0.7406 0.7410 0.7414
3830.000000 0.7418 0.7421 0.7425 0.7428 0.7433
3825.000000 0.7437 0.7441 0.7444 0.7448 0.7451
3820.000000 0.7456 0.7460 0.7464 0.7468 0.7474
3815.000000 0.7478 0.7484 0.7488 0.7493 0.7498
3810.000000 0.7503 0.7508 0.7512 0.7518 0.7522
3805.000000 0.7526 0.7532 0.7537 0.7543 0.7549
3800.000000 0.7555 0.7560 0.7565 0.7571 0.7576
3795.000000 0.7582 0.7588 0.7594 0.7600 0.7605
3790.000000 0.7611 0.7615 0.7621 0.7628 0.7634
3785.000000 0.7640 0.7647 0.7653 0.7658 0.7665
3780.000000 0.7671 0.7676 0.7684 0.7690 0.7696
3775.000000 0.7701 0.7708 0.7712 0.7718 0.7725
3770.000000 0.7731 0.7732 0.7734 0.7735 0.7737
3765.000000 0.7738 0.7739 0.7740 0.7742 0.7744
3760.000000 0.7746 0.7747 0.7749 0.7751 0.7753
3755.000000 0.7755 0.7757 0.7758 0.7760 0.7761
3750.000000 0.7764 0.7765 0.7768 0.7771 0.7774
3745.000000 0.7778 0.7784 0.7789 0.7794 0.7796
3740.000000 0.7798 0.7798 0.7798 0.7797 0.7797
3735.000000 0.7795 0.7794 0.7793 0.7792 0.7790
3730.000000 0.7789 0.7793 0.7797 0.7801 0.7807
3725.000000 0.7811 0.7817 0.7821 0.7825 0.7831
3720.000000 0.7836 0.7840 0.7845 0.7849 0.7854
3715.000000 0.7858 0.7862 0.7867 0.7871 0.7875
3710.000000 0.7881 0.7885 0.7889 0.7893 0.7898
3705.000000 0.7901 0.7907 0.7911 0.7915 0.7918
3700.000000 0.7922 0.7925 0.7928 0.7931 0.7934
3695.000000 0.7936 0.7939 0.7941 0.7944 0.7946
3690.000000 0.7948 0.7950 0.7951 0.7954 0.7974
3685.000000 0.7958 0.7960 0.7961 0.7961 0.7962
3680.000000 0.7964 0.7964 0.7964 0.7962 0.7961
3675.000000 0.7958 0.7957 0.7955 0.7953 0.7951
3670.000000 0.7949 0.7947 0.7945 0.7940 0.7936
3665.000000 0.7931 0.7925 0.7921 0.7915 0.7911
3660.000000 0.7906 0.7900 0.7895 0.7890 0.7886
3655.000000 0.7881 0.7875 0.7871 0.7865 0.7861
3650.000000 0.7857 0.7851 0.7847 0.7842 0.7838
3645.000000 0.7834 0.7830 0.7825 0.7821 0.7817
3640.000000 0.7812 0.7808 0.7805 0.7801 0.7797
3635.000000 0.7792 0.7788 0.7784 0.7780 0.7778
3630.000000 0.7776 0.7775 0.7774 0.7771 0.7771
3625.000000 0.7769 0.7768 0.7767 0.7765 0.7765
3620.000000 0.7764 0.7764 0.7764 0.7764 0.7765
3615.000000 0.7765 0.7765 0.7765 0.7765 0.7765
3610.000000 0.7765 0.7767 0.7768 0.7769 0.7772
3605.000000 0.7775 0.7778 0.7781 0.7784 0.7787
3600.000000 0.7791 0.7795 0.7800 0.7805 0.7810
3595.000000 0.7815 0.7819 0.7824 0.7828 0.7831
3590.000000 0.7834 0.7837 0.7840 0.7843 0.7846
3585.000000 0.7849 0.7853 0.7856 0.7858 0.7861
3580.000000 0.7864 0.7865 0.7868 0.7869 0.7872
3575.000000 0.7875 0.7878 0.7880 0.7882 0.7884
3570.000000 0.7887 0.7889 0.7892 0.7895 0.7898
3565.000000 0.7903 0.7908 0.7912 0.7918 0.7924
3560.000000 0.7928 0.7934 0.7940 0.7945 0.7950
3555.000000 0.7955 0.7960 0.7965 0.7971 0.7975
3550.000000 0.7981 0.7987 0.7993 0.8000 0.8007
3545.000000 0.8012 0.8019 0.8025 0.8033 0.8040
3540.000000 0.8047 0.8053 0.8060 0.8065 0.8072
3535.000000 0.8078 0.8085 0.8091 0.8097 0.8103
3530.000000 0.8110 0.8115 0.8121 0.8128 0.8136
3525.000000 0.8142 0.8149 0.8156 0.8162 0.8171
3520.000000 0.8178 0.8187 0.8195 0.8203 0.8211
3515.000000 0.8218 0.8227 0.8235 0.8243 0.8252
3510.000000 0.8262 0.8271 0.8281 0.8290 0.8300
3505.000000 0.8309 0.8318 0.8327 0.8336 0.8345
3500.000000 0.8354 0.8362 0.8371 0.8378 0.8386
3495.000000 0.8393 0.8400 0.8407 0.8414 0.8421
3490.000000 0.8428 0.8434 0.8440 0.8444 0.8449
3485.000000 0.8453 0.8458 0.8462 0.8467 0.8470
3480.000000 0.8473 0.8475 0.8478 0.8482 0.8495
3475.000000 0.8487 0.8490 0.8491 0.8492 0.8493
3470.000000 0.8495 0.8496 0.8496 0.8496 0.8494
3465.000000 0.8491 0.8488 0.8482 0.8477 0.8465
3460.000000 0.8454 0.8438 0.8423 0.8397 0.8371
3455.000000 0.8301 0.8230 0.8180 0.8130 0.8099
3450.000000 0.8068 0.8025 0.7981 0.7926 0.7874
3445.000000 0.7815 0.7757 0.7701 0.7648 0.7611
3440.000000 0.7575 0.7540 0.7504 0.7458 0.7412
3435.000000 0.7331 0.7249 0.7034 0.6819 0.6721
3430.000000 0.6624 0.6478 0.6333 0.6292 0.6252
3425.000000 0.6128 0.6004 0.5820 0.5637 0.5453
3420.000000 0.5270 0.5086 0.4903 0.4719 0.4536
3415.000000 0.4353 0.4170 0.3986 0.3803 0.3690
3410.000000 0.3578 0.3504 0.3430 0.3350 0.3272
3405.000000 0.3193 0.3114 0.3034 0.2957 0.2878
3400.000000 0.2799 0.2720 0.2641 0.2562 0.2483
3395.000000 0.2404 0.2325 0.2246 0.2167 0.2135
3390.000000 0.2105 0.2096 0.2087 0.2083 0.2080
3385.000000 0.2077 0.2075 0.2073 0.2072 0.2012
3380.000000 0.1953 0.1868 0.1784 0.1699 0.1615
3375.000000 0.1530 0.1446 0.1361 0.1277 0.1192
3370.000000 0.1108 0.1022 0.0939 0.0854 0.0770
3365.000000 0.0733 0.0698 0.0694 0.0692 0.0758
3360.000000 0.0824 0.0907 0.0989 0.1072 0.1155
3355.000000 0.1237 0.1320 0.1403 0.1486 0.1568
3350.000000 0.1651 0.1734 0.1817 0.1899 0.1982
3345.000000 0.2064 0.2147 0.2230 0.2313 0.2395
3340.000000 0.2478 0.2561 0.2644 0.2726 0.2809
3335.000000 0.2891 0.2974 0.3057 0.3140 0.3222
3330.000000 0.3305 0.3387 0.3470 0.3553 0.3636
3325.000000 0.3718 0.3800 0.3848 0.3896 0.3912
3320.000000 0.3930 0.3937 0.3943 0.3946 0.3966
3315.000000 0.3952 0.3952 0.3952 0.3950 0.3947
3310.000000 0.3943 0.3939 0.3934 0.3925 0.3914
3305.000000 0.3904 0.3894 0.3870 0.3847 0.3820
3300.000000 0.3794 0.3760 0.3729 0.3640 0.3550
3295.000000 0.3466 0.3382 0.3297 0.3212 0.3128
3290.000000 0.3043 0.2958 0.2874 0.2789 0.2705
3285.000000 0.2620 0.2534 0.2450 0.2366 0.2281
3280.000000 0.2197 0.2112 0.2027 0.1942 0.1858
3275.000000 0.1773 0.1689 0.1644 0.1565 0.1596
3270.000000 0.1591 0.1588 0.1586 0.1591 0.1596
3265.000000 0.1606 0.1615 0.1635 0.1658 0.1722
3260.000000 0.1786 0.1851 0.1916 0.1979 0.2044
3255.000000 0.2108 0.2172 0.2235 0.2301 0.2365
3250.000000 0.2429 0.2493 0.2557 0.2621 0.2685
3245.000000 0.2750 0.2814 0.2878 0.2942 0.3006
3240.000000 0.3071 0.3134 0.3199 0.3262 0.3327
3235.000000 0.3391 0.3456 0.3520 0.3584 0.3648
3230.000000 0.3712 0.3730 0.3750 0.3762 0.3775
3225.000000 0.3782 0.3791 0.3797 0.3803 0.3807
3220.000000 0.3822 0.3814 0.3814 0.3814 0.3809
3215.000000 0.3805 0.3800 0.3787 0.3773 0.3745
3210.000000 0.3718 0.3674 0.3630 0.3592 0.3555
3205.000000 0.3466 0.3377 0.3295 0.3212 0.3141
3200.000000 0.3069 0.2996 0.2924 0.2851 0.2779
3195.000000 0.2706 0.2634 0.2561 0.2489 0.2416
3190.000000 0.2344 0.2271 0.2199 0.2127 0.2055
3185.000000 0.1982 0.1910 0.1836 0.1765 0.1692
3180.000000 0.1620 0.1546 0.1475 0.1402 0.1330
3175.000000 0.1311 0.1305 0.1291 0.1291 0.1291
3170.000000 0.1292 0.1303 0.1313 0.1329 0.1346
3165.000000 0.1372 0.1398 0.1425 0.1453 0.1498
3160.000000 0.1542 0.1608 0.1673 0.1737 0.1803
3155.000000 0.1868 0.1933 0.1998 0.2063 0.2128
3150.000000 0.2193 0.2258 0.2324 0.2389 0.2454
3145.000000 0.2519 0.2584 0.2649 0.2714 0.2779
3140.000000 0.2844 0.2909 0.2974 0.3039 0.3104
3135.000000 0.3169 0.3234 0.3300 0.3364 0.3430
3130.000000 0.3495 0.3559 0.3625 0.3690 0.3755
3125.000000 0.3820 0.3884 0.3950 0.4014 0.4080
3120.000000 0.4145 0.4210 0.4276 0.4341 0.4406
3115.000000 0.4439 0.4472 0.4482 0.4492 0.4501
3110.000000 0.4510 0.4519 0.4527 0.4532 0.4538
3105.000000 0.4542 0.4547 0.4547 0.4547 0.4546
3100.000000 0.4542 0.4538 0.4534 0.4532 0.4531
3095.000000 0.4531 0.4533 0.4542 0.4552 0.4602
3090.000000 0.4653 0.4712 0.4772 0.4831 0.4891
3085.000000 0.4950 0.5010 0.5069 0.5129 0.5155
3080.000000 0.5181 0.5203 0.5226 0.5247 0.5269
3075.000000 0.5288 0.5308 0.5317 0.5326 0.5331
3070.000000 0.5337 0.5342 0.5348 0.5354 0.5360
3065.000000 0.5371 0.5382 0.5393 0.5404 0.5416
3060.000000 0.5429 0.5449 0.5470 0.5499 0.5529
3055.000000 0.5558 0.5587 0.5616 0.5646 0.5675
3050.000000 0.5705 0.5734 0.5762 0.5792 0.5822
3045.000000 0.5851 0.5880 0.5909 0.5939 0.5968
3040.000000 0.5997 0.6026 0.6056 0.6085 0.6114
3035.000000 0.6143 0.6173 0.6199 0.6226 0.6246
3030.000000 0.6266 0.6286 0.6306 0.6325 0.6345
3025.000000 0.6360 0.6377 0.6393 0.6410 0.6428
3020.000000 0.6446 0.6464 0.6483 0.6501 0.6521
3015.000000 0.6540 0.6558 0.6585 0.6611 0.6644
3010.000000 0.6675 0.6700 0.6724 0.6747 0.6771
3005.000000 0.6792 0.6814 0.6832 0.6851 0.6868
3000.000000 0.6888 0.6908 0.6931 0.6951 0.6972
2995.000000 0.6991 0.7010 0.7008 0.7008 0.7008
2990.000000 0.7007 0.7007 0.7007 0.7007 0.7007
2985.000000 0.7007 0.7008 0.7008 0.7008 0.7011
2980.000000 0.7015 0.7019 0.7024 0.7033 0.7042
2975.000000 0.7051 0.7060 0.7072 0.7086 0.7100
2970.000000 0.7114 0.7146 0.7178 0.7211 0.7244
2965.000000 0.7275 0.7308 0.7318 0.7328 0.7328
2960.000000 0.7328 0.7228 0.7180 0.7131 0.7083
2955.000000 0.7034 0.6986 0.6937 0.6889 0.6840
2950.000000 0.6795 0.6788 0.6784 0.6784 0.6785
2945.000000 0.6854 0.6924 0.7001 0.7078 0.7157
2940.000000 0.7235 0.7311 0.7390 0.7467 0.7545
2935.000000 0.7622 0.7701 0.7740 0.7778 0.7787
2930.000000 0.7796 0.7801 0.7807 0.7811 0.7821
2925.000000 0.7821 0.7822 0.7825 0.7825 0.7825
2920.000000 0.7822 0.7818 0.7812 0.7806 0.7800
2915.000000 0.7792 0.7785 0.7774 0.7762 0.7751
2910.000000 0.7741 0.7721 0.7704 0.7675 0.7646
2905.000000 0.7615 0.7586 0.7550 0.7515 0.7488
2900.000000 0.7461 0.7444 0.7428 0.7411 0.7397
2895.000000 0.7389 0.7381 0.7372 0.7365 0.7360
2890.000000 0.7356 0.7351 0.7349 0.7348 0.7348
2885.000000 0.7351 0.7354 0.7368 0.7382 0.7401
2880.000000 0.7421 0.7445 0.7468 0.7494 0.7518
2875.000000 0.7540 0.7561 0.7590 0.7618 0.7631
2870.000000 0.7645 0.7651 0.7665 0.7665 0.7665
2865.000000 0.7658 0.7651 0.7642 0.7633 0.7622
2860.000000 0.7614 0.7604 0.7595 0.7571 0.7549
2855.000000 0.7519 0.7492 0.7461 0.7430 0.7368
2850.000000 0.7308 0.7238 0.7168 0.7099 0.7030
2845.000000 0.6960 0.6891 0.6821 0.6751 0.6682
2840.000000 0.6612 0.6544 0.6475 0.6405 0.6301
2835.000000 0.6312 0.6290 0.6291 0.6293 0.6318
2830.000000 0.6344 0.6411 0.6481 0.6549 0.6618
2825.000000 0.6687 0.6756 0.6824 0.6893 0.6961
2820.000000 0.7030 0.7098 0.7167 0.7235 0.7304
2815.000000 0.7356 0.7408 0.7439 0.7468 0.7492
2810.000000 0.7515 0.7539 0.7562 0.7583 0.7604
2805.000000 0.7625 0.7646 0.7661 0.7675 0.7691
2800.000000 0.7706 0.7719 0.7734 0.7745 0.7757
2795.000000 0.7768 0.7781 0.7792 0.7803 0.7811
2790.000000 0.7818 0.7826 0.7835 0.7839 0.7844
2785.000000 0.7847 0.7850 0.7851 0.7855 0.7857
2780.000000 0.7858 0.7860 0.7861 0.7856 0.7851
2775.000000 0.7845 0.7840 0.7834 0.7828 0.7822
2770.000000 0.7818 0.7811 0.7807 0.7801 0.7798
2765.000000 0.7795 0.7793 0.7790 0.7788 0.7785
2760.000000 0.7785 0.7785 0.7788 0.7793 0.7798
2755.000000 0.7812 0.7828 0.7845 0.7861 0.7875
2750.000000 0.7891 0.7904 0.7918 0.7931 0.7945
2745.000000 0.7958 0.7972 0.7984 0.7995 0.8001
2740.000000 0.8008 0.8014 0.8019 0.8022 0.8026
2735.000000 0.8030 0.8033 0.8036 0.8039 0.8041
2730.000000 0.8043 0.8045 0.8047 0.8049 0.8051
2725.000000 0.8053 0.8055 0.8056 0.8057 0.8057
2720.000000 0.8058 0.8058 0.8060 0.8060 0.8061
2715.000000 0.8061 0.8061 0.8061 0.8060 0.8058
2710.000000 0.8057 0.8056 0.8055 0.8054 0.8054
2705.000000 0.8050 0.8046 0.8033 0.8019 0.8006
2700.000000 0.7993 0.7978 0.7962 0.7945 0.7928
2695.000000 0.7914 0.7901 0.7894 0.7888 0.7886
2690.000000 0.7885 0.7883 0.7881 0.7890 0.7899
2685.000000 0.7915 0.7934 0.7948 0.7961 0.7972
2680.000000 0.7985 0.7997 0.8008 0.8021 0.8033
2675.000000 0.8045 0.8057 0.8068 0.8078 0.8089
2670.000000 0.8100 0.8106 0.8112 0.8115 0.8118
2665.000000 0.8121 0.8125 0.8128 0.8131 0.8133
2660.000000 0.8136 0.8139 0.8142 0.8144 0.8147
2655.000000 0.8150 0.8153 0.8156 0.8158 0.8162
2650.000000 0.8168 0.8172 0.8178 0.8182 0.8187
2645.000000 0.8192 0.8197 0.8202 0.8207 0.8212
2640.000000 0.8217 0.8221 0.8225 0.8231 0.8236
2635.000000 0.8240 0.8245 0.8249 0.8253 0.8257
2630.000000 0.8261 0.8264 0.8268 0.8267 0.8267
2625.000000 0.8264 0.8262 0.8257 0.8252 0.8247
2620.000000 0.8242 0.8237 0.8232 0.8227 0.8223
2615.000000 0.8218 0.8213 0.8208 0.8204 0.8200
2610.000000 0.8196 0.8192 0.8188 0.8184 0.8180
2605.000000 0.8175 0.8171 0.8168 0.8164 0.8161
2600.000000 0.8158 0.8155 0.8153 0.8150 0.8148
2595.000000 0.8145 0.8143 0.8140 0.8138 0.8135
2590.000000 0.8133 0.8130 0.8126 0.8125 0.8125
2585.000000 0.8125 0.8125 0.8125 0.8128 0.8132
2580.000000 0.8136 0.8141 0.8146 0.8154 0.8162
2575.000000 0.8171 0.8180 0.8189 0.8198 0.8206
2570.000000 0.8214 0.8221 0.8228 0.8236 0.8244
2565.000000 0.8251 0.8259 0.8266 0.8274 0.8281
2560.000000 0.8289 0.8295 0.8301 0.8307 0.8314
2555.000000 0.8320 0.8327 0.8333 0.8340 0.8346
2550.000000 0.8352 0.8355 0.8359 0.8362 0.8366
2545.000000 0.8368 0.8373 0.8375 0.8380 0.8383
2540.000000 0.8386 0.8389 0.8393 0.8396 0.8399
2535.000000 0.8401 0.8404 0.8405 0.8407 0.8408
2530.000000 0.8410 0.8411 0.8413 0.8416 0.8418
2525.000000 0.8425 0.8431 0.8437 0.8443 0.8449
2520.000000 0.8456 0.8463 0.8471 0.8471 0.8471
2515.000000 0.8463 0.8455 0.8448 0.8441 0.8436
2510.000000 0.8431 0.8427 0.8424 0.8423 0.8423
2505.000000 0.8421 0.8421 0.8420 0.8418 0.8418
2500.000000 0.8417 0.8416 0.8415 0.8414 0.8414
2495.000000 0.8414 0.8414 0.8417 0.8420 0.8421
2490.000000 0.8425 0.8428 0.8431 0.8433 0.8436
2485.000000 0.8439 0.8442 0.8444 0.8447 0.8449
2480.000000 0.8452 0.8456 0.8461 0.8465 0.8470
2475.000000 0.8474 0.8478 0.8482 0.8487 0.8491
2470.000000 0.8496 0.8500 0.8505 0.8509 0.8514
2465.000000 0.8518 0.8523 0.8527 0.8532 0.8536
2460.000000 0.8541 0.8545 0.8549 0.8553 0.8558
2455.000000 0.8562 0.8566 0.8570 0.8574 0.8575
2450.000000 0.8578 0.8581 0.8583 0.8583 0.8584
2445.000000 0.8584 0.8584 0.8584 0.8585 0.8586
2440.000000 0.8587 0.8588 0.8590 0.8591 0.8592
2435.000000 0.8593 0.8595 0.8596 0.8598 0.8599
2430.000000 0.8601 0.8602 0.8604 0.8606 0.8608
2425.000000 0.8610 0.8612 0.8614 0.8616 0.8618
2420.000000 0.8621 0.8625 0.8631 0.8636 0.8642
2415.000000 0.8647 0.8652 0.8657 0.8663 0.8668
2410.000000 0.8675 0.8681 0.8687 0.8693 0.8700
2405.000000 0.8706 0.8713 0.8720 0.8727 0.8734
2400.000000 0.8741 0.8748 0.8756 0.8763 0.8771
2395.000000 0.8778 0.8786 0.8793 0.8801 0.8806
2390.000000 0.8812 0.8817 0.8823 0.8828 0.8834
2385.000000 0.8839 0.8845 0.8850 0.8856 0.8861
2380.000000 0.8866 0.8871 0.8875 0.8881 0.8886
2375.000000 0.8890 0.8895 0.8896 0.8897 0.8898
2370.000000 0.8900 0.8901 0.8902 0.8903 0.8905
2365.000000 0.8906 0.8907 0.8907 0.8907 0.8907
2360.000000 0.8908 0.8908 0.8909 0.8909 0.8910
2355.000000 0.8910 0.8911 0.8911 0.8911 0.8911
2350.000000 0.8912 0.8912 0.8913 0.8913 0.8914
2345.000000 0.8915 0.8916 0.8916 0.8917 0.8918
2340.000000 0.8918 0.8920 0.8921 0.8921 0.8921
2335.000000 0.8923 0.8924 0.8925 0.8925 0.8925
2330.000000 0.8927 0.8928 0.8928 0.8930 0.8931
2325.000000 0.8931 0.8932 0.8933 0.8934 0.8934
2320.000000 0.8935 0.8935 0.8936 0.8937 0.8938
2315.000000 0.8938 0.8939 0.8940 0.8941 0.8941
2310.000000 0.8942 0.8942 0.8943 0.8944 0.8945
2305.000000 0.8945 0.8946 0.8947 0.8948 0.8949
2300.000000 0.8950 0.8951 0.8953 0.8954 0.8955
2295.000000 0.8956 0.8957 0.8958 0.8960 0.8961
2290.000000 0.8962 0.8963 0.8964 0.8965 0.8966
2285.000000 0.8967 0.8968 0.8970 0.8971 0.8974
2280.000000 0.8977 0.8978 0.8982 0.8984 0.8986
2275.000000 0.8988 0.8991 0.8994 0.8997 0.9000
2270.000000 0.9004 0.9007 0.9011 0.9014 0.9018
2265.000000 0.9021 0.9025 0.9028 0.9032 0.9035
2260.000000 0.9039 0.9042 0.9046 0.9050 0.9054
2255.000000 0.9058 0.9062 0.9066 0.9070 0.9074
2250.000000 0.9078 0.9082 0.9086 0.9089 0.9093
2245.000000 0.9097 0.9101 0.9105 0.9109 0.9112
2240.000000 0.9116 0.9118 0.9121 0.9125 0.9128
2235.000000 0.9131 0.9135 0.9138 0.9141 0.9144
2230.000000 0.9147 0.9150 0.9154 0.9157 0.9160
2225.000000 0.9163 0.9166 0.9168 0.9171 0.9175
2220.000000 0.9178 0.9182 0.9186 0.9189 0.9193
2215.000000 0.9196 0.9200 0.9203 0.9207 0.9209
2210.000000 0.9212 0.9213 0.9215 0.9216 0.9218
2205.000000 0.9218 0.9221 0.9223 0.9225 0.9225
2200.000000 0.9228 0.9228 0.9231 0.9233 0.9235
2195.000000 0.9236 0.9238 0.9239 0.9241 0.9242
2190.000000 0.9244 0.9246 0.9248 0.9249 0.9251
2185.000000 0.9252 0.9253 0.9254 0.9256 0.9257
2180.000000 0.9259 0.9260 0.9261 0.9262 0.9264
2175.000000 0.9265 0.9266 0.9267 0.9268 0.9270
2170.000000 0.9271 0.9273 0.9274 0.9275 0.9277
2165.000000 0.9278 0.9278 0.9280 0.9282 0.9283
2160.000000 0.9284 0.9284 0.9285 0.9285 0.9286
2155.000000 0.9286 0.9287 0.9287 0.9288 0.9288
2150.000000 0.9289 0.9289 0.9289 0.9289 0.9290
2145.000000 0.9290 0.9291 0.9291 0.9292 0.9292
2140.000000 0.9293 0.9293 0.9293 0.9293 0.9294
2135.000000 0.9294 0.9295 0.9295 0.9296 0.9296
2130.000000 0.9296 0.9296 0.9297 0.9297 0.9297
2125.000000 0.9297 0.9298 0.9298 0.9298 0.9298
2120.000000 0.9299 0.9299 0.9300 0.9300 0.9300
2115.000000 0.9300 0.9301 0.9301 0.9301 0.9301
2110.000000 0.9302 0.9302 0.9302 0.9302 0.9303
2105.000000 0.9303 0.9303 0.9303 0.9304 0.9304
2100.000000 0.9304 0.9303 0.9303 0.9302 0.9302
2095.000000 0.9301 0.9301 0.9300 0.9300 0.9299
2090.000000 0.9298 0.9297 0.9297 0.9296 0.9295
2085.000000 0.9294 0.9293 0.9292 0.9292 0.9291
2080.000000 0.9290 0.9289 0.9288 0.9287 0.9286
2075.000000 0.9285 0.9285 0.9284 0.9283 0.9282
2070.000000 0.9281 0.9280 0.9278 0.9278 0.9278
2065.000000 0.9278 0.9278 0.9278 0.9278 0.9278
2060.000000 0.9278 0.9278 0.9278 0.9278 0.9278
2055.000000 0.9278 0.9278 0.9278 0.9278 0.9277
2050.000000 0.9277 0.9277 0.9277 0.9277 0.9277
2045.000000 0.9277 0.9277 0.9277 0.9277 0.9277
2040.000000 0.9277 0.9277 0.9277 0.9277 0.9277
2035.000000 0.9277 0.9278 0.9278 0.9278 0.9280
2030.000000 0.9281 0.9281 0.9282 0.9282 0.9283
2025.000000 0.9284 0.9285 0.9285 0.9286 0.9287
2020.000000 0.9288 0.9288 0.9289 0.9290 0.9291
2015.000000 0.9292 0.9294 0.9296 0.9298 0.9299
2010.000000 0.9301 0.9303 0.9305 0.9306 0.9308
2005.000000 0.9310 0.9312 0.9313 0.9314 0.9315
2000.000000 0.9316 0.9316 0.9317 0.9318 0.9318
1995.000000 0.9318 0.9320 0.9320 0.9318 0.9318
1990.000000 0.9317 0.9316 0.9314 0.9313 0.9312
1985.000000 0.9311 0.9310 0.9309 0.9307 0.9306
1980.000000 0.9305 0.9304 0.9304 0.9303 0.9302
1975.000000 0.9302 0.9301 0.9300 0.9300 0.9299
1970.000000 0.9299 0.9298 0.9298 0.9298 0.9300
1965.000000 0.9302 0.9304 0.9306 0.9308 0.9310
1960.000000 0.9312 0.9314 0.9316 0.9318 0.9321
1955.000000 0.9323 0.9325 0.9327 0.9328 0.9331
1950.000000 0.9333 0.9335 0.9337 0.9340 0.9342
1945.000000 0.9344 0.9346 0.9348 0.9350 0.9353
1940.000000 0.9355 0.9357 0.9359 0.9361 0.9363
1935.000000 0.9365 0.9367 0.9368 0.9371 0.9373
1930.000000 0.9375 0.9378 0.9380 0.9382 0.9384
1925.000000 0.9385 0.9386 0.9388 0.9389 0.9390
1920.000000 0.9391 0.9392 0.9393 0.9395 0.9396
1915.000000 0.9397 0.9398 0.9399 0.9400 0.9401
1910.000000 0.9402 0.9403 0.9404 0.9405 0.9405
1905.000000 0.9406 0.9407 0.9408 0.9409 0.9410
1900.000000 0.9411 0.9411 0.9412 0.9413 0.9414
1895.000000 0.9415 0.9416 0.9416 0.9415 0.9415
1890.000000 0.9414 0.9414 0.9413 0.9413 0.9412
1885.000000 0.9411 0.9408 0.9404 0.9400 0.9389
1880.000000 0.9378 0.9367 0.9358 0.9349 0.9344
1875.000000 0.9341 0.9338 0.9337 0.9337 0.9339
1870.000000 0.9340 0.9342 0.9343 0.9343 0.9342
1865.000000 0.9340 0.9339 0.9338 0.9335 0.9331
1860.000000 0.9328 0.9328 0.9328 0.9328 0.9330
1855.000000 0.9333 0.9336 0.9331 0.9325 0.9321
1850.000000 0.9320 0.9318 0.9318 0.9324 0.9328
1845.000000 0.9334 0.9341 0.9347 0.9347 0.9346
1840.000000 0.9344 0.9342 0.9338 0.9332 0.9327
1835.000000 0.9321 0.9318 0.9316 0.9314 0.9308
1830.000000 0.9300 0.9291 0.9268 0.9237 0.9195
1825.000000 0.9160 0.9135 0.9065 0.8995 0.8925
1820.000000 0.8855 0.8785 0.8758 0.8758 0.8758
1815.000000 0.8775 0.8821 0.8867 0.8911 0.8954
1810.000000 0.8987 0.9020 0.9043 0.9066 0.9075
1805.000000 0.9081 0.9086 0.9092 0.9098 0.9103
1800.000000 0.9106 0.9110 0.9113 0.9117 0.9120
1795.000000 0.9124 0.9127 0.9130 0.9132 0.9132
1790.000000 0.9133 0.9133 0.9134 0.9134 0.9134
1785.000000 0.9135 0.9135 0.9135 0.9135 0.9136
1780.000000 0.9137 0.9140 0.9143 0.9155 0.9167
1775.000000 0.9178 0.9191 0.9205 0.9221 0.9239
1770.000000 0.9257 0.9274 0.9291 0.9302 0.9311
1765.000000 0.9320 0.9330 0.9336 0.9341 0.9345
1760.000000 0.9349 0.9354 0.9358 0.9363 0.9367
1755.000000 0.9370 0.9374 0.9377 0.9380 0.9384
1750.000000 0.9387 0.9390 0.9394 0.9397 0.9401
1745.000000 0.9404 0.9408 0.9411 0.9415 0.9416
1740.000000 0.9413 0.9402 0.9386 0.9378 0.9381
1735.000000 0.9389 0.9398 0.9406 0.9414 0.9418
1730.000000 0.9404 0.9387 0.9371 0.9356 0.9342
1725.000000 0.9331 0.9321 0.9311 0.9303 0.9292
1720.000000 0.9293 0.9295 0.9296 0.9298 0.9307
1715.000000 0.9318 0.9331 0.9343 0.9350 0.9357
1710.000000 0.9355 0.9352 0.9350 0.9348 0.9344
1705.000000 0.9340 0.9336 0.9333 0.9328 0.9327
1700.000000 0.9325 0.9325 0.9324 0.9327 0.9331
1695.000000 0.9334 0.9337 0.9342 0.9347 0.9351
1690.000000 0.9350 0.9349 0.9347 0.9346 0.9345
1685.000000 0.9343 0.9341 0.9340 0.9338 0.9333
1680.000000 0.9328 0.9317 0.9292 0.9268 0.9244
1675.000000 0.9225 0.9210 0.9194 0.9180 0.9171
1670.000000 0.9168 0.9165 0.9162 0.9158 0.9155
1665.000000 0.9151 0.9147 0.9137 0.9106 0.9045
1660.000000 0.8978 0.8925 0.8883 0.8839 0.8789
1655.000000 0.8740 0.8694 0.8647 0.8609 0.8573
1650.000000 0.8551 0.8528 0.8503 0.8475 0.8449
1645.000000 0.8373 0.8291 0.7951 0.7851 0.7761
1640.000000 0.7684 0.7607 0.7532 0.7461 0.7393
1635.000000 0.7321 0.7243 0.7162 0.7058 0.6908
1630.000000 0.6801 0.6700 0.6397 0.6070 0.5743
1625.000000 0.5417 0.5090 0.4762 0.4436 0.4110
1620.000000 0.3782 0.3456 0.3130 0.2803 0.2476
1615.000000 0.2150 0.1823 0.1496 0.1170 0.0910
1610.000000 0.0846 0.0772 0.0723 0.0735 0.0737
1605.000000 0.0749 0.0760 0.0783 0.0822 0.0884
1600.000000 0.0968 0.1280 0.1558 0.1835 0.2114
1595.000000 0.2392 0.2669 0.2947 0.3225 0.3503
1590.000000 0.3780 0.4058 0.4336 0.4614 0.4892
1585.000000 0.5170 0.5381 0.5738 0.6002 0.6079
1580.000000 0.6128 0.6177 0.6220 0.6252 0.6262
1575.000000 0.6265 0.6265 0.6264 0.6251 0.6229
1570.000000 0.6202 0.6174 0.6105 0.5830 0.5477
1565.000000 0.5124 0.4771 0.4418 0.4120 0.4123
1560.000000 0.4148 0.4232 0.4316 0.4400 0.4484
1555.000000 0.4568 0.4651 0.4735 0.4762 0.4770
1550.000000 0.4740 0.4651 0.4562 0.4474 0.4385
1545.000000 0.4296 0.4208 0.4165 0.4156 0.4156
1540.000000 0.4156 0.4149 0.4142 0.4125 0.4091
1535.000000 0.4054 0.3980 0.3916 0.3805 0.3570
1530.000000 0.3334 0.3099 0.2864 0.2629 0.2394
1525.000000 0.2159 0.1984 0.1976 0.1979 0.2219
1520.000000 0.2484 0.2750 0.3016 0.3282 0.3548
1515.000000 0.3814 0.4080 0.4346 0.4612 0.4877
1510.000000 0.5143 0.5364 0.5497 0.5635 0.5773
1505.000000 0.5910 0.6049 0.6187 0.6325 0.6461
1500.000000 0.6600 0.6738 0.6875 0.6951 0.7006
1495.000000 0.7061 0.7161 0.7265 0.7341 0.7417
1490.000000 0.7501 0.7571 0.7628 0.7685 0.7735
1485.000000 0.7784 0.7825 0.7845 0.7857 0.7864
1480.000000 0.7864 0.7864 0.7864 0.7854 0.7814
1475.000000 0.7762 0.7710 0.7639 0.7508 0.7194
1470.000000 0.6878 0.6561 0.6247 0.6147 0.6154
1465.000000 0.6255 0.6381 0.6506 0.6632 0.6757
1460.000000 0.6883 0.6921 0.6950 0.6985 0.7042
1455.000000 0.7165 0.7290 0.7414 0.7538 0.7661
1450.000000 0.7742 0.7753 0.7754 0.7755 0.7726
1445.000000 0.7707 0.7682 0.7644 0.7606 0.7514
1440.000000 0.7172 0.6832 0.6491 0.6150 0.5809
1435.000000 0.5468 0.5277 0.5259 0.5256 0.5266
1430.000000 0.5295 0.5339 0.5494 0.5648 0.5803
1425.000000 0.5958 0.6112 0.6268 0.6422 0.6578
1420.000000 0.6733 0.6888 0.7043 0.7196 0.7334
1415.000000 0.7390 0.7446 0.7487 0.7525 0.7562
1410.000000 0.7598 0.7632 0.7667 0.7698 0.7726
1405.000000 0.7746 0.7760 0.7767 0.7772 0.7776
1400.000000 0.7778 0.7778 0.7765 0.7753 0.7736
1395.000000 0.7714 0.7692 0.7656 0.7601 0.7465
1390.000000 0.7328 0.6967 0.6604 0.6241 0.5878
1385.000000 0.5515 0.5152 0.4789 0.4426 0.4062
1380.000000 0.3700 0.3337 0.2974 0.2675 0.2685
1375.000000 0.2962 0.3354 0.3746 0.4138 0.4530
1370.000000 0.4922 0.5268 0.5384 0.5475 0.5555
1365.000000 0.5599 0.5636 0.5649 0.5660 0.5660
1360.000000 0.5665 0.5665 0.5662 0.5410 0.5137
1355.000000 0.4864 0.4591 0.4317 0.4044 0.3770
1350.000000 0.3497 0.3223 0.2950 0.2677 0.2403
1345.000000 0.2130 0.1856 0.1583 0.1309 0.1050
1340.000000 0.1024 0.1030 0.1036 0.1042 0.1046
1335.000000 0.1087 0.1133 0.1192 0.1466 0.1782
1330.000000 0.2008 0.2004 0.1882 0.1729 0.1579
1325.000000 0.1427 0.1275 0.1123 0.0922 0.0930
1320.000000 0.0925 0.0928 0.0939 0.0950 0.1001
1315.000000 0.1051 0.1101 0.1180 0.1285 0.1600
1310.000000 0.1927 0.2255 0.2582 0.2909 0.3237
1305.000000 0.3529 0.3460 0.3328 0.3224 0.3224
1300.000000 0.3400 0.3644 0.3888 0.4132 0.4375
1295.000000 0.4619 0.4862 0.5107 0.5351 0.5595
1290.000000 0.5839 0.6083 0.6327 0.6571 0.6815
1285.000000 0.7011 0.7014 0.6960 0.6515 0.6070
1280.000000 0.5625 0.5180 0.4615 0.4626 0.4723
1275.000000 0.5079 0.5436 0.5793 0.6150 0.6507
1270.000000 0.6864 0.6994 0.7039 0.7218 0.7421
1265.000000 0.7624 0.7825 0.8028 0.8232 0.8435
1260.000000 0.8638 0.8680 0.8681 0.8674 0.8668
1255.000000 0.8662 0.8650 0.8639 0.8581 0.7944
1250.000000 0.7236 0.6526 0.5819 0.5110 0.4674
1245.000000 0.4749 0.5187 0.5625 0.6062 0.6500
1240.000000 0.6938 0.7375 0.7814 0.8252 0.8690
1235.000000 0.9057 0.9086 0.9103 0.9112 0.9121
1230.000000 0.9125 0.9130 0.9128 0.9134 0.9132
1225.000000 0.9130 0.9128 0.9124 0.9114 0.9105
1220.000000 0.9096 0.9086 0.9075 0.9067 0.9057
1215.000000 0.9047 0.9034 0.9021 0.9007 0.8991
1210.000000 0.8943 0.8875 0.8775 0.8698 0.8641
1205.000000 0.8584 0.8510 0.8425 0.8142 0.7730
1200.000000 0.7318 0.6907 0.6495 0.6084 0.5672
1195.000000 0.5260 0.4848 0.4437 0.4025 0.3612
1190.000000 0.3202 0.2790 0.2378 0.1966 0.1555
1185.000000 0.1142 0.1085 0.1080 0.1082 0.1096
1180.000000 0.1136 0.1180 0.1440 0.1856 0.2258
1175.000000 0.2261 0.2215 0.2056 0.1896 0.1737
1170.000000 0.1579 0.1420 0.1261 0.1134 0.1142
1165.000000 0.1142 0.1142 0.1363 0.1584 0.1804
1160.000000 0.1864 0.1824 0.1634 0.1442 0.1253
1155.000000 0.1062 0.0939 0.0939 0.0938 0.0911
1150.000000 0.0922 0.0962 0.1014 0.1068 0.1170
1145.000000 0.1491 0.1812 0.2133 0.2453 0.2774
1140.000000 0.3095 0.3416 0.3736 0.4057 0.4378
1135.000000 0.4699 0.5156 0.5160 0.5165 0.5095
1130.000000 0.4718 0.4341 0.3964 0.3586 0.3209
1125.000000 0.2832 0.2499 0.2484 0.2493 0.2700
1120.000000 0.3150 0.3600 0.4050 0.4502 0.4952
1115.000000 0.5402 0.5853 0.6041 0.6139 0.6318
1110.000000 0.6496 0.6675 0.6854 0.7032 0.7211
1105.000000 0.7390 0.7434 0.7445 0.7444 0.7383
1100.000000 0.7314 0.7314 0.7312 0.7371 0.7443
1095.000000 0.7494 0.7528 0.7546 0.7564 0.7533
1090.000000 0.7493 0.7410 0.7268 0.6986 0.6622
1085.000000 0.6259 0.5896 0.5533 0.5169 0.4806
1080.000000 0.4533 0.4510 0.4501 0.4531 0.4608
1075.000000 0.4685 0.4760 0.4838 0.4884 0.4880
1070.000000 0.4472 0.4055 0.3638 0.3221 0.2804
1065.000000 0.2387 0.1970 0.1784 0.1776 0.1794
1060.000000 0.1882 0.2150 0.2418 0.2685 0.2954
1055.000000 0.3222 0.3490 0.3758 0.4026 0.4294
1050.000000 0.4562 0.4830 0.5098 0.5366 0.5634
1045.000000 0.5902 0.6170 0.6438 0.6706 0.6800
1040.000000 0.6801 0.6814 0.6796 0.6764 0.6544
1035.000000 0.6187 0.5829 0.5472 0.5114 0.4757
1030.000000 0.4399 0.4042 0.3684 0.3559 0.3534
1025.000000 0.3854 0.4236 0.4617 0.4999 0.5381
1020.000000 0.5762 0.6144 0.6525 0.6907 0.7160
1015.000000 0.7339 0.7578 0.7788 0.7899 0.8010
1010.000000 0.8094 0.8157 0.8218 0.8275 0.8321
1005.000000 0.8366 0.8410 0.8452 0.8492 0.8532
1000.000000 0.8570 0.8596 0.8621 0.8647 0.8671
995.000000 0.8695 0.8708 0.8718 0.8725 0.8727
990.000000 0.8728 0.8720 0.8713 0.8703 0.8693
985.000000 0.8670 0.8647 0.8624 0.8600 0.8565
980.000000 0.8521 0.8477 0.8431 0.8375 0.8321
975.000000 0.8277 0.8249 0.8221 0.8194 0.8161
970.000000 0.8119 0.8076 0.8028 0.7960 0.7892
965.000000 0.7798 0.7696 0.7612 0.7533 0.7454
960.000000 0.7376 0.7308 0.7157 0.6854 0.6551
955.000000 0.6249 0.5946 0.5643 0.5340 0.5038
950.000000 0.4735 0.4432 0.4147 0.4106 0.4096
945.000000 0.4101 0.4108 0.4124 0.4182 0.4236
940.000000 0.4319 0.4552 0.4653 0.4753 0.4853
935.000000 0.4953 0.5054 0.5154 0.5254 0.5354
930.000000 0.5455 0.5555 0.5655 0.5755 0.5856
925.000000 0.5956 0.6056 0.6156 0.6256 0.6316
920.000000 0.6323 0.6334 0.6308 0.6274 0.6221
915.000000 0.5932 0.5260 0.4447 0.4442 0.4501
910.000000 0.4605 0.4709 0.4797 0.4812 0.4832
905.000000 0.4859 0.4896 0.5026 0.5198 0.5283
900.000000 0.5355 0.5421 0.5487 0.5568 0.5654
895.000000 0.5742 0.5830 0.5918 0.6029 0.6141
890.000000 0.6253 0.6364 0.6475 0.6588 0.6699
885.000000 0.6811 0.6922 0.7034 0.7146 0.7258
880.000000 0.7368 0.7481 0.7533 0.7569 0.7606
875.000000 0.7617 0.7624 0.7632 0.7601 0.7168
870.000000 0.6735 0.6302 0.5868 0.5434 0.5001
865.000000 0.4567 0.4133 0.3700 0.3266 0.2870
860.000000 0.2896 0.3559 0.4149 0.4737 0.5325
855.000000 0.5914 0.6501 0.7090 0.7650 0.7872
850.000000 0.8106 0.8194 0.8275 0.8346 0.8417
845.000000 0.8480 0.8535 0.8578 0.8602 0.8620
840.000000 0.8634 0.8642 0.8649 0.8667 0.8652
835.000000 0.8652 0.8651 0.8640 0.8628 0.8618
830.000000 0.8607 0.8595 0.8571 0.8548 0.8524
825.000000 0.8500 0.8477 0.8453 0.8414 0.8375
820.000000 0.8335 0.8296 0.8257 0.8216 0.8175
815.000000 0.8134 0.8093 0.8051 0.7995 0.7921
810.000000 0.7847 0.7772 0.7665 0.7508 0.7383
805.000000 0.7275 0.7165 0.7024 0.6882 0.6482
800.000000 0.6177 0.5827 0.5668 0.5542 0.5393
795.000000 0.5176 0.4950 0.4724 0.4497 0.4271
790.000000 0.4045 0.3818 0.3592 0.3366 0.3140
785.000000 0.2914 0.2688 0.2461 0.2354 0.2337
780.000000 0.2349 0.2371 0.2409 0.2452 0.2513
775.000000 0.2575 0.2635 0.2737 0.2939 0.3140
770.000000 0.3342 0.3544 0.3745 0.3947 0.4149
765.000000 0.4351 0.4552 0.4698 0.4703 0.4668
760.000000 0.4448 0.4229 0.4009 0.3790 0.3571
755.000000 0.3350 0.3132 0.2963 0.2957 0.2988
750.000000 0.3164 0.3341 0.3516 0.3694 0.3870
745.000000 0.4047 0.4204 0.4299 0.4397 0.4504
740.000000 0.4609 0.4701 0.4794 0.4892 0.4994
735.000000 0.5140 0.5235 0.5301 0.5366 0.5417
730.000000 0.5468 0.5525 0.5588 0.5655 0.5729
725.000000 0.5798 0.5867 0.5936 0.6005 0.6074
720.000000 0.6143 0.6167 0.6184 0.5943 0.5660
715.000000 0.5379 0.5096 0.4814 0.4621 0.4729
710.000000 0.5315 0.5901 0.6090 0.6188 0.6276
705.000000 0.6334 0.6392 0.6446 0.6483 0.6500
700.000000 0.6511 0.6511 0.6521 0.6515 0.6508
695.000000 0.6485 0.6461 0.6289 0.6144 0.6024
690.000000 0.5875 0.5809 0.5751 0.5646 0.5406
685.000000 0.5166 0.4926 0.4686 0.4446 0.4206
680.000000 0.3966 0.3726 0.3390 0.3375 0.3584
675.000000 0.4179 0.4774 0.5369 0.5965 0.6560
670.000000 0.6965 0.6982 0.6995 0.7060 0.7236
665.000000 0.7411 0.7492 0.7534 0.7569 0.7593
660.000000 0.7617 0.7606 0.7606 0.7605 0.7600
655.000000 0.7592 0.7571 0.7553 0.7484 0.7353
650.000000 0.6987 0.6621 0.6256 0.5891 0.5525
645.000000 0.5160 0.5049 0.5195 0.5489 0.5783
640.000000 0.6077 0.6206 0.6262 0.6303 0.6322
635.000000 0.6330 0.6334 0.6320 0.6328 0.6317
630.000000 0.6297 0.6278 0.6258 0.6178 0.6092
625.000000 0.5981 0.5862 0.5727 0.5627 0.5542
620.000000 0.5308 0.5008 0.4709 0.4409 0.4109
615.000000 0.3809 0.3509 0.3209 0.2909 0.2879
610.000000 0.2875 0.2902 0.2947 0.3001 0.3357
605.000000 0.3648 0.4042 0.4436 0.4830 0.5224
600.000000 0.5617 0.6010 0.6478 0.6607 0.6668
595.000000 0.6728 0.6785 0.6836 0.6886 0.6934
590.000000 0.6976 0.7018 0.7060 0.7095 0.7130
585.000000 0.7156 0.7176 0.7199 0.7215 0.7233
580.000000 0.7246 0.7258 0.7261 0.7248 0.7234
575.000000 0.7215 0.7187 0.7157 0.7126 0.7089
570.000000 0.7051 0.6993 0.6907 0.6701 0.6497
565.000000 0.6292 0.6087 0.5882 0.5676 0.5471
560.000000 0.5266 0.5060 0.4856 0.4651 0.4445
555.000000 0.4240 0.4043 0.3980 0.3866 0.3727
550.000000 0.3564 0.3364 0.3164 0.2964 0.2763
545.000000 0.2563 0.2468 0.2513 0.2795 0.3077
540.000000 0.3359 0.3641 0.3923 0.4206 0.4420
535.000000 0.4410 0.4373 0.4166 0.3958 0.3750
530.000000 0.3542 0.3439 0.3430 0.3560 0.3693
525.000000 0.3826 0.3958 0.4090 0.4222 0.4354
520.000000 0.4487 0.4619 0.4751 0.4883 0.5015
515.000000 0.5148 0.5278 0.5304 0.5303 0.5247
510.000000 0.5151 0.5055 0.4959 0.4862 0.4767
505.000000 0.4671 0.4575 0.4479 0.4383 0.4286
500.000000 0.4269 0.4260 0.4310 0.4383 0.4455
495.000000 0.4528 0.4600 0.4672 0.4745 0.4817
490.000000 0.4889 0.4922 0.4922 0.4922 0.4905
485.000000 0.4862 0.4752 0.4616 0.4480 0.4344
480.000000 0.4208 0.4073 0.3937 0.3800 0.3664
475.000000 0.3529 0.3394 0.3258 0.3122 0.3011
470.000000 0.3021 0.3029 0.3042 0.3097 0.3138
465.000000 0.3180 0.3243 0.3380 0.3518 0.3656
460.000000 0.3793 0.3930 0.4068 0.4206 0.4344
455.000000 0.4482 0.4620 0.4757 0.4895 0.5033
450.000000 0.5170 0.5308 0.5446 0.5583 0.5721
445.000000 0.5859 0.5875 0.5877 0.5833 0.5779
440.000000 0.5726 0.5672 0.5666 0.5680 0.5706
435.000000 0.5734 0.5762 0.5816 0.5903 0.5989
430.000000 0.6076 0.6162 0.6249 0.6336 0.6422
425.000000 0.6508 0.6596 0.6683 0.6768 0.6856
420.000000 0.6942 0.7028 0.7115 0.7201 0.7289
415.000000 0.7375 0.7461 0.7468 0.7474 0.7478
410.000000 0.7481 0.7482 0.7485 0.7491 0.7539
405.000000 0.7595 0.7651 0.7708 0.7764 0.7821
400.000000 0.7876 0.7933 0.7990 0.8046 0.8101
395.000000 0.8158 0.8215 0.8271 0.8283 0.8290
390.000000 0.8288 0.8148 0.8035 0.7921 0.7808
385.000000 0.7695 0.7581 0.7468 0.7355 0.7241
380.000000 0.7136 0.7126 0.7138 0.7151 0.7208
375.000000 0.7306 0.7403 0.7500 0.7597 0.7694
370.000000 0.7767 0.7797 0.7825 0.7858 0.7894
365.000000 0.7928 0.7962 0.8001 0.8039 0.8076
360.000000 0.8103 0.8128 0.8154 0.8175 0.8192
355.000000 0.8210 0.8227 0.8243 0.8240 0.8223
350.000000 0.8212 0.8208 0.8208 0.8208 0.8211
345.000000 0.8216 0.8224 0.8234 0.8248 0.8265
340.000000 0.8286 0.8324 0.8370 0.8425 0.8471
335.000000 0.8489 0.8480 0.8460 0.8385 0.8182
330.000000 0.7980 0.7776 0.7575 0.7372 0.7133
325.000000 0.7131 0.7151 0.7221 0.7419 0.7601
320.000000 0.7783 0.7965 0.8147 0.8328 0.8511
315.000000 0.8692 0.8871 0.9001 0.9101 0.9185
310.000000 0.9261 0.9315 0.9365 0.9405 0.9442
305.000000 0.9464 0.9485 0.9506 0.9528 0.9542
300.000000 0.9550 0.9559 0.9560 0.9560 0.9568
295.000000 0.9571 0.9573 0.9575 0.9578 0.9578
290.000000 0.9578 0.9575 0.9575 0.9573 0.9571
285.000000 0.9567 0.9562 0.9557 0.9551 0.9541
280.000000 0.9528 0.9504 0.9478 0.9455 0.9428
275.000000 0.9397 0.9365 0.9334 0.9304 0.9275
270.000000 0.9245 0.9216 0.9193 0.9170 0.9150
265.000000 0.9138 0.9125 0.9115 0.9110 0.9105
260.000000 0.9101 0.9097 0.9096 0.9095 0.9098
255.000000 0.9110 0.9128 0.9154 0.9202 0.9228
250.000000 0.9248 0.9265 0.9281 0.9289 0.9296
245.000000 0.9301 0.9302 0.9302 0.9298 0.9281
240.000000 0.9255 0.9230 0.9204 0.9110 0.9032
235.000000 0.8978 0.8925 0.8874 0.8824 0.8780
230.000000 0.8736 0.8692 0.8644 0.8591 0.8538
225.000000 0.8456 0.8307 0.8190 0.8068 0.7899
220.000000 0.7783 0.7685 0.7585 0.7484 0.7384
215.000000 0.7261 0.7139 0.7015 0.6894 0.6771
210.000000 0.6648 0.6525 0.6403 0.6280 0.6158
205.000000 0.6035 0.5912 0.5790
##END=
