##TITLE=Androst-6-ene-17Beta-carboxylic acid, 3Alpha-acetamido
##JCAMP-DX=4.24
##DATA TYPE=INFRARED SPECTRUM
##CLASS=COBLENTZ III
##ORIGIN=ABBOTT LABORATORIES
##OWNER=Copyright (C) 1987 by the Coblentz Society
Collection (C) 2018 copyright by the U.S. Secretary of Commerce
on behalf of the United States of America. All rights reserved.
##DATE=1963/08/16
##NAMES=3-(acetylamino)androst-5-ene-17-carboxylic acid
##CAS REGISTRY NO=5906-01-4
##MOLFORM=C22 H33 N O3
##MP=296-298 C
##SOURCE REFERENCE=COBLENTZ NO. 5290
##$NIST SOURCE=COBLENTZ
##$NIST IMAGE=cob5290
##SPECTROMETER/DATA SYSTEM=PERKIN-ELMER 21 (GRATING)
##INSTRUMENT PARAMETERS=FILTER AT ABOUT 10 MICRONS
##STATE=SOLID (KBr DISC)
##RESOLUTION=2
##XUNITS=1/CM
##YUNITS=TRANSMITTANCE
##XFACTOR=1.0
##YFACTOR=1
##FIRSTX=653
##LASTX=4000
##FIRSTY=0.5268
##MAXX=4000
##MINX=653
##MAXY=0.7417
##MINY=0.0319
##NPOINTS=3348
##XYDATA=(X++(Y..Y))
653.000000 0.5268 0.5189 0.5099 0.5034 0.4973
658.000000 0.4911 0.4849 0.4785 0.4721 0.4657
663.000000 0.4609 0.4578 0.4551 0.4760 0.4904
668.000000 0.5018 0.5091 0.5156 0.5218 0.5278
673.000000 0.5331 0.5384 0.5430 0.5466 0.5505
678.000000 0.5550 0.5605 0.5707 0.5838 0.6001
683.000000 0.6119 0.6222 0.6276 0.6316 0.6332
688.000000 0.6340 0.6344 0.6357 0.6335 0.6325
693.000000 0.6305 0.6277 0.6218 0.6139 0.6147
698.000000 0.6175 0.6224 0.6299 0.6403 0.6466
703.000000 0.6527 0.6578 0.6628 0.6662 0.6674
708.000000 0.6656 0.6635 0.6606 0.6557 0.6474
713.000000 0.6369 0.6259 0.6148 0.6011 0.5858
718.000000 0.5706 0.5554 0.5402 0.5249 0.5064
723.000000 0.4864 0.4571 0.4226 0.4052 0.4020
728.000000 0.4103 0.4451 0.4877 0.5153 0.5319
733.000000 0.5421 0.5472 0.5542 0.5653 0.5825
738.000000 0.6064 0.6286 0.6452 0.6547 0.6634
743.000000 0.6726 0.6779 0.6815 0.6842 0.6857
748.000000 0.6873 0.6887 0.6901 0.6915 0.6918
753.000000 0.6917 0.6909 0.6901 0.6893 0.6886
758.000000 0.6878 0.6871 0.6864 0.6861 0.6849
763.000000 0.6841 0.6833 0.6825 0.6817 0.6793
768.000000 0.6762 0.6748 0.6737 0.6726 0.6725
773.000000 0.6728 0.6730 0.6737 0.6753 0.6768
778.000000 0.6789 0.6810 0.6832 0.6853 0.6872
783.000000 0.6889 0.6896 0.6877 0.6819 0.6762
788.000000 0.6670 0.6565 0.6425 0.6240 0.5990
793.000000 0.5719 0.5333 0.4968 0.4784 0.4727
798.000000 0.5054 0.5434 0.5875 0.6195 0.6409
803.000000 0.6536 0.6603 0.6651 0.6667 0.6682
808.000000 0.6650 0.6586 0.6504 0.6384 0.6163
813.000000 0.5919 0.5670 0.5478 0.5421 0.5439
818.000000 0.5527 0.5740 0.5980 0.6117 0.6209
823.000000 0.6238 0.6266 0.6196 0.6100 0.6009
828.000000 0.5919 0.5821 0.5797 0.5882 0.6074
833.000000 0.6253 0.6456 0.6535 0.6613 0.6654
838.000000 0.6691 0.6728 0.6755 0.6771 0.6782
843.000000 0.6788 0.6795 0.6802 0.6818 0.6835
848.000000 0.6840 0.6837 0.6835 0.6846 0.6815
853.000000 0.6805 0.6794 0.6782 0.6771 0.6760
858.000000 0.6754 0.6756 0.6759 0.6761 0.6764
863.000000 0.6768 0.6761 0.6745 0.6730 0.6714
868.000000 0.6698 0.6671 0.6643 0.6615 0.6586
873.000000 0.6555 0.6523 0.6490 0.6457 0.6427
878.000000 0.6409 0.6391 0.6385 0.6385 0.6385
883.000000 0.6387 0.6398 0.6409 0.6420 0.6432
888.000000 0.6443 0.6453 0.6465 0.6475 0.6482
893.000000 0.6473 0.6465 0.6457 0.6436 0.6411
898.000000 0.6385 0.6360 0.6317 0.6272 0.6228
903.000000 0.6183 0.6144 0.6108 0.6090 0.6084
908.000000 0.6078 0.6082 0.6088 0.6093 0.6096
913.000000 0.6099 0.6089 0.6074 0.6060 0.6044
918.000000 0.6027 0.6011 0.5994 0.5974 0.5946
923.000000 0.5918 0.5890 0.5857 0.5814 0.5772
928.000000 0.5724 0.5665 0.5606 0.5548 0.5491
933.000000 0.5437 0.5382 0.5343 0.5322 0.5307
938.000000 0.5300 0.5293 0.5292 0.5292 0.5291
943.000000 0.5290 0.5288 0.5285 0.5270 0.5204
948.000000 0.5140 0.5051 0.4960 0.4852 0.4726
953.000000 0.4599 0.4458 0.4309 0.4159 0.4020
958.000000 0.3892 0.3764 0.3620 0.3450 0.3363
963.000000 0.3348 0.3312 0.3340 0.3410 0.3554
968.000000 0.3701 0.3805 0.3836 0.3868 0.3987
973.000000 0.4169 0.4287 0.4397 0.4493 0.4561
978.000000 0.4589 0.4604 0.4592 0.4598 0.4580
983.000000 0.4558 0.4523 0.4478 0.4418 0.4344
988.000000 0.4246 0.4144 0.4067 0.4031 0.4023
993.000000 0.4018 0.4002 0.4083 0.4314 0.4596
998.000000 0.4767 0.4839 0.4878 0.4889 0.4891
1003.000000 0.4888 0.4872 0.4843 0.4805 0.4792
1008.000000 0.4793 0.4819 0.4988 0.5192 0.5212
1013.000000 0.5217 0.5223 0.5228 0.5248 0.5269
1018.000000 0.5307 0.5343 0.5370 0.5435 0.5404
1023.000000 0.5399 0.5374 0.5347 0.5317 0.5286
1028.000000 0.5255 0.5222 0.5190 0.5157 0.5124
1033.000000 0.5088 0.5048 0.5007 0.4969 0.4932
1038.000000 0.4907 0.4927 0.4881 0.5064 0.5188
1043.000000 0.5336 0.5465 0.5558 0.5606 0.5609
1048.000000 0.5606 0.5611 0.5547 0.5499 0.5439
1053.000000 0.5359 0.5256 0.5186 0.5160 0.5173
1058.000000 0.5256 0.5357 0.5409 0.5428 0.5419
1063.000000 0.5399 0.5367 0.5294 0.5096 0.4882
1068.000000 0.4668 0.4460 0.4297 0.4225 0.4218
1073.000000 0.4211 0.4457 0.4671 0.4886 0.5099
1078.000000 0.5260 0.5266 0.5250 0.5220 0.5183
1083.000000 0.5144 0.5115 0.5112 0.5132 0.5212
1088.000000 0.5546 0.5693 0.5790 0.5845 0.5897
1093.000000 0.5923 0.5944 0.5951 0.5972 0.5948
1098.000000 0.5929 0.5880 0.5806 0.5718 0.5625
1103.000000 0.5531 0.5417 0.5288 0.5159 0.5111
1108.000000 0.5104 0.5114 0.5174 0.5295 0.5390
1113.000000 0.5444 0.5454 0.5459 0.5451 0.5432
1118.000000 0.5391 0.5338 0.5271 0.5184 0.5066
1123.000000 0.4853 0.4796 0.4800 0.4827 0.4869
1128.000000 0.4966 0.5089 0.5163 0.5202 0.5207
1133.000000 0.5197 0.5159 0.5039 0.4809 0.4623
1138.000000 0.4533 0.4483 0.4457 0.4437 0.4433
1143.000000 0.4429 0.4417 0.4400 0.4375 0.4327
1148.000000 0.4267 0.4196 0.4127 0.4069 0.4014
1153.000000 0.3965 0.3936 0.3908 0.3881 0.3865
1158.000000 0.3851 0.3837 0.3812 0.3764 0.3723
1163.000000 0.3686 0.3668 0.3659 0.3658 0.3686
1168.000000 0.3723 0.3787 0.3841 0.3886 0.3909
1173.000000 0.3927 0.3934 0.3939 0.3939 0.3939
1178.000000 0.3935 0.3947 0.3923 0.3905 0.3877
1183.000000 0.3765 0.3607 0.3449 0.3292 0.3134
1188.000000 0.2977 0.2821 0.2664 0.2507 0.2390
1193.000000 0.2360 0.2358 0.2363 0.2375 0.2409
1198.000000 0.2530 0.2665 0.2801 0.2935 0.3046
1203.000000 0.3052 0.3070 0.3047 0.3023 0.2991
1208.000000 0.2952 0.2913 0.2872 0.2827 0.2782
1213.000000 0.2736 0.2689 0.2641 0.2582 0.2521
1218.000000 0.2460 0.2397 0.2335 0.2284 0.2262
1223.000000 0.2254 0.2246 0.2214 0.2087 0.1919
1228.000000 0.1818 0.1716 0.1614 0.1514 0.1439
1233.000000 0.1373 0.1308 0.1244 0.1187 0.1167
1238.000000 0.1174 0.1175 0.1229 0.1311 0.1390
1243.000000 0.1470 0.1588 0.1649 0.1663 0.1671
1248.000000 0.1682 0.1736 0.1847 0.1924 0.1938
1253.000000 0.1926 0.1894 0.1847 0.1783 0.1690
1258.000000 0.1608 0.1542 0.1512 0.1513 0.1524
1263.000000 0.1558 0.1634 0.1712 0.1788 0.1865
1268.000000 0.1942 0.2018 0.2095 0.2171 0.2247
1273.000000 0.2282 0.2282 0.2277 0.2260 0.2232
1278.000000 0.2188 0.2148 0.2114 0.2109 0.2121
1283.000000 0.2150 0.2199 0.2304 0.2377 0.2443
1288.000000 0.2526 0.2726 0.2953 0.3074 0.3184
1293.000000 0.3333 0.3457 0.3566 0.3674 0.3782
1298.000000 0.3891 0.3999 0.4107 0.4208 0.4275
1303.000000 0.4307 0.4336 0.4361 0.4400 0.4531
1308.000000 0.4680 0.4753 0.4800 0.4828 0.4819
1313.000000 0.4812 0.4789 0.4732 0.4652 0.4576
1318.000000 0.4504 0.4434 0.4362 0.4282 0.4203
1323.000000 0.4129 0.4057 0.4004 0.3960 0.3917
1328.000000 0.3899 0.3887 0.3878 0.3889 0.3893
1333.000000 0.3947 0.4000 0.4053 0.4107 0.4160
1338.000000 0.4213 0.4243 0.4241 0.4239 0.4244
1343.000000 0.4292 0.4392 0.4448 0.4489 0.4529
1348.000000 0.4549 0.4548 0.4587 0.4404 0.4295
1353.000000 0.4186 0.4078 0.3970 0.3861 0.3754
1358.000000 0.3646 0.3539 0.3431 0.3326 0.3278
1363.000000 0.3280 0.3321 0.3411 0.3503 0.3586
1368.000000 0.3609 0.3560 0.3460 0.3358 0.3257
1373.000000 0.3155 0.3053 0.2951 0.2850 0.2749
1378.000000 0.2648 0.2618 0.2611 0.2608 0.2619
1383.000000 0.2675 0.2723 0.2762 0.2797 0.2904
1388.000000 0.3137 0.3386 0.3635 0.3884 0.4128
1393.000000 0.4137 0.4140 0.4139 0.4135 0.4131
1398.000000 0.4127 0.4138 0.4117 0.4113 0.4108
1403.000000 0.4104 0.4092 0.4076 0.4060 0.4031
1408.000000 0.3989 0.3948 0.3899 0.3844 0.3789
1413.000000 0.3734 0.3677 0.3617 0.3558 0.3494
1418.000000 0.3420 0.3345 0.3269 0.3182 0.3041
1423.000000 0.2907 0.2813 0.2731 0.2677 0.2659
1428.000000 0.2658 0.2681 0.2743 0.2818 0.2892
1433.000000 0.2966 0.3041 0.3115 0.3188 0.3240
1438.000000 0.3241 0.3243 0.3240 0.3262 0.3227
1443.000000 0.3208 0.3178 0.3148 0.3109 0.3069
1448.000000 0.3028 0.2984 0.2940 0.2899 0.2878
1453.000000 0.2877 0.2880 0.2882 0.2854 0.2887
1458.000000 0.2891 0.2904 0.2943 0.3041 0.3156
1463.000000 0.3269 0.3383 0.3496 0.3610 0.3723
1468.000000 0.3836 0.3949 0.4062 0.4174 0.4287
1473.000000 0.4399 0.4511 0.4621 0.4704 0.4744
1478.000000 0.4761 0.4769 0.4768 0.4765 0.4756
1483.000000 0.4706 0.4613 0.4521 0.4428 0.4337
1488.000000 0.4244 0.4153 0.4061 0.3969 0.3878
1493.000000 0.3786 0.3695 0.3604 0.3513 0.3422
1498.000000 0.3332 0.3241 0.3151 0.3060 0.2970
1503.000000 0.2880 0.2790 0.2700 0.2610 0.2520
1508.000000 0.2431 0.2341 0.2252 0.2163 0.2074
1513.000000 0.2002 0.1942 0.1882 0.1813 0.1743
1518.000000 0.1672 0.1603 0.1533 0.1463 0.1390
1523.000000 0.1309 0.1226 0.1153 0.1099 0.1052
1528.000000 0.1005 0.0958 0.0912 0.0875 0.0837
1533.000000 0.0800 0.0762 0.0730 0.0708 0.0686
1538.000000 0.0664 0.0642 0.0620 0.0609 0.0607
1543.000000 0.0605 0.0609 0.0616 0.0613 0.0646
1548.000000 0.0670 0.0710 0.0783 0.0937 0.1091
1553.000000 0.1245 0.1398 0.1552 0.1705 0.1858
1558.000000 0.2012 0.2164 0.2316 0.2469 0.2621
1563.000000 0.2773 0.2925 0.3076 0.3228 0.3379
1568.000000 0.3525 0.3672 0.3762 0.3813 0.3835
1573.000000 0.3842 0.3841 0.3838 0.3863 0.3829
1578.000000 0.3825 0.3817 0.3808 0.3798 0.3788
1583.000000 0.3773 0.3753 0.3734 0.3714 0.3693
1588.000000 0.3658 0.3617 0.3576 0.3523 0.3445
1593.000000 0.3357 0.3257 0.3150 0.3026 0.2884
1598.000000 0.2739 0.2595 0.2451 0.2306 0.2162
1603.000000 0.2018 0.1875 0.1731 0.1588 0.1444
1608.000000 0.1301 0.1159 0.1017 0.0892 0.0819
1613.000000 0.0725 0.0612 0.0498 0.0402 0.0389
1618.000000 0.0378 0.0367 0.0356 0.0353 0.0355
1623.000000 0.0319 0.0365 0.0382 0.0406 0.0433
1628.000000 0.0463 0.0497 0.0531 0.0566 0.0599
1633.000000 0.0632 0.0661 0.0675 0.0691 0.0729
1638.000000 0.0785 0.0916 0.1019 0.1084 0.1137
1643.000000 0.1185 0.1232 0.1282 0.1331 0.1377
1648.000000 0.1392 0.1405 0.1420 0.1434 0.1444
1653.000000 0.1448 0.1448 0.1452 0.1448 0.1446
1658.000000 0.1439 0.1429 0.1420 0.1410 0.1390
1663.000000 0.1368 0.1346 0.1321 0.1291 0.1259
1668.000000 0.1226 0.1182 0.1122 0.1062 0.1000
1673.000000 0.0939 0.0878 0.0813 0.0743 0.0672
1678.000000 0.0601 0.0527 0.0466 0.0451 0.0441
1683.000000 0.0433 0.0430 0.0430 0.0409 0.0430
1688.000000 0.0430 0.0430 0.0440 0.0454 0.0567
1693.000000 0.0726 0.0814 0.0882 0.0951 0.1040
1698.000000 0.1130 0.1353 0.1530 0.1571 0.1612
1703.000000 0.1652 0.1688 0.1724 0.1760 0.1799
1708.000000 0.1841 0.1882 0.1926 0.1971 0.2015
1713.000000 0.2063 0.2132 0.2215 0.2285 0.2339
1718.000000 0.2392 0.2417 0.2433 0.2449 0.2465
1723.000000 0.2481 0.2497 0.2518 0.2540 0.2564
1728.000000 0.2587 0.2618 0.2719 0.2789 0.2837
1733.000000 0.2876 0.2980 0.3241 0.3529 0.3815
1738.000000 0.4103 0.4323 0.4453 0.4540 0.4628
1743.000000 0.4715 0.4871 0.5045 0.5179 0.5291
1748.000000 0.5409 0.5535 0.5665 0.5831 0.6070
1753.000000 0.6167 0.6222 0.6269 0.6316 0.6363
1758.000000 0.6410 0.6457 0.6506 0.6556 0.6605
1763.000000 0.6654 0.6704 0.6752 0.6796 0.6838
1768.000000 0.6880 0.6922 0.6964 0.6999 0.7026
1773.000000 0.7049 0.7072 0.7096 0.7119 0.7142
1778.000000 0.7165 0.7188 0.7206 0.7220 0.7233
1783.000000 0.7246 0.7260 0.7274 0.7285 0.7291
1788.000000 0.7297 0.7302 0.7308 0.7314 0.7320
1793.000000 0.7325 0.7331 0.7336 0.7343 0.7348
1798.000000 0.7352 0.7355 0.7357 0.7359 0.7361
1803.000000 0.7363 0.7365 0.7366 0.7369 0.7371
1808.000000 0.7373 0.7375 0.7377 0.7376 0.7375
1813.000000 0.7373 0.7371 0.7369 0.7375 0.7365
1818.000000 0.7364 0.7362 0.7360 0.7358 0.7356
1823.000000 0.7351 0.7346 0.7341 0.7335 0.7330
1828.000000 0.7325 0.7320 0.7314 0.7309 0.7304
1833.000000 0.7299 0.7293 0.7288 0.7283 0.7278
1838.000000 0.7272 0.7265 0.7259 0.7253 0.7247
1843.000000 0.7241 0.7234 0.7229 0.7222 0.7216
1848.000000 0.7210 0.7203 0.7197 0.7190 0.7182
1853.000000 0.7170 0.7158 0.7147 0.7135 0.7124
1858.000000 0.7113 0.7101 0.7090 0.7079 0.7068
1863.000000 0.7056 0.7045 0.7033 0.7020 0.7008
1868.000000 0.6997 0.6985 0.6973 0.6961 0.6948
1873.000000 0.6937 0.6925 0.6913 0.6901 0.6889
1878.000000 0.6878 0.6869 0.6861 0.6853 0.6846
1883.000000 0.6839 0.6831 0.6823 0.6816 0.6809
1888.000000 0.6801 0.6793 0.6786 0.6778 0.6770
1893.000000 0.6762 0.6754 0.6746 0.6738 0.6730
1898.000000 0.6722 0.6713 0.6705 0.6697 0.6689
1903.000000 0.6681 0.6673 0.6665 0.6657 0.6649
1908.000000 0.6645 0.6641 0.6637 0.6633 0.6629
1913.000000 0.6625 0.6620 0.6616 0.6612 0.6608
1918.000000 0.6604 0.6600 0.6597 0.6593 0.6589
1923.000000 0.6585 0.6581 0.6554 0.6578 0.6578
1928.000000 0.6577 0.6577 0.6576 0.6575 0.6575
1933.000000 0.6575 0.6574 0.6573 0.6573 0.6573
1938.000000 0.6572 0.6572 0.6571 0.6570 0.6570
1943.000000 0.6570 0.6570 0.6569 0.6569 0.6571
1948.000000 0.6573 0.6575 0.6577 0.6579 0.6581
1953.000000 0.6583 0.6585 0.6586 0.6588 0.6590
1958.000000 0.6592 0.6594 0.6596 0.6598 0.6600
1963.000000 0.6602 0.6604 0.6606 0.6608 0.6610
1968.000000 0.6613 0.6616 0.6618 0.6622 0.6625
1973.000000 0.6627 0.6630 0.6633 0.6636 0.6639
1978.000000 0.6642 0.6644 0.6647 0.6651 0.6653
1983.000000 0.6656 0.6659 0.6662 0.6664 0.6668
1988.000000 0.6670 0.6673 0.6676 0.6679 0.6682
1993.000000 0.6685 0.6688 0.6691 0.6693 0.6696
1998.000000 0.6699 0.6702 0.6706 0.6708 0.6711
2003.000000 0.6714 0.6717 0.6720 0.6722 0.6725
2008.000000 0.6728 0.6731 0.6735 0.6739 0.6742
2013.000000 0.6745 0.6748 0.6751 0.6755 0.6758
2018.000000 0.6761 0.6765 0.6768 0.6771 0.6775
2023.000000 0.6779 0.6784 0.6790 0.6797 0.6804
2028.000000 0.6810 0.6817 0.6824 0.6830 0.6837
2033.000000 0.6844 0.6850 0.6857 0.6864 0.6870
2038.000000 0.6876 0.6882 0.6888 0.6894 0.6900
2043.000000 0.6905 0.6911 0.6916 0.6921 0.6926
2048.000000 0.6931 0.6936 0.6939 0.6943 0.6945
2053.000000 0.6946 0.6948 0.6950 0.6952 0.6953
2058.000000 0.6954 0.6956 0.6957 0.6958 0.6960
2063.000000 0.6961 0.6962 0.6963 0.6964 0.6966
2068.000000 0.6967 0.6973 0.6980 0.6988 0.6996
2073.000000 0.7004 0.7011 0.7019 0.7026 0.7034
2078.000000 0.7041 0.7047 0.7052 0.7053 0.7054
2083.000000 0.7054 0.7055 0.7056 0.7058 0.7059
2088.000000 0.7059 0.7060 0.7061 0.7062 0.7063
2093.000000 0.7065 0.7066 0.7066 0.7067 0.7068
2098.000000 0.7069 0.7070 0.7071 0.7072 0.7073
2103.000000 0.7074 0.7074 0.7075 0.7075 0.7076
2108.000000 0.7077 0.7077 0.7077 0.7077 0.7078
2113.000000 0.7078 0.7079 0.7079 0.7080 0.7081
2118.000000 0.7081 0.7082 0.7082 0.7083 0.7083
2123.000000 0.7084 0.7084 0.7084 0.7085 0.7085
2128.000000 0.7084 0.7084 0.7085 0.7084 0.7084
2133.000000 0.7084 0.7083 0.7083 0.7083 0.7083
2138.000000 0.7083 0.7082 0.7082 0.7082 0.7082
2143.000000 0.7080 0.7079 0.7077 0.7074 0.7072
2148.000000 0.7070 0.7068 0.7067 0.7065 0.7063
2153.000000 0.7061 0.7059 0.7057 0.7055 0.7054
2158.000000 0.7051 0.7049 0.7047 0.7045 0.7044
2163.000000 0.7041 0.7038 0.7035 0.7033 0.7030
2168.000000 0.7026 0.7024 0.7021 0.7018 0.7016
2173.000000 0.7012 0.7009 0.7007 0.7004 0.7001
2178.000000 0.6998 0.6995 0.6992 0.6990 0.6987
2183.000000 0.6984 0.6981 0.6977 0.6975 0.6972
2188.000000 0.6969 0.6966 0.6963 0.6960 0.6957
2193.000000 0.6953 0.6950 0.6947 0.6943 0.6939
2198.000000 0.6935 0.6930 0.6926 0.6921 0.6917
2203.000000 0.6913 0.6909 0.6905 0.6901 0.6897
2208.000000 0.6892 0.6888 0.6884 0.6880 0.6876
2213.000000 0.6872 0.6867 0.6862 0.6857 0.6852
2218.000000 0.6847 0.6841 0.6836 0.6831 0.6826
2223.000000 0.6821 0.6816 0.6810 0.6804 0.6799
2228.000000 0.6794 0.6789 0.6784 0.6779 0.6773
2233.000000 0.6768 0.6763 0.6758 0.6753 0.6748
2238.000000 0.6742 0.6737 0.6732 0.6726 0.6719
2243.000000 0.6711 0.6703 0.6694 0.6686 0.6678
2248.000000 0.6669 0.6661 0.6653 0.6645 0.6637
2253.000000 0.6628 0.6620 0.6612 0.6603 0.6595
2258.000000 0.6586 0.6578 0.6570 0.6561 0.6553
2263.000000 0.6545 0.6537 0.6529 0.6521 0.6513
2268.000000 0.6504 0.6495 0.6486 0.6476 0.6467
2273.000000 0.6457 0.6448 0.6439 0.6429 0.6419
2278.000000 0.6410 0.6401 0.6391 0.6382 0.6373
2283.000000 0.6363 0.6354 0.6344 0.6332 0.6319
2288.000000 0.6304 0.6288 0.6271 0.6254 0.6238
2293.000000 0.6221 0.6204 0.6188 0.6172 0.6156
2298.000000 0.6141 0.6127 0.6113 0.6100 0.6086
2303.000000 0.6072 0.6059 0.6045 0.6031 0.6017
2308.000000 0.6003 0.5989 0.5976 0.5962 0.5947
2313.000000 0.5933 0.5918 0.5903 0.5887 0.5872
2318.000000 0.5857 0.5842 0.5828 0.5813 0.5802
2323.000000 0.5791 0.5780 0.5770 0.5759 0.5748
2328.000000 0.5738 0.5727 0.5717 0.5706 0.5694
2333.000000 0.5686 0.5677 0.5670 0.5663 0.5657
2338.000000 0.5651 0.5645 0.5639 0.5632 0.5626
2343.000000 0.5620 0.5613 0.5607 0.5601 0.5595
2348.000000 0.5591 0.5587 0.5584 0.5581 0.5577
2353.000000 0.5573 0.5570 0.5566 0.5562 0.5559
2358.000000 0.5555 0.5552 0.5548 0.5544 0.5541
2363.000000 0.5537 0.5535 0.5533 0.5531 0.5528
2368.000000 0.5526 0.5524 0.5519 0.5510 0.5501
2373.000000 0.5491 0.5481 0.5471 0.5462 0.5448
2378.000000 0.5432 0.5416 0.5397 0.5379 0.5358
2383.000000 0.5337 0.5315 0.5292 0.5269 0.5246
2388.000000 0.5223 0.5204 0.5185 0.5165 0.5146
2393.000000 0.5127 0.5108 0.5090 0.5070 0.5051
2398.000000 0.5033 0.5014 0.4998 0.4982 0.4966
2403.000000 0.4951 0.4935 0.4920 0.4905 0.4889
2408.000000 0.4874 0.4859 0.4844 0.4828 0.4813
2413.000000 0.4797 0.4782 0.4767 0.4753 0.4738
2418.000000 0.4724 0.4712 0.4700 0.4689 0.4677
2423.000000 0.4665 0.4653 0.4641 0.4630 0.4618
2428.000000 0.4606 0.4594 0.4582 0.4571 0.4559
2433.000000 0.4548 0.4536 0.4524 0.4512 0.4500
2438.000000 0.4489 0.4478 0.4467 0.4457 0.4446
2443.000000 0.4436 0.4425 0.4415 0.4404 0.4394
2448.000000 0.4384 0.4373 0.4363 0.4352 0.4342
2453.000000 0.4332 0.4321 0.4311 0.4300 0.4290
2458.000000 0.4280 0.4272 0.4266 0.4260 0.4255
2463.000000 0.4250 0.4245 0.4241 0.4236 0.4231
2468.000000 0.4226 0.4222 0.4217 0.4212 0.4207
2473.000000 0.4203 0.4198 0.4193 0.4188 0.4184
2478.000000 0.4179 0.4174 0.4169 0.4165 0.4160
2483.000000 0.4156 0.4152 0.4148 0.4145 0.4142
2488.000000 0.4139 0.4137 0.4135 0.4132 0.4129
2493.000000 0.4126 0.4123 0.4121 0.4118 0.4115
2498.000000 0.4112 0.4109 0.4107 0.4104 0.4101
2503.000000 0.4098 0.4095 0.4093 0.4090 0.4087
2508.000000 0.4084 0.4081 0.4079 0.4076 0.4073
2513.000000 0.4070 0.4068 0.4066 0.4063 0.4061
2518.000000 0.4059 0.4057 0.4055 0.4053 0.4050
2523.000000 0.4048 0.4046 0.4044 0.4042 0.4039
2528.000000 0.4037 0.4035 0.4033 0.4032 0.4030
2533.000000 0.4028 0.4027 0.4026 0.4025 0.4024
2538.000000 0.4023 0.4021 0.4020 0.4019 0.4018
2543.000000 0.4017 0.4016 0.4014 0.4013 0.4012
2548.000000 0.4011 0.4010 0.4009 0.4008 0.4006
2553.000000 0.4005 0.4004 0.4003 0.4002 0.4001
2558.000000 0.3999 0.3998 0.3997 0.3996 0.3992
2563.000000 0.3994 0.3993 0.3991 0.3990 0.3989
2568.000000 0.3989 0.3989 0.3989 0.3989 0.3989
2573.000000 0.3990 0.3991 0.3992 0.3992 0.3992
2578.000000 0.3993 0.3994 0.3995 0.3995 0.3995
2583.000000 0.3998 0.4005 0.4011 0.4018 0.4025
2588.000000 0.4032 0.4038 0.4044 0.4051 0.4057
2593.000000 0.4064 0.4071 0.4077 0.4083 0.4093
2598.000000 0.4102 0.4114 0.4130 0.4146 0.4162
2603.000000 0.4179 0.4195 0.4209 0.4224 0.4238
2608.000000 0.4253 0.4268 0.4281 0.4291 0.4301
2613.000000 0.4307 0.4310 0.4313 0.4317 0.4320
2618.000000 0.4323 0.4327 0.4331 0.4333 0.4335
2623.000000 0.4337 0.4337 0.4337 0.4337 0.4337
2628.000000 0.4337 0.4336 0.4336 0.4336 0.4336
2633.000000 0.4336 0.4336 0.4335 0.4335 0.4335
2638.000000 0.4335 0.4335 0.4335 0.4333 0.4331
2643.000000 0.4329 0.4327 0.4325 0.4324 0.4322
2648.000000 0.4320 0.4319 0.4317 0.4316 0.4314
2653.000000 0.4312 0.4310 0.4309 0.4307 0.4305
2658.000000 0.4303 0.4302 0.4299 0.4296 0.4294
2663.000000 0.4290 0.4287 0.4283 0.4280 0.4276
2668.000000 0.4273 0.4269 0.4266 0.4262 0.4259
2673.000000 0.4256 0.4253 0.4249 0.4246 0.4242
2678.000000 0.4238 0.4234 0.4229 0.4224 0.4219
2683.000000 0.4213 0.4208 0.4203 0.4198 0.4193
2688.000000 0.4188 0.4183 0.4178 0.4173 0.4168
2693.000000 0.4162 0.4157 0.4151 0.4144 0.4138
2698.000000 0.4130 0.4122 0.4115 0.4107 0.4100
2703.000000 0.4092 0.4085 0.4077 0.4070 0.4062
2708.000000 0.4054 0.4045 0.4036 0.4027 0.4018
2713.000000 0.4009 0.4000 0.3992 0.3983 0.3974
2718.000000 0.3965 0.3957 0.3948 0.3942 0.3937
2723.000000 0.3931 0.3926 0.3920 0.3914 0.3909
2728.000000 0.3903 0.3898 0.3892 0.3887 0.3881
2733.000000 0.3874 0.3867 0.3859 0.3852 0.3844
2738.000000 0.3836 0.3829 0.3823 0.3816 0.3810
2743.000000 0.3803 0.3797 0.3790 0.3784 0.3777
2748.000000 0.3771 0.3765 0.3758 0.3752 0.3745
2753.000000 0.3739 0.3732 0.3725 0.3719 0.3711
2758.000000 0.3702 0.3694 0.3685 0.3676 0.3667
2763.000000 0.3659 0.3650 0.3642 0.3633 0.3625
2768.000000 0.3616 0.3608 0.3599 0.3591 0.3581
2773.000000 0.3570 0.3558 0.3544 0.3523 0.3503
2778.000000 0.3482 0.3461 0.3440 0.3420 0.3399
2783.000000 0.3378 0.3358 0.3340 0.3322 0.3305
2788.000000 0.3290 0.3276 0.3261 0.3246 0.3232
2793.000000 0.3217 0.3202 0.3188 0.3174 0.3159
2798.000000 0.3145 0.3130 0.3115 0.3099 0.3083
2803.000000 0.3066 0.3046 0.3026 0.3005 0.2985
2808.000000 0.2965 0.2944 0.2924 0.2904 0.2884
2813.000000 0.2864 0.2844 0.2824 0.2803 0.2783
2818.000000 0.2763 0.2732 0.2693 0.2654 0.2615
2823.000000 0.2575 0.2536 0.2495 0.2446 0.2396
2828.000000 0.2346 0.2267 0.2186 0.2104 0.2049
2833.000000 0.2003 0.1956 0.1914 0.1875 0.1836
2838.000000 0.1801 0.1772 0.1744 0.1716 0.1688
2843.000000 0.1660 0.1631 0.1606 0.1580 0.1555
2848.000000 0.1533 0.1512 0.1491 0.1471 0.1450
2853.000000 0.1430 0.1409 0.1389 0.1368 0.1347
2858.000000 0.1327 0.1306 0.1286 0.1267 0.1249
2863.000000 0.1232 0.1214 0.1197 0.1179 0.1162
2868.000000 0.1145 0.1127 0.1110 0.1093 0.1076
2873.000000 0.1059 0.1044 0.1030 0.1017 0.1004
2878.000000 0.0993 0.0981 0.0970 0.0958 0.0947
2883.000000 0.0935 0.0924 0.0913 0.0902 0.0891
2888.000000 0.0879 0.0868 0.0856 0.0846 0.0835
2893.000000 0.0824 0.0814 0.0804 0.0795 0.0785
2898.000000 0.0775 0.0766 0.0756 0.0746 0.0736
2903.000000 0.0726 0.0718 0.0710 0.0703 0.0695
2908.000000 0.0691 0.0687 0.0682 0.0679 0.0676
2913.000000 0.0673 0.0670 0.0669 0.0667 0.0666
2918.000000 0.0664 0.0663 0.0661 0.0650 0.0662
2923.000000 0.0663 0.0664 0.0664 0.0665 0.0666
2928.000000 0.0667 0.0667 0.0668 0.0669 0.0670
2933.000000 0.0671 0.0672 0.0674 0.0675 0.0676
2938.000000 0.0678 0.0680 0.0681 0.0683 0.0686
2943.000000 0.0690 0.0693 0.0697 0.0701 0.0706
2948.000000 0.0710 0.0714 0.0719 0.0723 0.0729
2953.000000 0.0738 0.0746 0.0755 0.0765 0.0775
2958.000000 0.0785 0.0795 0.0805 0.0815 0.0825
2963.000000 0.0835 0.0846 0.0856 0.0867 0.0877
2968.000000 0.0887 0.0897 0.0910 0.0924 0.0937
2973.000000 0.0951 0.0968 0.0985 0.1001 0.1018
2978.000000 0.1036 0.1053 0.1071 0.1090 0.1109
2983.000000 0.1129 0.1152 0.1177 0.1201 0.1233
2988.000000 0.1303 0.1374 0.1444 0.1516 0.1590
2993.000000 0.1663 0.1737 0.1810 0.1883 0.1956
2998.000000 0.2029 0.2102 0.2175 0.2248 0.2321
3003.000000 0.2394 0.2467 0.2539 0.2612 0.2685
3008.000000 0.2758 0.2833 0.2911 0.2988 0.3066
3013.000000 0.3119 0.3171 0.3223 0.3271 0.3309
3018.000000 0.3347 0.3385 0.3409 0.3426 0.3443
3023.000000 0.3460 0.3477 0.3494 0.3511 0.3528
3028.000000 0.3545 0.3561 0.3578 0.3594 0.3608
3033.000000 0.3622 0.3637 0.3644 0.3651 0.3659
3038.000000 0.3666 0.3673 0.3681 0.3688 0.3695
3043.000000 0.3702 0.3710 0.3717 0.3724 0.3732
3048.000000 0.3739 0.3745 0.3749 0.3753 0.3757
3053.000000 0.3760 0.3764 0.3768 0.3772 0.3775
3058.000000 0.3779 0.3782 0.3786 0.3789 0.3793
3063.000000 0.3797 0.3800 0.3804 0.3807 0.3810
3068.000000 0.3817 0.3828 0.3839 0.3850 0.3881
3073.000000 0.3920 0.3958 0.3996 0.4028 0.4059
3078.000000 0.4090 0.4118 0.4133 0.4147 0.4162
3083.000000 0.4174 0.4185 0.4195 0.4205 0.4213
3088.000000 0.4219 0.4226 0.4232 0.4238 0.4244
3093.000000 0.4250 0.4256 0.4262 0.4269 0.4275
3098.000000 0.4281 0.4287 0.4292 0.4297 0.4302
3103.000000 0.4305 0.4308 0.4311 0.4314 0.4317
3108.000000 0.4319 0.4322 0.4325 0.4327 0.4330
3113.000000 0.4333 0.4335 0.4338 0.4341 0.4344
3118.000000 0.4347 0.4351 0.4355 0.4358 0.4362
3123.000000 0.4366 0.4370 0.4374 0.4377 0.4381
3128.000000 0.4384 0.4388 0.4391 0.4395 0.4399
3133.000000 0.4403 0.4410 0.4418 0.4426 0.4434
3138.000000 0.4445 0.4455 0.4466 0.4477 0.4488
3143.000000 0.4498 0.4509 0.4522 0.4537 0.4551
3148.000000 0.4566 0.4581 0.4596 0.4610 0.4625
3153.000000 0.4637 0.4647 0.4657 0.4666 0.4676
3158.000000 0.4685 0.4695 0.4704 0.4712 0.4718
3163.000000 0.4724 0.4729 0.4734 0.4736 0.4739
3168.000000 0.4741 0.4744 0.4746 0.4749 0.4751
3173.000000 0.4754 0.4756 0.4758 0.4761 0.4763
3178.000000 0.4766 0.4768 0.4771 0.4773 0.4776
3183.000000 0.4779 0.4782 0.4784 0.4785 0.4787
3188.000000 0.4788 0.4790 0.4790 0.4791 0.4792
3193.000000 0.4793 0.4793 0.4794 0.4795 0.4796
3198.000000 0.4796 0.4797 0.4798 0.4798 0.4799
3203.000000 0.4800 0.4801 0.4801 0.4797 0.4802
3208.000000 0.4803 0.4803 0.4804 0.4805 0.4806
3213.000000 0.4806 0.4806 0.4805 0.4803 0.4802
3218.000000 0.4801 0.4799 0.4797 0.4796 0.4794
3223.000000 0.4793 0.4791 0.4790 0.4788 0.4787
3228.000000 0.4785 0.4784 0.4782 0.4781 0.4779
3233.000000 0.4777 0.4776 0.4774 0.4773 0.4771
3238.000000 0.4770 0.4767 0.4764 0.4761 0.4758
3243.000000 0.4755 0.4751 0.4748 0.4744 0.4741
3248.000000 0.4737 0.4733 0.4729 0.4725 0.4722
3253.000000 0.4718 0.4715 0.4711 0.4708 0.4704
3258.000000 0.4700 0.4696 0.4691 0.4685 0.4680
3263.000000 0.4674 0.4667 0.4660 0.4653 0.4646
3268.000000 0.4639 0.4632 0.4625 0.4618 0.4610
3273.000000 0.4603 0.4595 0.4587 0.4580 0.4571
3278.000000 0.4563 0.4554 0.4545 0.4536 0.4527
3283.000000 0.4518 0.4509 0.4500 0.4491 0.4482
3288.000000 0.4473 0.4465 0.4456 0.4446 0.4437
3293.000000 0.4427 0.4417 0.4406 0.4395 0.4384
3298.000000 0.4373 0.4362 0.4351 0.4339 0.4328
3303.000000 0.4317 0.4306 0.4295 0.4283 0.4272
3308.000000 0.4258 0.4244 0.4231 0.4217 0.4202
3313.000000 0.4186 0.4170 0.4154 0.4138 0.4122
3318.000000 0.4106 0.4090 0.4074 0.4057 0.4040
3323.000000 0.4022 0.4005 0.3987 0.3969 0.3951
3328.000000 0.3933 0.3916 0.3898 0.3880 0.3862
3333.000000 0.3844 0.3816 0.3782 0.3749 0.3715
3338.000000 0.3681 0.3645 0.3609 0.3573 0.3537
3343.000000 0.3501 0.3465 0.3429 0.3393 0.3358
3348.000000 0.3322 0.3286 0.3251 0.3215 0.3179
3353.000000 0.3143 0.3108 0.3072 0.3036 0.3001
3358.000000 0.2965 0.2930 0.2894 0.2859 0.2823
3363.000000 0.2787 0.2752 0.2716 0.2681 0.2646
3368.000000 0.2610 0.2575 0.2562 0.2558 0.2554
3373.000000 0.2549 0.2546 0.2547 0.2548 0.2549
3378.000000 0.2550 0.2548 0.2553 0.2554 0.2555
3383.000000 0.2558 0.2578 0.2599 0.2619 0.2640
3388.000000 0.2666 0.2699 0.2732 0.2764 0.2797
3393.000000 0.2830 0.2863 0.2896 0.2928 0.2961
3398.000000 0.2994 0.3026 0.3059 0.3092 0.3124
3403.000000 0.3157 0.3190 0.3222 0.3255 0.3285
3408.000000 0.3316 0.3346 0.3377 0.3405 0.3430
3413.000000 0.3455 0.3479 0.3504 0.3526 0.3547
3418.000000 0.3568 0.3588 0.3609 0.3625 0.3642
3423.000000 0.3658 0.3675 0.3690 0.3703 0.3716
3428.000000 0.3730 0.3743 0.3754 0.3765 0.3776
3433.000000 0.3787 0.3798 0.3806 0.3815 0.3823
3438.000000 0.3832 0.3840 0.3849 0.3857 0.3866
3443.000000 0.3874 0.3884 0.3895 0.3906 0.3917
3448.000000 0.3927 0.3939 0.3951 0.3964 0.3976
3453.000000 0.3988 0.4000 0.4013 0.4025 0.4037
3458.000000 0.4050 0.4062 0.4074 0.4087 0.4099
3463.000000 0.4111 0.4124 0.4136 0.4149 0.4161
3468.000000 0.4174 0.4186 0.4198 0.4211 0.4223
3473.000000 0.4235 0.4247 0.4259 0.4272 0.4284
3478.000000 0.4296 0.4308 0.4320 0.4333 0.4345
3483.000000 0.4358 0.4371 0.4384 0.4397 0.4410
3488.000000 0.4425 0.4441 0.4456 0.4471 0.4486
3493.000000 0.4501 0.4517 0.4532 0.4547 0.4562
3498.000000 0.4577 0.4592 0.4607 0.4622 0.4637
3503.000000 0.4652 0.4667 0.4682 0.4697 0.4712
3508.000000 0.4726 0.4741 0.4755 0.4770 0.4784
3513.000000 0.4799 0.4813 0.4828 0.4842 0.4857
3518.000000 0.4871 0.4886 0.4900 0.4915 0.4941
3523.000000 0.4970 0.4998 0.5026 0.5055 0.5096
3528.000000 0.5139 0.5181 0.5224 0.5266 0.5283
3533.000000 0.5298 0.5312 0.5327 0.5342 0.5356
3538.000000 0.5371 0.5386 0.5401 0.5415 0.5430
3543.000000 0.5444 0.5459 0.5474 0.5488 0.5500
3548.000000 0.5511 0.5522 0.5533 0.5544 0.5555
3553.000000 0.5565 0.5576 0.5587 0.5597 0.5608
3558.000000 0.5619 0.5629 0.5640 0.5651 0.5661
3563.000000 0.5672 0.5683 0.5693 0.5704 0.5715
3568.000000 0.5725 0.5736 0.5746 0.5757 0.5771
3573.000000 0.5788 0.5805 0.5822 0.5839 0.5858
3578.000000 0.5878 0.5899 0.5919 0.5940 0.5960
3583.000000 0.5981 0.6001 0.6022 0.6042 0.6063
3588.000000 0.6085 0.6107 0.6129 0.6151 0.6173
3593.000000 0.6195 0.6217 0.6239 0.6261 0.6283
3598.000000 0.6301 0.6318 0.6336 0.6354 0.6371
3603.000000 0.6386 0.6400 0.6414 0.6428 0.6442
3608.000000 0.6456 0.6470 0.6484 0.6498 0.6512
3613.000000 0.6526 0.6540 0.6554 0.6568 0.6581
3618.000000 0.6595 0.6608 0.6621 0.6634 0.6647
3623.000000 0.6660 0.6673 0.6686 0.6698 0.6711
3628.000000 0.6724 0.6736 0.6749 0.6761 0.6774
3633.000000 0.6786 0.6799 0.6812 0.6824 0.6837
3638.000000 0.6850 0.6862 0.6875 0.6887 0.6900
3643.000000 0.6912 0.6925 0.6937 0.6950 0.6962
3648.000000 0.6975 0.6988 0.7000 0.7013 0.7025
3653.000000 0.7038 0.7050 0.7063 0.7075 0.7088
3658.000000 0.7100 0.7112 0.7125 0.7135 0.7144
3663.000000 0.7154 0.7163 0.7173 0.7182 0.7191
3668.000000 0.7199 0.7208 0.7216 0.7225 0.7233
3673.000000 0.7242 0.7250 0.7258 0.7267 0.7275
3678.000000 0.7283 0.7292 0.7300 0.7309 0.7317
3683.000000 0.7321 0.7324 0.7328 0.7332 0.7335
3688.000000 0.7339 0.7342 0.7345 0.7348 0.7351
3693.000000 0.7354 0.7357 0.7360 0.7363 0.7366
3698.000000 0.7369 0.7371 0.7373 0.7375 0.7377
3703.000000 0.7379 0.7381 0.7382 0.7383 0.7385
3708.000000 0.7386 0.7387 0.7389 0.7390 0.7392
3713.000000 0.7393 0.7394 0.7396 0.7397 0.7398
3718.000000 0.7400 0.7401 0.7402 0.7404 0.7405
3723.000000 0.7406 0.7408 0.7409 0.7411 0.7412
3728.000000 0.7412 0.7413 0.7414 0.7415 0.7416
3733.000000 0.7416 0.7416 0.7416 0.7416 0.7416
3738.000000 0.7416 0.7416 0.7416 0.7416 0.7416
3743.000000 0.7416 0.7416 0.7416 0.7416 0.7416
3748.000000 0.7416 0.7416 0.7416 0.7416 0.7416
3753.000000 0.7416 0.7416 0.7416 0.7416 0.7416
3758.000000 0.7416 0.7416 0.7413 0.7416 0.7416
3763.000000 0.7416 0.7416 0.7416 0.7416 0.7416
3768.000000 0.7416 0.7416 0.7416 0.7417 0.7417
3773.000000 0.7417 0.7417 0.7417 0.7417 0.7416
3778.000000 0.7416 0.7415 0.7415 0.7414 0.7414
3783.000000 0.7413 0.7413 0.7412 0.7411 0.7411
3788.000000 0.7410 0.7410 0.7410 0.7409 0.7409
3793.000000 0.7409 0.7408 0.7408 0.7407 0.7407
3798.000000 0.7406 0.7406 0.7405 0.7405 0.7404
3803.000000 0.7404 0.7403 0.7403 0.7402 0.7402
3808.000000 0.7401 0.7401 0.7400 0.7399 0.7399
3813.000000 0.7399 0.7398 0.7398 0.7398 0.7397
3818.000000 0.7397 0.7396 0.7396 0.7395 0.7395
3823.000000 0.7394 0.7394 0.7393 0.7393 0.7392
3828.000000 0.7392 0.7391 0.7390 0.7390 0.7389
3833.000000 0.7388 0.7388 0.7387 0.7386 0.7385
3838.000000 0.7384 0.7384 0.7383 0.7382 0.7381
3843.000000 0.7380 0.7379 0.7378 0.7378 0.7377
3848.000000 0.7376 0.7375 0.7374 0.7373 0.7373
3853.000000 0.7372 0.7371 0.7370 0.7369 0.7368
3858.000000 0.7368 0.7367 0.7366 0.7365 0.7364
3863.000000 0.7363 0.7362 0.7362 0.7361 0.7360
3868.000000 0.7359 0.7358 0.7357 0.7357 0.7356
3873.000000 0.7355 0.7354 0.7353 0.7352 0.7352
3878.000000 0.7351 0.7350 0.7350 0.7349 0.7348
3883.000000 0.7348 0.7347 0.7346 0.7345 0.7344
3888.000000 0.7344 0.7343 0.7342 0.7341 0.7340
3893.000000 0.7339 0.7339 0.7338 0.7337 0.7337
3898.000000 0.7336 0.7335 0.7335 0.7334 0.7333
3903.000000 0.7332 0.7331 0.7331 0.7330 0.7329
3908.000000 0.7328 0.7328 0.7327 0.7326 0.7326
3913.000000 0.7325 0.7324 0.7323 0.7323 0.7322
3918.000000 0.7321 0.7320 0.7320 0.7319 0.7318
3923.000000 0.7318 0.7317 0.7316 0.7315 0.7315
3928.000000 0.7314 0.7313 0.7312 0.7311 0.7311
3933.000000 0.7310 0.7309 0.7309 0.7308 0.7308
3938.000000 0.7307 0.7306 0.7305 0.7304 0.7303
3943.000000 0.7303 0.7302 0.7301 0.7301 0.7300
3948.000000 0.7299 0.7299 0.7298 0.7297 0.7296
3953.000000 0.7296 0.7295 0.7294 0.7293 0.7293
3958.000000 0.7292 0.7291 0.7291 0.7290 0.7289
3963.000000 0.7289 0.7288 0.7287 0.7286 0.7285
3968.000000 0.7285 0.7284 0.7283 0.7283 0.7282
3973.000000 0.7281 0.7281 0.7280 0.7279 0.7279
3978.000000 0.7278 0.7277 0.7276 0.7275 0.7275
3983.000000 0.7274 0.7274 0.7273 0.7272 0.7272
3988.000000 0.7271 0.7270 0.7269 0.7269 0.7268
3993.000000 0.7267 0.7266 0.7266 0.7265 0.7265
3998.000000 0.7264 0.7264 0.7264
##END=
