##TITLE=2-propene-2-arsonic acid
##JCAMP-DX=4.24
##DATA TYPE=INFRARED SPECTRUM
##CLASS=COBLENTZ III
##ORIGIN=DOW CHEMICAL COMPANY
##OWNER=Copyright (C) 1987 by the Coblentz Society
Collection (C) 2018 copyright by the U.S. Secretary of Commerce
on behalf of the United States of America. All rights reserved.
##DATE=1963/04/17
##NAMES=allylarsonic acid
##CAS REGISTRY NO=590-34-1
##MOLFORM=C3 H7 As O3
##SOURCE REFERENCE=COBLENTZ NO. 8164
##$NIST SOURCE=COBLENTZ
##$NIST IMAGE=cob8164
##SPECTROMETER/DATA SYSTEM=DOW KBr FOREPRISM-GRATING
##INSTRUMENT PARAMETERS=BLAZED AT 3.5, 12.0, 20.0 MICRON AND CHANGED AT 5.0, 7.5, 14.9 MICRON
##STATE=SOLID (SPLIT MULL), FLUOROLUBE FOR 3800-1330 CM^-^1, NUJOL FOR 1330-450 CM^-^1
$$ SPECTRAL FEATURE AT 1997 CM^-^1 IS AN ARTIFACT CAUSED BY GRATING CHANGE
##SAMPLING PROCEDURE=TRANSMISSION
##RESOLUTION=2
##DATA PROCESSING=DIGITIZED BY COBLENTZ SOCIETY (BATCH II) FROM HARD COPY
##XUNITS=1/CM
##YUNITS=TRANSMITTANCE
##XFACTOR=1.0
##YFACTOR=1
##FIRSTX=451
##LASTX=3800
##FIRSTY=0.8069
##MAXX=3800
##MINX=451
##MAXY=0.8998
##MINY=0.0231
##NPOINTS=3350
##XYDATA=(X++(Y..Y))
451.000000 0.8069 0.8097 0.8125 0.8152 0.8180
456.000000 0.8207 0.8224 0.8241 0.8258 0.8275
461.000000 0.8291 0.8305 0.8318 0.8332 0.8345
466.000000 0.8359 0.8371 0.8381 0.8391 0.8400
471.000000 0.8410 0.8420 0.8430 0.8440 0.8448
476.000000 0.8455 0.8461 0.8468 0.8475 0.8481
481.000000 0.8488 0.8495 0.8501 0.8508 0.8515
486.000000 0.8521 0.8528 0.8536 0.8543 0.8550
491.000000 0.8557 0.8564 0.8571 0.8578 0.8585
496.000000 0.8593 0.8600 0.8607 0.8614 0.8621
501.000000 0.8628 0.8635 0.8642 0.8649 0.8656
506.000000 0.8655 0.8660 0.8659 0.8657 0.8652
511.000000 0.8641 0.8630 0.8619 0.8608 0.8590
516.000000 0.8569 0.8549 0.8529 0.8509 0.8488
521.000000 0.8464 0.8441 0.8418 0.8395 0.8368
526.000000 0.8338 0.8308 0.8278 0.8240 0.8191
531.000000 0.8143 0.8094 0.8014 0.7932 0.7849
536.000000 0.7740 0.7621 0.7506 0.7400 0.7236
541.000000 0.7030 0.6824 0.6618 0.6412 0.6206
546.000000 0.6000 0.5779 0.5632 0.5531 0.5484
551.000000 0.5478 0.5485 0.5540 0.5714 0.5806
556.000000 0.6008 0.6211 0.6414 0.6616 0.6800
561.000000 0.6893 0.6924 0.6924 0.6925 0.6958
566.000000 0.6902 0.6873 0.6819 0.6763 0.6705
571.000000 0.6646 0.6587 0.6524 0.6461 0.6398
576.000000 0.6335 0.6272 0.6206 0.6141 0.6075
581.000000 0.6010 0.5959 0.5915 0.5870 0.5825
586.000000 0.5791 0.5761 0.5739 0.5720 0.5717
591.000000 0.5720 0.5723 0.5735 0.5764 0.5798
596.000000 0.5832 0.5878 0.5942 0.5992 0.6031
601.000000 0.6072 0.6124 0.6176 0.6227 0.6279
606.000000 0.6331 0.6382 0.6434 0.6486 0.6538
611.000000 0.6589 0.6641 0.6693 0.6744 0.6796
616.000000 0.6848 0.6900 0.6951 0.7003 0.7055
621.000000 0.7106 0.7158 0.7210 0.7261 0.7313
626.000000 0.7365 0.7417 0.7468 0.7520 0.7554
631.000000 0.7589 0.7626 0.7650 0.7675 0.7688
636.000000 0.7699 0.7710 0.7721 0.7732 0.7737
641.000000 0.7741 0.7745 0.7749 0.7752 0.7751
646.000000 0.7750 0.7750 0.7747 0.7745 0.7743
651.000000 0.7734 0.7725 0.7717 0.7708 0.7697
656.000000 0.7680 0.7664 0.7647 0.7629 0.7608
661.000000 0.7587 0.7566 0.7545 0.7515 0.7484
666.000000 0.7453 0.7421 0.7387 0.7352 0.7318
671.000000 0.7282 0.7237 0.7212 0.7196 0.7194
676.000000 0.7195 0.7186 0.7218 0.7238 0.7260
681.000000 0.7283 0.7307 0.7330 0.7355 0.7381
686.000000 0.7394 0.7405 0.7410 0.7413 0.7414
691.000000 0.7412 0.7416 0.7401 0.7390 0.7379
696.000000 0.7363 0.7347 0.7324 0.7288 0.7249
701.000000 0.7209 0.7165 0.7119 0.7073 0.7027
706.000000 0.6981 0.6919 0.6857 0.6790 0.6720
711.000000 0.6649 0.6515 0.6374 0.6255 0.6132
716.000000 0.6009 0.5857 0.5116 0.4580 0.4476
721.000000 0.4442 0.4457 0.4455 0.4487 0.4551
726.000000 0.4746 0.4966 0.5186 0.5405 0.5625
731.000000 0.5799 0.5818 0.5819 0.5822 0.5806
736.000000 0.5796 0.5780 0.5756 0.5725 0.5694
741.000000 0.5653 0.5608 0.5554 0.5500 0.5434
746.000000 0.5367 0.5288 0.5204 0.5117 0.5031
751.000000 0.4942 0.4853 0.4744 0.4624 0.4519
756.000000 0.4418 0.4320 0.4224 0.4128 0.3907
761.000000 0.3397 0.3002 0.2697 0.2392 0.2087
766.000000 0.1783 0.1478 0.0749 0.0520 0.0407
771.000000 0.0317 0.0246 0.0231 0.0262 0.0253
776.000000 0.0274 0.0297 0.0321 0.0351 0.0390
781.000000 0.0449 0.0526 0.0616 0.0716 0.0830
786.000000 0.0968 0.1140 0.1287 0.1433 0.1923
791.000000 0.2276 0.2630 0.2983 0.3337 0.3690
796.000000 0.4043 0.4397 0.4577 0.4714 0.4815
801.000000 0.4907 0.4951 0.4988 0.5010 0.5019
806.000000 0.5024 0.5025 0.5021 0.5027 0.4996
811.000000 0.4977 0.4956 0.4904 0.4791 0.4572
816.000000 0.4335 0.4097 0.3860 0.3573 0.3524
821.000000 0.3530 0.3546 0.3611 0.3679 0.3787
826.000000 0.3881 0.3962 0.4264 0.4432 0.4594
831.000000 0.4773 0.4929 0.5040 0.5151 0.5182
836.000000 0.5202 0.5218 0.5230 0.5252 0.5282
841.000000 0.5329 0.5407 0.5495 0.5644 0.5810
846.000000 0.5922 0.6022 0.6117 0.6209 0.6301
851.000000 0.6380 0.6449 0.6518 0.6572 0.6614
856.000000 0.6655 0.6697 0.6728 0.6758 0.6764
861.000000 0.6761 0.6763 0.6754 0.6737 0.6713
866.000000 0.6682 0.6631 0.6550 0.6464 0.6371
871.000000 0.6269 0.6163 0.6071 0.6001 0.5930
876.000000 0.5859 0.5791 0.5724 0.5651 0.5562
881.000000 0.5474 0.5388 0.5308 0.5228 0.5148
886.000000 0.5022 0.4916 0.4844 0.4772 0.4699
891.000000 0.4631 0.4562 0.4489 0.4403 0.4316
896.000000 0.4052 0.3873 0.3767 0.3551 0.3470
901.000000 0.3389 0.3309 0.3218 0.3120 0.3022
906.000000 0.2885 0.2745 0.2611 0.2477 0.2321
911.000000 0.2172 0.2047 0.1937 0.1843 0.1810
916.000000 0.1781 0.1770 0.1763 0.1766 0.1744
921.000000 0.1806 0.1858 0.1930 0.2012 0.2105
926.000000 0.2285 0.2477 0.2669 0.2749 0.2596
931.000000 0.2476 0.2355 0.2322 0.2321 0.2353
936.000000 0.2406 0.2421 0.2416 0.2415 0.2012
941.000000 0.1466 0.1361 0.1361 0.1380 0.1365
946.000000 0.1546 0.1613 0.1792 0.2322 0.2851
951.000000 0.3381 0.3911 0.4441 0.5096 0.5312
956.000000 0.5586 0.5789 0.5965 0.6142 0.6284
961.000000 0.6420 0.6551 0.6658 0.6745 0.6831
966.000000 0.6908 0.6983 0.7058 0.7120 0.7174
971.000000 0.7228 0.7282 0.7338 0.7400 0.7463
976.000000 0.7525 0.7587 0.7646 0.7704 0.7762
981.000000 0.7785 0.7805 0.7825 0.7839 0.7843
986.000000 0.7844 0.7836 0.7826 0.7811 0.7790
991.000000 0.7734 0.7659 0.7580 0.7371 0.7252
996.000000 0.7123 0.6982 0.6343 0.5702 0.5060
1001.000000 0.4954 0.4962 0.5825 0.6399 0.6974
1006.000000 0.7548 0.8072 0.8215 0.8332 0.8431
1011.000000 0.8492 0.8538 0.8571 0.8603 0.8619
1016.000000 0.8635 0.8651 0.8658 0.8665 0.8671
1021.000000 0.8678 0.8685 0.8689 0.8692 0.8696
1026.000000 0.8699 0.8702 0.8703 0.8703 0.8703
1031.000000 0.8702 0.8702 0.8702 0.8698 0.8699
1036.000000 0.8696 0.8693 0.8691 0.8688 0.8685
1041.000000 0.8682 0.8679 0.8676 0.8673 0.8670
1046.000000 0.8663 0.8654 0.8646 0.8637 0.8625
1051.000000 0.8602 0.8545 0.8485 0.8416 0.8336
1056.000000 0.8237 0.8125 0.8015 0.7911 0.7836
1061.000000 0.7828 0.7818 0.7910 0.8012 0.8114
1066.000000 0.8216 0.8319 0.8421 0.8519 0.8555
1071.000000 0.8578 0.8591 0.8604 0.8613 0.8619
1076.000000 0.8620 0.8620 0.8621 0.8621 0.8621
1081.000000 0.8622 0.8622 0.8623 0.8620 0.8617
1086.000000 0.8614 0.8639 0.8608 0.8605 0.8601
1091.000000 0.8595 0.8590 0.8584 0.8578 0.8572
1096.000000 0.8567 0.8560 0.8549 0.8537 0.8526
1101.000000 0.8515 0.8504 0.8489 0.8470 0.8452
1106.000000 0.8433 0.8415 0.8390 0.8366 0.8341
1111.000000 0.8325 0.8310 0.8296 0.8292 0.8291
1116.000000 0.8290 0.8290 0.8289 0.8289 0.8285
1121.000000 0.8279 0.8274 0.8266 0.8255 0.8244
1126.000000 0.8232 0.8219 0.8206 0.8193 0.8178
1131.000000 0.8163 0.8148 0.8132 0.8117 0.8102
1136.000000 0.8087 0.8073 0.8058 0.8043 0.8029
1141.000000 0.8014 0.8000 0.7985 0.7971 0.7957
1146.000000 0.7942 0.7928 0.7913 0.7898 0.7883
1151.000000 0.7868 0.7853 0.7839 0.7824 0.7809
1156.000000 0.7794 0.7779 0.7762 0.7742 0.7722
1161.000000 0.7702 0.7683 0.7663 0.7643 0.7623
1166.000000 0.7603 0.7576 0.7550 0.7523 0.7497
1171.000000 0.7469 0.7441 0.7412 0.7384 0.7355
1176.000000 0.7327 0.7298 0.7270 0.7240 0.7199
1181.000000 0.7158 0.7117 0.7076 0.7035 0.6987
1186.000000 0.6928 0.6869 0.6808 0.6746 0.6683
1191.000000 0.6623 0.6568 0.6514 0.6459 0.6404
1196.000000 0.6340 0.6276 0.6211 0.6146 0.6081
1201.000000 0.6016 0.5951 0.5886 0.5811 0.5735
1206.000000 0.5660 0.5585 0.5504 0.5424 0.5343
1211.000000 0.5262 0.5169 0.5072 0.4975 0.4873
1216.000000 0.4768 0.4663 0.4558 0.4453 0.4342
1221.000000 0.4231 0.4145 0.4072 0.3999 0.3902
1226.000000 0.3801 0.3709 0.3623 0.3537 0.3451
1231.000000 0.3365 0.3286 0.3220 0.3185 0.3181
1236.000000 0.3207 0.3196 0.3213 0.3249 0.3298
1241.000000 0.3404 0.3512 0.3620 0.3728 0.3835
1246.000000 0.3943 0.4051 0.4186 0.4309 0.4405
1251.000000 0.4540 0.4678 0.4780 0.4880 0.4970
1256.000000 0.5059 0.5148 0.5241 0.5373 0.5503
1261.000000 0.5626 0.5749 0.5873 0.5998 0.6115
1266.000000 0.6220 0.6325 0.6487 0.6646 0.6722
1271.000000 0.6797 0.6863 0.6908 0.6952 0.6997
1276.000000 0.7041 0.7085 0.7127 0.7170 0.7213
1281.000000 0.7263 0.7312 0.7347 0.7376 0.7404
1286.000000 0.7433 0.7461 0.7487 0.7510 0.7533
1291.000000 0.7546 0.7556 0.7561 0.7570 0.7552
1296.000000 0.7539 0.7526 0.7503 0.7479 0.7449
1301.000000 0.7405 0.7361 0.7314 0.7267 0.7202
1306.000000 0.7160 0.7157 0.7174 0.7185 0.7215
1311.000000 0.7358 0.7546 0.7643 0.7697 0.7729
1316.000000 0.7760 0.7782 0.7800 0.7819 0.7824
1321.000000 0.7828 0.7833 0.7838 0.7857 0.7833
1326.000000 0.7830 0.7827 0.7821 0.7812 0.7804
1331.000000 0.7796 0.7788 0.7776 0.7761 0.7746
1336.000000 0.7731 0.7716 0.7699 0.7683 0.7666
1341.000000 0.7654 0.7650 0.7646 0.7653 0.7660
1346.000000 0.7706 0.7758 0.7850 0.8028 0.8109
1351.000000 0.8190 0.8270 0.8345 0.8394 0.8436
1356.000000 0.8485 0.8544 0.8605 0.8673 0.8776
1361.000000 0.8825 0.8864 0.8885 0.8905 0.8917
1366.000000 0.8920 0.8920 0.8918 0.8910 0.8913
1371.000000 0.8911 0.8902 0.8892 0.8883 0.8872
1376.000000 0.8858 0.8842 0.8812 0.8783 0.8750
1381.000000 0.8711 0.8673 0.8632 0.8574 0.8516
1386.000000 0.8435 0.8343 0.8249 0.8148 0.8030
1391.000000 0.7892 0.7710 0.7489 0.7213 0.7049
1396.000000 0.7020 0.7025 0.7111 0.7368 0.7625
1401.000000 0.7882 0.7975 0.7999 0.8012 0.8030
1406.000000 0.8059 0.8103 0.8155 0.8219 0.8290
1411.000000 0.8317 0.8307 0.8308 0.8294 0.8265
1416.000000 0.8164 0.8047 0.7928 0.7815 0.7528
1421.000000 0.7047 0.6679 0.6679 0.6679 0.7122
1426.000000 0.7391 0.7480 0.7534 0.7593 0.8062
1431.000000 0.8495 0.8594 0.8666 0.8708 0.8749
1436.000000 0.8779 0.8807 0.8830 0.8798 0.8827
1441.000000 0.8812 0.8800 0.8793 0.8785 0.8778
1446.000000 0.8771 0.8765 0.8757 0.8749 0.8741
1451.000000 0.8724 0.8704 0.8697 0.8694 0.8693
1456.000000 0.8692 0.8692 0.8687 0.8672 0.8640
1461.000000 0.8600 0.8559 0.8527 0.8504 0.8482
1466.000000 0.8470 0.8458 0.8446 0.8441 0.8437
1471.000000 0.8433 0.8431 0.8428 0.8402 0.8360
1476.000000 0.8307 0.8257 0.8214 0.8176 0.8145
1481.000000 0.8118 0.8103 0.8087 0.8072 0.8060
1486.000000 0.8048 0.8036 0.8027 0.8021 0.8015
1491.000000 0.8010 0.8004 0.7998 0.7957 0.7920
1496.000000 0.7893 0.7876 0.7863 0.7851 0.7843
1501.000000 0.7834 0.7826 0.7822 0.7819 0.7817
1506.000000 0.7821 0.7825 0.7828 0.7822 0.7788
1511.000000 0.7750 0.7715 0.7681 0.7655 0.7637
1516.000000 0.7619 0.7607 0.7595 0.7583 0.7570
1521.000000 0.7555 0.7539 0.7509 0.7463 0.7404
1526.000000 0.7349 0.7305 0.7262 0.7230 0.7200
1531.000000 0.7175 0.7159 0.7142 0.7126 0.7110
1536.000000 0.7098 0.7087 0.7076 0.7066 0.7061
1541.000000 0.7057 0.7049 0.7033 0.7017 0.6996
1546.000000 0.6973 0.6951 0.6928 0.6921 0.6921
1551.000000 0.6940 0.6936 0.6946 0.6957 0.6967
1556.000000 0.6989 0.7015 0.7042 0.7069 0.7095
1561.000000 0.7115 0.7088 0.7059 0.7026 0.7011
1566.000000 0.7013 0.7017 0.7021 0.7026 0.7030
1571.000000 0.7034 0.7039 0.7044 0.7049 0.7055
1576.000000 0.7058 0.7060 0.7061 0.7061 0.7059
1581.000000 0.7057 0.7055 0.7053 0.7050 0.7048
1586.000000 0.7046 0.7043 0.7040 0.7037 0.7034
1591.000000 0.7031 0.7028 0.7024 0.7020 0.7015
1596.000000 0.7010 0.7005 0.7000 0.6995 0.6990
1601.000000 0.6983 0.6977 0.6971 0.6965 0.6958
1606.000000 0.6952 0.6946 0.6939 0.6931 0.6923
1611.000000 0.6914 0.6906 0.6898 0.6890 0.6881
1616.000000 0.6871 0.6861 0.6851 0.6840 0.6830
1621.000000 0.6816 0.6801 0.6785 0.6770 0.6753
1626.000000 0.6734 0.6701 0.6654 0.6603 0.6532
1631.000000 0.6448 0.6360 0.6266 0.6149 0.5982
1636.000000 0.5675 0.5034 0.4748 0.4730 0.5172
1641.000000 0.5775 0.6377 0.6943 0.6992 0.7010
1646.000000 0.7022 0.7032 0.7039 0.7041 0.7042
1651.000000 0.7042 0.7043 0.7043 0.7039 0.7036
1656.000000 0.7032 0.7029 0.7026 0.7023 0.7019
1661.000000 0.7015 0.7011 0.7008 0.7006 0.7003
1666.000000 0.7000 0.6998 0.7000 0.7003 0.7005
1671.000000 0.7008 0.7011 0.7013 0.7017 0.7019
1676.000000 0.7019 0.7020 0.7021 0.7023 0.7025
1681.000000 0.7026 0.7028 0.7029 0.7028 0.7027
1686.000000 0.7023 0.7015 0.6999 0.6980 0.6960
1691.000000 0.6948 0.6938 0.6940 0.6942 0.6947
1696.000000 0.6951 0.6956 0.6960 0.6965 0.6969
1701.000000 0.6961 0.6940 0.6918 0.6898 0.6886
1706.000000 0.6893 0.6899 0.6906 0.6912 0.6919
1711.000000 0.6927 0.6937 0.6948 0.6959 0.6970
1716.000000 0.6981 0.6991 0.6999 0.7004 0.7005
1721.000000 0.6996 0.6987 0.6987 0.7002 0.7000
1726.000000 0.7008 0.7016 0.7028 0.7039 0.7054
1731.000000 0.7070 0.7086 0.7101 0.7116 0.7131
1736.000000 0.7144 0.7144 0.7131 0.7118 0.7107
1741.000000 0.7097 0.7095 0.7094 0.7094 0.7095
1746.000000 0.7095 0.7096 0.7098 0.7099 0.7100
1751.000000 0.7101 0.7101 0.7102 0.7101 0.7100
1756.000000 0.7098 0.7097 0.7096 0.7095 0.7094
1761.000000 0.7094 0.7093 0.7093 0.7093 0.7093
1766.000000 0.7093 0.7093 0.7094 0.7103 0.7111
1771.000000 0.7117 0.7120 0.7114 0.7107 0.7098
1776.000000 0.7085 0.7084 0.7082 0.7081 0.7079
1781.000000 0.7078 0.7077 0.7076 0.7075 0.7074
1786.000000 0.7073 0.7071 0.7070 0.7069 0.7068
1791.000000 0.7068 0.7068 0.7067 0.7067 0.7066
1796.000000 0.7065 0.7065 0.7064 0.7063 0.7062
1801.000000 0.7062 0.7061 0.7060 0.7059 0.7059
1806.000000 0.7058 0.7057 0.7056 0.7056 0.7055
1811.000000 0.7054 0.7053 0.7052 0.7052 0.7051
1816.000000 0.7050 0.7049 0.7048 0.7046 0.7045
1821.000000 0.7044 0.7042 0.7041 0.7040 0.7038
1826.000000 0.7037 0.7036 0.7034 0.7033 0.7030
1831.000000 0.7028 0.7026 0.7023 0.7021 0.7018
1836.000000 0.7016 0.7014 0.7011 0.7009 0.7007
1841.000000 0.7003 0.6998 0.6992 0.6986 0.6980
1846.000000 0.6974 0.6967 0.6960 0.6952 0.6945
1851.000000 0.6938 0.6930 0.6923 0.6916 0.6909
1856.000000 0.6905 0.6901 0.6897 0.6893 0.6889
1861.000000 0.6885 0.6881 0.6877 0.6874 0.6872
1866.000000 0.6870 0.6868 0.6866 0.6855 0.6837
1871.000000 0.6818 0.6799 0.6780 0.6760 0.6741
1876.000000 0.6721 0.6702 0.6683 0.6663 0.6643
1881.000000 0.6622 0.6602 0.6582 0.6563 0.6544
1886.000000 0.6525 0.6510 0.6496 0.6482 0.6471
1891.000000 0.6471 0.6438 0.6484 0.6492 0.6501
1896.000000 0.6510 0.6520 0.6538 0.6556 0.6590
1901.000000 0.6626 0.6650 0.6672 0.6694 0.6714
1906.000000 0.6734 0.6747 0.6746 0.6756 0.6755
1911.000000 0.6754 0.6749 0.6742 0.6736 0.6729
1916.000000 0.6723 0.6716 0.6709 0.6702 0.6695
1921.000000 0.6687 0.6680 0.6673 0.6665 0.6657
1926.000000 0.6650 0.6643 0.6635 0.6628 0.6621
1931.000000 0.6613 0.6606 0.6599 0.6592 0.6584
1936.000000 0.6577 0.6570 0.6562 0.6555 0.6547
1941.000000 0.6539 0.6532 0.6524 0.6517 0.6509
1946.000000 0.6502 0.6494 0.6488 0.6484 0.6481
1951.000000 0.6477 0.6473 0.6469 0.6467 0.6467
1956.000000 0.6471 0.6475 0.6486 0.6500 0.6506
1961.000000 0.6497 0.6460 0.6423 0.6387 0.6352
1966.000000 0.6329 0.6308 0.6292 0.6279 0.6270
1971.000000 0.6263 0.6255 0.6243 0.6231 0.6216
1976.000000 0.6202 0.6184 0.6164 0.6146 0.6130
1981.000000 0.6114 0.6098 0.6082 0.6068 0.6056
1986.000000 0.6043 0.6031 0.6018 0.6006 0.5996
1991.000000 0.5987 0.5978 0.5963 0.5940 0.5890
1996.000000 0.5840 0.5807 0.5829 0.5866 0.5902
2001.000000 0.5922 0.5943 0.5943 0.5944 0.5944
2006.000000 0.5944 0.5943 0.5942 0.5940 0.5938
2011.000000 0.5936 0.5934 0.5932 0.5931 0.5929
2016.000000 0.5927 0.5925 0.5924 0.5922 0.5921
2021.000000 0.5917 0.5914 0.5911 0.5908 0.5903
2026.000000 0.5898 0.5891 0.5885 0.5877 0.5870
2031.000000 0.5861 0.5852 0.5839 0.5827 0.5816
2036.000000 0.5806 0.5795 0.5785 0.5775 0.5765
2041.000000 0.5755 0.5745 0.5735 0.5725 0.5714
2046.000000 0.5703 0.5692 0.5681 0.5670 0.5659
2051.000000 0.5648 0.5637 0.5626 0.5615 0.5601
2056.000000 0.5587 0.5571 0.5555 0.5539 0.5523
2061.000000 0.5507 0.5491 0.5475 0.5459 0.5446
2066.000000 0.5433 0.5420 0.5407 0.5394 0.5381
2071.000000 0.5368 0.5355 0.5342 0.5330 0.5317
2076.000000 0.5304 0.5289 0.5274 0.5258 0.5243
2081.000000 0.5227 0.5211 0.5195 0.5180 0.5164
2086.000000 0.5149 0.5132 0.5116 0.5099 0.5083
2091.000000 0.5066 0.5049 0.5032 0.5016 0.4999
2096.000000 0.4983 0.4966 0.4949 0.4931 0.4913
2101.000000 0.4894 0.4876 0.4858 0.4840 0.4821
2106.000000 0.4803 0.4785 0.4767 0.4749 0.4732
2111.000000 0.4714 0.4697 0.4680 0.4663 0.4645
2116.000000 0.4628 0.4610 0.4593 0.4576 0.4559
2121.000000 0.4541 0.4524 0.4508 0.4492 0.4476
2126.000000 0.4460 0.4444 0.4429 0.4413 0.4397
2131.000000 0.4381 0.4366 0.4350 0.4334 0.4318
2136.000000 0.4302 0.4284 0.4267 0.4248 0.4229
2141.000000 0.4210 0.4191 0.4172 0.4153 0.4133
2146.000000 0.4114 0.4095 0.4076 0.4055 0.4035
2151.000000 0.4015 0.3995 0.3974 0.3954 0.3933
2156.000000 0.3913 0.3893 0.3873 0.3854 0.3835
2161.000000 0.3816 0.3797 0.3778 0.3759 0.3739
2166.000000 0.3720 0.3701 0.3682 0.3663 0.3644
2171.000000 0.3625 0.3606 0.3587 0.3568 0.3547
2176.000000 0.3527 0.3505 0.3484 0.3462 0.3440
2181.000000 0.3418 0.3396 0.3374 0.3352 0.3328
2186.000000 0.3304 0.3279 0.3254 0.3229 0.3205
2191.000000 0.3180 0.3155 0.3128 0.3102 0.3074
2196.000000 0.3046 0.3018 0.2990 0.2962 0.2934
2201.000000 0.2908 0.2882 0.2857 0.2833 0.2809
2206.000000 0.2785 0.2760 0.2736 0.2712 0.2688
2211.000000 0.2664 0.2640 0.2617 0.2594 0.2571
2216.000000 0.2548 0.2525 0.2502 0.2479 0.2456
2221.000000 0.2433 0.2410 0.2385 0.2360 0.2331
2226.000000 0.2303 0.2274 0.2246 0.2218 0.2190
2231.000000 0.2163 0.2136 0.2114 0.2092 0.2070
2236.000000 0.2049 0.2027 0.2005 0.1983 0.1961
2241.000000 0.1939 0.1918 0.1897 0.1876 0.1856
2246.000000 0.1836 0.1815 0.1795 0.1774 0.1754
2251.000000 0.1734 0.1714 0.1693 0.1673 0.1652
2256.000000 0.1631 0.1609 0.1587 0.1565 0.1543
2261.000000 0.1521 0.1499 0.1477 0.1456 0.1436
2266.000000 0.1417 0.1399 0.1381 0.1363 0.1345
2271.000000 0.1327 0.1309 0.1291 0.1273 0.1255
2276.000000 0.1237 0.1219 0.1201 0.1183 0.1165
2281.000000 0.1147 0.1129 0.1111 0.1093 0.1075
2286.000000 0.1057 0.1038 0.1020 0.1004 0.0989
2291.000000 0.0974 0.0960 0.0945 0.0931 0.0916
2296.000000 0.0901 0.0891 0.0882 0.0873 0.0865
2301.000000 0.0856 0.0848 0.0839 0.0831 0.0822
2306.000000 0.0814 0.0806 0.0798 0.0790 0.0783
2311.000000 0.0776 0.0769 0.0762 0.0755 0.0751
2316.000000 0.0747 0.0742 0.0738 0.0733 0.0729
2321.000000 0.0724 0.0720 0.0715 0.0711 0.0707
2326.000000 0.0703 0.0700 0.0697 0.0695 0.0694
2331.000000 0.0694 0.0695 0.0695 0.0696 0.0696
2336.000000 0.0728 0.0697 0.0698 0.0699 0.0701
2341.000000 0.0703 0.0706 0.0708 0.0711 0.0713
2346.000000 0.0716 0.0719 0.0723 0.0726 0.0730
2351.000000 0.0733 0.0737 0.0742 0.0748 0.0753
2356.000000 0.0759 0.0764 0.0770 0.0776 0.0782
2361.000000 0.0788 0.0795 0.0803 0.0811 0.0819
2366.000000 0.0827 0.0836 0.0845 0.0855 0.0866
2371.000000 0.0876 0.0887 0.0898 0.0909 0.0921
2376.000000 0.0934 0.0946 0.0959 0.0971 0.0984
2381.000000 0.1000 0.1017 0.1037 0.1057 0.1077
2386.000000 0.1097 0.1123 0.1150 0.1176 0.1203
2391.000000 0.1230 0.1257 0.1281 0.1305 0.1327
2396.000000 0.1349 0.1371 0.1393 0.1415 0.1437
2401.000000 0.1460 0.1483 0.1506 0.1530 0.1554
2406.000000 0.1578 0.1601 0.1625 0.1649 0.1674
2411.000000 0.1699 0.1724 0.1749 0.1775 0.1801
2416.000000 0.1828 0.1854 0.1881 0.1917 0.1953
2421.000000 0.1994 0.2035 0.2069 0.2104 0.2135
2426.000000 0.2166 0.2196 0.2227 0.2244 0.2262
2431.000000 0.2279 0.2296 0.2313 0.2331 0.2348
2436.000000 0.2366 0.2383 0.2401 0.2423 0.2445
2441.000000 0.2469 0.2493 0.2512 0.2531 0.2544
2446.000000 0.2557 0.2570 0.2584 0.2597 0.2611
2451.000000 0.2622 0.2633 0.2643 0.2654 0.2664
2456.000000 0.2674 0.2684 0.2695 0.2706 0.2718
2461.000000 0.2736 0.2754 0.2773 0.2793 0.2803
2466.000000 0.2814 0.2824 0.2835 0.2843 0.2852
2471.000000 0.2853 0.2854 0.2854 0.2854 0.2852
2476.000000 0.2850 0.2849 0.2847 0.2844 0.2841
2481.000000 0.2838 0.2836 0.2832 0.2828 0.2823
2486.000000 0.2819 0.2814 0.2809 0.2803 0.2798
2491.000000 0.2792 0.2786 0.2780 0.2774 0.2767
2496.000000 0.2761 0.2753 0.2745 0.2737 0.2730
2501.000000 0.2722 0.2714 0.2703 0.2693 0.2682
2506.000000 0.2672 0.2661 0.2651 0.2640 0.2629
2511.000000 0.2617 0.2606 0.2593 0.2581 0.2568
2516.000000 0.2556 0.2543 0.2530 0.2516 0.2503
2521.000000 0.2489 0.2476 0.2463 0.2450 0.2436
2526.000000 0.2422 0.2408 0.2394 0.2380 0.2366
2531.000000 0.2352 0.2338 0.2324 0.2310 0.2296
2536.000000 0.2282 0.2268 0.2254 0.2241 0.2228
2541.000000 0.2215 0.2203 0.2190 0.2177 0.2164
2546.000000 0.2152 0.2139 0.2126 0.2113 0.2101
2551.000000 0.2088 0.2075 0.2062 0.2050 0.2037
2556.000000 0.2024 0.2011 0.1999 0.1986 0.1973
2561.000000 0.1960 0.1948 0.1935 0.1922 0.1909
2566.000000 0.1897 0.1884 0.1872 0.1860 0.1848
2571.000000 0.1836 0.1825 0.1813 0.1802 0.1790
2576.000000 0.1779 0.1767 0.1756 0.1744 0.1733
2581.000000 0.1721 0.1710 0.1698 0.1687 0.1675
2586.000000 0.1664 0.1652 0.1640 0.1628 0.1617
2591.000000 0.1605 0.1594 0.1582 0.1571 0.1560
2596.000000 0.1549 0.1538 0.1527 0.1516 0.1506
2601.000000 0.1495 0.1484 0.1473 0.1462 0.1451
2606.000000 0.1440 0.1429 0.1418 0.1407 0.1397
2611.000000 0.1386 0.1376 0.1365 0.1355 0.1344
2616.000000 0.1334 0.1323 0.1313 0.1302 0.1292
2621.000000 0.1282 0.1272 0.1263 0.1255 0.1246
2626.000000 0.1237 0.1228 0.1220 0.1211 0.1202
2631.000000 0.1193 0.1185 0.1176 0.1168 0.1160
2636.000000 0.1153 0.1146 0.1139 0.1132 0.1125
2641.000000 0.1118 0.1111 0.1104 0.1098 0.1092
2646.000000 0.1086 0.1079 0.1073 0.1066 0.1060
2651.000000 0.1054 0.1048 0.1041 0.1035 0.1029
2656.000000 0.1023 0.1018 0.1013 0.1008 0.1003
2661.000000 0.0998 0.0994 0.0989 0.0984 0.0979
2666.000000 0.0974 0.0969 0.0964 0.0959 0.0955
2671.000000 0.0951 0.0947 0.0943 0.0939 0.0935
2676.000000 0.0931 0.0927 0.0924 0.0920 0.0916
2681.000000 0.0912 0.0908 0.0906 0.0904 0.0902
2686.000000 0.0901 0.0899 0.0898 0.0896 0.0895
2691.000000 0.0893 0.0891 0.0889 0.0888 0.0886
2696.000000 0.0885 0.0883 0.0882 0.0880 0.0878
2701.000000 0.0877 0.0876 0.0875 0.0874 0.0873
2706.000000 0.0872 0.0871 0.0871 0.0870 0.0869
2711.000000 0.0868 0.0867 0.0866 0.0865 0.0864
2716.000000 0.0863 0.0862 0.0861 0.0860 0.0859
2721.000000 0.0858 0.0857 0.0856 0.0855 0.0854
2726.000000 0.0853 0.0852 0.0851 0.0850 0.0849
2731.000000 0.0848 0.0847 0.0846 0.0845 0.0844
2736.000000 0.0843 0.0842 0.0841 0.0839 0.0838
2741.000000 0.0837 0.0836 0.0835 0.0834 0.0833
2746.000000 0.0832 0.0831 0.0830 0.0829 0.0828
2751.000000 0.0827 0.0826 0.0826 0.0852 0.0825
2756.000000 0.0825 0.0825 0.0825 0.0825 0.0825
2761.000000 0.0825 0.0825 0.0825 0.0825 0.0824
2766.000000 0.0824 0.0824 0.0824 0.0824 0.0824
2771.000000 0.0824 0.0824 0.0824 0.0824 0.0824
2776.000000 0.0824 0.0825 0.0826 0.0827 0.0828
2781.000000 0.0829 0.0830 0.0831 0.0832 0.0833
2786.000000 0.0834 0.0835 0.0836 0.0837 0.0838
2791.000000 0.0839 0.0840 0.0841 0.0843 0.0844
2796.000000 0.0846 0.0847 0.0849 0.0850 0.0852
2801.000000 0.0853 0.0855 0.0856 0.0858 0.0859
2806.000000 0.0861 0.0862 0.0864 0.0865 0.0867
2811.000000 0.0870 0.0873 0.0876 0.0879 0.0882
2816.000000 0.0885 0.0888 0.0892 0.0895 0.0898
2821.000000 0.0901 0.0904 0.0907 0.0910 0.0913
2826.000000 0.0916 0.0919 0.0922 0.0925 0.0928
2831.000000 0.0931 0.0934 0.0938 0.0942 0.0946
2836.000000 0.0950 0.0954 0.0958 0.0962 0.0967
2841.000000 0.0971 0.0976 0.0981 0.0986 0.0991
2846.000000 0.0996 0.1001 0.1006 0.1011 0.1016
2851.000000 0.1021 0.1026 0.1031 0.1036 0.1041
2856.000000 0.1047 0.1053 0.1059 0.1065 0.1071
2861.000000 0.1077 0.1083 0.1089 0.1095 0.1101
2866.000000 0.1107 0.1113 0.1119 0.1125 0.1131
2871.000000 0.1137 0.1143 0.1149 0.1156 0.1162
2876.000000 0.1169 0.1176 0.1184 0.1191 0.1198
2881.000000 0.1205 0.1213 0.1220 0.1228 0.1236
2886.000000 0.1244 0.1251 0.1259 0.1267 0.1275
2891.000000 0.1282 0.1290 0.1298 0.1306 0.1313
2896.000000 0.1321 0.1329 0.1337 0.1344 0.1352
2901.000000 0.1360 0.1368 0.1376 0.1384 0.1392
2906.000000 0.1401 0.1409 0.1418 0.1426 0.1434
2911.000000 0.1442 0.1451 0.1459 0.1468 0.1476
2916.000000 0.1485 0.1493 0.1501 0.1509 0.1518
2921.000000 0.1526 0.1535 0.1543 0.1552 0.1561
2926.000000 0.1570 0.1579 0.1589 0.1599 0.1609
2931.000000 0.1618 0.1628 0.1638 0.1648 0.1657
2936.000000 0.1667 0.1677 0.1687 0.1697 0.1708
2941.000000 0.1718 0.1729 0.1739 0.1749 0.1755
2946.000000 0.1762 0.1768 0.1775 0.1781 0.1787
2951.000000 0.1791 0.1796 0.1798 0.1800 0.1799
2956.000000 0.1799 0.1795 0.1791 0.1787 0.1783
2961.000000 0.1778 0.1774 0.1770 0.1766 0.1762
2966.000000 0.1758 0.1753 0.1749 0.1743 0.1738
2971.000000 0.1732 0.1727 0.1721 0.1715 0.1710
2976.000000 0.1706 0.1706 0.1706 0.1708 0.1710
2981.000000 0.1715 0.1721 0.1732 0.1743 0.1796
2986.000000 0.1849 0.1929 0.2009 0.2067 0.2126
2991.000000 0.2171 0.2216 0.2258 0.2300 0.2336
2996.000000 0.2373 0.2405 0.2438 0.2464 0.2491
3001.000000 0.2511 0.2532 0.2552 0.2573 0.2593
3006.000000 0.2614 0.2631 0.2648 0.2659 0.2670
3011.000000 0.2681 0.2692 0.2703 0.2714 0.2725
3016.000000 0.2737 0.2747 0.2758 0.2768 0.2779
3021.000000 0.2789 0.2800 0.2814 0.2828 0.2849
3026.000000 0.2870 0.2893 0.2917 0.2940 0.2963
3031.000000 0.2984 0.3006 0.3027 0.3049 0.3070
3036.000000 0.3092 0.3114 0.3136 0.3157 0.3178
3041.000000 0.3197 0.3216 0.3235 0.3254 0.3273
3046.000000 0.3293 0.3312 0.3331 0.3350 0.3369
3051.000000 0.3388 0.3407 0.3426 0.3445 0.3464
3056.000000 0.3484 0.3505 0.3526 0.3547 0.3569
3061.000000 0.3590 0.3612 0.3633 0.3655 0.3676
3066.000000 0.3697 0.3718 0.3740 0.3761 0.3782
3071.000000 0.3803 0.3824 0.3845 0.3866 0.3887
3076.000000 0.3908 0.3929 0.3950 0.3971 0.3992
3081.000000 0.4012 0.4032 0.4052 0.4072 0.4091
3086.000000 0.4111 0.4130 0.4150 0.4169 0.4189
3091.000000 0.4212 0.4235 0.4264 0.4294 0.4323
3096.000000 0.4353 0.4382 0.4411 0.4439 0.4467
3101.000000 0.4494 0.4522 0.4549 0.4577 0.4604
3106.000000 0.4632 0.4662 0.4692 0.4722 0.4752
3111.000000 0.4782 0.4812 0.4842 0.4873 0.4906
3116.000000 0.4939 0.4973 0.5007 0.5040 0.5074
3121.000000 0.5108 0.5142 0.5165 0.5189 0.5211
3126.000000 0.5233 0.5255 0.5278 0.5300 0.5323
3131.000000 0.5345 0.5368 0.5390 0.5412 0.5434
3136.000000 0.5457 0.5479 0.5502 0.5525 0.5549
3141.000000 0.5577 0.5606 0.5634 0.5663 0.5691
3146.000000 0.5720 0.5748 0.5777 0.5805 0.5833
3151.000000 0.5862 0.5892 0.5921 0.5951 0.5981
3156.000000 0.6011 0.6040 0.6070 0.6100 0.6130
3161.000000 0.6159 0.6189 0.6218 0.6247 0.6273
3166.000000 0.6299 0.6325 0.6351 0.6377 0.6403
3171.000000 0.6429 0.6455 0.6481 0.6507 0.6532
3176.000000 0.6558 0.6584 0.6610 0.6637 0.6665
3181.000000 0.6693 0.6722 0.6750 0.6779 0.6807
3186.000000 0.6835 0.6863 0.6892 0.6916 0.6941
3191.000000 0.6963 0.6986 0.7008 0.7030 0.7052
3196.000000 0.7075 0.7097 0.7120 0.7142 0.7165
3201.000000 0.7187 0.7209 0.7231 0.7254 0.7276
3206.000000 0.7299 0.7322 0.7346 0.7370 0.7394
3211.000000 0.7417 0.7441 0.7465 0.7489 0.7512
3216.000000 0.7536 0.7559 0.7583 0.7606 0.7630
3221.000000 0.7651 0.7673 0.7694 0.7716 0.7737
3226.000000 0.7759 0.7781 0.7803 0.7824 0.7846
3231.000000 0.7873 0.7900 0.7929 0.7959 0.7988
3236.000000 0.8018 0.8040 0.8062 0.8083 0.8105
3241.000000 0.8126 0.8147 0.8168 0.8189 0.8211
3246.000000 0.8233 0.8255 0.8277 0.8299 0.8321
3251.000000 0.8342 0.8364 0.8384 0.8405 0.8425
3256.000000 0.8445 0.8465 0.8485 0.8505 0.8525
3261.000000 0.8540 0.8555 0.8566 0.8577 0.8587
3266.000000 0.8598 0.8609 0.8620 0.8630 0.8641
3271.000000 0.8652 0.8663 0.8674 0.8686 0.8697
3276.000000 0.8709 0.8720 0.8732 0.8743 0.8755
3281.000000 0.8766 0.8778 0.8789 0.8801 0.8812
3286.000000 0.8824 0.8836 0.8848 0.8858 0.8868
3291.000000 0.8876 0.8884 0.8892 0.8901 0.8909
3296.000000 0.8917 0.8925 0.8933 0.8940 0.8947
3301.000000 0.8950 0.8954 0.8957 0.8961 0.8964
3306.000000 0.8968 0.8971 0.8975 0.8978 0.8982
3311.000000 0.8984 0.8986 0.8987 0.8989 0.8990
3316.000000 0.8992 0.8993 0.8995 0.8995 0.8996
3321.000000 0.8996 0.8997 0.8997 0.8997 0.8997
3326.000000 0.8998 0.8998 0.8994 0.8998 0.8998
3331.000000 0.8997 0.8997 0.8996 0.8996 0.8995
3336.000000 0.8995 0.8994 0.8994 0.8993 0.8993
3341.000000 0.8992 0.8991 0.8989 0.8988 0.8986
3346.000000 0.8985 0.8983 0.8982 0.8980 0.8979
3351.000000 0.8977 0.8976 0.8974 0.8973 0.8970
3356.000000 0.8968 0.8966 0.8964 0.8961 0.8959
3361.000000 0.8957 0.8955 0.8952 0.8950 0.8948
3366.000000 0.8946 0.8943 0.8940 0.8936 0.8933
3371.000000 0.8930 0.8927 0.8924 0.8921 0.8917
3376.000000 0.8914 0.8911 0.8908 0.8904 0.8901
3381.000000 0.8898 0.8895 0.8892 0.8889 0.8885
3386.000000 0.8882 0.8879 0.8876 0.8873 0.8870
3391.000000 0.8867 0.8864 0.8861 0.8858 0.8854
3396.000000 0.8851 0.8847 0.8844 0.8840 0.8837
3401.000000 0.8833 0.8830 0.8826 0.8823 0.8819
3406.000000 0.8816 0.8812 0.8809 0.8805 0.8802
3411.000000 0.8798 0.8795 0.8791 0.8788 0.8784
3416.000000 0.8781 0.8777 0.8774 0.8770 0.8767
3421.000000 0.8763 0.8760 0.8756 0.8752 0.8748
3426.000000 0.8745 0.8741 0.8738 0.8734 0.8730
3431.000000 0.8726 0.8723 0.8719 0.8716 0.8712
3436.000000 0.8708 0.8704 0.8701 0.8697 0.8694
3441.000000 0.8690 0.8686 0.8682 0.8679 0.8675
3446.000000 0.8672 0.8669 0.8666 0.8663 0.8661
3451.000000 0.8658 0.8656 0.8653 0.8651 0.8648
3456.000000 0.8646 0.8643 0.8641 0.8638 0.8636
3461.000000 0.8633 0.8631 0.8629 0.8627 0.8624
3466.000000 0.8622 0.8618 0.8614 0.8607 0.8600
3471.000000 0.8593 0.8586 0.8579 0.8572 0.8568
3476.000000 0.8564 0.8561 0.8558 0.8555 0.8552
3481.000000 0.8548 0.8545 0.8542 0.8539 0.8536
3486.000000 0.8533 0.8530 0.8527 0.8524 0.8522
3491.000000 0.8520 0.8518 0.8516 0.8514 0.8512
3496.000000 0.8510 0.8507 0.8505 0.8503 0.8501
3501.000000 0.8499 0.8497 0.8495 0.8493 0.8491
3506.000000 0.8489 0.8488 0.8487 0.8487 0.8487
3511.000000 0.8487 0.8487 0.8486 0.8486 0.8486
3516.000000 0.8486 0.8486 0.8486 0.8485 0.8485
3521.000000 0.8485 0.8485 0.8485 0.8476 0.8484
3526.000000 0.8484 0.8484 0.8485 0.8486 0.8488
3531.000000 0.8489 0.8490 0.8491 0.8492 0.8493
3536.000000 0.8495 0.8496 0.8497 0.8498 0.8499
3541.000000 0.8500 0.8502 0.8503 0.8504 0.8505
3546.000000 0.8507 0.8508 0.8509 0.8510 0.8512
3551.000000 0.8514 0.8517 0.8519 0.8521 0.8523
3556.000000 0.8526 0.8528 0.8531 0.8533 0.8535
3561.000000 0.8537 0.8540 0.8542 0.8545 0.8547
3566.000000 0.8550 0.8552 0.8554 0.8556 0.8559
3571.000000 0.8564 0.8570 0.8575 0.8580 0.8585
3576.000000 0.8590 0.8595 0.8600 0.8605 0.8610
3581.000000 0.8615 0.8621 0.8626 0.8631 0.8637
3586.000000 0.8643 0.8650 0.8657 0.8664 0.8672
3591.000000 0.8679 0.8686 0.8693 0.8700 0.8707
3596.000000 0.8714 0.8721 0.8728 0.8732 0.8737
3601.000000 0.8741 0.8746 0.8750 0.8754 0.8758
3606.000000 0.8763 0.8767 0.8771 0.8775 0.8780
3611.000000 0.8784 0.8788 0.8790 0.8793 0.8794
3616.000000 0.8795 0.8796 0.8798 0.8799 0.8800
3621.000000 0.8801 0.8803 0.8803 0.8803 0.8802
3626.000000 0.8801 0.8800 0.8799 0.8798 0.8797
3631.000000 0.8796 0.8796 0.8798 0.8800 0.8802
3636.000000 0.8805 0.8811 0.8817 0.8825 0.8833
3641.000000 0.8831 0.8830 0.8820 0.8834 0.8802
3646.000000 0.8793 0.8780 0.8767 0.8756 0.8745
3651.000000 0.8742 0.8739 0.8740 0.8742 0.8747
3656.000000 0.8704 0.8770 0.8789 0.8810 0.8832
3661.000000 0.8850 0.8869 0.8871 0.8871 0.8873
3666.000000 0.8873 0.8869 0.8866 0.8845 0.8824
3671.000000 0.8791 0.8759 0.8735 0.8712 0.8702
3676.000000 0.8692 0.8684 0.8677 0.8670 0.8663
3681.000000 0.8656 0.8650 0.8644 0.8639 0.8635
3686.000000 0.8631 0.8626 0.8622 0.8618 0.8614
3691.000000 0.8608 0.8603 0.8597 0.8591 0.8585
3696.000000 0.8579 0.8573 0.8567 0.8561 0.8555
3701.000000 0.8549 0.8543 0.8538 0.8533 0.8528
3706.000000 0.8523 0.8517 0.8512 0.8507 0.8502
3711.000000 0.8497 0.8492 0.8487 0.8482 0.8476
3716.000000 0.8471 0.8465 0.8460 0.8454 0.8449
3721.000000 0.8444 0.8439 0.8433 0.8428 0.8422
3726.000000 0.8417 0.8411 0.8406 0.8400 0.8395
3731.000000 0.8390 0.8386 0.8381 0.8377 0.8372
3736.000000 0.8368 0.8363 0.8359 0.8354 0.8350
3741.000000 0.8345 0.8341 0.8336 0.8332 0.8327
3746.000000 0.8322 0.8316 0.8310 0.8304 0.8298
3751.000000 0.8291 0.8285 0.8279 0.8273 0.8267
3756.000000 0.8261 0.8254 0.8248 0.8242 0.8236
3761.000000 0.8229 0.8223 0.8216 0.8210 0.8202
3766.000000 0.8194 0.8185 0.8177 0.8169 0.8161
3771.000000 0.8153 0.8145 0.8137 0.8129 0.8123
3776.000000 0.8117 0.8114 0.8111 0.8108 0.8105
3781.000000 0.8102 0.8099 0.8093 0.8087 0.8080
3786.000000 0.8074 0.8064 0.8060 0.8043 0.8032
3791.000000 0.8022 0.8012 0.8001 0.7991 0.7981
3796.000000 0.7971 0.7960 0.7950 0.7947 0.7944
##END=
