##TITLE=ALLYL ACETATE
##JCAMP-DX=4.24
##DATA TYPE=INFRARED SPECTRUM
##CLASS=COBLENTZ
##ORIGIN=DOW CORNING CORP.
##OWNER=COBLENTZ SOCIETY
Collection (C) 2018 copyright by the U.S. Secretary of Commerce
on behalf of the United States of America. All rights reserved.
##DATE=Not specified, most likely prior to 1970
##CAS REGISTRY NO=591-87-7
##MOLFORM=C5 H8 O2
##SOURCE REFERENCE=COBLENTZ NO. 4793
##$NIST SOURCE=COBLENTZ
##$NIST IMAGE=cob4793
##SPECTROMETER/DATA SYSTEM=Not specified, most likely a grating or hybrid spectrometer.
##STATE=SOLUTION (10% IN CCl4 FOR 3800-1300, 2% IN CS2 FOR 1300-650, AND 10% CCl4 FOR 650-230 CM^-^1) VERSUS SOLVENT
##PATH LENGTH=0.011, 0.011, AND 0.011 CM (CsBr CELL)
##SAMPLING PROCEDURE=TRANSMISSION
##RESOLUTION=4
##DATA PROCESSING=DIGITIZED BY NIST FROM HARD COPY (FROM TWO SEGMENTS)
##XUNITS=1/CM
##YUNITS=TRANSMITTANCE
##XFACTOR=1.000000
##YFACTOR=1
##DELTAX=0.982535
##FIRSTX=235.371
##LASTX=3791.16
##FIRSTY=0.57
##MAXX=3791.16
##MINX=235.371
##MAXY=0.919
##MINY=0
##NPOINTS=3620
##XYDATA=(X++(Y..Y))
235.371000 0.5700 0.5700 0.5700 0.5700 0.5700
240.283674 0.5700 0.5690 0.5690 0.5670 0.5670
245.196348 0.5670 0.5670 0.5670 0.5670 0.5670
250.109022 0.5670 0.5690 0.5700 0.5710 0.5710
255.021696 0.5710 0.5730 0.5740 0.5750 0.5750
259.934370 0.5750 0.5750 0.5750 0.5750 0.5750
264.847044 0.5750 0.5750 0.5750 0.5750 0.5750
269.759718 0.5740 0.5740 0.5740 0.5740 0.5730
274.672392 0.5730 0.5730 0.5710 0.5710 0.5730
279.585065 0.5730 0.5740 0.5750 0.5770 0.5780
284.497739 0.5810 0.5820 0.5860 0.5890 0.5900
289.410413 0.5930 0.5950 0.5980 0.6040 0.6080
294.323087 0.6120 0.6130 0.6180 0.6210 0.6240
299.235761 0.6240 0.6250 0.6280 0.6290 0.6300
304.148435 0.6330 0.6370 0.6400 0.6410 0.6440
309.061109 0.6460 0.6490 0.6530 0.6570 0.6600
313.973783 0.6630 0.6640 0.6650 0.6670 0.6670
318.886457 0.6680 0.6690 0.6710 0.6720 0.6720
323.799131 0.6720 0.6710 0.6690 0.6690 0.6680
328.711805 0.6640 0.6590 0.6510 0.6440 0.6360
333.624479 0.6320 0.6300 0.6250 0.6220 0.6200
338.537153 0.6140 0.6130 0.6140 0.6180 0.6220
343.449827 0.6300 0.6370 0.6490 0.6560 0.6650
348.362501 0.6760 0.6800 0.6840 0.6949 0.7020
353.275175 0.7040 0.7100 0.7110 0.7120 0.7160
358.187849 0.7200 0.7230 0.7240 0.7260 0.7260
363.100523 0.7270 0.7270 0.7280 0.7280 0.7280
368.013196 0.7280 0.7280 0.7280 0.7280 0.7300
372.925870 0.7310 0.7310 0.7340 0.7350 0.7380
377.838544 0.7420 0.7440 0.7460 0.7500 0.7530
382.751218 0.7530 0.7530 0.7540 0.7550 0.7570
387.663892 0.7570 0.7580 0.7580 0.7580 0.7580
392.576566 0.7570 0.7570 0.7550 0.7550 0.7540
397.489240 0.7540 0.7530 0.7510 0.7500 0.7480
402.401914 0.7440 0.7420 0.7380 0.7310 0.7160
407.314588 0.7110 0.7100 0.7100 0.7110 0.7190
412.227262 0.7230 0.7280 0.7360 0.7430 0.7440
417.139936 0.7530 0.7590 0.7610 0.7620 0.7630
422.052610 0.7630 0.7650 0.7650 0.7650 0.7660
426.965284 0.7670 0.7670 0.7670 0.7660 0.7660
431.877958 0.7660 0.7660 0.7660 0.7660 0.7660
436.790632 0.7660 0.7660 0.7660 0.7660 0.7660
441.703306 0.7660 0.7660 0.7650 0.7650 0.7650
446.615980 0.7650 0.7650 0.7650 0.7630 0.7630
451.528654 0.7610 0.7580 0.7550 0.7540 0.7530
456.441327 0.7530 0.7530 0.7510 0.7510 0.7510
461.354001 0.7500 0.7500 0.7500 0.7500 0.7480
466.266675 0.7480 0.7500 0.7500 0.7510 0.7550
471.179349 0.7580 0.7610 0.7620 0.7630 0.7650
476.092023 0.7660 0.7670 0.7690 0.7710 0.7710
481.004697 0.7740 0.7750 0.7770 0.7810 0.7830
485.917371 0.7850 0.7860 0.7890 0.7900 0.7930
490.830045 0.7950 0.7980 0.8010 0.8060 0.8090
495.742719 0.8100 0.8120 0.8120 0.8130 0.8130
500.655393 0.8130 0.8130 0.8130 0.8140 0.8140
505.568067 0.8140 0.8140 0.8140 0.8140 0.8140
510.480741 0.8130 0.8130 0.8130 0.8120 0.8120
515.393415 0.8100 0.8090 0.8090 0.8080 0.8060
520.306089 0.8050 0.8040 0.8020 0.8000 0.7980
525.218763 0.7970 0.7950 0.7930 0.7900 0.7870
530.131437 0.7870 0.7850 0.7790 0.7770 0.7730
535.044111 0.7670 0.7630 0.7610 0.7590 0.7580
539.956785 0.7500 0.7440 0.7420 0.7390 0.7360
544.869458 0.7300 0.7270 0.7240 0.7240 0.7230
549.782132 0.7230 0.7240 0.7300 0.7340 0.7400
554.694806 0.7440 0.7480 0.7530 0.7570 0.7610
559.607480 0.7620 0.7630 0.7650 0.7650 0.7650
564.520154 0.7660 0.7660 0.7660 0.7660 0.7670
569.432828 0.7670 0.7670 0.7670 0.7690 0.7690
574.345502 0.7690 0.7670 0.7660 0.7630 0.7590
579.258176 0.7580 0.7540 0.7470 0.7400 0.7300
584.170850 0.7240 0.7120 0.7060 0.6960 0.6811
589.083524 0.6650 0.6510 0.6320 0.5871 0.5461
593.996198 0.5191 0.4931 0.4910 0.4920 0.5020
598.908872 0.5100 0.5180 0.5260 0.5320 0.5460
603.821546 0.5590 0.5650 0.5710 0.5820 0.5900
608.734220 0.5980 0.6100 0.6180 0.6250 0.6260
613.646894 0.6300 0.6340 0.6380 0.6420 0.6460
618.559568 0.6510 0.6550 0.6590 0.6630 0.6640
623.472242 0.6770 0.6810 0.6870 0.6880 0.6880
628.384916 0.6890 0.6890 0.6920 0.6990 0.7100
633.297589 0.7160 0.7310 0.7430 0.7470 0.7530
638.210263 0.7590 0.7630 0.7670 0.7790 0.7890
643.122937 0.7950 0.7970 0.8020 0.8080 0.8130
648.035611 0.8180 0.8240 0.8290 0.8340 0.8400
652.948285 0.8450 0.8510 0.8600 0.8610 0.8640
657.860959 0.8670 0.8680 0.8710 0.8720 0.8750
662.773633 0.8760 0.8770 0.8790 0.8800 0.8810
667.686307 0.8830 0.8830 0.8840 0.8870 0.8880
672.598981 0.8890 0.8890 0.8890 0.8910 0.8910
677.511655 0.8910 0.8910 0.8910 0.8910 0.8920
682.424329 0.8920 0.8920 0.8920 0.8930 0.8930
687.337003 0.8930 0.8930 0.8930 0.8950 0.8950
692.249677 0.8960 0.8960 0.8970 0.8990 0.8990
697.162351 0.9000 0.9020 0.9040 0.9070 0.9080
702.075025 0.9100 0.9110 0.9110 0.9110 0.9110
706.987699 0.9110 0.9110 0.9110 0.9110 0.9120
711.900373 0.9120 0.9120 0.9120 0.9120 0.9120
716.813047 0.9120 0.9120 0.9120 0.9120 0.9120
721.725720 0.9120 0.9120 0.9120 0.9120 0.9120
726.638394 0.9120 0.9120 0.9120 0.9120 0.9120
731.551068 0.9120 0.9120 0.9120 0.9140 0.9140
736.463742 0.9140 0.9140 0.9140 0.9140 0.9140
741.376416 0.9140 0.9140 0.9140 0.9140 0.9140
746.289090 0.9140 0.9140 0.9140 0.9140 0.9140
751.201764 0.9150 0.9150 0.9150 0.9150 0.9150
756.114438 0.9150 0.9150 0.9150 0.9160 0.9160
761.027112 0.9160 0.9160 0.9180 0.9180 0.9180
765.939786 0.9190 0.9190 0.9190 0.9190 0.9190
770.852460 0.9190 0.9190 0.9180 0.9180 0.9160
775.765134 0.9160 0.9160 0.9150 0.9150 0.9150
780.677808 0.9150 0.9150 0.9150 0.9150 0.9150
785.590482 0.9150 0.9150 0.9140 0.9140 0.9140
790.503156 0.9140 0.9140 0.9120 0.9120 0.9120
795.415830 0.9120 0.9120 0.9110 0.9110 0.9100
800.328504 0.9100 0.9080 0.9070 0.9060 0.9060
805.241178 0.9040 0.9020 0.9020 0.9000 0.8990
810.153851 0.8970 0.8930 0.8890 0.8870 0.8850
815.066525 0.8810 0.8760 0.8730 0.8680 0.8610
819.979199 0.8560 0.8480 0.8410 0.8320 0.8250
824.891873 0.8170 0.8140 0.8130 0.8120 0.8120
829.804547 0.8120 0.8130 0.8160 0.8180 0.8240
834.717221 0.8260 0.8280 0.8330 0.8370 0.8420
839.629895 0.8440 0.8460 0.8480 0.8480 0.8490
844.542569 0.8510 0.8510 0.8520 0.8520 0.8520
849.455243 0.8530 0.8530 0.8530 0.8530 0.8530
854.367917 0.8530 0.8530 0.8530 0.8530 0.8530
859.280591 0.8530 0.8530 0.8530 0.8530 0.8530
864.193265 0.8530 0.8530 0.8530 0.8520 0.8520
869.105939 0.8510 0.8510 0.8480 0.8460 0.8450
874.018613 0.8420 0.8410 0.8400 0.8380 0.8360
878.931287 0.8360 0.8340 0.8330 0.8300 0.8240
883.843961 0.8220 0.8210 0.8200 0.8170 0.8140
888.756635 0.8130 0.8120 0.8100 0.8100 0.8100
893.669309 0.8100 0.8100 0.8100 0.8120 0.8120
898.581982 0.8120 0.8100 0.8100 0.8080 0.8050
903.494656 0.8000 0.7950 0.7900 0.7810 0.7690
908.407330 0.7610 0.7460 0.7350 0.7141 0.6911
913.320004 0.6670 0.6480 0.6290 0.6260 0.6250
918.232678 0.6240 0.6240 0.6210 0.6180 0.5951
923.145352 0.5480 0.5300 0.5150 0.5140 0.5160
928.058026 0.5320 0.5480 0.5650 0.5969 0.6438
932.970700 0.6880 0.7120 0.7360 0.7580 0.7770
937.883374 0.7910 0.7970 0.8050 0.8140 0.8170
942.796048 0.8180 0.8180 0.8180 0.8180 0.8180
947.708722 0.8180 0.8180 0.8180 0.8170 0.8140
952.621396 0.8090 0.8050 0.8010 0.7980 0.7940
957.534070 0.7860 0.7810 0.7750 0.7730 0.7700
962.446744 0.7690 0.7670 0.7660 0.7630 0.7610
967.359418 0.7570 0.7510 0.7480 0.7470 0.7420
972.272092 0.7300 0.7060 0.6950 0.6750 0.6450
977.184766 0.6180 0.5901 0.5711 0.5690 0.5700
982.097440 0.5790 0.5910 0.6040 0.6240 0.6410
987.010113 0.6570 0.6670 0.6760 0.6910 0.6990
991.922787 0.7060 0.7100 0.7110 0.7120 0.7140
996.835461 0.7150 0.7150 0.7140 0.7110 0.7080
1001.748135 0.7060 0.7020 0.6950 0.6890 0.6830
1006.660809 0.6770 0.6720 0.6650 0.6530 0.6401
1011.573483 0.6220 0.6050 0.5860 0.5690 0.5380
1016.486157 0.5160 0.4950 0.4760 0.4571 0.4401
1021.398831 0.4220 0.4040 0.3950 0.3890 0.3870
1026.311505 0.3890 0.3940 0.4010 0.4289 0.4559
1031.224179 0.4800 0.5040 0.5270 0.5460 0.5550
1036.136853 0.5650 0.5790 0.5900 0.5940 0.6020
1041.049527 0.6050 0.6120 0.6200 0.6300 0.6400
1045.962201 0.6530 0.6720 0.6930 0.6950 0.6970
1050.874875 0.7070 0.7160 0.7230 0.7280 0.7300
1055.787549 0.7300 0.7280 0.7280 0.7270 0.7280
1060.700223 0.7310 0.7360 0.7460 0.7570 0.7650
1065.612897 0.7710 0.7790 0.7860 0.7940 0.7950
1070.525570 0.7970 0.8000 0.8000 0.8000 0.8010
1075.438244 0.8010 0.8010 0.8010 0.8010 0.8010
1080.350918 0.8010 0.8000 0.7980 0.7980 0.7970
1085.263592 0.7950 0.7940 0.7860 0.7820 0.7810
1090.176266 0.7770 0.7730 0.7700 0.7660 0.7660
1095.088940 0.7670 0.7690 0.7740 0.7790 0.7850
1100.001614 0.7930 0.8010 0.8130 0.8280 0.8320
1104.914288 0.8340 0.8370 0.8450 0.8480 0.8490
1109.826962 0.8520 0.8520 0.8530 0.8550 0.8560
1114.739636 0.8570 0.8600 0.8630 0.8630 0.8640
1119.652310 0.8670 0.8680 0.8690 0.8690 0.8690
1124.564984 0.8710 0.8710 0.8720 0.8720 0.8730
1129.477658 0.8730 0.8750 0.8760 0.8760 0.8760
1134.390332 0.8760 0.8760 0.8760 0.8760 0.8760
1139.303006 0.8760 0.8770 0.8760 0.8750 0.8750
1144.215680 0.8730 0.8730 0.8720 0.8720 0.8710
1149.128354 0.8710 0.8710 0.8680 0.8650 0.8640
1154.041028 0.8610 0.8600 0.8600 0.8600 0.8590
1158.953701 0.8590 0.8570 0.8570 0.8570 0.8570
1163.866375 0.8570 0.8560 0.8560 0.8550 0.8520
1168.779049 0.8480 0.8440 0.8410 0.8400 0.8380
1173.691723 0.8380 0.8370 0.8360 0.8340 0.8320
1178.604397 0.8280 0.8220 0.8160 0.8140 0.8080
1183.517071 0.8060 0.7980 0.7940 0.7860 0.7810
1188.429745 0.7780 0.7750 0.7730 0.7650 0.7510
1193.342419 0.7340 0.7310 0.7220 0.7120 0.7030
1198.255093 0.6890 0.6810 0.6720 0.6460 0.6250
1203.167767 0.6090 0.5930 0.5780 0.5321 0.5021
1208.080441 0.4850 0.4600 0.4280 0.3890 0.3470
1212.993115 0.3041 0.2611 0.2221 0.1891 0.1591
1217.905789 0.0990 0.0750 0.0610 0.0440 0.0410
1222.818463 0.0410 0.0410 0.0420 0.0460 0.0510
1227.731137 0.0520 0.0630 0.0760 0.0990 0.1070
1232.643811 0.1140 0.1220 0.1300 0.1400 0.1510
1237.556485 0.1660 0.1850 0.2090 0.2380 0.2730
1242.469159 0.2880 0.3040 0.3080 0.3549 0.3979
1247.381832 0.4220 0.4360 0.4600 0.4840 0.5070
1252.294506 0.5240 0.5350 0.5470 0.5510 0.5550
1257.207180 0.5650 0.5660 0.5700 0.5710 0.5730
1262.119854 0.5740 0.5750 0.5770 0.5780 0.5790
1267.032528 0.5820 0.5850 0.5940 0.6140 0.6330
1271.945202 0.6530 0.6800 0.6890 0.7079 0.7229
1276.857876 0.7300 0.7350 0.7390 0.7400 0.7400
1281.770550 0.7390 0.7390 0.7380 0.7390 0.7460
1286.683224 0.7580 0.7650 0.7790 0.7890 0.7980
1291.595898 0.8060 0.8140 0.8210 0.8280 0.8300
1296.508572 0.8320 0.8330 0.8330 0.8340 0.8340
1301.421246 0.8340 0.8340 0.8340 0.8340 0.8340
1306.333920 0.8330 0.8330 0.8330 0.8320 0.8320
1311.246594 0.8300 0.8280 0.8260 0.8240 0.8210
1316.159268 0.8170 0.8140 0.8120 0.8090 0.8060
1321.071942 0.8040 0.8000 0.7970 0.7940 0.7910
1325.984616 0.7890 0.7830 0.7780 0.7740 0.7700
1330.897290 0.7660 0.7620 0.7580 0.7540 0.7500
1335.809963 0.7460 0.7380 0.7320 0.7280 0.7240
1340.722637 0.7190 0.7150 0.7110 0.7060 0.7020
1345.635311 0.6920 0.6720 0.6610 0.6380 0.6170
1350.547985 0.6130 0.6000 0.5750 0.5381 0.5151
1355.460659 0.4989 0.4789 0.4550 0.4420 0.4040
1360.373333 0.3690 0.3150 0.2531 0.2211 0.1691
1365.286007 0.1440 0.1270 0.1160 0.0990 0.0850
1370.198681 0.0680 0.0510 0.0330 0.0330 0.0410
1375.111355 0.0490 0.0590 0.0670 0.0810 0.0950
1380.024029 0.1020 0.1080 0.1419 0.1829 0.2020
1384.936703 0.2511 0.2791 0.3040 0.3300 0.3530
1389.849377 0.3750 0.3970 0.4180 0.4260 0.4440
1394.762051 0.4671 0.5000 0.5220 0.5380 0.5470
1399.674725 0.5530 0.5570 0.5660 0.5690 0.5710
1404.587399 0.5710 0.5710 0.5700 0.5670 0.5630
1409.500073 0.5350 0.5080 0.4890 0.4611 0.4610
1414.412747 0.4680 0.4760 0.4810 0.4810 0.4800
1419.325421 0.4710 0.4630 0.4460 0.4330 0.4210
1424.238094 0.4160 0.4130 0.4120 0.4130 0.4160
1429.150768 0.4200 0.4210 0.4250 0.4290 0.4280
1434.063442 0.4260 0.4170 0.4090 0.4040 0.3970
1438.976116 0.3940 0.3940 0.3910 0.3910 0.3890
1443.888790 0.3860 0.3830 0.3790 0.3780 0.3790
1448.801464 0.3820 0.3900 0.3980 0.4000 0.4010
1453.714138 0.4010 0.4020 0.4040 0.4060 0.4080
1458.626812 0.4100 0.4160 0.4240 0.4400 0.4490
1463.539486 0.4550 0.4710 0.4880 0.5150 0.5360
1468.452160 0.5470 0.5570 0.5730 0.5900 0.6090
1473.364834 0.6260 0.6320 0.6410 0.6550 0.6650
1478.277508 0.6750 0.6840 0.6910 0.6990 0.7060
1483.190182 0.7120 0.7200 0.7260 0.7280 0.7360
1488.102856 0.7420 0.7440 0.7530 0.7540 0.7580
1493.015530 0.7590 0.7620 0.7620 0.7610 0.7610
1497.928204 0.7620 0.7650 0.7660 0.7670 0.7670
1502.840878 0.7690 0.7690 0.7700 0.7700 0.7710
1507.753552 0.7710 0.7730 0.7740 0.7770 0.7780
1512.666225 0.7790 0.7810 0.7810 0.7810 0.7810
1517.578899 0.7810 0.7790 0.7790 0.7790 0.7790
1522.491573 0.7810 0.7810 0.7830 0.7860 0.7900
1527.404247 0.7950 0.7980 0.8010 0.8050 0.8080
1532.316921 0.8090 0.8090 0.8100 0.8120 0.8130
1537.229595 0.8170 0.8240 0.8250 0.8280 0.8290
1542.142269 0.8330 0.8360 0.8360 0.8360 0.8370
1547.054943 0.8370 0.8370 0.8370 0.8370 0.8380
1551.967617 0.8380 0.8360 0.8360 0.8340 0.8340
1556.880291 0.8340 0.8330 0.8330 0.8330 0.8330
1561.792965 0.8320 0.8320 0.8320 0.8320 0.8320
1566.705639 0.8320 0.8320 0.8320 0.8320 0.8320
1571.618313 0.8300 0.8300 0.8300 0.8300 0.8290
1576.530987 0.8280 0.8280 0.8280 0.8260 0.8260
1581.443661 0.8260 0.8250 0.8250 0.8220 0.8210
1586.356335 0.8180 0.8130 0.8130 0.8120 0.8100
1591.269009 0.8090 0.8080 0.8080 0.8050 0.8020
1596.181683 0.8010 0.8000 0.7980 0.7950 0.7950
1601.094356 0.7940 0.7930 0.7930 0.7910 0.7900
1606.007030 0.7900 0.7890 0.7870 0.7860 0.7860
1610.919704 0.7830 0.7810 0.7780 0.7780 0.7770
1615.832378 0.7750 0.7730 0.7710 0.7700 0.7690
1620.745052 0.7690 0.7670 0.7670 0.7660 0.7650
1625.657726 0.7620 0.7620 0.7590 0.7580 0.7550
1630.570400 0.7540 0.7510 0.7500 0.7460 0.7400
1635.483074 0.7350 0.7310 0.7270 0.7240 0.7220
1640.395748 0.7100 0.6930 0.6790 0.6670 0.6510
1645.308422 0.6300 0.6020 0.5610 0.5390 0.5071
1650.221096 0.4550 0.4551 0.5061 0.5570 0.5670
1655.133770 0.5830 0.5980 0.6330 0.6630 0.6730
1660.046444 0.6830 0.6910 0.6960 0.6990 0.7020
1664.959118 0.7030 0.7040 0.7040 0.7030 0.7020
1669.871792 0.7000 0.6970 0.6890 0.6840 0.6790
1674.784466 0.6760 0.6730 0.6720 0.6710 0.6710
1679.697140 0.6690 0.6680 0.6650 0.6650 0.6630
1684.609814 0.6550 0.6520 0.6490 0.6450 0.6420
1689.522487 0.6410 0.6360 0.6320 0.6280 0.6180
1694.435161 0.6130 0.6050 0.5940 0.5830 0.5700
1699.347835 0.5459 0.5220 0.5060 0.4970 0.4910
1704.260509 0.4830 0.4670 0.4600 0.4560 0.4550
1709.173183 0.4480 0.4380 0.4260 0.4160 0.4080
1714.085857 0.4000 0.3890 0.3770 0.3630 0.3470
1718.998531 0.3310 0.3140 0.2950 0.2750 0.2530
1723.911205 0.2320 0.2090 0.1850 0.1590 0.1321
1728.823879 0.0849 0.0559 0.0340 0.0260 0.0120
1733.736553 0.0040 0.0010 0.0010 0.0000 0.0000
1738.649227 0.0000 0.0000 0.0000 0.0000 0.0000
1743.561901 0.0000 0.0000 0.0000 0.0000 0.0000
1748.474575 0.0000 0.0000 0.0000 0.0000 0.0000
1753.387249 0.0000 0.0010 0.0020 0.0060 0.0080
1758.299923 0.0140 0.0220 0.0420 0.0570 0.0760
1763.212597 0.0870 0.1020 0.1160 0.1579 0.1929
1768.125271 0.2181 0.2511 0.2871 0.3310 0.3470
1773.037945 0.3770 0.4020 0.4240 0.4410 0.4570
1777.950618 0.4720 0.4850 0.5000 0.5160 0.5320
1782.863292 0.5390 0.5430 0.5480 0.5530 0.5650
1787.775966 0.5740 0.5780 0.5820 0.5860 0.5950
1792.688640 0.6080 0.6140 0.6170 0.6210 0.6300
1797.601314 0.6320 0.6380 0.6420 0.6490 0.6570
1802.513988 0.6650 0.6730 0.6790 0.6810 0.6880
1807.426662 0.6920 0.6930 0.6960 0.6990 0.7080
1812.339336 0.7140 0.7180 0.7190 0.7230 0.7260
1817.252010 0.7280 0.7350 0.7390 0.7420 0.7440
1822.164684 0.7480 0.7500 0.7510 0.7530 0.7570
1827.077358 0.7580 0.7580 0.7590 0.7610 0.7610
1831.990032 0.7620 0.7630 0.7630 0.7630 0.7630
1836.902706 0.7630 0.7630 0.7630 0.7630 0.7630
1841.815380 0.7620 0.7620 0.7620 0.7620 0.7620
1846.728054 0.7620 0.7620 0.7620 0.7620 0.7630
1851.640728 0.7630 0.7620 0.7620 0.7610 0.7610
1856.553402 0.7610 0.7610 0.7610 0.7610 0.7590
1861.466075 0.7590 0.7580 0.7570 0.7550 0.7550
1866.378749 0.7540 0.7540 0.7540 0.7550 0.7570
1871.291423 0.7590 0.7620 0.7630 0.7690 0.7750
1876.204097 0.7780 0.7810 0.7850 0.7870 0.7910
1881.116771 0.7930 0.7940 0.7950 0.7970 0.7980
1886.029445 0.8000 0.8010 0.8020 0.8040 0.8050
1890.942119 0.8060 0.8080 0.8090 0.8090 0.8100
1895.854793 0.8100 0.8130 0.8140 0.8140 0.8140
1900.767467 0.8140 0.8160 0.8160 0.8160 0.8170
1905.680141 0.8170 0.8170 0.8170 0.8170 0.8170
1910.592815 0.8170 0.8170 0.8180 0.8180 0.8180
1915.505489 0.8180 0.8180 0.8200 0.8200 0.8200
1920.418163 0.8200 0.8200 0.8200 0.8200 0.8200
1925.330837 0.8200 0.8200 0.8210 0.8210 0.8220
1930.243511 0.8240 0.8240 0.8250 0.8250 0.8250
1935.156185 0.8250 0.8260 0.8260 0.8280 0.8290
1940.068859 0.8290 0.8290 0.8290 0.8300 0.8300
1944.981533 0.8320 0.8320 0.8300 0.8300 0.8300
1949.894206 0.8300 0.8300 0.8300 0.8300 0.8300
1954.806880 0.8300 0.8300 0.8300 0.8300 0.8300
1959.719554 0.8300 0.8300 0.8300 0.8300 0.8300
1964.632228 0.8300 0.8320 0.8320 0.8320 0.8320
1969.544902 0.8330 0.8330 0.8340 0.8330 0.8330
1974.457576 0.8320 0.8300 0.8300 0.8300 0.8300
1979.370250 0.8290 0.8290 0.8280 0.8280 0.8280
1984.282924 0.8280 0.8280 0.8280 0.8280 0.8280
1989.195598 0.8280 0.8280 0.8280 0.8280 0.8280
1994.108272 0.8280 0.8280 0.8290 0.8290 0.8300
1999.020946 0.8300 0.8300 0.8315 0.8330 0.8330
2003.933620 0.8330 0.8350 0.8370 0.8385 0.8400
2008.846294 0.8405 0.8410 0.8410 0.8410 0.8410
2013.758968 0.8410 0.8415 0.8420 0.8430 0.8440
2018.671642 0.8440 0.8440 0.8445 0.8450 0.8445
2023.584316 0.8440 0.8440 0.8440 0.8430 0.8420
2028.496990 0.8420 0.8420 0.8415 0.8410 0.8405
2033.409664 0.8400 0.8400 0.8400 0.8390 0.8380
2038.322337 0.8380 0.8380 0.8380 0.8380 0.8370
2043.235011 0.8360 0.8360 0.8360 0.8350 0.8340
2048.147685 0.8335 0.8330 0.8315 0.8300 0.8300
2053.060359 0.8300 0.8295 0.8290 0.8290 0.8290
2057.973033 0.8290 0.8290 0.8290 0.8290 0.8295
2062.885707 0.8300 0.8300 0.8300 0.8310 0.8320
2067.798381 0.8325 0.8330 0.8345 0.8360 0.8385
2072.711055 0.8410 0.8415 0.8420 0.8430 0.8440
2077.623729 0.8450 0.8460 0.8460 0.8460 0.8470
2082.536403 0.8480 0.8485 0.8490 0.8490 0.8490
2087.449077 0.8490 0.8490 0.8490 0.8490 0.8490
2092.361751 0.8490 0.8490 0.8490 0.8485 0.8480
2097.274425 0.8470 0.8460 0.8460 0.8460 0.8455
2102.187099 0.8450 0.8430 0.8410 0.8395 0.8380
2107.099773 0.8370 0.8360 0.8360 0.8360 0.8350
2112.012447 0.8340 0.8335 0.8330 0.8330 0.8330
2116.925121 0.8325 0.8320 0.8320 0.8320 0.8320
2121.837795 0.8320 0.8320 0.8320 0.8320 0.8320
2126.750468 0.8320 0.8320 0.8320 0.8320 0.8325
2131.663142 0.8330 0.8335 0.8340 0.8350 0.8360
2136.575816 0.8360 0.8360 0.8365 0.8370 0.8375
2141.488490 0.8380 0.8390 0.8400 0.8400 0.8400
2146.401164 0.8410 0.8420 0.8430 0.8440 0.8445
2151.313838 0.8450 0.8455 0.8460 0.8470 0.8480
2156.226512 0.8480 0.8480 0.8495 0.8510 0.8510
2161.139186 0.8510 0.8520 0.8530 0.8540 0.8550
2166.051860 0.8555 0.8560 0.8565 0.8570 0.8570
2170.964534 0.8570 0.8580 0.8590 0.8590 0.8590
2175.877208 0.8590 0.8590 0.8590 0.8590 0.8590
2180.789882 0.8590 0.8580 0.8570 0.8565 0.8560
2185.702556 0.8555 0.8550 0.8550 0.8550 0.8550
2190.615230 0.8550 0.8540 0.8530 0.8525 0.8520
2195.527904 0.8520 0.8520 0.8525 0.8530 0.8540
2200.440578 0.8550 0.8550 0.8550 0.8550 0.8550
2205.353252 0.8550 0.8550 0.8550 0.8550 0.8550
2210.265926 0.8550 0.8550 0.8550 0.8550 0.8550
2215.178599 0.8550 0.8550 0.8550 0.8550 0.8550
2220.091273 0.8550 0.8550 0.8550 0.8560 0.8570
2225.003947 0.8570 0.8570 0.8570 0.8570 0.8570
2229.916621 0.8570 0.8560 0.8550 0.8550 0.8550
2234.829295 0.8550 0.8550 0.8550 0.8550 0.8540
2239.741969 0.8530 0.8530 0.8530 0.8530 0.8530
2244.654643 0.8530 0.8530 0.8530 0.8530 0.8530
2249.567317 0.8530 0.8530 0.8530 0.8530 0.8530
2254.479991 0.8530 0.8530 0.8530 0.8530 0.8530
2259.392665 0.8530 0.8530 0.8530 0.8530 0.8530
2264.305339 0.8530 0.8530 0.8540 0.8550 0.8555
2269.218013 0.8560 0.8560 0.8560 0.8565 0.8570
2274.130687 0.8570 0.8570 0.8580 0.8590 0.8595
2279.043361 0.8600 0.8600 0.8600 0.8605 0.8610
2283.956035 0.8610 0.8610 0.8610 0.8610 0.8610
2288.868709 0.8610 0.8610 0.8610 0.8610 0.8610
2293.781383 0.8610 0.8610 0.8610 0.8610 0.8610
2298.694057 0.8610 0.8610 0.8610 0.8620 0.8630
2303.606730 0.8630 0.8630 0.8615 0.8600 0.8605
2308.519404 0.8610 0.8610 0.8610 0.8610 0.8610
2313.432078 0.8610 0.8610 0.8610 0.8610 0.8610
2318.344752 0.8610 0.8605 0.8600 0.8600 0.8600
2323.257426 0.8605 0.8610 0.8610 0.8610 0.8605
2328.170100 0.8600 0.8600 0.8600 0.8605 0.8610
2333.082774 0.8610 0.8610 0.8610 0.8610 0.8610
2337.995448 0.8610 0.8610 0.8610 0.8620 0.8630
2342.908122 0.8630 0.8630 0.8615 0.8600 0.8600
2347.820796 0.8600 0.8600 0.8600 0.8605 0.8610
2352.733470 0.8610 0.8610 0.8620 0.8630 0.8630
2357.646144 0.8630 0.8635 0.8640 0.8640 0.8640
2362.558818 0.8635 0.8630 0.8630 0.8630 0.8620
2367.471492 0.8610 0.8620 0.8630 0.8620 0.8610
2372.384166 0.8610 0.8610 0.8610 0.8610 0.8610
2377.296840 0.8610 0.8605 0.8600 0.8605 0.8610
2382.209514 0.8605 0.8600 0.8600 0.8600 0.8595
2387.122188 0.8590 0.8580 0.8570 0.8570 0.8570
2392.034861 0.8565 0.8560 0.8555 0.8550 0.8550
2396.947535 0.8550 0.8550 0.8550 0.8550 0.8550
2401.860209 0.8550 0.8550 0.8550 0.8550 0.8550
2406.772883 0.8550 0.8550 0.8550 0.8550 0.8550
2411.685557 0.8550 0.8550 0.8550 0.8550 0.8540
2416.598231 0.8530 0.8530 0.8530 0.8530 0.8530
2421.510905 0.8525 0.8520 0.8520 0.8520 0.8520
2426.423579 0.8520 0.8520 0.8520 0.8520 0.8520
2431.336253 0.8520 0.8520 0.8520 0.8520 0.8520
2436.248927 0.8520 0.8520 0.8520 0.8520 0.8520
2441.161601 0.8520 0.8520 0.8520 0.8520 0.8515
2446.074275 0.8510 0.8510 0.8510 0.8510 0.8510
2450.986949 0.8500 0.8490 0.8490 0.8490 0.8490
2455.899623 0.8490 0.8500 0.8510 0.8515 0.8520
2460.812297 0.8520 0.8520 0.8520 0.8520 0.8525
2465.724971 0.8530 0.8540 0.8550 0.8555 0.8560
2470.637645 0.8560 0.8560 0.8565 0.8570 0.8570
2475.550319 0.8570 0.8570 0.8570 0.8565 0.8560
2480.462992 0.8560 0.8560 0.8565 0.8570 0.8580
2485.375666 0.8590 0.8580 0.8570 0.8580 0.8590
2490.288340 0.8590 0.8590 0.8590 0.8590 0.8590
2495.201014 0.8590 0.8590 0.8590 0.8590 0.8590
2500.113688 0.8595 0.8600 0.8600 0.8600 0.8600
2505.026362 0.8600 0.8600 0.8600 0.8595 0.8590
2509.939036 0.8595 0.8600 0.8600 0.8600 0.8605
2514.851710 0.8610 0.8625 0.8640 0.8640 0.8640
2519.764384 0.8645 0.8650 0.8650 0.8650 0.8650
2524.677058 0.8650 0.8645 0.8640 0.8640 0.8640
2529.589732 0.8640 0.8640 0.8645 0.8650 0.8650
2534.502406 0.8650 0.8650 0.8650 0.8650 0.8650
2539.415080 0.8645 0.8640 0.8655 0.8670 0.8660
2544.327754 0.8650 0.8650 0.8650 0.8650 0.8650
2549.240428 0.8650 0.8650 0.8650 0.8650 0.8645
2554.153102 0.8640 0.8640 0.8640 0.8640 0.8640
2559.065776 0.8645 0.8650 0.8650 0.8650 0.8645
2563.978450 0.8640 0.8635 0.8630 0.8630 0.8630
2568.891123 0.8630 0.8630 0.8630 0.8630 0.8620
2573.803797 0.8610 0.8610 0.8610 0.8605 0.8600
2578.716471 0.8600 0.8600 0.8600 0.8600 0.8600
2583.629145 0.8600 0.8600 0.8600 0.8605 0.8610
2588.541819 0.8610 0.8610 0.8610 0.8610 0.8610
2593.454493 0.8610 0.8605 0.8600 0.8600 0.8600
2598.367167 0.8605 0.8610 0.8620 0.8630 0.8630
2603.279841 0.8630 0.8635 0.8640 0.8640 0.8640
2608.192515 0.8640 0.8640 0.8640 0.8640 0.8635
2613.105189 0.8630 0.8635 0.8640 0.8640 0.8640
2618.017863 0.8645 0.8650 0.8650 0.8650 0.8660
2622.930537 0.8670 0.8670 0.8670 0.8660 0.8650
2627.843211 0.8645 0.8640 0.8640 0.8640 0.8645
2632.755885 0.8650 0.8650 0.8650 0.8650 0.8650
2637.668559 0.8650 0.8650 0.8650 0.8650 0.8650
2642.581233 0.8650 0.8660 0.8670 0.8670 0.8670
2647.493907 0.8670 0.8670 0.8670 0.8670 0.8670
2652.406580 0.8670 0.8670 0.8670 0.8670 0.8670
2657.319254 0.8670 0.8670 0.8670 0.8670 0.8670
2662.231928 0.8670 0.8670 0.8670 0.8670 0.8670
2667.144602 0.8670 0.8670 0.8670 0.8670 0.8670
2672.057276 0.8670 0.8670 0.8670 0.8670 0.8670
2676.969950 0.8660 0.8650 0.8650 0.8650 0.8650
2681.882624 0.8650 0.8650 0.8650 0.8650 0.8650
2686.795298 0.8645 0.8640 0.8640 0.8640 0.8640
2691.707972 0.8640 0.8635 0.8630 0.8630 0.8630
2696.620646 0.8630 0.8630 0.8620 0.8610 0.8610
2701.533320 0.8610 0.8610 0.8610 0.8605 0.8600
2706.445994 0.8600 0.8600 0.8600 0.8600 0.8595
2711.358668 0.8590 0.8590 0.8590 0.8580 0.8570
2716.271342 0.8570 0.8570 0.8565 0.8560 0.8560
2721.184016 0.8560 0.8560 0.8560 0.8560 0.8560
2726.096690 0.8560 0.8560 0.8560 0.8560 0.8565
2731.009364 0.8570 0.8570 0.8570 0.8570 0.8570
2735.922038 0.8580 0.8590 0.8590 0.8590 0.8595
2740.834711 0.8600 0.8600 0.8600 0.8600 0.8600
2745.747385 0.8600 0.8600 0.8600 0.8600 0.8605
2750.660059 0.8610 0.8610 0.8610 0.8610 0.8610
2755.572733 0.8610 0.8610 0.8605 0.8600 0.8600
2760.485407 0.8600 0.8600 0.8600 0.8605 0.8610
2765.398081 0.8610 0.8610 0.8610 0.8610 0.8605
2770.310755 0.8600 0.8600 0.8600 0.8600 0.8600
2775.223429 0.8600 0.8600 0.8600 0.8600 0.8600
2780.136103 0.8600 0.8600 0.8600 0.8600 0.8600
2785.048777 0.8600 0.8600 0.8600 0.8600 0.8600
2789.961451 0.8600 0.8600 0.8600 0.8600 0.8600
2794.874125 0.8595 0.8590 0.8590 0.8590 0.8580
2799.786799 0.8570 0.8570 0.8570 0.8560 0.8550
2804.699473 0.8550 0.8550 0.8540 0.8530 0.8530
2809.612147 0.8530 0.8530 0.8530 0.8530 0.8530
2814.524821 0.8530 0.8530 0.8525 0.8520 0.8520
2819.437495 0.8520 0.8515 0.8510 0.8500 0.8490
2824.350169 0.8475 0.8460 0.8455 0.8450 0.8445
2829.262842 0.8440 0.8425 0.8410 0.8405 0.8400
2834.175516 0.8390 0.8380 0.8370 0.8360 0.8345
2839.088190 0.8330 0.8305 0.8280 0.8265 0.8250
2844.000864 0.8245 0.8240 0.8230 0.8220 0.8210
2848.913538 0.8200 0.8170 0.8140 0.8090 0.8040
2853.826212 0.8020 0.8000 0.7970 0.7940 0.7915
2858.738886 0.7890 0.7855 0.7820 0.7795 0.7770
2863.651560 0.7750 0.7730 0.7710 0.7690 0.7670
2868.564234 0.7650 0.7630 0.7610 0.7525 0.7440
2873.476908 0.7321 0.7201 0.7121 0.7041 0.6827
2878.389582 0.6612 0.6491 0.6371 0.6370 0.6370
2883.302256 0.6430 0.6490 0.6550 0.6610 0.6705
2888.214930 0.6800 0.6805 0.6810 0.6825 0.6840
2893.127604 0.6860 0.6880 0.6900 0.6920 0.6935
2898.040278 0.6950 0.7004 0.7059 0.7109 0.7159
2902.952952 0.7190 0.7220 0.7250 0.7280 0.7280
2907.865626 0.7280 0.7270 0.7260 0.7230 0.7200
2912.778300 0.7150 0.7100 0.7060 0.7020 0.7005
2917.690973 0.6990 0.6960 0.6930 0.6812 0.6692
2922.603647 0.6585 0.6479 0.6365 0.6250 0.6155
2927.516321 0.6060 0.5960 0.5860 0.5641 0.5421
2932.428995 0.5286 0.5151 0.5095 0.5040 0.4976
2937.341669 0.4911 0.4841 0.4771 0.4706 0.4641
2942.254343 0.4580 0.4520 0.4515 0.4510 0.4515
2947.167017 0.4520 0.4545 0.4570 0.4585 0.4600
2952.079691 0.4675 0.4750 0.4780 0.4810 0.4830
2956.992365 0.4850 0.4860 0.4870 0.4855 0.4840
2961.905039 0.4835 0.4830 0.4815 0.4800 0.4780
2966.817713 0.4760 0.4755 0.4750 0.4755 0.4760
2971.730387 0.4785 0.4810 0.4850 0.4890 0.4940
2976.643061 0.4990 0.5030 0.5070 0.5114 0.5159
2981.555735 0.5195 0.5230 0.5235 0.5240 0.5270
2986.468409 0.5300 0.5370 0.5440 0.5510 0.5580
2991.381083 0.5640 0.5700 0.5819 0.5939 0.5975
2996.293757 0.6010 0.6069 0.6129 0.6248 0.6368
3001.206431 0.6485 0.6601 0.6721 0.6840 0.6885
3006.119104 0.6930 0.7000 0.7070 0.7075 0.7080
3011.031778 0.7060 0.7040 0.7000 0.6960 0.6935
3015.944452 0.6910 0.6890 0.6870 0.6830 0.6791
3020.857126 0.6720 0.6650 0.6650 0.6650 0.6670
3025.769800 0.6690 0.6745 0.6800 0.6875 0.6950
3030.682474 0.7094 0.7239 0.7334 0.7429 0.7480
3035.595148 0.7530 0.7575 0.7619 0.7674 0.7729
3040.507822 0.7760 0.7790 0.7825 0.7860 0.7895
3045.420496 0.7930 0.7935 0.7940 0.7945 0.7950
3050.333170 0.7950 0.7950 0.7950 0.7950 0.7945
3055.245844 0.7940 0.7935 0.7930 0.7930 0.7930
3060.158518 0.7920 0.7910 0.7890 0.7870 0.7860
3065.071192 0.7850 0.7810 0.7770 0.7720 0.7670
3069.983866 0.7640 0.7610 0.7521 0.7431 0.7356
3074.896540 0.7281 0.7255 0.7230 0.7166 0.7101
3079.809214 0.7025 0.6949 0.6839 0.6730 0.6610
3084.721888 0.6490 0.6485 0.6480 0.6485 0.6490
3089.634562 0.6550 0.6610 0.6680 0.6749 0.6849
3094.547235 0.6949 0.7004 0.7059 0.7149 0.7239
3099.459909 0.7295 0.7351 0.7506 0.7661 0.7870
3104.372583 0.8080 0.8145 0.8210 0.8265 0.8320
3109.285257 0.8360 0.8400 0.8465 0.8530 0.8585
3114.197931 0.8639 0.8665 0.8690 0.8700 0.8710
3119.110605 0.8710 0.8710 0.8710 0.8710 0.8715
3124.023279 0.8720 0.8720 0.8720 0.8720 0.8720
3128.935953 0.8725 0.8730 0.8745 0.8760 0.8765
3133.848627 0.8770 0.8780 0.8790 0.8795 0.8800
3138.761301 0.8805 0.8810 0.8820 0.8830 0.8835
3143.673975 0.8840 0.8840 0.8840 0.8840 0.8840
3148.586649 0.8840 0.8840 0.8855 0.8870 0.8870
3153.499323 0.8870 0.8875 0.8880 0.8880 0.8880
3158.411997 0.8880 0.8880 0.8880 0.8880 0.8885
3163.324671 0.8890 0.8890 0.8890 0.8890 0.8890
3168.237345 0.8890 0.8890 0.8890 0.8890 0.8900
3173.150019 0.8910 0.8910 0.8910 0.8910 0.8910
3178.062693 0.8910 0.8910 0.8910 0.8910 0.8915
3182.975366 0.8920 0.8920 0.8920 0.8920 0.8920
3187.888040 0.8920 0.8920 0.8925 0.8930 0.8930
3192.800714 0.8930 0.8930 0.8930 0.8930 0.8930
3197.713388 0.8940 0.8950 0.8950 0.8950 0.8950
3202.626062 0.8950 0.8950 0.8950 0.8950 0.8950
3207.538736 0.8955 0.8960 0.8960 0.8960 0.8960
3212.451410 0.8960 0.8960 0.8960 0.8960 0.8960
3217.364084 0.8960 0.8960 0.8965 0.8970 0.8970
3222.276758 0.8970 0.8970 0.8970 0.8980 0.8990
3227.189432 0.8990 0.8990 0.8990 0.8990 0.8990
3232.102106 0.8990 0.8990 0.8990 0.8990 0.8990
3237.014780 0.8990 0.8990 0.8990 0.8990 0.8990
3241.927454 0.8990 0.8990 0.8990 0.8990 0.8990
3246.840128 0.8990 0.8990 0.8990 0.8990 0.8990
3251.752802 0.8990 0.8980 0.8970 0.8970 0.8970
3256.665476 0.8970 0.8970 0.8970 0.8970 0.8965
3261.578150 0.8960 0.8960 0.8960 0.8960 0.8960
3266.490824 0.8960 0.8960 0.8960 0.8960 0.8960
3271.403497 0.8960 0.8960 0.8960 0.8960 0.8960
3276.316171 0.8960 0.8960 0.8960 0.8960 0.8960
3281.228845 0.8960 0.8955 0.8950 0.8950 0.8950
3286.141519 0.8950 0.8950 0.8950 0.8950 0.8950
3291.054193 0.8950 0.8950 0.8950 0.8950 0.8950
3295.966867 0.8950 0.8950 0.8950 0.8950 0.8950
3300.879541 0.8950 0.8950 0.8950 0.8940 0.8930
3305.792215 0.8925 0.8920 0.8920 0.8920 0.8920
3310.704889 0.8920 0.8920 0.8920 0.8920 0.8920
3315.617563 0.8925 0.8930 0.8930 0.8930 0.8925
3320.530237 0.8920 0.8920 0.8920 0.8915 0.8910
3325.442911 0.8910 0.8910 0.8910 0.8910 0.8910
3330.355585 0.8910 0.8910 0.8910 0.8915 0.8920
3335.268259 0.8920 0.8920 0.8920 0.8920 0.8915
3340.180933 0.8910 0.8910 0.8910 0.8910 0.8910
3345.093607 0.8910 0.8910 0.8910 0.8910 0.8910
3350.006281 0.8910 0.8910 0.8910 0.8910 0.8910
3354.918955 0.8910 0.8910 0.8910 0.8910 0.8900
3359.831628 0.8890 0.8890 0.8890 0.8890 0.8890
3364.744302 0.8890 0.8890 0.8890 0.8890 0.8890
3369.656976 0.8890 0.8890 0.8890 0.8890 0.8890
3374.569650 0.8890 0.8890 0.8890 0.8890 0.8890
3379.482324 0.8890 0.8890 0.8890 0.8890 0.8890
3384.394998 0.8885 0.8880 0.8880 0.8880 0.8880
3389.307672 0.8880 0.8875 0.8870 0.8870 0.8870
3394.220346 0.8870 0.8870 0.8870 0.8870 0.8860
3399.133020 0.8850 0.8850 0.8850 0.8850 0.8850
3404.045694 0.8850 0.8850 0.8845 0.8840 0.8835
3408.958368 0.8830 0.8830 0.8830 0.8830 0.8830
3413.871042 0.8820 0.8810 0.8805 0.8800 0.8800
3418.783716 0.8800 0.8795 0.8790 0.8790 0.8790
3423.696390 0.8790 0.8790 0.8780 0.8770 0.8765
3428.609064 0.8760 0.8740 0.8720 0.8705 0.8690
3433.521738 0.8680 0.8670 0.8670 0.8670 0.8655
3438.434412 0.8640 0.8620 0.8600 0.8580 0.8560
3443.347085 0.8540 0.8520 0.8515 0.8510 0.8485
3448.259759 0.8460 0.8450 0.8440 0.8410 0.8380
3453.172433 0.8360 0.8340 0.8315 0.8290 0.8275
3458.085107 0.8260 0.8250 0.8240 0.8230 0.8220
3462.997781 0.8220 0.8220 0.8230 0.8240 0.8240
3467.910455 0.8240 0.8245 0.8250 0.8255 0.8260
3472.823129 0.8275 0.8290 0.8305 0.8320 0.8340
3477.735803 0.8360 0.8425 0.8490 0.8505 0.8520
3482.648477 0.8560 0.8600 0.8605 0.8610 0.8625
3487.561151 0.8640 0.8660 0.8680 0.8685 0.8690
3492.473825 0.8700 0.8710 0.8710 0.8710 0.8710
3497.386499 0.8710 0.8715 0.8720 0.8725 0.8730
3502.299173 0.8730 0.8730 0.8730 0.8730 0.8730
3507.211847 0.8730 0.8730 0.8730 0.8730 0.8730
3512.124521 0.8730 0.8730 0.8730 0.8730 0.8725
3517.037195 0.8720 0.8720 0.8720 0.8720 0.8720
3521.949869 0.8720 0.8720 0.8720 0.8720 0.8715
3526.862543 0.8710 0.8710 0.8710 0.8710 0.8710
3531.775216 0.8710 0.8710 0.8710 0.8710 0.8710
3536.687890 0.8710 0.8710 0.8710 0.8715 0.8720
3541.600564 0.8720 0.8720 0.8720 0.8720 0.8720
3546.513238 0.8720 0.8725 0.8730 0.8730 0.8730
3551.425912 0.8730 0.8730 0.8730 0.8730 0.8730
3556.338586 0.8730 0.8740 0.8750 0.8750 0.8750
3561.251260 0.8750 0.8750 0.8750 0.8750 0.8750
3566.163934 0.8750 0.8755 0.8760 0.8760 0.8760
3571.076608 0.8760 0.8760 0.8765 0.8770 0.8770
3575.989282 0.8770 0.8780 0.8790 0.8790 0.8790
3580.901956 0.8795 0.8800 0.8805 0.8810 0.8825
3585.814630 0.8840 0.8840 0.8840 0.8845 0.8850
3590.727304 0.8850 0.8850 0.8860 0.8870 0.8870
3595.639978 0.8870 0.8875 0.8880 0.8880 0.8880
3600.552652 0.8880 0.8880 0.8880 0.8880 0.8880
3605.465326 0.8880 0.8880 0.8880 0.8880 0.8880
3610.378000 0.8880 0.8880 0.8875 0.8870 0.8870
3615.290674 0.8870 0.8870 0.8870 0.8870 0.8870
3620.203347 0.8870 0.8870 0.8870 0.8870 0.8870
3625.116021 0.8870 0.8860 0.8850 0.8850 0.8850
3630.028695 0.8850 0.8850 0.8850 0.8850 0.8850
3634.941369 0.8850 0.8850 0.8850 0.8850 0.8850
3639.854043 0.8850 0.8850 0.8850 0.8850 0.8850
3644.766717 0.8850 0.8850 0.8850 0.8850 0.8850
3649.679391 0.8850 0.8850 0.8850 0.8850 0.8850
3654.592065 0.8850 0.8850 0.8850 0.8850 0.8850
3659.504739 0.8845 0.8840 0.8835 0.8830 0.8830
3664.417413 0.8830 0.8815 0.8800 0.8795 0.8790
3669.330087 0.8760 0.8730 0.8720 0.8710 0.8695
3674.242761 0.8680 0.8680 0.8680 0.8675 0.8670
3679.155435 0.8675 0.8680 0.8685 0.8690 0.8705
3684.068109 0.8720 0.8735 0.8750 0.8755 0.8760
3688.980783 0.8795 0.8830 0.8840 0.8850 0.8860
3693.893457 0.8870 0.8875 0.8880 0.8885 0.8890
3698.806131 0.8900 0.8910 0.8910 0.8910 0.8910
3703.718805 0.8910 0.8915 0.8920 0.8920 0.8920
3708.631478 0.8925 0.8930 0.8930 0.8930 0.8940
3713.544152 0.8950 0.8950 0.8950 0.8950 0.8950
3718.456826 0.8950 0.8950 0.8955 0.8960 0.8960
3723.369500 0.8960 0.8960 0.8960 0.8955 0.8950
3728.282174 0.8950 0.8950 0.8940 0.8930 0.8930
3733.194848 0.8930 0.8925 0.8920 0.8920 0.8920
3738.107522 0.8915 0.8910 0.8910 0.8910 0.8910
3743.020196 0.8910 0.8915 0.8920 0.8925 0.8930
3747.932870 0.8940 0.8950 0.8955 0.8960 0.8960
3752.845544 0.8960 0.8965 0.8970 0.8970 0.8970
3757.758218 0.8980 0.8990 0.8990 0.8990 0.8990
3762.670892 0.8990 0.8990 0.8990 0.8990 0.8990
3767.583566 0.8990 0.8990 0.8990 0.8990 0.8980
3772.496240 0.8970 0.8970 0.8970 0.8970 0.8970
3777.408914 0.8970 0.8970 0.8970 0.8970 0.8965
3782.321588 0.8960 0.8955 0.8950 0.8950 0.8950
3787.234262 0.8950 0.8950 0.8950 0.8950 0.8950
##END=
