##TITLE=1,4-PENTADIENE
##JCAMP-DX=4.24
##DATA TYPE=INFRARED SPECTRUM
##CLASS=COBLENTZ III
##ORIGIN=DOW CHEMICAL COMPANY
##OWNER=COBLENTZ SOCIETY
Collection (C) 2018 copyright by the U.S. Secretary of Commerce
on behalf of the United States of America. All rights reserved.
##DATE=1963/11/21
##CAS REGISTRY NO=591-93-5
##MOLFORM=C5 H8
##SOURCE REFERENCE=COBLENTZ NO. 6795
##$NIST SOURCE=COBLENTZ
##$NIST IMAGE=cob6795
##SPECTROMETER/DATA SYSTEM=DOW KBr FOREPRISM-GRATING
##INSTRUMENT PARAMETERS=GRATING BLAZED AT 3.5, 12.0, 20.0 MICRONS AND CHANGED AT 5.0, 7.5, 14.9 MICRONS
##STATE=SOLUTION (10% IN CCl4 FOR 3800-1340 CM^-^1, 10% IN CS2 FOR 1340-450 CM^-^1)
##PATH LENGTH=0.011 CM, 0.011 CM
$$ SEE SPECTRUM NO. 6998 FOR "GAS" STATE
$$SPECTRAL CONTAMINATION DUE TO CCl4 AROUND 1550, AND CS2 AROUND 855 CM^-^1
##SAMPLING PROCEDURE=TRANSMISSION
##RESOLUTION=4
##DATA PROCESSING=DIGITIZED BY NIST FROM HARD COPY (FROM TWO SEGMENTS)
##XUNITS=1/CM
##YUNITS=TRANSMITTANCE
##XFACTOR=1.000000
##YFACTOR=1
##DELTAX=0.878639
##FIRSTX=451.84
##LASTX=3806.48
##FIRSTY=0.966
##MAXX=3806.48
##MINX=451.84
##MAXY=1.013
##MINY=0
##NPOINTS=3819
##XYDATA=(X++(Y..Y))
451.840000 0.9660 0.9680 0.9690 0.9690 0.9710
456.233193 0.9710 0.9710 0.9720 0.9730 0.9750
460.626386 0.9760 0.9760 0.9760 0.9760 0.9760
465.019580 0.9770 0.9770 0.9790 0.9790 0.9790
469.412773 0.9800 0.9790 0.9800 0.9800 0.9800
473.805966 0.9800 0.9800 0.9800 0.9800 0.9800
478.199159 0.9800 0.9800 0.9800 0.9790 0.9790
482.592352 0.9790 0.9790 0.9770 0.9770 0.9770
486.985545 0.9770 0.9770 0.9770 0.9770 0.9770
491.378739 0.9770 0.9770 0.9770 0.9790 0.9790
495.771932 0.9800 0.9800 0.9800 0.9820 0.9820
500.165125 0.9820 0.9820 0.9820 0.9830 0.9830
504.558318 0.9830 0.9830 0.9830 0.9840 0.9840
508.951511 0.9840 0.9840 0.9840 0.9840 0.9840
513.344704 0.9840 0.9840 0.9840 0.9840 0.9830
517.737898 0.9830 0.9830 0.9830 0.9800 0.9770
522.131091 0.9770 0.9760 0.9750 0.9730 0.9720
526.524284 0.9690 0.9680 0.9660 0.9650 0.9620
530.917477 0.9580 0.9570 0.9540 0.9510 0.9500
535.310670 0.9440 0.9400 0.9350 0.9310 0.9250
539.703863 0.9200 0.9130 0.9070 0.9000 0.8920
544.097057 0.8850 0.8770 0.8670 0.8550 0.8510
548.490250 0.8340 0.8190 0.8050 0.7920 0.7780
552.883443 0.7650 0.7500 0.7351 0.7161 0.7021
557.276636 0.7010 0.6990 0.7010 0.7100 0.7160
561.669829 0.7210 0.7270 0.7390 0.7529 0.7610
566.063022 0.7760 0.7930 0.8010 0.8180 0.8310
570.456216 0.8340 0.8360 0.8440 0.8520 0.8580
574.849409 0.8600 0.8620 0.8660 0.8660 0.8670
579.242602 0.8670 0.8670 0.8660 0.8630 0.8590
583.635795 0.8520 0.8480 0.8410 0.8330 0.8270
588.028988 0.8190 0.8050 0.7900 0.7741 0.7571
592.422182 0.7410 0.7240 0.7100 0.7050 0.6990
596.815375 0.6870 0.6850 0.6870 0.7009 0.7169
601.208568 0.7340 0.7450 0.7540 0.7720 0.7920
605.601761 0.8110 0.8290 0.8380 0.8490 0.8629
609.994954 0.8710 0.8820 0.8870 0.8910 0.8920
614.388147 0.8990 0.9000 0.9020 0.9030 0.9040
618.781341 0.9040 0.9060 0.9060 0.9060 0.9060
623.174534 0.9040 0.9020 0.8990 0.8980 0.8920
627.567727 0.8910 0.8890 0.8850 0.8840 0.8800
631.960920 0.8760 0.8700 0.8670 0.8600 0.8530
636.354113 0.8480 0.8420 0.8370 0.8330 0.8260
640.747306 0.8190 0.8120 0.8050 0.7980 0.7930
645.140500 0.7870 0.7800 0.7750 0.7680 0.7600
649.533693 0.7490 0.7360 0.7270 0.7160 0.7090
653.926886 0.7030 0.6980 0.6920 0.6800 0.6680
658.320079 0.6550 0.6440 0.6340 0.6280 0.6260
662.713272 0.6280 0.6300 0.6340 0.6430 0.6540
667.106465 0.6680 0.6840 0.7159 0.7299 0.7429
671.499659 0.7640 0.7740 0.7920 0.7970 0.8140
675.892852 0.8290 0.8340 0.8480 0.8520 0.8590
680.286045 0.8700 0.8740 0.8810 0.8840 0.8910
684.679238 0.8920 0.8980 0.9030 0.9090 0.9110
689.072431 0.9140 0.9180 0.9250 0.9260 0.9290
693.465625 0.9310 0.9320 0.9330 0.9360 0.9390
697.858818 0.9400 0.9430 0.9460 0.9490 0.9510
702.252011 0.9530 0.9540 0.9540 0.9550 0.9570
706.645204 0.9580 0.9600 0.9610 0.9620 0.9640
711.038397 0.9650 0.9660 0.9660 0.9680 0.9690
715.431590 0.9710 0.9720 0.9730 0.9730 0.9750
719.824784 0.9760 0.9790 0.9800 0.9820 0.9820
724.217977 0.9840 0.9860 0.9870 0.9870 0.9870
728.611170 0.9880 0.9900 0.9930 0.9940 0.9970
733.004363 0.9970 0.9980 0.9980 0.9980 1.0000
737.397556 1.0000 1.0000 1.0010 1.0040 1.0040
741.790749 1.0050 1.0050 1.0050 1.0060 1.0060
746.183943 1.0060 1.0060 1.0050 1.0060 1.0080
750.577136 1.0090 1.0090 1.0080 1.0090 1.0090
754.970329 1.0090 1.0090 1.0090 1.0110 1.0110
759.363522 1.0120 1.0120 1.0120 1.0120 1.0120
763.756715 1.0120 1.0120 1.0110 1.0120 1.0130
768.149908 1.0120 1.0120 1.0120 1.0110 1.0110
772.543102 1.0110 1.0090 1.0090 1.0090 1.0090
776.936295 1.0080 1.0060 1.0060 1.0040 1.0040
781.329488 1.0040 1.0020 1.0020 1.0020 1.0010
785.722681 1.0010 1.0010 1.0010 1.0000 1.0000
790.115874 1.0000 1.0000 1.0000 0.9980 0.9980
794.509067 0.9980 0.9970 0.9980 0.9970 0.9950
798.902261 0.9950 0.9940 0.9930 0.9910 0.9900
803.295454 0.9900 0.9880 0.9880 0.9880 0.9870
807.688647 0.9860 0.9860 0.9860 0.9840 0.9830
812.081840 0.9830 0.9820 0.9820 0.9820 0.9800
816.475033 0.9800 0.9800 0.9790 0.9790 0.9770
820.868227 0.9770 0.9760 0.9750 0.9750 0.9730
825.261420 0.9710 0.9690 0.9690 0.9680 0.9680
829.654613 0.9650 0.9600 0.9550 0.9540 0.9530
834.047806 0.9510 0.9470 0.9440 0.9390 0.9350
838.440999 0.9310 0.9240 0.9140 0.9040 0.8950
842.834192 0.8890 0.8870 0.8770 0.8670 0.8560
847.227386 0.8450 0.8360 0.8250 0.8150 0.8040
851.620579 0.7940 0.7850 0.7760 0.7670 0.7600
856.013772 0.7530 0.7530 0.7520 0.7500 0.7470
860.406965 0.7450 0.7430 0.7420 0.7390 0.7380
864.800158 0.7360 0.7350 0.7300 0.7250 0.7230
869.193351 0.7140 0.7050 0.6990 0.6940 0.6831
873.586545 0.6730 0.6650 0.6590 0.6510 0.6410
877.979738 0.6290 0.6001 0.5771 0.5571 0.5391
882.372931 0.5170 0.4950 0.4930 0.4900 0.4840
886.766124 0.4760 0.4620 0.4460 0.4241 0.4101
891.159317 0.3950 0.3580 0.3140 0.2631 0.2361
895.552510 0.2160 0.1741 0.1551 0.1321 0.1081
899.945704 0.0960 0.0840 0.0590 0.0490 0.0350
904.338897 0.0310 0.0220 0.0150 0.0080 0.0050
908.732090 0.0020 0.0010 0.0000 0.0000 0.0000
913.125283 0.0000 0.0000 0.0000 0.0010 0.0010
917.518476 0.0020 0.0050 0.0080 0.0170 0.0260
921.911669 0.0280 0.0450 0.0629 0.1038 0.1329
926.304863 0.1620 0.1910 0.2230 0.2530 0.2830
930.698056 0.3139 0.3449 0.4028 0.4309 0.4529
935.091249 0.4770 0.4950 0.5120 0.5280 0.5460
939.484442 0.5630 0.5790 0.5949 0.6060 0.6140
943.877635 0.6170 0.6280 0.6300 0.6320 0.6330
948.270829 0.6430 0.6470 0.6480 0.6510 0.6550
952.664022 0.6610 0.6620 0.6620 0.6690 0.6730
957.057215 0.6760 0.6790 0.6850 0.6870 0.6910
961.450408 0.6960 0.6960 0.6980 0.6980 0.6980
965.843601 0.6950 0.6900 0.6900 0.6840 0.6760
970.236794 0.6630 0.6480 0.6320 0.6150 0.5990
974.629988 0.5810 0.5561 0.5301 0.4941 0.4512
979.023181 0.4070 0.3810 0.3530 0.3041 0.2581
983.416374 0.2171 0.1811 0.1481 0.1211 0.0991
987.809567 0.0890 0.0790 0.0640 0.0530 0.0310
992.202760 0.0280 0.0280 0.0300 0.0350 0.0440
996.595953 0.0550 0.0730 0.1190 0.1520 0.1949
1000.989147 0.2469 0.2799 0.3139 0.3469 0.4167
1005.382340 0.4510 0.4830 0.5150 0.5440 0.5729
1009.775533 0.6009 0.6329 0.6549 0.6719 0.6829
1014.168726 0.7090 0.7230 0.7310 0.7410 0.7490
1018.561919 0.7600 0.7720 0.7830 0.7930 0.7970
1022.955112 0.8040 0.8090 0.8120 0.8140 0.8150
1027.348306 0.8190 0.8220 0.8250 0.8260 0.8290
1031.741499 0.8300 0.8300 0.8300 0.8300 0.8290
1036.134692 0.8270 0.8260 0.8250 0.8230 0.8220
1040.527885 0.8190 0.8190 0.8160 0.8140 0.8120
1044.921078 0.8110 0.8080 0.8050 0.8030 0.8000
1049.314272 0.7970 0.7940 0.7920 0.7850 0.7830
1053.707465 0.7780 0.7740 0.7710 0.7650 0.7630
1058.100658 0.7610 0.7630 0.7650 0.7670 0.7720
1062.493851 0.7750 0.7780 0.7850 0.7920 0.7940
1066.887044 0.8030 0.8090 0.8150 0.8250 0.8310
1071.280237 0.8410 0.8470 0.8490 0.8520 0.8560
1075.673431 0.8660 0.8710 0.8770 0.8810 0.8870
1080.066624 0.8910 0.8980 0.9040 0.9090 0.9100
1084.459817 0.9110 0.9130 0.9180 0.9210 0.9240
1088.853010 0.9250 0.9260 0.9280 0.9290 0.9290
1093.246203 0.9310 0.9310 0.9320 0.9320 0.9310
1097.639396 0.9310 0.9290 0.9280 0.9260 0.9240
1102.032590 0.9210 0.9170 0.9140 0.9110 0.9100
1106.425783 0.9090 0.9060 0.8950 0.8910 0.8840
1110.818976 0.8760 0.8670 0.8590 0.8520 0.8410
1115.212169 0.8290 0.8260 0.8260 0.8270 0.8340
1119.605362 0.8400 0.8510 0.8600 0.8700 0.8760
1123.998555 0.8880 0.8930 0.9020 0.9100 0.9130
1128.391749 0.9150 0.9200 0.9240 0.9280 0.9310
1132.784942 0.9310 0.9320 0.9310 0.9280 0.9250
1137.178135 0.9240 0.9210 0.9200 0.9140 0.9070
1141.571328 0.8950 0.8910 0.8890 0.8910 0.8980
1145.964521 0.9000 0.9070 0.9110 0.9150 0.9200
1150.357714 0.9260 0.9350 0.9400 0.9440 0.9470
1154.750908 0.9530 0.9540 0.9550 0.9570 0.9580
1159.144101 0.9580 0.9610 0.9640 0.9640 0.9640
1163.537294 0.9640 0.9650 0.9650 0.9650 0.9660
1167.930487 0.9680 0.9680 0.9690 0.9690 0.9710
1172.323680 0.9690 0.9690 0.9690 0.9690 0.9690
1176.716874 0.9680 0.9680 0.9650 0.9640 0.9620
1181.110067 0.9620 0.9650 0.9720 0.9730 0.9750
1185.503260 0.9760 0.9770 0.9790 0.9800 0.9800
1189.896453 0.9820 0.9820 0.9820 0.9820 0.9820
1194.289646 0.9820 0.9820 0.9820 0.9820 0.9820
1198.682839 0.9820 0.9820 0.9800 0.9800 0.9800
1203.076033 0.9800 0.9790 0.9790 0.9790 0.9770
1207.469226 0.9760 0.9760 0.9750 0.9730 0.9720
1211.862419 0.9710 0.9690 0.9680 0.9650 0.9620
1216.255612 0.9580 0.9550 0.9540 0.9530 0.9470
1220.648805 0.9430 0.9400 0.9390 0.9400 0.9420
1225.041998 0.9430 0.9470 0.9530 0.9540 0.9550
1229.435192 0.9570 0.9610 0.9620 0.9640 0.9640
1233.828385 0.9650 0.9650 0.9660 0.9660 0.9660
1238.221578 0.9650 0.9650 0.9640 0.9640 0.9620
1242.614771 0.9620 0.9610 0.9610 0.9600 0.9580
1247.007964 0.9580 0.9570 0.9570 0.9550 0.9540
1251.401157 0.9530 0.9500 0.9470 0.9460 0.9440
1255.794351 0.9420 0.9420 0.9400 0.9380 0.9350
1260.187544 0.9320 0.9290 0.9250 0.9210 0.9180
1264.580737 0.9140 0.9100 0.9040 0.8950 0.8920
1268.973930 0.8820 0.8730 0.8660 0.8530 0.8410
1273.367123 0.8290 0.8041 0.8030 0.7930 0.7920
1277.760316 0.7930 0.8120 0.8250 0.8340 0.8380
1282.153510 0.8420 0.8450 0.8440 0.8420 0.8410
1286.546703 0.8370 0.8310 0.8260 0.8220 0.8190
1290.939896 0.8140 0.8110 0.8090 0.8090 0.8050
1295.333089 0.8040 0.8030 0.8010 0.8010 0.8040
1299.726282 0.8090 0.8180 0.8220 0.8230 0.8270
1304.119476 0.8300 0.8330 0.8370 0.8400 0.8420
1308.512669 0.8440 0.8450 0.8480 0.8490 0.8490
1312.905862 0.8510 0.8520 0.8550 0.8560 0.8580
1317.299055 0.8630 0.8670 0.8700 0.8700 0.8710
1321.692248 0.8760 0.8780 0.8780 0.8800 0.8810
1326.085441 0.8840 0.8880 0.8880 0.8890 0.8910
1330.478635 0.8910 0.8920 0.8930 0.8960 0.8980
1334.871828 0.8990 0.9000 0.9000 0.9020 0.9040
1339.265021 0.9060 0.9060 0.9060 0.9040 0.9040
1343.658214 0.9030 0.9030 0.9030 0.9030 0.9030
1348.051407 0.9030 0.9030 0.9040 0.9070 0.9070
1352.444600 0.9090 0.9090 0.9090 0.9100 0.9100
1356.837794 0.9110 0.9110 0.9110 0.9130 0.9130
1361.230987 0.9130 0.9130 0.9130 0.9110 0.9110
1365.624180 0.9100 0.9100 0.9090 0.9090 0.9070
1370.017373 0.9070 0.9060 0.9040 0.9030 0.9020
1374.410566 0.9000 0.9000 0.8990 0.8980 0.8980
1378.803759 0.8960 0.8960 0.8950 0.8930 0.8930
1383.196953 0.8930 0.8920 0.8910 0.8890 0.8880
1387.590146 0.8880 0.8870 0.8850 0.8800 0.8760
1391.983339 0.8730 0.8700 0.8670 0.8630 0.8600
1396.376532 0.8560 0.8510 0.8450 0.8380 0.8310
1400.769725 0.8220 0.8110 0.8070 0.7970 0.7860
1405.162918 0.7720 0.7560 0.7351 0.7121 0.6991
1409.556112 0.6850 0.6570 0.6250 0.5890 0.5500
1413.949305 0.5091 0.4641 0.4151 0.4020 0.3881
1418.342498 0.4040 0.4440 0.4760 0.4980 0.5080
1422.735691 0.5270 0.5479 0.5480 0.5490 0.5480
1427.128884 0.5350 0.5120 0.4750 0.4220 0.3960
1431.522078 0.3700 0.3580 0.3251 0.2961 0.2781
1435.915271 0.2740 0.2780 0.3090 0.4380 0.4870
1440.308464 0.5269 0.5739 0.6468 0.6540 0.7158
1444.701657 0.7390 0.7540 0.7670 0.7760 0.8000
1449.094850 0.8110 0.8160 0.8250 0.8300 0.8340
1453.488043 0.8380 0.8420 0.8480 0.8490 0.8520
1457.881237 0.8530 0.8560 0.8580 0.8580 0.8580
1462.274430 0.8580 0.8580 0.8580 0.8580 0.8580
1466.667623 0.8560 0.8560 0.8560 0.8560 0.8560
1471.060816 0.8560 0.8580 0.8590 0.8600 0.8600
1475.454009 0.8600 0.8620 0.8620 0.8600 0.8600
1479.847202 0.8600 0.8580 0.8550 0.8520 0.8490
1484.240396 0.8480 0.8470 0.8470 0.8450 0.8420
1488.633589 0.8410 0.8400 0.8330 0.8300 0.8290
1493.026782 0.8270 0.8200 0.8190 0.8120 0.8050
1497.419975 0.7970 0.7930 0.7900 0.7800 0.7710
1501.813168 0.7600 0.7500 0.7450 0.7390 0.7270
1506.206361 0.7140 0.7060 0.6960 0.6390 0.6100
1510.599555 0.5890 0.5770 0.5680 0.5560 0.5151
1514.992748 0.4860 0.4580 0.4280 0.4130 0.3980
1519.385941 0.3491 0.3450 0.3330 0.3151 0.2782
1523.779134 0.2380 0.2140 0.2130 0.2140 0.2340
1528.172327 0.2939 0.3359 0.4716 0.5487 0.5699
1532.565521 0.5710 0.5730 0.5730 0.5730 0.5710
1536.958714 0.5700 0.5680 0.5640 0.5530 0.5341
1541.351907 0.5170 0.5060 0.4980 0.4930 0.4880
1545.745100 0.4840 0.4800 0.4770 0.4730 0.4710
1550.138293 0.4690 0.4680 0.4680 0.4680 0.4690
1554.531486 0.4710 0.4770 0.4880 0.4950 0.5050
1558.924680 0.5300 0.5480 0.5560 0.5590 0.5590
1563.317873 0.5570 0.5570 0.5610 0.5779 0.5880
1567.711066 0.5990 0.6030 0.6070 0.6190 0.6260
1572.104259 0.6280 0.6290 0.6290 0.6300 0.6300
1576.497452 0.6300 0.6320 0.6320 0.6320 0.6330
1580.890645 0.6340 0.6360 0.6370 0.6390 0.6400
1585.283839 0.6410 0.6440 0.6470 0.6520 0.6580
1589.677032 0.6630 0.6720 0.6790 0.6870 0.7029
1594.070225 0.7060 0.7140 0.7230 0.7250 0.7320
1598.463418 0.7410 0.7520 0.7600 0.7680 0.7720
1602.856611 0.7750 0.7750 0.7750 0.7750 0.7750
1607.249804 0.7750 0.7740 0.7720 0.7690 0.7650
1611.642998 0.7630 0.7580 0.7520 0.7470 0.7420
1616.036191 0.7410 0.7390 0.7360 0.7320 0.7280
1620.429384 0.7250 0.7210 0.7170 0.7100 0.7030
1624.822577 0.6990 0.6940 0.6870 0.6691 0.6521
1629.215770 0.4660 0.4380 0.4100 0.3960 0.3820
1633.608963 0.3551 0.3311 0.3091 0.2831 0.2581
1638.002157 0.2320 0.2070 0.1590 0.1580 0.1580
1642.395350 0.1590 0.1620 0.1740 0.1880 0.2019
1646.788543 0.2140 0.2280 0.2421 0.4490 0.5390
1651.181736 0.5480 0.6898 0.7359 0.7799 0.7870
1655.574929 0.7920 0.7940 0.7960 0.8000 0.8120
1659.968123 0.8150 0.8230 0.8300 0.8469 0.8510
1664.361316 0.8520 0.8520 0.8530 0.8620 0.8690
1668.754509 0.8740 0.8780 0.8800 0.8810 0.8820
1673.147702 0.8840 0.8850 0.8870 0.8880 0.8890
1677.540895 0.8890 0.8910 0.8920 0.8920 0.8930
1681.934088 0.8980 0.8990 0.8990 0.9020 0.9020
1686.327282 0.9020 0.9000 0.9000 0.9000 0.9030
1690.720475 0.9030 0.9060 0.9090 0.9100 0.9110
1695.113668 0.9130 0.9170 0.9180 0.9180 0.9200
1699.506861 0.9200 0.9200 0.9210 0.9210 0.9210
1703.900054 0.9210 0.9210 0.9210 0.9220 0.9220
1708.293247 0.9220 0.9220 0.9220 0.9240 0.9250
1712.686441 0.9250 0.9260 0.9280 0.9290 0.9290
1717.079634 0.9310 0.9320 0.9320 0.9320 0.9320
1721.472827 0.9320 0.9320 0.9290 0.9290 0.9290
1725.866020 0.9280 0.9280 0.9280 0.9260 0.9260
1730.259213 0.9260 0.9260 0.9260 0.9260 0.9260
1734.652406 0.9260 0.9280 0.9290 0.9290 0.9290
1739.045600 0.9290 0.9310 0.9310 0.9310 0.9320
1743.438793 0.9320 0.9320 0.9320 0.9310 0.9310
1747.831986 0.9310 0.9310 0.9310 0.9320 0.9320
1752.225179 0.9320 0.9310 0.9310 0.9310 0.9320
1756.618372 0.9320 0.9320 0.9320 0.9320 0.9320
1761.011565 0.9330 0.9330 0.9330 0.9320 0.9320
1765.404759 0.9310 0.9320 0.9320 0.9320 0.9320
1769.797952 0.9320 0.9320 0.9320 0.9310 0.9310
1774.191145 0.9310 0.9290 0.9290 0.9280 0.9280
1778.584338 0.9280 0.9260 0.9260 0.9250 0.9250
1782.977531 0.9240 0.9240 0.9220 0.9220 0.9210
1787.370725 0.9210 0.9200 0.9200 0.9180 0.9180
1791.763918 0.9170 0.9170 0.9150 0.9130 0.9130
1796.157111 0.9110 0.9100 0.9100 0.9090 0.9070
1800.550304 0.9040 0.9030 0.9020 0.9000 0.8980
1804.943497 0.8930 0.8920 0.8910 0.8910 0.8890
1809.336690 0.8870 0.8810 0.8770 0.8740 0.8710
1813.729884 0.8690 0.8630 0.8580 0.8510 0.8490
1818.123077 0.8450 0.8370 0.8310 0.8180 0.8070
1822.516270 0.8030 0.7930 0.7860 0.7790 0.7720
1826.909463 0.7670 0.7600 0.7540 0.7460 0.7360
1831.302656 0.7240 0.7140 0.7090 0.7050 0.7030
1835.695849 0.7020 0.7030 0.7070 0.7090 0.7200
1840.089043 0.7250 0.7360 0.7450 0.7600 0.7790
1844.482236 0.7970 0.8110 0.8140 0.8230 0.8330
1848.875429 0.8400 0.8480 0.8580 0.8660 0.8700
1853.268622 0.8760 0.8800 0.8810 0.8850 0.8890
1857.661815 0.8910 0.8920 0.8930 0.8950 0.9000
1862.055008 0.9030 0.9040 0.9060 0.9100 0.9110
1866.448202 0.9110 0.9130 0.9140 0.9150 0.9170
1870.841395 0.9170 0.9180 0.9180 0.9180 0.9180
1875.234588 0.9200 0.9200 0.9210 0.9210 0.9220
1879.627781 0.9220 0.9220 0.9240 0.9240 0.9240
1884.020974 0.9240 0.9240 0.9250 0.9250 0.9250
1888.414168 0.9240 0.9240 0.9240 0.9240 0.9240
1892.807361 0.9240 0.9220 0.9220 0.9220 0.9220
1897.200554 0.9220 0.9220 0.9220 0.9220 0.9220
1901.593747 0.9220 0.9220 0.9220 0.9220 0.9220
1905.986940 0.9240 0.9240 0.9240 0.9250 0.9260
1910.380133 0.9260 0.9280 0.9280 0.9280 0.9290
1914.773327 0.9290 0.9310 0.9310 0.9310 0.9320
1919.166520 0.9320 0.9320 0.9330 0.9330 0.9330
1923.559713 0.9330 0.9350 0.9350 0.9350 0.9350
1927.952906 0.9360 0.9360 0.9360 0.9360 0.9360
1932.346099 0.9360 0.9360 0.9360 0.9360 0.9360
1936.739292 0.9360 0.9360 0.9360 0.9360 0.9360
1941.132486 0.9360 0.9360 0.9360 0.9360 0.9360
1945.525679 0.9350 0.9350 0.9350 0.9350 0.9330
1949.918872 0.9330 0.9330 0.9320 0.9320 0.9320
1954.312065 0.9310 0.9310 0.9310 0.9290 0.9290
1958.705258 0.9290 0.9280 0.9250 0.9220 0.9220
1963.098451 0.9210 0.9200 0.9180 0.9170 0.9150
1967.491645 0.9130 0.9110 0.9100 0.9090 0.9070
1971.884838 0.9040 0.9020 0.8990 0.8960 0.8950
1976.278031 0.8930 0.8930 0.8930 0.8950 0.8960
1980.671224 0.8980 0.8980 0.8990 0.8990 0.9000
1985.064417 0.9020 0.9030 0.9040 0.9060 0.9090
1989.457610 0.9100 0.9110 0.9140 0.9150 0.9180
1993.850804 0.9200 0.9200 0.9210 0.9220 0.9240
1998.243997 0.9250 0.9260 0.9290 0.9300 0.9310
2002.637190 0.9310 0.9310 0.9315 0.9320 0.9320
2007.030383 0.9320 0.9320 0.9320 0.9320 0.9320
2011.423576 0.9320 0.9320 0.9320 0.9320 0.9320
2015.816770 0.9320 0.9325 0.9330 0.9330 0.9330
2020.209963 0.9340 0.9350 0.9350 0.9350 0.9355
2024.603156 0.9360 0.9360 0.9360 0.9370 0.9380
2028.996349 0.9380 0.9380 0.9370 0.9360 0.9360
2033.389542 0.9360 0.9371 0.9380 0.9380 0.9380
2037.782735 0.9380 0.9380 0.9385 0.9390 0.9390
2042.175929 0.9390 0.9390 0.9390 0.9390 0.9390
2046.569122 0.9390 0.9390 0.9390 0.9390 0.9385
2050.962315 0.9380 0.9380 0.9380 0.9386 0.9390
2055.355508 0.9390 0.9390 0.9390 0.9390 0.9390
2059.748701 0.9390 0.9390 0.9391 0.9396 0.9400
2064.141894 0.9400 0.9400 0.9400 0.9400 0.9400
2068.535088 0.9400 0.9400 0.9401 0.9411 0.9421
2072.928281 0.9426 0.9430 0.9430 0.9430 0.9430
2077.321474 0.9430 0.9430 0.9431 0.9436 0.9441
2081.714667 0.9451 0.9460 0.9460 0.9461 0.9466
2086.107860 0.9470 0.9470 0.9472 0.9482 0.9490
2090.501053 0.9490 0.9490 0.9490 0.9490 0.9490
2094.894247 0.9490 0.9490 0.9490 0.9490 0.9490
2099.287440 0.9490 0.9490 0.9490 0.9490 0.9490
2103.680633 0.9490 0.9490 0.9490 0.9490 0.9491
2108.073826 0.9496 0.9499 0.9494 0.9490 0.9490
2112.467019 0.9488 0.9478 0.9470 0.9470 0.9470
2116.860212 0.9470 0.9470 0.9470 0.9469 0.9464
2121.253406 0.9460 0.9460 0.9460 0.9460 0.9460
2125.646599 0.9460 0.9460 0.9460 0.9460 0.9460
2130.039792 0.9460 0.9460 0.9460 0.9460 0.9460
2134.432985 0.9460 0.9460 0.9460 0.9460 0.9460
2138.826178 0.9461 0.9466 0.9470 0.9470 0.9466
2143.219372 0.9451 0.9440 0.9440 0.9440 0.9440
2147.612565 0.9440 0.9440 0.9440 0.9440 0.9440
2152.005758 0.9440 0.9439 0.9434 0.9430 0.9430
2156.398951 0.9430 0.9430 0.9430 0.9430 0.9429
2160.792144 0.9424 0.9417 0.9407 0.9400 0.9400
2165.185337 0.9400 0.9400 0.9398 0.9393 0.9388
2169.578531 0.9383 0.9380 0.9380 0.9375 0.9360
2173.971724 0.9341 0.9310 0.9285 0.9270 0.9260
2178.364917 0.9260 0.9263 0.9273 0.9292 0.9327
2182.758110 0.9357 0.9377 0.9390 0.9390 0.9390
2187.151303 0.9390 0.9392 0.9397 0.9400 0.9400
2191.544496 0.9403 0.9414 0.9420 0.9420 0.9420
2195.937690 0.9420 0.9420 0.9420 0.9422 0.9427
2200.330883 0.9432 0.9437 0.9440 0.9440 0.9440
2204.724076 0.9440 0.9440 0.9440 0.9440 0.9440
2209.117269 0.9440 0.9440 0.9444 0.9454 0.9460
2213.510462 0.9460 0.9456 0.9446 0.9440 0.9440
2217.903655 0.9440 0.9440 0.9438 0.9433 0.9430
2222.296849 0.9430 0.9430 0.9430 0.9430 0.9430
2226.690042 0.9430 0.9430 0.9430 0.9430 0.9430
2231.083235 0.9430 0.9430 0.9430 0.9430 0.9430
2235.476428 0.9430 0.9430 0.9430 0.9430 0.9430
2239.869621 0.9430 0.9432 0.9437 0.9438 0.9433
2244.262815 0.9430 0.9430 0.9430 0.9430 0.9430
2248.656008 0.9430 0.9428 0.9423 0.9415 0.9405
2253.049201 0.9398 0.9393 0.9390 0.9390 0.9388
2257.442394 0.9383 0.9380 0.9380 0.9375 0.9365
2261.835587 0.9360 0.9360 0.9360 0.9360 0.9358
2266.228780 0.9353 0.9350 0.9350 0.9345 0.9335
2270.621974 0.9330 0.9330 0.9327 0.9322 0.9317
2275.015167 0.9312 0.9305 0.9295 0.9287 0.9282
2279.408360 0.9275 0.9265 0.9257 0.9252 0.9250
2283.801553 0.9250 0.9250 0.9250 0.9247 0.9242
2288.194746 0.9235 0.9225 0.9217 0.9212 0.9207
2292.587939 0.9202 0.9200 0.9200 0.9200 0.9200
2296.981133 0.9200 0.9200 0.9200 0.9200 0.9203
2301.374326 0.9208 0.9210 0.9210 0.9213 0.9218
2305.767519 0.9220 0.9220 0.9220 0.9220 0.9226
2310.160712 0.9236 0.9246 0.9256 0.9266 0.9276
2314.553905 0.9283 0.9288 0.9290 0.9290 0.9302
2318.947098 0.9322 0.9336 0.9346 0.9353 0.9358
2323.340292 0.9369 0.9384 0.9393 0.9398 0.9406
2327.733485 0.9416 0.9426 0.9436 0.9446 0.9456
2332.126678 0.9463 0.9468 0.9470 0.9470 0.9470
2336.519871 0.9470 0.9476 0.9486 0.9493 0.9498
2340.913064 0.9500 0.9500 0.9500 0.9500 0.9497
2345.306257 0.9492 0.9490 0.9490 0.9490 0.9490
2349.699451 0.9490 0.9490 0.9490 0.9490 0.9497
2354.092644 0.9507 0.9517 0.9527 0.9533 0.9538
2358.485837 0.9550 0.9565 0.9573 0.9578 0.9577
2362.879030 0.9572 0.9570 0.9570 0.9563 0.9553
2367.272223 0.9550 0.9550 0.9550 0.9550 0.9550
2371.665417 0.9550 0.9547 0.9542 0.9540 0.9540
2376.058610 0.9540 0.9540 0.9540 0.9540 0.9536
2380.451803 0.9531 0.9530 0.9530 0.9530 0.9530
2384.844996 0.9523 0.9513 0.9510 0.9510 0.9510
2389.238189 0.9510 0.9510 0.9510 0.9510 0.9510
2393.631382 0.9510 0.9510 0.9510 0.9510 0.9510
2398.024576 0.9510 0.9510 0.9510 0.9510 0.9510
2402.417769 0.9510 0.9510 0.9510 0.9510 0.9510
2406.810962 0.9510 0.9510 0.9510 0.9510 0.9510
2411.204155 0.9510 0.9510 0.9510 0.9510 0.9510
2415.597348 0.9510 0.9510 0.9510 0.9510 0.9510
2419.990541 0.9510 0.9510 0.9510 0.9510 0.9510
2424.383735 0.9510 0.9510 0.9510 0.9510 0.9510
2428.776928 0.9510 0.9510 0.9510 0.9510 0.9510
2433.170121 0.9510 0.9510 0.9510 0.9510 0.9510
2437.563314 0.9510 0.9510 0.9510 0.9510 0.9510
2441.956507 0.9510 0.9510 0.9510 0.9510 0.9510
2446.349700 0.9510 0.9510 0.9510 0.9510 0.9510
2450.742894 0.9510 0.9510 0.9510 0.9510 0.9510
2455.136087 0.9510 0.9510 0.9510 0.9510 0.9510
2459.529280 0.9510 0.9510 0.9510 0.9510 0.9510
2463.922473 0.9510 0.9510 0.9510 0.9510 0.9510
2468.315666 0.9510 0.9510 0.9510 0.9510 0.9510
2472.708859 0.9510 0.9510 0.9510 0.9510 0.9510
2477.102053 0.9510 0.9510 0.9510 0.9510 0.9510
2481.495246 0.9510 0.9510 0.9510 0.9510 0.9510
2485.888439 0.9510 0.9510 0.9510 0.9510 0.9510
2490.281632 0.9505 0.9500 0.9500 0.9500 0.9495
2494.674825 0.9490 0.9490 0.9490 0.9490 0.9490
2499.068019 0.9490 0.9490 0.9490 0.9490 0.9490
2503.461212 0.9490 0.9481 0.9471 0.9470 0.9470
2507.854405 0.9470 0.9470 0.9470 0.9470 0.9470
2512.247598 0.9470 0.9470 0.9470 0.9470 0.9470
2516.640791 0.9470 0.9470 0.9470 0.9470 0.9470
2521.033984 0.9470 0.9470 0.9470 0.9470 0.9470
2525.427178 0.9470 0.9470 0.9470 0.9470 0.9470
2529.820371 0.9470 0.9470 0.9470 0.9470 0.9470
2534.213564 0.9470 0.9470 0.9470 0.9470 0.9470
2538.606757 0.9470 0.9470 0.9470 0.9470 0.9470
2542.999950 0.9470 0.9470 0.9470 0.9470 0.9470
2547.393143 0.9470 0.9470 0.9470 0.9470 0.9470
2551.786337 0.9470 0.9470 0.9470 0.9470 0.9470
2556.179530 0.9470 0.9470 0.9470 0.9470 0.9470
2560.572723 0.9470 0.9470 0.9470 0.9470 0.9470
2564.965916 0.9470 0.9470 0.9470 0.9470 0.9470
2569.359109 0.9470 0.9470 0.9470 0.9470 0.9470
2573.752302 0.9470 0.9470 0.9471 0.9481 0.9489
2578.145496 0.9479 0.9470 0.9470 0.9470 0.9470
2582.538689 0.9470 0.9470 0.9470 0.9470 0.9470
2586.931882 0.9470 0.9470 0.9470 0.9470 0.9465
2591.325075 0.9460 0.9460 0.9460 0.9460 0.9460
2595.718268 0.9460 0.9460 0.9460 0.9460 0.9460
2600.111461 0.9460 0.9460 0.9460 0.9460 0.9461
2604.504655 0.9466 0.9470 0.9470 0.9470 0.9470
2608.897848 0.9471 0.9481 0.9491 0.9496 0.9499
2613.291041 0.9494 0.9490 0.9490 0.9490 0.9490
2617.684234 0.9490 0.9490 0.9490 0.9490 0.9490
2622.077427 0.9490 0.9490 0.9490 0.9490 0.9490
2626.470621 0.9490 0.9490 0.9491 0.9496 0.9500
2630.863814 0.9500 0.9500 0.9500 0.9500 0.9500
2635.257007 0.9500 0.9500 0.9503 0.9518 0.9530
2639.650200 0.9530 0.9530 0.9530 0.9530 0.9530
2644.043393 0.9530 0.9530 0.9530 0.9530 0.9530
2648.436586 0.9530 0.9530 0.9530 0.9530 0.9530
2652.829780 0.9530 0.9530 0.9530 0.9530 0.9530
2657.222973 0.9530 0.9528 0.9518 0.9510 0.9510
2661.616166 0.9510 0.9510 0.9510 0.9510 0.9510
2666.009359 0.9510 0.9509 0.9504 0.9500 0.9500
2670.402552 0.9500 0.9500 0.9500 0.9500 0.9500
2674.795745 0.9500 0.9499 0.9494 0.9490 0.9490
2679.188939 0.9487 0.9477 0.9469 0.9464 0.9457
2683.582132 0.9447 0.9440 0.9440 0.9439 0.9434
2687.975325 0.9430 0.9430 0.9426 0.9411 0.9399
2692.368518 0.9394 0.9390 0.9390 0.9389 0.9384
2696.761711 0.9380 0.9380 0.9377 0.9367 0.9359
2701.154904 0.9353 0.9350 0.9350 0.9350 0.9350
2705.548098 0.9352 0.9357 0.9360 0.9360 0.9363
2709.941291 0.9373 0.9380 0.9380 0.9382 0.9387
2714.334484 0.9390 0.9390 0.9390 0.9390 0.9388
2718.727677 0.9383 0.9380 0.9380 0.9380 0.9380
2723.120870 0.9380 0.9380 0.9380 0.9380 0.9380
2727.514064 0.9380 0.9376 0.9366 0.9360 0.9360
2731.907257 0.9364 0.9374 0.9380 0.9380 0.9380
2736.300450 0.9380 0.9382 0.9387 0.9390 0.9390
2740.693643 0.9392 0.9397 0.9400 0.9400 0.9400
2745.086836 0.9400 0.9400 0.9400 0.9400 0.9400
2749.480029 0.9400 0.9400 0.9400 0.9400 0.9400
2753.873223 0.9400 0.9400 0.9400 0.9400 0.9400
2758.266416 0.9400 0.9400 0.9400 0.9400 0.9400
2762.659609 0.9400 0.9400 0.9400 0.9400 0.9400
2767.052802 0.9398 0.9393 0.9390 0.9390 0.9388
2771.445995 0.9383 0.9376 0.9365 0.9360 0.9360
2775.839188 0.9358 0.9353 0.9345 0.9335 0.9330
2780.232382 0.9330 0.9328 0.9323 0.9320 0.9320
2784.625575 0.9318 0.9313 0.9303 0.9288 0.9273
2789.018768 0.9258 0.9243 0.9228 0.9215 0.9205
2793.411961 0.9188 0.9163 0.9148 0.9143 0.9133
2797.805154 0.9118 0.9100 0.9080 0.9050 0.9010
2802.198347 0.8965 0.8915 0.8885 0.8875 0.8853
2806.591541 0.8817 0.8772 0.8717 0.8656 0.8591
2810.984734 0.8529 0.8469 0.8404 0.8334 0.8261
2815.377927 0.8186 0.8113 0.8043 0.7973 0.7903
2819.771120 0.7836 0.7771 0.7693 0.7603 0.7501
2824.164313 0.7390 0.7302 0.7232 0.7164 0.7099
2828.557506 0.7064 0.7054 0.7050 0.7050 0.7053
2832.950700 0.7058 0.7096 0.7161 0.7207 0.7237
2837.343893 0.7325 0.7460 0.7542 0.7582 0.7600
2841.737086 0.7600 0.7594 0.7584 0.7580 0.7580
2846.130279 0.7562 0.7532 0.7500 0.7464 0.7424
2850.523472 0.7379 0.7328 0.7273 0.7250 0.7250
2854.916666 0.7277 0.7322 0.7387 0.7467 0.7518
2859.309859 0.7548 0.7582 0.7617 0.7636 0.7646
2863.703052 0.7659 0.7674 0.7677 0.7672 0.7658
2868.096245 0.7638 0.7608 0.7573 0.7520 0.7454
2872.489438 0.7383 0.7308 0.7242 0.7182 0.7125
2876.882631 0.7070 0.7014 0.6959 0.6846 0.6701
2881.275825 0.6549 0.6394 0.6249 0.6109 0.5982
2885.669018 0.5862 0.5751 0.5646 0.5522 0.5386
2890.062211 0.5228 0.5058 0.4961 0.4900 0.4813
2894.455404 0.4712 0.4666 0.4646 0.4609 0.4564
2898.848597 0.4485 0.4390 0.4357 0.4352 0.4353
2903.241790 0.4358 0.4405 0.4470 0.4535 0.4600
2907.634984 0.4658 0.4713 0.4789 0.4874 0.4928
2912.028177 0.4968 0.4991 0.5006 0.5021 0.5036
2916.421370 0.5065 0.5100 0.5149 0.5204 0.5281
2920.814563 0.5366 0.5476 0.5596 0.5720 0.5845
2925.207756 0.5909 0.5949 0.6011 0.6081 0.6148
2929.600949 0.6213 0.6316 0.6431 0.6505 0.6565
2933.994143 0.6636 0.6711 0.6741 0.6756 0.6786
2938.387336 0.6821 0.6905 0.7005 0.7064 0.7109
2942.780529 0.7162 0.7217 0.7245 0.7265 0.7297
2947.173722 0.7332 0.7375 0.7420 0.7442 0.7457
2951.566915 0.7460 0.7460 0.7448 0.7433 0.7426
2955.960108 0.7421 0.7396 0.7366 0.7329 0.7288
2960.353302 0.7237 0.7182 0.7111 0.7036 0.7004
2964.746495 0.6984 0.6964 0.6944 0.6855 0.6750
2969.139688 0.6620 0.6485 0.6317 0.6142 0.5942
2973.532881 0.5737 0.5160 0.4499 0.4261 0.4116
2977.926074 0.3971 0.3826 0.3565 0.3280 0.2997
2982.319268 0.2714 0.2429 0.2144 0.2100 0.2100
2986.712461 0.2265 0.2460 0.2651 0.2841 0.3036
2991.105654 0.3231 0.3622 0.4047 0.4374 0.4685
2995.498847 0.4862 0.5018 0.5091 0.5151 0.5160
2999.892040 0.5160 0.5094 0.5019 0.4839 0.4643
3004.285233 0.4519 0.4404 0.4293 0.4183 0.4121
3008.678427 0.4066 0.4003 0.3937 0.3753 0.3553
3013.071620 0.3508 0.3483 0.3742 0.4037 0.4313
3017.464813 0.4585 0.4856 0.5126 0.5620 0.6135
3021.858006 0.6185 0.6190 0.6323 0.6468 0.6741
3026.251199 0.7026 0.7105 0.7165 0.7221 0.7276
3030.644392 0.7340 0.7405 0.7461 0.7516 0.7543
3035.037586 0.7569 0.7570 0.7570 0.7565 0.7560
3039.430779 0.7546 0.7531 0.7516 0.7501 0.7476
3043.823972 0.7451 0.7431 0.7411 0.7348 0.7283
3048.217165 0.7228 0.7173 0.7098 0.7023 0.6962
3052.610358 0.6901 0.6837 0.6772 0.6682 0.6592
3057.003551 0.6556 0.6521 0.6412 0.6302 0.6158
3061.396745 0.6013 0.5789 0.5564 0.5324 0.5084
3065.789938 0.4937 0.4792 0.4553 0.4313 0.4185
3070.183131 0.4060 0.4030 0.4000 0.3965 0.3930
3074.576324 0.3884 0.3839 0.3754 0.3668 0.3503
3078.969517 0.3336 0.3081 0.2827 0.2662 0.2497
3083.362711 0.2342 0.2187 0.2032 0.1880 0.1875
3087.755904 0.1870 0.1875 0.1888 0.2073 0.2258
3092.149097 0.2433 0.2606 0.2736 0.2867 0.3017
3096.542290 0.3202 0.4057 0.4895 0.5385 0.5874
3100.935483 0.6350 0.6807 0.6942 0.7077 0.7214
3105.328676 0.7350 0.7480 0.7608 0.7718 0.7827
3109.721870 0.7917 0.8006 0.8086 0.8173 0.8333
3114.115063 0.8480 0.8485 0.8493 0.8528 0.8564
3118.508256 0.8614 0.8662 0.8682 0.8705 0.8766
3122.901449 0.8824 0.8859 0.8890 0.8890 0.8891
3127.294642 0.8901 0.8911 0.8921 0.8933 0.8958
3131.687835 0.8981 0.8991 0.9002 0.9017 0.9032
3136.081029 0.9047 0.9062 0.9082 0.9102 0.9117
3140.474222 0.9131 0.9141 0.9152 0.9167 0.9181
3144.867415 0.9191 0.9200 0.9200 0.9201 0.9206
3149.260608 0.9212 0.9227 0.9241 0.9246 0.9251
3153.653801 0.9256 0.9262 0.9272 0.9280 0.9280
3158.046994 0.9281 0.9286 0.9292 0.9302 0.9310
3162.440188 0.9310 0.9311 0.9316 0.9320 0.9320
3166.833381 0.9321 0.9326 0.9330 0.9330 0.9332
3171.226574 0.9342 0.9350 0.9350 0.9351 0.9356
3175.619767 0.9362 0.9372 0.9380 0.9380 0.9381
3180.012960 0.9386 0.9391 0.9396 0.9402 0.9412
3184.406153 0.9420 0.9420 0.9420 0.9420 0.9420
3188.799347 0.9420 0.9421 0.9426 0.9431 0.9436
3193.192540 0.9440 0.9440 0.9440 0.9440 0.9440
3197.585733 0.9440 0.9442 0.9452 0.9461 0.9466
3201.978926 0.9470 0.9470 0.9470 0.9470 0.9470
3206.372119 0.9470 0.9470 0.9470 0.9473 0.9483
3210.765313 0.9490 0.9490 0.9490 0.9490 0.9490
3215.158506 0.9490 0.9491 0.9496 0.9500 0.9500
3219.551699 0.9500 0.9500 0.9501 0.9506 0.9510
3223.944892 0.9510 0.9510 0.9510 0.9513 0.9523
3228.338085 0.9530 0.9530 0.9530 0.9530 0.9530
3232.731278 0.9530 0.9530 0.9530 0.9530 0.9530
3237.124472 0.9530 0.9530 0.9530 0.9530 0.9530
3241.517665 0.9530 0.9530 0.9530 0.9530 0.9530
3245.910858 0.9530 0.9530 0.9530 0.9530 0.9530
3250.304051 0.9530 0.9530 0.9530 0.9530 0.9530
3254.697244 0.9530 0.9530 0.9530 0.9530 0.9530
3259.090437 0.9530 0.9530 0.9530 0.9530 0.9530
3263.483631 0.9530 0.9530 0.9530 0.9530 0.9530
3267.876824 0.9530 0.9530 0.9530 0.9530 0.9530
3272.270017 0.9530 0.9530 0.9530 0.9530 0.9530
3276.663210 0.9530 0.9530 0.9530 0.9530 0.9530
3281.056403 0.9530 0.9530 0.9532 0.9537 0.9540
3285.449596 0.9540 0.9540 0.9540 0.9538 0.9533
3289.842790 0.9530 0.9530 0.9530 0.9530 0.9530
3294.235983 0.9530 0.9530 0.9530 0.9530 0.9530
3298.629176 0.9530 0.9530 0.9530 0.9530 0.9530
3303.022369 0.9530 0.9530 0.9530 0.9530 0.9530
3307.415562 0.9530 0.9530 0.9530 0.9530 0.9530
3311.808755 0.9530 0.9530 0.9530 0.9530 0.9530
3316.201949 0.9530 0.9530 0.9530 0.9530 0.9530
3320.595142 0.9530 0.9532 0.9537 0.9540 0.9540
3324.988335 0.9540 0.9540 0.9540 0.9540 0.9540
3329.381528 0.9540 0.9542 0.9547 0.9550 0.9550
3333.774721 0.9547 0.9542 0.9540 0.9540 0.9543
3338.167915 0.9548 0.9550 0.9550 0.9550 0.9550
3342.561108 0.9550 0.9550 0.9550 0.9550 0.9550
3346.954301 0.9550 0.9550 0.9550 0.9550 0.9550
3351.347494 0.9550 0.9550 0.9550 0.9550 0.9550
3355.740687 0.9550 0.9555 0.9565 0.9570 0.9570
3360.133880 0.9570 0.9570 0.9570 0.9570 0.9570
3364.527074 0.9570 0.9570 0.9570 0.9570 0.9570
3368.920267 0.9570 0.9570 0.9570 0.9570 0.9570
3373.313460 0.9570 0.9570 0.9570 0.9570 0.9570
3377.706653 0.9570 0.9570 0.9570 0.9570 0.9570
3382.099846 0.9570 0.9570 0.9570 0.9570 0.9570
3386.493039 0.9570 0.9570 0.9570 0.9570 0.9570
3390.886233 0.9570 0.9570 0.9570 0.9570 0.9570
3395.279426 0.9570 0.9570 0.9570 0.9570 0.9570
3399.672619 0.9570 0.9570 0.9570 0.9570 0.9570
3404.065812 0.9570 0.9570 0.9570 0.9570 0.9570
3408.459005 0.9570 0.9570 0.9570 0.9570 0.9570
3412.852198 0.9570 0.9570 0.9570 0.9570 0.9570
3417.245392 0.9570 0.9564 0.9554 0.9550 0.9550
3421.638585 0.9550 0.9550 0.9550 0.9550 0.9550
3426.031778 0.9550 0.9550 0.9550 0.9550 0.9550
3430.424971 0.9547 0.9542 0.9540 0.9540 0.9540
3434.818164 0.9540 0.9540 0.9540 0.9540 0.9540
3439.211358 0.9540 0.9540 0.9540 0.9540 0.9536
3443.604551 0.9531 0.9530 0.9530 0.9530 0.9530
3447.997744 0.9530 0.9530 0.9530 0.9530 0.9530
3452.390937 0.9530 0.9530 0.9530 0.9530 0.9530
3456.784130 0.9530 0.9530 0.9530 0.9530 0.9530
3461.177323 0.9530 0.9530 0.9530 0.9530 0.9530
3465.570517 0.9530 0.9530 0.9530 0.9530 0.9530
3469.963710 0.9530 0.9530 0.9530 0.9530 0.9530
3474.356903 0.9530 0.9530 0.9530 0.9530 0.9530
3478.750096 0.9530 0.9530 0.9530 0.9530 0.9530
3483.143289 0.9530 0.9530 0.9530 0.9530 0.9530
3487.536482 0.9530 0.9530 0.9530 0.9530 0.9530
3491.929676 0.9530 0.9530 0.9530 0.9530 0.9530
3496.322869 0.9530 0.9530 0.9530 0.9530 0.9530
3500.716062 0.9530 0.9530 0.9530 0.9530 0.9530
3505.109255 0.9530 0.9530 0.9530 0.9530 0.9530
3509.502448 0.9530 0.9530 0.9530 0.9530 0.9530
3513.895641 0.9530 0.9530 0.9530 0.9530 0.9530
3518.288835 0.9530 0.9530 0.9530 0.9530 0.9530
3522.682028 0.9530 0.9530 0.9530 0.9530 0.9530
3527.075221 0.9530 0.9530 0.9534 0.9539 0.9540
3531.468414 0.9540 0.9540 0.9540 0.9536 0.9531
3535.861607 0.9530 0.9530 0.9530 0.9530 0.9530
3540.254800 0.9530 0.9530 0.9530 0.9530 0.9530
3544.647994 0.9530 0.9530 0.9530 0.9530 0.9535
3549.041187 0.9540 0.9540 0.9540 0.9540 0.9540
3553.434380 0.9545 0.9550 0.9550 0.9550 0.9550
3557.827573 0.9550 0.9550 0.9550 0.9550 0.9550
3562.220766 0.9550 0.9550 0.9550 0.9550 0.9545
3566.613960 0.9540 0.9540 0.9540 0.9521 0.9501
3571.007153 0.9472 0.9442 0.9412 0.9382 0.9338
3575.400346 0.9293 0.9290 0.9290 0.9338 0.9388
3579.793539 0.9429 0.9469 0.9484 0.9499 0.9505
3584.186732 0.9510 0.9520 0.9530 0.9535 0.9540
3588.579925 0.9540 0.9540 0.9540 0.9540 0.9535
3592.973119 0.9530 0.9520 0.9510 0.9510 0.9510
3597.366312 0.9520 0.9530 0.9530 0.9530 0.9530
3601.759505 0.9530 0.9530 0.9530 0.9530 0.9530
3606.152698 0.9530 0.9530 0.9530 0.9530 0.9530
3610.545891 0.9530 0.9530 0.9530 0.9530 0.9530
3614.939084 0.9535 0.9540 0.9540 0.9540 0.9540
3619.332278 0.9540 0.9540 0.9540 0.9540 0.9540
3623.725471 0.9540 0.9540 0.9540 0.9540 0.9545
3628.118664 0.9550 0.9550 0.9550 0.9550 0.9550
3632.511857 0.9550 0.9550 0.9550 0.9551 0.9561
3636.905050 0.9570 0.9570 0.9570 0.9570 0.9570
3641.298243 0.9570 0.9569 0.9554 0.9540 0.9540
3645.691437 0.9540 0.9540 0.9540 0.9535 0.9530
3650.084630 0.9530 0.9530 0.9530 0.9530 0.9530
3654.477823 0.9530 0.9530 0.9530 0.9536 0.9541
3658.871016 0.9546 0.9550 0.9550 0.9550 0.9550
3663.264209 0.9550 0.9550 0.9550 0.9550 0.9550
3667.657402 0.9550 0.9550 0.9550 0.9549 0.9544
3672.050596 0.9540 0.9540 0.9539 0.9534 0.9530
3676.443789 0.9530 0.9530 0.9530 0.9531 0.9541
3680.836982 0.9550 0.9550 0.9549 0.9544 0.9540
3685.230175 0.9540 0.9540 0.9540 0.9540 0.9540
3689.623368 0.9540 0.9540 0.9540 0.9540 0.9540
3694.016562 0.9540 0.9541 0.9546 0.9550 0.9550
3698.409755 0.9552 0.9562 0.9570 0.9570 0.9570
3702.802948 0.9570 0.9570 0.9570 0.9571 0.9576
3707.196141 0.9580 0.9580 0.9580 0.9580 0.9580
3711.589334 0.9580 0.9582 0.9592 0.9600 0.9600
3715.982527 0.9600 0.9600 0.9601 0.9606 0.9610
3720.375721 0.9610 0.9610 0.9610 0.9610 0.9610
3724.768914 0.9611 0.9616 0.9620 0.9620 0.9620
3729.162107 0.9620 0.9620 0.9620 0.9622 0.9632
3733.555300 0.9640 0.9640 0.9640 0.9640 0.9637
3737.948493 0.9627 0.9620 0.9620 0.9617 0.9607
3742.341686 0.9600 0.9600 0.9597 0.9587 0.9580
3746.734880 0.9580 0.9579 0.9574 0.9567 0.9557
3751.128073 0.9550 0.9550 0.9550 0.9550 0.9549
3755.521266 0.9544 0.9540 0.9540 0.9540 0.9540
3759.914459 0.9539 0.9534 0.9530 0.9530 0.9530
3764.307652 0.9530 0.9527 0.9517 0.9510 0.9510
3768.700845 0.9510 0.9510 0.9513 0.9523 0.9530
3773.094039 0.9530 0.9530 0.9530 0.9530 0.9530
3777.487232 0.9532 0.9537 0.9540 0.9540 0.9540
3781.880425 0.9540 0.9540 0.9540 0.9542 0.9547
3786.273618 0.9550 0.9550 0.9550 0.9550 0.9550
3790.666811 0.9550 0.9550 0.9550 0.9548 0.9543
3795.060004 0.9540 0.9540 0.9540 0.9540 0.9538
3799.453198 0.9533 0.9530 0.9530 0.9530 0.9530
3803.846391 0.9530 0.9530 0.9530 0.9530
##END=
