##TITLE=1,4-PENTADIENE
##JCAMP-DX=4.24
##DATA TYPE=INFRARED SPECTRUM
##CLASS=COBLENTZ
##ORIGIN=DOW CHEMICAL COMPANY
##OWNER=COBLENTZ SOCIETY
Collection (C) 2018 copyright by the U.S. Secretary of Commerce
on behalf of the United States of America. All rights reserved.
##DATE=1964/10/22
##CAS REGISTRY NO=591-93-5
##MOLFORM=C5 H8
##SOURCE REFERENCE=COBLENTZ NO. 6998
##$NIST SOURCE=COBLENTZ
##$NIST IMAGE=cob6998
##SPECTROMETER/DATA SYSTEM=DOW KBr FOREPRISM
##INSTRUMENT PARAMETERS=GRATING BLAZED AT 3.5, 12.0, 20.0 MICRONS AND CHANGED AT 5.0, 7.5, 14.9 MICRONS
##STATE=LIQUID (100 mmHg DILUTED TO A TOTAL PRESSURE OF 600 mmHg WITH NITROGEN)
##PATH LENGTH=5 CM
##SAMPLING PROCEDURE=TRANSMISSION
##RESOLUTION=4
##DATA PROCESSING=DIGITIZED BY NIST FROM HARD COPY (FROM TWO SEGMENTS)
##XUNITS=1/CM
##YUNITS=TRANSMITTANCE
##XFACTOR=1.000000
##YFACTOR=1
##DELTAX=0.878736
##FIRSTX=450.791
##LASTX=3778.56
##FIRSTY=0.9
##MAXX=3778.56
##MINX=450.791
##MAXY=0.984
##MINY=0.022
##NPOINTS=3788
##XYDATA=(X++(Y..Y))
450.791000 0.9000 0.8980 0.8980 0.8960 0.8960
455.184678 0.8960 0.8970 0.8960 0.8970 0.8970
459.578355 0.8980 0.8980 0.9000 0.9030 0.9040
463.972033 0.9040 0.9070 0.9080 0.9110 0.9160
468.365710 0.9160 0.9180 0.9210 0.9230 0.9250
472.759388 0.9260 0.9260 0.9270 0.9270 0.9270
477.153065 0.9260 0.9260 0.9260 0.9250 0.9250
481.546743 0.9250 0.9230 0.9230 0.9220 0.9220
485.940420 0.9220 0.9210 0.9210 0.9210 0.9190
490.334098 0.9190 0.9190 0.9180 0.9160 0.9160
494.727775 0.9150 0.9150 0.9150 0.9150 0.9150
499.121453 0.9140 0.9140 0.9110 0.9080 0.9080
503.515130 0.9070 0.9050 0.9050 0.9040 0.9030
507.908808 0.9010 0.8980 0.8980 0.8970 0.8960
512.302486 0.8940 0.8940 0.8930 0.8910 0.8890
516.696163 0.8860 0.8860 0.8850 0.8830 0.8830
521.089841 0.8790 0.8750 0.8730 0.8720 0.8670
525.483518 0.8620 0.8580 0.8550 0.8530 0.8490
529.877196 0.8440 0.8400 0.8360 0.8310 0.8260
534.270873 0.8220 0.8170 0.8110 0.8060 0.8010
538.664551 0.7950 0.7890 0.7830 0.7780 0.7710
543.058228 0.7640 0.7610 0.7560 0.7490 0.7390
547.451906 0.7290 0.7200 0.7100 0.7000 0.6930
551.845583 0.6880 0.6850 0.6880 0.6920 0.6980
556.239261 0.7020 0.7040 0.7090 0.7110 0.7110
560.632938 0.7070 0.7070 0.7070 0.7090 0.7090
565.026616 0.7100 0.7110 0.7130 0.7160 0.7180
569.420294 0.7220 0.7240 0.7270 0.7270 0.7250
573.813971 0.7220 0.7220 0.7210 0.7180 0.7140
578.207649 0.7100 0.7030 0.6960 0.6880 0.6820
582.601326 0.6770 0.6770 0.6820 0.6840 0.6840
586.995004 0.6800 0.6660 0.6600 0.6530 0.6500
591.388681 0.6490 0.6480 0.6490 0.6500 0.6500
595.782359 0.6520 0.6520 0.6550 0.6590 0.6670
600.176036 0.6750 0.6820 0.6890 0.6950 0.6950
604.569714 0.6990 0.7060 0.7130 0.7210 0.7319
608.963391 0.7420 0.7520 0.7600 0.7680 0.7750
613.357069 0.7790 0.7810 0.7820 0.7830 0.7830
617.750746 0.7810 0.7770 0.7720 0.7680 0.7650
622.144424 0.7610 0.7590 0.7560 0.7530 0.7500
626.538102 0.7470 0.7460 0.7430 0.7420 0.7390
630.931779 0.7350 0.7310 0.7280 0.7240 0.7200
635.325457 0.7140 0.7100 0.7060 0.7020 0.6980
639.719134 0.6950 0.6890 0.6850 0.6810 0.6750
644.112812 0.6710 0.6670 0.6630 0.6570 0.6530
648.506489 0.6500 0.6460 0.6440 0.6420 0.6390
652.900167 0.6350 0.6340 0.6320 0.6320 0.6340
657.293844 0.6350 0.6380 0.6410 0.6420 0.6460
661.687522 0.6480 0.6480 0.6480 0.6490 0.6500
666.081199 0.6500 0.6520 0.6550 0.6570 0.6630
670.474877 0.6660 0.6680 0.6730 0.6800 0.6910
674.868554 0.6930 0.6960 0.7060 0.7130 0.7239
679.262232 0.7250 0.7340 0.7460 0.7530 0.7590
683.655910 0.7610 0.7680 0.7770 0.7830 0.7890
688.049587 0.7950 0.8000 0.8060 0.8110 0.8150
692.443265 0.8210 0.8250 0.8290 0.8350 0.8390
696.836942 0.8430 0.8470 0.8510 0.8540 0.8580
701.230620 0.8620 0.8650 0.8690 0.8730 0.8760
705.624297 0.8790 0.8830 0.8860 0.8890 0.8910
710.017975 0.8940 0.8980 0.9030 0.9050 0.9050
714.411652 0.9080 0.9090 0.9120 0.9150 0.9160
718.805330 0.9180 0.9210 0.9230 0.9260 0.9260
723.199007 0.9270 0.9290 0.9300 0.9320 0.9330
727.592685 0.9340 0.9340 0.9340 0.9360 0.9360
731.986362 0.9370 0.9370 0.9370 0.9370 0.9370
736.380040 0.9370 0.9370 0.9370 0.9370 0.9390
740.773718 0.9390 0.9390 0.9400 0.9400 0.9410
745.167395 0.9430 0.9430 0.9440 0.9440 0.9450
749.561073 0.9450 0.9470 0.9470 0.9480 0.9480
753.954750 0.9500 0.9500 0.9510 0.9510 0.9510
758.348428 0.9520 0.9520 0.9520 0.9520 0.9540
762.742105 0.9540 0.9540 0.9540 0.9550 0.9550
767.135783 0.9550 0.9550 0.9540 0.9540 0.9540
771.529460 0.9540 0.9540 0.9540 0.9540 0.9540
775.923138 0.9540 0.9520 0.9520 0.9520 0.9520
780.316815 0.9520 0.9520 0.9510 0.9510 0.9510
784.710493 0.9500 0.9500 0.9500 0.9480 0.9480
789.104170 0.9480 0.9470 0.9470 0.9470 0.9450
793.497848 0.9450 0.9450 0.9440 0.9440 0.9430
797.891526 0.9410 0.9400 0.9400 0.9390 0.9370
802.285203 0.9370 0.9360 0.9340 0.9340 0.9330
806.678881 0.9320 0.9320 0.9300 0.9290 0.9290
811.072558 0.9270 0.9270 0.9260 0.9250 0.9230
815.466236 0.9220 0.9210 0.9190 0.9180 0.9160
819.859913 0.9150 0.9140 0.9120 0.9090 0.9070
824.253591 0.9040 0.9010 0.8980 0.8970 0.8960
828.647268 0.8910 0.8890 0.8850 0.8790 0.8780
833.040946 0.8780 0.8780 0.8790 0.8800 0.8800
837.434623 0.8800 0.8800 0.8800 0.8790 0.8790
841.828301 0.8780 0.8780 0.8760 0.8760 0.8750
846.221978 0.8750 0.8750 0.8730 0.8720 0.8710
850.615656 0.8690 0.8680 0.8650 0.8640 0.8620
855.009334 0.8600 0.8570 0.8550 0.8530 0.8510
859.403011 0.8490 0.8430 0.8360 0.8310 0.8250
863.796689 0.8180 0.8100 0.8030 0.7960 0.7880
868.190366 0.7810 0.7720 0.7630 0.7241 0.6951
872.584044 0.6740 0.6560 0.6390 0.6190 0.5980
876.977721 0.5810 0.5511 0.5450 0.5261 0.5081
881.371399 0.4770 0.4520 0.4480 0.4320 0.4050
885.765076 0.3781 0.3491 0.3171 0.2851 0.2531
890.158754 0.2220 0.1920 0.1620 0.1420 0.1300
894.552431 0.1210 0.1170 0.1120 0.1050 0.0950
898.946109 0.0770 0.0510 0.0420 0.0340 0.0330
903.339786 0.0300 0.0270 0.0260 0.0240 0.0230
907.733464 0.0230 0.0220 0.0220 0.0220 0.0220
912.127142 0.0220 0.0220 0.0220 0.0220 0.0220
916.520819 0.0230 0.0230 0.0230 0.0240 0.0260
920.914497 0.0270 0.0290 0.0330 0.0360 0.0380
925.308174 0.0420 0.0440 0.0490 0.0510 0.0580
929.701852 0.0600 0.0720 0.0810 0.0840 0.1009
934.095529 0.1120 0.1190 0.1280 0.1340 0.1560
938.489207 0.1750 0.1949 0.2109 0.2279 0.2429
942.882884 0.2600 0.2770 0.2920 0.3180 0.3370
947.276562 0.3540 0.3680 0.3850 0.4029 0.4428
951.670239 0.4660 0.4810 0.4910 0.5050 0.5240
956.063917 0.5270 0.5360 0.5370 0.5380 0.5380
960.457594 0.5380 0.5380 0.5370 0.5260 0.5160
964.851272 0.5080 0.5020 0.4910 0.4800 0.4730
969.244950 0.4590 0.4440 0.4260 0.4080 0.3910
973.638627 0.3730 0.3540 0.3361 0.3181 0.3011
978.032305 0.2850 0.2680 0.2520 0.2380 0.2240
982.425982 0.2100 0.2040 0.1851 0.1701 0.1620
986.819660 0.1570 0.1560 0.1520 0.1490 0.1450
991.213337 0.1390 0.1340 0.1270 0.1240 0.1230
995.607015 0.1240 0.1300 0.1350 0.1410 0.1490
1000.000692 0.1570 0.1660 0.1740 0.1820 0.1890
1004.394370 0.1910 0.2030 0.2100 0.2250 0.2350
1008.788047 0.2420 0.2719 0.2989 0.3219 0.3429
1013.181725 0.3620 0.3800 0.4030 0.4180 0.4370
1017.575402 0.4580 0.4750 0.4949 0.5339 0.5778
1021.969080 0.5950 0.6090 0.6210 0.6380 0.6590
1026.362758 0.6780 0.6920 0.7040 0.7160 0.7290
1030.756435 0.7430 0.7460 0.7460 0.7460 0.7460
1035.150113 0.7460 0.7460 0.7450 0.7450 0.7450
1039.543790 0.7450 0.7460 0.7460 0.7450 0.7450
1043.937468 0.7450 0.7460 0.7460 0.7460 0.7450
1048.331145 0.7400 0.7400 0.7360 0.7350 0.7350
1052.724823 0.7350 0.7350 0.7360 0.7360 0.7360
1057.118500 0.7380 0.7380 0.7400 0.7400 0.7420
1061.512178 0.7450 0.7460 0.7490 0.7530 0.7600
1065.905855 0.7610 0.7700 0.7710 0.7750 0.7770
1070.299533 0.7780 0.7790 0.7810 0.7830 0.7850
1074.693210 0.7860 0.7890 0.7960 0.7970 0.8000
1079.086888 0.8010 0.8030 0.8140 0.8210 0.8250
1083.480566 0.8310 0.8330 0.8370 0.8470 0.8510
1087.874243 0.8550 0.8580 0.8600 0.8680 0.8730
1092.267921 0.8750 0.8750 0.8760 0.8760 0.8750
1096.661598 0.8750 0.8730 0.8730 0.8720 0.8690
1101.055276 0.8650 0.8600 0.8540 0.8490 0.8430
1105.448953 0.8370 0.8320 0.8280 0.8240 0.8210
1109.842631 0.8210 0.8190 0.8180 0.8180 0.8170
1114.236308 0.8170 0.8170 0.8170 0.8180 0.8190
1118.629986 0.8210 0.8210 0.8240 0.8250 0.8250
1123.023663 0.8240 0.8240 0.8240 0.8250 0.8280
1127.417341 0.8290 0.8330 0.8350 0.8370 0.8390
1131.811018 0.8420 0.8430 0.8440 0.8440 0.8430
1136.204696 0.8420 0.8420 0.8400 0.8390 0.8390
1140.598374 0.8390 0.8400 0.8420 0.8430 0.8490
1144.992051 0.8500 0.8510 0.8530 0.8530 0.8530
1149.385729 0.8530 0.8530 0.8530 0.8540 0.8540
1153.779406 0.8550 0.8570 0.8600 0.8640 0.8720
1158.173084 0.8730 0.8750 0.8820 0.8930 0.8960
1162.566761 0.9000 0.9010 0.9050 0.9140 0.9150
1166.960439 0.9180 0.9220 0.9250 0.9270 0.9300
1171.354116 0.9330 0.9340 0.9340 0.9340 0.9340
1175.747794 0.9340 0.9340 0.9330 0.9330 0.9330
1180.141471 0.9340 0.9360 0.9370 0.9400 0.9410
1184.535149 0.9410 0.9410 0.9400 0.9400 0.9390
1188.928826 0.9370 0.9370 0.9360 0.9340 0.9340
1193.322504 0.9340 0.9340 0.9330 0.9330 0.9330
1197.716182 0.9330 0.9340 0.9340 0.9340 0.9330
1202.109859 0.9320 0.9290 0.9270 0.9250 0.9220
1206.503537 0.9220 0.9210 0.9190 0.9140 0.9120
1210.897214 0.9090 0.9070 0.9040 0.9010 0.9000
1215.290892 0.8980 0.8980 0.9000 0.9000 0.9000
1219.684569 0.9010 0.9010 0.9030 0.9030 0.9030
1224.078247 0.9030 0.9040 0.9040 0.9050 0.9050
1228.471924 0.9050 0.9070 0.9070 0.9090 0.9120
1232.865602 0.9140 0.9140 0.9150 0.9180 0.9210
1237.259279 0.9230 0.9260 0.9290 0.9320 0.9320
1241.652957 0.9320 0.9320 0.9320 0.9320 0.9320
1246.046634 0.9300 0.9300 0.9300 0.9290 0.9290
1250.440312 0.9270 0.9250 0.9230 0.9230 0.9210
1254.833990 0.9160 0.9150 0.9140 0.9050 0.9000
1259.227667 0.8970 0.8930 0.8850 0.8750 0.8640
1263.621345 0.8530 0.8331 0.8171 0.8011 0.7881
1268.015022 0.7820 0.7770 0.7750 0.7770 0.7790
1272.408700 0.7810 0.7820 0.7820 0.7820 0.7820
1276.802377 0.7810 0.7810 0.7810 0.7770 0.7680
1281.196055 0.7540 0.7470 0.7450 0.7450 0.7470
1285.589732 0.7500 0.7570 0.7680 0.7770 0.7790
1289.983410 0.7880 0.8129 0.8260 0.8350 0.8390
1294.377087 0.8420 0.8460 0.8510 0.8510 0.8510
1298.770765 0.8530 0.8540 0.8550 0.8580 0.8600
1303.164442 0.8610 0.8620 0.8640 0.8640 0.8650
1307.558120 0.8670 0.8690 0.8710 0.8710 0.8730
1311.951798 0.8730 0.8780 0.8790 0.8800 0.8800
1316.345475 0.8820 0.8870 0.8890 0.8900 0.8910
1320.739153 0.8930 0.8940 0.8940 0.8960 0.8960
1325.132830 0.8970 0.8970 0.8970 0.8980 0.8980
1329.526508 0.8980 0.8980 0.8980 0.8980 0.8970
1333.920185 0.8970 0.8970 0.8960 0.8960 0.8940
1338.313863 0.8930 0.8910 0.8890 0.8860 0.8850
1342.707540 0.8850 0.8830 0.8800 0.8760 0.8730
1347.101218 0.8720 0.8710 0.8640 0.8540 0.8420
1351.494895 0.8310 0.8210 0.8170 0.8140 0.8060
1355.888573 0.7970 0.7960 0.7860 0.7830 0.7810
1360.282250 0.7770 0.7650 0.7600 0.7590 0.7520
1364.675928 0.7490 0.7470 0.7460 0.7450 0.7430
1369.069606 0.7430 0.7460 0.7470 0.7470 0.7470
1373.463283 0.7490 0.7490 0.7490 0.7490 0.7490
1377.856961 0.7500 0.7500 0.7500 0.7520 0.7520
1382.250638 0.7530 0.7540 0.7590 0.7600 0.7600
1386.644316 0.7600 0.7590 0.7590 0.7540 0.7500
1391.037993 0.7460 0.7450 0.7420 0.7420 0.7350
1395.431671 0.7320 0.7280 0.7270 0.7220 0.7130
1399.825348 0.7040 0.6910 0.6820 0.6740 0.6620
1404.219026 0.6460 0.6320 0.6170 0.6050 0.5940
1408.612703 0.5880 0.5740 0.5580 0.5470 0.5370
1413.006381 0.5360 0.5270 0.5240 0.5230 0.5220
1417.400058 0.5190 0.5130 0.5050 0.4950 0.4800
1421.793736 0.4680 0.4580 0.4480 0.4390 0.4261
1426.187414 0.4180 0.4160 0.4180 0.4220 0.4250
1430.581091 0.4330 0.4430 0.4510 0.4580 0.4590
1434.974769 0.4590 0.4450 0.4450 0.4550 0.4650
1439.368446 0.5009 0.5020 0.5020 0.5040 0.5040
1443.762124 0.5110 0.5130 0.5180 0.5270 0.5380
1448.155801 0.5490 0.5630 0.5770 0.5949 0.6169
1452.549479 0.6320 0.6390 0.6550 0.6700 0.6860
1456.943156 0.6990 0.7140 0.7250 0.7380 0.7450
1461.336834 0.7630 0.7750 0.7790 0.7860 0.7970
1465.730511 0.8030 0.8140 0.8190 0.8349 0.8370
1470.124189 0.8400 0.8530 0.8570 0.8580 0.8620
1474.517866 0.8670 0.8720 0.8720 0.8750 0.8800
1478.911544 0.8850 0.8860 0.8890 0.8900 0.8910
1483.305222 0.8930 0.8940 0.8960 0.8960 0.8980
1487.698899 0.9000 0.9010 0.9010 0.9030 0.9040
1492.092577 0.9050 0.9050 0.9070 0.9070 0.9070
1496.486254 0.9070 0.9050 0.9050 0.9040 0.9040
1500.879932 0.9030 0.9010 0.9000 0.9000 0.8980
1505.273609 0.8970 0.8960 0.8960 0.8960 0.8960
1509.667287 0.8960 0.8970 0.9010 0.9030 0.9040
1514.060964 0.9040 0.9040 0.9050 0.9050 0.9050
1518.454642 0.9050 0.9050 0.9050 0.9070 0.9080
1522.848319 0.9080 0.9090 0.9110 0.9120 0.9140
1527.241997 0.9150 0.9150 0.9150 0.9150 0.9160
1531.635674 0.9160 0.9150 0.9150 0.9140 0.9140
1536.029352 0.9120 0.9120 0.9120 0.9110 0.9110
1540.423029 0.9110 0.9110 0.9120 0.9120 0.9140
1544.816707 0.9140 0.9120 0.9120 0.9080 0.9070
1549.210385 0.9070 0.9050 0.9040 0.9030 0.9000
1553.604062 0.8980 0.8980 0.8970 0.8970 0.8960
1557.997740 0.8960 0.8940 0.8940 0.8940 0.8930
1562.391417 0.8930 0.8910 0.8910 0.8890 0.8870
1566.785095 0.8850 0.8830 0.8820 0.8820 0.8820
1571.178772 0.8800 0.8790 0.8760 0.8760 0.8750
1575.572450 0.8750 0.8730 0.8730 0.8720 0.8710
1579.966127 0.8710 0.8690 0.8690 0.8690 0.8690
1584.359805 0.8710 0.8720 0.8720 0.8730 0.8750
1588.753482 0.8750 0.8760 0.8760 0.8730 0.8720
1593.147160 0.8720 0.8720 0.8710 0.8710 0.8710
1597.540837 0.8690 0.8650 0.8610 0.8550 0.8530
1601.934515 0.8470 0.8430 0.8370 0.8330 0.8240
1606.328193 0.8170 0.8140 0.8140 0.8100 0.7990
1610.721870 0.7880 0.7780 0.7640 0.7600 0.7490
1615.115548 0.7420 0.7280 0.7160 0.7040 0.6980
1619.509225 0.6700 0.6450 0.6060 0.5650 0.5420
1623.902903 0.5130 0.4771 0.4501 0.3892 0.3392
1628.296580 0.3239 0.2780 0.2380 0.2070 0.1890
1632.690258 0.1770 0.1730 0.1700 0.1670 0.1640
1637.083935 0.1620 0.1590 0.1560 0.1530 0.1520
1641.477613 0.1500 0.1490 0.1480 0.1460 0.1460
1645.871290 0.1450 0.1450 0.1450 0.1460 0.1550
1650.264968 0.1800 0.2000 0.2209 0.2389 0.2569
1654.658645 0.2741 0.3070 0.3330 0.3580 0.3850
1659.052323 0.4110 0.4410 0.4799 0.5259 0.5808
1663.446001 0.6050 0.6320 0.6820 0.7240 0.7470
1667.839678 0.7680 0.7790 0.7989 0.8179 0.8329
1672.233356 0.8370 0.8500 0.8540 0.8580 0.8640
1676.627033 0.8720 0.8750 0.8780 0.8820 0.8890
1681.020711 0.8940 0.9000 0.9000 0.9010 0.9040
1685.414388 0.9050 0.9080 0.9120 0.9120 0.9140
1689.808066 0.9150 0.9150 0.9160 0.9160 0.9160
1694.201743 0.9160 0.9160 0.9160 0.9160 0.9180
1698.595421 0.9190 0.9210 0.9230 0.9250 0.9300
1702.989098 0.9320 0.9320 0.9330 0.9330 0.9340
1707.382776 0.9340 0.9340 0.9340 0.9340 0.9360
1711.776453 0.9340 0.9340 0.9340 0.9340 0.9360
1716.170131 0.9360 0.9360 0.9370 0.9390 0.9390
1720.563809 0.9400 0.9400 0.9390 0.9370 0.9370
1724.957486 0.9360 0.9360 0.9360 0.9360 0.9360
1729.351164 0.9360 0.9370 0.9390 0.9400 0.9410
1733.744841 0.9410 0.9430 0.9430 0.9430 0.9430
1738.138519 0.9430 0.9430 0.9430 0.9430 0.9430
1742.532196 0.9430 0.9430 0.9430 0.9430 0.9430
1746.925874 0.9430 0.9430 0.9430 0.9430 0.9430
1751.319551 0.9410 0.9410 0.9400 0.9400 0.9400
1755.713229 0.9390 0.9370 0.9360 0.9360 0.9360
1760.106906 0.9360 0.9340 0.9340 0.9340 0.9340
1764.500584 0.9340 0.9340 0.9340 0.9340 0.9340
1768.894261 0.9340 0.9340 0.9360 0.9360 0.9360
1773.287939 0.9360 0.9360 0.9360 0.9340 0.9340
1777.681617 0.9330 0.9330 0.9320 0.9320 0.9300
1782.075294 0.9290 0.9270 0.9250 0.9230 0.9220
1786.468972 0.9220 0.9220 0.9220 0.9220 0.9220
1790.862649 0.9220 0.9210 0.9190 0.9180 0.9180
1795.256327 0.9160 0.9150 0.9140 0.9120 0.9090
1799.650004 0.9090 0.9070 0.9040 0.8980 0.8960
1804.043682 0.8930 0.8860 0.8800 0.8750 0.8720
1808.437359 0.8710 0.8690 0.8550 0.8370 0.8330
1812.831037 0.8320 0.8150 0.8030 0.7950 0.7790
1817.224714 0.7680 0.7600 0.7540 0.7381 0.7161
1821.618392 0.7000 0.6850 0.6770 0.6530 0.6210
1826.012069 0.6090 0.5990 0.5880 0.5870 0.5880
1830.405747 0.6060 0.6240 0.6300 0.6310 0.6300
1834.799425 0.6230 0.6200 0.6170 0.6130 0.6120
1839.193102 0.6120 0.6160 0.6200 0.6280 0.6320
1843.586780 0.6340 0.6460 0.6620 0.6770 0.6949
1847.980457 0.7160 0.7350 0.7560 0.7810 0.8010
1852.374135 0.8250 0.8350 0.8430 0.8540 0.8620
1856.767812 0.8720 0.8790 0.8850 0.8910 0.8940
1861.161490 0.9000 0.9040 0.9040 0.9070 0.9080
1865.555167 0.9120 0.9120 0.9140 0.9160 0.9180
1869.948845 0.9190 0.9220 0.9250 0.9260 0.9270
1874.342522 0.9290 0.9320 0.9330 0.9330 0.9330
1878.736200 0.9340 0.9340 0.9340 0.9340 0.9340
1883.129877 0.9340 0.9340 0.9340 0.9340 0.9340
1887.523555 0.9340 0.9340 0.9360 0.9370 0.9390
1891.917233 0.9390 0.9370 0.9370 0.9360 0.9360
1896.310910 0.9340 0.9340 0.9330 0.9320 0.9320
1900.704588 0.9320 0.9330 0.9330 0.9340 0.9340
1905.098265 0.9340 0.9360 0.9360 0.9360 0.9370
1909.491943 0.9370 0.9390 0.9390 0.9400 0.9400
1913.885620 0.9400 0.9410 0.9410 0.9410 0.9410
1918.279298 0.9430 0.9430 0.9430 0.9450 0.9450
1922.672975 0.9450 0.9450 0.9450 0.9450 0.9470
1927.066653 0.9480 0.9480 0.9480 0.9500 0.9500
1931.460330 0.9500 0.9500 0.9500 0.9500 0.9500
1935.854008 0.9500 0.9500 0.9480 0.9480 0.9470
1940.247685 0.9470 0.9450 0.9450 0.9450 0.9450
1944.641363 0.9450 0.9440 0.9440 0.9440 0.9430
1949.035041 0.9410 0.9400 0.9390 0.9370 0.9360
1953.428718 0.9340 0.9330 0.9330 0.9290 0.9290
1957.822396 0.9270 0.9260 0.9250 0.9160 0.9140
1962.216073 0.9140 0.9120 0.9070 0.9050 0.9030
1966.609751 0.9010 0.9000 0.8980 0.8970 0.8960
1971.003428 0.8940 0.8940 0.8960 0.8960 0.8970
1975.397106 0.8970 0.8970 0.8980 0.8980 0.9000
1979.790783 0.9000 0.9010 0.9030 0.9030 0.9030
1984.184461 0.9040 0.9050 0.9080 0.9120 0.9140
1988.578138 0.9150 0.9160 0.9210 0.9270 0.9320
1992.971816 0.9320 0.9330 0.9330 0.9340 0.9340
1997.365493 0.9360 0.9360 0.9400 0.9430 0.9440
2001.759171 0.9450 0.9465 0.9480 0.9490 0.9500
2006.152849 0.9500 0.9500 0.9505 0.9510 0.9510
2010.546526 0.9510 0.9515 0.9520 0.9520 0.9520
2014.940204 0.9530 0.9540 0.9540 0.9540 0.9540
2019.333881 0.9540 0.9545 0.9550 0.9550 0.9550
2023.727559 0.9560 0.9570 0.9570 0.9570 0.9570
2028.121236 0.9570 0.9570 0.9570 0.9570 0.9570
2032.514914 0.9570 0.9570 0.9570 0.9570 0.9570
2036.908591 0.9570 0.9570 0.9570 0.9570 0.9570
2041.302269 0.9560 0.9550 0.9550 0.9550 0.9550
2045.695946 0.9550 0.9550 0.9550 0.9550 0.9550
2050.089624 0.9560 0.9570 0.9570 0.9570 0.9570
2054.483301 0.9570 0.9570 0.9570 0.9570 0.9570
2058.876979 0.9570 0.9570 0.9570 0.9570 0.9570
2063.270657 0.9570 0.9570 0.9570 0.9570 0.9570
2067.664334 0.9575 0.9580 0.9580 0.9580 0.9580
2072.058012 0.9580 0.9580 0.9580 0.9585 0.9590
2076.451689 0.9590 0.9590 0.9590 0.9590 0.9590
2080.845367 0.9590 0.9590 0.9590 0.9590 0.9590
2085.239044 0.9590 0.9590 0.9590 0.9590 0.9590
2089.632722 0.9590 0.9590 0.9590 0.9590 0.9590
2094.026399 0.9590 0.9590 0.9590 0.9590 0.9590
2098.420077 0.9590 0.9585 0.9580 0.9580 0.9580
2102.813754 0.9580 0.9580 0.9580 0.9580 0.9580
2107.207432 0.9580 0.9585 0.9590 0.9585 0.9580
2111.601109 0.9580 0.9580 0.9580 0.9580 0.9580
2115.994787 0.9580 0.9580 0.9580 0.9575 0.9570
2120.388465 0.9570 0.9570 0.9570 0.9570 0.9570
2124.782142 0.9570 0.9570 0.9570 0.9570 0.9570
2129.175820 0.9575 0.9580 0.9580 0.9580 0.9580
2133.569497 0.9580 0.9585 0.9590 0.9590 0.9590
2137.963175 0.9590 0.9590 0.9590 0.9590 0.9590
2142.356852 0.9590 0.9590 0.9590 0.9590 0.9590
2146.750530 0.9590 0.9590 0.9590 0.9590 0.9590
2151.144207 0.9590 0.9590 0.9590 0.9590 0.9590
2155.537885 0.9590 0.9590 0.9590 0.9590 0.9585
2159.931562 0.9580 0.9580 0.9580 0.9580 0.9580
2164.325240 0.9580 0.9580 0.9580 0.9580 0.9580
2168.718917 0.9580 0.9575 0.9570 0.9561 0.9551
2173.112595 0.9537 0.9522 0.9515 0.9510 0.9510
2177.506273 0.9510 0.9505 0.9500 0.9491 0.9481
2181.899950 0.9475 0.9470 0.9470 0.9470 0.9470
2186.293628 0.9470 0.9470 0.9470 0.9474 0.9479
2190.687305 0.9489 0.9499 0.9500 0.9500 0.9500
2195.080983 0.9500 0.9500 0.9500 0.9505 0.9509
2199.474660 0.9514 0.9519 0.9529 0.9539 0.9540
2203.868338 0.9540 0.9544 0.9549 0.9550 0.9550
2208.262015 0.9550 0.9550 0.9559 0.9569 0.9574
2212.655693 0.9579 0.9580 0.9580 0.9593 0.9608
2217.049370 0.9610 0.9610 0.9610 0.9610 0.9610
2221.443048 0.9610 0.9610 0.9610 0.9614 0.9619
2225.836725 0.9620 0.9620 0.9620 0.9620 0.9620
2230.230403 0.9620 0.9620 0.9620 0.9620 0.9620
2234.624081 0.9620 0.9620 0.9620 0.9620 0.9620
2239.017758 0.9620 0.9620 0.9620 0.9620 0.9620
2243.411436 0.9620 0.9620 0.9620 0.9620 0.9620
2247.805113 0.9620 0.9620 0.9620 0.9620 0.9620
2252.198791 0.9620 0.9620 0.9620 0.9620 0.9620
2256.592468 0.9620 0.9616 0.9611 0.9610 0.9610
2260.986146 0.9610 0.9610 0.9610 0.9610 0.9610
2265.379823 0.9610 0.9610 0.9610 0.9601 0.9591
2269.773501 0.9590 0.9590 0.9590 0.9590 0.9590
2274.167178 0.9590 0.9590 0.9590 0.9586 0.9581
2278.560856 0.9580 0.9580 0.9580 0.9580 0.9580
2282.954533 0.9580 0.9580 0.9580 0.9576 0.9571
2287.348211 0.9570 0.9570 0.9570 0.9570 0.9570
2291.741889 0.9570 0.9570 0.9570 0.9570 0.9570
2296.135566 0.9570 0.9570 0.9570 0.9570 0.9570
2300.529244 0.9570 0.9570 0.9570 0.9570 0.9570
2304.922921 0.9570 0.9570 0.9570 0.9570 0.9570
2309.316599 0.9570 0.9570 0.9570 0.9574 0.9579
2313.710276 0.9580 0.9580 0.9580 0.9580 0.9584
2318.103954 0.9589 0.9590 0.9590 0.9598 0.9608
2322.497631 0.9610 0.9610 0.9610 0.9610 0.9614
2326.891309 0.9619 0.9620 0.9620 0.9624 0.9629
2331.284986 0.9630 0.9630 0.9630 0.9630 0.9638
2335.678664 0.9648 0.9650 0.9650 0.9654 0.9659
2340.072341 0.9660 0.9660 0.9668 0.9678 0.9680
2344.466019 0.9680 0.9680 0.9680 0.9684 0.9689
2348.859697 0.9694 0.9699 0.9700 0.9700 0.9700
2353.253374 0.9700 0.9696 0.9691 0.9690 0.9690
2357.647052 0.9690 0.9690 0.9690 0.9690 0.9686
2362.040729 0.9681 0.9680 0.9680 0.9680 0.9680
2366.434407 0.9672 0.9662 0.9660 0.9660 0.9656
2370.828084 0.9651 0.9642 0.9632 0.9630 0.9630
2375.221762 0.9626 0.9621 0.9620 0.9620 0.9616
2379.615439 0.9611 0.9610 0.9610 0.9610 0.9610
2384.009117 0.9610 0.9610 0.9610 0.9610 0.9610
2388.402794 0.9610 0.9610 0.9610 0.9610 0.9610
2392.796472 0.9614 0.9619 0.9620 0.9620 0.9624
2397.190149 0.9629 0.9630 0.9630 0.9638 0.9648
2401.583827 0.9650 0.9650 0.9650 0.9650 0.9650
2405.977505 0.9650 0.9650 0.9650 0.9654 0.9659
2410.371182 0.9660 0.9660 0.9656 0.9651 0.9650
2414.764860 0.9650 0.9650 0.9650 0.9650 0.9650
2419.158537 0.9650 0.9650 0.9642 0.9632 0.9630
2423.552215 0.9630 0.9630 0.9630 0.9630 0.9630
2427.945892 0.9630 0.9630 0.9630 0.9630 0.9630
2432.339570 0.9630 0.9630 0.9630 0.9630 0.9630
2436.733247 0.9630 0.9630 0.9630 0.9630 0.9638
2441.126925 0.9648 0.9654 0.9659 0.9668 0.9678
2445.520602 0.9680 0.9680 0.9680 0.9680 0.9684
2449.914280 0.9689 0.9690 0.9690 0.9690 0.9690
2454.307957 0.9690 0.9690 0.9690 0.9690 0.9690
2458.701635 0.9690 0.9690 0.9690 0.9690 0.9690
2463.095313 0.9690 0.9690 0.9690 0.9690 0.9690
2467.488990 0.9690 0.9690 0.9690 0.9686 0.9681
2471.882668 0.9680 0.9680 0.9680 0.9680 0.9680
2476.276345 0.9680 0.9672 0.9662 0.9660 0.9660
2480.670023 0.9656 0.9651 0.9650 0.9650 0.9650
2485.063700 0.9650 0.9643 0.9633 0.9630 0.9630
2489.457378 0.9626 0.9621 0.9620 0.9620 0.9620
2493.851055 0.9620 0.9616 0.9611 0.9610 0.9610
2498.244733 0.9610 0.9610 0.9603 0.9593 0.9586
2502.638410 0.9581 0.9580 0.9580 0.9580 0.9580
2507.032088 0.9580 0.9580 0.9580 0.9580 0.9580
2511.425765 0.9580 0.9584 0.9589 0.9590 0.9590
2515.819443 0.9590 0.9590 0.9597 0.9607 0.9614
2520.213121 0.9619 0.9620 0.9620 0.9620 0.9620
2524.606798 0.9620 0.9620 0.9624 0.9629 0.9630
2529.000476 0.9630 0.9626 0.9621 0.9624 0.9629
2533.394153 0.9630 0.9630 0.9630 0.9630 0.9630
2537.787831 0.9630 0.9637 0.9647 0.9650 0.9650
2542.181508 0.9643 0.9633 0.9630 0.9630 0.9630
2546.575186 0.9630 0.9630 0.9630 0.9637 0.9647
2550.968863 0.9643 0.9633 0.9630 0.9630 0.9630
2555.362541 0.9630 0.9630 0.9630 0.9630 0.9630
2559.756218 0.9630 0.9630 0.9637 0.9647 0.9650
2564.149896 0.9650 0.9654 0.9659 0.9660 0.9660
2568.543573 0.9660 0.9660 0.9667 0.9677 0.9680
2572.937251 0.9680 0.9680 0.9680 0.9680 0.9680
2577.330929 0.9680 0.9680 0.9680 0.9680 0.9673
2581.724606 0.9663 0.9656 0.9651 0.9650 0.9650
2586.118284 0.9650 0.9650 0.9650 0.9650 0.9650
2590.511961 0.9650 0.9650 0.9650 0.9650 0.9650
2594.905639 0.9650 0.9650 0.9643 0.9633 0.9630
2599.299316 0.9630 0.9637 0.9647 0.9653 0.9658
2603.692994 0.9660 0.9660 0.9660 0.9660 0.9660
2608.086671 0.9660 0.9667 0.9677 0.9680 0.9680
2612.480349 0.9673 0.9663 0.9660 0.9660 0.9660
2616.874026 0.9660 0.9660 0.9660 0.9667 0.9677
2621.267704 0.9680 0.9680 0.9680 0.9680 0.9680
2625.661381 0.9680 0.9683 0.9688 0.9690 0.9690
2630.055059 0.9693 0.9698 0.9707 0.9717 0.9720
2634.448737 0.9720 0.9720 0.9720 0.9720 0.9720
2638.842414 0.9723 0.9728 0.9730 0.9730 0.9730
2643.236092 0.9730 0.9730 0.9730 0.9737 0.9747
2647.629769 0.9750 0.9750 0.9750 0.9750 0.9750
2652.023447 0.9750 0.9750 0.9750 0.9750 0.9750
2656.417124 0.9743 0.9733 0.9730 0.9730 0.9730
2660.810802 0.9730 0.9720 0.9705 0.9700 0.9700
2665.204479 0.9700 0.9700 0.9700 0.9700 0.9700
2669.598157 0.9700 0.9697 0.9692 0.9690 0.9690
2673.991834 0.9690 0.9690 0.9690 0.9690 0.9687
2678.385512 0.9682 0.9680 0.9680 0.9674 0.9664
2682.779189 0.9657 0.9652 0.9640 0.9625 0.9610
2687.172867 0.9595 0.9587 0.9582 0.9577 0.9572
2691.566545 0.9563 0.9554 0.9547 0.9542 0.9534
2695.960222 0.9524 0.9514 0.9504 0.9490 0.9475
2700.353900 0.9460 0.9445 0.9437 0.9432 0.9430
2704.747577 0.9430 0.9430 0.9430 0.9430 0.9430
2709.141255 0.9433 0.9438 0.9440 0.9440 0.9440
2713.534932 0.9440 0.9443 0.9448 0.9450 0.9450
2717.928610 0.9450 0.9450 0.9456 0.9466 0.9473
2722.322287 0.9478 0.9480 0.9480 0.9480 0.9480
2726.715965 0.9486 0.9496 0.9503 0.9508 0.9510
2731.109642 0.9510 0.9513 0.9518 0.9520 0.9520
2735.503320 0.9520 0.9520 0.9526 0.9536 0.9540
2739.896997 0.9540 0.9540 0.9540 0.9543 0.9548
2744.290675 0.9550 0.9550 0.9550 0.9550 0.9556
2748.684353 0.9566 0.9570 0.9570 0.9570 0.9570
2753.078030 0.9573 0.9578 0.9583 0.9588 0.9590
2757.471708 0.9590 0.9596 0.9606 0.9613 0.9618
2761.865385 0.9620 0.9620 0.9620 0.9620 0.9620
2766.259063 0.9620 0.9620 0.9620 0.9623 0.9628
2770.652740 0.9630 0.9630 0.9630 0.9630 0.9630
2775.046418 0.9630 0.9630 0.9630 0.9627 0.9622
2779.440095 0.9611 0.9596 0.9584 0.9574 0.9570
2783.833773 0.9570 0.9564 0.9554 0.9547 0.9542
2788.227450 0.9534 0.9524 0.9517 0.9512 0.9489
2792.621128 0.9454 0.9425 0.9400 0.9384 0.9374
2797.014805 0.9358 0.9338 0.9306 0.9266 0.9223
2801.408483 0.9178 0.9133 0.9089 0.9044 0.8999
2805.802161 0.8954 0.8909 0.8849 0.8778 0.8705
2810.195838 0.8630 0.8549 0.8465 0.8365 0.8255
2814.589516 0.8166 0.8091 0.8013 0.7933 0.7868
2818.983193 0.7813 0.7715 0.7585 0.7469 0.7364
2823.376871 0.7257 0.7147 0.7051 0.6965 0.6898
2827.770548 0.6843 0.6788 0.6733 0.6669 0.6599
2832.164226 0.6564 0.6554 0.6541 0.6526 0.6511
2836.557903 0.6496 0.6490 0.6490 0.6487 0.6482
2840.951581 0.6480 0.6480 0.6480 0.6480 0.6480
2845.345258 0.6480 0.6483 0.6488 0.6493 0.6498
2849.738936 0.6506 0.6516 0.6534 0.6559 0.6584
2854.132613 0.6609 0.6626 0.6636 0.6646 0.6656
2858.526291 0.6663 0.6668 0.6670 0.6670 0.6670
2862.919969 0.6670 0.6667 0.6662 0.6632 0.6582
2867.313646 0.6507 0.6412 0.6334 0.6269 0.6198
2871.707324 0.6123 0.6032 0.5927 0.5841 0.5772
2876.101001 0.5710 0.5655 0.5580 0.5490 0.5366
2880.494679 0.5216 0.5002 0.4737 0.4589 0.4534
2884.888356 0.4480 0.4425 0.4290 0.4090 0.3874
2889.282034 0.3644 0.3458 0.3308 0.3210 0.3155
2893.675711 0.3087 0.3007 0.2929 0.2854 0.2778
2898.069389 0.2704 0.2631 0.2562 0.2527 0.2522
2902.463066 0.2523 0.2528 0.2533 0.2538 0.2559
2906.856744 0.2594 0.2629 0.2664 0.2699 0.2734
2911.250421 0.2761 0.2781 0.2806 0.2836 0.2869
2915.644099 0.2904 0.2942 0.2982 0.3019 0.3054
2920.037777 0.3081 0.3101 0.3174 0.3294 0.3355
2924.431454 0.3365 0.3404 0.3469 0.3539 0.3614
2928.825132 0.3723 0.3863 0.3980 0.4076 0.4144
2933.218809 0.4189 0.4253 0.4333 0.4436 0.4561
2937.612487 0.4683 0.4803 0.4913 0.5012 0.5091
2942.006164 0.5151 0.5229 0.5324 0.5378 0.5393
2946.399842 0.5403 0.5408 0.5407 0.5402 0.5395
2950.793519 0.5385 0.5377 0.5372 0.5362 0.5347
2955.187197 0.5327 0.5302 0.5267 0.5222 0.5161
2959.580874 0.5087 0.5004 0.4914 0.4804 0.4674
2963.974552 0.4570 0.4490 0.4394 0.4283 0.4199
2968.368229 0.4139 0.4066 0.3981 0.3863 0.3713
2972.761907 0.3487 0.3187 0.2918 0.2679 0.2474
2977.155585 0.2304 0.2127 0.1942 0.1843 0.1828
2981.549262 0.1818 0.1813 0.1800 0.1780 0.1747
2985.942940 0.1702 0.1667 0.1642 0.1592 0.1517
2990.336617 0.1472 0.1457 0.1450 0.1450 0.1452
2994.730295 0.1457 0.1465 0.1475 0.1492 0.1517
2999.123972 0.1547 0.1582 0.1615 0.1645 0.1673
3003.517650 0.1697 0.1727 0.1762 0.1797 0.1832
3007.911327 0.1875 0.1925 0.1972 0.2017 0.2069
3012.305005 0.2129 0.2189 0.2249 0.2287 0.2302
3016.698682 0.2355 0.2450 0.2510 0.2530 0.2584
3021.092360 0.2674 0.2796 0.2951 0.3125 0.3320
3025.486037 0.3512 0.3702 0.3887 0.4066 0.4220
3029.879715 0.4345 0.4543 0.4823 0.5126 0.5456
3034.273393 0.5703 0.5858 0.5973 0.6044 0.6090
3038.667070 0.6110 0.6113 0.6098 0.6090 0.6090
3043.060748 0.6080 0.6061 0.6026 0.5976 0.5917
3047.454425 0.5847 0.5773 0.5693 0.5597 0.5482
3051.848103 0.5369 0.5260 0.5142 0.5016 0.4898
3056.241780 0.4788 0.4678 0.4568 0.4428 0.4253
3060.635458 0.4071 0.3882 0.3690 0.3495 0.3351
3065.029135 0.3266 0.3167 0.3053 0.2888 0.2663
3069.422813 0.2450 0.2250 0.2063 0.1891 0.1719
3073.816490 0.1544 0.1376 0.1216 0.1050 0.0875
3078.210168 0.0775 0.0765 0.0755 0.0745 0.0740
3082.603845 0.0740 0.0744 0.0754 0.0762 0.0767
3086.997523 0.0777 0.0792 0.0807 0.0822 0.0848
3091.391201 0.0888 0.0926 0.0961 0.0998 0.1038
3095.784878 0.1116 0.1241 0.1381 0.1541 0.1790
3100.178556 0.2149 0.2442 0.2652 0.2822 0.2942
3104.572233 0.3069 0.3203 0.3369 0.3576 0.3852
3108.965911 0.4211 0.4667 0.5241 0.5728 0.6108
3113.359588 0.6371 0.6485 0.6664 0.6923 0.7142
3117.753266 0.7307 0.7460 0.7600 0.7781 0.8015
3122.146943 0.8246 0.8471 0.8617 0.8657 0.8695
3126.540621 0.8730 0.8783 0.8858 0.8924 0.8979
3130.934298 0.9027 0.9067 0.9103 0.9133 0.9156
3135.327976 0.9171 0.9188 0.9208 0.9226 0.9241
3139.721653 0.9254 0.9264 0.9280 0.9306 0.9322
3144.115331 0.9327 0.9332 0.9337 0.9340 0.9340
3148.509009 0.9340 0.9340 0.9344 0.9354 0.9360
3152.902686 0.9360 0.9362 0.9367 0.9374 0.9384
3157.296364 0.9392 0.9397 0.9408 0.9428 0.9442
3161.690041 0.9447 0.9450 0.9450 0.9450 0.9450
3166.083719 0.9454 0.9464 0.9472 0.9477 0.9486
3170.477396 0.9501 0.9510 0.9510 0.9512 0.9517
3174.871074 0.9524 0.9534 0.9540 0.9540 0.9542
3179.264751 0.9547 0.9554 0.9564 0.9570 0.9570
3183.658429 0.9570 0.9570 0.9574 0.9584 0.9594
3188.052106 0.9604 0.9610 0.9610 0.9612 0.9617
3192.445784 0.9622 0.9627 0.9630 0.9630 0.9634
3196.839461 0.9644 0.9650 0.9650 0.9652 0.9657
3201.233139 0.9660 0.9660 0.9660 0.9660 0.9660
3205.626817 0.9660 0.9660 0.9660 0.9664 0.9674
3210.020494 0.9680 0.9680 0.9680 0.9680 0.9680
3214.414172 0.9680 0.9680 0.9680 0.9680 0.9680
3218.807849 0.9682 0.9687 0.9690 0.9690 0.9688
3223.201527 0.9683 0.9680 0.9680 0.9680 0.9680
3227.595204 0.9682 0.9687 0.9692 0.9697 0.9700
3231.988882 0.9700 0.9700 0.9700 0.9700 0.9700
3236.382559 0.9704 0.9714 0.9716 0.9706 0.9700
3240.776237 0.9700 0.9700 0.9700 0.9700 0.9700
3245.169914 0.9700 0.9700 0.9698 0.9693 0.9690
3249.563592 0.9690 0.9690 0.9690 0.9688 0.9683
3253.957269 0.9680 0.9680 0.9680 0.9680 0.9680
3258.350947 0.9680 0.9676 0.9666 0.9658 0.9653
3262.744625 0.9650 0.9650 0.9650 0.9650 0.9650
3267.138302 0.9650 0.9646 0.9636 0.9630 0.9630
3271.531980 0.9630 0.9630 0.9630 0.9630 0.9630
3275.925657 0.9630 0.9630 0.9630 0.9634 0.9643
3280.319335 0.9652 0.9657 0.9660 0.9660 0.9660
3284.713012 0.9660 0.9660 0.9660 0.9664 0.9674
3289.106690 0.9682 0.9687 0.9692 0.9697 0.9700
3293.500367 0.9700 0.9700 0.9700 0.9703 0.9713
3297.894045 0.9720 0.9720 0.9720 0.9720 0.9720
3302.287722 0.9720 0.9720 0.9720 0.9720 0.9720
3306.681400 0.9720 0.9720 0.9720 0.9720 0.9720
3311.075077 0.9720 0.9720 0.9720 0.9717 0.9707
3315.468755 0.9700 0.9700 0.9698 0.9693 0.9690
3319.862433 0.9690 0.9690 0.9690 0.9690 0.9690
3324.256110 0.9690 0.9690 0.9690 0.9690 0.9690
3328.649788 0.9690 0.9690 0.9690 0.9690 0.9690
3333.043465 0.9690 0.9690 0.9690 0.9690 0.9690
3337.437143 0.9690 0.9690 0.9690 0.9690 0.9690
3341.830820 0.9690 0.9690 0.9690 0.9690 0.9690
3346.224498 0.9690 0.9692 0.9697 0.9703 0.9713
3350.618175 0.9717 0.9707 0.9703 0.9713 0.9722
3355.011853 0.9727 0.9733 0.9743 0.9752 0.9757
3359.405530 0.9760 0.9760 0.9758 0.9753 0.9750
3363.799208 0.9750 0.9750 0.9750 0.9750 0.9750
3368.192885 0.9750 0.9750 0.9750 0.9750 0.9750
3372.586563 0.9750 0.9750 0.9750 0.9747 0.9737
3376.980241 0.9730 0.9730 0.9730 0.9730 0.9730
3381.373918 0.9730 0.9730 0.9730 0.9730 0.9730
3385.767596 0.9730 0.9730 0.9733 0.9743 0.9750
3390.161273 0.9750 0.9752 0.9757 0.9762 0.9767
3394.554951 0.9770 0.9770 0.9773 0.9783 0.9790
3398.948628 0.9790 0.9787 0.9777 0.9773 0.9783
3403.342306 0.9791 0.9796 0.9800 0.9800 0.9801
3407.735983 0.9806 0.9810 0.9810 0.9809 0.9804
3412.129661 0.9800 0.9800 0.9800 0.9800 0.9799
3416.523338 0.9794 0.9790 0.9790 0.9790 0.9790
3420.917016 0.9787 0.9777 0.9770 0.9770 0.9769
3425.310693 0.9764 0.9760 0.9760 0.9760 0.9760
3429.704371 0.9759 0.9754 0.9750 0.9750 0.9747
3434.098049 0.9737 0.9730 0.9730 0.9729 0.9724
3438.491726 0.9717 0.9707 0.9700 0.9700 0.9700
3442.885404 0.9700 0.9703 0.9713 0.9720 0.9720
3447.279081 0.9720 0.9720 0.9720 0.9720 0.9720
3451.672759 0.9720 0.9720 0.9720 0.9720 0.9720
3456.066436 0.9720 0.9720 0.9721 0.9726 0.9730
3460.460114 0.9730 0.9730 0.9730 0.9730 0.9730
3464.853791 0.9730 0.9730 0.9730 0.9730 0.9730
3469.247469 0.9730 0.9730 0.9730 0.9730 0.9730
3473.641146 0.9730 0.9730 0.9733 0.9743 0.9751
3478.034824 0.9756 0.9760 0.9760 0.9760 0.9760
3482.428501 0.9760 0.9760 0.9760 0.9760 0.9760
3486.822179 0.9760 0.9760 0.9760 0.9760 0.9760
3491.215857 0.9760 0.9760 0.9761 0.9766 0.9770
3495.609534 0.9770 0.9770 0.9770 0.9770 0.9770
3500.003212 0.9770 0.9770 0.9772 0.9782 0.9790
3504.396889 0.9790 0.9790 0.9790 0.9790 0.9790
3508.790567 0.9791 0.9796 0.9799 0.9794 0.9788
3513.184244 0.9778 0.9770 0.9770 0.9770 0.9770
3517.577922 0.9770 0.9770 0.9774 0.9789 0.9800
3521.971599 0.9800 0.9800 0.9800 0.9800 0.9800
3526.365277 0.9801 0.9806 0.9810 0.9810 0.9809
3530.758954 0.9804 0.9800 0.9800 0.9800 0.9800
3535.152632 0.9800 0.9800 0.9800 0.9800 0.9800
3539.546309 0.9800 0.9799 0.9794 0.9790 0.9790
3543.939987 0.9790 0.9790 0.9790 0.9790 0.9790
3548.333665 0.9790 0.9788 0.9778 0.9770 0.9770
3552.727342 0.9772 0.9782 0.9791 0.9796 0.9800
3557.121020 0.9800 0.9801 0.9806 0.9812 0.9822
3561.514697 0.9831 0.9836 0.9840 0.9840 0.9840
3565.908375 0.9840 0.9840 0.9840 0.9839 0.9834
3570.302052 0.9830 0.9830 0.9830 0.9830 0.9828
3574.695730 0.9818 0.9809 0.9804 0.9800 0.9800
3579.089407 0.9799 0.9794 0.9790 0.9790 0.9790
3583.483085 0.9790 0.9790 0.9790 0.9790 0.9790
3587.876762 0.9790 0.9790 0.9791 0.9796 0.9800
3592.270440 0.9800 0.9800 0.9800 0.9799 0.9794
3596.664117 0.9790 0.9790 0.9788 0.9778 0.9770
3601.057795 0.9770 0.9770 0.9770 0.9770 0.9770
3605.451473 0.9772 0.9782 0.9790 0.9790 0.9791
3609.845150 0.9796 0.9799 0.9794 0.9790 0.9790
3614.238828 0.9790 0.9790 0.9790 0.9790 0.9790
3618.632505 0.9790 0.9790 0.9790 0.9791 0.9796
3623.026183 0.9799 0.9794 0.9790 0.9790 0.9790
3627.419860 0.9790 0.9788 0.9778 0.9770 0.9770
3631.813538 0.9772 0.9782 0.9790 0.9790 0.9791
3636.207215 0.9796 0.9800 0.9800 0.9797 0.9782
3640.600893 0.9769 0.9764 0.9760 0.9760 0.9759
3644.994570 0.9754 0.9750 0.9750 0.9750 0.9750
3649.388248 0.9750 0.9750 0.9751 0.9756 0.9760
3653.781925 0.9760 0.9761 0.9766 0.9770 0.9770
3658.175603 0.9772 0.9782 0.9788 0.9778 0.9770
3662.569281 0.9770 0.9770 0.9770 0.9770 0.9770
3666.962958 0.9770 0.9770 0.9769 0.9764 0.9759
3671.356636 0.9754 0.9748 0.9738 0.9730 0.9730
3675.750313 0.9730 0.9730 0.9730 0.9730 0.9730
3680.143991 0.9730 0.9732 0.9741 0.9751 0.9756
3684.537668 0.9761 0.9766 0.9770 0.9770 0.9772
3688.931346 0.9782 0.9790 0.9790 0.9791 0.9796
3693.325023 0.9800 0.9800 0.9800 0.9800 0.9800
3697.718701 0.9800 0.9800 0.9800 0.9800 0.9800
3702.112378 0.9800 0.9800 0.9800 0.9800 0.9799
3706.506056 0.9794 0.9789 0.9779 0.9770 0.9770
3710.899733 0.9769 0.9764 0.9760 0.9760 0.9760
3715.293411 0.9760 0.9760 0.9760 0.9760 0.9760
3719.687088 0.9760 0.9760 0.9760 0.9760 0.9761
3724.080766 0.9766 0.9770 0.9770 0.9771 0.9781
3728.474444 0.9791 0.9796 0.9800 0.9800 0.9800
3732.868121 0.9800 0.9800 0.9800 0.9800 0.9800
3737.261799 0.9800 0.9800 0.9800 0.9800 0.9800
3741.655476 0.9800 0.9800 0.9800 0.9800 0.9800
3746.049154 0.9800 0.9800 0.9800 0.9800 0.9800
3750.442831 0.9800 0.9800 0.9800 0.9800 0.9800
3754.836509 0.9800 0.9800 0.9800 0.9800 0.9800
3759.230186 0.9800 0.9800 0.9800 0.9800 0.9800
3763.623864 0.9800 0.9800 0.9800 0.9800 0.9800
3768.017541 0.9800 0.9800 0.9800 0.9800 0.9800
3772.411219 0.9800 0.9800 0.9800 0.9800 0.9800
3776.804896 0.9800 0.9800 0.9800
##END=
