##TITLE=Acetic acid, allyl ester
##JCAMP-DX=4.24
$$ By DXEDIT 1.05 (RS McDonald)
##DATA TYPE=INFRARED SPECTRUM
##CLASS=COBLENTZ III
##ORIGIN=DOW CHEMICAL COMPANY
##OWNER=COPYRIGHT (C) 1988 by COBLENTZ SOCIETY INC.
Collection (C) 2018 copyright by the U.S. Secretary of Commerce
on behalf of the United States of America. All rights reserved.
##DATE=1963/05/06
##NAMES=allyl acetate
##CAS REGISTRY NO=591-87-7
##MOLFORM=C5 H8 O2
##SOURCE REFERENCE=COBLENTZ NO. 5686
##$NIST SOURCE=COBLENTZ
##$NIST IMAGE=cob5686
##SPECTROMETER/DATA SYSTEM=DOW KBr FOREPRISM-GRATING
##INSTRUMENT PARAMETERS=BLAZED AT 3.5, 12.0, 20.0 MICRON AND CHANGED AT 5.0, 7.5, 14.9 MICRON
##STATE=SOLUTION (10% CCl4 FOR 3800-1330, 10% CS2 FOR 1330-400)
##PATH LENGTH=0.011 CM, 0.0104 CM
$$SPECTRAL CONTAMINATION DUE TO CS2 AROUND 400 AND CCl4 AROUND 1550 CM^-^1 HAVE BEEN SUBTRACTED
##SAMPLING PROCEDURE=TRANSMISSION
##RESOLUTION=2
##DATA PROCESSING=DIGITIZED BY COBLENTZ SOCIETY (BATCH I) FROM HARD COPY
##XUNITS=1/CM
##YUNITS=TRANSMITTANCE
##XFACTOR=1
##YFACTOR=1
##DELTAX=1
##FIRSTX=3820
##LASTX=385
##FIRSTY=0.916
##MAXX=3820
##MINX=385
##MAXY=0.9468
##MINY=0.0076
##NPOINTS=3436
##XYDATA=(X++(Y..Y))
3820.000000 0.9160 0.9160 0.9160 0.9160 0.9160
3815.000000 0.9160 0.9151 0.9143 0.9143 0.9153
3810.000000 0.9158 0.9145 0.9141 0.9153 0.9156
3805.000000 0.9156 0.9156 0.9156 0.9141 0.9141
3800.000000 0.9141 0.9140 0.9140 0.9142 0.9152
3795.000000 0.9142 0.9154 0.9154 0.9154 0.9152
3790.000000 0.9152 0.9152 0.9152 0.9152 0.9152
3785.000000 0.9152 0.9142 0.9136 0.9136 0.9148
3780.000000 0.9152 0.9139 0.9149 0.9152 0.9154
3775.000000 0.9139 0.9154 0.9154 0.9155 0.9155
3770.000000 0.9155 0.9155 0.9156 0.9156 0.9156
3765.000000 0.9156 0.9156 0.9156 0.9156 0.9156
3760.000000 0.9166 0.9165 0.9158 0.9158 0.9158
3755.000000 0.9156 0.9156 0.9154 0.9153 0.9151
3750.000000 0.9151 0.9151 0.9150 0.9148 0.9148
3745.000000 0.9147 0.9147 0.9146 0.9145 0.9144
3740.000000 0.9143 0.9146 0.9156 0.9155 0.9155
3735.000000 0.9153 0.9143 0.9133 0.9140 0.9145
3730.000000 0.9143 0.9141 0.9139 0.9137 0.9135
3725.000000 0.9133 0.9132 0.9129 0.9127 0.9121
3720.000000 0.9116 0.9094 0.9090 0.9098 0.9093
3715.000000 0.9086 0.9081 0.9075 0.9073 0.9071
3710.000000 0.9061 0.9063 0.9056 0.9050 0.9043
3705.000000 0.9048 0.9052 0.9056 0.9061 0.9065
3700.000000 0.9070 0.9073 0.9079 0.9083 0.9075
3695.000000 0.9078 0.9082 0.9085 0.9088 0.9090
3690.000000 0.9092 0.9094 0.9096 0.9095 0.9086
3685.000000 0.9088 0.9091 0.9093 0.9095 0.9097
3680.000000 0.9100 0.9102 0.9104 0.9105 0.9109
3675.000000 0.9111 0.9113 0.9116 0.9118 0.9119
3670.000000 0.9132 0.9123 0.9122 0.9123 0.9124
3665.000000 0.9125 0.9126 0.9127 0.9128 0.9129
3660.000000 0.9130 0.9131 0.9132 0.9133 0.9134
3655.000000 0.9134 0.9135 0.9136 0.9137 0.9138
3650.000000 0.9139 0.9140 0.9141 0.9142 0.9143
3645.000000 0.9145 0.9146 0.9147 0.9147 0.9149
3640.000000 0.9150 0.9150 0.9152 0.9153 0.9154
3635.000000 0.9154 0.9156 0.9160 0.9172 0.9172
3630.000000 0.9168 0.9157 0.9163 0.9171 0.9171
3625.000000 0.9169 0.9169 0.9169 0.9169 0.9168
3620.000000 0.9168 0.9168 0.9168 0.9167 0.9167
3615.000000 0.9165 0.9165 0.9161 0.9161 0.9160
3610.000000 0.9159 0.9157 0.9144 0.9155 0.9154
3605.000000 0.9150 0.9146 0.9137 0.9127 0.9132
3600.000000 0.9121 0.9108 0.9111 0.9114 0.9109
3595.000000 0.9105 0.9101 0.9096 0.9092 0.9089
3590.000000 0.9087 0.9084 0.9082 0.9080 0.9078
3585.000000 0.9076 0.9074 0.9072 0.9071 0.9069
3580.000000 0.9066 0.9063 0.9062 0.9059 0.9055
3575.000000 0.9046 0.9055 0.9053 0.9044 0.9033
3570.000000 0.9032 0.9032 0.9032 0.9033 0.9034
3565.000000 0.9035 0.9036 0.9037 0.9038 0.9039
3560.000000 0.9040 0.9040 0.9043 0.9044 0.9044
3555.000000 0.9060 0.9047 0.9050 0.9063 0.9065
3550.000000 0.9062 0.9057 0.9070 0.9072 0.9074
3545.000000 0.9069 0.9069 0.9080 0.9082 0.9084
3540.000000 0.9076 0.9082 0.9078 0.9087 0.9093
3535.000000 0.9095 0.9097 0.9098 0.9100 0.9102
3530.000000 0.9105 0.9089 0.9089 0.9087 0.9086
3525.000000 0.9084 0.9083 0.9081 0.9118 0.9079
3520.000000 0.9078 0.9076 0.9074 0.9072 0.9070
3515.000000 0.9060 0.9050 0.9040 0.9029 0.9019
3510.000000 0.9008 0.8998 0.8987 0.8977 0.8966
3505.000000 0.8949 0.8933 0.8916 0.8900 0.8882
3500.000000 0.8868 0.8851 0.8833 0.8811 0.8788
3495.000000 0.8765 0.8742 0.8718 0.8694 0.8674
3490.000000 0.8655 0.8639 0.8623 0.8608 0.8594
3485.000000 0.8583 0.8529 0.8575 0.8576 0.8576
3480.000000 0.8578 0.8578 0.8578 0.8590 0.8604
3475.000000 0.8618 0.8630 0.8649 0.8668 0.8689
3470.000000 0.8711 0.8732 0.8754 0.8770 0.8786
3465.000000 0.8799 0.8813 0.8825 0.8839 0.8851
3460.000000 0.8865 0.8878 0.8891 0.8904 0.8917
3455.000000 0.8930 0.8944 0.8956 0.8970 0.8982
3450.000000 0.8996 0.9008 0.9022 0.9035 0.9046
3445.000000 0.9059 0.9071 0.9084 0.9096 0.9108
3440.000000 0.9121 0.9131 0.9142 0.9150 0.9158
3435.000000 0.9166 0.9174 0.9182 0.9191 0.9196
3430.000000 0.9202 0.9205 0.9209 0.9211 0.9214
3425.000000 0.9204 0.9218 0.9223 0.9226 0.9229
3420.000000 0.9233 0.9236 0.9239 0.9242 0.9245
3415.000000 0.9248 0.9251 0.9251 0.9253 0.9253
3410.000000 0.9254 0.9255 0.9255 0.9263 0.9264
3405.000000 0.9259 0.9258 0.9258 0.9258 0.9257
3400.000000 0.9257 0.9255 0.9255 0.9255 0.9255
3395.000000 0.9254 0.9254 0.9253 0.9253 0.9251
3390.000000 0.9251 0.9251 0.9251 0.9250 0.9250
3385.000000 0.9248 0.9248 0.9248 0.9248 0.9247
3380.000000 0.9247 0.9246 0.9246 0.9244 0.9244
3375.000000 0.9243 0.9243 0.9242 0.9242 0.9242
3370.000000 0.9256 0.9242 0.9241 0.9240 0.9240
3365.000000 0.9239 0.9239 0.9238 0.9238 0.9237
3360.000000 0.9237 0.9237 0.9237 0.9236 0.9236
3355.000000 0.9235 0.9235 0.9234 0.9234 0.9233
3350.000000 0.9233 0.9233 0.9233 0.9231 0.9231
3345.000000 0.9243 0.9246 0.9231 0.9243 0.9229
3340.000000 0.9228 0.9227 0.9243 0.9243 0.9240
3335.000000 0.9226 0.9226 0.9225 0.9225 0.9225
3330.000000 0.9225 0.9224 0.9224 0.9224 0.9224
3325.000000 0.9223 0.9223 0.9222 0.9222 0.9222
3320.000000 0.9222 0.9221 0.9221 0.9221 0.9221
3315.000000 0.9219 0.9219 0.9218 0.9234 0.9234
3310.000000 0.9234 0.9233 0.9230 0.9220 0.9233
3305.000000 0.9232 0.9227 0.9215 0.9215 0.9215
3300.000000 0.9215 0.9214 0.9214 0.9214 0.9214
3295.000000 0.9213 0.9213 0.9212 0.9212 0.9212
3290.000000 0.9212 0.9211 0.9211 0.9211 0.9211
3285.000000 0.9210 0.9209 0.9223 0.9221 0.9206
3280.000000 0.9207 0.9220 0.9215 0.9203 0.9206
3275.000000 0.9216 0.9215 0.9214 0.9214 0.9212
3270.000000 0.9212 0.9211 0.9211 0.9209 0.9209
3265.000000 0.9208 0.9208 0.9207 0.9206 0.9205
3260.000000 0.9204 0.9203 0.9203 0.9201 0.9186
3255.000000 0.9199 0.9199 0.9198 0.9197 0.9196
3250.000000 0.9196 0.9195 0.9194 0.9193 0.9193
3245.000000 0.9184 0.9183 0.9190 0.9189 0.9188
3240.000000 0.9188 0.9186 0.9185 0.9184 0.9183
3235.000000 0.9181 0.9180 0.9179 0.9178 0.9176
3230.000000 0.9175 0.9174 0.9173 0.9168 0.9154
3225.000000 0.9157 0.9166 0.9166 0.9165 0.9163
3220.000000 0.9162 0.9161 0.9159 0.9158 0.9156
3215.000000 0.9156 0.9155 0.9153 0.9151 0.9150
3210.000000 0.9149 0.9147 0.9133 0.9130 0.9129
3205.000000 0.9128 0.9127 0.9125 0.9123 0.9122
3200.000000 0.9123 0.9132 0.9121 0.9128 0.9120
3195.000000 0.9130 0.9129 0.9127 0.9126 0.9125
3190.000000 0.9116 0.9116 0.9122 0.9120 0.9109
3185.000000 0.9102 0.9101 0.9098 0.9098 0.9095
3180.000000 0.9093 0.9091 0.9087 0.9086 0.9084
3175.000000 0.9082 0.9080 0.9077 0.9075 0.9073
3170.000000 0.9071 0.9068 0.9066 0.9063 0.9061
3165.000000 0.9059 0.9064 0.9070 0.9060 0.9059
3160.000000 0.9064 0.9060 0.9047 0.9051 0.9041
3155.000000 0.9035 0.9045 0.9045 0.9041 0.9038
3150.000000 0.9035 0.9032 0.9014 0.9010 0.9007
3145.000000 0.9004 0.9002 0.8999 0.8997 0.8997
3140.000000 0.9007 0.9003 0.9000 0.8997 0.8996
3135.000000 0.8991 0.8987 0.8975 0.8964 0.8952
3130.000000 0.8942 0.8931 0.8919 0.8908 0.8895
3125.000000 0.8885 0.8874 0.8862 0.8850 0.8839
3120.000000 0.8828 0.8816 0.8805 0.8786 0.8767
3115.000000 0.8732 0.8697 0.8662 0.8627 0.8590
3110.000000 0.8555 0.8510 0.8467 0.8430 0.8394
3105.000000 0.8265 0.8135 0.7952 0.7773 0.7621
3100.000000 0.7479 0.7330 0.7179 0.7037 0.6897
3095.000000 0.6757 0.6605 0.6573 0.6518 0.6531
3090.000000 0.6529 0.6532 0.6538 0.6628 0.6718
3085.000000 0.6792 0.6873 0.6959 0.7046 0.7132
3080.000000 0.7219 0.7305 0.7399 0.7499 0.7590
3075.000000 0.7677 0.7774 0.7863 0.7938 0.8003
3070.000000 0.8069 0.8077 0.8112 0.8119 0.8139
3065.000000 0.8152 0.8161 0.8157 0.8163 0.8171
3060.000000 0.8181 0.8194 0.8194 0.8190 0.8180
3055.000000 0.8184 0.8183 0.8174 0.8173 0.8171
3050.000000 0.8168 0.8144 0.8120 0.8097 0.8082
3045.000000 0.8049 0.8027 0.7988 0.7950 0.7884
3040.000000 0.7820 0.7726 0.7634 0.7538 0.7432
3035.000000 0.7328 0.7232 0.7127 0.7027 0.6934
3030.000000 0.6767 0.6798 0.6766 0.6774 0.6781
3025.000000 0.6822 0.6866 0.6908 0.6951 0.6994
3020.000000 0.7035 0.7086 0.7133 0.7175 0.7207
3015.000000 0.7234 0.7296 0.7261 0.7261 0.7260
3010.000000 0.7260 0.7259 0.7256 0.7233 0.7225
3005.000000 0.7179 0.7123 0.7056 0.6986 0.6923
3000.000000 0.6866 0.6803 0.6735 0.6672 0.6610
2995.000000 0.6547 0.6484 0.6429 0.6062 0.6306
2990.000000 0.6244 0.6181 0.6118 0.6108 0.6100
2985.000000 0.6209 0.6320 0.6420 0.6520 0.6620
2980.000000 0.6723 0.6831 0.6982 0.6918 0.6921
2975.000000 0.6915 0.6910 0.6903 0.6898 0.6885
2970.000000 0.6876 0.6861 0.6843 0.6784 0.6727
2965.000000 0.6669 0.6612 0.6471 0.6330 0.6199
2960.000000 0.6068 0.5947 0.5815 0.5675 0.5544
2955.000000 0.5413 0.5284 0.5175 0.5060 0.5064
2950.000000 0.5070 0.5074 0.5079 0.5099 0.5036
2945.000000 0.5229 0.5344 0.5451 0.5563 0.5667
2940.000000 0.5781 0.5893 0.6002 0.6111 0.6220
2935.000000 0.6320 0.6427 0.6536 0.6645 0.6754
2930.000000 0.6863 0.6972 0.7080 0.7189 0.7298
2925.000000 0.7406 0.7515 0.7625 0.7728 0.7781
2920.000000 0.7843 0.7880 0.7920 0.7940 0.7962
2915.000000 0.7974 0.7985 0.7998 0.8009 0.8013
2910.000000 0.8025 0.8018 0.8030 0.8032 0.8018
2905.000000 0.8001 0.7984 0.7954 0.7924 0.7895
2900.000000 0.7866 0.7833 0.7803 0.7770 0.7739
2895.000000 0.7706 0.7674 0.7638 0.7603 0.7563
2890.000000 0.7525 0.7482 0.7438 0.7434 0.7430
2885.000000 0.7426 0.7397 0.7421 0.7421 0.7421
2880.000000 0.7421 0.7428 0.7435 0.7504 0.7599
2875.000000 0.7667 0.7739 0.7805 0.7872 0.7918
2870.000000 0.7963 0.8009 0.8054 0.8100 0.8145
2865.000000 0.8191 0.8237 0.8261 0.8285 0.8304
2860.000000 0.8326 0.8345 0.8367 0.8387 0.8408
2855.000000 0.8428 0.8437 0.8454 0.8477 0.8493
2850.000000 0.8513 0.8529 0.8546 0.8564 0.8593
2845.000000 0.8609 0.8621 0.8631 0.8658 0.8674
2840.000000 0.8685 0.8699 0.8724 0.8736 0.8741
2835.000000 0.8747 0.8760 0.8772 0.8785 0.8797
2830.000000 0.8810 0.8827 0.8825 0.8839 0.8845
2825.000000 0.8834 0.8837 0.8855 0.8846 0.8863
2820.000000 0.8867 0.8864 0.8852 0.8852 0.8852
2815.000000 0.8852 0.8852 0.8853 0.8854 0.8856
2810.000000 0.8859 0.8862 0.8873 0.8882 0.8886
2805.000000 0.8887 0.8890 0.8894 0.8897 0.8899
2800.000000 0.8902 0.8906 0.8909 0.8911 0.8914
2795.000000 0.8916 0.8919 0.8922 0.8923 0.8916
2790.000000 0.8927 0.8919 0.8922 0.8924 0.8927
2785.000000 0.8937 0.8949 0.8943 0.8939 0.8951
2780.000000 0.8960 0.8963 0.8966 0.8970 0.8973
2775.000000 0.8975 0.8978 0.8981 0.8984 0.8984
2770.000000 0.8984 0.8986 0.8984 0.8984 0.8983
2765.000000 0.8982 0.8981 0.8980 0.8979 0.8977
2760.000000 0.8976 0.8975 0.8974 0.8972 0.8971
2755.000000 0.8970 0.8969 0.8965 0.8962 0.8958
2750.000000 0.8953 0.8949 0.8946 0.8942 0.8938
2745.000000 0.8933 0.8930 0.8926 0.8922 0.8917
2740.000000 0.8914 0.8910 0.8906 0.8902 0.8898
2735.000000 0.8894 0.8889 0.8886 0.8881 0.8878
2730.000000 0.8874 0.8870 0.8867 0.8862 0.8858
2725.000000 0.8853 0.8848 0.8842 0.8836 0.8836
2720.000000 0.8838 0.8841 0.8844 0.8847 0.8852
2715.000000 0.8855 0.8858 0.8861 0.8865 0.8868
2710.000000 0.8872 0.8875 0.8878 0.8881 0.8885
2705.000000 0.8888 0.8892 0.8895 0.8899 0.8902
2700.000000 0.8905 0.8908 0.8913 0.8915 0.8917
2695.000000 0.8919 0.8922 0.8924 0.8926 0.8928
2690.000000 0.8930 0.8934 0.8936 0.8938 0.8941
2685.000000 0.8943 0.8945 0.8947 0.8950 0.8950
2680.000000 0.8951 0.8951 0.8952 0.8952 0.8953
2675.000000 0.8953 0.8953 0.8953 0.8954 0.8954
2670.000000 0.8954 0.8954 0.8955 0.8955 0.8956
2665.000000 0.8956 0.8956 0.8956 0.8957 0.8957
2660.000000 0.8957 0.8957 0.8960 0.8973 0.8973
2655.000000 0.8973 0.8974 0.8974 0.8975 0.8970
2650.000000 0.8960 0.8960 0.8968 0.8976 0.8976
2645.000000 0.8967 0.8960 0.8958 0.8967 0.8960
2640.000000 0.8955 0.8954 0.8953 0.8951 0.8950
2635.000000 0.8949 0.8962 0.8961 0.8959 0.8943
2630.000000 0.8944 0.8955 0.8955 0.8954 0.8952
2625.000000 0.8951 0.8950 0.8948 0.8948 0.8946
2620.000000 0.8944 0.8943 0.8942 0.8941 0.8940
2615.000000 0.8939 0.8938 0.8937 0.8936 0.8934
2610.000000 0.8933 0.8931 0.8930 0.8929 0.8928
2605.000000 0.8926 0.8925 0.8924 0.8923 0.8922
2600.000000 0.8921 0.8919 0.8918 0.8915 0.8913
2595.000000 0.8911 0.8910 0.8908 0.8906 0.8904
2590.000000 0.8902 0.8898 0.8897 0.8897 0.8898
2585.000000 0.8902 0.8907 0.8911 0.8915 0.8919
2580.000000 0.8925 0.8929 0.8933 0.8937 0.8942
2575.000000 0.8946 0.8951 0.8954 0.8959 0.8964
2570.000000 0.8968 0.8972 0.8976 0.8981 0.8986
2565.000000 0.8987 0.8989 0.8990 0.8991 0.8992
2560.000000 0.8994 0.8995 0.8996 0.8996 0.8998
2555.000000 0.8999 0.9001 0.9003 0.9004 0.9004
2550.000000 0.9007 0.9007 0.9009 0.9010 0.9012
2545.000000 0.9013 0.9014 0.9015 0.9017 0.9018
2540.000000 0.9018 0.9018 0.9018 0.9017 0.9017
2535.000000 0.9016 0.9015 0.9014 0.9014 0.9013
2530.000000 0.9012 0.9011 0.9010 0.9008 0.9008
2525.000000 0.9006 0.9006 0.9005 0.9003 0.9003
2520.000000 0.9003 0.9002 0.9001 0.8999 0.8996
2515.000000 0.8992 0.8989 0.8985 0.8982 0.8978
2510.000000 0.8974 0.8970 0.8967 0.8963 0.8960
2505.000000 0.8955 0.8952 0.8948 0.8945 0.8941
2500.000000 0.8937 0.8933 0.8930 0.8926 0.8922
2495.000000 0.8916 0.8911 0.8906 0.8900 0.8893
2490.000000 0.8889 0.8883 0.8878 0.8872 0.8866
2485.000000 0.8861 0.8856 0.8849 0.8844 0.8848
2480.000000 0.8848 0.8842 0.8837 0.8831 0.8826
2475.000000 0.8820 0.8814 0.8809 0.8804 0.8798
2470.000000 0.8793 0.8790 0.8787 0.8783 0.8779
2465.000000 0.8776 0.8773 0.8769 0.8766 0.8762
2460.000000 0.8759 0.8756 0.8746 0.8741 0.8737
2455.000000 0.8728 0.8724 0.8730 0.8732 0.8728
2450.000000 0.8717 0.8725 0.8733 0.8737 0.8741
2445.000000 0.8745 0.8748 0.8753 0.8759 0.8763
2440.000000 0.8767 0.8772 0.8776 0.8781 0.8786
2435.000000 0.8791 0.8796 0.8800 0.8805 0.8811
2430.000000 0.8816 0.8820 0.8825 0.8831 0.8836
2425.000000 0.8840 0.8845 0.8851 0.8856 0.8860
2420.000000 0.8865 0.8863 0.8861 0.8858 0.8857
2415.000000 0.8854 0.8853 0.8851 0.8848 0.8845
2410.000000 0.8843 0.8845 0.8849 0.8843 0.8853
2405.000000 0.8854 0.8858 0.8861 0.8864 0.8867
2400.000000 0.8872 0.8875 0.8879 0.8882 0.8885
2395.000000 0.8886 0.8888 0.8888 0.8889 0.8889
2390.000000 0.8890 0.8905 0.8906 0.8906 0.8906
2385.000000 0.8909 0.8922 0.8922 0.8927 0.8938
2380.000000 0.8939 0.8945 0.8955 0.8958 0.8962
2375.000000 0.8957 0.8963 0.8965 0.8961 0.8956
2370.000000 0.8953 0.8938 0.8930 0.8925 0.8921
2365.000000 0.8917 0.8914 0.8909 0.8905 0.8901
2360.000000 0.8911 0.8910 0.8919 0.8917 0.8930
2355.000000 0.8937 0.8933 0.8928 0.8925 0.8914
2350.000000 0.8902 0.8898 0.8902 0.8913 0.8916
2345.000000 0.8912 0.8899 0.8891 0.8889 0.8887
2340.000000 0.8886 0.8871 0.8881 0.8881 0.8864
2335.000000 0.8861 0.8875 0.8873 0.8872 0.8872
2330.000000 0.8884 0.8884 0.8884 0.8888 0.8898
2325.000000 0.8904 0.8913 0.8913 0.8913 0.8913
2320.000000 0.8913 0.8913 0.8913 0.8913 0.8913
2315.000000 0.8913 0.8913 0.8913 0.8913 0.8912
2310.000000 0.8912 0.8909 0.8907 0.8903 0.8901
2305.000000 0.8898 0.8896 0.8893 0.8889 0.8887
2300.000000 0.8884 0.8885 0.8893 0.8890 0.8888
2295.000000 0.8885 0.8883 0.8879 0.8876 0.8873
2290.000000 0.8871 0.8867 0.8853 0.8846 0.8844
2285.000000 0.8840 0.8836 0.8820 0.8819 0.8817
2280.000000 0.8819 0.8819 0.8809 0.8813 0.8813
2275.000000 0.8803 0.8807 0.8810 0.8808 0.8800
2270.000000 0.8804 0.8800 0.8795 0.8797 0.8801
2265.000000 0.8796 0.8795 0.8800 0.8807 0.8802
2260.000000 0.8803 0.8808 0.8801 0.8804 0.8810
2255.000000 0.8815 0.8805 0.8811 0.8816 0.8820
2250.000000 0.8812 0.8818 0.8826 0.8832 0.8840
2245.000000 0.8841 0.8839 0.8846 0.8853 0.8860
2240.000000 0.8867 0.8871 0.8876 0.8876 0.8876
2235.000000 0.8865 0.8861 0.8861 0.8861 0.8861
2230.000000 0.8861 0.8861 0.8861 0.8861 0.8861
2225.000000 0.8861 0.8861 0.8861 0.8858 0.8838
2220.000000 0.8832 0.8825 0.8818 0.8812 0.8805
2215.000000 0.8804 0.8802 0.8801 0.8798 0.8797
2210.000000 0.8795 0.8794 0.8794 0.8794 0.8795
2205.000000 0.8798 0.8802 0.8807 0.8813 0.8817
2200.000000 0.8821 0.8825 0.8831 0.8835 0.8837
2195.000000 0.8832 0.8850 0.8851 0.8845 0.8851
2190.000000 0.8856 0.8861 0.8866 0.8872 0.8877
2185.000000 0.8880 0.8892 0.8889 0.8883 0.8883
2180.000000 0.8883 0.8877 0.8883 0.8878 0.8869
2175.000000 0.8861 0.8852 0.8844 0.8837 0.8828
2170.000000 0.8820 0.8809 0.8789 0.8780 0.8772
2165.000000 0.8764 0.8755 0.8747 0.8739 0.8730
2160.000000 0.8722 0.8714 0.8707 0.8698 0.8690
2155.000000 0.8681 0.8673 0.8664 0.8657 0.8648
2150.000000 0.8640 0.8632 0.8624 0.8615 0.8607
2145.000000 0.8599 0.8591 0.8583 0.8574 0.8567
2140.000000 0.8560 0.8560 0.8560 0.8560 0.8561
2135.000000 0.8561 0.8561 0.8561 0.8561 0.8561
2130.000000 0.8561 0.8561 0.8562 0.8562 0.8562
2125.000000 0.8565 0.8569 0.8574 0.8566 0.8582
2120.000000 0.8589 0.8593 0.8598 0.8603 0.8607
2115.000000 0.8610 0.8616 0.8620 0.8625 0.8629
2110.000000 0.8635 0.8639 0.8645 0.8649 0.8654
2105.000000 0.8659 0.8665 0.8670 0.8675 0.8679
2100.000000 0.8684 0.8690 0.8685 0.8686 0.8703
2095.000000 0.8710 0.8702 0.8719 0.8726 0.8729
2090.000000 0.8729 0.8729 0.8726 0.8724 0.8720
2085.000000 0.8716 0.8713 0.8700 0.8689 0.8673
2080.000000 0.8657 0.8641 0.8624 0.8608 0.8593
2075.000000 0.8575 0.8557 0.8532 0.8507 0.8484
2070.000000 0.8458 0.8438 0.8416 0.8400 0.8383
2065.000000 0.8377 0.8371 0.8372 0.8373 0.8382
2060.000000 0.8391 0.8401 0.8412 0.8425 0.8445
2055.000000 0.8454 0.8464 0.8472 0.8477 0.8486
2050.000000 0.8503 0.8505 0.8508 0.8517 0.8528
2045.000000 0.8536 0.8545 0.8549 0.8556 0.8563
2040.000000 0.8568 0.8574 0.8580 0.8586 0.8591
2035.000000 0.8593 0.8595 0.8597 0.8599 0.8601
2030.000000 0.8604 0.8606 0.8612 0.8618 0.8612
2025.000000 0.8619 0.8630 0.8633 0.8634 0.8634
2020.000000 0.8633 0.8630 0.8627 0.8626 0.8623
2015.000000 0.8622 0.8620 0.8618 0.8616 0.8614
2010.000000 0.8612 0.8609 0.8607 0.8603 0.8600
2005.000000 0.8595 0.8591 0.8588 0.8584 0.8576
2000.000000 0.8569 0.8561 0.8554 0.8546 0.8547
1995.000000 0.8548 0.8548 0.8550 0.8551 0.8555
1990.000000 0.8560 0.8565 0.8569 0.8573 0.8564
1985.000000 0.8567 0.8572 0.8576 0.8581 0.8586
1980.000000 0.8594 0.8600 0.8593 0.8600 0.8609
1975.000000 0.8616 0.8625 0.8635 0.8645 0.8655
1970.000000 0.8664 0.8674 0.8683 0.8693 0.8711
1965.000000 0.8717 0.8724 0.8746 0.8762 0.8765
1960.000000 0.8754 0.8742 0.8730 0.8720 0.8708
1955.000000 0.8698 0.8672 0.8658 0.8644 0.8631
1950.000000 0.8615 0.8590 0.8576 0.8569 0.8562
1945.000000 0.8554 0.8546 0.8537 0.8530 0.8522
1940.000000 0.8514 0.8505 0.8497 0.8490 0.8483
1935.000000 0.8476 0.8469 0.8463 0.8456 0.8449
1930.000000 0.8443 0.8435 0.8428 0.8422 0.8414
1925.000000 0.8409 0.8403 0.8397 0.8393 0.8388
1920.000000 0.8384 0.8379 0.8373 0.8369 0.8365
1915.000000 0.8361 0.8354 0.8351 0.8347 0.8343
1910.000000 0.8339 0.8334 0.8330 0.8338 0.8337
1905.000000 0.8332 0.8327 0.8323 0.8320 0.8315
1900.000000 0.8308 0.8301 0.8293 0.8286 0.8277
1895.000000 0.8266 0.8253 0.8240 0.8224 0.8205
1890.000000 0.8184 0.8156 0.8129 0.8102 0.8076
1885.000000 0.8048 0.8035 0.8023 0.8006 0.7989
1880.000000 0.7972 0.7957 0.7937 0.7916 0.7895
1875.000000 0.7887 0.7866 0.7846 0.7826 0.7806
1870.000000 0.7785 0.7764 0.7745 0.7725 0.7715
1865.000000 0.7697 0.7692 0.7700 0.7724 0.7747
1860.000000 0.7771 0.7793 0.7805 0.7825 0.7835
1855.000000 0.7841 0.7843 0.7844 0.7845 0.7846
1850.000000 0.7847 0.7847 0.7851 0.7855 0.7859
1845.000000 0.7864 0.7868 0.7873 0.7878 0.7883
1840.000000 0.7891 0.7900 0.7907 0.7917 0.7920
1835.000000 0.7920 0.7942 0.7929 0.7932 0.7935
1830.000000 0.7913 0.7904 0.7897 0.7868 0.7833
1825.000000 0.7798 0.7767 0.7736 0.7705 0.7674
1820.000000 0.7638 0.7609 0.7567 0.7526 0.7484
1815.000000 0.7440 0.7398 0.7358 0.7319 0.7279
1810.000000 0.7240 0.7198 0.7150 0.7116 0.7083
1805.000000 0.7050 0.7011 0.6974 0.6940 0.6909
1800.000000 0.6873 0.6834 0.6793 0.6755 0.6716
1795.000000 0.6675 0.6629 0.6569 0.6510 0.6449
1790.000000 0.6389 0.6328 0.6263 0.6198 0.6133
1785.000000 0.6068 0.6003 0.5926 0.5844 0.5761
1780.000000 0.5678 0.5596 0.5514 0.5373 0.5225
1775.000000 0.5079 0.4912 0.4701 0.4433 0.3697
1770.000000 0.3375 0.3085 0.2848 0.2739 0.2630
1765.000000 0.2494 0.2349 0.1998 0.1722 0.1445
1760.000000 0.1167 0.0891 0.0615 0.0338 0.0189
1755.000000 0.0167 0.0145 0.0130 0.0122 0.0114
1750.000000 0.0113 0.0112 0.0110 0.0110 0.0109
1745.000000 0.0109 0.0108 0.0108 0.0108 0.0109
1740.000000 0.0109 0.0109 0.0112 0.0119 0.0126
1735.000000 0.0152 0.0209 0.0342 0.0912 0.1193
1730.000000 0.1462 0.1729 0.1911 0.2078 0.2223
1725.000000 0.2340 0.2458 0.2581 0.2711 0.2840
1720.000000 0.2978 0.3124 0.3270 0.3447 0.3626
1715.000000 0.3757 0.3889 0.4056 0.4334 0.4496
1710.000000 0.4573 0.4648 0.4720 0.4780 0.4840
1705.000000 0.4899 0.5177 0.5412 0.5597 0.5755
1700.000000 0.5879 0.5970 0.6070 0.6235 0.6400
1695.000000 0.6473 0.6542 0.6611 0.6661 0.6706
1690.000000 0.6749 0.6795 0.6839 0.6876 0.6911
1685.000000 0.6949 0.6986 0.7022 0.7060 0.7099
1680.000000 0.7137 0.7169 0.7199 0.7227 0.7254
1675.000000 0.7276 0.7291 0.7304 0.7321 0.7328
1670.000000 0.7330 0.7331 0.7320 0.7308 0.7298
1665.000000 0.7287 0.7276 0.7245 0.7212 0.7145
1660.000000 0.7050 0.6946 0.6836 0.6499 0.6150
1655.000000 0.5801 0.5451 0.4302 0.4746 0.4403
1650.000000 0.4341 0.4339 0.5018 0.5697 0.6382
1645.000000 0.6631 0.7035 0.7134 0.7238 0.7344
1640.000000 0.7423 0.7492 0.7572 0.7660 0.7754
1635.000000 0.7802 0.7841 0.7860 0.7870 0.7890
1630.000000 0.7899 0.7919 0.7923 0.7941 0.7944
1625.000000 0.7976 0.7968 0.7987 0.8017 0.8027
1620.000000 0.8031 0.8043 0.8057 0.8072 0.8099
1615.000000 0.8116 0.8131 0.8143 0.8159 0.8185
1610.000000 0.8194 0.8215 0.8234 0.8234 0.8247
1605.000000 0.8232 0.8274 0.8287 0.8316 0.8284
1600.000000 0.8303 0.8311 0.8328 0.8341 0.8316
1595.000000 0.8240 0.8168 0.8124 0.8117 0.8117
1590.000000 0.8081 0.8077 0.8058 0.8028 0.8012
1585.000000 0.8022 0.8049 0.8083 0.8073 0.8076
1580.000000 0.8068 0.8064 0.8043 0.8038 0.8020
1575.000000 0.8017 0.7959 0.7886 0.7810 0.7757
1570.000000 0.7612 0.7487 0.7405 0.7395 0.7385
1565.000000 0.7392 0.7406 0.7393 0.7350 0.7319
1560.000000 0.7329 0.7356 0.7392 0.7449 0.7513
1555.000000 0.7591 0.7643 0.7693 0.7806 0.7891
1550.000000 0.7967 0.7972 0.7982 0.8001 0.8012
1545.000000 0.8001 0.8011 0.8038 0.8052 0.8038
1540.000000 0.8036 0.8018 0.7999 0.7946 0.7933
1535.000000 0.7944 0.7925 0.7904 0.7889 0.7873
1530.000000 0.7867 0.7874 0.7886 0.7897 0.7920
1525.000000 0.7934 0.7947 0.7946 0.7957 0.7955
1520.000000 0.7967 0.7977 0.7975 0.7985 0.7983
1515.000000 0.7974 0.7971 0.7962 0.7959 0.7945
1510.000000 0.7937 0.7937 0.7929 0.7919 0.7911
1505.000000 0.7901 0.7883 0.7863 0.7838 0.7822
1500.000000 0.7811 0.7799 0.7776 0.7762 0.7752
1495.000000 0.7753 0.7728 0.7714 0.7700 0.7685
1490.000000 0.7671 0.7647 0.7620 0.7616 0.7569
1485.000000 0.7544 0.7521 0.7501 0.7489 0.7471
1480.000000 0.7434 0.7347 0.7234 0.7122 0.7021
1475.000000 0.6899 0.6773 0.6615 0.6426 0.6208
1470.000000 0.5967 0.5670 0.5364 0.5048 0.4766
1465.000000 0.4619 0.4527 0.4467 0.4403 0.4343
1460.000000 0.4300 0.4252 0.4201 0.4158 0.4122
1455.000000 0.4074 0.3993 0.3917 0.3840 0.3764
1450.000000 0.3662 0.3652 0.3673 0.3713 0.3757
1445.000000 0.3803 0.3848 0.3893 0.3939 0.3984
1440.000000 0.4024 0.4069 0.4114 0.4160 0.4205
1435.000000 0.4248 0.4255 0.4272 0.4170 0.4103
1430.000000 0.4031 0.3835 0.3884 0.3880 0.3951
1425.000000 0.4081 0.4207 0.4333 0.4464 0.4593
1420.000000 0.4803 0.4802 0.4802 0.4737 0.4632
1415.000000 0.4433 0.4463 0.4691 0.4982 0.5273
1410.000000 0.5565 0.5856 0.5934 0.5974 0.5994
1405.000000 0.6024 0.6017 0.6022 0.5988 0.5953
1400.000000 0.5909 0.5823 0.5744 0.5598 0.5433
1395.000000 0.5351 0.5200 0.4917 0.4632 0.4350
1390.000000 0.4073 0.3795 0.3512 0.3238 0.2964
1385.000000 0.2687 0.2399 0.2104 0.1811 0.1522
1380.000000 0.1235 0.0948 0.0666 0.0456 0.0373
1375.000000 0.0424 0.0424 0.0425 0.0438 0.1199
1370.000000 0.1566 0.1877 0.2012 0.2141 0.2407
1365.000000 0.3120 0.3408 0.3650 0.4002 0.4356
1360.000000 0.4710 0.5046 0.5242 0.5438 0.5654
1355.000000 0.5895 0.6137 0.6383 0.6642 0.6724
1350.000000 0.6805 0.6887 0.6950 0.6995 0.7038
1345.000000 0.7083 0.7127 0.7171 0.7212 0.7252
1340.000000 0.7281 0.7314 0.7353 0.7366 0.7371
1335.000000 0.7376 0.7382 0.7390 0.7398 0.7405
1330.000000 0.7412 0.7407 0.7415 0.7420 0.7423
1325.000000 0.7416 0.7436 0.7420 0.7398 0.7383
1320.000000 0.7370 0.7357 0.7333 0.7296 0.7259
1315.000000 0.7217 0.7174 0.7122 0.7071 0.7021
1310.000000 0.6970 0.6919 0.6863 0.6807 0.6751
1305.000000 0.6694 0.6627 0.6571 0.6510 0.6422
1300.000000 0.6334 0.6247 0.5894 0.5551 0.5296
1295.000000 0.5064 0.4624 0.4414 0.4254 0.4257
1290.000000 0.4342 0.4451 0.4504 0.4500 0.4461
1285.000000 0.4379 0.4295 0.4186 0.3909 0.3594
1280.000000 0.3277 0.2961 0.2645 0.2328 0.2015
1275.000000 0.1805 0.1663 0.1619 0.1586 0.1586
1270.000000 0.1586 0.1614 0.1643 0.1683 0.1698
1265.000000 0.1697 0.1694 0.1687 0.1677 0.1614
1260.000000 0.1535 0.1328 0.1158 0.0999 0.0880
1255.000000 0.0808 0.0735 0.0662 0.0577 0.0457
1250.000000 0.0352 0.0292 0.0234 0.0194 0.0156
1245.000000 0.0142 0.0139 0.0135 0.0129 0.0125
1240.000000 0.0121 0.0116 0.0111 0.0107 0.0104
1235.000000 0.0113 0.0097 0.0094 0.0091 0.0088
1230.000000 0.0083 0.0080 0.0077 0.0076 0.0076
1225.000000 0.0078 0.0080 0.0082 0.0084 0.0093
1220.000000 0.0110 0.0128 0.0144 0.0351 0.0528
1215.000000 0.0704 0.0914 0.1160 0.1907 0.2222
1210.000000 0.2429 0.2975 0.3341 0.3597 0.3796
1205.000000 0.3994 0.4302 0.4566 0.4772 0.4991
1200.000000 0.5235 0.5322 0.5395 0.5482 0.5576
1195.000000 0.5670 0.5764 0.5866 0.5960 0.6054
1190.000000 0.6148 0.6241 0.6336 0.6397 0.6451
1185.000000 0.6504 0.6556 0.6605 0.6661 0.6723
1180.000000 0.6797 0.6871 0.6950 0.7026 0.7090
1175.000000 0.7146 0.7200 0.7244 0.7283 0.7296
1170.000000 0.7312 0.7307 0.7304 0.7305 0.7282
1165.000000 0.7239 0.7174 0.7181 0.7181 0.7243
1160.000000 0.7309 0.7375 0.7441 0.7510 0.7595
1155.000000 0.7680 0.7746 0.7793 0.7841 0.7881
1150.000000 0.7925 0.7957 0.7974 0.7993 0.8004
1145.000000 0.8013 0.8023 0.8019 0.8038 0.8045
1140.000000 0.8049 0.8073 0.8087 0.8102 0.8106
1135.000000 0.8120 0.8119 0.8110 0.8102 0.8079
1130.000000 0.8059 0.8022 0.7975 0.7936 0.7898
1125.000000 0.7857 0.7819 0.7780 0.7737 0.7688
1120.000000 0.7636 0.7583 0.7531 0.7439 0.7347
1115.000000 0.7245 0.7146 0.7071 0.6994 0.6918
1110.000000 0.6841 0.6702 0.6536 0.6441 0.6221
1105.000000 0.5996 0.5771 0.5547 0.5322 0.5094
1100.000000 0.5135 0.5265 0.5396 0.5526 0.5656
1095.000000 0.5786 0.5916 0.6044 0.6087 0.6132
1090.000000 0.6176 0.6214 0.6249 0.6284 0.6311
1085.000000 0.6336 0.6353 0.6364 0.6372 0.6376
1080.000000 0.6397 0.6382 0.6367 0.6356 0.6341
1075.000000 0.6314 0.6286 0.6263 0.6241 0.6213
1070.000000 0.6163 0.6106 0.6049 0.5991 0.5912
1065.000000 0.5774 0.5637 0.5527 0.5457 0.5381
1060.000000 0.5302 0.5216 0.5112 0.4890 0.4562
1055.000000 0.4110 0.3965 0.3821 0.3669 0.3504
1050.000000 0.3385 0.3269 0.2963 0.2767 0.2641
1045.000000 0.2539 0.2408 0.2246 0.2060 0.1876
1040.000000 0.1689 0.1504 0.1319 0.1134 0.0948
1035.000000 0.0762 0.0577 0.0454 0.0399 0.0365
1030.000000 0.0353 0.0357 0.0378 0.0441 0.0504
1025.000000 0.0566 0.0630 0.0799 0.1022 0.1271
1020.000000 0.1598 0.1753 0.1909 0.2065 0.2221
1015.000000 0.2377 0.2532 0.2688 0.2844 0.3000
1010.000000 0.3156 0.3311 0.3462 0.3529 0.3574
1005.000000 0.3588 0.3590 0.3590 0.3590 0.3586
1000.000000 0.3562 0.3531 0.3450 0.3346 0.3206
995.000000 0.3097 0.2998 0.2904 0.2838 0.2773
990.000000 0.2675 0.2389 0.2104 0.1817 0.1532
985.000000 0.1341 0.1351 0.1358 0.1402 0.1943
980.000000 0.2338 0.2733 0.3128 0.3523 0.3803
975.000000 0.4436 0.4651 0.4992 0.5305 0.5506
970.000000 0.5595 0.5682 0.5759 0.5830 0.5900
965.000000 0.5954 0.6006 0.6060 0.6166 0.6283
960.000000 0.6355 0.6425 0.6488 0.6546 0.6602
955.000000 0.6656 0.6706 0.6742 0.6776 0.6766
950.000000 0.6770 0.6774 0.6712 0.6525 0.6140
945.000000 0.5810 0.5553 0.5356 0.5223 0.5088
940.000000 0.4945 0.4737 0.4462 0.3936 0.3409
935.000000 0.2883 0.2358 0.1832 0.1305 0.0984
930.000000 0.0944 0.0947 0.0973 0.1039 0.1689
925.000000 0.1844 0.1999 0.2143 0.2198 0.2259
920.000000 0.2355 0.2494 0.2610 0.2722 0.3274
915.000000 0.3827 0.4312 0.4796 0.5285 0.5775
910.000000 0.6260 0.6660 0.6733 0.6777 0.6800
905.000000 0.6826 0.6830 0.6830 0.6834 0.6787
900.000000 0.6731 0.6598 0.6622 0.6628 0.6662
895.000000 0.6803 0.6914 0.7016 0.7127 0.7259
890.000000 0.7408 0.7559 0.7658 0.7745 0.7838
885.000000 0.7927 0.8034 0.8147 0.8229 0.8297
880.000000 0.8364 0.8428 0.8489 0.8555 0.8594
875.000000 0.8647 0.8681 0.8703 0.8722 0.8730
870.000000 0.8736 0.8743 0.8739 0.8749 0.8745
865.000000 0.8741 0.8751 0.8769 0.8776 0.8787
860.000000 0.8805 0.8818 0.8832 0.8825 0.8838
855.000000 0.8843 0.8833 0.8806 0.8783 0.8750
850.000000 0.8713 0.8697 0.8648 0.8565 0.8488
845.000000 0.8401 0.8301 0.8153 0.8008 0.7866
840.000000 0.7742 0.7632 0.7515 0.7437 0.7350
835.000000 0.7271 0.7260 0.7237 0.7236 0.7573
830.000000 0.7777 0.7969 0.8158 0.8335 0.8510
825.000000 0.8608 0.8714 0.8819 0.8915 0.8975
820.000000 0.9043 0.9090 0.9134 0.9153 0.9187
815.000000 0.9207 0.9225 0.9245 0.9280 0.9313
810.000000 0.9327 0.9346 0.9349 0.9343 0.9354
805.000000 0.9369 0.9375 0.9379 0.9383 0.9387
800.000000 0.9392 0.9399 0.9404 0.9410 0.9417
795.000000 0.9422 0.9416 0.9416 0.9423 0.9438
790.000000 0.9427 0.9427 0.9429 0.9431 0.9468
785.000000 0.9436 0.9436 0.9422 0.9411 0.9417
780.000000 0.9415 0.9425 0.9430 0.9430 0.9442
775.000000 0.9453 0.9462 0.9441 0.9423 0.9421
770.000000 0.9418 0.9404 0.9395 0.9392 0.9389
765.000000 0.9372 0.9365 0.9362 0.9360 0.9358
760.000000 0.9355 0.9351 0.9347 0.9340 0.9333
755.000000 0.9326 0.9322 0.9327 0.9320 0.9313
750.000000 0.9306 0.9298 0.9291 0.9283 0.9275
745.000000 0.9268 0.9260 0.9252 0.9243 0.9235
740.000000 0.9227 0.9219 0.9210 0.9203 0.9194
735.000000 0.9186 0.9177 0.9169 0.9161 0.9153
730.000000 0.9160 0.9152 0.9143 0.9135 0.9131
725.000000 0.9135 0.9129 0.9127 0.9131 0.9130
720.000000 0.9124 0.9109 0.9093 0.9087 0.9071
715.000000 0.9053 0.9049 0.9041 0.9029 0.9015
710.000000 0.9002 0.8989 0.8976 0.8963 0.8950
705.000000 0.8933 0.8915 0.8909 0.8891 0.8876
700.000000 0.8869 0.8854 0.8840 0.8825 0.8811
695.000000 0.8803 0.8797 0.8783 0.8768 0.8754
690.000000 0.8739 0.8725 0.8720 0.8712 0.8698
685.000000 0.8682 0.8669 0.8666 0.8653 0.8639
680.000000 0.8638 0.8623 0.8636 0.8639 0.8653
675.000000 0.8649 0.8620 0.8602 0.8575 0.8554
670.000000 0.8557 0.8638 0.8688 0.8578 0.8483
665.000000 0.8469 0.8457 0.8439 0.8420 0.8411
660.000000 0.8408 0.8394 0.8369 0.8352 0.8322
655.000000 0.8277 0.8229 0.8199 0.8192 0.8189
650.000000 0.8173 0.8155 0.8137 0.8119 0.8090
645.000000 0.8071 0.8036 0.7995 0.7965 0.7931
640.000000 0.7893 0.7826 0.7753 0.7679 0.7620
635.000000 0.7536 0.7442 0.7360 0.7291 0.7227
630.000000 0.7173 0.7121 0.7059 0.6988 0.6908
625.000000 0.6839 0.6768 0.6683 0.6607 0.6531
620.000000 0.6456 0.6318 0.6218 0.6160 0.6099
615.000000 0.6031 0.5925 0.5816 0.5714 0.5611
610.000000 0.5509 0.5407 0.5304 0.5196 0.5090
605.000000 0.5018 0.4989 0.4980 0.4981 0.5039
600.000000 0.5345 0.5651 0.5957 0.6263 0.6561
595.000000 0.6664 0.6768 0.6874 0.6993 0.7115
590.000000 0.7221 0.7311 0.7400 0.7485 0.7638
585.000000 0.7728 0.7770 0.7811 0.7831 0.7852
580.000000 0.7872 0.7881 0.7892 0.7894 0.7900
575.000000 0.7910 0.7927 0.7932 0.7935 0.7935
570.000000 0.7936 0.7934 0.7930 0.7915 0.7911
565.000000 0.7914 0.7902 0.7882 0.7875 0.7856
560.000000 0.7825 0.7759 0.7547 0.7446 0.7394
555.000000 0.7342 0.7319 0.7303 0.7277 0.7309
550.000000 0.7276 0.7297 0.7329 0.7380 0.7432
545.000000 0.7483 0.7537 0.7611 0.7684 0.7756
540.000000 0.7804 0.7855 0.7914 0.7966 0.8010
535.000000 0.8032 0.8056 0.8092 0.8121 0.8149
530.000000 0.8159 0.8169 0.8177 0.8187 0.8206
525.000000 0.8211 0.8230 0.8230 0.8223 0.8215
520.000000 0.8210 0.8203 0.8195 0.8188 0.8180
515.000000 0.8169 0.8157 0.8146 0.8137 0.8126
510.000000 0.8115 0.8103 0.8093 0.8082 0.8072
505.000000 0.8058 0.8045 0.8030 0.8015 0.8002
500.000000 0.7987 0.7972 0.7957 0.7943 0.7928
495.000000 0.7913 0.7898 0.7879 0.7860 0.7841
490.000000 0.7822 0.7803 0.7784 0.7764 0.7743
485.000000 0.7721 0.7699 0.7677 0.7656 0.7634
480.000000 0.7612 0.7588 0.7563 0.7538 0.7512
475.000000 0.7488 0.7463 0.7447 0.7429 0.7422
470.000000 0.7424 0.7432 0.7437 0.7447 0.7470
465.000000 0.7496 0.7520 0.7547 0.7575 0.7604
460.000000 0.7631 0.7656 0.7680 0.7708 0.7733
455.000000 0.7751 0.7764 0.7777 0.7790 0.7804
450.000000 0.7818 0.7830 0.7837 0.7838 0.7838
445.000000 0.7837 0.7837 0.7835 0.7822 0.7808
440.000000 0.7794 0.7781 0.7768 0.7754 0.7740
435.000000 0.7717 0.7691 0.7666 0.7638 0.7613
430.000000 0.7588 0.7562 0.7523 0.7485 0.7446
425.000000 0.7408 0.7369 0.7330 0.7287 0.7226
420.000000 0.7164 0.7103 0.7043 0.6939 0.6787
415.000000 0.6635 0.6352 0.6203 0.6078 0.5946
410.000000 0.5565 0.5302 0.5087 0.4731 0.4377
405.000000 0.4022 0.3667 0.3311 0.2954 0.2583
400.000000 0.2271 0.2099 0.2048 0.1997 0.1939
395.000000 0.1874 0.1818 0.1770 0.1721 0.1685
390.000000 0.1657 0.1626 0.1596 0.1567 0.1534
385.000000 0.1500
##END=
