##TITLE=PHENOL, 3-BROMO-
##JCAMP-DX=4.24
##DATA TYPE=INFRARED SPECTRUM
##CLASS=COBLENTZ III
##ORIGIN=DOW CHEMICAL COMPANY
##OWNER=COBLENTZ SOCIETY
Collection (C) 2018 copyright by the U.S. Secretary of Commerce
on behalf of the United States of America. All rights reserved.
##DATE=1963/10/31
##NAMES=3-bromophenol
##CAS REGISTRY NO=591-20-8
##MOLFORM=C6 H5 Br O
##SOURCE REFERENCE=COBLENTZ NO. 10160
##$NIST SOURCE=COBLENTZ
##$NIST IMAGE=cob10160
##SPECTROMETER/DATA SYSTEM=DOW KBr FOREPRISM-GRATING
##INSTRUMENT PARAMETERS=BLAZED AT 3.5, 12.0, 20.0 MICRON, CHANGED AT 5.0, 7.5, 14.9 MICRON
##STATE=SOLUTION (10% IN CCl4 FOR 3800-1333, 10% IN CS2 FOR 1333-400 CM^-^1)
##PATH LENGTH=0.011, 0.011 CM
$$ SEE SPECTRUM NO. 1323 FOR "LIQUID (NEAT)" STATE
$$SPECTRAL CONTAMINATION DUE TO CCl4 AROUND 1550 CM^-^1
##SAMPLING PROCEDURE=TRANSMISSION
##RESOLUTION=4
##DATA PROCESSING=DIGITIZED BY NIST FROM HARD COPY (FROM TWO SEGMENTS)
##XUNITS=1/CM
##YUNITS=TRANSMITTANCE
##XFACTOR=1.000000
##YFACTOR=1
##DELTAX=0.869061
##FIRSTX=383.546
##LASTX=3790.27
##FIRSTY=0.308
##MAXX=3790.27
##MINX=383.546
##MAXY=1.044
##MINY=0.02
##NPOINTS=3921
##XYDATA=(X++(Y..Y))
383.546000 0.3080 0.3080 0.3080 0.3080 0.3100
387.891306 0.3110 0.3120 0.3120 0.3150 0.3210
392.236613 0.3290 0.3310 0.3370 0.3440 0.3520
396.581919 0.3600 0.3680 0.3750 0.3860 0.4019
400.927226 0.4040 0.4290 0.4540 0.4949 0.5170
405.272532 0.5230 0.5738 0.5870 0.6009 0.6209
409.617839 0.6580 0.6760 0.6920 0.7219 0.7330
413.963145 0.7340 0.7410 0.7549 0.7739 0.7909
418.308452 0.7950 0.8010 0.8080 0.8090 0.8120
422.653758 0.8130 0.8130 0.8130 0.8130 0.8120
426.999065 0.8100 0.8090 0.8040 0.7970 0.7860
431.344371 0.7631 0.7341 0.7121 0.6682 0.6431
435.689677 0.6000 0.5670 0.5460 0.5370 0.5370
440.034984 0.5490 0.5739 0.6318 0.6928 0.7249
444.380290 0.7460 0.7760 0.8020 0.8240 0.8430
448.725597 0.8530 0.8580 0.8700 0.8879 0.8960
453.070903 0.9060 0.9080 0.9120 0.9170 0.9190
457.416210 0.9210 0.9220 0.9270 0.9300 0.9380
461.761516 0.9410 0.9460 0.9480 0.9480 0.9490
466.106823 0.9520 0.9520 0.9530 0.9530 0.9520
470.452129 0.9510 0.9510 0.9520 0.9520 0.9550
474.797435 0.9560 0.9570 0.9570 0.9570 0.9570
479.142742 0.9570 0.9570 0.9590 0.9600 0.9600
483.488048 0.9590 0.9590 0.9600 0.9600 0.9600
487.833355 0.9600 0.9590 0.9590 0.9590 0.9570
492.178661 0.9570 0.9560 0.9550 0.9550 0.9530
496.523968 0.9530 0.9520 0.9520 0.9510 0.9490
500.869274 0.9480 0.9460 0.9440 0.9440 0.9420
505.214581 0.9410 0.9400 0.9380 0.9370 0.9360
509.559887 0.9340 0.9330 0.9310 0.9300 0.9290
513.905194 0.9290 0.9260 0.9250 0.9210 0.9190
518.250500 0.9170 0.9150 0.9140 0.9110 0.9080
522.595806 0.9060 0.9020 0.8970 0.8920 0.8880
526.941113 0.8581 0.8281 0.8061 0.7861 0.7651
531.286419 0.7650 0.7750 0.8050 0.8130 0.8240
535.631726 0.8320 0.8480 0.8590 0.8680 0.8760
539.977032 0.8850 0.8910 0.8960 0.9020 0.9020
544.322339 0.9030 0.9060 0.9060 0.9070 0.9080
548.667645 0.9080 0.9080 0.9100 0.9100 0.9100
553.012952 0.9100 0.9100 0.9100 0.9100 0.9100
557.358258 0.9080 0.9080 0.9080 0.9070 0.9070
561.703565 0.9080 0.9100 0.9100 0.9110 0.9140
566.048871 0.9170 0.9170 0.9170 0.9150 0.9150
570.394177 0.9150 0.9170 0.9170 0.9170 0.9170
574.739484 0.9150 0.9150 0.9140 0.9140 0.9140
579.084790 0.9150 0.9150 0.9150 0.9150 0.9150
583.430097 0.9150 0.9150 0.9150 0.9150 0.9170
587.775403 0.9180 0.9180 0.9150 0.9120 0.9110
592.120710 0.9100 0.9100 0.9100 0.9100 0.9100
596.466016 0.9100 0.9080 0.9080 0.9080 0.9080
600.811323 0.9080 0.9080 0.9070 0.9070 0.9070
605.156629 0.9060 0.9060 0.9060 0.9060 0.9030
609.501935 0.9030 0.9030 0.8990 0.8970 0.8970
613.847242 0.8970 0.8970 0.8970 0.8970 0.8970
618.192548 0.8960 0.8960 0.8960 0.8960 0.8960
622.537855 0.8960 0.8960 0.8960 0.8950 0.8950
626.883161 0.8930 0.8930 0.8920 0.8910 0.8910
631.228468 0.8890 0.8880 0.8880 0.8850 0.8840
635.573774 0.8820 0.8800 0.8780 0.8740 0.8730
639.919081 0.8720 0.8680 0.8620 0.8580 0.8550
644.264387 0.8530 0.8500 0.8480 0.8470 0.8440
648.609694 0.8430 0.8420 0.8400 0.8380 0.8350
652.955000 0.8310 0.8280 0.8280 0.8290 0.8290
657.300306 0.8320 0.8320 0.8310 0.8310 0.8280
661.645613 0.8160 0.8010 0.7910 0.7271 0.6990
665.990919 0.6471 0.6380 0.6360 0.6380 0.6440
670.336226 0.6510 0.6630 0.6510 0.6200 0.5751
674.681532 0.4044 0.2275 0.1802 0.1402 0.1400
679.026839 0.2190 0.2540 0.3149 0.3909 0.4658
683.372145 0.5637 0.6387 0.6649 0.6959 0.7109
687.717452 0.7230 0.7630 0.7860 0.8000 0.8200
692.062758 0.8310 0.8460 0.8470 0.8500 0.8540
696.408065 0.8580 0.8620 0.8690 0.8690 0.8720
700.753371 0.8760 0.8800 0.8840 0.8850 0.8870
705.098677 0.8880 0.8890 0.8910 0.8930 0.8960
709.443984 0.8970 0.8990 0.9000 0.9030 0.9040
713.789290 0.9060 0.9060 0.9070 0.9070 0.9080
718.134597 0.9080 0.9080 0.9080 0.9080 0.9080
722.479903 0.9080 0.9060 0.9060 0.9030 0.9000
726.825210 0.8960 0.8920 0.8910 0.8870 0.8840
731.170516 0.8840 0.8970 0.9060 0.9070 0.9080
735.515823 0.9080 0.9080 0.9080 0.9080 0.9080
739.861129 0.9080 0.9070 0.9060 0.9040 0.9030
744.206435 0.9020 0.9000 0.8960 0.8930 0.8910
748.551742 0.8880 0.8870 0.8810 0.8740 0.8700
752.897048 0.8620 0.8570 0.8480 0.8380 0.8290
757.242355 0.8190 0.8040 0.7790 0.7680 0.7231
761.587661 0.6951 0.5753 0.5311 0.4782 0.2351
765.932968 0.2020 0.1720 0.1630 0.1590 0.1560
770.278274 0.1460 0.1310 0.1180 0.1140 0.1140
774.623581 0.1251 0.2170 0.2470 0.3219 0.3759
778.968887 0.4209 0.5058 0.6077 0.6658 0.7138
783.314194 0.7310 0.7560 0.7930 0.8100 0.8240
787.659500 0.8340 0.8609 0.8730 0.8820 0.8910
792.004806 0.9000 0.9080 0.9100 0.9120 0.9170
796.350113 0.9190 0.9230 0.9260 0.9300 0.9310
800.695419 0.9340 0.9370 0.9380 0.9410 0.9410
805.040726 0.9420 0.9440 0.9440 0.9440 0.9440
809.386032 0.9450 0.9450 0.9450 0.9450 0.9460
813.731339 0.9480 0.9480 0.9490 0.9490 0.9490
818.076645 0.9490 0.9490 0.9480 0.9480 0.9450
822.421952 0.9450 0.9420 0.9400 0.9370 0.9340
826.767258 0.9300 0.9290 0.9220 0.9190 0.9110
831.112565 0.9030 0.8950 0.8880 0.8770 0.8591
835.457871 0.8140 0.7940 0.7720 0.7151 0.6462
839.803177 0.5483 0.5420 0.5440 0.5510 0.5520
844.148484 0.5510 0.5490 0.5370 0.5260 0.5060
848.493790 0.4930 0.4820 0.4680 0.4361 0.4081
852.839097 0.3970 0.3720 0.3330 0.2891 0.2351
857.184403 0.1801 0.1272 0.1071 0.0851 0.0571
861.529710 0.0390 0.0230 0.0210 0.0210 0.0230
865.875016 0.0280 0.0400 0.1037 0.1568 0.1938
870.220323 0.3260 0.3590 0.4190 0.4360 0.4550
874.565629 0.4760 0.4870 0.4890 0.4990 0.5020
878.910935 0.5060 0.5250 0.5749 0.6269 0.6679
883.256242 0.6879 0.7169 0.7479 0.7759 0.7969
887.601548 0.8170 0.8290 0.8440 0.8540 0.8770
891.946855 0.8970 0.9150 0.9260 0.9310 0.9449
896.292161 0.9520 0.9530 0.9560 0.9590 0.9640
900.637468 0.9700 0.9750 0.9780 0.9820 0.9830
904.982774 0.9850 0.9870 0.9900 0.9900 0.9900
909.328081 0.9910 0.9910 0.9930 0.9970 0.9980
913.673387 0.9980 1.0000 1.0010 1.0020 1.0020
918.018694 1.0040 1.0040 1.0040 1.0050 1.0050
922.364000 1.0050 1.0060 1.0080 1.0090 1.0100
926.709306 1.0100 1.0100 1.0100 1.0100 1.0100
931.054613 1.0100 1.0120 1.0120 1.0130 1.0130
935.399919 1.0130 1.0130 1.0130 1.0130 1.0130
939.745226 1.0130 1.0130 1.0120 1.0120 1.0120
944.090532 1.0100 1.0100 1.0100 1.0100 1.0100
948.435839 1.0090 1.0080 1.0060 1.0050 1.0040
952.781145 1.0010 1.0010 1.0000 0.9970 0.9950
957.126452 0.9940 0.9910 0.9870 0.9860 0.9860
961.471758 0.9890 0.9910 0.9950 0.9970 1.0010
965.817065 1.0040 1.0050 1.0060 1.0080 1.0080
970.162371 1.0080 1.0060 1.0060 1.0060 1.0050
974.507677 1.0050 1.0060 1.0060 1.0060 1.0060
978.852984 1.0050 1.0010 0.9940 0.9860 0.9830
983.198290 0.9830 0.9850 0.9860 0.9890 0.9890
987.543597 0.9870 0.9850 0.9671 0.9491 0.8853
991.888903 0.8140 0.7061 0.5911 0.4742 0.3593
996.234210 0.3590 0.3779 0.6011 0.6538 0.7565
1000.579516 0.8210 0.8920 0.9380 0.9780 0.9830
1004.924823 0.9890 0.9970 1.0010 1.0050 1.0080
1009.270129 1.0090 1.0100 1.0130 1.0130 1.0140
1013.615435 1.0140 1.0140 1.0140 1.0140 1.0140
1017.960742 1.0140 1.0140 1.0140 1.0140 1.0140
1022.306048 1.0140 1.0130 1.0130 1.0130 1.0130
1026.651355 1.0120 1.0100 1.0100 1.0100 1.0100
1030.996661 1.0100 1.0100 1.0100 1.0090 1.0090
1035.341968 1.0080 1.0080 1.0060 1.0060 1.0050
1039.687274 1.0050 1.0020 1.0010 1.0010 1.0010
1044.032581 1.0000 0.9980 0.9980 0.9930 0.9900
1048.377887 0.9870 0.9850 0.9820 0.9740 0.9630
1052.723194 0.9550 0.9450 0.9370 0.9250 0.9100
1057.068500 0.8871 0.8501 0.7553 0.7072 0.5149
1061.413806 0.4400 0.4160 0.4170 0.4909 0.5948
1065.759113 0.6738 0.7567 0.7939 0.8199 0.8688
1070.104419 0.8840 0.9100 0.9120 0.9120 0.9100
1074.449726 0.9070 0.8990 0.8920 0.8890 0.8810
1078.795032 0.8700 0.8580 0.7871 0.7141 0.6531
1083.140339 0.5872 0.5372 0.5370 0.5798 0.6437
1087.485645 0.6681 0.7410 0.7750 0.8210 0.8510
1091.830952 0.8949 0.9329 0.9420 0.9510 0.9560
1096.176258 0.9590 0.9610 0.9630 0.9640 0.9640
1100.521565 0.9640 0.9650 0.9650 0.9650 0.9650
1104.866871 0.9640 0.9630 0.9610 0.9590 0.9560
1109.212177 0.9550 0.9550 0.9530 0.9520 0.9490
1113.557484 0.9480 0.9450 0.9420 0.9400 0.9370
1117.902790 0.9340 0.9300 0.9300 0.9260 0.9210
1122.248097 0.9170 0.9170 0.9150 0.9150 0.9170
1126.593403 0.9180 0.9190 0.9210 0.9190 0.9180
1130.938710 0.9170 0.9120 0.9080 0.9030 0.8970
1135.284016 0.8930 0.8910 0.8890 0.8800 0.8740
1139.629323 0.8700 0.8620 0.8570 0.8500 0.8470
1143.974629 0.8360 0.8161 0.8020 0.7910 0.7761
1148.319935 0.7680 0.7520 0.6971 0.6361 0.6001
1152.665242 0.5591 0.5102 0.4353 0.3305 0.3300
1157.010548 0.3490 0.3670 0.3700 0.4200 0.4579
1161.355855 0.5119 0.5120 0.5100 0.5040 0.4652
1165.701161 0.4290 0.3800 0.3610 0.3450 0.3340
1170.046468 0.3220 0.3140 0.2991 0.2930 0.2811
1174.391774 0.2760 0.2740 0.2760 0.2800 0.2870
1178.737081 0.2930 0.3030 0.3120 0.3210 0.3300
1183.082387 0.3410 0.3490 0.3570 0.3670 0.3830
1187.427694 0.3950 0.4020 0.4140 0.4309 0.4459
1191.773000 0.4610 0.4690 0.4770 0.4810 0.4840
1196.118306 0.4850 0.4850 0.4840 0.4820 0.4810
1200.463613 0.4780 0.4760 0.4740 0.4740 0.4740
1204.808919 0.4760 0.4760 0.4770 0.4780 0.4800
1209.154226 0.4800 0.4840 0.4870 0.4910 0.4920
1213.499532 0.4950 0.4990 0.5000 0.5020 0.5040
1217.844839 0.5100 0.5110 0.5150 0.5220 0.5270
1222.190145 0.5370 0.5400 0.5480 0.5550 0.5560
1226.535452 0.5610 0.5680 0.5720 0.5720 0.5670
1230.880758 0.5640 0.5590 0.5480 0.5400 0.5221
1235.226065 0.5060 0.4880 0.4570 0.4340 0.4200
1239.571371 0.4160 0.3981 0.3791 0.3750 0.3571
1243.916677 0.2870 0.2610 0.2420 0.2171 0.1980
1248.261984 0.1980 0.2100 0.2767 0.3397 0.3649
1252.607290 0.3740 0.3940 0.4240 0.4400 0.4679
1256.952597 0.4999 0.5638 0.5859 0.6657 0.7058
1261.297903 0.7360 0.7740 0.7860 0.8080 0.8250
1265.643210 0.8310 0.8380 0.8420 0.8480 0.8500
1269.988516 0.8540 0.8610 0.8680 0.8730 0.8760
1274.333823 0.8770 0.8770 0.8770 0.8760 0.8740
1278.679129 0.8720 0.8700 0.8630 0.8570 0.8480
1283.024435 0.8350 0.8270 0.8101 0.7941 0.7781
1287.369742 0.7060 0.6920 0.6161 0.5741 0.4872
1291.715048 0.3903 0.3701 0.3441 0.3151 0.2931
1296.060355 0.2630 0.2630 0.2690 0.2850 0.3339
1300.405661 0.4008 0.5117 0.5588 0.6088 0.6269
1304.750968 0.6430 0.6510 0.6580 0.6580 0.6570
1309.096274 0.6500 0.6380 0.6241 0.6011 0.6000
1313.441581 0.6010 0.6080 0.6160 0.6240 0.6310
1317.786887 0.6360 0.6430 0.6440 0.6510 0.6580
1322.132194 0.6700 0.6740 0.6800 0.6880 0.6920
1326.477500 0.7030 0.7060 0.7070 0.7100 0.7140
1330.822806 0.7170 0.7210 0.7220 0.7250 0.7250
1335.168113 0.7260 0.7260 0.7290 0.7310 0.7330
1339.513419 0.7370 0.7380 0.7450 0.7560 0.7570
1343.858726 0.7610 0.7650 0.7720 0.7750 0.7790
1348.204032 0.7820 0.7860 0.7910 0.7930 0.7950
1352.549339 0.8010 0.8020 0.8050 0.8100 0.8140
1356.894645 0.8170 0.8200 0.8230 0.8250 0.8290
1361.239952 0.8310 0.8350 0.8360 0.8400 0.8470
1365.585258 0.8480 0.8500 0.8510 0.8540 0.8550
1369.930565 0.8580 0.8610 0.8680 0.8700 0.8720
1374.275871 0.8740 0.8800 0.8820 0.8890 0.8910
1378.621177 0.8970 0.9000 0.9080 0.9120 0.9170
1382.966484 0.9210 0.9260 0.9300 0.9340 0.9370
1387.311790 0.9360 0.9340 0.9330 0.9330 0.9300
1391.657097 0.9290 0.9270 0.9260 0.9230 0.9210
1396.002403 0.9170 0.9110 0.8990 0.8950 0.8930
1400.347710 0.8890 0.8820 0.8770 0.8690 0.8650
1404.693016 0.8630 0.8630 0.8650 0.8690 0.8700
1409.038323 0.8740 0.8800 0.8880 0.8910 0.8920
1413.383629 0.8910 0.8910 0.8890 0.8880 0.8820
1417.728935 0.8800 0.8760 0.8720 0.8680 0.8510
1422.074242 0.8251 0.8130 0.8010 0.7910 0.7801
1426.419548 0.7740 0.7650 0.7630 0.7610 0.7560
1430.764855 0.7380 0.7151 0.6971 0.6771 0.5744
1435.110161 0.5370 0.4350 0.4010 0.3641 0.3171
1439.455468 0.3170 0.3260 0.3380 0.3490 0.3609
1443.800774 0.3680 0.3650 0.3630 0.3550 0.3530
1448.146081 0.3550 0.3650 0.3740 0.3899 0.4079
1452.491387 0.4200 0.4290 0.4400 0.4540 0.4550
1456.836694 0.4570 0.4570 0.4580 0.4690 0.4969
1461.182000 0.5250 0.5380 0.5400 0.5380 0.5340
1465.527306 0.5250 0.5150 0.5060 0.4911 0.4801
1469.872613 0.4620 0.4160 0.3491 0.3151 0.2342
1474.217919 0.2121 0.1403 0.1101 0.0801 0.0472
1478.563226 0.0290 0.0290 0.1179 0.3866 0.3790
1482.908532 0.3331 0.2841 0.2352 0.1862 0.1372
1487.253839 0.1370 0.2679 0.3189 0.3669 0.4279
1491.599145 0.6902 0.7000 0.7060 0.7289 0.7569
1495.944452 0.7680 0.7760 0.7850 0.7900 0.7900
1500.289758 0.7890 0.7830 0.7800 0.7830 0.7870
1504.635065 0.7900 0.7900 0.7850 0.7800 0.7750
1508.980371 0.7650 0.7640 0.7610 0.7590 0.7560
1513.325677 0.7550 0.7490 0.7450 0.7420 0.7380
1517.670984 0.7270 0.7220 0.7071 0.6881 0.6731
1522.016290 0.6360 0.6210 0.6090 0.6020 0.5980
1526.361597 0.5940 0.5910 0.5940 0.6010 0.6060
1530.706903 0.6120 0.6120 0.6090 0.6080 0.6000
1535.052210 0.5930 0.5890 0.5860 0.5790 0.5740
1539.397516 0.5670 0.5570 0.5440 0.5340 0.5260
1543.742823 0.5210 0.5120 0.5080 0.5040 0.5000
1548.088129 0.4970 0.4960 0.4920 0.4880 0.4870
1552.433435 0.4850 0.4850 0.4850 0.4870 0.4870
1556.778742 0.4870 0.4880 0.4910 0.4950 0.5000
1561.124048 0.5020 0.5080 0.5110 0.5150 0.5220
1565.469355 0.5250 0.5270 0.5260 0.5250 0.5230
1569.814661 0.5180 0.5110 0.4970 0.4821 0.4770
1574.159968 0.4610 0.4250 0.4140 0.3980 0.3800
1578.505274 0.2883 0.2501 0.2291 0.1832 0.1064
1582.850581 0.0780 0.0500 0.0320 0.0270 0.0200
1587.195887 0.0200 0.0230 0.0250 0.0360 0.0440
1591.541194 0.0570 0.0630 0.0690 0.0730 0.0800
1595.886500 0.1029 0.1070 0.1070 0.0990 0.0950
1600.231806 0.0890 0.0800 0.0620 0.0500 0.0470
1604.577113 0.0500 0.0620 0.0769 0.1108 0.1896
1608.922419 0.2230 0.2380 0.2840 0.3739 0.4549
1613.267726 0.5059 0.5479 0.5889 0.6458 0.6719
1617.613032 0.6930 0.7080 0.7150 0.7410 0.7560
1621.958339 0.7829 0.7910 0.8040 0.8120 0.8200
1626.303645 0.8320 0.8440 0.8530 0.8630 0.8700
1630.648952 0.8760 0.8870 0.8930 0.8990 0.9070
1634.994258 0.9100 0.9060 0.9040 0.9110 0.9170
1639.339565 0.9210 0.9260 0.9380 0.9450 0.9490
1643.684871 0.9530 0.9530 0.9510 0.9460 0.9440
1648.030177 0.9450 0.9510 0.9530 0.9560 0.9590
1652.375484 0.9590 0.9480 0.9410 0.9310 0.9310
1656.720790 0.9679 0.9750 0.9760 0.9760 0.9760
1661.066097 0.9750 0.9750 0.9740 0.9710 0.9710
1665.411403 0.9760 0.9790 0.9800 0.9800 0.9790
1669.756710 0.9760 0.9760 0.9790 0.9800 0.9820
1674.102016 0.9820 0.9800 0.9760 0.9760 0.9820
1678.447323 0.9830 0.9850 0.9830 0.9820 0.9790
1682.792629 0.9760 0.9750 0.9680 0.9740 0.9830
1687.137935 0.9860 0.9890 0.9910 0.9930 0.9940
1691.483242 0.9970 0.9970 0.9950 0.9940 0.9900
1695.828548 0.9890 0.9870 0.9860 0.9870 0.9890
1700.173855 0.9900 0.9910 0.9930 0.9940 0.9950
1704.519161 0.9970 0.9970 0.9980 0.9980 0.9970
1708.864468 0.9980 1.0000 1.0000 0.9980 0.9970
1713.209774 0.9940 0.9910 0.9890 0.9870 0.9860
1717.555081 0.9850 0.9860 0.9870 0.9900 0.9910
1721.900387 0.9910 0.9890 0.9890 0.9890 0.9870
1726.245694 0.9870 0.9860 0.9850 0.9850 0.9830
1730.591000 0.9820 0.9800 0.9790 0.9790 0.9800
1734.936306 0.9850 0.9910 0.9980 0.9980 0.9980
1739.281613 0.9970 0.9970 1.0020 1.0020 1.0010
1743.626919 1.0010 1.0000 1.0000 0.9980 0.9980
1747.972226 0.9970 0.9950 0.9940 0.9940 0.9940
1752.317532 0.9970 1.0020 1.0050 1.0060 1.0060
1756.662839 1.0080 1.0080 1.0080 1.0090 1.0100
1761.008145 1.0130 1.0170 1.0170 1.0170 1.0160
1765.353452 1.0160 1.0160 1.0140 1.0140 1.0140
1769.698758 1.0140 1.0160 1.0160 1.0160 1.0200
1774.044065 1.0200 1.0200 1.0210 1.0230 1.0230
1778.389371 1.0230 1.0230 1.0230 1.0240 1.0240
1782.734677 1.0240 1.0240 1.0250 1.0250 1.0250
1787.079984 1.0250 1.0230 1.0210 1.0200 1.0200
1791.425290 1.0210 1.0240 1.0250 1.0240 1.0240
1795.770597 1.0230 1.0210 1.0210 1.0210 1.0210
1800.115903 1.0230 1.0230 1.0230 1.0210 1.0210
1804.461210 1.0210 1.0200 1.0200 1.0200 1.0200
1808.806516 1.0190 1.0170 1.0160 1.0160 1.0160
1813.151823 1.0140 1.0140 1.0130 1.0120 1.0100
1817.497129 1.0100 1.0090 1.0090 1.0080 1.0060
1821.842435 1.0060 1.0050 1.0050 1.0050 1.0060
1826.187742 1.0060 1.0050 1.0040 1.0040 1.0020
1830.533048 1.0020 1.0020 1.0010 1.0010 1.0000
1834.878355 1.0000 1.0000 1.0000 0.9980 0.9980
1839.223661 0.9980 0.9980 0.9970 0.9970 0.9970
1843.568968 0.9970 0.9980 1.0010 1.0060 1.0100
1847.914274 1.0100 1.0120 1.0130 1.0140 1.0140
1852.259581 1.0140 1.0140 1.0140 1.0130 1.0130
1856.604887 1.0120 1.0120 1.0100 1.0100 1.0100
1860.950194 1.0120 1.0130 1.0130 1.0140 1.0170
1865.295500 1.0190 1.0200 1.0200 1.0200 1.0210
1869.640806 1.0230 1.0230 1.0240 1.0250 1.0250
1873.986113 1.0250 1.0250 1.0250 1.0250 1.0250
1878.331419 1.0270 1.0270 1.0280 1.0280 1.0290
1882.676726 1.0290 1.0280 1.0280 1.0280 1.0280
1887.022032 1.0270 1.0270 1.0270 1.0270 1.0250
1891.367339 1.0250 1.0250 1.0250 1.0250 1.0250
1895.712645 1.0250 1.0240 1.0240 1.0240 1.0230
1900.057952 1.0230 1.0230 1.0210 1.0210 1.0210
1904.403258 1.0200 1.0200 1.0170 1.0160 1.0130
1908.748565 1.0130 1.0090 1.0060 1.0020 1.0010
1913.093871 1.0010 1.0000 0.9980 0.9970 0.9970
1917.439177 0.9950 0.9950 0.9930 0.9930 0.9910
1921.784484 0.9910 0.9900 0.9900 0.9910 0.9930
1926.129790 0.9940 0.9970 0.9980 1.0020 1.0050
1930.475097 1.0090 1.0130 1.0140 1.0160 1.0200
1934.820403 1.0200 1.0210 1.0230 1.0240 1.0240
1939.165710 1.0250 1.0270 1.0270 1.0270 1.0270
1943.511016 1.0280 1.0280 1.0280 1.0290 1.0290
1947.856323 1.0290 1.0290 1.0310 1.0310 1.0310
1952.201629 1.0310 1.0310 1.0310 1.0320 1.0320
1956.546935 1.0340 1.0350 1.0380 1.0400 1.0440
1960.892242 1.0440 1.0430 1.0360 1.0320 1.0310
1965.237548 1.0310 1.0290 1.0290 1.0290 1.0280
1969.582855 1.0280 1.0280 1.0270 1.0270 1.0270
1973.928161 1.0280 1.0280 1.0280 1.0280 1.0280
1978.273468 1.0280 1.0280 1.0280 1.0270 1.0270
1982.618774 1.0250 1.0240 1.0240 1.0230 1.0230
1986.964081 1.0210 1.0210 1.0210 1.0210 1.0230
1991.309387 1.0230 1.0230 1.0210 1.0210 1.0210
1995.654694 1.0200 1.0020 1.0010 1.0000 1.0000
2000.000000 1.0000 1.0000 1.0000 1.0000 1.0000
2004.345306 0.9985 0.9970 0.9970 0.9970 0.9970
2008.690613 0.9970 0.9960 0.9950 0.9950 0.9950
2013.035919 0.9950 0.9950 0.9959 0.9969 0.9970
2017.381226 0.9970 0.9970 0.9970 0.9960 0.9951
2021.726532 0.9950 0.9950 0.9945 0.9940 0.9940
2026.071839 0.9940 0.9940 0.9940 0.9940 0.9940
2030.417145 0.9940 0.9940 0.9940 0.9940 0.9940
2034.762452 0.9940 0.9935 0.9930 0.9916 0.9901
2039.107758 0.9895 0.9890 0.9890 0.9890 0.9894
2043.453065 0.9899 0.9900 0.9900 0.9904 0.9909
2047.798371 0.9910 0.9910 0.9923 0.9938 0.9940
2052.143677 0.9940 0.9940 0.9940 0.9940 0.9940
2056.488984 0.9940 0.9940 0.9940 0.9940 0.9940
2060.834290 0.9940 0.9940 0.9940 0.9940 0.9940
2065.179597 0.9940 0.9940 0.9940 0.9940 0.9940
2069.524903 0.9940 0.9940 0.9940 0.9940 0.9940
2073.870210 0.9940 0.9940 0.9940 0.9940 0.9940
2078.215516 0.9940 0.9944 0.9949 0.9950 0.9950
2082.560823 0.9950 0.9950 0.9950 0.9950 0.9950
2086.906129 0.9950 0.9950 0.9950 0.9950 0.9950
2091.251435 0.9946 0.9941 0.9936 0.9931 0.9930
2095.596742 0.9930 0.9930 0.9930 0.9922 0.9912
2099.942048 0.9902 0.9893 0.9883 0.9873 0.9866
2104.287355 0.9861 0.9856 0.9851 0.9843 0.9833
2108.632661 0.9826 0.9821 0.9813 0.9803 0.9800
2112.977968 0.9800 0.9796 0.9791 0.9790 0.9790
2117.323274 0.9790 0.9790 0.9794 0.9799 0.9800
2121.668581 0.9800 0.9807 0.9817 0.9820 0.9820
2126.013887 0.9824 0.9828 0.9837 0.9847 0.9853
2130.359194 0.9858 0.9863 0.9868 0.9877 0.9887
2134.704500 0.9893 0.9898 0.9903 0.9908 0.9910
2139.049806 0.9910 0.9910 0.9910 0.9917 0.9927
2143.395113 0.9930 0.9930 0.9930 0.9930 0.9930
2147.740419 0.9930 0.9924 0.9914 0.9910 0.9910
2152.085726 0.9910 0.9910 0.9916 0.9926 0.9930
2156.431032 0.9930 0.9930 0.9930 0.9930 0.9930
2160.776339 0.9930 0.9930 0.9930 0.9930 0.9933
2165.121645 0.9938 0.9940 0.9940 0.9940 0.9940
2169.466952 0.9943 0.9948 0.9950 0.9950 0.9956
2173.812258 0.9966 0.9970 0.9970 0.9970 0.9970
2178.157565 0.9970 0.9970 0.9973 0.9978 0.9980
2182.502871 0.9980 0.9980 0.9980 0.9980 0.9980
2186.848177 0.9980 0.9980 0.9980 0.9980 0.9980
2191.193484 0.9980 0.9980 0.9980 0.9980 0.9980
2195.538790 0.9980 0.9980 0.9980 0.9980 0.9980
2199.884097 0.9980 0.9980 0.9980 0.9980 0.9980
2204.229403 0.9980 0.9980 0.9980 0.9980 0.9980
2208.574710 0.9980 0.9980 0.9980 0.9980 0.9980
2212.920016 0.9978 0.9973 0.9970 0.9970 0.9970
2217.265323 0.9970 0.9970 0.9970 0.9970 0.9970
2221.610629 0.9965 0.9955 0.9950 0.9950 0.9950
2225.955935 0.9950 0.9950 0.9950 0.9950 0.9950
2230.301242 0.9950 0.9950 0.9950 0.9950 0.9948
2234.646548 0.9943 0.9938 0.9933 0.9930 0.9930
2238.991855 0.9930 0.9930 0.9926 0.9916 0.9908
2243.337161 0.9903 0.9900 0.9900 0.9900 0.9900
2247.682468 0.9898 0.9893 0.9890 0.9890 0.9886
2252.027774 0.9876 0.9870 0.9870 0.9868 0.9863
2256.373081 0.9860 0.9860 0.9858 0.9853 0.9846
2260.718387 0.9836 0.9828 0.9823 0.9820 0.9820
2265.063694 0.9820 0.9820 0.9816 0.9806 0.9798
2269.409000 0.9793 0.9788 0.9783 0.9780 0.9780
2273.754306 0.9780 0.9780 0.9777 0.9767 0.9760
2278.099613 0.9760 0.9758 0.9753 0.9750 0.9750
2282.444919 0.9748 0.9743 0.9740 0.9740 0.9740
2286.790226 0.9740 0.9740 0.9740 0.9737 0.9727
2291.135532 0.9718 0.9713 0.9708 0.9704 0.9700
2295.480839 0.9700 0.9700 0.9700 0.9700 0.9700
2299.826145 0.9700 0.9700 0.9697 0.9687 0.9679
2304.171452 0.9674 0.9670 0.9670 0.9670 0.9670
2308.516758 0.9670 0.9670 0.9667 0.9657 0.9649
2312.862065 0.9644 0.9639 0.9634 0.9627 0.9617
2317.207371 0.9609 0.9604 0.9599 0.9594 0.9586
2321.552677 0.9571 0.9559 0.9554 0.9548 0.9538
2325.897984 0.9530 0.9530 0.9529 0.9524 0.9520
2330.243290 0.9520 0.9519 0.9514 0.9510 0.9510
2334.588597 0.9508 0.9498 0.9490 0.9490 0.9490
2338.933903 0.9490 0.9493 0.9508 0.9520 0.9520
2343.279210 0.9523 0.9538 0.9550 0.9550 0.9550
2347.624516 0.9550 0.9551 0.9556 0.9561 0.9566
2351.969823 0.9570 0.9570 0.9572 0.9582 0.9590
2356.315129 0.9590 0.9591 0.9596 0.9601 0.9606
2360.660435 0.9610 0.9610 0.9610 0.9610 0.9611
2365.005742 0.9621 0.9631 0.9636 0.9640 0.9640
2369.351048 0.9640 0.9640 0.9640 0.9640 0.9641
2373.696355 0.9646 0.9650 0.9650 0.9651 0.9661
2378.041661 0.9671 0.9676 0.9681 0.9696 0.9710
2382.386968 0.9716 0.9720 0.9720 0.9721 0.9731
2386.732274 0.9740 0.9745 0.9750 0.9750 0.9750
2391.077581 0.9750 0.9750 0.9750 0.9750 0.9750
2395.422887 0.9750 0.9750 0.9750 0.9745 0.9740
2399.768194 0.9740 0.9740 0.9740 0.9740 0.9740
2404.113500 0.9739 0.9730 0.9720 0.9715 0.9710
2408.458806 0.9710 0.9710 0.9705 0.9700 0.9690
2412.804113 0.9680 0.9675 0.9670 0.9670 0.9670
2417.149419 0.9660 0.9650 0.9650 0.9650 0.9650
2421.494726 0.9650 0.9645 0.9640 0.9640 0.9640
2425.840032 0.9640 0.9640 0.9640 0.9640 0.9640
2430.185339 0.9640 0.9640 0.9640 0.9640 0.9640
2434.530645 0.9635 0.9630 0.9630 0.9630 0.9620
2438.875952 0.9610 0.9605 0.9600 0.9586 0.9571
2443.221258 0.9565 0.9560 0.9555 0.9550 0.9550
2447.566565 0.9550 0.9550 0.9550 0.9541 0.9531
2451.911871 0.9525 0.9520 0.9520 0.9520 0.9520
2456.257177 0.9520 0.9520 0.9520 0.9515 0.9510
2460.602484 0.9510 0.9510 0.9515 0.9520 0.9520
2464.947790 0.9520 0.9524 0.9529 0.9530 0.9530
2469.293097 0.9539 0.9549 0.9555 0.9559 0.9560
2473.638403 0.9560 0.9564 0.9569 0.9570 0.9570
2477.983710 0.9570 0.9570 0.9579 0.9589 0.9590
2482.329016 0.9590 0.9594 0.9599 0.9604 0.9609
2486.674323 0.9610 0.9610 0.9619 0.9629 0.9634
2491.019629 0.9639 0.9644 0.9649 0.9650 0.9650
2495.364935 0.9658 0.9668 0.9670 0.9670 0.9682
2499.710242 0.9697 0.9700 0.9700 0.9704 0.9709
2504.055548 0.9710 0.9710 0.9714 0.9719 0.9720
2508.400855 0.9720 0.9720 0.9720 0.9720 0.9720
2512.746161 0.9720 0.9720 0.9720 0.9720 0.9720
2517.091468 0.9720 0.9716 0.9711 0.9710 0.9710
2521.436774 0.9710 0.9710 0.9706 0.9701 0.9692
2525.782081 0.9682 0.9676 0.9671 0.9670 0.9670
2530.127387 0.9662 0.9652 0.9650 0.9650 0.9646
2534.472694 0.9641 0.9640 0.9640 0.9636 0.9631
2538.818000 0.9623 0.9613 0.9606 0.9601 0.9596
2543.163306 0.9591 0.9590 0.9590 0.9590 0.9590
2547.508613 0.9583 0.9573 0.9570 0.9570 0.9570
2551.853919 0.9570 0.9577 0.9587 0.9590 0.9590
2556.199226 0.9590 0.9590 0.9593 0.9598 0.9600
2560.544532 0.9600 0.9600 0.9600 0.9600 0.9600
2564.889839 0.9600 0.9600 0.9600 0.9600 0.9600
2569.235145 0.9600 0.9600 0.9600 0.9600 0.9600
2573.580452 0.9600 0.9600 0.9600 0.9600 0.9597
2577.925758 0.9592 0.9590 0.9590 0.9590 0.9590
2582.271065 0.9590 0.9590 0.9590 0.9590 0.9590
2586.616371 0.9590 0.9590 0.9590 0.9590 0.9590
2590.961677 0.9593 0.9598 0.9603 0.9608 0.9610
2595.306984 0.9610 0.9610 0.9610 0.9610 0.9610
2599.652290 0.9610 0.9610 0.9610 0.9610 0.9610
2603.997597 0.9610 0.9610 0.9610 0.9610 0.9610
2608.342903 0.9610 0.9610 0.9610 0.9610 0.9610
2612.688210 0.9610 0.9610 0.9610 0.9610 0.9610
2617.033516 0.9610 0.9610 0.9610 0.9610 0.9610
2621.378823 0.9610 0.9610 0.9610 0.9610 0.9610
2625.724129 0.9610 0.9610 0.9610 0.9610 0.9607
2630.069435 0.9602 0.9597 0.9592 0.9590 0.9590
2634.414742 0.9582 0.9567 0.9560 0.9560 0.9560
2638.760048 0.9560 0.9560 0.9560 0.9558 0.9553
2643.105355 0.9550 0.9550 0.9545 0.9535 0.9528
2647.450661 0.9523 0.9520 0.9520 0.9518 0.9513
2651.795968 0.9510 0.9510 0.9510 0.9510 0.9505
2656.141274 0.9495 0.9488 0.9483 0.9480 0.9480
2660.486581 0.9476 0.9465 0.9458 0.9453 0.9448
2664.831887 0.9443 0.9440 0.9440 0.9436 0.9426
2669.177194 0.9420 0.9420 0.9418 0.9413 0.9410
2673.522500 0.9410 0.9410 0.9410 0.9410 0.9410
2677.867806 0.9410 0.9410 0.9410 0.9410 0.9412
2682.213113 0.9417 0.9424 0.9434 0.9440 0.9440
2686.558419 0.9440 0.9440 0.9442 0.9447 0.9456
2690.903726 0.9471 0.9482 0.9487 0.9494 0.9504
2695.249032 0.9510 0.9510 0.9512 0.9517 0.9520
2699.594339 0.9520 0.9522 0.9527 0.9530 0.9530
2703.939645 0.9530 0.9530 0.9530 0.9530 0.9530
2708.284952 0.9530 0.9533 0.9543 0.9550 0.9550
2712.630258 0.9547 0.9537 0.9530 0.9530 0.9528
2716.975565 0.9523 0.9520 0.9520 0.9518 0.9513
2721.320871 0.9507 0.9497 0.9490 0.9490 0.9490
2725.666177 0.9490 0.9490 0.9490 0.9493 0.9503
2730.011484 0.9511 0.9516 0.9520 0.9520 0.9521
2734.356790 0.9526 0.9530 0.9530 0.9530 0.9530
2738.702097 0.9530 0.9530 0.9530 0.9530 0.9530
2743.047403 0.9530 0.9530 0.9530 0.9530 0.9530
2747.392710 0.9530 0.9530 0.9533 0.9542 0.9550
2751.738016 0.9550 0.9548 0.9538 0.9530 0.9530
2756.083323 0.9529 0.9524 0.9520 0.9520 0.9520
2760.428629 0.9520 0.9520 0.9520 0.9517 0.9502
2764.773935 0.9489 0.9484 0.9478 0.9468 0.9459
2769.119242 0.9454 0.9449 0.9444 0.9438 0.9428
2773.464548 0.9420 0.9420 0.9419 0.9414 0.9409
2777.809855 0.9404 0.9397 0.9383 0.9369 0.9364
2782.155161 0.9358 0.9348 0.9340 0.9340 0.9339
2786.500468 0.9334 0.9330 0.9330 0.9330 0.9330
2790.845774 0.9329 0.9319 0.9310 0.9310 0.9310
2795.191081 0.9310 0.9310 0.9310 0.9310 0.9310
2799.536387 0.9310 0.9310 0.9310 0.9310 0.9311
2803.881694 0.9321 0.9330 0.9330 0.9330 0.9330
2808.227000 0.9331 0.9336 0.9341 0.9351 0.9360
2812.572306 0.9365 0.9370 0.9375 0.9380 0.9380
2816.917613 0.9380 0.9380 0.9380 0.9380 0.9381
2821.262919 0.9391 0.9400 0.9400 0.9400 0.9405
2825.608226 0.9410 0.9410 0.9410 0.9410 0.9410
2829.953532 0.9410 0.9410 0.9415 0.9420 0.9420
2834.298839 0.9420 0.9420 0.9420 0.9420 0.9420
2838.644145 0.9420 0.9420 0.9420 0.9420 0.9430
2842.989452 0.9440 0.9440 0.9440 0.9440 0.9440
2847.334758 0.9440 0.9440 0.9440 0.9440 0.9425
2851.680065 0.9410 0.9410 0.9410 0.9410 0.9410
2856.025371 0.9405 0.9400 0.9400 0.9400 0.9400
2860.370677 0.9400 0.9405 0.9410 0.9410 0.9410
2864.715984 0.9415 0.9420 0.9420 0.9420 0.9415
2869.061290 0.9410 0.9410 0.9410 0.9410 0.9410
2873.406597 0.9405 0.9400 0.9400 0.9400 0.9400
2877.751903 0.9400 0.9391 0.9381 0.9380 0.9380
2882.097210 0.9375 0.9370 0.9370 0.9370 0.9370
2886.442516 0.9370 0.9370 0.9370 0.9365 0.9360
2890.787823 0.9360 0.9360 0.9351 0.9341 0.9335
2895.133129 0.9330 0.9330 0.9330 0.9321 0.9311
2899.478435 0.9310 0.9310 0.9306 0.9301 0.9296
2903.823742 0.9291 0.9272 0.9252 0.9241 0.9231
2908.169048 0.9230 0.9230 0.9226 0.9221 0.9207
2912.514355 0.9192 0.9181 0.9171 0.9157 0.9142
2916.859661 0.9140 0.9140 0.9127 0.9112 0.9097
2921.204968 0.9083 0.9072 0.9062 0.9047 0.9032
2925.550274 0.9017 0.9002 0.9000 0.9000 0.8996
2929.895581 0.8991 0.8990 0.8990 0.8990 0.8990
2934.240887 0.8994 0.8999 0.9008 0.9018 0.9020
2938.586194 0.9020 0.9024 0.9029 0.9042 0.9057
2942.931500 0.9060 0.9060 0.9064 0.9069 0.9070
2947.276806 0.9070 0.9070 0.9070 0.9074 0.9079
2951.622113 0.9088 0.9098 0.9100 0.9100 0.9100
2955.967419 0.9100 0.9092 0.9082 0.9080 0.9080
2960.312726 0.9080 0.9080 0.9080 0.9080 0.9087
2964.658032 0.9097 0.9100 0.9100 0.9100 0.9100
2969.003339 0.9104 0.9109 0.9114 0.9119 0.9127
2973.348645 0.9137 0.9144 0.9149 0.9157 0.9167
2977.693952 0.9170 0.9170 0.9170 0.9170 0.9163
2982.039258 0.9153 0.9150 0.9150 0.9147 0.9142
2986.384565 0.9140 0.9140 0.9133 0.9123 0.9117
2990.729871 0.9112 0.9107 0.9102 0.9090 0.9075
2995.075177 0.9060 0.9045 0.9033 0.9023 0.9020
2999.420484 0.9020 0.9004 0.8979 0.8957 0.8937
3003.765790 0.8917 0.8897 0.8890 0.8890 0.8884
3008.111097 0.8874 0.8854 0.8829 0.8801 0.8771
3012.456403 0.8741 0.8711 0.8687 0.8667 0.8638
3016.801710 0.8603 0.8578 0.8558 0.8535 0.8510
3021.147016 0.8482 0.8452 0.8437 0.8432 0.8421
3025.492323 0.8406 0.8400 0.8400 0.8397 0.8392
3029.837629 0.8390 0.8390 0.8387 0.8382 0.8380
3034.182935 0.8380 0.8374 0.8364 0.8360 0.8360
3038.528242 0.8360 0.8360 0.8357 0.8352 0.8347
3042.873548 0.8342 0.8332 0.8317 0.8304 0.8294
3047.218855 0.8279 0.8259 0.8236 0.8211 0.8173
3051.564161 0.8123 0.8084 0.8054 0.8029 0.8009
3055.909468 0.7992 0.7977 0.7965 0.7955 0.7945
3060.254774 0.7935 0.7925 0.7915 0.7905 0.7895
3064.600081 0.7890 0.7890 0.7890 0.7890 0.7893
3068.945387 0.7897 0.7900 0.7900 0.7902 0.7907
3073.290694 0.7915 0.7925 0.7935 0.7945 0.7957
3077.636000 0.7972 0.7987 0.8002 0.8017 0.8032
3081.981306 0.8042 0.8047 0.8059 0.8079 0.8092
3086.326613 0.8097 0.8105 0.8115 0.8122 0.8127
3090.671919 0.8132 0.8137 0.8144 0.8154 0.8160
3095.017226 0.8160 0.8166 0.8182 0.8190 0.8190
3099.362532 0.8192 0.8197 0.8200 0.8200 0.8198
3103.707839 0.8193 0.8184 0.8169 0.8160 0.8160
3108.053145 0.8156 0.8146 0.8136 0.8126 0.8116
3112.398452 0.8106 0.8096 0.8086 0.8076 0.8066
3116.743758 0.8058 0.8053 0.8044 0.8029 0.8012
3121.089065 0.7992 0.7978 0.7973 0.7964 0.7950
3125.434371 0.7938 0.7933 0.7925 0.7910 0.7895
3129.779677 0.7880 0.7867 0.7856 0.7845 0.7830
3134.124984 0.7815 0.7800 0.7788 0.7783 0.7775
3138.470290 0.7760 0.7745 0.7730 0.7713 0.7694
3142.815597 0.7675 0.7660 0.7647 0.7637 0.7627
3147.160903 0.7617 0.7607 0.7597 0.7585 0.7570
3151.506210 0.7549 0.7514 0.7485 0.7470 0.7459
3155.851516 0.7454 0.7449 0.7444 0.7434 0.7414
3160.196823 0.7396 0.7381 0.7366 0.7351 0.7336
3164.542129 0.7321 0.7307 0.7297 0.7287 0.7277
3168.887435 0.7265 0.7245 0.7225 0.7205 0.7187
3173.232742 0.7177 0.7164 0.7139 0.7118 0.7108
3177.578048 0.7096 0.7081 0.7069 0.7064 0.7058
3181.923355 0.7048 0.7036 0.7015 0.6996 0.6982
3186.268661 0.6968 0.6958 0.6948 0.6938 0.6929
3190.613968 0.6924 0.6919 0.6914 0.6908 0.6898
3194.959274 0.6889 0.6884 0.6877 0.6862 0.6847
3199.304581 0.6832 0.6815 0.6790 0.6766 0.6746
3203.649887 0.6727 0.6712 0.6698 0.6688 0.6678
3207.995194 0.6668 0.6657 0.6637 0.6618 0.6603
3212.340500 0.6588 0.6578 0.6567 0.6547 0.6528
3216.685806 0.6513 0.6498 0.6483 0.6469 0.6464
3221.031113 0.6457 0.6437 0.6418 0.6403 0.6388
3225.376419 0.6373 0.6357 0.6337 0.6319 0.6314
3229.721726 0.6308 0.6293 0.6276 0.6241 0.6208
3234.067032 0.6188 0.6167 0.6142 0.6118 0.6098
3238.412339 0.6078 0.6063 0.6048 0.6028 0.6009
3242.757645 0.5994 0.5979 0.5964 0.5949 0.5939
3247.102952 0.5929 0.5914 0.5899 0.5884 0.5868
3251.448258 0.5833 0.5798 0.5773 0.5750 0.5745
3255.793565 0.5739 0.5729 0.5719 0.5699 0.5679
3260.138871 0.5654 0.5629 0.5614 0.5599 0.5579
3264.484177 0.5560 0.5555 0.5550 0.5535 0.5520
3268.829484 0.5505 0.5490 0.5475 0.5459 0.5439
3273.174790 0.5419 0.5400 0.5380 0.5375 0.5370
3277.520097 0.5370 0.5370 0.5365 0.5360 0.5330
3281.865403 0.5300 0.5280 0.5260 0.5255 0.5250
3286.210710 0.5240 0.5230 0.5225 0.5220 0.5205
3290.556016 0.5190 0.5185 0.5180 0.5175 0.5170
3294.901323 0.5160 0.5150 0.5145 0.5140 0.5126
3299.246629 0.5111 0.5105 0.5100 0.5086 0.5071
3303.591935 0.5065 0.5060 0.5051 0.5040 0.5035
3307.937242 0.5030 0.5025 0.5020 0.5011 0.5001
3312.282548 0.4995 0.4990 0.4981 0.4971 0.4965
3316.627855 0.4960 0.4955 0.4950 0.4932 0.4912
3320.973161 0.4910 0.4910 0.4901 0.4891 0.4890
3325.318468 0.4890 0.4885 0.4881 0.4880 0.4880
3329.663774 0.4867 0.4852 0.4837 0.4822 0.4820
3334.009081 0.4820 0.4811 0.4801 0.4800 0.4800
3338.354387 0.4791 0.4781 0.4776 0.4771 0.4770
3342.699694 0.4770 0.4766 0.4761 0.4760 0.4760
3347.045000 0.4751 0.4742 0.4736 0.4731 0.4730
3351.390306 0.4730 0.4718 0.4703 0.4696 0.4691
3355.735613 0.4690 0.4690 0.4690 0.4690 0.4686
3360.080919 0.4681 0.4672 0.4662 0.4660 0.4660
3364.426226 0.4656 0.4651 0.4650 0.4650 0.4650
3368.771532 0.4650 0.4650 0.4650 0.4642 0.4632
3373.116839 0.4630 0.4630 0.4626 0.4621 0.4620
3377.462145 0.4620 0.4616 0.4611 0.4610 0.4610
3381.807452 0.4610 0.4610 0.4602 0.4592 0.4590
3386.152758 0.4590 0.4586 0.4581 0.4580 0.4580
3390.498065 0.4580 0.4580 0.4580 0.4580 0.4580
3394.843371 0.4580 0.4580 0.4580 0.4584 0.4589
3399.188677 0.4590 0.4590 0.4597 0.4607 0.4614
3403.533984 0.4619 0.4620 0.4620 0.4624 0.4629
3407.879290 0.4637 0.4647 0.4654 0.4659 0.4660
3412.224597 0.4660 0.4667 0.4677 0.4683 0.4688
3416.569903 0.4690 0.4690 0.4693 0.4698 0.4707
3420.915210 0.4717 0.4727 0.4737 0.4747 0.4757
3425.260516 0.4763 0.4768 0.4770 0.4770 0.4780
3429.605823 0.4795 0.4807 0.4817 0.4827 0.4836
3433.951129 0.4843 0.4848 0.4850 0.4850 0.4860
3438.296435 0.4874 0.4880 0.4880 0.4889 0.4904
3442.641742 0.4913 0.4918 0.4923 0.4928 0.4936
3446.987048 0.4946 0.4956 0.4966 0.4985 0.5010
3451.332355 0.5026 0.5036 0.5046 0.5056 0.5063
3455.677661 0.5068 0.5073 0.5078 0.5089 0.5104
3460.022968 0.5119 0.5134 0.5152 0.5172 0.5180
3464.368274 0.5180 0.5183 0.5188 0.5196 0.5206
3468.713581 0.5224 0.5249 0.5280 0.5315 0.5333
3473.058887 0.5338 0.5345 0.5355 0.5363 0.5368
3477.404194 0.5378 0.5393 0.5416 0.5446 0.5476
3481.749500 0.5506 0.5533 0.5558 0.5578 0.5593
3486.094806 0.5608 0.5623 0.5651 0.5691 0.5723
3490.440113 0.5748 0.5778 0.5813 0.5845 0.5875
3494.785419 0.5892 0.5897 0.5917 0.5953 0.5978
3499.130726 0.5993 0.6010 0.6030 0.6050 0.6070
3503.476032 0.6090 0.6110 0.6130 0.6150 0.6167
3507.821339 0.6182 0.6204 0.6234 0.6259 0.6279
3512.166645 0.6295 0.6305 0.6312 0.6317 0.6325
3516.511952 0.6335 0.6349 0.6369 0.6391 0.6416
3520.857258 0.6441 0.6466 0.6493 0.6523 0.6542
3525.202565 0.6547 0.6556 0.6571 0.6582 0.6587
3529.547871 0.6596 0.6611 0.6626 0.6641 0.6656
3533.893177 0.6671 0.6682 0.6687 0.6690 0.6690
3538.238484 0.6692 0.6697 0.6700 0.6700 0.6700
3542.583790 0.6700 0.6700 0.6700 0.6698 0.6693
3546.929097 0.6690 0.6690 0.6688 0.6683 0.6674
3551.274403 0.6659 0.6644 0.6629 0.6618 0.6613
3555.619710 0.6606 0.6596 0.6583 0.6563 0.6543
3559.965016 0.6523 0.6501 0.6476 0.6453 0.6433
3564.310323 0.6413 0.6393 0.6375 0.6360 0.6343
3568.655629 0.6323 0.6303 0.6283 0.6240 0.6151
3573.000935 0.6072 0.6017 0.5972 0.5947 0.5918
3577.346242 0.5878 0.5833 0.5778 0.5712 0.5617
3581.691548 0.5485 0.5266 0.5094 0.5039 0.4964
3586.036855 0.4844 0.4722 0.4592 0.4464 0.4339
3590.382161 0.4215 0.4090 0.3965 0.3841 0.3715
3594.727468 0.3585 0.3458 0.3339 0.3214 0.3074
3599.072774 0.2967 0.2958 0.2951 0.2956 0.2981
3603.418081 0.3061 0.3139 0.3214 0.3333 0.3588
3607.763387 0.3814 0.3954 0.4104 0.4288 0.4448
3612.108694 0.4528 0.4702 0.5201 0.5693 0.6161
3616.454000 0.6572 0.6772 0.6965 0.7137 0.7302
3620.799306 0.7446 0.7583 0.7693 0.7803 0.7912
3625.144613 0.8009 0.8054 0.8105 0.8179 0.8248
3629.489919 0.8287 0.8330 0.8385 0.8437 0.8477
3633.835226 0.8512 0.8522 0.8530 0.8530 0.8528
3638.180532 0.8518 0.8509 0.8504 0.8498 0.8488
3642.525839 0.8477 0.8457 0.8437 0.8417 0.8396
3646.871145 0.8371 0.8347 0.8327 0.8309 0.8299
3651.216452 0.8289 0.8284 0.8277 0.8252 0.8228
3655.561758 0.8213 0.8199 0.8194 0.8187 0.8162
3659.907065 0.8138 0.8118 0.8098 0.8078 0.8059
3664.252371 0.8049 0.8039 0.8029 0.8020 0.8020
3668.597677 0.8021 0.8031 0.8045 0.8106 0.8163
3672.942984 0.8198 0.8233 0.8263 0.8292 0.8317
3677.288290 0.8344 0.8388 0.8432 0.8457 0.8483
3681.633597 0.8528 0.8573 0.8612 0.8651 0.8666
3685.978903 0.8682 0.8722 0.8762 0.8818 0.8872
3690.324210 0.8902 0.8933 0.8982 0.9032 0.9077
3694.669516 0.9121 0.9136 0.9152 0.9207 0.9261
3699.014823 0.9301 0.9341 0.9381 0.9420 0.9450
3703.360129 0.9480 0.9505 0.9530 0.9540 0.9550
3707.705435 0.9550 0.9550 0.9555 0.9560 0.9605
3712.050742 0.9650 0.9680 0.9710 0.9715 0.9720
3716.396048 0.9730 0.9740 0.9740 0.9740 0.9740
3720.741355 0.9740 0.9740 0.9740 0.9745 0.9750
3725.086661 0.9750 0.9750 0.9750 0.9750 0.9750
3729.431968 0.9750 0.9750 0.9750 0.9750 0.9750
3733.777274 0.9750 0.9750 0.9750 0.9750 0.9750
3738.122581 0.9750 0.9750 0.9750 0.9755 0.9760
3742.467887 0.9760 0.9760 0.9760 0.9760 0.9760
3746.813194 0.9760 0.9769 0.9779 0.9789 0.9799
3751.158500 0.9800 0.9800 0.9809 0.9819 0.9820
3755.503806 0.9820 0.9833 0.9848 0.9850 0.9850
3759.849113 0.9854 0.9859 0.9860 0.9860 0.9860
3764.194419 0.9860 0.9864 0.9869 0.9870 0.9870
3768.539726 0.9879 0.9889 0.9890 0.9890 0.9890
3772.885032 0.9890 0.9894 0.9899 0.9900 0.9900
3777.230339 0.9904 0.9909 0.9918 0.9928 0.9922
3781.575645 0.9912 0.9910 0.9910 0.9906 0.9901
3785.920952 0.9900 0.9900 0.9896 0.9891 0.9882
3790.266258 0.9872
##END=
