##TITLE=1-HEXENE
##JCAMP-DX=4.24
##DATA TYPE=INFRARED SPECTRUM
##CLASS=COBLENTZ III
##ORIGIN=DOW CHEMICAL COMPANY
##OWNER=COBLENTZ SOCIETY
Collection (C) 2018 copyright by the U.S. Secretary of Commerce
on behalf of the United States of America. All rights reserved.
##DATE=1964/08/04
##CAS REGISTRY NO=592-41-6
##MOLFORM=C6 H12
##SOURCE REFERENCE=COBLENTZ NO. 10126
##$NIST SOURCE=COBLENTZ
##$NIST IMAGE=cob10126
##SPECTROMETER/DATA SYSTEM=DOW KBr FOREPRISM-GRATING
##INSTRUMENT PARAMETERS=BLAZED AT 3.5, 12.0, 20.0 MICRON, CHANGED AT 5.0, 7.5, 14.9 MICRON
##STATE=SOLUTION (10% IN CCl4 FOR 3800-1330 AND 10% IN CS2 FOR 1330-400 CM^-^1) VS. SOLVENT
##PATH LENGTH=0.010, 0.011 CM
$$SPECTRAL CONTAMINATION DUE TO CCl4 AROUND 1550, AND CS2 AROUND 855 CM^-^1
$$ SEE SPECTRUM NO. 8871 FOR "GAS-PHASE" STATE
##SAMPLING PROCEDURE=TRANSMISSION
##RESOLUTION=4
##DATA PROCESSING=DIGITIZED BY NIST FROM HARD COPY (FROM TWO SEGMENTS)
##XUNITS=1/CM
##YUNITS=TRANSMITTANCE
##XFACTOR=1.000000
##YFACTOR=1
##DELTAX=0.870511
##FIRSTX=380.849
##LASTX=3799.35
##FIRSTY=1.013
##MAXX=3799.35
##MINX=380.849
##MAXY=1.109
##MINY=0.009
##NPOINTS=3928
##XYDATA=(X++(Y..Y))
380.849000 1.0130 1.0120 1.0120 1.0120 1.0120
385.201556 1.0120 1.0120 1.0120 1.0120 1.0120
389.554113 1.0120 1.0120 1.0120 1.0120 1.0130
393.906669 1.0130 1.0130 1.0130 1.0150 1.0150
398.259226 1.0130 1.0150 1.0160 1.0160 1.0160
402.611782 1.0170 1.0190 1.0190 1.0210 1.0210
406.964339 1.0210 1.0230 1.0240 1.0240 1.0240
411.316895 1.0240 1.0240 1.0240 1.0250 1.0250
415.669452 1.0270 1.0280 1.0280 1.0300 1.0300
420.022008 1.0300 1.0300 1.0300 1.0300 1.0300
424.374565 1.0300 1.0300 1.0300 1.0300 1.0300
428.727121 1.0300 1.0300 1.0300 1.0300 1.0300
433.079677 1.0300 1.0300 1.0300 1.0280 1.0280
437.432234 1.0280 1.0280 1.0280 1.0280 1.0280
441.784790 1.0280 1.0280 1.0280 1.0300 1.0280
446.137347 1.0280 1.0280 1.0280 1.0280 1.0280
450.489903 1.0300 1.0280 1.0280 1.0280 1.0300
454.842460 1.0300 1.0300 1.0300 1.0300 1.0300
459.195016 1.0310 1.0310 1.0310 1.0320 1.0340
463.547573 1.0350 1.0360 1.0360 1.0360 1.0380
467.900129 1.0380 1.0390 1.0400 1.0420 1.0420
472.252685 1.0450 1.0450 1.0460 1.0460 1.0460
476.605242 1.0470 1.0470 1.0470 1.0490 1.0490
480.957798 1.0490 1.0490 1.0490 1.0500 1.0510
485.310355 1.0510 1.0510 1.0510 1.0510 1.0530
489.662911 1.0530 1.0540 1.0540 1.0540 1.0540
494.015468 1.0530 1.0530 1.0530 1.0530 1.0530
498.368024 1.0530 1.0510 1.0510 1.0510 1.0510
502.720581 1.0510 1.0510 1.0510 1.0510 1.0500
507.073137 1.0500 1.0500 1.0500 1.0500 1.0490
511.425694 1.0490 1.0490 1.0490 1.0490 1.0470
515.778250 1.0470 1.0470 1.0470 1.0460 1.0450
520.130806 1.0450 1.0450 1.0430 1.0430 1.0420
524.483363 1.0420 1.0400 1.0400 1.0390 1.0390
528.835919 1.0380 1.0360 1.0350 1.0340 1.0310
533.188476 1.0280 1.0250 1.0240 1.0230 1.0210
537.541032 1.0190 1.0150 1.0090 1.0040 1.0010
541.893589 1.0010 1.0000 0.9970 0.9890 0.9820
546.246145 0.9760 0.9740 0.9680 0.9630 0.9590
550.598702 0.9570 0.9560 0.9560 0.9610 0.9670
554.951258 0.9750 0.9790 0.9830 0.9890 1.0010
559.303815 1.0080 1.0120 1.0150 1.0200 1.0230
563.656371 1.0270 1.0310 1.0320 1.0340 1.0350
568.008927 1.0350 1.0390 1.0430 1.0450 1.0450
572.361484 1.0450 1.0450 1.0460 1.0460 1.0460
576.714040 1.0460 1.0460 1.0460 1.0460 1.0450
581.066597 1.0450 1.0450 1.0450 1.0450 1.0450
585.419153 1.0450 1.0450 1.0450 1.0450 1.0420
589.771710 1.0390 1.0380 1.0380 1.0360 1.0360
594.124266 1.0340 1.0340 1.0320 1.0310 1.0310
598.476823 1.0280 1.0250 1.0240 1.0210 1.0200
602.829379 1.0160 1.0130 1.0100 1.0080 1.0020
607.181935 1.0010 1.0000 0.9940 0.9830 0.9750
611.534492 0.9650 0.9590 0.9530 0.9440 0.9331
615.887048 0.9220 0.9120 0.9040 0.8920 0.8790
620.239605 0.8660 0.8540 0.8401 0.8281 0.8141
624.592161 0.8040 0.7980 0.7930 0.7910 0.7890
628.944718 0.7890 0.7910 0.7950 0.7950 0.8020
633.297274 0.8040 0.8110 0.8150 0.8210 0.8290
637.649831 0.8330 0.8430 0.8520 0.8600 0.8670
642.002387 0.8730 0.8810 0.8900 0.8920 0.9000
646.354944 0.9090 0.9120 0.9150 0.9200 0.9240
650.707500 0.9290 0.9330 0.9350 0.9390 0.9420
655.060056 0.9490 0.9560 0.9630 0.9710 0.9780
659.412613 0.9840 0.9910 1.0020 1.0080 1.0150
663.765169 1.0230 1.0310 1.0350 1.0360 1.0380
668.117726 1.0380 1.0420 1.0450 1.0470 1.0490
672.470282 1.0510 1.0540 1.0570 1.0580 1.0600
676.822839 1.0620 1.0640 1.0650 1.0680 1.0690
681.175395 1.0690 1.0690 1.0700 1.0700 1.0700
685.527952 1.0700 1.0720 1.0720 1.0720 1.0720
689.880508 1.0730 1.0730 1.0730 1.0730 1.0730
694.233065 1.0720 1.0720 1.0720 1.0720 1.0750
698.585621 1.0750 1.0750 1.0750 1.0730 1.0730
702.938177 1.0730 1.0730 1.0730 1.0720 1.0730
707.290734 1.0730 1.0730 1.0720 1.0700 1.0700
711.643290 1.0690 1.0680 1.0660 1.0650 1.0640
715.995847 1.0620 1.0610 1.0570 1.0530 1.0460
720.348403 1.0380 1.0320 1.0270 1.0240 1.0060
724.700960 0.9980 0.9890 0.9750 0.9571 0.9391
729.053516 0.9370 0.9350 0.9350 0.9340 0.9330
733.406073 0.9330 0.9300 0.9260 0.9230 0.9230
737.758629 0.9220 0.9230 0.9260 0.9290 0.9310
742.111185 0.9310 0.9330 0.9380 0.9450 0.9560
746.463742 0.9670 0.9780 1.0170 1.0320 1.0450
750.816298 1.0530 1.0650 1.0809 1.0900 1.0940
755.168855 1.0960 1.0980 1.1000 1.1020 1.1030
759.521411 1.1050 1.1060 1.1060 1.1070 1.1070
763.873968 1.1090 1.1090 1.1070 1.1070 1.1060
768.226524 1.1050 1.1030 1.1020 1.1000 1.0990
772.579081 1.0980 1.0950 1.0950 1.0920 1.0910
776.931637 1.0880 1.0840 1.0790 1.0730 1.0650
781.284194 1.0640 1.0620 1.0600 1.0600 1.0580
785.636750 1.0600 1.0600 1.0610 1.0610 1.0610
789.989306 1.0640 1.0640 1.0650 1.0700 1.0750
794.341863 1.0810 1.0850 1.0870 1.0870 1.0870
798.694419 1.0870 1.0850 1.0850 1.0850 1.0840
803.046976 1.0830 1.0810 1.0800 1.0790 1.0750
807.399532 1.0730 1.0720 1.0690 1.0680 1.0680
811.752089 1.0680 1.0680 1.0660 1.0660 1.0650
816.104645 1.0640 1.0640 1.0620 1.0620 1.0640
820.457202 1.0640 1.0660 1.0700 1.0720 1.0750
824.809758 1.0760 1.0770 1.0760 1.0750 1.0730
829.162315 1.0700 1.0690 1.0680 1.0660 1.0650
833.514871 1.0640 1.0620 1.0580 1.0550 1.0510
837.867427 1.0500 1.0400 1.0380 1.0340 1.0300
842.219984 1.0250 1.0230 1.0130 1.0020 0.9970
846.572540 0.9900 0.9790 0.9680 0.9541 0.9391
850.925097 0.9330 0.9260 0.9190 0.9140 0.9080
855.277653 0.9070 0.9050 0.9050 0.9070 0.9070
859.630210 0.9080 0.9090 0.9090 0.9110 0.9110
863.982766 0.9090 0.9080 0.9070 0.9050 0.9050
868.335323 0.9040 0.9030 0.9000 0.8990 0.8970
872.687879 0.8940 0.8930 0.8920 0.8900 0.8900
877.040435 0.8900 0.8890 0.8860 0.8810 0.8750
881.392992 0.8690 0.8630 0.8550 0.8470 0.8341
885.745548 0.8180 0.8090 0.7950 0.7840 0.7540
890.098105 0.7161 0.7030 0.6910 0.6681 0.6481
894.450661 0.6240 0.5571 0.5440 0.5300 0.4781
898.803218 0.4142 0.3492 0.2982 0.2034 0.1483
903.155774 0.1000 0.0510 0.0300 0.0150 0.0100
907.508331 0.0090 0.0090 0.0210 0.0449 0.1146
911.860887 0.1350 0.1850 0.2210 0.2669 0.3209
916.213444 0.3619 0.4009 0.4398 0.4798 0.5248
920.566000 0.5770 0.5970 0.6150 0.6260 0.6330
924.918556 0.6450 0.6580 0.6729 0.6899 0.7238
929.271113 0.7550 0.7830 0.7990 0.8100 0.8220
933.623669 0.8400 0.8550 0.8739 0.8899 0.9029
937.976226 0.9110 0.9220 0.9340 0.9440 0.9520
942.328782 0.9540 0.9610 0.9650 0.9710 0.9750
946.681339 0.9780 0.9790 0.9820 0.9830 0.9840
951.033895 0.9860 0.9860 0.9860 0.9860 0.9860
955.386452 0.9860 0.9860 0.9840 0.9830 0.9830
959.739008 0.9790 0.9760 0.9760 0.9720 0.9670
964.091565 0.9640 0.9600 0.9540 0.9530 0.9480
968.444121 0.9460 0.9370 0.9310 0.9240 0.9180
972.796677 0.9090 0.9000 0.8880 0.8730 0.8600
977.149234 0.8480 0.8331 0.8141 0.7612 0.7242
981.501790 0.7020 0.6580 0.6081 0.5621 0.5151
985.854347 0.4073 0.3721 0.3302 0.2185 0.1991
990.206903 0.1990 0.2180 0.2609 0.3129 0.3429
994.559460 0.3799 0.4837 0.5557 0.5809 0.6089
998.912016 0.6610 0.7380 0.7620 0.8069 0.8210
1003.264573 0.8320 0.8470 0.8600 0.8749 0.8889
1007.617129 0.9030 0.9110 0.9240 0.9330 0.9350
1011.969685 0.9370 0.9390 0.9410 0.9440 0.9420
1016.322242 0.9420 0.9410 0.9390 0.9380 0.9370
1020.674798 0.9350 0.9340 0.9340 0.9340 0.9340
1025.027355 0.9330 0.9330 0.9310 0.9310 0.9310
1029.379911 0.9310 0.9330 0.9340 0.9340 0.9380
1033.732468 0.9420 0.9480 0.9540 0.9610 0.9670
1038.085024 0.9750 0.9760 0.9800 0.9890 0.9900
1042.437581 0.9930 0.9980 0.9980 1.0000 1.0020
1046.790137 1.0050 1.0050 1.0080 1.0090 1.0100
1051.142694 1.0100 1.0120 1.0150 1.0150 1.0160
1055.495250 1.0160 1.0170 1.0170 1.0170 1.0170
1059.847806 1.0160 1.0160 1.0160 1.0160 1.0160
1064.200363 1.0160 1.0160 1.0160 1.0160 1.0170
1068.552919 1.0170 1.0210 1.0210 1.0210 1.0210
1072.905476 1.0230 1.0240 1.0240 1.0250 1.0250
1077.258032 1.0270 1.0280 1.0280 1.0280 1.0280
1081.610589 1.0270 1.0240 1.0230 1.0210 1.0210
1085.963145 1.0170 1.0150 1.0130 1.0100 1.0090
1090.315702 1.0040 1.0010 1.0010 1.0000 0.9891
1094.668258 0.9820 0.9760 0.9680 0.9630 0.9600
1099.020815 0.9560 0.9540 0.9560 0.9610 0.9610
1103.373371 0.9640 0.9690 0.9760 0.9800 0.9950
1107.725927 1.0050 1.0150 1.0230 1.0310 1.0340
1112.078484 1.0360 1.0390 1.0420 1.0450 1.0460
1116.431040 1.0460 1.0460 1.0450 1.0450 1.0450
1120.783597 1.0430 1.0420 1.0400 1.0380 1.0340
1125.136153 1.0310 1.0280 1.0250 1.0230 1.0210
1129.488710 1.0190 1.0160 1.0150 1.0130 1.0130
1133.841266 1.0130 1.0130 1.0150 1.0150 1.0160
1138.193823 1.0170 1.0190 1.0200 1.0210 1.0230
1142.546379 1.0250 1.0280 1.0310 1.0320 1.0340
1146.898935 1.0350 1.0360 1.0360 1.0390 1.0420
1151.251492 1.0420 1.0430 1.0450 1.0460 1.0460
1155.604048 1.0470 1.0490 1.0490 1.0500 1.0510
1159.956605 1.0540 1.0550 1.0550 1.0540 1.0530
1164.309161 1.0510 1.0500 1.0490 1.0490 1.0500
1168.661718 1.0500 1.0510 1.0540 1.0570 1.0580
1173.014274 1.0580 1.0580 1.0600 1.0610 1.0610
1177.366831 1.0610 1.0610 1.0620 1.0620 1.0620
1181.719387 1.0620 1.0620 1.0610 1.0610 1.0610
1186.071944 1.0610 1.0600 1.0600 1.0580 1.0570
1190.424500 1.0550 1.0540 1.0530 1.0530 1.0510
1194.777056 1.0490 1.0470 1.0470 1.0460 1.0450
1199.129613 1.0430 1.0400 1.0380 1.0360 1.0350
1203.482169 1.0320 1.0300 1.0270 1.0240 1.0230
1207.834726 1.0230 1.0210 1.0150 1.0130 1.0120
1212.187282 1.0120 1.0100 1.0100 1.0100 1.0120
1216.539839 1.0130 1.0160 1.0170 1.0210 1.0230
1220.892395 1.0230 1.0210 1.0210 1.0200 1.0190
1225.244952 1.0170 1.0160 1.0150 1.0130 1.0120
1229.597508 1.0100 1.0100 1.0100 1.0090 1.0080
1233.950065 1.0060 1.0050 1.0020 1.0010 1.0010
1238.302621 1.0000 0.9950 0.9910 0.9870 0.9840
1242.655177 0.9830 0.9800 0.9790 0.9790 0.9790
1247.007734 0.9830 0.9860 0.9910 1.0020 1.0020
1251.360290 1.0050 1.0060 1.0080 1.0080 1.0080
1255.712847 1.0080 1.0080 1.0080 1.0060 1.0060
1260.065403 1.0050 1.0050 1.0020 1.0010 1.0010
1264.417960 1.0010 1.0000 1.0000 0.9980 0.9980
1268.770516 0.9950 0.9910 0.9890 0.9870 0.9860
1273.123073 0.9830 0.9790 0.9780 0.9750 0.9710
1277.475629 0.9680 0.9650 0.9610 0.9570 0.9540
1281.828185 0.9490 0.9440 0.9390 0.9340 0.9310
1286.180742 0.9270 0.9260 0.9230 0.9230 0.9190
1290.533298 0.9140 0.9040 0.8970 0.8920 0.8900
1294.885855 0.8900 0.8920 0.8920 0.8940 0.8990
1299.238411 0.9030 0.9050 0.9090 0.9120 0.9150
1303.590968 0.9180 0.9190 0.9240 0.9290 0.9300
1307.943524 0.9310 0.9330 0.9340 0.9350 0.9350
1312.296081 0.9370 0.9370 0.9370 0.9350 0.9340
1316.648637 0.9340 0.9330 0.9330 0.9330 0.9310
1321.001194 0.9310 0.9310 0.9310 0.9330 0.9340
1325.353750 0.9370 0.9370 0.9370 0.9380 0.9380
1329.706306 0.9410 0.9410 0.9380 0.9350 0.9330
1334.058863 0.9310 0.9270 0.9230 0.9150 0.9110
1338.411419 0.8960 0.8890 0.8860 0.8850 0.8860
1342.763976 0.8930 0.9030 0.9110 0.9150 0.9200
1347.116532 0.9220 0.9220 0.9200 0.9190 0.9190
1351.469089 0.9180 0.9180 0.9160 0.9140 0.9140
1355.821645 0.9120 0.9110 0.9110 0.9080 0.9040
1360.174202 0.8960 0.8920 0.8920 0.8900 0.8890
1364.526758 0.8890 0.8840 0.8810 0.8770 0.8710
1368.879315 0.8700 0.8600 0.8510 0.8450 0.8331
1373.231871 0.7960 0.7680 0.7400 0.6951 0.6631
1377.584427 0.5962 0.5791 0.5790 0.5870 0.6238
1381.936984 0.6460 0.7439 0.7730 0.7960 0.8289
1386.289540 0.8390 0.8490 0.8550 0.8580 0.8709
1390.642097 0.8810 0.8820 0.8840 0.8890 0.8900
1394.994653 0.8900 0.8920 0.8930 0.8930 0.8930
1399.347210 0.8920 0.8900 0.8900 0.8890 0.8850
1403.699766 0.8820 0.8790 0.8750 0.8730 0.8700
1408.052323 0.8670 0.8590 0.8480 0.8280 0.8030
1412.404879 0.7741 0.7241 0.7061 0.6931 0.6910
1416.757435 0.7050 0.7240 0.7460 0.7760 0.7920
1421.109992 0.7960 0.7960 0.7980 0.7960 0.7930
1425.462548 0.7850 0.7760 0.7610 0.7480 0.7230
1429.815105 0.6951 0.6780 0.6581 0.6450 0.6311
1434.167661 0.6180 0.6010 0.5700 0.5371 0.5081
1438.520218 0.5000 0.5100 0.5229 0.5369 0.5519
1442.872774 0.5600 0.5600 0.5630 0.5620 0.5600
1447.225331 0.5590 0.5560 0.5520 0.5440 0.5341
1451.577887 0.5190 0.5110 0.4970 0.4571 0.4091
1455.930444 0.3831 0.3661 0.3650 0.3660 0.3730
1460.283000 0.3800 0.3960 0.3980 0.4010 0.4010
1464.635556 0.3870 0.3711 0.3531 0.3381 0.3300
1468.988113 0.3300 0.3460 0.4469 0.5548 0.6079
1473.340669 0.6459 0.6939 0.7608 0.7779 0.8019
1477.693226 0.8130 0.8190 0.8240 0.8360 0.8440
1482.045782 0.8480 0.8490 0.8490 0.8520 0.8540
1486.398339 0.8550 0.8560 0.8560 0.8560 0.8560
1490.750895 0.8580 0.8580 0.8560 0.8550 0.8520
1495.103452 0.8510 0.8510 0.8490 0.8490 0.8480
1499.456008 0.8470 0.8400 0.8340 0.8320 0.8300
1503.808565 0.8240 0.8210 0.8170 0.8130 0.8100
1508.161121 0.8040 0.7980 0.7960 0.7920 0.7910
1512.513677 0.7850 0.7780 0.7740 0.7690 0.7630
1516.866234 0.7580 0.7480 0.7440 0.7420 0.7380
1521.218790 0.7350 0.7270 0.7240 0.7180 0.7130
1525.571347 0.7090 0.7050 0.6980 0.6930 0.6910
1529.923903 0.6840 0.6780 0.6750 0.6650 0.6580
1534.276460 0.6480 0.6410 0.6231 0.6160 0.6070
1538.629016 0.6030 0.5890 0.5750 0.5620 0.5530
1542.981573 0.5510 0.5470 0.5400 0.5360 0.5330
1547.334129 0.5290 0.5260 0.5250 0.5260 0.5320
1551.686685 0.5360 0.5370 0.5380 0.5450 0.5550
1556.039242 0.5620 0.5680 0.5770 0.5870 0.6000
1560.391798 0.6090 0.6180 0.6280 0.6310 0.6420
1564.744355 0.6480 0.6540 0.6630 0.6710 0.6750
1569.096911 0.6820 0.6880 0.6910 0.6940 0.6950
1573.449468 0.6980 0.6990 0.7030 0.7050 0.7060
1577.802024 0.7060 0.7080 0.7090 0.7140 0.7170
1582.154581 0.7180 0.7230 0.7270 0.7310 0.7390
1586.507137 0.7440 0.7500 0.7570 0.7620 0.7700
1590.859694 0.7780 0.7880 0.7930 0.8000 0.8060
1595.212250 0.8140 0.8250 0.8300 0.8340 0.8430
1599.564806 0.8490 0.8550 0.8620 0.8660 0.8710
1603.917363 0.8770 0.8790 0.8820 0.8860 0.8890
1608.269919 0.8900 0.8900 0.8900 0.8890 0.8880
1612.622476 0.8880 0.8880 0.8880 0.8890 0.8890
1616.975032 0.8890 0.8890 0.8890 0.8900 0.8900
1621.327589 0.8890 0.8890 0.8840 0.8790 0.8780
1625.680145 0.8770 0.8740 0.8700 0.8620 0.8510
1630.032702 0.8390 0.8191 0.7951 0.7621 0.7242
1634.385258 0.6820 0.6500 0.5601 0.5141 0.4671
1638.737815 0.4071 0.3302 0.2294 0.2290 0.2439
1643.090371 0.2720 0.3380 0.5708 0.6309 0.6969
1647.442927 0.7718 0.7880 0.8179 0.8389 0.8589
1651.795484 0.8740 0.8790 0.8890 0.8940 0.9010
1656.148040 0.9080 0.9110 0.9140 0.9180 0.9200
1660.500597 0.9260 0.9300 0.9330 0.9350 0.9390
1664.853153 0.9440 0.9460 0.9480 0.9520 0.9520
1669.205710 0.9520 0.9530 0.9560 0.9570 0.9590
1673.558266 0.9590 0.9600 0.9610 0.9610 0.9630
1677.910823 0.9630 0.9640 0.9640 0.9650 0.9670
1682.263379 0.9670 0.9680 0.9690 0.9690 0.9690
1686.615935 0.9710 0.9710 0.9710 0.9710 0.9710
1690.968492 0.9710 0.9710 0.9710 0.9710 0.9710
1695.321048 0.9690 0.9690 0.9690 0.9710 0.9720
1699.673605 0.9740 0.9750 0.9750 0.9750 0.9750
1704.026161 0.9760 0.9750 0.9750 0.9760 0.9760
1708.378718 0.9760 0.9760 0.9780 0.9780 0.9760
1712.731274 0.9780 0.9760 0.9760 0.9760 0.9760
1717.083831 0.9780 0.9780 0.9780 0.9780 0.9780
1721.436387 0.9780 0.9780 0.9780 0.9780 0.9780
1725.788944 0.9780 0.9780 0.9780 0.9780 0.9780
1730.141500 0.9780 0.9790 0.9780 0.9780 0.9780
1734.494056 0.9780 0.9780 0.9780 0.9780 0.9780
1738.846613 0.9780 0.9790 0.9790 0.9800 0.9800
1743.199169 0.9800 0.9820 0.9820 0.9820 0.9820
1747.551726 0.9820 0.9820 0.9820 0.9820 0.9820
1751.904282 0.9820 0.9820 0.9820 0.9820 0.9820
1756.256839 0.9820 0.9820 0.9820 0.9800 0.9800
1760.609395 0.9790 0.9790 0.9800 0.9800 0.9820
1764.961952 0.9820 0.9820 0.9820 0.9820 0.9820
1769.314508 0.9820 0.9820 0.9820 0.9820 0.9820
1773.667065 0.9800 0.9800 0.9790 0.9780 0.9780
1778.019621 0.9780 0.9780 0.9780 0.9780 0.9780
1782.372177 0.9780 0.9780 0.9780 0.9780 0.9760
1786.724734 0.9760 0.9750 0.9750 0.9750 0.9740
1791.077290 0.9740 0.9720 0.9710 0.9690 0.9680
1795.429847 0.9670 0.9640 0.9630 0.9630 0.9610
1799.782403 0.9600 0.9590 0.9540 0.9540 0.9530
1804.134960 0.9520 0.9480 0.9440 0.9420 0.9380
1808.487516 0.9350 0.9340 0.9260 0.9220 0.9180
1812.840073 0.9120 0.9090 0.8960 0.8900 0.8840
1817.192629 0.8770 0.8710 0.8700 0.8660 0.8630
1821.545185 0.8630 0.8630 0.8640 0.8690 0.8690
1825.897742 0.8710 0.8770 0.8820 0.8900 0.8930
1830.250298 0.9010 0.9110 0.9140 0.9180 0.9200
1834.602855 0.9290 0.9310 0.9340 0.9370 0.9390
1838.955411 0.9440 0.9450 0.9480 0.9530 0.9530
1843.307968 0.9540 0.9560 0.9570 0.9590 0.9600
1847.660524 0.9610 0.9630 0.9630 0.9640 0.9670
1852.013081 0.9670 0.9680 0.9680 0.9690 0.9690
1856.365637 0.9690 0.9690 0.9690 0.9710 0.9710
1860.718194 0.9720 0.9720 0.9720 0.9720 0.9750
1865.070750 0.9750 0.9750 0.9750 0.9750 0.9750
1869.423306 0.9740 0.9750 0.9760 0.9760 0.9760
1873.775863 0.9760 0.9760 0.9780 0.9780 0.9780
1878.128419 0.9780 0.9780 0.9780 0.9780 0.9780
1882.480976 0.9780 0.9780 0.9780 0.9780 0.9780
1886.833532 0.9780 0.9760 0.9760 0.9760 0.9760
1891.186089 0.9750 0.9750 0.9750 0.9750 0.9740
1895.538645 0.9740 0.9740 0.9740 0.9740 0.9740
1899.891202 0.9740 0.9740 0.9740 0.9750 0.9750
1904.243758 0.9750 0.9760 0.9760 0.9760 0.9780
1908.596315 0.9780 0.9780 0.9780 0.9790 0.9780
1912.948871 0.9780 0.9780 0.9780 0.9780 0.9780
1917.301427 0.9780 0.9780 0.9780 0.9780 0.9790
1921.653984 0.9790 0.9790 0.9790 0.9790 0.9780
1926.006540 0.9780 0.9780 0.9780 0.9780 0.9780
1930.359097 0.9780 0.9780 0.9780 0.9780 0.9790
1934.711653 0.9790 0.9790 0.9780 0.9780 0.9780
1939.064210 0.9780 0.9780 0.9760 0.9760 0.9760
1943.416766 0.9760 0.9760 0.9760 0.9760 0.9760
1947.769323 0.9760 0.9750 0.9750 0.9750 0.9750
1952.121879 0.9750 0.9750 0.9760 0.9760 0.9760
1956.474435 0.9780 0.9780 0.9800 0.9840 0.9860
1960.826992 0.9860 0.9750 0.9710 0.9690 0.9680
1965.179548 0.9680 0.9680 0.9670 0.9650 0.9640
1969.532105 0.9630 0.9610 0.9600 0.9590 0.9590
1973.884661 0.9560 0.9540 0.9530 0.9530 0.9520
1978.237218 0.9520 0.9500 0.9500 0.9500 0.9500
1982.589774 0.9500 0.9520 0.9520 0.9530 0.9530
1986.942331 0.9530 0.9530 0.9540 0.9540 0.9560
1991.294887 0.9560 0.9560 0.9570 0.9570 0.9570
1995.647444 0.9590 0.9590 0.9590 0.9600 0.9600
2000.000000 0.9600 0.9605 0.9610 0.9610 0.9610
2004.352556 0.9610 0.9610 0.9625 0.9640 0.9640
2008.705113 0.9640 0.9640 0.9640 0.9645 0.9650
2013.057669 0.9650 0.9650 0.9650 0.9650 0.9650
2017.410226 0.9650 0.9650 0.9650 0.9650 0.9650
2021.762782 0.9650 0.9650 0.9650 0.9650 0.9650
2026.115339 0.9650 0.9650 0.9650 0.9645 0.9640
2030.467895 0.9635 0.9630 0.9630 0.9630 0.9630
2034.820452 0.9630 0.9630 0.9630 0.9630 0.9630
2039.173008 0.9630 0.9630 0.9630 0.9630 0.9630
2043.525565 0.9630 0.9634 0.9639 0.9640 0.9640
2047.878121 0.9640 0.9640 0.9640 0.9640 0.9640
2052.230677 0.9640 0.9640 0.9640 0.9640 0.9640
2056.583234 0.9636 0.9631 0.9630 0.9630 0.9630
2060.935790 0.9630 0.9630 0.9630 0.9630 0.9630
2065.288347 0.9622 0.9612 0.9610 0.9610 0.9610
2069.640903 0.9610 0.9610 0.9610 0.9618 0.9628
2073.993460 0.9634 0.9639 0.9644 0.9649 0.9650
2078.346016 0.9650 0.9650 0.9650 0.9658 0.9668
2082.698573 0.9670 0.9670 0.9670 0.9670 0.9670
2087.051129 0.9670 0.9670 0.9670 0.9670 0.9670
2091.403685 0.9674 0.9679 0.9680 0.9680 0.9680
2095.756242 0.9680 0.9680 0.9680 0.9680 0.9680
2100.108798 0.9684 0.9689 0.9690 0.9690 0.9686
2104.461355 0.9681 0.9684 0.9689 0.9690 0.9690
2108.813911 0.9690 0.9690 0.9698 0.9708 0.9710
2113.166468 0.9710 0.9710 0.9710 0.9710 0.9710
2117.519024 0.9710 0.9710 0.9710 0.9710 0.9710
2121.871581 0.9710 0.9710 0.9710 0.9710 0.9710
2126.224137 0.9714 0.9719 0.9720 0.9720 0.9720
2130.576694 0.9720 0.9720 0.9720 0.9716 0.9711
2134.929250 0.9710 0.9710 0.9710 0.9710 0.9710
2139.281806 0.9710 0.9710 0.9710 0.9710 0.9710
2143.634363 0.9710 0.9710 0.9710 0.9710 0.9710
2147.986919 0.9710 0.9710 0.9710 0.9710 0.9710
2152.339476 0.9710 0.9710 0.9710 0.9710 0.9710
2156.692032 0.9710 0.9703 0.9693 0.9687 0.9682
2161.044589 0.9680 0.9680 0.9680 0.9680 0.9680
2165.397145 0.9680 0.9680 0.9680 0.9680 0.9680
2169.749702 0.9680 0.9680 0.9680 0.9680 0.9680
2174.102258 0.9680 0.9680 0.9680 0.9680 0.9680
2178.454815 0.9680 0.9680 0.9680 0.9680 0.9680
2182.807371 0.9680 0.9680 0.9680 0.9680 0.9680
2187.159927 0.9680 0.9680 0.9680 0.9680 0.9680
2191.512484 0.9680 0.9680 0.9680 0.9677 0.9672
2195.865040 0.9670 0.9670 0.9670 0.9670 0.9670
2200.217597 0.9670 0.9670 0.9670 0.9670 0.9670
2204.570153 0.9670 0.9670 0.9670 0.9670 0.9664
2208.922710 0.9654 0.9650 0.9650 0.9650 0.9650
2213.275266 0.9650 0.9650 0.9650 0.9650 0.9650
2217.627823 0.9650 0.9650 0.9650 0.9650 0.9650
2221.980379 0.9650 0.9650 0.9650 0.9650 0.9650
2226.332935 0.9650 0.9650 0.9650 0.9650 0.9650
2230.685492 0.9650 0.9650 0.9650 0.9650 0.9650
2235.038048 0.9650 0.9650 0.9650 0.9650 0.9650
2239.390605 0.9650 0.9650 0.9650 0.9650 0.9648
2243.743161 0.9643 0.9638 0.9633 0.9630 0.9630
2248.095718 0.9630 0.9630 0.9630 0.9630 0.9630
2252.448274 0.9630 0.9625 0.9615 0.9610 0.9610
2256.800831 0.9610 0.9610 0.9608 0.9603 0.9600
2261.153387 0.9600 0.9598 0.9593 0.9590 0.9590
2265.505944 0.9590 0.9590 0.9586 0.9576 0.9568
2269.858500 0.9563 0.9560 0.9560 0.9556 0.9546
2274.211056 0.9540 0.9540 0.9540 0.9540 0.9540
2278.563613 0.9540 0.9538 0.9533 0.9528 0.9523
2282.916169 0.9514 0.9499 0.9490 0.9490 0.9492
2287.268726 0.9497 0.9500 0.9500 0.9500 0.9500
2291.621282 0.9504 0.9514 0.9522 0.9527 0.9530
2295.973839 0.9530 0.9530 0.9530 0.9530 0.9530
2300.326395 0.9530 0.9530 0.9530 0.9530 0.9530
2304.678952 0.9530 0.9530 0.9530 0.9530 0.9530
2309.031508 0.9528 0.9523 0.9522 0.9527 0.9532
2313.384065 0.9537 0.9540 0.9540 0.9540 0.9540
2317.736621 0.9543 0.9553 0.9557 0.9547 0.9534
2322.089177 0.9514 0.9497 0.9487 0.9482 0.9487
2326.441734 0.9495 0.9510 0.9523 0.9533 0.9550
2330.794290 0.9586 0.9613 0.9623 0.9616 0.9571
2335.146847 0.9540 0.9540 0.9543 0.9553 0.9564
2339.499403 0.9579 0.9593 0.9603 0.9614 0.9629
2343.851960 0.9644 0.9659 0.9665 0.9645 0.9626
2348.204516 0.9611 0.9601 0.9606 0.9610 0.9610
2352.557073 0.9613 0.9623 0.9630 0.9630 0.9631
2356.909629 0.9636 0.9641 0.9646 0.9650 0.9650
2361.262185 0.9650 0.9650 0.9650 0.9650 0.9650
2365.614742 0.9650 0.9649 0.9644 0.9640 0.9640
2369.967298 0.9640 0.9640 0.9640 0.9640 0.9640
2374.319855 0.9640 0.9640 0.9640 0.9640 0.9640
2378.672411 0.9640 0.9640 0.9640 0.9640 0.9640
2383.024968 0.9640 0.9640 0.9640 0.9640 0.9640
2387.377524 0.9640 0.9640 0.9640 0.9640 0.9641
2391.730081 0.9646 0.9652 0.9662 0.9670 0.9670
2396.082637 0.9670 0.9670 0.9670 0.9670 0.9670
2400.435194 0.9670 0.9670 0.9670 0.9670 0.9670
2404.787750 0.9670 0.9670 0.9670 0.9670 0.9670
2409.140306 0.9670 0.9670 0.9670 0.9670 0.9670
2413.492863 0.9670 0.9670 0.9670 0.9670 0.9670
2417.845419 0.9670 0.9670 0.9670 0.9670 0.9670
2422.197976 0.9670 0.9670 0.9670 0.9670 0.9670
2426.550532 0.9670 0.9670 0.9670 0.9670 0.9670
2430.903089 0.9670 0.9670 0.9670 0.9670 0.9670
2435.255645 0.9670 0.9670 0.9670 0.9670 0.9670
2439.608202 0.9670 0.9670 0.9670 0.9670 0.9670
2443.960758 0.9670 0.9670 0.9670 0.9670 0.9670
2448.313315 0.9670 0.9670 0.9670 0.9670 0.9670
2452.665871 0.9670 0.9670 0.9670 0.9670 0.9670
2457.018427 0.9670 0.9670 0.9670 0.9670 0.9670
2461.370984 0.9670 0.9670 0.9670 0.9670 0.9670
2465.723540 0.9670 0.9670 0.9670 0.9670 0.9670
2470.076097 0.9670 0.9670 0.9670 0.9670 0.9670
2474.428653 0.9670 0.9670 0.9670 0.9660 0.9650
2478.781210 0.9650 0.9650 0.9650 0.9650 0.9650
2483.133766 0.9650 0.9650 0.9650 0.9650 0.9650
2487.486323 0.9650 0.9650 0.9645 0.9640 0.9640
2491.838879 0.9640 0.9635 0.9630 0.9630 0.9630
2496.191435 0.9630 0.9630 0.9630 0.9630 0.9630
2500.543992 0.9630 0.9621 0.9611 0.9610 0.9610
2504.896548 0.9619 0.9629 0.9621 0.9611 0.9610
2509.249105 0.9610 0.9610 0.9610 0.9610 0.9610
2513.601661 0.9605 0.9600 0.9600 0.9600 0.9600
2517.954218 0.9600 0.9595 0.9590 0.9581 0.9571
2522.306774 0.9565 0.9560 0.9560 0.9560 0.9560
2526.659331 0.9560 0.9560 0.9560 0.9560 0.9560
2531.011887 0.9560 0.9560 0.9560 0.9560 0.9560
2535.364444 0.9560 0.9551 0.9541 0.9540 0.9540
2539.717000 0.9536 0.9531 0.9530 0.9530 0.9530
2544.069556 0.9530 0.9530 0.9530 0.9530 0.9530
2548.422113 0.9530 0.9530 0.9530 0.9530 0.9530
2552.774669 0.9530 0.9530 0.9530 0.9526 0.9521
2557.127226 0.9524 0.9529 0.9526 0.9521 0.9508
2561.479782 0.9493 0.9490 0.9490 0.9490 0.9490
2565.832339 0.9490 0.9490 0.9490 0.9490 0.9486
2570.184895 0.9481 0.9480 0.9480 0.9472 0.9462
2574.537452 0.9460 0.9460 0.9456 0.9451 0.9450
2578.890008 0.9450 0.9450 0.9450 0.9454 0.9459
2583.242565 0.9456 0.9451 0.9450 0.9450 0.9450
2587.595121 0.9450 0.9450 0.9450 0.9450 0.9450
2591.947677 0.9450 0.9450 0.9446 0.9441 0.9440
2596.300234 0.9440 0.9440 0.9440 0.9440 0.9440
2600.652790 0.9440 0.9440 0.9440 0.9440 0.9440
2605.005347 0.9440 0.9440 0.9440 0.9440 0.9440
2609.357903 0.9433 0.9423 0.9420 0.9420 0.9416
2613.710460 0.9411 0.9410 0.9410 0.9403 0.9393
2618.063016 0.9390 0.9390 0.9387 0.9382 0.9380
2622.415573 0.9380 0.9380 0.9380 0.9380 0.9380
2626.768129 0.9380 0.9380 0.9377 0.9372 0.9370
2631.120685 0.9370 0.9360 0.9345 0.9337 0.9332
2635.473242 0.9330 0.9330 0.9323 0.9313 0.9310
2639.825798 0.9310 0.9310 0.9310 0.9294 0.9269
2644.178355 0.9260 0.9260 0.9260 0.9260 0.9260
2648.530911 0.9260 0.9260 0.9260 0.9260 0.9260
2652.883468 0.9260 0.9260 0.9260 0.9260 0.9260
2657.236024 0.9260 0.9254 0.9244 0.9237 0.9232
2661.588581 0.9227 0.9222 0.9211 0.9196 0.9187
2665.941137 0.9182 0.9174 0.9164 0.9160 0.9160
2670.293694 0.9157 0.9152 0.9153 0.9158 0.9160
2674.646250 0.9160 0.9166 0.9176 0.9183 0.9188
2678.998806 0.9190 0.9190 0.9193 0.9198 0.9206
2683.351363 0.9216 0.9223 0.9228 0.9230 0.9230
2687.703919 0.9233 0.9238 0.9246 0.9255 0.9268
2692.056476 0.9283 0.9293 0.9298 0.9303 0.9308
2696.409032 0.9315 0.9325 0.9325 0.9315 0.9310
2700.761589 0.9310 0.9307 0.9302 0.9300 0.9300
2705.114145 0.9297 0.9292 0.9285 0.9275 0.9267
2709.466702 0.9262 0.9255 0.9245 0.9238 0.9233
2713.819258 0.9230 0.9230 0.9227 0.9222 0.9215
2718.171815 0.9205 0.9198 0.9193 0.9188 0.9183
2722.524371 0.9173 0.9158 0.9148 0.9143 0.9135
2726.876927 0.9125 0.9113 0.9098 0.9078 0.9053
2731.229484 0.9024 0.8989 0.8968 0.8963 0.8960
2735.582040 0.8960 0.8960 0.8960 0.8962 0.8967
2739.934597 0.8977 0.8992 0.9011 0.9036 0.9063
2744.287153 0.9093 0.9110 0.9110 0.9112 0.9117
2748.639710 0.9120 0.9120 0.9124 0.9134 0.9140
2752.992266 0.9140 0.9134 0.9119 0.9110 0.9110
2757.344823 0.9106 0.9096 0.9088 0.9083 0.9078
2761.697379 0.9073 0.9066 0.9056 0.9050 0.9050
2766.049935 0.9050 0.9050 0.9050 0.9050 0.9048
2770.402492 0.9043 0.9040 0.9040 0.9038 0.9033
2774.755048 0.9026 0.9016 0.9008 0.9003 0.8995
2779.107605 0.8980 0.8968 0.8963 0.8956 0.8946
2783.460161 0.8936 0.8926 0.8916 0.8906 0.8900
2787.812718 0.8900 0.8893 0.8873 0.8851 0.8826
2792.165274 0.8805 0.8790 0.8773 0.8753 0.8738
2796.517831 0.8733 0.8727 0.8717 0.8707 0.8697
2800.870387 0.8681 0.8650 0.8622 0.8597 0.8575
2805.222944 0.8560 0.8544 0.8524 0.8504 0.8484
2809.575500 0.8459 0.8424 0.8388 0.8348 0.8301
2813.928056 0.8236 0.8183 0.8158 0.8129 0.8089
2818.280613 0.8046 0.7996 0.7944 0.7889 0.7831
2822.633169 0.7767 0.7691 0.7586 0.7482 0.7383
2826.985726 0.7287 0.7202 0.7114 0.7014 0.6913
2831.338282 0.6808 0.6706 0.6611 0.6507 0.6372
2835.690839 0.6230 0.6064 0.5897 0.5727 0.5578
2840.043395 0.5488 0.5397 0.5302 0.5188 0.5014
2844.395952 0.4844 0.4689 0.4537 0.4392 0.4256
2848.748508 0.4146 0.4029 0.3884 0.3718 0.3474
2853.101065 0.3244 0.3068 0.2914 0.2839 0.2729
2857.453621 0.2489 0.2245 0.1981 0.1730 0.1530
2861.806177 0.1354 0.1274 0.1209 0.1204 0.1201
2866.158734 0.1206 0.1223 0.1292 0.1365 0.1450
2870.511290 0.1529 0.1579 0.1607 0.1537 0.1472
2874.863847 0.1427 0.1378 0.1308 0.1240 0.1180
2879.216403 0.1130 0.1130 0.1182 0.1516 0.1818
2883.568960 0.1938 0.2069 0.2268 0.2479 0.2764
2887.921516 0.3013 0.3039 0.3061 0.3071 0.3077
2892.274073 0.3057 0.3030 0.2955 0.2887 0.2867
2896.626629 0.2841 0.2766 0.2685 0.2561 0.2437
2900.979185 0.2322 0.2208 0.2099 0.1977 0.1753
2905.331742 0.1548 0.1528 0.1506 0.1471 0.1432
2909.684298 0.1357 0.1282 0.1202 0.1126 0.1086
2914.036855 0.1046 0.1001 0.0953 0.0868 0.0783
2918.389411 0.0693 0.0603 0.0509 0.0417 0.0367
2922.741968 0.0317 0.0261 0.0208 0.0183 0.0159
2927.094524 0.0139 0.0119 0.0109 0.0100 0.0095
2931.447081 0.0090 0.0090 0.0090 0.0090 0.0090
2935.799637 0.0095 0.0100 0.0100 0.0100 0.0115
2940.152194 0.0131 0.0161 0.0193 0.0268 0.0342
2944.504750 0.0402 0.0462 0.0537 0.0612 0.0702
2948.857306 0.0792 0.0912 0.1030 0.1030 0.1030
2953.209863 0.1010 0.0990 0.0915 0.0840 0.0761
2957.562419 0.0681 0.0576 0.0470 0.0390 0.0310
2961.914976 0.0236 0.0161 0.0155 0.0150 0.0150
2966.267532 0.0150 0.0155 0.0160 0.0165 0.0170
2970.620089 0.0180 0.0190 0.0243 0.0298 0.0372
2974.972645 0.0446 0.0507 0.0568 0.0791 0.1021
2979.325202 0.1135 0.1245 0.1336 0.1425 0.1487
2983.677758 0.1547 0.1564 0.1579 0.1622 0.1667
2988.030315 0.1907 0.2161 0.2332 0.2497 0.2597
2992.382871 0.2692 0.3133 0.3606 0.3779 0.3928
2996.735427 0.4133 0.4343 0.4406 0.4456 0.4487
3001.087984 0.4517 0.4547 0.4577 0.4598 0.4618
3005.440540 0.4642 0.4667 0.4697 0.4727 0.4761
3009.793097 0.4796 0.4937 0.5093 0.5328 0.5572
3014.145653 0.5635 0.5675 0.5741 0.5811 0.5995
3018.498210 0.6194 0.6415 0.6640 0.6717 0.6772
3022.850766 0.6900 0.7039 0.7264 0.7504 0.7574
3027.203323 0.7614 0.7662 0.7713 0.7775 0.7840
3031.555879 0.7892 0.7942 0.7984 0.8024 0.8055
3035.908435 0.8085 0.8098 0.8108 0.8118 0.8128
3040.260992 0.8130 0.8130 0.8130 0.8130 0.8130
3044.613548 0.8130 0.8122 0.8112 0.8110 0.8110
3048.966105 0.8106 0.8101 0.8084 0.8064 0.8044
3053.318661 0.8024 0.8004 0.7984 0.7960 0.7935
3057.671218 0.7914 0.7894 0.7855 0.7810 0.7734
3062.023774 0.7650 0.7514 0.7363 0.7209 0.7054
3066.376331 0.6950 0.6860 0.6759 0.6654 0.6488
3070.728887 0.6304 0.6165 0.6040 0.5976 0.5931
3075.081444 0.5909 0.5894 0.5875 0.5855 0.5758
3079.434000 0.5633 0.5559 0.5504 0.5449 0.5394
3083.786556 0.5195 0.4946 0.4656 0.4352 0.4234
3088.139113 0.4184 0.4170 0.4170 0.4238 0.4333
3092.491669 0.4506 0.4710 0.4901 0.5085 0.5354
3096.844226 0.5658 0.5933 0.6194 0.6401 0.6586
3101.196782 0.6862 0.7176 0.7486 0.7795 0.7928
3105.549339 0.7983 0.8117 0.8286 0.8384 0.8449
3109.901895 0.8500 0.8545 0.8610 0.8685 0.8743
3114.254452 0.8793 0.8837 0.8877 0.8893 0.8898
3118.607008 0.8910 0.8925 0.8940 0.8955 0.8973
3122.959565 0.8993 0.9010 0.9025 0.9036 0.9046
3127.312121 0.9056 0.9066 0.9076 0.9086 0.9096
3131.664677 0.9106 0.9119 0.9135 0.9143 0.9148
3136.017234 0.9150 0.9150 0.9153 0.9158 0.9166
3140.369790 0.9176 0.9180 0.9180 0.9180 0.9180
3144.722347 0.9180 0.9180 0.9183 0.9188 0.9193
3149.074903 0.9198 0.9197 0.9192 0.9193 0.9198
3153.427460 0.9200 0.9200 0.9200 0.9200 0.9200
3157.780016 0.9200 0.9206 0.9216 0.9220 0.9220
3162.132573 0.9220 0.9220 0.9220 0.9220 0.9220
3166.485129 0.9220 0.9223 0.9228 0.9230 0.9230
3170.837685 0.9233 0.9238 0.9246 0.9255 0.9263
3175.190242 0.9268 0.9275 0.9285 0.9293 0.9298
3179.542798 0.9300 0.9300 0.9300 0.9300 0.9303
3183.895355 0.9308 0.9310 0.9310 0.9310 0.9310
3188.247911 0.9310 0.9310 0.9310 0.9310 0.9310
3192.600468 0.9310 0.9310 0.9310 0.9315 0.9325
3196.953024 0.9330 0.9330 0.9330 0.9330 0.9332
3201.305581 0.9337 0.9340 0.9340 0.9340 0.9340
3205.658137 0.9340 0.9340 0.9340 0.9340 0.9340
3210.010694 0.9340 0.9342 0.9347 0.9355 0.9365
3214.363250 0.9370 0.9370 0.9370 0.9370 0.9370
3218.715806 0.9370 0.9370 0.9370 0.9372 0.9377
3223.068363 0.9380 0.9380 0.9380 0.9380 0.9380
3227.420919 0.9380 0.9380 0.9380 0.9380 0.9380
3231.773476 0.9382 0.9387 0.9390 0.9390 0.9394
3236.126032 0.9404 0.9410 0.9410 0.9412 0.9417
3240.478589 0.9420 0.9420 0.9424 0.9434 0.9442
3244.831145 0.9447 0.9450 0.9450 0.9450 0.9450
3249.183702 0.9450 0.9450 0.9450 0.9450 0.9448
3253.536258 0.9443 0.9440 0.9440 0.9440 0.9440
3257.888815 0.9440 0.9440 0.9440 0.9440 0.9440
3262.241371 0.9440 0.9440 0.9440 0.9440 0.9440
3266.593927 0.9437 0.9427 0.9420 0.9420 0.9420
3270.946484 0.9420 0.9420 0.9420 0.9420 0.9420
3275.299040 0.9420 0.9420 0.9423 0.9433 0.9440
3279.651597 0.9440 0.9442 0.9447 0.9450 0.9450
3284.004153 0.9450 0.9450 0.9450 0.9450 0.9450
3288.356710 0.9450 0.9450 0.9450 0.9450 0.9450
3292.709266 0.9450 0.9450 0.9450 0.9450 0.9450
3297.061823 0.9450 0.9450 0.9450 0.9450 0.9450
3301.414379 0.9450 0.9450 0.9450 0.9450 0.9450
3305.766935 0.9450 0.9449 0.9444 0.9440 0.9440
3310.119492 0.9437 0.9427 0.9420 0.9420 0.9420
3314.472048 0.9420 0.9420 0.9420 0.9420 0.9420
3318.824605 0.9420 0.9420 0.9420 0.9420 0.9420
3323.177161 0.9420 0.9420 0.9420 0.9420 0.9420
3327.529718 0.9420 0.9420 0.9419 0.9414 0.9410
3331.882274 0.9410 0.9410 0.9410 0.9410 0.9410
3336.234831 0.9410 0.9410 0.9410 0.9410 0.9410
3340.587387 0.9410 0.9410 0.9410 0.9410 0.9410
3344.939944 0.9408 0.9398 0.9390 0.9390 0.9390
3349.292500 0.9390 0.9390 0.9390 0.9390 0.9390
3353.645056 0.9390 0.9390 0.9390 0.9390 0.9390
3357.997613 0.9390 0.9390 0.9390 0.9389 0.9384
3362.350169 0.9380 0.9380 0.9380 0.9380 0.9380
3366.702726 0.9380 0.9380 0.9380 0.9380 0.9380
3371.055282 0.9380 0.9380 0.9380 0.9380 0.9380
3375.407839 0.9380 0.9380 0.9380 0.9380 0.9380
3379.760395 0.9380 0.9380 0.9379 0.9374 0.9370
3384.112952 0.9370 0.9370 0.9370 0.9370 0.9370
3388.465508 0.9370 0.9370 0.9370 0.9370 0.9370
3392.818065 0.9370 0.9370 0.9375 0.9380 0.9380
3397.170621 0.9380 0.9380 0.9380 0.9380 0.9380
3401.523177 0.9380 0.9380 0.9380 0.9380 0.9380
3405.875734 0.9380 0.9380 0.9380 0.9380 0.9380
3410.228290 0.9380 0.9380 0.9385 0.9390 0.9390
3414.580847 0.9390 0.9390 0.9390 0.9390 0.9390
3418.933403 0.9390 0.9390 0.9385 0.9380 0.9380
3423.285960 0.9380 0.9380 0.9380 0.9380 0.9380
3427.638516 0.9380 0.9380 0.9380 0.9380 0.9380
3431.991073 0.9380 0.9380 0.9380 0.9380 0.9380
3436.343629 0.9385 0.9390 0.9390 0.9390 0.9390
3440.696185 0.9390 0.9400 0.9410 0.9410 0.9410
3445.048742 0.9415 0.9420 0.9420 0.9420 0.9430
3449.401298 0.9440 0.9440 0.9440 0.9440 0.9440
3453.753855 0.9440 0.9440 0.9440 0.9440 0.9440
3458.106411 0.9440 0.9440 0.9440 0.9440 0.9440
3462.458968 0.9440 0.9440 0.9440 0.9440 0.9440
3466.811524 0.9440 0.9440 0.9440 0.9440 0.9440
3471.164081 0.9440 0.9440 0.9445 0.9450 0.9455
3475.516637 0.9460 0.9460 0.9460 0.9460 0.9460
3479.869194 0.9460 0.9460 0.9469 0.9479 0.9480
3484.221750 0.9480 0.9480 0.9480 0.9484 0.9489
3488.574306 0.9490 0.9490 0.9490 0.9490 0.9494
3492.926863 0.9499 0.9500 0.9500 0.9509 0.9519
3497.279419 0.9520 0.9520 0.9520 0.9520 0.9520
3501.631976 0.9520 0.9520 0.9520 0.9524 0.9529
3505.984532 0.9530 0.9530 0.9530 0.9530 0.9534
3510.337089 0.9539 0.9540 0.9540 0.9540 0.9540
3514.689645 0.9548 0.9558 0.9560 0.9560 0.9560
3519.042202 0.9560 0.9560 0.9560 0.9560 0.9560
3523.394758 0.9564 0.9569 0.9570 0.9570 0.9570
3527.747315 0.9570 0.9570 0.9570 0.9570 0.9570
3532.099871 0.9570 0.9570 0.9570 0.9570 0.9570
3536.452427 0.9570 0.9570 0.9570 0.9570 0.9570
3540.804984 0.9578 0.9588 0.9590 0.9590 0.9594
3545.157540 0.9599 0.9600 0.9600 0.9604 0.9609
3549.510097 0.9610 0.9610 0.9610 0.9610 0.9610
3553.862653 0.9610 0.9610 0.9610 0.9610 0.9610
3558.215210 0.9617 0.9627 0.9630 0.9630 0.9630
3562.567766 0.9630 0.9634 0.9639 0.9644 0.9649
3566.920323 0.9650 0.9650 0.9657 0.9667 0.9670
3571.272879 0.9670 0.9670 0.9670 0.9670 0.9670
3575.625435 0.9670 0.9670 0.9663 0.9653 0.9650
3579.977992 0.9650 0.9647 0.9642 0.9637 0.9632
3584.330548 0.9630 0.9630 0.9630 0.9630 0.9623
3588.683105 0.9613 0.9610 0.9610 0.9617 0.9627
3593.035661 0.9637 0.9647 0.9660 0.9675 0.9683
3597.388218 0.9688 0.9690 0.9690 0.9697 0.9707
3601.740774 0.9710 0.9710 0.9710 0.9710 0.9710
3606.093331 0.9710 0.9710 0.9710 0.9710 0.9710
3610.445887 0.9710 0.9710 0.9704 0.9694 0.9690
3614.798444 0.9690 0.9690 0.9690 0.9690 0.9690
3619.151000 0.9690 0.9690 0.9690 0.9690 0.9690
3623.503556 0.9690 0.9690 0.9690 0.9690 0.9690
3627.856113 0.9690 0.9690 0.9690 0.9690 0.9690
3632.208669 0.9690 0.9690 0.9690 0.9690 0.9690
3636.561226 0.9690 0.9690 0.9690 0.9690 0.9690
3640.913782 0.9690 0.9696 0.9706 0.9710 0.9710
3645.266339 0.9710 0.9710 0.9710 0.9710 0.9710
3649.618895 0.9710 0.9713 0.9718 0.9720 0.9720
3653.971452 0.9720 0.9720 0.9720 0.9720 0.9720
3658.324008 0.9720 0.9720 0.9720 0.9725 0.9735
3662.676565 0.9740 0.9740 0.9740 0.9740 0.9740
3667.029121 0.9740 0.9740 0.9740 0.9740 0.9740
3671.381677 0.9735 0.9725 0.9720 0.9720 0.9725
3675.734234 0.9735 0.9740 0.9740 0.9740 0.9740
3680.086790 0.9740 0.9740 0.9735 0.9725 0.9720
3684.439347 0.9720 0.9720 0.9720 0.9718 0.9713
3688.791903 0.9710 0.9710 0.9710 0.9710 0.9705
3693.144460 0.9695 0.9690 0.9690 0.9688 0.9683
3697.497016 0.9678 0.9673 0.9670 0.9670 0.9666
3701.849573 0.9656 0.9650 0.9650 0.9654 0.9664
3706.202129 0.9672 0.9677 0.9680 0.9680 0.9682
3710.554685 0.9687 0.9694 0.9704 0.9716 0.9731
3714.907242 0.9742 0.9747 0.9750 0.9750 0.9752
3719.259798 0.9757 0.9760 0.9760 0.9760 0.9760
3723.612355 0.9760 0.9760 0.9760 0.9760 0.9760
3727.964911 0.9760 0.9760 0.9760 0.9764 0.9774
3732.317468 0.9780 0.9780 0.9780 0.9780 0.9780
3736.670024 0.9780 0.9780 0.9780 0.9780 0.9780
3741.022581 0.9780 0.9780 0.9780 0.9780 0.9780
3745.375137 0.9780 0.9780 0.9780 0.9780 0.9780
3749.727694 0.9780 0.9780 0.9780 0.9780 0.9780
3754.080250 0.9780 0.9780 0.9780 0.9780 0.9780
3758.432806 0.9777 0.9767 0.9760 0.9760 0.9760
3762.785363 0.9760 0.9760 0.9760 0.9760 0.9760
3767.137919 0.9760 0.9760 0.9758 0.9753 0.9750
3771.490476 0.9750 0.9750 0.9750 0.9751 0.9756
3775.843032 0.9760 0.9760 0.9760 0.9760 0.9760
3780.195589 0.9760 0.9763 0.9773 0.9780 0.9780
3784.548145 0.9780 0.9780 0.9780 0.9780 0.9780
3788.900702 0.9780 0.9780 0.9780 0.9780 0.9780
3793.253258 0.9780 0.9780 0.9778 0.9767 0.9759
3797.605815 0.9754 0.9750 0.9750
##END=
