##TITLE=TETRAMETHYL TIN
##JCAMP-DX=4.24
##DATA TYPE=INFRARED SPECTRUM
##CLASS=COBLENTZ
##ORIGIN=DOW CHEMICAL COMPANY
##OWNER=COBLENTZ SOCIETY
Collection (C) 2018 copyright by the U.S. Secretary of Commerce
on behalf of the United States of America. All rights reserved.
##DATE=1966/07/11
##NAMES=tetramethylstannane
##CAS REGISTRY NO=594-27-4
##MOLFORM=C4 H12 Sn
##BP=78 C
##SOURCE REFERENCE=COBLENTZ NO. 6792
##$NIST SOURCE=COBLENTZ
##$NIST IMAGE=cob6792
##SPECTROMETER/DATA SYSTEM=DOW KBr FOREPRISM-GRATING
##INSTRUMENT PARAMETERS=GRATING BLAZED AT 3.5, 12.0, 20.0 MICRONS AND CHANGED AT 5.0, 7.5, 14.9 MICRONS
##STATE=SOLUTION (10% IN CCl4 FOR 3800-1330 CM^-^1, 10% IN CS2 FOR 1330-400 CM^-^1)
##PATH LENGTH=0.011 CM, 0.011 CM
$$SPECTRAL CONTAMINATION DUE TO AN UNKNOWN AROUND 1030, 1070, 670, CCl4 AROUND 1550, AND CS2 AROUND 855 CM^-^1
##SAMPLING PROCEDURE=TRANSMISSION
##RESOLUTION=4
##DATA PROCESSING=DIGITIZED BY NIST FROM HARD COPY (FROM TWO SEGMENTS)
##XUNITS=1/CM
##YUNITS=TRANSMITTANCE
##XFACTOR=1.000000
##YFACTOR=1
##DELTAX=0.881059
##FIRSTX=380.617
##LASTX=3800.01
##FIRSTY=0.253
##MAXX=3800.01
##MINX=380.617
##MAXY=1.006
##MINY=0.00400321
##NPOINTS=3882
##XYDATA=(X++(Y..Y))
380.617000 0.2530 0.2540 0.2540 0.2560 0.2570
385.022297 0.2570 0.2570 0.2590 0.2590 0.2600
389.427595 0.2610 0.2640 0.2650 0.2670 0.2710
393.832892 0.2720 0.2750 0.2810 0.2860 0.2930
398.238189 0.3100 0.3250 0.3400 0.3550 0.3690
402.643487 0.3999 0.4160 0.4339 0.4659 0.5018
407.048784 0.5040 0.5050 0.5240 0.5480 0.5840
411.454081 0.6159 0.6439 0.6699 0.7069 0.7249
415.859379 0.7460 0.7680 0.7810 0.7920 0.7950
420.264676 0.7970 0.8030 0.8130 0.8180 0.8220
424.669973 0.8260 0.8330 0.8360 0.8400 0.8440
429.075271 0.8510 0.8530 0.8540 0.8600 0.8670
433.480568 0.8690 0.8730 0.8750 0.8790 0.8820
437.885865 0.8860 0.8910 0.8930 0.8930 0.8960
442.291162 0.8970 0.9030 0.9050 0.9070 0.9120
446.696460 0.9140 0.9140 0.9150 0.9160 0.9180
451.101757 0.9190 0.9220 0.9260 0.9300 0.9330
455.507054 0.9330 0.9340 0.9340 0.9340 0.9360
459.912352 0.9370 0.9390 0.9400 0.9410 0.9430
464.317649 0.9440 0.9440 0.9450 0.9470 0.9470
468.722946 0.9480 0.9500 0.9500 0.9510 0.9520
473.128244 0.9540 0.9550 0.9570 0.9570 0.9570
477.533541 0.9570 0.9570 0.9570 0.9570 0.9550
481.938838 0.9540 0.9520 0.9510 0.9510 0.9510
486.344136 0.9500 0.9500 0.9500 0.9480 0.9470
490.749433 0.9470 0.9390 0.9330 0.9300 0.9290
495.154730 0.9260 0.9230 0.9210 0.9160 0.9140
499.560028 0.9120 0.9080 0.9050 0.9000 0.8930
503.965325 0.8870 0.8790 0.8750 0.8690 0.8620
508.370622 0.8530 0.8390 0.8330 0.8041 0.7781
512.775920 0.7470 0.7040 0.6880 0.6700 0.6231
517.181217 0.5581 0.4732 0.3872 0.2136 0.1712
521.586514 0.1300 0.1100 0.0900 0.0301 0.0180
525.991812 0.0080 0.0050 0.0040 0.0050 0.0080
530.397109 0.0371 0.1351 0.2530 0.4089 0.4590
534.802406 0.5079 0.5689 0.6259 0.7018 0.7349
539.207704 0.7590 0.7920 0.8130 0.8360 0.8530
543.613001 0.8650 0.8750 0.8850 0.8960 0.9070
548.018298 0.9150 0.9250 0.9320 0.9360 0.9400
552.423596 0.9450 0.9500 0.9550 0.9570 0.9570
556.828893 0.9580 0.9590 0.9610 0.9630 0.9650
561.234190 0.9680 0.9700 0.9750 0.9760 0.9770
565.639487 0.9770 0.9790 0.9790 0.9790 0.9800
570.044785 0.9800 0.9810 0.9830 0.9840 0.9840
574.450082 0.9840 0.9860 0.9860 0.9870 0.9870
578.855379 0.9870 0.9870 0.9870 0.9870 0.9880
583.260677 0.9880 0.9880 0.9880 0.9880 0.9900
587.665974 0.9900 0.9900 0.9910 0.9910 0.9910
592.071271 0.9910 0.9910 0.9910 0.9910 0.9910
596.476569 0.9910 0.9910 0.9910 0.9910 0.9910
600.881866 0.9910 0.9930 0.9930 0.9930 0.9930
605.287163 0.9930 0.9930 0.9930 0.9940 0.9940
609.692461 0.9940 0.9930 0.9930 0.9930 0.9930
614.097758 0.9910 0.9910 0.9880 0.9870 0.9870
618.503055 0.9870 0.9860 0.9840 0.9830 0.9830
622.908353 0.9810 0.9800 0.9800 0.9790 0.9770
627.313650 0.9770 0.9770 0.9750 0.9730 0.9730
631.718947 0.9730 0.9680 0.9630 0.9610 0.9590
636.124245 0.9580 0.9550 0.9540 0.9520 0.9500
640.529542 0.9500 0.9450 0.9410 0.9390 0.9360
644.934839 0.9360 0.9340 0.9340 0.9320 0.9250
649.340137 0.9220 0.9210 0.9190 0.9190 0.9180
653.745434 0.9160 0.9160 0.9150 0.9150 0.9140
658.150731 0.9140 0.9120 0.9120 0.9110 0.9110
662.556029 0.9110 0.9090 0.9080 0.9050 0.9010
666.961326 0.8960 0.8930 0.8910 0.8850 0.8551
671.366623 0.8080 0.7680 0.7200 0.7240 0.7520
675.771920 0.7770 0.8059 0.8439 0.8689 0.8899
680.177218 0.8980 0.9030 0.9040 0.9050 0.9050
684.582515 0.9070 0.9050 0.9050 0.9050 0.9050
688.987812 0.9040 0.9030 0.9010 0.9000 0.8980
693.393110 0.8960 0.8940 0.8940 0.8930 0.8910
697.798407 0.8900 0.8870 0.8870 0.8830 0.8820
702.203704 0.8790 0.8760 0.8730 0.8710 0.8680
706.609002 0.8650 0.8620 0.8600 0.8580 0.8540
711.014299 0.8470 0.8430 0.8390 0.8350 0.8320
715.419596 0.8280 0.8210 0.8140 0.8100 0.7990
719.824894 0.7960 0.7830 0.7750 0.7601 0.7451
724.230191 0.7350 0.7250 0.7160 0.7060 0.7020
728.635488 0.6960 0.6860 0.6740 0.6630 0.6490
733.040786 0.6370 0.6240 0.6120 0.6020 0.5910
737.446083 0.5780 0.5670 0.5550 0.5401 0.5231
741.851380 0.5080 0.4950 0.4800 0.4630 0.4430
746.256678 0.4190 0.4040 0.3870 0.3710 0.3281
750.661975 0.3080 0.2890 0.2700 0.2500 0.2310
755.067272 0.2110 0.1930 0.1770 0.1551 0.1231
759.472570 0.1090 0.0980 0.0870 0.0660 0.0490
763.877867 0.0370 0.0310 0.0300 0.0300 0.0300
768.283164 0.0310 0.0360 0.0410 0.0470 0.0540
772.688462 0.0600 0.0670 0.0730 0.0830 0.1049
777.093759 0.1160 0.1300 0.1420 0.1570 0.1710
781.499056 0.1880 0.2030 0.2200 0.2359 0.2609
785.904354 0.2850 0.3060 0.3260 0.3440 0.3620
790.309651 0.3790 0.4109 0.4250 0.4390 0.4520
794.714948 0.4650 0.4770 0.4880 0.5010 0.5120
799.120245 0.5240 0.5360 0.5480 0.5590 0.5720
803.525543 0.5830 0.5920 0.6010 0.6090 0.6170
807.930840 0.6240 0.6310 0.6380 0.6450 0.6520
812.336137 0.6570 0.6640 0.6710 0.6780 0.6840
816.741435 0.6890 0.7030 0.7100 0.7170 0.7270
821.146732 0.7380 0.7490 0.7630 0.7670 0.7720
825.552029 0.7780 0.7850 0.7920 0.7990 0.8070
829.957327 0.8140 0.8190 0.8290 0.8330 0.8350
834.362624 0.8350 0.8350 0.8370 0.8390 0.8390
838.767921 0.8400 0.8390 0.8390 0.8370 0.8360
843.173219 0.8350 0.8330 0.8320 0.8310 0.8220
847.578516 0.8150 0.8140 0.8110 0.8030 0.7990
851.983813 0.7920 0.7880 0.7880 0.7890 0.7900
856.389111 0.7920 0.7930 0.7960 0.7990 0.8030
860.794408 0.8060 0.8080 0.8140 0.8190 0.8250
865.199705 0.8310 0.8330 0.8350 0.8400 0.8440
869.605003 0.8500 0.8530 0.8570 0.8610 0.8670
874.010300 0.8690 0.8720 0.8730 0.8760 0.8800
878.415597 0.8830 0.8900 0.8910 0.8970 0.9050
882.820895 0.9140 0.9150 0.9160 0.9220 0.9270
887.226192 0.9330 0.9360 0.9370 0.9370 0.9430
891.631489 0.9470 0.9480 0.9510 0.9540 0.9540
896.036787 0.9540 0.9540 0.9540 0.9540 0.9540
900.442084 0.9540 0.9540 0.9540 0.9540 0.9540
904.847381 0.9540 0.9540 0.9550 0.9550 0.9550
909.252678 0.9550 0.9550 0.9570 0.9570 0.9590
913.657976 0.9590 0.9620 0.9620 0.9630 0.9630
918.063273 0.9650 0.9660 0.9680 0.9690 0.9700
922.468570 0.9730 0.9750 0.9760 0.9770 0.9770
926.873868 0.9770 0.9770 0.9770 0.9790 0.9790
931.279165 0.9800 0.9800 0.9800 0.9800 0.9800
935.684462 0.9800 0.9800 0.9800 0.9800 0.9810
940.089760 0.9830 0.9830 0.9840 0.9840 0.9860
944.495057 0.9860 0.9860 0.9870 0.9870 0.9870
948.900354 0.9870 0.9870 0.9870 0.9870 0.9870
953.305652 0.9870 0.9870 0.9870 0.9870 0.9880
957.710949 0.9880 0.9880 0.9880 0.9880 0.9880
962.116246 0.9880 0.9880 0.9880 0.9880 0.9880
966.521544 0.9870 0.9870 0.9860 0.9860 0.9860
970.926841 0.9860 0.9880 0.9880 0.9870 0.9870
975.332138 0.9860 0.9860 0.9860 0.9860 0.9860
979.737436 0.9860 0.9860 0.9860 0.9860 0.9860
984.142733 0.9860 0.9860 0.9840 0.9830 0.9830
988.548030 0.9810 0.9810 0.9810 0.9810 0.9810
992.953328 0.9810 0.9800 0.9800 0.9790 0.9790
997.358625 0.9790 0.9790 0.9770 0.9770 0.9770
1001.763922 0.9760 0.9760 0.9770 0.9770 0.9760
1006.169220 0.9760 0.9760 0.9760 0.9760 0.9770
1010.574517 0.9770 0.9760 0.9760 0.9750 0.9750
1014.979814 0.9730 0.9720 0.9720 0.9700 0.9690
1019.385112 0.9680 0.9680 0.9680 0.9660 0.9630
1023.790409 0.9610 0.9580 0.9570 0.9550 0.9550
1028.195706 0.9540 0.9540 0.9520 0.9520 0.9510
1032.601003 0.9470 0.9470 0.9470 0.9470 0.9480
1037.006301 0.9480 0.9500 0.9500 0.9540 0.9520
1041.411598 0.9550 0.9550 0.9570 0.9570 0.9570
1045.816895 0.9570 0.9570 0.9570 0.9570 0.9570
1050.222193 0.9570 0.9550 0.9550 0.9540 0.9540
1054.627490 0.9520 0.9520 0.9520 0.9510 0.9500
1059.032787 0.9470 0.9450 0.9450 0.9440 0.9340
1063.438085 0.9320 0.9300 0.9230 0.9210 0.9140
1067.843382 0.9070 0.8980 0.8960 0.8930 0.8940
1072.248679 0.8970 0.9030 0.9080 0.9150 0.9300
1076.653977 0.9340 0.9410 0.9450 0.9500 0.9520
1081.059274 0.9540 0.9570 0.9610 0.9620 0.9650
1085.464571 0.9660 0.9680 0.9680 0.9690 0.9700
1089.869869 0.9700 0.9720 0.9720 0.9720 0.9720
1094.275166 0.9720 0.9720 0.9720 0.9720 0.9720
1098.680463 0.9730 0.9730 0.9750 0.9750 0.9750
1103.085761 0.9760 0.9760 0.9760 0.9770 0.9770
1107.491058 0.9770 0.9770 0.9770 0.9770 0.9770
1111.896355 0.9770 0.9770 0.9770 0.9770 0.9770
1116.301653 0.9770 0.9770 0.9760 0.9760 0.9760
1120.706950 0.9760 0.9760 0.9760 0.9750 0.9730
1125.112247 0.9720 0.9720 0.9720 0.9720 0.9720
1129.517545 0.9720 0.9720 0.9730 0.9730 0.9730
1133.922842 0.9730 0.9730 0.9730 0.9730 0.9730
1138.328139 0.9730 0.9720 0.9700 0.9700 0.9700
1142.733437 0.9680 0.9660 0.9660 0.9660 0.9660
1147.138734 0.9660 0.9650 0.9650 0.9630 0.9630
1151.544031 0.9630 0.9630 0.9620 0.9620 0.9590
1155.949328 0.9580 0.9570 0.9570 0.9550 0.9550
1160.354626 0.9550 0.9550 0.9540 0.9540 0.9540
1164.759923 0.9540 0.9500 0.9450 0.9410 0.9390
1169.165220 0.9340 0.9320 0.9290 0.9250 0.9160
1173.570518 0.9120 0.9110 0.9040 0.9000 0.8940
1177.975815 0.8910 0.8800 0.8750 0.8730 0.8640
1182.381112 0.8060 0.7960 0.7749 0.7340 0.7060
1186.786410 0.6780 0.5771 0.4981 0.4970 0.5898
1191.191707 0.6342 0.7071 0.7451 0.8140 0.8210
1195.597004 0.8280 0.8290 0.8320 0.8350 0.8350
1200.002302 0.8400 0.8430 0.8500 0.8550 0.8650
1204.407599 0.8720 0.8750 0.8800 0.8850 0.8910
1208.812896 0.8910 0.8940 0.8970 0.9000 0.9030
1213.218194 0.9080 0.9110 0.9120 0.9120 0.9150
1217.623491 0.9160 0.9180 0.9190 0.9210 0.9220
1222.028788 0.9250 0.9260 0.9270 0.9270 0.9270
1226.434086 0.9290 0.9290 0.9290 0.9300 0.9320
1230.839383 0.9320 0.9320 0.9330 0.9330 0.9330
1235.244680 0.9330 0.9320 0.9300 0.9300 0.9300
1239.649978 0.9300 0.9300 0.9320 0.9320 0.9330
1244.055275 0.9330 0.9330 0.9330 0.9330 0.9330
1248.460572 0.9330 0.9330 0.9340 0.9340 0.9340
1252.865870 0.9330 0.9330 0.9330 0.9330 0.9330
1257.271167 0.9330 0.9330 0.9330 0.9330 0.9330
1261.676464 0.9320 0.9320 0.9320 0.9320 0.9320
1266.081761 0.9320 0.9320 0.9300 0.9300 0.9300
1270.487059 0.9300 0.9300 0.9300 0.9300 0.9300
1274.892356 0.9290 0.9290 0.9270 0.9270 0.9270
1279.297653 0.9260 0.9260 0.9260 0.9260 0.9250
1283.702951 0.9230 0.9220 0.9220 0.9220 0.9220
1288.108248 0.9220 0.9220 0.9220 0.9210 0.9210
1292.513545 0.9190 0.9180 0.9180 0.9180 0.9160
1296.918843 0.9160 0.9160 0.9150 0.9150 0.9150
1301.324140 0.9140 0.9140 0.9140 0.9120 0.9120
1305.729437 0.9120 0.9110 0.9110 0.9110 0.9090
1310.134735 0.9070 0.9050 0.9040 0.9030 0.9030
1314.540032 0.9010 0.9010 0.9010 0.9010 0.9010
1318.945329 0.9010 0.9010 0.9000 0.8970 0.8970
1323.350627 0.8960 0.8940 0.8930 0.8930 0.8930
1327.755924 0.8930 0.8910 0.8910 0.8910 0.8910
1332.161221 0.8910 0.8910 0.8900 0.8900 0.8900
1336.566519 0.8890 0.8890 0.8890 0.8890 0.8870
1340.971816 0.8870 0.8870 0.8870 0.8870 0.8890
1345.377113 0.8890 0.8900 0.8900 0.8900 0.8900
1349.782411 0.8910 0.8910 0.8930 0.8930 0.8930
1354.187708 0.8960 0.8970 0.8980 0.8980 0.9010
1358.593005 0.9030 0.9040 0.9040 0.9070 0.9070
1362.998303 0.9080 0.9080 0.9090 0.9110 0.9110
1367.403600 0.9110 0.9110 0.9110 0.9110 0.9090
1371.808897 0.9080 0.9070 0.9050 0.9050 0.9050
1376.214195 0.9040 0.9040 0.9030 0.8980 0.8980
1380.619492 0.8970 0.8960 0.8930 0.8910 0.8910
1385.024789 0.8900 0.8890 0.8890 0.8850 0.8850
1389.430086 0.8830 0.8820 0.8800 0.8780 0.8750
1393.835384 0.8720 0.8710 0.8710 0.8710 0.8690
1398.240681 0.8680 0.8640 0.8610 0.8600 0.8580
1402.645978 0.8570 0.8540 0.8510 0.8510 0.8500
1407.051276 0.8490 0.8490 0.8470 0.8470 0.8460
1411.456573 0.8460 0.8460 0.8440 0.8440 0.8440
1415.861870 0.8440 0.8440 0.8440 0.8440 0.8440
1420.267168 0.8430 0.8430 0.8420 0.8400 0.8390
1424.672465 0.8370 0.8360 0.8350 0.8330 0.8350
1429.077762 0.8330 0.8330 0.8320 0.8320 0.8310
1433.483060 0.8260 0.8250 0.8240 0.8220 0.8210
1437.888357 0.8210 0.8180 0.8180 0.8170 0.8170
1442.293654 0.8150 0.8150 0.8140 0.8140 0.8140
1446.698952 0.8140 0.8150 0.8170 0.8180 0.8180
1451.104249 0.8190 0.8210 0.8220 0.8240 0.8260
1455.509546 0.8290 0.8290 0.8320 0.8330 0.8360
1459.914844 0.8370 0.8390 0.8400 0.8420 0.8430
1464.320141 0.8440 0.8460 0.8500 0.8510 0.8530
1468.725438 0.8530 0.8540 0.8550 0.8570 0.8570
1473.130736 0.8570 0.8570 0.8570 0.8580 0.8580
1477.536033 0.8580 0.8570 0.8550 0.8470 0.8330
1481.941330 0.8320 0.8330 0.8400 0.8440 0.8500
1486.346628 0.8500 0.8500 0.8490 0.8490 0.8490
1490.751925 0.8470 0.8470 0.8430 0.8390 0.8350
1495.157222 0.8320 0.8290 0.8240 0.8210 0.8190
1499.562519 0.8170 0.8130 0.8070 0.8010 0.7950
1503.967817 0.7890 0.7850 0.7790 0.7750 0.7680
1508.373114 0.7610 0.7570 0.7520 0.7430 0.7360
1512.778411 0.7310 0.7270 0.7240 0.7220 0.7100
1517.183709 0.7060 0.7040 0.7000 0.6950 0.6950
1521.589006 0.6890 0.6780 0.6770 0.6740 0.6730
1525.994303 0.6660 0.6620 0.6600 0.6590 0.6520
1530.399601 0.6480 0.6450 0.6370 0.6270 0.6230
1534.804898 0.6160 0.6050 0.6020 0.5910 0.5870
1539.210195 0.5760 0.5670 0.5470 0.5300 0.5220
1543.615493 0.5180 0.5110 0.5040 0.4950 0.4880
1548.020790 0.4830 0.4800 0.4790 0.4770 0.4770
1552.426087 0.4770 0.4790 0.4840 0.4860 0.4880
1556.831385 0.4900 0.4970 0.5010 0.5060 0.5130
1561.236682 0.5261 0.5440 0.5450 0.5560 0.5650
1565.641979 0.5740 0.5770 0.5900 0.6020 0.6120
1570.047277 0.6170 0.6230 0.6280 0.6350 0.6440
1574.452574 0.6450 0.6460 0.6490 0.6520 0.6530
1578.857871 0.6550 0.6560 0.6570 0.6590 0.6600
1583.263169 0.6620 0.6630 0.6640 0.6680 0.6710
1587.668466 0.6740 0.6750 0.6820 0.6890 0.7060
1592.073763 0.7130 0.7200 0.7270 0.7390 0.7430
1596.479061 0.7590 0.7670 0.7750 0.7790 0.7950
1600.884358 0.8080 0.8190 0.8310 0.8370 0.8460
1605.289655 0.8490 0.8530 0.8600 0.8690 0.8720
1609.694953 0.8750 0.8790 0.8850 0.8930 0.8940
1614.100250 0.8980 0.9000 0.9010 0.9040 0.9090
1618.505547 0.9110 0.9140 0.9160 0.9180 0.9210
1622.910844 0.9230 0.9250 0.9250 0.9260 0.9290
1627.316142 0.9290 0.9300 0.9300 0.9320 0.9330
1631.721439 0.9340 0.9360 0.9390 0.9390 0.9390
1636.126736 0.9390 0.9390 0.9400 0.9400 0.9400
1640.532034 0.9400 0.9410 0.9430 0.9440 0.9440
1644.937331 0.9440 0.9450 0.9450 0.9450 0.9450
1649.342628 0.9450 0.9450 0.9470 0.9470 0.9470
1653.747926 0.9470 0.9470 0.9480 0.9480 0.9500
1658.153223 0.9510 0.9520 0.9520 0.9520 0.9520
1662.558520 0.9520 0.9520 0.9520 0.9510 0.9510
1666.963818 0.9510 0.9510 0.9510 0.9520 0.9520
1671.369115 0.9520 0.9520 0.9540 0.9540 0.9540
1675.774412 0.9540 0.9540 0.9540 0.9520 0.9520
1680.179710 0.9510 0.9510 0.9480 0.9450 0.9430
1684.585007 0.9430 0.9410 0.9400 0.9340 0.9340
1688.990304 0.9320 0.9320 0.9260 0.9210 0.9120
1693.395602 0.9069 0.8940 0.8890 0.8870 0.8870
1697.800899 0.8890 0.8930 0.9010 0.9080 0.9150
1702.206196 0.9220 0.9260 0.9290 0.9320 0.9320
1706.611494 0.9320 0.9320 0.9300 0.9290 0.9260
1711.016791 0.9160 0.9110 0.9070 0.9010 0.8960
1715.422088 0.8940 0.8940 0.8960 0.8980 0.9050
1719.827386 0.9110 0.9160 0.9220 0.9270 0.9290
1724.232683 0.9300 0.9320 0.9320 0.9320 0.9330
1728.637980 0.9340 0.9370 0.9400 0.9430 0.9450
1733.043277 0.9500 0.9510 0.9510 0.9520 0.9540
1737.448575 0.9550 0.9570 0.9570 0.9570 0.9580
1741.853872 0.9580 0.9580 0.9580 0.9590 0.9590
1746.259169 0.9590 0.9590 0.9610 0.9610 0.9620
1750.664467 0.9620 0.9630 0.9630 0.9630 0.9630
1755.069764 0.9630 0.9630 0.9630 0.9630 0.9630
1759.475061 0.9630 0.9630 0.9630 0.9650 0.9650
1763.880359 0.9630 0.9630 0.9630 0.9630 0.9630
1768.285656 0.9620 0.9620 0.9620 0.9630 0.9630
1772.690953 0.9630 0.9630 0.9630 0.9630 0.9630
1777.096251 0.9630 0.9630 0.9630 0.9630 0.9630
1781.501548 0.9630 0.9630 0.9630 0.9650 0.9650
1785.906845 0.9630 0.9630 0.9630 0.9620 0.9620
1790.312143 0.9620 0.9620 0.9620 0.9610 0.9610
1794.717440 0.9610 0.9590 0.9590 0.9580 0.9580
1799.122737 0.9580 0.9570 0.9570 0.9550 0.9550
1803.528035 0.9550 0.9540 0.9540 0.9540 0.9540
1807.933332 0.9540 0.9540 0.9540 0.9540 0.9540
1812.338629 0.9540 0.9550 0.9550 0.9550 0.9550
1816.743927 0.9550 0.9550 0.9550 0.9550 0.9550
1821.149224 0.9550 0.9550 0.9550 0.9550 0.9550
1825.554521 0.9550 0.9550 0.9550 0.9550 0.9550
1829.959819 0.9550 0.9550 0.9570 0.9570 0.9550
1834.365116 0.9550 0.9550 0.9550 0.9550 0.9550
1838.770413 0.9550 0.9540 0.9540 0.9540 0.9540
1843.175711 0.9540 0.9540 0.9520 0.9520 0.9510
1847.581008 0.9510 0.9500 0.9500 0.9500 0.9500
1851.986305 0.9500 0.9500 0.9500 0.9500 0.9510
1856.391602 0.9520 0.9520 0.9520 0.9520 0.9540
1860.796900 0.9540 0.9540 0.9550 0.9550 0.9550
1865.202197 0.9550 0.9550 0.9550 0.9570 0.9550
1869.607494 0.9570 0.9570 0.9570 0.9570 0.9580
1874.012792 0.9580 0.9580 0.9580 0.9580 0.9590
1878.418089 0.9590 0.9590 0.9590 0.9590 0.9590
1882.823386 0.9590 0.9590 0.9590 0.9590 0.9590
1887.228684 0.9590 0.9590 0.9590 0.9590 0.9590
1891.633981 0.9590 0.9590 0.9610 0.9590 0.9590
1896.039278 0.9590 0.9610 0.9610 0.9610 0.9610
1900.444576 0.9610 0.9620 0.9620 0.9620 0.9620
1904.849873 0.9620 0.9620 0.9620 0.9630 0.9630
1909.255170 0.9630 0.9630 0.9630 0.9630 0.9630
1913.660468 0.9630 0.9630 0.9620 0.9620 0.9610
1918.065765 0.9610 0.9610 0.9610 0.9610 0.9610
1922.471062 0.9610 0.9610 0.9610 0.9610 0.9610
1926.876360 0.9610 0.9580 0.9580 0.9580 0.9580
1931.281657 0.9580 0.9580 0.9580 0.9570 0.9570
1935.686954 0.9570 0.9570 0.9570 0.9570 0.9550
1940.092252 0.9550 0.9540 0.9540 0.9540 0.9520
1944.497549 0.9520 0.9520 0.9510 0.9510 0.9510
1948.902846 0.9500 0.9500 0.9500 0.9510 0.9500
1953.308144 0.9500 0.9500 0.9500 0.9500 0.9500
1957.713441 0.9500 0.9500 0.9500 0.9500 0.9480
1962.118738 0.9480 0.9480 0.9480 0.9480 0.9480
1966.524035 0.9480 0.9480 0.9480 0.9470 0.9470
1970.929333 0.9470 0.9470 0.9470 0.9470 0.9470
1975.334630 0.9470 0.9470 0.9470 0.9450 0.9450
1979.739927 0.9450 0.9450 0.9450 0.9450 0.9450
1984.145225 0.9450 0.9440 0.9440 0.9440 0.9440
1988.550522 0.9440 0.9440 0.9440 0.9430 0.9430
1992.955819 0.9430 0.9430 0.9430 0.9430 0.9410
1997.361117 0.9410 0.9410 0.9410 0.9410 0.9410
2001.766414 0.9410 0.9405 0.9400 0.9400 0.9400
2006.171711 0.9400 0.9400 0.9400 0.9400 0.9400
2010.577009 0.9400 0.9400 0.9400 0.9395 0.9390
2014.982306 0.9390 0.9390 0.9390 0.9390 0.9390
2019.387603 0.9390 0.9390 0.9390 0.9390 0.9389
2023.792901 0.9379 0.9370 0.9370 0.9370 0.9370
2028.198198 0.9370 0.9370 0.9370 0.9370 0.9370
2032.603495 0.9365 0.9360 0.9360 0.9360 0.9360
2037.008793 0.9360 0.9360 0.9360 0.9360 0.9360
2041.414090 0.9360 0.9360 0.9360 0.9360 0.9360
2045.819387 0.9360 0.9360 0.9359 0.9349 0.9340
2050.224685 0.9340 0.9340 0.9340 0.9340 0.9340
2054.629982 0.9340 0.9340 0.9340 0.9340 0.9340
2059.035279 0.9340 0.9339 0.9334 0.9330 0.9330
2063.440577 0.9330 0.9330 0.9330 0.9330 0.9330
2067.845874 0.9330 0.9330 0.9330 0.9330 0.9330
2072.251171 0.9330 0.9330 0.9330 0.9330 0.9330
2076.656469 0.9330 0.9330 0.9330 0.9330 0.9330
2081.061766 0.9330 0.9330 0.9331 0.9336 0.9340
2085.467063 0.9340 0.9340 0.9340 0.9340 0.9340
2089.872360 0.9340 0.9340 0.9340 0.9340 0.9340
2094.277658 0.9340 0.9340 0.9340 0.9340 0.9340
2098.682955 0.9340 0.9340 0.9338 0.9328 0.9320
2103.088252 0.9320 0.9320 0.9320 0.9320 0.9320
2107.493550 0.9320 0.9320 0.9320 0.9320 0.9320
2111.898847 0.9320 0.9320 0.9320 0.9321 0.9326
2116.304144 0.9330 0.9330 0.9330 0.9330 0.9330
2120.709442 0.9330 0.9331 0.9337 0.9343 0.9353
2125.114739 0.9360 0.9360 0.9360 0.9360 0.9357
2129.520036 0.9347 0.9340 0.9340 0.9340 0.9340
2133.925334 0.9340 0.9340 0.9340 0.9340 0.9340
2138.330631 0.9340 0.9340 0.9340 0.9340 0.9340
2142.735928 0.9340 0.9340 0.9340 0.9340 0.9340
2147.141226 0.9340 0.9340 0.9340 0.9340 0.9340
2151.546523 0.9340 0.9340 0.9340 0.9340 0.9340
2155.951820 0.9340 0.9340 0.9340 0.9340 0.9340
2160.357118 0.9340 0.9340 0.9340 0.9340 0.9340
2164.762415 0.9340 0.9340 0.9340 0.9344 0.9354
2169.167712 0.9360 0.9360 0.9356 0.9346 0.9340
2173.573010 0.9340 0.9340 0.9340 0.9340 0.9340
2177.978307 0.9340 0.9340 0.9340 0.9340 0.9345
2182.383604 0.9355 0.9360 0.9360 0.9355 0.9345
2186.788902 0.9340 0.9340 0.9338 0.9333 0.9328
2191.194199 0.9323 0.9320 0.9320 0.9320 0.9320
2195.599496 0.9320 0.9320 0.9320 0.9320 0.9320
2200.004793 0.9320 0.9320 0.9320 0.9320 0.9320
2204.410091 0.9320 0.9320 0.9320 0.9320 0.9320
2208.815388 0.9320 0.9320 0.9320 0.9320 0.9320
2213.220685 0.9320 0.9320 0.9323 0.9328 0.9330
2217.625983 0.9330 0.9333 0.9338 0.9340 0.9340
2222.031280 0.9345 0.9355 0.9360 0.9360 0.9360
2226.436577 0.9360 0.9363 0.9368 0.9367 0.9362
2230.841875 0.9360 0.9360 0.9354 0.9344 0.9340
2235.247172 0.9340 0.9340 0.9340 0.9340 0.9340
2239.652469 0.9340 0.9340 0.9340 0.9340 0.9340
2244.057767 0.9340 0.9340 0.9340 0.9340 0.9340
2248.463064 0.9340 0.9340 0.9340 0.9340 0.9340
2252.868361 0.9340 0.9340 0.9340 0.9337 0.9332
2257.273659 0.9330 0.9330 0.9327 0.9322 0.9298
2261.678956 0.9263 0.9240 0.9225 0.9220 0.9220
2266.084253 0.9217 0.9212 0.9213 0.9218 0.9223
2270.489551 0.9228 0.9230 0.9230 0.9227 0.9222
2274.894848 0.9220 0.9220 0.9217 0.9212 0.9210
2279.300145 0.9210 0.9200 0.9184 0.9180 0.9180
2283.705443 0.9184 0.9189 0.9190 0.9190 0.9197
2288.110740 0.9207 0.9214 0.9219 0.9224 0.9229
2292.516037 0.9230 0.9230 0.9223 0.9213 0.9203
2296.921335 0.9193 0.9197 0.9208 0.9214 0.9219
2301.326632 0.9231 0.9246 0.9258 0.9268 0.9281
2305.731929 0.9296 0.9300 0.9300 0.9308 0.9318
2310.137227 0.9320 0.9320 0.9328 0.9338 0.9363
2314.542524 0.9393 0.9420 0.9445 0.9470 0.9495
2318.947821 0.9508 0.9518 0.9532 0.9547 0.9558
2323.353118 0.9568 0.9570 0.9570 0.9562 0.9552
2327.758416 0.9546 0.9541 0.9532 0.9522 0.9516
2332.163713 0.9511 0.9510 0.9510 0.9510 0.9510
2336.569010 0.9506 0.9501 0.9492 0.9482 0.9480
2340.974308 0.9480 0.9480 0.9480 0.9467 0.9452
2345.379605 0.9441 0.9431 0.9387 0.9337 0.9330
2349.784902 0.9330 0.9326 0.9321 0.9320 0.9320
2354.190200 0.9320 0.9320 0.9320 0.9320 0.9320
2358.595497 0.9320 0.9320 0.9320 0.9320 0.9320
2363.000794 0.9320 0.9320 0.9320 0.9320 0.9320
2367.406092 0.9320 0.9320 0.9320 0.9320 0.9320
2371.811389 0.9320 0.9320 0.9320 0.9320 0.9320
2376.216686 0.9320 0.9320 0.9320 0.9320 0.9320
2380.621984 0.9320 0.9320 0.9320 0.9320 0.9325
2385.027281 0.9330 0.9335 0.9340 0.9350 0.9360
2389.432578 0.9375 0.9390 0.9400 0.9410 0.9425
2393.837876 0.9440 0.9440 0.9440 0.9440 0.9440
2398.243173 0.9445 0.9450 0.9445 0.9440 0.9445
2402.648470 0.9450 0.9450 0.9450 0.9450 0.9450
2407.053768 0.9460 0.9470 0.9470 0.9470 0.9470
2411.459065 0.9470 0.9470 0.9470 0.9475 0.9480
2415.864362 0.9480 0.9480 0.9480 0.9480 0.9490
2420.269660 0.9500 0.9500 0.9500 0.9500 0.9500
2424.674957 0.9500 0.9500 0.9505 0.9510 0.9510
2429.080254 0.9510 0.9510 0.9510 0.9515 0.9520
2433.485552 0.9520 0.9520 0.9520 0.9520 0.9520
2437.890849 0.9520 0.9520 0.9520 0.9520 0.9520
2442.296146 0.9520 0.9520 0.9520 0.9520 0.9520
2446.701443 0.9520 0.9520 0.9520 0.9520 0.9520
2451.106741 0.9520 0.9520 0.9520 0.9520 0.9520
2455.512038 0.9520 0.9520 0.9520 0.9520 0.9520
2459.917335 0.9520 0.9520 0.9520 0.9520 0.9520
2464.322633 0.9520 0.9520 0.9520 0.9520 0.9520
2468.727930 0.9520 0.9520 0.9520 0.9520 0.9520
2473.133227 0.9520 0.9520 0.9520 0.9520 0.9520
2477.538525 0.9520 0.9520 0.9520 0.9520 0.9520
2481.943822 0.9520 0.9520 0.9520 0.9520 0.9520
2486.349119 0.9520 0.9520 0.9520 0.9520 0.9520
2490.754417 0.9520 0.9520 0.9522 0.9532 0.9540
2495.159714 0.9540 0.9540 0.9540 0.9540 0.9540
2499.565011 0.9541 0.9546 0.9550 0.9550 0.9550
2503.970309 0.9550 0.9550 0.9550 0.9550 0.9550
2508.375606 0.9550 0.9550 0.9550 0.9550 0.9550
2512.780903 0.9550 0.9549 0.9544 0.9540 0.9540
2517.186201 0.9540 0.9540 0.9540 0.9540 0.9540
2521.591498 0.9540 0.9540 0.9540 0.9537 0.9527
2525.996795 0.9520 0.9520 0.9520 0.9520 0.9520
2530.402093 0.9520 0.9520 0.9520 0.9520 0.9520
2534.807390 0.9520 0.9520 0.9520 0.9520 0.9520
2539.212687 0.9520 0.9520 0.9520 0.9523 0.9533
2543.617985 0.9540 0.9540 0.9540 0.9540 0.9536
2548.023282 0.9526 0.9520 0.9520 0.9520 0.9520
2552.428579 0.9520 0.9520 0.9520 0.9520 0.9520
2556.833876 0.9520 0.9520 0.9520 0.9520 0.9520
2561.239174 0.9520 0.9520 0.9520 0.9520 0.9520
2565.644471 0.9520 0.9520 0.9520 0.9520 0.9520
2570.049768 0.9520 0.9520 0.9520 0.9520 0.9520
2574.455066 0.9520 0.9520 0.9520 0.9520 0.9520
2578.860363 0.9520 0.9520 0.9520 0.9520 0.9520
2583.265660 0.9520 0.9520 0.9520 0.9520 0.9520
2587.670958 0.9520 0.9520 0.9520 0.9520 0.9520
2592.076255 0.9520 0.9520 0.9520 0.9520 0.9520
2596.481552 0.9520 0.9520 0.9520 0.9520 0.9520
2600.886850 0.9520 0.9520 0.9520 0.9520 0.9520
2605.292147 0.9525 0.9535 0.9540 0.9540 0.9543
2609.697444 0.9548 0.9547 0.9542 0.9540 0.9540
2614.102742 0.9540 0.9540 0.9540 0.9540 0.9540
2618.508039 0.9540 0.9540 0.9540 0.9540 0.9540
2622.913336 0.9540 0.9540 0.9540 0.9540 0.9540
2627.318634 0.9540 0.9540 0.9540 0.9540 0.9540
2631.723931 0.9540 0.9540 0.9540 0.9540 0.9540
2636.129228 0.9540 0.9540 0.9540 0.9540 0.9540
2640.534526 0.9540 0.9540 0.9540 0.9540 0.9540
2644.939823 0.9540 0.9540 0.9540 0.9540 0.9540
2649.345120 0.9540 0.9540 0.9540 0.9540 0.9540
2653.750418 0.9540 0.9540 0.9540 0.9540 0.9540
2658.155715 0.9540 0.9540 0.9540 0.9540 0.9540
2662.561012 0.9540 0.9540 0.9540 0.9540 0.9540
2666.966310 0.9540 0.9540 0.9540 0.9540 0.9540
2671.371607 0.9540 0.9540 0.9540 0.9543 0.9548
2675.776904 0.9550 0.9550 0.9550 0.9550 0.9550
2680.182201 0.9550 0.9550 0.9550 0.9550 0.9550
2684.587499 0.9550 0.9550 0.9546 0.9541 0.9540
2688.992796 0.9540 0.9540 0.9540 0.9540 0.9540
2693.398093 0.9540 0.9540 0.9540 0.9540 0.9540
2697.803391 0.9540 0.9540 0.9540 0.9540 0.9540
2702.208688 0.9540 0.9540 0.9540 0.9540 0.9540
2706.613985 0.9540 0.9540 0.9540 0.9540 0.9540
2711.019283 0.9540 0.9540 0.9532 0.9522 0.9520
2715.424580 0.9520 0.9516 0.9511 0.9510 0.9510
2719.829877 0.9506 0.9501 0.9500 0.9500 0.9492
2724.235175 0.9482 0.9480 0.9480 0.9476 0.9471
2728.640472 0.9470 0.9470 0.9462 0.9452 0.9450
2733.045769 0.9450 0.9446 0.9441 0.9440 0.9440
2737.451067 0.9436 0.9431 0.9430 0.9430 0.9430
2741.856364 0.9430 0.9421 0.9411 0.9406 0.9401
2746.261661 0.9396 0.9391 0.9377 0.9362 0.9360
2750.666959 0.9360 0.9347 0.9332 0.9330 0.9330
2755.072256 0.9326 0.9321 0.9320 0.9320 0.9320
2759.477553 0.9320 0.9320 0.9320 0.9311 0.9301
2763.882851 0.9295 0.9290 0.9263 0.9233 0.9221
2768.288148 0.9211 0.9201 0.9191 0.9167 0.9142
2772.693445 0.9126 0.9111 0.9101 0.9091 0.9085
2777.098743 0.9080 0.9075 0.9070 0.9061 0.9050
2781.504040 0.9026 0.9001 0.8986 0.8971 0.8965
2785.909337 0.8960 0.8946 0.8931 0.8930 0.8930
2790.314634 0.8920 0.8910 0.8905 0.8900 0.8900
2794.719932 0.8900 0.8895 0.8890 0.8880 0.8870
2799.125229 0.8865 0.8860 0.8860 0.8860 0.8840
2803.530526 0.8820 0.8805 0.8790 0.8785 0.8780
2807.935824 0.8770 0.8759 0.8739 0.8720 0.8705
2812.341121 0.8690 0.8685 0.8680 0.8675 0.8670
2816.746418 0.8670 0.8669 0.8644 0.8619 0.8599
2821.151716 0.8579 0.8559 0.8540 0.8540 0.8539
2825.557013 0.8519 0.8500 0.8495 0.8488 0.8463
2829.962310 0.8438 0.8413 0.8387 0.8352 0.8318
2834.367608 0.8298 0.8277 0.8247 0.8217 0.8182
2838.772905 0.8148 0.8128 0.8105 0.8055 0.8008
2843.178202 0.7988 0.7968 0.7948 0.7928 0.7913
2847.583500 0.7899 0.7889 0.7874 0.7829 0.7785
2851.988797 0.7745 0.7705 0.7670 0.7637 0.7617
2856.394094 0.7599 0.7594 0.7584 0.7539 0.7492
2860.799392 0.7437 0.7387 0.7367 0.7343 0.7303
2865.204689 0.7268 0.7258 0.7246 0.7221 0.7191
2869.609986 0.7136 0.7084 0.7049 0.7016 0.6996
2874.015284 0.6975 0.6945 0.6917 0.6902 0.6887
2878.420581 0.6872 0.6849 0.6794 0.6734 0.6659
2882.825878 0.6595 0.6570 0.6539 0.6489 0.6439
2887.231176 0.6389 0.6333 0.6252 0.6170 0.6080
2891.636473 0.5979 0.5839 0.5702 0.5577 0.5466
2896.041770 0.5406 0.5316 0.5141 0.4957 0.4747
2900.447068 0.4534 0.4314 0.4142 0.4112 0.4084
2904.852365 0.4058 0.4031 0.3996 0.3959 0.3919
2909.257662 0.3887 0.3877 0.3894 0.3984 0.4075
2913.662959 0.4166 0.4255 0.4340 0.4425 0.4510
2918.068257 0.4594 0.4674 0.4756 0.4841 0.4918
2922.473554 0.4978 0.5054 0.5164 0.5277 0.5397
2926.878851 0.5517 0.5637 0.5756 0.5871 0.5983
2931.284149 0.6090 0.6187 0.6267 0.6337 0.6387
2935.689446 0.6420 0.6420 0.6475 0.6635 0.6742
2940.094743 0.6747 0.6750 0.6750 0.6750 0.6750
2944.500041 0.6750 0.6750 0.6748 0.6743 0.6720
2948.905338 0.6664 0.6611 0.6561 0.6501 0.6426
2953.310635 0.6345 0.6255 0.6157 0.6047 0.5960
2957.715933 0.5910 0.5852 0.5782 0.5553 0.5083
2962.121230 0.4712 0.4492 0.4296 0.4136 0.4005
2966.526527 0.3919 0.3832 0.3742 0.3613 0.3433
2970.931825 0.3257 0.3087 0.2916 0.2746 0.2646
2975.337122 0.2636 0.2632 0.2637 0.2682 0.2777
2979.742419 0.2870 0.2960 0.3050 0.3140 0.3231
2984.147717 0.3322 0.3412 0.3502 0.3583 0.3653
2988.553014 0.3835 0.4140 0.4427 0.4692 0.4883
2992.958311 0.4993 0.5144 0.5339 0.5491 0.5596
2997.363609 0.5689 0.5769 0.5832 0.5877 0.5940
3001.768906 0.6021 0.6127 0.6257 0.6413 0.6593
3006.174203 0.6817 0.7083 0.7257 0.7347 0.7429
3010.579501 0.7504 0.7569 0.7624 0.7666 0.7696
3014.984798 0.7713 0.7718 0.7736 0.7766 0.7791
3019.390095 0.7811 0.7823 0.7828 0.7836 0.7846
3023.795392 0.7853 0.7858 0.7868 0.7884 0.7893
3028.200690 0.7898 0.7909 0.7924 0.7950 0.7985
3032.605987 0.8003 0.8008 0.8024 0.8049 0.8095
3037.011284 0.8156 0.8204 0.8244 0.8278 0.8308
3041.416582 0.8341 0.8376 0.8414 0.8454 0.8476
3045.821879 0.8486 0.8490 0.8490 0.8496 0.8506
3050.227176 0.8516 0.8526 0.8536 0.8546 0.8566
3054.632474 0.8591 0.8603 0.8608 0.8613 0.8618
3059.037771 0.8627 0.8637 0.8643 0.8648 0.8657
3063.443068 0.8667 0.8673 0.8678 0.8683 0.8688
3067.848366 0.8700 0.8715 0.8733 0.8753 0.8794
3072.253663 0.8844 0.8884 0.8919 0.8933 0.8938
3076.658960 0.8947 0.8957 0.8967 0.8977 0.8990
3081.064258 0.9006 0.9017 0.9027 0.9034 0.9039
3085.469555 0.9051 0.9066 0.9077 0.9087 0.9101
3089.874852 0.9116 0.9135 0.9155 0.9171 0.9186
3094.280150 0.9205 0.9225 0.9241 0.9256 0.9275
3098.685447 0.9295 0.9311 0.9326 0.9334 0.9339
3103.090744 0.9348 0.9358 0.9371 0.9386 0.9394
3107.496042 0.9399 0.9400 0.9400 0.9400 0.9400
3111.901339 0.9404 0.9409 0.9410 0.9410 0.9418
3116.306636 0.9428 0.9430 0.9430 0.9430 0.9430
3120.711934 0.9434 0.9439 0.9444 0.9449 0.9458
3125.117231 0.9468 0.9470 0.9470 0.9474 0.9479
3129.522528 0.9488 0.9498 0.9504 0.9509 0.9514
3133.927826 0.9519 0.9520 0.9520 0.9528 0.9538
3138.333123 0.9544 0.9549 0.9550 0.9550 0.9559
3142.738420 0.9569 0.9574 0.9579 0.9580 0.9580
3147.143717 0.9584 0.9589 0.9599 0.9609 0.9610
3151.549015 0.9610 0.9614 0.9619 0.9624 0.9629
3155.954312 0.9630 0.9630 0.9630 0.9630 0.9630
3160.359609 0.9630 0.9639 0.9649 0.9650 0.9650
3164.764907 0.9655 0.9660 0.9660 0.9660 0.9660
3169.170204 0.9660 0.9669 0.9679 0.9680 0.9680
3173.575501 0.9680 0.9680 0.9680 0.9680 0.9685
3177.980799 0.9690 0.9690 0.9690 0.9695 0.9700
3182.386096 0.9700 0.9700 0.9700 0.9700 0.9700
3186.791393 0.9700 0.9700 0.9700 0.9700 0.9700
3191.196691 0.9710 0.9720 0.9710 0.9700 0.9710
3195.601988 0.9720 0.9720 0.9720 0.9720 0.9720
3200.007285 0.9720 0.9720 0.9720 0.9720 0.9720
3204.412583 0.9720 0.9720 0.9720 0.9720 0.9720
3208.817880 0.9720 0.9720 0.9720 0.9720 0.9720
3213.223177 0.9720 0.9720 0.9720 0.9720 0.9720
3217.628475 0.9720 0.9720 0.9720 0.9720 0.9720
3222.033772 0.9720 0.9720 0.9720 0.9720 0.9720
3226.439069 0.9720 0.9720 0.9720 0.9720 0.9720
3230.844367 0.9720 0.9720 0.9720 0.9720 0.9720
3235.249664 0.9720 0.9720 0.9720 0.9720 0.9720
3239.654961 0.9720 0.9720 0.9720 0.9720 0.9720
3244.060259 0.9720 0.9720 0.9720 0.9721 0.9726
3248.465556 0.9730 0.9730 0.9730 0.9730 0.9730
3252.870853 0.9730 0.9730 0.9730 0.9730 0.9730
3257.276150 0.9730 0.9730 0.9730 0.9730 0.9730
3261.681448 0.9730 0.9730 0.9730 0.9730 0.9730
3266.086745 0.9732 0.9742 0.9750 0.9750 0.9750
3270.492042 0.9750 0.9750 0.9750 0.9750 0.9750
3274.897340 0.9750 0.9750 0.9750 0.9750 0.9750
3279.302637 0.9750 0.9750 0.9750 0.9750 0.9750
3283.707934 0.9750 0.9750 0.9750 0.9750 0.9750
3288.113232 0.9750 0.9750 0.9750 0.9750 0.9750
3292.518529 0.9750 0.9750 0.9750 0.9750 0.9750
3296.923826 0.9750 0.9750 0.9750 0.9750 0.9750
3301.329124 0.9750 0.9750 0.9750 0.9750 0.9750
3305.734421 0.9750 0.9750 0.9750 0.9750 0.9750
3310.139718 0.9750 0.9750 0.9750 0.9750 0.9750
3314.545016 0.9750 0.9750 0.9750 0.9750 0.9750
3318.950313 0.9750 0.9750 0.9750 0.9750 0.9750
3323.355610 0.9750 0.9752 0.9757 0.9760 0.9760
3327.760908 0.9760 0.9760 0.9760 0.9760 0.9760
3332.166205 0.9760 0.9760 0.9760 0.9760 0.9760
3336.571502 0.9760 0.9760 0.9760 0.9760 0.9760
3340.976800 0.9760 0.9760 0.9760 0.9760 0.9760
3345.382097 0.9760 0.9760 0.9760 0.9760 0.9760
3349.787394 0.9760 0.9760 0.9760 0.9762 0.9767
3354.192692 0.9768 0.9763 0.9760 0.9760 0.9760
3358.597989 0.9760 0.9760 0.9760 0.9760 0.9760
3363.003286 0.9760 0.9760 0.9760 0.9760 0.9760
3367.408584 0.9760 0.9762 0.9767 0.9770 0.9770
3371.813881 0.9768 0.9763 0.9758 0.9753 0.9750
3376.219178 0.9750 0.9750 0.9750 0.9750 0.9750
3380.624475 0.9745 0.9735 0.9730 0.9730 0.9730
3385.029773 0.9730 0.9728 0.9723 0.9720 0.9720
3389.435070 0.9720 0.9720 0.9720 0.9720 0.9720
3393.840367 0.9720 0.9720 0.9720 0.9720 0.9720
3398.245665 0.9720 0.9720 0.9720 0.9720 0.9723
3402.650962 0.9728 0.9730 0.9730 0.9730 0.9730
3407.056259 0.9730 0.9730 0.9730 0.9730 0.9730
3411.461557 0.9730 0.9730 0.9730 0.9730 0.9730
3415.866854 0.9730 0.9730 0.9730 0.9730 0.9730
3420.272151 0.9730 0.9730 0.9730 0.9736 0.9746
3424.677449 0.9750 0.9750 0.9750 0.9750 0.9750
3429.082746 0.9750 0.9753 0.9758 0.9760 0.9760
3433.488043 0.9760 0.9760 0.9760 0.9760 0.9760
3437.893341 0.9760 0.9763 0.9768 0.9770 0.9770
3442.298638 0.9767 0.9762 0.9763 0.9768 0.9770
3446.703935 0.9770 0.9770 0.9770 0.9776 0.9786
3451.109233 0.9784 0.9774 0.9770 0.9770 0.9770
3455.514530 0.9770 0.9770 0.9770 0.9770 0.9770
3459.919827 0.9777 0.9787 0.9790 0.9790 0.9790
3464.325125 0.9790 0.9790 0.9790 0.9790 0.9790
3468.730422 0.9793 0.9798 0.9800 0.9800 0.9797
3473.135719 0.9792 0.9790 0.9790 0.9790 0.9790
3477.541017 0.9790 0.9790 0.9790 0.9790 0.9783
3481.946314 0.9773 0.9770 0.9770 0.9770 0.9770
3486.351611 0.9770 0.9770 0.9777 0.9787 0.9790
3490.756908 0.9790 0.9779 0.9764 0.9760 0.9760
3495.162206 0.9760 0.9760 0.9756 0.9751 0.9742
3499.567503 0.9732 0.9730 0.9730 0.9730 0.9730
3503.972800 0.9730 0.9730 0.9730 0.9730 0.9730
3508.378098 0.9730 0.9730 0.9730 0.9738 0.9748
3512.783395 0.9750 0.9750 0.9754 0.9759 0.9760
3517.188692 0.9760 0.9760 0.9760 0.9764 0.9769
3521.593990 0.9770 0.9770 0.9770 0.9770 0.9770
3525.999287 0.9770 0.9770 0.9770 0.9778 0.9788
3530.404584 0.9790 0.9790 0.9790 0.9790 0.9790
3534.809882 0.9790 0.9790 0.9790 0.9790 0.9790
3539.215179 0.9790 0.9790 0.9790 0.9790 0.9781
3543.620476 0.9771 0.9770 0.9770 0.9770 0.9770
3548.025774 0.9779 0.9789 0.9790 0.9790 0.9781
3552.431071 0.9771 0.9770 0.9770 0.9770 0.9770
3556.836368 0.9766 0.9761 0.9760 0.9760 0.9760
3561.241666 0.9760 0.9760 0.9760 0.9760 0.9760
3565.646963 0.9760 0.9760 0.9760 0.9760 0.9760
3570.052260 0.9760 0.9760 0.9760 0.9765 0.9770
3574.457558 0.9770 0.9770 0.9770 0.9770 0.9770
3578.862855 0.9770 0.9779 0.9789 0.9790 0.9790
3583.268152 0.9790 0.9790 0.9780 0.9770 0.9785
3587.673450 0.9800 0.9800 0.9800 0.9805 0.9810
3592.078747 0.9810 0.9810 0.9820 0.9830 0.9830
3596.484044 0.9830 0.9845 0.9860 0.9860 0.9860
3600.889342 0.9860 0.9860 0.9860 0.9860 0.9860
3605.294639 0.9860 0.9850 0.9840 0.9840 0.9840
3609.699936 0.9840 0.9840 0.9840 0.9840 0.9850
3614.105233 0.9860 0.9860 0.9860 0.9850 0.9841
3618.510531 0.9851 0.9860 0.9860 0.9859 0.9849
3622.915828 0.9840 0.9840 0.9840 0.9835 0.9830
3627.321125 0.9830 0.9829 0.9819 0.9810 0.9805
3631.726423 0.9800 0.9795 0.9790 0.9790 0.9790
3636.131720 0.9790 0.9790 0.9790 0.9790 0.9790
3640.537017 0.9790 0.9790 0.9789 0.9779 0.9770
3644.942315 0.9770 0.9769 0.9764 0.9759 0.9754
3649.347612 0.9750 0.9750 0.9750 0.9750 0.9750
3653.752909 0.9750 0.9750 0.9750 0.9750 0.9750
3658.158207 0.9751 0.9761 0.9770 0.9770 0.9770
3662.563504 0.9770 0.9770 0.9770 0.9770 0.9770
3666.968801 0.9770 0.9770 0.9769 0.9764 0.9761
3671.374099 0.9766 0.9770 0.9770 0.9770 0.9770
3675.779396 0.9770 0.9770 0.9770 0.9770 0.9772
3680.184693 0.9782 0.9790 0.9790 0.9790 0.9790
3684.589991 0.9791 0.9796 0.9800 0.9800 0.9803
3688.995288 0.9818 0.9831 0.9836 0.9840 0.9840
3693.400585 0.9840 0.9840 0.9840 0.9840 0.9842
3697.805883 0.9852 0.9860 0.9860 0.9861 0.9866
3702.211180 0.9871 0.9876 0.9883 0.9893 0.9900
3706.616477 0.9900 0.9900 0.9900 0.9900 0.9900
3711.021775 0.9901 0.9906 0.9910 0.9910 0.9910
3715.427072 0.9910 0.9910 0.9910 0.9913 0.9923
3719.832369 0.9930 0.9930 0.9930 0.9930 0.9930
3724.237667 0.9930 0.9932 0.9937 0.9940 0.9940
3728.642964 0.9940 0.9940 0.9940 0.9940 0.9940
3733.048261 0.9940 0.9942 0.9947 0.9950 0.9950
3737.453558 0.9950 0.9950 0.9950 0.9950 0.9954
3741.858856 0.9964 0.9970 0.9970 0.9970 0.9970
3746.264153 0.9970 0.9970 0.9966 0.9956 0.9950
3750.669450 0.9950 0.9950 0.9950 0.9950 0.9950
3755.074748 0.9950 0.9950 0.9954 0.9964 0.9970
3759.480045 0.9970 0.9976 0.9991 1.0000 1.0000
3763.885342 1.0002 1.0007 1.0010 1.0010 1.0010
3768.290640 1.0010 1.0010 1.0010 1.0010 1.0010
3772.695937 1.0012 1.0017 1.0024 1.0034 1.0042
3777.101234 1.0047 1.0052 1.0057 1.0060 1.0060
3781.506532 1.0060 1.0060 1.0060 1.0060 1.0058
3785.911829 1.0053 1.0050 1.0050 1.0050 1.0050
3790.317126 1.0050 1.0050 1.0048 1.0043 1.0040
3794.722424 1.0040 1.0043 1.0048 1.0048 1.0043
3799.127721 1.0040 1.0040
##END=
