##TITLE=Nicotinic acid
##JCAMP-DX=4.24
##DATA TYPE=INFRARED SPECTRUM
##CLASS=COBLENTZ III
##ORIGIN=THE SQUIBB INSTITUTE FOR MEDICAL RESEARCH
##OWNER=Copyright (C) 1987 by the Coblentz Society
Collection (C) 2018 copyright by the U.S. Secretary of Commerce
on behalf of the United States of America. All rights reserved.
##DATE=1962/03/14
##NAMES=PYRIDINE-3-CARBOXYLIC ACID
##CAS REGISTRY NO=59-67-6
##MOLFORM=C6 H5 N O2
##MP=236.6 C
##SOURCE REFERENCE=COBLENTZ NO. 5416
##$NIST SOURCE=COBLENTZ
##$NIST IMAGE=cob5416
##SPECTROMETER/DATA SYSTEM=PERKIN-ELMER 21 (GRATING)
$$SPECTRAL CONTAMINATION DUE TO OIL AROUND 2880 CM^-^1
##STATE=SOLID (NUJOL MULL)
##RESOLUTION=2
##XUNITS=1/CM
##YUNITS=TRANSMITTANCE
##XFACTOR=1.0
##YFACTOR=1
##FIRSTX=658
##LASTX=4000
##FIRSTY=0.9577
##MAXX=4000
##MINX=658
##MAXY=1.0038
##MINY=0.1479
##NPOINTS=3343
##XYDATA=(X++(Y..Y))
658.000000 0.9577 0.9646 0.9685 0.9698 0.9732
663.000000 0.9648 0.9584 0.9505 0.9481 0.9547
668.000000 0.9666 0.9812 0.9890 0.9839 0.9817
673.000000 0.9797 0.9762 0.9716 0.9586 0.9318
678.000000 0.8857 0.7924 0.7218 0.7146 0.8010
683.000000 0.9076 0.9257 0.9282 0.9195 0.9069
688.000000 0.8851 0.8421 0.7992 0.7579 0.6899
693.000000 0.6417 0.6315 0.6400 0.6716 0.7477
698.000000 0.8220 0.9038 0.9375 0.9628 0.9764
703.000000 0.9872 0.9945 0.9990 1.0004 1.0012
708.000000 1.0014 1.0016 1.0038 1.0011 1.0008
713.000000 1.0007 1.0007 1.0007 1.0007 1.0006
718.000000 1.0004 1.0002 0.9999 0.9997 0.9993
723.000000 0.9984 0.9977 0.9968 0.9957 0.9934
728.000000 0.9911 0.9887 0.9849 0.9810 0.9774
733.000000 0.9740 0.9706 0.9671 0.9631 0.9592
738.000000 0.9530 0.9449 0.9324 0.9138 0.8891
743.000000 0.8597 0.8187 0.6973 0.5913 0.4941
748.000000 0.4642 0.4581 0.4571 0.4972 0.5861
753.000000 0.6748 0.7633 0.8692 0.9101 0.9271
758.000000 0.9361 0.9419 0.9441 0.9455 0.9451
763.000000 0.9454 0.9444 0.9434 0.9424 0.9412
768.000000 0.9400 0.9389 0.9373 0.9354 0.9341
773.000000 0.9327 0.9314 0.9301 0.9286 0.9272
778.000000 0.9258 0.9244 0.9229 0.9211 0.9185
783.000000 0.9145 0.9098 0.9050 0.9007 0.8971
788.000000 0.8940 0.8926 0.8911 0.8906 0.8902
793.000000 0.8898 0.8890 0.8883 0.8875 0.8857
798.000000 0.8839 0.8798 0.8725 0.8632 0.8504
803.000000 0.8282 0.7829 0.7463 0.7187 0.6543
808.000000 0.5769 0.4999 0.4666 0.4693 0.5446
813.000000 0.6171 0.6892 0.7612 0.8331 0.8870
818.000000 0.9159 0.9333 0.9394 0.9407 0.9373
823.000000 0.9355 0.9298 0.9206 0.9095 0.8976
828.000000 0.8780 0.8560 0.8341 0.8272 0.8530
833.000000 0.8776 0.9022 0.9235 0.9270 0.9285
838.000000 0.9292 0.9312 0.9346 0.9503 0.9649
843.000000 0.9624 0.9676 0.9673 0.9671 0.9668
848.000000 0.9666 0.9663 0.9654 0.9642 0.9630
853.000000 0.9619 0.9607 0.9595 0.9584 0.9572
858.000000 0.9561 0.9550 0.9537 0.9524 0.9509
863.000000 0.9494 0.9479 0.9464 0.9449 0.9434
868.000000 0.9419 0.9405 0.9391 0.9377 0.9361
873.000000 0.9347 0.9333 0.9323 0.9312 0.9302
878.000000 0.9292 0.9282 0.9272 0.9262 0.9253
883.000000 0.9244 0.9237 0.9228 0.9220 0.9211
888.000000 0.9203 0.9195 0.9187 0.9179 0.9167
893.000000 0.9156 0.9145 0.9134 0.9123 0.9113
898.000000 0.9101 0.9091 0.9080 0.9066 0.9051
903.000000 0.9037 0.9022 0.9008 0.8993 0.8979
908.000000 0.8965 0.8951 0.8937 0.8922 0.8912
913.000000 0.8902 0.8892 0.8882 0.8873 0.8863
918.000000 0.8853 0.8844 0.8834 0.8826 0.8818
923.000000 0.8810 0.8802 0.8795 0.8783 0.8770
928.000000 0.8756 0.8743 0.8729 0.8711 0.8690
933.000000 0.8670 0.8650 0.8630 0.8610 0.8589
938.000000 0.8567 0.8547 0.8526 0.8505 0.8484
943.000000 0.8460 0.8431 0.8403 0.8372 0.8306
948.000000 0.8193 0.8114 0.8048 0.7986 0.7969
953.000000 0.7907 0.8024 0.8108 0.8230 0.8342
958.000000 0.8425 0.8445 0.8441 0.8430 0.8422
963.000000 0.8410 0.8397 0.8385 0.8370 0.8357
968.000000 0.8343 0.8328 0.8311 0.8291 0.8272
973.000000 0.8251 0.8231 0.8210 0.8189 0.8168
978.000000 0.8147 0.8127 0.8106 0.8085 0.8064
983.000000 0.8039 0.8013 0.7988 0.7963 0.7939
988.000000 0.7914 0.7889 0.7862 0.7837 0.7810
993.000000 0.7784 0.7757 0.7732 0.7699 0.7661
998.000000 0.7623 0.7585 0.7548 0.7510 0.7473
1003.000000 0.7435 0.7397 0.7360 0.7323 0.7286
1008.000000 0.7249 0.7188 0.7121 0.7054 0.6976
1013.000000 0.6877 0.6784 0.6694 0.6605 0.6500
1018.000000 0.6388 0.6276 0.6130 0.5975 0.5788
1023.000000 0.5586 0.5392 0.5197 0.4986 0.4777
1028.000000 0.4573 0.4350 0.4092 0.3834 0.3739
1033.000000 0.3785 0.3949 0.4116 0.4180 0.4171
1038.000000 0.4161 0.4158 0.4186 0.4467 0.4840
1043.000000 0.5212 0.5583 0.5955 0.6324 0.6694
1048.000000 0.7058 0.7222 0.7278 0.7320 0.7346
1053.000000 0.7368 0.7368 0.7391 0.7392 0.7390
1058.000000 0.7379 0.7368 0.7356 0.7344 0.7331
1063.000000 0.7319 0.7306 0.7290 0.7272 0.7249
1068.000000 0.7226 0.7193 0.7158 0.7123 0.7080
1073.000000 0.7031 0.6973 0.6914 0.6855 0.6760
1078.000000 0.6652 0.6510 0.6369 0.6238 0.6102
1083.000000 0.5920 0.5738 0.5617 0.5578 0.5542
1088.000000 0.5582 0.5616 0.5676 0.5789 0.5956
1093.000000 0.6153 0.6349 0.6481 0.6581 0.6603
1098.000000 0.6613 0.6618 0.6634 0.6602 0.6592
1103.000000 0.6568 0.6517 0.6428 0.6318 0.6154
1108.000000 0.5892 0.5619 0.5346 0.5075 0.4870
1113.000000 0.4885 0.5015 0.5274 0.5531 0.5788
1118.000000 0.6045 0.6167 0.6171 0.6176 0.6189
1123.000000 0.6232 0.6407 0.6579 0.6657 0.6665
1128.000000 0.6658 0.6681 0.6467 0.6284 0.6061
1133.000000 0.5934 0.5871 0.5862 0.5870 0.5842
1138.000000 0.5992 0.6171 0.6342 0.6485 0.6606
1143.000000 0.6705 0.6757 0.6797 0.6822 0.6833
1148.000000 0.6835 0.6836 0.6837 0.6836 0.6852
1153.000000 0.6820 0.6811 0.6795 0.6778 0.6761
1158.000000 0.6741 0.6723 0.6699 0.6672 0.6644
1163.000000 0.6607 0.6562 0.6514 0.6457 0.6399
1168.000000 0.6342 0.6265 0.6177 0.6085 0.5960
1173.000000 0.5827 0.5671 0.5504 0.5329 0.5094
1178.000000 0.4871 0.4734 0.4629 0.4559 0.4539
1183.000000 0.4526 0.4530 0.4500 0.4773 0.5020
1188.000000 0.5338 0.5992 0.6846 0.6926 0.6996
1193.000000 0.7048 0.7067 0.7066 0.7063 0.7042
1198.000000 0.7012 0.6971 0.6929 0.6888 0.6846
1203.000000 0.6805 0.6763 0.6722 0.6682 0.6641
1208.000000 0.6599 0.6558 0.6517 0.6476 0.6436
1213.000000 0.6396 0.6355 0.6314 0.6274 0.6233
1218.000000 0.6193 0.6163 0.6142 0.6110 0.6074
1223.000000 0.6038 0.6002 0.5964 0.5925 0.5887
1228.000000 0.5854 0.5825 0.5795 0.5766 0.5736
1233.000000 0.5707 0.5678 0.5650 0.5622 0.5593
1238.000000 0.5567 0.5548 0.5529 0.5511 0.5494
1243.000000 0.5478 0.5462 0.5445 0.5430 0.5418
1248.000000 0.5406 0.5391 0.5365 0.5335 0.5280
1253.000000 0.5232 0.5192 0.5152 0.5111 0.5063
1258.000000 0.5014 0.4964 0.4915 0.4855 0.4794
1263.000000 0.4733 0.4671 0.4605 0.4538 0.4470
1268.000000 0.4405 0.4344 0.4283 0.4222 0.4162
1273.000000 0.4107 0.4053 0.4000 0.3946 0.3892
1278.000000 0.3839 0.3775 0.3702 0.3630 0.3558
1283.000000 0.3483 0.3400 0.3317 0.3234 0.3137
1288.000000 0.3000 0.2848 0.2654 0.2416 0.2082
1293.000000 0.1821 0.1701 0.1636 0.1621 0.1616
1298.000000 0.1618 0.1618 0.1635 0.1697 0.1852
1303.000000 0.2117 0.2389 0.2660 0.2931 0.3201
1308.000000 0.3466 0.3552 0.3498 0.3328 0.3108
1313.000000 0.2890 0.2672 0.2454 0.2237 0.2019
1318.000000 0.1802 0.1586 0.1486 0.1492 0.1502
1323.000000 0.1479 0.2013 0.2402 0.2790 0.3178
1328.000000 0.3565 0.3951 0.4337 0.4722 0.5106
1333.000000 0.5486 0.6000 0.6222 0.6363 0.6447
1338.000000 0.6532 0.6614 0.6686 0.6758 0.6830
1343.000000 0.6903 0.6977 0.7052 0.7124 0.7172
1348.000000 0.7212 0.7252 0.7291 0.7319 0.7352
1353.000000 0.7352 0.7345 0.7337 0.7325 0.7313
1358.000000 0.7299 0.7280 0.7260 0.7236 0.7211
1363.000000 0.7186 0.7160 0.7133 0.7106 0.7079
1368.000000 0.7052 0.7029 0.7007 0.6985 0.6946
1373.000000 0.6969 0.6974 0.6990 0.7007 0.7030
1378.000000 0.7055 0.7079 0.7100 0.7121 0.7142
1383.000000 0.7157 0.7168 0.7179 0.7214 0.7169
1388.000000 0.7149 0.7127 0.7105 0.7075 0.7043
1393.000000 0.7010 0.6963 0.6903 0.6811 0.6716
1398.000000 0.6630 0.6544 0.6476 0.6409 0.6341
1403.000000 0.6272 0.6137 0.5907 0.5677 0.5448
1408.000000 0.5219 0.4990 0.4762 0.4534 0.4306
1413.000000 0.4198 0.4195 0.4181 0.4267 0.4516
1418.000000 0.4814 0.5112 0.5409 0.5707 0.6003
1423.000000 0.6299 0.6595 0.6890 0.7185 0.7466
1428.000000 0.7521 0.7555 0.7516 0.7509 0.7498
1433.000000 0.7483 0.7456 0.7432 0.7408 0.7384
1438.000000 0.7361 0.7338 0.7311 0.7283 0.7255
1443.000000 0.7226 0.7195 0.7164 0.7146 0.7136
1448.000000 0.7127 0.7102 0.7133 0.7140 0.7148
1453.000000 0.7165 0.7183 0.7200 0.7220 0.7241
1458.000000 0.7263 0.7285 0.7308 0.7334 0.7361
1463.000000 0.7388 0.7409 0.7414 0.7418 0.7424
1468.000000 0.7426 0.7419 0.7411 0.7394 0.7359
1473.000000 0.7316 0.7267 0.7218 0.7157 0.7092
1478.000000 0.7058 0.7041 0.7038 0.7039 0.7024
1483.000000 0.7043 0.7048 0.7054 0.7061 0.7068
1488.000000 0.7075 0.7082 0.7097 0.7112 0.7127
1493.000000 0.7144 0.7162 0.7181 0.7199 0.7226
1498.000000 0.7258 0.7288 0.7319 0.7350 0.7380
1503.000000 0.7411 0.7440 0.7447 0.7447 0.7440
1508.000000 0.7442 0.7441 0.7439 0.7437 0.7435
1513.000000 0.7433 0.7432 0.7430 0.7428 0.7425
1518.000000 0.7423 0.7421 0.7419 0.7417 0.7415
1523.000000 0.7412 0.7410 0.7408 0.7405 0.7400
1528.000000 0.7396 0.7391 0.7385 0.7381 0.7376
1533.000000 0.7371 0.7366 0.7361 0.7357 0.7352
1538.000000 0.7347 0.7342 0.7337 0.7331 0.7323
1543.000000 0.7314 0.7306 0.7297 0.7289 0.7281
1548.000000 0.7272 0.7264 0.7255 0.7246 0.7236
1553.000000 0.7222 0.7207 0.7193 0.7178 0.7164
1558.000000 0.7149 0.7135 0.7120 0.7103 0.7082
1563.000000 0.7061 0.7040 0.7019 0.6999 0.6978
1568.000000 0.6957 0.6937 0.6912 0.6880 0.6844
1573.000000 0.6809 0.6773 0.6737 0.6657 0.6541
1578.000000 0.6417 0.6194 0.5836 0.5678 0.5636
1583.000000 0.5618 0.5607 0.5596 0.5585 0.5448
1588.000000 0.5242 0.5027 0.4813 0.4600 0.4438
1593.000000 0.4386 0.4379 0.4372 0.4365 0.4343
1598.000000 0.4906 0.5573 0.6238 0.6903 0.7494
1603.000000 0.7779 0.7778 0.7777 0.7766 0.7772
1608.000000 0.7769 0.7766 0.7760 0.7748 0.7736
1613.000000 0.7724 0.7703 0.7684 0.7665 0.7648
1618.000000 0.7631 0.7613 0.7591 0.7567 0.7544
1623.000000 0.7521 0.7498 0.7473 0.7446 0.7419
1628.000000 0.7392 0.7365 0.7338 0.7311 0.7284
1633.000000 0.7256 0.7230 0.7205 0.7181 0.7156
1638.000000 0.7131 0.7107 0.7081 0.7053 0.7024
1643.000000 0.6994 0.6963 0.6931 0.6890 0.6838
1648.000000 0.6787 0.6738 0.6690 0.6642 0.6593
1653.000000 0.6541 0.6485 0.6428 0.6372 0.6320
1658.000000 0.6281 0.6245 0.6207 0.6171 0.6134
1663.000000 0.6098 0.6060 0.6023 0.5985 0.5948
1668.000000 0.5910 0.5873 0.5836 0.5798 0.5757
1673.000000 0.5702 0.5643 0.5583 0.5524 0.5464
1678.000000 0.5396 0.5277 0.5159 0.5041 0.4342
1683.000000 0.3912 0.3771 0.3677 0.3625 0.3596
1688.000000 0.3567 0.3538 0.3479 0.3349 0.3186
1693.000000 0.3024 0.2866 0.2728 0.2674 0.2619
1698.000000 0.2550 0.2507 0.2484 0.2467 0.2451
1703.000000 0.2436 0.2435 0.2433 0.2432 0.2402
1708.000000 0.2432 0.2434 0.2436 0.2437 0.2447
1713.000000 0.2463 0.2484 0.2508 0.2536 0.2565
1718.000000 0.2624 0.2683 0.2731 0.2771 0.2812
1723.000000 0.2858 0.2904 0.2950 0.3021 0.3116
1728.000000 0.3223 0.3330 0.3437 0.3544 0.3651
1733.000000 0.3758 0.3864 0.3971 0.4078 0.4184
1738.000000 0.4290 0.4396 0.4501 0.4607 0.4713
1743.000000 0.4817 0.4881 0.4920 0.4958 0.4994
1748.000000 0.5033 0.5071 0.5108 0.5143 0.5177
1753.000000 0.5218 0.5259 0.5302 0.5359 0.5432
1758.000000 0.5506 0.5590 0.5676 0.5758 0.5832
1763.000000 0.5903 0.5939 0.5973 0.6007 0.6042
1768.000000 0.6075 0.6098 0.6120 0.6141 0.6162
1773.000000 0.6182 0.6199 0.6211 0.6219 0.6228
1778.000000 0.6237 0.6245 0.6252 0.6256 0.6263
1783.000000 0.6261 0.6263 0.6265 0.6267 0.6267
1788.000000 0.6267 0.6267 0.6267 0.6266 0.6266
1793.000000 0.6263 0.6260 0.6258 0.6254 0.6252
1798.000000 0.6249 0.6244 0.6237 0.6226 0.6215
1803.000000 0.6205 0.6195 0.6184 0.6173 0.6163
1808.000000 0.6152 0.6142 0.6133 0.6124 0.6115
1813.000000 0.6106 0.6097 0.6087 0.6078 0.6069
1818.000000 0.6060 0.6052 0.6043 0.6034 0.6025
1823.000000 0.6016 0.6007 0.5998 0.5989 0.5980
1828.000000 0.5972 0.5963 0.5956 0.5948 0.5941
1833.000000 0.5934 0.5928 0.5920 0.5913 0.5907
1838.000000 0.5899 0.5892 0.5886 0.5879 0.5872
1843.000000 0.5865 0.5858 0.5853 0.5847 0.5842
1848.000000 0.5837 0.5832 0.5826 0.5821 0.5816
1853.000000 0.5811 0.5806 0.5800 0.5794 0.5789
1858.000000 0.5785 0.5782 0.5779 0.5776 0.5773
1863.000000 0.5770 0.5767 0.5764 0.5762 0.5759
1868.000000 0.5756 0.5754 0.5751 0.5748 0.5746
1873.000000 0.5744 0.5743 0.5741 0.5740 0.5738
1878.000000 0.5736 0.5734 0.5733 0.5732 0.5730
1883.000000 0.5729 0.5727 0.5726 0.5723 0.5723
1888.000000 0.5724 0.5725 0.5726 0.5727 0.5729
1893.000000 0.5730 0.5731 0.5732 0.5733 0.5734
1898.000000 0.5735 0.5737 0.5739 0.5740 0.5742
1903.000000 0.5743 0.5744 0.5746 0.5748 0.5750
1908.000000 0.5751 0.5752 0.5754 0.5755 0.5756
1913.000000 0.5758 0.5759 0.5761 0.5763 0.5766
1918.000000 0.5769 0.5771 0.5774 0.5777 0.5779
1923.000000 0.5781 0.5783 0.5785 0.5786 0.5788
1928.000000 0.5790 0.5792 0.5794 0.5793 0.5790
1933.000000 0.5787 0.5784 0.5781 0.5779 0.5778
1938.000000 0.5778 0.5785 0.5795 0.5808 0.5821
1943.000000 0.5835 0.5850 0.5866 0.5882 0.5899
1948.000000 0.5914 0.5929 0.5944 0.5959 0.5974
1953.000000 0.5989 0.6004 0.6019 0.6036 0.6053
1958.000000 0.6069 0.6085 0.6102 0.6118 0.6134
1963.000000 0.6150 0.6167 0.6184 0.6202 0.6219
1968.000000 0.6237 0.6254 0.6272 0.6289 0.6307
1973.000000 0.6326 0.6352 0.6379 0.6406 0.6433
1978.000000 0.6459 0.6486 0.6518 0.6554 0.6608
1983.000000 0.6651 0.6681 0.6703 0.6723 0.6740
1988.000000 0.6751 0.6760 0.6769 0.6777 0.6786
1993.000000 0.6794 0.6802 0.6809 0.6816 0.6823
1998.000000 0.6830 0.6836 0.6842 0.6846 0.6852
2003.000000 0.6857 0.6863 0.6868 0.6873 0.6879
2008.000000 0.6884 0.6890 0.6895 0.6900 0.6906
2013.000000 0.6911 0.6917 0.6922 0.6927 0.6933
2018.000000 0.6941 0.6949 0.6958 0.6967 0.6976
2023.000000 0.6984 0.6993 0.7002 0.7010 0.7019
2028.000000 0.7027 0.7035 0.7043 0.7052 0.7069
2033.000000 0.7091 0.7116 0.7141 0.7165 0.7185
2038.000000 0.7206 0.7226 0.7240 0.7252 0.7263
2043.000000 0.7272 0.7282 0.7292 0.7301 0.7311
2048.000000 0.7321 0.7331 0.7340 0.7350 0.7358
2053.000000 0.7366 0.7374 0.7382 0.7390 0.7398
2058.000000 0.7407 0.7415 0.7423 0.7431 0.7440
2063.000000 0.7448 0.7455 0.7463 0.7472 0.7480
2068.000000 0.7488 0.7496 0.7504 0.7511 0.7518
2073.000000 0.7525 0.7531 0.7538 0.7545 0.7552
2078.000000 0.7559 0.7565 0.7572 0.7579 0.7586
2083.000000 0.7592 0.7599 0.7606 0.7613 0.7620
2088.000000 0.7627 0.7634 0.7640 0.7647 0.7654
2093.000000 0.7659 0.7663 0.7667 0.7670 0.7673
2098.000000 0.7676 0.7679 0.7682 0.7685 0.7688
2103.000000 0.7691 0.7694 0.7697 0.7700 0.7703
2108.000000 0.7737 0.7709 0.7711 0.7714 0.7716
2113.000000 0.7716 0.7717 0.7717 0.7718 0.7719
2118.000000 0.7719 0.7718 0.7715 0.7712 0.7708
2123.000000 0.7705 0.7703 0.7699 0.7696 0.7693
2128.000000 0.7690 0.7687 0.7684 0.7680 0.7677
2133.000000 0.7674 0.7670 0.7666 0.7662 0.7659
2138.000000 0.7655 0.7651 0.7647 0.7643 0.7639
2143.000000 0.7636 0.7632 0.7629 0.7625 0.7621
2148.000000 0.7618 0.7614 0.7610 0.7606 0.7602
2153.000000 0.7599 0.7594 0.7589 0.7584 0.7580
2158.000000 0.7574 0.7569 0.7564 0.7558 0.7553
2163.000000 0.7548 0.7543 0.7538 0.7533 0.7527
2168.000000 0.7522 0.7514 0.7506 0.7497 0.7489
2173.000000 0.7480 0.7472 0.7463 0.7454 0.7445
2178.000000 0.7437 0.7429 0.7420 0.7412 0.7403
2183.000000 0.7395 0.7386 0.7377 0.7366 0.7354
2188.000000 0.7342 0.7330 0.7319 0.7307 0.7295
2193.000000 0.7283 0.7271 0.7259 0.7247 0.7236
2198.000000 0.7224 0.7213 0.7200 0.7187 0.7171
2203.000000 0.7155 0.7139 0.7123 0.7107 0.7091
2208.000000 0.7075 0.7059 0.7043 0.7027 0.7011
2213.000000 0.6995 0.6979 0.6964 0.6948 0.6935
2218.000000 0.6923 0.6911 0.6899 0.6887 0.6875
2223.000000 0.6863 0.6851 0.6839 0.6827 0.6815
2228.000000 0.6803 0.6791 0.6779 0.6767 0.6755
2233.000000 0.6744 0.6733 0.6722 0.6712 0.6702
2238.000000 0.6692 0.6681 0.6671 0.6661 0.6650
2243.000000 0.6640 0.6629 0.6619 0.6609 0.6599
2248.000000 0.6589 0.6578 0.6568 0.6557 0.6547
2253.000000 0.6537 0.6526 0.6516 0.6506 0.6492
2258.000000 0.6476 0.6460 0.6445 0.6429 0.6413
2263.000000 0.6398 0.6382 0.6367 0.6351 0.6335
2268.000000 0.6320 0.6304 0.6289 0.6273 0.6258
2273.000000 0.6242 0.6227 0.6211 0.6194 0.6176
2278.000000 0.6157 0.6138 0.6120 0.6102 0.6084
2283.000000 0.6065 0.6047 0.6028 0.6010 0.5992
2288.000000 0.5973 0.5955 0.5936 0.5918 0.5900
2293.000000 0.5882 0.5864 0.5846 0.5828 0.5810
2298.000000 0.5792 0.5774 0.5756 0.5738 0.5721
2303.000000 0.5703 0.5685 0.5667 0.5649 0.5633
2308.000000 0.5617 0.5602 0.5589 0.5575 0.5562
2313.000000 0.5548 0.5534 0.5520 0.5506 0.5493
2318.000000 0.5479 0.5466 0.5455 0.5445 0.5438
2323.000000 0.5433 0.5427 0.5421 0.5415 0.5410
2328.000000 0.5404 0.5398 0.5392 0.5387 0.5381
2333.000000 0.5375 0.5369 0.5363 0.5358 0.5354
2338.000000 0.5351 0.5347 0.5344 0.5341 0.5338
2343.000000 0.5335 0.5332 0.5329 0.5326 0.5323
2348.000000 0.5320 0.5316 0.5313 0.5310 0.5307
2353.000000 0.5304 0.5301 0.5297 0.5294 0.5291
2358.000000 0.5288 0.5285 0.5282 0.5280 0.5278
2363.000000 0.5276 0.5276 0.5275 0.5273 0.5272
2368.000000 0.5271 0.5270 0.5269 0.5268 0.5266
2373.000000 0.5265 0.5264 0.5263 0.5262 0.5261
2378.000000 0.5259 0.5258 0.5257 0.5256 0.5256
2383.000000 0.5255 0.5255 0.5255 0.5255 0.5255
2388.000000 0.5255 0.5255 0.5255 0.5254 0.5254
2393.000000 0.5254 0.5254 0.5254 0.5254 0.5254
2398.000000 0.5254 0.5254 0.5253 0.5253 0.5253
2403.000000 0.5253 0.5264 0.5253 0.5253 0.5254
2408.000000 0.5256 0.5259 0.5261 0.5264 0.5266
2413.000000 0.5268 0.5271 0.5273 0.5276 0.5278
2418.000000 0.5280 0.5283 0.5285 0.5287 0.5289
2423.000000 0.5292 0.5294 0.5297 0.5300 0.5304
2428.000000 0.5309 0.5314 0.5319 0.5325 0.5330
2433.000000 0.5336 0.5341 0.5346 0.5352 0.5357
2438.000000 0.5362 0.5367 0.5374 0.5381 0.5388
2443.000000 0.5396 0.5403 0.5411 0.5418 0.5425
2448.000000 0.5432 0.5440 0.5447 0.5455 0.5463
2453.000000 0.5471 0.5481 0.5492 0.5503 0.5513
2458.000000 0.5523 0.5534 0.5544 0.5554 0.5565
2463.000000 0.5576 0.5586 0.5597 0.5608 0.5620
2468.000000 0.5631 0.5643 0.5654 0.5666 0.5677
2473.000000 0.5689 0.5700 0.5712 0.5723 0.5735
2478.000000 0.5747 0.5758 0.5770 0.5781 0.5792
2483.000000 0.5804 0.5815 0.5826 0.5838 0.5849
2488.000000 0.5860 0.5872 0.5883 0.5894 0.5906
2493.000000 0.5917 0.5928 0.5939 0.5951 0.5962
2498.000000 0.5973 0.5985 0.5997 0.6009 0.6022
2503.000000 0.6035 0.6047 0.6059 0.6072 0.6085
2508.000000 0.6097 0.6110 0.6122 0.6135 0.6147
2513.000000 0.6160 0.6173 0.6185 0.6198 0.6210
2518.000000 0.6222 0.6235 0.6248 0.6261 0.6274
2523.000000 0.6287 0.6301 0.6314 0.6327 0.6340
2528.000000 0.6353 0.6366 0.6379 0.6392 0.6405
2533.000000 0.6417 0.6430 0.6443 0.6457 0.6472
2538.000000 0.6486 0.6502 0.6518 0.6534 0.6550
2543.000000 0.6567 0.6583 0.6598 0.6614 0.6631
2548.000000 0.6647 0.6663 0.6678 0.6694 0.6708
2553.000000 0.6721 0.6734 0.6746 0.6759 0.6771
2558.000000 0.6783 0.6795 0.6807 0.6820 0.6831
2563.000000 0.6843 0.6854 0.6865 0.6875 0.6885
2568.000000 0.6896 0.6907 0.6917 0.6927 0.6937
2573.000000 0.6944 0.6951 0.6958 0.6964 0.6970
2578.000000 0.6975 0.6981 0.6987 0.6991 0.6995
2583.000000 0.6999 0.7003 0.7006 0.7010 0.7014
2588.000000 0.7018 0.7021 0.7025 0.7029 0.7032
2593.000000 0.7036 0.7041 0.7046 0.7051 0.7056
2598.000000 0.7061 0.7066 0.7071 0.7076 0.7081
2603.000000 0.7086 0.7092 0.7099 0.7106 0.7114
2608.000000 0.7123 0.7132 0.7141 0.7149 0.7157
2613.000000 0.7165 0.7172 0.7180 0.7188 0.7196
2618.000000 0.7204 0.7212 0.7219 0.7230 0.7243
2623.000000 0.7257 0.7270 0.7284 0.7298 0.7312
2628.000000 0.7325 0.7339 0.7352 0.7366 0.7379
2633.000000 0.7393 0.7407 0.7419 0.7430 0.7442
2638.000000 0.7453 0.7464 0.7474 0.7485 0.7496
2643.000000 0.7507 0.7518 0.7529 0.7539 0.7548
2648.000000 0.7558 0.7565 0.7571 0.7578 0.7584
2653.000000 0.7590 0.7596 0.7602 0.7609 0.7615
2658.000000 0.7621 0.7627 0.7633 0.7638 0.7642
2663.000000 0.7646 0.7647 0.7649 0.7651 0.7653
2668.000000 0.7654 0.7656 0.7658 0.7660 0.7661
2673.000000 0.7663 0.7665 0.7666 0.7668 0.7669
2678.000000 0.7669 0.7669 0.7669 0.7669 0.7669
2683.000000 0.7669 0.7669 0.7669 0.7669 0.7669
2688.000000 0.7669 0.7698 0.7669 0.7669 0.7668
2693.000000 0.7667 0.7666 0.7666 0.7665 0.7664
2698.000000 0.7663 0.7662 0.7661 0.7661 0.7660
2703.000000 0.7659 0.7659 0.7658 0.7657 0.7657
2708.000000 0.7656 0.7655 0.7655 0.7654 0.7653
2713.000000 0.7652 0.7652 0.7650 0.7648 0.7645
2718.000000 0.7643 0.7641 0.7638 0.7636 0.7634
2723.000000 0.7631 0.7629 0.7627 0.7624 0.7621
2728.000000 0.7618 0.7614 0.7611 0.7608 0.7604
2733.000000 0.7601 0.7597 0.7593 0.7590 0.7587
2738.000000 0.7583 0.7578 0.7573 0.7568 0.7561
2743.000000 0.7555 0.7548 0.7541 0.7535 0.7528
2748.000000 0.7521 0.7514 0.7507 0.7500 0.7491
2753.000000 0.7483 0.7474 0.7465 0.7457 0.7448
2758.000000 0.7439 0.7430 0.7421 0.7412 0.7403
2763.000000 0.7392 0.7379 0.7366 0.7352 0.7337
2768.000000 0.7322 0.7307 0.7292 0.7278 0.7262
2773.000000 0.7246 0.7231 0.7214 0.7195 0.7177
2778.000000 0.7158 0.7140 0.7122 0.7103 0.7085
2783.000000 0.7066 0.7047 0.7007 0.6968 0.6928
2788.000000 0.6881 0.6834 0.6787 0.6739 0.6692
2793.000000 0.6645 0.6597 0.6550 0.6503 0.6456
2798.000000 0.6409 0.6362 0.6315 0.6268 0.6221
2803.000000 0.6174 0.6127 0.6080 0.6033 0.5986
2808.000000 0.5939 0.5892 0.5845 0.5799 0.5752
2813.000000 0.5706 0.5659 0.5612 0.5566 0.5519
2818.000000 0.5473 0.5427 0.5380 0.5334 0.5297
2823.000000 0.5278 0.5260 0.5244 0.5239 0.5234
2828.000000 0.5230 0.5226 0.5222 0.5218 0.5214
2833.000000 0.5209 0.5205 0.5200 0.5194 0.5189
2838.000000 0.5184 0.5179 0.5174 0.5169 0.5163
2843.000000 0.5157 0.5150 0.5117 0.5079 0.5042
2848.000000 0.5001 0.4959 0.4917 0.4879 0.4850
2853.000000 0.4820 0.4790 0.4760 0.4730 0.4701
2858.000000 0.4676 0.4652 0.4628 0.4605 0.4582
2863.000000 0.4558 0.4538 0.4522 0.4507 0.4491
2868.000000 0.4480 0.4468 0.4457 0.4450 0.4446
2873.000000 0.4442 0.4438 0.4434 0.4430 0.4427
2878.000000 0.4428 0.4429 0.4430 0.4431 0.4432
2883.000000 0.4433 0.4436 0.4440 0.4445 0.4451
2888.000000 0.4466 0.4481 0.4496 0.4523 0.4553
2893.000000 0.4583 0.4627 0.4687 0.4747 0.4809
2898.000000 0.4880 0.4951 0.5022 0.5055 0.5076
2903.000000 0.5098 0.5117 0.5135 0.5152 0.5169
2908.000000 0.5186 0.5203 0.5219 0.5240 0.5262
2913.000000 0.5284 0.5317 0.5384 0.5451 0.5517
2918.000000 0.5607 0.5700 0.5793 0.5887 0.5980
2923.000000 0.6073 0.6167 0.6260 0.6353 0.6446
2928.000000 0.6539 0.6632 0.6724 0.6817 0.6910
2933.000000 0.7003 0.7095 0.7188 0.7280 0.7373
2938.000000 0.7452 0.7495 0.7538 0.7581 0.7603
2943.000000 0.7620 0.7637 0.7654 0.7671 0.7688
2948.000000 0.7705 0.7722 0.7738 0.7755 0.7772
2953.000000 0.7789 0.7806 0.7822 0.7838 0.7854
2958.000000 0.7869 0.7884 0.7898 0.7911 0.7924
2963.000000 0.7938 0.7951 0.7964 0.7976 0.7985
2968.000000 0.7994 0.8002 0.8011 0.8020 0.8029
2973.000000 0.8037 0.8045 0.8053 0.8061 0.8065
2978.000000 0.8067 0.8070 0.8072 0.8075 0.8078
2983.000000 0.8081 0.8083 0.8086 0.8088 0.8091
2988.000000 0.8093 0.8096 0.8098 0.8100 0.8102
2993.000000 0.8104 0.8105 0.8106 0.8107 0.8107
2998.000000 0.8108 0.8108 0.8109 0.8109 0.8110
3003.000000 0.8110 0.8111 0.8111 0.8111 0.8110
3008.000000 0.8110 0.8109 0.8108 0.8107 0.8107
3013.000000 0.8106 0.8105 0.8105 0.8104 0.8103
3018.000000 0.8103 0.8102 0.8102 0.8102 0.8102
3023.000000 0.8102 0.8102 0.8102 0.8102 0.8102
3028.000000 0.8102 0.8102 0.8102 0.8102 0.8102
3033.000000 0.8102 0.8103 0.8103 0.8104 0.8104
3038.000000 0.8105 0.8106 0.8108 0.8109 0.8110
3043.000000 0.8112 0.8113 0.8114 0.8117 0.8120
3048.000000 0.8123 0.8126 0.8129 0.8133 0.8136
3053.000000 0.8140 0.8144 0.8148 0.8152 0.8161
3058.000000 0.8170 0.8180 0.8190 0.8212 0.8234
3063.000000 0.8256 0.8279 0.8305 0.8331 0.8358
3068.000000 0.8381 0.8401 0.8421 0.8441 0.8457
3073.000000 0.8472 0.8486 0.8501 0.8517 0.8516
3078.000000 0.8523 0.8530 0.8533 0.8535 0.8538
3083.000000 0.8540 0.8541 0.8542 0.8543 0.8544
3088.000000 0.8544 0.8545 0.8545 0.8546 0.8546
3093.000000 0.8546 0.8546 0.8545 0.8545 0.8545
3098.000000 0.8544 0.8544 0.8544 0.8544 0.8544
3103.000000 0.8544 0.8544 0.8544 0.8543 0.8543
3108.000000 0.8543 0.8543 0.8542 0.8542 0.8541
3113.000000 0.8541 0.8540 0.8540 0.8539 0.8539
3118.000000 0.8538 0.8538 0.8537 0.8537 0.8536
3123.000000 0.8536 0.8536 0.8536 0.8535 0.8534
3128.000000 0.8534 0.8533 0.8533 0.8532 0.8532
3133.000000 0.8531 0.8531 0.8530 0.8530 0.8529
3138.000000 0.8529 0.8528 0.8528 0.8527 0.8527
3143.000000 0.8527 0.8527 0.8526 0.8526 0.8525
3148.000000 0.8525 0.8524 0.8524 0.8523 0.8523
3153.000000 0.8522 0.8522 0.8521 0.8521 0.8520
3158.000000 0.8520 0.8519 0.8519 0.8518 0.8518
3163.000000 0.8517 0.8517 0.8516 0.8516 0.8515
3168.000000 0.8515 0.8514 0.8513 0.8513 0.8512
3173.000000 0.8511 0.8510 0.8510 0.8509 0.8508
3178.000000 0.8507 0.8507 0.8506 0.8505 0.8505
3183.000000 0.8504 0.8503 0.8502 0.8502 0.8501
3188.000000 0.8500 0.8499 0.8499 0.8498 0.8497
3193.000000 0.8496 0.8496 0.8495 0.8494 0.8493
3198.000000 0.8493 0.8492 0.8491 0.8491 0.8490
3203.000000 0.8489 0.8488 0.8488 0.8487 0.8486
3208.000000 0.8485 0.8485 0.8484 0.8483 0.8482
3213.000000 0.8482 0.8481 0.8480 0.8480 0.8479
3218.000000 0.8478 0.8477 0.8476 0.8475 0.8474
3223.000000 0.8473 0.8472 0.8471 0.8470 0.8469
3228.000000 0.8468 0.8467 0.8466 0.8466 0.8465
3233.000000 0.8464 0.8464 0.8463 0.8462 0.8461
3238.000000 0.8460 0.8459 0.8458 0.8457 0.8456
3243.000000 0.8455 0.8454 0.8453 0.8452 0.8451
3248.000000 0.8451 0.8450 0.8449 0.8448 0.8448
3253.000000 0.8447 0.8446 0.8445 0.8444 0.8443
3258.000000 0.8442 0.8441 0.8440 0.8439 0.8438
3263.000000 0.8437 0.8436 0.8435 0.8434 0.8433
3268.000000 0.8432 0.8432 0.8431 0.8430 0.8429
3273.000000 0.8428 0.8427 0.8426 0.8425 0.8424
3278.000000 0.8423 0.8422 0.8421 0.8420 0.8419
3283.000000 0.8418 0.8418 0.8417 0.8416 0.8415
3288.000000 0.8414 0.8413 0.8412 0.8411 0.8410
3293.000000 0.8408 0.8407 0.8406 0.8405 0.8405
3298.000000 0.8404 0.8403 0.8402 0.8401 0.8400
3303.000000 0.8399 0.8398 0.8397 0.8396 0.8395
3308.000000 0.8394 0.8394 0.8393 0.8392 0.8391
3313.000000 0.8390 0.8389 0.8388 0.8387 0.8386
3318.000000 0.8385 0.8384 0.8384 0.8383 0.8383
3323.000000 0.8382 0.8382 0.8381 0.8381 0.8380
3328.000000 0.8380 0.8379 0.8379 0.8379 0.8378
3333.000000 0.8378 0.8377 0.8377 0.8376 0.8376
3338.000000 0.8375 0.8375 0.8375 0.8374 0.8374
3343.000000 0.8373 0.8373 0.8372 0.8372 0.8371
3348.000000 0.8371 0.8370 0.8370 0.8370 0.8369
3353.000000 0.8369 0.8368 0.8368 0.8367 0.8367
3358.000000 0.8366 0.8366 0.8366 0.8365 0.8365
3363.000000 0.8365 0.8365 0.8364 0.8364 0.8364
3368.000000 0.8363 0.8363 0.8362 0.8362 0.8361
3373.000000 0.8361 0.8360 0.8360 0.8360 0.8359
3378.000000 0.8359 0.8358 0.8358 0.8358 0.8358
3383.000000 0.8358 0.8358 0.8358 0.8358 0.8358
3388.000000 0.8358 0.8358 0.8358 0.8358 0.8358
3393.000000 0.8358 0.8358 0.8358 0.8358 0.8359
3398.000000 0.8359 0.8359 0.8359 0.8359 0.8359
3403.000000 0.8359 0.8359 0.8359 0.8360 0.8360
3408.000000 0.8360 0.8360 0.8360 0.8360 0.8360
3413.000000 0.8360 0.8360 0.8360 0.8360 0.8360
3418.000000 0.8360 0.8360 0.8361 0.8361 0.8361
3423.000000 0.8361 0.8361 0.8361 0.8361 0.8361
3428.000000 0.8361 0.8361 0.8362 0.8362 0.8362
3433.000000 0.8362 0.8362 0.8362 0.8362 0.8362
3438.000000 0.8362 0.8362 0.8362 0.8362 0.8362
3443.000000 0.8362 0.8361 0.8361 0.8360 0.8360
3448.000000 0.8360 0.8359 0.8359 0.8358 0.8358
3453.000000 0.8358 0.8357 0.8357 0.8356 0.8356
3458.000000 0.8355 0.8355 0.8355 0.8354 0.8354
3463.000000 0.8353 0.8353 0.8353 0.8352 0.8352
3468.000000 0.8351 0.8351 0.8350 0.8350 0.8350
3473.000000 0.8349 0.8348 0.8348 0.8347 0.8347
3478.000000 0.8346 0.8345 0.8344 0.8343 0.8342
3483.000000 0.8342 0.8341 0.8340 0.8339 0.8338
3488.000000 0.8337 0.8336 0.8335 0.8334 0.8333
3493.000000 0.8332 0.8332 0.8331 0.8330 0.8329
3498.000000 0.8328 0.8327 0.8327 0.8326 0.8325
3503.000000 0.8324 0.8323 0.8323 0.8322 0.8321
3508.000000 0.8320 0.8319 0.8319 0.8318 0.8317
3513.000000 0.8316 0.8315 0.8314 0.8314 0.8313
3518.000000 0.8312 0.8311 0.8310 0.8309 0.8308
3523.000000 0.8307 0.8306 0.8305 0.8305 0.8304
3528.000000 0.8303 0.8302 0.8301 0.8301 0.8300
3533.000000 0.8299 0.8298 0.8297 0.8297 0.8296
3538.000000 0.8295 0.8294 0.8293 0.8293 0.8292
3543.000000 0.8291 0.8290 0.8289 0.8288 0.8287
3548.000000 0.8286 0.8285 0.8284 0.8283 0.8282
3553.000000 0.8281 0.8280 0.8279 0.8278 0.8277
3558.000000 0.8275 0.8274 0.8273 0.8272 0.8271
3563.000000 0.8270 0.8269 0.8268 0.8267 0.8266
3568.000000 0.8265 0.8264 0.8263 0.8262 0.8261
3573.000000 0.8260 0.8258 0.8257 0.8256 0.8255
3578.000000 0.8254 0.8253 0.8252 0.8251 0.8250
3583.000000 0.8249 0.8248 0.8247 0.8246 0.8245
3588.000000 0.8244 0.8243 0.8242 0.8241 0.8239
3593.000000 0.8238 0.8238 0.8237 0.8236 0.8235
3598.000000 0.8234 0.8233 0.8232 0.8231 0.8230
3603.000000 0.8229 0.8228 0.8226 0.8225 0.8224
3608.000000 0.8223 0.8222 0.8221 0.8220 0.8219
3613.000000 0.8218 0.8217 0.8216 0.8215 0.8214
3618.000000 0.8213 0.8212 0.8211 0.8210 0.8209
3623.000000 0.8208 0.8207 0.8206 0.8205 0.8204
3628.000000 0.8203 0.8202 0.8201 0.8200 0.8199
3633.000000 0.8198 0.8197 0.8196 0.8195 0.8194
3638.000000 0.8193 0.8192 0.8190 0.8189 0.8188
3643.000000 0.8186 0.8185 0.8184 0.8183 0.8181
3648.000000 0.8180 0.8179 0.8178 0.8177 0.8175
3653.000000 0.8174 0.8173 0.8171 0.8170 0.8169
3658.000000 0.8168 0.8166 0.8165 0.8164 0.8163
3663.000000 0.8162 0.8160 0.8159 0.8158 0.8157
3668.000000 0.8155 0.8154 0.8153 0.8152 0.8150
3673.000000 0.8149 0.8148 0.8146 0.8145 0.8144
3678.000000 0.8143 0.8142 0.8141 0.8139 0.8138
3683.000000 0.8137 0.8136 0.8134 0.8133 0.8132
3688.000000 0.8131 0.8129 0.8128 0.8127 0.8125
3693.000000 0.8124 0.8123 0.8122 0.8121 0.8120
3698.000000 0.8119 0.8118 0.8116 0.8115 0.8114
3703.000000 0.8112 0.8111 0.8110 0.8109 0.8107
3708.000000 0.8106 0.8105 0.8104 0.8103 0.8101
3713.000000 0.8100 0.8099 0.8098 0.8097 0.8096
3718.000000 0.8094 0.8093 0.8092 0.8091 0.8090
3723.000000 0.8089 0.8087 0.8086 0.8085 0.8084
3728.000000 0.8083 0.8081 0.8080 0.8079 0.8078
3733.000000 0.8076 0.8075 0.8074 0.8073 0.8071
3738.000000 0.8070 0.8069 0.8068 0.8067 0.8066
3743.000000 0.8065 0.8064 0.8062 0.8061 0.8060
3748.000000 0.8059 0.8057 0.8056 0.8055 0.8054
3753.000000 0.8052 0.8051 0.8050 0.8049 0.8048
3758.000000 0.8047 0.8046 0.8045 0.8044 0.8042
3763.000000 0.8041 0.8040 0.8039 0.8037 0.8036
3768.000000 0.8035 0.8034 0.8032 0.8031 0.8030
3773.000000 0.8029 0.8027 0.8026 0.8025 0.8024
3778.000000 0.8023 0.8021 0.8020 0.8019 0.8018
3783.000000 0.8016 0.8015 0.8014 0.8013 0.8012
3788.000000 0.8010 0.8009 0.8008 0.8006 0.8005
3793.000000 0.8003 0.8002 0.8001 0.8000 0.7998
3798.000000 0.7997 0.7996 0.7995 0.7994 0.7992
3803.000000 0.7991 0.7990 0.7989 0.7988 0.7986
3808.000000 0.7985 0.7984 0.7983 0.7981 0.7980
3813.000000 0.7979 0.7977 0.7976 0.7975 0.7973
3818.000000 0.7972 0.7971 0.7970 0.7968 0.7967
3823.000000 0.7966 0.7965 0.7964 0.7962 0.7961
3828.000000 0.7960 0.7959 0.7958 0.7957 0.7955
3833.000000 0.7954 0.7953 0.7952 0.7950 0.7949
3838.000000 0.7948 0.7946 0.7945 0.7944 0.7942
3843.000000 0.7941 0.7940 0.7939 0.7938 0.7937
3848.000000 0.7935 0.7934 0.7933 0.7932 0.7931
3853.000000 0.7929 0.7928 0.7927 0.7925 0.7924
3858.000000 0.7923 0.7921 0.7920 0.7919 0.7918
3863.000000 0.7917 0.7915 0.7914 0.7913 0.7912
3868.000000 0.7911 0.7910 0.7908 0.7907 0.7906
3873.000000 0.7905 0.7904 0.7903 0.7901 0.7900
3878.000000 0.7899 0.7897 0.7896 0.7895 0.7893
3883.000000 0.7892 0.7891 0.7890 0.7889 0.7888
3888.000000 0.7887 0.7885 0.7884 0.7883 0.7882
3893.000000 0.7881 0.7880 0.7878 0.7877 0.7876
3898.000000 0.7875 0.7874 0.7873 0.7871 0.7870
3903.000000 0.7869 0.7867 0.7866 0.7865 0.7864
3908.000000 0.7862 0.7861 0.7860 0.7858 0.7857
3913.000000 0.7856 0.7854 0.7853 0.7852 0.7850
3918.000000 0.7849 0.7848 0.7847 0.7845 0.7844
3923.000000 0.7843 0.7841 0.7840 0.7839 0.7837
3928.000000 0.7836 0.7834 0.7833 0.7831 0.7830
3933.000000 0.7829 0.7827 0.7826 0.7825 0.7824
3938.000000 0.7822 0.7821 0.7820 0.7818 0.7817
3943.000000 0.7816 0.7814 0.7813 0.7811 0.7810
3948.000000 0.7809 0.7807 0.7806 0.7805 0.7803
3953.000000 0.7802 0.7801 0.7799 0.7798 0.7797
3958.000000 0.7796 0.7794 0.7793 0.7792 0.7790
3963.000000 0.7789 0.7788 0.7786 0.7785 0.7783
3968.000000 0.7782 0.7781 0.7779 0.7778 0.7777
3973.000000 0.7775 0.7774 0.7773 0.7772 0.7770
3978.000000 0.7769 0.7768 0.7767 0.7765 0.7764
3983.000000 0.7763 0.7761 0.7760 0.7758 0.7757
3988.000000 0.7756 0.7754 0.7753 0.7752 0.7751
3993.000000 0.7749 0.7748 0.7747 0.7746 0.7744
3998.000000 0.7743 0.7742 0.7741
##END=
