##TITLE=PROPYL SULFONE
##JCAMP-DX=4.24
##DATA TYPE=INFRARED SPECTRUM
##CLASS=COBLENTZ III
##ORIGIN=DOW CHEMICAL COMPANY
##OWNER=COBLENTZ SOCIETY
Collection (C) 2018 copyright by the U.S. Secretary of Commerce
on behalf of the United States of America. All rights reserved.
##DATE=1952/10/18
##NAMES=dipropyl sulfone
1-(propylsulfonyl)propane
##CAS REGISTRY NO=598-03-8
##MOLFORM=C6 H14 O2 S
##SOURCE REFERENCE=COBLENTZ NO. 6508
##$NIST SOURCE=COBLENTZ
##$NIST IMAGE=cob6508
##SPECTROMETER/DATA SYSTEM=BAIRD (PRISM)
##INSTRUMENT PARAMETERS=NaCl PRISM
##STATE=SOLUTION (10% CCl4 FOR 2-7.5, 10% CS2 FOR 7.5-16 MICRON) VS SOLVENT
##PATH LENGTH=0.012 CM, 0.012 CM
##SAMPLING PROCEDURE=TRANSMISSION
##RESOLUTION=2
##DATA PROCESSING=DIGITIZED BY NIST FROM HARD COPY
##XUNITS=MICROMETERS
##YUNITS=TRANSMITTANCE
##XFACTOR=1.000000
##YFACTOR=1
##DELTAX=000.004874
##FIRSTX=1.972
##LASTX=15.902
##FIRSTY=0.9
##MAXX=15.902
##MINX=1.972
##MAXY=0.985
##MINY=0.017
##NPOINTS=2859
##XYDATA=(X++(Y..Y))
1.972000 0.9000 0.9000 0.9000 0.9000 0.8990
1.996379 0.9000 0.9000 0.9000 0.9000 0.8990
2.020000 0.8990 0.8990 0.8990 0.8980 0.8980
2.044379 0.8980 0.8980 0.8980 0.8980 0.8980
2.069000 0.8980 0.8980 0.8990 0.8990 0.8990
2.093379 0.9000 0.9000 0.9000 0.9000 0.9020
2.118000 0.9020 0.9020 0.9020 0.9030 0.9030
2.142379 0.9030 0.9030 0.9030 0.9030 0.9030
2.167000 0.9030 0.9030 0.9020 0.9000 0.8980
2.191379 0.8960 0.8960 0.8920 0.8880 0.8820
2.215000 0.8780 0.8740 0.8700 0.8650 0.8630
2.239379 0.8600 0.8590 0.8580 0.8560 0.8540
2.264000 0.8540 0.8530 0.8530 0.8530 0.8530
2.288379 0.8540 0.8550 0.8590 0.8610 0.8640
2.313000 0.8670 0.8710 0.8740 0.8760 0.8770
2.337379 0.8770 0.8770 0.8770 0.8760 0.8750
2.361000 0.8750 0.8740 0.8740 0.8740 0.8740
2.385379 0.8740 0.8740 0.8750 0.8750 0.8750
2.410000 0.8770 0.8780 0.8800 0.8810 0.8820
2.434379 0.8830 0.8830 0.8850 0.8860 0.8850
2.459000 0.8860 0.8870 0.8880 0.8890 0.8910
2.483379 0.8910 0.8920 0.8930 0.8930 0.8940
2.508000 0.8970 0.9000 0.9050 0.9100 0.9130
2.532379 0.9130 0.9140 0.9140 0.9140 0.9130
2.556000 0.9130 0.9100 0.9090 0.9070 0.9040
2.580379 0.9030 0.9020 0.9000 0.8980 0.8940
2.605000 0.8930 0.8930 0.8930 0.8930 0.8940
2.629379 0.8970 0.8980 0.9000 0.9020 0.9030
2.654000 0.9040 0.9040 0.9040 0.9040 0.9030
2.678379 0.9020 0.9000 0.8990 0.8910 0.8870
2.703000 0.8850 0.8830 0.8830 0.8830 0.8830
2.727379 0.8830 0.8830 0.8850 0.8870 0.8870
2.751000 0.8870 0.8870 0.8870 0.8870 0.8860
2.775379 0.8860 0.8830 0.8810 0.8780 0.8760
2.800000 0.8710 0.8650 0.8640 0.8640 0.8640
2.824379 0.8650 0.8690 0.8720 0.8760 0.8800
2.849000 0.8830 0.8860 0.8890 0.8910 0.8920
2.873379 0.8920 0.8920 0.8930 0.8940 0.8960
2.898000 0.8960 0.8960 0.8960 0.8960 0.8960
2.922379 0.8960 0.8960 0.8960 0.8960 0.8960
2.946000 0.8940 0.8940 0.8940 0.8940 0.8940
2.970379 0.8940 0.8940 0.8930 0.8920 0.8920
2.995000 0.8910 0.8910 0.8890 0.8890 0.8880
3.019379 0.8870 0.8860 0.8850 0.8850 0.8830
3.044000 0.8820 0.8820 0.8810 0.8810 0.8810
3.068379 0.8810 0.8810 0.8810 0.8810 0.8810
3.093000 0.8800 0.8800 0.8800 0.8800 0.8800
3.117379 0.8780 0.8780 0.8760 0.8750 0.8740
3.141000 0.8740 0.8750 0.8760 0.8780 0.8820
3.165379 0.8820 0.8820 0.8830 0.8830 0.8830
3.190000 0.8830 0.8830 0.8830 0.8820 0.8800
3.214379 0.8760 0.8750 0.8740 0.8710 0.8690
3.239000 0.8650 0.8630 0.8600 0.8560 0.8540
3.263379 0.8500 0.8450 0.8390 0.8330 0.8170
3.288000 0.8090 0.7990 0.7870 0.7720 0.7530
3.312379 0.7290 0.7020 0.6720 0.5960 0.5520
3.336000 0.5030 0.4200 0.3700 0.2660 0.2260
3.360379 0.1690 0.1650 0.1660 0.2040 0.2420
3.385000 0.3010 0.3200 0.3370 0.3780 0.4040
3.409379 0.4260 0.4680 0.4920 0.5010 0.5080
3.434000 0.5090 0.5090 0.5080 0.4970 0.4980
3.458379 0.5000 0.5360 0.6240 0.6610 0.6960
3.483000 0.7540 0.7930 0.8170 0.8230 0.8270
3.507379 0.8300 0.8310 0.8320 0.8330 0.8360
3.531000 0.8380 0.8430 0.8490 0.8560 0.8590
3.555379 0.8600 0.8630 0.8650 0.8700 0.8770
3.580000 0.8800 0.8820 0.8860 0.8870 0.8860
3.604379 0.8860 0.8850 0.8820 0.8780 0.8750
3.629000 0.8700 0.8690 0.8700 0.8740 0.8780
3.653379 0.8820 0.8890 0.8970 0.9000 0.9030
3.677000 0.9040 0.9040 0.9040 0.9040 0.9040
3.701379 0.9040 0.9040 0.9030 0.9020 0.9000
3.726000 0.8980 0.8970 0.8920 0.8910 0.8890
3.750379 0.8890 0.8890 0.8910 0.8960 0.9000
3.775000 0.9040 0.9050 0.9070 0.9070 0.9070
3.799379 0.9070 0.9080 0.9090 0.9090 0.9100
3.824000 0.9100 0.9100 0.9100 0.9090 0.9090
3.848379 0.9080 0.9070 0.9070 0.9070 0.9080
3.872000 0.9090 0.9110 0.9110 0.9130 0.9130
3.896379 0.9130 0.9110 0.9100 0.9080 0.9080
3.921000 0.9080 0.9080 0.9080 0.9100 0.9100
3.945379 0.9100 0.9100 0.9100 0.9100 0.9080
3.970000 0.9050 0.9050 0.9030 0.9030 0.9030
3.994379 0.9020 0.9020 0.9020 0.9020 0.9020
4.019000 0.9000 0.9000 0.9000 0.8990 0.8990
4.043379 0.8980 0.8970 0.8960 0.8940 0.8920
4.067000 0.8910 0.8890 0.8890 0.8880 0.8870
4.091379 0.8870 0.8860 0.8860 0.8830 0.8830
4.116000 0.8830 0.8850 0.8850 0.8860 0.8870
4.140379 0.8920 0.8960 0.9000 0.9040 0.9080
4.165000 0.9100 0.9100 0.9100 0.9100 0.9110
4.189379 0.9110 0.9110 0.9100 0.9070 0.9070
4.214000 0.9040 0.9040 0.9000 0.9000 0.9000
4.238379 0.9000 0.9000 0.9040 0.9070 0.9080
4.262000 0.9100 0.9110 0.9110 0.9110 0.9100
4.286379 0.9080 0.9070 0.9070 0.9070 0.9070
4.311000 0.9070 0.9070 0.9070 0.9080 0.9130
4.335379 0.9130 0.9130 0.9110 0.9080 0.9040
4.360000 0.8990 0.8960 0.8920 0.8910 0.8890
4.384379 0.8890 0.8890 0.8890 0.8890 0.8890
4.409000 0.8890 0.8910 0.8970 0.8970 0.8980
4.433379 0.8980 0.8980 0.8990 0.8990 0.9000
4.457000 0.9000 0.9000 0.9020 0.9020 0.9020
4.481379 0.9040 0.9040 0.9070 0.9110 0.9140
4.506000 0.9140 0.9130 0.9110 0.9100 0.9080
4.530379 0.9090 0.9080 0.9070 0.9070 0.9050
4.555000 0.9050 0.9050 0.9050 0.9050 0.9050
4.579379 0.9070 0.9080 0.9090 0.9100 0.9100
4.604000 0.9090 0.9090 0.9090 0.9090 0.9090
4.628379 0.9090 0.9090 0.9080 0.9080 0.9080
4.652000 0.9070 0.9070 0.9070 0.9050 0.9050
4.676379 0.9050 0.9050 0.9050 0.9050 0.9050
4.701000 0.9050 0.9070 0.9070 0.9080 0.9090
4.725379 0.9090 0.9070 0.9070 0.9050 0.9050
4.750000 0.9050 0.9050 0.9050 0.9050 0.9050
4.774379 0.9070 0.9070 0.9080 0.9110 0.9130
4.799000 0.9130 0.9130 0.9130 0.9130 0.9130
4.823379 0.9130 0.9130 0.9130 0.9130 0.9130
4.847000 0.9130 0.9110 0.9110 0.9100 0.9090
4.871379 0.9080 0.9080 0.9070 0.9070 0.9070
4.896000 0.9070 0.9070 0.9080 0.9110 0.9140
4.920379 0.9150 0.9150 0.9140 0.9100 0.9090
4.945000 0.9090 0.9090 0.9090 0.9090 0.9090
4.969379 0.9090 0.9090 0.9150 0.9150 0.9150
4.994000 0.9130 0.9070 0.9070 0.9070 0.9070
5.018379 0.9070 0.9070 0.9080 0.9110 0.9140
5.042000 0.9150 0.9160 0.9160 0.9160 0.9160
5.066379 0.9160 0.9160 0.9150 0.9140 0.9140
5.091000 0.9130 0.9140 0.9140 0.9150 0.9160
5.115379 0.9160 0.9160 0.9160 0.9150 0.9150
5.140000 0.9110 0.9110 0.9110 0.9110 0.9110
5.164379 0.9110 0.9110 0.9140 0.9180 0.9190
5.188000 0.9190 0.9190 0.9190 0.9180 0.9140
5.212379 0.9130 0.9130 0.9110 0.9110 0.9110
5.237000 0.9110 0.9130 0.9200 0.9210 0.9210
5.261379 0.9200 0.9190 0.9180 0.9160 0.9160
5.286000 0.9150 0.9150 0.9140 0.9130 0.9130
5.310379 0.9130 0.9150 0.9160 0.9180 0.9190
5.335000 0.9200 0.9200 0.9200 0.9200 0.9200
5.359379 0.9200 0.9200 0.9200 0.9200 0.9200
5.383000 0.9190 0.9190 0.9190 0.9180 0.9180
5.407379 0.9180 0.9160 0.9180 0.9160 0.9150
5.432000 0.9140 0.9140 0.9150 0.9160 0.9190
5.456379 0.9190 0.9180 0.9180 0.9150 0.9140
5.481000 0.9140 0.9140 0.9150 0.9150 0.9150
5.505379 0.9180 0.9180 0.9180 0.9180 0.9160
5.530000 0.9160 0.9160 0.9150 0.9150 0.9140
5.554379 0.9140 0.9140 0.9130 0.9130 0.9110
5.578000 0.9130 0.9130 0.9130 0.9100 0.9100
5.602379 0.9110 0.9110 0.9140 0.9150 0.9150
5.627000 0.9140 0.9140 0.9130 0.9110 0.9110
5.651379 0.9100 0.9100 0.9100 0.9100 0.9100
5.676000 0.9100 0.9100 0.9100 0.9100 0.9100
5.700379 0.9110 0.9140 0.9150 0.9150 0.9140
5.725000 0.9130 0.9100 0.9080 0.9080 0.9070
5.749379 0.9040 0.9040 0.9030 0.9030 0.9030
5.773000 0.9020 0.9030 0.9030 0.9040 0.9040
5.797379 0.9040 0.9040 0.9070 0.9070 0.9080
5.822000 0.9090 0.9090 0.9100 0.9100 0.9110
5.846379 0.9110 0.9110 0.9110 0.9100 0.9080
5.871000 0.9080 0.9050 0.9020 0.9000 0.9000
5.895379 0.9000 0.9000 0.9000 0.9020 0.9030
5.920000 0.9040 0.9040 0.9040 0.9040 0.9040
5.944379 0.9040 0.9040 0.9040 0.9040 0.9040
5.968000 0.9040 0.9040 0.9040 0.9040 0.9040
5.992379 0.9040 0.9040 0.9040 0.9040 0.9040
6.017000 0.9040 0.9030 0.9030 0.9020 0.9020
6.041379 0.9000 0.8990 0.8970 0.8940 0.8930
6.066000 0.8910 0.8880 0.8870 0.8860 0.8850
6.090379 0.8850 0.8830 0.8830 0.8830 0.8830
6.115000 0.8830 0.8860 0.8860 0.8860 0.8860
6.139379 0.8860 0.8860 0.8860 0.8860 0.8830
6.163000 0.8830 0.8830 0.8830 0.8830 0.8830
6.187379 0.8850 0.8850 0.8860 0.8880 0.8910
6.212000 0.8960 0.8990 0.9020 0.9070 0.9110
6.236379 0.9180 0.9220 0.9270 0.9300 0.9330
6.261000 0.9350 0.9360 0.9370 0.9400 0.9400
6.285379 0.9410 0.9420 0.9420 0.9420 0.9420
6.310000 0.9420 0.9420 0.9420 0.9430 0.9430
6.334379 0.9440 0.9440 0.9440 0.9440 0.9440
6.358000 0.9460 0.9460 0.9460 0.9460 0.9480
6.382379 0.9510 0.9520 0.9540 0.9570 0.9590
6.407000 0.9630 0.9680 0.9730 0.9770 0.9840
6.431379 0.9850 0.9850 0.9850 0.9840 0.9840
6.456000 0.9810 0.9800 0.9760 0.9740 0.9700
6.480379 0.9660 0.9620 0.9580 0.9570 0.9570
6.504000 0.9570 0.9570 0.9550 0.9570 0.9570
6.528379 0.9570 0.9570 0.9570 0.9570 0.9570
6.553000 0.9570 0.9570 0.9570 0.9570 0.9570
6.577379 0.9550 0.9510 0.9440 0.9360 0.9270
6.602000 0.9160 0.9100 0.9030 0.8970 0.8910
6.626379 0.8860 0.8800 0.8750 0.8700 0.8660
6.651000 0.8610 0.8580 0.8540 0.8520 0.8480
6.675379 0.8440 0.8410 0.8360 0.8250 0.8150
6.699000 0.8050 0.8000 0.7940 0.7880 0.7810
6.723379 0.7720 0.7610 0.7500 0.7350 0.7180
6.748000 0.6990 0.6770 0.6240 0.5910 0.5610
6.772379 0.5300 0.4680 0.4370 0.4070 0.3760
6.797000 0.3450 0.3010 0.2930 0.2830 0.2820
6.821379 0.2820 0.2830 0.3000 0.3250 0.3410
6.846000 0.3550 0.3890 0.4260 0.4660 0.4860
6.870379 0.5060 0.5450 0.5810 0.6160 0.6440
6.894000 0.6660 0.6730 0.6800 0.6980 0.7120
6.918379 0.7260 0.7380 0.7490 0.7560 0.7620
6.943000 0.7660 0.7660 0.7670 0.7680 0.7680
6.967379 0.7680 0.7680 0.7670 0.7660 0.7610
6.992000 0.7540 0.7420 0.7330 0.7220 0.7090
7.016379 0.6910 0.6730 0.6340 0.6130 0.5910
7.041000 0.5680 0.5500 0.5290 0.5060 0.4870
7.065379 0.4820 0.4730 0.4710 0.4730 0.4870
7.089000 0.4960 0.5030 0.5470 0.5850 0.6190
7.113379 0.6470 0.6610 0.6730 0.6940 0.7110
7.138000 0.7230 0.7340 0.7400 0.7440 0.7450
7.162379 0.7440 0.7370 0.7320 0.7200 0.7050
7.187000 0.6910 0.6800 0.6500 0.6400 0.6390
7.211379 0.6390 0.6390 0.6410 0.6660 0.6780
7.236000 0.6890 0.7150 0.7370 0.7570 0.7750
7.260379 0.7810 0.7840 0.7860 0.7840 0.7810
7.284000 0.7780 0.7750 0.7670 0.7560 0.7440
7.308379 0.7280 0.7110 0.6940 0.6740 0.6350
7.333000 0.6110 0.5910 0.5680 0.5480 0.5230
7.357379 0.4710 0.4480 0.4260 0.4050 0.3850
7.382000 0.3650 0.3470 0.3430 0.3320 0.3330
7.406379 0.3330 0.3330 0.3450 0.3610 0.3820
7.431000 0.4020 0.4210 0.4350 0.4360 0.4370
7.455379 0.4360 0.4190 0.4040 0.3820 0.3610
7.479000 0.3410 0.3010 0.2820 0.2620 0.2420
7.503379 0.2210 0.1980 0.1740 0.1220 0.1020
7.528000 0.0850 0.0730 0.0610 0.0520 0.0440
7.552379 0.0360 0.0330 0.0310 0.0300 0.0290
7.577000 0.0290 0.0290 0.0300 0.0300 0.0310
7.601379 0.0330 0.0340 0.0350 0.0350 0.0360
7.626000 0.0360 0.0390 0.0410 0.0440 0.0470
7.650379 0.0530 0.0610 0.0670 0.0720 0.0750
7.674000 0.0750 0.0780 0.0790 0.0790 0.0800
7.698379 0.0790 0.0730 0.0690 0.0630 0.0590
7.723000 0.0560 0.0520 0.0500 0.0480 0.0460
7.747379 0.0440 0.0390 0.0370 0.0370 0.0370
7.772000 0.0370 0.0390 0.0390 0.0410 0.0520
7.796379 0.0750 0.1010 0.1290 0.1600 0.1770
7.820000 0.1930 0.2240 0.2560 0.2860 0.3140
7.844379 0.3260 0.3380 0.3590 0.3740 0.3860
7.869000 0.3960 0.4040 0.4100 0.4160 0.4200
7.893379 0.4240 0.4270 0.4290 0.4300 0.4310
7.918000 0.4320 0.4330 0.4330 0.4320 0.4290
7.942379 0.4240 0.4190 0.4130 0.4070 0.3990
7.967000 0.3960 0.3860 0.3850 0.3860 0.3910
7.991379 0.3980 0.4050 0.4140 0.4260 0.4380
8.015000 0.4530 0.4690 0.4860 0.4950 0.5030
8.039379 0.5200 0.5370 0.5550 0.5700 0.5850
8.064000 0.5970 0.6080 0.6210 0.6330 0.6410
8.088379 0.6510 0.6630 0.6680 0.6730 0.6830
8.113000 0.6870 0.6900 0.6910 0.6910 0.6900
8.137379 0.6870 0.6830 0.6780 0.6710 0.6510
8.162000 0.6350 0.6250 0.6130 0.6050 0.5950
8.186379 0.5850 0.5750 0.5660 0.5560 0.5550
8.210000 0.5550 0.5550 0.5560 0.5610 0.5660
8.234379 0.5740 0.5840 0.5960 0.6050 0.6130
8.259000 0.6210 0.6290 0.6380 0.6400 0.6450
8.283379 0.6490 0.6540 0.6560 0.6570 0.6580
8.308000 0.6600 0.6620 0.6660 0.6680 0.6710
8.332379 0.6760 0.6800 0.6880 0.6950 0.7020
8.357000 0.7110 0.7230 0.7320 0.7400 0.7460
8.381379 0.7530 0.7560 0.7610 0.7650 0.7660
8.405000 0.7680 0.7700 0.7710 0.7720 0.7720
8.429379 0.7730 0.7750 0.7750 0.7760 0.7760
8.454000 0.7760 0.7760 0.7760 0.7760 0.7760
8.478379 0.7760 0.7760 0.7750 0.7750 0.7730
8.503000 0.7720 0.7710 0.7700 0.7680 0.7660
8.527379 0.7640 0.7600 0.7550 0.7530 0.7500
8.552000 0.7450 0.7420 0.7380 0.7340 0.7310
8.576379 0.7260 0.7220 0.7170 0.7120 0.7060
8.600000 0.7000 0.6940 0.6870 0.6790 0.6710
8.624379 0.6500 0.6400 0.6300 0.6190 0.6070
8.649000 0.5950 0.5800 0.5660 0.5480 0.5330
8.673379 0.5140 0.4750 0.4540 0.4330 0.4100
8.698000 0.3880 0.3640 0.3390 0.2880 0.2620
8.722379 0.2330 0.2090 0.1900 0.1450 0.1250
8.747000 0.1070 0.0900 0.0750 0.0620 0.0510
8.771379 0.0420 0.0360 0.0330 0.0300 0.0280
8.795000 0.0240 0.0220 0.0200 0.0190 0.0180
8.819379 0.0170 0.0170 0.0170 0.0170 0.0180
8.844000 0.0190 0.0200 0.0230 0.0240 0.0260
8.868379 0.0290 0.0360 0.0440 0.0520 0.0660
8.893000 0.0860 0.1110 0.1380 0.1540 0.1680
8.917379 0.2000 0.2340 0.2680 0.3040 0.3220
8.942000 0.3390 0.3740 0.4050 0.4360 0.4640
8.966379 0.4900 0.5010 0.5110 0.5250 0.5290
8.990000 0.5360 0.5530 0.5690 0.5810 0.5970
9.014379 0.6100 0.6180 0.6230 0.6280 0.6290
9.039000 0.6320 0.6330 0.6330 0.6330 0.6320
9.063379 0.6290 0.6280 0.6230 0.6180 0.6120
9.088000 0.6060 0.5970 0.5880 0.5780 0.5680
9.112379 0.5590 0.5530 0.5480 0.5420 0.5370
9.136000 0.5310 0.5250 0.5220 0.5180 0.5150
9.160379 0.5140 0.5110 0.5110 0.5090 0.5090
9.185000 0.5110 0.5120 0.5130 0.5170 0.5200
9.209379 0.5260 0.5340 0.5400 0.5470 0.5530
9.234000 0.5570 0.5610 0.5620 0.5620 0.5610
9.258379 0.5610 0.5580 0.5570 0.5530 0.5510
9.283000 0.5470 0.5440 0.5400 0.5390 0.5370
9.307379 0.5370 0.5370 0.5390 0.5410 0.5470
9.331000 0.5560 0.5640 0.5700 0.5770 0.5790
9.355379 0.5790 0.5790 0.5790 0.5790 0.5780
9.380000 0.5750 0.5730 0.5680 0.5640 0.5590
9.404379 0.5550 0.5500 0.5450 0.5410 0.5370
9.429000 0.5340 0.5330 0.5330 0.5330 0.5330
9.453379 0.5330 0.5330 0.5330 0.5310 0.5300
9.478000 0.5300 0.5290 0.5250 0.5230 0.5190
9.502379 0.5180 0.5180 0.5180 0.5180 0.5180
9.526000 0.5180 0.5190 0.5230 0.5260 0.5330
9.550379 0.5410 0.5550 0.5700 0.5860 0.6000
9.575000 0.6170 0.6300 0.6430 0.6540 0.6620
9.599379 0.6670 0.6710 0.6770 0.6830 0.6890
9.624000 0.6950 0.7000 0.7060 0.7120 0.7180
9.648379 0.7260 0.7340 0.7390 0.7450 0.7510
9.673000 0.7560 0.7640 0.7720 0.7790 0.7870
9.697379 0.7950 0.8010 0.8080 0.8110 0.8150
9.721000 0.8200 0.8230 0.8260 0.8300 0.8320
9.745379 0.8330 0.8340 0.8370 0.8390 0.8420
9.770000 0.8430 0.8430 0.8470 0.8470 0.8470
9.794379 0.8470 0.8470 0.8470 0.8480 0.8490
9.819000 0.8490 0.8490 0.8500 0.8500 0.8500
9.843379 0.8530 0.8560 0.8580 0.8580 0.8590
9.868000 0.8600 0.8600 0.8610 0.8610 0.8610
9.892379 0.8630 0.8640 0.8640 0.8660 0.8660
9.916000 0.8670 0.8670 0.8690 0.8700 0.8700
9.940379 0.8710 0.8710 0.8720 0.8740 0.8740
9.965000 0.8750 0.8750 0.8770 0.8770 0.8780
9.989379 0.8780 0.8800 0.8800 0.8800 0.8800
10.014000 0.8800 0.8800 0.8810 0.8810 0.8810
10.038379 0.8810 0.8810 0.8820 0.8820 0.8820
10.063000 0.8820 0.8820 0.8820 0.8820 0.8820
10.087379 0.8820 0.8820 0.8820 0.8820 0.8820
10.111000 0.8820 0.8820 0.8820 0.8820 0.8820
10.135379 0.8820 0.8820 0.8820 0.8820 0.8820
10.160000 0.8830 0.8830 0.8830 0.8850 0.8850
10.184379 0.8850 0.8850 0.8860 0.8860 0.8870
10.209000 0.8870 0.8870 0.8870 0.8880 0.8880
10.233379 0.8880 0.8870 0.8870 0.8870 0.8870
10.258000 0.8870 0.8870 0.8870 0.8870 0.8870
10.282379 0.8870 0.8870 0.8870 0.8870 0.8870
10.306000 0.8870 0.8870 0.8870 0.8870 0.8860
10.330379 0.8860 0.8860 0.8860 0.8860 0.8860
10.355000 0.8850 0.8850 0.8850 0.8850 0.8850
10.379379 0.8850 0.8830 0.8830 0.8830 0.8830
10.404000 0.8830 0.8830 0.8830 0.8830 0.8830
10.428379 0.8830 0.8830 0.8830 0.8850 0.8850
10.452000 0.8850 0.8850 0.8850 0.8860 0.8870
10.476379 0.8870 0.8870 0.8870 0.8870 0.8870
10.501000 0.8870 0.8870 0.8870 0.8860 0.8850
10.525379 0.8830 0.8820 0.8810 0.8810 0.8810
10.550000 0.8810 0.8810 0.8810 0.8810 0.8810
10.574379 0.8810 0.8810 0.8810 0.8810 0.8810
10.599000 0.8810 0.8810 0.8810 0.8810 0.8810
10.623379 0.8810 0.8810 0.8810 0.8810 0.8810
10.647000 0.8810 0.8810 0.8810 0.8810 0.8810
10.671379 0.8810 0.8810 0.8810 0.8810 0.8810
10.696000 0.8810 0.8810 0.8810 0.8810 0.8810
10.720379 0.8810 0.8810 0.8810 0.8810 0.8810
10.745000 0.8810 0.8810 0.8810 0.8810 0.8810
10.769379 0.8810 0.8810 0.8810 0.8800 0.8800
10.794000 0.8800 0.8800 0.8800 0.8780 0.8780
10.818379 0.8770 0.8760 0.8740 0.8710 0.8700
10.842000 0.8700 0.8690 0.8690 0.8670 0.8660
10.866379 0.8650 0.8640 0.8630 0.8610 0.8610
10.891000 0.8600 0.8590 0.8550 0.8530 0.8490
10.915379 0.8450 0.8410 0.8360 0.8260 0.8210
10.940000 0.8150 0.8090 0.8040 0.7980 0.7920
10.964379 0.7860 0.7770 0.7730 0.7680 0.7620
10.989000 0.7560 0.7500 0.7430 0.7370 0.7320
11.013379 0.7270 0.7240 0.7210 0.7210 0.7180
11.037000 0.7170 0.7170 0.7180 0.7210 0.7230
11.061379 0.7280 0.7340 0.7420 0.7480 0.7530
11.086000 0.7590 0.7640 0.7710 0.7770 0.7810
11.110379 0.7870 0.7900 0.7980 0.8000 0.8010
11.135000 0.8030 0.8090 0.8110 0.8140 0.8150
11.159379 0.8160 0.8170 0.8190 0.8200 0.8200
11.184000 0.8210 0.8210 0.8220 0.8220 0.8220
11.208379 0.8250 0.8280 0.8310 0.8330 0.8370
11.232000 0.8390 0.8410 0.8420 0.8430 0.8430
11.256379 0.8440 0.8450 0.8470 0.8480 0.8480
11.281000 0.8490 0.8490 0.8490 0.8500 0.8500
11.305379 0.8500 0.8520 0.8530 0.8530 0.8540
11.330000 0.8540 0.8540 0.8540 0.8540 0.8540
11.354379 0.8540 0.8540 0.8530 0.8500 0.8490
11.379000 0.8480 0.8450 0.8440 0.8430 0.8410
11.403379 0.8410 0.8380 0.8360 0.8330 0.8300
11.427000 0.8270 0.8230 0.8210 0.8160 0.8110
11.451379 0.8060 0.8000 0.7920 0.7830 0.7750
11.476000 0.7680 0.7640 0.7590 0.7530 0.7460
11.500379 0.7390 0.7310 0.7230 0.7150 0.7060
11.525000 0.6990 0.6910 0.6840 0.6760 0.6670
11.549379 0.6500 0.6410 0.6340 0.6250 0.6170
11.574000 0.6080 0.5990 0.5900 0.5800 0.5700
11.598379 0.5610 0.5510 0.5420 0.5350 0.5250
11.622000 0.5170 0.5080 0.5000 0.4850 0.4770
11.646379 0.4700 0.4630 0.4550 0.4520 0.4470
11.671000 0.4460 0.4470 0.4470 0.4480 0.4490
11.695379 0.4520 0.4570 0.4630 0.4700 0.4800
11.720000 0.4920 0.5000 0.5070 0.5250 0.5370
11.744379 0.5480 0.5550 0.5660 0.5730 0.5830
11.768000 0.5890 0.5940 0.5970 0.6020 0.6080
11.792379 0.6160 0.6190 0.6230 0.6280 0.6340
11.817000 0.6400 0.6460 0.6510 0.6570 0.6610
11.841379 0.6650 0.6670 0.6720 0.6760 0.6800
11.866000 0.6840 0.6890 0.6930 0.7000 0.7040
11.890379 0.7110 0.7160 0.7210 0.7230 0.7270
11.915000 0.7290 0.7310 0.7320 0.7340 0.7370
11.939379 0.7390 0.7420 0.7440 0.7480 0.7500
11.963000 0.7530 0.7560 0.7600 0.7640 0.7660
11.987379 0.7700 0.7730 0.7760 0.7780 0.7790
12.012000 0.7790 0.7810 0.7810 0.7810 0.7820
12.036379 0.7830 0.7860 0.7880 0.7920 0.7930
12.061000 0.7940 0.7950 0.7970 0.7990 0.8000
12.085379 0.8010 0.8010 0.8030 0.8040 0.8060
12.110000 0.8060 0.8080 0.8080 0.8080 0.8080
12.134379 0.8080 0.8080 0.8080 0.8060 0.8060
12.158000 0.8050 0.8040 0.8030 0.8010 0.8010
12.182379 0.8000 0.7990 0.7970 0.7930 0.7920
12.207000 0.7900 0.7890 0.7880 0.7860 0.7820
12.231379 0.7810 0.7770 0.7720 0.7700 0.7650
12.256000 0.7620 0.7600 0.7550 0.7530 0.7480
12.280379 0.7430 0.7390 0.7350 0.7320 0.7270
12.305000 0.7210 0.7170 0.7120 0.7090 0.7020
12.329379 0.7010 0.7000 0.6990 0.6940 0.6910
12.353000 0.6900 0.6880 0.6840 0.6820 0.6780
12.377379 0.6740 0.6720 0.6710 0.6670 0.6630
12.402000 0.6620 0.6610 0.6570 0.6570 0.6550
12.426379 0.6540 0.6540 0.6540 0.6540 0.6540
12.451000 0.6540 0.6540 0.6540 0.6520 0.6510
12.475379 0.6500 0.6490 0.6440 0.6410 0.6390
12.500000 0.6350 0.6330 0.6300 0.6270 0.6230
12.524379 0.6190 0.6130 0.6100 0.6050 0.6000
12.548000 0.5950 0.5890 0.5830 0.5770 0.5700
12.572379 0.5630 0.5570 0.5500 0.5420 0.5350
12.597000 0.5280 0.5200 0.5120 0.5040 0.4900
12.621379 0.4810 0.4740 0.4660 0.4580 0.4530
12.646000 0.4480 0.4400 0.4310 0.4220 0.4160
12.670379 0.4090 0.4040 0.3980 0.3930 0.3870
12.695000 0.3820 0.3760 0.3720 0.3670 0.3640
12.719379 0.3580 0.3550 0.3530 0.3480 0.3470
12.743000 0.3470 0.3480 0.3480 0.3490 0.3520
12.767379 0.3540 0.3590 0.3630 0.3660 0.3750
12.792000 0.3810 0.3870 0.3930 0.3990 0.4050
12.816379 0.4130 0.4210 0.4310 0.4380 0.4440
12.841000 0.4520 0.4600 0.4690 0.4760 0.4850
12.865379 0.4930 0.4970 0.5000 0.5040 0.5120
12.890000 0.5180 0.5240 0.5300 0.5370 0.5440
12.914379 0.5510 0.5560 0.5640 0.5730 0.5790
12.938000 0.5850 0.5900 0.5950 0.6000 0.6050
12.962379 0.6080 0.6130 0.6170 0.6220 0.6240
12.987000 0.6280 0.6320 0.6340 0.6380 0.6390
13.011379 0.6400 0.6400 0.6430 0.6450 0.6490
13.036000 0.6510 0.6540 0.6550 0.6580 0.6600
13.060379 0.6600 0.6610 0.6630 0.6650 0.6660
13.084000 0.6670 0.6670 0.6670 0.6680 0.6680
13.108379 0.6690 0.6690 0.6710 0.6720 0.6720
13.133000 0.6720 0.6720 0.6720 0.6730 0.6730
13.157379 0.6730 0.6730 0.6730 0.6720 0.6720
13.182000 0.6710 0.6710 0.6670 0.6600 0.6550
13.206379 0.6540 0.6520 0.6500 0.6470 0.6440
13.231000 0.6400 0.6360 0.6330 0.6290 0.6240
13.255379 0.6210 0.6160 0.6110 0.6050 0.6020
13.279000 0.6010 0.5990 0.5910 0.5850 0.5800
13.303379 0.5740 0.5680 0.5630 0.5590 0.5530
13.328000 0.5480 0.5420 0.5370 0.5330 0.5280
13.352379 0.5230 0.5200 0.5140 0.5120 0.5070
13.377000 0.5030 0.5000 0.4960 0.4860 0.4840
13.401379 0.4820 0.4800 0.4750 0.4710 0.4700
13.426000 0.4680 0.4660 0.4640 0.4630 0.4620
13.450379 0.4600 0.4570 0.4550 0.4550 0.4550
13.474000 0.4550 0.4550 0.4550 0.4550 0.4570
13.498379 0.4580 0.4590 0.4620 0.4640 0.4660
13.523000 0.4700 0.4740 0.4790 0.4820 0.4870
13.547379 0.4910 0.4960 0.4980 0.5000 0.5020
13.572000 0.5030 0.5080 0.5120 0.5150 0.5190
13.596379 0.5240 0.5290 0.5300 0.5340 0.5390
13.621000 0.5440 0.5500 0.5510 0.5550 0.5590
13.645379 0.5630 0.5690 0.5740 0.5800 0.5840
13.669000 0.5890 0.5920 0.5970 0.6010 0.6030
13.693379 0.6060 0.6120 0.6170 0.6210 0.6220
13.718000 0.6270 0.6290 0.6320 0.6350 0.6390
13.742379 0.6440 0.6490 0.6520 0.6550 0.6570
13.767000 0.6580 0.6610 0.6620 0.6650 0.6660
13.791379 0.6670 0.6680 0.6690 0.6720 0.6740
13.816000 0.6770 0.6790 0.6830 0.6850 0.6880
13.840379 0.6890 0.6900 0.6910 0.6930 0.6950
13.864000 0.6960 0.6960 0.6960 0.6950 0.6960
13.888379 0.6960 0.6960 0.6960 0.6960 0.6960
13.913000 0.6960 0.6960 0.6960 0.6960 0.6960
13.937379 0.6960 0.6950 0.6950 0.6950 0.6900
13.962000 0.6900 0.6880 0.6870 0.6840 0.6840
13.986379 0.6820 0.6790 0.6770 0.6760 0.6760
14.011000 0.6760 0.6740 0.6740 0.6730 0.6720
14.035379 0.6720 0.6710 0.6690 0.6680 0.6670
14.059000 0.6660 0.6650 0.6630 0.6630 0.6630
14.083379 0.6630 0.6630 0.6630 0.6630 0.6630
14.108000 0.6630 0.6620 0.6620 0.6610 0.6610
14.132379 0.6600 0.6580 0.6570 0.6550 0.6520
14.157000 0.6500 0.6470 0.6460 0.6440 0.6410
14.181379 0.6400 0.6360 0.6290 0.6270 0.6250
14.206000 0.6220 0.6190 0.6140 0.6110 0.6050
14.230379 0.6030 0.6010 0.5990 0.5920 0.5890
14.254000 0.5860 0.5840 0.5810 0.5790 0.5770
14.278379 0.5750 0.5740 0.5740 0.5730 0.5720
14.303000 0.5690 0.5690 0.5680 0.5680 0.5680
14.327379 0.5690 0.5690 0.5720 0.5740 0.5770
14.352000 0.5790 0.5830 0.5880 0.5940 0.6000
14.376379 0.6060 0.6130 0.6190 0.6270 0.6340
14.400000 0.6380 0.6430 0.6500 0.6520 0.6570
14.424379 0.6650 0.6670 0.6680 0.6730 0.6780
14.449000 0.6820 0.6880 0.6940 0.7000 0.7060
14.473379 0.7130 0.7210 0.7270 0.7320 0.7380
14.498000 0.7420 0.7450 0.7490 0.7530 0.7560
14.522379 0.7600 0.7650 0.7710 0.7750 0.7780
14.547000 0.7820 0.7860 0.7870 0.7890 0.7920
14.571379 0.7950 0.7980 0.7990 0.8000 0.8040
14.595000 0.8100 0.8120 0.8150 0.8160 0.8170
14.619379 0.8210 0.8220 0.8230 0.8230 0.8250
14.644000 0.8250 0.8260 0.8270 0.8310 0.8320
14.668379 0.8330 0.8330 0.8340 0.8360 0.8370
14.693000 0.8370 0.8380 0.8380 0.8390 0.8410
14.717379 0.8420 0.8430 0.8440 0.8450 0.8450
14.742000 0.8470 0.8470 0.8480 0.8480 0.8500
14.766379 0.8520 0.8530 0.8540 0.8550 0.8550
14.790000 0.8560 0.8580 0.8600 0.8630 0.8640
14.814379 0.8640 0.8660 0.8660 0.8660 0.8660
14.839000 0.8660 0.8660 0.8670 0.8690 0.8690
14.863379 0.8690 0.8700 0.8710 0.8710 0.8710
14.888000 0.8710 0.8710 0.8720 0.8710 0.8710
14.912379 0.8700 0.8700 0.8700 0.8690 0.8690
14.937000 0.8690 0.8690 0.8670 0.8670 0.8670
14.961379 0.8690 0.8690 0.8690 0.8700 0.8700
14.985000 0.8700 0.8710 0.8710 0.8710 0.8720
15.009379 0.8720 0.8720 0.8720 0.8710 0.8720
15.034000 0.8740 0.8740 0.8750 0.8750 0.8760
15.058379 0.8760 0.8760 0.8760 0.8760 0.8760
15.083000 0.8760 0.8760 0.8760 0.8760 0.8760
15.107379 0.8760 0.8760 0.8760 0.8750 0.8750
15.132000 0.8740 0.8710 0.8700 0.8670 0.8660
15.156379 0.8650 0.8640 0.8630 0.8600 0.8580
15.180000 0.8540 0.8530 0.8500 0.8480 0.8450
15.204379 0.8440 0.8410 0.8380 0.8340 0.8270
15.229000 0.8230 0.8210 0.8200 0.8170 0.8160
15.253379 0.8150 0.8110 0.8110 0.8100 0.8080
15.278000 0.8060 0.8040 0.8030 0.8030 0.8010
15.302379 0.8010 0.8000 0.7990 0.7990 0.7990
15.327000 0.7990 0.7980 0.7980 0.7980 0.7970
15.351379 0.7970 0.7970 0.7970 0.7970 0.7970
15.375000 0.7970 0.7980 0.7990 0.7990 0.8000
15.399379 0.8000 0.8000 0.8000 0.8000 0.8000
15.424000 0.8010 0.8010 0.8030 0.8030 0.8030
15.448379 0.8040 0.8040 0.8040 0.8050 0.8050
15.473000 0.8060 0.8080 0.8090 0.8110 0.8140
15.497379 0.8150 0.8170 0.8200 0.8250 0.8260
15.522000 0.8270 0.8310 0.8320 0.8330 0.8360
15.546379 0.8380 0.8410 0.8430 0.8450 0.8470
15.570000 0.8480 0.8480 0.8490 0.8500 0.8520
15.594379 0.8530 0.8520 0.8530 0.8540 0.8550
15.619000 0.8560 0.8560 0.8560 0.8560 0.8560
15.643379 0.8560 0.8580 0.8580 0.8580 0.8580
15.668000 0.8580 0.8580 0.8590 0.8590 0.8600
15.692379 0.8600 0.8610 0.8610 0.8610 0.8630
15.716000 0.8630 0.8650 0.8650 0.8660 0.8660
15.740379 0.8660 0.8660 0.8650 0.8650 0.8650
15.765000 0.8640 0.8640 0.8640 0.8640 0.8640
15.789379 0.8640 0.8640 0.8640 0.8640 0.8650
15.814000 0.8650 0.8650 0.8650 0.8660 0.8660
15.838379 0.8660 0.8660 0.8660 0.8660 0.8670
15.863000 0.8670 0.8670 0.8670 0.8670 0.8670
15.887379 0.8670 0.8670 0.8670 0.8670
##END=
