##TITLE=DI-Beta-NAPHTHOL
##JCAMP-DX=4.24
##DATA TYPE=INFRARED SPECTRUM
##CLASS=COBLENTZ
##ORIGIN=ANDERSON PHYSICAL LABORATORY
##OWNER=COBLENTZ SOCIETY
Collection (C) 2018 copyright by the U.S. Secretary of Commerce
on behalf of the United States of America. All rights reserved.
##DATE=Not specified, most likely prior to 1970
##CAS REGISTRY NO=602-09-5
##MOLFORM=C20 H14 O2
##SOURCE REFERENCE=COBLENTZ NO. 2581
##$NIST SOURCE=COBLENTZ
##$NIST IMAGE=cob2581
##SPECTROMETER/DATA SYSTEM=Not specified, most likely a prism, grating, or hybrid spectrometer.
##STATE=SOLID (1.0% IN KBr PELLET)
##PATH LENGTH=0.0355 CM THICK
##SAMPLING PROCEDURE=TRANSMISSION
##RESOLUTION=4
##DATA PROCESSING=DIGITIZED BY NIST FROM HARD COPY (FROM TWO SEGMENTS)
##XUNITS=1/CM
##YUNITS=TRANSMITTANCE
##XFACTOR=1.000000
##YFACTOR=1
##DELTAX=0.936333
##FIRSTX=662.921
##LASTX=3985.03
##FIRSTY=0.719
##MAXX=3985.03
##MINX=662.921
##MAXY=0.933
##MINY=0.105
##NPOINTS=3549
##XYDATA=(X++(Y..Y))
662.921000 0.7190 0.7190 0.7250 0.7260 0.7290
667.602666 0.7310 0.7380 0.7489 0.7580 0.7620
672.284333 0.7650 0.7670 0.7700 0.7710 0.7730
676.965999 0.7820 0.7939 0.8039 0.8179 0.8369
681.647665 0.8480 0.8580 0.8660 0.8690 0.8700
686.329331 0.8720 0.8720 0.8720 0.8720 0.8720
691.010998 0.8720 0.8720 0.8720 0.8720 0.8720
695.692664 0.8700 0.8700 0.8690 0.8670 0.8670
700.374330 0.8660 0.8630 0.8600 0.8570 0.8540
705.055996 0.8510 0.8510 0.8490 0.8430 0.8400
709.737663 0.8400 0.8340 0.8280 0.8220 0.8180
714.419329 0.8130 0.8090 0.8030 0.7950 0.7880
719.100995 0.7800 0.7680 0.7590 0.7550 0.7530
723.782661 0.7520 0.7520 0.7530 0.7530 0.7550
728.464328 0.7580 0.7610 0.7640 0.7650 0.7700
733.145994 0.7710 0.7730 0.7740 0.7740 0.7710
737.827660 0.7650 0.7580 0.7470 0.7350 0.7200
742.509327 0.6513 0.5933 0.5781 0.5422 0.4844
747.190993 0.4410 0.4210 0.4020 0.3960 0.3282
751.872659 0.2612 0.2580 0.2590 0.2938 0.3268
756.554325 0.3610 0.4050 0.4779 0.5658 0.6418
761.235992 0.7068 0.7618 0.8217 0.8508 0.8520
765.917658 0.8520 0.8520 0.8510 0.8510 0.8420
770.599324 0.8241 0.8041 0.7821 0.7621 0.7431
775.280990 0.7320 0.7200 0.7190 0.7190 0.7260
779.962657 0.7519 0.7739 0.7790 0.7800 0.7800
784.644323 0.7800 0.7820 0.7920 0.8060 0.8299
789.325989 0.8539 0.8580 0.8580 0.8550 0.8520
794.007655 0.8490 0.8480 0.8400 0.8330 0.8300
798.689322 0.8270 0.8220 0.8190 0.8150 0.8061
803.370988 0.7980 0.7830 0.7700 0.7530 0.7350
808.052654 0.7171 0.6991 0.6841 0.5995 0.5732
812.734321 0.5640 0.4770 0.4151 0.3910 0.3631
817.415987 0.3152 0.2652 0.2620 0.2610 0.2590
822.097653 0.2560 0.2500 0.2490 0.2460 0.2440
826.779319 0.2440 0.2460 0.2500 0.2759 0.3237
831.460986 0.3640 0.4779 0.5549 0.6318 0.7068
836.142652 0.7758 0.8387 0.8907 0.9109 0.9239
840.824318 0.9270 0.9270 0.9270 0.9270 0.9260
845.505984 0.9260 0.9260 0.9240 0.9230 0.9200
850.187651 0.9170 0.9110 0.9080 0.9030 0.9020
854.869317 0.9000 0.8940 0.8900 0.8820 0.8750
859.550983 0.8600 0.8490 0.8250 0.7851 0.7700
864.232650 0.7560 0.7560 0.7560 0.7580 0.7640
868.914316 0.7760 0.7920 0.8190 0.8460 0.8729
873.595982 0.8989 0.9110 0.9239 0.9320 0.9330
878.277648 0.9330 0.9330 0.9330 0.9330 0.9330
882.959315 0.9330 0.9330 0.9330 0.9320 0.9320
887.640981 0.9300 0.9270 0.9260 0.9260 0.9240
892.322647 0.9240 0.9230 0.9230 0.9210 0.9210
897.004313 0.9200 0.9200 0.9180 0.9170 0.9140
901.685980 0.9110 0.9060 0.9030 0.9030 0.9020
906.367646 0.9000 0.8990 0.8990 0.8970 0.8930
911.049312 0.8900 0.8870 0.8840 0.8790 0.8760
915.730978 0.8750 0.8720 0.8660 0.8630 0.8600
920.412645 0.8580 0.8550 0.8520 0.8490 0.8400
925.094311 0.8300 0.8240 0.8160 0.8100 0.8010
929.775977 0.7970 0.7860 0.7800 0.7790 0.7770
934.457644 0.7790 0.7860 0.7950 0.8090 0.8180
939.139310 0.8489 0.8490 0.8490 0.8490 0.8450
943.820976 0.8370 0.8330 0.8280 0.8210 0.8100
948.502642 0.8010 0.7950 0.7860 0.7770 0.7680
953.184309 0.7560 0.7460 0.7350 0.7260 0.7170
957.865975 0.7100 0.7050 0.6990 0.6950 0.6930
962.547641 0.6890 0.6870 0.6890 0.6950 0.6980
967.229307 0.7020 0.7169 0.7439 0.7679 0.7740
971.910974 0.7800 0.7830 0.7850 0.7800 0.7710
976.592640 0.7640 0.7560 0.7500 0.7410 0.7311
981.274306 0.7260 0.7250 0.7250 0.7260 0.7340
985.955972 0.7460 0.7610 0.7789 0.7969 0.8070
990.637639 0.8210 0.8300 0.8330 0.8330 0.8370
995.319305 0.8370 0.8370 0.8370 0.8370 0.8370
1000.000971 0.8370 0.8370 0.8370 0.8370 0.8370
1004.682638 0.8370 0.8370 0.8370 0.8370 0.8370
1009.364304 0.8340 0.8330 0.8310 0.8280 0.8210
1014.045970 0.8210 0.8150 0.8130 0.8120 0.8090
1018.727636 0.8070 0.8040 0.8030 0.8010 0.7980
1023.409303 0.7920 0.7890 0.7860 0.7850 0.7830
1028.090969 0.7820 0.7800 0.7800 0.7800 0.7800
1032.772635 0.7800 0.7800 0.7800 0.7790 0.7790
1037.454301 0.7770 0.7740 0.7740 0.7710 0.7710
1042.135968 0.7710 0.7700 0.7700 0.7700 0.7680
1046.817634 0.7680 0.7670 0.7650 0.7610 0.7580
1051.499300 0.7560 0.7560 0.7550 0.7500 0.7500
1056.180966 0.7500 0.7490 0.7490 0.7490 0.7460
1060.862633 0.7440 0.7440 0.7440 0.7430 0.7430
1065.544299 0.7410 0.7410 0.7400 0.7400 0.7380
1070.225965 0.7380 0.7380 0.7400 0.7410 0.7430
1074.907632 0.7460 0.7470 0.7500 0.7500 0.7550
1079.589298 0.7590 0.7620 0.7620 0.7610 0.7580
1084.270964 0.7470 0.7010 0.6890 0.6810 0.6780
1088.952630 0.6720 0.6650 0.6600 0.6540 0.6500
1093.634297 0.6420 0.6410 0.6390 0.6360 0.6320
1098.315963 0.6270 0.6230 0.6200 0.6140 0.6080
1102.997629 0.6000 0.5940 0.5880 0.5820 0.5720
1107.679295 0.5660 0.5550 0.5480 0.5360 0.5221
1112.360962 0.5160 0.5060 0.4980 0.4860 0.4750
1117.042628 0.4620 0.4540 0.4450 0.4301 0.4111
1121.724294 0.3910 0.3720 0.3540 0.3340 0.3180
1126.405961 0.3000 0.2830 0.2681 0.2670 0.2650
1131.087627 0.2650 0.2680 0.2790 0.2950 0.3220
1135.769293 0.3370 0.3420 0.3420 0.3340 0.3211
1140.450959 0.2769 0.2189 0.1740 0.1650 0.1590
1145.132626 0.1470 0.1350 0.1171 0.1080 0.1050
1149.814292 0.1050 0.1050 0.1050 0.1060 0.1150
1154.495958 0.1210 0.1270 0.1589 0.1869 0.2228
1159.177624 0.2641 0.3030 0.3150 0.3180 0.3180
1163.859291 0.3060 0.2880 0.2641 0.2431 0.2131
1168.540957 0.1960 0.1830 0.1710 0.1560 0.1440
1173.222623 0.1320 0.1230 0.1180 0.1090 0.1080
1177.904289 0.1080 0.1080 0.1080 0.1090 0.1090
1182.585956 0.1110 0.1170 0.1240 0.1359 0.1499
1187.267622 0.1690 0.1900 0.2160 0.2430 0.2650
1191.949288 0.3009 0.3249 0.3579 0.3849 0.4149
1196.630955 0.4270 0.4440 0.4470 0.4530 0.4680
1201.312621 0.4680 0.4690 0.4690 0.4680 0.4620
1205.994287 0.4590 0.4480 0.4380 0.4200 0.4030
1210.675953 0.3641 0.3251 0.2802 0.2491 0.2221
1215.357620 0.2010 0.1860 0.1750 0.1660 0.1620
1220.039286 0.1600 0.1590 0.1590 0.1590 0.1590
1224.720952 0.1620 0.1691 0.2050 0.2410 0.2680
1229.402618 0.3099 0.3719 0.4448 0.5177 0.5777
1234.084285 0.6121 0.6651 0.7100 0.7380 0.7550
1238.765951 0.7770 0.7920 0.7980 0.8000 0.8000
1243.447617 0.8000 0.7980 0.7950 0.7910 0.7850
1248.129283 0.7760 0.7640 0.7550 0.7371 0.7022
1252.810950 0.6649 0.6300 0.6090 0.5630 0.5240
1257.492616 0.5040 0.5040 0.5040 0.5120 0.5538
1262.174282 0.5812 0.6600 0.6870 0.7040 0.7370
1266.855949 0.7400 0.7370 0.7350 0.7320 0.7220
1271.537615 0.7040 0.6780 0.6480 0.6140 0.5690
1276.219281 0.5401 0.5151 0.5100 0.5100 0.5160
1280.900947 0.5732 0.6511 0.7170 0.7550 0.7770
1285.582614 0.7920 0.7940 0.7950 0.7950 0.7950
1290.264280 0.7950 0.7940 0.7940 0.7920 0.7890
1294.945946 0.7860 0.7850 0.7820 0.7790 0.7760
1299.627612 0.7710 0.7650 0.7580 0.7520 0.7490
1304.309279 0.7400 0.7280 0.7190 0.6961 0.6771
1308.990945 0.6570 0.6390 0.6200 0.6020 0.5820
1313.672611 0.5660 0.5510 0.5390 0.5310 0.5220
1318.354277 0.5130 0.5010 0.4840 0.4680 0.4480
1323.035944 0.4270 0.4030 0.3751 0.3720 0.3690
1327.717610 0.3690 0.3690 0.3700 0.3930 0.4120
1332.399276 0.4440 0.5149 0.5390 0.5809 0.6079
1337.080943 0.6320 0.6480 0.6500 0.6500 0.6420
1341.762609 0.6320 0.6090 0.5910 0.5721 0.5551
1346.444275 0.5390 0.5250 0.5130 0.4810 0.4690
1351.125941 0.4650 0.4620 0.4600 0.4620 0.4630
1355.807608 0.4710 0.4800 0.4890 0.4980 0.5070
1360.489274 0.5180 0.5220 0.5240 0.5270 0.5280
1365.170940 0.5280 0.5270 0.5250 0.5190 0.5090
1369.852606 0.4980 0.4890 0.4780 0.4740 0.4680
1374.534273 0.4570 0.4510 0.4390 0.4140 0.3850
1379.215939 0.3660 0.3400 0.3151 0.2821 0.2531
1383.897605 0.2339 0.2140 0.2040 0.1830 0.1800
1388.579271 0.1800 0.1810 0.1900 0.2050 0.2339
1393.260938 0.2711 0.3161 0.3671 0.4201 0.4710
1397.942604 0.5160 0.5540 0.5810 0.5960 0.6090
1402.624270 0.6240 0.6360 0.6470 0.6540 0.6600
1407.305937 0.6720 0.6740 0.6770 0.6800 0.6810
1411.987603 0.6860 0.6981 0.7280 0.7430 0.7580
1416.669269 0.7710 0.7950 0.8150 0.8359 0.8490
1421.350935 0.8491 0.8810 0.8820 0.8820 0.8820
1426.032602 0.8810 0.8810 0.8810 0.8790 0.8790
1430.714268 0.8780 0.8730 0.8700 0.8640 0.8550
1435.395934 0.8450 0.8270 0.8070 0.7950 0.7771
1440.077600 0.7530 0.7470 0.7430 0.7430 0.7460
1444.759267 0.7530 0.7730 0.7860 0.7910 0.7980
1449.440933 0.8040 0.8120 0.8150 0.8130 0.8120
1454.122599 0.8100 0.8070 0.8030 0.7980 0.7890
1458.804266 0.7790 0.7620 0.7399 0.6890 0.6500
1463.485932 0.6001 0.5601 0.5061 0.4711 0.4630
1468.167598 0.4620 0.4630 0.4720 0.4830 0.4980
1472.849264 0.5000 0.5010 0.5070 0.5100 0.5120
1477.530931 0.5403 0.6201 0.6811 0.7220 0.7230
1482.212597 0.7440 0.7530 0.7550 0.7700 0.7850
1486.894263 0.8000 0.8130 0.8190 0.8270 0.8270
1491.575929 0.8250 0.8220 0.8220 0.8190 0.8150
1496.257596 0.8070 0.7910 0.7830 0.7700 0.7590
1500.939262 0.7470 0.7320 0.7160 0.6990 0.6811
1505.620928 0.6619 0.6409 0.6179 0.5840 0.5720
1510.302594 0.5600 0.5450 0.5330 0.5240 0.5210
1514.984261 0.5160 0.5150 0.5150 0.5160 0.5220
1519.665927 0.5300 0.5340 0.5390 0.5510 0.5729
1524.347593 0.6122 0.6961 0.7491 0.8100 0.8550
1529.029260 0.8810 0.8990 0.9020 0.9030 0.9050
1533.710926 0.9050 0.9050 0.9050 0.9030 0.9000
1538.392592 0.8990 0.8910 0.8850 0.8790 0.8730
1543.074258 0.8690 0.8640 0.8580 0.8580 0.8570
1547.755925 0.8550 0.8550 0.8550 0.8550 0.8550
1552.437591 0.8540 0.8520 0.8510 0.8430 0.8390
1557.119257 0.8310 0.8250 0.8090 0.8000 0.7920
1561.800923 0.7800 0.7710 0.7650 0.7610 0.7580
1566.482590 0.7550 0.7500 0.7490 0.7430 0.7410
1571.164256 0.7320 0.7230 0.7100 0.7020 0.6830
1575.845922 0.6600 0.6360 0.6170 0.6050 0.5970
1580.527588 0.5629 0.5329 0.5039 0.4780 0.4620
1585.209255 0.4510 0.4440 0.4320 0.4210 0.4080
1589.890921 0.3960 0.3840 0.3700 0.3570 0.3420
1594.572587 0.3270 0.3100 0.2920 0.2760 0.2640
1599.254254 0.2590 0.2490 0.2460 0.2440 0.2460
1603.935920 0.2490 0.2830 0.3339 0.4178 0.5008
1608.617586 0.5521 0.5880 0.5970 0.5970 0.5910
1613.299252 0.5780 0.5580 0.5210 0.4811 0.4441
1617.980919 0.4089 0.3899 0.3689 0.3330 0.3000
1622.662585 0.2980 0.3000 0.3120 0.3270 0.3609
1627.344251 0.3964 0.5092 0.5751 0.6361 0.6920
1632.025917 0.7350 0.7650 0.7760 0.7950 0.8070
1636.707584 0.8241 0.8420 0.8510 0.8610 0.8660
1641.389250 0.8690 0.8700 0.8720 0.8720 0.8720
1646.070916 0.8720 0.8720 0.8750 0.8750 0.8760
1650.752582 0.8790 0.8810 0.8820 0.8820 0.8850
1655.434249 0.8870 0.8870 0.8870 0.8880 0.8880
1660.115915 0.8880 0.8900 0.8900 0.8900 0.8900
1664.797581 0.8900 0.8910 0.8910 0.8910 0.8910
1669.479248 0.8910 0.8910 0.8910 0.8900 0.8900
1674.160914 0.8900 0.8870 0.8850 0.8840 0.8820
1678.842580 0.8810 0.8790 0.8790 0.8780 0.8780
1683.524246 0.8760 0.8750 0.8750 0.8730 0.8720
1688.205913 0.8720 0.8720 0.8720 0.8700 0.8700
1692.887579 0.8700 0.8700 0.8700 0.8720 0.8720
1697.569245 0.8730 0.8730 0.8730 0.8750 0.8750
1702.250911 0.8750 0.8750 0.8750 0.8760 0.8760
1706.932578 0.8760 0.8760 0.8760 0.8760 0.8760
1711.614244 0.8760 0.8760 0.8760 0.8760 0.8760
1716.295910 0.8760 0.8760 0.8760 0.8760 0.8760
1720.977576 0.8760 0.8760 0.8760 0.8760 0.8760
1725.659243 0.8760 0.8760 0.8780 0.8780 0.8780
1730.340909 0.8790 0.8810 0.8820 0.8820 0.8820
1735.022575 0.8820 0.8840 0.8840 0.8840 0.8820
1739.704242 0.8820 0.8820 0.8810 0.8790 0.8780
1744.385908 0.8760 0.8730 0.8730 0.8720 0.8720
1749.067574 0.8700 0.8690 0.8690 0.8690 0.8670
1753.749240 0.8670 0.8660 0.8640 0.8630 0.8610
1758.430907 0.8600 0.8580 0.8550 0.8550 0.8550
1763.112573 0.8540 0.8540 0.8540 0.8540 0.8540
1767.794239 0.8540 0.8540 0.8540 0.8540 0.8540
1772.475905 0.8540 0.8540 0.8540 0.8540 0.8540
1777.157572 0.8540 0.8550 0.8570 0.8580 0.8580
1781.839238 0.8580 0.8600 0.8600 0.8600 0.8600
1786.520904 0.8600 0.8600 0.8600 0.8600 0.8580
1791.202571 0.8580 0.8570 0.8550 0.8550 0.8550
1795.884237 0.8550 0.8540 0.8540 0.8540 0.8520
1800.565903 0.8520 0.8510 0.8490 0.8460 0.8430
1805.247569 0.8430 0.8420 0.8420 0.8400 0.8400
1809.929236 0.8400 0.8400 0.8400 0.8400 0.8400
1814.610902 0.8400 0.8400 0.8400 0.8400 0.8420
1819.292568 0.8420 0.8420 0.8400 0.8400 0.8400
1823.974234 0.8400 0.8400 0.8400 0.8400 0.8400
1828.655901 0.8390 0.8390 0.8390 0.8370 0.8370
1833.337567 0.8370 0.8370 0.8360 0.8360 0.8370
1838.019233 0.8390 0.8390 0.8420 0.8450 0.8460
1842.700899 0.8460 0.8480 0.8480 0.8490 0.8490
1847.382566 0.8490 0.8490 0.8490 0.8490 0.8490
1852.064232 0.8490 0.8490 0.8490 0.8510 0.8510
1856.745898 0.8510 0.8510 0.8510 0.8510 0.8510
1861.427565 0.8510 0.8510 0.8490 0.8480 0.8480
1866.109231 0.8460 0.8460 0.8450 0.8430 0.8430
1870.790897 0.8420 0.8420 0.8420 0.8400 0.8400
1875.472563 0.8370 0.8340 0.8330 0.8310 0.8300
1880.154230 0.8280 0.8280 0.8280 0.8270 0.8250
1884.835896 0.8220 0.8210 0.8190 0.8190 0.8180
1889.517562 0.8150 0.8120 0.8070 0.8060 0.8040
1894.199228 0.8030 0.8010 0.8010 0.8010 0.8010
1898.880895 0.8000 0.8000 0.7920 0.7910 0.7910
1903.562561 0.7890 0.7890 0.7890 0.7890 0.7890
1908.244227 0.7890 0.7890 0.7910 0.7910 0.7910
1912.925893 0.7910 0.7910 0.7910 0.7920 0.7920
1917.607560 0.7920 0.7920 0.7920 0.7920 0.7920
1922.289226 0.7940 0.7940 0.7950 0.7950 0.7950
1926.970892 0.7970 0.7970 0.7970 0.7970 0.7970
1931.652559 0.7970 0.7970 0.7980 0.7980 0.7980
1936.334225 0.7980 0.8000 0.8010 0.8010 0.8010
1941.015891 0.8000 0.8000 0.7980 0.7980 0.7980
1945.697557 0.7970 0.7970 0.7950 0.7950 0.7950
1950.379224 0.7970 0.7970 0.7950 0.7940 0.7920
1955.060890 0.7890 0.7880 0.7860 0.7830 0.7830
1959.742556 0.7820 0.7820 0.7820 0.7830 0.7830
1964.424222 0.7830 0.7850 0.7860 0.7880 0.7940
1969.105889 0.7970 0.7980 0.8030 0.8060 0.8090
1973.787555 0.8100 0.8120 0.8130 0.8160 0.8160
1978.469221 0.8160 0.8160 0.8160 0.8160 0.8160
1983.150887 0.8160 0.8160 0.8160 0.8160 0.8150
1987.832554 0.8150 0.8150 0.8130 0.8130 0.8040
1992.514220 0.8000 0.7980 0.7970 0.7980 0.8060
1997.195886 0.8100 0.8100 0.8100 0.8100 0.8100
2001.877553 0.8100 0.8100 0.8100 0.8097 0.8095
2006.559219 0.8092 0.8090 0.8085 0.8080 0.8075
2011.240885 0.8070 0.8055 0.8040 0.8025 0.8010
2015.922551 0.8007 0.8005 0.8002 0.8000 0.8000
2020.604218 0.8000 0.8000 0.8000 0.7995 0.7990
2025.285884 0.7985 0.7980 0.7977 0.7975 0.7972
2029.967550 0.7970 0.7970 0.7970 0.7970 0.7970
2034.649216 0.7962 0.7955 0.7947 0.7939 0.7932
2039.330883 0.7924 0.7917 0.7910 0.7905 0.7900
2044.012549 0.7895 0.7889 0.7882 0.7874 0.7867
2048.694215 0.7860 0.7857 0.7855 0.7852 0.7850
2053.375882 0.7845 0.7840 0.7835 0.7830 0.7830
2058.057548 0.7830 0.7830 0.7830 0.7830 0.7830
2062.739214 0.7830 0.7830 0.7830 0.7830 0.7830
2067.420880 0.7830 0.7830 0.7830 0.7830 0.7830
2072.102547 0.7830 0.7830 0.7830 0.7830 0.7830
2076.784213 0.7830 0.7830 0.7830 0.7830 0.7830
2081.465879 0.7830 0.7830 0.7827 0.7825 0.7822
2086.147545 0.7820 0.7820 0.7820 0.7820 0.7819
2090.829212 0.7814 0.7809 0.7804 0.7798 0.7788
2095.510878 0.7778 0.7768 0.7757 0.7737 0.7717
2100.192544 0.7697 0.7680 0.7677 0.7675 0.7672
2104.874210 0.7670 0.7670 0.7670 0.7670 0.7670
2109.555877 0.7670 0.7670 0.7670 0.7670 0.7670
2114.237543 0.7670 0.7670 0.7671 0.7673 0.7676
2118.919209 0.7678 0.7680 0.7680 0.7680 0.7680
2123.600876 0.7680 0.7680 0.7680 0.7680 0.7679
2128.282542 0.7677 0.7674 0.7672 0.7670 0.7670
2132.964208 0.7670 0.7670 0.7669 0.7664 0.7659
2137.645874 0.7654 0.7649 0.7647 0.7644 0.7642
2142.327541 0.7638 0.7631 0.7623 0.7616 0.7607
2147.009207 0.7594 0.7582 0.7569 0.7559 0.7557
2151.690873 0.7554 0.7552 0.7548 0.7543 0.7538
2156.372539 0.7533 0.7530 0.7530 0.7530 0.7530
2161.054206 0.7530 0.7530 0.7530 0.7530 0.7530
2165.735872 0.7530 0.7530 0.7530 0.7530 0.7530
2170.417538 0.7530 0.7530 0.7529 0.7527 0.7524
2175.099204 0.7522 0.7520 0.7520 0.7520 0.7520
2179.780871 0.7518 0.7513 0.7508 0.7503 0.7500
2184.462537 0.7500 0.7500 0.7500 0.7500 0.7500
2189.144203 0.7500 0.7500 0.7500 0.7500 0.7500
2193.825870 0.7500 0.7500 0.7500 0.7500 0.7500
2198.507536 0.7500 0.7500 0.7500 0.7500 0.7500
2203.189202 0.7500 0.7500 0.7500 0.7499 0.7497
2207.870868 0.7494 0.7492 0.7488 0.7483 0.7478
2212.552535 0.7473 0.7469 0.7467 0.7464 0.7462
2217.234201 0.7460 0.7460 0.7460 0.7460 0.7458
2221.915867 0.7453 0.7448 0.7443 0.7439 0.7436
2226.597533 0.7434 0.7431 0.7428 0.7423 0.7418
2231.279200 0.7413 0.7407 0.7399 0.7392 0.7384
2235.960866 0.7380 0.7380 0.7380 0.7380 0.7379
2240.642532 0.7376 0.7374 0.7371 0.7368 0.7363
2245.324198 0.7358 0.7353 0.7350 0.7350 0.7350
2250.005865 0.7350 0.7345 0.7335 0.7325 0.7315
2254.687531 0.7308 0.7303 0.7298 0.7293 0.7289
2259.369197 0.7286 0.7284 0.7281 0.7280 0.7280
2264.050864 0.7280 0.7280 0.7277 0.7272 0.7267
2268.732530 0.7262 0.7259 0.7256 0.7254 0.7251
2273.414196 0.7250 0.7250 0.7250 0.7250 0.7250
2278.095862 0.7250 0.7250 0.7250 0.7251 0.7254
2282.777529 0.7256 0.7259 0.7263 0.7268 0.7273
2287.459195 0.7278 0.7280 0.7280 0.7280 0.7280
2292.140861 0.7280 0.7280 0.7280 0.7280 0.7280
2296.822527 0.7280 0.7280 0.7280 0.7280 0.7280
2301.504194 0.7280 0.7280 0.7280 0.7280 0.7280
2306.185860 0.7280 0.7277 0.7272 0.7267 0.7262
2310.867526 0.7258 0.7256 0.7253 0.7251 0.7250
2315.549192 0.7250 0.7250 0.7250 0.7247 0.7242
2320.230859 0.7237 0.7232 0.7228 0.7226 0.7223
2324.912525 0.7221 0.7212 0.7200 0.7187 0.7175
2329.594191 0.7168 0.7166 0.7163 0.7161 0.7160
2334.275858 0.7160 0.7160 0.7160 0.7160 0.7160
2338.957524 0.7160 0.7160 0.7157 0.7152 0.7147
2343.639190 0.7142 0.7140 0.7140 0.7140 0.7140
2348.320856 0.7135 0.7127 0.7120 0.7112 0.7110
2353.002523 0.7110 0.7110 0.7110 0.7108 0.7106
2357.684189 0.7103 0.7101 0.7097 0.7092 0.7087
2362.365855 0.7082 0.7078 0.7076 0.7073 0.7071
2367.047521 0.7067 0.7062 0.7057 0.7052 0.7048
2371.729188 0.7046 0.7043 0.7041 0.7040 0.7040
2376.410854 0.7040 0.7040 0.7036 0.7031 0.7026
2381.092520 0.7021 0.7018 0.7016 0.7013 0.7011
2385.774187 0.7010 0.7010 0.7010 0.7010 0.7004
2390.455853 0.6997 0.6989 0.6982 0.6976 0.6971
2395.137519 0.6966 0.6961 0.6960 0.6960 0.6960
2399.819185 0.6960 0.6958 0.6956 0.6953 0.6951
2404.500852 0.6946 0.6941 0.6936 0.6931 0.6928
2409.182518 0.6926 0.6923 0.6920 0.6916 0.6911
2413.864184 0.6906 0.6901 0.6898 0.6895 0.6893
2418.545850 0.6890 0.6890 0.6890 0.6890 0.6890
2423.227517 0.6886 0.6881 0.6876 0.6871 0.6864
2427.909183 0.6856 0.6849 0.6841 0.6838 0.6835
2432.590849 0.6833 0.6830 0.6826 0.6821 0.6816
2437.272515 0.6811 0.6810 0.6810 0.6810 0.6810
2441.954182 0.6810 0.6810 0.6810 0.6810 0.6808
2446.635848 0.6805 0.6803 0.6800 0.6800 0.6800
2451.317514 0.6800 0.6800 0.6795 0.6790 0.6785
2455.999181 0.6780 0.6780 0.6780 0.6780 0.6780
2460.680847 0.6780 0.6780 0.6780 0.6780 0.6780
2465.362513 0.6780 0.6780 0.6780 0.6780 0.6780
2470.044179 0.6780 0.6780 0.6780 0.6780 0.6780
2474.725846 0.6780 0.6778 0.6775 0.6773 0.6770
2479.407512 0.6765 0.6760 0.6755 0.6750 0.6750
2484.089178 0.6750 0.6750 0.6750 0.6750 0.6750
2488.770844 0.6750 0.6750 0.6748 0.6745 0.6743
2493.452511 0.6740 0.6740 0.6740 0.6740 0.6740
2498.134177 0.6740 0.6740 0.6740 0.6740 0.6740
2502.815843 0.6740 0.6740 0.6740 0.6740 0.6740
2507.497509 0.6740 0.6740 0.6733 0.6725 0.6718
2512.179176 0.6710 0.6710 0.6710 0.6710 0.6710
2516.860842 0.6705 0.6700 0.6695 0.6690 0.6683
2521.542508 0.6675 0.6667 0.6660 0.6652 0.6645
2526.224175 0.6637 0.6629 0.6619 0.6609 0.6599
2530.905841 0.6590 0.6585 0.6580 0.6575 0.6570
2535.587507 0.6562 0.6555 0.6547 0.6540 0.6540
2540.269173 0.6540 0.6540 0.6540 0.6537 0.6535
2544.950840 0.6532 0.6530 0.6525 0.6520 0.6515
2549.632506 0.6510 0.6510 0.6510 0.6510 0.6510
2554.314172 0.6510 0.6510 0.6510 0.6510 0.6507
2558.995838 0.6505 0.6502 0.6499 0.6494 0.6489
2563.677505 0.6484 0.6480 0.6480 0.6480 0.6480
2568.359171 0.6480 0.6480 0.6480 0.6480 0.6480
2573.040837 0.6480 0.6480 0.6480 0.6480 0.6480
2577.722503 0.6480 0.6480 0.6480 0.6480 0.6480
2582.404170 0.6480 0.6480 0.6477 0.6475 0.6472
2587.085836 0.6470 0.6470 0.6470 0.6470 0.6469
2591.767502 0.6464 0.6459 0.6454 0.6450 0.6450
2596.449169 0.6450 0.6450 0.6449 0.6447 0.6444
2601.130835 0.6442 0.6439 0.6434 0.6429 0.6424
2605.812501 0.6420 0.6420 0.6420 0.6420 0.6419
2610.494167 0.6417 0.6414 0.6412 0.6409 0.6404
2615.175834 0.6399 0.6394 0.6389 0.6387 0.6384
2619.857500 0.6382 0.6379 0.6374 0.6369 0.6364
2624.539166 0.6358 0.6348 0.6338 0.6328 0.6317
2629.220832 0.6305 0.6292 0.6280 0.6269 0.6267
2633.902499 0.6264 0.6262 0.6260 0.6260 0.6260
2638.584165 0.6260 0.6260 0.6260 0.6260 0.6260
2643.265831 0.6260 0.6260 0.6260 0.6260 0.6260
2647.947497 0.6260 0.6260 0.6260 0.6259 0.6254
2652.629164 0.6249 0.6244 0.6240 0.6240 0.6240
2657.310830 0.6240 0.6238 0.6230 0.6223 0.6215
2661.992496 0.6209 0.6207 0.6204 0.6202 0.6199
2666.674163 0.6194 0.6189 0.6184 0.6178 0.6170
2671.355829 0.6163 0.6155 0.6150 0.6150 0.6150
2676.037495 0.6150 0.6149 0.6147 0.6144 0.6142
2680.719161 0.6140 0.6140 0.6140 0.6140 0.6138
2685.400828 0.6133 0.6128 0.6123 0.6119 0.6117
2690.082494 0.6114 0.6112 0.6108 0.6103 0.6098
2694.764160 0.6093 0.6089 0.6087 0.6084 0.6082
2699.445826 0.6080 0.6080 0.6080 0.6080 0.6080
2704.127493 0.6080 0.6080 0.6080 0.6081 0.6083
2708.809159 0.6086 0.6089 0.6090 0.6090 0.6090
2713.490825 0.6090 0.6089 0.6086 0.6084 0.6081
2718.172492 0.6080 0.6080 0.6080 0.6080 0.6078
2722.854158 0.6073 0.6068 0.6063 0.6057 0.6049
2727.535824 0.6042 0.6034 0.6029 0.6026 0.6024
2732.217490 0.6021 0.6018 0.6013 0.6008 0.6003
2736.899157 0.6000 0.6000 0.6000 0.6000 0.5999
2741.580823 0.5996 0.5994 0.5991 0.5988 0.5983
2746.262489 0.5978 0.5973 0.5969 0.5966 0.5964
2750.944155 0.5961 0.5960 0.5960 0.5960 0.5960
2755.625822 0.5957 0.5952 0.5947 0.5942 0.5940
2760.307488 0.5940 0.5940 0.5940 0.5939 0.5936
2764.989154 0.5934 0.5931 0.5927 0.5922 0.5917
2769.670820 0.5912 0.5910 0.5910 0.5910 0.5910
2774.352487 0.5909 0.5906 0.5904 0.5901 0.5894
2779.034153 0.5881 0.5869 0.5856 0.5850 0.5850
2783.715819 0.5850 0.5850 0.5849 0.5846 0.5844
2788.397486 0.5841 0.5840 0.5840 0.5840 0.5840
2793.079152 0.5837 0.5832 0.5827 0.5822 0.5820
2797.760818 0.5820 0.5820 0.5820 0.5819 0.5816
2802.442484 0.5814 0.5811 0.5807 0.5802 0.5797
2807.124151 0.5792 0.5789 0.5786 0.5784 0.5781
2811.805817 0.5777 0.5772 0.5767 0.5762 0.5759
2816.487483 0.5756 0.5754 0.5751 0.5750 0.5750
2821.169149 0.5750 0.5750 0.5747 0.5742 0.5737
2825.850816 0.5732 0.5728 0.5726 0.5723 0.5721
2830.532482 0.5715 0.5708 0.5700 0.5693 0.5687
2835.214148 0.5682 0.5677 0.5672 0.5670 0.5670
2839.895814 0.5670 0.5670 0.5668 0.5666 0.5663
2844.577481 0.5661 0.5660 0.5660 0.5660 0.5660
2849.259147 0.5655 0.5648 0.5640 0.5633 0.5625
2853.940813 0.5618 0.5610 0.5603 0.5597 0.5592
2858.622480 0.5586 0.5581 0.5578 0.5576 0.5573
2863.304146 0.5571 0.5570 0.5570 0.5570 0.5570
2867.985812 0.5565 0.5557 0.5550 0.5542 0.5540
2872.667478 0.5540 0.5540 0.5540 0.5536 0.5531
2877.349145 0.5526 0.5521 0.5518 0.5516 0.5513
2882.030811 0.5511 0.5505 0.5497 0.5490 0.5482
2886.712477 0.5475 0.5467 0.5460 0.5452 0.5446
2891.394143 0.5441 0.5436 0.5431 0.5430 0.5430
2896.075810 0.5430 0.5430 0.5428 0.5425 0.5423
2900.757476 0.5420 0.5416 0.5411 0.5406 0.5401
2905.439142 0.5398 0.5395 0.5393 0.5390 0.5386
2910.120808 0.5381 0.5376 0.5371 0.5370 0.5370
2914.802475 0.5370 0.5370 0.5370 0.5370 0.5370
2919.484141 0.5370 0.5368 0.5365 0.5363 0.5360
2924.165807 0.5356 0.5351 0.5346 0.5341 0.5334
2928.847474 0.5326 0.5319 0.5311 0.5308 0.5305
2933.529140 0.5303 0.5300 0.5296 0.5291 0.5286
2938.210806 0.5281 0.5278 0.5275 0.5273 0.5270
2942.892472 0.5266 0.5261 0.5256 0.5251 0.5248
2947.574139 0.5245 0.5243 0.5240 0.5233 0.5226
2952.255805 0.5218 0.5211 0.5197 0.5182 0.5167
2956.937471 0.5152 0.5137 0.5122 0.5107 0.5092
2961.619137 0.5077 0.5062 0.5047 0.5032 0.5030
2966.300804 0.5030 0.5030 0.5030 0.5026 0.5020
2970.982470 0.5015 0.5010 0.5008 0.5005 0.5003
2975.664136 0.5000 0.4988 0.4976 0.4963 0.4951
2980.345803 0.4938 0.4926 0.4913 0.4901 0.4883
2985.027469 0.4866 0.4848 0.4831 0.4816 0.4801
2989.709135 0.4786 0.4771 0.4765 0.4760 0.4755
2994.390801 0.4750 0.4740 0.4730 0.4720 0.4710
2999.072468 0.4705 0.4700 0.4695 0.4690 0.4690
3003.754134 0.4690 0.4690 0.4690 0.4688 0.4685
3008.435800 0.4682 0.4680 0.4680 0.4680 0.4680
3013.117466 0.4680 0.4675 0.4670 0.4665 0.4660
3017.799133 0.4660 0.4660 0.4660 0.4660 0.4660
3022.480799 0.4660 0.4660 0.4660 0.4660 0.4660
3027.162465 0.4660 0.4660 0.4660 0.4660 0.4660
3031.844131 0.4660 0.4665 0.4670 0.4675 0.4680
3036.525798 0.4688 0.4695 0.4703 0.4710 0.4713
3041.207464 0.4715 0.4718 0.4721 0.4744 0.4766
3045.889130 0.4789 0.4812 0.4827 0.4842 0.4857
3050.570797 0.4872 0.4892 0.4912 0.4932 0.4951
3055.252463 0.4958 0.4966 0.4973 0.4981 0.4986
3059.934129 0.4991 0.4996 0.5000 0.5003 0.5005
3064.615795 0.5008 0.5010 0.5010 0.5010 0.5010
3069.297462 0.5011 0.5016 0.5021 0.5026 0.5030
3073.979128 0.5030 0.5030 0.5030 0.5030 0.5030
3078.660794 0.5030 0.5030 0.5029 0.5024 0.5019
3083.342460 0.5014 0.5010 0.5007 0.5005 0.5002
3088.024127 0.4998 0.4988 0.4978 0.4968 0.4960
3092.705793 0.4957 0.4955 0.4952 0.4949 0.4941
3097.387459 0.4934 0.4926 0.4919 0.4911 0.4904
3102.069125 0.4896 0.4889 0.4884 0.4879 0.4874
3106.750792 0.4870 0.4870 0.4870 0.4870 0.4870
3111.432458 0.4867 0.4865 0.4862 0.4859 0.4854
3116.114124 0.4849 0.4844 0.4839 0.4831 0.4823
3120.795791 0.4816 0.4806 0.4788 0.4771 0.4753
3125.477457 0.4737 0.4724 0.4712 0.4699 0.4688
3130.159123 0.4681 0.4673 0.4666 0.4657 0.4647
3134.840789 0.4637 0.4627 0.4617 0.4604 0.4592
3139.522456 0.4579 0.4569 0.4567 0.4564 0.4562
3144.204122 0.4559 0.4554 0.4549 0.4544 0.4539
3148.885788 0.4537 0.4534 0.4532 0.4528 0.4521
3153.567454 0.4513 0.4506 0.4499 0.4494 0.4489
3158.249121 0.4483 0.4480 0.4480 0.4480 0.4480
3162.930787 0.4479 0.4477 0.4474 0.4472 0.4468
3167.612453 0.4460 0.4453 0.4445 0.4436 0.4423
3172.294119 0.4411 0.4398 0.4385 0.4370 0.4355
3176.975786 0.4340 0.4330 0.4330 0.4330 0.4330
3181.657452 0.4329 0.4327 0.4324 0.4322 0.4316
3186.339118 0.4303 0.4291 0.4278 0.4267 0.4257
3191.020785 0.4247 0.4237 0.4228 0.4223 0.4218
3195.702451 0.4213 0.4209 0.4206 0.4204 0.4201
3200.384117 0.4194 0.4179 0.4164 0.4149 0.4135
3205.065783 0.4122 0.4110 0.4097 0.4087 0.4079
3209.747450 0.4072 0.4064 0.4057 0.4049 0.4042
3214.429116 0.4034 0.4029 0.4026 0.4024 0.4021
3219.110782 0.4018 0.4013 0.4008 0.4003 0.3999
3223.792448 0.3996 0.3994 0.3991 0.3987 0.3979
3228.474115 0.3972 0.3964 0.3952 0.3931 0.3911
3233.155781 0.3891 0.3876 0.3869 0.3861 0.3854
3237.837447 0.3843 0.3828 0.3813 0.3798 0.3783
3242.519113 0.3768 0.3753 0.3738 0.3729 0.3726
3247.200780 0.3724 0.3721 0.3716 0.3709 0.3701
3251.882446 0.3694 0.3688 0.3683 0.3678 0.3673
3256.564112 0.3669 0.3666 0.3664 0.3661 0.3656
3261.245779 0.3649 0.3641 0.3634 0.3620 0.3600
3265.927445 0.3580 0.3560 0.3543 0.3527 0.3512
3270.609111 0.3497 0.3484 0.3474 0.3464 0.3454
3275.290777 0.3446 0.3438 0.3431 0.3423 0.3416
3279.972444 0.3408 0.3401 0.3393 0.3386 0.3378
3284.654110 0.3371 0.3363 0.3352 0.3337 0.3322
3289.335776 0.3307 0.3281 0.3246 0.3211 0.3176
3294.017442 0.3150 0.3133 0.3115 0.3098 0.3079
3298.699109 0.3059 0.3039 0.3019 0.3006 0.2998
3303.380775 0.2991 0.2983 0.2970 0.2952 0.2934
3308.062441 0.2917 0.2897 0.2877 0.2857 0.2837
3312.744108 0.2821 0.2806 0.2791 0.2776 0.2759
3317.425774 0.2742 0.2724 0.2707 0.2687 0.2667
3322.107440 0.2647 0.2627 0.2614 0.2604 0.2594
3326.789106 0.2584 0.2577 0.2572 0.2567 0.2562
3331.470773 0.2549 0.2532 0.2514 0.2497 0.2476
3336.152439 0.2453 0.2431 0.2408 0.2387 0.2367
3340.834105 0.2347 0.2327 0.2309 0.2291 0.2273
3345.515771 0.2255 0.2229 0.2199 0.2169 0.2139
3350.197438 0.2116 0.2096 0.2076 0.2056 0.2027
3354.879104 0.1995 0.1962 0.1930 0.1899 0.1869
3359.560770 0.1839 0.1809 0.1786 0.1766 0.1746
3364.242436 0.1726 0.1708 0.1690 0.1673 0.1655
3368.924103 0.1645 0.1637 0.1630 0.1622 0.1615
3373.605769 0.1607 0.1600 0.1592 0.1590 0.1590
3378.287435 0.1590 0.1590 0.1595 0.1603 0.1611
3382.969102 0.1618 0.1632 0.1647 0.1662 0.1677
3387.650768 0.1692 0.1707 0.1722 0.1737 0.1771
3392.332434 0.1811 0.1851 0.1891 0.1929 0.1967
3397.014100 0.2004 0.2042 0.2085 0.2130 0.2175
3401.695767 0.2220 0.2265 0.2310 0.2355 0.2400
3406.377433 0.2439 0.2477 0.2514 0.2552 0.2572
3411.059099 0.2587 0.2602 0.2617 0.2620 0.2620
3415.740765 0.2620 0.2620 0.2620 0.2620 0.2620
3420.422432 0.2620 0.2620 0.2620 0.2620 0.2620
3425.104098 0.2618 0.2615 0.2613 0.2610 0.2606
3429.785764 0.2601 0.2596 0.2591 0.2584 0.2576
3434.467430 0.2569 0.2561 0.2545 0.2528 0.2510
3439.149097 0.2493 0.2464 0.2434 0.2404 0.2374
3443.830763 0.2334 0.2291 0.2249 0.2206 0.2187
3448.512429 0.2172 0.2157 0.2142 0.2134 0.2126
3453.194096 0.2119 0.2111 0.2110 0.2110 0.2110
3457.875762 0.2110 0.2131 0.2153 0.2176 0.2198
3462.557428 0.2274 0.2354 0.2434 0.2514 0.2592
3467.239094 0.2669 0.2747 0.2824 0.2955 0.3090
3471.920761 0.3225 0.3360 0.3402 0.3437 0.3472
3476.602427 0.3507 0.3589 0.3674 0.3759 0.3844
3481.284093 0.3896 0.3946 0.3996 0.4046 0.4087
3485.965759 0.4127 0.4167 0.4207 0.4238 0.4268
3490.647426 0.4298 0.4328 0.4335 0.4340 0.4345
3495.329092 0.4350 0.4353 0.4355 0.4358 0.4360
3500.010758 0.4368 0.4375 0.4383 0.4390 0.4410
3504.692424 0.4430 0.4450 0.4470 0.4480 0.4490
3509.374091 0.4500 0.4510 0.4530 0.4550 0.4570
3514.055757 0.4590 0.4608 0.4625 0.4643 0.4660
3518.737423 0.4673 0.4685 0.4698 0.4710 0.4720
3523.419090 0.4730 0.4740 0.4750 0.4763 0.4775
3528.100756 0.4788 0.4800 0.4803 0.4805 0.4808
3532.782422 0.4810 0.4815 0.4820 0.4825 0.4830
3537.464088 0.4833 0.4835 0.4838 0.4841 0.4848
3542.145755 0.4856 0.4863 0.4870 0.4875 0.4880
3546.827421 0.4885 0.4890 0.4890 0.4890 0.4890
3551.509087 0.4890 0.4893 0.4895 0.4898 0.4900
3556.190753 0.4900 0.4900 0.4900 0.4900 0.4905
3560.872420 0.4910 0.4915 0.4920 0.4923 0.4925
3565.554086 0.4928 0.4930 0.4935 0.4941 0.4946
3570.235752 0.4950 0.4953 0.4955 0.4958 0.4961
3574.917418 0.4966 0.4971 0.4976 0.4980 0.4980
3579.599085 0.4980 0.4980 0.4980 0.4980 0.4980
3584.280751 0.4980 0.4981 0.4986 0.4991 0.4996
3588.962417 0.5000 0.5000 0.5000 0.5000 0.5000
3593.644084 0.5000 0.5000 0.5000 0.5000 0.5000
3598.325750 0.5000 0.5000 0.5000 0.5000 0.5000
3603.007416 0.5000 0.5000 0.5000 0.5000 0.5000
3607.689082 0.5000 0.5000 0.5000 0.5000 0.5000
3612.370749 0.5000 0.5000 0.5000 0.5000 0.5000
3617.052415 0.5000 0.5000 0.5000 0.5000 0.5000
3621.734081 0.5000 0.4999 0.4994 0.4989 0.4984
3626.415747 0.4980 0.4980 0.4980 0.4980 0.4980
3631.097414 0.4980 0.4980 0.4980 0.4980 0.4980
3635.779080 0.4980 0.4980 0.4980 0.4980 0.4980
3640.460746 0.4980 0.4980 0.4980 0.4980 0.4980
3645.142413 0.4980 0.4980 0.4980 0.4980 0.4980
3649.824079 0.4980 0.4980 0.4980 0.4978 0.4973
3654.505745 0.4968 0.4963 0.4960 0.4960 0.4960
3659.187411 0.4960 0.4960 0.4960 0.4960 0.4960
3663.869078 0.4960 0.4960 0.4960 0.4960 0.4960
3668.550744 0.4960 0.4960 0.4960 0.4960 0.4960
3673.232410 0.4960 0.4960 0.4959 0.4957 0.4954
3677.914076 0.4952 0.4950 0.4950 0.4950 0.4950
3682.595743 0.4948 0.4943 0.4938 0.4933 0.4930
3687.277409 0.4930 0.4930 0.4930 0.4929 0.4927
3691.959075 0.4924 0.4922 0.4917 0.4910 0.4902
3696.640741 0.4895 0.4888 0.4883 0.4878 0.4873
3701.322408 0.4869 0.4867 0.4864 0.4862 0.4858
3706.004074 0.4853 0.4848 0.4843 0.4839 0.4837
3710.685740 0.4834 0.4832 0.4828 0.4823 0.4818
3715.367407 0.4813 0.4807 0.4799 0.4792 0.4784
3720.049073 0.4779 0.4776 0.4774 0.4771 0.4770
3724.730739 0.4770 0.4770 0.4770 0.4768 0.4763
3729.412405 0.4758 0.4753 0.4749 0.4746 0.4744
3734.094072 0.4741 0.4740 0.4740 0.4740 0.4740
3738.775738 0.4740 0.4740 0.4740 0.4740 0.4738
3743.457404 0.4733 0.4728 0.4723 0.4720 0.4720
3748.139070 0.4720 0.4720 0.4720 0.4720 0.4720
3752.820737 0.4720 0.4719 0.4716 0.4714 0.4711
3757.502403 0.4710 0.4710 0.4710 0.4710 0.4710
3762.184069 0.4710 0.4710 0.4710 0.4707 0.4702
3766.865735 0.4697 0.4692 0.4690 0.4690 0.4690
3771.547402 0.4690 0.4690 0.4690 0.4690 0.4690
3776.229068 0.4689 0.4686 0.4684 0.4681 0.4680
3780.910734 0.4680 0.4680 0.4680 0.4680 0.4680
3785.592401 0.4680 0.4680 0.4680 0.4680 0.4680
3790.274067 0.4680 0.4677 0.4672 0.4667 0.4662
3794.955733 0.4660 0.4660 0.4660 0.4660 0.4660
3799.637399 0.4660 0.4660 0.4660 0.4659 0.4656
3804.319066 0.4654 0.4651 0.4650 0.4650 0.4650
3809.000732 0.4650 0.4647 0.4642 0.4637 0.4632
3813.682398 0.4630 0.4630 0.4630 0.4630 0.4630
3818.364064 0.4630 0.4630 0.4630 0.4629 0.4626
3823.045731 0.4624 0.4621 0.4620 0.4620 0.4620
3827.727397 0.4620 0.4620 0.4620 0.4620 0.4620
3832.409063 0.4620 0.4620 0.4620 0.4620 0.4620
3837.090729 0.4620 0.4620 0.4620 0.4620 0.4620
3841.772396 0.4620 0.4620 0.4617 0.4612 0.4607
3846.454062 0.4602 0.4600 0.4600 0.4600 0.4600
3851.135728 0.4600 0.4600 0.4600 0.4600 0.4595
3855.817395 0.4587 0.4580 0.4572 0.4568 0.4566
3860.499061 0.4563 0.4561 0.4557 0.4552 0.4547
3865.180727 0.4542 0.4540 0.4540 0.4540 0.4540
3869.862393 0.4538 0.4536 0.4533 0.4531 0.4526
3874.544060 0.4521 0.4516 0.4511 0.4510 0.4510
3879.225726 0.4510 0.4510 0.4510 0.4510 0.4510
3883.907392 0.4510 0.4508 0.4506 0.4503 0.4501
3888.589058 0.4496 0.4491 0.4486 0.4481 0.4480
3893.270725 0.4480 0.4480 0.4480 0.4478 0.4476
3897.952391 0.4473 0.4471 0.4470 0.4470 0.4470
3902.634057 0.4470 0.4466 0.4461 0.4456 0.4451
3907.315724 0.4450 0.4450 0.4450 0.4450 0.4448
3911.997390 0.4445 0.4443 0.4440 0.4440 0.4440
3916.679056 0.4440 0.4440 0.4440 0.4440 0.4440
3921.360722 0.4440 0.4436 0.4431 0.4426 0.4421
3926.042389 0.4418 0.4415 0.4413 0.4410 0.4406
3930.724055 0.4401 0.4396 0.4391 0.4390 0.4390
3935.405721 0.4390 0.4390 0.4388 0.4385 0.4383
3940.087387 0.4380 0.4376 0.4371 0.4366 0.4360
3944.769054 0.4358 0.4355 0.4353 0.4350 0.4350
3949.450720 0.4350 0.4350 0.4350 0.4345 0.4340
3954.132386 0.4335 0.4330 0.4330 0.4330 0.4330
3958.814052 0.4330 0.4330 0.4330 0.4330 0.4330
3963.495719 0.4330 0.4330 0.4330 0.4330 0.4330
3968.177385 0.4330 0.4330 0.4330 0.4330 0.4330
3972.859051 0.4330 0.4330 0.4330 0.4330 0.4330
3977.540718 0.4330 0.4330 0.4330 0.4330 0.4330
3982.222384 0.4330 0.4330 0.4330 0.4330
##END=
