##TITLE=DIETHYL ETHER
##JCAMP-DX=4.24
##DATA TYPE=INFRARED SPECTRUM
##CLASS=COBLENTZ III
##ORIGIN=WESTERN REGIONAL RES. USDA
##OWNER=COBLENTZ SOCIETY
Collection (C) 2018 copyright by the U.S. Secretary of Commerce
on behalf of the United States of America. All rights reserved.
##DATE=1964/05/22
##NAMES=1-ethoxyethane
##CAS REGISTRY NO=60-29-7
##MOLFORM=C4 H10 O
##SOURCE REFERENCE=COBLENTZ NO. 6162
##$NIST SOURCE=COBLENTZ
##$NIST IMAGE=cob6162
##SPECTROMETER/DATA SYSTEM=BECKMAN IR-7 (GRATING)
##INSTRUMENT PARAMETERS=GRATING CHANGES AT 3000, 2200, 1150 CM^-^1
##STATE=SOLUTION (10% IN CCl4 FOR 4000-1330 CM^-^1, 10% IN CS2 FOR 1330-600 CM^-^1)
##PATH LENGTH=0.011 CM, 0.010 CM
$$SPECTRAL CONTAMINATION DUE TO CCl4 AROUND 1550 CM^-^1
##SAMPLING PROCEDURE=TRANSMISSION
##RESOLUTION=4
##DATA PROCESSING=DIGITIZED BY NIST FROM HARD COPY (FROM TWO SEGMENTS)
##XUNITS=1/CM
##YUNITS=TRANSMITTANCE
##XFACTOR=1.000000
##YFACTOR=1
##DELTAX=0.661314
##FIRSTX=601.323
##LASTX=3984.6
##FIRSTY=0.809
##MAXX=3984.6
##MINX=601.323
##MAXY=0.809
##MINY=0
##NPOINTS=5117
##XYDATA=(X++(Y..Y))
601.323000 0.8090 0.8090 0.8090 0.8080 0.8070
604.629568 0.8060 0.8050 0.8050 0.8040 0.8030
607.936135 0.8020 0.8020 0.8020 0.8010 0.8010
611.242703 0.8010 0.8000 0.7980 0.7970 0.7960
614.549271 0.7950 0.7940 0.7940 0.7940 0.7930
617.855838 0.7930 0.7930 0.7930 0.7930 0.7940
621.162406 0.7940 0.7930 0.7930 0.7920 0.7920
624.468974 0.7920 0.7910 0.7910 0.7900 0.7900
627.775541 0.7900 0.7890 0.7880 0.7880 0.7880
631.082109 0.7880 0.7860 0.7850 0.7840 0.7830
634.388677 0.7820 0.7800 0.7800 0.7790 0.7780
637.695245 0.7770 0.7760 0.7750 0.7740 0.7730
641.001812 0.7710 0.7690 0.7670 0.7650 0.7630
644.308380 0.7610 0.7590 0.7580 0.7560 0.7550
647.614948 0.7530 0.7510 0.7500 0.7490 0.7480
650.921515 0.7460 0.7450 0.7440 0.7430 0.7420
654.228083 0.7400 0.7400 0.7400 0.7400 0.7400
657.534651 0.7420 0.7440 0.7450 0.7480 0.7500
660.841218 0.7550 0.7590 0.7610 0.7640 0.7650
664.147786 0.7670 0.7670 0.7680 0.7690 0.7690
667.454354 0.7720 0.7730 0.7730 0.7730 0.7730
670.760921 0.7730 0.7730 0.7730 0.7710 0.7690
674.067489 0.7660 0.7630 0.7620 0.7610 0.7600
677.374057 0.7590 0.7600 0.7620 0.7630 0.7660
680.680624 0.7690 0.7710 0.7750 0.7780 0.7800
683.987192 0.7830 0.7840 0.7840 0.7840 0.7850
687.293760 0.7850 0.7860 0.7860 0.7860 0.7870
690.600327 0.7870 0.7880 0.7870 0.7880 0.7880
693.906895 0.7880 0.7880 0.7880 0.7880 0.7880
697.213463 0.7880 0.7880 0.7880 0.7880 0.7880
700.520030 0.7880 0.7880 0.7880 0.7880 0.7870
703.826598 0.7870 0.7870 0.7870 0.7860 0.7860
707.133166 0.7860 0.7860 0.7860 0.7850 0.7850
710.439734 0.7850 0.7850 0.7840 0.7840 0.7840
713.746301 0.7840 0.7840 0.7840 0.7840 0.7840
717.052869 0.7850 0.7850 0.7850 0.7860 0.7860
720.359437 0.7860 0.7860 0.7870 0.7870 0.7870
723.666004 0.7870 0.7870 0.7870 0.7870 0.7870
726.972572 0.7870 0.7880 0.7880 0.7880 0.7880
730.279140 0.7880 0.7880 0.7890 0.7890 0.7890
733.585707 0.7890 0.7900 0.7900 0.7900 0.7900
736.892275 0.7900 0.7890 0.7890 0.7890 0.7890
740.198843 0.7890 0.7890 0.7890 0.7890 0.7890
743.505410 0.7900 0.7900 0.7900 0.7900 0.7900
746.811978 0.7890 0.7890 0.7900 0.7900 0.7890
750.118546 0.7890 0.7890 0.7880 0.7880 0.7880
753.425113 0.7880 0.7880 0.7880 0.7880 0.7880
756.731681 0.7880 0.7870 0.7870 0.7860 0.7860
760.038249 0.7860 0.7860 0.7850 0.7850 0.7840
763.344816 0.7840 0.7830 0.7820 0.7820 0.7820
766.651384 0.7810 0.7800 0.7800 0.7800 0.7780
769.957952 0.7770 0.7750 0.7730 0.7710 0.7700
773.264520 0.7690 0.7670 0.7640 0.7630 0.7610
776.571087 0.7610 0.7600 0.7590 0.7570 0.7540
779.877655 0.7510 0.7460 0.7380 0.7340 0.7280
783.184223 0.7230 0.7160 0.7090 0.7030 0.6960
786.490790 0.6900 0.6830 0.6770 0.6710 0.6510
789.797358 0.6460 0.6440 0.6360 0.6350 0.6340
793.103926 0.6350 0.6360 0.6450 0.6520 0.6580
796.410493 0.6630 0.6680 0.6730 0.6770 0.6820
799.717061 0.6870 0.6920 0.6960 0.6990 0.7030
803.023629 0.7050 0.7050 0.7060 0.7070 0.7070
806.330196 0.7080 0.7070 0.7070 0.7060 0.7050
809.636764 0.7050 0.7040 0.7030 0.7010 0.7000
812.943332 0.6980 0.6960 0.6920 0.6890 0.6880
816.249899 0.6860 0.6800 0.6760 0.6730 0.6720
819.556467 0.6710 0.6690 0.6690 0.6690 0.6680
822.863035 0.6680 0.6670 0.6670 0.6670 0.6660
826.169602 0.6650 0.6600 0.6510 0.6390 0.6330
829.476170 0.6270 0.6100 0.5990 0.5900 0.5840
832.782738 0.5780 0.5750 0.5730 0.5710 0.5700
836.089306 0.5690 0.5650 0.5640 0.5311 0.5260
839.395873 0.5180 0.5020 0.4870 0.4710 0.4560
842.702441 0.4400 0.4250 0.4240 0.4250 0.4390
846.009009 0.4530 0.4680 0.4820 0.4970 0.5240
849.315576 0.5500 0.5510 0.5770 0.5780 0.5880
852.622144 0.5920 0.5940 0.5960 0.5980 0.6000
855.928712 0.6030 0.6110 0.6150 0.6190 0.6200
859.235279 0.6210 0.6280 0.6310 0.6340 0.6360
862.541847 0.6420 0.6420 0.6460 0.6490 0.6520
865.848415 0.6550 0.6580 0.6610 0.6640 0.6670
869.154982 0.6700 0.6730 0.6760 0.6780 0.6820
872.461550 0.6870 0.6870 0.6890 0.6910 0.6920
875.768118 0.6940 0.6960 0.6980 0.7000 0.7010
879.074685 0.7030 0.7030 0.7070 0.7100 0.7160
882.381253 0.7190 0.7230 0.7250 0.7260 0.7280
885.687821 0.7300 0.7320 0.7350 0.7380 0.7400
888.994388 0.7420 0.7430 0.7440 0.7460 0.7460
892.300956 0.7480 0.7480 0.7480 0.7490 0.7500
895.607524 0.7500 0.7510 0.7510 0.7510 0.7510
898.914091 0.7510 0.7500 0.7500 0.7490 0.7480
902.220659 0.7480 0.7480 0.7460 0.7450 0.7410
905.527227 0.7400 0.7390 0.7380 0.7300 0.7280
908.833795 0.7160 0.7130 0.7050 0.6980 0.6801
912.140362 0.6750 0.6630 0.6560 0.6550 0.6550
915.446930 0.6550 0.6570 0.6610 0.6630 0.6640
918.753498 0.6690 0.6750 0.6810 0.6850 0.6880
922.060065 0.6920 0.6920 0.6920 0.6920 0.6910
925.366633 0.6880 0.6690 0.6690 0.6630 0.6560
928.673201 0.6460 0.6320 0.6170 0.6050 0.5960
931.979768 0.5960 0.5980 0.6000 0.6060 0.6180
935.286336 0.6300 0.6420 0.6540 0.6660 0.6780
938.592904 0.6900 0.6940 0.6990 0.7070 0.7190
941.899471 0.7280 0.7330 0.7360 0.7380 0.7440
945.206039 0.7470 0.7500 0.7540 0.7570 0.7590
948.512607 0.7590 0.7630 0.7650 0.7670 0.7690
951.819174 0.7710 0.7720 0.7730 0.7750 0.7750
955.125742 0.7760 0.7770 0.7770 0.7780 0.7780
958.432310 0.7790 0.7790 0.7800 0.7800 0.7800
961.738877 0.7810 0.7820 0.7820 0.7820 0.7820
965.045445 0.7820 0.7820 0.7820 0.7820 0.7810
968.352013 0.7800 0.7790 0.7780 0.7780 0.7780
971.658581 0.7780 0.7780 0.7780 0.7780 0.7780
974.965148 0.7770 0.7770 0.7770 0.7760 0.7760
978.271716 0.7760 0.7750 0.7750 0.7750 0.7730
981.578284 0.7730 0.7720 0.7710 0.7700 0.7690
984.884851 0.7690 0.7680 0.7670 0.7650 0.7640
988.191419 0.7620 0.7610 0.7590 0.7590 0.7570
991.497987 0.7560 0.7550 0.7530 0.7510 0.7500
994.804554 0.7480 0.7450 0.7420 0.7380 0.7340
998.111122 0.7290 0.7250 0.7190 0.7150 0.7130
1001.417690 0.7080 0.7050 0.7010 0.6980 0.6960
1004.724257 0.6960 0.6900 0.6880 0.6860 0.6840
1008.030825 0.6810 0.6650 0.6580 0.6530 0.6281
1011.337393 0.6230 0.6190 0.6170 0.6170 0.6110
1014.643960 0.6000 0.5940 0.5820 0.5680 0.5541
1017.950528 0.5400 0.5300 0.5220 0.5060 0.5000
1021.257096 0.4880 0.4810 0.4790 0.4780 0.4780
1024.563663 0.4790 0.4850 0.4880 0.4920 0.4960
1027.870231 0.5030 0.5090 0.5150 0.5230 0.5240
1031.176799 0.5230 0.5220 0.5190 0.5150 0.5100
1034.483367 0.4860 0.4810 0.4800 0.4670 0.4570
1037.789934 0.4480 0.4410 0.4330 0.4240 0.4110
1041.096502 0.3980 0.3840 0.3810 0.3800 0.3810
1044.403070 0.3910 0.4010 0.4110 0.4210 0.4300
1047.709637 0.4320 0.4380 0.4610 0.4820 0.4900
1051.016205 0.4940 0.4980 0.5010 0.5020 0.5020
1054.322773 0.5010 0.5010 0.5000 0.5000 0.4950
1057.629340 0.4840 0.4740 0.4650 0.4580 0.4350
1060.935908 0.4300 0.4200 0.4110 0.3960 0.3860
1064.242476 0.3800 0.3760 0.3630 0.3500 0.3360
1067.549043 0.3230 0.3100 0.2920 0.2780 0.2660
1070.855611 0.2530 0.2400 0.2280 0.2150 0.2030
1074.162179 0.1920 0.1880 0.1870 0.1880 0.1880
1077.468746 0.2090 0.2240 0.2530 0.2690 0.2870
1080.775314 0.3070 0.3280 0.3490 0.3670 0.3839
1084.081882 0.3950 0.4010 0.4170 0.4170 0.4170
1087.388449 0.4180 0.4170 0.4060 0.3900 0.3780
1090.695017 0.3690 0.3610 0.3550 0.3480 0.3420
1094.001585 0.3330 0.3230 0.3080 0.2880 0.2691
1097.308152 0.2500 0.2300 0.2120 0.1940 0.1760
1100.614720 0.1600 0.1440 0.1280 0.1130 0.0990
1103.921288 0.0860 0.0730 0.0610 0.0500 0.0400
1107.227856 0.0310 0.0230 0.0160 0.0100 0.0050
1110.534423 0.0030 0.0010 0.0010 0.0000 0.0000
1113.840991 0.0000 0.0000 0.0000 0.0000 0.0000
1117.147559 0.0000 0.0000 0.0000 0.0000 0.0000
1120.454126 0.0000 0.0000 0.0000 0.0000 0.0000
1123.760694 0.0000 0.0000 0.0000 0.0000 0.0010
1127.067262 0.0030 0.0060 0.0130 0.0190 0.0250
1130.373829 0.0300 0.0360 0.0420 0.0470 0.0510
1133.680397 0.0570 0.0610 0.0660 0.0700 0.0750
1136.986965 0.0780 0.0820 0.0860 0.0890 0.0930
1140.293532 0.0960 0.0970 0.0980 0.0970 0.0960
1143.600100 0.0950 0.0940 0.0900 0.0880 0.0850
1146.906668 0.0820 0.0800 0.0780 0.0780 0.0780
1150.213235 0.0790 0.0850 0.0900 0.0960 0.1010
1153.519803 0.1070 0.1130 0.1190 0.1240 0.1280
1156.826371 0.1370 0.1440 0.1480 0.1510 0.1510
1160.132938 0.1630 0.1690 0.1780 0.1870 0.1920
1163.439506 0.1980 0.2020 0.2070 0.2130 0.2190
1166.746074 0.2250 0.2300 0.2360 0.2430 0.2500
1170.052642 0.2560 0.2630 0.2710 0.2780 0.2860
1173.359209 0.2880 0.2920 0.2940 0.2940 0.2940
1176.665777 0.2930 0.2920 0.2920 0.2920 0.2930
1179.972345 0.3000 0.3090 0.3220 0.3320 0.3440
1183.278912 0.3590 0.3730 0.3900 0.4100 0.4320
1186.585480 0.4560 0.4790 0.5000 0.5190 0.5360
1189.892048 0.5410 0.5560 0.5700 0.5710 0.5770
1193.198615 0.5840 0.5880 0.5890 0.5950 0.6010
1196.505183 0.6080 0.6140 0.6210 0.6250 0.6280
1199.811751 0.6340 0.6370 0.6390 0.6410 0.6440
1203.118318 0.6470 0.6470 0.6480 0.6480 0.6450
1206.424886 0.6440 0.6390 0.6340 0.6280 0.6260
1209.731454 0.6240 0.6200 0.6150 0.6110 0.6070
1213.038021 0.6030 0.6020 0.6030 0.6030 0.6070
1216.344589 0.6110 0.6140 0.6280 0.6360 0.6440
1219.651157 0.6500 0.6590 0.6690 0.6740 0.6820
1222.957724 0.6860 0.6890 0.6920 0.6940 0.6970
1226.264292 0.6990 0.7010 0.7030 0.7040 0.7060
1229.570860 0.7070 0.7090 0.7090 0.7110 0.7120
1232.877427 0.7130 0.7130 0.7140 0.7150 0.7150
1236.183995 0.7160 0.7170 0.7170 0.7180 0.7190
1239.490563 0.7190 0.7190 0.7190 0.7190 0.7190
1242.797131 0.7190 0.7190 0.7190 0.7180 0.7180
1246.103698 0.7180 0.7170 0.7170 0.7170 0.7170
1249.410266 0.7160 0.7160 0.7150 0.7150 0.7150
1252.716834 0.7150 0.7150 0.7140 0.7140 0.7140
1256.023401 0.7130 0.7120 0.7110 0.7110 0.7110
1259.329969 0.7090 0.7060 0.7030 0.7000 0.6960
1262.636537 0.6920 0.6880 0.6840 0.6790 0.6750
1265.943104 0.6690 0.6630 0.6580 0.6510 0.6460
1269.249672 0.6390 0.6320 0.6250 0.6170 0.6100
1272.556240 0.6020 0.5940 0.5850 0.5800 0.5800
1275.862807 0.5790 0.5800 0.5800 0.5820 0.5860
1279.169375 0.5890 0.5910 0.5920 0.5920 0.5940
1282.475943 0.5940 0.5940 0.5940 0.5930 0.5860
1285.782510 0.5790 0.5720 0.5650 0.5570 0.5510
1289.089078 0.5440 0.5370 0.5300 0.5250 0.5190
1292.395646 0.5140 0.5090 0.5080 0.5070 0.5080
1295.702213 0.5090 0.5230 0.5360 0.5470 0.5570
1299.008781 0.5690 0.5980 0.6270 0.6430 0.6440
1302.315349 0.6460 0.6510 0.6570 0.6580 0.6590
1305.621917 0.6620 0.6630 0.6660 0.6700 0.6740
1308.928484 0.6780 0.6810 0.6850 0.6880 0.6900
1312.235052 0.6930 0.6940 0.6950 0.6950 0.6960
1315.541620 0.6960 0.6960 0.6960 0.6960 0.6960
1318.848187 0.6960 0.6950 0.6940 0.6940 0.6940
1322.154755 0.6920 0.6900 0.6870 0.6860 0.6840
1325.461323 0.6840 0.6830 0.6820 0.6810 0.6800
1328.767890 0.6790 0.6770 0.6750 0.6710 0.6680
1332.074458 0.6650 0.6610 0.6590 0.6560 0.6540
1335.381026 0.6530 0.6520 0.6500 0.6420 0.6320
1338.687593 0.6180 0.6000 0.5820 0.5650 0.5480
1341.994161 0.5000 0.4820 0.4810 0.4770 0.3510
1345.300729 0.3070 0.2191 0.1551 0.1390 0.1380
1348.607296 0.1380 0.1510 0.2340 0.3019 0.3589
1351.913864 0.4069 0.4479 0.4859 0.5219 0.5300
1355.220432 0.5380 0.5420 0.5450 0.5470 0.5470
1358.526999 0.5460 0.5420 0.5290 0.5101 0.4881
1361.833567 0.4759 0.4090 0.4010 0.3860 0.3780
1365.140135 0.3530 0.3460 0.3400 0.3390 0.3330
1368.446703 0.3250 0.3110 0.3030 0.2790 0.2560
1371.753270 0.2420 0.2260 0.2090 0.1910 0.1731
1375.059838 0.1530 0.1350 0.1150 0.0910 0.0730
1378.366406 0.0710 0.0700 0.0690 0.0700 0.0780
1381.672973 0.0850 0.0910 0.1240 0.1840 0.2350
1384.979541 0.2510 0.2660 0.2860 0.3050 0.3239
1388.286109 0.3400 0.3560 0.3710 0.3840 0.3970
1391.592676 0.4090 0.4210 0.4320 0.4420 0.4520
1394.899244 0.4620 0.4710 0.4800 0.4890 0.4980
1398.205812 0.5070 0.5160 0.5250 0.5350 0.5450
1401.512379 0.5550 0.5550 0.5560 0.5550 0.5530
1404.818947 0.5480 0.5420 0.5360 0.5320 0.5300
1408.125515 0.5210 0.5120 0.5030 0.4940 0.4860
1411.432082 0.4790 0.4770 0.4770 0.4760 0.4770
1414.738650 0.4860 0.4960 0.5050 0.5150 0.5240
1418.045218 0.5250 0.5300 0.5410 0.5530 0.5660
1421.351785 0.5740 0.5770 0.5780 0.5780 0.5780
1424.658353 0.5770 0.5760 0.5730 0.5690 0.5640
1427.964921 0.5610 0.5570 0.5530 0.5460 0.5230
1431.271488 0.5100 0.5030 0.5000 0.4960 0.4880
1434.578056 0.4750 0.4510 0.4130 0.3740 0.3610
1437.884624 0.3520 0.3280 0.3050 0.2811 0.2581
1441.191192 0.2570 0.2570 0.2590 0.2780 0.2940
1444.497759 0.3100 0.3250 0.3410 0.3580 0.3789
1447.804327 0.4031 0.4330 0.4380 0.4380 0.4380
1451.110895 0.4380 0.4370 0.4150 0.4070 0.4000
1454.417462 0.3860 0.3750 0.3740 0.3750 0.3920
1457.724030 0.4080 0.4250 0.4360 0.4390 0.4530
1461.030598 0.4670 0.4800 0.4920 0.5010 0.5090
1464.337165 0.5110 0.5110 0.5130 0.5160 0.5190
1467.643733 0.5210 0.5240 0.5260 0.5300 0.5320
1470.950301 0.5350 0.5380 0.5400 0.5430 0.5460
1474.256868 0.5480 0.5500 0.5510 0.5520 0.5530
1477.563436 0.5520 0.5510 0.5510 0.5430 0.5340
1480.870004 0.5250 0.5130 0.5110 0.4880 0.4770
1484.176571 0.4710 0.4680 0.4560 0.4440 0.4330
1487.483139 0.4210 0.4110 0.4100 0.4110 0.4280
1490.789707 0.4460 0.4630 0.4760 0.5009 0.5259
1494.096274 0.5300 0.5420 0.5510 0.5580 0.5620
1497.402842 0.5650 0.5670 0.5700 0.5740 0.5830
1500.709410 0.5840 0.5830 0.5820 0.5820 0.5820
1504.015978 0.5810 0.5800 0.5790 0.5770 0.5760
1507.322545 0.5730 0.5720 0.5700 0.5670 0.5640
1510.629113 0.5600 0.5550 0.5510 0.5470 0.5440
1513.935681 0.5410 0.5400 0.5400 0.5380 0.5350
1517.242248 0.5300 0.5280 0.5240 0.5220 0.5190
1520.548816 0.5180 0.5180 0.5170 0.5170 0.5170
1523.855384 0.5160 0.5160 0.5160 0.5160 0.5150
1527.161951 0.5150 0.5150 0.5130 0.5060 0.4960
1530.468519 0.4940 0.4880 0.4870 0.4860 0.4780
1533.775087 0.4720 0.4700 0.4670 0.4630 0.4580
1537.081654 0.4540 0.4500 0.4460 0.4410 0.4370
1540.388222 0.4340 0.4330 0.4240 0.4190 0.4150
1543.694790 0.4120 0.4100 0.4090 0.4050 0.4030
1547.001357 0.4010 0.4010 0.4000 0.4000 0.4000
1550.307925 0.4010 0.4020 0.4040 0.4060 0.4080
1553.614493 0.4100 0.4130 0.4160 0.4170 0.4230
1556.921060 0.4230 0.4270 0.4320 0.4350 0.4370
1560.227628 0.4450 0.4550 0.4650 0.4740 0.4760
1563.534196 0.4790 0.4800 0.4820 0.4850 0.4870
1566.840764 0.4940 0.4970 0.4980 0.5030 0.5090
1570.147331 0.5120 0.5140 0.5160 0.5170 0.5180
1573.453899 0.5200 0.5210 0.5210 0.5220 0.5230
1576.760467 0.5230 0.5240 0.5250 0.5260 0.5280
1580.067034 0.5300 0.5300 0.5320 0.5320 0.5350
1583.373602 0.5390 0.5400 0.5400 0.5440 0.5460
1586.680170 0.5480 0.5500 0.5530 0.5570 0.5610
1589.986737 0.5660 0.5700 0.5750 0.5780 0.5800
1593.293305 0.5800 0.5860 0.5960 0.5970 0.6000
1596.599873 0.6030 0.6070 0.6120 0.6180 0.6230
1599.906440 0.6300 0.6360 0.6420 0.6480 0.6530
1603.213008 0.6580 0.6630 0.6660 0.6680 0.6690
1606.519576 0.6690 0.6720 0.6750 0.6780 0.6820
1609.826143 0.6860 0.6900 0.6940 0.6970 0.6980
1613.132711 0.6990 0.7000 0.7000 0.7010 0.7020
1616.439279 0.7020 0.7030 0.7050 0.7070 0.7080
1619.745846 0.7090 0.7110 0.7120 0.7130 0.7140
1623.052414 0.7150 0.7160 0.7170 0.7170 0.7190
1626.358982 0.7190 0.7210 0.7220 0.7230 0.7240
1629.665549 0.7250 0.7260 0.7260 0.7260 0.7260
1632.972117 0.7260 0.7260 0.7260 0.7270 0.7270
1636.278685 0.7270 0.7280 0.7280 0.7280 0.7290
1639.585253 0.7290 0.7290 0.7300 0.7300 0.7300
1642.891820 0.7300 0.7300 0.7300 0.7300 0.7310
1646.198388 0.7310 0.7310 0.7310 0.7320 0.7320
1649.504956 0.7320 0.7320 0.7320 0.7320 0.7320
1652.811523 0.7320 0.7320 0.7320 0.7330 0.7330
1656.118091 0.7330 0.7330 0.7330 0.7330 0.7330
1659.424659 0.7330 0.7340 0.7340 0.7340 0.7340
1662.731226 0.7340 0.7340 0.7340 0.7340 0.7340
1666.037794 0.7340 0.7340 0.7340 0.7350 0.7350
1669.344362 0.7350 0.7350 0.7360 0.7360 0.7360
1672.650929 0.7360 0.7360 0.7360 0.7360 0.7360
1675.957497 0.7360 0.7360 0.7360 0.7360 0.7360
1679.264065 0.7360 0.7360 0.7360 0.7360 0.7360
1682.570632 0.7360 0.7360 0.7360 0.7350 0.7350
1685.877200 0.7340 0.7340 0.7340 0.7340 0.7340
1689.183768 0.7340 0.7340 0.7340 0.7340 0.7340
1692.490335 0.7350 0.7350 0.7350 0.7360 0.7360
1695.796903 0.7360 0.7360 0.7360 0.7360 0.7360
1699.103471 0.7360 0.7360 0.7370 0.7370 0.7370
1702.410039 0.7370 0.7370 0.7380 0.7380 0.7380
1705.716606 0.7380 0.7380 0.7380 0.7380 0.7380
1709.023174 0.7380 0.7380 0.7390 0.7390 0.7390
1712.329742 0.7390 0.7390 0.7400 0.7400 0.7400
1715.636309 0.7400 0.7400 0.7400 0.7400 0.7400
1718.942877 0.7400 0.7400 0.7400 0.7400 0.7400
1722.249445 0.7400 0.7400 0.7400 0.7400 0.7400
1725.556012 0.7400 0.7400 0.7400 0.7400 0.7400
1728.862580 0.7400 0.7400 0.7400 0.7400 0.7400
1732.169148 0.7400 0.7400 0.7400 0.7400 0.7400
1735.475715 0.7410 0.7410 0.7410 0.7410 0.7400
1738.782283 0.7400 0.7410 0.7410 0.7400 0.7400
1742.088851 0.7400 0.7400 0.7400 0.7400 0.7390
1745.395418 0.7390 0.7380 0.7380 0.7380 0.7380
1748.701986 0.7380 0.7380 0.7380 0.7380 0.7380
1752.008554 0.7380 0.7380 0.7380 0.7390 0.7390
1755.315121 0.7390 0.7400 0.7400 0.7400 0.7400
1758.621689 0.7400 0.7410 0.7410 0.7420 0.7420
1761.928257 0.7420 0.7420 0.7430 0.7430 0.7430
1765.234824 0.7440 0.7440 0.7440 0.7440 0.7440
1768.541392 0.7430 0.7430 0.7430 0.7430 0.7420
1771.847960 0.7420 0.7420 0.7420 0.7410 0.7400
1775.154528 0.7400 0.7380 0.7360 0.7340 0.7340
1778.461095 0.7340 0.7330 0.7330 0.7330 0.7330
1781.767663 0.7330 0.7340 0.7340 0.7350 0.7360
1785.074231 0.7360 0.7370 0.7380 0.7380 0.7390
1788.380798 0.7400 0.7400 0.7400 0.7400 0.7400
1791.687366 0.7400 0.7400 0.7410 0.7410 0.7420
1794.993934 0.7420 0.7420 0.7420 0.7430 0.7430
1798.300501 0.7440 0.7440 0.7440 0.7440 0.7440
1801.607069 0.7440 0.7440 0.7440 0.7440 0.7440
1804.913637 0.7440 0.7440 0.7440 0.7440 0.7440
1808.220204 0.7440 0.7440 0.7440 0.7450 0.7450
1811.526772 0.7450 0.7450 0.7450 0.7450 0.7450
1814.833340 0.7450 0.7460 0.7460 0.7460 0.7460
1818.139907 0.7460 0.7460 0.7460 0.7460 0.7460
1821.446475 0.7460 0.7460 0.7460 0.7460 0.7460
1824.753043 0.7460 0.7460 0.7460 0.7450 0.7450
1828.059610 0.7450 0.7450 0.7440 0.7440 0.7440
1831.366178 0.7440 0.7440 0.7440 0.7440 0.7430
1834.672746 0.7430 0.7420 0.7420 0.7420 0.7420
1837.979314 0.7420 0.7420 0.7420 0.7420 0.7410
1841.285881 0.7410 0.7410 0.7410 0.7410 0.7400
1844.592449 0.7400 0.7400 0.7400 0.7400 0.7400
1847.899017 0.7390 0.7390 0.7380 0.7380 0.7380
1851.205584 0.7380 0.7370 0.7370 0.7360 0.7360
1854.512152 0.7360 0.7360 0.7360 0.7360 0.7350
1857.818720 0.7350 0.7350 0.7350 0.7350 0.7350
1861.125287 0.7360 0.7360 0.7360 0.7360 0.7360
1864.431855 0.7360 0.7370 0.7370 0.7380 0.7380
1867.738423 0.7380 0.7380 0.7380 0.7380 0.7390
1871.044990 0.7390 0.7390 0.7390 0.7400 0.7400
1874.351558 0.7400 0.7400 0.7400 0.7400 0.7400
1877.658126 0.7400 0.7400 0.7400 0.7400 0.7400
1880.964693 0.7400 0.7400 0.7390 0.7390 0.7380
1884.271261 0.7380 0.7380 0.7380 0.7380 0.7380
1887.577829 0.7370 0.7370 0.7360 0.7360 0.7360
1890.884396 0.7360 0.7350 0.7350 0.7350 0.7340
1894.190964 0.7340 0.7340 0.7340 0.7330 0.7330
1897.497532 0.7320 0.7320 0.7320 0.7320 0.7320
1900.804100 0.7310 0.7310 0.7310 0.7300 0.7300
1904.110667 0.7300 0.7300 0.7300 0.7300 0.7300
1907.417235 0.7290 0.7290 0.7290 0.7280 0.7280
1910.723803 0.7280 0.7280 0.7270 0.7270 0.7270
1914.030370 0.7260 0.7260 0.7260 0.7260 0.7250
1917.336938 0.7250 0.7250 0.7250 0.7240 0.7230
1920.643506 0.7230 0.7230 0.7230 0.7220 0.7220
1923.950073 0.7220 0.7230 0.7230 0.7230 0.7230
1927.256641 0.7230 0.7240 0.7240 0.7240 0.7250
1930.563209 0.7250 0.7240 0.7240 0.7230 0.7230
1933.869776 0.7220 0.7210 0.7210 0.7210 0.7210
1937.176344 0.7200 0.7190 0.7190 0.7190 0.7180
1940.482912 0.7170 0.7160 0.7150 0.7140 0.7130
1943.789479 0.7130 0.7110 0.7110 0.7100 0.7080
1947.096047 0.7050 0.7040 0.7020 0.7000 0.6990
1950.402615 0.6970 0.6950 0.6940 0.6920 0.6900
1953.709182 0.6900 0.6850 0.6820 0.6780 0.6760
1957.015750 0.6750 0.6750 0.6740 0.6740 0.6730
1960.322318 0.6730 0.6730 0.6730 0.6730 0.6730
1963.628885 0.6730 0.6750 0.6760 0.6780 0.6800
1966.935453 0.6810 0.6830 0.6840 0.6850 0.6870
1970.242021 0.6890 0.6900 0.6920 0.6940 0.6960
1973.548589 0.6980 0.6990 0.7010 0.7020 0.7040
1976.855156 0.7060 0.7070 0.7090 0.7110 0.7130
1980.161724 0.7130 0.7130 0.7160 0.7190 0.7190
1983.468292 0.7200 0.7210 0.7210 0.7210 0.7220
1986.774859 0.7230 0.7240 0.7250 0.7250 0.7250
1990.081427 0.7260 0.7260 0.7260 0.7260 0.7280
1993.387995 0.7280 0.7290 0.7290 0.7290 0.7290
1996.694562 0.7300 0.7300 0.7310 0.7310 0.7320
2000.001130 0.7320 0.7320 0.7320 0.7320 0.7320
2003.307698 0.7323 0.7325 0.7328 0.7330 0.7333
2006.614265 0.7335 0.7338 0.7340 0.7340 0.7340
2009.920833 0.7340 0.7340 0.7340 0.7340 0.7340
2013.227401 0.7340 0.7340 0.7340 0.7340 0.7340
2016.533968 0.7340 0.7340 0.7340 0.7340 0.7340
2019.840536 0.7340 0.7340 0.7340 0.7340 0.7340
2023.147104 0.7340 0.7340 0.7340 0.7340 0.7340
2026.453671 0.7340 0.7340 0.7340 0.7340 0.7340
2029.760239 0.7340 0.7340 0.7340 0.7340 0.7340
2033.066807 0.7340 0.7340 0.7340 0.7340 0.7340
2036.373375 0.7340 0.7340 0.7340 0.7340 0.7340
2039.679942 0.7340 0.7340 0.7340 0.7340 0.7340
2042.986510 0.7343 0.7345 0.7348 0.7350 0.7350
2046.293078 0.7350 0.7350 0.7351 0.7353 0.7356
2049.599645 0.7358 0.7360 0.7360 0.7360 0.7360
2052.906213 0.7360 0.7360 0.7360 0.7360 0.7360
2056.212781 0.7360 0.7360 0.7360 0.7361 0.7363
2059.519348 0.7366 0.7368 0.7371 0.7373 0.7376
2062.825916 0.7378 0.7380 0.7380 0.7380 0.7380
2066.132484 0.7380 0.7380 0.7380 0.7380 0.7380
2069.439051 0.7380 0.7380 0.7380 0.7380 0.7380
2072.745619 0.7380 0.7380 0.7380 0.7380 0.7380
2076.052187 0.7380 0.7381 0.7383 0.7386 0.7389
2079.358754 0.7390 0.7390 0.7390 0.7390 0.7390
2082.665322 0.7390 0.7390 0.7390 0.7391 0.7394
2085.971890 0.7396 0.7399 0.7400 0.7400 0.7400
2089.278457 0.7400 0.7400 0.7400 0.7400 0.7400
2092.585025 0.7400 0.7400 0.7400 0.7400 0.7400
2095.891593 0.7400 0.7400 0.7400 0.7400 0.7400
2099.198161 0.7400 0.7400 0.7401 0.7404 0.7406
2102.504728 0.7409 0.7410 0.7410 0.7410 0.7410
2105.811296 0.7410 0.7410 0.7410 0.7410 0.7410
2109.117864 0.7410 0.7410 0.7410 0.7411 0.7414
2112.424431 0.7416 0.7419 0.7420 0.7420 0.7420
2115.730999 0.7420 0.7420 0.7420 0.7420 0.7420
2119.037567 0.7420 0.7420 0.7420 0.7420 0.7422
2122.344134 0.7424 0.7427 0.7429 0.7430 0.7430
2125.650702 0.7430 0.7430 0.7430 0.7430 0.7430
2128.957270 0.7430 0.7432 0.7434 0.7437 0.7439
2132.263837 0.7440 0.7440 0.7440 0.7440 0.7440
2135.570405 0.7440 0.7440 0.7440 0.7442 0.7444
2138.876973 0.7447 0.7449 0.7450 0.7450 0.7450
2142.183540 0.7450 0.7452 0.7454 0.7457 0.7459
2145.490108 0.7460 0.7460 0.7460 0.7460 0.7460
2148.796676 0.7460 0.7460 0.7460 0.7460 0.7460
2152.103243 0.7460 0.7460 0.7460 0.7460 0.7460
2155.409811 0.7460 0.7458 0.7455 0.7453 0.7450
2158.716379 0.7450 0.7450 0.7450 0.7450 0.7450
2162.022946 0.7450 0.7450 0.7450 0.7448 0.7445
2165.329514 0.7443 0.7440 0.7440 0.7440 0.7440
2168.636082 0.7440 0.7440 0.7440 0.7440 0.7440
2171.942650 0.7438 0.7435 0.7433 0.7430 0.7428
2175.249217 0.7425 0.7423 0.7420 0.7420 0.7420
2178.555785 0.7420 0.7420 0.7420 0.7420 0.7420
2181.862353 0.7420 0.7420 0.7420 0.7420 0.7420
2185.168920 0.7420 0.7420 0.7420 0.7420 0.7418
2188.475488 0.7415 0.7412 0.7410 0.7407 0.7405
2191.782056 0.7402 0.7400 0.7400 0.7400 0.7400
2195.088623 0.7400 0.7397 0.7395 0.7392 0.7390
2198.395191 0.7390 0.7390 0.7390 0.7390 0.7387
2201.701759 0.7385 0.7382 0.7380 0.7380 0.7380
2205.008326 0.7380 0.7380 0.7380 0.7380 0.7380
2208.314894 0.7380 0.7377 0.7375 0.7372 0.7370
2211.621462 0.7367 0.7365 0.7362 0.7360 0.7360
2214.928029 0.7360 0.7360 0.7360 0.7360 0.7360
2218.234597 0.7360 0.7360 0.7360 0.7360 0.7360
2221.541165 0.7360 0.7357 0.7355 0.7352 0.7350
2224.847732 0.7347 0.7345 0.7342 0.7340 0.7340
2228.154300 0.7340 0.7340 0.7339 0.7334 0.7329
2231.460868 0.7324 0.7320 0.7320 0.7320 0.7320
2234.767436 0.7319 0.7317 0.7314 0.7312 0.7309
2238.074003 0.7307 0.7304 0.7302 0.7300 0.7300
2241.380571 0.7300 0.7300 0.7299 0.7297 0.7294
2244.687139 0.7292 0.7289 0.7287 0.7284 0.7282
2247.993706 0.7280 0.7280 0.7280 0.7280 0.7280
2251.300274 0.7280 0.7280 0.7280 0.7279 0.7277
2254.606842 0.7274 0.7272 0.7269 0.7267 0.7264
2257.913409 0.7262 0.7260 0.7260 0.7260 0.7260
2261.219977 0.7260 0.7260 0.7260 0.7260 0.7259
2264.526545 0.7256 0.7254 0.7251 0.7250 0.7250
2267.833112 0.7250 0.7250 0.7249 0.7246 0.7244
2271.139680 0.7241 0.7240 0.7240 0.7240 0.7240
2274.446248 0.7239 0.7236 0.7234 0.7231 0.7230
2277.752815 0.7230 0.7230 0.7230 0.7230 0.7230
2281.059383 0.7230 0.7230 0.7229 0.7226 0.7224
2284.365951 0.7221 0.7220 0.7220 0.7220 0.7220
2287.672518 0.7220 0.7220 0.7220 0.7220 0.7221
2290.979086 0.7224 0.7226 0.7229 0.7230 0.7230
2294.285654 0.7230 0.7230 0.7231 0.7234 0.7236
2297.592222 0.7239 0.7240 0.7240 0.7240 0.7240
2300.898789 0.7241 0.7244 0.7246 0.7249 0.7250
2304.205357 0.7250 0.7250 0.7250 0.7252 0.7254
2307.511925 0.7257 0.7259 0.7263 0.7268 0.7273
2310.818492 0.7278 0.7282 0.7284 0.7287 0.7289
2314.125060 0.7293 0.7298 0.7303 0.7308 0.7312
2317.431628 0.7314 0.7317 0.7319 0.7322 0.7324
2320.738195 0.7327 0.7329 0.7330 0.7330 0.7330
2324.044763 0.7330 0.7332 0.7334 0.7337 0.7339
2327.351331 0.7340 0.7340 0.7340 0.7340 0.7340
2330.657898 0.7340 0.7340 0.7340 0.7340 0.7340
2333.964466 0.7340 0.7340 0.7342 0.7344 0.7347
2337.271034 0.7349 0.7350 0.7350 0.7350 0.7350
2340.577601 0.7352 0.7355 0.7357 0.7360 0.7360
2343.884169 0.7360 0.7360 0.7360 0.7360 0.7360
2347.190737 0.7360 0.7360 0.7360 0.7360 0.7360
2350.497304 0.7360 0.7362 0.7365 0.7367 0.7370
2353.803872 0.7372 0.7375 0.7377 0.7380 0.7380
2357.110440 0.7380 0.7380 0.7380 0.7382 0.7385
2360.417007 0.7387 0.7390 0.7392 0.7395 0.7397
2363.723575 0.7400 0.7400 0.7400 0.7400 0.7400
2367.030143 0.7400 0.7400 0.7400 0.7400 0.7402
2370.336711 0.7405 0.7407 0.7410 0.7410 0.7410
2373.643278 0.7410 0.7410 0.7412 0.7415 0.7418
2376.949846 0.7420 0.7420 0.7420 0.7420 0.7420
2380.256414 0.7420 0.7420 0.7420 0.7420 0.7423
2383.562981 0.7425 0.7428 0.7430 0.7433 0.7435
2386.869549 0.7438 0.7440 0.7440 0.7440 0.7440
2390.176117 0.7440 0.7440 0.7440 0.7440 0.7440
2393.482684 0.7440 0.7440 0.7440 0.7440 0.7440
2396.789252 0.7440 0.7440 0.7440 0.7437 0.7435
2400.095820 0.7432 0.7430 0.7427 0.7425 0.7422
2403.402387 0.7420 0.7420 0.7420 0.7420 0.7420
2406.708955 0.7417 0.7415 0.7412 0.7410 0.7407
2410.015523 0.7405 0.7402 0.7400 0.7400 0.7400
2413.322090 0.7400 0.7400 0.7397 0.7395 0.7392
2416.628658 0.7390 0.7387 0.7385 0.7382 0.7380
2419.935226 0.7380 0.7380 0.7380 0.7379 0.7377
2423.241793 0.7374 0.7372 0.7369 0.7367 0.7364
2426.548361 0.7362 0.7360 0.7360 0.7360 0.7360
2429.854929 0.7360 0.7360 0.7360 0.7360 0.7361
2433.161497 0.7363 0.7366 0.7368 0.7371 0.7373
2436.468064 0.7376 0.7378 0.7380 0.7380 0.7380
2439.774632 0.7380 0.7381 0.7383 0.7386 0.7388
2443.081200 0.7391 0.7393 0.7396 0.7398 0.7400
2446.387767 0.7400 0.7400 0.7400 0.7401 0.7404
2449.694335 0.7406 0.7409 0.7411 0.7414 0.7416
2453.000903 0.7419 0.7420 0.7420 0.7420 0.7420
2456.307470 0.7421 0.7424 0.7426 0.7429 0.7431
2459.614038 0.7434 0.7436 0.7439 0.7440 0.7440
2462.920606 0.7440 0.7440 0.7440 0.7440 0.7440
2466.227173 0.7440 0.7441 0.7444 0.7446 0.7449
2469.533741 0.7450 0.7450 0.7450 0.7450 0.7451
2472.840309 0.7454 0.7456 0.7459 0.7460 0.7460
2476.146876 0.7460 0.7460 0.7461 0.7464 0.7466
2479.453444 0.7469 0.7470 0.7470 0.7470 0.7470
2482.760012 0.7471 0.7474 0.7476 0.7479 0.7480
2486.066579 0.7480 0.7480 0.7480 0.7480 0.7480
2489.373147 0.7480 0.7480 0.7480 0.7480 0.7480
2492.679715 0.7480 0.7480 0.7480 0.7480 0.7480
2495.986282 0.7478 0.7476 0.7473 0.7471 0.7470
2499.292850 0.7470 0.7470 0.7470 0.7470 0.7470
2502.599418 0.7470 0.7470 0.7470 0.7470 0.7470
2505.905986 0.7470 0.7470 0.7470 0.7470 0.7470
2509.212553 0.7470 0.7470 0.7470 0.7470 0.7470
2512.519121 0.7470 0.7470 0.7470 0.7470 0.7470
2515.825689 0.7470 0.7470 0.7470 0.7470 0.7470
2519.132256 0.7470 0.7470 0.7470 0.7470 0.7470
2522.438824 0.7470 0.7470 0.7470 0.7470 0.7470
2525.745392 0.7470 0.7470 0.7470 0.7470 0.7470
2529.051959 0.7470 0.7470 0.7470 0.7470 0.7470
2532.358527 0.7470 0.7470 0.7470 0.7470 0.7470
2535.665095 0.7468 0.7465 0.7463 0.7460 0.7460
2538.971662 0.7460 0.7460 0.7460 0.7460 0.7460
2542.278230 0.7460 0.7460 0.7460 0.7460 0.7460
2545.584798 0.7460 0.7458 0.7455 0.7453 0.7450
2548.891365 0.7448 0.7445 0.7443 0.7440 0.7440
2552.197933 0.7440 0.7440 0.7440 0.7438 0.7435
2555.504501 0.7433 0.7430 0.7425 0.7420 0.7415
2558.811068 0.7410 0.7405 0.7400 0.7395 0.7390
2562.117636 0.7383 0.7375 0.7368 0.7360 0.7352
2565.424204 0.7345 0.7337 0.7330 0.7322 0.7315
2568.730772 0.7307 0.7300 0.7295 0.7290 0.7285
2572.037339 0.7280 0.7272 0.7265 0.7257 0.7250
2575.343907 0.7245 0.7240 0.7235 0.7230 0.7225
2578.650475 0.7220 0.7215 0.7208 0.7193 0.7178
2581.957042 0.7163 0.7148 0.7133 0.7118 0.7103
2585.263610 0.7088 0.7073 0.7058 0.7043 0.7028
2588.570178 0.7013 0.6998 0.6983 0.6967 0.6950
2591.876745 0.6932 0.6915 0.6898 0.6883 0.6868
2595.183313 0.6853 0.6837 0.6820 0.6802 0.6785
2598.489881 0.6770 0.6767 0.6765 0.6762 0.6761
2601.796448 0.6766 0.6771 0.6776 0.6780 0.6783
2605.103016 0.6786 0.6788 0.6793 0.6806 0.6818
2608.409584 0.6831 0.6844 0.6859 0.6874 0.6889
2611.716151 0.6903 0.6916 0.6928 0.6941 0.6951
2615.022719 0.6953 0.6956 0.6958 0.6961 0.6966
2618.329287 0.6971 0.6976 0.6982 0.6990 0.6997
2621.635854 0.7005 0.7012 0.7017 0.7022 0.7027
2624.942422 0.7032 0.7037 0.7042 0.7047 0.7052
2628.248990 0.7057 0.7062 0.7067 0.7070 0.7070
2631.555558 0.7070 0.7070 0.7072 0.7077 0.7082
2634.862125 0.7087 0.7090 0.7090 0.7090 0.7090
2638.168693 0.7090 0.7090 0.7090 0.7090 0.7090
2641.475261 0.7090 0.7090 0.7090 0.7091 0.7094
2644.781828 0.7096 0.7099 0.7100 0.7100 0.7100
2648.088396 0.7100 0.7100 0.7100 0.7100 0.7100
2651.394964 0.7100 0.7100 0.7100 0.7100 0.7100
2654.701531 0.7100 0.7100 0.7100 0.7099 0.7096
2658.008099 0.7094 0.7091 0.7089 0.7086 0.7084
2661.314667 0.7081 0.7079 0.7076 0.7074 0.7071
2664.621234 0.7067 0.7062 0.7057 0.7052 0.7043
2667.927802 0.7030 0.7018 0.7005 0.6990 0.6973
2671.234370 0.6955 0.6937 0.6920 0.6902 0.6885
2674.540937 0.6867 0.6851 0.6836 0.6821 0.6806
2677.847505 0.6791 0.6776 0.6761 0.6746 0.6710
2681.154073 0.6660 0.6610 0.6559 0.6517 0.6479
2684.460640 0.6441 0.6402 0.6366 0.6331 0.6296
2687.767208 0.6261 0.6226 0.6191 0.6156 0.6121
2691.073776 0.6110 0.6110 0.6110 0.6110 0.6121
2694.380343 0.6136 0.6151 0.6166 0.6182 0.6200
2697.686911 0.6218 0.6235 0.6253 0.6270 0.6288
2700.993479 0.6305 0.6321 0.6336 0.6351 0.6366
2704.300047 0.6372 0.6374 0.6377 0.6379 0.6417
2707.606614 0.6467 0.6518 0.6568 0.6580 0.6580
2710.913182 0.6580 0.6580 0.6555 0.6525 0.6495
2714.219750 0.6465 0.6431 0.6396 0.6361 0.6326
2717.526317 0.6314 0.6306 0.6299 0.6291 0.6275
2720.832885 0.6258 0.6240 0.6223 0.6207 0.6192
2724.139453 0.6177 0.6162 0.6128 0.6090 0.6053
2727.446020 0.6015 0.5997 0.5982 0.5967 0.5952
2730.752588 0.5948 0.5945 0.5943 0.5940 0.5927
2734.059156 0.5912 0.5897 0.5882 0.5875 0.5870
2737.365723 0.5865 0.5860 0.5860 0.5860 0.5860
2740.672291 0.5860 0.5865 0.5870 0.5875 0.5880
2743.978859 0.5892 0.5905 0.5917 0.5930 0.5940
2747.285426 0.5950 0.5960 0.5970 0.5958 0.5945
2750.591994 0.5933 0.5920 0.5902 0.5885 0.5867
2753.898562 0.5850 0.5832 0.5815 0.5797 0.5780
2757.205129 0.5762 0.5745 0.5727 0.5709 0.5659
2760.511697 0.5608 0.5558 0.5508 0.5457 0.5407
2763.818265 0.5356 0.5305 0.5255 0.5205 0.5155
2767.124833 0.5105 0.5055 0.5004 0.4954 0.4904
2770.431400 0.4854 0.4804 0.4754 0.4705 0.4662
2773.737968 0.4620 0.4577 0.4540 0.4537 0.4535
2777.044536 0.4532 0.4530 0.4530 0.4530 0.4530
2780.351103 0.4532 0.4544 0.4557 0.4569 0.4582
2783.657671 0.4595 0.4607 0.4620 0.4632 0.4642
2786.964239 0.4652 0.4662 0.4671 0.4679 0.4687
2790.270806 0.4694 0.4702 0.4709 0.4717 0.4724
2793.577374 0.4731 0.4736 0.4741 0.4746 0.4749
2796.883942 0.4744 0.4739 0.4734 0.4640 0.4302
2800.190509 0.3964 0.3625 0.3352 0.3252 0.3152
2803.497077 0.3052 0.2980 0.2980 0.2980 0.2980
2806.803645 0.2981 0.2986 0.2991 0.2996 0.3036
2810.110212 0.3156 0.3277 0.3397 0.3481 0.3483
2813.416780 0.3486 0.3488 0.3513 0.3587 0.3661
2816.723348 0.3734 0.3783 0.3790 0.3798 0.3805
2820.029915 0.3809 0.3807 0.3804 0.3802 0.3800
2823.336483 0.3800 0.3800 0.3800 0.3793 0.3775
2826.643051 0.3758 0.3740 0.3720 0.3695 0.3670
2829.949619 0.3644 0.3619 0.3594 0.3569 0.3544
2833.256186 0.3490 0.3397 0.3305 0.3212 0.3064
2836.562754 0.2846 0.2628 0.2410 0.2138 0.1800
2839.869322 0.1461 0.1123 0.0919 0.0873 0.0828
2843.175889 0.0782 0.0716 0.0630 0.0545 0.0460
2846.482457 0.0389 0.0332 0.0274 0.0217 0.0182
2849.789025 0.0167 0.0152 0.0137 0.0127 0.0122
2853.095592 0.0117 0.0112 0.0110 0.0110 0.0110
2856.402160 0.0110 0.0110 0.0110 0.0110 0.0110
2859.708728 0.0111 0.0114 0.0116 0.0119 0.0126
2863.015295 0.0136 0.0146 0.0156 0.0164 0.0172
2866.321863 0.0179 0.0187 0.0198 0.0210 0.0223
2869.628431 0.0236 0.0253 0.0273 0.0293 0.0313
2872.934998 0.0344 0.0379 0.0414 0.0449 0.0499
2876.241566 0.0557 0.0614 0.0672 0.0726 0.0779
2879.548134 0.0831 0.0884 0.0926 0.0964 0.1001
2882.854701 0.1039 0.1071 0.1101 0.1131 0.1161
2886.161269 0.1184 0.1204 0.1224 0.1244 0.1261
2889.467837 0.1276 0.1291 0.1306 0.1323 0.1340
2892.774404 0.1358 0.1375 0.1399 0.1424 0.1450
2896.080972 0.1475 0.1506 0.1539 0.1571 0.1604
2899.387540 0.1645 0.1687 0.1730 0.1772 0.1877
2902.694108 0.1994 0.2112 0.2230 0.2281 0.2319
2906.000675 0.2356 0.2394 0.2484 0.2584 0.2684
2909.307243 0.2785 0.2804 0.2809 0.2814 0.2819
2912.613811 0.2824 0.2829 0.2834 0.2839 0.2842
2915.920378 0.2845 0.2847 0.2850 0.2848 0.2845
2919.226946 0.2843 0.2840 0.2656 0.2448 0.2240
2922.533514 0.2031 0.1930 0.1835 0.1740 0.1644
2925.840081 0.1528 0.1410 0.1292 0.1174 0.1170
2929.146649 0.1170 0.1170 0.1170 0.1207 0.1244
2932.453217 0.1282 0.1319 0.1357 0.1394 0.1432
2935.759784 0.1470 0.1480 0.1490 0.1500 0.1510
2939.066352 0.1573 0.1635 0.1698 0.1760 0.1798
2942.372920 0.1835 0.1873 0.1911 0.1986 0.2061
2945.679487 0.2137 0.2210 0.2213 0.2215 0.2218
2948.986055 0.2220 0.2225 0.2230 0.2235 0.2240
2952.292623 0.2243 0.2245 0.2248 0.2250 0.2247
2955.599190 0.2245 0.2242 0.2216 0.2006 0.1795
2958.905758 0.1585 0.1386 0.1271 0.1155 0.1040
2962.212326 0.0926 0.0815 0.0705 0.0595 0.0484
2965.518894 0.0369 0.0253 0.0138 0.0040 0.0037
2968.825461 0.0035 0.0032 0.0030 0.0033 0.0035
2972.132029 0.0038 0.0049 0.0102 0.0155 0.0209
2975.438597 0.0262 0.0315 0.0367 0.0420 0.0472
2978.745164 0.0525 0.0578 0.0630 0.0671 0.0676
2982.051732 0.0681 0.0686 0.0695 0.0715 0.0735
2985.358300 0.0755 0.0803 0.0928 0.1054 0.1179
2988.664867 0.1327 0.1534 0.1742 0.1950 0.2130
2991.971435 0.2238 0.2346 0.2453 0.2547 0.2604
2995.278003 0.2662 0.2720 0.2784 0.2864 0.2944
2998.584570 0.3024 0.3122 0.3259 0.3396 0.3534
3001.891138 0.3639 0.3689 0.3739 0.3789 0.3930
3005.197706 0.4221 0.4511 0.4802 0.5041 0.5199
3008.504273 0.5357 0.5515 0.5610 0.5610 0.5610
3011.810841 0.5610 0.5624 0.5659 0.5694 0.5729
3015.117409 0.5762 0.5792 0.5823 0.5853 0.5884
3018.423976 0.5916 0.5949 0.5981 0.6014 0.6047
3021.730544 0.6079 0.6112 0.6143 0.6173 0.6203
3025.037112 0.6233 0.6278 0.6342 0.6405 0.6469
3028.343679 0.6500 0.6500 0.6500 0.6500 0.6509
3031.650247 0.6527 0.6544 0.6562 0.6578 0.6593
3034.956815 0.6608 0.6623 0.6638 0.6653 0.6668
3038.263383 0.6683 0.6693 0.6698 0.6703 0.6708
3041.569950 0.6713 0.6718 0.6723 0.6728 0.6740
3044.876518 0.6757 0.6775 0.6792 0.6806 0.6816
3048.183086 0.6826 0.6836 0.6849 0.6864 0.6879
3051.489653 0.6894 0.6909 0.6924 0.6939 0.6955
3054.796221 0.6967 0.6977 0.6987 0.6997 0.7005
3058.102789 0.7012 0.7020 0.7028 0.7033 0.7038
3061.409356 0.7043 0.7048 0.7050 0.7050 0.7050
3064.715924 0.7050 0.7050 0.7050 0.7050 0.7050
3068.022492 0.7053 0.7058 0.7064 0.7069 0.7070
3071.329059 0.7070 0.7070 0.7070 0.7074 0.7079
3074.635627 0.7084 0.7089 0.7090 0.7090 0.7090
3077.942195 0.7090 0.7094 0.7099 0.7104 0.7109
3081.248762 0.7110 0.7110 0.7110 0.7110 0.7110
3084.555330 0.7110 0.7110 0.7110 0.7112 0.7115
3087.861898 0.7117 0.7120 0.7124 0.7129 0.7134
3091.168465 0.7139 0.7142 0.7145 0.7147 0.7150
3094.475033 0.7152 0.7155 0.7157 0.7160 0.7162
3097.781601 0.7165 0.7167 0.7170 0.7172 0.7175
3101.088169 0.7177 0.7180 0.7182 0.7185 0.7187
3104.394736 0.7190 0.7192 0.7195 0.7197 0.7200
3107.701304 0.7207 0.7215 0.7222 0.7230 0.7237
3111.007872 0.7245 0.7252 0.7260 0.7262 0.7265
3114.314439 0.7267 0.7270 0.7272 0.7275 0.7277
3117.621007 0.7280 0.7280 0.7280 0.7280 0.7280
3120.927575 0.7282 0.7285 0.7287 0.7290 0.7292
3124.234142 0.7295 0.7297 0.7300 0.7300 0.7300
3127.540710 0.7300 0.7300 0.7300 0.7300 0.7300
3130.847278 0.7300 0.7303 0.7305 0.7308 0.7310
3134.153845 0.7313 0.7315 0.7318 0.7320 0.7320
3137.460413 0.7320 0.7320 0.7320 0.7323 0.7325
3140.766981 0.7328 0.7330 0.7333 0.7335 0.7338
3144.073548 0.7340 0.7340 0.7340 0.7340 0.7340
3147.380116 0.7343 0.7345 0.7348 0.7350 0.7353
3150.686684 0.7355 0.7358 0.7360 0.7360 0.7360
3153.993251 0.7360 0.7360 0.7357 0.7355 0.7352
3157.299819 0.7350 0.7350 0.7350 0.7350 0.7349
3160.606387 0.7347 0.7344 0.7342 0.7339 0.7337
3163.912955 0.7334 0.7332 0.7330 0.7330 0.7330
3167.219522 0.7330 0.7330 0.7330 0.7330 0.7330
3170.526090 0.7329 0.7327 0.7324 0.7322 0.7320
3173.832658 0.7320 0.7320 0.7320 0.7319 0.7317
3177.139225 0.7314 0.7312 0.7309 0.7307 0.7304
3180.445793 0.7302 0.7300 0.7300 0.7300 0.7300
3183.752361 0.7299 0.7297 0.7294 0.7292 0.7289
3187.058928 0.7287 0.7284 0.7282 0.7280 0.7280
3190.365496 0.7280 0.7280 0.7279 0.7277 0.7274
3193.672064 0.7272 0.7269 0.7267 0.7264 0.7262
3196.978631 0.7260 0.7260 0.7260 0.7260 0.7260
3200.285199 0.7260 0.7260 0.7260 0.7262 0.7267
3203.591767 0.7272 0.7277 0.7280 0.7280 0.7280
3206.898334 0.7280 0.7281 0.7284 0.7286 0.7289
3210.204902 0.7291 0.7294 0.7296 0.7299 0.7301
3213.511470 0.7304 0.7306 0.7309 0.7311 0.7314
3216.818037 0.7316 0.7319 0.7323 0.7328 0.7333
3220.124605 0.7338 0.7340 0.7340 0.7340 0.7340
3223.431173 0.7341 0.7344 0.7346 0.7349 0.7351
3226.737740 0.7354 0.7356 0.7359 0.7360 0.7360
3230.044308 0.7360 0.7360 0.7360 0.7360 0.7360
3233.350876 0.7360 0.7360 0.7360 0.7360 0.7360
3236.657444 0.7361 0.7364 0.7367 0.7369 0.7372
3239.964011 0.7374 0.7377 0.7379 0.7380 0.7380
3243.270579 0.7380 0.7380 0.7383 0.7388 0.7393
3246.577147 0.7398 0.7400 0.7400 0.7400 0.7400
3249.883714 0.7402 0.7404 0.7407 0.7409 0.7410
3253.190282 0.7410 0.7410 0.7410 0.7412 0.7414
3256.496850 0.7417 0.7419 0.7420 0.7420 0.7420
3259.803417 0.7420 0.7420 0.7420 0.7420 0.7420
3263.109985 0.7422 0.7424 0.7427 0.7429 0.7428
3266.416553 0.7426 0.7423 0.7421 0.7420 0.7420
3269.723120 0.7420 0.7420 0.7420 0.7420 0.7420
3273.029688 0.7420 0.7420 0.7420 0.7420 0.7420
3276.336256 0.7420 0.7420 0.7420 0.7420 0.7420
3279.642823 0.7420 0.7420 0.7420 0.7420 0.7420
3282.949391 0.7420 0.7420 0.7420 0.7420 0.7420
3286.255959 0.7420 0.7420 0.7420 0.7420 0.7420
3289.562526 0.7420 0.7420 0.7420 0.7420 0.7418
3292.869094 0.7415 0.7413 0.7410 0.7410 0.7410
3296.175662 0.7410 0.7410 0.7410 0.7410 0.7410
3299.482230 0.7410 0.7408 0.7405 0.7403 0.7400
3302.788797 0.7400 0.7400 0.7400 0.7400 0.7400
3306.095365 0.7400 0.7400 0.7400 0.7400 0.7400
3309.401933 0.7400 0.7400 0.7400 0.7400 0.7400
3312.708500 0.7400 0.7400 0.7400 0.7400 0.7400
3316.015068 0.7400 0.7400 0.7400 0.7400 0.7400
3319.321636 0.7400 0.7400 0.7400 0.7397 0.7395
3322.628203 0.7392 0.7390 0.7390 0.7390 0.7390
3325.934771 0.7390 0.7387 0.7385 0.7382 0.7380
3329.241339 0.7380 0.7380 0.7380 0.7380 0.7380
3332.547906 0.7380 0.7380 0.7380 0.7380 0.7380
3335.854474 0.7380 0.7380 0.7380 0.7380 0.7380
3339.161042 0.7380 0.7380 0.7380 0.7380 0.7380
3342.467609 0.7380 0.7380 0.7380 0.7380 0.7380
3345.774177 0.7380 0.7380 0.7380 0.7380 0.7380
3349.080745 0.7380 0.7380 0.7380 0.7380 0.7380
3352.387312 0.7380 0.7380 0.7380 0.7380 0.7380
3355.693880 0.7380 0.7380 0.7380 0.7380 0.7380
3359.000448 0.7380 0.7380 0.7381 0.7383 0.7386
3362.307016 0.7388 0.7390 0.7390 0.7390 0.7390
3365.613583 0.7390 0.7390 0.7390 0.7390 0.7390
3368.920151 0.7390 0.7390 0.7390 0.7390 0.7390
3372.226719 0.7390 0.7390 0.7391 0.7393 0.7396
3375.533286 0.7398 0.7400 0.7400 0.7400 0.7400
3378.839854 0.7400 0.7400 0.7400 0.7400 0.7400
3382.146422 0.7400 0.7400 0.7400 0.7400 0.7400
3385.452989 0.7400 0.7400 0.7401 0.7404 0.7406
3388.759557 0.7409 0.7410 0.7410 0.7410 0.7410
3392.066125 0.7410 0.7410 0.7410 0.7410 0.7410
3395.372692 0.7410 0.7410 0.7410 0.7410 0.7410
3398.679260 0.7410 0.7410 0.7409 0.7406 0.7404
3401.985828 0.7401 0.7400 0.7400 0.7400 0.7400
3405.292395 0.7400 0.7400 0.7400 0.7400 0.7399
3408.598963 0.7396 0.7394 0.7391 0.7390 0.7390
3411.905531 0.7390 0.7390 0.7390 0.7390 0.7390
3415.212098 0.7390 0.7390 0.7390 0.7390 0.7390
3418.518666 0.7389 0.7386 0.7384 0.7381 0.7380
3421.825234 0.7380 0.7380 0.7380 0.7380 0.7380
3425.131801 0.7380 0.7380 0.7380 0.7380 0.7380
3428.438369 0.7380 0.7380 0.7380 0.7380 0.7380
3431.744937 0.7380 0.7380 0.7380 0.7380 0.7378
3435.051505 0.7376 0.7373 0.7371 0.7370 0.7370
3438.358072 0.7370 0.7370 0.7368 0.7366 0.7363
3441.664640 0.7361 0.7360 0.7360 0.7360 0.7360
3444.971208 0.7360 0.7360 0.7360 0.7360 0.7360
3448.277775 0.7360 0.7360 0.7360 0.7360 0.7360
3451.584343 0.7360 0.7360 0.7360 0.7360 0.7360
3454.890911 0.7360 0.7360 0.7360 0.7360 0.7360
3458.197478 0.7360 0.7360 0.7360 0.7360 0.7362
3461.504046 0.7365 0.7367 0.7370 0.7370 0.7370
3464.810614 0.7370 0.7370 0.7370 0.7370 0.7370
3468.117181 0.7370 0.7372 0.7375 0.7377 0.7380
3471.423749 0.7380 0.7380 0.7380 0.7380 0.7380
3474.730317 0.7380 0.7380 0.7380 0.7380 0.7380
3478.036884 0.7380 0.7380 0.7380 0.7380 0.7380
3481.343452 0.7380 0.7380 0.7380 0.7380 0.7380
3484.650020 0.7382 0.7385 0.7387 0.7390 0.7390
3487.956587 0.7390 0.7390 0.7390 0.7390 0.7390
3491.263155 0.7390 0.7390 0.7390 0.7390 0.7390
3494.569723 0.7390 0.7390 0.7390 0.7390 0.7390
3497.876291 0.7392 0.7395 0.7397 0.7400 0.7400
3501.182858 0.7400 0.7400 0.7400 0.7400 0.7400
3504.489426 0.7400 0.7400 0.7403 0.7405 0.7408
3507.795994 0.7410 0.7410 0.7410 0.7410 0.7410
3511.102561 0.7413 0.7415 0.7418 0.7420 0.7420
3514.409129 0.7420 0.7420 0.7420 0.7420 0.7420
3517.715697 0.7420 0.7420 0.7420 0.7420 0.7420
3521.022264 0.7420 0.7423 0.7425 0.7428 0.7430
3524.328832 0.7430 0.7430 0.7430 0.7430 0.7433
3527.635400 0.7435 0.7438 0.7440 0.7440 0.7440
3530.941967 0.7440 0.7440 0.7440 0.7440 0.7440
3534.248535 0.7440 0.7440 0.7440 0.7440 0.7441
3537.555103 0.7443 0.7446 0.7448 0.7450 0.7450
3540.861670 0.7450 0.7450 0.7450 0.7450 0.7450
3544.168238 0.7450 0.7450 0.7450 0.7450 0.7450
3547.474806 0.7451 0.7453 0.7456 0.7458 0.7460
3550.781373 0.7460 0.7460 0.7460 0.7460 0.7460
3554.087941 0.7460 0.7460 0.7460 0.7460 0.7460
3557.394509 0.7460 0.7461 0.7463 0.7466 0.7468
3560.701076 0.7470 0.7470 0.7470 0.7470 0.7471
3564.007644 0.7473 0.7476 0.7478 0.7480 0.7480
3567.314212 0.7480 0.7480 0.7480 0.7480 0.7480
3570.620780 0.7480 0.7480 0.7480 0.7480 0.7480
3573.927347 0.7481 0.7484 0.7486 0.7489 0.7490
3577.233915 0.7490 0.7490 0.7490 0.7491 0.7494
3580.540483 0.7496 0.7499 0.7500 0.7500 0.7500
3583.847050 0.7500 0.7500 0.7500 0.7500 0.7500
3587.153618 0.7500 0.7500 0.7500 0.7500 0.7501
3590.460186 0.7504 0.7506 0.7509 0.7510 0.7510
3593.766753 0.7510 0.7510 0.7510 0.7510 0.7510
3597.073321 0.7510 0.7510 0.7510 0.7510 0.7510
3600.379889 0.7511 0.7514 0.7516 0.7519 0.7520
3603.686456 0.7520 0.7520 0.7520 0.7520 0.7520
3606.993024 0.7520 0.7520 0.7518 0.7516 0.7513
3610.299592 0.7511 0.7510 0.7510 0.7510 0.7510
3613.606159 0.7510 0.7510 0.7510 0.7510 0.7510
3616.912727 0.7510 0.7510 0.7510 0.7510 0.7510
3620.219295 0.7510 0.7510 0.7510 0.7510 0.7510
3623.525862 0.7510 0.7510 0.7510 0.7510 0.7510
3626.832430 0.7510 0.7510 0.7510 0.7510 0.7508
3630.138998 0.7506 0.7503 0.7501 0.7500 0.7500
3633.445566 0.7500 0.7500 0.7500 0.7500 0.7500
3636.752133 0.7500 0.7498 0.7496 0.7493 0.7491
3640.058701 0.7488 0.7486 0.7483 0.7481 0.7480
3643.365269 0.7480 0.7480 0.7480 0.7480 0.7480
3646.671836 0.7480 0.7480 0.7478 0.7475 0.7473
3649.978404 0.7470 0.7466 0.7461 0.7456 0.7451
3653.284972 0.7450 0.7450 0.7450 0.7450 0.7448
3656.591539 0.7445 0.7443 0.7440 0.7438 0.7435
3659.898107 0.7433 0.7430 0.7428 0.7425 0.7423
3663.204675 0.7420 0.7418 0.7415 0.7413 0.7410
3666.511242 0.7408 0.7405 0.7403 0.7400 0.7395
3669.817810 0.7390 0.7385 0.7380 0.7380 0.7380
3673.124378 0.7380 0.7380 0.7378 0.7375 0.7373
3676.430945 0.7370 0.7368 0.7365 0.7363 0.7360
3679.737513 0.7360 0.7360 0.7360 0.7360 0.7358
3683.044081 0.7355 0.7353 0.7350 0.7350 0.7350
3686.350648 0.7350 0.7350 0.7353 0.7355 0.7358
3689.657216 0.7360 0.7360 0.7360 0.7360 0.7360
3692.963784 0.7363 0.7365 0.7368 0.7370 0.7373
3696.270352 0.7375 0.7378 0.7380 0.7380 0.7380
3699.576919 0.7380 0.7380 0.7385 0.7390 0.7395
3702.883487 0.7400 0.7400 0.7400 0.7400 0.7400
3706.190055 0.7403 0.7405 0.7408 0.7410 0.7413
3709.496622 0.7415 0.7418 0.7420 0.7423 0.7425
3712.803190 0.7428 0.7430 0.7433 0.7435 0.7438
3716.109758 0.7440 0.7440 0.7440 0.7440 0.7440
3719.416325 0.7440 0.7440 0.7440 0.7441 0.7443
3722.722893 0.7446 0.7448 0.7450 0.7450 0.7450
3726.029461 0.7450 0.7451 0.7453 0.7456 0.7458
3729.336028 0.7460 0.7460 0.7460 0.7460 0.7460
3732.642596 0.7460 0.7460 0.7460 0.7460 0.7460
3735.949164 0.7460 0.7460 0.7461 0.7463 0.7466
3739.255731 0.7468 0.7471 0.7473 0.7476 0.7478
3742.562299 0.7480 0.7480 0.7480 0.7480 0.7480
3745.868867 0.7480 0.7480 0.7480 0.7480 0.7480
3749.175434 0.7480 0.7480 0.7480 0.7480 0.7480
3752.482002 0.7480 0.7480 0.7480 0.7480 0.7480
3755.788570 0.7480 0.7480 0.7480 0.7480 0.7479
3759.095137 0.7477 0.7474 0.7472 0.7470 0.7470
3762.401705 0.7470 0.7470 0.7470 0.7470 0.7470
3765.708273 0.7470 0.7470 0.7470 0.7470 0.7470
3769.014841 0.7469 0.7466 0.7464 0.7461 0.7460
3772.321408 0.7460 0.7460 0.7460 0.7460 0.7460
3775.627976 0.7460 0.7460 0.7460 0.7460 0.7460
3778.934544 0.7460 0.7459 0.7456 0.7454 0.7451
3782.241111 0.7450 0.7450 0.7450 0.7450 0.7450
3785.547679 0.7450 0.7450 0.7450 0.7450 0.7450
3788.854247 0.7450 0.7450 0.7449 0.7446 0.7444
3792.160814 0.7441 0.7440 0.7440 0.7440 0.7440
3795.467382 0.7440 0.7440 0.7440 0.7440 0.7440
3798.773950 0.7440 0.7440 0.7440 0.7440 0.7440
3802.080517 0.7440 0.7440 0.7440 0.7440 0.7440
3805.387085 0.7440 0.7440 0.7440 0.7440 0.7440
3808.693653 0.7440 0.7440 0.7440 0.7440 0.7440
3812.000220 0.7440 0.7440 0.7440 0.7440 0.7440
3815.306788 0.7440 0.7440 0.7440 0.7440 0.7440
3818.613356 0.7440 0.7440 0.7440 0.7440 0.7440
3821.919923 0.7440 0.7440 0.7440 0.7440 0.7440
3825.226491 0.7440 0.7440 0.7440 0.7440 0.7440
3828.533059 0.7440 0.7440 0.7440 0.7440 0.7440
3831.839627 0.7440 0.7440 0.7440 0.7440 0.7440
3835.146194 0.7440 0.7440 0.7440 0.7440 0.7440
3838.452762 0.7440 0.7440 0.7440 0.7440 0.7440
3841.759330 0.7440 0.7440 0.7440 0.7440 0.7440
3845.065897 0.7440 0.7440 0.7440 0.7440 0.7440
3848.372465 0.7440 0.7440 0.7440 0.7440 0.7440
3851.679033 0.7440 0.7440 0.7440 0.7440 0.7440
3854.985600 0.7440 0.7440 0.7440 0.7440 0.7440
3858.292168 0.7440 0.7440 0.7440 0.7440 0.7440
3861.598736 0.7440 0.7440 0.7440 0.7440 0.7440
3864.905303 0.7440 0.7440 0.7440 0.7440 0.7440
3868.211871 0.7440 0.7440 0.7438 0.7435 0.7432
3871.518439 0.7430 0.7430 0.7430 0.7430 0.7430
3874.825006 0.7430 0.7430 0.7430 0.7430 0.7427
3878.131574 0.7425 0.7422 0.7420 0.7420 0.7420
3881.438142 0.7420 0.7420 0.7420 0.7420 0.7420
3884.744709 0.7420 0.7420 0.7420 0.7420 0.7420
3888.051277 0.7420 0.7420 0.7420 0.7420 0.7420
3891.357845 0.7420 0.7420 0.7420 0.7417 0.7415
3894.664413 0.7412 0.7410 0.7407 0.7405 0.7402
3897.970980 0.7400 0.7400 0.7400 0.7400 0.7400
3901.277548 0.7400 0.7400 0.7400 0.7400 0.7400
3904.584116 0.7400 0.7400 0.7400 0.7397 0.7394
3907.890683 0.7392 0.7389 0.7387 0.7384 0.7382
3911.197251 0.7380 0.7380 0.7380 0.7380 0.7379
3914.503819 0.7377 0.7374 0.7372 0.7370 0.7370
3917.810386 0.7370 0.7370 0.7370 0.7370 0.7370
3921.116954 0.7370 0.7370 0.7370 0.7370 0.7370
3924.423522 0.7369 0.7367 0.7364 0.7362 0.7360
3927.730089 0.7360 0.7360 0.7360 0.7360 0.7360
3931.036657 0.7360 0.7360 0.7360 0.7360 0.7360
3934.343225 0.7360 0.7360 0.7360 0.7360 0.7360
3937.649792 0.7360 0.7360 0.7360 0.7360 0.7359
3940.956360 0.7357 0.7354 0.7352 0.7349 0.7347
3944.262928 0.7344 0.7342 0.7339 0.7337 0.7334
3947.569495 0.7332 0.7329 0.7326 0.7324 0.7321
3950.876063 0.7319 0.7316 0.7314 0.7311 0.7309
3954.182631 0.7306 0.7304 0.7301 0.7300 0.7300
3957.489198 0.7300 0.7300 0.7300 0.7300 0.7300
3960.795766 0.7300 0.7298 0.7293 0.7288 0.7283
3964.102334 0.7280 0.7280 0.7280 0.7280 0.7280
3967.408902 0.7280 0.7280 0.7280 0.7280 0.7280
3970.715469 0.7280 0.7280 0.7279 0.7276 0.7274
3974.022037 0.7271 0.7269 0.7266 0.7264 0.7261
3977.328605 0.7259 0.7256 0.7254 0.7251 0.7250
3980.635172 0.7250 0.7250 0.7250 0.7248 0.7246
3983.941740 0.7243 0.7241
##END=
