##TITLE=ACETAMIDE
##JCAMP-DX=4.24
##DATA TYPE=INFRARED SPECTRUM
##CLASS=COBLENTZ III
##ORIGIN=DOW CHEMICAL COMPANY
##OWNER=COBLENTZ SOCIETY
Collection (C) 2018 copyright by the U.S. Secretary of Commerce
on behalf of the United States of America. All rights reserved.
##DATE=1963/02/20
##CAS REGISTRY NO=60-35-5
##MOLFORM=C2 H5 N O
##MP=82 C
##BP=221 C
##SOURCE REFERENCE=COBLENTZ NO. 10208
##$NIST SOURCE=COBLENTZ
##$NIST IMAGE=cob10208
##SPECTROMETER/DATA SYSTEM=DOW KBr FOREPRISM-GRATING
##INSTRUMENT PARAMETERS=BLAZED AT 3.5, 12.0, 20.0 MICRON, CHANGED AT 5.0, 7.5, 14.9 MICRON
##STATE=SOLID (SPLIT MULL, FLUOROLUBE FOR 3800-1340 AND NUJOL FOR 1340-400 CM ^-^1)
##PATH LENGTH=
$$ SPECTRAL FEATURE AT 2003 CM^-^1 IS AN ARTIFACT CAUSED BY GRATING CHANGE
##SAMPLING PROCEDURE=TRANSMISSION
##RESOLUTION=4
##DATA PROCESSING=DIGITIZED BY NIST FROM HARD COPY (FROM TWO SEGMENTS)
##XUNITS=1/CM
##YUNITS=TRANSMITTANCE
##XFACTOR=1.000000
##YFACTOR=1
##DELTAX=0.852759
##FIRSTX=383.172
##LASTX=3796.77
##FIRSTY=0.866
##MAXX=3796.77
##MINX=383.172
##MAXY=0.973
##MINY=0.087
##NPOINTS=4004
##XYDATA=(X++(Y..Y))
383.172000 0.8660 0.8660 0.8660 0.8660 0.8660
387.435795 0.8660 0.8660 0.8660 0.8660 0.8660
391.699591 0.8660 0.8660 0.8660 0.8660 0.8660
395.963386 0.8660 0.8660 0.8660 0.8660 0.8660
400.227182 0.8640 0.8640 0.8640 0.8640 0.8640
404.490977 0.8640 0.8640 0.8640 0.8640 0.8640
408.754773 0.8640 0.8640 0.8630 0.8630 0.8630
413.018568 0.8630 0.8630 0.8630 0.8630 0.8630
417.282364 0.8630 0.8630 0.8620 0.8620 0.8620
421.546159 0.8620 0.8620 0.8620 0.8620 0.8620
425.809955 0.8620 0.8620 0.8620 0.8620 0.8620
430.073750 0.8620 0.8600 0.8600 0.8600 0.8590
434.337546 0.8580 0.8560 0.8560 0.8560 0.8550
438.601341 0.8540 0.8540 0.8540 0.8520 0.8510
442.865137 0.8500 0.8480 0.8470 0.8460 0.8440
447.128932 0.8400 0.8390 0.8380 0.8360 0.8290
451.392728 0.8270 0.8190 0.8120 0.8090 0.8000
455.656523 0.7930 0.7830 0.7750 0.7631 0.7481
459.920319 0.7340 0.7220 0.7080 0.7010 0.6860
464.184114 0.6591 0.6141 0.5801 0.5471 0.4534
468.447909 0.3690 0.3490 0.3490 0.3580 0.4568
472.711705 0.5906 0.6329 0.6629 0.6849 0.7009
476.975500 0.7160 0.7300 0.7510 0.7520 0.7640
481.239296 0.7750 0.7810 0.7830 0.7880 0.7910
485.503091 0.7930 0.7960 0.7970 0.7990 0.8000
489.766887 0.8010 0.8030 0.8040 0.8040 0.8050
494.030682 0.8070 0.8080 0.8090 0.8110 0.8120
498.294478 0.8130 0.8150 0.8160 0.8160 0.8170
502.558273 0.8170 0.8190 0.8190 0.8190 0.8200
506.822069 0.8210 0.8210 0.8210 0.8210 0.8230
511.085864 0.8240 0.8240 0.8250 0.8270 0.8270
515.349660 0.8280 0.8280 0.8290 0.8290 0.8290
519.613455 0.8310 0.8310 0.8310 0.8310 0.8310
523.877251 0.8310 0.8310 0.8320 0.8340 0.8350
528.141046 0.8360 0.8380 0.8380 0.8390 0.8390
532.404842 0.8390 0.8390 0.8390 0.8390 0.8390
536.668637 0.8390 0.8390 0.8390 0.8390 0.8390
540.932433 0.8390 0.8380 0.8360 0.8360 0.8360
545.196228 0.8360 0.8360 0.8360 0.8350 0.8350
549.460023 0.8340 0.8340 0.8340 0.8320 0.8320
553.723819 0.8320 0.8320 0.8310 0.8310 0.8290
557.987614 0.8280 0.8250 0.8230 0.8190 0.8160
562.251410 0.8130 0.8120 0.8090 0.8090 0.8070
566.515205 0.8030 0.7990 0.7970 0.7950 0.7920
570.779001 0.7840 0.7760 0.7690 0.7630 0.7550
575.042796 0.7440 0.7290 0.7121 0.6861 0.6542
579.306592 0.5780 0.5620 0.5440 0.5260 0.4910
583.570387 0.4571 0.4231 0.3881 0.3491 0.3460
587.834183 0.3490 0.4020 0.4560 0.5149 0.5160
592.097978 0.5659 0.5899 0.6089 0.6269 0.6429
596.361774 0.6580 0.6700 0.6810 0.6920 0.7040
600.625569 0.7170 0.7300 0.7400 0.7440 0.7460
604.889365 0.7480 0.7510 0.7530 0.7550 0.7560
609.153160 0.7600 0.7610 0.7650 0.7650 0.7610
613.416956 0.7600 0.7530 0.7520 0.7510 0.7490
617.680751 0.7460 0.7450 0.7450 0.7420 0.7410
621.944547 0.7380 0.7360 0.7330 0.7320 0.7300
626.208342 0.7280 0.7260 0.7250 0.7240 0.7220
630.472137 0.7200 0.7170 0.7140 0.7130 0.7120
634.735933 0.7100 0.7090 0.7090 0.7080 0.7060
638.999728 0.7020 0.7000 0.6960 0.6930 0.6900
643.263524 0.6880 0.6840 0.6800 0.6770 0.6760
647.527319 0.6680 0.6630 0.6620 0.6570 0.6510
651.791115 0.6450 0.6410 0.6370 0.6340 0.6310
656.054910 0.6290 0.6210 0.6170 0.6110 0.6090
660.318706 0.6030 0.5910 0.5761 0.5740 0.5640
664.582501 0.5580 0.5520 0.5470 0.5380 0.5280
668.846297 0.5220 0.5150 0.5100 0.5040 0.5000
673.110092 0.4970 0.4930 0.4890 0.4850 0.4800
677.373888 0.4760 0.4690 0.4610 0.4530 0.4430
681.637683 0.4310 0.4130 0.4100 0.4020 0.3940
685.901479 0.3860 0.3780 0.3720 0.3640 0.3560
690.165274 0.3490 0.3420 0.3360 0.3300 0.3250
694.429070 0.3190 0.3150 0.3100 0.3050 0.2990
698.692865 0.2930 0.2860 0.2810 0.2750 0.2700
702.956661 0.2650 0.2610 0.2570 0.2530 0.2500
707.220456 0.2470 0.2460 0.2430 0.2420 0.2400
711.484251 0.2390 0.2380 0.2360 0.2350 0.2350
715.748047 0.2350 0.2350 0.2360 0.2360 0.2380
720.011842 0.2390 0.2400 0.2440 0.2460 0.2470
724.275638 0.2500 0.2510 0.2570 0.2610 0.2660
728.539433 0.2730 0.2770 0.2870 0.2970 0.3050
732.803229 0.3130 0.3190 0.3270 0.3340 0.3410
737.067024 0.3490 0.3570 0.3650 0.3740 0.3859
741.330820 0.3980 0.4120 0.4210 0.4280 0.4390
745.594615 0.4510 0.4600 0.4710 0.4790 0.4870
749.858411 0.4910 0.4990 0.5140 0.5240 0.5350
754.122206 0.5540 0.5600 0.5700 0.5760 0.5850
758.386002 0.5910 0.5980 0.6030 0.6110 0.6180
762.649797 0.6220 0.6290 0.6310 0.6350 0.6420
766.913593 0.6470 0.6500 0.6550 0.6590 0.6660
771.177388 0.6720 0.6770 0.6800 0.6820 0.6850
775.441184 0.6890 0.6930 0.6970 0.7000 0.7010
779.704979 0.7050 0.7090 0.7120 0.7140 0.7170
783.968775 0.7200 0.7240 0.7260 0.7260 0.7290
788.232570 0.7300 0.7330 0.7340 0.7360 0.7360
792.496365 0.7360 0.7360 0.7370 0.7370 0.7370
796.760161 0.7370 0.7380 0.7380 0.7400 0.7410
801.023956 0.7410 0.7420 0.7410 0.7380 0.7370
805.287752 0.7380 0.7400 0.7410 0.7420 0.7420
809.551547 0.7440 0.7450 0.7460 0.7480 0.7510
813.815343 0.7530 0.7560 0.7600 0.7640 0.7680
818.079138 0.7730 0.7770 0.7800 0.7830 0.7850
822.342934 0.7890 0.7930 0.7950 0.7970 0.8000
826.606729 0.8050 0.8080 0.8120 0.8150 0.8170
830.870525 0.8190 0.8230 0.8290 0.8320 0.8340
835.134320 0.8360 0.8380 0.8400 0.8420 0.8440
839.398116 0.8460 0.8470 0.8480 0.8510 0.8520
843.661911 0.8520 0.8520 0.8520 0.8540 0.8550
847.925707 0.8580 0.8590 0.8600 0.8600 0.8620
852.189502 0.8640 0.8670 0.8670 0.8670 0.8670
856.453298 0.8670 0.8670 0.8680 0.8680 0.8680
860.717093 0.8680 0.8670 0.8670 0.8660 0.8660
864.980889 0.8640 0.8620 0.8590 0.8550 0.8520
869.244684 0.8470 0.8420 0.8320 0.8190 0.7910
873.508479 0.7830 0.7611 0.7341 0.7041 0.6891
877.772275 0.6860 0.6880 0.7020 0.7180 0.7360
882.036070 0.7710 0.8000 0.8150 0.8320 0.8470
886.299866 0.8550 0.8660 0.8710 0.8760 0.8790
890.563661 0.8830 0.8860 0.8880 0.8920 0.8940
894.827457 0.8950 0.8960 0.8980 0.8990 0.9000
899.091252 0.9020 0.9030 0.9040 0.9060 0.9070
903.355048 0.9080 0.9100 0.9100 0.9110 0.9140
907.618843 0.9140 0.9150 0.9150 0.9150 0.9150
911.882639 0.9170 0.9180 0.9180 0.9180 0.9180
916.146434 0.9180 0.9180 0.9180 0.9170 0.9170
920.410230 0.9150 0.9150 0.9150 0.9150 0.9170
924.674025 0.9170 0.9180 0.9180 0.9190 0.9180
928.937821 0.9180 0.9180 0.9180 0.9180 0.9180
933.201616 0.9170 0.9170 0.9170 0.9150 0.9140
937.465412 0.9140 0.9140 0.9140 0.9140 0.9120
941.729207 0.9140 0.9140 0.9120 0.9100 0.9100
945.993003 0.9080 0.9080 0.9080 0.9070 0.9070
950.256798 0.9070 0.9070 0.9060 0.9040 0.9030
954.520593 0.9000 0.8990 0.8990 0.8990 0.8980
958.784389 0.8960 0.8960 0.8960 0.8950 0.8920
963.048184 0.8900 0.8880 0.8880 0.8860 0.8840
967.311980 0.8840 0.8840 0.8830 0.8830 0.8830
971.575775 0.8800 0.8780 0.8760 0.8760 0.8760
975.839571 0.8750 0.8740 0.8740 0.8740 0.8740
980.103366 0.8740 0.8740 0.8720 0.8720 0.8720
984.367162 0.8720 0.8720 0.8710 0.8680 0.8670
988.630957 0.8660 0.8640 0.8640 0.8620 0.8590
992.894753 0.8560 0.8550 0.8510 0.8470 0.8460
997.158548 0.8430 0.8380 0.8350 0.8310 0.8250
1001.422344 0.8190 0.8130 0.8080 0.8030 0.7990
1005.686139 0.7960 0.7950 0.7950 0.7960 0.7970
1009.949935 0.8010 0.8050 0.8090 0.8150 0.8210
1014.213730 0.8250 0.8290 0.8320 0.8350 0.8360
1018.477526 0.8400 0.8420 0.8440 0.8460 0.8480
1022.741321 0.8480 0.8480 0.8500 0.8500 0.8480
1027.005117 0.8480 0.8480 0.8480 0.8470 0.8470
1031.268912 0.8460 0.8460 0.8430 0.8420 0.8380
1035.532707 0.8360 0.8350 0.8340 0.8320 0.8250
1039.796503 0.8240 0.8230 0.8190 0.8150 0.8120
1044.060298 0.8090 0.8050 0.8030 0.8000 0.7990
1048.324094 0.7960 0.7930 0.7920 0.7920 0.7930
1052.587889 0.7950 0.7960 0.7990 0.8010 0.8070
1056.851685 0.8090 0.8120 0.8130 0.8170 0.8170
1061.115480 0.8210 0.8240 0.8250 0.8250 0.8270
1065.379276 0.8270 0.8280 0.8310 0.8320 0.8340
1069.643071 0.8340 0.8350 0.8350 0.8340 0.8340
1073.906867 0.8340 0.8340 0.8340 0.8340 0.8340
1078.170662 0.8350 0.8350 0.8350 0.8350 0.8340
1082.434458 0.8340 0.8340 0.8340 0.8340 0.8340
1086.698253 0.8340 0.8340 0.8340 0.8350 0.8350
1090.962049 0.8340 0.8340 0.8340 0.8340 0.8340
1095.225844 0.8340 0.8340 0.8340 0.8340 0.8340
1099.489640 0.8350 0.8350 0.8350 0.8350 0.8350
1103.753435 0.8350 0.8350 0.8340 0.8340 0.8340
1108.017231 0.8340 0.8340 0.8320 0.8320 0.8310
1112.281026 0.8310 0.8290 0.8290 0.8270 0.8270
1116.544821 0.8250 0.8240 0.8240 0.8230 0.8230
1120.808617 0.8230 0.8210 0.8210 0.8200 0.8200
1125.072412 0.8170 0.8160 0.8130 0.8110 0.8080
1129.336208 0.8050 0.8040 0.8010 0.7970 0.7960
1133.600003 0.7890 0.7870 0.7840 0.7800 0.7760
1137.863799 0.7680 0.7630 0.7590 0.7560 0.7420
1142.127594 0.7320 0.7220 0.7120 0.6970 0.6760
1146.391390 0.6470 0.6061 0.5511 0.5300 0.5081
1150.655185 0.4439 0.3940 0.3480 0.3250 0.3250
1154.918981 0.3300 0.3599 0.3899 0.4349 0.5058
1159.182776 0.5820 0.5981 0.6450 0.6650 0.6760
1163.446572 0.6770 0.7060 0.7130 0.7220 0.7260
1167.710367 0.7370 0.7410 0.7480 0.7550 0.7610
1171.974163 0.7670 0.7750 0.7760 0.7770 0.7800
1176.237958 0.7810 0.7840 0.7870 0.7870 0.7910
1180.501754 0.7920 0.7920 0.7930 0.7950 0.7960
1184.765549 0.7960 0.7960 0.7970 0.7970 0.7990
1189.029344 0.7990 0.8000 0.8000 0.8030 0.8040
1193.293140 0.8050 0.8050 0.8050 0.8070 0.8070
1197.556935 0.8070 0.8080 0.8080 0.8080 0.8090
1201.820731 0.8090 0.8070 0.8050 0.8040 0.8040
1206.084526 0.8030 0.8030 0.8030 0.8030 0.8030
1210.348322 0.8030 0.8010 0.8010 0.8000 0.8000
1214.612117 0.7990 0.7990 0.7970 0.7970 0.7970
1218.875913 0.7970 0.7970 0.7970 0.7970 0.7960
1223.139708 0.7960 0.7960 0.7960 0.7960 0.7950
1227.403504 0.7950 0.7950 0.7950 0.7950 0.7930
1231.667299 0.7930 0.7920 0.7910 0.7890 0.7880
1235.931095 0.7870 0.7870 0.7850 0.7830 0.7830
1240.194890 0.7810 0.7800 0.7770 0.7760 0.7760
1244.458686 0.7760 0.7760 0.7760 0.7760 0.7750
1248.722481 0.7730 0.7720 0.7690 0.7670 0.7650
1252.986277 0.7630 0.7630 0.7600 0.7570 0.7550
1257.250072 0.7520 0.7520 0.7510 0.7510 0.7490
1261.513868 0.7460 0.7450 0.7420 0.7410 0.7410
1265.777663 0.7400 0.7380 0.7360 0.7340 0.7330
1270.041458 0.7330 0.7320 0.7290 0.7260 0.7250
1274.305254 0.7250 0.7240 0.7210 0.7200 0.7200
1278.569049 0.7180 0.7170 0.7170 0.7160 0.7140
1282.832845 0.7120 0.7100 0.7090 0.7080 0.7080
1287.096640 0.7060 0.7050 0.7020 0.7020 0.7010
1291.360436 0.6980 0.6960 0.6940 0.6930 0.6930
1295.624231 0.6900 0.6880 0.6860 0.6840 0.6820
1299.888027 0.6810 0.6780 0.6730 0.6690 0.6660
1304.151822 0.6630 0.6620 0.6610 0.6590 0.6570
1308.415618 0.6540 0.6530 0.6530 0.6490 0.6470
1312.679413 0.6460 0.6430 0.6420 0.6410 0.6380
1316.943209 0.6380 0.6350 0.6340 0.6310 0.6290
1321.207004 0.6270 0.6250 0.6220 0.6180 0.6140
1325.470800 0.6110 0.6090 0.6060 0.6020 0.5970
1329.734595 0.5930 0.5900 0.5860 0.5800 0.5760
1333.998391 0.5740 0.5700 0.5580 0.5440 0.5201
1338.262186 0.4959 0.4720 0.4480 0.4240 0.3980
1342.525982 0.3920 0.3820 0.3780 0.3730 0.3700
1346.789777 0.3650 0.3600 0.3530 0.3490 0.3480
1351.053572 0.3380 0.3290 0.3220 0.3140 0.3090
1355.317368 0.3050 0.3020 0.3010 0.3020 0.3100
1359.581163 0.3180 0.3260 0.3370 0.3480 0.3500
1363.844959 0.3580 0.3690 0.3820 0.3890 0.3970
1368.108754 0.3980 0.3970 0.3940 0.3930 0.3890
1372.372550 0.3840 0.3780 0.3730 0.3680 0.3620
1376.636345 0.3560 0.3490 0.3420 0.3360 0.3300
1380.900141 0.3230 0.3190 0.3110 0.3070 0.3010
1385.163936 0.2970 0.2890 0.2810 0.2750 0.2700
1389.427732 0.2670 0.2620 0.2570 0.2480 0.2430
1393.691527 0.2400 0.2350 0.2340 0.2310 0.2300
1397.955323 0.2280 0.2270 0.2270 0.2270 0.2280
1402.219118 0.2280 0.2300 0.2310 0.2340 0.2360
1406.482914 0.2420 0.2480 0.2530 0.2540 0.2590
1410.746709 0.2690 0.2740 0.2850 0.2850 0.2910
1415.010505 0.2940 0.3010 0.3050 0.3090 0.3150
1419.274300 0.3190 0.3270 0.3300 0.3400 0.3460
1423.538096 0.3490 0.3540 0.3610 0.3650 0.3720
1427.801891 0.3800 0.3880 0.3960 0.3970 0.4060
1432.065686 0.4120 0.4170 0.4190 0.4250 0.4270
1436.329482 0.4350 0.4360 0.4390 0.4430 0.4450
1440.593277 0.4470 0.4520 0.4550 0.4590 0.4600
1444.857073 0.4610 0.4610 0.4630 0.4640 0.4640
1449.120868 0.4630 0.4630 0.4610 0.4600 0.4590
1453.384664 0.4570 0.4570 0.4550 0.4520 0.4480
1457.648459 0.4470 0.4450 0.4440 0.4440 0.4430
1461.912255 0.4430 0.4440 0.4450 0.4480 0.4550
1466.176050 0.4570 0.4600 0.4670 0.4690 0.4760
1470.439846 0.4770 0.4840 0.4890 0.4930 0.5000
1474.703641 0.5020 0.5060 0.5120 0.5140 0.5150
1478.967437 0.5180 0.5190 0.5200 0.5240 0.5260
1483.231232 0.5260 0.5260 0.5260 0.5260 0.5260
1487.495028 0.5270 0.5270 0.5270 0.5280 0.5300
1491.758823 0.5300 0.5310 0.5310 0.5310 0.5300
1496.022619 0.5300 0.5300 0.5300 0.5310 0.5310
1500.286414 0.5310 0.5310 0.5320 0.5310 0.5310
1504.550210 0.5310 0.5310 0.5310 0.5310 0.5310
1508.814005 0.5310 0.5300 0.5300 0.5300 0.5300
1513.077800 0.5300 0.5280 0.5270 0.5270 0.5260
1517.341596 0.5260 0.5260 0.5260 0.5260 0.5240
1521.605391 0.5230 0.5190 0.5180 0.5150 0.5140
1525.869187 0.5120 0.5120 0.5120 0.5110 0.5040
1530.132982 0.5040 0.5000 0.4970 0.4970 0.4960
1534.396778 0.4930 0.4920 0.4890 0.4880 0.4840
1538.660573 0.4810 0.4800 0.4790 0.4720 0.4680
1542.924369 0.4650 0.4600 0.4570 0.4550 0.4480
1547.188164 0.4450 0.4360 0.4290 0.4270 0.4210
1551.451960 0.4170 0.4100 0.4020 0.4000 0.3970
1555.715755 0.3900 0.3880 0.3780 0.3720 0.3700
1559.979551 0.3660 0.3540 0.3460 0.3420 0.3380
1564.243346 0.3340 0.3300 0.3270 0.3220 0.3150
1568.507142 0.3150 0.3070 0.3020 0.2950 0.2930
1572.770937 0.2860 0.2860 0.2810 0.2780 0.2740
1577.034733 0.2730 0.2710 0.2690 0.2670 0.2670
1581.298528 0.2630 0.2620 0.2590 0.2570 0.2570
1585.562324 0.2550 0.2550 0.2540 0.2540 0.2530
1589.826119 0.2530 0.2500 0.2480 0.2460 0.2440
1594.089914 0.2430 0.2420 0.2420 0.2420 0.2430
1598.353710 0.2440 0.2460 0.2470 0.2480 0.2500
1602.617505 0.2500 0.2510 0.2530 0.2540 0.2550
1606.881301 0.2590 0.2610 0.2620 0.2620 0.2620
1611.145096 0.2610 0.2610 0.2590 0.2590 0.2580
1615.408892 0.2580 0.2550 0.2550 0.2540 0.2510
1619.672687 0.2480 0.2470 0.2440 0.2430 0.2400
1623.936483 0.2380 0.2340 0.2320 0.2300 0.2270
1628.200278 0.2240 0.2200 0.2160 0.2150 0.2120
1632.464074 0.2100 0.2070 0.2040 0.2040 0.2030
1636.727869 0.2020 0.2020 0.2020 0.2020 0.2020
1640.991665 0.2020 0.2030 0.2030 0.2040 0.2040
1645.255460 0.2060 0.2070 0.2100 0.2120 0.2160
1649.519256 0.2200 0.2260 0.2320 0.2360 0.2420
1653.783051 0.2430 0.2440 0.2440 0.2440 0.2430
1658.046847 0.2400 0.2400 0.2390 0.2380 0.2320
1662.310642 0.2260 0.2230 0.2150 0.2060 0.2000
1666.574438 0.1880 0.1740 0.1670 0.1600 0.1470
1670.838233 0.1360 0.1270 0.1200 0.1130 0.1080
1675.102028 0.1030 0.1000 0.0990 0.0970 0.0930
1679.365824 0.0910 0.0890 0.0880 0.0870 0.0870
1683.629619 0.0870 0.0880 0.0880 0.0890 0.0910
1687.893415 0.0930 0.1000 0.1040 0.1080 0.1160
1692.157210 0.1250 0.1360 0.1470 0.1570 0.1720
1696.421006 0.1801 0.2000 0.2120 0.2230 0.2400
1700.684801 0.2700 0.2900 0.2980 0.3050 0.3170
1704.948597 0.3251 0.3461 0.3700 0.3930 0.4100
1709.212392 0.4410 0.4450 0.4670 0.4950 0.5070
1713.476188 0.5150 0.5280 0.5520 0.5630 0.5750
1717.739983 0.5860 0.5970 0.6020 0.6150 0.6250
1722.003779 0.6340 0.6390 0.6460 0.6500 0.6580
1726.267574 0.6590 0.6610 0.6630 0.6650 0.6650
1730.531370 0.6680 0.6690 0.6700 0.6720 0.6730
1734.795165 0.6730 0.6740 0.6760 0.6780 0.6810
1739.058961 0.6850 0.6890 0.6930 0.7000 0.7120
1743.322756 0.7130 0.7240 0.7330 0.7420 0.7520
1747.586552 0.7610 0.7730 0.7790 0.7870 0.7950
1751.850347 0.7990 0.8080 0.8170 0.8230 0.8270
1756.114142 0.8340 0.8360 0.8420 0.8440 0.8500
1760.377938 0.8510 0.8550 0.8580 0.8630 0.8640
1764.641733 0.8640 0.8660 0.8670 0.8710 0.8720
1768.905529 0.8740 0.8740 0.8760 0.8790 0.8820
1773.169324 0.8840 0.8860 0.8860 0.8870 0.8880
1777.433120 0.8900 0.8910 0.8920 0.8920 0.8920
1781.696915 0.8940 0.8940 0.8950 0.8960 0.8980
1785.960711 0.8980 0.8980 0.8990 0.8990 0.9020
1790.224506 0.9040 0.9060 0.9070 0.9080 0.9100
1794.488302 0.9110 0.9120 0.9120 0.9140 0.9140
1798.752097 0.9140 0.9140 0.9150 0.9150 0.9150
1803.015893 0.9170 0.9170 0.9170 0.9170 0.9190
1807.279688 0.9210 0.9220 0.9230 0.9250 0.9250
1811.543484 0.9270 0.9290 0.9290 0.9290 0.9290
1815.807279 0.9290 0.9300 0.9310 0.9310 0.9330
1820.071075 0.9330 0.9340 0.9340 0.9340 0.9350
1824.334870 0.9350 0.9350 0.9340 0.9340 0.9350
1828.598666 0.9370 0.9370 0.9380 0.9380 0.9380
1832.862461 0.9380 0.9390 0.9390 0.9390 0.9390
1837.126256 0.9410 0.9390 0.9380 0.9380 0.9370
1841.390052 0.9370 0.9370 0.9370 0.9380 0.9380
1845.653847 0.9390 0.9420 0.9420 0.9390 0.9380
1849.917643 0.9380 0.9380 0.9380 0.9380 0.9380
1854.181438 0.9380 0.9380 0.9380 0.9380 0.9380
1858.445234 0.9370 0.9370 0.9370 0.9370 0.9370
1862.709029 0.9370 0.9370 0.9370 0.9370 0.9370
1866.972825 0.9370 0.9370 0.9370 0.9370 0.9350
1871.236620 0.9350 0.9350 0.9350 0.9370 0.9370
1875.500416 0.9370 0.9370 0.9380 0.9380 0.9390
1879.764211 0.9420 0.9430 0.9430 0.9450 0.9460
1884.028007 0.9460 0.9470 0.9460 0.9460 0.9460
1888.291802 0.9460 0.9460 0.9460 0.9470 0.9470
1892.555598 0.9470 0.9470 0.9490 0.9490 0.9490
1896.819393 0.9500 0.9500 0.9500 0.9510 0.9510
1901.083189 0.9510 0.9510 0.9510 0.9510 0.9510
1905.346984 0.9510 0.9500 0.9500 0.9500 0.9490
1909.610780 0.9490 0.9490 0.9490 0.9490 0.9490
1913.874575 0.9490 0.9490 0.9490 0.9500 0.9500
1918.138370 0.9500 0.9500 0.9500 0.9500 0.9500
1922.402166 0.9500 0.9500 0.9500 0.9500 0.9490
1926.665961 0.9490 0.9510 0.9510 0.9500 0.9490
1930.929757 0.9490 0.9510 0.9510 0.9500 0.9490
1935.193552 0.9470 0.9470 0.9470 0.9470 0.9490
1939.457348 0.9490 0.9490 0.9490 0.9490 0.9490
1943.721143 0.9490 0.9500 0.9500 0.9500 0.9500
1947.984939 0.9510 0.9510 0.9510 0.9510 0.9510
1952.248734 0.9510 0.9510 0.9510 0.9510 0.9500
1956.512530 0.9500 0.9490 0.9490 0.9470 0.9470
1960.776325 0.9470 0.9460 0.9460 0.9450 0.9450
1965.040121 0.9450 0.9420 0.9410 0.9410 0.9410
1969.303916 0.9410 0.9410 0.9390 0.9390 0.9390
1973.567712 0.9410 0.9390 0.9390 0.9380 0.9380
1977.831507 0.9370 0.9370 0.9370 0.9350 0.9350
1982.095303 0.9350 0.9340 0.9340 0.9340 0.9340
1986.359098 0.9340 0.9340 0.9340 0.9340 0.9330
1990.622894 0.9330 0.9310 0.9220 0.9110 0.8990
1994.886689 0.8980 0.8991 0.9210 0.9260 0.9270
1999.150484 0.9270 0.9270 0.9270 0.9270 0.9305
2003.414280 0.9340 0.9365 0.9390 0.9450 0.9510
2007.678075 0.9585 0.9660 0.9695 0.9730 0.9730
2011.941871 0.9730 0.9720 0.9710 0.9705 0.9700
2016.205666 0.9695 0.9690 0.9680 0.9670 0.9670
2020.469462 0.9670 0.9665 0.9660 0.9655 0.9650
2024.733257 0.9650 0.9650 0.9650 0.9650 0.9650
2028.997053 0.9650 0.9650 0.9650 0.9650 0.9650
2033.260848 0.9655 0.9660 0.9665 0.9670 0.9670
2037.524644 0.9670 0.9670 0.9670 0.9670 0.9670
2041.788439 0.9670 0.9670 0.9670 0.9670 0.9670
2046.052235 0.9670 0.9670 0.9670 0.9670 0.9670
2050.316030 0.9665 0.9660 0.9655 0.9650 0.9650
2054.579826 0.9650 0.9650 0.9650 0.9650 0.9650
2058.843621 0.9650 0.9650 0.9650 0.9650 0.9640
2063.107417 0.9630 0.9630 0.9630 0.9630 0.9630
2067.371212 0.9630 0.9630 0.9630 0.9630 0.9625
2071.635008 0.9620 0.9595 0.9570 0.9555 0.9540
2075.898803 0.9540 0.9540 0.9560 0.9580 0.9580
2080.162598 0.9580 0.9585 0.9590 0.9590 0.9590
2084.426394 0.9585 0.9580 0.9580 0.9580 0.9580
2088.690189 0.9580 0.9580 0.9580 0.9580 0.9580
2092.953985 0.9575 0.9570 0.9570 0.9570 0.9560
2097.217780 0.9550 0.9550 0.9550 0.9545 0.9540
2101.481576 0.9540 0.9540 0.9535 0.9530 0.9530
2105.745371 0.9530 0.9530 0.9530 0.9530 0.9530
2110.009167 0.9520 0.9510 0.9505 0.9500 0.9500
2114.272962 0.9500 0.9500 0.9500 0.9495 0.9490
2118.536758 0.9480 0.9470 0.9470 0.9470 0.9465
2122.800553 0.9460 0.9455 0.9450 0.9440 0.9430
2127.064349 0.9430 0.9430 0.9430 0.9430 0.9430
2131.328144 0.9430 0.9425 0.9420 0.9415 0.9410
2135.591940 0.9410 0.9410 0.9400 0.9390 0.9385
2139.855735 0.9380 0.9365 0.9350 0.9340 0.9330
2144.119531 0.9330 0.9330 0.9320 0.9310 0.9310
2148.383326 0.9310 0.9305 0.9300 0.9300 0.9300
2152.647122 0.9295 0.9290 0.9280 0.9270 0.9270
2156.910917 0.9270 0.9270 0.9270 0.9270 0.9270
2161.174712 0.9270 0.9270 0.9270 0.9270 0.9270
2165.438508 0.9270 0.9270 0.9270 0.9270 0.9270
2169.702303 0.9270 0.9270 0.9270 0.9270 0.9265
2173.966099 0.9260 0.9260 0.9260 0.9260 0.9260
2178.229894 0.9260 0.9260 0.9260 0.9260 0.9260
2182.493690 0.9260 0.9260 0.9260 0.9255 0.9250
2186.757485 0.9240 0.9230 0.9230 0.9230 0.9230
2191.021281 0.9230 0.9225 0.9220 0.9220 0.9220
2195.285076 0.9220 0.9220 0.9215 0.9210 0.9210
2199.548872 0.9210 0.9210 0.9210 0.9210 0.9210
2203.812667 0.9200 0.9190 0.9185 0.9180 0.9180
2208.076463 0.9180 0.9180 0.9180 0.9180 0.9180
2212.340258 0.9175 0.9170 0.9170 0.9170 0.9160
2216.604054 0.9150 0.9150 0.9150 0.9150 0.9150
2220.867849 0.9145 0.9140 0.9130 0.9120 0.9115
2225.131645 0.9110 0.9105 0.9099 0.9079 0.9060
2229.395440 0.9050 0.9040 0.9030 0.9020 0.9010
2233.659236 0.9000 0.8995 0.8990 0.8985 0.8980
2237.923031 0.8980 0.8979 0.8964 0.8950 0.8945
2242.186826 0.8940 0.8930 0.8920 0.8920 0.8920
2246.450622 0.8915 0.8910 0.8905 0.8899 0.8884
2250.714417 0.8869 0.8854 0.8840 0.8840 0.8840
2254.978213 0.8830 0.8819 0.8809 0.8799 0.8790
2259.242008 0.8780 0.8770 0.8760 0.8750 0.8740
2263.505804 0.8730 0.8720 0.8720 0.8720 0.8715
2267.769599 0.8710 0.8710 0.8710 0.8710 0.8710
2272.033395 0.8710 0.8710 0.8710 0.8710 0.8710
2276.297190 0.8710 0.8710 0.8710 0.8710 0.8710
2280.560986 0.8710 0.8710 0.8705 0.8700 0.8700
2284.824781 0.8699 0.8684 0.8670 0.8670 0.8670
2289.088577 0.8665 0.8659 0.8649 0.8640 0.8635
2293.352372 0.8630 0.8625 0.8619 0.8604 0.8589
2297.616168 0.8569 0.8550 0.8545 0.8539 0.8524
2301.879963 0.8509 0.8494 0.8480 0.8475 0.8470
2306.143759 0.8465 0.8460 0.8465 0.8470 0.8475
2310.407554 0.8481 0.8496 0.8511 0.8526 0.8540
2314.671350 0.8545 0.8551 0.8566 0.8581 0.8591
2318.935145 0.8601 0.8616 0.8630 0.8635 0.8640
2323.198940 0.8651 0.8660 0.8660 0.8660 0.8665
2327.462736 0.8670 0.8670 0.8670 0.8675 0.8680
2331.726531 0.8680 0.8680 0.8680 0.8680 0.8680
2335.990327 0.8681 0.8691 0.8700 0.8700 0.8700
2340.254122 0.8700 0.8699 0.8689 0.8680 0.8680
2344.517918 0.8680 0.8680 0.8680 0.8680 0.8680
2348.781713 0.8680 0.8680 0.8680 0.8681 0.8696
2353.045509 0.8710 0.8710 0.8710 0.8710 0.8710
2357.309304 0.8710 0.8710 0.8710 0.8710 0.8710
2361.573100 0.8710 0.8710 0.8710 0.8705 0.8700
2365.836895 0.8700 0.8700 0.8700 0.8700 0.8700
2370.100691 0.8700 0.8700 0.8700 0.8700 0.8700
2374.364486 0.8705 0.8710 0.8710 0.8710 0.8710
2378.628282 0.8710 0.8710 0.8710 0.8710 0.8710
2382.892077 0.8715 0.8720 0.8720 0.8720 0.8720
2387.155873 0.8720 0.8720 0.8720 0.8720 0.8720
2391.419668 0.8720 0.8720 0.8715 0.8710 0.8705
2395.683464 0.8700 0.8700 0.8700 0.8700 0.8699
2399.947259 0.8689 0.8680 0.8680 0.8680 0.8680
2404.211054 0.8680 0.8680 0.8680 0.8680 0.8680
2408.474850 0.8680 0.8680 0.8680 0.8681 0.8691
2412.738645 0.8700 0.8705 0.8710 0.8710 0.8710
2417.002441 0.8710 0.8710 0.8710 0.8710 0.8710
2421.266236 0.8710 0.8705 0.8700 0.8700 0.8700
2425.530032 0.8700 0.8700 0.8700 0.8700 0.8700
2429.793827 0.8700 0.8705 0.8710 0.8710 0.8710
2434.057623 0.8705 0.8700 0.8700 0.8700 0.8700
2438.321418 0.8700 0.8700 0.8700 0.8700 0.8699
2442.585214 0.8689 0.8680 0.8680 0.8680 0.8680
2446.849009 0.8680 0.8675 0.8670 0.8670 0.8670
2451.112805 0.8670 0.8670 0.8670 0.8670 0.8665
2455.376600 0.8660 0.8660 0.8660 0.8660 0.8659
2459.640396 0.8649 0.8640 0.8640 0.8640 0.8640
2463.904191 0.8640 0.8635 0.8630 0.8630 0.8630
2468.167987 0.8630 0.8630 0.8625 0.8619 0.8609
2472.431782 0.8600 0.8600 0.8600 0.8595 0.8590
2476.695578 0.8590 0.8590 0.8590 0.8590 0.8590
2480.959373 0.8590 0.8590 0.8590 0.8585 0.8580
2485.223168 0.8580 0.8580 0.8580 0.8580 0.8580
2489.486964 0.8580 0.8580 0.8579 0.8569 0.8560
2493.750759 0.8560 0.8560 0.8560 0.8560 0.8560
2498.014555 0.8560 0.8555 0.8550 0.8550 0.8550
2502.278350 0.8550 0.8550 0.8545 0.8540 0.8540
2506.542146 0.8540 0.8540 0.8540 0.8540 0.8540
2510.805941 0.8540 0.8540 0.8540 0.8540 0.8540
2515.069737 0.8540 0.8540 0.8540 0.8545 0.8550
2519.333532 0.8550 0.8550 0.8550 0.8550 0.8550
2523.597328 0.8550 0.8550 0.8550 0.8550 0.8550
2527.861123 0.8550 0.8550 0.8550 0.8549 0.8544
2532.124919 0.8540 0.8540 0.8539 0.8529 0.8520
2536.388714 0.8520 0.8520 0.8515 0.8510 0.8510
2540.652510 0.8510 0.8510 0.8510 0.8505 0.8500
2544.916305 0.8500 0.8500 0.8500 0.8499 0.8489
2549.180101 0.8480 0.8480 0.8479 0.8474 0.8470
2553.443896 0.8470 0.8470 0.8470 0.8470 0.8470
2557.707692 0.8470 0.8470 0.8470 0.8470 0.8470
2561.971487 0.8470 0.8470 0.8470 0.8470 0.8470
2566.235282 0.8470 0.8470 0.8471 0.8476 0.8480
2570.499078 0.8480 0.8480 0.8480 0.8480 0.8480
2574.762873 0.8480 0.8480 0.8481 0.8491 0.8500
2579.026669 0.8500 0.8500 0.8500 0.8500 0.8500
2583.290464 0.8500 0.8500 0.8500 0.8500 0.8500
2587.554260 0.8500 0.8500 0.8500 0.8500 0.8500
2591.818055 0.8499 0.8489 0.8480 0.8480 0.8480
2596.081851 0.8480 0.8479 0.8474 0.8470 0.8470
2600.345646 0.8469 0.8464 0.8459 0.8449 0.8439
2604.609442 0.8434 0.8430 0.8430 0.8430 0.8430
2608.873237 0.8430 0.8430 0.8429 0.8424 0.8419
2613.137033 0.8409 0.8400 0.8400 0.8400 0.8400
2617.400828 0.8400 0.8400 0.8400 0.8400 0.8399
2621.664624 0.8394 0.8389 0.8384 0.8380 0.8380
2625.928419 0.8379 0.8369 0.8360 0.8360 0.8360
2630.192215 0.8360 0.8360 0.8360 0.8360 0.8360
2634.456010 0.8360 0.8360 0.8360 0.8360 0.8359
2638.719805 0.8354 0.8350 0.8350 0.8350 0.8350
2642.983601 0.8350 0.8350 0.8350 0.8350 0.8349
2647.247396 0.8344 0.8340 0.8340 0.8339 0.8329
2651.511192 0.8319 0.8314 0.8308 0.8293 0.8278
2655.774987 0.8263 0.8250 0.8250 0.8249 0.8244
2660.038783 0.8240 0.8240 0.8239 0.8234 0.8230
2664.302578 0.8230 0.8228 0.8213 0.8199 0.8194
2668.566374 0.8188 0.8173 0.8159 0.8154 0.8149
2672.830169 0.8139 0.8129 0.8124 0.8119 0.8114
2677.093965 0.8110 0.8110 0.8109 0.8099 0.8089
2681.357760 0.8084 0.8079 0.8074 0.8069 0.8059
2685.621556 0.8050 0.8050 0.8050 0.8050 0.8051
2689.885351 0.8061 0.8070 0.8070 0.8069 0.8059
2694.149147 0.8049 0.8044 0.8040 0.8040 0.8040
2698.412942 0.8040 0.8039 0.8034 0.8029 0.8019
2702.676738 0.8010 0.8010 0.8010 0.8010 0.8009
2706.940533 0.8004 0.8000 0.8000 0.8000 0.8000
2711.204329 0.7998 0.7983 0.7969 0.7959 0.7950
2715.468124 0.7950 0.7949 0.7939 0.7930 0.7930
2719.731919 0.7929 0.7919 0.7908 0.7893 0.7879
2723.995715 0.7874 0.7870 0.7870 0.7870 0.7870
2728.259510 0.7869 0.7859 0.7849 0.7839 0.7829
2732.523306 0.7819 0.7809 0.7799 0.7789 0.7779
2736.787101 0.7769 0.7764 0.7759 0.7754 0.7749
2741.050897 0.7739 0.7729 0.7719 0.7708 0.7693
2745.314692 0.7680 0.7680 0.7679 0.7674 0.7668
2749.578488 0.7653 0.7639 0.7634 0.7629 0.7619
2753.842283 0.7609 0.7604 0.7598 0.7583 0.7570
2758.106079 0.7570 0.7569 0.7564 0.7557 0.7537
2762.369874 0.7518 0.7503 0.7489 0.7484 0.7479
2766.633670 0.7469 0.7459 0.7454 0.7449 0.7444
2770.897465 0.7438 0.7423 0.7409 0.7404 0.7397
2775.161261 0.7377 0.7359 0.7349 0.7339 0.7329
2779.425056 0.7318 0.7303 0.7288 0.7273 0.7259
2783.688852 0.7254 0.7248 0.7233 0.7220 0.7220
2787.952647 0.7217 0.7197 0.7177 0.7157 0.7137
2792.216443 0.7117 0.7096 0.7071 0.7047 0.7027
2796.480238 0.7006 0.6981 0.6956 0.6926 0.6896
2800.744033 0.6865 0.6834 0.6800 0.6766 0.6741
2805.007829 0.6715 0.6680 0.6648 0.6638 0.6622
2809.271624 0.6572 0.6524 0.6484 0.6449 0.6439
2813.535420 0.6431 0.6441 0.6451 0.6461 0.6473
2817.799215 0.6493 0.6516 0.6551 0.6586 0.6621
2822.063011 0.6656 0.6691 0.6724 0.6749 0.6774
2826.326806 0.6799 0.6825 0.6855 0.6885 0.6915
2830.590602 0.6945 0.6980 0.7015 0.7050 0.7083
2834.854397 0.7103 0.7124 0.7149 0.7173 0.7193
2839.118193 0.7212 0.7227 0.7242 0.7252 0.7262
2843.381988 0.7272 0.7281 0.7286 0.7291 0.7296
2847.645784 0.7300 0.7300 0.7302 0.7312 0.7320
2851.909579 0.7320 0.7320 0.7320 0.7320 0.7320
2856.173375 0.7320 0.7320 0.7320 0.7320 0.7320
2860.437170 0.7320 0.7320 0.7320 0.7320 0.7320
2864.700966 0.7318 0.7308 0.7300 0.7300 0.7300
2868.964761 0.7300 0.7299 0.7294 0.7290 0.7290
2873.228557 0.7290 0.7290 0.7290 0.7290 0.7290
2877.492352 0.7290 0.7289 0.7284 0.7278 0.7268
2881.756147 0.7258 0.7248 0.7238 0.7228 0.7220
2886.019943 0.7220 0.7220 0.7220 0.7220 0.7220
2890.283738 0.7219 0.7214 0.7209 0.7204 0.7197
2894.547534 0.7177 0.7158 0.7148 0.7139 0.7134
2898.811329 0.7128 0.7113 0.7097 0.7077 0.7059
2903.075125 0.7054 0.7049 0.7044 0.7038 0.7028
2907.338920 0.7016 0.6991 0.6967 0.6947 0.6927
2911.602716 0.6912 0.6899 0.6894 0.6889 0.6884
2915.866511 0.6873 0.6833 0.6795 0.6765 0.6736
2920.130307 0.6711 0.6686 0.6666 0.6647 0.6632
2924.394102 0.6617 0.6602 0.6590 0.6590 0.6588
2928.657898 0.6578 0.6567 0.6552 0.6539 0.6534
2932.921693 0.6530 0.6530 0.6530 0.6530 0.6530
2937.185489 0.6530 0.6530 0.6530 0.6530 0.6530
2941.449284 0.6528 0.6518 0.6509 0.6504 0.6500
2945.713080 0.6500 0.6496 0.6476 0.6457 0.6442
2949.976875 0.6426 0.6401 0.6377 0.6362 0.6350
2954.240671 0.6350 0.6348 0.6338 0.6327 0.6312
2958.504466 0.6299 0.6294 0.6284 0.6249 0.6216
2962.768261 0.6196 0.6180 0.6180 0.6179 0.6174
2967.032057 0.6168 0.6158 0.6148 0.6138 0.6123
2971.295852 0.6083 0.6046 0.6026 0.6007 0.5992
2975.559648 0.5979 0.5974 0.5966 0.5946 0.5926
2979.823443 0.5906 0.5884 0.5855 0.5827 0.5812
2984.087239 0.5796 0.5776 0.5758 0.5748 0.5736
2988.351034 0.5716 0.5696 0.5676 0.5656 0.5636
2992.614830 0.5616 0.5596 0.5576 0.5556 0.5536
2996.878625 0.5516 0.5498 0.5488 0.5478 0.5468
3001.142421 0.5457 0.5442 0.5426 0.5406 0.5387
3005.406216 0.5372 0.5356 0.5336 0.5312 0.5272
3009.670012 0.5238 0.5228 0.5214 0.5184 0.5155
3013.933807 0.5130 0.5106 0.5086 0.5066 0.5046
3018.197603 0.5027 0.5012 0.4997 0.4982 0.4966
3022.461398 0.4946 0.4926 0.4906 0.4886 0.4866
3026.725194 0.4846 0.4826 0.4804 0.4774 0.4742
3030.988989 0.4702 0.4668 0.4658 0.4649 0.4644
3035.252785 0.4635 0.4610 0.4588 0.4578 0.4566
3039.516580 0.4546 0.4522 0.4482 0.4449 0.4444
3043.780375 0.4436 0.4416 0.4396 0.4376 0.4353
3048.044171 0.4318 0.4285 0.4260 0.4235 0.4210
3052.307966 0.4184 0.4154 0.4125 0.4100 0.4074
3056.571762 0.4044 0.4014 0.3984 0.3952 0.3912
3060.835557 0.3874 0.3844 0.3818 0.3808 0.3797
3065.099353 0.3782 0.3765 0.3740 0.3713 0.3678
3069.363148 0.3638 0.3578 0.3526 0.3506 0.3487
3073.626944 0.3472 0.3455 0.3430 0.3405 0.3380
3077.890739 0.3354 0.3324 0.3295 0.3270 0.3243
3082.154535 0.3208 0.3177 0.3162 0.3146 0.3126
3086.418330 0.3105 0.3080 0.3055 0.3030 0.3003
3090.682126 0.2968 0.2933 0.2898 0.2864 0.2834
3094.945921 0.2803 0.2768 0.2733 0.2698 0.2664
3099.209717 0.2634 0.2606 0.2586 0.2564 0.2534
3103.473512 0.2505 0.2480 0.2453 0.2418 0.2385
3107.737308 0.2360 0.2333 0.2303 0.2275 0.2250
3112.001103 0.2222 0.2188 0.2155 0.2130 0.2105
3116.264899 0.2080 0.2053 0.2018 0.1985 0.1960
3120.528694 0.1934 0.1904 0.1875 0.1850 0.1827
3124.792489 0.1812 0.1793 0.1763 0.1732 0.1697
3129.056285 0.1662 0.1627 0.1591 0.1551 0.1517
3133.320080 0.1502 0.1485 0.1460 0.1437 0.1422
3137.583876 0.1408 0.1398 0.1388 0.1378 0.1366
3141.847671 0.1346 0.1329 0.1324 0.1319 0.1314
3146.111467 0.1307 0.1292 0.1279 0.1274 0.1268
3150.375262 0.1258 0.1250 0.1250 0.1249 0.1244
3154.639058 0.1240 0.1240 0.1240 0.1240 0.1241
3158.902853 0.1246 0.1250 0.1250 0.1253 0.1268
3163.166649 0.1280 0.1280 0.1283 0.1298 0.1312
3167.430444 0.1322 0.1332 0.1342 0.1352 0.1362
3171.694240 0.1372 0.1382 0.1392 0.1402 0.1413
3175.958035 0.1428 0.1443 0.1458 0.1476 0.1501
3180.221831 0.1523 0.1538 0.1556 0.1581 0.1604
3184.485626 0.1624 0.1643 0.1658 0.1674 0.1694
3188.749422 0.1718 0.1753 0.1785 0.1810 0.1834
3193.013217 0.1855 0.1871 0.1876 0.1889 0.1929
3197.277013 0.1968 0.2003 0.2040 0.2085 0.2131
3201.540808 0.2181 0.2222 0.2232 0.2244 0.2264
3205.804603 0.2284 0.2304 0.2328 0.2363 0.2398
3210.068399 0.2433 0.2468 0.2503 0.2537 0.2567
3214.332194 0.2597 0.2627 0.2655 0.2675 0.2697
3218.595990 0.2727 0.2757 0.2787 0.2815 0.2835
3222.859785 0.2852 0.2862 0.2874 0.2894 0.2913
3227.123581 0.2929 0.2944 0.2959 0.2971 0.2976
3231.387376 0.2980 0.2980 0.2984 0.2999 0.3011
3235.651172 0.3016 0.3023 0.3038 0.3051 0.3056
3239.914967 0.3060 0.3060 0.3060 0.3060 0.3060
3244.178763 0.3060 0.3060 0.3060 0.3060 0.3060
3248.442558 0.3059 0.3054 0.3050 0.3050 0.3050
3252.706354 0.3050 0.3048 0.3038 0.3029 0.3024
3256.970149 0.3020 0.3020 0.3019 0.3014 0.3010
3261.233945 0.3010 0.3008 0.2998 0.2988 0.2978
3265.497740 0.2970 0.2970 0.2968 0.2958 0.2948
3269.761536 0.2938 0.2926 0.2911 0.2899 0.2894
3274.025331 0.2888 0.2878 0.2868 0.2858 0.2848
3278.289127 0.2838 0.2827 0.2818 0.2808 0.2798
3282.552922 0.2788 0.2778 0.2768 0.2758 0.2748
3286.816717 0.2738 0.2726 0.2711 0.2696 0.2681
3291.080513 0.2669 0.2664 0.2659 0.2654 0.2646
3295.344308 0.2631 0.2619 0.2614 0.2605 0.2585
3299.608104 0.2567 0.2558 0.2548 0.2538 0.2528
3303.871899 0.2518 0.2506 0.2491 0.2479 0.2474
3308.135695 0.2469 0.2464 0.2458 0.2448 0.2439
3312.399490 0.2434 0.2430 0.2430 0.2429 0.2424
3316.663286 0.2420 0.2420 0.2420 0.2420 0.2420
3320.927081 0.2420 0.2420 0.2420 0.2418 0.2408
3325.190877 0.2400 0.2400 0.2400 0.2400 0.2400
3329.454672 0.2400 0.2400 0.2400 0.2400 0.2400
3333.718468 0.2400 0.2400 0.2400 0.2400 0.2403
3337.982263 0.2413 0.2420 0.2420 0.2420 0.2420
3342.246059 0.2421 0.2426 0.2430 0.2430 0.2431
3346.509854 0.2436 0.2443 0.2453 0.2461 0.2466
3350.773650 0.2471 0.2476 0.2483 0.2493 0.2501
3355.037445 0.2506 0.2513 0.2523 0.2533 0.2543
3359.301241 0.2554 0.2569 0.2584 0.2599 0.2615
3363.565036 0.2635 0.2651 0.2656 0.2661 0.2666
3367.828831 0.2679 0.2714 0.2750 0.2790 0.2829
3372.092627 0.2864 0.2891 0.2896 0.2909 0.2944
3376.356422 0.2975 0.2995 0.3018 0.3048 0.3083
3380.620218 0.3133 0.3184 0.3233 0.3283 0.3333
3384.884013 0.3379 0.3414 0.3441 0.3446 0.3470
3389.147809 0.3545 0.3617 0.3682 0.3750 0.3825
3393.411604 0.3898 0.3968 0.4042 0.4127 0.4207
3397.675400 0.4272 0.4351 0.4466 0.4573 0.4658
3401.939195 0.4735 0.4790 0.4843 0.4893 0.4943
3406.202991 0.4993 0.5046 0.5106 0.5207 0.5422
3410.466786 0.5626 0.5801 0.5942 0.5987 0.6030
3414.730582 0.6071 0.6115 0.6170 0.6224 0.6274
3418.994377 0.6332 0.6412 0.6499 0.6603 0.6702
3423.258173 0.6782 0.6851 0.6891 0.6932 0.6977
3427.521968 0.7030 0.7105 0.7173 0.7223 0.7280
3431.785764 0.7356 0.7427 0.7487 0.7547 0.7607
3436.049559 0.7665 0.7720 0.7772 0.7817 0.7864
3440.313355 0.7914 0.7961 0.8001 0.8042 0.8087
3444.577150 0.8129 0.8164 0.8201 0.8241 0.8279
3448.840945 0.8315 0.8349 0.8378 0.8408 0.8438
3453.104741 0.8467 0.8492 0.8520 0.8555 0.8586
3457.368536 0.8606 0.8627 0.8652 0.8677 0.8702
3461.632332 0.8725 0.8745 0.8768 0.8798 0.8825
3465.896127 0.8846 0.8866 0.8886 0.8906 0.8926
3470.159923 0.8946 0.8966 0.8987 0.9012 0.9031
3474.423718 0.9036 0.9044 0.9059 0.9074 0.9089
3478.687514 0.9103 0.9113 0.9123 0.9133 0.9144
3482.951309 0.9159 0.9173 0.9183 0.9194 0.9209
3487.215105 0.9221 0.9226 0.9234 0.9249 0.9261
3491.478900 0.9266 0.9274 0.9289 0.9301 0.9306
3495.742696 0.9313 0.9323 0.9331 0.9336 0.9341
3500.006491 0.9346 0.9354 0.9369 0.9381 0.9386
3504.270287 0.9393 0.9403 0.9410 0.9410 0.9411
3508.534082 0.9416 0.9421 0.9426 0.9433 0.9443
3512.797878 0.9450 0.9450 0.9451 0.9456 0.9461
3517.061673 0.9466 0.9470 0.9470 0.9470 0.9470
3521.325469 0.9470 0.9470 0.9473 0.9483 0.9490
3525.589264 0.9490 0.9491 0.9496 0.9500 0.9500
3529.853059 0.9501 0.9506 0.9513 0.9523 0.9530
3534.116855 0.9530 0.9530 0.9530 0.9530 0.9530
3538.380650 0.9530 0.9530 0.9530 0.9530 0.9530
3542.644446 0.9530 0.9527 0.9517 0.9510 0.9510
3546.908241 0.9510 0.9510 0.9510 0.9510 0.9509
3551.172037 0.9504 0.9500 0.9500 0.9500 0.9500
3555.435832 0.9500 0.9500 0.9501 0.9506 0.9510
3559.699628 0.9510 0.9510 0.9510 0.9513 0.9523
3563.963423 0.9530 0.9530 0.9530 0.9530 0.9530
3568.227219 0.9530 0.9530 0.9530 0.9530 0.9530
3572.491014 0.9530 0.9530 0.9530 0.9530 0.9530
3576.754810 0.9530 0.9530 0.9530 0.9530 0.9530
3581.018605 0.9530 0.9530 0.9530 0.9530 0.9530
3585.282401 0.9530 0.9530 0.9530 0.9527 0.9517
3589.546196 0.9510 0.9510 0.9510 0.9510 0.9510
3593.809992 0.9510 0.9508 0.9504 0.9500 0.9500
3598.073787 0.9500 0.9500 0.9500 0.9500 0.9500
3602.337583 0.9500 0.9500 0.9500 0.9498 0.9493
3606.601378 0.9490 0.9490 0.9490 0.9490 0.9487
3610.865173 0.9477 0.9470 0.9470 0.9470 0.9470
3615.128969 0.9470 0.9470 0.9469 0.9464 0.9460
3619.392764 0.9460 0.9460 0.9460 0.9458 0.9453
3623.656560 0.9450 0.9450 0.9450 0.9450 0.9447
3627.920355 0.9437 0.9430 0.9430 0.9430 0.9430
3632.184151 0.9428 0.9423 0.9420 0.9420 0.9420
3636.447946 0.9420 0.9420 0.9420 0.9418 0.9413
3640.711742 0.9410 0.9410 0.9407 0.9397 0.9388
3644.975537 0.9383 0.9380 0.9380 0.9378 0.9373
3649.239333 0.9370 0.9370 0.9370 0.9370 0.9367
3653.503128 0.9357 0.9350 0.9350 0.9350 0.9350
3657.766924 0.9348 0.9343 0.9340 0.9340 0.9340
3662.030719 0.9340 0.9338 0.9333 0.9330 0.9330
3666.294515 0.9327 0.9317 0.9310 0.9310 0.9310
3670.558310 0.9310 0.9310 0.9310 0.9310 0.9310
3674.822106 0.9310 0.9310 0.9308 0.9303 0.9300
3679.085901 0.9300 0.9300 0.9300 0.9300 0.9300
3683.349697 0.9298 0.9293 0.9290 0.9290 0.9290
3687.613492 0.9290 0.9290 0.9290 0.9290 0.9290
3691.877287 0.9290 0.9290 0.9287 0.9277 0.9270
3696.141083 0.9270 0.9268 0.9263 0.9260 0.9260
3700.404878 0.9260 0.9260 0.9258 0.9253 0.9250
3704.668674 0.9250 0.9250 0.9250 0.9250 0.9250
3708.932469 0.9247 0.9237 0.9230 0.9230 0.9230
3713.196265 0.9230 0.9230 0.9230 0.9228 0.9223
3717.460060 0.9220 0.9220 0.9220 0.9220 0.9220
3721.723856 0.9220 0.9220 0.9220 0.9220 0.9220
3725.987651 0.9220 0.9220 0.9220 0.9220 0.9218
3730.251447 0.9213 0.9210 0.9210 0.9210 0.9210
3734.515242 0.9210 0.9210 0.9210 0.9210 0.9210
3738.779038 0.9210 0.9207 0.9197 0.9190 0.9190
3743.042833 0.9190 0.9190 0.9190 0.9190 0.9188
3747.306629 0.9183 0.9180 0.9180 0.9180 0.9180
3751.570424 0.9180 0.9180 0.9178 0.9173 0.9170
3755.834220 0.9170 0.9170 0.9170 0.9170 0.9170
3760.098015 0.9167 0.9157 0.9150 0.9150 0.9150
3764.361811 0.9150 0.9150 0.9150 0.9150 0.9150
3768.625606 0.9150 0.9150 0.9150 0.9150 0.9150
3772.889401 0.9150 0.9150 0.9150 0.9150 0.9150
3777.153197 0.9150 0.9150 0.9148 0.9143 0.9140
3781.416992 0.9140 0.9140 0.9140 0.9140 0.9140
3785.680788 0.9137 0.9127 0.9120 0.9120 0.9118
3789.944583 0.9113 0.9110 0.9110 0.9110 0.9110
3794.208379 0.9110 0.9110 0.9110 0.9110
##END=
