##TITLE=17Alpha-HYDROXY PROGESTERONE
##JCAMP-DX=4.24
##DATA TYPE=INFRARED SPECTRUM
##CLASS=COBLENTZ
##ORIGIN=ABBOTT LABORATORIES - WASHBURN
##OWNER=COBLENTZ SOCIETY
Collection (C) 2018 copyright by the U.S. Secretary of Commerce
on behalf of the United States of America. All rights reserved.
##DATE=Not specified, most likely prior to 1970
##NAMES=17-hydroxypregn-4-ene-3,20-dione
##CAS REGISTRY NO=604-09-1
##MOLFORM=C21 H30 O3
##SOURCE REFERENCE=COBLENTZ NO. 3385
##$NIST SOURCE=COBLENTZ
##$NIST IMAGE=cob3385
##SPECTROMETER/DATA SYSTEM=PERKIN-ELMER
##STATE=SOLID (KBr PELLET)
##SAMPLING PROCEDURE=TRANSMISSION
##RESOLUTION=4
##DATA PROCESSING=DIGITIZED BY NIST FROM HARD COPY (FROM TWO SEGMENTS)
##XUNITS=MICROMETERS
##YUNITS=TRANSMITTANCE
##XFACTOR=1.000000
##YFACTOR=1
##DELTAX=0.006614
##FIRSTX=2.526
##LASTX=14.9934
##FIRSTY=0.678
##MAXX=14.9934
##MINX=2.526
##MAXY=0.758
##MINY=0.217417
##NPOINTS=1886
##XYDATA=(X++(Y..Y))
2.526000 0.6780 0.6800 0.6810 0.6830 0.6830
2.559070 0.6850 0.6850 0.6850 0.6850 0.6850
2.592140 0.6876 0.6880 0.6897 0.6909 0.6910
2.625210 0.6944 0.6959 0.6960 0.6977 0.6997
2.658280 0.7000 0.7027 0.7030 0.7057 0.7078
2.691350 0.7080 0.7098 0.7100 0.7100 0.7109
2.724420 0.7110 0.7110 0.7110 0.7101 0.7100
2.757490 0.7100 0.7109 0.7128 0.7157 0.7160
2.790560 0.7160 0.7160 0.7160 0.7151 0.7085
2.823630 0.7080 0.7062 0.7014 0.6919 0.6764
2.856700 0.6502 0.6147 0.5665 0.5375 0.4963
2.889770 0.4592 0.4439 0.4149 0.3897 0.3722
2.922840 0.3564 0.3550 0.3579 0.3657 0.3747
2.955910 0.3904 0.4044 0.4194 0.4315 0.4444
2.988980 0.4580 0.4719 0.4839 0.4969 0.5118
3.022050 0.5248 0.5407 0.5488 0.5568 0.5687
3.055120 0.5778 0.5876 0.5916 0.5963 0.6004
3.088190 0.6095 0.6170 0.6222 0.6255 0.6302
3.121260 0.6354 0.6378 0.6406 0.6428 0.6430
3.154330 0.6439 0.6440 0.6457 0.6477 0.6489
3.187400 0.6526 0.6539 0.6558 0.6578 0.6580
3.220470 0.6580 0.6589 0.6590 0.6590 0.6590
3.253540 0.6590 0.6590 0.6590 0.6590 0.6590
3.286610 0.6581 0.6562 0.6514 0.6392 0.6298
3.319680 0.6119 0.5825 0.5602 0.5354 0.5086
3.352750 0.4835 0.4549 0.4287 0.4000 0.3776
3.385820 0.3682 0.3631 0.3582 0.3484 0.3451
3.418890 0.3479 0.3547 0.3607 0.3696 0.3747
3.451960 0.3800 0.3899 0.4048 0.4070 0.4070
3.485030 0.4050 0.4050 0.4070 0.4099 0.4246
3.518100 0.4364 0.4526 0.4713 0.4749 0.4750
3.551170 0.4767 0.4914 0.5075 0.5243 0.5388
3.584240 0.5507 0.5582 0.5616 0.5699 0.5780
3.617310 0.5851 0.5869 0.5905 0.5936 0.5940
3.650380 0.5967 0.5988 0.6008 0.6028 0.6030
3.683450 0.6039 0.6058 0.6078 0.6089 0.6108
3.716520 0.6138 0.6140 0.6158 0.6160 0.6178
3.749590 0.6180 0.6189 0.6208 0.6228 0.6239
3.782660 0.6240 0.6259 0.6279 0.6289 0.6309
3.815730 0.6310 0.6310 0.6310 0.6310 0.6329
3.848800 0.6340 0.6340 0.6359 0.6379 0.6390
3.881870 0.6428 0.6430 0.6440 0.6440 0.6478
3.914940 0.6490 0.6510 0.6510 0.6530 0.6540
3.948010 0.6540 0.6560 0.6579 0.6609 0.6610
3.981080 0.6630 0.6640 0.6640 0.6640 0.6640
4.014150 0.6630 0.6630 0.6630 0.6630 0.6630
4.047220 0.6630 0.6639 0.6640 0.6640 0.6640
4.080290 0.6657 0.6660 0.6660 0.6677 0.6680
4.113360 0.6698 0.6709 0.6710 0.6710 0.6728
4.146430 0.6730 0.6730 0.6748 0.6750 0.6759
4.179500 0.6760 0.6760 0.6760 0.6760 0.6760
4.212570 0.6760 0.6751 0.6750 0.6750 0.6714
4.245640 0.6710 0.6710 0.6729 0.6758 0.6760
4.278710 0.6779 0.6799 0.6800 0.6809 0.6810
4.311780 0.6810 0.6810 0.6810 0.6810 0.6810
4.344850 0.6829 0.6830 0.6830 0.6849 0.6850
4.377920 0.6850 0.6850 0.6860 0.6860 0.6860
4.410990 0.6850 0.6850 0.6860 0.6860 0.6860
4.444060 0.6880 0.6900 0.6900 0.6900 0.6900
4.477130 0.6900 0.6910 0.6930 0.6930 0.6950
4.510200 0.6950 0.6959 0.6960 0.6960 0.6977
4.543270 0.6980 0.6980 0.6980 0.6980 0.6997
4.576340 0.7000 0.7000 0.7009 0.7010 0.7010
4.609410 0.7010 0.7028 0.7030 0.7030 0.7048
4.642480 0.7050 0.7050 0.7059 0.7060 0.7060
4.675550 0.7051 0.7050 0.7050 0.7050 0.7050
4.708620 0.7059 0.7060 0.7079 0.7099 0.7109
4.741690 0.7129 0.7130 0.7130 0.7148 0.7150
4.774760 0.7150 0.7150 0.7150 0.7131 0.7130
4.807830 0.7130 0.7149 0.7150 0.7150 0.7159
4.840900 0.7160 0.7160 0.7160 0.7180 0.7180
4.873970 0.7199 0.7210 0.7210 0.7210 0.7210
4.907040 0.7210 0.7210 0.7210 0.7210 0.7210
4.940110 0.7230 0.7230 0.7250 0.7250 0.7250
4.973180 0.7250 0.7250 0.7250 0.7250 0.7250
5.006250 0.7250 0.7259 0.7260 0.7260 0.7260
5.039320 0.7260 0.7260 0.7260 0.7275 0.7280
5.072390 0.7304 0.7326 0.7330 0.7345 0.7350
5.105460 0.7364 0.7377 0.7380 0.7380 0.7380
5.138530 0.7390 0.7400 0.7400 0.7409 0.7424
5.171600 0.7430 0.7438 0.7450 0.7450 0.7450
5.204670 0.7450 0.7450 0.7450 0.7450 0.7450
5.237740 0.7450 0.7450 0.7450 0.7450 0.7450
5.270810 0.7450 0.7450 0.7452 0.7470 0.7470
5.303880 0.7470 0.7470 0.7480 0.7480 0.7480
5.336950 0.7500 0.7500 0.7500 0.7500 0.7518
5.370020 0.7520 0.7529 0.7547 0.7567 0.7570
5.403090 0.7579 0.7580 0.7572 0.7570 0.7554
5.436160 0.7535 0.7530 0.7523 0.7520 0.7506
5.469230 0.7500 0.7489 0.7474 0.7470 0.7470
5.502300 0.7470 0.7475 0.7480 0.7480 0.7476
5.535370 0.7470 0.7470 0.7470 0.7462 0.7450
5.568440 0.7450 0.7443 0.7430 0.7421 0.7400
5.601510 0.7394 0.7377 0.7358 0.7316 0.7272
5.634580 0.7250 0.7246 0.7226 0.7201 0.7152
5.667650 0.7103 0.7058 0.7009 0.6950 0.6881
5.700720 0.6764 0.6637 0.6565 0.6488 0.6445
5.733790 0.6353 0.6313 0.6283 0.6219 0.6184
5.766860 0.6080 0.5987 0.5850 0.5719 0.5538
5.799930 0.5327 0.5124 0.4927 0.4719 0.4509
5.833000 0.4280 0.4024 0.3749 0.3409 0.3041
5.866070 0.2851 0.2873 0.3106 0.3437 0.3769
5.899140 0.4160 0.4391 0.4432 0.4383 0.4156
5.932210 0.3819 0.3458 0.3144 0.2872 0.2698
5.965280 0.2589 0.2520 0.2422 0.2270 0.2201
5.998350 0.2174 0.2216 0.2344 0.2392 0.2425
6.031420 0.2525 0.2682 0.2908 0.3182 0.3257
6.064490 0.3307 0.3356 0.3427 0.3496 0.3574
6.097560 0.3697 0.3842 0.4024 0.4160 0.4254
6.130630 0.4375 0.4463 0.4508 0.4586 0.4639
6.163700 0.4631 0.4547 0.4424 0.4205 0.4014
6.196770 0.3928 0.3900 0.3931 0.4089 0.4314
6.229840 0.4485 0.4607 0.4716 0.4849 0.5000
6.262910 0.5098 0.5151 0.5189 0.5232 0.5269
6.295980 0.5322 0.5378 0.5420 0.5449 0.5476
6.329050 0.5495 0.5518 0.5544 0.5561 0.5570
6.362120 0.5574 0.5611 0.5621 0.5641 0.5660
6.395190 0.5670 0.5690 0.5709 0.5740 0.5819
6.428260 0.5859 0.5888 0.5909 0.5937 0.5984
6.461330 0.6007 0.6010 0.6027 0.6039 0.6057
6.494400 0.6085 0.6106 0.6126 0.6138 0.6140
6.527470 0.6155 0.6160 0.6174 0.6180 0.6186
6.560540 0.6213 0.6235 0.6240 0.6240 0.6250
6.593610 0.6269 0.6284 0.6290 0.6299 0.6310
6.626680 0.6310 0.6322 0.6348 0.6379 0.6410
6.659750 0.6400 0.6374 0.6360 0.6360 0.6356
6.692820 0.6340 0.6339 0.6328 0.6308 0.6289
6.725890 0.6277 0.6239 0.6208 0.6139 0.6034
6.758960 0.5913 0.5709 0.5640 0.5562 0.5445
6.792030 0.5328 0.5274 0.5180 0.5152 0.5150
6.825100 0.5141 0.5078 0.5027 0.5003 0.4909
6.858170 0.4777 0.4655 0.4607 0.4615 0.4654
6.891240 0.4701 0.4763 0.4790 0.4767 0.4733
6.924310 0.4693 0.4660 0.4650 0.4650 0.4694
6.957380 0.4740 0.4721 0.4529 0.4308 0.4246
6.990450 0.4192 0.4195 0.4257 0.4330 0.4350
7.023520 0.4345 0.4328 0.4320 0.4313 0.4268
7.056590 0.4196 0.4170 0.4173 0.4209 0.4333
7.089660 0.4392 0.4515 0.4700 0.4856 0.5002
7.122730 0.5090 0.5198 0.5239 0.5268 0.5289
7.155800 0.5319 0.5368 0.5370 0.5361 0.5342
7.188870 0.5296 0.5204 0.5073 0.4919 0.4754
7.221940 0.4619 0.4479 0.4364 0.4330 0.4293
7.255010 0.4240 0.4197 0.4191 0.4216 0.4251
7.288080 0.4302 0.4352 0.4375 0.4375 0.4287
7.321150 0.4143 0.4021 0.3911 0.3827 0.3752
7.354220 0.3706 0.3671 0.3618 0.3592 0.3569
7.387290 0.3536 0.3507 0.3494 0.3486 0.3508
7.420360 0.3546 0.3619 0.3746 0.3873 0.3989
7.453430 0.4087 0.4183 0.4252 0.4331 0.4429
7.486500 0.4517 0.4551 0.4600 0.4600 0.4600
7.519570 0.4525 0.4437 0.4385 0.4371 0.4379
7.552640 0.4507 0.4659 0.4772 0.4835 0.4953
7.585710 0.5080 0.5133 0.5190 0.5293 0.5399
7.618780 0.5508 0.5589 0.5616 0.5632 0.5657
7.651850 0.5708 0.5750 0.5750 0.5740 0.5703
7.684920 0.5620 0.5498 0.5321 0.5211 0.5200
7.717990 0.5220 0.5293 0.5408 0.5497 0.5543
7.751060 0.5613 0.5620 0.5618 0.5593 0.5496
7.784130 0.5419 0.5402 0.5333 0.5259 0.5110
7.817200 0.4944 0.4797 0.4666 0.4599 0.4581
7.850270 0.4601 0.4689 0.4748 0.4835 0.4868
7.883340 0.4888 0.4845 0.4744 0.4605 0.4495
7.916410 0.4470 0.4477 0.4667 0.4898 0.5055
7.949480 0.5195 0.5293 0.5320 0.5275 0.5169
7.982550 0.5060 0.4979 0.4888 0.4813 0.4779
8.015620 0.4755 0.4730 0.4705 0.4659 0.4615
8.048690 0.4591 0.4557 0.4526 0.4512 0.4500
8.081760 0.4500 0.4511 0.4546 0.4590 0.4609
8.114830 0.4530 0.4330 0.4119 0.3939 0.3804
8.147900 0.3760 0.3764 0.3825 0.4049 0.4215
8.180970 0.4378 0.4492 0.4705 0.4841 0.4900
8.214040 0.4949 0.4950 0.4950 0.4899 0.4890
8.247110 0.4794 0.4708 0.4660 0.4635 0.4623
8.280180 0.4550 0.4472 0.4397 0.4267 0.4206
8.313250 0.4200 0.4245 0.4320 0.4368 0.4392
8.346320 0.4389 0.4374 0.4370 0.4370 0.4359
8.379390 0.4334 0.4299 0.4225 0.4112 0.4036
8.412460 0.4011 0.3991 0.3980 0.3980 0.3966
8.445530 0.3925 0.3908 0.3902 0.3914 0.3939
8.478600 0.3995 0.4082 0.4163 0.4262 0.4366
8.511670 0.4464 0.4559 0.4636 0.4695 0.4753
8.544740 0.4804 0.4892 0.4990 0.5049 0.5121
8.577810 0.5151 0.5219 0.5269 0.5299 0.5337
8.610880 0.5358 0.5369 0.5388 0.5416 0.5435
8.643950 0.5462 0.5484 0.5490 0.5490 0.5503
8.677020 0.5516 0.5520 0.5520 0.5520 0.5520
8.710090 0.5520 0.5520 0.5503 0.5479 0.5454
8.743160 0.5414 0.5365 0.5274 0.5173 0.5092
8.776230 0.4987 0.4864 0.4720 0.4665 0.4650
8.809300 0.4674 0.4750 0.4750 0.4748 0.4740
8.842370 0.4730 0.4673 0.4584 0.4490 0.4420
8.875440 0.4342 0.4277 0.4247 0.4196 0.4128
8.908510 0.4065 0.3998 0.3958 0.3900 0.3880
8.941580 0.3860 0.3879 0.4021 0.4159 0.4242
8.974650 0.4307 0.4382 0.4461 0.4517 0.4566
9.007720 0.4608 0.4641 0.4663 0.4683 0.4696
9.040790 0.4713 0.4720 0.4733 0.4740 0.4746
9.073860 0.4750 0.4761 0.4770 0.4770 0.4760
9.106930 0.4737 0.4709 0.4669 0.4596 0.4495
9.140000 0.4375 0.4245 0.4172 0.4150 0.4154
9.173070 0.4183 0.4247 0.4318 0.4405 0.4515
9.206140 0.4599 0.4699 0.4759 0.4826 0.4873
9.239210 0.4902 0.4929 0.4995 0.5047 0.5121
9.272280 0.5140 0.5139 0.5120 0.5071 0.5051
9.305350 0.4974 0.4884 0.4812 0.4760 0.4711
9.338420 0.4715 0.4735 0.4813 0.4897 0.4969
9.371490 0.5010 0.5055 0.5091 0.5093 0.5064
9.404560 0.5018 0.4994 0.4936 0.4894 0.4890
9.437630 0.4895 0.4939 0.5027 0.5098 0.5136
9.470700 0.5160 0.5180 0.5190 0.5190 0.5194
9.503770 0.5200 0.5200 0.5200 0.5206 0.5225
9.536840 0.5247 0.5285 0.5350 0.5403 0.5468
9.569910 0.5510 0.5511 0.5523 0.5544 0.5575
9.602980 0.5611 0.5619 0.5610 0.5607 0.5560
9.636050 0.5560 0.5540 0.5522 0.5537 0.5583
9.669120 0.5607 0.5618 0.5636 0.5663 0.5685
9.702190 0.5712 0.5749 0.5767 0.5785 0.5790
9.735260 0.5811 0.5834 0.5840 0.5840 0.5827
9.768330 0.5802 0.5778 0.5764 0.5748 0.5728
9.801400 0.5714 0.5699 0.5701 0.5715 0.5720
9.834470 0.5730 0.5740 0.5761 0.5797 0.5810
9.867540 0.5810 0.5813 0.5820 0.5820 0.5825
9.900610 0.5844 0.5866 0.5899 0.5944 0.5962
9.933680 0.5974 0.5990 0.5990 0.5988 0.5965
9.966750 0.5916 0.5868 0.5840 0.5840 0.5840
9.999820 0.5858 0.5860 0.5886 0.5907 0.5935
10.032890 0.5980 0.6045 0.6098 0.6190 0.6226
10.065960 0.6230 0.6215 0.6195 0.6183 0.6117
10.099030 0.6036 0.5918 0.5787 0.5641 0.5557
10.132100 0.5456 0.5379 0.5348 0.5299 0.5259
10.165170 0.5272 0.5327 0.5386 0.5455 0.5522
10.198240 0.5566 0.5621 0.5650 0.5698 0.5769
10.231310 0.5798 0.5825 0.5845 0.5867 0.5908
10.264380 0.5979 0.6049 0.6082 0.6090 0.6090
10.297450 0.6093 0.6110 0.6112 0.6128 0.6097
10.330520 0.6002 0.5924 0.5762 0.5665 0.5587
10.363590 0.5519 0.5470 0.5460 0.5460 0.5486
10.396660 0.5549 0.5585 0.5614 0.5651 0.5660
10.429730 0.5630 0.5613 0.5575 0.5443 0.5369
10.462800 0.5310 0.5193 0.5143 0.5140 0.5146
10.495870 0.5162 0.5200 0.5260 0.5296 0.5310
10.528940 0.5337 0.5364 0.5378 0.5382 0.5359
10.562010 0.5326 0.5284 0.5247 0.5240 0.5243
10.595080 0.5262 0.5310 0.5376 0.5443 0.5512
10.628150 0.5539 0.5612 0.5623 0.5648 0.5694
10.661220 0.5729 0.5773 0.5793 0.5810 0.5810
10.694290 0.5810 0.5807 0.5768 0.5718 0.5660
10.727360 0.5624 0.5611 0.5549 0.5481 0.5420
10.760430 0.5370 0.5289 0.5231 0.5167 0.5113
10.793500 0.5039 0.5020 0.5072 0.5126 0.5140
10.826570 0.5140 0.5147 0.5150 0.5131 0.5102
10.859640 0.5068 0.5036 0.5011 0.5000 0.5000
10.892710 0.5008 0.5028 0.5058 0.5128 0.5216
10.925780 0.5263 0.5325 0.5417 0.5483 0.5525
10.958850 0.5577 0.5651 0.5747 0.5774 0.5794
10.991920 0.5810 0.5812 0.5820 0.5811 0.5756
11.024990 0.5687 0.5666 0.5637 0.5601 0.5505
11.058060 0.5437 0.5392 0.5371 0.5388 0.5435
11.091130 0.5466 0.5487 0.5549 0.5601 0.5634
11.124200 0.5734 0.5760 0.5784 0.5790 0.5805
11.157270 0.5817 0.5835 0.5826 0.5813 0.5783
11.190340 0.5737 0.5679 0.5646 0.5607 0.5513
11.223410 0.5420 0.5330 0.5209 0.5077 0.5004
11.256480 0.4938 0.4797 0.4646 0.4542 0.4440
11.289550 0.4356 0.4320 0.4300 0.4291 0.4270
11.322620 0.4265 0.4250 0.4255 0.4273 0.4280
11.355690 0.4274 0.4236 0.4175 0.4142 0.4097
11.388760 0.4076 0.4048 0.4030 0.4069 0.4099
11.421830 0.4166 0.4262 0.4297 0.4362 0.4465
11.454900 0.4522 0.4588 0.4660 0.4755 0.4812
11.487970 0.4877 0.4969 0.5013 0.5043 0.5079
11.521040 0.5112 0.5141 0.5179 0.5212 0.5234
11.554110 0.5274 0.5310 0.5346 0.5366 0.5382
11.587180 0.5437 0.5481 0.5490 0.5503 0.5529
11.620250 0.5540 0.5548 0.5564 0.5584 0.5613
11.653320 0.5626 0.5646 0.5663 0.5676 0.5696
11.686390 0.5713 0.5725 0.5745 0.5767 0.5796
11.719460 0.5824 0.5840 0.5843 0.5860 0.5860
11.752530 0.5870 0.5939 0.5969 0.5989 0.5990
11.785600 0.6008 0.6028 0.6039 0.6058 0.6087
11.818670 0.6090 0.6081 0.6080 0.6080 0.6088
11.851740 0.6106 0.6148 0.6160 0.6160 0.6160
11.884810 0.6145 0.6103 0.6069 0.6046 0.6006
11.917880 0.5911 0.5851 0.5791 0.5738 0.5720
11.950950 0.5715 0.5701 0.5699 0.5714 0.5720
11.984020 0.5735 0.5771 0.5800 0.5834 0.5864
12.017090 0.5887 0.5936 0.5982 0.6019 0.6051
12.050160 0.6088 0.6115 0.6132 0.6140 0.6140
12.083230 0.6144 0.6160 0.6164 0.6182 0.6193
12.116300 0.6212 0.6231 0.6240 0.6241 0.6259
12.149370 0.6260 0.6279 0.6289 0.6308 0.6310
12.182440 0.6310 0.6293 0.6290 0.6282 0.6264
12.215510 0.6235 0.6198 0.6167 0.6145 0.6103
12.248580 0.6083 0.6066 0.6060 0.6073 0.6086
12.281650 0.6090 0.6100 0.6120 0.6135 0.6159
12.314720 0.6184 0.6199 0.6218 0.6234 0.6256
12.347790 0.6292 0.6318 0.6334 0.6340 0.6340
12.380860 0.6340 0.6346 0.6366 0.6383 0.6400
12.413930 0.6430 0.6419 0.6390 0.6390 0.6390
12.447000 0.6390 0.6390 0.6393 0.6413 0.6430
12.480070 0.6430 0.6410 0.6410 0.6391 0.6390
12.513140 0.6408 0.6455 0.6478 0.6480 0.6488
12.546210 0.6508 0.6527 0.6530 0.6538 0.6556
12.579280 0.6560 0.6575 0.6580 0.6580 0.6587
12.612350 0.6590 0.6590 0.6584 0.6585 0.6590
12.645420 0.6590 0.6590 0.6599 0.6619 0.6630
12.678490 0.6621 0.6610 0.6610 0.6610 0.6602
12.711560 0.6586 0.6565 0.6537 0.6523 0.6479
12.744630 0.6373 0.6253 0.6142 0.6031 0.5946
12.777700 0.5900 0.5868 0.5860 0.5852 0.5820
12.810770 0.5819 0.5811 0.5822 0.5861 0.5910
12.843840 0.5969 0.6008 0.6057 0.6134 0.6176
12.876910 0.6207 0.6275 0.6289 0.6308 0.6327
12.909980 0.6381 0.6423 0.6438 0.6440 0.6471
12.943050 0.6488 0.6522 0.6530 0.6538 0.6555
12.976120 0.6575 0.6587 0.6624 0.6653 0.6673
13.009190 0.6693 0.6700 0.6690 0.6680 0.6671
13.042260 0.6651 0.6640 0.6640 0.6648 0.6660
13.075330 0.6667 0.6687 0.6700 0.6704 0.6710
13.108400 0.6716 0.6736 0.6750 0.6753 0.6760
13.141470 0.6771 0.6814 0.6830 0.6828 0.6809
13.174540 0.6799 0.6781 0.6800 0.6810 0.6829
13.207610 0.6849 0.6850 0.6860 0.6860 0.6851
13.240680 0.6813 0.6810 0.6828 0.6830 0.6855
13.273750 0.6901 0.6926 0.6930 0.6930 0.6906
13.306820 0.6868 0.6860 0.6860 0.6860 0.6860
13.339890 0.6860 0.6853 0.6838 0.6830 0.6830
13.372960 0.6820 0.6805 0.6790 0.6771 0.6747
13.406030 0.6722 0.6710 0.6710 0.6719 0.6722
13.439100 0.6710 0.6710 0.6717 0.6740 0.6772
13.472170 0.6803 0.6815 0.6830 0.6835 0.6863
13.505240 0.6882 0.6901 0.6910 0.6908 0.6880
13.538310 0.6880 0.6880 0.6880 0.6881 0.6910
13.571380 0.6949 0.6950 0.6959 0.6960 0.6978
13.604450 0.6980 0.6980 0.6980 0.7007 0.7028
13.637520 0.7030 0.7013 0.7010 0.7026 0.7030
13.670590 0.7030 0.7045 0.7050 0.7050 0.7026
13.703660 0.7010 0.7010 0.7032 0.7055 0.7055
13.736730 0.7050 0.7050 0.7041 0.7030 0.7030
13.769800 0.7030 0.7039 0.7050 0.7054 0.7068
13.802870 0.7091 0.7117 0.7136 0.7150 0.7150
13.835940 0.7150 0.7150 0.7150 0.7150 0.7145
13.869010 0.7130 0.7134 0.7150 0.7152 0.7160
13.902080 0.7161 0.7181 0.7200 0.7200 0.7161
13.935150 0.7160 0.7179 0.7198 0.7200 0.7200
13.968220 0.7209 0.7228 0.7248 0.7233 0.7230
14.001290 0.7230 0.7230 0.7214 0.7210 0.7210
14.034360 0.7223 0.7230 0.7242 0.7250 0.7239
14.067430 0.7219 0.7205 0.7200 0.7200 0.7200
14.100500 0.7200 0.7190 0.7194 0.7210 0.7210
14.133570 0.7210 0.7210 0.7210 0.7206 0.7200
14.166640 0.7200 0.7193 0.7180 0.7187 0.7200
14.199710 0.7200 0.7203 0.7215 0.7230 0.7226
14.232780 0.7209 0.7198 0.7178 0.7159 0.7151
14.265850 0.7180 0.7180 0.7160 0.7150 0.7150
14.298920 0.7130 0.7130 0.7101 0.7007 0.6845
14.331990 0.6803 0.6739 0.6670 0.6635 0.6614
14.365060 0.6595 0.6569 0.6540 0.6530 0.6517
14.398130 0.6510 0.6522 0.6536 0.6551 0.6560
14.431200 0.6571 0.6580 0.6585 0.6590 0.6600
14.464270 0.6625 0.6673 0.6719 0.6739 0.6754
14.497340 0.6777 0.6804 0.6818 0.6842 0.6868
14.530410 0.6887 0.6903 0.6923 0.6950 0.6950
14.563480 0.6945 0.6930 0.6927 0.6909 0.6898
14.596550 0.6877 0.6850 0.6849 0.6829 0.6810
14.629620 0.6800 0.6747 0.6659 0.6590 0.6580
14.662690 0.6513 0.6444 0.6320 0.6283 0.6174
14.695760 0.6091 0.6049 0.5988 0.5934 0.5899
14.728830 0.5870 0.5860 0.5860 0.5866 0.5882
14.761900 0.5931 0.5978 0.6002 0.6052 0.6097
14.794970 0.6138 0.6176 0.6236 0.6285 0.6309
14.828040 0.6335 0.6382 0.6435 0.6459 0.6502
14.861110 0.6543 0.6568 0.6584 0.6597 0.6617
14.894180 0.6633 0.6646 0.6664 0.6684 0.6702
14.927250 0.6710 0.6715 0.6750 0.6751 0.6760
14.960320 0.6761 0.6780 0.6780 0.6780 0.6780
14.993390 0.6780
##END=
