##TITLE=17Alpha-HYDROXYPREGNA-4-ENE-3,20-DIONE
##JCAMP-DX=4.24
##DATA TYPE=INFRARED SPECTRUM
##CLASS=COBLENTZ III
##ORIGIN=THE WORCESTER FOUNDATION FOR EXPERIMENTAL BIOLOGY, Neal L. McNiven
##OWNER=COBLENTZ SOCIETY
Collection (C) 2018 copyright by the U.S. Secretary of Commerce
on behalf of the United States of America. All rights reserved.
##DATE=1963/01/31
##NAMES=17-hydroxypregn-4-ene-3,20-dione
##CAS REGISTRY NO=604-09-1
##MOLFORM=C21 H30 O3
##SOURCE REFERENCE=COBLENTZ NO. 5437
##$NIST SOURCE=COBLENTZ
##$NIST IMAGE=cob5437
##SPECTROMETER/DATA SYSTEM=BECKMAN IR-7
##STATE=SOLID (KBr DISC)
##SAMPLING PROCEDURE=TRANSMISSION
##RESOLUTION=4
##DATA PROCESSING=DIGITIZED BY NIST FROM HARD COPY (FROM TWO SEGMENTS)
##XUNITS=1/CM
##YUNITS=TRANSMITTANCE
##XFACTOR=1.000000
##YFACTOR=1
##DELTAX=0.729927
##FIRSTX=635.036
##LASTX=4000.73
##FIRSTY=0.701
##MAXX=4000.73
##MINX=635.036
##MAXY=0.944
##MINY=0.0340024
##NPOINTS=4612
##XYDATA=(X++(Y..Y))
635.036000 0.7010 0.7030 0.7050 0.7050 0.7060
638.685636 0.7080 0.7090 0.7120 0.7210 0.7280
642.335273 0.7320 0.7400 0.7480 0.7490 0.7590
645.984909 0.7769 0.7810 0.7840 0.7870 0.7900
649.634545 0.7950 0.7980 0.8050 0.8090 0.8110
653.284182 0.8120 0.8140 0.8150 0.8170 0.8200
656.933818 0.8220 0.8240 0.8280 0.8310 0.8320
660.583455 0.8320 0.8330 0.8340 0.8340 0.8350
664.233091 0.8350 0.8350 0.8350 0.8340 0.8270
667.882727 0.8190 0.8061 0.8040 0.8060 0.8149
671.532364 0.8160 0.8450 0.8480 0.8500 0.8510
675.182000 0.8510 0.8510 0.8500 0.8490 0.8480
678.831636 0.8460 0.8400 0.8310 0.8180 0.7891
682.481273 0.7790 0.7611 0.7600 0.7610 0.7640
686.130909 0.7740 0.7830 0.7980 0.8160 0.8320
689.780545 0.8440 0.8460 0.8669 0.8710 0.8710
693.430182 0.8670 0.8660 0.8560 0.8480 0.8390
697.079818 0.8290 0.8220 0.8120 0.8030 0.7931
700.729455 0.7740 0.7740 0.7740 0.7880 0.8259
704.379091 0.8330 0.8420 0.8520 0.8600 0.8699
708.028727 0.8750 0.8820 0.8880 0.8930 0.8970
711.678364 0.9000 0.9020 0.9030 0.9040 0.9050
715.328000 0.9050 0.9050 0.9060 0.9070 0.9070
718.977636 0.9080 0.9110 0.9120 0.9150 0.9170
722.627273 0.9170 0.9170 0.9160 0.9160 0.9160
726.276909 0.9150 0.9150 0.9150 0.9150 0.9150
729.926545 0.9160 0.9160 0.9170 0.9170 0.9180
733.576182 0.9180 0.9180 0.9170 0.9170 0.9180
737.225818 0.9170 0.9170 0.9170 0.9170 0.9170
740.875455 0.9170 0.9170 0.9170 0.9170 0.9160
744.525091 0.9150 0.9130 0.9120 0.9120 0.9100
748.174727 0.9070 0.9030 0.9000 0.8990 0.9000
751.824364 0.9020 0.9040 0.9050 0.9080 0.9090
755.474000 0.9110 0.9130 0.9130 0.9140 0.9140
759.123636 0.9150 0.9150 0.9150 0.9150 0.9150
762.773273 0.9150 0.9150 0.9150 0.9150 0.9160
766.422909 0.9160 0.9160 0.9170 0.9170 0.9160
770.072545 0.9150 0.9140 0.9140 0.9130 0.9130
773.722182 0.9120 0.9120 0.9120 0.9120 0.9110
777.371818 0.9090 0.9040 0.8980 0.8900 0.8811
781.021455 0.8720 0.8620 0.8510 0.8410 0.8320
784.671091 0.8111 0.7990 0.7980 0.7990 0.8070
788.320727 0.8160 0.8410 0.8510 0.8590 0.8670
791.970364 0.8780 0.8870 0.8930 0.8980 0.9010
795.620000 0.9030 0.9040 0.9050 0.9060 0.9070
799.269636 0.9070 0.9070 0.9060 0.9050 0.9040
802.919273 0.9000 0.8950 0.8910 0.8890 0.8880
806.568909 0.8880 0.8880 0.8890 0.8910 0.8920
810.218545 0.8950 0.8970 0.8980 0.8990 0.8970
813.868182 0.8960 0.8930 0.8930 0.8920 0.8910
817.517818 0.8880 0.8850 0.8800 0.8750 0.8720
821.167455 0.8720 0.8720 0.8760 0.8790 0.8830
824.817091 0.8850 0.8870 0.8930 0.8950 0.8960
828.466727 0.8980 0.8990 0.8990 0.9000 0.8990
832.116364 0.8980 0.8970 0.8940 0.8900 0.8840
835.766000 0.8760 0.8660 0.8511 0.8430 0.8311
839.415636 0.8190 0.8070 0.7860 0.7860 0.8030
843.065273 0.8209 0.8399 0.8480 0.8619 0.8710
846.714909 0.8750 0.8790 0.8830 0.8840 0.8850
850.364545 0.8850 0.8850 0.8850 0.8850 0.8850
854.014182 0.8850 0.8850 0.8850 0.8840 0.8820
857.663818 0.8790 0.8770 0.8730 0.8700 0.8640
861.313455 0.8550 0.8480 0.8420 0.8380 0.8350
864.963091 0.8320 0.8310 0.8300 0.8290 0.8270
868.612727 0.8250 0.8220 0.8190 0.8140 0.8060
872.262364 0.7990 0.7900 0.7810 0.7720 0.7630
875.912000 0.7550 0.7290 0.6840 0.6391 0.5941
879.561636 0.5461 0.4892 0.4830 0.4830 0.4890
883.211273 0.4900 0.4900 0.4870 0.4800 0.4601
886.860909 0.4470 0.4321 0.4320 0.4360 0.5026
890.510545 0.5400 0.5720 0.6039 0.6339 0.6629
894.160182 0.6889 0.7149 0.7369 0.7579 0.7769
897.809818 0.7880 0.8010 0.8090 0.8130 0.8130
901.459455 0.8110 0.7970 0.7940 0.7900 0.7870
905.109091 0.7600 0.7480 0.7350 0.7230 0.7100
908.758727 0.7100 0.7200 0.7280 0.7429 0.7549
912.408364 0.7750 0.7950 0.7960 0.8030 0.8050
916.058000 0.8060 0.8060 0.8020 0.7851 0.7671
919.707636 0.7420 0.7160 0.6920 0.6671 0.6411
923.357273 0.6400 0.6410 0.6490 0.6540 0.6600
927.006909 0.6590 0.6550 0.6510 0.6390 0.6250
930.656545 0.6140 0.6120 0.6130 0.6409 0.6669
934.306182 0.6880 0.7030 0.7160 0.7250 0.7320
937.955818 0.7370 0.7420 0.7480 0.7550 0.7649
941.605455 0.7650 0.7660 0.7650 0.7530 0.7500
945.255091 0.7390 0.7231 0.7031 0.6841 0.6651
948.904727 0.6630 0.6630 0.6730 0.6840 0.6870
952.554364 0.6920 0.6920 0.6532 0.6411 0.6281
956.204000 0.6170 0.6040 0.6040 0.6180 0.6330
959.853636 0.6470 0.6610 0.6749 0.6850 0.7039
963.503273 0.7180 0.7180 0.7170 0.7030 0.6920
967.152909 0.6800 0.6790 0.6800 0.6969 0.7020
970.802545 0.7180 0.7340 0.7500 0.7650 0.7780
974.452182 0.7870 0.7950 0.7960 0.8010 0.8010
978.101818 0.8010 0.8010 0.7960 0.7930 0.7900
981.751455 0.7860 0.7820 0.7740 0.7640 0.7501
985.401091 0.7320 0.7070 0.6760 0.6580 0.6570
989.050727 0.6580 0.6899 0.7159 0.7369 0.7539
992.700364 0.7680 0.7790 0.7870 0.7940 0.7990
996.350000 0.8030 0.8060 0.8080 0.8100 0.8130
999.999636 0.8160 0.8160 0.8170 0.8140 0.8010
1003.649273 0.7970 0.7930 0.7870 0.7870 0.7870
1007.298909 0.7920 0.7950 0.8000 0.8050 0.8110
1010.948545 0.8130 0.8140 0.8130 0.8040 0.8020
1014.598182 0.7970 0.7930 0.7900 0.7870 0.7850
1018.247818 0.7790 0.7780 0.7750 0.7730 0.7700
1021.897455 0.7680 0.7650 0.7630 0.7620 0.7610
1025.547091 0.7610 0.7630 0.7670 0.7720 0.7750
1029.196727 0.7820 0.7870 0.7880 0.7960 0.7980
1032.846364 0.8010 0.8020 0.8030 0.8010 0.7980
1036.496000 0.7950 0.7920 0.7900 0.7870 0.7840
1040.145636 0.7810 0.7740 0.7740 0.7740 0.7790
1043.795273 0.7820 0.7840 0.7850 0.7870 0.7900
1047.444909 0.7900 0.7900 0.7900 0.7880 0.7820
1051.094545 0.7740 0.7640 0.7550 0.7480 0.7450
1054.744182 0.7370 0.7290 0.7260 0.7290 0.7310
1058.393818 0.7350 0.7400 0.7410 0.7410 0.7400
1062.043455 0.7300 0.7260 0.6891 0.6771 0.6680
1065.693091 0.6570 0.6560 0.6570 0.6840 0.7010
1069.342727 0.7190 0.7210 0.7210 0.7190 0.7021
1072.992364 0.6950 0.6890 0.6680 0.6510 0.6331
1076.642000 0.6310 0.6330 0.6469 0.6629 0.6759
1080.291636 0.6900 0.7000 0.7180 0.7230 0.7260
1083.941273 0.7290 0.7300 0.7290 0.7280 0.7280
1087.590909 0.7290 0.7290 0.7240 0.7050 0.6791
1091.240545 0.6461 0.6271 0.6071 0.5861 0.5651
1094.890182 0.5450 0.5250 0.5030 0.5030 0.5209
1098.539818 0.5379 0.5559 0.5719 0.5899 0.6069
1102.189455 0.6250 0.6360 0.6470 0.6530 0.6530
1105.839091 0.6500 0.6440 0.6400 0.6390 0.6390
1109.488727 0.6420 0.6470 0.6460 0.6360 0.6280
1113.138364 0.6210 0.6180 0.6180 0.6170 0.6120
1116.788000 0.6020 0.5780 0.5490 0.5190 0.4891
1120.437636 0.4561 0.4321 0.4310 0.4320 0.4330
1124.087273 0.4430 0.4490 0.4560 0.4610 0.4789
1127.736909 0.4900 0.4980 0.5040 0.5130 0.5249
1131.386545 0.5530 0.5780 0.5860 0.6040 0.6200
1135.036182 0.6200 0.6290 0.6260 0.6151 0.6080
1138.685818 0.6000 0.5940 0.5840 0.5840 0.6059
1142.335455 0.6160 0.6309 0.6449 0.6788 0.6939
1145.985091 0.7180 0.7350 0.7470 0.7530 0.7580
1149.634727 0.7610 0.7620 0.7650 0.7690 0.7710
1153.284364 0.7710 0.7710 0.7710 0.7720 0.7740
1156.934000 0.7750 0.7780 0.7800 0.7810 0.7810
1160.583636 0.7810 0.7800 0.7790 0.7790 0.7770
1164.233273 0.7770 0.7760 0.7750 0.7740 0.7730
1167.882909 0.7720 0.7710 0.7680 0.7630 0.7550
1171.532545 0.7460 0.7360 0.7250 0.7131 0.7011
1175.182182 0.6880 0.6730 0.6570 0.6410 0.6230
1178.831818 0.6040 0.5831 0.5611 0.5401 0.5201
1182.481455 0.5030 0.4890 0.4790 0.4660 0.4660
1186.131091 0.4660 0.4650 0.4620 0.4580 0.4481
1189.780727 0.4190 0.3900 0.3890 0.3900 0.3990
1193.430364 0.4209 0.4409 0.4609 0.4799 0.4929
1197.080000 0.4970 0.4970 0.4980 0.4990 0.5090
1200.729636 0.5180 0.5260 0.5260 0.5160 0.5011
1204.379273 0.4880 0.4501 0.4450 0.4260 0.4230
1208.028909 0.4230 0.4369 0.4888 0.5178 0.5478
1211.678545 0.5590 0.5710 0.5750 0.5770 0.5800
1215.328182 0.5840 0.5920 0.6030 0.6587 0.6739
1218.977818 0.6760 0.6790 0.6800 0.6790 0.6700
1222.627455 0.6570 0.6450 0.6281 0.5912 0.5701
1226.277091 0.5320 0.4450 0.4200 0.3950 0.3710
1229.926727 0.3471 0.3470 0.3520 0.3948 0.4288
1233.576364 0.4580 0.4630 0.4680 0.5069 0.5339
1237.226000 0.5350 0.5350 0.5221 0.5150 0.5090
1240.875636 0.5040 0.4980 0.4970 0.4960 0.4960
1244.525273 0.4940 0.4930 0.4870 0.4850 0.4860
1248.174909 0.4980 0.5170 0.5310 0.5430 0.5510
1251.824545 0.5580 0.5620 0.5620 0.5660 0.5710
1255.474182 0.5800 0.5940 0.6200 0.6550 0.6760
1259.123818 0.6940 0.6950 0.6950 0.6930 0.6751
1262.773455 0.6700 0.6450 0.6041 0.5801 0.5541
1266.423091 0.5271 0.5270 0.5449 0.5619 0.5799
1270.072727 0.5940 0.6010 0.6280 0.6440 0.6440
1273.722364 0.6430 0.6191 0.5971 0.5671 0.5481
1277.372000 0.5240 0.5140 0.4980 0.4980 0.5190
1281.021636 0.5489 0.5719 0.5959 0.6199 0.6409
1284.671273 0.6570 0.6650 0.6680 0.6740 0.6840
1288.320909 0.7019 0.7120 0.7438 0.7490 0.7729
1291.970545 0.7740 0.7740 0.7740 0.7730 0.7720
1295.620182 0.7570 0.7470 0.7351 0.7241 0.7121
1299.269818 0.6890 0.6890 0.6890 0.6970 0.7050
1302.919455 0.7220 0.7389 0.7549 0.7729 0.7790
1306.569091 0.7920 0.8010 0.8090 0.8140 0.8210
1310.218727 0.8210 0.8220 0.8220 0.8210 0.8200
1313.868364 0.8190 0.8160 0.8130 0.8060 0.7980
1317.518000 0.7900 0.7830 0.7770 0.7710 0.7690
1321.167636 0.7480 0.7370 0.7310 0.7240 0.7140
1324.817273 0.6961 0.6651 0.6540 0.6152 0.5871
1328.466909 0.5620 0.5530 0.5390 0.5350 0.5350
1332.116545 0.5380 0.5699 0.5889 0.6099 0.6309
1335.766182 0.6320 0.6320 0.6310 0.6250 0.6140
1339.415818 0.6000 0.5850 0.5701 0.5571 0.5480
1343.065455 0.5430 0.5180 0.5020 0.4352 0.4161
1346.715091 0.3981 0.3811 0.3631 0.3451 0.3271
1350.364727 0.3220 0.3090 0.3090 0.3310 0.3410
1354.014364 0.3550 0.3580 0.3590 0.3600 0.3600
1357.664000 0.3650 0.3680 0.3730 0.3790 0.3860
1361.313636 0.3950 0.4050 0.4160 0.4289 0.4419
1364.963273 0.4560 0.4700 0.4850 0.4990 0.5140
1368.612909 0.5270 0.5399 0.5480 0.5490 0.5490
1372.262545 0.5460 0.5230 0.5140 0.5030 0.4930
1375.912182 0.4830 0.4770 0.4760 0.4740 0.4700
1379.561818 0.4660 0.4620 0.4610 0.4610 0.4660
1383.211455 0.4720 0.4830 0.4959 0.5189 0.5479
1386.861091 0.5730 0.5990 0.6250 0.6470 0.6640
1390.510727 0.6770 0.6880 0.6960 0.7020 0.7060
1394.160364 0.7100 0.7130 0.7160 0.7190 0.7210
1397.810000 0.7240 0.7240 0.7220 0.7210 0.7160
1401.459636 0.7140 0.7130 0.7080 0.7020 0.7000
1405.109273 0.6950 0.6761 0.6650 0.6590 0.6550
1408.758909 0.6500 0.6410 0.6260 0.6020 0.5641
1412.408545 0.5102 0.5010 0.4900 0.4800 0.4691
1416.058182 0.4580 0.4480 0.4370 0.4370 0.4450
1419.707818 0.4530 0.4610 0.4690 0.4730 0.4849
1423.357455 0.4940 0.5010 0.5010 0.5010 0.4960
1427.007091 0.4940 0.4741 0.4640 0.4501 0.4371
1430.656727 0.3990 0.3990 0.4060 0.4130 0.4260
1434.306364 0.4380 0.4639 0.5018 0.5408 0.5460
1437.956000 0.5460 0.5430 0.5390 0.5340 0.5250
1441.605636 0.5170 0.5160 0.5170 0.5180 0.5200
1445.255273 0.5210 0.5220 0.5270 0.5380 0.5540
1448.904909 0.5650 0.5750 0.5750 0.5740 0.5670
1452.554545 0.5560 0.5360 0.5270 0.5190 0.5190
1456.204182 0.5180 0.5190 0.5319 0.5449 0.5520
1459.853818 0.5820 0.5990 0.6100 0.6200 0.6310
1463.503455 0.6390 0.6450 0.6530 0.6540 0.6520
1467.153091 0.6440 0.6420 0.6390 0.6390 0.6390
1470.802727 0.6520 0.6600 0.6710 0.6760 0.6840
1474.452364 0.6970 0.7120 0.7270 0.7430 0.7560
1478.102000 0.7670 0.7740 0.7849 0.7949 0.8030
1481.751636 0.8090 0.8150 0.8200 0.8240 0.8270
1485.401273 0.8310 0.8340 0.8370 0.8400 0.8430
1489.050909 0.8440 0.8460 0.8490 0.8500 0.8500
1492.700545 0.8510 0.8510 0.8510 0.8510 0.8510
1496.350182 0.8510 0.8520 0.8540 0.8590 0.8590
1499.999818 0.8600 0.8610 0.8620 0.8640 0.8640
1503.649455 0.8650 0.8660 0.8670 0.8670 0.8670
1507.299091 0.8680 0.8680 0.8680 0.8680 0.8680
1510.948727 0.8690 0.8690 0.8690 0.8690 0.8690
1514.598364 0.8700 0.8700 0.8700 0.8700 0.8700
1518.248000 0.8700 0.8700 0.8700 0.8700 0.8700
1521.897636 0.8700 0.8710 0.8710 0.8700 0.8700
1525.547273 0.8690 0.8690 0.8690 0.8670 0.8660
1529.196909 0.8640 0.8630 0.8630 0.8620 0.8620
1532.846545 0.8610 0.8610 0.8610 0.8610 0.8600
1536.496182 0.8600 0.8600 0.8600 0.8590 0.8590
1540.145818 0.8590 0.8600 0.8600 0.8600 0.8610
1543.795455 0.8600 0.8600 0.8590 0.8590 0.8580
1547.445091 0.8570 0.8560 0.8550 0.8540 0.8540
1551.094727 0.8540 0.8520 0.8510 0.8510 0.8500
1554.744364 0.8480 0.8480 0.8480 0.8470 0.8460
1558.394000 0.8450 0.8420 0.8380 0.8340 0.8290
1562.043636 0.8230 0.8180 0.8130 0.8090 0.8040
1565.693273 0.8020 0.8010 0.8010 0.7980 0.7950
1569.342909 0.7940 0.7930 0.7950 0.7950 0.7970
1572.992545 0.7980 0.7980 0.7980 0.7980 0.7980
1576.642182 0.7980 0.7950 0.7930 0.7900 0.7870
1580.291818 0.7850 0.7820 0.7800 0.7770 0.7750
1583.941455 0.7730 0.7710 0.7690 0.7660 0.7640
1587.591091 0.7620 0.7600 0.7580 0.7550 0.7530
1591.240727 0.7510 0.7480 0.7450 0.7460 0.7450
1594.890364 0.7410 0.7350 0.7270 0.7170 0.7051
1598.540000 0.6920 0.6760 0.6580 0.6390 0.6190
1602.189636 0.5961 0.5731 0.5481 0.5221 0.4931
1605.839273 0.4640 0.4350 0.4030 0.3710 0.3530
1609.488909 0.3520 0.3530 0.3660 0.3750 0.3840
1613.138545 0.3950 0.4190 0.4420 0.4630 0.4819
1616.788182 0.4989 0.5139 0.5279 0.5409 0.5519
1620.437818 0.5620 0.5720 0.5800 0.5870 0.5940
1624.087455 0.5990 0.6020 0.6020 0.6020 0.5970
1627.737091 0.5910 0.5840 0.5700 0.5590 0.5500
1631.386727 0.5490 0.5470 0.5380 0.5191 0.4981
1635.036364 0.4750 0.4510 0.4270 0.4030 0.3810
1638.686000 0.3610 0.3450 0.3320 0.3151 0.3130
1642.335636 0.3120 0.3120 0.3100 0.3100 0.3070
1645.985273 0.3030 0.2990 0.2940 0.2910 0.2910
1649.634909 0.2910 0.2750 0.2440 0.2081 0.1701
1653.284545 0.1371 0.1141 0.0861 0.0611 0.0590
1656.934182 0.0570 0.0540 0.0490 0.0430 0.0350
1660.583818 0.0340 0.0350 0.0400 0.0450 0.0490
1664.233455 0.0570 0.0580 0.0580 0.0590 0.0630
1667.883091 0.0660 0.0710 0.0760 0.0840 0.0939
1671.532727 0.1050 0.1170 0.1300 0.1440 0.1590
1675.182364 0.1740 0.1899 0.2049 0.2199 0.2349
1678.832000 0.2490 0.2620 0.2780 0.3030 0.3120
1682.481636 0.3409 0.3679 0.3949 0.4179 0.4399
1686.131273 0.4590 0.4750 0.4890 0.4990 0.5000
1689.780909 0.5000 0.4990 0.4831 0.4820 0.4651
1693.430545 0.4560 0.4111 0.3761 0.3231 0.2572
1697.080182 0.2201 0.1841 0.1482 0.1122 0.1120
1700.729818 0.1380 0.1640 0.1900 0.2140 0.2399
1704.379455 0.2609 0.2660 0.3148 0.3449 0.3739
1708.029091 0.4070 0.4370 0.4640 0.4890 0.5110
1711.678727 0.5329 0.5529 0.5709 0.5879 0.6039
1715.328364 0.6210 0.6360 0.6520 0.6680 0.6850
1718.978000 0.6950 0.7050 0.7070 0.7200 0.7319
1722.627636 0.7420 0.7500 0.7580 0.7660 0.7720
1726.277273 0.7770 0.7820 0.7870 0.7900 0.7940
1729.926909 0.7970 0.8010 0.8030 0.8060 0.8090
1733.576545 0.8110 0.8110 0.8120 0.8140 0.8170
1737.226182 0.8190 0.8200 0.8200 0.8210 0.8210
1740.875818 0.8220 0.8220 0.8220 0.8220 0.8220
1744.525455 0.8240 0.8250 0.8270 0.8300 0.8340
1748.175091 0.8380 0.8430 0.8480 0.8530 0.8580
1751.824727 0.8630 0.8670 0.8720 0.8750 0.8770
1755.474364 0.8790 0.8810 0.8830 0.8850 0.8860
1759.124000 0.8880 0.8900 0.8910 0.8930 0.8940
1762.773636 0.8960 0.8980 0.8990 0.9010 0.9030
1766.423273 0.9040 0.9040 0.9050 0.9050 0.9050
1770.072909 0.9050 0.9060 0.9070 0.9080 0.9090
1773.722545 0.9100 0.9100 0.9100 0.9110 0.9110
1777.372182 0.9120 0.9120 0.9130 0.9150 0.9150
1781.021818 0.9150 0.9160 0.9160 0.9160 0.9160
1784.671455 0.9170 0.9170 0.9170 0.9170 0.9170
1788.321091 0.9170 0.9170 0.9170 0.9170 0.9170
1791.970727 0.9180 0.9190 0.9200 0.9220 0.9230
1795.620364 0.9230 0.9240 0.9250 0.9250 0.9250
1799.270000 0.9250 0.9260 0.9270 0.9270 0.9280
1802.919636 0.9280 0.9280 0.9280 0.9280 0.9280
1806.569273 0.9280 0.9280 0.9290 0.9290 0.9290
1810.218909 0.9290 0.9300 0.9300 0.9300 0.9310
1813.868545 0.9310 0.9310 0.9310 0.9310 0.9310
1817.518182 0.9310 0.9310 0.9300 0.9300 0.9300
1821.167818 0.9300 0.9300 0.9300 0.9310 0.9300
1824.817455 0.9300 0.9300 0.9300 0.9300 0.9300
1828.467091 0.9300 0.9310 0.9310 0.9310 0.9310
1832.116727 0.9310 0.9310 0.9320 0.9320 0.9320
1835.766364 0.9330 0.9330 0.9330 0.9340 0.9340
1839.416000 0.9330 0.9340 0.9350 0.9350 0.9360
1843.065636 0.9360 0.9360 0.9360 0.9370 0.9380
1846.715273 0.9380 0.9400 0.9420 0.9420 0.9430
1850.364909 0.9440 0.9430 0.9430 0.9430 0.9420
1854.014545 0.9410 0.9410 0.9410 0.9390 0.9390
1857.664182 0.9390 0.9390 0.9390 0.9390 0.9400
1861.313818 0.9410 0.9410 0.9420 0.9430 0.9440
1864.963455 0.9430 0.9430 0.9430 0.9430 0.9440
1868.613091 0.9430 0.9430 0.9430 0.9430 0.9420
1872.262727 0.9430 0.9430 0.9430 0.9440 0.9440
1875.912364 0.9420 0.9410 0.9410 0.9410 0.9410
1879.562000 0.9400 0.9400 0.9400 0.9400 0.9400
1883.211636 0.9400 0.9400 0.9400 0.9400 0.9400
1886.861273 0.9400 0.9400 0.9400 0.9400 0.9400
1890.510909 0.9400 0.9400 0.9400 0.9400 0.9400
1894.160545 0.9400 0.9400 0.9400 0.9400 0.9400
1897.810182 0.9400 0.9400 0.9400 0.9400 0.9400
1901.459818 0.9400 0.9400 0.9400 0.9400 0.9400
1905.109455 0.9400 0.9400 0.9400 0.9400 0.9400
1908.759091 0.9410 0.9410 0.9410 0.9410 0.9400
1912.408727 0.9410 0.9410 0.9410 0.9410 0.9410
1916.058364 0.9420 0.9430 0.9440 0.9440 0.9430
1919.708000 0.9430 0.9440 0.9430 0.9440 0.9430
1923.357636 0.9430 0.9430 0.9430 0.9420 0.9420
1927.007273 0.9420 0.9420 0.9420 0.9410 0.9410
1930.656909 0.9410 0.9410 0.9410 0.9410 0.9410
1934.306545 0.9410 0.9400 0.9400 0.9400 0.9400
1937.956182 0.9400 0.9400 0.9400 0.9400 0.9400
1941.605818 0.9400 0.9400 0.9400 0.9400 0.9400
1945.255455 0.9400 0.9410 0.9410 0.9410 0.9410
1948.905091 0.9400 0.9410 0.9410 0.9410 0.9400
1952.554727 0.9390 0.9380 0.9380 0.9360 0.9350
1956.204364 0.9340 0.9340 0.9330 0.9330 0.9320
1959.854000 0.9310 0.9310 0.9310 0.9310 0.9320
1963.503636 0.9330 0.9340 0.9350 0.9360 0.9360
1967.153273 0.9360 0.9370 0.9380 0.9380 0.9390
1970.802909 0.9400 0.9400 0.9400 0.9400 0.9390
1974.452545 0.9390 0.9380 0.9380 0.9380 0.9380
1978.102182 0.9370 0.9370 0.9360 0.9360 0.9360
1981.751818 0.9360 0.9350 0.9350 0.9350 0.9350
1985.401455 0.9340 0.9340 0.9340 0.9330 0.9330
1989.051091 0.9330 0.9330 0.9320 0.9320 0.9310
1992.700727 0.9320 0.9320 0.9330 0.9330 0.9330
1996.350364 0.9340 0.9340 0.9350 0.9350 0.9360
2000.000000 0.9360 0.9360 0.9360 0.9360 0.9360
2003.649636 0.9360 0.9360 0.9360 0.9360 0.9363
2007.299273 0.9365 0.9368 0.9370 0.9370 0.9370
2010.948909 0.9370 0.9370 0.9370 0.9370 0.9370
2014.598545 0.9370 0.9370 0.9370 0.9370 0.9371
2018.248182 0.9373 0.9376 0.9378 0.9379 0.9377
2021.897818 0.9374 0.9372 0.9370 0.9370 0.9370
2025.547455 0.9370 0.9370 0.9370 0.9370 0.9370
2029.197091 0.9370 0.9370 0.9370 0.9370 0.9370
2032.846727 0.9370 0.9370 0.9370 0.9370 0.9370
2036.496364 0.9370 0.9370 0.9369 0.9366 0.9364
2040.146000 0.9361 0.9360 0.9360 0.9360 0.9360
2043.795636 0.9360 0.9360 0.9360 0.9360 0.9360
2047.445273 0.9360 0.9360 0.9360 0.9360 0.9360
2051.094909 0.9360 0.9360 0.9360 0.9360 0.9360
2054.744545 0.9360 0.9360 0.9360 0.9360 0.9360
2058.394182 0.9360 0.9360 0.9360 0.9360 0.9360
2062.043818 0.9360 0.9360 0.9360 0.9358 0.9355
2065.693455 0.9353 0.9350 0.9350 0.9350 0.9350
2069.343091 0.9350 0.9350 0.9350 0.9350 0.9350
2072.992727 0.9350 0.9350 0.9350 0.9350 0.9350
2076.642364 0.9350 0.9350 0.9350 0.9350 0.9350
2080.292000 0.9350 0.9350 0.9350 0.9350 0.9350
2083.941636 0.9350 0.9350 0.9350 0.9350 0.9350
2087.591273 0.9350 0.9350 0.9350 0.9350 0.9350
2091.240909 0.9350 0.9350 0.9349 0.9347 0.9344
2094.890545 0.9341 0.9340 0.9340 0.9340 0.9340
2098.540182 0.9340 0.9340 0.9340 0.9340 0.9339
2102.189818 0.9336 0.9334 0.9331 0.9330 0.9330
2105.839455 0.9330 0.9330 0.9330 0.9330 0.9330
2109.489091 0.9330 0.9330 0.9330 0.9330 0.9330
2113.138727 0.9330 0.9330 0.9330 0.9330 0.9330
2116.788364 0.9330 0.9330 0.9330 0.9330 0.9330
2120.438000 0.9330 0.9330 0.9330 0.9330 0.9330
2124.087636 0.9330 0.9330 0.9330 0.9330 0.9330
2127.737273 0.9330 0.9330 0.9330 0.9330 0.9330
2131.386909 0.9330 0.9330 0.9330 0.9330 0.9330
2135.036545 0.9330 0.9330 0.9330 0.9330 0.9330
2138.686182 0.9330 0.9330 0.9330 0.9330 0.9330
2142.335818 0.9330 0.9330 0.9330 0.9330 0.9330
2145.985455 0.9330 0.9330 0.9330 0.9330 0.9330
2149.635091 0.9330 0.9330 0.9330 0.9330 0.9330
2153.284727 0.9330 0.9330 0.9330 0.9330 0.9330
2156.934364 0.9330 0.9330 0.9330 0.9330 0.9330
2160.584000 0.9330 0.9330 0.9330 0.9330 0.9330
2164.233636 0.9330 0.9330 0.9330 0.9330 0.9330
2167.883273 0.9330 0.9330 0.9330 0.9330 0.9331
2171.532909 0.9334 0.9336 0.9339 0.9340 0.9340
2175.182545 0.9340 0.9340 0.9340 0.9340 0.9340
2178.832182 0.9340 0.9340 0.9340 0.9340 0.9340
2182.481818 0.9340 0.9340 0.9340 0.9340 0.9340
2186.131455 0.9340 0.9340 0.9340 0.9338 0.9335
2189.781091 0.9333 0.9330 0.9330 0.9330 0.9330
2193.430727 0.9330 0.9330 0.9330 0.9330 0.9330
2197.080364 0.9328 0.9325 0.9323 0.9320 0.9318
2200.730000 0.9315 0.9312 0.9310 0.9310 0.9310
2204.379636 0.9310 0.9310 0.9307 0.9305 0.9302
2208.029273 0.9300 0.9297 0.9295 0.9292 0.9289
2211.678909 0.9284 0.9279 0.9274 0.9269 0.9264
2215.328545 0.9259 0.9254 0.9250 0.9250 0.9250
2218.978182 0.9250 0.9249 0.9244 0.9239 0.9234
2222.627818 0.9230 0.9230 0.9230 0.9230 0.9229
2226.277455 0.9227 0.9224 0.9222 0.9219 0.9216
2229.927091 0.9214 0.9211 0.9210 0.9210 0.9210
2233.576727 0.9210 0.9209 0.9206 0.9204 0.9201
2237.226364 0.9200 0.9200 0.9200 0.9200 0.9200
2240.876000 0.9200 0.9200 0.9200 0.9200 0.9200
2244.525636 0.9200 0.9200 0.9198 0.9196 0.9193
2248.175273 0.9191 0.9190 0.9190 0.9190 0.9190
2251.824909 0.9190 0.9190 0.9190 0.9190 0.9188
2255.474545 0.9186 0.9183 0.9180 0.9180 0.9180
2259.124182 0.9180 0.9180 0.9180 0.9180 0.9180
2262.773818 0.9180 0.9178 0.9175 0.9173 0.9170
2266.423455 0.9170 0.9170 0.9170 0.9170 0.9170
2270.073091 0.9170 0.9170 0.9170 0.9170 0.9170
2273.722727 0.9170 0.9170 0.9170 0.9170 0.9170
2277.372364 0.9170 0.9170 0.9170 0.9170 0.9169
2281.022000 0.9164 0.9159 0.9154 0.9150 0.9150
2284.671636 0.9150 0.9150 0.9150 0.9150 0.9150
2288.321273 0.9150 0.9150 0.9150 0.9150 0.9150
2291.970909 0.9150 0.9150 0.9150 0.9150 0.9151
2295.620545 0.9154 0.9156 0.9159 0.9161 0.9164
2299.270182 0.9166 0.9169 0.9170 0.9170 0.9170
2302.919818 0.9170 0.9170 0.9170 0.9170 0.9170
2306.569455 0.9170 0.9170 0.9170 0.9170 0.9170
2310.219091 0.9170 0.9170 0.9170 0.9170 0.9170
2313.868727 0.9170 0.9170 0.9170 0.9170 0.9170
2317.518364 0.9170 0.9170 0.9170 0.9170 0.9170
2321.168000 0.9170 0.9170 0.9170 0.9170 0.9170
2324.817636 0.9170 0.9170 0.9170 0.9170 0.9170
2328.467273 0.9170 0.9170 0.9168 0.9165 0.9163
2332.116909 0.9160 0.9160 0.9160 0.9160 0.9160
2335.766545 0.9160 0.9160 0.9160 0.9160 0.9160
2339.416182 0.9160 0.9160 0.9160 0.9157 0.9155
2343.065818 0.9152 0.9150 0.9150 0.9150 0.9150
2346.715455 0.9150 0.9150 0.9150 0.9150 0.9150
2350.365091 0.9150 0.9150 0.9150 0.9149 0.9147
2354.014727 0.9144 0.9142 0.9139 0.9137 0.9134
2357.664364 0.9132 0.9129 0.9127 0.9124 0.9122
2361.314000 0.9120 0.9120 0.9120 0.9120 0.9120
2364.963636 0.9120 0.9120 0.9120 0.9119 0.9116
2368.613273 0.9114 0.9111 0.9109 0.9106 0.9104
2372.262909 0.9101 0.9099 0.9096 0.9093 0.9091
2375.912545 0.9090 0.9090 0.9090 0.9090 0.9090
2379.562182 0.9090 0.9090 0.9090 0.9088 0.9086
2383.211818 0.9083 0.9081 0.9078 0.9076 0.9073
2386.861455 0.9071 0.9070 0.9070 0.9070 0.9070
2390.511091 0.9070 0.9070 0.9070 0.9070 0.9068
2394.160727 0.9065 0.9063 0.9060 0.9058 0.9055
2397.810364 0.9053 0.9050 0.9048 0.9045 0.9043
2401.460000 0.9040 0.9040 0.9040 0.9040 0.9040
2405.109636 0.9040 0.9040 0.9040 0.9040 0.9037
2408.759273 0.9035 0.9032 0.9030 0.9027 0.9025
2412.408909 0.9022 0.9020 0.9017 0.9015 0.9012
2416.058545 0.9010 0.9010 0.9010 0.9010 0.9010
2419.708182 0.9010 0.9010 0.9010 0.9010 0.9010
2423.357818 0.9010 0.9010 0.9010 0.9010 0.9010
2427.007455 0.9010 0.9010 0.9010 0.9010 0.9010
2430.657091 0.9009 0.9006 0.9004 0.9001 0.9000
2434.306727 0.9000 0.9000 0.9000 0.9000 0.9000
2437.956364 0.9000 0.9000 0.8999 0.8996 0.8994
2441.606000 0.8991 0.8990 0.8990 0.8990 0.8990
2445.255636 0.8990 0.8990 0.8990 0.8990 0.8990
2448.905273 0.8990 0.8990 0.8990 0.8990 0.8990
2452.554909 0.8990 0.8990 0.8990 0.8990 0.8990
2456.204545 0.8990 0.8988 0.8985 0.8983 0.8980
2459.854182 0.8980 0.8980 0.8980 0.8980 0.8978
2463.503818 0.8975 0.8973 0.8970 0.8968 0.8965
2467.153455 0.8963 0.8960 0.8957 0.8955 0.8952
2470.803091 0.8950 0.8945 0.8940 0.8935 0.8930
2474.452727 0.8925 0.8919 0.8914 0.8910 0.8907
2478.102364 0.8905 0.8902 0.8900 0.8897 0.8895
2481.752000 0.8892 0.8890 0.8890 0.8890 0.8890
2485.401636 0.8889 0.8887 0.8884 0.8882 0.8880
2489.051273 0.8880 0.8880 0.8880 0.8880 0.8880
2492.700909 0.8880 0.8880 0.8880 0.8880 0.8880
2496.350545 0.8880 0.8879 0.8876 0.8874 0.8871
2500.000182 0.8870 0.8870 0.8870 0.8870 0.8870
2503.649818 0.8870 0.8870 0.8870 0.8870 0.8870
2507.299455 0.8870 0.8870 0.8870 0.8870 0.8870
2510.949091 0.8870 0.8868 0.8866 0.8863 0.8861
2514.598727 0.8860 0.8860 0.8860 0.8860 0.8860
2518.248364 0.8860 0.8860 0.8860 0.8858 0.8855
2521.898000 0.8853 0.8850 0.8850 0.8850 0.8850
2525.547636 0.8850 0.8850 0.8850 0.8850 0.8850
2529.197273 0.8850 0.8850 0.8850 0.8850 0.8850
2532.846909 0.8850 0.8850 0.8850 0.8848 0.8845
2536.496545 0.8842 0.8840 0.8840 0.8840 0.8840
2540.146182 0.8840 0.8837 0.8835 0.8832 0.8830
2543.795818 0.8830 0.8830 0.8830 0.8830 0.8830
2547.445455 0.8830 0.8830 0.8829 0.8827 0.8824
2551.095091 0.8822 0.8819 0.8817 0.8814 0.8812
2554.744727 0.8810 0.8810 0.8810 0.8810 0.8809
2558.394364 0.8807 0.8804 0.8802 0.8800 0.8800
2562.044000 0.8800 0.8800 0.8800 0.8800 0.8800
2565.693636 0.8800 0.8800 0.8800 0.8800 0.8800
2569.343273 0.8799 0.8796 0.8794 0.8791 0.8787
2572.992909 0.8782 0.8777 0.8772 0.8770 0.8770
2576.642545 0.8770 0.8770 0.8768 0.8766 0.8763
2580.292182 0.8761 0.8758 0.8756 0.8753 0.8751
2583.941818 0.8748 0.8746 0.8743 0.8741 0.8736
2587.591455 0.8731 0.8726 0.8721 0.8720 0.8720
2591.241091 0.8720 0.8720 0.8718 0.8715 0.8713
2594.890727 0.8710 0.8708 0.8705 0.8703 0.8700
2598.540364 0.8700 0.8700 0.8700 0.8700 0.8698
2602.190000 0.8695 0.8693 0.8690 0.8687 0.8685
2605.839636 0.8682 0.8680 0.8674 0.8669 0.8664
2609.489273 0.8659 0.8654 0.8649 0.8644 0.8640
2613.138909 0.8637 0.8635 0.8632 0.8629 0.8627
2616.788545 0.8624 0.8622 0.8619 0.8617 0.8614
2620.438182 0.8612 0.8610 0.8610 0.8610 0.8610
2624.087818 0.8608 0.8603 0.8598 0.8593 0.8589
2627.737455 0.8587 0.8584 0.8582 0.8578 0.8573
2631.387091 0.8568 0.8563 0.8557 0.8549 0.8541
2635.036727 0.8534 0.8527 0.8522 0.8517 0.8512
2638.686364 0.8507 0.8502 0.8497 0.8492 0.8488
2642.336000 0.8486 0.8483 0.8481 0.8478 0.8476
2645.985636 0.8473 0.8471 0.8468 0.8466 0.8463
2649.635273 0.8461 0.8460 0.8460 0.8460 0.8460
2653.284909 0.8460 0.8460 0.8460 0.8460 0.8458
2656.934545 0.8455 0.8453 0.8450 0.8450 0.8450
2660.584182 0.8450 0.8450 0.8448 0.8445 0.8443
2664.233818 0.8440 0.8438 0.8435 0.8433 0.8430
2667.883455 0.8430 0.8430 0.8430 0.8430 0.8430
2671.533091 0.8430 0.8430 0.8430 0.8430 0.8430
2675.182727 0.8430 0.8430 0.8427 0.8425 0.8422
2678.832364 0.8419 0.8414 0.8409 0.8404 0.8399
2682.482000 0.8394 0.8389 0.8384 0.8379 0.8377
2686.131636 0.8374 0.8372 0.8369 0.8364 0.8359
2689.781273 0.8354 0.8348 0.8343 0.8338 0.8333
2693.430909 0.8329 0.8326 0.8324 0.8321 0.8319
2697.080545 0.8316 0.8314 0.8311 0.8309 0.8306
2700.730182 0.8304 0.8301 0.8300 0.8300 0.8300
2704.379818 0.8300 0.8300 0.8300 0.8300 0.8300
2708.029455 0.8297 0.8292 0.8287 0.8282 0.8277
2711.679091 0.8272 0.8267 0.8262 0.8257 0.8252
2715.328727 0.8247 0.8242 0.8235 0.8227 0.8220
2718.978364 0.8212 0.8202 0.8192 0.8182 0.8172
2722.628000 0.8164 0.8156 0.8149 0.8141 0.8138
2726.277636 0.8135 0.8133 0.8130 0.8130 0.8130
2729.927273 0.8130 0.8130 0.8132 0.8135 0.8137
2733.576909 0.8140 0.8145 0.8150 0.8155 0.8160
2737.226545 0.8160 0.8160 0.8160 0.8160 0.8160
2740.876182 0.8160 0.8160 0.8160 0.8160 0.8160
2744.525818 0.8160 0.8160 0.8163 0.8165 0.8168
2748.175455 0.8170 0.8173 0.8176 0.8178 0.8181
2751.825091 0.8183 0.8186 0.8188 0.8190 0.8190
2755.474727 0.8190 0.8190 0.8190 0.8190 0.8190
2759.124364 0.8190 0.8190 0.8190 0.8190 0.8190
2762.774000 0.8190 0.8190 0.8190 0.8190 0.8190
2766.423636 0.8190 0.8190 0.8190 0.8190 0.8190
2770.073273 0.8190 0.8190 0.8189 0.8186 0.8184
2773.722909 0.8181 0.8180 0.8180 0.8180 0.8180
2777.372545 0.8178 0.8176 0.8173 0.8171 0.8168
2781.022182 0.8166 0.8163 0.8161 0.8156 0.8151
2784.671818 0.8146 0.8141 0.8134 0.8127 0.8119
2788.321455 0.8111 0.8102 0.8092 0.8082 0.8072
2791.971091 0.8057 0.8042 0.8027 0.8012 0.7994
2795.620727 0.7977 0.7959 0.7941 0.7931 0.7921
2799.270364 0.7910 0.7900 0.7893 0.7885 0.7878
2802.920000 0.7870 0.7804 0.7739 0.7673 0.7608
2806.569636 0.7552 0.7495 0.7439 0.7382 0.7319
2810.219273 0.7256 0.7192 0.7125 0.7034 0.6943
2813.868909 0.6852 0.6751 0.6610 0.6468 0.6327
2817.518545 0.6205 0.6145 0.6084 0.6024 0.5980
2821.168182 0.5980 0.5980 0.5980 0.5996 0.6047
2824.817818 0.6097 0.6148 0.6213 0.6307 0.6400
2828.467455 0.6493 0.6563 0.6596 0.6629 0.6661
2832.117091 0.6692 0.6720 0.6747 0.6775 0.6792
2835.766727 0.6798 0.6803 0.6808 0.6783 0.6735
2839.416364 0.6687 0.6639 0.6333 0.5856 0.5379
2843.066000 0.4902 0.4680 0.4602 0.4524 0.4445
2846.715636 0.4370 0.4297 0.4224 0.4151 0.4076
2850.365273 0.4000 0.3925 0.3849 0.3771 0.3693
2854.014909 0.3615 0.3536 0.3520 0.3520 0.3520
2857.664545 0.3520 0.3576 0.3644 0.3713 0.3781
2861.314182 0.3912 0.4054 0.4195 0.4336 0.4412
2864.963818 0.4482 0.4551 0.4620 0.4630 0.4640
2868.613455 0.4650 0.4660 0.4660 0.4660 0.4660
2872.263091 0.4657 0.4614 0.4571 0.4528 0.4481
2875.912727 0.4398 0.4314 0.4231 0.4160 0.4160
2879.562364 0.4160 0.4160 0.4182 0.4304 0.4425
2883.212000 0.4546 0.4640 0.4640 0.4640 0.4640
2886.861636 0.4628 0.4580 0.4532 0.4484 0.4442
2890.511273 0.4417 0.4392 0.4367 0.4324 0.4247
2894.160909 0.4171 0.4094 0.4043 0.4028 0.4013
2897.810545 0.3998 0.3968 0.3920 0.3872 0.3824
2901.460182 0.3710 0.3530 0.3351 0.3172 0.3027
2905.109818 0.2911 0.2795 0.2679 0.2629 0.2626
2908.759455 0.2623 0.2621 0.2643 0.2681 0.2719
2912.409091 0.2757 0.2772 0.2774 0.2777 0.2779
2916.058727 0.2750 0.2707 0.2664 0.2622 0.2553
2919.708364 0.2475 0.2396 0.2318 0.2298 0.2295
2923.358000 0.2293 0.2290 0.2288 0.2285 0.2283
2927.007636 0.2280 0.2253 0.2222 0.2192 0.2162
2930.657273 0.2132 0.2101 0.2071 0.2041 0.2040
2934.306909 0.2040 0.2040 0.2041 0.2094 0.2147
2937.956545 0.2200 0.2252 0.2300 0.2348 0.2396
2941.606182 0.2449 0.2547 0.2646 0.2744 0.2830
2945.255818 0.2830 0.2830 0.2830 0.2816 0.2727
2948.905455 0.2639 0.2551 0.2480 0.2480 0.2480
2952.555091 0.2480 0.2517 0.2644 0.2770 0.2896
2956.204727 0.3039 0.3216 0.3392 0.3569 0.3704
2959.854364 0.3770 0.3836 0.3901 0.4057 0.4342
2963.504000 0.4627 0.4912 0.5071 0.5074 0.5076
2967.153636 0.5079 0.5079 0.5076 0.5074 0.5071
2970.803273 0.5006 0.4882 0.4758 0.4635 0.4581
2974.452909 0.4584 0.4586 0.4589 0.4676 0.4820
2978.102545 0.4964 0.5107 0.5238 0.5361 0.5484
2981.752182 0.5607 0.5695 0.5771 0.5847 0.5922
2985.401818 0.5956 0.5976 0.5996 0.6016 0.6020
2989.051455 0.6020 0.6020 0.6020 0.6041 0.6067
2992.701091 0.6092 0.6117 0.6202 0.6296 0.6389
2996.350727 0.6482 0.6560 0.6635 0.6711 0.6787
3000.000364 0.6848 0.6908 0.6969 0.7030 0.7083
3003.650000 0.7136 0.7189 0.7241 0.7279 0.7317
3007.299636 0.7355 0.7392 0.7423 0.7454 0.7484
3010.949273 0.7514 0.7539 0.7565 0.7590 0.7614
3014.598909 0.7631 0.7649 0.7667 0.7681 0.7683
3018.248545 0.7686 0.7688 0.7690 0.7690 0.7690
3021.898182 0.7690 0.7690 0.7690 0.7690 0.7690
3025.547818 0.7694 0.7707 0.7720 0.7732 0.7751
3029.197455 0.7779 0.7806 0.7834 0.7861 0.7886
3032.847091 0.7911 0.7936 0.7959 0.7980 0.8000
3036.496727 0.8020 0.8035 0.8045 0.8056 0.8066
3040.146364 0.8079 0.8094 0.8109 0.8124 0.8144
3043.796000 0.8167 0.8190 0.8213 0.8220 0.8220
3047.445636 0.8220 0.8220 0.8227 0.8237 0.8247
3051.095273 0.8257 0.8262 0.8264 0.8267 0.8269
3054.744909 0.8274 0.8279 0.8284 0.8289 0.8292
3058.394545 0.8295 0.8297 0.8300 0.8302 0.8305
3062.044182 0.8307 0.8310 0.8312 0.8315 0.8317
3065.693818 0.8320 0.8320 0.8320 0.8320 0.8320
3069.343455 0.8320 0.8320 0.8320 0.8320 0.8323
3072.993091 0.8325 0.8328 0.8330 0.8330 0.8330
3076.642727 0.8330 0.8330 0.8330 0.8330 0.8330
3080.292364 0.8330 0.8330 0.8330 0.8330 0.8329
3083.942000 0.8327 0.8324 0.8322 0.8320 0.8320
3087.591636 0.8320 0.8320 0.8319 0.8317 0.8314
3091.241273 0.8312 0.8309 0.8307 0.8304 0.8302
3094.890909 0.8300 0.8300 0.8300 0.8300 0.8299
3098.540545 0.8296 0.8294 0.8291 0.8289 0.8286
3102.190182 0.8284 0.8281 0.8280 0.8280 0.8280
3105.839818 0.8280 0.8280 0.8280 0.8280 0.8280
3109.489455 0.8278 0.8276 0.8273 0.8271 0.8270
3113.139091 0.8270 0.8270 0.8270 0.8267 0.8261
3116.788727 0.8256 0.8251 0.8245 0.8237 0.8229
3120.438364 0.8222 0.8216 0.8211 0.8206 0.8201
3124.088000 0.8198 0.8195 0.8193 0.8190 0.8190
3127.737636 0.8190 0.8190 0.8190 0.8190 0.8190
3131.387273 0.8190 0.8190 0.8190 0.8190 0.8190
3135.036909 0.8190 0.8187 0.8185 0.8182 0.8180
3138.686545 0.8177 0.8175 0.8172 0.8170 0.8170
3142.336182 0.8170 0.8170 0.8170 0.8167 0.8165
3145.985818 0.8162 0.8160 0.8160 0.8160 0.8160
3149.635455 0.8160 0.8160 0.8160 0.8160 0.8159
3153.285091 0.8157 0.8154 0.8152 0.8150 0.8150
3156.934727 0.8150 0.8150 0.8149 0.8147 0.8144
3160.584364 0.8142 0.8140 0.8140 0.8140 0.8140
3164.234000 0.8138 0.8133 0.8128 0.8123 0.8119
3167.883636 0.8116 0.8114 0.8111 0.8107 0.8102
3171.533273 0.8097 0.8092 0.8089 0.8086 0.8084
3175.182909 0.8081 0.8077 0.8072 0.8067 0.8062
3178.832545 0.8058 0.8056 0.8053 0.8051 0.8047
3182.482182 0.8041 0.8036 0.8031 0.8030 0.8030
3186.131818 0.8030 0.8030 0.8026 0.8021 0.8016
3189.781455 0.8011 0.8006 0.8001 0.7996 0.7991
3193.431091 0.7988 0.7985 0.7983 0.7980 0.7975
3197.080727 0.7970 0.7965 0.7960 0.7958 0.7955
3200.730364 0.7953 0.7950 0.7945 0.7940 0.7935
3204.380000 0.7930 0.7927 0.7925 0.7922 0.7920
3208.029636 0.7915 0.7910 0.7905 0.7899 0.7894
3211.679273 0.7889 0.7884 0.7880 0.7877 0.7874
3215.328909 0.7872 0.7869 0.7864 0.7859 0.7854
3218.978545 0.7849 0.7847 0.7844 0.7842 0.7838
3222.628182 0.7833 0.7828 0.7823 0.7818 0.7813
3226.277818 0.7808 0.7803 0.7798 0.7793 0.7788
3229.927455 0.7783 0.7779 0.7776 0.7774 0.7771
3233.577091 0.7767 0.7759 0.7751 0.7744 0.7737
3237.226727 0.7732 0.7727 0.7722 0.7719 0.7716
3240.876364 0.7714 0.7711 0.7707 0.7702 0.7697
3244.526000 0.7692 0.7685 0.7677 0.7670 0.7662
3248.175636 0.7653 0.7643 0.7633 0.7623 0.7613
3251.825273 0.7602 0.7592 0.7582 0.7570 0.7558
3255.474909 0.7545 0.7532 0.7520 0.7507 0.7494
3259.124545 0.7482 0.7467 0.7452 0.7437 0.7422
3262.774182 0.7409 0.7396 0.7384 0.7371 0.7358
3266.423818 0.7346 0.7333 0.7320 0.7305 0.7290
3270.073455 0.7274 0.7259 0.7244 0.7229 0.7214
3273.723091 0.7199 0.7186 0.7174 0.7161 0.7148
3277.372727 0.7136 0.7123 0.7110 0.7098 0.7085
3281.022364 0.7073 0.7060 0.7047 0.7035 0.7022
3284.672000 0.7009 0.6997 0.6987 0.6977 0.6967
3288.321636 0.6957 0.6947 0.6937 0.6927 0.6909
3291.971273 0.6873 0.6838 0.6803 0.6772 0.6749
3295.620909 0.6726 0.6704 0.6685 0.6672 0.6659
3299.270545 0.6646 0.6635 0.6625 0.6615 0.6605
3302.920182 0.6593 0.6581 0.6568 0.6555 0.6538
3306.569818 0.6518 0.6498 0.6478 0.6462 0.6450
3310.219455 0.6437 0.6424 0.6404 0.6378 0.6353
3313.869091 0.6328 0.6299 0.6269 0.6239 0.6208
3317.518727 0.6176 0.6144 0.6111 0.6078 0.6045
3321.168364 0.6012 0.5980 0.5947 0.5924 0.5904
3324.818000 0.5884 0.5863 0.5854 0.5846 0.5838
3328.467636 0.5831 0.5790 0.5747 0.5704 0.5661
3332.117273 0.5626 0.5591 0.5555 0.5520 0.5490
3335.766909 0.5459 0.5429 0.5399 0.5368 0.5338
3339.416545 0.5308 0.5278 0.5253 0.5228 0.5202
3343.066182 0.5176 0.5146 0.5116 0.5086 0.5055
3346.715818 0.5025 0.4995 0.4964 0.4933 0.4898
3350.365455 0.4863 0.4827 0.4790 0.4747 0.4704
3354.015091 0.4661 0.4616 0.4565 0.4514 0.4463
3357.664727 0.4408 0.4348 0.4287 0.4226 0.4160
3361.314364 0.4084 0.4008 0.3933 0.3875 0.3839
3364.964000 0.3804 0.3769 0.3732 0.3694 0.3656
3368.613636 0.3618 0.3583 0.3550 0.3518 0.3485
3372.263273 0.3453 0.3423 0.3393 0.3363 0.3332
3375.912909 0.3302 0.3272 0.3241 0.3213 0.3185
3379.562545 0.3157 0.3129 0.3100 0.3070 0.3039
3383.212182 0.3009 0.2980 0.2952 0.2924 0.2896
3386.861818 0.2866 0.2836 0.2805 0.2775 0.2745
3390.511455 0.2714 0.2684 0.2654 0.2621 0.2589
3394.161091 0.2556 0.2523 0.2488 0.2453 0.2417
3397.810727 0.2382 0.2349 0.2316 0.2283 0.2251
3401.460364 0.2210 0.2170 0.2130 0.2089 0.2044
3405.110000 0.1998 0.1953 0.1908 0.1881 0.1853
3408.759636 0.1825 0.1798 0.1778 0.1758 0.1737
3412.409273 0.1720 0.1720 0.1720 0.1720 0.1720
3416.058909 0.1720 0.1720 0.1720 0.1723 0.1733
3419.708545 0.1743 0.1753 0.1762 0.1770 0.1777
3423.358182 0.1785 0.1799 0.1827 0.1855 0.1883
3427.007818 0.1911 0.1938 0.1966 0.1994 0.2021
3430.657455 0.2046 0.2071 0.2096 0.2120 0.2143
3434.307091 0.2166 0.2188 0.2211 0.2234 0.2257
3437.956727 0.2279 0.2302 0.2325 0.2347 0.2370
3441.606364 0.2393 0.2416 0.2439 0.2462 0.2485
3445.256000 0.2508 0.2530 0.2553 0.2578 0.2603
3448.905636 0.2628 0.2653 0.2680 0.2708 0.2736
3452.555273 0.2764 0.2793 0.2824 0.2854 0.2884
3456.204909 0.2915 0.2945 0.2975 0.3005 0.3040
3459.854545 0.3075 0.3111 0.3146 0.3186 0.3226
3463.504182 0.3267 0.3307 0.3352 0.3397 0.3443
3467.153818 0.3488 0.3536 0.3584 0.3632 0.3680
3470.803455 0.3734 0.3788 0.3841 0.3896 0.3956
3474.453091 0.4017 0.4077 0.4139 0.4207 0.4275
3478.102727 0.4343 0.4412 0.4486 0.4559 0.4632
3481.752364 0.4707 0.4788 0.4868 0.4949 0.5025
3485.402000 0.5089 0.5152 0.5215 0.5276 0.5334
3489.051636 0.5393 0.5451 0.5508 0.5563 0.5619
3492.701273 0.5674 0.5729 0.5782 0.5835 0.5888
3496.350909 0.5940 0.5990 0.6041 0.6091 0.6141
3500.000545 0.6190 0.6238 0.6287 0.6334 0.6379
3503.650182 0.6425 0.6470 0.6513 0.6553 0.6594
3507.299818 0.6634 0.6674 0.6715 0.6755 0.6795
3510.949455 0.6836 0.6876 0.6917 0.6957 0.6992
3514.599091 0.7025 0.7058 0.7091 0.7125 0.7161
3518.248727 0.7196 0.7231 0.7261 0.7289 0.7316
3521.898364 0.7344 0.7372 0.7400 0.7427 0.7455
3525.548000 0.7481 0.7506 0.7531 0.7557 0.7580
3529.197636 0.7603 0.7626 0.7649 0.7672 0.7695
3532.847273 0.7717 0.7740 0.7758 0.7775 0.7793
3536.496909 0.7811 0.7826 0.7841 0.7856 0.7871
3540.146545 0.7886 0.7901 0.7917 0.7931 0.7941
3543.796182 0.7951 0.7961 0.7972 0.7982 0.7992
3547.445818 0.8002 0.8011 0.8016 0.8021 0.8026
3551.095455 0.8031 0.8036 0.8041 0.8046 0.8054
3554.745091 0.8069 0.8084 0.8099 0.8115 0.8130
3558.394727 0.8145 0.8161 0.8175 0.8188 0.8200
3562.044364 0.8213 0.8225 0.8238 0.8251 0.8263
3565.694000 0.8275 0.8285 0.8295 0.8305 0.8314
3569.343636 0.8321 0.8329 0.8337 0.8344 0.8352
3572.993273 0.8359 0.8367 0.8374 0.8382 0.8390
3576.642909 0.8397 0.8403 0.8408 0.8413 0.8418
3580.292545 0.8423 0.8428 0.8433 0.8438 0.8444
3583.942182 0.8449 0.8454 0.8459 0.8464 0.8469
3587.591818 0.8474 0.8479 0.8482 0.8485 0.8487
3591.241455 0.8490 0.8494 0.8499 0.8504 0.8510
3594.891091 0.8517 0.8524 0.8532 0.8540 0.8545
3598.540727 0.8550 0.8555 0.8560 0.8567 0.8575
3602.190364 0.8583 0.8590 0.8600 0.8610 0.8620
3605.840000 0.8630 0.8638 0.8646 0.8653 0.8660
3609.489636 0.8663 0.8665 0.8668 0.8670 0.8670
3613.139273 0.8670 0.8670 0.8670 0.8673 0.8676
3616.788909 0.8678 0.8681 0.8683 0.8686 0.8688
3620.438545 0.8692 0.8700 0.8707 0.8715 0.8720
3624.088182 0.8720 0.8720 0.8720 0.8722 0.8727
3627.737818 0.8732 0.8737 0.8740 0.8740 0.8740
3631.387455 0.8740 0.8741 0.8744 0.8746 0.8749
3635.037091 0.8750 0.8750 0.8750 0.8750 0.8750
3638.686727 0.8750 0.8750 0.8750 0.8751 0.8754
3642.336364 0.8756 0.8759 0.8760 0.8760 0.8760
3645.986000 0.8760 0.8762 0.8764 0.8767 0.8769
3649.635636 0.8770 0.8770 0.8770 0.8770 0.8770
3653.285273 0.8770 0.8770 0.8770 0.8772 0.8775
3656.934909 0.8777 0.8780 0.8780 0.8780 0.8780
3660.584545 0.8780 0.8780 0.8780 0.8780 0.8780
3664.234182 0.8782 0.8785 0.8787 0.8790 0.8790
3667.883818 0.8790 0.8790 0.8790 0.8790 0.8790
3671.533455 0.8790 0.8790 0.8790 0.8790 0.8790
3675.183091 0.8790 0.8793 0.8795 0.8798 0.8800
3678.832727 0.8800 0.8800 0.8800 0.8800 0.8800
3682.482364 0.8800 0.8800 0.8800 0.8800 0.8800
3686.132000 0.8800 0.8800 0.8800 0.8800 0.8800
3689.781636 0.8800 0.8800 0.8800 0.8800 0.8800
3693.431273 0.8800 0.8800 0.8800 0.8800 0.8800
3697.080909 0.8800 0.8800 0.8800 0.8800 0.8800
3700.730545 0.8800 0.8800 0.8800 0.8800 0.8800
3704.380182 0.8800 0.8800 0.8800 0.8800 0.8800
3708.029818 0.8800 0.8800 0.8800 0.8800 0.8800
3711.679455 0.8800 0.8800 0.8800 0.8800 0.8800
3715.329091 0.8800 0.8800 0.8800 0.8800 0.8800
3718.978727 0.8800 0.8800 0.8800 0.8800 0.8800
3722.628364 0.8800 0.8800 0.8800 0.8800 0.8800
3726.278000 0.8800 0.8800 0.8800 0.8800 0.8800
3729.927636 0.8800 0.8800 0.8800 0.8800 0.8800
3733.577273 0.8797 0.8795 0.8792 0.8790 0.8790
3737.226909 0.8790 0.8790 0.8790 0.8790 0.8790
3740.876545 0.8790 0.8790 0.8787 0.8785 0.8782
3744.526182 0.8780 0.8780 0.8780 0.8780 0.8780
3748.175818 0.8780 0.8780 0.8780 0.8779 0.8777
3751.825455 0.8774 0.8772 0.8770 0.8770 0.8770
3755.475091 0.8770 0.8769 0.8763 0.8758 0.8753
3759.124727 0.8749 0.8747 0.8744 0.8741 0.8739
3762.774364 0.8736 0.8734 0.8731 0.8729 0.8726
3766.424000 0.8724 0.8721 0.8720 0.8720 0.8720
3770.073636 0.8720 0.8720 0.8720 0.8720 0.8720
3773.723273 0.8720 0.8720 0.8720 0.8720 0.8718
3777.372909 0.8716 0.8713 0.8711 0.8710 0.8710
3781.022545 0.8710 0.8710 0.8710 0.8710 0.8710
3784.672182 0.8710 0.8710 0.8710 0.8710 0.8710
3788.321818 0.8710 0.8710 0.8710 0.8710 0.8712
3791.971455 0.8715 0.8717 0.8720 0.8720 0.8720
3795.621091 0.8720 0.8720 0.8720 0.8720 0.8720
3799.270727 0.8720 0.8720 0.8720 0.8720 0.8720
3802.920364 0.8720 0.8720 0.8720 0.8720 0.8720
3806.570000 0.8720 0.8720 0.8720 0.8720 0.8720
3810.219636 0.8720 0.8720 0.8717 0.8715 0.8712
3813.869273 0.8710 0.8710 0.8710 0.8710 0.8709
3817.518909 0.8707 0.8704 0.8702 0.8700 0.8700
3821.168545 0.8700 0.8700 0.8700 0.8700 0.8700
3824.818182 0.8700 0.8700 0.8700 0.8700 0.8700
3828.467818 0.8700 0.8700 0.8700 0.8700 0.8700
3832.117455 0.8700 0.8700 0.8700 0.8699 0.8696
3835.767091 0.8694 0.8691 0.8690 0.8690 0.8690
3839.416727 0.8690 0.8690 0.8690 0.8690 0.8690
3843.066364 0.8689 0.8686 0.8683 0.8681 0.8680
3846.716000 0.8680 0.8680 0.8680 0.8678 0.8676
3850.365636 0.8673 0.8671 0.8670 0.8670 0.8670
3854.015273 0.8670 0.8670 0.8670 0.8670 0.8670
3857.664909 0.8670 0.8670 0.8670 0.8670 0.8670
3861.314545 0.8670 0.8670 0.8670 0.8670 0.8670
3864.964182 0.8670 0.8670 0.8670 0.8670 0.8670
3868.613818 0.8670 0.8670 0.8670 0.8670 0.8670
3872.263455 0.8670 0.8670 0.8670 0.8670 0.8667
3875.913091 0.8665 0.8662 0.8660 0.8657 0.8655
3879.562727 0.8652 0.8650 0.8647 0.8644 0.8642
3883.212364 0.8640 0.8640 0.8640 0.8640 0.8639
3886.862000 0.8637 0.8634 0.8632 0.8629 0.8627
3890.511636 0.8624 0.8622 0.8620 0.8620 0.8620
3894.161273 0.8620 0.8620 0.8620 0.8620 0.8620
3897.810909 0.8619 0.8616 0.8614 0.8611 0.8609
3901.460545 0.8606 0.8604 0.8601 0.8599 0.8596
3905.110182 0.8594 0.8591 0.8590 0.8590 0.8590
3908.759818 0.8590 0.8590 0.8590 0.8590 0.8590
3912.409455 0.8590 0.8590 0.8590 0.8590 0.8588
3916.059091 0.8586 0.8583 0.8581 0.8580 0.8580
3919.708727 0.8580 0.8580 0.8580 0.8580 0.8580
3923.358364 0.8580 0.8580 0.8580 0.8580 0.8580
3927.008000 0.8578 0.8575 0.8573 0.8570 0.8568
3930.657636 0.8565 0.8563 0.8560 0.8560 0.8560
3934.307273 0.8560 0.8560 0.8560 0.8560 0.8560
3937.956909 0.8560 0.8557 0.8555 0.8552 0.8550
3941.606545 0.8550 0.8550 0.8550 0.8550 0.8550
3945.256182 0.8550 0.8550 0.8550 0.8550 0.8550
3948.905818 0.8550 0.8550 0.8550 0.8550 0.8550
3952.555455 0.8550 0.8550 0.8550 0.8550 0.8550
3956.205091 0.8550 0.8550 0.8550 0.8550 0.8550
3959.854727 0.8550 0.8550 0.8550 0.8550 0.8550
3963.504364 0.8550 0.8550 0.8550 0.8550 0.8550
3967.154000 0.8550 0.8550 0.8550 0.8550 0.8549
3970.803636 0.8546 0.8544 0.8541 0.8540 0.8540
3974.453273 0.8540 0.8540 0.8540 0.8540 0.8540
3978.102909 0.8540 0.8538 0.8536 0.8533 0.8531
3981.752545 0.8530 0.8530 0.8530 0.8530 0.8530
3985.402182 0.8530 0.8530 0.8530 0.8530 0.8530
3989.051818 0.8530 0.8530 0.8528 0.8525 0.8523
3992.701455 0.8520 0.8520 0.8520 0.8520 0.8520
3996.351091 0.8518 0.8515 0.8513 0.8510 0.8510
4000.000727 0.8510 0.8510
##END=
