##TITLE=17Alpha-HYDROXY PROGESTERONE
##JCAMP-DX=4.24
##DATA TYPE=INFRARED SPECTRUM
##CLASS=COBLENTZ
##ORIGIN=ABBOTT LABORATORIES - WASHBURN
##OWNER=COBLENTZ SOCIETY
Collection (C) 2018 copyright by the U.S. Secretary of Commerce
on behalf of the United States of America. All rights reserved.
##DATE=Not specified, most likely prior to 1970
##NAMES=17-hydroxypregn-4-ene-3,20-dione
##CAS REGISTRY NO=604-09-1
##MOLFORM=C21 H30 O3
##SOURCE REFERENCE=COBLENTZ NO. 3386
##$NIST SOURCE=COBLENTZ
##$NIST IMAGE=cob3386
##SPECTROMETER/DATA SYSTEM=PERKIN-ELMER
##STATE=SOLUTION (0.2M IN CHCl3)
##PATH LENGTH=0.010 CM CELL
$$ INACTIVE (CHCl3) AROUND 750 CM^-^1
##SAMPLING PROCEDURE=TRANSMISSION
##RESOLUTION=4
##DATA PROCESSING=DIGITIZED BY NIST FROM HARD COPY (FROM TWO SEGMENTS)
##XUNITS=MICROMETERS
##YUNITS=TRANSMITTANCE
##XFACTOR=1.000000
##YFACTOR=1
##DELTAX=0.006631
##FIRSTX=2.533
##LASTX=14.8468
##FIRSTY=0.935
##MAXX=14.8468
##MINX=2.533
##MAXY=0.975
##MINY=0.089
##NPOINTS=1858
##XYDATA=(X++(Y..Y))
2.533000 0.9350 0.9350 0.9350 0.9360 0.9360
2.566155 0.9360 0.9380 0.9380 0.9400 0.9410
2.599310 0.9462 0.9500 0.9510 0.9510 0.9510
2.632465 0.9510 0.9510 0.9509 0.9480 0.9480
2.665620 0.9461 0.9479 0.9499 0.9509 0.9547
2.698775 0.9559 0.9551 0.9532 0.9502 0.9482
2.731930 0.9460 0.9460 0.9460 0.9450 0.9430
2.765085 0.9352 0.9165 0.9005 0.8903 0.8823
2.798240 0.8778 0.8730 0.8730 0.8719 0.8694
2.831395 0.8476 0.8278 0.8178 0.8078 0.7969
2.864550 0.7848 0.7728 0.7674 0.7624 0.7555
2.897705 0.7541 0.7522 0.7520 0.7520 0.7547
2.930860 0.7618 0.7649 0.7718 0.7739 0.7769
2.964015 0.7886 0.7919 0.7949 0.8017 0.8077
2.997170 0.8152 0.8221 0.8281 0.8331 0.8381
3.030325 0.8420 0.8430 0.8470 0.8530 0.8630
3.063480 0.8676 0.8726 0.8794 0.8864 0.8925
3.096635 0.8966 0.8979 0.9025 0.9057 0.9078
3.129790 0.9099 0.9100 0.9129 0.9149 0.9160
3.162945 0.9160 0.9150 0.9150 0.9131 0.9130
3.196100 0.9110 0.9100 0.9100 0.9060 0.9030
3.229255 0.9010 0.9000 0.8980 0.8950 0.8871
3.262410 0.8787 0.8689 0.8653 0.8487 0.8317
3.295565 0.8192 0.7813 0.7699 0.7610 0.7192
3.328720 0.6634 0.6113 0.5652 0.5307 0.5148
3.361875 0.4772 0.4279 0.4090 0.3752 0.3282
3.395030 0.3180 0.3180 0.3250 0.3419 0.3629
3.428185 0.3868 0.4147 0.4406 0.4675 0.4925
3.461340 0.5121 0.5275 0.5469 0.5508 0.5528
3.494495 0.5530 0.5557 0.5648 0.6108 0.6582
3.527650 0.7064 0.7383 0.7777 0.8101 0.8223
3.560805 0.8510 0.8614 0.8722 0.8813 0.8894
3.593960 0.8970 0.9049 0.9099 0.9159 0.9199
3.627115 0.9200 0.9210 0.9230 0.9249 0.9250
3.660270 0.9260 0.9260 0.9261 0.9300 0.9310
3.693425 0.9311 0.9330 0.9330 0.9310 0.9310
3.726580 0.9329 0.9330 0.9349 0.9331 0.9330
3.759735 0.9348 0.9350 0.9350 0.9350 0.9359
3.792890 0.9360 0.9380 0.9380 0.9400 0.9410
3.826045 0.9410 0.9410 0.9410 0.9410 0.9429
3.859200 0.9450 0.9449 0.9430 0.9430 0.9430
3.892355 0.9430 0.9450 0.9450 0.9450 0.9430
3.925510 0.9430 0.9430 0.9430 0.9430 0.9430
3.958665 0.9412 0.9401 0.9400 0.9382 0.9398
3.991820 0.9410 0.9410 0.9410 0.9400 0.9381
4.024975 0.9351 0.9350 0.9312 0.9281 0.9233
4.058130 0.9200 0.9180 0.9180 0.9160 0.9150
4.091285 0.9130 0.9130 0.9110 0.9110 0.9110
4.124440 0.9110 0.9128 0.9130 0.9148 0.9159
4.157595 0.9196 0.9227 0.9275 0.9298 0.9309
4.190750 0.9406 0.9448 0.9460 0.9498 0.9500
4.223905 0.9509 0.9510 0.9501 0.9500 0.9500
4.257060 0.9500 0.9500 0.9500 0.9500 0.9500
4.290215 0.9500 0.9500 0.9500 0.9500 0.9500
4.323370 0.9509 0.9510 0.9528 0.9530 0.9548
4.356525 0.9559 0.9596 0.9609 0.9601 0.9600
4.389680 0.9581 0.9599 0.9600 0.9600 0.9609
4.422835 0.9582 0.9580 0.9599 0.9600 0.9600
4.455990 0.9600 0.9630 0.9610 0.9630 0.9630
4.489145 0.9630 0.9650 0.9660 0.9650 0.9631
4.522300 0.9612 0.9610 0.9628 0.9630 0.9630
4.555455 0.9656 0.9660 0.9651 0.9650 0.9650
4.588610 0.9650 0.9650 0.9631 0.9630 0.9630
4.621765 0.9630 0.9649 0.9659 0.9660 0.9660
4.654920 0.9650 0.9630 0.9630 0.9630 0.9630
4.688075 0.9630 0.9630 0.9649 0.9660 0.9679
4.721230 0.9680 0.9681 0.9700 0.9700 0.9699
4.754385 0.9660 0.9680 0.9680 0.9700 0.9710
4.787540 0.9710 0.9710 0.9710 0.9701 0.9709
4.820695 0.9710 0.9710 0.9728 0.9748 0.9750
4.853850 0.9711 0.9710 0.9700 0.9700 0.9700
4.887005 0.9700 0.9710 0.9710 0.9700 0.9681
4.920160 0.9660 0.9680 0.9680 0.9680 0.9660
4.953315 0.9660 0.9660 0.9680 0.9700 0.9700
4.986470 0.9709 0.9701 0.9662 0.9632 0.9583
5.019625 0.9580 0.9625 0.9630 0.9648 0.9659
5.052780 0.9660 0.9677 0.9697 0.9700 0.9700
5.085935 0.9700 0.9684 0.9696 0.9700 0.9700
5.119090 0.9700 0.9707 0.9710 0.9710 0.9710
5.152245 0.9710 0.9710 0.9710 0.9703 0.9700
5.185400 0.9706 0.9704 0.9706 0.9710 0.9710
5.218555 0.9710 0.9710 0.9710 0.9710 0.9704
5.251710 0.9705 0.9710 0.9710 0.9706 0.9700
5.284865 0.9693 0.9687 0.9693 0.9674 0.9660
5.318020 0.9660 0.9671 0.9694 0.9680 0.9666
5.351175 0.9635 0.9650 0.9650 0.9652 0.9658
5.384330 0.9650 0.9646 0.9633 0.9650 0.9650
5.417485 0.9650 0.9650 0.9650 0.9650 0.9650
5.450640 0.9648 0.9629 0.9610 0.9610 0.9609
5.483795 0.9598 0.9559 0.9529 0.9510 0.9510
5.516950 0.9500 0.9510 0.9510 0.9510 0.9510
5.550105 0.9500 0.9481 0.9462 0.9451 0.9432
5.583260 0.9430 0.9413 0.9384 0.9354 0.9333
5.616415 0.9330 0.9330 0.9305 0.9300 0.9284
5.649570 0.9264 0.9252 0.9250 0.9224 0.9204
5.682725 0.9188 0.9151 0.9113 0.9061 0.9003
5.715880 0.8948 0.8894 0.8835 0.8775 0.8725
5.749035 0.8641 0.8532 0.8466 0.8396 0.8286
5.782190 0.8183 0.8037 0.7820 0.7590 0.7308
5.815345 0.6871 0.6477 0.6085 0.5419 0.4660
5.848500 0.3747 0.3184 0.2926 0.2814 0.2821
5.881655 0.2913 0.3028 0.3076 0.3170 0.3239
5.914810 0.3277 0.3300 0.3294 0.3201 0.2840
5.947965 0.2498 0.1988 0.1655 0.1451 0.1327
5.981120 0.1228 0.1127 0.1017 0.0986 0.0937
6.014275 0.0908 0.0890 0.0894 0.0976 0.1354
6.047430 0.1828 0.2321 0.2933 0.3389 0.3744
6.080585 0.4116 0.4401 0.4538 0.4718 0.4993
6.113740 0.5389 0.5820 0.6173 0.6448 0.6623
6.146895 0.6667 0.6627 0.6442 0.6122 0.5821
6.180050 0.5585 0.5413 0.5347 0.5415 0.5692
6.213205 0.6162 0.6715 0.7269 0.7712 0.7990
6.246360 0.8287 0.8505 0.8593 0.8656 0.8706
6.279515 0.8751 0.8785 0.8825 0.8864 0.8903
6.312670 0.8939 0.8959 0.9004 0.9054 0.9077
6.345825 0.9100 0.9104 0.9118 0.9130 0.9130
6.378980 0.9130 0.9130 0.9130 0.9130 0.9130
6.412135 0.9136 0.9153 0.9166 0.9186 0.9203
6.445290 0.9215 0.9230 0.9234 0.9250 0.9252
6.478445 0.9260 0.9260 0.9261 0.9281 0.9300
6.511600 0.9300 0.9300 0.9300 0.9281 0.9280
6.544755 0.9261 0.9250 0.9231 0.9212 0.9201
6.577910 0.9182 0.9154 0.9133 0.9130 0.9113
6.611065 0.9110 0.9110 0.9110 0.9110 0.9110
6.644220 0.9110 0.9110 0.9087 0.9080 0.9065
6.677375 0.9037 0.9015 0.8981 0.8934 0.8871
6.710530 0.8829 0.8806 0.8787 0.8741 0.8675
6.743685 0.8566 0.8456 0.8345 0.8226 0.8072
6.776840 0.7953 0.7880 0.7766 0.7640 0.7537
6.809995 0.7436 0.7325 0.7244 0.7194 0.7145
6.843150 0.7096 0.6999 0.6828 0.6675 0.6594
6.876305 0.6515 0.6405 0.6306 0.6210 0.6033
6.909460 0.6010 0.6028 0.6127 0.6293 0.6421
6.942615 0.6570 0.6620 0.6615 0.6574 0.6461
6.975770 0.6254 0.6009 0.5930 0.5951 0.6173
7.008925 0.6335 0.6552 0.6692 0.6720 0.6719
7.042080 0.6689 0.6659 0.6590 0.6560 0.6540
7.075235 0.6569 0.6736 0.6866 0.6937 0.7081
7.108390 0.7257 0.7425 0.7539 0.7594 0.7661
7.141545 0.7713 0.7746 0.7785 0.7833 0.7840
7.174700 0.7824 0.7763 0.7702 0.7502 0.7219
7.207855 0.6938 0.6640 0.6456 0.6323 0.6202
7.241010 0.6062 0.5956 0.5902 0.5904 0.5923
7.274165 0.5950 0.5994 0.6066 0.6140 0.6242
7.307320 0.6329 0.6331 0.6249 0.6065 0.5823
7.340475 0.5551 0.5298 0.5038 0.4691 0.4308
7.373630 0.4051 0.3932 0.3893 0.3880 0.3949
7.406785 0.4178 0.4416 0.4614 0.4839 0.5113
7.439940 0.5399 0.5675 0.6011 0.6292 0.6395
7.473095 0.6516 0.6624 0.6630 0.6581 0.6526
7.506250 0.6428 0.6238 0.6110 0.6111 0.6147
7.539405 0.6393 0.6646 0.7073 0.7381 0.7509
7.572560 0.7624 0.7693 0.7752 0.7821 0.7890
7.605715 0.7950 0.8019 0.8100 0.8120 0.8120
7.638870 0.8149 0.8150 0.8150 0.8168 0.8170
7.672025 0.8170 0.8152 0.8135 0.8108 0.8043
7.705180 0.7964 0.7912 0.7832 0.7780 0.7724
7.738335 0.7681 0.7651 0.7627 0.7607 0.7594
7.771490 0.7566 0.7521 0.7465 0.7389 0.7295
7.804645 0.7196 0.7119 0.7001 0.6815 0.6664
7.837800 0.6515 0.6323 0.6149 0.6065 0.6060
7.870955 0.6073 0.6098 0.6131 0.6173 0.6190
7.904110 0.6178 0.6160 0.6179 0.6264 0.6405
7.937265 0.6540 0.6672 0.6749 0.6767 0.6760
7.970420 0.6739 0.6684 0.6667 0.6647 0.6574
8.003575 0.6428 0.6314 0.6249 0.6057 0.5924
8.036730 0.5808 0.5544 0.5299 0.5125 0.5025
8.069885 0.4921 0.4857 0.4824 0.4762 0.4712
8.103040 0.4654 0.4585 0.4562 0.4515 0.4466
8.136195 0.4434 0.4430 0.4447 0.4493 0.4526
8.169350 0.4555 0.4576 0.4596 0.4648 0.4731
8.202505 0.4812 0.4853 0.4912 0.4953 0.4960
8.235660 0.4989 0.5022 0.5072 0.5118 0.5137
8.268815 0.5167 0.5187 0.5216 0.5262 0.5312
8.301970 0.5349 0.5379 0.5402 0.5422 0.5436
8.335125 0.5440 0.5440 0.5440 0.5451 0.5460
8.368280 0.5460 0.5470 0.5485 0.5500 0.5524
8.401435 0.5563 0.5599 0.5623 0.5657 0.5693
8.434590 0.5723 0.5757 0.5824 0.5905 0.5979
8.467745 0.6132 0.6305 0.6447 0.6612 0.6763
8.500900 0.6878 0.6966 0.7007 0.7055 0.7094
8.534055 0.7134 0.7259 0.7357 0.7557 0.7660
8.567210 0.7776 0.7855 0.7945 0.8053 0.8152
8.600365 0.8270 0.8349 0.8399 0.8477 0.8500
8.633520 0.8519 0.8549 0.8569 0.8570 0.8570
8.666675 0.8570 0.8579 0.8580 0.8580 0.8554
8.699830 0.8533 0.8504 0.8483 0.8472 0.8348
8.732985 0.8288 0.8233 0.8166 0.8097 0.8072
8.766140 0.8070 0.8070 0.8070 0.8056 0.8050
8.799295 0.8029 0.7999 0.7963 0.7930 0.7887
8.832450 0.7824 0.7761 0.7645 0.7559 0.7497
8.865605 0.7422 0.7361 0.7329 0.7303 0.7266
8.898760 0.7232 0.7200 0.7139 0.7034 0.6886
8.931915 0.6738 0.6600 0.6517 0.6510 0.6519
8.965070 0.6586 0.6714 0.6795 0.6881 0.6965
8.998225 0.7054 0.7139 0.7274 0.7312 0.7414
9.031380 0.7497 0.7617 0.7717 0.7853 0.7928
9.064535 0.7973 0.7991 0.8011 0.8110 0.8203
9.097690 0.8234 0.8266 0.8229 0.8219 0.8199
9.130845 0.8165 0.8018 0.7938 0.7771 0.7623
9.164000 0.7390 0.7222 0.7123 0.7024 0.6708
9.197155 0.6569 0.6560 0.6569 0.6606 0.6654
9.230310 0.6732 0.6890 0.7049 0.7181 0.7276
9.263465 0.7373 0.7431 0.7464 0.7525 0.7579
9.296620 0.7590 0.7577 0.7539 0.7508 0.7470
9.329775 0.7433 0.7375 0.7318 0.7322 0.7382
9.362930 0.7436 0.7498 0.7597 0.7700 0.7760
9.396085 0.7808 0.7869 0.7894 0.7900 0.7896
9.429240 0.7882 0.7857 0.7832 0.7820 0.7812
9.462395 0.7796 0.7790 0.7776 0.7750 0.7779
9.495550 0.7850 0.7876 0.7893 0.7900 0.7906
9.528705 0.7925 0.7948 0.7977 0.8012 0.8065
9.561860 0.8131 0.8177 0.8204 0.8222 0.8234
9.595015 0.8253 0.8270 0.8270 0.8270 0.8271
9.628170 0.8285 0.8338 0.8403 0.8434 0.8474
9.661325 0.8525 0.8602 0.8632 0.8670 0.8680
9.694480 0.8700 0.8720 0.8720 0.8730 0.8769
9.727635 0.8770 0.8780 0.8799 0.8782 0.8780
9.760790 0.8771 0.8770 0.8755 0.8728 0.8619
9.793945 0.8452 0.8365 0.8302 0.8246 0.8197
9.827100 0.8148 0.8123 0.8126 0.8130 0.8174
9.860255 0.8212 0.8256 0.8292 0.8317 0.8380
9.893410 0.8474 0.8525 0.8552 0.8575 0.8590
9.926565 0.8600 0.8610 0.8620 0.8620 0.8620
9.959720 0.8620 0.8620 0.8620 0.8620 0.8620
9.992875 0.8620 0.8620 0.8620 0.8631 0.8657
10.026030 0.8670 0.8680 0.8707 0.8720 0.8714
10.059185 0.8700 0.8694 0.8666 0.8583 0.8413
10.092340 0.8293 0.8261 0.8223 0.8184 0.8128
10.125495 0.8116 0.8100 0.8103 0.8122 0.8133
10.158650 0.8153 0.8175 0.8219 0.8249 0.8317
10.191805 0.8367 0.8398 0.8400 0.8418 0.8447
10.224960 0.8468 0.8470 0.8470 0.8479 0.8480
10.258115 0.8480 0.8480 0.8480 0.8472 0.8438
10.291270 0.8422 0.8389 0.8372 0.8355 0.8335
10.324425 0.8308 0.8227 0.8179 0.8100 0.8001
10.357580 0.7950 0.7914 0.7826 0.7630 0.7485
10.390735 0.7431 0.7401 0.7366 0.7344 0.7340
10.423890 0.7346 0.7361 0.7381 0.7390 0.7390
10.457045 0.7390 0.7390 0.7370 0.7320 0.7256
10.490200 0.7182 0.7122 0.7095 0.7081 0.7048
10.523355 0.7011 0.7000 0.7008 0.7020 0.7028
10.556510 0.7040 0.7044 0.7065 0.7115 0.7184
10.589665 0.7249 0.7290 0.7298 0.7349 0.7405
10.622820 0.7441 0.7454 0.7495 0.7541 0.7552
10.655975 0.7576 0.7642 0.7671 0.7691 0.7721
10.689130 0.7750 0.7790 0.7790 0.7800 0.7800
10.722285 0.7800 0.7800 0.7800 0.7791 0.7772
10.755440 0.7770 0.7752 0.7724 0.7702 0.7700
10.788595 0.7717 0.7737 0.7765 0.7795 0.7816
10.821750 0.7836 0.7848 0.7866 0.7894 0.7900
10.854905 0.7900 0.7877 0.7870 0.7855 0.7843
10.888060 0.7826 0.7820 0.7840 0.7864 0.7904
10.921215 0.7967 0.8062 0.8132 0.8225 0.8301
10.954370 0.8350 0.8388 0.8417 0.8450 0.8474
10.987525 0.8497 0.8524 0.8538 0.8550 0.8557
11.020680 0.8574 0.8580 0.8586 0.8600 0.8600
11.053835 0.8606 0.8629 0.8673 0.8735 0.8771
11.086990 0.8847 0.8907 0.8930 0.8930 0.8935
11.120145 0.8950 0.8954 0.8966 0.8947 0.8928
11.153300 0.8920 0.8927 0.8970 0.8970 0.8965
11.186455 0.8929 0.8918 0.8898 0.8860 0.8727
11.219610 0.8665 0.8548 0.8468 0.8320 0.8127
11.252765 0.7989 0.7821 0.7702 0.7594 0.7352
11.285920 0.7255 0.7194 0.7153 0.7141 0.7122
11.319075 0.7138 0.7167 0.7258 0.7469 0.7543
11.352230 0.7625 0.7747 0.7867 0.7914 0.7997
11.385385 0.8076 0.8145 0.8176 0.8204 0.8250
11.418540 0.8299 0.8320 0.8292 0.8248 0.8214
11.451695 0.8184 0.8143 0.8052 0.7919 0.7736
11.484850 0.7509 0.7277 0.7104 0.6979 0.6859
11.518005 0.6793 0.6743 0.6720 0.6728 0.6760
11.551160 0.6828 0.6945 0.7061 0.7131 0.7268
11.584315 0.7489 0.7630 0.7672 0.7741 0.7828
11.617470 0.7948 0.8046 0.8148 0.8251 0.8327
11.650625 0.8357 0.8391 0.8441 0.8498 0.8600
11.683780 0.8746 0.8830 0.8883 0.8904 0.8936
11.716935 0.8983 0.9008 0.9062 0.9085 0.9132
11.750090 0.9152 0.9180 0.9181 0.9200 0.9201
11.783245 0.9245 0.9259 0.9260 0.9260 0.9260
11.816400 0.9252 0.9250 0.9234 0.9230 0.9215
11.849555 0.9202 0.9161 0.9120 0.9065 0.9013
11.882710 0.8964 0.8929 0.8885 0.8823 0.8780
11.915865 0.8757 0.8737 0.8723 0.8720 0.8751
11.949020 0.8788 0.8842 0.8876 0.8903 0.8937
11.982175 0.8978 0.9017 0.9069 0.9116 0.9156
12.015330 0.9180 0.9180 0.9180 0.9180 0.9189
12.048485 0.9200 0.9191 0.9189 0.9200 0.9204
12.081640 0.9218 0.9230 0.9230 0.9241 0.9267
12.114795 0.9287 0.9304 0.9317 0.9337 0.9344
12.147950 0.9330 0.9330 0.9330 0.9325 0.9310
12.181105 0.9319 0.9350 0.9350 0.9348 0.9330
12.214260 0.9330 0.9330 0.9330 0.9330 0.9330
12.247415 0.9330 0.9310 0.9310 0.9300 0.9300
12.280570 0.9300 0.9281 0.9280 0.9280 0.9262
12.313725 0.9251 0.9214 0.9201 0.9165 0.9117
12.346880 0.9101 0.9100 0.9084 0.9064 0.9052
12.380035 0.9034 0.9006 0.8984 0.8972 0.8970
12.413190 0.8970 0.8970 0.8956 0.8950 0.8929
12.446345 0.8906 0.8886 0.8873 0.8857 0.8850
12.479500 0.8850 0.8850 0.8850 0.8862 0.8876
12.512655 0.8892 0.8900 0.8912 0.8920 0.8920
12.545810 0.8920 0.8909 0.8900 0.8900 0.8900
12.578965 0.8900 0.8900 0.8900 0.8900 0.8900
12.612120 0.8900 0.8900 0.8900 0.8900 0.8900
12.645275 0.8904 0.8920 0.8927 0.8954 0.8976
12.678430 0.9002 0.9010 0.9010 0.9013 0.9030
12.711585 0.9032 0.9050 0.9051 0.9060 0.9062
12.744740 0.9082 0.9100 0.9100 0.9100 0.9110
12.777895 0.9110 0.9100 0.9080 0.9080 0.9080
12.811050 0.9080 0.9080 0.9099 0.9147 0.9150
12.844205 0.9159 0.9178 0.9180 0.9162 0.9160
12.877360 0.9160 0.9177 0.9197 0.9208 0.9210
12.910515 0.9210 0.9210 0.9226 0.9246 0.9250
12.943670 0.9250 0.9250 0.9250 0.9250 0.9257
12.976825 0.9260 0.9260 0.9272 0.9280 0.9280
13.009980 0.9280 0.9280 0.9280 0.9290 0.9300
13.043135 0.9305 0.9319 0.9330 0.9339 0.9354
13.076290 0.9360 0.9368 0.9380 0.9380 0.9373
13.109445 0.9360 0.9360 0.9360 0.9360 0.9367
13.142600 0.9386 0.9400 0.9400 0.9403 0.9407
13.175755 0.9395 0.9380 0.9380 0.9380 0.9380
13.208910 0.9380 0.9380 0.9376 0.9360 0.9358
13.242065 0.9350 0.9347 0.9334 0.9363 0.9384
13.275220 0.9410 0.9412 0.9430 0.9430 0.9430
13.308375 0.9429 0.9400 0.9400 0.9379 0.9360
13.341530 0.9361 0.9400 0.9410 0.9429 0.9449
13.374685 0.9459 0.9479 0.9480 0.9480 0.9480
13.407840 0.9495 0.9500 0.9500 0.9500 0.9507
13.440995 0.9503 0.9507 0.9523 0.9544 0.9550
13.474150 0.9550 0.9550 0.9537 0.9530 0.9530
13.507305 0.9530 0.9542 0.9556 0.9571 0.9580
13.540460 0.9580 0.9591 0.9600 0.9600 0.9600
13.573615 0.9600 0.9600 0.9581 0.9560 0.9555
13.606770 0.9550 0.9550 0.9550 0.9554 0.9560
13.639925 0.9560 0.9560 0.9567 0.9580 0.9573
13.673080 0.9560 0.9560 0.9560 0.9560 0.9566
13.706235 0.9580 0.9580 0.9585 0.9600 0.9603
13.739390 0.9610 0.9610 0.9610 0.9610 0.9608
13.772545 0.9600 0.9605 0.9630 0.9627 0.9610
13.805700 0.9610 0.9630 0.9630 0.9630 0.9630
13.838855 0.9630 0.9630 0.9630 0.9612 0.9601
13.872010 0.9582 0.9580 0.9563 0.9551 0.9533
13.905165 0.9530 0.9514 0.9510 0.9502 0.9500
13.938320 0.9500 0.9484 0.9465 0.9452 0.9435
13.971475 0.9430 0.9409 0.9372 0.9353 0.9350
14.004630 0.9350 0.9357 0.9360 0.9373 0.9393
14.037785 0.9406 0.9410 0.9422 0.9430 0.9430
14.070940 0.9418 0.9404 0.9400 0.9378 0.9355
14.104095 0.9340 0.9330 0.9330 0.9330 0.9330
14.137250 0.9340 0.9341 0.9330 0.9330 0.9321
14.170405 0.9306 0.9300 0.9292 0.9280 0.9273
14.203560 0.9256 0.9243 0.9223 0.9200 0.9157
14.236715 0.9107 0.9094 0.9080 0.9072 0.9041
14.269870 0.9006 0.8977 0.8947 0.8918 0.8898
14.303025 0.8879 0.8870 0.8869 0.8850 0.8850
14.336180 0.8850 0.8850 0.8830 0.8830 0.8830
14.369335 0.8830 0.8830 0.8830 0.8848 0.8850
14.402490 0.8850 0.8850 0.8850 0.8868 0.8870
14.435645 0.8870 0.8878 0.8897 0.8916 0.8928
14.468800 0.8930 0.8930 0.8946 0.8966 0.8955
14.501955 0.8965 0.8970 0.8977 0.8980 0.8980
14.535110 0.8994 0.9000 0.9000 0.9000 0.9000
14.568265 0.9000 0.9000 0.9006 0.9010 0.9010
14.601420 0.9004 0.9000 0.9000 0.9000 0.9000
14.634575 0.9000 0.9000 0.8990 0.8975 0.8950
14.667730 0.8930 0.8926 0.8913 0.8890 0.8858
14.700885 0.8815 0.8777 0.8759 0.8727 0.8710
14.734040 0.8673 0.8643 0.8615 0.8593 0.8562
14.767195 0.8530 0.8530 0.8533 0.8553 0.8571
14.800350 0.8580 0.8583 0.8600 0.8606 0.8650
14.833505 0.8652 0.8671 0.8678
##END=
