##TITLE=9,10-DICHLOROANTHRACENE
$$ E. K. CO. (WHITE LABEL)
##JCAMP-DX=4.24
##DATA TYPE=INFRARED SPECTRUM
##CLASS=COBLENTZ
##ORIGIN=WYANDOTTE CHEMICALS CORP., WYANDOTTE, MICHIGAN, USA
##OWNER=COBLENTZ SOCIETY
Collection (C) 2018 copyright by the U.S. Secretary of Commerce
on behalf of the United States of America. All rights reserved.
##DATE=Not specified, most likely prior to 1970
##CAS REGISTRY NO=605-48-1
##MOLFORM=C14 H8 Cl2
##MP=209-211 C
##SOURCE REFERENCE=COBLENTZ NO. 2843
##$NIST SOURCE=COBLENTZ
##$NIST IMAGE=cob2843
##SPECTROMETER/DATA SYSTEM=Not specified, most likely a prism, grating, or hybrid spectrometer.
##STATE=SOLID (MINERAL OIL MULL)
##PATH LENGTH=
$$SPECTRAL CONTAMINATION DUE TO OIL AROUND 2900 CM^-^1
##SAMPLING PROCEDURE=TRANSMISSION
##RESOLUTION=4
##DATA PROCESSING=DIGITIZED BY NIST FROM HARD COPY
##XUNITS=MICROMETERS
##YUNITS=TRANSMITTANCE
##XFACTOR=1.000000
##YFACTOR=1
##DELTAX=000.006632
##FIRSTX=2.027
##LASTX=15.9938
##FIRSTY=0.466
##MAXX=15.9938
##MINX=2.027
##MAXY=0.95
##MINY=0.028
##NPOINTS=2107
##XYDATA=(X++(Y..Y))
2.027000 0.4660 0.4620 0.4610 0.4560 0.4560
2.060175 0.4540 0.4520 0.4520 0.4510 0.4490
2.093000 0.4490 0.4490 0.4490 0.4490 0.4510
2.126175 0.4510 0.4520 0.4520 0.4520 0.4520
2.159000 0.4540 0.4560 0.4560 0.4560 0.4570
2.192175 0.4570 0.4570 0.4590 0.4590 0.4610
2.225000 0.4620 0.4620 0.4640 0.4640 0.4660
2.258175 0.4670 0.4670 0.4690 0.4690 0.4710
2.292000 0.4710 0.4720 0.4740 0.4770 0.4770
2.325175 0.4790 0.4800 0.4820 0.4840 0.4850
2.358000 0.4870 0.4890 0.4900 0.4940 0.4950
2.391175 0.4970 0.4990 0.5000 0.5020 0.5040
2.424000 0.5040 0.5070 0.5090 0.5090 0.5100
2.457175 0.5120 0.5140 0.5150 0.5170 0.5190
2.491000 0.5190 0.5200 0.5220 0.5230 0.5230
2.524175 0.5250 0.5270 0.5270 0.5270 0.5270
2.557000 0.5270 0.5280 0.5300 0.5300 0.5320
2.590175 0.5330 0.5370 0.5400 0.5420 0.5430
2.623000 0.5430 0.5450 0.5450 0.5480 0.5480
2.656175 0.5500 0.5520 0.5520 0.5550 0.5550
2.690000 0.5550 0.5570 0.5580 0.5580 0.5600
2.723175 0.5610 0.5610 0.5630 0.5630 0.5650
2.756000 0.5660 0.5660 0.5660 0.5660 0.5660
2.789175 0.5660 0.5680 0.5680 0.5700 0.5700
2.822000 0.5710 0.5730 0.5750 0.5750 0.5760
2.855175 0.5780 0.5780 0.5800 0.5810 0.5830
2.889000 0.5850 0.5850 0.5860 0.5860 0.5880
2.922175 0.5880 0.5900 0.5900 0.5900 0.5900
2.955000 0.5900 0.5910 0.5910 0.5930 0.5930
2.988175 0.5950 0.5950 0.5950 0.5960 0.5960
3.021000 0.5980 0.5980 0.5980 0.6000 0.6000
3.054175 0.6010 0.6010 0.6030 0.6030 0.6040
3.088000 0.6060 0.6060 0.6080 0.6090 0.6110
3.121175 0.6110 0.6130 0.6130 0.6140 0.6160
3.154000 0.6160 0.6160 0.6180 0.6180 0.6190
3.187175 0.6190 0.6190 0.6210 0.6230 0.6230
3.220000 0.6230 0.6230 0.6210 0.6180 0.6130
3.253175 0.6090 0.6030 0.5980 0.5910 0.5850
3.287000 0.5760 0.5680 0.5580 0.5470 0.5330
3.320175 0.5140 0.4640 0.3980 0.3190 0.2360
3.353000 0.1600 0.0950 0.0510 0.0360 0.0290
3.386175 0.0280 0.0280 0.0280 0.0310 0.0390
3.419000 0.0460 0.0540 0.0620 0.0720 0.0800
3.452175 0.0840 0.0840 0.0800 0.0790 0.0770
3.486000 0.0790 0.0900 0.1120 0.1400 0.1730
3.519175 0.2060 0.2570 0.2990 0.3330 0.3600
3.552000 0.3800 0.3950 0.4080 0.4180 0.4240
3.585175 0.4280 0.4330 0.4380 0.4440 0.4460
3.618000 0.4490 0.4490 0.4510 0.4510 0.4510
3.651175 0.4510 0.4490 0.4490 0.4470 0.4470
3.685000 0.4470 0.4490 0.4490 0.4510 0.4510
3.718175 0.4520 0.4540 0.4560 0.4560 0.4570
3.751000 0.4570 0.4570 0.4590 0.4590 0.4610
3.784175 0.4610 0.4610 0.4610 0.4610 0.4620
3.817000 0.4620 0.4660 0.4670 0.4670 0.4690
3.850175 0.4720 0.4760 0.4770 0.4790 0.4800
3.883000 0.4840 0.4840 0.4850 0.4850 0.4870
3.916175 0.4870 0.4890 0.4900 0.4920 0.4920
3.950000 0.4940 0.4950 0.4970 0.4990 0.4990
3.983175 0.5000 0.5020 0.5040 0.5050 0.5070
4.016000 0.5070 0.5090 0.5090 0.5100 0.5100
4.049175 0.5100 0.5100 0.5100 0.5100 0.5100
4.082000 0.5100 0.5100 0.5120 0.5120 0.5150
4.115175 0.5150 0.5170 0.5190 0.5190 0.5200
4.149000 0.5200 0.5200 0.5200 0.5200 0.5200
4.182175 0.5200 0.5200 0.5200 0.5220 0.5230
4.215000 0.5230 0.5230 0.5250 0.5250 0.5270
4.248175 0.5270 0.5280 0.5280 0.5280 0.5280
4.281000 0.5280 0.5280 0.5280 0.5280 0.5280
4.314175 0.5280 0.5280 0.5270 0.5270 0.5270
4.348000 0.5270 0.5270 0.5270 0.5270 0.5270
4.381175 0.5280 0.5330 0.5370 0.5420 0.5470
4.414000 0.5480 0.5500 0.5500 0.5520 0.5520
4.447175 0.5530 0.5530 0.5550 0.5550 0.5570
4.480000 0.5570 0.5570 0.5580 0.5580 0.5600
4.513175 0.5610 0.5630 0.5630 0.5650 0.5660
4.547000 0.5660 0.5660 0.5680 0.5680 0.5680
4.580175 0.5700 0.5700 0.5710 0.5710 0.5710
4.613000 0.5710 0.5710 0.5710 0.5710 0.5730
4.646175 0.5730 0.5750 0.5760 0.5780 0.5800
4.679000 0.5800 0.5810 0.5830 0.5830 0.5850
4.712175 0.5860 0.5880 0.5900 0.5910 0.5930
4.746000 0.5950 0.5960 0.5980 0.5980 0.6000
4.779175 0.6000 0.6000 0.6010 0.6010 0.6010
4.812000 0.6030 0.6030 0.6060 0.6080 0.6090
4.845175 0.6090 0.6110 0.6110 0.6110 0.6110
4.878000 0.6110 0.6110 0.6110 0.6110 0.6110
4.911175 0.6130 0.6130 0.6140 0.6140 0.6140
4.945000 0.6160 0.6160 0.6160 0.6180 0.6180
4.978175 0.6190 0.6210 0.6230 0.6240 0.6260
5.011000 0.6280 0.6280 0.6290 0.6290 0.6290
5.044175 0.6290 0.6290 0.6290 0.6290 0.6290
5.077000 0.6310 0.6310 0.6310 0.6330 0.6340
5.110175 0.6360 0.6360 0.6360 0.6360 0.6380
5.144000 0.6390 0.6410 0.6410 0.6410 0.6410
5.177175 0.6380 0.6340 0.6310 0.6280 0.6260
5.210000 0.6260 0.6260 0.6290 0.6310 0.6330
5.243175 0.6330 0.6330 0.6340 0.6340 0.6340
5.276000 0.6360 0.6360 0.6380 0.6380 0.6390
5.309175 0.6390 0.6420 0.6460 0.6510 0.6540
5.342000 0.6540 0.6560 0.6560 0.6570 0.6570
5.375175 0.6570 0.6590 0.6590 0.6590 0.6610
5.409000 0.6610 0.6610 0.6620 0.6640 0.6660
5.442175 0.6660 0.6660 0.6670 0.6670 0.6690
5.475000 0.6690 0.6710 0.6720 0.6720 0.6720
5.508175 0.6720 0.6720 0.6720 0.6710 0.6690
5.541000 0.6640 0.6560 0.6540 0.6560 0.6610
5.574175 0.6620 0.6610 0.6570 0.6540 0.6510
5.608000 0.6490 0.6510 0.6540 0.6610 0.6660
5.641175 0.6670 0.6690 0.6710 0.6710 0.6720
5.674000 0.6740 0.6770 0.6790 0.6800 0.6800
5.707175 0.6820 0.6840 0.6840 0.6850 0.6850
5.740000 0.6870 0.6870 0.6870 0.6890 0.6890
5.773175 0.6890 0.6890 0.6890 0.6890 0.6890
5.807000 0.6890 0.6870 0.6870 0.6850 0.6850
5.840175 0.6840 0.6800 0.6790 0.6770 0.6760
5.873000 0.6740 0.6720 0.6720 0.6720 0.6740
5.906175 0.6740 0.6760 0.6770 0.6790 0.6800
5.939000 0.6870 0.6890 0.6900 0.6900 0.6900
5.972175 0.6920 0.6950 0.6970 0.7000 0.7000
6.006000 0.7000 0.7020 0.7020 0.7020 0.7050
6.039175 0.7070 0.7090 0.7100 0.7120 0.7140
6.072000 0.7170 0.7170 0.7150 0.7100 0.7020
6.105175 0.6920 0.6360 0.6260 0.6130 0.6000
6.138000 0.5850 0.5700 0.5680 0.5700 0.6080
6.171175 0.6540 0.6620 0.6640 0.6690 0.6740
6.205000 0.6800 0.6820 0.6890 0.6940 0.6950
6.238175 0.6970 0.6970 0.6990 0.7000 0.7050
6.271000 0.7090 0.7100 0.7120 0.7140 0.7170
6.304175 0.7170 0.7190 0.7190 0.7200 0.7220
6.337000 0.7230 0.7230 0.7250 0.7250 0.7270
6.370175 0.7280 0.7280 0.7300 0.7300 0.7320
6.404000 0.7320 0.7320 0.7320 0.7300 0.7270
6.437175 0.7270 0.7250 0.7250 0.7250 0.7270
6.470000 0.7270 0.7280 0.7330 0.7400 0.7400
6.503175 0.7370 0.7120 0.6920 0.6710 0.6590
6.536000 0.6570 0.6590 0.6720 0.6840 0.6900
6.569175 0.6950 0.6990 0.7020 0.7050 0.7050
6.603000 0.7070 0.7090 0.7090 0.7090 0.7090
6.636175 0.7070 0.7040 0.7040 0.7020 0.7000
6.669000 0.6990 0.6950 0.6940 0.6900 0.6870
6.702175 0.6790 0.6670 0.6540 0.6390 0.6240
6.735000 0.6080 0.5930 0.5760 0.5570 0.5230
6.768175 0.4820 0.4380 0.3900 0.3450 0.3040
6.802000 0.3020 0.3020 0.3040 0.3070 0.3120
6.835175 0.3200 0.3300 0.3400 0.3530 0.3680
6.868000 0.3810 0.3960 0.4090 0.4330 0.4390
6.901175 0.4330 0.4260 0.4180 0.4000 0.3980
6.934000 0.4000 0.4380 0.4870 0.5370 0.5830
6.967175 0.6080 0.6330 0.6470 0.6560 0.6720
7.000000 0.6900 0.6970 0.7020 0.7050 0.7070
7.033175 0.7100 0.7170 0.7230 0.7270 0.7300
7.067000 0.7350 0.7370 0.7380 0.7400 0.7420
7.100175 0.7430 0.7430 0.7420 0.7400 0.7380
7.133000 0.7370 0.7320 0.7280 0.7230 0.7190
7.166175 0.7120 0.7040 0.6940 0.6760 0.6510
7.199000 0.6240 0.5960 0.5660 0.5400 0.5150
7.232175 0.4940 0.4690 0.4590 0.4570 0.4570
7.266000 0.4610 0.4990 0.5170 0.5330 0.5480
7.299175 0.5780 0.5830 0.5880 0.5960 0.6060
7.332000 0.6190 0.6380 0.6610 0.6870 0.7000
7.365175 0.7120 0.7170 0.7200 0.7230 0.7250
7.398000 0.7280 0.7330 0.7430 0.7470 0.7500
7.431175 0.7520 0.7530 0.7550 0.7570 0.7570
7.465000 0.7580 0.7600 0.7600 0.7610 0.7630
7.498175 0.7660 0.7700 0.7710 0.7760 0.7800
7.531000 0.7860 0.7950 0.8000 0.8040 0.8080
7.564175 0.8080 0.8030 0.7050 0.6340 0.6110
7.597000 0.5760 0.4740 0.3280 0.2670 0.2660
7.630175 0.2670 0.3100 0.3400 0.3780 0.4210
7.664000 0.4620 0.4990 0.5320 0.5610 0.5880
7.697175 0.6110 0.6330 0.6520 0.6690 0.6840
7.730000 0.6970 0.7090 0.7190 0.7270 0.7370
7.763175 0.7430 0.7500 0.7520 0.7550 0.7570
7.796000 0.7610 0.7680 0.7730 0.7750 0.7760
7.829175 0.7780 0.7760 0.7430 0.7040 0.6540
7.863000 0.6060 0.5710 0.5370 0.4940 0.4330
7.896175 0.3700 0.3120 0.2760 0.2740 0.2760
7.929000 0.3380 0.3980 0.4470 0.4900 0.5250
7.962175 0.5530 0.5750 0.5930 0.6060 0.6160
7.995000 0.6290 0.6390 0.6510 0.6570 0.6620
8.028175 0.6670 0.6720 0.6760 0.6800 0.6840
8.062000 0.6870 0.6900 0.6940 0.6970 0.6990
8.095175 0.7000 0.7070 0.7100 0.7150 0.7190
8.128000 0.7200 0.7220 0.7230 0.7250 0.7270
8.161175 0.7280 0.7300 0.7330 0.7350 0.7370
8.194000 0.7370 0.7350 0.7330 0.7300 0.7280
8.227175 0.7270 0.7270 0.7280 0.7330 0.7350
8.261000 0.7370 0.7380 0.7400 0.7430 0.7470
8.294175 0.7480 0.7500 0.7520 0.7520 0.7550
8.327000 0.7550 0.7580 0.7610 0.7650 0.7660
8.360175 0.7660 0.7630 0.7580 0.7530 0.7520
8.393000 0.7520 0.7550 0.7580 0.7600 0.7610
8.426175 0.7630 0.7660 0.7700 0.7730 0.7750
8.459000 0.7760 0.7760 0.7760 0.7750 0.7700
8.492175 0.7650 0.7580 0.7520 0.7480 0.7470
8.526000 0.7450 0.7430 0.7430 0.7470 0.7520
8.559175 0.7580 0.7610 0.7650 0.7660 0.7680
8.592000 0.7700 0.7730 0.7760 0.7810 0.7850
8.625175 0.7860 0.7880 0.7900 0.7900 0.7910
8.658000 0.7910 0.7930 0.7930 0.7950 0.7950
8.691175 0.7960 0.7960 0.7980 0.8010 0.8060
8.725000 0.8090 0.8110 0.8110 0.8140 0.8180
8.758175 0.8230 0.8260 0.8280 0.8290 0.8290
8.791000 0.8340 0.8380 0.8390 0.8410 0.8420
8.824175 0.8420 0.8440 0.8460 0.8460 0.8470
8.857000 0.8470 0.8490 0.8490 0.8490 0.8510
8.890175 0.8510 0.8510 0.8510 0.8510 0.8510
8.924000 0.8510 0.8510 0.8510 0.8510 0.8520
8.957175 0.8520 0.8520 0.8520 0.8520 0.8520
8.990000 0.8520 0.8510 0.8510 0.8510 0.8490
9.023175 0.8490 0.8490 0.8490 0.8490 0.8490
9.056000 0.8490 0.8510 0.8510 0.8510 0.8510
9.089175 0.8510 0.8540 0.8560 0.8560 0.8570
9.123000 0.8570 0.8570 0.8570 0.8570 0.8570
9.156175 0.8570 0.8570 0.8570 0.8570 0.8570
9.189000 0.8570 0.8560 0.8560 0.8540 0.8540
9.222175 0.8540 0.8540 0.8520 0.8520 0.8520
9.255000 0.8520 0.8510 0.8510 0.8510 0.8510
9.288175 0.8510 0.8510 0.8510 0.8510 0.8510
9.322000 0.8510 0.8510 0.8510 0.8510 0.8510
9.355175 0.8510 0.8510 0.8510 0.8510 0.8510
9.388000 0.8510 0.8510 0.8490 0.8490 0.8490
9.421175 0.8490 0.8470 0.8470 0.8470 0.8460
9.454000 0.8460 0.8460 0.8470 0.8470 0.8490
9.487175 0.8490 0.8510 0.8510 0.8520 0.8520
9.521000 0.8520 0.8520 0.8520 0.8520 0.8520
9.554175 0.8520 0.8520 0.8540 0.8540 0.8560
9.587000 0.8560 0.8560 0.8560 0.8560 0.8560
9.620175 0.8560 0.8570 0.8570 0.8590 0.8610
9.653000 0.8640 0.8660 0.8660 0.8660 0.8660
9.686175 0.8610 0.8440 0.8240 0.7950 0.7580
9.720000 0.7300 0.7020 0.6790 0.6540 0.6360
9.753175 0.6340 0.6330 0.6340 0.6720 0.7040
9.786000 0.7250 0.7480 0.7730 0.7930 0.8060
9.819175 0.8080 0.8090 0.8110 0.8160 0.8190
9.852000 0.8260 0.8310 0.8330 0.8360 0.8380
9.885175 0.8390 0.8410 0.8420 0.8460 0.8490
9.919000 0.8540 0.8560 0.8560 0.8560 0.8560
9.952175 0.8560 0.8560 0.8520 0.8520 0.8520
9.985000 0.8540 0.8560 0.8570 0.8570 0.8590
10.018175 0.8590 0.8610 0.8610 0.8620 0.8620
10.051000 0.8640 0.8660 0.8660 0.8670 0.8670
10.084175 0.8670 0.8670 0.8670 0.8690 0.8690
10.117000 0.8710 0.8710 0.8710 0.8710 0.8710
10.150175 0.8690 0.8670 0.8670 0.8660 0.8660
10.184000 0.8670 0.8690 0.8720 0.8740 0.8760
10.217175 0.8760 0.8760 0.8720 0.8710 0.8670
10.250000 0.8670 0.8640 0.8590 0.8560 0.8510
10.283175 0.8490 0.8460 0.8440 0.8440 0.8440
10.316000 0.8440 0.8440 0.8460 0.8510 0.8560
10.349175 0.8610 0.8660 0.8690 0.8710 0.8740
10.383000 0.8770 0.8820 0.8840 0.8850 0.8870
10.416175 0.8870 0.8890 0.8890 0.8870 0.8870
10.449000 0.8840 0.8800 0.8740 0.8670 0.8610
10.482175 0.8520 0.8420 0.8310 0.8190 0.8060
10.515000 0.7910 0.7750 0.7610 0.7470 0.7280
10.548175 0.6950 0.6470 0.5730 0.5100 0.4040
10.582000 0.3140 0.2900 0.2740 0.2720 0.2740
10.615175 0.2890 0.3070 0.3250 0.3470 0.3750
10.648000 0.4030 0.4410 0.4800 0.5150 0.5470
10.681175 0.5730 0.5950 0.6140 0.6310 0.6470
10.714000 0.6610 0.6720 0.6840 0.6950 0.7050
10.747175 0.7170 0.7270 0.7350 0.7430 0.7500
10.781000 0.7550 0.7570 0.7610 0.7680 0.7760
10.814175 0.7810 0.7850 0.7900 0.7910 0.7930
10.847000 0.7950 0.7960 0.7960 0.7980 0.8000
10.880175 0.8010 0.8040 0.8080 0.8090 0.8090
10.913000 0.8130 0.8140 0.8160 0.8160 0.8190
10.946175 0.8210 0.8230 0.8240 0.8240 0.8240
10.980000 0.8240 0.8240 0.8260 0.8260 0.8260
11.013175 0.8260 0.8260 0.8260 0.8260 0.8280
11.046000 0.8290 0.8290 0.8290 0.8290 0.8290
11.079175 0.8290 0.8290 0.8310 0.8310 0.8330
11.112000 0.8330 0.8340 0.8340 0.8340 0.8340
11.145175 0.8340 0.8340 0.8340 0.8340 0.8360
11.179000 0.8360 0.8360 0.8360 0.8380 0.8380
11.212175 0.8380 0.8380 0.8390 0.8390 0.8390
11.245000 0.8390 0.8390 0.8390 0.8410 0.8420
11.278175 0.8420 0.8440 0.8440 0.8460 0.8460
11.311000 0.8460 0.8470 0.8470 0.8490 0.8490
11.344175 0.8510 0.8510 0.8520 0.8520 0.8560
11.378000 0.8560 0.8560 0.8560 0.8560 0.8520
11.411175 0.8440 0.8390 0.8340 0.8240 0.8140
11.444000 0.8040 0.7960 0.7950 0.7950 0.7960
11.477175 0.8030 0.8130 0.8190 0.8260 0.8340
11.510000 0.8380 0.8410 0.8460 0.8490 0.8510
11.543175 0.8520 0.8540 0.8560 0.8570 0.8590
11.577000 0.8610 0.8620 0.8620 0.8620 0.8620
11.610175 0.8640 0.8640 0.8640 0.8660 0.8660
11.643000 0.8660 0.8660 0.8660 0.8660 0.8660
11.676175 0.8660 0.8660 0.8660 0.8660 0.8660
11.709000 0.8660 0.8660 0.8640 0.8620 0.8610
11.742175 0.8610 0.8610 0.8620 0.8620 0.8640
11.775000 0.8660 0.8670 0.8670 0.8690 0.8690
11.808175 0.8660 0.8660 0.8660 0.8670 0.8690
11.842000 0.8710 0.8710 0.8710 0.8710 0.8710
11.875175 0.8710 0.8710 0.8710 0.8710 0.8710
11.908000 0.8710 0.8710 0.8710 0.8710 0.8690
11.941175 0.8670 0.8660 0.8660 0.8620 0.8610
11.974000 0.8590 0.8590 0.8590 0.8620 0.8670
12.007175 0.8710 0.8740 0.8770 0.8770 0.8770
12.041000 0.8770 0.8790 0.8790 0.8800 0.8800
12.074175 0.8790 0.8790 0.8770 0.8770 0.8770
12.107000 0.8790 0.8790 0.8800 0.8820 0.8820
12.140175 0.8840 0.8850 0.8850 0.8850 0.8850
12.173000 0.8850 0.8850 0.8870 0.8870 0.8870
12.206175 0.8870 0.8870 0.8870 0.8870 0.8870
12.240000 0.8870 0.8850 0.8850 0.8850 0.8850
12.273175 0.8850 0.8850 0.8840 0.8840 0.8840
12.306000 0.8840 0.8850 0.8850 0.8870 0.8890
12.339175 0.8900 0.8900 0.8900 0.8890 0.8890
12.372000 0.8870 0.8850 0.8850 0.8850 0.8850
12.405175 0.8850 0.8850 0.8850 0.8850 0.8850
12.439000 0.8850 0.8850 0.8850 0.8850 0.8870
12.472175 0.8870 0.8870 0.8850 0.8850 0.8850
12.505000 0.8840 0.8840 0.8840 0.8840 0.8840
12.538175 0.8840 0.8840 0.8850 0.8850 0.8850
12.571000 0.8850 0.8870 0.8870 0.8870 0.8870
12.604175 0.8870 0.8870 0.8870 0.8870 0.8870
12.638000 0.8870 0.8850 0.8850 0.8840 0.8820
12.671175 0.8820 0.8800 0.8790 0.8790 0.8790
12.704000 0.8790 0.8790 0.8790 0.8790 0.8770
12.737175 0.8770 0.8760 0.8760 0.8760 0.8760
12.770000 0.8740 0.8740 0.8720 0.8720 0.8710
12.803175 0.8710 0.8690 0.8670 0.8670 0.8670
12.837000 0.8660 0.8660 0.8640 0.8640 0.8620
12.870175 0.8610 0.8610 0.8590 0.8590 0.8570
12.903000 0.8560 0.8560 0.8510 0.8490 0.8470
12.936175 0.8460 0.8420 0.8380 0.8340 0.8310
12.969000 0.8310 0.8280 0.8260 0.8240 0.8230
13.002175 0.8190 0.8140 0.8110 0.8080 0.8060
13.036000 0.8060 0.8000 0.7980 0.7950 0.7900
13.069175 0.7860 0.7860 0.7810 0.7780 0.7760
13.102000 0.7730 0.7680 0.7610 0.7570 0.7520
13.135175 0.7450 0.7400 0.7350 0.7300 0.7230
13.168000 0.7190 0.7100 0.7020 0.6950 0.6870
13.201175 0.6770 0.6670 0.6560 0.6440 0.6340
13.234000 0.6230 0.6110 0.6010 0.5900 0.5710
13.267175 0.5580 0.5430 0.5280 0.5140 0.4950
13.301000 0.4770 0.4540 0.4280 0.3980 0.3700
13.334175 0.3450 0.3120 0.2840 0.2520 0.2260
13.367000 0.2060 0.1930 0.1810 0.1730 0.1630
13.400175 0.1530 0.1470 0.1430 0.1380 0.1350
13.433000 0.1330 0.1330 0.1370 0.1450 0.1570
13.466175 0.1710 0.1900 0.2130 0.2380 0.2640
13.500000 0.2940 0.3250 0.3570 0.3900 0.4210
13.533175 0.4520 0.4840 0.5140 0.5420 0.5660
13.566000 0.5900 0.6080 0.6230 0.6360 0.6520
13.599175 0.6670 0.6820 0.6950 0.7090 0.7200
13.632000 0.7280 0.7350 0.7400 0.7450 0.7470
13.665175 0.7480 0.7500 0.7550 0.7570 0.7580
13.699000 0.7630 0.7660 0.7700 0.7750 0.7800
13.732175 0.7850 0.7860 0.7880 0.7910 0.7950
13.765000 0.7950 0.7960 0.8000 0.8060 0.8080
13.798175 0.8110 0.8130 0.8160 0.8190 0.8240
13.831000 0.8290 0.8330 0.8380 0.8410 0.8460
13.864175 0.8470 0.8490 0.8510 0.8520 0.8540
13.898000 0.8560 0.8570 0.8610 0.8620 0.8660
13.931175 0.8670 0.8710 0.8760 0.8770 0.8800
13.964000 0.8850 0.8900 0.8940 0.8970 0.8990
13.997175 0.9040 0.9070 0.9090 0.9120 0.9150
14.030000 0.9150 0.9170 0.9170 0.9190 0.9190
14.063175 0.9200 0.9220 0.9230 0.9270 0.9280
14.097000 0.9320 0.9350 0.9350 0.9370 0.9380
14.130175 0.9400 0.9400 0.9400 0.9420 0.9420
14.163000 0.9420 0.9420 0.9420 0.9430 0.9430
14.196175 0.9450 0.9450 0.9450 0.9470 0.9470
14.229000 0.9470 0.9480 0.9480 0.9480 0.9500
14.262175 0.9500 0.9500 0.9500 0.9500 0.9480
14.296000 0.9480 0.9470 0.9470 0.9470 0.9450
14.329175 0.9400 0.9350 0.9280 0.9200 0.9070
14.362000 0.8990 0.8890 0.8710 0.8510 0.8290
14.395175 0.8090 0.7900 0.7700 0.7550 0.7430
14.428000 0.7350 0.7300 0.7270 0.7250 0.7250
14.461175 0.7280 0.7330 0.7430 0.7580 0.7710
14.495000 0.7860 0.8000 0.8110 0.8230 0.8340
14.528175 0.8440 0.8520 0.8570 0.8610 0.8660
14.561000 0.8710 0.8760 0.8790 0.8800 0.8800
14.594175 0.8820 0.8840 0.8870 0.8890 0.8900
14.627000 0.8900 0.8920 0.8920 0.8920 0.8940
14.660175 0.8940 0.8950 0.8950 0.8950 0.8950
14.694000 0.8950 0.8940 0.8900 0.8850 0.8840
14.727175 0.8820 0.8820 0.8820 0.8820 0.8800
14.760000 0.8800 0.8800 0.8800 0.8800 0.8800
14.793175 0.8790 0.8790 0.8790 0.8770 0.8770
14.826000 0.8760 0.8760 0.8760 0.8740 0.8740
14.859175 0.8740 0.8720 0.8710 0.8690 0.8690
14.892000 0.8690 0.8670 0.8670 0.8670 0.8670
14.925175 0.8660 0.8640 0.8620 0.8620 0.8610
14.959000 0.8590 0.8570 0.8560 0.8540 0.8510
14.992175 0.8470 0.8420 0.8390 0.8310 0.8260
15.025000 0.8210 0.8140 0.8080 0.8010 0.7930
15.058175 0.7830 0.7760 0.7700 0.7650 0.7610
15.091000 0.7580 0.7570 0.7550 0.7570 0.7630
15.124175 0.7680 0.7750 0.7810 0.7900 0.7960
15.158000 0.8040 0.8090 0.8140 0.8180 0.8210
15.191175 0.8240 0.8260 0.8260 0.8240 0.8230
15.224000 0.8210 0.8190 0.8160 0.8140 0.8130
15.257175 0.8110 0.8080 0.8040 0.8010 0.7980
15.290000 0.7960 0.7960 0.7930 0.7930 0.7910
15.323175 0.7880 0.7850 0.7810 0.7800 0.7780
15.357000 0.7760 0.7750 0.7700 0.7700 0.7660
15.390175 0.7650 0.7650 0.7630 0.7600 0.7580
15.423000 0.7570 0.7570 0.7550 0.7550 0.7500
15.456175 0.7470 0.7450 0.7420 0.7370 0.7350
15.489000 0.7300 0.7270 0.7230 0.7220 0.7200
15.522175 0.7190 0.7150 0.7140 0.7100 0.7090
15.556000 0.7090 0.7090 0.7090 0.7070 0.7070
15.589175 0.7050 0.7000 0.7000 0.6990 0.6970
15.622000 0.6950 0.6940 0.6940 0.6900 0.6890
15.655175 0.6870 0.6850 0.6840 0.6840 0.6820
15.688000 0.6800 0.6770 0.6720 0.6690 0.6670
15.721175 0.6660 0.6620 0.6610 0.6570 0.6570
15.755000 0.6560 0.6510 0.6490 0.6470 0.6460
15.788175 0.6440 0.6420 0.6410 0.6380 0.6340
15.821000 0.6310 0.6290 0.6280 0.6260 0.6240
15.854175 0.6230 0.6190 0.6160 0.6160 0.6140
15.887000 0.6130 0.6110 0.6110 0.6090 0.6080
15.920175 0.6080 0.6060 0.6040 0.6000 0.5980
15.954000 0.5960 0.5950 0.5900 0.5860 0.5830
15.987175 0.5780 0.5680
##END=
