##TITLE=BENZENE, PENTACHLORO-
##JCAMP-DX=4.24
##DATA TYPE=INFRARED SPECTRUM
##CLASS=COBLENTZ III
##ORIGIN=PERKIN-ELMER
##OWNER=COBLENTZ SOCIETY
Collection (C) 2018 copyright by the U.S. Secretary of Commerce
on behalf of the United States of America. All rights reserved.
##DATE=1978/05/18
##NAMES=1,2,3,4,5-pentachlorobenzene
(COMMERCIAL FLAME RETARDANT)
##CAS REGISTRY NO=608-93-5
##MOLFORM=C6 H Cl5
##SOURCE REFERENCE=COBLENTZ NO. 10308
##$NIST SOURCE=COBLENTZ
##$NIST IMAGE=cob10308
##SPECTROMETER/DATA SYSTEM=PERKIN-ELMER 283
##PATH LENGTH=HOT PRESSED FILM
##SAMPLING PROCEDURE=TRANSMISSION
##RESOLUTION=4
##DATA PROCESSING=DIGITIZED BY NIST FROM HARD COPY (FROM TWO SEGMENTS)
##XUNITS=1/CM
##YUNITS=TRANSMITTANCE
##XFACTOR=1.000000
##YFACTOR=1
##DELTAX=0.973396
##FIRSTX=202.141
##LASTX=3999.36
##FIRSTY=0.027
##MAXX=3999.36
##MINX=202.141
##MAXY=0.96
##MINY=0.011
##NPOINTS=3902
##XYDATA=(X++(Y..Y))
202.141000 0.0270 0.0270 0.0250 0.0240 0.0230
207.007980 0.0230 0.0230 0.0210 0.0200 0.0190
211.874960 0.0160 0.0140 0.0110 0.0110 0.0110
216.741940 0.0120 0.0140 0.0200 0.0230 0.0240
221.608920 0.0240 0.0230 0.0230 0.0210 0.0200
226.475900 0.0200 0.0190 0.0190 0.0190 0.0200
231.342881 0.0200 0.0200 0.0200 0.0200 0.0190
236.209861 0.0190 0.0190 0.0200 0.0200 0.0200
241.076841 0.0210 0.0210 0.0210 0.0230 0.0230
245.943821 0.0230 0.0210 0.0210 0.0210 0.0210
250.810801 0.0210 0.0210 0.0230 0.0250 0.0250
255.677781 0.0280 0.0290 0.0320 0.0340 0.0370
260.544761 0.0410 0.0420 0.0450 0.0470 0.0510
265.411741 0.0550 0.0630 0.0700 0.0780 0.0870
270.278721 0.0960 0.1040 0.1130 0.1210 0.1270
275.145701 0.1340 0.1440 0.1470 0.1540 0.1630
280.012682 0.1740 0.1870 0.1970 0.2060 0.2070
284.879662 0.2160 0.2240 0.2330 0.2420 0.2510
289.746642 0.2610 0.2700 0.2800 0.2890 0.2960
294.613622 0.3040 0.3120 0.3170 0.3299 0.3399
299.480602 0.3490 0.3580 0.3660 0.3720 0.3790
304.347582 0.3840 0.3900 0.3970 0.4020 0.4090
309.214562 0.4160 0.4240 0.4320 0.4370 0.4420
314.081542 0.4460 0.4490 0.4520 0.4550 0.4600
318.948522 0.4650 0.4700 0.4770 0.4850 0.4900
323.815502 0.4950 0.5070 0.5140 0.5220 0.5270
328.682483 0.5340 0.5410 0.5450 0.5610 0.5700
333.549463 0.5760 0.5840 0.5920 0.5980 0.6050
338.416443 0.6120 0.6190 0.6240 0.6300 0.6370
343.283423 0.6430 0.6490 0.6550 0.6600 0.6670
348.150403 0.6720 0.6770 0.6830 0.6890 0.6940
353.017383 0.7000 0.7050 0.7100 0.7170 0.7220
357.884363 0.7270 0.7340 0.7390 0.7450 0.7490
362.751343 0.7520 0.7540 0.7600 0.7660 0.7710
367.618323 0.7740 0.7780 0.7830 0.7890 0.7940
372.485303 0.8000 0.8030 0.8050 0.8070 0.8100
377.352284 0.8120 0.8150 0.8190 0.8210 0.8250
382.219264 0.8280 0.8320 0.8360 0.8400 0.8420
387.086244 0.8450 0.8470 0.8520 0.8550 0.8590
391.953224 0.8590 0.8610 0.8640 0.8650 0.8680
396.820204 0.8680 0.8690 0.8720 0.8760 0.8810
401.687184 0.8850 0.8890 0.8900 0.8920 0.8940
406.554164 0.8980 0.8980 0.8990 0.9010 0.9030
411.421144 0.9050 0.9070 0.9080 0.9090 0.9090
416.288124 0.9090 0.9100 0.9120 0.9120 0.9130
421.155104 0.9140 0.9160 0.9160 0.9170 0.9170
426.022085 0.9200 0.9200 0.9210 0.9210 0.9220
430.889065 0.9220 0.9230 0.9260 0.9270 0.9290
435.756045 0.9300 0.9300 0.9310 0.9320 0.9320
440.623025 0.9340 0.9380 0.9390 0.9400 0.9410
445.490005 0.9430 0.9440 0.9450 0.9470 0.9480
450.356985 0.9480 0.9490 0.9490 0.9490 0.9500
455.223965 0.9500 0.9520 0.9520 0.9520 0.9520
460.090945 0.9520 0.9520 0.9540 0.9540 0.9560
464.957925 0.9560 0.9560 0.9560 0.9560 0.9560
469.824905 0.9560 0.9560 0.9560 0.9560 0.9570
474.691886 0.9570 0.9570 0.9570 0.9570 0.9570
479.558866 0.9570 0.9570 0.9570 0.9570 0.9580
484.425846 0.9580 0.9580 0.9580 0.9580 0.9600
489.292826 0.9600 0.9580 0.9580 0.9580 0.9580
494.159806 0.9580 0.9580 0.9580 0.9570 0.9570
499.026786 0.9560 0.9560 0.9540 0.9540 0.9530
503.893766 0.9530 0.9530 0.9530 0.9520 0.9520
508.760746 0.9520 0.9490 0.9480 0.9470 0.9440
513.627726 0.9430 0.9410 0.9400 0.9380 0.9360
518.494706 0.9310 0.9300 0.9180 0.8294 0.7803
523.361687 0.7049 0.5390 0.4830 0.4830 0.5269
528.228667 0.6827 0.7837 0.8638 0.9039 0.9169
533.095647 0.9170 0.9140 0.9120 0.9040 0.8940
537.962627 0.8820 0.8690 0.8291 0.8001 0.7801
542.829607 0.7630 0.7500 0.7340 0.7250 0.7230
547.696587 0.7230 0.7220 0.7210 0.7200 0.7120
552.563567 0.6980 0.6820 0.6630 0.6430 0.6200
557.430547 0.5941 0.5661 0.5351 0.4991 0.4403
562.297527 0.4090 0.4070 0.4090 0.4330 0.4639
567.164507 0.5139 0.5599 0.6318 0.7027 0.7598
572.031487 0.8050 0.8380 0.8650 0.8850 0.8980
576.898468 0.9080 0.9160 0.9200 0.9290 0.9310
581.765448 0.9340 0.9360 0.9380 0.9390 0.9400
586.632428 0.9410 0.9410 0.9430 0.9440 0.9440
591.499408 0.9440 0.9440 0.9440 0.9440 0.9450
596.366388 0.9450 0.9450 0.9400 0.9380 0.9231
601.233368 0.9130 0.9040 0.9010 0.9030 0.9050
606.100348 0.9050 0.9070 0.9090 0.9090 0.9090
610.967328 0.9090 0.9080 0.9080 0.9080 0.9080
615.834308 0.9070 0.9050 0.9050 0.9040 0.9040
620.701288 0.9040 0.9050 0.9050 0.9080 0.9080
625.568269 0.9040 0.9040 0.9040 0.9040 0.9050
630.435249 0.9070 0.9080 0.9080 0.9080 0.9070
635.302229 0.9070 0.9050 0.9050 0.9050 0.9050
640.169209 0.9050 0.9050 0.9050 0.9040 0.9010
645.036189 0.9000 0.9000 0.9000 0.9000 0.9000
649.903169 0.8990 0.8980 0.8960 0.8940 0.8940
654.770149 0.8920 0.8910 0.8910 0.8900 0.8890
659.637129 0.8870 0.8860 0.8830 0.8820 0.8810
664.504109 0.8800 0.8800 0.8780 0.8740 0.8730
669.371089 0.8640 0.8550 0.8460 0.8320 0.8150
674.238070 0.7921 0.7561 0.7181 0.6642 0.6192
679.105050 0.5669 0.4990 0.4980 0.5230 0.5490
683.972030 0.5540 0.6189 0.7048 0.7528 0.7759
688.839010 0.7890 0.8090 0.8180 0.8180 0.8150
693.705990 0.8140 0.8070 0.7871 0.7581 0.6863
698.572970 0.6410 0.6410 0.7300 0.7960 0.8300
703.439950 0.8639 0.8690 0.8730 0.8770 0.8820
708.306930 0.8860 0.8940 0.9000 0.9040 0.9090
713.173910 0.9100 0.9100 0.9120 0.9120 0.9130
718.040890 0.9120 0.9130 0.9130 0.9130 0.9130
722.907871 0.9130 0.9130 0.9130 0.9130 0.9130
727.774851 0.9130 0.9140 0.9140 0.9140 0.9140
732.641831 0.9140 0.9140 0.9140 0.9140 0.9140
737.508811 0.9130 0.9130 0.9130 0.9130 0.9130
742.375791 0.9130 0.9130 0.9130 0.9130 0.9130
747.242771 0.9130 0.9130 0.9120 0.9120 0.9120
752.109751 0.9100 0.9100 0.9100 0.9090 0.9090
756.976731 0.9090 0.9090 0.9090 0.9080 0.9080
761.843711 0.9070 0.9070 0.9050 0.9030 0.9010
766.710691 0.9010 0.8990 0.8980 0.8940 0.8910
771.577672 0.8900 0.8890 0.8890 0.8890 0.8870
776.444652 0.8870 0.8860 0.8860 0.8860 0.8850
781.311632 0.8820 0.8810 0.8800 0.8780 0.8770
786.178612 0.8760 0.8730 0.8700 0.8700 0.8670
791.045592 0.8610 0.8550 0.8540 0.8450 0.8331
795.912572 0.8190 0.8060 0.7930 0.7840 0.7830
800.779552 0.7840 0.7840 0.7870 0.7870 0.7850
805.646532 0.7540 0.7140 0.6920 0.6770 0.6650
810.513512 0.6520 0.6370 0.6141 0.5781 0.5262
815.380492 0.4550 0.3880 0.3360 0.2741 0.2211
820.247473 0.1531 0.1091 0.1090 0.1688 0.2447
825.114453 0.3711 0.4990 0.5959 0.6649 0.7139
829.981433 0.7449 0.7620 0.7720 0.7790 0.7850
834.848413 0.7970 0.8050 0.8140 0.8320 0.8470
839.715393 0.8590 0.8690 0.8770 0.8810 0.8850
844.582373 0.8860 0.8860 0.8850 0.8850 0.8850
849.449353 0.8800 0.8770 0.8740 0.8720 0.8680
854.316333 0.8610 0.8500 0.8020 0.7630 0.7220
859.183313 0.6611 0.5672 0.4243 0.3791 0.2196
864.050293 0.1710 0.1710 0.1940 0.3300 0.4429
868.917274 0.5379 0.6139 0.6729 0.7199 0.7539
873.784254 0.7800 0.7970 0.8090 0.8160 0.8240
878.651234 0.8340 0.8470 0.8580 0.8680 0.8720
883.518214 0.8770 0.8780 0.8800 0.8800 0.8810
888.385194 0.8820 0.8830 0.8830 0.8850 0.8860
893.252174 0.8890 0.8890 0.8900 0.8910 0.8940
898.119154 0.8940 0.8940 0.8920 0.8910 0.8900
902.986134 0.8890 0.8900 0.8890 0.8870 0.8870
907.853114 0.8870 0.8870 0.8870 0.8890 0.8900
912.720094 0.8900 0.8890 0.8890 0.8870 0.8860
917.587074 0.8860 0.8860 0.8870 0.8870 0.8890
922.454055 0.8900 0.8900 0.8910 0.8910 0.8900
927.321035 0.8900 0.8900 0.8900 0.8890 0.8870
932.188015 0.8820 0.8820 0.8810 0.8810 0.8760
937.054995 0.8510 0.8360 0.8200 0.7761 0.7740
941.921975 0.7750 0.7790 0.7840 0.7870 0.7880
946.788955 0.7940 0.8150 0.8250 0.8519 0.8729
951.655935 0.8850 0.8890 0.8890 0.8890 0.8870
956.522915 0.8870 0.8860 0.8830 0.8820 0.8820
961.389895 0.8800 0.8780 0.8760 0.8760 0.8740
966.256875 0.8740 0.8730 0.8720 0.8680 0.8640
971.123856 0.8590 0.8560 0.8560 0.8560 0.8580
975.990836 0.8610 0.8650 0.8720 0.8760 0.8780
980.857816 0.8780 0.8780 0.8780 0.8780 0.8770
985.724796 0.8760 0.8760 0.8770 0.8780 0.8810
990.591776 0.8830 0.8860 0.8870 0.8890 0.8900
995.458756 0.8910 0.8910 0.8920 0.8920 0.8920
1000.325736 0.8940 0.8920 0.8920 0.8920 0.8920
1005.192716 0.8920 0.8920 0.8920 0.8910 0.8910
1010.059696 0.8910 0.8900 0.8900 0.8900 0.8890
1014.926676 0.8890 0.8870 0.8870 0.8860 0.8860
1019.793657 0.8850 0.8850 0.8850 0.8860 0.8860
1024.660637 0.8860 0.8860 0.8860 0.8860 0.8860
1029.527617 0.8860 0.8860 0.8860 0.8860 0.8850
1034.394597 0.8850 0.8850 0.8850 0.8850 0.8830
1039.261577 0.8830 0.8820 0.8820 0.8820 0.8810
1044.128557 0.8770 0.8730 0.8700 0.8680 0.8670
1048.995537 0.8640 0.8490 0.8320 0.8120 0.7930
1053.862517 0.7930 0.8329 0.8410 0.8470 0.8779
1058.729497 0.8780 0.8770 0.8770 0.8770 0.8740
1063.596477 0.8740 0.8730 0.8730 0.8730 0.8700
1068.463458 0.8680 0.8650 0.8610 0.8400 0.8370
1073.330438 0.8110 0.7960 0.7880 0.7880 0.7830
1078.197418 0.7710 0.7528 0.5660 0.5300 0.4770
1083.064398 0.4061 0.2593 0.2301 0.2300 0.2559
1087.931378 0.3601 0.4341 0.5000 0.5970 0.7089
1092.798358 0.7480 0.7809 0.8109 0.8329 0.8499
1097.665338 0.8580 0.8580 0.8640 0.8700 0.8720
1102.532318 0.8720 0.8700 0.8700 0.8700 0.8700
1107.399298 0.8700 0.8700 0.8650 0.8610 0.8580
1112.266278 0.8520 0.8510 0.8520 0.8600 0.8700
1117.133259 0.8720 0.8720 0.8700 0.8680 0.8630
1122.000239 0.8460 0.8280 0.8200 0.8200 0.8320
1126.867219 0.8610 0.8680 0.8720 0.8730 0.8730
1131.734199 0.8730 0.8730 0.8730 0.8730 0.8730
1136.601179 0.8730 0.8730 0.8730 0.8720 0.8700
1141.468159 0.8690 0.8680 0.8680 0.8670 0.8670
1146.335139 0.8650 0.8650 0.8640 0.8630 0.8630
1151.202119 0.8600 0.8560 0.8520 0.8510 0.8500
1156.069099 0.8490 0.8460 0.8430 0.8400 0.8340
1160.936079 0.8270 0.8240 0.8150 0.8020 0.7851
1165.803060 0.7670 0.7449 0.6939 0.5809 0.4670
1170.670040 0.3781 0.2991 0.2990 0.3998 0.5087
1175.537020 0.6322 0.7071 0.7490 0.7700 0.7850
1180.404000 0.8060 0.8140 0.8190 0.8190 0.8210
1185.270980 0.8230 0.8270 0.8300 0.8340 0.8370
1190.137960 0.8400 0.8400 0.8410 0.8420 0.8430
1195.004940 0.8430 0.8460 0.8470 0.8500 0.8500
1199.871920 0.8500 0.8510 0.8510 0.8510 0.8500
1204.738900 0.8460 0.8400 0.8300 0.8190 0.8060
1209.605880 0.7890 0.7700 0.7630 0.7610 0.7620
1214.472860 0.7710 0.7720 0.7720 0.7710 0.7650
1219.339841 0.7610 0.7400 0.7350 0.7270 0.6901
1224.206821 0.6047 0.4459 0.3790 0.3790 0.4000
1229.073801 0.5559 0.7228 0.7839 0.8289 0.8300
1233.940781 0.8290 0.8210 0.8190 0.8110 0.8090
1238.807761 0.8110 0.8230 0.8300 0.8410 0.8490
1243.674741 0.8510 0.8510 0.8520 0.8540 0.8550
1248.541721 0.8550 0.8550 0.8550 0.8540 0.8520
1253.408701 0.8510 0.8510 0.8510 0.8500 0.8500
1258.275681 0.8500 0.8500 0.8510 0.8520 0.8520
1263.142661 0.8510 0.8510 0.8500 0.8500 0.8500
1268.009642 0.8520 0.8510 0.8500 0.8500 0.8490
1272.876622 0.8490 0.8490 0.8490 0.8470 0.8470
1277.743602 0.8460 0.8450 0.8430 0.8410 0.8380
1282.610582 0.8370 0.8340 0.8320 0.8290 0.8240
1287.477562 0.8200 0.8190 0.8180 0.8160 0.8150
1292.344542 0.8110 0.8100 0.7900 0.7740 0.7600
1297.211522 0.7450 0.7320 0.7180 0.7040 0.6871
1302.078502 0.6760 0.6730 0.6730 0.6740 0.6760
1306.945482 0.6780 0.6810 0.6780 0.6720 0.6670
1311.812462 0.6540 0.6410 0.6250 0.5970 0.5750
1316.679443 0.5390 0.4951 0.4800 0.4252 0.3792
1321.546423 0.3259 0.2940 0.2690 0.2500 0.2340
1326.413403 0.2200 0.2050 0.1850 0.1471 0.1121
1331.280383 0.1040 0.0870 0.0720 0.0720 0.0980
1336.147363 0.1350 0.1760 0.2110 0.2589 0.3009
1341.014343 0.3391 0.3791 0.4231 0.4670 0.5130
1345.881323 0.5570 0.6010 0.6399 0.6759 0.7069
1350.748303 0.7310 0.7470 0.7610 0.7620 0.7620
1355.615283 0.7620 0.7620 0.7620 0.7610 0.7600
1360.482263 0.7580 0.7570 0.7570 0.7560 0.7560
1365.349244 0.7540 0.7540 0.7530 0.7530 0.7520
1370.216224 0.7480 0.7410 0.7360 0.7340 0.7300
1375.083204 0.7290 0.7250 0.7220 0.7160 0.7080
1379.950184 0.6960 0.6770 0.6590 0.6420 0.6270
1384.817164 0.6110 0.5960 0.5760 0.5451 0.5261
1389.684144 0.4899 0.4580 0.4330 0.4120 0.4010
1394.551124 0.3940 0.3870 0.3830 0.3810 0.3800
1399.418104 0.3790 0.3800 0.3980 0.4200 0.4550
1404.285084 0.4820 0.5140 0.5450 0.5869 0.6229
1409.152064 0.6541 0.6810 0.7040 0.7260 0.7440
1414.019045 0.7490 0.7490 0.7470 0.7470 0.7430
1418.886025 0.7380 0.7300 0.7260 0.7230 0.7200
1423.753005 0.7200 0.7100 0.7090 0.7100 0.7220
1428.619985 0.7340 0.7480 0.7580 0.7660 0.7740
1433.486965 0.7790 0.7810 0.7850 0.7880 0.7890
1438.353945 0.7900 0.7900 0.7960 0.8010 0.8060
1443.220925 0.8100 0.8120 0.8160 0.8200 0.8210
1448.087905 0.8230 0.8230 0.8230 0.8200 0.8200
1452.954885 0.8200 0.8210 0.8210 0.8240 0.8280
1457.821865 0.8300 0.8330 0.8340 0.8340 0.8360
1462.688846 0.8360 0.8360 0.8340 0.8340 0.8340
1467.555826 0.8360 0.8370 0.8420 0.8450 0.8490
1472.422806 0.8520 0.8540 0.8550 0.8550 0.8550
1477.289786 0.8560 0.8560 0.8560 0.8560 0.8560
1482.156766 0.8560 0.8560 0.8550 0.8550 0.8540
1487.023746 0.8540 0.8540 0.8540 0.8540 0.8540
1491.890726 0.8520 0.8520 0.8510 0.8510 0.8510
1496.757706 0.8500 0.8500 0.8490 0.8490 0.8460
1501.624686 0.8420 0.8370 0.8340 0.8300 0.8280
1506.491666 0.8230 0.8160 0.8070 0.7930 0.7750
1511.358647 0.7500 0.7260 0.7130 0.7010 0.6910
1516.225627 0.6769 0.6489 0.6019 0.5269 0.4580
1521.092607 0.3810 0.3740 0.3141 0.2900 0.2900
1525.959587 0.3431 0.3690 0.3841 0.4241 0.4980
1530.826567 0.5170 0.5260 0.5360 0.5520 0.5710
1535.693547 0.6011 0.6401 0.6670 0.6990 0.7250
1540.560527 0.7270 0.7290 0.7300 0.7300 0.7320
1545.427507 0.7360 0.7380 0.7390 0.7360 0.7300
1550.294487 0.7230 0.7160 0.7040 0.6910 0.6900
1555.161467 0.6910 0.7000 0.7050 0.7180 0.7290
1560.028447 0.7500 0.7760 0.7940 0.8100 0.8200
1564.895428 0.8290 0.8370 0.8380 0.8400 0.8400
1569.762408 0.8410 0.8410 0.8430 0.8460 0.8460
1574.629388 0.8460 0.8460 0.8470 0.8470 0.8470
1579.496368 0.8470 0.8470 0.8470 0.8470 0.8470
1584.363348 0.8470 0.8470 0.8470 0.8470 0.8470
1589.230328 0.8470 0.8470 0.8470 0.8470 0.8470
1594.097308 0.8470 0.8460 0.8460 0.8460 0.8450
1598.964288 0.8450 0.8450 0.8450 0.8450 0.8450
1603.831268 0.8450 0.8450 0.8450 0.8450 0.8430
1608.698248 0.8430 0.8430 0.8430 0.8430 0.8420
1613.565229 0.8420 0.8420 0.8420 0.8420 0.8420
1618.432209 0.8420 0.8420 0.8410 0.8410 0.8410
1623.299189 0.8410 0.8410 0.8400 0.8380 0.8370
1628.166169 0.8330 0.8320 0.8300 0.8290 0.8280
1633.033149 0.8280 0.8280 0.8270 0.8270 0.8270
1637.900129 0.8250 0.8250 0.8240 0.8240 0.8240
1642.767109 0.8250 0.8270 0.8280 0.8290 0.8300
1647.634089 0.8300 0.8330 0.8370 0.8380 0.8410
1652.501069 0.8430 0.8430 0.8430 0.8430 0.8430
1657.368049 0.8430 0.8430 0.8450 0.8450 0.8450
1662.235030 0.8450 0.8450 0.8430 0.8430 0.8430
1667.102010 0.8430 0.8430 0.8420 0.8410 0.8380
1671.968990 0.8360 0.8330 0.8330 0.8320 0.8300
1676.835970 0.8290 0.8290 0.8300 0.8320 0.8330
1681.702950 0.8360 0.8380 0.8410 0.8430 0.8430
1686.569930 0.8420 0.8420 0.8410 0.8400 0.8380
1691.436910 0.8380 0.8380 0.8380 0.8400 0.8400
1696.303890 0.8410 0.8410 0.8410 0.8410 0.8410
1701.170870 0.8400 0.8360 0.8340 0.8330 0.8330
1706.037850 0.8300 0.8290 0.8280 0.8270 0.8250
1710.904831 0.8230 0.8200 0.8180 0.8150 0.8120
1715.771811 0.8100 0.8070 0.8050 0.8010 0.7960
1720.638791 0.7900 0.7840 0.7760 0.7660 0.7520
1725.505771 0.7250 0.6900 0.6460 0.5961 0.5391
1730.372751 0.5160 0.5160 0.5291 0.6000 0.6300
1735.239731 0.6460 0.6630 0.6820 0.7010 0.7210
1740.106711 0.7411 0.7600 0.7780 0.7920 0.8010
1744.973691 0.8050 0.8110 0.8160 0.8190 0.8210
1749.840671 0.8230 0.8250 0.8290 0.8300 0.8320
1754.707651 0.8340 0.8340 0.8360 0.8370 0.8370
1759.574632 0.8380 0.8380 0.8380 0.8380 0.8380
1764.441612 0.8400 0.8400 0.8400 0.8400 0.8400
1769.308592 0.8400 0.8400 0.8400 0.8410 0.8410
1774.175572 0.8410 0.8410 0.8410 0.8410 0.8420
1779.042552 0.8420 0.8420 0.8420 0.8420 0.8420
1783.909532 0.8420 0.8420 0.8420 0.8420 0.8420
1788.776512 0.8420 0.8420 0.8420 0.8420 0.8420
1793.643492 0.8420 0.8420 0.8420 0.8420 0.8420
1798.510472 0.8420 0.8430 0.8430 0.8450 0.8450
1803.377452 0.8450 0.8450 0.8450 0.8450 0.8420
1808.244433 0.8420 0.8420 0.8420 0.8420 0.8420
1813.111413 0.8430 0.8420 0.8420 0.8420 0.8420
1817.978393 0.8420 0.8420 0.8420 0.8410 0.8420
1822.845373 0.8420 0.8420 0.8420 0.8420 0.8420
1827.712353 0.8410 0.8400 0.8410 0.8400 0.8380
1832.579333 0.8400 0.8380 0.8380 0.8370 0.8380
1837.446313 0.8370 0.8370 0.8370 0.8360 0.8370
1842.313293 0.8370 0.8380 0.8370 0.8360 0.8340
1847.180273 0.8340 0.8320 0.8320 0.8300 0.8300
1852.047253 0.8320 0.8320 0.8320 0.8320 0.8330
1856.914234 0.8330 0.8340 0.8330 0.8330 0.8330
1861.781214 0.8340 0.8340 0.8330 0.8330 0.8340
1866.648194 0.8360 0.8380 0.8380 0.8370 0.8360
1871.515174 0.8340 0.8330 0.8330 0.8320 0.8320
1876.382154 0.8300 0.8300 0.8290 0.8300 0.8290
1881.249134 0.8280 0.8280 0.8280 0.8280 0.8280
1886.116114 0.8280 0.8280 0.8290 0.8290 0.8290
1890.983094 0.8290 0.8290 0.8290 0.8280 0.8270
1895.850074 0.8250 0.8240 0.8240 0.8240 0.8230
1900.717054 0.8230 0.8210 0.8210 0.8210 0.8210
1905.584034 0.8210 0.8230 0.8230 0.8230 0.8230
1910.451015 0.8240 0.8250 0.8270 0.8270 0.8280
1915.317995 0.8280 0.8280 0.8280 0.8280 0.8290
1920.184975 0.8290 0.8290 0.8280 0.8280 0.8280
1925.051955 0.8280 0.8290 0.8290 0.8300 0.8290
1929.918935 0.8290 0.8290 0.8290 0.8290 0.8290
1934.785915 0.8290 0.8280 0.8280 0.8280 0.8280
1939.652895 0.8280 0.8300 0.8300 0.8300 0.8290
1944.519875 0.8290 0.8290 0.8290 0.8290 0.8280
1949.386855 0.8280 0.8280 0.8280 0.8280 0.8270
1954.253835 0.8270 0.8270 0.8270 0.8280 0.8280
1959.120816 0.8280 0.8270 0.8290 0.8290 0.8290
1963.987796 0.8290 0.8280 0.8270 0.8270 0.8270
1968.854776 0.8270 0.8270 0.8270 0.8270 0.8270
1973.721756 0.8280 0.8280 0.8280 0.8270 0.8270
1978.588736 0.8270 0.8270 0.8250 0.8250 0.8250
1983.455716 0.8250 0.8250 0.8240 0.8250 0.8230
1988.322696 0.8230 0.8210 0.8230 0.8240 0.8230
1993.189676 0.8230 0.8230 0.8210 0.8230 0.8230
1998.056656 0.8230 0.8230 0.8210 0.8195 0.8180
2002.923636 0.8170 0.8160 0.8160 0.8160 0.8160
2007.790617 0.8160 0.8170 0.8180 0.8180 0.8180
2012.657597 0.8170 0.8160 0.8170 0.8180 0.8180
2017.524577 0.8180 0.8170 0.8160 0.8155 0.8150
2022.391557 0.8155 0.8160 0.8160 0.8160 0.8160
2027.258537 0.8160 0.8160 0.8160 0.8169 0.8179
2032.125517 0.8171 0.8161 0.8155 0.8150 0.8150
2036.992497 0.8150 0.8145 0.8140 0.8140 0.8140
2041.859477 0.8140 0.8140 0.8140 0.8140 0.8144
2046.726457 0.8149 0.8150 0.8150 0.8154 0.8159
2051.593437 0.8160 0.8160 0.8160 0.8160 0.8160
2056.460418 0.8160 0.8160 0.8160 0.8160 0.8160
2061.327398 0.8160 0.8160 0.8160 0.8160 0.8160
2066.194378 0.8160 0.8160 0.8160 0.8160 0.8160
2071.061358 0.8156 0.8151 0.8150 0.8150 0.8146
2075.928338 0.8141 0.8140 0.8140 0.8132 0.8122
2080.795318 0.8120 0.8120 0.8120 0.8120 0.8120
2085.662298 0.8120 0.8128 0.8138 0.8140 0.8140
2090.529278 0.8132 0.8122 0.8116 0.8111 0.8106
2095.396258 0.8101 0.8104 0.8109 0.8110 0.8110
2100.263238 0.8102 0.8092 0.8082 0.8072 0.8070
2105.130219 0.8070 0.8070 0.8070 0.8070 0.8070
2109.997199 0.8070 0.8070 0.8077 0.8087 0.8094
2114.864179 0.8099 0.8104 0.8109 0.8114 0.8119
2119.731159 0.8120 0.8120 0.8120 0.8120 0.8116
2124.598139 0.8111 0.8110 0.8110 0.8110 0.8110
2129.465119 0.8107 0.8102 0.8100 0.8100 0.8097
2134.332099 0.8092 0.8083 0.8073 0.8077 0.8087
2139.199079 0.8083 0.8073 0.8067 0.8062 0.8060
2144.066059 0.8060 0.8057 0.8052 0.8050 0.8050
2148.933039 0.8050 0.8050 0.8053 0.8058 0.8063
2153.800020 0.8068 0.8070 0.8070 0.8080 0.8095
2158.667000 0.8100 0.8100 0.8100 0.8100 0.8100
2163.533980 0.8100 0.8100 0.8100 0.8100 0.8100
2168.400960 0.8100 0.8100 0.8100 0.8100 0.8100
2173.267940 0.8100 0.8100 0.8100 0.8100 0.8100
2178.134920 0.8100 0.8100 0.8097 0.8092 0.8090
2183.001900 0.8090 0.8090 0.8090 0.8090 0.8090
2187.868880 0.8090 0.8090 0.8085 0.8075 0.8070
2192.735860 0.8070 0.8067 0.8062 0.8060 0.8060
2197.602840 0.8057 0.8052 0.8050 0.8050 0.8050
2202.469821 0.8050 0.8045 0.8035 0.8030 0.8030
2207.336801 0.8035 0.8045 0.8053 0.8057 0.8060
2212.203781 0.8060 0.8060 0.8060 0.8060 0.8060
2217.070761 0.8060 0.8060 0.8060 0.8060 0.8060
2221.937741 0.8060 0.8060 0.8060 0.8058 0.8053
2226.804721 0.8050 0.8050 0.8050 0.8050 0.8045
2231.671701 0.8036 0.8030 0.8030 0.8030 0.8030
2236.538681 0.8030 0.8030 0.8030 0.8030 0.8030
2241.405661 0.8030 0.8030 0.8030 0.8028 0.8023
2246.272641 0.8020 0.8020 0.8018 0.8013 0.8008
2251.139621 0.8003 0.7994 0.7979 0.7970 0.7970
2256.006602 0.7968 0.7963 0.7956 0.7946 0.7936
2260.873582 0.7926 0.7916 0.7906 0.7898 0.7893
2265.740562 0.7888 0.7883 0.7880 0.7880 0.7882
2270.607542 0.7887 0.7890 0.7890 0.7895 0.7910
2275.474522 0.7927 0.7947 0.7962 0.7967 0.7975
2280.341502 0.7990 0.8003 0.8013 0.8020 0.8020
2285.208482 0.8020 0.8020 0.8020 0.8020 0.8020
2290.075462 0.8020 0.8020 0.8020 0.8020 0.8020
2294.942442 0.8020 0.8020 0.8022 0.8027 0.8030
2299.809422 0.8030 0.8033 0.8043 0.8050 0.8050
2304.676403 0.8050 0.8050 0.8050 0.8050 0.8050
2309.543383 0.8050 0.8047 0.8037 0.8030 0.8030
2314.410363 0.8030 0.8030 0.8030 0.8030 0.8030
2319.277343 0.8030 0.8028 0.8018 0.8006 0.7991
2324.144323 0.7980 0.7980 0.7978 0.7968 0.7948
2329.011303 0.7893 0.7842 0.7807 0.7736 0.7547
2333.878283 0.7373 0.7254 0.7160 0.7160 0.7203
2338.745263 0.7407 0.7571 0.7576 0.7596 0.7676
2343.612243 0.7754 0.7829 0.7891 0.7896 0.7903
2348.479223 0.7918 0.7933 0.7948 0.7960 0.7960
2353.346204 0.7961 0.7966 0.7971 0.7976 0.7980
2358.213184 0.7980 0.7980 0.7980 0.7980 0.7980
2363.080164 0.7979 0.7974 0.7970 0.7970 0.7969
2367.947144 0.7964 0.7959 0.7949 0.7940 0.7940
2372.814124 0.7939 0.7934 0.7930 0.7930 0.7930
2377.681104 0.7930 0.7930 0.7930 0.7930 0.7930
2382.548084 0.7930 0.7925 0.7920 0.7920 0.7920
2387.415064 0.7920 0.7920 0.7920 0.7920 0.7920
2392.282044 0.7920 0.7920 0.7920 0.7920 0.7920
2397.149024 0.7920 0.7920 0.7920 0.7919 0.7909
2402.016005 0.7900 0.7900 0.7900 0.7900 0.7900
2406.882985 0.7900 0.7900 0.7895 0.7890 0.7890
2411.749965 0.7890 0.7890 0.7890 0.7890 0.7890
2416.616945 0.7890 0.7890 0.7890 0.7890 0.7890
2421.483925 0.7890 0.7890 0.7890 0.7895 0.7900
2426.350905 0.7900 0.7900 0.7900 0.7900 0.7900
2431.217885 0.7900 0.7900 0.7900 0.7900 0.7900
2436.084865 0.7900 0.7900 0.7900 0.7900 0.7900
2440.951845 0.7900 0.7900 0.7900 0.7890 0.7880
2445.818825 0.7880 0.7880 0.7885 0.7890 0.7890
2450.685806 0.7890 0.7885 0.7880 0.7880 0.7880
2455.552786 0.7880 0.7880 0.7880 0.7880 0.7880
2460.419766 0.7880 0.7880 0.7880 0.7880 0.7880
2465.286746 0.7880 0.7880 0.7880 0.7880 0.7880
2470.153726 0.7880 0.7875 0.7871 0.7870 0.7870
2475.020706 0.7870 0.7870 0.7870 0.7870 0.7870
2479.887686 0.7870 0.7874 0.7879 0.7880 0.7880
2484.754666 0.7880 0.7880 0.7880 0.7880 0.7880
2489.621646 0.7880 0.7880 0.7880 0.7880 0.7880
2494.488626 0.7880 0.7880 0.7880 0.7880 0.7880
2499.355607 0.7880 0.7880 0.7880 0.7880 0.7880
2504.222587 0.7880 0.7880 0.7880 0.7880 0.7880
2509.089567 0.7880 0.7884 0.7889 0.7890 0.7890
2513.956547 0.7890 0.7890 0.7890 0.7890 0.7890
2518.823527 0.7890 0.7890 0.7890 0.7886 0.7881
2523.690507 0.7880 0.7880 0.7880 0.7880 0.7880
2528.557487 0.7880 0.7880 0.7880 0.7880 0.7880
2533.424467 0.7880 0.7880 0.7876 0.7871 0.7859
2538.291447 0.7844 0.7836 0.7831 0.7823 0.7813
2543.158427 0.7806 0.7801 0.7796 0.7791 0.7775
2548.025407 0.7756 0.7739 0.7724 0.7713 0.7703
2552.892388 0.7686 0.7666 0.7646 0.7626 0.7592
2557.759368 0.7552 0.7516 0.7481 0.7443 0.7403
2562.626348 0.7390 0.7390 0.7441 0.7516 0.7567
2567.493328 0.7607 0.7630 0.7645 0.7670 0.7700
2572.360308 0.7720 0.7735 0.7743 0.7748 0.7766
2577.227288 0.7791 0.7803 0.7808 0.7810 0.7810
2582.094268 0.7810 0.7810 0.7810 0.7810 0.7807
2586.961248 0.7802 0.7800 0.7800 0.7797 0.7792
2591.828228 0.7793 0.7798 0.7797 0.7792 0.7787
2596.695208 0.7782 0.7780 0.7780 0.7780 0.7780
2601.562189 0.7780 0.7780 0.7780 0.7780 0.7783
2606.429169 0.7788 0.7793 0.7798 0.7800 0.7800
2611.296149 0.7800 0.7800 0.7800 0.7800 0.7800
2616.163129 0.7800 0.7800 0.7800 0.7800 0.7800
2621.030109 0.7800 0.7800 0.7795 0.7785 0.7780
2625.897089 0.7780 0.7775 0.7765 0.7760 0.7760
2630.764069 0.7760 0.7760 0.7760 0.7760 0.7760
2635.631049 0.7760 0.7765 0.7775 0.7780 0.7780
2640.498029 0.7785 0.7795 0.7802 0.7808 0.7810
2645.365009 0.7810 0.7810 0.7810 0.7810 0.7810
2650.231990 0.7808 0.7803 0.7800 0.7800 0.7798
2655.098970 0.7793 0.7790 0.7790 0.7790 0.7790
2659.965950 0.7788 0.7783 0.7780 0.7780 0.7780
2664.832930 0.7780 0.7780 0.7780 0.7780 0.7780
2669.699910 0.7780 0.7780 0.7780 0.7780 0.7776
2674.566890 0.7766 0.7760 0.7760 0.7758 0.7753
2679.433870 0.7750 0.7750 0.7750 0.7750 0.7748
2684.300850 0.7743 0.7740 0.7740 0.7740 0.7740
2689.167830 0.7736 0.7726 0.7718 0.7713 0.7708
2694.034810 0.7703 0.7698 0.7693 0.7690 0.7690
2698.901791 0.7685 0.7670 0.7653 0.7633 0.7618
2703.768771 0.7613 0.7605 0.7590 0.7573 0.7553
2708.635751 0.7538 0.7533 0.7528 0.7523 0.7522
2713.502731 0.7527 0.7530 0.7530 0.7532 0.7537
2718.369711 0.7540 0.7540 0.7543 0.7553 0.7562
2723.236691 0.7567 0.7572 0.7577 0.7585 0.7600
2728.103671 0.7613 0.7623 0.7630 0.7630 0.7633
2732.970651 0.7643 0.7653 0.7663 0.7673 0.7683
2737.837631 0.7690 0.7690 0.7690 0.7690 0.7690
2742.704611 0.7690 0.7687 0.7677 0.7669 0.7664
2747.571592 0.7660 0.7660 0.7659 0.7654 0.7648
2752.438572 0.7638 0.7629 0.7624 0.7619 0.7614
2757.305552 0.7610 0.7610 0.7610 0.7610 0.7610
2762.172532 0.7610 0.7614 0.7634 0.7650 0.7650
2767.039512 0.7650 0.7650 0.7648 0.7638 0.7630
2771.906492 0.7630 0.7627 0.7612 0.7598 0.7588
2776.773472 0.7573 0.7533 0.7498 0.7488 0.7479
2781.640452 0.7474 0.7464 0.7429 0.7399 0.7394
2786.507432 0.7390 0.7390 0.7391 0.7396 0.7403
2791.374412 0.7423 0.7447 0.7491 0.7532 0.7547
2796.241393 0.7563 0.7583 0.7601 0.7611 0.7622
2801.108373 0.7637 0.7650 0.7650 0.7651 0.7661
2805.975353 0.7671 0.7681 0.7690 0.7690 0.7691
2810.842333 0.7696 0.7700 0.7695 0.7690 0.7690
2815.709313 0.7690 0.7690 0.7690 0.7695 0.7700
2820.576293 0.7700 0.7700 0.7700 0.7700 0.7700
2825.443273 0.7700 0.7695 0.7689 0.7679 0.7670
2830.310253 0.7670 0.7670 0.7670 0.7670 0.7670
2835.177233 0.7670 0.7670 0.7670 0.7670 0.7670
2840.044213 0.7670 0.7670 0.7670 0.7670 0.7670
2844.911194 0.7670 0.7680 0.7690 0.7695 0.7700
2849.778174 0.7705 0.7710 0.7710 0.7710 0.7710
2854.645154 0.7710 0.7710 0.7710 0.7705 0.7700
2859.512134 0.7695 0.7690 0.7690 0.7690 0.7690
2864.379114 0.7690 0.7690 0.7690 0.7680 0.7670
2869.246094 0.7680 0.7690 0.7690 0.7690 0.7690
2874.113074 0.7690 0.7690 0.7690 0.7690 0.7690
2878.980054 0.7680 0.7671 0.7665 0.7660 0.7655
2883.847034 0.7650 0.7641 0.7631 0.7630 0.7630
2888.714014 0.7630 0.7630 0.7625 0.7620 0.7620
2893.580994 0.7620 0.7620 0.7620 0.7620 0.7620
2898.447975 0.7620 0.7620 0.7620 0.7620 0.7620
2903.314955 0.7620 0.7616 0.7611 0.7610 0.7610
2908.181935 0.7606 0.7601 0.7600 0.7600 0.7591
2913.048915 0.7581 0.7580 0.7580 0.7576 0.7571
2917.915895 0.7553 0.7533 0.7509 0.7484 0.7467
2922.782875 0.7452 0.7433 0.7413 0.7389 0.7364
2927.649855 0.7339 0.7314 0.7285 0.7255 0.7197
2932.516835 0.7132 0.7112 0.7102 0.7108 0.7118
2937.383815 0.7153 0.7193 0.7208 0.7218 0.7236
2942.250795 0.7256 0.7272 0.7287 0.7310 0.7335
2947.117776 0.7360 0.7385 0.7413 0.7443 0.7465
2951.984756 0.7485 0.7501 0.7516 0.7524 0.7529
2956.851736 0.7542 0.7557 0.7560 0.7560 0.7564
2961.718716 0.7569 0.7574 0.7579 0.7580 0.7580
2966.585696 0.7580 0.7580 0.7580 0.7580 0.7587
2971.452676 0.7597 0.7600 0.7600 0.7604 0.7609
2976.319656 0.7610 0.7610 0.7610 0.7610 0.7606
2981.186636 0.7601 0.7593 0.7583 0.7580 0.7580
2986.053616 0.7580 0.7580 0.7580 0.7580 0.7577
2990.920596 0.7572 0.7567 0.7562 0.7560 0.7560
2995.787577 0.7553 0.7543 0.7540 0.7540 0.7537
3000.654557 0.7532 0.7530 0.7530 0.7530 0.7530
3005.521537 0.7530 0.7530 0.7530 0.7530 0.7530
3010.388517 0.7530 0.7530 0.7530 0.7530 0.7530
3015.255497 0.7530 0.7530 0.7530 0.7530 0.7530
3020.122477 0.7530 0.7530 0.7530 0.7533 0.7538
3024.989457 0.7540 0.7540 0.7540 0.7540 0.7540
3029.856437 0.7540 0.7537 0.7532 0.7521 0.7506
3034.723417 0.7494 0.7484 0.7471 0.7456 0.7444
3039.590397 0.7434 0.7407 0.7367 0.7310 0.7241
3044.457378 0.7199 0.7179 0.7137 0.7077 0.6998
3049.324358 0.6903 0.6790 0.6660 0.6517 0.6361
3054.191338 0.6192 0.6012 0.5814 0.5600 0.5380
3059.058318 0.5156 0.4921 0.4677 0.4422 0.4158
3063.925298 0.3948 0.3788 0.3710 0.3710 0.3873
3068.792278 0.4197 0.4387 0.4442 0.4502 0.4567
3073.659258 0.4658 0.4772 0.4889 0.5009 0.5104
3078.526238 0.5174 0.5275 0.5409 0.5537 0.5656
3083.393218 0.5755 0.5830 0.5884 0.5914 0.5946
3088.260198 0.5981 0.6000 0.6000 0.5984 0.5949
3093.127179 0.5912 0.5872 0.5816 0.5742 0.5609
3097.994159 0.5405 0.5264 0.5204 0.5140 0.5070
3102.861139 0.5000 0.4931 0.4859 0.4784 0.4701
3107.728119 0.4606 0.4532 0.4487 0.4460 0.4460
3112.595099 0.4495 0.4580 0.4701 0.4875 0.5047
3117.462079 0.5217 0.5375 0.5514 0.5681 0.5890
3122.329059 0.6114 0.6364 0.6544 0.6609 0.6690
3127.196039 0.6800 0.6893 0.6958 0.7014 0.7054
3132.063019 0.7087 0.7107 0.7122 0.7127 0.7132
3136.929999 0.7137 0.7145 0.7160 0.7175 0.7190
3141.796980 0.7203 0.7213 0.7222 0.7227 0.7235
3146.663960 0.7250 0.7262 0.7267 0.7273 0.7283
3151.530940 0.7290 0.7290 0.7290 0.7290 0.7292
3156.397920 0.7297 0.7301 0.7306 0.7311 0.7316
3161.264900 0.7323 0.7333 0.7346 0.7366 0.7380
3166.131880 0.7380 0.7381 0.7386 0.7391 0.7396
3170.998860 0.7401 0.7406 0.7414 0.7429 0.7441
3175.865840 0.7446 0.7450 0.7450 0.7452 0.7462
3180.732820 0.7470 0.7470 0.7471 0.7476 0.7480
3185.599800 0.7480 0.7480 0.7480 0.7480 0.7480
3190.466781 0.7481 0.7486 0.7491 0.7496 0.7500
3195.333761 0.7500 0.7502 0.7512 0.7518 0.7508
3200.200741 0.7502 0.7512 0.7520 0.7520 0.7518
3205.067721 0.7508 0.7500 0.7500 0.7499 0.7494
3209.934701 0.7491 0.7496 0.7500 0.7500 0.7500
3214.801681 0.7500 0.7502 0.7512 0.7520 0.7520
3219.668661 0.7521 0.7526 0.7529 0.7524 0.7520
3224.535641 0.7520 0.7520 0.7520 0.7520 0.7520
3229.402621 0.7520 0.7520 0.7520 0.7520 0.7520
3234.269601 0.7520 0.7520 0.7520 0.7520 0.7520
3239.136581 0.7520 0.7520 0.7520 0.7525 0.7530
3244.003562 0.7530 0.7530 0.7530 0.7530 0.7530
3248.870542 0.7530 0.7530 0.7530 0.7530 0.7530
3253.737522 0.7530 0.7531 0.7551 0.7570 0.7570
3258.604502 0.7569 0.7554 0.7540 0.7535 0.7530
3263.471482 0.7525 0.7520 0.7520 0.7520 0.7520
3268.338462 0.7520 0.7525 0.7530 0.7530 0.7530
3273.205442 0.7515 0.7500 0.7500 0.7500 0.7510
3278.072422 0.7520 0.7520 0.7520 0.7520 0.7520
3282.939402 0.7510 0.7500 0.7500 0.7500 0.7500
3287.806382 0.7500 0.7510 0.7520 0.7520 0.7520
3292.673363 0.7520 0.7520 0.7520 0.7520 0.7510
3297.540343 0.7500 0.7500 0.7500 0.7500 0.7500
3302.407323 0.7500 0.7500 0.7500 0.7500 0.7500
3307.274303 0.7500 0.7500 0.7500 0.7500 0.7500
3312.141283 0.7500 0.7500 0.7500 0.7500 0.7514
3317.008263 0.7529 0.7530 0.7530 0.7516 0.7501
3321.875243 0.7495 0.7490 0.7490 0.7490 0.7490
3326.742223 0.7490 0.7490 0.7490 0.7490 0.7490
3331.609203 0.7490 0.7490 0.7503 0.7518 0.7507
3336.476183 0.7492 0.7486 0.7481 0.7480 0.7480
3341.343164 0.7484 0.7489 0.7490 0.7490 0.7503
3346.210144 0.7518 0.7524 0.7529 0.7530 0.7530
3351.077124 0.7517 0.7502 0.7500 0.7500 0.7500
3355.944104 0.7500 0.7496 0.7491 0.7490 0.7490
3360.811084 0.7490 0.7490 0.7490 0.7490 0.7490
3365.678064 0.7490 0.7490 0.7490 0.7490 0.7490
3370.545044 0.7490 0.7490 0.7494 0.7499 0.7500
3375.412024 0.7500 0.7500 0.7500 0.7508 0.7518
3380.279004 0.7520 0.7520 0.7520 0.7520 0.7512
3385.145984 0.7502 0.7500 0.7500 0.7500 0.7500
3390.012965 0.7500 0.7500 0.7500 0.7500 0.7507
3394.879945 0.7517 0.7524 0.7529 0.7526 0.7521
3399.746925 0.7520 0.7520 0.7524 0.7529 0.7530
3404.613905 0.7530 0.7526 0.7521 0.7513 0.7503
3409.480885 0.7500 0.7500 0.7500 0.7500 0.7500
3414.347865 0.7500 0.7507 0.7517 0.7520 0.7520
3419.214845 0.7520 0.7520 0.7520 0.7520 0.7513
3424.081825 0.7503 0.7500 0.7500 0.7500 0.7500
3428.948805 0.7500 0.7500 0.7500 0.7500 0.7497
3433.815785 0.7492 0.7490 0.7490 0.7487 0.7482
3438.682766 0.7480 0.7480 0.7480 0.7480 0.7480
3443.549746 0.7480 0.7483 0.7488 0.7490 0.7490
3448.416726 0.7490 0.7490 0.7490 0.7490 0.7490
3453.283706 0.7490 0.7484 0.7474 0.7461 0.7446
3458.150686 0.7431 0.7416 0.7407 0.7402 0.7400
3463.017666 0.7400 0.7400 0.7400 0.7403 0.7408
3467.884646 0.7416 0.7426 0.7436 0.7446 0.7456
3472.751626 0.7466 0.7473 0.7478 0.7480 0.7480
3477.618606 0.7480 0.7480 0.7483 0.7488 0.7490
3482.485586 0.7490 0.7490 0.7490 0.7493 0.7498
3487.352567 0.7505 0.7515 0.7515 0.7505 0.7500
3492.219547 0.7500 0.7500 0.7500 0.7500 0.7500
3497.086527 0.7500 0.7500 0.7500 0.7500 0.7500
3501.953507 0.7500 0.7500 0.7500 0.7505 0.7515
3506.820487 0.7520 0.7520 0.7520 0.7520 0.7520
3511.687467 0.7520 0.7520 0.7520 0.7520 0.7520
3516.554447 0.7520 0.7520 0.7520 0.7520 0.7520
3521.421427 0.7520 0.7520 0.7520 0.7520 0.7520
3526.288407 0.7520 0.7520 0.7520 0.7520 0.7520
3531.155387 0.7520 0.7520 0.7520 0.7520 0.7520
3536.022368 0.7520 0.7520 0.7520 0.7520 0.7520
3540.889348 0.7520 0.7520 0.7520 0.7520 0.7520
3545.756328 0.7520 0.7520 0.7520 0.7520 0.7520
3550.623308 0.7520 0.7520 0.7520 0.7520 0.7520
3555.490288 0.7520 0.7520 0.7520 0.7520 0.7520
3560.357268 0.7520 0.7520 0.7520 0.7520 0.7520
3565.224248 0.7520 0.7520 0.7520 0.7520 0.7520
3570.091228 0.7520 0.7520 0.7520 0.7520 0.7520
3574.958208 0.7520 0.7520 0.7520 0.7520 0.7520
3579.825188 0.7520 0.7520 0.7520 0.7520 0.7520
3584.692168 0.7520 0.7520 0.7520 0.7520 0.7520
3589.559149 0.7520 0.7520 0.7520 0.7520 0.7520
3594.426129 0.7520 0.7520 0.7520 0.7520 0.7520
3599.293109 0.7520 0.7520 0.7520 0.7520 0.7520
3604.160089 0.7520 0.7520 0.7520 0.7520 0.7520
3609.027069 0.7520 0.7518 0.7508 0.7500 0.7500
3613.894049 0.7500 0.7500 0.7499 0.7494 0.7490
3618.761029 0.7490 0.7489 0.7484 0.7480 0.7480
3623.628009 0.7479 0.7474 0.7470 0.7470 0.7470
3628.494989 0.7470 0.7468 0.7458 0.7450 0.7450
3633.361969 0.7450 0.7450 0.7452 0.7462 0.7470
3638.228950 0.7470 0.7470 0.7470 0.7470 0.7470
3643.095930 0.7470 0.7470 0.7470 0.7470 0.7470
3647.962910 0.7470 0.7470 0.7470 0.7470 0.7470
3652.829890 0.7470 0.7470 0.7471 0.7476 0.7480
3657.696870 0.7480 0.7480 0.7480 0.7480 0.7480
3662.563850 0.7480 0.7480 0.7480 0.7480 0.7481
3667.430830 0.7486 0.7490 0.7490 0.7490 0.7490
3672.297810 0.7490 0.7490 0.7490 0.7490 0.7490
3677.164790 0.7490 0.7490 0.7490 0.7490 0.7490
3682.031770 0.7490 0.7490 0.7490 0.7490 0.7490
3686.898751 0.7490 0.7490 0.7490 0.7490 0.7495
3691.765731 0.7500 0.7500 0.7500 0.7500 0.7500
3696.632711 0.7495 0.7490 0.7490 0.7490 0.7490
3701.499691 0.7490 0.7490 0.7490 0.7490 0.7490
3706.366671 0.7490 0.7490 0.7490 0.7490 0.7490
3711.233651 0.7490 0.7490 0.7490 0.7490 0.7490
3716.100631 0.7490 0.7490 0.7490 0.7490 0.7490
3720.967611 0.7490 0.7505 0.7520 0.7510 0.7500
3725.834591 0.7500 0.7500 0.7500 0.7500 0.7500
3730.701571 0.7500 0.7495 0.7490 0.7490 0.7490
3735.568552 0.7490 0.7490 0.7490 0.7490 0.7490
3740.435532 0.7490 0.7490 0.7490 0.7490 0.7490
3745.302512 0.7490 0.7490 0.7490 0.7490 0.7490
3750.169492 0.7490 0.7490 0.7490 0.7490 0.7490
3755.036472 0.7490 0.7490 0.7490 0.7490 0.7490
3759.903452 0.7490 0.7490 0.7490 0.7490 0.7490
3764.770432 0.7490 0.7490 0.7490 0.7490 0.7490
3769.637412 0.7490 0.7490 0.7490 0.7490 0.7490
3774.504392 0.7490 0.7490 0.7490 0.7490 0.7490
3779.371372 0.7490 0.7490 0.7490 0.7494 0.7499
3784.238353 0.7500 0.7500 0.7496 0.7491 0.7490
3789.105333 0.7490 0.7490 0.7490 0.7490 0.7490
3793.972313 0.7486 0.7481 0.7480 0.7480 0.7480
3798.839293 0.7480 0.7480 0.7480 0.7484 0.7489
3803.706273 0.7490 0.7490 0.7490 0.7490 0.7490
3808.573253 0.7490 0.7490 0.7490 0.7490 0.7490
3813.440233 0.7490 0.7490 0.7490 0.7490 0.7490
3818.307213 0.7490 0.7490 0.7490 0.7490 0.7490
3823.174193 0.7490 0.7490 0.7494 0.7499 0.7496
3828.041173 0.7491 0.7490 0.7490 0.7490 0.7490
3832.908154 0.7494 0.7499 0.7500 0.7500 0.7496
3837.775134 0.7491 0.7490 0.7490 0.7490 0.7490
3842.642114 0.7490 0.7490 0.7490 0.7490 0.7490
3847.509094 0.7490 0.7490 0.7490 0.7490 0.7490
3852.376074 0.7490 0.7490 0.7490 0.7490 0.7490
3857.243054 0.7490 0.7490 0.7490 0.7490 0.7490
3862.110034 0.7487 0.7482 0.7480 0.7480 0.7480
3866.977014 0.7480 0.7477 0.7472 0.7470 0.7470
3871.843994 0.7464 0.7454 0.7450 0.7450 0.7450
3876.710974 0.7450 0.7447 0.7442 0.7440 0.7440
3881.577955 0.7440 0.7440 0.7437 0.7432 0.7430
3886.444935 0.7430 0.7424 0.7414 0.7410 0.7410
3891.311915 0.7410 0.7410 0.7410 0.7410 0.7410
3896.178895 0.7410 0.7410 0.7410 0.7416 0.7426
3901.045875 0.7430 0.7430 0.7430 0.7430 0.7430
3905.912855 0.7430 0.7430 0.7430 0.7430 0.7430
3910.779835 0.7430 0.7430 0.7425 0.7415 0.7410
3915.646815 0.7410 0.7410 0.7410 0.7407 0.7402
3920.513795 0.7397 0.7392 0.7382 0.7367 0.7357
3925.380775 0.7352 0.7350 0.7350 0.7350 0.7350
3930.247755 0.7352 0.7357 0.7360 0.7360 0.7367
3935.114736 0.7382 0.7392 0.7397 0.7402 0.7407
3939.981716 0.7415 0.7425 0.7430 0.7430 0.7432
3944.848696 0.7437 0.7440 0.7440 0.7442 0.7447
3949.715676 0.7450 0.7450 0.7450 0.7450 0.7450
3954.582656 0.7450 0.7450 0.7450 0.7450 0.7450
3959.449636 0.7450 0.7450 0.7450 0.7450 0.7450
3964.316616 0.7450 0.7450 0.7450 0.7450 0.7450
3969.183596 0.7450 0.7450 0.7450 0.7450 0.7450
3974.050576 0.7450 0.7454 0.7464 0.7470 0.7470
3978.917556 0.7470 0.7470 0.7470 0.7470 0.7470
3983.784537 0.7470 0.7470 0.7470 0.7470 0.7470
3988.651517 0.7470 0.7470 0.7470 0.7470 0.7470
3993.518497 0.7470 0.7470 0.7470 0.7470 0.7470
3998.385477 0.7470 0.7470
##END=
