##TITLE=PROMETHAZINE
##JCAMP-DX=4.24
$$ By DXEDIT 1.05 (RS McDonald)
##DATA TYPE=INFRARED SPECTRUM
##CLASS=COBLENTZ III
##OWNER=COBLENTZ SOC.
Collection (C) 2018 copyright by the U.S. Secretary of Commerce
on behalf of the United States of America. All rights reserved.
##DATE=1962/06/07
##NAMES=N,N-dimethyl-N-[1-methyl-2-(10H-phenothiazin-10-yl)ethyl]amine
N,N-dimethyl-1-(10H-phenothiazin-10-yl)-2-propanamine
10-(2-DIMETHYLAMINOPROPYL)PHENOTHIAZINE
##CAS REGISTRY NO=60-87-7
##MOLFORM=C17 H20 N2 S
##MP=60 C
##BP=190-192 C AT 3 mmHg
##SOURCE REFERENCE=COBLENTZ NO. 05185
##$NIST SOURCE=COBLENTZ
##$NIST IMAGE=cob5185
##SPECTROMETER/DATA SYSTEM=PERKIN-ELMER 21 (GRATING)
##INSTRUMENT PARAMETERS=FILTER AT ABOUT 10 MICRONS
##STATE=SOLUTION 1.3% (CS2 FOR 2-15 microns, AND C2Cl4 FOR 5-7.7 microns)
##PATH LENGTH=0.1 CM
##SAMPLING PROCEDURE=TRANSMISSION
##RESOLUTION=2
##DATA PROCESSING=DIGITIZED BY COBLENTZ SOCIETY (BATCH I) FROM HARD COPY
##XUNITS=1/CM
##YUNITS=TRANSMITTANCE
##XLABEL=Wavenumbers (cm-1)
##YLABEL=Transmittance
##XFACTOR=1
##YFACTOR=1
##DELTAX=1
##FIRSTX=4000
##LASTX=671
##FIRSTY=0.9575
##MAXX=4000
##MINX=671
##MAXY=0.9795
##MINY=0.0434
##NPOINTS=3330
##XYDATA=(X++(Y..Y))
4000.000000 0.9575 0.9575 0.9575 0.9577 0.9577
3995.000000 0.9578 0.9578 0.9578 0.9578 0.9578
3990.000000 0.9580 0.9580 0.9580 0.9581 0.9581
3985.000000 0.9581 0.9582 0.9582 0.9582 0.9582
3980.000000 0.9583 0.9583 0.9583 0.9584 0.9584
3975.000000 0.9584 0.9585 0.9585 0.9585 0.9586
3970.000000 0.9586 0.9586 0.9587 0.9587 0.9587
3965.000000 0.9588 0.9588 0.9588 0.9588 0.9589
3960.000000 0.9589 0.9590 0.9590 0.9591 0.9591
3955.000000 0.9592 0.9592 0.9592 0.9593 0.9593
3950.000000 0.9593 0.9594 0.9594 0.9594 0.9595
3945.000000 0.9595 0.9595 0.9596 0.9596 0.9596
3940.000000 0.9597 0.9597 0.9597 0.9598 0.9598
3935.000000 0.9598 0.9598 0.9599 0.9599 0.9599
3930.000000 0.9600 0.9600 0.9600 0.9601 0.9601
3925.000000 0.9601 0.9602 0.9602 0.9602 0.9603
3920.000000 0.9603 0.9603 0.9604 0.9604 0.9604
3915.000000 0.9604 0.9604 0.9604 0.9605 0.9605
3910.000000 0.9605 0.9605 0.9605 0.9605 0.9606
3905.000000 0.9606 0.9606 0.9606 0.9606 0.9606
3900.000000 0.9607 0.9607 0.9607 0.9607 0.9607
3895.000000 0.9607 0.9608 0.9608 0.9608 0.9608
3890.000000 0.9608 0.9608 0.9608 0.9608 0.9608
3885.000000 0.9608 0.9608 0.9608 0.9608 0.9609
3880.000000 0.9609 0.9609 0.9609 0.9609 0.9609
3875.000000 0.9610 0.9610 0.9610 0.9610 0.9610
3870.000000 0.9610 0.9611 0.9611 0.9611 0.9611
3865.000000 0.9611 0.9611 0.9612 0.9612 0.9612
3860.000000 0.9612 0.9612 0.9612 0.9612 0.9612
3855.000000 0.9612 0.9612 0.9612 0.9613 0.9613
3850.000000 0.9613 0.9613 0.9613 0.9613 0.9614
3845.000000 0.9614 0.9614 0.9614 0.9614 0.9614
3840.000000 0.9614 0.9614 0.9614 0.9614 0.9614
3835.000000 0.9614 0.9615 0.9615 0.9615 0.9615
3830.000000 0.9615 0.9615 0.9616 0.9616 0.9616
3825.000000 0.9616 0.9616 0.9616 0.9616 0.9616
3820.000000 0.9616 0.9616 0.9616 0.9616 0.9617
3815.000000 0.9617 0.9617 0.9617 0.9617 0.9617
3810.000000 0.9617 0.9617 0.9617 0.9617 0.9617
3805.000000 0.9618 0.9618 0.9618 0.9618 0.9618
3800.000000 0.9618 0.9618 0.9618 0.9618 0.9618
3795.000000 0.9618 0.9618 0.9618 0.9618 0.9618
3790.000000 0.9618 0.9618 0.9618 0.9618 0.9618
3785.000000 0.9618 0.9618 0.9618 0.9618 0.9618
3780.000000 0.9618 0.9618 0.9618 0.9618 0.9618
3775.000000 0.9618 0.9618 0.9618 0.9618 0.9618
3770.000000 0.9618 0.9618 0.9618 0.9618 0.9618
3765.000000 0.9618 0.9618 0.9618 0.9618 0.9618
3760.000000 0.9618 0.9618 0.9618 0.9618 0.9618
3755.000000 0.9618 0.9618 0.9617 0.9617 0.9617
3750.000000 0.9617 0.9617 0.9616 0.9616 0.9615
3745.000000 0.9615 0.9614 0.9614 0.9613 0.9613
3740.000000 0.9612 0.9612 0.9611 0.9611 0.9610
3735.000000 0.9610 0.9609 0.9609 0.9609 0.9608
3730.000000 0.9608 0.9607 0.9607 0.9606 0.9606
3725.000000 0.9605 0.9605 0.9604 0.9603 0.9603
3720.000000 0.9602 0.9602 0.9601 0.9601 0.9600
3715.000000 0.9600 0.9599 0.9599 0.9598 0.9597
3710.000000 0.9597 0.9596 0.9596 0.9596 0.9596
3705.000000 0.9596 0.9596 0.9596 0.9596 0.9596
3700.000000 0.9596 0.9596 0.9596 0.9596 0.9596
3695.000000 0.9596 0.9596 0.9596 0.9595 0.9595
3690.000000 0.9595 0.9595 0.9595 0.9595 0.9595
3685.000000 0.9595 0.9595 0.9595 0.9595 0.9595
3680.000000 0.9595 0.9595 0.9595 0.9595 0.9595
3675.000000 0.9595 0.9595 0.9595 0.9595 0.9596
3670.000000 0.9596 0.9597 0.9597 0.9598 0.9598
3665.000000 0.9599 0.9600 0.9601 0.9601 0.9602
3660.000000 0.9603 0.9603 0.9604 0.9604 0.9605
3655.000000 0.9605 0.9606 0.9607 0.9608 0.9608
3650.000000 0.9609 0.9610 0.9610 0.9611 0.9612
3645.000000 0.9612 0.9613 0.9614 0.9615 0.9616
3640.000000 0.9617 0.9618 0.9618 0.9618 0.9620
3635.000000 0.9621 0.9621 0.9621 0.9623 0.9624
3630.000000 0.9625 0.9625 0.9627 0.9628 0.9628
3625.000000 0.9630 0.9631 0.9632 0.9633 0.9634
3620.000000 0.9635 0.9635 0.9636 0.9637 0.9638
3615.000000 0.9639 0.9640 0.9641 0.9642 0.9643
3610.000000 0.9644 0.9645 0.9646 0.9647 0.9648
3605.000000 0.9649 0.9650 0.9651 0.9652 0.9653
3600.000000 0.9654 0.9655 0.9656 0.9657 0.9658
3595.000000 0.9659 0.9660 0.9660 0.9661 0.9662
3590.000000 0.9663 0.9664 0.9665 0.9666 0.9667
3585.000000 0.9668 0.9668 0.9670 0.9671 0.9671
3580.000000 0.9673 0.9674 0.9675 0.9675 0.9677
3575.000000 0.9678 0.9678 0.9680 0.9681 0.9682
3570.000000 0.9683 0.9684 0.9685 0.9686 0.9687
3565.000000 0.9687 0.9687 0.9688 0.9688 0.9689
3560.000000 0.9689 0.9689 0.9689 0.9689 0.9689
3555.000000 0.9689 0.9689 0.9689 0.9689 0.9690
3550.000000 0.9690 0.9690 0.9690 0.9690 0.9690
3545.000000 0.9690 0.9690 0.9690 0.9690 0.9690
3540.000000 0.9690 0.9690 0.9689 0.9689 0.9688
3535.000000 0.9688 0.9688 0.9687 0.9687 0.9686
3530.000000 0.9686 0.9685 0.9685 0.9684 0.9683
3525.000000 0.9683 0.9682 0.9682 0.9681 0.9680
3520.000000 0.9680 0.9678 0.9678 0.9678 0.9677
3515.000000 0.9677 0.9675 0.9675 0.9675 0.9674
3510.000000 0.9674 0.9674 0.9673 0.9673 0.9671
3505.000000 0.9671 0.9671 0.9670 0.9668 0.9668
3500.000000 0.9668 0.9667 0.9666 0.9666 0.9665
3495.000000 0.9665 0.9664 0.9663 0.9663 0.9662
3490.000000 0.9662 0.9661 0.9660 0.9660 0.9659
3485.000000 0.9658 0.9657 0.9656 0.9656 0.9655
3480.000000 0.9654 0.9654 0.9653 0.9652 0.9652
3475.000000 0.9651 0.9651 0.9650 0.9650 0.9650
3470.000000 0.9650 0.9650 0.9650 0.9650 0.9650
3465.000000 0.9650 0.9650 0.9650 0.9650 0.9650
3460.000000 0.9650 0.9650 0.9650 0.9650 0.9650
3455.000000 0.9650 0.9650 0.9649 0.9649 0.9649
3450.000000 0.9649 0.9649 0.9649 0.9649 0.9649
3445.000000 0.9649 0.9649 0.9649 0.9649 0.9649
3440.000000 0.9649 0.9649 0.9649 0.9649 0.9649
3435.000000 0.9649 0.9649 0.9649 0.9649 0.9649
3430.000000 0.9649 0.9649 0.9649 0.9649 0.9649
3425.000000 0.9649 0.9649 0.9649 0.9649 0.9649
3420.000000 0.9649 0.9648 0.9648 0.9648 0.9648
3415.000000 0.9647 0.9647 0.9647 0.9647 0.9647
3410.000000 0.9646 0.9646 0.9646 0.9646 0.9646
3405.000000 0.9645 0.9645 0.9645 0.9645 0.9644
3400.000000 0.9644 0.9644 0.9644 0.9644 0.9643
3395.000000 0.9643 0.9643 0.9643 0.9642 0.9642
3390.000000 0.9642 0.9642 0.9642 0.9641 0.9641
3385.000000 0.9641 0.9641 0.9641 0.9640 0.9640
3380.000000 0.9640 0.9640 0.9639 0.9639 0.9639
3375.000000 0.9639 0.9639 0.9638 0.9638 0.9638
3370.000000 0.9638 0.9637 0.9637 0.9637 0.9637
3365.000000 0.9637 0.9636 0.9636 0.9636 0.9636
3360.000000 0.9635 0.9635 0.9635 0.9634 0.9634
3355.000000 0.9633 0.9633 0.9633 0.9633 0.9632
3350.000000 0.9632 0.9632 0.9631 0.9631 0.9630
3345.000000 0.9630 0.9630 0.9630 0.9628 0.9628
3340.000000 0.9628 0.9628 0.9628 0.9627 0.9627
3335.000000 0.9625 0.9625 0.9625 0.9625 0.9625
3330.000000 0.9625 0.9625 0.9624 0.9624 0.9623
3325.000000 0.9623 0.9621 0.9621 0.9621 0.9621
3320.000000 0.9621 0.9621 0.9621 0.9620 0.9620
3315.000000 0.9618 0.9618 0.9618 0.9618 0.9618
3310.000000 0.9618 0.9617 0.9617 0.9617 0.9616
3305.000000 0.9615 0.9615 0.9614 0.9613 0.9612
3300.000000 0.9612 0.9611 0.9610 0.9610 0.9609
3295.000000 0.9608 0.9608 0.9607 0.9606 0.9606
3290.000000 0.9605 0.9604 0.9603 0.9603 0.9602
3285.000000 0.9601 0.9601 0.9600 0.9599 0.9599
3280.000000 0.9598 0.9597 0.9597 0.9596 0.9595
3275.000000 0.9594 0.9594 0.9593 0.9592 0.9591
3270.000000 0.9590 0.9589 0.9589 0.9588 0.9587
3265.000000 0.9586 0.9586 0.9585 0.9584 0.9583
3260.000000 0.9582 0.9581 0.9580 0.9578 0.9578
3255.000000 0.9577 0.9575 0.9575 0.9574 0.9574
3250.000000 0.9571 0.9570 0.9568 0.9566 0.9564
3245.000000 0.9563 0.9561 0.9559 0.9558 0.9556
3240.000000 0.9554 0.9553 0.9551 0.9549 0.9547
3235.000000 0.9545 0.9543 0.9542 0.9540 0.9538
3230.000000 0.9537 0.9535 0.9534 0.9532 0.9531
3225.000000 0.9528 0.9528 0.9525 0.9525 0.9524
3220.000000 0.9521 0.9521 0.9518 0.9518 0.9518
3215.000000 0.9517 0.9517 0.9516 0.9516 0.9516
3210.000000 0.9516 0.9515 0.9515 0.9515 0.9515
3205.000000 0.9514 0.9514 0.9514 0.9514 0.9513
3200.000000 0.9513 0.9513 0.9513 0.9513 0.9512
3195.000000 0.9512 0.9511 0.9511 0.9510 0.9510
3190.000000 0.9510 0.9510 0.9509 0.9509 0.9509
3185.000000 0.9509 0.9508 0.9508 0.9507 0.9507
3180.000000 0.9506 0.9506 0.9506 0.9506 0.9505
3175.000000 0.9505 0.9505 0.9505 0.9504 0.9504
3170.000000 0.9503 0.9503 0.9502 0.9502 0.9502
3165.000000 0.9502 0.9501 0.9500 0.9498 0.9497
3160.000000 0.9496 0.9495 0.9493 0.9492 0.9491
3155.000000 0.9490 0.9489 0.9488 0.9487 0.9486
3150.000000 0.9484 0.9483 0.9481 0.9478 0.9477
3145.000000 0.9475 0.9471 0.9468 0.9464 0.9461
3140.000000 0.9457 0.9453 0.9450 0.9446 0.9443
3135.000000 0.9439 0.9436 0.9432 0.9424 0.9415
3130.000000 0.9405 0.9396 0.9386 0.9375 0.9366
3125.000000 0.9357 0.9344 0.9332 0.9320 0.9308
3120.000000 0.9295 0.9281 0.9267 0.9254 0.9240
3115.000000 0.9225 0.9213 0.9196 0.9174 0.9151
3110.000000 0.9128 0.9082 0.9007 0.8931 0.8856
3105.000000 0.8775 0.8693 0.8611 0.8528 0.8446
3100.000000 0.8363 0.8281 0.8198 0.8115 0.8032
3095.000000 0.7950 0.7867 0.7784 0.7701 0.7618
3090.000000 0.7535 0.7451 0.7368 0.7285 0.7234
3085.000000 0.7225 0.7218 0.7214 0.7210 0.7210
3080.000000 0.7210 0.7210 0.7225 0.7246 0.7267
3075.000000 0.7288 0.7335 0.7383 0.7430 0.7478
3070.000000 0.7525 0.7572 0.7621 0.7668 0.7715
3065.000000 0.7764 0.7811 0.7858 0.7907 0.7955
3060.000000 0.8003 0.8051 0.8099 0.8147 0.8193
3055.000000 0.8232 0.8271 0.8311 0.8335 0.8345
3050.000000 0.8355 0.8364 0.8374 0.8383 0.8392
3045.000000 0.8401 0.8409 0.8418 0.8425 0.8433
3040.000000 0.8436 0.8439 0.8442 0.8444 0.8446
3035.000000 0.8448 0.8458 0.8451 0.8453 0.8455
3030.000000 0.8457 0.8457 0.8457 0.8457 0.8457
3025.000000 0.8457 0.8457 0.8457 0.8450 0.8442
3020.000000 0.8435 0.8427 0.8417 0.8407 0.8397
3015.000000 0.8378 0.8356 0.8334 0.8303 0.8085
3010.000000 0.7868 0.7650 0.7480 0.7372 0.7267
3005.000000 0.7161 0.7055 0.6948 0.6842 0.6735
3000.000000 0.6628 0.6521 0.6415 0.6308 0.6201
2995.000000 0.6094 0.5987 0.5880 0.5773 0.5666
2990.000000 0.5558 0.5451 0.5343 0.5236 0.5128
2985.000000 0.5020 0.4912 0.4809 0.4715 0.4620
2980.000000 0.4526 0.4501 0.4501 0.4501 0.4505
2975.000000 0.4531 0.4557 0.4516 0.4616 0.4651
2970.000000 0.4686 0.4722 0.4757 0.4793 0.4828
2965.000000 0.4864 0.4899 0.4935 0.4971 0.5006
2960.000000 0.5042 0.5078 0.5112 0.5149 0.5185
2955.000000 0.5220 0.5247 0.5274 0.5301 0.5312
2950.000000 0.5312 0.5312 0.5312 0.5312 0.5312
2945.000000 0.5312 0.5310 0.5310 0.5310 0.5308
2940.000000 0.5296 0.5283 0.5270 0.5258 0.5245
2935.000000 0.5233 0.5221 0.5212 0.5202 0.5193
2930.000000 0.5190 0.5189 0.5187 0.5191 0.5203
2925.000000 0.5215 0.5226 0.5292 0.5360 0.5427
2920.000000 0.5494 0.5562 0.5630 0.5698 0.5766
2915.000000 0.5834 0.5902 0.5970 0.6037 0.6105
2910.000000 0.6173 0.6241 0.6310 0.6378 0.6446
2905.000000 0.6515 0.6583 0.6615 0.6621 0.6626
2900.000000 0.6633 0.6633 0.6633 0.6633 0.6631
2895.000000 0.6630 0.6628 0.6618 0.6601 0.6583
2890.000000 0.6560 0.6511 0.6464 0.6415 0.6368
2885.000000 0.6320 0.6272 0.6224 0.6176 0.6128
2880.000000 0.6080 0.6032 0.5984 0.5936 0.5887
2875.000000 0.5839 0.5791 0.5762 0.5750 0.5714
2870.000000 0.5728 0.5727 0.5726 0.5725 0.5725
2865.000000 0.5726 0.5727 0.5770 0.5831 0.5892
2860.000000 0.5955 0.6020 0.6086 0.6151 0.6216
2855.000000 0.6281 0.6346 0.6411 0.6475 0.6541
2850.000000 0.6571 0.6578 0.6592 0.6592 0.6592
2845.000000 0.6592 0.6589 0.6574 0.6558 0.6544
2840.000000 0.6506 0.6465 0.6425 0.6385 0.6344
2835.000000 0.6304 0.6262 0.6223 0.6182 0.6141
2830.000000 0.6100 0.6060 0.6020 0.6001 0.5982
2825.000000 0.5958 0.5958 0.5958 0.5958 0.5966
2820.000000 0.5979 0.5991 0.6012 0.6045 0.6077
2815.000000 0.6109 0.6140 0.6172 0.6204 0.6236
2810.000000 0.6267 0.6299 0.6331 0.6362 0.6395
2805.000000 0.6404 0.6408 0.6419 0.6415 0.6415
2800.000000 0.6415 0.6410 0.6399 0.6387 0.6364
2795.000000 0.6324 0.6284 0.6245 0.6205 0.6165
2790.000000 0.6125 0.6085 0.6045 0.6005 0.5965
2785.000000 0.5925 0.5885 0.5860 0.5837 0.5807
2780.000000 0.5807 0.5805 0.5802 0.5801 0.5800
2775.000000 0.5799 0.5860 0.5949 0.6039 0.6130
2770.000000 0.6222 0.6314 0.6406 0.6498 0.6590
2765.000000 0.6683 0.6775 0.6868 0.6960 0.7053
2760.000000 0.7145 0.7238 0.7331 0.7424 0.7543
2755.000000 0.7712 0.7883 0.8015 0.8058 0.8103
2750.000000 0.8151 0.8209 0.8268 0.8324 0.8373
2745.000000 0.8423 0.8465 0.8486 0.8507 0.8528
2740.000000 0.8549 0.8570 0.8591 0.8612 0.8633
2735.000000 0.8654 0.8675 0.8696 0.8716 0.8736
2730.000000 0.8757 0.8777 0.8797 0.8817 0.8837
2725.000000 0.8857 0.8877 0.8897 0.8917 0.8937
2720.000000 0.8957 0.8975 0.8994 0.9011 0.9024
2715.000000 0.9037 0.9050 0.9064 0.9077 0.9090
2710.000000 0.9103 0.9117 0.9128 0.9137 0.9146
2705.000000 0.9155 0.9163 0.9171 0.9181 0.9189
2700.000000 0.9198 0.9206 0.9215 0.9223 0.9232
2695.000000 0.9241 0.9249 0.9257 0.9266 0.9274
2690.000000 0.9282 0.9291 0.9299 0.9307 0.9315
2685.000000 0.9321 0.9328 0.9334 0.9340 0.9346
2680.000000 0.9352 0.9358 0.9364 0.9368 0.9371
2675.000000 0.9373 0.9373 0.9373 0.9371 0.9371
2670.000000 0.9371 0.9371 0.9371 0.9371 0.9371
2665.000000 0.9371 0.9371 0.9371 0.9371 0.9371
2660.000000 0.9371 0.9371 0.9371 0.9371 0.9371
2655.000000 0.9371 0.9371 0.9370 0.9370 0.9370
2650.000000 0.9370 0.9371 0.9371 0.9371 0.9371
2645.000000 0.9373 0.9373 0.9373 0.9374 0.9375
2640.000000 0.9375 0.9375 0.9375 0.9377 0.9377
2635.000000 0.9378 0.9378 0.9378 0.9378 0.9380
2630.000000 0.9380 0.9380 0.9381 0.9382 0.9382
2625.000000 0.9382 0.9382 0.9381 0.9380 0.9378
2620.000000 0.9378 0.9377 0.9375 0.9375 0.9374
2615.000000 0.9371 0.9370 0.9368 0.9366 0.9363
2610.000000 0.9360 0.9355 0.9349 0.9343 0.9337
2605.000000 0.9331 0.9325 0.9318 0.9313 0.9308
2600.000000 0.9304 0.9300 0.9295 0.9291 0.9287
2595.000000 0.9283 0.9278 0.9275 0.9271 0.9267
2590.000000 0.9263 0.9260 0.9257 0.9258 0.9259
2585.000000 0.9261 0.9262 0.9263 0.9264 0.9265
2580.000000 0.9266 0.9268 0.9268 0.9270 0.9271
2575.000000 0.9275 0.9277 0.9280 0.9283 0.9285
2570.000000 0.9288 0.9290 0.9293 0.9295 0.9297
2565.000000 0.9300 0.9303 0.9305 0.9308 0.9311
2560.000000 0.9313 0.9316 0.9318 0.9321 0.9323
2555.000000 0.9325 0.9328 0.9332 0.9335 0.9339
2550.000000 0.9342 0.9345 0.9348 0.9351 0.9354
2545.000000 0.9357 0.9360 0.9363 0.9366 0.9368
2540.000000 0.9373 0.9375 0.9378 0.9382 0.9385
2535.000000 0.9388 0.9391 0.9394 0.9397 0.9401
2530.000000 0.9403 0.9406 0.9409 0.9411 0.9414
2525.000000 0.9416 0.9418 0.9421 0.9423 0.9425
2520.000000 0.9428 0.9430 0.9433 0.9435 0.9437
2515.000000 0.9440 0.9442 0.9444 0.9447 0.9450
2510.000000 0.9453 0.9454 0.9455 0.9456 0.9457
2505.000000 0.9458 0.9458 0.9458 0.9459 0.9460
2500.000000 0.9461 0.9461 0.9461 0.9462 0.9463
2495.000000 0.9464 0.9464 0.9464 0.9464 0.9464
2490.000000 0.9463 0.9463 0.9462 0.9461 0.9461
2485.000000 0.9460 0.9460 0.9459 0.9458 0.9458
2480.000000 0.9457 0.9457 0.9456 0.9455 0.9455
2475.000000 0.9455 0.9455 0.9455 0.9455 0.9457
2470.000000 0.9458 0.9460 0.9461 0.9463 0.9465
2465.000000 0.9466 0.9468 0.9470 0.9471 0.9473
2460.000000 0.9475 0.9478 0.9482 0.9486 0.9490
2455.000000 0.9494 0.9498 0.9502 0.9506 0.9509
2450.000000 0.9513 0.9517 0.9521 0.9524 0.9528
2445.000000 0.9532 0.9536 0.9539 0.9543 0.9545
2440.000000 0.9547 0.9550 0.9552 0.9554 0.9556
2435.000000 0.9557 0.9559 0.9561 0.9563 0.9565
2430.000000 0.9568 0.9568 0.9571 0.9573 0.9575
2425.000000 0.9577 0.9578 0.9581 0.9582 0.9584
2420.000000 0.9585 0.9585 0.9585 0.9584 0.9584
2415.000000 0.9583 0.9583 0.9582 0.9582 0.9582
2410.000000 0.9581 0.9581 0.9580 0.9580 0.9578
2405.000000 0.9578 0.9578 0.9578 0.9578 0.9577
2400.000000 0.9577 0.9577 0.9577 0.9577 0.9577
2395.000000 0.9577 0.9575 0.9575 0.9575 0.9575
2390.000000 0.9575 0.9575 0.9575 0.9575 0.9575
2385.000000 0.9575 0.9575 0.9575 0.9575 0.9575
2380.000000 0.9574 0.9574 0.9574 0.9574 0.9574
2375.000000 0.9574 0.9573 0.9573 0.9573 0.9573
2370.000000 0.9573 0.9573 0.9573 0.9571 0.9571
2365.000000 0.9571 0.9571 0.9571 0.9571 0.9571
2360.000000 0.9571 0.9571 0.9570 0.9570 0.9568
2355.000000 0.9568 0.9568 0.9568 0.9567 0.9566
2350.000000 0.9566 0.9565 0.9565 0.9564 0.9564
2345.000000 0.9563 0.9563 0.9562 0.9562 0.9562
2340.000000 0.9561 0.9560 0.9559 0.9559 0.9558
2335.000000 0.9558 0.9557 0.9557 0.9556 0.9556
2330.000000 0.9556 0.9555 0.9555 0.9554 0.9553
2325.000000 0.9552 0.9552 0.9551 0.9551 0.9550
2320.000000 0.9550 0.9549 0.9549 0.9549 0.9548
2315.000000 0.9548 0.9547 0.9547 0.9547 0.9547
2310.000000 0.9546 0.9546 0.9546 0.9546 0.9546
2305.000000 0.9546 0.9545 0.9545 0.9545 0.9545
2300.000000 0.9545 0.9544 0.9544 0.9544 0.9544
2295.000000 0.9544 0.9544 0.9543 0.9543 0.9543
2290.000000 0.9543 0.9543 0.9543 0.9542 0.9542
2285.000000 0.9542 0.9542 0.9542 0.9542 0.9543
2280.000000 0.9543 0.9544 0.9545 0.9546 0.9547
2275.000000 0.9547 0.9548 0.9549 0.9550 0.9551
2270.000000 0.9552 0.9553 0.9554 0.9555 0.9556
2265.000000 0.9556 0.9557 0.9558 0.9559 0.9560
2260.000000 0.9561 0.9563 0.9564 0.9566 0.9568
2255.000000 0.9570 0.9571 0.9574 0.9575 0.9577
2250.000000 0.9578 0.9581 0.9583 0.9585 0.9587
2245.000000 0.9589 0.9591 0.9593 0.9595 0.9596
2240.000000 0.9597 0.9598 0.9599 0.9600 0.9601
2235.000000 0.9601 0.9602 0.9603 0.9604 0.9605
2230.000000 0.9605 0.9605 0.9605 0.9605 0.9604
2225.000000 0.9604 0.9604 0.9604 0.9604 0.9604
2220.000000 0.9603 0.9603 0.9603 0.9603 0.9602
2215.000000 0.9602 0.9602 0.9602 0.9601 0.9601
2210.000000 0.9601 0.9601 0.9600 0.9600 0.9599
2205.000000 0.9599 0.9598 0.9598 0.9597 0.9597
2200.000000 0.9596 0.9596 0.9595 0.9595 0.9594
2195.000000 0.9594 0.9593 0.9593 0.9592 0.9591
2190.000000 0.9591 0.9590 0.9590 0.9589 0.9589
2185.000000 0.9588 0.9588 0.9587 0.9587 0.9586
2180.000000 0.9586 0.9585 0.9585 0.9584 0.9583
2175.000000 0.9582 0.9581 0.9580 0.9578 0.9577
2170.000000 0.9575 0.9575 0.9574 0.9571 0.9571
2165.000000 0.9570 0.9568 0.9568 0.9567 0.9566
2160.000000 0.9565 0.9564 0.9563 0.9561 0.9560
2155.000000 0.9558 0.9557 0.9555 0.9554 0.9553
2150.000000 0.9551 0.9550 0.9548 0.9547 0.9546
2145.000000 0.9544 0.9542 0.9541 0.9539 0.9538
2140.000000 0.9537 0.9535 0.9534 0.9532 0.9530
2135.000000 0.9528 0.9527 0.9525 0.9525 0.9523
2130.000000 0.9521 0.9520 0.9518 0.9516 0.9515
2125.000000 0.9513 0.9511 0.9510 0.9508 0.9506
2120.000000 0.9505 0.9502 0.9500 0.9499 0.9497
2115.000000 0.9495 0.9494 0.9493 0.9493 0.9492
2110.000000 0.9492 0.9491 0.9491 0.9492 0.9493
2105.000000 0.9498 0.9502 0.9507 0.9511 0.9516
2100.000000 0.9520 0.9525 0.9530 0.9535 0.9539
2095.000000 0.9544 0.9549 0.9554 0.9558 0.9561
2090.000000 0.9564 0.9567 0.9570 0.9574 0.9577
2085.000000 0.9581 0.9584 0.9588 0.9592 0.9596
2080.000000 0.9601 0.9605 0.9609 0.9613 0.9617
2075.000000 0.9620 0.9623 0.9625 0.9628 0.9631
2070.000000 0.9633 0.9636 0.9639 0.9642 0.9645
2065.000000 0.9646 0.9647 0.9646 0.9643 0.9638
2060.000000 0.9634 0.9628 0.9621 0.9615 0.9608
2055.000000 0.9601 0.9594 0.9587 0.9582 0.9578
2050.000000 0.9574 0.9571 0.9571 0.9571 0.9571
2045.000000 0.9571 0.9571 0.9574 0.9577 0.9578
2040.000000 0.9581 0.9583 0.9585 0.9587 0.9589
2035.000000 0.9593 0.9596 0.9600 0.9603 0.9606
2030.000000 0.9610 0.9613 0.9617 0.9620 0.9621
2025.000000 0.9621 0.9623 0.9623 0.9623 0.9623
2020.000000 0.9623 0.9624 0.9624 0.9624 0.9624
2015.000000 0.9624 0.9625 0.9625 0.9625 0.9625
2010.000000 0.9625 0.9627 0.9628 0.9628 0.9628
2005.000000 0.9628 0.9628 0.9630 0.9630 0.9631
2000.000000 0.9632 0.9632 0.9633 0.9633 0.9634
1995.000000 0.9635 0.9635 0.9636 0.9637 0.9638
1990.000000 0.9639 0.9639 0.9640 0.9641 0.9642
1985.000000 0.9643 0.9644 0.9644 0.9645 0.9646
1980.000000 0.9647 0.9647 0.9647 0.9647 0.9648
1975.000000 0.9648 0.9648 0.9648 0.9648 0.9649
1970.000000 0.9649 0.9649 0.9649 0.9649 0.9650
1965.000000 0.9651 0.9651 0.9652 0.9653 0.9653
1960.000000 0.9654 0.9655 0.9655 0.9654 0.9654
1955.000000 0.9654 0.9653 0.9652 0.9652 0.9651
1950.000000 0.9650 0.9645 0.9638 0.9630 0.9623
1945.000000 0.9616 0.9608 0.9597 0.9586 0.9574
1940.000000 0.9557 0.9531 0.9494 0.9458 0.9421
1935.000000 0.9386 0.9350 0.9314 0.9277 0.9241
1930.000000 0.9204 0.9168 0.9149 0.9140 0.9140
1925.000000 0.9140 0.9154 0.9178 0.9205 0.9231
1920.000000 0.9257 0.9282 0.9308 0.9334 0.9361
1915.000000 0.9387 0.9413 0.9439 0.9465 0.9491
1910.000000 0.9517 0.9534 0.9543 0.9543 0.9541
1905.000000 0.9539 0.9537 0.9530 0.9521 0.9512
1900.000000 0.9496 0.9471 0.9435 0.9368 0.9324
1895.000000 0.9285 0.9245 0.9182 0.9138 0.9114
1890.000000 0.9104 0.9101 0.9102 0.9110 0.9138
1885.000000 0.9183 0.9249 0.9275 0.9297 0.9318
1880.000000 0.9339 0.9360 0.9382 0.9407 0.9437
1875.000000 0.9466 0.9495 0.9518 0.9543 0.9565
1870.000000 0.9577 0.9582 0.9586 0.9590 0.9594
1865.000000 0.9598 0.9601 0.9601 0.9596 0.9591
1860.000000 0.9586 0.9571 0.9554 0.9534 0.9514
1855.000000 0.9493 0.9475 0.9462 0.9453 0.9453
1850.000000 0.9455 0.9459 0.9463 0.9467 0.9478
1845.000000 0.9505 0.9535 0.9556 0.9571 0.9588
1840.000000 0.9603 0.9618 0.9634 0.9650 0.9666
1835.000000 0.9683 0.9697 0.9702 0.9706 0.9710
1830.000000 0.9714 0.9718 0.9723 0.9727 0.9730
1825.000000 0.9730 0.9728 0.9727 0.9725 0.9724
1820.000000 0.9710 0.9692 0.9675 0.9659 0.9644
1815.000000 0.9630 0.9617 0.9607 0.9602 0.9602
1810.000000 0.9602 0.9604 0.9607 0.9609 0.9611
1805.000000 0.9615 0.9621 0.9627 0.9633 0.9639
1800.000000 0.9646 0.9650 0.9653 0.9655 0.9656
1795.000000 0.9657 0.9657 0.9657 0.9656 0.9654
1790.000000 0.9649 0.9642 0.9632 0.9616 0.9597
1785.000000 0.9577 0.9559 0.9543 0.9530 0.9514
1780.000000 0.9481 0.9442 0.9409 0.9378 0.9351
1775.000000 0.9328 0.9310 0.9299 0.9293 0.9287
1770.000000 0.9285 0.9293 0.9316 0.9375 0.9418
1765.000000 0.9449 0.9470 0.9480 0.9491 0.9503
1760.000000 0.9513 0.9523 0.9531 0.9538 0.9546
1755.000000 0.9553 0.9560 0.9568 0.9575 0.9578
1750.000000 0.9581 0.9583 0.9585 0.9587 0.9589
1745.000000 0.9591 0.9593 0.9595 0.9597 0.9598
1740.000000 0.9601 0.9603 0.9604 0.9606 0.9608
1735.000000 0.9610 0.9612 0.9614 0.9615 0.9617
1730.000000 0.9618 0.9618 0.9618 0.9618 0.9620
1725.000000 0.9620 0.9620 0.9620 0.9620 0.9618
1720.000000 0.9615 0.9611 0.9606 0.9599 0.9592
1715.000000 0.9586 0.9578 0.9571 0.9566 0.9560
1710.000000 0.9554 0.9548 0.9542 0.9536 0.9530
1705.000000 0.9523 0.9516 0.9510 0.9503 0.9497
1700.000000 0.9493 0.9490 0.9486 0.9483 0.9478
1695.000000 0.9475 0.9471 0.9468 0.9465 0.9462
1690.000000 0.9459 0.9456 0.9452 0.9449 0.9445
1685.000000 0.9441 0.9437 0.9432 0.9428 0.9423
1680.000000 0.9418 0.9415 0.9415 0.9418 0.9421
1675.000000 0.9425 0.9430 0.9435 0.9441 0.9448
1670.000000 0.9456 0.9463 0.9470 0.9475 0.9482
1665.000000 0.9486 0.9491 0.9495 0.9501 0.9505
1660.000000 0.9510 0.9514 0.9517 0.9518 0.9520
1655.000000 0.9521 0.9523 0.9525 0.9525 0.9528
1650.000000 0.9528 0.9531 0.9531 0.9532 0.9531
1645.000000 0.9528 0.9525 0.9524 0.9521 0.9521
1640.000000 0.9518 0.9517 0.9515 0.9514 0.9514
1635.000000 0.9514 0.9514 0.9514 0.9514 0.9514
1630.000000 0.9513 0.9510 0.9506 0.9501 0.9496
1625.000000 0.9491 0.9485 0.9477 0.9468 0.9460
1620.000000 0.9452 0.9443 0.9428 0.9393 0.9354
1615.000000 0.9196 0.9086 0.8986 0.8868 0.8693
1610.000000 0.8401 0.8085 0.7768 0.7453 0.7136
1605.000000 0.6818 0.6501 0.6183 0.5865 0.5546
1600.000000 0.5032 0.5051 0.5082 0.5226 0.5429
1595.000000 0.5632 0.5835 0.6038 0.6242 0.6447
1590.000000 0.6651 0.6856 0.7061 0.7265 0.7521
1585.000000 0.7530 0.7533 0.7456 0.7122 0.6653
1580.000000 0.6184 0.5714 0.5350 0.5303 0.5285
1575.000000 0.5383 0.5716 0.6056 0.6396 0.6737
1570.000000 0.7078 0.7430 0.7717 0.7846 0.7944
1565.000000 0.8058 0.8194 0.8320 0.8433 0.8556
1560.000000 0.8695 0.8832 0.8923 0.8990 0.9058
1555.000000 0.9139 0.9205 0.9243 0.9268 0.9293
1550.000000 0.9317 0.9333 0.9342 0.9352 0.9361
1545.000000 0.9368 0.9371 0.9375 0.9378 0.9382
1540.000000 0.9386 0.9390 0.9394 0.9397 0.9400
1535.000000 0.9402 0.9404 0.9406 0.9408 0.9410
1530.000000 0.9410 0.9411 0.9410 0.9410 0.9408
1525.000000 0.9400 0.9392 0.9384 0.9371 0.9354
1520.000000 0.9333 0.9304 0.9271 0.9225 0.9160
1515.000000 0.9094 0.9030 0.8968 0.8905 0.8832
1510.000000 0.8513 0.8218 0.7951 0.7712 0.7484
1505.000000 0.7255 0.7025 0.6795 0.6564 0.6321
1500.000000 0.6175 0.6124 0.6081 0.6038 0.5992
1495.000000 0.5875 0.5385 0.4016 0.4117 0.4116
1490.000000 0.4115 0.4242 0.4372 0.4502 0.4631
1485.000000 0.4760 0.4845 0.4884 0.4868 0.4654
1480.000000 0.4366 0.4077 0.3787 0.3497 0.3206
1475.000000 0.2916 0.2625 0.2334 0.2041 0.1749
1470.000000 0.1456 0.1163 0.0870 0.0597 0.0491
1465.000000 0.0475 0.0469 0.0453 0.0462 0.0463
1460.000000 0.0473 0.0499 0.0531 0.0584 0.0649
1455.000000 0.0751 0.0905 0.1071 0.1337 0.1534
1450.000000 0.1611 0.1651 0.1675 0.1704 0.1742
1445.000000 0.1841 0.2390 0.3001 0.3614 0.4228
1440.000000 0.4841 0.5456 0.6073 0.6690 0.7291
1435.000000 0.7525 0.7794 0.7928 0.8060 0.8171
1430.000000 0.8281 0.8399 0.8518 0.8615 0.8660
1425.000000 0.8696 0.8725 0.8751 0.8778 0.8805
1420.000000 0.8827 0.8846 0.8864 0.8875 0.8877
1415.000000 0.8877 0.8874 0.8859 0.8816 0.8708
1410.000000 0.8730 0.8730 0.8734 0.8741 0.8753
1405.000000 0.8771 0.8783 0.8789 0.8793 0.8794
1400.000000 0.8813 0.8777 0.8740 0.8649 0.8557
1395.000000 0.8464 0.8373 0.8280 0.8176 0.8071
1390.000000 0.7964 0.7858 0.7751 0.7644 0.7538
1385.000000 0.7430 0.7322 0.7215 0.7108 0.7000
1380.000000 0.6893 0.6785 0.6675 0.6568 0.6460
1375.000000 0.6351 0.6242 0.6133 0.6024 0.5915
1370.000000 0.5805 0.5696 0.5610 0.5592 0.5583
1365.000000 0.5567 0.5532 0.5434 0.5256 0.5197
1360.000000 0.5191 0.5223 0.5369 0.5543 0.5716
1355.000000 0.5890 0.6064 0.6238 0.6295 0.6295
1350.000000 0.6295 0.6066 0.5783 0.5499 0.5215
1345.000000 0.4931 0.4646 0.4360 0.4075 0.3789
1340.000000 0.3599 0.3609 0.3571 0.3574 0.3584
1335.000000 0.3752 0.4210 0.4708 0.5208 0.5707
1330.000000 0.6207 0.6594 0.6701 0.6824 0.6912
1325.000000 0.6951 0.6948 0.6969 0.6961 0.6711
1320.000000 0.6418 0.6123 0.5827 0.5755 0.5739
1315.000000 0.5767 0.6021 0.6275 0.6528 0.6784
1310.000000 0.7039 0.7295 0.7551 0.7733 0.7765
1305.000000 0.7792 0.7762 0.7744 0.7669 0.7528
1300.000000 0.7386 0.7243 0.7101 0.6958 0.6815
1295.000000 0.6671 0.6536 0.6444 0.6325 0.5947
1290.000000 0.5491 0.5034 0.4576 0.4159 0.4072
1285.000000 0.4034 0.4132 0.4408 0.4685 0.4962
1280.000000 0.5239 0.5517 0.5795 0.6074 0.6350
1275.000000 0.6495 0.6510 0.6517 0.6521 0.6521
1270.000000 0.6522 0.6522 0.6521 0.6517 0.6512
1265.000000 0.6507 0.6489 0.6468 0.6436 0.6372
1260.000000 0.6301 0.6115 0.5676 0.5239 0.4800
1255.000000 0.4360 0.3922 0.3480 0.3057 0.2993
1250.000000 0.2978 0.3259 0.3647 0.4036 0.4425
1245.000000 0.4816 0.5207 0.5598 0.5990 0.6383
1240.000000 0.6749 0.6784 0.6812 0.6799 0.6634
1235.000000 0.6411 0.6186 0.5960 0.5735 0.5509
1230.000000 0.5283 0.5058 0.4931 0.4910 0.4910
1225.000000 0.4910 0.5008 0.5354 0.5741 0.6130
1220.000000 0.6518 0.6908 0.7065 0.7208 0.7338
1215.000000 0.7439 0.7544 0.7649 0.7711 0.7749
1210.000000 0.7764 0.7767 0.7771 0.7764 0.7742
1205.000000 0.7698 0.7571 0.7301 0.7018 0.6737
1200.000000 0.6454 0.6171 0.5891 0.5799 0.5727
1195.000000 0.5653 0.5504 0.5142 0.4760 0.4378
1190.000000 0.4186 0.4152 0.4299 0.4790 0.5281
1185.000000 0.5774 0.6267 0.6761 0.7251 0.7568
1180.000000 0.7719 0.7910 0.8047 0.8171 0.8286
1175.000000 0.8347 0.8386 0.8411 0.8420 0.8423
1170.000000 0.8427 0.8400 0.8360 0.8293 0.8212
1165.000000 0.8083 0.7760 0.7428 0.7097 0.6764
1160.000000 0.6501 0.6472 0.6474 0.6478 0.6526
1155.000000 0.6619 0.6699 0.6854 0.7037 0.7221
1150.000000 0.7406 0.7591 0.7775 0.7951 0.8001
1145.000000 0.8001 0.8001 0.7949 0.7633 0.7110
1140.000000 0.6996 0.6930 0.6875 0.6731 0.6350
1135.000000 0.5943 0.5535 0.5126 0.4718 0.4308
1130.000000 0.3896 0.3897 0.3898 0.4024 0.4281
1125.000000 0.4606 0.4932 0.5258 0.5585 0.5912
1120.000000 0.6240 0.6568 0.6897 0.7225 0.7541
1115.000000 0.7647 0.7634 0.7640 0.7624 0.7532
1110.000000 0.7158 0.6781 0.6400 0.6020 0.5646
1105.000000 0.5559 0.5523 0.5659 0.5931 0.6203
1100.000000 0.6475 0.6749 0.6957 0.6971 0.6968
1095.000000 0.6883 0.6805 0.6825 0.7061 0.7319
1090.000000 0.7578 0.7838 0.7956 0.8015 0.8085
1085.000000 0.8165 0.8228 0.8254 0.8254 0.8255
1080.000000 0.8243 0.8228 0.8191 0.8115 0.8021
1075.000000 0.7925 0.7799 0.7618 0.7489 0.7384
1070.000000 0.7298 0.7241 0.7185 0.7141 0.7103
1065.000000 0.7074 0.7045 0.7026 0.7028 0.7028
1060.000000 0.7036 0.7064 0.7143 0.7233 0.7275
1055.000000 0.7294 0.7301 0.7296 0.7017 0.6631
1050.000000 0.6244 0.5943 0.5858 0.5747 0.5581
1045.000000 0.5371 0.5302 0.5082 0.4807 0.4671
1040.000000 0.4600 0.4596 0.4655 0.5040 0.5448
1035.000000 0.5850 0.6253 0.6657 0.7061 0.7465
1030.000000 0.7871 0.8168 0.8440 0.8614 0.8755
1025.000000 0.8875 0.8981 0.9071 0.9145 0.9209
1020.000000 0.9252 0.9294 0.9323 0.9342 0.9361
1015.000000 0.9373 0.9385 0.9394 0.9403 0.9411
1010.000000 0.9418 0.9427 0.9437 0.9448 0.9456
1005.000000 0.9462 0.9468 0.9471 0.9477 0.9506
1000.000000 0.9758 0.9795 0.9794 0.9742 0.9610
995.000000 0.9514 0.9470 0.9452 0.9433 0.9414
990.000000 0.9394 0.9368 0.9342 0.9311 0.9268
985.000000 0.9115 0.8947 0.8778 0.8611 0.8442
980.000000 0.8273 0.8067 0.8087 0.8107 0.8125
975.000000 0.8136 0.8140 0.8140 0.8140 0.8200
970.000000 0.8306 0.8423 0.8549 0.8659 0.8751
965.000000 0.8783 0.8794 0.8813 0.8867 0.8988
960.000000 0.9084 0.9104 0.9121 0.9149 0.9189
955.000000 0.9231 0.9266 0.9296 0.9323 0.9335
950.000000 0.9348 0.9362 0.9373 0.9377 0.9367
945.000000 0.9348 0.9321 0.9287 0.9250 0.9206
940.000000 0.9153 0.9092 0.9023 0.8967 0.8916
935.000000 0.8875 0.8851 0.8831 0.8803 0.8762
930.000000 0.8550 0.8328 0.8108 0.7885 0.7662
925.000000 0.7481 0.7497 0.7575 0.7839 0.8374
920.000000 0.8746 0.8887 0.9014 0.9128 0.9206
915.000000 0.9258 0.9283 0.9297 0.9354 0.9373
910.000000 0.9386 0.9392 0.9398 0.9405 0.9413
905.000000 0.9421 0.9430 0.9457 0.9434 0.9431
900.000000 0.9423 0.9415 0.9406 0.9397 0.9392
895.000000 0.9387 0.9381 0.9375 0.9368 0.9363
890.000000 0.9356 0.9349 0.9340 0.9328 0.9316
885.000000 0.9297 0.9271 0.9215 0.9159 0.9081
880.000000 0.8999 0.8921 0.8848 0.8778 0.8728
875.000000 0.8691 0.8674 0.8661 0.8650 0.8642
870.000000 0.8634 0.8627 0.8618 0.8609 0.8599
865.000000 0.8586 0.8562 0.8541 0.8527 0.8517
860.000000 0.8512 0.8505 0.8481 0.8455 0.8430
855.000000 0.8406 0.8391 0.8357 0.8378 0.8378
850.000000 0.8381 0.8383 0.8390 0.8399 0.8411
845.000000 0.8425 0.8501 0.8612 0.8724 0.8839
840.000000 0.8954 0.9062 0.9149 0.9212 0.9266
835.000000 0.9320 0.9346 0.9370 0.9394 0.9418
830.000000 0.9434 0.9449 0.9465 0.9478 0.9491
825.000000 0.9505 0.9525 0.9544 0.9552 0.9557
820.000000 0.9556 0.9556 0.9547 0.9547 0.9567
815.000000 0.9581 0.9581 0.9581 0.9575 0.9556
810.000000 0.9538 0.9513 0.9486 0.9464 0.9444
805.000000 0.9421 0.9396 0.9368 0.9331 0.9304
800.000000 0.9282 0.9267 0.9252 0.9250 0.9256
795.000000 0.9260 0.9261 0.9261 0.9261 0.9262
790.000000 0.9266 0.9270 0.9275 0.9285 0.9294
785.000000 0.9302 0.9307 0.9312 0.9316 0.9316
780.000000 0.9301 0.9271 0.9236 0.9182 0.9120
775.000000 0.9042 0.8940 0.8845 0.8725 0.8594
770.000000 0.8432 0.8225 0.8046 0.7855 0.7718
765.000000 0.7651 0.7651 0.7715 0.7767 0.7793
760.000000 0.7793 0.7764 0.7669 0.7482 0.6978
755.000000 0.6532 0.5075 0.3568 0.2058 0.0709
750.000000 0.0497 0.0435 0.0434 0.0529 0.0812
745.000000 0.1096 0.1167 0.1336 0.1833 0.2709
740.000000 0.3820 0.4944 0.6064 0.6583 0.7160
735.000000 0.7491 0.7705 0.7725 0.7708 0.7587
730.000000 0.7206 0.6217 0.5118 0.4137 0.4125
725.000000 0.4405 0.5122 0.5877 0.6635 0.7395
720.000000 0.8001 0.8338 0.8548 0.8707 0.8867
715.000000 0.8994 0.9104 0.9181 0.9248 0.9303
710.000000 0.9350 0.9383 0.9408 0.9430 0.9449
705.000000 0.9463 0.9474 0.9495 0.9483 0.9480
700.000000 0.9463 0.9434 0.9344 0.9210 0.9071
695.000000 0.8955 0.8963 0.8962 0.8996 0.9189
690.000000 0.9320 0.9401 0.9454 0.9482 0.9499
685.000000 0.9500 0.9504 0.9503 0.9502 0.9484
680.000000 0.9466 0.9435 0.9387 0.9321 0.9225
675.000000 0.9187 0.9188 0.9277 0.9387 0.9448
##END=
