##TITLE=1-Iodo-2-nitrobenzene
##JCAMP-DX=4.24
$$ By DXEDIT 1.05 (RS McDonald)
##DATA TYPE=INFRARED SPECTRUM
##CLASS=COBLENTZ III
##ORIGIN=DOW CHEMICAL COMPANY
##OWNER=COPYRIGHT (C) 1988 by COBLENTZ SOCIETY INC.
Collection (C) 2018 copyright by the U.S. Secretary of Commerce
on behalf of the United States of America. All rights reserved.
##DATE=1960/03/16
##CAS REGISTRY NO=609-73-4
##MOLFORM=C6 H4 I N O2
##MP=51 C
##SOURCE REFERENCE=COBLENTZ NO. 6282
##$NIST SOURCE=COBLENTZ
##$NIST IMAGE=cob6282
##SPECTROMETER/DATA SYSTEM=DOW KBr FOREPRISM-GRATING
##INSTRUMENT PARAMETERS=BLAZED AT 3.5, 12.0, 20.0 MICRON AND CHANGED AT 5.0, 7.5, 14.9 MICRON
##STATE=SOLUTION (10% CCl4 FOR 3800-1330, 10% CS2 FOR 1330-420 CM^-^1)
##PATH LENGTH=0.011 CM, 0.011 CM
##SAMPLING PROCEDURE=TRANSMISSION
##RESOLUTION=2
##DATA PROCESSING=DIGITIZED BY COBLENTZ SOCIETY (BATCH I) FROM HARD COPY
##XUNITS=1/CM
##YUNITS=TRANSMITTANCE
##XFACTOR=1
##YFACTOR=1
##DELTAX=1
##FIRSTX=3814
##LASTX=422
##FIRSTY=0.9459
##MAXX=3814
##MINX=422
##MAXY=0.9571
##MINY=0.0106
##NPOINTS=3393
##XYDATA=(X++(Y..Y))
3814.000000 0.9459 0.9450 0.9450 0.9462 0.9469
3809.000000 0.9456 0.9450 0.9465 0.9469 0.9469
3804.000000 0.9470 0.9470 0.9452 0.9451 0.9451
3799.000000 0.9451 0.9451 0.9454 0.9468 0.9456
3794.000000 0.9471 0.9471 0.9471 0.9471 0.9471
3789.000000 0.9471 0.9471 0.9471 0.9472 0.9472
3784.000000 0.9460 0.9453 0.9453 0.9466 0.9471
3779.000000 0.9455 0.9468 0.9471 0.9471 0.9451
3774.000000 0.9470 0.9470 0.9470 0.9470 0.9470
3769.000000 0.9471 0.9472 0.9473 0.9474 0.9475
3764.000000 0.9476 0.9477 0.9479 0.9480 0.9491
3759.000000 0.9491 0.9483 0.9483 0.9483 0.9479
3754.000000 0.9475 0.9470 0.9466 0.9462 0.9459
3749.000000 0.9454 0.9450 0.9446 0.9442 0.9436
3744.000000 0.9432 0.9425 0.9418 0.9410 0.9404
3739.000000 0.9407 0.9418 0.9418 0.9418 0.9418
3734.000000 0.9409 0.9399 0.9409 0.9417 0.9417
3729.000000 0.9417 0.9417 0.9417 0.9418 0.9420
3724.000000 0.9423 0.9425 0.9428 0.9431 0.9434
3719.000000 0.9417 0.9421 0.9441 0.9444 0.9446
3714.000000 0.9450 0.9452 0.9460 0.9470 0.9466
3709.000000 0.9480 0.9483 0.9483 0.9483 0.9483
3704.000000 0.9482 0.9481 0.9480 0.9478 0.9477
3699.000000 0.9476 0.9475 0.9475 0.9457 0.9456
3694.000000 0.9458 0.9460 0.9462 0.9464 0.9466
3689.000000 0.9468 0.9470 0.9469 0.9454 0.9458
3684.000000 0.9461 0.9461 0.9461 0.9457 0.9454
3679.000000 0.9451 0.9450 0.9447 0.9445 0.9441
3674.000000 0.9439 0.9437 0.9435 0.9432 0.9446
3669.000000 0.9430 0.9427 0.9426 0.9428 0.9428
3664.000000 0.9429 0.9429 0.9430 0.9430 0.9431
3659.000000 0.9431 0.9432 0.9432 0.9433 0.9433
3654.000000 0.9434 0.9434 0.9435 0.9435 0.9436
3649.000000 0.9436 0.9437 0.9437 0.9438 0.9438
3644.000000 0.9439 0.9439 0.9440 0.9440 0.9441
3639.000000 0.9441 0.9442 0.9442 0.9443 0.9443
3634.000000 0.9444 0.9449 0.9465 0.9465 0.9460
3629.000000 0.9447 0.9455 0.9468 0.9469 0.9469
3624.000000 0.9469 0.9469 0.9471 0.9472 0.9475
3619.000000 0.9477 0.9479 0.9480 0.9482 0.9484
3614.000000 0.9486 0.9487 0.9489 0.9491 0.9493
3609.000000 0.9493 0.9480 0.9496 0.9496 0.9496
3604.000000 0.9495 0.9489 0.9480 0.9491 0.9482
3599.000000 0.9469 0.9477 0.9486 0.9485 0.9482
3594.000000 0.9481 0.9479 0.9479 0.9476 0.9476
3589.000000 0.9474 0.9472 0.9472 0.9471 0.9468
3584.000000 0.9467 0.9466 0.9465 0.9465 0.9465
3579.000000 0.9465 0.9465 0.9465 0.9460 0.9452
3574.000000 0.9465 0.9465 0.9457 0.9446 0.9446
3569.000000 0.9446 0.9446 0.9446 0.9447 0.9447
3564.000000 0.9447 0.9447 0.9447 0.9447 0.9447
3559.000000 0.9447 0.9447 0.9447 0.9447 0.9465
3554.000000 0.9448 0.9450 0.9467 0.9467 0.9462
3549.000000 0.9452 0.9466 0.9465 0.9465 0.9455
3544.000000 0.9453 0.9462 0.9462 0.9461 0.9449
3539.000000 0.9454 0.9447 0.9454 0.9459 0.9458
3534.000000 0.9458 0.9457 0.9457 0.9456 0.9456
3529.000000 0.9436 0.9436 0.9435 0.9435 0.9433
3524.000000 0.9433 0.9432 0.9432 0.9431 0.9431
3519.000000 0.9430 0.9430 0.9429 0.9429 0.9428
3514.000000 0.9428 0.9427 0.9427 0.9426 0.9426
3509.000000 0.9426 0.9426 0.9426 0.9426 0.9426
3504.000000 0.9426 0.9426 0.9426 0.9426 0.9426
3499.000000 0.9426 0.9426 0.9426 0.9427 0.9427
3494.000000 0.9427 0.9427 0.9427 0.9427 0.9426
3489.000000 0.9426 0.9426 0.9426 0.9426 0.9426
3484.000000 0.9426 0.9426 0.9426 0.9426 0.9426
3479.000000 0.9426 0.9426 0.9426 0.9426 0.9426
3474.000000 0.9426 0.9426 0.9426 0.9426 0.9426
3469.000000 0.9426 0.9427 0.9427 0.9428 0.9428
3464.000000 0.9429 0.9429 0.9430 0.9430 0.9431
3459.000000 0.9431 0.9432 0.9432 0.9432 0.9432
3454.000000 0.9433 0.9433 0.9434 0.9434 0.9435
3449.000000 0.9435 0.9436 0.9436 0.9437 0.9437
3444.000000 0.9438 0.9438 0.9439 0.9439 0.9439
3439.000000 0.9439 0.9440 0.9440 0.9440 0.9439
3434.000000 0.9439 0.9439 0.9439 0.9439 0.9439
3429.000000 0.9438 0.9438 0.9438 0.9438 0.9422
3424.000000 0.9436 0.9438 0.9438 0.9437 0.9437
3419.000000 0.9437 0.9437 0.9437 0.9437 0.9436
3414.000000 0.9436 0.9436 0.9437 0.9437 0.9437
3409.000000 0.9437 0.9438 0.9448 0.9446 0.9438
3404.000000 0.9438 0.9438 0.9439 0.9439 0.9439
3399.000000 0.9439 0.9440 0.9440 0.9440 0.9440
3394.000000 0.9441 0.9441 0.9441 0.9441 0.9442
3389.000000 0.9442 0.9442 0.9442 0.9443 0.9443
3384.000000 0.9443 0.9444 0.9445 0.9445 0.9446
3379.000000 0.9446 0.9446 0.9448 0.9449 0.9449
3374.000000 0.9449 0.9449 0.9451 0.9452 0.9470
3369.000000 0.9455 0.9453 0.9453 0.9455 0.9455
3364.000000 0.9456 0.9456 0.9458 0.9458 0.9459
3359.000000 0.9459 0.9460 0.9461 0.9462 0.9462
3354.000000 0.9463 0.9463 0.9464 0.9464 0.9464
3349.000000 0.9464 0.9464 0.9464 0.9464 0.9479
3344.000000 0.9483 0.9466 0.9482 0.9465 0.9465
3339.000000 0.9466 0.9484 0.9484 0.9482 0.9465
3334.000000 0.9465 0.9465 0.9465 0.9465 0.9465
3329.000000 0.9465 0.9466 0.9466 0.9466 0.9466
3324.000000 0.9466 0.9466 0.9466 0.9466 0.9466
3319.000000 0.9466 0.9466 0.9466 0.9466 0.9465
3314.000000 0.9465 0.9465 0.9484 0.9484 0.9484
3309.000000 0.9483 0.9479 0.9467 0.9483 0.9483
3304.000000 0.9477 0.9463 0.9463 0.9462 0.9462
3299.000000 0.9462 0.9462 0.9462 0.9462 0.9462
3294.000000 0.9462 0.9462 0.9462 0.9462 0.9462
3289.000000 0.9462 0.9463 0.9463 0.9463 0.9463
3284.000000 0.9464 0.9482 0.9481 0.9464 0.9468
3279.000000 0.9483 0.9478 0.9464 0.9470 0.9483
3274.000000 0.9484 0.9484 0.9484 0.9484 0.9485
3269.000000 0.9486 0.9487 0.9488 0.9490 0.9491
3264.000000 0.9492 0.9493 0.9496 0.9497 0.9498
3259.000000 0.9499 0.9501 0.9501 0.9485 0.9504
3254.000000 0.9505 0.9506 0.9507 0.9508 0.9509
3249.000000 0.9510 0.9511 0.9512 0.9513 0.9505
3244.000000 0.9505 0.9515 0.9515 0.9512 0.9509
3239.000000 0.9505 0.9501 0.9497 0.9494 0.9491
3234.000000 0.9488 0.9484 0.9481 0.9478 0.9476
3229.000000 0.9473 0.9473 0.9469 0.9452 0.9455
3224.000000 0.9469 0.9469 0.9469 0.9469 0.9469
3219.000000 0.9468 0.9468 0.9467 0.9465 0.9465
3214.000000 0.9464 0.9462 0.9462 0.9461 0.9461
3209.000000 0.9460 0.9442 0.9438 0.9437 0.9436
3204.000000 0.9435 0.9434 0.9433 0.9432 0.9435
3199.000000 0.9446 0.9434 0.9444 0.9435 0.9449
3194.000000 0.9449 0.9449 0.9449 0.9448 0.9438
3189.000000 0.9439 0.9448 0.9448 0.9435 0.9426
3184.000000 0.9425 0.9423 0.9422 0.9420 0.9419
3179.000000 0.9417 0.9416 0.9413 0.9412 0.9405
3174.000000 0.9396 0.9388 0.9379 0.9370 0.9361
3169.000000 0.9355 0.9350 0.9350 0.9351 0.9352
3164.000000 0.9362 0.9372 0.9363 0.9366 0.9375
3159.000000 0.9375 0.9363 0.9371 0.9363 0.9359
3154.000000 0.9376 0.9379 0.9380 0.9381 0.9382
3149.000000 0.9382 0.9364 0.9364 0.9364 0.9363
3144.000000 0.9363 0.9362 0.9362 0.9367 0.9380
3139.000000 0.9379 0.9379 0.9378 0.9378 0.9377
3134.000000 0.9377 0.9375 0.9375 0.9375 0.9375
3129.000000 0.9374 0.9374 0.9373 0.9373 0.9371
3124.000000 0.9369 0.9365 0.9360 0.9356 0.9352
3119.000000 0.9348 0.9343 0.9339 0.9335 0.9331
3114.000000 0.9326 0.9322 0.9318 0.9308 0.9301
3109.000000 0.9287 0.9273 0.9268 0.9260 0.9237
3104.000000 0.9213 0.9188 0.9163 0.9137 0.9125
3099.000000 0.9101 0.9074 0.9062 0.9054 0.9045
3094.000000 0.9017 0.9017 0.9013 0.8998 0.8997
3089.000000 0.8985 0.8978 0.8990 0.9004 0.8999
3084.000000 0.9000 0.8966 0.8931 0.8868 0.8807
3079.000000 0.8710 0.8624 0.8593 0.8549 0.8536
3074.000000 0.8536 0.8533 0.8501 0.8506 0.8506
3069.000000 0.8502 0.8533 0.8539 0.8566 0.8611
3064.000000 0.8656 0.8689 0.8737 0.8786 0.8841
3059.000000 0.8896 0.8938 0.8964 0.8987 0.9029
3054.000000 0.9062 0.9083 0.9111 0.9143 0.9170
3049.000000 0.9188 0.9210 0.9228 0.9261 0.9278
3044.000000 0.9310 0.9333 0.9353 0.9374 0.9392
3039.000000 0.9391 0.9391 0.9387 0.9366 0.9350
3034.000000 0.9345 0.9324 0.9310 0.9309 0.9300
3029.000000 0.9288 0.9288 0.9277 0.9268 0.9268
3024.000000 0.9268 0.9267 0.9267 0.9267 0.9267
3019.000000 0.9282 0.9285 0.9284 0.9267 0.9265
3014.000000 0.9266 0.9266 0.9266 0.9266 0.9267
3009.000000 0.9267 0.9263 0.9249 0.9255 0.9268
3004.000000 0.9268 0.9261 0.9251 0.9251 0.9261
2999.000000 0.9260 0.9252 0.9252 0.9253 0.9253
2994.000000 0.9253 0.9267 0.9272 0.9272 0.9272
2989.000000 0.9279 0.9285 0.9290 0.9299 0.9305
2984.000000 0.9312 0.9318 0.9325 0.9332 0.9344
2979.000000 0.9365 0.9365 0.9365 0.9384 0.9389
2974.000000 0.9395 0.9402 0.9408 0.9413 0.9419
2969.000000 0.9434 0.9444 0.9446 0.9450 0.9452
2964.000000 0.9455 0.9457 0.9460 0.9463 0.9467
2959.000000 0.9488 0.9490 0.9473 0.9474 0.9474
2954.000000 0.9478 0.9493 0.9493 0.9494 0.9494
2949.000000 0.9494 0.9495 0.9482 0.9467 0.9461
2944.000000 0.9466 0.9457 0.9456 0.9443 0.9447
2939.000000 0.9446 0.9440 0.9426 0.9413 0.9382
2934.000000 0.9367 0.9353 0.9340 0.9335 0.9329
2929.000000 0.9327 0.9327 0.9326 0.9325 0.9323
2924.000000 0.9323 0.9322 0.9312 0.9300 0.9298
2919.000000 0.9297 0.9296 0.9294 0.9293 0.9292
2914.000000 0.9291 0.9289 0.9288 0.9287 0.9285
2909.000000 0.9282 0.9296 0.9295 0.9274 0.9270
2904.000000 0.9268 0.9265 0.9262 0.9258 0.9256
2899.000000 0.9253 0.9250 0.9247 0.9246 0.9228
2894.000000 0.9209 0.9191 0.9174 0.9157 0.9140
2889.000000 0.9123 0.9106 0.9089 0.9072 0.9050
2884.000000 0.9030 0.9007 0.8983 0.8961 0.8937
2879.000000 0.8917 0.8895 0.8856 0.8854 0.8835
2874.000000 0.8817 0.8799 0.8783 0.8779 0.8776
2869.000000 0.8774 0.8772 0.8768 0.8777 0.8782
2864.000000 0.8798 0.8823 0.8847 0.8870 0.8892
2859.000000 0.8910 0.8929 0.8947 0.8967 0.8985
2854.000000 0.8987 0.9003 0.9022 0.9041 0.9060
2849.000000 0.9080 0.9101 0.9122 0.9158 0.9178
2844.000000 0.9193 0.9200 0.9229 0.9242 0.9248
2839.000000 0.9258 0.9282 0.9293 0.9292 0.9290
2834.000000 0.9295 0.9297 0.9300 0.9303 0.9306
2829.000000 0.9323 0.9314 0.9331 0.9336 0.9320
2824.000000 0.9322 0.9341 0.9326 0.9345 0.9346
2819.000000 0.9342 0.9328 0.9328 0.9329 0.9329
2814.000000 0.9329 0.9329 0.9330 0.9330 0.9330
2809.000000 0.9330 0.9342 0.9350 0.9350 0.9350
2804.000000 0.9351 0.9351 0.9351 0.9351 0.9352
2799.000000 0.9352 0.9352 0.9352 0.9352 0.9352
2794.000000 0.9354 0.9354 0.9351 0.9339 0.9350
2789.000000 0.9336 0.9336 0.9336 0.9336 0.9344
2784.000000 0.9355 0.9345 0.9338 0.9350 0.9359
2779.000000 0.9359 0.9361 0.9362 0.9362 0.9364
2774.000000 0.9365 0.9366 0.9367 0.9368 0.9369
2769.000000 0.9370 0.9372 0.9374 0.9375 0.9376
2764.000000 0.9378 0.9379 0.9381 0.9382 0.9383
2759.000000 0.9384 0.9386 0.9387 0.9389 0.9390
2754.000000 0.9391 0.9392 0.9395 0.9396 0.9398
2749.000000 0.9399 0.9400 0.9400 0.9400 0.9399
2744.000000 0.9399 0.9399 0.9399 0.9399 0.9399
2739.000000 0.9398 0.9398 0.9398 0.9398 0.9397
2734.000000 0.9397 0.9396 0.9396 0.9394 0.9393
2729.000000 0.9391 0.9390 0.9388 0.9387 0.9386
2724.000000 0.9384 0.9382 0.9381 0.9379 0.9378
2719.000000 0.9377 0.9376 0.9374 0.9373 0.9370
2714.000000 0.9369 0.9367 0.9365 0.9361 0.9360
2709.000000 0.9358 0.9355 0.9353 0.9350 0.9349
2704.000000 0.9347 0.9345 0.9343 0.9340 0.9338
2699.000000 0.9335 0.9333 0.9330 0.9327 0.9324
2694.000000 0.9322 0.9319 0.9317 0.9315 0.9314
2689.000000 0.9313 0.9315 0.9315 0.9316 0.9316
2684.000000 0.9317 0.9317 0.9318 0.9318 0.9319
2679.000000 0.9319 0.9320 0.9320 0.9321 0.9321
2674.000000 0.9321 0.9322 0.9323 0.9327 0.9331
2669.000000 0.9336 0.9340 0.9344 0.9348 0.9353
2664.000000 0.9357 0.9360 0.9365 0.9370 0.9374
2659.000000 0.9376 0.9381 0.9399 0.9401 0.9402
2654.000000 0.9404 0.9405 0.9406 0.9401 0.9391
2649.000000 0.9392 0.9403 0.9414 0.9416 0.9405
2644.000000 0.9398 0.9398 0.9412 0.9404 0.9400
2639.000000 0.9400 0.9401 0.9401 0.9402 0.9402
2634.000000 0.9421 0.9421 0.9419 0.9399 0.9400
2629.000000 0.9415 0.9413 0.9411 0.9410 0.9408
2624.000000 0.9407 0.9405 0.9404 0.9402 0.9401
2619.000000 0.9398 0.9397 0.9395 0.9394 0.9391
2614.000000 0.9388 0.9381 0.9375 0.9367 0.9361
2609.000000 0.9354 0.9348 0.9342 0.9335 0.9331
2604.000000 0.9327 0.9323 0.9321 0.9317 0.9316
2599.000000 0.9314 0.9314 0.9314 0.9314 0.9314
2594.000000 0.9314 0.9313 0.9316 0.9316 0.9317
2589.000000 0.9317 0.9317 0.9317 0.9317 0.9317
2584.000000 0.9319 0.9319 0.9319 0.9319 0.9320
2579.000000 0.9320 0.9321 0.9321 0.9324 0.9326
2574.000000 0.9328 0.9330 0.9332 0.9334 0.9337
2569.000000 0.9339 0.9341 0.9343 0.9345 0.9347
2564.000000 0.9349 0.9351 0.9354 0.9356 0.9358
2559.000000 0.9360 0.9363 0.9365 0.9366 0.9369
2554.000000 0.9373 0.9376 0.9379 0.9382 0.9385
2549.000000 0.9387 0.9391 0.9394 0.9397 0.9400
2544.000000 0.9403 0.9406 0.9409 0.9412 0.9415
2539.000000 0.9416 0.9417 0.9418 0.9419 0.9421
2534.000000 0.9422 0.9425 0.9427 0.9427 0.9430
2529.000000 0.9430 0.9433 0.9434 0.9435 0.9436
2524.000000 0.9438 0.9439 0.9441 0.9443 0.9445
2519.000000 0.9445 0.9445 0.9444 0.9443 0.9442
2514.000000 0.9442 0.9441 0.9441 0.9441 0.9441
2509.000000 0.9440 0.9440 0.9439 0.9439 0.9438
2504.000000 0.9438 0.9436 0.9435 0.9433 0.9431
2499.000000 0.9429 0.9428 0.9426 0.9425 0.9422
2494.000000 0.9422 0.9419 0.9418 0.9417 0.9416
2489.000000 0.9415 0.9415 0.9414 0.9413 0.9412
2484.000000 0.9412 0.9411 0.9410 0.9421 0.9428
2479.000000 0.9427 0.9427 0.9425 0.9424 0.9423
2474.000000 0.9423 0.9422 0.9421 0.9420 0.9420
2469.000000 0.9419 0.9418 0.9417 0.9417 0.9417
2464.000000 0.9417 0.9416 0.9416 0.9416 0.9416
2459.000000 0.9416 0.9407 0.9405 0.9404 0.9395
2454.000000 0.9395 0.9408 0.9414 0.9414 0.9400
2449.000000 0.9409 0.9413 0.9413 0.9413 0.9413
2444.000000 0.9413 0.9412 0.9412 0.9412 0.9412
2439.000000 0.9412 0.9412 0.9412 0.9412 0.9411
2434.000000 0.9411 0.9411 0.9411 0.9410 0.9410
2429.000000 0.9409 0.9409 0.9407 0.9407 0.9406
2424.000000 0.9406 0.9405 0.9405 0.9405 0.9406
2419.000000 0.9407 0.9408 0.9409 0.9410 0.9413
2414.000000 0.9415 0.9418 0.9421 0.9424 0.9427
2409.000000 0.9436 0.9447 0.9443 0.9457 0.9458
2404.000000 0.9463 0.9465 0.9465 0.9465 0.9462
2399.000000 0.9446 0.9430 0.9416 0.9403 0.9399
2394.000000 0.9396 0.9392 0.9388 0.9384 0.9381
2389.000000 0.9393 0.9387 0.9379 0.9372 0.9367
2384.000000 0.9377 0.9363 0.9355 0.9350 0.9334
2379.000000 0.9324 0.9318 0.9320 0.9325 0.9339
2374.000000 0.9364 0.9385 0.9399 0.9414 0.9429
2369.000000 0.9430 0.9441 0.9456 0.9472 0.9484
2364.000000 0.9496 0.9463 0.9429 0.9389 0.9367
2359.000000 0.9307 0.9263 0.9274 0.9302 0.9352
2354.000000 0.9388 0.9406 0.9426 0.9438 0.9445
2349.000000 0.9461 0.9488 0.9516 0.9526 0.9526
2344.000000 0.9505 0.9491 0.9484 0.9475 0.9469
2339.000000 0.9445 0.9452 0.9453 0.9433 0.9430
2334.000000 0.9448 0.9447 0.9446 0.9448 0.9463
2329.000000 0.9462 0.9461 0.9464 0.9477 0.9483
2324.000000 0.9494 0.9493 0.9492 0.9489 0.9488
2319.000000 0.9487 0.9486 0.9485 0.9485 0.9485
2314.000000 0.9484 0.9483 0.9480 0.9477 0.9474
2309.000000 0.9472 0.9469 0.9466 0.9464 0.9461
2304.000000 0.9458 0.9455 0.9453 0.9451 0.9449
2299.000000 0.9456 0.9469 0.9469 0.9469 0.9469
2294.000000 0.9469 0.9467 0.9467 0.9467 0.9467
2289.000000 0.9467 0.9453 0.9447 0.9447 0.9447
2284.000000 0.9447 0.9429 0.9428 0.9428 0.9428
2279.000000 0.9425 0.9408 0.9409 0.9407 0.9394
2274.000000 0.9397 0.9399 0.9395 0.9389 0.9395
2269.000000 0.9394 0.9391 0.9397 0.9405 0.9401
2264.000000 0.9401 0.9407 0.9415 0.9407 0.9410
2259.000000 0.9415 0.9406 0.9406 0.9410 0.9413
2254.000000 0.9398 0.9401 0.9405 0.9407 0.9394
2249.000000 0.9397 0.9401 0.9404 0.9409 0.9406
2244.000000 0.9396 0.9399 0.9402 0.9405 0.9407
2239.000000 0.9409 0.9412 0.9414 0.9416 0.9404
2234.000000 0.9402 0.9404 0.9406 0.9408 0.9409
2229.000000 0.9412 0.9414 0.9416 0.9420 0.9422
2224.000000 0.9424 0.9426 0.9425 0.9411 0.9413
2219.000000 0.9415 0.9418 0.9419 0.9421 0.9423
2214.000000 0.9425 0.9426 0.9428 0.9430 0.9432
2209.000000 0.9432 0.9436 0.9436 0.9439 0.9440
2204.000000 0.9440 0.9442 0.9443 0.9443 0.9443
2199.000000 0.9445 0.9445 0.9445 0.9443 0.9427
2194.000000 0.9440 0.9434 0.9416 0.9413 0.9412
2189.000000 0.9407 0.9401 0.9395 0.9388 0.9384
2184.000000 0.9392 0.9385 0.9374 0.9370 0.9370
2179.000000 0.9370 0.9388 0.9395 0.9400 0.9403
2174.000000 0.9406 0.9409 0.9412 0.9416 0.9419
2169.000000 0.9420 0.9407 0.9409 0.9412 0.9413
2164.000000 0.9416 0.9419 0.9420 0.9423 0.9425
2159.000000 0.9427 0.9431 0.9433 0.9435 0.9437
2154.000000 0.9439 0.9440 0.9441 0.9441 0.9442
2149.000000 0.9442 0.9443 0.9443 0.9444 0.9444
2144.000000 0.9445 0.9445 0.9446 0.9446 0.9447
2139.000000 0.9447 0.9448 0.9449 0.9450 0.9450
2134.000000 0.9451 0.9451 0.9453 0.9453 0.9454
2129.000000 0.9454 0.9455 0.9455 0.9456 0.9456
2124.000000 0.9456 0.9456 0.9439 0.9453 0.9457
2119.000000 0.9457 0.9457 0.9457 0.9458 0.9458
2114.000000 0.9458 0.9458 0.9459 0.9459 0.9459
2109.000000 0.9459 0.9458 0.9458 0.9460 0.9460
2104.000000 0.9459 0.9459 0.9461 0.9461 0.9460
2099.000000 0.9460 0.9448 0.9442 0.9458 0.9461
2094.000000 0.9446 0.9461 0.9464 0.9464 0.9464
2089.000000 0.9463 0.9465 0.9465 0.9464 0.9464
2084.000000 0.9467 0.9467 0.9467 0.9467 0.9468
2079.000000 0.9468 0.9468 0.9468 0.9468 0.9468
2074.000000 0.9467 0.9467 0.9467 0.9466 0.9466
2069.000000 0.9464 0.9464 0.9464 0.9464 0.9461
2064.000000 0.9459 0.9452 0.9447 0.9441 0.9434
2059.000000 0.9428 0.9421 0.9420 0.9429 0.9422
2054.000000 0.9417 0.9410 0.9397 0.9388 0.9393
2049.000000 0.9381 0.9372 0.9372 0.9375 0.9377
2044.000000 0.9380 0.9383 0.9386 0.9391 0.9396
2039.000000 0.9402 0.9408 0.9413 0.9418 0.9423
2034.000000 0.9428 0.9428 0.9429 0.9429 0.9430
2029.000000 0.9431 0.9438 0.9445 0.9434 0.9437
2024.000000 0.9444 0.9439 0.9432 0.9428 0.9424
2019.000000 0.9425 0.9427 0.9432 0.9436 0.9443
2014.000000 0.9449 0.9454 0.9460 0.9464 0.9468
2009.000000 0.9472 0.9476 0.9475 0.9474 0.9466
2004.000000 0.9460 0.9452 0.9446 0.9432 0.9419
1999.000000 0.9403 0.9380 0.9371 0.9375 0.9380
1994.000000 0.9383 0.9387 0.9387 0.9387 0.9386
1989.000000 0.9386 0.9385 0.9384 0.9367 0.9364
1984.000000 0.9358 0.9354 0.9348 0.9345 0.9339
1979.000000 0.9330 0.9303 0.9295 0.9284 0.9267
1974.000000 0.9250 0.9232 0.9212 0.9192 0.9169
1969.000000 0.9146 0.9125 0.9108 0.9107 0.9097
1964.000000 0.9086 0.9096 0.9069 0.9146 0.9223
1959.000000 0.9399 0.9571 0.9564 0.9556 0.9484
1954.000000 0.9391 0.9318 0.9291 0.9303 0.9312
1949.000000 0.9310 0.9323 0.9333 0.9348 0.9340
1944.000000 0.9336 0.9332 0.9324 0.9301 0.9278
1939.000000 0.9253 0.9231 0.9196 0.9147 0.9104
1934.000000 0.9065 0.9041 0.9026 0.9020 0.9014
1929.000000 0.9008 0.9033 0.9046 0.9061 0.9083
1924.000000 0.9104 0.9127 0.9147 0.9170 0.9191
1919.000000 0.9213 0.9233 0.9253 0.9273 0.9288
1914.000000 0.9300 0.9313 0.9326 0.9335 0.9330
1909.000000 0.9325 0.9319 0.9328 0.9320 0.9303
1904.000000 0.9285 0.9278 0.9274 0.9271 0.9267
1899.000000 0.9264 0.9264 0.9263 0.9267 0.9270
1894.000000 0.9274 0.9277 0.9281 0.9278 0.9269
1889.000000 0.9273 0.9277 0.9281 0.9284 0.9288
1884.000000 0.9303 0.9315 0.9322 0.9327 0.9333
1879.000000 0.9339 0.9345 0.9350 0.9357 0.9381
1874.000000 0.9388 0.9396 0.9396 0.9388 0.9380
1869.000000 0.9365 0.9346 0.9326 0.9329 0.9331
1864.000000 0.9333 0.9335 0.9325 0.9315 0.9304
1859.000000 0.9300 0.9298 0.9308 0.9302 0.9282
1854.000000 0.9268 0.9250 0.9230 0.9211 0.9192
1849.000000 0.9174 0.9173 0.9172 0.9178 0.9186
1844.000000 0.9195 0.9208 0.9221 0.9231 0.9245
1839.000000 0.9250 0.9257 0.9262 0.9261 0.9255
1834.000000 0.9261 0.9262 0.9262 0.9262 0.9265
1829.000000 0.9265 0.9262 0.9262 0.9250 0.9226
1824.000000 0.9203 0.9183 0.9162 0.9143 0.9124
1819.000000 0.9121 0.9101 0.9079 0.9063 0.9052
1814.000000 0.9041 0.9034 0.9044 0.9030 0.9036
1809.000000 0.9048 0.9072 0.9113 0.9140 0.9166
1804.000000 0.9170 0.9175 0.9190 0.9201 0.9208
1799.000000 0.9218 0.9233 0.9246 0.9262 0.9277
1794.000000 0.9286 0.9291 0.9295 0.9299 0.9292
1789.000000 0.9283 0.9323 0.9342 0.9356 0.9356
1784.000000 0.9351 0.9345 0.9339 0.9338 0.9343
1779.000000 0.9346 0.9356 0.9368 0.9370 0.9373
1774.000000 0.9386 0.9399 0.9404 0.9404 0.9404
1769.000000 0.9385 0.9366 0.9347 0.9328 0.9325
1764.000000 0.9320 0.9317 0.9312 0.9307 0.9301
1759.000000 0.9300 0.9308 0.9302 0.9296 0.9289
1754.000000 0.9286 0.9283 0.9278 0.9275 0.9274
1749.000000 0.9273 0.9283 0.9291 0.9301 0.9309
1744.000000 0.9304 0.9297 0.9292 0.9285 0.9280
1739.000000 0.9276 0.9274 0.9271 0.9268 0.9266
1734.000000 0.9263 0.9259 0.9254 0.9245 0.9236
1729.000000 0.9227 0.9220 0.9213 0.9206 0.9199
1724.000000 0.9202 0.9204 0.9231 0.9209 0.9209
1719.000000 0.9213 0.9213 0.9217 0.9222 0.9228
1714.000000 0.9233 0.9239 0.9244 0.9250 0.9256
1709.000000 0.9260 0.9266 0.9272 0.9277 0.9282
1704.000000 0.9284 0.9284 0.9284 0.9292 0.9303
1699.000000 0.9310 0.9316 0.9321 0.9322 0.9320
1694.000000 0.9319 0.9317 0.9312 0.9307 0.9301
1689.000000 0.9300 0.9309 0.9317 0.9325 0.9333
1684.000000 0.9335 0.9337 0.9341 0.9324 0.9300
1679.000000 0.9277 0.9267 0.9263 0.9258 0.9255
1674.000000 0.9251 0.9259 0.9271 0.9274 0.9277
1669.000000 0.9277 0.9273 0.9269 0.9265 0.9261
1664.000000 0.9257 0.9252 0.9249 0.9244 0.9249
1659.000000 0.9224 0.9212 0.9219 0.9211 0.9199
1654.000000 0.9188 0.9172 0.9146 0.9148 0.9134
1649.000000 0.9119 0.9100 0.9082 0.9071 0.9056
1644.000000 0.9029 0.9002 0.8990 0.8988 0.8979
1639.000000 0.8977 0.8988 0.8992 0.9004 0.9007
1634.000000 0.9005 0.9018 0.9017 0.9030 0.9028
1629.000000 0.9029 0.9014 0.9015 0.8996 0.8990
1624.000000 0.8981 0.8967 0.8932 0.8880 0.8860
1619.000000 0.8847 0.8826 0.8805 0.8783 0.8782
1614.000000 0.8789 0.8789 0.8786 0.8794 0.8794
1609.000000 0.8794 0.8793 0.8768 0.8741 0.8718
1604.000000 0.8697 0.8690 0.8683 0.8678 0.8657
1599.000000 0.8616 0.8576 0.8110 0.7707 0.7054
1594.000000 0.6786 0.6473 0.5281 0.4959 0.4625
1589.000000 0.4281 0.3923 0.3556 0.3179 0.2793
1584.000000 0.2394 0.2175 0.2170 0.2187 0.2180
1579.000000 0.2361 0.2707 0.3063 0.3415 0.3675
1574.000000 0.3708 0.3749 0.3797 0.3959 0.4310
1569.000000 0.4668 0.5041 0.5443 0.5860 0.6205
1564.000000 0.6374 0.6479 0.6641 0.6744 0.6837
1559.000000 0.6849 0.6832 0.6743 0.6601 0.6389
1554.000000 0.6105 0.5729 0.5308 0.4195 0.3142
1549.000000 0.1843 0.1408 0.1155 0.1067 0.0981
1544.000000 0.0891 0.0805 0.0719 0.0638 0.0556
1539.000000 0.0475 0.0392 0.0297 0.0147 0.0110
1534.000000 0.0108 0.0106 0.0106 0.0107 0.0108
1529.000000 0.0110 0.0112 0.0253 0.0443 0.0632
1524.000000 0.0824 0.1013 0.1302 0.1660 0.2424
1519.000000 0.4080 0.4686 0.5159 0.5558 0.5820
1514.000000 0.6062 0.6184 0.6311 0.6385 0.6462
1509.000000 0.6536 0.6599 0.6659 0.6726 0.6808
1504.000000 0.6898 0.6983 0.7033 0.7073 0.7118
1499.000000 0.7160 0.7191 0.7256 0.7342 0.7402
1494.000000 0.7447 0.7507 0.7564 0.7625 0.7681
1489.000000 0.7740 0.7795 0.7855 0.7918 0.7970
1484.000000 0.8026 0.8099 0.8184 0.8263 0.8315
1479.000000 0.8338 0.8333 0.8332 0.8361 0.8372
1474.000000 0.8364 0.8368 0.8358 0.8333 0.8304
1469.000000 0.8262 0.8206 0.8157 0.8094 0.8010
1464.000000 0.7908 0.7739 0.7601 0.5468 0.3693
1459.000000 0.3680 0.3672 0.3670 0.3961 0.4872
1454.000000 0.5777 0.6689 0.7534 0.7859 0.7981
1449.000000 0.8079 0.8181 0.8232 0.8270 0.8297
1444.000000 0.8305 0.8314 0.8314 0.8313 0.8291
1439.000000 0.8259 0.8212 0.8157 0.8102 0.8040
1434.000000 0.7978 0.7914 0.7883 0.7874 0.7875
1429.000000 0.7877 0.7886 0.7967 0.8097 0.8196
1424.000000 0.8287 0.8378 0.8455 0.8531 0.8606
1419.000000 0.8671 0.8725 0.8781 0.8818 0.8840
1414.000000 0.8847 0.8854 0.8857 0.8862 0.8866
1409.000000 0.8869 0.8875 0.8881 0.8888 0.8897
1404.000000 0.8905 0.8913 0.8922 0.8929 0.8935
1399.000000 0.8939 0.8948 0.8958 0.8958 0.8959
1394.000000 0.8949 0.8915 0.8877 0.8833 0.8801
1389.000000 0.8773 0.8726 0.8702 0.8682 0.8665
1384.000000 0.8624 0.8560 0.8502 0.8446 0.8385
1379.000000 0.8331 0.8279 0.8187 0.8089 0.7968
1374.000000 0.7835 0.7701 0.7566 0.7428 0.7286
1369.000000 0.6989 0.6653 0.6245 0.5545 0.4925
1364.000000 0.4540 0.4157 0.3943 0.3646 0.3261
1359.000000 0.2877 0.2492 0.2108 0.1720 0.1373
1354.000000 0.1252 0.0944 0.0810 0.0742 0.0697
1349.000000 0.0676 0.0681 0.0666 0.0677 0.0711
1344.000000 0.0765 0.0836 0.0945 0.1083 0.1279
1339.000000 0.1436 0.1642 0.2117 0.2589 0.3060
1334.000000 0.3533 0.4004 0.4477 0.4950 0.5421
1329.000000 0.5882 0.6353 0.6630 0.6718 0.6798
1324.000000 0.6891 0.6987 0.7075 0.7185 0.7323
1319.000000 0.7436 0.7540 0.7652 0.7732 0.7802
1314.000000 0.7870 0.7925 0.7980 0.8027 0.8074
1309.000000 0.8101 0.8124 0.8149 0.8171 0.8189
1304.000000 0.8189 0.8201 0.8212 0.8211 0.8211
1299.000000 0.8176 0.8133 0.8077 0.7780 0.7489
1294.000000 0.7185 0.6882 0.6579 0.6472 0.6466
1289.000000 0.6458 0.6477 0.6677 0.6912 0.7146
1284.000000 0.7380 0.7616 0.7850 0.8084 0.8273
1279.000000 0.8341 0.8408 0.8457 0.8521 0.8563
1274.000000 0.8601 0.8619 0.8620 0.8622 0.8622
1269.000000 0.8604 0.8597 0.8598 0.8603 0.8598
1264.000000 0.8599 0.8605 0.8594 0.8586 0.8558
1259.000000 0.8512 0.8219 0.7783 0.7348 0.6913
1254.000000 0.6478 0.6332 0.6388 0.6332 0.6465
1249.000000 0.6972 0.7479 0.7989 0.8334 0.8483
1244.000000 0.8561 0.8653 0.8733 0.8790 0.8831
1239.000000 0.8878 0.8929 0.8963 0.8997 0.9032
1234.000000 0.9066 0.9111 0.9142 0.9149 0.9156
1229.000000 0.9163 0.9171 0.9177 0.9184 0.9192
1224.000000 0.9199 0.9205 0.9213 0.9220 0.9233
1219.000000 0.9249 0.9264 0.9277 0.9287 0.9296
1214.000000 0.9305 0.9322 0.9344 0.9354 0.9358
1209.000000 0.9359 0.9360 0.9361 0.9362 0.9362
1204.000000 0.9361 0.9359 0.9357 0.9356 0.9354
1199.000000 0.9353 0.9335 0.9344 0.9330 0.9329
1194.000000 0.9327 0.9340 0.9336 0.9331 0.9326
1189.000000 0.9321 0.9313 0.9306 0.9299 0.9292
1184.000000 0.9284 0.9267 0.9239 0.9208 0.9181
1179.000000 0.9151 0.9134 0.9114 0.9113 0.9111
1174.000000 0.9120 0.9128 0.9129 0.9124 0.9118
1169.000000 0.9113 0.9088 0.9074 0.9042 0.9011
1164.000000 0.8858 0.8713 0.8567 0.8469 0.8452
1159.000000 0.8460 0.8461 0.8586 0.8712 0.8838
1154.000000 0.8918 0.8963 0.9002 0.9031 0.9042
1149.000000 0.9055 0.9059 0.9046 0.9048 0.9051
1144.000000 0.9021 0.8887 0.8783 0.8677 0.8645
1139.000000 0.8655 0.8689 0.8838 0.8968 0.9033
1134.000000 0.9079 0.9089 0.9113 0.9136 0.9160
1129.000000 0.9178 0.9191 0.9218 0.9229 0.9239
1124.000000 0.9250 0.9257 0.9274 0.9286 0.9290
1119.000000 0.9295 0.9300 0.9304 0.9325 0.9332
1114.000000 0.9336 0.9336 0.9336 0.9335 0.9309
1109.000000 0.9278 0.9208 0.9110 0.8989 0.8943
1104.000000 0.8945 0.8960 0.8979 0.8999 0.9018
1099.000000 0.9038 0.9057 0.9075 0.9084 0.9095
1094.000000 0.9103 0.9115 0.9126 0.9135 0.9146
1089.000000 0.9152 0.9156 0.9163 0.9168 0.9173
1084.000000 0.9179 0.9184 0.9186 0.9174 0.9180
1079.000000 0.9180 0.9171 0.9171 0.9164 0.9169
1074.000000 0.9174 0.9189 0.9204 0.9209 0.9213
1069.000000 0.9220 0.9224 0.9230 0.9234 0.9239
1064.000000 0.9243 0.9248 0.9269 0.9276 0.9283
1059.000000 0.9265 0.9288 0.9287 0.9271 0.9265
1054.000000 0.9260 0.9256 0.9250 0.9251 0.9250
1049.000000 0.9233 0.9217 0.9204 0.9191 0.9177
1044.000000 0.9164 0.9150 0.9066 0.8784 0.8504
1039.000000 0.8223 0.7766 0.7773 0.7784 0.7887
1034.000000 0.8059 0.8233 0.8406 0.8522 0.8524
1029.000000 0.8516 0.8515 0.8502 0.8018 0.6535
1024.000000 0.5064 0.3594 0.2588 0.2590 0.2597
1019.000000 0.3365 0.4435 0.5504 0.6575 0.6915
1014.000000 0.7111 0.7383 0.7693 0.7963 0.8130
1009.000000 0.8279 0.8371 0.8477 0.8558 0.8635
1004.000000 0.8690 0.8760 0.8830 0.8874 0.8911
999.000000 0.8945 0.8972 0.8987 0.9011 0.9019
994.000000 0.9028 0.9036 0.9051 0.9064 0.9066
989.000000 0.9069 0.9072 0.9074 0.9076 0.9078
984.000000 0.9081 0.9083 0.9085 0.9087 0.9090
979.000000 0.9092 0.9094 0.9098 0.9102 0.9105
974.000000 0.9108 0.9109 0.9100 0.9118 0.9121
969.000000 0.9158 0.9128 0.9131 0.9134 0.9137
964.000000 0.9140 0.9142 0.9144 0.9145 0.9146
959.000000 0.9145 0.9141 0.9135 0.9123 0.9101
954.000000 0.9080 0.9050 0.8994 0.8873 0.8753
949.000000 0.8631 0.8510 0.8390 0.8199 0.8213
944.000000 0.8209 0.8307 0.8438 0.8566 0.8698
939.000000 0.8827 0.8957 0.9070 0.9081 0.9092
934.000000 0.9105 0.9116 0.9128 0.9139 0.9150
929.000000 0.9159 0.9169 0.9178 0.9187 0.9193
924.000000 0.9200 0.9207 0.9214 0.9218 0.9220
919.000000 0.9225 0.9240 0.9231 0.9246 0.9247
914.000000 0.9276 0.9249 0.9258 0.9270 0.9271
909.000000 0.9272 0.9284 0.9289 0.9285 0.9293
904.000000 0.9295 0.9291 0.9301 0.9301 0.9309
899.000000 0.9303 0.9312 0.9324 0.9335 0.9348
894.000000 0.9370 0.9368 0.9383 0.9398 0.9413
889.000000 0.9424 0.9441 0.9449 0.9464 0.9468
884.000000 0.9469 0.9461 0.9442 0.9433 0.9402
879.000000 0.9359 0.9316 0.9273 0.9231 0.9198
874.000000 0.9167 0.9134 0.9099 0.9040 0.8978
869.000000 0.8918 0.8857 0.8819 0.8760 0.8702
864.000000 0.8666 0.8626 0.8572 0.8518 0.8465
859.000000 0.8398 0.8321 0.8169 0.7981 0.7492
854.000000 0.6109 0.4721 0.3341 0.1974 0.1916
849.000000 0.1899 0.2272 0.3255 0.4209 0.5150
844.000000 0.6058 0.6955 0.7916 0.8122 0.8304
839.000000 0.8403 0.8490 0.8586 0.8648 0.8727
834.000000 0.8798 0.8825 0.8866 0.8906 0.8951
829.000000 0.8984 0.9007 0.9038 0.9064 0.9077
824.000000 0.9096 0.9106 0.9115 0.9109 0.9114
819.000000 0.9122 0.9132 0.9138 0.9162 0.9169
814.000000 0.9174 0.9180 0.9206 0.9224 0.9231
809.000000 0.9239 0.9226 0.9204 0.9203 0.9208
804.000000 0.9204 0.9201 0.9197 0.9195 0.9192
799.000000 0.9189 0.9184 0.9172 0.9160 0.9148
794.000000 0.9123 0.9105 0.9092 0.9093 0.9063
789.000000 0.9019 0.8963 0.8904 0.8785 0.8665
784.000000 0.8511 0.8186 0.7970 0.7302 0.5295
779.000000 0.3298 0.2583 0.2600 0.2574 0.2993
774.000000 0.3496 0.3994 0.4492 0.4993 0.5495
769.000000 0.5988 0.7500 0.7761 0.7849 0.7924
764.000000 0.7998 0.8059 0.8120 0.8180 0.8240
759.000000 0.8301 0.8350 0.8399 0.8437 0.8466
754.000000 0.8487 0.8505 0.8524 0.8519 0.8519
749.000000 0.8515 0.8503 0.8491 0.8479 0.8458
744.000000 0.8426 0.8392 0.8359 0.8303 0.8238
739.000000 0.8174 0.8109 0.7972 0.7760 0.7583
734.000000 0.7424 0.7265 0.5954 0.4333 0.2717
729.000000 0.1092 0.0347 0.0328 0.0325 0.0799
724.000000 0.1752 0.2707 0.3665 0.4625 0.5581
719.000000 0.6177 0.6609 0.6831 0.7049 0.7253
714.000000 0.7468 0.7757 0.8006 0.8167 0.8294
709.000000 0.8386 0.8460 0.8506 0.8538 0.8562
704.000000 0.8579 0.8608 0.8609 0.8612 0.8602
699.000000 0.8548 0.8360 0.6971 0.5241 0.4332
694.000000 0.4319 0.4341 0.4321 0.5083 0.5926
689.000000 0.6769 0.7325 0.7766 0.7965 0.8084
684.000000 0.8202 0.8321 0.8421 0.8519 0.8633
679.000000 0.8727 0.8857 0.8938 0.9015 0.9052
674.000000 0.9059 0.9078 0.9096 0.9132 0.9197
669.000000 0.9361 0.9473 0.9368 0.9280 0.9299
664.000000 0.9336 0.9357 0.9375 0.9408 0.9438
659.000000 0.9462 0.9469 0.9476 0.9462 0.9425
654.000000 0.9363 0.9277 0.9165 0.9097 0.9047
649.000000 0.9030 0.9012 0.9051 0.9080 0.9068
644.000000 0.9054 0.9028 0.9016 0.8998 0.8976
639.000000 0.8960 0.8206 0.7449 0.6714 0.5978
634.000000 0.5753 0.5766 0.5731 0.6212 0.6986
629.000000 0.7766 0.8849 0.8984 0.9027 0.9087
624.000000 0.9147 0.9186 0.9232 0.9277 0.9323
619.000000 0.9373 0.9430 0.9461 0.9457 0.9465
614.000000 0.9466 0.9463 0.9472 0.9481 0.9485
609.000000 0.9489 0.9493 0.9485 0.9482 0.9487
604.000000 0.9491 0.9493 0.9494 0.9496 0.9496
599.000000 0.9498 0.9499 0.9500 0.9502 0.9502
594.000000 0.9504 0.9505 0.9506 0.9501 0.9496
589.000000 0.9491 0.9486 0.9474 0.9462 0.9452
584.000000 0.9429 0.9417 0.9405 0.9392 0.9380
579.000000 0.9369 0.9358 0.9334 0.9318 0.9308
574.000000 0.9314 0.9309 0.9302 0.9295 0.9289
569.000000 0.9281 0.9275 0.9254 0.9254 0.9268
564.000000 0.9260 0.9243 0.9243 0.9242 0.9246
559.000000 0.9251 0.9255 0.9259 0.9263 0.9257
554.000000 0.9257 0.9265 0.9260 0.9275 0.9289
549.000000 0.9297 0.9305 0.9312 0.9322 0.9330
544.000000 0.9336 0.9341 0.9345 0.9351 0.9355
539.000000 0.9365 0.9387 0.9396 0.9417 0.9416
534.000000 0.9415 0.9433 0.9434 0.9436 0.9436
529.000000 0.9436 0.9435 0.9434 0.9444 0.9449
524.000000 0.9447 0.9445 0.9443 0.9441 0.9437
519.000000 0.9432 0.9428 0.9423 0.9420 0.9415
514.000000 0.9411 0.9407 0.9403 0.9399 0.9395
509.000000 0.9392 0.9388 0.9383 0.9379 0.9372
504.000000 0.9359 0.9346 0.9334 0.9321 0.9308
499.000000 0.9295 0.9283 0.9270 0.9257 0.9244
494.000000 0.9231 0.9216 0.9200 0.9187 0.9172
489.000000 0.9158 0.9144 0.9129 0.9115 0.9097
484.000000 0.9079 0.9061 0.9043 0.9025 0.9007
479.000000 0.8988 0.8971 0.8953 0.8935 0.8916
474.000000 0.8894 0.8871 0.8850 0.8829 0.8808
469.000000 0.8785 0.8764 0.8743 0.8720 0.8696
464.000000 0.8673 0.8649 0.8625 0.8602 0.8579
459.000000 0.8538 0.8494 0.8450 0.8407 0.8363
454.000000 0.8320 0.8275 0.8197 0.8118 0.8044
449.000000 0.7996 0.7947 0.7913 0.7883 0.7867
444.000000 0.7861 0.7854 0.7849 0.7843 0.7840
439.000000 0.7836 0.7832 0.7829 0.7826 0.7822
434.000000 0.7819 0.7814 0.7811 0.7808 0.7807
429.000000 0.7804 0.7804 0.7801 0.7799 0.7798
424.000000 0.7798 0.7798 0.7801
##END=
