##TITLE=Benzene, 1-iodo-2-nitro-,
##JCAMP-DX=4.24
##DATA TYPE=INFRARED SPECTRUM
##CLASS=COBLENTZ III
##ORIGIN=DOW CHEMICAL COMPANY
##OWNER=Copyright (C) 1987 by the Coblentz Society
Collection (C) 2018 copyright by the U.S. Secretary of Commerce
on behalf of the United States of America. All rights reserved.
##DATE=1960/03/16
##NAMES=1-iodo-2-nitrobenzene
##CAS REGISTRY NO=609-73-4
##MOLFORM=C6 H4 I N O2
##SOURCE REFERENCE=COBLENTZ NO. 5757
##$NIST SOURCE=COBLENTZ
##$NIST IMAGE=cob5757
##SPECTROMETER/DATA SYSTEM=DOW KBr FOREPRISM-GRATING
##INSTRUMENT PARAMETERS=BLAZED AT 3.5, 12.0, 20.0 MICRON AND CHANGED AT 5.0, 7.5, 14.9 MICRON
##STATE=SOLUTION (10% CCl4 FOR 3800-1330, 10% CS2 FOR 1330-450 CM^-^1)
##PATH LENGTH=0.0112 CM, 0.0109 CM
##RESOLUTION=2
##XUNITS=1/CM
##YUNITS=TRANSMITTANCE
##XFACTOR=1.0
##YFACTOR=1
##FIRSTX=424
##LASTX=3800
##FIRSTY=0.7382
##MAXX=3800
##MINX=424
##MAXY=0.8984
##MINY=0.0058
##NPOINTS=3377
##XYDATA=(X++(Y..Y))
424.000000 0.7382 0.7382 0.7386 0.7387 0.7389
429.000000 0.7390 0.7391 0.7392 0.7393 0.7394
434.000000 0.7395 0.7395 0.7396 0.7397 0.7402
439.000000 0.7408 0.7413 0.7419 0.7424 0.7430
444.000000 0.7435 0.7441 0.7446 0.7452 0.7462
449.000000 0.7474 0.7486 0.7498 0.7520 0.7541
454.000000 0.7566 0.7612 0.7658 0.7711 0.7769
459.000000 0.7828 0.7885 0.7938 0.7992 0.8045
464.000000 0.8091 0.8126 0.8162 0.8197 0.8232
469.000000 0.8268 0.8293 0.8318 0.8342 0.8367
474.000000 0.8392 0.8416 0.8440 0.8456 0.8472
479.000000 0.8488 0.8504 0.8519 0.8535 0.8551
484.000000 0.8566 0.8577 0.8588 0.8599 0.8610
489.000000 0.8621 0.8632 0.8643 0.8654 0.8665
494.000000 0.8676 0.8686 0.8695 0.8705 0.8714
499.000000 0.8724 0.8733 0.8743 0.8752 0.8762
504.000000 0.8772 0.8779 0.8786 0.8793 0.8800
509.000000 0.8807 0.8815 0.8822 0.8829 0.8836
514.000000 0.8843 0.8850 0.8857 0.8863 0.8870
519.000000 0.8877 0.8883 0.8890 0.8896 0.8903
524.000000 0.8909 0.8912 0.8915 0.8917 0.8920
529.000000 0.8923 0.8926 0.8928 0.8931 0.8934
534.000000 0.8936 0.8939 0.8938 0.8936 0.8934
539.000000 0.8932 0.8930 0.8928 0.8926 0.8925
544.000000 0.8923 0.8918 0.8912 0.8906 0.8899
549.000000 0.8893 0.8886 0.8880 0.8873 0.8867
554.000000 0.8861 0.8852 0.8840 0.8829 0.8817
559.000000 0.8805 0.8794 0.8785 0.8780 0.8774
564.000000 0.8769 0.8772 0.8775 0.8778 0.8781
569.000000 0.8783 0.8786 0.8789 0.8791 0.8794
574.000000 0.8796 0.8799 0.8804 0.8810 0.8816
579.000000 0.8823 0.8833 0.8843 0.8853 0.8863
584.000000 0.8874 0.8884 0.8894 0.8904 0.8914
589.000000 0.8923 0.8933 0.8943 0.8953 0.8955
594.000000 0.8963 0.8967 0.8971 0.8976 0.8980
599.000000 0.8984 0.8984 0.8984 0.8983 0.8983
604.000000 0.8983 0.8982 0.8981 0.8978 0.8974
609.000000 0.8971 0.8968 0.8965 0.8961 0.8958
614.000000 0.8955 0.8951 0.8946 0.8940 0.8935
619.000000 0.8930 0.8917 0.8899 0.8882 0.8864
624.000000 0.8845 0.8807 0.8749 0.8682 0.8611
629.000000 0.8535 0.8348 0.8098 0.7657 0.7008
634.000000 0.6359 0.5376 0.5380 0.5678 0.6367
639.000000 0.7057 0.7746 0.8242 0.8238 0.8232
644.000000 0.8223 0.8214 0.8200 0.8187 0.8168
649.000000 0.8139 0.8109 0.8073 0.8055 0.8053
654.000000 0.8093 0.8162 0.8230 0.8300 0.8385
659.000000 0.8442 0.8472 0.8501 0.8511 0.8518
664.000000 0.8524 0.8525 0.8539 0.8527 0.8524
669.000000 0.8517 0.8510 0.8502 0.8491 0.8481
674.000000 0.8464 0.8437 0.8402 0.8364 0.8326
679.000000 0.8276 0.8219 0.8136 0.8040 0.7928
684.000000 0.7817 0.7707 0.7566 0.7418 0.7277
689.000000 0.7063 0.6688 0.6444 0.5804 0.5149
694.000000 0.4495 0.4045 0.4030 0.4715 0.5706
699.000000 0.6698 0.7689 0.7928 0.8046 0.8067
704.000000 0.8077 0.8077 0.8064 0.8053 0.8013
709.000000 0.7967 0.7893 0.7808 0.7723 0.7632
714.000000 0.7539 0.7446 0.7332 0.7169 0.6961
719.000000 0.6654 0.5762 0.5389 0.4632 0.3874
724.000000 0.3117 0.2359 0.1602 0.0844 0.0314
729.000000 0.0293 0.0979 0.2485 0.3991 0.5497
734.000000 0.6532 0.6748 0.6915 0.7075 0.7205
739.000000 0.7331 0.7452 0.7524 0.7596 0.7666
744.000000 0.7730 0.7794 0.7858 0.7906 0.7944
749.000000 0.7982 0.8018 0.8031 0.8032 0.8032
754.000000 0.8043 0.8028 0.8025 0.8021 0.8009
759.000000 0.7994 0.7951 0.7905 0.7863 0.7798
764.000000 0.7717 0.7614 0.7500 0.7392 0.7260
769.000000 0.7109 0.6604 0.6046 0.5488 0.4930
774.000000 0.4373 0.3815 0.3257 0.2699 0.2432
779.000000 0.2429 0.2617 0.4134 0.5651 0.7235
784.000000 0.7418 0.7739 0.7888 0.8000 0.8106
789.000000 0.8197 0.8258 0.8319 0.8380 0.8442
794.000000 0.8475 0.8490 0.8498 0.8505 0.8513
799.000000 0.8520 0.8524 0.8528 0.8531 0.8534
804.000000 0.8537 0.8540 0.8542 0.8540 0.8539
809.000000 0.8537 0.8536 0.8555 0.8576 0.8594
814.000000 0.8596 0.8598 0.8597 0.8595 0.8591
819.000000 0.8582 0.8573 0.8564 0.8551 0.8536
824.000000 0.8521 0.8484 0.8448 0.8412 0.8377
829.000000 0.8341 0.8295 0.8241 0.8187 0.8126
834.000000 0.8059 0.7990 0.7909 0.7827 0.7738
839.000000 0.7638 0.7538 0.7437 0.7334 0.7231
844.000000 0.7143 0.7058 0.6502 0.4974 0.3446
849.000000 0.1918 0.1535 0.1521 0.2062 0.2929
854.000000 0.3796 0.4662 0.5529 0.6148 0.6395
859.000000 0.6527 0.6654 0.6734 0.6803 0.6895
864.000000 0.7011 0.7118 0.7222 0.7309 0.7373
869.000000 0.7437 0.7501 0.7553 0.7603 0.7652
874.000000 0.7701 0.7751 0.7807 0.7864 0.7920
879.000000 0.7977 0.8022 0.8066 0.8111 0.8155
884.000000 0.8199 0.8242 0.8284 0.8326 0.8369
889.000000 0.8397 0.8424 0.8452 0.8480 0.8504
894.000000 0.8524 0.8544 0.8564 0.8584 0.8605
899.000000 0.8625 0.8645 0.8657 0.8666 0.8676
904.000000 0.8685 0.8695 0.8700 0.8703 0.8706
909.000000 0.8710 0.8713 0.8716 0.8720 0.8721
914.000000 0.8722 0.8724 0.8725 0.8734 0.8728
919.000000 0.8729 0.8731 0.8728 0.8724 0.8719
924.000000 0.8715 0.8710 0.8706 0.8701 0.8696
929.000000 0.8689 0.8682 0.8675 0.8669 0.8662
934.000000 0.8655 0.8648 0.8637 0.8620 0.8603
939.000000 0.8585 0.8568 0.8537 0.8495 0.8440
944.000000 0.8280 0.8120 0.7960 0.7800 0.7728
949.000000 0.7731 0.7735 0.8042 0.8201 0.8361
954.000000 0.8464 0.8516 0.8556 0.8570 0.8585
959.000000 0.8600 0.8615 0.8624 0.8632 0.8635
964.000000 0.8639 0.8642 0.8646 0.8647 0.8647
969.000000 0.8647 0.8647 0.8645 0.8641 0.8637
974.000000 0.8633 0.8629 0.8629 0.8621 0.8617
979.000000 0.8613 0.8609 0.8605 0.8600 0.8596
984.000000 0.8592 0.8587 0.8581 0.8576 0.8571
989.000000 0.8565 0.8560 0.8556 0.8554 0.8553
994.000000 0.8551 0.8549 0.8547 0.8544 0.8539
999.000000 0.8533 0.8526 0.8496 0.8436 0.8359
1004.000000 0.8281 0.8199 0.8111 0.8022 0.7934
1009.000000 0.7846 0.7758 0.7671 0.7493 0.7297
1014.000000 0.7108 0.6948 0.6842 0.6721 0.6478
1019.000000 0.6252 0.5214 0.4175 0.3136 0.2444
1024.000000 0.2434 0.2667 0.3761 0.4855 0.5950
1029.000000 0.7044 0.7932 0.7965 0.8002 0.7969
1034.000000 0.7943 0.7782 0.7621 0.7461 0.7300
1039.000000 0.7253 0.7250 0.7652 0.7939 0.8226
1044.000000 0.8432 0.8513 0.8558 0.8567 0.8577
1049.000000 0.8584 0.8586 0.8589 0.8593 0.8605
1054.000000 0.8618 0.8632 0.8668 0.8668 0.8679
1059.000000 0.8686 0.8690 0.8690 0.8689 0.8688
1064.000000 0.8688 0.8685 0.8682 0.8679 0.8676
1069.000000 0.8673 0.8669 0.8664 0.8660 0.8655
1074.000000 0.8650 0.8646 0.8641 0.8636 0.8630
1079.000000 0.8624 0.8617 0.8611 0.8605 0.8599
1084.000000 0.8592 0.8586 0.8580 0.8574 0.8567
1089.000000 0.8561 0.8555 0.8548 0.8542 0.8536
1094.000000 0.8529 0.8522 0.8511 0.8500 0.8489
1099.000000 0.8477 0.8466 0.8454 0.8439 0.8424
1104.000000 0.8409 0.8394 0.8379 0.8363 0.8346
1109.000000 0.8335 0.8385 0.8462 0.8536 0.8599
1114.000000 0.8642 0.8659 0.8674 0.8679 0.8684
1119.000000 0.8687 0.8689 0.8714 0.8688 0.8683
1124.000000 0.8678 0.8672 0.8662 0.8653 0.8643
1129.000000 0.8630 0.8612 0.8593 0.8575 0.8557
1134.000000 0.8538 0.8518 0.8498 0.8478 0.8424
1139.000000 0.8340 0.8257 0.8174 0.8123 0.8095
1144.000000 0.8197 0.8268 0.8339 0.8410 0.8481
1149.000000 0.8493 0.8496 0.8496 0.8514 0.8491
1154.000000 0.8485 0.8480 0.8464 0.8437 0.8335
1159.000000 0.8232 0.8130 0.8028 0.7926 0.7906
1164.000000 0.8070 0.8292 0.8418 0.8455 0.8487
1169.000000 0.8515 0.8542 0.8551 0.8560 0.8567
1174.000000 0.8565 0.8564 0.8560 0.8555 0.8551
1179.000000 0.8544 0.8535 0.8526 0.8524 0.8608
1184.000000 0.8656 0.8687 0.8697 0.8706 0.8714
1189.000000 0.8721 0.8726 0.8731 0.8735 0.8739
1194.000000 0.8742 0.8746 0.8750 0.8753 0.8753
1199.000000 0.8753 0.8753 0.8753 0.8764 0.8755
1204.000000 0.8756 0.8758 0.8759 0.8760 0.8761
1209.000000 0.8754 0.8747 0.8741 0.8735 0.8729
1214.000000 0.8724 0.8718 0.8712 0.8705 0.8697
1219.000000 0.8690 0.8683 0.8676 0.8667 0.8658
1224.000000 0.8650 0.8641 0.8632 0.8624 0.8614
1229.000000 0.8604 0.8593 0.8581 0.8569 0.8557
1234.000000 0.8545 0.8527 0.8506 0.8484 0.8463
1239.000000 0.8436 0.8408 0.8377 0.8324 0.8271
1244.000000 0.8218 0.8154 0.8087 0.8023 0.7964
1249.000000 0.7750 0.7340 0.6931 0.6522 0.6112
1254.000000 0.5969 0.5953 0.6274 0.6664 0.7054
1259.000000 0.7444 0.7831 0.7944 0.8011 0.8060
1264.000000 0.8089 0.8111 0.8122 0.8131 0.8137
1269.000000 0.8143 0.8149 0.8152 0.8150 0.8138
1274.000000 0.8143 0.8132 0.8115 0.8090 0.8062
1279.000000 0.8030 0.7951 0.7892 0.7832 0.7706
1284.000000 0.7526 0.7347 0.7167 0.6988 0.6808
1289.000000 0.6629 0.6449 0.6270 0.6098 0.6092
1294.000000 0.6088 0.6418 0.6685 0.6952 0.7220
1299.000000 0.7487 0.7664 0.7735 0.7767 0.7774
1304.000000 0.7771 0.7760 0.7743 0.7727 0.7710
1309.000000 0.7689 0.7666 0.7642 0.7611 0.7576
1314.000000 0.7527 0.7478 0.7412 0.7336 0.7259
1319.000000 0.7156 0.7050 0.6958 0.6868 0.6775
1324.000000 0.6664 0.6553 0.6413 0.6257 0.6101
1329.000000 0.5814 0.5491 0.5168 0.4845 0.4522
1334.000000 0.4199 0.3876 0.3553 0.3230 0.2907
1339.000000 0.2584 0.2329 0.1960 0.1792 0.1097
1344.000000 0.0917 0.0807 0.0694 0.0670 0.0664
1349.000000 0.0667 0.0628 0.0730 0.0804 0.1129
1354.000000 0.1202 0.1325 0.1583 0.1841 0.2099
1359.000000 0.2357 0.2615 0.2874 0.3249 0.3505
1364.000000 0.3897 0.4288 0.4679 0.5070 0.5461
1369.000000 0.5852 0.6130 0.6302 0.6410 0.6515
1374.000000 0.6690 0.7079 0.7260 0.7381 0.7486
1379.000000 0.7573 0.7639 0.7706 0.7771 0.7833
1384.000000 0.7861 0.7880 0.7899 0.7918 0.7936
1389.000000 0.7957 0.7987 0.8031 0.8081 0.8122
1394.000000 0.8160 0.8198 0.8237 0.8269 0.8300
1399.000000 0.8332 0.8339 0.8339 0.8331 0.8361
1404.000000 0.8318 0.8311 0.8303 0.8294 0.8286
1409.000000 0.8281 0.8281 0.8281 0.8281 0.8281
1414.000000 0.8282 0.8282 0.8282 0.8282 0.8261
1419.000000 0.8220 0.8180 0.8132 0.8083 0.8012
1424.000000 0.7932 0.7860 0.7790 0.7713 0.7620
1429.000000 0.7523 0.7418 0.7358 0.7350 0.7349
1434.000000 0.7321 0.7388 0.7430 0.7487 0.7541
1439.000000 0.7592 0.7645 0.7699 0.7747 0.7752
1444.000000 0.7752 0.7748 0.7752 0.7733 0.7722
1449.000000 0.7703 0.7636 0.7547 0.7365 0.7017
1454.000000 0.6863 0.6639 0.5903 0.5168 0.4433
1459.000000 0.3698 0.3412 0.3378 0.4120 0.5604
1464.000000 0.7093 0.7241 0.7363 0.7452 0.7503
1469.000000 0.7554 0.7582 0.7596 0.7610 0.7615
1474.000000 0.7620 0.7607 0.7616 0.7601 0.7577
1479.000000 0.7545 0.7499 0.7446 0.7387 0.7327
1484.000000 0.7261 0.7185 0.7109 0.7033 0.6958
1489.000000 0.6903 0.6849 0.6796 0.6735 0.6666
1494.000000 0.6597 0.6513 0.6409 0.6305 0.6200
1499.000000 0.6096 0.5992 0.5888 0.5784 0.5680
1504.000000 0.5575 0.5422 0.5319 0.5230 0.5142
1509.000000 0.5071 0.5001 0.4930 0.4850 0.4731
1514.000000 0.4611 0.4484 0.4356 0.4252 0.4149
1519.000000 0.4045 0.3910 0.3770 0.2764 0.1965
1524.000000 0.1167 0.0812 0.0671 0.0509 0.0263
1529.000000 0.0126 0.0085 0.0070 0.0073 0.0077
1534.000000 0.0078 0.0058 0.0083 0.0086 0.0139
1539.000000 0.0233 0.0302 0.0338 0.0349 0.0362
1544.000000 0.0385 0.0411 0.0453 0.0500 0.0559
1549.000000 0.0890 0.1310 0.1730 0.2070 0.2235
1554.000000 0.2484 0.2713 0.2900 0.3035 0.3141
1559.000000 0.3208 0.3274 0.3343 0.3415 0.3474
1564.000000 0.3503 0.3502 0.3526 0.3495 0.3483
1569.000000 0.3444 0.3215 0.2986 0.2757 0.2527
1574.000000 0.2394 0.2408 0.2419 0.2343 0.2166
1579.000000 0.1989 0.1811 0.1634 0.1457 0.1406
1584.000000 0.1412 0.1395 0.1461 0.1549 0.1595
1589.000000 0.1701 0.2152 0.2603 0.3054 0.3504
1594.000000 0.3955 0.4406 0.4625 0.4907 0.5072
1599.000000 0.5543 0.5831 0.6029 0.6186 0.6345
1604.000000 0.6508 0.6654 0.6766 0.6888 0.7034
1609.000000 0.7173 0.7307 0.7408 0.7499 0.7579
1614.000000 0.7645 0.7711 0.7769 0.7822 0.7876
1619.000000 0.7929 0.7974 0.7998 0.8022 0.8050
1624.000000 0.8080 0.8109 0.8139 0.8170 0.8204
1629.000000 0.8235 0.8261 0.8288 0.8311 0.8314
1634.000000 0.8317 0.8321 0.8324 0.8328 0.8332
1639.000000 0.8337 0.8343 0.8348 0.8353 0.8358
1644.000000 0.8363 0.8380 0.8406 0.8430 0.8452
1649.000000 0.8475 0.8495 0.8508 0.8521 0.8534
1654.000000 0.8547 0.8560 0.8573 0.8586 0.8597
1659.000000 0.8605 0.8613 0.8622 0.8630 0.8638
1664.000000 0.8646 0.8653 0.8660 0.8667 0.8674
1669.000000 0.8681 0.8697 0.8704 0.8710 0.8712
1674.000000 0.8714 0.8716 0.8716 0.8713 0.8711
1679.000000 0.8710 0.8710 0.8710 0.8711 0.8713
1684.000000 0.8727 0.8743 0.8759 0.8769 0.8769
1689.000000 0.8769 0.8771 0.8774 0.8777 0.8780
1694.000000 0.8798 0.8808 0.8803 0.8797 0.8792
1699.000000 0.8786 0.8781 0.8776 0.8772 0.8770
1704.000000 0.8767 0.8765 0.8763 0.8760 0.8758
1709.000000 0.8755 0.8751 0.8747 0.8742 0.8738
1714.000000 0.8734 0.8727 0.8717 0.8707 0.8697
1719.000000 0.8687 0.8679 0.8674 0.8669 0.8664
1724.000000 0.8659 0.8654 0.8654 0.8661 0.8669
1729.000000 0.8676 0.8683 0.8704 0.8727 0.8732
1734.000000 0.8736 0.8738 0.8740 0.8742 0.8746
1739.000000 0.8752 0.8758 0.8764 0.8770 0.8776
1744.000000 0.8782 0.8787 0.8792 0.8797 0.8802
1749.000000 0.8799 0.8794 0.8789 0.8784 0.8779
1754.000000 0.8773 0.8767 0.8761 0.8756 0.8758
1759.000000 0.8769 0.8781 0.8792 0.8812 0.8815
1764.000000 0.8823 0.8823 0.8823 0.8824 0.8825
1769.000000 0.8827 0.8839 0.8854 0.8867 0.8878
1774.000000 0.8872 0.8866 0.8857 0.8845 0.8833
1779.000000 0.8821 0.8817 0.8817 0.8817 0.8818
1784.000000 0.8826 0.8833 0.8838 0.8832 0.8826
1789.000000 0.8815 0.8802 0.8790 0.8789 0.8796
1794.000000 0.8794 0.8784 0.8773 0.8756 0.8738
1799.000000 0.8721 0.8703 0.8686 0.8669 0.8654
1804.000000 0.8639 0.8624 0.8609 0.8595 0.8580
1809.000000 0.8565 0.8550 0.8537 0.8525 0.8512
1814.000000 0.8482 0.8525 0.8533 0.8542 0.8553
1819.000000 0.8564 0.8575 0.8588 0.8602 0.8616
1824.000000 0.8630 0.8644 0.8659 0.8678 0.8696
1829.000000 0.8705 0.8712 0.8719 0.8726 0.8733
1834.000000 0.8731 0.8729 0.8707 0.8724 0.8722
1839.000000 0.8713 0.8703 0.8693 0.8683 0.8673
1844.000000 0.8664 0.8654 0.8645 0.8636 0.8626
1849.000000 0.8617 0.8611 0.8620 0.8629 0.8650
1854.000000 0.8674 0.8698 0.8711 0.8719 0.8723
1859.000000 0.8727 0.8732 0.8737 0.8742 0.8747
1864.000000 0.8752 0.8758 0.8763 0.8768 0.8782
1869.000000 0.8797 0.8812 0.8819 0.8822 0.8825
1874.000000 0.8828 0.8825 0.8822 0.8819 0.8817
1879.000000 0.8814 0.8809 0.8804 0.8799 0.8794
1884.000000 0.8789 0.8784 0.8779 0.8774 0.8770
1889.000000 0.8765 0.8761 0.8757 0.8752 0.8748
1894.000000 0.8743 0.8739 0.8735 0.8730 0.8726
1899.000000 0.8721 0.8720 0.8720 0.8720 0.8720
1904.000000 0.8720 0.8735 0.8761 0.8778 0.8785
1909.000000 0.8792 0.8799 0.8803 0.8805 0.8797
1914.000000 0.8787 0.8778 0.8768 0.8759 0.8745
1919.000000 0.8727 0.8710 0.8689 0.8669 0.8648
1924.000000 0.8627 0.8607 0.8586 0.8570 0.8557
1929.000000 0.8544 0.8531 0.8518 0.8495 0.8510
1934.000000 0.8529 0.8546 0.8563 0.8582 0.8609
1939.000000 0.8636 0.8663 0.8691 0.8719 0.8747
1944.000000 0.8769 0.8791 0.8800 0.8801 0.8801
1949.000000 0.8796 0.8790 0.8812 0.8776 0.8767
1954.000000 0.8757 0.8857 0.8958 0.8957 0.8938
1959.000000 0.8795 0.8677 0.8610 0.8566 0.8565
1964.000000 0.8564 0.8527 0.8574 0.8586 0.8599
1969.000000 0.8612 0.8629 0.8647 0.8664 0.8675
1974.000000 0.8685 0.8695 0.8706 0.8717 0.8728
1979.000000 0.8738 0.8745 0.8752 0.8758 0.8762
1984.000000 0.8767 0.8771 0.8776 0.8780 0.8780
1989.000000 0.8778 0.8775 0.8773 0.8819 0.8769
1994.000000 0.8766 0.8764 0.8765 0.8767 0.8771
1999.000000 0.8782 0.8794 0.8805 0.8816 0.8821
2004.000000 0.8826 0.8830 0.8835 0.8839 0.8844
2009.000000 0.8848 0.8852 0.8845 0.8838 0.8831
2014.000000 0.8825 0.8821 0.8817 0.8815 0.8813
2019.000000 0.8812 0.8812 0.8817 0.8822 0.8827
2024.000000 0.8833 0.8838 0.8843 0.8844 0.8846
2029.000000 0.8848 0.8850 0.8846 0.8843 0.8839
2034.000000 0.8835 0.8831 0.8827 0.8823 0.8820
2039.000000 0.8815 0.8810 0.8805 0.8800 0.8794
2044.000000 0.8789 0.8783 0.8778 0.8775 0.8772
2049.000000 0.8768 0.8765 0.8762 0.8759 0.8762
2054.000000 0.8766 0.8770 0.8774 0.8778 0.8782
2059.000000 0.8787 0.8792 0.8797 0.8803 0.8809
2064.000000 0.8816 0.8818 0.8821 0.8823 0.8826
2069.000000 0.8828 0.8830 0.8831 0.8833 0.8833
2074.000000 0.8833 0.8833 0.8833 0.8833 0.8834
2079.000000 0.8834 0.8834 0.8834 0.8835 0.8835
2084.000000 0.8836 0.8836 0.8836 0.8836 0.8837
2089.000000 0.8837 0.8837 0.8835 0.8834 0.8833
2094.000000 0.8832 0.8831 0.8830 0.8829 0.8828
2099.000000 0.8826 0.8825 0.8824 0.8823 0.8822
2104.000000 0.8821 0.8820 0.8820 0.8819 0.8818
2109.000000 0.8817 0.8817 0.8816 0.8815 0.8814
2114.000000 0.8813 0.8812 0.8812 0.8811 0.8810
2119.000000 0.8809 0.8809 0.8808 0.8807 0.8806
2124.000000 0.8806 0.8806 0.8807 0.8807 0.8807
2129.000000 0.8807 0.8808 0.8808 0.8809 0.8809
2134.000000 0.8809 0.8809 0.8810 0.8810 0.8811
2139.000000 0.8811 0.8812 0.8812 0.8812 0.8812
2144.000000 0.8813 0.8813 0.8814 0.8814 0.8814
2149.000000 0.8814 0.8814 0.8814 0.8814 0.8813
2154.000000 0.8813 0.8813 0.8813 0.8813 0.8813
2159.000000 0.8813 0.8813 0.8812 0.8812 0.8812
2164.000000 0.8812 0.8812 0.8812 0.8812 0.8812
2169.000000 0.8811 0.8811 0.8811 0.8811 0.8811
2174.000000 0.8811 0.8809 0.8807 0.8805 0.8803
2179.000000 0.8801 0.8799 0.8797 0.8796 0.8797
2184.000000 0.8798 0.8803 0.8808 0.8808 0.8808
2189.000000 0.8810 0.8813 0.8816 0.8820 0.8821
2194.000000 0.8823 0.8823 0.8823 0.8823 0.8823
2199.000000 0.8823 0.8824 0.8823 0.8822 0.8821
2204.000000 0.8820 0.8819 0.8818 0.8817 0.8816
2209.000000 0.8814 0.8813 0.8812 0.8811 0.8810
2214.000000 0.8809 0.8808 0.8807 0.8806 0.8805
2219.000000 0.8803 0.8802 0.8799 0.8797 0.8794
2224.000000 0.8792 0.8789 0.8787 0.8784 0.8782
2229.000000 0.8779 0.8777 0.8774 0.8772 0.8769
2234.000000 0.8767 0.8764 0.8762 0.8759 0.8757
2239.000000 0.8754 0.8752 0.8749 0.8747 0.8744
2244.000000 0.8742 0.8738 0.8735 0.8731 0.8728
2249.000000 0.8724 0.8721 0.8717 0.8714 0.8710
2254.000000 0.8706 0.8702 0.8699 0.8695 0.8692
2259.000000 0.8688 0.8684 0.8680 0.8677 0.8673
2264.000000 0.8670 0.8666 0.8663 0.8657 0.8652
2269.000000 0.8646 0.8640 0.8634 0.8629 0.8623
2274.000000 0.8618 0.8612 0.8606 0.8603 0.8601
2279.000000 0.8600 0.8600 0.8599 0.8598 0.8597
2284.000000 0.8596 0.8595 0.8594 0.8593 0.8593
2289.000000 0.8592 0.8591 0.8590 0.8589 0.8590
2294.000000 0.8592 0.8594 0.8597 0.8599 0.8602
2299.000000 0.8604 0.8607 0.8610 0.8614 0.8617
2304.000000 0.8621 0.8624 0.8628 0.8631 0.8635
2309.000000 0.8638 0.8641 0.8644 0.8648 0.8649
2314.000000 0.8651 0.8649 0.8647 0.8645 0.8644
2319.000000 0.8642 0.8640 0.8638 0.8636 0.8635
2324.000000 0.8634 0.8635 0.8636 0.8636 0.8637
2329.000000 0.8638 0.8639 0.8640 0.8641 0.8646
2334.000000 0.8652 0.8663 0.8675 0.8686 0.8698
2339.000000 0.8708 0.8718 0.8727 0.8737 0.8720
2344.000000 0.8703 0.8685 0.8668 0.8650 0.8633
2349.000000 0.8601 0.8570 0.8533 0.8497 0.8460
2354.000000 0.8424 0.8468 0.8513 0.8552 0.8591
2359.000000 0.8628 0.8666 0.8694 0.8722 0.8731
2364.000000 0.8740 0.8726 0.8712 0.8693 0.8675
2369.000000 0.8660 0.8645 0.8638 0.8632 0.8632
2374.000000 0.8632 0.8632 0.8632 0.8634 0.8636
2379.000000 0.8641 0.8646 0.8651 0.8657 0.8662
2384.000000 0.8667 0.8672 0.8678 0.8685 0.8693
2389.000000 0.8700 0.8708 0.8715 0.8723 0.8730
2394.000000 0.8737 0.8743 0.8750 0.8756 0.8762
2399.000000 0.8767 0.8773 0.8773 0.8773 0.8773
2404.000000 0.8773 0.8773 0.8773 0.8773 0.8773
2409.000000 0.8772 0.8772 0.8771 0.8771 0.8770
2414.000000 0.8769 0.8768 0.8768 0.8767 0.8766
2419.000000 0.8766 0.8767 0.8767 0.8767 0.8767
2424.000000 0.8768 0.8768 0.8769 0.8769 0.8769
2429.000000 0.8769 0.8770 0.8770 0.8771 0.8771
2434.000000 0.8772 0.8772 0.8773 0.8773 0.8774
2439.000000 0.8774 0.8775 0.8775 0.8776 0.8776
2444.000000 0.8777 0.8777 0.8778 0.8778 0.8779
2449.000000 0.8779 0.8780 0.8780 0.8780 0.8780
2454.000000 0.8781 0.8781 0.8782 0.8781 0.8781
2459.000000 0.8780 0.8779 0.8778 0.8778 0.8777
2464.000000 0.8777 0.8776 0.8776 0.8775 0.8774
2469.000000 0.8773 0.8773 0.8772 0.8772 0.8771
2474.000000 0.8770 0.8769 0.8769 0.8768 0.8768
2479.000000 0.8768 0.8768 0.8768 0.8769 0.8769
2484.000000 0.8769 0.8769 0.8769 0.8769 0.8769
2489.000000 0.8769 0.8769 0.8769 0.8769 0.8769
2494.000000 0.8769 0.8769 0.8769 0.8771 0.8773
2499.000000 0.8775 0.8777 0.8778 0.8780 0.8782
2504.000000 0.8784 0.8786 0.8788 0.8790 0.8792
2509.000000 0.8794 0.8796 0.8798 0.8800 0.8801
2514.000000 0.8803 0.8802 0.8802 0.8801 0.8801
2519.000000 0.8800 0.8800 0.8799 0.8799 0.8799
2524.000000 0.8799 0.8798 0.8798 0.8797 0.8797
2529.000000 0.8796 0.8796 0.8795 0.8794 0.8793
2534.000000 0.8792 0.8791 0.8790 0.8789 0.8789
2539.000000 0.8788 0.8787 0.8786 0.8785 0.8784
2544.000000 0.8783 0.8781 0.8780 0.8778 0.8777
2549.000000 0.8775 0.8773 0.8771 0.8770 0.8768
2554.000000 0.8766 0.8764 0.8762 0.8760 0.8759
2559.000000 0.8757 0.8755 0.8753 0.8751 0.8749
2564.000000 0.8748 0.8746 0.8744 0.8741 0.8739
2569.000000 0.8737 0.8735 0.8732 0.8730 0.8728
2574.000000 0.8726 0.8723 0.8721 0.8719 0.8717
2579.000000 0.8714 0.8712 0.8710 0.8708 0.8705
2584.000000 0.8703 0.8701 0.8699 0.8699 0.8699
2589.000000 0.8699 0.8699 0.8699 0.8699 0.8699
2594.000000 0.8700 0.8700 0.8700 0.8700 0.8700
2599.000000 0.8700 0.8700 0.8701 0.8702 0.8707
2604.000000 0.8713 0.8719 0.8725 0.8731 0.8737
2609.000000 0.8743 0.8749 0.8754 0.8759 0.8761
2614.000000 0.8764 0.8766 0.8768 0.8770 0.8773
2619.000000 0.8775 0.8777 0.8779 0.8782 0.8784
2624.000000 0.8786 0.8788 0.8790 0.8792 0.8795
2629.000000 0.8797 0.8799 0.8799 0.8799 0.8798
2634.000000 0.8798 0.8797 0.8796 0.8795 0.8795
2639.000000 0.8794 0.8794 0.8793 0.8792 0.8791
2644.000000 0.8791 0.8790 0.8790 0.8789 0.8788
2649.000000 0.8787 0.8787 0.8785 0.8783 0.8779
2654.000000 0.8776 0.8772 0.8769 0.8765 0.8762
2659.000000 0.8758 0.8755 0.8751 0.8748 0.8744
2664.000000 0.8741 0.8737 0.8734 0.8730 0.8727
2669.000000 0.8723 0.8719 0.8715 0.8712 0.8708
2674.000000 0.8705 0.8703 0.8701 0.8700 0.8699
2679.000000 0.8697 0.8696 0.8695 0.8694 0.8692
2684.000000 0.8691 0.8690 0.8689 0.8690 0.8692
2689.000000 0.8694 0.8696 0.8698 0.8701 0.8703
2694.000000 0.8705 0.8707 0.8710 0.8712 0.8715
2699.000000 0.8717 0.8719 0.8721 0.8723 0.8725
2704.000000 0.8728 0.8730 0.8732 0.8734 0.8736
2709.000000 0.8738 0.8740 0.8741 0.8742 0.8743
2714.000000 0.8744 0.8744 0.8745 0.8746 0.8747
2719.000000 0.8747 0.8748 0.8749 0.8750 0.8750
2724.000000 0.8751 0.8752 0.8753 0.8754 0.8755
2729.000000 0.8755 0.8756 0.8757 0.8758 0.8758
2734.000000 0.8759 0.8760 0.8761 0.8761 0.8762
2739.000000 0.8763 0.8764 0.8764 0.8765 0.8766
2744.000000 0.8767 0.8768 0.8769 0.8769 0.8770
2749.000000 0.8771 0.8772 0.8772 0.8773 0.8774
2754.000000 0.8775 0.8770 0.8766 0.8765 0.8765
2759.000000 0.8764 0.8763 0.8762 0.8761 0.8760
2764.000000 0.8759 0.8758 0.8758 0.8758 0.8758
2769.000000 0.8758 0.8758 0.8758 0.8758 0.8758
2774.000000 0.8758 0.8758 0.8758 0.8758 0.8758
2779.000000 0.8758 0.8758 0.8758 0.8758 0.8757
2784.000000 0.8757 0.8756 0.8756 0.8755 0.8755
2789.000000 0.8754 0.8754 0.8754 0.8754 0.8753
2794.000000 0.8751 0.8752 0.8752 0.8751 0.8751
2799.000000 0.8750 0.8750 0.8749 0.8749 0.8748
2804.000000 0.8748 0.8747 0.8747 0.8746 0.8746
2809.000000 0.8745 0.8744 0.8743 0.8742 0.8741
2814.000000 0.8741 0.8740 0.8739 0.8738 0.8738
2819.000000 0.8737 0.8736 0.8735 0.8734 0.8731
2824.000000 0.8729 0.8726 0.8724 0.8721 0.8718
2829.000000 0.8715 0.8712 0.8709 0.8707 0.8704
2834.000000 0.8701 0.8698 0.8695 0.8681 0.8668
2839.000000 0.8653 0.8638 0.8623 0.8608 0.8590
2844.000000 0.8572 0.8549 0.8526 0.8503 0.8481
2849.000000 0.8452 0.8424 0.8385 0.8346 0.8332
2854.000000 0.8319 0.8305 0.8292 0.8278 0.8265
2859.000000 0.8253 0.8241 0.8231 0.8181 0.8222
2864.000000 0.8223 0.8225 0.8228 0.8241 0.8254
2869.000000 0.8265 0.8277 0.8288 0.8299 0.8314
2874.000000 0.8329 0.8351 0.8374 0.8396 0.8419
2879.000000 0.8437 0.8455 0.8471 0.8488 0.8504
2884.000000 0.8521 0.8537 0.8554 0.8569 0.8585
2889.000000 0.8600 0.8615 0.8630 0.8645 0.8649
2894.000000 0.8653 0.8655 0.8658 0.8660 0.8663
2899.000000 0.8665 0.8668 0.8670 0.8672 0.8673
2904.000000 0.8675 0.8676 0.8677 0.8678 0.8680
2909.000000 0.8681 0.8682 0.8683 0.8685 0.8687
2914.000000 0.8690 0.8693 0.8696 0.8699 0.8703
2919.000000 0.8706 0.8710 0.8713 0.8716 0.8719
2924.000000 0.8723 0.8727 0.8732 0.8736 0.8741
2929.000000 0.8746 0.8751 0.8755 0.8760 0.8766
2934.000000 0.8772 0.8777 0.8783 0.8789 0.8795
2939.000000 0.8800 0.8806 0.8809 0.8813 0.8816
2944.000000 0.8834 0.8820 0.8821 0.8822 0.8823
2949.000000 0.8823 0.8823 0.8822 0.8821 0.8820
2954.000000 0.8819 0.8816 0.8813 0.8810 0.8808
2959.000000 0.8805 0.8803 0.8800 0.8798 0.8795
2964.000000 0.8793 0.8790 0.8788 0.8785 0.8783
2969.000000 0.8779 0.8776 0.8772 0.8769 0.8765
2974.000000 0.8762 0.8758 0.8755 0.8751 0.8748
2979.000000 0.8744 0.8740 0.8736 0.8732 0.8727
2984.000000 0.8723 0.8719 0.8715 0.8713 0.8711
2989.000000 0.8709 0.8707 0.8705 0.8703 0.8701
2994.000000 0.8699 0.8697 0.8695 0.8693 0.8692
2999.000000 0.8691 0.8691 0.8690 0.8690 0.8689
3004.000000 0.8689 0.8688 0.8687 0.8686 0.8686
3009.000000 0.8685 0.8685 0.8684 0.8683 0.8683
3014.000000 0.8684 0.8685 0.8686 0.8687 0.8688
3019.000000 0.8689 0.8690 0.8691 0.8692 0.8692
3024.000000 0.8693 0.8694 0.8695 0.8696 0.8697
3029.000000 0.8696 0.8696 0.8692 0.8689 0.8685
3034.000000 0.8682 0.8677 0.8673 0.8663 0.8653
3039.000000 0.8643 0.8633 0.8623 0.8613 0.8603
3044.000000 0.8594 0.8585 0.8577 0.8569 0.8561
3049.000000 0.8553 0.8545 0.8537 0.8529 0.8469
3054.000000 0.8409 0.8340 0.8272 0.8203 0.8135
3059.000000 0.8066 0.7998 0.7982 0.7966 0.7959
3064.000000 0.7940 0.7947 0.7942 0.7966 0.7990
3069.000000 0.8055 0.8120 0.8185 0.8250 0.8319
3074.000000 0.8389 0.8422 0.8456 0.8455 0.8455
3079.000000 0.8451 0.8447 0.8442 0.8438 0.8432
3084.000000 0.8426 0.8424 0.8423 0.8432 0.8441
3089.000000 0.8452 0.8464 0.8479 0.8494 0.8511
3094.000000 0.8529 0.8553 0.8578 0.8599 0.8621
3099.000000 0.8639 0.8658 0.8667 0.8677 0.8686
3104.000000 0.8695 0.8703 0.8712 0.8721 0.8730
3109.000000 0.8734 0.8739 0.8743 0.8748 0.8752
3114.000000 0.8757 0.8761 0.8765 0.8769 0.8774
3119.000000 0.8777 0.8781 0.8784 0.8787 0.8790
3124.000000 0.8793 0.8796 0.8799 0.8802 0.8805
3129.000000 0.8807 0.8809 0.8809 0.8810 0.8810
3134.000000 0.8811 0.8811 0.8812 0.8812 0.8813
3139.000000 0.8813 0.8814 0.8814 0.8815 0.8815
3144.000000 0.8816 0.8816 0.8817 0.8817 0.8817
3149.000000 0.8817 0.8817 0.8817 0.8817 0.8817
3154.000000 0.8817 0.8817 0.8817 0.8817 0.8817
3159.000000 0.8817 0.8817 0.8818 0.8820 0.8821
3164.000000 0.8822 0.8823 0.8825 0.8826 0.8827
3169.000000 0.8832 0.8887 0.8852 0.8866 0.8877
3174.000000 0.8888 0.8890 0.8892 0.8894 0.8896
3179.000000 0.8897 0.8899 0.8900 0.8902 0.8903
3184.000000 0.8904 0.8905 0.8906 0.8907 0.8908
3189.000000 0.8908 0.8909 0.8907 0.8905 0.8903
3194.000000 0.8901 0.8899 0.8897 0.8895 0.8893
3199.000000 0.8891 0.8889 0.8888 0.8887 0.8886
3204.000000 0.8886 0.8885 0.8884 0.8883 0.8883
3209.000000 0.8882 0.8882 0.8881 0.8880 0.8879
3214.000000 0.8879 0.8880 0.8881 0.8884 0.8888
3219.000000 0.8891 0.8895 0.8898 0.8902 0.8905
3224.000000 0.8909 0.8912 0.8916 0.8919 0.8923
3229.000000 0.8926 0.8930 0.8931 0.8933 0.8934
3234.000000 0.8935 0.8936 0.8938 0.8939 0.8940
3239.000000 0.8941 0.8943 0.8944 0.8945 0.8944
3244.000000 0.8944 0.8943 0.8943 0.8942 0.8942
3249.000000 0.8942 0.8942 0.8942 0.8942 0.8942
3254.000000 0.8942 0.8942 0.8942 0.8942 0.8942
3259.000000 0.8942 0.8942 0.8942 0.8942 0.8942
3264.000000 0.8942 0.8942 0.8942 0.8942 0.8942
3269.000000 0.8942 0.8943 0.8943 0.8943 0.8943
3274.000000 0.8943 0.8943 0.8943 0.8943 0.8944
3279.000000 0.8944 0.8945 0.8946 0.8947 0.8947
3284.000000 0.8948 0.8948 0.8949 0.8950 0.8951
3289.000000 0.8950 0.8950 0.8949 0.8949 0.8949
3294.000000 0.8949 0.8948 0.8948 0.8948 0.8948
3299.000000 0.8947 0.8947 0.8947 0.8947 0.8946
3304.000000 0.8946 0.8945 0.8945 0.8945 0.8945
3309.000000 0.8944 0.8944 0.8943 0.8943 0.8942
3314.000000 0.8941 0.8940 0.8939 0.8938 0.8937
3319.000000 0.8936 0.8936 0.8935 0.8934 0.8933
3324.000000 0.8932 0.8931 0.8930 0.8929 0.8929
3329.000000 0.8928 0.8927 0.8926 0.8925 0.8924
3334.000000 0.8923 0.8922 0.8921 0.8920 0.8920
3339.000000 0.8919 0.8918 0.8917 0.8916 0.8915
3344.000000 0.8914 0.8913 0.8913 0.8912 0.8911
3349.000000 0.8910 0.8909 0.8908 0.8908 0.8908
3354.000000 0.8908 0.8907 0.8907 0.8907 0.8907
3359.000000 0.8906 0.8906 0.8906 0.8906 0.8905
3364.000000 0.8905 0.8905 0.8905 0.8904 0.8904
3369.000000 0.8904 0.8904 0.8903 0.8903 0.8903
3374.000000 0.8903 0.8902 0.8902 0.8902 0.8902
3379.000000 0.8901 0.8901 0.8901 0.8901 0.8900
3384.000000 0.8900 0.8899 0.8899 0.8899 0.8899
3389.000000 0.8898 0.8898 0.8898 0.8898 0.8897
3394.000000 0.8897 0.8897 0.8897 0.8896 0.8896
3399.000000 0.8896 0.8896 0.8896 0.8896 0.8896
3404.000000 0.8897 0.8897 0.8897 0.8897 0.8897
3409.000000 0.8897 0.8897 0.8897 0.8897 0.8897
3414.000000 0.8897 0.8897 0.8897 0.8897 0.8897
3419.000000 0.8897 0.8897 0.8897 0.8897 0.8897
3424.000000 0.8897 0.8897 0.8897 0.8897 0.8897
3429.000000 0.8897 0.8898 0.8898 0.8898 0.8898
3434.000000 0.8898 0.8898 0.8898 0.8898 0.8898
3439.000000 0.8898 0.8898 0.8898 0.8899 0.8899
3444.000000 0.8899 0.8899 0.8900 0.8900 0.8900
3449.000000 0.8900 0.8901 0.8901 0.8901 0.8901
3454.000000 0.8902 0.8902 0.8902 0.8902 0.8903
3459.000000 0.8903 0.8903 0.8903 0.8904 0.8904
3464.000000 0.8904 0.8904 0.8905 0.8905 0.8905
3469.000000 0.8905 0.8906 0.8906 0.8906 0.8906
3474.000000 0.8907 0.8907 0.8907 0.8907 0.8908
3479.000000 0.8908 0.8908 0.8908 0.8909 0.8909
3484.000000 0.8910 0.8910 0.8910 0.8910 0.8911
3489.000000 0.8911 0.8911 0.8910 0.8910 0.8910
3494.000000 0.8910 0.8910 0.8910 0.8910 0.8910
3499.000000 0.8910 0.8910 0.8909 0.8909 0.8909
3504.000000 0.8909 0.8909 0.8909 0.8909 0.8909
3509.000000 0.8908 0.8908 0.8908 0.8908 0.8908
3514.000000 0.8908 0.8908 0.8908 0.8907 0.8907
3519.000000 0.8907 0.8907 0.8907 0.8907 0.8907
3524.000000 0.8907 0.8906 0.8906 0.8906 0.8906
3529.000000 0.8906 0.8906 0.8906 0.8906 0.8905
3534.000000 0.8905 0.8905 0.8905 0.8904 0.8904
3539.000000 0.8903 0.8903 0.8903 0.8903 0.8902
3544.000000 0.8902 0.8901 0.8901 0.8900 0.8900
3549.000000 0.8899 0.8899 0.8898 0.8898 0.8897
3554.000000 0.8897 0.8896 0.8896 0.8895 0.8895
3559.000000 0.8895 0.8895 0.8894 0.8894 0.8893
3564.000000 0.8893 0.8892 0.8892 0.8891 0.8891
3569.000000 0.8890 0.8890 0.8889 0.8889 0.8888
3574.000000 0.8888 0.8887 0.8887 0.8887 0.8887
3579.000000 0.8886 0.8886 0.8885 0.8885 0.8884
3584.000000 0.8884 0.8884 0.8884 0.8883 0.8883
3589.000000 0.8883 0.8883 0.8882 0.8882 0.8881
3594.000000 0.8881 0.8881 0.8881 0.8880 0.8880
3599.000000 0.8880 0.8880 0.8879 0.8879 0.8878
3604.000000 0.8878 0.8878 0.8878 0.8877 0.8877
3609.000000 0.8877 0.8877 0.8876 0.8876 0.8876
3614.000000 0.8876 0.8875 0.8875 0.8875 0.8875
3619.000000 0.8874 0.8874 0.8874 0.8874 0.8873
3624.000000 0.8873 0.8873 0.8873 0.8872 0.8872
3629.000000 0.8872 0.8872 0.8871 0.8871 0.8871
3634.000000 0.8871 0.8870 0.8870 0.8870 0.8870
3639.000000 0.8869 0.8869 0.8869 0.8869 0.8868
3644.000000 0.8868 0.8867 0.8867 0.8866 0.8866
3649.000000 0.8866 0.8866 0.8865 0.8865 0.8864
3654.000000 0.8864 0.8864 0.8864 0.8863 0.8863
3659.000000 0.8863 0.8863 0.8863 0.8864 0.8865
3664.000000 0.8866 0.8866 0.8867 0.8868 0.8869
3669.000000 0.8869 0.8870 0.8871 0.8872 0.8872
3674.000000 0.8873 0.8873 0.8873 0.8871 0.8869
3679.000000 0.8867 0.8866 0.8864 0.8863 0.8861
3684.000000 0.8859 0.8857 0.8856 0.8854 0.8853
3689.000000 0.8856 0.8860 0.8861 0.8862 0.8860
3694.000000 0.8858 0.8856 0.8855 0.8853 0.8851
3699.000000 0.8849 0.8847 0.8845 0.8843 0.8840
3704.000000 0.8838 0.8834 0.8831 0.8827 0.8823
3709.000000 0.8819 0.8815 0.8813 0.8811 0.8813
3714.000000 0.8816 0.8819 0.8822 0.8824 0.8827
3719.000000 0.8830 0.8833 0.8835 0.8838 0.8841
3724.000000 0.8845 0.8852 0.8859 0.8866 0.8873
3729.000000 0.8880 0.8887 0.8894 0.8901 0.8912
3734.000000 0.8924 0.8936 0.8949 0.8951 0.8953
3739.000000 0.8952 0.8952 0.8951 0.8951 0.8951
3744.000000 0.8951 0.8950 0.8950 0.8948 0.8947
3749.000000 0.8946 0.8945 0.8944 0.8943 0.8941
3754.000000 0.8940 0.8939 0.8938 0.8937 0.8936
3759.000000 0.8935 0.8935 0.8934 0.8933 0.8932
3764.000000 0.8932 0.8931 0.8931 0.8930 0.8929
3769.000000 0.8928 0.8928 0.8927 0.8927 0.8926
3774.000000 0.8925 0.8924 0.8924 0.8923 0.8923
3779.000000 0.8922 0.8921 0.8920 0.8920 0.8919
3784.000000 0.8919 0.8918 0.8917 0.8916 0.8916
3789.000000 0.8915 0.8915 0.8914 0.8913 0.8912
3794.000000 0.8912 0.8911 0.8911 0.8910 0.8910
3799.000000 0.8909 0.8908
##END=
