##TITLE=BENZOIC ACID, o-NITRO-, ETHYL ESTER
##JCAMP-DX=4.24
##DATA TYPE=INFRARED SPECTRUM
##CLASS=COBLENTZ III
##ORIGIN=DOW CHEMICAL COMPANY
##OWNER=COBLENTZ SOC.
Collection (C) 2018 copyright by the U.S. Secretary of Commerce
on behalf of the United States of America. All rights reserved.
##DATE=1963/05/29
##NAMES=ethyl 2-nitrobenzoate
##CAS REGISTRY NO=610-34-4
##MOLFORM=C9 H9 N O4
##SOURCE REFERENCE=COBLENTZ NO. 06497
##$NIST SOURCE=COBLENTZ
##$NIST IMAGE=cob6497
##SPECTROMETER/DATA SYSTEM=DOW KBr FOREPRISM-GRATING
##INSTRUMENT PARAMETERS=BLAZED AT 3.5, 12.0, 20.0 MICRON AND CHANGED AT 5.0, 7.5, 14.9 MICRON
##STATE=SOLUTION (2% CCl4 FOR 3800-1330, 2% CS2 FOR 1330-400 CM^-^1)
##PATH LENGTH=0.011 CM, 0.010 CM
$$SPECTRAL CONTAMINATION DUE TO AN UNKNOWN AROUND 400 CM^-^1
##SAMPLING PROCEDURE=TRANSMISSION
##RESOLUTION=2
##DATA PROCESSING=DIGITIZED BY COBLENTZ SOCIETY (BATCH I) FROM HARD COPY
##XUNITS=1/CM
##YUNITS=TRANSMITTANCE
##XLABEL=Wavenumbers (cm-1)
##YLABEL=% Transmission
##XFACTOR=1
##YFACTOR=1
##DELTAX=1
##FIRSTX=384
##LASTX=3798
##FIRSTY=0.2164
##MAXX=3798
##MINX=384
##MAXY=0.9678
##MINY=0.0718
##NPOINTS=3415
##XYDATA=(X++(Y..Y))
384.000000 0.2164 0.2174 0.2183 0.2192 0.2213
389.000000 0.2243 0.2277 0.2315 0.2354 0.2392
394.000000 0.2437 0.2481 0.2526 0.2610 0.2701
399.000000 0.2791 0.3056 0.3416 0.3777 0.4137
404.000000 0.4498 0.4858 0.5218 0.5701 0.5840
409.000000 0.5953 0.6057 0.6167 0.6277 0.6364
414.000000 0.6445 0.6518 0.6582 0.6645 0.6691
419.000000 0.6734 0.6775 0.6818 0.6861 0.6901
424.000000 0.6942 0.6982 0.7021 0.7050 0.7078
429.000000 0.7106 0.7134 0.7151 0.7168 0.7185
434.000000 0.7203 0.7219 0.7237 0.7254 0.7269
439.000000 0.7287 0.7304 0.7318 0.7324 0.7330
444.000000 0.7336 0.7342 0.7348 0.7353 0.7358
449.000000 0.7365 0.7371 0.7375 0.7382 0.7387
454.000000 0.7392 0.7400 0.7408 0.7418 0.7426
459.000000 0.7437 0.7446 0.7455 0.7465 0.7474
464.000000 0.7483 0.7493 0.7501 0.7507 0.7511
469.000000 0.7515 0.7518 0.7524 0.7528 0.7534
474.000000 0.7539 0.7543 0.7548 0.7553 0.7558
479.000000 0.7562 0.7568 0.7571 0.7576 0.7582
484.000000 0.7587 0.7591 0.7595 0.7599 0.7603
489.000000 0.7607 0.7611 0.7614 0.7618 0.7621
494.000000 0.7628 0.7633 0.7638 0.7644 0.7649
499.000000 0.7655 0.7660 0.7665 0.7671 0.7676
504.000000 0.7682 0.7688 0.7696 0.7703 0.7710
509.000000 0.7718 0.7725 0.7732 0.7740 0.7748
514.000000 0.7757 0.7765 0.7775 0.7783 0.7790
519.000000 0.7797 0.7805 0.7814 0.7824 0.7834
524.000000 0.7843 0.7848 0.7853 0.7857 0.7861
529.000000 0.7864 0.7867 0.7869 0.7871 0.7871
534.000000 0.7871 0.7871 0.7871 0.7871 0.7871
539.000000 0.7869 0.7868 0.7867 0.7865 0.7865
544.000000 0.7862 0.7858 0.7854 0.7850 0.7845
549.000000 0.7841 0.7838 0.7835 0.7831 0.7828
554.000000 0.7825 0.7821 0.7818 0.7812 0.7807
559.000000 0.7801 0.7795 0.7789 0.7784 0.7780
564.000000 0.7775 0.7771 0.7768 0.7765 0.7764
569.000000 0.7762 0.7768 0.7767 0.7767 0.7785
574.000000 0.7796 0.7810 0.7824 0.7837 0.7854
579.000000 0.7874 0.7896 0.7917 0.7938 0.7962
584.000000 0.7980 0.7989 0.7998 0.7987 0.7985
589.000000 0.7975 0.7964 0.7953 0.7951 0.7951
594.000000 0.7951 0.7951 0.7951 0.7953 0.7955
599.000000 0.7956 0.7961 0.7968 0.7975 0.7985
604.000000 0.7994 0.8003 0.8001 0.7982 0.7936
609.000000 0.7901 0.7884 0.7865 0.7848 0.7831
614.000000 0.7819 0.7810 0.7808 0.7808 0.7815
619.000000 0.7824 0.7834 0.7851 0.7868 0.7885
624.000000 0.7894 0.7903 0.7911 0.7918 0.7919
629.000000 0.7919 0.7918 0.7912 0.7908 0.7899
634.000000 0.7886 0.7871 0.7855 0.7838 0.7814
639.000000 0.7778 0.7719 0.7622 0.7339 0.7281
644.000000 0.7278 0.7351 0.7435 0.7511 0.7580
649.000000 0.7628 0.7662 0.7693 0.7741 0.7807
654.000000 0.7867 0.7901 0.7937 0.7965 0.7991
659.000000 0.8015 0.8036 0.8048 0.8061 0.8068
664.000000 0.8068 0.8068 0.8065 0.8065 0.8072
669.000000 0.8082 0.8093 0.8103 0.8106 0.8105
674.000000 0.8104 0.8137 0.8097 0.8090 0.8078
679.000000 0.8067 0.8051 0.8035 0.8010 0.7981
684.000000 0.7951 0.7912 0.7865 0.7818 0.7771
689.000000 0.7722 0.7672 0.7621 0.7568 0.7501
694.000000 0.7278 0.7056 0.6833 0.6610 0.6564
699.000000 0.6578 0.7119 0.7625 0.7712 0.7799
704.000000 0.7855 0.7903 0.7953 0.7986 0.8012
709.000000 0.8025 0.8028 0.8030 0.8045 0.8021
714.000000 0.8015 0.7998 0.7978 0.7958 0.7938
719.000000 0.7901 0.7857 0.7806 0.7754 0.7671
724.000000 0.7536 0.7369 0.7171 0.6969 0.6768
729.000000 0.6565 0.6117 0.5994 0.5931 0.5924
734.000000 0.5926 0.5920 0.6033 0.6135 0.6511
739.000000 0.6886 0.7195 0.7289 0.7386 0.7489
744.000000 0.7654 0.7767 0.7868 0.7941 0.8005
749.000000 0.8067 0.8126 0.8186 0.8252 0.8291
754.000000 0.8311 0.8331 0.8335 0.8339 0.8339
759.000000 0.8328 0.8318 0.8307 0.8295 0.8283
764.000000 0.8253 0.8221 0.8185 0.8147 0.8097
769.000000 0.8045 0.7980 0.7911 0.7843 0.7771
774.000000 0.7701 0.7631 0.7561 0.7491 0.7401
779.000000 0.7308 0.7208 0.7094 0.6911 0.6811
784.000000 0.6800 0.6825 0.7032 0.7315 0.7600
789.000000 0.7881 0.8312 0.8406 0.8449 0.8484
794.000000 0.8505 0.8525 0.8543 0.8557 0.8570
799.000000 0.8581 0.8592 0.8601 0.8610 0.8618
804.000000 0.8623 0.8628 0.8632 0.8638 0.8644
809.000000 0.8651 0.8658 0.8668 0.8678 0.8684
814.000000 0.8691 0.8695 0.8713 0.8700 0.8702
819.000000 0.8703 0.8703 0.8702 0.8702 0.8698
824.000000 0.8690 0.8682 0.8668 0.8650 0.8631
829.000000 0.8609 0.8581 0.8543 0.8491 0.8438
834.000000 0.8387 0.8338 0.8268 0.8161 0.8078
839.000000 0.7842 0.7560 0.7278 0.6901 0.6744
844.000000 0.6728 0.6722 0.6825 0.7045 0.7092
849.000000 0.7114 0.7085 0.7060 0.7014 0.6962
854.000000 0.6919 0.6904 0.6905 0.6875 0.6931
859.000000 0.7008 0.7061 0.7118 0.7183 0.7226
864.000000 0.7251 0.7261 0.7271 0.7281 0.7281
869.000000 0.7501 0.7581 0.7667 0.7782 0.7900
874.000000 0.7983 0.8039 0.8097 0.8162 0.8193
879.000000 0.8217 0.8231 0.8244 0.8255 0.8289
884.000000 0.8334 0.8391 0.8464 0.8560 0.8639
889.000000 0.8693 0.8735 0.8773 0.8800 0.8828
894.000000 0.8851 0.8865 0.8878 0.8891 0.8905
899.000000 0.8918 0.8925 0.8930 0.8936 0.8942
904.000000 0.8948 0.8954 0.8960 0.8964 0.8965
909.000000 0.8966 0.8968 0.8968 0.8970 0.8971
914.000000 0.8973 0.8974 0.8974 0.8994 0.8971
919.000000 0.8971 0.8970 0.8968 0.8968 0.8968
924.000000 0.8967 0.8966 0.8964 0.8960 0.8956
929.000000 0.8953 0.8949 0.8945 0.8941 0.8937
934.000000 0.8934 0.8931 0.8928 0.8925 0.8923
939.000000 0.8920 0.8917 0.8909 0.8899 0.8890
944.000000 0.8880 0.8861 0.8841 0.8820 0.8795
949.000000 0.8755 0.8712 0.8651 0.8585 0.8523
954.000000 0.8516 0.8625 0.8688 0.8718 0.8766
959.000000 0.8798 0.8825 0.8844 0.8848 0.8849
964.000000 0.8849 0.8849 0.8849 0.8846 0.8841
969.000000 0.8835 0.8825 0.8815 0.8806 0.8796
974.000000 0.8787 0.8775 0.8766 0.8755 0.8744
979.000000 0.8733 0.8718 0.8704 0.8689 0.8674
984.000000 0.8659 0.8642 0.8625 0.8609 0.8592
989.000000 0.8575 0.8556 0.8531 0.8505 0.8480
994.000000 0.8445 0.8409 0.8371 0.8328 0.8286
999.000000 0.8240 0.8189 0.8135 0.8080 0.8024
1004.000000 0.7965 0.7898 0.7825 0.7742 0.7690
1009.000000 0.7658 0.7640 0.7630 0.7622 0.7619
1014.000000 0.7608 0.7631 0.7641 0.7690 0.7747
1019.000000 0.7815 0.7917 0.8064 0.8148 0.8165
1024.000000 0.8182 0.8187 0.8196 0.8158 0.8124
1029.000000 0.8055 0.7992 0.7939 0.7868 0.7447
1034.000000 0.6882 0.6908 0.7084 0.7418 0.7751
1039.000000 0.7911 0.7980 0.8065 0.8105 0.8143
1044.000000 0.8168 0.8183 0.8198 0.8210 0.8212
1049.000000 0.8214 0.8205 0.8195 0.8184 0.8165
1054.000000 0.8149 0.8132 0.8115 0.8091 0.8060
1059.000000 0.8008 0.7960 0.7910 0.7853 0.7792
1064.000000 0.7725 0.7636 0.7498 0.6943 0.6388
1069.000000 0.5834 0.5279 0.4942 0.4915 0.4914
1074.000000 0.4912 0.5307 0.5786 0.6265 0.6744
1079.000000 0.7418 0.7546 0.7615 0.7675 0.7703
1084.000000 0.7711 0.7712 0.7725 0.7696 0.7661
1089.000000 0.7621 0.7574 0.7525 0.7475 0.7411
1094.000000 0.7351 0.7307 0.7289 0.7287 0.7298
1099.000000 0.7308 0.7317 0.7317 0.7303 0.7288
1104.000000 0.7260 0.7211 0.7122 0.6971 0.6895
1109.000000 0.6818 0.6744 0.6669 0.6596 0.6522
1114.000000 0.6424 0.6324 0.6155 0.5931 0.5699
1119.000000 0.5467 0.5235 0.5034 0.4849 0.4787
1124.000000 0.4764 0.4774 0.4800 0.4853 0.5077
1129.000000 0.5434 0.5597 0.5700 0.5824 0.6040
1134.000000 0.6412 0.6588 0.6917 0.7071 0.7161
1139.000000 0.7231 0.7291 0.7383 0.7428 0.7458
1144.000000 0.7480 0.7481 0.7483 0.7484 0.7521
1149.000000 0.7565 0.7605 0.7634 0.7656 0.7669
1154.000000 0.7675 0.7675 0.7698 0.7661 0.7646
1159.000000 0.7622 0.7581 0.7522 0.7475 0.7468
1164.000000 0.7462 0.7526 0.7565 0.7578 0.7601
1169.000000 0.7551 0.7525 0.7501 0.7478 0.7439
1174.000000 0.7428 0.7435 0.7446 0.7484 0.7556
1179.000000 0.7645 0.7724 0.7792 0.7849 0.7878
1184.000000 0.7907 0.7934 0.7951 0.7968 0.7985
1189.000000 0.7998 0.8007 0.8017 0.8025 0.8036
1194.000000 0.8045 0.8053 0.8058 0.8064 0.8069
1199.000000 0.8075 0.8080 0.8084 0.8087 0.8091
1204.000000 0.8094 0.8097 0.8098 0.8097 0.8097
1209.000000 0.8096 0.8092 0.8085 0.8078 0.8069
1214.000000 0.8062 0.8055 0.8047 0.8039 0.8032
1219.000000 0.8024 0.8015 0.8007 0.7999 0.7990
1224.000000 0.7978 0.7961 0.7945 0.7928 0.7911
1229.000000 0.7895 0.7869 0.7843 0.7815 0.7789
1234.000000 0.7758 0.7712 0.7668 0.7618 0.7565
1239.000000 0.7512 0.7432 0.7321 0.7192 0.7065
1244.000000 0.6940 0.6804 0.6668 0.6530 0.6338
1249.000000 0.5630 0.5238 0.4846 0.4455 0.4062
1254.000000 0.3774 0.3789 0.3789 0.4253 0.4762
1259.000000 0.5271 0.5780 0.6142 0.6204 0.6222
1264.000000 0.6235 0.6225 0.6202 0.6122 0.6010
1269.000000 0.5899 0.5787 0.5675 0.5564 0.5452
1274.000000 0.5340 0.5229 0.5117 0.5005 0.4893
1279.000000 0.4782 0.4683 0.4619 0.4565 0.4510
1284.000000 0.4434 0.4335 0.4101 0.3862 0.3714
1289.000000 0.3541 0.3255 0.3226 0.3216 0.3223
1294.000000 0.3239 0.3297 0.3354 0.3506 0.3793
1299.000000 0.4080 0.4368 0.4655 0.4935 0.5325
1304.000000 0.5707 0.5886 0.6055 0.6169 0.6276
1309.000000 0.6379 0.6492 0.6686 0.6933 0.7039
1314.000000 0.7146 0.7231 0.7301 0.7375 0.7478
1319.000000 0.7555 0.7597 0.7621 0.7640 0.7658
1324.000000 0.7665 0.7671 0.7678 0.7675 0.7672
1329.000000 0.7665 0.7655 0.7644 0.7631 0.7618
1334.000000 0.7600 0.7575 0.7544 0.7451 0.7345
1339.000000 0.7153 0.6996 0.6880 0.6768 0.6650
1344.000000 0.6506 0.6214 0.5853 0.5493 0.5132
1349.000000 0.4772 0.4410 0.4050 0.3998 0.4000
1354.000000 0.4104 0.4269 0.4433 0.4598 0.4762
1359.000000 0.4927 0.5092 0.5257 0.5405 0.5428
1364.000000 0.5472 0.5223 0.4962 0.4702 0.4640
1369.000000 0.4642 0.5125 0.5546 0.6511 0.6636
1374.000000 0.6751 0.6828 0.6904 0.7028 0.7190
1379.000000 0.7251 0.7312 0.7371 0.7424 0.7475
1384.000000 0.7515 0.7543 0.7554 0.7547 0.7538
1389.000000 0.7530 0.7514 0.7498 0.7495 0.7528
1394.000000 0.7572 0.7618 0.7662 0.7698 0.7734
1399.000000 0.7772 0.7811 0.7838 0.7864 0.7887
1404.000000 0.7903 0.7918 0.7935 0.7946 0.7957
1409.000000 0.7968 0.7978 0.7989 0.7995 0.8001
1414.000000 0.8007 0.8012 0.8015 0.8018 0.8021
1419.000000 0.8022 0.8040 0.8030 0.8033 0.8037
1424.000000 0.8037 0.8037 0.8036 0.8035 0.8034
1429.000000 0.8028 0.8021 0.8014 0.8003 0.7978
1434.000000 0.7954 0.7928 0.7903 0.7875 0.7849
1439.000000 0.7798 0.7747 0.7687 0.7621 0.7551
1444.000000 0.7451 0.7060 0.6668 0.6649 0.6774
1449.000000 0.6644 0.7448 0.7594 0.7656 0.7697
1454.000000 0.7701 0.7701 0.7699 0.7690 0.7675
1459.000000 0.7661 0.7644 0.7621 0.7584 0.7547
1464.000000 0.7510 0.7469 0.7465 0.7465 0.7471
1469.000000 0.7501 0.7521 0.7518 0.7496 0.7493
1474.000000 0.7457 0.7426 0.7404 0.7390 0.7378
1479.000000 0.7368 0.7349 0.7293 0.7212 0.7196
1484.000000 0.7201 0.7232 0.7264 0.7300 0.7360
1489.000000 0.7408 0.7419 0.7417 0.7403 0.7385
1494.000000 0.7365 0.7335 0.7289 0.7232 0.7172
1499.000000 0.7103 0.7028 0.6944 0.6848 0.6765
1504.000000 0.6688 0.6610 0.6536 0.6467 0.6397
1509.000000 0.6321 0.6254 0.6196 0.6136 0.6075
1514.000000 0.6009 0.5920 0.5830 0.5752 0.5678
1519.000000 0.5598 0.5477 0.5377 0.5290 0.5202
1524.000000 0.5076 0.4918 0.4670 0.4402 0.4195
1529.000000 0.3978 0.3718 0.3562 0.3260 0.3091
1534.000000 0.2734 0.2376 0.2019 0.1661 0.1304
1539.000000 0.0975 0.0846 0.0744 0.0718 0.0748
1544.000000 0.0754 0.0801 0.0855 0.1064 0.1314
1549.000000 0.1564 0.1861 0.2013 0.2144 0.2284
1554.000000 0.2448 0.2646 0.2926 0.3226 0.3510
1559.000000 0.4028 0.4184 0.4312 0.4415 0.4553
1564.000000 0.4697 0.4776 0.4855 0.4934 0.5012
1569.000000 0.5090 0.5168 0.5216 0.5264 0.5312
1574.000000 0.5350 0.5326 0.5270 0.5232 0.5198
1579.000000 0.5145 0.5145 0.5146 0.5146 0.5181
1584.000000 0.5270 0.5358 0.5448 0.5612 0.5727
1589.000000 0.5833 0.5904 0.5967 0.6029 0.6103
1594.000000 0.6184 0.6265 0.6348 0.6444 0.6540
1599.000000 0.6639 0.6743 0.6841 0.6921 0.7004
1604.000000 0.7076 0.7087 0.7096 0.7103 0.7108
1609.000000 0.7115 0.7134 0.7151 0.7168 0.7225
1614.000000 0.7289 0.7358 0.7435 0.7517 0.7576
1619.000000 0.7632 0.7687 0.7736 0.7785 0.7835
1624.000000 0.7882 0.7926 0.7971 0.8017 0.8053
1629.000000 0.8084 0.8115 0.8147 0.8165 0.8181
1634.000000 0.8196 0.8211 0.8225 0.8240 0.8253
1639.000000 0.8261 0.8268 0.8278 0.8286 0.8294
1644.000000 0.8303 0.8311 0.8312 0.8312 0.8311
1649.000000 0.8311 0.8311 0.8310 0.8310 0.8310
1654.000000 0.8309 0.8306 0.8303 0.8299 0.8295
1659.000000 0.8292 0.8288 0.8285 0.8281 0.8275
1664.000000 0.8270 0.8265 0.8259 0.8253 0.8244
1669.000000 0.8235 0.8225 0.8216 0.8206 0.8197
1674.000000 0.8187 0.8178 0.8168 0.8160 0.8151
1679.000000 0.8143 0.8134 0.8125 0.8115 0.8107
1684.000000 0.8099 0.8087 0.8071 0.8057 0.8042
1689.000000 0.8025 0.8011 0.7996 0.7980 0.7964
1694.000000 0.7948 0.7932 0.7915 0.7900 0.7884
1699.000000 0.7868 0.7851 0.7836 0.7815 0.7796
1704.000000 0.7775 0.7755 0.7734 0.7708 0.7665
1709.000000 0.7621 0.7578 0.7521 0.7435 0.7349
1714.000000 0.7261 0.7172 0.6971 0.6754 0.6576
1719.000000 0.6451 0.6325 0.6198 0.6071 0.5943
1724.000000 0.5803 0.5657 0.5251 0.4821 0.4390
1729.000000 0.3959 0.3530 0.3103 0.2818 0.2590
1734.000000 0.2410 0.2276 0.2175 0.2124 0.2125
1739.000000 0.2125 0.2133 0.2217 0.2287 0.2363
1744.000000 0.2451 0.2549 0.3033 0.3692 0.4351
1749.000000 0.5151 0.5569 0.5753 0.5900 0.6283
1754.000000 0.6446 0.6571 0.6712 0.6878 0.7198
1759.000000 0.7380 0.7518 0.7582 0.7645 0.7708
1764.000000 0.7761 0.7812 0.7865 0.7915 0.7944
1769.000000 0.7971 0.8001 0.8028 0.8047 0.8067
1774.000000 0.8086 0.8105 0.8124 0.8143 0.8154
1779.000000 0.8165 0.8175 0.8188 0.8201 0.8214
1784.000000 0.8227 0.8240 0.8249 0.8255 0.8261
1789.000000 0.8267 0.8270 0.8270 0.8271 0.8271
1794.000000 0.8275 0.8281 0.8287 0.8292 0.8296
1799.000000 0.8298 0.8300 0.8302 0.8304 0.8307
1804.000000 0.8309 0.8311 0.8313 0.8315 0.8317
1809.000000 0.8318 0.8318 0.8320 0.8320 0.8320
1814.000000 0.8320 0.8320 0.8320 0.8321 0.8321
1819.000000 0.8321 0.8321 0.8320 0.8318 0.8316
1824.000000 0.8314 0.8313 0.8311 0.8309 0.8307
1829.000000 0.8304 0.8301 0.8298 0.8296 0.8293
1834.000000 0.8290 0.8287 0.8285 0.8283 0.8281
1839.000000 0.8281 0.8281 0.8284 0.8287 0.8291
1844.000000 0.8294 0.8297 0.8303 0.8308 0.8313
1849.000000 0.8318 0.8324 0.8328 0.8332 0.8335
1854.000000 0.8338 0.8341 0.8344 0.8347 0.8350
1859.000000 0.8353 0.8356 0.8358 0.8361 0.8363
1864.000000 0.8365 0.8368 0.8370 0.8373 0.8375
1869.000000 0.8378 0.8381 0.8385 0.8388 0.8392
1874.000000 0.8396 0.8399 0.8403 0.8407 0.8411
1879.000000 0.8414 0.8418 0.8421 0.8425 0.8425
1884.000000 0.8427 0.8428 0.8428 0.8430 0.8431
1889.000000 0.8432 0.8432 0.8431 0.8430 0.8430
1894.000000 0.8428 0.8428 0.8427 0.8425 0.8425
1899.000000 0.8425 0.8425 0.8425 0.8425 0.8425
1904.000000 0.8425 0.8427 0.8427 0.8427 0.8427
1909.000000 0.8427 0.8428 0.8430 0.8432 0.8434
1914.000000 0.8436 0.8438 0.8440 0.8441 0.8443
1919.000000 0.8445 0.8447 0.8449 0.8451 0.8453
1924.000000 0.8454 0.8455 0.8456 0.8458 0.8454
1929.000000 0.8448 0.8442 0.8436 0.8430 0.8424
1934.000000 0.8417 0.8411 0.8405 0.8399 0.8392
1939.000000 0.8386 0.8380 0.8373 0.8367 0.8363
1944.000000 0.8359 0.8366 0.8412 0.8452 0.8482
1949.000000 0.8513 0.8539 0.8509 0.8446 0.8443
1954.000000 0.8449 0.8455 0.8461 0.8467 0.8560
1959.000000 0.9678 0.9628 0.8808 0.8463 0.8438
1964.000000 0.8421 0.8416 0.8411 0.8406 0.8400
1969.000000 0.8389 0.8377 0.8367 0.8358 0.8354
1974.000000 0.8350 0.8347 0.8355 0.8363 0.8374
1979.000000 0.8387 0.8391 0.8389 0.8384 0.8378
1984.000000 0.8373 0.8368 0.8363 0.8358 0.8353
1989.000000 0.8349 0.8345 0.8341 0.8337 0.8334
1994.000000 0.8331 0.8328 0.8323 0.8318 0.8318
1999.000000 0.8321 0.8325 0.8328 0.8332 0.8335
2004.000000 0.8339 0.8342 0.8343 0.8344 0.8344
2009.000000 0.8343 0.8342 0.8338 0.8335 0.8331
2014.000000 0.8328 0.8324 0.8321 0.8317 0.8314
2019.000000 0.8310 0.8310 0.8310 0.8314 0.8338
2024.000000 0.8362 0.8363 0.8364 0.8365 0.8366
2029.000000 0.8367 0.8368 0.8368 0.8370 0.8370
2034.000000 0.8370 0.8370 0.8371 0.8371 0.8371
2039.000000 0.8371 0.8371 0.8371 0.8371 0.8371
2044.000000 0.8371 0.8371 0.8371 0.8371 0.8371
2049.000000 0.8368 0.8367 0.8359 0.8351 0.8342
2054.000000 0.8334 0.8325 0.8318 0.8315 0.8313
2059.000000 0.8311 0.8309 0.8307 0.8305 0.8311
2064.000000 0.8317 0.8335 0.8353 0.8374 0.8396
2069.000000 0.8402 0.8409 0.8411 0.8413 0.8415
2074.000000 0.8417 0.8418 0.8421 0.8423 0.8424
2079.000000 0.8423 0.8423 0.8421 0.8421 0.8421
2084.000000 0.8420 0.8418 0.8418 0.8417 0.8416
2089.000000 0.8415 0.8415 0.8414 0.8414 0.8414
2094.000000 0.8414 0.8414 0.8414 0.8414 0.8414
2099.000000 0.8413 0.8413 0.8413 0.8413 0.8413
2104.000000 0.8413 0.8413 0.8413 0.8413 0.8413
2109.000000 0.8412 0.8412 0.8412 0.8412 0.8411
2114.000000 0.8411 0.8411 0.8411 0.8410 0.8410
2119.000000 0.8410 0.8410 0.8410 0.8410 0.8409
2124.000000 0.8409 0.8409 0.8409 0.8408 0.8408
2129.000000 0.8408 0.8408 0.8407 0.8407 0.8407
2134.000000 0.8407 0.8406 0.8406 0.8406 0.8406
2139.000000 0.8405 0.8405 0.8405 0.8405 0.8405
2144.000000 0.8405 0.8405 0.8406 0.8406 0.8407
2149.000000 0.8408 0.8409 0.8409 0.8410 0.8410
2154.000000 0.8411 0.8411 0.8412 0.8412 0.8413
2159.000000 0.8413 0.8414 0.8414 0.8415 0.8415
2164.000000 0.8416 0.8416 0.8417 0.8418 0.8418
2169.000000 0.8420 0.8421 0.8421 0.8423 0.8424
2174.000000 0.8425 0.8425 0.8427 0.8428 0.8428
2179.000000 0.8430 0.8431 0.8432 0.8433 0.8433
2184.000000 0.8434 0.8435 0.8436 0.8437 0.8438
2189.000000 0.8438 0.8438 0.8438 0.8439 0.8439
2194.000000 0.8439 0.8439 0.8440 0.8440 0.8440
2199.000000 0.8440 0.8440 0.8440 0.8441 0.8441
2204.000000 0.8441 0.8441 0.8441 0.8441 0.8440
2209.000000 0.8437 0.8434 0.8431 0.8428 0.8425
2214.000000 0.8424 0.8421 0.8418 0.8416 0.8414
2219.000000 0.8411 0.8408 0.8407 0.8406 0.8404
2224.000000 0.8403 0.8403 0.8404 0.8405 0.8407
2229.000000 0.8408 0.8409 0.8410 0.8410 0.8410
2234.000000 0.8409 0.8406 0.8404 0.8401 0.8398
2239.000000 0.8395 0.8392 0.8389 0.8387 0.8384
2244.000000 0.8381 0.8377 0.8374 0.8370 0.8367
2249.000000 0.8363 0.8360 0.8356 0.8353 0.8349
2254.000000 0.8346 0.8342 0.8339 0.8335 0.8332
2259.000000 0.8328 0.8325 0.8320 0.8316 0.8310
2264.000000 0.8305 0.8300 0.8295 0.8290 0.8285
2269.000000 0.8278 0.8274 0.8268 0.8264 0.8259
2274.000000 0.8255 0.8250 0.8245 0.8240 0.8236
2279.000000 0.8231 0.8225 0.8221 0.8217 0.8212
2284.000000 0.8207 0.8202 0.8198 0.8194 0.8190
2289.000000 0.8189 0.8189 0.8188 0.8188 0.8187
2294.000000 0.8187 0.8186 0.8186 0.8186 0.8186
2299.000000 0.8189 0.8192 0.8194 0.8197 0.8200
2304.000000 0.8203 0.8209 0.8216 0.8227 0.8239
2309.000000 0.8251 0.8263 0.8275 0.8288 0.8301
2314.000000 0.8314 0.8328 0.8344 0.8345 0.8347
2319.000000 0.8349 0.8349 0.8348 0.8345 0.8333
2324.000000 0.8321 0.8312 0.8303 0.8305 0.8308
2329.000000 0.8312 0.8316 0.8325 0.8335 0.8342
2334.000000 0.8350 0.8352 0.8354 0.8357 0.8360
2339.000000 0.8363 0.8366 0.8368 0.8371 0.8375
2344.000000 0.8378 0.8380 0.8383 0.8386 0.8389
2349.000000 0.8391 0.8393 0.8393 0.8394 0.8394
2354.000000 0.8395 0.8395 0.8396 0.8396 0.8397
2359.000000 0.8397 0.8398 0.8398 0.8399 0.8399
2364.000000 0.8399 0.8399 0.8399 0.8397 0.8395
2369.000000 0.8393 0.8391 0.8391 0.8391 0.8391
2374.000000 0.8391 0.8391 0.8392 0.8392 0.8392
2379.000000 0.8393 0.8395 0.8398 0.8402 0.8406
2384.000000 0.8410 0.8413 0.8417 0.8420 0.8424
2389.000000 0.8427 0.8431 0.8434 0.8438 0.8440
2394.000000 0.8443 0.8445 0.8448 0.8450 0.8453
2399.000000 0.8456 0.8459 0.8461 0.8464 0.8466
2404.000000 0.8468 0.8471 0.8473 0.8473 0.8474
2409.000000 0.8474 0.8474 0.8474 0.8475 0.8475
2414.000000 0.8475 0.8475 0.8477 0.8477 0.8478
2419.000000 0.8478 0.8478 0.8478 0.8478 0.8478
2424.000000 0.8480 0.8480 0.8481 0.8481 0.8482
2429.000000 0.8482 0.8482 0.8482 0.8483 0.8483
2434.000000 0.8484 0.8484 0.8485 0.8485 0.8486
2439.000000 0.8486 0.8487 0.8487 0.8488 0.8488
2444.000000 0.8489 0.8489 0.8490 0.8490 0.8491
2449.000000 0.8492 0.8493 0.8493 0.8494 0.8495
2454.000000 0.8496 0.8496 0.8497 0.8498 0.8499
2459.000000 0.8499 0.8500 0.8500 0.8501 0.8502
2464.000000 0.8503 0.8503 0.8504 0.8505 0.8506
2469.000000 0.8506 0.8506 0.8506 0.8506 0.8506
2474.000000 0.8506 0.8506 0.8506 0.8506 0.8506
2479.000000 0.8506 0.8506 0.8506 0.8506 0.8506
2484.000000 0.8506 0.8506 0.8506 0.8506 0.8506
2489.000000 0.8506 0.8506 0.8505 0.8505 0.8505
2494.000000 0.8505 0.8505 0.8506 0.8506 0.8506
2499.000000 0.8506 0.8506 0.8506 0.8506 0.8506
2504.000000 0.8507 0.8507 0.8507 0.8507 0.8507
2509.000000 0.8507 0.8507 0.8507 0.8508 0.8508
2514.000000 0.8508 0.8508 0.8508 0.8508 0.8508
2519.000000 0.8508 0.8509 0.8509 0.8509 0.8509
2524.000000 0.8509 0.8509 0.8509 0.8509 0.8509
2529.000000 0.8509 0.8509 0.8509 0.8509 0.8509
2534.000000 0.8509 0.8509 0.8509 0.8509 0.8509
2539.000000 0.8509 0.8509 0.8509 0.8509 0.8509
2544.000000 0.8509 0.8509 0.8509 0.8509 0.8509
2549.000000 0.8509 0.8509 0.8509 0.8509 0.8509
2554.000000 0.8509 0.8509 0.8509 0.8509 0.8509
2559.000000 0.8509 0.8509 0.8509 0.8509 0.8509
2564.000000 0.8509 0.8509 0.8509 0.8509 0.8509
2569.000000 0.8509 0.8509 0.8509 0.8510 0.8510
2574.000000 0.8511 0.8511 0.8511 0.8511 0.8512
2579.000000 0.8512 0.8513 0.8513 0.8513 0.8513
2584.000000 0.8514 0.8514 0.8515 0.8515 0.8516
2589.000000 0.8516 0.8516 0.8516 0.8517 0.8517
2594.000000 0.8518 0.8518 0.8518 0.8518 0.8518
2599.000000 0.8518 0.8520 0.8520 0.8520 0.8520
2604.000000 0.8521 0.8521 0.8521 0.8521 0.8521
2609.000000 0.8521 0.8521 0.8521 0.8523 0.8523
2614.000000 0.8523 0.8523 0.8523 0.8523 0.8523
2619.000000 0.8523 0.8524 0.8524 0.8524 0.8524
2624.000000 0.8524 0.8524 0.8524 0.8524 0.8525
2629.000000 0.8525 0.8525 0.8525 0.8525 0.8525
2634.000000 0.8525 0.8525 0.8525 0.8525 0.8525
2639.000000 0.8524 0.8524 0.8523 0.8523 0.8523
2644.000000 0.8523 0.8521 0.8521 0.8521 0.8521
2649.000000 0.8520 0.8520 0.8518 0.8518 0.8518
2654.000000 0.8518 0.8518 0.8518 0.8517 0.8517
2659.000000 0.8517 0.8517 0.8517 0.8518 0.8518
2664.000000 0.8518 0.8518 0.8518 0.8518 0.8520
2669.000000 0.8520 0.8521 0.8521 0.8521 0.8521
2674.000000 0.8521 0.8521 0.8523 0.8523 0.8524
2679.000000 0.8524 0.8524 0.8524 0.8525 0.8525
2684.000000 0.8525 0.8525 0.8527 0.8527 0.8528
2689.000000 0.8528 0.8530 0.8530 0.8531 0.8531
2694.000000 0.8532 0.8533 0.8534 0.8534 0.8535
2699.000000 0.8536 0.8537 0.8537 0.8538 0.8538
2704.000000 0.8539 0.8540 0.8541 0.8541 0.8542
2709.000000 0.8543 0.8544 0.8545 0.8546 0.8547
2714.000000 0.8548 0.8549 0.8551 0.8552 0.8553
2719.000000 0.8554 0.8555 0.8556 0.8558 0.8559
2724.000000 0.8560 0.8561 0.8562 0.8563 0.8564
2729.000000 0.8565 0.8567 0.8568 0.8568 0.8568
2734.000000 0.8570 0.8571 0.8571 0.8573 0.8574
2739.000000 0.8575 0.8575 0.8575 0.8575 0.8575
2744.000000 0.8575 0.8574 0.8574 0.8573 0.8573
2749.000000 0.8571 0.8571 0.8570 0.8570 0.8568
2754.000000 0.8568 0.8568 0.8568 0.8567 0.8567
2759.000000 0.8566 0.8566 0.8565 0.8565 0.8564
2764.000000 0.8564 0.8563 0.8563 0.8562 0.8562
2769.000000 0.8562 0.8562 0.8562 0.8563 0.8563
2774.000000 0.8564 0.8564 0.8565 0.8565 0.8566
2779.000000 0.8566 0.8567 0.8567 0.8568 0.8568
2784.000000 0.8568 0.8570 0.8571 0.8573 0.8574
2789.000000 0.8575 0.8577 0.8578 0.8580 0.8581
2794.000000 0.8583 0.8584 0.8585 0.8586 0.8587
2799.000000 0.8587 0.8587 0.8586 0.8586 0.8586
2804.000000 0.8586 0.8586 0.8586 0.8585 0.8585
2809.000000 0.8584 0.8584 0.8583 0.8583 0.8582
2814.000000 0.8581 0.8580 0.8580 0.8578 0.8578
2819.000000 0.8578 0.8578 0.8577 0.8577 0.8575
2824.000000 0.8575 0.8574 0.8573 0.8571 0.8571
2829.000000 0.8570 0.8568 0.8568 0.8568 0.8567
2834.000000 0.8566 0.8564 0.8563 0.8561 0.8560
2839.000000 0.8559 0.8558 0.8546 0.8535 0.8523
2844.000000 0.8511 0.8500 0.8489 0.8477 0.8466
2849.000000 0.8454 0.8443 0.8431 0.8420 0.8408
2854.000000 0.8397 0.8385 0.8373 0.8366 0.8359
2859.000000 0.8353 0.8348 0.8342 0.8336 0.8330
2864.000000 0.8325 0.8325 0.8325 0.8330 0.8335
2869.000000 0.8340 0.8345 0.8350 0.8356 0.8362
2874.000000 0.8368 0.8370 0.8373 0.8374 0.8373
2879.000000 0.8371 0.8370 0.8361 0.8353 0.8345
2884.000000 0.8337 0.8327 0.8318 0.8308 0.8299
2889.000000 0.8289 0.8280 0.8273 0.8266 0.8260
2894.000000 0.8255 0.8249 0.8243 0.8242 0.8241
2899.000000 0.8241 0.8242 0.8258 0.8274 0.8298
2904.000000 0.8323 0.8347 0.8371 0.8390 0.8409
2909.000000 0.8420 0.8431 0.8431 0.8432 0.8432
2914.000000 0.8432 0.8427 0.8423 0.8413 0.8404
2919.000000 0.8386 0.8368 0.8350 0.8332 0.8312
2924.000000 0.8293 0.8275 0.8259 0.8246 0.8233
2929.000000 0.8220 0.8208 0.8195 0.8182 0.8171
2934.000000 0.8160 0.8180 0.8200 0.8252 0.8304
2939.000000 0.8323 0.8342 0.8349 0.8357 0.8354
2944.000000 0.8352 0.8347 0.8342 0.8336 0.8331
2949.000000 0.8321 0.8314 0.8296 0.8278 0.8253
2954.000000 0.8228 0.8207 0.8187 0.8168 0.8151
2959.000000 0.8134 0.8117 0.8100 0.8083 0.8068
2964.000000 0.8053 0.8038 0.8022 0.8005 0.7987
2969.000000 0.7965 0.7946 0.7900 0.7854 0.7799
2974.000000 0.7745 0.7695 0.7645 0.7600 0.7555
2979.000000 0.7522 0.7491 0.7494 0.7497 0.7501
2984.000000 0.7484 0.7535 0.7565 0.7601 0.7637
2989.000000 0.7672 0.7710 0.7761 0.7812 0.7875
2994.000000 0.7939 0.8001 0.8065 0.8121 0.8175
2999.000000 0.8205 0.8235 0.8265 0.8295 0.8317
3004.000000 0.8339 0.8361 0.8384 0.8406 0.8428
3009.000000 0.8449 0.8471 0.8492 0.8513 0.8531
3014.000000 0.8549 0.8558 0.8567 0.8575 0.8585
3019.000000 0.8588 0.8592 0.8593 0.8595 0.8596
3024.000000 0.8598 0.8599 0.8600 0.8601 0.8603
3029.000000 0.8604 0.8606 0.8607 0.8608 0.8609
3034.000000 0.8611 0.8612 0.8613 0.8614 0.8616
3039.000000 0.8617 0.8618 0.8620 0.8618 0.8618
3044.000000 0.8615 0.8611 0.8608 0.8604 0.8601
3049.000000 0.8597 0.8594 0.8590 0.8587 0.8581
3054.000000 0.8575 0.8571 0.8566 0.8561 0.8556
3059.000000 0.8550 0.8545 0.8540 0.8535 0.8533
3064.000000 0.8531 0.8530 0.8530 0.8528 0.8528
3069.000000 0.8531 0.8533 0.8541 0.8550 0.8559
3074.000000 0.8568 0.8578 0.8589 0.8598 0.8607
3079.000000 0.8615 0.8623 0.8631 0.8639 0.8646
3084.000000 0.8653 0.8657 0.8661 0.8665 0.8670
3089.000000 0.8674 0.8678 0.8682 0.8687 0.8691
3094.000000 0.8695 0.8698 0.8702 0.8704 0.8706
3099.000000 0.8708 0.8711 0.8713 0.8715 0.8717
3104.000000 0.8718 0.8721 0.8724 0.8725 0.8727
3109.000000 0.8728 0.8728 0.8730 0.8731 0.8732
3114.000000 0.8734 0.8735 0.8736 0.8737 0.8738
3119.000000 0.8739 0.8741 0.8742 0.8743 0.8744
3124.000000 0.8745 0.8745 0.8746 0.8747 0.8748
3129.000000 0.8748 0.8749 0.8750 0.8751 0.8751
3134.000000 0.8752 0.8753 0.8754 0.8754 0.8755
3139.000000 0.8756 0.8757 0.8757 0.8758 0.8759
3144.000000 0.8760 0.8760 0.8761 0.8762 0.8763
3149.000000 0.8763 0.8764 0.8765 0.8766 0.8766
3154.000000 0.8767 0.8767 0.8768 0.8768 0.8770
3159.000000 0.8770 0.8771 0.8771 0.8771 0.8771
3164.000000 0.8773 0.8773 0.8774 0.8774 0.8775
3169.000000 0.8775 0.8775 0.8775 0.8775 0.8775
3174.000000 0.8777 0.8777 0.8778 0.8778 0.8778
3179.000000 0.8778 0.8778 0.8778 0.8780 0.8780
3184.000000 0.8781 0.8781 0.8782 0.8782 0.8783
3189.000000 0.8783 0.8784 0.8785 0.8786 0.8786
3194.000000 0.8787 0.8787 0.8788 0.8788 0.8789
3199.000000 0.8789 0.8790 0.8791 0.8792 0.8792
3204.000000 0.8793 0.8793 0.8794 0.8794 0.8795
3209.000000 0.8795 0.8796 0.8796 0.8797 0.8797
3214.000000 0.8798 0.8798 0.8799 0.8799 0.8800
3219.000000 0.8800 0.8801 0.8801 0.8802 0.8802
3224.000000 0.8803 0.8803 0.8804 0.8804 0.8805
3229.000000 0.8805 0.8806 0.8806 0.8807 0.8808
3234.000000 0.8809 0.8809 0.8810 0.8810 0.8809
3239.000000 0.8812 0.8813 0.8814 0.8815 0.8815
3244.000000 0.8816 0.8817 0.8818 0.8818 0.8818
3249.000000 0.8820 0.8821 0.8821 0.8821 0.8823
3254.000000 0.8824 0.8824 0.8825 0.8825 0.8827
3259.000000 0.8828 0.8828 0.8830 0.8831 0.8832
3264.000000 0.8833 0.8833 0.8834 0.8835 0.8836
3269.000000 0.8837 0.8838 0.8839 0.8840 0.8841
3274.000000 0.8842 0.8842 0.8843 0.8844 0.8845
3279.000000 0.8845 0.8845 0.8845 0.8846 0.8846
3284.000000 0.8847 0.8847 0.8848 0.8848 0.8849
3289.000000 0.8849 0.8849 0.8849 0.8850 0.8850
3294.000000 0.8851 0.8851 0.8852 0.8852 0.8853
3299.000000 0.8853 0.8853 0.8853 0.8853 0.8853
3304.000000 0.8853 0.8852 0.8852 0.8851 0.8851
3309.000000 0.8850 0.8850 0.8850 0.8850 0.8849
3314.000000 0.8849 0.8848 0.8848 0.8847 0.8847
3319.000000 0.8846 0.8846 0.8846 0.8846 0.8845
3324.000000 0.8845 0.8844 0.8844 0.8843 0.8843
3329.000000 0.8843 0.8843 0.8841 0.8840 0.8838
3334.000000 0.8837 0.8836 0.8835 0.8833 0.8832
3339.000000 0.8830 0.8828 0.8827 0.8825 0.8825
3344.000000 0.8824 0.8821 0.8821 0.8818 0.8818
3349.000000 0.8818 0.8818 0.8820 0.8821 0.8821
3354.000000 0.8823 0.8823 0.8824 0.8825 0.8825
3359.000000 0.8827 0.8828 0.8828 0.8831 0.8833
3364.000000 0.8835 0.8836 0.8838 0.8840 0.8842
3369.000000 0.8843 0.8845 0.8847 0.8849 0.8850
3374.000000 0.8852 0.8853 0.8855 0.8855 0.8856
3379.000000 0.8857 0.8858 0.8859 0.8860 0.8860
3384.000000 0.8861 0.8862 0.8863 0.8864 0.8865
3389.000000 0.8865 0.8866 0.8867 0.8868 0.8868
3394.000000 0.8868 0.8868 0.8868 0.8868 0.8868
3399.000000 0.8868 0.8868 0.8868 0.8868 0.8868
3404.000000 0.8868 0.8868 0.8868 0.8868 0.8868
3409.000000 0.8868 0.8868 0.8868 0.8866 0.8864
3414.000000 0.8863 0.8861 0.8859 0.8857 0.8856
3419.000000 0.8854 0.8852 0.8850 0.8848 0.8845
3424.000000 0.8842 0.8839 0.8836 0.8833 0.8830
3429.000000 0.8827 0.8824 0.8821 0.8818 0.8815
3434.000000 0.8812 0.8809 0.8807 0.8805 0.8803
3439.000000 0.8800 0.8798 0.8795 0.8793 0.8790
3444.000000 0.8788 0.8786 0.8785 0.8784 0.8784
3449.000000 0.8783 0.8782 0.8781 0.8780 0.8778
3454.000000 0.8778 0.8778 0.8777 0.8775 0.8775
3459.000000 0.8775 0.8777 0.8778 0.8780 0.8781
3464.000000 0.8783 0.8784 0.8786 0.8787 0.8789
3469.000000 0.8790 0.8792 0.8794 0.8796 0.8798
3474.000000 0.8801 0.8803 0.8806 0.8808 0.8811
3479.000000 0.8813 0.8816 0.8818 0.8821 0.8823
3484.000000 0.8825 0.8828 0.8830 0.8831 0.8833
3489.000000 0.8834 0.8835 0.8836 0.8838 0.8839
3494.000000 0.8841 0.8841 0.8841 0.8841 0.8841
3499.000000 0.8840 0.8840 0.8839 0.8839 0.8838
3504.000000 0.8837 0.8836 0.8836 0.8835 0.8835
3509.000000 0.8834 0.8833 0.8832 0.8832 0.8831
3514.000000 0.8831 0.8831 0.8831 0.8830 0.8830
3519.000000 0.8830 0.8830 0.8828 0.8828 0.8828
3524.000000 0.8828 0.8828 0.8828 0.8827 0.8827
3529.000000 0.8825 0.8825 0.8825 0.8825 0.8825
3534.000000 0.8825 0.8824 0.8824 0.8824 0.8824
3539.000000 0.8823 0.8823 0.8823 0.8823 0.8821
3544.000000 0.8821 0.8821 0.8821 0.8821 0.8821
3549.000000 0.8821 0.8821 0.8820 0.8820 0.8820
3554.000000 0.8820 0.8818 0.8818 0.8818 0.8818
3559.000000 0.8818 0.8818 0.8818 0.8818 0.8818
3564.000000 0.8818 0.8817 0.8817 0.8817 0.8817
3569.000000 0.8817 0.8817 0.8817 0.8817 0.8817
3574.000000 0.8817 0.8817 0.8817 0.8817 0.8817
3579.000000 0.8817 0.8818 0.8818 0.8818 0.8818
3584.000000 0.8818 0.8818 0.8818 0.8818 0.8818
3589.000000 0.8818 0.8818 0.8818 0.8818 0.8817
3594.000000 0.8817 0.8816 0.8816 0.8815 0.8815
3599.000000 0.8814 0.8814 0.8813 0.8813 0.8812
3604.000000 0.8812 0.8811 0.8811 0.8810 0.8810
3609.000000 0.8809 0.8809 0.8808 0.8808 0.8807
3614.000000 0.8807 0.8806 0.8806 0.8805 0.8805
3619.000000 0.8804 0.8804 0.8804 0.8804 0.8803
3624.000000 0.8803 0.8802 0.8802 0.8802 0.8802
3629.000000 0.8801 0.8801 0.8800 0.8800 0.8799
3634.000000 0.8799 0.8799 0.8799 0.8798 0.8798
3639.000000 0.8797 0.8797 0.8797 0.8798 0.8798
3644.000000 0.8798 0.8798 0.8799 0.8799 0.8799
3649.000000 0.8799 0.8800 0.8800 0.8800 0.8800
3654.000000 0.8801 0.8801 0.8801 0.8801 0.8802
3659.000000 0.8802 0.8802 0.8802 0.8803 0.8803
3664.000000 0.8803 0.8803 0.8804 0.8804 0.8804
3669.000000 0.8804 0.8805 0.8805 0.8806 0.8806
3674.000000 0.8807 0.8807 0.8807 0.8807 0.8808
3679.000000 0.8808 0.8809 0.8809 0.8810 0.8810
3684.000000 0.8810 0.8810 0.8811 0.8811 0.8812
3689.000000 0.8812 0.8813 0.8813 0.8813 0.8813
3694.000000 0.8814 0.8814 0.8815 0.8815 0.8815
3699.000000 0.8815 0.8815 0.8815 0.8815 0.8814
3704.000000 0.8814 0.8814 0.8814 0.8814 0.8814
3709.000000 0.8813 0.8813 0.8813 0.8813 0.8813
3714.000000 0.8813 0.8813 0.8813 0.8812 0.8812
3719.000000 0.8812 0.8812 0.8812 0.8812 0.8811
3724.000000 0.8811 0.8811 0.8811 0.8811 0.8811
3729.000000 0.8811 0.8811 0.8810 0.8810 0.8810
3734.000000 0.8810 0.8810 0.8810 0.8809 0.8809
3739.000000 0.8808 0.8807 0.8806 0.8806 0.8805
3744.000000 0.8805 0.8804 0.8804 0.8803 0.8803
3749.000000 0.8802 0.8802 0.8801 0.8801 0.8800
3754.000000 0.8800 0.8800 0.8801 0.8801 0.8802
3759.000000 0.8802 0.8803 0.8803 0.8803 0.8803
3764.000000 0.8804 0.8804 0.8805 0.8805 0.8806
3769.000000 0.8806 0.8807 0.8807 0.8807 0.8807
3774.000000 0.8807 0.8806 0.8806 0.8806 0.8806
3779.000000 0.8806 0.8806 0.8805 0.8805 0.8805
3784.000000 0.8805 0.8805 0.8805 0.8804 0.8804
3789.000000 0.8804 0.8804 0.8804 0.8804 0.8803
3794.000000 0.8803 0.8803 0.8803 0.8803 0.8803
##END=
