##TITLE=TOLUENE, o-ETHYL
##JCAMP-DX=4.24
##DATA TYPE=INFRARED SPECTRUM
##CLASS=COBLENTZ
##ORIGIN=DOW CORNING CORP.
##OWNER=COBLENTZ SOCIETY
Collection (C) 2018 copyright by the U.S. Secretary of Commerce
on behalf of the United States of America. All rights reserved.
##DATE=Not specified, most likely prior to 1970
##NAMES=1-ethyl-2-methylbenzene
##CAS REGISTRY NO=611-14-3
##MOLFORM=C9 H12
##SOURCE REFERENCE=COBLENTZ NO. 4771
##$NIST SOURCE=COBLENTZ
##$NIST IMAGE=cob4771
##SPECTROMETER/DATA SYSTEM=Not specified, most likely a grating or hybrid spectrometer.
##STATE=SOLUTION (10% IN CCl4 FOR 3800-1300, 10% IN CS2 FOR 1300-650, AND 10% CCl4 FPR 650-220 CM^-^1) VERSUS SOLVENT
##PATH LENGTH=0.011, 0.010, AND 0.010 CM (CsBr CELL)
$$ SEE SPECTRUM NO. 3583 FOR LIQUID (NEAT) STATE
##SAMPLING PROCEDURE=TRANSMISSION
##RESOLUTION=4
##DATA PROCESSING=DIGITIZED BY NIST FROM HARD COPY (FROM TWO SEGMENTS)
##XUNITS=1/CM
##YUNITS=TRANSMITTANCE
##XFACTOR=1.000000
##YFACTOR=1
##DELTAX=1.277503
##FIRSTX=234.493
##LASTX=3788.51
##FIRSTY=0.804
##MAXX=3788.51
##MINX=234.493
##MAXY=1
##MINY=0.0419054
##NPOINTS=2783
##XYDATA=(X++(Y..Y))
234.493000 0.8040 0.8030 0.8040 0.8030 0.8030
240.880514 0.8010 0.7970 0.7970 0.7970 0.7990
247.268028 0.8010 0.8010 0.8010 0.7990 0.7970
253.655542 0.7970 0.7960 0.7960 0.7960 0.7960
260.043056 0.7960 0.7960 0.7960 0.7960 0.7960
266.430570 0.7960 0.7960 0.7970 0.7970 0.7960
272.818084 0.7960 0.7960 0.7960 0.7960 0.7960
279.205598 0.7960 0.7960 0.7960 0.7960 0.7970
285.593112 0.7970 0.7970 0.7970 0.7970 0.7990
291.980625 0.7990 0.8010 0.8030 0.8040 0.8060
298.368139 0.8060 0.8060 0.8040 0.8040 0.8040
304.755653 0.8040 0.8030 0.8010 0.8030 0.8040
311.143167 0.8040 0.8040 0.8030 0.8030 0.8010
317.530681 0.8010 0.8010 0.8030 0.8040 0.8110
323.918195 0.8180 0.8270 0.8290 0.8310 0.8310
330.305709 0.8340 0.8340 0.8370 0.8370 0.8370
336.693223 0.8390 0.8430 0.8430 0.8440 0.8440
343.080737 0.8440 0.8460 0.8460 0.8480 0.8480
349.468251 0.8500 0.8500 0.8510 0.8510 0.8530
355.855765 0.8530 0.8550 0.8550 0.8550 0.8570
362.243279 0.8570 0.8570 0.8570 0.8570 0.8580
368.630793 0.8580 0.8580 0.8580 0.8580 0.8580
375.018307 0.8580 0.8580 0.8580 0.8580 0.8600
381.405821 0.8620 0.8620 0.8640 0.8650 0.8650
387.793335 0.8640 0.8640 0.8620 0.8600 0.8600
394.180849 0.8600 0.8580 0.8580 0.8580 0.8580
400.568362 0.8550 0.8530 0.8510 0.8510 0.8510
406.955876 0.8530 0.8550 0.8570 0.8570 0.8570
413.343390 0.8570 0.8580 0.8580 0.8580 0.8580
419.730904 0.8570 0.8550 0.8530 0.8500 0.8440
426.118418 0.8410 0.8410 0.8340 0.8270 0.8100
432.505932 0.7970 0.7900 0.7771 0.7750 0.7750
438.893446 0.7800 0.7820 0.7820 0.7800 0.7750
445.280960 0.7660 0.7540 0.7192 0.6812 0.6184
451.668474 0.5920 0.5540 0.5540 0.6388 0.6560
458.055988 0.7168 0.7748 0.7959 0.8149 0.8309
464.443502 0.8460 0.8500 0.8530 0.8600 0.8690
470.831016 0.8720 0.8740 0.8740 0.8740 0.8740
477.218530 0.8740 0.8760 0.8780 0.8790 0.8830
483.606044 0.8830 0.8850 0.8850 0.8850 0.8830
489.993558 0.8810 0.8790 0.8710 0.8690 0.8670
496.381072 0.8640 0.8580 0.8580 0.8600 0.8620
502.768586 0.8650 0.8670 0.8690 0.8760 0.8830
509.156100 0.8850 0.8850 0.8850 0.8850 0.8860
515.543613 0.8860 0.8860 0.8880 0.8880 0.8880
521.931127 0.8880 0.8900 0.8900 0.8900 0.8900
528.318641 0.8880 0.8860 0.8850 0.8850 0.8830
534.706155 0.8810 0.8810 0.8810 0.8790 0.8760
541.093669 0.8720 0.8710 0.8690 0.8600 0.8570
547.481183 0.8480 0.8360 0.8250 0.8101 0.8100
553.868697 0.8200 0.8290 0.8460 0.8570 0.8670
560.256211 0.8720 0.8740 0.8760 0.8780 0.8790
566.643725 0.8790 0.8790 0.8810 0.8810 0.8810
573.031239 0.8790 0.8790 0.8790 0.8780 0.8760
579.418753 0.8720 0.8670 0.8600 0.8530 0.8360
585.806267 0.8181 0.8170 0.8359 0.8390 0.8788
592.193781 0.8830 0.8860 0.8930 0.8930 0.8950
598.581295 0.8950 0.8950 0.8950 0.8950 0.8950
604.968809 0.8950 0.8930 0.8930 0.8910 0.8910
611.356323 0.8910 0.8910 0.8910 0.8930 0.8950
617.743837 0.8970 0.9070 0.9180 0.9190 0.9210
624.131350 0.9210 0.9210 0.9210 0.9210 0.9210
630.518864 0.9210 0.9190 0.9190 0.9190 0.9190
636.906378 0.9190 0.9190 0.9180 0.9180 0.9180
643.293892 0.9190 0.9190 0.9210 0.9250 0.9260
649.681406 0.9509 0.9719 0.9770 0.9770 0.9790
656.068920 0.9790 0.9790 0.9800 0.9800 0.9800
662.456434 0.9820 0.9840 0.9860 0.9870 0.9890
668.843948 0.9890 0.9890 0.9890 0.9890 0.9910
675.231462 0.9930 0.9960 0.9980 0.9980 0.9980
681.618976 0.9980 0.9940 0.9930 0.9910 0.9910
688.006490 0.9910 0.9910 0.9910 0.9890 0.9890
694.394004 0.9890 0.9890 0.9890 0.9910 0.9910
700.781518 0.9890 0.9890 0.9890 0.9890 0.9890
707.169032 0.9890 0.9890 0.9870 0.9860 0.9820
713.556546 0.9800 0.9790 0.9750 0.9680 0.9591
719.944060 0.9390 0.8970 0.8830 0.8570 0.8510
726.331574 0.8340 0.8240 0.7852 0.7452 0.6744
732.719087 0.5329 0.4260 0.3101 0.1652 0.1650
739.106601 0.2189 0.2917 0.2920 0.2731 0.2611
745.494115 0.2470 0.2470 0.3030 0.3599 0.4748
751.881629 0.4770 0.4700 0.4391 0.3932 0.2647
758.269143 0.2160 0.1630 0.0591 0.0590 0.1229
764.656657 0.1878 0.2518 0.3078 0.4712 0.5774
771.044171 0.6841 0.7450 0.7990 0.8270 0.8510
777.431685 0.8690 0.8810 0.8930 0.8970 0.8970
783.819199 0.8950 0.8930 0.8850 0.8780 0.8650
790.206713 0.8480 0.8321 0.8171 0.8130 0.7971
796.594227 0.7830 0.7590 0.7430 0.7400 0.7420
802.981741 0.7709 0.8009 0.8309 0.8549 0.9117
809.369255 0.9330 0.9510 0.9650 0.9650 0.9700
815.756769 0.9700 0.9700 0.9680 0.9650 0.9630
822.144283 0.9590 0.9560 0.9470 0.9350 0.9210
828.531797 0.9210 0.9330 0.9579 0.9699 0.9790
834.919311 0.9820 0.9840 0.9870 0.9890 0.9890
841.306825 0.9890 0.9890 0.9890 0.9910 0.9910
847.694338 0.9910 0.9930 0.9930 0.9910 0.9890
854.081852 0.9870 0.9840 0.9790 0.9730 0.9660
860.469366 0.9630 0.9580 0.9560 0.9560 0.9560
866.856880 0.9580 0.9590 0.9630 0.9720 0.9819
873.244394 0.9870 0.9870 0.9890 0.9890 0.9910
879.631908 0.9930 0.9940 0.9940 0.9960 0.9980
886.019422 0.9980 1.0000 1.0000 1.0000 1.0000
892.406936 1.0000 1.0000 1.0000 1.0000 0.9980
898.794450 0.9960 0.9960 0.9960 0.9960 0.9960
905.181964 0.9930 0.9930 0.9930 0.9930 0.9930
911.569478 0.9910 0.9910 0.9910 0.9910 0.9890
917.956992 0.9890 0.9870 0.9860 0.9860 0.9840
924.344506 0.9840 0.9820 0.9800 0.9770 0.9720
930.732020 0.9700 0.9680 0.9650 0.9451 0.9231
937.119534 0.9190 0.9110 0.9090 0.8251 0.8250
943.507048 0.9117 0.9508 0.9560 0.9580 0.9610
949.894562 0.9610 0.9590 0.9590 0.9580 0.9580
956.282075 0.9520 0.9440 0.9390 0.9350 0.9211
962.669589 0.9020 0.8880 0.8580 0.8390 0.8320
969.057103 0.8320 0.8639 0.8859 0.8969 0.9109
975.444617 0.9140 0.9140 0.9180 0.9180 0.9160
981.832131 0.9160 0.9180 0.9190 0.9210 0.9299
988.219645 0.9320 0.9330 0.9370 0.9370 0.9400
994.607159 0.9440 0.9520 0.9540 0.9540 0.9560
1000.994673 0.9590 0.9610 0.9610 0.9630 0.9630
1007.382187 0.9650 0.9650 0.9650 0.9650 0.9630
1013.769701 0.9610 0.9610 0.9610 0.9580 0.9540
1020.157215 0.9490 0.9420 0.9370 0.9330 0.9181
1026.544729 0.9090 0.8980 0.8790 0.8510 0.8221
1032.932243 0.7831 0.7471 0.7261 0.7260 0.7379
1039.319757 0.7900 0.8340 0.8530 0.8740 0.8760
1045.707271 0.8790 0.8790 0.8740 0.8670 0.8581
1052.094785 0.8500 0.8410 0.8310 0.8130 0.7960
1058.482299 0.7611 0.7221 0.6822 0.6352 0.5903
1064.869812 0.5900 0.6130 0.6979 0.7399 0.7919
1071.257326 0.8478 0.8928 0.9159 0.9419 0.9470
1077.644840 0.9490 0.9540 0.9560 0.9630 0.9680
1084.032354 0.9700 0.9770 0.9800 0.9840 0.9860
1090.419868 0.9860 0.9870 0.9890 0.9890 0.9890
1096.807382 0.9890 0.9910 0.9910 0.9910 0.9890
1103.194896 0.9870 0.9860 0.9840 0.9820 0.9800
1109.582410 0.9790 0.9770 0.9700 0.9660 0.9610
1115.969924 0.9560 0.9420 0.9320 0.9210 0.9070
1122.357438 0.9050 0.9050 0.9040 0.8970 0.8900
1128.744952 0.8780 0.8720 0.8710 0.8720 0.8950
1135.132466 0.9299 0.9449 0.9560 0.9630 0.9650
1141.519980 0.9680 0.9700 0.9700 0.9700 0.9700
1147.907494 0.9700 0.9680 0.9660 0.9650 0.9630
1154.295008 0.9610 0.9610 0.9590 0.9580 0.9560
1160.682522 0.9540 0.9520 0.9520 0.9520 0.9520
1167.070036 0.9520 0.9520 0.9510 0.9510 0.9510
1173.457550 0.9470 0.9440 0.9420 0.9400 0.9400
1179.845063 0.9420 0.9440 0.9470 0.9540 0.9560
1186.232577 0.9590 0.9610 0.9630 0.9650 0.9720
1192.620091 0.9770 0.9770 0.9790 0.9800 0.9800
1199.007605 0.9820 0.9820 0.9800 0.9800 0.9800
1205.395119 0.9790 0.9790 0.9790 0.9790 0.9770
1211.782633 0.9770 0.9750 0.9720 0.9720 0.9720
1218.170147 0.9700 0.9700 0.9700 0.9720 0.9730
1224.557661 0.9730 0.9730 0.9750 0.9750 0.9750
1230.945175 0.9730 0.9720 0.9720 0.9700 0.9680
1237.332689 0.9680 0.9660 0.9650 0.9630 0.9610
1243.720203 0.9590 0.9580 0.9580 0.9580 0.9590
1250.107717 0.9610 0.9610 0.9630 0.9650 0.9660
1256.495231 0.9680 0.9680 0.9700 0.9700 0.9720
1262.882745 0.9720 0.9720 0.9700 0.9700 0.9680
1269.270259 0.9660 0.9630 0.9610 0.9590 0.9580
1275.657773 0.9580 0.9560 0.9520 0.9470 0.9420
1282.045287 0.9390 0.9350 0.9350 0.9330 0.9280
1288.432800 0.9250 0.9190 0.9160 0.9110 0.9070
1294.820314 0.9020 0.8980 0.8930 0.8810 0.8780
1301.207828 0.8760 0.8740 0.8690 0.8650 0.8620
1307.595342 0.8620 0.8600 0.8600 0.8600 0.8600
1313.982856 0.8600 0.8580 0.8580 0.8580 0.8550
1320.370370 0.8510 0.8440 0.8370 0.8360 0.8340
1326.757884 0.8310 0.8310 0.8290 0.8290 0.8310
1333.145398 0.8320 0.8320 0.8320 0.8310 0.8310
1339.532912 0.8270 0.8240 0.8220 0.8180 0.8240
1345.920426 0.8320 0.8460 0.8510 0.8550 0.8570
1352.307940 0.8580 0.8580 0.8580 0.8580 0.8570
1358.695454 0.8550 0.8530 0.8510 0.8500 0.8480
1365.082968 0.8430 0.8390 0.8320 0.8290 0.8200
1371.470482 0.8130 0.7920 0.7700 0.7420 0.7051
1377.857996 0.6681 0.6600 0.6530 0.6460 0.6420
1384.245510 0.6320 0.5950 0.5950 0.6230 0.7029
1390.633024 0.7589 0.7869 0.8129 0.8220 0.8250
1397.020537 0.8310 0.8320 0.8320 0.8320 0.8320
1403.408051 0.8320 0.8320 0.8320 0.8310 0.8310
1409.795565 0.8290 0.8250 0.8240 0.8200 0.8170
1416.183079 0.8150 0.8130 0.8110 0.7971 0.7940
1422.570593 0.7920 0.7900 0.7800 0.7680 0.7560
1428.958107 0.7450 0.7330 0.7260 0.7051 0.6960
1435.345621 0.6910 0.6810 0.6770 0.6740 0.6550
1441.733135 0.6350 0.6300 0.6180 0.6041 0.5761
1448.120649 0.5360 0.5120 0.4870 0.4630 0.4370
1454.508163 0.4180 0.3951 0.3601 0.3391 0.3012
1460.895677 0.2660 0.2380 0.2280 0.2210 0.2190
1467.283191 0.2210 0.2240 0.2360 0.2559 0.2898
1473.670705 0.3200 0.3530 0.4180 0.4680 0.5129
1480.058219 0.5330 0.5519 0.5709 0.5879 0.5900
1486.445733 0.5880 0.5800 0.5690 0.5240 0.4841
1492.833247 0.4251 0.3712 0.3132 0.2523 0.1913
1499.220761 0.1300 0.1301 0.2570 0.3779 0.4978
1505.608275 0.5988 0.6997 0.7279 0.7539 0.7699
1511.995788 0.7850 0.7970 0.8060 0.8130 0.8150
1518.383302 0.8200 0.8340 0.8440 0.8480 0.8500
1524.770816 0.8500 0.8510 0.8510 0.8530 0.8530
1531.158330 0.8580 0.8670 0.8710 0.8710 0.8740
1537.545844 0.8760 0.8780 0.8780 0.8810 0.8830
1543.933358 0.8850 0.8850 0.8860 0.8860 0.8860
1550.320872 0.8860 0.8860 0.8850 0.8860 0.8860
1556.708386 0.8860 0.8880 0.8880 0.8880 0.8880
1563.095900 0.8880 0.8880 0.8880 0.8880 0.8860
1569.483414 0.8850 0.8810 0.8780 0.8760 0.8720
1575.870928 0.8690 0.8670 0.8640 0.8580 0.8500
1582.258442 0.8410 0.8370 0.8360 0.8340 0.8340
1588.645956 0.8360 0.8360 0.8360 0.8340 0.8320
1595.033470 0.8310 0.8290 0.8270 0.8240 0.8220
1601.420984 0.8200 0.8150 0.8100 0.7940 0.7780
1607.808498 0.7591 0.7431 0.7072 0.6931 0.6930
1614.196012 0.7561 0.8030 0.8370 0.8480 0.8500
1620.583525 0.8530 0.8620 0.8670 0.8690 0.8690
1626.971039 0.8720 0.8740 0.8740 0.8760 0.8780
1633.358553 0.8780 0.8790 0.8810 0.8810 0.8810
1639.746067 0.8830 0.8850 0.8860 0.8860 0.8880
1646.133581 0.8880 0.8880 0.8880 0.8880 0.8880
1652.521095 0.8880 0.8880 0.8880 0.8880 0.8860
1658.908609 0.8860 0.8850 0.8850 0.8850 0.8830
1665.296123 0.8830 0.8810 0.8810 0.8810 0.8810
1671.683637 0.8810 0.8810 0.8810 0.8830 0.8830
1678.071151 0.8810 0.8810 0.8810 0.8790 0.8780
1684.458665 0.8780 0.8760 0.8740 0.8720 0.8710
1690.846179 0.8650 0.8640 0.8640 0.8640 0.8650
1697.233693 0.8670 0.8710 0.8720 0.8720 0.8740
1703.621207 0.8740 0.8760 0.8760 0.8760 0.8760
1710.008721 0.8780 0.8780 0.8780 0.8780 0.8780
1716.396235 0.8760 0.8740 0.8720 0.8690 0.8670
1722.783749 0.8650 0.8640 0.8620 0.8620 0.8620
1729.171262 0.8640 0.8640 0.8670 0.8710 0.8720
1735.558776 0.8740 0.8760 0.8780 0.8810 0.8830
1741.946290 0.8860 0.8860 0.8860 0.8880 0.8880
1748.333804 0.8900 0.8900 0.8910 0.8910 0.8930
1754.721318 0.8930 0.8930 0.8950 0.8950 0.8970
1761.108832 0.8970 0.8950 0.8950 0.8950 0.8950
1767.496346 0.8950 0.8950 0.8950 0.8950 0.8930
1773.883860 0.8930 0.8930 0.8910 0.8910 0.8910
1780.271374 0.8910 0.8900 0.8900 0.8900 0.8880
1786.658888 0.8850 0.8850 0.8830 0.8810 0.8711
1793.046402 0.8640 0.8600 0.8510 0.8430 0.8270
1799.433916 0.8240 0.8250 0.8360 0.8430 0.8500
1805.821430 0.8570 0.8620 0.8740 0.8790 0.8880
1812.208944 0.8900 0.8900 0.8910 0.8910 0.8910
1818.596458 0.8910 0.8910 0.8910 0.8900 0.8900
1824.983972 0.8900 0.8900 0.8880 0.8860 0.8810
1831.371486 0.8780 0.8740 0.8710 0.8620 0.8580
1837.759000 0.8580 0.8600 0.8620 0.8690 0.8740
1844.146513 0.8810 0.8900 0.8910 0.8930 0.8970
1850.534027 0.8980 0.8980 0.8980 0.8980 0.8980
1856.921541 0.8980 0.8970 0.8970 0.8950 0.8930
1863.309055 0.8910 0.8900 0.8900 0.8860 0.8830
1869.696569 0.8810 0.8780 0.8740 0.8720 0.8720
1876.084083 0.8720 0.8740 0.8760 0.8790 0.8810
1882.471597 0.8830 0.8850 0.8860 0.8880 0.8880
1888.859111 0.8860 0.8860 0.8850 0.8830 0.8790
1895.246625 0.8740 0.8710 0.8690 0.8640 0.8580
1901.634139 0.8530 0.8510 0.8500 0.8371 0.8271
1908.021653 0.8180 0.8060 0.7960 0.7940 0.7960
1914.409167 0.8030 0.8110 0.8339 0.8529 0.8689
1920.796681 0.8790 0.8850 0.8880 0.8880 0.8900
1927.184195 0.8900 0.8910 0.8910 0.8910 0.8910
1933.571709 0.8910 0.8900 0.8900 0.8880 0.8850
1939.959223 0.8790 0.8720 0.8670 0.8580 0.8530
1946.346737 0.8410 0.8310 0.8290 0.8310 0.8460
1952.734250 0.8530 0.8650 0.8740 0.8810 0.8900
1959.121764 0.8930 0.8950 0.8970 0.8980 0.9000
1965.509278 0.9000 0.9000 0.9020 0.9020 0.9020
1971.896792 0.9020 0.9020 0.9020 0.9020 0.9040
1978.284306 0.9040 0.9040 0.9020 0.9020 0.9020
1984.671820 0.9020 0.9020 0.9020 0.9040 0.9040
1991.059334 0.9040 0.9040 0.9040 0.9040 0.9040
1997.446848 0.9040 0.9040 0.9040 0.9030 0.9020
2003.834362 0.9020 0.9020 0.9030 0.9040 0.9040
2010.221876 0.9040 0.9040 0.9040 0.9040 0.9040
2016.609390 0.9040 0.9040 0.9040 0.9040 0.9040
2022.996904 0.9040 0.9040 0.9040 0.9040 0.9040
2029.384418 0.9045 0.9050 0.9050 0.9050 0.9045
2035.771932 0.9040 0.9040 0.9040 0.9040 0.9040
2042.159446 0.9040 0.9040 0.9040 0.9040 0.9040
2048.546960 0.9040 0.9045 0.9050 0.9045 0.9040
2054.934474 0.9040 0.9040 0.9040 0.9040 0.9040
2061.321987 0.9040 0.9040 0.9040 0.9040 0.9040
2067.709501 0.9040 0.9040 0.9040 0.9040 0.9040
2074.097015 0.9040 0.9040 0.9040 0.9040 0.9040
2080.484529 0.9040 0.9040 0.9040 0.9040 0.9040
2086.872043 0.9040 0.9040 0.9040 0.9040 0.9040
2093.259557 0.9031 0.9021 0.9020 0.9020 0.9011
2099.647071 0.9001 0.9000 0.9000 0.9000 0.9000
2106.034585 0.9009 0.9019 0.9020 0.9020 0.9020
2112.422099 0.9020 0.9020 0.9020 0.9020 0.9020
2118.809613 0.9020 0.9020 0.9029 0.9039 0.9040
2125.197127 0.9040 0.9040 0.9040 0.9040 0.9040
2131.584641 0.9040 0.9040 0.9031 0.9021 0.9020
2137.972155 0.9020 0.9011 0.9001 0.9009 0.9019
2144.359669 0.9020 0.9020 0.9020 0.9020 0.9020
2150.747183 0.9020 0.9020 0.9020 0.9011 0.9001
2157.134697 0.9000 0.9000 0.9000 0.9000 0.9000
2163.522211 0.9000 0.9000 0.9000 0.9000 0.9000
2169.909725 0.9000 0.9000 0.9000 0.9000 0.9000
2176.297238 0.9000 0.9000 0.9000 0.9000 0.9000
2182.684752 0.9000 0.9000 0.9000 0.9000 0.9000
2189.072266 0.9000 0.9000 0.9000 0.8991 0.8981
2195.459780 0.8980 0.8980 0.8989 0.8999 0.8991
2201.847294 0.8981 0.8980 0.8980 0.8980 0.8980
2208.234808 0.8980 0.8980 0.8980 0.8980 0.8980
2214.622322 0.8980 0.8980 0.8980 0.8980 0.8980
2221.009836 0.8980 0.8980 0.8980 0.8980 0.8980
2227.397350 0.8980 0.8980 0.8980 0.8980 0.8980
2233.784864 0.8980 0.8980 0.8980 0.8980 0.8976
2240.172378 0.8971 0.8970 0.8970 0.8970 0.8970
2246.559892 0.8970 0.8970 0.8970 0.8970 0.8970
2252.947406 0.8970 0.8970 0.8970 0.8970 0.8970
2259.334920 0.8974 0.8979 0.8980 0.8980 0.8976
2265.722434 0.8971 0.8970 0.8970 0.8970 0.8970
2272.109948 0.8962 0.8952 0.8942 0.8932 0.8930
2278.497462 0.8930 0.8930 0.8930 0.8930 0.8930
2284.884975 0.8930 0.8930 0.8930 0.8930 0.8938
2291.272489 0.8948 0.8950 0.8950 0.8958 0.8968
2297.660003 0.8974 0.8979 0.8980 0.8980 0.8980
2304.047517 0.8980 0.8980 0.8980 0.8980 0.8980
2310.435031 0.8980 0.8980 0.8980 0.8980 0.8980
2316.822545 0.8980 0.8976 0.8971 0.8970 0.8970
2323.210059 0.8970 0.8970 0.8970 0.8970 0.8974
2329.597573 0.8979 0.8980 0.8980 0.8980 0.8980
2335.985087 0.8988 0.8998 0.8992 0.8982 0.8980
2342.372601 0.8980 0.8980 0.8980 0.8980 0.8980
2348.760115 0.8980 0.8980 0.8980 0.8980 0.8980
2355.147629 0.8980 0.8980 0.8980 0.8980 0.8980
2361.535143 0.8988 0.8998 0.9000 0.9000 0.9000
2367.922657 0.9000 0.9000 0.9000 0.8992 0.8982
2374.310171 0.8980 0.8980 0.8980 0.8980 0.8976
2380.697685 0.8971 0.8962 0.8952 0.8950 0.8950
2387.085199 0.8942 0.8932 0.8930 0.8930 0.8930
2393.472712 0.8930 0.8945 0.8965 0.8970 0.8970
2399.860226 0.8962 0.8952 0.8942 0.8932 0.8930
2406.247740 0.8930 0.8922 0.8912 0.8910 0.8910
2412.635254 0.8910 0.8910 0.8910 0.8910 0.8910
2419.022768 0.8910 0.8910 0.8910 0.8910 0.8910
2425.410282 0.8910 0.8910 0.8910 0.8910 0.8910
2431.797796 0.8910 0.8910 0.8910 0.8910 0.8910
2438.185310 0.8910 0.8910 0.8918 0.8927 0.8937
2444.572824 0.8947 0.8950 0.8950 0.8950 0.8950
2450.960338 0.8950 0.8950 0.8950 0.8950 0.8950
2457.347852 0.8950 0.8950 0.8950 0.8957 0.8967
2463.735366 0.8970 0.8970 0.8963 0.8953 0.8950
2470.122880 0.8950 0.8950 0.8950 0.8950 0.8950
2476.510394 0.8957 0.8967 0.8956 0.8936 0.8930
2482.897908 0.8930 0.8923 0.8913 0.8910 0.8910
2489.285422 0.8910 0.8910 0.8910 0.8910 0.8910
2495.672936 0.8910 0.8910 0.8910 0.8910 0.8910
2502.060450 0.8910 0.8910 0.8910 0.8910 0.8910
2508.447963 0.8910 0.8910 0.8910 0.8917 0.8927
2514.835477 0.8930 0.8930 0.8930 0.8930 0.8930
2521.222991 0.8930 0.8930 0.8930 0.8923 0.8913
2527.610505 0.8910 0.8910 0.8910 0.8910 0.8910
2533.998019 0.8910 0.8910 0.8910 0.8910 0.8910
2540.385533 0.8910 0.8910 0.8917 0.8927 0.8930
2546.773047 0.8930 0.8923 0.8913 0.8910 0.8910
2553.160561 0.8910 0.8910 0.8910 0.8910 0.8910
2559.548075 0.8910 0.8910 0.8910 0.8910 0.8910
2565.935589 0.8910 0.8910 0.8910 0.8910 0.8910
2572.323103 0.8910 0.8907 0.8902 0.8900 0.8900
2578.710617 0.8900 0.8900 0.8903 0.8908 0.8910
2585.098131 0.8910 0.8910 0.8910 0.8910 0.8910
2591.485645 0.8910 0.8910 0.8910 0.8910 0.8910
2597.873159 0.8910 0.8910 0.8910 0.8917 0.8926
2604.260673 0.8924 0.8914 0.8910 0.8910 0.8910
2610.648187 0.8910 0.8910 0.8910 0.8910 0.8910
2617.035700 0.8910 0.8910 0.8910 0.8910 0.8910
2623.423214 0.8910 0.8907 0.8902 0.8900 0.8900
2629.810728 0.8894 0.8884 0.8880 0.8880 0.8880
2636.198242 0.8880 0.8886 0.8896 0.8900 0.8900
2642.585756 0.8903 0.8908 0.8910 0.8910 0.8910
2648.973270 0.8910 0.8910 0.8910 0.8910 0.8910
2655.360784 0.8910 0.8910 0.8916 0.8926 0.8930
2661.748298 0.8930 0.8930 0.8930 0.8924 0.8914
2668.135812 0.8910 0.8910 0.8910 0.8910 0.8910
2674.523326 0.8910 0.8910 0.8910 0.8910 0.8910
2680.910840 0.8916 0.8926 0.8930 0.8930 0.8930
2687.298354 0.8930 0.8924 0.8914 0.8910 0.8910
2693.685868 0.8910 0.8910 0.8910 0.8910 0.8910
2700.073382 0.8910 0.8907 0.8902 0.8900 0.8900
2706.460896 0.8900 0.8900 0.8894 0.8884 0.8880
2712.848410 0.8880 0.8871 0.8856 0.8844 0.8834
2719.235924 0.8815 0.8790 0.8768 0.8748 0.8731
2725.623437 0.8716 0.8684 0.8639 0.8608 0.8588
2732.010951 0.8571 0.8556 0.8544 0.8534 0.8530
2738.398465 0.8530 0.8536 0.8546 0.8559 0.8574
2744.785979 0.8586 0.8596 0.8626 0.8671 0.8699
2751.173493 0.8714 0.8726 0.8736 0.8746 0.8756
2757.561007 0.8760 0.8760 0.8749 0.8729 0.8717
2763.948521 0.8712 0.8704 0.8694 0.8690 0.8690
2770.336035 0.8690 0.8690 0.8690 0.8690 0.8684
2776.723549 0.8674 0.8664 0.8654 0.8647 0.8642
2783.111063 0.8635 0.8625 0.8615 0.8605 0.8595
2789.498577 0.8585 0.8577 0.8572 0.8570 0.8570
2795.886091 0.8570 0.8570 0.8564 0.8555 0.8545
2802.273605 0.8535 0.8525 0.8515 0.8507 0.8502
2808.661119 0.8500 0.8500 0.8476 0.8431 0.8405
2815.048633 0.8395 0.8377 0.8351 0.8332 0.8317
2821.436147 0.8291 0.8256 0.8205 0.8140 0.8083
2827.823661 0.8033 0.7997 0.7972 0.7936 0.7891
2834.211175 0.7847 0.7802 0.7749 0.7689 0.7619
2840.598688 0.7539 0.7438 0.7317 0.7223 0.7153
2846.986202 0.7107 0.7082 0.7046 0.7002 0.6962
2853.373716 0.6927 0.6910 0.6910 0.6892 0.6857
2859.761230 0.6756 0.6592 0.6435 0.6285 0.6138
2866.148744 0.5993 0.5637 0.5065 0.4738 0.4638
2872.536258 0.4346 0.3872 0.3569 0.3429 0.3347
2878.923772 0.3322 0.3042 0.2508 0.2240 0.2240
2885.311286 0.2366 0.2620 0.2813 0.2943 0.3083
2891.698800 0.3232 0.3449 0.3737 0.3940 0.4060
2898.086314 0.4120 0.4120 0.4108 0.4083 0.4058
2904.473828 0.4033 0.4020 0.4020 0.4020 0.4020
2910.861342 0.4025 0.4035 0.4035 0.4025 0.3992
2917.248856 0.3932 0.3872 0.3811 0.3729 0.3624
2923.636370 0.3526 0.3437 0.3371 0.3331 0.3267
2930.023884 0.3177 0.3085 0.2990 0.2879 0.2749
2936.411398 0.2606 0.2446 0.2220 0.1916 0.1750
2942.798912 0.1750 0.1807 0.1934 0.2005 0.2015
2949.186425 0.2060 0.2145 0.2213 0.2263 0.2322
2955.573939 0.2392 0.2430 0.2430 0.2423 0.2408
2961.961453 0.2360 0.2270 0.2129 0.1924 0.1713
2968.348967 0.1493 0.1235 0.0926 0.0689 0.0534
2974.736481 0.0441 0.0421 0.0419 0.0439 0.0531
2981.123995 0.0710 0.0854 0.0954 0.1047 0.1132
2987.511509 0.1261 0.1445 0.1798 0.2372 0.2916
2993.899023 0.3420 0.3856 0.4200 0.4491 0.4715
3000.286537 0.4902 0.5042 0.5181 0.5321 0.5456
3006.674051 0.5586 0.5660 0.5660 0.5607 0.5482
3013.061565 0.5351 0.5211 0.5095 0.5010 0.4813
3019.449079 0.4459 0.4155 0.3922 0.3734 0.3604
3025.836593 0.3530 0.3530 0.3553 0.3608 0.3686
3032.224107 0.3796 0.3922 0.4072 0.4263 0.4512
3038.611621 0.4693 0.4772 0.4897 0.5086 0.5240
3044.999135 0.5340 0.5438 0.5534 0.5596 0.5611
3051.386649 0.5620 0.5620 0.5624 0.5634 0.5640
3057.774162 0.5640 0.5636 0.5626 0.5592 0.5522
3064.161676 0.5464 0.5424 0.5345 0.5206 0.5076
3070.549190 0.4961 0.4890 0.4890 0.4943 0.5072
3076.936704 0.5202 0.5332 0.5422 0.5452 0.5499
3083.324218 0.5574 0.5647 0.5717 0.5833 0.6022
3089.711732 0.6320 0.6794 0.7127 0.7227 0.7368
3096.099246 0.7577 0.7714 0.7724 0.7720 0.7695
3102.486760 0.7659 0.7604 0.7557 0.7522 0.7500
3108.874274 0.7500 0.7517 0.7562 0.7655 0.7829
3115.261788 0.7982 0.8097 0.8188 0.8238 0.8313
3121.649302 0.8432 0.8551 0.8667 0.8748 0.8767
3128.036816 0.8782 0.8787 0.8790 0.8790 0.8790
3134.424330 0.8790 0.8790 0.8790 0.8794 0.8804
3140.811844 0.8814 0.8823 0.8830 0.8830 0.8830
3147.199358 0.8830 0.8827 0.8816 0.8810 0.8810
3153.586872 0.8810 0.8810 0.8810 0.8810 0.8810
3159.974386 0.8810 0.8813 0.8823 0.8830 0.8830
3166.361900 0.8833 0.8843 0.8858 0.8883 0.8905
3172.749413 0.8920 0.8933 0.8943 0.8950 0.8950
3179.136927 0.8955 0.8970 0.8983 0.8993 0.9003
3185.524441 0.9013 0.9020 0.9020 0.9023 0.9033
3191.911955 0.9042 0.9047 0.9053 0.9063 0.9070
3198.299469 0.9070 0.9073 0.9083 0.9090 0.9090
3204.686983 0.9090 0.9090 0.9090 0.9090 0.9090
3211.074497 0.9090 0.9093 0.9103 0.9110 0.9110
3217.462011 0.9110 0.9110 0.9112 0.9117 0.9123
3223.849525 0.9133 0.9140 0.9140 0.9140 0.9140
3230.237039 0.9140 0.9140 0.9140 0.9140 0.9140
3236.624553 0.9140 0.9140 0.9140 0.9143 0.9153
3243.012067 0.9160 0.9160 0.9160 0.9160 0.9160
3249.399581 0.9160 0.9160 0.9160 0.9157 0.9147
3255.787095 0.9140 0.9140 0.9140 0.9140 0.9140
3262.174609 0.9140 0.9137 0.9127 0.9120 0.9120
3268.562123 0.9120 0.9120 0.9120 0.9120 0.9120
3274.949637 0.9120 0.9120 0.9120 0.9119 0.9114
3281.337150 0.9110 0.9110 0.9110 0.9110 0.9110
3287.724664 0.9110 0.9110 0.9110 0.9110 0.9110
3294.112178 0.9110 0.9110 0.9110 0.9110 0.9110
3300.499692 0.9110 0.9110 0.9110 0.9110 0.9110
3306.887206 0.9110 0.9110 0.9107 0.9097 0.9090
3313.274720 0.9090 0.9090 0.9090 0.9090 0.9090
3319.662234 0.9087 0.9078 0.9070 0.9070 0.9070
3326.049748 0.9070 0.9070 0.9070 0.9067 0.9057
3332.437262 0.9050 0.9050 0.9050 0.9050 0.9050
3338.824776 0.9050 0.9052 0.9062 0.9068 0.9058
3345.212290 0.9050 0.9050 0.9050 0.9050 0.9049
3351.599804 0.9044 0.9038 0.9028 0.9020 0.9020
3357.987318 0.9022 0.9032 0.9040 0.9040 0.9040
3364.374832 0.9040 0.9040 0.9040 0.9040 0.9040
3370.762346 0.9040 0.9040 0.9040 0.9040 0.9040
3377.149860 0.9040 0.9038 0.9028 0.9020 0.9020
3383.537374 0.9020 0.9020 0.9020 0.9020 0.9020
3389.924887 0.9020 0.9020 0.9020 0.9020 0.9020
3396.312401 0.9020 0.9020 0.9022 0.9032 0.9041
3402.699915 0.9046 0.9050 0.9050 0.9052 0.9062
3409.087429 0.9070 0.9070 0.9070 0.9070 0.9070
3415.474943 0.9070 0.9068 0.9058 0.9050 0.9050
3421.862457 0.9050 0.9050 0.9052 0.9062 0.9070
3428.249971 0.9070 0.9070 0.9070 0.9070 0.9070
3434.637485 0.9072 0.9082 0.9088 0.9078 0.9070
3441.024999 0.9070 0.9072 0.9082 0.9090 0.9090
3447.412513 0.9090 0.9090 0.9090 0.9090 0.9090
3453.800027 0.9090 0.9090 0.9090 0.9090 0.9090
3460.187541 0.9090 0.9090 0.9090 0.9090 0.9090
3466.575055 0.9090 0.9090 0.9090 0.9090 0.9090
3472.962569 0.9090 0.9090 0.9090 0.9090 0.9090
3479.350083 0.9090 0.9090 0.9090 0.9090 0.9090
3485.737597 0.9088 0.9078 0.9070 0.9070 0.9072
3492.125111 0.9082 0.9092 0.9102 0.9110 0.9110
3498.512625 0.9110 0.9110 0.9109 0.9099 0.9090
3504.900138 0.9090 0.9090 0.9090 0.9090 0.9090
3511.287652 0.9090 0.9090 0.9090 0.9090 0.9090
3517.675166 0.9090 0.9091 0.9101 0.9110 0.9110
3524.062680 0.9110 0.9110 0.9110 0.9110 0.9110
3530.450194 0.9110 0.9110 0.9110 0.9110 0.9110
3536.837708 0.9110 0.9110 0.9110 0.9110 0.9111
3543.225222 0.9116 0.9120 0.9120 0.9120 0.9120
3549.612736 0.9120 0.9120 0.9121 0.9131 0.9140
3556.000250 0.9140 0.9140 0.9140 0.9141 0.9151
3562.387764 0.9160 0.9160 0.9160 0.9160 0.9160
3568.775278 0.9160 0.9160 0.9160 0.9160 0.9160
3575.162792 0.9160 0.9160 0.9160 0.9160 0.9160
3581.550306 0.9160 0.9160 0.9160 0.9161 0.9171
3587.937820 0.9180 0.9180 0.9180 0.9180 0.9180
3594.325334 0.9180 0.9180 0.9180 0.9180 0.9185
3600.712848 0.9190 0.9190 0.9190 0.9190 0.9190
3607.100362 0.9190 0.9191 0.9201 0.9210 0.9210
3613.487875 0.9210 0.9210 0.9211 0.9221 0.9231
3619.875389 0.9241 0.9250 0.9250 0.9250 0.9250
3626.262903 0.9250 0.9250 0.9250 0.9250 0.9249
3632.650417 0.9239 0.9230 0.9230 0.9230 0.9230
3639.037931 0.9231 0.9241 0.9250 0.9255 0.9260
3645.425445 0.9260 0.9260 0.9260 0.9260 0.9260
3651.812959 0.9260 0.9260 0.9260 0.9255 0.9250
3658.200473 0.9250 0.9250 0.9250 0.9250 0.9250
3664.587987 0.9250 0.9255 0.9261 0.9271 0.9280
3670.975501 0.9280 0.9280 0.9280 0.9279 0.9269
3677.363015 0.9260 0.9255 0.9250 0.9240 0.9230
3683.750529 0.9240 0.9250 0.9250 0.9250 0.9250
3690.138043 0.9250 0.9255 0.9260 0.9260 0.9260
3696.525557 0.9260 0.9260 0.9270 0.9280 0.9290
3702.913071 0.9300 0.9300 0.9300 0.9290 0.9280
3709.300585 0.9280 0.9280 0.9280 0.9280 0.9280
3715.688099 0.9280 0.9280 0.9280 0.9280 0.9280
3722.075612 0.9280 0.9280 0.9280 0.9280 0.9290
3728.463126 0.9300 0.9310 0.9320 0.9320 0.9320
3734.850640 0.9320 0.9320 0.9320 0.9320 0.9320
3741.238154 0.9320 0.9320 0.9320 0.9320 0.9320
3747.625668 0.9320 0.9320 0.9320 0.9320 0.9320
3754.013182 0.9320 0.9310 0.9300 0.9300 0.9300
3760.400696 0.9290 0.9280 0.9270 0.9260 0.9260
3766.788210 0.9260 0.9270 0.9280 0.9280 0.9280
3773.175724 0.9280 0.9280 0.9280 0.9280 0.9280
3779.563238 0.9280 0.9280 0.9280 0.9290 0.9300
3785.950752 0.9290 0.9280 0.9280
##END=
