##TITLE=Alpha,Gamma -DICYANO-Beta,Beta-DIMETHYL GLUTARIMIDE
##JCAMP-DX=4.24
##DATA TYPE=INFRARED SPECTRUM
##CLASS=COBLENTZ
##ORIGIN=DOW CHEMICAL COMPANY
##OWNER=COBLENTZ SOCIETY
Collection (C) 2018 copyright by the U.S. Secretary of Commerce
on behalf of the United States of America. All rights reserved.
##DATE=Not specified, most likely prior to 1970
##NAMES=4,4-dimethyl-2,6-dioxo-3,5-piperidinedicarbonitrile
##CAS REGISTRY NO=61193-04-2
##MOLFORM=C9 H9 N3 O2
##SOURCE REFERENCE=COBLENTZ NO. 4039
##$NIST SOURCE=COBLENTZ
##$NIST IMAGE=cob4039
##SPECTROMETER/DATA SYSTEM=Not specified, most likely a prism, grating, or hybrid spectrometer.
##STATE=SOLID (MINERAL OIL MULL)
##PATH LENGTH=
$$SPECTRAL CONTAMINATION DUE TO OIL AROUND 2900 CM^-^1
##SAMPLING PROCEDURE=TRANSMISSION
##RESOLUTION=4
##DATA PROCESSING=DIGITIZED BY NIST FROM HARD COPY
##XUNITS=MICROMETERS
##YUNITS=TRANSMITTANCE
##XFACTOR=1.000000
##YFACTOR=1
##DELTAX=000.006515
##FIRSTX=2.029
##LASTX=15.9255
##FIRSTY=0.443
##MAXX=15.9255
##MINX=2.029
##MAXY=0.894
##MINY=0.035
##NPOINTS=2134
##XYDATA=(X++(Y..Y))
2.029000 0.4430 0.4430 0.4440 0.4440 0.4440
2.061589 0.4440 0.4440 0.4460 0.4460 0.4460
2.094000 0.4460 0.4460 0.4460 0.4480 0.4480
2.126589 0.4490 0.4490 0.4490 0.4510 0.4510
2.160000 0.4510 0.4530 0.4530 0.4530 0.4560
2.192589 0.4560 0.4570 0.4570 0.4570 0.4570
2.225000 0.4570 0.4570 0.4560 0.4540 0.4540
2.257589 0.4540 0.4530 0.4510 0.4510 0.4510
2.290000 0.4510 0.4510 0.4510 0.4510 0.4530
2.322589 0.4530 0.4540 0.4540 0.4560 0.4560
2.355000 0.4570 0.4570 0.4590 0.4590 0.4610
2.387589 0.4620 0.4620 0.4620 0.4640 0.4640
2.420000 0.4660 0.4670 0.4670 0.4690 0.4690
2.452589 0.4700 0.4720 0.4720 0.4720 0.4740
2.485000 0.4740 0.4740 0.4750 0.4750 0.4770
2.517589 0.4770 0.4780 0.4780 0.4800 0.4800
2.550000 0.4800 0.4800 0.4800 0.4800 0.4800
2.582589 0.4820 0.4820 0.4830 0.4830 0.4850
2.616000 0.4850 0.4870 0.4870 0.4870 0.4880
2.648589 0.4880 0.4900 0.4900 0.4900 0.4900
2.681000 0.4900 0.4910 0.4910 0.4930 0.4930
2.713589 0.4950 0.4950 0.4950 0.4960 0.4960
2.746000 0.4980 0.4980 0.4980 0.4980 0.5000
2.778589 0.5000 0.5000 0.5000 0.5010 0.5010
2.811000 0.5010 0.5010 0.5010 0.5010 0.5010
2.843589 0.5010 0.5010 0.5000 0.5000 0.4980
2.876000 0.4960 0.4960 0.4950 0.4930 0.4910
2.908589 0.4900 0.4900 0.4900 0.4910 0.4950
2.941000 0.4980 0.5000 0.5000 0.5000 0.5000
2.973589 0.4980 0.4960 0.4910 0.4910 0.4880
3.007000 0.4850 0.4780 0.4740 0.4690 0.4620
3.039589 0.4540 0.4410 0.4300 0.4170 0.4040
3.072000 0.3880 0.3670 0.3390 0.3220 0.3040
3.104589 0.2880 0.2700 0.2600 0.2580 0.2620
3.137000 0.2680 0.2840 0.2910 0.3040 0.3100
3.169589 0.3100 0.3070 0.3050 0.3000 0.2920
3.202000 0.2910 0.2890 0.2910 0.3070 0.3180
3.234589 0.3390 0.3490 0.3590 0.3670 0.3770
3.267000 0.3850 0.3910 0.3940 0.3960 0.3960
3.299589 0.3940 0.3910 0.3890 0.3850 0.3750
3.332000 0.3570 0.3380 0.3220 0.3040 0.2550
3.364589 0.2180 0.1890 0.1650 0.1420 0.1140
3.397000 0.0820 0.0380 0.0350 0.0370 0.0420
3.429589 0.0500 0.0530 0.0630 0.0670 0.0740
3.463000 0.0770 0.0820 0.0870 0.0920 0.0970
3.495589 0.1050 0.1190 0.1420 0.1770 0.2260
3.528000 0.2790 0.3230 0.3910 0.4150 0.4360
3.560589 0.4530 0.4660 0.4750 0.4820 0.4880
3.593000 0.4930 0.5000 0.5040 0.5110 0.5120
3.625589 0.5140 0.5170 0.5210 0.5210 0.5220
3.658000 0.5220 0.5240 0.5240 0.5240 0.5250
3.690589 0.5270 0.5290 0.5290 0.5300 0.5320
3.723000 0.5320 0.5330 0.5350 0.5350 0.5370
3.755589 0.5380 0.5400 0.5420 0.5430 0.5450
3.788000 0.5460 0.5480 0.5480 0.5500 0.5500
3.820589 0.5510 0.5510 0.5530 0.5550 0.5560
3.853000 0.5580 0.5580 0.5590 0.5610 0.5630
3.885589 0.5640 0.5660 0.5670 0.5690 0.5710
3.919000 0.5720 0.5740 0.5760 0.5760 0.5770
3.951589 0.5770 0.5800 0.5800 0.5800 0.5800
3.984000 0.5820 0.5820 0.5820 0.5840 0.5850
4.016589 0.5850 0.5870 0.5870 0.5880 0.5900
4.049000 0.5900 0.5920 0.5920 0.5920 0.5930
4.081589 0.5950 0.5950 0.5950 0.5950 0.5970
4.114000 0.5970 0.5970 0.5970 0.5970 0.5980
4.146589 0.5980 0.5980 0.5980 0.5980 0.5980
4.179000 0.5980 0.5980 0.5980 0.5980 0.5980
4.211589 0.6000 0.6000 0.6000 0.6000 0.6010
4.244000 0.6030 0.6050 0.6060 0.6100 0.6100
4.276589 0.6110 0.6130 0.6140 0.6160 0.6180
4.309000 0.6190 0.6190 0.6190 0.6180 0.6180
4.341589 0.6160 0.6140 0.6110 0.6010 0.5950
4.375000 0.5900 0.5850 0.5800 0.5790 0.5770
4.407589 0.5790 0.5870 0.6010 0.6160 0.6220
4.440000 0.6260 0.6310 0.6310 0.6320 0.6320
4.472589 0.6320 0.6340 0.6340 0.6340 0.6340
4.505000 0.6350 0.6350 0.6370 0.6370 0.6390
4.537589 0.6390 0.6400 0.6400 0.6420 0.6420
4.570000 0.6420 0.6420 0.6420 0.6420 0.6420
4.602589 0.6420 0.6440 0.6450 0.6450 0.6470
4.635000 0.6470 0.6480 0.6480 0.6500 0.6500
4.667589 0.6500 0.6520 0.6520 0.6520 0.6520
4.700000 0.6530 0.6530 0.6530 0.6530 0.6530
4.732589 0.6550 0.6550 0.6560 0.6560 0.6580
4.765000 0.6580 0.6600 0.6600 0.6600 0.6600
4.797589 0.6600 0.6600 0.6600 0.6600 0.6600
4.831000 0.6610 0.6610 0.6610 0.6610 0.6630
4.863589 0.6630 0.6630 0.6650 0.6650 0.6650
4.896000 0.6650 0.6650 0.6650 0.6650 0.6660
4.928589 0.6660 0.6660 0.6660 0.6660 0.6660
4.961000 0.6680 0.6680 0.6690 0.6710 0.6740
4.993589 0.6740 0.6740 0.6740 0.6740 0.6740
5.026000 0.6740 0.6740 0.6740 0.6740 0.6740
5.058589 0.6740 0.6740 0.6740 0.6760 0.6770
5.091000 0.6790 0.6810 0.6810 0.6810 0.6810
5.123589 0.6810 0.6810 0.6810 0.6810 0.6810
5.156000 0.6810 0.6810 0.6810 0.6810 0.6810
5.188589 0.6810 0.6790 0.6790 0.6790 0.6810
5.221000 0.6810 0.6810 0.6810 0.6820 0.6820
5.253589 0.6820 0.6810 0.6810 0.6810 0.6810
5.287000 0.6810 0.6810 0.6820 0.6840 0.6840
5.319589 0.6820 0.6820 0.6820 0.6820 0.6820
5.352000 0.6820 0.6840 0.6840 0.6840 0.6840
5.384589 0.6840 0.6820 0.6820 0.6790 0.6770
5.417000 0.6770 0.6760 0.6740 0.6740 0.6740
5.449589 0.6740 0.6730 0.6730 0.6710 0.6710
5.482000 0.6710 0.6690 0.6660 0.6660 0.6650
5.514589 0.6630 0.6610 0.6600 0.6550 0.6550
5.547000 0.6530 0.6520 0.6520 0.6500 0.6470
5.579589 0.6440 0.6400 0.6350 0.6270 0.6180
5.612000 0.6060 0.5920 0.5790 0.5630 0.5460
5.644589 0.5290 0.5110 0.4930 0.4740 0.4540
5.678000 0.4360 0.4170 0.3990 0.3810 0.3460
5.710589 0.3260 0.3070 0.2700 0.2370 0.2070
5.743000 0.1840 0.1680 0.1600 0.1550 0.1530
5.775589 0.1500 0.1470 0.1370 0.1290 0.1210
5.808000 0.1100 0.1080 0.1030 0.1010 0.1030
5.840589 0.1180 0.1320 0.1470 0.1610 0.1870
5.873000 0.2160 0.2450 0.3020 0.3880 0.4250
5.905589 0.4560 0.4820 0.5030 0.5210 0.5350
5.938000 0.5480 0.5580 0.5670 0.5760 0.5840
5.970589 0.5930 0.6030 0.6160 0.6190 0.6260
6.003000 0.6290 0.6320 0.6350 0.6390 0.6400
6.035589 0.6440 0.6450 0.6470 0.6500 0.6530
6.068000 0.6560 0.6600 0.6630 0.6650 0.6680
6.100589 0.6680 0.6680 0.6680 0.6680 0.6680
6.134000 0.6680 0.6690 0.6690 0.6690 0.6710
6.166589 0.6730 0.6760 0.6790 0.6790 0.6810
6.199000 0.6810 0.6820 0.6840 0.6840 0.6840
6.231589 0.6860 0.6890 0.6900 0.6940 0.6950
6.264000 0.6970 0.6990 0.7000 0.7000 0.7020
6.296589 0.7000 0.7000 0.7000 0.7000 0.7000
6.329000 0.7000 0.7000 0.7000 0.7000 0.7000
6.361589 0.7000 0.7000 0.7000 0.7000 0.7000
6.394000 0.7000 0.7000 0.7020 0.7020 0.7030
6.426589 0.7030 0.7030 0.7030 0.7030 0.7030
6.459000 0.7030 0.7030 0.7030 0.7030 0.7050
6.491589 0.7050 0.7070 0.7080 0.7080 0.7080
6.524000 0.7080 0.7080 0.7080 0.7080 0.7080
6.556589 0.7080 0.7070 0.7070 0.7070 0.7070
6.590000 0.7070 0.7070 0.7050 0.7050 0.7050
6.622589 0.7050 0.7030 0.7030 0.7030 0.7020
6.655000 0.7000 0.6990 0.6990 0.6920 0.6890
6.687589 0.6840 0.6790 0.6680 0.6630 0.6580
6.720000 0.6480 0.6370 0.6220 0.6080 0.5870
6.752589 0.5630 0.5300 0.4880 0.4510 0.4110
6.785000 0.3720 0.3390 0.3250 0.3100 0.2880
6.817589 0.2710 0.2630 0.2630 0.2660 0.2760
6.850000 0.2910 0.3050 0.3220 0.3470 0.3550
6.882589 0.3620 0.3700 0.3750 0.3830 0.3910
6.915000 0.4010 0.4150 0.4270 0.4380 0.4560
6.947589 0.4750 0.4910 0.5090 0.5240 0.5350
6.980000 0.5400 0.5500 0.5530 0.5560 0.5630
7.012589 0.5630 0.5610 0.5530 0.5460 0.5330
7.046000 0.5220 0.5110 0.5010 0.4930 0.4830
7.078589 0.4820 0.4830 0.4880 0.4960 0.5040
7.111000 0.5170 0.5270 0.5460 0.5530 0.5610
7.143589 0.5640 0.5660 0.5660 0.5630 0.5560
7.176000 0.5420 0.5210 0.4980 0.4750 0.4540
7.208589 0.4320 0.4110 0.3930 0.3770 0.3620
7.241000 0.3430 0.3310 0.3180 0.2990 0.2780
7.273589 0.2710 0.2600 0.2520 0.2500 0.2490
7.306000 0.2500 0.2630 0.2910 0.3050 0.3600
7.338589 0.3850 0.4070 0.4360 0.4540 0.4700
7.371000 0.4880 0.5010 0.5060 0.5140 0.5220
7.403589 0.5290 0.5320 0.5330 0.5350 0.5350
7.436000 0.5330 0.5320 0.5240 0.5120 0.4960
7.468589 0.4720 0.4560 0.4170 0.3980 0.3720
7.502000 0.3460 0.3300 0.3120 0.2910 0.2700
7.534589 0.2650 0.2580 0.2540 0.2500 0.2490
7.567000 0.2470 0.2450 0.2440 0.2440 0.2450
7.599589 0.2490 0.2710 0.2860 0.3020 0.3220
7.632000 0.3700 0.3990 0.4280 0.4590 0.4910
7.664589 0.5060 0.5320 0.5510 0.5690 0.5920
7.697000 0.6060 0.6260 0.6310 0.6400 0.6500
7.729589 0.6520 0.6580 0.6630 0.6740 0.6810
7.762000 0.6820 0.6860 0.6890 0.6900 0.6920
7.794589 0.6920 0.6940 0.6950 0.6950 0.6950
7.827000 0.6950 0.6950 0.6950 0.6950 0.6950
7.859589 0.6950 0.6940 0.6900 0.6890 0.6820
7.893000 0.6810 0.6730 0.6680 0.6650 0.6610
7.925589 0.6520 0.6440 0.6320 0.6220 0.6060
7.958000 0.5970 0.5740 0.5430 0.5040 0.4720
7.990589 0.3890 0.3830 0.3570 0.3430 0.3280
8.023000 0.3120 0.3090 0.3120 0.3550 0.3750
8.055589 0.3960 0.4040 0.4090 0.4090 0.4020
8.088000 0.3960 0.3830 0.3800 0.3750 0.3750
8.120589 0.3800 0.3910 0.4070 0.4220 0.4360
8.153000 0.4460 0.4530 0.4610 0.4690 0.4700
8.185589 0.4740 0.4850 0.4980 0.5110 0.5290
8.218000 0.5500 0.5690 0.5850 0.6060 0.6340
8.250589 0.6520 0.6630 0.6820 0.6870 0.6890
8.283000 0.7000 0.7030 0.7110 0.7150 0.7200
8.315589 0.7230 0.7260 0.7310 0.7330 0.7370
8.349000 0.7390 0.7410 0.7420 0.7420 0.7420
8.381589 0.7440 0.7450 0.7470 0.7470 0.7450
8.414000 0.7440 0.7420 0.7390 0.7330 0.7290
8.446589 0.7210 0.7210 0.7110 0.7000 0.6990
8.479000 0.6810 0.6730 0.6690 0.6680 0.6660
8.511589 0.6650 0.6630 0.6580 0.6550 0.6530
8.544000 0.6550 0.6600 0.6730 0.6790 0.6870
8.576589 0.6900 0.6970 0.6990 0.6950 0.6810
8.609000 0.6820 0.7070 0.7240 0.7310 0.7390
8.641589 0.7420 0.7440 0.7470 0.7490 0.7500
8.674000 0.7500 0.7520 0.7540 0.7540 0.7570
8.706589 0.7570 0.7570 0.7570 0.7570 0.7550
8.739000 0.7520 0.7490 0.7390 0.7340 0.7290
8.771589 0.7280 0.7210 0.7200 0.7180 0.7180
8.805000 0.7210 0.7290 0.7340 0.7450 0.7580
8.837589 0.7680 0.7710 0.7780 0.7810 0.7830
8.870000 0.7840 0.7880 0.7890 0.7910 0.7920
8.902589 0.7940 0.7960 0.7960 0.7970 0.7970
8.935000 0.7970 0.7990 0.7990 0.8000 0.8000
8.967589 0.8000 0.8000 0.8000 0.8040 0.8040
9.000000 0.8070 0.8090 0.8090 0.8090 0.8100
9.032589 0.8100 0.8100 0.8100 0.8120 0.8120
9.065000 0.8130 0.8130 0.8130 0.8130 0.8130
9.097589 0.8130 0.8130 0.8130 0.8130 0.8130
9.130000 0.8130 0.8150 0.8150 0.8170 0.8170
9.162589 0.8170 0.8170 0.8170 0.8170 0.8170
9.195000 0.8170 0.8170 0.8170 0.8170 0.8150
9.227589 0.8150 0.8130 0.8130 0.8130 0.8120
9.261000 0.8100 0.8100 0.8090 0.8090 0.8090
9.293589 0.8070 0.8070 0.8050 0.8050 0.8040
9.326000 0.8040 0.8040 0.8020 0.8000 0.8000
9.358589 0.8000 0.8000 0.8000 0.8000 0.8000
9.391000 0.8000 0.8020 0.8020 0.8020 0.8040
9.423589 0.8040 0.8040 0.8040 0.8040 0.8040
9.456000 0.8040 0.8020 0.8020 0.8020 0.8020
9.488589 0.8020 0.8020 0.8020 0.8020 0.8020
9.521000 0.8000 0.8000 0.8000 0.8000 0.8000
9.553589 0.8000 0.8000 0.8000 0.8020 0.8020
9.586000 0.8020 0.8020 0.8040 0.8040 0.8070
9.618589 0.8070 0.8070 0.8050 0.8040 0.8020
9.651000 0.8020 0.8000 0.7990 0.7970 0.7960
9.683589 0.7940 0.7920 0.7920 0.7920 0.7920
9.717000 0.7920 0.7920 0.7910 0.7860 0.7840
9.749589 0.7810 0.7760 0.7750 0.7730 0.7710
9.782000 0.7730 0.7750 0.7780 0.7810 0.7880
9.814589 0.7890 0.7910 0.7920 0.7920 0.7920
9.847000 0.7910 0.7860 0.7830 0.7790 0.7760
9.879589 0.7710 0.7700 0.7680 0.7660 0.7630
9.912000 0.7620 0.7570 0.7550 0.7490 0.7370
9.944589 0.7100 0.6860 0.6840 0.6690 0.6550
9.977000 0.6420 0.6240 0.6110 0.5920 0.5870
10.009589 0.5850 0.5870 0.6060 0.6160 0.6320
10.042000 0.6500 0.6970 0.7150 0.7290 0.7450
10.074589 0.7580 0.7680 0.7780 0.7810 0.7860
10.107000 0.7920 0.8020 0.8090 0.8130 0.8180
10.139589 0.8220 0.8230 0.8250 0.8280 0.8300
10.173000 0.8310 0.8330 0.8360 0.8380 0.8380
10.205589 0.8380 0.8380 0.8390 0.8390 0.8390
10.238000 0.8390 0.8390 0.8390 0.8390 0.8390
10.270589 0.8390 0.8390 0.8390 0.8390 0.8390
10.303000 0.8380 0.8380 0.8380 0.8380 0.8380
10.335589 0.8380 0.8380 0.8380 0.8380 0.8380
10.368000 0.8360 0.8330 0.8330 0.8310 0.8310
10.400589 0.8340 0.8360 0.8380 0.8410 0.8430
10.433000 0.8430 0.8440 0.8460 0.8460 0.8490
10.465589 0.8490 0.8510 0.8510 0.8510 0.8510
10.498000 0.8520 0.8540 0.8540 0.8550 0.8570
10.530589 0.8570 0.8570 0.8590 0.8590 0.8590
10.564000 0.8590 0.8590 0.8590 0.8590 0.8590
10.596589 0.8590 0.8590 0.8590 0.8590 0.8570
10.629000 0.8550 0.8550 0.8550 0.8540 0.8540
10.661589 0.8520 0.8520 0.8520 0.8510 0.8510
10.694000 0.8510 0.8510 0.8510 0.8510 0.8510
10.726589 0.8510 0.8510 0.8510 0.8510 0.8510
10.759000 0.8510 0.8490 0.8490 0.8490 0.8490
10.791589 0.8490 0.8490 0.8490 0.8490 0.8490
10.824000 0.8490 0.8470 0.8470 0.8460 0.8430
10.856589 0.8430 0.8430 0.8410 0.8410 0.8410
10.889000 0.8410 0.8410 0.8430 0.8410 0.8410
10.921589 0.8410 0.8410 0.8410 0.8410 0.8410
10.954000 0.8410 0.8410 0.8410 0.8410 0.8430
10.986589 0.8460 0.8470 0.8470 0.8490 0.8490
11.020000 0.8510 0.8510 0.8510 0.8490 0.8470
11.052589 0.8470 0.8470 0.8460 0.8460 0.8440
11.085000 0.8440 0.8430 0.8430 0.8430 0.8430
11.117589 0.8410 0.8410 0.8390 0.8380 0.8380
11.150000 0.8340 0.8330 0.8330 0.8330 0.8310
11.182589 0.8310 0.8310 0.8300 0.8300 0.8300
11.215000 0.8300 0.8280 0.8280 0.8230 0.8220
11.247589 0.8200 0.8170 0.8120 0.8100 0.8050
11.280000 0.8000 0.7990 0.7940 0.7920 0.7920
11.312589 0.7940 0.8000 0.8020 0.8050 0.8100
11.345000 0.8130 0.8200 0.8230 0.8250 0.8260
11.377589 0.8280 0.8280 0.8300 0.8300 0.8300
11.410000 0.8300 0.8280 0.8280 0.8280 0.8280
11.442589 0.8280 0.8280 0.8280 0.8280 0.8280
11.476000 0.8300 0.8300 0.8300 0.8300 0.8280
11.508589 0.8230 0.8220 0.8220 0.8220 0.8220
11.541000 0.8220 0.8220 0.8220 0.8200 0.8180
11.573589 0.8150 0.8120 0.8100 0.8100 0.8090
11.606000 0.8070 0.8020 0.8000 0.7970 0.7960
11.638589 0.7940 0.7940 0.7940 0.7940 0.7920
11.671000 0.7920 0.7920 0.7920 0.7920 0.7920
11.703589 0.7920 0.7920 0.7910 0.7910 0.7910
11.736000 0.7910 0.7910 0.7910 0.7920 0.7920
11.768589 0.7920 0.7920 0.7940 0.7940 0.7960
11.801000 0.7960 0.7960 0.7940 0.7940 0.7910
11.833589 0.7890 0.7890 0.7890 0.7890 0.7890
11.866000 0.7890 0.7890 0.7880 0.7880 0.7880
11.898589 0.7880 0.7880 0.7860 0.7860 0.7840
11.932000 0.7830 0.7830 0.7830 0.7830 0.7810
11.964589 0.7790 0.7780 0.7780 0.7780 0.7780
11.997000 0.7780 0.7780 0.7760 0.7760 0.7750
12.029589 0.7710 0.7710 0.7700 0.7700 0.7700
12.062000 0.7680 0.7660 0.7620 0.7600 0.7580
12.094589 0.7550 0.7540 0.7520 0.7520 0.7500
12.127000 0.7490 0.7490 0.7440 0.7410 0.7390
12.159589 0.7360 0.7330 0.7290 0.7240 0.7210
12.192000 0.7200 0.7160 0.7110 0.7020 0.6990
12.224589 0.6900 0.6860 0.6740 0.6690 0.6660
12.257000 0.6610 0.6580 0.6500 0.6480 0.6400
12.289589 0.6350 0.6310 0.6220 0.6140 0.6060
12.322000 0.6000 0.5930 0.5840 0.5790 0.5760
12.354589 0.5740 0.5720 0.5740 0.5770 0.5850
12.388000 0.5930 0.6010 0.6100 0.6180 0.6290
12.420589 0.6350 0.6550 0.6580 0.6610 0.6690
12.453000 0.6730 0.6740 0.6740 0.6730 0.6710
12.485589 0.6690 0.6660 0.6630 0.6600 0.6560
12.518000 0.6500 0.6440 0.6390 0.6290 0.6220
12.550589 0.6130 0.6110 0.6030 0.5980 0.5920
12.583000 0.5870 0.5800 0.5790 0.5760 0.5740
12.615589 0.5720 0.5710 0.5690 0.5690 0.5690
12.648000 0.5710 0.5710 0.5720 0.5760 0.5770
12.680589 0.5800 0.5800 0.5840 0.5880 0.5900
12.713000 0.5970 0.6000 0.6010 0.6100 0.6130
12.745589 0.6210 0.6240 0.6270 0.6320 0.6390
12.779000 0.6400 0.6450 0.6500 0.6550 0.6600
12.811589 0.6650 0.6760 0.6790 0.6810 0.6840
12.844000 0.6890 0.6900 0.6990 0.7000 0.7020
12.876589 0.7080 0.7100 0.7180 0.7200 0.7210
12.909000 0.7240 0.7280 0.7290 0.7330 0.7370
12.941589 0.7410 0.7440 0.7470 0.7490 0.7500
12.974000 0.7520 0.7540 0.7570 0.7580 0.7600
13.006589 0.7620 0.7650 0.7660 0.7660 0.7680
13.039000 0.7700 0.7700 0.7710 0.7710 0.7730
13.071589 0.7730 0.7750 0.7760 0.7780 0.7780
13.104000 0.7780 0.7780 0.7780 0.7760 0.7730
13.136589 0.7710 0.7700 0.7680 0.7660 0.7650
13.169000 0.7630 0.7620 0.7620 0.7600 0.7580
13.201589 0.7570 0.7540 0.7500 0.7470 0.7470
13.235000 0.7450 0.7390 0.7370 0.7330 0.7290
13.267589 0.7210 0.7130 0.7100 0.6970 0.6860
13.300000 0.6760 0.6690 0.6610 0.6470 0.6350
13.332589 0.6180 0.6050 0.5950 0.5770 0.5660
13.365000 0.5560 0.5460 0.5430 0.5400 0.5380
13.397589 0.5400 0.5500 0.5580 0.5690 0.5850
13.430000 0.6010 0.6210 0.6400 0.6600 0.6990
13.462589 0.7130 0.7260 0.7360 0.7420 0.7500
13.495000 0.7580 0.7630 0.7680 0.7780 0.7790
13.527589 0.7830 0.7840 0.7890 0.7920 0.7970
13.560000 0.8000 0.8020 0.8040 0.8050 0.8070
13.592589 0.8090 0.8100 0.8120 0.8130 0.8150
13.625000 0.8150 0.8170 0.8170 0.8180 0.8180
13.657589 0.8180 0.8180 0.8180 0.8180 0.8180
13.691000 0.8180 0.8180 0.8180 0.8180 0.8180
13.723589 0.8180 0.8170 0.8170 0.8150 0.8150
13.756000 0.8150 0.8130 0.8130 0.8120 0.8120
13.788589 0.8100 0.8100 0.8100 0.8100 0.8100
13.821000 0.8100 0.8100 0.8120 0.8120 0.8120
13.853589 0.8150 0.8150 0.8200 0.8230 0.8280
13.886000 0.8280 0.8300 0.8310 0.8340 0.8380
13.918589 0.8390 0.8410 0.8460 0.8490 0.8510
13.951000 0.8520 0.8520 0.8550 0.8550 0.8570
13.983589 0.8590 0.8600 0.8640 0.8670 0.8680
14.016000 0.8680 0.8700 0.8720 0.8720 0.8720
14.048589 0.8720 0.8720 0.8720 0.8730 0.8770
14.081000 0.8780 0.8780 0.8800 0.8800 0.8800
14.113589 0.8800 0.8810 0.8810 0.8810 0.8810
14.147000 0.8810 0.8800 0.8800 0.8800 0.8810
14.179589 0.8860 0.8860 0.8880 0.8880 0.8880
14.212000 0.8880 0.8880 0.8880 0.8880 0.8880
14.244589 0.8880 0.8880 0.8880 0.8880 0.8880
14.277000 0.8890 0.8890 0.8890 0.8890 0.8910
14.309589 0.8910 0.8890 0.8890 0.8910 0.8910
14.342000 0.8890 0.8890 0.8890 0.8890 0.8910
14.374589 0.8930 0.8940 0.8940 0.8940 0.8940
14.407000 0.8940 0.8930 0.8910 0.8890 0.8890
14.439589 0.8890 0.8890 0.8890 0.8890 0.8890
14.472000 0.8890 0.8890 0.8890 0.8890 0.8890
14.504589 0.8910 0.8910 0.8910 0.8910 0.8910
14.537000 0.8910 0.8910 0.8910 0.8910 0.8910
14.569589 0.8910 0.8910 0.8910 0.8910 0.8910
14.603000 0.8910 0.8910 0.8910 0.8910 0.8890
14.635589 0.8890 0.8890 0.8890 0.8890 0.8890
14.668000 0.8890 0.8890 0.8890 0.8890 0.8880
14.700589 0.8880 0.8880 0.8880 0.8880 0.8860
14.733000 0.8860 0.8860 0.8860 0.8860 0.8850
14.765589 0.8850 0.8830 0.8830 0.8810 0.8800
14.798000 0.8780 0.8780 0.8770 0.8770 0.8730
14.830589 0.8720 0.8700 0.8680 0.8680 0.8680
14.863000 0.8670 0.8640 0.8590 0.8570 0.8550
14.895589 0.8540 0.8520 0.8510 0.8490 0.8490
14.928000 0.8470 0.8470 0.8470 0.8470 0.8490
14.960589 0.8510 0.8520 0.8540 0.8550 0.8570
14.993000 0.8570 0.8570 0.8550 0.8550 0.8540
15.025589 0.8520 0.8510 0.8470 0.8430 0.8410
15.059000 0.8390 0.8360 0.8360 0.8340 0.8340
15.091589 0.8330 0.8310 0.8300 0.8300 0.8280
15.124000 0.8280 0.8260 0.8260 0.8250 0.8230
15.156589 0.8230 0.8230 0.8230 0.8230 0.8230
15.189000 0.8230 0.8220 0.8220 0.8220 0.8220
15.221589 0.8220 0.8220 0.8220 0.8220 0.8220
15.254000 0.8230 0.8230 0.8250 0.8250 0.8250
15.286589 0.8260 0.8280 0.8280 0.8280 0.8280
15.319000 0.8280 0.8280 0.8280 0.8280 0.8280
15.351589 0.8280 0.8300 0.8300 0.8300 0.8300
15.384000 0.8310 0.8310 0.8330 0.8330 0.8340
15.416589 0.8340 0.8360 0.8380 0.8380 0.8380
15.450000 0.8380 0.8380 0.8380 0.8380 0.8380
15.482589 0.8390 0.8390 0.8390 0.8390 0.8390
15.515000 0.8390 0.8410 0.8410 0.8430 0.8430
15.547589 0.8440 0.8440 0.8440 0.8460 0.8460
15.580000 0.8460 0.8460 0.8470 0.8470 0.8470
15.612589 0.8470 0.8490 0.8490 0.8510 0.8510
15.645000 0.8510 0.8510 0.8510 0.8510 0.8490
15.677589 0.8490 0.8490 0.8470 0.8470 0.8470
15.710000 0.8460 0.8460 0.8440 0.8440 0.8440
15.742589 0.8430 0.8430 0.8410 0.8390 0.8380
15.775000 0.8380 0.8380 0.8360 0.8360 0.8340
15.807589 0.8330 0.8330 0.8310 0.8310 0.8310
15.840000 0.8310 0.8310 0.8310 0.8310 0.8310
15.872589 0.8310 0.8310 0.8310 0.8310 0.8310
15.906000 0.8310 0.8310 0.8310 0.8310
##END=
