##TITLE=2,Alpha-Dichlorotoluene
##JCAMP-DX=4.24
$$ By DXEDIT 1.05 (RS McDonald)
##DATA TYPE=INFRARED SPECTRUM
##CLASS=COBLENTZ III
##ORIGIN=DOW CHEMICAL COMPANY
##OWNER=COPYRIGHT (C) 1988 by COBLENTZ SOCIETY INC.
Collection (C) 2018 copyright by the U.S. Secretary of Commerce
on behalf of the United States of America. All rights reserved.
##DATE=1959/10/07
##NAMES=1-chloro-2-(chloromethyl)benzene
##CAS REGISTRY NO=611-19-8
##MOLFORM=C7 H6 Cl2
##SOURCE REFERENCE=COBLENTZ NO. 6392
##$NIST SOURCE=COBLENTZ
##$NIST IMAGE=cob6392
##SPECTROMETER/DATA SYSTEM=DOW KBr FOREPRISM-GRATING
##INSTRUMENT PARAMETERS=BLAZED AT 3.5, 12.0, 20.0 MICRON AND CHANGED AT 5.0, 7.5, 14.9 MICRON
##STATE=SOLUTION (10% CCl4 FOR 3800-1335, 10% CS2 FOR 1335-450 CM^-^1)
##PATH LENGTH=0.011 CM, 0.011 CM
$$SPECTRAL CONTAMINATION DUE TO CS2 AROUND 850 AND CCl4 AROUND 1550 CM^-^1 HAVE BEEN SUBTRACTED
##SAMPLING PROCEDURE=TRANSMISSION
##RESOLUTION=2
##DATA PROCESSING=DIGITIZED BY COBLENTZ SOCIETY (BATCH I) FROM HARD COPY
##XUNITS=1/CM
##YUNITS=TRANSMITTANCE
##XFACTOR=1
##YFACTOR=1
##DELTAX=1
##FIRSTX=3816
##LASTX=453
##FIRSTY=0.9252
##MAXX=3816
##MINX=453
##MAXY=0.9623
##MINY=0.0125
##NPOINTS=3364
##XYDATA=(X++(Y..Y))
3816.000000 0.9252 0.9252 0.9246 0.9240 0.9240
3811.000000 0.9246 0.9250 0.9241 0.9237 0.9244
3806.000000 0.9247 0.9246 0.9246 0.9245 0.9234
3801.000000 0.9233 0.9233 0.9232 0.9232 0.9232
3796.000000 0.9239 0.9232 0.9239 0.9238 0.9238
3791.000000 0.9237 0.9237 0.9236 0.9236 0.9236
3786.000000 0.9236 0.9236 0.9229 0.9225 0.9225
3781.000000 0.9233 0.9237 0.9228 0.9236 0.9237
3776.000000 0.9237 0.9227 0.9238 0.9238 0.9238
3771.000000 0.9238 0.9238 0.9238 0.9239 0.9239
3766.000000 0.9240 0.9240 0.9240 0.9240 0.9241
3761.000000 0.9241 0.9248 0.9247 0.9242 0.9242
3756.000000 0.9243 0.9243 0.9244 0.9244 0.9244
3751.000000 0.9244 0.9245 0.9245 0.9246 0.9246
3746.000000 0.9246 0.9246 0.9247 0.9247 0.9248
3741.000000 0.9248 0.9248 0.9250 0.9258 0.9257
3736.000000 0.9257 0.9256 0.9251 0.9244 0.9250
3731.000000 0.9253 0.9253 0.9252 0.9252 0.9251
3726.000000 0.9251 0.9251 0.9251 0.9250 0.9250
3721.000000 0.9249 0.9249 0.9238 0.9238 0.9247
3716.000000 0.9247 0.9246 0.9246 0.9245 0.9248
3711.000000 0.9251 0.9248 0.9254 0.9254 0.9252
3706.000000 0.9252 0.9252 0.9252 0.9252 0.9253
3701.000000 0.9253 0.9253 0.9253 0.9253 0.9253
3696.000000 0.9244 0.9243 0.9243 0.9243 0.9243
3691.000000 0.9243 0.9243 0.9243 0.9243 0.9240
3686.000000 0.9233 0.9233 0.9233 0.9233 0.9233
3681.000000 0.9233 0.9233 0.9233 0.9233 0.9233
3676.000000 0.9233 0.9233 0.9233 0.9233 0.9233
3671.000000 0.9233 0.9242 0.9233 0.9232 0.9232
3666.000000 0.9232 0.9231 0.9231 0.9230 0.9230
3661.000000 0.9228 0.9228 0.9228 0.9228 0.9228
3656.000000 0.9228 0.9227 0.9227 0.9224 0.9224
3651.000000 0.9224 0.9224 0.9223 0.9223 0.9223
3646.000000 0.9223 0.9222 0.9222 0.9220 0.9220
3641.000000 0.9220 0.9220 0.9220 0.9220 0.9220
3636.000000 0.9220 0.9220 0.9220 0.9222 0.9231
3631.000000 0.9231 0.9227 0.9220 0.9224 0.9231
3626.000000 0.9231 0.9231 0.9231 0.9231 0.9231
3621.000000 0.9231 0.9231 0.9230 0.9230 0.9230
3616.000000 0.9230 0.9230 0.9231 0.9231 0.9231
3611.000000 0.9231 0.9233 0.9232 0.9224 0.9234
3606.000000 0.9235 0.9235 0.9235 0.9231 0.9228
3601.000000 0.9235 0.9232 0.9226 0.9232 0.9238
3596.000000 0.9238 0.9238 0.9240 0.9240 0.9241
3591.000000 0.9241 0.9242 0.9242 0.9243 0.9243
3586.000000 0.9243 0.9244 0.9245 0.9245 0.9246
3581.000000 0.9246 0.9247 0.9248 0.9249 0.9249
3576.000000 0.9247 0.9243 0.9251 0.9251 0.9247
3571.000000 0.9242 0.9243 0.9243 0.9244 0.9244
3566.000000 0.9245 0.9246 0.9246 0.9247 0.9248
3561.000000 0.9248 0.9249 0.9249 0.9250 0.9251
3556.000000 0.9253 0.9262 0.9253 0.9256 0.9266
3551.000000 0.9267 0.9266 0.9262 0.9271 0.9272
3546.000000 0.9273 0.9270 0.9270 0.9276 0.9277
3541.000000 0.9278 0.9272 0.9277 0.9274 0.9279
3536.000000 0.9284 0.9285 0.9286 0.9286 0.9288
3531.000000 0.9289 0.9289 0.9280 0.9282 0.9283
3526.000000 0.9284 0.9285 0.9286 0.9287 0.9288
3521.000000 0.9289 0.9290 0.9291 0.9292 0.9293
3516.000000 0.9294 0.9296 0.9299 0.9301 0.9304
3511.000000 0.9306 0.9309 0.9311 0.9313 0.9315
3506.000000 0.9318 0.9319 0.9322 0.9325 0.9328
3501.000000 0.9329 0.9334 0.9336 0.9339 0.9341
3496.000000 0.9343 0.9345 0.9348 0.9350 0.9353
3491.000000 0.9355 0.9358 0.9360 0.9363 0.9365
3486.000000 0.9369 0.9371 0.9373 0.9376 0.9378
3481.000000 0.9381 0.9385 0.9388 0.9391 0.9394
3476.000000 0.9397 0.9400 0.9404 0.9407 0.9410
3471.000000 0.9413 0.9416 0.9418 0.9421 0.9424
3466.000000 0.9427 0.9429 0.9432 0.9436 0.9440
3461.000000 0.9443 0.9446 0.9449 0.9452 0.9455
3456.000000 0.9458 0.9461 0.9464 0.9467 0.9470
3451.000000 0.9474 0.9477 0.9479 0.9481 0.9484
3446.000000 0.9487 0.9490 0.9493 0.9495 0.9498
3441.000000 0.9501 0.9504 0.9506 0.9510 0.9513
3436.000000 0.9516 0.9518 0.9521 0.9524 0.9528
3431.000000 0.9532 0.9535 0.9540 0.9545 0.9549
3426.000000 0.9553 0.9548 0.9560 0.9563 0.9566
3421.000000 0.9568 0.9571 0.9573 0.9576 0.9577
3416.000000 0.9580 0.9583 0.9586 0.9587 0.9590
3411.000000 0.9592 0.9594 0.9596 0.9599 0.9607
3406.000000 0.9608 0.9605 0.9607 0.9609 0.9613
3401.000000 0.9615 0.9617 0.9619 0.9622 0.9622
3396.000000 0.9623 0.9617 0.9611 0.9605 0.9600
3391.000000 0.9596 0.9592 0.9589 0.9586 0.9582
3386.000000 0.9579 0.9576 0.9573 0.9570 0.9567
3381.000000 0.9564 0.9561 0.9558 0.9554 0.9551
3376.000000 0.9548 0.9545 0.9542 0.9539 0.9535
3371.000000 0.9532 0.9537 0.9525 0.9523 0.9520
3366.000000 0.9517 0.9514 0.9511 0.9508 0.9505
3361.000000 0.9502 0.9498 0.9495 0.9492 0.9489
3356.000000 0.9487 0.9485 0.9483 0.9483 0.9483
3351.000000 0.9483 0.9483 0.9483 0.9483 0.9483
3346.000000 0.9485 0.9494 0.9496 0.9486 0.9495
3341.000000 0.9485 0.9485 0.9485 0.9496 0.9496
3336.000000 0.9494 0.9483 0.9483 0.9483 0.9483
3331.000000 0.9483 0.9483 0.9483 0.9483 0.9482
3326.000000 0.9482 0.9482 0.9482 0.9479 0.9478
3321.000000 0.9475 0.9474 0.9472 0.9470 0.9468
3316.000000 0.9466 0.9464 0.9463 0.9461 0.9470
3311.000000 0.9467 0.9465 0.9463 0.9459 0.9450
3306.000000 0.9458 0.9456 0.9451 0.9441 0.9439
3301.000000 0.9437 0.9436 0.9434 0.9431 0.9430
3296.000000 0.9428 0.9426 0.9423 0.9420 0.9419
3291.000000 0.9416 0.9414 0.9411 0.9409 0.9406
3286.000000 0.9404 0.9401 0.9398 0.9405 0.9402
3281.000000 0.9389 0.9389 0.9395 0.9390 0.9379
3276.000000 0.9379 0.9384 0.9381 0.9378 0.9375
3271.000000 0.9372 0.9369 0.9365 0.9362 0.9358
3266.000000 0.9355 0.9352 0.9349 0.9346 0.9343
3261.000000 0.9338 0.9335 0.9332 0.9329 0.9326
3256.000000 0.9314 0.9322 0.9321 0.9319 0.9318
3251.000000 0.9316 0.9315 0.9313 0.9312 0.9310
3246.000000 0.9309 0.9301 0.9300 0.9303 0.9302
3241.000000 0.9300 0.9299 0.9297 0.9296 0.9294
3236.000000 0.9293 0.9292 0.9291 0.9289 0.9286
3231.000000 0.9285 0.9283 0.9280 0.9278 0.9274
3226.000000 0.9264 0.9263 0.9269 0.9267 0.9265
3221.000000 0.9263 0.9261 0.9259 0.9257 0.9253
3216.000000 0.9251 0.9249 0.9247 0.9244 0.9242
3211.000000 0.9239 0.9237 0.9234 0.9222 0.9218
3206.000000 0.9216 0.9213 0.9212 0.9209 0.9207
3201.000000 0.9203 0.9203 0.9207 0.9198 0.9201
3196.000000 0.9194 0.9198 0.9196 0.9193 0.9190
3191.000000 0.9187 0.9180 0.9177 0.9179 0.9175
3186.000000 0.9167 0.9160 0.9157 0.9154 0.9152
3181.000000 0.9148 0.9146 0.9143 0.9140 0.9137
3176.000000 0.9135 0.9132 0.9130 0.9127 0.9125
3171.000000 0.9122 0.9119 0.9116 0.9112 0.9109
3166.000000 0.9108 0.9103 0.9104 0.9104 0.9094
3161.000000 0.9090 0.9091 0.9085 0.9073 0.9071
3156.000000 0.9060 0.9052 0.9056 0.9053 0.9050
3151.000000 0.9046 0.9043 0.9040 0.9030 0.9030
3146.000000 0.9034 0.9040 0.9045 0.9049 0.9053
3141.000000 0.9058 0.9068 0.9071 0.9074 0.9075
3136.000000 0.9075 0.9075 0.9074 0.9070 0.9066
3131.000000 0.9063 0.9060 0.9057 0.9054 0.9051
3126.000000 0.9048 0.9044 0.9041 0.9037 0.9034
3121.000000 0.9030 0.9026 0.9023 0.9021 0.9018
3116.000000 0.9015 0.9010 0.9006 0.9001 0.8996
3111.000000 0.8991 0.8987 0.8981 0.8977 0.8976
3106.000000 0.8973 0.8955 0.8939 0.8910 0.8881
3101.000000 0.8847 0.8822 0.8770 0.8716 0.8680
3096.000000 0.8644 0.8613 0.8571 0.8521 0.8471
3091.000000 0.8413 0.8362 0.8302 0.8245 0.8029
3086.000000 0.7815 0.7730 0.7651 0.7537 0.7424
3081.000000 0.7392 0.7361 0.7352 0.7351 0.7353
3076.000000 0.7316 0.7345 0.7348 0.7347 0.7340
3071.000000 0.7338 0.7341 0.7355 0.7386 0.7408
3066.000000 0.7437 0.7475 0.7513 0.7566 0.7627
3061.000000 0.7739 0.7854 0.8043 0.8225 0.8277
3056.000000 0.8329 0.8408 0.8483 0.8505 0.8532
3051.000000 0.8551 0.8568 0.8577 0.8587 0.8586
3046.000000 0.8593 0.8595 0.8603 0.8612 0.8621
3041.000000 0.8626 0.8631 0.8620 0.8611 0.8585
3036.000000 0.8553 0.8415 0.8282 0.8255 0.8232
3031.000000 0.8224 0.8235 0.8203 0.8198 0.8208
3026.000000 0.8217 0.8265 0.8314 0.8365 0.8417
3021.000000 0.8454 0.8492 0.8520 0.8542 0.8558
3016.000000 0.8566 0.8579 0.8597 0.8612 0.8628
3011.000000 0.8641 0.8656 0.8665 0.8673 0.8668
3006.000000 0.8673 0.8683 0.8687 0.8685 0.8682
3001.000000 0.8682 0.8687 0.8686 0.8681 0.8680
2996.000000 0.8694 0.8676 0.8672 0.8669 0.8662
2991.000000 0.8651 0.8640 0.8615 0.8590 0.8565
2986.000000 0.8539 0.8478 0.8416 0.8327 0.8237
2981.000000 0.8009 0.7785 0.7586 0.7334 0.7368
2976.000000 0.7366 0.7362 0.7359 0.7411 0.7463
2971.000000 0.7551 0.7642 0.7737 0.7830 0.7919
2966.000000 0.8009 0.8098 0.8187 0.8259 0.8333
2961.000000 0.8363 0.8391 0.8431 0.8459 0.8478
2956.000000 0.8508 0.8532 0.8559 0.8591 0.8616
2951.000000 0.8638 0.8660 0.8677 0.8694 0.8705
2946.000000 0.8717 0.8733 0.8756 0.8770 0.8788
2941.000000 0.8798 0.8817 0.8830 0.8841 0.8852
2936.000000 0.8861 0.8862 0.8872 0.8881 0.8891
2931.000000 0.8902 0.8912 0.8921 0.8932 0.8937
2926.000000 0.8942 0.8947 0.8951 0.8958 0.8960
2921.000000 0.8957 0.8960 0.8962 0.8965 0.8968
2916.000000 0.8971 0.8973 0.8976 0.8979 0.9028
2911.000000 0.8985 0.8988 0.8989 0.9000 0.9001
2906.000000 0.8992 0.8992 0.8993 0.8993 0.8993
2901.000000 0.8993 0.8993 0.8992 0.8991 0.8990
2896.000000 0.8989 0.8988 0.8986 0.8983 0.8981
2891.000000 0.8977 0.8974 0.8970 0.8967 0.8961
2886.000000 0.8957 0.8943 0.8928 0.8912 0.8896
2881.000000 0.8877 0.8859 0.8837 0.8818 0.8788
2876.000000 0.8777 0.8756 0.8735 0.8712 0.8688
2871.000000 0.8663 0.8636 0.8635 0.8632 0.8635
2866.000000 0.8637 0.8648 0.8659 0.8679 0.8700
2861.000000 0.8725 0.8751 0.8785 0.8822 0.8839
2856.000000 0.8856 0.8871 0.8876 0.8881 0.8888
2851.000000 0.8894 0.8901 0.8907 0.8914 0.8921
2846.000000 0.8936 0.8940 0.8943 0.8940 0.8950
2841.000000 0.8951 0.8951 0.8951 0.8959 0.8961
2836.000000 0.8958 0.8956 0.8958 0.8960 0.8963
2831.000000 0.8965 0.8967 0.8978 0.8974 0.8984
2826.000000 0.8987 0.8979 0.8981 0.8992 0.8985
2821.000000 0.8997 0.8999 0.8999 0.8992 0.8995
2816.000000 0.8998 0.9000 0.9002 0.9004 0.9006
2811.000000 0.9007 0.9010 0.9010 0.9017 0.9022
2806.000000 0.9023 0.9024 0.9025 0.9025 0.9026
2801.000000 0.9027 0.9028 0.9028 0.9029 0.9030
2796.000000 0.9031 0.9031 0.9032 0.9032 0.9030
2791.000000 0.9024 0.9030 0.9022 0.9022 0.9022
2786.000000 0.9022 0.9025 0.9031 0.9026 0.9021
2781.000000 0.9027 0.9031 0.9030 0.9030 0.9030
2776.000000 0.9030 0.9029 0.9029 0.9029 0.9029
2771.000000 0.9029 0.9029 0.9028 0.9028 0.9028
2766.000000 0.9028 0.9026 0.9025 0.9023 0.9021
2761.000000 0.9019 0.9017 0.9015 0.9014 0.9012
2756.000000 0.9011 0.9009 0.9008 0.9006 0.9004
2751.000000 0.9002 0.8999 0.8997 0.8994 0.8993
2746.000000 0.8991 0.8990 0.8988 0.8986 0.8984
2741.000000 0.8982 0.8981 0.8979 0.8977 0.8975
2736.000000 0.8972 0.8970 0.8969 0.8967 0.8966
2731.000000 0.8964 0.8963 0.8961 0.8960 0.8958
2726.000000 0.8957 0.8955 0.8953 0.8950 0.8948
2721.000000 0.8946 0.8944 0.8942 0.8939 0.8938
2716.000000 0.8936 0.8934 0.8932 0.8930 0.8929
2711.000000 0.8929 0.8929 0.8929 0.8929 0.8929
2706.000000 0.8929 0.8929 0.8929 0.8929 0.8929
2701.000000 0.8931 0.8934 0.8936 0.8939 0.8942
2696.000000 0.8945 0.8946 0.8949 0.8952 0.8955
2691.000000 0.8957 0.8961 0.8963 0.8965 0.8967
2686.000000 0.8969 0.8971 0.8973 0.8975 0.8977
2681.000000 0.8979 0.8981 0.8982 0.8984 0.8985
2676.000000 0.8987 0.8989 0.8991 0.8993 0.8994
2671.000000 0.8996 0.8997 0.8997 0.8997 0.8997
2666.000000 0.8997 0.8997 0.8997 0.8992 0.8989
2661.000000 0.8981 0.8973 0.8964 0.8957 0.8959
2656.000000 0.8952 0.8949 0.8948 0.8946 0.8944
2651.000000 0.8940 0.8933 0.8932 0.8937 0.8942
2646.000000 0.8943 0.8937 0.8934 0.8934 0.8942
2641.000000 0.8938 0.8936 0.8936 0.8937 0.8937
2636.000000 0.8938 0.8938 0.8950 0.8954 0.8955
2631.000000 0.8949 0.8953 0.8965 0.8968 0.8970
2626.000000 0.8972 0.8974 0.8976 0.8978 0.8980
2621.000000 0.8982 0.8984 0.8985 0.8987 0.8989
2616.000000 0.8991 0.8992 0.8994 0.8995 0.8996
2611.000000 0.8996 0.8996 0.8996 0.8996 0.8996
2606.000000 0.8996 0.8996 0.8996 0.8994 0.8992
2601.000000 0.8988 0.8985 0.8981 0.8978 0.8975
2596.000000 0.8972 0.8968 0.8965 0.8963 0.8962
2591.000000 0.8961 0.8958 0.8958 0.8958 0.8957
2586.000000 0.8955 0.8955 0.8955 0.8955 0.8955
2581.000000 0.8955 0.8955 0.8955 0.8957 0.8957
2576.000000 0.8958 0.8958 0.8960 0.8961 0.8962
2571.000000 0.8963 0.8965 0.8966 0.8967 0.8968
2566.000000 0.8969 0.8970 0.8971 0.8972 0.8973
2561.000000 0.8974 0.8975 0.8976 0.8977 0.8978
2556.000000 0.8979 0.8979 0.8979 0.8979 0.8979
2551.000000 0.8979 0.8979 0.8979 0.8980 0.8980
2546.000000 0.8980 0.8980 0.8980 0.8980 0.8980
2541.000000 0.8980 0.8980 0.8980 0.8980 0.8980
2536.000000 0.8981 0.8981 0.8981 0.8981 0.8981
2531.000000 0.8981 0.8981 0.8981 0.8981 0.8981
2526.000000 0.8982 0.8982 0.8982 0.8982 0.8983
2521.000000 0.8983 0.8984 0.8984 0.8985 0.8985
2516.000000 0.8986 0.8986 0.8986 0.8986 0.8987
2511.000000 0.8987 0.8988 0.8988 0.8989 0.8989
2506.000000 0.8990 0.8990 0.8990 0.8990 0.8991
2501.000000 0.8991 0.8991 0.8991 0.8991 0.8991
2496.000000 0.8991 0.8991 0.8991 0.8991 0.8991
2491.000000 0.8991 0.8991 0.8990 0.8990 0.8990
2486.000000 0.8990 0.8990 0.8990 0.8990 0.8990
2481.000000 0.8996 0.9000 0.9000 0.9000 0.9000
2476.000000 0.9000 0.8999 0.8999 0.8999 0.8999
2471.000000 0.8998 0.8998 0.8997 0.8997 0.8997
2466.000000 0.8997 0.8996 0.8996 0.8996 0.8996
2461.000000 0.8995 0.8995 0.8995 0.8990 0.8988
2456.000000 0.8988 0.8983 0.8983 0.8989 0.8992
2451.000000 0.8992 0.8984 0.8989 0.8991 0.8991
2446.000000 0.8991 0.8990 0.8990 0.8990 0.8990
2441.000000 0.8989 0.8989 0.8989 0.8989 0.8988
2436.000000 0.8988 0.8987 0.8987 0.8987 0.8987
2431.000000 0.8986 0.8986 0.8985 0.8985 0.8984
2426.000000 0.8983 0.8982 0.8982 0.8981 0.8980
2421.000000 0.8979 0.8979 0.8978 0.8976 0.8975
2416.000000 0.8974 0.8973 0.8972 0.8971 0.8970
2411.000000 0.8967 0.8967 0.8969 0.8971 0.8966
2406.000000 0.8972 0.8970 0.8970 0.8969 0.8967
2401.000000 0.8967 0.8967 0.8966 0.8966 0.8965
2396.000000 0.8965 0.8966 0.8967 0.8969 0.8970
2391.000000 0.8970 0.8973 0.8984 0.8984 0.8984
2386.000000 0.8984 0.8985 0.8993 0.8990 0.8993
2381.000000 0.9001 0.9000 0.9002 0.9008 0.9012
2376.000000 0.9017 0.9016 0.9021 0.9024 0.9023
2371.000000 0.9022 0.9021 0.9012 0.9010 0.9009
2366.000000 0.9008 0.9007 0.9007 0.9006 0.9005
2361.000000 0.9002 0.9010 0.9007 0.9012 0.9008
2356.000000 0.9015 0.9018 0.9015 0.9009 0.9004
2351.000000 0.8986 0.8967 0.8955 0.8950 0.8949
2346.000000 0.8943 0.8932 0.8915 0.8902 0.8894
2341.000000 0.8886 0.8880 0.8864 0.8865 0.8859
2336.000000 0.8843 0.8836 0.8841 0.8840 0.8840
2331.000000 0.8840 0.8849 0.8849 0.8849 0.8851
2326.000000 0.8858 0.8861 0.8867 0.8872 0.8877
2321.000000 0.8880 0.8886 0.8890 0.8896 0.8898
2316.000000 0.8901 0.8901 0.8902 0.8902 0.8903
2311.000000 0.8903 0.8903 0.8903 0.8902 0.8900
2306.000000 0.8899 0.8897 0.8896 0.8893 0.8892
2301.000000 0.8890 0.8889 0.8890 0.8896 0.8893
2296.000000 0.8893 0.8892 0.8890 0.8890 0.8890
2291.000000 0.8890 0.8890 0.8890 0.8882 0.8880
2286.000000 0.8880 0.8880 0.8880 0.8870 0.8869
2281.000000 0.8869 0.8869 0.8869 0.8859 0.8864
2276.000000 0.8867 0.8862 0.8868 0.8872 0.8873
2271.000000 0.8870 0.8875 0.8875 0.8873 0.8878
2266.000000 0.8883 0.8881 0.8881 0.8886 0.8890
2261.000000 0.8887 0.8890 0.8894 0.8889 0.8892
2256.000000 0.8896 0.8899 0.8892 0.8895 0.8899
2251.000000 0.8901 0.8896 0.8899 0.8903 0.8906
2246.000000 0.8910 0.8910 0.8907 0.8910 0.8913
2241.000000 0.8916 0.8920 0.8923 0.8927 0.8931
2236.000000 0.8934 0.8931 0.8931 0.8934 0.8938
2231.000000 0.8940 0.8943 0.8945 0.8948 0.8951
2226.000000 0.8954 0.8956 0.8959 0.8961 0.8962
2221.000000 0.8955 0.8958 0.8961 0.8964 0.8965
2216.000000 0.8969 0.8971 0.8974 0.8977 0.8980
2211.000000 0.8983 0.8986 0.8986 0.8987 0.8987
2206.000000 0.8988 0.8989 0.8990 0.8990 0.8991
2201.000000 0.8991 0.8992 0.8992 0.8993 0.8994
2196.000000 0.8994 0.8986 0.8996 0.8994 0.8986
2191.000000 0.8986 0.8986 0.8986 0.8986 0.8986
2186.000000 0.8986 0.8986 0.8991 0.8990 0.8986
2181.000000 0.8985 0.8985 0.8985 0.8993 0.8995
2176.000000 0.8995 0.8995 0.8995 0.8994 0.8994
2171.000000 0.8994 0.8994 0.8992 0.8982 0.8982
2166.000000 0.8982 0.8981 0.8981 0.8980 0.8980
2161.000000 0.8980 0.8980 0.8979 0.8979 0.8979
2156.000000 0.8979 0.8978 0.8978 0.8977 0.8977
2151.000000 0.8977 0.8977 0.8976 0.8976 0.8975
2146.000000 0.8975 0.8974 0.8974 0.8974 0.8974
2141.000000 0.8973 0.8973 0.8972 0.8972 0.8971
2136.000000 0.8971 0.8970 0.8970 0.8969 0.8969
2131.000000 0.8967 0.8967 0.8967 0.8967 0.8967
2126.000000 0.8967 0.8967 0.8967 0.8967 0.8959
2121.000000 0.8966 0.8967 0.8967 0.8967 0.8966
2116.000000 0.8965 0.8963 0.8962 0.8961 0.8960
2111.000000 0.8957 0.8954 0.8950 0.8947 0.8942
2106.000000 0.8938 0.8935 0.8935 0.8934 0.8936
2101.000000 0.8939 0.8942 0.8943 0.8939 0.8940
2096.000000 0.8952 0.8957 0.8951 0.8961 0.8965
2091.000000 0.8968 0.8972 0.8976 0.8982 0.8985
2086.000000 0.8989 0.8991 0.8994 0.8995 0.8998
2081.000000 0.9000 0.9002 0.9002 0.9002 0.9002
2076.000000 0.9001 0.8998 0.8997 0.8993 0.8989
2071.000000 0.8983 0.8979 0.8976 0.8974 0.8971
2066.000000 0.8968 0.8965 0.8963 0.8960 0.8957
2061.000000 0.8953 0.8952 0.8950 0.8948 0.8947
2056.000000 0.8953 0.8950 0.8948 0.8946 0.8939
2051.000000 0.8935 0.8939 0.8931 0.8924 0.8921
2046.000000 0.8919 0.8917 0.8916 0.8914 0.8913
2041.000000 0.8911 0.8910 0.8908 0.8907 0.8905
2036.000000 0.8904 0.8901 0.8901 0.8900 0.8898
2031.000000 0.8898 0.8898 0.8897 0.8900 0.8903
2026.000000 0.8896 0.8900 0.8907 0.8908 0.8910
2021.000000 0.8911 0.8913 0.8914 0.8916 0.8917
2016.000000 0.8920 0.8921 0.8923 0.8924 0.8926
2011.000000 0.8927 0.8929 0.8930 0.8932 0.8933
2006.000000 0.8934 0.8935 0.8936 0.8937 0.8939
2001.000000 0.8941 0.8943 0.8945 0.8943 0.8939
1996.000000 0.8942 0.8944 0.8945 0.8948 0.8950
1991.000000 0.8953 0.8953 0.8953 0.8953 0.8953
1986.000000 0.8946 0.8944 0.8944 0.8944 0.8944
1981.000000 0.8944 0.8942 0.8941 0.8932 0.8931
1976.000000 0.8929 0.8925 0.8922 0.8918 0.8915
1971.000000 0.8907 0.8902 0.8899 0.8896 0.8893
1966.000000 0.8895 0.8890 0.8883 0.8884 0.8882
1961.000000 0.8877 0.8874 0.8863 0.8830 0.8583
1956.000000 0.8550 0.8535 0.8507 0.8495 0.8495
1951.000000 0.8496 0.8568 0.8604 0.8652 0.8688
1946.000000 0.8724 0.8752 0.8775 0.8793 0.8811
1941.000000 0.8825 0.8832 0.8840 0.8849 0.8857
1936.000000 0.8890 0.8861 0.8841 0.8820 0.8793
1931.000000 0.8765 0.8736 0.8711 0.8699 0.8686
1926.000000 0.8670 0.8651 0.8632 0.8592 0.8567
1921.000000 0.8524 0.8477 0.8349 0.8408 0.8406
1916.000000 0.8404 0.8437 0.8480 0.8521 0.8563
1911.000000 0.8606 0.8651 0.8701 0.8727 0.8760
1906.000000 0.8784 0.8800 0.8815 0.8831 0.8833
1901.000000 0.8840 0.8846 0.8847 0.8844 0.8841
1896.000000 0.8838 0.8833 0.8828 0.8820 0.8815
1891.000000 0.8801 0.8778 0.8761 0.8744 0.8728
1886.000000 0.8726 0.8726 0.8742 0.8754 0.8763
1881.000000 0.8772 0.8780 0.8788 0.8796 0.8805
1876.000000 0.8814 0.8832 0.8842 0.8850 0.8858
1871.000000 0.8862 0.8867 0.8871 0.8886 0.8879
1866.000000 0.8858 0.8833 0.8812 0.8819 0.8826
1861.000000 0.8833 0.8837 0.8844 0.8848 0.8855
1856.000000 0.8855 0.8851 0.8847 0.8844 0.8839
1851.000000 0.8836 0.8833 0.8829 0.8826 0.8813
1846.000000 0.8799 0.8784 0.8770 0.8755 0.8740
1841.000000 0.8718 0.8697 0.8677 0.8661 0.8648
1836.000000 0.8631 0.8626 0.8634 0.8641 0.8647
1831.000000 0.8654 0.8665 0.8677 0.8689 0.8702
1826.000000 0.8713 0.8723 0.8736 0.8747 0.8759
1821.000000 0.8768 0.8772 0.8788 0.8785 0.8782
1816.000000 0.8773 0.8759 0.8746 0.8732 0.8701
1811.000000 0.8669 0.8630 0.8590 0.8542 0.8476
1806.000000 0.8410 0.8344 0.8274 0.8206 0.8242
1801.000000 0.8245 0.8270 0.8307 0.8368 0.8427
1796.000000 0.8470 0.8509 0.8547 0.8585 0.8618
1791.000000 0.8650 0.8682 0.8713 0.8743 0.8758
1786.000000 0.8775 0.8791 0.8806 0.8813 0.8819
1781.000000 0.8824 0.8829 0.8834 0.8839 0.8842
1776.000000 0.8838 0.8835 0.8837 0.8838 0.8840
1771.000000 0.8841 0.8842 0.8844 0.8846 0.8847
1766.000000 0.8848 0.8848 0.8850 0.8851 0.8851
1761.000000 0.8853 0.8854 0.8856 0.8865 0.8865
1756.000000 0.8865 0.8865 0.8864 0.8877 0.8858
1751.000000 0.8853 0.8847 0.8842 0.8836 0.8829
1746.000000 0.8821 0.8813 0.8806 0.8800 0.8794
1741.000000 0.8789 0.8785 0.8780 0.8772 0.8764
1736.000000 0.8756 0.8748 0.8739 0.8731 0.8723
1731.000000 0.8716 0.8710 0.8707 0.8703 0.8698
1726.000000 0.8694 0.8695 0.8696 0.8699 0.8702
1721.000000 0.8709 0.8716 0.8724 0.8728 0.8733
1716.000000 0.8737 0.8741 0.8743 0.8744 0.8744
1711.000000 0.8739 0.8734 0.8719 0.8700 0.8685
1706.000000 0.8671 0.8659 0.8647 0.8640 0.8640
1701.000000 0.8641 0.8640 0.8647 0.8657 0.8667
1696.000000 0.8686 0.8713 0.8731 0.8737 0.8741
1691.000000 0.8743 0.8744 0.8745 0.8748 0.8751
1686.000000 0.8754 0.8758 0.8761 0.8764 0.8770
1681.000000 0.8776 0.8782 0.8789 0.8799 0.8812
1676.000000 0.8823 0.8834 0.8843 0.8862 0.8880
1671.000000 0.8890 0.8898 0.8899 0.8896 0.8892
1666.000000 0.8892 0.8899 0.8905 0.8912 0.8920
1661.000000 0.8929 0.8947 0.8947 0.8957 0.8975
1656.000000 0.8984 0.8993 0.9001 0.9009 0.9011
1651.000000 0.9028 0.9067 0.9108 0.9148 0.9181
1646.000000 0.9201 0.9223 0.9240 0.9259 0.9279
1641.000000 0.9312 0.9272 0.9263 0.9262 0.9242
1636.000000 0.9224 0.9195 0.9161 0.9129 0.9087
1631.000000 0.9018 0.8939 0.8877 0.8841 0.8817
1626.000000 0.8788 0.8754 0.8741 0.8723 0.8718
1621.000000 0.8704 0.8685 0.8676 0.8667 0.8660
1616.000000 0.8662 0.8663 0.8658 0.8651 0.8646
1611.000000 0.8642 0.8615 0.8596 0.8578 0.8551
1606.000000 0.8544 0.8518 0.8506 0.8461 0.8428
1601.000000 0.8349 0.8294 0.8228 0.8034 0.7929
1596.000000 0.7163 0.6370 0.5936 0.5954 0.6060
1591.000000 0.6256 0.6435 0.6628 0.6814 0.6989
1586.000000 0.7093 0.7135 0.7198 0.7199 0.7122
1581.000000 0.6844 0.6561 0.6279 0.5987 0.5715
1576.000000 0.5608 0.5574 0.5606 0.5735 0.5974
1571.000000 0.6231 0.6475 0.6672 0.6730 0.6788
1566.000000 0.6832 0.6887 0.6938 0.6905 0.6922
1561.000000 0.6950 0.6988 0.7021 0.7038 0.7006
1556.000000 0.6952 0.6891 0.6822 0.6770 0.6717
1551.000000 0.6729 0.6726 0.6709 0.6686 0.6660
1546.000000 0.6642 0.6615 0.6626 0.6709 0.6719
1541.000000 0.6690 0.6670 0.6670 0.7085 0.7169
1536.000000 0.7217 0.7249 0.7296 0.7339 0.7374
1531.000000 0.7407 0.7439 0.7480 0.7518 0.7550
1526.000000 0.7586 0.7609 0.7639 0.7663 0.7696
1521.000000 0.7721 0.7755 0.7772 0.7775 0.7790
1516.000000 0.7807 0.7815 0.7813 0.7805 0.7804
1511.000000 0.7794 0.7786 0.7778 0.7769 0.7744
1506.000000 0.7719 0.7720 0.7763 0.7794 0.7779
1501.000000 0.7758 0.7730 0.7701 0.7657 0.7607
1496.000000 0.7546 0.7054 0.6842 0.6660 0.6595
1491.000000 0.6554 0.6512 0.6470 0.6243 0.6134
1486.000000 0.6091 0.6081 0.6091 0.6109 0.6133
1481.000000 0.6156 0.6182 0.5449 0.4168 0.2896
1476.000000 0.2047 0.2029 0.2023 0.2584 0.3148
1471.000000 0.3710 0.4271 0.4830 0.5733 0.6383
1466.000000 0.6453 0.6517 0.6796 0.7100 0.7396
1461.000000 0.7542 0.7616 0.7634 0.7635 0.7660
1456.000000 0.7647 0.7610 0.7529 0.7277 0.6565
1451.000000 0.5391 0.4215 0.3042 0.1871 0.1912
1446.000000 0.1883 0.1902 0.1934 0.1982 0.2045
1441.000000 0.2114 0.3538 0.5074 0.5481 0.6278
1436.000000 0.6702 0.6908 0.6974 0.7016 0.7056
1431.000000 0.7108 0.7153 0.7199 0.7240 0.7288
1426.000000 0.7358 0.7422 0.7494 0.7570 0.7674
1421.000000 0.7779 0.7883 0.7967 0.8031 0.8079
1416.000000 0.8106 0.8139 0.8176 0.8212 0.8243
1411.000000 0.8273 0.8303 0.8332 0.8362 0.8390
1406.000000 0.8418 0.8446 0.8474 0.8501 0.8533
1401.000000 0.8579 0.8625 0.8669 0.8719 0.8771
1396.000000 0.8822 0.8858 0.8863 0.8867 0.8868
1391.000000 0.8867 0.8870 0.8878 0.8889 0.8916
1386.000000 0.8947 0.8978 0.8985 0.8970 0.8956
1381.000000 0.8943 0.8940 0.8938 0.8946 0.8952
1376.000000 0.8956 0.8956 0.8964 0.8974 0.8981
1371.000000 0.8989 0.8997 0.9024 0.9067 0.9110
1366.000000 0.9143 0.9162 0.9163 0.9180 0.9148
1361.000000 0.9125 0.9103 0.9080 0.9059 0.9043
1356.000000 0.9017 0.9001 0.8984 0.8968 0.8955
1351.000000 0.8945 0.8935 0.8926 0.8916 0.8903
1346.000000 0.8886 0.8873 0.8866 0.8857 0.8843
1341.000000 0.8837 0.8827 0.8824 0.8822 0.8822
1336.000000 0.8823 0.8823 0.8822 0.8822 0.8821
1331.000000 0.8821 0.8819 0.8808 0.8806 0.8804
1326.000000 0.8802 0.8791 0.8787 0.8780 0.8767
1321.000000 0.8762 0.8756 0.8750 0.8744 0.8739
1316.000000 0.8732 0.8694 0.8655 0.8611 0.8555
1311.000000 0.8496 0.8395 0.8292 0.8156 0.7997
1306.000000 0.7838 0.7680 0.7512 0.7354 0.7282
1301.000000 0.7261 0.7329 0.7415 0.7503 0.7590
1296.000000 0.7678 0.7755 0.7779 0.7797 0.7806
1291.000000 0.7813 0.7774 0.7701 0.7560 0.6913
1286.000000 0.6175 0.5437 0.4579 0.4568 0.4830
1281.000000 0.5153 0.5477 0.5799 0.6123 0.6447
1276.000000 0.6778 0.7005 0.7029 0.7009 0.6954
1271.000000 0.6779 0.6280 0.5781 0.5282 0.4785
1266.000000 0.4290 0.3915 0.3918 0.3921 0.4342
1261.000000 0.4917 0.5492 0.6067 0.6864 0.7107
1256.000000 0.7515 0.7650 0.7788 0.7945 0.8103
1251.000000 0.8204 0.8297 0.8333 0.8369 0.8404
1246.000000 0.8438 0.8469 0.8493 0.8522 0.8550
1241.000000 0.8579 0.8601 0.8625 0.8653 0.8672
1236.000000 0.8692 0.8708 0.8720 0.8737 0.8753
1231.000000 0.8764 0.8772 0.8781 0.8785 0.8788
1226.000000 0.8797 0.8793 0.8788 0.8781 0.8755
1221.000000 0.8730 0.8664 0.8598 0.8494 0.8391
1216.000000 0.8262 0.8111 0.7741 0.7372 0.7007
1211.000000 0.6839 0.7024 0.7339 0.7653 0.7969
1206.000000 0.8221 0.8302 0.8358 0.8400 0.8439
1201.000000 0.8473 0.8504 0.8524 0.8533 0.8537
1196.000000 0.8543 0.8548 0.8551 0.8555 0.8548
1191.000000 0.8532 0.8515 0.8502 0.8496 0.8490
1186.000000 0.8484 0.8483 0.8483 0.8472 0.8453
1181.000000 0.8387 0.8390 0.8403 0.8434 0.8460
1176.000000 0.8473 0.8480 0.8486 0.8491 0.8493
1171.000000 0.8494 0.8497 0.8492 0.8489 0.8460
1166.000000 0.8419 0.8358 0.8295 0.8208 0.8117
1161.000000 0.8025 0.8017 0.7976 0.8046 0.8069
1156.000000 0.8095 0.8120 0.8146 0.8172 0.8199
1151.000000 0.8221 0.8252 0.8283 0.8302 0.8323
1146.000000 0.8348 0.8349 0.8349 0.8333 0.8332
1141.000000 0.8319 0.8294 0.8280 0.8266 0.8248
1136.000000 0.8224 0.8205 0.8161 0.8099 0.8004
1131.000000 0.7883 0.7622 0.7444 0.7215 0.6695
1126.000000 0.6176 0.6108 0.6119 0.6321 0.6591
1121.000000 0.6859 0.7124 0.7389 0.7655 0.7901
1116.000000 0.8054 0.8178 0.8255 0.8328 0.8389
1111.000000 0.8420 0.8446 0.8470 0.8490 0.8522
1106.000000 0.8533 0.8541 0.8548 0.8555 0.8555
1101.000000 0.8555 0.8555 0.8532 0.8470 0.8374
1096.000000 0.8294 0.8225 0.8211 0.8192 0.8200
1091.000000 0.8252 0.8353 0.8424 0.8482 0.8520
1086.000000 0.8538 0.8550 0.8560 0.8559 0.8555
1081.000000 0.8538 0.8528 0.8512 0.8488 0.8467
1076.000000 0.8440 0.8419 0.8396 0.8368 0.8336
1071.000000 0.8296 0.8190 0.8041 0.7810 0.7619
1066.000000 0.7464 0.7068 0.6757 0.6207 0.5497
1061.000000 0.4781 0.4064 0.3342 0.2630 0.2154
1056.000000 0.2191 0.2571 0.3098 0.3626 0.4154
1051.000000 0.4683 0.5215 0.5744 0.6344 0.6336
1046.000000 0.6290 0.5561 0.4833 0.4104 0.3376
1041.000000 0.3013 0.3009 0.3991 0.5003 0.5788
1036.000000 0.6027 0.6303 0.6557 0.6796 0.7009
1031.000000 0.7185 0.7363 0.7527 0.7678 0.7804
1026.000000 0.7934 0.7991 0.8045 0.8102 0.8148
1021.000000 0.8183 0.8188 0.8085 0.7886 0.7860
1016.000000 0.7890 0.7931 0.7994 0.8060 0.8122
1011.000000 0.8175 0.8229 0.8277 0.8308 0.8346
1006.000000 0.8385 0.8424 0.8452 0.8485 0.8516
1001.000000 0.8547 0.8579 0.8605 0.8627 0.8643
996.000000 0.8667 0.8683 0.8697 0.8706 0.8719
991.000000 0.8730 0.8737 0.8743 0.8746 0.8747
986.000000 0.8747 0.8748 0.8749 0.8750 0.8752
981.000000 0.8739 0.8725 0.8709 0.8689 0.8673
976.000000 0.8671 0.8668 0.8664 0.8663 0.8656
971.000000 0.8664 0.8664 0.8666 0.8667 0.8669
966.000000 0.8670 0.8671 0.8673 0.8673 0.8673
961.000000 0.8669 0.8657 0.8634 0.8611 0.8575
956.000000 0.8530 0.8477 0.8424 0.8362 0.8293
951.000000 0.8179 0.8052 0.7925 0.7796 0.7669
946.000000 0.7542 0.7480 0.7479 0.7611 0.7894
941.000000 0.8178 0.8459 0.8517 0.8544 0.8566
936.000000 0.8586 0.8607 0.8622 0.8637 0.8650
931.000000 0.8665 0.8679 0.8692 0.8704 0.8712
926.000000 0.8774 0.8723 0.8729 0.8736 0.8742
921.000000 0.8746 0.8750 0.8715 0.8673 0.8622
916.000000 0.8584 0.8544 0.8503 0.8454 0.8409
911.000000 0.8338 0.8235 0.7955 0.7757 0.7567
906.000000 0.7581 0.7566 0.7731 0.7896 0.8068
901.000000 0.8237 0.8409 0.8488 0.8522 0.8551
896.000000 0.8632 0.8588 0.8614 0.8623 0.8642
891.000000 0.8654 0.8659 0.8633 0.8613 0.8581
886.000000 0.8537 0.8493 0.8451 0.8389 0.8319
881.000000 0.8260 0.8225 0.8184 0.8145 0.8103
876.000000 0.8061 0.8015 0.7968 0.7922 0.7875
871.000000 0.7838 0.7803 0.7766 0.7730 0.7719
866.000000 0.7698 0.7694 0.7703 0.7711 0.7716
861.000000 0.7729 0.7750 0.7768 0.7816 0.7858
856.000000 0.7921 0.8013 0.8093 0.8164 0.8228
851.000000 0.8279 0.8322 0.8346 0.8362 0.8370
846.000000 0.8385 0.8408 0.8411 0.8406 0.8402
841.000000 0.8404 0.8428 0.8387 0.8346 0.8317
836.000000 0.8251 0.8172 0.8041 0.7381 0.6137
831.000000 0.4896 0.3660 0.2596 0.2572 0.2589
826.000000 0.3329 0.4241 0.5154 0.6067 0.6779
821.000000 0.6917 0.7165 0.7531 0.7818 0.7974
816.000000 0.8107 0.8223 0.8260 0.8292 0.8335
811.000000 0.8382 0.8418 0.8459 0.8488 0.8511
806.000000 0.8536 0.8557 0.8571 0.8585 0.8597
801.000000 0.8609 0.8621 0.8632 0.8642 0.8653
796.000000 0.8664 0.8664 0.8659 0.8661 0.8660
791.000000 0.8668 0.8653 0.8645 0.8636 0.8623
786.000000 0.8610 0.8597 0.8577 0.8539 0.8502
781.000000 0.8461 0.8263 0.8099 0.8034 0.8012
776.000000 0.7997 0.7984 0.7927 0.7809 0.7651
771.000000 0.7467 0.7184 0.6476 0.4511 0.3281
766.000000 0.2183 0.2180 0.2179 0.2461 0.2741
761.000000 0.3022 0.3303 0.3559 0.3572 0.3519
756.000000 0.3331 0.3142 0.2954 0.2769 0.2580
751.000000 0.2397 0.2344 0.2335 0.2327 0.2317
746.000000 0.2307 0.2289 0.1930 0.1395 0.0859
741.000000 0.0324 0.0136 0.0125 0.0128 0.0862
736.000000 0.1769 0.2676 0.3583 0.4490 0.5386
731.000000 0.5643 0.5936 0.6173 0.6500 0.6895
726.000000 0.7154 0.7341 0.7505 0.7667 0.7825
721.000000 0.7904 0.7954 0.8001 0.8027 0.8047
716.000000 0.8057 0.8061 0.8105 0.8081 0.8078
711.000000 0.8070 0.8056 0.8019 0.7972 0.7883
706.000000 0.7717 0.7524 0.7333 0.7205 0.7075
701.000000 0.6932 0.6725 0.5207 0.4902 0.4503
696.000000 0.4093 0.3687 0.3281 0.2872 0.2462
691.000000 0.2172 0.2180 0.2592 0.3018 0.3443
686.000000 0.3866 0.4291 0.4714 0.5144 0.5241
681.000000 0.5237 0.4634 0.3437 0.2246 0.1099
676.000000 0.1095 0.1091 0.1704 0.2539 0.3371
671.000000 0.4206 0.5007 0.5382 0.6311 0.7209
666.000000 0.7372 0.7534 0.7685 0.7795 0.7898
661.000000 0.8007 0.8093 0.8174 0.8245 0.8305
656.000000 0.8348 0.8378 0.8411 0.8442 0.8465
651.000000 0.8502 0.8525 0.8551 0.8578 0.8602
646.000000 0.8611 0.8627 0.8640 0.8649 0.8664
641.000000 0.8685 0.8735 0.8793 0.8835 0.8855
636.000000 0.8886 0.8915 0.8933 0.8961 0.8982
631.000000 0.8994 0.9014 0.9036 0.9050 0.9071
626.000000 0.9084 0.9106 0.9127 0.9132 0.9148
621.000000 0.9164 0.9179 0.9198 0.9222 0.9231
616.000000 0.9233 0.9243 0.9250 0.9253 0.9263
611.000000 0.9272 0.9277 0.9281 0.9285 0.9282
606.000000 0.9284 0.9282 0.9297 0.9268 0.9262
601.000000 0.9255 0.9248 0.9241 0.9232 0.9217
596.000000 0.9201 0.9185 0.9167 0.9151 0.9135
591.000000 0.9108 0.9076 0.9046 0.9015 0.8980
586.000000 0.8931 0.8882 0.8827 0.8732 0.8543
581.000000 0.7622 0.6699 0.5777 0.5509 0.5521
576.000000 0.5904 0.6310 0.6726 0.7136 0.7544
571.000000 0.7952 0.8360 0.8619 0.8710 0.8793
566.000000 0.8858 0.8923 0.8972 0.8988 0.9014
561.000000 0.9038 0.9064 0.9090 0.9101 0.9112
556.000000 0.9123 0.9127 0.9134 0.9145 0.9145
551.000000 0.9155 0.9165 0.9172 0.9178 0.9185
546.000000 0.9191 0.9198 0.9205 0.9211 0.9217
541.000000 0.9223 0.9229 0.9237 0.9252 0.9259
536.000000 0.9275 0.9276 0.9272 0.9279 0.9279
531.000000 0.9279 0.9279 0.9278 0.9278 0.9277
526.000000 0.9284 0.9283 0.9276 0.9269 0.9262
521.000000 0.9256 0.9234 0.9206 0.9178 0.9123
516.000000 0.9063 0.8908 0.8619 0.8492 0.8395
511.000000 0.8379 0.8380 0.8381 0.8436 0.8489
506.000000 0.8544 0.8590 0.8632 0.8676 0.8718
501.000000 0.8760 0.8798 0.8828 0.8857 0.8879
496.000000 0.8885 0.8892 0.8898 0.8903 0.8909
491.000000 0.8909 0.8935 0.8907 0.8907 0.8906
486.000000 0.8900 0.8890 0.8879 0.8868 0.8857
481.000000 0.8848 0.8836 0.8818 0.8800 0.8781
476.000000 0.8761 0.8744 0.8725 0.8706 0.8684
471.000000 0.8658 0.8632 0.8606 0.8581 0.8555
466.000000 0.8527 0.8490 0.8454 0.8418 0.8382
461.000000 0.8334 0.8255 0.8174 0.8089 0.7996
456.000000 0.7901 0.7810 0.7727 0.7644
##END=
