##TITLE=Alpha,O-DICHLOROTOLUENE
$$ E.K. (W.L.) NO. 1059
##JCAMP-DX=4.24
##DATA TYPE=INFRARED SPECTRUM
##CLASS=COBLENTZ
##ORIGIN=WYANDOTTE CHEMICALS CORP., WYANDOTTE, MICHIGAN, USA
##OWNER=COBLENTZ SOCIETY
Collection (C) 2018 copyright by the U.S. Secretary of Commerce
on behalf of the United States of America. All rights reserved.
##DATE=Not specified, most likely prior to 1970
##NAMES=1-chloro-2-(chloromethyl)benzene
##CAS REGISTRY NO=611-19-8
##MOLFORM=C7 H6 Cl2
##BP=94-95 C AT 10 mmHg
##SOURCE REFERENCE=COBLENTZ NO. 144
##$NIST SOURCE=COBLENTZ
##$NIST IMAGE=cob144
##SPECTROMETER/DATA SYSTEM=Not specified, most likely a prism, grating, or hybrid spectrometer.
##STATE=SOLID (MULL)
##SAMPLING PROCEDURE=TRANSMISSION
##RESOLUTION=4
##DATA PROCESSING=DIGITIZED BY NIST FROM HARD COPY
##XUNITS=MICROMETERS
##YUNITS=TRANSMITTANCE
##XFACTOR=1.000000
##YFACTOR=1
##DELTAX=000.006466
##FIRSTX=2.004
##LASTX=15.9959
##FIRSTY=0.967
##MAXX=15.9959
##MINX=2.004
##MAXY=1.001
##MINY=0.051
##NPOINTS=2165
##XYDATA=(X++(Y..Y))
2.004000 0.9670 0.9670 0.9670 0.9670 0.9650
2.036343 0.9620 0.9610 0.9590 0.9570 0.9540
2.069000 0.9570 0.9610 0.9620 0.9620 0.9640
2.101343 0.9640 0.9650 0.9650 0.9650 0.9640
2.134000 0.9640 0.9640 0.9640 0.9640 0.9650
2.166343 0.9650 0.9670 0.9670 0.9670 0.9650
2.198000 0.9650 0.9650 0.9640 0.9620 0.9620
2.230343 0.9650 0.9650 0.9670 0.9690 0.9690
2.263000 0.9690 0.9670 0.9650 0.9650 0.9640
2.295343 0.9640 0.9640 0.9640 0.9640 0.9670
2.328000 0.9670 0.9610 0.9570 0.9560 0.9570
2.360343 0.9570 0.9570 0.9610 0.9620 0.9640
2.392000 0.9670 0.9690 0.9690 0.9700 0.9720
2.424343 0.9700 0.9700 0.9700 0.9690 0.9690
2.457000 0.9670 0.9650 0.9640 0.9640 0.9640
2.489343 0.9650 0.9650 0.9640 0.9620 0.9610
2.522000 0.9570 0.9540 0.9560 0.9560 0.9570
2.554343 0.9570 0.9590 0.9590 0.9640 0.9650
2.586000 0.9650 0.9690 0.9700 0.9700 0.9700
2.618343 0.9690 0.9690 0.9690 0.9700 0.9720
2.651000 0.9740 0.9700 0.9700 0.9700 0.9700
2.683343 0.9700 0.9700 0.9720 0.9740 0.9750
2.716000 0.9750 0.9750 0.9740 0.9740 0.9750
2.748343 0.9750 0.9750 0.9750 0.9750 0.9750
2.780000 0.9770 0.9770 0.9780 0.9800 0.9780
2.812343 0.9740 0.9740 0.9770 0.9780 0.9780
2.845000 0.9780 0.9770 0.9770 0.9770 0.9740
2.877343 0.9740 0.9750 0.9770 0.9780 0.9780
2.909000 0.9780 0.9780 0.9770 0.9750 0.9750
2.941343 0.9740 0.9720 0.9690 0.9690 0.9700
2.974000 0.9720 0.9740 0.9750 0.9780 0.9780
3.006343 0.9750 0.9720 0.9690 0.9690 0.9720
3.039000 0.9720 0.9720 0.9720 0.9700 0.9700
3.071343 0.9720 0.9720 0.9720 0.9690 0.9700
3.103000 0.9700 0.9690 0.9670 0.9670 0.9650
3.135343 0.9640 0.9640 0.9640 0.9620 0.9620
3.168000 0.9590 0.9570 0.9570 0.9560 0.9540
3.200343 0.9490 0.9460 0.9430 0.9430 0.9360
3.233000 0.9020 0.8810 0.8660 0.8470 0.7920
3.265343 0.7920 0.8080 0.8290 0.8490 0.8630
3.297000 0.8730 0.8730 0.8750 0.8810 0.8960
3.329343 0.8960 0.8790 0.8760 0.8450 0.8160
3.362000 0.8160 0.8390 0.8630 0.8810 0.9020
3.394343 0.9200 0.9250 0.9350 0.9380 0.9390
3.427000 0.9430 0.9510 0.9560 0.9560 0.9520
3.459343 0.9480 0.9440 0.9430 0.9410 0.9390
3.491000 0.9360 0.9380 0.9480 0.9540 0.9590
3.523343 0.9610 0.9640 0.9690 0.9700 0.9720
3.556000 0.9750 0.9750 0.9750 0.9780 0.9830
3.588343 0.9830 0.9820 0.9780 0.9770 0.9750
3.621000 0.9750 0.9770 0.9750 0.9740 0.9720
3.653343 0.9700 0.9690 0.9670 0.9670 0.9690
3.685000 0.9720 0.9700 0.9670 0.9670 0.9670
3.717343 0.9690 0.9700 0.9720 0.9740 0.9740
3.750000 0.9770 0.9780 0.9780 0.9770 0.9740
3.782343 0.9690 0.9670 0.9700 0.9770 0.9750
3.815000 0.9720 0.9690 0.9690 0.9690 0.9700
3.847343 0.9740 0.9740 0.9720 0.9720 0.9720
3.879000 0.9720 0.9700 0.9690 0.9690 0.9740
3.911343 0.9740 0.9700 0.9700 0.9720 0.9740
3.944000 0.9750 0.9780 0.9740 0.9720 0.9700
3.976343 0.9720 0.9780 0.9800 0.9800 0.9780
4.009000 0.9780 0.9780 0.9770 0.9750 0.9740
4.041343 0.9740 0.9750 0.9770 0.9770 0.9770
4.073000 0.9780 0.9780 0.9770 0.9750 0.9750
4.105343 0.9750 0.9750 0.9750 0.9740 0.9720
4.138000 0.9720 0.9700 0.9700 0.9700 0.9700
4.170343 0.9700 0.9700 0.9720 0.9770 0.9770
4.203000 0.9690 0.9670 0.9700 0.9740 0.9740
4.235343 0.9750 0.9750 0.9770 0.9800 0.9830
4.267000 0.9880 0.9910 1.0000 1.0010 1.0010
4.299343 0.9910 0.9880 0.9850 0.9820 0.9800
4.332000 0.9780 0.9770 0.9740 0.9700 0.9640
4.364343 0.9610 0.9610 0.9620 0.9640 0.9690
4.397000 0.9700 0.9720 0.9720 0.9720 0.9700
4.429343 0.9700 0.9700 0.9690 0.9690 0.9740
4.461000 0.9740 0.9740 0.9720 0.9690 0.9690
4.493343 0.9690 0.9700 0.9700 0.9720 0.9750
4.526000 0.9770 0.9770 0.9800 0.9770 0.9770
4.558343 0.9770 0.9770 0.9770 0.9770 0.9770
4.591000 0.9770 0.9770 0.9770 0.9770 0.9780
4.623343 0.9800 0.9820 0.9800 0.9800 0.9780
4.655000 0.9780 0.9780 0.9770 0.9780 0.9780
4.687343 0.9780 0.9780 0.9780 0.9800 0.9800
4.720000 0.9820 0.9820 0.9850 0.9850 0.9820
4.752343 0.9800 0.9780 0.9780 0.9780 0.9770
4.784000 0.9770 0.9780 0.9850 0.9820 0.9820
4.816343 0.9820 0.9820 0.9820 0.9800 0.9780
4.849000 0.9800 0.9800 0.9800 0.9800 0.9780
4.881343 0.9780 0.9770 0.9770 0.9770 0.9750
4.914000 0.9750 0.9770 0.9780 0.9780 0.9780
4.946343 0.9770 0.9750 0.9740 0.9740 0.9720
4.978000 0.9720 0.9700 0.9700 0.9700 0.9720
5.010343 0.9780 0.9800 0.9820 0.9800 0.9770
5.043000 0.9740 0.9720 0.9700 0.9670 0.9670
5.075343 0.9690 0.9690 0.9700 0.9720 0.9700
5.108000 0.9700 0.9650 0.9620 0.9520 0.9480
5.140343 0.9430 0.9360 0.9310 0.9260 0.9260
5.172000 0.9330 0.9380 0.9430 0.9480 0.9510
5.204343 0.9480 0.9430 0.9360 0.9310 0.9230
5.237000 0.9220 0.9220 0.9200 0.9200 0.9220
5.269343 0.9300 0.9380 0.9490 0.9540 0.9570
5.302000 0.9590 0.9570 0.9560 0.9540 0.9510
5.334343 0.9510 0.9540 0.9560 0.9560 0.9570
5.366000 0.9620 0.9670 0.9740 0.9770 0.9740
5.398343 0.9690 0.9670 0.9640 0.9620 0.9620
5.431000 0.9620 0.9590 0.9590 0.9590 0.9570
5.463343 0.9510 0.9430 0.9480 0.9490 0.9540
5.496000 0.9540 0.9540 0.9520 0.9510 0.9460
5.528343 0.9410 0.9330 0.9230 0.9130 0.9070
5.560000 0.8970 0.8870 0.8870 0.9070 0.9220
5.592343 0.9260 0.9330 0.9410 0.9510 0.9590
5.625000 0.9650 0.9690 0.9700 0.9700 0.9700
5.657343 0.9720 0.9750 0.9750 0.9690 0.9650
5.690000 0.9610 0.9610 0.9650 0.9750 0.9750
5.722343 0.9740 0.9690 0.9650 0.9610 0.9570
5.754000 0.9560 0.9540 0.9510 0.9460 0.9430
5.786343 0.9430 0.9430 0.9440 0.9460 0.9460
5.819000 0.9430 0.9390 0.9360 0.9330 0.9310
5.851343 0.9280 0.9280 0.9300 0.9300 0.9300
5.884000 0.9310 0.9310 0.9350 0.9440 0.9540
5.916343 0.9570 0.9570 0.9560 0.9560 0.9560
5.948000 0.9560 0.9570 0.9570 0.9570 0.9570
5.980343 0.9570 0.9560 0.9560 0.9540 0.9540
6.013000 0.9520 0.9520 0.9520 0.9590 0.9570
6.045343 0.9490 0.9480 0.9460 0.9440 0.9440
6.078000 0.9430 0.9360 0.9300 0.9220 0.9150
6.110343 0.9050 0.9040 0.9050 0.9070 0.9150
6.142000 0.9200 0.9200 0.9170 0.9150 0.9120
6.174343 0.9100 0.9050 0.8970 0.8920 0.8860
6.207000 0.8710 0.8450 0.8000 0.7300 0.6680
6.239343 0.6540 0.6540 0.6720 0.7380 0.7930
6.272000 0.8210 0.8240 0.8210 0.7820 0.7510
6.304343 0.7240 0.6960 0.6800 0.6800 0.6980
6.336000 0.7840 0.8550 0.8830 0.8990 0.9070
6.368343 0.9130 0.9170 0.9180 0.9220 0.9230
6.401000 0.9280 0.9330 0.9360 0.9390 0.9430
6.433343 0.9460 0.9460 0.9460 0.9440 0.9430
6.466000 0.9390 0.9410 0.9410 0.9410 0.9410
6.498343 0.9410 0.9410 0.9380 0.9350 0.9350
6.530000 0.9330 0.9310 0.9280 0.9280 0.9260
6.562343 0.9230 0.9230 0.9260 0.9260 0.9260
6.595000 0.9280 0.9280 0.9200 0.9020 0.8910
6.627343 0.8780 0.8630 0.8470 0.8270 0.8050
6.659000 0.7790 0.7480 0.7110 0.6810 0.6670
6.691343 0.6540 0.6470 0.6420 0.6370 0.6290
6.724000 0.6120 0.5400 0.4780 0.4440 0.3990
6.756343 0.3420 0.3080 0.3080 0.3530 0.3990
6.789000 0.4440 0.4850 0.5480 0.6120 0.6990
6.821343 0.7460 0.7500 0.7460 0.7060 0.6720
6.853000 0.6100 0.4700 0.3910 0.3310 0.2870
6.885343 0.2740 0.1540 0.1540 0.1680 0.1830
6.918000 0.1980 0.2060 0.2140 0.2610 0.2870
6.950343 0.4100 0.5240 0.5810 0.5950 0.6100
6.983000 0.6410 0.6720 0.6980 0.7240 0.7430
7.015343 0.7610 0.7750 0.7880 0.7980 0.8030
7.047000 0.8110 0.8310 0.8420 0.8570 0.8620
7.079343 0.8630 0.8650 0.8650 0.8710 0.8790
7.112000 0.8860 0.8890 0.8920 0.8990 0.9070
7.144343 0.9180 0.9200 0.9180 0.9220 0.9230
7.177000 0.9260 0.9310 0.9360 0.9390 0.9460
7.209343 0.9490 0.9510 0.9490 0.9490 0.9480
7.241000 0.9480 0.9480 0.9440 0.9440 0.9440
7.273343 0.9490 0.9490 0.9430 0.9410 0.9440
7.306000 0.9490 0.9590 0.9610 0.9590 0.9570
7.338343 0.9570 0.9560 0.9520 0.9520 0.9540
7.371000 0.9620 0.9650 0.9670 0.9650 0.9640
7.403343 0.9620 0.9620 0.9610 0.9610 0.9620
7.435000 0.9670 0.9690 0.9650 0.9640 0.9610
7.467343 0.9590 0.9540 0.9520 0.9520 0.9540
7.500000 0.9570 0.9590 0.9590 0.9590 0.9570
7.532343 0.9560 0.9560 0.9560 0.9540 0.9520
7.565000 0.9510 0.9480 0.9480 0.9460 0.9430
7.597343 0.9380 0.9350 0.9280 0.9180 0.9070
7.629000 0.8970 0.8860 0.8730 0.8530 0.8270
7.661343 0.8010 0.7920 0.7850 0.7580 0.7480
7.694000 0.7480 0.7690 0.7930 0.8000 0.8050
7.726343 0.8160 0.8190 0.8210 0.8190 0.8010
7.759000 0.7850 0.7690 0.7400 0.6810 0.4700
7.791343 0.4670 0.4410 0.3840 0.3840 0.4070
7.823000 0.4900 0.5680 0.6150 0.6620 0.6720
7.855343 0.6720 0.6680 0.6470 0.6330 0.6000
7.888000 0.4590 0.4200 0.4070 0.3890 0.3190
7.920343 0.3210 0.3710 0.3960 0.4910 0.5840
7.953000 0.6260 0.6680 0.7090 0.7430 0.7710
7.985343 0.7950 0.8160 0.8360 0.8550 0.8730
8.017000 0.8780 0.8860 0.8940 0.8990 0.9020
8.049343 0.9040 0.9050 0.9090 0.9120 0.9170
8.082000 0.9200 0.9230 0.9260 0.9260 0.9300
8.114343 0.9330 0.9330 0.9330 0.9310 0.9280
8.147000 0.9280 0.9300 0.9330 0.9330 0.9280
8.179343 0.9250 0.9250 0.9200 0.9090 0.8920
8.211000 0.8730 0.8470 0.8180 0.7820 0.7430
8.243343 0.7010 0.6650 0.6290 0.6160 0.6160
8.276000 0.6670 0.7060 0.7400 0.7720 0.8160
8.308343 0.8450 0.8620 0.8780 0.8910 0.9000
8.341000 0.9040 0.9100 0.9130 0.9130 0.9120
8.373343 0.9120 0.9100 0.9100 0.9100 0.9100
8.405000 0.9090 0.9090 0.9100 0.9180 0.9220
8.437343 0.9230 0.9250 0.9260 0.9300 0.9300
8.470000 0.9280 0.9280 0.9280 0.9280 0.9280
8.502343 0.9300 0.9300 0.9300 0.9280 0.9280
8.534000 0.9280 0.9280 0.9280 0.9260 0.9250
8.566343 0.9230 0.9180 0.9150 0.9090 0.8970
8.599000 0.8890 0.8830 0.8750 0.8730 0.8760
8.631343 0.8780 0.8810 0.8860 0.8890 0.8960
8.664000 0.9020 0.9090 0.9150 0.9220 0.9280
8.696343 0.9330 0.9380 0.9390 0.9440 0.9520
8.728000 0.9570 0.9570 0.9520 0.9490 0.9480
8.760343 0.9440 0.9390 0.9350 0.9300 0.9230
8.793000 0.9130 0.9050 0.8960 0.8840 0.8760
8.825343 0.8660 0.8580 0.8420 0.8080 0.7870
8.858000 0.7580 0.7250 0.6910 0.6620 0.6310
8.890343 0.5810 0.5810 0.5940 0.6070 0.6200
8.922000 0.6520 0.6930 0.7350 0.7690 0.7980
8.954343 0.8240 0.8450 0.8650 0.8830 0.8960
8.987000 0.9090 0.9180 0.9260 0.9300 0.9360
9.019343 0.9390 0.9410 0.9460 0.9490 0.9490
9.052000 0.9510 0.9540 0.9560 0.9560 0.9520
9.084343 0.9490 0.9440 0.9350 0.9300 0.9200
9.116000 0.9120 0.9070 0.9000 0.9000 0.9020
9.148343 0.9120 0.9180 0.9260 0.9300 0.9330
9.181000 0.9380 0.9410 0.9430 0.9440 0.9460
9.213343 0.9480 0.9490 0.9510 0.9510 0.9520
9.246000 0.9540 0.9540 0.9520 0.9510 0.9490
9.278343 0.9440 0.9350 0.9300 0.9230 0.9180
9.310000 0.9150 0.9130 0.9100 0.9050 0.8970
9.342343 0.8840 0.8700 0.8550 0.8420 0.8260
9.375000 0.8060 0.7800 0.7460 0.7090 0.6670
9.407343 0.6230 0.5320 0.4830 0.4350 0.3870
9.440000 0.3400 0.2950 0.2500 0.2010 0.1590
9.472343 0.1440 0.1340 0.1340 0.1520 0.1670
9.504000 0.1940 0.2150 0.2350 0.2920 0.3630
9.536343 0.4520 0.5600 0.5900 0.6200 0.6360
9.569000 0.6360 0.6330 0.6050 0.5300 0.4780
9.601343 0.4180 0.3450 0.3260 0.3030 0.2800
9.634000 0.2800 0.3110 0.3400 0.3710 0.3940
9.666343 0.5040 0.5860 0.6150 0.6420 0.6780
9.698000 0.7020 0.7170 0.7300 0.7450 0.7660
9.730343 0.7840 0.7930 0.8010 0.8160 0.8230
9.763000 0.8310 0.8360 0.8420 0.8550 0.8570
9.795343 0.8550 0.8520 0.8470 0.8420 0.8370
9.828000 0.8320 0.8270 0.8210 0.8140 0.8110
9.860343 0.8110 0.8180 0.8310 0.8390 0.8440
9.892000 0.8470 0.8580 0.8680 0.8750 0.8810
9.924343 0.8860 0.8910 0.8960 0.9000 0.9050
9.957000 0.9090 0.9130 0.9170 0.9200 0.9230
9.989343 0.9250 0.9280 0.9300 0.9300 0.9310
10.022000 0.9310 0.9330 0.9350 0.9380 0.9410
10.054343 0.9460 0.9520 0.9540 0.9520 0.9510
10.086000 0.9510 0.9510 0.9490 0.9480 0.9490
10.118343 0.9480 0.9480 0.9460 0.9480 0.9460
10.151000 0.9460 0.9460 0.9440 0.9440 0.9430
10.183343 0.9410 0.9360 0.9330 0.9310 0.9300
10.216000 0.9300 0.9330 0.9350 0.9350 0.9360
10.248343 0.9360 0.9360 0.9380 0.9380 0.9380
10.280000 0.9380 0.9390 0.9410 0.9440 0.9480
10.312343 0.9490 0.9510 0.9510 0.9510 0.9520
10.345000 0.9520 0.9540 0.9540 0.9460 0.9410
10.377343 0.9390 0.9390 0.9390 0.9350 0.9330
10.409000 0.9300 0.9300 0.9280 0.9280 0.9280
10.441343 0.9280 0.9260 0.9260 0.9260 0.9260
10.474000 0.9230 0.9220 0.9150 0.9090 0.8990
10.506343 0.8920 0.8870 0.8810 0.8710 0.8620
10.539000 0.8470 0.8420 0.8310 0.8260 0.8180
10.571343 0.8080 0.8030 0.7920 0.7840 0.7840
10.603000 0.7870 0.7980 0.8000 0.8060 0.8230
10.635343 0.8290 0.8310 0.8490 0.8530 0.8660
10.668000 0.8760 0.8870 0.8970 0.9100 0.9120
10.700343 0.9170 0.9200 0.9260 0.9300 0.9350
10.733000 0.9350 0.9360 0.9360 0.9380 0.9390
10.765343 0.9390 0.9410 0.9410 0.9430 0.9460
10.797000 0.9480 0.9480 0.9460 0.9460 0.9440
10.829343 0.9440 0.9410 0.9410 0.9460 0.9510
10.862000 0.9510 0.9480 0.9440 0.9460 0.9440
10.894343 0.9440 0.9430 0.9390 0.9360 0.9310
10.927000 0.9300 0.9300 0.9280 0.9250 0.9220
10.959343 0.9200 0.9170 0.9120 0.9070 0.9050
10.991000 0.9020 0.9000 0.8970 0.8940 0.8890
11.023343 0.8830 0.8750 0.8620 0.8470 0.8340
11.056000 0.8270 0.8130 0.7980 0.7900 0.7770
11.088343 0.7670 0.7530 0.7530 0.7740 0.7900
11.121000 0.7970 0.8130 0.8260 0.8320 0.8550
11.153343 0.8710 0.8810 0.8890 0.8960 0.8990
11.185000 0.9040 0.9100 0.9170 0.9200 0.9220
11.217343 0.9230 0.9250 0.9250 0.9280 0.9310
11.250000 0.9330 0.9310 0.9310 0.9310 0.9310
11.282343 0.9310 0.9310 0.9310 0.9310 0.9330
11.315000 0.9330 0.9330 0.9350 0.9350 0.9310
11.347343 0.9310 0.9300 0.9300 0.9300 0.9300
11.379000 0.9300 0.9300 0.9300 0.9310 0.9350
11.411343 0.9350 0.9330 0.9260 0.9230 0.9220
11.444000 0.9200 0.9200 0.9180 0.9170 0.9170
11.476343 0.9170 0.9150 0.9100 0.9070 0.9040
11.509000 0.9000 0.9000 0.8990 0.8990 0.8940
11.541343 0.8920 0.8830 0.8780 0.8780 0.8810
11.573000 0.8860 0.8860 0.8830 0.8810 0.8790
11.605343 0.8790 0.8790 0.8790 0.8790 0.8810
11.638000 0.8860 0.8890 0.8910 0.8920 0.8940
11.670343 0.8970 0.9000 0.9040 0.9090 0.9100
11.703000 0.9150 0.9150 0.9090 0.9090 0.9100
11.735343 0.9150 0.9180 0.9200 0.9200 0.9200
11.767000 0.9130 0.9170 0.9200 0.9220 0.9220
11.799343 0.9220 0.9230 0.9220 0.9200 0.9200
11.832000 0.9200 0.9180 0.9170 0.9120 0.9090
11.864343 0.9050 0.9040 0.9020 0.8990 0.8940
11.897000 0.8920 0.9000 0.9090 0.9130 0.9170
11.929343 0.9180 0.9150 0.9090 0.9100 0.9120
11.961000 0.9100 0.9090 0.9020 0.8990 0.8970
11.993343 0.8960 0.8940 0.8910 0.8840 0.8790
12.026000 0.8780 0.8760 0.8710 0.8660 0.8630
12.058343 0.8570 0.8500 0.8420 0.8320 0.8190
12.091000 0.8050 0.7840 0.7640 0.7400 0.7110
12.123343 0.6760 0.6410 0.6020 0.5160 0.4720
12.155000 0.4260 0.3810 0.3340 0.3060 0.2820
12.187343 0.2770 0.2450 0.2450 0.2800 0.3160
12.220000 0.3520 0.3870 0.4050 0.4850 0.5470
12.252343 0.5950 0.6150 0.6330 0.6620 0.6860
12.284000 0.7090 0.7320 0.7590 0.7930 0.8000
12.316343 0.8080 0.8160 0.8270 0.8390 0.8500
12.349000 0.8600 0.8710 0.8790 0.8870 0.8910
12.381343 0.8940 0.8960 0.8990 0.9000 0.8960
12.414000 0.8960 0.8990 0.9040 0.9050 0.9050
12.446343 0.9050 0.9070 0.9070 0.9090 0.9120
12.478000 0.9150 0.9170 0.9200 0.9230 0.9220
12.510343 0.9230 0.9230 0.9250 0.9250 0.9250
12.543000 0.9230 0.9220 0.9220 0.9250 0.9250
12.575343 0.9220 0.9200 0.9170 0.9120 0.9050
12.608000 0.8970 0.8940 0.8920 0.8910 0.8870
12.640343 0.8860 0.8840 0.8840 0.8870 0.8890
12.672000 0.8920 0.8970 0.9020 0.9090 0.9130
12.704343 0.9200 0.9250 0.9280 0.9310 0.9330
12.737000 0.9350 0.9350 0.9300 0.9260 0.9250
12.769343 0.9230 0.9250 0.9230 0.9220 0.9150
12.802000 0.9120 0.9100 0.9090 0.9070 0.9050
12.834343 0.9020 0.8990 0.8960 0.8910 0.8860
12.866000 0.8810 0.8750 0.8660 0.8600 0.8500
12.898343 0.8420 0.8310 0.8190 0.8060 0.7920
12.931000 0.7750 0.7660 0.7510 0.7370 0.7190
12.963343 0.7010 0.6800 0.6570 0.6340 0.6100
12.996000 0.5600 0.5340 0.5080 0.4800 0.4540
13.028343 0.4280 0.4020 0.3760 0.3520 0.3270
13.060000 0.3050 0.2870 0.2740 0.2540 0.2400
13.092343 0.2190 0.2110 0.2020 0.1990 0.1930
13.125000 0.1910 0.1890 0.1880 0.1890 0.1910
13.157343 0.1930 0.1960 0.1990 0.2010 0.2090
13.190000 0.2200 0.2350 0.2430 0.2510 0.2610
13.222343 0.2670 0.2750 0.2820 0.2880 0.2920
13.254000 0.2970 0.3030 0.3130 0.3180 0.3190
13.286343 0.3210 0.3230 0.3240 0.3260 0.3270
13.319000 0.3270 0.3270 0.3290 0.3290 0.3310
13.351343 0.3320 0.3340 0.3360 0.3370 0.3400
13.384000 0.3400 0.3420 0.3440 0.3440 0.3450
13.416343 0.3470 0.3520 0.3520 0.3490 0.3440
13.448000 0.3370 0.3310 0.3210 0.3110 0.3000
13.480343 0.2880 0.2770 0.2620 0.2500 0.2350
13.513000 0.2200 0.2060 0.1760 0.1620 0.1470
13.545343 0.1330 0.1200 0.1070 0.0970 0.0860
13.578000 0.0770 0.0710 0.0660 0.0610 0.0600
13.610343 0.0580 0.0530 0.0510 0.0510 0.0530
13.642000 0.0550 0.0580 0.0600 0.0610 0.0640
13.674343 0.0680 0.0730 0.0790 0.0890 0.1000
13.707000 0.1180 0.1370 0.1620 0.1880 0.2040
13.739343 0.2200 0.2560 0.2950 0.3390 0.3730
13.772000 0.4070 0.4380 0.4690 0.5000 0.5270
13.804343 0.5530 0.5770 0.5900 0.6020 0.6230
13.836000 0.6420 0.6590 0.6780 0.6930 0.7060
13.868343 0.7150 0.7250 0.7330 0.7410 0.7480
13.901000 0.7560 0.7640 0.7740 0.7840 0.7870
13.933343 0.7920 0.7980 0.8050 0.8110 0.8160
13.966000 0.8190 0.8210 0.8270 0.8310 0.8320
13.998343 0.8340 0.8360 0.8360 0.8390 0.8400
14.030000 0.8420 0.8420 0.8440 0.8450 0.8470
14.062343 0.8470 0.8470 0.8470 0.8470 0.8450
14.095000 0.8450 0.8450 0.8440 0.8450 0.8470
14.127343 0.8470 0.8450 0.8440 0.8420 0.8420
14.159000 0.8420 0.8420 0.8400 0.8400 0.8390
14.191343 0.8360 0.8340 0.8340 0.8320 0.8320
14.224000 0.8310 0.8290 0.8240 0.8230 0.8210
14.256343 0.8190 0.8180 0.8140 0.8110 0.8080
14.289000 0.8050 0.8050 0.8030 0.8010 0.7980
14.321343 0.7920 0.7900 0.7880 0.7850 0.7790
14.353000 0.7750 0.7690 0.7640 0.7560 0.7500
14.385343 0.7410 0.7370 0.7330 0.7300 0.7220
14.418000 0.7150 0.7070 0.6990 0.6910 0.6830
14.450343 0.6760 0.6590 0.6470 0.6360 0.6310
14.483000 0.6280 0.6230 0.6070 0.5790 0.5710
14.515343 0.5610 0.5510 0.5400 0.5300 0.5170
14.547000 0.5060 0.4950 0.4820 0.4700 0.4570
14.579343 0.4460 0.4350 0.4230 0.4120 0.4020
14.612000 0.3910 0.3790 0.3680 0.3620 0.3550
14.644343 0.3470 0.3370 0.3320 0.3270 0.3210
14.677000 0.3140 0.3080 0.3060 0.3050 0.3030
14.709343 0.3030 0.3050 0.3080 0.3130 0.3190
14.741000 0.3270 0.3360 0.3420 0.3490 0.3570
14.773343 0.3650 0.3760 0.3870 0.4020 0.4180
14.806000 0.4310 0.4410 0.4510 0.4570 0.4640
14.838343 0.4720 0.4750 0.4780 0.4780 0.4720
14.871000 0.4690 0.4650 0.4620 0.4590 0.4480
14.903343 0.4390 0.4250 0.4120 0.3970 0.3830
14.935000 0.3700 0.3580 0.3470 0.3390 0.3320
14.967343 0.3260 0.3190 0.3110 0.3100 0.3110
15.000000 0.3110 0.3130 0.3160 0.3190 0.3230
15.032343 0.3270 0.3320 0.3400 0.3530 0.3650
15.065000 0.3760 0.3860 0.3960 0.4070 0.4220
15.097343 0.4410 0.4650 0.4770 0.4870 0.4950
15.129000 0.5010 0.5080 0.5140 0.5210 0.5250
15.161343 0.5340 0.5400 0.5500 0.5600 0.5680
15.194000 0.5790 0.5940 0.5990 0.6020 0.6130
15.226343 0.6290 0.6370 0.6550 0.6650 0.6730
15.259000 0.6800 0.6880 0.6990 0.7140 0.7200
15.291343 0.7280 0.7330 0.7450 0.7530 0.7540
15.323000 0.7590 0.7620 0.7670 0.7720 0.7840
15.355343 0.7900 0.7920 0.7930 0.8000 0.8030
15.388000 0.8050 0.8050 0.8080 0.8100 0.8100
15.420343 0.8110 0.8100 0.8110 0.8140 0.8190
15.453000 0.8230 0.8240 0.8260 0.8260 0.8270
15.485343 0.8290 0.8290 0.8290 0.8290 0.8310
15.517000 0.8360 0.8360 0.8370 0.8360 0.8360
15.549343 0.8320 0.8310 0.8310 0.8290 0.8290
15.582000 0.8260 0.8260 0.8320 0.8310 0.8290
15.614343 0.8290 0.8310 0.8340 0.8340 0.8320
15.647000 0.8320 0.8340 0.8370 0.8420 0.8420
15.679343 0.8400 0.8360 0.8320 0.8320 0.8310
15.711000 0.8310 0.8310 0.8310 0.8320 0.8340
15.743343 0.8360 0.8390 0.8390 0.8360 0.8360
15.776000 0.8390 0.8390 0.8390 0.8390 0.8390
15.808343 0.8390 0.8390 0.8390 0.8360 0.8360
15.841000 0.8360 0.8360 0.8360 0.8340 0.8320
15.873343 0.8320 0.8310 0.8310 0.8320 0.8340
15.905000 0.8360 0.8360 0.8320 0.8320 0.8320
15.937343 0.8320 0.8310 0.8270 0.8270 0.8260
15.970000 0.8270 0.8260 0.8230 0.8230 0.8240
##END=
