##TITLE=1,2,4-TRI-ACETOXYBENZENE
$$ E.K. (W.L.)
##JCAMP-DX=4.24
##DATA TYPE=INFRARED SPECTRUM
##CLASS=COBLENTZ
##ORIGIN=WYANDOTTE CHEMICALS CORP., WYANDOTTE, MICHIGAN, USA
##OWNER=COBLENTZ SOCIETY
Collection (C) 2018 copyright by the U.S. Secretary of Commerce
on behalf of the United States of America. All rights reserved.
##DATE=Not specified, most likely prior to 1970
##NAMES=2,4-bis(acetyloxy)phenyl acetate
##CAS REGISTRY NO=613-03-6
##MOLFORM=C12 H12 O6
##MP=95-99 C
##SOURCE REFERENCE=COBLENTZ NO. 2707
##$NIST SOURCE=COBLENTZ
##$NIST IMAGE=cob2707
##SPECTROMETER/DATA SYSTEM=Not specified, most likely a prism, grating, or hybrid spectrometer.
##STATE=SOLID (MINERAL OIL MULL)
##SAMPLING PROCEDURE=TRANSMISSION
##RESOLUTION=4
##DATA PROCESSING=DIGITIZED BY NIST FROM HARD COPY
##XUNITS=MICROMETERS
##YUNITS=TRANSMITTANCE
##XFACTOR=1.000000
##YFACTOR=1
##DELTAX=000.006626
##FIRSTX=2.033
##LASTX=15.9934
##FIRSTY=0.823
##MAXX=15.9934
##MINX=2.033
##MAXY=0.983
##MINY=0.028
##NPOINTS=2108
##XYDATA=(X++(Y..Y))
2.033000 0.8230 0.8230 0.8230 0.8250 0.8250
2.066144 0.8250 0.8270 0.8270 0.8280 0.8280
2.099000 0.8300 0.8300 0.8300 0.8300 0.8300
2.132144 0.8280 0.8280 0.8280 0.8280 0.8270
2.166000 0.8250 0.8230 0.8200 0.8180 0.8170
2.199144 0.8150 0.8150 0.8130 0.8130 0.8120
2.232000 0.8120 0.8120 0.8130 0.8130 0.8170
2.265144 0.8180 0.8180 0.8180 0.8180 0.8200
2.298000 0.8200 0.8200 0.8220 0.8220 0.8230
2.331144 0.8230 0.8270 0.8270 0.8280 0.8280
2.364000 0.8280 0.8280 0.8280 0.8280 0.8280
2.397144 0.8280 0.8280 0.8300 0.8300 0.8320
2.431000 0.8330 0.8330 0.8350 0.8350 0.8370
2.464144 0.8380 0.8400 0.8420 0.8450 0.8470
2.497000 0.8480 0.8480 0.8500 0.8500 0.8520
2.530144 0.8520 0.8520 0.8530 0.8530 0.8530
2.563000 0.8550 0.8550 0.8550 0.8550 0.8520
2.596144 0.8500 0.8480 0.8500 0.8530 0.8550
2.629000 0.8600 0.8620 0.8600 0.8580 0.8550
2.662144 0.8520 0.8500 0.8480 0.8470 0.8470
2.696000 0.8450 0.8420 0.8400 0.8400 0.8400
2.729144 0.8400 0.8380 0.8370 0.8350 0.8330
2.762000 0.8300 0.8280 0.8250 0.8230 0.8180
2.795144 0.8150 0.8080 0.8000 0.7920 0.7850
2.828000 0.7800 0.7750 0.7700 0.7690 0.7700
2.861144 0.7750 0.7800 0.7840 0.7850 0.7870
2.894000 0.7870 0.7900 0.7940 0.7970 0.7970
2.927144 0.7970 0.7950 0.7940 0.7920 0.7920
2.961000 0.7920 0.7920 0.7920 0.7920 0.7940
2.994144 0.7940 0.7950 0.7950 0.7970 0.7970
3.027000 0.7970 0.7990 0.8000 0.8020 0.8030
3.060144 0.8030 0.8050 0.8050 0.8080 0.8100
3.093000 0.8120 0.8150 0.8180 0.8180 0.8180
3.126144 0.8180 0.8150 0.8130 0.8120 0.8100
3.159000 0.8100 0.8120 0.8130 0.8130 0.8150
3.192144 0.8150 0.8150 0.8130 0.8050 0.8020
3.226000 0.7990 0.7970 0.7940 0.7920 0.7900
3.259144 0.7900 0.7850 0.7820 0.7790 0.7740
3.292000 0.7650 0.7450 0.6990 0.6610 0.6160
3.325144 0.5430 0.4850 0.4250 0.2400 0.1760
3.358000 0.1340 0.0560 0.0490 0.0480 0.0460
3.391144 0.0460 0.0480 0.0540 0.0630 0.0790
3.425000 0.0990 0.1210 0.1410 0.1640 0.1790
3.458144 0.1790 0.1660 0.1540 0.1420 0.1410
3.491000 0.1420 0.1720 0.2140 0.2520 0.3150
3.524144 0.3820 0.4460 0.6360 0.7070 0.7550
3.557000 0.7870 0.8050 0.8170 0.8230 0.8330
3.590144 0.8480 0.8620 0.8700 0.8770 0.8800
3.623000 0.8850 0.8880 0.8880 0.8880 0.8880
3.656144 0.8880 0.8880 0.8880 0.8880 0.8880
3.690000 0.8900 0.8930 0.9000 0.9030 0.9050
3.723144 0.9050 0.9050 0.9060 0.9060 0.9080
3.756000 0.9080 0.9100 0.9100 0.9110 0.9130
3.789144 0.9130 0.9150 0.9160 0.9180 0.9200
3.822000 0.9200 0.9210 0.9210 0.9260 0.9280
3.855144 0.9300 0.9310 0.9310 0.9310 0.9310
3.888000 0.9330 0.9330 0.9330 0.9330 0.9350
3.921144 0.9360 0.9360 0.9360 0.9380 0.9400
3.955000 0.9410 0.9430 0.9430 0.9430 0.9430
3.988144 0.9450 0.9450 0.9460 0.9480 0.9500
4.021000 0.9500 0.9530 0.9550 0.9550 0.9550
4.054144 0.9550 0.9550 0.9530 0.9530 0.9510
4.087000 0.9500 0.9500 0.9480 0.9480 0.9480
4.120144 0.9450 0.9430 0.9410 0.9380 0.9330
4.153000 0.9310 0.9310 0.9300 0.9300 0.9300
4.186144 0.9280 0.9260 0.9260 0.9250 0.9250
4.220000 0.9230 0.9210 0.9200 0.9160 0.9130
4.253144 0.9080 0.9060 0.9060 0.9100 0.9130
4.286000 0.9210 0.9260 0.9300 0.9310 0.9350
4.319144 0.9400 0.9450 0.9500 0.9550 0.9610
4.352000 0.9680 0.9730 0.9780 0.9810 0.9830
4.385144 0.9830 0.9800 0.9710 0.9660 0.9630
4.418000 0.9610 0.9600 0.9600 0.9580 0.9580
4.451144 0.9580 0.9580 0.9600 0.9610 0.9630
4.485000 0.9650 0.9700 0.9710 0.9710 0.9710
4.518144 0.9710 0.9700 0.9700 0.9660 0.9650
4.551000 0.9630 0.9630 0.9630 0.9630 0.9650
4.584144 0.9650 0.9680 0.9700 0.9700 0.9710
4.617000 0.9710 0.9710 0.9710 0.9710 0.9710
4.650144 0.9710 0.9730 0.9730 0.9730 0.9750
4.683000 0.9760 0.9780 0.9780 0.9780 0.9780
4.716144 0.9760 0.9750 0.9750 0.9700 0.9680
4.750000 0.9630 0.9630 0.9600 0.9560 0.9560
4.783144 0.9530 0.9530 0.9530 0.9550 0.9550
4.816000 0.9560 0.9560 0.9560 0.9560 0.9560
4.849144 0.9550 0.9530 0.9510 0.9510 0.9500
4.882000 0.9480 0.9480 0.9460 0.9450 0.9430
4.915144 0.9400 0.9360 0.9330 0.9330 0.9330
4.948000 0.9330 0.9350 0.9360 0.9360 0.9360
4.981144 0.9380 0.9400 0.9400 0.9410 0.9410
5.015000 0.9410 0.9410 0.9410 0.9400 0.9380
5.048144 0.9380 0.9380 0.9380 0.9400 0.9410
5.081000 0.9430 0.9460 0.9460 0.9450 0.9410
5.114144 0.9380 0.9300 0.9280 0.9300 0.9330
5.147000 0.9400 0.9450 0.9480 0.9500 0.9510
5.180144 0.9550 0.9560 0.9560 0.9550 0.9530
5.213000 0.9510 0.9480 0.9430 0.9410 0.9380
5.246144 0.9310 0.9300 0.9250 0.9210 0.9180
5.280000 0.9160 0.9130 0.9110 0.9100 0.9080
5.313144 0.9010 0.8970 0.8900 0.8870 0.8830
5.346000 0.8820 0.8800 0.8800 0.8800 0.8800
5.379144 0.8800 0.8800 0.8800 0.8780 0.8730
5.412000 0.8680 0.8650 0.8600 0.8550 0.8470
5.445144 0.8420 0.8380 0.8350 0.8200 0.8050
5.478000 0.7940 0.7750 0.7640 0.7490 0.7350
5.511144 0.7190 0.7040 0.6870 0.6710 0.6520
5.545000 0.6340 0.6160 0.5940 0.5730 0.5410
5.578144 0.5090 0.4630 0.4160 0.3220 0.1790
5.611000 0.0910 0.0390 0.0340 0.0330 0.0330
5.644144 0.0330 0.0330 0.0330 0.0330 0.0330
5.677000 0.0330 0.0330 0.0330 0.0430 0.0830
5.710144 0.1140 0.1590 0.2150 0.2800 0.3450
5.743000 0.4060 0.4630 0.5310 0.5480 0.5510
5.776144 0.5510 0.5560 0.5630 0.5680 0.5760
5.810000 0.5860 0.5980 0.6120 0.6290 0.6490
5.843144 0.6660 0.6810 0.6960 0.7120 0.7270
5.876000 0.7440 0.7570 0.7720 0.7850 0.7900
5.909144 0.7920 0.7970 0.8000 0.8070 0.8130
5.942000 0.8170 0.8170 0.8200 0.8200 0.8180
5.975144 0.8170 0.8150 0.8130 0.8130 0.8130
6.009000 0.8130 0.8130 0.8150 0.8170 0.8200
6.042144 0.8200 0.8200 0.8150 0.8080 0.8050
6.075000 0.8030 0.8000 0.8000 0.8000 0.7990
6.108144 0.7990 0.7970 0.7970 0.7940 0.7920
6.141000 0.7750 0.7470 0.7190 0.6840 0.6440
6.174144 0.6340 0.6320 0.6340 0.6470 0.6590
6.207000 0.6690 0.6820 0.6970 0.7150 0.7340
6.240144 0.7520 0.7690 0.7840 0.7950 0.8050
6.274000 0.8120 0.8220 0.8280 0.8330 0.8370
6.307144 0.8420 0.8470 0.8500 0.8500 0.8530
6.340000 0.8550 0.8550 0.8550 0.8550 0.8550
6.373144 0.8550 0.8550 0.8550 0.8550 0.8530
6.406000 0.8500 0.8470 0.8420 0.8400 0.8370
6.439144 0.8300 0.8270 0.8230 0.8230 0.8170
6.472000 0.8080 0.7990 0.7890 0.7790 0.7670
6.505144 0.7540 0.7490 0.7390 0.7270 0.7150
6.539000 0.7000 0.6870 0.6710 0.6560 0.6410
6.572144 0.6270 0.6210 0.6060 0.5760 0.5060
6.605000 0.4580 0.4100 0.2190 0.1660 0.0890
6.638144 0.0880 0.0890 0.1140 0.1370 0.1720
6.671000 0.1970 0.2150 0.2470 0.2890 0.3320
6.704144 0.3720 0.4010 0.4210 0.4430 0.4610
6.737000 0.4710 0.4750 0.4800 0.4800 0.4430
6.770144 0.3970 0.3780 0.3580 0.3380 0.3170
6.804000 0.3000 0.3000 0.3000 0.3020 0.3030
6.837144 0.3080 0.3120 0.3170 0.3200 0.3270
6.870000 0.3330 0.3380 0.3420 0.3430 0.3480
6.903144 0.3500 0.3530 0.3570 0.3600 0.3650
6.936000 0.3670 0.3700 0.3720 0.3720 0.3730
6.969144 0.3750 0.3770 0.3780 0.3820 0.3850
7.002000 0.3880 0.3900 0.4010 0.4130 0.4280
7.035144 0.4460 0.4700 0.4960 0.5280 0.5360
7.069000 0.5480 0.5610 0.5810 0.5930 0.5980
7.102144 0.6020 0.6160 0.6210 0.6240 0.6290
7.135000 0.6290 0.6310 0.6290 0.6160 0.6040
7.168144 0.5910 0.5710 0.5510 0.5190 0.5030
7.201000 0.4860 0.4310 0.3620 0.2700 0.2150
7.234144 0.1910 0.1470 0.1090 0.0860 0.0780
7.267000 0.0760 0.0760 0.0780 0.0940 0.1160
7.300144 0.1410 0.1670 0.1990 0.2270 0.2800
7.334000 0.3320 0.3820 0.4310 0.4750 0.5490
7.367144 0.5760 0.5940 0.6140 0.6320 0.6460
7.400000 0.6590 0.6690 0.6790 0.6870 0.6940
7.433144 0.7000 0.7050 0.7120 0.7190 0.7240
7.466000 0.7320 0.7390 0.7450 0.7490 0.7500
7.499144 0.7600 0.7640 0.7650 0.7670 0.7670
7.532000 0.7690 0.7690 0.7700 0.7700 0.7720
7.565144 0.7740 0.7740 0.7740 0.7740 0.7720
7.599000 0.7700 0.7670 0.7640 0.7590 0.7550
7.632144 0.7540 0.7500 0.7450 0.7420 0.7370
7.665000 0.7320 0.7290 0.7270 0.7250 0.7220
7.698144 0.7170 0.7140 0.7090 0.7040 0.6960
7.731000 0.6910 0.6810 0.6710 0.6590 0.6490
7.764144 0.6370 0.6270 0.6170 0.6060 0.5960
7.797000 0.5860 0.5690 0.5560 0.5440 0.5260
7.830144 0.5130 0.4980 0.4510 0.4130 0.3830
7.864000 0.3650 0.3630 0.3650 0.4030 0.4200
7.897144 0.4680 0.5390 0.5530 0.5580 0.5590
7.930000 0.5580 0.5480 0.5410 0.5360 0.5330
7.963144 0.5290 0.5260 0.5230 0.5190 0.5140
7.996000 0.5110 0.5080 0.5010 0.5000 0.4980
8.029144 0.4950 0.4930 0.4900 0.4830 0.4750
8.062000 0.4600 0.4500 0.4400 0.4280 0.4150
8.095144 0.4010 0.3850 0.3700 0.3520 0.3330
8.129000 0.3130 0.2940 0.2720 0.2490 0.2240
8.162144 0.1970 0.1720 0.1510 0.1310 0.1060
8.195000 0.0840 0.0640 0.0480 0.0360 0.0330
8.228144 0.0310 0.0310 0.0310 0.0310 0.0290
8.261000 0.0290 0.0290 0.0290 0.0290 0.0310
8.294144 0.0330 0.0340 0.0380 0.0380 0.0380
8.327000 0.0380 0.0380 0.0340 0.0330 0.0310
8.360144 0.0290 0.0290 0.0280 0.0280 0.0290
8.394000 0.0290 0.0310 0.0310 0.0310 0.0310
8.427144 0.0310 0.0310 0.0310 0.0310 0.0290
8.460000 0.0290 0.0290 0.0290 0.0290 0.0290
8.493144 0.0290 0.0290 0.0290 0.0290 0.0290
8.526000 0.0290 0.0290 0.0290 0.0290 0.0290
8.559144 0.0310 0.0310 0.0330 0.0330 0.0340
8.593000 0.0380 0.0410 0.0480 0.0540 0.0640
8.626144 0.0760 0.0860 0.0960 0.1040 0.1140
8.659000 0.1260 0.1340 0.1420 0.1460 0.1540
8.692144 0.1570 0.1570 0.1570 0.1520 0.1460
8.725000 0.1360 0.1260 0.1160 0.1010 0.0890
8.758144 0.0830 0.0790 0.0790 0.0780 0.0780
8.791000 0.0790 0.0860 0.1020 0.1190 0.1360
8.824144 0.1540 0.1720 0.1910 0.2100 0.2320
8.858000 0.2540 0.2770 0.3000 0.3250 0.3520
8.891144 0.3750 0.3950 0.4160 0.4350 0.4510
8.924000 0.4660 0.4780 0.4880 0.4930 0.5110
8.957144 0.5140 0.5140 0.5140 0.5110 0.5010
8.990000 0.4980 0.4930 0.4650 0.4360 0.4030
9.023144 0.3570 0.2970 0.2470 0.2170 0.1970
9.056000 0.1810 0.1770 0.1760 0.1770 0.1920
9.089144 0.2100 0.2390 0.2840 0.3250 0.3620
9.123000 0.3950 0.4230 0.4500 0.4730 0.4950
9.156144 0.5280 0.5410 0.5540 0.5630 0.5730
9.189000 0.5790 0.5840 0.5890 0.5940 0.5980
9.222144 0.6010 0.6040 0.6110 0.6110 0.6120
9.255000 0.6120 0.6140 0.6160 0.6170 0.6210
9.288144 0.6260 0.6290 0.6310 0.6310 0.6310
9.321000 0.6310 0.6320 0.6340 0.6360 0.6370
9.354144 0.6370 0.6390 0.6390 0.6390 0.6390
9.388000 0.6390 0.6370 0.6360 0.6340 0.6320
9.421144 0.6290 0.6270 0.6240 0.6210 0.6160
9.454000 0.6060 0.5960 0.5880 0.5760 0.5640
9.487144 0.5490 0.5310 0.5140 0.5060 0.4960
9.520000 0.4760 0.4580 0.4410 0.4230 0.4110
9.553144 0.4100 0.4100 0.4100 0.4110 0.4230
9.586000 0.4360 0.4500 0.4630 0.4780 0.4930
9.619144 0.5180 0.5290 0.5390 0.5480 0.5530
9.653000 0.5560 0.5640 0.5690 0.5690 0.5690
9.686144 0.5630 0.5560 0.5490 0.5390 0.5240
9.719000 0.5080 0.4980 0.4880 0.4650 0.4410
9.752144 0.4150 0.3880 0.3600 0.3300 0.3020
9.785000 0.2720 0.2440 0.2140 0.1940 0.1790
9.818144 0.1610 0.1510 0.1370 0.1270 0.1190
9.851000 0.1140 0.1120 0.1140 0.1260 0.1410
9.884144 0.1590 0.1760 0.1960 0.2150 0.2400
9.918000 0.2700 0.3000 0.3230 0.3530 0.3800
9.951144 0.4050 0.4300 0.4510 0.4730 0.4950
9.984000 0.5330 0.5530 0.5710 0.5890 0.6070
10.017144 0.6170 0.6260 0.6370 0.6470 0.6570
10.050000 0.6690 0.6770 0.6860 0.6920 0.6960
10.083144 0.7000 0.7050 0.7120 0.7200 0.7290
10.116000 0.7300 0.7320 0.7340 0.7350 0.7370
10.149144 0.7400 0.7420 0.7440 0.7450 0.7470
10.183000 0.7470 0.7470 0.7470 0.7450 0.7440
10.216144 0.7420 0.7370 0.7350 0.7300 0.7290
10.249000 0.7150 0.7020 0.6810 0.6610 0.6370
10.282144 0.6140 0.5860 0.5530 0.5110 0.4860
10.315000 0.4610 0.4010 0.3580 0.3280 0.3050
10.348144 0.3050 0.3070 0.3300 0.3570 0.3930
10.381000 0.4360 0.4710 0.5180 0.5430 0.5780
10.414144 0.5830 0.5830 0.5790 0.5590 0.5440
10.448000 0.5340 0.5330 0.5360 0.5610 0.5930
10.481144 0.6210 0.6440 0.6660 0.6840 0.6990
10.514000 0.7100 0.7200 0.7290 0.7370 0.7420
10.547144 0.7470 0.7500 0.7540 0.7550 0.7590
10.580000 0.7590 0.7600 0.7600 0.7590 0.7570
10.613144 0.7540 0.7520 0.7500 0.7520 0.7550
10.646000 0.7590 0.7620 0.7640 0.7650 0.7650
10.679144 0.7650 0.7640 0.7620 0.7620 0.7600
10.713000 0.7570 0.7520 0.7470 0.7420 0.7340
10.746144 0.7250 0.7150 0.7040 0.6860 0.6720
10.779000 0.6610 0.6490 0.6360 0.6210 0.6010
10.812144 0.5740 0.5390 0.5180 0.4950 0.4380
10.845000 0.3670 0.2800 0.2200 0.1910 0.1610
10.878144 0.1110 0.0760 0.0580 0.0490 0.0460
10.911000 0.0440 0.0440 0.0480 0.0540 0.0630
10.944144 0.0760 0.0910 0.1070 0.1270 0.1470
10.978000 0.1690 0.1810 0.1910 0.1970 0.2050
11.011144 0.2120 0.2200 0.2270 0.2350 0.2450
11.044000 0.2650 0.2900 0.3200 0.3520 0.3800
11.077144 0.4050 0.4280 0.4500 0.4700 0.4900
11.110000 0.5290 0.5540 0.5710 0.5860 0.5960
11.143144 0.6070 0.6210 0.6370 0.6460 0.6520
11.177000 0.6570 0.6640 0.6720 0.6740 0.6790
11.210144 0.6810 0.6890 0.6940 0.6970 0.6990
11.243000 0.7020 0.7100 0.7150 0.7190 0.7200
11.276144 0.7240 0.7290 0.7320 0.7320 0.7340
11.309000 0.7390 0.7440 0.7500 0.7520 0.7520
11.342144 0.7550 0.7600 0.7670 0.7690 0.7720
11.375000 0.7720 0.7750 0.7770 0.7790 0.7800
11.408144 0.7800 0.7800 0.7790 0.7790 0.7790
11.442000 0.7750 0.7720 0.7700 0.7650 0.7600
11.475144 0.7540 0.7440 0.7350 0.7200 0.6990
11.508000 0.6770 0.6520 0.6310 0.6090 0.5940
11.541144 0.5840 0.5710 0.5610 0.5590 0.5630
11.574000 0.5690 0.5740 0.5790 0.5990 0.6010
11.607144 0.6010 0.6010 0.5990 0.5840 0.5710
11.640000 0.5610 0.5510 0.5490 0.5510 0.5660
11.673144 0.5810 0.5940 0.6140 0.6390 0.6610
11.707000 0.6760 0.6890 0.7000 0.7090 0.7170
11.740144 0.7250 0.7340 0.7390 0.7400 0.7400
11.773000 0.7400 0.7400 0.7390 0.7340 0.7300
11.806144 0.7270 0.7200 0.7100 0.6990 0.6790
11.839000 0.6540 0.6320 0.6090 0.5840 0.5480
11.872144 0.5040 0.4800 0.4550 0.4010 0.3450
11.905000 0.2900 0.2890 0.2890 0.2900 0.2950
11.938144 0.3030 0.3150 0.3270 0.3280 0.3280
11.972000 0.3280 0.3220 0.3170 0.3150 0.3170
12.005144 0.3350 0.3530 0.3680 0.4030 0.4430
12.038000 0.4850 0.5530 0.5810 0.6060 0.6290
12.071144 0.6490 0.6670 0.6840 0.6990 0.7140
12.104000 0.7290 0.7420 0.7540 0.7620 0.7700
12.137144 0.7750 0.7820 0.7870 0.7920 0.7950
12.170000 0.7990 0.8000 0.8020 0.8030 0.8070
12.203144 0.8080 0.8130 0.8170 0.8180 0.8180
12.237000 0.8200 0.8220 0.8230 0.8270 0.8280
12.270144 0.8300 0.8320 0.8320 0.8320 0.8320
12.303000 0.8320 0.8330 0.8330 0.8330 0.8350
12.336144 0.8350 0.8370 0.8370 0.8370 0.8370
12.369000 0.8370 0.8380 0.8380 0.8370 0.8330
12.402144 0.8320 0.8280 0.8230 0.8180 0.8150
12.435000 0.8100 0.8050 0.8000 0.7970 0.7950
12.468144 0.7940 0.7940 0.7940 0.7950 0.7950
12.502000 0.7940 0.7940 0.7900 0.7870 0.7820
12.535144 0.7720 0.7640 0.7550 0.7500 0.7490
12.568000 0.7500 0.7520 0.7550 0.7650 0.7820
12.601144 0.7920 0.8020 0.8100 0.8180 0.8270
12.634000 0.8330 0.8370 0.8400 0.8430 0.8470
12.667144 0.8500 0.8520 0.8530 0.8550 0.8570
12.700000 0.8580 0.8600 0.8620 0.8620 0.8630
12.733144 0.8630 0.8630 0.8650 0.8650 0.8670
12.767000 0.8670 0.8680 0.8680 0.8680 0.8680
12.800144 0.8680 0.8680 0.8680 0.8680 0.8680
12.833000 0.8680 0.8700 0.8700 0.8720 0.8720
12.866144 0.8720 0.8720 0.8720 0.8720 0.8700
12.899000 0.8700 0.8700 0.8700 0.8700 0.8680
12.932144 0.8680 0.8680 0.8670 0.8670 0.8670
12.965000 0.8650 0.8650 0.8630 0.8620 0.8600
12.998144 0.8580 0.8570 0.8550 0.8530 0.8520
13.032000 0.8500 0.8480 0.8470 0.8420 0.8350
13.065144 0.8300 0.8230 0.8130 0.8030 0.8000
13.098000 0.7990 0.7950 0.7940 0.7920 0.7900
13.131144 0.7900 0.7920 0.8000 0.8070 0.8130
13.164000 0.8170 0.8220 0.8250 0.8320 0.8370
13.197144 0.8380 0.8400 0.8420 0.8450 0.8450
13.230000 0.8480 0.8480 0.8500 0.8500 0.8530
13.263144 0.8550 0.8570 0.8570 0.8580 0.8580
13.297000 0.8600 0.8600 0.8620 0.8620 0.8630
13.330144 0.8650 0.8650 0.8650 0.8650 0.8650
13.363000 0.8650 0.8650 0.8670 0.8670 0.8670
13.396144 0.8670 0.8670 0.8670 0.8670 0.8670
13.429000 0.8670 0.8670 0.8650 0.8650 0.8630
13.462144 0.8630 0.8620 0.8600 0.8600 0.8600
13.496000 0.8600 0.8580 0.8580 0.8580 0.8580
13.529144 0.8570 0.8570 0.8570 0.8570 0.8550
13.562000 0.8550 0.8530 0.8530 0.8520 0.8520
13.595144 0.8520 0.8520 0.8520 0.8520 0.8520
13.628000 0.8520 0.8520 0.8520 0.8520 0.8530
13.661144 0.8550 0.8550 0.8550 0.8550 0.8550
13.694000 0.8550 0.8550 0.8550 0.8550 0.8550
13.727144 0.8530 0.8530 0.8530 0.8530 0.8530
13.761000 0.8530 0.8530 0.8530 0.8530 0.8530
13.794144 0.8530 0.8530 0.8530 0.8520 0.8520
13.827000 0.8500 0.8500 0.8500 0.8480 0.8480
13.860144 0.8470 0.8470 0.8450 0.8450 0.8450
13.893000 0.8430 0.8430 0.8430 0.8430 0.8430
13.926144 0.8430 0.8420 0.8420 0.8420 0.8400
13.959000 0.8400 0.8400 0.8400 0.8380 0.8380
13.992144 0.8370 0.8320 0.8320 0.8220 0.8200
14.026000 0.8180 0.8120 0.8080 0.8030 0.8020
14.059144 0.8020 0.8000 0.8000 0.8000 0.8020
14.092000 0.8020 0.8050 0.8050 0.8100 0.8120
14.125144 0.8120 0.8150 0.8220 0.8280 0.8320
14.158000 0.8320 0.8320 0.8320 0.8300 0.8300
14.191144 0.8300 0.8280 0.8270 0.8230 0.8180
14.224000 0.8170 0.8120 0.8080 0.8030 0.8000
14.257144 0.8000 0.7990 0.7970 0.7970 0.7970
14.291000 0.7970 0.7970 0.7990 0.8030 0.8070
14.324144 0.8080 0.8100 0.8100 0.8100 0.8080
14.357000 0.8080 0.8100 0.8120 0.8150 0.8180
14.390144 0.8220 0.8250 0.8300 0.8330 0.8370
14.423000 0.8400 0.8400 0.8420 0.8450 0.8480
14.456144 0.8530 0.8570 0.8570 0.8580 0.8600
14.489000 0.8600 0.8620 0.8630 0.8670 0.8680
14.522144 0.8700 0.8700 0.8700 0.8700 0.8700
14.556000 0.8700 0.8700 0.8700 0.8680 0.8670
14.589144 0.8670 0.8670 0.8680 0.8680 0.8680
14.622000 0.8680 0.8680 0.8680 0.8680 0.8680
14.655144 0.8680 0.8680 0.8680 0.8670 0.8670
14.688000 0.8670 0.8670 0.8670 0.8670 0.8670
14.721144 0.8670 0.8670 0.8670 0.8650 0.8630
14.754000 0.8630 0.8620 0.8600 0.8580 0.8580
14.787144 0.8600 0.8600 0.8620 0.8620 0.8620
14.821000 0.8600 0.8600 0.8580 0.8580 0.8580
14.854144 0.8580 0.8580 0.8580 0.8580 0.8580
14.887000 0.8600 0.8600 0.8580 0.8580 0.8580
14.920144 0.8580 0.8580 0.8580 0.8580 0.8580
14.953000 0.8570 0.8570 0.8550 0.8530 0.8500
14.986144 0.8500 0.8480 0.8430 0.8400 0.8370
15.019000 0.8330 0.8280 0.8270 0.8220 0.8170
15.052144 0.8130 0.8100 0.8050 0.8030 0.8050
15.086000 0.8070 0.8100 0.8130 0.8180 0.8230
15.119144 0.8270 0.8280 0.8320 0.8350 0.8370
15.152000 0.8380 0.8380 0.8400 0.8420 0.8420
15.185144 0.8420 0.8420 0.8400 0.8400 0.8380
15.218000 0.8370 0.8350 0.8300 0.8280 0.8270
15.251144 0.8230 0.8180 0.8170 0.8150 0.8120
15.284000 0.8100 0.8080 0.8070 0.8030 0.8030
15.317144 0.8000 0.8000 0.8000 0.8000 0.7990
15.351000 0.7990 0.7970 0.7970 0.7950 0.7950
15.384144 0.7950 0.7950 0.7950 0.7940 0.7920
15.417000 0.7890 0.7890 0.7890 0.7890 0.7890
15.450144 0.7900 0.7920 0.7920 0.7900 0.7890
15.483000 0.7890 0.7870 0.7850 0.7850 0.7840
15.516144 0.7840 0.7820 0.7820 0.7800 0.7790
15.549000 0.7790 0.7790 0.7820 0.7850 0.7850
15.582144 0.7850 0.7850 0.7850 0.7850 0.7850
15.616000 0.7820 0.7820 0.7800 0.7800 0.7800
15.649144 0.7800 0.7790 0.7790 0.7770 0.7750
15.682000 0.7740 0.7740 0.7740 0.7770 0.7770
15.715144 0.7750 0.7750 0.7700 0.7690 0.7670
15.748000 0.7650 0.7620 0.7600 0.7590 0.7570
15.781144 0.7520 0.7490 0.7450 0.7420 0.7400
15.814000 0.7350 0.7340 0.7340 0.7320 0.7320
15.847144 0.7300 0.7290 0.7220 0.7170 0.7120
15.881000 0.7020 0.6940 0.6870 0.6810 0.6740
15.914144 0.6670 0.6660 0.6610 0.6570 0.6560
15.947000 0.6560 0.6540 0.6520 0.6490 0.6490
15.980144 0.6490 0.6490 0.6490
##END=
