##TITLE=ANILINE, N-ETHYL-N-METHYL-
##JCAMP-DX=4.24
$$ By DXEDIT 1.05 (RS McDonald)
##DATA TYPE=INFRARED SPECTRUM
##CLASS=COBLENTZ III
##ORIGIN=WYANDOTTE CHEMICALS CORP.
##OWNER=COBLENTZ SOC.
Collection (C) 2018 copyright by the U.S. Secretary of Commerce
on behalf of the United States of America. All rights reserved.
##DATE=Not specified, most likely prior to 1970
##NAMES=N-ethyl-N-methyl-N-phenylamine
N-ethyl-N-methylaniline
##CAS REGISTRY NO=613-97-8
##MOLFORM=C9 H13 N
##BP=90-91 C AT 11 mmHg
##SOURCE REFERENCE=COBLENTZ NO. 05925
##$NIST SOURCE=COBLENTZ
##$NIST IMAGE=cob5925
##SPECTROMETER/DATA SYSTEM=BAIRD (GRATING)
##INSTRUMENT PARAMETERS=NaCl PRISM
##STATE=LIQUID (NEAT)
##PATH LENGTH=0.003 CM
##SAMPLING PROCEDURE=TRANSMISSION
##RESOLUTION=2
##DATA PROCESSING=DIGITIZED BY COBLENTZ SOCIETY (BATCH I) FROM HARD COPY
##XUNITS=1/CM
##YUNITS=TRANSMITTANCE
##XLABEL=Wavenumbers (cm-1)
##YLABEL=Transmittance
##XFACTOR=1
##YFACTOR=1
##DELTAX=1
##FIRSTX=4000
##LASTX=625
##FIRSTY=0.9351
##MAXX=4000
##MINX=625
##MAXY=1.0018
##MINY=0.0466
##NPOINTS=3376
##XYDATA=(X++(Y..Y))
4000.000000 0.9351 0.9351 0.9352 0.9353 0.9354
3995.000000 0.9355 0.9356 0.9357 0.9358 0.9359
3990.000000 0.9360 0.9362 0.9363 0.9364 0.9365
3985.000000 0.9366 0.9367 0.9368 0.9368 0.9370
3980.000000 0.9371 0.9373 0.9374 0.9375 0.9375
3975.000000 0.9377 0.9378 0.9378 0.9380 0.9381
3970.000000 0.9383 0.9384 0.9385 0.9386 0.9387
3965.000000 0.9388 0.9389 0.9390 0.9390 0.9392
3960.000000 0.9393 0.9394 0.9395 0.9396 0.9397
3955.000000 0.9398 0.9399 0.9401 0.9402 0.9403
3950.000000 0.9404 0.9405 0.9406 0.9407 0.9408
3945.000000 0.9409 0.9411 0.9412 0.9413 0.9414
3940.000000 0.9415 0.9416 0.9417 0.9418 0.9418
3935.000000 0.9420 0.9421 0.9421 0.9423 0.9424
3930.000000 0.9425 0.9427 0.9428 0.9428 0.9430
3925.000000 0.9431 0.9432 0.9433 0.9435 0.9436
3920.000000 0.9437 0.9438 0.9439 0.9440 0.9441
3915.000000 0.9442 0.9443 0.9444 0.9445 0.9446
3910.000000 0.9447 0.9448 0.9449 0.9451 0.9452
3905.000000 0.9453 0.9454 0.9455 0.9456 0.9458
3900.000000 0.9459 0.9460 0.9461 0.9462 0.9463
3895.000000 0.9464 0.9466 0.9467 0.9468 0.9468
3890.000000 0.9470 0.9471 0.9471 0.9473 0.9474
3885.000000 0.9475 0.9475 0.9477 0.9478 0.9478
3880.000000 0.9480 0.9481 0.9482 0.9483 0.9484
3875.000000 0.9485 0.9485 0.9486 0.9486 0.9487
3870.000000 0.9487 0.9488 0.9488 0.9488 0.9489
3865.000000 0.9489 0.9489 0.9490 0.9490 0.9491
3860.000000 0.9492 0.9492 0.9493 0.9493 0.9493
3855.000000 0.9494 0.9494 0.9494 0.9495 0.9495
3850.000000 0.9496 0.9496 0.9497 0.9497 0.9498
3845.000000 0.9498 0.9498 0.9499 0.9499 0.9499
3840.000000 0.9500 0.9500 0.9501 0.9501 0.9502
3835.000000 0.9502 0.9503 0.9503 0.9503 0.9504
3830.000000 0.9504 0.9504 0.9505 0.9505 0.9505
3825.000000 0.9505 0.9505 0.9505 0.9506 0.9506
3820.000000 0.9506 0.9507 0.9507 0.9507 0.9508
3815.000000 0.9508 0.9508 0.9509 0.9509 0.9509
3810.000000 0.9510 0.9510 0.9510 0.9510 0.9510
3805.000000 0.9511 0.9511 0.9511 0.9512 0.9512
3800.000000 0.9512 0.9513 0.9513 0.9513 0.9514
3795.000000 0.9514 0.9514 0.9515 0.9515 0.9515
3790.000000 0.9515 0.9515 0.9515 0.9514 0.9514
3785.000000 0.9513 0.9512 0.9512 0.9511 0.9511
3780.000000 0.9510 0.9510 0.9509 0.9508 0.9508
3775.000000 0.9508 0.9507 0.9507 0.9506 0.9506
3770.000000 0.9505 0.9505 0.9504 0.9504 0.9503
3765.000000 0.9502 0.9502 0.9501 0.9501 0.9500
3760.000000 0.9500 0.9499 0.9498 0.9497 0.9496
3755.000000 0.9496 0.9495 0.9494 0.9493 0.9492
3750.000000 0.9490 0.9489 0.9488 0.9487 0.9487
3745.000000 0.9486 0.9485 0.9484 0.9483 0.9482
3740.000000 0.9481 0.9480 0.9478 0.9478 0.9477
3735.000000 0.9475 0.9475 0.9474 0.9473 0.9471
3730.000000 0.9471 0.9470 0.9468 0.9468 0.9467
3725.000000 0.9466 0.9465 0.9463 0.9462 0.9461
3720.000000 0.9460 0.9459 0.9458 0.9457 0.9456
3715.000000 0.9455 0.9454 0.9453 0.9452 0.9450
3710.000000 0.9449 0.9448 0.9447 0.9446 0.9445
3705.000000 0.9444 0.9443 0.9442 0.9441 0.9440
3700.000000 0.9438 0.9437 0.9436 0.9435 0.9434
3695.000000 0.9433 0.9432 0.9431 0.9430 0.9428
3690.000000 0.9428 0.9427 0.9425 0.9425 0.9424
3685.000000 0.9423 0.9421 0.9421 0.9420 0.9418
3680.000000 0.9418 0.9417 0.9416 0.9415 0.9414
3675.000000 0.9413 0.9412 0.9411 0.9410 0.9408
3670.000000 0.9408 0.9407 0.9406 0.9405 0.9404
3665.000000 0.9403 0.9402 0.9400 0.9399 0.9398
3660.000000 0.9397 0.9396 0.9395 0.9394 0.9393
3655.000000 0.9392 0.9391 0.9390 0.9389 0.9388
3650.000000 0.9387 0.9386 0.9385 0.9384 0.9382
3645.000000 0.9381 0.9380 0.9378 0.9378 0.9377
3640.000000 0.9375 0.9374 0.9374 0.9373 0.9373
3635.000000 0.9371 0.9371 0.9371 0.9371 0.9370
3630.000000 0.9368 0.9368 0.9368 0.9368 0.9368
3625.000000 0.9367 0.9367 0.9366 0.9366 0.9366
3620.000000 0.9365 0.9365 0.9365 0.9364 0.9364
3615.000000 0.9363 0.9363 0.9363 0.9362 0.9362
3610.000000 0.9361 0.9360 0.9360 0.9359 0.9359
3605.000000 0.9358 0.9357 0.9357 0.9356 0.9355
3600.000000 0.9355 0.9354 0.9353 0.9352 0.9352
3595.000000 0.9351 0.9350 0.9349 0.9349 0.9348
3590.000000 0.9347 0.9346 0.9345 0.9345 0.9344
3585.000000 0.9343 0.9342 0.9342 0.9341 0.9339
3580.000000 0.9337 0.9335 0.9333 0.9330 0.9328
3575.000000 0.9325 0.9324 0.9321 0.9320 0.9317
3570.000000 0.9315 0.9313 0.9310 0.9308 0.9306
3565.000000 0.9303 0.9301 0.9299 0.9296 0.9294
3560.000000 0.9291 0.9289 0.9286 0.9284 0.9281
3555.000000 0.9278 0.9275 0.9273 0.9271 0.9268
3550.000000 0.9266 0.9263 0.9260 0.9258 0.9255
3545.000000 0.9253 0.9250 0.9247 0.9245 0.9242
3540.000000 0.9240 0.9238 0.9235 0.9233 0.9230
3535.000000 0.9228 0.9225 0.9223 0.9220 0.9217
3530.000000 0.9215 0.9212 0.9209 0.9207 0.9204
3525.000000 0.9202 0.9199 0.9196 0.9194 0.9191
3520.000000 0.9189 0.9187 0.9185 0.9182 0.9180
3515.000000 0.9178 0.9177 0.9175 0.9173 0.9171
3510.000000 0.9168 0.9167 0.9165 0.9163 0.9161
3505.000000 0.9159 0.9157 0.9155 0.9154 0.9152
3500.000000 0.9150 0.9148 0.9146 0.9144 0.9142
3495.000000 0.9140 0.9138 0.9136 0.9134 0.9132
3490.000000 0.9131 0.9128 0.9127 0.9125 0.9123
3485.000000 0.9121 0.9118 0.9117 0.9115 0.9113
3480.000000 0.9111 0.9109 0.9107 0.9105 0.9103
3475.000000 0.9101 0.9099 0.9097 0.9095 0.9093
3470.000000 0.9091 0.9089 0.9088 0.9086 0.9084
3465.000000 0.9082 0.9080 0.9078 0.9075 0.9074
3460.000000 0.9071 0.9070 0.9068 0.9066 0.9064
3455.000000 0.9062 0.9060 0.9058 0.9057 0.9055
3450.000000 0.9053 0.9052 0.9050 0.9049 0.9048
3445.000000 0.9047 0.9046 0.9045 0.9044 0.9043
3440.000000 0.9042 0.9041 0.9040 0.9039 0.9038
3435.000000 0.9036 0.9035 0.9034 0.9033 0.9032
3430.000000 0.9030 0.9028 0.9028 0.9027 0.9025
3425.000000 0.9025 0.9024 0.9023 0.9023 0.9021
3420.000000 0.9021 0.9021 0.9021 0.9021 0.9021
3415.000000 0.9021 0.9021 0.9021 0.9021 0.9021
3410.000000 0.9023 0.9023 0.9023 0.9023 0.9023
3405.000000 0.9023 0.9023 0.9023 0.9023 0.9024
3400.000000 0.9024 0.9024 0.9024 0.9024 0.9024
3395.000000 0.9024 0.9024 0.9024 0.9024 0.9024
3390.000000 0.9024 0.9024 0.9024 0.9025 0.9025
3385.000000 0.9025 0.9025 0.9025 0.9025 0.9025
3380.000000 0.9025 0.9025 0.9025 0.9025 0.9025
3375.000000 0.9025 0.9025 0.9027 0.9027 0.9028
3370.000000 0.9028 0.9028 0.9028 0.9030 0.9030
3365.000000 0.9030 0.9031 0.9031 0.9032 0.9032
3360.000000 0.9033 0.9033 0.9033 0.9034 0.9034
3355.000000 0.9035 0.9035 0.9036 0.9036 0.9037
3350.000000 0.9037 0.9037 0.9038 0.9038 0.9039
3345.000000 0.9039 0.9039 0.9039 0.9040 0.9040
3340.000000 0.9041 0.9041 0.9041 0.9042 0.9042
3335.000000 0.9043 0.9043 0.9044 0.9044 0.9044
3330.000000 0.9044 0.9044 0.9045 0.9045 0.9046
3325.000000 0.9046 0.9047 0.9047 0.9047 0.9047
3320.000000 0.9048 0.9048 0.9048 0.9048 0.9048
3315.000000 0.9049 0.9049 0.9050 0.9050 0.9051
3310.000000 0.9051 0.9051 0.9051 0.9051 0.9052
3305.000000 0.9052 0.9053 0.9053 0.9054 0.9054
3300.000000 0.9054 0.9054 0.9055 0.9055 0.9055
3295.000000 0.9055 0.9055 0.9055 0.9055 0.9055
3290.000000 0.9055 0.9054 0.9054 0.9054 0.9054
3285.000000 0.9053 0.9053 0.9053 0.9053 0.9053
3280.000000 0.9052 0.9052 0.9052 0.9052 0.9051
3275.000000 0.9051 0.9051 0.9051 0.9050 0.9048
3270.000000 0.9046 0.9044 0.9043 0.9040 0.9038
3265.000000 0.9036 0.9034 0.9032 0.9030 0.9028
3260.000000 0.9027 0.9021 0.9015 0.9008 0.9001
3255.000000 0.8994 0.8985 0.8975 0.8967 0.8958
3250.000000 0.8950 0.8943 0.8935 0.8927 0.8923
3245.000000 0.8920 0.8917 0.8914 0.8911 0.8908
3240.000000 0.8905 0.8902 0.8899 0.8896 0.8893
3235.000000 0.8890 0.8887 0.8886 0.8885 0.8884
3230.000000 0.8883 0.8881 0.8880 0.8878 0.8878
3225.000000 0.8877 0.8875 0.8874 0.8873 0.8871
3220.000000 0.8871 0.8868 0.8868 0.8867 0.8865
3215.000000 0.8863 0.8862 0.8860 0.8858 0.8856
3210.000000 0.8855 0.8853 0.8850 0.8847 0.8844
3205.000000 0.8841 0.8836 0.8831 0.8825 0.8820
3200.000000 0.8815 0.8811 0.8806 0.8801 0.8796
3195.000000 0.8791 0.8785 0.8780 0.8771 0.8762
3190.000000 0.8752 0.8743 0.8731 0.8718 0.8707
3185.000000 0.8695 0.8680 0.8663 0.8646 0.8628
3180.000000 0.8609 0.8587 0.8565 0.8543 0.8521
3175.000000 0.8502 0.8481 0.8461 0.8441 0.8420
3170.000000 0.8400 0.8380 0.8361 0.8341 0.8321
3165.000000 0.8303 0.8284 0.8266 0.8247 0.8228
3160.000000 0.8209 0.8188 0.8167 0.8147 0.8119
3155.000000 0.8089 0.8058 0.8025 0.7985 0.7936
3150.000000 0.7887 0.7837 0.7794 0.7753 0.7712
3145.000000 0.7671 0.7632 0.7591 0.7550 0.7510
3140.000000 0.7468 0.7428 0.7388 0.7347 0.7306
3135.000000 0.7265 0.7225 0.7184 0.7143 0.7101
3130.000000 0.7061 0.7019 0.6978 0.6938 0.6897
3125.000000 0.6857 0.6815 0.6774 0.6733 0.6691
3120.000000 0.6650 0.6608 0.6568 0.6526 0.6486
3115.000000 0.6445 0.6403 0.6362 0.6320 0.6279
3110.000000 0.6237 0.6196 0.6154 0.6112 0.6071
3105.000000 0.6030 0.5988 0.5946 0.5904 0.5866
3100.000000 0.5828 0.5790 0.5753 0.5729 0.5707
3095.000000 0.5685 0.5662 0.5635 0.5606 0.5578
3090.000000 0.5552 0.5532 0.5512 0.5493 0.5477
3085.000000 0.5467 0.5456 0.5446 0.5436 0.5427
3080.000000 0.5419 0.5410 0.5408 0.5407 0.5406
3075.000000 0.5406 0.5406 0.5406 0.5406 0.5407
3070.000000 0.5407 0.5407 0.5407 0.5407 0.5407
3065.000000 0.5407 0.5407 0.5407 0.5407 0.5407
3060.000000 0.5407 0.5406 0.5406 0.5406 0.5397
3055.000000 0.5362 0.5326 0.5291 0.5229 0.5139
3050.000000 0.5050 0.4960 0.4871 0.4781 0.4691
3045.000000 0.4601 0.4512 0.4422 0.4332 0.4242
3040.000000 0.4152 0.4062 0.3972 0.3880 0.3791
3035.000000 0.3700 0.3609 0.3520 0.3429 0.3339
3030.000000 0.3248 0.3157 0.3066 0.2976 0.2884
3025.000000 0.2794 0.2703 0.2612 0.2581 0.2551
3020.000000 0.2522 0.2502 0.2502 0.2502 0.2502
3015.000000 0.2503 0.2503 0.2504 0.2505 0.2506
3010.000000 0.2507 0.2509 0.2513 0.2522 0.2530
3005.000000 0.2539 0.2553 0.2569 0.2584 0.2601
3000.000000 0.2621 0.2641 0.2661 0.2683 0.2707
2995.000000 0.2731 0.2755 0.2777 0.2798 0.2820
2990.000000 0.2840 0.2856 0.2873 0.2889 0.2902
2985.000000 0.2915 0.2928 0.2940 0.2950 0.2961
2980.000000 0.2972 0.2983 0.2994 0.3005 0.3015
2975.000000 0.3026 0.3035 0.3046 0.3056 0.3065
2970.000000 0.3075 0.3084 0.3094 0.3104 0.3114
2965.000000 0.3120 0.3125 0.3130 0.3134 0.3139
2960.000000 0.3144 0.3149 0.3153 0.3158 0.3163
2955.000000 0.3168 0.3169 0.3171 0.3173 0.3175
2950.000000 0.3176 0.3178 0.3180 0.3181 0.3183
2945.000000 0.3184 0.3184 0.3187 0.3188 0.3190
2940.000000 0.3191 0.3192 0.3193 0.3194 0.3194
2935.000000 0.3195 0.3196 0.3196 0.3197 0.3197
2930.000000 0.3199 0.3200 0.3202 0.3206 0.3214
2925.000000 0.3221 0.3228 0.3246 0.3262 0.3280
2920.000000 0.3302 0.3326 0.3350 0.3377 0.3420
2915.000000 0.3462 0.3506 0.3554 0.3604 0.3654
2910.000000 0.3703 0.3753 0.3803 0.3852 0.3902
2905.000000 0.3952 0.4002 0.4052 0.4102 0.4152
2900.000000 0.4202 0.4252 0.4303 0.4353 0.4403
2895.000000 0.4454 0.4504 0.4555 0.4605 0.4655
2890.000000 0.4705 0.4756 0.4807 0.4857 0.4908
2885.000000 0.4959 0.5009 0.5052 0.5085 0.5119
2880.000000 0.5146 0.5146 0.5145 0.5145 0.5144
2875.000000 0.5143 0.5143 0.5142 0.5140 0.5139
2870.000000 0.5137 0.5136 0.5135 0.5134 0.5132
2865.000000 0.5130 0.5128 0.5125 0.5122 0.5118
2860.000000 0.5116 0.5115 0.5114 0.5112 0.5112
2855.000000 0.5112 0.5112 0.5114 0.5114 0.5114
2850.000000 0.5117 0.5122 0.5127 0.5132 0.5139
2845.000000 0.5146 0.5153 0.5162 0.5172 0.5182
2840.000000 0.5195 0.5210 0.5224 0.5238 0.5253
2835.000000 0.5268 0.5285 0.5304 0.5324 0.5346
2830.000000 0.5374 0.5403 0.5436 0.5557 0.5678
2825.000000 0.5799 0.5929 0.6060 0.6191 0.6310
2820.000000 0.6425 0.6541 0.6675 0.6834 0.6991
2815.000000 0.7118 0.7182 0.7245 0.7305 0.7345
2810.000000 0.7384 0.7424 0.7455 0.7485 0.7515
2805.000000 0.7546 0.7576 0.7607 0.7637 0.7668
2800.000000 0.7698 0.7728 0.7757 0.7786 0.7815
2795.000000 0.7845 0.7875 0.7904 0.7934 0.7962
2790.000000 0.7991 0.8012 0.8034 0.8054 0.8068
2785.000000 0.8081 0.8095 0.8108 0.8121 0.8136
2780.000000 0.8149 0.8161 0.8175 0.8189 0.8203
2775.000000 0.8216 0.8230 0.8244 0.8257 0.8271
2770.000000 0.8285 0.8298 0.8312 0.8325 0.8339
2765.000000 0.8352 0.8366 0.8380 0.8393 0.8406
2760.000000 0.8418 0.8433 0.8446 0.8460 0.8473
2755.000000 0.8486 0.8499 0.8513 0.8525 0.8540
2750.000000 0.8553 0.8566 0.8580 0.8593 0.8606
2745.000000 0.8618 0.8633 0.8646 0.8660 0.8674
2740.000000 0.8687 0.8700 0.8714 0.8727 0.8741
2735.000000 0.8755 0.8768 0.8781 0.8795 0.8808
2730.000000 0.8821 0.8835 0.8849 0.8863 0.8875
2725.000000 0.8890 0.8903 0.8917 0.8930 0.8944
2720.000000 0.8955 0.8962 0.8968 0.8975 0.8982
2715.000000 0.8989 0.8995 0.9002 0.9009 0.9016
2710.000000 0.9023 0.9030 0.9036 0.9041 0.9047
2705.000000 0.9050 0.9053 0.9056 0.9059 0.9062
2700.000000 0.9065 0.9068 0.9070 0.9073 0.9075
2695.000000 0.9078 0.9082 0.9085 0.9088 0.9091
2690.000000 0.9093 0.9096 0.9099 0.9102 0.9105
2685.000000 0.9108 0.9111 0.9114 0.9117 0.9118
2680.000000 0.9121 0.9125 0.9127 0.9128 0.9130
2675.000000 0.9131 0.9131 0.9132 0.9133 0.9133
2670.000000 0.9134 0.9135 0.9136 0.9136 0.9137
2665.000000 0.9138 0.9138 0.9139 0.9140 0.9140
2660.000000 0.9141 0.9142 0.9142 0.9142 0.9143
2655.000000 0.9144 0.9144 0.9145 0.9146 0.9147
2650.000000 0.9147 0.9148 0.9149 0.9149 0.9150
2645.000000 0.9151 0.9152 0.9152 0.9153 0.9154
2640.000000 0.9154 0.9155 0.9155 0.9156 0.9156
2635.000000 0.9156 0.9156 0.9156 0.9156 0.9157
2630.000000 0.9157 0.9157 0.9158 0.9158 0.9159
2625.000000 0.9159 0.9159 0.9160 0.9160 0.9160
2620.000000 0.9161 0.9161 0.9161 0.9162 0.9162
2615.000000 0.9163 0.9163 0.9163 0.9164 0.9164
2610.000000 0.9164 0.9165 0.9165 0.9165 0.9166
2605.000000 0.9166 0.9167 0.9167 0.9168 0.9170
2600.000000 0.9173 0.9175 0.9178 0.9182 0.9185
2595.000000 0.9188 0.9191 0.9193 0.9196 0.9199
2590.000000 0.9203 0.9209 0.9214 0.9221 0.9227
2585.000000 0.9234 0.9240 0.9246 0.9253 0.9259
2580.000000 0.9265 0.9271 0.9278 0.9285 0.9291
2575.000000 0.9297 0.9303 0.9309 0.9315 0.9318
2570.000000 0.9321 0.9325 0.9330 0.9333 0.9337
2565.000000 0.9340 0.9344 0.9348 0.9352 0.9355
2560.000000 0.9359 0.9363 0.9367 0.9371 0.9374
2555.000000 0.9378 0.9382 0.9386 0.9390 0.9394
2550.000000 0.9396 0.9399 0.9402 0.9404 0.9407
2545.000000 0.9410 0.9412 0.9415 0.9418 0.9421
2540.000000 0.9423 0.9425 0.9428 0.9430 0.9433
2535.000000 0.9436 0.9439 0.9441 0.9444 0.9447
2530.000000 0.9449 0.9452 0.9454 0.9457 0.9459
2525.000000 0.9462 0.9465 0.9468 0.9470 0.9473
2520.000000 0.9475 0.9478 0.9481 0.9484 0.9487
2515.000000 0.9490 0.9493 0.9495 0.9498 0.9501
2510.000000 0.9504 0.9506 0.9509 0.9512 0.9515
2505.000000 0.9518 0.9520 0.9523 0.9525 0.9528
2500.000000 0.9532 0.9534 0.9537 0.9540 0.9543
2495.000000 0.9546 0.9548 0.9551 0.9554 0.9556
2490.000000 0.9559 0.9561 0.9564 0.9567 0.9568
2485.000000 0.9571 0.9574 0.9577 0.9578 0.9581
2480.000000 0.9584 0.9586 0.9589 0.9591 0.9594
2475.000000 0.9596 0.9599 0.9601 0.9603 0.9606
2470.000000 0.9608 0.9611 0.9613 0.9616 0.9618
2465.000000 0.9621 0.9623 0.9625 0.9628 0.9631
2460.000000 0.9633 0.9636 0.9639 0.9642 0.9644
2455.000000 0.9646 0.9648 0.9650 0.9652 0.9654
2450.000000 0.9657 0.9659 0.9661 0.9663 0.9665
2445.000000 0.9666 0.9668 0.9670 0.9671 0.9674
2440.000000 0.9675 0.9678 0.9681 0.9683 0.9685
2435.000000 0.9687 0.9689 0.9691 0.9692 0.9694
2430.000000 0.9697 0.9699 0.9701 0.9703 0.9705
2425.000000 0.9707 0.9709 0.9711 0.9713 0.9715
2420.000000 0.9717 0.9718 0.9721 0.9723 0.9725
2415.000000 0.9727 0.9730 0.9732 0.9733 0.9735
2410.000000 0.9737 0.9739 0.9742 0.9744 0.9746
2405.000000 0.9748 0.9749 0.9751 0.9753 0.9755
2400.000000 0.9757 0.9759 0.9761 0.9763 0.9765
2395.000000 0.9767 0.9768 0.9770 0.9771 0.9774
2390.000000 0.9777 0.9778 0.9780 0.9782 0.9784
2385.000000 0.9786 0.9788 0.9790 0.9792 0.9793
2380.000000 0.9796 0.9798 0.9800 0.9801 0.9803
2375.000000 0.9806 0.9808 0.9810 0.9811 0.9813
2370.000000 0.9815 0.9817 0.9818 0.9820 0.9821
2365.000000 0.9824 0.9825 0.9827 0.9828 0.9831
2360.000000 0.9832 0.9834 0.9835 0.9837 0.9839
2355.000000 0.9841 0.9843 0.9844 0.9846 0.9848
2350.000000 0.9850 0.9851 0.9853 0.9854 0.9856
2345.000000 0.9858 0.9860 0.9862 0.9863 0.9865
2340.000000 0.9867 0.9868 0.9870 0.9871 0.9873
2335.000000 0.9875 0.9877 0.9878 0.9881 0.9882
2330.000000 0.9883 0.9885 0.9887 0.9888 0.9889
2325.000000 0.9890 0.9892 0.9893 0.9894 0.9895
2320.000000 0.9896 0.9897 0.9898 0.9899 0.9900
2315.000000 0.9901 0.9902 0.9903 0.9904 0.9905
2310.000000 0.9906 0.9908 0.9909 0.9910 0.9911
2305.000000 0.9912 0.9913 0.9914 0.9916 0.9916
2300.000000 0.9917 0.9918 0.9918 0.9920 0.9920
2295.000000 0.9921 0.9921 0.9923 0.9923 0.9924
2290.000000 0.9925 0.9925 0.9925 0.9927 0.9928
2285.000000 0.9928 0.9928 0.9930 0.9930 0.9931
2280.000000 0.9931 0.9932 0.9933 0.9933 0.9934
2275.000000 0.9935 0.9936 0.9936 0.9937 0.9938
2270.000000 0.9939 0.9939 0.9940 0.9940 0.9941
2265.000000 0.9941 0.9941 0.9941 0.9942 0.9942
2260.000000 0.9942 0.9942 0.9943 0.9943 0.9943
2255.000000 0.9943 0.9944 0.9944 0.9944 0.9944
2250.000000 0.9944 0.9943 0.9942 0.9940 0.9938
2245.000000 0.9936 0.9934 0.9932 0.9930 0.9928
2240.000000 0.9925 0.9924 0.9921 0.9920 0.9918
2235.000000 0.9916 0.9914 0.9912 0.9910 0.9908
2230.000000 0.9906 0.9904 0.9902 0.9900 0.9898
2225.000000 0.9896 0.9894 0.9892 0.9890 0.9888
2220.000000 0.9886 0.9885 0.9883 0.9882 0.9881
2215.000000 0.9881 0.9881 0.9881 0.9881 0.9881
2210.000000 0.9880 0.9880 0.9880 0.9880 0.9880
2205.000000 0.9880 0.9878 0.9878 0.9880 0.9882
2200.000000 0.9884 0.9886 0.9888 0.9889 0.9891
2195.000000 0.9893 0.9895 0.9897 0.9900 0.9902
2190.000000 0.9904 0.9906 0.9907 0.9909 0.9911
2185.000000 0.9913 0.9915 0.9917 0.9918 0.9920
2180.000000 0.9921 0.9923 0.9925 0.9927 0.9928
2175.000000 0.9928 0.9930 0.9932 0.9934 0.9935
2170.000000 0.9937 0.9938 0.9940 0.9941 0.9942
2165.000000 0.9944 0.9945 0.9947 0.9949 0.9950
2160.000000 0.9951 0.9952 0.9954 0.9956 0.9957
2155.000000 0.9959 0.9960 0.9962 0.9964 0.9965
2150.000000 0.9965 0.9965 0.9965 0.9966 0.9966
2145.000000 0.9967 0.9967 0.9967 0.9968 0.9968
2140.000000 0.9968 0.9968 0.9970 0.9970 0.9970
2135.000000 0.9970 0.9971 0.9971 0.9971 0.9970
2130.000000 0.9968 0.9968 0.9967 0.9966 0.9965
2125.000000 0.9964 0.9962 0.9961 0.9960 0.9959
2120.000000 0.9958 0.9957 0.9956 0.9956 0.9955
2115.000000 0.9953 0.9952 0.9951 0.9949 0.9948
2110.000000 0.9946 0.9944 0.9943 0.9941 0.9939
2105.000000 0.9938 0.9936 0.9936 0.9935 0.9936
2100.000000 0.9937 0.9939 0.9940 0.9942 0.9961
2095.000000 0.9945 0.9946 0.9948 0.9950 0.9951
2090.000000 0.9953 0.9955 0.9956 0.9957 0.9959
2085.000000 0.9961 0.9962 0.9964 0.9965 0.9966
2080.000000 0.9967 0.9968 0.9971 0.9971 0.9973
2075.000000 0.9974 0.9975 0.9975 0.9978 0.9978
2070.000000 0.9980 0.9981 0.9982 0.9983 0.9985
2065.000000 0.9986 0.9987 0.9989 0.9990 0.9992
2060.000000 0.9993 0.9994 0.9995 0.9996 0.9997
2055.000000 0.9999 1.0000 1.0001 1.0002 1.0003
2050.000000 1.0005 1.0007 1.0008 1.0009 1.0009
2045.000000 1.0010 1.0011 1.0011 1.0012 1.0012
2040.000000 1.0012 1.0013 1.0013 1.0013 1.0013
2035.000000 1.0014 1.0015 1.0015 1.0015 1.0015
2030.000000 1.0016 1.0016 1.0016 1.0017 1.0017
2025.000000 1.0018 1.0018 1.0018 1.0018 1.0018
2020.000000 1.0018 1.0018 1.0018 1.0018 1.0018
2015.000000 1.0018 1.0017 1.0017 1.0017 1.0016
2010.000000 1.0016 1.0015 1.0015 1.0015 1.0014
2005.000000 1.0014 1.0014 1.0013 1.0013 1.0013
2000.000000 1.0013 1.0012 1.0012 1.0012 1.0012
1995.000000 1.0012 1.0012 1.0012 1.0012 1.0012
1990.000000 1.0013 1.0013 1.0013 1.0013 1.0013
1985.000000 1.0014 1.0014 1.0014 1.0014 1.0014
1980.000000 1.0015 1.0015 1.0015 1.0015 1.0015
1975.000000 1.0015 1.0016 1.0016 1.0016 1.0016
1970.000000 1.0016 1.0014 1.0013 1.0011 1.0009
1965.000000 1.0008 1.0006 1.0004 1.0002 1.0001
1960.000000 0.9999 0.9997 0.9993 0.9986 0.9978
1955.000000 0.9971 0.9964 0.9957 0.9949 0.9942
1950.000000 0.9935 0.9928 0.9920 0.9912 0.9904
1945.000000 0.9896 0.9887 0.9878 0.9871 0.9863
1940.000000 0.9854 0.9845 0.9837 0.9828 0.9818
1935.000000 0.9809 0.9796 0.9783 0.9771 0.9758
1930.000000 0.9745 0.9731 0.9718 0.9706 0.9695
1925.000000 0.9684 0.9673 0.9663 0.9652 0.9642
1920.000000 0.9634 0.9625 0.9618 0.9611 0.9605
1915.000000 0.9601 0.9598 0.9594 0.9590 0.9588
1910.000000 0.9588 0.9588 0.9588 0.9588 0.9588
1905.000000 0.9589 0.9589 0.9590 0.9592 0.9595
1900.000000 0.9597 0.9599 0.9602 0.9605 0.9608
1895.000000 0.9611 0.9613 0.9615 0.9618 0.9621
1890.000000 0.9627 0.9633 0.9640 0.9647 0.9654
1885.000000 0.9661 0.9668 0.9675 0.9683 0.9690
1880.000000 0.9698 0.9706 0.9714 0.9721 0.9728
1875.000000 0.9737 0.9745 0.9753 0.9761 0.9768
1870.000000 0.9775 0.9783 0.9790 0.9797 0.9803
1865.000000 0.9810 0.9817 0.9824 0.9830 0.9837
1860.000000 0.9844 0.9851 0.9857 0.9864 0.9871
1855.000000 0.9878 0.9883 0.9886 0.9890 0.9894
1850.000000 0.9897 0.9898 0.9877 0.9895 0.9893
1845.000000 0.9891 0.9890 0.9889 0.9887 0.9884
1840.000000 0.9881 0.9877 0.9874 0.9871 0.9867
1835.000000 0.9864 0.9861 0.9857 0.9854 0.9849
1830.000000 0.9841 0.9832 0.9823 0.9814 0.9805
1825.000000 0.9796 0.9787 0.9778 0.9771 0.9763
1820.000000 0.9756 0.9751 0.9748 0.9745 0.9743
1815.000000 0.9741 0.9740 0.9739 0.9738 0.9737
1810.000000 0.9735 0.9735 0.9733 0.9732 0.9731
1805.000000 0.9728 0.9728 0.9727 0.9725 0.9725
1800.000000 0.9725 0.9724 0.9723 0.9723 0.9723
1795.000000 0.9723 0.9721 0.9721 0.9721 0.9721
1790.000000 0.9721 0.9720 0.9718 0.9718 0.9717
1785.000000 0.9715 0.9714 0.9713 0.9709 0.9696
1780.000000 0.9682 0.9666 0.9647 0.9610 0.9571
1775.000000 0.9534 0.9495 0.9454 0.9413 0.9371
1770.000000 0.9334 0.9299 0.9267 0.9235 0.9205
1765.000000 0.9177 0.9150 0.9124 0.9106 0.9091
1760.000000 0.9077 0.9065 0.9058 0.9050 0.9042
1755.000000 0.9035 0.9028 0.9021 0.9016 0.9009
1750.000000 0.9002 0.8993 0.8965 0.8880 0.8744
1745.000000 0.8607 0.8470 0.8333 0.8196 0.8058
1740.000000 0.7976 0.7950 0.7944 0.7940 0.7937
1735.000000 0.7936 0.7935 0.7935 0.7938 0.7945
1730.000000 0.7955 0.7968 0.7983 0.7998 0.8014
1725.000000 0.8033 0.8055 0.8075 0.8098 0.8119
1720.000000 0.8143 0.8168 0.8195 0.8223 0.8249
1715.000000 0.8271 0.8292 0.8314 0.8336 0.8358
1710.000000 0.8380 0.8402 0.8421 0.8434 0.8443
1705.000000 0.8451 0.8460 0.8488 0.8474 0.8481
1700.000000 0.8478 0.8471 0.8464 0.8454 0.8437
1695.000000 0.8412 0.8386 0.8362 0.8334 0.8294
1690.000000 0.8245 0.8195 0.8136 0.8069 0.7911
1685.000000 0.7637 0.7330 0.7021 0.6715 0.6407
1680.000000 0.6098 0.5790 0.5646 0.5618 0.5610
1675.000000 0.5589 0.5605 0.5609 0.5616 0.5626
1670.000000 0.5655 0.5686 0.5718 0.5762 0.5822
1665.000000 0.5887 0.5958 0.6033 0.6104 0.6167
1660.000000 0.6222 0.6265 0.6287 0.6298 0.6308
1655.000000 0.6278 0.6317 0.6316 0.6315 0.6308
1650.000000 0.6287 0.6260 0.6221 0.6073 0.5853
1645.000000 0.5652 0.5457 0.5260 0.5065 0.4869
1640.000000 0.4673 0.4476 0.4279 0.4082 0.3884
1635.000000 0.3688 0.3489 0.3291 0.3093 0.2894
1630.000000 0.2696 0.2497 0.2297 0.2098 0.1898
1625.000000 0.1698 0.1498 0.1296 0.1096 0.0895
1620.000000 0.0694 0.0469 0.0469 0.0469 0.0466
1615.000000 0.0466 0.0473 0.0489 0.0572 0.0810
1610.000000 0.1072 0.1334 0.1596 0.1860 0.2123
1605.000000 0.2387 0.2651 0.2915 0.3179 0.3444
1600.000000 0.3682 0.3789 0.3786 0.3784 0.3779
1595.000000 0.3788 0.3874 0.4040 0.4207 0.4374
1590.000000 0.4541 0.4708 0.4876 0.5044 0.5202
1585.000000 0.5321 0.5404 0.5515 0.5698 0.5866
1580.000000 0.5987 0.6107 0.6217 0.6307 0.6398
1575.000000 0.6490 0.6581 0.6675 0.6771 0.6851
1570.000000 0.6895 0.6931 0.6955 0.6968 0.6983
1565.000000 0.6998 0.7010 0.7018 0.7028 0.7036
1560.000000 0.7046 0.7051 0.7054 0.7056 0.7056
1555.000000 0.7056 0.7044 0.7018 0.6992 0.6965
1550.000000 0.6939 0.6912 0.6887 0.6864 0.6842
1545.000000 0.6818 0.6792 0.6742 0.6675 0.6601
1540.000000 0.6507 0.6362 0.6112 0.5823 0.5545
1535.000000 0.5268 0.4990 0.4712 0.4433 0.4154
1530.000000 0.3890 0.3764 0.3679 0.3605 0.3541
1525.000000 0.3456 0.3312 0.3149 0.2987 0.2823
1520.000000 0.2659 0.2496 0.2332 0.2167 0.2003
1515.000000 0.1852 0.1715 0.1748 0.1732 0.1731
1510.000000 0.1734 0.1760 0.1798 0.1849 0.1919
1505.000000 0.2000 0.2148 0.2349 0.2560 0.2714
1500.000000 0.2876 0.3132 0.3500 0.3605 0.3646
1495.000000 0.3664 0.3675 0.3686 0.3696 0.3705
1490.000000 0.3714 0.3725 0.3739 0.3754 0.3774
1485.000000 0.3814 0.3876 0.3943 0.4014 0.4088
1480.000000 0.4159 0.4222 0.4268 0.4294 0.4310
1475.000000 0.4317 0.4323 0.4324 0.4319 0.4304
1470.000000 0.4276 0.4241 0.4174 0.4095 0.3993
1465.000000 0.3890 0.3795 0.3764 0.3760 0.3768
1460.000000 0.3797 0.3895 0.4038 0.4187 0.4337
1455.000000 0.4486 0.4636 0.4785 0.4935 0.5031
1450.000000 0.5062 0.5090 0.5109 0.5128 0.5146
1445.000000 0.5167 0.5191 0.5216 0.5258 0.5309
1440.000000 0.5380 0.5458 0.5539 0.5622 0.5704
1435.000000 0.5787 0.5877 0.5969 0.6060 0.6125
1430.000000 0.6183 0.6244 0.6310 0.6370 0.6464
1425.000000 0.6435 0.6450 0.6464 0.6461 0.6455
1420.000000 0.6439 0.6404 0.6366 0.6329 0.6290
1415.000000 0.6240 0.6184 0.6128 0.6071 0.6010
1410.000000 0.5921 0.5825 0.5729 0.5627 0.5523
1405.000000 0.5419 0.5321 0.5233 0.5145 0.5041
1400.000000 0.4900 0.4750 0.4570 0.4257 0.3854
1395.000000 0.3662 0.3496 0.3330 0.3163 0.2997
1390.000000 0.2830 0.2662 0.2495 0.2327 0.2160
1385.000000 0.1992 0.1823 0.1654 0.1485 0.1375
1380.000000 0.1329 0.1291 0.1256 0.1282 0.1305
1375.000000 0.1355 0.1414 0.1476 0.1542 0.1611
1370.000000 0.1685 0.1765 0.1864 0.1949 0.2055
1365.000000 0.2055 0.2055 0.2062 0.2058 0.2028
1360.000000 0.1966 0.1868 0.1704 0.1758 0.1762
1355.000000 0.1789 0.1950 0.2169 0.2300 0.2476
1350.000000 0.2734 0.3131 0.3541 0.3950 0.4360
1345.000000 0.4773 0.5184 0.5491 0.5592 0.5683
1340.000000 0.5793 0.5917 0.6069 0.6203 0.6310
1335.000000 0.6371 0.6421 0.6460 0.6498 0.6525
1330.000000 0.6535 0.6536 0.6536 0.6536 0.6519
1325.000000 0.6471 0.6374 0.6185 0.6049 0.5948
1320.000000 0.5856 0.5765 0.5662 0.5577 0.5519
1315.000000 0.5484 0.5464 0.5460 0.5457 0.5425
1310.000000 0.5465 0.5476 0.5487 0.5499 0.5512
1305.000000 0.5528 0.5542 0.5557 0.5574 0.5594
1300.000000 0.5612 0.5621 0.5631 0.5630 0.5620
1295.000000 0.5556 0.5478 0.5377 0.5134 0.4897
1290.000000 0.4685 0.4510 0.4327 0.3939 0.3526
1285.000000 0.3216 0.3010 0.2817 0.2624 0.2430
1280.000000 0.2235 0.2042 0.1840 0.1821 0.1820
1275.000000 0.1818 0.1829 0.1903 0.2014 0.2148
1270.000000 0.2295 0.2460 0.2640 0.2991 0.3527
1265.000000 0.3777 0.4028 0.4280 0.4532 0.4784
1260.000000 0.5037 0.5286 0.5400 0.5485 0.5612
1255.000000 0.5768 0.5876 0.5944 0.5992 0.6033
1250.000000 0.6074 0.6114 0.6152 0.6181 0.6210
1245.000000 0.6234 0.6249 0.6260 0.6252 0.6240
1240.000000 0.6212 0.6178 0.6073 0.5889 0.5716
1235.000000 0.5549 0.5289 0.4993 0.4698 0.4401
1230.000000 0.4105 0.3807 0.3509 0.3210 0.2912
1225.000000 0.2614 0.2364 0.2291 0.2275 0.2274
1220.000000 0.2290 0.2329 0.2401 0.2506 0.2884
1215.000000 0.3134 0.3368 0.3604 0.3839 0.4075
1210.000000 0.4310 0.4547 0.4784 0.4877 0.4915
1205.000000 0.4957 0.4940 0.4839 0.4660 0.4482
1200.000000 0.4302 0.4127 0.4055 0.4078 0.4244
1195.000000 0.4575 0.4908 0.5241 0.5575 0.5910
1190.000000 0.6244 0.6561 0.6691 0.6767 0.6835
1185.000000 0.6905 0.6978 0.7034 0.7080 0.7121
1180.000000 0.7148 0.7158 0.7167 0.7153 0.7128
1175.000000 0.7075 0.6995 0.6803 0.6328 0.5912
1170.000000 0.5496 0.5079 0.4662 0.4244 0.3825
1165.000000 0.3455 0.3393 0.3392 0.3392 0.3503
1160.000000 0.3893 0.4073 0.4253 0.4433 0.4615
1155.000000 0.4796 0.4977 0.5159 0.5341 0.5524
1150.000000 0.5706 0.5890 0.6097 0.6351 0.6543
1145.000000 0.6697 0.6798 0.6894 0.6991 0.7087
1140.000000 0.7172 0.7247 0.7300 0.7350 0.7378
1135.000000 0.7400 0.7404 0.7417 0.7412 0.7404
1130.000000 0.7368 0.7315 0.7243 0.7162 0.7071
1125.000000 0.6996 0.6941 0.6897 0.6893 0.6901
1120.000000 0.6933 0.6989 0.7050 0.7114 0.7178
1115.000000 0.7248 0.7315 0.7372 0.7428 0.7483
1110.000000 0.7515 0.7542 0.7561 0.7564 0.7572
1105.000000 0.7568 0.7560 0.7536 0.7500 0.7444
1100.000000 0.7157 0.6668 0.6382 0.6215 0.6045
1095.000000 0.5725 0.5560 0.5395 0.5230 0.5064
1090.000000 0.4898 0.4730 0.4588 0.4539 0.4502
1085.000000 0.4502 0.4503 0.4571 0.4672 0.4786
1080.000000 0.4871 0.4934 0.4971 0.4990 0.4990
1075.000000 0.4989 0.4974 0.4960 0.4967 0.5016
1070.000000 0.5086 0.5183 0.5459 0.5706 0.5940
1065.000000 0.6174 0.6408 0.6643 0.6878 0.7114
1060.000000 0.7348 0.7547 0.7682 0.7769 0.7831
1055.000000 0.7871 0.7908 0.7941 0.7961 0.7961
1050.000000 0.7961 0.7996 0.7996 0.7996 0.7961
1045.000000 0.7498 0.6987 0.6475 0.5962 0.5449
1040.000000 0.4934 0.4722 0.4718 0.4719 0.4879
1035.000000 0.5168 0.5445 0.5724 0.6003 0.6282
1030.000000 0.6561 0.6843 0.7124 0.7375 0.7498
1025.000000 0.7611 0.7711 0.7797 0.7853 0.7887
1020.000000 0.7910 0.7930 0.7944 0.7925 0.7955
1015.000000 0.7936 0.7908 0.7858 0.7790 0.7672
1010.000000 0.7542 0.7406 0.7248 0.7088 0.6921
1005.000000 0.4879 0.4400 0.3920 0.3439 0.3096
1000.000000 0.3019 0.2917 0.2820 0.2845 0.2974
995.000000 0.3594 0.4237 0.4881 0.5526 0.6173
990.000000 0.6728 0.7181 0.7297 0.7369 0.7415
985.000000 0.7465 0.7524 0.7583 0.7665 0.7790
980.000000 0.7921 0.8042 0.8164 0.8281 0.8394
975.000000 0.8509 0.8605 0.8697 0.8773 0.8838
970.000000 0.8904 0.8961 0.9014 0.9068 0.9121
965.000000 0.9165 0.9204 0.9241 0.9280 0.9311
960.000000 0.9342 0.9373 0.9392 0.9406 0.9414
955.000000 0.9417 0.9421 0.9428 0.9442 0.9456
950.000000 0.9468 0.9492 0.9516 0.9541 0.9563
945.000000 0.9586 0.9608 0.9628 0.9649 0.9666
940.000000 0.9684 0.9702 0.9718 0.9728 0.9734
935.000000 0.9741 0.9748 0.9755 0.9760 0.9766
930.000000 0.9771 0.9777 0.9782 0.9788 0.9792
925.000000 0.9797 0.9802 0.9806 0.9810 0.9813
920.000000 0.9817 0.9820 0.9824 0.9827 0.9831
915.000000 0.9832 0.9832 0.9820 0.9809 0.9795
910.000000 0.9775 0.9757 0.9737 0.9712 0.9687
905.000000 0.9651 0.9614 0.9563 0.9494 0.9402
900.000000 0.9295 0.9168 0.9003 0.8743 0.8443
895.000000 0.8231 0.8138 0.8075 0.8111 0.8108
890.000000 0.8124 0.8162 0.8233 0.8313 0.8414
885.000000 0.8528 0.8681 0.8818 0.8918 0.8983
880.000000 0.9023 0.9050 0.9068 0.9068 0.9068
875.000000 0.9028 0.8974 0.8875 0.8799 0.8705
870.000000 0.8544 0.8341 0.8247 0.8157 0.8046
865.000000 0.7860 0.7749 0.7639 0.7607 0.7595
860.000000 0.7621 0.7645 0.7715 0.7804 0.7921
855.000000 0.8045 0.8194 0.8344 0.8490 0.8617
850.000000 0.8732 0.8838 0.8935 0.9021 0.9106
845.000000 0.9168 0.9231 0.9287 0.9334 0.9381
840.000000 0.9424 0.9451 0.9478 0.9505 0.9532
835.000000 0.9555 0.9568 0.9582 0.9597 0.9610
830.000000 0.9614 0.9613 0.9613 0.9624 0.9617
825.000000 0.9603 0.9590 0.9575 0.9550 0.9523
820.000000 0.9496 0.9468 0.9437 0.9391 0.9345
815.000000 0.9296 0.9240 0.9182 0.9131 0.9086
810.000000 0.9041 0.9010 0.8978 0.8955 0.8932
805.000000 0.8904 0.8866 0.8814 0.8745 0.8617
800.000000 0.8477 0.8348 0.8169 0.7918 0.7724
795.000000 0.7540 0.7356 0.7160 0.7055 0.7081
790.000000 0.7035 0.7143 0.7296 0.7457 0.7645
785.000000 0.7821 0.7991 0.8132 0.8259 0.8371
780.000000 0.8452 0.8508 0.8547 0.8595 0.8568
775.000000 0.8477 0.8347 0.8203 0.8042 0.7871
770.000000 0.7735 0.7610 0.7496 0.7387 0.7274
765.000000 0.7078 0.6925 0.6530 0.6210 0.5882
760.000000 0.5450 0.4257 0.3870 0.3484 0.3099
755.000000 0.2713 0.2324 0.1767 0.1364 0.1221
750.000000 0.1132 0.1094 0.0942 0.0922 0.0932
745.000000 0.1038 0.1335 0.1963 0.2481 0.2969
740.000000 0.3527 0.4230 0.5124 0.5726 0.6227
735.000000 0.6528 0.6725 0.6905 0.7211 0.7178
730.000000 0.7157 0.7124 0.7094 0.7060 0.7180
725.000000 0.7390 0.7668 0.7942 0.8208 0.8441
720.000000 0.8618 0.8728 0.8834 0.8915 0.8974
715.000000 0.9017 0.9054 0.9077 0.9086 0.9080
710.000000 0.9056 0.9015 0.8941 0.8842 0.8718
705.000000 0.8545 0.8375 0.8211 0.7999 0.7745
700.000000 0.7444 0.6824 0.6455 0.5892 0.5252
695.000000 0.4543 0.4207 0.3718 0.3290 0.2996
690.000000 0.2743 0.2537 0.2545 0.2612 0.3047
685.000000 0.3532 0.3960 0.4364 0.4777 0.5290
680.000000 0.6021 0.6575 0.6858 0.7135 0.7403
675.000000 0.7644 0.7818 0.7962 0.8097 0.8194
670.000000 0.8290 0.8368 0.8436 0.8503 0.8557
665.000000 0.8606 0.8656 0.8706 0.8753 0.8800
660.000000 0.8847 0.8892 0.8935 0.8978 0.9021
655.000000 0.9056 0.9075 0.9097 0.9117 0.9133
650.000000 0.9150 0.9167 0.9175 0.9175 0.9183
645.000000 0.9188 0.9186 0.9181 0.9178 0.9173
640.000000 0.9154 0.9135 0.9115 0.9091 0.9067
635.000000 0.9040 0.9012 0.8983 0.8949 0.8916
630.000000 0.8882 0.8849 0.8818 0.8796 0.8783
625.000000 0.8774
##END=
