##TITLE=BENZAMIDE, N-METHYL-
##JCAMP-DX=4.24
##DATA TYPE=INFRARED SPECTRUM
##CLASS=COBLENTZ III
##ORIGIN=DOW CHEMICAL COMPANY
##OWNER=COBLENTZ SOC.
Collection (C) 2018 copyright by the U.S. Secretary of Commerce
on behalf of the United States of America. All rights reserved.
##DATE=1960/01/29
##NAMES=N-methylbenzamide
##CAS REGISTRY NO=613-93-4
##MOLFORM=C8 H9 N O
##SOURCE REFERENCE=COBLENTZ NO. 06269
##$NIST SOURCE=COBLENTZ
##$NIST IMAGE=cob6269
##SPECTROMETER/DATA SYSTEM=DOW KBr FOREPRISM-GRATING
##INSTRUMENT PARAMETERS=BLAZED AT 3.5, 12.0, 20.0 MICRON AND CHANGED AT 5.0, 7.5, 14.9 MICRON
##STATE=SOLID (NUJOL MULL)
$$SPECTRAL CONTAMINATION DUE TO OIL AROUND 1460 AND 2900 CM^-^1
##SAMPLING PROCEDURE=TRANSMISSION
##RESOLUTION=2
##DATA PROCESSING=DIGITIZED BY COBLENTZ SOCIETY (BATCH I) FROM HARD COPY
##XUNITS=1/CM
##YUNITS=TRANSMITTANCE
##XLABEL=Wavenumbers (cm-1)
##YLABEL=% Transmission
##XFACTOR=1
##YFACTOR=1
##DELTAX=1
##FIRSTX=426
##LASTX=3818
##FIRSTY=0.8128
##MAXX=3818
##MINX=426
##MAXY=0.8932
##MINY=0.0123
##NPOINTS=3393
##XYDATA=(X++(Y..Y))
426.000000 0.8128 0.8119 0.8111 0.8101 0.8095
431.000000 0.8096 0.8096 0.8096 0.8096 0.8096
436.000000 0.8097 0.8098 0.8098 0.8099 0.8100
441.000000 0.8100 0.8101 0.8098 0.8083 0.8092
446.000000 0.8088 0.8080 0.8068 0.8057 0.8046
451.000000 0.8034 0.8025 0.8018 0.8011 0.8005
456.000000 0.7998 0.7991 0.7985 0.7978 0.7971
461.000000 0.7967 0.7964 0.7961 0.7960 0.7958
466.000000 0.7956 0.7954 0.7951 0.7949 0.7946
471.000000 0.7943 0.7940 0.7938 0.7935 0.7893
476.000000 0.7846 0.7796 0.7746 0.7693 0.7637
481.000000 0.7582 0.7441 0.7358 0.7282 0.7206
486.000000 0.7128 0.7053 0.6978 0.6900 0.6769
491.000000 0.6682 0.6625 0.6632 0.6661 0.6690
496.000000 0.6758 0.6945 0.7046 0.7171 0.7521
501.000000 0.7654 0.7675 0.7695 0.7712 0.7730
506.000000 0.7748 0.7811 0.7881 0.7944 0.7956
511.000000 0.7968 0.7968 0.7969 0.7969 0.7969
516.000000 0.7969 0.7964 0.7958 0.7953 0.7948
521.000000 0.7940 0.7930 0.7921 0.7911 0.7901
526.000000 0.7893 0.7882 0.7869 0.7858 0.7847
531.000000 0.7835 0.7824 0.7811 0.7801 0.7789
536.000000 0.7776 0.7765 0.7754 0.7742 0.7722
541.000000 0.7701 0.7681 0.7660 0.7639 0.7618
546.000000 0.7597 0.7575 0.7555 0.7533 0.7511
551.000000 0.7489 0.7468 0.7446 0.7424 0.7401
556.000000 0.7381 0.7358 0.7336 0.7312 0.7290
561.000000 0.7265 0.7243 0.7219 0.7196 0.7172
566.000000 0.7150 0.7125 0.7103 0.7074 0.7044
571.000000 0.7014 0.6984 0.6954 0.6922 0.6893
576.000000 0.6862 0.6828 0.6796 0.6762 0.6728
581.000000 0.6696 0.6662 0.6628 0.6591 0.6548
586.000000 0.6505 0.6461 0.6418 0.6376 0.6333
591.000000 0.6290 0.6238 0.6182 0.6126 0.6070
596.000000 0.6015 0.5953 0.5884 0.5816 0.5748
601.000000 0.5680 0.5610 0.5535 0.5460 0.5385
606.000000 0.5310 0.5227 0.5137 0.5047 0.4957
611.000000 0.4867 0.4777 0.4687 0.4596 0.4506
616.000000 0.4446 0.4388 0.4330 0.4273 0.4203
621.000000 0.4099 0.3994 0.3890 0.3786 0.3680
626.000000 0.3577 0.3473 0.3368 0.3264 0.3160
631.000000 0.3055 0.2962 0.2863 0.2784 0.2707
636.000000 0.2620 0.2530 0.2449 0.2379 0.2384
641.000000 0.2388 0.2394 0.2402 0.2424 0.2453
646.000000 0.2493 0.2559 0.2645 0.2739 0.2815
651.000000 0.2893 0.3016 0.3138 0.3268 0.3400
656.000000 0.3530 0.3662 0.3792 0.3923 0.4054
661.000000 0.4108 0.4108 0.4108 0.4064 0.3890
666.000000 0.3714 0.3539 0.3406 0.3406 0.3406
671.000000 0.3734 0.3928 0.4120 0.4312 0.4505
676.000000 0.4697 0.4890 0.5082 0.5235 0.5236
681.000000 0.5235 0.5234 0.5189 0.5157 0.5123
686.000000 0.5060 0.4920 0.4802 0.4236 0.3670
691.000000 0.3104 0.2539 0.1973 0.1407 0.0997
696.000000 0.0452 0.0438 0.0539 0.0446 0.0808
701.000000 0.0942 0.1078 0.1085 0.1081 0.1077
706.000000 0.1073 0.1071 0.1039 0.0938 0.0842
711.000000 0.0767 0.0608 0.0584 0.0577 0.0570
716.000000 0.0565 0.0562 0.0559 0.0557 0.1160
721.000000 0.1581 0.2002 0.2423 0.2843 0.3264
726.000000 0.3684 0.4106 0.4527 0.4948 0.5368
731.000000 0.5709 0.6019 0.6155 0.6288 0.6418
736.000000 0.6556 0.6701 0.6847 0.6917 0.6982
741.000000 0.7047 0.7111 0.7157 0.7201 0.7247
746.000000 0.7292 0.7337 0.7374 0.7411 0.7449
751.000000 0.7485 0.7517 0.7549 0.7581 0.7611
756.000000 0.7641 0.7671 0.7701 0.7714 0.7724
761.000000 0.7735 0.7746 0.7747 0.7742 0.7737
766.000000 0.7730 0.7721 0.7714 0.7706 0.7708
771.000000 0.7712 0.7718 0.7722 0.7728 0.7734
776.000000 0.7743 0.7767 0.7792 0.7821 0.7856
781.000000 0.7889 0.7928 0.7968 0.8010 0.8045
786.000000 0.8071 0.8097 0.8081 0.8103 0.8092
791.000000 0.8080 0.8065 0.8047 0.8028 0.8011
796.000000 0.7792 0.7406 0.7019 0.6634 0.6249
801.000000 0.6138 0.6102 0.6065 0.5943 0.5812
806.000000 0.5680 0.5599 0.5606 0.6367 0.7076
811.000000 0.7667 0.7731 0.7794 0.7860 0.7925
816.000000 0.8050 0.8069 0.8091 0.8111 0.8087
821.000000 0.8075 0.8054 0.8031 0.8001 0.7950
826.000000 0.7878 0.7672 0.7283 0.6894 0.6504
831.000000 0.6141 0.6141 0.6271 0.6401 0.6437
836.000000 0.6430 0.6327 0.6212 0.6097 0.6010
841.000000 0.6125 0.6461 0.6798 0.7134 0.7469
846.000000 0.7807 0.7950 0.7958 0.7967 0.7976
851.000000 0.7987 0.8001 0.8028 0.8056 0.8087
856.000000 0.8137 0.8260 0.8311 0.8325 0.8330
861.000000 0.8334 0.8335 0.8335 0.8335 0.8334
866.000000 0.8328 0.8321 0.8316 0.8309 0.8303
871.000000 0.8297 0.8291 0.8285 0.8278 0.8273
876.000000 0.8267 0.8261 0.8254 0.8246 0.8238
881.000000 0.8230 0.8221 0.8213 0.8205 0.8196
886.000000 0.8188 0.8183 0.8182 0.8181 0.8181
891.000000 0.8181 0.8182 0.8183 0.8184 0.8184
896.000000 0.8184 0.8183 0.8182 0.8181 0.8178
901.000000 0.8176 0.8168 0.8161 0.8153 0.8140
906.000000 0.8122 0.8106 0.8089 0.8072 0.8056
911.000000 0.8036 0.8015 0.7997 0.7976 0.7957
916.000000 0.7934 0.7905 0.7875 0.7846 0.7815
921.000000 0.7784 0.7751 0.7718 0.7678 0.7637
926.000000 0.7596 0.7540 0.7475 0.7243 0.6925
931.000000 0.6497 0.6068 0.5640 0.5210 0.4783
936.000000 0.4454 0.4452 0.4477 0.5229 0.5894
941.000000 0.6558 0.7071 0.7145 0.7246 0.7346
946.000000 0.7414 0.7428 0.7418 0.7419 0.7404
951.000000 0.7387 0.7368 0.7351 0.7336 0.7318
956.000000 0.7301 0.7289 0.7275 0.7261 0.7251
961.000000 0.7241 0.7230 0.7219 0.7204 0.7180
966.000000 0.7156 0.7132 0.7108 0.7062 0.7017
971.000000 0.6969 0.6882 0.6776 0.6658 0.6528
976.000000 0.6442 0.6462 0.6521 0.6580 0.6638
981.000000 0.6697 0.6728 0.6725 0.6645 0.6436
986.000000 0.6226 0.6017 0.5807 0.5827 0.5943
991.000000 0.6171 0.6399 0.6626 0.6628 0.6398
996.000000 0.5881 0.5364 0.5140 0.6764 0.7021
1001.000000 0.7011 0.6915 0.6798 0.6680 0.6561
1006.000000 0.6444 0.6411 0.6582 0.6751 0.6921
1011.000000 0.7091 0.7261 0.7347 0.7351 0.7321
1016.000000 0.7299 0.7256 0.7187 0.7118 0.7061
1021.000000 0.7004 0.6934 0.6843 0.6778 0.6726
1026.000000 0.6528 0.6283 0.6038 0.5793 0.5548
1031.000000 0.5303 0.5058 0.4812 0.4568 0.4451
1036.000000 0.4885 0.4465 0.6593 0.7225 0.7222
1041.000000 0.7211 0.7206 0.7199 0.7191 0.7183
1046.000000 0.7175 0.7151 0.7126 0.7103 0.7080
1051.000000 0.7064 0.7058 0.7051 0.7046 0.7045
1056.000000 0.7044 0.7024 0.6982 0.6935 0.6888
1061.000000 0.6845 0.6801 0.6758 0.6710 0.6660
1066.000000 0.6611 0.6494 0.6328 0.6160 0.5994
1071.000000 0.5828 0.5660 0.5495 0.5328 0.5155
1076.000000 0.5056 0.5082 0.5065 0.5310 0.5580
1081.000000 0.5849 0.6118 0.6387 0.6656 0.6705
1086.000000 0.6711 0.6718 0.6718 0.6718 0.6715
1091.000000 0.6712 0.6704 0.6694 0.6675 0.6658
1096.000000 0.6640 0.6621 0.6604 0.6586 0.6562
1101.000000 0.6534 0.6507 0.6481 0.6456 0.6431
1106.000000 0.6412 0.6395 0.6377 0.6362 0.6354
1111.000000 0.6346 0.6339 0.6334 0.6312 0.6278
1116.000000 0.6243 0.6206 0.6169 0.6131 0.6077
1121.000000 0.6002 0.5927 0.5825 0.5681 0.5537
1126.000000 0.5393 0.5249 0.5112 0.5084 0.5060
1131.000000 0.5039 0.5018 0.4996 0.4969 0.4942
1136.000000 0.4902 0.4839 0.4760 0.4676 0.4551
1141.000000 0.4402 0.4269 0.4141 0.4014 0.3890
1146.000000 0.3737 0.3582 0.3359 0.3309 0.3296
1151.000000 0.3291 0.3287 0.3282 0.3184 0.2994
1156.000000 0.2804 0.2613 0.2423 0.2232 0.2042
1161.000000 0.1851 0.1775 0.1733 0.1765 0.1982
1166.000000 0.2376 0.2769 0.3162 0.3555 0.3949
1171.000000 0.4342 0.4735 0.5100 0.5317 0.5350
1176.000000 0.5382 0.5414 0.5426 0.5426 0.5427
1181.000000 0.5419 0.5403 0.5387 0.5371 0.5353
1186.000000 0.5324 0.5301 0.5291 0.5286 0.5294
1191.000000 0.5336 0.5392 0.5440 0.5488 0.5532
1196.000000 0.5576 0.5619 0.5641 0.5637 0.5652
1201.000000 0.5640 0.5628 0.5612 0.5595 0.5577
1206.000000 0.5556 0.5534 0.5512 0.5490 0.5465
1211.000000 0.5439 0.5412 0.5386 0.5357 0.5329
1216.000000 0.5300 0.5271 0.5242 0.5212 0.5184
1221.000000 0.5151 0.5117 0.5083 0.5048 0.5014
1226.000000 0.4980 0.4939 0.4897 0.4856 0.4815
1231.000000 0.4774 0.4727 0.4673 0.4618 0.4564
1236.000000 0.4510 0.4460 0.4412 0.4362 0.4314
1241.000000 0.4265 0.4216 0.4167 0.4118 0.4068
1246.000000 0.4020 0.3971 0.3922 0.3873 0.3825
1251.000000 0.3776 0.3727 0.3678 0.3629 0.3580
1256.000000 0.3530 0.3482 0.3432 0.3380 0.3328
1261.000000 0.3276 0.3254 0.3232 0.3212 0.3192
1266.000000 0.3162 0.3130 0.3096 0.3062 0.3028
1271.000000 0.2994 0.2935 0.2879 0.2826 0.2773
1276.000000 0.2733 0.2695 0.2661 0.2645 0.2629
1281.000000 0.2613 0.2597 0.2581 0.2558 0.2501
1286.000000 0.2431 0.2373 0.2315 0.2257 0.2191
1291.000000 0.2125 0.2056 0.1976 0.1895 0.1810
1296.000000 0.1714 0.1618 0.1501 0.1381 0.1276
1301.000000 0.1186 0.1101 0.1030 0.0967 0.0919
1306.000000 0.0871 0.0852 0.0834 0.0818 0.0843
1311.000000 0.0878 0.1045 0.1300 0.1555 0.1810
1316.000000 0.2065 0.2320 0.2575 0.2830 0.3084
1321.000000 0.3340 0.3406 0.3364 0.3352 0.3334
1326.000000 0.3318 0.3139 0.2935 0.2733 0.2530
1331.000000 0.2327 0.2234 0.2233 0.2253 0.2416
1336.000000 0.2569 0.2722 0.2876 0.3029 0.3182
1341.000000 0.3323 0.3400 0.3420 0.3420 0.3421
1346.000000 0.3421 0.3418 0.3364 0.3314 0.3259
1351.000000 0.3248 0.3371 0.3482 0.3579 0.3630
1356.000000 0.3670 0.3673 0.3680 0.3662 0.3622
1361.000000 0.3545 0.3492 0.3437 0.3387 0.3366
1366.000000 0.3348 0.3345 0.3345 0.3298 0.3245
1371.000000 0.3194 0.3144 0.3080 0.2959 0.2785
1376.000000 0.2769 0.2792 0.2835 0.2934 0.2992
1381.000000 0.3060 0.3143 0.3200 0.3249 0.3249
1386.000000 0.3248 0.3246 0.3259 0.3209 0.3157
1391.000000 0.3111 0.3063 0.2985 0.2909 0.2840
1396.000000 0.2771 0.2641 0.2472 0.2302 0.2133
1401.000000 0.1964 0.1794 0.1626 0.1457 0.1288
1406.000000 0.1119 0.0949 0.0826 0.0785 0.0794
1411.000000 0.1212 0.1769 0.2326 0.2883 0.3440
1416.000000 0.3997 0.4543 0.4860 0.4947 0.5031
1421.000000 0.5069 0.5092 0.5101 0.5087 0.5090
1426.000000 0.5080 0.5060 0.4818 0.4689 0.4559
1431.000000 0.4430 0.4300 0.4171 0.4041 0.3912
1436.000000 0.3782 0.3653 0.3524 0.3448 0.3344
1441.000000 0.3137 0.2930 0.2723 0.2516 0.2309
1446.000000 0.2102 0.1894 0.1878 0.1923 0.1958
1451.000000 0.1966 0.1939 0.1907 0.1871 0.1828
1456.000000 0.1784 0.1715 0.1668 0.1634 0.1631
1461.000000 0.1627 0.1623 0.1619 0.1634 0.1653
1466.000000 0.1671 0.1735 0.1844 0.2007 0.2140
1471.000000 0.2242 0.2300 0.2323 0.2322 0.2320
1476.000000 0.2309 0.2298 0.2287 0.2271 0.2244
1481.000000 0.2182 0.2100 0.1974 0.1810 0.1664
1486.000000 0.1525 0.1411 0.1313 0.1123 0.0972
1491.000000 0.0896 0.0896 0.0896 0.1215 0.0746
1496.000000 0.1852 0.2171 0.2489 0.2808 0.2832
1501.000000 0.2834 0.2800 0.2767 0.2725 0.2683
1506.000000 0.2640 0.2598 0.2556 0.2514 0.2471
1511.000000 0.2429 0.2387 0.2345 0.2302 0.2155
1516.000000 0.2095 0.2041 0.1969 0.1878 0.1764
1521.000000 0.1526 0.1477 0.1429 0.1378 0.1325
1526.000000 0.1268 0.1192 0.1123 0.1060 0.0997
1531.000000 0.0942 0.0889 0.0838 0.0791 0.0743
1536.000000 0.0696 0.0652 0.0609 0.0573 0.0542
1541.000000 0.0510 0.0471 0.0432 0.0396 0.0368
1546.000000 0.0347 0.0338 0.0329 0.0316 0.0314
1551.000000 0.0313 0.0312 0.0311 0.0317 0.0329
1556.000000 0.0361 0.0427 0.0486 0.0521 0.0538
1561.000000 0.0548 0.0561 0.0574 0.0595 0.0631
1566.000000 0.0697 0.0662 0.0662 0.0657 0.0652
1571.000000 0.0636 0.0614 0.0590 0.0545 0.0500
1576.000000 0.0451 0.0398 0.0390 0.0406 0.0674
1581.000000 0.1044 0.1414 0.1784 0.2154 0.2523
1586.000000 0.2715 0.2716 0.2699 0.2684 0.2585
1591.000000 0.2373 0.2161 0.1948 0.1734 0.1523
1596.000000 0.1310 0.1096 0.0885 0.0680 0.0661
1601.000000 0.0642 0.0631 0.0635 0.0679 0.0850
1606.000000 0.0969 0.0987 0.0982 0.0975 0.0959
1611.000000 0.0896 0.0815 0.0777 0.0740 0.0711
1616.000000 0.0698 0.0684 0.0673 0.0663 0.0654
1621.000000 0.0644 0.0621 0.0598 0.0568 0.0531
1626.000000 0.0510 0.0493 0.0475 0.0459 0.0446
1631.000000 0.0435 0.0423 0.0413 0.0402 0.0395
1636.000000 0.0387 0.0380 0.0372 0.0375 0.0390
1641.000000 0.0427 0.0471 0.0516 0.0585 0.0624
1646.000000 0.0632 0.0639 0.0669 0.0709 0.0749
1651.000000 0.0769 0.0780 0.0781 0.0782 0.0783
1656.000000 0.0788 0.0795 0.0819 0.0842 0.0896
1661.000000 0.0958 0.1013 0.1078 0.1166 0.1260
1666.000000 0.1362 0.1465 0.1569 0.1674 0.1781
1671.000000 0.2024 0.2311 0.2392 0.2431 0.2445
1676.000000 0.2459 0.2473 0.2494 0.2574 0.3166
1681.000000 0.3350 0.3484 0.3622 0.3680 0.3688
1686.000000 0.3687 0.3687 0.3866 0.4029 0.4176
1691.000000 0.4345 0.4505 0.4659 0.4804 0.5037
1696.000000 0.5117 0.5146 0.5155 0.5150 0.5136
1701.000000 0.5122 0.5103 0.5084 0.5076 0.5081
1706.000000 0.5097 0.5137 0.5187 0.5264 0.5390
1711.000000 0.5477 0.5614 0.5755 0.5905 0.6060
1716.000000 0.6223 0.6331 0.6421 0.6521 0.6635
1721.000000 0.6961 0.7033 0.7103 0.7174 0.7245
1726.000000 0.7315 0.7397 0.7449 0.7503 0.7558
1731.000000 0.7583 0.7592 0.7599 0.7606 0.7612
1736.000000 0.7621 0.7642 0.7694 0.7753 0.7807
1741.000000 0.7849 0.7891 0.7933 0.7975 0.8018
1746.000000 0.8061 0.8125 0.8190 0.8245 0.8286
1751.000000 0.8297 0.8305 0.8312 0.8320 0.8328
1756.000000 0.8335 0.8343 0.8353 0.8408 0.8520
1761.000000 0.8565 0.8578 0.8618 0.8595 0.8596
1766.000000 0.8596 0.8596 0.8593 0.8589 0.8581
1771.000000 0.8573 0.8557 0.8539 0.8518 0.8499
1776.000000 0.8474 0.8444 0.8414 0.8381 0.8291
1781.000000 0.8259 0.8227 0.8221 0.8214 0.8210
1786.000000 0.8208 0.8207 0.8150 0.8243 0.8361
1791.000000 0.8468 0.8524 0.8565 0.8603 0.8637
1796.000000 0.8671 0.8703 0.8733 0.8764 0.8778
1801.000000 0.8793 0.8807 0.8810 0.8813 0.8815
1806.000000 0.8818 0.8818 0.8818 0.8818 0.8818
1811.000000 0.8817 0.8808 0.8798 0.8782 0.8765
1816.000000 0.8747 0.8728 0.8712 0.8692 0.8668
1821.000000 0.8644 0.8604 0.8564 0.8504 0.8421
1826.000000 0.8355 0.8358 0.8363 0.8371 0.8368
1831.000000 0.8401 0.8462 0.8524 0.8586 0.8639
1836.000000 0.8686 0.8708 0.8728 0.8738 0.8741
1841.000000 0.8745 0.8756 0.8785 0.8812 0.8837
1846.000000 0.8862 0.8886 0.8903 0.8912 0.8921
1851.000000 0.8931 0.8932 0.8932 0.8932 0.8932
1856.000000 0.8931 0.8931 0.8925 0.8918 0.8913
1861.000000 0.8907 0.8900 0.8893 0.8886 0.8878
1866.000000 0.8870 0.8861 0.8851 0.8841 0.8833
1871.000000 0.8825 0.8820 0.8813 0.8807 0.8800
1876.000000 0.8794 0.8796 0.8800 0.8805 0.8809
1881.000000 0.8811 0.8812 0.8813 0.8814 0.8814
1886.000000 0.8814 0.8809 0.8801 0.8789 0.8777
1891.000000 0.8765 0.8751 0.8734 0.8716 0.8699
1896.000000 0.8682 0.8661 0.8638 0.8616 0.8593
1901.000000 0.8570 0.8544 0.8502 0.8461 0.8418
1906.000000 0.8374 0.8312 0.8199 0.7928 0.7865
1911.000000 0.7865 0.7864 0.7896 0.7936 0.7988
1916.000000 0.8045 0.8155 0.8207 0.8203 0.8203
1921.000000 0.8210 0.8216 0.8223 0.8355 0.8412
1926.000000 0.8466 0.8516 0.8566 0.8603 0.8618
1931.000000 0.8633 0.8648 0.8652 0.8656 0.8660
1936.000000 0.8664 0.8668 0.8668 0.8662 0.8688
1941.000000 0.8651 0.8644 0.8637 0.8628 0.8615
1946.000000 0.8601 0.8587 0.8573 0.8559 0.8545
1951.000000 0.8534 0.8525 0.8515 0.8505 0.8500
1956.000000 0.8518 0.8510 0.8347 0.8184 0.8021
1961.000000 0.7858 0.7695 0.7532 0.7403 0.7397
1966.000000 0.7395 0.7380 0.7568 0.7719 0.7871
1971.000000 0.8025 0.8134 0.8156 0.8149 0.8133
1976.000000 0.8117 0.8101 0.8083 0.8105 0.8128
1981.000000 0.8174 0.8310 0.8357 0.8378 0.8383
1986.000000 0.8390 0.8400 0.8415 0.8430 0.8445
1991.000000 0.8455 0.8460 0.8464 0.8468 0.8474
1996.000000 0.8508 0.8471 0.8468 0.8468 0.8468
2001.000000 0.8467 0.8466 0.8462 0.8459 0.8427
2006.000000 0.8395 0.8363 0.8331 0.8301 0.8271
2011.000000 0.8268 0.8268 0.8268 0.8275 0.8304
2016.000000 0.8334 0.8363 0.8392 0.8402 0.8413
2021.000000 0.8409 0.8406 0.8403 0.8401 0.8397
2026.000000 0.8394 0.8388 0.8383 0.8378 0.8373
2031.000000 0.8367 0.8361 0.8355 0.8350 0.8344
2036.000000 0.8338 0.8332 0.8325 0.8320 0.8315
2041.000000 0.8311 0.8308 0.8305 0.8303 0.8301
2046.000000 0.8299 0.8296 0.8294 0.8292 0.8291
2051.000000 0.8289 0.8287 0.8285 0.8284 0.8282
2056.000000 0.8281 0.8278 0.8277 0.8275 0.8274
2061.000000 0.8268 0.8265 0.8260 0.8255 0.8248
2066.000000 0.8241 0.8233 0.8225 0.8217 0.8209
2071.000000 0.8206 0.8203 0.8201 0.8199 0.8199
2076.000000 0.8199 0.8199 0.8199 0.8199 0.8199
2081.000000 0.8198 0.8198 0.8197 0.8197 0.8197
2086.000000 0.8197 0.8197 0.8197 0.8196 0.8196
2091.000000 0.8193 0.8191 0.8188 0.8186 0.8183
2096.000000 0.8181 0.8178 0.8175 0.8168 0.8162
2101.000000 0.8156 0.8150 0.8144 0.8138 0.8132
2106.000000 0.8125 0.8118 0.8112 0.8107 0.8101
2111.000000 0.8095 0.8089 0.8082 0.8075 0.8069
2116.000000 0.8064 0.8058 0.8054 0.8049 0.8044
2121.000000 0.8039 0.8034 0.8028 0.8024 0.8018
2126.000000 0.8014 0.8008 0.8004 0.7999 0.7994
2131.000000 0.7989 0.7985 0.7982 0.7978 0.7976
2136.000000 0.7975 0.7971 0.7969 0.7968 0.7965
2141.000000 0.7962 0.7961 0.7958 0.7958 0.7958
2146.000000 0.7958 0.7957 0.7956 0.7954 0.7953
2151.000000 0.7951 0.7951 0.7950 0.7949 0.7948
2156.000000 0.7948 0.7947 0.7946 0.7945 0.7945
2161.000000 0.7944 0.7944 0.7943 0.7943 0.7942
2166.000000 0.7942 0.7941 0.7941 0.7940 0.7940
2171.000000 0.7939 0.7939 0.7938 0.7938 0.7937
2176.000000 0.7936 0.7935 0.7934 0.7933 0.7933
2181.000000 0.7932 0.7931 0.7930 0.7928 0.7925
2186.000000 0.7924 0.7921 0.7918 0.7915 0.7911
2191.000000 0.7908 0.7905 0.7901 0.7899 0.7896
2196.000000 0.7893 0.7889 0.7886 0.7883 0.7880
2201.000000 0.7876 0.7874 0.7871 0.7868 0.7865
2206.000000 0.7861 0.7858 0.7855 0.7851 0.7849
2211.000000 0.7846 0.7843 0.7840 0.7837 0.7834
2216.000000 0.7831 0.7828 0.7825 0.7821 0.7818
2221.000000 0.7815 0.7811 0.7807 0.7804 0.7800
2226.000000 0.7797 0.7793 0.7790 0.7786 0.7783
2231.000000 0.7778 0.7775 0.7771 0.7768 0.7764
2236.000000 0.7761 0.7757 0.7754 0.7750 0.7747
2241.000000 0.7743 0.7740 0.7736 0.7732 0.7728
2246.000000 0.7725 0.7721 0.7718 0.7714 0.7710
2251.000000 0.7706 0.7703 0.7699 0.7696 0.7692
2256.000000 0.7688 0.7684 0.7681 0.7676 0.7672
2261.000000 0.7668 0.7665 0.7661 0.7658 0.7656
2266.000000 0.7656 0.7655 0.7658 0.7660 0.7661
2271.000000 0.7664 0.7665 0.7668 0.7671 0.7672
2276.000000 0.7672 0.7672 0.7671 0.7668 0.7668
2281.000000 0.7665 0.7664 0.7661 0.7660 0.7658
2286.000000 0.7657 0.7655 0.7653 0.7651 0.7649
2291.000000 0.7644 0.7640 0.7633 0.7625 0.7618
2296.000000 0.7611 0.7604 0.7597 0.7590 0.7583
2301.000000 0.7571 0.7558 0.7542 0.7525 0.7508
2306.000000 0.7493 0.7475 0.7458 0.7456 0.7453
2311.000000 0.7460 0.7468 0.7475 0.7483 0.7490
2316.000000 0.7498 0.7505 0.7512 0.7531 0.7550
2321.000000 0.7568 0.7587 0.7600 0.7612 0.7618
2326.000000 0.7624 0.7630 0.7636 0.7642 0.7648
2331.000000 0.7653 0.7658 0.7665 0.7671 0.7676
2336.000000 0.7683 0.7688 0.7693 0.7697 0.7701
2341.000000 0.7705 0.7708 0.7712 0.7717 0.7721
2346.000000 0.7725 0.7715 0.7706 0.7672 0.7640
2351.000000 0.7568 0.7499 0.7478 0.7460 0.7440
2356.000000 0.7421 0.7401 0.7382 0.7368 0.7356
2361.000000 0.7351 0.7347 0.7343 0.7339 0.7335
2366.000000 0.7332 0.7330 0.7328 0.7325 0.7324
2371.000000 0.7321 0.7319 0.7318 0.7315 0.7314
2376.000000 0.7311 0.7310 0.7308 0.7306 0.7305
2381.000000 0.7303 0.7301 0.7299 0.7297 0.7294
2386.000000 0.7292 0.7289 0.7287 0.7284 0.7282
2391.000000 0.7278 0.7276 0.7274 0.7271 0.7268
2396.000000 0.7265 0.7261 0.7258 0.7255 0.7251
2401.000000 0.7248 0.7245 0.7242 0.7239 0.7235
2406.000000 0.7232 0.7228 0.7225 0.7221 0.7217
2411.000000 0.7208 0.7201 0.7194 0.7187 0.7178
2416.000000 0.7171 0.7165 0.7158 0.7150 0.7143
2421.000000 0.7135 0.7126 0.7117 0.7108 0.7099
2426.000000 0.7090 0.7080 0.7071 0.7061 0.7051
2431.000000 0.7042 0.7033 0.7022 0.7014 0.7004
2436.000000 0.6994 0.6983 0.6972 0.6961 0.6951
2441.000000 0.6941 0.6931 0.6919 0.6910 0.6900
2446.000000 0.6890 0.6878 0.6868 0.6855 0.6843
2451.000000 0.6831 0.6818 0.6807 0.6795 0.6783
2456.000000 0.6771 0.6758 0.6747 0.6735 0.6722
2461.000000 0.6695 0.6667 0.6661 0.6658 0.6655
2466.000000 0.6653 0.6653 0.6654 0.6656 0.6658
2471.000000 0.6660 0.6661 0.6664 0.6665 0.6669
2476.000000 0.6675 0.6678 0.6684 0.6688 0.6693
2481.000000 0.6697 0.6701 0.6706 0.6710 0.6711
2486.000000 0.6712 0.6714 0.6715 0.6717 0.6718
2491.000000 0.6718 0.6721 0.6721 0.6722 0.6722
2496.000000 0.6722 0.6719 0.6718 0.6715 0.6712
2501.000000 0.6710 0.6707 0.6704 0.6701 0.6699
2506.000000 0.6697 0.6693 0.6690 0.6686 0.6682
2511.000000 0.6676 0.6672 0.6668 0.6664 0.6660
2516.000000 0.6656 0.6651 0.6647 0.6642 0.6637
2521.000000 0.6631 0.6625 0.6618 0.6614 0.6608
2526.000000 0.6603 0.6597 0.6591 0.6585 0.6580
2531.000000 0.6574 0.6568 0.6562 0.6557 0.6551
2536.000000 0.6546 0.6540 0.6534 0.6528 0.6521
2541.000000 0.6515 0.6511 0.6505 0.6499 0.6493
2546.000000 0.6488 0.6482 0.6475 0.6469 0.6464
2551.000000 0.6458 0.6453 0.6449 0.6445 0.6442
2556.000000 0.6440 0.6438 0.6436 0.6433 0.6431
2561.000000 0.6428 0.6426 0.6425 0.6422 0.6419
2566.000000 0.6418 0.6415 0.6414 0.6408 0.6404
2571.000000 0.6398 0.6393 0.6387 0.6381 0.6375
2576.000000 0.6370 0.6364 0.6358 0.6352 0.6346
2581.000000 0.6340 0.6335 0.6329 0.6323 0.6317
2586.000000 0.6312 0.6307 0.6303 0.6298 0.6294
2591.000000 0.6289 0.6285 0.6280 0.6276 0.6271
2596.000000 0.6267 0.6262 0.6258 0.6253 0.6249
2601.000000 0.6246 0.6245 0.6246 0.6246 0.6247
2606.000000 0.6249 0.6250 0.6251 0.6252 0.6253
2611.000000 0.6253 0.6253 0.6253 0.6253 0.6252
2616.000000 0.6251 0.6250 0.6250 0.6249 0.6249
2621.000000 0.6245 0.6241 0.6236 0.6232 0.6227
2626.000000 0.6223 0.6218 0.6214 0.6208 0.6202
2631.000000 0.6195 0.6188 0.6181 0.6175 0.6168
2636.000000 0.6160 0.6154 0.6148 0.6141 0.6134
2641.000000 0.6127 0.6120 0.6112 0.6105 0.6098
2646.000000 0.6091 0.6083 0.6076 0.6069 0.6062
2651.000000 0.6054 0.6047 0.6040 0.6033 0.6023
2656.000000 0.6014 0.6002 0.5990 0.5978 0.5967
2661.000000 0.5955 0.5944 0.5932 0.5920 0.5908
2666.000000 0.5897 0.5885 0.5873 0.5860 0.5850
2671.000000 0.5838 0.5827 0.5816 0.5805 0.5793
2676.000000 0.5782 0.5771 0.5760 0.5748 0.5737
2681.000000 0.5726 0.5715 0.5703 0.5692 0.5681
2686.000000 0.5670 0.5658 0.5647 0.5631 0.5616
2691.000000 0.5600 0.5584 0.5568 0.5552 0.5536
2696.000000 0.5520 0.5504 0.5489 0.5478 0.5467
2701.000000 0.5456 0.5446 0.5435 0.5424 0.5412
2706.000000 0.5403 0.5392 0.5381 0.5375 0.5370
2711.000000 0.5365 0.5360 0.5355 0.5351 0.5346
2716.000000 0.5342 0.5337 0.5333 0.5327 0.5321
2721.000000 0.5315 0.5309 0.5303 0.5297 0.5291
2726.000000 0.5285 0.5279 0.5273 0.5267 0.5260
2731.000000 0.5254 0.5248 0.5237 0.5227 0.5216
2736.000000 0.5206 0.5195 0.5184 0.5173 0.5162
2741.000000 0.5152 0.5142 0.5131 0.5121 0.5110
2746.000000 0.5100 0.5089 0.5078 0.5066 0.5055
2751.000000 0.5044 0.5033 0.5022 0.5010 0.5000
2756.000000 0.4989 0.4977 0.4966 0.4955 0.4944
2761.000000 0.4933 0.4922 0.4910 0.4900 0.4885
2766.000000 0.4871 0.4856 0.4841 0.4825 0.4810
2771.000000 0.4795 0.4780 0.4764 0.4749 0.4734
2776.000000 0.4719 0.4703 0.4688 0.4673 0.4658
2781.000000 0.4642 0.4627 0.4601 0.4576 0.4551
2786.000000 0.4526 0.4500 0.4475 0.4450 0.4425
2791.000000 0.4396 0.4367 0.4342 0.4318 0.4315
2796.000000 0.4314 0.4314 0.4314 0.4320 0.4327
2801.000000 0.4334 0.4341 0.4346 0.4352 0.4351
2806.000000 0.4351 0.4350 0.4349 0.4345 0.4341
2811.000000 0.4337 0.4334 0.4330 0.4327 0.4314
2816.000000 0.4302 0.4286 0.4270 0.4253 0.4236
2821.000000 0.4204 0.4172 0.4132 0.4093 0.4002
2826.000000 0.3912 0.3788 0.3664 0.3500 0.3336
2831.000000 0.3227 0.3118 0.3002 0.2885 0.2767
2836.000000 0.2648 0.2529 0.2410 0.2291 0.2172
2841.000000 0.2053 0.1934 0.1815 0.1695 0.1577
2846.000000 0.1459 0.1367 0.1276 0.1180 0.1085
2851.000000 0.1020 0.0956 0.0850 0.0744 0.0612
2856.000000 0.0480 0.0466 0.0465 0.0464 0.0475
2861.000000 0.0486 0.0498 0.0509 0.0521 0.0533
2866.000000 0.0545 0.0556 0.0568 0.0579 0.0590
2871.000000 0.0601 0.0612 0.0637 0.0662 0.0695
2876.000000 0.0728 0.0738 0.0749 0.0757 0.0766
2881.000000 0.0771 0.0777 0.0776 0.0776 0.0775
2886.000000 0.0775 0.0772 0.0769 0.0758 0.0748
2891.000000 0.0738 0.0728 0.0717 0.0707 0.0692
2896.000000 0.0678 0.0664 0.0650 0.0635 0.0621
2901.000000 0.0606 0.0591 0.0569 0.0548 0.0527
2906.000000 0.0506 0.0485 0.0464 0.0441 0.0419
2911.000000 0.0396 0.0373 0.0350 0.0327 0.0304
2916.000000 0.0282 0.0263 0.0245 0.0229 0.0212
2921.000000 0.0197 0.0182 0.0166 0.0151 0.0142
2926.000000 0.0133 0.0130 0.0127 0.0123 0.0123
2931.000000 0.0123 0.0124 0.0127 0.0131 0.0134
2936.000000 0.0139 0.0142 0.0146 0.0149 0.0153
2941.000000 0.0157 0.0161 0.0164 0.0167 0.0170
2946.000000 0.0174 0.0177 0.0181 0.0183 0.0187
2951.000000 0.0190 0.0194 0.0196 0.0197 0.0196
2956.000000 0.0196 0.0195 0.0194 0.0193 0.0192
2961.000000 0.0190 0.0189 0.0188 0.0187 0.0190
2966.000000 0.0193 0.0210 0.0229 0.0251 0.0274
2971.000000 0.0313 0.0352 0.0399 0.0447 0.0480
2976.000000 0.0513 0.0546 0.0579 0.0612 0.0645
2981.000000 0.0688 0.0732 0.0780 0.0828 0.0876
2986.000000 0.0926 0.0978 0.1030 0.1082 0.1134
2991.000000 0.1162 0.1190 0.1216 0.1242 0.1248
2996.000000 0.1253 0.1257 0.1261 0.1264 0.1268
3001.000000 0.1271 0.1274 0.1280 0.1286 0.1298
3006.000000 0.1310 0.1332 0.1355 0.1379 0.1404
3011.000000 0.1453 0.1502 0.1537 0.1573 0.1600
3016.000000 0.1628 0.1644 0.1662 0.1664 0.1667
3021.000000 0.1668 0.1670 0.1666 0.1662 0.1657
3026.000000 0.1653 0.1649 0.1644 0.1640 0.1635
3031.000000 0.1633 0.1629 0.1629 0.1631 0.1632
3036.000000 0.1633 0.1634 0.1634 0.1635 0.1637
3041.000000 0.1639 0.1640 0.1628 0.1617 0.1600
3046.000000 0.1584 0.1560 0.1536 0.1512 0.1489
3051.000000 0.1456 0.1423 0.1386 0.1349 0.1317
3056.000000 0.1285 0.1254 0.1223 0.1192 0.1164
3061.000000 0.1165 0.1146 0.1173 0.1180 0.1299
3066.000000 0.1419 0.1450 0.1481 0.1483 0.1485
3071.000000 0.1625 0.1765 0.1848 0.1931 0.1963
3076.000000 0.1994 0.1992 0.1989 0.1983 0.1978
3081.000000 0.1971 0.1965 0.1958 0.1951 0.1946
3086.000000 0.1944 0.1941 0.1942 0.1943 0.1949
3091.000000 0.1963 0.1978 0.2002 0.2026 0.2054
3096.000000 0.2083 0.2115 0.2147 0.2171 0.2195
3101.000000 0.2212 0.2230 0.2248 0.2266 0.2284
3106.000000 0.2302 0.2321 0.2341 0.2360 0.2380
3111.000000 0.2399 0.2419 0.2438 0.2458 0.2470
3116.000000 0.2483 0.2496 0.2509 0.2515 0.2522
3121.000000 0.2522 0.2523 0.2523 0.2524 0.2524
3126.000000 0.2524 0.2525 0.2526 0.2526 0.2526
3131.000000 0.2521 0.2517 0.2512 0.2508 0.2504
3136.000000 0.2500 0.2494 0.2488 0.2479 0.2471
3141.000000 0.2462 0.2454 0.2446 0.2438 0.2430
3146.000000 0.2423 0.2416 0.2409 0.2402 0.2395
3151.000000 0.2387 0.2380 0.2373 0.2367 0.2361
3156.000000 0.2356 0.2350 0.2345 0.2339 0.2333
3161.000000 0.2327 0.2322 0.2316 0.2311 0.2305
3166.000000 0.2299 0.2289 0.2279 0.2269 0.2259
3171.000000 0.2249 0.2239 0.2229 0.2219 0.2209
3176.000000 0.2199 0.2188 0.2178 0.2168 0.2158
3181.000000 0.2148 0.2138 0.2127 0.2116 0.2104
3186.000000 0.2093 0.2081 0.2070 0.2058 0.2046
3191.000000 0.2034 0.2024 0.2012 0.2001 0.1991
3196.000000 0.1981 0.1970 0.1960 0.1950 0.1940
3201.000000 0.1929 0.1920 0.1910 0.1900 0.1889
3206.000000 0.1879 0.1869 0.1860 0.1850 0.1841
3211.000000 0.1831 0.1822 0.1813 0.1804 0.1794
3216.000000 0.1784 0.1775 0.1766 0.1757 0.1748
3221.000000 0.1737 0.1729 0.1719 0.1710 0.1699
3226.000000 0.1689 0.1677 0.1666 0.1654 0.1644
3231.000000 0.1632 0.1621 0.1610 0.1599 0.1587
3236.000000 0.1576 0.1564 0.1553 0.1542 0.1531
3241.000000 0.1517 0.1504 0.1487 0.1471 0.1455
3246.000000 0.1439 0.1422 0.1406 0.1390 0.1374
3251.000000 0.1358 0.1342 0.1325 0.1309 0.1292
3256.000000 0.1277 0.1261 0.1245 0.1229 0.1214
3261.000000 0.1199 0.1184 0.1169 0.1154 0.1138
3266.000000 0.1123 0.1108 0.1092 0.1078 0.1063
3271.000000 0.1046 0.1032 0.1017 0.1002 0.0986
3276.000000 0.0970 0.0954 0.0938 0.0922 0.0906
3281.000000 0.0889 0.0874 0.0858 0.0842 0.0826
3286.000000 0.0810 0.0798 0.0787 0.0777 0.0767
3291.000000 0.0756 0.0746 0.0736 0.0726 0.0715
3296.000000 0.0705 0.0695 0.0685 0.0674 0.0664
3301.000000 0.0654 0.0645 0.0637 0.0630 0.0622
3306.000000 0.0615 0.0608 0.0601 0.0593 0.0586
3311.000000 0.0578 0.0571 0.0563 0.0556 0.0549
3316.000000 0.0542 0.0534 0.0527 0.0520 0.0514
3321.000000 0.0509 0.0504 0.0499 0.0495 0.0490
3326.000000 0.0485 0.0480 0.0475 0.0471 0.0467
3331.000000 0.0464 0.0460 0.0456 0.0453 0.0449
3336.000000 0.0445 0.0442 0.0442 0.0443 0.0447
3341.000000 0.0450 0.0453 0.0456 0.0460 0.0463
3346.000000 0.0467 0.0473 0.0480 0.0487 0.0495
3351.000000 0.0502 0.0509 0.0527 0.0545 0.0571
3356.000000 0.0598 0.0618 0.0638 0.0663 0.0688
3361.000000 0.0717 0.0747 0.0790 0.0833 0.0882
3366.000000 0.0931 0.0988 0.1046 0.1132 0.1218
3371.000000 0.1277 0.1336 0.1373 0.1411 0.1448
3376.000000 0.1486 0.1540 0.1594 0.1654 0.1714
3381.000000 0.1775 0.1835 0.1899 0.1963 0.2027
3386.000000 0.2091 0.2172 0.2254 0.2365 0.2477
3391.000000 0.2656 0.2835 0.2923 0.3011 0.3083
3396.000000 0.3155 0.3185 0.3218 0.3249 0.3280
3401.000000 0.3312 0.3344 0.3375 0.3407 0.3438
3406.000000 0.3470 0.3506 0.3543 0.3580 0.3616
3411.000000 0.3654 0.3691 0.3732 0.3776 0.3830
3416.000000 0.3887 0.3942 0.3998 0.4037 0.4077
3421.000000 0.4115 0.4154 0.4192 0.4230 0.4257
3426.000000 0.4285 0.4308 0.4332 0.4356 0.4380
3431.000000 0.4404 0.4428 0.4451 0.4475 0.4496
3436.000000 0.4518 0.4538 0.4558 0.4577 0.4597
3441.000000 0.4617 0.4637 0.4656 0.4676 0.4700
3446.000000 0.4724 0.4748 0.4773 0.4797 0.4821
3451.000000 0.4843 0.4866 0.4888 0.4910 0.4933
3456.000000 0.4956 0.4982 0.5008 0.5021 0.5035
3461.000000 0.5047 0.5059 0.5071 0.5083 0.5091
3466.000000 0.5100 0.5108 0.5116 0.5124 0.5132
3471.000000 0.5140 0.5148 0.5156 0.5164 0.5172
3476.000000 0.5180 0.5184 0.5188 0.5189 0.5191
3481.000000 0.5193 0.5195 0.5196 0.5198 0.5200
3486.000000 0.5202 0.5203 0.5205 0.5207 0.5209
3491.000000 0.5210 0.5212 0.5216 0.5219 0.5222
3496.000000 0.5225 0.5228 0.5231 0.5234 0.5238
3501.000000 0.5241 0.5245 0.5249 0.5253 0.5257
3506.000000 0.5260 0.5267 0.5273 0.5279 0.5285
3511.000000 0.5291 0.5298 0.5304 0.5310 0.5317
3516.000000 0.5324 0.5331 0.5338 0.5346 0.5354
3521.000000 0.5360 0.5369 0.5376 0.5384 0.5392
3526.000000 0.5400 0.5407 0.5415 0.5423 0.5431
3531.000000 0.5438 0.5446 0.5454 0.5462 0.5469
3536.000000 0.5477 0.5485 0.5493 0.5500 0.5508
3541.000000 0.5516 0.5524 0.5532 0.5540 0.5548
3546.000000 0.5556 0.5562 0.5571 0.5579 0.5587
3551.000000 0.5594 0.5601 0.5608 0.5615 0.5622
3556.000000 0.5629 0.5636 0.5644 0.5651 0.5658
3561.000000 0.5665 0.5672 0.5679 0.5686 0.5693
3566.000000 0.5701 0.5707 0.5714 0.5719 0.5724
3571.000000 0.5728 0.5733 0.5738 0.5743 0.5748
3576.000000 0.5753 0.5757 0.5762 0.5765 0.5769
3581.000000 0.5771 0.5774 0.5776 0.5779 0.5781
3586.000000 0.5784 0.5786 0.5789 0.5791 0.5793
3591.000000 0.5795 0.5797 0.5798 0.5800 0.5801
3596.000000 0.5803 0.5804 0.5805 0.5806 0.5808
3601.000000 0.5809 0.5810 0.5812 0.5812 0.5814
3606.000000 0.5814 0.5815 0.5815 0.5814 0.5814
3611.000000 0.5812 0.5812 0.5812 0.5812 0.5812
3616.000000 0.5812 0.5810 0.5810 0.5810 0.5810
3621.000000 0.5810 0.5810 0.5809 0.5808 0.5806
3626.000000 0.5804 0.5801 0.5799 0.5797 0.5795
3631.000000 0.5792 0.5790 0.5788 0.5786 0.5783
3636.000000 0.5781 0.5779 0.5777 0.5775 0.5774
3641.000000 0.5772 0.5771 0.5769 0.5768 0.5766
3646.000000 0.5765 0.5762 0.5762 0.5760 0.5758
3651.000000 0.5756 0.5756 0.5756 0.5757 0.5758
3656.000000 0.5759 0.5760 0.5760 0.5762 0.5762
3661.000000 0.5764 0.5765 0.5766 0.5767 0.5768
3666.000000 0.5769 0.5770 0.5771 0.5773 0.5775
3671.000000 0.5777 0.5780 0.5782 0.5784 0.5786
3676.000000 0.5789 0.5791 0.5793 0.5794 0.5795
3681.000000 0.5796 0.5798 0.5799 0.5800 0.5801
3686.000000 0.5803 0.5803 0.5803 0.5800 0.5797
3691.000000 0.5794 0.5792 0.5789 0.5787 0.5784
3696.000000 0.5782 0.5779 0.5776 0.5773 0.5771
3701.000000 0.5768 0.5766 0.5765 0.5765 0.5764
3706.000000 0.5762 0.5762 0.5762 0.5760 0.5760
3711.000000 0.5759 0.5759 0.5758 0.5758 0.5756
3716.000000 0.5755 0.5753 0.5752 0.5750 0.5748
3721.000000 0.5748 0.5748 0.5749 0.5751 0.5752
3726.000000 0.5754 0.5755 0.5757 0.5758 0.5760
3731.000000 0.5760 0.5762 0.5764 0.5766 0.5767
3736.000000 0.5769 0.5770 0.5770 0.5770 0.5770
3741.000000 0.5768 0.5766 0.5764 0.5762 0.5760
3746.000000 0.5758 0.5756 0.5755 0.5753 0.5751
3751.000000 0.5748 0.5746 0.5743 0.5740 0.5737
3756.000000 0.5734 0.5731 0.5728 0.5725 0.5722
3761.000000 0.5719 0.5716 0.5712 0.5710 0.5707
3766.000000 0.5704 0.5700 0.5697 0.5694 0.5691
3771.000000 0.5687 0.5684 0.5681 0.5678 0.5674
3776.000000 0.5671 0.5668 0.5665 0.5662 0.5660
3781.000000 0.5657 0.5655 0.5653 0.5651 0.5649
3786.000000 0.5647 0.5644 0.5642 0.5640 0.5638
3791.000000 0.5636 0.5634 0.5631 0.5629 0.5627
3796.000000 0.5625 0.5623 0.5622 0.5620 0.5618
3801.000000 0.5616 0.5615 0.5612 0.5610 0.5609
3806.000000 0.5608 0.5606 0.5604 0.5602 0.5601
3811.000000 0.5599 0.5597 0.5595 0.5594 0.5592
3816.000000 0.5590 0.5590 0.5590
##END=
