##TITLE=Menadione sodium bisulfite, trihydrate
##JCAMP-DX=4.24
##DATA TYPE=INFRARED SPECTRUM
##CLASS=COBLENTZ III
##ORIGIN=ABBOTT LABORATORIES
##OWNER=Copyright (C) 1987 by the Coblentz Society
Collection (C) 2018 copyright by the U.S. Secretary of Commerce
on behalf of the United States of America. All rights reserved.
##DATE=1962/04/18
##NAMES=2-METHYL-1,4-NAPHTHOQUINONE SODIUM BISULFITE TRIHYDRATE
##CAS REGISTRY NO=6147-37-1
##MOLFORM=C11 H9 Na O5 S  * 3 H2 O
##SOURCE REFERENCE=COBLENTZ NO. 5359
##$NIST SOURCE=COBLENTZ
##$NIST IMAGE=cob5359
##SPECTROMETER/DATA SYSTEM=PERKIN-ELMER 21 (GRATING)
$$SPECTRAL CONTAMINATION DUE TO OIL AROUND 1450 AND 2850 CM^-^1
##INSTRUMENT PARAMETERS=FILTER AT ABOUT 10 MICRONS
$$ SPECTRAL FEATURE AT 995 CM^-^1 IS AN ARTIFACT CAUSED BY FILTER CHANGE
##STATE=SOLID (NUJOL MULL)
##RESOLUTION=2
##XUNITS=1/CM
##YUNITS=TRANSMITTANCE
##XFACTOR=1.0
##YFACTOR=1
##FIRSTX=651
##LASTX=4000
##FIRSTY=0.5166
##MAXX=4000
##MINX=651
##MAXY=0.8674
##MINY=0.0305
##NPOINTS=3350
##XYDATA=(X++(Y..Y))
651.000000 0.5166 0.5183 0.5190 0.5186 0.5160
656.000000 0.5116 0.5061 0.4985 0.4886 0.4883
661.000000 0.4945 0.5003 0.5079 0.5277 0.5640
666.000000 0.5842 0.5972 0.6056 0.6099 0.6124
671.000000 0.6122 0.6133 0.6072 0.5998 0.5900
676.000000 0.5807 0.5731 0.5689 0.5691 0.5736
681.000000 0.5829 0.5964 0.6133 0.6309 0.6472
686.000000 0.6593 0.6685 0.6752 0.6818 0.6878
691.000000 0.6929 0.6956 0.6972 0.6980 0.6983
696.000000 0.6984 0.6987 0.6991 0.6999 0.7032
701.000000 0.7004 0.6995 0.6975 0.6956 0.6942
706.000000 0.6921 0.6896 0.6867 0.6832 0.6788
711.000000 0.6733 0.6662 0.6574 0.6472 0.6355
716.000000 0.6230 0.6120 0.6073 0.6071 0.6083
721.000000 0.6130 0.6192 0.6275 0.6369 0.6423
726.000000 0.6406 0.6389 0.6335 0.6241 0.6040
731.000000 0.5824 0.5609 0.5394 0.5180 0.5166
736.000000 0.5314 0.5684 0.6053 0.6421 0.6778
741.000000 0.6901 0.6957 0.6978 0.6967 0.6935
746.000000 0.6865 0.6514 0.5844 0.5196 0.4604
751.000000 0.4609 0.5261 0.5691 0.5914 0.6203
756.000000 0.6885 0.7147 0.7309 0.7419 0.7511
761.000000 0.7585 0.7627 0.7654 0.7668 0.7681
766.000000 0.7698 0.7736 0.7786 0.7829 0.7862
771.000000 0.7883 0.7901 0.7882 0.7928 0.7940
776.000000 0.7947 0.7952 0.7955 0.7947 0.7940
781.000000 0.7905 0.7863 0.7803 0.7758 0.7747
786.000000 0.7774 0.7828 0.7901 0.7960 0.8005
791.000000 0.8041 0.8064 0.8075 0.8077 0.8075
796.000000 0.8078 0.8065 0.8052 0.8037 0.8021
801.000000 0.7997 0.7974 0.7951 0.7931 0.7906
806.000000 0.7877 0.7817 0.7686 0.7428 0.7171
811.000000 0.7096 0.7385 0.7411 0.7431 0.7484
816.000000 0.7787 0.8117 0.8141 0.8160 0.8177
821.000000 0.8186 0.8193 0.8196 0.8212 0.8194
826.000000 0.8191 0.8181 0.8170 0.8159 0.8149
831.000000 0.8140 0.8136 0.8133 0.8129 0.8127
836.000000 0.8123 0.8119 0.8116 0.8113 0.8114
841.000000 0.8115 0.8116 0.8117 0.8118 0.8121
846.000000 0.8123 0.8129 0.8134 0.8145 0.8157
851.000000 0.8179 0.8199 0.8218 0.8231 0.8245
856.000000 0.8256 0.8266 0.8276 0.8284 0.8279
861.000000 0.8275 0.8270 0.8262 0.8250 0.8239
866.000000 0.8228 0.8215 0.8197 0.8179 0.8161
871.000000 0.8143 0.8124 0.8106 0.8087 0.8068
876.000000 0.8050 0.8031 0.8009 0.7986 0.7964
881.000000 0.7941 0.7919 0.7896 0.7874 0.7852
886.000000 0.7831 0.7811 0.7792 0.7773 0.7755
891.000000 0.7743 0.7729 0.7716 0.7702 0.7701
896.000000 0.7712 0.7740 0.7772 0.7763 0.7747
901.000000 0.7708 0.7664 0.7597 0.7524 0.7431
906.000000 0.7324 0.7202 0.7027 0.6845 0.6821
911.000000 0.6888 0.6940 0.6992 0.7044 0.7099
916.000000 0.7163 0.7254 0.7360 0.7495 0.7523
921.000000 0.7532 0.7558 0.7525 0.7507 0.7482
926.000000 0.7461 0.7440 0.7419 0.7395 0.7369
931.000000 0.7343 0.7316 0.7277 0.7237 0.7197
936.000000 0.7164 0.7131 0.7099 0.7068 0.7037
941.000000 0.7006 0.6975 0.6947 0.6919 0.6891
946.000000 0.6863 0.6834 0.6791 0.6744 0.6698
951.000000 0.6652 0.6580 0.6500 0.6406 0.6299
956.000000 0.6197 0.6102 0.6011 0.5939 0.5869
961.000000 0.5798 0.5726 0.5649 0.5573 0.5497
966.000000 0.5399 0.5292 0.5184 0.5067 0.4943
971.000000 0.4817 0.4683 0.4540 0.4359 0.4287
976.000000 0.4254 0.4245 0.4236 0.4228 0.4223
981.000000 0.4245 0.4233 0.4360 0.4516 0.4671
986.000000 0.4826 0.4980 0.5082 0.5080 0.5052
991.000000 0.5024 0.6060 0.6202 0.6061 0.5956
996.000000 0.6029 0.6155 0.6285 0.6367 0.6427
1001.000000 0.6483 0.6535 0.6576 0.6604 0.6616
1006.000000 0.6615 0.6646 0.6577 0.6532 0.6478
1011.000000 0.6414 0.6352 0.6269 0.6173 0.6045
1016.000000 0.5882 0.5669 0.5326 0.4984 0.4642
1021.000000 0.4374 0.4380 0.4482 0.4586 0.4649
1026.000000 0.4673 0.4501 0.4181 0.3882 0.3815
1031.000000 0.3839 0.4049 0.4585 0.5158 0.5720
1036.000000 0.6010 0.6133 0.6172 0.6178 0.6173
1041.000000 0.6187 0.6134 0.6058 0.5966 0.5787
1046.000000 0.5567 0.5349 0.5130 0.4913 0.4696
1051.000000 0.4586 0.4563 0.4572 0.4566 0.4585
1056.000000 0.4615 0.4667 0.4740 0.4792 0.4796
1061.000000 0.4814 0.4723 0.4679 0.4662 0.4665
1066.000000 0.4661 0.4902 0.5061 0.5219 0.5284
1071.000000 0.5306 0.5272 0.5226 0.5097 0.5052
1076.000000 0.5053 0.5037 0.5217 0.5341 0.5464
1081.000000 0.5587 0.5710 0.5833 0.5956 0.6078
1086.000000 0.6200 0.6346 0.6487 0.6595 0.6716
1091.000000 0.6809 0.6845 0.6859 0.6863 0.6860
1096.000000 0.6863 0.6856 0.6831 0.6804 0.6770
1101.000000 0.6735 0.6712 0.6690 0.6668 0.6643
1106.000000 0.6604 0.6555 0.6501 0.6439 0.6367
1111.000000 0.6343 0.6327 0.6309 0.6264 0.6214
1116.000000 0.6163 0.6112 0.6055 0.5991 0.5927
1121.000000 0.5863 0.5801 0.5733 0.5664 0.5594
1126.000000 0.5518 0.5417 0.5350 0.5342 0.5337
1131.000000 0.5333 0.5330 0.5327 0.5314 0.5265
1136.000000 0.5189 0.5094 0.4928 0.4810 0.4690
1141.000000 0.4549 0.4418 0.4317 0.4220 0.4060
1146.000000 0.3857 0.3655 0.3453 0.3252 0.3051
1151.000000 0.2831 0.2716 0.2639 0.2558 0.2470
1156.000000 0.2402 0.2337 0.2275 0.2235 0.2211
1161.000000 0.2186 0.2179 0.2175 0.2177 0.2180
1166.000000 0.2182 0.2194 0.2206 0.2220 0.2239
1171.000000 0.2259 0.2270 0.2276 0.2281 0.2325
1176.000000 0.2281 0.2250 0.2202 0.2130 0.2053
1181.000000 0.1984 0.1915 0.1846 0.1773 0.1701
1186.000000 0.1628 0.1556 0.1475 0.1336 0.1255
1191.000000 0.1254 0.1232 0.1253 0.1261 0.1276
1196.000000 0.1297 0.1340 0.1400 0.1474 0.1571
1201.000000 0.1684 0.1782 0.1868 0.1921 0.1970
1206.000000 0.2019 0.2052 0.2084 0.2116 0.2139
1211.000000 0.2160 0.2181 0.2210 0.2295 0.2544
1216.000000 0.2698 0.2815 0.2932 0.3058 0.3173
1221.000000 0.3262 0.3326 0.3385 0.3419 0.3421
1226.000000 0.3418 0.3388 0.3329 0.3305 0.3306
1231.000000 0.3326 0.3508 0.3726 0.3942 0.4158
1236.000000 0.4374 0.4590 0.4805 0.5051 0.5235
1241.000000 0.5306 0.5318 0.5314 0.5331 0.5252
1246.000000 0.5063 0.4847 0.4630 0.4415 0.4200
1251.000000 0.3984 0.3769 0.3555 0.3341 0.3217
1256.000000 0.3217 0.3232 0.3209 0.3334 0.3626
1261.000000 0.4005 0.4382 0.4758 0.5134 0.5510
1266.000000 0.5743 0.5838 0.5941 0.6033 0.6084
1271.000000 0.6101 0.6096 0.6089 0.6064 0.6018
1276.000000 0.5871 0.5589 0.5299 0.5008 0.4719
1281.000000 0.4430 0.4208 0.4202 0.4209 0.4187
1286.000000 0.4241 0.4292 0.4379 0.4454 0.4681
1291.000000 0.4972 0.5264 0.5554 0.5844 0.6114
1296.000000 0.6244 0.6267 0.6273 0.6264 0.6266
1301.000000 0.6255 0.6174 0.6054 0.5934 0.5814
1306.000000 0.5694 0.5575 0.5456 0.5337 0.5218
1311.000000 0.5151 0.5147 0.5279 0.5457 0.5636
1316.000000 0.5814 0.5991 0.6126 0.6182 0.6238
1321.000000 0.6296 0.6351 0.6387 0.6421 0.6453
1326.000000 0.6480 0.6507 0.6524 0.6542 0.6550
1331.000000 0.6556 0.6562 0.6569 0.6571 0.6573
1336.000000 0.6556 0.6572 0.6572 0.6568 0.6560
1341.000000 0.6545 0.6524 0.6498 0.6462 0.6421
1346.000000 0.6372 0.6317 0.6256 0.6192 0.6088
1351.000000 0.5943 0.5701 0.5506 0.5367 0.5300
1356.000000 0.5274 0.5256 0.5229 0.5136 0.4832
1361.000000 0.4476 0.4120 0.3765 0.3448 0.3426
1366.000000 0.3419 0.3441 0.3559 0.3890 0.4226
1371.000000 0.4562 0.4898 0.5232 0.5567 0.5901
1376.000000 0.6235 0.6568 0.6837 0.6961 0.7068
1381.000000 0.7148 0.7190 0.7202 0.7214 0.7200
1386.000000 0.7147 0.7091 0.7035 0.6980 0.6925
1391.000000 0.6869 0.6815 0.6767 0.6754 0.6726
1396.000000 0.6840 0.6913 0.6986 0.7059 0.7132
1401.000000 0.7204 0.7277 0.7340 0.7343 0.7340
1406.000000 0.7375 0.7323 0.7295 0.7255 0.7210
1411.000000 0.7164 0.7110 0.7051 0.6989 0.6910
1416.000000 0.6824 0.6712 0.6579 0.6496 0.6426
1421.000000 0.6366 0.6304 0.6193 0.5960 0.5726
1426.000000 0.5493 0.5261 0.5028 0.4796 0.4564
1431.000000 0.4333 0.4102 0.3871 0.3640 0.3410
1436.000000 0.3111 0.3005 0.2920 0.2851 0.2797
1441.000000 0.2739 0.2622 0.2526 0.2390 0.2291
1446.000000 0.2246 0.2219 0.2199 0.2196 0.2201
1451.000000 0.2209 0.2218 0.2242 0.2310 0.2409
1456.000000 0.2490 0.2565 0.2642 0.2794 0.3163
1461.000000 0.3632 0.4100 0.4568 0.5035 0.5502
1466.000000 0.5967 0.6432 0.6594 0.6707 0.6819
1471.000000 0.6918 0.7009 0.7100 0.7193 0.7291
1476.000000 0.7387 0.7463 0.7502 0.7542 0.7579
1481.000000 0.7600 0.7618 0.7636 0.7652 0.7663
1486.000000 0.7675 0.7685 0.7696 0.7708 0.7718
1491.000000 0.7725 0.7731 0.7738 0.7744 0.7750
1496.000000 0.7756 0.7762 0.7769 0.7775 0.7781
1501.000000 0.7787 0.7792 0.7798 0.7803 0.7809
1506.000000 0.7814 0.7817 0.7819 0.7821 0.7824
1511.000000 0.7826 0.7829 0.7831 0.7833 0.7835
1516.000000 0.7837 0.7835 0.7834 0.7833 0.7832
1521.000000 0.7831 0.7829 0.7826 0.7822 0.7818
1526.000000 0.7814 0.7809 0.7805 0.7801 0.7794
1531.000000 0.7788 0.7783 0.7776 0.7771 0.7764
1536.000000 0.7754 0.7741 0.7729 0.7717 0.7705
1541.000000 0.7687 0.7660 0.7631 0.7600 0.7566
1546.000000 0.7530 0.7518 0.7507 0.7498 0.7488
1551.000000 0.7480 0.7473 0.7454 0.7434 0.7411
1556.000000 0.7384 0.7354 0.7315 0.7274 0.7229
1561.000000 0.7182 0.7135 0.7082 0.7026 0.6970
1566.000000 0.6895 0.6803 0.6704 0.6601 0.6477
1571.000000 0.6337 0.6196 0.6056 0.5916 0.5775
1576.000000 0.5635 0.5496 0.5355 0.5216 0.5076
1581.000000 0.4948 0.4911 0.4929 0.5067 0.5299
1586.000000 0.5534 0.5770 0.6005 0.6239 0.6474
1591.000000 0.6708 0.6942 0.7175 0.7383 0.7460
1596.000000 0.7463 0.7464 0.7463 0.7462 0.7479
1601.000000 0.7459 0.7453 0.7445 0.7433 0.7414
1606.000000 0.7386 0.7347 0.7302 0.7261 0.7220
1611.000000 0.7176 0.7130 0.7085 0.7039 0.6991
1616.000000 0.6943 0.6895 0.6831 0.6751 0.6659
1621.000000 0.6524 0.6377 0.6230 0.6083 0.5937
1626.000000 0.5790 0.5666 0.5605 0.5600 0.5613
1631.000000 0.5676 0.5753 0.5830 0.5908 0.5984
1636.000000 0.6061 0.6137 0.6214 0.6291 0.6367
1641.000000 0.6444 0.6520 0.6568 0.6573 0.6568
1646.000000 0.6560 0.6553 0.6542 0.6532 0.6492
1651.000000 0.6446 0.6404 0.6363 0.6315 0.6258
1656.000000 0.6192 0.6102 0.5975 0.5836 0.5772
1661.000000 0.5708 0.5640 0.5560 0.5478 0.5392
1666.000000 0.5298 0.5162 0.4947 0.4714 0.4483
1671.000000 0.4251 0.4020 0.3789 0.3558 0.3328
1676.000000 0.3097 0.2868 0.2639 0.2409 0.2203
1681.000000 0.2181 0.2181 0.2203 0.2492 0.2759
1686.000000 0.3025 0.3293 0.3559 0.3824 0.4090
1691.000000 0.4356 0.4620 0.4885 0.5149 0.5414
1696.000000 0.5677 0.5941 0.6204 0.6467 0.6729
1701.000000 0.6991 0.7228 0.7339 0.7396 0.7450
1706.000000 0.7503 0.7565 0.7639 0.7715 0.7772
1711.000000 0.7821 0.7869 0.7911 0.7947 0.7980
1716.000000 0.8014 0.8047 0.8081 0.8112 0.8140
1721.000000 0.8166 0.8192 0.8218 0.8241 0.8258
1726.000000 0.8273 0.8288 0.8303 0.8318 0.8334
1731.000000 0.8348 0.8361 0.8372 0.8384 0.8395
1736.000000 0.8406 0.8416 0.8425 0.8434 0.8443
1741.000000 0.8452 0.8461 0.8470 0.8479 0.8488
1746.000000 0.8497 0.8503 0.8510 0.8516 0.8523
1751.000000 0.8529 0.8536 0.8542 0.8550 0.8555
1756.000000 0.8561 0.8566 0.8572 0.8578 0.8583
1761.000000 0.8589 0.8594 0.8599 0.8605 0.8610
1766.000000 0.8616 0.8621 0.8625 0.8630 0.8635
1771.000000 0.8640 0.8644 0.8649 0.8654 0.8658
1776.000000 0.8660 0.8662 0.8662 0.8664 0.8665
1781.000000 0.8674 0.8668 0.8668 0.8670 0.8671
1786.000000 0.8671 0.8671 0.8671 0.8671 0.8671
1791.000000 0.8671 0.8671 0.8671 0.8671 0.8670
1796.000000 0.8669 0.8669 0.8668 0.8667 0.8665
1801.000000 0.8665 0.8664 0.8663 0.8662 0.8661
1806.000000 0.8660 0.8659 0.8658 0.8657 0.8656
1811.000000 0.8654 0.8653 0.8651 0.8650 0.8649
1816.000000 0.8648 0.8646 0.8645 0.8643 0.8642
1821.000000 0.8640 0.8640 0.8638 0.8637 0.8635
1826.000000 0.8634 0.8632 0.8629 0.8626 0.8624
1831.000000 0.8622 0.8619 0.8616 0.8614 0.8612
1836.000000 0.8609 0.8606 0.8604 0.8601 0.8599
1841.000000 0.8596 0.8594 0.8591 0.8587 0.8583
1846.000000 0.8578 0.8574 0.8570 0.8567 0.8565
1851.000000 0.8563 0.8561 0.8559 0.8557 0.8556
1856.000000 0.8553 0.8552 0.8551 0.8551 0.8552
1861.000000 0.8554 0.8555 0.8556 0.8557 0.8561
1866.000000 0.8566 0.8571 0.8577 0.8582 0.8587
1871.000000 0.8591 0.8595 0.8598 0.8598 0.8599
1876.000000 0.8600 0.8601 0.8601 0.8602 0.8603
1881.000000 0.8603 0.8604 0.8605 0.8606 0.8606
1886.000000 0.8606 0.8606 0.8606 0.8605 0.8605
1891.000000 0.8605 0.8605 0.8605 0.8604 0.8604
1896.000000 0.8604 0.8604 0.8604 0.8602 0.8601
1901.000000 0.8600 0.8598 0.8596 0.8594 0.8592
1906.000000 0.8590 0.8588 0.8587 0.8585 0.8583
1911.000000 0.8582 0.8580 0.8578 0.8577 0.8575
1916.000000 0.8573 0.8570 0.8568 0.8566 0.8564
1921.000000 0.8562 0.8560 0.8558 0.8556 0.8554
1926.000000 0.8552 0.8550 0.8548 0.8546 0.8543
1931.000000 0.8540 0.8538 0.8536 0.8534 0.8532
1936.000000 0.8530 0.8527 0.8525 0.8523 0.8520
1941.000000 0.8518 0.8516 0.8514 0.8512 0.8509
1946.000000 0.8507 0.8505 0.8502 0.8500 0.8498
1951.000000 0.8495 0.8493 0.8491 0.8488 0.8486
1956.000000 0.8484 0.8481 0.8479 0.8477 0.8475
1961.000000 0.8472 0.8470 0.8468 0.8465 0.8464
1966.000000 0.8463 0.8463 0.8463 0.8462 0.8462
1971.000000 0.8461 0.8461 0.8461 0.8460 0.8459
1976.000000 0.8459 0.8459 0.8458 0.8458 0.8457
1981.000000 0.8457 0.8457 0.8456 0.8456 0.8455
1986.000000 0.8455 0.8455 0.8454 0.8453 0.8453
1991.000000 0.8453 0.8453 0.8452 0.8452 0.8452
1996.000000 0.8452 0.8452 0.8452 0.8452 0.8452
2001.000000 0.8452 0.8452 0.8452 0.8453 0.8453
2006.000000 0.8453 0.8453 0.8453 0.8453 0.8453
2011.000000 0.8453 0.8453 0.8453 0.8453 0.8453
2016.000000 0.8453 0.8453 0.8453 0.8453 0.8454
2021.000000 0.8454 0.8454 0.8454 0.8454 0.8454
2026.000000 0.8454 0.8454 0.8454 0.8454 0.8454
2031.000000 0.8454 0.8454 0.8454 0.8454 0.8454
2036.000000 0.8455 0.8455 0.8454 0.8454 0.8452
2041.000000 0.8451 0.8451 0.8450 0.8449 0.8448
2046.000000 0.8447 0.8446 0.8445 0.8445 0.8444
2051.000000 0.8442 0.8442 0.8441 0.8440 0.8439
2056.000000 0.8438 0.8437 0.8436 0.8436 0.8435
2061.000000 0.8434 0.8433 0.8432 0.8432 0.8430
2066.000000 0.8428 0.8425 0.8423 0.8421 0.8418
2071.000000 0.8416 0.8414 0.8411 0.8409 0.8407
2076.000000 0.8404 0.8402 0.8400 0.8398 0.8395
2081.000000 0.8393 0.8391 0.8388 0.8386 0.8384
2086.000000 0.8381 0.8379 0.8377 0.8374 0.8372
2091.000000 0.8370 0.8368 0.8365 0.8363 0.8361
2096.000000 0.8359 0.8358 0.8357 0.8356 0.8354
2101.000000 0.8352 0.8351 0.8350 0.8349 0.8348
2106.000000 0.8347 0.8345 0.8343 0.8342 0.8341
2111.000000 0.8340 0.8339 0.8338 0.8336 0.8335
2116.000000 0.8333 0.8332 0.8331 0.8330 0.8329
2121.000000 0.8328 0.8326 0.8325 0.8324 0.8322
2126.000000 0.8321 0.8320 0.8319 0.8317 0.8316
2131.000000 0.8315 0.8314 0.8313 0.8312 0.8310
2136.000000 0.8309 0.8308 0.8308 0.8307 0.8306
2141.000000 0.8305 0.8304 0.8303 0.8302 0.8301
2146.000000 0.8300 0.8299 0.8298 0.8297 0.8296
2151.000000 0.8295 0.8294 0.8294 0.8293 0.8292
2156.000000 0.8291 0.8290 0.8288 0.8287 0.8287
2161.000000 0.8286 0.8285 0.8284 0.8283 0.8282
2166.000000 0.8281 0.8280 0.8280 0.8279 0.8278
2171.000000 0.8277 0.8277 0.8276 0.8275 0.8274
2176.000000 0.8273 0.8273 0.8272 0.8272 0.8271
2181.000000 0.8271 0.8270 0.8269 0.8268 0.8268
2186.000000 0.8267 0.8267 0.8266 0.8266 0.8265
2191.000000 0.8264 0.8263 0.8262 0.8262 0.8261
2196.000000 0.8261 0.8260 0.8259 0.8258 0.8258
2201.000000 0.8257 0.8257 0.8256 0.8256 0.8255
2206.000000 0.8254 0.8253 0.8253 0.8252 0.8252
2211.000000 0.8251 0.8250 0.8249 0.8249 0.8248
2216.000000 0.8248 0.8247 0.8247 0.8246 0.8245
2221.000000 0.8245 0.8245 0.8244 0.8244 0.8243
2226.000000 0.8243 0.8243 0.8243 0.8242 0.8242
2231.000000 0.8241 0.8241 0.8240 0.8240 0.8240
2236.000000 0.8240 0.8239 0.8239 0.8238 0.8238
2241.000000 0.8238 0.8238 0.8237 0.8237 0.8236
2246.000000 0.8236 0.8235 0.8235 0.8235 0.8235
2251.000000 0.8234 0.8234 0.8233 0.8233 0.8233
2256.000000 0.8233 0.8232 0.8232 0.8231 0.8231
2261.000000 0.8230 0.8230 0.8230 0.8230 0.8229
2266.000000 0.8229 0.8228 0.8228 0.8227 0.8227
2271.000000 0.8227 0.8227 0.8226 0.8226 0.8225
2276.000000 0.8225 0.8225 0.8225 0.8224 0.8224
2281.000000 0.8224 0.8223 0.8223 0.8222 0.8222
2286.000000 0.8221 0.8221 0.8220 0.8220 0.8219
2291.000000 0.8219 0.8218 0.8217 0.8216 0.8216
2296.000000 0.8215 0.8215 0.8214 0.8214 0.8213
2301.000000 0.8213 0.8213 0.8212 0.8212 0.8211
2306.000000 0.8211 0.8210 0.8210 0.8209 0.8209
2311.000000 0.8208 0.8208 0.8207 0.8206 0.8205
2316.000000 0.8205 0.8204 0.8204 0.8204 0.8203
2321.000000 0.8203 0.8202 0.8202 0.8201 0.8201
2326.000000 0.8200 0.8200 0.8199 0.8199 0.8198
2331.000000 0.8198 0.8198 0.8197 0.8197 0.8197
2336.000000 0.8197 0.8197 0.8197 0.8197 0.8197
2341.000000 0.8197 0.8197 0.8197 0.8197 0.8197
2346.000000 0.8197 0.8197 0.8196 0.8196 0.8196
2351.000000 0.8196 0.8196 0.8196 0.8196 0.8196
2356.000000 0.8196 0.8196 0.8196 0.8196 0.8196
2361.000000 0.8196 0.8196 0.8196 0.8196 0.8196
2366.000000 0.8196 0.8196 0.8196 0.8196 0.8196
2371.000000 0.8196 0.8196 0.8196 0.8196 0.8196
2376.000000 0.8196 0.8195 0.8195 0.8195 0.8195
2381.000000 0.8194 0.8194 0.8194 0.8193 0.8193
2386.000000 0.8193 0.8193 0.8192 0.8192 0.8192
2391.000000 0.8192 0.8192 0.8191 0.8191 0.8191
2396.000000 0.8191 0.8190 0.8190 0.8190 0.8189
2401.000000 0.8189 0.8189 0.8189 0.8188 0.8188
2406.000000 0.8188 0.8188 0.8188 0.8187 0.8187
2411.000000 0.8187 0.8187 0.8187 0.8186 0.8185
2416.000000 0.8184 0.8183 0.8182 0.8181 0.8181
2421.000000 0.8180 0.8179 0.8178 0.8177 0.8176
2426.000000 0.8175 0.8174 0.8173 0.8172 0.8171
2431.000000 0.8170 0.8169 0.8169 0.8168 0.8167
2436.000000 0.8166 0.8164 0.8162 0.8159 0.8156
2441.000000 0.8153 0.8150 0.8147 0.8145 0.8142
2446.000000 0.8139 0.8136 0.8133 0.8130 0.8127
2451.000000 0.8124 0.8122 0.8119 0.8117 0.8114
2456.000000 0.8111 0.8108 0.8105 0.8103 0.8100
2461.000000 0.8097 0.8095 0.8092 0.8089 0.8086
2466.000000 0.8083 0.8079 0.8075 0.8072 0.8069
2471.000000 0.8065 0.8062 0.8059 0.8055 0.8051
2476.000000 0.8048 0.8045 0.8042 0.8038 0.8035
2481.000000 0.8032 0.8029 0.8025 0.8021 0.8018
2486.000000 0.8015 0.8011 0.8008 0.8004 0.8000
2491.000000 0.7995 0.7990 0.7985 0.7980 0.7976
2496.000000 0.7971 0.7967 0.7962 0.7957 0.7953
2501.000000 0.7948 0.7943 0.7938 0.7933 0.7929
2506.000000 0.7924 0.7920 0.7915 0.7910 0.7906
2511.000000 0.7901 0.7896 0.7892 0.7887 0.7883
2516.000000 0.7878 0.7873 0.7868 0.7862 0.7857
2521.000000 0.7852 0.7847 0.7842 0.7837 0.7832
2526.000000 0.7827 0.7822 0.7817 0.7811 0.7806
2531.000000 0.7801 0.7796 0.7791 0.7786 0.7781
2536.000000 0.7776 0.7771 0.7766 0.7761 0.7756
2541.000000 0.7751 0.7746 0.7741 0.7736 0.7732
2546.000000 0.7728 0.7724 0.7719 0.7715 0.7711
2551.000000 0.7708 0.7704 0.7700 0.7696 0.7692
2556.000000 0.7687 0.7684 0.7680 0.7676 0.7672
2561.000000 0.7668 0.7664 0.7660 0.7656 0.7652
2566.000000 0.7648 0.7644 0.7640 0.7636 0.7632
2571.000000 0.7628 0.7625 0.7621 0.7617 0.7614
2576.000000 0.7611 0.7608 0.7606 0.7603 0.7600
2581.000000 0.7598 0.7595 0.7593 0.7590 0.7587
2586.000000 0.7585 0.7582 0.7579 0.7577 0.7574
2591.000000 0.7572 0.7570 0.7567 0.7565 0.7562
2596.000000 0.7560 0.7557 0.7554 0.7552 0.7549
2601.000000 0.7547 0.7544 0.7542 0.7539 0.7536
2606.000000 0.7534 0.7531 0.7529 0.7526 0.7524
2611.000000 0.7521 0.7519 0.7517 0.7514 0.7512
2616.000000 0.7509 0.7507 0.7504 0.7501 0.7499
2621.000000 0.7497 0.7495 0.7493 0.7491 0.7490
2626.000000 0.7489 0.7487 0.7486 0.7484 0.7482
2631.000000 0.7481 0.7479 0.7477 0.7476 0.7475
2636.000000 0.7473 0.7472 0.7470 0.7468 0.7466
2641.000000 0.7465 0.7464 0.7462 0.7460 0.7458
2646.000000 0.7457 0.7455 0.7454 0.7453 0.7451
2651.000000 0.7450 0.7448 0.7446 0.7444 0.7443
2656.000000 0.7442 0.7440 0.7439 0.7437 0.7436
2661.000000 0.7434 0.7433 0.7432 0.7431 0.7430
2666.000000 0.7429 0.7428 0.7428 0.7427 0.7425
2671.000000 0.7424 0.7423 0.7422 0.7421 0.7421
2676.000000 0.7420 0.7419 0.7418 0.7417 0.7416
2681.000000 0.7415 0.7414 0.7413 0.7412 0.7412
2686.000000 0.7411 0.7409 0.7408 0.7406 0.7404
2691.000000 0.7403 0.7401 0.7398 0.7396 0.7395
2696.000000 0.7393 0.7391 0.7388 0.7386 0.7382
2701.000000 0.7377 0.7372 0.7367 0.7361 0.7356
2706.000000 0.7349 0.7340 0.7331 0.7321 0.7311
2711.000000 0.7301 0.7289 0.7276 0.7263 0.7250
2716.000000 0.7237 0.7225 0.7211 0.7196 0.7182
2721.000000 0.7167 0.7151 0.7136 0.7121 0.7106
2726.000000 0.7091 0.7076 0.7061 0.7045 0.7030
2731.000000 0.7015 0.6999 0.6980 0.6959 0.6938
2736.000000 0.6918 0.6897 0.6876 0.6856 0.6835
2741.000000 0.6814 0.6784 0.6750 0.6716 0.6661
2746.000000 0.6600 0.6538 0.6490 0.6447 0.6403
2751.000000 0.6360 0.6317 0.6274 0.6235 0.6198
2756.000000 0.6161 0.6125 0.6090 0.6055 0.6020
2761.000000 0.5985 0.5950 0.5865 0.5742 0.5619
2766.000000 0.5529 0.5470 0.5411 0.5321 0.5195
2771.000000 0.5068 0.4941 0.4812 0.4684 0.4555
2776.000000 0.4428 0.4300 0.4172 0.4045 0.3917
2781.000000 0.3790 0.3662 0.3535 0.3408 0.3281
2786.000000 0.3154 0.3027 0.2900 0.2773 0.2646
2791.000000 0.2520 0.2393 0.2267 0.2141 0.2015
2796.000000 0.1889 0.1700 0.1467 0.1234 0.1079
2801.000000 0.1018 0.0958 0.0905 0.0867 0.0828
2806.000000 0.0793 0.0771 0.0750 0.0728 0.0710
2811.000000 0.0691 0.0672 0.0665 0.0660 0.0654
2816.000000 0.0649 0.0643 0.0637 0.0632 0.0627
2821.000000 0.0623 0.0618 0.0614 0.0609 0.0605
2826.000000 0.0600 0.0595 0.0590 0.0576 0.0562
2831.000000 0.0548 0.0526 0.0502 0.0477 0.0456
2836.000000 0.0437 0.0419 0.0402 0.0388 0.0373
2841.000000 0.0360 0.0349 0.0338 0.0327 0.0323
2846.000000 0.0320 0.0318 0.0315 0.0313 0.0310
2851.000000 0.0308 0.0307 0.0306 0.0305 0.0305
2856.000000 0.0305 0.0305 0.0305 0.0305 0.0305
2861.000000 0.0305 0.0305 0.0305 0.0305 0.0305
2866.000000 0.0305 0.0305 0.0305 0.0306 0.0307
2871.000000 0.0309 0.0310 0.0312 0.0313 0.0315
2876.000000 0.0316 0.0318 0.0321 0.0323 0.0326
2881.000000 0.0329 0.0333 0.0337 0.0340 0.0344
2886.000000 0.0348 0.0353 0.0359 0.0366 0.0372
2891.000000 0.0398 0.0428 0.0458 0.0492 0.0531
2896.000000 0.0569 0.0606 0.0635 0.0664 0.0693
2901.000000 0.0716 0.0738 0.0759 0.0779 0.0794
2906.000000 0.0810 0.0828 0.0917 0.1005 0.1094
2911.000000 0.1199 0.1312 0.1425 0.1537 0.1650
2916.000000 0.1762 0.1874 0.1987 0.2099 0.2211
2921.000000 0.2324 0.2435 0.2547 0.2659 0.2771
2926.000000 0.2882 0.2994 0.3105 0.3217 0.3329
2931.000000 0.3440 0.3551 0.3662 0.3773 0.3884
2936.000000 0.3995 0.4106 0.4217 0.4328 0.4438
2941.000000 0.4549 0.4660 0.4770 0.4881 0.4991
2946.000000 0.5101 0.5211 0.5321 0.5383 0.5440
2951.000000 0.5496 0.5542 0.5572 0.5602 0.5632
2956.000000 0.5660 0.5688 0.5716 0.5746 0.5777
2961.000000 0.5808 0.5839 0.5872 0.5906 0.5939
2966.000000 0.5971 0.5998 0.6026 0.6054 0.6079
2971.000000 0.6103 0.6128 0.6151 0.6174 0.6196
2976.000000 0.6218 0.6237 0.6255 0.6273 0.6291
2981.000000 0.6309 0.6327 0.6345 0.6363 0.6380
2986.000000 0.6397 0.6414 0.6431 0.6448 0.6465
2991.000000 0.6482 0.6499 0.6516 0.6532 0.6549
2996.000000 0.6566 0.6582 0.6599 0.6616 0.6632
3001.000000 0.6649 0.6661 0.6671 0.6682 0.6692
3006.000000 0.6701 0.6711 0.6720 0.6729 0.6738
3011.000000 0.6747 0.6756 0.6765 0.6774 0.6783
3016.000000 0.6792 0.6801 0.6811 0.6820 0.6828
3021.000000 0.6836 0.6844 0.6852 0.6856 0.6860
3026.000000 0.6865 0.6869 0.6873 0.6877 0.6881
3031.000000 0.6886 0.6890 0.6894 0.6899 0.6903
3036.000000 0.6907 0.6912 0.6916 0.6920 0.6924
3041.000000 0.6928 0.6932 0.6935 0.6939 0.6942
3046.000000 0.6943 0.6943 0.6943 0.6944 0.6944
3051.000000 0.6945 0.6945 0.6946 0.6946 0.6947
3056.000000 0.6947 0.6950 0.6948 0.6948 0.6949
3061.000000 0.6949 0.6950 0.6950 0.6951 0.6951
3066.000000 0.6951 0.6951 0.6952 0.6952 0.6953
3071.000000 0.6953 0.6952 0.6949 0.6946 0.6944
3076.000000 0.6941 0.6938 0.6935 0.6932 0.6929
3081.000000 0.6927 0.6924 0.6921 0.6918 0.6916
3086.000000 0.6913 0.6910 0.6907 0.6905 0.6902
3091.000000 0.6899 0.6895 0.6891 0.6888 0.6884
3096.000000 0.6880 0.6876 0.6872 0.6868 0.6865
3101.000000 0.6861 0.6857 0.6853 0.6849 0.6845
3106.000000 0.6841 0.6836 0.6831 0.6827 0.6822
3111.000000 0.6817 0.6813 0.6808 0.6803 0.6799
3116.000000 0.6794 0.6789 0.6785 0.6780 0.6776
3121.000000 0.6771 0.6767 0.6763 0.6759 0.6756
3126.000000 0.6752 0.6749 0.6746 0.6743 0.6740
3131.000000 0.6738 0.6735 0.6732 0.6729 0.6726
3136.000000 0.6723 0.6720 0.6719 0.6717 0.6716
3141.000000 0.6714 0.6713 0.6712 0.6711 0.6710
3146.000000 0.6709 0.6708 0.6707 0.6706 0.6705
3151.000000 0.6704 0.6703 0.6702 0.6701 0.6699
3156.000000 0.6698 0.6697 0.6696 0.6695 0.6694
3161.000000 0.6692 0.6689 0.6686 0.6683 0.6680
3166.000000 0.6676 0.6673 0.6669 0.6664 0.6657
3171.000000 0.6649 0.6642 0.6634 0.6627 0.6620
3176.000000 0.6612 0.6605 0.6597 0.6590 0.6582
3181.000000 0.6574 0.6565 0.6556 0.6547 0.6538
3186.000000 0.6528 0.6519 0.6509 0.6499 0.6489
3191.000000 0.6480 0.6470 0.6460 0.6451 0.6443
3196.000000 0.6434 0.6425 0.6417 0.6408 0.6400
3201.000000 0.6392 0.6383 0.6375 0.6366 0.6358
3206.000000 0.6349 0.6341 0.6332 0.6324 0.6315
3211.000000 0.6307 0.6299 0.6291 0.6283 0.6275
3216.000000 0.6267 0.6260 0.6252 0.6244 0.6236
3221.000000 0.6229 0.6221 0.6213 0.6205 0.6197
3226.000000 0.6189 0.6181 0.6174 0.6166 0.6158
3231.000000 0.6151 0.6143 0.6135 0.6128 0.6120
3236.000000 0.6112 0.6104 0.6096 0.6088 0.6078
3241.000000 0.6069 0.6060 0.6051 0.6041 0.6030
3246.000000 0.6020 0.6010 0.6000 0.5990 0.5979
3251.000000 0.5969 0.5959 0.5949 0.5939 0.5930
3256.000000 0.5919 0.5909 0.5899 0.5889 0.5879
3261.000000 0.5869 0.5859 0.5849 0.5839 0.5828
3266.000000 0.5818 0.5808 0.5798 0.5784 0.5770
3271.000000 0.5756 0.5742 0.5727 0.5712 0.5697
3276.000000 0.5683 0.5668 0.5653 0.5638 0.5623
3281.000000 0.5608 0.5593 0.5578 0.5563 0.5548
3286.000000 0.5533 0.5518 0.5503 0.5489 0.5472
3291.000000 0.5454 0.5436 0.5418 0.5400 0.5381
3296.000000 0.5362 0.5343 0.5324 0.5306 0.5287
3301.000000 0.5268 0.5249 0.5230 0.5212 0.5193
3306.000000 0.5174 0.5155 0.5132 0.5110 0.5088
3311.000000 0.5065 0.5043 0.5020 0.4997 0.4974
3316.000000 0.4952 0.4929 0.4906 0.4883 0.4861
3321.000000 0.4844 0.4827 0.4810 0.4793 0.4777
3326.000000 0.4760 0.4743 0.4726 0.4710 0.4693
3331.000000 0.4677 0.4660 0.4644 0.4630 0.4616
3336.000000 0.4603 0.4590 0.4577 0.4564 0.4552
3341.000000 0.4539 0.4527 0.4517 0.4509 0.4501
3346.000000 0.4492 0.4485 0.4479 0.4474 0.4468
3351.000000 0.4463 0.4457 0.4452 0.4446 0.4440
3356.000000 0.4435 0.4429 0.4423 0.4418 0.4412
3361.000000 0.4406 0.4401 0.4395 0.4390 0.4384
3366.000000 0.4379 0.4374 0.4368 0.4363 0.4361
3371.000000 0.4361 0.4361 0.4361 0.4360 0.4360
3376.000000 0.4360 0.4359 0.4359 0.4359 0.4361
3381.000000 0.4362 0.4363 0.4365 0.4366 0.4368
3386.000000 0.4370 0.4372 0.4345 0.4376 0.4378
3391.000000 0.4380 0.4382 0.4385 0.4388 0.4391
3396.000000 0.4394 0.4398 0.4401 0.4405 0.4409
3401.000000 0.4413 0.4417 0.4422 0.4426 0.4430
3406.000000 0.4435 0.4439 0.4444 0.4449 0.4453
3411.000000 0.4459 0.4466 0.4474 0.4481 0.4488
3416.000000 0.4501 0.4516 0.4530 0.4545 0.4561
3421.000000 0.4597 0.4634 0.4671 0.4708 0.4738
3426.000000 0.4752 0.4767 0.4782 0.4796 0.4811
3431.000000 0.4826 0.4841 0.4856 0.4871 0.4892
3436.000000 0.4914 0.4935 0.4957 0.4980 0.5007
3441.000000 0.5035 0.5062 0.5089 0.5109 0.5121
3446.000000 0.5134 0.5146 0.5158 0.5170 0.5182
3451.000000 0.5194 0.5205 0.5217 0.5225 0.5232
3456.000000 0.5240 0.5247 0.5255 0.5264 0.5273
3461.000000 0.5282 0.5291 0.5309 0.5340 0.5371
3466.000000 0.5403 0.5434 0.5465 0.5496 0.5527
3471.000000 0.5558 0.5590 0.5621 0.5652 0.5683
3476.000000 0.5714 0.5745 0.5776 0.5807 0.5838
3481.000000 0.5869 0.5900 0.5931 0.5962 0.5992
3486.000000 0.6023 0.6054 0.6085 0.6116 0.6147
3491.000000 0.6177 0.6208 0.6239 0.6270 0.6300
3496.000000 0.6331 0.6362 0.6392 0.6423 0.6454
3501.000000 0.6484 0.6515 0.6545 0.6576 0.6606
3506.000000 0.6637 0.6667 0.6698 0.6728 0.6759
3511.000000 0.6789 0.6820 0.6850 0.6880 0.6911
3516.000000 0.6941 0.6972 0.7002 0.7032 0.7062
3521.000000 0.7093 0.7123 0.7153 0.7183 0.7213
3526.000000 0.7244 0.7271 0.7299 0.7326 0.7353
3531.000000 0.7381 0.7401 0.7420 0.7440 0.7460
3536.000000 0.7479 0.7491 0.7502 0.7514 0.7525
3541.000000 0.7537 0.7546 0.7555 0.7564 0.7573
3546.000000 0.7582 0.7585 0.7588 0.7591 0.7594
3551.000000 0.7597 0.7600 0.7603 0.7605 0.7608
3556.000000 0.7611 0.7612 0.7613 0.7614 0.7615
3561.000000 0.7615 0.7605 0.7616 0.7616 0.7616
3566.000000 0.7616 0.7616 0.7616 0.7616 0.7616
3571.000000 0.7616 0.7615 0.7615 0.7614 0.7614
3576.000000 0.7614 0.7613 0.7612 0.7611 0.7610
3581.000000 0.7609 0.7608 0.7607 0.7607 0.7606
3586.000000 0.7605 0.7604 0.7604 0.7603 0.7602
3591.000000 0.7601 0.7600 0.7599 0.7599 0.7598
3596.000000 0.7597 0.7596 0.7595 0.7594 0.7593
3601.000000 0.7593 0.7592 0.7591 0.7590 0.7589
3606.000000 0.7589 0.7588 0.7587 0.7586 0.7585
3611.000000 0.7584 0.7583 0.7582 0.7582 0.7581
3616.000000 0.7580 0.7579 0.7578 0.7578 0.7577
3621.000000 0.7576 0.7575 0.7575 0.7574 0.7573
3626.000000 0.7572 0.7572 0.7571 0.7570 0.7569
3631.000000 0.7568 0.7566 0.7565 0.7564 0.7563
3636.000000 0.7562 0.7561 0.7560 0.7559 0.7557
3641.000000 0.7556 0.7555 0.7554 0.7553 0.7552
3646.000000 0.7550 0.7549 0.7548 0.7546 0.7545
3651.000000 0.7544 0.7543 0.7542 0.7541 0.7539
3656.000000 0.7538 0.7537 0.7536 0.7535 0.7534
3661.000000 0.7533 0.7532 0.7531 0.7529 0.7528
3666.000000 0.7527 0.7526 0.7525 0.7524 0.7523
3671.000000 0.7523 0.7521 0.7520 0.7519 0.7518
3676.000000 0.7517 0.7516 0.7515 0.7514 0.7513
3681.000000 0.7512 0.7511 0.7510 0.7509 0.7508
3686.000000 0.7507 0.7506 0.7505 0.7504 0.7503
3691.000000 0.7502 0.7501 0.7500 0.7499 0.7498
3696.000000 0.7498 0.7497 0.7496 0.7495 0.7494
3701.000000 0.7492 0.7491 0.7490 0.7489 0.7488
3706.000000 0.7487 0.7487 0.7486 0.7485 0.7484
3711.000000 0.7483 0.7481 0.7480 0.7479 0.7478
3716.000000 0.7477 0.7476 0.7476 0.7475 0.7474
3721.000000 0.7473 0.7472 0.7471 0.7469 0.7468
3726.000000 0.7467 0.7466 0.7465 0.7464 0.7463
3731.000000 0.7462 0.7461 0.7460 0.7459 0.7458
3736.000000 0.7457 0.7456 0.7455 0.7454 0.7453
3741.000000 0.7452 0.7451 0.7450 0.7449 0.7448
3746.000000 0.7447 0.7446 0.7445 0.7444 0.7443
3751.000000 0.7441 0.7440 0.7439 0.7438 0.7437
3756.000000 0.7436 0.7435 0.7434 0.7433 0.7432
3761.000000 0.7431 0.7430 0.7429 0.7428 0.7427
3766.000000 0.7426 0.7425 0.7424 0.7423 0.7422
3771.000000 0.7421 0.7420 0.7418 0.7417 0.7416
3776.000000 0.7414 0.7413 0.7411 0.7409 0.7408
3781.000000 0.7406 0.7405 0.7403 0.7401 0.7400
3786.000000 0.7398 0.7396 0.7394 0.7393 0.7391
3791.000000 0.7390 0.7388 0.7386 0.7385 0.7383
3796.000000 0.7382 0.7380 0.7379 0.7377 0.7375
3801.000000 0.7374 0.7372 0.7370 0.7369 0.7367
3806.000000 0.7365 0.7364 0.7362 0.7361 0.7359
3811.000000 0.7357 0.7356 0.7354 0.7352 0.7351
3816.000000 0.7349 0.7347 0.7346 0.7344 0.7343
3821.000000 0.7341 0.7339 0.7338 0.7336 0.7335
3826.000000 0.7333 0.7332 0.7330 0.7328 0.7326
3831.000000 0.7324 0.7322 0.7320 0.7317 0.7315
3836.000000 0.7313 0.7311 0.7309 0.7307 0.7305
3841.000000 0.7303 0.7301 0.7298 0.7296 0.7294
3846.000000 0.7292 0.7290 0.7287 0.7285 0.7283
3851.000000 0.7281 0.7279 0.7277 0.7275 0.7273
3856.000000 0.7271 0.7269 0.7267 0.7264 0.7262
3861.000000 0.7260 0.7258 0.7256 0.7253 0.7251
3866.000000 0.7249 0.7247 0.7245 0.7243 0.7241
3871.000000 0.7239 0.7237 0.7235 0.7233 0.7231
3876.000000 0.7228 0.7226 0.7223 0.7221 0.7218
3881.000000 0.7216 0.7213 0.7211 0.7209 0.7207
3886.000000 0.7204 0.7202 0.7200 0.7197 0.7195
3891.000000 0.7193 0.7190 0.7188 0.7186 0.7183
3896.000000 0.7181 0.7179 0.7176 0.7174 0.7172
3901.000000 0.7169 0.7167 0.7164 0.7162 0.7160
3906.000000 0.7157 0.7155 0.7152 0.7150 0.7148
3911.000000 0.7146 0.7143 0.7141 0.7138 0.7136
3916.000000 0.7134 0.7131 0.7129 0.7127 0.7125
3921.000000 0.7123 0.7121 0.7119 0.7118 0.7116
3926.000000 0.7115 0.7113 0.7112 0.7111 0.7110
3931.000000 0.7108 0.7107 0.7105 0.7104 0.7102
3936.000000 0.7101 0.7100 0.7098 0.7097 0.7095
3941.000000 0.7094 0.7092 0.7091 0.7089 0.7088
3946.000000 0.7087 0.7086 0.7084 0.7083 0.7082
3951.000000 0.7080 0.7079 0.7077 0.7076 0.7075
3956.000000 0.7073 0.7072 0.7070 0.7069 0.7067
3961.000000 0.7066 0.7064 0.7063 0.7062 0.7061
3966.000000 0.7059 0.7058 0.7057 0.7055 0.7054
3971.000000 0.7053 0.7051 0.7050 0.7048 0.7047
3976.000000 0.7046 0.7044 0.7043 0.7042 0.7041
3981.000000 0.7039 0.7038 0.7037 0.7035 0.7034
3986.000000 0.7032 0.7031 0.7030 0.7028 0.7027
3991.000000 0.7026 0.7025 0.7023 0.7022 0.7021
3996.000000 0.7020 0.7019 0.7018 0.7017 0.7016
##END=
