##TITLE=BENZENE, 1,2,4-TRIBROMO-
##JCAMP-DX=4.24
##DATA TYPE=INFRARED SPECTRUM
##CLASS=COBLENTZ III
##ORIGIN=DOW CORNING CORP.
##OWNER=COBLENTZ SOCIETY
Collection (C) 2018 copyright by the U.S. Secretary of Commerce
on behalf of the United States of America. All rights reserved.
##DATE=1966
##NAMES=1,2,4-tribromobenzene
##CAS REGISTRY NO=615-54-3
##MOLFORM=C6 H3 Br3
##SOURCE REFERENCE=COBLENTZ NO. 4281
##$NIST SOURCE=COBLENTZ
##$NIST IMAGE=cob4281
##SPECTROMETER/DATA SYSTEM=PERKIN-ELMER 521 (GRATING)
##INSTRUMENT PARAMETERS=FILTERS AT 3150, 2500, 2000, 1150, 700, 410; GRATING CHANGES AT 2000, 630 CM^-^1
##STATE=SOLUTION (10% IN CCl4 FOR 3800-1300, 5% IN CS2 FOR 1300-650, AND 10% IN CCl4 FOR 650-240 CM^-^1) VERSUS SOLVENT
##PATH LENGTH=0.010, 0.010, AND 0.020 CM (CsBr CELL)
##SAMPLING PROCEDURE=TRANSMISSION
##RESOLUTION=4
##DATA PROCESSING=DIGITIZED BY NIST FROM HARD COPY (FROM TWO SEGMENTS)
##XUNITS=1/CM
##YUNITS=TRANSMITTANCE
##XFACTOR=1.000000
##YFACTOR=1
##DELTAX=1.024986
##FIRSTX=241.127
##LASTX=3813.2
##FIRSTY=0.901
##MAXX=3813.2
##MINX=241.127
##MAXY=0.927
##MINY=0.0250953
##NPOINTS=3486
##XYDATA=(X++(Y..Y))
241.127000 0.9010 0.9010 0.9010 0.9010 0.9010
246.251931 0.9010 0.9010 0.9010 0.9010 0.9010
251.376863 0.9010 0.9010 0.9010 0.9010 0.9010
256.501794 0.9010 0.9010 0.9010 0.9010 0.9010
261.626726 0.9010 0.9010 0.9010 0.9000 0.9000
266.751657 0.9000 0.9000 0.9000 0.9000 0.9000
271.876589 0.8990 0.8990 0.8990 0.8990 0.8990
277.001520 0.8990 0.8990 0.8980 0.8980 0.8980
282.126452 0.8980 0.8960 0.8960 0.8960 0.8960
287.251383 0.8950 0.8950 0.8950 0.8950 0.8940
292.376315 0.8920 0.8920 0.8920 0.8910 0.8910
297.501246 0.8910 0.8900 0.8900 0.8890 0.8890
302.626178 0.8890 0.8900 0.8920 0.8950 0.9000
307.751109 0.9040 0.9070 0.9080 0.9080 0.9090
312.876041 0.9100 0.9100 0.9120 0.9120 0.9120
318.000972 0.9120 0.9120 0.9120 0.9120 0.9120
323.125904 0.9120 0.9130 0.9140 0.9140 0.9150
328.250835 0.9190 0.9210 0.9220 0.9230 0.9230
333.375767 0.9230 0.9230 0.9220 0.9220 0.9230
338.500698 0.9230 0.9230 0.9240 0.9240 0.9240
343.625630 0.9260 0.9260 0.9260 0.9270 0.9270
348.750561 0.9270 0.9260 0.9260 0.9260 0.9260
353.875493 0.9240 0.9240 0.9230 0.9230 0.9220
359.000424 0.9220 0.9220 0.9220 0.9220 0.9220
364.125356 0.9220 0.9220 0.9210 0.9210 0.9210
369.250287 0.9210 0.9210 0.9210 0.9210 0.9190
374.375219 0.9180 0.9180 0.9170 0.9170 0.9130
379.500150 0.9080 0.9030 0.9010 0.9000 0.8940
384.625082 0.8920 0.8540 0.8350 0.8150 0.8749
389.750013 0.8860 0.8900 0.8920 0.8940 0.8960
394.874945 0.8990 0.8990 0.9000 0.9000 0.9000
399.999876 0.9000 0.8990 0.8990 0.8980 0.8980
405.124808 0.8980 0.8960 0.8950 0.8950 0.8940
410.249739 0.8920 0.8910 0.8900 0.8850 0.8800
415.374671 0.8720 0.8640 0.8570 0.8520 0.8480
420.499602 0.8430 0.8300 0.8171 0.8051 0.7493
425.624534 0.6910 0.6850 0.6580 0.5702 0.4822
430.749465 0.6554 0.7188 0.7290 0.7738 0.7929
435.874397 0.8050 0.8350 0.8500 0.8520 0.8530
440.999328 0.8540 0.8560 0.8570 0.8580 0.8580
446.124260 0.8590 0.8590 0.8580 0.8560 0.8520
451.249191 0.8500 0.8480 0.8440 0.8390 0.8151
456.374123 0.7890 0.7400 0.7150 0.6900 0.6441
461.499054 0.5682 0.5311 0.4941 0.4114 0.5831
466.623986 0.7170 0.8010 0.8150 0.8330 0.8520
471.748917 0.8540 0.8560 0.8570 0.8590 0.8640
476.873849 0.8670 0.8680 0.8710 0.8730 0.8730
481.998780 0.8760 0.8760 0.8770 0.8780 0.8780
487.123712 0.8800 0.8800 0.8810 0.8810 0.8820
492.248643 0.8820 0.8840 0.8840 0.8850 0.8850
497.373575 0.8850 0.8850 0.8850 0.8840 0.8840
502.498506 0.8840 0.8820 0.8810 0.8800 0.8800
507.623438 0.8780 0.8760 0.8760 0.8750 0.8750
512.748369 0.8730 0.8730 0.8720 0.8700 0.8670
517.873301 0.8530 0.8490 0.8440 0.8360 0.8290
522.998232 0.8210 0.7931 0.7073 0.6204 0.5334
528.123164 0.4470 0.5689 0.8108 0.8499 0.8540
533.248095 0.8620 0.8700 0.8730 0.8770 0.8800
538.373027 0.8820 0.8840 0.8840 0.8840 0.8840
543.497958 0.8840 0.8840 0.8850 0.8850 0.8850
548.622890 0.8850 0.8860 0.8860 0.8860 0.8870
553.747821 0.8870 0.8890 0.8890 0.8900 0.8900
558.872753 0.8900 0.8900 0.8910 0.8910 0.8920
563.997684 0.8920 0.8920 0.8920 0.8920 0.8940
569.122616 0.8940 0.8940 0.8940 0.8940 0.8940
574.247547 0.8950 0.8950 0.8950 0.8950 0.8950
579.372479 0.8950 0.8950 0.8950 0.8950 0.8950
584.497410 0.8950 0.8950 0.8950 0.8950 0.8950
589.622342 0.8960 0.8960 0.8960 0.8960 0.8960
594.747273 0.8960 0.8960 0.8960 0.8960 0.8960
599.872205 0.8960 0.8980 0.8980 0.8980 0.8980
604.997136 0.8980 0.8980 0.8980 0.8980 0.8980
610.122068 0.8980 0.8980 0.8980 0.8980 0.8980
615.246999 0.8960 0.8960 0.8950 0.8950 0.8960
620.371931 0.9040 0.9080 0.9150 0.9150 0.9170
625.496862 0.9170 0.9180 0.9180 0.9180 0.9180
630.621794 0.9180 0.9180 0.9180 0.9180 0.9170
635.746725 0.9170 0.9170 0.9170 0.9150 0.9150
640.871657 0.9140 0.9130 0.9120 0.9070 0.9050
645.996588 0.9050 0.9000 0.8851 0.8561 0.8431
651.121520 0.8290 0.8120 0.8530 0.8660 0.8910
656.246451 0.8940 0.8950 0.8960 0.9030 0.9040
661.371383 0.9040 0.9040 0.9040 0.9030 0.9030
666.496314 0.9010 0.9000 0.9000 0.8990 0.8980
671.621246 0.8960 0.8950 0.8890 0.8860 0.8750
676.746177 0.8750 0.9119 0.9120 0.9120 0.9090
681.871109 0.9090 0.9090 0.9090 0.9080 0.9080
686.996040 0.9080 0.9080 0.9070 0.9070 0.9070
692.120972 0.9050 0.9050 0.9050 0.9050 0.9050
697.245903 0.9070 0.9070 0.9080 0.9080 0.9090
702.370835 0.9090 0.9090 0.9090 0.9080 0.9070
707.495766 0.9070 0.9050 0.9040 0.9030 0.9010
712.620698 0.9010 0.9000 0.9000 0.8990 0.8990
717.745629 0.8980 0.8980 0.8960 0.8960 0.8960
722.870561 0.8960 0.8960 0.8960 0.8960 0.8960
727.995492 0.8960 0.8960 0.8960 0.8960 0.8960
733.120424 0.8940 0.8890 0.8820 0.8760 0.8680
738.245355 0.8620 0.8560 0.8530 0.8470 0.8400
743.370287 0.8340 0.8330 0.7890 0.7800 0.7770
748.495218 0.6822 0.5873 0.8301 0.8360 0.8420
753.620150 0.8570 0.8700 0.8730 0.8780 0.8800
758.745081 0.8800 0.8760 0.8750 0.8720 0.8700
763.870013 0.8660 0.8620 0.8570 0.8620 0.8670
768.994944 0.8730 0.8780 0.8840 0.8850 0.8870
774.119876 0.8900 0.8910 0.8940 0.8940 0.8940
779.244807 0.8920 0.8910 0.8910 0.8910 0.8900
784.369739 0.8870 0.8860 0.8850 0.8850 0.8820
789.494670 0.8810 0.8770 0.8760 0.8750 0.8720
794.619602 0.8670 0.8560 0.8470 0.8380 0.8031
799.744533 0.7641 0.6533 0.5414 0.4295 0.4051
804.869465 0.3930 0.3820 0.3590 0.4139 0.7224
809.994396 0.8337 0.8529 0.8679 0.8720 0.8720
815.119328 0.8730 0.8760 0.8810 0.8840 0.8870
820.244259 0.8920 0.8950 0.8960 0.8980 0.8980
825.369191 0.8980 0.8990 0.8990 0.9000 0.9000
830.494122 0.9000 0.9000 0.8990 0.8990 0.8990
835.619054 0.8990 0.8990 0.8980 0.8950 0.8940
840.743985 0.8920 0.8860 0.8820 0.8810 0.8800
845.868917 0.8800 0.8780 0.8770 0.8760 0.8760
850.993848 0.8750 0.8730 0.8730 0.8730 0.8720
856.118780 0.8670 0.8580 0.8540 0.8480 0.8400
861.243711 0.8330 0.8031 0.8000 0.7572 0.7122
866.368643 0.6860 0.6610 0.5930 0.7518 0.7540
871.493574 0.8667 0.8760 0.8770 0.8800 0.8840
876.618506 0.8850 0.8870 0.8900 0.8920 0.8940
881.743437 0.8950 0.8960 0.8980 0.8980 0.8990
886.868369 0.8990 0.9000 0.9010 0.9010 0.9010
891.993300 0.9000 0.9000 0.8990 0.8990 0.8980
897.118232 0.8980 0.8980 0.8980 0.8980 0.8980
902.243163 0.8980 0.8980 0.8960 0.8960 0.8960
907.368095 0.8960 0.8960 0.8960 0.8960 0.8960
912.493026 0.8960 0.8960 0.8960 0.8960 0.8960
917.617958 0.8960 0.8960 0.8950 0.8950 0.8950
922.742889 0.8940 0.8940 0.8940 0.8920 0.8920
927.867821 0.8920 0.8910 0.8910 0.8910 0.8910
932.992752 0.8910 0.8910 0.8900 0.8900 0.8900
938.117684 0.8900 0.8900 0.8900 0.8900 0.8900
943.242615 0.8900 0.8900 0.8900 0.8900 0.8900
948.367547 0.8900 0.8900 0.8900 0.8900 0.8890
953.492478 0.8890 0.8870 0.8870 0.8870 0.8860
958.617410 0.8860 0.8870 0.8870 0.8890 0.8900
963.742341 0.8900 0.8900 0.8900 0.8900 0.8900
968.867273 0.8910 0.8920 0.8940 0.8950 0.8990
973.992204 0.9000 0.9000 0.8980 0.8980 0.8960
979.117136 0.8950 0.8920 0.8920 0.8920 0.8910
984.242067 0.8910 0.8900 0.8890 0.8860 0.8850
989.366999 0.8820 0.8810 0.8760 0.8750 0.8750
994.491930 0.8730 0.8730 0.8710 0.8640 0.8540
999.616862 0.8440 0.8190 0.7930 0.7690 0.7430
1004.741793 0.7181 0.7030 0.6871 0.5665 0.4455
1009.866725 0.3939 0.3423 0.6361 0.7430 0.8339
1014.991656 0.8350 0.8420 0.8500 0.8540 0.8560
1020.116588 0.8560 0.8570 0.8730 0.8840 0.8850
1025.241519 0.8860 0.8890 0.8900 0.8900 0.8910
1030.366451 0.8910 0.8920 0.8920 0.8920 0.8920
1035.491382 0.8920 0.8910 0.8890 0.8860 0.8850
1040.616314 0.8820 0.8770 0.8770 0.8760 0.8760
1045.741245 0.8750 0.8580 0.8480 0.8380 0.8141
1050.866177 0.7910 0.7910 0.8080 0.8260 0.8420
1055.991108 0.8570 0.8710 0.8840 0.8860 0.8870
1061.116040 0.8890 0.8890 0.8850 0.8850 0.8820
1066.240971 0.8810 0.8800 0.8770 0.8621 0.8560
1071.365903 0.8480 0.8310 0.8140 0.7970 0.7800
1076.490834 0.7421 0.7171 0.6482 0.5793 0.7174
1081.615766 0.7220 0.7410 0.7490 0.7730 0.7910
1086.740697 0.8100 0.8280 0.8440 0.8470 0.8470
1091.865629 0.8400 0.8360 0.8290 0.8250 0.8050
1096.990560 0.7890 0.7221 0.7011 0.6801 0.6611
1102.115492 0.6611 0.7120 0.7150 0.7210 0.7270
1107.240423 0.7560 0.7750 0.7979 0.8578 0.8749
1112.365355 0.8760 0.8780 0.8810 0.8820 0.8820
1117.490286 0.8810 0.8810 0.8800 0.8800 0.8800
1122.615218 0.8800 0.8780 0.8780 0.8780 0.8770
1127.740149 0.8760 0.8730 0.8730 0.8720 0.8720
1132.865081 0.8730 0.8730 0.8750 0.8760 0.8780
1137.990012 0.8820 0.8850 0.8900 0.8910 0.8940
1143.114944 0.8960 0.8960 0.8980 0.8990 0.9000
1148.239875 0.9000 0.8990 0.8980 0.8960 0.8960
1153.364807 0.8960 0.8980 0.8990 0.9000 0.9010
1158.489738 0.9010 0.9030 0.9030 0.9030 0.9010
1163.614669 0.9010 0.9000 0.9000 0.8990 0.8990
1168.739601 0.8990 0.8980 0.8980 0.8980 0.8980
1173.864532 0.8980 0.8980 0.8980 0.8980 0.8980
1178.989464 0.8980 0.8980 0.8980 0.8980 0.8980
1184.114395 0.8980 0.8980 0.8980 0.8980 0.8980
1189.239327 0.8980 0.8980 0.8980 0.8980 0.8980
1194.364258 0.8980 0.8980 0.8980 0.8960 0.8960
1199.489190 0.8960 0.8960 0.8960 0.8960 0.8960
1204.614121 0.8960 0.8960 0.8960 0.8960 0.8960
1209.739053 0.8960 0.8950 0.8950 0.8950 0.8950
1214.863984 0.8950 0.8950 0.8950 0.8940 0.8940
1219.988916 0.8940 0.8940 0.8940 0.8940 0.8940
1225.113847 0.8940 0.8920 0.8920 0.8920 0.8910
1230.238779 0.8910 0.8890 0.8870 0.8850 0.8820
1235.363710 0.8640 0.8610 0.8540 0.8500 0.8470
1240.488642 0.8450 0.8520 0.8540 0.8610 0.8640
1245.613573 0.8700 0.8840 0.8850 0.8890 0.8900
1250.738505 0.8920 0.8940 0.8960 0.8990 0.9010
1255.863436 0.9030 0.9030 0.9030 0.9040 0.9040
1260.988368 0.9030 0.9000 0.9000 0.8990 0.8990
1266.113299 0.8990 0.8990 0.8980 0.8980 0.8980
1271.238231 0.8990 0.9000 0.9010 0.9030 0.9030
1276.363162 0.9030 0.9030 0.9030 0.9030 0.9030
1281.488094 0.9030 0.9010 0.9010 0.9010 0.9000
1286.613025 0.9000 0.9000 0.8990 0.8990 0.8990
1291.737957 0.8990 0.9000 0.9010 0.9030 0.9030
1296.862888 0.9040 0.9040 0.9040 0.9030 0.9030
1301.987820 0.9010 0.9010 0.9010 0.9010 0.9000
1307.112751 0.9000 0.8990 0.8990 0.8980 0.8980
1312.237683 0.8980 0.8980 0.8960 0.8960 0.8960
1317.362614 0.8950 0.8950 0.8920 0.8920 0.8910
1322.487546 0.8910 0.8860 0.8850 0.8820 0.8800
1327.612477 0.8780 0.8760 0.8750 0.8730 0.8720
1332.737409 0.8540 0.8520 0.8500 0.8500 0.8490
1337.862340 0.8470 0.8430 0.8390 0.8350 0.8280
1342.987272 0.8150 0.8030 0.7261 0.7100 0.7040
1348.112203 0.6960 0.6820 0.6820 0.6990 0.6990
1353.237135 0.6710 0.6540 0.6350 0.6141 0.5781
1358.362066 0.5418 0.4190 0.4191 0.5401 0.7499
1363.486998 0.8030 0.8120 0.8210 0.8330 0.8350
1368.611929 0.8330 0.8330 0.8310 0.8300 0.8290
1373.736861 0.8290 0.8300 0.8330 0.8350 0.8529
1378.861792 0.8580 0.8590 0.8580 0.8570 0.8540
1383.986724 0.8500 0.8470 0.8360 0.8260 0.8160
1389.111655 0.8060 0.7890 0.7750 0.7630 0.7500
1394.236587 0.7370 0.7350 0.7081 0.7080 0.7688
1399.361518 0.7700 0.7880 0.7890 0.7960 0.8050
1404.486450 0.8060 0.8220 0.8360 0.8430 0.8490
1409.611381 0.8490 0.8480 0.8480 0.8470 0.8440
1414.736313 0.8400 0.8350 0.8210 0.8070 0.8050
1419.861244 0.8030 0.8020 0.8020 0.8010 0.8000
1424.986176 0.8000 0.7980 0.7960 0.7940 0.7830
1430.111107 0.7650 0.7590 0.7470 0.7240 0.7070
1435.236039 0.6890 0.6491 0.5841 0.5561 0.5281
1440.360970 0.4579 0.3868 0.2660 0.2060 0.1460
1445.485902 0.0861 0.0251 0.7025 0.7309 0.7499
1450.610833 0.7930 0.8140 0.8160 0.8200 0.8350
1455.735765 0.8360 0.8430 0.8500 0.8520 0.8500
1460.860696 0.8490 0.8470 0.8420 0.8390 0.8350
1465.985628 0.8310 0.8200 0.8160 0.8030 0.7870
1471.110559 0.7650 0.7630 0.7650 0.7830 0.8020
1476.235491 0.8150 0.8310 0.8540 0.8720 0.8720
1481.360422 0.8710 0.8700 0.8680 0.8670 0.8660
1486.485354 0.8660 0.8640 0.8640 0.8630 0.8630
1491.610285 0.8620 0.8620 0.8620 0.8630 0.8630
1496.735217 0.8660 0.8720 0.8750 0.8760 0.8800
1501.860148 0.8810 0.8820 0.8840 0.8850 0.8850
1506.985080 0.8860 0.8860 0.8870 0.8870 0.8850
1512.110011 0.8850 0.8840 0.8820 0.8820 0.8810
1517.234943 0.8810 0.8770 0.8760 0.8760 0.8750
1522.359874 0.8730 0.8720 0.8720 0.8710 0.8700
1527.484806 0.8700 0.8670 0.8640 0.8620 0.8620
1532.609737 0.8570 0.8540 0.8530 0.8440 0.8340
1537.734669 0.8250 0.8120 0.8010 0.7880 0.7700
1542.859600 0.7510 0.7320 0.7130 0.7040 0.6940
1547.984532 0.6750 0.6310 0.5631 0.5281 0.4941
1553.109463 0.4619 0.4290 0.4110 0.3930 0.4420
1558.234395 0.4900 0.7707 0.7820 0.8309 0.8340
1563.359326 0.8350 0.8420 0.8450 0.8480 0.8520
1568.484258 0.8530 0.8570 0.8620 0.8640 0.8700
1573.609189 0.8710 0.8710 0.8720 0.8720 0.8720
1578.734121 0.8720 0.8720 0.8720 0.8730 0.8730
1583.859052 0.8730 0.8750 0.8760 0.8770 0.8770
1588.983984 0.8780 0.8780 0.8780 0.8780 0.8780
1594.108915 0.8780 0.8780 0.8780 0.8780 0.8770
1599.233847 0.8770 0.8770 0.8770 0.8770 0.8770
1604.358778 0.8770 0.8770 0.8760 0.8760 0.8750
1609.483710 0.8730 0.8710 0.8680 0.8660 0.8640
1614.608641 0.8630 0.8630 0.8640 0.8640 0.8660
1619.733573 0.8670 0.8700 0.8710 0.8720 0.8720
1624.858504 0.8720 0.8730 0.8750 0.8760 0.8770
1629.983436 0.8770 0.8770 0.8780 0.8780 0.8780
1635.108367 0.8780 0.8780 0.8780 0.8800 0.8800
1640.233299 0.8800 0.8780 0.8780 0.8770 0.8770
1645.358230 0.8760 0.8760 0.8770 0.8770 0.8780
1650.483162 0.8780 0.8800 0.8810 0.8820 0.8820
1655.608093 0.8840 0.8840 0.8840 0.8840 0.8840
1660.733025 0.8850 0.8850 0.8850 0.8860 0.8860
1665.857956 0.8860 0.8860 0.8860 0.8860 0.8860
1670.982888 0.8860 0.8860 0.8860 0.8860 0.8860
1676.107819 0.8860 0.8870 0.8870 0.8870 0.8870
1681.232751 0.8870 0.8870 0.8860 0.8860 0.8860
1686.357682 0.8860 0.8860 0.8850 0.8850 0.8850
1691.482614 0.8850 0.8850 0.8840 0.8820 0.8810
1696.607545 0.8810 0.8810 0.8800 0.8800 0.8800
1701.732477 0.8780 0.8780 0.8780 0.8770 0.8770
1706.857408 0.8770 0.8770 0.8770 0.8770 0.8770
1711.982340 0.8760 0.8760 0.8760 0.8760 0.8750
1717.107271 0.8750 0.8730 0.8710 0.8710 0.8680
1722.232203 0.8680 0.8680 0.8670 0.8670 0.8660
1727.357134 0.8660 0.8660 0.8660 0.8640 0.8530
1732.482066 0.8500 0.8480 0.8440 0.8430 0.8420
1737.606997 0.8420 0.8440 0.8520 0.8530 0.8610
1742.731929 0.8620 0.8620 0.8630 0.8630 0.8630
1747.856860 0.8660 0.8660 0.8680 0.8700 0.8710
1752.981792 0.8710 0.8720 0.8730 0.8730 0.8750
1758.106723 0.8760 0.8770 0.8820 0.8840 0.8850
1763.231655 0.8850 0.8860 0.8860 0.8860 0.8860
1768.356586 0.8860 0.8860 0.8870 0.8870 0.8870
1773.481518 0.8870 0.8870 0.8870 0.8870 0.8870
1778.606449 0.8870 0.8870 0.8870 0.8870 0.8870
1783.731381 0.8870 0.8870 0.8870 0.8870 0.8870
1788.856312 0.8870 0.8860 0.8860 0.8860 0.8860
1793.981244 0.8860 0.8860 0.8860 0.8850 0.8850
1799.106175 0.8850 0.8850 0.8850 0.8850 0.8850
1804.231107 0.8850 0.8850 0.8850 0.8840 0.8840
1809.356038 0.8840 0.8820 0.8810 0.8800 0.8780
1814.480970 0.8800 0.8800 0.8810 0.8840 0.8840
1819.605901 0.8850 0.8860 0.8860 0.8870 0.8870
1824.730833 0.8870 0.8870 0.8870 0.8870 0.8870
1829.855764 0.8870 0.8870 0.8870 0.8870 0.8870
1834.980696 0.8870 0.8870 0.8870 0.8870 0.8870
1840.105627 0.8870 0.8870 0.8870 0.8870 0.8870
1845.230559 0.8870 0.8870 0.8870 0.8870 0.8860
1850.355490 0.8860 0.8860 0.8850 0.8850 0.8850
1855.480422 0.8810 0.8810 0.8800 0.8800 0.8800
1860.605353 0.8780 0.8780 0.8780 0.8770 0.8770
1865.730285 0.8760 0.8760 0.8760 0.8760 0.8760
1870.855216 0.8760 0.8750 0.8750 0.8730 0.8730
1875.980148 0.8730 0.8730 0.8730 0.8710 0.8620
1881.105079 0.8570 0.8560 0.8540 0.8530 0.8500
1886.230011 0.8470 0.8430 0.8420 0.8420 0.8520
1891.354942 0.8590 0.8710 0.8720 0.8720 0.8750
1896.479874 0.8770 0.8810 0.8840 0.8840 0.8850
1901.604805 0.8850 0.8850 0.8850 0.8850 0.8860
1906.729737 0.8860 0.8860 0.8860 0.8860 0.8870
1911.854668 0.8870 0.8870 0.8870 0.8870 0.8890
1916.979600 0.8890 0.8890 0.8890 0.8890 0.8890
1922.104531 0.8890 0.8890 0.8890 0.8890 0.8870
1927.229463 0.8870 0.8870 0.8870 0.8870 0.8870
1932.354394 0.8870 0.8870 0.8870 0.8860 0.8860
1937.479326 0.8860 0.8860 0.8860 0.8860 0.8860
1942.604257 0.8870 0.8870 0.8870 0.8890 0.8890
1947.729189 0.8890 0.8890 0.8900 0.8900 0.8900
1952.854120 0.8900 0.8900 0.8900 0.8900 0.8900
1957.979052 0.8900 0.8890 0.8890 0.8890 0.8890
1963.103983 0.8870 0.8870 0.8870 0.8870 0.8870
1968.228915 0.8890 0.8890 0.8890 0.8890 0.8890
1973.353846 0.8890 0.8890 0.8890 0.8890 0.8890
1978.478778 0.8890 0.8890 0.8890 0.8870 0.8870
1983.603709 0.8860 0.8860 0.8860 0.8860 0.8860
1988.728641 0.8860 0.8870 0.8870 0.8900 0.8900
1993.853572 0.8910 0.8910 0.8910 0.8920 0.8920
1998.978504 0.8920 0.8910 0.8910 0.8910 0.8910
2004.103435 0.8910 0.8910 0.8910 0.8910 0.8910
2009.228367 0.8910 0.8910 0.8910 0.8910 0.8910
2014.353298 0.8910 0.8905 0.8900 0.8900 0.8900
2019.478230 0.8900 0.8900 0.8900 0.8900 0.8900
2024.603161 0.8900 0.8900 0.8900 0.8895 0.8890
2029.728093 0.8890 0.8890 0.8890 0.8890 0.8890
2034.853024 0.8890 0.8880 0.8870 0.8870 0.8870
2039.977956 0.8870 0.8870 0.8870 0.8870 0.8870
2045.102887 0.8870 0.8870 0.8870 0.8870 0.8870
2050.227819 0.8865 0.8860 0.8860 0.8860 0.8860
2055.352750 0.8860 0.8860 0.8860 0.8860 0.8860
2060.477682 0.8860 0.8860 0.8855 0.8850 0.8850
2065.602613 0.8850 0.8850 0.8850 0.8850 0.8850
2070.727545 0.8850 0.8850 0.8850 0.8850 0.8845
2075.852476 0.8840 0.8840 0.8840 0.8840 0.8840
2080.977407 0.8840 0.8840 0.8840 0.8840 0.8831
2086.102339 0.8821 0.8820 0.8820 0.8815 0.8810
2091.227270 0.8810 0.8810 0.8805 0.8800 0.8800
2096.352202 0.8800 0.8791 0.8781 0.8780 0.8780
2101.477133 0.8780 0.8780 0.8780 0.8780 0.8780
2106.602065 0.8780 0.8780 0.8780 0.8780 0.8780
2111.726996 0.8780 0.8780 0.8780 0.8780 0.8780
2116.851928 0.8780 0.8780 0.8780 0.8780 0.8780
2121.976859 0.8780 0.8780 0.8780 0.8780 0.8780
2127.101791 0.8780 0.8780 0.8780 0.8780 0.8780
2132.226722 0.8780 0.8780 0.8775 0.8770 0.8770
2137.351654 0.8770 0.8770 0.8770 0.8770 0.8770
2142.476585 0.8765 0.8760 0.8760 0.8760 0.8760
2147.601517 0.8760 0.8760 0.8760 0.8755 0.8750
2152.726448 0.8750 0.8750 0.8750 0.8750 0.8750
2157.851380 0.8750 0.8750 0.8750 0.8750 0.8750
2162.976311 0.8750 0.8750 0.8750 0.8750 0.8750
2168.101243 0.8750 0.8750 0.8750 0.8750 0.8750
2173.226174 0.8750 0.8750 0.8750 0.8750 0.8750
2178.351106 0.8750 0.8750 0.8750 0.8750 0.8750
2183.476037 0.8750 0.8750 0.8750 0.8750 0.8750
2188.600969 0.8750 0.8750 0.8750 0.8750 0.8750
2193.725900 0.8750 0.8750 0.8750 0.8750 0.8750
2198.850832 0.8750 0.8750 0.8750 0.8750 0.8750
2203.975763 0.8750 0.8750 0.8750 0.8750 0.8750
2209.100695 0.8750 0.8750 0.8750 0.8754 0.8759
2214.225626 0.8760 0.8760 0.8760 0.8760 0.8760
2219.350558 0.8760 0.8760 0.8760 0.8760 0.8760
2224.475489 0.8760 0.8760 0.8756 0.8751 0.8750
2229.600421 0.8750 0.8750 0.8750 0.8741 0.8732
2234.725352 0.8730 0.8730 0.8730 0.8730 0.8730
2239.850284 0.8730 0.8730 0.8730 0.8730 0.8730
2244.975215 0.8730 0.8730 0.8730 0.8730 0.8730
2250.100147 0.8730 0.8730 0.8730 0.8730 0.8730
2255.225078 0.8730 0.8730 0.8730 0.8730 0.8730
2260.350010 0.8730 0.8730 0.8730 0.8730 0.8730
2265.474941 0.8730 0.8730 0.8730 0.8730 0.8730
2270.599873 0.8730 0.8738 0.8748 0.8750 0.8750
2275.724804 0.8754 0.8759 0.8760 0.8760 0.8764
2280.849736 0.8769 0.8774 0.8779 0.8780 0.8780
2285.974667 0.8788 0.8798 0.8800 0.8800 0.8792
2291.099599 0.8782 0.8780 0.8780 0.8776 0.8771
2296.224530 0.8766 0.8761 0.8760 0.8760 0.8756
2301.349462 0.8751 0.8750 0.8750 0.8742 0.8732
2306.474393 0.8726 0.8721 0.8716 0.8711 0.8710
2311.599325 0.8710 0.8710 0.8710 0.8726 0.8746
2316.724256 0.8754 0.8759 0.8764 0.8769 0.8774
2321.849188 0.8779 0.8780 0.8780 0.8776 0.8771
2326.974119 0.8754 0.8734 0.8726 0.8721 0.8712
2332.099051 0.8702 0.8700 0.8700 0.8692 0.8682
2337.223982 0.8680 0.8680 0.8680 0.8680 0.8692
2342.348914 0.8707 0.8710 0.8710 0.8710 0.8710
2347.473845 0.8710 0.8710 0.8706 0.8701 0.8692
2352.598777 0.8682 0.8680 0.8680 0.8676 0.8671
2357.723708 0.8674 0.8679 0.8680 0.8680 0.8688
2362.848640 0.8698 0.8700 0.8700 0.8700 0.8700
2367.973571 0.8704 0.8709 0.8710 0.8710 0.8710
2373.098503 0.8710 0.8714 0.8719 0.8720 0.8720
2378.223434 0.8720 0.8720 0.8720 0.8720 0.8720
2383.348366 0.8720 0.8716 0.8711 0.8710 0.8710
2388.473297 0.8710 0.8710 0.8710 0.8710 0.8706
2393.598229 0.8701 0.8700 0.8700 0.8693 0.8683
2398.723160 0.8680 0.8680 0.8676 0.8671 0.8670
2403.848092 0.8670 0.8670 0.8670 0.8670 0.8670
2408.973023 0.8670 0.8670 0.8674 0.8679 0.8687
2414.097955 0.8697 0.8704 0.8709 0.8710 0.8710
2419.222886 0.8714 0.8719 0.8720 0.8720 0.8720
2424.347818 0.8720 0.8720 0.8720 0.8720 0.8720
2429.472749 0.8720 0.8720 0.8720 0.8720 0.8720
2434.597681 0.8720 0.8720 0.8720 0.8720 0.8720
2439.722612 0.8720 0.8720 0.8720 0.8720 0.8716
2444.847544 0.8711 0.8710 0.8710 0.8710 0.8710
2449.972475 0.8706 0.8701 0.8700 0.8700 0.8700
2455.097407 0.8700 0.8693 0.8683 0.8680 0.8680
2460.222338 0.8676 0.8671 0.8666 0.8661 0.8660
2465.347270 0.8660 0.8660 0.8660 0.8653 0.8643
2470.472201 0.8640 0.8640 0.8640 0.8640 0.8640
2475.597133 0.8640 0.8640 0.8640 0.8647 0.8657
2480.722064 0.8660 0.8660 0.8660 0.8660 0.8660
2485.846996 0.8660 0.8660 0.8660 0.8660 0.8660
2490.971927 0.8660 0.8660 0.8660 0.8660 0.8660
2496.096859 0.8660 0.8660 0.8660 0.8660 0.8660
2501.221790 0.8660 0.8660 0.8660 0.8660 0.8660
2506.346722 0.8660 0.8660 0.8660 0.8660 0.8660
2511.471653 0.8660 0.8660 0.8660 0.8660 0.8660
2516.596585 0.8660 0.8660 0.8660 0.8660 0.8660
2521.721516 0.8660 0.8660 0.8660 0.8660 0.8660
2526.846448 0.8660 0.8660 0.8660 0.8660 0.8660
2531.971379 0.8660 0.8660 0.8660 0.8660 0.8660
2537.096311 0.8660 0.8660 0.8660 0.8660 0.8660
2542.221242 0.8660 0.8660 0.8660 0.8660 0.8660
2547.346174 0.8660 0.8660 0.8660 0.8660 0.8660
2552.471105 0.8654 0.8643 0.8640 0.8640 0.8640
2557.596037 0.8640 0.8640 0.8640 0.8637 0.8632
2562.720968 0.8630 0.8630 0.8630 0.8630 0.8630
2567.845900 0.8630 0.8630 0.8630 0.8630 0.8630
2572.970831 0.8633 0.8638 0.8640 0.8640 0.8640
2578.095763 0.8640 0.8640 0.8640 0.8646 0.8656
2583.220694 0.8660 0.8660 0.8660 0.8660 0.8660
2588.345626 0.8660 0.8660 0.8660 0.8660 0.8660
2593.470557 0.8660 0.8660 0.8654 0.8644 0.8640
2598.595489 0.8640 0.8640 0.8640 0.8637 0.8632
2603.720420 0.8630 0.8630 0.8627 0.8622 0.8620
2608.845352 0.8620 0.8620 0.8620 0.8620 0.8620
2613.970283 0.8620 0.8620 0.8620 0.8620 0.8620
2619.095215 0.8620 0.8620 0.8620 0.8623 0.8628
2624.220146 0.8630 0.8630 0.8630 0.8630 0.8633
2629.345078 0.8638 0.8640 0.8640 0.8640 0.8640
2634.470009 0.8640 0.8640 0.8640 0.8640 0.8640
2639.594941 0.8640 0.8640 0.8640 0.8646 0.8656
2644.719872 0.8660 0.8660 0.8660 0.8660 0.8660
2649.844804 0.8660 0.8660 0.8660 0.8660 0.8660
2654.969735 0.8660 0.8660 0.8660 0.8660 0.8660
2660.094667 0.8660 0.8654 0.8644 0.8640 0.8640
2665.219598 0.8637 0.8632 0.8630 0.8630 0.8630
2670.344530 0.8630 0.8630 0.8630 0.8627 0.8622
2675.469461 0.8620 0.8620 0.8617 0.8612 0.8610
2680.594393 0.8610 0.8604 0.8594 0.8590 0.8590
2685.719324 0.8590 0.8590 0.8596 0.8606 0.8613
2690.844256 0.8618 0.8620 0.8620 0.8623 0.8628
2695.969187 0.8630 0.8630 0.8630 0.8630 0.8630
2701.094119 0.8630 0.8633 0.8638 0.8640 0.8640
2706.219050 0.8640 0.8640 0.8640 0.8640 0.8645
2711.343982 0.8655 0.8660 0.8660 0.8660 0.8660
2716.468913 0.8660 0.8660 0.8660 0.8660 0.8660
2721.593845 0.8660 0.8660 0.8660 0.8655 0.8645
2726.718776 0.8640 0.8640 0.8640 0.8640 0.8640
2731.843708 0.8640 0.8637 0.8632 0.8630 0.8630
2736.968639 0.8630 0.8630 0.8630 0.8630 0.8633
2742.093571 0.8638 0.8640 0.8640 0.8640 0.8640
2747.218502 0.8640 0.8640 0.8640 0.8640 0.8640
2752.343434 0.8640 0.8640 0.8640 0.8640 0.8640
2757.468365 0.8640 0.8640 0.8637 0.8632 0.8630
2762.593297 0.8630 0.8630 0.8630 0.8630 0.8630
2767.718228 0.8630 0.8630 0.8630 0.8630 0.8627
2772.843160 0.8622 0.8620 0.8620 0.8620 0.8620
2777.968091 0.8620 0.8620 0.8612 0.8597 0.8587
2783.093023 0.8582 0.8575 0.8565 0.8560 0.8560
2788.217954 0.8555 0.8545 0.8540 0.8540 0.8540
2793.342886 0.8540 0.8540 0.8540 0.8545 0.8555
2798.467817 0.8562 0.8568 0.8573 0.8578 0.8583
2803.592749 0.8587 0.8595 0.8605 0.8612 0.8617
2808.717680 0.8620 0.8620 0.8620 0.8620 0.8622
2813.842612 0.8627 0.8630 0.8630 0.8630 0.8630
2818.967543 0.8632 0.8637 0.8638 0.8633 0.8630
2824.092475 0.8630 0.8630 0.8630 0.8630 0.8630
2829.217406 0.8630 0.8630 0.8630 0.8630 0.8630
2834.342338 0.8630 0.8630 0.8630 0.8628 0.8623
2839.467269 0.8620 0.8620 0.8620 0.8620 0.8620
2844.592201 0.8620 0.8620 0.8620 0.8620 0.8620
2849.717132 0.8618 0.8613 0.8610 0.8610 0.8610
2854.842064 0.8610 0.8610 0.8610 0.8610 0.8610
2859.966995 0.8605 0.8595 0.8590 0.8590 0.8590
2865.091927 0.8590 0.8590 0.8590 0.8590 0.8590
2870.216858 0.8590 0.8590 0.8590 0.8590 0.8590
2875.341790 0.8590 0.8590 0.8590 0.8590 0.8590
2880.466721 0.8590 0.8590 0.8590 0.8590 0.8590
2885.591653 0.8590 0.8590 0.8590 0.8590 0.8590
2890.716584 0.8590 0.8590 0.8590 0.8590 0.8588
2895.841516 0.8583 0.8580 0.8580 0.8580 0.8580
2900.966447 0.8578 0.8573 0.8570 0.8570 0.8570
2906.091379 0.8570 0.8570 0.8570 0.8570 0.8570
2911.216310 0.8570 0.8570 0.8570 0.8570 0.8570
2916.341242 0.8570 0.8570 0.8570 0.8570 0.8570
2921.466173 0.8570 0.8570 0.8570 0.8570 0.8570
2926.591105 0.8570 0.8570 0.8570 0.8570 0.8570
2931.716036 0.8570 0.8570 0.8570 0.8570 0.8570
2936.840968 0.8570 0.8570 0.8570 0.8572 0.8577
2941.965899 0.8580 0.8580 0.8580 0.8580 0.8580
2947.090831 0.8580 0.8578 0.8573 0.8570 0.8570
2952.215762 0.8570 0.8570 0.8570 0.8570 0.8568
2957.340694 0.8563 0.8560 0.8560 0.8560 0.8560
2962.465625 0.8556 0.8546 0.8540 0.8540 0.8540
2967.590557 0.8540 0.8544 0.8554 0.8560 0.8560
2972.715488 0.8560 0.8560 0.8560 0.8560 0.8560
2977.840420 0.8560 0.8560 0.8560 0.8560 0.8560
2982.965351 0.8562 0.8567 0.8570 0.8570 0.8570
2988.090283 0.8570 0.8572 0.8577 0.8582 0.8587
2993.215214 0.8590 0.8590 0.8594 0.8604 0.8612
2998.340145 0.8617 0.8620 0.8620 0.8622 0.8627
3003.465077 0.8630 0.8630 0.8630 0.8630 0.8630
3008.590008 0.8630 0.8630 0.8630 0.8628 0.8623
3013.714940 0.8620 0.8620 0.8620 0.8620 0.8622
3018.839871 0.8627 0.8630 0.8630 0.8630 0.8630
3023.964803 0.8630 0.8630 0.8630 0.8630 0.8628
3029.089734 0.8623 0.8620 0.8620 0.8618 0.8613
3034.214666 0.8610 0.8610 0.8610 0.8610 0.8607
3039.339597 0.8597 0.8590 0.8590 0.8590 0.8590
3044.464529 0.8590 0.8590 0.8588 0.8583 0.8580
3049.589460 0.8580 0.8580 0.8580 0.8577 0.8567
3054.714392 0.8557 0.8547 0.8538 0.8533 0.8528
3059.839323 0.8523 0.8520 0.8520 0.8520 0.8520
3064.964255 0.8517 0.8507 0.8500 0.8500 0.8498
3070.089186 0.8493 0.8490 0.8490 0.8490 0.8490
3075.214118 0.8488 0.8483 0.8475 0.8460 0.8448
3080.339049 0.8443 0.8424 0.8374 0.8331 0.8301
3085.463981 0.8254 0.8168 0.8108 0.8103 0.8126
3090.588912 0.8206 0.8266 0.8286 0.8302 0.8307
3095.713844 0.8313 0.8323 0.8333 0.8343 0.8362
3100.838775 0.8402 0.8433 0.8443 0.8454 0.8469
3105.963707 0.8480 0.8480 0.8480 0.8480 0.8480
3111.088638 0.8480 0.8482 0.8487 0.8492 0.8497
3116.213570 0.8500 0.8500 0.8500 0.8500 0.8503
3121.338501 0.8513 0.8521 0.8526 0.8534 0.8549
3126.463433 0.8563 0.8573 0.8581 0.8586 0.8594
3131.588364 0.8609 0.8621 0.8626 0.8631 0.8636
3136.713296 0.8640 0.8640 0.8643 0.8653 0.8660
3141.838227 0.8660 0.8660 0.8660 0.8661 0.8666
3146.963159 0.8671 0.8676 0.8680 0.8680 0.8680
3152.088090 0.8680 0.8683 0.8693 0.8701 0.8706
3157.213022 0.8710 0.8710 0.8710 0.8710 0.8711
3162.337953 0.8716 0.8720 0.8720 0.8720 0.8720
3167.462885 0.8720 0.8720 0.8720 0.8720 0.8720
3172.587816 0.8720 0.8720 0.8720 0.8721 0.8726
3177.712748 0.8730 0.8730 0.8730 0.8730 0.8730
3182.837679 0.8730 0.8730 0.8730 0.8732 0.8742
3187.962611 0.8750 0.8750 0.8750 0.8750 0.8750
3193.087542 0.8750 0.8750 0.8750 0.8750 0.8750
3198.212474 0.8750 0.8750 0.8750 0.8750 0.8750
3203.337405 0.8750 0.8750 0.8750 0.8750 0.8750
3208.462337 0.8750 0.8750 0.8750 0.8750 0.8750
3213.587268 0.8750 0.8750 0.8750 0.8750 0.8750
3218.712200 0.8750 0.8750 0.8750 0.8750 0.8750
3223.837131 0.8750 0.8750 0.8750 0.8750 0.8750
3228.962063 0.8750 0.8750 0.8750 0.8750 0.8750
3234.086994 0.8750 0.8750 0.8750 0.8750 0.8750
3239.211926 0.8750 0.8750 0.8750 0.8750 0.8750
3244.336857 0.8750 0.8751 0.8756 0.8760 0.8760
3249.461789 0.8760 0.8760 0.8760 0.8760 0.8760
3254.586720 0.8760 0.8760 0.8760 0.8760 0.8760
3259.711652 0.8760 0.8760 0.8760 0.8760 0.8760
3264.836583 0.8760 0.8760 0.8760 0.8760 0.8760
3269.961515 0.8760 0.8760 0.8760 0.8760 0.8760
3275.086446 0.8760 0.8760 0.8760 0.8760 0.8760
3280.211378 0.8760 0.8760 0.8760 0.8760 0.8760
3285.336309 0.8760 0.8760 0.8760 0.8760 0.8760
3290.461241 0.8760 0.8760 0.8760 0.8760 0.8760
3295.586172 0.8760 0.8760 0.8760 0.8760 0.8760
3300.711104 0.8760 0.8760 0.8760 0.8760 0.8760
3305.836035 0.8760 0.8760 0.8760 0.8760 0.8760
3310.960967 0.8760 0.8760 0.8760 0.8760 0.8760
3316.085898 0.8760 0.8760 0.8760 0.8760 0.8760
3321.210830 0.8760 0.8760 0.8760 0.8760 0.8760
3326.335761 0.8760 0.8760 0.8760 0.8760 0.8760
3331.460693 0.8760 0.8760 0.8760 0.8760 0.8760
3336.585624 0.8760 0.8760 0.8760 0.8760 0.8760
3341.710556 0.8760 0.8760 0.8760 0.8760 0.8760
3346.835487 0.8760 0.8760 0.8760 0.8760 0.8760
3351.960419 0.8760 0.8760 0.8760 0.8760 0.8760
3357.085350 0.8760 0.8760 0.8760 0.8760 0.8760
3362.210282 0.8760 0.8760 0.8760 0.8760 0.8760
3367.335213 0.8760 0.8760 0.8760 0.8760 0.8760
3372.460145 0.8760 0.8760 0.8760 0.8760 0.8760
3377.585076 0.8760 0.8760 0.8760 0.8760 0.8760
3382.710008 0.8760 0.8760 0.8760 0.8760 0.8760
3387.834939 0.8760 0.8760 0.8760 0.8760 0.8760
3392.959871 0.8760 0.8760 0.8760 0.8760 0.8760
3398.084802 0.8760 0.8760 0.8760 0.8760 0.8760
3403.209734 0.8760 0.8760 0.8760 0.8760 0.8760
3408.334665 0.8760 0.8760 0.8760 0.8760 0.8760
3413.459597 0.8760 0.8760 0.8760 0.8760 0.8760
3418.584528 0.8760 0.8760 0.8760 0.8760 0.8760
3423.709460 0.8760 0.8760 0.8760 0.8760 0.8760
3428.834391 0.8760 0.8760 0.8765 0.8770 0.8770
3433.959323 0.8770 0.8770 0.8770 0.8770 0.8770
3439.084254 0.8770 0.8770 0.8770 0.8770 0.8770
3444.209186 0.8770 0.8770 0.8770 0.8770 0.8770
3449.334117 0.8775 0.8780 0.8780 0.8780 0.8780
3454.459049 0.8780 0.8780 0.8780 0.8780 0.8780
3459.583980 0.8780 0.8780 0.8780 0.8781 0.8791
3464.708912 0.8800 0.8800 0.8800 0.8800 0.8800
3469.833843 0.8800 0.8800 0.8800 0.8800 0.8805
3474.958775 0.8810 0.8810 0.8810 0.8810 0.8810
3480.083706 0.8810 0.8810 0.8810 0.8810 0.8810
3485.208638 0.8810 0.8815 0.8820 0.8820 0.8820
3490.333569 0.8820 0.8820 0.8820 0.8820 0.8820
3495.458501 0.8820 0.8820 0.8820 0.8820 0.8820
3500.583432 0.8820 0.8820 0.8820 0.8820 0.8820
3505.708364 0.8821 0.8831 0.8840 0.8840 0.8840
3510.833295 0.8840 0.8840 0.8840 0.8840 0.8840
3515.958227 0.8840 0.8840 0.8840 0.8840 0.8840
3521.083158 0.8840 0.8840 0.8845 0.8850 0.8850
3526.208090 0.8850 0.8850 0.8850 0.8850 0.8850
3531.333021 0.8850 0.8850 0.8850 0.8850 0.8850
3536.457953 0.8850 0.8850 0.8850 0.8850 0.8850
3541.582884 0.8850 0.8850 0.8855 0.8860 0.8860
3546.707816 0.8860 0.8860 0.8860 0.8865 0.8870
3551.832747 0.8870 0.8870 0.8870 0.8870 0.8880
3556.957679 0.8890 0.8890 0.8890 0.8890 0.8890
3562.082610 0.8895 0.8900 0.8900 0.8900 0.8900
3567.207542 0.8900 0.8900 0.8900 0.8900 0.8900
3572.332473 0.8905 0.8910 0.8910 0.8910 0.8910
3577.457405 0.8910 0.8910 0.8910 0.8910 0.8910
3582.582336 0.8910 0.8910 0.8910 0.8910 0.8910
3587.707268 0.8910 0.8915 0.8920 0.8930 0.8940
3592.832199 0.8940 0.8940 0.8940 0.8940 0.8940
3597.957131 0.8940 0.8940 0.8940 0.8940 0.8940
3603.082062 0.8940 0.8940 0.8940 0.8940 0.8940
3608.206994 0.8940 0.8940 0.8940 0.8940 0.8940
3613.331925 0.8940 0.8940 0.8940 0.8940 0.8940
3618.456857 0.8940 0.8940 0.8940 0.8940 0.8940
3623.581788 0.8940 0.8940 0.8940 0.8940 0.8940
3628.706720 0.8940 0.8940 0.8940 0.8945 0.8950
3633.831651 0.8950 0.8950 0.8950 0.8950 0.8950
3638.956583 0.8950 0.8950 0.8950 0.8950 0.8950
3644.081514 0.8950 0.8950 0.8950 0.8950 0.8950
3649.206446 0.8950 0.8950 0.8950 0.8950 0.8950
3654.331377 0.8950 0.8950 0.8950 0.8950 0.8950
3659.456309 0.8950 0.8950 0.8950 0.8950 0.8950
3664.581240 0.8950 0.8950 0.8955 0.8960 0.8960
3669.706172 0.8960 0.8960 0.8960 0.8960 0.8960
3674.831103 0.8960 0.8960 0.8960 0.8960 0.8960
3679.956035 0.8960 0.8960 0.8960 0.8960 0.8960
3685.080966 0.8960 0.8960 0.8960 0.8960 0.8960
3690.205898 0.8960 0.8960 0.8960 0.8960 0.8960
3695.330829 0.8960 0.8960 0.8955 0.8950 0.8950
3700.455761 0.8950 0.8950 0.8950 0.8950 0.8950
3705.580692 0.8950 0.8950 0.8950 0.8950 0.8950
3710.705624 0.8950 0.8950 0.8950 0.8955 0.8960
3715.830555 0.8960 0.8960 0.8960 0.8960 0.8960
3720.955487 0.8960 0.8960 0.8960 0.8960 0.8960
3726.080418 0.8969 0.8979 0.8980 0.8980 0.8980
3731.205350 0.8980 0.8985 0.8990 0.8995 0.9000
3736.330281 0.9005 0.9010 0.9010 0.9010 0.9019
3741.455213 0.9029 0.9030 0.9030 0.9021 0.9011
3746.580144 0.9010 0.9010 0.9010 0.9010 0.9005
3751.705076 0.9000 0.9000 0.9000 0.9000 0.9000
3756.830007 0.8996 0.8991 0.8990 0.8990 0.8986
3761.954939 0.8981 0.8980 0.8980 0.8971 0.8961
3767.079870 0.8960 0.8960 0.8960 0.8960 0.8956
3772.204802 0.8951 0.8950 0.8950 0.8946 0.8941
3777.329733 0.8940 0.8940 0.8940 0.8940 0.8940
3782.454665 0.8940 0.8940 0.8940 0.8940 0.8940
3787.579596 0.8940 0.8940 0.8940 0.8940 0.8944
3792.704528 0.8949 0.8950 0.8950 0.8950 0.8950
3797.829459 0.8954 0.8959 0.8960 0.8960 0.8960
3802.954391 0.8960 0.8956 0.8951 0.8950 0.8950
3808.079322 0.8954 0.8959 0.8960 0.8960 0.8960
3813.204254 0.8960
##END=
