##TITLE=PHENOL, 2,4-DIBROMO-
##JCAMP-DX=4.24
##DATA TYPE=INFRARED SPECTRUM
##CLASS=COBLENTZ III
##ORIGIN=PERKIN-ELMER
##OWNER=COBLENTZ SOCIETY
Collection (C) 2018 copyright by the U.S. Secretary of Commerce
on behalf of the United States of America. All rights reserved.
##DATE=1978/05/23
##NAMES=2,4-dibromophenol
(COMMERCIAL FLAME RETARDANT)
##CAS REGISTRY NO=615-58-7
##MOLFORM=C6 H4 Br2 O
##SOURCE REFERENCE=COBLENTZ NO. 10307
##$NIST SOURCE=COBLENTZ
##$NIST IMAGE=cob10307
##SPECTROMETER/DATA SYSTEM=PERKIN-ELMER 283
##STATE=(NEAT)
##PATH LENGTH=MELT
$$ SEE SPECTRUM NO. 1007 FOR "SOLUTION" STATE
##SAMPLING PROCEDURE=TRANSMISSION
##RESOLUTION=4
##DATA PROCESSING=DIGITIZED BY NIST FROM HARD COPY (FROM TWO SEGMENTS)
##XUNITS=1/CM
##YUNITS=TRANSMITTANCE
##XFACTOR=1.000000
##YFACTOR=1
##DELTAX=0.974027
##FIRSTX=204.87
##LASTX=4000.65
##FIRSTY=0.861
##MAXX=4000.65
##MINX=204.87
##MAXY=0.956
##MINY=0.0280041
##NPOINTS=3898
##XYDATA=(X++(Y..Y))
204.870000 0.8610 0.8630 0.8640 0.8660 0.8680
209.740135 0.8740 0.8780 0.8810 0.8830 0.8830
214.610269 0.8850 0.8860 0.8870 0.8900 0.8920
219.480404 0.8940 0.8950 0.8950 0.8960 0.8960
224.350539 0.8970 0.8970 0.8970 0.8960 0.8960
229.220674 0.8950 0.8950 0.8960 0.9030 0.9060
234.090808 0.9100 0.9160 0.9210 0.9220 0.9230
238.960943 0.9300 0.9320 0.9320 0.9300 0.9270
243.831078 0.9250 0.9230 0.9220 0.9220 0.9210
248.701213 0.9210 0.9210 0.9190 0.9170 0.9160
253.571347 0.9140 0.9140 0.9140 0.9140 0.9130
258.441482 0.9130 0.9130 0.9100 0.9090 0.9080
263.311617 0.9050 0.9050 0.9030 0.9000 0.8960
268.181752 0.8920 0.8880 0.8860 0.8830 0.8810
273.051886 0.8780 0.8750 0.8740 0.8730 0.8730
277.922021 0.8730 0.8730 0.8730 0.8740 0.8750
282.792156 0.8750 0.8780 0.8810 0.8810 0.8810
287.662291 0.8790 0.8790 0.8770 0.8750 0.8720
292.532425 0.8690 0.8660 0.8650 0.8640 0.8630
297.402560 0.8630 0.8630 0.8610 0.8590 0.8550
302.272695 0.8520 0.8480 0.8460 0.8420 0.8390
307.142829 0.8370 0.8330 0.8300 0.8260 0.8240
312.012964 0.8200 0.8160 0.8160 0.8120 0.8080
316.883099 0.8020 0.7940 0.7880 0.7810 0.7760
321.753234 0.7720 0.7710 0.7710 0.7710 0.7700
326.623368 0.7670 0.7660 0.7660 0.7640 0.7640
331.493503 0.7640 0.7630 0.7630 0.7620 0.7590
336.363638 0.7580 0.7550 0.7530 0.7510 0.7490
341.233773 0.7450 0.7410 0.7360 0.7320 0.7280
346.103907 0.7240 0.7190 0.7170 0.7130 0.7090
350.974042 0.7050 0.7020 0.6980 0.6960 0.6920
355.844177 0.6890 0.6870 0.6840 0.6820 0.6780
360.714312 0.6710 0.6670 0.6670 0.6660 0.6650
365.584446 0.6640 0.6600 0.6530 0.6520 0.6490
370.454581 0.6480 0.6450 0.6430 0.6420 0.6400
375.324716 0.6380 0.6350 0.6330 0.6300 0.6290
380.194851 0.6270 0.6270 0.6260 0.6260 0.6250
385.064985 0.6250 0.6250 0.6250 0.6250 0.6250
389.935120 0.6260 0.6260 0.6270 0.6300 0.6310
394.805255 0.6330 0.6350 0.6380 0.6390 0.6420
399.675390 0.6440 0.6470 0.6480 0.6510 0.6510
404.545524 0.6520 0.6520 0.6530 0.6550 0.6570
409.415659 0.6600 0.6620 0.6700 0.6740 0.6750
414.285794 0.6780 0.6820 0.6830 0.6860 0.6870
419.155928 0.6870 0.6870 0.6880 0.6880 0.6890
424.026063 0.6890 0.6890 0.6880 0.6790 0.6710
428.896198 0.6690 0.6650 0.6530 0.6420 0.6390
433.766333 0.6420 0.6530 0.6729 0.6999 0.7149
438.636467 0.7270 0.7350 0.7450 0.7590 0.7670
443.506602 0.7720 0.7760 0.7800 0.7840 0.7860
448.376737 0.7880 0.7900 0.7910 0.7950 0.7990
453.246872 0.8010 0.8020 0.8040 0.8060 0.8070
458.117006 0.8080 0.8100 0.8100 0.8110 0.8110
462.987141 0.8120 0.8120 0.8120 0.8120 0.8120
467.857276 0.8120 0.8120 0.8120 0.8110 0.8110
472.727411 0.8100 0.8080 0.8080 0.8040 0.8020
477.597545 0.7950 0.7900 0.7620 0.7240 0.6950
482.467680 0.6780 0.6610 0.6271 0.5941 0.5731
487.337815 0.5590 0.5590 0.5940 0.5980 0.6748
492.207950 0.6999 0.7140 0.7200 0.7270 0.7360
497.078084 0.7400 0.7420 0.7450 0.7450 0.7460
501.948219 0.7550 0.7670 0.7760 0.7860 0.7950
506.818354 0.8010 0.8030 0.8060 0.8110 0.8220
511.688488 0.8260 0.8290 0.8300 0.8320 0.8340
516.558623 0.8350 0.8350 0.8370 0.8370 0.8380
521.428758 0.8390 0.8420 0.8420 0.8420 0.8410
526.298893 0.8410 0.8390 0.8370 0.8340 0.8320
531.169027 0.8290 0.8280 0.8250 0.8220 0.8190
536.039162 0.8020 0.7540 0.6831 0.6660 0.6490
540.909297 0.6091 0.5512 0.5510 0.5978 0.6050
545.779432 0.6700 0.7040 0.7310 0.7530 0.7700
550.649566 0.7820 0.7940 0.8040 0.8100 0.8160
555.519701 0.8200 0.8220 0.8250 0.8290 0.8330
560.389836 0.8370 0.8390 0.8440 0.8470 0.8480
565.259971 0.8500 0.8510 0.8510 0.8520 0.8520
570.130105 0.8550 0.8560 0.8560 0.8570 0.8590
575.000240 0.8590 0.8600 0.8610 0.8630 0.8630
579.870375 0.8640 0.8650 0.8650 0.8680 0.8680
584.740510 0.8690 0.8690 0.8690 0.8700 0.8700
589.610644 0.8700 0.8700 0.8700 0.8690 0.8680
594.480779 0.8680 0.8640 0.8600 0.8560 0.8390
599.350914 0.8240 0.8100 0.7861 0.7840 0.7840
604.221048 0.7860 0.7880 0.7910 0.7910 0.7900
609.091183 0.7850 0.7760 0.7621 0.7331 0.6862
613.961318 0.6570 0.6290 0.5730 0.5251 0.4192
618.831453 0.3921 0.3920 0.4438 0.4520 0.5366
623.701587 0.6670 0.7220 0.7660 0.7930 0.8160
628.571722 0.8340 0.8480 0.8590 0.8680 0.8730
633.441857 0.8770 0.8790 0.8810 0.8810 0.8810
638.311992 0.8810 0.8820 0.8820 0.8830 0.8850
643.182126 0.8850 0.8860 0.8860 0.8860 0.8860
648.052261 0.8850 0.8850 0.8830 0.8830 0.8830
652.922396 0.8820 0.8810 0.8790 0.8780 0.8750
657.792531 0.8730 0.8690 0.8660 0.8640 0.8610
662.662665 0.8590 0.8590 0.8560 0.8520 0.8470
667.532800 0.8410 0.8320 0.8151 0.7911 0.7422
672.402935 0.6880 0.6620 0.6360 0.4892 0.3513
677.273070 0.3111 0.2711 0.2172 0.2170 0.2727
682.143204 0.3850 0.4450 0.5059 0.5649 0.6199
687.013339 0.7038 0.7279 0.7370 0.7719 0.8019
691.883474 0.8060 0.8080 0.8220 0.8370 0.8460
696.753608 0.8520 0.8540 0.8550 0.8550 0.8600
701.623743 0.8630 0.8640 0.8650 0.8660 0.8680
706.493878 0.8700 0.8740 0.8770 0.8810 0.8830
711.364013 0.8870 0.8880 0.8880 0.8900 0.8910
716.234147 0.8910 0.8920 0.8940 0.8970 0.8990
721.104282 0.9010 0.9030 0.9040 0.9040 0.9050
725.974417 0.9050 0.9040 0.9040 0.9030 0.9030
730.844552 0.8990 0.8960 0.8940 0.8920 0.8940
735.714686 0.8970 0.9010 0.9050 0.9060 0.9080
740.584821 0.9080 0.9090 0.9090 0.9100 0.9100
745.454956 0.9100 0.9100 0.9100 0.9100 0.9090
750.325091 0.9080 0.9080 0.9060 0.9050 0.9040
755.195225 0.9030 0.9010 0.9000 0.9000 0.8990
760.065360 0.9000 0.9000 0.9010 0.9030 0.9040
764.935495 0.9050 0.9060 0.9080 0.9090 0.9100
769.805630 0.9100 0.9100 0.9120 0.9120 0.9120
774.675764 0.9120 0.9120 0.9120 0.9100 0.9090
779.545899 0.9090 0.9080 0.9060 0.9040 0.9010
784.416034 0.8970 0.8940 0.8910 0.8880 0.8850
789.286169 0.8790 0.8720 0.8600 0.8430 0.8220
794.156303 0.7951 0.7621 0.7192 0.6692 0.6481
799.026438 0.6270 0.5850 0.5420 0.5000 0.4591
803.896573 0.4211 0.3851 0.3501 0.3351 0.3201
808.766707 0.2940 0.2730 0.2570 0.2510 0.2510
813.636842 0.2660 0.2969 0.3498 0.3749 0.3999
818.506977 0.4260 0.4620 0.5110 0.5520 0.5850
823.377112 0.6020 0.6259 0.6769 0.7049 0.7060
828.247246 0.7060 0.7000 0.6740 0.6480 0.6440
833.117381 0.6440 0.6709 0.6770 0.7696 0.8009
837.987516 0.8220 0.8380 0.8470 0.8510 0.8550
842.857651 0.8550 0.8550 0.8550 0.8540 0.8510
847.727785 0.8460 0.8420 0.8330 0.8170 0.7970
852.597920 0.7720 0.7451 0.7171 0.6841 0.6691
857.468055 0.6520 0.6200 0.5890 0.5580 0.5281
862.338190 0.4981 0.4970 0.5000 0.5159 0.5359
867.208324 0.5560 0.5810 0.6050 0.6310 0.6839
872.078459 0.7099 0.7349 0.7579 0.7809 0.8009
876.948594 0.8170 0.8320 0.8470 0.8600 0.8720
881.818729 0.8820 0.8910 0.8970 0.9040 0.9090
886.688863 0.9130 0.9160 0.9190 0.9210 0.9230
891.558998 0.9250 0.9260 0.9270 0.9280 0.9280
896.429133 0.9280 0.9280 0.9300 0.9300 0.9300
901.299267 0.9300 0.9300 0.9280 0.9280 0.9280
906.169402 0.9280 0.9280 0.9280 0.9270 0.9270
911.039537 0.9260 0.9260 0.9250 0.9250 0.9250
915.909672 0.9250 0.9250 0.9250 0.9230 0.9230
920.779806 0.9230 0.9220 0.9220 0.9180 0.9170
925.649941 0.9160 0.9130 0.9100 0.9080 0.9040
930.520076 0.8990 0.8920 0.8870 0.8850 0.8830
935.390211 0.8790 0.8740 0.8720 0.8700 0.8720
940.260345 0.8720 0.8750 0.8780 0.8810 0.8820
945.130480 0.8850 0.8860 0.8870 0.8900 0.8910
950.000615 0.8920 0.8940 0.8970 0.9000 0.9030
954.870750 0.9040 0.9060 0.9080 0.9090 0.9100
959.740884 0.9130 0.9160 0.9180 0.9210 0.9210
964.611019 0.9230 0.9250 0.9260 0.9260 0.9260
969.481154 0.9270 0.9270 0.9270 0.9260 0.9250
974.351289 0.9250 0.9250 0.9260 0.9260 0.9280
979.221423 0.9280 0.9300 0.9300 0.9300 0.9300
984.091558 0.9300 0.9300 0.9300 0.9280 0.9280
988.961693 0.9280 0.9280 0.9270 0.9270 0.9260
993.831827 0.9230 0.9220 0.9210 0.9180 0.9180
998.701962 0.9160 0.9100 0.9040 0.8960 0.8900
1003.572097 0.8830 0.8780 0.8770 0.8730 0.8700
1008.442232 0.8700 0.8690 0.8690 0.8700 0.8700
1013.312366 0.8720 0.8730 0.8740 0.8740 0.8730
1018.182501 0.8730 0.8720 0.8720 0.8720 0.8660
1023.052636 0.8610 0.8570 0.8570 0.8560 0.8500
1027.922771 0.8470 0.8241 0.8031 0.7502 0.7181
1032.792905 0.6730 0.6259 0.4870 0.4260 0.3611
1037.663040 0.3610 0.4079 0.4399 0.4530 0.4849
1042.533175 0.5191 0.5741 0.6770 0.7200 0.7590
1047.403310 0.7910 0.8169 0.8340 0.8420 0.8440
1052.273444 0.8460 0.8440 0.8430 0.8420 0.8380
1057.143579 0.8340 0.8280 0.8220 0.8160 0.8150
1062.013714 0.8040 0.7860 0.7620 0.7330 0.7020
1066.883849 0.6711 0.6570 0.6420 0.6141 0.5931
1071.753983 0.5760 0.5400 0.5380 0.5400 0.5500
1076.624118 0.5650 0.6019 0.6259 0.6350 0.6709
1081.494253 0.6890 0.7060 0.7050 0.6970 0.6930
1086.364388 0.6890 0.6820 0.6790 0.6740 0.6690
1091.234522 0.6690 0.6770 0.6830 0.6890 0.6960
1096.104657 0.7020 0.7090 0.7140 0.7200 0.7220
1100.974792 0.7230 0.7230 0.7220 0.7200 0.7200
1105.844926 0.7200 0.7190 0.7180 0.7150 0.7130
1110.715061 0.7080 0.7020 0.6970 0.6920 0.6860
1115.585196 0.6780 0.6700 0.6650 0.6600 0.6470
1120.455331 0.6330 0.6140 0.5980 0.5960 0.5980
1125.325465 0.5990 0.6110 0.6180 0.6250 0.6290
1130.195600 0.6290 0.6240 0.6200 0.6130 0.6110
1135.065735 0.6070 0.6000 0.5980 0.5980 0.5990
1139.935870 0.6020 0.6120 0.6180 0.6290 0.6340
1144.806004 0.6350 0.6350 0.6350 0.6330 0.6260
1149.676139 0.6180 0.6080 0.5960 0.5820 0.5650
1154.546274 0.5490 0.5290 0.5091 0.4851 0.4611
1159.416409 0.4350 0.4060 0.3750 0.3540 0.3430
1164.286543 0.3320 0.3111 0.2901 0.2711 0.2511
1169.156678 0.2320 0.2140 0.1960 0.1780 0.1610
1174.026813 0.1440 0.1270 0.1111 0.0931 0.0781
1178.896948 0.0720 0.0710 0.0690 0.0710 0.0720
1183.767082 0.0770 0.0810 0.0860 0.0960 0.1050
1188.637217 0.1170 0.1270 0.1390 0.1520 0.1660
1193.507352 0.1800 0.1950 0.2100 0.2260 0.2409
1198.377486 0.2580 0.2750 0.2910 0.3080 0.3429
1203.247621 0.3600 0.3770 0.3939 0.4099 0.4259
1208.117756 0.4440 0.4620 0.4790 0.4960 0.5140
1212.987891 0.5290 0.5460 0.5600 0.5759 0.5899
1217.858025 0.6030 0.6140 0.6330 0.6440 0.6550
1222.728160 0.6690 0.6750 0.6790 0.6800 0.6800
1227.598295 0.6790 0.6730 0.6670 0.6610 0.6430
1232.468430 0.6180 0.5861 0.5471 0.5011 0.4452
1237.338564 0.4030 0.3650 0.3380 0.3110 0.2551
1242.208699 0.2550 0.2819 0.3378 0.3719 0.4138
1247.078834 0.4650 0.5070 0.5290 0.5400 0.6019
1251.948969 0.6030 0.6030 0.5990 0.5980 0.5950
1256.819103 0.5910 0.5870 0.5830 0.5770 0.5600
1261.689238 0.5360 0.5031 0.4661 0.4211 0.3772
1266.559373 0.3340 0.3150 0.2940 0.2580 0.2230
1271.429508 0.1930 0.1661 0.1441 0.1261 0.1130
1276.299642 0.0930 0.0900 0.0900 0.1090 0.1360
1281.169777 0.1749 0.2309 0.2639 0.3676 0.4248
1286.039912 0.4800 0.5240 0.5780 0.6240 0.6889
1290.910046 0.7130 0.7310 0.7450 0.7550 0.7630
1295.780181 0.7680 0.7700 0.7710 0.7680 0.7620
1300.650316 0.7540 0.7460 0.7360 0.7260 0.7130
1305.520451 0.6960 0.6840 0.6750 0.6670 0.6620
1310.390585 0.6560 0.6381 0.6091 0.5801 0.5471
1315.260720 0.5110 0.4780 0.4470 0.4210 0.4030
1320.130855 0.3731 0.3700 0.3720 0.3770 0.3850
1325.000990 0.4050 0.4260 0.4700 0.5160 0.5180
1329.871124 0.5250 0.5430 0.5679 0.5939 0.6020
1334.741259 0.6160 0.6300 0.6420 0.6520 0.6710
1339.611394 0.6800 0.6870 0.6950 0.7010 0.7060
1344.481529 0.7110 0.7170 0.7200 0.7260 0.7280
1349.351663 0.7320 0.7360 0.7400 0.7420 0.7460
1354.221798 0.7490 0.7510 0.7550 0.7620 0.7670
1359.091933 0.7750 0.7810 0.7860 0.7860 0.7910
1363.962068 0.7950 0.7970 0.7970 0.7970 0.7970
1368.832202 0.7950 0.7940 0.7930 0.7930 0.7910
1373.702337 0.7900 0.7890 0.7860 0.7810 0.7760
1378.572472 0.7700 0.7590 0.7460 0.7181 0.6771
1383.442606 0.6520 0.6270 0.5730 0.5201 0.4701
1388.312741 0.4281 0.3971 0.3820 0.3651 0.3501
1393.182876 0.3480 0.3500 0.3600 0.3740 0.3940
1398.053011 0.4249 0.4410 0.4799 0.5109 0.5369
1402.923145 0.5550 0.5710 0.5820 0.5930 0.6000
1407.793280 0.6090 0.6200 0.6310 0.6450 0.6779
1412.663415 0.6910 0.7010 0.7100 0.7180 0.7240
1417.533550 0.7290 0.7330 0.7360 0.7370 0.7390
1422.403684 0.7390 0.7400 0.7410 0.7420 0.7450
1427.273819 0.7510 0.7550 0.7580 0.7620 0.7660
1432.143954 0.7670 0.7680 0.7680 0.7660 0.7600
1437.014089 0.7550 0.7500 0.7450 0.7271 0.7091
1441.884223 0.6920 0.6730 0.6640 0.6530 0.6310
1446.754358 0.6080 0.5821 0.5511 0.4982 0.4522
1451.624493 0.4129 0.3790 0.3520 0.3420 0.3300
1456.494628 0.3150 0.3040 0.2980 0.2970 0.2840
1461.364762 0.2630 0.2350 0.2040 0.1710 0.1390
1466.234897 0.1081 0.0811 0.0591 0.0291 0.0280
1471.105032 0.0290 0.0400 0.0420 0.0490 0.0710
1475.975167 0.0900 0.1090 0.1250 0.1400 0.1520
1480.845301 0.1610 0.1670 0.1730 0.1800 0.1910
1485.715436 0.2060 0.2280 0.2599 0.3826 0.4249
1490.585571 0.4971 0.5561 0.6050 0.6800 0.7090
1495.455705 0.7330 0.7550 0.7770 0.8009 0.8120
1500.325840 0.8150 0.8210 0.8370 0.8480 0.8550
1505.195975 0.8680 0.8740 0.8780 0.8790 0.8810
1510.066110 0.8820 0.8860 0.8880 0.8900 0.8910
1514.936244 0.8920 0.8950 0.8970 0.9000 0.9010
1519.806379 0.9040 0.9050 0.9090 0.9100 0.9120
1524.676514 0.9120 0.9120 0.9130 0.9140 0.9140
1529.546649 0.9140 0.9160 0.9170 0.9190 0.9210
1534.416783 0.9220 0.9220 0.9230 0.9230 0.9220
1539.286918 0.9220 0.9210 0.9210 0.9210 0.9180
1544.157053 0.9180 0.9170 0.9130 0.9080 0.9010
1549.027188 0.8960 0.8880 0.8790 0.8700 0.8610
1553.897322 0.8540 0.8440 0.8370 0.8290 0.8220
1558.767457 0.8210 0.8150 0.8070 0.7990 0.7850
1563.637592 0.7640 0.7410 0.7111 0.6791 0.6621
1568.507727 0.6439 0.6070 0.5670 0.5250 0.4870
1573.377861 0.4840 0.4870 0.4940 0.5020 0.5180
1578.247996 0.5320 0.5460 0.5590 0.5590 0.5470
1583.118131 0.5420 0.5420 0.5600 0.5949 0.6827
1587.988265 0.7190 0.7500 0.7760 0.7990 0.8190
1592.858400 0.8340 0.8470 0.8570 0.8650 0.8720
1597.728535 0.8750 0.8790 0.8820 0.8850 0.8860
1602.598670 0.8900 0.8910 0.8940 0.8950 0.8970
1607.468804 0.8990 0.8990 0.9010 0.9010 0.9030
1612.338939 0.9040 0.9040 0.9050 0.9050 0.9060
1617.209074 0.9060 0.9060 0.9050 0.9050 0.9040
1622.079209 0.9040 0.9040 0.9050 0.9050 0.9060
1626.949343 0.9060 0.9080 0.9100 0.9100 0.9120
1631.819478 0.9120 0.9130 0.9140 0.9170 0.9220
1636.689613 0.9230 0.9250 0.9280 0.9300 0.9300
1641.559748 0.9310 0.9320 0.9340 0.9340 0.9350
1646.429882 0.9360 0.9360 0.9360 0.9370 0.9370
1651.300017 0.9390 0.9390 0.9390 0.9390 0.9370
1656.170152 0.9370 0.9370 0.9360 0.9350 0.9350
1661.040287 0.9350 0.9340 0.9340 0.9340 0.9340
1665.910421 0.9340 0.9320 0.9320 0.9340 0.9350
1670.780556 0.9360 0.9370 0.9400 0.9400 0.9410
1675.650691 0.9430 0.9430 0.9430 0.9440 0.9440
1680.520825 0.9440 0.9440 0.9440 0.9440 0.9450
1685.390960 0.9450 0.9450 0.9440 0.9440 0.9430
1690.261095 0.9430 0.9410 0.9400 0.9390 0.9390
1695.131230 0.9390 0.9370 0.9370 0.9370 0.9370
1700.001364 0.9360 0.9360 0.9350 0.9340 0.9340
1704.871499 0.9320 0.9320 0.9320 0.9310 0.9280
1709.741634 0.9270 0.9260 0.9250 0.9250 0.9230
1714.611769 0.9220 0.9210 0.9190 0.9180 0.9170
1719.481903 0.9160 0.9130 0.9120 0.9090 0.9080
1724.352038 0.9060 0.9050 0.9040 0.9040 0.9050
1729.222173 0.9060 0.9080 0.9090 0.9100 0.9120
1734.092308 0.9140 0.9160 0.9160 0.9170 0.9180
1738.962442 0.9190 0.9210 0.9220 0.9230 0.9250
1743.832577 0.9250 0.9260 0.9260 0.9260 0.9270
1748.702712 0.9270 0.9280 0.9280 0.9310 0.9340
1753.572847 0.9350 0.9360 0.9370 0.9390 0.9390
1758.442981 0.9410 0.9410 0.9410 0.9430 0.9440
1763.313116 0.9440 0.9450 0.9450 0.9470 0.9480
1768.183251 0.9490 0.9500 0.9500 0.9500 0.9520
1773.053386 0.9520 0.9520 0.9520 0.9530 0.9530
1777.923520 0.9530 0.9530 0.9530 0.9530 0.9530
1782.793655 0.9530 0.9530 0.9530 0.9530 0.9530
1787.663790 0.9530 0.9530 0.9530 0.9530 0.9520
1792.533924 0.9520 0.9500 0.9500 0.9490 0.9490
1797.404059 0.9470 0.9470 0.9450 0.9450 0.9450
1802.274194 0.9440 0.9430 0.9430 0.9430 0.9430
1807.144329 0.9430 0.9410 0.9410 0.9410 0.9410
1812.014463 0.9430 0.9430 0.9440 0.9440 0.9440
1816.884598 0.9440 0.9450 0.9450 0.9470 0.9470
1821.754733 0.9480 0.9490 0.9490 0.9500 0.9500
1826.624868 0.9500 0.9500 0.9500 0.9500 0.9520
1831.495002 0.9520 0.9530 0.9530 0.9540 0.9540
1836.365137 0.9540 0.9540 0.9540 0.9540 0.9540
1841.235272 0.9530 0.9530 0.9530 0.9530 0.9530
1846.105407 0.9500 0.9490 0.9480 0.9480 0.9470
1850.975541 0.9470 0.9450 0.9440 0.9410 0.9410
1855.845676 0.9400 0.9370 0.9350 0.9320 0.9300
1860.715811 0.9280 0.9260 0.9260 0.9250 0.9230
1865.585946 0.9220 0.9190 0.9180 0.9170 0.9160
1870.456080 0.9140 0.9130 0.9120 0.9120 0.9120
1875.326215 0.9120 0.9120 0.9120 0.9130 0.9140
1880.196350 0.9170 0.9190 0.9220 0.9250 0.9250
1885.066484 0.9270 0.9270 0.9280 0.9300 0.9310
1889.936619 0.9320 0.9340 0.9360 0.9370 0.9390
1894.806754 0.9400 0.9400 0.9410 0.9410 0.9430
1899.676889 0.9430 0.9430 0.9430 0.9440 0.9450
1904.547023 0.9450 0.9450 0.9450 0.9470 0.9480
1909.417158 0.9490 0.9490 0.9500 0.9500 0.9520
1914.287293 0.9520 0.9520 0.9520 0.9520 0.9520
1919.157428 0.9520 0.9530 0.9530 0.9540 0.9560
1924.027562 0.9560 0.9560 0.9560 0.9560 0.9560
1928.897697 0.9560 0.9560 0.9560 0.9560 0.9560
1933.767832 0.9560 0.9540 0.9540 0.9540 0.9540
1938.637967 0.9530 0.9530 0.9530 0.9520 0.9520
1943.508101 0.9520 0.9500 0.9500 0.9500 0.9500
1948.378236 0.9490 0.9490 0.9490 0.9480 0.9480
1953.248371 0.9480 0.9480 0.9470 0.9470 0.9470
1958.118506 0.9470 0.9450 0.9450 0.9450 0.9450
1962.988640 0.9470 0.9470 0.9470 0.9480 0.9480
1967.858775 0.9490 0.9500 0.9530 0.9530 0.9530
1972.728910 0.9540 0.9540 0.9540 0.9540 0.9540
1977.599044 0.9540 0.9540 0.9540 0.9540 0.9540
1982.469179 0.9540 0.9540 0.9560 0.9560 0.9560
1987.339314 0.9560 0.9560 0.9560 0.9560 0.9560
1992.209449 0.9560 0.9560 0.9560 0.9560 0.9540
1997.079583 0.9540 0.9540 0.9520 0.9500 0.9495
2001.949718 0.9490 0.9485 0.9480 0.9480 0.9480
2006.819853 0.9480 0.9480 0.9480 0.9480 0.9480
2011.689988 0.9480 0.9485 0.9490 0.9490 0.9490
2016.560122 0.9490 0.9490 0.9485 0.9480 0.9485
2021.430257 0.9490 0.9490 0.9490 0.9495 0.9500
2026.300392 0.9500 0.9500 0.9500 0.9500 0.9495
2031.170527 0.9490 0.9490 0.9490 0.9485 0.9480
2036.040661 0.9480 0.9480 0.9480 0.9480 0.9480
2040.910796 0.9480 0.9480 0.9480 0.9485 0.9490
2045.780931 0.9490 0.9490 0.9490 0.9490 0.9490
2050.651066 0.9490 0.9490 0.9490 0.9490 0.9490
2055.521200 0.9485 0.9480 0.9465 0.9450 0.9440
2060.391335 0.9430 0.9420 0.9410 0.9410 0.9410
2065.261470 0.9410 0.9410 0.9410 0.9410 0.9420
2070.131605 0.9430 0.9435 0.9440 0.9440 0.9440
2075.001739 0.9440 0.9440 0.9445 0.9450 0.9450
2079.871874 0.9450 0.9450 0.9450 0.9450 0.9450
2084.742009 0.9445 0.9440 0.9435 0.9430 0.9420
2089.612143 0.9410 0.9410 0.9410 0.9405 0.9400
2094.482278 0.9400 0.9400 0.9395 0.9390 0.9375
2099.352413 0.9360 0.9355 0.9350 0.9350 0.9350
2104.222548 0.9350 0.9350 0.9355 0.9360 0.9360
2109.092682 0.9360 0.9375 0.9390 0.9390 0.9390
2113.962817 0.9395 0.9400 0.9405 0.9410 0.9425
2118.832952 0.9440 0.9445 0.9450 0.9460 0.9470
2123.703087 0.9470 0.9470 0.9470 0.9470 0.9475
2128.573221 0.9480 0.9480 0.9480 0.9480 0.9480
2133.443356 0.9475 0.9470 0.9460 0.9450 0.9450
2138.313491 0.9450 0.9450 0.9450 0.9450 0.9450
2143.183626 0.9445 0.9440 0.9440 0.9440 0.9440
2148.053760 0.9440 0.9445 0.9450 0.9450 0.9450
2152.923895 0.9450 0.9450 0.9460 0.9470 0.9470
2157.794030 0.9470 0.9470 0.9470 0.9475 0.9480
2162.664165 0.9485 0.9490 0.9490 0.9490 0.9490
2167.534299 0.9490 0.9485 0.9480 0.9480 0.9480
2172.404434 0.9480 0.9480 0.9475 0.9470 0.9475
2177.274569 0.9480 0.9480 0.9480 0.9475 0.9470
2182.144703 0.9470 0.9470 0.9460 0.9450 0.9445
2187.014838 0.9440 0.9435 0.9430 0.9430 0.9430
2191.884973 0.9430 0.9430 0.9430 0.9430 0.9435
2196.755108 0.9440 0.9445 0.9450 0.9450 0.9450
2201.625242 0.9445 0.9440 0.9435 0.9430 0.9420
2206.495377 0.9410 0.9410 0.9410 0.9410 0.9410
2211.365512 0.9420 0.9430 0.9430 0.9430 0.9430
2216.235647 0.9430 0.9420 0.9410 0.9410 0.9410
2221.105781 0.9410 0.9410 0.9410 0.9410 0.9410
2225.975916 0.9410 0.9410 0.9410 0.9410 0.9410
2230.846051 0.9410 0.9410 0.9410 0.9410 0.9405
2235.716186 0.9400 0.9400 0.9400 0.9400 0.9400
2240.586320 0.9395 0.9390 0.9390 0.9390 0.9390
2245.456455 0.9390 0.9390 0.9390 0.9390 0.9390
2250.326590 0.9390 0.9390 0.9390 0.9390 0.9390
2255.196725 0.9390 0.9380 0.9370 0.9370 0.9370
2260.066859 0.9365 0.9360 0.9360 0.9360 0.9355
2264.936994 0.9350 0.9350 0.9350 0.9350 0.9350
2269.807129 0.9350 0.9350 0.9350 0.9350 0.9350
2274.677263 0.9350 0.9350 0.9350 0.9350 0.9350
2279.547398 0.9350 0.9350 0.9345 0.9340 0.9340
2284.417533 0.9340 0.9340 0.9340 0.9340 0.9340
2289.287668 0.9340 0.9340 0.9340 0.9340 0.9340
2294.157802 0.9340 0.9330 0.9320 0.9320 0.9320
2299.027937 0.9320 0.9320 0.9315 0.9310 0.9295
2303.898072 0.9280 0.9275 0.9270 0.9270 0.9270
2308.768207 0.9270 0.9270 0.9275 0.9280 0.9295
2313.638341 0.9310 0.9325 0.9340 0.9345 0.9350
2318.508476 0.9355 0.9360 0.9365 0.9370 0.9370
2323.378611 0.9370 0.9370 0.9370 0.9380 0.9390
2328.248746 0.9390 0.9390 0.9390 0.9390 0.9390
2333.118880 0.9390 0.9390 0.9390 0.9390 0.9390
2337.989015 0.9390 0.9390 0.9380 0.9370 0.9360
2342.859150 0.9350 0.9350 0.9350 0.9345 0.9340
2347.729285 0.9340 0.9340 0.9340 0.9340 0.9340
2352.599419 0.9340 0.9340 0.9340 0.9340 0.9340
2357.469554 0.9340 0.9340 0.9340 0.9340 0.9340
2362.339689 0.9340 0.9340 0.9340 0.9340 0.9340
2367.209823 0.9340 0.9340 0.9340 0.9340 0.9330
2372.079958 0.9320 0.9320 0.9320 0.9320 0.9320
2376.950093 0.9315 0.9310 0.9310 0.9310 0.9305
2381.820228 0.9300 0.9300 0.9300 0.9300 0.9300
2386.690362 0.9290 0.9280 0.9280 0.9280 0.9280
2391.560497 0.9280 0.9275 0.9270 0.9270 0.9270
2396.430632 0.9265 0.9260 0.9260 0.9260 0.9260
2401.300767 0.9260 0.9255 0.9250 0.9250 0.9250
2406.170901 0.9250 0.9250 0.9250 0.9250 0.9250
2411.041036 0.9250 0.9250 0.9250 0.9240 0.9230
2415.911171 0.9230 0.9230 0.9230 0.9230 0.9230
2420.781306 0.9230 0.9230 0.9230 0.9230 0.9230
2425.651440 0.9225 0.9220 0.9220 0.9220 0.9220
2430.521575 0.9220 0.9220 0.9220 0.9220 0.9220
2435.391710 0.9220 0.9220 0.9220 0.9220 0.9220
2440.261845 0.9220 0.9220 0.9220 0.9220 0.9220
2445.131979 0.9215 0.9210 0.9210 0.9210 0.9195
2450.002114 0.9180 0.9175 0.9170 0.9165 0.9160
2454.872249 0.9150 0.9140 0.9140 0.9140 0.9140
2459.742384 0.9140 0.9150 0.9160 0.9165 0.9170
2464.612518 0.9175 0.9180 0.9180 0.9180 0.9185
2469.482653 0.9190 0.9190 0.9190 0.9185 0.9180
2474.352788 0.9185 0.9190 0.9190 0.9190 0.9200
2479.222922 0.9210 0.9215 0.9220 0.9220 0.9220
2484.093057 0.9220 0.9220 0.9215 0.9210 0.9210
2488.963192 0.9210 0.9210 0.9210 0.9210 0.9210
2493.833327 0.9210 0.9210 0.9195 0.9180 0.9170
2498.703461 0.9160 0.9160 0.9160 0.9145 0.9130
2503.573596 0.9130 0.9130 0.9125 0.9120 0.9120
2508.443731 0.9120 0.9120 0.9120 0.9110 0.9100
2513.313866 0.9100 0.9100 0.9095 0.9090 0.9095
2518.184000 0.9100 0.9100 0.9100 0.9110 0.9120
2523.054135 0.9120 0.9120 0.9120 0.9120 0.9125
2527.924270 0.9130 0.9135 0.9140 0.9140 0.9140
2532.794405 0.9140 0.9140 0.9140 0.9140 0.9140
2537.664539 0.9140 0.9135 0.9130 0.9130 0.9130
2542.534674 0.9130 0.9130 0.9130 0.9130 0.9130
2547.404809 0.9130 0.9135 0.9140 0.9150 0.9160
2552.274944 0.9160 0.9160 0.9160 0.9160 0.9165
2557.145078 0.9170 0.9170 0.9170 0.9170 0.9170
2562.015213 0.9170 0.9170 0.9175 0.9180 0.9180
2566.885348 0.9180 0.9180 0.9180 0.9175 0.9170
2571.755482 0.9170 0.9170 0.9170 0.9170 0.9180
2576.625617 0.9190 0.9190 0.9190 0.9190 0.9190
2581.495752 0.9185 0.9180 0.9180 0.9180 0.9180
2586.365887 0.9180 0.9180 0.9180 0.9180 0.9180
2591.236021 0.9180 0.9180 0.9180 0.9180 0.9180
2596.106156 0.9180 0.9180 0.9180 0.9180 0.9180
2600.976291 0.9180 0.9180 0.9180 0.9180 0.9180
2605.846426 0.9180 0.9180 0.9180 0.9180 0.9180
2610.716560 0.9180 0.9180 0.9180 0.9180 0.9180
2615.586695 0.9180 0.9175 0.9170 0.9165 0.9160
2620.456830 0.9160 0.9160 0.9150 0.9140 0.9140
2625.326965 0.9140 0.9140 0.9140 0.9140 0.9140
2630.197099 0.9140 0.9140 0.9140 0.9140 0.9140
2635.067234 0.9140 0.9135 0.9130 0.9130 0.9130
2639.937369 0.9130 0.9130 0.9130 0.9130 0.9125
2644.807504 0.9120 0.9120 0.9120 0.9120 0.9120
2649.677638 0.9125 0.9130 0.9135 0.9140 0.9140
2654.547773 0.9140 0.9140 0.9140 0.9140 0.9140
2659.417908 0.9150 0.9160 0.9160 0.9160 0.9165
2664.288042 0.9170 0.9170 0.9170 0.9170 0.9170
2669.158177 0.9170 0.9170 0.9175 0.9180 0.9180
2674.028312 0.9180 0.9175 0.9170 0.9175 0.9180
2678.898447 0.9180 0.9180 0.9180 0.9180 0.9180
2683.768581 0.9180 0.9180 0.9180 0.9180 0.9180
2688.638716 0.9185 0.9190 0.9185 0.9180 0.9180
2693.508851 0.9180 0.9175 0.9170 0.9170 0.9170
2698.378986 0.9165 0.9160 0.9160 0.9160 0.9150
2703.249120 0.9140 0.9135 0.9130 0.9130 0.9130
2708.119255 0.9130 0.9130 0.9125 0.9120 0.9120
2712.989390 0.9120 0.9120 0.9120 0.9120 0.9120
2717.859525 0.9120 0.9120 0.9120 0.9120 0.9110
2722.729659 0.9100 0.9100 0.9100 0.9095 0.9090
2727.599794 0.9090 0.9090 0.9090 0.9090 0.9090
2732.469929 0.9090 0.9085 0.9080 0.9080 0.9080
2737.340064 0.9070 0.9060 0.9060 0.9060 0.9060
2742.210198 0.9060 0.9060 0.9060 0.9055 0.9050
2747.080333 0.9050 0.9050 0.9045 0.9040 0.9040
2751.950468 0.9040 0.9040 0.9040 0.9040 0.9040
2756.820603 0.9045 0.9050 0.9055 0.9060 0.9070
2761.690737 0.9080 0.9080 0.9080 0.9080 0.9080
2766.560872 0.9080 0.9080 0.9080 0.9080 0.9070
2771.431007 0.9060 0.9055 0.9050 0.9045 0.9040
2776.301141 0.9040 0.9040 0.9035 0.9030 0.9030
2781.171276 0.9030 0.9030 0.9030 0.9030 0.9030
2786.041411 0.9030 0.9030 0.9020 0.9010 0.9010
2790.911546 0.9010 0.9005 0.9000 0.9000 0.9000
2795.781680 0.8995 0.8990 0.8990 0.8990 0.8980
2800.651815 0.8970 0.8970 0.8970 0.8970 0.8970
2805.521950 0.8970 0.8970 0.8970 0.8970 0.8965
2810.392085 0.8960 0.8960 0.8960 0.8955 0.8950
2815.262219 0.8945 0.8940 0.8940 0.8940 0.8940
2820.132354 0.8940 0.8930 0.8920 0.8920 0.8920
2825.002489 0.8920 0.8920 0.8920 0.8920 0.8920
2829.872624 0.8920 0.8920 0.8920 0.8920 0.8920
2834.742758 0.8915 0.8910 0.8910 0.8910 0.8905
2839.612893 0.8900 0.8890 0.8880 0.8865 0.8850
2844.483028 0.8835 0.8820 0.8800 0.8780 0.8765
2849.353163 0.8750 0.8745 0.8740 0.8730 0.8720
2854.223297 0.8700 0.8680 0.8665 0.8650 0.8640
2859.093432 0.8630 0.8620 0.8610 0.8605 0.8600
2863.963567 0.8600 0.8600 0.8595 0.8590 0.8580
2868.833701 0.8570 0.8565 0.8560 0.8555 0.8550
2873.703836 0.8545 0.8540 0.8530 0.8520 0.8520
2878.573971 0.8520 0.8520 0.8520 0.8515 0.8510
2883.444106 0.8510 0.8510 0.8505 0.8500 0.8505
2888.314240 0.8510 0.8505 0.8500 0.8500 0.8500
2893.184375 0.8490 0.8480 0.8490 0.8500 0.8500
2898.054510 0.8500 0.8500 0.8500 0.8500 0.8500
2902.924645 0.8505 0.8510 0.8510 0.8510 0.8510
2907.794779 0.8510 0.8510 0.8510 0.8510 0.8510
2912.664914 0.8515 0.8520 0.8535 0.8550 0.8555
2917.535049 0.8560 0.8565 0.8570 0.8570 0.8570
2922.405184 0.8580 0.8590 0.8590 0.8590 0.8595
2927.275318 0.8600 0.8600 0.8600 0.8605 0.8610
2932.145453 0.8625 0.8640 0.8645 0.8650 0.8655
2937.015588 0.8660 0.8670 0.8680 0.8685 0.8690
2941.885723 0.8695 0.8700 0.8710 0.8720 0.8725
2946.755857 0.8730 0.8735 0.8740 0.8740 0.8740
2951.625992 0.8745 0.8750 0.8750 0.8750 0.8760
2956.496127 0.8770 0.8775 0.8780 0.8785 0.8790
2961.366261 0.8790 0.8790 0.8800 0.8810 0.8810
2966.236396 0.8810 0.8810 0.8810 0.8815 0.8820
2971.106531 0.8820 0.8820 0.8835 0.8850 0.8855
2975.976666 0.8860 0.8865 0.8870 0.8870 0.8870
2980.846800 0.8875 0.8880 0.8880 0.8880 0.8880
2985.716935 0.8880 0.8880 0.8880 0.8880 0.8880
2990.587070 0.8880 0.8880 0.8880 0.8880 0.8875
2995.457205 0.8870 0.8865 0.8860 0.8845 0.8830
3000.327339 0.8830 0.8830 0.8825 0.8820 0.8820
3005.197474 0.8820 0.8805 0.8790 0.8785 0.8780
3010.067609 0.8775 0.8770 0.8755 0.8740 0.8730
3014.937744 0.8720 0.8710 0.8700 0.8690 0.8680
3019.807878 0.8660 0.8640 0.8620 0.8600 0.8585
3024.678013 0.8570 0.8565 0.8560 0.8550 0.8540
3029.548148 0.8540 0.8540 0.8530 0.8520 0.8515
3034.418283 0.8510 0.8510 0.8510 0.8505 0.8500
3039.288417 0.8485 0.8470 0.8455 0.8440 0.8435
3044.158552 0.8430 0.8420 0.8410 0.8410 0.8410
3049.028687 0.8395 0.8380 0.8355 0.8330 0.8295
3053.898821 0.8260 0.8235 0.8210 0.8200 0.8190
3058.768956 0.8160 0.8130 0.8085 0.8040 0.8015
3063.639091 0.7990 0.7980 0.7970 0.7970 0.7970
3068.509226 0.7960 0.7950 0.7945 0.7940 0.7925
3073.379360 0.7910 0.7895 0.7880 0.7825 0.7770
3078.249495 0.7725 0.7680 0.7650 0.7620 0.7580
3083.119630 0.7540 0.7500 0.7460 0.7450 0.7440
3087.989765 0.7445 0.7450 0.7490 0.7530 0.7565
3092.859899 0.7600 0.7640 0.7680 0.7725 0.7770
3097.730034 0.7810 0.7850 0.7890 0.7930 0.7970
3102.600169 0.8010 0.8035 0.8060 0.8080 0.8100
3107.470304 0.8105 0.8110 0.8110 0.8110 0.8110
3112.340438 0.8110 0.8115 0.8120 0.8120 0.8120
3117.210573 0.8120 0.8120 0.8120 0.8120 0.8120
3122.080708 0.8120 0.8120 0.8120 0.8120 0.8120
3126.950843 0.8120 0.8120 0.8120 0.8120 0.8120
3131.820977 0.8120 0.8120 0.8120 0.8120 0.8120
3136.691112 0.8120 0.8120 0.8115 0.8110 0.8075
3141.561247 0.8040 0.8040 0.8040 0.8025 0.8010
3146.431382 0.8000 0.7990 0.7985 0.7980 0.7965
3151.301516 0.7950 0.7950 0.7950 0.7940 0.7930
3156.171651 0.7930 0.7930 0.7920 0.7910 0.7910
3161.041786 0.7910 0.7905 0.7900 0.7895 0.7890
3165.911920 0.7890 0.7890 0.7890 0.7890 0.7890
3170.782055 0.7890 0.7895 0.7900 0.7900 0.7900
3175.652190 0.7900 0.7900 0.7895 0.7890 0.7890
3180.522325 0.7890 0.7890 0.7890 0.7890 0.7890
3185.392459 0.7885 0.7880 0.7880 0.7880 0.7880
3190.262594 0.7880 0.7880 0.7880 0.7870 0.7860
3195.132729 0.7860 0.7860 0.7860 0.7860 0.7850
3200.002864 0.7840 0.7830 0.7820 0.7815 0.7810
3204.872998 0.7810 0.7810 0.7805 0.7800 0.7795
3209.743133 0.7790 0.7770 0.7750 0.7740 0.7730
3214.613268 0.7725 0.7720 0.7715 0.7710 0.7695
3219.483403 0.7680 0.7680 0.7680 0.7675 0.7670
3224.353537 0.7670 0.7670 0.7665 0.7660 0.7650
3229.223672 0.7640 0.7635 0.7630 0.7625 0.7620
3234.093807 0.7610 0.7600 0.7590 0.7580 0.7575
3238.963942 0.7570 0.7560 0.7550 0.7545 0.7540
3243.834076 0.7535 0.7530 0.7520 0.7510 0.7505
3248.704211 0.7500 0.7500 0.7500 0.7495 0.7490
3253.574346 0.7490 0.7490 0.7490 0.7490 0.7475
3258.444480 0.7460 0.7455 0.7450 0.7450 0.7450
3263.314615 0.7445 0.7440 0.7430 0.7420 0.7415
3268.184750 0.7410 0.7410 0.7410 0.7405 0.7400
3273.054885 0.7400 0.7400 0.7395 0.7390 0.7380
3277.925019 0.7370 0.7365 0.7360 0.7340 0.7320
3282.795154 0.7300 0.7280 0.7270 0.7260 0.7250
3287.665289 0.7240 0.7235 0.7230 0.7230 0.7230
3292.535424 0.7225 0.7220 0.7220 0.7220 0.7210
3297.405558 0.7200 0.7190 0.7180 0.7175 0.7170
3302.275693 0.7155 0.7140 0.7135 0.7130 0.7120
3307.145828 0.7110 0.7105 0.7100 0.7095 0.7090
3312.015963 0.7085 0.7080 0.7070 0.7060 0.7040
3316.886097 0.7020 0.7010 0.7000 0.6980 0.6960
3321.756232 0.6945 0.6930 0.6925 0.6920 0.6915
3326.626367 0.6910 0.6900 0.6890 0.6880 0.6870
3331.496502 0.6865 0.6860 0.6845 0.6830 0.6825
3336.366636 0.6820 0.6810 0.6800 0.6800 0.6800
3341.236771 0.6790 0.6780 0.6755 0.6730 0.6710
3346.106906 0.6690 0.6680 0.6670 0.6665 0.6660
3350.977040 0.6655 0.6650 0.6645 0.6640 0.6625
3355.847175 0.6610 0.6595 0.6580 0.6570 0.6560
3360.717310 0.6555 0.6550 0.6535 0.6520 0.6505
3365.587445 0.6490 0.6465 0.6440 0.6420 0.6400
3370.457579 0.6380 0.6360 0.6345 0.6330 0.6315
3375.327714 0.6300 0.6285 0.6270 0.6260 0.6250
3380.197849 0.6235 0.6220 0.6210 0.6200 0.6185
3385.067984 0.6170 0.6155 0.6140 0.6130 0.6120
3389.938118 0.6105 0.6090 0.6070 0.6050 0.6035
3394.808253 0.6020 0.6000 0.5980 0.5965 0.5950
3399.678388 0.5930 0.5910 0.5900 0.5890 0.5870
3404.548523 0.5850 0.5835 0.5820 0.5810 0.5800
3409.418657 0.5785 0.5770 0.5755 0.5740 0.5730
3414.288792 0.5720 0.5705 0.5690 0.5680 0.5670
3419.158927 0.5650 0.5630 0.5605 0.5580 0.5550
3424.029062 0.5520 0.5505 0.5490 0.5470 0.5450
3428.899196 0.5430 0.5410 0.5390 0.5370 0.5350
3433.769331 0.5330 0.5320 0.5310 0.5295 0.5280
3438.639466 0.5260 0.5240 0.5225 0.5210 0.5200
3443.509601 0.5190 0.5170 0.5150 0.5135 0.5120
3448.379735 0.5110 0.5100 0.5080 0.5060 0.5040
3453.249870 0.5020 0.5000 0.4980 0.4960 0.4940
3458.120005 0.4920 0.4900 0.4875 0.4850 0.4820
3462.990139 0.4790 0.4765 0.4740 0.4710 0.4680
3467.860274 0.4655 0.4630 0.4605 0.4580 0.4560
3472.730409 0.4540 0.4515 0.4490 0.4465 0.4440
3477.600544 0.4420 0.4400 0.4375 0.4350 0.4325
3482.470678 0.4300 0.4280 0.4260 0.4235 0.4210
3487.340813 0.4185 0.4160 0.4140 0.4120 0.4085
3492.210948 0.4050 0.4025 0.4000 0.3970 0.3940
3497.081083 0.3910 0.3880 0.3875 0.3870 0.3870
3501.951217 0.3870 0.3875 0.3880 0.3890 0.3900
3506.821352 0.3905 0.3910 0.3915 0.3920 0.3935
3511.691487 0.3950 0.3980 0.4010 0.4045 0.4080
3516.561622 0.4129 0.4179 0.4215 0.4250 0.4375
3521.431756 0.4500 0.4610 0.4720 0.4820 0.4920
3526.301891 0.5005 0.5090 0.5170 0.5250 0.5329
3531.172026 0.5409 0.5499 0.5589 0.5684 0.5779
3536.042161 0.5884 0.5989 0.6075 0.6160 0.6250
3540.912295 0.6340 0.6515 0.6690 0.6780 0.6870
3545.782430 0.6945 0.7020 0.7100 0.7179 0.7245
3550.652565 0.7309 0.7360 0.7409 0.7454 0.7499
3555.522699 0.7535 0.7570 0.7585 0.7600 0.7660
3560.392834 0.7720 0.7770 0.7820 0.7860 0.7900
3565.262969 0.7945 0.7990 0.8025 0.8060 0.8085
3570.133104 0.8110 0.8140 0.8170 0.8190 0.8210
3575.003238 0.8230 0.8250 0.8275 0.8300 0.8325
3579.873373 0.8350 0.8385 0.8420 0.8445 0.8470
3584.743508 0.8495 0.8520 0.8540 0.8560 0.8585
3589.613643 0.8610 0.8630 0.8650 0.8655 0.8660
3594.483777 0.8690 0.8720 0.8730 0.8740 0.8760
3599.353912 0.8780 0.8785 0.8790 0.8805 0.8820
3604.224047 0.8825 0.8830 0.8840 0.8850 0.8855
3609.094182 0.8860 0.8865 0.8870 0.8875 0.8880
3613.964316 0.8880 0.8880 0.8890 0.8900 0.8905
3618.834451 0.8910 0.8915 0.8920 0.8920 0.8920
3623.704586 0.8915 0.8910 0.8910 0.8910 0.8910
3628.574721 0.8910 0.8910 0.8910 0.8910 0.8910
3633.444855 0.8910 0.8910 0.8915 0.8920 0.8920
3638.314990 0.8920 0.8920 0.8920 0.8920 0.8920
3643.185125 0.8915 0.8910 0.8910 0.8910 0.8910
3648.055259 0.8910 0.8915 0.8920 0.8935 0.8950
3652.925394 0.8955 0.8960 0.8975 0.8990 0.9000
3657.795529 0.9010 0.9035 0.9060 0.9060 0.9060
3662.665664 0.9070 0.9080 0.9080 0.9080 0.9090
3667.535798 0.9100 0.9100 0.9100 0.9115 0.9130
3672.405933 0.9145 0.9160 0.9165 0.9170 0.9180
3677.276068 0.9190 0.9190 0.9190 0.9200 0.9210
3682.146203 0.9215 0.9220 0.9220 0.9220 0.9220
3687.016337 0.9220 0.9220 0.9220 0.9225 0.9230
3691.886472 0.9230 0.9230 0.9240 0.9250 0.9250
3696.756607 0.9250 0.9240 0.9230 0.9230 0.9230
3701.626742 0.9225 0.9220 0.9215 0.9210 0.9210
3706.496876 0.9210 0.9200 0.9190 0.9200 0.9210
3711.367011 0.9210 0.9210 0.9210 0.9210 0.9210
3716.237146 0.9210 0.9215 0.9220 0.9220 0.9220
3721.107281 0.9220 0.9220 0.9220 0.9220 0.9220
3725.977415 0.9220 0.9220 0.9220 0.9220 0.9220
3730.847550 0.9220 0.9220 0.9220 0.9220 0.9220
3735.717685 0.9220 0.9220 0.9220 0.9220 0.9220
3740.587819 0.9220 0.9220 0.9205 0.9190 0.9190
3745.457954 0.9190 0.9185 0.9180 0.9180 0.9180
3750.328089 0.9185 0.9190 0.9200 0.9210 0.9215
3755.198224 0.9220 0.9215 0.9210 0.9210 0.9210
3760.068358 0.9210 0.9210 0.9215 0.9220 0.9220
3764.938493 0.9220 0.9220 0.9220 0.9220 0.9220
3769.808628 0.9225 0.9230 0.9230 0.9230 0.9230
3774.678763 0.9230 0.9225 0.9220 0.9220 0.9220
3779.548897 0.9220 0.9220 0.9220 0.9220 0.9240
3784.419032 0.9260 0.9260 0.9260 0.9260 0.9260
3789.289167 0.9260 0.9260 0.9255 0.9250 0.9250
3794.159302 0.9250 0.9255 0.9260 0.9255 0.9250
3799.029436 0.9255 0.9260 0.9255 0.9250 0.9250
3803.899571 0.9250 0.9240 0.9230 0.9230 0.9230
3808.769706 0.9230 0.9230 0.9230 0.9230 0.9240
3813.639841 0.9250 0.9255 0.9260 0.9260 0.9260
3818.509975 0.9260 0.9260 0.9260 0.9260 0.9260
3823.380110 0.9260 0.9255 0.9250 0.9250 0.9250
3828.250245 0.9250 0.9250 0.9240 0.9230 0.9230
3833.120380 0.9230 0.9230 0.9230 0.9230 0.9230
3837.990514 0.9230 0.9230 0.9225 0.9220 0.9220
3842.860649 0.9220 0.9220 0.9220 0.9220 0.9220
3847.730784 0.9220 0.9220 0.9220 0.9220 0.9220
3852.600918 0.9220 0.9220 0.9220 0.9220 0.9220
3857.471053 0.9215 0.9210 0.9210 0.9210 0.9210
3862.341188 0.9210 0.9210 0.9210 0.9210 0.9210
3867.211323 0.9200 0.9190 0.9185 0.9180 0.9180
3872.081457 0.9180 0.9180 0.9180 0.9180 0.9180
3876.951592 0.9180 0.9180 0.9180 0.9180 0.9180
3881.821727 0.9180 0.9180 0.9180 0.9185 0.9190
3886.691862 0.9190 0.9190 0.9190 0.9190 0.9185
3891.561996 0.9180 0.9180 0.9180 0.9180 0.9180
3896.432131 0.9180 0.9180 0.9180 0.9180 0.9180
3901.302266 0.9180 0.9180 0.9180 0.9175 0.9170
3906.172401 0.9170 0.9170 0.9170 0.9170 0.9175
3911.042535 0.9180 0.9180 0.9180 0.9180 0.9180
3915.912670 0.9180 0.9180 0.9180 0.9180 0.9185
3920.782805 0.9190 0.9190 0.9190 0.9190 0.9190
3925.652940 0.9190 0.9190 0.9190 0.9190 0.9190
3930.523074 0.9190 0.9200 0.9210 0.9210 0.9210
3935.393209 0.9210 0.9210 0.9200 0.9190 0.9190
3940.263344 0.9190 0.9190 0.9190 0.9190 0.9190
3945.133478 0.9190 0.9190 0.9200 0.9210 0.9215
3950.003613 0.9220 0.9220 0.9220 0.9225 0.9230
3954.873748 0.9230 0.9230 0.9230 0.9230 0.9230
3959.743883 0.9230 0.9230 0.9230 0.9230 0.9230
3964.614017 0.9230 0.9230 0.9230 0.9230 0.9230
3969.484152 0.9230 0.9240 0.9250 0.9250 0.9250
3974.354287 0.9250 0.9250 0.9250 0.9250 0.9250
3979.224422 0.9250 0.9250 0.9250 0.9250 0.9250
3984.094556 0.9240 0.9230 0.9230 0.9230 0.9230
3988.964691 0.9230 0.9225 0.9220 0.9220 0.9220
3993.834826 0.9215 0.9210 0.9210 0.9210 0.9210
3998.704961 0.9210 0.9210 0.9210
##END=
