##TITLE=2,3-Dichloro-1-propanol
##JCAMP-DX=4.24
##DATA TYPE=INFRARED SPECTRUM
##CLASS=COBLENTZ III
##ORIGIN=DOW CHEMICAL COMPANY
##OWNER=COPYRIGHT (C) 1988 by COBLENTZ SOCIETY INC.
Collection (C) 2018 copyright by the U.S. Secretary of Commerce
on behalf of the United States of America. All rights reserved.
##DATE=1962/08/22
##CAS REGISTRY NO=616-23-9
##MOLFORM=C3 H6 Cl2 O
##SOURCE REFERENCE=COBLENTZ NO. 6322
##$NIST SOURCE=COBLENTZ
##$NIST IMAGE=cob6322
##SPECTROMETER/DATA SYSTEM=DOW KBr FOREPRISM-GRATING
##INSTRUMENT PARAMETERS=BLAZED AT 3.5, 12.0, 20.0 MICRON AND CHANGED AT 5.0, 7.5, 14.9 MICRON
##STATE=SOLUTION (10% CCl4 FOR 3800-1335, 10% CS2 FOR 1335-450 CM^-^1)
##PATH LENGTH=0.010 CM, 0.011 CM
##SAMPLING PROCEDURE=TRANSMISSION
##RESOLUTION=2
##DATA PROCESSING=DIGITIZED BY COBLENTZ SOCIETY (BATCH I) FROM HARD COPY (ADJUSTED \subtractcm-1\only3600\)
##XUNITS=1/CM
##YUNITS=TRANSMITTANCE
##XFACTOR=1
##YFACTOR=1
##DELTAX=0.992601
##FIRSTX=3770.25
##LASTX=450.993
##FIRSTY=0.9207
##MAXX=3770.25
##MINX=450.993
##MAXY=0.9309
##MINY=0.16814
##NPOINTS=3345
##XYDATA=(X++(Y..Y))
3770.250000 0.9207 0.9207 0.9207 0.9207 0.9207
3765.286996 0.9205 0.9198 0.9193 0.9194 0.9201
3760.323991 0.9202 0.9194 0.9200 0.9201 0.9198
3755.360987 0.9191 0.9200 0.9199 0.9199 0.9198
3750.397982 0.9198 0.9197 0.9197 0.9197 0.9198
3745.434978 0.9199 0.9200 0.9200 0.9202 0.9206
3740.471973 0.9209 0.9207 0.9206 0.9207 0.9207
3735.508969 0.9208 0.9210 0.9210 0.9211 0.9213
3730.545964 0.9213 0.9213 0.9210 0.9207 0.9203
3725.582960 0.9199 0.9195 0.9191 0.9188 0.9184
3720.619955 0.9183 0.9188 0.9182 0.9177 0.9174
3715.656951 0.9164 0.9153 0.9155 0.9155 0.9151
3710.693946 0.9147 0.9142 0.9137 0.9132 0.9127
3705.730942 0.9123 0.9119 0.9114 0.9109 0.9102
3700.767937 0.9088 0.9087 0.9090 0.9084 0.9079
3695.804933 0.9074 0.9070 0.9069 0.9065 0.9061
3690.841928 0.9060 0.9052 0.9043 0.9033 0.9023
3685.878924 0.9014 0.9005 0.8996 0.8987 0.8975
3680.915919 0.8963 0.8947 0.8921 0.8898 0.8879
3675.952915 0.8859 0.8838 0.8812 0.8787 0.8759
3670.989910 0.8734 0.8707 0.8674 0.8660 0.8651
3666.026906 0.8641 0.8633 0.8626 0.8620 0.8613
3661.063901 0.8607 0.8600 0.8594 0.8586 0.8580
3656.100897 0.8571 0.8561 0.8552 0.8549 0.8532
3651.137892 0.8521 0.8510 0.8501 0.8491 0.8480
3646.174888 0.8469 0.8458 0.8442 0.8425 0.8408
3641.211883 0.8385 0.8351 0.8315 0.8274 0.8230
3636.248879 0.8182 0.8134 0.8086 0.8037 0.7990
3631.285874 0.7926 0.7850 0.7673 0.7415 0.7197
3626.322870 0.7011 0.6917 0.6882 0.6861 0.6848
3621.359865 0.6836 0.6823 0.6811 0.6800 0.6788
3616.396861 0.6783 0.6770 0.6751 0.6726 0.6711
3611.433857 0.6693 0.6669 0.6633 0.6597 0.6540
3606.470852 0.6482 0.6268 0.6050 0.5843 0.5636
3601.507848 0.5427 0.5219 0.5013 0.4828 0.4814
3596.544843 0.4806 0.4795 0.4789 0.4786 0.4783
3591.581839 0.4797 0.4809 0.4823 0.4851 0.4910
3586.618834 0.4972 0.5035 0.5093 0.5152 0.5216
3581.655830 0.5279 0.5339 0.5400 0.5462 0.5522
3576.692825 0.5584 0.5645 0.5705 0.5765 0.5823
3571.729821 0.5880 0.5937 0.5994 0.6051 0.6107
3566.766816 0.6160 0.6213 0.6266 0.6319 0.6386
3561.803812 0.6459 0.6497 0.6537 0.6563 0.6583
3556.840807 0.6596 0.6612 0.6629 0.6643 0.6658
3551.877803 0.6672 0.6686 0.6698 0.6703 0.6709
3546.914798 0.6710 0.6714 0.6714 0.6713 0.6713
3541.951794 0.6712 0.6706 0.6689 0.6680 0.6674
3536.988789 0.6658 0.6639 0.6618 0.6603 0.6584
3532.025785 0.6564 0.6541 0.6523 0.6506 0.6484
3527.062780 0.6456 0.6424 0.6391 0.6358 0.6328
3522.099776 0.6296 0.6265 0.6238 0.6216 0.6194
3517.136771 0.6170 0.6142 0.6115 0.6092 0.6068
3512.173767 0.6046 0.6023 0.5998 0.5972 0.5943
3507.210762 0.5913 0.5883 0.5854 0.5824 0.5793
3502.247758 0.5764 0.5734 0.5702 0.5669 0.5633
3497.284753 0.5596 0.5561 0.5525 0.5487 0.5452
3492.321749 0.5426 0.5400 0.5379 0.5361 0.5340
3487.358744 0.5320 0.5301 0.5280 0.5260 0.5240
3482.395740 0.5221 0.5201 0.5181 0.5162 0.5142
3477.432735 0.5124 0.5107 0.5090 0.5073 0.5056
3472.469731 0.5039 0.5023 0.5005 0.4988 0.4972
3467.506726 0.4954 0.4937 0.4920 0.4905 0.4891
3462.543722 0.4877 0.4863 0.4849 0.4834 0.4820
3457.580717 0.4806 0.4791 0.4778 0.4764 0.4752
3452.617713 0.4740 0.4732 0.4724 0.4716 0.4709
3447.654709 0.4700 0.4693 0.4686 0.4679 0.4670
3442.691704 0.4662 0.4655 0.4647 0.4640 0.4634
3437.728700 0.4627 0.4620 0.4612 0.4606 0.4599
3432.765695 0.4591 0.4586 0.4581 0.4577 0.4574
3427.802691 0.4570 0.4565 0.4561 0.4557 0.4553
3422.839686 0.4549 0.4546 0.4543 0.4539 0.4536
3417.876682 0.4533 0.4529 0.4526 0.4521 0.4516
3412.913677 0.4514 0.4510 0.4506 0.4502 0.4498
3407.950673 0.4494 0.4490 0.4486 0.4483 0.4481
3402.987668 0.4481 0.4482 0.4482 0.4483 0.4484
3398.024664 0.4485 0.4487 0.4489 0.4487 0.4487
3393.061659 0.4487 0.4488 0.4488 0.4489 0.4490
3388.098655 0.4491 0.4491 0.4492 0.4493 0.4495
3383.135650 0.4496 0.4498 0.4499 0.4500 0.4501
3378.172646 0.4502 0.4503 0.4505 0.4509 0.4513
3373.209641 0.4517 0.4521 0.4525 0.4528 0.4533
3368.246637 0.4537 0.4541 0.4545 0.4550 0.4554
3363.283632 0.4558 0.4562 0.4568 0.4573 0.4574
3358.320628 0.4578 0.4584 0.4588 0.4593 0.4598
3353.357623 0.4605 0.4615 0.4627 0.4640 0.4651
3348.394619 0.4663 0.4675 0.4686 0.4698 0.4711
3343.431614 0.4725 0.4740 0.4755 0.4769 0.4785
3338.468610 0.4800 0.4815 0.4835 0.4852 0.4861
3333.505605 0.4881 0.4890 0.4906 0.4924 0.4948
3328.542601 0.4967 0.4983 0.4994 0.5013 0.5031
3323.579596 0.5047 0.5066 0.5084 0.5102 0.5120
3318.616592 0.5136 0.5153 0.5171 0.5189 0.5206
3313.653587 0.5223 0.5241 0.5258 0.5275 0.5293
3308.690583 0.5309 0.5328 0.5345 0.5362 0.5384
3303.727578 0.5407 0.5430 0.5452 0.5475 0.5494
3298.764574 0.5519 0.5543 0.5565 0.5584 0.5605
3293.801570 0.5628 0.5651 0.5676 0.5702 0.5727
3288.838565 0.5753 0.5778 0.5804 0.5829 0.5855
3283.875561 0.5880 0.5906 0.5931 0.5956 0.5982
3278.912556 0.6008 0.6034 0.6059 0.6092 0.6116
3273.949552 0.6135 0.6162 0.6193 0.6217 0.6238
3268.986547 0.6268 0.6298 0.6325 0.6351 0.6378
3264.023543 0.6403 0.6430 0.6456 0.6483 0.6509
3259.060538 0.6535 0.6558 0.6580 0.6600 0.6620
3254.097534 0.6639 0.6657 0.6676 0.6696 0.6712
3249.134529 0.6731 0.6754 0.6773 0.6792 0.6811
3244.171525 0.6830 0.6849 0.6868 0.6888 0.6907
3239.208520 0.6923 0.6941 0.6964 0.6985 0.7003
3234.245516 0.7022 0.7042 0.7062 0.7080 0.7099
3229.282511 0.7119 0.7137 0.7156 0.7177 0.7202
3224.319507 0.7227 0.7259 0.7290 0.7321 0.7344
3219.356502 0.7378 0.7418 0.7435 0.7454 0.7473
3214.393498 0.7490 0.7508 0.7526 0.7543 0.7561
3209.430493 0.7580 0.7599 0.7621 0.7645 0.7668
3204.467489 0.7689 0.7702 0.7712 0.7726 0.7740
3199.504484 0.7753 0.7767 0.7781 0.7794 0.7807
3194.541480 0.7825 0.7840 0.7854 0.7867 0.7882
3189.578475 0.7900 0.7913 0.7927 0.7941 0.7950
3184.615471 0.7962 0.7980 0.7995 0.8003 0.8012
3179.652466 0.8025 0.8039 0.8053 0.8067 0.8081
3174.689462 0.8095 0.8108 0.8121 0.8135 0.8148
3169.726457 0.8162 0.8175 0.8189 0.8203 0.8216
3164.763453 0.8230 0.8244 0.8257 0.8271 0.8286
3159.800448 0.8305 0.8322 0.8329 0.8345 0.8362
3154.837444 0.8375 0.8384 0.8399 0.8407 0.8421
3149.874439 0.8442 0.8457 0.8470 0.8483 0.8496
3144.911435 0.8502 0.8507 0.8519 0.8530 0.8541
3139.948430 0.8553 0.8564 0.8577 0.8594 0.8608
3134.985426 0.8618 0.8627 0.8636 0.8645 0.8653
3130.022422 0.8661 0.8671 0.8679 0.8688 0.8696
3125.059417 0.8704 0.8711 0.8717 0.8724 0.8730
3120.096413 0.8736 0.8742 0.8748 0.8754 0.8761
3115.133408 0.8767 0.8774 0.8781 0.8786 0.8792
3110.170404 0.8795 0.8799 0.8802 0.8806 0.8810
3105.207399 0.8815 0.8824 0.8833 0.8837 0.8841
3100.244395 0.8844 0.8847 0.8852 0.8863 0.8868
3095.281390 0.8874 0.8888 0.8903 0.8914 0.8917
3090.318386 0.8921 0.8920 0.8916 0.8913 0.8905
3085.355381 0.8905 0.8912 0.8911 0.8903 0.8902
3080.392377 0.8904 0.8906 0.8908 0.8910 0.8917
3075.429372 0.8929 0.8939 0.8942 0.8950 0.8955
3070.466368 0.8952 0.8949 0.8950 0.8942 0.8950
3065.503363 0.8943 0.8942 0.8943 0.8943 0.8935
3060.540359 0.8935 0.8935 0.8938 0.8947 0.8947
3055.577354 0.8942 0.8935 0.8940 0.8940 0.8935
3050.614350 0.8936 0.8942 0.8946 0.8946 0.8946
3045.651345 0.8948 0.8956 0.8959 0.8969 0.8980
3040.688341 0.8991 0.9001 0.9008 0.9007 0.9004
3035.725336 0.8997 0.8984 0.8975 0.8967 0.8955
3030.762332 0.8947 0.8940 0.8929 0.8919 0.8911
3025.799327 0.8899 0.8890 0.8884 0.8877 0.8871
3020.836323 0.8865 0.8860 0.8860 0.8858 0.8851
3015.873318 0.8834 0.8821 0.8812 0.8802 0.8793
3010.910314 0.8783 0.8774 0.8764 0.8753 0.8735
3005.947309 0.8727 0.8724 0.8715 0.8701 0.8684
3000.984305 0.8671 0.8663 0.8649 0.8631 0.8616
2996.021300 0.8601 0.8579 0.8555 0.8525 0.8489
2991.058296 0.8412 0.8334 0.8254 0.8175 0.8080
2986.095291 0.7983 0.7473 0.6920 0.6816 0.6767
2981.132287 0.6712 0.6659 0.6601 0.6534 0.6446
2976.169283 0.6361 0.6305 0.6255 0.6227 0.6204
2971.206278 0.6163 0.6118 0.6057 0.5990 0.5920
2966.243274 0.5849 0.5826 0.5819 0.5813 0.5808
2961.280269 0.5805 0.5791 0.5802 0.5808 0.5815
2956.317265 0.5830 0.5850 0.5874 0.5905 0.5937
2951.354260 0.5959 0.5979 0.5992 0.6001 0.6007
2946.391256 0.6009 0.6003 0.5993 0.5984 0.5978
2941.428251 0.5972 0.5968 0.5966 0.5964 0.5961
2936.465247 0.5960 0.5956 0.5953 0.5963 0.5982
2931.502242 0.6006 0.6036 0.6086 0.6159 0.6231
2926.539238 0.6303 0.6375 0.6448 0.6520 0.6590
2921.576233 0.6658 0.6727 0.6800 0.6872 0.6944
2916.613229 0.7016 0.7088 0.7161 0.7233 0.7306
2911.650224 0.7378 0.7449 0.7522 0.7597 0.7676
2906.687220 0.7785 0.7890 0.7845 0.7877 0.7876
2901.724215 0.7875 0.7871 0.7866 0.7852 0.7836
2896.761211 0.7814 0.7789 0.7760 0.7716 0.7618
2891.798206 0.7518 0.7406 0.7295 0.7184 0.7073
2886.835202 0.6962 0.6850 0.6739 0.6628 0.6517
2881.872197 0.6417 0.6382 0.6353 0.6351 0.6342
2876.909193 0.6348 0.6360 0.6376 0.6399 0.6512
2871.946188 0.6629 0.6771 0.6913 0.7053 0.7195
2866.983184 0.7337 0.7478 0.7587 0.7698 0.7741
2862.020179 0.7784 0.7829 0.7872 0.7903 0.7933
2857.057175 0.7962 0.7989 0.8018 0.8037 0.8064
2852.094170 0.8091 0.8119 0.8147 0.8169 0.8189
2847.131166 0.8210 0.8238 0.8259 0.8276 0.8287
2842.168161 0.8307 0.8322 0.8331 0.8342 0.8359
2837.205157 0.8373 0.8382 0.8389 0.8401 0.8412
2832.242152 0.8421 0.8430 0.8439 0.8453 0.8460
2827.279148 0.8473 0.8485 0.8486 0.8491 0.8507
2822.316143 0.8512 0.8525 0.8538 0.8545 0.8546
2817.353139 0.8552 0.8560 0.8569 0.8578 0.8586
2812.390135 0.8594 0.8601 0.8608 0.8615 0.8627
2807.427130 0.8640 0.8649 0.8656 0.8663 0.8671
2802.464126 0.8678 0.8685 0.8693 0.8700 0.8707
2797.501121 0.8713 0.8719 0.8724 0.8729 0.8734
2792.538117 0.8739 0.8740 0.8744 0.8750 0.8750
2787.575112 0.8755 0.8760 0.8768 0.8779 0.8785
2782.612108 0.8786 0.8791 0.8802 0.8810 0.8816
2777.649103 0.8821 0.8824 0.8828 0.8829 0.8831
2772.686099 0.8833 0.8835 0.8838 0.8840 0.8842
2767.723094 0.8844 0.8847 0.8849 0.8851 0.8852
2762.760090 0.8853 0.8855 0.8856 0.8858 0.8859
2757.797085 0.8861 0.8861 0.8861 0.8861 0.8858
2752.834081 0.8855 0.8852 0.8849 0.8846 0.8843
2747.871076 0.8839 0.8836 0.8833 0.8830 0.8826
2742.908072 0.8823 0.8820 0.8816 0.8813 0.8810
2737.945067 0.8808 0.8805 0.8802 0.8799 0.8796
2732.982063 0.8793 0.8793 0.8793 0.8795 0.8801
2728.019058 0.8808 0.8814 0.8820 0.8826 0.8833
2723.056054 0.8839 0.8845 0.8850 0.8856 0.8862
2718.093049 0.8868 0.8873 0.8879 0.8885 0.8891
2713.130045 0.8897 0.8903 0.8907 0.8913 0.8917
2708.167040 0.8920 0.8922 0.8926 0.8929 0.8932
2703.204036 0.8936 0.8940 0.8943 0.8946 0.8949
2698.241031 0.8951 0.8953 0.8954 0.8956 0.8957
2693.278027 0.8959 0.8960 0.8962 0.8964 0.8966
2688.315022 0.8967 0.8969 0.8971 0.8973 0.8974
2683.352018 0.8975 0.8976 0.8976 0.8977 0.8978
2678.389013 0.8979 0.8980 0.8981 0.8981 0.8982
2673.426009 0.8982 0.8983 0.8985 0.8985 0.8985
2668.463004 0.8986 0.8988 0.8989 0.8989 0.8989
2663.500000 0.8989 0.8990 0.8991 0.8991 0.8992
2658.536996 0.8993 0.8999 0.9004 0.9004 0.9005
2653.573991 0.9006 0.9006 0.9004 0.8999 0.8994
2648.610987 0.8996 0.9002 0.9006 0.9003 0.8995
2643.647982 0.8992 0.8995 0.8998 0.8994 0.8992
2638.684978 0.8992 0.8992 0.8992 0.8992 0.8995
2633.721973 0.9004 0.9004 0.9002 0.8996 0.9000
2628.758969 0.9008 0.9009 0.9010 0.9011 0.9012
2623.795964 0.9013 0.9014 0.9015 0.9016 0.9017
2618.832960 0.9018 0.9019 0.9020 0.9021 0.9023
2613.869955 0.9026 0.9029 0.9031 0.9032 0.9034
2608.906951 0.9035 0.9037 0.9038 0.9040 0.9041
2603.943946 0.9042 0.9042 0.9043 0.9044 0.9045
2598.980942 0.9045 0.9047 0.9048 0.9048 0.9050
2594.017937 0.9051 0.9052 0.9052 0.9054 0.9055
2589.054933 0.9055 0.9055 0.9057 0.9059 0.9060
2584.091928 0.9061 0.9062 0.9063 0.9064 0.9065
2579.128924 0.9066 0.9067 0.9067 0.9068 0.9069
2574.165919 0.9070 0.9070 0.9070 0.9070 0.9071
2569.202915 0.9071 0.9072 0.9072 0.9073 0.9073
2564.239910 0.9074 0.9074 0.9074 0.9074 0.9075
2559.276906 0.9075 0.9076 0.9076 0.9077 0.9077
2554.313901 0.9078 0.9078 0.9078 0.9079 0.9080
2549.350897 0.9081 0.9082 0.9083 0.9084 0.9085
2544.387892 0.9086 0.9087 0.9088 0.9089 0.9090
2539.424888 0.9091 0.9092 0.9093 0.9094 0.9095
2534.461883 0.9097 0.9097 0.9098 0.9100 0.9100
2529.498879 0.9101 0.9102 0.9103 0.9104 0.9105
2524.535874 0.9106 0.9107 0.9108 0.9109 0.9110
2519.572870 0.9111 0.9112 0.9113 0.9113 0.9113
2514.609865 0.9113 0.9113 0.9113 0.9114 0.9114
2509.646861 0.9114 0.9114 0.9114 0.9114 0.9114
2504.683857 0.9114 0.9115 0.9115 0.9115 0.9115
2499.720852 0.9115 0.9115 0.9116 0.9116 0.9116
2494.757848 0.9116 0.9116 0.9116 0.9116 0.9116
2489.794843 0.9116 0.9116 0.9116 0.9116 0.9116
2484.831839 0.9116 0.9116 0.9116 0.9117 0.9124
2479.868834 0.9129 0.9129 0.9129 0.9129 0.9129
2474.905830 0.9129 0.9129 0.9129 0.9129 0.9129
2469.942825 0.9129 0.9129 0.9129 0.9129 0.9129
2464.979821 0.9128 0.9128 0.9128 0.9130 0.9129
2460.016816 0.9129 0.9129 0.9124 0.9124 0.9123
2455.053812 0.9118 0.9118 0.9124 0.9127 0.9126
2450.090807 0.9117 0.9121 0.9123 0.9122 0.9121
2445.127803 0.9120 0.9118 0.9118 0.9117 0.9115
2440.164798 0.9115 0.9115 0.9114 0.9113 0.9111
2435.201794 0.9110 0.9109 0.9107 0.9107 0.9106
2430.238789 0.9105 0.9104 0.9103 0.9102 0.9101
2425.275785 0.9100 0.9099 0.9098 0.9097 0.9096
2420.312780 0.9095 0.9094 0.9092 0.9091 0.9091
2415.349776 0.9091 0.9091 0.9091 0.9092 0.9092
2410.386771 0.9092 0.9094 0.9098 0.9098 0.9101
2405.423767 0.9105 0.9105 0.9105 0.9105 0.9105
2400.460762 0.9105 0.9105 0.9106 0.9106 0.9106
2395.497758 0.9106 0.9106 0.9107 0.9107 0.9107
2390.534753 0.9107 0.9113 0.9120 0.9121 0.9121
2385.571749 0.9122 0.9128 0.9134 0.9136 0.9142
2380.608744 0.9147 0.9149 0.9154 0.9162 0.9168
2375.645740 0.9172 0.9176 0.9184 0.9188 0.9189
2370.682735 0.9190 0.9187 0.9180 0.9176 0.9170
2365.719731 0.9165 0.9160 0.9152 0.9138 0.9125
2360.756726 0.9116 0.9112 0.9107 0.9108 0.9106
2355.793722 0.9112 0.9117 0.9117 0.9116 0.9117
2350.830717 0.9114 0.9110 0.9113 0.9123 0.9135
2345.867713 0.9139 0.9140 0.9134 0.9130 0.9133
2340.904709 0.9134 0.9134 0.9127 0.9135 0.9137
2335.941704 0.9127 0.9129 0.9141 0.9142 0.9143
2330.978700 0.9146 0.9156 0.9156 0.9155 0.9157
2326.015695 0.9165 0.9168 0.9175 0.9174 0.9173
2321.052691 0.9170 0.9169 0.9166 0.9165 0.9162
2316.089686 0.9159 0.9158 0.9155 0.9152 0.9150
2311.126682 0.9148 0.9146 0.9144 0.9142 0.9139
2306.163677 0.9136 0.9134 0.9132 0.9130 0.9129
2301.200673 0.9127 0.9125 0.9126 0.9131 0.9130
2296.237668 0.9128 0.9127 0.9125 0.9125 0.9124
2291.274664 0.9122 0.9121 0.9120 0.9114 0.9107
2286.311659 0.9104 0.9103 0.9102 0.9094 0.9089
2281.348655 0.9087 0.9086 0.9088 0.9087 0.9090
2276.385650 0.9094 0.9094 0.9097 0.9103 0.9107
2271.422646 0.9106 0.9108 0.9112 0.9112 0.9115
2266.459641 0.9121 0.9123 0.9124 0.9128 0.9134
2261.496637 0.9135 0.9135 0.9140 0.9141 0.9141
2256.533632 0.9146 0.9152 0.9153 0.9153 0.9159
2251.570628 0.9164 0.9164 0.9163 0.9167 0.9170
2246.607623 0.9173 0.9175 0.9173 0.9171 0.9173
2241.644619 0.9176 0.9179 0.9182 0.9184 0.9187
2236.681614 0.9189 0.9191 0.9188 0.9188 0.9190
2231.718610 0.9193 0.9196 0.9199 0.9201 0.9204
2226.755605 0.9205 0.9207 0.9208 0.9210 0.9211
2221.792601 0.9209 0.9202 0.9204 0.9205 0.9207
2216.829596 0.9208 0.9209 0.9209 0.9212 0.9212
2211.866592 0.9215 0.9216 0.9219 0.9220 0.9222
2206.903587 0.9223 0.9224 0.9224 0.9224 0.9223
2201.940583 0.9222 0.9219 0.9219 0.9219 0.9218
2196.977578 0.9216 0.9215 0.9206 0.9215 0.9211
2192.014574 0.9202 0.9200 0.9200 0.9199 0.9199
2187.051570 0.9197 0.9197 0.9196 0.9202 0.9200
2182.088565 0.9195 0.9194 0.9194 0.9193 0.9201
2177.125561 0.9204 0.9202 0.9201 0.9201 0.9200
2172.162556 0.9200 0.9199 0.9199 0.9197 0.9188
2167.199552 0.9185 0.9185 0.9185 0.9185 0.9184
2162.236547 0.9184 0.9184 0.9184 0.9184 0.9184
2157.273543 0.9183 0.9183 0.9183 0.9183 0.9182
2152.310538 0.9182 0.9182 0.9182 0.9182 0.9182
2147.347534 0.9182 0.9182 0.9182 0.9182 0.9182
2142.384529 0.9182 0.9182 0.9182 0.9182 0.9182
2137.421525 0.9182 0.9182 0.9182 0.9182 0.9182
2132.458520 0.9182 0.9181 0.9181 0.9180 0.9180
2127.495516 0.9180 0.9178 0.9177 0.9176 0.9175
2122.532511 0.9169 0.9167 0.9171 0.9172 0.9171
2117.569507 0.9170 0.9169 0.9168 0.9167 0.9165
2112.606502 0.9164 0.9162 0.9161 0.9159 0.9157
2107.643498 0.9155 0.9154 0.9152 0.9151 0.9150
2102.680493 0.9150 0.9151 0.9152 0.9153 0.9152
2097.717489 0.9145 0.9147 0.9156 0.9156 0.9153
2092.754484 0.9160 0.9162 0.9163 0.9165 0.9166
2087.791480 0.9167 0.9167 0.9168 0.9168 0.9168
2082.828475 0.9168 0.9168 0.9168 0.9168 0.9168
2077.865471 0.9169 0.9169 0.9169 0.9169 0.9169
2072.902466 0.9169 0.9168 0.9168 0.9168 0.9167
2067.939462 0.9167 0.9166 0.9166 0.9165 0.9165
2062.976457 0.9165 0.9165 0.9164 0.9164 0.9163
2058.013453 0.9163 0.9165 0.9174 0.9174 0.9174
2053.050448 0.9173 0.9168 0.9165 0.9171 0.9166
2048.087444 0.9160 0.9159 0.9159 0.9159 0.9159
2043.124439 0.9158 0.9158 0.9158 0.9158 0.9158
2038.161435 0.9158 0.9157 0.9157 0.9157 0.9157
2033.198430 0.9156 0.9156 0.9156 0.9157 0.9157
2028.235426 0.9160 0.9164 0.9161 0.9163 0.9170
2023.272422 0.9172 0.9171 0.9171 0.9172 0.9173
2018.309417 0.9174 0.9174 0.9175 0.9175 0.9176
2013.346413 0.9176 0.9177 0.9177 0.9178 0.9178
2008.383408 0.9178 0.9178 0.9179 0.9179 0.9179
2003.420404 0.9179 0.9179 0.9179 0.9179 0.9169
1998.457399 0.9168 0.9163 0.9155 0.9147 0.9133
1993.494395 0.9112 0.9079 0.9045 0.9024 0.9005
1988.531390 0.8992 0.8987 0.8985 0.8983 0.8982
1983.568386 0.8979 0.8978 0.8979 0.8981 0.8991
1978.605381 0.8999 0.8999 0.9000 0.9000 0.8996
1973.642377 0.8992 0.8989 0.8990 0.8990 0.8994
1968.679372 0.9002 0.9004 0.9024 0.9082 0.9142
1963.716368 0.9198 0.9239 0.9233 0.9211 0.9170
1958.753363 0.9124 0.9075 0.9020 0.8983 0.8978
1953.790359 0.8981 0.8982 0.8980 0.8984 0.8988
1948.827354 0.8992 0.8995 0.8999 0.9003 0.9003
1943.864350 0.9003 0.9003 0.9003 0.9003 0.9003
1938.901345 0.9003 0.9003 0.9001 0.9000 0.8999
1933.938341 0.8998 0.8997 0.8997 0.8996 0.8996
1928.975336 0.8995 0.8995 0.8995 0.8994 0.8994
1924.012332 0.8994 0.8994 0.8994 0.8995 0.8995
1919.049327 0.8996 0.8996 0.8996 0.8996 0.8996
1914.086323 0.8993 0.8990 0.8987 0.8984 0.8985
1909.123318 0.8982 0.8975 0.8968 0.8963 0.8959
1904.160314 0.8955 0.8951 0.8947 0.8943 0.8940
1899.197309 0.8938 0.8937 0.8936 0.8935 0.8934
1894.234305 0.8931 0.8923 0.8921 0.8922 0.8924
1889.271300 0.8926 0.8929 0.8936 0.8944 0.8947
1884.308296 0.8950 0.8952 0.8954 0.8957 0.8961
1879.345291 0.8964 0.8974 0.8982 0.8985 0.8988
1874.382287 0.8991 0.8992 0.8992 0.8992 0.8992
1869.419283 0.8992 0.8992 0.8991 0.8987 0.8981
1864.456278 0.8976 0.8971 0.8966 0.8961 0.8959
1859.493274 0.8956 0.8948 0.8944 0.8946 0.8947
1854.530269 0.8949 0.8950 0.8952 0.8953 0.8955
1849.567265 0.8956 0.8958 0.8959 0.8960 0.8960
1844.604260 0.8960 0.8960 0.8959 0.8959 0.8959
1839.641256 0.8957 0.8951 0.8946 0.8946 0.8945
1834.678251 0.8944 0.8944 0.8945 0.8945 0.8947
1829.715247 0.8948 0.8948 0.8949 0.8949 0.8950
1824.752242 0.8950 0.8951 0.8955 0.8963 0.8964
1819.789238 0.8964 0.8966 0.8967 0.8968 0.8970
1814.826233 0.8971 0.8972 0.8974 0.8970 0.8966
1809.863229 0.8967 0.8968 0.8969 0.8965 0.8963
1804.900224 0.8964 0.8966 0.8968 0.8969 0.8971
1799.937220 0.8972 0.8974 0.8976 0.8977 0.8979
1794.974215 0.8981 0.8982 0.8985 0.8988 0.8991
1790.011211 0.8994 0.8997 0.8999 0.9001 0.9004
1785.048206 0.9007 0.9008 0.9011 0.9013 0.9015
1780.085202 0.9017 0.9013 0.9010 0.9012 0.9014
1775.122197 0.9017 0.9018 0.9019 0.9019 0.9020
1770.159193 0.9020 0.9020 0.9021 0.9021 0.9022
1765.196188 0.9022 0.9020 0.9018 0.9018 0.9023
1760.233184 0.9023 0.9022 0.9021 0.9019 0.9017
1755.270179 0.9015 0.9010 0.9002 0.8996 0.8989
1750.307175 0.8982 0.8976 0.8975 0.8974 0.8973
1745.344170 0.8971 0.8971 0.8970 0.8970 0.8970
1740.381166 0.8970 0.8970 0.8969 0.8970 0.8969
1735.418161 0.8969 0.8969 0.8968 0.8968 0.8967
1730.455157 0.8967 0.8966 0.8965 0.8966 0.8965
1725.492152 0.8965 0.8965 0.8966 0.8967 0.8967
1720.529148 0.8968 0.8970 0.8972 0.8977 0.8987
1715.566143 0.8997 0.9006 0.9015 0.9023 0.9026
1710.603139 0.9027 0.9026 0.9024 0.9021 0.9018
1705.640135 0.9016 0.9013 0.9010 0.9006 0.9003
1700.677130 0.9000 0.8996 0.8994 0.8995 0.8996
1695.714126 0.9000 0.9002 0.9005 0.9008 0.9011
1690.751121 0.9013 0.9016 0.9018 0.9020 0.9023
1685.788117 0.9025 0.9026 0.9028 0.9028 0.9030
1680.825112 0.9032 0.9034 0.9034 0.9035 0.9034
1675.862108 0.9039 0.9045 0.9046 0.9046 0.9046
1670.899103 0.9049 0.9050 0.9051 0.9054 0.9063
1665.936099 0.9073 0.9081 0.9090 0.9107 0.9106
1660.973094 0.9113 0.9132 0.9140 0.9148 0.9154
1656.010090 0.9158 0.9155 0.9170 0.9175 0.9179
1651.047085 0.9197 0.9216 0.9240 0.9265 0.9281
1646.084081 0.9291 0.9304 0.9309 0.9309 0.9299
1641.121076 0.9265 0.9216 0.9177 0.9147 0.9114
1636.158072 0.9096 0.9072 0.9056 0.9030 0.9014
1631.195067 0.8991 0.8978 0.8956 0.8929 0.8918
1626.232063 0.8908 0.8901 0.8886 0.8862 0.8847
1621.269058 0.8834 0.8824 0.8821 0.8822 0.8822
1616.306054 0.8823 0.8827 0.8836 0.8829 0.8815
1611.343049 0.8798 0.8775 0.8765 0.8749 0.8755
1606.380045 0.8762 0.8770 0.8755 0.8742 0.8737
1601.417040 0.8735 0.8738 0.8736 0.8722 0.8704
1596.454036 0.8687 0.8682 0.8688 0.8680 0.8611
1591.491031 0.8497 0.8390 0.8315 0.8268 0.8255
1586.528027 0.8281 0.8298 0.8298 0.8297 0.8292
1581.565022 0.8283 0.8273 0.8268 0.8258 0.8260
1576.602018 0.8267 0.8263 0.8267 0.8271 0.8243
1571.639013 0.8205 0.8176 0.8162 0.8139 0.8110
1566.676009 0.8082 0.8051 0.8015 0.7996 0.7994
1561.713004 0.7985 0.7959 0.7916 0.7885 0.7880
1556.750000 0.7857 0.7817 0.7761 0.7674 0.7581
1551.786996 0.7484 0.7424 0.7375 0.7330 0.7275
1546.823991 0.7229 0.7219 0.7220 0.7285 0.7305
1541.860987 0.7320 0.7360 0.7391 0.7457 0.7540
1536.897982 0.7593 0.7638 0.7687 0.7728 0.7772
1531.934978 0.7828 0.7881 0.7933 0.7965 0.7992
1526.971973 0.8028 0.8031 0.8038 0.8037 0.8045
1522.008969 0.8053 0.8062 0.8084 0.8105 0.8119
1517.045964 0.8136 0.8147 0.8161 0.8169 0.8180
1512.082960 0.8186 0.8177 0.8167 0.8155 0.8145
1507.119955 0.8140 0.8136 0.8125 0.8122 0.8124
1502.156951 0.8125 0.8119 0.8116 0.8110 0.8114
1497.193946 0.8110 0.8115 0.8120 0.8128 0.8141
1492.230942 0.8156 0.8170 0.8185 0.8206 0.8225
1487.267937 0.8241 0.8257 0.8278 0.8298 0.8301
1482.304933 0.8285 0.8254 0.8219 0.8190 0.8164
1477.341928 0.8133 0.8109 0.8078 0.8022 0.7935
1472.378924 0.7756 0.7564 0.7434 0.7334 0.7246
1467.415919 0.7172 0.7119 0.7073 0.7029 0.6988
1462.452915 0.6945 0.6808 0.6468 0.5884 0.5535
1457.489910 0.5521 0.5520 0.5522 0.5640 0.5874
1452.526906 0.6105 0.6338 0.6570 0.6733 0.6775
1447.563901 0.6110 0.5270 0.5298 0.5365 0.5493
1442.600897 0.5621 0.5744 0.5813 0.5829 0.5863
1437.637892 0.5922 0.5993 0.6040 0.6050 0.6014
1432.674888 0.5917 0.5830 0.5778 0.5807 0.5969
1427.711883 0.6185 0.6397 0.6612 0.6814 0.6970
1422.748879 0.7093 0.7163 0.7199 0.7218 0.7221
1417.785874 0.7228 0.7237 0.7245 0.7253 0.7260
1412.822870 0.7265 0.7247 0.7232 0.7216 0.7199
1407.859865 0.7181 0.7159 0.7135 0.7107 0.7064
1402.896861 0.7019 0.6973 0.6906 0.6834 0.6708
1397.933857 0.6548 0.6434 0.6328 0.6219 0.6157
1392.970852 0.6107 0.6078 0.6045 0.6028 0.6014
1388.007848 0.6019 0.5989 0.5944 0.5883 0.5808
1383.044843 0.5749 0.5688 0.5665 0.5667 0.5669
1378.081839 0.5740 0.5889 0.6045 0.6202 0.6359
1373.118834 0.6514 0.6601 0.6628 0.6649 0.6664
1368.155830 0.6669 0.6664 0.6640 0.6595 0.6533
1363.192825 0.6475 0.6465 0.6465 0.6528 0.6572
1358.229821 0.6609 0.6647 0.6685 0.6729 0.6780
1353.266816 0.6831 0.6876 0.6916 0.6951 0.6984
1348.303812 0.7016 0.7046 0.7075 0.7091 0.7098
1343.340807 0.7101 0.7098 0.7095 0.7090 0.7085
1338.377803 0.7079 0.7073 0.7068 0.7063 0.7059
1333.414798 0.7055 0.7047 0.7043 0.7041 0.7038
1328.451794 0.7032 0.7026 0.7024 0.7020 0.7018
1323.488789 0.7020 0.7023 0.7024 0.7036 0.7059
1318.525785 0.7080 0.7098 0.7117 0.7136 0.7155
1313.562780 0.7185 0.7231 0.7269 0.7293 0.7312
1308.599776 0.7325 0.7333 0.7337 0.7343 0.7347
1303.636771 0.7351 0.7354 0.7355 0.7356 0.7352
1298.673767 0.7326 0.7239 0.7100 0.6981 0.6860
1293.710762 0.6736 0.6614 0.6501 0.6425 0.6414
1288.747758 0.6429 0.6431 0.6435 0.6443 0.6450
1283.784753 0.6457 0.6465 0.6474 0.6488 0.6505
1278.821749 0.6532 0.6556 0.6580 0.6607 0.6635
1273.858744 0.6667 0.6711 0.6752 0.6824 0.6905
1268.895740 0.6974 0.7034 0.7096 0.7150 0.7180
1263.932735 0.7197 0.7204 0.7208 0.7211 0.7200
1258.969731 0.7174 0.7131 0.7074 0.7008 0.6948
1254.006726 0.6892 0.6839 0.6794 0.6750 0.6702
1249.043722 0.6650 0.6583 0.6489 0.6392 0.6309
1244.080717 0.6228 0.6146 0.6067 0.6016 0.5997
1239.117713 0.5992 0.6040 0.6096 0.6156 0.6216
1234.154709 0.6272 0.6310 0.6312 0.6317 0.6269
1229.191704 0.6125 0.5959 0.5793 0.5628 0.5462
1224.228700 0.5311 0.5269 0.5265 0.5268 0.5515
1219.265695 0.5846 0.6175 0.6503 0.6638 0.6708
1214.302691 0.6770 0.6813 0.6830 0.6832 0.6831
1209.339686 0.6831 0.6832 0.6847 0.6896 0.6949
1204.376682 0.6998 0.7047 0.7095 0.7140 0.7186
1199.413677 0.7235 0.7286 0.7329 0.7371 0.7415
1194.450673 0.7459 0.7501 0.7544 0.7587 0.7628
1189.487668 0.7666 0.7700 0.7722 0.7727 0.7718
1184.524664 0.7705 0.7698 0.7693 0.7702 0.7750
1179.561659 0.7814 0.7864 0.7922 0.8000 0.8066
1174.598655 0.8094 0.8112 0.8112 0.8110 0.8119
1169.635650 0.8083 0.8020 0.7936 0.7835 0.7770
1164.672646 0.7708 0.7658 0.7636 0.7632 0.7639
1159.709641 0.7692 0.7780 0.7854 0.7928 0.8003
1154.746637 0.8075 0.8146 0.8223 0.8301 0.8367
1149.783632 0.8416 0.8468 0.8518 0.8564 0.8596
1144.820628 0.8640 0.8674 0.8707 0.8750 0.8793
1139.857623 0.8832 0.8862 0.8895 0.8916 0.8933
1134.894619 0.8954 0.8966 0.8987 0.8969 0.8963
1129.931614 0.8962 0.8950 0.8927 0.8895 0.8847
1124.968610 0.8796 0.8716 0.8593 0.8438 0.8283
1120.005605 0.8127 0.7956 0.7778 0.7563 0.6659
1115.042601 0.6525 0.6428 0.6316 0.6180 0.6036
1110.079596 0.5895 0.5784 0.5673 0.5563 0.5453
1105.116592 0.5343 0.5233 0.5123 0.4565 0.3986
1100.153587 0.3515 0.3443 0.3443 0.3459 0.3531
1095.190583 0.3638 0.3751 0.3863 0.3977 0.4089
1090.227578 0.4202 0.4315 0.4428 0.4541 0.4655
1085.264574 0.4766 0.4875 0.4961 0.4999 0.5013
1080.301570 0.5012 0.4991 0.4941 0.4879 0.4822
1075.338565 0.4767 0.4710 0.4658 0.4612 0.4515
1070.375561 0.4263 0.3938 0.3613 0.3287 0.2962
1065.412556 0.2639 0.2315 0.1989 0.1768 0.1689
1060.449552 0.1681 0.1687 0.1701 0.1759 0.1849
1055.486547 0.1943 0.2057 0.2214 0.2410 0.2616
1050.523543 0.2822 0.3028 0.3234 0.3439 0.3645
1045.560538 0.3851 0.4057 0.4253 0.4432 0.4593
1040.597534 0.4731 0.4838 0.4927 0.5020 0.5119
1035.634529 0.5209 0.5283 0.5352 0.5419 0.5496
1030.671525 0.5579 0.5661 0.5741 0.5821 0.5906
1025.708520 0.5982 0.6040 0.6095 0.6150 0.6214
1020.745516 0.6294 0.6388 0.6499 0.6612 0.6723
1015.782511 0.6836 0.6948 0.7059 0.7170 0.7281
1010.819507 0.7385 0.7496 0.7605 0.7696 0.7754
1005.856502 0.7767 0.7783 0.7798 0.7809 0.7819
1000.893498 0.7828 0.7827 0.7832 0.7837 0.7842
995.930493 0.7849 0.7857 0.7854 0.7831 0.7780
990.967489 0.7703 0.7643 0.7490 0.7270 0.7047
986.004484 0.6827 0.6606 0.6383 0.6163 0.5941
981.041480 0.5452 0.5363 0.5301 0.5244 0.5187
976.078475 0.5125 0.5038 0.4944 0.4665 0.4366
971.115471 0.4067 0.3993 0.3963 0.3974 0.4100
966.152466 0.4452 0.4840 0.5228 0.5616 0.6003
961.189462 0.6337 0.6578 0.6800 0.7022 0.7243
956.226457 0.7465 0.7735 0.7884 0.8011 0.8153
951.263453 0.8243 0.8315 0.8385 0.8440 0.8478
946.300448 0.8504 0.8521 0.8537 0.8552 0.8560
941.337444 0.8577 0.8529 0.8455 0.8343 0.8189
936.374439 0.8043 0.7889 0.7551 0.7081 0.6597
931.411435 0.6115 0.5631 0.5296 0.5198 0.5191
926.448430 0.5187 0.5207 0.5254 0.5307 0.5364
921.485426 0.5431 0.5748 0.6373 0.7037 0.7421
916.522422 0.7536 0.7682 0.7913 0.8127 0.8242
911.559417 0.8336 0.8436 0.8531 0.8622 0.8683
906.596413 0.8702 0.8711 0.8719 0.8719 0.8715
901.633408 0.8704 0.8683 0.8659 0.8646 0.8646
896.670404 0.8664 0.8682 0.8709 0.8735 0.8756
891.707399 0.8766 0.8760 0.8730 0.8698 0.8671
886.744395 0.8640 0.8582 0.8519 0.8472 0.8423
881.781390 0.8385 0.8394 0.8426 0.8458 0.8492
876.818386 0.8526 0.8560 0.8591 0.8622 0.8643
871.855381 0.8656 0.8653 0.8659 0.8647 0.8620
866.892377 0.8594 0.8559 0.8517 0.8491 0.8465
861.929372 0.8408 0.8359 0.8327 0.8317 0.8303
856.966368 0.8290 0.8276 0.8256 0.8224 0.8187
852.003363 0.8153 0.8143 0.8217 0.8259 0.8309
847.040359 0.8348 0.8393 0.8439 0.8487 0.8544
842.077354 0.8585 0.8614 0.8659 0.8695 0.8734
837.114350 0.8776 0.8816 0.8880 0.8951 0.9004
832.151345 0.9048 0.9077 0.9104 0.9124 0.9139
827.188341 0.9153 0.9165 0.9179 0.9180 0.9179
822.225336 0.9179 0.9180 0.9178 0.9185 0.9186
817.262332 0.9184 0.9182 0.9189 0.9197 0.9196
812.299327 0.9198 0.9194 0.9180 0.9174 0.9174
807.336323 0.9172 0.9165 0.9159 0.9153 0.9147
802.373318 0.9140 0.9134 0.9127 0.9119 0.9109
797.410314 0.9093 0.9078 0.9064 0.9054 0.9036
792.447309 0.9013 0.8995 0.8974 0.8950 0.8921
787.484305 0.8886 0.8844 0.8798 0.8757 0.8716
782.521300 0.8676 0.8642 0.8611 0.8586 0.8567
777.558296 0.8560 0.8563 0.8565 0.8569 0.8575
772.595291 0.8573 0.8561 0.8540 0.8515 0.8484
767.632287 0.8443 0.8394 0.8333 0.8260 0.8183
762.669283 0.8095 0.7872 0.7458 0.7203 0.7084
757.706278 0.6950 0.6854 0.6798 0.6752 0.6708
752.743274 0.6659 0.6598 0.6408 0.5894 0.5380
747.780269 0.4866 0.4352 0.3874 0.3593 0.3563
742.817265 0.3559 0.3560 0.3608 0.3745 0.3991
737.854260 0.4243 0.4496 0.4749 0.5002 0.5256
732.891256 0.5516 0.5768 0.6021 0.6274 0.6519
727.928251 0.6635 0.6646 0.6654 0.6662 0.6669
722.965247 0.6673 0.6675 0.6712 0.6775 0.6859
718.002242 0.6929 0.7001 0.7069 0.7118 0.7155
713.039238 0.7181 0.7205 0.7228 0.7239 0.7246
708.076233 0.7250 0.7240 0.7240 0.7200 0.7128
703.113229 0.7001 0.6860 0.6732 0.6626 0.6519
698.150224 0.6403 0.6286 0.6114 0.5127 0.4811
693.187220 0.4666 0.4283 0.3933 0.3604 0.3272
688.224215 0.2979 0.2804 0.2718 0.2672 0.2645
683.261211 0.2627 0.2612 0.2601 0.2606 0.2612
678.298206 0.2615 0.2633 0.2722 0.2863 0.3069
673.335202 0.3222 0.3358 0.3498 0.3594 0.3758
668.372197 0.3990 0.4235 0.4481 0.4728 0.4977
663.409193 0.5231 0.5487 0.5685 0.5829 0.6021
658.446188 0.6259 0.6468 0.6597 0.6676 0.6752
653.483184 0.6818 0.6877 0.6935 0.6994 0.7049
648.520179 0.7095 0.7133 0.7168 0.7198 0.7214
643.557175 0.7214 0.7205 0.7197 0.7186 0.7178
638.594170 0.7173 0.7163 0.7149 0.7140 0.7132
633.631166 0.7125 0.7131 0.7158 0.7201 0.7242
628.668161 0.7280 0.7320 0.7346 0.7364 0.7390
623.705157 0.7414 0.7440 0.7471 0.7502 0.7522
618.742152 0.7539 0.7560 0.7573 0.7583 0.7594
613.779148 0.7599 0.7598 0.7598 0.7592 0.7574
608.816143 0.7557 0.7535 0.7500 0.7460 0.7408
603.853139 0.7359 0.7309 0.7255 0.7164 0.7046
598.890135 0.6957 0.6869 0.6782 0.6694 0.6607
593.927130 0.6519 0.6446 0.6397 0.6370 0.6365
588.964126 0.6410 0.6542 0.6732 0.6927 0.7121
584.001121 0.7316 0.7391 0.7432 0.7470 0.7479
579.038117 0.7487 0.7490 0.7493 0.7467 0.7427
574.075112 0.7353 0.7274 0.7197 0.7150 0.7124
569.112108 0.7122 0.7126 0.7135 0.7167 0.7246
564.149103 0.7295 0.7318 0.7340 0.7385 0.7437
559.186099 0.7489 0.7538 0.7588 0.7642 0.7681
554.223094 0.7716 0.7751 0.7783 0.7814 0.7845
549.260090 0.7874 0.7899 0.7915 0.7928 0.7940
544.297085 0.7951 0.7961 0.7971 0.7985 0.7994
539.334081 0.8003 0.8009 0.8006 0.8002 0.7990
534.371076 0.7966 0.7928 0.7877 0.7816 0.7764
529.408072 0.7725 0.7712 0.7711 0.7711 0.7717
524.445067 0.7739 0.7777 0.7812 0.7837 0.7862
519.482063 0.7888 0.7909 0.7926 0.7938 0.7947
514.519058 0.7953 0.7956 0.7954 0.7950 0.7943
509.556054 0.7928 0.7898 0.7855 0.7810 0.7763
504.593049 0.7715 0.7662 0.7597 0.7532 0.7477
499.630045 0.7438 0.7421 0.7410 0.7404 0.7414
494.667040 0.7426 0.7454 0.7515 0.7588 0.7661
489.704036 0.7726 0.7774 0.7804 0.7834 0.7864
484.741031 0.7889 0.7913 0.7936 0.7958 0.7976
479.778027 0.7992 0.8003 0.8008 0.8015 0.8021
474.815022 0.8027 0.8035 0.8040 0.8042 0.8045
469.852018 0.8046 0.8041 0.8036 0.8031 0.8025
464.889013 0.8021 0.8017 0.8013 0.8010 0.8006
459.926009 0.8003 0.7998 0.7994 0.7991 0.7987
454.963004 0.7983 0.7980 0.7977 0.7975 0.7970
##END=
