##TITLE=TRIETHYLSILANE
##JCAMP-DX=4.24
##DATA TYPE=INFRARED SPECTRUM
##CLASS=COBLENTZ
##ORIGIN=PENINSULAR CHEM RESEARCH, INC., GAINESVILLE, FLORIDA
##OWNER=COBLENTZ SOCIETY
Collection (C) 2018 copyright by the U.S. Secretary of Commerce
on behalf of the United States of America. All rights reserved.
##DATE=Not specified, most likely prior to 1970
##CAS REGISTRY NO=617-86-7
##MOLFORM=C6 H16 Si
##SOURCE REFERENCE=COBLENTZ NO. 4907
##$NIST SOURCE=COBLENTZ
##$NIST IMAGE=cob4907
##SPECTROMETER/DATA SYSTEM=BECKMAN IR-4 (HYBRID PRISM-GRATING)
##STATE=SOLID (BETWEEN SALTS)
##SAMPLING PROCEDURE=TRANSMISSION
##RESOLUTION=4
$$ MW 116.28
##DATA PROCESSING=DIGITIZED BY NIST FROM HARD COPY
##XUNITS=MICROMETERS
##YUNITS=TRANSMITTANCE
##XFACTOR=1.000000
##YFACTOR=1
##DELTAX=000.004994
##FIRSTX=2.025
##LASTX=15.014
##FIRSTY=0.974
##MAXX=15.014
##MINX=2.025
##MAXY=0.976
##MINY=0.032
##NPOINTS=2602
##XYDATA=(X++(Y..Y))
2.025000 0.9740 0.9760 0.9740 0.9720 0.9730
2.049978 0.9760 0.9760 0.9760 0.9740 0.9740
2.075000 0.9740 0.9740 0.9730 0.9730 0.9720
2.099978 0.9720 0.9720 0.9720 0.9720 0.9720
2.125000 0.9720 0.9730 0.9720 0.9720 0.9720
2.149978 0.9720 0.9720 0.9720 0.9710 0.9710
2.175000 0.9680 0.9680 0.9670 0.9660 0.9640
2.199978 0.9640 0.9610 0.9560 0.9520 0.9490
2.225000 0.9430 0.9390 0.9370 0.9370 0.9360
2.249978 0.9340 0.9340 0.9320 0.9300 0.9290
2.275000 0.9250 0.9240 0.9240 0.9270 0.9300
2.299978 0.9360 0.9420 0.9440 0.9470 0.9480
2.325000 0.9480 0.9470 0.9460 0.9460 0.9430
2.349978 0.9370 0.9330 0.9320 0.9320 0.9330
2.375000 0.9340 0.9360 0.9370 0.9390 0.9410
2.399978 0.9430 0.9460 0.9470 0.9490 0.9530
2.424000 0.9570 0.9610 0.9660 0.9710 0.9720
2.448978 0.9720 0.9730 0.9730 0.9720 0.9690
2.474000 0.9670 0.9640 0.9630 0.9580 0.9560
2.498978 0.9530 0.9510 0.9470 0.9430 0.9390
2.524000 0.9370 0.9340 0.9320 0.9320 0.9300
2.548978 0.9300 0.9300 0.9320 0.9320 0.9330
2.574000 0.9330 0.9340 0.9360 0.9360 0.9370
2.598978 0.9370 0.9380 0.9380 0.9380 0.9370
2.624000 0.9360 0.9330 0.9330 0.9320 0.9320
2.648978 0.9300 0.9300 0.9300 0.9300 0.9320
2.674000 0.9330 0.9330 0.9330 0.9320 0.9320
2.698978 0.9320 0.9320 0.9320 0.9330 0.9330
2.724000 0.9330 0.9340 0.9360 0.9370 0.9380
2.748978 0.9390 0.9410 0.9420 0.9420 0.9430
2.774000 0.9430 0.9440 0.9470 0.9480 0.9490
2.798978 0.9510 0.9530 0.9540 0.9560 0.9570
2.824000 0.9570 0.9590 0.9610 0.9620 0.9630
2.848978 0.9640 0.9640 0.9660 0.9670 0.9670
2.874000 0.9680 0.9690 0.9690 0.9710 0.9710
2.898978 0.9710 0.9690 0.9690 0.9680 0.9660
2.924000 0.9640 0.9660 0.9660 0.9670 0.9670
2.948978 0.9660 0.9660 0.9640 0.9640 0.9640
2.974000 0.9630 0.9620 0.9620 0.9610 0.9610
2.998978 0.9590 0.9590 0.9590 0.9610 0.9620
3.024000 0.9630 0.9640 0.9660 0.9660 0.9660
3.048978 0.9660 0.9660 0.9660 0.9640 0.9630
3.074000 0.9620 0.9620 0.9610 0.9610 0.9610
3.098978 0.9610 0.9610 0.9610 0.9610 0.9590
3.124000 0.9580 0.9570 0.9520 0.9520 0.9490
3.148978 0.9490 0.9470 0.9460 0.9440 0.9430
3.174000 0.9410 0.9370 0.9330 0.9320 0.9270
3.198978 0.9200 0.9170 0.9120 0.9080 0.9040
3.223000 0.9020 0.9000 0.8980 0.8940 0.8890
3.247978 0.8840 0.8780 0.8720 0.8640 0.8550
3.273000 0.8440 0.8330 0.8180 0.8030 0.7910
3.297978 0.7720 0.7650 0.7370 0.7170 0.6870
3.323000 0.6520 0.6120 0.5690 0.5230 0.4750
3.347978 0.4500 0.4250 0.3720 0.3190 0.2650
3.373000 0.2350 0.2120 0.2100 0.2120 0.2300
3.397978 0.2370 0.2450 0.2540 0.2620 0.2630
3.423000 0.2630 0.2640 0.2670 0.2740 0.2840
3.447978 0.2970 0.3130 0.3350 0.3610 0.3930
3.473000 0.4320 0.5290 0.6320 0.6510 0.6820
3.497978 0.7160 0.7400 0.7440 0.7470 0.7470
3.523000 0.7510 0.7540 0.7550 0.7570 0.7610
3.547978 0.7690 0.7800 0.7960 0.8180 0.8460
3.573000 0.8630 0.8820 0.8950 0.9000 0.9000
3.597978 0.9020 0.9020 0.9000 0.8980 0.8970
3.623000 0.8930 0.8930 0.8920 0.8920 0.8930
3.647978 0.8950 0.9130 0.9190 0.9230 0.9240
3.673000 0.9240 0.9240 0.9240 0.9250 0.9270
3.697978 0.9290 0.9330 0.9370 0.9370 0.9360
3.723000 0.9340 0.9340 0.9340 0.9320 0.9320
3.747978 0.9320 0.9300 0.9300 0.9300 0.9320
3.773000 0.9340 0.9370 0.9420 0.9430 0.9430
3.797978 0.9410 0.9390 0.9380 0.9370 0.9380
3.823000 0.9440 0.9460 0.9470 0.9480 0.9490
3.847978 0.9490 0.9510 0.9510 0.9510 0.9520
3.873000 0.9520 0.9520 0.9520 0.9520 0.9520
3.897978 0.9520 0.9520 0.9520 0.9520 0.9520
3.923000 0.9520 0.9520 0.9520 0.9520 0.9520
3.947978 0.9520 0.9520 0.9520 0.9510 0.9510
3.973000 0.9510 0.9510 0.9510 0.9510 0.9510
3.997978 0.9510 0.9490 0.9490 0.9480 0.9480
4.022000 0.9480 0.9470 0.9470 0.9460 0.9440
4.046978 0.9440 0.9420 0.9420 0.9420 0.9410
4.072000 0.9410 0.9410 0.9420 0.9420 0.9440
4.096978 0.9440 0.9440 0.9440 0.9440 0.9430
4.122000 0.9420 0.9420 0.9410 0.9390 0.9370
4.146978 0.9370 0.9360 0.9340 0.9330 0.9330
4.172000 0.9320 0.9300 0.9290 0.9250 0.9240
4.196978 0.9230 0.9230 0.9230 0.9230 0.9240
4.222000 0.9240 0.9250 0.9250 0.9270 0.9280
4.246978 0.9290 0.9290 0.9330 0.9340 0.9360
4.272000 0.9370 0.9380 0.9380 0.9380 0.9390
4.296978 0.9390 0.9420 0.9420 0.9420 0.9420
4.322000 0.9420 0.9430 0.9430 0.9430 0.9430
4.346978 0.9430 0.9420 0.9420 0.9410 0.9410
4.372000 0.9410 0.9390 0.9390 0.9390 0.9380
4.396978 0.9370 0.9370 0.9340 0.9340 0.9340
4.422000 0.9330 0.9320 0.9300 0.9300 0.9300
4.446978 0.9290 0.9290 0.9280 0.9280 0.9270
4.472000 0.9250 0.9240 0.9230 0.9200 0.9180
4.496978 0.9140 0.9120 0.9090 0.9070 0.9040
4.522000 0.9030 0.9020 0.9020 0.9000 0.8990
4.546978 0.8980 0.8940 0.8940 0.8930 0.8920
4.572000 0.8890 0.8850 0.8830 0.8770 0.8690
4.596978 0.8610 0.8540 0.8450 0.8360 0.8280
4.622000 0.8160 0.8050 0.7920 0.7770 0.7620
4.646978 0.7450 0.7270 0.7060 0.6830 0.6520
4.672000 0.6180 0.5800 0.5440 0.5080 0.4780
4.696978 0.4520 0.4270 0.3800 0.3370 0.3040
4.722000 0.2740 0.2480 0.2200 0.2040 0.2020
4.746978 0.2020 0.2040 0.2150 0.2340 0.2550
4.772000 0.2980 0.3330 0.3780 0.4300 0.5400
4.796978 0.5940 0.6460 0.6880 0.7210 0.7460
4.821000 0.7660 0.7840 0.7990 0.8130 0.8240
4.845978 0.8330 0.8410 0.8490 0.8550 0.8630
4.871000 0.8690 0.8780 0.8850 0.8900 0.8940
4.895978 0.8980 0.9050 0.9090 0.9140 0.9180
4.921000 0.9230 0.9270 0.9300 0.9320 0.9330
4.945978 0.9330 0.9340 0.9340 0.9340 0.9340
4.971000 0.9330 0.9330 0.9320 0.9330 0.9330
4.995978 0.9340 0.9360 0.9370 0.9380 0.9390
5.021000 0.9420 0.9420 0.9410 0.9390 0.9380
5.045978 0.9370 0.9370 0.9380 0.9380 0.9410
5.071000 0.9410 0.9410 0.9410 0.9390 0.9390
5.095978 0.9390 0.9380 0.9370 0.9370 0.9360
5.121000 0.9340 0.9340 0.9340 0.9340 0.9340
5.145978 0.9360 0.9370 0.9380 0.9380 0.9380
5.171000 0.9390 0.9410 0.9410 0.9410 0.9410
5.195978 0.9410 0.9410 0.9410 0.9410 0.9410
5.221000 0.9410 0.9410 0.9410 0.9420 0.9420
5.245978 0.9430 0.9430 0.9410 0.9410 0.9410
5.271000 0.9420 0.9430 0.9430 0.9430 0.9430
5.295978 0.9430 0.9410 0.9420 0.9420 0.9430
5.321000 0.9440 0.9440 0.9430 0.9410 0.9410
5.345978 0.9430 0.9430 0.9430 0.9440 0.9440
5.371000 0.9440 0.9420 0.9390 0.9390 0.9370
5.395978 0.9340 0.9340 0.9330 0.9320 0.9320
5.421000 0.9320 0.9320 0.9300 0.9300 0.9300
5.445978 0.9300 0.9300 0.9290 0.9280 0.9280
5.471000 0.9280 0.9280 0.9280 0.9280 0.9280
5.495978 0.9280 0.9270 0.9270 0.9250 0.9250
5.521000 0.9250 0.9270 0.9270 0.9270 0.9270
5.545978 0.9280 0.9280 0.9280 0.9290 0.9290
5.571000 0.9300 0.9300 0.9300 0.9320 0.9330
5.595978 0.9360 0.9380 0.9390 0.9410 0.9410
5.620000 0.9420 0.9420 0.9420 0.9410 0.9390
5.644978 0.9380 0.9370 0.9370 0.9370 0.9360
5.670000 0.9360 0.9340 0.9340 0.9330 0.9330
5.694978 0.9330 0.9320 0.9330 0.9330 0.9330
5.720000 0.9330 0.9330 0.9330 0.9320 0.9320
5.744978 0.9300 0.9300 0.9290 0.9290 0.9280
5.770000 0.9280 0.9270 0.9270 0.9270 0.9250
5.794978 0.9240 0.9230 0.9230 0.9230 0.9230
5.820000 0.9230 0.9230 0.9230 0.9230 0.9220
5.844978 0.9220 0.9220 0.9220 0.9220 0.9220
5.870000 0.9220 0.9220 0.9220 0.9230 0.9240
5.894978 0.9240 0.9250 0.9270 0.9270 0.9270
5.920000 0.9270 0.9280 0.9280 0.9300 0.9320
5.944978 0.9340 0.9360 0.9370 0.9370 0.9380
5.970000 0.9380 0.9380 0.9380 0.9390 0.9390
5.994978 0.9410 0.9420 0.9420 0.9420 0.9410
6.020000 0.9390 0.9380 0.9380 0.9360 0.9360
6.044978 0.9360 0.9360 0.9370 0.9370 0.9380
6.070000 0.9380 0.9380 0.9340 0.9340 0.9340
6.094978 0.9340 0.9360 0.9360 0.9360 0.9340
6.120000 0.9340 0.9340 0.9330 0.9330 0.9330
6.144978 0.9330 0.9330 0.9320 0.9320 0.9320
6.170000 0.9320 0.9320 0.9320 0.9320 0.9320
6.194978 0.9320 0.9320 0.9330 0.9340 0.9340
6.220000 0.9370 0.9380 0.9390 0.9390 0.9410
6.244978 0.9410 0.9420 0.9420 0.9420 0.9420
6.270000 0.9420 0.9420 0.9410 0.9390 0.9380
6.294978 0.9380 0.9360 0.9340 0.9330 0.9320
6.320000 0.9290 0.9270 0.9250 0.9240 0.9230
6.344978 0.9220 0.9220 0.9190 0.9190 0.9180
6.370000 0.9170 0.9140 0.9130 0.9130 0.9120
6.394978 0.9120 0.9100 0.9100 0.9090 0.9090
6.419000 0.9070 0.9050 0.9040 0.9020 0.9020
6.443978 0.9000 0.8950 0.8930 0.8920 0.8920
6.469000 0.8920 0.8920 0.8900 0.8890 0.8890
6.493978 0.8880 0.8870 0.8840 0.8840 0.8830
6.519000 0.8820 0.8790 0.8750 0.8740 0.8730
6.543978 0.8720 0.8720 0.8700 0.8700 0.8690
6.569000 0.8690 0.8680 0.8670 0.8670 0.8650
6.593978 0.8630 0.8610 0.8610 0.8590 0.8580
6.619000 0.8580 0.8560 0.8550 0.8540 0.8530
6.643978 0.8500 0.8490 0.8450 0.8410 0.8380
6.669000 0.8340 0.8300 0.8260 0.8180 0.8090
6.693978 0.7990 0.7920 0.7870 0.7820 0.7800
6.719000 0.7740 0.7690 0.7610 0.7500 0.7300
6.743978 0.7000 0.6560 0.6080 0.5780 0.5430
6.769000 0.5190 0.5050 0.4960 0.4910 0.4840
6.793978 0.4780 0.4760 0.4780 0.4810 0.4900
6.819000 0.5010 0.5180 0.5380 0.5600 0.5790
6.843978 0.5970 0.6110 0.6230 0.6320 0.6410
6.869000 0.6530 0.6700 0.6870 0.7050 0.7220
6.893978 0.7390 0.7500 0.7560 0.7650 0.7710
6.919000 0.7750 0.7790 0.7800 0.7800 0.7800
6.943978 0.7800 0.7790 0.7740 0.7670 0.7640
6.969000 0.7520 0.7450 0.7400 0.7340 0.7250
6.993978 0.7110 0.6880 0.6570 0.6130 0.6020
7.019000 0.5820 0.5630 0.5530 0.5340 0.5330
7.043978 0.5340 0.5430 0.5580 0.5740 0.5930
7.069000 0.6160 0.6380 0.6640 0.6910 0.7200
7.093978 0.7490 0.7770 0.7990 0.8140 0.8260
7.119000 0.8300 0.8460 0.8530 0.8580 0.8610
7.143978 0.8630 0.8630 0.8610 0.8600 0.8590
7.169000 0.8580 0.8540 0.8510 0.8480 0.8430
7.193978 0.8350 0.8250 0.8110 0.7970 0.7910
7.218000 0.7840 0.7790 0.7710 0.7700 0.7710
7.242978 0.7920 0.8080 0.8280 0.8450 0.8590
7.268000 0.8700 0.8800 0.8880 0.8940 0.8990
7.292978 0.9050 0.9080 0.9100 0.9130 0.9150
7.318000 0.9180 0.9200 0.9200 0.9220 0.9220
7.342978 0.9220 0.9220 0.9220 0.9220 0.9220
7.368000 0.9230 0.9230 0.9240 0.9240 0.9240
7.392978 0.9240 0.9230 0.9230 0.9230 0.9230
7.418000 0.9230 0.9230 0.9230 0.9230 0.9230
7.442978 0.9220 0.9220 0.9220 0.9220 0.9220
7.468000 0.9200 0.9200 0.9200 0.9200 0.9200
7.492978 0.9200 0.9200 0.9200 0.9200 0.9200
7.518000 0.9200 0.9200 0.9200 0.9200 0.9200
7.542978 0.9200 0.9200 0.9200 0.9190 0.9190
7.568000 0.9180 0.9150 0.9140 0.9130 0.9120
7.592978 0.9100 0.9090 0.9090 0.9080 0.9070
7.618000 0.9070 0.9050 0.9050 0.9040 0.9040
7.642978 0.9040 0.9030 0.9030 0.9030 0.9030
7.668000 0.9020 0.9020 0.9000 0.8990 0.8990
7.692978 0.8980 0.8980 0.8970 0.8970 0.8950
7.718000 0.8950 0.8940 0.8940 0.8940 0.8940
7.742978 0.8940 0.8940 0.8940 0.8950 0.8950
7.768000 0.8950 0.8950 0.8950 0.8950 0.8950
7.792978 0.8950 0.8950 0.8950 0.8950 0.8950
7.818000 0.8950 0.8940 0.8940 0.8940 0.8930
7.842978 0.8920 0.8920 0.8900 0.8880 0.8870
7.868000 0.8840 0.8830 0.8820 0.8820 0.8800
7.892978 0.8790 0.8740 0.8700 0.8670 0.8630
7.918000 0.8580 0.8540 0.8480 0.8430 0.8360
7.942978 0.8280 0.8230 0.8160 0.8080 0.8040
7.968000 0.7960 0.7890 0.7790 0.7670 0.7550
7.992978 0.7440 0.7300 0.7150 0.7000 0.6850
8.017000 0.6680 0.6530 0.6370 0.6220 0.6070
8.041978 0.5930 0.5780 0.5630 0.5550 0.5480
8.067000 0.5400 0.5340 0.5330 0.5310 0.5330
8.091978 0.5350 0.5470 0.5580 0.5700 0.5840
8.117000 0.5980 0.6130 0.6280 0.6430 0.6590
8.141978 0.6750 0.6910 0.7070 0.7220 0.7370
8.167000 0.7520 0.7670 0.7810 0.7940 0.8060
8.191978 0.8190 0.8290 0.8380 0.8460 0.8530
8.217000 0.8580 0.8610 0.8650 0.8690 0.8730
8.241978 0.8750 0.8780 0.8800 0.8830 0.8870
8.267000 0.8890 0.8900 0.8940 0.8950 0.8950
8.291978 0.8970 0.8970 0.8970 0.8980 0.8980
8.317000 0.9050 0.9080 0.9090 0.9120 0.9140
8.341978 0.9150 0.9170 0.9190 0.9200 0.9230
8.367000 0.9240 0.9240 0.9250 0.9250 0.9250
8.391978 0.9250 0.9270 0.9270 0.9280 0.9280
8.417000 0.9300 0.9330 0.9330 0.9340 0.9360
8.441978 0.9360 0.9360 0.9360 0.9360 0.9370
8.467000 0.9370 0.9380 0.9410 0.9420 0.9420
8.491978 0.9420 0.9430 0.9430 0.9430 0.9430
8.517000 0.9430 0.9430 0.9440 0.9440 0.9460
8.541978 0.9460 0.9460 0.9460 0.9460 0.9460
8.567000 0.9460 0.9460 0.9440 0.9440 0.9440
8.591978 0.9460 0.9460 0.9460 0.9460 0.9440
8.617000 0.9440 0.9430 0.9430 0.9410 0.9410
8.641978 0.9390 0.9390 0.9380 0.9380 0.9380
8.667000 0.9370 0.9370 0.9360 0.9360 0.9360
8.691978 0.9340 0.9340 0.9340 0.9360 0.9360
8.717000 0.9360 0.9370 0.9370 0.9380 0.9390
8.741978 0.9420 0.9430 0.9440 0.9480 0.9480
8.767000 0.9490 0.9490 0.9490 0.9490 0.9490
8.791978 0.9490 0.9490 0.9490 0.9510 0.9510
8.816000 0.9510 0.9510 0.9510 0.9520 0.9520
8.840978 0.9520 0.9530 0.9530 0.9540 0.9560
8.866000 0.9560 0.9560 0.9560 0.9540 0.9530
8.890978 0.9520 0.9520 0.9510 0.9510 0.9490
8.916000 0.9490 0.9480 0.9480 0.9470 0.9470
8.940978 0.9470 0.9460 0.9460 0.9440 0.9440
8.966000 0.9430 0.9430 0.9420 0.9420 0.9420
8.990978 0.9430 0.9430 0.9440 0.9460 0.9460
9.016000 0.9470 0.9470 0.9470 0.9470 0.9460
9.040978 0.9460 0.9460 0.9460 0.9460 0.9460
9.066000 0.9440 0.9430 0.9430 0.9430 0.9430
9.090978 0.9430 0.9440 0.9460 0.9460 0.9460
9.116000 0.9440 0.9430 0.9430 0.9430 0.9420
9.140978 0.9410 0.9390 0.9390 0.9380 0.9380
9.166000 0.9380 0.9380 0.9380 0.9380 0.9380
9.190978 0.9370 0.9370 0.9360 0.9340 0.9320
9.216000 0.9320 0.9300 0.9300 0.9300 0.9300
9.240978 0.9300 0.9280 0.9270 0.9250 0.9250
9.266000 0.9240 0.9240 0.9230 0.9230 0.9220
9.290978 0.9220 0.9200 0.9190 0.9180 0.9170
9.316000 0.9170 0.9150 0.9150 0.9130 0.9130
9.340978 0.9120 0.9120 0.9120 0.9100 0.9100
9.366000 0.9100 0.9100 0.9090 0.9090 0.9080
9.390978 0.9050 0.9050 0.9040 0.9020 0.9020
9.416000 0.9000 0.8990 0.8990 0.8970 0.8970
9.440978 0.8950 0.8950 0.8950 0.8940 0.8940
9.466000 0.8930 0.8920 0.8920 0.8900 0.8850
9.490978 0.8840 0.8840 0.8830 0.8830 0.8820
9.516000 0.8780 0.8750 0.8730 0.8720 0.8690
9.540978 0.8650 0.8630 0.8590 0.8540 0.8500
9.566000 0.8480 0.8450 0.8450 0.8440 0.8430
9.590978 0.8400 0.8360 0.8300 0.8250 0.8190
9.615000 0.8140 0.8090 0.8040 0.7990 0.7900
9.639978 0.7860 0.7790 0.7700 0.7610 0.7510
9.665000 0.7410 0.7310 0.7230 0.7170 0.7050
9.689978 0.6910 0.6760 0.6610 0.6460 0.6290
9.715000 0.6120 0.5940 0.5750 0.5550 0.5350
9.739978 0.5140 0.4910 0.4680 0.4550 0.4420
9.765000 0.4170 0.3910 0.3620 0.3430 0.3220
9.789978 0.3020 0.2820 0.2640 0.2480 0.2430
9.815000 0.2350 0.2290 0.2230 0.2200 0.2190
9.839978 0.2190 0.2200 0.2230 0.2240 0.2280
9.865000 0.2330 0.2370 0.2420 0.2450 0.2500
9.889978 0.2570 0.2620 0.2670 0.2720 0.2770
9.915000 0.2830 0.2880 0.2920 0.2970 0.3010
9.939978 0.3030 0.3090 0.3180 0.3280 0.3400
9.965000 0.3520 0.3660 0.3800 0.3910 0.4090
9.989978 0.4250 0.4400 0.4710 0.4850 0.4990
10.015000 0.5130 0.5240 0.5370 0.5470 0.5550
10.039978 0.5640 0.5720 0.5770 0.5820 0.5840
10.065000 0.5880 0.5880 0.5880 0.5870 0.5850
10.089978 0.5830 0.5790 0.5740 0.5700 0.5640
10.115000 0.5580 0.5500 0.5430 0.5330 0.5240
10.139978 0.5130 0.5010 0.4900 0.4760 0.4620
10.165000 0.4550 0.4460 0.4300 0.4140 0.3960
10.189978 0.3800 0.3630 0.3470 0.3310 0.3170
10.215000 0.3030 0.2910 0.2790 0.2710 0.2630
10.239978 0.2570 0.2530 0.2520 0.2520 0.2520
10.265000 0.2530 0.2550 0.2580 0.2600 0.2620
10.289978 0.2630 0.2650 0.2690 0.2730 0.2770
10.315000 0.2810 0.2840 0.2890 0.2940 0.3010
10.339978 0.3070 0.3160 0.3240 0.3350 0.3460
10.365000 0.3580 0.3720 0.3870 0.4050 0.4240
10.389978 0.4450 0.4860 0.5050 0.5250 0.5450
10.414000 0.5650 0.5870 0.6080 0.6230 0.6360
10.438978 0.6490 0.6610 0.6720 0.6820 0.6920
10.464000 0.7010 0.7100 0.7180 0.7260 0.7320
10.488978 0.7390 0.7450 0.7500 0.7550 0.7600
10.514000 0.7650 0.7690 0.7710 0.7750 0.7770
10.538978 0.7810 0.7820 0.7850 0.7890 0.7910
10.564000 0.7940 0.7950 0.7950 0.7960 0.7960
10.588978 0.7960 0.7960 0.7960 0.7960 0.7970
10.614000 0.8000 0.8030 0.8040 0.8080 0.8110
10.638978 0.8140 0.8160 0.8190 0.8230 0.8260
10.664000 0.8280 0.8290 0.8310 0.8330 0.8340
10.688978 0.8360 0.8390 0.8410 0.8440 0.8480
10.714000 0.8530 0.8580 0.8630 0.8640 0.8670
10.738978 0.8680 0.8690 0.8700 0.8720 0.8730
10.764000 0.8740 0.8740 0.8750 0.8750 0.8770
10.788978 0.8780 0.8780 0.8800 0.8830 0.8830
10.814000 0.8840 0.8840 0.8840 0.8840 0.8850
10.838978 0.8870 0.8870 0.8880 0.8900 0.8900
10.864000 0.8900 0.8900 0.8920 0.8920 0.8920
10.888978 0.8930 0.8930 0.8930 0.8930 0.8930
10.914000 0.8930 0.8930 0.8930 0.8940 0.8940
10.938978 0.8940 0.8950 0.8950 0.8950 0.8950
10.964000 0.8970 0.8970 0.8970 0.8970 0.8970
10.988978 0.8970 0.8970 0.8970 0.8970 0.8980
11.014000 0.8970 0.8970 0.8950 0.8940 0.8950
11.038978 0.8950 0.8950 0.8950 0.8940 0.8930
11.064000 0.8920 0.8920 0.8900 0.8900 0.8900
11.088978 0.8920 0.8920 0.8920 0.8920 0.8920
11.114000 0.8920 0.8900 0.8890 0.8890 0.8880
11.138978 0.8870 0.8870 0.8850 0.8850 0.8850
11.164000 0.8850 0.8870 0.8870 0.8850 0.8850
11.188978 0.8840 0.8840 0.8840 0.8840 0.8840
11.213000 0.8840 0.8830 0.8830 0.8850 0.8850
11.237978 0.8850 0.8850 0.8840 0.8830 0.8820
11.263000 0.8800 0.8790 0.8780 0.8780 0.8770
11.287978 0.8770 0.8750 0.8750 0.8750 0.8750
11.313000 0.8750 0.8750 0.8740 0.8740 0.8730
11.337978 0.8730 0.8730 0.8730 0.8720 0.8720
11.363000 0.8720 0.8700 0.8700 0.8690 0.8680
11.387978 0.8680 0.8650 0.8650 0.8650 0.8650
11.413000 0.8640 0.8640 0.8630 0.8630 0.8610
11.437978 0.8610 0.8600 0.8600 0.8590 0.8580
11.463000 0.8560 0.8560 0.8550 0.8540 0.8530
11.487978 0.8510 0.8500 0.8490 0.8490 0.8480
11.513000 0.8460 0.8460 0.8450 0.8440 0.8430
11.537978 0.8410 0.8400 0.8390 0.8380 0.8360
11.563000 0.8350 0.8340 0.8330 0.8330 0.8310
11.587978 0.8310 0.8300 0.8290 0.8280 0.8280
11.613000 0.8250 0.8230 0.8230 0.8210 0.8210
11.637978 0.8210 0.8210 0.8190 0.8180 0.8160
11.663000 0.8160 0.8150 0.8140 0.8090 0.8080
11.687978 0.8060 0.8040 0.8030 0.8010 0.7970
11.713000 0.7950 0.7940 0.7910 0.7890 0.7860
11.737978 0.7860 0.7850 0.7840 0.7810 0.7800
11.763000 0.7750 0.7700 0.7650 0.7620 0.7600
11.787978 0.7550 0.7540 0.7500 0.7470 0.7440
11.813000 0.7400 0.7360 0.7320 0.7270 0.7220
11.837978 0.7160 0.7130 0.7080 0.7030 0.7020
11.863000 0.6980 0.6900 0.6860 0.6820 0.6770
11.887978 0.6720 0.6680 0.6630 0.6580 0.6520
11.913000 0.6470 0.6410 0.6340 0.6280 0.6210
11.937978 0.6130 0.6060 0.5980 0.5890 0.5800
11.963000 0.5720 0.5620 0.5500 0.5450 0.5400
11.987978 0.5340 0.5260 0.5180 0.5060 0.4930
12.012000 0.4790 0.4690 0.4590 0.4550 0.4500
12.036978 0.4390 0.4260 0.4140 0.4010 0.3870
12.062000 0.3720 0.3560 0.3400 0.3280 0.3160
12.086978 0.3020 0.2890 0.2760 0.2620 0.2490
12.112000 0.2380 0.2270 0.2100 0.1940 0.1790
12.136978 0.1640 0.1500 0.1390 0.1260 0.1160
12.162000 0.1060 0.0960 0.0890 0.0810 0.0740
12.186978 0.0670 0.0610 0.0560 0.0520 0.0470
12.212000 0.0430 0.0410 0.0400 0.0380 0.0370
12.236978 0.0360 0.0360 0.0350 0.0350 0.0330
12.262000 0.0330 0.0330 0.0330 0.0320 0.0320
12.286978 0.0320 0.0320 0.0320 0.0320 0.0320
12.312000 0.0320 0.0320 0.0320 0.0320 0.0330
12.336978 0.0330 0.0350 0.0360 0.0360 0.0370
12.362000 0.0380 0.0410 0.0410 0.0450 0.0460
12.386978 0.0470 0.0520 0.0560 0.0580 0.0610
12.412000 0.0630 0.0660 0.0700 0.0740 0.0770
12.436978 0.0840 0.0900 0.1040 0.1060 0.1140
12.462000 0.1220 0.1320 0.1410 0.1500 0.1580
12.486978 0.1700 0.1800 0.1910 0.2020 0.2130
12.512000 0.2220 0.2330 0.2440 0.2540 0.2650
12.536978 0.2780 0.2890 0.3020 0.3140 0.3270
12.562000 0.3400 0.3530 0.3670 0.3800 0.3920
12.586978 0.4020 0.4090 0.4170 0.4310 0.4460
12.612000 0.4640 0.4730 0.4840 0.4940 0.5050
12.636978 0.5140 0.5210 0.5280 0.5340 0.5420
12.662000 0.5490 0.5590 0.5680 0.5750 0.5830
12.686978 0.5890 0.5920 0.5970 0.6010 0.6060
12.712000 0.6110 0.6170 0.6220 0.6270 0.6320
12.736978 0.6360 0.6380 0.6460 0.6520 0.6570
12.762000 0.6610 0.6660 0.6680 0.6720 0.6760
12.786978 0.6780 0.6820 0.6860 0.6910 0.6950
12.811000 0.6960 0.6970 0.7000 0.7010 0.7030
12.835978 0.7080 0.7130 0.7150 0.7150 0.7160
12.861000 0.7170 0.7220 0.7260 0.7310 0.7340
12.885978 0.7360 0.7360 0.7390 0.7410 0.7420
12.911000 0.7440 0.7450 0.7470 0.7500 0.7520
12.935978 0.7540 0.7550 0.7570 0.7590 0.7610
12.961000 0.7620 0.7640 0.7640 0.7650 0.7660
12.985978 0.7660 0.7670 0.7690 0.7700 0.7700
13.011000 0.7720 0.7760 0.7790 0.7810 0.7820
13.035978 0.7840 0.7850 0.7870 0.7890 0.7900
13.061000 0.7910 0.7940 0.7960 0.7990 0.8010
13.085978 0.8040 0.8060 0.8080 0.8090 0.8110
13.111000 0.8110 0.8130 0.8140 0.8150 0.8160
13.135978 0.8180 0.8180 0.8190 0.8190 0.8180
13.161000 0.8180 0.8160 0.8160 0.8160 0.8150
13.185978 0.8150 0.8150 0.8140 0.8130 0.8110
13.211000 0.8100 0.8050 0.8040 0.7990 0.7990
13.235978 0.7960 0.7960 0.7950 0.7920 0.7920
13.261000 0.7900 0.7850 0.7820 0.7810 0.7800
13.285978 0.7790 0.7750 0.7720 0.7710 0.7700
13.311000 0.7700 0.7690 0.7670 0.7660 0.7650
13.335978 0.7620 0.7610 0.7560 0.7550 0.7550
13.361000 0.7540 0.7510 0.7500 0.7490 0.7460
13.385978 0.7450 0.7440 0.7410 0.7410 0.7390
13.411000 0.7340 0.7310 0.7300 0.7250 0.7210
13.435978 0.7160 0.7150 0.7120 0.7110 0.7080
13.461000 0.7070 0.7030 0.7010 0.6980 0.6930
13.485978 0.6910 0.6870 0.6820 0.6770 0.6720
13.511000 0.6680 0.6640 0.6620 0.6570 0.6540
13.535978 0.6510 0.6460 0.6420 0.6370 0.6310
13.561000 0.6240 0.6180 0.6120 0.6060 0.5980
13.585978 0.5900 0.5820 0.5740 0.5650 0.5570
13.610000 0.5480 0.5390 0.5290 0.5190 0.5100
13.634978 0.5000 0.4900 0.4800 0.4700 0.4600
13.660000 0.4550 0.4490 0.4390 0.4290 0.4170
13.684978 0.4110 0.4020 0.3910 0.3810 0.3700
13.710000 0.3570 0.3470 0.3360 0.3260 0.3160
13.734978 0.3070 0.3010 0.2940 0.2880 0.2810
13.760000 0.2730 0.2720 0.2600 0.2580 0.2570
13.784978 0.2540 0.2520 0.2500 0.2500 0.2490
13.810000 0.2490 0.2490 0.2490 0.2490 0.2500
13.834978 0.2500 0.2520 0.2530 0.2550 0.2570
13.860000 0.2570 0.2590 0.2600 0.2620 0.2640
13.884978 0.2670 0.2690 0.2720 0.2760 0.2780
13.910000 0.2820 0.2840 0.2860 0.2870 0.2890
13.934978 0.2940 0.2990 0.3030 0.3030 0.3040
13.960000 0.3070 0.3080 0.3080 0.3090 0.3090
13.984978 0.3080 0.3070 0.3060 0.3060 0.3030
14.010000 0.3020 0.2990 0.2980 0.2970 0.2940
14.034978 0.2930 0.2910 0.2860 0.2830 0.2820
14.060000 0.2790 0.2770 0.2770 0.2740 0.2730
14.084978 0.2730 0.2710 0.2710 0.2690 0.2690
14.110000 0.2690 0.2690 0.2690 0.2710 0.2710
14.134978 0.2720 0.2730 0.2730 0.2740 0.2740
14.160000 0.2770 0.2780 0.2810 0.2840 0.2880
14.184978 0.2910 0.2960 0.2980 0.3010 0.3120
14.210000 0.3120 0.3210 0.3270 0.3330 0.3400
14.234978 0.3460 0.3520 0.3580 0.3650 0.3710
14.260000 0.3780 0.3850 0.3910 0.3980 0.4050
14.284978 0.4110 0.4170 0.4250 0.4310 0.4360
14.310000 0.4420 0.4490 0.4590 0.4660 0.4730
14.334978 0.4790 0.4840 0.4900 0.4950 0.5000
14.360000 0.5050 0.5090 0.5130 0.5180 0.5210
14.384978 0.5250 0.5280 0.5310 0.5340 0.5370
14.409000 0.5400 0.5430 0.5440 0.5470 0.5480
14.433978 0.5490 0.5520 0.5540 0.5550 0.5550
14.459000 0.5570 0.5580 0.5590 0.5600 0.5640
14.483978 0.5670 0.5680 0.5680 0.5700 0.5700
14.509000 0.5700 0.5700 0.5700 0.5700 0.5700
14.533978 0.5700 0.5720 0.5720 0.5720 0.5730
14.559000 0.5730 0.5740 0.5740 0.5750 0.5770
14.583978 0.5770 0.5780 0.5790 0.5800 0.5820
14.609000 0.5830 0.5840 0.5850 0.5870 0.5870
14.633978 0.5880 0.5880 0.5880 0.5900 0.5920
14.659000 0.5920 0.5930 0.5940 0.5950 0.5950
14.683978 0.5950 0.5950 0.5950 0.5970 0.5970
14.709000 0.5980 0.5980 0.5990 0.5990 0.5990
14.733978 0.5990 0.5990 0.5980 0.5980 0.5980
14.759000 0.5980 0.5970 0.5950 0.5950 0.5940
14.783978 0.5930 0.5920 0.5920 0.5900 0.5900
14.809000 0.5880 0.5870 0.5850 0.5840 0.5830
14.833978 0.5790 0.5780 0.5730 0.5720 0.5690
14.859000 0.5670 0.5640 0.5620 0.5590 0.5570
14.883978 0.5540 0.5520 0.5500 0.5490 0.5480
14.909000 0.5450 0.5440 0.5430 0.5430 0.5430
14.933978 0.5430 0.5430 0.5420 0.5400 0.5400
14.959000 0.5400 0.5400 0.5400 0.5400 0.5400
14.983978 0.5400 0.5400 0.5390 0.5390 0.5380
15.009000 0.5380 0.5380
##END=
