##TITLE=Benzene, 3-ethyl-1-methyl-
##JCAMP-DX=4.24
##DATA TYPE=INFRARED SPECTRUM
##CLASS=COBLENTZ III
##ORIGIN=DOW CHEMICAL COMPANY
##OWNER=Copyright (C) 1987 by the Coblentz Society
Collection (C) 2018 copyright by the U.S. Secretary of Commerce
on behalf of the United States of America. All rights reserved.
##DATE=1962/08/15
##NAMES=1-ethyl-3-methylbenzene
3-ETHYLTOLUENE
##CAS REGISTRY NO=620-14-4
##MOLFORM=C9 H12
##SOURCE REFERENCE=COBLENTZ NO. 6471
##$NIST SOURCE=COBLENTZ
##$NIST IMAGE=cob6471
##SPECTROMETER/DATA SYSTEM=DOW KBr FOREPRISM-GRATING
##INSTRUMENT PARAMETERS=BLAZED AT 3.5, 12.0, 20.0 MICRON AND CHANGED AT 5.0, 7.5, 14.9 MICRON
##STATE=SOLUTION (5% CCl4 FOR 3800-1330, 5% CS2 FOR 1330-450 CM^-^1)
##PATH LENGTH=0.011 CM, 0.011 CM
$$SPECTRAL CONTAMINATION DUE TO CS2 AROUND 650, 855, AND CCl4 AROUND 1550 CM^-^1
$$ SPECTRAL FEATURE AT 1994 CM^-^1 IS AN ARTIFACT CAUSED BY GRATING CHANGE
$$ SEE SPECTRUM NO. 3581 FOR "NEAT" SPECTRUM
##RESOLUTION=2
##XUNITS=1/CM
##YUNITS=TRANSMITTANCE
##XFACTOR=1.0
##YFACTOR=1
##FIRSTX=452
##LASTX=3796
##FIRSTY=0.8649
##MAXX=3796
##MINX=452
##MAXY=0.9138
##MINY=0.198
##NPOINTS=3345
##XYDATA=(X++(Y..Y))
452.000000 0.8649 0.8659 0.8668 0.8676 0.8689
457.000000 0.8701 0.8714 0.8726 0.8735 0.8742
462.000000 0.8748 0.8754 0.8759 0.8763 0.8767
467.000000 0.8770 0.8774 0.8778 0.8782 0.8786
472.000000 0.8789 0.8793 0.8801 0.8812 0.8823
477.000000 0.8834 0.8845 0.8856 0.8869 0.8884
482.000000 0.8899 0.8907 0.8909 0.8911 0.8913
487.000000 0.8915 0.8918 0.8920 0.8922 0.8924
492.000000 0.8925 0.8926 0.8927 0.8928 0.8930
497.000000 0.8931 0.8931 0.8932 0.8932 0.8933
502.000000 0.8933 0.8934 0.8934 0.8936 0.8942
507.000000 0.8948 0.8954 0.8963 0.8974 0.8985
512.000000 0.8996 0.9007 0.9018 0.9029 0.9040
517.000000 0.9048 0.9056 0.9063 0.9071 0.9070
522.000000 0.9070 0.9069 0.9068 0.9068 0.9066
527.000000 0.9064 0.9061 0.9059 0.9057 0.9064
532.000000 0.9073 0.9081 0.9090 0.9098 0.9107
537.000000 0.9111 0.9115 0.9118 0.9122 0.9126
542.000000 0.9129 0.9130 0.9130 0.9130 0.9130
547.000000 0.9130 0.9130 0.9130 0.9130 0.9130
552.000000 0.9130 0.9130 0.9130 0.9130 0.9130
557.000000 0.9130 0.9130 0.9130 0.9130 0.9130
562.000000 0.9130 0.9130 0.9130 0.9130 0.9130
567.000000 0.9134 0.9130 0.9130 0.9130 0.9130
572.000000 0.9130 0.9131 0.9131 0.9132 0.9132
577.000000 0.9132 0.9133 0.9133 0.9134 0.9134
582.000000 0.9135 0.9135 0.9136 0.9136 0.9136
587.000000 0.9137 0.9137 0.9138 0.9136 0.9134
592.000000 0.9132 0.9129 0.9127 0.9125 0.9122
597.000000 0.9120 0.9117 0.9115 0.9113 0.9110
602.000000 0.9108 0.9106 0.9103 0.9101 0.9098
607.000000 0.9096 0.9094 0.9091 0.9087 0.9082
612.000000 0.9077 0.9073 0.9068 0.9063 0.9058
617.000000 0.9052 0.9043 0.9035 0.9027 0.9018
622.000000 0.9010 0.9001 0.8993 0.8984 0.8971
627.000000 0.8953 0.8935 0.8917 0.8899 0.8881
632.000000 0.8863 0.8845 0.8824 0.8796 0.8769
637.000000 0.8741 0.8713 0.8685 0.8657 0.8628
642.000000 0.8600 0.8571 0.8542 0.8518 0.8496
647.000000 0.8474 0.8451 0.8438 0.8426 0.8415
652.000000 0.8403 0.8397 0.8404 0.8423 0.8462
657.000000 0.8505 0.8543 0.8581 0.8617 0.8653
662.000000 0.8680 0.8705 0.8715 0.8722 0.8719
667.000000 0.8715 0.8706 0.8697 0.8688 0.8658
672.000000 0.8594 0.8544 0.8536 0.8527 0.8520
677.000000 0.8513 0.8507 0.8500 0.8486 0.8465
682.000000 0.8437 0.8376 0.8313 0.8212 0.8092
687.000000 0.7936 0.7617 0.7380 0.6865 0.6033
692.000000 0.5938 0.5851 0.5068 0.4179 0.3290
697.000000 0.2667 0.2659 0.2673 0.2773 0.3624
702.000000 0.4475 0.5326 0.6177 0.7028 0.7680
707.000000 0.7740 0.7827 0.7933 0.8006 0.8047
712.000000 0.8031 0.8028 0.8018 0.7980 0.7923
717.000000 0.7769 0.7519 0.7296 0.7296 0.7289
722.000000 0.7605 0.7778 0.7951 0.8113 0.8201
727.000000 0.8239 0.8272 0.8298 0.8325 0.8332
732.000000 0.8312 0.8323 0.8312 0.8297 0.8275
737.000000 0.8239 0.8191 0.8142 0.8081 0.8034
742.000000 0.7987 0.7940 0.7891 0.7841 0.7791
747.000000 0.7741 0.7688 0.7633 0.7578 0.7523
752.000000 0.7391 0.7347 0.7340 0.7334 0.7328
757.000000 0.7322 0.7316 0.7306 0.7288 0.7263
762.000000 0.7230 0.7196 0.7162 0.7129 0.6970
767.000000 0.6814 0.6564 0.6459 0.6354 0.5675
772.000000 0.5424 0.4660 0.4370 0.4176 0.4020
777.000000 0.3943 0.3916 0.3900 0.3900 0.3917
782.000000 0.3923 0.3959 0.4024 0.4136 0.4310
787.000000 0.4495 0.4860 0.5040 0.5174 0.5302
792.000000 0.5448 0.5599 0.5752 0.5915 0.6078
797.000000 0.6257 0.6437 0.6618 0.6862 0.7494
802.000000 0.7742 0.7832 0.7922 0.8030 0.8138
807.000000 0.8258 0.8341 0.8397 0.8453 0.8476
812.000000 0.8497 0.8518 0.8539 0.8553 0.8564
817.000000 0.8576 0.8588 0.8599 0.8598 0.8596
822.000000 0.8594 0.8593 0.8591 0.8592 0.8585
827.000000 0.8576 0.8567 0.8559 0.8550 0.8542
832.000000 0.8531 0.8520 0.8510 0.8493 0.8469
837.000000 0.8432 0.8386 0.8339 0.8293 0.8233
842.000000 0.8166 0.8099 0.8014 0.7902 0.7747
847.000000 0.7587 0.7467 0.7391 0.7314 0.7250
852.000000 0.7188 0.7153 0.7146 0.7143 0.7143
857.000000 0.7156 0.7168 0.7188 0.7209 0.7233
862.000000 0.7257 0.7281 0.7290 0.7299 0.7331
867.000000 0.7311 0.7303 0.7289 0.7257 0.7213
872.000000 0.7135 0.7019 0.6495 0.5907 0.5319
877.000000 0.5246 0.5238 0.5242 0.5255 0.5597
882.000000 0.5951 0.6305 0.6545 0.6603 0.6715
887.000000 0.7230 0.7417 0.7532 0.7529 0.7527
892.000000 0.7449 0.7341 0.7243 0.7243 0.7246
897.000000 0.7253 0.7361 0.7762 0.7990 0.8380
902.000000 0.8483 0.8537 0.8571 0.8598 0.8618
907.000000 0.8639 0.8651 0.8663 0.8674 0.8685
912.000000 0.8692 0.8696 0.8701 0.8706 0.8710
917.000000 0.8715 0.8718 0.8721 0.8724 0.8727
922.000000 0.8730 0.8732 0.8735 0.8736 0.8736
927.000000 0.8736 0.8736 0.8736 0.8736 0.8736
932.000000 0.8736 0.8735 0.8744 0.8733 0.8733
937.000000 0.8732 0.8731 0.8730 0.8729 0.8726
942.000000 0.8723 0.8721 0.8718 0.8715 0.8712
947.000000 0.8709 0.8706 0.8700 0.8694 0.8688
952.000000 0.8682 0.8673 0.8659 0.8645 0.8631
957.000000 0.8617 0.8597 0.8576 0.8555 0.8534
962.000000 0.8513 0.8492 0.8464 0.8436 0.8432
967.000000 0.8430 0.8428 0.8428 0.8439 0.8435
972.000000 0.8444 0.8455 0.8466 0.8478 0.8492
977.000000 0.8506 0.8524 0.8549 0.8574 0.8592
982.000000 0.8596 0.8590 0.8587 0.8583 0.8578
987.000000 0.8573 0.8568 0.8563 0.8557 0.8552
992.000000 0.8548 0.8543 0.8538 0.8534 0.8530
997.000000 0.8528 0.8526 0.8524 0.8530 0.8539
1002.000000 0.8547 0.8559 0.8572 0.8579 0.8581
1007.000000 0.8581 0.8576 0.8571 0.8564 0.8556
1012.000000 0.8548 0.8540 0.8532 0.8520 0.8509
1017.000000 0.8498 0.8486 0.8475 0.8464 0.8452
1022.000000 0.8440 0.8427 0.8407 0.8386 0.8366
1027.000000 0.8322 0.8272 0.8218 0.8163 0.8109
1032.000000 0.8043 0.7967 0.7890 0.7844 0.7803
1037.000000 0.7791 0.7788 0.7781 0.7822 0.7862
1042.000000 0.7874 0.7880 0.7878 0.7895 0.7871
1047.000000 0.7832 0.7779 0.7734 0.7699 0.7671
1052.000000 0.7658 0.7666 0.7687 0.7652 0.7731
1057.000000 0.7752 0.7772 0.7793 0.7813 0.7832
1062.000000 0.7851 0.7871 0.7941 0.8028 0.8112
1067.000000 0.8183 0.8256 0.8336 0.8388 0.8419
1072.000000 0.8450 0.8478 0.8487 0.8496 0.8505
1077.000000 0.8516 0.8531 0.8546 0.8561 0.8569
1082.000000 0.8577 0.8585 0.8605 0.8579 0.8571
1087.000000 0.8561 0.8541 0.8521 0.8472 0.8406
1092.000000 0.8308 0.8221 0.8138 0.8064 0.7995
1097.000000 0.7987 0.7986 0.7984 0.7980 0.8517
1102.000000 0.8582 0.8644 0.8703 0.8737 0.8771
1107.000000 0.8803 0.8822 0.8842 0.8861 0.8880
1112.000000 0.8897 0.8913 0.8929 0.8945 0.8959
1117.000000 0.8964 0.8968 0.8973 0.8977 0.8982
1122.000000 0.8982 0.8977 0.8971 0.8984 0.8960
1127.000000 0.8955 0.8946 0.8930 0.8915 0.8899
1132.000000 0.8884 0.8869 0.8854 0.8839 0.8824
1137.000000 0.8809 0.8793 0.8786 0.8786 0.8786
1142.000000 0.8786 0.8786 0.8786 0.8782 0.8774
1147.000000 0.8765 0.8757 0.8748 0.8737 0.8714
1152.000000 0.8691 0.8665 0.8538 0.8411 0.8364
1157.000000 0.8361 0.8374 0.8484 0.8565 0.8601
1162.000000 0.8597 0.8613 0.8566 0.8545 0.8445
1167.000000 0.8301 0.8157 0.8039 0.8035 0.8025
1172.000000 0.8253 0.8461 0.8670 0.8684 0.8686
1177.000000 0.8687 0.8689 0.8690 0.8692 0.8694
1182.000000 0.8711 0.8731 0.8767 0.8811 0.8857
1187.000000 0.8869 0.8877 0.8874 0.8860 0.8868
1192.000000 0.8865 0.8863 0.8862 0.8860 0.8859
1197.000000 0.8858 0.8857 0.8857 0.8857 0.8858
1202.000000 0.8859 0.8860 0.8866 0.8872 0.8878
1207.000000 0.8884 0.8888 0.8891 0.8893 0.8896
1212.000000 0.8899 0.8901 0.8902 0.8902 0.8903
1217.000000 0.8904 0.8901 0.8896 0.8892 0.8887
1222.000000 0.8882 0.8877 0.8870 0.8863 0.8856
1227.000000 0.8849 0.8842 0.8834 0.8823 0.8812
1232.000000 0.8801 0.8790 0.8779 0.8768 0.8757
1237.000000 0.8751 0.8744 0.8738 0.8731 0.8729
1242.000000 0.8732 0.8735 0.8738 0.8729 0.8712
1247.000000 0.8695 0.8678 0.8661 0.8651 0.8642
1252.000000 0.8633 0.8625 0.8622 0.8622 0.8623
1257.000000 0.8623 0.8624 0.8624 0.8625 0.8625
1262.000000 0.8626 0.8627 0.8627 0.8628 0.8628
1267.000000 0.8628 0.8626 0.8624 0.8623 0.8621
1272.000000 0.8619 0.8616 0.8611 0.8605 0.8600
1277.000000 0.8594 0.8585 0.8576 0.8567 0.8558
1282.000000 0.8549 0.8540 0.8530 0.8520 0.8509
1287.000000 0.8498 0.8488 0.8477 0.8472 0.8469
1292.000000 0.8466 0.8463 0.8460 0.8457 0.8455
1297.000000 0.8455 0.8454 0.8453 0.8452 0.8451
1302.000000 0.8450 0.8449 0.8443 0.8438 0.8433
1307.000000 0.8427 0.8422 0.8416 0.8410 0.8398
1312.000000 0.8386 0.8374 0.8363 0.8351 0.8326
1317.000000 0.8301 0.8275 0.8249 0.8224 0.8190
1322.000000 0.8156 0.8121 0.8087 0.8059 0.8045
1327.000000 0.8055 0.8052 0.8083 0.8101 0.8118
1332.000000 0.8135 0.8154 0.8174 0.8194 0.8214
1337.000000 0.8234 0.8254 0.8275 0.8290 0.8296
1342.000000 0.8302 0.8308 0.8314 0.8320 0.8324
1347.000000 0.8323 0.8322 0.8321 0.8321 0.8320
1352.000000 0.8319 0.8318 0.8328 0.8312 0.8306
1357.000000 0.8299 0.8292 0.8285 0.8272 0.8248
1362.000000 0.8223 0.8190 0.8147 0.8103 0.8060
1367.000000 0.8013 0.7963 0.7913 0.7863 0.7778
1372.000000 0.7661 0.7544 0.7427 0.7310 0.7193
1377.000000 0.7155 0.7153 0.7159 0.7591 0.7923
1382.000000 0.8188 0.8199 0.8208 0.8218 0.8209
1387.000000 0.8208 0.8207 0.8205 0.8203 0.8201
1392.000000 0.8199 0.8197 0.8191 0.8183 0.8175
1397.000000 0.8165 0.8154 0.8144 0.8133 0.8122
1402.000000 0.8116 0.8113 0.8109 0.8106 0.8102
1407.000000 0.8099 0.8098 0.8100 0.8103 0.8106
1412.000000 0.8106 0.8093 0.8080 0.8066 0.8053
1417.000000 0.8033 0.8013 0.7992 0.7972 0.7948
1422.000000 0.7919 0.7890 0.7861 0.7827 0.7789
1427.000000 0.7750 0.7711 0.7672 0.7633 0.7592
1432.000000 0.7536 0.7481 0.7425 0.7369 0.7314
1437.000000 0.7255 0.7194 0.7133 0.7072 0.7011
1442.000000 0.6939 0.6857 0.6776 0.6694 0.6557
1447.000000 0.6386 0.6173 0.5903 0.5745 0.5586
1452.000000 0.5428 0.5269 0.5111 0.5042 0.5037
1457.000000 0.5034 0.5108 0.5186 0.5265 0.5343
1462.000000 0.5422 0.5500 0.5568 0.5619 0.5683
1467.000000 0.5748 0.5820 0.5902 0.6004 0.6151
1472.000000 0.6521 0.6691 0.6713 0.6727 0.6729
1477.000000 0.6696 0.6724 0.6714 0.6653 0.6535
1482.000000 0.6420 0.6325 0.6221 0.6107 0.5911
1487.000000 0.5477 0.5251 0.5025 0.4798 0.4732
1492.000000 0.4758 0.5017 0.5266 0.5514 0.5763
1497.000000 0.6012 0.6260 0.6354 0.6380 0.6349
1502.000000 0.6342 0.6318 0.6286 0.6246 0.6205
1507.000000 0.6166 0.6129 0.6089 0.6042 0.5996
1512.000000 0.5944 0.5892 0.5836 0.5778 0.5722
1517.000000 0.5670 0.5618 0.5563 0.5407 0.5250
1522.000000 0.5148 0.5166 0.5272 0.5394 0.5480
1527.000000 0.5477 0.5494 0.5383 0.5317 0.5267
1532.000000 0.5227 0.5186 0.5145 0.5102 0.5059
1537.000000 0.5014 0.4953 0.4886 0.4799 0.4716
1542.000000 0.4627 0.4548 0.4485 0.4406 0.4330
1547.000000 0.4273 0.4211 0.4187 0.4186 0.4187
1552.000000 0.4195 0.4217 0.4259 0.4319 0.4397
1557.000000 0.4481 0.4540 0.4599 0.4659 0.4719
1562.000000 0.4780 0.4842 0.4905 0.4981 0.5056
1567.000000 0.5131 0.5207 0.5283 0.5394 0.5525
1572.000000 0.5599 0.5633 0.5645 0.5650 0.5646
1577.000000 0.5667 0.5636 0.5630 0.5622 0.5613
1582.000000 0.5604 0.5579 0.5554 0.5524 0.5486
1587.000000 0.5420 0.5331 0.5242 0.5152 0.5143
1592.000000 0.5178 0.5425 0.6123 0.6202 0.6212
1597.000000 0.6218 0.6217 0.6210 0.6215 0.6176
1602.000000 0.6144 0.6085 0.6032 0.5979 0.5928
1607.000000 0.5875 0.5792 0.5600 0.5408 0.5216
1612.000000 0.5025 0.4974 0.4961 0.6070 0.6312
1617.000000 0.6555 0.6798 0.7041 0.7252 0.7408
1622.000000 0.7575 0.7803 0.7978 0.8122 0.8194
1627.000000 0.8255 0.8295 0.8334 0.8374 0.8415
1632.000000 0.8456 0.8493 0.8528 0.8563 0.8598
1637.000000 0.8633 0.8667 0.8699 0.8729 0.8759
1642.000000 0.8783 0.8803 0.8823 0.8815 0.8805
1647.000000 0.8791 0.8779 0.8755 0.8738 0.8720
1652.000000 0.8703 0.8687 0.8670 0.8652 0.8633
1657.000000 0.8614 0.8602 0.8593 0.8583 0.8573
1662.000000 0.8563 0.8554 0.8545 0.8535 0.8527
1667.000000 0.8522 0.8516 0.8510 0.8505 0.8499
1672.000000 0.8493 0.8488 0.8486 0.8452 0.8481
1677.000000 0.8478 0.8479 0.8480 0.8481 0.8482
1682.000000 0.8484 0.8485 0.8487 0.8490 0.8493
1687.000000 0.8496 0.8499 0.8502 0.8505 0.8509
1692.000000 0.8514 0.8519 0.8524 0.8530 0.8535
1697.000000 0.8540 0.8544 0.8546 0.8547 0.8549
1702.000000 0.8550 0.8552 0.8553 0.8555 0.8556
1707.000000 0.8557 0.8559 0.8559 0.8560 0.8560
1712.000000 0.8561 0.8561 0.8561 0.8562 0.8562
1717.000000 0.8563 0.8562 0.8561 0.8559 0.8558
1722.000000 0.8557 0.8555 0.8554 0.8552 0.8548
1727.000000 0.8542 0.8535 0.8529 0.8522 0.8515
1732.000000 0.8509 0.8502 0.8495 0.8489 0.8482
1737.000000 0.8475 0.8468 0.8461 0.8454 0.8447
1742.000000 0.8439 0.8432 0.8425 0.8418 0.8410
1747.000000 0.8401 0.8391 0.8382 0.8372 0.8363
1752.000000 0.8353 0.8340 0.8317 0.8310 0.8316
1757.000000 0.8324 0.8331 0.8338 0.8346 0.8353
1762.000000 0.8361 0.8370 0.8390 0.8376 0.8366
1767.000000 0.8353 0.8341 0.8330 0.8318 0.8309
1772.000000 0.8299 0.8289 0.8279 0.8265 0.8274
1777.000000 0.8283 0.8292 0.8306 0.8320 0.8332
1782.000000 0.8344 0.8355 0.8366 0.8376 0.8386
1787.000000 0.8392 0.8399 0.8405 0.8394 0.8384
1792.000000 0.8389 0.8394 0.8399 0.8405 0.8415
1797.000000 0.8426 0.8435 0.8444 0.8453 0.8462
1802.000000 0.8471 0.8481 0.8486 0.8487 0.8494
1807.000000 0.8488 0.8489 0.8489 0.8490 0.8488
1812.000000 0.8486 0.8484 0.8482 0.8480 0.8478
1817.000000 0.8476 0.8473 0.8471 0.8469 0.8467
1822.000000 0.8465 0.8463 0.8461 0.8455 0.8449
1827.000000 0.8442 0.8436 0.8430 0.8424 0.8417
1832.000000 0.8411 0.8406 0.8401 0.8396 0.8391
1837.000000 0.8386 0.8380 0.8375 0.8370 0.8365
1842.000000 0.8355 0.8345 0.8335 0.8325 0.8315
1847.000000 0.8304 0.8291 0.8278 0.8265 0.8253
1852.000000 0.8242 0.8230 0.8232 0.8234 0.8235
1857.000000 0.8236 0.8220 0.8190 0.8158 0.8132
1862.000000 0.8112 0.8113 0.8119 0.8117 0.8125
1867.000000 0.8135 0.8152 0.8187 0.8235 0.8284
1872.000000 0.8322 0.8358 0.8386 0.8414 0.8442
1877.000000 0.8464 0.8484 0.8489 0.8490 0.8490
1882.000000 0.8489 0.8489 0.8488 0.8488 0.8487
1887.000000 0.8487 0.8487 0.8487 0.8487 0.8487
1892.000000 0.8487 0.8487 0.8487 0.8486 0.8485
1897.000000 0.8484 0.8484 0.8483 0.8482 0.8482
1902.000000 0.8517 0.8480 0.8480 0.8480 0.8480
1907.000000 0.8480 0.8480 0.8480 0.8480 0.8480
1912.000000 0.8480 0.8480 0.8480 0.8480 0.8480
1917.000000 0.8480 0.8480 0.8480 0.8476 0.8469
1922.000000 0.8462 0.8450 0.8426 0.8402 0.8378
1927.000000 0.8353 0.8327 0.8301 0.8274 0.8247
1932.000000 0.8213 0.8169 0.8166 0.8165 0.8153
1937.000000 0.8169 0.8171 0.8178 0.8192 0.8231
1942.000000 0.8289 0.8363 0.8427 0.8484 0.8494
1947.000000 0.8501 0.8505 0.8508 0.8511 0.8514
1952.000000 0.8516 0.8519 0.8522 0.8529 0.8536
1957.000000 0.8544 0.8566 0.8588 0.8626 0.8672
1962.000000 0.8670 0.8659 0.8637 0.8617 0.8576
1967.000000 0.8538 0.8517 0.8517 0.8517 0.8516
1972.000000 0.8514 0.8512 0.8510 0.8508 0.8507
1977.000000 0.8506 0.8505 0.8503 0.8502 0.8501
1982.000000 0.8501 0.8500 0.8499 0.8498 0.8495
1987.000000 0.8493 0.8490 0.8487 0.8940 0.8938
1992.000000 0.8932 0.8803 0.8675 0.8567 0.8493
1997.000000 0.8420 0.8381 0.8418 0.8505 0.8546
2002.000000 0.8587 0.8588 0.8589 0.8590 0.8592
2007.000000 0.8594 0.8596 0.8597 0.8599 0.8600
2012.000000 0.8602 0.8603 0.8605 0.8607 0.8609
2017.000000 0.8616 0.8623 0.8631 0.8639 0.8647
2022.000000 0.8655 0.8660 0.8666 0.8661 0.8657
2027.000000 0.8652 0.8648 0.8644 0.8640 0.8636
2032.000000 0.8633 0.8629 0.8626 0.8623 0.8620
2037.000000 0.8619 0.8619 0.8618 0.8617 0.8616
2042.000000 0.8616 0.8615 0.8614 0.8613 0.8613
2047.000000 0.8613 0.8613 0.8613 0.8613 0.8613
2052.000000 0.8613 0.8613 0.8613 0.8613 0.8613
2057.000000 0.8613 0.8614 0.8615 0.8617 0.8618
2062.000000 0.8619 0.8620 0.8621 0.8622 0.8623
2067.000000 0.8624 0.8625 0.8626 0.8627 0.8628
2072.000000 0.8630 0.8631 0.8633 0.8634 0.8636
2077.000000 0.8637 0.8639 0.8640 0.8642 0.8643
2082.000000 0.8645 0.8646 0.8647 0.8647 0.8647
2087.000000 0.8647 0.8648 0.8648 0.8649 0.8649
2092.000000 0.8649 0.8649 0.8650 0.8650 0.8651
2097.000000 0.8651 0.8651 0.8651 0.8652 0.8652
2102.000000 0.8653 0.8653 0.8654 0.8654 0.8654
2107.000000 0.8654 0.8655 0.8655 0.8656 0.8656
2112.000000 0.8657 0.8657 0.8657 0.8657 0.8657
2117.000000 0.8656 0.8655 0.8654 0.8653 0.8652
2122.000000 0.8651 0.8650 0.8650 0.8649 0.8648
2127.000000 0.8647 0.8646 0.8645 0.8644 0.8643
2132.000000 0.8643 0.8642 0.8642 0.8641 0.8641
2137.000000 0.8641 0.8641 0.8640 0.8640 0.8639
2142.000000 0.8639 0.8638 0.8638 0.8638 0.8638
2147.000000 0.8637 0.8637 0.8636 0.8636 0.8635
2152.000000 0.8635 0.8635 0.8635 0.8634 0.8634
2157.000000 0.8633 0.8633 0.8633 0.8633 0.8632
2162.000000 0.8632 0.8631 0.8631 0.8631 0.8631
2167.000000 0.8630 0.8630 0.8629 0.8629 0.8629
2172.000000 0.8629 0.8628 0.8628 0.8628 0.8628
2177.000000 0.8627 0.8627 0.8626 0.8626 0.8626
2182.000000 0.8626 0.8625 0.8625 0.8624 0.8623
2187.000000 0.8622 0.8621 0.8620 0.8619 0.8618
2192.000000 0.8617 0.8616 0.8616 0.8615 0.8614
2197.000000 0.8613 0.8612 0.8611 0.8610 0.8609
2202.000000 0.8608 0.8607 0.8606 0.8605 0.8604
2207.000000 0.8603 0.8602 0.8601 0.8600 0.8599
2212.000000 0.8598 0.8597 0.8596 0.8594 0.8593
2217.000000 0.8592 0.8591 0.8589 0.8588 0.8587
2222.000000 0.8586 0.8584 0.8583 0.8582 0.8581
2227.000000 0.8579 0.8578 0.8577 0.8576 0.8574
2232.000000 0.8573 0.8572 0.8571 0.8569 0.8568
2237.000000 0.8567 0.8566 0.8565 0.8564 0.8561
2242.000000 0.8559 0.8556 0.8553 0.8549 0.8546
2247.000000 0.8543 0.8540 0.8537 0.8534 0.8531
2252.000000 0.8528 0.8525 0.8522 0.8518 0.8515
2257.000000 0.8512 0.8509 0.8506 0.8503 0.8500
2262.000000 0.8497 0.8494 0.8491 0.8488 0.8485
2267.000000 0.8481 0.8478 0.8475 0.8472 0.8469
2272.000000 0.8466 0.8463 0.8460 0.8457 0.8454
2277.000000 0.8451 0.8448 0.8445 0.8442 0.8438
2282.000000 0.8435 0.8435 0.8419 0.8437 0.8438
2287.000000 0.8439 0.8440 0.8441 0.8442 0.8443
2292.000000 0.8444 0.8445 0.8447 0.8448 0.8450
2297.000000 0.8452 0.8454 0.8456 0.8458 0.8459
2302.000000 0.8461 0.8463 0.8465 0.8467 0.8469
2307.000000 0.8470 0.8472 0.8474 0.8476 0.8477
2312.000000 0.8479 0.8481 0.8483 0.8484 0.8486
2317.000000 0.8488 0.8490 0.8491 0.8493 0.8493
2322.000000 0.8494 0.8495 0.8496 0.8496 0.8497
2327.000000 0.8497 0.8498 0.8499 0.8500 0.8500
2332.000000 0.8501 0.8501 0.8502 0.8502 0.8503
2337.000000 0.8505 0.8508 0.8511 0.8515 0.8518
2342.000000 0.8522 0.8525 0.8529 0.8532 0.8536
2347.000000 0.8539 0.8543 0.8546 0.8549 0.8551
2352.000000 0.8553 0.8554 0.8556 0.8557 0.8559
2357.000000 0.8560 0.8562 0.8564 0.8566 0.8567
2362.000000 0.8569 0.8570 0.8572 0.8574 0.8576
2367.000000 0.8577 0.8579 0.8580 0.8581 0.8582
2372.000000 0.8584 0.8585 0.8587 0.8588 0.8589
2377.000000 0.8590 0.8592 0.8593 0.8595 0.8595
2382.000000 0.8595 0.8594 0.8594 0.8593 0.8592
2387.000000 0.8591 0.8590 0.8589 0.8589 0.8589
2392.000000 0.8589 0.8589 0.8590 0.8590 0.8590
2397.000000 0.8590 0.8590 0.8590 0.8591 0.8591
2402.000000 0.8591 0.8591 0.8592 0.8592 0.8592
2407.000000 0.8592 0.8592 0.8592 0.8593 0.8593
2412.000000 0.8593 0.8593 0.8593 0.8593 0.8593
2417.000000 0.8593 0.8594 0.8594 0.8594 0.8594
2422.000000 0.8594 0.8594 0.8594 0.8594 0.8594
2427.000000 0.8594 0.8595 0.8595 0.8595 0.8595
2432.000000 0.8595 0.8595 0.8595 0.8595 0.8596
2437.000000 0.8596 0.8596 0.8596 0.8596 0.8596
2442.000000 0.8596 0.8596 0.8596 0.8596 0.8597
2447.000000 0.8597 0.8597 0.8597 0.8597 0.8597
2452.000000 0.8597 0.8597 0.8598 0.8598 0.8598
2457.000000 0.8598 0.8598 0.8598 0.8598 0.8598
2462.000000 0.8598 0.8598 0.8599 0.8599 0.8599
2467.000000 0.8599 0.8599 0.8599 0.8599 0.8599
2472.000000 0.8604 0.8599 0.8600 0.8600 0.8600
2477.000000 0.8600 0.8600 0.8600 0.8600 0.8600
2482.000000 0.8600 0.8600 0.8600 0.8600 0.8600
2487.000000 0.8600 0.8600 0.8600 0.8600 0.8600
2492.000000 0.8600 0.8600 0.8600 0.8600 0.8600
2497.000000 0.8600 0.8600 0.8600 0.8600 0.8600
2502.000000 0.8600 0.8600 0.8600 0.8600 0.8600
2507.000000 0.8600 0.8600 0.8599 0.8599 0.8599
2512.000000 0.8599 0.8599 0.8599 0.8599 0.8599
2517.000000 0.8599 0.8599 0.8598 0.8598 0.8598
2522.000000 0.8598 0.8598 0.8598 0.8598 0.8598
2527.000000 0.8597 0.8597 0.8597 0.8597 0.8597
2532.000000 0.8597 0.8597 0.8597 0.8597 0.8597
2537.000000 0.8597 0.8597 0.8597 0.8597 0.8597
2542.000000 0.8597 0.8597 0.8597 0.8597 0.8597
2547.000000 0.8597 0.8597 0.8597 0.8597 0.8597
2552.000000 0.8597 0.8597 0.8597 0.8597 0.8597
2557.000000 0.8597 0.8597 0.8597 0.8597 0.8597
2562.000000 0.8597 0.8597 0.8597 0.8597 0.8597
2567.000000 0.8596 0.8596 0.8595 0.8594 0.8593
2572.000000 0.8593 0.8592 0.8591 0.8590 0.8589
2577.000000 0.8588 0.8588 0.8587 0.8586 0.8585
2582.000000 0.8584 0.8583 0.8583 0.8582 0.8581
2587.000000 0.8580 0.8579 0.8578 0.8578 0.8577
2592.000000 0.8576 0.8575 0.8574 0.8573 0.8573
2597.000000 0.8572 0.8571 0.8571 0.8572 0.8572
2602.000000 0.8572 0.8572 0.8572 0.8572 0.8572
2607.000000 0.8572 0.8572 0.8572 0.8573 0.8573
2612.000000 0.8573 0.8573 0.8573 0.8573 0.8573
2617.000000 0.8573 0.8573 0.8573 0.8574 0.8574
2622.000000 0.8574 0.8574 0.8574 0.8574 0.8574
2627.000000 0.8574 0.8575 0.8575 0.8575 0.8575
2632.000000 0.8575 0.8575 0.8575 0.8578 0.8581
2637.000000 0.8583 0.8586 0.8589 0.8592 0.8594
2642.000000 0.8597 0.8600 0.8603 0.8606 0.8609
2647.000000 0.8610 0.8611 0.8609 0.8608 0.8607
2652.000000 0.8606 0.8604 0.8603 0.8601 0.8600
2657.000000 0.8598 0.8597 0.8596 0.8595 0.8593
2662.000000 0.8592 0.8590 0.8589 0.8588 0.8587
2667.000000 0.8586 0.8585 0.8584 0.8584 0.8583
2672.000000 0.8583 0.8582 0.8581 0.8580 0.8580
2677.000000 0.8579 0.8579 0.8578 0.8577 0.8576
2682.000000 0.8576 0.8575 0.8575 0.8574 0.8573
2687.000000 0.8572 0.8571 0.8570 0.8569 0.8568
2692.000000 0.8567 0.8566 0.8566 0.8565 0.8564
2697.000000 0.8563 0.8563 0.8562 0.8561 0.8561
2702.000000 0.8561 0.8561 0.8561 0.8561 0.8561
2707.000000 0.8557 0.8553 0.8548 0.8544 0.8539
2712.000000 0.8534 0.8519 0.8505 0.8488 0.8471
2717.000000 0.8459 0.8447 0.8434 0.8421 0.8406
2722.000000 0.8391 0.8382 0.8374 0.8369 0.8365
2727.000000 0.8363 0.8361 0.8365 0.8351 0.8379
2732.000000 0.8388 0.8406 0.8424 0.8451 0.8478
2737.000000 0.8501 0.8524 0.8543 0.8562 0.8568
2742.000000 0.8574 0.8575 0.8576 0.8577 0.8579
2747.000000 0.8577 0.8576 0.8574 0.8573 0.8571
2752.000000 0.8569 0.8567 0.8566 0.8564 0.8562
2757.000000 0.8560 0.8559 0.8556 0.8554 0.8551
2762.000000 0.8549 0.8547 0.8545 0.8542 0.8540
2767.000000 0.8537 0.8535 0.8532 0.8530 0.8526
2772.000000 0.8523 0.8519 0.8516 0.8512 0.8509
2777.000000 0.8507 0.8505 0.8502 0.8500 0.8498
2782.000000 0.8496 0.8493 0.8502 0.8489 0.8487
2787.000000 0.8484 0.8482 0.8480 0.8478 0.8475
2792.000000 0.8473 0.8471 0.8469 0.8466 0.8464
2797.000000 0.8460 0.8456 0.8451 0.8446 0.8440
2802.000000 0.8435 0.8429 0.8424 0.8418 0.8413
2807.000000 0.8401 0.8389 0.8375 0.8362 0.8348
2812.000000 0.8334 0.8317 0.8301 0.8282 0.8263
2817.000000 0.8243 0.8223 0.8198 0.8174 0.8149
2822.000000 0.8125 0.8097 0.8070 0.8036 0.8002
2827.000000 0.7968 0.7934 0.7889 0.7845 0.7795
2832.000000 0.7746 0.7701 0.7656 0.7614 0.7572
2837.000000 0.7530 0.7488 0.7385 0.7282 0.7180
2842.000000 0.7078 0.6995 0.6913 0.6689 0.6465
2847.000000 0.6394 0.6324 0.6267 0.6211 0.6151
2852.000000 0.6091 0.6027 0.5963 0.5916 0.5869
2857.000000 0.5831 0.5793 0.5760 0.5728 0.5686
2862.000000 0.5644 0.5582 0.5520 0.5451 0.5382
2867.000000 0.5312 0.5243 0.5188 0.5126 0.5130
2872.000000 0.5127 0.5291 0.5456 0.5635 0.5815
2877.000000 0.5994 0.6174 0.6250 0.6327 0.6318
2882.000000 0.6303 0.6299 0.6290 0.6222 0.6155
2887.000000 0.6092 0.6029 0.5986 0.5943 0.5964
2892.000000 0.5985 0.6006 0.6028 0.6017 0.6006
2897.000000 0.5980 0.5955 0.5929 0.5904 0.5877
2902.000000 0.5851 0.5821 0.5791 0.5762 0.5733
2907.000000 0.5674 0.5616 0.5545 0.5474 0.5398
2912.000000 0.5322 0.5256 0.5191 0.5106 0.5022
2917.000000 0.4892 0.4762 0.4632 0.4503 0.4373
2922.000000 0.4243 0.4115 0.3988 0.3945 0.3903
2927.000000 0.3886 0.3870 0.3871 0.3854 0.3919
2932.000000 0.3966 0.4081 0.4197 0.4312 0.4428
2937.000000 0.4543 0.4658 0.4773 0.4889 0.5004
2942.000000 0.5119 0.5165 0.5200 0.5213 0.5214
2947.000000 0.5166 0.5118 0.5019 0.4921 0.4822
2952.000000 0.4724 0.4614 0.4505 0.4291 0.4077
2957.000000 0.3988 0.3899 0.3837 0.3775 0.3313
2962.000000 0.2851 0.2415 0.1980 0.1984 0.2030
2967.000000 0.2014 0.2039 0.2354 0.2670 0.2986
2972.000000 0.3302 0.3617 0.3933 0.4248 0.4564
2977.000000 0.4879 0.5195 0.5472 0.5750 0.5987
2982.000000 0.6225 0.6321 0.6418 0.6488 0.6558
2987.000000 0.6603 0.6649 0.6680 0.6711 0.6730
2992.000000 0.6749 0.6748 0.6749 0.6746 0.6746
2997.000000 0.6702 0.6659 0.6575 0.6492 0.6409
3002.000000 0.6326 0.6243 0.6160 0.6076 0.5993
3007.000000 0.5910 0.5827 0.5746 0.5666 0.5652
3012.000000 0.5638 0.5633 0.5628 0.5626 0.5625
3017.000000 0.5627 0.5629 0.5632 0.5642 0.5642
3022.000000 0.5648 0.5654 0.5661 0.5668 0.5675
3027.000000 0.5721 0.5768 0.5829 0.5891 0.6016
3032.000000 0.6142 0.6238 0.6334 0.6406 0.6478
3037.000000 0.6537 0.6596 0.6632 0.6669 0.6685
3042.000000 0.6701 0.6705 0.6709 0.6710 0.6711
3047.000000 0.6708 0.6706 0.6704 0.6703 0.6709
3052.000000 0.6715 0.6722 0.6729 0.6750 0.6771
3057.000000 0.6980 0.7190 0.7331 0.7472 0.7503
3062.000000 0.7534 0.7589 0.7644 0.7731 0.7819
3067.000000 0.7854 0.7889 0.7924 0.7959 0.7993
3072.000000 0.8027 0.8061 0.8095 0.8121 0.8148
3077.000000 0.8173 0.8199 0.8229 0.8259 0.8287
3082.000000 0.8315 0.8323 0.8332 0.8331 0.8331
3087.000000 0.8328 0.8326 0.8324 0.8322 0.8318
3092.000000 0.8315 0.8310 0.8305 0.8301 0.8297
3097.000000 0.8296 0.8295 0.8298 0.8302 0.8309
3102.000000 0.8316 0.8331 0.8347 0.8397 0.8448
3107.000000 0.8477 0.8506 0.8533 0.8560 0.8590
3112.000000 0.8620 0.8653 0.8686 0.8695 0.8705
3117.000000 0.8715 0.8725 0.8735 0.8745 0.8748
3122.000000 0.8751 0.8753 0.8755 0.8757 0.8760
3127.000000 0.8762 0.8765 0.8764 0.8764 0.8763
3132.000000 0.8762 0.8761 0.8761 0.8760 0.8760
3137.000000 0.8759 0.8759 0.8758 0.8758 0.8758
3142.000000 0.8794 0.8758 0.8758 0.8758 0.8758
3147.000000 0.8758 0.8758 0.8758 0.8758 0.8758
3152.000000 0.8758 0.8758 0.8758 0.8758 0.8758
3157.000000 0.8758 0.8758 0.8758 0.8758 0.8758
3162.000000 0.8758 0.8758 0.8758 0.8758 0.8758
3167.000000 0.8758 0.8758 0.8758 0.8758 0.8758
3172.000000 0.8759 0.8760 0.8761 0.8762 0.8763
3177.000000 0.8764 0.8765 0.8766 0.8767 0.8769
3182.000000 0.8771 0.8774 0.8777 0.8788 0.8799
3187.000000 0.8809 0.8819 0.8828 0.8838 0.8847
3192.000000 0.8857 0.8858 0.8860 0.8859 0.8858
3197.000000 0.8857 0.8857 0.8856 0.8855 0.8854
3202.000000 0.8854 0.8853 0.8853 0.8852 0.8852
3207.000000 0.8852 0.8852 0.8851 0.8851 0.8850
3212.000000 0.8850 0.8850 0.8850 0.8851 0.8852
3217.000000 0.8853 0.8854 0.8855 0.8856 0.8857
3222.000000 0.8858 0.8859 0.8860 0.8861 0.8862
3227.000000 0.8863 0.8864 0.8864 0.8865 0.8866
3232.000000 0.8867 0.8868 0.8869 0.8870 0.8872
3237.000000 0.8873 0.8874 0.8875 0.8876 0.8877
3242.000000 0.8878 0.8879 0.8880 0.8881 0.8882
3247.000000 0.8883 0.8884 0.8885 0.8886 0.8887
3252.000000 0.8888 0.8889 0.8891 0.8892 0.8893
3257.000000 0.8894 0.8895 0.8896 0.8897 0.8898
3262.000000 0.8900 0.8901 0.8903 0.8905 0.8907
3267.000000 0.8909 0.8911 0.8912 0.8914 0.8916
3272.000000 0.8918 0.8920 0.8922 0.8923 0.8925
3277.000000 0.8926 0.8927 0.8928 0.8930 0.8931
3282.000000 0.8933 0.8934 0.8936 0.8939 0.8943
3287.000000 0.8946 0.8950 0.8953 0.8957 0.8958
3292.000000 0.8960 0.8961 0.8962 0.8963 0.8965
3297.000000 0.8966 0.8968 0.8969 0.8970 0.8971
3302.000000 0.8973 0.8974 0.8975 0.8974 0.8974
3307.000000 0.8973 0.8973 0.8972 0.8972 0.8971
3312.000000 0.8971 0.8970 0.8970 0.8969 0.8969
3317.000000 0.8968 0.8968 0.8967 0.8967 0.8966
3322.000000 0.8965 0.8964 0.8964 0.8963 0.8963
3327.000000 0.8962 0.8961 0.8960 0.8960 0.8959
3332.000000 0.8958 0.8957 0.8957 0.8956 0.8955
3337.000000 0.8954 0.8954 0.8954 0.8954 0.8955
3342.000000 0.8956 0.8957 0.8958 0.8959 0.8960
3347.000000 0.8961 0.8962 0.8963 0.8964 0.8966
3352.000000 0.8969 0.8971 0.8974 0.8977 0.8980
3357.000000 0.8982 0.8985 0.8988 0.8991 0.8994
3362.000000 0.8997 0.8999 0.9001 0.9002 0.9003
3367.000000 0.9003 0.9004 0.9005 0.9006 0.9006
3372.000000 0.9007 0.9008 0.9009 0.9009 0.9010
3377.000000 0.9011 0.9012 0.9012 0.9012 0.9012
3382.000000 0.9012 0.9012 0.9012 0.9012 0.9012
3387.000000 0.9012 0.9012 0.9012 0.9012 0.9012
3392.000000 0.9012 0.9011 0.9011 0.9010 0.9009
3397.000000 0.9007 0.9006 0.9004 0.9003 0.9001
3402.000000 0.9000 0.8998 0.8997 0.8996 0.8995
3407.000000 0.8991 0.8988 0.8984 0.8981 0.8977
3412.000000 0.8974 0.8971 0.8968 0.8964 0.8961
3417.000000 0.8957 0.8954 0.8950 0.8947 0.8943
3422.000000 0.8940 0.8937 0.8935 0.8932 0.8929
3427.000000 0.8926 0.8923 0.8920 0.8918 0.8915
3432.000000 0.8912 0.8909 0.8906 0.8903 0.8901
3437.000000 0.8898 0.8895 0.8892 0.8889 0.8887
3442.000000 0.8885 0.8883 0.8881 0.8879 0.8877
3447.000000 0.8875 0.8873 0.8871 0.8869 0.8867
3452.000000 0.8865 0.8863 0.8861 0.8859 0.8858
3457.000000 0.8856 0.8854 0.8852 0.8851 0.8849
3462.000000 0.8848 0.8846 0.8845 0.8843 0.8841
3467.000000 0.8839 0.8838 0.8836 0.8835 0.8833
3472.000000 0.8832 0.8830 0.8829 0.8827 0.8826
3477.000000 0.8824 0.8823 0.8821 0.8820 0.8818
3482.000000 0.8817 0.8816 0.8815 0.8813 0.8812
3487.000000 0.8811 0.8810 0.8809 0.8808 0.8806
3492.000000 0.8805 0.8804 0.8803 0.8802 0.8801
3497.000000 0.8799 0.8798 0.8797 0.8796 0.8795
3502.000000 0.8794 0.8793 0.8792 0.8790 0.8789
3507.000000 0.8788 0.8787 0.8786 0.8785 0.8783
3512.000000 0.8782 0.8781 0.8780 0.8779 0.8778
3517.000000 0.8777 0.8776 0.8775 0.8774 0.8773
3522.000000 0.8772 0.8771 0.8770 0.8769 0.8768
3527.000000 0.8767 0.8766 0.8765 0.8765 0.8764
3532.000000 0.8763 0.8762 0.8761 0.8760 0.8759
3537.000000 0.8758 0.8757 0.8756 0.8755 0.8754
3542.000000 0.8753 0.8752 0.8751 0.8750 0.8750
3547.000000 0.8749 0.8748 0.8747 0.8747 0.8746
3552.000000 0.8745 0.8744 0.8744 0.8743 0.8742
3557.000000 0.8741 0.8741 0.8740 0.8739 0.8738
3562.000000 0.8737 0.8736 0.8736 0.8735 0.8734
3567.000000 0.8733 0.8733 0.8732 0.8731 0.8730
3572.000000 0.8730 0.8729 0.8728 0.8727 0.8726
3577.000000 0.8725 0.8725 0.8724 0.8723 0.8722
3582.000000 0.8722 0.8721 0.8720 0.8719 0.8719
3587.000000 0.8718 0.8717 0.8716 0.8716 0.8715
3592.000000 0.8714 0.8713 0.8713 0.8712 0.8711
3597.000000 0.8710 0.8709 0.8708 0.8708 0.8707
3602.000000 0.8706 0.8705 0.8705 0.8704 0.8703
3607.000000 0.8702 0.8702 0.8701 0.8701 0.8700
3612.000000 0.8700 0.8700 0.8700 0.8700 0.8700
3617.000000 0.8700 0.8700 0.8700 0.8700 0.8699
3622.000000 0.8699 0.8699 0.8699 0.8699 0.8699
3627.000000 0.8699 0.8699 0.8699 0.8699 0.8698
3632.000000 0.8698 0.8698 0.8698 0.8698 0.8698
3637.000000 0.8698 0.8698 0.8698 0.8698 0.8697
3642.000000 0.8697 0.8697 0.8697 0.8697 0.8697
3647.000000 0.8696 0.8696 0.8695 0.8695 0.8695
3652.000000 0.8695 0.8694 0.8694 0.8693 0.8693
3657.000000 0.8693 0.8693 0.8692 0.8692 0.8691
3662.000000 0.8691 0.8691 0.8691 0.8690 0.8690
3667.000000 0.8689 0.8689 0.8689 0.8689 0.8688
3672.000000 0.8688 0.8688 0.8688 0.8687 0.8687
3677.000000 0.8686 0.8686 0.8685 0.8685 0.8684
3682.000000 0.8684 0.8683 0.8682 0.8681 0.8681
3687.000000 0.8680 0.8680 0.8679 0.8679 0.8678
3692.000000 0.8677 0.8676 0.8676 0.8675 0.8675
3697.000000 0.8674 0.8674 0.8673 0.8672 0.8671
3702.000000 0.8671 0.8670 0.8670 0.8669 0.8668
3707.000000 0.8667 0.8667 0.8666 0.8665 0.8664
3712.000000 0.8664 0.8663 0.8663 0.8662 0.8661
3717.000000 0.8660 0.8660 0.8659 0.8659 0.8658
3722.000000 0.8657 0.8656 0.8656 0.8655 0.8654
3727.000000 0.8654 0.8654 0.8654 0.8655 0.8655
3732.000000 0.8656 0.8656 0.8657 0.8657 0.8658
3737.000000 0.8658 0.8659 0.8659 0.8660 0.8660
3742.000000 0.8661 0.8661 0.8662 0.8662 0.8662
3747.000000 0.8662 0.8663 0.8663 0.8664 0.8664
3752.000000 0.8665 0.8665 0.8666 0.8666 0.8667
3757.000000 0.8668 0.8669 0.8669 0.8670 0.8670
3762.000000 0.8671 0.8672 0.8673 0.8673 0.8674
3767.000000 0.8675 0.8676 0.8676 0.8677 0.8677
3772.000000 0.8678 0.8679 0.8680 0.8680 0.8681
3777.000000 0.8682 0.8683 0.8684 0.8685 0.8686
3782.000000 0.8687 0.8688 0.8689 0.8690 0.8691
3787.000000 0.8692 0.8694 0.8695 0.8696 0.8697
3792.000000 0.8698 0.8699 0.8700 0.8700 0.8701
##END=
