##TITLE=ACETIC ACID, CYCLOHEXYL ESTER
##JCAMP-DX=4.24
##DATA TYPE=INFRARED SPECTRUM
##CLASS=COBLENTZ III
##ORIGIN=DOW CORNING CORP.
##OWNER=COBLENTZ SOCIETY
Collection (C) 2018 copyright by the U.S. Secretary of Commerce
on behalf of the United States of America. All rights reserved.
##DATE=1966/09/02
##NAMES=cyclohexyl acetate
##CAS REGISTRY NO=622-45-7
##MOLFORM=C8 H14 O2
##SOURCE REFERENCE=COBLENTZ NO. 4800
##$NIST SOURCE=COBLENTZ
##$NIST IMAGE=cob4800
##SPECTROMETER/DATA SYSTEM=PERKIN-ELMER 521 (GRATING)
##INSTRUMENT PARAMETERS=FILTERS AT 3150, 2500, 2000, 1150, 700, 410; GRATING CHANGES AT 2000, 630 CM^-^1
##STATE=SOLUTION (10% IN CCl4 FOR 3800-1300, 10% IN CS2 FOR 1300-650, AND 10% CCl4 FOR 650-250 CM^-^1) VERSUS SOLVENT
##PATH LENGTH=0.011, 0.010, AND 0.010 CM (CsBr CELL)
$$ 98% PURE
$$ SEE SPECTRUM NO. 969 FOR LIQUID (NEAT)
##SAMPLING PROCEDURE=TRANSMISSION
##RESOLUTION=4
##DATA PROCESSING=DIGITIZED BY NIST FROM HARD COPY (FROM TWO SEGMENTS)
##XUNITS=1/CM
##YUNITS=TRANSMITTANCE
##XFACTOR=1.000000
##YFACTOR=1
##DELTAX=0.984144
##FIRSTX=217.715
##LASTX=3800
##FIRSTY=0.752
##MAXX=3800
##MINX=217.715
##MAXY=1.025
##MINY=0
##NPOINTS=3641
##XYDATA=(X++(Y..Y))
217.715000 0.7520 0.7530 0.7530 0.7550 0.7550
222.635722 0.7560 0.7560 0.7570 0.7590 0.7590
227.556445 0.7600 0.7600 0.7630 0.7640 0.7650
232.477167 0.7670 0.7670 0.7670 0.7670 0.7690
237.397890 0.7690 0.7690 0.7690 0.7690 0.7690
242.318612 0.7690 0.7680 0.7680 0.7680 0.7680
247.239335 0.7680 0.7680 0.7690 0.7710 0.7710
252.160057 0.7720 0.7720 0.7730 0.7730 0.7730
257.080780 0.7730 0.7750 0.7760 0.7770 0.7790
262.001502 0.7800 0.7790 0.7800 0.7800 0.7810
266.922225 0.7810 0.7810 0.7830 0.7840 0.7870
271.842947 0.7880 0.7890 0.7920 0.7950 0.7950
276.763670 0.7960 0.7960 0.7990 0.7990 0.7990
281.684392 0.8010 0.8030 0.8030 0.8030 0.8030
286.605115 0.8040 0.8040 0.8050 0.8050 0.8070
291.525837 0.8070 0.8090 0.8110 0.8120 0.8130
296.446560 0.8150 0.8150 0.8170 0.8230 0.8290
301.367282 0.8320 0.8360 0.8380 0.8400 0.8420
306.288005 0.8430 0.8440 0.8460 0.8460 0.8470
311.208727 0.8480 0.8480 0.8500 0.8500 0.8510
316.129450 0.8510 0.8520 0.8520 0.8520 0.8540
321.050172 0.8540 0.8540 0.8540 0.8540 0.8540
325.970895 0.8520 0.8520 0.8510 0.8510 0.8500
330.891617 0.8480 0.8460 0.8430 0.8400 0.8380
335.812340 0.8340 0.8280 0.8230 0.8170 0.8130
340.733062 0.8000 0.7960 0.7930 0.7880 0.7810
345.653785 0.7720 0.7630 0.7510 0.7440 0.7420
350.574507 0.7420 0.7440 0.7480 0.7520 0.7560
355.495230 0.7680 0.7770 0.7870 0.7960 0.8120
360.415952 0.8280 0.8420 0.8460 0.8520 0.8550
365.336675 0.8630 0.8680 0.8720 0.8720 0.8780
370.257397 0.8790 0.8800 0.8820 0.8820 0.8830
375.178120 0.8830 0.8830 0.8820 0.8820 0.8800
380.098842 0.8800 0.8800 0.8800 0.8820 0.8840
385.019565 0.8870 0.8880 0.8900 0.8920 0.8920
389.940287 0.8940 0.8940 0.8940 0.8950 0.8950
394.861010 0.8950 0.8960 0.8960 0.8960 0.8980
399.781732 0.8980 0.8980 0.8980 0.8980 0.8980
404.702455 0.8980 0.8980 0.8980 0.8980 0.8980
409.623177 0.8980 0.8980 0.8980 0.8980 0.8980
414.543900 0.8980 0.8980 0.8980 0.8980 0.8980
419.464622 0.8980 0.8980 0.8960 0.8960 0.8950
424.385345 0.8940 0.8920 0.8920 0.8910 0.8900
429.306067 0.8860 0.8830 0.8790 0.8760 0.8720
434.226790 0.8660 0.8580 0.8540 0.8430 0.8250
439.147512 0.8170 0.8050 0.8030 0.8040 0.8090
444.068235 0.8160 0.8200 0.8310 0.8430 0.8440
448.988957 0.8440 0.8430 0.8400 0.8320 0.8230
453.909680 0.8150 0.8070 0.7920 0.7840 0.7840
458.830402 0.7890 0.7930 0.8030 0.8110 0.8200
463.751125 0.8290 0.8400 0.8590 0.8720 0.8750
468.671847 0.8760 0.8780 0.8790 0.8780 0.8760
473.592570 0.8720 0.8670 0.8620 0.8590 0.8560
478.513292 0.8560 0.8580 0.8630 0.8700 0.8710
483.434015 0.8760 0.8790 0.8830 0.8880 0.8920
488.354737 0.8940 0.8960 0.8960 0.9000 0.9060
493.275460 0.9080 0.9080 0.9100 0.9100 0.9110
498.196182 0.9120 0.9140 0.9150 0.9170 0.9180
503.116905 0.9170 0.9190 0.9190 0.9180 0.9190
508.037627 0.9210 0.9220 0.9230 0.9260 0.9290
512.958350 0.9300 0.9310 0.9310 0.9330 0.9330
517.879072 0.9340 0.9340 0.9340 0.9340 0.9350
522.799795 0.9350 0.9350 0.9340 0.9340 0.9330
527.720517 0.9330 0.9310 0.9310 0.9300 0.9300
532.641240 0.9290 0.9290 0.9260 0.9250 0.9250
537.561962 0.9220 0.9180 0.9150 0.9110 0.8981
542.482685 0.8940 0.8720 0.8560 0.8130 0.8040
547.403407 0.8040 0.8239 0.8639 0.8919 0.8990
552.324130 0.9100 0.9120 0.9150 0.9170 0.9210
557.244852 0.9230 0.9250 0.9260 0.9290 0.9300
562.165575 0.9310 0.9330 0.9330 0.9330 0.9330
567.086297 0.9330 0.9330 0.9310 0.9310 0.9310
572.007020 0.9300 0.9290 0.9270 0.9260 0.9250
576.927742 0.9250 0.9230 0.9220 0.9210 0.9190
581.848465 0.9190 0.9190 0.9180 0.9180 0.9150
586.769187 0.9140 0.9120 0.9020 0.8960 0.8880
591.689910 0.8790 0.8660 0.8560 0.8400 0.8190
596.610632 0.7950 0.7641 0.7451 0.7201 0.6941
601.531355 0.6690 0.6690 0.6980 0.7250 0.7599
606.452077 0.8129 0.8389 0.8549 0.8640 0.8640
611.372800 0.8510 0.8500 0.8510 0.8540 0.8590
616.293522 0.8740 0.8860 0.9020 0.9070 0.9080
621.214245 0.8840 0.8820 0.8830 0.8910 0.8980
626.134967 0.9080 0.9150 0.9220 0.9300 0.9370
631.055690 0.9390 0.9430 0.9460 0.9470 0.9470
635.976412 0.9470 0.9450 0.9430 0.9410 0.9390
640.897135 0.9370 0.9330 0.9300 0.9250 0.9220
645.817857 0.9180 0.9120 0.9110 0.9020 0.8841
650.738580 0.8640 0.8620 0.8600 0.8470 0.7881
655.659302 0.7850 0.7870 0.7990 0.8110 0.8200
660.580025 0.8320 0.8960 0.9000 0.9110 0.9270
665.500747 0.9380 0.9470 0.9500 0.9530 0.9580
670.421470 0.9650 0.9790 0.9810 0.9820 0.9820
675.342192 0.9830 0.9830 0.9850 0.9850 0.9870
680.262915 0.9890 0.9890 0.9890 0.9870 0.9870
685.183637 0.9870 0.9870 0.9870 0.9870 0.9870
690.104360 0.9860 0.9860 0.9870 0.9870 0.9890
695.025082 0.9890 0.9910 0.9930 0.9950 0.9970
699.945805 1.0020 1.0040 1.0050 1.0060 1.0100
704.866527 1.0130 1.0140 1.0140 1.0160 1.0160
709.787250 1.0160 1.0140 1.0160 1.0160 1.0160
714.707972 1.0170 1.0170 1.0170 1.0170 1.0180
719.628695 1.0170 1.0160 1.0140 1.0160 1.0160
724.549417 1.0170 1.0170 1.0170 1.0180 1.0180
729.470140 1.0170 1.0180 1.0180 1.0200 1.0200
734.390862 1.0200 1.0200 1.0200 1.0180 1.0180
739.311585 1.0180 1.0170 1.0170 1.0170 1.0160
744.232307 1.0160 1.0160 1.0130 1.0090 1.0090
749.153030 1.0060 1.0050 1.0040 1.0010 0.9980
754.073752 0.9910 0.9900 0.9900 0.9900 0.9910
758.994475 1.0040 1.0050 1.0060 1.0090 1.0090
763.915197 1.0100 1.0120 1.0120 1.0120 1.0130
768.835920 1.0160 1.0160 1.0160 1.0160 1.0130
773.756642 1.0100 1.0080 1.0060 1.0050 1.0050
778.677365 1.0050 1.0050 1.0050 1.0040 1.0040
783.598087 1.0010 0.9980 0.9940 0.9910 0.9870
788.518810 0.9860 0.9810 0.9740 0.9670 0.9670
793.439532 0.9730 0.9810 0.9830 0.9850 0.9850
798.360255 0.9810 0.9710 0.9630 0.9530 0.9430
803.280977 0.9420 0.9430 0.9470 0.9540 0.9570
808.201700 0.9580 0.9580 0.9620 0.9630 0.9650
813.122422 0.9660 0.9670 0.9670 0.9690 0.9670
818.043145 0.9660 0.9620 0.9590 0.9580 0.9550
822.963867 0.9450 0.9330 0.9171 0.8622 0.8620
827.884590 0.9080 0.9500 0.9540 0.9610 0.9650
832.805312 0.9670 0.9670 0.9660 0.9650 0.9590
837.726035 0.9550 0.9390 0.9330 0.9210 0.8941
842.646757 0.8471 0.8051 0.7442 0.7141 0.7140
847.567479 0.8550 0.9120 0.9430 0.9590 0.9670
852.488202 0.9830 0.9850 0.9860 0.9860 0.9860
857.408924 0.9850 0.9820 0.9770 0.9730 0.9690
862.329647 0.9650 0.9540 0.9510 0.9410 0.9181
867.250369 0.8980 0.8830 0.8790 0.8830 0.8920
872.171092 0.9020 0.9110 0.9230 0.9260 0.9330
877.091814 0.9390 0.9460 0.9530 0.9630 0.9630
882.012537 0.9420 0.9260 0.9081 0.8911 0.9079
886.933259 0.9370 0.9370 0.9220 0.9180 0.8990
891.853982 0.8681 0.8401 0.8121 0.7811 0.7511
896.774704 0.7510 0.7730 0.7930 0.7960 0.7730
901.695427 0.7361 0.7051 0.6881 0.6701 0.6391
906.616149 0.6150 0.6090 0.6010 0.5980 0.5790
911.536872 0.5790 0.6368 0.6719 0.7298 0.8285
916.457594 0.8830 0.9070 0.9610 0.9770 0.9780
921.378317 0.9820 0.9830 0.9830 0.9820 0.9790
926.299039 0.9780 0.9700 0.9650 0.9540 0.8911
931.219762 0.8910 0.9179 0.9419 0.9579 0.9729
936.140484 1.0160 1.0220 1.0250 1.0250 1.0220
941.061207 1.0180 1.0160 1.0100 1.0060 1.0020
945.981929 1.0000 0.9950 0.9860 0.9730 0.9570
950.902652 0.9500 0.9181 0.8841 0.8800 0.8073
955.823374 0.7880 0.7290 0.7140 0.6840 0.6431
960.744097 0.6430 0.7327 0.7788 0.7760 0.7402
965.664819 0.7180 0.6980 0.6780 0.6580 0.5951
970.585542 0.5311 0.4352 0.4350 0.5944 0.7523
975.506264 0.7550 0.7970 0.8390 0.8799 0.9509
980.426987 0.9630 0.9740 0.9790 0.9790 0.9790
985.347709 0.9790 0.9770 0.9730 0.9700 0.9670
990.268432 0.9650 0.9580 0.9550 0.9510 0.9391
995.189154 0.9310 0.9230 0.9170 0.9150 0.9000
1000.109877 0.8880 0.8681 0.8481 0.8311 0.8171
1005.030599 0.8050 0.7830 0.7600 0.7420 0.7320
1009.951322 0.6931 0.6541 0.5972 0.5741 0.5541
1014.872044 0.5160 0.4840 0.4400 0.4001 0.3481
1019.792767 0.3111 0.2741 0.2342 0.2191 0.1643
1024.713489 0.1250 0.0850 0.0580 0.0570 0.0879
1029.634212 0.1349 0.2098 0.3067 0.3309 0.3310
1034.554934 0.3090 0.3060 0.3090 0.3250 0.3560
1039.475657 0.3700 0.3700 0.3191 0.1914 0.1482
1044.396379 0.1090 0.0690 0.0210 0.0200 0.0200
1049.317102 0.0210 0.0380 0.0559 0.1327 0.1519
1054.237824 0.1840 0.2310 0.2870 0.3420 0.3929
1059.158547 0.4319 0.4998 0.5618 0.6188 0.6349
1064.079269 0.6610 0.6810 0.6920 0.7060 0.7260
1068.999992 0.7290 0.7420 0.7550 0.7650 0.7690
1073.920714 0.7720 0.7730 0.7750 0.7760 0.7770
1078.841437 0.7790 0.7880 0.8189 0.8479 0.8560
1083.762159 0.8630 0.8750 0.8820 0.8910 0.8920
1088.682882 0.8920 0.8920 0.8900 0.8880 0.8830
1093.603604 0.8800 0.8780 0.8760 0.8780 0.8800
1098.524327 0.8940 0.8960 0.9169 0.9499 0.9659
1103.445049 0.9750 0.9820 0.9830 0.9850 0.9850
1108.365772 0.9860 0.9870 0.9870 0.9860 0.9820
1113.286494 0.9740 0.9730 0.9730 0.9630 0.9570
1118.207217 0.9460 0.9350 0.9061 0.8791 0.8203
1123.127939 0.7969 0.6820 0.6390 0.6060 0.6030
1128.048662 0.4962 0.4960 0.7094 0.7708 0.8278
1132.969384 0.9410 0.9580 0.9650 0.9710 0.9740
1137.890107 0.9750 0.9750 0.9770 0.9790 0.9790
1142.810829 0.9810 0.9810 0.9810 0.9810 0.9790
1147.731552 0.9810 0.9750 0.9730 0.9690 0.9551
1152.652274 0.9380 0.9340 0.9150 0.8910 0.8870
1157.572997 0.8790 0.8710 0.8670 0.8720 0.8839
1162.493719 0.9030 0.9500 0.9810 0.9850 0.9900
1167.414442 0.9930 0.9940 0.9930 0.9900 0.9850
1172.335164 0.9790 0.9740 0.9670 0.9620 0.9570
1177.255887 0.9530 0.9500 0.9490 0.9311 0.9270
1182.176609 0.9190 0.9150 0.9070 0.9000 0.8940
1187.097332 0.8840 0.8800 0.8760 0.8700 0.8551
1192.018054 0.8440 0.8340 0.8160 0.8040 0.8010
1196.938777 0.7990 0.7970 0.7920 0.7890 0.7790
1201.859499 0.7600 0.7570 0.7410 0.7300 0.7200
1206.780222 0.7130 0.7020 0.6900 0.6731 0.6461
1211.700944 0.6180 0.5760 0.5600 0.5390 0.5140
1216.621667 0.5000 0.4790 0.4441 0.4440 0.4271
1221.542389 0.4100 0.3820 0.3570 0.3220 0.2781
1226.463112 0.2391 0.1702 0.1132 0.0971 0.0811
1231.383834 0.0080 0.0050 0.0020 0.0020 0.0010
1236.304557 0.0010 0.0000 0.0000 0.0000 0.0000
1241.225279 0.0000 0.0000 0.0000 0.0000 0.0000
1246.146002 0.0000 0.0000 0.0000 0.0000 0.0000
1251.066724 0.0010 0.0020 0.0020 0.0060 0.0080
1255.987447 0.0170 0.0240 0.0290 0.0320 0.0400
1260.908169 0.0460 0.1210 0.1350 0.1440 0.1510
1265.828892 0.1590 0.1700 0.1750 0.1820 0.1949
1270.749614 0.2070 0.2310 0.2650 0.2780 0.2830
1275.670337 0.2970 0.3379 0.3699 0.4238 0.4569
1280.591059 0.4790 0.4950 0.4970 0.5140 0.5310
1285.511782 0.5480 0.5480 0.5590 0.5680 0.5790
1290.432504 0.5890 0.5980 0.6090 0.6180 0.6290
1295.353227 0.6380 0.6470 0.6580 0.6680 0.6780
1300.273949 0.6880 0.6960 0.6980 0.7010 0.7020
1305.194672 0.7050 0.7080 0.7090 0.7090 0.7090
1310.115394 0.7090 0.7080 0.7080 0.7050 0.6960
1315.036117 0.6890 0.6800 0.6740 0.6650 0.6471
1319.956839 0.6450 0.6460 0.6540 0.6620 0.6700
1324.877562 0.6740 0.6810 0.6880 0.6940 0.7050
1329.798284 0.7140 0.7160 0.7160 0.7140 0.7130
1334.719007 0.7120 0.7100 0.7120 0.7170 0.7200
1339.639729 0.7250 0.7280 0.7260 0.7210 0.7100
1344.560452 0.7080 0.7000 0.6930 0.6860 0.6800
1349.481174 0.6500 0.6340 0.6190 0.6090 0.6030
1354.401897 0.6020 0.5900 0.5721 0.5541 0.5261
1359.322619 0.4970 0.4710 0.2991 0.2650 0.2311
1364.243342 0.1631 0.0932 0.0721 0.0461 0.0440
1369.164064 0.0210 0.0211 0.1310 0.1710 0.2150
1374.084787 0.2609 0.3209 0.3370 0.3370 0.2533
1379.005509 0.2060 0.1590 0.1120 0.1120 0.1509
1383.926232 0.1899 0.2279 0.2748 0.3218 0.3977
1388.846954 0.4290 0.4590 0.4600 0.5150 0.5629
1393.767677 0.5900 0.6060 0.6329 0.6340 0.6350
1398.688399 0.6430 0.6510 0.6610 0.6690 0.6800
1403.609122 0.6880 0.6920 0.6930 0.6930 0.6930
1408.529844 0.6920 0.6920 0.6880 0.6850 0.6850
1413.450567 0.6840 0.6820 0.6800 0.6770 0.6760
1418.371289 0.6660 0.6630 0.6610 0.6510 0.6470
1423.292012 0.6380 0.6310 0.6180 0.6090 0.6030
1428.212734 0.5970 0.5910 0.5800 0.5630 0.5420
1433.133457 0.5300 0.5190 0.5040 0.5020 0.5000
1438.054179 0.4990 0.5000 0.5020 0.5040 0.5030
1442.974902 0.4890 0.4830 0.4730 0.4561 0.4441
1447.895624 0.4350 0.4250 0.3940 0.2941 0.1762
1452.816347 0.1740 0.1720 0.1740 0.1750 0.1800
1457.737069 0.1900 0.1910 0.2020 0.2300 0.2939
1462.657791 0.3269 0.4368 0.5297 0.5619 0.5829
1467.578514 0.5940 0.5980 0.5990 0.5990 0.5461
1472.499236 0.5470 0.6098 0.6539 0.6928 0.7249
1477.419959 0.7340 0.7450 0.7530 0.7630 0.7690
1482.340681 0.7770 0.7800 0.7840 0.7890 0.7950
1487.261404 0.7970 0.8000 0.8000 0.8030 0.8030
1492.182126 0.8040 0.8040 0.8040 0.8040 0.8040
1497.102849 0.8040 0.8040 0.8050 0.8080 0.8110
1502.023571 0.8130 0.8160 0.8190 0.8230 0.8270
1506.944294 0.8290 0.8320 0.8340 0.8350 0.8350
1511.865016 0.8360 0.8380 0.8380 0.8380 0.8380
1516.785739 0.8380 0.8380 0.8360 0.8360 0.8350
1521.706461 0.8340 0.8340 0.8340 0.8340 0.8320
1526.627184 0.8320 0.8310 0.8290 0.8290 0.8280
1531.547906 0.8270 0.8270 0.8270 0.8270 0.8280
1536.468629 0.8280 0.8290 0.8340 0.8390 0.8470
1541.389351 0.8500 0.8540 0.8560 0.8590 0.8590
1546.310074 0.8600 0.8630 0.8640 0.8660 0.8660
1551.230796 0.8660 0.8670 0.8670 0.8680 0.8680
1556.151519 0.8680 0.8680 0.8680 0.8680 0.8680
1561.072241 0.8680 0.8680 0.8680 0.8680 0.8680
1565.992964 0.8680 0.8680 0.8680 0.8680 0.8680
1570.913686 0.8680 0.8700 0.8700 0.8700 0.8700
1575.834409 0.8700 0.8700 0.8710 0.8710 0.8710
1580.755131 0.8710 0.8710 0.8710 0.8710 0.8710
1585.675854 0.8680 0.8680 0.8680 0.8670 0.8640
1590.596576 0.8550 0.8540 0.8520 0.8520 0.8510
1595.517299 0.8480 0.8470 0.8440 0.8430 0.8420
1600.438021 0.8400 0.8380 0.8360 0.8350 0.8340
1605.358744 0.8320 0.8310 0.8310 0.8290 0.8290
1610.279466 0.8280 0.8270 0.8250 0.8240 0.8230
1615.200189 0.8160 0.8130 0.8110 0.8110 0.8080
1620.120911 0.8050 0.8050 0.8040 0.8040 0.8050
1625.041634 0.8070 0.8080 0.8110 0.8160 0.8210
1629.962356 0.8240 0.8280 0.8310 0.8320 0.8320
1634.883079 0.8340 0.8340 0.8320 0.8320 0.8310
1639.803801 0.8280 0.8250 0.8240 0.8210 0.8200
1644.724524 0.8170 0.8160 0.8130 0.8130 0.8120
1649.645246 0.8070 0.8010 0.7930 0.7920 0.7801
1654.565969 0.7790 0.7770 0.7760 0.7760 0.7760
1659.486691 0.7750 0.7750 0.7750 0.7750 0.7750
1664.407414 0.7750 0.7750 0.7750 0.7750 0.7730
1669.328136 0.7730 0.7690 0.7670 0.7630 0.7610
1674.248859 0.7590 0.7550 0.7510 0.7490 0.7490
1679.169581 0.7480 0.7450 0.7410 0.7360 0.7290
1684.090304 0.7240 0.7180 0.7100 0.7060 0.6940
1689.011026 0.6890 0.6850 0.6691 0.6511 0.6301
1693.931749 0.6180 0.6070 0.6010 0.5890 0.5830
1698.852471 0.5710 0.5550 0.5381 0.5201 0.5071
1703.773194 0.4970 0.4950 0.4830 0.4770 0.4720
1708.693916 0.4650 0.4560 0.4361 0.4241 0.3961
1713.614639 0.3880 0.3700 0.3490 0.3290 0.2971
1718.535361 0.2701 0.2501 0.1902 0.1352 0.1231
1723.456084 0.1120 0.1030 0.0930 0.0740 0.0580
1728.376806 0.0460 0.0330 0.0250 0.0140 0.0050
1733.297529 0.0020 0.0010 0.0000 0.0000 0.0000
1738.218251 0.0000 0.0000 0.0000 0.0000 0.0000
1743.138974 0.0010 0.0010 0.0010 0.0020 0.0020
1748.059696 0.0060 0.0060 0.0090 0.0140 0.0210
1752.980419 0.0490 0.1130 0.1350 0.1720 0.2029
1757.901141 0.2439 0.2629 0.2730 0.3138 0.3379
1762.821864 0.3500 0.3610 0.3760 0.3860 0.3940
1767.742586 0.4080 0.4250 0.4439 0.4679 0.4959
1772.663309 0.5240 0.5310 0.5560 0.5740 0.6009
1777.584031 0.6190 0.6300 0.6380 0.6539 0.6679
1782.504754 0.6740 0.6760 0.6760 0.6770 0.6770
1787.425476 0.6760 0.6700 0.6680 0.6630 0.6590
1792.346199 0.6570 0.6570 0.6580 0.6610 0.6730
1797.266921 0.6810 0.6850 0.7039 0.7209 0.7359
1802.187644 0.7440 0.7520 0.7570 0.7590 0.7640
1807.108366 0.7760 0.7790 0.7830 0.7930 0.7960
1812.029089 0.8010 0.8050 0.8080 0.8120 0.8120
1816.949811 0.8130 0.8150 0.8170 0.8230 0.8240
1821.870534 0.8310 0.8320 0.8320 0.8340 0.8340
1826.791256 0.8350 0.8360 0.8360 0.8380 0.8430
1831.711979 0.8440 0.8460 0.8460 0.8470 0.8480
1836.632701 0.8500 0.8510 0.8510 0.8520 0.8520
1841.553424 0.8470 0.8460 0.8440 0.8440 0.8440
1846.474146 0.8440 0.8440 0.8430 0.8430 0.8430
1851.394869 0.8440 0.8440 0.8460 0.8460 0.8470
1856.315591 0.8520 0.8540 0.8560 0.8600 0.8630
1861.236314 0.8660 0.8700 0.8720 0.8740 0.8740
1866.157036 0.8750 0.8750 0.8750 0.8760 0.8780
1871.077759 0.8780 0.8780 0.8780 0.8780 0.8780
1875.998481 0.8780 0.8790 0.8800 0.8800 0.8820
1880.919204 0.8820 0.8830 0.8800 0.8800 0.8820
1885.839926 0.8830 0.8830 0.8830 0.8830 0.8830
1890.760649 0.8840 0.8860 0.8840 0.8860 0.8870
1895.681371 0.8870 0.8870 0.8870 0.8870 0.8870
1900.602094 0.8860 0.8840 0.8840 0.8830 0.8830
1905.522816 0.8820 0.8820 0.8820 0.8820 0.8800
1910.443539 0.8790 0.8790 0.8780 0.8780 0.8780
1915.364261 0.8780 0.8780 0.8780 0.8780 0.8780
1920.284984 0.8760 0.8760 0.8750 0.8740 0.8740
1925.205706 0.8740 0.8720 0.8740 0.8740 0.8720
1930.126429 0.8710 0.8710 0.8710 0.8710 0.8720
1935.047151 0.8720 0.8720 0.8740 0.8790 0.8820
1939.967874 0.8820 0.8830 0.8840 0.8840 0.8860
1944.888596 0.8860 0.8860 0.8860 0.8860 0.8860
1949.809319 0.8870 0.8860 0.8880 0.8900 0.8920
1954.730041 0.8920 0.8940 0.8940 0.8940 0.8950
1959.650764 0.8950 0.8980 0.8990 0.9000 0.9000
1964.571486 0.9020 0.9030 0.9030 0.9040 0.9040
1969.492209 0.9040 0.9040 0.9040 0.9040 0.9040
1974.412931 0.9030 0.9030 0.9030 0.9030 0.9030
1979.333654 0.9030 0.9030 0.9030 0.9030 0.9030
1984.254376 0.9030 0.9030 0.9030 0.9030 0.9030
1989.175099 0.9030 0.9030 0.9060 0.9060 0.9060
1994.095821 0.9060 0.9060 0.9070 0.9080 0.9080
1999.016544 0.9100 0.9110 0.9115 0.9120 0.9170
2003.937266 0.9220 0.9235 0.9250 0.9275 0.9300
2008.857989 0.9300 0.9300 0.9315 0.9330 0.9330
2013.778711 0.9330 0.9330 0.9330 0.9330 0.9330
2018.699434 0.9330 0.9330 0.9330 0.9330 0.9335
2023.620156 0.9340 0.9340 0.9340 0.9340 0.9340
2028.540879 0.9340 0.9340 0.9340 0.9340 0.9340
2033.461601 0.9340 0.9345 0.9350 0.9350 0.9350
2038.382324 0.9350 0.9350 0.9350 0.9350 0.9350
2043.303046 0.9350 0.9350 0.9350 0.9350 0.9350
2048.223769 0.9350 0.9350 0.9345 0.9340 0.9340
2053.144491 0.9340 0.9335 0.9330 0.9330 0.9330
2058.065214 0.9330 0.9330 0.9330 0.9330 0.9330
2062.985936 0.9330 0.9330 0.9330 0.9330 0.9330
2067.906659 0.9330 0.9330 0.9320 0.9311 0.9310
2072.827381 0.9310 0.9305 0.9300 0.9286 0.9271
2077.748104 0.9270 0.9270 0.9265 0.9260 0.9255
2082.668826 0.9250 0.9241 0.9231 0.9230 0.9230
2087.589548 0.9230 0.9230 0.9230 0.9230 0.9230
2092.510271 0.9230 0.9230 0.9230 0.9239 0.9249
2097.430993 0.9250 0.9250 0.9255 0.9260 0.9260
2102.351716 0.9260 0.9260 0.9260 0.9255 0.9250
2107.272438 0.9250 0.9250 0.9250 0.9250 0.9241
2112.193161 0.9231 0.9212 0.9192 0.9172 0.9152
2117.113883 0.9145 0.9140 0.9131 0.9121 0.9101
2122.034606 0.9081 0.9075 0.9070 0.9070 0.9070
2126.955328 0.9070 0.9070 0.9070 0.9070 0.9075
2131.876051 0.9080 0.9080 0.9080 0.9089 0.9099
2136.796773 0.9100 0.9100 0.9100 0.9100 0.9100
2141.717496 0.9100 0.9100 0.9100 0.9091 0.9081
2146.638218 0.9080 0.9080 0.9075 0.9070 0.9065
2151.558941 0.9060 0.9060 0.9060 0.9069 0.9079
2156.479663 0.9089 0.9099 0.9100 0.9100 0.9105
2161.400386 0.9110 0.9110 0.9110 0.9124 0.9139
2166.321108 0.9140 0.9140 0.9144 0.9149 0.9159
2171.241831 0.9169 0.9170 0.9170 0.9174 0.9179
2176.162553 0.9180 0.9180 0.9180 0.9180 0.9167
2181.083276 0.9152 0.9150 0.9150 0.9150 0.9150
2186.003998 0.9150 0.9150 0.9150 0.9150 0.9150
2190.924721 0.9150 0.9150 0.9150 0.9150 0.9150
2195.845443 0.9150 0.9150 0.9150 0.9150 0.9150
2200.766166 0.9150 0.9150 0.9150 0.9150 0.9150
2205.686888 0.9150 0.9150 0.9150 0.9150 0.9150
2210.607611 0.9150 0.9150 0.9150 0.9159 0.9169
2215.528333 0.9174 0.9179 0.9180 0.9180 0.9180
2220.449056 0.9180 0.9184 0.9189 0.9190 0.9190
2225.369778 0.9190 0.9190 0.9186 0.9181 0.9180
2230.290501 0.9180 0.9176 0.9171 0.9161 0.9151
2235.211223 0.9150 0.9150 0.9150 0.9150 0.9150
2240.131946 0.9150 0.9150 0.9150 0.9146 0.9141
2245.052668 0.9140 0.9140 0.9131 0.9122 0.9120
2249.973391 0.9120 0.9120 0.9120 0.9120 0.9120
2254.894113 0.9120 0.9120 0.9116 0.9111 0.9114
2259.814836 0.9119 0.9120 0.9120 0.9128 0.9138
2264.735558 0.9140 0.9140 0.9144 0.9149 0.9150
2269.656281 0.9150 0.9150 0.9150 0.9150 0.9150
2274.577003 0.9150 0.9150 0.9150 0.9150 0.9158
2279.497726 0.9168 0.9174 0.9179 0.9193 0.9208
2284.418448 0.9210 0.9210 0.9210 0.9210 0.9202
2289.339171 0.9192 0.9198 0.9208 0.9210 0.9210
2294.259893 0.9210 0.9210 0.9210 0.9210 0.9214
2299.180616 0.9219 0.9220 0.9220 0.9220 0.9220
2304.101338 0.9220 0.9220 0.9220 0.9220 0.9220
2309.022061 0.9220 0.9216 0.9211 0.9202 0.9192
2313.942783 0.9190 0.9190 0.9190 0.9190 0.9190
2318.863506 0.9190 0.9190 0.9190 0.9186 0.9181
2323.784228 0.9180 0.9180 0.9176 0.9171 0.9162
2328.704951 0.9152 0.9150 0.9150 0.9150 0.9150
2333.625673 0.9150 0.9150 0.9158 0.9168 0.9170
2338.546396 0.9170 0.9174 0.9179 0.9180 0.9180
2343.467118 0.9180 0.9180 0.9180 0.9180 0.9180
2348.387841 0.9180 0.9180 0.9180 0.9180 0.9180
2353.308563 0.9184 0.9189 0.9190 0.9190 0.9190
2358.229286 0.9190 0.9190 0.9190 0.9174 0.9154
2363.150008 0.9150 0.9150 0.9162 0.9177 0.9180
2368.070731 0.9180 0.9180 0.9180 0.9184 0.9189
2372.991453 0.9190 0.9190 0.9190 0.9190 0.9190
2377.912176 0.9190 0.9198 0.9208 0.9210 0.9210
2382.832898 0.9202 0.9192 0.9190 0.9190 0.9186
2387.753621 0.9181 0.9176 0.9171 0.9170 0.9170
2392.674343 0.9174 0.9179 0.9180 0.9180 0.9184
2397.595066 0.9189 0.9190 0.9190 0.9198 0.9208
2402.515788 0.9202 0.9192 0.9190 0.9190 0.9190
2407.436511 0.9190 0.9190 0.9190 0.9190 0.9190
2412.357233 0.9186 0.9181 0.9180 0.9180 0.9180
2417.277956 0.9180 0.9180 0.9180 0.9169 0.9154
2422.198678 0.9161 0.9176 0.9180 0.9180 0.9180
2427.119401 0.9180 0.9180 0.9180 0.9180 0.9180
2432.040123 0.9180 0.9180 0.9180 0.9180 0.9176
2436.960846 0.9171 0.9170 0.9170 0.9163 0.9153
2441.881568 0.9157 0.9167 0.9170 0.9170 0.9163
2446.802291 0.9153 0.9150 0.9150 0.9150 0.9150
2451.723013 0.9150 0.9150 0.9150 0.9150 0.9146
2456.643736 0.9141 0.9140 0.9140 0.9140 0.9140
2461.564458 0.9133 0.9123 0.9105 0.9085 0.9065
2466.485181 0.9045 0.9040 0.9040 0.9036 0.9031
2471.405903 0.9030 0.9030 0.9030 0.9030 0.9026
2476.326626 0.9021 0.9020 0.9020 0.9013 0.9003
2481.247348 0.8996 0.8991 0.8990 0.8990 0.8994
2486.168071 0.8999 0.9000 0.9000 0.9007 0.9017
2491.088793 0.9041 0.9072 0.9087 0.9097 0.9100
2496.009516 0.9100 0.9104 0.9109 0.9114 0.9119
2500.930238 0.9127 0.9137 0.9140 0.9140 0.9144
2505.850961 0.9149 0.9146 0.9141 0.9140 0.9140
2510.771683 0.9140 0.9140 0.9144 0.9149 0.9157
2515.692406 0.9167 0.9170 0.9170 0.9170 0.9170
2520.613128 0.9170 0.9170 0.9170 0.9170 0.9170
2525.533851 0.9170 0.9163 0.9153 0.9157 0.9167
2530.454573 0.9173 0.9179 0.9180 0.9180 0.9184
2535.375296 0.9188 0.9190 0.9190 0.9190 0.9190
2540.296018 0.9190 0.9190 0.9187 0.9182 0.9180
2545.216741 0.9180 0.9180 0.9180 0.9177 0.9172
2550.137463 0.9170 0.9170 0.9170 0.9170 0.9170
2555.058186 0.9170 0.9170 0.9170 0.9170 0.9170
2559.978908 0.9163 0.9153 0.9150 0.9150 0.9150
2564.899631 0.9150 0.9150 0.9150 0.9147 0.9142
2569.820353 0.9140 0.9140 0.9133 0.9123 0.9120
2574.741076 0.9120 0.9120 0.9120 0.9120 0.9120
2579.661798 0.9117 0.9112 0.9113 0.9118 0.9113
2584.582521 0.9103 0.9093 0.9083 0.9073 0.9063
2589.503243 0.9053 0.9043 0.9037 0.9032 0.9030
2594.423966 0.9030 0.9027 0.9022 0.9023 0.9028
2599.344688 0.9027 0.9022 0.9020 0.9020 0.9020
2604.265411 0.9020 0.9014 0.9004 0.9000 0.9000
2609.186133 0.9000 0.9000 0.9000 0.9000 0.9000
2614.106856 0.9000 0.9007 0.9017 0.9020 0.9020
2619.027578 0.9020 0.9020 0.9020 0.9020 0.9020
2623.948301 0.9020 0.9020 0.9020 0.9020 0.9020
2628.869023 0.9020 0.9020 0.9014 0.9004 0.9000
2633.789746 0.9000 0.9000 0.9000 0.8997 0.8992
2638.710468 0.8990 0.8990 0.8990 0.8990 0.8981
2643.631191 0.8966 0.8957 0.8952 0.8950 0.8950
2648.551913 0.8947 0.8942 0.8934 0.8924 0.8904
2653.472636 0.8879 0.8848 0.8813 0.8775 0.8735
2658.393358 0.8701 0.8671 0.8638 0.8603 0.8581
2663.314081 0.8566 0.8557 0.8552 0.8550 0.8550
2668.234803 0.8553 0.8558 0.8566 0.8576 0.8586
2673.155526 0.8596 0.8619 0.8649 0.8663 0.8668
2678.076248 0.8685 0.8710 0.8732 0.8752 0.8769
2682.996971 0.8784 0.8793 0.8798 0.8800 0.8800
2687.917693 0.8800 0.8800 0.8800 0.8800 0.8797
2692.838416 0.8792 0.8790 0.8790 0.8790 0.8790
2697.759138 0.8790 0.8790 0.8793 0.8798 0.8806
2702.679861 0.8816 0.8823 0.8828 0.8833 0.8838
2707.600583 0.8849 0.8864 0.8885 0.8910 0.8920
2712.521305 0.8920 0.8929 0.8944 0.8953 0.8958
2717.442028 0.8960 0.8960 0.8978 0.9008 0.9023
2722.362750 0.9028 0.9033 0.9038 0.9040 0.9040
2727.283473 0.9040 0.9040 0.9040 0.9040 0.9040
2732.204195 0.9040 0.9046 0.9056 0.9063 0.9068
2737.124918 0.9070 0.9070 0.9070 0.9070 0.9070
2742.045640 0.9070 0.9070 0.9070 0.9067 0.9062
2746.966363 0.9054 0.9044 0.9037 0.9032 0.9021
2751.887085 0.9006 0.8997 0.8992 0.8990 0.8990
2756.807808 0.8990 0.8990 0.8987 0.8982 0.8972
2761.728530 0.8957 0.8950 0.8950 0.8947 0.8942
2766.649253 0.8940 0.8940 0.8934 0.8924 0.8906
2771.569975 0.8881 0.8859 0.8839 0.8819 0.8799
2776.490698 0.8787 0.8782 0.8774 0.8764 0.8754
2781.411420 0.8744 0.8734 0.8725 0.8720 0.8720
2786.332143 0.8717 0.8712 0.8710 0.8710 0.8699
2791.252865 0.8679 0.8656 0.8631 0.8598 0.8558
2796.173588 0.8521 0.8486 0.8456 0.8431 0.8412
2801.094310 0.8397 0.8382 0.8367 0.8357 0.8352
2806.015033 0.8350 0.8350 0.8350 0.8350 0.8350
2810.935755 0.8350 0.8347 0.8342 0.8335 0.8325
2815.856478 0.8312 0.8297 0.8287 0.8282 0.8269
2820.777200 0.8249 0.8237 0.8232 0.8212 0.8177
2825.697923 0.8157 0.8152 0.8142 0.8127 0.8080
2830.618645 0.8005 0.7965 0.7955 0.7910 0.7835
2835.539368 0.7787 0.7762 0.7721 0.7666 0.7546
2840.460090 0.7367 0.7233 0.7144 0.7023 0.6873
2845.380813 0.6733 0.6602 0.6476 0.6357 0.6103
2850.301535 0.5728 0.5205 0.4546 0.4196 0.4131
2855.222258 0.4066 0.4002 0.3683 0.3124 0.2559
2860.142980 0.1990 0.1619 0.1439 0.1254 0.1065
2865.063703 0.0892 0.0735 0.0660 0.0660 0.0776
2869.984425 0.1001 0.1161 0.1261 0.1333 0.1378
2874.905148 0.1620 0.2054 0.2418 0.2713 0.3224
2879.825870 0.3953 0.4493 0.4843 0.5141 0.5385
2884.746593 0.5517 0.5533 0.5540 0.5540 0.5520
2889.667315 0.5480 0.5432 0.5378 0.5320 0.5260
2894.588038 0.5220 0.5200 0.5170 0.5130 0.4944
2899.508760 0.4604 0.4328 0.4118 0.3959 0.3855
2904.429483 0.3764 0.3688 0.3613 0.3538 0.3431
2909.350205 0.3291 0.3110 0.2885 0.2690 0.2525
2914.270928 0.2353 0.2173 0.2037 0.1947 0.1828
2919.191650 0.1679 0.1534 0.1394 0.1252 0.1107
2924.112373 0.1002 0.0941 0.0878 0.0814 0.0710
2929.033095 0.0565 0.0430 0.0305 0.0223 0.0188
2933.953818 0.0168 0.0163 0.0155 0.0145 0.0140
2938.874540 0.0140 0.0140 0.0140 0.0145 0.0155
2943.795263 0.0160 0.0160 0.0162 0.0167 0.0170
2948.715985 0.0170 0.0177 0.0192 0.0205 0.0215
2953.636708 0.0227 0.0242 0.0261 0.0286 0.0316
2958.557430 0.0351 0.0372 0.0377 0.0535 0.0879
2963.478153 0.1160 0.1362 0.1579 0.1814 0.2037
2968.398875 0.2246 0.2545 0.2950 0.3252 0.3431
2973.319598 0.3636 0.3871 0.4083 0.4268 0.4423
2978.240320 0.4543 0.4811 0.5265 0.5568 0.5678
2983.161043 0.5821 0.6008 0.6142 0.6212 0.6304
2988.081765 0.6424 0.6535 0.6634 0.6741 0.6856
2993.002488 0.6942 0.6992 0.7037 0.7077 0.7148
2997.923210 0.7257 0.7354 0.7434 0.7512 0.7587
3002.843933 0.7649 0.7695 0.7740 0.7785 0.7817
3007.764655 0.7832 0.7847 0.7862 0.7883 0.7913
3012.685378 0.7936 0.7951 0.7962 0.7967 0.7974
3017.606100 0.7984 0.7998 0.8018 0.8034 0.8044
3022.526823 0.8065 0.8100 0.8126 0.8141 0.8152
3027.447545 0.8157 0.8166 0.8181 0.8194 0.8204
3032.368268 0.8216 0.8231 0.8257 0.8297 0.8326
3037.288990 0.8341 0.8377 0.8441 0.8492 0.8522
3042.209713 0.8544 0.8554 0.8564 0.8574 0.8580
3047.130435 0.8580 0.8582 0.8587 0.8598 0.8618
3052.051158 0.8636 0.8651 0.8662 0.8667 0.8672
3056.971880 0.8677 0.8686 0.8701 0.8710 0.8710
3061.892603 0.8718 0.8738 0.8756 0.8771 0.8782
3066.813325 0.8787 0.8796 0.8811 0.8822 0.8827
3071.734048 0.8830 0.8830 0.8836 0.8851 0.8870
3076.654770 0.8895 0.8912 0.8917 0.8920 0.8920
3081.575493 0.8920 0.8920 0.8924 0.8934 0.8940
3086.496215 0.8940 0.8942 0.8947 0.8952 0.8957
3091.416938 0.8964 0.8974 0.8982 0.8987 0.8992
3096.337660 0.8997 0.9000 0.9000 0.9004 0.9014
3101.258383 0.9020 0.9020 0.9022 0.9027 0.9032
3106.179105 0.9037 0.9040 0.9040 0.9040 0.9040
3111.099828 0.9040 0.9040 0.9040 0.9040 0.9040
3116.020550 0.9040 0.9040 0.9040 0.9045 0.9060
3120.941273 0.9072 0.9077 0.9084 0.9094 0.9096
3125.861995 0.9086 0.9080 0.9080 0.9078 0.9073
3130.782718 0.9065 0.9050 0.9038 0.9033 0.9030
3135.703440 0.9030 0.9030 0.9030 0.9030 0.9030
3140.624163 0.9030 0.9030 0.9032 0.9037 0.9040
3145.544885 0.9040 0.9040 0.9040 0.9044 0.9054
3150.465608 0.9056 0.9046 0.9040 0.9040 0.9040
3155.386330 0.9040 0.9040 0.9040 0.9040 0.9040
3160.307053 0.9043 0.9053 0.9060 0.9060 0.9060
3165.227775 0.9060 0.9062 0.9067 0.9070 0.9070
3170.148498 0.9070 0.9070 0.9070 0.9070 0.9070
3175.069220 0.9070 0.9070 0.9070 0.9070 0.9070
3179.989943 0.9070 0.9070 0.9070 0.9070 0.9070
3184.910665 0.9070 0.9072 0.9077 0.9080 0.9080
3189.831388 0.9083 0.9093 0.9100 0.9100 0.9100
3194.752110 0.9100 0.9100 0.9100 0.9100 0.9100
3199.672833 0.9100 0.9100 0.9100 0.9100 0.9100
3204.593555 0.9100 0.9102 0.9107 0.9110 0.9110
3209.514278 0.9108 0.9103 0.9102 0.9107 0.9110
3214.435000 0.9110 0.9110 0.9110 0.9110 0.9110
3219.355723 0.9112 0.9117 0.9120 0.9120 0.9118
3224.276445 0.9113 0.9110 0.9110 0.9110 0.9110
3229.197168 0.9110 0.9110 0.9108 0.9103 0.9100
3234.117890 0.9100 0.9100 0.9100 0.9100 0.9100
3239.038613 0.9100 0.9100 0.9097 0.9087 0.9080
3243.959335 0.9080 0.9080 0.9080 0.9080 0.9080
3248.880058 0.9080 0.9080 0.9079 0.9074 0.9070
3253.800780 0.9070 0.9070 0.9070 0.9070 0.9070
3258.721503 0.9070 0.9070 0.9070 0.9070 0.9070
3263.642225 0.9070 0.9070 0.9070 0.9070 0.9070
3268.562948 0.9070 0.9070 0.9070 0.9070 0.9070
3273.483670 0.9070 0.9070 0.9070 0.9070 0.9070
3278.404393 0.9070 0.9070 0.9070 0.9070 0.9070
3283.325115 0.9070 0.9070 0.9070 0.9070 0.9070
3288.245838 0.9070 0.9070 0.9070 0.9070 0.9070
3293.166560 0.9070 0.9070 0.9070 0.9070 0.9070
3298.087283 0.9070 0.9070 0.9071 0.9076 0.9079
3303.008005 0.9074 0.9070 0.9070 0.9070 0.9070
3307.928728 0.9070 0.9070 0.9070 0.9070 0.9070
3312.849450 0.9070 0.9070 0.9070 0.9070 0.9070
3317.770173 0.9070 0.9070 0.9070 0.9070 0.9070
3322.690895 0.9070 0.9070 0.9070 0.9070 0.9070
3327.611617 0.9070 0.9070 0.9070 0.9070 0.9070
3332.532340 0.9070 0.9069 0.9064 0.9060 0.9060
3337.453062 0.9060 0.9060 0.9060 0.9060 0.9061
3342.373785 0.9066 0.9070 0.9070 0.9070 0.9070
3347.294507 0.9070 0.9070 0.9070 0.9070 0.9071
3352.215230 0.9076 0.9080 0.9080 0.9080 0.9080
3357.135952 0.9080 0.9080 0.9080 0.9080 0.9080
3362.056675 0.9080 0.9080 0.9080 0.9080 0.9080
3366.977397 0.9079 0.9074 0.9070 0.9070 0.9070
3371.898120 0.9070 0.9070 0.9070 0.9070 0.9070
3376.818842 0.9070 0.9070 0.9070 0.9070 0.9069
3381.739565 0.9064 0.9060 0.9060 0.9060 0.9060
3386.660287 0.9060 0.9060 0.9060 0.9060 0.9060
3391.581010 0.9060 0.9060 0.9060 0.9060 0.9060
3396.501732 0.9060 0.9060 0.9060 0.9060 0.9060
3401.422455 0.9060 0.9060 0.9060 0.9058 0.9048
3406.343177 0.9040 0.9040 0.9039 0.9034 0.9030
3411.263900 0.9030 0.9029 0.9024 0.9020 0.9020
3416.184622 0.9016 0.8996 0.8978 0.8968 0.8959
3421.105345 0.8954 0.8949 0.8944 0.8937 0.8922
3426.026067 0.8909 0.8904 0.8896 0.8876 0.8857
3430.946790 0.8842 0.8826 0.8806 0.8789 0.8784
3435.867512 0.8777 0.8762 0.8747 0.8732 0.8719
3440.788235 0.8714 0.8709 0.8704 0.8698 0.8688
3445.708957 0.8679 0.8674 0.8670 0.8670 0.8670
3450.629680 0.8670 0.8671 0.8676 0.8682 0.8692
3455.550402 0.8700 0.8700 0.8701 0.8706 0.8710
3460.471125 0.8710 0.8711 0.8716 0.8725 0.8755
3465.391847 0.8785 0.8815 0.8846 0.8881 0.8913
3470.312570 0.8928 0.8941 0.8946 0.8950 0.8950
3475.233292 0.8951 0.8956 0.8962 0.8972 0.8981
3480.154015 0.8986 0.8991 0.8996 0.9000 0.9000
3485.074737 0.9000 0.9000 0.9000 0.9000 0.9000
3489.995460 0.9000 0.8999 0.8994 0.8990 0.8990
3494.916182 0.8990 0.8990 0.8990 0.8990 0.8990
3499.836905 0.8990 0.8989 0.8984 0.8980 0.8980
3504.757627 0.8980 0.8980 0.8980 0.8980 0.8979
3509.678350 0.8969 0.8960 0.8960 0.8960 0.8960
3514.599072 0.8959 0.8954 0.8950 0.8950 0.8950
3519.519795 0.8950 0.8950 0.8950 0.8949 0.8944
3524.440517 0.8940 0.8940 0.8940 0.8940 0.8940
3529.361240 0.8940 0.8940 0.8940 0.8941 0.8946
3534.281962 0.8950 0.8950 0.8951 0.8956 0.8960
3539.202685 0.8960 0.8961 0.8971 0.8981 0.8986
3544.123407 0.8991 0.8996 0.9001 0.9011 0.9021
3549.044130 0.9026 0.9031 0.9036 0.9040 0.9040
3553.964852 0.9041 0.9051 0.9061 0.9071 0.9082
3558.885575 0.9097 0.9111 0.9116 0.9122 0.9137
3563.806297 0.9151 0.9161 0.9171 0.9176 0.9181
3568.727020 0.9186 0.9191 0.9201 0.9211 0.9216
3573.647742 0.9220 0.9220 0.9220 0.9220 0.9220
3578.568465 0.9220 0.9221 0.9226 0.9232 0.9247
3583.489187 0.9260 0.9260 0.9260 0.9260 0.9261
3588.409910 0.9266 0.9271 0.9281 0.9290 0.9290
3593.330632 0.9290 0.9290 0.9290 0.9290 0.9290
3598.251355 0.9290 0.9291 0.9296 0.9299 0.9294
3603.172077 0.9289 0.9279 0.9270 0.9270 0.9270
3608.092800 0.9265 0.9260 0.9255 0.9250 0.9250
3613.013522 0.9250 0.9250 0.9249 0.9239 0.9230
3617.934245 0.9230 0.9230 0.9230 0.9231 0.9246
3622.854967 0.9262 0.9287 0.9311 0.9321 0.9330
3627.775690 0.9335 0.9340 0.9345 0.9351 0.9361
3632.696412 0.9370 0.9370 0.9370 0.9370 0.9370
3637.617135 0.9375 0.9380 0.9380 0.9380 0.9380
3642.537857 0.9380 0.9380 0.9380 0.9380 0.9380
3647.458580 0.9380 0.9380 0.9380 0.9380 0.9380
3652.379302 0.9380 0.9380 0.9380 0.9380 0.9380
3657.300025 0.9380 0.9380 0.9385 0.9390 0.9390
3662.220747 0.9390 0.9390 0.9390 0.9390 0.9390
3667.141470 0.9385 0.9380 0.9375 0.9369 0.9359
3672.062192 0.9350 0.9345 0.9340 0.9335 0.9329
3676.982915 0.9309 0.9289 0.9269 0.9249 0.9239
3681.903637 0.9230 0.9230 0.9231 0.9241 0.9251
3686.824360 0.9271 0.9291 0.9311 0.9330 0.9335
3691.745082 0.9340 0.9345 0.9351 0.9361 0.9371
3696.665805 0.9381 0.9391 0.9406 0.9421 0.9436
3701.586527 0.9450 0.9450 0.9450 0.9450 0.9450
3706.507250 0.9450 0.9450 0.9450 0.9450 0.9455
3711.427972 0.9460 0.9460 0.9460 0.9460 0.9460
3716.348695 0.9460 0.9460 0.9460 0.9460 0.9465
3721.269417 0.9470 0.9470 0.9470 0.9470 0.9470
3726.190140 0.9470 0.9470 0.9465 0.9460 0.9460
3731.110862 0.9460 0.9460 0.9460 0.9465 0.9470
3736.031585 0.9470 0.9470 0.9470 0.9470 0.9480
3740.952307 0.9490 0.9490 0.9490 0.9495 0.9500
3745.873030 0.9500 0.9500 0.9505 0.9510 0.9510
3750.793752 0.9510 0.9510 0.9510 0.9505 0.9500
3755.714475 0.9495 0.9490 0.9490 0.9490 0.9480
3760.635197 0.9470 0.9470 0.9470 0.9470 0.9470
3765.555920 0.9480 0.9490 0.9490 0.9490 0.9490
3770.476642 0.9490 0.9490 0.9490 0.9495 0.9500
3775.397365 0.9500 0.9500 0.9505 0.9510 0.9510
3780.318087 0.9510 0.9505 0.9500 0.9505 0.9510
3785.238810 0.9510 0.9510 0.9505 0.9500 0.9505
3790.159532 0.9510 0.9510 0.9510 0.9510 0.9510
3795.080255 0.9510 0.9510 0.9510 0.9510 0.9510
3800.000977 0.9510
##END=
