##TITLE=PHENOL, 4-ETHOXY-
##JCAMP-DX=4.24
##DATA TYPE=INFRARED SPECTRUM
##CLASS=COBLENTZ II
##ORIGIN=DOW CHEMICAL COMPANY
##OWNER=COBLENTZ SOCIETY
Collection (C) 2018 copyright by the U.S. Secretary of Commerce
on behalf of the United States of America. All rights reserved.
##DATE=1970/01/27
##NAMES=4-ethoxyphenol
##CAS REGISTRY NO=622-62-8
##MOLFORM=C8 H10 O2
##SOURCE REFERENCE=COBLENTZ NO. 10155
##$NIST SOURCE=COBLENTZ
##$NIST IMAGE=cob10155
##SPECTROMETER/DATA SYSTEM=DOW KBr FOREPRISM-GRATING
##INSTRUMENT PARAMETERS=BLAZED AT 3.5, 12.0, 20.0 MICRON, CHANGED AT 5.0, 7.5, 14.9 MICRON
##STATE=SOLUTION (5% IN CCl4 FOR 3800-1340, 5% IN CS2 FOR 1340-400 CM^-^1)
##PATH LENGTH=0.011, 0.011 CM
##SAMPLING PROCEDURE=TRANSMISSION
##RESOLUTION=4
##DATA PROCESSING=DIGITIZED BY NIST FROM HARD COPY (FROM TWO SEGMENTS)
##XUNITS=1/CM
##YUNITS=TRANSMITTANCE
##XFACTOR=1.000000
##YFACTOR=1
##DELTAX=0.867554
##FIRSTX=392.423
##LASTX=3797.57
##FIRSTY=0.854
##MAXX=3797.57
##MINX=392.423
##MAXY=1
##MINY=0.006
##NPOINTS=3926
##XYDATA=(X++(Y..Y))
392.423000 0.8540 0.8540 0.8540 0.8540 0.8540
396.760771 0.8540 0.8540 0.8530 0.8530 0.8530
401.098543 0.8530 0.8510 0.8500 0.8500 0.8500
405.436314 0.8500 0.8500 0.8500 0.8500 0.8500
409.774085 0.8510 0.8510 0.8510 0.8510 0.8510
414.111857 0.8510 0.8500 0.8500 0.8500 0.8500
418.449628 0.8500 0.8500 0.8490 0.8490 0.8490
422.787400 0.8490 0.8490 0.8490 0.8490 0.8490
427.125171 0.8500 0.8500 0.8500 0.8490 0.8490
431.462942 0.8490 0.8490 0.8490 0.8490 0.8470
435.800714 0.8470 0.8470 0.8460 0.8450 0.8450
440.138485 0.8450 0.8430 0.8430 0.8430 0.8420
444.476256 0.8420 0.8400 0.8400 0.8390 0.8390
448.814028 0.8380 0.8380 0.8390 0.8400 0.8420
453.151799 0.8420 0.8450 0.8460 0.8470 0.8490
457.489570 0.8490 0.8500 0.8510 0.8510 0.8530
461.827342 0.8530 0.8530 0.8540 0.8540 0.8540
466.165113 0.8540 0.8540 0.8540 0.8540 0.8540
470.502884 0.8540 0.8530 0.8530 0.8510 0.8510
474.840656 0.8500 0.8500 0.8500 0.8500 0.8490
479.178427 0.8490 0.8470 0.8470 0.8460 0.8460
483.516199 0.8450 0.8430 0.8430 0.8430 0.8420
487.853970 0.8420 0.8420 0.8390 0.8390 0.8380
492.191741 0.8380 0.8360 0.8340 0.8310 0.8310
496.529513 0.8270 0.8230 0.8220 0.8180 0.8120
500.867284 0.8050 0.8000 0.7950 0.7920 0.7811
505.205055 0.7740 0.7620 0.7560 0.7460 0.7290
509.542827 0.7041 0.6910 0.6771 0.6491 0.6211
513.880598 0.5940 0.5720 0.5560 0.5400 0.5260
518.218369 0.5250 0.5260 0.5569 0.5898 0.6328
522.556141 0.6690 0.7030 0.7270 0.7430 0.7580
526.893912 0.7680 0.7760 0.7800 0.7850 0.7890
531.231684 0.7920 0.7950 0.7960 0.7970 0.7970
535.569455 0.7970 0.7970 0.7970 0.7970 0.7970
539.907226 0.7960 0.7960 0.7960 0.7960 0.7960
544.244998 0.7960 0.7960 0.7960 0.7960 0.7960
548.582769 0.7970 0.7970 0.7990 0.8000 0.8010
552.920540 0.8030 0.8040 0.8050 0.8080 0.8090
557.258312 0.8110 0.8110 0.8120 0.8140 0.8160
561.596083 0.8190 0.8200 0.8220 0.8230 0.8260
565.933854 0.8280 0.8300 0.8310 0.8320 0.8320
570.271626 0.8340 0.8340 0.8340 0.8340 0.8340
574.609397 0.8350 0.8350 0.8350 0.8350 0.8350
578.947168 0.8360 0.8360 0.8380 0.8380 0.8380
583.284940 0.8380 0.8380 0.8380 0.8380 0.8380
587.622711 0.8380 0.8380 0.8380 0.8380 0.8380
591.960483 0.8380 0.8380 0.8380 0.8380 0.8380
596.298254 0.8380 0.8390 0.8390 0.8390 0.8390
600.636025 0.8400 0.8400 0.8400 0.8400 0.8400
604.973797 0.8420 0.8420 0.8430 0.8430 0.8450
609.311568 0.8450 0.8460 0.8460 0.8460 0.8460
613.649339 0.8470 0.8490 0.8490 0.8500 0.8500
617.987111 0.8510 0.8510 0.8510 0.8510 0.8530
622.324882 0.8530 0.8540 0.8550 0.8570 0.8580
626.662653 0.8590 0.8590 0.8590 0.8580 0.8580
631.000425 0.8580 0.8580 0.8580 0.8580 0.8580
635.338196 0.8580 0.8580 0.8590 0.8610 0.8630
639.675967 0.8660 0.8670 0.8690 0.8700 0.8700
644.013739 0.8700 0.8700 0.8700 0.8710 0.8710
648.351510 0.8730 0.8730 0.8740 0.8740 0.8770
652.689282 0.8780 0.8800 0.8820 0.8860 0.8880
657.027053 0.8900 0.8900 0.8890 0.8890 0.8880
661.364824 0.8860 0.8850 0.8840 0.8820 0.8810
665.702596 0.8800 0.8800 0.8800 0.8800 0.8800
670.040367 0.8800 0.8780 0.8780 0.8780 0.8780
674.378138 0.8780 0.8780 0.8780 0.8780 0.8780
678.715910 0.8800 0.8810 0.8820 0.8840 0.8840
683.053681 0.8840 0.8820 0.8810 0.8810 0.8810
687.391452 0.8810 0.8820 0.8820 0.8820 0.8810
691.729224 0.8800 0.8800 0.8780 0.8780 0.8780
696.066995 0.8760 0.8740 0.8730 0.8700 0.8690
700.404767 0.8630 0.8590 0.8580 0.8550 0.8540
704.742538 0.8530 0.8530 0.8510 0.8500 0.8500
709.080309 0.8500 0.8490 0.8460 0.8450 0.8430
713.418081 0.8400 0.8320 0.8150 0.7950 0.7760
717.755852 0.7570 0.7331 0.7310 0.7330 0.7370
722.093623 0.7430 0.7570 0.7690 0.7810 0.7950
726.431395 0.8050 0.8110 0.8160 0.8200 0.8270
730.769166 0.8300 0.8300 0.8320 0.8350 0.8380
735.106937 0.8390 0.8420 0.8420 0.8400 0.8390
739.444709 0.8320 0.8270 0.8220 0.8140 0.8050
743.782480 0.7950 0.7781 0.7571 0.7301 0.6872
748.120251 0.6440 0.5880 0.5330 0.5080 0.4441
752.458023 0.4091 0.3731 0.3032 0.2343 0.2340
756.795794 0.2410 0.2960 0.3339 0.4618 0.5568
761.133566 0.7594 0.7799 0.7969 0.8109 0.8190
765.471337 0.8340 0.8490 0.8540 0.8630 0.8710
769.809108 0.8760 0.8800 0.8800 0.8810 0.8820
774.146880 0.8840 0.8820 0.8810 0.8800 0.8800
778.484651 0.8780 0.8770 0.8760 0.8710 0.8591
782.822422 0.8360 0.8120 0.7960 0.7850 0.7760
787.160194 0.7730 0.7730 0.7740 0.7830 0.7890
791.497965 0.7920 0.7950 0.8040 0.8070 0.8150
795.835736 0.8180 0.8200 0.8230 0.8260 0.8270
800.173508 0.8260 0.8230 0.8200 0.8180 0.8150
804.511279 0.8120 0.8040 0.7960 0.7870 0.7661
808.849051 0.7450 0.7120 0.6960 0.6790 0.6451
813.186822 0.5971 0.5611 0.4833 0.4133 0.3433
817.524593 0.2830 0.2570 0.2231 0.1991 0.1810
821.862365 0.1750 0.1750 0.1810 0.2138 0.2488
826.200136 0.2780 0.3050 0.3140 0.3320 0.3510
830.537907 0.4079 0.4210 0.4469 0.4659 0.4998
834.875679 0.5550 0.6229 0.6689 0.7209 0.7409
839.213450 0.7450 0.7470 0.7470 0.7470 0.7490
843.551221 0.7570 0.7600 0.7680 0.7770 0.7930
847.888993 0.8030 0.8229 0.8449 0.8609 0.8700
852.226764 0.8770 0.8820 0.8900 0.8920 0.8960
856.564535 0.9000 0.9010 0.9020 0.9050 0.9080
860.902307 0.9090 0.9110 0.9110 0.9120 0.9120
865.240078 0.9120 0.9120 0.9120 0.9120 0.9120
869.577850 0.9120 0.9120 0.9110 0.9110 0.9090
873.915621 0.9090 0.9080 0.9050 0.9040 0.9040
878.253392 0.9010 0.8970 0.8940 0.8920 0.8900
882.591164 0.8850 0.8810 0.8800 0.8780 0.8760
886.928935 0.8760 0.8730 0.8700 0.8650 0.8610
891.266706 0.8590 0.8540 0.8510 0.8500 0.8500
895.604478 0.8500 0.8500 0.8490 0.8490 0.8490
899.942249 0.8490 0.8470 0.8460 0.8460 0.8450
904.280020 0.8430 0.8420 0.8390 0.8380 0.8340
908.617792 0.8300 0.8180 0.8090 0.8050 0.7950
912.955563 0.7840 0.7730 0.7570 0.7230 0.7040
917.293334 0.6940 0.6830 0.6611 0.6401 0.6181
921.631106 0.5970 0.5750 0.5520 0.7257 0.7639
925.968877 0.8109 0.8270 0.8320 0.8529 0.8739
930.306649 0.8810 0.8840 0.8900 0.8900 0.8930
934.644420 0.8980 0.9010 0.9040 0.9090 0.9110
938.982191 0.9130 0.9150 0.9160 0.9170 0.9170
943.319963 0.9190 0.9200 0.9210 0.9210 0.9230
947.657734 0.9240 0.9250 0.9270 0.9270 0.9270
951.995505 0.9270 0.9270 0.9280 0.9280 0.9280
956.333277 0.9280 0.9290 0.9290 0.9290 0.9290
960.671048 0.9290 0.9280 0.9280 0.9280 0.9280
965.008819 0.9280 0.9270 0.9270 0.9270 0.9270
969.346591 0.9270 0.9270 0.9270 0.9270 0.9270
973.684362 0.9250 0.9250 0.9250 0.9240 0.9240
978.022134 0.9230 0.9210 0.9200 0.9200 0.9200
982.359905 0.9190 0.9190 0.9170 0.9150 0.9130
986.697676 0.9130 0.9130 0.9120 0.9120 0.9110
991.035448 0.9090 0.9080 0.9040 0.9020 0.9010
995.373219 0.9000 0.8980 0.8940 0.8890 0.8780
999.710990 0.8630 0.8420 0.8300 0.8240 0.8240
1004.048762 0.8320 0.8499 0.8590 0.8630 0.8650
1008.386533 0.8650 0.8630 0.8610 0.8590 0.8570
1012.724304 0.8530 0.8500 0.8420 0.8380 0.8310
1017.062076 0.8270 0.8140 0.8030 0.7930 0.7810
1021.399847 0.7740 0.7571 0.7411 0.7261 0.7081
1025.737618 0.7030 0.6980 0.6900 0.6680 0.6490
1030.075390 0.6340 0.6190 0.6050 0.5871 0.5741
1034.413161 0.5520 0.5370 0.5220 0.5010 0.4780
1038.750933 0.4551 0.4241 0.4091 0.3931 0.3840
1043.088704 0.3580 0.3380 0.3150 0.2970 0.2850
1047.426475 0.2830 0.2830 0.2840 0.3039 0.3229
1051.764247 0.3460 0.4110 0.4500 0.4949 0.5429
1056.102018 0.5949 0.6478 0.7098 0.7419 0.7599
1060.439789 0.7740 0.7810 0.7930 0.7960 0.8030
1064.777561 0.8050 0.8110 0.8120 0.8150 0.8160
1069.115332 0.8160 0.8150 0.8140 0.8120 0.8110
1073.453103 0.8080 0.8050 0.8030 0.7960 0.7930
1077.790875 0.7850 0.7740 0.7580 0.7420 0.7260
1082.128646 0.7081 0.7000 0.6910 0.6761 0.6680
1086.466418 0.6650 0.6640 0.6630 0.6610 0.6530
1090.804189 0.6380 0.6260 0.6031 0.5801 0.5611
1095.141960 0.5560 0.5560 0.5600 0.5740 0.5900
1099.479732 0.6020 0.6170 0.6319 0.6559 0.6590
1103.817503 0.6560 0.6530 0.6450 0.6300 0.6100
1108.155274 0.5990 0.5511 0.4563 0.4271 0.3961
1112.493046 0.3620 0.3180 0.3070 0.3070 0.3270
1116.830817 0.4188 0.4868 0.5547 0.7153 0.7498
1121.168588 0.7610 0.7770 0.7890 0.7920 0.7950
1125.506360 0.7970 0.8000 0.8030 0.8040 0.8040
1129.844131 0.8010 0.7990 0.7950 0.7930 0.7930
1134.181902 0.7850 0.7810 0.7780 0.7760 0.7730
1138.519674 0.7620 0.7540 0.7420 0.7410 0.7330
1142.857445 0.7230 0.7140 0.7070 0.7000 0.6920
1147.195217 0.6800 0.6680 0.6560 0.6440 0.6320
1151.532988 0.6190 0.6100 0.5941 0.5751 0.5601
1155.870759 0.5370 0.5130 0.4950 0.4740 0.4161
1160.208531 0.3881 0.3581 0.3420 0.3151 0.2951
1164.546302 0.2770 0.2600 0.2490 0.2460 0.2450
1168.884073 0.2460 0.2490 0.2659 0.2829 0.2920
1173.221845 0.3040 0.3150 0.3300 0.3420 0.3550
1177.559616 0.3710 0.3800 0.4069 0.4110 0.4160
1181.897387 0.4190 0.4190 0.4160 0.4150 0.4080
1186.235159 0.4050 0.4010 0.3980 0.3960 0.3880
1190.572930 0.3690 0.3500 0.3360 0.3120 0.2970
1194.910701 0.2741 0.2581 0.2451 0.2271 0.2141
1199.248473 0.2020 0.1880 0.1790 0.1690 0.1650
1203.586244 0.1630 0.1610 0.1600 0.1600 0.1590
1207.924016 0.1570 0.1570 0.1560 0.1560 0.1500
1212.261787 0.1490 0.1420 0.1340 0.1280 0.1180
1216.599558 0.1110 0.1010 0.0970 0.0910 0.0790
1220.937330 0.0630 0.0520 0.0510 0.0440 0.0370
1225.275101 0.0350 0.0320 0.0290 0.0280 0.0260
1229.612872 0.0260 0.0290 0.0360 0.0440 0.0480
1233.950644 0.0520 0.0640 0.0990 0.1030 0.1190
1238.288415 0.1440 0.1809 0.2498 0.3227 0.3449
1242.626186 0.3740 0.4110 0.4250 0.4360 0.4470
1246.963958 0.4560 0.4700 0.4859 0.5019 0.5179
1251.301729 0.5290 0.5360 0.5400 0.5490 0.5610
1255.639501 0.5720 0.5780 0.5900 0.6020 0.6149
1259.977272 0.6290 0.6410 0.6560 0.6650 0.6760
1264.315043 0.6900 0.7139 0.7289 0.7419 0.7490
1268.652815 0.7600 0.7730 0.7830 0.7840 0.7870
1272.990586 0.7910 0.7930 0.7930 0.7920 0.7920
1277.328357 0.7910 0.7870 0.7810 0.7770 0.7730
1281.666129 0.7640 0.7580 0.7430 0.7261 0.7071
1286.003900 0.6990 0.6910 0.6750 0.6610 0.6440
1290.341671 0.6420 0.6450 0.6530 0.6610 0.6690
1294.679443 0.6760 0.6850 0.7040 0.7070 0.7100
1299.017214 0.7210 0.7300 0.7420 0.7490 0.7580
1303.354985 0.7660 0.7780 0.7910 0.7950 0.7960
1307.692757 0.7970 0.8040 0.8050 0.8050 0.8040
1312.030528 0.8000 0.7960 0.7930 0.7920 0.7830
1316.368300 0.7740 0.7720 0.7580 0.7450 0.7301
1320.706071 0.7110 0.7060 0.6990 0.6910 0.6770
1325.043842 0.6690 0.6640 0.6610 0.6610 0.6600
1329.381614 0.6560 0.6530 0.6530 0.6540 0.6610
1333.719385 0.6650 0.6710 0.6750 0.6760 0.6760
1338.057156 0.6770 0.6770 0.6800 0.6800 0.6830
1342.394928 0.6840 0.6840 0.6830 0.6830 0.6830
1346.732699 0.6810 0.6810 0.6810 0.6830 0.6830
1351.070470 0.6830 0.6840 0.6850 0.6870 0.6900
1355.408242 0.6920 0.6940 0.6960 0.7000 0.7020
1359.746013 0.7070 0.7080 0.7100 0.7120 0.7160
1364.083785 0.7230 0.7250 0.7300 0.7380 0.7410
1368.421556 0.7450 0.7500 0.7540 0.7570 0.7580
1372.759327 0.7580 0.7580 0.7580 0.7580 0.7580
1377.097099 0.7570 0.7520 0.7450 0.7420 0.7370
1381.434870 0.7310 0.7290 0.7230 0.7160 0.7080
1385.772641 0.7060 0.7020 0.6960 0.6920 0.6771
1390.110413 0.6600 0.6420 0.5950 0.5720 0.5490
1394.448184 0.5261 0.5041 0.4811 0.4591 0.4590
1398.785955 0.4831 0.5561 0.7180 0.7600 0.7740
1403.123727 0.7970 0.8150 0.8310 0.8420 0.8510
1407.461498 0.8540 0.8590 0.8620 0.8630 0.8630
1411.799269 0.8630 0.8620 0.8610 0.8590 0.8570
1416.137041 0.8540 0.8530 0.8510 0.8490 0.8430
1420.474812 0.8360 0.8280 0.8150 0.8050 0.7930
1424.812584 0.7740 0.7570 0.7410 0.7310 0.7190
1429.150355 0.7060 0.6990 0.6920 0.6761 0.6611
1433.488126 0.6440 0.6220 0.6010 0.5760 0.5590
1437.825898 0.5430 0.5211 0.5001 0.4831 0.4631
1442.163669 0.4440 0.4420 0.4420 0.4520 0.4670
1446.501440 0.4830 0.4900 0.5129 0.5319 0.5529
1450.839212 0.5760 0.5940 0.6020 0.6140 0.6170
1455.176983 0.6170 0.6130 0.6110 0.6070 0.6070
1459.514754 0.6110 0.6500 0.7140 0.7270 0.7390
1463.852526 0.7430 0.7490 0.7560 0.7570 0.7570
1468.190297 0.7530 0.7470 0.7420 0.7370 0.7330
1472.528069 0.7300 0.7001 0.6870 0.6721 0.6441
1476.865840 0.6090 0.5630 0.4980 0.4071 0.3151
1481.203611 0.2391 0.2390 0.4704 0.7142 0.7349
1485.541383 0.7420 0.7430 0.7420 0.7410 0.7370
1489.879154 0.7260 0.7150 0.7070 0.6990 0.6791
1494.216925 0.6600 0.6400 0.6210 0.6010 0.5820
1498.554697 0.5610 0.5430 0.4971 0.4292 0.3742
1502.892468 0.3190 0.2560 0.1291 0.0751 0.0211
1507.230239 0.0080 0.0060 0.0060 0.0060 0.0080
1511.568011 0.0090 0.0140 0.0170 0.0390 0.1019
1515.905782 0.1190 0.2956 0.4127 0.4638 0.5158
1520.243553 0.5430 0.5630 0.5740 0.6010 0.6369
1524.581325 0.6679 0.7229 0.7489 0.7620 0.7769
1528.919096 0.7810 0.8030 0.8220 0.8280 0.8320
1533.256868 0.8490 0.8540 0.8620 0.8700 0.8760
1537.594639 0.8810 0.8880 0.8900 0.8930 0.8930
1541.932410 0.8960 0.8970 0.8980 0.9000 0.9000
1546.270182 0.9010 0.9010 0.9010 0.9010 0.9010
1550.607953 0.9010 0.9010 0.9010 0.9010 0.9010
1554.945724 0.9010 0.9010 0.9010 0.9020 0.9040
1559.283496 0.9050 0.9080 0.9090 0.9110 0.9110
1563.621267 0.9120 0.9130 0.9170 0.9200 0.9210
1567.959038 0.9230 0.9240 0.9250 0.9250 0.9250
1572.296810 0.9250 0.9270 0.9270 0.9270 0.9270
1576.634581 0.9270 0.9270 0.9270 0.9270 0.9250
1580.972352 0.9240 0.9230 0.9210 0.9210 0.9200
1585.310124 0.9170 0.9170 0.9160 0.9150 0.9120
1589.647895 0.9080 0.9000 0.8940 0.8900 0.8850
1593.985667 0.8730 0.8700 0.8630 0.8610 0.8550
1598.323438 0.8550 0.8580 0.8690 0.8740 0.8810
1602.661209 0.8860 0.8920 0.9010 0.9090 0.9120
1606.998981 0.9130 0.9130 0.9150 0.9150 0.9160
1611.336752 0.9160 0.9170 0.9190 0.9190 0.9200
1615.674523 0.9210 0.9210 0.9230 0.9250 0.9310
1620.012295 0.9310 0.9320 0.9330 0.9360 0.9380
1624.350066 0.9400 0.9430 0.9460 0.9470 0.9500
1628.687837 0.9510 0.9510 0.9520 0.9540 0.9540
1633.025609 0.9550 0.9550 0.9560 0.9580 0.9580
1637.363380 0.9580 0.9580 0.9580 0.9560 0.9560
1641.701152 0.9560 0.9560 0.9560 0.9560 0.9580
1646.038923 0.9590 0.9620 0.9630 0.9640 0.9640
1650.376694 0.9660 0.9660 0.9660 0.9670 0.9670
1654.714466 0.9690 0.9700 0.9700 0.9710 0.9730
1659.052237 0.9740 0.9740 0.9750 0.9750 0.9750
1663.390008 0.9750 0.9750 0.9750 0.9750 0.9740
1667.727780 0.9740 0.9730 0.9710 0.9710 0.9710
1672.065551 0.9710 0.9730 0.9730 0.9740 0.9770
1676.403322 0.9770 0.9780 0.9780 0.9780 0.9780
1680.741094 0.9790 0.9790 0.9790 0.9790 0.9810
1685.078865 0.9810 0.9810 0.9810 0.9810 0.9810
1689.416636 0.9810 0.9810 0.9810 0.9810 0.9810
1693.754408 0.9810 0.9810 0.9810 0.9810 0.9810
1698.092179 0.9790 0.9790 0.9790 0.9790 0.9790
1702.429951 0.9790 0.9790 0.9790 0.9790 0.9790
1706.767722 0.9790 0.9790 0.9790 0.9790 0.9790
1711.105493 0.9790 0.9790 0.9780 0.9780 0.9780
1715.443265 0.9780 0.9780 0.9790 0.9790 0.9780
1719.781036 0.9780 0.9780 0.9780 0.9780 0.9780
1724.118807 0.9780 0.9780 0.9790 0.9790 0.9790
1728.456579 0.9810 0.9810 0.9810 0.9810 0.9810
1732.794350 0.9820 0.9820 0.9830 0.9850 0.9860
1737.132121 0.9870 0.9890 0.9890 0.9900 0.9900
1741.469893 0.9900 0.9900 0.9910 0.9910 0.9910
1745.807664 0.9930 0.9930 0.9930 0.9930 0.9930
1750.145436 0.9930 0.9910 0.9910 0.9910 0.9910
1754.483207 0.9910 0.9910 0.9910 0.9910 0.9910
1758.820978 0.9910 0.9910 0.9930 0.9930 0.9930
1763.158750 0.9930 0.9930 0.9930 0.9930 0.9930
1767.496521 0.9930 0.9930 0.9940 0.9940 0.9940
1771.834292 0.9940 0.9940 0.9940 0.9930 0.9930
1776.172064 0.9930 0.9930 0.9910 0.9900 0.9890
1780.509835 0.9890 0.9890 0.9870 0.9870 0.9870
1784.847606 0.9870 0.9870 0.9860 0.9850 0.9850
1789.185378 0.9850 0.9830 0.9820 0.9820 0.9810
1793.523149 0.9810 0.9810 0.9790 0.9790 0.9790
1797.860920 0.9790 0.9790 0.9790 0.9790 0.9780
1802.198692 0.9780 0.9780 0.9780 0.9780 0.9780
1806.536463 0.9780 0.9780 0.9780 0.9780 0.9780
1810.874235 0.9780 0.9780 0.9780 0.9780 0.9770
1815.212006 0.9770 0.9770 0.9770 0.9770 0.9770
1819.549777 0.9750 0.9740 0.9740 0.9730 0.9710
1823.887549 0.9700 0.9690 0.9660 0.9630 0.9620
1828.225320 0.9590 0.9540 0.9520 0.9510 0.9500
1832.563091 0.9480 0.9470 0.9460 0.9440 0.9430
1836.900863 0.9420 0.9420 0.9430 0.9430 0.9460
1841.238634 0.9470 0.9480 0.9500 0.9510 0.9520
1845.576405 0.9550 0.9560 0.9590 0.9620 0.9660
1849.914177 0.9670 0.9700 0.9730 0.9740 0.9750
1854.251948 0.9750 0.9750 0.9770 0.9770 0.9770
1858.589719 0.9770 0.9770 0.9770 0.9770 0.9750
1862.927491 0.9750 0.9750 0.9750 0.9740 0.9740
1867.265262 0.9730 0.9730 0.9730 0.9730 0.9740
1871.603034 0.9740 0.9740 0.9740 0.9750 0.9770
1875.940805 0.9770 0.9780 0.9780 0.9790 0.9790
1880.278576 0.9820 0.9820 0.9820 0.9830 0.9830
1884.616348 0.9830 0.9830 0.9850 0.9850 0.9850
1888.954119 0.9850 0.9860 0.9860 0.9860 0.9870
1893.291890 0.9870 0.9870 0.9870 0.9870 0.9870
1897.629662 0.9870 0.9870 0.9870 0.9870 0.9870
1901.967433 0.9870 0.9870 0.9870 0.9860 0.9860
1906.305204 0.9860 0.9860 0.9860 0.9860 0.9860
1910.642976 0.9860 0.9860 0.9860 0.9860 0.9860
1914.980747 0.9860 0.9860 0.9860 0.9860 0.9860
1919.318519 0.9860 0.9860 0.9860 0.9860 0.9860
1923.656290 0.9860 0.9860 0.9860 0.9860 0.9860
1927.994061 0.9860 0.9860 0.9860 0.9860 0.9860
1932.331833 0.9860 0.9860 0.9860 0.9850 0.9850
1936.669604 0.9850 0.9850 0.9850 0.9850 0.9850
1941.007375 0.9850 0.9850 0.9850 0.9830 0.9830
1945.345147 0.9830 0.9820 0.9820 0.9820 0.9820
1949.682918 0.9820 0.9810 0.9810 0.9810 0.9790
1954.020689 0.9790 0.9790 0.9780 0.9780 0.9780
1958.358461 0.9770 0.9770 0.9770 0.9770 0.9770
1962.696232 0.9750 0.9750 0.9750 0.9750 0.9750
1967.034003 0.9750 0.9750 0.9750 0.9750 0.9750
1971.371775 0.9750 0.9750 0.9750 0.9750 0.9770
1975.709546 0.9770 0.9770 0.9750 0.9750 0.9740
1980.047318 0.9740 0.9740 0.9740 0.9740 0.9740
1984.385089 0.9730 0.9710 0.9710 0.9710 0.9700
1988.722860 0.9700 0.9700 0.9700 0.9700 0.9700
1993.060632 0.9700 0.9700 0.9700 0.9690 0.9690
1997.398403 0.9670 0.9670 0.9670 0.9670 0.9665
2001.736174 0.9660 0.9650 0.9640 0.9640 0.9640
2006.073946 0.9640 0.9640 0.9650 0.9660 0.9660
2010.411717 0.9660 0.9660 0.9660 0.9665 0.9670
2014.749488 0.9670 0.9670 0.9670 0.9670 0.9685
2019.087260 0.9700 0.9705 0.9710 0.9710 0.9710
2023.425031 0.9720 0.9730 0.9735 0.9740 0.9745
2027.762803 0.9750 0.9750 0.9750 0.9760 0.9770
2032.100574 0.9775 0.9780 0.9780 0.9780 0.9780
2036.438345 0.9780 0.9780 0.9780 0.9785 0.9790
2040.776117 0.9790 0.9790 0.9790 0.9790 0.9785
2045.113888 0.9780 0.9780 0.9780 0.9780 0.9780
2049.451659 0.9780 0.9780 0.9775 0.9770 0.9770
2053.789431 0.9770 0.9770 0.9770 0.9770 0.9770
2058.127202 0.9770 0.9770 0.9770 0.9770 0.9770
2062.464973 0.9770 0.9770 0.9770 0.9770 0.9770
2066.802745 0.9770 0.9770 0.9770 0.9770 0.9770
2071.140516 0.9770 0.9770 0.9770 0.9770 0.9770
2075.478287 0.9770 0.9770 0.9770 0.9770 0.9770
2079.816059 0.9770 0.9775 0.9780 0.9780 0.9780
2084.153830 0.9780 0.9780 0.9780 0.9780 0.9780
2088.491602 0.9780 0.9785 0.9790 0.9790 0.9791
2092.829373 0.9806 0.9820 0.9825 0.9831 0.9841
2097.167144 0.9850 0.9850 0.9850 0.9855 0.9860
2101.504916 0.9865 0.9871 0.9881 0.9890 0.9890
2105.842687 0.9890 0.9890 0.9890 0.9890 0.9890
2110.180458 0.9895 0.9900 0.9905 0.9911 0.9921
2114.518230 0.9930 0.9930 0.9930 0.9930 0.9930
2118.856001 0.9935 0.9940 0.9940 0.9940 0.9945
2123.193772 0.9950 0.9950 0.9950 0.9950 0.9950
2127.531544 0.9950 0.9951 0.9961 0.9970 0.9970
2131.869315 0.9970 0.9970 0.9970 0.9970 0.9970
2136.207087 0.9970 0.9970 0.9970 0.9970 0.9970
2140.544858 0.9970 0.9970 0.9970 0.9970 0.9969
2144.882629 0.9959 0.9950 0.9950 0.9950 0.9950
2149.220401 0.9950 0.9950 0.9950 0.9945 0.9940
2153.558172 0.9940 0.9940 0.9940 0.9939 0.9934
2157.895943 0.9930 0.9930 0.9930 0.9930 0.9930
2162.233715 0.9930 0.9930 0.9930 0.9930 0.9930
2166.571486 0.9931 0.9935 0.9940 0.9940 0.9940
2170.909257 0.9940 0.9940 0.9946 0.9951 0.9961
2175.247029 0.9970 0.9970 0.9970 0.9970 0.9971
2179.584800 0.9976 0.9981 0.9991 1.0000 1.0000
2183.922571 1.0000 1.0000 1.0000 1.0000 1.0000
2188.260343 1.0000 1.0000 1.0000 1.0000 1.0000
2192.598114 1.0000 1.0000 0.9999 0.9989 0.9980
2196.935886 0.9980 0.9980 0.9980 0.9980 0.9980
2201.273657 0.9980 0.9980 0.9980 0.9980 0.9980
2205.611428 0.9980 0.9980 0.9980 0.9980 0.9980
2209.949200 0.9979 0.9974 0.9970 0.9970 0.9969
2214.286971 0.9959 0.9950 0.9950 0.9950 0.9950
2218.624742 0.9950 0.9950 0.9949 0.9944 0.9939
2222.962514 0.9934 0.9930 0.9930 0.9930 0.9930
2227.300285 0.9930 0.9930 0.9930 0.9930 0.9930
2231.638056 0.9930 0.9929 0.9919 0.9910 0.9910
2235.975828 0.9910 0.9910 0.9910 0.9910 0.9909
2240.313599 0.9904 0.9900 0.9900 0.9900 0.9900
2244.651370 0.9900 0.9900 0.9899 0.9894 0.9888
2248.989142 0.9878 0.9870 0.9870 0.9870 0.9870
2253.326913 0.9869 0.9864 0.9860 0.9860 0.9859
2257.664685 0.9854 0.9850 0.9850 0.9850 0.9850
2262.002456 0.9850 0.9850 0.9848 0.9838 0.9830
2266.340227 0.9830 0.9830 0.9830 0.9829 0.9824
2270.677999 0.9820 0.9820 0.9820 0.9820 0.9819
2275.015770 0.9814 0.9810 0.9810 0.9808 0.9798
2279.353541 0.9790 0.9790 0.9789 0.9784 0.9780
2283.691313 0.9780 0.9780 0.9780 0.9780 0.9780
2288.029084 0.9780 0.9780 0.9780 0.9780 0.9780
2292.366855 0.9780 0.9780 0.9780 0.9780 0.9780
2296.704627 0.9780 0.9780 0.9780 0.9780 0.9780
2301.042398 0.9780 0.9780 0.9780 0.9780 0.9780
2305.380170 0.9781 0.9786 0.9790 0.9790 0.9790
2309.717941 0.9790 0.9790 0.9790 0.9790 0.9790
2314.055712 0.9790 0.9790 0.9790 0.9790 0.9790
2318.393484 0.9790 0.9790 0.9790 0.9790 0.9790
2322.731255 0.9790 0.9790 0.9789 0.9784 0.9780
2327.069026 0.9780 0.9780 0.9780 0.9780 0.9780
2331.406798 0.9780 0.9780 0.9779 0.9774 0.9770
2335.744569 0.9770 0.9770 0.9770 0.9768 0.9758
2340.082340 0.9750 0.9750 0.9750 0.9750 0.9752
2344.420112 0.9762 0.9770 0.9770 0.9770 0.9770
2348.757883 0.9768 0.9758 0.9752 0.9762 0.9770
2353.095654 0.9770 0.9770 0.9770 0.9770 0.9770
2357.433426 0.9770 0.9770 0.9770 0.9770 0.9770
2361.771197 0.9770 0.9770 0.9770 0.9770 0.9770
2366.108969 0.9770 0.9770 0.9770 0.9770 0.9770
2370.446740 0.9770 0.9770 0.9770 0.9770 0.9770
2374.784511 0.9770 0.9770 0.9770 0.9770 0.9768
2379.122283 0.9758 0.9750 0.9750 0.9750 0.9750
2383.460054 0.9750 0.9750 0.9750 0.9750 0.9750
2387.797825 0.9750 0.9749 0.9744 0.9740 0.9740
2392.135597 0.9740 0.9740 0.9740 0.9740 0.9740
2396.473368 0.9740 0.9739 0.9734 0.9730 0.9730
2400.811139 0.9727 0.9717 0.9710 0.9710 0.9710
2405.148911 0.9710 0.9709 0.9704 0.9700 0.9700
2409.486682 0.9699 0.9694 0.9690 0.9690 0.9690
2413.824454 0.9690 0.9687 0.9677 0.9670 0.9670
2418.162225 0.9670 0.9670 0.9669 0.9664 0.9657
2422.499996 0.9647 0.9640 0.9640 0.9639 0.9634
2426.837768 0.9630 0.9630 0.9630 0.9630 0.9629
2431.175539 0.9624 0.9617 0.9607 0.9600 0.9600
2435.513310 0.9600 0.9600 0.9600 0.9600 0.9600
2439.851082 0.9600 0.9603 0.9613 0.9620 0.9620
2444.188853 0.9620 0.9620 0.9620 0.9620 0.9620
2448.526624 0.9620 0.9620 0.9620 0.9620 0.9620
2452.864396 0.9617 0.9607 0.9600 0.9600 0.9600
2457.202167 0.9600 0.9600 0.9600 0.9600 0.9600
2461.539938 0.9599 0.9594 0.9589 0.9584 0.9580
2465.877710 0.9580 0.9577 0.9567 0.9560 0.9560
2470.215481 0.9560 0.9560 0.9565 0.9580 0.9590
2474.553253 0.9590 0.9592 0.9597 0.9600 0.9600
2478.891024 0.9598 0.9593 0.9588 0.9583 0.9577
2483.228795 0.9567 0.9560 0.9560 0.9560 0.9560
2487.566567 0.9563 0.9573 0.9582 0.9587 0.9592
2491.904338 0.9597 0.9603 0.9613 0.9620 0.9620
2496.242109 0.9620 0.9620 0.9620 0.9620 0.9623
2500.579881 0.9633 0.9643 0.9653 0.9660 0.9660
2504.917652 0.9660 0.9660 0.9662 0.9667 0.9670
2509.255423 0.9670 0.9673 0.9683 0.9687 0.9677
2513.593195 0.9670 0.9670 0.9670 0.9670 0.9670
2517.930966 0.9670 0.9670 0.9670 0.9668 0.9663
2522.268737 0.9660 0.9660 0.9660 0.9660 0.9660
2526.606509 0.9660 0.9662 0.9667 0.9670 0.9670
2530.944280 0.9673 0.9683 0.9687 0.9677 0.9670
2535.282052 0.9670 0.9670 0.9670 0.9674 0.9684
2539.619823 0.9692 0.9697 0.9698 0.9693 0.9686
2543.957594 0.9676 0.9670 0.9670 0.9670 0.9670
2548.295366 0.9674 0.9684 0.9692 0.9697 0.9700
2552.633137 0.9700 0.9698 0.9693 0.9690 0.9690
2556.970908 0.9686 0.9676 0.9670 0.9670 0.9676
2561.308680 0.9691 0.9700 0.9700 0.9700 0.9700
2565.646451 0.9700 0.9700 0.9698 0.9693 0.9690
2569.984222 0.9690 0.9692 0.9697 0.9700 0.9700
2574.321994 0.9700 0.9700 0.9700 0.9700 0.9700
2578.659765 0.9700 0.9700 0.9700 0.9698 0.9693
2582.997537 0.9686 0.9676 0.9670 0.9670 0.9670
2587.335308 0.9670 0.9668 0.9663 0.9660 0.9660
2591.673079 0.9656 0.9646 0.9640 0.9640 0.9640
2596.010851 0.9640 0.9640 0.9640 0.9640 0.9640
2600.348622 0.9640 0.9640 0.9640 0.9640 0.9640
2604.686393 0.9640 0.9640 0.9640 0.9640 0.9640
2609.024165 0.9640 0.9640 0.9644 0.9654 0.9662
2613.361936 0.9667 0.9674 0.9684 0.9690 0.9690
2617.699707 0.9690 0.9690 0.9690 0.9690 0.9692
2622.037479 0.9697 0.9700 0.9700 0.9700 0.9700
2626.375250 0.9698 0.9693 0.9690 0.9690 0.9690
2630.713021 0.9690 0.9690 0.9690 0.9690 0.9690
2635.050793 0.9690 0.9690 0.9690 0.9690 0.9690
2639.388564 0.9690 0.9690 0.9690 0.9690 0.9690
2643.726336 0.9690 0.9690 0.9690 0.9690 0.9686
2648.064107 0.9676 0.9670 0.9670 0.9670 0.9670
2652.401878 0.9670 0.9670 0.9670 0.9670 0.9668
2656.739650 0.9663 0.9660 0.9660 0.9660 0.9660
2661.077421 0.9656 0.9646 0.9640 0.9640 0.9640
2665.415192 0.9640 0.9640 0.9640 0.9640 0.9640
2669.752964 0.9640 0.9640 0.9638 0.9633 0.9630
2674.090735 0.9630 0.9630 0.9630 0.9630 0.9630
2678.428506 0.9630 0.9630 0.9630 0.9630 0.9630
2682.766278 0.9630 0.9630 0.9630 0.9628 0.9623
2687.104049 0.9620 0.9620 0.9622 0.9627 0.9630
2691.441821 0.9630 0.9630 0.9630 0.9628 0.9623
2695.779592 0.9620 0.9620 0.9620 0.9620 0.9620
2700.117363 0.9620 0.9615 0.9605 0.9600 0.9600
2704.455135 0.9600 0.9600 0.9598 0.9593 0.9590
2708.792906 0.9590 0.9588 0.9583 0.9575 0.9565
2713.130677 0.9558 0.9553 0.9550 0.9550 0.9550
2717.468449 0.9550 0.9550 0.9550 0.9548 0.9543
2721.806220 0.9540 0.9540 0.9540 0.9540 0.9540
2726.143991 0.9540 0.9540 0.9540 0.9542 0.9547
2730.481763 0.9548 0.9543 0.9540 0.9540 0.9540
2734.819534 0.9540 0.9542 0.9547 0.9550 0.9550
2739.157305 0.9550 0.9550 0.9552 0.9557 0.9565
2743.495077 0.9575 0.9580 0.9580 0.9580 0.9580
2747.832848 0.9580 0.9580 0.9580 0.9580 0.9580
2752.170620 0.9580 0.9580 0.9580 0.9580 0.9580
2756.508391 0.9580 0.9580 0.9580 0.9580 0.9580
2760.846162 0.9580 0.9575 0.9565 0.9560 0.9560
2765.183934 0.9557 0.9552 0.9550 0.9550 0.9550
2769.521705 0.9550 0.9547 0.9542 0.9540 0.9540
2773.859476 0.9540 0.9540 0.9540 0.9540 0.9540
2778.197248 0.9540 0.9540 0.9540 0.9540 0.9540
2782.535019 0.9543 0.9548 0.9550 0.9550 0.9550
2786.872790 0.9550 0.9550 0.9550 0.9550 0.9550
2791.210562 0.9550 0.9550 0.9547 0.9542 0.9535
2795.548333 0.9525 0.9517 0.9512 0.9507 0.9502
2799.886104 0.9495 0.9485 0.9477 0.9472 0.9467
2804.223876 0.9462 0.9455 0.9445 0.9437 0.9432
2808.561647 0.9427 0.9422 0.9412 0.9397 0.9390
2812.899419 0.9390 0.9387 0.9382 0.9380 0.9380
2817.237190 0.9380 0.9380 0.9375 0.9365 0.9360
2821.574961 0.9360 0.9360 0.9360 0.9360 0.9360
2825.912733 0.9360 0.9360 0.9357 0.9352 0.9345
2830.250504 0.9335 0.9325 0.9314 0.9293 0.9263
2834.588275 0.9239 0.9219 0.9207 0.9202 0.9189
2838.926047 0.9169 0.9157 0.9152 0.9139 0.9119
2843.263818 0.9093 0.9063 0.9047 0.9042 0.9032
2847.601589 0.9017 0.9007 0.9002 0.8994 0.8984
2851.939361 0.8966 0.8941 0.8927 0.8922 0.8909
2856.277132 0.8889 0.8829 0.8739 0.8641 0.8536
2860.614904 0.8439 0.8349 0.8248 0.8138 0.7969
2864.952675 0.7754 0.7566 0.7400 0.7289 0.7219
2869.290446 0.7187 0.7182 0.7180 0.7180 0.7192
2873.628218 0.7212 0.7223 0.7228 0.7242 0.7262
2877.965989 0.7279 0.7294 0.7311 0.7331 0.7351
2882.303760 0.7371 0.7383 0.7388 0.7396 0.7406
2886.641532 0.7410 0.7410 0.7398 0.7378 0.7346
2890.979303 0.7306 0.7252 0.7187 0.7119 0.7049
2895.317074 0.7008 0.6988 0.6962 0.6932 0.6888
2899.654846 0.6833 0.6804 0.6794 0.6796 0.6806
2903.992617 0.6867 0.6962 0.7024 0.7064 0.7119
2908.330388 0.7184 0.7258 0.7338 0.7415 0.7490
2912.668160 0.7523 0.7528 0.7545 0.7570 0.7580
2917.005931 0.7580 0.7577 0.7572 0.7548 0.7513
2921.343703 0.7485 0.7460 0.7438 0.7418 0.7379
2925.681474 0.7329 0.7307 0.7302 0.7303 0.7308
2930.019245 0.7331 0.7366 0.7383 0.7388 0.7399
2934.357017 0.7414 0.7423 0.7428 0.7439 0.7454
2938.694788 0.7473 0.7493 0.7531 0.7581 0.7641
2943.032559 0.7706 0.7774 0.7844 0.7901 0.7951
2947.370331 0.8007 0.8067 0.8183 0.8333 0.8399
2951.708102 0.8414 0.8420 0.8420 0.8410 0.8395
2956.045873 0.8390 0.8390 0.8349 0.8284 0.8203
2960.383645 0.8113 0.8032 0.7957 0.7924 0.7914
2964.721416 0.7869 0.7804 0.7767 0.7747 0.7702
2969.059188 0.7642 0.7569 0.7488 0.7405 0.7320
2973.396959 0.7176 0.7002 0.6827 0.6652 0.6503
2977.734730 0.6368 0.6223 0.6073 0.5920 0.5765
2982.072502 0.5613 0.5463 0.5310 0.5155 0.5007
2986.410273 0.4862 0.4709 0.4553 0.4500 0.4500
2990.748044 0.4622 0.4807 0.4995 0.5185 0.5375
2995.085816 0.5565 0.5755 0.5945 0.6132 0.6317
2999.423587 0.6787 0.7407 0.7882 0.8282 0.8495
3003.761358 0.8610 0.8663 0.8683 0.8697 0.8707
3008.099130 0.8720 0.8735 0.8747 0.8757 0.8753
3012.436901 0.8743 0.8740 0.8740 0.8730 0.8715
3016.774672 0.8707 0.8702 0.8677 0.8642 0.8597
3021.112444 0.8547 0.8506 0.8471 0.8422 0.8367
3025.450215 0.8336 0.8316 0.8307 0.8302 0.8293
3029.787987 0.8283 0.8280 0.8280 0.8287 0.8297
3034.125758 0.8303 0.8308 0.8324 0.8344 0.8367
3038.463529 0.8392 0.8434 0.8485 0.8514 0.8534
3042.801301 0.8568 0.8608 0.8648 0.8688 0.8703
3047.139072 0.8708 0.8741 0.8786 0.8828 0.8868
3051.476843 0.8897 0.8922 0.8947 0.8972 0.8990
3055.814615 0.9005 0.9010 0.9010 0.9010 0.9010
3060.152386 0.9014 0.9019 0.9020 0.9020 0.9020
3064.490157 0.9020 0.9016 0.9011 0.9010 0.9010
3068.827929 0.9010 0.9010 0.9014 0.9019 0.9041
3073.165700 0.9071 0.9084 0.9089 0.9090 0.9090
3077.503472 0.9101 0.9116 0.9131 0.9146 0.9171
3081.841243 0.9201 0.9249 0.9304 0.9341 0.9371
3086.179014 0.9380 0.9380 0.9384 0.9389 0.9390
3090.516786 0.9390 0.9394 0.9399 0.9400 0.9400
3094.854557 0.9400 0.9400 0.9396 0.9391 0.9390
3099.192328 0.9390 0.9386 0.9381 0.9373 0.9363
3103.530100 0.9356 0.9351 0.9350 0.9350 0.9350
3107.867871 0.9350 0.9343 0.9333 0.9330 0.9330
3112.205642 0.9330 0.9330 0.9326 0.9321 0.9320
3116.543414 0.9320 0.9316 0.9311 0.9310 0.9310
3120.881185 0.9303 0.9293 0.9286 0.9281 0.9280
3125.218956 0.9280 0.9280 0.9280 0.9276 0.9271
3129.556728 0.9270 0.9270 0.9262 0.9252 0.9250
3133.894499 0.9250 0.9246 0.9241 0.9236 0.9231
3138.232271 0.9230 0.9230 0.9223 0.9213 0.9206
3142.570042 0.9201 0.9196 0.9191 0.9182 0.9172
3146.907813 0.9166 0.9161 0.9156 0.9151 0.9142
3151.245585 0.9132 0.9126 0.9121 0.9120 0.9120
3155.583356 0.9116 0.9111 0.9099 0.9084 0.9069
3159.921127 0.9054 0.9039 0.9023 0.9012 0.9002
3164.258899 0.8992 0.8982 0.8972 0.8962 0.8952
3168.596670 0.8942 0.8940 0.8940 0.8932 0.8922
3172.934441 0.8912 0.8902 0.8896 0.8891 0.8890
3177.272213 0.8890 0.8878 0.8863 0.8852 0.8842
3181.609984 0.8812 0.8777 0.8766 0.8761 0.8748
3185.947755 0.8733 0.8718 0.8703 0.8696 0.8691
3190.285527 0.8678 0.8663 0.8644 0.8624 0.8608
3194.623298 0.8593 0.8582 0.8572 0.8558 0.8543
3198.961070 0.8536 0.8531 0.8522 0.8512 0.8510
3203.298841 0.8510 0.8502 0.8492 0.8478 0.8463
3207.636612 0.8460 0.8460 0.8448 0.8433 0.8418
3211.974384 0.8403 0.8392 0.8382 0.8364 0.8344
3216.312155 0.8328 0.8313 0.8306 0.8301 0.8284
3220.649926 0.8264 0.8244 0.8224 0.8208 0.8193
3224.987698 0.8174 0.8154 0.8146 0.8141 0.8132
3229.325469 0.8122 0.8100 0.8074 0.8041 0.8006
3233.663240 0.7988 0.7973 0.7966 0.7961 0.7944
3238.001012 0.7924 0.7904 0.7884 0.7864 0.7844
3242.338783 0.7824 0.7804 0.7788 0.7773 0.7758
3246.676555 0.7743 0.7736 0.7731 0.7713 0.7693
3251.014326 0.7669 0.7644 0.7623 0.7603 0.7583
3255.352097 0.7563 0.7548 0.7533 0.7518 0.7503
3259.689869 0.7479 0.7454 0.7433 0.7413 0.7385
3264.027640 0.7355 0.7346 0.7341 0.7336 0.7331
3268.365411 0.7313 0.7293 0.7265 0.7235 0.7209
3272.703183 0.7184 0.7167 0.7152 0.7133 0.7113
3277.040954 0.7106 0.7101 0.7083 0.7063 0.7043
3281.378725 0.7023 0.7012 0.7001 0.6996 0.6991
3285.716497 0.6977 0.6962 0.6956 0.6951 0.6937
3290.054268 0.6922 0.6899 0.6874 0.6857 0.6842
3294.392039 0.6810 0.6775 0.6766 0.6761 0.6756
3298.729811 0.6751 0.6737 0.6722 0.6698 0.6673
3303.067582 0.6653 0.6633 0.6617 0.6602 0.6596
3307.405354 0.6591 0.6577 0.6562 0.6560 0.6560
3311.743125 0.6551 0.6541 0.6531 0.6521 0.6507
3316.080896 0.6492 0.6486 0.6481 0.6471 0.6461
3320.418668 0.6442 0.6422 0.6420 0.6420 0.6411
3324.756439 0.6401 0.6382 0.6362 0.6351 0.6341
3329.094210 0.6322 0.6302 0.6291 0.6281 0.6271
3333.431982 0.6261 0.6256 0.6251 0.6241 0.6231
3337.769753 0.6226 0.6221 0.6216 0.6211 0.6201
3342.107524 0.6191 0.6186 0.6181 0.6176 0.6171
3346.445296 0.6161 0.6151 0.6141 0.6131 0.6121
3350.783067 0.6111 0.6101 0.6091 0.6081 0.6071
3355.120839 0.6061 0.6051 0.6050 0.6050 0.6041
3359.458610 0.6031 0.6025 0.6020 0.6015 0.6010
3363.796381 0.6001 0.5991 0.5981 0.5971 0.5957
3368.134153 0.5942 0.5931 0.5921 0.5902 0.5882
3372.471924 0.5875 0.5870 0.5856 0.5841 0.5840
3376.809695 0.5840 0.5831 0.5821 0.5820 0.5820
3381.147467 0.5806 0.5791 0.5790 0.5790 0.5785
3385.485238 0.5780 0.5780 0.5780 0.5771 0.5761
3389.823009 0.5755 0.5750 0.5745 0.5740 0.5731
3394.160781 0.5721 0.5715 0.5710 0.5705 0.5700
3398.498552 0.5691 0.5681 0.5680 0.5680 0.5675
3402.836323 0.5670 0.5665 0.5660 0.5660 0.5660
3407.174095 0.5651 0.5641 0.5640 0.5640 0.5640
3411.511866 0.5640 0.5640 0.5640 0.5649 0.5659
3415.849638 0.5660 0.5660 0.5660 0.5660 0.5665
3420.187409 0.5670 0.5675 0.5680 0.5690 0.5700
3424.525180 0.5705 0.5710 0.5715 0.5720 0.5729
3428.862952 0.5739 0.5749 0.5759 0.5774 0.5789
3433.200723 0.5804 0.5819 0.5829 0.5839 0.5849
3437.538494 0.5859 0.5865 0.5870 0.5875 0.5880
3441.876266 0.5890 0.5900 0.5905 0.5910 0.5924
3446.214037 0.5939 0.5954 0.5969 0.5989 0.6009
3450.551808 0.6039 0.6069 0.6089 0.6109 0.6124
3454.889580 0.6139 0.6154 0.6170 0.6194 0.6219
3459.227351 0.6249 0.6279 0.6299 0.6319 0.6344
3463.565122 0.6369 0.6394 0.6419 0.6435 0.6450
3467.902894 0.6465 0.6480 0.6499 0.6519 0.6559
3472.240665 0.6599 0.6634 0.6669 0.6690 0.6710
3476.578437 0.6735 0.6760 0.6785 0.6810 0.6830
3480.916208 0.6850 0.6924 0.6999 0.7029 0.7059
3485.253979 0.7080 0.7100 0.7105 0.7110 0.7144
3489.591751 0.7179 0.7219 0.7260 0.7305 0.7350
3493.929522 0.7370 0.7390 0.7405 0.7420 0.7435
3498.267293 0.7450 0.7475 0.7500 0.7540 0.7580
3502.605065 0.7610 0.7640 0.7670 0.7700 0.7710
3506.942836 0.7720 0.7745 0.7770 0.7800 0.7830
3511.280607 0.7850 0.7870 0.7895 0.7920 0.7940
3515.618379 0.7960 0.7960 0.7960 0.7980 0.8000
3519.956150 0.8025 0.8050 0.8080 0.8110 0.8110
3524.293922 0.8110 0.8125 0.8140 0.8150 0.8160
3528.631693 0.8175 0.8190 0.8190 0.8190 0.8205
3532.969464 0.8220 0.8225 0.8230 0.8235 0.8240
3537.307236 0.8250 0.8260 0.8270 0.8280 0.8295
3541.645007 0.8310 0.8315 0.8320 0.8330 0.8340
3545.982778 0.8340 0.8340 0.8345 0.8350 0.8365
3550.320550 0.8380 0.8390 0.8400 0.8415 0.8430
3554.658321 0.8440 0.8450 0.8450 0.8450 0.8470
3558.996092 0.8490 0.8500 0.8511 0.8526 0.8540
3563.333864 0.8540 0.8540 0.8545 0.8550 0.8550
3567.671635 0.8550 0.8550 0.8550 0.8550 0.8550
3572.009406 0.8545 0.8540 0.8535 0.8530 0.8530
3576.347178 0.8529 0.8514 0.8499 0.8484 0.8468
3580.684949 0.8433 0.8398 0.8358 0.8318 0.8288
3585.022721 0.8257 0.8202 0.8147 0.8092 0.8036
3589.360492 0.7956 0.7877 0.7822 0.7768 0.7733
3593.698263 0.7697 0.7637 0.7568 0.7383 0.7202
3598.036035 0.7088 0.6973 0.6858 0.6744 0.6654
3602.373806 0.6560 0.6400 0.6240 0.6085 0.5930
3606.711577 0.5776 0.5621 0.5466 0.5311 0.5156
3611.049349 0.5001 0.4844 0.4688 0.4538 0.4400
3615.387120 0.4400 0.4419 0.4669 0.4909 0.5024
3619.724891 0.5220 0.6424 0.7566 0.7916 0.8251
3624.062663 0.8401 0.8543 0.8583 0.8624 0.8684
3628.400434 0.8752 0.8924 0.9090 0.9205 0.9312
3632.738206 0.9337 0.9364 0.9404 0.9441 0.9456
3637.075977 0.9473 0.9508 0.9541 0.9551 0.9561
3641.413748 0.9576 0.9590 0.9590 0.9590 0.9595
3645.751520 0.9601 0.9611 0.9620 0.9620 0.9620
3650.089291 0.9620 0.9620 0.9626 0.9630 0.9630
3654.427062 0.9630 0.9630 0.9630 0.9635 0.9640
3658.764834 0.9640 0.9641 0.9651 0.9660 0.9660
3663.102605 0.9660 0.9666 0.9670 0.9670 0.9670
3667.440376 0.9670 0.9670 0.9670 0.9671 0.9681
3671.778148 0.9690 0.9690 0.9690 0.9690 0.9690
3676.115919 0.9690 0.9690 0.9690 0.9690 0.9690
3680.453690 0.9691 0.9696 0.9700 0.9700 0.9700
3684.791462 0.9700 0.9700 0.9700 0.9701 0.9706
3689.129233 0.9710 0.9710 0.9710 0.9710 0.9711
3693.467005 0.9721 0.9730 0.9730 0.9730 0.9730
3697.804776 0.9730 0.9730 0.9730 0.9730 0.9730
3702.142547 0.9730 0.9730 0.9730 0.9730 0.9730
3706.480319 0.9729 0.9719 0.9710 0.9710 0.9710
3710.818090 0.9710 0.9710 0.9710 0.9710 0.9710
3715.155861 0.9710 0.9710 0.9710 0.9710 0.9710
3719.493633 0.9710 0.9711 0.9721 0.9731 0.9736
3723.831404 0.9740 0.9740 0.9740 0.9740 0.9740
3728.169175 0.9740 0.9740 0.9740 0.9740 0.9740
3732.506947 0.9740 0.9740 0.9739 0.9734 0.9730
3736.844718 0.9730 0.9730 0.9730 0.9730 0.9730
3741.182490 0.9730 0.9730 0.9728 0.9718 0.9710
3745.520261 0.9710 0.9710 0.9710 0.9710 0.9710
3749.858032 0.9710 0.9710 0.9710 0.9710 0.9710
3754.195804 0.9710 0.9709 0.9704 0.9700 0.9700
3758.533575 0.9700 0.9700 0.9700 0.9700 0.9700
3762.871346 0.9700 0.9700 0.9700 0.9700 0.9700
3767.209118 0.9700 0.9700 0.9700 0.9700 0.9699
3771.546889 0.9694 0.9690 0.9690 0.9690 0.9690
3775.884660 0.9690 0.9690 0.9690 0.9690 0.9690
3780.222432 0.9690 0.9690 0.9690 0.9690 0.9690
3784.560203 0.9690 0.9690 0.9690 0.9690 0.9691
3788.897974 0.9696 0.9700 0.9700 0.9700 0.9700
3793.235746 0.9700 0.9700 0.9700 0.9700 0.9700
3797.573517 0.9700
##END=
