##TITLE=DIBENZYL MALEATE
##JCAMP-DX=4.24
##DATA TYPE=INFRARED SPECTRUM
##CLASS=COBLENTZ
##ORIGIN=DOW CHEMICAL COMPANY
##OWNER=COBLENTZ SOCIETY
Collection (C) 2018 copyright by the U.S. Secretary of Commerce
on behalf of the United States of America. All rights reserved.
##DATE=Not specified, most likely prior to 1970
##NAMES=dibenzyl (2Z)-2-butenedioate
##CAS REGISTRY NO=622-06-0
##MOLFORM=C18 H16 O4
##SOURCE REFERENCE=COBLENTZ NO. 93
##$NIST SOURCE=COBLENTZ
##$NIST IMAGE=cob93
##SPECTROMETER/DATA SYSTEM=Not specified, most likely a prism, grating, or hybrid spectrometer.
##STATE=SOLUTION (10% CCl4 FOR 2.5-7.5, 10% CS2 FOR 7.5-16 MICRON)
##PATH LENGTH=0.010 CM, 0.010 CM
##SAMPLING PROCEDURE=TRANSMISSION
##RESOLUTION=4
##DATA PROCESSING=DIGITIZED BY NIST FROM HARD COPY
##XUNITS=MICROMETERS
##YUNITS=TRANSMITTANCE
##XFACTOR=1.000000
##YFACTOR=1
##DELTAX=000.007149
##FIRSTX=2.048
##LASTX=15.9022
##FIRSTY=0.877
##MAXX=15.9022
##MINX=2.048
##MAXY=0.88
##MINY=0.014
##NPOINTS=1939
##XYDATA=(X++(Y..Y))
2.048000 0.8770 0.8770 0.8770 0.8750 0.8750
2.083761 0.8750 0.8730 0.8730 0.8720 0.8700
2.120000 0.8680 0.8660 0.8660 0.8660 0.8650
2.155761 0.8650 0.8660 0.8680 0.8680 0.8680
2.191000 0.8660 0.8660 0.8660 0.8650 0.8650
2.226761 0.8630 0.8630 0.8610 0.8610 0.8610
2.263000 0.8590 0.8590 0.8590 0.8590 0.8590
2.298761 0.8590 0.8590 0.8570 0.8590 0.8590
2.334000 0.8590 0.8590 0.8610 0.8610 0.8610
2.369761 0.8630 0.8610 0.8610 0.8610 0.8610
2.406000 0.8590 0.8590 0.8570 0.8570 0.8560
2.441761 0.8570 0.8570 0.8590 0.8590 0.8610
2.477000 0.8630 0.8650 0.8660 0.8680 0.8700
2.512761 0.8700 0.8720 0.8720 0.8730 0.8750
2.549000 0.8770 0.8770 0.8750 0.8750 0.8730
2.584761 0.8720 0.8720 0.8720 0.8680 0.8680
2.620000 0.8660 0.8680 0.8700 0.8700 0.8750
2.655761 0.8800 0.8800 0.8770 0.8770 0.8750
2.692000 0.8750 0.8730 0.8720 0.8700 0.8680
2.727761 0.8680 0.8680 0.8680 0.8660 0.8680
2.763000 0.8680 0.8660 0.8660 0.8660 0.8650
2.798761 0.8650 0.8650 0.8650 0.8630 0.8630
2.835000 0.8610 0.8610 0.8590 0.8540 0.8500
2.870761 0.8500 0.8470 0.8450 0.8410 0.8430
2.906000 0.8450 0.8490 0.8520 0.8570 0.8590
2.941761 0.8590 0.8610 0.8610 0.8630 0.8630
2.978000 0.8630 0.8630 0.8630 0.8630 0.8630
3.013761 0.8630 0.8630 0.8630 0.8630 0.8630
3.049000 0.8630 0.8630 0.8630 0.8610 0.8590
3.084761 0.8590 0.8570 0.8560 0.8560 0.8560
3.121000 0.8540 0.8540 0.8520 0.8490 0.8450
3.156761 0.8410 0.8360 0.8270 0.8170 0.7990
3.192000 0.7770 0.7650 0.7420 0.7240 0.7030
3.227761 0.6870 0.6710 0.6530 0.6340 0.6280
3.264000 0.6250 0.6280 0.6710 0.6890 0.7210
3.299761 0.7460 0.7830 0.7920 0.7700 0.7560
3.335000 0.7470 0.7460 0.7350 0.6830 0.6830
3.370761 0.7170 0.7260 0.7330 0.7600 0.7860
3.407000 0.8220 0.8220 0.8150 0.8150 0.7930
3.442761 0.7930 0.8290 0.8430 0.8560 0.8570
3.478000 0.8590 0.8570 0.8570 0.8570 0.8570
3.513761 0.8570 0.8570 0.8590 0.8610 0.8610
3.550000 0.8630 0.8660 0.8660 0.8680 0.8700
3.585761 0.8700 0.8680 0.8680 0.8680 0.8680
3.621000 0.8680 0.8680 0.8680 0.8680 0.8680
3.656761 0.8700 0.8680 0.8700 0.8680 0.8680
3.693000 0.8700 0.8680 0.8680 0.8660 0.8650
3.728761 0.8630 0.8630 0.8630 0.8630 0.8630
3.764000 0.8630 0.8630 0.8630 0.8650 0.8650
3.799761 0.8650 0.8650 0.8650 0.8650 0.8650
3.836000 0.8650 0.8650 0.8650 0.8660 0.8660
3.871761 0.8660 0.8660 0.8660 0.8660 0.8660
3.907000 0.8660 0.8660 0.8680 0.8680 0.8680
3.942761 0.8700 0.8700 0.8700 0.8700 0.8700
3.979000 0.8720 0.8700 0.8650 0.8630 0.8610
4.014761 0.8610 0.8610 0.8610 0.8610 0.8610
4.050000 0.8610 0.8590 0.8590 0.8590 0.8590
4.085761 0.8590 0.8590 0.8590 0.8610 0.8610
4.122000 0.8610 0.8610 0.8630 0.8630 0.8630
4.157761 0.8630 0.8630 0.8630 0.8610 0.8610
4.193000 0.8590 0.8590 0.8570 0.8570 0.8560
4.228761 0.8560 0.8560 0.8560 0.8560 0.8560
4.264000 0.8570 0.8570 0.8570 0.8570 0.8590
4.299761 0.8610 0.8610 0.8630 0.8630 0.8630
4.336000 0.8630 0.8630 0.8650 0.8630 0.8630
4.371761 0.8630 0.8630 0.8630 0.8630 0.8630
4.407000 0.8630 0.8610 0.8610 0.8610 0.8610
4.442761 0.8610 0.8590 0.8610 0.8630 0.8610
4.479000 0.8610 0.8630 0.8610 0.8610 0.8610
4.514761 0.8610 0.8610 0.8610 0.8610 0.8610
4.550000 0.8610 0.8610 0.8610 0.8610 0.8610
4.585761 0.8610 0.8610 0.8610 0.8610 0.8610
4.622000 0.8610 0.8610 0.8610 0.8610 0.8610
4.657761 0.8610 0.8610 0.8610 0.8610 0.8610
4.693000 0.8610 0.8610 0.8610 0.8610 0.8610
4.728761 0.8610 0.8610 0.8610 0.8610 0.8610
4.765000 0.8610 0.8610 0.8610 0.8610 0.8610
4.800761 0.8610 0.8610 0.8610 0.8610 0.8610
4.836000 0.8610 0.8610 0.8610 0.8610 0.8610
4.871761 0.8610 0.8610 0.8610 0.8610 0.8610
4.908000 0.8610 0.8610 0.8630 0.8610 0.8610
4.943761 0.8610 0.8610 0.8590 0.8590 0.8590
4.979000 0.8570 0.8570 0.8520 0.8490 0.8430
5.014761 0.8410 0.8360 0.8310 0.8270 0.8240
5.051000 0.8220 0.8200 0.8180 0.8170 0.8150
5.086761 0.8040 0.8040 0.8020 0.8020 0.8040
5.122000 0.8200 0.8270 0.8330 0.8340 0.8360
5.157761 0.8380 0.8380 0.8380 0.8380 0.8360
5.194000 0.8360 0.8340 0.8330 0.8290 0.8270
5.229761 0.8240 0.8220 0.8200 0.8180 0.8170
5.265000 0.8170 0.8150 0.8150 0.8130 0.8150
5.300761 0.8170 0.8170 0.8180 0.8200 0.8200
5.337000 0.8220 0.8240 0.8240 0.8240 0.8250
5.372761 0.8250 0.8250 0.8250 0.8250 0.8250
5.408000 0.8220 0.8180 0.8150 0.8080 0.8040
5.443761 0.7990 0.7920 0.7830 0.7760 0.7670
5.480000 0.7600 0.7540 0.7490 0.7440 0.7400
5.515761 0.7380 0.7350 0.7330 0.7310 0.7280
5.551000 0.7260 0.7210 0.7170 0.7080 0.7050
5.586761 0.6940 0.6800 0.6620 0.6320 0.6110
5.623000 0.5800 0.5570 0.5390 0.5090 0.4440
5.658761 0.3920 0.3530 0.2960 0.2530 0.2220
5.694000 0.1810 0.1380 0.0550 0.0350 0.0260
5.729761 0.0260 0.0260 0.0260 0.0260 0.0260
5.766000 0.0260 0.0280 0.0460 0.0630 0.0710
5.801761 0.1040 0.1450 0.1840 0.2620 0.3440
5.837000 0.4420 0.4830 0.4930 0.5380 0.5700
5.872761 0.6050 0.6190 0.6300 0.6440 0.6530
5.909000 0.6660 0.6670 0.6740 0.6780 0.6900
5.944761 0.6940 0.6980 0.7030 0.7030 0.6900
5.980000 0.6850 0.6780 0.6500 0.6090 0.6000
6.015761 0.5770 0.5590 0.5360 0.5060 0.4880
6.052000 0.4680 0.4490 0.4490 0.4680 0.5060
6.087761 0.5340 0.5470 0.5950 0.5960 0.6230
6.123000 0.6420 0.6620 0.6690 0.6830 0.6960
6.158761 0.7060 0.7220 0.7330 0.7400 0.7530
6.195000 0.7650 0.7720 0.7810 0.7860 0.7950
6.230761 0.7950 0.7930 0.7930 0.7760 0.7760
6.266000 0.7830 0.7850 0.7950 0.8010 0.8060
6.301761 0.8110 0.8180 0.8240 0.8270 0.8340
6.338000 0.8400 0.8450 0.8470 0.8500 0.8520
6.373761 0.8520 0.8540 0.8540 0.8560 0.8560
6.409000 0.8570 0.8570 0.8590 0.8590 0.8570
6.444761 0.8570 0.8570 0.8560 0.8560 0.8540
6.481000 0.8540 0.8500 0.8490 0.8450 0.8450
6.516761 0.8410 0.8400 0.8380 0.8340 0.8330
6.552000 0.8310 0.8290 0.8240 0.8200 0.8150
6.587761 0.8040 0.7990 0.7930 0.7790 0.7170
6.624000 0.6940 0.6740 0.6390 0.6280 0.6120
6.659761 0.5860 0.5800 0.5700 0.5700 0.6440
6.695000 0.6710 0.7220 0.7460 0.7580 0.7740
6.730761 0.7880 0.7930 0.7930 0.7690 0.7530
6.766000 0.7300 0.6960 0.6800 0.6480 0.6260
6.801761 0.5910 0.5220 0.4700 0.4520 0.4420
6.838000 0.4400 0.4420 0.4440 0.4510 0.4700
6.873761 0.5060 0.5500 0.5800 0.6120 0.6500
6.909000 0.6660 0.6890 0.7080 0.7190 0.7240
6.944761 0.7310 0.7380 0.7380 0.7400 0.7420
6.981000 0.7420 0.7380 0.7310 0.7240 0.7170
7.016761 0.6940 0.6580 0.6300 0.6070 0.5570
7.052000 0.5230 0.4860 0.4770 0.4580 0.3620
7.087761 0.3140 0.2930 0.2710 0.2570 0.2320
7.124000 0.2000 0.2000 0.2930 0.3320 0.3990
7.159761 0.4360 0.5040 0.5180 0.5360 0.5480
7.195000 0.5500 0.5610 0.5660 0.5660 0.5410
7.230761 0.5290 0.5090 0.5060 0.4970 0.4880
7.267000 0.4790 0.4700 0.4520 0.4450 0.4330
7.302761 0.3970 0.3920 0.3920 0.4290 0.4380
7.338000 0.4760 0.5230 0.5480 0.6070 0.6300
7.373761 0.6510 0.6640 0.6710 0.6900 0.6920
7.410000 0.7210 0.7400 0.7440 0.7440 0.7380
7.445761 0.7370 0.7300 0.7220 0.7140 0.6960
7.481000 0.6920 0.6850 0.6740 0.6690 0.6640
7.516761 0.6580 0.6530 0.6510 0.6440 0.6390
7.553000 0.6300 0.6250 0.6120 0.6020 0.5960
7.588761 0.5800 0.5680 0.5570 0.5450 0.5270
7.624000 0.5160 0.4990 0.4760 0.4470 0.4200
7.659761 0.4030 0.3800 0.3510 0.3300 0.3100
7.696000 0.2870 0.2460 0.2160 0.1810 0.1450
7.731761 0.1270 0.1110 0.1040 0.1010 0.0970
7.767000 0.0950 0.0970 0.1010 0.1170 0.1270
7.802761 0.1400 0.1500 0.1580 0.1720 0.1750
7.839000 0.1810 0.1770 0.1770 0.1750 0.1720
7.874761 0.1590 0.1500 0.1450 0.1360 0.1310
7.910000 0.1290 0.1260 0.1170 0.1130 0.1110
7.945761 0.1100 0.1100 0.1080 0.1060 0.1060
7.982000 0.1060 0.1060 0.1080 0.1100 0.1100
8.017761 0.1110 0.1150 0.1170 0.1190 0.1200
8.053000 0.1200 0.1200 0.1200 0.1200 0.1190
8.088761 0.1170 0.1110 0.1060 0.1030 0.0970
8.125000 0.0950 0.0920 0.0900 0.0870 0.0830
8.160761 0.0790 0.0760 0.0740 0.0670 0.0650
8.196000 0.0620 0.0600 0.0560 0.0510 0.0490
8.231761 0.0460 0.0440 0.0420 0.0420 0.0420
8.268000 0.0420 0.0440 0.0460 0.0470 0.0470
8.303761 0.0490 0.0490 0.0510 0.0530 0.0580
8.339000 0.0630 0.0710 0.0790 0.0850 0.0920
8.374761 0.1010 0.1100 0.1200 0.1290 0.1360
8.411000 0.1420 0.1500 0.1560 0.1590 0.1630
8.446761 0.1660 0.1650 0.1630 0.1610 0.1590
8.482000 0.1540 0.1520 0.1490 0.1430 0.1380
8.517761 0.1310 0.1270 0.1150 0.1060 0.1010
8.554000 0.0950 0.0830 0.0740 0.0600 0.0510
8.589761 0.0370 0.0260 0.0240 0.0190 0.0150
8.625000 0.0150 0.0150 0.0140 0.0150 0.0150
8.660761 0.0150 0.0170 0.0190 0.0210 0.0240
8.697000 0.0310 0.0370 0.0740 0.1060 0.1270
8.732761 0.1520 0.1930 0.2300 0.2570 0.2730
8.768000 0.2930 0.3320 0.3550 0.3690 0.3970
8.803761 0.4100 0.4490 0.4650 0.4930 0.5020
8.840000 0.5160 0.5230 0.5380 0.5500 0.5630
8.875761 0.5750 0.5820 0.5950 0.5960 0.6030
8.911000 0.6140 0.6260 0.6350 0.6480 0.6620
8.946761 0.6690 0.6760 0.6850 0.6920 0.6920
8.983000 0.6940 0.6960 0.6980 0.6990 0.7030
9.018761 0.7050 0.7060 0.7080 0.7080 0.7100
9.054000 0.7120 0.7140 0.7150 0.7170 0.7210
9.089761 0.7240 0.7280 0.7310 0.7350 0.7380
9.125000 0.7420 0.7470 0.7490 0.7530 0.7530
9.160761 0.7540 0.7530 0.7530 0.7530 0.7530
9.197000 0.7470 0.7440 0.7380 0.7310 0.7240
9.232761 0.7120 0.7050 0.6980 0.6900 0.6890
9.268000 0.6850 0.6890 0.6920 0.6960 0.7010
9.303761 0.7100 0.7150 0.7210 0.7260 0.7310
9.340000 0.7380 0.7440 0.7510 0.7540 0.7600
9.375761 0.7650 0.7670 0.7700 0.7720 0.7740
9.411000 0.7740 0.7760 0.7760 0.7760 0.7760
9.446761 0.7770 0.7770 0.7770 0.7760 0.7760
9.483000 0.7760 0.7760 0.7760 0.7740 0.7720
9.518761 0.7700 0.7670 0.7650 0.7610 0.7540
9.554000 0.7470 0.7420 0.7370 0.7300 0.7210
9.589761 0.7150 0.7080 0.7010 0.6960 0.6850
9.626000 0.6820 0.6730 0.6660 0.6570 0.6460
9.661761 0.6350 0.6280 0.6140 0.6030 0.5960
9.697000 0.5840 0.5790 0.5750 0.5710 0.5700
9.732761 0.5660 0.5640 0.5590 0.5540 0.5480
9.769000 0.5430 0.5380 0.5310 0.5200 0.5110
9.804761 0.5000 0.4920 0.4720 0.4650 0.4580
9.840000 0.4490 0.4290 0.4130 0.4010 0.3960
9.875761 0.3780 0.3650 0.3530 0.3410 0.3370
9.912000 0.3230 0.3160 0.3010 0.2930 0.2820
9.947761 0.2710 0.2620 0.2530 0.2430 0.2410
9.983000 0.2410 0.2390 0.2380 0.2390 0.2410
10.018761 0.2430 0.2520 0.2550 0.2610 0.2620
10.055000 0.2680 0.2690 0.2730 0.2770 0.2780
10.090761 0.2800 0.2800 0.2840 0.2840 0.2850
10.126000 0.2850 0.2850 0.2870 0.2890 0.2890
10.161761 0.2870 0.2870 0.2870 0.2840 0.2820
10.198000 0.2780 0.2730 0.2710 0.2690 0.2690
10.233761 0.2680 0.2680 0.2690 0.2690 0.2690
10.269000 0.2710 0.2750 0.2800 0.2820 0.2850
10.304761 0.2870 0.2930 0.2940 0.2980 0.3010
10.341000 0.3030 0.3050 0.3070 0.3100 0.3120
10.376761 0.3120 0.3140 0.3170 0.3230 0.3260
10.412000 0.3320 0.3480 0.3580 0.3620 0.3710
10.447761 0.3830 0.3970 0.4080 0.4200 0.4310
10.484000 0.4440 0.4490 0.4580 0.4680 0.5020
10.519761 0.5200 0.5320 0.5430 0.5570 0.5610
10.555000 0.5680 0.5750 0.5800 0.5840 0.5950
10.590761 0.5950 0.6000 0.6020 0.6070 0.6120
10.627000 0.6140 0.6160 0.6210 0.6230 0.6260
10.662761 0.6280 0.6300 0.6320 0.6340 0.6350
10.698000 0.6390 0.6410 0.6420 0.6440 0.6460
10.733761 0.6460 0.6480 0.6500 0.6500 0.6510
10.770000 0.6510 0.6530 0.6530 0.6530 0.6530
10.805761 0.6530 0.6530 0.6550 0.6550 0.6530
10.841000 0.6530 0.6530 0.6530 0.6510 0.6500
10.876761 0.6460 0.6440 0.6390 0.6340 0.6300
10.913000 0.6230 0.6190 0.6110 0.6090 0.6030
10.948761 0.6000 0.6000 0.6000 0.5980 0.5960
10.984000 0.5960 0.5950 0.5930 0.5910 0.5890
11.019761 0.5870 0.5860 0.5840 0.5820 0.5800
11.056000 0.5790 0.5770 0.5750 0.5730 0.5730
11.091761 0.5750 0.5820 0.5890 0.5950 0.6030
11.127000 0.6090 0.6180 0.6230 0.6280 0.6390
11.162761 0.6420 0.6480 0.6550 0.6600 0.6640
11.199000 0.6690 0.6740 0.6760 0.6780 0.6820
11.234761 0.6870 0.6890 0.6900 0.6920 0.6960
11.270000 0.6960 0.6980 0.6990 0.7010 0.7010
11.305761 0.7030 0.7030 0.7050 0.7050 0.7050
11.342000 0.7060 0.7060 0.7060 0.7060 0.7080
11.377761 0.7060 0.7060 0.7080 0.7060 0.7060
11.413000 0.7060 0.7060 0.7060 0.7060 0.7060
11.448761 0.7060 0.7060 0.7060 0.7060 0.7060
11.485000 0.7060 0.7050 0.7050 0.7050 0.7030
11.520761 0.7050 0.7030 0.7030 0.7030 0.7030
11.556000 0.7010 0.6990 0.6980 0.6960 0.6940
11.591761 0.6920 0.6920 0.6920 0.6920 0.6920
11.627000 0.6920 0.6920 0.6920 0.6960 0.6960
11.662761 0.6960 0.6980 0.6980 0.6980 0.6980
11.699000 0.6980 0.6980 0.6980 0.6980 0.6980
11.734761 0.6960 0.6960 0.6940 0.6940 0.6920
11.770000 0.6900 0.6890 0.6870 0.6830 0.6800
11.805761 0.6760 0.6730 0.6710 0.6640 0.6600
11.842000 0.6570 0.6530 0.6480 0.6460 0.6440
11.877761 0.6410 0.6370 0.6350 0.6300 0.6260
11.913000 0.6250 0.6210 0.6180 0.6090 0.6050
11.948761 0.6020 0.6000 0.5980 0.5950 0.5910
11.985000 0.5870 0.5800 0.5750 0.5710 0.5680
12.020761 0.5630 0.5590 0.5570 0.5540 0.5480
12.056000 0.5450 0.5410 0.5390 0.5380 0.5360
12.091761 0.5320 0.5310 0.5290 0.5270 0.5250
12.128000 0.5250 0.5230 0.5220 0.5180 0.5180
12.163761 0.5160 0.5160 0.5150 0.5130 0.5070
12.199000 0.5060 0.5020 0.5000 0.4970 0.4950
12.234761 0.4900 0.4840 0.4790 0.4720 0.4680
12.271000 0.4650 0.4580 0.4540 0.4440 0.4400
12.306761 0.4310 0.4280 0.4220 0.4190 0.4150
12.342000 0.4120 0.4100 0.4080 0.4080 0.4100
12.377761 0.4120 0.4170 0.4200 0.4290 0.4440
12.414000 0.4520 0.4630 0.4720 0.4810 0.4860
12.449761 0.4970 0.5040 0.5160 0.5270 0.5340
12.485000 0.5430 0.5480 0.5630 0.5700 0.5820
12.520761 0.5960 0.6000 0.6070 0.6190 0.6230
12.557000 0.6280 0.6410 0.6460 0.6510 0.6570
12.592761 0.6620 0.6690 0.6710 0.6800 0.6850
12.628000 0.6870 0.6940 0.6990 0.7030 0.7060
12.663761 0.7140 0.7170 0.7220 0.7260 0.7300
12.700000 0.7310 0.7350 0.7380 0.7420 0.7440
12.735761 0.7460 0.7470 0.7470 0.7490 0.7510
12.771000 0.7530 0.7530 0.7530 0.7530 0.7530
12.806761 0.7530 0.7530 0.7530 0.7530 0.7510
12.843000 0.7510 0.7510 0.7490 0.7490 0.7490
12.878761 0.7490 0.7470 0.7470 0.7460 0.7420
12.914000 0.7400 0.7370 0.7330 0.7300 0.7280
12.949761 0.7260 0.7240 0.7220 0.7190 0.7190
12.986000 0.7170 0.7140 0.7120 0.7120 0.7100
13.021761 0.7100 0.7080 0.7050 0.7010 0.6960
13.057000 0.6960 0.6850 0.6800 0.6740 0.6660
13.092761 0.6600 0.6570 0.6510 0.6440 0.6390
13.129000 0.6340 0.6210 0.6160 0.6050 0.5910
13.164761 0.5680 0.5430 0.5310 0.5060 0.4880
13.200000 0.4540 0.4420 0.4280 0.4040 0.3990
13.235761 0.3870 0.3760 0.3620 0.3510 0.3230
13.272000 0.3030 0.2910 0.2800 0.2680 0.2520
13.307761 0.2430 0.2340 0.2230 0.2160 0.2110
13.343000 0.2040 0.2000 0.2000 0.1980 0.1930
13.378761 0.1910 0.1900 0.1880 0.1900 0.1910
13.415000 0.1910 0.1950 0.1970 0.1980 0.2070
13.450761 0.2160 0.2220 0.2250 0.2290 0.2300
13.486000 0.2360 0.2380 0.2390 0.2410 0.2430
13.521761 0.2430 0.2450 0.2430 0.2430 0.2430
13.558000 0.2430 0.2410 0.2390 0.2380 0.2340
13.593761 0.2320 0.2300 0.2290 0.2270 0.2250
13.629000 0.2250 0.2230 0.2230 0.2220 0.2230
13.664761 0.2250 0.2270 0.2300 0.2380 0.2450
13.701000 0.2480 0.2570 0.2610 0.2690 0.2770
13.736761 0.2850 0.2910 0.2980 0.3010 0.3140
13.772000 0.3210 0.3280 0.3370 0.3460 0.3550
13.807761 0.3640 0.3760 0.3870 0.3990 0.4100
13.844000 0.4190 0.4260 0.4350 0.4420 0.4510
13.879761 0.4630 0.4720 0.4790 0.4840 0.4920
13.915000 0.4990 0.5020 0.5090 0.5160 0.5220
13.950761 0.5270 0.5310 0.5340 0.5390 0.5430
13.986000 0.5470 0.5500 0.5540 0.5590 0.5610
14.021761 0.5630 0.5630 0.5640 0.5640 0.5640
14.058000 0.5640 0.5640 0.5640 0.5640 0.5640
14.093761 0.5640 0.5630 0.5550 0.5520 0.5430
14.129000 0.5290 0.5160 0.5070 0.5000 0.4830
14.164761 0.4720 0.4560 0.4240 0.4170 0.4040
14.201000 0.3940 0.3810 0.3690 0.3480 0.3330
14.236761 0.3170 0.3100 0.3010 0.2910 0.2770
14.272000 0.2550 0.2410 0.2250 0.2070 0.2020
14.307761 0.1950 0.1740 0.1540 0.1310 0.1150
14.344000 0.1060 0.1010 0.0950 0.0920 0.0900
14.379761 0.0850 0.0850 0.0900 0.1080 0.1720
14.415000 0.1790 0.1950 0.2320 0.2530 0.2710
14.450761 0.2870 0.2980 0.3230 0.3420 0.3550
14.487000 0.3810 0.3970 0.4330 0.4420 0.4950
14.522761 0.5200 0.5410 0.5540 0.5820 0.5980
14.558000 0.6070 0.6160 0.6260 0.6350 0.6440
14.593761 0.6510 0.6600 0.6660 0.6710 0.6760
14.630000 0.6800 0.6830 0.6850 0.6900 0.6940
14.665761 0.6980 0.7010 0.7030 0.7030 0.7050
14.701000 0.7060 0.7080 0.7080 0.7080 0.7120
14.736761 0.7140 0.7150 0.7170 0.7210 0.7220
14.773000 0.7260 0.7280 0.7310 0.7350 0.7380
14.808761 0.7420 0.7440 0.7470 0.7510 0.7560
14.844000 0.7560 0.7630 0.7670 0.7690 0.7720
14.879761 0.7740 0.7740 0.7760 0.7790 0.7810
14.916000 0.7850 0.7860 0.7900 0.7930 0.7950
14.951761 0.7970 0.7990 0.8010 0.8020 0.8040
14.987000 0.8040 0.8080 0.8130 0.8170 0.8180
15.022761 0.8220 0.8220 0.8240 0.8250 0.8250
15.059000 0.8270 0.8290 0.8290 0.8310 0.8310
15.094761 0.8310 0.8330 0.8330 0.8330 0.8330
15.130000 0.8330 0.8330 0.8330 0.8340 0.8340
15.165761 0.8340 0.8340 0.8340 0.8340 0.8340
15.202000 0.8340 0.8340 0.8340 0.8340 0.8340
15.237761 0.8340 0.8340 0.8340 0.8340 0.8340
15.273000 0.8340 0.8330 0.8330 0.8330 0.8330
15.308761 0.8330 0.8330 0.8340 0.8340 0.8340
15.345000 0.8360 0.8360 0.8360 0.8380 0.8380
15.380761 0.8380 0.8400 0.8400 0.8400 0.8400
15.416000 0.8400 0.8400 0.8400 0.8400 0.8400
15.451761 0.8400 0.8400 0.8400 0.8400 0.8380
15.488000 0.8380 0.8380 0.8380 0.8380 0.8380
15.523761 0.8380 0.8360 0.8360 0.8360 0.8360
15.559000 0.8360 0.8360 0.8360 0.8360 0.8360
15.594761 0.8360 0.8360 0.8360 0.8360 0.8340
15.631000 0.8340 0.8340 0.8340 0.8340 0.8340
15.666761 0.8340 0.8340 0.8340 0.8340 0.8340
15.702000 0.8340 0.8340 0.8340 0.8340 0.8340
15.737761 0.8340 0.8340 0.8340 0.8340 0.8340
15.774000 0.8340 0.8340 0.8340 0.8330 0.8330
15.809761 0.8330 0.8310 0.8310 0.8310 0.8310
15.845000 0.8310 0.8310 0.8310 0.8310 0.8310
15.880761 0.8310 0.8310 0.8310 0.8330
##END=
