##TITLE=1,5-DIPHENYL-3-THIOCARBOHYDRAZIDE
##JCAMP-DX=4.24
##DATA TYPE=INFRARED SPECTRUM
##CLASS=COBLENTZ
##ORIGIN=WYANDOTTE CHEMICALS CORP., WYANDOTTE, MICHIGAN, USA
##OWNER=COBLENTZ SOCIETY
Collection (C) 2018 copyright by the U.S. Secretary of Commerce
on behalf of the United States of America. All rights reserved.
##DATE=Not specified, most likely prior to 1970
##NAMES=N'',N'''-diphenylthiocarbonohydrazide
##CAS REGISTRY NO=622-03-7
##MOLFORM=C13 H14 N4 S
##SOURCE REFERENCE=COBLENTZ NO. 3888
##$NIST SOURCE=COBLENTZ
##$NIST IMAGE=cob3888
##SPECTROMETER/DATA SYSTEM=Not specified, most likely a prism, grating, or hybrid spectrometer.
##STATE=SOLID (MINERAL OIL MULL)
##PATH LENGTH=
$$SPECTRAL CONTAMINATION DUE TO OIL AROUND 2900 CM^-^1
##SAMPLING PROCEDURE=TRANSMISSION
##RESOLUTION=4
##DATA PROCESSING=DIGITIZED BY NIST FROM HARD COPY
##XUNITS=MICROMETERS
##YUNITS=TRANSMITTANCE
##XFACTOR=1.000000
##YFACTOR=1
##DELTAX=000.006197
##FIRSTX=2.031
##LASTX=15.9998
##FIRSTY=0.362
##MAXX=15.9998
##MINX=2.031
##MAXY=0.967
##MINY=0.018
##NPOINTS=2255
##XYDATA=(X++(Y..Y))
2.031000 0.3620 0.3620 0.3640 0.3640 0.3660
2.062001 0.3670 0.3670 0.3690 0.3690 0.3700
2.093000 0.3700 0.3720 0.3720 0.3730 0.3730
2.124001 0.3750 0.3750 0.3780 0.3810 0.3810
2.155000 0.3830 0.3830 0.3840 0.3840 0.3840
2.186001 0.3840 0.3840 0.3840 0.3840 0.3840
2.217000 0.3840 0.3840 0.3840 0.3830 0.3810
2.248001 0.3810 0.3810 0.3810 0.3830 0.3840
2.279000 0.3840 0.3860 0.3890 0.3890 0.3900
2.310001 0.3900 0.3900 0.3900 0.3920 0.3920
2.341000 0.3940 0.3950 0.3970 0.3980 0.4000
2.372001 0.4000 0.4010 0.4060 0.4080 0.4060
2.403000 0.4030 0.4000 0.3980 0.4000 0.4040
2.434001 0.4090 0.4140 0.4150 0.4190 0.4200
2.465000 0.4220 0.4250 0.4260 0.4280 0.4280
2.496001 0.4280 0.4260 0.4260 0.4250 0.4250
2.527000 0.4260 0.4280 0.4310 0.4360 0.4390
2.558001 0.4430 0.4480 0.4530 0.4530 0.4480
2.589000 0.4400 0.4390 0.4390 0.4390 0.4390
2.620001 0.4400 0.4400 0.4470 0.4480 0.4480
2.651000 0.4500 0.4510 0.4570 0.4640 0.4670
2.682001 0.4680 0.4750 0.4760 0.4760 0.4750
2.713000 0.4730 0.4730 0.4730 0.4730 0.4750
2.744001 0.4750 0.4750 0.4750 0.4750 0.4760
2.775000 0.4760 0.4780 0.4790 0.4810 0.4850
2.806001 0.4890 0.4790 0.4790 0.4790 0.4790
2.837000 0.4820 0.4870 0.4870 0.4870 0.4870
2.868001 0.4850 0.4790 0.4760 0.4750 0.4700
2.899000 0.4760 0.4790 0.4790 0.4810 0.4840
2.930001 0.4840 0.4840 0.4840 0.4840 0.4810
2.961000 0.4790 0.4810 0.4840 0.4870 0.4920
2.992001 0.4980 0.5000 0.4980 0.4820 0.4780
3.023000 0.4610 0.4370 0.4040 0.3750 0.3480
3.054001 0.3090 0.2740 0.2550 0.2390 0.2270
3.085000 0.2140 0.1960 0.1940 0.1940 0.1970
3.116001 0.2100 0.2140 0.2180 0.2240 0.2240
3.147000 0.2220 0.2130 0.2020 0.1880 0.1710
3.178001 0.1540 0.1380 0.1350 0.1330 0.1330
3.208000 0.1380 0.1430 0.1470 0.1540 0.1630
3.239001 0.1740 0.1800 0.1830 0.1850 0.1830
3.270000 0.1830 0.1820 0.1800 0.1760 0.1720
3.301001 0.1680 0.1550 0.1380 0.1190 0.0990
3.332000 0.0820 0.0660 0.0430 0.0320 0.0200
3.363001 0.0180 0.0180 0.0180 0.0180 0.0180
3.394000 0.0180 0.0210 0.0210 0.0240 0.0240
3.425001 0.0260 0.0310 0.0320 0.0350 0.0380
3.456000 0.0380 0.0380 0.0380 0.0400 0.0400
3.487001 0.0420 0.0450 0.0480 0.0510 0.0850
3.518000 0.1160 0.1540 0.2080 0.2640 0.2990
3.549001 0.3380 0.3640 0.3830 0.3950 0.4040
3.580000 0.4140 0.4220 0.4310 0.4390 0.4450
3.611001 0.4530 0.4530 0.4590 0.4670 0.4700
3.642000 0.4730 0.4730 0.4750 0.4760 0.4790
3.673001 0.4790 0.4790 0.4810 0.4810 0.4840
3.704000 0.4840 0.4870 0.4920 0.4980 0.5010
3.735001 0.5030 0.5060 0.5070 0.5100 0.5120
3.766000 0.5140 0.5170 0.5180 0.5210 0.5230
3.797001 0.5240 0.5260 0.5280 0.5290 0.5310
3.828000 0.5340 0.5350 0.5370 0.5380 0.5400
3.859001 0.5420 0.5430 0.5450 0.5460 0.5490
3.890000 0.5510 0.5540 0.5570 0.5600 0.5630
3.921001 0.5660 0.5700 0.5730 0.5760 0.5770
3.952000 0.5790 0.5800 0.5820 0.5840 0.5840
3.983001 0.5840 0.5840 0.5850 0.5880 0.5910
4.014000 0.5930 0.5930 0.5930 0.5930 0.5930
4.045001 0.5950 0.5960 0.5990 0.6010 0.6010
4.076000 0.6020 0.6020 0.6040 0.6040 0.6050
4.107001 0.6050 0.6050 0.6040 0.6040 0.6040
4.138000 0.6040 0.6050 0.6070 0.6090 0.6120
4.169001 0.6150 0.6150 0.6160 0.6160 0.6190
4.200000 0.6240 0.6240 0.6210 0.6180 0.6130
4.231001 0.6070 0.6020 0.6010 0.5980 0.5960
4.262000 0.5980 0.6070 0.6100 0.6160 0.6210
4.293001 0.6320 0.6320 0.6300 0.6290 0.6320
4.324000 0.6400 0.6460 0.6520 0.6570 0.6600
4.355001 0.6610 0.6630 0.6650 0.6680 0.6710
4.386000 0.6720 0.6720 0.6720 0.6710 0.6680
4.417001 0.6660 0.6630 0.6630 0.6610 0.6610
4.448000 0.6630 0.6660 0.6710 0.6720 0.6760
4.479001 0.6760 0.6740 0.6720 0.6740 0.6760
4.510000 0.6790 0.6790 0.6790 0.6790 0.6800
4.541001 0.6820 0.6830 0.6830 0.6850 0.6850
4.572000 0.6880 0.6910 0.6930 0.6940 0.6940
4.603001 0.6960 0.6970 0.6990 0.6990 0.6970
4.634000 0.6960 0.6960 0.6990 0.6990 0.7020
4.665001 0.7040 0.7070 0.7080 0.7100 0.7130
4.696000 0.7130 0.7130 0.7130 0.7130 0.7140
4.727001 0.7180 0.7190 0.7220 0.7250 0.7250
4.758000 0.7270 0.7270 0.7270 0.7280 0.7280
4.789001 0.7280 0.7300 0.7300 0.7300 0.7320
4.820000 0.7350 0.7390 0.7420 0.7460 0.7490
4.851001 0.7500 0.7500 0.7470 0.7490 0.7490
4.882000 0.7520 0.7550 0.7550 0.7520 0.7500
4.913001 0.7460 0.7470 0.7520 0.7530 0.7530
4.944000 0.7550 0.7550 0.7550 0.7550 0.7550
4.975001 0.7550 0.7550 0.7550 0.7570 0.7570
5.006000 0.7580 0.7580 0.7600 0.7610 0.7630
5.037001 0.7660 0.7670 0.7670 0.7600 0.7550
5.068000 0.7530 0.7530 0.7530 0.7500 0.7490
5.099001 0.7500 0.7520 0.7580 0.7600 0.7610
5.130000 0.7640 0.7670 0.7640 0.7630 0.7610
5.161001 0.7600 0.7570 0.7550 0.7570 0.7610
5.192000 0.7640 0.7690 0.7720 0.7720 0.7670
5.223001 0.7600 0.7580 0.7600 0.7610 0.7710
5.254000 0.7740 0.7830 0.7880 0.7990 0.7990
5.285001 0.7990 0.7880 0.7880 0.7890 0.7910
5.316000 0.7910 0.7940 0.7990 0.8050 0.8080
5.347001 0.8090 0.8090 0.8090 0.8090 0.8090
5.378000 0.8080 0.8080 0.8000 0.7880 0.7850
5.409001 0.7850 0.7860 0.7860 0.7850 0.7850
5.440000 0.7890 0.7990 0.8020 0.8080 0.8130
5.471001 0.8220 0.8220 0.8250 0.8250 0.8300
5.502000 0.8330 0.8360 0.8390 0.8420 0.8450
5.533001 0.8450 0.8450 0.8440 0.8440 0.8420
5.564000 0.8410 0.8390 0.8390 0.8410 0.8500
5.595001 0.8520 0.8500 0.8480 0.8470 0.8410
5.625000 0.8390 0.8340 0.8280 0.8300 0.8360
5.656001 0.8450 0.8520 0.8580 0.8610 0.8670
5.687000 0.8720 0.8720 0.8580 0.8580 0.8610
5.718001 0.8720 0.8760 0.8760 0.8730 0.8660
5.749000 0.8610 0.8660 0.8760 0.8830 0.8830
5.780001 0.8780 0.8660 0.8550 0.8500 0.8560
5.811000 0.8620 0.8640 0.8640 0.8610 0.8580
5.842001 0.8580 0.8580 0.8610 0.8690 0.8760
5.873000 0.8840 0.8970 0.8980 0.8980 0.8870
5.904001 0.8800 0.8760 0.8800 0.8800 0.8860
5.935000 0.8870 0.8870 0.8780 0.8780 0.8810
5.966001 0.8860 0.8900 0.8980 0.9030 0.9080
5.997000 0.9080 0.9010 0.8870 0.8860 0.8860
6.028001 0.8890 0.8980 0.9090 0.9200 0.9260
6.059000 0.9190 0.9230 0.9260 0.9310 0.9340
6.090001 0.9370 0.9230 0.9080 0.8950 0.8750
6.121000 0.8520 0.8340 0.8020 0.7530 0.6990
6.152001 0.6010 0.5380 0.4450 0.3690 0.2970
6.183000 0.2420 0.2020 0.1380 0.1290 0.1290
6.214001 0.1350 0.2000 0.2550 0.3340 0.3860
6.245000 0.4430 0.4840 0.5040 0.5290 0.5380
6.276001 0.5480 0.5630 0.5820 0.5910 0.5910
6.307000 0.5840 0.5650 0.5400 0.5140 0.4870
6.338001 0.4610 0.4340 0.4120 0.3950 0.3830
6.369000 0.3480 0.3160 0.2940 0.2610 0.2380
6.400001 0.2220 0.2100 0.1990 0.1970 0.2000
6.431000 0.2130 0.2240 0.2390 0.2580 0.2830
6.462001 0.2990 0.3140 0.3250 0.3300 0.3330
6.493000 0.3310 0.3280 0.3190 0.3110 0.3130
6.524001 0.3220 0.3310 0.3440 0.3690 0.3940
6.555000 0.4290 0.4650 0.4840 0.4980 0.5030
6.586001 0.5070 0.5060 0.4960 0.4760 0.4540
6.617000 0.4340 0.4000 0.3610 0.3200 0.2690
6.648001 0.2210 0.1970 0.1740 0.1610 0.1460
6.679000 0.1240 0.1130 0.1020 0.0980 0.0950
6.710001 0.0900 0.0880 0.0900 0.0960 0.1020
6.741000 0.1090 0.1130 0.1230 0.1260 0.1260
6.772001 0.1230 0.1210 0.1160 0.1150 0.1150
6.803000 0.1190 0.1270 0.1330 0.1440 0.1550
6.834001 0.1720 0.1930 0.2050 0.2190 0.2350
6.865000 0.2530 0.2710 0.2910 0.3090 0.3270
6.896001 0.3440 0.3590 0.3700 0.3840 0.4120
6.927000 0.4430 0.4760 0.5040 0.5280 0.5400
6.958001 0.5560 0.5770 0.5900 0.5910 0.5930
6.989000 0.5960 0.5990 0.6090 0.6160 0.6210
7.020001 0.6350 0.6520 0.6650 0.6720 0.6770
7.051000 0.6790 0.6800 0.6830 0.6830 0.6850
7.082001 0.6830 0.6800 0.6790 0.6770 0.6760
7.113000 0.6740 0.6720 0.6710 0.6690 0.6690
7.144001 0.6680 0.6660 0.6650 0.6540 0.6300
7.175000 0.6090 0.5870 0.5600 0.5290 0.4850
7.206001 0.4610 0.4340 0.4090 0.3840 0.3660
7.237000 0.3500 0.3500 0.3590 0.3890 0.4200
7.268001 0.4540 0.4750 0.4950 0.5010 0.5040
7.299000 0.5040 0.5040 0.5040 0.5060 0.5100
7.330001 0.5180 0.5170 0.5030 0.4840 0.4640
7.361000 0.4470 0.4340 0.4250 0.4200 0.4170
7.392001 0.4170 0.4190 0.4230 0.4290 0.4400
7.423000 0.4530 0.4650 0.4750 0.4890 0.5090
7.454001 0.5290 0.5420 0.5600 0.5660 0.5660
7.485000 0.5590 0.5450 0.5340 0.5280 0.5260
7.516001 0.5280 0.5310 0.5380 0.5450 0.5490
7.547000 0.5570 0.5590 0.5570 0.5490 0.5320
7.578001 0.5200 0.5060 0.4810 0.4590 0.4420
7.609000 0.4290 0.4170 0.4040 0.3940 0.3800
7.640001 0.3620 0.3520 0.3390 0.3340 0.3390
7.671000 0.3450 0.3550 0.3640 0.3730 0.3760
7.702001 0.3780 0.3800 0.3760 0.3700 0.3410
7.733000 0.3190 0.2970 0.2850 0.2740 0.2710
7.764001 0.2740 0.2910 0.3160 0.3300 0.3660
7.795000 0.3950 0.4360 0.4730 0.4850 0.5040
7.826001 0.5170 0.5240 0.5290 0.5340 0.5400
7.857000 0.5480 0.5490 0.5480 0.5380 0.5200
7.888001 0.4960 0.4750 0.4540 0.4420 0.4260
7.919000 0.4140 0.3950 0.3590 0.3410 0.3220
7.950001 0.3110 0.3030 0.2950 0.2880 0.2800
7.981000 0.2800 0.2830 0.2890 0.2950 0.3030
8.012001 0.3110 0.3160 0.3190 0.3230 0.3280
8.042000 0.3310 0.3300 0.3270 0.3170 0.3080
8.073001 0.3020 0.2940 0.2850 0.2810 0.2810
8.104000 0.2850 0.2920 0.2910 0.2780 0.2660
8.135001 0.2530 0.2460 0.2300 0.2250 0.2250
8.166000 0.2300 0.2440 0.2640 0.2910 0.3140
8.197001 0.3340 0.3520 0.3660 0.3800 0.3940
8.228000 0.4080 0.4220 0.4280 0.4360 0.4450
8.259001 0.4510 0.4590 0.4670 0.4680 0.4710
8.290000 0.4760 0.4820 0.4900 0.5000 0.5030
8.321001 0.5040 0.5090 0.5140 0.5210 0.5280
8.352000 0.5310 0.5340 0.5380 0.5430 0.5490
8.383001 0.5570 0.5650 0.5730 0.5770 0.5800
8.414000 0.5840 0.5870 0.5840 0.5770 0.5710
8.445001 0.5680 0.5620 0.5510 0.5450 0.5340
8.476000 0.5230 0.5180 0.5090 0.5010 0.4980
8.507001 0.4960 0.4950 0.4900 0.4840 0.4780
8.538000 0.4750 0.4760 0.4780 0.4850 0.4870
8.569001 0.4890 0.4870 0.4870 0.4840 0.4810
8.600000 0.4710 0.4640 0.4540 0.4450 0.4370
8.631001 0.4370 0.4400 0.4480 0.4530 0.4560
8.662000 0.4590 0.4620 0.4680 0.4790 0.4930
8.693001 0.5040 0.5150 0.5280 0.5370 0.5460
8.724000 0.5510 0.5630 0.5740 0.5840 0.5870
8.755001 0.5880 0.5910 0.5950 0.5980 0.5990
8.786000 0.6010 0.6020 0.6070 0.6100 0.6120
8.817001 0.6150 0.6160 0.6180 0.6210 0.6260
8.848000 0.6320 0.6380 0.6400 0.6410 0.6410
8.879001 0.6410 0.6430 0.6430 0.6460 0.6460
8.910000 0.6440 0.6430 0.6410 0.6400 0.6350
8.941001 0.6290 0.6190 0.6130 0.6040 0.5960
8.972000 0.5820 0.5740 0.5710 0.5620 0.5600
9.003001 0.5590 0.5620 0.5730 0.5790 0.5880
9.034000 0.5990 0.6090 0.6100 0.6130 0.6040
9.065001 0.5990 0.5960 0.5880 0.5800 0.5710
9.096000 0.5590 0.5490 0.5370 0.5310 0.5260
9.127001 0.5210 0.5240 0.5310 0.5380 0.5460
9.158000 0.5650 0.5840 0.5960 0.6090 0.6120
9.189001 0.6180 0.6230 0.6260 0.6270 0.6190
9.220000 0.5960 0.5740 0.5380 0.5150 0.4900
9.251001 0.4610 0.4510 0.4590 0.4760 0.5000
9.282000 0.5290 0.5490 0.5740 0.5900 0.6020
9.313001 0.6040 0.6020 0.5990 0.5900 0.5880
9.344000 0.5880 0.5900 0.5910 0.5960 0.6040
9.375001 0.6150 0.6240 0.6330 0.6430 0.6540
9.406000 0.6650 0.6740 0.6800 0.6900 0.6970
9.437001 0.7020 0.7100 0.7160 0.7220 0.7280
9.468000 0.7330 0.7390 0.7390 0.7410 0.7420
9.499001 0.7460 0.7490 0.7490 0.7520 0.7530
9.530000 0.7530 0.7570 0.7600 0.7610 0.7610
9.561001 0.7610 0.7630 0.7630 0.7640 0.7660
9.592000 0.7690 0.7740 0.7770 0.7750 0.7740
9.623001 0.7710 0.7670 0.7640 0.7640 0.7670
9.654000 0.7690 0.7720 0.7720 0.7710 0.7690
9.685001 0.7630 0.7500 0.7270 0.6960 0.6600
9.716000 0.6350 0.5960 0.5700 0.5590 0.5590
9.747001 0.5760 0.6050 0.6430 0.6710 0.7040
9.778000 0.7250 0.7390 0.7550 0.7600 0.7690
9.809001 0.7800 0.7860 0.7950 0.8000 0.8000
9.840000 0.8050 0.8110 0.8170 0.8190 0.8200
9.871001 0.8200 0.8220 0.8220 0.8230 0.8270
9.902000 0.8310 0.8360 0.8390 0.8420 0.8440
9.933001 0.8470 0.8480 0.8480 0.8500 0.8480
9.964000 0.8420 0.8380 0.8330 0.8300 0.8300
9.995001 0.8360 0.8420 0.8450 0.8500 0.8530
10.026000 0.8580 0.8590 0.8590 0.8580 0.8480
10.057001 0.8380 0.8280 0.8110 0.8060 0.8080
10.088000 0.8130 0.8200 0.8280 0.8310 0.8390
10.119001 0.8480 0.8530 0.8610 0.8700 0.8760
10.150000 0.8780 0.8780 0.8720 0.8720 0.8750
10.181001 0.8760 0.8780 0.8830 0.8890 0.8890
10.212000 0.8830 0.8830 0.8870 0.8870 0.8870
10.243001 0.8870 0.8860 0.8840 0.8810 0.8780
10.274000 0.8760 0.8750 0.8720 0.8700 0.8670
10.305001 0.8670 0.8640 0.8640 0.8660 0.8690
10.336000 0.8730 0.8780 0.8810 0.8890 0.8920
10.367001 0.8970 0.9080 0.9090 0.9090 0.9090
10.398000 0.9090 0.9120 0.9120 0.9090 0.9030
10.429001 0.9000 0.8980 0.8980 0.8920 0.8860
10.459000 0.8860 0.8890 0.8920 0.8940 0.8970
10.490001 0.9000 0.9030 0.9080 0.9110 0.9140
10.521000 0.9150 0.9190 0.9190 0.9200 0.9230
10.552001 0.9280 0.9290 0.9290 0.9310 0.9330
10.583000 0.9340 0.9340 0.9370 0.9370 0.9360
10.614001 0.9330 0.9310 0.9290 0.9290 0.9310
10.645000 0.9310 0.9330 0.9340 0.9340 0.9340
10.676001 0.9330 0.9340 0.9360 0.9390 0.9400
10.707000 0.9400 0.9420 0.9420 0.9420 0.9430
10.738001 0.9430 0.9420 0.9420 0.9420 0.9420
10.769000 0.9420 0.9430 0.9430 0.9420 0.9360
10.800001 0.9360 0.9360 0.9390 0.9400 0.9400
10.831000 0.9420 0.9420 0.9420 0.9400 0.9400
10.862001 0.9420 0.9420 0.9430 0.9430 0.9450
10.893000 0.9470 0.9470 0.9480 0.9500 0.9510
10.924001 0.9530 0.9540 0.9570 0.9610 0.9620
10.955000 0.9620 0.9640 0.9650 0.9670 0.9670
10.986001 0.9670 0.9670 0.9670 0.9670 0.9670
11.017000 0.9650 0.9650 0.9640 0.9620 0.9620
11.048001 0.9590 0.9560 0.9500 0.9400 0.9310
11.079000 0.9200 0.9010 0.8810 0.8620 0.8340
11.110001 0.8050 0.7830 0.7670 0.7460 0.7330
11.141000 0.7130 0.7050 0.7000 0.6900 0.6740
11.172001 0.6680 0.6610 0.6600 0.6630 0.6770
11.203000 0.6960 0.7410 0.7550 0.7670 0.7990
11.234001 0.8130 0.8300 0.8480 0.8580 0.8640
11.265000 0.8700 0.8730 0.8760 0.8800 0.8810
11.296001 0.8830 0.8840 0.8830 0.8780 0.8760
11.327000 0.8760 0.8810 0.8810 0.8830 0.8830
11.358001 0.8840 0.8860 0.8870 0.8890 0.8890
11.389000 0.8890 0.8870 0.8840 0.8830 0.8810
11.420001 0.8800 0.8780 0.8700 0.8690 0.8640
11.451000 0.8610 0.8560 0.8520 0.8480 0.8440
11.482001 0.8380 0.8300 0.8230 0.8060 0.8000
11.513000 0.7920 0.7880 0.7830 0.7740 0.7610
11.544001 0.7500 0.7360 0.7180 0.7070 0.6990
11.575000 0.6850 0.6800 0.6690 0.6550 0.6400
11.606001 0.6230 0.6070 0.5930 0.5820 0.5730
11.637000 0.5660 0.5600 0.5520 0.5490 0.5430
11.668001 0.5320 0.5310 0.5310 0.5320 0.5320
11.699000 0.5320 0.5320 0.5350 0.5420 0.5540
11.730001 0.5680 0.5820 0.5990 0.6050 0.6180
11.761000 0.6290 0.6400 0.6510 0.6630 0.6710
11.792001 0.6740 0.6800 0.6800 0.6740 0.6690
11.823000 0.6580 0.6470 0.6320 0.6070 0.5820
11.854001 0.5740 0.5600 0.5480 0.5400 0.5310
11.885000 0.5260 0.5280 0.5340 0.5420 0.5560
11.916001 0.5770 0.5850 0.5960 0.6050 0.6090
11.947000 0.6070 0.6050 0.5990 0.5910 0.5840
11.978001 0.5730 0.5660 0.5620 0.5450 0.5290
12.009000 0.5120 0.4960 0.4810 0.4680 0.4540
12.040001 0.4430 0.4400 0.4340 0.4310 0.4260
12.071000 0.4220 0.4220 0.4250 0.4260 0.4310
12.102001 0.4370 0.4400 0.4470 0.4590 0.4710
12.133000 0.4900 0.5040 0.5210 0.5370 0.5430
12.164001 0.5520 0.5630 0.5710 0.5820 0.5950
12.195000 0.6050 0.6180 0.6300 0.6320 0.6410
12.226001 0.6510 0.6570 0.6650 0.6740 0.6800
12.257000 0.6860 0.6910 0.6970 0.7070 0.7130
12.288001 0.7190 0.7240 0.7320 0.7330 0.7350
12.319000 0.7380 0.7380 0.7390 0.7390 0.7390
12.350001 0.7390 0.7410 0.7420 0.7460 0.7500
12.381000 0.7600 0.7660 0.7710 0.7740 0.7810
12.412001 0.7970 0.8000 0.8030 0.8090 0.8130
12.443000 0.8170 0.8200 0.8200 0.8230 0.8270
12.474001 0.8310 0.8360 0.8340 0.8330 0.8310
12.505000 0.8300 0.8280 0.8270 0.8250 0.8250
12.536001 0.8230 0.8220 0.8200 0.8170 0.8160
12.567000 0.8160 0.8140 0.8130 0.8090 0.8060
12.598001 0.8050 0.8020 0.8020 0.8000 0.7950
12.629000 0.7890 0.7850 0.7830 0.7800 0.7750
12.660001 0.7690 0.7580 0.7520 0.7440 0.7330
12.691000 0.7240 0.7180 0.7110 0.7040 0.6910
12.722001 0.6720 0.6690 0.6540 0.6430 0.6370
12.753000 0.6270 0.6130 0.6050 0.5910 0.5770
12.784001 0.5650 0.5520 0.5480 0.5350 0.5230
12.815000 0.5000 0.4950 0.4840 0.4670 0.4500
12.846001 0.4370 0.4230 0.4090 0.3970 0.3780
12.876000 0.3660 0.3450 0.3200 0.3080 0.2940
12.907001 0.2720 0.2610 0.2460 0.2280 0.2100
12.938000 0.1880 0.1710 0.1600 0.1490 0.1320
12.969001 0.1230 0.1120 0.1090 0.1040 0.1010
13.000000 0.0980 0.0880 0.0870 0.0880 0.0960
13.031001 0.1100 0.1160 0.1260 0.1300 0.1330
13.062000 0.1400 0.1460 0.1540 0.1600 0.1710
13.093001 0.1790 0.1880 0.1990 0.2110 0.2190
13.124000 0.2250 0.2360 0.2390 0.2460 0.2490
13.155001 0.2500 0.2520 0.2530 0.2550 0.2600
13.186000 0.2600 0.2580 0.2530 0.2500 0.2410
13.217001 0.2320 0.2300 0.2240 0.2110 0.2040
13.248000 0.1960 0.1880 0.1820 0.1710 0.1680
13.279001 0.1660 0.1630 0.1610 0.1580 0.1600
13.310000 0.1660 0.1760 0.1880 0.1970 0.2160
13.341001 0.2280 0.2440 0.2530 0.2720 0.2890
13.372000 0.3000 0.3130 0.3200 0.3280 0.3340
13.403001 0.3520 0.3560 0.3690 0.3720 0.3860
13.434000 0.3980 0.4010 0.4120 0.4190 0.4220
13.465001 0.4250 0.4280 0.4310 0.4370 0.4400
13.496000 0.4420 0.4450 0.4480 0.4500 0.4530
13.527001 0.4590 0.4610 0.4640 0.4680 0.4710
13.558000 0.4750 0.4760 0.4750 0.4730 0.4750
13.589001 0.4790 0.4790 0.4820 0.4820 0.4780
13.620000 0.4780 0.4790 0.4820 0.4820 0.4810
13.651001 0.4780 0.4780 0.4820 0.4820 0.4810
13.682000 0.4780 0.4760 0.4750 0.4730 0.4730
13.713001 0.4700 0.4680 0.4670 0.4670 0.4640
13.744000 0.4620 0.4620 0.4620 0.4610 0.4610
13.775001 0.4570 0.4530 0.4510 0.4500 0.4480
13.806000 0.4430 0.4420 0.4400 0.4390 0.4370
13.837001 0.4340 0.4290 0.4250 0.4200 0.4190
13.868000 0.4190 0.4190 0.4170 0.4150 0.4120
13.899001 0.4090 0.4060 0.4040 0.4030 0.4040
13.930000 0.4080 0.4080 0.4040 0.4030 0.4010
13.961001 0.4000 0.3980 0.3950 0.3950 0.3940
13.992000 0.3940 0.3830 0.3830 0.3840 0.3870
14.023001 0.3900 0.3900 0.3900 0.3890 0.3890
14.054000 0.3860 0.3810 0.3810 0.3860 0.3900
14.085001 0.3900 0.3940 0.3940 0.3950 0.3970
14.116000 0.3980 0.3980 0.3980 0.3980 0.3980
14.147001 0.3980 0.4000 0.3980 0.3970 0.3970
14.178000 0.3970 0.3980 0.4000 0.4010 0.3970
14.209001 0.3940 0.3920 0.3890 0.3890 0.3870
14.240000 0.3810 0.3750 0.3690 0.3610 0.3530
14.271001 0.3520 0.3470 0.3410 0.3280 0.3220
14.302000 0.3130 0.3030 0.2970 0.2850 0.2780
14.333001 0.2720 0.2690 0.2690 0.2670 0.2670
14.364000 0.2690 0.2710 0.2720 0.2750 0.2800
14.395001 0.2860 0.2950 0.3020 0.3060 0.3130
14.426000 0.3160 0.3190 0.3250 0.3280 0.3270
14.457001 0.3230 0.3200 0.3190 0.3170 0.3160
14.488000 0.3130 0.3060 0.2990 0.2910 0.2860
14.519001 0.2780 0.2690 0.2610 0.2580 0.2490
14.550000 0.2460 0.2420 0.2410 0.2380 0.2360
14.581001 0.2360 0.2360 0.2380 0.2390 0.2410
14.612000 0.2440 0.2470 0.2500 0.2580 0.2630
14.643001 0.2690 0.2750 0.2800 0.2830 0.2860
14.674000 0.2910 0.2970 0.3080 0.3190 0.3250
14.705001 0.3310 0.3340 0.3410 0.3500 0.3580
14.736000 0.3610 0.3660 0.3690 0.3750 0.3780
14.767001 0.3800 0.3810 0.3870 0.4000 0.4030
14.798000 0.4080 0.4140 0.4190 0.4230 0.4260
14.829001 0.4290 0.4310 0.4360 0.4390 0.4420
14.860000 0.4430 0.4510 0.4560 0.4590 0.4620
14.891001 0.4640 0.4650 0.4680 0.4710 0.4730
14.922000 0.4810 0.4840 0.4870 0.4890 0.4890
14.953001 0.4890 0.4900 0.4900 0.4920 0.4920
14.984000 0.4920 0.4920 0.4930 0.4930 0.4930
15.015001 0.4920 0.4900 0.4890 0.4870 0.4850
15.046000 0.4810 0.4790 0.4780 0.4780 0.4820
15.077001 0.4850 0.4850 0.4850 0.4870 0.4870
15.108000 0.4870 0.4890 0.4900 0.4960 0.5000
15.139001 0.5030 0.5060 0.5100 0.5140 0.5180
15.170000 0.5230 0.5290 0.5340 0.5370 0.5420
15.201001 0.5450 0.5510 0.5560 0.5590 0.5600
15.232000 0.5630 0.5650 0.5650 0.5680 0.5700
15.263001 0.5710 0.5730 0.5740 0.5760 0.5790
15.293000 0.5800 0.5820 0.5820 0.5840 0.5840
15.324001 0.5840 0.5840 0.5840 0.5840 0.5850
15.355000 0.5850 0.5870 0.5880 0.5900 0.5900
15.386001 0.5910 0.5910 0.5950 0.5950 0.5960
15.417000 0.5960 0.5950 0.5950 0.5930 0.5930
15.448001 0.5910 0.5910 0.5910 0.5900 0.5900
15.479000 0.5900 0.5910 0.5910 0.5930 0.5930
15.510001 0.5910 0.5910 0.5910 0.5910 0.5910
15.541000 0.6010 0.6010 0.5950 0.5900 0.5840
15.572001 0.5840 0.5870 0.5870 0.5900 0.5930
15.603000 0.5950 0.5980 0.5990 0.6010 0.5980
15.634001 0.5960 0.5960 0.5950 0.5960 0.5980
15.665000 0.6020 0.6020 0.5910 0.5840 0.5790
15.696001 0.5760 0.5740 0.5740 0.5730 0.5710
15.727000 0.5650 0.5630 0.5620 0.5620 0.5600
15.758001 0.5590 0.5590 0.5590 0.5570 0.5570
15.789000 0.5560 0.5560 0.5540 0.5540 0.5520
15.820001 0.5510 0.5510 0.5490 0.5490 0.5490
15.851000 0.5490 0.5480 0.5480 0.5460 0.5460
15.882001 0.5460 0.5460 0.5460 0.5460 0.5460
15.913000 0.5460 0.5450 0.5430 0.5420 0.5400
15.944001 0.5320 0.5310 0.5290 0.5260 0.5240
15.975000 0.5230 0.5210 0.5210 0.5210 0.5230
##END=
