##TITLE=p-CHLOROBENZONITRILE
##JCAMP-DX=4.24
##DATA TYPE=INFRARED SPECTRUM
##CLASS=COBLENTZ III
##ORIGIN=DOW CHEMICAL COMPANY
##OWNER=COBLENTZ SOCIETY
Collection (C) 2018 copyright by the U.S. Secretary of Commerce
on behalf of the United States of America. All rights reserved.
##DATE=1960/01/04
##NAMES=4-chlorobenzonitrile
##CAS REGISTRY NO=623-03-0
##MOLFORM=C7 H4 Cl N
##MP=91 C
##SOURCE REFERENCE=COBLENTZ NO. 6784
##$NIST SOURCE=COBLENTZ
##$NIST IMAGE=cob6784
##SPECTROMETER/DATA SYSTEM=DOW KBr FOREPRISM-GRATING
##INSTRUMENT PARAMETERS=GRATING BLAZED AT 3.5, 12.0, 20.0 MICRONS AND CHANGED AT 5.0, 7.5, 14.9 MICRONS
##STATE=SOLUTION (10% IN CCl4 FOR 3800-1335 CM^-^1, 10% IN CS2 FOR 1335-420 CM^-^1)
##PATH LENGTH=0.012 CM, 0.011 CM
$$ SEE SPECTRUM NO. 6992 FOR "VAPOR" PHASE STATE
$$SPECTRAL CONTAMINATION DUE TO CCl4 AROUND 1550 CM^-^1
##SAMPLING PROCEDURE=TRANSMISSION
##RESOLUTION=4
##DATA PROCESSING=DIGITIZED BY NIST FROM HARD COPY (FROM TWO SEGMENTS)
##XUNITS=1/CM
##YUNITS=TRANSMITTANCE
##XFACTOR=1.000000
##YFACTOR=1
##DELTAX=0.878639
##FIRSTX=423.723
##LASTX=3789.79
##FIRSTY=0.921
##MAXX=3789.79
##MINX=423.723
##MAXY=1.03
##MINY=0
##NPOINTS=3832
##XYDATA=(X++(Y..Y))
423.723000 0.9210 0.9210 0.9210 0.9210 0.9210
428.116195 0.9220 0.9240 0.9250 0.9260 0.9280
432.509391 0.9290 0.9300 0.9330 0.9330 0.9350
436.902586 0.9360 0.9370 0.9370 0.9390 0.9390
441.295782 0.9400 0.9400 0.9430 0.9440 0.9440
445.688977 0.9460 0.9460 0.9460 0.9460 0.9460
450.082172 0.9470 0.9480 0.9510 0.9530 0.9540
454.475368 0.9550 0.9570 0.9570 0.9570 0.9570
458.868563 0.9580 0.9590 0.9610 0.9640 0.9690
463.261759 0.9750 0.9750 0.9760 0.9770 0.9790
467.654954 0.9790 0.9820 0.9830 0.9840 0.9870
472.048149 0.9910 0.9930 0.9940 0.9940 0.9940
476.441345 0.9940 0.9950 0.9950 0.9970 0.9970
480.834540 0.9980 1.0010 1.0010 1.0020 1.0020
485.227736 1.0050 1.0060 1.0090 1.0090 1.0110
489.620931 1.0130 1.0150 1.0160 1.0160 1.0170
494.014127 1.0190 1.0190 1.0200 1.0220 1.0220
498.407322 1.0220 1.0230 1.0230 1.0230 1.0230
502.800517 1.0230 1.0230 1.0230 1.0230 1.0230
507.193713 1.0220 1.0220 1.0200 1.0190 1.0190
511.586908 1.0170 1.0160 1.0150 1.0130 1.0110
515.980104 1.0110 1.0090 1.0090 1.0090 1.0040
520.373299 1.0040 1.0000 0.9950 0.9880 0.9840
524.766494 0.9820 0.9790 0.9730 0.9650 0.9531
529.159690 0.9430 0.9280 0.9060 0.7663 0.7231
533.552885 0.7080 0.6462 0.2965 0.2233 0.1534
537.946081 0.1180 0.0820 0.0111 0.1458 0.2288
542.339276 0.3018 0.3768 0.4497 0.5227 0.5956
546.732471 0.6999 0.7559 0.8019 0.8379 0.8669
551.125667 0.8889 0.9069 0.9209 0.9329 0.9459
555.518862 0.9590 0.9750 0.9830 0.9870 0.9930
559.912058 1.0010 1.0050 1.0060 1.0060 1.0060
564.305253 1.0060 1.0050 1.0050 1.0040 1.0020
568.698448 1.0020 1.0020 1.0010 1.0000 0.9980
573.091644 0.9940 0.9900 0.9870 0.9820 0.9760
577.484839 0.9690 0.9580 0.9241 0.8812 0.8054
581.878035 0.7260 0.6470 0.5531 0.4971 0.4411
586.271230 0.3881 0.3322 0.2772 0.2770 0.4064
590.664426 0.5171 0.6390 0.7329 0.8049 0.8539
595.057621 0.8879 0.9030 0.9170 0.9290 0.9409
599.450816 0.9530 0.9640 0.9750 0.9840 0.9930
603.844012 1.0040 1.0040 1.0060 1.0120 1.0160
608.237207 1.0200 1.0200 1.0200 1.0270 1.0300
612.630403 1.0300 1.0300 1.0300 1.0300 1.0300
617.023598 1.0300 1.0300 1.0300 1.0300 1.0290
621.416793 1.0260 1.0240 1.0230 1.0200 1.0190
625.809989 1.0170 1.0160 1.0150 1.0130 1.0130
630.203184 1.0110 1.0080 1.0040 1.0020 1.0000
634.596380 0.9970 0.9950 0.9950 0.9880 0.9870
638.989575 0.9870 0.9840 0.9790 0.9760 0.9720
643.382770 0.9690 0.9680 0.9640 0.9610 0.9580
647.775966 0.9570 0.9550 0.9510 0.9460 0.9400
652.169161 0.9370 0.9370 0.9400 0.9460 0.9540
656.562357 0.9690 0.9760 0.9800 0.9820 0.9840
660.955552 0.9880 0.9900 0.9910 0.9930 0.9940
665.348747 0.9980 1.0020 1.0020 1.0040 1.0040
669.741943 1.0020 1.0020 1.0000 0.9970 0.9940
674.135138 0.9910 0.9900 0.9900 0.9900 0.9930
678.528334 1.0010 1.0040 1.0050 1.0050 1.0060
682.921529 1.0060 1.0060 1.0060 1.0050 1.0050
687.314725 1.0040 1.0020 1.0010 1.0010 1.0000
691.707920 0.9980 0.9980 0.9970 0.9970 0.9950
696.101115 0.9950 0.9940 0.9940 0.9900 0.9880
700.494311 0.9830 0.9800 0.9661 0.9461 0.9281
704.887506 0.9150 0.9030 0.9010 0.9040 0.9260
709.280702 0.9470 0.9590 0.9730 0.9830 0.9870
713.673897 0.9930 0.9970 0.9980 1.0000 1.0010
718.067092 1.0010 1.0040 1.0040 1.0040 1.0050
722.460288 1.0050 1.0050 1.0060 1.0060 1.0060
726.853483 1.0080 1.0080 1.0080 1.0080 1.0080
731.246679 1.0080 1.0080 1.0080 1.0080 1.0080
735.639874 1.0060 1.0060 1.0050 1.0060 1.0060
740.033069 1.0060 1.0060 1.0060 1.0060 1.0060
744.426265 1.0060 1.0060 1.0060 1.0060 1.0060
748.819460 1.0060 1.0060 1.0050 1.0050 1.0050
753.212656 1.0050 1.0040 1.0020 1.0010 1.0010
757.605851 1.0000 0.9980 0.9970 0.9970 0.9950
761.999046 0.9940 0.9930 0.9910 0.9900 0.9900
766.392242 0.9880 0.9860 0.9840 0.9800 0.9790
770.785437 0.9730 0.9660 0.9590 0.9500 0.9391
775.178633 0.9240 0.9060 0.8820 0.8530 0.8171
779.571828 0.7691 0.6892 0.5784 0.4863 0.4860
783.965023 0.7260 0.8120 0.8310 0.8490 0.8630
788.358219 0.9069 0.9120 0.9170 0.9250 0.9290
792.751414 0.9320 0.9330 0.9330 0.9330 0.9330
797.144610 0.9330 0.9320 0.9320 0.9250 0.9240
801.537805 0.9220 0.9210 0.9150 0.9110 0.9100
805.931001 0.8990 0.8930 0.8890 0.8810 0.8740
810.324196 0.8660 0.8590 0.8490 0.8410 0.8310
814.717391 0.8200 0.8080 0.7941 0.7801 0.7372
819.110587 0.6760 0.6170 0.5300 0.4371 0.3461
823.503782 0.2552 0.1892 0.1182 0.0921 0.0641
827.896978 0.0060 0.0040 0.0020 0.0040 0.0160
832.290173 0.0270 0.0380 0.0490 0.1127 0.1578
836.683368 0.2050 0.2560 0.3130 0.3739 0.4439
841.076564 0.5218 0.6087 0.6668 0.6859 0.7029
845.469759 0.7160 0.7290 0.7340 0.7380 0.7380
849.862955 0.7370 0.7340 0.7340 0.7330 0.7330
854.256150 0.7330 0.7340 0.7380 0.7430 0.7520
858.649345 0.7590 0.7660 0.7740 0.7800 0.7880
863.042541 0.7940 0.7960 0.7980 0.8050 0.8080
867.435736 0.8100 0.8100 0.8120 0.8100 0.8060
871.828932 0.8050 0.8030 0.8030 0.8050 0.8100
876.222127 0.8170 0.8389 0.8519 0.8600 0.8670
880.615322 0.8740 0.8890 0.8970 0.9060 0.9120
885.008518 0.9190 0.9250 0.9300 0.9360 0.9390
889.401713 0.9430 0.9440 0.9500 0.9550 0.9590
893.794909 0.9640 0.9660 0.9690 0.9720 0.9750
898.188104 0.9770 0.9790 0.9820 0.9830 0.9860
902.581300 0.9880 0.9900 0.9930 0.9950 0.9980
906.974495 1.0010 1.0010 1.0010 1.0010 1.0020
911.367690 1.0040 1.0040 1.0040 1.0040 1.0040
915.760886 1.0040 1.0040 1.0040 1.0040 1.0020
920.154081 1.0020 1.0020 1.0010 1.0010 1.0010
924.547277 1.0010 1.0000 1.0000 1.0000 0.9980
928.940472 1.0000 0.9980 0.9980 0.9970 0.9970
933.333667 0.9910 0.9870 0.9840 0.9830 0.9830
937.726863 0.9820 0.9790 0.9770 0.9750 0.9720
942.120058 0.9690 0.9660 0.9640 0.9590 0.9570
946.513254 0.9530 0.9500 0.9480 0.9470 0.9460
950.906449 0.9470 0.9580 0.9590 0.9610 0.9620
955.299644 0.9620 0.9620 0.9640 0.9640 0.9640
959.692840 0.9640 0.9650 0.9650 0.9680 0.9700
964.086035 0.9700 0.9720 0.9730 0.9760 0.9760
968.479231 0.9790 0.9790 0.9820 0.9830 0.9830
972.872426 0.9840 0.9860 0.9870 0.9870 0.9880
977.265621 0.9900 0.9910 0.9930 0.9930 0.9940
981.658817 0.9950 0.9950 0.9970 0.9980 0.9980
986.052012 0.9980 0.9980 1.0000 1.0000 1.0000
990.445208 1.0000 1.0000 1.0000 1.0000 1.0000
994.838403 0.9980 0.9980 0.9970 0.9950 0.9940
999.231599 0.9940 0.9910 0.9880 0.9870 0.9860
1003.624794 0.9840 0.9820 0.9790 0.9760 0.9720
1008.017989 0.9540 0.9390 0.9240 0.9101 0.8951
1012.411185 0.8750 0.8530 0.8230 0.7851 0.4227
1016.804380 0.3502 0.2194 0.0875 0.0382 0.1216
1021.197576 0.4262 0.7840 0.8390 0.8820 0.9140
1025.590771 0.9360 0.9510 0.9620 0.9690 0.9750
1029.983966 0.9800 0.9840 0.9880 0.9900 0.9930
1034.377162 0.9930 0.9940 0.9940 0.9940 0.9930
1038.770357 0.9930 0.9940 0.9940 0.9930 0.9930
1043.163553 0.9910 0.9910 0.9900 0.9900 0.9900
1047.556748 0.9900 0.9900 0.9900 0.9900 0.9880
1051.949943 0.9900 0.9880 0.9880 0.9870 0.9840
1056.343139 0.9820 0.9800 0.9800 0.9790 0.9790
1060.736334 0.9770 0.9750 0.9640 0.9590 0.9580
1065.129530 0.9550 0.9510 0.9460 0.9370 0.9300
1069.522725 0.9220 0.9150 0.9110 0.9070 0.9060
1073.915920 0.9040 0.8970 0.8860 0.8700 0.8460
1078.309116 0.8131 0.7721 0.7192 0.6582 0.6182
1082.702311 0.5960 0.5820 0.5730 0.5560 0.5410
1087.095507 0.5061 0.4581 0.2408 0.1832 0.1133
1091.488702 0.0780 0.0440 0.0060 0.0050 0.0060
1095.881898 0.1068 0.1389 0.1679 0.3693 0.4148
1100.275093 0.4760 0.5600 0.6449 0.7329 0.7839
1104.668288 0.8119 0.8250 0.8409 0.8669 0.8770
1109.061484 0.8820 0.8830 0.8830 0.8780 0.8770
1113.454679 0.8770 0.8780 0.8920 0.9040 0.9179
1117.847875 0.9300 0.9400 0.9640 0.9700 0.9720
1122.241070 0.9750 0.9690 0.9660 0.9640 0.9580
1126.634265 0.9570 0.9540 0.9530 0.9500 0.9460
1131.027461 0.9430 0.9410 0.9410 0.9510 0.9580
1135.420656 0.9620 0.9660 0.9720 0.9770 0.9790
1139.813852 0.9800 0.9830 0.9830 0.9840 0.9860
1144.207047 0.9880 0.9910 0.9940 0.9970 0.9970
1148.600242 0.9980 1.0000 1.0000 1.0000 1.0000
1152.993438 1.0000 1.0000 0.9980 0.9980 0.9980
1157.386633 0.9980 0.9970 0.9930 0.9900 0.9860
1161.779829 0.9830 0.9790 0.9730 0.9680 0.9640
1166.173024 0.9590 0.9570 0.9540 0.9500 0.9430
1170.566219 0.9320 0.9170 0.9000 0.8780 0.8590
1174.959415 0.8570 0.8590 0.8640 0.8889 0.8970
1179.352610 0.9070 0.9140 0.9220 0.9300 0.9400
1183.745806 0.9470 0.9540 0.9580 0.9620 0.9650
1188.139001 0.9660 0.9660 0.9660 0.9660 0.9650
1192.532196 0.9610 0.9580 0.9550 0.9510 0.9371
1196.925392 0.9040 0.8850 0.8820 0.8820 0.9010
1201.318587 0.9499 0.9749 0.9899 0.9980 1.0020
1205.711783 1.0040 1.0060 1.0080 1.0060 1.0090
1210.104978 1.0110 1.0120 1.0120 1.0110 1.0110
1214.498174 1.0110 1.0090 1.0090 1.0090 1.0090
1218.891369 1.0080 1.0090 1.0080 1.0040 1.0010
1223.284564 1.0010 1.0010 1.0000 0.9980 0.9980
1227.677760 0.9970 0.9970 0.9970 1.0040 1.0050
1232.070955 1.0060 1.0080 1.0080 1.0080 1.0060
1236.464151 1.0050 1.0050 1.0020 1.0010 1.0010
1240.857346 1.0010 1.0000 0.9980 0.9950 0.9910
1245.250541 0.9870 0.9800 0.9750 0.9660 0.9580
1249.643737 0.9500 0.9400 0.9290 0.9120 0.9040
1254.036932 0.8950 0.8920 0.8930 0.9000 0.9100
1258.430128 0.9140 0.9180 0.9360 0.9440 0.9480
1262.823323 0.9480 0.9470 0.9470 0.9460 0.9460
1267.216518 0.9440 0.9440 0.9410 0.9370 0.9330
1271.609714 0.9260 0.9170 0.9030 0.8960 0.8860
1276.002909 0.8630 0.8390 0.8200 0.7990 0.7940
1280.396105 0.7990 0.8200 0.8589 0.9038 0.9259
1284.789300 0.9510 0.9610 0.9730 0.9790 0.9830
1289.182495 0.9840 0.9840 0.9840 0.9840 0.9830
1293.575691 0.9830 0.9820 0.9800 0.9770 0.9730
1297.968886 0.9680 0.9590 0.9500 0.9351 0.9320
1302.362082 0.9330 0.9530 0.9650 0.9680 0.9770
1306.755277 0.9830 0.9840 0.9860 0.9870 0.9900
1311.148473 0.9900 0.9910 0.9910 0.9930 0.9930
1315.541668 0.9930 0.9930 0.9930 0.9930 0.9940
1319.934863 0.9930 0.9930 0.9930 0.9930 0.9930
1324.328059 0.9930 0.9930 0.9930 0.9930 0.9930
1328.721254 0.9930 0.9930 0.9930 0.9940 0.9940
1333.114450 0.9940 0.9930 0.9930 0.9930 0.9930
1337.507645 0.9930 0.9910 0.9910 0.9900 0.9900
1341.900840 0.9880 0.9880 0.9860 0.9860 0.9840
1346.294036 0.9830 0.9820 0.9800 0.9770 0.9750
1350.687231 0.9720 0.9690 0.9680 0.9660 0.9650
1355.080427 0.9650 0.9640 0.9640 0.9640 0.9640
1359.473622 0.9640 0.9610 0.9580 0.9550 0.9510
1363.866817 0.9460 0.9360 0.9320 0.9250 0.9220
1368.260013 0.9210 0.9240 0.9280 0.9350 0.9470
1372.653208 0.9530 0.9540 0.9550 0.9590 0.9610
1377.046404 0.9590 0.9570 0.9550 0.9540 0.9540
1381.439599 0.9510 0.9440 0.9430 0.9350 0.9260
1385.832794 0.9180 0.9140 0.9140 0.9080 0.9010
1390.225990 0.8960 0.8880 0.8780 0.8630 0.8420
1394.619185 0.8130 0.7771 0.7321 0.6752 0.6043
1399.012381 0.5700 0.5450 0.5270 0.5080 0.4970
1403.405576 0.4950 0.4970 0.5150 0.5728 0.6956
1407.798772 0.7730 0.8210 0.8530 0.8860 0.9319
1412.191967 0.9470 0.9570 0.9590 0.9660 0.9680
1416.585162 0.9730 0.9750 0.9760 0.9790 0.9800
1420.978358 0.9800 0.9800 0.9790 0.9790 0.9790
1425.371553 0.9800 0.9800 0.9800 0.9800 0.9800
1429.764749 0.9800 0.9820 0.9820 0.9800 0.9800
1434.157944 0.9800 0.9800 0.9800 0.9800 0.9800
1438.551139 0.9800 0.9790 0.9790 0.9790 0.9790
1442.944335 0.9790 0.9770 0.9770 0.9760 0.9750
1447.337530 0.9720 0.9700 0.9700 0.9690 0.9680
1451.730726 0.9640 0.9590 0.9590 0.9570 0.9570
1456.123921 0.9570 0.9570 0.9550 0.9550 0.9550
1460.517116 0.9540 0.9530 0.9480 0.9460 0.9440
1464.910312 0.9440 0.9430 0.9370 0.9330 0.9320
1469.303507 0.9290 0.9220 0.9140 0.8950 0.8740
1473.696703 0.8670 0.8411 0.8191 0.7811 0.7093
1478.089898 0.6349 0.5599 0.4000 0.3390 0.2122
1482.483093 0.1761 0.1401 0.1041 0.0871 0.0691
1486.876289 0.0330 0.0000 0.0000 0.1130 0.1859
1491.269484 0.1860 0.1571 0.1420 0.1280 0.1041
1495.662680 0.0920 0.0780 0.1180 0.1600 0.2179
1500.055875 0.4246 0.5587 0.6926 0.7079 0.7229
1504.449070 0.7380 0.7500 0.7580 0.7610 0.7650
1508.842266 0.7660 0.7660 0.7620 0.7580 0.7560
1513.235461 0.7550 0.7510 0.7470 0.7440 0.7410
1517.628657 0.7380 0.7340 0.7320 0.7260 0.7200
1522.021852 0.7140 0.7050 0.7030 0.7000 0.6970
1526.415048 0.6930 0.6860 0.6760 0.6710 0.6610
1530.808243 0.6530 0.6430 0.6350 0.6320 0.6280
1535.201438 0.6160 0.6000 0.5990 0.5950 0.5850
1539.594634 0.5580 0.5380 0.5260 0.5220 0.5170
1543.987829 0.5130 0.5040 0.4970 0.4900 0.4840
1548.381025 0.4800 0.4760 0.4720 0.4680 0.4660
1552.774220 0.4660 0.4680 0.4770 0.4830 0.4910
1557.167415 0.4980 0.5090 0.5230 0.5310 0.5370
1561.560611 0.5380 0.5400 0.5440 0.5490 0.5600
1565.953806 0.5770 0.5870 0.5870 0.5840 0.5840
1570.347002 0.5820 0.5810 0.5800 0.5780 0.5770
1574.740197 0.5750 0.5750 0.5750 0.5770 0.5770
1579.133392 0.5800 0.5810 0.5820 0.5820 0.5800
1583.526588 0.5770 0.5740 0.5670 0.5600 0.5420
1587.919783 0.5220 0.5110 0.5010 0.4761 0.4262
1592.312979 0.3379 0.2230 0.1800 0.1290 0.1040
1596.706174 0.0780 0.0341 0.0240 0.0240 0.3906
1601.099369 0.5051 0.5851 0.6400 0.6760 0.6980
1605.492565 0.7150 0.7300 0.7470 0.7610 0.7690
1609.885760 0.7920 0.8230 0.8460 0.8590 0.8790
1614.278956 0.8890 0.8970 0.9100 0.9180 0.9290
1618.672151 0.9290 0.9320 0.9360 0.9410 0.9440
1623.065347 0.9460 0.9470 0.9500 0.9510 0.9530
1627.458542 0.9540 0.9550 0.9570 0.9570 0.9580
1631.851737 0.9590 0.9590 0.9590 0.9590 0.9590
1636.244933 0.9590 0.9590 0.9580 0.9580 0.9550
1640.638128 0.9550 0.9540 0.9530 0.9530 0.9500
1645.031324 0.9440 0.9140 0.9000 0.8970 0.8930
1649.424519 0.8880 0.8810 0.8770 0.8720 0.8710
1653.817714 0.8680 0.8680 0.8670 0.8670 0.8700
1658.210910 0.8720 0.8810 0.8890 0.9010 0.9139
1662.604105 0.9260 0.9330 0.9370 0.9390 0.9410
1666.997301 0.9430 0.9440 0.9460 0.9470 0.9460
1671.390496 0.9430 0.9400 0.9370 0.9330 0.9300
1675.783691 0.9260 0.9240 0.9210 0.9180 0.9170
1680.176887 0.9140 0.9120 0.9140 0.9240 0.9290
1684.570082 0.9400 0.9460 0.9470 0.9480 0.9510
1688.963278 0.9570 0.9660 0.9730 0.9750 0.9750
1693.356473 0.9760 0.9770 0.9820 0.9820 0.9830
1697.749668 0.9830 0.9840 0.9840 0.9860 0.9860
1702.142864 0.9860 0.9870 0.9870 0.9870 0.9880
1706.536059 0.9880 0.9880 0.9900 0.9910 0.9930
1710.929255 0.9910 0.9910 0.9910 0.9910 0.9910
1715.322450 0.9910 0.9900 0.9880 0.9880 0.9880
1719.715646 0.9880 0.9880 0.9880 0.9880 0.9900
1724.108841 0.9900 0.9910 0.9930 0.9930 0.9940
1728.502036 0.9950 0.9970 0.9970 0.9970 0.9970
1732.895232 0.9970 0.9970 0.9970 0.9970 0.9970
1737.288427 0.9970 0.9950 0.9950 0.9930 0.9900
1741.681623 0.9880 0.9880 0.9900 0.9900 0.9900
1746.074818 0.9900 0.9910 0.9910 0.9930 0.9940
1750.468013 0.9940 0.9900 0.9900 0.9880 0.9880
1754.861209 0.9870 0.9870 0.9870 0.9870 0.9870
1759.254404 0.9870 0.9860 0.9860 0.9860 0.9840
1763.647600 0.9830 0.9800 0.9790 0.9770 0.9760
1768.040795 0.9750 0.9720 0.9700 0.9640 0.9590
1772.433990 0.9570 0.9540 0.9530 0.9500 0.9470
1776.827186 0.9410 0.9370 0.9360 0.9390 0.9410
1781.220381 0.9440 0.9460 0.9460 0.9440 0.9440
1785.613577 0.9430 0.9430 0.9440 0.9460 0.9500
1790.006772 0.9540 0.9580 0.9650 0.9690 0.9730
1794.399967 0.9750 0.9760 0.9760 0.9770 0.9790
1798.793163 0.9800 0.9820 0.9830 0.9830 0.9840
1803.186358 0.9840 0.9840 0.9840 0.9840 0.9840
1807.579554 0.9860 0.9840 0.9870 0.9880 0.9880
1811.972749 0.9880 0.9880 0.9880 0.9880 0.9870
1816.365945 0.9870 0.9880 0.9900 0.9900 0.9900
1820.759140 0.9900 0.9880 0.9880 0.9880 0.9880
1825.152335 0.9880 0.9880 0.9900 0.9900 0.9900
1829.545531 0.9900 0.9930 0.9930 0.9910 0.9900
1833.938726 0.9900 0.9880 0.9880 0.9880 0.9880
1838.331922 0.9880 0.9880 0.9880 0.9880 0.9880
1842.725117 0.9880 0.9880 0.9900 0.9900 0.9900
1847.118312 0.9900 0.9900 0.9900 0.9900 0.9900
1851.511508 0.9900 0.9880 0.9880 0.9880 0.9860
1855.904703 0.9860 0.9860 0.9860 0.9860 0.9840
1860.297899 0.9840 0.9840 0.9840 0.9830 0.9830
1864.691094 0.9830 0.9830 0.9820 0.9820 0.9820
1869.084289 0.9800 0.9800 0.9770 0.9750 0.9700
1873.477485 0.9690 0.9680 0.9700 0.9750 0.9770
1877.870680 0.9790 0.9800 0.9830 0.9840 0.9840
1882.263876 0.9830 0.9830 0.9830 0.9830 0.9830
1886.657071 0.9820 0.9800 0.9760 0.9720 0.9700
1891.050266 0.9660 0.9580 0.9570 0.9540 0.9530
1895.443462 0.9500 0.9460 0.9430 0.9390 0.9320
1899.836657 0.9240 0.9170 0.9080 0.8990 0.8890
1904.229853 0.8790 0.8680 0.8540 0.8410 0.8231
1908.623048 0.8190 0.8200 0.8370 0.8460 0.8600
1913.016243 0.8700 0.8850 0.8960 0.9110 0.9150
1917.409439 0.9290 0.9370 0.9430 0.9480 0.9590
1921.802634 0.9680 0.9730 0.9750 0.9750 0.9760
1926.195830 0.9760 0.9770 0.9790 0.9790 0.9820
1930.589025 0.9830 0.9840 0.9840 0.9860 0.9840
1934.982221 0.9840 0.9860 0.9860 0.9860 0.9860
1939.375416 0.9860 0.9860 0.9860 0.9870 0.9870
1943.768611 0.9880 0.9880 0.9900 0.9900 0.9900
1948.161807 0.9900 0.9910 0.9900 0.9900 0.9900
1952.555002 0.9900 0.9900 0.9900 0.9900 0.9900
1956.948198 0.9900 0.9880 0.9880 0.9880 0.9880
1961.341393 0.9880 0.9880 0.9880 0.9880 0.9880
1965.734588 0.9880 0.9880 0.9880 0.9900 0.9900
1970.127784 0.9900 0.9910 0.9910 0.9910 0.9930
1974.520979 0.9930 0.9930 0.9940 0.9940 0.9940
1978.914175 0.9940 0.9940 0.9940 0.9940 0.9940
1983.307370 0.9940 0.9940 0.9940 0.9940 0.9940
1987.700565 0.9940 0.9940 0.9940 0.9940 0.9940
1992.093761 0.9940 0.9950 0.9950 0.9950 0.9970
1996.486956 0.9970 0.9970 0.9980 0.9980 0.9980
2000.880152 0.9990 1.0000 1.0000 1.0000 1.0005
2005.273347 1.0010 1.0010 1.0010 1.0010 1.0010
2009.666542 1.0015 1.0020 1.0020 1.0020 1.0020
2014.059738 1.0020 1.0020 1.0020 1.0020 1.0020
2018.452933 1.0020 1.0020 1.0020 1.0020 1.0020
2022.846129 1.0020 1.0020 1.0020 1.0020 1.0020
2027.239324 1.0020 1.0020 1.0020 1.0020 1.0030
2031.632520 1.0040 1.0040 1.0040 1.0040 1.0040
2036.025715 1.0040 1.0040 1.0040 1.0040 1.0040
2040.418910 1.0040 1.0040 1.0040 1.0040 1.0040
2044.812106 1.0040 1.0040 1.0040 1.0040 1.0040
2049.205301 1.0040 1.0040 1.0040 1.0045 1.0050
2053.598497 1.0050 1.0050 1.0050 1.0050 1.0050
2057.991692 1.0050 1.0050 1.0050 1.0055 1.0060
2062.384887 1.0060 1.0060 1.0060 1.0060 1.0055
2066.778083 1.0050 1.0055 1.0060 1.0060 1.0060
2071.171278 1.0060 1.0060 1.0060 1.0060 1.0060
2075.564474 1.0060 1.0060 1.0060 1.0060 1.0060
2079.957669 1.0060 1.0060 1.0060 1.0060 1.0060
2084.350864 1.0060 1.0060 1.0060 1.0060 1.0060
2088.744060 1.0060 1.0060 1.0060 1.0060 1.0060
2093.137255 1.0060 1.0060 1.0060 1.0060 1.0060
2097.530451 1.0060 1.0060 1.0060 1.0060 1.0060
2101.923646 1.0060 1.0060 1.0060 1.0060 1.0060
2106.316841 1.0060 1.0060 1.0060 1.0060 1.0060
2110.710037 1.0060 1.0060 1.0060 1.0060 1.0060
2115.103232 1.0060 1.0060 1.0060 1.0060 1.0060
2119.496428 1.0060 1.0060 1.0060 1.0060 1.0060
2123.889623 1.0060 1.0060 1.0055 1.0050 1.0050
2128.282819 1.0050 1.0050 1.0050 1.0050 1.0050
2132.676014 1.0050 1.0050 1.0046 1.0040 1.0040
2137.069209 1.0040 1.0040 1.0040 1.0040 1.0040
2141.462405 1.0040 1.0040 1.0031 1.0021 1.0020
2145.855600 1.0020 1.0020 1.0020 1.0020 1.0020
2150.248796 1.0020 1.0020 1.0020 1.0020 1.0020
2154.641991 1.0020 1.0020 1.0020 1.0020 1.0020
2159.035186 1.0020 1.0020 1.0020 1.0020 1.0020
2163.428382 1.0020 1.0020 1.0020 1.0016 1.0011
2167.821577 1.0010 1.0010 1.0010 1.0010 1.0010
2172.214773 1.0010 1.0006 1.0001 0.9991 0.9981
2176.607968 0.9967 0.9952 0.9910 0.9865 0.9833
2181.001163 0.9804 0.9787 0.9772 0.9779 0.9789
2185.394359 0.9794 0.9799 0.9813 0.9828 0.9843
2189.787554 0.9858 0.9864 0.9869 0.9874 0.9879
2194.180750 0.9880 0.9880 0.9889 0.9899 0.9900
2198.573945 0.9900 0.9891 0.9881 0.9863 0.9843
2202.967140 0.9831 0.9821 0.9811 0.9801 0.9800
2207.360336 0.9800 0.9787 0.9772 0.9761 0.9751
2211.753531 0.9741 0.9731 0.9717 0.9702 0.9696
2216.146727 0.9691 0.9660 0.9625 0.9586 0.9546
2220.539922 0.9493 0.9438 0.9387 0.9338 0.9279
2224.933117 0.9219 0.9071 0.8906 0.8642 0.8360
2229.326313 0.6983 0.5425 0.4282 0.3208 0.2131
2233.719508 0.1053 0.0733 0.0548 0.0520 0.0520
2238.112704 0.1189 0.1983 0.2844 0.3718 0.4675
2242.505899 0.5648 0.6580 0.7504 0.7962 0.8325
2246.899095 0.8626 0.8915 0.9171 0.9421 0.9506
2251.292290 0.9561 0.9604 0.9643 0.9650 0.9650
2255.685485 0.9650 0.9650 0.9650 0.9650 0.9650
2260.078681 0.9650 0.9646 0.9641 0.9632 0.9622
2264.471876 0.9620 0.9620 0.9616 0.9611 0.9610
2268.865072 0.9610 0.9602 0.9592 0.9590 0.9590
2273.258267 0.9586 0.9581 0.9580 0.9580 0.9576
2277.651462 0.9571 0.9562 0.9552 0.9546 0.9541
2282.044658 0.9540 0.9540 0.9536 0.9531 0.9530
2286.437853 0.9530 0.9522 0.9512 0.9506 0.9501
2290.831049 0.9476 0.9446 0.9428 0.9413 0.9406
2295.224244 0.9401 0.9404 0.9409 0.9462 0.9528
2299.617439 0.9560 0.9585 0.9614 0.9644 0.9654
2304.010635 0.9659 0.9672 0.9687 0.9706 0.9726
2308.403830 0.9738 0.9748 0.9758 0.9768 0.9782
2312.797026 0.9797 0.9812 0.9827 0.9842 0.9857
2317.190221 0.9876 0.9896 0.9916 0.9936 0.9972
2321.583416 1.0012 1.0032 1.0047 1.0050 1.0050
2325.976612 1.0054 1.0059 1.0060 1.0060 1.0060
2330.369807 1.0060 1.0060 1.0060 1.0060 1.0060
2334.763003 1.0060 1.0060 1.0060 1.0060 1.0056
2339.156198 1.0051 1.0050 1.0050 1.0046 1.0041
2343.549394 1.0040 1.0040 1.0032 1.0022 1.0016
2347.942589 1.0011 1.0010 1.0010 1.0010 1.0010
2352.335784 1.0006 1.0001 1.0000 1.0000 1.0000
2356.728980 1.0000 0.9992 0.9982 0.9976 0.9971
2361.122175 0.9962 0.9952 0.9950 0.9950 0.9946
2365.515371 0.9941 0.9936 0.9931 0.9930 0.9930
2369.908566 0.9922 0.9912 0.9910 0.9910 0.9906
2374.301761 0.9901 0.9900 0.9900 0.9892 0.9882
2378.694957 0.9880 0.9880 0.9880 0.9880 0.9880
2383.088152 0.9880 0.9876 0.9871 0.9870 0.9870
2387.481348 0.9866 0.9861 0.9837 0.9807 0.9781
2391.874543 0.9756 0.9743 0.9733 0.9730 0.9730
2396.267738 0.9741 0.9756 0.9771 0.9786 0.9808
2400.660934 0.9833 0.9847 0.9857 0.9867 0.9877
2405.054129 0.9891 0.9906 0.9910 0.9910 0.9910
2409.447325 0.9910 0.9917 0.9927 0.9930 0.9930
2413.840520 0.9934 0.9939 0.9944 0.9949 0.9957
2418.233715 0.9967 0.9974 0.9979 0.9987 0.9997
2422.626911 1.0000 1.0000 1.0004 1.0009 1.0010
2427.020106 1.0010 1.0010 1.0010 1.0014 1.0019
2431.413302 1.0020 1.0020 1.0020 1.0020 1.0020
2435.806497 1.0020 1.0020 1.0020 1.0020 1.0020
2440.199693 1.0020 1.0020 1.0020 1.0020 1.0027
2444.592888 1.0037 1.0040 1.0040 1.0040 1.0040
2448.986083 1.0040 1.0040 1.0040 1.0040 1.0040
2453.379279 1.0040 1.0033 1.0023 1.0020 1.0020
2457.772474 1.0016 1.0011 1.0010 1.0010 1.0010
2462.165670 1.0010 1.0010 1.0010 1.0007 1.0002
2466.558865 0.9993 0.9983 0.9980 0.9980 0.9980
2470.952060 0.9980 0.9980 0.9980 0.9980 0.9980
2475.345256 0.9980 0.9980 0.9980 0.9980 0.9977
2479.738451 0.9972 0.9970 0.9970 0.9963 0.9953
2484.131647 0.9950 0.9950 0.9947 0.9942 0.9940
2488.524842 0.9940 0.9937 0.9932 0.9930 0.9930
2492.918037 0.9923 0.9913 0.9910 0.9910 0.9907
2497.311233 0.9902 0.9910 0.9925 0.9930 0.9930
2501.704428 0.9937 0.9947 0.9957 0.9967 0.9970
2506.097624 0.9970 0.9970 0.9970 0.9960 0.9945
2510.490819 0.9937 0.9932 0.9923 0.9913 0.9910
2514.884014 0.9910 0.9910 0.9910 0.9910 0.9910
2519.277210 0.9907 0.9902 0.9893 0.9883 0.9880
2523.670405 0.9880 0.9880 0.9880 0.9873 0.9863
2528.063601 0.9836 0.9802 0.9770 0.9740 0.9720
2532.456796 0.9705 0.9700 0.9700 0.9707 0.9717
2536.849992 0.9723 0.9728 0.9737 0.9747 0.9753
2541.243187 0.9758 0.9757 0.9752 0.9740 0.9725
2545.636382 0.9710 0.9695 0.9680 0.9665 0.9647
2550.029578 0.9627 0.9610 0.9595 0.9590 0.9590
2554.422773 0.9577 0.9557 0.9563 0.9583 0.9625
2558.815969 0.9680 0.9719 0.9749 0.9773 0.9793
2563.209164 0.9807 0.9816 0.9820 0.9820 0.9810
2567.602359 0.9795 0.9780 0.9765 0.9757 0.9752
2571.995555 0.9740 0.9726 0.9714 0.9704 0.9700
2576.388750 0.9700 0.9709 0.9724 0.9739 0.9755
2580.781946 0.9763 0.9768 0.9776 0.9786 0.9793
2585.175141 0.9798 0.9822 0.9857 0.9879 0.9894
2589.568336 0.9903 0.9908 0.9916 0.9926 0.9930
2593.961532 0.9930 0.9930 0.9930 0.9930 0.9930
2598.354727 0.9930 0.9930 0.9924 0.9914 0.9901
2602.747923 0.9886 0.9877 0.9872 0.9870 0.9870
2607.141118 0.9870 0.9870 0.9873 0.9878 0.9898
2611.534313 0.9928 0.9943 0.9948 0.9950 0.9950
2615.927509 0.9959 0.9974 0.9980 0.9980 0.9986
2620.320704 0.9996 0.9994 0.9984 0.9980 0.9980
2624.713900 0.9980 0.9980 0.9980 0.9980 0.9980
2629.107095 0.9980 0.9977 0.9972 0.9970 0.9970
2633.500290 0.9970 0.9970 0.9973 0.9978 0.9980
2637.893486 0.9980 0.9980 0.9980 0.9977 0.9972
2642.286681 0.9970 0.9970 0.9964 0.9954 0.9947
2646.679877 0.9942 0.9940 0.9940 0.9937 0.9932
2651.073072 0.9924 0.9914 0.9910 0.9910 0.9907
2655.466268 0.9902 0.9894 0.9884 0.9877 0.9872
2659.859463 0.9870 0.9870 0.9870 0.9870 0.9870
2664.252658 0.9870 0.9873 0.9878 0.9880 0.9880
2668.645854 0.9886 0.9896 0.9900 0.9900 0.9894
2673.039049 0.9884 0.9886 0.9896 0.9900 0.9900
2677.432245 0.9903 0.9908 0.9910 0.9910 0.9916
2681.825440 0.9926 0.9930 0.9930 0.9930 0.9930
2686.218635 0.9933 0.9938 0.9940 0.9940 0.9943
2690.611831 0.9948 0.9950 0.9950 0.9950 0.9950
2695.005026 0.9956 0.9966 0.9970 0.9970 0.9970
2699.398222 0.9970 0.9970 0.9970 0.9973 0.9978
2703.791417 0.9980 0.9980 0.9980 0.9980 0.9986
2708.184612 0.9996 1.0000 1.0000 1.0000 1.0000
2712.577808 1.0000 1.0000 1.0000 1.0000 1.0000
2716.971003 1.0000 1.0000 1.0000 1.0000 1.0000
2721.364199 1.0000 1.0000 1.0000 1.0000 1.0000
2725.757394 1.0000 1.0000 1.0000 0.9995 0.9985
2730.150589 0.9980 0.9980 0.9980 0.9980 0.9977
2734.543785 0.9972 0.9965 0.9955 0.9950 0.9950
2738.936980 0.9947 0.9942 0.9940 0.9940 0.9937
2743.330176 0.9932 0.9925 0.9915 0.9910 0.9910
2747.723371 0.9907 0.9902 0.9900 0.9900 0.9895
2752.116567 0.9885 0.9880 0.9880 0.9880 0.9880
2756.509762 0.9877 0.9872 0.9867 0.9862 0.9855
2760.902957 0.9845 0.9835 0.9825 0.9812 0.9797
2765.296153 0.9785 0.9775 0.9770 0.9770 0.9765
2769.689348 0.9755 0.9742 0.9727 0.9715 0.9705
2774.082544 0.9697 0.9692 0.9680 0.9660 0.9640
2778.475739 0.9620 0.9613 0.9618 0.9640 0.9680
2782.868934 0.9718 0.9753 0.9775 0.9785 0.9797
2787.262130 0.9812 0.9830 0.9850 0.9865 0.9875
2791.655325 0.9885 0.9895 0.9908 0.9923 0.9930
2796.048521 0.9930 0.9932 0.9937 0.9942 0.9947
2800.441716 0.9955 0.9965 0.9965 0.9955 0.9950
2804.834911 0.9950 0.9948 0.9943 0.9933 0.9918
2809.228107 0.9910 0.9910 0.9910 0.9910 0.9908
2813.621302 0.9903 0.9895 0.9885 0.9880 0.9880
2818.014498 0.9880 0.9880 0.9885 0.9895 0.9900
2822.407693 0.9900 0.9902 0.9907 0.9910 0.9910
2826.800888 0.9910 0.9910 0.9915 0.9925 0.9930
2831.194084 0.9930 0.9932 0.9937 0.9940 0.9940
2835.587279 0.9942 0.9947 0.9950 0.9950 0.9950
2839.980475 0.9950 0.9955 0.9965 0.9970 0.9970
2844.373670 0.9972 0.9977 0.9978 0.9973 0.9970
2848.766866 0.9970 0.9970 0.9970 0.9970 0.9970
2853.160061 0.9965 0.9955 0.9950 0.9950 0.9950
2857.553256 0.9950 0.9950 0.9950 0.9950 0.9950
2861.946452 0.9948 0.9943 0.9942 0.9947 0.9950
2866.339647 0.9950 0.9950 0.9950 0.9955 0.9964
2870.732843 0.9970 0.9970 0.9972 0.9977 0.9980
2875.126038 0.9980 0.9984 0.9994 1.0002 1.0007
2879.519233 1.0008 1.0003 0.9996 0.9986 0.9980
2883.912429 0.9980 0.9984 0.9994 1.0002 1.0007
2888.305624 1.0010 1.0010 1.0010 1.0010 1.0008
2892.698820 1.0003 1.0000 1.0000 1.0000 1.0000
2897.092015 0.9996 0.9986 0.9980 0.9980 0.9980
2901.485210 0.9980 0.9984 0.9994 1.0000 1.0000
2905.878406 1.0002 1.0007 1.0010 1.0010 1.0010
2910.271601 1.0010 1.0008 1.0003 1.0000 1.0000
2914.664797 1.0002 1.0007 1.0010 1.0010 1.0010
2919.057992 1.0010 1.0010 1.0010 1.0010 1.0010
2923.451187 1.0010 1.0010 1.0010 1.0010 1.0010
2927.844383 1.0010 1.0010 1.0010 1.0010 1.0010
2932.237578 1.0010 1.0010 1.0010 1.0010 1.0010
2936.630774 1.0010 1.0010 1.0010 1.0008 1.0003
2941.023969 0.9996 0.9986 0.9980 0.9980 0.9980
2945.417164 0.9980 0.9980 0.9980 0.9978 0.9973
2949.810360 0.9970 0.9970 0.9966 0.9956 0.9950
2954.203555 0.9950 0.9950 0.9950 0.9950 0.9950
2958.596751 0.9950 0.9950 0.9950 0.9950 0.9950
2962.989946 0.9950 0.9950 0.9950 0.9950 0.9950
2967.383142 0.9950 0.9950 0.9950 0.9950 0.9950
2971.776337 0.9950 0.9950 0.9950 0.9950 0.9950
2976.169532 0.9950 0.9950 0.9950 0.9950 0.9950
2980.562728 0.9950 0.9950 0.9950 0.9948 0.9943
2984.955923 0.9940 0.9940 0.9940 0.9940 0.9938
2989.349119 0.9933 0.9930 0.9930 0.9930 0.9930
2993.742314 0.9926 0.9916 0.9908 0.9903 0.9900
2998.135509 0.9900 0.9896 0.9886 0.9880 0.9880
3002.528705 0.9878 0.9873 0.9868 0.9863 0.9856
3006.921900 0.9846 0.9840 0.9840 0.9838 0.9833
3011.315096 0.9830 0.9830 0.9828 0.9823 0.9820
3015.708291 0.9820 0.9816 0.9807 0.9800 0.9800
3020.101486 0.9800 0.9800 0.9800 0.9800 0.9800
3024.494682 0.9800 0.9798 0.9793 0.9786 0.9776
3028.887877 0.9767 0.9757 0.9738 0.9703 0.9675
3033.281073 0.9660 0.9648 0.9643 0.9637 0.9627
3037.674268 0.9608 0.9573 0.9546 0.9537 0.9530
3042.067463 0.9530 0.9537 0.9557 0.9572 0.9577
3046.460659 0.9580 0.9580 0.9580 0.9580 0.9575
3050.853854 0.9560 0.9548 0.9543 0.9540 0.9540
3055.247050 0.9538 0.9533 0.9522 0.9497 0.9468
3059.640245 0.9433 0.9402 0.9377 0.9358 0.9353
3064.033441 0.9347 0.9337 0.9330 0.9330 0.9325
3068.426636 0.9310 0.9298 0.9293 0.9282 0.9257
3072.819831 0.9237 0.9227 0.9223 0.9233 0.9247
3077.213027 0.9266 0.9283 0.9293 0.9308 0.9333
3081.606222 0.9350 0.9350 0.9342 0.9317 0.9291
3085.999418 0.9261 0.9215 0.9136 0.9052 0.8962
3090.392613 0.8900 0.8900 0.8910 0.8940 0.8968
3094.785808 0.8993 0.9026 0.9076 0.9116 0.9136
3099.179004 0.9164 0.9209 0.9257 0.9312 0.9357
3103.572199 0.9382 0.9406 0.9426 0.9449 0.9479
3107.965395 0.9505 0.9520 0.9533 0.9543 0.9553
3112.358590 0.9563 0.9573 0.9583 0.9594 0.9609
3116.751785 0.9624 0.9639 0.9651 0.9656 0.9660
3121.144981 0.9660 0.9660 0.9660 0.9660 0.9660
3125.538176 0.9660 0.9660 0.9664 0.9679 0.9691
3129.931372 0.9696 0.9703 0.9713 0.9724 0.9739
3134.324567 0.9756 0.9776 0.9794 0.9809 0.9821
3138.717762 0.9826 0.9830 0.9830 0.9831 0.9836
3143.110958 0.9843 0.9853 0.9863 0.9873 0.9883
3147.504153 0.9893 0.9900 0.9900 0.9900 0.9900
3151.897349 0.9900 0.9900 0.9900 0.9900 0.9900
3156.290544 0.9900 0.9900 0.9900 0.9897 0.9887
3160.683740 0.9880 0.9880 0.9880 0.9880 0.9883
3165.076935 0.9893 0.9897 0.9887 0.9880 0.9880
3169.470130 0.9883 0.9893 0.9904 0.9919 0.9930
3173.863326 0.9930 0.9931 0.9936 0.9940 0.9940
3178.256521 0.9939 0.9934 0.9927 0.9917 0.9909
3182.649717 0.9904 0.9897 0.9887 0.9880 0.9880
3187.042912 0.9877 0.9868 0.9860 0.9860 0.9870
3191.436107 0.9910 0.9941 0.9946 0.9952 0.9962
3195.829303 0.9970 0.9970 0.9970 0.9970 0.9971
3200.222498 0.9976 0.9980 0.9980 0.9984 0.9999
3204.615694 1.0010 1.0010 1.0010 1.0010 1.0010
3209.008889 1.0010 1.0011 1.0016 1.0020 1.0020
3213.402084 1.0020 1.0020 1.0020 1.0020 1.0020
3217.795280 1.0020 1.0022 1.0032 1.0040 1.0040
3222.188475 1.0040 1.0040 1.0040 1.0040 1.0040
3226.581671 1.0040 1.0041 1.0046 1.0050 1.0050
3230.974866 1.0050 1.0050 1.0050 1.0050 1.0050
3235.368061 1.0050 1.0050 1.0050 1.0050 1.0050
3239.761257 1.0050 1.0050 1.0050 1.0050 1.0050
3244.154452 1.0050 1.0050 1.0050 1.0050 1.0050
3248.547648 1.0050 1.0050 1.0050 1.0050 1.0050
3252.940843 1.0050 1.0050 1.0050 1.0050 1.0050
3257.334039 1.0050 1.0050 1.0050 1.0050 1.0050
3261.727234 1.0050 1.0050 1.0050 1.0050 1.0050
3266.120429 1.0051 1.0056 1.0060 1.0060 1.0060
3270.513625 1.0060 1.0060 1.0060 1.0060 1.0060
3274.906820 1.0060 1.0060 1.0060 1.0060 1.0062
3279.300016 1.0072 1.0078 1.0068 1.0060 1.0060
3283.693211 1.0060 1.0060 1.0062 1.0072 1.0080
3288.086406 1.0080 1.0078 1.0068 1.0060 1.0060
3292.479602 1.0060 1.0060 1.0060 1.0060 1.0060
3296.872797 1.0060 1.0059 1.0054 1.0050 1.0050
3301.265993 1.0050 1.0050 1.0050 1.0050 1.0049
3305.659188 1.0044 1.0040 1.0040 1.0040 1.0040
3310.052383 1.0040 1.0040 1.0040 1.0040 1.0040
3314.445579 1.0040 1.0040 1.0040 1.0040 1.0040
3318.838774 1.0040 1.0040 1.0040 1.0040 1.0040
3323.231970 1.0040 1.0040 1.0040 1.0040 1.0040
3327.625165 1.0040 1.0040 1.0040 1.0040 1.0040
3332.018360 1.0040 1.0040 1.0040 1.0040 1.0040
3336.411556 1.0040 1.0040 1.0040 1.0040 1.0040
3340.804751 1.0040 1.0040 1.0040 1.0040 1.0040
3345.197947 1.0040 1.0040 1.0040 1.0040 1.0040
3349.591142 1.0040 1.0040 1.0040 1.0040 1.0040
3353.984337 1.0040 1.0040 1.0040 1.0040 1.0040
3358.377533 1.0040 1.0040 1.0040 1.0039 1.0029
3362.770728 1.0020 1.0020 1.0020 1.0020 1.0020
3367.163924 1.0020 1.0020 1.0020 1.0020 1.0020
3371.557119 1.0020 1.0020 1.0020 1.0020 1.0019
3375.950315 1.0014 1.0010 1.0010 1.0010 1.0010
3380.343510 1.0010 1.0010 1.0009 1.0004 1.0000
3384.736705 1.0000 1.0000 1.0000 0.9999 0.9989
3389.129901 0.9980 0.9980 0.9980 0.9980 0.9980
3393.523096 0.9980 0.9979 0.9974 0.9969 0.9959
3397.916292 0.9949 0.9939 0.9929 0.9919 0.9908
3402.309487 0.9893 0.9877 0.9852 0.9829 0.9824
3406.702682 0.9821 0.9826 0.9832 0.9847 0.9861
3411.095878 0.9866 0.9870 0.9870 0.9870 0.9870
3415.489073 0.9869 0.9864 0.9859 0.9849 0.9836
3419.882269 0.9801 0.9769 0.9759 0.9747 0.9717
3424.275464 0.9688 0.9673 0.9660 0.9660 0.9665
3428.668659 0.9715 0.9762 0.9777 0.9792 0.9806
3433.061855 0.9821 0.9831 0.9842 0.9862 0.9882
3437.455050 0.9907 0.9932 0.9952 0.9972 0.9992
3441.848246 1.0010 1.0010 1.0011 1.0015 1.0020
3446.241441 1.0020 1.0020 1.0020 1.0020 1.0020
3450.634636 1.0020 1.0020 1.0020 1.0020 1.0020
3455.027832 1.0020 1.0020 1.0020 1.0020 1.0020
3459.421027 1.0020 1.0020 1.0020 1.0020 1.0020
3463.814223 1.0020 1.0020 1.0020 1.0020 1.0020
3468.207418 1.0020 1.0020 1.0020 1.0020 1.0020
3472.600614 1.0020 1.0020 1.0020 1.0020 1.0020
3476.993809 1.0020 1.0020 1.0020 1.0020 1.0020
3481.387004 1.0020 1.0020 1.0020 1.0020 1.0020
3485.780200 1.0020 1.0020 1.0020 1.0020 1.0020
3490.173395 1.0020 1.0020 1.0020 1.0020 1.0020
3494.566591 1.0020 1.0020 1.0020 1.0020 1.0020
3498.959786 1.0020 1.0020 1.0020 1.0020 1.0020
3503.352981 1.0020 1.0020 1.0020 1.0020 1.0020
3507.746177 1.0020 1.0020 1.0020 1.0020 1.0020
3512.139372 1.0020 1.0020 1.0020 1.0020 1.0020
3516.532568 1.0020 1.0020 1.0020 1.0020 1.0020
3520.925763 1.0020 1.0030 1.0040 1.0040 1.0040
3525.318958 1.0040 1.0040 1.0040 1.0040 1.0040
3529.712154 1.0040 1.0040 1.0040 1.0040 1.0040
3534.105349 1.0040 1.0040 1.0040 1.0040 1.0040
3538.498545 1.0040 1.0040 1.0040 1.0040 1.0040
3542.891740 1.0040 1.0040 1.0040 1.0040 1.0040
3547.284935 1.0040 1.0040 1.0040 1.0040 1.0040
3551.678131 1.0040 1.0040 1.0040 1.0040 1.0040
3556.071326 1.0040 1.0040 1.0040 1.0040 1.0040
3560.464522 1.0040 1.0040 1.0040 1.0040 1.0040
3564.857717 1.0040 1.0040 1.0040 1.0040 1.0040
3569.250913 1.0040 1.0040 1.0040 1.0040 1.0040
3573.644108 1.0040 1.0040 1.0040 1.0040 1.0040
3578.037303 1.0040 1.0040 1.0040 1.0040 1.0040
3582.430499 1.0040 1.0040 1.0040 1.0040 1.0040
3586.823694 1.0040 1.0040 1.0040 1.0040 1.0040
3591.216890 1.0040 1.0040 1.0040 1.0040 1.0040
3595.610085 1.0040 1.0040 1.0030 1.0020 1.0020
3600.003280 1.0020 1.0015 1.0010 1.0010 1.0010
3604.396476 1.0010 1.0010 1.0010 1.0010 1.0010
3608.789671 1.0010 1.0005 1.0000 1.0000 1.0000
3613.182867 1.0000 1.0000 1.0000 1.0000 1.0000
3617.576062 1.0000 0.9990 0.9980 0.9980 0.9980
3621.969257 0.9980 0.9980 0.9980 0.9980 0.9980
3626.362453 0.9980 0.9980 0.9980 0.9975 0.9970
3630.755648 0.9970 0.9970 0.9970 0.9970 0.9970
3635.148844 0.9970 0.9960 0.9950 0.9950 0.9950
3639.542039 0.9945 0.9940 0.9935 0.9930 0.9930
3643.935234 0.9930 0.9920 0.9910 0.9905 0.9900
3648.328430 0.9900 0.9900 0.9890 0.9880 0.9880
3652.721625 0.9880 0.9880 0.9880 0.9890 0.9900
3657.114821 0.9905 0.9910 0.9920 0.9930 0.9930
3661.508016 0.9930 0.9935 0.9940 0.9935 0.9930
3665.901211 0.9930 0.9930 0.9921 0.9911 0.9910
3670.294407 0.9910 0.9905 0.9900 0.9900 0.9900
3674.687602 0.9900 0.9900 0.9900 0.9900 0.9900
3679.080798 0.9900 0.9905 0.9910 0.9929 0.9949
3683.473993 0.9959 0.9969 0.9975 0.9980 0.9980
3687.867189 0.9980 0.9989 0.9999 1.0000 1.0000
3692.260384 1.0000 1.0000 0.9991 0.9981 0.9980
3696.653579 0.9980 0.9975 0.9970 0.9970 0.9970
3701.046775 0.9961 0.9951 0.9950 0.9950 0.9945
3705.439970 0.9940 0.9940 0.9940 0.9940 0.9940
3709.833166 0.9945 0.9950 0.9950 0.9950 0.9959
3714.226361 0.9969 0.9970 0.9970 0.9975 0.9980
3718.619556 0.9975 0.9970 0.9970 0.9970 0.9970
3723.012752 0.9970 0.9970 0.9970 0.9961 0.9951
3727.405947 0.9945 0.9940 0.9940 0.9940 0.9935
3731.799143 0.9930 0.9935 0.9940 0.9940 0.9940
3736.192338 0.9945 0.9950 0.9959 0.9969 0.9975
3740.585533 0.9980 0.9980 0.9980 0.9989 0.9999
3744.978729 1.0000 1.0000 1.0000 1.0000 1.0000
3749.371924 1.0000 0.9991 0.9981 0.9980 0.9980
3753.765120 0.9980 0.9980 0.9980 0.9980 0.9980
3758.158315 0.9980 0.9980 0.9980 0.9980 0.9980
3762.551510 0.9980 0.9980 0.9980 0.9980 0.9980
3766.944706 0.9980 0.9980 0.9980 0.9980 0.9980
3771.337901 0.9980 0.9980 0.9980 0.9980 0.9980
3775.731097 0.9980 0.9980 0.9980 0.9980 0.9980
3780.124292 0.9980 0.9980 0.9980 0.9980 0.9980
3784.517488 0.9980 0.9980 0.9980 0.9980 0.9980
3788.910683 0.9980 0.9980
##END=
