##TITLE=p-CHLOROBENZONITRILE
##JCAMP-DX=4.24
##DATA TYPE=INFRARED SPECTRUM
##CLASS=COBLENTZ
##ORIGIN=DOW CHEMICAL COMPANY
##OWNER=COBLENTZ SOCIETY
Collection (C) 2018 copyright by the U.S. Secretary of Commerce
on behalf of the United States of America. All rights reserved.
##DATE=1960/01/06
##NAMES=4-chlorobenzonitrile
BENZONITRILE, 4-CHLORO-
##CAS REGISTRY NO=623-03-0
##MOLFORM=C7 H4 Cl N
##SOURCE REFERENCE=COBLENTZ NO. 6992
##$NIST SOURCE=COBLENTZ
##$NIST IMAGE=cob-r6992
##SPECTROMETER/DATA SYSTEM=DOW KBr FOREPRISM-GRATING
##INSTRUMENT PARAMETERS=BLAZED AT 3.5, 12.0, 20.0 MICRON, CHANGED AT 5.0, 7.5, 14.9 MICRON
$$ SPECTRAL FEATURE AT 660 CM^-^1 IS AN ARTIFACT CAUSED BY A CHANGE IN GRATING.
##STATE=GAS (VAPOR AT 100 C, N2 ADDED, TOTAL PRESSURE ABOUT 1 ATM.)
##PATH LENGTH=500 CM
##SAMPLING PROCEDURE=TRANSMISSION
##RESOLUTION=2
##DATA PROCESSING=DIGITIZED BY NIST FROM HARD COPY (FROM TWO SEGMENTS)
##XUNITS=1/CM
##YUNITS=TRANSMITTANCE
##XFACTOR=1.000000
##YFACTOR=1
##DELTAX=1.269042
##FIRSTX=430.203
##LASTX=3796.97
##FIRSTY=1.109
##MAXX=3796.97
##MINX=430.203
##MAXY=1.109
##MINY=0.063
##NPOINTS=2654
##XYDATA=(X++(Y..Y))
430.203000 1.1090 1.1070 1.1070 1.1070 1.1070
436.548208 1.1070 1.1070 1.1050 1.1050 1.1050
442.893416 1.1050 1.1050 1.1050 1.1050 1.1070
449.238624 1.1070 1.1070 1.1070 1.1070 1.1070
455.583832 1.1070 1.1050 1.1050 1.1050 1.1050
461.929040 1.1050 1.1050 1.1050 1.1030 1.1030
468.274247 1.1010 1.1010 1.1010 1.0990 1.0990
474.619455 1.0970 1.0970 1.0950 1.0910 1.0890
480.964663 1.0870 1.0870 1.0870 1.0870 1.0830
487.309871 1.0830 1.0790 1.0750 1.0730 1.0690
493.655079 1.0590 1.0550 1.0530 1.0470 1.0410
500.000287 1.0350 1.0310 1.0290 1.0250 1.0131
506.345495 1.0070 1.0010 0.9920 0.9800 0.9541
512.690703 0.9381 0.9181 0.9021 0.8980 0.8960
519.035911 0.8740 0.8460 0.8300 0.8140 0.7961
525.381119 0.7681 0.7600 0.7351 0.7032 0.6474
531.726326 0.5930 0.5390 0.5390 0.5849 0.5890
538.071534 0.5950 0.5970 0.6010 0.6030 0.6765
544.416742 0.7250 0.7470 0.7780 0.8399 0.8639
550.761950 0.9078 0.9478 0.9639 0.9700 0.9819
557.107158 0.9860 1.0010 1.0050 1.0130 1.0150
563.452366 1.0170 1.0190 1.0210 1.0190 1.0170
569.797574 1.0150 1.0010 0.9820 0.9600 0.9161
576.142782 0.8761 0.8362 0.7962 0.7682 0.6776
582.487990 0.6590 0.6570 0.6550 0.6550 0.6550
588.833198 0.6550 0.6570 0.6610 0.6789 0.7366
595.178406 0.7680 0.8739 0.9179 0.9599 1.0029
601.523613 1.0150 1.0170 1.0190 1.0230 1.0230
607.868821 1.0230 1.0190 1.0150 1.0090 1.0030
614.214029 1.0010 0.9980 0.9980 0.9960 0.9960
620.559237 0.9960 0.9960 0.9980 0.9980 1.0030
626.904445 1.0090 1.0130 1.0230 1.0250 1.0270
633.249653 1.0270 1.0290 1.0290 1.0290 1.0270
639.594861 1.0270 1.0270 1.0250 1.0250 1.0230
645.940069 1.0230 1.0230 1.0170 1.0170 1.0150
652.285277 1.0130 1.0090 1.0090 1.0050 1.0030
658.630485 1.0030 1.0030 1.0270 1.0889 1.0890
664.975693 1.0850 1.0790 1.0710 1.0511 1.0510
671.320900 1.0510 1.0490 1.0470 1.0450 1.0390
677.666108 1.0390 1.0390 1.0370 1.0330 1.0270
684.011316 1.0230 1.0150 1.0010 0.9720 0.9401
690.356524 0.9400 1.0048 1.0269 1.0270 1.0270
696.701732 1.0270 1.0290 1.0310 1.0310 1.0330
703.046940 1.0370 1.0430 1.0450 1.0490 1.0490
709.392148 1.0490 1.0530 1.0670 1.0730 1.0730
715.737356 1.0750 1.0750 1.0750 1.0750 1.0770
722.082564 1.0770 1.0810 1.0810 1.0770 1.0770
728.427772 1.0770 1.0750 1.0690 1.0650 1.0610
734.772979 1.0550 1.0510 1.0470 1.0390 1.0290
741.118187 1.0250 1.0150 1.0070 0.9981 0.9881
747.463395 0.9800 0.9700 0.9660 0.9660 0.9620
753.808603 0.9560 0.9281 0.8882 0.8482 0.8261
760.153811 0.8040 0.7961 0.9120 0.8960 0.8920
766.499019 0.8920 0.8900 0.8900 0.8860 0.8562
772.844227 0.8220 0.8100 0.7980 0.7740 0.7580
779.189435 0.7520 0.7520 0.7500 0.7490 0.7450
785.534643 0.7410 0.7450 0.7580 0.7760 0.8279
791.879851 0.8639 0.9059 0.9379 0.9559 0.9640
798.225059 0.9680 0.9680 0.9680 0.9580 0.9480
804.570266 0.9280 0.9001 0.8920 0.8860 0.8363
810.915474 0.8200 0.8040 0.7330 0.6411 0.6230
817.260682 0.6051 0.5492 0.5072 0.4602 0.4183
823.605890 0.3760 0.3440 0.3300 0.3220 0.3160
829.951098 0.3100 0.3040 0.2821 0.2800 0.2760
836.296306 0.2961 0.3280 0.3320 0.3340 0.3360
842.641514 0.3400 0.3560 0.3680 0.3839 0.3999
848.986722 0.4680 0.5010 0.5070 0.5390 0.7087
855.331930 0.7658 0.7780 0.8417 0.8639 0.8779
861.677138 0.8940 0.8980 0.9020 0.9040 0.9040
868.022346 0.9080 0.9120 0.9180 0.9319 0.9340
874.367553 0.9480 0.9500 0.9540 0.9540 0.9560
880.712761 0.9620 0.9660 0.9680 0.9660 0.9640
887.057969 0.9620 0.9620 0.9600 0.9600 0.9600
893.403177 0.9640 0.9660 0.9680 0.9680 0.9700
899.748385 0.9720 0.9720 0.9740 0.9800 0.9860
906.093593 0.9880 0.9880 0.9840 0.9800 0.9800
912.438801 0.9800 0.9740 0.9740 0.9740 0.9720
918.784009 0.9700 0.9700 0.9680 0.9680 0.9680
925.129217 0.9680 0.9680 0.9680 0.9660 0.9640
931.474425 0.9640 0.9620 0.9600 0.9600 0.9600
937.819632 0.9600 0.9600 0.9600 0.9600 0.9600
944.164840 0.9600 0.9600 0.9600 0.9600 0.9600
950.510048 0.9600 0.9600 0.9600 0.9600 0.9600
956.855256 0.9580 0.9580 0.9580 0.9560 0.9560
963.200464 0.9540 0.9540 0.9540 0.9540 0.9520
969.545672 0.9520 0.9540 0.9560 0.9560 0.9560
975.890880 0.9580 0.9580 0.9580 0.9580 0.9580
982.236088 0.9580 0.9560 0.9560 0.9560 0.9560
988.581296 0.9540 0.9540 0.9540 0.9500 0.9500
994.926504 0.9460 0.9460 0.9440 0.9380 0.9380
1001.271712 0.9300 0.9200 0.9120 0.9040 0.8960
1007.616919 0.8800 0.8700 0.8441 0.8062 0.7662
1013.962127 0.6487 0.5289 0.4659 0.4000 0.3660
1020.307335 0.3640 0.3979 0.3960 0.3900 0.3820
1026.652543 0.3800 0.3820 0.4040 0.4920 0.7167
1032.997751 0.8417 0.8879 0.8940 0.9000 0.9060
1039.342959 0.9120 0.9120 0.9140 0.9140 0.9120
1045.688167 0.9120 0.9120 0.9060 0.9020 0.9000
1052.033375 0.8960 0.8920 0.8900 0.8840 0.8840
1058.378583 0.8800 0.8760 0.8740 0.8601 0.8421
1064.723791 0.8340 0.8220 0.8180 0.8120 0.7960
1071.068998 0.7860 0.7661 0.7471 0.7370 0.7072
1077.414206 0.6950 0.6750 0.6630 0.6510 0.6450
1083.759414 0.6390 0.6111 0.5651 0.4803 0.4024
1090.104622 0.3218 0.2409 0.1590 0.1550 0.1550
1096.449830 0.1570 0.1570 0.1590 0.1590 0.1590
1102.795038 0.1610 0.1730 0.1830 0.1990 0.2170
1109.140246 0.2799 0.3518 0.6520 0.7187 0.7429
1115.485454 0.7820 0.7860 0.7880 0.7920 0.7920
1121.830662 0.7900 0.7900 0.7880 0.7880 0.7900
1128.175870 0.7900 0.7920 0.7920 0.7960 0.7980
1134.521078 0.8060 0.8080 0.8220 0.8320 0.8380
1140.866285 0.8440 0.8500 0.8540 0.8620 0.8620
1147.211493 0.8640 0.8660 0.8660 0.8680 0.8700
1153.556701 0.8700 0.8680 0.8640 0.8620 0.8580
1159.901909 0.8520 0.8520 0.8480 0.8420 0.8320
1166.247117 0.8240 0.8160 0.8120 0.8120 0.8080
1172.592325 0.8020 0.7960 0.7840 0.7800 0.7800
1178.937533 0.7780 0.7780 0.7760 0.7780 0.7820
1185.282741 0.7860 0.7940 0.8000 0.8219 0.8300
1191.627949 0.8320 0.8340 0.8360 0.8400 0.8420
1197.973157 0.8440 0.8460 0.8520 0.8560 0.8580
1204.318365 0.8620 0.8640 0.8720 0.8720 0.8740
1210.663572 0.8740 0.8740 0.8720 0.8700 0.8660
1217.008780 0.8640 0.8620 0.8580 0.8540 0.8500
1223.353988 0.8400 0.8340 0.8240 0.8200 0.8140
1229.699196 0.8120 0.8040 0.8040 0.8000 0.7980
1236.044404 0.7960 0.7940 0.7940 0.7920 0.7880
1242.389612 0.7860 0.7820 0.7700 0.7620 0.7600
1248.734820 0.7580 0.7560 0.7520 0.7520 0.7500
1255.080028 0.7470 0.7410 0.7370 0.7330 0.7310
1261.425236 0.7290 0.7290 0.7310 0.7310 0.7390
1267.770444 0.7410 0.7450 0.7450 0.7470 0.7470
1274.115651 0.7490 0.7500 0.7660 0.7760 0.7800
1280.460859 0.7800 0.7840 0.7880 0.7880 0.7900
1286.806067 0.7940 0.8000 0.8020 0.8040 0.8060
1293.151275 0.8080 0.8100 0.8140 0.8180 0.8180
1299.496483 0.8220 0.8220 0.8240 0.8260 0.8260
1305.841691 0.8300 0.8300 0.8320 0.8320 0.8320
1312.186899 0.8300 0.8300 0.8280 0.8260 0.8240
1318.532107 0.8220 0.8220 0.8220 0.8220 0.8220
1324.877315 0.8220 0.8260 0.8260 0.8260 0.8260
1331.222523 0.8240 0.8240 0.8240 0.8220 0.8220
1337.567731 0.8320 0.8300 0.8220 0.8200 0.8180
1343.912938 0.7959 0.7761 0.8220 0.8220 0.8200
1350.258146 0.8180 0.8160 0.8160 0.8140 0.8020
1356.603354 0.7960 0.7920 0.7880 0.7820 0.7820
1362.948562 0.7800 0.7780 0.7660 0.7451 0.7430
1369.293770 0.7451 0.7600 0.7620 0.7640 0.7600
1375.638978 0.7500 0.7470 0.7310 0.7270 0.7250
1381.984186 0.7210 0.7190 0.7090 0.7050 0.6950
1388.329394 0.6830 0.6770 0.6531 0.6470 0.6410
1394.674602 0.6330 0.6310 0.6190 0.6030 0.5770
1401.019810 0.5630 0.5610 0.5630 0.5770 0.5929
1407.365017 0.6050 0.6070 0.6090 0.6110 0.6110
1413.710225 0.6150 0.6530 0.6650 0.6790 0.6989
1420.055433 0.7070 0.7090 0.7130 0.7250 0.7470
1426.400641 0.7560 0.7580 0.7600 0.7680 0.7819
1432.745849 0.7820 0.7760 0.7740 0.7740 0.7740
1439.091057 0.7740 0.7740 0.7680 0.7740 0.7840
1445.436265 0.7840 0.7800 0.7780 0.7740 0.7720
1451.781473 0.7700 0.7680 0.7680 0.7620 0.7490
1458.126681 0.7470 0.7370 0.7250 0.7250 0.7430
1464.471889 0.7500 0.7500 0.7450 0.7270 0.7091
1470.817097 0.7069 0.6767 0.5948 0.5129 0.4560
1477.162304 0.3960 0.3560 0.3280 0.2961 0.2641
1483.507512 0.1629 0.1330 0.1190 0.1070 0.0930
1489.852720 0.0790 0.0690 0.0650 0.0630 0.0630
1496.197928 0.0630 0.0630 0.0650 0.0670 0.0790
1502.543136 0.1050 0.1210 0.1330 0.1529 0.2168
1508.888344 0.3526 0.5034 0.6112 0.6850 0.7090
1515.233552 0.7230 0.7250 0.7090 0.7050 0.7090
1521.578760 0.7309 0.7070 0.7030 0.7050 0.7110
1527.923968 0.7110 0.7210 0.7250 0.7270 0.7230
1534.269176 0.7170 0.7090 0.7150 0.7170 0.7150
1540.614384 0.6890 0.6810 0.6790 0.6810 0.6830
1546.959591 0.6850 0.6931 0.7150 0.7330 0.7410
1553.304799 0.7330 0.7310 0.7270 0.7210 0.7190
1559.650007 0.7110 0.7170 0.7290 0.7310 0.7270
1565.995215 0.7250 0.7230 0.7230 0.7090 0.7090
1572.340423 0.7250 0.7250 0.7150 0.7030 0.6950
1578.685631 0.6950 0.7150 0.7090 0.6910 0.6651
1585.030839 0.6509 0.6369 0.6089 0.5689 0.5089
1591.376047 0.4479 0.3600 0.2701 0.1812 0.1331
1597.721255 0.1270 0.1290 0.1330 0.1410 0.1370
1604.066463 0.1370 0.1390 0.1490 0.1630 0.1949
1610.411670 0.5052 0.5451 0.5712 0.6510 0.6730
1616.756878 0.6950 0.7110 0.7270 0.7370 0.7390
1623.102086 0.7410 0.7410 0.7450 0.7470 0.7490
1629.447294 0.7490 0.7470 0.7450 0.7390 0.7171
1635.792502 0.7050 0.7010 0.7090 0.7090 0.7010
1642.137710 0.6930 0.6790 0.6650 0.6430 0.6410
1648.482918 0.6390 0.6370 0.6310 0.6330 0.6350
1654.828126 0.6470 0.6530 0.6590 0.6590 0.6610
1661.173334 0.6670 0.6750 0.6790 0.6850 0.6890
1667.518542 0.6890 0.6870 0.6850 0.6830 0.6810
1673.863750 0.6790 0.6770 0.6770 0.6750 0.6610
1680.208957 0.6570 0.6590 0.6610 0.6610 0.6650
1686.554165 0.6770 0.6790 0.6830 0.6951 0.7170
1692.899373 0.7170 0.7030 0.7010 0.7010 0.7050
1699.244581 0.7090 0.7130 0.7130 0.7150 0.7170
1705.589789 0.7170 0.7170 0.7230 0.7290 0.7290
1711.934997 0.7250 0.7189 0.7010 0.7010 0.7090
1718.280205 0.7110 0.7250 0.7330 0.7350 0.7370
1724.625413 0.7370 0.7390 0.7390 0.7290 0.7150
1730.970621 0.7090 0.7070 0.7070 0.7090 0.7130
1737.315829 0.7190 0.7230 0.7210 0.7190 0.7130
1743.661037 0.7070 0.6990 0.6970 0.6950 0.6950
1750.006244 0.7011 0.7130 0.7170 0.7250 0.7250
1756.351452 0.7210 0.7210 0.7190 0.7210 0.7210
1762.696660 0.7250 0.7250 0.7250 0.7230 0.7130
1769.041868 0.7010 0.6910 0.6750 0.6730 0.6730
1775.387076 0.6730 0.6690 0.6690 0.6550 0.6550
1781.732284 0.6710 0.6730 0.6750 0.6770 0.6910
1788.077492 0.6950 0.6990 0.7010 0.7030 0.7070
1794.422700 0.7090 0.7130 0.7150 0.7230 0.7270
1800.767908 0.7310 0.7310 0.7350 0.7390 0.7430
1807.113116 0.7430 0.7390 0.7390 0.7370 0.7350
1813.458323 0.7390 0.7410 0.7450 0.7470 0.7500
1819.803531 0.7500 0.7490 0.7470 0.7410 0.7390
1826.148739 0.7390 0.7370 0.7370 0.7390 0.7430
1832.493947 0.7430 0.7450 0.7450 0.7450 0.7450
1838.839155 0.7450 0.7450 0.7430 0.7390 0.7290
1845.184363 0.7250 0.7250 0.7270 0.7390 0.7410
1851.529571 0.7450 0.7500 0.7520 0.7520 0.7520
1857.874779 0.7500 0.7470 0.7430 0.7410 0.7370
1864.219987 0.7350 0.7330 0.7269 0.7110 0.7070
1870.565195 0.7250 0.7250 0.7250 0.7250 0.7250
1876.910403 0.7230 0.7230 0.7230 0.7210 0.7190
1883.255610 0.7190 0.7150 0.7090 0.7070 0.7010
1889.600818 0.6929 0.6810 0.6770 0.6750 0.6610
1895.946026 0.6490 0.6470 0.6430 0.6390 0.6310
1902.291234 0.6210 0.6150 0.6070 0.6050 0.6050
1908.636442 0.6050 0.6070 0.6150 0.6210 0.6210
1914.981650 0.6230 0.6230 0.6251 0.6450 0.6590
1921.326858 0.6650 0.6730 0.6910 0.7050 0.7070
1927.672066 0.7110 0.7150 0.7230 0.7250 0.7250
1934.017274 0.7290 0.7310 0.7310 0.7290 0.7310
1940.362482 0.7270 0.7230 0.7230 0.7270 0.7290
1946.707689 0.7290 0.7310 0.7330 0.7330 0.7330
1953.052897 0.7330 0.7330 0.7410 0.7430 0.7430
1959.398105 0.7310 0.7250 0.7250 0.7230 0.7230
1965.743313 0.7210 0.7190 0.7230 0.7270 0.7270
1972.088521 0.7270 0.7270 0.7270 0.7290 0.7290
1978.433729 0.7290 0.7330 0.7330 0.7290 0.7270
1984.778937 0.7250 0.7250 0.7250 0.7250 0.7230
1991.124145 0.7090 0.7091 0.7230 0.7250 0.7270
1997.469353 0.7290 0.7331 0.8060 0.8060 0.8060
2003.814561 0.8050 0.8040 0.8030 0.8020 0.8020
2010.159769 0.8020 0.8020 0.8019 0.7999 0.7980
2016.504976 0.7980 0.7980 0.7970 0.7960 0.7960
2022.850184 0.7960 0.7960 0.7959 0.7949 0.7939
2029.195392 0.7929 0.7919 0.7909 0.7898 0.7878
2035.540600 0.7860 0.7860 0.7859 0.7849 0.7840
2041.885808 0.7840 0.7840 0.7840 0.7839 0.7829
2048.231016 0.7820 0.7820 0.7820 0.7820 0.7818
2054.576224 0.7808 0.7800 0.7800 0.7800 0.7800
2060.921432 0.7796 0.7776 0.7760 0.7760 0.7758
2067.266640 0.7748 0.7740 0.7740 0.7740 0.7740
2073.611848 0.7740 0.7740 0.7742 0.7752 0.7760
2079.957056 0.7760 0.7760 0.7760 0.7757 0.7747
2086.302263 0.7740 0.7740 0.7740 0.7740 0.7737
2092.647471 0.7727 0.7717 0.7707 0.7697 0.7687
2098.992679 0.7677 0.7667 0.7657 0.7647 0.7640
2105.337887 0.7640 0.7637 0.7627 0.7617 0.7607
2111.683095 0.7600 0.7600 0.7597 0.7587 0.7576
2118.028303 0.7566 0.7560 0.7560 0.7560 0.7560
2124.373511 0.7564 0.7574 0.7580 0.7580 0.7576
2130.718719 0.7566 0.7556 0.7546 0.7540 0.7540
2137.063927 0.7536 0.7526 0.7516 0.7506 0.7500
2143.409135 0.7500 0.7498 0.7493 0.7486 0.7476
2149.754342 0.7470 0.7470 0.7465 0.7455 0.7445
2156.099550 0.7435 0.7430 0.7430 0.7430 0.7430
2162.444758 0.7430 0.7430 0.7425 0.7415 0.7405
2168.789966 0.7395 0.7390 0.7390 0.7385 0.7375
2175.135174 0.7359 0.7339 0.7324 0.7314 0.7310
2181.480382 0.7310 0.7310 0.7310 0.7304 0.7294
2187.825590 0.7290 0.7290 0.7290 0.7290 0.7290
2194.170798 0.7290 0.7284 0.7274 0.7270 0.7270
2200.516006 0.7264 0.7254 0.7244 0.7234 0.7224
2206.861214 0.7214 0.7197 0.7177 0.7157 0.7137
2213.206422 0.7110 0.7080 0.7043 0.7003 0.6937
2219.551629 0.6856 0.6648 0.6378 0.6100 0.5819
2225.896837 0.5508 0.5183 0.4864 0.4549 0.4330
2232.242045 0.4150 0.3984 0.3823 0.3670 0.3520
2238.587253 0.3362 0.3202 0.3286 0.3457 0.3986
2244.932461 0.4637 0.5150 0.5616 0.6116 0.6627
2251.277669 0.6874 0.7036 0.7070 0.7070 0.7070
2257.622877 0.7070 0.7070 0.7070 0.7062 0.7052
2263.968085 0.7009 0.6959 0.6942 0.6932 0.6922
2270.313293 0.6912 0.6910 0.6910 0.6902 0.6892
2276.658501 0.6890 0.6890 0.6890 0.6890 0.6881
2283.003708 0.6871 0.6870 0.6870 0.6870 0.6870
2289.348916 0.6870 0.6870 0.6870 0.6870 0.6861
2295.694124 0.6851 0.6850 0.6850 0.6850 0.6850
2302.039332 0.6850 0.6850 0.6850 0.6850 0.6850
2308.384540 0.6850 0.6850 0.6850 0.6850 0.6850
2314.729748 0.6850 0.6850 0.6850 0.6850 0.6850
2321.074956 0.6850 0.6850 0.6850 0.6850 0.6850
2327.420164 0.6850 0.6850 0.6840 0.6830 0.6830
2333.765372 0.6830 0.6830 0.6830 0.6830 0.6830
2340.110580 0.6830 0.6830 0.6830 0.6829 0.6819
2346.455788 0.6810 0.6810 0.6809 0.6799 0.6790
2352.800995 0.6790 0.6789 0.6779 0.6770 0.6770
2359.146203 0.6770 0.6770 0.6770 0.6770 0.6770
2365.491411 0.6770 0.6770 0.6770 0.6771 0.6781
2371.836619 0.6790 0.6790 0.6790 0.6790 0.6790
2378.181827 0.6790 0.6792 0.6802 0.6810 0.6810
2384.527035 0.6814 0.6834 0.6852 0.6862 0.6870
2390.872243 0.6870 0.6870 0.6870 0.6870 0.6870
2397.217451 0.6870 0.6870 0.6872 0.6882 0.6890
2403.562659 0.6890 0.6890 0.6890 0.6890 0.6890
2409.907867 0.6890 0.6890 0.6890 0.6890 0.6890
2416.253075 0.6890 0.6890 0.6890 0.6890 0.6890
2422.598282 0.6890 0.6890 0.6890 0.6890 0.6890
2428.943490 0.6890 0.6887 0.6877 0.6866 0.6856
2435.288698 0.6850 0.6850 0.6850 0.6850 0.6846
2441.633906 0.6836 0.6826 0.6816 0.6806 0.6796
2447.979114 0.6790 0.6790 0.6790 0.6790 0.6790
2454.324322 0.6790 0.6790 0.6790 0.6790 0.6790
2460.669530 0.6781 0.6761 0.6746 0.6736 0.6730
2467.014738 0.6730 0.6725 0.6715 0.6710 0.6710
2473.359946 0.6701 0.6681 0.6665 0.6655 0.6650
2479.705154 0.6650 0.6640 0.6620 0.6605 0.6595
2486.050361 0.6590 0.6590 0.6590 0.6590 0.6590
2492.395569 0.6590 0.6585 0.6575 0.6565 0.6555
2498.740777 0.6539 0.6519 0.6499 0.6479 0.6459
2505.085985 0.6439 0.6430 0.6430 0.6430 0.6430
2511.431193 0.6424 0.6414 0.6410 0.6410 0.6410
2517.776401 0.6410 0.6410 0.6410 0.6410 0.6410
2524.121609 0.6410 0.6410 0.6410 0.6410 0.6410
2530.466817 0.6410 0.6417 0.6427 0.6437 0.6447
2536.812025 0.6450 0.6450 0.6464 0.6484 0.6490
2543.157233 0.6490 0.6511 0.6541 0.6557 0.6567
2549.502441 0.6570 0.6570 0.6556 0.6536 0.6523
2555.847648 0.6513 0.6510 0.6510 0.6495 0.6475
2562.192856 0.6470 0.6470 0.6470 0.6470 0.6470
2568.538064 0.6470 0.6470 0.6470 0.6470 0.6470
2574.883272 0.6470 0.6470 0.6470 0.6470 0.6478
2581.228480 0.6488 0.6498 0.6508 0.6518 0.6528
2587.573688 0.6530 0.6530 0.6522 0.6512 0.6510
2593.918896 0.6510 0.6502 0.6492 0.6473 0.6453
2600.264104 0.6450 0.6450 0.6476 0.6506 0.6519
2606.609312 0.6529 0.6539 0.6549 0.6559 0.6569
2612.954520 0.6570 0.6570 0.6570 0.6570 0.6570
2619.299728 0.6570 0.6561 0.6551 0.6541 0.6531
2625.644935 0.6530 0.6530 0.6530 0.6530 0.6520
2631.990143 0.6510 0.6510 0.6510 0.6500 0.6490
2638.335351 0.6490 0.6490 0.6490 0.6490 0.6490
2644.680559 0.6490 0.6480 0.6470 0.6470 0.6470
2651.025767 0.6470 0.6470 0.6470 0.6470 0.6470
2657.370975 0.6470 0.6470 0.6470 0.6470 0.6470
2663.716183 0.6470 0.6469 0.6459 0.6450 0.6450
2670.061391 0.6449 0.6439 0.6430 0.6430 0.6431
2676.406599 0.6441 0.6450 0.6450 0.6450 0.6450
2682.751807 0.6451 0.6461 0.6470 0.6470 0.6470
2689.097014 0.6470 0.6470 0.6470 0.6470 0.6470
2695.442222 0.6470 0.6470 0.6468 0.6458 0.6450
2701.787430 0.6450 0.6450 0.6450 0.6450 0.6450
2708.132638 0.6450 0.6450 0.6448 0.6438 0.6430
2714.477846 0.6430 0.6430 0.6430 0.6430 0.6430
2720.823054 0.6430 0.6430 0.6428 0.6418 0.6410
2727.168262 0.6410 0.6407 0.6397 0.6387 0.6377
2733.513470 0.6364 0.6344 0.6330 0.6330 0.6327
2739.858678 0.6317 0.6307 0.6297 0.6290 0.6290
2746.203886 0.6284 0.6264 0.6250 0.6250 0.6247
2752.549094 0.6237 0.6230 0.6230 0.6227 0.6216
2758.894301 0.6203 0.6183 0.6170 0.6170 0.6166
2765.239509 0.6156 0.6150 0.6150 0.6154 0.6164
2771.584717 0.6170 0.6170 0.6174 0.6184 0.6190
2777.929925 0.6190 0.6186 0.6176 0.6170 0.6170
2784.275133 0.6170 0.6170 0.6175 0.6185 0.6195
2790.620341 0.6205 0.6210 0.6210 0.6210 0.6210
2796.965549 0.6210 0.6210 0.6210 0.6210 0.6210
2803.310757 0.6210 0.6210 0.6210 0.6200 0.6180
2809.655965 0.6170 0.6170 0.6170 0.6170 0.6170
2816.001173 0.6170 0.6170 0.6170 0.6170 0.6170
2822.346380 0.6176 0.6186 0.6190 0.6190 0.6190
2828.691588 0.6190 0.6190 0.6190 0.6190 0.6190
2835.036796 0.6190 0.6190 0.6196 0.6206 0.6210
2841.382004 0.6210 0.6204 0.6194 0.6184 0.6174
2847.727212 0.6164 0.6154 0.6150 0.6150 0.6144
2854.072420 0.6134 0.6130 0.6130 0.6130 0.6130
2860.417628 0.6130 0.6130 0.6130 0.6130 0.6123
2866.762836 0.6113 0.6103 0.6093 0.6090 0.6090
2873.108044 0.6083 0.6073 0.6070 0.6070 0.6070
2879.453252 0.6070 0.6063 0.6053 0.6050 0.6050
2885.798460 0.6050 0.6050 0.6050 0.6050 0.6042
2892.143667 0.6032 0.6030 0.6030 0.6022 0.6012
2898.488875 0.6010 0.6010 0.6018 0.6028 0.6030
2904.834083 0.6030 0.6030 0.6030 0.6030 0.6030
2911.179291 0.6022 0.6012 0.6010 0.6010 0.6010
2917.524499 0.6010 0.6001 0.5991 0.5990 0.5990
2923.869707 0.5990 0.5990 0.5990 0.5990 0.5990
2930.214915 0.5990 0.5990 0.5990 0.5990 0.5990
2936.560123 0.5990 0.5990 0.5990 0.5990 0.5990
2942.905331 0.5990 0.5990 0.5990 0.5990 0.5990
2949.250539 0.5999 0.6010 0.6010 0.6010 0.6000
2955.595747 0.5990 0.5990 0.5990 0.5990 0.5990
2961.940954 0.5980 0.5970 0.5970 0.5970 0.5970
2968.286162 0.5970 0.5970 0.5970 0.5980 0.5990
2974.631370 0.5990 0.5990 0.5990 0.5990 0.5990
2980.976578 0.5990 0.5990 0.5990 0.5990 0.5990
2987.321786 0.5990 0.5989 0.5979 0.5970 0.5970
2993.666994 0.5970 0.5970 0.5969 0.5959 0.5950
3000.012202 0.5950 0.5948 0.5928 0.5909 0.5899
3006.357410 0.5890 0.5890 0.5889 0.5879 0.5868
3012.702618 0.5858 0.5850 0.5850 0.5850 0.5850
3019.047826 0.5848 0.5838 0.5828 0.5818 0.5808
3025.393033 0.5798 0.5790 0.5790 0.5788 0.5778
3031.738241 0.5768 0.5758 0.5748 0.5738 0.5723
3038.083449 0.5693 0.5663 0.5633 0.5603 0.5573
3044.428657 0.5545 0.5525 0.5507 0.5497 0.5493
3050.773865 0.5503 0.5513 0.5523 0.5533 0.5543
3057.119073 0.5553 0.5563 0.5570 0.5570 0.5564
3063.464281 0.5544 0.5527 0.5517 0.5507 0.5497
3069.809489 0.5490 0.5490 0.5487 0.5477 0.5467
3076.154697 0.5457 0.5447 0.5437 0.5427 0.5416
3082.499905 0.5403 0.5383 0.5366 0.5356 0.5346
3088.845113 0.5336 0.5314 0.5274 0.5246 0.5236
3095.190320 0.5230 0.5230 0.5222 0.5202 0.5182
3101.535528 0.5162 0.5146 0.5136 0.5134 0.5144
3107.880736 0.5176 0.5236 0.5297 0.5358 0.5404
3114.225944 0.5434 0.5464 0.5494 0.5553 0.5644
3120.571152 0.5705 0.5735 0.5765 0.5795 0.5820
3126.916360 0.5840 0.5850 0.5850 0.5850 0.5850
3133.261568 0.5850 0.5850 0.5850 0.5850 0.5850
3139.606776 0.5850 0.5850 0.5850 0.5850 0.5850
3145.951984 0.5850 0.5850 0.5850 0.5850 0.5850
3152.297192 0.5850 0.5844 0.5834 0.5830 0.5830
3158.642399 0.5830 0.5830 0.5836 0.5846 0.5850
3164.987607 0.5850 0.5850 0.5850 0.5850 0.5850
3171.332815 0.5844 0.5834 0.5824 0.5813 0.5810
3177.678023 0.5810 0.5810 0.5810 0.5810 0.5810
3184.023231 0.5803 0.5793 0.5790 0.5790 0.5783
3190.368439 0.5773 0.5770 0.5770 0.5770 0.5770
3196.713647 0.5770 0.5770 0.5770 0.5770 0.5770
3203.058855 0.5770 0.5777 0.5787 0.5790 0.5790
3209.404063 0.5790 0.5790 0.5790 0.5790 0.5790
3215.749271 0.5790 0.5790 0.5790 0.5798 0.5808
3222.094479 0.5818 0.5828 0.5830 0.5830 0.5830
3228.439686 0.5830 0.5830 0.5830 0.5838 0.5848
3234.784894 0.5850 0.5850 0.5842 0.5831 0.5830
3241.130102 0.5830 0.5821 0.5811 0.5810 0.5810
3247.475310 0.5810 0.5810 0.5810 0.5810 0.5810
3253.820518 0.5810 0.5810 0.5810 0.5810 0.5810
3260.165726 0.5810 0.5810 0.5810 0.5810 0.5810
3266.510934 0.5810 0.5800 0.5790 0.5790 0.5790
3272.856142 0.5790 0.5790 0.5790 0.5790 0.5790
3279.201350 0.5790 0.5790 0.5790 0.5790 0.5790
3285.546558 0.5780 0.5770 0.5770 0.5770 0.5760
3291.891766 0.5750 0.5750 0.5750 0.5750 0.5750
3298.236973 0.5750 0.5750 0.5750 0.5750 0.5750
3304.582181 0.5750 0.5750 0.5750 0.5750 0.5751
3310.927389 0.5761 0.5770 0.5770 0.5769 0.5759
3317.272597 0.5750 0.5750 0.5750 0.5750 0.5750
3323.617805 0.5750 0.5750 0.5750 0.5750 0.5750
3329.963013 0.5749 0.5739 0.5730 0.5730 0.5730
3336.308221 0.5730 0.5730 0.5730 0.5730 0.5730
3342.653429 0.5730 0.5730 0.5730 0.5730 0.5730
3348.998637 0.5730 0.5730 0.5730 0.5730 0.5730
3355.343845 0.5730 0.5730 0.5730 0.5730 0.5730
3361.689052 0.5730 0.5730 0.5730 0.5730 0.5730
3368.034260 0.5730 0.5730 0.5727 0.5717 0.5710
3374.379468 0.5710 0.5710 0.5710 0.5710 0.5710
3380.724676 0.5710 0.5710 0.5707 0.5697 0.5687
3387.069884 0.5677 0.5670 0.5670 0.5670 0.5670
3393.415092 0.5667 0.5657 0.5647 0.5636 0.5626
3399.760300 0.5616 0.5610 0.5610 0.5606 0.5596
3406.105508 0.5586 0.5576 0.5566 0.5556 0.5550
3412.450716 0.5550 0.5546 0.5536 0.5530 0.5530
3418.795924 0.5522 0.5502 0.5490 0.5490 0.5490
3425.141132 0.5490 0.5486 0.5476 0.5470 0.5470
3431.486339 0.5470 0.5470 0.5475 0.5485 0.5490
3437.831547 0.5490 0.5504 0.5535 0.5560 0.5580
3444.176755 0.5595 0.5605 0.5610 0.5610 0.5610
3450.521963 0.5610 0.5610 0.5610 0.5610 0.5610
3456.867171 0.5605 0.5595 0.5590 0.5590 0.5590
3463.212379 0.5590 0.5590 0.5590 0.5590 0.5590
3469.557587 0.5590 0.5590 0.5584 0.5574 0.5570
3475.902795 0.5570 0.5564 0.5554 0.5550 0.5550
3482.248003 0.5550 0.5550 0.5550 0.5550 0.5544
3488.593211 0.5534 0.5524 0.5514 0.5503 0.5493
3494.938419 0.5490 0.5490 0.5490 0.5490 0.5490
3501.283626 0.5490 0.5497 0.5507 0.5517 0.5527
3507.628834 0.5530 0.5530 0.5530 0.5530 0.5516
3513.974042 0.5496 0.5490 0.5490 0.5483 0.5473
3520.319250 0.5470 0.5470 0.5470 0.5470 0.5470
3526.664458 0.5470 0.5478 0.5488 0.5490 0.5490
3533.009666 0.5482 0.5472 0.5470 0.5470 0.5470
3539.354874 0.5470 0.5454 0.5434 0.5430 0.5430
3545.700082 0.5430 0.5430 0.5430 0.5430 0.5430
3552.045290 0.5430 0.5422 0.5412 0.5402 0.5392
3558.390498 0.5382 0.5372 0.5370 0.5370 0.5379
3564.735705 0.5389 0.5399 0.5409 0.5419 0.5429
3571.080913 0.5430 0.5430 0.5430 0.5430 0.5430
3577.426121 0.5430 0.5421 0.5411 0.5401 0.5391
3583.771329 0.5381 0.5371 0.5370 0.5370 0.5361
3590.116537 0.5351 0.5350 0.5350 0.5350 0.5350
3596.461745 0.5360 0.5370 0.5370 0.5370 0.5360
3602.806953 0.5350 0.5360 0.5370 0.5360 0.5350
3609.152161 0.5350 0.5350 0.5360 0.5370 0.5370
3615.497369 0.5370 0.5380 0.5390 0.5390 0.5390
3621.842577 0.5379 0.5370 0.5370 0.5370 0.5370
3628.187785 0.5369 0.5359 0.5349 0.5339 0.5330
3634.532992 0.5330 0.5327 0.5287 0.5249 0.5239
3640.878200 0.5231 0.5241 0.5254 0.5284 0.5311
3647.223408 0.5321 0.5331 0.5341 0.5350 0.5350
3653.568616 0.5350 0.5350 0.5350 0.5350 0.5350
3659.913824 0.5350 0.5348 0.5338 0.5328 0.5318
3666.259032 0.5310 0.5310 0.5310 0.5310 0.5310
3672.604240 0.5310 0.5310 0.5310 0.5310 0.5310
3678.949448 0.5308 0.5298 0.5290 0.5290 0.5290
3685.294656 0.5290 0.5290 0.5290 0.5290 0.5290
3691.639864 0.5290 0.5290 0.5287 0.5277 0.5267
3697.985071 0.5257 0.5250 0.5250 0.5247 0.5237
3704.330279 0.5230 0.5230 0.5230 0.5230 0.5227
3710.675487 0.5217 0.5207 0.5197 0.5190 0.5190
3717.020695 0.5187 0.5176 0.5166 0.5156 0.5146
3723.365903 0.5136 0.5126 0.5116 0.5110 0.5110
3729.711111 0.5114 0.5124 0.5138 0.5158 0.5174
3736.056319 0.5184 0.5190 0.5190 0.5202 0.5232
3742.401527 0.5254 0.5264 0.5274 0.5284 0.5294
3748.746735 0.5304 0.5310 0.5310 0.5315 0.5325
3755.091943 0.5330 0.5330 0.5330 0.5330 0.5330
3761.437151 0.5330 0.5325 0.5315 0.5310 0.5310
3767.782358 0.5310 0.5310 0.5310 0.5310 0.5305
3774.127566 0.5295 0.5285 0.5275 0.5265 0.5255
3780.472774 0.5245 0.5235 0.5230 0.5230 0.5241
3786.817982 0.5261 0.5281 0.5301 0.5310 0.5310
3793.163190 0.5310 0.5310 0.5310 0.5310
##END=
