##TITLE=BENZENE, 1,4-BIS(CHLOROMETHYL)-
##JCAMP-DX=4.24
##DATA TYPE=INFRARED SPECTRUM
##CLASS=COBLENTZ III
##ORIGIN=DOW CHEMICAL COMPANY
##OWNER=COBLENTZ SOCIETY
Collection (C) 2018 copyright by the U.S. Secretary of Commerce
on behalf of the United States of America. All rights reserved.
##DATE=1966/07/06
##NAMES=1,4-bis(chloromethyl)benzene
##CAS REGISTRY NO=623-25-6
##MOLFORM=C8 H8 Cl2
##SOURCE REFERENCE=COBLENTZ NO. 10055
##$NIST SOURCE=COBLENTZ
##$NIST IMAGE=cob10055
##SPECTROMETER/DATA SYSTEM=BECKMAN IR-9 (GRATING)
##INSTRUMENT PARAMETERS=ORDER CHANGES AT 670, 1200, 2000 CM^-^1
##STATE=SOLID (SPLIT MULL, FLUOROLUBE FOR 3800-1330 AND NUJOL FOR 1330-400 CM ^-^1)
##SAMPLING PROCEDURE=TRANSMISSION
##RESOLUTION=4
##DATA PROCESSING=DIGITIZED BY NIST FROM HARD COPY (FROM TWO SEGMENTS)
##XUNITS=1/CM
##YUNITS=TRANSMITTANCE
##XFACTOR=1.000000
##YFACTOR=1
##DELTAX=0.869565
##FIRSTX=400
##LASTX=3793.04
##FIRSTY=0.777
##MAXX=3793.04
##MINX=400
##MAXY=1.033
##MINY=0.031
##NPOINTS=3903
##XYDATA=(X++(Y..Y))
400.000000 0.7770 0.7740 0.7710 0.7690 0.7660
404.347826 0.7630 0.7580 0.7550 0.7540 0.7520
408.695652 0.7510 0.7480 0.7470 0.7470 0.7470
413.043478 0.7480 0.7480 0.7510 0.7510 0.7540
417.391304 0.7540 0.7550 0.7560 0.7580 0.7640
421.739130 0.7710 0.7770 0.7830 0.7900 0.7960
426.086957 0.8020 0.8080 0.8130 0.8220 0.8270
430.434783 0.8340 0.8380 0.8430 0.8470 0.8500
434.782609 0.8530 0.8610 0.8650 0.8690 0.8720
439.130435 0.8750 0.8800 0.8850 0.8870 0.8890
443.478261 0.8920 0.8940 0.8950 0.9000 0.9030
447.826087 0.9060 0.9100 0.9110 0.9150 0.9210
452.173913 0.9220 0.9230 0.9250 0.9260 0.9270
456.521739 0.9300 0.9320 0.9330 0.9360 0.9400
460.869565 0.9470 0.9490 0.9530 0.9560 0.9560
465.217391 0.9560 0.9570 0.9570 0.9590 0.9610
469.565217 0.9640 0.9660 0.9680 0.9680 0.9700
473.913043 0.9700 0.9720 0.9760 0.9780 0.9790
478.260870 0.9800 0.9820 0.9830 0.9850 0.9860
482.608696 0.9860 0.9870 0.9870 0.9890 0.9900
486.956522 0.9910 0.9930 0.9940 0.9970 1.0000
491.304348 1.0000 1.0000 1.0000 1.0010 1.0020
495.652174 1.0020 1.0020 1.0040 1.0040 1.0040
500.000000 1.0050 1.0050 1.0050 1.0050 1.0060
504.347826 1.0060 1.0060 1.0080 1.0080 1.0080
508.695652 1.0060 1.0060 1.0060 1.0050 1.0020
513.043478 1.0010 0.9980 0.9950 0.9900 0.9800
517.391304 0.8832 0.7853 0.6076 0.5134 0.5130
521.739130 0.6670 0.8169 0.8490 0.8989 0.9788
526.086957 1.0059 1.0170 1.0210 1.0230 1.0230
530.434783 1.0250 1.0270 1.0280 1.0290 1.0290
534.782609 1.0310 1.0310 1.0320 1.0320 1.0320
539.130435 1.0320 1.0320 1.0320 1.0320 1.0320
543.478261 1.0310 1.0310 1.0310 1.0310 1.0320
547.826087 1.0320 1.0320 1.0330 1.0330 1.0330
552.173913 1.0330 1.0330 1.0330 1.0330 1.0330
556.521739 1.0330 1.0330 1.0320 1.0310 1.0280
560.869565 1.0280 1.0270 1.0270 1.0270 1.0270
565.217391 1.0270 1.0270 1.0270 1.0270 1.0270
569.565217 1.0270 1.0270 1.0250 1.0250 1.0250
573.913043 1.0250 1.0250 1.0250 1.0230 1.0230
578.260870 1.0230 1.0230 1.0210 1.0210 1.0210
582.608696 1.0200 1.0200 1.0190 1.0170 1.0160
586.956522 1.0140 1.0140 1.0120 1.0100 1.0100
591.304348 1.0080 1.0060 1.0050 1.0020 1.0010
595.652174 1.0000 0.9980 0.9970 0.9950 0.9950
600.000000 0.9940 0.9940 0.9940 0.9940 0.9940
604.347826 0.9950 0.9950 0.9970 0.9980 1.0010
608.695652 1.0010 1.0020 1.0020 1.0040 1.0040
613.043478 1.0060 1.0060 1.0080 1.0090 1.0090
617.391304 1.0080 1.0080 1.0060 1.0050 1.0040
621.739130 1.0020 1.0010 1.0000 0.9980 0.9940
626.086957 0.9910 0.9910 0.9870 0.9860 0.9850
630.434783 0.9820 0.9800 0.9790 0.9780 0.9750
634.782609 0.9700 0.9640 0.9610 0.9590 0.9570
639.130435 0.9560 0.9490 0.9420 0.9370 0.9300
643.478261 0.9210 0.9100 0.8960 0.8610 0.8321
647.826087 0.8111 0.7901 0.7521 0.7012 0.6652
652.173913 0.6310 0.6100 0.6030 0.6030 0.6110
656.521739 0.6250 0.6489 0.6709 0.6829 0.6920
660.869565 0.7050 0.7130 0.7130 0.7100 0.7030
665.217391 0.6861 0.6721 0.6710 0.6670 0.5138
669.565217 0.3690 0.2050 0.1101 0.0930 0.0760
673.913043 0.0660 0.0550 0.0480 0.0360 0.0310
678.260870 0.0310 0.1229 0.1300 0.2298 0.2729
682.608696 0.3049 0.3917 0.4548 0.5098 0.6005
686.956522 0.6630 0.7050 0.7410 0.7820 0.8229
691.304348 0.8569 0.8829 0.8950 0.9129 0.9190
695.652174 0.9320 0.9370 0.9420 0.9470 0.9530
700.000000 0.9570 0.9630 0.9670 0.9710 0.9710
704.347826 0.9720 0.9760 0.9760 0.9780 0.9790
708.695652 0.9790 0.9790 0.9790 0.9780 0.9780
713.043478 0.9760 0.9740 0.9670 0.9660 0.9640
717.391304 0.9590 0.9560 0.9530 0.9470 0.9440
721.739130 0.9400 0.9400 0.9410 0.9420 0.9450
726.086957 0.9550 0.9560 0.9570 0.9590 0.9600
730.434783 0.9630 0.9670 0.9670 0.9660 0.9660
734.782609 0.9640 0.9660 0.9660 0.9670 0.9670
739.130435 0.9670 0.9670 0.9660 0.9640 0.9630
743.478261 0.9610 0.9590 0.9560 0.9530 0.9480
747.826087 0.9360 0.9220 0.8800 0.8600 0.8201
752.173913 0.7352 0.5207 0.2739 0.2690 0.1715
756.521739 0.1440 0.1440 0.2369 0.4865 0.6975
760.869565 0.7847 0.8508 0.8729 0.8989 0.9189
765.217391 0.9320 0.9400 0.9480 0.9530 0.9560
769.565217 0.9660 0.9720 0.9760 0.9790 0.9800
773.913043 0.9860 0.9910 0.9940 1.0000 1.0010
778.260870 1.0010 1.0020 1.0020 1.0050 1.0060
782.608696 1.0060 1.0060 1.0060 1.0060 1.0080
786.956522 1.0080 1.0080 1.0090 1.0090 1.0090
791.304348 1.0090 1.0090 1.0090 1.0090 1.0090
795.652174 1.0090 1.0090 1.0090 1.0090 1.0090
800.000000 1.0080 1.0080 1.0080 1.0080 1.0060
804.347826 1.0060 1.0050 1.0050 1.0040 1.0040
808.695652 1.0020 1.0020 1.0010 1.0010 1.0000
813.043478 1.0000 1.0000 0.9980 0.9980 0.9980
817.391304 0.9980 0.9980 0.9970 0.9940 0.9930
821.739130 0.9930 0.9930 0.9930 0.9930 0.9930
826.086957 0.9910 0.9910 0.9900 0.9900 0.9900
830.434783 0.9900 0.9890 0.9860 0.9830 0.9820
834.782609 0.9800 0.9780 0.9760 0.9750 0.9680
839.130435 0.9660 0.9560 0.9510 0.9470 0.9410
843.478261 0.9340 0.9250 0.9150 0.9060 0.8960
847.826087 0.8810 0.8411 0.8001 0.7134 0.6672
852.173913 0.5960 0.5350 0.4741 0.4610 0.4610
856.521739 0.4780 0.5687 0.6606 0.8113 0.8120
860.869565 0.8490 0.8690 0.8960 0.9040 0.9140
865.217391 0.9230 0.9290 0.9330 0.9360 0.9400
869.565217 0.9450 0.9530 0.9590 0.9660 0.9710
873.913043 0.9780 0.9790 0.9820 0.9850 0.9870
878.260870 0.9900 0.9910 0.9930 0.9940 0.9940
882.608696 0.9930 0.9930 0.9910 0.9900 0.9850
886.956522 0.9820 0.9790 0.9760 0.9750 0.9680
891.304348 0.9570 0.9550 0.9520 0.9510 0.9490
895.652174 0.9480 0.9490 0.9510 0.9550 0.9590
900.000000 0.9670 0.9750 0.9790 0.9830 0.9830
904.347826 0.9860 0.9870 0.9910 0.9910 0.9910
908.695652 0.9900 0.9900 0.9870 0.9870 0.9860
913.043478 0.9860 0.9860 0.9860 0.9860 0.9850
917.391304 0.9850 0.9850 0.9830 0.9820 0.9820
921.739130 0.9830 0.9830 0.9850 0.9850 0.9860
926.086957 0.9870 0.9870 0.9860 0.9860 0.9860
930.434783 0.9890 0.9890 0.9870 0.9860 0.9860
934.782609 0.9850 0.9850 0.9850 0.9830 0.9830
939.130435 0.9830 0.9830 0.9850 0.9850 0.9850
943.478261 0.9850 0.9850 0.9850 0.9850 0.9850
947.826087 0.9850 0.9860 0.9860 0.9860 0.9860
952.173913 0.9850 0.9850 0.9850 0.9830 0.9800
956.521739 0.9800 0.9800 0.9800 0.9790 0.9790
960.869565 0.9790 0.9780 0.9780 0.9760 0.9760
965.217391 0.9750 0.9750 0.9750 0.9740 0.9720
969.565217 0.9710 0.9570 0.9261 0.9260 0.9419
973.913043 0.9550 0.9590 0.9610 0.9630 0.9660
978.260870 0.9680 0.9720 0.9740 0.9740 0.9750
982.608696 0.9760 0.9760 0.9760 0.9780 0.9800
986.956522 0.9800 0.9800 0.9800 0.9800 0.9800
991.304348 0.9820 0.9820 0.9820 0.9820 0.9820
995.652174 0.9820 0.9820 0.9820 0.9800 0.9800
1000.000000 0.9820 0.9820 0.9800 0.9790 0.9790
1004.347826 0.9780 0.9780 0.9780 0.9780 0.9780
1008.695652 0.9790 0.9790 0.9790 0.9780 0.9780
1013.043478 0.9780 0.9760 0.9760 0.9760 0.9760
1017.391304 0.9760 0.9750 0.9740 0.9700 0.9680
1021.739130 0.9640 0.9600 0.9411 0.9131 0.9130
1026.086957 0.9560 0.9670 0.9700 0.9710 0.9720
1030.434783 0.9720 0.9740 0.9720 0.9710 0.9710
1034.782609 0.9710 0.9710 0.9710 0.9710 0.9710
1039.130435 0.9720 0.9720 0.9720 0.9720 0.9720
1043.478261 0.9720 0.9720 0.9720 0.9720 0.9720
1047.826087 0.9710 0.9710 0.9700 0.9700 0.9700
1052.173913 0.9710 0.9710 0.9710 0.9710 0.9710
1056.521739 0.9710 0.9710 0.9710 0.9710 0.9710
1060.869565 0.9710 0.9700 0.9670 0.9670 0.9670
1065.217391 0.9640 0.9640 0.9630 0.9610 0.9600
1069.565217 0.9570 0.9550 0.9520 0.9510 0.9490
1073.913043 0.9490 0.9490 0.9490 0.9510 0.9510
1078.260870 0.9530 0.9530 0.9550 0.9560 0.9590
1082.608696 0.9630 0.9630 0.9640 0.9660 0.9660
1086.956522 0.9640 0.9660 0.9670 0.9670 0.9700
1091.304348 0.9700 0.9680 0.9670 0.9640 0.9610
1095.652174 0.9570 0.9530 0.9490 0.9440 0.9370
1100.000000 0.9300 0.9220 0.9140 0.9060 0.9000
1104.347826 0.8920 0.8660 0.7861 0.7860 0.8528
1108.695652 0.8680 0.8879 0.9069 0.9329 0.9609
1113.043478 0.9660 0.9680 0.9710 0.9720 0.9740
1117.391304 0.9750 0.9760 0.9760 0.9760 0.9750
1121.739130 0.9750 0.9750 0.9740 0.9720 0.9710
1126.086957 0.9710 0.9700 0.9680 0.9670 0.9660
1130.434783 0.9570 0.9530 0.9520 0.9530 0.9550
1134.782609 0.9550 0.9570 0.9590 0.9610 0.9600
1139.130435 0.9590 0.9530 0.9450 0.9340 0.9300
1143.478261 0.8651 0.8660 0.9288 0.9360 0.9400
1147.826087 0.9440 0.9480 0.9490 0.9520 0.9530
1152.173913 0.9530 0.9530 0.9530 0.9520 0.9510
1156.521739 0.9510 0.9520 0.9520 0.9510 0.9520
1160.869565 0.9520 0.9520 0.9520 0.9510 0.9510
1165.217391 0.9510 0.9520 0.9520 0.9510 0.9510
1169.565217 0.9510 0.9510 0.9490 0.9490 0.9480
1173.913043 0.9480 0.9480 0.9480 0.9480 0.9470
1178.260870 0.9470 0.9470 0.9450 0.9420 0.9420
1182.608696 0.9420 0.9440 0.9440 0.9450 0.9450
1186.956522 0.9450 0.9440 0.9420 0.9420 0.9380
1191.304348 0.9320 0.9270 0.9260 0.9220 0.9180
1195.652174 0.9130 0.9060 0.9000 0.8960 0.8920
1200.000000 0.8910 0.8920 0.8960 0.8990 0.9000
1204.347826 0.9020 0.9020 0.9000 0.8990 0.8980
1208.695652 0.8940 0.8840 0.8660 0.7692 0.7630
1213.043478 0.7590 0.6763 0.6760 0.7666 0.8267
1217.391304 0.8800 0.9100 0.9110 0.9220 0.9260
1221.739130 0.9270 0.9320 0.9330 0.9330 0.9330
1226.086957 0.9330 0.9330 0.9330 0.9320 0.9320
1230.434783 0.9300 0.9270 0.9260 0.9260 0.9250
1234.782609 0.9230 0.9220 0.9220 0.9210 0.9190
1239.130435 0.9180 0.9150 0.9110 0.9030 0.9000
1243.478261 0.8980 0.8960 0.8920 0.8830 0.8640
1247.826087 0.8580 0.8490 0.8131 0.7831 0.7362
1252.173913 0.6940 0.6770 0.6520 0.6450 0.6450
1256.521739 0.6600 0.6680 0.6750 0.6750 0.5138
1260.869565 0.4300 0.3461 0.3220 0.3170 0.1654
1265.217391 0.1650 0.2616 0.4402 0.5326 0.5917
1269.565217 0.6800 0.7640 0.8040 0.8300 0.8470
1273.913043 0.8600 0.8730 0.8879 0.8990 0.9060
1278.260870 0.9150 0.9210 0.9260 0.9270 0.9300
1282.608696 0.9330 0.9340 0.9340 0.9370 0.9370
1286.956522 0.9370 0.9360 0.9360 0.9360 0.9340
1291.304348 0.9340 0.9330 0.9330 0.9320 0.9320
1295.652174 0.9320 0.9290 0.9260 0.9250 0.9150
1300.000000 0.9140 0.9040 0.8960 0.8841 0.8770
1304.347826 0.8760 0.8790 0.8920 0.9190 0.9230
1308.695652 0.9250 0.9270 0.9290 0.9320 0.9330
1313.043478 0.9330 0.9330 0.9330 0.9340 0.9340
1317.391304 0.9360 0.9340 0.9340 0.9340 0.9360
1321.739130 0.9360 0.9370 0.9380 0.9380 0.9380
1326.086957 0.9400 0.9400 0.9400 0.9400 0.9380
1330.434783 0.9370 0.9360 0.9270 0.9130 0.9100
1334.782609 0.9080 0.9070 0.9060 0.9040 0.9030
1339.130435 0.9020 0.8990 0.8980 0.8960 0.8950
1343.478261 0.8950 0.8950 0.8960 0.8980 0.9000
1347.826087 0.9020 0.9070 0.9110 0.9210 0.9270
1352.173913 0.9300 0.9340 0.9360 0.9380 0.9410
1356.521739 0.9440 0.9470 0.9470 0.9480 0.9490
1360.869565 0.9490 0.9510 0.9480 0.9480 0.9480
1365.217391 0.9480 0.9490 0.9510 0.9490 0.9470
1369.565217 0.9450 0.9440 0.9440 0.9450 0.9480
1373.913043 0.9490 0.9510 0.9520 0.9550 0.9560
1378.260870 0.9590 0.9600 0.9610 0.9630 0.9640
1382.608696 0.9640 0.9640 0.9640 0.9640 0.9630
1386.956522 0.9630 0.9610 0.9600 0.9600 0.9640
1391.304348 0.9670 0.9670 0.9670 0.9670 0.9660
1395.652174 0.9640 0.9630 0.9610 0.9600 0.9610
1400.000000 0.9630 0.9640 0.9660 0.9670 0.9680
1404.347826 0.9700 0.9700 0.9680 0.9680 0.9670
1408.695652 0.9670 0.9660 0.9610 0.9600 0.9590
1413.043478 0.9590 0.9560 0.9520 0.9420 0.9112
1417.391304 0.9070 0.9000 0.8790 0.8171 0.7302
1421.739130 0.5734 0.5730 0.7394 0.8426 0.9017
1426.086957 0.9320 0.9420 0.9470 0.9490 0.9490
1430.434783 0.9490 0.9480 0.9470 0.9450 0.9370
1434.782609 0.9340 0.9320 0.9270 0.9250 0.9230
1439.130435 0.9210 0.9150 0.9080 0.8921 0.8701
1443.478261 0.8230 0.7560 0.4173 0.4080 0.4998
1447.826087 0.6536 0.7427 0.8377 0.9127 0.9369
1452.173913 0.9400 0.9470 0.9560 0.9610 0.9660
1456.521739 0.9680 0.9710 0.9710 0.9710 0.9710
1460.869565 0.9710 0.9710 0.9710 0.9710 0.9710
1465.217391 0.9710 0.9710 0.9710 0.9710 0.9710
1469.565217 0.9710 0.9710 0.9710 0.9710 0.9710
1473.913043 0.9710 0.9710 0.9700 0.9700 0.9700
1478.260870 0.9680 0.9670 0.9640 0.9630 0.9610
1482.608696 0.9610 0.9640 0.9660 0.9700 0.9710
1486.956522 0.9720 0.9740 0.9760 0.9760 0.9760
1491.304348 0.9760 0.9760 0.9750 0.9740 0.9720
1495.652174 0.9720 0.9720 0.9720 0.9720 0.9720
1500.000000 0.9710 0.9700 0.9700 0.9680 0.9670
1504.347826 0.9640 0.9610 0.9600 0.9560 0.9550
1508.695652 0.9480 0.9440 0.9301 0.9131 0.8543
1513.043478 0.8150 0.8150 0.8450 0.8690 0.8750
1517.391304 0.8800 0.8830 0.8920 0.9020 0.9249
1521.739130 0.9330 0.9370 0.9400 0.9450 0.9560
1526.086957 0.9660 0.9670 0.9680 0.9680 0.9680
1530.434783 0.9680 0.9710 0.9710 0.9710 0.9710
1534.782609 0.9710 0.9710 0.9710 0.9710 0.9720
1539.130435 0.9760 0.9760 0.9790 0.9790 0.9740
1543.478261 0.9720 0.9710 0.9720 0.9720 0.9720
1547.826087 0.9750 0.9760 0.9760 0.9780 0.9790
1552.173913 0.9780 0.9780 0.9780 0.9780 0.9760
1556.521739 0.9750 0.9750 0.9750 0.9750 0.9750
1560.869565 0.9750 0.9750 0.9740 0.9740 0.9750
1565.217391 0.9750 0.9760 0.9760 0.9760 0.9780
1569.565217 0.9790 0.9790 0.9790 0.9760 0.9760
1573.913043 0.9760 0.9760 0.9750 0.9750 0.9750
1578.260870 0.9750 0.9750 0.9750 0.9750 0.9750
1582.608696 0.9740 0.9740 0.9720 0.9720 0.9720
1586.956522 0.9720 0.9740 0.9720 0.9720 0.9720
1591.304348 0.9720 0.9720 0.9720 0.9720 0.9720
1595.652174 0.9720 0.9710 0.9710 0.9700 0.9700
1600.000000 0.9680 0.9660 0.9610 0.9610 0.9630
1604.347826 0.9640 0.9640 0.9660 0.9660 0.9660
1608.695652 0.9670 0.9680 0.9680 0.9680 0.9700
1613.043478 0.9700 0.9700 0.9710 0.9700 0.9700
1617.391304 0.9700 0.9680 0.9680 0.9680 0.9680
1621.739130 0.9700 0.9700 0.9700 0.9680 0.9680
1626.086957 0.9680 0.9680 0.9680 0.9680 0.9680
1630.434783 0.9680 0.9670 0.9660 0.9640 0.9640
1634.782609 0.9640 0.9630 0.9610 0.9600 0.9600
1639.130435 0.9590 0.9590 0.9600 0.9600 0.9610
1643.478261 0.9610 0.9610 0.9610 0.9610 0.9610
1647.826087 0.9610 0.9610 0.9610 0.9610 0.9610
1652.173913 0.9610 0.9610 0.9610 0.9600 0.9600
1656.521739 0.9590 0.9600 0.9600 0.9600 0.9610
1660.869565 0.9610 0.9590 0.9570 0.9570 0.9570
1665.217391 0.9570 0.9570 0.9570 0.9570 0.9570
1669.565217 0.9570 0.9570 0.9570 0.9570 0.9570
1673.913043 0.9570 0.9590 0.9590 0.9570 0.9570
1678.260870 0.9550 0.9550 0.9550 0.9560 0.9570
1682.608696 0.9560 0.9570 0.9570 0.9590 0.9590
1686.956522 0.9550 0.9550 0.9530 0.9520 0.9510
1691.304348 0.9490 0.9480 0.9470 0.9450 0.9440
1695.652174 0.9410 0.9410 0.9370 0.9320 0.9290
1700.000000 0.9260 0.9210 0.9170 0.9070 0.9060
1704.347826 0.9060 0.9100 0.9130 0.9180 0.9230
1708.695652 0.9270 0.9320 0.9340 0.9380 0.9440
1713.043478 0.9450 0.9470 0.9480 0.9480 0.9480
1717.391304 0.9470 0.9470 0.9470 0.9450 0.9450
1721.739130 0.9440 0.9440 0.9420 0.9410 0.9400
1726.086957 0.9360 0.9330 0.9300 0.9290 0.9290
1730.434783 0.9260 0.9260 0.9250 0.9230 0.9230
1734.782609 0.9230 0.9230 0.9230 0.9230 0.9250
1739.130435 0.9270 0.9270 0.9290 0.9300 0.9300
1743.478261 0.9320 0.9320 0.9330 0.9330 0.9340
1747.826087 0.9340 0.9340 0.9360 0.9380 0.9400
1752.173913 0.9440 0.9450 0.9450 0.9450 0.9450
1756.521739 0.9450 0.9450 0.9470 0.9480 0.9480
1760.869565 0.9490 0.9490 0.9480 0.9480 0.9480
1765.217391 0.9470 0.9470 0.9470 0.9470 0.9470
1769.565217 0.9470 0.9470 0.9450 0.9450 0.9450
1773.913043 0.9450 0.9440 0.9420 0.9410 0.9410
1778.260870 0.9410 0.9410 0.9410 0.9410 0.9400
1782.608696 0.9380 0.9370 0.9360 0.9360 0.9340
1786.956522 0.9340 0.9340 0.9360 0.9370 0.9380
1791.304348 0.9410 0.9410 0.9400 0.9400 0.9400
1795.652174 0.9380 0.9380 0.9370 0.9360 0.9360
1800.000000 0.9360 0.9360 0.9370 0.9370 0.9360
1804.347826 0.9340 0.9330 0.9330 0.9320 0.9300
1808.695652 0.9290 0.9270 0.9220 0.9150 0.9080
1813.043478 0.9070 0.9020 0.8940 0.8910 0.8910
1817.391304 0.8940 0.8980 0.9000 0.9020 0.9040
1821.739130 0.9100 0.9180 0.9220 0.9260 0.9290
1826.086957 0.9320 0.9340 0.9360 0.9370 0.9380
1830.434783 0.9380 0.9400 0.9400 0.9400 0.9400
1834.782609 0.9400 0.9400 0.9400 0.9400 0.9400
1839.130435 0.9400 0.9400 0.9400 0.9400 0.9400
1843.478261 0.9400 0.9380 0.9380 0.9380 0.9380
1847.826087 0.9370 0.9370 0.9370 0.9360 0.9360
1852.173913 0.9360 0.9340 0.9340 0.9330 0.9330
1856.521739 0.9330 0.9300 0.9300 0.9320 0.9330
1860.869565 0.9330 0.9320 0.9300 0.9300 0.9300
1865.217391 0.9270 0.9270 0.9270 0.9270 0.9270
1869.565217 0.9270 0.9270 0.9260 0.9260 0.9260
1873.913043 0.9270 0.9270 0.9270 0.9260 0.9260
1878.260870 0.9260 0.9260 0.9260 0.9260 0.9260
1882.608696 0.9250 0.9250 0.9270 0.9270 0.9260
1886.956522 0.9260 0.9260 0.9260 0.9270 0.9270
1891.304348 0.9260 0.9260 0.9250 0.9250 0.9250
1895.652174 0.9230 0.9230 0.9230 0.9250 0.9250
1900.000000 0.9250 0.9260 0.9250 0.9250 0.9250
1904.347826 0.9250 0.9250 0.9230 0.9230 0.9230
1908.695652 0.9230 0.9220 0.9220 0.9230 0.9230
1913.043478 0.9220 0.9220 0.9220 0.9210 0.9210
1917.391304 0.9210 0.9190 0.9190 0.9190 0.9170
1921.739130 0.9150 0.9100 0.9080 0.9020 0.8980
1926.086957 0.8920 0.8850 0.8790 0.8680 0.8431
1930.434783 0.8080 0.8090 0.8489 0.8750 0.8830
1934.782609 0.8920 0.8980 0.9030 0.9070 0.9080
1939.130435 0.9110 0.9130 0.9130 0.9140 0.9150
1943.478261 0.9150 0.9150 0.9170 0.9180 0.9180
1947.826087 0.9180 0.9190 0.9190 0.9210 0.9210
1952.173913 0.9190 0.9190 0.9190 0.9190 0.9190
1956.521739 0.9180 0.9180 0.9170 0.9170 0.9170
1960.869565 0.9170 0.9150 0.9150 0.9140 0.9130
1965.217391 0.9110 0.9110 0.9100 0.9100 0.9110
1969.565217 0.9110 0.9110 0.9110 0.9110 0.9110
1973.913043 0.9110 0.9110 0.9110 0.9130 0.9130
1978.260870 0.9130 0.9110 0.9110 0.9100 0.9080
1982.608696 0.9070 0.9070 0.9070 0.9070 0.9070
1986.956522 0.9070 0.9070 0.9080 0.9080 0.9080
1991.304348 0.9070 0.9070 0.9080 0.9080 0.9080
1995.652174 0.9080 0.9080 0.9100 0.9100 0.9100
2000.000000 0.9100 0.9090 0.9080 0.9080 0.9080
2004.347826 0.9070 0.9060 0.9050 0.9040 0.9040
2008.695652 0.9040 0.9040 0.9040 0.9035 0.9030
2013.043478 0.9025 0.9020 0.9005 0.8990 0.8985
2017.391304 0.8980 0.8980 0.8980 0.8980 0.8980
2021.739130 0.8980 0.8980 0.8980 0.8980 0.8970
2026.086957 0.8960 0.8960 0.8960 0.8960 0.8960
2030.434783 0.8960 0.8960 0.8955 0.8950 0.8950
2034.782609 0.8950 0.8945 0.8940 0.8940 0.8940
2039.130435 0.8940 0.8940 0.8940 0.8940 0.8925
2043.478261 0.8910 0.8910 0.8910 0.8915 0.8920
2047.826087 0.8920 0.8920 0.8920 0.8920 0.8920
2052.173913 0.8920 0.8900 0.8880 0.8875 0.8870
2056.521739 0.8855 0.8840 0.8840 0.8840 0.8840
2060.869565 0.8840 0.8840 0.8840 0.8845 0.8850
2065.217391 0.8850 0.8850 0.8850 0.8850 0.8850
2069.565217 0.8850 0.8860 0.8870 0.8860 0.8850
2073.913043 0.8850 0.8850 0.8845 0.8840 0.8840
2078.260870 0.8840 0.8840 0.8840 0.8840 0.8840
2082.608696 0.8835 0.8830 0.8820 0.8810 0.8810
2086.956522 0.8810 0.8810 0.8810 0.8805 0.8800
2091.304348 0.8805 0.8810 0.8805 0.8800 0.8795
2095.652174 0.8790 0.8780 0.8770 0.8770 0.8770
2100.000000 0.8770 0.8770 0.8770 0.8770 0.8765
2104.347826 0.8760 0.8760 0.8760 0.8760 0.8760
2108.695652 0.8760 0.8760 0.8755 0.8750 0.8740
2113.043478 0.8730 0.8730 0.8730 0.8730 0.8730
2117.391304 0.8725 0.8720 0.8720 0.8720 0.8720
2121.739130 0.8720 0.8720 0.8720 0.8720 0.8720
2126.086957 0.8710 0.8700 0.8700 0.8700 0.8695
2130.434783 0.8690 0.8690 0.8690 0.8690 0.8690
2134.782609 0.8690 0.8690 0.8690 0.8690 0.8690
2139.130435 0.8690 0.8690 0.8690 0.8690 0.8690
2143.478261 0.8695 0.8700 0.8700 0.8700 0.8700
2147.826087 0.8700 0.8695 0.8690 0.8690 0.8690
2152.173913 0.8685 0.8680 0.8670 0.8660 0.8655
2156.521739 0.8650 0.8645 0.8640 0.8640 0.8640
2160.869565 0.8630 0.8620 0.8620 0.8620 0.8615
2165.217391 0.8610 0.8610 0.8610 0.8610 0.8610
2169.565217 0.8610 0.8610 0.8595 0.8580 0.8580
2173.913043 0.8580 0.8575 0.8570 0.8570 0.8570
2178.260870 0.8560 0.8550 0.8550 0.8550 0.8550
2182.608696 0.8550 0.8550 0.8550 0.8545 0.8540
2186.956522 0.8540 0.8540 0.8540 0.8540 0.8525
2191.304348 0.8510 0.8510 0.8510 0.8505 0.8500
2195.652174 0.8500 0.8500 0.8500 0.8500 0.8495
2200.000000 0.8490 0.8490 0.8490 0.8490 0.8490
2204.347826 0.8480 0.8470 0.8465 0.8460 0.8460
2208.695652 0.8460 0.8455 0.8450 0.8450 0.8450
2213.043478 0.8450 0.8450 0.8450 0.8450 0.8440
2217.391304 0.8430 0.8430 0.8430 0.8430 0.8430
2221.739130 0.8430 0.8430 0.8425 0.8420 0.8420
2226.086957 0.8420 0.8415 0.8410 0.8400 0.8390
2230.434783 0.8385 0.8380 0.8370 0.8360 0.8350
2234.782609 0.8340 0.8340 0.8340 0.8340 0.8340
2239.130435 0.8330 0.8320 0.8320 0.8320 0.8320
2243.478261 0.8320 0.8315 0.8310 0.8310 0.8310
2247.826087 0.8305 0.8300 0.8300 0.8300 0.8290
2252.173913 0.8280 0.8280 0.8280 0.8275 0.8270
2256.521739 0.8270 0.8270 0.8265 0.8260 0.8250
2260.869565 0.8240 0.8235 0.8230 0.8225 0.8220
2265.217391 0.8220 0.8220 0.8220 0.8220 0.8220
2269.565217 0.8220 0.8210 0.8200 0.8185 0.8170
2273.913043 0.8165 0.8160 0.8155 0.8150 0.8150
2278.260870 0.8150 0.8150 0.8150 0.8140 0.8130
2282.608696 0.8130 0.8130 0.8130 0.8130 0.8125
2286.956522 0.8120 0.8120 0.8120 0.8115 0.8110
2291.304348 0.8110 0.8110 0.8110 0.8110 0.8110
2295.652174 0.8110 0.8110 0.8110 0.8110 0.8110
2300.000000 0.8110 0.8110 0.8110 0.8110 0.8110
2304.347826 0.8110 0.8110 0.8110 0.8110 0.8110
2308.695652 0.8110 0.8110 0.8110 0.8110 0.8110
2313.043478 0.8110 0.8110 0.8110 0.8110 0.8110
2317.391304 0.8100 0.8090 0.8090 0.8090 0.8090
2321.739130 0.8090 0.8090 0.8090 0.8085 0.8080
2326.086957 0.8075 0.8070 0.8070 0.8070 0.8070
2330.434783 0.8070 0.8060 0.8050 0.8045 0.8040
2334.782609 0.8040 0.8040 0.8040 0.8040 0.8040
2339.130435 0.8040 0.8030 0.8020 0.8015 0.8010
2343.478261 0.8010 0.8010 0.8015 0.8020 0.8020
2347.826087 0.8020 0.8020 0.8020 0.8030 0.8040
2352.173913 0.8040 0.8040 0.8040 0.8040 0.8040
2356.521739 0.8040 0.8040 0.8040 0.8045 0.8050
2360.869565 0.8060 0.8070 0.8075 0.8080 0.8095
2365.217391 0.8110 0.8110 0.8110 0.8115 0.8120
2369.565217 0.8120 0.8120 0.8120 0.8120 0.8120
2373.913043 0.8120 0.8120 0.8120 0.8115 0.8110
2378.260870 0.8100 0.8090 0.8080 0.8070 0.8060
2382.608696 0.8050 0.8045 0.8040 0.8025 0.8010
2386.956522 0.8010 0.8010 0.8005 0.8000 0.8000
2391.304348 0.8000 0.8000 0.8000 0.7985 0.7970
2395.652174 0.7970 0.7970 0.7975 0.7980 0.7980
2400.000000 0.7980 0.7980 0.7980 0.7980 0.7980
2404.347826 0.7980 0.7980 0.7975 0.7970 0.7970
2408.695652 0.7970 0.7970 0.7970 0.7970 0.7970
2413.043478 0.7965 0.7960 0.7960 0.7960 0.7950
2417.391304 0.7940 0.7940 0.7940 0.7930 0.7920
2421.739130 0.7905 0.7890 0.7885 0.7880 0.7880
2426.086957 0.7880 0.7880 0.7880 0.7885 0.7890
2430.434783 0.7890 0.7890 0.7895 0.7900 0.7910
2434.782609 0.7920 0.7925 0.7930 0.7930 0.7930
2439.130435 0.7935 0.7940 0.7940 0.7940 0.7930
2443.478261 0.7920 0.7910 0.7900 0.7895 0.7890
2447.826087 0.7890 0.7890 0.7895 0.7900 0.7910
2452.173913 0.7920 0.7925 0.7930 0.7935 0.7940
2456.521739 0.7935 0.7930 0.7925 0.7920 0.7910
2460.869565 0.7900 0.7890 0.7880 0.7880 0.7880
2465.217391 0.7870 0.7860 0.7855 0.7850 0.7850
2469.565217 0.7850 0.7840 0.7830 0.7830 0.7830
2473.913043 0.7830 0.7830 0.7830 0.7830 0.7840
2478.260870 0.7850 0.7850 0.7850 0.7850 0.7850
2482.608696 0.7850 0.7850 0.7835 0.7820 0.7820
2486.956522 0.7820 0.7820 0.7820 0.7820 0.7820
2491.304348 0.7825 0.7830 0.7830 0.7830 0.7825
2495.652174 0.7820 0.7820 0.7820 0.7815 0.7810
2500.000000 0.7790 0.7770 0.7770 0.7770 0.7790
2504.347826 0.7810 0.7810 0.7810 0.7810 0.7810
2508.695652 0.7810 0.7810 0.7815 0.7820 0.7815
2513.043478 0.7810 0.7810 0.7810 0.7810 0.7810
2517.391304 0.7810 0.7810 0.7810 0.7810 0.7795
2521.739130 0.7780 0.7765 0.7750 0.7750 0.7750
2526.086957 0.7760 0.7770 0.7775 0.7780 0.7780
2530.434783 0.7780 0.7785 0.7790 0.7785 0.7780
2534.782609 0.7780 0.7780 0.7775 0.7770 0.7770
2539.130435 0.7770 0.7770 0.7770 0.7760 0.7750
2543.478261 0.7750 0.7750 0.7750 0.7750 0.7750
2547.826087 0.7750 0.7750 0.7750 0.7750 0.7750
2552.173913 0.7740 0.7730 0.7720 0.7710 0.7705
2556.521739 0.7700 0.7700 0.7700 0.7700 0.7700
2560.869565 0.7700 0.7700 0.7700 0.7700 0.7700
2565.217391 0.7700 0.7700 0.7700 0.7700 0.7700
2569.565217 0.7700 0.7700 0.7700 0.7700 0.7695
2573.913043 0.7690 0.7690 0.7690 0.7680 0.7670
2578.260870 0.7670 0.7670 0.7670 0.7670 0.7670
2582.608696 0.7670 0.7665 0.7660 0.7660 0.7660
2586.956522 0.7660 0.7660 0.7660 0.7660 0.7660
2591.304348 0.7660 0.7650 0.7640 0.7635 0.7630
2595.652174 0.7630 0.7630 0.7630 0.7630 0.7625
2600.000000 0.7620 0.7620 0.7620 0.7620 0.7620
2604.347826 0.7620 0.7620 0.7620 0.7620 0.7620
2608.695652 0.7620 0.7620 0.7620 0.7620 0.7620
2613.043478 0.7620 0.7620 0.7620 0.7620 0.7620
2617.391304 0.7620 0.7610 0.7600 0.7600 0.7600
2621.739130 0.7600 0.7600 0.7600 0.7600 0.7600
2626.086957 0.7600 0.7600 0.7600 0.7595 0.7590
2630.434783 0.7590 0.7590 0.7585 0.7580 0.7580
2634.782609 0.7580 0.7580 0.7580 0.7580 0.7580
2639.130435 0.7580 0.7580 0.7580 0.7580 0.7580
2643.478261 0.7580 0.7580 0.7580 0.7580 0.7580
2647.826087 0.7570 0.7560 0.7560 0.7560 0.7555
2652.173913 0.7550 0.7550 0.7550 0.7545 0.7540
2656.521739 0.7540 0.7540 0.7540 0.7540 0.7540
2660.869565 0.7540 0.7530 0.7520 0.7515 0.7510
2665.217391 0.7510 0.7510 0.7510 0.7510 0.7510
2669.565217 0.7510 0.7510 0.7510 0.7510 0.7510
2673.913043 0.7510 0.7510 0.7505 0.7500 0.7490
2678.260870 0.7480 0.7480 0.7480 0.7475 0.7470
2682.608696 0.7460 0.7450 0.7445 0.7440 0.7440
2686.956522 0.7440 0.7435 0.7430 0.7430 0.7430
2691.304348 0.7420 0.7410 0.7410 0.7410 0.7405
2695.652174 0.7400 0.7400 0.7400 0.7400 0.7400
2700.000000 0.7395 0.7390 0.7375 0.7360 0.7355
2704.347826 0.7350 0.7340 0.7330 0.7330 0.7330
2708.695652 0.7340 0.7350 0.7355 0.7360 0.7360
2713.043478 0.7360 0.7375 0.7390 0.7390 0.7390
2717.391304 0.7390 0.7390 0.7395 0.7400 0.7400
2721.739130 0.7400 0.7400 0.7400 0.7400 0.7400
2726.086957 0.7400 0.7400 0.7400 0.7400 0.7400
2730.434783 0.7400 0.7400 0.7400 0.7395 0.7390
2734.782609 0.7390 0.7390 0.7380 0.7370 0.7370
2739.130435 0.7370 0.7365 0.7360 0.7360 0.7360
2743.478261 0.7355 0.7350 0.7340 0.7330 0.7330
2747.826087 0.7330 0.7330 0.7330 0.7330 0.7330
2752.173913 0.7330 0.7330 0.7330 0.7330 0.7340
2756.521739 0.7350 0.7340 0.7330 0.7330 0.7330
2760.869565 0.7325 0.7320 0.7310 0.7300 0.7300
2765.217391 0.7300 0.7295 0.7290 0.7290 0.7290
2769.565217 0.7285 0.7280 0.7280 0.7280 0.7270
2773.913043 0.7260 0.7260 0.7260 0.7260 0.7260
2778.260870 0.7260 0.7260 0.7260 0.7260 0.7260
2782.608696 0.7260 0.7255 0.7250 0.7245 0.7240
2786.956522 0.7240 0.7240 0.7240 0.7240 0.7240
2791.304348 0.7240 0.7240 0.7240 0.7240 0.7240
2795.652174 0.7240 0.7240 0.7240 0.7240 0.7240
2800.000000 0.7240 0.7245 0.7250 0.7250 0.7250
2804.347826 0.7245 0.7240 0.7240 0.7240 0.7225
2808.695652 0.7210 0.7205 0.7200 0.7190 0.7180
2813.043478 0.7175 0.7170 0.7165 0.7160 0.7160
2817.391304 0.7160 0.7150 0.7140 0.7140 0.7140
2821.739130 0.7115 0.7090 0.7080 0.7070 0.7070
2826.086957 0.7070 0.7070 0.7070 0.7070 0.7070
2830.434783 0.7070 0.7070 0.7080 0.7090 0.7090
2834.782609 0.7090 0.7080 0.7070 0.7070 0.7070
2839.130435 0.7070 0.7070 0.7065 0.7060 0.7060
2843.478261 0.7060 0.7055 0.7050 0.7040 0.7030
2847.826087 0.7030 0.7030 0.7025 0.7020 0.6995
2852.173913 0.6970 0.6960 0.6950 0.6945 0.6940
2856.521739 0.6930 0.6920 0.6895 0.6870 0.6835
2860.869565 0.6800 0.6760 0.6720 0.6685 0.6650
2865.217391 0.6630 0.6610 0.6620 0.6630 0.6680
2869.565217 0.6730 0.6775 0.6820 0.6830 0.6840
2873.913043 0.6850 0.6860 0.6860 0.6860 0.6865
2878.260870 0.6870 0.6870 0.6870 0.6870 0.6870
2882.608696 0.6875 0.6880 0.6890 0.6900 0.6900
2886.956522 0.6900 0.6900 0.6900 0.6900 0.6900
2891.304348 0.6900 0.6900 0.6900 0.6900 0.6900
2895.652174 0.6900 0.6890 0.6880 0.6880 0.6880
2900.000000 0.6875 0.6870 0.6865 0.6860 0.6845
2904.347826 0.6830 0.6825 0.6820 0.6820 0.6820
2908.695652 0.6810 0.6800 0.6800 0.6800 0.6785
2913.043478 0.6770 0.6770 0.6770 0.6770 0.6770
2917.391304 0.6765 0.6760 0.6760 0.6760 0.6760
2921.739130 0.6760 0.6755 0.6750 0.6750 0.6750
2926.086957 0.6740 0.6730 0.6730 0.6730 0.6725
2930.434783 0.6720 0.6715 0.6710 0.6695 0.6680
2934.782609 0.6675 0.6670 0.6660 0.6650 0.6640
2939.130435 0.6630 0.6630 0.6630 0.6615 0.6600
2943.478261 0.6590 0.6580 0.6580 0.6580 0.6580
2947.826087 0.6580 0.6575 0.6570 0.6565 0.6560
2952.173913 0.6530 0.6500 0.6461 0.6421 0.6365
2956.521739 0.6310 0.6305 0.6300 0.6295 0.6290
2960.869565 0.6240 0.6190 0.6145 0.6100 0.5981
2965.217391 0.5861 0.5667 0.5472 0.5431 0.5391
2969.565217 0.5538 0.5688 0.5892 0.6096 0.6224
2973.913043 0.6350 0.6455 0.6560 0.6580 0.6600
2978.260870 0.6605 0.6610 0.6640 0.6670 0.6690
2982.608696 0.6710 0.6720 0.6730 0.6745 0.6760
2986.956522 0.6760 0.6760 0.6760 0.6760 0.6760
2991.304348 0.6760 0.6760 0.6760 0.6760 0.6760
2995.652174 0.6760 0.6760 0.6760 0.6760 0.6755
3000.000000 0.6750 0.6750 0.6750 0.6740 0.6730
3004.347826 0.6725 0.6720 0.6715 0.6710 0.6710
3008.695652 0.6710 0.6710 0.6710 0.6715 0.6720
3013.043478 0.6725 0.6730 0.6730 0.6730 0.6730
3017.391304 0.6730 0.6730 0.6730 0.6730 0.6730
3021.739130 0.6730 0.6730 0.6730 0.6730 0.6730
3026.086957 0.6730 0.6725 0.6720 0.6720 0.6720
3030.434783 0.6720 0.6720 0.6705 0.6690 0.6685
3034.782609 0.6680 0.6685 0.6690 0.6700 0.6710
3039.130435 0.6710 0.6710 0.6710 0.6710 0.6710
3043.478261 0.6710 0.6700 0.6690 0.6690 0.6690
3047.826087 0.6670 0.6650 0.6615 0.6580 0.6570
3052.173913 0.6560 0.6560 0.6560 0.6560 0.6560
3056.521739 0.6565 0.6570 0.6570 0.6570 0.6585
3060.869565 0.6600 0.6600 0.6600 0.6605 0.6610
3065.217391 0.6610 0.6610 0.6610 0.6610 0.6605
3069.565217 0.6600 0.6600 0.6600 0.6600 0.6600
3073.913043 0.6600 0.6600 0.6600 0.6600 0.6600
3078.260870 0.6600 0.6600 0.6600 0.6600 0.6600
3082.608696 0.6590 0.6580 0.6580 0.6580 0.6575
3086.956522 0.6570 0.6570 0.6570 0.6565 0.6560
3091.304348 0.6560 0.6560 0.6550 0.6540 0.6535
3095.652174 0.6530 0.6530 0.6530 0.6530 0.6530
3100.000000 0.6530 0.6530 0.6525 0.6520 0.6520
3104.347826 0.6520 0.6520 0.6520 0.6520 0.6520
3108.695652 0.6520 0.6520 0.6520 0.6520 0.6525
3113.043478 0.6530 0.6525 0.6520 0.6520 0.6520
3117.391304 0.6520 0.6520 0.6520 0.6520 0.6510
3121.739130 0.6500 0.6500 0.6500 0.6490 0.6480
3126.086957 0.6480 0.6480 0.6480 0.6480 0.6480
3130.434783 0.6480 0.6485 0.6490 0.6485 0.6480
3134.782609 0.6480 0.6480 0.6480 0.6480 0.6480
3139.130435 0.6480 0.6470 0.6460 0.6470 0.6480
3143.478261 0.6480 0.6480 0.6470 0.6460 0.6460
3147.826087 0.6460 0.6455 0.6450 0.6445 0.6440
3152.173913 0.6430 0.6420 0.6435 0.6450 0.6450
3156.521739 0.6450 0.6450 0.6450 0.6450 0.6450
3160.869565 0.6450 0.6450 0.6450 0.6450 0.6445
3165.217391 0.6440 0.6425 0.6410 0.6410 0.6410
3169.565217 0.6400 0.6390 0.6390 0.6390 0.6390
3173.913043 0.6390 0.6390 0.6390 0.6390 0.6390
3178.260870 0.6390 0.6390 0.6390 0.6390 0.6385
3182.608696 0.6380 0.6380 0.6380 0.6375 0.6370
3186.956522 0.6370 0.6370 0.6360 0.6350 0.6350
3191.304348 0.6350 0.6350 0.6350 0.6345 0.6340
3195.652174 0.6340 0.6340 0.6335 0.6330 0.6330
3200.000000 0.6330 0.6320 0.6310 0.6310 0.6310
3204.347826 0.6305 0.6300 0.6295 0.6290 0.6290
3208.695652 0.6290 0.6300 0.6310 0.6310 0.6310
3213.043478 0.6310 0.6310 0.6305 0.6300 0.6300
3217.391304 0.6300 0.6300 0.6300 0.6300 0.6300
3221.739130 0.6295 0.6290 0.6290 0.6290 0.6290
3226.086957 0.6290 0.6290 0.6290 0.6290 0.6290
3230.434783 0.6290 0.6290 0.6280 0.6270 0.6270
3234.782609 0.6270 0.6265 0.6260 0.6260 0.6260
3239.130435 0.6260 0.6260 0.6255 0.6250 0.6240
3243.478261 0.6230 0.6230 0.6230 0.6225 0.6220
3247.826087 0.6220 0.6220 0.6220 0.6220 0.6210
3252.173913 0.6200 0.6200 0.6200 0.6195 0.6190
3256.521739 0.6190 0.6190 0.6190 0.6190 0.6190
3260.869565 0.6190 0.6185 0.6180 0.6180 0.6180
3265.217391 0.6170 0.6160 0.6160 0.6160 0.6160
3269.565217 0.6160 0.6160 0.6160 0.6155 0.6150
3273.913043 0.6150 0.6150 0.6150 0.6150 0.6150
3278.260870 0.6150 0.6150 0.6150 0.6145 0.6140
3282.608696 0.6130 0.6120 0.6120 0.6120 0.6120
3286.956522 0.6120 0.6115 0.6110 0.6110 0.6110
3291.304348 0.6110 0.6110 0.6105 0.6100 0.6090
3295.652174 0.6080 0.6080 0.6080 0.6075 0.6070
3300.000000 0.6070 0.6070 0.6070 0.6070 0.6070
3304.347826 0.6070 0.6060 0.6050 0.6050 0.6050
3308.695652 0.6050 0.6050 0.6050 0.6050 0.6050
3313.043478 0.6050 0.6050 0.6050 0.6050 0.6050
3317.391304 0.6045 0.6040 0.6040 0.6040 0.6040
3321.739130 0.6040 0.6035 0.6030 0.6030 0.6030
3326.086957 0.6020 0.6010 0.6005 0.6000 0.6000
3330.434783 0.6000 0.5995 0.5990 0.5990 0.5990
3334.782609 0.5975 0.5960 0.5955 0.5950 0.5950
3339.130435 0.5950 0.5935 0.5920 0.5920 0.5920
3343.478261 0.5915 0.5910 0.5910 0.5910 0.5900
3347.826087 0.5890 0.5885 0.5880 0.5880 0.5880
3352.173913 0.5880 0.5880 0.5880 0.5880 0.5880
3356.521739 0.5880 0.5880 0.5880 0.5870 0.5860
3360.869565 0.5860 0.5860 0.5860 0.5860 0.5860
3365.217391 0.5860 0.5860 0.5860 0.5855 0.5850
3369.565217 0.5850 0.5850 0.5850 0.5850 0.5850
3373.913043 0.5850 0.5845 0.5840 0.5830 0.5820
3378.260870 0.5820 0.5820 0.5820 0.5820 0.5820
3382.608696 0.5820 0.5810 0.5800 0.5800 0.5800
3386.956522 0.5800 0.5800 0.5800 0.5800 0.5790
3391.304348 0.5780 0.5780 0.5780 0.5780 0.5780
3395.652174 0.5780 0.5780 0.5775 0.5770 0.5770
3400.000000 0.5770 0.5770 0.5770 0.5770 0.5770
3404.347826 0.5770 0.5770 0.5770 0.5770 0.5770
3408.695652 0.5770 0.5770 0.5770 0.5770 0.5770
3413.043478 0.5765 0.5760 0.5760 0.5760 0.5760
3417.391304 0.5760 0.5760 0.5760 0.5750 0.5740
3421.739130 0.5740 0.5740 0.5740 0.5740 0.5740
3426.086957 0.5740 0.5735 0.5730 0.5725 0.5720
3430.434783 0.5710 0.5700 0.5700 0.5700 0.5700
3434.782609 0.5700 0.5700 0.5700 0.5695 0.5690
3439.130435 0.5690 0.5690 0.5690 0.5690 0.5690
3443.478261 0.5690 0.5690 0.5690 0.5690 0.5690
3447.826087 0.5690 0.5690 0.5690 0.5690 0.5680
3452.173913 0.5670 0.5670 0.5670 0.5665 0.5660
3456.521739 0.5660 0.5660 0.5660 0.5660 0.5655
3460.869565 0.5650 0.5650 0.5650 0.5650 0.5650
3465.217391 0.5640 0.5630 0.5630 0.5630 0.5640
3469.565217 0.5650 0.5650 0.5650 0.5640 0.5630
3473.913043 0.5630 0.5630 0.5625 0.5620 0.5625
3478.260870 0.5630 0.5630 0.5630 0.5630 0.5630
3482.608696 0.5625 0.5620 0.5620 0.5620 0.5625
3486.956522 0.5630 0.5630 0.5630 0.5630 0.5630
3491.304348 0.5630 0.5630 0.5625 0.5620 0.5620
3495.652174 0.5620 0.5620 0.5620 0.5620 0.5620
3500.000000 0.5620 0.5620 0.5625 0.5630 0.5625
3504.347826 0.5620 0.5620 0.5620 0.5620 0.5620
3508.695652 0.5620 0.5620 0.5615 0.5610 0.5610
3513.043478 0.5610 0.5600 0.5590 0.5590 0.5590
3517.391304 0.5585 0.5580 0.5580 0.5580 0.5580
3521.739130 0.5580 0.5580 0.5580 0.5580 0.5580
3526.086957 0.5575 0.5570 0.5570 0.5570 0.5560
3530.434783 0.5550 0.5550 0.5550 0.5545 0.5540
3534.782609 0.5540 0.5540 0.5540 0.5540 0.5530
3539.130435 0.5520 0.5520 0.5520 0.5520 0.5520
3543.478261 0.5530 0.5540 0.5540 0.5540 0.5540
3547.826087 0.5540 0.5540 0.5540 0.5540 0.5540
3552.173913 0.5530 0.5520 0.5520 0.5520 0.5520
3556.521739 0.5520 0.5520 0.5520 0.5520 0.5520
3560.869565 0.5520 0.5520 0.5515 0.5510 0.5510
3565.217391 0.5510 0.5510 0.5510 0.5510 0.5510
3569.565217 0.5510 0.5510 0.5510 0.5510 0.5505
3573.913043 0.5500 0.5485 0.5470 0.5450 0.5430
3578.260870 0.5405 0.5380 0.5355 0.5330 0.5325
3582.608696 0.5320 0.5320 0.5320 0.5340 0.5360
3586.956522 0.5380 0.5400 0.5415 0.5430 0.5435
3591.304348 0.5440 0.5450 0.5460 0.5465 0.5470
3595.652174 0.5470 0.5470 0.5455 0.5440 0.5440
3600.000000 0.5440 0.5430 0.5420 0.5405 0.5390
3604.347826 0.5370 0.5350 0.5340 0.5330 0.5330
3608.695652 0.5330 0.5345 0.5360 0.5360 0.5360
3613.043478 0.5380 0.5400 0.5400 0.5400 0.5400
3617.391304 0.5400 0.5400 0.5400 0.5400 0.5400
3621.739130 0.5400 0.5400 0.5400 0.5400 0.5400
3626.086957 0.5400 0.5400 0.5400 0.5400 0.5400
3630.434783 0.5400 0.5400 0.5400 0.5400 0.5400
3634.782609 0.5400 0.5400 0.5400 0.5400 0.5400
3639.130435 0.5400 0.5400 0.5400 0.5400 0.5400
3643.478261 0.5400 0.5395 0.5390 0.5390 0.5390
3647.826087 0.5390 0.5390 0.5390 0.5390 0.5390
3652.173913 0.5390 0.5390 0.5390 0.5395 0.5400
3656.521739 0.5395 0.5390 0.5390 0.5390 0.5390
3660.869565 0.5390 0.5390 0.5390 0.5385 0.5380
3665.217391 0.5380 0.5380 0.5370 0.5360 0.5355
3669.565217 0.5350 0.5340 0.5330 0.5330 0.5330
3673.913043 0.5340 0.5350 0.5350 0.5350 0.5350
3678.260870 0.5350 0.5350 0.5350 0.5350 0.5350
3682.608696 0.5350 0.5350 0.5350 0.5350 0.5350
3686.956522 0.5350 0.5350 0.5350 0.5350 0.5350
3691.304348 0.5340 0.5330 0.5325 0.5320 0.5320
3695.652174 0.5320 0.5325 0.5330 0.5330 0.5330
3700.000000 0.5330 0.5330 0.5330 0.5330 0.5330
3704.347826 0.5330 0.5325 0.5320 0.5320 0.5320
3708.695652 0.5315 0.5310 0.5310 0.5310 0.5310
3713.043478 0.5310 0.5300 0.5290 0.5290 0.5290
3717.391304 0.5290 0.5290 0.5290 0.5290 0.5290
3721.739130 0.5290 0.5290 0.5290 0.5290 0.5290
3726.086957 0.5285 0.5280 0.5280 0.5280 0.5280
3730.434783 0.5280 0.5280 0.5280 0.5280 0.5280
3734.782609 0.5280 0.5280 0.5280 0.5280 0.5280
3739.130435 0.5280 0.5280 0.5280 0.5280 0.5280
3743.478261 0.5280 0.5280 0.5280 0.5280 0.5280
3747.826087 0.5280 0.5275 0.5270 0.5270 0.5270
3752.173913 0.5270 0.5270 0.5270 0.5270 0.5270
3756.521739 0.5270 0.5270 0.5270 0.5255 0.5240
3760.869565 0.5240 0.5240 0.5240 0.5240 0.5235
3765.217391 0.5230 0.5230 0.5230 0.5220 0.5210
3769.565217 0.5210 0.5210 0.5205 0.5200 0.5200
3773.913043 0.5200 0.5195 0.5190 0.5190 0.5190
3778.260870 0.5190 0.5190 0.5190 0.5190 0.5190
3782.608696 0.5190 0.5190 0.5190 0.5190 0.5190
3786.956522 0.5180 0.5170 0.5170 0.5170 0.5170
3791.304348 0.5170 0.5170 0.5170
##END=
