##TITLE=p-Chlorobenzonitrile
##JCAMP-DX=4.24
$$ By DXEDIT 1.05 (RS McDonald)
##DATA TYPE=INFRARED SPECTRUM
##CLASS=COBLENTZ III
##ORIGIN=DOW CHEMICAL COMPANY
##OWNER=COPYRIGHT (C) 1988 by COBLENTZ SOCIETY INC.
Collection (C) 2018 copyright by the U.S. Secretary of Commerce
on behalf of the United States of America. All rights reserved.
##DATE=1960/01/04
##NAMES=4-chlorobenzonitrile
##CAS REGISTRY NO=623-03-0
##MOLFORM=C7 H4 Cl N
##SOURCE REFERENCE=COBLENTZ NO. 5664
##$NIST SOURCE=COBLENTZ
##$NIST IMAGE=cob5664
##SPECTROMETER/DATA SYSTEM=DOW KBr FOREPRISM-GRATING
$$SPECTRAL CONTAMINATION DUE TO CCl4 AROUND 1550 CM^-^1 HAS BEEN SUBTRACTED
##INSTRUMENT PARAMETERS=BLAZED AT 3.5, 12.0, 20.0 MICRON AND CHANGED AT 5.0, 7.5, 14.9 MICRON
##STATE=SOLUTION (10% CCl4 FOR 3800-1340, 10% CS2 FOR 1340-420)
##PATH LENGTH=0.012 CM, 0.011 CM
##SAMPLING PROCEDURE=TRANSMISSION
##RESOLUTION=2
##DATA PROCESSING=DIGITIZED BY COBLENTZ SOCIETY (BATCH I) FROM HARD COPY
##XUNITS=1/CM
##YUNITS=TRANSMITTANCE
##XFACTOR=1
##YFACTOR=1
##DELTAX=1
##FIRSTX=3798
##LASTX=424
##FIRSTY=0.9368
##MAXX=3798
##MINX=424
##MAXY=0.9717
##MINY=0.0013
##NPOINTS=3375
##XYDATA=(X++(Y..Y))
3798.000000 0.9368 0.9370 0.9379 0.9369 0.9380
3793.000000 0.9378 0.9376 0.9375 0.9374 0.9373
3788.000000 0.9372 0.9369 0.9369 0.9368 0.9356
3783.000000 0.9350 0.9349 0.9358 0.9362 0.9348
3778.000000 0.9356 0.9358 0.9357 0.9340 0.9354
3773.000000 0.9353 0.9352 0.9351 0.9350 0.9348
3768.000000 0.9347 0.9345 0.9342 0.9340 0.9338
3763.000000 0.9336 0.9334 0.9332 0.9338 0.9335
3758.000000 0.9326 0.9322 0.9320 0.9318 0.9316
3753.000000 0.9316 0.9316 0.9316 0.9318 0.9318
3748.000000 0.9318 0.9318 0.9319 0.9319 0.9320
3743.000000 0.9320 0.9321 0.9321 0.9322 0.9327
3738.000000 0.9338 0.9340 0.9342 0.9344 0.9339
3733.000000 0.9333 0.9344 0.9353 0.9355 0.9358
3728.000000 0.9361 0.9363 0.9365 0.9367 0.9370
3723.000000 0.9372 0.9373 0.9376 0.9380 0.9365
3718.000000 0.9366 0.9381 0.9381 0.9379 0.9379
3713.000000 0.9378 0.9381 0.9387 0.9381 0.9389
3708.000000 0.9389 0.9389 0.9388 0.9386 0.9384
3703.000000 0.9379 0.9375 0.9370 0.9364 0.9359
3698.000000 0.9355 0.9350 0.9332 0.9323 0.9319
3693.000000 0.9317 0.9316 0.9315 0.9315 0.9314
3688.000000 0.9314 0.9311 0.9298 0.9297 0.9297
3683.000000 0.9296 0.9296 0.9296 0.9296 0.9296
3678.000000 0.9297 0.9298 0.9300 0.9301 0.9302
3673.000000 0.9303 0.9304 0.9306 0.9320 0.9312
3668.000000 0.9311 0.9312 0.9314 0.9315 0.9317
3663.000000 0.9318 0.9319 0.9320 0.9322 0.9323
3658.000000 0.9325 0.9326 0.9328 0.9329 0.9331
3653.000000 0.9332 0.9333 0.9334 0.9337 0.9338
3648.000000 0.9340 0.9341 0.9343 0.9344 0.9346
3643.000000 0.9347 0.9348 0.9349 0.9351 0.9352
3638.000000 0.9353 0.9353 0.9354 0.9355 0.9356
3633.000000 0.9359 0.9374 0.9375 0.9370 0.9359
3628.000000 0.9367 0.9378 0.9379 0.9379 0.9381
3623.000000 0.9382 0.9382 0.9382 0.9384 0.9385
3618.000000 0.9386 0.9387 0.9388 0.9388 0.9390
3613.000000 0.9391 0.9392 0.9393 0.9394 0.9392
3608.000000 0.9381 0.9396 0.9397 0.9398 0.9399
3603.000000 0.9395 0.9390 0.9401 0.9395 0.9387
3598.000000 0.9396 0.9405 0.9406 0.9406 0.9407
3593.000000 0.9408 0.9409 0.9410 0.9411 0.9411
3588.000000 0.9412 0.9413 0.9414 0.9415 0.9416
3583.000000 0.9416 0.9417 0.9418 0.9419 0.9421
3578.000000 0.9422 0.9422 0.9417 0.9411 0.9421
3573.000000 0.9420 0.9413 0.9404 0.9404 0.9403
3568.000000 0.9403 0.9401 0.9401 0.9400 0.9400
3563.000000 0.9400 0.9400 0.9399 0.9399 0.9398
3558.000000 0.9398 0.9397 0.9398 0.9411 0.9396
3553.000000 0.9397 0.9411 0.9410 0.9406 0.9397
3548.000000 0.9408 0.9407 0.9407 0.9400 0.9398
3543.000000 0.9405 0.9405 0.9404 0.9394 0.9398
3538.000000 0.9392 0.9398 0.9402 0.9401 0.9400
3533.000000 0.9399 0.9399 0.9398 0.9397 0.9380
3528.000000 0.9380 0.9379 0.9379 0.9378 0.9377
3523.000000 0.9376 0.9376 0.9375 0.9373 0.9372
3518.000000 0.9372 0.9371 0.9371 0.9370 0.9369
3513.000000 0.9368 0.9368 0.9367 0.9367 0.9365
3508.000000 0.9365 0.9364 0.9364 0.9362 0.9362
3503.000000 0.9362 0.9362 0.9361 0.9361 0.9360
3498.000000 0.9360 0.9357 0.9357 0.9357 0.9356
3493.000000 0.9354 0.9354 0.9354 0.9354 0.9353
3488.000000 0.9353 0.9352 0.9352 0.9351 0.9351
3483.000000 0.9351 0.9351 0.9350 0.9350 0.9349
3478.000000 0.9349 0.9349 0.9349 0.9348 0.9348
3473.000000 0.9348 0.9348 0.9347 0.9347 0.9345
3468.000000 0.9345 0.9344 0.9344 0.9343 0.9342
3463.000000 0.9341 0.9341 0.9340 0.9339 0.9338
3458.000000 0.9337 0.9336 0.9336 0.9335 0.9334
3453.000000 0.9332 0.9329 0.9315 0.9300 0.9284
3448.000000 0.9269 0.9252 0.9237 0.9220 0.9203
3443.000000 0.9189 0.9173 0.9144 0.9115 0.9090
3438.000000 0.9066 0.9066 0.9066 0.9067 0.9068
3433.000000 0.9076 0.9086 0.9104 0.9123 0.9153
3428.000000 0.9183 0.9193 0.9203 0.9197 0.9216
3423.000000 0.9221 0.9225 0.9225 0.9226 0.9227
3418.000000 0.9228 0.9228 0.9228 0.9228 0.9228
3413.000000 0.9227 0.9227 0.9236 0.9245 0.9259
3408.000000 0.9275 0.9291 0.9298 0.9298 0.9307
3403.000000 0.9313 0.9320 0.9323 0.9328 0.9331
3398.000000 0.9334 0.9337 0.9341 0.9344 0.9349
3393.000000 0.9352 0.9356 0.9359 0.9362 0.9363
3388.000000 0.9366 0.9368 0.9371 0.9374 0.9376
3383.000000 0.9378 0.9381 0.9383 0.9385 0.9387
3378.000000 0.9390 0.9392 0.9394 0.9397 0.9400
3373.000000 0.9401 0.9402 0.9402 0.9417 0.9405
3368.000000 0.9405 0.9405 0.9405 0.9405 0.9407
3363.000000 0.9408 0.9408 0.9408 0.9408 0.9410
3358.000000 0.9410 0.9408 0.9407 0.9405 0.9404
3353.000000 0.9401 0.9400 0.9398 0.9397 0.9395
3348.000000 0.9394 0.9392 0.9391 0.9401 0.9403
3343.000000 0.9389 0.9400 0.9385 0.9384 0.9384
3338.000000 0.9398 0.9397 0.9394 0.9379 0.9379
3333.000000 0.9378 0.9377 0.9376 0.9375 0.9374
3328.000000 0.9374 0.9373 0.9372 0.9371 0.9371
3323.000000 0.9370 0.9368 0.9367 0.9367 0.9366
3318.000000 0.9365 0.9364 0.9364 0.9364 0.9365
3313.000000 0.9370 0.9392 0.9398 0.9404 0.9407
3308.000000 0.9409 0.9401 0.9416 0.9419 0.9417
3303.000000 0.9407 0.9411 0.9413 0.9414 0.9417
3298.000000 0.9421 0.9423 0.9426 0.9428 0.9431
3293.000000 0.9433 0.9436 0.9438 0.9441 0.9442
3288.000000 0.9443 0.9443 0.9442 0.9441 0.9442
3283.000000 0.9456 0.9454 0.9439 0.9441 0.9453
3278.000000 0.9449 0.9436 0.9441 0.9451 0.9450
3273.000000 0.9449 0.9448 0.9447 0.9446 0.9445
3268.000000 0.9445 0.9444 0.9444 0.9443 0.9443
3263.000000 0.9442 0.9442 0.9441 0.9441 0.9440
3258.000000 0.9440 0.9438 0.9424 0.9438 0.9438
3253.000000 0.9437 0.9437 0.9436 0.9436 0.9435
3248.000000 0.9434 0.9433 0.9433 0.9425 0.9425
3243.000000 0.9431 0.9431 0.9429 0.9429 0.9429
3238.000000 0.9429 0.9428 0.9426 0.9426 0.9426
3233.000000 0.9425 0.9424 0.9422 0.9422 0.9422
3228.000000 0.9421 0.9416 0.9403 0.9406 0.9417
3223.000000 0.9415 0.9413 0.9411 0.9409 0.9407
3218.000000 0.9405 0.9403 0.9400 0.9398 0.9396
3213.000000 0.9394 0.9392 0.9390 0.9388 0.9385
3208.000000 0.9369 0.9364 0.9360 0.9357 0.9356
3203.000000 0.9349 0.9343 0.9334 0.9328 0.9328
3198.000000 0.9308 0.9294 0.9265 0.9266 0.9255
3193.000000 0.9258 0.9260 0.9264 0.9260 0.9263
3188.000000 0.9273 0.9276 0.9269 0.9266 0.9269
3183.000000 0.9271 0.9274 0.9276 0.9279 0.9281
3178.000000 0.9281 0.9281 0.9280 0.9278 0.9276
3173.000000 0.9274 0.9273 0.9271 0.9269 0.9266
3168.000000 0.9263 0.9259 0.9255 0.9252 0.9257
3163.000000 0.9260 0.9249 0.9249 0.9254 0.9251
3158.000000 0.9240 0.9244 0.9235 0.9230 0.9240
3153.000000 0.9241 0.9240 0.9238 0.9237 0.9232
3148.000000 0.9214 0.9211 0.9208 0.9202 0.9199
3143.000000 0.9195 0.9192 0.9193 0.9201 0.9197
3138.000000 0.9192 0.9188 0.9185 0.9145 0.9105
3133.000000 0.9086 0.9067 0.9064 0.9060 0.9059
3128.000000 0.9057 0.9056 0.9055 0.9053 0.9053
3123.000000 0.9049 0.9049 0.9047 0.9045 0.9037
3118.000000 0.9028 0.9020 0.9011 0.9003 0.8995
3113.000000 0.8969 0.8944 0.8901 0.8859 0.8828
3108.000000 0.8797 0.8774 0.8749 0.8723 0.8696
3103.000000 0.8672 0.8647 0.8605 0.8574 0.8523
3098.000000 0.8469 0.8464 0.8471 0.8471 0.8466
3093.000000 0.8467 0.8468 0.8475 0.8494 0.8543
3088.000000 0.8597 0.8654 0.8712 0.8736 0.8767
3083.000000 0.8762 0.8756 0.8748 0.8743 0.8737
3078.000000 0.8740 0.8742 0.8734 0.8735 0.8747
3073.000000 0.8759 0.8756 0.8763 0.8771 0.8765
3068.000000 0.8788 0.8784 0.8794 0.8811 0.8827
3063.000000 0.8831 0.8848 0.8864 0.8886 0.8908
3058.000000 0.8921 0.8924 0.8925 0.8941 0.8952
3053.000000 0.8954 0.8964 0.8974 0.8981 0.8981
3048.000000 0.8980 0.8976 0.8989 0.8987 0.8997
3043.000000 0.9022 0.9049 0.9075 0.9101 0.9113
3038.000000 0.9124 0.9136 0.9134 0.9134 0.9143
3033.000000 0.9138 0.9138 0.9148 0.9151 0.9152
3028.000000 0.9162 0.9164 0.9166 0.9174 0.9183
3023.000000 0.9190 0.9198 0.9202 0.9207 0.9221
3018.000000 0.9226 0.9228 0.9217 0.9216 0.9216
3013.000000 0.9216 0.9216 0.9216 0.9216 0.9220
3008.000000 0.9222 0.9215 0.9225 0.9239 0.9245
3003.000000 0.9243 0.9239 0.9245 0.9259 0.9264
2998.000000 0.9264 0.9269 0.9275 0.9278 0.9282
2993.000000 0.9297 0.9304 0.9305 0.9305 0.9305
2988.000000 0.9305 0.9302 0.9299 0.9296 0.9295
2983.000000 0.9290 0.9286 0.9285 0.9289 0.9301
2978.000000 0.9297 0.9297 0.9313 0.9314 0.9318
2973.000000 0.9321 0.9323 0.9325 0.9327 0.9339
2968.000000 0.9347 0.9349 0.9351 0.9353 0.9356
2963.000000 0.9358 0.9400 0.9362 0.9365 0.9382
2958.000000 0.9384 0.9371 0.9374 0.9375 0.9381
2953.000000 0.9395 0.9398 0.9400 0.9402 0.9404
2948.000000 0.9406 0.9401 0.9395 0.9397 0.9408
2943.000000 0.9407 0.9413 0.9410 0.9419 0.9425
2938.000000 0.9427 0.9429 0.9431 0.9416 0.9415
2933.000000 0.9415 0.9416 0.9416 0.9417 0.9417
2928.000000 0.9417 0.9417 0.9418 0.9418 0.9419
2923.000000 0.9419 0.9413 0.9403 0.9404 0.9404
2918.000000 0.9404 0.9404 0.9404 0.9404 0.9404
2913.000000 0.9403 0.9403 0.9403 0.9403 0.9402
2908.000000 0.9416 0.9418 0.9402 0.9401 0.9401
2903.000000 0.9401 0.9401 0.9400 0.9400 0.9400
2898.000000 0.9400 0.9400 0.9400 0.9399 0.9399
2893.000000 0.9399 0.9398 0.9398 0.9398 0.9397
2888.000000 0.9397 0.9397 0.9397 0.9396 0.9396
2883.000000 0.9396 0.9396 0.9396 0.9396 0.9395
2878.000000 0.9395 0.9380 0.9395 0.9395 0.9395
2873.000000 0.9394 0.9394 0.9394 0.9394 0.9394
2868.000000 0.9394 0.9394 0.9394 0.9394 0.9394
2863.000000 0.9394 0.9394 0.9394 0.9394 0.9393
2858.000000 0.9393 0.9393 0.9393 0.9393 0.9379
2853.000000 0.9375 0.9374 0.9373 0.9372 0.9371
2848.000000 0.9370 0.9371 0.9383 0.9382 0.9377
2843.000000 0.9364 0.9371 0.9365 0.9355 0.9346
2838.000000 0.9350 0.9345 0.9331 0.9319 0.9313
2833.000000 0.9308 0.9304 0.9301 0.9297 0.9306
2828.000000 0.9292 0.9300 0.9298 0.9281 0.9279
2823.000000 0.9293 0.9278 0.9292 0.9292 0.9289
2818.000000 0.9276 0.9275 0.9275 0.9278 0.9283
2813.000000 0.9286 0.9291 0.9296 0.9302 0.9307
2808.000000 0.9321 0.9332 0.9337 0.9339 0.9339
2803.000000 0.9340 0.9339 0.9337 0.9335 0.9333
2798.000000 0.9332 0.9323 0.9315 0.9306 0.9298
2793.000000 0.9282 0.9265 0.9239 0.9232 0.9202
2788.000000 0.9183 0.9161 0.9138 0.9118 0.9100
2783.000000 0.9073 0.9045 0.9055 0.9061 0.9034
2778.000000 0.9034 0.9040 0.9047 0.9061 0.9076
2773.000000 0.9092 0.9109 0.9124 0.9138 0.9146
2768.000000 0.9155 0.9160 0.9167 0.9173 0.9180
2763.000000 0.9189 0.9198 0.9206 0.9215 0.9224
2758.000000 0.9232 0.9239 0.9248 0.9255 0.9265
2753.000000 0.9272 0.9279 0.9284 0.9289 0.9293
2748.000000 0.9298 0.9302 0.9307 0.9311 0.9316
2743.000000 0.9320 0.9326 0.9329 0.9333 0.9334
2738.000000 0.9336 0.9337 0.9339 0.9341 0.9343
2733.000000 0.9344 0.9347 0.9348 0.9349 0.9349
2728.000000 0.9349 0.9349 0.9349 0.9347 0.9347
2723.000000 0.9346 0.9346 0.9346 0.9346 0.9345
2718.000000 0.9345 0.9345 0.9345 0.9344 0.9344
2713.000000 0.9344 0.9344 0.9343 0.9343 0.9343
2708.000000 0.9343 0.9342 0.9342 0.9342 0.9342
2703.000000 0.9341 0.9341 0.9341 0.9341 0.9341
2698.000000 0.9341 0.9340 0.9340 0.9339 0.9338
2693.000000 0.9336 0.9335 0.9333 0.9332 0.9331
2688.000000 0.9335 0.9328 0.9327 0.9325 0.9324
2683.000000 0.9323 0.9322 0.9319 0.9318 0.9317
2678.000000 0.9316 0.9314 0.9312 0.9310 0.9307
2673.000000 0.9306 0.9302 0.9301 0.9299 0.9297
2668.000000 0.9297 0.9297 0.9298 0.9299 0.9299
2663.000000 0.9301 0.9302 0.9304 0.9305 0.9306
2658.000000 0.9310 0.9325 0.9325 0.9327 0.9328
2653.000000 0.9329 0.9331 0.9328 0.9320 0.9323
2648.000000 0.9334 0.9345 0.9348 0.9342 0.9339
2643.000000 0.9342 0.9356 0.9353 0.9351 0.9355
2638.000000 0.9358 0.9361 0.9364 0.9365 0.9383
2633.000000 0.9384 0.9384 0.9370 0.9373 0.9388
2628.000000 0.9389 0.9389 0.9390 0.9391 0.9391
2623.000000 0.9391 0.9391 0.9390 0.9389 0.9388
2618.000000 0.9388 0.9387 0.9386 0.9385 0.9385
2613.000000 0.9372 0.9359 0.9347 0.9335 0.9332
2608.000000 0.9332 0.9331 0.9333 0.9335 0.9338
2603.000000 0.9340 0.9342 0.9344 0.9346 0.9349
2598.000000 0.9352 0.9352 0.9352 0.9351 0.9351
2593.000000 0.9350 0.9350 0.9348 0.9348 0.9337
2588.000000 0.9324 0.9307 0.9289 0.9274 0.9260
2583.000000 0.9245 0.9230 0.9217 0.9205 0.9195
2578.000000 0.9186 0.9186 0.9186 0.9186 0.9186
2573.000000 0.9188 0.9191 0.9195 0.9199 0.9204
2568.000000 0.9211 0.9217 0.9223 0.9226 0.9228
2563.000000 0.9230 0.9232 0.9233 0.9234 0.9199
2558.000000 0.9164 0.9109 0.9034 0.9034 0.9014
2553.000000 0.9014 0.9014 0.9014 0.9014 0.9029
2548.000000 0.9044 0.9058 0.9073 0.9088 0.9102
2543.000000 0.9117 0.9132 0.9147 0.9162 0.9167
2538.000000 0.9167 0.9167 0.9162 0.9154 0.9149
2533.000000 0.9145 0.9144 0.9144 0.9147 0.9150
2528.000000 0.9153 0.9159 0.9167 0.9175 0.9185
2523.000000 0.9194 0.9204 0.9212 0.9222 0.9229
2518.000000 0.9236 0.9244 0.9251 0.9259 0.9266
2513.000000 0.9272 0.9280 0.9287 0.9295 0.9303
2508.000000 0.9311 0.9319 0.9326 0.9334 0.9343
2503.000000 0.9348 0.9348 0.9348 0.9342 0.9334
2498.000000 0.9328 0.9327 0.9326 0.9326 0.9326
2493.000000 0.9328 0.9331 0.9334 0.9338 0.9342
2488.000000 0.9345 0.9348 0.9352 0.9355 0.9360
2483.000000 0.9362 0.9365 0.9377 0.9384 0.9386
2478.000000 0.9388 0.9388 0.9391 0.9391 0.9393
2473.000000 0.9394 0.9395 0.9396 0.9398 0.9399
2468.000000 0.9432 0.9401 0.9402 0.9403 0.9404
2463.000000 0.9406 0.9407 0.9408 0.9409 0.9409
2458.000000 0.9401 0.9401 0.9401 0.9394 0.9394
2453.000000 0.9404 0.9411 0.9411 0.9399 0.9407
2448.000000 0.9411 0.9411 0.9411 0.9411 0.9411
2443.000000 0.9409 0.9409 0.9409 0.9409 0.9408
2438.000000 0.9408 0.9407 0.9407 0.9407 0.9407
2433.000000 0.9406 0.9406 0.9405 0.9405 0.9404
2428.000000 0.9403 0.9402 0.9402 0.9401 0.9401
2423.000000 0.9400 0.9399 0.9396 0.9395 0.9390
2418.000000 0.9387 0.9383 0.9379 0.9376 0.9373
2413.000000 0.9369 0.9366 0.9360 0.9355 0.9354
2408.000000 0.9355 0.9339 0.9341 0.9328 0.9315
2403.000000 0.9302 0.9289 0.9272 0.9256 0.9243
2398.000000 0.9231 0.9223 0.9216 0.9216 0.9216
2393.000000 0.9217 0.9218 0.9219 0.9219 0.9237
2388.000000 0.9241 0.9253 0.9267 0.9285 0.9316
2383.000000 0.9327 0.9343 0.9366 0.9378 0.9386
2378.000000 0.9398 0.9406 0.9416 0.9417 0.9428
2373.000000 0.9436 0.9436 0.9438 0.9439 0.9427
2368.000000 0.9425 0.9427 0.9430 0.9433 0.9436
2363.000000 0.9439 0.9443 0.9447 0.9467 0.9472
2358.000000 0.9490 0.9498 0.9520 0.9539 0.9547
2353.000000 0.9553 0.9561 0.9560 0.9558 0.9565
2348.000000 0.9581 0.9603 0.9617 0.9624 0.9618
2343.000000 0.9617 0.9622 0.9626 0.9631 0.9622
2338.000000 0.9638 0.9644 0.9632 0.9635 0.9655
2333.000000 0.9655 0.9655 0.9657 0.9671 0.9671
2328.000000 0.9671 0.9675 0.9672 0.9682 0.9685
2323.000000 0.9678 0.9670 0.9662 0.9655 0.9637
2318.000000 0.9621 0.9603 0.9584 0.9568 0.9552
2313.000000 0.9534 0.9518 0.9501 0.9484 0.9468
2308.000000 0.9451 0.9432 0.9414 0.9394 0.9375
2303.000000 0.9354 0.9335 0.9314 0.9296 0.9276
2298.000000 0.9264 0.9240 0.9216 0.9191 0.9166
2293.000000 0.9140 0.9108 0.9109 0.9109 0.9110
2288.000000 0.9105 0.9105 0.9113 0.9118 0.9124
2283.000000 0.9116 0.9121 0.9128 0.9134 0.9139
2278.000000 0.9132 0.9139 0.9143 0.9137 0.9144
2273.000000 0.9151 0.9152 0.9147 0.9155 0.9157
2268.000000 0.9156 0.9164 0.9172 0.9171 0.9173
2263.000000 0.9177 0.9185 0.9179 0.9181 0.9186
2258.000000 0.9180 0.9176 0.9176 0.9175 0.9182
2253.000000 0.9151 0.9143 0.9119 0.9084 0.9057
2248.000000 0.9031 0.8993 0.8953 0.8073 0.7191
2243.000000 0.6002 0.4812 0.3622 0.0472 0.1463
2238.000000 0.0494 0.0492 0.0490 0.0547 0.0605
2233.000000 0.1280 0.1955 0.2631 0.3309 0.3984
2228.000000 0.4660 0.5336 0.6013 0.6688 0.7364
2223.000000 0.7937 0.8509 0.8562 0.8629 0.8759
2218.000000 0.8890 0.8936 0.8981 0.9021 0.9061
2213.000000 0.9089 0.9117 0.9143 0.9168 0.9186
2208.000000 0.9204 0.9218 0.9234 0.9247 0.9262
2203.000000 0.9274 0.9286 0.9296 0.9306 0.9314
2198.000000 0.9322 0.9325 0.9328 0.9320 0.9320
2193.000000 0.9332 0.9320 0.9320 0.9320 0.9314
2188.000000 0.9308 0.9298 0.9288 0.9265 0.9254
2183.000000 0.9230 0.9204 0.9202 0.9202 0.9202
2178.000000 0.9214 0.9225 0.9234 0.9257 0.9281
2173.000000 0.9306 0.9330 0.9359 0.9386 0.9415
2168.000000 0.9431 0.9433 0.9436 0.9439 0.9442
2163.000000 0.9443 0.9443 0.9444 0.9444 0.9444
2158.000000 0.9444 0.9444 0.9444 0.9444 0.9444
2153.000000 0.9444 0.9444 0.9444 0.9444 0.9445
2148.000000 0.9446 0.9447 0.9449 0.9451 0.9452
2143.000000 0.9453 0.9455 0.9456 0.9457 0.9458
2138.000000 0.9460 0.9461 0.9463 0.9464 0.9465
2133.000000 0.9465 0.9468 0.9468 0.9470 0.9471
2128.000000 0.9472 0.9475 0.9476 0.9476 0.9479
2123.000000 0.9480 0.9468 0.9481 0.9484 0.9485
2118.000000 0.9487 0.9488 0.9489 0.9490 0.9491
2113.000000 0.9491 0.9492 0.9493 0.9494 0.9495
2108.000000 0.9496 0.9497 0.9498 0.9500 0.9501
2103.000000 0.9501 0.9502 0.9503 0.9504 0.9504
2098.000000 0.9493 0.9490 0.9504 0.9507 0.9494
2093.000000 0.9507 0.9510 0.9510 0.9511 0.9512
2088.000000 0.9513 0.9513 0.9514 0.9514 0.9515
2083.000000 0.9515 0.9515 0.9515 0.9515 0.9515
2078.000000 0.9515 0.9514 0.9514 0.9514 0.9514
2073.000000 0.9513 0.9513 0.9513 0.9513 0.9512
2068.000000 0.9512 0.9511 0.9511 0.9511 0.9510
2063.000000 0.9509 0.9509 0.9508 0.9508 0.9508
2058.000000 0.9508 0.9511 0.9523 0.9522 0.9521
2053.000000 0.9519 0.9511 0.9507 0.9515 0.9504
2048.000000 0.9495 0.9493 0.9492 0.9489 0.9487
2043.000000 0.9481 0.9474 0.9467 0.9459 0.9450
2038.000000 0.9442 0.9432 0.9424 0.9418 0.9416
2033.000000 0.9411 0.9409 0.9407 0.9407 0.9407
2028.000000 0.9412 0.9420 0.9413 0.9423 0.9436
2023.000000 0.9439 0.9443 0.9446 0.9451 0.9454
2018.000000 0.9457 0.9460 0.9464 0.9462 0.9460
2013.000000 0.9457 0.9454 0.9443 0.9433 0.9422
2008.000000 0.9411 0.9412 0.9413 0.9416 0.9418
2003.000000 0.9420 0.9423 0.9424 0.9426 0.9177
1998.000000 0.8899 0.8896 0.8983 0.9069 0.9156
1993.000000 0.9242 0.9303 0.9305 0.9308 0.9310
1988.000000 0.9312 0.9315 0.9305 0.9306 0.9309
1983.000000 0.9312 0.9315 0.9317 0.9319 0.9319
1978.000000 0.9306 0.9307 0.9308 0.9309 0.9310
1973.000000 0.9310 0.9306 0.9299 0.9284 0.9279
1968.000000 0.9272 0.9271 0.9280 0.9278 0.9275
1963.000000 0.9289 0.9298 0.9303 0.9355 0.9421
1958.000000 0.9489 0.9555 0.9579 0.9574 0.9464
1953.000000 0.9369 0.9280 0.9283 0.9280 0.9268
1948.000000 0.9268 0.9265 0.9261 0.9255 0.9249
1943.000000 0.9242 0.9236 0.9229 0.9225 0.9221
1938.000000 0.9215 0.9212 0.9233 0.9208 0.9208
1933.000000 0.9205 0.9202 0.9198 0.9184 0.9171
1928.000000 0.9159 0.9145 0.9130 0.9112 0.9096
1923.000000 0.9079 0.9050 0.9002 0.8948 0.8879
1918.000000 0.8807 0.8701 0.8638 0.8553 0.8422
1913.000000 0.8292 0.8162 0.8032 0.7900 0.7770
1908.000000 0.7667 0.7672 0.7701 0.7813 0.7940
1903.000000 0.8069 0.8198 0.8326 0.8454 0.8582
1898.000000 0.8711 0.8788 0.8822 0.8849 0.8886
1893.000000 0.8928 0.8963 0.8994 0.9021 0.9057
1888.000000 0.9097 0.9128 0.9145 0.9166 0.9181
1883.000000 0.9192 0.9197 0.9197 0.9194 0.9190
1878.000000 0.9181 0.9164 0.9146 0.9139 0.9126
1873.000000 0.9092 0.9092 0.9092 0.9112 0.9133
1868.000000 0.9150 0.9168 0.9179 0.9184 0.9189
1863.000000 0.9197 0.9202 0.9206 0.9209 0.9214
1858.000000 0.9218 0.9231 0.9232 0.9229 0.9233
1853.000000 0.9238 0.9242 0.9245 0.9249 0.9253
1848.000000 0.9258 0.9262 0.9265 0.9269 0.9273
1843.000000 0.9278 0.9282 0.9285 0.9289 0.9293
1838.000000 0.9297 0.9301 0.9298 0.9290 0.9293
1833.000000 0.9296 0.9298 0.9301 0.9303 0.9303
1828.000000 0.9300 0.9297 0.9293 0.9291 0.9288
1823.000000 0.9285 0.9282 0.9279 0.9274 0.9289
1818.000000 0.9286 0.9283 0.9281 0.9278 0.9276
1813.000000 0.9273 0.9270 0.9265 0.9262 0.9253
1808.000000 0.9241 0.9237 0.9234 0.9229 0.9216
1803.000000 0.9205 0.9200 0.9188 0.9178 0.9167
1798.000000 0.9156 0.9145 0.9136 0.9125 0.9117
1793.000000 0.9108 0.9091 0.9061 0.9003 0.8943
1788.000000 0.8908 0.8880 0.8862 0.8843 0.8829
1783.000000 0.8828 0.8828 0.8828 0.8801 0.8806
1778.000000 0.8776 0.8765 0.8756 0.8758 0.8804
1773.000000 0.8845 0.8878 0.8912 0.8943 0.8970
1768.000000 0.8998 0.9025 0.9051 0.9076 0.9097
1763.000000 0.9119 0.9140 0.9153 0.9162 0.9174
1758.000000 0.9195 0.9202 0.9210 0.9213 0.9213
1753.000000 0.9216 0.9217 0.9218 0.9219 0.9219
1748.000000 0.9220 0.9220 0.9221 0.9222 0.9225
1743.000000 0.9227 0.9230 0.9231 0.9234 0.9240
1738.000000 0.9246 0.9253 0.9259 0.9266 0.9276
1733.000000 0.9285 0.9293 0.9302 0.9309 0.9317
1728.000000 0.9325 0.9335 0.9335 0.9331 0.9312
1723.000000 0.9316 0.9307 0.9299 0.9290 0.9280
1718.000000 0.9269 0.9260 0.9260 0.9261 0.9263
1713.000000 0.9266 0.9268 0.9272 0.9274 0.9277
1708.000000 0.9277 0.9280 0.9281 0.9282 0.9282
1703.000000 0.9268 0.9250 0.9231 0.9220 0.9208
1698.000000 0.9206 0.9204 0.9201 0.9202 0.9202
1693.000000 0.9202 0.9192 0.9182 0.9168 0.9147
1688.000000 0.9128 0.9094 0.9059 0.8892 0.8880
1683.000000 0.8867 0.8803 0.8684 0.8613 0.8559
1678.000000 0.8587 0.8606 0.8626 0.8654 0.8686
1673.000000 0.8721 0.8763 0.8796 0.8839 0.8856
1668.000000 0.8866 0.8867 0.8867 0.8858 0.8849
1663.000000 0.8831 0.8812 0.8744 0.8624 0.8482
1658.000000 0.8349 0.8229 0.8194 0.8186 0.8178
1653.000000 0.8173 0.8163 0.8194 0.8240 0.8324
1648.000000 0.8419 0.8512 0.8652 0.8763 0.8845
1643.000000 0.8885 0.8933 0.8967 0.8986 0.9004
1638.000000 0.9028 0.9044 0.9067 0.9082 0.9093
1633.000000 0.9112 0.9131 0.9135 0.9137 0.9142
1628.000000 0.9133 0.9138 0.9120 0.9097 0.9103
1623.000000 0.9101 0.9104 0.9091 0.9071 0.9065
1618.000000 0.9057 0.9047 0.9037 0.8991 0.8943
1613.000000 0.8827 0.8727 0.8644 0.8541 0.8404
1608.000000 0.8233 0.7949 0.7747 0.7611 0.7587
1603.000000 0.7536 0.6354 0.4139 0.1918 0.0257
1598.000000 0.0254 0.0273 0.0286 0.0606 0.1620
1593.000000 0.2652 0.3717 0.4811 0.5331 0.5570
1588.000000 0.5803 0.6024 0.6251 0.6469 0.6700
1583.000000 0.6935 0.7285 0.7339 0.7344 0.7352
1578.000000 0.7344 0.7351 0.7343 0.7357 0.7392
1573.000000 0.7416 0.7446 0.7509 0.7547 0.7611
1568.000000 0.7666 0.7727 0.7779 0.7844 0.7827
1563.000000 0.7775 0.7710 0.7632 0.7736 0.7878
1558.000000 0.7983 0.7958 0.7614 0.7691 0.7732
1553.000000 0.7680 0.7636 0.7701 0.7767 0.7798
1548.000000 0.7831 0.7857 0.7936 0.8035 0.8097
1543.000000 0.8141 0.8136 0.8110 0.8155 0.8255
1538.000000 0.8313 0.8322 0.8334 0.8352 0.8377
1533.000000 0.8396 0.8419 0.8404 0.8392 0.8396
1528.000000 0.8406 0.8411 0.8427 0.8444 0.8469
1523.000000 0.8481 0.8506 0.8515 0.8537 0.8557
1518.000000 0.8563 0.8576 0.8576 0.8565 0.8555
1513.000000 0.8530 0.8511 0.8483 0.8462 0.8446
1508.000000 0.8416 0.8396 0.8332 0.8268 0.8185
1503.000000 0.8080 0.7945 0.7824 0.6947 0.5463
1498.000000 0.3164 0.0899 0.0773 0.0804 0.0800
1493.000000 0.1100 0.1479 0.1854 0.1905 0.1869
1488.000000 0.0013 0.0026 0.0024 0.0029 0.0425
1483.000000 0.1331 0.2238 0.3148 0.4049 0.4932
1478.000000 0.5803 0.6060 0.6264 0.7796 0.8141
1473.000000 0.8288 0.8477 0.8617 0.8680 0.8744
1468.000000 0.8793 0.8840 0.8866 0.8903 0.8925
1463.000000 0.8957 0.8973 0.9002 0.9028 0.9045
1458.000000 0.9053 0.9064 0.9065 0.9062 0.9059
1453.000000 0.9069 0.9079 0.9106 0.9123 0.9144
1448.000000 0.9171 0.9176 0.9184 0.9197 0.9207
1443.000000 0.9215 0.9222 0.9230 0.9223 0.9231
1438.000000 0.9233 0.9234 0.9237 0.9238 0.9240
1433.000000 0.9242 0.9248 0.9261 0.9262 0.9263
1428.000000 0.9260 0.9258 0.9267 0.9268 0.9261
1423.000000 0.9253 0.9253 0.9252 0.9249 0.9244
1418.000000 0.9234 0.9216 0.9185 0.9156 0.9126
1413.000000 0.9097 0.9055 0.9008 0.8963 0.8498
1408.000000 0.7834 0.7167 0.6504 0.5839 0.5174
1403.000000 0.4716 0.4706 0.4709 0.4729 0.4782
1398.000000 0.4863 0.4967 0.5528 0.6038 0.6546
1393.000000 0.7057 0.7567 0.8137 0.8251 0.8361
1388.000000 0.8461 0.8610 0.8702 0.8769 0.8813
1383.000000 0.8830 0.8851 0.8873 0.8922 0.8949
1378.000000 0.8986 0.9021 0.9046 0.9055 0.9042
1373.000000 0.9064 0.9062 0.9035 0.8993 0.8931
1368.000000 0.8864 0.8784 0.8711 0.8719 0.8721
1363.000000 0.8757 0.8795 0.8857 0.8934 0.9004
1358.000000 0.9066 0.9095 0.9083 0.9087 0.9090
1353.000000 0.9093 0.9095 0.9103 0.9115 0.9126
1348.000000 0.9138 0.9148 0.9155 0.9165 0.9173
1343.000000 0.9181 0.9181 0.9191 0.9197 0.9207
1338.000000 0.9225 0.9244 0.9255 0.9262 0.9265
1333.000000 0.9266 0.9267 0.9268 0.9267 0.9250
1328.000000 0.9251 0.9251 0.9250 0.9237 0.9239
1323.000000 0.9236 0.9228 0.9230 0.9234 0.9237
1318.000000 0.9240 0.9250 0.9260 0.9263 0.9265
1313.000000 0.9265 0.9268 0.9269 0.9266 0.9256
1308.000000 0.9246 0.9236 0.9223 0.9208 0.9176
1303.000000 0.9157 0.9137 0.9039 0.8668 0.8759
1298.000000 0.8686 0.8705 0.8817 0.8935 0.9043
1293.000000 0.9150 0.9172 0.9179 0.9179 0.9184
1288.000000 0.9188 0.9181 0.9163 0.9143 0.9077
1283.000000 0.9016 0.8967 0.8670 0.8373 0.7455
1278.000000 0.7779 0.7485 0.7508 0.7531 0.7662
1273.000000 0.7807 0.7953 0.8099 0.8245 0.8391
1268.000000 0.8535 0.8687 0.8779 0.8811 0.8844
1263.000000 0.8868 0.8873 0.8882 0.8885 0.8886
1258.000000 0.8860 0.8804 0.8671 0.8565 0.8439
1253.000000 0.8328 0.8341 0.8334 0.8337 0.8458
1248.000000 0.8587 0.8708 0.8868 0.9010 0.9078
1243.000000 0.9140 0.9199 0.9255 0.9281 0.9313
1238.000000 0.9347 0.9369 0.9388 0.9405 0.9422
1233.000000 0.9440 0.9449 0.9450 0.9444 0.9414
1228.000000 0.9382 0.9351 0.9331 0.9327 0.9333
1223.000000 0.9339 0.9348 0.9367 0.9384 0.9400
1218.000000 0.9417 0.9433 0.9448 0.9456 0.9463
1213.000000 0.9478 0.9495 0.9498 0.9486 0.9501
1208.000000 0.9500 0.9499 0.9498 0.9497 0.9485
1203.000000 0.9468 0.9444 0.9420 0.9322 0.9041
1198.000000 0.8612 0.8258 0.8275 0.8298 0.8552
1193.000000 0.8822 0.8939 0.8983 0.9004 0.9024
1188.000000 0.9040 0.9053 0.9055 0.9071 0.9041
1183.000000 0.8988 0.8899 0.8827 0.8782 0.8718
1178.000000 0.8608 0.8495 0.8375 0.8255 0.8135
1173.000000 0.8078 0.8043 0.8043 0.8491 0.8572
1168.000000 0.8655 0.8747 0.8812 0.8876 0.8941
1163.000000 0.9001 0.9058 0.9113 0.9159 0.9205
1158.000000 0.9250 0.9287 0.9321 0.9332 0.9342
1153.000000 0.9353 0.9364 0.9354 0.9357 0.9362
1148.000000 0.9349 0.9339 0.9334 0.9329 0.9318
1143.000000 0.9279 0.9270 0.9258 0.9244 0.9250
1138.000000 0.9262 0.9267 0.9254 0.9229 0.9146
1133.000000 0.9030 0.8973 0.8919 0.8872 0.8868
1128.000000 0.8866 0.8873 0.8934 0.8983 0.9028
1123.000000 0.9067 0.9106 0.9135 0.9145 0.9148
1118.000000 0.9146 0.9146 0.9048 0.8866 0.8714
1113.000000 0.8490 0.8352 0.8304 0.8273 0.8272
1108.000000 0.8275 0.8305 0.8296 0.8297 0.8279
1103.000000 0.7981 0.7582 0.6468 0.5241 0.4012
1098.000000 0.2785 0.1558 0.0330 0.0095 0.0087
1093.000000 0.0070 0.0075 0.0106 0.1013 0.1935
1088.000000 0.2857 0.3780 0.4932 0.5073 0.5270
1083.000000 0.5436 0.5557 0.5682 0.5861 0.6203
1078.000000 0.6594 0.6987 0.7377 0.7774 0.8170
1073.000000 0.8300 0.8377 0.8465 0.8560 0.8640
1068.000000 0.8709 0.8761 0.8812 0.8862 0.8915
1063.000000 0.8972 0.9015 0.9049 0.9077 0.9092
1058.000000 0.9132 0.9153 0.9160 0.9181 0.9196
1053.000000 0.9211 0.9227 0.9246 0.9267 0.9274
1048.000000 0.9281 0.9288 0.9291 0.9294 0.9297
1043.000000 0.9300 0.9302 0.9306 0.9310 0.9314
1038.000000 0.9318 0.9322 0.9325 0.9328 0.9333
1033.000000 0.9332 0.9332 0.9316 0.9289 0.9269
1028.000000 0.9243 0.9216 0.9138 0.9053 0.8906
1023.000000 0.8726 0.8525 0.8306 0.0353 0.7935
1018.000000 0.0386 0.0390 0.0459 0.3238 0.6017
1013.000000 0.7416 0.7735 0.8244 0.8300 0.8339
1008.000000 0.8407 0.8550 0.8954 0.9030 0.9073
1003.000000 0.9130 0.9168 0.9207 0.9234 0.9247
998.000000 0.9254 0.9254 0.9265 0.9272 0.9280
993.000000 0.9287 0.9303 0.9313 0.9315 0.9316
988.000000 0.9299 0.9320 0.9320 0.9318 0.9315
983.000000 0.9313 0.9310 0.9307 0.9305 0.9303
978.000000 0.9298 0.9285 0.9272 0.9261 0.9248
973.000000 0.9234 0.9210 0.9212 0.9193 0.9174
968.000000 0.9155 0.9137 0.9117 0.9099 0.9081
963.000000 0.9067 0.9054 0.9039 0.9023 0.9007
958.000000 0.9000 0.8994 0.8991 0.8990 0.8980
953.000000 0.8953 0.8923 0.8886 0.8863 0.8850
948.000000 0.8840 0.8829 0.8825 0.8855 0.8876
943.000000 0.8895 0.8916 0.8936 0.8972 0.9010
938.000000 0.9050 0.9074 0.9097 0.9120 0.9142
933.000000 0.9164 0.9186 0.9205 0.9225 0.9244
928.000000 0.9261 0.9279 0.9290 0.9301 0.9312
923.000000 0.9321 0.9324 0.9328 0.9331 0.9338
918.000000 0.9351 0.9345 0.9361 0.9364 0.9374
913.000000 0.9367 0.9373 0.9383 0.9382 0.9377
908.000000 0.9381 0.9384 0.9378 0.9376 0.9368
903.000000 0.9354 0.9354 0.9342 0.9342 0.9327
898.000000 0.9324 0.9323 0.9323 0.9323 0.9324
893.000000 0.9310 0.9313 0.9315 0.9307 0.9301
888.000000 0.9303 0.9299 0.9298 0.9287 0.9289
883.000000 0.9281 0.9238 0.9185 0.9126 0.9016
878.000000 0.8896 0.8765 0.8655 0.8570 0.8498
873.000000 0.8431 0.8346 0.8377 0.8407 0.8442
868.000000 0.8479 0.8531 0.8564 0.8598 0.8626
863.000000 0.8641 0.8616 0.8595 0.8572 0.8530
858.000000 0.8481 0.8411 0.8319 0.8220 0.8109
853.000000 0.8041 0.7990 0.7936 0.7889 0.7824
848.000000 0.7762 0.7692 0.7608 0.7537 0.7433
843.000000 0.7336 0.7188 0.6951 0.6593 0.6100
838.000000 0.5329 0.3851 0.2382 0.0929 0.0280
833.000000 0.0197 0.0082 0.0062 0.0048 0.0040
828.000000 0.0037 0.0069 0.0156 0.0303 0.1811
823.000000 0.2672 0.3532 0.4387 0.5243 0.6251
818.000000 0.6727 0.6962 0.7181 0.7432 0.7542
813.000000 0.7654 0.7783 0.7902 0.7990 0.8092
808.000000 0.8182 0.8260 0.8323 0.8391 0.8441
803.000000 0.8489 0.8530 0.8571 0.8612 0.8654
798.000000 0.8697 0.8736 0.8762 0.8778 0.8783
793.000000 0.8787 0.8782 0.8802 0.8780 0.8763
788.000000 0.8736 0.8700 0.8642 0.8551 0.8091
783.000000 0.5860 0.4560 0.4569 0.4543 0.4885
778.000000 0.5514 0.6138 0.6768 0.7397 0.8012
773.000000 0.8507 0.8651 0.8779 0.8885 0.8949
768.000000 0.9006 0.9046 0.9084 0.9110 0.9139
763.000000 0.9164 0.9189 0.9214 0.9239 0.9253
758.000000 0.9269 0.9284 0.9300 0.9309 0.9319
753.000000 0.9337 0.9344 0.9349 0.9355 0.9360
748.000000 0.9367 0.9370 0.9373 0.9377 0.9380
743.000000 0.9384 0.9387 0.9391 0.9394 0.9395
738.000000 0.9395 0.9394 0.9394 0.9393 0.9393
733.000000 0.9392 0.9392 0.9392 0.9406 0.9406
728.000000 0.9406 0.9406 0.9410 0.9420 0.9419
723.000000 0.9423 0.9431 0.9436 0.9435 0.9422
718.000000 0.9405 0.9398 0.9386 0.9369 0.9360
713.000000 0.9343 0.9322 0.9295 0.9251 0.9177
708.000000 0.9000 0.8834 0.8669 0.8504 0.8408
703.000000 0.8419 0.8558 0.8789 0.9030 0.9197
698.000000 0.9228 0.9259 0.9278 0.9303 0.9331
693.000000 0.9350 0.9365 0.9376 0.9386 0.9398
688.000000 0.9419 0.9435 0.9447 0.9454 0.9462
683.000000 0.9483 0.9484 0.9496 0.9484 0.9478
678.000000 0.9500 0.9485 0.9485 0.9485 0.9460
673.000000 0.9445 0.9421 0.9442 0.9490 0.9625
668.000000 0.9717 0.9631 0.9556 0.9561 0.9583
663.000000 0.9596 0.9605 0.9617 0.9637 0.9656
658.000000 0.9641 0.9639 0.9624 0.9533 0.9415
653.000000 0.9331 0.9223 0.9147 0.9114 0.9104
648.000000 0.9118 0.9138 0.9151 0.9178 0.9200
643.000000 0.9203 0.9214 0.9224 0.9248 0.9282
638.000000 0.9298 0.9307 0.9333 0.9356 0.9363
633.000000 0.9382 0.9395 0.9403 0.9423 0.9448
628.000000 0.9458 0.9478 0.9488 0.9506 0.9521
623.000000 0.9523 0.9540 0.9556 0.9567 0.9583
618.000000 0.9608 0.9615 0.9612 0.9616 0.9615
613.000000 0.9605 0.9604 0.9594 0.9584 0.9566
608.000000 0.9543 0.9509 0.9482 0.9457 0.9421
603.000000 0.9388 0.9343 0.9237 0.9140 0.9058
598.000000 0.8976 0.8891 0.8810 0.8727 0.8604
593.000000 0.7447 0.6123 0.4799 0.3475 0.2604
588.000000 0.2578 0.2588 0.2603 0.3289 0.4061
583.000000 0.4836 0.5611 0.6386 0.7161 0.7937
578.000000 0.8443 0.8590 0.8726 0.9072 0.9157
573.000000 0.9211 0.9244 0.9277 0.9294 0.9309
568.000000 0.9323 0.9321 0.9333 0.9357 0.9363
563.000000 0.9349 0.9349 0.9348 0.9347 0.9338
558.000000 0.9324 0.9307 0.9279 0.9223 0.9168
553.000000 0.9072 0.8929 0.8775 0.8637 0.8525
548.000000 0.8384 0.8136 0.6862 0.5296 0.3729
543.000000 0.2163 0.0597 0.0083 0.0082 0.0082
538.000000 0.0104 0.0132 0.1217 0.2372 0.3525
533.000000 0.4685 0.5841 0.6953 0.7150 0.7536
528.000000 0.8465 0.8637 0.8803 0.8889 0.8969
523.000000 0.9046 0.9123 0.9198 0.9263 0.9307
518.000000 0.9336 0.9363 0.9391 0.9408 0.9426
513.000000 0.9439 0.9449 0.9457 0.9467 0.9475
508.000000 0.9480 0.9483 0.9488 0.9491 0.9495
503.000000 0.9498 0.9501 0.9502 0.9502 0.9504
498.000000 0.9504 0.9504 0.9503 0.9498 0.9493
493.000000 0.9488 0.9482 0.9475 0.9471 0.9464
488.000000 0.9449 0.9434 0.9419 0.9404 0.9382
483.000000 0.9359 0.9335 0.9313 0.9295 0.9277
478.000000 0.9260 0.9249 0.9246 0.9244 0.9241
473.000000 0.9238 0.9235 0.9232 0.9213 0.9192
468.000000 0.9171 0.9142 0.9114 0.9085 0.9055
463.000000 0.9027 0.9003 0.8984 0.8966 0.8947
458.000000 0.8929 0.8911 0.8898 0.8887 0.8877
453.000000 0.8866 0.8856 0.8845 0.8835 0.8824
448.000000 0.8814 0.8803 0.8793 0.8784 0.8774
443.000000 0.8765 0.8754 0.8745 0.8733 0.8724
438.000000 0.8712 0.8702 0.8691 0.8680 0.8669
433.000000 0.8660 0.8651 0.8644 0.8635 0.8628
428.000000 0.8622 0.8613 0.8604 0.8597 0.8590
##END=
