##TITLE=Ethanediol, dihexadecanoic acid, ester
##JCAMP-DX=4.24
##DATA TYPE=INFRARED SPECTRUM
##CLASS=COBLENTZ III
##ORIGIN=DOW CHEMICAL COMPANY
##OWNER=COBLENTZ SOC.
Collection (C) 2018 copyright by the U.S. Secretary of Commerce
on behalf of the United States of America. All rights reserved.
##DATE=1970/01/22
##NAMES=2-(palmitoyloxy)ethyl palmitate
Ethylene glycol dipalmitate
##CAS REGISTRY NO=624-03-3
##MOLFORM=C34 H66 O4
##SOURCE REFERENCE=COBLENTZ NO. 09509
##$NIST SOURCE=COBLENTZ
##$NIST IMAGE=cob9509
##SPECTROMETER/DATA SYSTEM=DOW KBr FOREPRISM-GRATING
##INSTRUMENT PARAMETERS=BLAZED AT 3.5, 12.0, 20.0 MICRON AND CHANGED AT 5.0, 7.5, 14.9 MICRON
##STATE=SOLID (SPLIT MULL), FLUOROLUBE FOR 3800-1330 CM^-^1, NUJOL FOR 1330-400 CM^-^1
##SAMPLING PROCEDURE=TRANSMISSION
##RESOLUTION=2
##DATA PROCESSING=DIGITIZED BY COBLENTZ SOCIETY (BATCH I) FROM HARD COPY
##XUNITS=1/CM
##YUNITS=TRANSMITTANCE
##XLABEL=Wavenumbers (cm-1)
##YLABEL=% Transmission
##XFACTOR=1
##YFACTOR=1
##DELTAX=1
##FIRSTX=393
##LASTX=3766
##FIRSTY=0.7619
##MAXX=3766
##MINX=393
##MAXY=0.8348
##MINY=0.0263
##NPOINTS=3374
##XYDATA=(X++(Y..Y))
393.000000 0.7619 0.7621 0.7621 0.7621 0.7621
398.000000 0.7621 0.7621 0.7619 0.7619 0.7619
403.000000 0.7618 0.7618 0.7618 0.7618 0.7618
408.000000 0.7618 0.7618 0.7618 0.7617 0.7617
413.000000 0.7617 0.7617 0.7615 0.7615 0.7615
418.000000 0.7615 0.7615 0.7615 0.7614 0.7612
423.000000 0.7611 0.7611 0.7610 0.7608 0.7608
428.000000 0.7607 0.7606 0.7605 0.7604 0.7604
433.000000 0.7603 0.7603 0.7603 0.7601 0.7601
438.000000 0.7601 0.7601 0.7601 0.7600 0.7600
443.000000 0.7600 0.7599 0.7599 0.7598 0.7598
448.000000 0.7598 0.7597 0.7597 0.7598 0.7599
453.000000 0.7599 0.7600 0.7601 0.7601 0.7603
458.000000 0.7603 0.7604 0.7605 0.7606 0.7606
463.000000 0.7607 0.7608 0.7608 0.7610 0.7610
468.000000 0.7611 0.7611 0.7612 0.7612 0.7614
473.000000 0.7615 0.7615 0.7615 0.7617 0.7618
478.000000 0.7618 0.7619 0.7619 0.7621 0.7621
483.000000 0.7622 0.7624 0.7625 0.7625 0.7628
488.000000 0.7636 0.7644 0.7651 0.7658 0.7665
493.000000 0.7672 0.7680 0.7682 0.7683 0.7684
498.000000 0.7685 0.7687 0.7688 0.7689 0.7686
503.000000 0.7683 0.7680 0.7676 0.7674 0.7671
508.000000 0.7665 0.7660 0.7653 0.7647 0.7641
513.000000 0.7634 0.7634 0.7634 0.7636 0.7638
518.000000 0.7643 0.7655 0.7667 0.7678 0.7693
523.000000 0.7707 0.7721 0.7721 0.7722 0.7722
528.000000 0.7726 0.7739 0.7750 0.7764 0.7778
533.000000 0.7793 0.7807 0.7821 0.7826 0.7826
538.000000 0.7828 0.7828 0.7828 0.7826 0.7825
543.000000 0.7825 0.7824 0.7824 0.7822 0.7821
548.000000 0.7819 0.7818 0.7817 0.7815 0.7812
553.000000 0.7811 0.7810 0.7808 0.7806 0.7804
558.000000 0.7801 0.7800 0.7798 0.7796 0.7794
563.000000 0.7792 0.7790 0.7788 0.7786 0.7784
568.000000 0.7782 0.7781 0.7778 0.7776 0.7775
573.000000 0.7774 0.7771 0.7769 0.7768 0.7765
578.000000 0.7765 0.7764 0.7761 0.7761 0.7760
583.000000 0.7758 0.7758 0.7757 0.7753 0.7749
588.000000 0.7745 0.7746 0.7747 0.7756 0.7765
593.000000 0.7778 0.7801 0.7825 0.7851 0.7883
598.000000 0.7914 0.7944 0.7980 0.8015 0.8030
603.000000 0.8033 0.8034 0.8036 0.8037 0.8039
608.000000 0.8041 0.8042 0.8044 0.8049 0.8054
613.000000 0.8058 0.8065 0.8076 0.8089 0.8101
618.000000 0.8112 0.8124 0.8136 0.8147 0.8158
623.000000 0.8169 0.8181 0.8193 0.8204 0.8221
628.000000 0.8238 0.8254 0.8261 0.8268 0.8275
633.000000 0.8283 0.8290 0.8297 0.8304 0.8311
638.000000 0.8318 0.8325 0.8331 0.8336 0.8341
643.000000 0.8346 0.8348 0.8348 0.8347 0.8347
648.000000 0.8346 0.8346 0.8346 0.8344 0.8342
653.000000 0.8341 0.8339 0.8337 0.8335 0.8333
658.000000 0.8328 0.8321 0.8316 0.8310 0.8305
663.000000 0.8299 0.8286 0.8265 0.8241 0.8204
668.000000 0.8220 0.8247 0.8275 0.8275 0.8268
673.000000 0.8264 0.8260 0.8255 0.8250 0.8242
678.000000 0.8232 0.8220 0.8206 0.8193 0.8178
683.000000 0.8161 0.8143 0.8115 0.8085 0.8053
688.000000 0.8008 0.7961 0.7918 0.7878 0.7855
693.000000 0.7844 0.7857 0.7850 0.7871 0.7917
698.000000 0.7975 0.8043 0.8091 0.8101 0.8105
703.000000 0.8108 0.8110 0.8114 0.8098 0.8086
708.000000 0.8067 0.8047 0.8018 0.7989 0.7958
713.000000 0.7926 0.7878 0.7830 0.7755 0.7667
718.000000 0.7374 0.6359 0.5343 0.5041 0.5410
723.000000 0.5979 0.6547 0.7115 0.7115 0.7115
728.000000 0.6640 0.6162 0.5687 0.5210 0.5150
733.000000 0.5672 0.6299 0.6926 0.7358 0.7405
738.000000 0.7428 0.7448 0.7460 0.7419 0.7361
743.000000 0.7301 0.7375 0.7751 0.7919 0.7990
748.000000 0.8045 0.8083 0.8094 0.8095 0.8075
753.000000 0.8061 0.8050 0.8040 0.8032 0.8043
758.000000 0.8057 0.8080 0.8122 0.8184 0.8235
763.000000 0.8258 0.8266 0.8268 0.8268 0.8268
768.000000 0.8274 0.8275 0.8278 0.8280 0.8282
773.000000 0.8284 0.8289 0.8294 0.8298 0.8300
778.000000 0.8265 0.7947 0.7628 0.7432 0.7458
783.000000 0.7771 0.7983 0.8131 0.8145 0.8145
788.000000 0.8140 0.8136 0.8130 0.8122 0.8126
793.000000 0.8138 0.8154 0.8183 0.8223 0.8259
798.000000 0.8286 0.8291 0.8291 0.8289 0.8287
803.000000 0.8284 0.8277 0.8271 0.8265 0.8257
808.000000 0.8247 0.8236 0.8228 0.8228 0.8220
813.000000 0.8218 0.8230 0.8244 0.8265 0.8281
818.000000 0.8289 0.8293 0.8293 0.8290 0.8286
823.000000 0.8282 0.8278 0.8274 0.8270 0.8266
828.000000 0.8262 0.8258 0.8254 0.8250 0.8246
833.000000 0.8242 0.8239 0.8237 0.8235 0.8234
838.000000 0.8232 0.8230 0.8228 0.8228 0.8223
843.000000 0.8178 0.8108 0.8019 0.7899 0.7854
848.000000 0.7847 0.7842 0.7851 0.7878 0.7950
853.000000 0.8105 0.8215 0.8237 0.8237 0.8237
858.000000 0.8237 0.8238 0.8238 0.8238 0.8238
863.000000 0.8238 0.8237 0.8236 0.8236 0.8235
868.000000 0.8233 0.8231 0.8228 0.8227 0.8223
873.000000 0.8218 0.8213 0.8208 0.8203 0.8197
878.000000 0.8189 0.8178 0.8168 0.8153 0.8125
883.000000 0.8088 0.8024 0.7941 0.7871 0.7805
888.000000 0.7751 0.7728 0.7712 0.7687 0.7656
893.000000 0.7618 0.7567 0.7372 0.6940 0.6507
898.000000 0.6284 0.6284 0.6658 0.7492 0.8001
903.000000 0.8040 0.8054 0.8058 0.8064 0.8061
908.000000 0.8058 0.8056 0.8054 0.8053 0.8051
913.000000 0.8051 0.8047 0.8043 0.8041 0.8041
918.000000 0.8041 0.8040 0.8038 0.8037 0.8035
923.000000 0.8021 0.8004 0.7983 0.7961 0.7945
928.000000 0.7928 0.7928 0.7930 0.7937 0.7947
933.000000 0.7960 0.7972 0.7988 0.8003 0.8011
938.000000 0.8021 0.8028 0.8028 0.8028 0.8021
943.000000 0.8017 0.8011 0.8005 0.7998 0.7991
948.000000 0.7984 0.7976 0.7971 0.7964 0.7957
953.000000 0.7949 0.7941 0.7934 0.7925 0.7918
958.000000 0.7911 0.7903 0.7892 0.7880 0.7868
963.000000 0.7856 0.7843 0.7819 0.7791 0.7760
968.000000 0.7691 0.7619 0.7603 0.7598 0.7605
973.000000 0.7615 0.7648 0.7703 0.7751 0.7790
978.000000 0.7818 0.7830 0.7841 0.7840 0.7836
983.000000 0.7825 0.7668 0.7469 0.7271 0.7108
988.000000 0.7108 0.7115 0.7328 0.7483 0.7639
993.000000 0.7730 0.7746 0.7746 0.7745 0.7731
998.000000 0.7711 0.7683 0.7654 0.7621 0.7591
1003.000000 0.7592 0.7592 0.7603 0.7605 0.7596
1008.000000 0.7582 0.7558 0.7555 0.7584 0.7625
1013.000000 0.7661 0.7699 0.7739 0.7786 0.7832
1018.000000 0.7854 0.7864 0.7864 0.7864 0.7851
1023.000000 0.7821 0.7775 0.7708 0.7647 0.7603
1028.000000 0.7592 0.7595 0.7625 0.7665 0.7701
1033.000000 0.7732 0.7762 0.7799 0.7821 0.7830
1038.000000 0.7830 0.7818 0.7806 0.7786 0.7765
1043.000000 0.7744 0.7726 0.7721 0.7717 0.7711
1048.000000 0.7712 0.7714 0.7718 0.7743 0.7771
1053.000000 0.7797 0.7811 0.7806 0.7803 0.7800
1058.000000 0.7796 0.7791 0.7788 0.7786 0.7785
1063.000000 0.7793 0.7800 0.7808 0.7815 0.7824
1068.000000 0.7833 0.7841 0.7847 0.7853 0.7865
1073.000000 0.7865 0.7865 0.7865 0.7865 0.7865
1078.000000 0.7865 0.7864 0.7862 0.7856 0.7850
1083.000000 0.7843 0.7836 0.7830 0.7817 0.7804
1088.000000 0.7790 0.7776 0.7758 0.7725 0.7686
1093.000000 0.7643 0.7587 0.7518 0.7436 0.7344
1098.000000 0.7278 0.7269 0.7396 0.7515 0.7630
1103.000000 0.7690 0.7699 0.7692 0.7693 0.7694
1108.000000 0.7671 0.7638 0.7587 0.7525 0.7430
1113.000000 0.7264 0.7146 0.7118 0.7111 0.7090
1118.000000 0.7151 0.7265 0.7414 0.7496 0.7555
1123.000000 0.7588 0.7603 0.7612 0.7621 0.7625
1128.000000 0.7625 0.7625 0.7621 0.7619 0.7614
1133.000000 0.7608 0.7601 0.7596 0.7586 0.7575
1138.000000 0.7557 0.7537 0.7515 0.7494 0.7471
1143.000000 0.7448 0.7424 0.7401 0.7376 0.7351
1148.000000 0.7325 0.7300 0.7274 0.7248 0.7218
1153.000000 0.7186 0.7154 0.7121 0.7089 0.7057
1158.000000 0.7000 0.6942 0.6884 0.6803 0.6721
1163.000000 0.6634 0.6528 0.6421 0.6308 0.6180
1168.000000 0.6052 0.5869 0.5683 0.5488 0.5298
1173.000000 0.5114 0.4450 0.3959 0.3468 0.2979
1178.000000 0.2489 0.1999 0.1648 0.1649 0.1634
1183.000000 0.2212 0.2930 0.3648 0.4366 0.5084
1188.000000 0.5802 0.6497 0.6500 0.6487 0.5960
1193.000000 0.5428 0.4895 0.4360 0.3828 0.3294
1198.000000 0.2933 0.2914 0.3096 0.7057 0.7153
1203.000000 0.7245 0.7325 0.7361 0.7388 0.7392
1208.000000 0.7415 0.7365 0.7315 0.7240 0.7156
1213.000000 0.7072 0.6987 0.6869 0.6621 0.6152
1218.000000 0.5772 0.5392 0.5012 0.4760 0.4754
1223.000000 0.5356 0.6048 0.6721 0.6838 0.7410
1228.000000 0.7501 0.7538 0.7553 0.7553 0.7553
1233.000000 0.7543 0.7525 0.7493 0.7318 0.7193
1238.000000 0.7010 0.6643 0.6276 0.5908 0.5560
1243.000000 0.5568 0.6014 0.6896 0.7335 0.7387
1248.000000 0.7428 0.7460 0.7475 0.7476 0.7510
1253.000000 0.7461 0.7431 0.7365 0.7300 0.7239
1258.000000 0.7176 0.7106 0.7034 0.6940 0.6824
1263.000000 0.6711 0.6607 0.6536 0.6476 0.6425
1268.000000 0.6372 0.5890 0.5373 0.4855 0.4338
1273.000000 0.4189 0.4159 0.4164 0.4971 0.5860
1278.000000 0.6749 0.6972 0.7021 0.7017 0.7010
1283.000000 0.6788 0.6528 0.6269 0.6010 0.5751
1288.000000 0.5491 0.5273 0.5265 0.7171 0.7260
1293.000000 0.7325 0.7347 0.7365 0.7368 0.7368
1298.000000 0.7369 0.7364 0.7353 0.7318 0.7260
1303.000000 0.7184 0.7108 0.7030 0.6933 0.6787
1308.000000 0.6606 0.6435 0.6264 0.6215 0.6269
1313.000000 0.6530 0.6791 0.7053 0.7314 0.7460
1318.000000 0.7496 0.7508 0.7525 0.7511 0.7506
1323.000000 0.7492 0.7475 0.7457 0.7438 0.7411
1328.000000 0.7385 0.7351 0.7314 0.7276 0.7228
1333.000000 0.7178 0.7126 0.7071 0.6999 0.6791
1338.000000 0.6584 0.6377 0.5991 0.6026 0.6118
1343.000000 0.6206 0.6266 0.6295 0.6310 0.6328
1348.000000 0.6288 0.6133 0.5953 0.5774 0.5710
1353.000000 0.5797 0.5916 0.6035 0.6155 0.6274
1358.000000 0.6305 0.6317 0.6280 0.6240 0.6185
1363.000000 0.6130 0.6075 0.6020 0.5964 0.5912
1368.000000 0.5867 0.5825 0.5798 0.5794 0.5789
1373.000000 0.5800 0.5806 0.5839 0.5884 0.5932
1378.000000 0.5973 0.6003 0.5996 0.5985 0.5905
1383.000000 0.5782 0.5658 0.5494 0.5322 0.4978
1388.000000 0.4540 0.4101 0.3662 0.3252 0.3264
1393.000000 0.3255 0.3962 0.4312 0.4662 0.5012
1398.000000 0.5360 0.5710 0.6060 0.6408 0.6762
1403.000000 0.6835 0.6858 0.6872 0.6872 0.6871
1408.000000 0.6860 0.6817 0.6771 0.6705 0.6483
1413.000000 0.6238 0.5992 0.5835 0.5827 0.6186
1418.000000 0.6454 0.6722 0.6991 0.7061 0.7035
1423.000000 0.7007 0.6949 0.6808 0.6665 0.6521
1428.000000 0.6455 0.6537 0.6434 0.6861 0.7025
1433.000000 0.7090 0.7092 0.7093 0.7095 0.7096
1438.000000 0.7096 0.7095 0.7094 0.7093 0.7092
1443.000000 0.7091 0.7075 0.7049 0.7014 0.6961
1448.000000 0.6910 0.6858 0.6808 0.6748 0.6676
1453.000000 0.6588 0.6484 0.6381 0.6270 0.6159
1458.000000 0.6029 0.5790 0.4879 0.4915 0.5021
1463.000000 0.5126 0.4814 0.4125 0.3434 0.3027
1468.000000 0.3038 0.4286 0.5397 0.5972 0.6022
1473.000000 0.4973 0.3922 0.2871 0.2189 0.2171
1478.000000 0.2177 0.5241 0.7584 0.7740 0.7793
1483.000000 0.7811 0.7824 0.7835 0.7845 0.7849
1488.000000 0.7851 0.7854 0.7855 0.7857 0.7858
1493.000000 0.7860 0.7861 0.7861 0.7861 0.7861
1498.000000 0.7861 0.7861 0.7861 0.7860 0.7858
1503.000000 0.7857 0.7855 0.7853 0.7851 0.7844
1508.000000 0.7832 0.7821 0.7808 0.7793 0.7778
1513.000000 0.7762 0.7761 0.7761 0.7772 0.7789
1518.000000 0.7821 0.7850 0.7865 0.7878 0.7880
1523.000000 0.7882 0.7885 0.7887 0.7889 0.7891
1528.000000 0.7893 0.7894 0.7896 0.7898 0.7898
1533.000000 0.7899 0.7900 0.7900 0.7901 0.7901
1538.000000 0.7901 0.7900 0.7898 0.7896 0.7894
1543.000000 0.7892 0.7904 0.7890 0.7889 0.7887
1548.000000 0.7886 0.7885 0.7884 0.7883 0.7882
1553.000000 0.7881 0.7880 0.7880 0.7880 0.7878
1558.000000 0.7878 0.7878 0.7878 0.7878 0.7876
1563.000000 0.7876 0.7875 0.7875 0.7875 0.7874
1568.000000 0.7872 0.7872 0.7871 0.7871 0.7869
1573.000000 0.7868 0.7868 0.7868 0.7868 0.7868
1578.000000 0.7868 0.7868 0.7868 0.7868 0.7868
1583.000000 0.7869 0.7869 0.7869 0.7869 0.7869
1588.000000 0.7871 0.7871 0.7871 0.7871 0.7871
1593.000000 0.7871 0.7871 0.7871 0.7871 0.7871
1598.000000 0.7871 0.7871 0.7871 0.7871 0.7871
1603.000000 0.7871 0.7871 0.7871 0.7868 0.7867
1608.000000 0.7865 0.7862 0.7861 0.7860 0.7858
1613.000000 0.7856 0.7854 0.7851 0.7850 0.7848
1618.000000 0.7845 0.7842 0.7839 0.7836 0.7833
1623.000000 0.7830 0.7825 0.7822 0.7819 0.7817
1628.000000 0.7812 0.7808 0.7805 0.7801 0.7798
1633.000000 0.7794 0.7790 0.7786 0.7782 0.7775
1638.000000 0.7769 0.7764 0.7757 0.7751 0.7744
1643.000000 0.7738 0.7731 0.7725 0.7718 0.7711
1648.000000 0.7705 0.7699 0.7692 0.7686 0.7678
1653.000000 0.7672 0.7665 0.7660 0.7651 0.7643
1658.000000 0.7635 0.7626 0.7618 0.7610 0.7601
1663.000000 0.7594 0.7586 0.7578 0.7568 0.7561
1668.000000 0.7551 0.7542 0.7533 0.7524 0.7515
1673.000000 0.7505 0.7496 0.7487 0.7478 0.7465
1678.000000 0.7454 0.7442 0.7430 0.7418 0.7400
1683.000000 0.7371 0.7344 0.7306 0.7265 0.7222
1688.000000 0.7178 0.7132 0.7086 0.7043 0.7000
1693.000000 0.6972 0.6946 0.6922 0.6901 0.6882
1698.000000 0.6856 0.6804 0.6732 0.6691 0.6661
1703.000000 0.6632 0.6601 0.6564 0.6521 0.6480
1708.000000 0.6446 0.6411 0.6379 0.6346 0.6314
1713.000000 0.6282 0.6250 0.6218 0.6178 0.6135
1718.000000 0.6091 0.6015 0.5899 0.5779 0.5689
1723.000000 0.5603 0.5517 0.5416 0.5300 0.5151
1728.000000 0.4960 0.4152 0.3718 0.2678 0.1758
1733.000000 0.1595 0.1034 0.0544 0.0517 0.0524
1738.000000 0.0507 0.0883 0.1682 0.2482 0.3282
1743.000000 0.4080 0.4881 0.5680 0.6480 0.7280
1748.000000 0.7857 0.7940 0.8019 0.8062 0.8108
1753.000000 0.8153 0.8168 0.8185 0.8203 0.8194
1758.000000 0.8189 0.8184 0.8167 0.8142 0.8114
1763.000000 0.8085 0.8056 0.8025 0.7991 0.7962
1768.000000 0.7948 0.7933 0.7911 0.7940 0.7961
1773.000000 0.7999 0.8040 0.8087 0.8140 0.8201
1778.000000 0.8250 0.8270 0.8288 0.8295 0.8300
1783.000000 0.8305 0.8308 0.8310 0.8312 0.8312
1788.000000 0.8312 0.8312 0.8312 0.8313 0.8313
1793.000000 0.8313 0.8313 0.8313 0.8314 0.8314
1798.000000 0.8314 0.8314 0.8315 0.8315 0.8316
1803.000000 0.8316 0.8317 0.8318 0.8318 0.8318
1808.000000 0.8320 0.8320 0.8320 0.8320 0.8318
1813.000000 0.8318 0.8318 0.8318 0.8318 0.8318
1818.000000 0.8318 0.8318 0.8318 0.8317 0.8316
1823.000000 0.8315 0.8314 0.8313 0.8311 0.8310
1828.000000 0.8309 0.8308 0.8307 0.8306 0.8304
1833.000000 0.8303 0.8301 0.8300 0.8298 0.8297
1838.000000 0.8295 0.8293 0.8292 0.8290 0.8287
1843.000000 0.8284 0.8281 0.8278 0.8275 0.8273
1848.000000 0.8270 0.8268 0.8265 0.8262 0.8260
1853.000000 0.8258 0.8256 0.8254 0.8253 0.8251
1858.000000 0.8249 0.8247 0.8245 0.8243 0.8242
1863.000000 0.8242 0.8242 0.8242 0.8242 0.8242
1868.000000 0.8242 0.8241 0.8241 0.8241 0.8241
1873.000000 0.8241 0.8240 0.8240 0.8240 0.8240
1878.000000 0.8240 0.8239 0.8238 0.8235 0.8233
1883.000000 0.8230 0.8227 0.8225 0.8221 0.8220
1888.000000 0.8220 0.8220 0.8220 0.8220 0.8221
1893.000000 0.8225 0.8228 0.8233 0.8237 0.8241
1898.000000 0.8244 0.8245 0.8247 0.8241 0.8234
1903.000000 0.8228 0.8225 0.8225 0.8225 0.8225
1908.000000 0.8224 0.8224 0.8224 0.8224 0.8224
1913.000000 0.8223 0.8223 0.8223 0.8223 0.8223
1918.000000 0.8223 0.8221 0.8221 0.8221 0.8221
1923.000000 0.8221 0.8221 0.8220 0.8220 0.8220
1928.000000 0.8218 0.8218 0.8218 0.8218 0.8218
1933.000000 0.8217 0.8217 0.8217 0.8216 0.8216
1938.000000 0.8216 0.8215 0.8215 0.8215 0.8214
1943.000000 0.8214 0.8214 0.8213 0.8213 0.8212
1948.000000 0.8212 0.8212 0.8211 0.8211 0.8210
1953.000000 0.8210 0.8210 0.8209 0.8205 0.8202
1958.000000 0.8198 0.8195 0.8191 0.8188 0.8185
1963.000000 0.8181 0.8178 0.8174 0.8171 0.8167
1968.000000 0.8164 0.8160 0.8157 0.8153 0.8150
1973.000000 0.8146 0.8143 0.8139 0.8135 0.8132
1978.000000 0.8128 0.8124 0.8121 0.8115 0.8111
1983.000000 0.8107 0.8101 0.8097 0.8092 0.8087
1988.000000 0.8080 0.8071 0.8085 0.8097 0.8115
1993.000000 0.8134 0.8150 0.8161 0.8168 0.8171
1998.000000 0.8175 0.8178 0.8183 0.8186 0.8190
2003.000000 0.8191 0.8192 0.8193 0.8195 0.8196
2008.000000 0.8198 0.8200 0.8202 0.8203 0.8205
2013.000000 0.8206 0.8208 0.8209 0.8210 0.8210
2018.000000 0.8210 0.8206 0.8202 0.8198 0.8194
2023.000000 0.8189 0.8184 0.8178 0.8172 0.8168
2028.000000 0.8164 0.8161 0.8161 0.8158 0.8158
2033.000000 0.8157 0.8157 0.8157 0.8158 0.8160
2038.000000 0.8161 0.8162 0.8165 0.8167 0.8168
2043.000000 0.8171 0.8172 0.8175 0.8176 0.8176
2048.000000 0.8178 0.8178 0.8178 0.8178 0.8178
2053.000000 0.8175 0.8175 0.8171 0.8169 0.8167
2058.000000 0.8164 0.8161 0.8160 0.8158 0.8156
2063.000000 0.8154 0.8153 0.8151 0.8149 0.8147
2068.000000 0.8146 0.8144 0.8142 0.8142 0.8142
2073.000000 0.8142 0.8143 0.8143 0.8144 0.8144
2078.000000 0.8145 0.8145 0.8146 0.8147 0.8148
2083.000000 0.8148 0.8149 0.8149 0.8150 0.8150
2088.000000 0.8150 0.8150 0.8150 0.8150 0.8150
2093.000000 0.8148 0.8147 0.8145 0.8144 0.8143
2098.000000 0.8142 0.8140 0.8139 0.8137 0.8136
2103.000000 0.8134 0.8132 0.8130 0.8128 0.8125
2108.000000 0.8125 0.8122 0.8121 0.8118 0.8117
2113.000000 0.8115 0.8114 0.8111 0.8111 0.8108
2118.000000 0.8108 0.8106 0.8105 0.8104 0.8103
2123.000000 0.8101 0.8100 0.8098 0.8097 0.8094
2128.000000 0.8092 0.8090 0.8088 0.8086 0.8084
2133.000000 0.8082 0.8080 0.8076 0.8075 0.8072
2138.000000 0.8071 0.8068 0.8067 0.8064 0.8061
2143.000000 0.8060 0.8058 0.8056 0.8054 0.8051
2148.000000 0.8051 0.8049 0.8048 0.8046 0.8045
2153.000000 0.8043 0.8042 0.8040 0.8039 0.8037
2158.000000 0.8036 0.8034 0.8033 0.8031 0.8030
2163.000000 0.8028 0.8028 0.8028 0.8028 0.8030
2168.000000 0.8031 0.8031 0.8032 0.8033 0.8034
2173.000000 0.8035 0.8036 0.8038 0.8041 0.8043
2178.000000 0.8043 0.8043 0.8042 0.8035 0.8028
2183.000000 0.8018 0.8008 0.7987 0.7965 0.7951
2188.000000 0.7939 0.7933 0.7928 0.7924 0.7921
2193.000000 0.7918 0.7915 0.7911 0.7908 0.7904
2198.000000 0.7901 0.7898 0.7895 0.7892 0.7890
2203.000000 0.7887 0.7884 0.7881 0.7878 0.7875
2208.000000 0.7872 0.7869 0.7867 0.7862 0.7860
2213.000000 0.7856 0.7853 0.7850 0.7847 0.7843
2218.000000 0.7839 0.7834 0.7828 0.7824 0.7818
2223.000000 0.7812 0.7808 0.7803 0.7798 0.7793
2228.000000 0.7788 0.7783 0.7778 0.7769 0.7762
2233.000000 0.7756 0.7749 0.7742 0.7735 0.7728
2238.000000 0.7721 0.7714 0.7707 0.7698 0.7690
2243.000000 0.7681 0.7671 0.7662 0.7654 0.7645
2248.000000 0.7636 0.7626 0.7618 0.7611 0.7606
2253.000000 0.7600 0.7594 0.7587 0.7581 0.7575
2258.000000 0.7568 0.7564 0.7560 0.7555 0.7550
2263.000000 0.7545 0.7541 0.7536 0.7532 0.7526
2268.000000 0.7522 0.7518 0.7512 0.7508 0.7506
2273.000000 0.7503 0.7500 0.7497 0.7495 0.7492
2278.000000 0.7490 0.7487 0.7485 0.7482 0.7478
2283.000000 0.7475 0.7474 0.7471 0.7471 0.7468
2288.000000 0.7468 0.7465 0.7464 0.7461 0.7461
2293.000000 0.7458 0.7458 0.7456 0.7455 0.7453
2298.000000 0.7451 0.7450 0.7450 0.7449 0.7448
2303.000000 0.7447 0.7446 0.7445 0.7444 0.7443
2308.000000 0.7442 0.7442 0.7441 0.7440 0.7440
2313.000000 0.7440 0.7442 0.7445 0.7449 0.7453
2318.000000 0.7457 0.7460 0.7464 0.7468 0.7471
2323.000000 0.7475 0.7480 0.7485 0.7490 0.7499
2328.000000 0.7508 0.7512 0.7517 0.7521 0.7525
2333.000000 0.7525 0.7525 0.7525 0.7526 0.7526
2338.000000 0.7528 0.7528 0.7528 0.7528 0.7530
2343.000000 0.7530 0.7531 0.7531 0.7532 0.7533
2348.000000 0.7534 0.7534 0.7535 0.7536 0.7537
2353.000000 0.7537 0.7538 0.7540 0.7542 0.7544
2358.000000 0.7547 0.7550 0.7553 0.7564 0.7575
2363.000000 0.7576 0.7578 0.7578 0.7578 0.7575
2368.000000 0.7571 0.7568 0.7565 0.7562 0.7561
2373.000000 0.7560 0.7558 0.7558 0.7557 0.7556
2378.000000 0.7555 0.7554 0.7553 0.7551 0.7551
2383.000000 0.7550 0.7549 0.7548 0.7547 0.7546
2388.000000 0.7546 0.7547 0.7549 0.7550 0.7551
2393.000000 0.7553 0.7555 0.7556 0.7557 0.7558
2398.000000 0.7560 0.7561 0.7562 0.7564 0.7565
2403.000000 0.7567 0.7568 0.7571 0.7572 0.7574
2408.000000 0.7575 0.7578 0.7580 0.7581 0.7583
2413.000000 0.7583 0.7583 0.7583 0.7584 0.7584
2418.000000 0.7584 0.7584 0.7584 0.7584 0.7584
2423.000000 0.7584 0.7584 0.7584 0.7585 0.7585
2428.000000 0.7585 0.7585 0.7585 0.7585 0.7585
2433.000000 0.7585 0.7586 0.7586 0.7586 0.7586
2438.000000 0.7586 0.7586 0.7586 0.7585 0.7585
2443.000000 0.7584 0.7584 0.7583 0.7583 0.7582
2448.000000 0.7582 0.7581 0.7581 0.7580 0.7580
2453.000000 0.7578 0.7578 0.7578 0.7578 0.7578
2458.000000 0.7578 0.7576 0.7576 0.7575 0.7575
2463.000000 0.7575 0.7575 0.7574 0.7574 0.7574
2468.000000 0.7574 0.7572 0.7572 0.7572 0.7572
2473.000000 0.7571 0.7571 0.7571 0.7571 0.7571
2478.000000 0.7571 0.7571 0.7571 0.7571 0.7571
2483.000000 0.7569 0.7569 0.7569 0.7569 0.7568
2488.000000 0.7568 0.7568 0.7568 0.7567 0.7567
2493.000000 0.7565 0.7565 0.7565 0.7565 0.7564
2498.000000 0.7564 0.7562 0.7562 0.7561 0.7561
2503.000000 0.7561 0.7561 0.7560 0.7560 0.7558
2508.000000 0.7558 0.7558 0.7558 0.7557 0.7557
2513.000000 0.7556 0.7556 0.7555 0.7555 0.7554
2518.000000 0.7554 0.7553 0.7553 0.7551 0.7551
2523.000000 0.7551 0.7551 0.7550 0.7550 0.7549
2528.000000 0.7549 0.7549 0.7549 0.7548 0.7548
2533.000000 0.7547 0.7547 0.7546 0.7546 0.7545
2538.000000 0.7545 0.7544 0.7544 0.7541 0.7539
2543.000000 0.7537 0.7535 0.7533 0.7531 0.7528
2548.000000 0.7526 0.7524 0.7521 0.7519 0.7518
2553.000000 0.7515 0.7514 0.7511 0.7508 0.7506
2558.000000 0.7504 0.7501 0.7499 0.7496 0.7493
2563.000000 0.7490 0.7488 0.7485 0.7482 0.7478
2568.000000 0.7476 0.7474 0.7471 0.7468 0.7465
2573.000000 0.7461 0.7483 0.7455 0.7451 0.7447
2578.000000 0.7444 0.7440 0.7436 0.7432 0.7428
2583.000000 0.7424 0.7419 0.7415 0.7411 0.7408
2588.000000 0.7404 0.7400 0.7396 0.7392 0.7388
2593.000000 0.7384 0.7380 0.7375 0.7371 0.7368
2598.000000 0.7364 0.7358 0.7355 0.7350 0.7346
2603.000000 0.7341 0.7337 0.7332 0.7328 0.7322
2608.000000 0.7318 0.7314 0.7310 0.7305 0.7301
2613.000000 0.7297 0.7293 0.7289 0.7286 0.7282
2618.000000 0.7278 0.7275 0.7271 0.7268 0.7265
2623.000000 0.7261 0.7258 0.7254 0.7251 0.7250
2628.000000 0.7249 0.7249 0.7249 0.7249 0.7249
2633.000000 0.7249 0.7249 0.7248 0.7248 0.7248
2638.000000 0.7248 0.7247 0.7247 0.7246 0.7246
2643.000000 0.7245 0.7245 0.7245 0.7245 0.7244
2648.000000 0.7244 0.7243 0.7242 0.7241 0.7240
2653.000000 0.7238 0.7237 0.7236 0.7235 0.7233
2658.000000 0.7231 0.7228 0.7225 0.7221 0.7218
2663.000000 0.7215 0.7212 0.7210 0.7207 0.7204
2668.000000 0.7201 0.7198 0.7195 0.7191 0.7188
2673.000000 0.7185 0.7182 0.7178 0.7175 0.7171
2678.000000 0.7168 0.7164 0.7161 0.7157 0.7154
2683.000000 0.7150 0.7147 0.7143 0.7139 0.7133
2688.000000 0.7128 0.7121 0.7117 0.7111 0.7105
2693.000000 0.7099 0.7094 0.7088 0.7083 0.7076
2698.000000 0.7071 0.7065 0.7060 0.7054 0.7049
2703.000000 0.7043 0.7038 0.7031 0.7025 0.7018
2708.000000 0.7011 0.7004 0.6998 0.6991 0.6985
2713.000000 0.6978 0.6971 0.6964 0.6958 0.6951
2718.000000 0.6944 0.6936 0.6928 0.6919 0.6911
2723.000000 0.6904 0.6896 0.6887 0.6878 0.6869
2728.000000 0.6861 0.6853 0.6845 0.6836 0.6828
2733.000000 0.6819 0.6811 0.6803 0.6795 0.6786
2738.000000 0.6778 0.6768 0.6758 0.6748 0.6738
2743.000000 0.6728 0.6718 0.6708 0.6698 0.6688
2748.000000 0.6678 0.6668 0.6658 0.6648 0.6638
2753.000000 0.6628 0.6618 0.6606 0.6594 0.6580
2758.000000 0.6567 0.6553 0.6540 0.6525 0.6512
2763.000000 0.6499 0.6485 0.6471 0.6458 0.6444
2768.000000 0.6431 0.6417 0.6404 0.6389 0.6374
2773.000000 0.6357 0.6341 0.6324 0.6307 0.6290
2778.000000 0.6273 0.6256 0.6239 0.6222 0.6206
2783.000000 0.6185 0.6165 0.6142 0.6120 0.6097
2788.000000 0.6075 0.6049 0.6023 0.5996 0.5969
2793.000000 0.5941 0.5914 0.5886 0.5859 0.5836
2798.000000 0.5812 0.5791 0.5769 0.5747 0.5726
2803.000000 0.5704 0.5682 0.5660 0.5638 0.5616
2808.000000 0.5595 0.5573 0.5551 0.5527 0.5503
2813.000000 0.5473 0.5444 0.5415 0.5386 0.5357
2818.000000 0.5328 0.5299 0.5270 0.5241 0.5212
2823.000000 0.5166 0.5121 0.5073 0.5026 0.4978
2828.000000 0.4931 0.4874 0.4817 0.4757 0.4697
2833.000000 0.4484 0.4271 0.4026 0.3782 0.3504
2838.000000 0.3226 0.2969 0.2713 0.2456 0.2200
2843.000000 0.1943 0.1685 0.1429 0.1173 0.0916
2848.000000 0.0660 0.0538 0.0417 0.0419 0.0421
2853.000000 0.0983 0.0446 0.2105 0.2666 0.3227
2858.000000 0.3788 0.3909 0.4032 0.4023 0.4012
2863.000000 0.3960 0.3909 0.3857 0.3806 0.3759
2868.000000 0.3714 0.3766 0.3818 0.3960 0.4103
2873.000000 0.4245 0.4365 0.4362 0.4340 0.4239
2878.000000 0.4138 0.4037 0.3937 0.3836 0.3734
2883.000000 0.3634 0.3534 0.3432 0.3332 0.3230
2888.000000 0.3131 0.3030 0.2929 0.2828 0.2728
2893.000000 0.2646 0.2565 0.2513 0.2462 0.2407
2898.000000 0.2352 0.2296 0.2241 0.2087 0.1933
2903.000000 0.1777 0.1622 0.1466 0.1311 0.1155
2908.000000 0.1000 0.0845 0.0690 0.0523 0.0356
2913.000000 0.0321 0.0287 0.0275 0.0263 0.0266
2918.000000 0.0287 0.0285 0.0301 0.0338 0.0376
2923.000000 0.0412 0.0448 0.0588 0.0728 0.1068
2928.000000 0.1409 0.1749 0.2090 0.2430 0.2770
2933.000000 0.3110 0.3450 0.3791 0.4132 0.4373
2938.000000 0.4615 0.4643 0.4671 0.4699 0.4727
2943.000000 0.4755 0.4783 0.4805 0.4814 0.4660
2948.000000 0.4495 0.4200 0.3906 0.3610 0.3316
2953.000000 0.3236 0.3157 0.3310 0.3189 0.3625
2958.000000 0.3784 0.3943 0.4103 0.4147 0.4191
2963.000000 0.4200 0.4210 0.4376 0.4542 0.4865
2968.000000 0.5188 0.5510 0.5834 0.6157 0.6480
2973.000000 0.6803 0.7125 0.7449 0.7771 0.7901
2978.000000 0.8031 0.8048 0.8065 0.8072 0.8081
2983.000000 0.8085 0.8089 0.8087 0.8085 0.8081
2988.000000 0.8076 0.8072 0.8068 0.8062 0.8057
2993.000000 0.8051 0.8046 0.8038 0.8031 0.8021
2998.000000 0.8014 0.8006 0.7998 0.7990 0.7983
3003.000000 0.7975 0.7968 0.7965 0.7965 0.7964
3008.000000 0.7964 0.7962 0.7961 0.7961 0.7961
3013.000000 0.7961 0.7961 0.7961 0.7962 0.7962
3018.000000 0.7964 0.7964 0.7964 0.7962 0.7962
3023.000000 0.7961 0.7961 0.7960 0.7960 0.7958
3028.000000 0.7957 0.7955 0.7953 0.7951 0.7949
3033.000000 0.7947 0.7945 0.7943 0.7941 0.7938
3038.000000 0.7936 0.7932 0.7928 0.7925 0.7921
3043.000000 0.7918 0.7915 0.7911 0.7908 0.7905
3048.000000 0.7901 0.7899 0.7896 0.7893 0.7891
3053.000000 0.7888 0.7886 0.7884 0.7882 0.7878
3058.000000 0.7876 0.7875 0.7872 0.7871 0.7868
3063.000000 0.7867 0.7865 0.7862 0.7861 0.7858
3068.000000 0.7857 0.7855 0.7853 0.7851 0.7849
3073.000000 0.7847 0.7845 0.7843 0.7841 0.7839
3078.000000 0.7838 0.7836 0.7834 0.7832 0.7830
3083.000000 0.7828 0.7826 0.7826 0.7828 0.7828
3088.000000 0.7828 0.7828 0.7830 0.7830 0.7831
3093.000000 0.7832 0.7833 0.7833 0.7834 0.7834
3098.000000 0.7835 0.7835 0.7836 0.7836 0.7837
3103.000000 0.7838 0.7839 0.7839 0.7839 0.7838
3108.000000 0.7837 0.7836 0.7835 0.7834 0.7833
3113.000000 0.7832 0.7831 0.7828 0.7828 0.7826
3118.000000 0.7825 0.7825 0.7824 0.7818 0.7812
3123.000000 0.7807 0.7801 0.7796 0.7790 0.7786
3128.000000 0.7782 0.7778 0.7776 0.7774 0.7771
3133.000000 0.7768 0.7765 0.7761 0.7758 0.7756
3138.000000 0.7754 0.7753 0.7753 0.7751 0.7751
3143.000000 0.7750 0.7750 0.7749 0.7749 0.7748
3148.000000 0.7747 0.7746 0.7746 0.7745 0.7744
3153.000000 0.7743 0.7743 0.7741 0.7740 0.7739
3158.000000 0.7738 0.7736 0.7735 0.7733 0.7732
3163.000000 0.7730 0.7728 0.7728 0.7726 0.7725
3168.000000 0.7724 0.7721 0.7721 0.7719 0.7718
3173.000000 0.7717 0.7715 0.7714 0.7712 0.7711
3178.000000 0.7711 0.7708 0.7708 0.7706 0.7705
3183.000000 0.7703 0.7701 0.7701 0.7700 0.7698
3188.000000 0.7697 0.7695 0.7694 0.7692 0.7691
3193.000000 0.7690 0.7689 0.7687 0.7686 0.7684
3198.000000 0.7683 0.7682 0.7681 0.7680 0.7678
3203.000000 0.7678 0.7676 0.7675 0.7675 0.7674
3208.000000 0.7672 0.7671 0.7671 0.7668 0.7668
3213.000000 0.7667 0.7665 0.7664 0.7661 0.7660
3218.000000 0.7658 0.7656 0.7654 0.7651 0.7650
3223.000000 0.7648 0.7646 0.7644 0.7642 0.7640
3228.000000 0.7639 0.7638 0.7637 0.7636 0.7635
3233.000000 0.7633 0.7632 0.7631 0.7630 0.7628
3238.000000 0.7628 0.7626 0.7626 0.7626 0.7628
3243.000000 0.7628 0.7628 0.7628 0.7630 0.7632
3248.000000 0.7634 0.7635 0.7637 0.7637 0.7637
3253.000000 0.7634 0.7631 0.7628 0.7625 0.7622
3258.000000 0.7621 0.7615 0.7611 0.7605 0.7600
3263.000000 0.7596 0.7593 0.7589 0.7586 0.7583
3268.000000 0.7580 0.7576 0.7574 0.7571 0.7568
3273.000000 0.7567 0.7565 0.7564 0.7562 0.7561
3278.000000 0.7558 0.7557 0.7556 0.7554 0.7553
3283.000000 0.7551 0.7550 0.7548 0.7546 0.7545
3288.000000 0.7544 0.7543 0.7542 0.7541 0.7540
3293.000000 0.7539 0.7539 0.7538 0.7537 0.7536
3298.000000 0.7536 0.7535 0.7534 0.7533 0.7533
3303.000000 0.7532 0.7531 0.7530 0.7528 0.7528
3308.000000 0.7526 0.7525 0.7524 0.7521 0.7519
3313.000000 0.7518 0.7517 0.7514 0.7511 0.7508
3318.000000 0.7507 0.7504 0.7501 0.7498 0.7496
3323.000000 0.7493 0.7490 0.7487 0.7485 0.7482
3328.000000 0.7480 0.7476 0.7475 0.7472 0.7471
3333.000000 0.7468 0.7467 0.7465 0.7462 0.7460
3338.000000 0.7458 0.7456 0.7454 0.7451 0.7451
3343.000000 0.7450 0.7449 0.7447 0.7446 0.7444
3348.000000 0.7443 0.7441 0.7440 0.7438 0.7437
3353.000000 0.7435 0.7434 0.7432 0.7431 0.7428
3358.000000 0.7428 0.7425 0.7425 0.7422 0.7421
3363.000000 0.7419 0.7418 0.7417 0.7415 0.7414
3368.000000 0.7411 0.7410 0.7408 0.7407 0.7406
3373.000000 0.7404 0.7403 0.7401 0.7399 0.7397
3378.000000 0.7395 0.7393 0.7392 0.7390 0.7388
3383.000000 0.7386 0.7384 0.7382 0.7381 0.7378
3388.000000 0.7376 0.7375 0.7372 0.7371 0.7369
3393.000000 0.7368 0.7365 0.7364 0.7361 0.7360
3398.000000 0.7358 0.7357 0.7355 0.7353 0.7351
3403.000000 0.7350 0.7348 0.7346 0.7344 0.7342
3408.000000 0.7341 0.7339 0.7337 0.7335 0.7334
3413.000000 0.7332 0.7330 0.7328 0.7325 0.7324
3418.000000 0.7321 0.7319 0.7318 0.7315 0.7314
3423.000000 0.7311 0.7310 0.7307 0.7305 0.7301
3428.000000 0.7297 0.7292 0.7288 0.7283 0.7278
3433.000000 0.7274 0.7269 0.7264 0.7258 0.7251
3438.000000 0.7246 0.7240 0.7235 0.7236 0.7237
3443.000000 0.7238 0.7239 0.7240 0.7242 0.7243
3448.000000 0.7245 0.7247 0.7249 0.7251 0.7254
3453.000000 0.7256 0.7258 0.7261 0.7264 0.7267
3458.000000 0.7269 0.7271 0.7275 0.7275 0.7278
3463.000000 0.7278 0.7280 0.7281 0.7282 0.7283
3468.000000 0.7284 0.7285 0.7286 0.7286 0.7286
3473.000000 0.7286 0.7286 0.7285 0.7284 0.7283
3478.000000 0.7283 0.7282 0.7281 0.7278 0.7278
3483.000000 0.7275 0.7275 0.7272 0.7271 0.7268
3488.000000 0.7268 0.7265 0.7264 0.7261 0.7261
3493.000000 0.7258 0.7257 0.7255 0.7254 0.7251
3498.000000 0.7250 0.7248 0.7246 0.7244 0.7242
3503.000000 0.7240 0.7238 0.7236 0.7234 0.7232
3508.000000 0.7230 0.7228 0.7225 0.7224 0.7221
3513.000000 0.7219 0.7218 0.7217 0.7215 0.7212
3518.000000 0.7211 0.7210 0.7208 0.7207 0.7206
3523.000000 0.7205 0.7204 0.7201 0.7201 0.7199
3528.000000 0.7198 0.7196 0.7195 0.7193 0.7192
3533.000000 0.7190 0.7189 0.7187 0.7186 0.7184
3538.000000 0.7183 0.7181 0.7178 0.7176 0.7175
3543.000000 0.7174 0.7171 0.7169 0.7168 0.7165
3548.000000 0.7165 0.7162 0.7161 0.7158 0.7157
3553.000000 0.7155 0.7154 0.7151 0.7150 0.7148
3558.000000 0.7146 0.7144 0.7142 0.7140 0.7139
3563.000000 0.7137 0.7136 0.7134 0.7133 0.7131
3568.000000 0.7130 0.7128 0.7126 0.7125 0.7124
3573.000000 0.7121 0.7121 0.7118 0.7118 0.7115
3578.000000 0.7115 0.7112 0.7111 0.7110 0.7108
3583.000000 0.7108 0.7107 0.7106 0.7106 0.7105
3588.000000 0.7104 0.7103 0.7103 0.7101 0.7101
3593.000000 0.7100 0.7100 0.7099 0.7099 0.7098
3598.000000 0.7097 0.7096 0.7096 0.7095 0.7095
3603.000000 0.7094 0.7093 0.7092 0.7092 0.7091
3608.000000 0.7091 0.7090 0.7090 0.7089 0.7089
3613.000000 0.7088 0.7087 0.7086 0.7086 0.7085
3618.000000 0.7085 0.7084 0.7084 0.7083 0.7082
3623.000000 0.7081 0.7080 0.7078 0.7078 0.7076
3628.000000 0.7075 0.7075 0.7075 0.7074 0.7072
3633.000000 0.7071 0.7071 0.7069 0.7068 0.7068
3638.000000 0.7068 0.7067 0.7065 0.7065 0.7064
3643.000000 0.7062 0.7061 0.7061 0.7061 0.7060
3648.000000 0.7058 0.7058 0.7057 0.7056 0.7055
3653.000000 0.7054 0.7053 0.7051 0.7051 0.7049
3658.000000 0.7048 0.7047 0.7046 0.7045 0.7044
3663.000000 0.7043 0.7042 0.7041 0.7040 0.7039
3668.000000 0.7038 0.7037 0.7036 0.7035 0.7034
3673.000000 0.7033 0.7032 0.7031 0.7030 0.7028
3678.000000 0.7028 0.7026 0.7025 0.7024 0.7022
3683.000000 0.7021 0.7021 0.7018 0.7018 0.7017
3688.000000 0.7015 0.7014 0.7012 0.7011 0.7011
3693.000000 0.7008 0.7008 0.7007 0.7006 0.7004
3698.000000 0.7003 0.7001 0.7001 0.6999 0.6998
3703.000000 0.6997 0.6996 0.6995 0.6994 0.6992
3708.000000 0.6991 0.6990 0.6989 0.6988 0.6987
3713.000000 0.6986 0.6985 0.6984 0.6983 0.6982
3718.000000 0.6981 0.6978 0.6978 0.6976 0.6975
3723.000000 0.6975 0.6974 0.6972 0.6985 0.6971
3728.000000 0.6969 0.6968 0.6967 0.6965 0.6965
3733.000000 0.6964 0.6962 0.6961 0.6960 0.6958
3738.000000 0.6958 0.6956 0.6955 0.6954 0.6953
3743.000000 0.6951 0.6951 0.6949 0.6948 0.6947
3748.000000 0.6946 0.6944 0.6942 0.6939 0.6937
3753.000000 0.6935 0.6933 0.6931 0.6928 0.6926
3758.000000 0.6925 0.6921 0.6919 0.6918 0.6915
3763.000000 0.6914 0.6911 0.6911 0.6911
##END=
