##TITLE=1,2-DIIODOETHANE
##JCAMP-DX=4.24
##DATA TYPE=INFRARED SPECTRUM
##CLASS=COBLENTZ
##ORIGIN=WYANDOTTE CHEMICALS CORP., WYANDOTTE, MICHIGAN, USA
##OWNER=COBLENTZ SOCIETY
Collection (C) 2018 copyright by the U.S. Secretary of Commerce
on behalf of the United States of America. All rights reserved.
##DATE=Not specified, most likely prior to 1970
##CAS REGISTRY NO=624-73-7
##MOLFORM=C2 H4 I2
##SOURCE REFERENCE=COBLENTZ NO. 1306
##$NIST SOURCE=COBLENTZ
##$NIST IMAGE=cob1306
##SPECTROMETER/DATA SYSTEM=Not specified, most likely a prism, grating, or hybrid spectrometer.
##STATE=SOLID (MINERAL OIL MULL)
##SAMPLING PROCEDURE=TRANSMISSION
##RESOLUTION=4
##DATA PROCESSING=DIGITIZED BY NIST FROM HARD COPY
##XUNITS=MICROMETERS
##YUNITS=TRANSMITTANCE
##XFACTOR=1.000000
##YFACTOR=1
##DELTAX=000.006796
##FIRSTX=2.027
##LASTX=16.0066
##FIRSTY=0.181
##MAXX=16.0066
##MINX=2.027
##MAXY=0.976
##MINY=0.023
##NPOINTS=2058
##XYDATA=(X++(Y..Y))
2.027000 0.1810 0.1810 0.1810 0.1810 0.1810
2.060997 0.1810 0.1800 0.1780 0.1750 0.1750
2.095000 0.1730 0.1730 0.1750 0.1750 0.1750
2.128997 0.1730 0.1730 0.1710 0.1710 0.1730
2.163000 0.1730 0.1730 0.1730 0.1730 0.1710
2.196997 0.1710 0.1710 0.1710 0.1700 0.1700
2.231000 0.1680 0.1640 0.1630 0.1610 0.1610
2.264997 0.1610 0.1610 0.1590 0.1590 0.1610
2.299000 0.1610 0.1610 0.1610 0.1610 0.1610
2.332997 0.1610 0.1610 0.1610 0.1590 0.1590
2.367000 0.1590 0.1590 0.1590 0.1610 0.1630
2.400997 0.1630 0.1640 0.1640 0.1640 0.1640
2.435000 0.1630 0.1630 0.1630 0.1630 0.1630
2.468997 0.1640 0.1630 0.1630 0.1630 0.1610
2.503000 0.1610 0.1610 0.1610 0.1610 0.1610
2.536997 0.1610 0.1580 0.1580 0.1590 0.1590
2.571000 0.1590 0.1590 0.1590 0.1590 0.1590
2.604997 0.1590 0.1590 0.1590 0.1590 0.1590
2.639000 0.1590 0.1610 0.1610 0.1610 0.1630
2.672997 0.1630 0.1630 0.1630 0.1610 0.1610
2.707000 0.1610 0.1610 0.1610 0.1610 0.1610
2.740997 0.1610 0.1590 0.1590 0.1580 0.1540
2.775000 0.1540 0.1540 0.1540 0.1540 0.1540
2.808997 0.1540 0.1540 0.1540 0.1540 0.1540
2.843000 0.1540 0.1540 0.1540 0.1540 0.1580
2.876997 0.1580 0.1580 0.1580 0.1580 0.1540
2.911000 0.1540 0.1540 0.1510 0.1490 0.1470
2.944997 0.1470 0.1460 0.1460 0.1460 0.1440
2.979000 0.1440 0.1440 0.1440 0.1440 0.1420
3.012997 0.1420 0.1420 0.1420 0.1420 0.1420
3.047000 0.1420 0.1420 0.1410 0.1410 0.1410
3.080997 0.1410 0.1410 0.1390 0.1390 0.1390
3.115000 0.1390 0.1370 0.1340 0.1340 0.1340
3.148997 0.1340 0.1340 0.1340 0.1360 0.1340
3.183000 0.1340 0.1340 0.1360 0.1340 0.1340
3.216997 0.1320 0.1320 0.1290 0.1270 0.1270
3.250000 0.1250 0.1240 0.1220 0.1200 0.1200
3.283997 0.1170 0.1130 0.1100 0.1070 0.1000
3.318000 0.0960 0.0880 0.0760 0.0620 0.0560
3.351997 0.0400 0.0390 0.0320 0.0280 0.0250
3.386000 0.0230 0.0230 0.0230 0.0230 0.0230
3.419997 0.0230 0.0230 0.0230 0.0250 0.0270
3.454000 0.0280 0.0300 0.0300 0.0320 0.0340
3.487997 0.0340 0.0340 0.0340 0.0350 0.0400
3.522000 0.0490 0.0590 0.0640 0.1000 0.1200
3.555997 0.1370 0.1420 0.1510 0.1530 0.1580
3.590000 0.1580 0.1590 0.1630 0.1630 0.1630
3.623997 0.1630 0.1630 0.1630 0.1630 0.1630
3.658000 0.1610 0.1610 0.1610 0.1610 0.1610
3.691997 0.1610 0.1630 0.1630 0.1630 0.1630
3.726000 0.1630 0.1630 0.1630 0.1610 0.1610
3.759997 0.1630 0.1640 0.1640 0.1640 0.1640
3.794000 0.1640 0.1640 0.1660 0.1660 0.1680
3.827997 0.1680 0.1680 0.1700 0.1700 0.1700
3.862000 0.1700 0.1710 0.1710 0.1730 0.1730
3.895997 0.1760 0.1760 0.1780 0.1800 0.1800
3.930000 0.1800 0.1800 0.1800 0.1800 0.1810
3.963997 0.1810 0.1810 0.1810 0.1810 0.1810
3.998000 0.1810 0.1810 0.1830 0.1830 0.1830
4.031997 0.1830 0.1830 0.1830 0.1870 0.1870
4.066000 0.1880 0.1900 0.1920 0.1920 0.1920
4.099997 0.1920 0.1930 0.1930 0.1930 0.1950
4.134000 0.1950 0.1950 0.1950 0.1950 0.1950
4.167997 0.1950 0.1970 0.1970 0.1980 0.1980
4.202000 0.2000 0.2000 0.1980 0.1980 0.1980
4.235997 0.1980 0.1980 0.1970 0.1970 0.1970
4.270000 0.1970 0.1970 0.1980 0.1980 0.1980
4.303997 0.2000 0.2020 0.2040 0.2040 0.2040
4.338000 0.2040 0.2020 0.2040 0.2050 0.2050
4.371997 0.2050 0.2070 0.2070 0.2070 0.2090
4.406000 0.2090 0.2100 0.2100 0.2100 0.2100
4.439997 0.2100 0.2100 0.2100 0.2100 0.2120
4.474000 0.2120 0.2120 0.2120 0.2120 0.2120
4.507997 0.2120 0.2140 0.2170 0.2170 0.2170
4.542000 0.2170 0.2170 0.2170 0.2170 0.2190
4.575997 0.2210 0.2220 0.2220 0.2220 0.2240
4.610000 0.2240 0.2240 0.2240 0.2260 0.2260
4.643997 0.2260 0.2260 0.2290 0.2290 0.2310
4.678000 0.2320 0.2320 0.2380 0.2390 0.2410
4.711997 0.2430 0.2430 0.2430 0.2440 0.2440
4.746000 0.2440 0.2440 0.2440 0.2440 0.2440
4.779997 0.2460 0.2460 0.2480 0.2500 0.2500
4.814000 0.2500 0.2510 0.2510 0.2530 0.2550
4.847997 0.2550 0.2550 0.2550 0.2560 0.2550
4.882000 0.2560 0.2560 0.2560 0.2560 0.2560
4.915997 0.2600 0.2610 0.2650 0.2670 0.2700
4.950000 0.2720 0.2730 0.2750 0.2770 0.2770
4.983997 0.2770 0.2770 0.2770 0.2770 0.2770
5.017000 0.2770 0.2770 0.2770 0.2770 0.2770
5.050997 0.2750 0.2750 0.2750 0.2750 0.2750
5.085000 0.2780 0.2780 0.2820 0.2840 0.2850
5.118997 0.2890 0.2900 0.2900 0.2900 0.2900
5.153000 0.2920 0.2920 0.2920 0.2940 0.2940
5.186997 0.2950 0.2940 0.2950 0.2950 0.2970
5.221000 0.3010 0.3020 0.3040 0.3060 0.3070
5.254997 0.3110 0.3110 0.3110 0.3110 0.3110
5.289000 0.3120 0.3120 0.3120 0.3110 0.3110
5.322997 0.3120 0.3120 0.3140 0.3140 0.3190
5.357000 0.3210 0.3210 0.3230 0.3230 0.3240
5.390997 0.3240 0.3240 0.3240 0.3260 0.3280
5.425000 0.3280 0.3290 0.3290 0.3290 0.3290
5.458997 0.3310 0.3350 0.3360 0.3360 0.3400
5.493000 0.3400 0.3410 0.3430 0.3430 0.3450
5.526997 0.3460 0.3460 0.3480 0.3480 0.3500
5.561000 0.3500 0.3500 0.3500 0.3500 0.3500
5.594997 0.3530 0.3530 0.3550 0.3570 0.3570
5.629000 0.3580 0.3580 0.3600 0.3600 0.3600
5.662997 0.3600 0.3600 0.3600 0.3600 0.3620
5.697000 0.3620 0.3630 0.3630 0.3650 0.3650
5.730997 0.3650 0.3670 0.3670 0.3700 0.3720
5.765000 0.3740 0.3740 0.3740 0.3740 0.3740
5.798997 0.3720 0.3700 0.3700 0.3720 0.3720
5.833000 0.3740 0.3750 0.3790 0.3800 0.3820
5.866997 0.3820 0.3840 0.3840 0.3860 0.3870
5.901000 0.3870 0.3870 0.3870 0.3890 0.3890
5.934997 0.3910 0.3920 0.3940 0.3940 0.3960
5.969000 0.3990 0.3990 0.3990 0.4030 0.4030
6.002997 0.4030 0.4040 0.4060 0.4080 0.4090
6.037000 0.4110 0.4130 0.4130 0.4140 0.4140
6.070997 0.4140 0.4160 0.4160 0.4140 0.4140
6.105000 0.4160 0.4180 0.4200 0.4210 0.4230
6.138997 0.4230 0.4230 0.4230 0.4210 0.4210
6.173000 0.4230 0.4250 0.4260 0.4260 0.4260
6.206997 0.4280 0.4260 0.4280 0.4280 0.4300
6.241000 0.4300 0.4310 0.4330 0.4350 0.4350
6.274997 0.4370 0.4370 0.4370 0.4350 0.4370
6.309000 0.4370 0.4380 0.4400 0.4400 0.4400
6.342997 0.4400 0.4400 0.4380 0.4400 0.4420
6.377000 0.4480 0.4520 0.4540 0.4520 0.4520
6.410997 0.4520 0.4500 0.4480 0.4420 0.4420
6.445000 0.4450 0.4480 0.4520 0.4540 0.4550
6.478997 0.4550 0.4540 0.4500 0.4480 0.4480
6.513000 0.4500 0.4520 0.4540 0.4540 0.4540
6.546997 0.4540 0.4520 0.4520 0.4500 0.4470
6.581000 0.4470 0.4450 0.4450 0.4430 0.4420
6.614997 0.4420 0.4400 0.4350 0.4350 0.4330
6.649000 0.4300 0.4230 0.4210 0.4110 0.4030
6.682997 0.3990 0.3990 0.3920 0.3890 0.3690
6.717000 0.3530 0.3380 0.3230 0.2870 0.2510
6.750997 0.2320 0.2140 0.1920 0.1730 0.1730
6.784000 0.1700 0.1680 0.1700 0.1710 0.1760
6.817997 0.1880 0.2000 0.2210 0.2390 0.2680
6.852000 0.2870 0.3020 0.3190 0.3380 0.3500
6.885997 0.3690 0.3870 0.4030 0.4200 0.4310
6.920000 0.4480 0.4640 0.4880 0.5100 0.5230
6.953997 0.5510 0.5570 0.5570 0.5570 0.5570
6.988000 0.5270 0.4940 0.4130 0.3740 0.3310
7.021997 0.3290 0.3310 0.3500 0.3990 0.4110
7.056000 0.4230 0.4380 0.4430 0.4520 0.4590
7.089997 0.4620 0.4690 0.4720 0.4720 0.4760
7.124000 0.4760 0.4760 0.4740 0.4720 0.4690
7.157997 0.4600 0.4570 0.4480 0.4300 0.4060
7.192000 0.3870 0.3690 0.3500 0.3430 0.3290
7.225997 0.3140 0.3120 0.3140 0.3190 0.3460
7.260000 0.3800 0.4130 0.4310 0.4400 0.4480
7.293997 0.4500 0.4590 0.4690 0.4810 0.5000
7.328000 0.5180 0.5220 0.5230 0.5230 0.5250
7.361997 0.5250 0.5280 0.5320 0.5350 0.5350
7.396000 0.5370 0.5370 0.5400 0.5400 0.5440
7.429997 0.5440 0.5470 0.5520 0.5540 0.5610
7.464000 0.5690 0.5730 0.5740 0.5760 0.5780
7.497997 0.5790 0.5790 0.5790 0.5790 0.5790
7.532000 0.5790 0.5790 0.5790 0.5790 0.5790
7.565997 0.5810 0.5810 0.5830 0.5830 0.5850
7.600000 0.5850 0.5860 0.5860 0.5900 0.5910
7.633997 0.5930 0.5930 0.5930 0.5930 0.5950
7.668000 0.5950 0.5960 0.6020 0.6020 0.6020
7.701997 0.6030 0.6050 0.6070 0.6050 0.6080
7.736000 0.6100 0.6120 0.6120 0.6130 0.6150
7.769997 0.6150 0.6170 0.6190 0.6190 0.6190
7.804000 0.6200 0.6200 0.6200 0.6220 0.6220
7.837997 0.6240 0.6240 0.6270 0.6300 0.6320
7.872000 0.6320 0.6320 0.6340 0.6340 0.6340
7.905997 0.6340 0.6360 0.6370 0.6420 0.6460
7.940000 0.6470 0.6490 0.6510 0.6510 0.6510
7.973997 0.6510 0.6510 0.6510 0.6510 0.6530
8.008000 0.6540 0.6560 0.6560 0.6590 0.6610
8.041997 0.6610 0.6630 0.6630 0.6640 0.6660
8.076000 0.6700 0.6710 0.6710 0.6730 0.6750
8.109997 0.6760 0.6810 0.6850 0.6870 0.6870
8.144000 0.6880 0.6880 0.6880 0.6880 0.6880
8.177997 0.6900 0.6920 0.6920 0.6950 0.6970
8.212000 0.6980 0.7000 0.7000 0.7040 0.7050
8.245997 0.7050 0.7070 0.7070 0.7070 0.7090
8.280000 0.7070 0.7120 0.7140 0.7150 0.7210
8.313997 0.7270 0.7340 0.7380 0.7410 0.7440
8.348000 0.7480 0.7530 0.7530 0.7550 0.7610
8.381997 0.7700 0.7750 0.7770 0.7800 0.7820
8.416000 0.7870 0.7920 0.7950 0.8010 0.8010
8.449997 0.8020 0.8040 0.8060 0.8110 0.8140
8.483000 0.8210 0.8260 0.8310 0.8330 0.8330
8.516997 0.8350 0.8360 0.8410 0.8520 0.8620
8.551000 0.8700 0.8770 0.8840 0.8870 0.8940
8.584997 0.9030 0.9110 0.9210 0.9310 0.9420
8.619000 0.9520 0.9600 0.9650 0.9710 0.9760
8.652997 0.9710 0.9600 0.9420 0.8860 0.8120
8.687000 0.7630 0.7120 0.6020 0.5050 0.4940
8.720997 0.4820 0.3010 0.2600 0.2170 0.1810
8.755000 0.1510 0.1250 0.1250 0.1290 0.1320
8.788997 0.1470 0.1490 0.1710 0.1920 0.2290
8.823000 0.2390 0.2500 0.2820 0.3010 0.3230
8.856997 0.3430 0.3630 0.3790 0.3840 0.4040
8.891000 0.4200 0.4300 0.4350 0.4500 0.4590
8.924997 0.4710 0.4790 0.4840 0.4930 0.5000
8.959000 0.5150 0.5200 0.5220 0.5300 0.5400
8.992997 0.5440 0.5470 0.5510 0.5520 0.5540
9.027000 0.5590 0.5620 0.5660 0.5660 0.5710
9.060997 0.5790 0.5810 0.5830 0.5830 0.5850
9.095000 0.5850 0.5860 0.5880 0.5900 0.5900
9.128997 0.5910 0.5950 0.5950 0.5950 0.6000
9.163000 0.6000 0.6020 0.6020 0.6030 0.6030
9.196997 0.6050 0.6050 0.6050 0.6050 0.6050
9.231000 0.6050 0.6050 0.6050 0.6050 0.6050
9.264997 0.6050 0.6050 0.6050 0.6050 0.6050
9.299000 0.6050 0.6050 0.6070 0.6050 0.6050
9.332997 0.6030 0.6030 0.6030 0.6000 0.5930
9.367000 0.5880 0.5860 0.5830 0.5790 0.5740
9.400997 0.5740 0.5740 0.5740 0.5780 0.5810
9.435000 0.5880 0.5930 0.6020 0.6050 0.6100
9.468997 0.6130 0.6150 0.6190 0.6200 0.6240
9.503000 0.6290 0.6340 0.6360 0.6390 0.6410
9.536997 0.6490 0.6510 0.6530 0.6530 0.6540
9.571000 0.6560 0.6580 0.6580 0.6590 0.6610
9.604997 0.6640 0.6700 0.6710 0.6710 0.6710
9.639000 0.6710 0.6710 0.6710 0.6710 0.6710
9.672997 0.6710 0.6730 0.6750 0.6750 0.6800
9.707000 0.6810 0.6850 0.6850 0.6900 0.6900
9.740997 0.6920 0.6920 0.6930 0.6950 0.6980
9.775000 0.7000 0.7020 0.7040 0.7040 0.7090
9.808997 0.7090 0.7090 0.7100 0.7120 0.7120
9.843000 0.7100 0.7100 0.7120 0.7140 0.7170
9.876997 0.7190 0.7210 0.7220 0.7220 0.7220
9.911000 0.7240 0.7270 0.7310 0.7310 0.7320
9.944997 0.7340 0.7340 0.7340 0.7360 0.7380
9.979000 0.7380 0.7390 0.7430 0.7440 0.7440
10.012997 0.7480 0.7500 0.7500 0.7510 0.7530
10.047000 0.7530 0.7550 0.7550 0.7600 0.7600
10.080997 0.7630 0.7630 0.7630 0.7630 0.7650
10.115000 0.7650 0.7650 0.7650 0.7650 0.7650
10.148997 0.7650 0.7680 0.7680 0.7680 0.7680
10.183000 0.7680 0.7670 0.7650 0.7650 0.7650
10.216997 0.7650 0.7650 0.7650 0.7650 0.7650
10.250000 0.7680 0.7680 0.7700 0.7700 0.7720
10.283997 0.7730 0.7730 0.7730 0.7730 0.7730
10.318000 0.7730 0.7750 0.7750 0.7750 0.7770
10.351997 0.7780 0.7780 0.7820 0.7850 0.7850
10.386000 0.7870 0.7870 0.7890 0.7890 0.7900
10.419997 0.7900 0.7900 0.7920 0.7920 0.7920
10.454000 0.7920 0.7940 0.7940 0.7950 0.7970
10.487997 0.7970 0.7970 0.7990 0.7990 0.7990
10.522000 0.7990 0.8010 0.8010 0.8010 0.8010
10.555997 0.8020 0.8020 0.8020 0.8020 0.8020
10.590000 0.8020 0.8040 0.8040 0.8040 0.8040
10.623997 0.8060 0.8040 0.8070 0.8090 0.8110
10.658000 0.8120 0.8120 0.8120 0.8120 0.8120
10.691997 0.8120 0.8120 0.8120 0.8120 0.8120
10.726000 0.8140 0.8140 0.8140 0.8140 0.8160
10.759997 0.8160 0.8140 0.8140 0.8160 0.8160
10.794000 0.8160 0.8160 0.8160 0.8180 0.8190
10.827997 0.8210 0.8210 0.8230 0.8240 0.8260
10.862000 0.8260 0.8260 0.8260 0.8260 0.8280
10.895997 0.8280 0.8280 0.8290 0.8280 0.8280
10.930000 0.8280 0.8290 0.8310 0.8350 0.8360
10.963997 0.8400 0.8410 0.8410 0.8430 0.8430
10.998000 0.8430 0.8410 0.8410 0.8410 0.8410
11.031997 0.8410 0.8410 0.8410 0.8410 0.8410
11.066000 0.8410 0.8430 0.8430 0.8450 0.8450
11.099997 0.8450 0.8450 0.8460 0.8460 0.8460
11.134000 0.8480 0.8480 0.8500 0.8520 0.8520
11.167997 0.8520 0.8530 0.8530 0.8550 0.8550
11.202000 0.8550 0.8550 0.8550 0.8550 0.8550
11.235997 0.8550 0.8550 0.8580 0.8620 0.8620
11.270000 0.8650 0.8650 0.8690 0.8690 0.8700
11.303997 0.8700 0.8700 0.8700 0.8700 0.8700
11.338000 0.8700 0.8720 0.8720 0.8740 0.8740
11.371997 0.8740 0.8740 0.8740 0.8740 0.8750
11.406000 0.8750 0.8740 0.8740 0.8740 0.8750
11.439997 0.8750 0.8750 0.8750 0.8750 0.8750
11.474000 0.8750 0.8750 0.8750 0.8750 0.8750
11.507997 0.8790 0.8800 0.8800 0.8800 0.8820
11.542000 0.8820 0.8800 0.8800 0.8820 0.8820
11.575997 0.8820 0.8840 0.8860 0.8860 0.8840
11.610000 0.8840 0.8840 0.8840 0.8840 0.8820
11.643997 0.8820 0.8820 0.8820 0.8840 0.8840
11.678000 0.8860 0.8860 0.8860 0.8860 0.8890
11.711997 0.8890 0.8910 0.8910 0.8910 0.8910
11.746000 0.8910 0.8920 0.8910 0.8910 0.8890
11.779997 0.8870 0.8870 0.8890 0.8890 0.8890
11.814000 0.8910 0.8910 0.8910 0.8910 0.8910
11.847997 0.8910 0.8920 0.8940 0.8940 0.8960
11.882000 0.8960 0.8960 0.8960 0.8970 0.8970
11.915997 0.8970 0.8990 0.8990 0.8990 0.9010
11.950000 0.9030 0.9040 0.9060 0.9080 0.9090
11.983997 0.9110 0.9110 0.9110 0.9110 0.9110
12.017000 0.9110 0.9110 0.9090 0.9090 0.9090
12.050997 0.9110 0.9110 0.9130 0.9130 0.9130
12.085000 0.9130 0.9140 0.9140 0.9130 0.9130
12.118997 0.9140 0.9140 0.9140 0.9140 0.9180
12.153000 0.9180 0.9180 0.9180 0.9180 0.9160
12.186997 0.9140 0.9140 0.9130 0.9140 0.9140
12.221000 0.9140 0.9160 0.9200 0.9230 0.9230
12.254997 0.9230 0.9250 0.9250 0.9250 0.9250
12.289000 0.9250 0.9250 0.9250 0.9250 0.9250
12.322997 0.9250 0.9250 0.9250 0.9230 0.9230
12.357000 0.9230 0.9230 0.9230 0.9230 0.9250
12.390997 0.9250 0.9250 0.9250 0.9250 0.9260
12.425000 0.9260 0.9300 0.9300 0.9300 0.9300
12.458997 0.9300 0.9300 0.9300 0.9300 0.9280
12.493000 0.9280 0.9280 0.9280 0.9280 0.9280
12.526997 0.9280 0.9280 0.9280 0.9280 0.9280
12.561000 0.9260 0.9260 0.9260 0.9280 0.9280
12.594997 0.9260 0.9260 0.9260 0.9260 0.9260
12.629000 0.9260 0.9250 0.9260 0.9260 0.9250
12.662997 0.9250 0.9230 0.9230 0.9230 0.9230
12.697000 0.9230 0.9230 0.9230 0.9210 0.9210
12.730997 0.9210 0.9210 0.9210 0.9210 0.9210
12.765000 0.9230 0.9230 0.9230 0.9230 0.9230
12.798997 0.9230 0.9230 0.9230 0.9230 0.9230
12.833000 0.9230 0.9230 0.9230 0.9230 0.9230
12.866997 0.9230 0.9230 0.9230 0.9230 0.9230
12.901000 0.9230 0.9230 0.9230 0.9230 0.9230
12.934997 0.9250 0.9250 0.9250 0.9250 0.9260
12.969000 0.9250 0.9260 0.9280 0.9280 0.9280
13.002997 0.9280 0.9280 0.9280 0.9300 0.9300
13.037000 0.9300 0.9300 0.9300 0.9300 0.9300
13.070997 0.9300 0.9310 0.9330 0.9330 0.9350
13.105000 0.9350 0.9350 0.9350 0.9330 0.9330
13.138997 0.9330 0.9350 0.9350 0.9350 0.9350
13.173000 0.9370 0.9380 0.9380 0.9370 0.9380
13.206997 0.9370 0.9370 0.9370 0.9370 0.9370
13.241000 0.9370 0.9370 0.9370 0.9370 0.9350
13.274997 0.9350 0.9350 0.9350 0.9350 0.9350
13.309000 0.9350 0.9350 0.9350 0.9350 0.9350
13.342997 0.9350 0.9330 0.9330 0.9330 0.9310
13.377000 0.9280 0.9260 0.9260 0.9230 0.9230
13.410997 0.9210 0.9210 0.9210 0.9200 0.9200
13.445000 0.9180 0.9160 0.9140 0.9090 0.9040
13.478997 0.9040 0.9030 0.9010 0.8960 0.8920
13.513000 0.8910 0.8860 0.8860 0.8840 0.8800
13.546997 0.8750 0.8750 0.8740 0.8700 0.8650
13.581000 0.8620 0.8550 0.8520 0.8500 0.8430
13.614997 0.8400 0.8360 0.8350 0.8290 0.8240
13.649000 0.8230 0.8210 0.8120 0.8090 0.8020
13.682997 0.8010 0.7890 0.7800 0.7750 0.7700
13.717000 0.7650 0.7550 0.7530 0.7500 0.7440
13.750997 0.7430 0.7410 0.7410 0.7390 0.7340
13.784000 0.7310 0.7290 0.7270 0.7270 0.7290
13.817997 0.7310 0.7340 0.7360 0.7380 0.7390
13.852000 0.7410 0.7430 0.7500 0.7550 0.7600
13.885997 0.7630 0.7700 0.7840 0.7900 0.7950
13.920000 0.8020 0.8040 0.8140 0.8160 0.8240
13.953997 0.8280 0.8330 0.8330 0.8360 0.8410
13.988000 0.8460 0.8500 0.8550 0.8570 0.8580
14.021997 0.8620 0.8630 0.8630 0.8650 0.8650
14.056000 0.8700 0.8700 0.8740 0.8750 0.8800
14.089997 0.8860 0.8860 0.8860 0.8870 0.8890
14.124000 0.8910 0.8940 0.8960 0.8960 0.8970
14.157997 0.8990 0.8990 0.8990 0.8990 0.9010
14.192000 0.9010 0.9010 0.9010 0.9010 0.9010
14.225997 0.9010 0.9030 0.9030 0.9030 0.9030
14.260000 0.9030 0.9030 0.9030 0.9010 0.9010
14.293997 0.9010 0.9010 0.9010 0.9010 0.9030
14.328000 0.9040 0.9040 0.9040 0.9030 0.9030
14.361997 0.9030 0.9030 0.9030 0.9030 0.9030
14.396000 0.9030 0.9030 0.9030 0.9010 0.8990
14.429997 0.8960 0.8920 0.8910 0.8910 0.8910
14.464000 0.8940 0.8940 0.8920 0.8920 0.8910
14.497997 0.8910 0.8860 0.8860 0.8860 0.8860
14.532000 0.8840 0.8820 0.8800 0.8790 0.8770
14.565997 0.8770 0.8750 0.8750 0.8750 0.8750
14.600000 0.8750 0.8750 0.8750 0.8740 0.8720
14.633997 0.8700 0.8670 0.8650 0.8650 0.8630
14.668000 0.8620 0.8550 0.8550 0.8520 0.8500
14.701997 0.8480 0.8460 0.8460 0.8450 0.8410
14.736000 0.8400 0.8380 0.8360 0.8350 0.8350
14.769997 0.8330 0.8330 0.8310 0.8290 0.8280
14.804000 0.8280 0.8260 0.8260 0.8260 0.8260
14.837997 0.8240 0.8230 0.8230 0.8230 0.8210
14.872000 0.8160 0.8160 0.8120 0.8110 0.8110
14.905997 0.8040 0.8040 0.7950 0.7900 0.7780
14.940000 0.7730 0.7650 0.7530 0.7510 0.7500
14.973997 0.7310 0.7140 0.7000 0.6980 0.6900
15.008000 0.6730 0.6660 0.6640 0.6640 0.6680
15.041997 0.6730 0.6750 0.6850 0.6970 0.7090
15.076000 0.7220 0.7290 0.7340 0.7410 0.7440
15.109997 0.7500 0.7550 0.7550 0.7550 0.7550
15.144000 0.7550 0.7550 0.7530 0.7510 0.7500
15.177997 0.7430 0.7360 0.7310 0.7260 0.7210
15.212000 0.7140 0.7140 0.7100 0.7040 0.7020
15.245997 0.6930 0.6920 0.6900 0.6880 0.6850
15.280000 0.6830 0.6810 0.6750 0.6710 0.6640
15.313997 0.6630 0.6590 0.6540 0.6540 0.6530
15.348000 0.6490 0.6440 0.6420 0.6390 0.6370
15.381997 0.6300 0.6240 0.6190 0.6190 0.6190
15.416000 0.6150 0.6130 0.6100 0.6080 0.6030
15.449997 0.6020 0.5980 0.5910 0.5900 0.5880
15.483000 0.5880 0.5830 0.5830 0.5810 0.5790
15.516997 0.5780 0.5740 0.5740 0.5730 0.5730
15.551000 0.5690 0.5690 0.5680 0.5680 0.5620
15.584997 0.5570 0.5520 0.5510 0.5470 0.5420
15.619000 0.5390 0.5340 0.5300 0.5230 0.5220
15.652997 0.5220 0.5200 0.5180 0.5150 0.5130
15.687000 0.5030 0.5030 0.5010 0.5010 0.5000
15.720997 0.4980 0.4930 0.4890 0.4820 0.4810
15.755000 0.4770 0.4720 0.4710 0.4690 0.4620
15.788997 0.4590 0.4540 0.4480 0.4400 0.4370
15.823000 0.4330 0.4310 0.4300 0.4280 0.4280
15.856997 0.4250 0.4230 0.4200 0.4180 0.4160
15.891000 0.4130 0.4110 0.4030 0.4010 0.4010
15.924997 0.3970 0.3920 0.3890 0.3890 0.3890
15.959000 0.3870 0.3860 0.3800 0.3800 0.3800
15.992997 0.3720 0.3650 0.3720
##END=
