##TITLE=METHYL ISOCYANATE
##JCAMP-DX=4.24
##DATA TYPE=INFRARED SPECTRUM
##CLASS=COBLENTZ
##ORIGIN=DOW CHEMICAL COMPANY
##OWNER=COBLENTZ SOCIETY
Collection (C) 2018 copyright by the U.S. Secretary of Commerce
on behalf of the United States of America. All rights reserved.
##DATE=1971/04/13
##NAMES=(methylimino)(oxo)methane
##CAS REGISTRY NO=624-83-9
##MOLFORM=C2 H3 N O
##SOURCE REFERENCE=COBLENTZ NO. 10485
##$NIST SOURCE=COBLENTZ
##$NIST IMAGE=cob-r10485
##SPECTROMETER/DATA SYSTEM=BECKMAN IR-9 (GRATING)
##INSTRUMENT PARAMETERS=ORDER CHANGES: 670, 1200, 2000 CM^-^1
##STATE=GAS (6 mmHg, N2 ADDED, TOTAL PRESSURE 600 mmHg)
##PATH LENGTH=5 CM CELL
##SAMPLING PROCEDURE=TRANSMISSION
##RESOLUTION=2
##DATA PROCESSING=DIGITIZED BY NIST FROM HARD COPY (FROM TWO SEGMENTS)
##XUNITS=1/CM
##YUNITS=TRANSMITTANCE
##XFACTOR=1.000000
##YFACTOR=1
##DELTAX=1.263690
##FIRSTX=395.114
##LASTX=3794.44
##FIRSTY=0.798
##MAXX=3794.44
##MINX=395.114
##MAXY=1.055
##MINY=0.102
##NPOINTS=2691
##XYDATA=(X++(Y..Y))
395.114000 0.7980 0.7980 0.7960 0.7860 0.7720
401.432449 0.7680 0.7660 0.7620 0.7580 0.7540
407.750898 0.7520 0.7470 0.7310 0.7290 0.7270
414.069346 0.7270 0.7250 0.7250 0.7250 0.7270
420.387795 0.7290 0.7310 0.7310 0.7330 0.7370
426.706244 0.7470 0.7500 0.7599 0.7739 0.7780
433.024693 0.7840 0.7940 0.8000 0.8100 0.8140
439.343142 0.8280 0.8330 0.8410 0.8450 0.8510
445.661591 0.8550 0.8610 0.8670 0.8770 0.8870
451.980039 0.8890 0.8950 0.8990 0.9030 0.9050
458.298488 0.9110 0.9180 0.9200 0.9220 0.9240
464.616937 0.9280 0.9320 0.9380 0.9400 0.9420
470.935386 0.9440 0.9460 0.9480 0.9520 0.9560
477.253835 0.9580 0.9580 0.9600 0.9660 0.9700
483.572283 0.9720 0.9740 0.9760 0.9760 0.9800
489.890732 0.9820 0.9840 0.9860 0.9860 0.9880
496.209181 0.9900 0.9940 0.9940 0.9960 0.9980
502.527630 0.9960 0.9980 1.0000 1.0000 1.0010
508.846079 1.0010 1.0010 1.0030 1.0050 1.0050
515.164528 1.0050 1.0070 1.0090 1.0090 1.0090
521.482976 1.0090 1.0110 1.0110 1.0110 1.0130
527.801425 1.0130 1.0150 1.0150 1.0190 1.0190
534.119874 1.0190 1.0210 1.0210 1.0210 1.0210
540.438323 1.0210 1.0210 1.0210 1.0210 1.0210
546.756772 1.0210 1.0210 1.0210 1.0210 1.0210
553.075220 1.0210 1.0230 1.0230 1.0230 1.0210
559.393669 1.0210 1.0210 1.0210 1.0190 1.0190
565.712118 1.0190 1.0190 1.0170 1.0170 1.0150
572.030567 1.0150 1.0110 1.0070 1.0070 1.0070
578.349016 1.0070 1.0070 1.0050 1.0050 1.0030
584.667465 1.0030 1.0030 1.0010 0.9980 0.9980
590.985913 0.9940 0.9781 0.9740 0.9680 0.9680
597.304362 0.9680 0.9680 0.9660 0.9660 0.9620
603.622811 0.9560 0.9560 0.9520 0.9500 0.9480
609.941260 0.9460 0.9440 0.9420 0.9380 0.9380
616.259709 0.9380 0.9380 0.9380 0.9380 0.9380
622.578157 0.9360 0.9340 0.9340 0.9300 0.9280
628.896606 0.9200 0.9200 0.9280 0.9379 0.9479
635.215055 0.9600 0.9740 0.9760 0.9760 0.9760
641.533504 0.9780 0.9760 0.9800 0.9800 0.9840
647.851953 0.9860 0.9880 0.9900 0.9900 0.9940
654.170402 0.9960 0.9960 0.9960 0.9960 0.9960
660.488850 0.9960 0.9940 0.9940 0.9960 0.9960
666.807299 0.9960 0.9980 1.0000 1.0000 1.0030
673.125748 1.0070 1.0090 1.0110 1.0110 1.0130
679.444197 1.0130 1.0070 1.0050 1.0030 0.9980
685.762646 0.9940 0.9940 0.9960 0.9960 0.9960
692.081094 0.9960 0.9960 0.9960 0.9960 0.9960
698.399543 0.9960 0.9980 0.9980 1.0000 1.0000
704.717992 1.0000 1.0000 1.0000 1.0000 1.0000
711.036441 1.0000 0.9980 0.9960 0.9960 0.9960
717.354890 0.9960 0.9960 0.9960 0.9960 0.9940
723.673339 0.9940 0.9960 0.9960 0.9960 0.9960
729.991787 0.9960 0.9960 0.9940 0.9940 0.9940
736.310236 0.9940 0.9940 0.9940 0.9940 0.9940
742.628685 0.9940 0.9940 0.9940 0.9940 0.9940
748.947134 0.9960 0.9940 0.9940 0.9940 0.9960
755.265583 0.9960 0.9960 0.9960 0.9960 0.9960
761.584031 0.9960 0.9960 0.9960 0.9960 0.9960
767.902480 0.9960 0.9960 0.9960 0.9960 0.9960
774.220929 0.9940 0.9940 0.9940 0.9920 0.9920
780.539378 0.9940 0.9940 0.9960 0.9940 0.9940
786.857827 0.9940 0.9960 0.9960 0.9960 0.9940
793.176276 0.9940 0.9980 0.9980 0.9980 0.9980
799.494724 0.9980 0.9960 0.9960 0.9940 0.9940
805.813173 0.9960 0.9980 0.9980 0.9960 0.9960
812.131622 0.9960 0.9960 0.9960 0.9960 0.9960
818.450071 0.9960 0.9960 0.9940 0.9940 0.9940
824.768520 0.9960 0.9960 0.9960 0.9960 0.9960
831.086969 0.9960 0.9960 0.9980 0.9980 0.9980
837.405417 1.0000 1.0000 1.0000 0.9980 0.9980
843.723866 0.9960 0.9960 0.9960 0.9960 0.9960
850.042315 0.9960 0.9940 0.9940 0.9900 0.9840
856.360764 0.9800 0.9780 0.9720 0.9700 0.9680
862.679213 0.9640 0.9620 0.9600 0.9600 0.9600
868.997661 0.9580 0.9580 0.9600 0.9620 0.9620
875.316110 0.9640 0.9680 0.9680 0.9660 0.9620
881.634559 0.9620 0.9600 0.9600 0.9620 0.9699
887.953008 0.9740 0.9820 0.9900 0.9900 0.9940
894.271457 1.0010 1.0090 1.0130 1.0150 1.0190
900.589906 1.0210 1.0230 1.0230 1.0230 1.0250
906.908354 1.0270 1.0270 1.0270 1.0310 1.0330
913.226803 1.0330 1.0350 1.0350 1.0330 1.0330
919.545252 1.0330 1.0330 1.0350 1.0350 1.0350
925.863701 1.0350 1.0330 1.0350 1.0350 1.0350
932.182150 1.0350 1.0350 1.0370 1.0370 1.0390
938.500598 1.0390 1.0410 1.0410 1.0410 1.0410
944.819047 1.0430 1.0430 1.0430 1.0430 1.0430
951.137496 1.0450 1.0450 1.0450 1.0450 1.0450
957.455945 1.0450 1.0450 1.0450 1.0470 1.0490
963.774394 1.0490 1.0490 1.0490 1.0510 1.0510
970.092843 1.0510 1.0510 1.0530 1.0530 1.0530
976.411291 1.0530 1.0530 1.0530 1.0530 1.0530
982.729740 1.0530 1.0530 1.0530 1.0550 1.0550
989.048189 1.0550 1.0550 1.0550 1.0550 1.0550
995.366638 1.0550 1.0530 1.0530 1.0530 1.0530
1001.685087 1.0530 1.0510 1.0510 1.0510 1.0510
1008.003535 1.0510 1.0490 1.0490 1.0490 1.0490
1014.321984 1.0490 1.0490 1.0470 1.0470 1.0450
1020.640433 1.0450 1.0450 1.0450 1.0450 1.0450
1026.958882 1.0450 1.0450 1.0450 1.0450 1.0450
1033.277331 1.0450 1.0430 1.0430 1.0430 1.0450
1039.595780 1.0450 1.0450 1.0450 1.0450 1.0430
1045.914228 1.0430 1.0430 1.0430 1.0430 1.0430
1052.232677 1.0430 1.0430 1.0430 1.0430 1.0430
1058.551126 1.0430 1.0410 1.0410 1.0410 1.0410
1064.869575 1.0410 1.0410 1.0370 1.0370 1.0370
1071.188024 1.0370 1.0370 1.0370 1.0370 1.0350
1077.506472 1.0350 1.0330 1.0290 1.0290 1.0270
1083.824921 1.0270 1.0270 1.0290 1.0290 1.0310
1090.143370 1.0310 1.0310 1.0330 1.0350 1.0350
1096.461819 1.0330 1.0330 1.0330 1.0350 1.0350
1102.780268 1.0350 1.0330 1.0330 1.0330 1.0330
1109.098717 1.0330 1.0330 1.0330 1.0330 1.0330
1115.417165 1.0330 1.0330 1.0330 1.0330 1.0330
1121.735614 1.0330 1.0330 1.0330 1.0330 1.0330
1128.054063 1.0330 1.0330 1.0330 1.0330 1.0330
1134.372512 1.0310 1.0290 1.0290 1.0270 1.0270
1140.690961 1.0250 1.0250 1.0250 1.0250 1.0210
1147.009409 1.0170 1.0150 1.0150 1.0150 1.0150
1153.327858 1.0150 1.0170 1.0190 1.0190 1.0190
1159.646307 1.0190 1.0190 1.0190 1.0210 1.0250
1165.964756 1.0270 1.0270 1.0270 1.0270 1.0270
1172.283205 1.0270 1.0270 1.0290 1.0290 1.0290
1178.601654 1.0290 1.0310 1.0310 1.0310 1.0310
1184.920102 1.0270 1.0190 1.0190 1.0230 1.0290
1191.238551 1.0290 1.0310 1.0310 1.0350 1.0370
1197.557000 1.0390 1.0390 1.0410 1.0410 1.0410
1203.875449 1.0450 1.0450 1.0450 1.0450 1.0410
1210.193898 1.0390 1.0390 1.0410 1.0410 1.0390
1216.512346 1.0390 1.0390 1.0390 1.0390 1.0410
1222.830795 1.0410 1.0410 1.0370 1.0370 1.0370
1229.149244 1.0390 1.0410 1.0430 1.0430 1.0430
1235.467693 1.0430 1.0450 1.0450 1.0470 1.0470
1241.786142 1.0470 1.0470 1.0450 1.0450 1.0450
1248.104591 1.0450 1.0450 1.0450 1.0450 1.0450
1254.423039 1.0450 1.0450 1.0450 1.0470 1.0470
1260.741488 1.0470 1.0470 1.0470 1.0470 1.0470
1267.059937 1.0470 1.0470 1.0490 1.0490 1.0490
1273.378386 1.0470 1.0470 1.0470 1.0470 1.0470
1279.696835 1.0470 1.0470 1.0470 1.0470 1.0470
1286.015283 1.0470 1.0470 1.0470 1.0470 1.0470
1292.333732 1.0470 1.0470 1.0470 1.0470 1.0470
1298.652181 1.0470 1.0470 1.0470 1.0450 1.0450
1304.970630 1.0490 1.0490 1.0470 1.0470 1.0470
1311.289079 1.0470 1.0470 1.0470 1.0490 1.0490
1317.607528 1.0490 1.0490 1.0490 1.0490 1.0490
1323.925976 1.0470 1.0470 1.0470 1.0490 1.0490
1330.244425 1.0490 1.0490 1.0490 1.0490 1.0490
1336.562874 1.0490 1.0490 1.0490 1.0490 1.0490
1342.881323 1.0490 1.0490 1.0490 1.0490 1.0470
1349.199772 1.0470 1.0450 1.0430 1.0430 1.0430
1355.518220 1.0430 1.0450 1.0450 1.0450 1.0450
1361.836669 1.0450 1.0450 1.0450 1.0450 1.0430
1368.155118 1.0430 1.0430 1.0430 1.0430 1.0430
1374.473567 1.0410 1.0410 1.0390 1.0390 1.0370
1380.792016 1.0370 1.0330 1.0310 1.0310 1.0270
1387.110465 1.0250 1.0210 1.0210 1.0131 1.0090
1393.428913 1.0070 1.0070 1.0090 1.0090 1.0110
1399.747362 1.0110 1.0110 1.0090 1.0070 1.0050
1406.065811 1.0030 1.0010 0.9980 0.9880 0.9820
1412.384260 0.9760 0.9641 0.9560 0.9461 0.9400
1418.702709 0.9340 0.9220 0.9160 0.9150 0.9110
1425.021157 0.9110 0.9150 0.9160 0.9200 0.9240
1431.339606 0.9400 0.9400 0.9340 0.9300 0.9200
1437.658055 0.9150 0.9130 0.9110 0.9110 0.9130
1443.976504 0.9160 0.9320 0.9340 0.9540 0.9600
1450.294953 0.9660 0.9760 0.9820 0.9939 0.9960
1456.613402 0.9980 1.0000 1.0000 1.0000 1.0010
1462.931850 1.0050 1.0050 1.0070 1.0090 1.0090
1469.250299 1.0090 1.0090 1.0090 1.0090 1.0090
1475.568748 1.0110 1.0130 1.0150 1.0170 1.0170
1481.887197 1.0150 1.0150 1.0150 1.0150 1.0170
1488.205646 1.0190 1.0210 1.0210 1.0210 1.0210
1494.524094 1.0210 1.0210 1.0210 1.0210 1.0210
1500.842543 1.0210 1.0210 1.0210 1.0210 1.0210
1507.160992 1.0230 1.0250 1.0270 1.0270 1.0270
1513.479441 1.0290 1.0290 1.0290 1.0290 1.0310
1519.797890 1.0310 1.0290 1.0270 1.0270 1.0290
1526.116339 1.0310 1.0310 1.0330 1.0330 1.0330
1532.434787 1.0330 1.0330 1.0330 1.0330 1.0350
1538.753236 1.0350 1.0350 1.0350 1.0370 1.0370
1545.071685 1.0370 1.0370 1.0370 1.0350 1.0370
1551.390134 1.0370 1.0370 1.0370 1.0370 1.0370
1557.708583 1.0370 1.0370 1.0370 1.0370 1.0370
1564.027031 1.0370 1.0370 1.0370 1.0370 1.0370
1570.345480 1.0370 1.0370 1.0370 1.0370 1.0370
1576.663929 1.0370 1.0370 1.0370 1.0370 1.0370
1582.982378 1.0370 1.0370 1.0370 1.0370 1.0370
1589.300827 1.0370 1.0370 1.0350 1.0350 1.0350
1595.619276 1.0350 1.0350 1.0330 1.0330 1.0330
1601.937724 1.0330 1.0330 1.0330 1.0330 1.0330
1608.256173 1.0330 1.0330 1.0330 1.0330 1.0330
1614.574622 1.0330 1.0330 1.0330 1.0330 1.0330
1620.893071 1.0330 1.0330 1.0330 1.0310 1.0310
1627.211520 1.0310 1.0310 1.0310 1.0310 1.0290
1633.529969 1.0290 1.0310 1.0310 1.0310 1.0310
1639.848417 1.0310 1.0310 1.0310 1.0310 1.0330
1646.166866 1.0330 1.0330 1.0330 1.0330 1.0330
1652.485315 1.0330 1.0330 1.0310 1.0310 1.0310
1658.803764 1.0330 1.0330 1.0330 1.0330 1.0350
1665.122213 1.0350 1.0350 1.0350 1.0370 1.0370
1671.440661 1.0370 1.0370 1.0350 1.0350 1.0350
1677.759110 1.0350 1.0350 1.0350 1.0370 1.0370
1684.077559 1.0370 1.0370 1.0370 1.0370 1.0370
1690.396008 1.0370 1.0390 1.0390 1.0390 1.0390
1696.714457 1.0390 1.0390 1.0390 1.0390 1.0390
1703.032906 1.0350 1.0350 1.0350 1.0370 1.0370
1709.351354 1.0370 1.0350 1.0350 1.0370 1.0370
1715.669803 1.0370 1.0390 1.0390 1.0390 1.0390
1721.988252 1.0390 1.0390 1.0390 1.0390 1.0390
1728.306701 1.0390 1.0390 1.0390 1.0390 1.0390
1734.625150 1.0390 1.0370 1.0370 1.0370 1.0370
1740.943598 1.0370 1.0370 1.0370 1.0370 1.0370
1747.262047 1.0370 1.0370 1.0370 1.0370 1.0370
1753.580496 1.0370 1.0370 1.0370 1.0390 1.0390
1759.898945 1.0390 1.0390 1.0390 1.0390 1.0390
1766.217394 1.0390 1.0390 1.0390 1.0390 1.0390
1772.535843 1.0390 1.0370 1.0370 1.0370 1.0370
1778.854291 1.0370 1.0370 1.0370 1.0370 1.0370
1785.172740 1.0370 1.0370 1.0370 1.0370 1.0370
1791.491189 1.0370 1.0370 1.0370 1.0370 1.0370
1797.809638 1.0370 1.0370 1.0370 1.0370 1.0370
1804.128087 1.0370 1.0370 1.0370 1.0370 1.0370
1810.446535 1.0370 1.0370 1.0370 1.0370 1.0370
1816.764984 1.0370 1.0370 1.0350 1.0350 1.0350
1823.083433 1.0350 1.0350 1.0350 1.0350 1.0350
1829.401882 1.0350 1.0350 1.0370 1.0370 1.0370
1835.720331 1.0370 1.0370 1.0370 1.0370 1.0370
1842.038780 1.0370 1.0370 1.0350 1.0350 1.0330
1848.357228 1.0330 1.0330 1.0330 1.0330 1.0330
1854.675677 1.0330 1.0350 1.0350 1.0350 1.0350
1860.994126 1.0350 1.0350 1.0350 1.0350 1.0350
1867.312575 1.0350 1.0350 1.0350 1.0350 1.0350
1873.631024 1.0350 1.0350 1.0350 1.0330 1.0330
1879.949472 1.0330 1.0330 1.0330 1.0330 1.0330
1886.267921 1.0330 1.0330 1.0330 1.0330 1.0330
1892.586370 1.0330 1.0330 1.0330 1.0330 1.0330
1898.904819 1.0330 1.0330 1.0350 1.0350 1.0350
1905.223268 1.0350 1.0350 1.0350 1.0350 1.0350
1911.541717 1.0350 1.0350 1.0350 1.0330 1.0330
1917.860165 1.0330 1.0330 1.0330 1.0330 1.0330
1924.178614 1.0350 1.0350 1.0350 1.0350 1.0350
1930.497063 1.0350 1.0350 1.0350 1.0350 1.0350
1936.815512 1.0350 1.0350 1.0350 1.0350 1.0350
1943.133961 1.0350 1.0350 1.0350 1.0350 1.0350
1949.452409 1.0350 1.0350 1.0350 1.0350 1.0350
1955.770858 1.0350 1.0350 1.0350 1.0350 1.0350
1962.089307 1.0350 1.0350 1.0370 1.0370 1.0370
1968.407756 1.0370 1.0370 1.0370 1.0370 1.0370
1974.726205 1.0370 1.0370 1.0370 1.0370 1.0370
1981.044654 1.0370 1.0370 1.0370 1.0350 1.0350
1987.363102 1.0350 1.0330 1.0330 1.0310 1.0310
1993.681551 1.0330 1.0330 1.0330 1.0330 1.0310
2000.000000 1.0310 1.0300 1.0290 1.0290 1.0290
2006.318449 1.0290 1.0290 1.0270 1.0250 1.0250
2012.636898 1.0250 1.0240 1.0230 1.0230 1.0230
2018.955346 1.0220 1.0210 1.0210 1.0210 1.0210
2025.273795 1.0210 1.0210 1.0210 1.0210 1.0210
2031.592244 1.0210 1.0210 1.0210 1.0210 1.0210
2037.910693 1.0210 1.0210 1.0210 1.0220 1.0230
2044.229142 1.0230 1.0230 1.0230 1.0230 1.0230
2050.547591 1.0230 1.0230 1.0230 1.0230 1.0230
2056.866039 1.0230 1.0230 1.0230 1.0230 1.0230
2063.184488 1.0230 1.0230 1.0230 1.0230 1.0230
2069.502937 1.0230 1.0230 1.0230 1.0230 1.0230
2075.821386 1.0230 1.0230 1.0230 1.0230 1.0230
2082.139835 1.0220 1.0210 1.0200 1.0190 1.0190
2088.458283 1.0190 1.0190 1.0190 1.0180 1.0170
2094.776732 1.0160 1.0150 1.0131 1.0111 1.0100
2101.095181 1.0090 1.0071 1.0051 1.0040 1.0030
2107.413630 1.0020 1.0010 0.9996 0.9981 0.9980
2113.732079 0.9980 0.9970 0.9960 0.9950 0.9940
2120.050528 0.9930 0.9920 0.9920 0.9920 0.9930
2126.368976 0.9940 0.9940 0.9940 0.9950 0.9960
2132.687425 0.9960 0.9960 0.9970 0.9980 0.9990
2139.005874 1.0000 1.0000 1.0000 1.0005 1.0010
2145.324323 1.0010 1.0010 1.0019 1.0029 1.0030
2151.642772 1.0030 1.0040 1.0050 1.0060 1.0070
2157.961220 1.0089 1.0109 1.0120 1.0130 1.0130
2164.279669 1.0130 1.0130 1.0130 1.0130 1.0130
2170.598118 1.0130 1.0130 1.0139 1.0149 1.0150
2176.916567 1.0150 1.0150 1.0150 1.0150 1.0150
2183.235016 1.0131 1.0111 1.0100 1.0091 1.0090
2189.553465 1.0090 1.0071 1.0051 0.9980 0.9905
2195.871913 0.9844 0.9784 0.9761 0.9741 0.9712
2202.190362 0.9681 0.9632 0.9582 0.9494 0.9405
2208.508811 0.9362 0.9322 0.9245 0.9165 0.9042
2214.827260 0.8918 0.8657 0.8388 0.8244 0.8109
2221.145709 0.7970 0.7830 0.6504 0.5087 0.4727
2227.464157 0.4454 0.4179 0.3905 0.3635 0.3365
2233.782606 0.3279 0.3205 0.2891 0.2561 0.2180
2240.101055 0.1796 0.1751 0.1731 0.1776 0.1826
2246.419504 0.1751 0.1667 0.1586 0.1506 0.1565
2252.737953 0.1636 0.1593 0.1543 0.1512 0.1482
2259.056402 0.1368 0.1248 0.1137 0.1028 0.1020
2265.374850 0.1020 0.1066 0.1116 0.1240 0.1370
2271.693299 0.1408 0.1438 0.1554 0.1679 0.1782
2278.011748 0.1884 0.1946 0.2006 0.2047 0.2087
2284.330197 0.2090 0.2090 0.2090 0.2090 0.1808
2290.648646 0.1504 0.1586 0.1701 0.2118 0.2562
2296.967094 0.2910 0.3250 0.3412 0.3557 0.3644
2303.285543 0.3725 0.3907 0.4097 0.4207 0.4312
2309.603992 0.4366 0.4416 0.4475 0.4535 0.4632
2315.922441 0.4732 0.4831 0.4931 0.5008 0.5083
2322.240890 0.5126 0.5166 0.5215 0.5265 0.5297
2328.559339 0.5328 0.5349 0.5368 0.5499 0.5639
2334.877787 0.6068 0.6522 0.6738 0.6933 0.7114
2341.196236 0.7294 0.7469 0.7644 0.7832 0.8022
2347.514685 0.8112 0.8192 0.8236 0.8276 0.8384
2353.833134 0.8501 0.8611 0.8721 0.8812 0.8902
2360.151583 0.8956 0.9006 0.9169 0.9344 0.9541
2366.470031 0.9741 0.9778 0.9798 0.9818 0.9838
2372.788480 0.9876 0.9916 0.9956 0.9996 1.0023
2379.106929 1.0048 1.0068 1.0088 1.0099 1.0109
2385.425378 1.0128 1.0148 1.0159 1.0169 1.0179
2391.743827 1.0189 1.0181 1.0171 1.0170 1.0170
2398.062276 1.0170 1.0170 1.0170 1.0170 1.0170
2404.380724 1.0170 1.0170 1.0170 1.0170 1.0170
2410.699173 1.0170 1.0170 1.0161 1.0151 1.0141
2417.017622 1.0131 1.0121 1.0111 1.0110 1.0110
2423.336071 1.0092 1.0072 1.0070 1.0070 1.0052
2429.654520 1.0032 1.0021 1.0011 0.9988 0.9963
2435.972969 0.9951 0.9941 0.9931 0.9921 0.9911
2442.291417 0.9901 0.9865 0.9825 0.9811 0.9801
2448.609866 0.9791 0.9781 0.9780 0.9780 0.9771
2454.928315 0.9761 0.9760 0.9760 0.9760 0.9760
2461.246764 0.9760 0.9760 0.9769 0.9779 0.9780
2467.565213 0.9780 0.9789 0.9799 0.9809 0.9819
2473.883661 0.9846 0.9876 0.9889 0.9899 0.9926
2480.202110 0.9957 0.9969 0.9979 0.9989 0.9999
2486.520559 1.0004 1.0009 1.0019 1.0029 1.0039
2492.839008 1.0049 1.0068 1.0088 1.0107 1.0127
2499.157457 1.0147 1.0167 1.0170 1.0170 1.0170
2505.475906 1.0170 1.0179 1.0189 1.0190 1.0190
2511.794354 1.0190 1.0190 1.0199 1.0209 1.0210
2518.112803 1.0210 1.0210 1.0210 1.0210 1.0210
2524.431252 1.0210 1.0210 1.0219 1.0229 1.0230
2530.749701 1.0230 1.0239 1.0249 1.0241 1.0231
2537.068150 1.0230 1.0230 1.0230 1.0230 1.0230
2543.386598 1.0230 1.0230 1.0230 1.0230 1.0230
2549.705047 1.0230 1.0230 1.0221 1.0212 1.0210
2556.023496 1.0210 1.0210 1.0210 1.0210 1.0210
2562.341945 1.0210 1.0210 1.0201 1.0191 1.0190
2568.660394 1.0190 1.0190 1.0190 1.0190 1.0190
2574.978843 1.0190 1.0190 1.0190 1.0190 1.0190
2581.297291 1.0190 1.0190 1.0190 1.0190 1.0190
2587.615740 1.0190 1.0190 1.0190 1.0190 1.0190
2593.934189 1.0190 1.0190 1.0190 1.0190 1.0190
2600.252638 1.0199 1.0208 1.0210 1.0210 1.0210
2606.571087 1.0210 1.0210 1.0210 1.0210 1.0210
2612.889535 1.0210 1.0210 1.0210 1.0210 1.0210
2619.207984 1.0210 1.0210 1.0210 1.0210 1.0210
2625.526433 1.0210 1.0210 1.0210 1.0210 1.0210
2631.844882 1.0210 1.0210 1.0210 1.0210 1.0210
2638.163331 1.0210 1.0210 1.0210 1.0210 1.0210
2644.481780 1.0210 1.0210 1.0210 1.0210 1.0210
2650.800228 1.0210 1.0210 1.0210 1.0210 1.0210
2657.118677 1.0210 1.0210 1.0210 1.0210 1.0210
2663.437126 1.0210 1.0210 1.0218 1.0228 1.0230
2669.755575 1.0230 1.0230 1.0230 1.0230 1.0230
2676.074024 1.0222 1.0212 1.0210 1.0210 1.0210
2682.392472 1.0210 1.0210 1.0210 1.0210 1.0210
2688.710921 1.0210 1.0210 1.0210 1.0210 1.0210
2695.029370 1.0210 1.0210 1.0210 1.0210 1.0210
2701.347819 1.0210 1.0210 1.0210 1.0210 1.0210
2707.666268 1.0210 1.0210 1.0210 1.0210 1.0210
2713.984717 1.0210 1.0210 1.0210 1.0210 1.0210
2720.303165 1.0210 1.0202 1.0192 1.0190 1.0190
2726.621614 1.0190 1.0190 1.0190 1.0190 1.0190
2732.940063 1.0190 1.0190 1.0190 1.0190 1.0190
2739.258512 1.0190 1.0190 1.0190 1.0190 1.0190
2745.576961 1.0190 1.0190 1.0190 1.0190 1.0190
2751.895409 1.0190 1.0190 1.0190 1.0190 1.0190
2758.213858 1.0190 1.0190 1.0190 1.0190 1.0190
2764.532307 1.0190 1.0190 1.0190 1.0190 1.0190
2770.850756 1.0190 1.0190 1.0190 1.0190 1.0190
2777.169205 1.0190 1.0190 1.0190 1.0190 1.0198
2783.487654 1.0208 1.0210 1.0210 1.0202 1.0192
2789.806102 1.0190 1.0190 1.0190 1.0190 1.0182
2796.124551 1.0172 1.0162 1.0152 1.0134 1.0114
2802.443000 1.0110 1.0110 1.0102 1.0092 1.0082
2808.761449 1.0072 1.0062 1.0052 1.0042 1.0032
2815.079898 1.0010 0.9985 0.9972 0.9962 0.9952
2821.398346 0.9942 0.9940 0.9940 0.9948 0.9958
2827.716795 0.9968 0.9978 0.9988 0.9998 1.0004
2834.035244 1.0009 1.0018 1.0028 1.0038 1.0048
2840.353693 1.0050 1.0050 1.0050 1.0050 1.0050
2846.672142 1.0050 1.0050 1.0050 1.0042 1.0032
2852.990591 1.0022 1.0012 1.0010 1.0010 1.0006
2859.309039 1.0001 0.9992 0.9982 0.9980 0.9980
2865.627488 0.9972 0.9962 0.9952 0.9942 0.9940
2871.945937 0.9940 0.9940 0.9940 0.9932 0.9922
2878.264386 0.9912 0.9902 0.9900 0.9900 0.9892
2884.582835 0.9882 0.9864 0.9844 0.9816 0.9786
2890.901283 0.9772 0.9762 0.9744 0.9724 0.9712
2897.219732 0.9702 0.9692 0.9682 0.9672 0.9662
2903.538181 0.9652 0.9642 0.9617 0.9587 0.9557
2909.856630 0.9526 0.9504 0.9484 0.9472 0.9462
2916.175079 0.9452 0.9442 0.9432 0.9422 0.9420
2922.493528 0.9420 0.9420 0.9420 0.9420 0.9420
2928.811976 0.9405 0.9385 0.9365 0.9345 0.9317
2935.130425 0.9286 0.9264 0.9244 0.9205 0.9160
2941.448874 0.9119 0.9079 0.9070 0.9070 0.9047
2947.767323 0.9017 0.9002 0.8992 0.8990 0.8990
2954.085772 0.8990 0.8990 0.8990 0.8990 0.8990
2960.404220 0.8990 0.8974 0.8954 0.8950 0.8950
2966.722669 0.8966 0.8986 0.9029 0.9079 0.9132
2973.041118 0.9187 0.9223 0.9253 0.9298 0.9348
2979.359567 0.9398 0.9448 0.9475 0.9495 0.9508
2985.678016 0.9518 0.9528 0.9538 0.9548 0.9558
2991.996465 0.9560 0.9560 0.9560 0.9560 0.9568
2998.314913 0.9578 0.9595 0.9615 0.9620 0.9620
3004.633362 0.9628 0.9638 0.9640 0.9640 0.9640
3010.951811 0.9640 0.9648 0.9658 0.9660 0.9660
3017.270260 0.9660 0.9660 0.9660 0.9660 0.9668
3023.588709 0.9678 0.9680 0.9680 0.9688 0.9698
3029.907157 0.9700 0.9700 0.9707 0.9717 0.9728
3036.225606 0.9738 0.9755 0.9775 0.9788 0.9798
3042.544055 0.9800 0.9800 0.9808 0.9818 0.9820
3048.862504 0.9820 0.9828 0.9838 0.9840 0.9840
3055.180953 0.9840 0.9840 0.9840 0.9840 0.9855
3061.499402 0.9875 0.9880 0.9880 0.9888 0.9898
3067.817850 0.9900 0.9900 0.9908 0.9918 0.9920
3074.136299 0.9920 0.9920 0.9920 0.9927 0.9937
3080.454748 0.9940 0.9940 0.9947 0.9957 0.9960
3086.773197 0.9960 0.9968 0.9978 0.9980 0.9980
3093.091646 0.9980 0.9980 0.9973 0.9963 0.9953
3099.410094 0.9943 0.9940 0.9940 0.9940 0.9940
3105.728543 0.9940 0.9940 0.9933 0.9923 0.9913
3112.046992 0.9903 0.9900 0.9900 0.9900 0.9900
3118.365441 0.9900 0.9900 0.9893 0.9883 0.9880
3124.683890 0.9880 0.9873 0.9863 0.9853 0.9843
3131.002339 0.9840 0.9840 0.9847 0.9857 0.9860
3137.320787 0.9860 0.9867 0.9877 0.9880 0.9880
3143.639236 0.9880 0.9880 0.9880 0.9880 0.9880
3149.957685 0.9880 0.9873 0.9863 0.9860 0.9860
3156.276134 0.9860 0.9860 0.9860 0.9860 0.9860
3162.594583 0.9860 0.9853 0.9843 0.9833 0.9823
3168.913031 0.9813 0.9803 0.9800 0.9800 0.9807
3175.231480 0.9817 0.9820 0.9820 0.9827 0.9837
3181.549929 0.9847 0.9857 0.9860 0.9860 0.9867
3187.868378 0.9877 0.9880 0.9880 0.9880 0.9880
3194.186827 0.9880 0.9880 0.9880 0.9880 0.9873
3200.505276 0.9863 0.9860 0.9860 0.9860 0.9860
3206.823724 0.9867 0.9877 0.9880 0.9880 0.9894
3213.142173 0.9915 0.9935 0.9955 0.9967 0.9977
3219.460622 0.9987 0.9997 1.0000 1.0000 1.0011
3225.779071 1.0026 1.0030 1.0030 1.0037 1.0047
3232.097520 1.0057 1.0067 1.0070 1.0070 1.0070
3238.415969 1.0070 1.0063 1.0053 1.0050 1.0050
3244.734417 1.0050 1.0050 1.0050 1.0050 1.0043
3251.052866 1.0033 1.0030 1.0030 1.0030 1.0030
3257.371315 1.0030 1.0030 1.0030 1.0030 1.0023
3263.689764 1.0013 1.0010 1.0010 1.0006 1.0001
3270.008213 1.0000 1.0000 1.0000 1.0000 1.0004
3276.326661 1.0009 1.0010 1.0010 1.0017 1.0027
3282.645110 1.0030 1.0030 1.0030 1.0030 1.0030
3288.963559 1.0030 1.0030 1.0030 1.0030 1.0030
3295.282008 1.0030 1.0030 1.0037 1.0047 1.0050
3301.600457 1.0050 1.0057 1.0067 1.0070 1.0070
3307.918906 1.0070 1.0070 1.0070 1.0070 1.0063
3314.237354 1.0053 1.0050 1.0050 1.0050 1.0050
3320.555803 1.0050 1.0050 1.0043 1.0033 0.9999
3326.874252 0.9954 0.9940 0.9940 0.9940 0.9940
3333.192701 0.9940 0.9940 0.9940 0.9940 0.9940
3339.511150 0.9940 0.9940 0.9940 0.9940 0.9940
3345.829598 0.9940 0.9940 0.9940 0.9940 0.9940
3352.148047 0.9940 0.9940 0.9940 0.9940 0.9940
3358.466496 0.9940 0.9940 0.9940 0.9940 0.9940
3364.784945 0.9940 0.9940 0.9940 0.9940 0.9940
3371.103394 0.9940 0.9940 0.9940 0.9940 0.9940
3377.421843 0.9940 0.9933 0.9923 0.9920 0.9920
3383.740291 0.9913 0.9903 0.9900 0.9900 0.9893
3390.058740 0.9883 0.9880 0.9880 0.9880 0.9880
3396.377189 0.9880 0.9880 0.9880 0.9880 0.9880
3402.695638 0.9880 0.9880 0.9880 0.9880 0.9880
3409.014087 0.9880 0.9880 0.9880 0.9880 0.9880
3415.332535 0.9880 0.9880 0.9880 0.9880 0.9880
3421.650984 0.9880 0.9880 0.9873 0.9863 0.9860
3427.969433 0.9860 0.9860 0.9860 0.9860 0.9860
3434.287882 0.9860 0.9860 0.9860 0.9860 0.9860
3440.606331 0.9860 0.9860 0.9860 0.9860 0.9860
3446.924780 0.9860 0.9860 0.9860 0.9860 0.9860
3453.243228 0.9860 0.9860 0.9860 0.9860 0.9860
3459.561677 0.9867 0.9877 0.9880 0.9880 0.9880
3465.880126 0.9880 0.9880 0.9880 0.9880 0.9880
3472.198575 0.9880 0.9880 0.9887 0.9897 0.9900
3478.517024 0.9900 0.9900 0.9900 0.9900 0.9900
3484.835472 0.9900 0.9900 0.9900 0.9900 0.9900
3491.153921 0.9900 0.9900 0.9900 0.9900 0.9900
3497.472370 0.9900 0.9900 0.9900 0.9900 0.9893
3503.790819 0.9883 0.9880 0.9880 0.9880 0.9880
3510.109268 0.9880 0.9880 0.9880 0.9880 0.9880
3516.427717 0.9880 0.9880 0.9880 0.9873 0.9863
3522.746165 0.9860 0.9860 0.9860 0.9860 0.9860
3529.064614 0.9860 0.9860 0.9860 0.9866 0.9876
3535.383063 0.9880 0.9880 0.9880 0.9880 0.9880
3541.701512 0.9880 0.9880 0.9880 0.9880 0.9880
3548.019961 0.9880 0.9880 0.9880 0.9880 0.9880
3554.338409 0.9880 0.9880 0.9880 0.9874 0.9864
3560.656858 0.9860 0.9860 0.9860 0.9860 0.9860
3566.975307 0.9860 0.9854 0.9844 0.9840 0.9840
3573.293756 0.9846 0.9856 0.9860 0.9860 0.9860
3579.612205 0.9860 0.9860 0.9860 0.9860 0.9860
3585.930654 0.9860 0.9860 0.9860 0.9860 0.9860
3592.249102 0.9860 0.9860 0.9860 0.9860 0.9860
3598.567551 0.9854 0.9844 0.9840 0.9840 0.9840
3604.886000 0.9840 0.9840 0.9840 0.9840 0.9840
3611.204449 0.9840 0.9840 0.9840 0.9840 0.9840
3617.522898 0.9840 0.9834 0.9824 0.9820 0.9820
3623.841346 0.9820 0.9820 0.9814 0.9804 0.9800
3630.159795 0.9800 0.9800 0.9800 0.9800 0.9800
3636.478244 0.9794 0.9784 0.9780 0.9780 0.9780
3642.796693 0.9780 0.9780 0.9780 0.9774 0.9764
3649.115142 0.9760 0.9760 0.9754 0.9744 0.9740
3655.433591 0.9740 0.9728 0.9708 0.9700 0.9700
3661.752039 0.9688 0.9668 0.9660 0.9660 0.9654
3668.070488 0.9644 0.9640 0.9640 0.9634 0.9624
3674.388937 0.9620 0.9620 0.9620 0.9620 0.9614
3680.707386 0.9604 0.9600 0.9600 0.9594 0.9584
3687.025835 0.9580 0.9580 0.9580 0.9580 0.9574
3693.344283 0.9564 0.9560 0.9560 0.9560 0.9560
3699.662732 0.9560 0.9560 0.9566 0.9576 0.9580
3705.981181 0.9580 0.9586 0.9596 0.9606 0.9616
3712.299630 0.9620 0.9620 0.9620 0.9620 0.9614
3718.618079 0.9604 0.9594 0.9584 0.9580 0.9580
3724.936528 0.9580 0.9580 0.9580 0.9580 0.9574
3731.254976 0.9564 0.9560 0.9560 0.9560 0.9560
3737.573425 0.9560 0.9560 0.9554 0.9544 0.9540
3743.891874 0.9540 0.9540 0.9540 0.9546 0.9556
3750.210323 0.9566 0.9576 0.9586 0.9596 0.9600
3756.528772 0.9600 0.9600 0.9600 0.9606 0.9616
3762.847220 0.9626 0.9636 0.9640 0.9640 0.9640
3769.165669 0.9640 0.9640 0.9640 0.9640 0.9640
3775.484118 0.9646 0.9656 0.9660 0.9660 0.9660
3781.802567 0.9660 0.9660 0.9660 0.9660 0.9660
3788.121016 0.9654 0.9644 0.9640 0.9640 0.9634
3794.439465 0.9624
##END=
