##TITLE=ETHYL NITRATE
##JCAMP-DX=4.24
##DATA TYPE=INFRARED SPECTRUM
##CLASS=COBLENTZ III
##ORIGIN=DOW CHEMICAL COMPANY
##OWNER=COBLENTZ SOCIETY
Collection (C) 2018 copyright by the U.S. Secretary of Commerce
on behalf of the United States of America. All rights reserved.
##DATE=1964/03/24
##CAS REGISTRY NO=625-58-1
##MOLFORM=C2 H5 N O3
##SOURCE REFERENCE=COBLENTZ NO. 6319
##$NIST SOURCE=COBLENTZ
##$NIST IMAGE=cob6319
##SPECTROMETER/DATA SYSTEM=DOW KBr FOREPRISM-GRATING
##INSTRUMENT PARAMETERS=BLAZED AT 3.5, 12.0, 20.0 MICRONS AND CHANGED AT 5.0, 7.5, 14.9 MICRONS
##STATE=SOLUTION (10% IN CCl4 FOR 3800-1340, 10% IN CS2 FOR 1340-450 CM^-^1) VS. SOLVENT
##PATH LENGTH=0.011 CM, 0.011 CM
$$SPECTRAL CONTAMINATION DUE TO CCl4 AROUND 1550 CM^-^1
##SAMPLING PROCEDURE=TRANSMISSION
##RESOLUTION=2
##DATA PROCESSING=DIGITIZED BY NIST FROM HARD COPY (FROM TWO SEGMENTS)
##XUNITS=1/CM
##YUNITS=TRANSMITTANCE
##XFACTOR=1.000000
##YFACTOR=1
##DELTAX=0.864553
##FIRSTX=452.45
##LASTX=3806.05
##FIRSTY=0.933
##MAXX=3806.05
##MINX=452.45
##MAXY=1.013
##MINY=0
##NPOINTS=3880
##XYDATA=(X++(Y..Y))
452.450000 0.9330 0.9350 0.9360 0.9360 0.9380
456.772765 0.9390 0.9390 0.9400 0.9420 0.9430
461.095531 0.9430 0.9440 0.9460 0.9460 0.9470
465.418296 0.9480 0.9480 0.9500 0.9500 0.9510
469.741061 0.9510 0.9520 0.9540 0.9540 0.9540
474.063827 0.9540 0.9540 0.9550 0.9560 0.9580
478.386592 0.9590 0.9600 0.9620 0.9630 0.9640
482.709358 0.9660 0.9670 0.9690 0.9700 0.9710
487.032123 0.9730 0.9730 0.9740 0.9750 0.9770
491.354888 0.9770 0.9770 0.9770 0.9750 0.9750
495.677654 0.9750 0.9750 0.9750 0.9750 0.9770
500.000419 0.9770 0.9770 0.9770 0.9770 0.9770
504.323184 0.9770 0.9770 0.9770 0.9770 0.9770
508.645950 0.9770 0.9770 0.9770 0.9780 0.9780
512.968715 0.9780 0.9780 0.9780 0.9780 0.9790
517.291480 0.9790 0.9790 0.9790 0.9790 0.9790
521.614246 0.9810 0.9810 0.9810 0.9810 0.9810
525.937011 0.9810 0.9820 0.9820 0.9830 0.9850
530.259777 0.9850 0.9850 0.9860 0.9860 0.9860
534.582542 0.9860 0.9860 0.9870 0.9870 0.9870
538.905307 0.9870 0.9870 0.9870 0.9890 0.9890
543.228073 0.9890 0.9870 0.9870 0.9890 0.9890
547.550838 0.9890 0.9900 0.9900 0.9910 0.9910
551.873603 0.9900 0.9870 0.9850 0.9830 0.9810
556.196369 0.9780 0.9750 0.9740 0.9730 0.9690
560.519134 0.9620 0.9520 0.9390 0.9171 0.9001
564.841899 0.8670 0.8229 0.7120 0.7100 0.7070
569.164665 0.7100 0.7349 0.8427 0.8849 0.9019
573.487430 0.9080 0.9090 0.9110 0.9130 0.9250
577.810196 0.9320 0.9420 0.9510 0.9630 0.9749
582.132961 0.9890 0.9950 1.0000 1.0020 1.0050
586.455726 1.0050 1.0060 1.0090 1.0090 1.0100
590.778492 1.0120 1.0120 1.0120 1.0120 1.0120
595.101257 1.0120 1.0130 1.0130 1.0130 1.0130
599.424022 1.0130 1.0130 1.0130 1.0130 1.0130
603.746788 1.0120 1.0100 1.0090 1.0080 1.0080
608.069553 1.0060 1.0050 1.0040 1.0010 1.0000
612.392318 0.9980 0.9970 0.9950 0.9940 0.9910
616.715084 0.9890 0.9860 0.9830 0.9810 0.9780
621.037849 0.9770 0.9740 0.9710 0.9670 0.9640
625.360615 0.9600 0.9560 0.9520 0.9470 0.9420
629.683380 0.9420 0.9280 0.9111 0.8921 0.8781
634.006145 0.8740 0.8630 0.8450 0.8190 0.7881
638.328911 0.7541 0.7161 0.6771 0.6362 0.5952
642.651676 0.5560 0.5390 0.5200 0.4850 0.4361
646.974441 0.4320 0.4320 0.4380 0.4549 0.4699
651.297207 0.4910 0.5510 0.5670 0.5870 0.6209
655.619972 0.6370 0.6649 0.6909 0.7139 0.7379
659.942737 0.7600 0.7810 0.8000 0.8160 0.8310
664.265503 0.8400 0.8470 0.8570 0.8580 0.8580
668.588268 0.8590 0.8590 0.8610 0.8610 0.8610
672.911034 0.8610 0.8610 0.8580 0.8580 0.8570
677.233799 0.8570 0.8540 0.8530 0.8510 0.8500
681.556564 0.8460 0.8380 0.8320 0.8280 0.8190
685.879330 0.8120 0.7990 0.7910 0.7840 0.7650
690.202095 0.7081 0.6881 0.6641 0.6401 0.6151
694.524860 0.5910 0.5670 0.5470 0.5260 0.5100
698.847626 0.4601 0.3493 0.3460 0.3460 0.3669
703.170391 0.3880 0.4070 0.4730 0.5879 0.6439
707.493156 0.6849 0.6990 0.7518 0.7928 0.8268
711.815922 0.8510 0.8700 0.8840 0.8940 0.9020
716.138687 0.9080 0.9110 0.9130 0.9210 0.9250
720.461453 0.9290 0.9330 0.9350 0.9360 0.9380
724.784218 0.9380 0.9390 0.9390 0.9400 0.9400
729.106983 0.9400 0.9400 0.9400 0.9390 0.9360
733.429749 0.9330 0.9320 0.9310 0.9290 0.9270
737.752514 0.9270 0.9230 0.9160 0.9090 0.9020
742.075279 0.8960 0.8900 0.8820 0.8740 0.8660
746.398045 0.8540 0.8380 0.8150 0.7831 0.7381
750.720810 0.6812 0.6132 0.5881 0.5512 0.5132
755.043575 0.3610 0.3500 0.3400 0.3300 0.3270
759.366341 0.3280 0.3539 0.4288 0.4788 0.5547
763.689106 0.6070 0.6520 0.6850 0.7110 0.7330
768.011872 0.7500 0.7689 0.7929 0.8149 0.8279
772.334637 0.8380 0.8430 0.8470 0.8490 0.8510
776.657402 0.8540 0.8590 0.8620 0.8630 0.8650
780.980168 0.8650 0.8650 0.8650 0.8650 0.8630
785.302933 0.8620 0.8610 0.8590 0.8570 0.8540
789.625698 0.8530 0.8500 0.8470 0.8450 0.8420
793.948464 0.8360 0.8310 0.8260 0.8160 0.8090
798.271229 0.8030 0.7840 0.7740 0.7600 0.7570
802.593994 0.7600 0.7620 0.7640 0.7650 0.7650
806.916760 0.7650 0.7660 0.7660 0.7650 0.7640
811.239525 0.7610 0.7570 0.7560 0.7500 0.7450
815.562291 0.7410 0.7370 0.7270 0.7250 0.7140
819.885056 0.7060 0.6940 0.6830 0.6760 0.6641
824.207821 0.6570 0.6450 0.6290 0.6140 0.5980
828.530587 0.5701 0.5481 0.5251 0.4563 0.4331
832.853352 0.4090 0.3850 0.3610 0.3360 0.3120
837.176117 0.2422 0.2141 0.1542 0.1172 0.0782
841.498883 0.0630 0.0400 0.0180 0.0060 0.0020
845.821648 0.0000 0.0000 0.0000 0.0000 0.0000
850.144413 0.0000 0.0000 0.0000 0.0000 0.0000
854.467179 0.0000 0.0000 0.0000 0.0000 0.0000
858.789944 0.0000 0.0010 0.0020 0.0060 0.0080
863.112709 0.0120 0.0140 0.0170 0.0299 0.0589
867.435475 0.1060 0.1180 0.1720 0.1840 0.2000
871.758240 0.2190 0.2389 0.2619 0.2839 0.3049
876.081006 0.3260 0.3450 0.3590 0.3690 0.3740
880.403771 0.3860 0.3880 0.3880 0.3880 0.3880
884.726536 0.3880 0.3880 0.3880 0.3880 0.3800
889.049302 0.3610 0.3341 0.3041 0.2691 0.2411
893.372067 0.2150 0.1400 0.1300 0.1020 0.0781
897.694832 0.0521 0.0510 0.0510 0.0550 0.0590
902.017598 0.0670 0.0710 0.0750 0.0740 0.0670
906.340363 0.0640 0.0610 0.0630 0.0630 0.0680
910.663128 0.1190 0.1410 0.2149 0.2290 0.2649
914.985894 0.3089 0.3489 0.3859 0.4228 0.4578
919.308659 0.4901 0.5560 0.5880 0.6020 0.6230
923.631425 0.6360 0.6480 0.6729 0.6840 0.6920
927.954190 0.6980 0.7060 0.7210 0.7290 0.7390
932.276955 0.7410 0.7430 0.7460 0.7490 0.7520
936.599721 0.7560 0.7560 0.7560 0.7570 0.7580
940.922486 0.7650 0.7770 0.7830 0.7920 0.7990
945.245251 0.8190 0.8300 0.8360 0.8400 0.8490
949.568017 0.8610 0.8660 0.8670 0.8700 0.8730
953.890782 0.8770 0.8800 0.8820 0.8850 0.8860
958.213547 0.8860 0.8880 0.8880 0.8880 0.8880
962.536313 0.8880 0.8880 0.8840 0.8820 0.8800
966.859078 0.8780 0.8740 0.8740 0.8670 0.8590
971.181844 0.8550 0.8540 0.8530 0.8500 0.8450
975.504609 0.8340 0.8300 0.8220 0.8081 0.7961
979.827374 0.7840 0.7720 0.7610 0.7490 0.7390
984.150140 0.7290 0.7160 0.7060 0.6871 0.6770
988.472905 0.6540 0.6290 0.6050 0.5780 0.5511
992.795670 0.5370 0.5240 0.4951 0.4661 0.4362
997.118436 0.4040 0.3650 0.3240 0.2840 0.2491
1001.441201 0.2081 0.1681 0.1361 0.1131 0.1030
1005.763966 0.0920 0.0760 0.0570 0.0470 0.0121
1010.086732 0.0100 0.0120 0.0130 0.0140 0.0220
1014.409497 0.0300 0.0450 0.0470 0.0680 0.1409
1018.732263 0.1420 0.2158 0.2718 0.2730 0.3039
1023.055028 0.3320 0.3800 0.4170 0.4499 0.4779
1027.377793 0.5049 0.5638 0.6009 0.6438 0.6768
1031.700559 0.6850 0.7060 0.7150 0.7270 0.7410
1036.023324 0.7570 0.7620 0.7690 0.7770 0.7880
1040.346089 0.7960 0.8030 0.8050 0.8110 0.8140
1044.668855 0.8150 0.8160 0.8200 0.8230 0.8240
1048.991620 0.8270 0.8280 0.8300 0.8310 0.8320
1053.314385 0.8320 0.8340 0.8350 0.8380 0.8390
1057.637151 0.8400 0.8400 0.8420 0.8420 0.8420
1061.959916 0.8420 0.8400 0.8400 0.8400 0.8390
1066.282682 0.8380 0.8360 0.8350 0.8320 0.8300
1070.605447 0.8260 0.8220 0.8160 0.8110 0.8040
1074.928212 0.7960 0.7880 0.7800 0.7690 0.7580
1079.250978 0.7470 0.7340 0.7210 0.7061 0.6901
1083.573743 0.6720 0.6540 0.6340 0.6140 0.5900
1087.896508 0.5900 0.5940 0.6608 0.7108 0.7469
1092.219274 0.7700 0.7850 0.7950 0.8000 0.8040
1096.542039 0.8110 0.8220 0.8230 0.8230 0.8230
1100.864804 0.8230 0.8220 0.8190 0.8120 0.8040
1105.187570 0.7990 0.7950 0.7870 0.7761 0.7561
1109.510335 0.7110 0.6870 0.6720 0.6540 0.6251
1113.833101 0.5701 0.5481 0.5251 0.5240 0.5250
1118.155866 0.6030 0.6400 0.6750 0.7069 0.7419
1122.478631 0.7689 0.7909 0.8039 0.8140 0.8180
1126.801397 0.8270 0.8320 0.8400 0.8460 0.8500
1131.124162 0.8510 0.8510 0.8500 0.8500 0.8490
1135.446927 0.8490 0.8470 0.8460 0.8430 0.8360
1139.769693 0.8310 0.8280 0.8230 0.8200 0.8160
1144.092458 0.8150 0.8120 0.8050 0.7970 0.7880
1148.415223 0.7810 0.7770 0.7730 0.7700 0.7650
1152.737989 0.7600 0.7600 0.7600 0.7600 0.7600
1157.060754 0.7610 0.7650 0.7760 0.7810 0.7919
1161.383520 0.8040 0.8200 0.8320 0.8430 0.8510
1165.706285 0.8610 0.8700 0.8730 0.8770 0.8889
1170.029050 0.8940 0.8960 0.9000 0.9010 0.9020
1174.351816 0.9050 0.9050 0.9040 0.9050 0.9050
1178.674581 0.9070 0.9090 0.9150 0.9160 0.9190
1182.997346 0.9200 0.9210 0.9210 0.9230 0.9230
1187.320112 0.9230 0.9210 0.9210 0.9210 0.9200
1191.642877 0.9210 0.9210 0.9210 0.9210 0.9200
1195.965642 0.9170 0.9170 0.9160 0.9160 0.9150
1200.288408 0.9130 0.9120 0.9110 0.9110 0.9110
1204.611173 0.9110 0.9090 0.9040 0.9020 0.9010
1208.933939 0.9000 0.8970 0.8940 0.8920 0.8900
1213.256704 0.8890 0.8820 0.8780 0.8770 0.8730
1217.579469 0.8730 0.8700 0.8660 0.8610 0.8580
1221.902235 0.8540 0.8530 0.8500 0.8400 0.8320
1226.225000 0.8240 0.8180 0.8160 0.8070 0.7931
1230.547765 0.7800 0.7660 0.7600 0.7450 0.7340
1234.870531 0.7270 0.7210 0.7180 0.7160 0.7120
1239.193296 0.7100 0.7060 0.7030 0.7000 0.6980
1243.516061 0.6940 0.6870 0.6800 0.6770 0.6720
1247.838827 0.6650 0.6590 0.6420 0.6340 0.6230
1252.161592 0.6100 0.5951 0.5781 0.5591 0.5491
1256.484358 0.5400 0.5180 0.4980 0.4750 0.3971
1260.807123 0.3780 0.3780 0.3571 0.3341 0.3031
1265.129888 0.2800 0.2490 0.2180 0.1771 0.1341
1269.452654 0.1141 0.0921 0.0601 0.0431 0.0161
1273.775419 0.0120 0.0050 0.0040 0.0020 0.0020
1278.098184 0.0020 0.0020 0.0020 0.0020 0.0020
1282.420950 0.0020 0.0020 0.0020 0.0020 0.0040
1286.743715 0.0140 0.0170 0.0280 0.1007 0.1149
1291.066480 0.1190 0.1600 0.2030 0.2210 0.2759
1295.389246 0.2999 0.3399 0.3510 0.3938 0.4288
1299.712011 0.4600 0.4870 0.5160 0.5629 0.5790
1304.034777 0.6109 0.6289 0.6400 0.6500 0.6609
1308.357542 0.6760 0.6950 0.7150 0.7180 0.7260
1312.680307 0.7300 0.7390 0.7430 0.7530 0.7580
1317.003073 0.7640 0.7720 0.7740 0.7840 0.7890
1321.325838 0.7930 0.7950 0.7970 0.8000 0.8050
1325.648603 0.8090 0.8110 0.8140 0.8140 0.8150
1329.971369 0.8150 0.8180 0.8190 0.8220 0.8240
1334.294134 0.8270 0.8280 0.8280 0.8280 0.8280
1338.616899 0.8280 0.8280 0.8280 0.8280 0.8280
1342.939665 0.8280 0.8280 0.8280 0.8270 0.8260
1347.262430 0.8260 0.8240 0.8230 0.8220 0.8200
1351.585196 0.8160 0.8140 0.8080 0.8040 0.7970
1355.907961 0.7830 0.7740 0.7650 0.7371 0.6813
1360.230726 0.6480 0.6140 0.5571 0.5081 0.4581
1364.553492 0.2915 0.2521 0.1763 0.1690 0.1680
1368.876257 0.1680 0.3110 0.4599 0.5079 0.5988
1373.199022 0.6479 0.6719 0.6850 0.6870 0.6870
1377.521788 0.6870 0.6870 0.6790 0.6461 0.6330
1381.844553 0.6051 0.5602 0.5321 0.5041 0.4592
1386.167318 0.4580 0.4580 0.4580 0.5639 0.6339
1390.490084 0.6490 0.6689 0.6869 0.7059 0.7110
1394.812849 0.7250 0.7290 0.7310 0.7380 0.7420
1399.135615 0.7490 0.7540 0.7600 0.7640 0.7700
1403.458380 0.7740 0.7780 0.7800 0.7830 0.7840
1407.781145 0.7850 0.7870 0.7870 0.7850 0.7810
1412.103911 0.7800 0.7780 0.7770 0.7760 0.7720
1416.426676 0.7640 0.7600 0.7560 0.7500 0.7460
1420.749441 0.7420 0.7390 0.7370 0.7340 0.7310
1425.072207 0.7300 0.7290 0.7270 0.7290 0.7270
1429.394972 0.7250 0.7210 0.7120 0.7100 0.7070
1433.717737 0.6940 0.6791 0.6651 0.6481 0.6321
1438.040503 0.5880 0.5530 0.5400 0.5250 0.4821
1442.363268 0.4331 0.3961 0.3502 0.3161 0.2911
1446.686034 0.2890 0.2890 0.3180 0.3799 0.4000
1451.008799 0.4379 0.4480 0.4480 0.4480 0.4211
1455.331564 0.4070 0.3930 0.3800 0.3660 0.3650
1459.654330 0.3660 0.3859 0.4019 0.4239 0.4588
1463.977095 0.4950 0.5780 0.6100 0.6180 0.6230
1468.299860 0.6290 0.6400 0.6410 0.6400 0.6380
1472.622626 0.6330 0.6260 0.6100 0.5920 0.5711
1476.945391 0.5481 0.5241 0.4593 0.4481 0.4480
1481.268156 0.4500 0.5660 0.6010 0.6639 0.6870
1485.590922 0.7020 0.7030 0.7080 0.7160 0.7190
1489.913687 0.7190 0.7180 0.7160 0.7150 0.7140
1494.236453 0.7120 0.7120 0.7110 0.7100 0.7100
1498.559218 0.7070 0.7070 0.7040 0.6990 0.6980
1502.881983 0.6950 0.6920 0.6900 0.6870 0.6810
1507.204749 0.6800 0.6750 0.6690 0.6610 0.6560
1511.527514 0.6530 0.6460 0.6370 0.6340 0.6320
1515.850279 0.6300 0.6230 0.6220 0.6170 0.6070
1520.173045 0.6070 0.6070 0.6060 0.6050 0.6030
1524.495810 0.6020 0.5970 0.5940 0.5910 0.5880
1528.818575 0.5820 0.5750 0.5740 0.5710 0.5710
1533.141341 0.5640 0.5520 0.5450 0.5390 0.5250
1537.464106 0.5130 0.5040 0.5000 0.4871 0.4751
1541.786872 0.4620 0.4560 0.4470 0.4400 0.4350
1546.109637 0.4290 0.4240 0.4200 0.4190 0.4190
1550.432402 0.4170 0.4170 0.4160 0.4160 0.4170
1554.755168 0.4190 0.4210 0.4270 0.4330 0.4420
1559.077933 0.4460 0.4560 0.4620 0.4660 0.4690
1563.400698 0.4710 0.4770 0.4830 0.4890 0.4910
1567.723464 0.4970 0.5000 0.5040 0.5050 0.5080
1572.046229 0.5080 0.5090 0.5090 0.5080 0.5060
1576.368994 0.5040 0.5020 0.5000 0.4940 0.4890
1580.691760 0.4850 0.4810 0.4790 0.4790 0.4710
1585.014525 0.4700 0.4620 0.4590 0.4580 0.4540
1589.337291 0.4470 0.4390 0.4320 0.4240 0.4160
1593.660056 0.4080 0.4020 0.3970 0.3930 0.3890
1597.982821 0.3810 0.3710 0.3630 0.3540 0.3450
1602.305587 0.3350 0.3260 0.3150 0.3030 0.2910
1606.628352 0.2760 0.2611 0.2431 0.2231 0.2021
1610.951117 0.1790 0.1530 0.1230 0.1150 0.0911
1615.273883 0.0671 0.0451 0.0360 0.0280 0.0200
1619.596648 0.0140 0.0090 0.0060 0.0040 0.0010
1623.919413 0.0000 0.0000 0.0000 0.0000 0.0000
1628.242179 0.0000 0.0000 0.0000 0.0000 0.0000
1632.564944 0.0000 0.0000 0.0000 0.0000 0.0000
1636.887709 0.0000 0.0000 0.0000 0.0000 0.0000
1641.210475 0.0000 0.0000 0.0000 0.0000 0.0000
1645.533240 0.0000 0.0010 0.0020 0.0060 0.0120
1649.856006 0.0200 0.0290 0.0410 0.0549 0.0749
1654.178771 0.0820 0.1130 0.1190 0.1410 0.1609
1658.501536 0.1799 0.1989 0.2139 0.2299 0.2380
1662.824302 0.2560 0.2840 0.3030 0.3320 0.3500
1667.147067 0.3650 0.3800 0.4019 0.4349 0.4589
1671.469832 0.4790 0.4980 0.5140 0.5290 0.5529
1675.792598 0.5660 0.5760 0.5880 0.6009 0.6139
1680.115363 0.6280 0.6300 0.6410 0.6560 0.6640
1684.438128 0.6670 0.6720 0.6790 0.6830 0.6910
1688.760894 0.6950 0.7060 0.7120 0.7140 0.7150
1693.083659 0.7250 0.7310 0.7410 0.7420 0.7430
1697.406425 0.7500 0.7570 0.7640 0.7690 0.7740
1701.729190 0.7770 0.7780 0.7780 0.7800 0.7840
1706.051955 0.7850 0.7850 0.7870 0.7950 0.7960
1710.374721 0.7960 0.8000 0.8030 0.8040 0.8050
1714.697486 0.8070 0.8090 0.8110 0.8120 0.8140
1719.020251 0.8150 0.8180 0.8190 0.8200 0.8220
1723.343017 0.8230 0.8240 0.8260 0.8270 0.8280
1727.665782 0.8300 0.8310 0.8320 0.8340 0.8350
1731.988547 0.8380 0.8380 0.8380 0.8380 0.8380
1736.311313 0.8390 0.8390 0.8390 0.8390 0.8390
1740.634078 0.8400 0.8420 0.8430 0.8450 0.8460
1744.956844 0.8470 0.8490 0.8500 0.8500 0.8530
1749.279609 0.8540 0.8550 0.8570 0.8590 0.8620
1753.602374 0.8630 0.8630 0.8650 0.8650 0.8670
1757.925140 0.8690 0.8710 0.8740 0.8770 0.8780
1762.247905 0.8800 0.8810 0.8820 0.8840 0.8840
1766.570670 0.8850 0.8860 0.8880 0.8890 0.8890
1770.893436 0.8900 0.8920 0.8930 0.8930 0.8940
1775.216201 0.8960 0.8970 0.8970 0.9000 0.9000
1779.538966 0.9020 0.9080 0.9110 0.9120 0.9130
1783.861732 0.9150 0.9160 0.9160 0.9170 0.9190
1788.184497 0.9190 0.9190 0.9190 0.9190 0.9190
1792.507263 0.9190 0.9190 0.9190 0.9200 0.9200
1796.830028 0.9210 0.9210 0.9230 0.9230 0.9230
1801.152793 0.9240 0.9240 0.9250 0.9250 0.9250
1805.475559 0.9250 0.9250 0.9250 0.9250 0.9250
1809.798324 0.9250 0.9250 0.9270 0.9270 0.9280
1814.121089 0.9280 0.9290 0.9290 0.9310 0.9310
1818.443855 0.9320 0.9320 0.9320 0.9320 0.9320
1822.766620 0.9320 0.9320 0.9320 0.9320 0.9310
1827.089385 0.9310 0.9290 0.9290 0.9280 0.9280
1831.412151 0.9270 0.9270 0.9240 0.9240 0.9210
1835.734916 0.9200 0.9190 0.9170 0.9160 0.9120
1840.057682 0.9050 0.9000 0.8930 0.8840 0.8820
1844.380447 0.8810 0.8810 0.8840 0.8860 0.8890
1848.703212 0.8940 0.8970 0.9020 0.9070 0.9110
1853.025978 0.9120 0.9130 0.9130 0.9150 0.9150
1857.348743 0.9150 0.9160 0.9190 0.9200 0.9200
1861.671508 0.9200 0.9200 0.9210 0.9210 0.9210
1865.994274 0.9210 0.9230 0.9230 0.9240 0.9240
1870.317039 0.9240 0.9250 0.9250 0.9270 0.9270
1874.639804 0.9270 0.9280 0.9290 0.9290 0.9310
1878.962570 0.9310 0.9320 0.9330 0.9330 0.9350
1883.285335 0.9350 0.9360 0.9360 0.9360 0.9360
1887.608101 0.9360 0.9360 0.9360 0.9360 0.9360
1891.930866 0.9360 0.9360 0.9360 0.9360 0.9360
1896.253631 0.9360 0.9360 0.9360 0.9360 0.9350
1900.576397 0.9350 0.9350 0.9350 0.9350 0.9350
1904.899162 0.9350 0.9350 0.9350 0.9350 0.9350
1909.221927 0.9330 0.9330 0.9330 0.9330 0.9330
1913.544693 0.9330 0.9330 0.9330 0.9330 0.9330
1917.867458 0.9320 0.9320 0.9310 0.9310 0.9290
1922.190223 0.9290 0.9290 0.9280 0.9280 0.9270
1926.512989 0.9270 0.9270 0.9280 0.9290 0.9310
1930.835754 0.9310 0.9320 0.9320 0.9330 0.9330
1935.158520 0.9350 0.9350 0.9360 0.9360 0.9380
1939.481285 0.9380 0.9390 0.9400 0.9420 0.9430
1943.804050 0.9430 0.9430 0.9440 0.9440 0.9440
1948.126816 0.9430 0.9430 0.9440 0.9460 0.9460
1952.449581 0.9460 0.9460 0.9460 0.9460 0.9460
1956.772346 0.9440 0.9440 0.9440 0.9460 0.9460
1961.095112 0.9440 0.9430 0.9430 0.9430 0.9430
1965.417877 0.9430 0.9430 0.9430 0.9420 0.9420
1969.740642 0.9420 0.9400 0.9360 0.9360 0.9360
1974.063408 0.9360 0.9360 0.9360 0.9360 0.9360
1978.386173 0.9360 0.9360 0.9360 0.9390 0.9390
1982.708939 0.9380 0.9380 0.9360 0.9360 0.9360
1987.031704 0.9360 0.9360 0.9360 0.9360 0.9360
1991.354469 0.9360 0.9360 0.9360 0.9360 0.9360
1995.677235 0.9360 0.9360 0.9360 0.9360 0.9360
2000.000000 0.9360 0.9360 0.9360 0.9360 0.9360
2004.322765 0.9360 0.9360 0.9360 0.9360 0.9360
2008.645531 0.9360 0.9360 0.9360 0.9360 0.9360
2012.968296 0.9360 0.9360 0.9360 0.9360 0.9360
2017.291061 0.9360 0.9360 0.9360 0.9360 0.9360
2021.613827 0.9360 0.9360 0.9360 0.9358 0.9353
2025.936592 0.9350 0.9350 0.9346 0.9336 0.9328
2030.259358 0.9323 0.9322 0.9327 0.9330 0.9330
2034.582123 0.9335 0.9345 0.9350 0.9350 0.9353
2038.904888 0.9358 0.9360 0.9360 0.9366 0.9376
2043.227654 0.9383 0.9388 0.9393 0.9398 0.9407
2047.550419 0.9417 0.9420 0.9420 0.9424 0.9429
2051.873184 0.9430 0.9430 0.9430 0.9430 0.9430
2056.195950 0.9430 0.9434 0.9439 0.9440 0.9440
2060.518715 0.9440 0.9440 0.9440 0.9440 0.9449
2064.841480 0.9459 0.9460 0.9460 0.9460 0.9460
2069.164246 0.9460 0.9460 0.9450 0.9440 0.9440
2073.487011 0.9440 0.9440 0.9441 0.9451 0.9460
2077.809777 0.9460 0.9461 0.9466 0.9470 0.9470
2082.132542 0.9471 0.9476 0.9480 0.9480 0.9480
2086.455307 0.9480 0.9480 0.9480 0.9483 0.9493
2090.778073 0.9500 0.9500 0.9500 0.9500 0.9500
2095.100838 0.9500 0.9500 0.9500 0.9500 0.9500
2099.423603 0.9500 0.9500 0.9500 0.9500 0.9500
2103.746369 0.9500 0.9500 0.9500 0.9500 0.9500
2108.069134 0.9500 0.9500 0.9500 0.9500 0.9500
2112.391899 0.9500 0.9500 0.9500 0.9500 0.9500
2116.714665 0.9500 0.9500 0.9500 0.9500 0.9500
2121.037430 0.9500 0.9500 0.9500 0.9500 0.9500
2125.360196 0.9492 0.9482 0.9480 0.9480 0.9480
2129.682961 0.9480 0.9480 0.9480 0.9480 0.9480
2134.005726 0.9475 0.9470 0.9470 0.9470 0.9470
2138.328492 0.9470 0.9470 0.9470 0.9470 0.9470
2142.651257 0.9465 0.9460 0.9460 0.9460 0.9460
2146.974022 0.9460 0.9460 0.9460 0.9460 0.9460
2151.296788 0.9460 0.9461 0.9466 0.9470 0.9470
2155.619553 0.9470 0.9470 0.9474 0.9490 0.9500
2159.942318 0.9500 0.9500 0.9500 0.9500 0.9500
2164.265084 0.9500 0.9500 0.9500 0.9500 0.9500
2168.587849 0.9500 0.9500 0.9500 0.9500 0.9500
2172.910615 0.9500 0.9500 0.9500 0.9500 0.9494
2177.233380 0.9484 0.9480 0.9480 0.9474 0.9464
2181.556145 0.9454 0.9444 0.9433 0.9423 0.9420
2185.878911 0.9420 0.9413 0.9403 0.9393 0.9382
2190.201676 0.9384 0.9389 0.9390 0.9390 0.9390
2194.524441 0.9390 0.9390 0.9390 0.9394 0.9399
2198.847207 0.9400 0.9400 0.9414 0.9429 0.9435
2203.169972 0.9440 0.9455 0.9470 0.9475 0.9480
2207.492737 0.9490 0.9500 0.9500 0.9500 0.9505
2211.815503 0.9510 0.9510 0.9511 0.9516 0.9520
2216.138268 0.9520 0.9520 0.9520 0.9520 0.9520
2220.461034 0.9520 0.9520 0.9520 0.9520 0.9520
2224.783799 0.9520 0.9520 0.9520 0.9520 0.9520
2229.106564 0.9520 0.9520 0.9518 0.9513 0.9510
2233.429330 0.9510 0.9510 0.9510 0.9508 0.9503
2237.752095 0.9500 0.9500 0.9495 0.9485 0.9480
2242.074860 0.9480 0.9477 0.9472 0.9470 0.9470
2246.397626 0.9470 0.9470 0.9467 0.9462 0.9460
2250.720391 0.9460 0.9460 0.9460 0.9453 0.9443
2255.043156 0.9436 0.9431 0.9430 0.9430 0.9426
2259.365922 0.9421 0.9412 0.9402 0.9400 0.9400
2263.688687 0.9396 0.9391 0.9386 0.9381 0.9380
2268.011453 0.9380 0.9371 0.9361 0.9355 0.9350
2272.334218 0.9340 0.9330 0.9325 0.9320 0.9315
2276.656983 0.9310 0.9300 0.9290 0.9285 0.9280
2280.979749 0.9275 0.9269 0.9259 0.9249 0.9239
2285.302514 0.9230 0.9230 0.9230 0.9230 0.9231
2289.625279 0.9236 0.9241 0.9246 0.9250 0.9250
2293.948045 0.9253 0.9263 0.9272 0.9277 0.9282
2298.270810 0.9287 0.9290 0.9290 0.9294 0.9304
2302.593575 0.9312 0.9317 0.9322 0.9327 0.9330
2306.916341 0.9330 0.9335 0.9345 0.9353 0.9358
2311.239106 0.9360 0.9360 0.9366 0.9376 0.9380
2315.561872 0.9380 0.9383 0.9388 0.9393 0.9398
2319.884637 0.9400 0.9400 0.9407 0.9417 0.9420
2324.207402 0.9420 0.9424 0.9429 0.9430 0.9430
2328.530168 0.9430 0.9430 0.9430 0.9430 0.9430
2332.852933 0.9430 0.9430 0.9430 0.9434 0.9439
2337.175698 0.9449 0.9459 0.9465 0.9470 0.9470
2341.498464 0.9470 0.9475 0.9480 0.9490 0.9500
2345.821229 0.9505 0.9510 0.9510 0.9510 0.9515
2350.143994 0.9521 0.9531 0.9541 0.9546 0.9550
2354.466760 0.9550 0.9551 0.9556 0.9560 0.9560
2358.789525 0.9560 0.9560 0.9560 0.9560 0.9560
2363.112291 0.9560 0.9560 0.9560 0.9560 0.9560
2367.435056 0.9560 0.9560 0.9560 0.9560 0.9560
2371.757821 0.9560 0.9560 0.9560 0.9560 0.9560
2376.080587 0.9560 0.9560 0.9555 0.9545 0.9532
2380.403352 0.9517 0.9507 0.9502 0.9494 0.9484
2384.726117 0.9480 0.9480 0.9480 0.9480 0.9477
2389.048883 0.9472 0.9467 0.9462 0.9460 0.9460
2393.371648 0.9453 0.9443 0.9448 0.9458 0.9464
2397.694413 0.9469 0.9474 0.9479 0.9476 0.9471
2402.017179 0.9483 0.9498 0.9500 0.9500 0.9500
2406.339944 0.9500 0.9509 0.9519 0.9530 0.9540
2410.662709 0.9550 0.9560 0.9570 0.9580 0.9580
2414.985475 0.9580 0.9585 0.9590 0.9590 0.9590
2419.308240 0.9596 0.9600 0.9600 0.9600 0.9600
2423.631006 0.9600 0.9600 0.9600 0.9600 0.9600
2427.953771 0.9600 0.9600 0.9600 0.9600 0.9600
2432.276536 0.9600 0.9600 0.9600 0.9600 0.9600
2436.599302 0.9600 0.9600 0.9600 0.9600 0.9600
2440.922067 0.9598 0.9593 0.9590 0.9590 0.9590
2445.244832 0.9590 0.9590 0.9590 0.9590 0.9590
2449.567598 0.9590 0.9590 0.9590 0.9590 0.9590
2453.890363 0.9590 0.9590 0.9590 0.9590 0.9590
2458.213128 0.9587 0.9582 0.9580 0.9580 0.9580
2462.535894 0.9580 0.9572 0.9562 0.9560 0.9560
2466.858659 0.9560 0.9560 0.9552 0.9542 0.9532
2471.181425 0.9521 0.9511 0.9501 0.9500 0.9500
2475.504190 0.9491 0.9481 0.9470 0.9460 0.9430
2479.826955 0.9400 0.9380 0.9360 0.9355 0.9350
2484.149721 0.9355 0.9360 0.9360 0.9361 0.9371
2488.472486 0.9381 0.9386 0.9391 0.9396 0.9402
2492.795251 0.9412 0.9422 0.9432 0.9443 0.9459
2497.118017 0.9474 0.9489 0.9503 0.9513 0.9523
2501.440782 0.9533 0.9542 0.9547 0.9552 0.9557
2505.763547 0.9558 0.9553 0.9550 0.9550 0.9550
2510.086313 0.9550 0.9550 0.9550 0.9550 0.9550
2514.409078 0.9550 0.9550 0.9550 0.9550 0.9550
2518.731844 0.9550 0.9550 0.9550 0.9550 0.9550
2523.054609 0.9550 0.9550 0.9550 0.9550 0.9550
2527.377374 0.9550 0.9550 0.9550 0.9550 0.9550
2531.700140 0.9550 0.9550 0.9554 0.9559 0.9560
2536.022905 0.9560 0.9552 0.9542 0.9510 0.9475
2540.345670 0.9448 0.9423 0.9407 0.9391 0.9376
2544.668436 0.9361 0.9336 0.9311 0.9251 0.9191
2548.991201 0.9060 0.8929 0.8843 0.8759 0.8744
2553.313966 0.8731 0.8746 0.8765 0.8831 0.8901
2557.636732 0.9002 0.9102 0.9193 0.9276 0.9317
2561.959497 0.9354 0.9380 0.9402 0.9412 0.9425
2566.282263 0.9445 0.9468 0.9498 0.9526 0.9546
2570.605028 0.9565 0.9580 0.9592 0.9597 0.9600
2574.927793 0.9600 0.9604 0.9614 0.9620 0.9620
2579.250559 0.9620 0.9620 0.9620 0.9620 0.9620
2583.573324 0.9620 0.9620 0.9620 0.9620 0.9620
2587.896089 0.9614 0.9604 0.9600 0.9600 0.9600
2592.218855 0.9600 0.9600 0.9600 0.9597 0.9592
2596.541620 0.9593 0.9599 0.9600 0.9600 0.9607
2600.864385 0.9618 0.9620 0.9620 0.9624 0.9629
2605.187151 0.9630 0.9630 0.9630 0.9630 0.9630
2609.509916 0.9630 0.9630 0.9630 0.9630 0.9630
2613.832682 0.9630 0.9630 0.9630 0.9630 0.9630
2618.155447 0.9630 0.9630 0.9630 0.9625 0.9620
2622.478212 0.9620 0.9619 0.9609 0.9599 0.9594
2626.800978 0.9589 0.9584 0.9579 0.9568 0.9558
2631.123743 0.9548 0.9538 0.9528 0.9515 0.9495
2635.446508 0.9477 0.9467 0.9457 0.9447 0.9437
2639.769274 0.9427 0.9415 0.9400 0.9388 0.9383
2644.092039 0.9380 0.9380 0.9384 0.9394 0.9409
2648.414804 0.9429 0.9456 0.9492 0.9517 0.9533
2652.737570 0.9543 0.9548 0.9558 0.9573 0.9583
2657.060335 0.9588 0.9593 0.9598 0.9606 0.9616
2661.383101 0.9626 0.9636 0.9640 0.9640 0.9640
2665.705866 0.9640 0.9647 0.9657 0.9660 0.9660
2670.028631 0.9660 0.9660 0.9664 0.9669 0.9670
2674.351397 0.9670 0.9670 0.9670 0.9670 0.9670
2678.674162 0.9670 0.9670 0.9670 0.9670 0.9679
2682.996927 0.9690 0.9690 0.9690 0.9690 0.9690
2687.319693 0.9690 0.9690 0.9690 0.9690 0.9690
2691.642458 0.9690 0.9690 0.9690 0.9690 0.9689
2695.965223 0.9679 0.9670 0.9670 0.9670 0.9670
2700.287989 0.9669 0.9664 0.9658 0.9648 0.9640
2704.610754 0.9640 0.9640 0.9640 0.9640 0.9640
2708.933520 0.9638 0.9633 0.9630 0.9630 0.9630
2713.256285 0.9630 0.9628 0.9623 0.9620 0.9620
2717.579050 0.9620 0.9620 0.9615 0.9605 0.9600
2721.901816 0.9600 0.9600 0.9600 0.9597 0.9592
2726.224581 0.9587 0.9582 0.9580 0.9580 0.9580
2730.547346 0.9580 0.9573 0.9563 0.9560 0.9560
2734.870112 0.9560 0.9560 0.9556 0.9551 0.9550
2739.192877 0.9550 0.9550 0.9550 0.9546 0.9541
2743.515642 0.9540 0.9540 0.9531 0.9521 0.9520
2747.838408 0.9520 0.9520 0.9520 0.9520 0.9520
2752.161173 0.9520 0.9520 0.9520 0.9520 0.9515
2756.483939 0.9510 0.9510 0.9510 0.9510 0.9510
2760.806704 0.9510 0.9510 0.9510 0.9511 0.9516
2765.129469 0.9521 0.9532 0.9541 0.9546 0.9551
2769.452235 0.9556 0.9560 0.9560 0.9560 0.9560
2773.775000 0.9560 0.9560 0.9560 0.9560 0.9560
2778.097765 0.9560 0.9558 0.9553 0.9550 0.9550
2782.420531 0.9550 0.9550 0.9548 0.9543 0.9540
2786.743296 0.9540 0.9535 0.9525 0.9520 0.9520
2791.066061 0.9520 0.9520 0.9517 0.9512 0.9507
2795.388827 0.9502 0.9500 0.9500 0.9494 0.9484
2799.711592 0.9477 0.9472 0.9467 0.9462 0.9460
2804.034358 0.9460 0.9453 0.9443 0.9432 0.9422
2808.357123 0.9420 0.9420 0.9412 0.9402 0.9396
2812.679888 0.9391 0.9386 0.9381 0.9371 0.9361
2817.002654 0.9356 0.9350 0.9341 0.9330 0.9330
2821.325419 0.9330 0.9325 0.9320 0.9325 0.9330
2825.648184 0.9330 0.9330 0.9325 0.9320 0.9315
2829.970950 0.9309 0.9293 0.9278 0.9263 0.9249
2834.293715 0.9239 0.9228 0.9212 0.9197 0.9182
2838.616480 0.9168 0.9158 0.9150 0.9150 0.9150
2842.939246 0.9150 0.9150 0.9150 0.9153 0.9163
2847.262011 0.9168 0.9163 0.9153 0.9132 0.9118
2851.584777 0.9113 0.9104 0.9088 0.9066 0.9036
2855.907542 0.9006 0.8975 0.8942 0.8907 0.8869
2860.230307 0.8829 0.8791 0.8755 0.8709 0.8653
2864.553073 0.8600 0.8550 0.8474 0.8383 0.8254
2868.875838 0.8102 0.7875 0.7610 0.7526 0.7521
2873.198603 0.7520 0.7520 0.7614 0.7741 0.7774
2877.521369 0.7779 0.7788 0.7798 0.7792 0.7782
2881.844134 0.7780 0.7780 0.7741 0.7695 0.7601
2886.166899 0.7499 0.7370 0.7237 0.7096 0.6954
2890.489665 0.6822 0.6691 0.6589 0.6486 0.6274
2894.812430 0.6062 0.5859 0.5665 0.5589 0.5513
2899.135196 0.5438 0.5357 0.5241 0.5140 0.5140
2903.457961 0.5142 0.5152 0.5164 0.5184 0.5210
2907.780726 0.5256 0.5320 0.5441 0.5549 0.5620
2912.103492 0.5779 0.6153 0.6510 0.6828 0.7089
2916.426257 0.7236 0.7386 0.7543 0.7642 0.7647
2920.749022 0.7656 0.7672 0.7682 0.7687 0.7683
2925.071788 0.7668 0.7628 0.7562 0.7447 0.7285
2929.394553 0.7126 0.6969 0.6880 0.6845 0.6806
2933.717318 0.6766 0.6682 0.6571 0.6492 0.6431
2938.040084 0.6393 0.6368 0.6353 0.6343 0.6340
2942.362849 0.6340 0.6363 0.6393 0.6555 0.6757
2946.685615 0.6999 0.7252 0.7333 0.7373 0.7380
2951.008380 0.7380 0.7367 0.7352 0.7297 0.7236
2955.331145 0.7193 0.7152 0.6892 0.6619 0.6546
2959.653911 0.6481 0.6445 0.6409 0.6374 0.6338
2963.976676 0.6282 0.6227 0.6176 0.6124 0.6048
2968.299441 0.5972 0.5902 0.5831 0.5760 0.5691
2972.622207 0.5635 0.5576 0.5505 0.5434 0.5358
2976.944972 0.5268 0.5137 0.4957 0.4644 0.4372
2981.267737 0.4205 0.4054 0.3938 0.3813 0.3671
2985.590503 0.3481 0.3203 0.3019 0.2988 0.2970
2989.913268 0.2970 0.2983 0.3014 0.3068 0.3149
2994.236034 0.3207 0.3243 0.3320 0.3436 0.3528
2998.558799 0.3599 0.3667 0.3732 0.3795 0.3856
3002.881564 0.3932 0.4018 0.4123 0.4239 0.4781
3007.204330 0.5552 0.6003 0.6312 0.6407 0.6417
3011.527095 0.6498 0.6605 0.6784 0.6986 0.7058
3015.849860 0.7093 0.7304 0.7557 0.7831 0.8109
3020.172626 0.8215 0.8291 0.8358 0.8423 0.8494
3024.495391 0.8566 0.8618 0.8668 0.8733 0.8799
3028.818156 0.8850 0.8900 0.8941 0.8981 0.9001
3033.140922 0.9021 0.9036 0.9052 0.9083 0.9113
3037.463687 0.9138 0.9163 0.9188 0.9213 0.9233
3041.786453 0.9252 0.9262 0.9271 0.9276 0.9285
3046.109218 0.9305 0.9321 0.9326 0.9333 0.9343
3050.431983 0.9350 0.9350 0.9352 0.9357 0.9364
3054.754749 0.9374 0.9382 0.9387 0.9392 0.9397
3059.077514 0.9400 0.9400 0.9405 0.9415 0.9420
3063.400279 0.9420 0.9423 0.9428 0.9430 0.9430
3067.723045 0.9438 0.9454 0.9463 0.9468 0.9470
3072.045810 0.9470 0.9470 0.9470 0.9470 0.9470
3076.368575 0.9473 0.9479 0.9491 0.9506 0.9510
3080.691341 0.9510 0.9510 0.9510 0.9510 0.9510
3085.014106 0.9510 0.9510 0.9514 0.9519 0.9520
3089.336872 0.9520 0.9520 0.9520 0.9520 0.9520
3093.659637 0.9520 0.9520 0.9520 0.9520 0.9520
3097.982402 0.9520 0.9520 0.9520 0.9520 0.9520
3102.305168 0.9520 0.9520 0.9520 0.9520 0.9520
3106.627933 0.9520 0.9520 0.9520 0.9520 0.9520
3110.950698 0.9520 0.9520 0.9520 0.9520 0.9520
3115.273464 0.9523 0.9533 0.9541 0.9546 0.9550
3119.596229 0.9550 0.9550 0.9550 0.9552 0.9557
3123.918994 0.9560 0.9560 0.9560 0.9560 0.9560
3128.241760 0.9560 0.9560 0.9560 0.9565 0.9575
3132.564525 0.9580 0.9580 0.9580 0.9580 0.9583
3136.887291 0.9588 0.9593 0.9598 0.9600 0.9600
3141.210056 0.9606 0.9616 0.9623 0.9628 0.9630
3145.532821 0.9630 0.9634 0.9639 0.9647 0.9658
3149.855587 0.9660 0.9660 0.9664 0.9669 0.9678
3154.178352 0.9688 0.9690 0.9690 0.9690 0.9690
3158.501117 0.9690 0.9690 0.9690 0.9690 0.9690
3162.823883 0.9690 0.9690 0.9690 0.9690 0.9690
3167.146648 0.9690 0.9690 0.9690 0.9690 0.9690
3171.469413 0.9690 0.9690 0.9690 0.9690 0.9690
3175.792179 0.9690 0.9690 0.9690 0.9690 0.9690
3180.114944 0.9690 0.9690 0.9690 0.9690 0.9690
3184.437709 0.9690 0.9690 0.9690 0.9690 0.9690
3188.760475 0.9690 0.9690 0.9690 0.9690 0.9690
3193.083240 0.9690 0.9690 0.9690 0.9690 0.9690
3197.406006 0.9690 0.9690 0.9690 0.9690 0.9690
3201.728771 0.9690 0.9690 0.9690 0.9690 0.9690
3206.051536 0.9690 0.9690 0.9690 0.9690 0.9690
3210.374302 0.9690 0.9690 0.9690 0.9683 0.9673
3214.697067 0.9670 0.9670 0.9666 0.9661 0.9660
3219.019832 0.9660 0.9652 0.9642 0.9640 0.9640
3223.342598 0.9636 0.9631 0.9630 0.9630 0.9626
3227.665363 0.9621 0.9620 0.9620 0.9606 0.9591
3231.988128 0.9576 0.9560 0.9555 0.9550 0.9545
3236.310894 0.9540 0.9525 0.9509 0.9494 0.9479
3240.633659 0.9469 0.9459 0.9449 0.9439 0.9434
3244.956425 0.9430 0.9430 0.9429 0.9424 0.9420
3249.279190 0.9420 0.9421 0.9426 0.9431 0.9436
3253.601955 0.9443 0.9453 0.9461 0.9467 0.9476
3257.924721 0.9497 0.9517 0.9537 0.9556 0.9571
3262.247486 0.9582 0.9587 0.9592 0.9597 0.9605
3266.570251 0.9615 0.9630 0.9650 0.9670 0.9690
3270.893017 0.9708 0.9723 0.9733 0.9738 0.9751
3275.215782 0.9772 0.9780 0.9780 0.9780 0.9780
3279.538547 0.9783 0.9788 0.9790 0.9790 0.9790
3283.861313 0.9790 0.9797 0.9807 0.9810 0.9810
3288.184078 0.9810 0.9810 0.9810 0.9810 0.9810
3292.506844 0.9810 0.9810 0.9810 0.9810 0.9810
3296.829609 0.9810 0.9810 0.9810 0.9810 0.9815
3301.152374 0.9820 0.9820 0.9820 0.9820 0.9820
3305.475140 0.9820 0.9820 0.9820 0.9820 0.9820
3309.797905 0.9820 0.9820 0.9820 0.9820 0.9820
3314.120670 0.9820 0.9820 0.9820 0.9820 0.9820
3318.443436 0.9820 0.9820 0.9820 0.9820 0.9820
3322.766201 0.9820 0.9820 0.9820 0.9820 0.9820
3327.088966 0.9820 0.9820 0.9820 0.9820 0.9820
3331.411732 0.9820 0.9820 0.9820 0.9820 0.9820
3335.734497 0.9820 0.9820 0.9820 0.9820 0.9820
3340.057263 0.9820 0.9820 0.9820 0.9820 0.9820
3344.380028 0.9820 0.9820 0.9820 0.9820 0.9820
3348.702793 0.9820 0.9820 0.9820 0.9820 0.9820
3353.025559 0.9820 0.9820 0.9820 0.9820 0.9820
3357.348324 0.9820 0.9824 0.9829 0.9830 0.9830
3361.671089 0.9830 0.9830 0.9830 0.9830 0.9830
3365.993855 0.9830 0.9830 0.9830 0.9830 0.9830
3370.316620 0.9830 0.9830 0.9830 0.9830 0.9830
3374.639385 0.9830 0.9830 0.9830 0.9830 0.9830
3378.962151 0.9830 0.9830 0.9830 0.9830 0.9830
3383.284916 0.9830 0.9830 0.9832 0.9842 0.9850
3387.607682 0.9850 0.9851 0.9856 0.9860 0.9860
3391.930447 0.9861 0.9867 0.9873 0.9883 0.9890
3396.253212 0.9890 0.9892 0.9897 0.9898 0.9893
3400.575978 0.9886 0.9876 0.9868 0.9863 0.9860
3404.898743 0.9860 0.9858 0.9852 0.9850 0.9850
3409.221508 0.9850 0.9850 0.9850 0.9850 0.9850
3413.544274 0.9850 0.9850 0.9850 0.9850 0.9850
3417.867039 0.9857 0.9867 0.9870 0.9870 0.9870
3422.189804 0.9870 0.9866 0.9861 0.9856 0.9851
3426.512570 0.9838 0.9823 0.9820 0.9820 0.9816
3430.835335 0.9811 0.9810 0.9810 0.9810 0.9810
3435.158101 0.9810 0.9810 0.9810 0.9810 0.9810
3439.480866 0.9810 0.9810 0.9810 0.9810 0.9810
3443.803631 0.9810 0.9810 0.9810 0.9810 0.9810
3448.126397 0.9810 0.9810 0.9810 0.9810 0.9810
3452.449162 0.9810 0.9810 0.9810 0.9810 0.9810
3456.771927 0.9810 0.9810 0.9810 0.9810 0.9810
3461.094693 0.9810 0.9810 0.9810 0.9810 0.9810
3465.417458 0.9810 0.9810 0.9810 0.9810 0.9810
3469.740223 0.9810 0.9812 0.9817 0.9820 0.9820
3474.062989 0.9820 0.9820 0.9820 0.9820 0.9823
3478.385754 0.9828 0.9830 0.9830 0.9830 0.9830
3482.708520 0.9830 0.9830 0.9830 0.9830 0.9830
3487.031285 0.9830 0.9830 0.9830 0.9830 0.9830
3491.354050 0.9830 0.9830 0.9830 0.9830 0.9830
3495.676816 0.9830 0.9830 0.9830 0.9830 0.9830
3499.999581 0.9830 0.9830 0.9830 0.9830 0.9830
3504.322346 0.9830 0.9830 0.9830 0.9830 0.9830
3508.645112 0.9830 0.9830 0.9830 0.9830 0.9830
3512.967877 0.9830 0.9830 0.9830 0.9830 0.9830
3517.290642 0.9830 0.9830 0.9830 0.9830 0.9830
3521.613408 0.9830 0.9830 0.9830 0.9830 0.9832
3525.936173 0.9842 0.9850 0.9850 0.9850 0.9850
3530.258939 0.9850 0.9850 0.9850 0.9850 0.9850
3534.581704 0.9850 0.9850 0.9850 0.9850 0.9850
3538.904469 0.9850 0.9850 0.9850 0.9850 0.9850
3543.227235 0.9850 0.9850 0.9850 0.9850 0.9850
3547.550000 0.9850 0.9850 0.9850 0.9850 0.9850
3551.872765 0.9850 0.9850 0.9850 0.9850 0.9850
3556.195531 0.9850 0.9850 0.9850 0.9850 0.9850
3560.518296 0.9850 0.9850 0.9850 0.9850 0.9850
3564.841061 0.9850 0.9850 0.9850 0.9850 0.9850
3569.163827 0.9850 0.9841 0.9831 0.9830 0.9830
3573.486592 0.9830 0.9830 0.9830 0.9830 0.9830
3577.809358 0.9830 0.9830 0.9830 0.9830 0.9830
3582.132123 0.9825 0.9820 0.9820 0.9820 0.9820
3586.454888 0.9820 0.9820 0.9820 0.9820 0.9820
3590.777654 0.9820 0.9820 0.9820 0.9820 0.9820
3595.100419 0.9820 0.9820 0.9820 0.9820 0.9821
3599.423184 0.9827 0.9830 0.9830 0.9830 0.9830
3603.745950 0.9834 0.9844 0.9850 0.9850 0.9850
3608.068715 0.9850 0.9850 0.9850 0.9850 0.9850
3612.391480 0.9850 0.9850 0.9850 0.9850 0.9850
3616.714246 0.9850 0.9850 0.9850 0.9850 0.9850
3621.037011 0.9853 0.9858 0.9860 0.9860 0.9860
3625.359777 0.9860 0.9860 0.9860 0.9860 0.9860
3629.682542 0.9860 0.9860 0.9860 0.9860 0.9860
3634.005307 0.9860 0.9860 0.9860 0.9860 0.9860
3638.328073 0.9860 0.9860 0.9860 0.9860 0.9860
3642.650838 0.9860 0.9860 0.9860 0.9860 0.9860
3646.973603 0.9860 0.9860 0.9860 0.9860 0.9860
3651.296369 0.9860 0.9860 0.9860 0.9854 0.9851
3655.619134 0.9856 0.9861 0.9866 0.9872 0.9882
3659.941899 0.9890 0.9890 0.9892 0.9902 0.9921
3664.264665 0.9967 1.0001 1.0006 1.0010 1.0010
3668.587430 1.0008 1.0003 0.9995 0.9980 0.9959
3672.910196 0.9928 0.9906 0.9896 0.9886 0.9876
3677.232961 0.9870 0.9870 0.9868 0.9863 0.9860
3681.555726 0.9860 0.9857 0.9852 0.9845 0.9834
3685.878492 0.9824 0.9814 0.9801 0.9786 0.9780
3690.201257 0.9780 0.9790 0.9805 0.9824 0.9844
3694.524022 0.9854 0.9859 0.9864 0.9869 0.9878
3698.846788 0.9888 0.9894 0.9899 0.9904 0.9909
3703.169553 0.9910 0.9910 0.9918 0.9929 0.9930
3707.492318 0.9930 0.9930 0.9930 0.9930 0.9930
3711.815084 0.9935 0.9940 0.9940 0.9940 0.9940
3716.137849 0.9940 0.9945 0.9950 0.9950 0.9950
3720.460615 0.9950 0.9950 0.9950 0.9950 0.9950
3724.783380 0.9952 0.9962 0.9970 0.9970 0.9970
3729.106145 0.9970 0.9970 0.9970 0.9970 0.9970
3733.428911 0.9971 0.9976 0.9983 0.9993 1.0000
3737.751676 1.0000 1.0000 1.0000 1.0000 1.0000
3742.074441 1.0000 1.0000 1.0000 1.0000 1.0000
3746.397207 1.0000 0.9995 0.9985 0.9980 0.9980
3750.719972 0.9980 0.9980 0.9977 0.9972 0.9970
3755.042737 0.9970 0.9970 0.9970 0.9970 0.9970
3759.365503 0.9963 0.9953 0.9950 0.9950 0.9946
3763.688268 0.9941 0.9940 0.9940 0.9940 0.9940
3768.011034 0.9940 0.9940 0.9940 0.9940 0.9940
3772.333799 0.9940 0.9940 0.9940 0.9940 0.9940
3776.656564 0.9940 0.9940 0.9940 0.9940 0.9940
3780.979330 0.9940 0.9940 0.9940 0.9940 0.9940
3785.302095 0.9940 0.9940 0.9940 0.9940 0.9940
3789.624860 0.9940 0.9940 0.9940 0.9940 0.9940
3793.947626 0.9940 0.9940 0.9940 0.9940 0.9940
3798.270391 0.9940 0.9940 0.9940 0.9940 0.9940
3802.593156 0.9940 0.9940 0.9940 0.9940 0.9940
##END=
