##TITLE=Propanoic acid, 2-amino-2-methyl-
##JCAMP-DX=4.24
##DATA TYPE=INFRARED SPECTRUM
##CLASS=COBLENTZ III
##ORIGIN=WYANDOTTE CHEMICALS CORP.
##OWNER=Copyright (C) 1987 by the Coblentz Society
Collection (C) 2018 copyright by the U.S. Secretary of Commerce
on behalf of the United States of America. All rights reserved.
##DATE=Not specified, most likely prior to 1977
##NAMES=2-methylalanine
##CAS REGISTRY NO=62-57-7
##MOLFORM=C4 H9 N O2
##SOURCE REFERENCE=COBLENTZ NO. 9810
##$NIST SOURCE=COBLENTZ
##$NIST IMAGE=cob9810
##SPECTROMETER/DATA SYSTEM=BAIRD (PRISM)
##INSTRUMENT PARAMETERS=NaCl PRISM
##STATE=SOLID (OIL MULL)
$$SPECTRAL CONTAMINATION DUE TO OIL AROUND 1450 CM^-^1
##SAMPLING PROCEDURE=TRANSMISSION
##RESOLUTION=2
##DATA PROCESSING=DIGITIZED BY COBLENTZ SOCIETY (BATCH II) FROM HARD COPY
##XUNITS=1/CM
##YUNITS=TRANSMITTANCE
##XFACTOR=1.0
##YFACTOR=1
##FIRSTX=626
##LASTX=4000
##FIRSTY=0.6444
##MAXX=4000
##MINX=626
##MAXY=0.9981
##MINY=0.0134
##NPOINTS=3375
##XYDATA=(X++(Y..Y))
626.000000 0.6444 0.6522 0.6537 0.6691 0.6781
631.000000 0.6859 0.6936 0.7015 0.7098 0.7180
636.000000 0.7265 0.7351 0.7432 0.7512 0.7590
641.000000 0.7669 0.7747 0.7826 0.7905 0.7985
646.000000 0.8069 0.8154 0.8237 0.8321 0.8412
651.000000 0.8503 0.8592 0.8679 0.8765 0.8864
656.000000 0.8970 0.9050 0.9062 0.9017 0.8924
661.000000 0.8812 0.8729 0.8675 0.8772 0.8994
666.000000 0.9215 0.9447 0.9506 0.9515 0.9518
671.000000 0.9519 0.9516 0.9513 0.9512 0.9514
676.000000 0.9526 0.9556 0.9587 0.9617 0.9655
681.000000 0.9693 0.9732 0.9762 0.9792 0.9824
686.000000 0.9857 0.9879 0.9898 0.9915 0.9926
691.000000 0.9937 0.9943 0.9942 0.9980 0.9936
696.000000 0.9926 0.9917 0.9905 0.9891 0.9871
701.000000 0.9844 0.9811 0.9771 0.9712 0.9650
706.000000 0.9573 0.9473 0.9340 0.9158 0.8972
711.000000 0.8788 0.8544 0.8287 0.7981 0.7717
716.000000 0.7492 0.7273 0.7095 0.7072 0.7061
721.000000 0.7059 0.7160 0.7271 0.7398 0.7513
726.000000 0.7653 0.7754 0.7824 0.7888 0.7940
731.000000 0.7984 0.8014 0.8045 0.8086 0.8131
736.000000 0.8185 0.8247 0.8315 0.8383 0.8479
741.000000 0.8576 0.8664 0.8751 0.8824 0.8894
746.000000 0.8930 0.8960 0.8959 0.8957 0.8951
751.000000 0.8944 0.8938 0.8965 0.8930 0.8927
756.000000 0.8920 0.8911 0.8891 0.8865 0.8827
761.000000 0.8771 0.8690 0.8611 0.8526 0.8426
766.000000 0.8303 0.8133 0.7961 0.7872 0.7802
771.000000 0.7732 0.7648 0.7560 0.7460 0.7350
776.000000 0.7239 0.7128 0.6944 0.6662 0.6199
781.000000 0.5213 0.3877 0.2391 0.1966 0.1959
786.000000 0.1916 0.2343 0.2566 0.3320 0.4269
791.000000 0.5336 0.6400 0.7273 0.7408 0.7394
796.000000 0.6902 0.6231 0.5645 0.5626 0.6694
801.000000 0.7561 0.8426 0.9249 0.9723 0.9848
806.000000 0.9914 0.9949 0.9967 0.9977 0.9981
811.000000 0.9959 0.9958 0.9922 0.9872 0.9826
816.000000 0.9813 0.9814 0.9820 0.9827 0.9833
821.000000 0.9836 0.9834 0.9820 0.9784 0.9746
826.000000 0.9704 0.9661 0.9618 0.9576 0.9534
831.000000 0.9497 0.9459 0.9421 0.9385 0.9350
836.000000 0.9314 0.9278 0.9243 0.9208 0.9173
841.000000 0.9138 0.9104 0.9076 0.9050 0.9025
846.000000 0.8993 0.8961 0.8920 0.8874 0.8828
851.000000 0.8779 0.8729 0.8675 0.8609 0.8546
856.000000 0.8501 0.8489 0.8486 0.8483 0.8476
861.000000 0.8462 0.8407 0.8344 0.8272 0.8200
866.000000 0.8125 0.8049 0.7966 0.7880 0.7793
871.000000 0.7690 0.7577 0.7464 0.7358 0.7252
876.000000 0.7113 0.6924 0.6707 0.6453 0.6141
881.000000 0.5828 0.5569 0.5150 0.4589 0.4030
886.000000 0.3473 0.2941 0.2556 0.2198 0.2117
891.000000 0.2188 0.2649 0.3218 0.3787 0.4354
896.000000 0.4965 0.5665 0.6018 0.6345 0.6725
901.000000 0.7148 0.7511 0.7743 0.7926 0.8025
906.000000 0.8099 0.8148 0.8173 0.8212 0.8175
911.000000 0.8161 0.8144 0.8124 0.8103 0.8077
916.000000 0.8049 0.8022 0.7995 0.7969 0.7938
921.000000 0.7892 0.7845 0.7787 0.7715 0.7641
926.000000 0.7559 0.7476 0.7386 0.7279 0.7162
931.000000 0.7025 0.6867 0.6673 0.6494 0.6317
936.000000 0.6080 0.5873 0.5667 0.5514 0.5493
941.000000 0.5652 0.5955 0.6257 0.6559 0.6854
946.000000 0.7044 0.7173 0.7277 0.7374 0.7452
951.000000 0.7526 0.7575 0.7607 0.7625 0.7635
956.000000 0.7641 0.7639 0.7635 0.7631 0.7624
961.000000 0.7623 0.7618 0.7610 0.7601 0.7593
966.000000 0.7583 0.7572 0.7560 0.7552 0.7550
971.000000 0.7560 0.7573 0.7604 0.7645 0.7685
976.000000 0.7717 0.7749 0.7775 0.7798 0.7820
981.000000 0.7838 0.7856 0.7865 0.7870 0.7874
986.000000 0.7868 0.7906 0.7858 0.7851 0.7840
991.000000 0.7828 0.7814 0.7796 0.7777 0.7757
996.000000 0.7723 0.7688 0.7646 0.7603 0.7559
1001.000000 0.7507 0.7451 0.7399 0.7397 0.7370
1006.000000 0.7496 0.7576 0.7643 0.7690 0.7701
1011.000000 0.7696 0.7718 0.7675 0.7659 0.7643
1016.000000 0.7623 0.7602 0.7583 0.7562 0.7541
1021.000000 0.7522 0.7500 0.7479 0.7457 0.7436
1026.000000 0.7412 0.7386 0.7360 0.7334 0.7303
1031.000000 0.7270 0.7237 0.7204 0.7161 0.7112
1036.000000 0.7050 0.6971 0.6898 0.6833 0.6773
1041.000000 0.6722 0.6672 0.6635 0.6623 0.6633
1046.000000 0.6657 0.6695 0.6735 0.6756 0.6753
1051.000000 0.6746 0.6762 0.6709 0.6679 0.6659
1056.000000 0.6654 0.6650 0.6650 0.6652 0.6654
1061.000000 0.6655 0.6655 0.6654 0.6651 0.6635
1066.000000 0.6615 0.6593 0.6571 0.6549 0.6525
1071.000000 0.6501 0.6476 0.6455 0.6433 0.6410
1076.000000 0.6368 0.6323 0.6276 0.6199 0.6103
1081.000000 0.5925 0.5706 0.5501 0.5297 0.5093
1086.000000 0.4890 0.4687 0.4489 0.4393 0.4380
1091.000000 0.4383 0.4615 0.4932 0.5248 0.5564
1096.000000 0.5879 0.6193 0.6508 0.6815 0.6957
1101.000000 0.6982 0.6989 0.6999 0.6961 0.6929
1106.000000 0.6882 0.6841 0.6803 0.6765 0.6735
1111.000000 0.6705 0.6672 0.6632 0.6588 0.6545
1116.000000 0.6501 0.6456 0.6407 0.6357 0.6304
1121.000000 0.6236 0.6167 0.6099 0.6032 0.5967
1126.000000 0.5903 0.5850 0.5797 0.5745 0.5690
1131.000000 0.5625 0.5560 0.5495 0.5434 0.5387
1136.000000 0.5339 0.5292 0.5244 0.5197 0.5150
1141.000000 0.5102 0.5055 0.5007 0.4963 0.4919
1146.000000 0.4876 0.4832 0.4789 0.4742 0.4693
1151.000000 0.4644 0.4594 0.4545 0.4493 0.4425
1156.000000 0.4354 0.4283 0.4212 0.4143 0.4081
1161.000000 0.4020 0.3959 0.3890 0.3794 0.3698
1166.000000 0.3603 0.3518 0.3436 0.3354 0.3272
1171.000000 0.3173 0.3056 0.2945 0.2847 0.2752
1176.000000 0.2657 0.2551 0.2432 0.2314 0.2198
1181.000000 0.2086 0.1973 0.1854 0.1733 0.1609
1186.000000 0.1482 0.1355 0.1176 0.0971 0.0766
1191.000000 0.0617 0.0546 0.0524 0.0508 0.0506
1196.000000 0.0490 0.0535 0.0633 0.1023 0.1412
1201.000000 0.1801 0.2189 0.2577 0.2964 0.3350
1206.000000 0.3736 0.4121 0.4505 0.4872 0.5019
1211.000000 0.5079 0.5107 0.5117 0.5114 0.5102
1216.000000 0.5105 0.5087 0.5061 0.5028 0.4991
1221.000000 0.4950 0.4908 0.4867 0.4827 0.4786
1226.000000 0.4749 0.4715 0.4681 0.4647 0.4616
1231.000000 0.4587 0.4558 0.4532 0.4508 0.4484
1236.000000 0.4459 0.4431 0.4391 0.4345 0.4286
1241.000000 0.4226 0.4165 0.4104 0.4041 0.3965
1246.000000 0.3885 0.3805 0.3724 0.3643 0.3548
1251.000000 0.3440 0.3315 0.3170 0.3035 0.2904
1256.000000 0.2790 0.2677 0.2568 0.2464 0.2361
1261.000000 0.2258 0.2158 0.1976 0.1685 0.1405
1266.000000 0.1127 0.0854 0.0696 0.0683 0.0665
1271.000000 0.0684 0.0765 0.0941 0.1117 0.1292
1276.000000 0.1466 0.1641 0.1816 0.1990 0.2163
1281.000000 0.2277 0.2262 0.2297 0.2105 0.1931
1286.000000 0.1758 0.1584 0.1411 0.1239 0.1022
1291.000000 0.1049 0.1060 0.1258 0.1517 0.1774
1296.000000 0.2030 0.2287 0.2544 0.2800 0.3055
1301.000000 0.3310 0.3565 0.3779 0.3845 0.3895
1306.000000 0.3931 0.3955 0.3980 0.3974 0.3973
1311.000000 0.3959 0.3944 0.3926 0.3902 0.3874
1316.000000 0.3844 0.3804 0.3753 0.3696 0.3635
1321.000000 0.3572 0.3506 0.3438 0.3362 0.3283
1326.000000 0.3209 0.3144 0.3079 0.3016 0.2949
1331.000000 0.2863 0.2765 0.2666 0.2574 0.2484
1336.000000 0.2394 0.2305 0.2209 0.2106 0.2004
1341.000000 0.1896 0.1780 0.1664 0.1570 0.1490
1346.000000 0.1411 0.1319 0.1220 0.1121 0.1003
1351.000000 0.0882 0.0775 0.0674 0.0585 0.0519
1356.000000 0.0455 0.0403 0.0366 0.0331 0.0295
1361.000000 0.0272 0.0261 0.0250 0.0239 0.0233
1366.000000 0.0234 0.0237 0.0229 0.0248 0.0255
1371.000000 0.0263 0.0272 0.0281 0.0291 0.0307
1376.000000 0.0323 0.0339 0.0355 0.0507 0.0709
1381.000000 0.0911 0.1113 0.1314 0.1515 0.1715
1386.000000 0.1916 0.2116 0.2263 0.2304 0.2319
1391.000000 0.2314 0.2323 0.2314 0.2296 0.2219
1396.000000 0.2084 0.1946 0.1808 0.1670 0.1534
1401.000000 0.1396 0.1259 0.1122 0.0986 0.0849
1406.000000 0.0714 0.0577 0.0457 0.0387 0.0377
1411.000000 0.0359 0.0400 0.0421 0.0540 0.0821
1416.000000 0.1192 0.1432 0.1531 0.1637 0.1729
1421.000000 0.1764 0.1782 0.1787 0.1785 0.1778
1426.000000 0.1768 0.1749 0.1728 0.1704 0.1674
1431.000000 0.1625 0.1546 0.1443 0.1345 0.1265
1436.000000 0.1191 0.1116 0.1032 0.0947 0.0843
1441.000000 0.0731 0.0611 0.0480 0.0383 0.0346
1446.000000 0.0336 0.0328 0.0320 0.0313 0.0308
1451.000000 0.0303 0.0299 0.0294 0.0291 0.0289
1456.000000 0.0287 0.0284 0.0282 0.0281 0.0278
1461.000000 0.0277 0.0275 0.0274 0.0273 0.0272
1466.000000 0.0278 0.0288 0.0299 0.0311 0.0337
1471.000000 0.0376 0.0428 0.0481 0.0535 0.0594
1476.000000 0.0703 0.0824 0.0879 0.0935 0.0989
1481.000000 0.1040 0.1085 0.1130 0.1175 0.1226
1486.000000 0.1287 0.1348 0.1405 0.1446 0.1487
1491.000000 0.1523 0.1543 0.1555 0.1567 0.1574
1496.000000 0.1575 0.1569 0.1568 0.1553 0.1545
1501.000000 0.1533 0.1518 0.1504 0.1486 0.1463
1506.000000 0.1439 0.1415 0.1385 0.1351 0.1316
1511.000000 0.1273 0.1216 0.1166 0.1121 0.1076
1516.000000 0.1032 0.0987 0.0944 0.0899 0.0855
1521.000000 0.0811 0.0771 0.0736 0.0702 0.0668
1526.000000 0.0633 0.0599 0.0565 0.0536 0.0509
1531.000000 0.0481 0.0455 0.0431 0.0413 0.0396
1536.000000 0.0379 0.0370 0.0366 0.0362 0.0358
1541.000000 0.0355 0.0354 0.0353 0.0335 0.0350
1546.000000 0.0349 0.0348 0.0347 0.0347 0.0347
1551.000000 0.0347 0.0346 0.0346 0.0347 0.0351
1556.000000 0.0357 0.0367 0.0382 0.0403 0.0427
1561.000000 0.0450 0.0474 0.0492 0.0504 0.0510
1566.000000 0.0503 0.0509 0.0478 0.0463 0.0447
1571.000000 0.0431 0.0417 0.0403 0.0389 0.0375
1576.000000 0.0362 0.0348 0.0333 0.0319 0.0303
1581.000000 0.0288 0.0273 0.0261 0.0253 0.0245
1586.000000 0.0237 0.0229 0.0222 0.0217 0.0212
1591.000000 0.0208 0.0203 0.0202 0.0204 0.0173
1596.000000 0.0214 0.0226 0.0259 0.0320 0.0393
1601.000000 0.0467 0.0538 0.0606 0.0662 0.0701
1606.000000 0.0730 0.0742 0.0751 0.0758 0.0781
1611.000000 0.0757 0.0750 0.0738 0.0726 0.0713
1616.000000 0.0695 0.0671 0.0647 0.0622 0.0597
1621.000000 0.0571 0.0546 0.0517 0.0484 0.0449
1626.000000 0.0415 0.0384 0.0360 0.0337 0.0315
1631.000000 0.0295 0.0282 0.0269 0.0267 0.0267
1636.000000 0.0268 0.0239 0.0268 0.0275 0.0285
1641.000000 0.0296 0.0309 0.0329 0.0356 0.0407
1646.000000 0.0525 0.0667 0.0761 0.0905 0.1035
1651.000000 0.1167 0.1316 0.1556 0.1772 0.1925
1656.000000 0.2045 0.2132 0.2219 0.2306 0.2392
1661.000000 0.2472 0.2550 0.2626 0.2702 0.2810
1666.000000 0.2961 0.3136 0.3323 0.3492 0.3599
1671.000000 0.3745 0.3897 0.4039 0.4121 0.4172
1676.000000 0.4224 0.4274 0.4325 0.4376 0.4456
1681.000000 0.4538 0.4621 0.4706 0.4795 0.4888
1686.000000 0.4981 0.5068 0.5129 0.5188 0.5248
1691.000000 0.5307 0.5358 0.5404 0.5449 0.5494
1696.000000 0.5541 0.5603 0.5678 0.5756 0.5831
1701.000000 0.5892 0.5933 0.5974 0.6013 0.6054
1706.000000 0.6094 0.6134 0.6177 0.6225 0.6276
1711.000000 0.6328 0.6380 0.6430 0.6477 0.6523
1716.000000 0.6569 0.6615 0.6660 0.6703 0.6746
1721.000000 0.6788 0.6830 0.6873 0.6926 0.6999
1726.000000 0.7081 0.7171 0.7262 0.7339 0.7399
1731.000000 0.7459 0.7523 0.7595 0.7674 0.7751
1736.000000 0.7814 0.7873 0.7932 0.7990 0.8041
1741.000000 0.8069 0.8095 0.8122 0.8149 0.8176
1746.000000 0.8202 0.8229 0.8253 0.8274 0.8296
1751.000000 0.8318 0.8339 0.8361 0.8382 0.8404
1756.000000 0.8427 0.8451 0.8474 0.8499 0.8523
1761.000000 0.8547 0.8571 0.8595 0.8650 0.8707
1766.000000 0.8762 0.8810 0.8842 0.8876 0.8909
1771.000000 0.8942 0.8973 0.8998 0.9024 0.9049
1776.000000 0.9075 0.9099 0.9116 0.9132 0.9147
1781.000000 0.9162 0.9177 0.9193 0.9220 0.9249
1786.000000 0.9278 0.9308 0.9334 0.9358 0.9382
1791.000000 0.9407 0.9431 0.9450 0.9468 0.9486
1796.000000 0.9504 0.9521 0.9539 0.9555 0.9569
1801.000000 0.9582 0.9596 0.9609 0.9622 0.9635
1806.000000 0.9648 0.9661 0.9673 0.9682 0.9690
1811.000000 0.9699 0.9708 0.9717 0.9726 0.9735
1816.000000 0.9744 0.9752 0.9758 0.9763 0.9766
1821.000000 0.9770 0.9775 0.9779 0.9782 0.9786
1826.000000 0.9790 0.9792 0.9795 0.9797 0.9798
1831.000000 0.9800 0.9802 0.9804 0.9805 0.9807
1836.000000 0.9810 0.9813 0.9817 0.9822 0.9826
1841.000000 0.9831 0.9835 0.9841 0.9847 0.9855
1846.000000 0.9863 0.9870 0.9878 0.9882 0.9883
1851.000000 0.9883 0.9884 0.9884 0.9884 0.9903
1856.000000 0.9880 0.9878 0.9874 0.9871 0.9867
1861.000000 0.9862 0.9858 0.9854 0.9851 0.9847
1866.000000 0.9844 0.9841 0.9838 0.9835 0.9831
1871.000000 0.9827 0.9824 0.9821 0.9818 0.9815
1876.000000 0.9812 0.9808 0.9805 0.9802 0.9798
1881.000000 0.9795 0.9791 0.9787 0.9782 0.9778
1886.000000 0.9773 0.9768 0.9762 0.9756 0.9750
1891.000000 0.9743 0.9730 0.9716 0.9702 0.9684
1896.000000 0.9666 0.9648 0.9628 0.9609 0.9590
1901.000000 0.9570 0.9551 0.9533 0.9516 0.9500
1906.000000 0.9483 0.9468 0.9455 0.9446 0.9437
1911.000000 0.9429 0.9421 0.9413 0.9404 0.9396
1916.000000 0.9388 0.9380 0.9373 0.9368 0.9363
1921.000000 0.9358 0.9354 0.9349 0.9345 0.9340
1926.000000 0.9336 0.9330 0.9324 0.9318 0.9312
1931.000000 0.9305 0.9299 0.9293 0.9286 0.9280
1936.000000 0.9274 0.9268 0.9261 0.9254 0.9246
1941.000000 0.9237 0.9229 0.9220 0.9211 0.9202
1946.000000 0.9193 0.9185 0.9176 0.9166 0.9154
1951.000000 0.9132 0.9108 0.9085 0.9062 0.9039
1956.000000 0.9016 0.8990 0.8963 0.8935 0.8908
1961.000000 0.8882 0.8854 0.8802 0.8743 0.8712
1966.000000 0.8682 0.8651 0.8621 0.8589 0.8556
1971.000000 0.8521 0.8485 0.8449 0.8414 0.8371
1976.000000 0.8309 0.8243 0.8179 0.8128 0.8086
1981.000000 0.8051 0.8016 0.7981 0.7946 0.7910
1986.000000 0.7875 0.7838 0.7801 0.7763 0.7727
1991.000000 0.7690 0.7653 0.7618 0.7585 0.7555
1996.000000 0.7525 0.7495 0.7464 0.7434 0.7404
2001.000000 0.7374 0.7343 0.7312 0.7272 0.7231
2006.000000 0.7188 0.7146 0.7105 0.7077 0.7052
2011.000000 0.7030 0.7009 0.6987 0.6965 0.6943
2016.000000 0.6921 0.6900 0.6878 0.6857 0.6836
2021.000000 0.6816 0.6800 0.6784 0.6769 0.6754
2026.000000 0.6738 0.6723 0.6707 0.6692 0.6677
2031.000000 0.6662 0.6651 0.6641 0.6632 0.6623
2036.000000 0.6614 0.6605 0.6596 0.6587 0.6578
2041.000000 0.6569 0.6560 0.6552 0.6545 0.6540
2046.000000 0.6537 0.6534 0.6531 0.6527 0.6524
2051.000000 0.6521 0.6517 0.6514 0.6511 0.6511
2056.000000 0.6511 0.6511 0.6511 0.6511 0.6493
2061.000000 0.6512 0.6512 0.6513 0.6517 0.6524
2066.000000 0.6532 0.6542 0.6552 0.6567 0.6583
2071.000000 0.6599 0.6620 0.6642 0.6674 0.6722
2076.000000 0.6806 0.6868 0.6915 0.6960 0.7006
2081.000000 0.7051 0.7091 0.7125 0.7155 0.7182
2086.000000 0.7209 0.7234 0.7254 0.7272 0.7290
2091.000000 0.7307 0.7325 0.7337 0.7350 0.7363
2096.000000 0.7376 0.7392 0.7407 0.7422 0.7438
2101.000000 0.7454 0.7474 0.7494 0.7515 0.7538
2106.000000 0.7564 0.7591 0.7619 0.7645 0.7675
2111.000000 0.7710 0.7742 0.7773 0.7796 0.7816
2116.000000 0.7821 0.7824 0.7827 0.7830 0.7833
2121.000000 0.7836 0.7840 0.7843 0.7845 0.7847
2126.000000 0.7848 0.7849 0.7850 0.7852 0.7854
2131.000000 0.7858 0.7862 0.7866 0.7870 0.7875
2136.000000 0.7879 0.7885 0.7897 0.7909 0.7921
2141.000000 0.7936 0.7953 0.7973 0.7994 0.8008
2146.000000 0.8023 0.8036 0.8047 0.8054 0.8060
2151.000000 0.8063 0.8066 0.8068 0.8069 0.8070
2156.000000 0.8069 0.8068 0.8066 0.8065 0.8064
2161.000000 0.8062 0.8061 0.8060 0.8058 0.8056
2166.000000 0.8054 0.8062 0.8047 0.8044 0.8041
2171.000000 0.8038 0.8035 0.8031 0.8028 0.8023
2176.000000 0.8019 0.8014 0.8009 0.8004 0.7999
2181.000000 0.7994 0.7989 0.7984 0.7980 0.7975
2186.000000 0.7969 0.7963 0.7957 0.7951 0.7945
2191.000000 0.7939 0.7933 0.7927 0.7921 0.7915
2196.000000 0.7909 0.7903 0.7895 0.7886 0.7875
2201.000000 0.7864 0.7854 0.7844 0.7834 0.7823
2206.000000 0.7812 0.7801 0.7788 0.7776 0.7763
2211.000000 0.7750 0.7737 0.7724 0.7711 0.7698
2216.000000 0.7685 0.7671 0.7658 0.7645 0.7631
2221.000000 0.7617 0.7604 0.7590 0.7576 0.7563
2226.000000 0.7549 0.7534 0.7519 0.7502 0.7485
2231.000000 0.7468 0.7452 0.7435 0.7419 0.7402
2236.000000 0.7386 0.7369 0.7353 0.7336 0.7320
2241.000000 0.7302 0.7283 0.7265 0.7247 0.7229
2246.000000 0.7211 0.7193 0.7175 0.7157 0.7139
2251.000000 0.7119 0.7099 0.7076 0.7052 0.7029
2256.000000 0.7005 0.6981 0.6958 0.6934 0.6911
2261.000000 0.6887 0.6863 0.6839 0.6815 0.6790
2266.000000 0.6765 0.6740 0.6716 0.6692 0.6668
2271.000000 0.6643 0.6619 0.6595 0.6573 0.6551
2276.000000 0.6529 0.6508 0.6486 0.6465 0.6444
2281.000000 0.6422 0.6401 0.6380 0.6358 0.6337
2286.000000 0.6312 0.6287 0.6261 0.6236 0.6211
2291.000000 0.6186 0.6161 0.6136 0.6111 0.6086
2296.000000 0.6060 0.6031 0.5999 0.5951 0.5907
2301.000000 0.5897 0.5887 0.5877 0.5867 0.5857
2306.000000 0.5847 0.5836 0.5825 0.5815 0.5806
2311.000000 0.5800 0.5797 0.5795 0.5792 0.5789
2316.000000 0.5786 0.5782 0.5780 0.5777 0.5774
2321.000000 0.5771 0.5768 0.5766 0.5763 0.5759
2326.000000 0.5756 0.5754 0.5751 0.5748 0.5745
2331.000000 0.5743 0.5740 0.5737 0.5735 0.5733
2336.000000 0.5731 0.5728 0.5726 0.5724 0.5721
2341.000000 0.5719 0.5717 0.5715 0.5712 0.5710
2346.000000 0.5707 0.5705 0.5702 0.5698 0.5695
2351.000000 0.5692 0.5688 0.5685 0.5682 0.5678
2356.000000 0.5675 0.5672 0.5668 0.5662 0.5654
2361.000000 0.5645 0.5635 0.5624 0.5613 0.5602
2366.000000 0.5591 0.5579 0.5565 0.5551 0.5536
2371.000000 0.5519 0.5502 0.5480 0.5459 0.5437
2376.000000 0.5416 0.5394 0.5373 0.5350 0.5324
2381.000000 0.5298 0.5272 0.5245 0.5219 0.5193
2386.000000 0.5166 0.5140 0.5114 0.5088 0.5062
2391.000000 0.5036 0.5010 0.4985 0.4959 0.4934
2396.000000 0.4910 0.4886 0.4862 0.4838 0.4814
2401.000000 0.4790 0.4767 0.4744 0.4721 0.4699
2406.000000 0.4677 0.4655 0.4632 0.4610 0.4588
2411.000000 0.4567 0.4547 0.4528 0.4511 0.4493
2416.000000 0.4476 0.4458 0.4440 0.4420 0.4400
2421.000000 0.4370 0.4339 0.4307 0.4275 0.4242
2426.000000 0.4207 0.4171 0.4134 0.4096 0.4064
2431.000000 0.4040 0.4016 0.4002 0.3988 0.3974
2436.000000 0.3960 0.3946 0.3932 0.3918 0.3904
2441.000000 0.3890 0.3876 0.3862 0.3848 0.3832
2446.000000 0.3815 0.3798 0.3780 0.3762 0.3745
2451.000000 0.3727 0.3715 0.3702 0.3691 0.3680
2456.000000 0.3669 0.3659 0.3648 0.3639 0.3630
2461.000000 0.3622 0.3615 0.3609 0.3603 0.3596
2466.000000 0.3590 0.3584 0.3576 0.3560 0.3544
2471.000000 0.3528 0.3511 0.3493 0.3468 0.3444
2476.000000 0.3418 0.3391 0.3366 0.3346 0.3325
2481.000000 0.3304 0.3284 0.3264 0.3243 0.3222
2486.000000 0.3200 0.3176 0.3151 0.3122 0.3094
2491.000000 0.3065 0.3036 0.3007 0.2978 0.2949
2496.000000 0.2918 0.2887 0.2856 0.2825 0.2795
2501.000000 0.2763 0.2732 0.2703 0.2677 0.2651
2506.000000 0.2625 0.2599 0.2573 0.2548 0.2523
2511.000000 0.2497 0.2471 0.2446 0.2421 0.2397
2516.000000 0.2372 0.2348 0.2323 0.2299 0.2274
2521.000000 0.2250 0.2225 0.2201 0.2181 0.2160
2526.000000 0.2140 0.2120 0.2100 0.2079 0.2059
2531.000000 0.2039 0.2019 0.1999 0.1980 0.1961
2536.000000 0.1943 0.1925 0.1908 0.1891 0.1874
2541.000000 0.1856 0.1839 0.1822 0.1805 0.1788
2546.000000 0.1770 0.1753 0.1736 0.1718 0.1701
2551.000000 0.1684 0.1666 0.1648 0.1630 0.1612
2556.000000 0.1595 0.1577 0.1559 0.1541 0.1523
2561.000000 0.1505 0.1486 0.1465 0.1444 0.1422
2566.000000 0.1400 0.1378 0.1356 0.1334 0.1312
2571.000000 0.1290 0.1268 0.1249 0.1231 0.1213
2576.000000 0.1196 0.1180 0.1163 0.1147 0.1130
2581.000000 0.1116 0.1101 0.1090 0.1086 0.1082
2586.000000 0.1078 0.1074 0.1069 0.1068 0.1066
2591.000000 0.1050 0.1065 0.1066 0.1067 0.1068
2596.000000 0.1068 0.1071 0.1074 0.1080 0.1100
2601.000000 0.1120 0.1142 0.1165 0.1189 0.1212
2606.000000 0.1236 0.1259 0.1282 0.1306 0.1329
2611.000000 0.1352 0.1375 0.1398 0.1422 0.1445
2616.000000 0.1468 0.1491 0.1514 0.1537 0.1561
2621.000000 0.1584 0.1607 0.1630 0.1653 0.1676
2626.000000 0.1699 0.1710 0.1720 0.1728 0.1726
2631.000000 0.1724 0.1722 0.1718 0.1715 0.1701
2636.000000 0.1683 0.1664 0.1645 0.1626 0.1607
2641.000000 0.1588 0.1569 0.1550 0.1531 0.1512
2646.000000 0.1493 0.1474 0.1455 0.1436 0.1418
2651.000000 0.1399 0.1380 0.1361 0.1342 0.1323
2656.000000 0.1304 0.1285 0.1266 0.1247 0.1229
2661.000000 0.1210 0.1191 0.1173 0.1156 0.1139
2666.000000 0.1128 0.1120 0.1112 0.1101 0.1089
2671.000000 0.1078 0.1065 0.1053 0.1041 0.1036
2676.000000 0.1030 0.1025 0.1021 0.1018 0.1014
2681.000000 0.1010 0.1007 0.1004 0.1003 0.1001
2686.000000 0.1000 0.0999 0.0999 0.0998 0.0997
2691.000000 0.0997 0.0996 0.0995 0.0994 0.0994
2696.000000 0.0993 0.0993 0.0993 0.0993 0.0992
2701.000000 0.0992 0.0992 0.0992 0.0992 0.0992
2706.000000 0.0991 0.0991 0.0991 0.0990 0.0990
2711.000000 0.0990 0.0989 0.0988 0.0988 0.0985
2716.000000 0.0980 0.0975 0.0971 0.0966 0.0961
2721.000000 0.0953 0.0943 0.0934 0.0922 0.0910
2726.000000 0.0898 0.0886 0.0875 0.0863 0.0852
2731.000000 0.0841 0.0830 0.0819 0.0807 0.0796
2736.000000 0.0785 0.0773 0.0761 0.0750 0.0738
2741.000000 0.0727 0.0716 0.0704 0.0693 0.0682
2746.000000 0.0671 0.0659 0.0648 0.0637 0.0627
2751.000000 0.0616 0.0605 0.0595 0.0584 0.0574
2756.000000 0.0563 0.0553 0.0543 0.0532 0.0522
2761.000000 0.0512 0.0501 0.0492 0.0483 0.0475
2766.000000 0.0466 0.0458 0.0450 0.0442 0.0434
2771.000000 0.0426 0.0417 0.0409 0.0401 0.0394
2776.000000 0.0387 0.0381 0.0374 0.0368 0.0362
2781.000000 0.0356 0.0350 0.0343 0.0337 0.0331
2786.000000 0.0325 0.0319 0.0313 0.0307 0.0301
2791.000000 0.0295 0.0290 0.0285 0.0280 0.0276
2796.000000 0.0271 0.0267 0.0262 0.0258 0.0254
2801.000000 0.0249 0.0245 0.0240 0.0235 0.0230
2806.000000 0.0226 0.0221 0.0217 0.0212 0.0209
2811.000000 0.0206 0.0203 0.0200 0.0197 0.0194
2816.000000 0.0192 0.0189 0.0186 0.0183 0.0180
2821.000000 0.0177 0.0174 0.0171 0.0168 0.0165
2826.000000 0.0165 0.0164 0.0164 0.0163 0.0162
2831.000000 0.0162 0.0161 0.0160 0.0160 0.0159
2836.000000 0.0159 0.0158 0.0157 0.0157 0.0156
2841.000000 0.0155 0.0155 0.0155 0.0155 0.0154
2846.000000 0.0153 0.0153 0.0152 0.0152 0.0151
2851.000000 0.0150 0.0150 0.0149 0.0148 0.0148
2856.000000 0.0147 0.0147 0.0146 0.0146 0.0146
2861.000000 0.0145 0.0145 0.0145 0.0144 0.0144
2866.000000 0.0143 0.0142 0.0142 0.0142 0.0142
2871.000000 0.0141 0.0141 0.0141 0.0140 0.0140
2876.000000 0.0140 0.0139 0.0139 0.0138 0.0138
2881.000000 0.0137 0.0137 0.0137 0.0136 0.0136
2886.000000 0.0136 0.0136 0.0136 0.0136 0.0136
2891.000000 0.0137 0.0137 0.0137 0.0137 0.0137
2896.000000 0.0137 0.0138 0.0138 0.0138 0.0138
2901.000000 0.0138 0.0138 0.0138 0.0139 0.0139
2906.000000 0.0139 0.0134 0.0140 0.0140 0.0140
2911.000000 0.0140 0.0140 0.0140 0.0141 0.0141
2916.000000 0.0141 0.0141 0.0141 0.0141 0.0141
2921.000000 0.0142 0.0142 0.0142 0.0143 0.0143
2926.000000 0.0143 0.0143 0.0143 0.0143 0.0143
2931.000000 0.0144 0.0144 0.0144 0.0144 0.0144
2936.000000 0.0144 0.0144 0.0145 0.0145 0.0145
2941.000000 0.0145 0.0146 0.0146 0.0146 0.0147
2946.000000 0.0147 0.0147 0.0147 0.0148 0.0148
2951.000000 0.0148 0.0149 0.0149 0.0149 0.0149
2956.000000 0.0150 0.0150 0.0150 0.0151 0.0151
2961.000000 0.0152 0.0152 0.0153 0.0153 0.0153
2966.000000 0.0154 0.0154 0.0154 0.0154 0.0155
2971.000000 0.0155 0.0155 0.0156 0.0156 0.0157
2976.000000 0.0157 0.0158 0.0159 0.0160 0.0161
2981.000000 0.0162 0.0162 0.0163 0.0164 0.0165
2986.000000 0.0166 0.0167 0.0167 0.0168 0.0169
2991.000000 0.0170 0.0171 0.0172 0.0172 0.0173
2996.000000 0.0174 0.0175 0.0176 0.0177 0.0177
3001.000000 0.0178 0.0179 0.0180 0.0181 0.0182
3006.000000 0.0182 0.0183 0.0184 0.0185 0.0187
3011.000000 0.0188 0.0189 0.0191 0.0192 0.0194
3016.000000 0.0195 0.0196 0.0198 0.0199 0.0200
3021.000000 0.0202 0.0203 0.0205 0.0206 0.0207
3026.000000 0.0209 0.0210 0.0212 0.0213 0.0215
3031.000000 0.0218 0.0221 0.0224 0.0228 0.0231
3036.000000 0.0235 0.0239 0.0243 0.0247 0.0250
3041.000000 0.0254 0.0258 0.0262 0.0265 0.0269
3046.000000 0.0274 0.0278 0.0282 0.0287 0.0293
3051.000000 0.0299 0.0305 0.0312 0.0318 0.0324
3056.000000 0.0330 0.0337 0.0344 0.0351 0.0359
3061.000000 0.0372 0.0385 0.0399 0.0412 0.0425
3066.000000 0.0439 0.0452 0.0469 0.0489 0.0510
3071.000000 0.0530 0.0553 0.0578 0.0602 0.0626
3076.000000 0.0644 0.0663 0.0681 0.0699 0.0715
3081.000000 0.0732 0.0748 0.0764 0.0780 0.0796
3086.000000 0.0812 0.0830 0.0850 0.0869 0.0889
3091.000000 0.0915 0.0942 0.0969 0.0997 0.1021
3096.000000 0.1045 0.1068 0.1092 0.1111 0.1131
3101.000000 0.1151 0.1171 0.1190 0.1210 0.1229
3106.000000 0.1248 0.1268 0.1287 0.1306 0.1324
3111.000000 0.1340 0.1357 0.1374 0.1391 0.1408
3116.000000 0.1425 0.1442 0.1459 0.1475 0.1492
3121.000000 0.1509 0.1527 0.1545 0.1563 0.1582
3126.000000 0.1601 0.1621 0.1641 0.1661 0.1681
3131.000000 0.1702 0.1722 0.1742 0.1764 0.1785
3136.000000 0.1807 0.1829 0.1853 0.1876 0.1900
3141.000000 0.1923 0.1947 0.1971 0.1994 0.2020
3146.000000 0.2050 0.2079 0.2109 0.2139 0.2169
3151.000000 0.2199 0.2229 0.2266 0.2314 0.2361
3156.000000 0.2409 0.2446 0.2471 0.2497 0.2522
3161.000000 0.2546 0.2570 0.2594 0.2617 0.2656
3166.000000 0.2714 0.2772 0.2831 0.2888 0.2946
3171.000000 0.3004 0.3062 0.3119 0.3177 0.3235
3176.000000 0.3293 0.3350 0.3408 0.3466 0.3523
3181.000000 0.3581 0.3638 0.3695 0.3753 0.3810
3186.000000 0.3867 0.3925 0.3982 0.4039 0.4096
3191.000000 0.4153 0.4210 0.4267 0.4324 0.4381
3196.000000 0.4438 0.4495 0.4552 0.4609 0.4666
3201.000000 0.4723 0.4780 0.4836 0.4893 0.4949
3206.000000 0.5006 0.5063 0.5119 0.5176 0.5232
3211.000000 0.5289 0.5345 0.5402 0.5458 0.5514
3216.000000 0.5570 0.5626 0.5682 0.5739 0.5795
3221.000000 0.5851 0.5907 0.5963 0.6019 0.6075
3226.000000 0.6131 0.6187 0.6243 0.6298 0.6354
3231.000000 0.6410 0.6465 0.6521 0.6577 0.6632
3236.000000 0.6688 0.6743 0.6799 0.6856 0.6914
3241.000000 0.6972 0.7030 0.7077 0.7110 0.7144
3246.000000 0.7177 0.7218 0.7280 0.7342 0.7405
3251.000000 0.7467 0.7508 0.7549 0.7590 0.7631
3256.000000 0.7735 0.7856 0.7976 0.8097 0.8168
3261.000000 0.8199 0.8229 0.8260 0.8293 0.8331
3266.000000 0.8369 0.8407 0.8445 0.8507 0.8568
3271.000000 0.8630 0.8691 0.8719 0.8735 0.8751
3276.000000 0.8768 0.8784 0.8801 0.8817 0.8834
3281.000000 0.8849 0.8860 0.8872 0.8883 0.8894
3286.000000 0.8905 0.8916 0.8927 0.8938 0.8949
3291.000000 0.8960 0.8971 0.8983 0.8994 0.9004
3296.000000 0.9015 0.9026 0.9037 0.9045 0.9053
3301.000000 0.9061 0.9069 0.9075 0.9080 0.9085
3306.000000 0.9090 0.9095 0.9100 0.9105 0.9110
3311.000000 0.9115 0.9120 0.9125 0.9130 0.9135
3316.000000 0.9140 0.9145 0.9150 0.9155 0.9160
3321.000000 0.9165 0.9170 0.9175 0.9180 0.9185
3326.000000 0.9190 0.9195 0.9200 0.9205 0.9210
3331.000000 0.9214 0.9219 0.9224 0.9228 0.9232
3336.000000 0.9236 0.9240 0.9244 0.9248 0.9252
3341.000000 0.9256 0.9261 0.9264 0.9268 0.9272
3346.000000 0.9276 0.9280 0.9284 0.9288 0.9292
3351.000000 0.9296 0.9300 0.9304 0.9308 0.9312
3356.000000 0.9316 0.9319 0.9323 0.9327 0.9331
3361.000000 0.9335 0.9339 0.9343 0.9347 0.9351
3366.000000 0.9355 0.9358 0.9362 0.9366 0.9370
3371.000000 0.9374 0.9378 0.9381 0.9385 0.9389
3376.000000 0.9393 0.9397 0.9401 0.9405 0.9409
3381.000000 0.9413 0.9417 0.9421 0.9425 0.9429
3386.000000 0.9432 0.9436 0.9440 0.9445 0.9449
3391.000000 0.9453 0.9457 0.9461 0.9465 0.9469
3396.000000 0.9473 0.9477 0.9480 0.9484 0.9488
3401.000000 0.9492 0.9496 0.9500 0.9504 0.9508
3406.000000 0.9512 0.9516 0.9520 0.9524 0.9528
3411.000000 0.9532 0.9536 0.9540 0.9543 0.9547
3416.000000 0.9552 0.9556 0.9561 0.9565 0.9570
3421.000000 0.9574 0.9579 0.9583 0.9588 0.9592
3426.000000 0.9597 0.9601 0.9605 0.9610 0.9614
3431.000000 0.9619 0.9623 0.9628 0.9632 0.9637
3436.000000 0.9642 0.9646 0.9651 0.9655 0.9659
3441.000000 0.9663 0.9667 0.9671 0.9675 0.9677
3446.000000 0.9680 0.9682 0.9685 0.9687 0.9690
3451.000000 0.9692 0.9695 0.9697 0.9700 0.9702
3456.000000 0.9705 0.9707 0.9710 0.9712 0.9715
3461.000000 0.9717 0.9720 0.9722 0.9725 0.9727
3466.000000 0.9730 0.9732 0.9735 0.9737 0.9739
3471.000000 0.9742 0.9744 0.9746 0.9748 0.9750
3476.000000 0.9752 0.9753 0.9755 0.9757 0.9759
3481.000000 0.9761 0.9763 0.9765 0.9767 0.9769
3486.000000 0.9771 0.9773 0.9775 0.9777 0.9779
3491.000000 0.9780 0.9782 0.9783 0.9784 0.9786
3496.000000 0.9787 0.9788 0.9789 0.9790 0.9790
3501.000000 0.9791 0.9792 0.9793 0.9794 0.9794
3506.000000 0.9795 0.9796 0.9797 0.9797 0.9798
3511.000000 0.9798 0.9799 0.9800 0.9801 0.9802
3516.000000 0.9802 0.9803 0.9804 0.9804 0.9805
3521.000000 0.9805 0.9805 0.9805 0.9805 0.9805
3526.000000 0.9805 0.9804 0.9804 0.9803 0.9803
3531.000000 0.9803 0.9807 0.9802 0.9802 0.9802
3536.000000 0.9802 0.9801 0.9801 0.9800 0.9800
3541.000000 0.9800 0.9799 0.9799 0.9799 0.9799
3546.000000 0.9799 0.9798 0.9798 0.9798 0.9798
3551.000000 0.9798 0.9797 0.9797 0.9796 0.9796
3556.000000 0.9796 0.9795 0.9795 0.9795 0.9795
3561.000000 0.9795 0.9794 0.9793 0.9792 0.9792
3566.000000 0.9791 0.9790 0.9789 0.9788 0.9787
3571.000000 0.9786 0.9785 0.9784 0.9783 0.9783
3576.000000 0.9782 0.9781 0.9780 0.9780 0.9779
3581.000000 0.9778 0.9777 0.9776 0.9776 0.9775
3586.000000 0.9774 0.9773 0.9772 0.9771 0.9769
3591.000000 0.9768 0.9766 0.9765 0.9764 0.9762
3596.000000 0.9761 0.9760 0.9758 0.9757 0.9756
3601.000000 0.9754 0.9753 0.9752 0.9750 0.9749
3606.000000 0.9748 0.9746 0.9745 0.9743 0.9742
3611.000000 0.9740 0.9739 0.9737 0.9736 0.9734
3616.000000 0.9733 0.9732 0.9730 0.9728 0.9727
3621.000000 0.9725 0.9723 0.9721 0.9718 0.9716
3626.000000 0.9713 0.9710 0.9708 0.9705 0.9702
3631.000000 0.9699 0.9696 0.9694 0.9691 0.9688
3636.000000 0.9685 0.9683 0.9680 0.9678 0.9675
3641.000000 0.9672 0.9670 0.9667 0.9664 0.9662
3646.000000 0.9659 0.9656 0.9653 0.9650 0.9648
3651.000000 0.9645 0.9642 0.9640 0.9637 0.9634
3656.000000 0.9632 0.9629 0.9627 0.9624 0.9621
3661.000000 0.9618 0.9615 0.9611 0.9607 0.9604
3666.000000 0.9600 0.9596 0.9592 0.9588 0.9584
3671.000000 0.9580 0.9576 0.9572 0.9568 0.9563
3676.000000 0.9559 0.9555 0.9551 0.9547 0.9543
3681.000000 0.9539 0.9535 0.9531 0.9527 0.9523
3686.000000 0.9519 0.9515 0.9511 0.9507 0.9503
3691.000000 0.9499 0.9495 0.9490 0.9486 0.9482
3696.000000 0.9478 0.9474 0.9469 0.9465 0.9460
3701.000000 0.9456 0.9451 0.9447 0.9442 0.9437
3706.000000 0.9433 0.9428 0.9423 0.9418 0.9414
3711.000000 0.9409 0.9405 0.9400 0.9396 0.9391
3716.000000 0.9387 0.9382 0.9378 0.9373 0.9369
3721.000000 0.9364 0.9360 0.9355 0.9351 0.9346
3726.000000 0.9341 0.9337 0.9332 0.9327 0.9323
3731.000000 0.9318 0.9314 0.9309 0.9305 0.9301
3736.000000 0.9296 0.9292 0.9288 0.9284 0.9280
3741.000000 0.9276 0.9273 0.9269 0.9264 0.9260
3746.000000 0.9256 0.9252 0.9248 0.9244 0.9240
3751.000000 0.9236 0.9232 0.9228 0.9225 0.9221
3756.000000 0.9217 0.9213 0.9209 0.9205 0.9201
3761.000000 0.9197 0.9193 0.9190 0.9186 0.9182
3766.000000 0.9178 0.9174 0.9170 0.9166 0.9162
3771.000000 0.9158 0.9155 0.9151 0.9147 0.9143
3776.000000 0.9139 0.9136 0.9132 0.9129 0.9126
3781.000000 0.9122 0.9119 0.9116 0.9112 0.9109
3786.000000 0.9106 0.9102 0.9099 0.9096 0.9093
3791.000000 0.9090 0.9087 0.9083 0.9080 0.9077
3796.000000 0.9074 0.9070 0.9067 0.9064 0.9061
3801.000000 0.9057 0.9054 0.9051 0.9047 0.9044
3806.000000 0.9041 0.9038 0.9034 0.9031 0.9028
3811.000000 0.9024 0.9021 0.9018 0.9015 0.9012
3816.000000 0.9009 0.9006 0.9003 0.8999 0.8996
3821.000000 0.8993 0.8990 0.8986 0.8983 0.8979
3826.000000 0.8976 0.8973 0.8969 0.8966 0.8962
3831.000000 0.8959 0.8956 0.8952 0.8949 0.8945
3836.000000 0.8942 0.8938 0.8935 0.8931 0.8927
3841.000000 0.8924 0.8921 0.8917 0.8914 0.8910
3846.000000 0.8907 0.8904 0.8900 0.8897 0.8894
3851.000000 0.8890 0.8887 0.8882 0.8877 0.8872
3856.000000 0.8867 0.8862 0.8857 0.8851 0.8845
3861.000000 0.8839 0.8833 0.8827 0.8821 0.8816
3866.000000 0.8810 0.8804 0.8799 0.8793 0.8787
3871.000000 0.8783 0.8778 0.8773 0.8769 0.8764
3876.000000 0.8759 0.8755 0.8750 0.8745 0.8741
3881.000000 0.8736 0.8731 0.8728 0.8725 0.8722
3886.000000 0.8718 0.8715 0.8712 0.8709 0.8706
3891.000000 0.8704 0.8701 0.8698 0.8696 0.8693
3896.000000 0.8691 0.8688 0.8686 0.8683 0.8681
3901.000000 0.8678 0.8676 0.8673 0.8670 0.8668
3906.000000 0.8665 0.8663 0.8661 0.8660 0.8658
3911.000000 0.8656 0.8654 0.8652 0.8651 0.8649
3916.000000 0.8648 0.8646 0.8644 0.8643 0.8641
3921.000000 0.8639 0.8638 0.8636 0.8635 0.8633
3926.000000 0.8632 0.8630 0.8629 0.8627 0.8626
3931.000000 0.8624 0.8623 0.8621 0.8619 0.8618
3936.000000 0.8616 0.8615 0.8613 0.8611 0.8610
3941.000000 0.8608 0.8606 0.8605 0.8603 0.8602
3946.000000 0.8600 0.8598 0.8597 0.8595 0.8593
3951.000000 0.8591 0.8588 0.8586 0.8584 0.8581
3956.000000 0.8579 0.8576 0.8574 0.8572 0.8569
3961.000000 0.8567 0.8564 0.8562 0.8559 0.8557
3966.000000 0.8554 0.8552 0.8549 0.8546 0.8544
3971.000000 0.8541 0.8538 0.8536 0.8533 0.8530
3976.000000 0.8527 0.8523 0.8520 0.8516 0.8513
3981.000000 0.8509 0.8506 0.8503 0.8499 0.8496
3986.000000 0.8493 0.8489 0.8486 0.8482 0.8479
3991.000000 0.8476 0.8472 0.8469 0.8465 0.8462
3996.000000 0.8458 0.8455 0.8451 0.8448 0.8445
##END=
