##TITLE=ANILINE
##JCAMP-DX=4.24
##DATA TYPE=INFRARED SPECTRUM
##CLASS=COBLENTZ III
##ORIGIN=WESTERN REGIONAL RES. USDA
##OWNER=COBLENTZ SOCIETY
Collection (C) 2018 copyright by the U.S. Secretary of Commerce
on behalf of the United States of America. All rights reserved.
##DATE=1964/05/11
##NAMES=phenylamine
##CAS REGISTRY NO=62-53-3
##MOLFORM=C6 H7 N
##SOURCE REFERENCE=COBLENTZ NO. 9869
##$NIST SOURCE=COBLENTZ
##$NIST IMAGE=cob9869
##SPECTROMETER/DATA SYSTEM=BECKMAN IR-7 (GRATING)
##INSTRUMENT PARAMETERS=GRATING CHANGES AT 3000, 2000, 1150 CM^-^1
##STATE=LIQUID (NEAT)
##PATH LENGTH=
$$ SEE SPECTRUM NO. 4834 FOR "10% SOLUTION" RUN
##SAMPLING PROCEDURE=TRANSMISSION
##RESOLUTION=4
##DATA PROCESSING=DIGITIZED BY NIST FROM HARD COPY (FROM TWO SEGMENTS)
##XUNITS=1/CM
##YUNITS=TRANSMITTANCE
##XFACTOR=1.000000
##YFACTOR=1
##DELTAX=0.806453
##FIRSTX=600
##LASTX=3952.43
##FIRSTY=0.505
##MAXX=3952.43
##MINX=600
##MAXY=0.823
##MINY=0.00700004
##NPOINTS=4158
##XYDATA=(X++(Y..Y))
600.000000 0.5050 0.5020 0.4990 0.4960 0.4940
604.032265 0.5050 0.4990 0.4960 0.4940 0.4910
608.064531 0.4900 0.4870 0.4860 0.4840 0.4820
612.096796 0.4800 0.4790 0.4770 0.4750 0.4730
616.129061 0.4710 0.4700 0.4680 0.4660 0.4630
620.161326 0.4620 0.4590 0.4570 0.4540 0.4510
624.193592 0.4480 0.4450 0.4450 0.4440 0.4430
628.225857 0.4420 0.4420 0.4420 0.4420 0.4420
632.258122 0.4420 0.4420 0.4410 0.4410 0.4410
636.290387 0.4400 0.4400 0.4390 0.4380 0.4370
640.322653 0.4350 0.4340 0.4330 0.4320 0.4310
644.354918 0.4300 0.4300 0.4290 0.4280 0.4270
648.387183 0.4270 0.4260 0.4260 0.4260 0.4260
652.419448 0.4260 0.4250 0.4250 0.4240 0.4230
656.451714 0.4220 0.4220 0.4200 0.4190 0.4180
660.483979 0.4170 0.4160 0.4140 0.4130 0.4120
664.516244 0.4100 0.4090 0.4090 0.4070 0.4060
668.548509 0.4050 0.4050 0.4040 0.4030 0.4020
672.580775 0.3990 0.3970 0.3960 0.3940 0.3920
676.613040 0.3890 0.3850 0.3810 0.3770 0.3710
680.645305 0.3680 0.3660 0.3650 0.3540 0.3430
684.677570 0.3310 0.3200 0.2921 0.2731 0.2501
688.709836 0.0990 0.0840 0.0660 0.0500 0.0500
692.742101 0.0640 0.0740 0.0929 0.1099 0.1448
696.774366 0.1800 0.1970 0.2140 0.2480 0.2819
700.806632 0.3000 0.3179 0.3539 0.3908 0.4099
704.838897 0.4300 0.4360 0.4380 0.4420 0.4460
708.871162 0.4510 0.4590 0.4660 0.4710 0.4710
712.903427 0.4750 0.4770 0.4790 0.4810 0.4830
716.935693 0.4830 0.4850 0.4860 0.4870 0.4880
720.967958 0.4900 0.4910 0.4910 0.4920 0.4930
725.000223 0.4940 0.4940 0.4940 0.4940 0.4930
729.032488 0.4920 0.4890 0.4860 0.4840 0.4830
733.064754 0.4810 0.4780 0.4740 0.4670 0.4630
737.097019 0.4600 0.4570 0.4510 0.4420 0.4290
741.129284 0.3781 0.2993 0.2621 0.2232 0.2170
745.161549 0.2110 0.1740 0.1470 0.0941 0.0680
749.193815 0.0530 0.0400 0.0380 0.0380 0.0390
753.226080 0.0400 0.0410 0.0460 0.0520 0.0560
757.258345 0.0700 0.0849 0.0930 0.1000 0.1149
761.290610 0.1320 0.1480 0.1650 0.1820 0.1910
765.322876 0.2000 0.2170 0.2329 0.2499 0.2669
769.355141 0.2840 0.2920 0.3000 0.3150 0.3310
773.387406 0.3440 0.3580 0.3710 0.3829 0.3930
777.419671 0.3990 0.4040 0.4120 0.4190 0.4280
781.451937 0.4360 0.4430 0.4510 0.4590 0.4660
785.484202 0.4720 0.4790 0.4860 0.4920 0.4980
789.516467 0.5010 0.5040 0.5100 0.5160 0.5210
793.548733 0.5260 0.5310 0.5360 0.5400 0.5450
797.580998 0.5490 0.5540 0.5580 0.5610 0.5650
801.613263 0.5690 0.5730 0.5760 0.5780 0.5810
805.645528 0.5840 0.5870 0.5900 0.5920 0.5940
809.677794 0.5960 0.5980 0.5990 0.6000 0.6000
813.710059 0.5980 0.5970 0.5940 0.5940 0.5930
817.742324 0.5930 0.5940 0.5970 0.5990 0.6000
821.774589 0.6000 0.6010 0.6020 0.6020 0.6020
825.806855 0.6030 0.6030 0.6040 0.6040 0.6040
829.839120 0.6030 0.6020 0.6000 0.6000 0.6010
833.871385 0.6040 0.6100 0.6110 0.6180 0.6230
837.903650 0.6270 0.6320 0.6360 0.6400 0.6430
841.935916 0.6470 0.6510 0.6540 0.6570 0.6600
845.968181 0.6630 0.6650 0.6680 0.6710 0.6720
850.000446 0.6750 0.6760 0.6790 0.6800 0.6810
854.032711 0.6830 0.6840 0.6840 0.6850 0.6870
858.064977 0.6880 0.6890 0.6910 0.6920 0.6930
862.097242 0.6950 0.6960 0.6970 0.6970 0.6980
866.129507 0.6980 0.6980 0.6980 0.6980 0.6960
870.161772 0.6960 0.6960 0.6950 0.6920 0.6890
874.194038 0.6820 0.6710 0.6570 0.6420 0.6240
878.226303 0.5891 0.5711 0.5541 0.5391 0.5271
882.258568 0.5170 0.4930 0.4880 0.4870 0.4870
886.290834 0.4940 0.4970 0.5040 0.5110 0.5190
890.323099 0.5270 0.5370 0.5540 0.5810 0.5940
894.355364 0.5980 0.6030 0.6080 0.6100 0.6190
898.387629 0.6380 0.6510 0.6580 0.6630 0.6650
902.419895 0.6680 0.6720 0.6790 0.6840 0.6880
906.452160 0.6920 0.6960 0.6990 0.7000 0.7020
910.484425 0.7040 0.7080 0.7090 0.7120 0.7130
914.516690 0.7150 0.7170 0.7180 0.7190 0.7200
918.548956 0.7210 0.7210 0.7220 0.7230 0.7240
922.581221 0.7250 0.7250 0.7250 0.7260 0.7280
926.613486 0.7290 0.7290 0.7290 0.7290 0.7290
930.645751 0.7290 0.7290 0.7290 0.7300 0.7300
934.678017 0.7300 0.7310 0.7320 0.7320 0.7330
938.710282 0.7330 0.7330 0.7340 0.7340 0.7350
942.742547 0.7360 0.7360 0.7370 0.7370 0.7370
946.774812 0.7370 0.7370 0.7370 0.7370 0.7370
950.807078 0.7370 0.7370 0.7370 0.7360 0.7360
954.839343 0.7360 0.7350 0.7350 0.7340 0.7330
958.871608 0.7330 0.7320 0.7310 0.7300 0.7290
962.903873 0.7290 0.7290 0.7290 0.7290 0.7290
966.936139 0.7290 0.7290 0.7290 0.7300 0.7300
970.968404 0.7300 0.7300 0.7300 0.7300 0.7300
975.000669 0.7300 0.7290 0.7270 0.7260 0.7250
979.032935 0.7250 0.7250 0.7250 0.7250 0.7250
983.065200 0.7250 0.7240 0.7240 0.7230 0.7230
987.097465 0.7230 0.7220 0.7220 0.7220 0.7210
991.129730 0.7210 0.7200 0.7190 0.7180 0.7170
995.161996 0.6980 0.6840 0.6700 0.6510 0.6320
999.194261 0.5941 0.5750 0.5551 0.5530 0.5550
1003.226526 0.5790 0.5920 0.6040 0.6290 0.6540
1007.258791 0.6760 0.6969 0.7090 0.7210 0.7310
1011.291057 0.7450 0.7510 0.7520 0.7530 0.7540
1015.323322 0.7540 0.7530 0.7530 0.7520 0.7510
1019.355587 0.7500 0.7500 0.7480 0.7470 0.7450
1023.387852 0.7450 0.7420 0.7370 0.7330 0.7320
1027.420118 0.7270 0.7000 0.6790 0.6550 0.6320
1031.452383 0.5871 0.5860 0.5870 0.5990 0.6060
1035.484648 0.6120 0.6250 0.6320 0.6710 0.6890
1039.516913 0.7080 0.7319 0.7410 0.7410 0.7410
1043.549179 0.7400 0.7400 0.7350 0.7300 0.7250
1047.581444 0.7210 0.7160 0.7100 0.7050 0.6960
1051.613709 0.6920 0.6880 0.6840 0.6800 0.6770
1055.645974 0.6740 0.6720 0.6690 0.6650 0.6640
1059.678240 0.6650 0.6670 0.6690 0.6710 0.6720
1063.710505 0.6730 0.6760 0.6770 0.6790 0.6810
1067.742770 0.6840 0.6880 0.6920 0.6970 0.7000
1071.775036 0.7010 0.7040 0.7070 0.7100 0.7130
1075.807301 0.7150 0.7180 0.7200 0.7220 0.7250
1079.839566 0.7260 0.7290 0.7300 0.7320 0.7340
1083.871831 0.7360 0.7370 0.7390 0.7410 0.7420
1087.904097 0.7430 0.7440 0.7440 0.7430 0.7430
1091.936362 0.7410 0.7400 0.7380 0.7370 0.7370
1095.968627 0.7370 0.7370 0.7370 0.7370 0.7370
1100.000892 0.7370 0.7370 0.7370 0.7360 0.7360
1104.033158 0.7360 0.7350 0.7330 0.7330 0.7320
1108.065423 0.7320 0.7310 0.7310 0.7300 0.7300
1112.097688 0.7300 0.7290 0.7290 0.7290 0.7280
1116.129953 0.7270 0.7260 0.7220 0.7170 0.7170
1120.162219 0.7140 0.7120 0.7100 0.7080 0.7060
1124.194484 0.7040 0.7030 0.7020 0.7030 0.7040
1128.226749 0.7040 0.7080 0.7110 0.7150 0.7180
1132.259014 0.7210 0.7240 0.7300 0.7350 0.7380
1136.291280 0.7410 0.7440 0.7450 0.7480 0.7490
1140.323545 0.7500 0.7500 0.7500 0.7500 0.7500
1144.355810 0.7500 0.7480 0.7470 0.7460 0.7450
1148.388075 0.7430 0.7420 0.7400 0.7370 0.7300
1152.420341 0.7220 0.7130 0.6921 0.6830 0.6740
1156.452606 0.6680 0.6630 0.6540 0.6520 0.6530
1160.484871 0.6560 0.6610 0.6670 0.6700 0.6720
1164.517137 0.6750 0.6880 0.6960 0.7030 0.7080
1168.549402 0.7120 0.7150 0.7170 0.7150 0.7130
1172.581667 0.6969 0.5770 0.4870 0.4420 0.3561
1176.613932 0.3540 0.3560 0.3849 0.4129 0.4379
1180.646198 0.4770 0.5010 0.5250 0.5770 0.6010
1184.678463 0.6250 0.6639 0.6889 0.6930 0.7000
1188.710728 0.7080 0.7190 0.7280 0.7340 0.7380
1192.742993 0.7410 0.7420 0.7430 0.7430 0.7440
1196.775259 0.7440 0.7440 0.7450 0.7450 0.7460
1200.807524 0.7460 0.7470 0.7470 0.7470 0.7470
1204.839789 0.7470 0.7480 0.7490 0.7490 0.7500
1208.872054 0.7500 0.7500 0.7510 0.7520 0.7520
1212.904320 0.7530 0.7530 0.7540 0.7540 0.7540
1216.936585 0.7540 0.7540 0.7540 0.7530 0.7530
1220.968850 0.7520 0.7510 0.7500 0.7480 0.7480
1225.001115 0.7460 0.7450 0.7430 0.7410 0.7390
1229.033381 0.7370 0.7350 0.7330 0.7320 0.7310
1233.065646 0.7310 0.7300 0.7290 0.7290 0.7280
1237.097911 0.7270 0.7260 0.7250 0.7250 0.7240
1241.130176 0.7230 0.7220 0.7200 0.7160 0.7120
1245.162442 0.7080 0.7000 0.6950 0.6920 0.6880
1249.194707 0.6840 0.6820 0.6800 0.6790 0.6760
1253.226972 0.6740 0.6660 0.6560 0.6470 0.6360
1257.259238 0.6250 0.6130 0.5871 0.5730 0.5591
1261.291503 0.5440 0.5280 0.4960 0.4790 0.4620
1265.323768 0.4440 0.4260 0.3871 0.3760 0.3601
1269.356033 0.3450 0.3300 0.3270 0.2980 0.2860
1273.388299 0.2800 0.2740 0.2660 0.2640 0.2640
1277.420564 0.2630 0.2620 0.2620 0.2630 0.2690
1281.452829 0.2740 0.2800 0.2810 0.2900 0.2990
1285.485094 0.3030 0.3070 0.3160 0.3230 0.3410
1289.517360 0.3600 0.3770 0.3959 0.4050 0.4140
1293.549625 0.4320 0.4500 0.4690 0.4870 0.4950
1297.581890 0.5040 0.5220 0.5380 0.5550 0.5700
1301.614155 0.5860 0.5990 0.6060 0.6130 0.6250
1305.646421 0.6370 0.6430 0.6510 0.6520 0.6560
1309.678686 0.6570 0.6570 0.6560 0.6480 0.6390
1313.710951 0.6250 0.5930 0.5720 0.5700 0.5720
1317.743216 0.5860 0.5980 0.6050 0.6100 0.6300
1321.775482 0.6520 0.6660 0.6750 0.6800 0.6860
1325.807747 0.6940 0.7010 0.7090 0.7090 0.7090
1329.840012 0.7090 0.7080 0.7060 0.7060 0.7040
1333.872277 0.6980 0.6960 0.6950 0.6950 0.6960
1337.904543 0.6970 0.7000 0.7010 0.7040 0.7080
1341.936808 0.7120 0.7150 0.7170 0.7190 0.7210
1345.969073 0.7210 0.7220 0.7220 0.7230 0.7260
1350.001339 0.7290 0.7330 0.7370 0.7400 0.7440
1354.033604 0.7470 0.7500 0.7540 0.7560 0.7580
1358.065869 0.7600 0.7610 0.7630 0.7640 0.7650
1362.098134 0.7660 0.7670 0.7690 0.7700 0.7700
1366.130400 0.7710 0.7720 0.7720 0.7730 0.7730
1370.162665 0.7730 0.7730 0.7730 0.7730 0.7740
1374.194930 0.7740 0.7750 0.7750 0.7760 0.7770
1378.227195 0.7770 0.7770 0.7760 0.7760 0.7750
1382.259461 0.7740 0.7730 0.7710 0.7700 0.7700
1386.291726 0.7670 0.7660 0.7620 0.7590 0.7580
1390.323991 0.7590 0.7600 0.7620 0.7630 0.7640
1394.356256 0.7650 0.7660 0.7680 0.7690 0.7700
1398.388522 0.7720 0.7740 0.7740 0.7770 0.7780
1402.420787 0.7800 0.7820 0.7830 0.7830 0.7850
1406.453052 0.7860 0.7860 0.7870 0.7870 0.7880
1410.485317 0.7880 0.7880 0.7880 0.7880 0.7880
1414.517583 0.7880 0.7880 0.7880 0.7880 0.7880
1418.549848 0.7880 0.7880 0.7880 0.7880 0.7880
1422.582113 0.7880 0.7870 0.7870 0.7870 0.7870
1426.614378 0.7870 0.7870 0.7870 0.7870 0.7860
1430.646644 0.7860 0.7860 0.7860 0.7860 0.7860
1434.678909 0.7860 0.7860 0.7850 0.7850 0.7850
1438.711174 0.7850 0.7840 0.7840 0.7840 0.7840
1442.743440 0.7830 0.7820 0.7820 0.7820 0.7820
1446.775705 0.7810 0.7800 0.7800 0.7790 0.7780
1450.807970 0.7780 0.7760 0.7750 0.7750 0.7740
1454.840235 0.7710 0.7700 0.7640 0.7590 0.7570
1458.872501 0.7540 0.7540 0.7540 0.7500 0.7430
1462.904766 0.7380 0.7289 0.6590 0.6390 0.6190
1466.937031 0.5540 0.5270 0.4741 0.4471 0.4211
1470.969296 0.4210 0.4341 0.4880 0.5060 0.5240
1475.001562 0.5590 0.5879 0.6159 0.6160 0.6140
1479.033827 0.6079 0.5850 0.5750 0.5650 0.5560
1483.066092 0.5470 0.5380 0.5300 0.5210 0.5130
1487.098357 0.4950 0.4870 0.4770 0.4670 0.4390
1491.130623 0.4260 0.1984 0.1731 0.1501 0.1261
1495.162888 0.0779 0.0550 0.0310 0.0080 0.0070
1499.195153 0.0080 0.0589 0.1099 0.1110 0.1778
1503.227418 0.2030 0.2270 0.2510 0.2660 0.2880
1507.259684 0.3150 0.3410 0.3899 0.4129 0.4339
1511.291949 0.4750 0.4940 0.5120 0.5440 0.5730
1515.324214 0.5960 0.6060 0.6160 0.6320 0.6430
1519.356479 0.6510 0.6530 0.6620 0.6670 0.6690
1523.388745 0.6700 0.6710 0.6710 0.6690 0.6630
1527.421010 0.6580 0.6530 0.6520 0.6530 0.6570
1531.453275 0.6620 0.6690 0.6760 0.6850 0.6950
1535.485541 0.7000 0.7050 0.7160 0.7260 0.7310
1539.517806 0.7340 0.7380 0.7410 0.7440 0.7470
1543.550071 0.7490 0.7510 0.7530 0.7540 0.7560
1547.582336 0.7570 0.7580 0.7590 0.7590 0.7600
1551.614602 0.7600 0.7590 0.7580 0.7540 0.7490
1555.646867 0.7410 0.7320 0.7230 0.7150 0.7070
1559.679132 0.6960 0.6920 0.6870 0.6830 0.6820
1563.711397 0.6830 0.6880 0.6960 0.6990 0.7000
1567.743663 0.7010 0.7020 0.7050 0.7050 0.7040
1571.775928 0.6980 0.6940 0.6910 0.6880 0.6840
1575.808193 0.6800 0.6770 0.6730 0.6690 0.6650
1579.840458 0.6590 0.6540 0.6470 0.6390 0.6310
1583.872724 0.6210 0.5980 0.5840 0.5680 0.5440
1587.904989 0.5270 0.5160 0.5100 0.5050 0.4920
1591.937254 0.4790 0.4589 0.3890 0.3630 0.3350
1595.969519 0.3210 0.2871 0.1563 0.1071 0.0253
1600.001785 0.0240 0.0240 0.0400 0.0560 0.0710
1604.034050 0.0980 0.1060 0.1140 0.1310 0.1480
1608.066315 0.1630 0.1750 0.1760 0.1750 0.1740
1612.098580 0.1530 0.1410 0.1300 0.1180 0.0961
1616.130846 0.0850 0.0730 0.0630 0.0620 0.0610
1620.163111 0.0620 0.0660 0.0710 0.0750 0.0830
1624.195376 0.0840 0.0930 0.1010 0.1020 0.1180
1628.227642 0.1190 0.1360 0.1530 0.1660 0.1859
1632.259907 0.2051 0.2481 0.2760 0.2960 0.3060
1636.292172 0.3150 0.3400 0.3420 0.3490 0.3670
1640.324437 0.3920 0.4040 0.4150 0.4380 0.4590
1644.356703 0.4790 0.4970 0.5060 0.5150 0.5319
1648.388968 0.5470 0.5610 0.5750 0.5880 0.5990
1652.421233 0.6050 0.6100 0.6210 0.6310 0.6390
1656.453498 0.6470 0.6550 0.6630 0.6690 0.6750
1660.485764 0.6800 0.6860 0.6910 0.6960 0.7000
1664.518029 0.7020 0.7040 0.7080 0.7110 0.7150
1668.550294 0.7180 0.7220 0.7250 0.7290 0.7330
1672.582559 0.7360 0.7370 0.7370 0.7400 0.7410
1676.614825 0.7440 0.7450 0.7480 0.7500 0.7520
1680.647090 0.7540 0.7550 0.7560 0.7570 0.7580
1684.679355 0.7580 0.7590 0.7600 0.7600 0.7590
1688.711620 0.7590 0.7580 0.7580 0.7570 0.7550
1692.743886 0.7540 0.7530 0.7520 0.7500 0.7490
1696.776151 0.7460 0.7450 0.7420 0.7410 0.7380
1700.808416 0.7360 0.7330 0.7320 0.7290 0.7260
1704.840681 0.7230 0.7210 0.7190 0.7170 0.7160
1708.872947 0.7150 0.7150 0.7150 0.7160 0.7170
1712.905212 0.7180 0.7230 0.7280 0.7330 0.7350
1716.937477 0.7430 0.7490 0.7500 0.7520 0.7570
1720.969743 0.7610 0.7640 0.7680 0.7700 0.7730
1725.002008 0.7750 0.7780 0.7790 0.7810 0.7820
1729.034273 0.7820 0.7840 0.7850 0.7860 0.7860
1733.066538 0.7880 0.7900 0.7910 0.7930 0.7950
1737.098804 0.7950 0.7960 0.7970 0.7980 0.7990
1741.131069 0.8000 0.8010 0.8020 0.8030 0.8030
1745.163334 0.8040 0.8040 0.8050 0.8050 0.8060
1749.195599 0.8060 0.8070 0.8070 0.8070 0.8070
1753.227865 0.8070 0.8070 0.8070 0.8070 0.8070
1757.260130 0.8070 0.8070 0.8070 0.8070 0.8070
1761.292395 0.8070 0.8070 0.8070 0.8070 0.8060
1765.324660 0.8060 0.8050 0.8050 0.8040 0.8040
1769.356926 0.8030 0.8020 0.8010 0.7990 0.7990
1773.389191 0.7980 0.7970 0.7960 0.7950 0.7950
1777.421456 0.7920 0.7900 0.7880 0.7870 0.7860
1781.453721 0.7860 0.7850 0.7840 0.7840 0.7840
1785.485987 0.7840 0.7850 0.7850 0.7860 0.7860
1789.518252 0.7870 0.7880 0.7890 0.7900 0.7900
1793.550517 0.7900 0.7920 0.7950 0.7950 0.7960
1797.582782 0.7990 0.8000 0.8010 0.8010 0.8010
1801.615048 0.8010 0.8010 0.8010 0.8010 0.8010
1805.647313 0.8010 0.8010 0.8010 0.8000 0.7990
1809.679578 0.7990 0.7990 0.7990 0.7990 0.7990
1813.711844 0.7990 0.7990 0.8000 0.8000 0.8000
1817.744109 0.8010 0.8020 0.8030 0.8030 0.8030
1821.776374 0.8030 0.8030 0.8030 0.8020 0.8020
1825.808639 0.7990 0.7990 0.7980 0.7960 0.7950
1829.840905 0.7940 0.7930 0.7920 0.7910 0.7900
1833.873170 0.7880 0.7870 0.7860 0.7860 0.7850
1837.905435 0.7840 0.7820 0.7810 0.7810 0.7800
1841.937700 0.7800 0.7790 0.7790 0.7790 0.7800
1845.969966 0.7810 0.7810 0.7820 0.7820 0.7820
1850.002231 0.7830 0.7840 0.7850 0.7860 0.7860
1854.034496 0.7880 0.7890 0.7900 0.7910 0.7920
1858.066761 0.7920 0.7920 0.7930 0.7930 0.7940
1862.099027 0.7960 0.7980 0.7990 0.8010 0.8010
1866.131292 0.8020 0.8030 0.8030 0.8040 0.8040
1870.163557 0.8050 0.8060 0.8070 0.8070 0.8070
1874.195822 0.8080 0.8090 0.8100 0.8110 0.8110
1878.228088 0.8120 0.8130 0.8140 0.8150 0.8150
1882.260353 0.8150 0.8160 0.8170 0.8170 0.8170
1886.292618 0.8170 0.8160 0.8160 0.8160 0.8150
1890.324883 0.8150 0.8150 0.8140 0.8140 0.8130
1894.357149 0.8130 0.8120 0.8110 0.8110 0.8110
1898.389414 0.8110 0.8100 0.8100 0.8090 0.8080
1902.421679 0.8080 0.8070 0.8070 0.8070 0.8070
1906.453945 0.8050 0.8040 0.8030 0.8020 0.8020
1910.486210 0.8010 0.7990 0.7980 0.7970 0.7950
1914.518475 0.7950 0.7930 0.7900 0.7900 0.7880
1918.550740 0.7860 0.7860 0.7820 0.7780 0.7760
1922.583006 0.7740 0.7730 0.7700 0.7680 0.7660
1926.615271 0.7630 0.7620 0.7610 0.7600 0.7580
1930.647536 0.7580 0.7570 0.7570 0.7580 0.7580
1934.679801 0.7580 0.7580 0.7580 0.7590 0.7600
1938.712067 0.7610 0.7610 0.7620 0.7640 0.7660
1942.744332 0.7670 0.7680 0.7700 0.7720 0.7740
1946.776597 0.7740 0.7750 0.7770 0.7780 0.7790
1950.808862 0.7810 0.7820 0.7830 0.7850 0.7860
1954.841128 0.7870 0.7880 0.7900 0.7900 0.7910
1958.873393 0.7930 0.7940 0.7950 0.7960 0.7970
1962.905658 0.7980 0.7990 0.7990 0.8000 0.8010
1966.937923 0.8030 0.8030 0.8030 0.8040 0.8040
1970.970189 0.8050 0.8060 0.8070 0.8070 0.8070
1975.002454 0.8070 0.8070 0.8080 0.8080 0.8080
1979.034719 0.8080 0.8080 0.8080 0.8080 0.8080
1983.066984 0.8080 0.8080 0.8080 0.8080 0.8080
1987.099250 0.8080 0.8080 0.8080 0.8080 0.8080
1991.131515 0.8080 0.8070 0.8070 0.8070 0.8070
1995.163780 0.8070 0.8070 0.8070 0.8060 0.8060
1999.196046 0.8060 0.8060 0.8057 0.8055 0.8052
2003.228311 0.8050 0.8050 0.8050 0.8050 0.8050
2007.260576 0.8047 0.8045 0.8042 0.8040 0.8040
2011.292841 0.8040 0.8040 0.8040 0.8040 0.8040
2015.325107 0.8040 0.8039 0.8037 0.8034 0.8032
2019.357372 0.8030 0.8030 0.8030 0.8030 0.8030
2023.389637 0.8030 0.8030 0.8030 0.8030 0.8030
2027.421902 0.8030 0.8030 0.8030 0.8030 0.8030
2031.454168 0.8030 0.8031 0.8034 0.8036 0.8039
2035.486433 0.8042 0.8044 0.8047 0.8049 0.8050
2039.518698 0.8050 0.8050 0.8050 0.8052 0.8054
2043.550963 0.8057 0.8059 0.8060 0.8060 0.8060
2047.583229 0.8060 0.8062 0.8065 0.8067 0.8070
2051.615494 0.8070 0.8070 0.8070 0.8070 0.8070
2055.647759 0.8070 0.8070 0.8070 0.8072 0.8075
2059.680024 0.8077 0.8080 0.8080 0.8080 0.8080
2063.712290 0.8080 0.8080 0.8080 0.8080 0.8080
2067.744555 0.8080 0.8080 0.8080 0.8080 0.8080
2071.776820 0.8080 0.8080 0.8079 0.8077 0.8074
2075.809085 0.8072 0.8070 0.8070 0.8070 0.8070
2079.841351 0.8070 0.8070 0.8070 0.8070 0.8070
2083.873616 0.8070 0.8070 0.8070 0.8070 0.8070
2087.905881 0.8070 0.8070 0.8070 0.8070 0.8070
2091.938147 0.8070 0.8070 0.8070 0.8070 0.8070
2095.970412 0.8070 0.8070 0.8070 0.8070 0.8070
2100.002677 0.8070 0.8070 0.8070 0.8070 0.8070
2104.034942 0.8070 0.8070 0.8070 0.8070 0.8070
2108.067208 0.8070 0.8072 0.8075 0.8077 0.8080
2112.099473 0.8080 0.8080 0.8080 0.8080 0.8082
2116.131738 0.8085 0.8088 0.8090 0.8090 0.8090
2120.164003 0.8090 0.8090 0.8090 0.8090 0.8090
2124.196269 0.8090 0.8093 0.8095 0.8098 0.8100
2128.228534 0.8100 0.8100 0.8100 0.8101 0.8103
2132.260799 0.8106 0.8108 0.8110 0.8110 0.8110
2136.293064 0.8110 0.8110 0.8110 0.8110 0.8110
2140.325330 0.8110 0.8110 0.8110 0.8110 0.8110
2144.357595 0.8110 0.8110 0.8110 0.8110 0.8110
2148.389860 0.8110 0.8110 0.8110 0.8110 0.8110
2152.422125 0.8110 0.8110 0.8110 0.8110 0.8110
2156.454391 0.8110 0.8110 0.8110 0.8110 0.8112
2160.486656 0.8115 0.8117 0.8120 0.8120 0.8120
2164.518921 0.8120 0.8120 0.8120 0.8120 0.8120
2168.551186 0.8120 0.8120 0.8120 0.8120 0.8120
2172.583452 0.8120 0.8120 0.8120 0.8120 0.8120
2176.615717 0.8120 0.8120 0.8120 0.8120 0.8120
2180.647982 0.8120 0.8120 0.8120 0.8120 0.8120
2184.680248 0.8120 0.8120 0.8120 0.8120 0.8120
2188.712513 0.8120 0.8120 0.8120 0.8119 0.8117
2192.744778 0.8114 0.8112 0.8110 0.8110 0.8110
2196.777043 0.8110 0.8110 0.8110 0.8110 0.8110
2200.809309 0.8110 0.8110 0.8110 0.8110 0.8110
2204.841574 0.8110 0.8110 0.8110 0.8110 0.8110
2208.873839 0.8110 0.8110 0.8110 0.8110 0.8110
2212.906104 0.8110 0.8108 0.8106 0.8103 0.8101
2216.938370 0.8100 0.8100 0.8100 0.8100 0.8100
2220.970635 0.8100 0.8100 0.8100 0.8100 0.8100
2225.002900 0.8100 0.8100 0.8100 0.8100 0.8100
2229.035165 0.8100 0.8103 0.8105 0.8108 0.8110
2233.067431 0.8110 0.8110 0.8110 0.8110 0.8113
2237.099696 0.8115 0.8118 0.8120 0.8123 0.8125
2241.131961 0.8128 0.8130 0.8133 0.8136 0.8138
2245.164226 0.8140 0.8140 0.8140 0.8140 0.8141
2249.196492 0.8143 0.8146 0.8148 0.8150 0.8150
2253.228757 0.8150 0.8150 0.8150 0.8150 0.8150
2257.261022 0.8150 0.8150 0.8150 0.8150 0.8150
2261.293287 0.8150 0.8150 0.8150 0.8150 0.8152
2265.325553 0.8154 0.8157 0.8159 0.8160 0.8160
2269.357818 0.8160 0.8160 0.8160 0.8160 0.8160
2273.390083 0.8160 0.8160 0.8160 0.8160 0.8160
2277.422349 0.8162 0.8165 0.8167 0.8170 0.8170
2281.454614 0.8170 0.8170 0.8170 0.8170 0.8170
2285.486879 0.8170 0.8170 0.8170 0.8170 0.8170
2289.519144 0.8170 0.8173 0.8175 0.8178 0.8180
2293.551410 0.8180 0.8180 0.8180 0.8180 0.8183
2297.583675 0.8185 0.8188 0.8190 0.8190 0.8190
2301.615940 0.8190 0.8190 0.8190 0.8190 0.8190
2305.648205 0.8190 0.8190 0.8190 0.8190 0.8190
2309.680471 0.8190 0.8190 0.8190 0.8190 0.8190
2313.712736 0.8190 0.8190 0.8191 0.8194 0.8196
2317.745001 0.8199 0.8200 0.8200 0.8200 0.8200
2321.777266 0.8200 0.8200 0.8200 0.8200 0.8200
2325.809532 0.8200 0.8200 0.8200 0.8200 0.8200
2329.841797 0.8200 0.8200 0.8200 0.8200 0.8200
2333.874062 0.8200 0.8200 0.8200 0.8200 0.8200
2337.906327 0.8200 0.8200 0.8200 0.8200 0.8202
2341.938593 0.8205 0.8207 0.8210 0.8210 0.8210
2345.970858 0.8210 0.8210 0.8210 0.8210 0.8210
2350.003123 0.8210 0.8210 0.8210 0.8210 0.8210
2354.035388 0.8210 0.8210 0.8210 0.8210 0.8210
2358.067654 0.8210 0.8210 0.8209 0.8207 0.8204
2362.099919 0.8202 0.8200 0.8200 0.8200 0.8200
2366.132184 0.8200 0.8200 0.8200 0.8200 0.8200
2370.164450 0.8200 0.8200 0.8200 0.8199 0.8196
2374.196715 0.8194 0.8191 0.8190 0.8190 0.8190
2378.228980 0.8190 0.8190 0.8190 0.8190 0.8190
2382.261245 0.8190 0.8190 0.8190 0.8190 0.8190
2386.293511 0.8190 0.8190 0.8190 0.8190 0.8190
2390.325776 0.8190 0.8190 0.8192 0.8195 0.8197
2394.358041 0.8200 0.8200 0.8200 0.8200 0.8200
2398.390306 0.8200 0.8200 0.8200 0.8200 0.8198
2402.422572 0.8195 0.8192 0.8190 0.8190 0.8190
2406.454837 0.8190 0.8190 0.8190 0.8190 0.8190
2410.487102 0.8190 0.8190 0.8190 0.8190 0.8190
2414.519367 0.8190 0.8190 0.8190 0.8190 0.8190
2418.551633 0.8190 0.8190 0.8190 0.8190 0.8190
2422.583898 0.8190 0.8190 0.8190 0.8190 0.8190
2426.616163 0.8190 0.8190 0.8190 0.8190 0.8190
2430.648428 0.8190 0.8190 0.8190 0.8190 0.8190
2434.680694 0.8190 0.8190 0.8191 0.8194 0.8197
2438.712959 0.8199 0.8200 0.8200 0.8200 0.8200
2442.745224 0.8200 0.8200 0.8200 0.8200 0.8200
2446.777489 0.8200 0.8200 0.8200 0.8202 0.8205
2450.809755 0.8207 0.8210 0.8210 0.8210 0.8210
2454.842020 0.8210 0.8210 0.8210 0.8210 0.8210
2458.874285 0.8213 0.8215 0.8218 0.8220 0.8220
2462.906551 0.8220 0.8220 0.8220 0.8223 0.8225
2466.938816 0.8228 0.8230 0.8230 0.8230 0.8230
2470.971081 0.8230 0.8230 0.8230 0.8230 0.8230
2475.003346 0.8230 0.8230 0.8230 0.8230 0.8230
2479.035612 0.8230 0.8230 0.8230 0.8230 0.8230
2483.067877 0.8230 0.8230 0.8230 0.8230 0.8230
2487.100142 0.8230 0.8230 0.8230 0.8230 0.8230
2491.132407 0.8230 0.8230 0.8230 0.8230 0.8230
2495.164673 0.8230 0.8230 0.8230 0.8230 0.8230
2499.196938 0.8230 0.8230 0.8230 0.8230 0.8230
2503.229203 0.8230 0.8230 0.8230 0.8230 0.8230
2507.261468 0.8230 0.8230 0.8230 0.8228 0.8225
2511.293734 0.8223 0.8220 0.8220 0.8220 0.8220
2515.325999 0.8220 0.8220 0.8220 0.8220 0.8220
2519.358264 0.8220 0.8220 0.8220 0.8220 0.8220
2523.390529 0.8220 0.8220 0.8220 0.8217 0.8215
2527.422795 0.8212 0.8210 0.8210 0.8210 0.8210
2531.455060 0.8210 0.8210 0.8210 0.8210 0.8210
2535.487325 0.8210 0.8210 0.8210 0.8210 0.8210
2539.519590 0.8210 0.8210 0.8209 0.8206 0.8204
2543.551856 0.8201 0.8200 0.8200 0.8200 0.8200
2547.584121 0.8200 0.8200 0.8200 0.8200 0.8198
2551.616386 0.8196 0.8193 0.8191 0.8190 0.8190
2555.648652 0.8190 0.8190 0.8190 0.8190 0.8190
2559.680917 0.8190 0.8188 0.8186 0.8183 0.8180
2563.713182 0.8180 0.8180 0.8180 0.8180 0.8178
2567.745447 0.8175 0.8173 0.8170 0.8170 0.8170
2571.777713 0.8170 0.8170 0.8167 0.8165 0.8162
2575.809978 0.8160 0.8157 0.8155 0.8152 0.8150
2579.842243 0.8150 0.8150 0.8150 0.8150 0.8150
2583.874508 0.8150 0.8150 0.8149 0.8147 0.8144
2587.906774 0.8142 0.8139 0.8137 0.8134 0.8132
2591.939039 0.8129 0.8127 0.8124 0.8122 0.8119
2595.971304 0.8117 0.8114 0.8111 0.8110 0.8110
2600.003569 0.8110 0.8110 0.8109 0.8106 0.8104
2604.035835 0.8101 0.8099 0.8096 0.8093 0.8091
2608.068100 0.8088 0.8086 0.8083 0.8081 0.8080
2612.100365 0.8080 0.8080 0.8080 0.8078 0.8076
2616.132630 0.8073 0.8071 0.8070 0.8070 0.8070
2620.164896 0.8070 0.8068 0.8065 0.8063 0.8060
2624.197161 0.8060 0.8060 0.8060 0.8060 0.8058
2628.229426 0.8055 0.8053 0.8050 0.8048 0.8045
2632.261691 0.8042 0.8040 0.8040 0.8040 0.8040
2636.293957 0.8040 0.8037 0.8035 0.8032 0.8030
2640.326222 0.8030 0.8030 0.8030 0.8030 0.8030
2644.358487 0.8030 0.8030 0.8030 0.8030 0.8030
2648.390753 0.8030 0.8030 0.8030 0.8030 0.8030
2652.423018 0.8030 0.8030 0.8030 0.8030 0.8031
2656.455283 0.8034 0.8036 0.8039 0.8041 0.8044
2660.487548 0.8046 0.8049 0.8051 0.8054 0.8056
2664.519814 0.8059 0.8061 0.8064 0.8067 0.8069
2668.552079 0.8074 0.8079 0.8084 0.8089 0.8094
2672.584344 0.8099 0.8104 0.8109 0.8110 0.8110
2676.616609 0.8110 0.8110 0.8114 0.8119 0.8124
2680.648875 0.8129 0.8135 0.8140 0.8145 0.8150
2684.681140 0.8155 0.8160 0.8165 0.8170 0.8175
2688.713405 0.8180 0.8185 0.8190 0.8190 0.8190
2692.745670 0.8190 0.8190 0.8193 0.8195 0.8198
2696.777936 0.8200 0.8203 0.8206 0.8208 0.8210
2700.810201 0.8210 0.8210 0.8210 0.8211 0.8213
2704.842466 0.8216 0.8218 0.8220 0.8220 0.8220
2708.874731 0.8220 0.8219 0.8216 0.8214 0.8211
2712.906997 0.8210 0.8210 0.8210 0.8210 0.8209
2716.939262 0.8206 0.8204 0.8201 0.8200 0.8200
2720.971527 0.8200 0.8200 0.8198 0.8196 0.8193
2725.003792 0.8191 0.8190 0.8190 0.8190 0.8190
2729.036058 0.8190 0.8190 0.8190 0.8190 0.8186
2733.068323 0.8181 0.8176 0.8171 0.8166 0.8161
2737.100588 0.8156 0.8150 0.8148 0.8145 0.8143
2741.132853 0.8140 0.8135 0.8130 0.8125 0.8120
2745.165119 0.8117 0.8115 0.8112 0.8110 0.8110
2749.197384 0.8110 0.8110 0.8110 0.8110 0.8110
2753.229649 0.8110 0.8110 0.8110 0.8110 0.8110
2757.261915 0.8109 0.8107 0.8104 0.8102 0.8100
2761.294180 0.8100 0.8100 0.8100 0.8100 0.8100
2765.326445 0.8100 0.8100 0.8100 0.8100 0.8100
2769.358710 0.8100 0.8100 0.8100 0.8100 0.8100
2773.390976 0.8101 0.8104 0.8106 0.8109 0.8110
2777.423241 0.8110 0.8110 0.8110 0.8110 0.8110
2781.455506 0.8110 0.8110 0.8112 0.8114 0.8117
2785.487771 0.8119 0.8124 0.8129 0.8134 0.8139
2789.520037 0.8142 0.8144 0.8147 0.8150 0.8154
2793.552302 0.8159 0.8164 0.8170 0.8170 0.8170
2797.584567 0.8170 0.8170 0.8172 0.8175 0.8178
2801.616832 0.8180 0.8183 0.8185 0.8188 0.8190
2805.649098 0.8190 0.8190 0.8190 0.8190 0.8190
2809.681363 0.8190 0.8190 0.8190 0.8193 0.8195
2813.713628 0.8198 0.8201 0.8203 0.8206 0.8208
2817.745893 0.8211 0.8213 0.8216 0.8218 0.8220
2821.778159 0.8220 0.8220 0.8220 0.8221 0.8224
2825.810424 0.8226 0.8229 0.8230 0.8230 0.8230
2829.842689 0.8230 0.8230 0.8230 0.8230 0.8230
2833.874954 0.8230 0.8230 0.8230 0.8230 0.8230
2837.907220 0.8230 0.8230 0.8230 0.8230 0.8230
2841.939485 0.8230 0.8230 0.8230 0.8230 0.8230
2845.971750 0.8230 0.8228 0.8226 0.8223 0.8220
2850.004016 0.8220 0.8220 0.8220 0.8220 0.8218
2854.036281 0.8215 0.8213 0.8210 0.8208 0.8205
2858.068546 0.8202 0.8200 0.8197 0.8195 0.8192
2862.100811 0.8190 0.8190 0.8190 0.8190 0.8190
2866.133077 0.8187 0.8185 0.8182 0.8180 0.8180
2870.165342 0.8180 0.8180 0.8179 0.8177 0.8174
2874.197607 0.8172 0.8169 0.8167 0.8164 0.8162
2878.229872 0.8159 0.8157 0.8154 0.8152 0.8149
2882.262138 0.8147 0.8144 0.8141 0.8138 0.8133
2886.294403 0.8128 0.8123 0.8119 0.8116 0.8114
2890.326668 0.8111 0.8106 0.8098 0.8090 0.8083
2894.358933 0.8078 0.8076 0.8073 0.8071 0.8065
2898.391199 0.8057 0.8050 0.8042 0.8031 0.8018
2902.423464 0.8005 0.7993 0.7986 0.7981 0.7976
2906.455729 0.7971 0.7968 0.7965 0.7963 0.7960
2910.487994 0.7960 0.7960 0.7960 0.7960 0.7960
2914.520260 0.7960 0.7960 0.7960 0.7958 0.7955
2918.552525 0.7952 0.7950 0.7950 0.7950 0.7950
2922.584790 0.7950 0.7950 0.7950 0.7950 0.7950
2926.617055 0.7950 0.7950 0.7950 0.7949 0.7947
2930.649321 0.7944 0.7942 0.7940 0.7940 0.7940
2934.681586 0.7940 0.7939 0.7937 0.7934 0.7932
2938.713851 0.7929 0.7926 0.7924 0.7921 0.7920
2942.746117 0.7920 0.7920 0.7920 0.7920 0.7920
2946.778382 0.7920 0.7920 0.7920 0.7920 0.7920
2950.810647 0.7920 0.7918 0.7916 0.7913 0.7911
2954.842912 0.7910 0.7910 0.7910 0.7910 0.7908
2958.875178 0.7906 0.7903 0.7900 0.7900 0.7900
2962.907443 0.7900 0.7900 0.7900 0.7900 0.7900
2966.939708 0.7900 0.7900 0.7900 0.7900 0.7900
2970.971973 0.7898 0.7895 0.7893 0.7890 0.7890
2975.004239 0.7890 0.7890 0.7890 0.7890 0.7890
2979.036504 0.7890 0.7890 0.7887 0.7885 0.7882
2983.068769 0.7879 0.7871 0.7863 0.7856 0.7848
2987.101034 0.7840 0.7833 0.7825 0.7815 0.7800
2991.133300 0.7785 0.7770 0.7755 0.7739 0.7724
2995.165565 0.7709 0.7695 0.7682 0.7670 0.7657
2999.197830 0.7644 0.7632 0.7619 0.7606 0.7590
3003.230095 0.7569 0.7549 0.7529 0.7513 0.7500
3007.262361 0.7488 0.7475 0.7433 0.7372 0.7312
3011.294626 0.7251 0.7165 0.7067 0.6968 0.6869
3015.326891 0.6815 0.6779 0.6743 0.6707 0.6677
3019.359156 0.6649 0.6622 0.6594 0.6570 0.6547
3023.391422 0.6525 0.6502 0.6477 0.6451 0.6426
3027.423687 0.6401 0.6371 0.6340 0.6310 0.6278
3031.455952 0.6177 0.6076 0.5975 0.5875 0.5796
3035.488218 0.5718 0.5640 0.5551 0.5387 0.5222
3039.520483 0.5058 0.4920 0.4920 0.4920 0.4920
3043.552748 0.4934 0.5000 0.5066 0.5131 0.5197
3047.585013 0.5264 0.5331 0.5398 0.5486 0.5611
3051.617279 0.5735 0.5859 0.5983 0.6107 0.6231
3055.649544 0.6355 0.6438 0.6476 0.6514 0.6552
3059.681809 0.6590 0.6628 0.6666 0.6704 0.6756
3063.714074 0.6819 0.6883 0.6946 0.6975 0.6982
3067.746340 0.6990 0.6997 0.7002 0.7004 0.7007
3071.778605 0.7009 0.6983 0.6945 0.6907 0.6869
3075.810870 0.6772 0.6659 0.6545 0.6431 0.6406
3079.843135 0.6401 0.6395 0.6390 0.6395 0.6400
3083.875401 0.6405 0.6410 0.6447 0.6485 0.6523
3087.907666 0.6561 0.6583 0.6606 0.6629 0.6653
3091.939931 0.6691 0.6729 0.6767 0.6805 0.6843
3095.972196 0.6881 0.6919 0.6956 0.6992 0.7027
3100.004462 0.7063 0.7099 0.7137 0.7175 0.7213
3104.036727 0.7249 0.7282 0.7315 0.7348 0.7370
3108.068992 0.7370 0.7370 0.7370 0.7371 0.7374
3112.101257 0.7376 0.7379 0.7386 0.7399 0.7411
3116.133523 0.7424 0.7450 0.7488 0.7526 0.7564
3120.165788 0.7590 0.7608 0.7626 0.7644 0.7660
3124.198053 0.7675 0.7690 0.7705 0.7715 0.7723
3128.230319 0.7730 0.7738 0.7747 0.7758 0.7768
3132.262584 0.7778 0.7780 0.7780 0.7780 0.7780
3136.294849 0.7786 0.7794 0.7802 0.7809 0.7810
3140.327114 0.7810 0.7810 0.7810 0.7810 0.7810
3144.359380 0.7810 0.7810 0.7810 0.7810 0.7810
3148.391645 0.7810 0.7810 0.7810 0.7810 0.7810
3152.423910 0.7807 0.7805 0.7802 0.7798 0.7785
3156.456175 0.7772 0.7760 0.7747 0.7734 0.7722
3160.488441 0.7709 0.7697 0.7687 0.7677 0.7667
3164.520706 0.7657 0.7650 0.7642 0.7635 0.7627
3168.552971 0.7619 0.7612 0.7604 0.7598 0.7593
3172.585236 0.7588 0.7583 0.7575 0.7565 0.7554
3176.617502 0.7544 0.7526 0.7503 0.7481 0.7458
3180.649767 0.7438 0.7421 0.7403 0.7385 0.7371
3184.682032 0.7358 0.7346 0.7333 0.7317 0.7299
3188.714297 0.7281 0.7264 0.7246 0.7228 0.7210
3192.746563 0.7193 0.7134 0.7068 0.7003 0.6937
3196.778828 0.6919 0.6906 0.6893 0.6881 0.6861
3200.811093 0.6841 0.6820 0.6800 0.6780 0.6760
3204.843358 0.6739 0.6718 0.6682 0.6646 0.6610
3208.875624 0.6572 0.6518 0.6465 0.6412 0.6358
3212.907889 0.6303 0.6247 0.6191 0.6137 0.6086
3216.940154 0.6036 0.5985 0.5949 0.5947 0.5944
3220.972420 0.5942 0.5939 0.5937 0.5934 0.5932
3225.004685 0.5931 0.5934 0.5936 0.5939 0.5945
3229.036950 0.5955 0.5965 0.5975 0.5984 0.5991
3233.069215 0.5999 0.6007 0.6028 0.6061 0.6094
3237.101481 0.6127 0.6163 0.6202 0.6240 0.6279
3241.133746 0.6308 0.6333 0.6359 0.6384 0.6409
3245.166011 0.6435 0.6460 0.6485 0.6506 0.6527
3249.198276 0.6547 0.6567 0.6592 0.6617 0.6642
3253.230542 0.6668 0.6691 0.6714 0.6736 0.6759
3257.262807 0.6789 0.6820 0.6850 0.6880 0.6893
3261.295072 0.6905 0.6918 0.6930 0.6935 0.6940
3265.327337 0.6945 0.6950 0.6953 0.6955 0.6958
3269.359603 0.6960 0.6963 0.6966 0.6968 0.6971
3273.391868 0.6976 0.6981 0.6987 0.6988 0.6983
3277.424133 0.6978 0.6973 0.6970 0.6970 0.6970
3281.456398 0.6970 0.6968 0.6963 0.6958 0.6953
3285.488664 0.6943 0.6928 0.6913 0.6897 0.6874
3289.520929 0.6844 0.6814 0.6783 0.6756 0.6730
3293.553194 0.6705 0.6680 0.6656 0.6633 0.6610
3297.585459 0.6588 0.6568 0.6550 0.6533 0.6515
3301.617725 0.6497 0.6479 0.6461 0.6443 0.6427
3305.649990 0.6412 0.6397 0.6382 0.6362 0.6342
3309.682255 0.6322 0.6301 0.6279 0.6256 0.6233
3313.714521 0.6211 0.6151 0.6090 0.6029 0.5969
3317.746786 0.5923 0.5878 0.5832 0.5786 0.5733
3321.779051 0.5680 0.5627 0.5572 0.5506 0.5440
3325.811316 0.5374 0.5305 0.5219 0.5133 0.5047
3329.843582 0.4967 0.4909 0.4851 0.4792 0.4735
3333.875847 0.4678 0.4621 0.4565 0.4500 0.4421
3337.908112 0.4343 0.4264 0.4184 0.4100 0.4017
3341.940377 0.3933 0.3870 0.3830 0.3789 0.3749
3345.972643 0.3708 0.3668 0.3627 0.3587 0.3546
3350.004908 0.3506 0.3465 0.3425 0.3408 0.3406
3354.037173 0.3403 0.3401 0.3398 0.3396 0.3393
3358.069438 0.3391 0.3392 0.3394 0.3397 0.3399
3362.101704 0.3402 0.3404 0.3407 0.3410 0.3423
3366.133969 0.3438 0.3454 0.3469 0.3484 0.3500
3370.166234 0.3515 0.3530 0.3558 0.3585 0.3613
3374.198499 0.3642 0.3687 0.3733 0.3779 0.3823
3378.230765 0.3850 0.3878 0.3906 0.3934 0.3959
3382.263030 0.3984 0.4009 0.4042 0.4105 0.4169
3386.295295 0.4232 0.4296 0.4361 0.4427 0.4493
3390.327560 0.4555 0.4608 0.4662 0.4715 0.4763
3394.359826 0.4801 0.4839 0.4877 0.4926 0.4993
3398.392091 0.5060 0.5127 0.5192 0.5255 0.5318
3402.424356 0.5381 0.5414 0.5422 0.5429 0.5437
3406.456622 0.5440 0.5440 0.5440 0.5440 0.5433
3410.488887 0.5423 0.5413 0.5403 0.5393 0.5383
3414.521152 0.5373 0.5363 0.5352 0.5342 0.5332
3418.553417 0.5322 0.5312 0.5302 0.5292 0.5282
3422.585683 0.5209 0.5126 0.5042 0.4959 0.4932
3426.617948 0.4912 0.4891 0.4871 0.4851 0.4830
3430.650213 0.4809 0.4789 0.4771 0.4754 0.4736
3434.682478 0.4718 0.4700 0.4683 0.4665 0.4650
3438.714744 0.4647 0.4645 0.4642 0.4641 0.4643
3442.747009 0.4646 0.4648 0.4651 0.4653 0.4656
3446.779274 0.4658 0.4664 0.4676 0.4689 0.4702
3450.811539 0.4714 0.4724 0.4734 0.4744 0.4755
3454.843805 0.4768 0.4780 0.4793 0.4806 0.4818
3458.876070 0.4831 0.4844 0.4856 0.4869 0.4882
3462.908335 0.4895 0.4908 0.4920 0.4933 0.4946
3466.940600 0.4963 0.4984 0.5004 0.5024 0.5044
3470.972866 0.5065 0.5085 0.5105 0.5120 0.5132
3475.005131 0.5145 0.5158 0.5228 0.5311 0.5395
3479.037396 0.5478 0.5592 0.5711 0.5830 0.5949
3483.069661 0.6008 0.6061 0.6115 0.6168 0.6218
3487.101927 0.6269 0.6320 0.6371 0.6459 0.6548
3491.134192 0.6636 0.6722 0.6761 0.6799 0.6838
3495.166457 0.6876 0.6911 0.6947 0.6982 0.7024
3499.198723 0.7087 0.7150 0.7214 0.7273 0.7321
3503.230988 0.7369 0.7417 0.7461 0.7497 0.7532
3507.263253 0.7568 0.7598 0.7621 0.7644 0.7667
3511.295518 0.7684 0.7694 0.7704 0.7715 0.7725
3515.327784 0.7735 0.7745 0.7755 0.7764 0.7772
3519.360049 0.7779 0.7787 0.7794 0.7802 0.7809
3523.392314 0.7817 0.7825 0.7832 0.7840 0.7848
3527.424579 0.7854 0.7859 0.7864 0.7869 0.7876
3531.456845 0.7883 0.7891 0.7899 0.7904 0.7909
3535.489110 0.7914 0.7919 0.7924 0.7929 0.7935
3539.521375 0.7940 0.7942 0.7945 0.7947 0.7950
3543.553640 0.7955 0.7960 0.7965 0.7970 0.7973
3547.585906 0.7975 0.7978 0.7980 0.7983 0.7985
3551.618171 0.7988 0.7990 0.7993 0.7995 0.7998
3555.650436 0.8000 0.8000 0.8000 0.8000 0.8001
3559.682701 0.8003 0.8006 0.8008 0.8011 0.8013
3563.714967 0.8016 0.8018 0.8020 0.8020 0.8020
3567.747232 0.8020 0.8021 0.8024 0.8026 0.8029
3571.779497 0.8030 0.8030 0.8030 0.8030 0.8030
3575.811762 0.8030 0.8030 0.8030 0.8030 0.8030
3579.844028 0.8030 0.8030 0.8032 0.8034 0.8037
3583.876293 0.8039 0.8040 0.8040 0.8040 0.8040
3587.908558 0.8042 0.8044 0.8047 0.8050 0.8050
3591.940824 0.8050 0.8050 0.8050 0.8050 0.8050
3595.973089 0.8050 0.8050 0.8050 0.8050 0.8050
3600.005354 0.8050 0.8050 0.8050 0.8050 0.8050
3604.037619 0.8050 0.8050 0.8050 0.8050 0.8050
3608.069885 0.8050 0.8050 0.8050 0.8047 0.8045
3612.102150 0.8042 0.8040 0.8040 0.8040 0.8040
3616.134415 0.8039 0.8037 0.8034 0.8032 0.8030
3620.166680 0.8030 0.8030 0.8030 0.8030 0.8030
3624.198946 0.8030 0.8030 0.8030 0.8030 0.8030
3628.231211 0.8030 0.8030 0.8030 0.8030 0.8030
3632.263476 0.8030 0.8030 0.8030 0.8030 0.8030
3636.295741 0.8030 0.8030 0.8030 0.8030 0.8030
3640.328007 0.8030 0.8030 0.8034 0.8039 0.8044
3644.360272 0.8049 0.8050 0.8050 0.8050 0.8050
3648.392537 0.8052 0.8055 0.8057 0.8060 0.8060
3652.424802 0.8060 0.8060 0.8060 0.8062 0.8065
3656.457068 0.8067 0.8070 0.8070 0.8070 0.8070
3660.489333 0.8070 0.8075 0.8080 0.8085 0.8091
3664.521598 0.8096 0.8101 0.8106 0.8110 0.8110
3668.553863 0.8110 0.8110 0.8111 0.8113 0.8116
3672.586129 0.8118 0.8121 0.8123 0.8126 0.8128
3676.618394 0.8131 0.8133 0.8136 0.8138 0.8141
3680.650659 0.8143 0.8146 0.8148 0.8150 0.8150
3684.682925 0.8150 0.8150 0.8150 0.8150 0.8150
3688.715190 0.8150 0.8150 0.8150 0.8150 0.8150
3692.747455 0.8150 0.8150 0.8150 0.8150 0.8150
3696.779720 0.8150 0.8150 0.8150 0.8150 0.8150
3700.811986 0.8150 0.8150 0.8150 0.8150 0.8150
3704.844251 0.8150 0.8150 0.8150 0.8150 0.8150
3708.876516 0.8150 0.8150 0.8150 0.8150 0.8150
3712.908781 0.8150 0.8150 0.8150 0.8148 0.8145
3716.941047 0.8142 0.8140 0.8137 0.8135 0.8132
3720.973312 0.8130 0.8130 0.8130 0.8130 0.8130
3725.005577 0.8130 0.8130 0.8130 0.8130 0.8130
3729.037842 0.8130 0.8130 0.8129 0.8127 0.8124
3733.070108 0.8122 0.8120 0.8120 0.8120 0.8120
3737.102373 0.8120 0.8120 0.8120 0.8120 0.8120
3741.134638 0.8120 0.8120 0.8120 0.8119 0.8116
3745.166903 0.8114 0.8111 0.8110 0.8110 0.8110
3749.199169 0.8110 0.8110 0.8110 0.8110 0.8110
3753.231434 0.8110 0.8110 0.8110 0.8110 0.8110
3757.263699 0.8110 0.8110 0.8110 0.8112 0.8114
3761.295964 0.8117 0.8120 0.8120 0.8120 0.8120
3765.328230 0.8120 0.8122 0.8125 0.8127 0.8130
3769.360495 0.8130 0.8130 0.8130 0.8130 0.8130
3773.392760 0.8130 0.8130 0.8130 0.8133 0.8135
3777.425026 0.8138 0.8140 0.8140 0.8140 0.8140
3781.457291 0.8140 0.8140 0.8140 0.8140 0.8140
3785.489556 0.8140 0.8140 0.8140 0.8140 0.8140
3789.521821 0.8140 0.8140 0.8141 0.8143 0.8146
3793.554087 0.8148 0.8150 0.8150 0.8150 0.8150
3797.586352 0.8150 0.8150 0.8150 0.8150 0.8150
3801.618617 0.8150 0.8150 0.8150 0.8150 0.8150
3805.650882 0.8150 0.8150 0.8150 0.8150 0.8150
3809.683148 0.8150 0.8150 0.8150 0.8150 0.8150
3813.715413 0.8150 0.8150 0.8150 0.8150 0.8150
3817.747678 0.8150 0.8150 0.8150 0.8150 0.8150
3821.779943 0.8150 0.8150 0.8148 0.8145 0.8143
3825.812209 0.8140 0.8140 0.8140 0.8140 0.8140
3829.844474 0.8140 0.8140 0.8140 0.8140 0.8140
3833.876739 0.8140 0.8140 0.8140 0.8140 0.8140
3837.909004 0.8140 0.8140 0.8140 0.8140 0.8140
3841.941270 0.8140 0.8137 0.8134 0.8132 0.8130
3845.973535 0.8130 0.8130 0.8130 0.8130 0.8130
3850.005800 0.8130 0.8130 0.8130 0.8130 0.8130
3854.038065 0.8130 0.8130 0.8130 0.8130 0.8130
3858.070331 0.8129 0.8126 0.8124 0.8121 0.8120
3862.102596 0.8120 0.8120 0.8120 0.8120 0.8120
3866.134861 0.8120 0.8120 0.8120 0.8120 0.8120
3870.167127 0.8120 0.8120 0.8120 0.8120 0.8120
3874.199392 0.8120 0.8120 0.8120 0.8120 0.8120
3878.231657 0.8120 0.8120 0.8120 0.8120 0.8120
3882.263922 0.8120 0.8120 0.8120 0.8120 0.8120
3886.296188 0.8120 0.8120 0.8120 0.8120 0.8120
3890.328453 0.8123 0.8125 0.8128 0.8130 0.8130
3894.360718 0.8130 0.8130 0.8130 0.8130 0.8130
3898.392983 0.8130 0.8130 0.8130 0.8130 0.8130
3902.425249 0.8130 0.8130 0.8130 0.8130 0.8130
3906.457514 0.8130 0.8130 0.8130 0.8130 0.8130
3910.489779 0.8130 0.8130 0.8130 0.8130 0.8130
3914.522044 0.8130 0.8130 0.8130 0.8130 0.8130
3918.554310 0.8130 0.8130 0.8130 0.8130 0.8130
3922.586575 0.8130 0.8130 0.8130 0.8130 0.8130
3926.618840 0.8130 0.8130 0.8128 0.8126 0.8123
3930.651105 0.8121 0.8120 0.8120 0.8120 0.8120
3934.683371 0.8120 0.8120 0.8120 0.8120 0.8120
3938.715636 0.8120 0.8120 0.8120 0.8118 0.8115
3942.747901 0.8113 0.8110 0.8110 0.8110 0.8110
3946.780166 0.8110 0.8110 0.8110 0.8110 0.8110
3950.812432 0.8110 0.8110 0.8110
##END=
