##TITLE=1-Chloro-3-fluorobenzene
##JCAMP-DX=4.24
$$ By DXEDIT 1.05 (RS McDonald)
##DATA TYPE=INFRARED SPECTRUM
##CLASS=COBLENTZ III
##ORIGIN=DOW CHEMICAL COMPANY
##OWNER=COPYRIGHT (C) 1988 by COBLENTZ SOCIETY INC.
Collection (C) 2018 copyright by the U.S. Secretary of Commerce
on behalf of the United States of America. All rights reserved.
##DATE=1960/10/04
##CAS REGISTRY NO=625-98-9
##MOLFORM=C6 H4 Cl F
##SOURCE REFERENCE=COBLENTZ NO. 06385
##$NIST SOURCE=COBLENTZ
##$NIST IMAGE=cob6385
##SPECTROMETER/DATA SYSTEM=DOW KBr FOREPRISM-GRATING
##INSTRUMENT PARAMETERS=BLAZED AT 3.5, 12.0, 20.0 MICRON AND CHANGED AT 5.0, 7.5, 14.9 MICRON
##STATE=SOLUTION (10% CCl4 FOR 3800-1330, 10% CS2 FOR 1330-430 CM^-^1) VS SOLVENT
##PATH LENGTH=0.012 CM, 0.011 CM
##SAMPLING PROCEDURE=TRANSMISSION
##RESOLUTION=2
##DATA PROCESSING=DIGITIZED BY COBLENTZ SOCIETY (BATCH I) FROM HARD COPY
##XUNITS=1/CM
##YUNITS=TRANSMITTANCE
##XFACTOR=1
##YFACTOR=1
##DELTAX=1
##FIRSTX=3758
##LASTX=431
##FIRSTY=0.8946
##MAXX=3758
##MINX=431
##MAXY=0.9149
##MINY=0.0008
##NPOINTS=3328
##XYDATA=(X++(Y..Y))
3758.000000 0.8946 0.8946 0.8946 0.8946 0.8947
3753.000000 0.8947 0.8947 0.8947 0.8948 0.8948
3748.000000 0.8948 0.8948 0.8949 0.8949 0.8950
3743.000000 0.8950 0.8950 0.8950 0.8951 0.8951
3738.000000 0.8951 0.8951 0.8951 0.8950 0.8950
3733.000000 0.8949 0.8949 0.8948 0.8948 0.8947
3728.000000 0.8947 0.8946 0.8946 0.8945 0.8945
3723.000000 0.8945 0.8945 0.8944 0.8944 0.8944
3718.000000 0.8944 0.8943 0.8943 0.8943 0.8943
3713.000000 0.8942 0.8941 0.8940 0.8940 0.8939
3708.000000 0.8939 0.8938 0.8938 0.8936 0.8935
3703.000000 0.8931 0.8927 0.8923 0.8920 0.8916
3698.000000 0.8912 0.8908 0.8905 0.8902 0.8902
3693.000000 0.8903 0.8906 0.8908 0.8911 0.8913
3688.000000 0.8916 0.8916 0.8916 0.8916 0.8916
3683.000000 0.8916 0.8916 0.8916 0.8916 0.8916
3678.000000 0.8917 0.8917 0.8917 0.8917 0.8917
3673.000000 0.8917 0.8917 0.8917 0.8917 0.8917
3668.000000 0.8917 0.8917 0.8917 0.8917 0.8917
3663.000000 0.8916 0.8915 0.8914 0.8914 0.8913
3658.000000 0.8913 0.8912 0.8911 0.8910 0.8910
3653.000000 0.8909 0.8908 0.8907 0.8907 0.8906
3648.000000 0.8906 0.8905 0.8904 0.8903 0.8903
3643.000000 0.8902 0.8901 0.8900 0.8900 0.8899
3638.000000 0.8899 0.8898 0.8897 0.8896 0.8896
3633.000000 0.8895 0.8894 0.8893 0.8893 0.8892
3628.000000 0.8891 0.8891 0.8891 0.8890 0.8890
3623.000000 0.8889 0.8889 0.8888 0.8888 0.8888
3618.000000 0.8888 0.8887 0.8887 0.8886 0.8886
3613.000000 0.8885 0.8885 0.8885 0.8885 0.8884
3608.000000 0.8884 0.8883 0.8883 0.8882 0.8882
3603.000000 0.8882 0.8882 0.8881 0.8881 0.8880
3598.000000 0.8880 0.8878 0.8878 0.8878 0.8878
3593.000000 0.8878 0.8878 0.8877 0.8877 0.8875
3588.000000 0.8875 0.8875 0.8875 0.8875 0.8875
3583.000000 0.8874 0.8874 0.8874 0.8874 0.8873
3578.000000 0.8873 0.8871 0.8871 0.8871 0.8871
3573.000000 0.8871 0.8871 0.8870 0.8870 0.8870
3568.000000 0.8870 0.8868 0.8868 0.8868 0.8868
3563.000000 0.8868 0.8868 0.8867 0.8867 0.8867
3558.000000 0.8867 0.8866 0.8866 0.8865 0.8865
3553.000000 0.8865 0.8865 0.8864 0.8864 0.8863
3548.000000 0.8863 0.8863 0.8863 0.8862 0.8862
3543.000000 0.8862 0.8862 0.8861 0.8861 0.8861
3538.000000 0.8861 0.8860 0.8860 0.8860 0.8860
3533.000000 0.8859 0.8859 0.8859 0.8859 0.8858
3528.000000 0.8858 0.8858 0.8858 0.8857 0.8857
3523.000000 0.8857 0.8857 0.8857 0.8857 0.8856
3518.000000 0.8856 0.8856 0.8856 0.8855 0.8855
3513.000000 0.8855 0.8855 0.8854 0.8854 0.8854
3508.000000 0.8854 0.8854 0.8855 0.8855 0.8856
3503.000000 0.8856 0.8857 0.8857 0.8858 0.8858
3498.000000 0.8859 0.8859 0.8860 0.8860 0.8861
3493.000000 0.8861 0.8862 0.8862 0.8863 0.8863
3488.000000 0.8864 0.8864 0.8865 0.8865 0.8866
3483.000000 0.8866 0.8866 0.8866 0.8866 0.8866
3478.000000 0.8866 0.8866 0.8866 0.8866 0.8866
3473.000000 0.8866 0.8866 0.8866 0.8866 0.8866
3468.000000 0.8866 0.8865 0.8865 0.8864 0.8864
3463.000000 0.8863 0.8863 0.8862 0.8862 0.8861
3458.000000 0.8861 0.8860 0.8860 0.8859 0.8859
3453.000000 0.8858 0.8857 0.8856 0.8856 0.8855
3448.000000 0.8854 0.8853 0.8853 0.8852 0.8851
3443.000000 0.8850 0.8850 0.8847 0.8845 0.8842
3438.000000 0.8839 0.8836 0.8834 0.8831 0.8828
3433.000000 0.8825 0.8823 0.8820 0.8818 0.8815
3428.000000 0.8813 0.8810 0.8808 0.8806 0.8804
3423.000000 0.8802 0.8801 0.8799 0.8798 0.8796
3418.000000 0.8795 0.8793 0.8791 0.8789 0.8788
3413.000000 0.8786 0.8785 0.8783 0.8782 0.8781
3408.000000 0.8781 0.8781 0.8781 0.8781 0.8781
3403.000000 0.8781 0.8781 0.8781 0.8781 0.8781
3398.000000 0.8781 0.8781 0.8781 0.8781 0.8781
3393.000000 0.8781 0.8781 0.8781 0.8781 0.8780
3388.000000 0.8780 0.8778 0.8778 0.8777 0.8775
3383.000000 0.8774 0.8773 0.8771 0.8771 0.8770
3378.000000 0.8768 0.8768 0.8767 0.8766 0.8765
3373.000000 0.8764 0.8763 0.8763 0.8763 0.8763
3368.000000 0.8764 0.8765 0.8766 0.8766 0.8767
3363.000000 0.8767 0.8768 0.8768 0.8768 0.8770
3358.000000 0.8771 0.8771 0.8774 0.8775 0.8777
3353.000000 0.8778 0.8778 0.8780 0.8782 0.8783
3348.000000 0.8785 0.8786 0.8788 0.8789 0.8790
3343.000000 0.8790 0.8790 0.8790 0.8790 0.8789
3338.000000 0.8789 0.8788 0.8788 0.8787 0.8787
3333.000000 0.8786 0.8786 0.8785 0.8785 0.8785
3328.000000 0.8785 0.8784 0.8784 0.8784 0.8784
3323.000000 0.8784 0.8784 0.8783 0.8783 0.8783
3318.000000 0.8783 0.8782 0.8782 0.8782 0.8781
3313.000000 0.8781 0.8781 0.8781 0.8781 0.8780
3308.000000 0.8780 0.8780 0.8780 0.8780 0.8780
3303.000000 0.8781 0.8782 0.8783 0.8784 0.8785
3298.000000 0.8786 0.8787 0.8788 0.8789 0.8790
3293.000000 0.8791 0.8792 0.8793 0.8794 0.8795
3288.000000 0.8796 0.8797 0.8798 0.8799 0.8800
3283.000000 0.8801 0.8802 0.8803 0.8804 0.8805
3278.000000 0.8806 0.8807 0.8808 0.8808 0.8808
3273.000000 0.8808 0.8808 0.8808 0.8808 0.8807
3268.000000 0.8807 0.8807 0.8807 0.8806 0.8806
3263.000000 0.8806 0.8806 0.8806 0.8806 0.8805
3258.000000 0.8805 0.8805 0.8805 0.8804 0.8804
3253.000000 0.8804 0.8804 0.8804 0.8805 0.8805
3248.000000 0.8806 0.8806 0.8807 0.8807 0.8808
3243.000000 0.8808 0.8809 0.8809 0.8810 0.8810
3238.000000 0.8811 0.8811 0.8811 0.8810 0.8810
3233.000000 0.8809 0.8809 0.8808 0.8808 0.8807
3228.000000 0.8806 0.8805 0.8805 0.8804 0.8804
3223.000000 0.8803 0.8803 0.8802 0.8801 0.8800
3218.000000 0.8800 0.8797 0.8795 0.8792 0.8790
3213.000000 0.8788 0.8786 0.8785 0.8784 0.8783
3208.000000 0.8782 0.8781 0.8780 0.8778 0.8775
3203.000000 0.8773 0.8771 0.8760 0.8750 0.8728
3198.000000 0.8707 0.8688 0.8668 0.8655 0.8641
3193.000000 0.8634 0.8627 0.8623 0.8618 0.8618
3188.000000 0.8617 0.8617 0.8617 0.8617 0.8618
3183.000000 0.8632 0.8647 0.8654 0.8661 0.8668
3178.000000 0.8675 0.8682 0.8689 0.8696 0.8703
3173.000000 0.8711 0.8718 0.8727 0.8735 0.8737
3168.000000 0.8739 0.8740 0.8742 0.8744 0.8746
3163.000000 0.8747 0.8747 0.8747 0.8747 0.8747
3158.000000 0.8747 0.8746 0.8746 0.8746 0.8746
3153.000000 0.8746 0.8746 0.8743 0.8741 0.8739
3148.000000 0.8737 0.8735 0.8733 0.8731 0.8728
3143.000000 0.8725 0.8724 0.8721 0.8720 0.8718
3138.000000 0.8716 0.8714 0.8712 0.8709 0.8707
3133.000000 0.8704 0.8701 0.8697 0.8694 0.8690
3128.000000 0.8687 0.8683 0.8678 0.8671 0.8665
3123.000000 0.8658 0.8651 0.8644 0.8637 0.8630
3118.000000 0.8623 0.8615 0.8608 0.8598 0.8588
3113.000000 0.8578 0.8568 0.8558 0.8549 0.8536
3108.000000 0.8524 0.8510 0.8496 0.8481 0.8466
3103.000000 0.8442 0.8418 0.8393 0.8368 0.8351
3098.000000 0.8335 0.8330 0.8325 0.8324 0.8323
3093.000000 0.8321 0.8320 0.8314 0.8309 0.8263
3088.000000 0.8218 0.8095 0.7971 0.7828 0.7685
3083.000000 0.7542 0.7399 0.7255 0.7111 0.6975
3078.000000 0.6822 0.6841 0.6841 0.6887 0.6934
3073.000000 0.7126 0.7319 0.7512 0.7706 0.7796
3068.000000 0.7887 0.7938 0.7989 0.8049 0.8110
3063.000000 0.8167 0.8224 0.8271 0.8318 0.8352
3058.000000 0.8387 0.8409 0.8431 0.8450 0.8468
3053.000000 0.8481 0.8493 0.8505 0.8518 0.8530
3048.000000 0.8543 0.8555 0.8568 0.8571 0.8575
3043.000000 0.8582 0.8588 0.8589 0.8590 0.8589
3038.000000 0.8583 0.8574 0.8566 0.8555 0.8544
3033.000000 0.8539 0.8534 0.8545 0.8556 0.8566
3028.000000 0.8577 0.8587 0.8597 0.8606 0.8616
3023.000000 0.8625 0.8635 0.8641 0.8647 0.8652
3018.000000 0.8658 0.8663 0.8668 0.8674 0.8680
3013.000000 0.8685 0.8691 0.8697 0.8703 0.8708
3008.000000 0.8714 0.8718 0.8725 0.8731 0.8737
3003.000000 0.8742 0.8748 0.8753 0.8759 0.8765
2998.000000 0.8771 0.8775 0.8782 0.8788 0.8794
2993.000000 0.8798 0.8803 0.8807 0.8811 0.8815
2988.000000 0.8818 0.8823 0.8827 0.8831 0.8835
2983.000000 0.8839 0.8843 0.8846 0.8849 0.8850
2978.000000 0.8852 0.8853 0.8855 0.8857 0.8859
2973.000000 0.8860 0.8862 0.8863 0.8863 0.8863
2968.000000 0.8862 0.8859 0.8857 0.8854 0.8851
2963.000000 0.8848 0.8846 0.8843 0.8840 0.8837
2958.000000 0.8835 0.8832 0.8830 0.8828 0.8825
2953.000000 0.8824 0.8823 0.8821 0.8818 0.8817
2948.000000 0.8816 0.8814 0.8812 0.8812 0.8812
2943.000000 0.8813 0.8814 0.8815 0.8816 0.8817
2938.000000 0.8818 0.8818 0.8821 0.8821 0.8823
2933.000000 0.8824 0.8825 0.8825 0.8825 0.8825
2928.000000 0.8825 0.8824 0.8824 0.8824 0.8824
2923.000000 0.8823 0.8823 0.8823 0.8823 0.8821
2918.000000 0.8821 0.8821 0.8821 0.8821 0.8821
2913.000000 0.8821 0.8821 0.8821 0.8821 0.8823
2908.000000 0.8825 0.8827 0.8828 0.8830 0.8832
2903.000000 0.8833 0.8835 0.8836 0.8838 0.8840
2898.000000 0.8842 0.8843 0.8844 0.8844 0.8845
2893.000000 0.8845 0.8846 0.8846 0.8847 0.8847
2888.000000 0.8846 0.8846 0.8845 0.8843 0.8842
2883.000000 0.8840 0.8838 0.8831 0.8824 0.8817
2878.000000 0.8811 0.8808 0.8807 0.8807 0.8810
2873.000000 0.8813 0.8816 0.8818 0.8821 0.8825
2868.000000 0.8828 0.8833 0.8837 0.8840 0.8844
2863.000000 0.8845 0.8847 0.8847 0.8848 0.8842
2858.000000 0.8837 0.8824 0.8811 0.8802 0.8794
2853.000000 0.8788 0.8782 0.8780 0.8778 0.8777
2848.000000 0.8775 0.8780 0.8784 0.8788 0.8792
2843.000000 0.8796 0.8800 0.8810 0.8820 0.8828
2838.000000 0.8838 0.8843 0.8848 0.8853 0.8859
2833.000000 0.8861 0.8863 0.8864 0.8866 0.8867
2828.000000 0.8868 0.8870 0.8871 0.8871 0.8874
2823.000000 0.8875 0.8877 0.8878 0.8880 0.8881
2818.000000 0.8882 0.8877 0.8871 0.8867 0.8862
2813.000000 0.8857 0.8853 0.8848 0.8844 0.8843
2808.000000 0.8843 0.8843 0.8844 0.8845 0.8846
2803.000000 0.8848 0.8851 0.8855 0.8859 0.8862
2798.000000 0.8866 0.8868 0.8873 0.8877 0.8881
2793.000000 0.8883 0.8885 0.8885 0.8886 0.8887
2788.000000 0.8888 0.8888 0.8889 0.8890 0.8891
2783.000000 0.8891 0.8892 0.8892 0.8893 0.8894
2778.000000 0.8895 0.8895 0.8895 0.8894 0.8894
2773.000000 0.8894 0.8894 0.8893 0.8893 0.8893
2768.000000 0.8893 0.8893 0.8893 0.8892 0.8892
2763.000000 0.8891 0.8891 0.8890 0.8890 0.8889
2758.000000 0.8889 0.8888 0.8888 0.8887 0.8887
2753.000000 0.8886 0.8886 0.8885 0.8885 0.8883
2748.000000 0.8881 0.8878 0.8878 0.8875 0.8874
2743.000000 0.8871 0.8870 0.8864 0.8858 0.8850
2738.000000 0.8843 0.8836 0.8830 0.8827 0.8824
2733.000000 0.8820 0.8817 0.8814 0.8811 0.8808
2728.000000 0.8807 0.8807 0.8809 0.8810 0.8812
2723.000000 0.8813 0.8815 0.8816 0.8818 0.8818
2718.000000 0.8821 0.8823 0.8825 0.8827 0.8830
2713.000000 0.8833 0.8836 0.8838 0.8841 0.8844
2708.000000 0.8847 0.8849 0.8849 0.8850 0.8849
2703.000000 0.8845 0.8841 0.8827 0.8814 0.8795
2698.000000 0.8777 0.8756 0.8736 0.8715 0.8694
2693.000000 0.8678 0.8663 0.8648 0.8633 0.8608
2688.000000 0.8584 0.8582 0.8581 0.8599 0.8618
2683.000000 0.8633 0.8649 0.8664 0.8678 0.8694
2678.000000 0.8710 0.8725 0.8743 0.8759 0.8775
2673.000000 0.8791 0.8807 0.8815 0.8824 0.8828
2668.000000 0.8828 0.8828 0.8824 0.8820 0.8816
2663.000000 0.8813 0.8810 0.8818 0.8828 0.8836
2658.000000 0.8843 0.8843 0.8843 0.8842 0.8842
2653.000000 0.8841 0.8841 0.8836 0.8832 0.8827
2648.000000 0.8823 0.8821 0.8820 0.8820 0.8821
2643.000000 0.8821 0.8821 0.8825 0.8828 0.8834
2638.000000 0.8839 0.8844 0.8849 0.8850 0.8852
2633.000000 0.8853 0.8855 0.8856 0.8858 0.8859
2628.000000 0.8861 0.8862 0.8864 0.8864 0.8865
2623.000000 0.8866 0.8867 0.8867 0.8868 0.8868
2618.000000 0.8868 0.8868 0.8870 0.8870 0.8871
2613.000000 0.8871 0.8873 0.8873 0.8874 0.8874
2608.000000 0.8875 0.8875 0.8875 0.8875 0.8875
2603.000000 0.8875 0.8875 0.8873 0.8871 0.8870
2598.000000 0.8868 0.8866 0.8865 0.8862 0.8860
2593.000000 0.8855 0.8851 0.8838 0.8825 0.8812
2588.000000 0.8798 0.8782 0.8766 0.8752 0.8738
2583.000000 0.8725 0.8715 0.8713 0.8712 0.8711
2578.000000 0.8711 0.8711 0.8711 0.8715 0.8720
2573.000000 0.8728 0.8739 0.8753 0.8767 0.8780
2568.000000 0.8794 0.8808 0.8821 0.8828 0.8836
2563.000000 0.8836 0.8837 0.8828 0.8820 0.8811
2558.000000 0.8803 0.8795 0.8787 0.8778 0.8770
2553.000000 0.8762 0.8754 0.8746 0.8738 0.8736
2548.000000 0.8734 0.8743 0.8752 0.8761 0.8771
2543.000000 0.8780 0.8790 0.8798 0.8807 0.8815
2538.000000 0.8824 0.8831 0.8839 0.8843 0.8847
2533.000000 0.8850 0.8854 0.8853 0.8852 0.8851
2528.000000 0.8850 0.8849 0.8848 0.8847 0.8846
2523.000000 0.8845 0.8844 0.8843 0.8842 0.8841
2518.000000 0.8841 0.8842 0.8843 0.8844 0.8845
2513.000000 0.8846 0.8847 0.8848 0.8849 0.8850
2508.000000 0.8851 0.8853 0.8855 0.8857 0.8860
2503.000000 0.8862 0.8865 0.8865 0.8866 0.8866
2498.000000 0.8867 0.8867 0.8867 0.8867 0.8868
2493.000000 0.8859 0.8850 0.8820 0.8790 0.8757
2488.000000 0.8725 0.8690 0.8656 0.8618 0.8583
2483.000000 0.8543 0.8504 0.8494 0.8484 0.8478
2478.000000 0.8444 0.8473 0.8471 0.8468 0.8467
2473.000000 0.8466 0.8465 0.8483 0.8502 0.8528
2468.000000 0.8557 0.8582 0.8607 0.8643 0.8680
2463.000000 0.8702 0.8724 0.8730 0.8737 0.8743
2458.000000 0.8750 0.8753 0.8757 0.8758 0.8760
2453.000000 0.8761 0.8763 0.8764 0.8764 0.8765
2448.000000 0.8764 0.8760 0.8756 0.8752 0.8748
2443.000000 0.8737 0.8727 0.8713 0.8699 0.8687
2438.000000 0.8675 0.8665 0.8656 0.8653 0.8651
2433.000000 0.8648 0.8646 0.8656 0.8666 0.8677
2428.000000 0.8688 0.8699 0.8710 0.8721 0.8732
2423.000000 0.8738 0.8744 0.8747 0.8750 0.8753
2418.000000 0.8756 0.8759 0.8762 0.8765 0.8768
2413.000000 0.8771 0.8775 0.8778 0.8782 0.8785
2408.000000 0.8788 0.8791 0.8795 0.8797 0.8800
2403.000000 0.8802 0.8804 0.8805 0.8807 0.8809
2398.000000 0.8811 0.8812 0.8814 0.8814 0.8814
2393.000000 0.8814 0.8815 0.8815 0.8815 0.8813
2388.000000 0.8812 0.8810 0.8809 0.8807 0.8805
2383.000000 0.8803 0.8801 0.8798 0.8796 0.8793
2378.000000 0.8790 0.8787 0.8784 0.8780 0.8777
2373.000000 0.8774 0.8771 0.8767 0.8764 0.8760
2368.000000 0.8757 0.8753 0.8750 0.8748 0.8747
2363.000000 0.8745 0.8744 0.8742 0.8741 0.8739
2358.000000 0.8738 0.8736 0.8734 0.8732 0.8731
2353.000000 0.8727 0.8724 0.8712 0.8701 0.8690
2348.000000 0.8678 0.8678 0.8678 0.8678 0.8681
2343.000000 0.8689 0.8698 0.8714 0.8730 0.8738
2338.000000 0.8746 0.8754 0.8763 0.8771 0.8778
2333.000000 0.8787 0.8795 0.8801 0.8807 0.8813
2328.000000 0.8820 0.8825 0.8832 0.8838 0.8844
2323.000000 0.8844 0.8843 0.8843 0.8841 0.8834
2318.000000 0.8828 0.8814 0.8800 0.8786 0.8773
2313.000000 0.8759 0.8745 0.8731 0.8718 0.8704
2308.000000 0.8691 0.8678 0.8668 0.8668 0.8668
2303.000000 0.8671 0.8674 0.8685 0.8697 0.8718
2298.000000 0.8739 0.8753 0.8767 0.8778 0.8791
2293.000000 0.8799 0.8808 0.8806 0.8805 0.8804
2288.000000 0.8803 0.8801 0.8800 0.8797 0.8794
2283.000000 0.8790 0.8787 0.8783 0.8778 0.8778
2278.000000 0.8780 0.8782 0.8784 0.8786 0.8789
2273.000000 0.8791 0.8793 0.8795 0.8798 0.8800
2268.000000 0.8803 0.8805 0.8807 0.8811 0.8815
2263.000000 0.8820 0.8825 0.8830 0.8835 0.8839
2258.000000 0.8844 0.8845 0.8846 0.8847 0.8848
2253.000000 0.8849 0.8851 0.8852 0.8853 0.8854
2248.000000 0.8854 0.8854 0.8854 0.8853 0.8853
2243.000000 0.8852 0.8851 0.8848 0.8846 0.8842
2238.000000 0.8838 0.8835 0.8835 0.8834 0.8836
2233.000000 0.8838 0.8841 0.8843 0.8845 0.8845
2228.000000 0.8846 0.8846 0.8846 0.8846 0.8846
2223.000000 0.8845 0.8845 0.8845 0.8845 0.8844
2218.000000 0.8844 0.8843 0.8843 0.8842 0.8842
2213.000000 0.8841 0.8841 0.8840 0.8840 0.8840
2208.000000 0.8840 0.8841 0.8842 0.8842 0.8843
2203.000000 0.8844 0.8845 0.8846 0.8847 0.8848
2198.000000 0.8849 0.8850 0.8851 0.8851 0.8851
2193.000000 0.8850 0.8850 0.8850 0.8850 0.8850
2188.000000 0.8850 0.8850 0.8850 0.8850 0.8850
2183.000000 0.8850 0.8851 0.8851 0.8851 0.8850
2178.000000 0.8849 0.8847 0.8846 0.8844 0.8843
2173.000000 0.8841 0.8840 0.8837 0.8835 0.8831
2168.000000 0.8828 0.8824 0.8821 0.8818 0.8815
2163.000000 0.8811 0.8808 0.8804 0.8800 0.8796
2158.000000 0.8792 0.8787 0.8783 0.8778 0.8775
2153.000000 0.8771 0.8770 0.8768 0.8766 0.8763
2148.000000 0.8761 0.8761 0.8761 0.8761 0.8761
2143.000000 0.8764 0.8767 0.8774 0.8782 0.8789
2138.000000 0.8796 0.8801 0.8807 0.8813 0.8818
2133.000000 0.8821 0.8824 0.8825 0.8827 0.8828
2128.000000 0.8828 0.8828 0.8828 0.8828 0.8827
2123.000000 0.8823 0.8820 0.8816 0.8812 0.8807
2118.000000 0.8802 0.8795 0.8789 0.8782 0.8775
2113.000000 0.8763 0.8750 0.8737 0.8724 0.8690
2108.000000 0.8657 0.8624 0.8591 0.8558 0.8525
2103.000000 0.8491 0.8458 0.8425 0.8320 0.8365
2098.000000 0.8338 0.8339 0.8341 0.8356 0.8371
2093.000000 0.8411 0.8451 0.8490 0.8530 0.8568
2088.000000 0.8609 0.8649 0.8689 0.8707 0.8725
2083.000000 0.8739 0.8754 0.8762 0.8770 0.8777
2078.000000 0.8785 0.8792 0.8800 0.8808 0.8816
2073.000000 0.8823 0.8831 0.8836 0.8841 0.8840
2068.000000 0.8839 0.8838 0.8838 0.8837 0.8836
2063.000000 0.8835 0.8835 0.8834 0.8833 0.8832
2058.000000 0.8832 0.8831 0.8831 0.8830 0.8828
2053.000000 0.8828 0.8828 0.8827 0.8825 0.8825
2048.000000 0.8825 0.8825 0.8825 0.8825 0.8825
2043.000000 0.8825 0.8825 0.8825 0.8825 0.8825
2038.000000 0.8825 0.8825 0.8825 0.8825 0.8825
2033.000000 0.8825 0.8825 0.8825 0.8827 0.8827
2028.000000 0.8827 0.8827 0.8827 0.8827 0.8827
2023.000000 0.8828 0.8830 0.8831 0.8832 0.8833
2018.000000 0.8834 0.8834 0.8834 0.8828 0.8825
2013.000000 0.8820 0.8815 0.8810 0.8806 0.8801
2008.000000 0.8797 0.8793 0.8790 0.8789 0.8788
2003.000000 0.8787 0.8787 0.8788 0.8792 0.8804
1998.000000 0.8816 0.8831 0.8847 0.8863 0.8878
1993.000000 0.8891 0.8904 0.8915 0.8924 0.8932
1988.000000 0.8941 0.8948 0.8953 0.8955 0.8956
1983.000000 0.8956 0.8957 0.8957 0.8957 0.8958
1978.000000 0.8958 0.8959 0.8959 0.8960 0.8960
1973.000000 0.8956 0.8952 0.8948 0.8942 0.8933
1968.000000 0.8923 0.8914 0.8906 0.8900 0.8895
1963.000000 0.8895 0.8895 0.8896 0.8902 0.8910
1958.000000 0.8934 0.9021 0.9108 0.9149 0.9135
1953.000000 0.9056 0.8977 0.8911 0.8911 0.8912
1948.000000 0.8910 0.8899 0.8886 0.8860 0.8836
1943.000000 0.8813 0.8796 0.8786 0.8778 0.8778
1938.000000 0.8789 0.8798 0.8804 0.8803 0.8771
1933.000000 0.8724 0.8671 0.8608 0.8503 0.8395
1928.000000 0.8288 0.8181 0.8074 0.8008 0.8005
1923.000000 0.7991 0.8001 0.8118 0.8244 0.8314
1918.000000 0.8384 0.8453 0.8518 0.8577 0.8635
1913.000000 0.8688 0.8725 0.8761 0.8781 0.8790
1908.000000 0.8784 0.8778 0.8777 0.8775 0.8775
1903.000000 0.8775 0.8786 0.8796 0.8807 0.8818
1898.000000 0.8832 0.8846 0.8860 0.8868 0.8873
1893.000000 0.8873 0.8874 0.8867 0.8859 0.8850
1888.000000 0.8840 0.8831 0.8823 0.8817 0.8814
1883.000000 0.8821 0.8832 0.8845 0.8860 0.8875
1878.000000 0.8887 0.8896 0.8905 0.8913 0.8908
1873.000000 0.8906 0.8897 0.8896 0.8896 0.8897
1868.000000 0.8897 0.8898 0.8898 0.8899 0.8899
1863.000000 0.8900 0.8895 0.8889 0.8884 0.8875
1858.000000 0.8863 0.8850 0.8835 0.8818 0.8778
1853.000000 0.8732 0.8678 0.8606 0.8517 0.8344
1848.000000 0.8224 0.8164 0.8130 0.8104 0.8104
1843.000000 0.8104 0.8108 0.8178 0.8273 0.8365
1838.000000 0.8449 0.8528 0.8618 0.8670 0.8704
1833.000000 0.8725 0.8749 0.8774 0.8807 0.8831
1828.000000 0.8830 0.8824 0.8811 0.8797 0.8792
1823.000000 0.8788 0.8788 0.8788 0.8804 0.8821
1818.000000 0.8837 0.8854 0.8868 0.8877 0.8881
1813.000000 0.8885 0.8889 0.8893 0.8896 0.8899
1808.000000 0.8903 0.8906 0.8906 0.8906 0.8916
1803.000000 0.8920 0.8923 0.8927 0.8930 0.8934
1798.000000 0.8934 0.8934 0.8933 0.8933 0.8932
1793.000000 0.8931 0.8930 0.8928 0.8925 0.8924
1788.000000 0.8921 0.8920 0.8913 0.8907 0.8901
1783.000000 0.8889 0.8875 0.8864 0.8834 0.8811
1778.000000 0.8789 0.8768 0.8746 0.8723 0.8697
1773.000000 0.8684 0.8671 0.8628 0.8571 0.8496
1768.000000 0.8373 0.8316 0.8234 0.8192 0.8165
1763.000000 0.8150 0.8137 0.8144 0.8236 0.8328
1758.000000 0.8415 0.8506 0.8546 0.8585 0.8634
1753.000000 0.8671 0.8700 0.8705 0.8706 0.8706
1748.000000 0.8688 0.8662 0.8612 0.8542 0.8499
1743.000000 0.8459 0.8420 0.8387 0.8317 0.8350
1738.000000 0.8353 0.8363 0.8382 0.8404 0.8427
1733.000000 0.8451 0.8475 0.8497 0.8514 0.8531
1728.000000 0.8537 0.8543 0.8555 0.8549 0.8546
1723.000000 0.8537 0.8515 0.8494 0.8456 0.8407
1718.000000 0.8221 0.8095 0.8036 0.7982 0.7942
1713.000000 0.7896 0.7921 0.7924 0.8040 0.8125
1708.000000 0.8194 0.8260 0.8321 0.8363 0.8396
1703.000000 0.8425 0.8456 0.8486 0.8516 0.8546
1698.000000 0.8578 0.8618 0.8658 0.8684 0.8707
1693.000000 0.8728 0.8744 0.8759 0.8764 0.8768
1688.000000 0.8768 0.8763 0.8750 0.8736 0.8720
1683.000000 0.8703 0.8704 0.8708 0.8712 0.8716
1678.000000 0.8710 0.8699 0.8668 0.8634 0.8602
1673.000000 0.8571 0.8542 0.8525 0.8513 0.8499
1668.000000 0.8492 0.8490 0.8487 0.8485 0.8480
1663.000000 0.8475 0.8470 0.8465 0.8460 0.8450
1658.000000 0.8435 0.8418 0.8401 0.8386 0.8378
1653.000000 0.8368 0.8361 0.8353 0.8344 0.8333
1648.000000 0.8333 0.8337 0.8340 0.8344 0.8349
1643.000000 0.8354 0.8361 0.8368 0.8374 0.8375
1638.000000 0.8371 0.8368 0.8342 0.8313 0.8286
1633.000000 0.8259 0.8242 0.8234 0.8239 0.8243
1628.000000 0.8242 0.8242 0.8238 0.8232 0.8227
1623.000000 0.8214 0.8198 0.8182 0.8148 0.8107
1618.000000 0.8047 0.7985 0.7871 0.7726 0.7571
1613.000000 0.7421 0.7308 0.7168 0.6881 0.6706
1608.000000 0.6571 0.6464 0.6357 0.5928 0.5523
1603.000000 0.4855 0.4787 0.3366 0.1948 0.0528
1598.000000 0.0082 0.0082 0.0083 0.0084 0.0080
1593.000000 0.0092 0.0095 0.0096 0.0337 0.0705
1588.000000 0.1073 0.1420 0.1615 0.1810 0.2004
1583.000000 0.2200 0.2414 0.2413 0.2413 0.2028
1578.000000 0.1578 0.1562 0.1567 0.2080 0.2937
1573.000000 0.3794 0.4651 0.5135 0.5332 0.5567
1568.000000 0.6238 0.6469 0.6587 0.6651 0.6724
1563.000000 0.6768 0.6808 0.6844 0.6885 0.7081
1558.000000 0.7147 0.7190 0.7228 0.7267 0.7314
1553.000000 0.7364 0.7417 0.7475 0.7541 0.7650
1548.000000 0.7775 0.7828 0.7838 0.7846 0.7849
1543.000000 0.7822 0.7768 0.7707 0.7630 0.7561
1538.000000 0.7498 0.7445 0.7430 0.7425 0.7432
1533.000000 0.7438 0.7438 0.7072 0.6708 0.6270
1528.000000 0.6267 0.6301 0.6441 0.6582 0.6721
1523.000000 0.6750 0.6751 0.6567 0.6439 0.6453
1518.000000 0.6918 0.7591 0.7696 0.7801 0.7907
1513.000000 0.7936 0.7891 0.7828 0.7767 0.7706
1508.000000 0.7644 0.7582 0.7519 0.7491 0.7487
1503.000000 0.7580 0.7651 0.7721 0.7794 0.7819
1498.000000 0.7836 0.7810 0.7778 0.7661 0.7369
1493.000000 0.7194 0.6976 0.6758 0.6582 0.6433
1488.000000 0.6298 0.6173 0.6053 0.5125 0.4012
1483.000000 0.2900 0.1786 0.0675 0.0037 0.0036
1478.000000 0.0035 0.0047 0.0065 0.0125 0.0258
1473.000000 0.0487 0.0519 0.0538 0.0551 0.0561
1468.000000 0.1035 0.1578 0.2121 0.2664 0.3207
1463.000000 0.3750 0.4293 0.4816 0.5187 0.5558
1458.000000 0.5930 0.6301 0.6671 0.6906 0.7125
1453.000000 0.7345 0.7528 0.7606 0.7637 0.7651
1448.000000 0.7669 0.7658 0.7661 0.7637 0.7565
1443.000000 0.7458 0.7451 0.7462 0.7498 0.7521
1438.000000 0.7239 0.6085 0.4931 0.3778 0.2624
1433.000000 0.1470 0.0316 0.0315 0.0301 0.0333
1428.000000 0.1651 0.3249 0.4456 0.4458 0.4367
1423.000000 0.4271 0.4174 0.4167 0.4591 0.5186
1418.000000 0.5781 0.6376 0.6971 0.7158 0.7217
1413.000000 0.7261 0.7278 0.7284 0.7285 0.7278
1408.000000 0.7237 0.7165 0.7108 0.7114 0.7144
1403.000000 0.7244 0.7376 0.7510 0.7621 0.7768
1398.000000 0.7943 0.8061 0.8183 0.8309 0.8382
1393.000000 0.8438 0.8494 0.8542 0.8587 0.8628
1388.000000 0.8653 0.8678 0.8703 0.8721 0.8727
1383.000000 0.8733 0.8739 0.8744 0.8748 0.8752
1378.000000 0.8756 0.8760 0.8765 0.8768 0.8771
1373.000000 0.8771 0.8770 0.8773 0.8780 0.8786
1368.000000 0.8789 0.8791 0.8814 0.8781 0.8771
1363.000000 0.8760 0.8759 0.8758 0.8760 0.8760
1358.000000 0.8760 0.8760 0.8760 0.8759 0.8748
1353.000000 0.8738 0.8727 0.8717 0.8706 0.8696
1348.000000 0.8671 0.8646 0.8621 0.8598 0.8578
1343.000000 0.8560 0.8541 0.8521 0.8502 0.8482
1338.000000 0.8462 0.8443 0.8424 0.8406 0.8388
1333.000000 0.8371 0.8356 0.8341 0.8321 0.8294
1328.000000 0.8238 0.8200 0.8178 0.8185 0.8195
1323.000000 0.8247 0.8291 0.8323 0.8354 0.8385
1318.000000 0.8428 0.8451 0.8473 0.8484 0.8493
1313.000000 0.8502 0.8510 0.8512 0.8524 0.8506
1308.000000 0.8504 0.8501 0.8498 0.8495 0.8489
1303.000000 0.8482 0.8475 0.8470 0.8425 0.8360
1298.000000 0.8169 0.8039 0.7808 0.7578 0.7349
1293.000000 0.7191 0.7212 0.7215 0.7271 0.7403
1288.000000 0.7534 0.7665 0.7797 0.7890 0.7943
1283.000000 0.7997 0.8071 0.8118 0.8137 0.8139
1278.000000 0.8168 0.8124 0.8108 0.8072 0.8028
1273.000000 0.7958 0.7789 0.7661 0.7589 0.7511
1268.000000 0.7153 0.6742 0.4269 0.2185 0.0362
1263.000000 0.0362 0.0361 0.1305 0.2472 0.3639
1258.000000 0.4806 0.6091 0.6310 0.6436 0.6737
1253.000000 0.6955 0.7085 0.7215 0.7346 0.7476
1248.000000 0.7598 0.7662 0.7735 0.7778 0.7798
1243.000000 0.7811 0.7825 0.7815 0.7811 0.7796
1238.000000 0.7746 0.6535 0.6567 0.6651 0.6737
1233.000000 0.6821 0.6908 0.6908 0.6908 0.5694
1228.000000 0.4305 0.2916 0.1527 0.0255 0.0208
1223.000000 0.0164 0.0194 0.0188 0.0447 0.0878
1218.000000 0.1309 0.1740 0.2137 0.2251 0.2324
1213.000000 0.2404 0.2505 0.2659 0.3580 0.4217
1208.000000 0.4853 0.5489 0.6125 0.6327 0.6493
1203.000000 0.6594 0.6651 0.6693 0.6730 0.6768
1198.000000 0.6815 0.6864 0.6987 0.7164 0.7340
1193.000000 0.7517 0.7693 0.7869 0.8047 0.8164
1188.000000 0.8225 0.8285 0.8340 0.8380 0.8400
1183.000000 0.8415 0.8430 0.8445 0.8451 0.8457
1178.000000 0.8464 0.8470 0.8477 0.8483 0.8489
1173.000000 0.8496 0.8502 0.8506 0.8511 0.8513
1168.000000 0.8525 0.8499 0.8492 0.8478 0.8460
1163.000000 0.8441 0.8421 0.8371 0.8320 0.8256
1158.000000 0.8186 0.8111 0.8033 0.7772 0.7405
1153.000000 0.7038 0.6671 0.6304 0.6155 0.6252
1148.000000 0.6486 0.6719 0.6955 0.7189 0.7422
1143.000000 0.7660 0.7865 0.7995 0.8072 0.8134
1138.000000 0.8196 0.8253 0.8288 0.8318 0.8344
1133.000000 0.8355 0.8356 0.8357 0.8336 0.8190
1128.000000 0.8038 0.7935 0.7946 0.7972 0.8018
1123.000000 0.8062 0.8108 0.8153 0.8198 0.8243
1118.000000 0.8288 0.8325 0.8343 0.8359 0.8371
1113.000000 0.8384 0.8397 0.8409 0.8420 0.8441
1108.000000 0.8393 0.8370 0.8338 0.8305 0.8252
1103.000000 0.8200 0.8122 0.8039 0.7950 0.7812
1098.000000 0.7676 0.7489 0.7257 0.7025 0.6793
1093.000000 0.6561 0.6329 0.6186 0.6172 0.6165
1088.000000 0.6158 0.6147 0.6132 0.6117 0.6090
1083.000000 0.6040 0.4603 0.3178 0.2254 0.2254
1078.000000 0.2454 0.3078 0.3702 0.4326 0.4950
1073.000000 0.5574 0.6198 0.6821 0.7311 0.7365
1068.000000 0.7374 0.7374 0.7380 0.7355 0.7269
1063.000000 0.6868 0.5251 0.3632 0.2013 0.1211
1058.000000 0.1219 0.1386 0.2229 0.3072 0.3914
1053.000000 0.4757 0.5600 0.6442 0.7108 0.7456
1048.000000 0.7603 0.7697 0.7791 0.7886 0.7976
1043.000000 0.8051 0.8124 0.8178 0.8231 0.8262
1038.000000 0.8280 0.8297 0.8314 0.8332 0.8349
1033.000000 0.8359 0.8368 0.8378 0.8389 0.8397
1028.000000 0.8402 0.8406 0.8411 0.8416 0.8418
1023.000000 0.8418 0.8418 0.8418 0.8417 0.8413
1018.000000 0.8408 0.8403 0.8393 0.8370 0.8348
1013.000000 0.8323 0.8271 0.8221 0.8169 0.8117
1008.000000 0.7971 0.7853 0.7728 0.7648 0.7611
1003.000000 0.7594 0.7575 0.7072 0.6305 0.6267
998.000000 0.6378 0.6950 0.7521 0.8089 0.8158
993.000000 0.8228 0.8298 0.8367 0.8401 0.8418
988.000000 0.8438 0.8452 0.8463 0.8474 0.8485
983.000000 0.8496 0.8504 0.8511 0.8518 0.8525
978.000000 0.8533 0.8541 0.8543 0.8543 0.8544
973.000000 0.8544 0.8545 0.8540 0.8534 0.8528
968.000000 0.8521 0.8512 0.8501 0.8487 0.8453
963.000000 0.8398 0.8261 0.8049 0.8043 0.8021
958.000000 0.8095 0.8161 0.8224 0.8286 0.8354
953.000000 0.8423 0.8446 0.8458 0.8468 0.8478
948.000000 0.8489 0.8500 0.8511 0.8521 0.8534
943.000000 0.8553 0.8571 0.8591 0.8610 0.8614
938.000000 0.8617 0.8621 0.8625 0.8628 0.8633
933.000000 0.8635 0.8636 0.8638 0.8640 0.8641
928.000000 0.8641 0.8614 0.8587 0.8554 0.8517
923.000000 0.8504 0.8496 0.8492 0.8488 0.8484
918.000000 0.8480 0.8471 0.8464 0.8446 0.8408
913.000000 0.8368 0.8335 0.8301 0.8267 0.8233
908.000000 0.8205 0.8175 0.8145 0.8112 0.8064
903.000000 0.8000 0.7937 0.7880 0.7822 0.7765
898.000000 0.7643 0.7500 0.7256 0.6992 0.6739
893.000000 0.6289 0.5541 0.4793 0.4044 0.3296
888.000000 0.2548 0.1799 0.0583 0.0441 0.0321
883.000000 0.0249 0.0179 0.0126 0.0078 0.0040
878.000000 0.0029 0.0036 0.0066 0.0110 0.0202
873.000000 0.0936 0.1706 0.2476 0.3245 0.4014
868.000000 0.4785 0.5555 0.5643 0.5654 0.5657
863.000000 0.5640 0.5566 0.5404 0.4262 0.3115
858.000000 0.1967 0.0819 0.0108 0.0101 0.0137
853.000000 0.0749 0.1361 0.1973 0.2585 0.3198
848.000000 0.3809 0.4822 0.5254 0.5685 0.6338
843.000000 0.6615 0.6893 0.7171 0.7443 0.7624
838.000000 0.7747 0.7850 0.7967 0.8041 0.8100
833.000000 0.8160 0.8218 0.8258 0.8284 0.8308
828.000000 0.8323 0.8336 0.8339 0.8350 0.8353
823.000000 0.8355 0.8334 0.8316 0.8300 0.8285
818.000000 0.8270 0.8261 0.8252 0.8243 0.8242
813.000000 0.8241 0.8242 0.8261 0.8271 0.8268
808.000000 0.8258 0.8247 0.8233 0.8217 0.8201
803.000000 0.8183 0.8164 0.8165 0.8175 0.8180
798.000000 0.8185 0.8187 0.8188 0.8189 0.8178
793.000000 0.8165 0.8151 0.8134 0.8108 0.8080
788.000000 0.8051 0.7998 0.7940 0.7868 0.7769
783.000000 0.7556 0.7381 0.6961 0.6701 0.6469
778.000000 0.5980 0.4978 0.4016 0.3053 0.2090
773.000000 0.1128 0.0165 0.0039 0.0024 0.0019
768.000000 0.0008 0.0058 0.0159 0.0976 0.2181
763.000000 0.3384 0.4387 0.5095 0.5804 0.6511
758.000000 0.7311 0.7587 0.7664 0.7742 0.7818
753.000000 0.7882 0.7938 0.7994 0.8049 0.8104
748.000000 0.8158 0.8214 0.8258 0.8300 0.8342
743.000000 0.8384 0.8425 0.8467 0.8509 0.8542
738.000000 0.8575 0.8607 0.8640 0.8663 0.8682
733.000000 0.8701 0.8715 0.8730 0.8736 0.8739
728.000000 0.8741 0.8744 0.8746 0.8748 0.8750
723.000000 0.8752 0.8752 0.8751 0.8750 0.8749
718.000000 0.8748 0.8747 0.8747 0.8747 0.8748
713.000000 0.8748 0.8749 0.8749 0.8749 0.8749
708.000000 0.8745 0.8742 0.8738 0.8735 0.8731
703.000000 0.8727 0.8718 0.8707 0.8695 0.8683
698.000000 0.8668 0.8650 0.8632 0.8613 0.8595
693.000000 0.8570 0.8530 0.8490 0.8402 0.8264
688.000000 0.8076 0.7897 0.7618 0.7317 0.7047
683.000000 0.6804 0.6511 0.5987 0.4860 0.4857
678.000000 0.5127 0.5528 0.5929 0.6305 0.6286
673.000000 0.6196 0.4105 0.2014 0.0097 0.0097
668.000000 0.0096 0.0754 0.1629 0.2506 0.3382
663.000000 0.5176 0.6522 0.6828 0.7238 0.7612
658.000000 0.7782 0.7919 0.8053 0.8114 0.8175
653.000000 0.8236 0.8295 0.8337 0.8371 0.8401
648.000000 0.8431 0.8460 0.8487 0.8512 0.8536
643.000000 0.8557 0.8574 0.8585 0.8592 0.8600
638.000000 0.8607 0.8614 0.8612 0.8595 0.8552
633.000000 0.8536 0.8524 0.8534 0.8548 0.8562
628.000000 0.8578 0.8605 0.8627 0.8638 0.8650
623.000000 0.8662 0.8674 0.8686 0.8691 0.8694
618.000000 0.8696 0.8698 0.8698 0.8697 0.8697
613.000000 0.8696 0.8692 0.8688 0.8685 0.8681
608.000000 0.8681 0.8682 0.8683 0.8684 0.8685
603.000000 0.8688 0.8690 0.8693 0.8695 0.8698
598.000000 0.8701 0.8703 0.8706 0.8708 0.8711
593.000000 0.8713 0.8715 0.8718 0.8718 0.8718
588.000000 0.8718 0.8717 0.8717 0.8716 0.8716
583.000000 0.8711 0.8706 0.8701 0.8696 0.8691
578.000000 0.8684 0.8675 0.8668 0.8660 0.8658
573.000000 0.8658 0.8659 0.8659 0.8659 0.8660
568.000000 0.8660 0.8660 0.8660 0.8660 0.8660
563.000000 0.8659 0.8658 0.8657 0.8657 0.8656
558.000000 0.8655 0.8654 0.8653 0.8653 0.8651
553.000000 0.8648 0.8646 0.8644 0.8641 0.8639
548.000000 0.8637 0.8634 0.8632 0.8628 0.8624
543.000000 0.8618 0.8615 0.8610 0.8606 0.8601
538.000000 0.8596 0.8590 0.8585 0.8578 0.8573
533.000000 0.8560 0.8541 0.8521 0.8491 0.8458
528.000000 0.8425 0.8358 0.8278 0.8191 0.8097
523.000000 0.7421 0.6245 0.5069 0.3892 0.3418
518.000000 0.3445 0.3450 0.4052 0.4829 0.5607
513.000000 0.6384 0.7004 0.7146 0.7331 0.7754
508.000000 0.7834 0.7925 0.8055 0.8183 0.8235
503.000000 0.8257 0.8264 0.8271 0.8278 0.8286
498.000000 0.8293 0.8300 0.8300 0.8300 0.8300
493.000000 0.8300 0.8300 0.8300 0.8301 0.8301
488.000000 0.8302 0.8303 0.8304 0.8305 0.8306
483.000000 0.8307 0.8307 0.8307 0.8307 0.8306
478.000000 0.8306 0.8305 0.8305 0.8305 0.8304
473.000000 0.8304 0.8303 0.8302 0.8302 0.8301
468.000000 0.8300 0.8299 0.8298 0.8298 0.8297
463.000000 0.8296 0.8295 0.8294 0.8292 0.8291
458.000000 0.8289 0.8288 0.8287 0.8287 0.8287
453.000000 0.8290 0.8293 0.8292 0.8292 0.8286
448.000000 0.8168 0.8061 0.8004 0.7949 0.7895
443.000000 0.7855 0.7815 0.7757 0.7700 0.7682
438.000000 0.7671 0.7661 0.7654 0.7650 0.7646
433.000000 0.7642 0.7638 0.7635
##END=
