##TITLE=2,5-Dimethylpyrrole
##JCAMP-DX=4.24
$$ By DXEDIT 1.05 (RS McDonald)
##DATA TYPE=INFRARED SPECTRUM
##CLASS=COBLENTZ III
##ORIGIN=DOW CHEMICAL COMPANY
##OWNER=COPYRIGHT (C) 1988 by COBLENTZ SOCIETY INC.
Collection (C) 2018 copyright by the U.S. Secretary of Commerce
on behalf of the United States of America. All rights reserved.
##DATE=1966/10/06
##NAMES=2,5-dimethyl-1H-pyrrole
##CAS REGISTRY NO=625-84-3
##MOLFORM=C6 H9 N
##SOURCE REFERENCE=COBLENTZ NO. 6288
##$NIST SOURCE=COBLENTZ
##$NIST IMAGE=cob6288
##SPECTROMETER/DATA SYSTEM=BECKMAN IR-9 (GRATING)
##INSTRUMENT PARAMETERS=ORDER CHANGES: 670, 1200, 2000 CM^-^1
##STATE=SOLUTION (5% CCl4 FOR 3800-1335, 5% CS2 FOR 1335-400)
##PATH LENGTH=0.011 CM, 0.011 CM
$$SPECTRAL CONTAMINATION DUE TO CS2 AROUND 650, 850 AND CCl4 AROUND 1550 CM^-^1 HAVE BEEN SUBTRACTED
##SAMPLING PROCEDURE=TRANSMISSION
##RESOLUTION=2
##DATA PROCESSING=DIGITIZED BY COBLENTZ SOCIETY (BATCH I) FROM HARD COPY
##XUNITS=1/CM
##YUNITS=TRANSMITTANCE
##XFACTOR=1
##YFACTOR=1
##DELTAX=1
##FIRSTX=3796
##LASTX=421
##FIRSTY=0.907
##MAXX=3796
##MINX=421
##MAXY=0.9416
##MINY=0.0114
##NPOINTS=3376
##XYDATA=(X++(Y..Y))
3796.000000 0.9070 0.9061 0.9072 0.9071 0.9071
3791.000000 0.9071 0.9071 0.9071 0.9071 0.9071
3786.000000 0.9071 0.9070 0.9061 0.9056 0.9056
3781.000000 0.9066 0.9070 0.9057 0.9067 0.9069
3776.000000 0.9069 0.9055 0.9069 0.9069 0.9069
3771.000000 0.9068 0.9068 0.9068 0.9068 0.9068
3766.000000 0.9068 0.9067 0.9067 0.9067 0.9067
3761.000000 0.9067 0.9074 0.9072 0.9066 0.9066
3756.000000 0.9066 0.9066 0.9066 0.9066 0.9066
3751.000000 0.9065 0.9064 0.9063 0.9062 0.9060
3746.000000 0.9058 0.9056 0.9054 0.9052 0.9051
3741.000000 0.9049 0.9047 0.9049 0.9057 0.9055
3736.000000 0.9054 0.9051 0.9043 0.9033 0.9039
3731.000000 0.9042 0.9042 0.9040 0.9038 0.9035
3726.000000 0.9033 0.9031 0.9030 0.9028 0.9026
3721.000000 0.9024 0.9023 0.9007 0.9005 0.9017
3716.000000 0.9016 0.9013 0.9012 0.9012 0.9017
3711.000000 0.9023 0.9019 0.9029 0.9030 0.9031
3706.000000 0.9032 0.9032 0.9033 0.9033 0.9034
3701.000000 0.9035 0.9036 0.9036 0.9037 0.9037
3696.000000 0.9025 0.9025 0.9026 0.9026 0.9027
3691.000000 0.9028 0.9029 0.9030 0.9032 0.9030
3686.000000 0.9020 0.9022 0.9023 0.9025 0.9027
3681.000000 0.9027 0.9030 0.9030 0.9033 0.9034
3676.000000 0.9036 0.9037 0.9039 0.9040 0.9043
3671.000000 0.9044 0.9056 0.9046 0.9046 0.9046
3666.000000 0.9047 0.9048 0.9049 0.9049 0.9050
3661.000000 0.9050 0.9051 0.9051 0.9052 0.9052
3656.000000 0.9052 0.9052 0.9051 0.9050 0.9049
3651.000000 0.9047 0.9046 0.9045 0.9044 0.9043
3646.000000 0.9043 0.9042 0.9041 0.9038 0.9036
3641.000000 0.9028 0.9021 0.9013 0.9005 0.8998
3636.000000 0.8991 0.8982 0.8974 0.8969 0.8975
3631.000000 0.8967 0.8957 0.8939 0.8938 0.8941
3626.000000 0.8935 0.8928 0.8922 0.8915 0.8908
3621.000000 0.8902 0.8896 0.8889 0.8883 0.8874
3616.000000 0.8874 0.8874 0.8883 0.8893 0.8902
3611.000000 0.8910 0.8920 0.8922 0.8910 0.8923
3606.000000 0.8921 0.8917 0.8935 0.8897 0.8880
3601.000000 0.8876 0.8859 0.8837 0.8832 0.8823
3596.000000 0.8808 0.8791 0.8774 0.8761 0.8750
3591.000000 0.8750 0.8749 0.8750 0.8752 0.8758
3586.000000 0.8764 0.8787 0.8810 0.8820 0.8829
3581.000000 0.8830 0.8830 0.8830 0.8828 0.8826
3576.000000 0.8819 0.8809 0.8814 0.8809 0.8798
3571.000000 0.8785 0.8780 0.8774 0.8769 0.8764
3566.000000 0.8760 0.8755 0.8751 0.8746 0.8742
3561.000000 0.8738 0.8733 0.8728 0.8724 0.8720
3556.000000 0.8715 0.8723 0.8704 0.8702 0.8708
3551.000000 0.8703 0.8694 0.8683 0.8687 0.8681
3546.000000 0.8676 0.8665 0.8658 0.8659 0.8653
3541.000000 0.8646 0.8633 0.8630 0.8620 0.8620
3536.000000 0.8616 0.8611 0.8605 0.8599 0.8593
3531.000000 0.8586 0.8581 0.8561 0.8554 0.8547
3526.000000 0.8539 0.8529 0.8520 0.8511 0.8502
3521.000000 0.8493 0.8484 0.8475 0.8466 0.8452
3516.000000 0.8439 0.8420 0.8402 0.8383 0.8367
3511.000000 0.8348 0.8330 0.8292 0.8254 0.8211
3506.000000 0.8167 0.8068 0.7971 0.7863 0.7755
3501.000000 0.7651 0.7546 0.7310 0.7071 0.6615
3496.000000 0.6159 0.5701 0.5244 0.4787 0.4330
3491.000000 0.3871 0.3415 0.2959 0.2502 0.2044
3486.000000 0.1587 0.1239 0.0926 0.0891 0.0891
3481.000000 0.0952 0.1013 0.1472 0.1931 0.2391
3476.000000 0.2852 0.3313 0.3773 0.4232 0.4693
3471.000000 0.5152 0.5612 0.5881 0.6151 0.6172
3466.000000 0.6194 0.6215 0.6236 0.6259 0.6282
3461.000000 0.6307 0.6332 0.6362 0.6393 0.6468
3456.000000 0.6542 0.6616 0.6691 0.6764 0.6839
3451.000000 0.6914 0.6987 0.7062 0.7136 0.7211
3446.000000 0.7284 0.7359 0.7580 0.7504 0.7576
3441.000000 0.7574 0.7573 0.7565 0.7559 0.7551
3436.000000 0.7541 0.7525 0.7510 0.7492 0.7476
3431.000000 0.7455 0.7436 0.7402 0.7368 0.7331
3426.000000 0.7293 0.7234 0.7195 0.7147 0.7098
3421.000000 0.7048 0.6999 0.6948 0.6896 0.6834
3416.000000 0.6771 0.6649 0.6525 0.6421 0.6318
3411.000000 0.6224 0.6131 0.6062 0.5992 0.5928
3406.000000 0.5859 0.5798 0.5741 0.5685 0.5629
3401.000000 0.5536 0.5444 0.5336 0.5230 0.5189
3396.000000 0.5149 0.5122 0.5095 0.5074 0.5054
3391.000000 0.5048 0.5042 0.5039 0.5037 0.5037
3386.000000 0.5046 0.5057 0.5078 0.5121 0.5165
3381.000000 0.5210 0.5256 0.5311 0.5368 0.5426
3376.000000 0.5485 0.5542 0.5601 0.5666 0.5731
3371.000000 0.5795 0.5869 0.5926 0.5990 0.6059
3366.000000 0.6128 0.6250 0.6373 0.6495 0.6618
3361.000000 0.6715 0.6814 0.6899 0.6983 0.7068
3356.000000 0.7153 0.7214 0.7275 0.7331 0.7386
3351.000000 0.7443 0.7499 0.7547 0.7597 0.7634
3346.000000 0.7671 0.7717 0.7756 0.7782 0.7828
3341.000000 0.7855 0.7890 0.7927 0.7975 0.8006
3336.000000 0.8032 0.8043 0.8063 0.8084 0.8106
3331.000000 0.8126 0.8148 0.8168 0.8188 0.8210
3326.000000 0.8230 0.8252 0.8272 0.8286 0.8300
3321.000000 0.8311 0.8322 0.8332 0.8343 0.8355
3316.000000 0.8366 0.8377 0.8387 0.8400 0.8424
3311.000000 0.8435 0.8445 0.8456 0.8466 0.8468
3306.000000 0.8490 0.8501 0.8508 0.8509 0.8520
3301.000000 0.8526 0.8532 0.8537 0.8544 0.8551
3296.000000 0.8558 0.8565 0.8571 0.8577 0.8583
3291.000000 0.8590 0.8596 0.8602 0.8610 0.8616
3286.000000 0.8622 0.8628 0.8635 0.8653 0.8657
3281.000000 0.8648 0.8654 0.8668 0.8668 0.8661
3276.000000 0.8668 0.8681 0.8685 0.8688 0.8691
3271.000000 0.8694 0.8697 0.8700 0.8704 0.8707
3266.000000 0.8711 0.8714 0.8717 0.8720 0.8723
3261.000000 0.8724 0.8728 0.8730 0.8732 0.8733
3256.000000 0.8723 0.8738 0.8740 0.8741 0.8743
3251.000000 0.8745 0.8747 0.8749 0.8751 0.8754
3246.000000 0.8756 0.8750 0.8752 0.8761 0.8763
3241.000000 0.8765 0.8766 0.8769 0.8771 0.8772
3236.000000 0.8773 0.8775 0.8776 0.8779 0.8780
3231.000000 0.8781 0.8783 0.8784 0.8785 0.8784
3226.000000 0.8774 0.8778 0.8790 0.8791 0.8793
3221.000000 0.8794 0.8795 0.8795 0.8795 0.8795
3216.000000 0.8796 0.8796 0.8797 0.8797 0.8798
3211.000000 0.8798 0.8798 0.8798 0.8787 0.8785
3206.000000 0.8786 0.8782 0.8779 0.8774 0.8769
3201.000000 0.8765 0.8763 0.8768 0.8757 0.8760
3196.000000 0.8750 0.8761 0.8763 0.8765 0.8769
3191.000000 0.8771 0.8766 0.8770 0.8779 0.8782
3186.000000 0.8776 0.8773 0.8777 0.8780 0.8783
3181.000000 0.8786 0.8789 0.8790 0.8791 0.8792
3176.000000 0.8793 0.8794 0.8795 0.8795 0.8796
3171.000000 0.8797 0.8798 0.8799 0.8800 0.8801
3166.000000 0.8802 0.8803 0.8810 0.8817 0.8810
3161.000000 0.8814 0.8821 0.8821 0.8811 0.8817
3156.000000 0.8812 0.8809 0.8821 0.8824 0.8824
3151.000000 0.8822 0.8820 0.8814 0.8794 0.8788
3146.000000 0.8781 0.8774 0.8767 0.8756 0.8746
3141.000000 0.8740 0.8740 0.8729 0.8719 0.8708
3136.000000 0.8698 0.8675 0.8653 0.8627 0.8603
3131.000000 0.8575 0.8548 0.8504 0.8463 0.8420
3126.000000 0.8377 0.8205 0.8035 0.7951 0.7867
3121.000000 0.7802 0.7738 0.7732 0.7725 0.7720
3116.000000 0.7717 0.7713 0.7714 0.7714 0.7714
3111.000000 0.7720 0.7725 0.7762 0.7799 0.7858
3106.000000 0.7917 0.8048 0.8182 0.8194 0.8207
3101.000000 0.8215 0.8233 0.8236 0.8237 0.8250
3096.000000 0.8265 0.8280 0.8281 0.8271 0.8259
3091.000000 0.8224 0.8199 0.8137 0.8078 0.8073
3086.000000 0.8068 0.8058 0.8052 0.8088 0.8122
3081.000000 0.8211 0.8303 0.8354 0.8413 0.8460
3076.000000 0.8497 0.8507 0.8526 0.8535 0.8530
3071.000000 0.8532 0.8532 0.8519 0.8531 0.8515
3066.000000 0.8508 0.8509 0.8507 0.8492 0.8490
3061.000000 0.8480 0.8474 0.8470 0.8458 0.8446
3056.000000 0.8429 0.8427 0.8418 0.8403 0.8397
3051.000000 0.8397 0.8394 0.8387 0.8378 0.8371
3046.000000 0.8373 0.8366 0.8370 0.8374 0.8378
3041.000000 0.8384 0.8387 0.8379 0.8370 0.8359
3036.000000 0.8337 0.8315 0.8305 0.8280 0.8262
3031.000000 0.8250 0.8234 0.8216 0.8207 0.8190
3026.000000 0.8174 0.8162 0.8150 0.8140 0.8128
3021.000000 0.8115 0.8105 0.8101 0.8091 0.8076
3016.000000 0.8049 0.8032 0.8017 0.8000 0.7984
3011.000000 0.7964 0.7944 0.7925 0.7903 0.7852
3006.000000 0.7814 0.7724 0.7625 0.7493 0.7358
3001.000000 0.7256 0.7161 0.7055 0.6948 0.6871
2996.000000 0.6797 0.6728 0.6662 0.6626 0.6586
2991.000000 0.6559 0.6533 0.6510 0.6488 0.6464
2986.000000 0.6441 0.6411 0.6382 0.6363 0.6344
2981.000000 0.6338 0.6318 0.6339 0.6335 0.6342
2976.000000 0.6360 0.6439 0.6518 0.6729 0.6941
2971.000000 0.6959 0.6977 0.6989 0.6999 0.7005
2966.000000 0.7030 0.7011 0.7011 0.7011 0.7009
2961.000000 0.6991 0.6973 0.6965 0.6945 0.6908
2956.000000 0.6881 0.6843 0.6807 0.6741 0.6666
2951.000000 0.6451 0.6236 0.6020 0.5806 0.5587
2946.000000 0.5367 0.5152 0.4942 0.4726 0.4513
2941.000000 0.4295 0.4084 0.3954 0.3822 0.3787
2936.000000 0.3752 0.3710 0.3673 0.3616 0.3403
2931.000000 0.3499 0.3439 0.3425 0.3408 0.3420
2926.000000 0.3432 0.3444 0.3455 0.3488 0.3520
2921.000000 0.4193 0.4871 0.4947 0.5024 0.5028
2916.000000 0.5033 0.5000 0.4969 0.4893 0.4817
2911.000000 0.4742 0.4666 0.4589 0.4521 0.4481
2906.000000 0.4435 0.4425 0.4401 0.4414 0.4413
2901.000000 0.4652 0.4892 0.5131 0.5371 0.5508
2896.000000 0.5647 0.5689 0.5732 0.5774 0.5817
2891.000000 0.5865 0.5913 0.5981 0.6049 0.6089
2886.000000 0.6130 0.6170 0.6211 0.6245 0.6279
2881.000000 0.6282 0.6287 0.6289 0.6292 0.6282
2876.000000 0.6293 0.6267 0.6240 0.6214 0.6188
2871.000000 0.6149 0.6110 0.6057 0.6006 0.5998
2866.000000 0.5991 0.5986 0.5980 0.6040 0.6100
2861.000000 0.6341 0.6582 0.6657 0.6731 0.6800
2856.000000 0.6867 0.6920 0.6963 0.7014 0.7066
2851.000000 0.7119 0.7171 0.7222 0.7274 0.7326
2846.000000 0.7386 0.7435 0.7481 0.7524 0.7582
2841.000000 0.7628 0.7669 0.7713 0.7766 0.7814
2836.000000 0.7855 0.7897 0.7945 0.7998 0.8049
2831.000000 0.8103 0.8157 0.8221 0.8265 0.8321
2826.000000 0.8371 0.8404 0.8448 0.8506 0.8540
2821.000000 0.8589 0.8628 0.8653 0.8671 0.8699
2816.000000 0.8727 0.8755 0.8783 0.8796 0.8809
2811.000000 0.8822 0.8835 0.8844 0.8859 0.8870
2806.000000 0.8875 0.8879 0.8883 0.8887 0.8891
2801.000000 0.8894 0.8895 0.8895 0.8893 0.8892
2796.000000 0.8891 0.8889 0.8888 0.8886 0.8917
2791.000000 0.8872 0.8878 0.8866 0.8864 0.8860
2786.000000 0.8858 0.8861 0.8867 0.8857 0.8848
2781.000000 0.8851 0.8856 0.8856 0.8856 0.8856
2776.000000 0.8857 0.8857 0.8857 0.8864 0.8870
2771.000000 0.8876 0.8883 0.8887 0.8891 0.8894
2766.000000 0.8897 0.8899 0.8902 0.8905 0.8905
2761.000000 0.8905 0.8902 0.8899 0.8897 0.8891
2756.000000 0.8886 0.8872 0.8859 0.8739 0.8620
2751.000000 0.8492 0.8365 0.8236 0.7946 0.8036
2746.000000 0.7963 0.7960 0.7957 0.7956 0.7952
2741.000000 0.7998 0.8043 0.8197 0.8353 0.8509
2736.000000 0.8664 0.8819 0.8975 0.8998 0.9022
2731.000000 0.9039 0.9057 0.9070 0.9085 0.9088
2726.000000 0.9091 0.9093 0.9097 0.9099 0.9102
2721.000000 0.9104 0.9107 0.9109 0.9112 0.9112
2716.000000 0.9113 0.9112 0.9111 0.9109 0.9108
2711.000000 0.9106 0.9105 0.9104 0.9103 0.9100
2706.000000 0.9099 0.9096 0.9093 0.9090 0.9087
2701.000000 0.9084 0.9080 0.9077 0.9074 0.9071
2696.000000 0.9067 0.9061 0.9055 0.9047 0.9038
2691.000000 0.9030 0.9021 0.9009 0.8997 0.8986
2686.000000 0.8974 0.8961 0.8949 0.8934 0.8919
2681.000000 0.8906 0.8894 0.8887 0.8880 0.8873
2676.000000 0.8867 0.8860 0.8856 0.8853 0.8853
2671.000000 0.8851 0.8850 0.8856 0.8865 0.8876
2666.000000 0.8886 0.8898 0.8908 0.8947 0.8986
2661.000000 0.9008 0.9031 0.9049 0.9068 0.9081
2656.000000 0.9081 0.9080 0.9080 0.9080 0.9080
2651.000000 0.9068 0.9052 0.9045 0.9045 0.9048
2646.000000 0.9044 0.9035 0.9030 0.9032 0.9045
2641.000000 0.9042 0.9042 0.9047 0.9052 0.9061
2636.000000 0.9070 0.9078 0.9101 0.9111 0.9119
2631.000000 0.9115 0.9127 0.9149 0.9158 0.9158
2626.000000 0.9158 0.9158 0.9159 0.9159 0.9160
2621.000000 0.9160 0.9160 0.9157 0.9155 0.9152
2616.000000 0.9149 0.9146 0.9143 0.9140 0.9137
2611.000000 0.9135 0.9133 0.9129 0.9126 0.9123
2606.000000 0.9120 0.9117 0.9117 0.9116 0.9119
2601.000000 0.9123 0.9128 0.9132 0.9139 0.9143
2596.000000 0.9148 0.9155 0.9163 0.9169 0.9177
2591.000000 0.9182 0.9189 0.9195 0.9202 0.9206
2586.000000 0.9210 0.9214 0.9220 0.9224 0.9228
2581.000000 0.9232 0.9236 0.9241 0.9245 0.9249
2576.000000 0.9254 0.9258 0.9263 0.9265 0.9268
2571.000000 0.9270 0.9272 0.9274 0.9276 0.9277
2566.000000 0.9279 0.9281 0.9284 0.9286 0.9287
2561.000000 0.9290 0.9292 0.9294 0.9294 0.9294
2556.000000 0.9294 0.9293 0.9292 0.9290 0.9289
2551.000000 0.9287 0.9287 0.9284 0.9283 0.9282
2546.000000 0.9281 0.9278 0.9276 0.9273 0.9270
2541.000000 0.9266 0.9263 0.9260 0.9257 0.9254
2536.000000 0.9251 0.9246 0.9243 0.9240 0.9237
2531.000000 0.9234 0.9231 0.9228 0.9225 0.9222
2526.000000 0.9219 0.9216 0.9212 0.9209 0.9206
2521.000000 0.9205 0.9204 0.9205 0.9207 0.9209
2516.000000 0.9211 0.9213 0.9217 0.9219 0.9221
2511.000000 0.9223 0.9225 0.9227 0.9230 0.9232
2506.000000 0.9235 0.9236 0.9241 0.9244 0.9247
2501.000000 0.9249 0.9252 0.9254 0.9257 0.9256
2496.000000 0.9256 0.9253 0.9251 0.9248 0.9244
2491.000000 0.9240 0.9238 0.9235 0.9233 0.9230
2486.000000 0.9227 0.9225 0.9223 0.9221 0.9220
2481.000000 0.9227 0.9231 0.9229 0.9227 0.9225
2476.000000 0.9224 0.9222 0.9220 0.9218 0.9217
2471.000000 0.9215 0.9213 0.9209 0.9207 0.9204
2466.000000 0.9202 0.9200 0.9198 0.9195 0.9193
2461.000000 0.9191 0.9190 0.9185 0.9174 0.9168
2456.000000 0.9162 0.9150 0.9146 0.9142 0.9133
2451.000000 0.9115 0.9085 0.9072 0.9053 0.9039
2446.000000 0.9026 0.9017 0.9010 0.9007 0.9003
2441.000000 0.9000 0.8998 0.9005 0.9013 0.9027
2436.000000 0.9041 0.9058 0.9076 0.9092 0.9111
2431.000000 0.9126 0.9140 0.9152 0.9167 0.9169
2426.000000 0.9172 0.9175 0.9178 0.9180 0.9183
2421.000000 0.9186 0.9189 0.9191 0.9194 0.9197
2416.000000 0.9201 0.9204 0.9208 0.9211 0.9214
2411.000000 0.9217 0.9221 0.9228 0.9238 0.9236
2406.000000 0.9248 0.9252 0.9256 0.9257 0.9259
2401.000000 0.9260 0.9261 0.9261 0.9261 0.9263
2396.000000 0.9264 0.9264 0.9266 0.9266 0.9264
2391.000000 0.9264 0.9264 0.9278 0.9276 0.9275
2386.000000 0.9273 0.9274 0.9285 0.9282 0.9283
2381.000000 0.9287 0.9281 0.9280 0.9282 0.9284
2376.000000 0.9289 0.9291 0.9300 0.9307 0.9310
2371.000000 0.9311 0.9313 0.9303 0.9300 0.9301
2366.000000 0.9303 0.9305 0.9307 0.9308 0.9310
2361.000000 0.9311 0.9327 0.9329 0.9345 0.9349
2356.000000 0.9366 0.9378 0.9378 0.9377 0.9377
2351.000000 0.9369 0.9361 0.9359 0.9366 0.9380
2346.000000 0.9387 0.9386 0.9375 0.9369 0.9368
2341.000000 0.9365 0.9362 0.9348 0.9356 0.9355
2336.000000 0.9338 0.9335 0.9347 0.9343 0.9342
2331.000000 0.9341 0.9351 0.9348 0.9346 0.9348
2326.000000 0.9357 0.9359 0.9366 0.9363 0.9361
2321.000000 0.9359 0.9356 0.9353 0.9351 0.9349
2316.000000 0.9347 0.9343 0.9341 0.9340 0.9340
2311.000000 0.9338 0.9338 0.9338 0.9337 0.9336
2306.000000 0.9336 0.9334 0.9334 0.9334 0.9332
2301.000000 0.9330 0.9330 0.9338 0.9350 0.9353
2296.000000 0.9356 0.9359 0.9362 0.9364 0.9368
2291.000000 0.9370 0.9373 0.9378 0.9373 0.9373
2286.000000 0.9378 0.9384 0.9389 0.9380 0.9384
2281.000000 0.9389 0.9395 0.9398 0.9389 0.9395
2276.000000 0.9397 0.9390 0.9396 0.9400 0.9402
2271.000000 0.9397 0.9402 0.9401 0.9398 0.9403
2266.000000 0.9410 0.9406 0.9404 0.9407 0.9411
2261.000000 0.9401 0.9401 0.9402 0.9391 0.9389
2256.000000 0.9390 0.9391 0.9378 0.9378 0.9380
2251.000000 0.9379 0.9367 0.9368 0.9369 0.9370
2246.000000 0.9371 0.9366 0.9357 0.9357 0.9357
2241.000000 0.9356 0.9355 0.9354 0.9353 0.9352
2236.000000 0.9352 0.9341 0.9335 0.9334 0.9333
2231.000000 0.9332 0.9330 0.9329 0.9328 0.9327
2226.000000 0.9327 0.9326 0.9325 0.9325 0.9323
2221.000000 0.9310 0.9310 0.9310 0.9310 0.9310
2216.000000 0.9311 0.9311 0.9311 0.9311 0.9312
2211.000000 0.9313 0.9314 0.9315 0.9316 0.9317
2206.000000 0.9319 0.9320 0.9321 0.9322 0.9323
2201.000000 0.9324 0.9325 0.9326 0.9327 0.9328
2196.000000 0.9327 0.9318 0.9331 0.9329 0.9318
2191.000000 0.9319 0.9320 0.9321 0.9322 0.9324
2186.000000 0.9325 0.9326 0.9335 0.9334 0.9329
2181.000000 0.9330 0.9331 0.9331 0.9343 0.9347
2176.000000 0.9348 0.9348 0.9349 0.9349 0.9351
2171.000000 0.9351 0.9352 0.9350 0.9337 0.9337
2166.000000 0.9339 0.9339 0.9340 0.9340 0.9341
2161.000000 0.9341 0.9341 0.9341 0.9343 0.9343
2156.000000 0.9344 0.9344 0.9344 0.9344 0.9346
2151.000000 0.9346 0.9346 0.9346 0.9347 0.9347
2146.000000 0.9348 0.9348 0.9349 0.9349 0.9350
2141.000000 0.9350 0.9350 0.9350 0.9351 0.9351
2136.000000 0.9352 0.9352 0.9353 0.9353 0.9353
2131.000000 0.9353 0.9354 0.9354 0.9355 0.9355
2126.000000 0.9356 0.9356 0.9357 0.9357 0.9345
2121.000000 0.9356 0.9358 0.9358 0.9359 0.9359
2116.000000 0.9360 0.9360 0.9360 0.9360 0.9361
2111.000000 0.9361 0.9361 0.9360 0.9360 0.9360
2106.000000 0.9360 0.9360 0.9360 0.9360 0.9360
2101.000000 0.9359 0.9359 0.9359 0.9348 0.9344
2096.000000 0.9356 0.9358 0.9345 0.9357 0.9358
2091.000000 0.9358 0.9358 0.9357 0.9357 0.9357
2086.000000 0.9357 0.9356 0.9356 0.9355 0.9355
2081.000000 0.9355 0.9355 0.9354 0.9354 0.9353
2076.000000 0.9352 0.9351 0.9351 0.9350 0.9350
2071.000000 0.9349 0.9349 0.9348 0.9348 0.9347
2066.000000 0.9347 0.9346 0.9346 0.9343 0.9343
2061.000000 0.9342 0.9340 0.9340 0.9339 0.9341
2056.000000 0.9350 0.9347 0.9346 0.9343 0.9334
2051.000000 0.9329 0.9335 0.9324 0.9315 0.9313
2046.000000 0.9311 0.9308 0.9306 0.9303 0.9300
2041.000000 0.9298 0.9296 0.9294 0.9293 0.9290
2036.000000 0.9290 0.9287 0.9287 0.9286 0.9285
2031.000000 0.9282 0.9282 0.9281 0.9284 0.9289
2026.000000 0.9279 0.9284 0.9292 0.9291 0.9290
2021.000000 0.9289 0.9289 0.9287 0.9286 0.9285
2016.000000 0.9284 0.9284 0.9283 0.9284 0.9287
2011.000000 0.9289 0.9293 0.9296 0.9299 0.9301
2006.000000 0.9304 0.9307 0.9310 0.9313 0.9315
2001.000000 0.9319 0.9323 0.9326 0.9323 0.9319
1996.000000 0.9322 0.9325 0.9328 0.9331 0.9334
1991.000000 0.9339 0.9342 0.9345 0.9348 0.9351
1986.000000 0.9342 0.9343 0.9346 0.9349 0.9352
1981.000000 0.9355 0.9358 0.9360 0.9350 0.9352
1976.000000 0.9353 0.9354 0.9357 0.9359 0.9361
1971.000000 0.9363 0.9364 0.9368 0.9370 0.9371
1966.000000 0.9382 0.9381 0.9378 0.9391 0.9397
1961.000000 0.9399 0.9401 0.9403 0.9405 0.9407
1956.000000 0.9410 0.9411 0.9398 0.9400 0.9402
1951.000000 0.9404 0.9403 0.9393 0.9393 0.9394
1946.000000 0.9394 0.9394 0.9394 0.9394 0.9394
1941.000000 0.9396 0.9396 0.9396 0.9397 0.9398
1936.000000 0.9401 0.9402 0.9405 0.9407 0.9407
1931.000000 0.9405 0.9404 0.9401 0.9400 0.9398
1926.000000 0.9397 0.9394 0.9416 0.9391 0.9389
1921.000000 0.9386 0.9384 0.9381 0.9379 0.9377
1916.000000 0.9374 0.9372 0.9369 0.9365 0.9359
1911.000000 0.9355 0.9349 0.9346 0.9340 0.9346
1906.000000 0.9346 0.9343 0.9340 0.9339 0.9337
1901.000000 0.9335 0.9333 0.9331 0.9329 0.9328
1896.000000 0.9326 0.9326 0.9325 0.9325 0.9325
1891.000000 0.9319 0.9309 0.9309 0.9309 0.9308
1886.000000 0.9308 0.9308 0.9317 0.9321 0.9321
1881.000000 0.9321 0.9320 0.9320 0.9320 0.9319
1876.000000 0.9319 0.9333 0.9334 0.9333 0.9333
1871.000000 0.9333 0.9332 0.9332 0.9332 0.9332
1866.000000 0.9331 0.9331 0.9329 0.9329 0.9329
1861.000000 0.9328 0.9328 0.9327 0.9327 0.9334
1856.000000 0.9330 0.9325 0.9325 0.9324 0.9324
1851.000000 0.9322 0.9322 0.9322 0.9322 0.9322
1846.000000 0.9321 0.9321 0.9320 0.9320 0.9320
1841.000000 0.9318 0.9318 0.9318 0.9318 0.9318
1836.000000 0.9312 0.9302 0.9302 0.9302 0.9302
1831.000000 0.9300 0.9300 0.9300 0.9300 0.9300
1826.000000 0.9300 0.9300 0.9300 0.9302 0.9302
1821.000000 0.9303 0.9303 0.9319 0.9319 0.9320
1816.000000 0.9321 0.9321 0.9321 0.9324 0.9325
1811.000000 0.9325 0.9325 0.9321 0.9313 0.9314
1806.000000 0.9314 0.9315 0.9307 0.9301 0.9302
1801.000000 0.9302 0.9303 0.9303 0.9304 0.9305
1796.000000 0.9305 0.9306 0.9306 0.9307 0.9308
1791.000000 0.9308 0.9307 0.9307 0.9307 0.9307
1786.000000 0.9306 0.9306 0.9306 0.9305 0.9305
1781.000000 0.9305 0.9304 0.9303 0.9303 0.9302
1776.000000 0.9292 0.9286 0.9285 0.9285 0.9284
1771.000000 0.9283 0.9282 0.9280 0.9277 0.9277
1766.000000 0.9277 0.9277 0.9276 0.9275 0.9275
1761.000000 0.9272 0.9272 0.9276 0.9286 0.9282
1756.000000 0.9279 0.9276 0.9272 0.9268 0.9265
1751.000000 0.9262 0.9259 0.9254 0.9251 0.9247
1746.000000 0.9242 0.9238 0.9232 0.9229 0.9224
1741.000000 0.9221 0.9216 0.9212 0.9207 0.9201
1736.000000 0.9195 0.9190 0.9184 0.9179 0.9173
1731.000000 0.9167 0.9161 0.9155 0.9149 0.9143
1726.000000 0.9137 0.9129 0.9118 0.9108 0.9098
1721.000000 0.9087 0.9078 0.9071 0.9063 0.9055
1716.000000 0.9047 0.9039 0.9028 0.9018 0.9012
1711.000000 0.9011 0.9011 0.9012 0.9012 0.9011
1706.000000 0.9011 0.9010 0.9009 0.9009 0.9007
1701.000000 0.8999 0.8990 0.8983 0.8975 0.8967
1696.000000 0.8959 0.8943 0.8930 0.8915 0.8899
1691.000000 0.8885 0.8870 0.8854 0.8839 0.8823
1686.000000 0.8807 0.8799 0.8795 0.8790 0.8787
1681.000000 0.8784 0.8781 0.8776 0.8770 0.8764
1676.000000 0.8758 0.8752 0.8747 0.8746 0.8749
1671.000000 0.8742 0.8736 0.8729 0.8722 0.8715
1666.000000 0.8708 0.8701 0.8694 0.8682 0.8671
1661.000000 0.8661 0.8662 0.8640 0.8628 0.8631
1656.000000 0.8619 0.8606 0.8578 0.8546 0.8502
1651.000000 0.8476 0.8438 0.8399 0.8357 0.8314
1646.000000 0.8256 0.8202 0.8170 0.8146 0.8132
1641.000000 0.8122 0.8123 0.8129 0.8145 0.8155
1636.000000 0.8170 0.8179 0.8185 0.8203 0.8209
1631.000000 0.8225 0.8229 0.8244 0.8248 0.8261
1626.000000 0.8255 0.8265 0.8273 0.8277 0.8260
1621.000000 0.8253 0.8244 0.8237 0.8223 0.8207
1616.000000 0.8191 0.8177 0.8165 0.8131 0.8085
1611.000000 0.8039 0.7988 0.7933 0.7405 0.6751
1606.000000 0.6097 0.5437 0.4768 0.4095 0.3973
1601.000000 0.3989 0.4022 0.4225 0.4736 0.5261
1596.000000 0.5796 0.6337 0.6530 0.6712 0.6893
1591.000000 0.7069 0.7243 0.7425 0.7570 0.7684
1586.000000 0.7768 0.7838 0.7892 0.7953 0.7937
1581.000000 0.7945 0.7961 0.7966 0.7952 0.7946
1576.000000 0.7927 0.7900 0.7845 0.7804 0.7762
1571.000000 0.7713 0.7675 0.7636 0.7598 0.7578
1566.000000 0.7557 0.7541 0.7542 0.7562 0.7580
1561.000000 0.7598 0.7618 0.7638 0.7674 0.7718
1556.000000 0.7771 0.7847 0.7937 0.7984 0.8056
1551.000000 0.8187 0.8350 0.8480 0.8570 0.8602
1546.000000 0.8597 0.8590 0.8547 0.8500 0.8439
1541.000000 0.8385 0.8308 0.8242 0.8192 0.8184
1536.000000 0.8117 0.8020 0.7898 0.7784 0.7716
1531.000000 0.7545 0.7394 0.7243 0.7079 0.6885
1526.000000 0.6754 0.6662 0.6604 0.6555 0.6512
1521.000000 0.6470 0.6468 0.6638 0.6786 0.6943
1516.000000 0.7057 0.7162 0.7292 0.7495 0.7754
1511.000000 0.8104 0.8344 0.8397 0.8439 0.8474
1506.000000 0.8492 0.8509 0.8535 0.8555 0.8566
1501.000000 0.8587 0.8611 0.8628 0.8630 0.8642
1496.000000 0.8639 0.8650 0.8648 0.8648 0.8647
1491.000000 0.8629 0.8607 0.8586 0.8566 0.8568
1486.000000 0.8541 0.8532 0.8529 0.8532 0.8543
1481.000000 0.8548 0.8530 0.8491 0.8445 0.8383
1476.000000 0.8338 0.8274 0.8193 0.8132 0.8047
1471.000000 0.7928 0.7807 0.7685 0.7555 0.7459
1466.000000 0.7393 0.7376 0.7368 0.7368 0.7361
1461.000000 0.7361 0.7365 0.7362 0.7351 0.7301
1456.000000 0.7251 0.7184 0.7059 0.6939 0.6820
1451.000000 0.6701 0.6612 0.6632 0.6635 0.6719
1446.000000 0.6814 0.6909 0.7008 0.7105 0.7202
1441.000000 0.7300 0.7482 0.7546 0.7510 0.7570
1436.000000 0.7558 0.7542 0.7507 0.7470 0.7411
1431.000000 0.7334 0.7196 0.7049 0.6889 0.6718
1426.000000 0.6440 0.6069 0.5692 0.5317 0.4946
1421.000000 0.4576 0.4303 0.4274 0.4276 0.4525
1416.000000 0.4829 0.5136 0.5446 0.5756 0.6064
1411.000000 0.6374 0.6467 0.6455 0.6454 0.6454
1406.000000 0.6262 0.6022 0.5781 0.5540 0.5299
1401.000000 0.5059 0.4818 0.4577 0.4536 0.4511
1396.000000 0.4647 0.4980 0.5315 0.5650 0.5985
1391.000000 0.6319 0.6662 0.6868 0.6866 0.6857
1386.000000 0.6566 0.6274 0.5958 0.5800 0.5803
1381.000000 0.5752 0.5955 0.6250 0.6553 0.6855
1376.000000 0.7155 0.7449 0.7931 0.8080 0.8210
1371.000000 0.8266 0.8312 0.8359 0.8405 0.8441
1366.000000 0.8477 0.8513 0.8548 0.8581 0.8602
1361.000000 0.8626 0.8648 0.8671 0.8687 0.8702
1356.000000 0.8703 0.8720 0.8730 0.8739 0.8748
1351.000000 0.8758 0.8767 0.8777 0.8786 0.8788
1346.000000 0.8782 0.8777 0.8770 0.8766 0.8752
1341.000000 0.8746 0.8737 0.8733 0.8733 0.8734
1336.000000 0.8734 0.8736 0.8747 0.8759 0.8770
1331.000000 0.8782 0.8793 0.8790 0.8804 0.8818
1326.000000 0.8830 0.8833 0.8847 0.8856 0.8857
1321.000000 0.8867 0.8878 0.8888 0.8899 0.8917
1316.000000 0.8935 0.8945 0.8953 0.8962 0.8971
1311.000000 0.8980 0.8988 0.8997 0.9003 0.9007
1306.000000 0.9011 0.9015 0.9006 0.9010 0.9015
1301.000000 0.9018 0.9023 0.9025 0.9026 0.9031
1296.000000 0.9038 0.9053 0.9056 0.9061 0.9064
1291.000000 0.9061 0.9054 0.9054 0.9052 0.9053
1286.000000 0.9052 0.9045 0.9041 0.9038 0.9035
1281.000000 0.9028 0.9021 0.9015 0.9006 0.8992
1276.000000 0.8991 0.8979 0.8962 0.8938 0.8913
1271.000000 0.8853 0.8791 0.8662 0.8440 0.8291
1266.000000 0.8170 0.8009 0.7448 0.6820 0.6187
1261.000000 0.5553 0.4941 0.4929 0.4926 0.5576
1256.000000 0.6275 0.6975 0.7675 0.7952 0.8070
1251.000000 0.8275 0.8461 0.8549 0.8592 0.8635
1246.000000 0.8680 0.8722 0.8754 0.8795 0.8835
1241.000000 0.8875 0.8914 0.8951 0.8991 0.9011
1236.000000 0.9032 0.9051 0.9069 0.9094 0.9114
1231.000000 0.9123 0.9129 0.9136 0.9142 0.9150
1226.000000 0.9154 0.9156 0.9158 0.9159 0.9161
1221.000000 0.9163 0.9165 0.9166 0.9167 0.9167
1216.000000 0.9169 0.9170 0.9170 0.9175 0.9185
1211.000000 0.9187 0.9187 0.9187 0.9187 0.9186
1206.000000 0.9184 0.9181 0.9179 0.9176 0.9174
1201.000000 0.9170 0.9159 0.9145 0.9117 0.9100
1196.000000 0.9071 0.9040 0.9010 0.8973 0.8910
1191.000000 0.8845 0.8766 0.8659 0.7876 0.6307
1186.000000 0.4738 0.4475 0.4491 0.4464 0.4595
1181.000000 0.5495 0.6405 0.7314 0.8227 0.8578
1176.000000 0.8648 0.8699 0.8749 0.8801 0.8846
1171.000000 0.8889 0.8932 0.8975 0.9012 0.9046
1166.000000 0.9064 0.9065 0.9067 0.9069 0.9071
1161.000000 0.9072 0.9074 0.9076 0.9076 0.9077
1156.000000 0.9077 0.9077 0.9078 0.9078 0.9078
1151.000000 0.9069 0.9073 0.9078 0.9068 0.9062
1146.000000 0.9061 0.9058 0.9055 0.9038 0.9049
1141.000000 0.9046 0.9043 0.9055 0.9066 0.9075
1136.000000 0.9075 0.9083 0.9074 0.9059 0.9056
1131.000000 0.9054 0.9052 0.9044 0.9034 0.9033
1126.000000 0.9030 0.9028 0.9027 0.9027 0.9037
1121.000000 0.9042 0.9043 0.9042 0.9042 0.9042
1116.000000 0.9055 0.9059 0.9076 0.9063 0.9066
1111.000000 0.9068 0.9070 0.9071 0.9064 0.9074
1106.000000 0.9066 0.9068 0.9071 0.9074 0.9078
1101.000000 0.9081 0.9086 0.9089 0.9093 0.9096
1096.000000 0.9099 0.9103 0.9106 0.9111 0.9115
1091.000000 0.9118 0.9122 0.9126 0.9130 0.9133
1086.000000 0.9134 0.9136 0.9137 0.9139 0.9138
1081.000000 0.9127 0.9122 0.9114 0.9099 0.9090
1076.000000 0.9075 0.9070 0.9067 0.9070 0.9066
1071.000000 0.9053 0.9042 0.9029 0.9018 0.9006
1066.000000 0.8993 0.8975 0.8958 0.8940 0.8935
1061.000000 0.8916 0.8894 0.8858 0.8850 0.8824
1056.000000 0.8782 0.8755 0.8727 0.8699 0.8669
1051.000000 0.8618 0.8574 0.8508 0.8427 0.8337
1046.000000 0.8223 0.8072 0.7292 0.6405 0.5518
1041.000000 0.4631 0.3987 0.3983 0.3983 0.4537
1036.000000 0.5386 0.6234 0.7083 0.7382 0.7493
1031.000000 0.7663 0.7818 0.7910 0.7947 0.7961
1026.000000 0.7961 0.7956 0.7946 0.7938 0.7928
1021.000000 0.7915 0.7906 0.7881 0.7855 0.7830
1016.000000 0.7795 0.7761 0.7721 0.7680 0.7640
1011.000000 0.7598 0.7557 0.7516 0.7433 0.7354
1006.000000 0.7292 0.7232 0.7157 0.6978 0.6708
1001.000000 0.6440 0.6203 0.6197 0.6174 0.6291
996.000000 0.6628 0.6963 0.7298 0.7634 0.7974
991.000000 0.8317 0.8550 0.8584 0.8610 0.8622
986.000000 0.8635 0.8645 0.8654 0.8662 0.8670
981.000000 0.8672 0.8672 0.8674 0.8672 0.8652
976.000000 0.8622 0.8584 0.8542 0.8502 0.8483
971.000000 0.8495 0.8496 0.8642 0.8764 0.8846
966.000000 0.8899 0.8864 0.8867 0.8861 0.8854
961.000000 0.8847 0.8831 0.8791 0.8750 0.8705
956.000000 0.8645 0.8585 0.8525 0.8467 0.8410
951.000000 0.8352 0.8293 0.8228 0.7976 0.7922
946.000000 0.7884 0.7858 0.7840 0.7825 0.7820
941.000000 0.7804 0.7816 0.7827 0.7903 0.7966
936.000000 0.8007 0.8049 0.8089 0.8127 0.8165
931.000000 0.8203 0.8259 0.8318 0.8378 0.8436
926.000000 0.8496 0.8556 0.8615 0.8676 0.8736
921.000000 0.8791 0.8846 0.8902 0.8962 0.9004
916.000000 0.9065 0.9092 0.9118 0.9134 0.9153
911.000000 0.9172 0.9185 0.9195 0.9206 0.9215
906.000000 0.9216 0.9227 0.9231 0.9228 0.9233
901.000000 0.9230 0.9235 0.9228 0.9226 0.9219
896.000000 0.9192 0.9165 0.9151 0.9128 0.9119
891.000000 0.9110 0.9101 0.9096 0.9098 0.9093
886.000000 0.9097 0.9097 0.9108 0.9112 0.9107
881.000000 0.9109 0.9112 0.9103 0.9094 0.9085
876.000000 0.9076 0.9066 0.9056 0.9042 0.9030
871.000000 0.9015 0.8993 0.8969 0.8943 0.8933
866.000000 0.8906 0.8902 0.8914 0.8944 0.8968
861.000000 0.8994 0.9032 0.9061 0.9098 0.9128
856.000000 0.9156 0.9181 0.9199 0.9218 0.9226
851.000000 0.9276 0.9323 0.9336 0.9331 0.9319
846.000000 0.9303 0.9294 0.9266 0.9250 0.9236
841.000000 0.9223 0.9238 0.9249 0.9238 0.9209
836.000000 0.9169 0.9146 0.9125 0.9109 0.9073
831.000000 0.9042 0.9014 0.8987 0.8951 0.8924
826.000000 0.8890 0.8858 0.8833 0.8808 0.8788
821.000000 0.8759 0.8741 0.8730 0.8720 0.8710
816.000000 0.8713 0.8703 0.8693 0.8683 0.8687
811.000000 0.8690 0.8683 0.8685 0.8671 0.8650
806.000000 0.8636 0.8625 0.8601 0.8581 0.8548
801.000000 0.8516 0.8483 0.8449 0.8417 0.8363
796.000000 0.8307 0.8252 0.8162 0.8053 0.7950
791.000000 0.7864 0.7768 0.7680 0.7579 0.7420
786.000000 0.7262 0.7110 0.6959 0.6799 0.6635
781.000000 0.6470 0.6297 0.6114 0.5282 0.4719
776.000000 0.4163 0.3606 0.3048 0.2489 0.1932
771.000000 0.1375 0.0819 0.0263 0.0117 0.0140
766.000000 0.0114 0.0120 0.0145 0.0170 0.0218
761.000000 0.0268 0.0359 0.0888 0.1606 0.2324
756.000000 0.3043 0.3760 0.4481 0.5205 0.5924
751.000000 0.6644 0.7302 0.7490 0.7679 0.7872
746.000000 0.8065 0.8218 0.8305 0.8394 0.8482
741.000000 0.8577 0.8673 0.8732 0.8789 0.8844
736.000000 0.8893 0.8933 0.8976 0.9015 0.9038
731.000000 0.9064 0.9100 0.9126 0.9153 0.9178
726.000000 0.9195 0.9217 0.9229 0.9245 0.9266
721.000000 0.9283 0.9295 0.9297 0.9295 0.9303
716.000000 0.9305 0.9299 0.9309 0.9310 0.9304
711.000000 0.9300 0.9294 0.9290 0.9285 0.9280
706.000000 0.9274 0.9269 0.9265 0.9272 0.9252
701.000000 0.9233 0.9223 0.9205 0.9182 0.9134
696.000000 0.9084 0.8996 0.8939 0.8925 0.8907
691.000000 0.8937 0.9090 0.9196 0.9280 0.9292
686.000000 0.9299 0.9307 0.9306 0.9317 0.9311
681.000000 0.9302 0.9308 0.9299 0.9313 0.9309
676.000000 0.9320 0.9311 0.9279 0.9249 0.9209
671.000000 0.9180 0.9175 0.9250 0.9281 0.9143
666.000000 0.9021 0.8974 0.8920 0.8859 0.8797
661.000000 0.8742 0.8694 0.8638 0.8194 0.8120
656.000000 0.8040 0.7992 0.7980 0.7959 0.7920
651.000000 0.7809 0.7649 0.7549 0.7484 0.7439
646.000000 0.7387 0.7345 0.7289 0.7225 0.7169
641.000000 0.7069 0.6627 0.5318 0.4012 0.2712
636.000000 0.2656 0.2600 0.2588 0.3364 0.4330
631.000000 0.5292 0.6258 0.7226 0.7649 0.8081
626.000000 0.8461 0.8659 0.8890 0.8957 0.9028
621.000000 0.9097 0.9160 0.9201 0.9247 0.9261
616.000000 0.9260 0.9268 0.9272 0.9288 0.9316
611.000000 0.9343 0.9364 0.9379 0.9394 0.9393
606.000000 0.9394 0.9400 0.9404 0.9405 0.9405
601.000000 0.9407 0.9407 0.9404 0.9399 0.9396
596.000000 0.9391 0.9386 0.9381 0.9376 0.9371
591.000000 0.9364 0.9357 0.9349 0.9342 0.9329
586.000000 0.9318 0.9313 0.9292 0.9279 0.9266
581.000000 0.9253 0.9240 0.9227 0.9200 0.9160
576.000000 0.9128 0.9099 0.9082 0.9056 0.9029
571.000000 0.9003 0.8976 0.8949 0.8926 0.8890
566.000000 0.8870 0.8863 0.8848 0.8825 0.8812
561.000000 0.8799 0.8786 0.8775 0.8766 0.8763
556.000000 0.8759 0.8748 0.8738 0.8735 0.8723
551.000000 0.8723 0.8725 0.8721 0.8717 0.8714
546.000000 0.8709 0.8704 0.8697 0.8691 0.8683
541.000000 0.8676 0.8664 0.8653 0.8652 0.8643
536.000000 0.8641 0.8621 0.8588 0.8571 0.8542
531.000000 0.8516 0.8488 0.8458 0.8428 0.8397
526.000000 0.8327 0.8254 0.8156 0.8050 0.7944
521.000000 0.7864 0.7789 0.7711 0.7635 0.7557
516.000000 0.7478 0.7398 0.7319 0.7242 0.7176
511.000000 0.7109 0.7043 0.6948 0.6847 0.6742
506.000000 0.6608 0.6474 0.6340 0.6206 0.6072
501.000000 0.5937 0.5803 0.5669 0.5535 0.5401
496.000000 0.5267 0.5132 0.4998 0.4864 0.4730
491.000000 0.4596 0.4462 0.4327 0.4246 0.4204
486.000000 0.4183 0.4171 0.4185 0.4156 0.4178
481.000000 0.4223 0.4287 0.4405 0.4559 0.4713
476.000000 0.4867 0.5021 0.5175 0.5328 0.5481
471.000000 0.5635 0.5789 0.5943 0.6097 0.6250
466.000000 0.6376 0.6479 0.6583 0.6678 0.6764
461.000000 0.6852 0.6941 0.7034 0.7126 0.7187
456.000000 0.7250 0.7301 0.7344 0.7372 0.7396
451.000000 0.7407 0.7407 0.7407 0.7403 0.7396
446.000000 0.7385 0.7357 0.7332 0.7305 0.7280
441.000000 0.7234 0.7187 0.7141 0.7096 0.7043
436.000000 0.6981 0.6918 0.6855 0.6789 0.6708
431.000000 0.6630 0.6549 0.6456 0.6343 0.6232
426.000000 0.6123 0.6014 0.5900 0.5784 0.5655
421.000000 0.5500
##END=
