##TITLE=N,N-Bis(2-hydroxyethyl)-2-naphthylamine
##JCAMP-DX=4.24
##DATA TYPE=INFRARED SPECTRUM
##ORIGIN=EPA-IR VAPOR PHASE LIBRARY
##OWNER=SRD/NIST
Collection (C) 2018 copyright by the U.S. Secretary of Commerce
on behalf of the United States of America. All rights reserved.
##CAS REGISTRY NO=6270-13-9
##MOLFORM=C 14 H 17 N O 2
##$NIST SOURCE=MSDC-IR
##STATE=gas
##XUNITS=1/CM
##YUNITS=ABSORBANCE
##XFACTOR=1.
##YFACTOR=0.001
##DELTAX=1.92898
##FIRSTX=549.8
##LASTX=4000.7
##FIRSTY=1.9124
##MAXX=4000.7
##MINX=549.759
##MAXY=0.0326424
##MINY=0
##NPOINTS=1790
##XYDATA=(X++(Y..Y))
549.759 1.9124 1.9924 2.2024 2.3024 2.0524 1.8224 1.9724 2.0124 1.8024 1.8924
569.049 2.0624 1.9324 2.1924 2.2524 2.2124 2.1724 1.6624 1.5424 1.7924 1.7924
588.339 1.4624 1.4124 1.6524 1.4724 1.4124 1.4224 1.4024 1.4624 1.5424 1.7124
607.628 1.6124 1.7324 2.2424 2.9924 3.6124 3.7924 4.0324 3.9324 3.2724 2.7424
626.918 2.2324 1.7524 1.4224 1.4224 1.5024 1.2224 1.1724 1.4924 1.4424 1.1024
646.208 1.1124 1.2124 1.2824 1.5024 1.7224 1.6724 1.5224 1.6024 1.6124 1.4724
665.498 1.3724 1.2524 1.2624 1.5124 1.6024 1.3924 1.3924 1.3024 1.0324 1.1324
684.787 1.3724 1.4324 1.2624 1.1224 1.2124 1.4224 1.4024 1.2024 1.1624 1.1424
704.077 1.1824 1.3324 1.4724 1.5824 1.6524 1.7324 1.8924 1.9224 2.0924 2.5524
723.367 2.8324 3.4324 4.3524 5.5624 7.2524 9.0524 11.3424 13.6124 14.8624 14.8024
742.657 13.8224 12.1524 10.1924 8.5524 6.9524 5.5424 4.4824 3.8824 3.3924 2.7824
761.947 2.4924 2.5324 2.6124 2.5024 2.3024 2.5124 2.4924 2.1424 2.2324 2.4524
781.236 2.6024 2.7724 3.3024 3.9924 4.6324 5.4224 6.2224 7.1924 8.2424 8.9524
800.526 9.2824 9.3824 9.4924 9.2824 8.7124 8.2024 7.8324 7.6224 7.0824 7.3324
819.816 8.2824 8.3024 8.7424 9.4024 9.8624 10.4524 10.7824 10.8724 10.4624 9.9724
839.106 9.7024 9.3124 8.4724 7.5924 7.1524 6.9124 6.8224 6.6024 6.3324 6.1624
858.395 6.0224 6.0524 5.8824 5.8524 5.9024 5.4924 4.9924 4.7724 4.6524 4.2624
877.685 4.0824 3.7924 3.5024 3.6624 3.6924 3.5324 3.4024 3.3624 3.5424 3.6424
896.975 3.4924 3.5024 3.6524 3.9124 4.2424 4.4324 4.4624 4.6324 4.7224 4.7724
916.265 4.7424 4.7024 4.7924 4.6724 4.5024 4.4624 4.3624 4.2224 4.2424 4.4424
935.555 4.6524 4.6324 4.6124 4.6724 4.9124 5.3324 5.6424 6.1124 6.4724 6.5724
954.844 6.6224 6.5524 6.4924 6.4724 6.6924 6.7524 6.5524 6.9024 7.2124 7.6424
974.134 8.3824 8.8824 9.1324 9.6624 10.5224 11.0824 11.3724 11.7124 12.4024 12.9624
993.424 13.3124 13.6724 14.0324 14.2324 14.1624 14.1124 14.0924 14.1324 14.1824 14.2924
1012.714 14.3224 14.3424 14.7024 14.9124 15.3424 16.4124 17.3324 18.1724 19.4224 20.9624
1032.003 22.3524 23.7524 24.9824 25.9624 26.4724 26.4524 25.9924 25.0824 23.9724 22.9024
1051.293 22.3124 21.6324 21.3624 21.6424 21.6624 22.0124 22.5424 22.4324 22.2624 22.6324
1070.583 22.3124 21.5524 20.6824 19.6424 18.2124 17.0224 16.7124 16.3724 15.6224 14.8024
1089.873 14.7324 14.0424 13.5624 13.6224 12.9424 12.2624 11.4924 10.5524 10.2924 10.0924
1109.163 9.7024 9.6224 9.5224 9.1024 8.5524 8.7124 8.9124 9.0624 9.5224 9.6324
1128.452 9.4024 9.4124 9.5124 10.1224 10.5524 10.5824 11.1824 11.5524 11.6524 11.8724
1147.742 12.1924 12.1724 11.9924 12.0724 12.4724 13.3824 14.1124 14.4824 14.8924 15.6624
1167.032 16.6924 17.6324 18.2424 18.7724 19.4024 19.5424 19.5124 19.0124 18.6324 17.8024
1186.322 16.5624 15.7224 14.6524 13.8324 13.3524 13.4124 13.4024 13.3724 13.5024 13.4724
1205.611 13.7024 14.0924 14.3724 13.7824 13.3224 12.8624 12.3524 12.1424 11.3924 10.4324
1224.901 9.7224 9.2724 9.1924 8.9424 8.4624 8.3824 8.4624 8.3624 8.4124 8.5624
1244.191 8.4924 8.7024 8.8824 9.0924 9.3024 9.3824 9.5724 9.9124 10.1424 10.1024
1263.481 10.1124 10.3824 10.9624 11.2324 11.3224 11.2524 11.0324 10.9224 10.5924 10.3324
1282.771 10.0624 9.7124 9.5724 9.3724 9.1524 8.9624 8.7924 8.8324 8.8124 8.6924
1302.060 8.6824 8.6524 8.7624 8.9624 9.0424 9.2324 9.4924 9.7624 9.9924 10.2924
1321.350 10.6524 10.9824 11.3324 11.7024 12.0224 12.3424 12.8324 13.3324 13.7624 14.2624
1340.640 14.8824 15.5524 16.2624 17.0824 17.9824 18.9824 20.0324 21.0224 21.8224 22.3424
1359.930 22.5524 22.4524 22.0224 21.3724 20.5724 19.6424 18.8424 18.2124 17.7224 17.5224
1379.219 17.5024 17.4724 17.4324 17.3824 17.1924 16.8224 16.2224 15.5024 14.6524 13.6524
1398.509 12.6624 11.6824 10.6424 9.7324 9.0124 8.2324 7.5324 7.0324 6.5824 6.1824
1417.799 5.8424 5.6324 5.5424 5.5224 5.5324 5.5724 5.6624 5.8824 6.2424 6.5924
1437.089 6.9124 7.2724 7.5724 7.7724 7.9624 8.1424 8.3124 8.4224 8.5824 8.9324
1456.378 9.4824 10.1124 10.9124 12.0724 13.3424 14.6724 16.2124 17.7124 18.7024 19.1924
1475.668 19.0624 18.2324 16.8724 15.1624 13.4724 12.0524 11.1124 10.7424 10.8424 11.4524
1494.958 12.6524 14.4724 16.7324 19.2624 21.8024 23.7524 24.6124 24.0724 22.1824 19.2124
1514.248 15.7624 12.2324 9.3124 7.3224 5.9024 5.0024 4.3924 3.9824 3.7124 3.4724
1533.538 3.3324 3.3224 3.2024 3.1024 3.0824 3.0224 3.0024 3.0724 3.1724 3.2124
1552.827 3.4024 3.6424 3.8424 4.1524 4.4824 4.9324 5.3724 5.7424 6.1124 6.5524
1572.117 7.0124 7.3924 7.7024 8.0424 8.5724 9.2124 10.0624 11.3924 13.1024 15.2324
1591.407 17.5624 19.8324 21.8024 22.9624 22.9924 21.8824 19.8824 17.3524 14.7024 12.5424
1610.697 11.2124 10.7024 11.1824 12.5624 14.8624 18.0924 22.0124 26.0924 29.5524 31.9024
1629.986 32.6424 31.4224 28.4824 24.2924 19.7824 15.7124 12.3324 9.8224 8.0024 6.6924
1649.276 5.7124 4.9224 4.3824 4.0224 3.6324 3.3724 3.1024 2.8424 2.7324 2.5824
1668.566 2.4924 2.4824 2.4224 2.3624 2.3324 2.2724 2.2324 2.1924 2.1424 2.0824
1687.856 1.9924 1.9224 1.8824 1.8524 1.7724 1.6524 1.5524 1.5624 1.5024 1.4224
1707.146 1.4524 1.4724 1.4124 1.3624 1.3824 1.3524 1.3124 1.3424 1.3824 1.3224
1726.435 1.3224 1.3024 1.3124 1.3724 1.3624 1.3224 1.2524 1.2324 1.2824 1.3924
1745.725 1.3824 1.2924 1.2424 1.2324 1.2724 1.3024 1.3224 1.3624 1.4224 1.4624
1765.015 1.4024 1.3924 1.4624 1.4824 1.4924 1.3724 1.2624 1.2624 1.2324 1.1724
1784.305 1.0924 1.1224 1.2024 1.2324 1.2224 1.1424 1.1824 1.2324 1.1824 1.0924
1803.594 1.0524 1.1424 1.1924 1.1624 1.1424 1.1024 1.1124 1.0624 1.0028 0.9538
1822.884 0.8974 0.9579 0.9752 0.9406 0.9296 0.8957 0.8665 0.7876 0.7388 0.7243
1842.174 0.6881 0.6959 0.7412 0.7449 0.6984 0.6718 0.619 0.5419 0.5825 0.6675
1861.464 0.6532 0.6763 0.7552 0.8234 0.8769 0.8764 0.8861 0.9807 1.1124 1.1324
1880.754 1.1624 1.2524 1.2324 1.2224 1.3224 1.3424 1.2924 1.3024 1.3624 1.3624
1900.043 1.3224 1.3224 1.3524 1.3824 1.2924 1.2624 1.2624 1.2324 1.2624 1.2424
1919.333 1.1924 1.2224 1.2824 1.3624 1.3924 1.4124 1.4724 1.4724 1.4924 1.4524
1938.623 1.2524 1.0624 0.905 0.8242 0.8258 0.7219 0.6592 0.6933 0.618 0.5323
1957.913 0.5568 0.5671 0.4907 0.5293 0.6225 0.6139 0.5837 0.5463 0.5684 0.5708
1977.202 0.539 0.6228 0.6184 0.5303 0.4513 0.4061 0.4837 0.5076 0.504 0.5061
1996.492 0.5092 0.5129 0.4877 0.5241 0.5363 0.5032 0.4847 0.4739 0.5379 0.5356
2015.782 0.4923 0.4936 0.5103 0.5672 0.5075 0.5071 0.6287 0.6106 0.5994 0.6028
2035.072 0.5078 0.5446 0.6077 0.5994 0.5719 0.5519 0.6529 0.7211 0.6841 0.6425
2054.362 0.662 0.6531 0.5753 0.624 0.6934 0.6549 0.6286 0.6328 0.659 0.7186
2073.651 0.7 0.633 0.6584 0.6268 0.5724 0.5859 0.547 0.5815 0.622 0.5671
2092.941 0.511 0.5012 0.5197 0.4691 0.464 0.5397 0.5392 0.5447 0.5598 0.535
2112.231 0.5107 0.5001 0.466 0.4435 0.5096 0.5174 0.4869 0.4832 0.4711 0.4296
2131.521 0.4557 0.4855 0.4491 0.4414 0.463 0.4921 0.4937 0.4807 0.4502 0.4617
2150.810 0.4931 0.4893 0.4791 0.4693 0.4547 0.4322 0.3997 0.3758 0.4379 0.4927
2170.100 0.4326 0.379 0.3565 0.3971 0.4095 0.339 0.362 0.4004 0.3613 0.3735
2189.390 0.4064 0.3346 0.3793 0.4029 0.3189 0.3049 0.3305 0.3651 0.3584 0.3355
2208.680 0.2644 0.2713 0.3985 0.4256 0.3842 0.3576 0.4313 0.4922 0.4791 0.5042
2227.970 0.4974 0.4188 0.3658 0.4166 0.4473 0.4583 0.4246 0.3864 0.439 0.44
2247.259 0.3428 0.3352 0.4211 0.4987 0.495 0.4348 0.4668 0.5273 0.5062 0.4493
2266.549 0.4296 0.4762 0.5263 0.5167 0.456 0.4075 0.4519 0.4778 0.3757 0.3762
2285.839 0.4517 0.4362 0.4216 0.4613 0.4867 0.479 0.5222 0.5689 0.5808 0.6069
2305.129 0.6056 0.5203 0.4939 0.5241 0.5029 0.4738 0.4856 0.4604 0.4506 0.4816
2324.418 0.454 0.4609 0.5744 0.6317 0.5728 0.5313 0.4946 0.453 0.4538 0.4933
2343.708 0.5166 0.4794 0.4751 0.5161 0.5222 0.456 0.4502 0.5119 0.5887 0.6337
2362.998 0.5749 0.4582 0.3806 0.3973 0.4561 0.5005 0.5001 0.5022 0.4892 0.5407
2382.288 0.59 0.5313 0.5174 0.577 0.5742 0.5724 0.5879 0.5703 0.6249 0.667
2401.578 0.6336 0.6171 0.5939 0.6179 0.7162 0.7071 0.7039 0.6809 0.6175 0.6628
2420.867 0.7067 0.7272 0.6857 0.6534 0.6358 0.615 0.605 0.6497 0.7233 0.6908
2440.157 0.6038 0.6168 0.6729 0.6754 0.6725 0.6614 0.705 0.6983 0.6945 0.68
2459.447 0.6298 0.5728 0.5392 0.5668 0.6132 0.6482 0.6599 0.6593 0.6412 0.6337
2478.737 0.5942 0.5667 0.5586 0.5955 0.6416 0.5968 0.5106 0.531 0.5767 0.5678
2498.026 0.6707 0.7166 0.6948 0.6994 0.6375 0.5694 0.5005 0.5639 0.674 0.6925
2517.316 0.7159 0.6851 0.6814 0.5953 0.5563 0.674 0.682 0.6042 0.5266 0.5543
2536.606 0.6339 0.6042 0.6552 0.6723 0.5951 0.5765 0.5819 0.7066 0.6808 0.6142
2555.896 0.5243 0.5643 0.6635 0.5995 0.6494 0.5511 0.5108 0.6101 0.6296 0.6233
2575.186 0.6244 0.6366 0.5442 0.5156 0.5575 0.4959 0.5171 0.6434 0.7187 0.7032
2594.475 0.623 0.6268 0.6651 0.6498 0.5725 0.5906 0.7191 0.6498 0.555 0.5924
2613.765 0.6545 0.6767 0.6651 0.7658 0.8305 0.7856 0.7456 0.7641 0.6994 0.6043
2633.055 0.6438 0.8124 0.8905 0.7962 0.7272 0.7183 0.8841 0.9996 0.9604 0.8909
2652.345 0.8741 0.8595 0.945 1.0224 1.0224 1.0824 1.0724 1.0724 1.1224 1.2024
2671.634 1.2324 1.2324 1.2224 1.2124 1.1824 1.2024 1.2924 1.3124 1.2924 1.3924
2690.924 1.3524 1.3924 1.4824 1.4224 1.4324 1.4024 1.3924 1.5724 1.6124 1.4824
2710.214 1.5124 1.6224 1.5024 1.4324 1.4724 1.5324 1.6424 1.5524 1.5324 1.6124
2729.504 1.6624 1.6424 1.6724 1.8824 1.9024 1.8024 1.8124 1.8324 1.7924 1.8224
2748.794 1.9124 1.8924 1.8024 1.8524 1.8924 1.8624 1.9424 1.9124 1.9724 2.0424
2768.083 2.1224 2.1824 2.1824 2.1424 2.1124 2.2724 2.4024 2.4524 2.6224 2.6524
2787.373 2.5224 2.6124 2.8224 2.9324 3.0024 3.2224 3.3824 3.4824 3.6524 3.8424
2806.663 4.0324 4.1624 4.4024 4.7224 4.9524 5.2924 5.5724 5.8324 6.2624 6.5424
2825.953 6.8224 7.2024 7.5824 7.9024 8.1024 8.2624 8.5424 8.8224 8.9324 9.1024
2845.242 9.2324 9.4624 9.7524 9.8924 9.9724 10.0224 10.2624 10.5524 10.9124 11.2824
2864.532 11.6224 12.1624 12.6924 13.2524 13.9524 14.6624 15.4224 16.2124 16.9124 17.4224
2883.822 17.6724 17.7024 17.6624 17.5024 17.2224 16.8624 16.3224 15.7524 15.1124 14.5724
2903.112 14.2524 14.0524 13.9624 13.8824 13.8924 13.9724 14.2124 14.6424 15.1324 15.5024
2922.401 15.8824 16.3924 16.9324 17.5424 17.9924 18.1324 18.3024 18.5124 18.6524 18.8024
2941.691 18.9524 19.1324 19.2324 19.2224 19.3224 19.3924 19.2424 19.1624 19.0924 18.8024
2960.981 18.2924 17.7924 17.1724 16.4424 15.7024 14.9624 14.1624 13.1624 12.2024 11.3524
2980.271 10.5324 9.5424 8.6324 7.9624 7.2224 6.5424 6.0724 5.6424 5.2624 4.9924
2999.561 4.7324 4.4524 4.2624 4.2024 4.2624 4.4824 4.5724 4.5624 4.7724 5.2224
3018.850 5.5424 5.9124 6.4224 6.6824 6.8424 6.9324 6.7524 6.3624 6.2524 6.2024
3038.140 6.1224 6.4124 6.6724 7.0224 7.8624 8.8624 9.9124 11.2324 12.5824 13.9524
3057.430 15.1324 16.0124 16.5724 16.7024 16.4224 15.7524 14.6324 13.2524 12.1024 10.9824
3076.720 9.9424 8.9924 8.1824 7.5524 6.8424 6.0924 5.4424 4.8724 4.2724 3.7324
3096.009 3.2924 2.7224 2.3724 2.2724 2.0524 1.7724 1.6924 1.7424 1.5224 1.2824
3115.299 1.1724 1.0524 0.9703 0.9881 0.9288 0.807 0.7065 0.6536 0.6252 0.5657
3134.589 0.5944 0.6626 0.5743 0.4703 0.4451 0.4497 0.3881 0.3699 0.4309 0.3257
3153.879 0.2752 0.3587 0.3383 0.3596 0.352 0.3205 0.3434 0.38 0.2881 0.1996
3173.169 0.3808 0.3877 0.2565 0.1891 0.1467 0.3444 0.4876 0.4719 0.4616 0.3667
3192.458 0.3725 0.3462 0.2752 0.3215 0.2218 0.1997 0.1879 0.2071 0.3052 0.254
3211.748 0.3159 0.3767 0.2806 0.1252 0.138 0.3087 0.2924 0.3059 0.3387 0.2371
3231.038 0.2416 0.2244 0.1746 0.283 0.2597 0.2198 0.3079 0.2058 0.1992 0.3814
3250.328 0.3725 0.3846 0.2866 0.07407 0.1322 0.1665 0.2123 0.3875 0.4086 0.2614
3269.617 0.1789 0.3059 0.3452 0.2317 0.2503 0.258 0.3034 0.2904 0.2992 0.3394
3288.907 0.1432 0.05074 0.1582 0.2322 0.2611 0.2573 0.2376 0.3201 0.3552 0.3305
3308.197 0.1456 0.0114 0.09199 0.2768 0.3859 0.3103 0.1619 0 0.0914 0.2869
3327.487 0.2806 0.2228 0.1899 0.1864 0.2314 0.267 0.2815 0.3376 0.4098 0.3251
3346.777 0.3325 0.3547 0.3194 0.1179 0.1227 0.2276 0.1179 0.2767 0.3293 0.238
3366.066 0.3402 0.2655 0.2659 0.4771 0.439 0.3023 0.209 0.2556 0.3324 0.3907
3385.356 0.3462 0.383 0.5125 0.5169 0.5427 0.4741 0.546 0.6302 0.5237 0.4088
3404.646 0.4076 0.507 0.6672 0.6531 0.5787 0.5997 0.5251 0.4888 0.5744 0.7093
3423.936 0.6873 0.703 0.6658 0.56 0.5989 0.5624 0.5354 0.5584 0.5114 0.5083
3443.225 0.616 0.6597 0.6406 0.6988 0.6728 0.515 0.5353 0.7332 0.7097 0.6354
3462.515 0.7832 0.8191 0.6129 0.5838 0.7617 0.8087 0.7627 0.7685 0.7775 0.8154
3481.805 0.8117 0.7213 0.6918 0.6759 0.8136 0.8968 0.8488 0.9177 0.9413 0.9797
3501.095 0.9967 1.0724 1.0924 1.0624 1.0324 1.1224 1.3224 1.3524 1.4124 1.4624
3520.385 1.4624 1.3924 1.3424 1.5124 1.7924 1.8624 1.8224 1.9924 2.1824 2.3024
3539.674 2.4524 2.4124 2.2624 2.3524 2.4824 2.4524 2.5624 2.7624 2.8824 2.8324
3558.964 2.6024 2.7024 2.8924 2.9324 2.9624 3.0524 2.9624 2.8824 2.9924 3.0024
3578.254 2.9024 2.8324 2.9724 3.1124 3.1124 3.1324 3.0724 2.8624 2.7624 2.7824
3597.544 2.7124 2.6924 2.6824 2.6424 2.4824 2.3924 2.5524 2.6824 2.6224 2.6124
3616.833 2.7524 2.7124 2.5824 2.7224 2.9624 2.9924 2.8924 2.8924 2.8424 2.9224
3636.123 3.0524 2.9524 2.8424 2.8624 2.9024 2.9524 3.1824 3.3424 3.6524 3.9424
3655.413 4.3724 4.8724 5.0724 5.5524 6.0724 6.1924 6.1124 6.1024 5.8224 5.5424
3674.703 5.4224 5.0824 4.6224 4.0224 3.4924 3.2024 2.9324 2.6224 2.2324 2.0824
3693.993 1.7724 1.5224 1.6024 1.4124 1.1524 1.1224 1.2524 1.2124 1.0324 0.9707
3713.282 0.8687 0.7801 0.8743 0.9393 0.814 0.7455 0.862 0.8626 0.9341 0.9035
3732.572 0.7346 0.6006 0.5887 0.6518 0.6472 0.6069 0.6516 0.797 0.6469 0.4342
3751.862 0.3522 0.2974 0.4401 0.4918 0.4166 0.4864 0.4978 0.4497 0.3333 0.2251
3771.152 0.2742 0.2744 0.2447 0.1871 0.1796 0.3548 0.4644 0.4756 0.3983 0.3928
3790.441 0.3646 0.2947 0.3646 0.4762 0.4866 0.4086 0.4338 0.4487 0.4553 0.4026
3809.731 0.434 0.4757 0.4937 0.5775 0.5465 0.3372 0.2322 0.4372 0.6634 0.642
3829.021 0.4447 0.4681 0.5052 0.3899 0.262 0.4135 0.5942 0.5215 0.5066 0.4599
3848.311 0.3283 0.2648 0.4019 0.4911 0.494 0.4996 0.5504 0.482 0.3399 0.4072
3867.601 0.4722 0.429 0.5031 0.5071 0.4465 0.4121 0.3515 0.488 0.416 0.1864
3886.890 0.09024 0.2758 0.5918 0.5751 0.4157 0.4254 0.4906 0.4827 0.459 0.4963
3906.180 0.5036 0.4821 0.3864 0.1944 0.1472 0.2785 0.5853 0.6534 0.5384 0.4625
3925.470 0.4062 0.4275 0.4257 0.3576 0.275 0.4251 0.4887 0.4683 0.3526 0.3703
3944.760 0.5443 0.4853 0.4487 0.4722 0.544 0.5111 0.3447 0.2968 0.191 0.04951
3964.049 0.08636 0.1817 0.3225 0.3273 0.4618 0.6059 0.4506 0.5876 0.7425 0.6256
3983.339 0.5886 0.6225 0.6473 0.423 0.1825 0.2645 0.4036 0.4767 0.3482 0.3392
##END=
