##TITLE=SODIUM OXALATE
##JCAMP-DX=4.24
##DATA TYPE=INFRARED SPECTRUM
##CLASS=COBLENTZ
##OWNER=COBLENTZ SOCIETY
Collection (C) 2018 copyright by the U.S. Secretary of Commerce
on behalf of the United States of America. All rights reserved.
##DATE=Not specified, most likely prior to 1970
##CAS REGISTRY NO=62-76-0
##MOLFORM=Na2 C2 O4
##SOURCE REFERENCE=COBLENTZ NO. 55
##$NIST SOURCE=COBLENTZ
##$NIST IMAGE=cob55
##SPECTROMETER/DATA SYSTEM=Not specified, most likely a prism, grating, or hybrid spectrometer.
##STATE=SOLID (KBr DISC)
##SAMPLING PROCEDURE=TRANSMISSION
##RESOLUTION=4
##DATA PROCESSING=DIGITIZED BY NIST FROM HARD COPY
##XUNITS=MICROMETERS
##YUNITS=TRANSMITTANCE
##XFACTOR=1.000000
##YFACTOR=1
##DELTAX=000.007601
##FIRSTX=2.054
##LASTX=14.9
##FIRSTY=0.787
##MAXX=14.9
##MINX=2.054
##MAXY=0.976
##MINY=0.117
##NPOINTS=1691
##XYDATA=(X++(Y..Y))
2.054000 0.7870 0.7880 0.7880 0.7900 0.7910
2.092029 0.7910 0.7910 0.7930 0.7930 0.7940
2.130000 0.7940 0.7960 0.7960 0.7970 0.7990
2.168029 0.7990 0.7990 0.8000 0.8020 0.8020
2.206000 0.8020 0.8030 0.8030 0.8030 0.8050
2.244029 0.8060 0.8060 0.8080 0.8080 0.8080
2.282000 0.8090 0.8090 0.8110 0.8120 0.8120
2.320029 0.8130 0.8150 0.8150 0.8160 0.8160
2.358000 0.8160 0.8180 0.8180 0.8180 0.8180
2.396029 0.8190 0.8210 0.8210 0.8220 0.8240
2.434000 0.8240 0.8250 0.8280 0.8300 0.8310
2.472029 0.8360 0.8370 0.8370 0.8370 0.8370
2.510000 0.8390 0.8390 0.8390 0.8390 0.8390
2.548029 0.8390 0.8400 0.8400 0.8400 0.8400
2.586000 0.8420 0.8420 0.8420 0.8430 0.8430
2.624029 0.8430 0.8450 0.8460 0.8480 0.8490
2.662000 0.8490 0.8490 0.8490 0.8510 0.8510
2.700029 0.8520 0.8540 0.8540 0.8540 0.8540
2.738000 0.8550 0.8550 0.8550 0.8550 0.8550
2.776029 0.8550 0.8550 0.8540 0.8540 0.8510
2.814000 0.8430 0.8370 0.8300 0.8240 0.8160
2.852029 0.8060 0.8020 0.7970 0.7910 0.7850
2.890000 0.7810 0.7780 0.7730 0.7670 0.7640
2.928029 0.7580 0.7550 0.7520 0.7520 0.7500
2.966000 0.7500 0.7510 0.7520 0.7540 0.7570
3.004029 0.7670 0.7820 0.7900 0.7940 0.7990
3.042000 0.8030 0.8080 0.8120 0.8180 0.8220
3.080029 0.8280 0.8340 0.8390 0.8430 0.8490
3.118000 0.8540 0.8580 0.8610 0.8660 0.8700
3.156029 0.8730 0.8800 0.8830 0.8850 0.8850
3.194000 0.8860 0.8860 0.8880 0.8880 0.8860
3.232029 0.8860 0.8860 0.8860 0.8860 0.8880
3.270000 0.8880 0.8860 0.8850 0.8830 0.8830
3.308029 0.8850 0.8850 0.8880 0.8920 0.8970
3.346000 0.9010 0.9030 0.9060 0.9060 0.9060
3.384029 0.9060 0.9000 0.8940 0.8770 0.8750
3.422000 0.8720 0.8700 0.8640 0.8640 0.8880
3.460029 0.8950 0.9010 0.9060 0.9090 0.9130
3.498000 0.9160 0.9180 0.9190 0.9210 0.9240
3.536029 0.9250 0.9270 0.9270 0.9280 0.9280
3.574000 0.9280 0.9280 0.9300 0.9280 0.9280
3.612029 0.9280 0.9270 0.9220 0.9210 0.9190
3.650000 0.9210 0.9210 0.9240 0.9270 0.9310
3.688029 0.9340 0.9360 0.9370 0.9380 0.9400
3.726000 0.9410 0.9430 0.9430 0.9430 0.9430
3.764029 0.9430 0.9440 0.9440 0.9460 0.9460
3.802000 0.9470 0.9470 0.9470 0.9470 0.9490
3.840029 0.9500 0.9520 0.9520 0.9520 0.9530
3.878000 0.9530 0.9530 0.9530 0.9530 0.9530
3.916029 0.9530 0.9530 0.9530 0.9550 0.9560
3.954000 0.9560 0.9560 0.9560 0.9560 0.9560
3.992029 0.9560 0.9560 0.9560 0.9560 0.9560
4.030000 0.9560 0.9560 0.9560 0.9560 0.9560
4.068029 0.9560 0.9560 0.9560 0.9560 0.9580
4.106000 0.9580 0.9590 0.9590 0.9590 0.9610
4.144029 0.9610 0.9610 0.9610 0.9610 0.9610
4.182000 0.9610 0.9610 0.9610 0.9610 0.9610
4.220029 0.9610 0.9610 0.9620 0.9620 0.9620
4.258000 0.9620 0.9620 0.9610 0.9610 0.9620
4.296029 0.9620 0.9610 0.9610 0.9610 0.9610
4.334000 0.9610 0.9610 0.9610 0.9610 0.9610
4.372029 0.9610 0.9610 0.9610 0.9610 0.9590
4.410000 0.9590 0.9590 0.9590 0.9590 0.9590
4.448029 0.9590 0.9590 0.9590 0.9580 0.9560
4.486000 0.9550 0.9550 0.9550 0.9530 0.9530
4.524029 0.9520 0.9500 0.9500 0.9500 0.9490
4.563000 0.9470 0.9460 0.9440 0.9440 0.9430
4.601029 0.9430 0.9410 0.9410 0.9400 0.9370
4.639000 0.9370 0.9340 0.9340 0.9330 0.9310
4.677029 0.9300 0.9280 0.9280 0.9250 0.9220
4.715000 0.9210 0.9190 0.9190 0.9180 0.9180
4.753029 0.9150 0.9150 0.9130 0.9120 0.9100
4.791000 0.9070 0.9040 0.9030 0.9030 0.9010
4.829029 0.8980 0.8970 0.8950 0.8920 0.8890
4.867000 0.8880 0.8880 0.8860 0.8830 0.8820
4.905029 0.8800 0.8790 0.8760 0.8750 0.8730
4.943000 0.8720 0.8690 0.8670 0.8640 0.8630
4.981029 0.8600 0.8580 0.8550 0.8510 0.8460
5.019000 0.8430 0.8400 0.8370 0.8360 0.8330
5.057029 0.8280 0.8270 0.8240 0.8220 0.8180
5.095000 0.8130 0.8120 0.8090 0.8080 0.8050
5.133029 0.8050 0.8030 0.8020 0.7970 0.7960
5.171000 0.7930 0.7900 0.7870 0.7840 0.7790
5.209029 0.7730 0.7690 0.7640 0.7610 0.7570
5.247000 0.7510 0.7480 0.7440 0.7360 0.7320
5.285029 0.7270 0.7240 0.7240 0.7240 0.7230
5.323000 0.7240 0.7240 0.7240 0.7260 0.7260
5.361029 0.7230 0.7200 0.7140 0.7090 0.7050
5.399000 0.7020 0.6970 0.6940 0.6900 0.6860
5.437029 0.6810 0.6800 0.6780 0.6750 0.6710
5.475000 0.6660 0.6620 0.6590 0.6540 0.6510
5.513029 0.6470 0.6420 0.6350 0.6330 0.6320
5.551000 0.6320 0.6270 0.6260 0.6230 0.6200
5.589029 0.6140 0.6080 0.6050 0.6020 0.6010
5.627000 0.5990 0.5950 0.5870 0.5830 0.5810
5.665029 0.5780 0.5750 0.5720 0.5720 0.5720
5.703000 0.5710 0.5650 0.5630 0.5610 0.5590
5.741029 0.5580 0.5550 0.5430 0.5290 0.5230
5.779000 0.5190 0.5170 0.5140 0.5110 0.5050
5.817029 0.4970 0.4880 0.4740 0.4700 0.4640
5.855000 0.4580 0.4520 0.4400 0.4310 0.4120
5.893029 0.3880 0.3800 0.3750 0.3690 0.3580
5.931000 0.3210 0.2970 0.2790 0.2690 0.2550
5.969029 0.2500 0.2440 0.2200 0.2140 0.1960
6.007000 0.1930 0.1910 0.1860 0.1810 0.1770
6.045029 0.1470 0.1320 0.1270 0.1220 0.1170
6.083000 0.1200 0.1220 0.1220 0.1360 0.1510
6.121029 0.1620 0.1740 0.1840 0.1960 0.2110
6.159000 0.2230 0.2470 0.2730 0.2790 0.2870
6.197029 0.2960 0.3080 0.3130 0.3270 0.3450
6.235000 0.3550 0.3690 0.3860 0.3920 0.4000
6.273029 0.4090 0.4150 0.4190 0.4270 0.4330
6.311000 0.4380 0.4520 0.4550 0.4580 0.4610
6.349029 0.4620 0.4670 0.4710 0.4790 0.4850
6.387000 0.4890 0.4920 0.5110 0.5200 0.5250
6.425029 0.5320 0.5380 0.5430 0.5460 0.5490
6.463000 0.5520 0.5550 0.5650 0.5710 0.5740
6.501029 0.5750 0.5780 0.5830 0.5840 0.5860
6.539000 0.5920 0.5980 0.6010 0.6040 0.6070
6.577029 0.6100 0.6110 0.6130 0.6140 0.6170
6.615000 0.6200 0.6320 0.6330 0.6330 0.6350
6.653029 0.6360 0.6380 0.6380 0.6410 0.6420
6.691000 0.6440 0.6470 0.6480 0.6500 0.6500
6.729029 0.6510 0.6510 0.6510 0.6510 0.6510
6.767000 0.6530 0.6540 0.6570 0.6590 0.6590
6.805029 0.6590 0.6600 0.6600 0.6600 0.6600
6.843000 0.6620 0.6630 0.6650 0.6650 0.6650
6.881029 0.6650 0.6650 0.6650 0.6650 0.6630
6.919000 0.6630 0.6630 0.6630 0.6630 0.6630
6.957029 0.6650 0.6650 0.6630 0.6620 0.6600
6.995000 0.6570 0.6500 0.6330 0.6270 0.6220
7.033029 0.6070 0.5980 0.5930 0.5870 0.5870
7.071000 0.5960 0.6010 0.6070 0.6130 0.6160
7.109029 0.6220 0.6260 0.6290 0.6300 0.6320
7.147000 0.6350 0.6380 0.6410 0.6440 0.6470
7.185029 0.6480 0.6510 0.6590 0.6650 0.6690
7.223000 0.6720 0.6720 0.6720 0.6720 0.6720
7.261029 0.6720 0.6720 0.6720 0.6710 0.6690
7.299000 0.6660 0.6660 0.6650 0.6650 0.6630
7.337029 0.6590 0.6510 0.6470 0.6390 0.6330
7.375000 0.6270 0.6200 0.6040 0.5810 0.5190
7.413029 0.4830 0.4470 0.4060 0.3630 0.3310
7.451000 0.3130 0.2870 0.2810 0.2780 0.2780
7.489029 0.2780 0.2780 0.2760 0.2690 0.2520
7.527000 0.2440 0.2350 0.2270 0.2230 0.2210
7.565029 0.2180 0.2150 0.2150 0.2260 0.2390
7.603000 0.2810 0.3000 0.3160 0.3280 0.3360
7.641029 0.3460 0.3520 0.3660 0.3730 0.3980
7.679000 0.4090 0.4160 0.4250 0.4310 0.4380
7.717029 0.4460 0.4530 0.4640 0.4700 0.4800
7.755000 0.4860 0.4920 0.4980 0.5070 0.5140
7.793029 0.5200 0.5250 0.5310 0.5380 0.5430
7.831000 0.5460 0.5520 0.5560 0.5610 0.5650
7.869029 0.5690 0.5750 0.5800 0.5830 0.5870
7.907000 0.5900 0.5950 0.5980 0.6010 0.6040
7.945029 0.6050 0.6100 0.6110 0.6140 0.6160
7.983000 0.6170 0.6190 0.6220 0.6260 0.6270
8.021029 0.6300 0.6330 0.6350 0.6380 0.6390
8.059000 0.6410 0.6420 0.6450 0.6480 0.6510
8.097029 0.6530 0.6540 0.6560 0.6570 0.6600
8.135000 0.6620 0.6660 0.6710 0.6720 0.6740
8.173029 0.6750 0.6770 0.6780 0.6780 0.6810
8.211000 0.6830 0.6860 0.6870 0.6880 0.6900
8.249029 0.6910 0.6930 0.6930 0.6940 0.6970
8.287000 0.7000 0.7000 0.7030 0.7050 0.7060
8.325029 0.7090 0.7120 0.7170 0.7180 0.7210
8.363000 0.7230 0.7240 0.7260 0.7290 0.7290
8.401029 0.7320 0.7320 0.7350 0.7360 0.7380
8.439000 0.7390 0.7440 0.7450 0.7480 0.7500
8.477029 0.7510 0.7540 0.7550 0.7570 0.7580
8.515000 0.7580 0.7580 0.7600 0.7610 0.7660
8.553029 0.7670 0.7700 0.7720 0.7730 0.7750
8.591000 0.7760 0.7780 0.7790 0.7820 0.7840
8.629029 0.7850 0.7850 0.7870 0.7870 0.7870
8.667000 0.7870 0.7880 0.7900 0.7900 0.7930
8.705029 0.7940 0.7970 0.7970 0.7990 0.8000
8.743000 0.8020 0.8020 0.8020 0.8020 0.8020
8.781029 0.8030 0.8030 0.8030 0.8050 0.8060
8.819000 0.8080 0.8080 0.8080 0.8110 0.8110
8.857029 0.8120 0.8120 0.8120 0.8120 0.8130
8.895000 0.8160 0.8160 0.8180 0.8180 0.8190
8.933029 0.8190 0.8210 0.8210 0.8220 0.8240
8.971000 0.8250 0.8250 0.8270 0.8270 0.8280
9.009029 0.8280 0.8300 0.8310 0.8330 0.8340
9.047000 0.8360 0.8360 0.8360 0.8370 0.8370
9.085029 0.8390 0.8390 0.8400 0.8400 0.8400
9.123000 0.8420 0.8420 0.8420 0.8420 0.8430
9.161029 0.8430 0.8450 0.8460 0.8460 0.8480
9.199000 0.8490 0.8510 0.8510 0.8520 0.8520
9.237029 0.8520 0.8540 0.8550 0.8550 0.8570
9.275000 0.8570 0.8570 0.8580 0.8580 0.8600
9.313029 0.8600 0.8610 0.8610 0.8630 0.8630
9.351000 0.8640 0.8660 0.8660 0.8670 0.8670
9.389029 0.8690 0.8690 0.8690 0.8700 0.8700
9.427000 0.8700 0.8700 0.8700 0.8700 0.8720
9.465029 0.8730 0.8730 0.8730 0.8750 0.8760
9.503000 0.8770 0.8770 0.8770 0.8790 0.8790
9.541029 0.8800 0.8800 0.8820 0.8820 0.8820
9.579000 0.8830 0.8830 0.8850 0.8850 0.8850
9.617029 0.8860 0.8860 0.8860 0.8880 0.8880
9.655000 0.8880 0.8880 0.8880 0.8890 0.8890
9.693029 0.8890 0.8890 0.8890 0.8910 0.8910
9.731000 0.8920 0.8940 0.8940 0.8950 0.8970
9.769029 0.8970 0.8970 0.8970 0.8970 0.8980
9.807000 0.8980 0.9000 0.9000 0.9000 0.9000
9.845029 0.9010 0.9010 0.9010 0.9030 0.9030
9.883000 0.9040 0.9040 0.9060 0.9060 0.9070
9.921029 0.9070 0.9070 0.9090 0.9100 0.9120
9.959000 0.9120 0.9130 0.9130 0.9130 0.9130
9.997029 0.9150 0.9150 0.9150 0.9150 0.9160
10.035000 0.9160 0.9180 0.9180 0.9190 0.9190
10.073029 0.9190 0.9190 0.9210 0.9220 0.9220
10.111000 0.9220 0.9220 0.9240 0.9240 0.9240
10.149029 0.9240 0.9250 0.9250 0.9250 0.9270
10.188000 0.9270 0.9270 0.9270 0.9270 0.9270
10.226029 0.9270 0.9280 0.9280 0.9280 0.9300
10.264000 0.9300 0.9300 0.9310 0.9310 0.9310
10.302029 0.9330 0.9330 0.9330 0.9330 0.9340
10.340000 0.9340 0.9360 0.9370 0.9370 0.9380
10.378029 0.9380 0.9380 0.9400 0.9400 0.9400
10.416000 0.9410 0.9410 0.9410 0.9410 0.9410
10.454029 0.9410 0.9410 0.9410 0.9430 0.9430
10.492000 0.9430 0.9430 0.9430 0.9430 0.9440
10.530029 0.9440 0.9440 0.9440 0.9440 0.9440
10.568000 0.9440 0.9440 0.9440 0.9440 0.9440
10.606029 0.9460 0.9460 0.9460 0.9460 0.9470
10.644000 0.9470 0.9470 0.9470 0.9470 0.9470
10.682029 0.9470 0.9470 0.9490 0.9490 0.9490
10.720000 0.9500 0.9500 0.9500 0.9500 0.9520
10.758029 0.9520 0.9520 0.9520 0.9520 0.9530
10.796000 0.9530 0.9530 0.9550 0.9550 0.9550
10.834029 0.9550 0.9550 0.9550 0.9560 0.9560
10.872000 0.9560 0.9560 0.9560 0.9560 0.9560
10.910029 0.9560 0.9580 0.9580 0.9580 0.9580
10.948000 0.9580 0.9590 0.9590 0.9610 0.9610
10.986029 0.9610 0.9610 0.9620 0.9620 0.9620
11.024000 0.9640 0.9640 0.9640 0.9640 0.9640
11.062029 0.9640 0.9640 0.9640 0.9650 0.9650
11.100000 0.9650 0.9650 0.9650 0.9650 0.9670
11.138029 0.9670 0.9670 0.9670 0.9670 0.9670
11.176000 0.9680 0.9680 0.9680 0.9680 0.9680
11.214029 0.9680 0.9680 0.9680 0.9700 0.9700
11.252000 0.9700 0.9700 0.9700 0.9700 0.9700
11.290029 0.9710 0.9700 0.9700 0.9700 0.9710
11.328000 0.9710 0.9710 0.9710 0.9730 0.9730
11.366029 0.9710 0.9710 0.9710 0.9710 0.9710
11.404000 0.9710 0.9710 0.9710 0.9710 0.9730
11.442029 0.9740 0.9740 0.9740 0.9740 0.9740
11.480000 0.9740 0.9740 0.9740 0.9740 0.9740
11.518029 0.9740 0.9740 0.9740 0.9740 0.9740
11.556000 0.9740 0.9740 0.9740 0.9740 0.9740
11.594029 0.9740 0.9740 0.9740 0.9740 0.9740
11.632000 0.9740 0.9740 0.9740 0.9740 0.9740
11.670029 0.9740 0.9740 0.9760 0.9740 0.9760
11.708000 0.9760 0.9760 0.9760 0.9760 0.9760
11.746029 0.9740 0.9740 0.9740 0.9760 0.9760
11.784000 0.9760 0.9760 0.9740 0.9740 0.9760
11.822029 0.9760 0.9740 0.9740 0.9740 0.9740
11.860000 0.9760 0.9740 0.9740 0.9740 0.9740
11.898029 0.9730 0.9710 0.9710 0.9700 0.9700
11.936000 0.9700 0.9680 0.9680 0.9670 0.9650
11.974029 0.9640 0.9640 0.9620 0.9620 0.9620
12.012000 0.9610 0.9590 0.9580 0.9580 0.9560
12.050029 0.9560 0.9550 0.9530 0.9520 0.9520
12.088000 0.9500 0.9490 0.9490 0.9490 0.9470
12.126029 0.9460 0.9460 0.9440 0.9430 0.9410
12.164000 0.9400 0.9370 0.9360 0.9360 0.9360
12.202029 0.9360 0.9340 0.9330 0.9300 0.9280
12.240000 0.9250 0.9250 0.9220 0.9220 0.9210
12.278029 0.9180 0.9160 0.9150 0.9120 0.9120
12.316000 0.9090 0.9070 0.9040 0.9030 0.9000
12.354029 0.8950 0.8920 0.8910 0.8860 0.8830
12.392000 0.8800 0.8770 0.8750 0.8750 0.8730
12.430029 0.8700 0.8670 0.8640 0.8610 0.8570
12.468000 0.8550 0.8540 0.8490 0.8460 0.8400
12.506029 0.8360 0.8300 0.8250 0.8190 0.8130
12.544000 0.8110 0.8030 0.7990 0.7960 0.7930
12.582029 0.7910 0.7880 0.7850 0.7700 0.7610
12.620000 0.7570 0.7510 0.7450 0.7290 0.7140
12.658029 0.7050 0.6780 0.6600 0.6390 0.6290
12.696000 0.6170 0.5930 0.5750 0.5580 0.5370
12.734029 0.5320 0.5080 0.4850 0.4670 0.4590
12.772000 0.4030 0.3830 0.3630 0.3460 0.3280
12.810029 0.3250 0.3240 0.3240 0.3220 0.3220
12.848000 0.3210 0.3160 0.3130 0.3060 0.3020
12.886029 0.2960 0.2960 0.2910 0.2910 0.2960
12.924000 0.2960 0.3020 0.3150 0.3250 0.3450
12.962029 0.3580 0.3730 0.4090 0.4210 0.4300
13.000000 0.4460 0.4550 0.4620 0.4770 0.4880
13.038029 0.4980 0.5200 0.5310 0.5380 0.5470
13.076000 0.5520 0.5580 0.5630 0.5680 0.5720
13.114029 0.5800 0.5890 0.5960 0.6010 0.6080
13.152000 0.6160 0.6230 0.6320 0.6390 0.6420
13.190029 0.6450 0.6470 0.6510 0.6560 0.6590
13.228000 0.6630 0.6680 0.6710 0.6750 0.6780
13.266029 0.6800 0.6840 0.6870 0.6880 0.6910
13.304000 0.6940 0.6960 0.6970 0.7000 0.7020
13.342029 0.7080 0.7110 0.7150 0.7200 0.7230
13.380000 0.7240 0.7240 0.7270 0.7290 0.7320
13.418029 0.7350 0.7380 0.7390 0.7440 0.7450
13.456000 0.7480 0.7520 0.7520 0.7540 0.7570
13.494029 0.7580 0.7600 0.7630 0.7630 0.7660
13.532000 0.7670 0.7700 0.7720 0.7760 0.7760
13.570029 0.7780 0.7790 0.7810 0.7840 0.7850
13.608000 0.7870 0.7880 0.7900 0.7900 0.7910
13.646029 0.7910 0.7930 0.7930 0.7940 0.7960
13.684000 0.7960 0.7970 0.8000 0.8020 0.8030
13.722029 0.8030 0.8030 0.8030 0.8030 0.8050
13.760000 0.8050 0.8050 0.8060 0.8060 0.8060
13.798029 0.8080 0.8090 0.8110 0.8120 0.8120
13.836000 0.8130 0.8130 0.8150 0.8150 0.8150
13.874029 0.8150 0.8160 0.8160 0.8180 0.8180
13.912000 0.8190 0.8210 0.8210 0.8220 0.8240
13.950029 0.8240 0.8250 0.8250 0.8250 0.8250
13.988000 0.8250 0.8250 0.8270 0.8270 0.8270
14.026029 0.8270 0.8270 0.8280 0.8280 0.8300
14.064000 0.8310 0.8310 0.8330 0.8340 0.8340
14.102029 0.8360 0.8360 0.8370 0.8370 0.8390
14.140000 0.8390 0.8400 0.8400 0.8400 0.8420
14.178029 0.8420 0.8420 0.8420 0.8420 0.8420
14.216000 0.8430 0.8430 0.8430 0.8430 0.8450
14.254029 0.8450 0.8450 0.8450 0.8450 0.8450
14.292000 0.8450 0.8460 0.8460 0.8460 0.8460
14.330029 0.8480 0.8480 0.8480 0.8490 0.8490
14.368000 0.8510 0.8510 0.8510 0.8520 0.8520
14.406029 0.8540 0.8540 0.8540 0.8540 0.8550
14.444000 0.8550 0.8570 0.8570 0.8580 0.8580
14.482029 0.8580 0.8600 0.8600 0.8610 0.8610
14.520000 0.8630 0.8630 0.8630 0.8630 0.8630
14.558029 0.8630 0.8630 0.8640 0.8640 0.8640
14.596000 0.8640 0.8640 0.8660 0.8660 0.8660
14.634029 0.8670 0.8670 0.8670 0.8670 0.8690
14.672000 0.8690 0.8690 0.8700 0.8700 0.8720
14.710029 0.8720 0.8720 0.8730 0.8730 0.8730
14.748000 0.8750 0.8750 0.8750 0.8750 0.8750
14.786029 0.8750 0.8750 0.8750 0.8750 0.8760
14.824000 0.8760 0.8760 0.8770 0.8770 0.9180
14.862029 0.8750 0.8750 0.8760 0.8760 0.8760
14.900000 0.8770
##END=
