##TITLE=Dimethylamine, N-nitroso-
##JCAMP-DX=4.24
##DATA TYPE=INFRARED SPECTRUM
##CLASS=COBLENTZ III
##ORIGIN=K. K. DEB-NCI FREDERICK CANCER RESEARCH CENTER
##OWNER=Copyright (C) 1987 by the Coblentz Society
Collection (C) 2018 copyright by the U.S. Secretary of Commerce
on behalf of the United States of America. All rights reserved.
##DATE=1973/12/11
##NAMES=1,1-dimethyl-2-oxohydrazine
##CAS REGISTRY NO=62-75-9
##MOLFORM=C2 H6 N2 O
##SOURCE REFERENCE=COBLENTZ NO. 9705
##$NIST SOURCE=COBLENTZ
##$NIST IMAGE=cob9705
##SPECTROMETER/DATA SYSTEM=PERKIN-ELMER 180 (GRATING)
##INSTRUMENT PARAMETERS=GRATINGS: 2000, 1000, 500, 250 CM^-^1; FILTER CHANGE: 2970, 2000, 1485, 1000, 743, 500, 372, 250, 186 CM^-^1.
##STATE=LIQUID (NEAT)
$$ PURITY - ANALYTICAL
$$ SEE SPECTRUN NO. 4837 FOR "SOLUTION" RUN
##PATH LENGTH=CAPILLARY
##SAMPLING PROCEDURE=TRANSMISSION
##RESOLUTION=2
##DATA PROCESSING=DIGITIZED BY COBLENTZ SOCIETY (BATCH II) FROM HARD COPY
##XUNITS=1/CM
##YUNITS=TRANSMITTANCE
##XFACTOR=1.0
##YFACTOR=1
##FIRSTX=398
##LASTX=3800
##FIRSTY=0.5572
##MAXX=3800
##MINX=398
##MAXY=1.0008
##MINY=0.1043
##NPOINTS=3403
##XYDATA=(X++(Y..Y))
398.000000 0.5572 0.5602 0.5632 0.5726 0.5837
403.000000 0.5948 0.6060 0.6171 0.6283 0.6394
408.000000 0.6506 0.6617 0.6729 0.6840 0.6951
413.000000 0.6997 0.7039 0.7099 0.7159 0.7220
418.000000 0.7301 0.7390 0.7503 0.7752 0.7932
423.000000 0.8046 0.8128 0.8179 0.8212 0.8244
428.000000 0.8277 0.8309 0.8342 0.8378 0.8417
433.000000 0.8455 0.8493 0.8532 0.8556 0.8574
438.000000 0.8592 0.8611 0.8629 0.8683 0.8709
443.000000 0.8721 0.8733 0.8744 0.8746 0.8746
448.000000 0.8747 0.8748 0.8748 0.8749 0.8749
453.000000 0.8759 0.8772 0.8792 0.8823 0.8854
458.000000 0.8903 0.8934 0.8937 0.8939 0.8942
463.000000 0.8944 0.8947 0.8969 0.9001 0.9029
468.000000 0.9073 0.9124 0.9176 0.9219 0.9257
473.000000 0.9295 0.9333 0.9372 0.9410 0.9447
478.000000 0.9484 0.9521 0.9558 0.9595 0.9632
483.000000 0.9663 0.9687 0.9712 0.9736 0.9761
488.000000 0.9785 0.9802 0.9808 0.9814 0.9820
493.000000 0.9826 0.9832 0.9840 0.9847 0.9855
498.000000 0.9862 0.9872 0.9893 0.9909 0.9911
503.000000 0.9912 0.9904 0.9893 0.9882 0.9872
508.000000 0.9863 0.9854 0.9845 0.9843 0.9862
513.000000 0.9881 0.9908 0.9936 0.9959 0.9979
518.000000 0.9984 0.9988 0.9984 0.9979 0.9975
523.000000 0.9971 0.9967 0.9965 0.9962 0.9959
528.000000 0.9956 0.9954 0.9951 0.9949 0.9949
533.000000 0.9949 0.9949 0.9983 0.9949 0.9949
538.000000 0.9956 0.9963 0.9969 0.9976 0.9983
543.000000 0.9990 0.9993 0.9996 0.9999 1.0002
548.000000 1.0005 1.0008 1.0007 1.0005 1.0004
553.000000 1.0003 1.0001 1.0000 0.9999 0.9997
558.000000 0.9996 0.9995 0.9994 0.9992 0.9989
563.000000 0.9985 0.9981 0.9977 0.9973 0.9969
568.000000 0.9965 0.9961 0.9957 0.9953 0.9949
573.000000 0.9944 0.9939 0.9933 0.9926 0.9920
578.000000 0.9913 0.9906 0.9900 0.9893 0.9887
583.000000 0.9880 0.9873 0.9867 0.9860 0.9852
588.000000 0.9845 0.9837 0.9830 0.9822 0.9815
593.000000 0.9807 0.9799 0.9792 0.9784 0.9777
598.000000 0.9770 0.9763 0.9757 0.9750 0.9743
603.000000 0.9737 0.9730 0.9724 0.9717 0.9710
608.000000 0.9709 0.9708 0.9707 0.9706 0.9705
613.000000 0.9703 0.9702 0.9701 0.9700 0.9699
618.000000 0.9698 0.9698 0.9697 0.9697 0.9697
623.000000 0.9697 0.9696 0.9696 0.9696 0.9695
628.000000 0.9695 0.9696 0.9696 0.9696 0.9697
633.000000 0.9697 0.9697 0.9698 0.9698 0.9698
638.000000 0.9699 0.9699 0.9699 0.9700 0.9700
643.000000 0.9698 0.9695 0.9692 0.9689 0.9686
648.000000 0.9683 0.9680 0.9677 0.9674 0.9664
653.000000 0.9654 0.9644 0.9633 0.9623 0.9613
658.000000 0.9616 0.9622 0.9627 0.9631 0.9629
663.000000 0.9613 0.9595 0.9572 0.9548 0.9515
668.000000 0.9480 0.9444 0.9398 0.9352 0.9298
673.000000 0.9237 0.9175 0.8909 0.8458 0.8008
678.000000 0.7558 0.7107 0.6657 0.6206 0.5756
683.000000 0.5633 0.5636 0.5977 0.6471 0.6965
688.000000 0.7459 0.7953 0.8448 0.8942 0.9301
693.000000 0.9366 0.9405 0.9444 0.9484 0.9521
698.000000 0.9554 0.9586 0.9619 0.9636 0.9652
703.000000 0.9668 0.9684 0.9701 0.9711 0.9721
708.000000 0.9731 0.9740 0.9745 0.9749 0.9754
713.000000 0.9758 0.9762 0.9767 0.9771 0.9772
718.000000 0.9774 0.9775 0.9777 0.9778 0.9780
723.000000 0.9781 0.9783 0.9784 0.9786 0.9789
728.000000 0.9791 0.9794 0.9796 0.9799 0.9801
733.000000 0.9804 0.9806 0.9809 0.9811 0.9814
738.000000 0.9814 0.9815 0.9815 0.9816 0.9817
743.000000 0.9812 0.9799 0.9787 0.9774 0.9763
748.000000 0.9753 0.9742 0.9731 0.9728 0.9725
753.000000 0.9723 0.9720 0.9718 0.9716 0.9730
758.000000 0.9715 0.9717 0.9720 0.9722 0.9724
763.000000 0.9726 0.9728 0.9730 0.9732 0.9734
768.000000 0.9736 0.9738 0.9740 0.9741 0.9736
773.000000 0.9731 0.9726 0.9720 0.9715 0.9710
778.000000 0.9705 0.9700 0.9696 0.9693 0.9689
783.000000 0.9686 0.9682 0.9679 0.9677 0.9675
788.000000 0.9673 0.9671 0.9670 0.9668 0.9666
793.000000 0.9664 0.9663 0.9664 0.9666 0.9669
798.000000 0.9672 0.9674 0.9677 0.9680 0.9682
803.000000 0.9685 0.9687 0.9690 0.9693 0.9695
808.000000 0.9698 0.9701 0.9703 0.9706 0.9709
813.000000 0.9711 0.9714 0.9717 0.9719 0.9722
818.000000 0.9725 0.9727 0.9728 0.9727 0.9726
823.000000 0.9726 0.9725 0.9724 0.9723 0.9711
828.000000 0.9692 0.9667 0.9642 0.9616 0.9591
833.000000 0.9558 0.9525 0.9493 0.9408 0.9265
838.000000 0.9123 0.8980 0.8837 0.8694 0.8551
843.000000 0.8408 0.8265 0.8122 0.7979 0.7849
848.000000 0.7862 0.7849 0.7978 0.8289 0.8599
853.000000 0.8910 0.9221 0.9394 0.9450 0.9505
858.000000 0.9532 0.9557 0.9582 0.9606 0.9626
863.000000 0.9642 0.9658 0.9674 0.9690 0.9696
868.000000 0.9700 0.9704 0.9709 0.9713 0.9714
873.000000 0.9714 0.9715 0.9716 0.9717 0.9718
878.000000 0.9719 0.9720 0.9720 0.9719 0.9719
883.000000 0.9719 0.9718 0.9718 0.9717 0.9717
888.000000 0.9716 0.9716 0.9715 0.9715 0.9714
893.000000 0.9714 0.9713 0.9742 0.9711 0.9710
898.000000 0.9709 0.9708 0.9707 0.9706 0.9705
903.000000 0.9704 0.9703 0.9702 0.9701 0.9700
908.000000 0.9699 0.9697 0.9695 0.9693 0.9692
913.000000 0.9690 0.9688 0.9686 0.9685 0.9683
918.000000 0.9681 0.9680 0.9676 0.9673 0.9669
923.000000 0.9666 0.9662 0.9659 0.9655 0.9652
928.000000 0.9648 0.9645 0.9641 0.9638 0.9633
933.000000 0.9627 0.9621 0.9615 0.9609 0.9604
938.000000 0.9598 0.9592 0.9586 0.9580 0.9574
943.000000 0.9567 0.9558 0.9549 0.9540 0.9531
948.000000 0.9522 0.9513 0.9503 0.9494 0.9485
953.000000 0.9476 0.9465 0.9452 0.9440 0.9427
958.000000 0.9414 0.9402 0.9389 0.9376 0.9362
963.000000 0.9347 0.9331 0.9316 0.9300 0.9285
968.000000 0.9269 0.9254 0.9239 0.9223 0.9208
973.000000 0.9192 0.9177 0.9160 0.9141 0.9122
978.000000 0.9103 0.9084 0.9065 0.9046 0.9027
983.000000 0.9006 0.8979 0.8953 0.8926 0.8900
988.000000 0.8873 0.8847 0.8820 0.8774 0.8719
993.000000 0.8663 0.8608 0.8553 0.8497 0.8442
998.000000 0.8386 0.8331 0.8275 0.8220 0.8148
1003.000000 0.8064 0.7981 0.7897 0.7812 0.7724
1008.000000 0.7636 0.7548 0.7459 0.7371 0.7216
1013.000000 0.7057 0.6900 0.6752 0.6604 0.6455
1018.000000 0.6302 0.6149 0.6012 0.5881 0.5751
1023.000000 0.5664 0.5578 0.5491 0.5349 0.5178
1028.000000 0.5007 0.4837 0.4666 0.4495 0.4324
1033.000000 0.4153 0.3982 0.3811 0.3640 0.3469
1038.000000 0.3298 0.3127 0.2956 0.2785 0.2614
1043.000000 0.2443 0.2273 0.2102 0.1931 0.1760
1048.000000 0.1589 0.1455 0.1397 0.1387 0.1397
1053.000000 0.1394 0.1428 0.1688 0.1941 0.2195
1058.000000 0.2449 0.2702 0.2956 0.3210 0.3463
1063.000000 0.3717 0.3971 0.4224 0.4478 0.4732
1068.000000 0.4985 0.5239 0.5493 0.5606 0.5713
1073.000000 0.5955 0.6083 0.6200 0.6316 0.6433
1078.000000 0.6555 0.6676 0.6861 0.7077 0.7125
1083.000000 0.7173 0.7221 0.7268 0.7287 0.7306
1088.000000 0.7326 0.7345 0.7364 0.7380 0.7390
1093.000000 0.7400 0.7410 0.7420 0.7430 0.7445
1098.000000 0.7475 0.7505 0.7535 0.7565 0.7606
1103.000000 0.7649 0.7692 0.7734 0.7755 0.7774
1108.000000 0.7792 0.7811 0.7829 0.7843 0.7839
1113.000000 0.7835 0.7832 0.7828 0.7824 0.7820
1118.000000 0.7813 0.7800 0.7786 0.7773 0.7760
1123.000000 0.7750 0.7755 0.7759 0.7775 0.7794
1128.000000 0.7813 0.7829 0.7846 0.7863 0.7880
1133.000000 0.7884 0.7888 0.7892 0.7890 0.7884
1138.000000 0.7878 0.7874 0.7877 0.7891 0.7908
1143.000000 0.7925 0.7949 0.7974 0.7999 0.8027
1148.000000 0.8054 0.8081 0.8099 0.8117 0.8134
1153.000000 0.8152 0.8170 0.8188 0.8206 0.8224
1158.000000 0.8242 0.8259 0.8276 0.8293 0.8310
1163.000000 0.8327 0.8344 0.8361 0.8378 0.8389
1168.000000 0.8399 0.8410 0.8420 0.8430 0.8441
1173.000000 0.8451 0.8462 0.8472 0.8483 0.8492
1178.000000 0.8494 0.8495 0.8497 0.8499 0.8500
1183.000000 0.8516 0.8504 0.8505 0.8500 0.8490
1188.000000 0.8479 0.8469 0.8459 0.8445 0.8428
1193.000000 0.8410 0.8393 0.8386 0.8380 0.8374
1198.000000 0.8368 0.8363 0.8371 0.8380 0.8391
1203.000000 0.8402 0.8412 0.8426 0.8444 0.8462
1208.000000 0.8480 0.8498 0.8503 0.8508 0.8513
1213.000000 0.8518 0.8523 0.8528 0.8532 0.8539
1218.000000 0.8528 0.8527 0.8525 0.8523 0.8518
1223.000000 0.8513 0.8508 0.8503 0.8498 0.8486
1228.000000 0.8467 0.8449 0.8430 0.8411 0.8387
1233.000000 0.8361 0.8334 0.8307 0.8281 0.8254
1238.000000 0.8228 0.8196 0.8162 0.8129 0.8095
1243.000000 0.8061 0.8036 0.8014 0.7992 0.7970
1248.000000 0.7948 0.7926 0.7905 0.7883 0.7863
1253.000000 0.7844 0.7826 0.7807 0.7788 0.7764
1258.000000 0.7739 0.7714 0.7671 0.7621 0.7571
1263.000000 0.7516 0.7434 0.7352 0.7248 0.7124
1268.000000 0.7007 0.6909 0.6811 0.6712 0.6600
1273.000000 0.6407 0.6213 0.5994 0.5763 0.5466
1278.000000 0.4940 0.4587 0.4234 0.3881 0.3528
1283.000000 0.3175 0.2822 0.2469 0.2116 0.1762
1288.000000 0.1409 0.1064 0.1067 0.1143 0.1372
1293.000000 0.1602 0.1832 0.2061 0.2291 0.2521
1298.000000 0.2750 0.2980 0.3210 0.3300 0.3300
1303.000000 0.3300 0.3226 0.3091 0.2956 0.2821
1308.000000 0.2686 0.2551 0.2416 0.2281 0.2146
1313.000000 0.2011 0.1876 0.1741 0.1606 0.1471
1318.000000 0.1368 0.1389 0.1369 0.1563 0.1790
1323.000000 0.2017 0.2243 0.2470 0.2697 0.2924
1328.000000 0.3150 0.3377 0.3604 0.3830 0.4057
1333.000000 0.4284 0.4511 0.4737 0.4964 0.5191
1338.000000 0.5417 0.5644 0.5871 0.6111 0.6310
1343.000000 0.6416 0.6523 0.6629 0.6703 0.6777
1348.000000 0.6850 0.6924 0.6990 0.7056 0.7121
1353.000000 0.7172 0.7215 0.7257 0.7290 0.7300
1358.000000 0.7318 0.7294 0.7272 0.7246 0.7216
1363.000000 0.7190 0.7181 0.7188 0.7194 0.7176
1368.000000 0.7212 0.7247 0.7276 0.7293 0.7302
1373.000000 0.7302 0.7306 0.7295 0.7251 0.7099
1378.000000 0.6936 0.6773 0.6610 0.6447 0.6284
1383.000000 0.6121 0.5957 0.5794 0.5631 0.5468
1388.000000 0.5305 0.5142 0.4979 0.4816 0.4653
1393.000000 0.4541 0.4528 0.4518 0.4509 0.4497
1398.000000 0.4483 0.4470 0.4229 0.3940 0.3650
1403.000000 0.3361 0.3072 0.2782 0.2493 0.2212
1408.000000 0.2217 0.2236 0.2304 0.2531 0.2757
1413.000000 0.2984 0.3210 0.3437 0.3663 0.3889
1418.000000 0.4116 0.4342 0.4569 0.4795 0.5022
1423.000000 0.5146 0.5138 0.5128 0.5118 0.4948
1428.000000 0.4699 0.4450 0.4201 0.3952 0.3703
1433.000000 0.3454 0.3205 0.2956 0.2707 0.2458
1438.000000 0.2209 0.1960 0.1711 0.1462 0.1213
1443.000000 0.1150 0.1115 0.1084 0.1060 0.1044
1448.000000 0.1043 0.1053 0.1066 0.1165 0.1303
1453.000000 0.1441 0.1580 0.1718 0.1856 0.1994
1458.000000 0.2132 0.2271 0.2409 0.2547 0.2685
1463.000000 0.2823 0.2962 0.3100 0.3238 0.3376
1468.000000 0.3515 0.3653 0.3791 0.3929 0.4067
1473.000000 0.4117 0.4165 0.4192 0.4210 0.4214
1478.000000 0.4218 0.4223 0.4232 0.4254 0.4316
1483.000000 0.4388 0.4468 0.4560 0.4793 0.5026
1488.000000 0.5259 0.5492 0.5725 0.5833 0.5887
1493.000000 0.5963 0.6040 0.6114 0.6171 0.6228
1498.000000 0.6285 0.6342 0.6399 0.6463 0.6545
1503.000000 0.6627 0.6709 0.6790 0.6871 0.6952
1508.000000 0.7033 0.7099 0.7155 0.7212 0.7268
1513.000000 0.7324 0.7378 0.7430 0.7483 0.7535
1518.000000 0.7587 0.7636 0.7667 0.7698 0.7729
1523.000000 0.7760 0.7792 0.7823 0.7854 0.7881
1528.000000 0.7903 0.7925 0.7947 0.7969 0.7991
1533.000000 0.8013 0.8035 0.8057 0.8079 0.8098
1538.000000 0.8114 0.8130 0.8147 0.8163 0.8179
1543.000000 0.8195 0.8211 0.8227 0.8243 0.8260
1548.000000 0.8272 0.8282 0.8292 0.8302 0.8312
1553.000000 0.8322 0.8332 0.8342 0.8352 0.8361
1558.000000 0.8367 0.8373 0.8379 0.8385 0.8391
1563.000000 0.8397 0.8403 0.8409 0.8415 0.8421
1568.000000 0.8425 0.8429 0.8432 0.8436 0.8439
1573.000000 0.8443 0.8447 0.8450 0.8454 0.8457
1578.000000 0.8461 0.8464 0.8468 0.8471 0.8475
1583.000000 0.8479 0.8482 0.8483 0.8483 0.8484
1588.000000 0.8484 0.8484 0.8485 0.8485 0.8485
1593.000000 0.8486 0.8486 0.8487 0.8487 0.8487
1598.000000 0.8487 0.8487 0.8487 0.8487 0.8487
1603.000000 0.8487 0.8487 0.8488 0.8489 0.8492
1608.000000 0.8494 0.8497 0.8499 0.8502 0.8504
1613.000000 0.8507 0.8509 0.8512 0.8514 0.8516
1618.000000 0.8519 0.8521 0.8524 0.8526 0.8528
1623.000000 0.8529 0.8530 0.8531 0.8533 0.8534
1628.000000 0.8535 0.8536 0.8537 0.8539 0.8540
1633.000000 0.8541 0.8542 0.8544 0.8545 0.8546
1638.000000 0.8547 0.8549 0.8551 0.8554 0.8556
1643.000000 0.8558 0.8565 0.8572 0.8579 0.8586
1648.000000 0.8594 0.8604 0.8614 0.8624 0.8634
1653.000000 0.8644 0.8652 0.8657 0.8663 0.8669
1658.000000 0.8675 0.8680 0.8686 0.8692 0.8700
1663.000000 0.8708 0.8717 0.8725 0.8733 0.8742
1668.000000 0.8750 0.8759 0.8761 0.8761 0.8761
1673.000000 0.8761 0.8760 0.8760 0.8760 0.8760
1678.000000 0.8759 0.8759 0.8759 0.8760 0.8761
1683.000000 0.8762 0.8763 0.8763 0.8764 0.8765
1688.000000 0.8766 0.8766 0.8767 0.8768 0.8769
1693.000000 0.8770 0.8771 0.8776 0.8781 0.8785
1698.000000 0.8790 0.8795 0.8800 0.8805 0.8810
1703.000000 0.8815 0.8820 0.8825 0.8830 0.8833
1708.000000 0.8836 0.8840 0.8843 0.8847 0.8850
1713.000000 0.8854 0.8857 0.8860 0.8864 0.8867
1718.000000 0.8867 0.8866 0.8865 0.8864 0.8863
1723.000000 0.8862 0.8861 0.8861 0.8860 0.8859
1728.000000 0.8858 0.8856 0.8855 0.8853 0.8852
1733.000000 0.8850 0.8849 0.8848 0.8846 0.8845
1738.000000 0.8843 0.8845 0.8852 0.8860 0.8868
1743.000000 0.8875 0.8883 0.8890 0.8898 0.8906
1748.000000 0.8913 0.8921 0.8928 0.8936 0.8944
1753.000000 0.8952 0.8959 0.8967 0.8975 0.8983
1758.000000 0.8991 0.8998 0.9006 0.9014 0.9022
1763.000000 0.9028 0.9029 0.9031 0.9032 0.9033
1768.000000 0.9034 0.9036 0.9037 0.9038 0.9039
1773.000000 0.9041 0.9042 0.9043 0.9044 0.9046
1778.000000 0.9044 0.9042 0.9040 0.9038 0.9036
1783.000000 0.9034 0.9033 0.9031 0.9029 0.9027
1788.000000 0.9025 0.9023 0.9021 0.9019 0.9017
1793.000000 0.9016 0.9016 0.9016 0.9016 0.9016
1798.000000 0.9015 0.9015 0.9015 0.9015 0.9015
1803.000000 0.9014 0.9014 0.9014 0.9014 0.9014
1808.000000 0.9013 0.9013 0.9013 0.9013 0.9013
1813.000000 0.9013 0.9012 0.9012 0.9012 0.9012
1818.000000 0.9011 0.9011 0.9011 0.9011 0.9010
1823.000000 0.9010 0.9010 0.9009 0.9009 0.9009
1828.000000 0.9009 0.9008 0.9008 0.9008 0.9007
1833.000000 0.9007 0.9007 0.9007 0.9006 0.9006
1838.000000 0.9006 0.9005 0.9005 0.9005 0.9005
1843.000000 0.9004 0.9004 0.9004 0.9004 0.9004
1848.000000 0.9004 0.9004 0.9005 0.9005 0.9005
1853.000000 0.9005 0.9005 0.9005 0.9005 0.9005
1858.000000 0.9005 0.9005 0.9005 0.9005 0.9003
1863.000000 0.9001 0.9000 0.8998 0.8996 0.8995
1868.000000 0.8993 0.8991 0.8989 0.8988 0.8986
1873.000000 0.8984 0.8983 0.8981 0.8979 0.8978
1878.000000 0.8976 0.8973 0.8971 0.8969 0.8967
1883.000000 0.8965 0.8963 0.8960 0.8958 0.8956
1888.000000 0.8954 0.8952 0.8949 0.8947 0.8945
1893.000000 0.8943 0.8941 0.8938 0.8936 0.8934
1898.000000 0.8932 0.8931 0.8931 0.8932 0.8932
1903.000000 0.8933 0.8933 0.8934 0.8934 0.8935
1908.000000 0.8938 0.8942 0.8945 0.8948 0.8951
1913.000000 0.8954 0.8956 0.8959 0.8961 0.8964
1918.000000 0.8966 0.8969 0.8972 0.8974 0.8977
1923.000000 0.8980 0.8982 0.8985 0.8987 0.8989
1928.000000 0.8991 0.8993 0.8995 0.8997 0.8998
1933.000000 0.9000 0.9002 0.9003 0.9005 0.9006
1938.000000 0.9008 0.9007 0.9004 0.9023 0.8997
1943.000000 0.8993 0.8990 0.8986 0.8983 0.8979
1948.000000 0.8976 0.8972 0.8969 0.8965 0.8962
1953.000000 0.8961 0.8959 0.8958 0.8956 0.8955
1958.000000 0.8954 0.8952 0.8951 0.8949 0.8948
1963.000000 0.8947 0.8946 0.8945 0.8944 0.8943
1968.000000 0.8942 0.8941 0.8940 0.8938 0.8937
1973.000000 0.8937 0.8938 0.8939 0.8939 0.8940
1978.000000 0.8941 0.8942 0.8942 0.8943 0.8944
1983.000000 0.8944 0.8945 0.8946 0.8947 0.8948
1988.000000 0.8950 0.8951 0.8952 0.8953 0.8954
1993.000000 0.8955 0.8956 0.8957 0.8958 0.8959
1998.000000 0.8968 0.8980 0.8993 0.9005 0.9018
2003.000000 0.9024 0.9031 0.9037 0.9043 0.9045
2008.000000 0.9048 0.9049 0.9050 0.9051 0.9053
2013.000000 0.9054 0.9056 0.9057 0.9059 0.9060
2018.000000 0.9062 0.9063 0.9065 0.9064 0.9063
2023.000000 0.9060 0.9058 0.9055 0.9053 0.9051
2028.000000 0.9049 0.9046 0.9044 0.9042 0.9040
2033.000000 0.9037 0.9035 0.9032 0.9030 0.9028
2038.000000 0.9026 0.9023 0.9021 0.9019 0.9017
2043.000000 0.9014 0.9012 0.9009 0.9007 0.9005
2048.000000 0.9003 0.9000 0.8998 0.8996 0.8994
2053.000000 0.8991 0.8989 0.8986 0.8984 0.8982
2058.000000 0.8980 0.8977 0.8975 0.8972 0.8970
2063.000000 0.8968 0.8966 0.8963 0.8961 0.8958
2068.000000 0.8956 0.8954 0.8952 0.8949 0.8947
2073.000000 0.8944 0.8942 0.8939 0.8937 0.8935
2078.000000 0.8933 0.8930 0.8928 0.8925 0.8923
2083.000000 0.8920 0.8918 0.8916 0.8914 0.8913
2088.000000 0.8912 0.8911 0.8911 0.8910 0.8910
2093.000000 0.8909 0.8909 0.8908 0.8908 0.8907
2098.000000 0.8907 0.8906 0.8906 0.8905 0.8905
2103.000000 0.8904 0.8904 0.8903 0.8903 0.8902
2108.000000 0.8902 0.8901 0.8901 0.8900 0.8900
2113.000000 0.8900 0.8900 0.8900 0.8901 0.8901
2118.000000 0.8901 0.8901 0.8901 0.8901 0.8901
2123.000000 0.8901 0.8902 0.8902 0.8902 0.8902
2128.000000 0.8902 0.8902 0.8902 0.8902 0.8903
2133.000000 0.8903 0.8903 0.8903 0.8903 0.8903
2138.000000 0.8904 0.8904 0.8904 0.8904 0.8904
2143.000000 0.8904 0.8904 0.8904 0.8905 0.8905
2148.000000 0.8905 0.8905 0.8905 0.8905 0.8906
2153.000000 0.8906 0.8907 0.8907 0.8907 0.8907
2158.000000 0.8908 0.8908 0.8908 0.8908 0.8909
2163.000000 0.8909 0.8909 0.8909 0.8910 0.8910
2168.000000 0.8910 0.8910 0.8911 0.8911 0.8911
2173.000000 0.8911 0.8912 0.8912 0.8912 0.8912
2178.000000 0.8913 0.8913 0.8913 0.8913 0.8914
2183.000000 0.8914 0.8914 0.8914 0.8915 0.8915
2188.000000 0.8915 0.8915 0.8916 0.8916 0.8916
2193.000000 0.8916 0.8917 0.8917 0.8917 0.8918
2198.000000 0.8919 0.8919 0.8920 0.8920 0.8921
2203.000000 0.8922 0.8923 0.8923 0.8924 0.8925
2208.000000 0.8926 0.8926 0.8927 0.8927 0.8928
2213.000000 0.8929 0.8930 0.8930 0.8931 0.8932
2218.000000 0.8933 0.8933 0.8934 0.8934 0.8935
2223.000000 0.8933 0.8932 0.8931 0.8930 0.8928
2228.000000 0.8927 0.8925 0.8924 0.8922 0.8921
2233.000000 0.8920 0.8919 0.8917 0.8916 0.8914
2238.000000 0.8913 0.8912 0.8911 0.8909 0.8908
2243.000000 0.8906 0.8905 0.8903 0.8902 0.8901
2248.000000 0.8900 0.8898 0.8897 0.8895 0.8894
2253.000000 0.8893 0.8892 0.8891 0.8890 0.8889
2258.000000 0.8888 0.8887 0.8886 0.8885 0.8884
2263.000000 0.8883 0.8882 0.8881 0.8880 0.8879
2268.000000 0.8878 0.8877 0.8877 0.8876 0.8875
2273.000000 0.8874 0.8873 0.8872 0.8871 0.8870
2278.000000 0.8869 0.8868 0.8867 0.8866 0.8866
2283.000000 0.8865 0.8865 0.8865 0.8865 0.8864
2288.000000 0.8864 0.8864 0.8864 0.8863 0.8863
2293.000000 0.8863 0.8863 0.8862 0.8862 0.8862
2298.000000 0.8862 0.8861 0.8861 0.8861 0.8861
2303.000000 0.8860 0.8860 0.8859 0.8859 0.8859
2308.000000 0.8859 0.8858 0.8858 0.8858 0.8858
2313.000000 0.8857 0.8857 0.8857 0.8857 0.8856
2318.000000 0.8856 0.8856 0.8856 0.8855 0.8855
2323.000000 0.8854 0.8854 0.8853 0.8853 0.8852
2328.000000 0.8851 0.8850 0.8849 0.8848 0.8847
2333.000000 0.8846 0.8846 0.8845 0.8844 0.8843
2338.000000 0.8842 0.8841 0.8841 0.8840 0.8839
2343.000000 0.8838 0.8837 0.8836 0.8835 0.8834
2348.000000 0.8834 0.8833 0.8832 0.8831 0.8830
2353.000000 0.8829 0.8828 0.8827 0.8827 0.8826
2358.000000 0.8825 0.8825 0.8825 0.8825 0.8825
2363.000000 0.8825 0.8825 0.8824 0.8824 0.8824
2368.000000 0.8824 0.8824 0.8824 0.8824 0.8824
2373.000000 0.8824 0.8824 0.8823 0.8823 0.8823
2378.000000 0.8823 0.8823 0.8823 0.8823 0.8823
2383.000000 0.8823 0.8823 0.8822 0.8822 0.8822
2388.000000 0.8822 0.8822 0.8822 0.8822 0.8822
2393.000000 0.8821 0.8821 0.8821 0.8821 0.8821
2398.000000 0.8821 0.8821 0.8821 0.8821 0.8821
2403.000000 0.8820 0.8820 0.8820 0.8820 0.8819
2408.000000 0.8819 0.8818 0.8818 0.8818 0.8818
2413.000000 0.8817 0.8817 0.8817 0.8817 0.8816
2418.000000 0.8816 0.8815 0.8815 0.8815 0.8815
2423.000000 0.8812 0.8810 0.8807 0.8804 0.8800
2428.000000 0.8797 0.8794 0.8791 0.8788 0.8785
2433.000000 0.8782 0.8779 0.8775 0.8772 0.8767
2438.000000 0.8763 0.8758 0.8753 0.8748 0.8744
2443.000000 0.8739 0.8735 0.8730 0.8725 0.8720
2448.000000 0.8716 0.8711 0.8707 0.8705 0.8704
2453.000000 0.8702 0.8701 0.8701 0.8702 0.8702
2458.000000 0.8703 0.8703 0.8704 0.8704 0.8705
2463.000000 0.8705 0.8706 0.8706 0.8707 0.8708
2468.000000 0.8709 0.8711 0.8714 0.8716 0.8719
2473.000000 0.8721 0.8724 0.8726 0.8729 0.8730
2478.000000 0.8732 0.8731 0.8731 0.8731 0.8731
2483.000000 0.8731 0.8731 0.8730 0.8730 0.8730
2488.000000 0.8730 0.8729 0.8729 0.8729 0.8730
2493.000000 0.8730 0.8730 0.8730 0.8731 0.8731
2498.000000 0.8732 0.8732 0.8732 0.8732 0.8733
2503.000000 0.8730 0.8728 0.8726 0.8724 0.8722
2508.000000 0.8720 0.8717 0.8715 0.8713 0.8711
2513.000000 0.8708 0.8706 0.8704 0.8702 0.8700
2518.000000 0.8698 0.8696 0.8694 0.8692 0.8690
2523.000000 0.8687 0.8685 0.8683 0.8681 0.8679
2528.000000 0.8677 0.8675 0.8673 0.8671 0.8670
2533.000000 0.8669 0.8669 0.8669 0.8669 0.8669
2538.000000 0.8669 0.8669 0.8669 0.8669 0.8669
2543.000000 0.8668 0.8668 0.8668 0.8668 0.8668
2548.000000 0.8668 0.8668 0.8668 0.8667 0.8667
2553.000000 0.8667 0.8667 0.8666 0.8666 0.8665
2558.000000 0.8665 0.8665 0.8665 0.8664 0.8664
2563.000000 0.8663 0.8663 0.8662 0.8662 0.8661
2568.000000 0.8661 0.8661 0.8661 0.8660 0.8660
2573.000000 0.8659 0.8659 0.8659 0.8659 0.8658
2578.000000 0.8658 0.8658 0.8658 0.8657 0.8657
2583.000000 0.8657 0.8657 0.8656 0.8656 0.8655
2588.000000 0.8655 0.8655 0.8655 0.8654 0.8654
2593.000000 0.8654 0.8654 0.8653 0.8653 0.8652
2598.000000 0.8652 0.8652 0.8653 0.8653 0.8653
2603.000000 0.8653 0.8654 0.8654 0.8655 0.8655
2608.000000 0.8655 0.8655 0.8656 0.8656 0.8657
2613.000000 0.8657 0.8657 0.8657 0.8658 0.8658
2618.000000 0.8658 0.8658 0.8659 0.8659 0.8660
2623.000000 0.8660 0.8660 0.8660 0.8660 0.8659
2628.000000 0.8659 0.8658 0.8658 0.8658 0.8658
2633.000000 0.8657 0.8657 0.8657 0.8657 0.8656
2638.000000 0.8656 0.8656 0.8656 0.8655 0.8655
2643.000000 0.8655 0.8655 0.8654 0.8653 0.8651
2648.000000 0.8649 0.8647 0.8645 0.8642 0.8640
2653.000000 0.8638 0.8636 0.8634 0.8632 0.8629
2658.000000 0.8627 0.8625 0.8623 0.8620 0.8618
2663.000000 0.8616 0.8614 0.8612 0.8610 0.8606
2668.000000 0.8602 0.8597 0.8593 0.8588 0.8584
2673.000000 0.8579 0.8575 0.8570 0.8566 0.8561
2678.000000 0.8556 0.8552 0.8548 0.8544 0.8541
2683.000000 0.8537 0.8534 0.8530 0.8526 0.8522
2688.000000 0.8519 0.8515 0.8511 0.8507 0.8504
2693.000000 0.8500 0.8497 0.8493 0.8489 0.8485
2698.000000 0.8482 0.8479 0.8476 0.8473 0.8471
2703.000000 0.8468 0.8466 0.8464 0.8462 0.8459
2708.000000 0.8457 0.8454 0.8452 0.8449 0.8447
2713.000000 0.8444 0.8442 0.8439 0.8437 0.8434
2718.000000 0.8432 0.8431 0.8430 0.8429 0.8429
2723.000000 0.8428 0.8428 0.8428 0.8428 0.8427
2728.000000 0.8427 0.8427 0.8427 0.8426 0.8426
2733.000000 0.8426 0.8426 0.8425 0.8425 0.8424
2738.000000 0.8424 0.8424 0.8424 0.8425 0.8426
2743.000000 0.8427 0.8428 0.8429 0.8430 0.8431
2748.000000 0.8433 0.8434 0.8435 0.8436 0.8437
2753.000000 0.8437 0.8438 0.8438 0.8438 0.8438
2758.000000 0.8438 0.8438 0.8438 0.8438 0.8438
2763.000000 0.8438 0.8438 0.8437 0.8436 0.8435
2768.000000 0.8434 0.8432 0.8431 0.8430 0.8429
2773.000000 0.8428 0.8427 0.8426 0.8425 0.8423
2778.000000 0.8422 0.8421 0.8420 0.8419 0.8418
2783.000000 0.8417 0.8416 0.8413 0.8410 0.8406
2788.000000 0.8403 0.8400 0.8397 0.8394 0.8391
2793.000000 0.8388 0.8385 0.8381 0.8378 0.8375
2798.000000 0.8372 0.8369 0.8366 0.8361 0.8357
2803.000000 0.8350 0.8343 0.8336 0.8329 0.8322
2808.000000 0.8315 0.8308 0.8302 0.8295 0.8288
2813.000000 0.8281 0.8274 0.8267 0.8260 0.8253
2818.000000 0.8246 0.8232 0.8218 0.8204 0.8191
2823.000000 0.8177 0.8163 0.8149 0.8136 0.8122
2828.000000 0.8109 0.8095 0.8081 0.8065 0.8050
2833.000000 0.8034 0.8018 0.8002 0.7986 0.7970
2838.000000 0.7954 0.7942 0.7930 0.7921 0.7912
2843.000000 0.7903 0.7895 0.7889 0.7884 0.7883
2848.000000 0.7883 0.7882 0.7882 0.7882 0.7883
2853.000000 0.7885 0.7888 0.7890 0.7893 0.7895
2858.000000 0.7898 0.7900 0.7902 0.7904 0.7906
2863.000000 0.7908 0.7910 0.7910 0.7911 0.7911
2868.000000 0.7911 0.7903 0.7895 0.7887 0.7880
2873.000000 0.7868 0.7857 0.7843 0.7830 0.7816
2878.000000 0.7803 0.7788 0.7773 0.7758 0.7743
2883.000000 0.7727 0.7712 0.7696 0.7680 0.7664
2888.000000 0.7649 0.7633 0.7617 0.7601 0.7585
2893.000000 0.7569 0.7554 0.7538 0.7523 0.7507
2898.000000 0.7491 0.7475 0.7460 0.7440 0.7421
2903.000000 0.7394 0.7368 0.7341 0.7314 0.7287
2908.000000 0.7260 0.7236 0.7212 0.7189 0.7167
2913.000000 0.7145 0.7123 0.7100 0.7078 0.7053
2918.000000 0.7028 0.6988 0.6949 0.6909 0.6869
2923.000000 0.6810 0.6751 0.6694 0.6637 0.6620
2928.000000 0.6603 0.6602 0.6602 0.6601 0.6600
2933.000000 0.6599 0.6599 0.6598 0.6598 0.6599
2938.000000 0.6600 0.6601 0.6602 0.6603 0.6608
2943.000000 0.6611 0.6618 0.6627 0.6637 0.6648
2948.000000 0.6659 0.6670 0.6681 0.6696 0.6711
2953.000000 0.6728 0.6745 0.6759 0.6773 0.6784
2958.000000 0.6795 0.6806 0.6817 0.6824 0.6832
2963.000000 0.6835 0.6839 0.6842 0.6846 0.6847
2968.000000 0.6849 0.6847 0.6845 0.6843 0.6841
2973.000000 0.6839 0.6837 0.6836 0.6835 0.6837
2978.000000 0.6839 0.6841 0.6843 0.6852 0.6862
2983.000000 0.6879 0.6896 0.6947 0.6999 0.7074
2988.000000 0.7150 0.7237 0.7325 0.7364 0.7404
2993.000000 0.7430 0.7457 0.7482 0.7507 0.7531
2998.000000 0.7556 0.7576 0.7597 0.7599 0.7602
3003.000000 0.7603 0.7604 0.7604 0.7605 0.7605
3008.000000 0.7606 0.7607 0.7608 0.7608 0.7609
3013.000000 0.7608 0.7608 0.7606 0.7605 0.7603
3018.000000 0.7602 0.7600 0.7599 0.7600 0.7602
3023.000000 0.7611 0.7620 0.7630 0.7641 0.7652
3028.000000 0.7663 0.7672 0.7681 0.7689 0.7698
3033.000000 0.7706 0.7715 0.7722 0.7730 0.7737
3038.000000 0.7744 0.7751 0.7758 0.7765 0.7772
3043.000000 0.7779 0.7786 0.7793 0.7800 0.7807
3048.000000 0.7815 0.7822 0.7830 0.7837 0.7845
3053.000000 0.7852 0.7860 0.7863 0.7867 0.7870
3058.000000 0.7873 0.7875 0.7878 0.7880 0.7883
3063.000000 0.7886 0.7889 0.7889 0.7877 0.7890
3068.000000 0.7890 0.7889 0.7889 0.7888 0.7888
3073.000000 0.7888 0.7888 0.7887 0.7887 0.7886
3078.000000 0.7886 0.7886 0.7886 0.7885 0.7885
3083.000000 0.7884 0.7884 0.7883 0.7882 0.7881
3088.000000 0.7881 0.7880 0.7879 0.7878 0.7877
3093.000000 0.7876 0.7876 0.7875 0.7874 0.7873
3098.000000 0.7873 0.7872 0.7871 0.7870 0.7869
3103.000000 0.7868 0.7868 0.7867 0.7866 0.7865
3108.000000 0.7864 0.7863 0.7862 0.7861 0.7860
3113.000000 0.7859 0.7858 0.7857 0.7856 0.7854
3118.000000 0.7853 0.7852 0.7851 0.7850 0.7849
3123.000000 0.7848 0.7847 0.7845 0.7844 0.7842
3128.000000 0.7840 0.7838 0.7837 0.7835 0.7833
3133.000000 0.7831 0.7830 0.7828 0.7827 0.7825
3138.000000 0.7823 0.7821 0.7820 0.7818 0.7816
3143.000000 0.7814 0.7813 0.7811 0.7809 0.7807
3148.000000 0.7806 0.7804 0.7802 0.7800 0.7799
3153.000000 0.7797 0.7795 0.7793 0.7792 0.7790
3158.000000 0.7789 0.7787 0.7785 0.7783 0.7782
3163.000000 0.7780 0.7778 0.7776 0.7774 0.7772
3168.000000 0.7770 0.7767 0.7765 0.7763 0.7761
3173.000000 0.7759 0.7757 0.7755 0.7753 0.7751
3178.000000 0.7749 0.7747 0.7745 0.7742 0.7740
3183.000000 0.7738 0.7736 0.7734 0.7732 0.7730
3188.000000 0.7728 0.7726 0.7724 0.7721 0.7719
3193.000000 0.7717 0.7715 0.7713 0.7711 0.7709
3198.000000 0.7707 0.7705 0.7703 0.7701 0.7699
3203.000000 0.7696 0.7694 0.7692 0.7690 0.7688
3208.000000 0.7686 0.7684 0.7683 0.7681 0.7679
3213.000000 0.7677 0.7676 0.7674 0.7673 0.7671
3218.000000 0.7669 0.7667 0.7666 0.7664 0.7663
3223.000000 0.7661 0.7659 0.7657 0.7656 0.7654
3228.000000 0.7653 0.7651 0.7649 0.7647 0.7646
3233.000000 0.7644 0.7643 0.7641 0.7639 0.7637
3238.000000 0.7636 0.7634 0.7633 0.7631 0.7629
3243.000000 0.7627 0.7626 0.7624 0.7623 0.7621
3248.000000 0.7620 0.7618 0.7616 0.7614 0.7613
3253.000000 0.7611 0.7610 0.7608 0.7606 0.7604
3258.000000 0.7603 0.7601 0.7600 0.7598 0.7596
3263.000000 0.7594 0.7593 0.7591 0.7590 0.7588
3268.000000 0.7586 0.7584 0.7583 0.7581 0.7580
3273.000000 0.7578 0.7576 0.7574 0.7573 0.7571
3278.000000 0.7570 0.7568 0.7567 0.7565 0.7564
3283.000000 0.7562 0.7560 0.7558 0.7557 0.7555
3288.000000 0.7554 0.7552 0.7551 0.7549 0.7547
3293.000000 0.7545 0.7544 0.7542 0.7541 0.7539
3298.000000 0.7538 0.7536 0.7535 0.7533 0.7531
3303.000000 0.7529 0.7528 0.7526 0.7525 0.7523
3308.000000 0.7522 0.7520 0.7519 0.7517 0.7515
3313.000000 0.7513 0.7512 0.7510 0.7509 0.7507
3318.000000 0.7506 0.7504 0.7502 0.7500 0.7499
3323.000000 0.7497 0.7496 0.7494 0.7493 0.7491
3328.000000 0.7490 0.7488 0.7486 0.7484 0.7483
3333.000000 0.7482 0.7481 0.7479 0.7478 0.7477
3338.000000 0.7476 0.7474 0.7473 0.7471 0.7470
3343.000000 0.7469 0.7468 0.7466 0.7465 0.7463
3348.000000 0.7462 0.7461 0.7460 0.7458 0.7457
3353.000000 0.7456 0.7455 0.7453 0.7452 0.7450
3358.000000 0.7449 0.7448 0.7447 0.7445 0.7444
3363.000000 0.7443 0.7442 0.7440 0.7439 0.7437
3368.000000 0.7436 0.7435 0.7434 0.7432 0.7431
3373.000000 0.7430 0.7429 0.7427 0.7426 0.7424
3378.000000 0.7423 0.7422 0.7421 0.7419 0.7418
3383.000000 0.7417 0.7416 0.7414 0.7413 0.7411
3388.000000 0.7410 0.7409 0.7408 0.7406 0.7405
3393.000000 0.7404 0.7403 0.7401 0.7400 0.7399
3398.000000 0.7398 0.7396 0.7395 0.7394 0.7393
3403.000000 0.7391 0.7390 0.7389 0.7388 0.7387
3408.000000 0.7386 0.7384 0.7383 0.7382 0.7381
3413.000000 0.7380 0.7379 0.7377 0.7376 0.7375
3418.000000 0.7374 0.7373 0.7372 0.7370 0.7369
3423.000000 0.7368 0.7367 0.7366 0.7365 0.7363
3428.000000 0.7362 0.7361 0.7360 0.7358 0.7357
3433.000000 0.7356 0.7355 0.7354 0.7353 0.7351
3438.000000 0.7350 0.7349 0.7348 0.7347 0.7346
3443.000000 0.7344 0.7343 0.7342 0.7342 0.7342
3448.000000 0.7316 0.7341 0.7341 0.7341 0.7341
3453.000000 0.7340 0.7340 0.7340 0.7340 0.7340
3458.000000 0.7340 0.7339 0.7339 0.7339 0.7339
3463.000000 0.7338 0.7338 0.7338 0.7338 0.7337
3468.000000 0.7337 0.7337 0.7337 0.7336 0.7336
3473.000000 0.7336 0.7336 0.7335 0.7335 0.7335
3478.000000 0.7335 0.7334 0.7334 0.7335 0.7337
3483.000000 0.7338 0.7340 0.7341 0.7343 0.7344
3488.000000 0.7346 0.7347 0.7349 0.7350 0.7352
3493.000000 0.7353 0.7355 0.7356 0.7358 0.7359
3498.000000 0.7361 0.7362 0.7364 0.7365 0.7367
3503.000000 0.7368 0.7370 0.7371 0.7373 0.7374
3508.000000 0.7376 0.7378 0.7380 0.7382 0.7384
3513.000000 0.7386 0.7388 0.7390 0.7392 0.7394
3518.000000 0.7396 0.7398 0.7400 0.7401 0.7403
3523.000000 0.7405 0.7407 0.7409 0.7411 0.7413
3528.000000 0.7415 0.7417 0.7419 0.7421 0.7423
3533.000000 0.7425 0.7427 0.7429 0.7431 0.7432
3538.000000 0.7433 0.7434 0.7435 0.7436 0.7437
3543.000000 0.7438 0.7439 0.7440 0.7441 0.7442
3548.000000 0.7443 0.7444 0.7445 0.7446 0.7447
3553.000000 0.7448 0.7449 0.7450 0.7451 0.7452
3558.000000 0.7453 0.7454 0.7455 0.7456 0.7457
3563.000000 0.7458 0.7459 0.7460 0.7461 0.7462
3568.000000 0.7463 0.7464 0.7465 0.7466 0.7467
3573.000000 0.7468 0.7469 0.7469 0.7470 0.7471
3578.000000 0.7472 0.7472 0.7473 0.7473 0.7474
3583.000000 0.7475 0.7476 0.7476 0.7477 0.7478
3588.000000 0.7479 0.7479 0.7480 0.7481 0.7482
3593.000000 0.7482 0.7483 0.7483 0.7484 0.7485
3598.000000 0.7486 0.7486 0.7487 0.7488 0.7489
3603.000000 0.7492 0.7495 0.7498 0.7501 0.7504
3608.000000 0.7508 0.7511 0.7514 0.7517 0.7521
3613.000000 0.7524 0.7527 0.7532 0.7537 0.7544
3618.000000 0.7551 0.7557 0.7564 0.7571 0.7578
3623.000000 0.7584 0.7591 0.7598 0.7605 0.7612
3628.000000 0.7619 0.7625 0.7632 0.7639 0.7646
3633.000000 0.7656 0.7667 0.7679 0.7691 0.7703
3638.000000 0.7715 0.7726 0.7738 0.7750 0.7762
3643.000000 0.7774 0.7786 0.7798 0.7810 0.7822
3648.000000 0.7835 0.7847 0.7859 0.7871 0.7883
3653.000000 0.7895 0.7908 0.7920 0.7932 0.7940
3658.000000 0.7949 0.7957 0.7966 0.7974 0.7983
3663.000000 0.7991 0.8000 0.8008 0.8017 0.8025
3668.000000 0.8034 0.8042 0.8051 0.8059 0.8068
3673.000000 0.8076 0.8085 0.8090 0.8095 0.8099
3678.000000 0.8104 0.8108 0.8113 0.8117 0.8122
3683.000000 0.8126 0.8131 0.8135 0.8140 0.8144
3688.000000 0.8149 0.8153 0.8158 0.8162 0.8167
3693.000000 0.8171 0.8176 0.8178 0.8181 0.8182
3698.000000 0.8183 0.8184 0.8185 0.8185 0.8186
3703.000000 0.8187 0.8188 0.8189 0.8190 0.8191
3708.000000 0.8192 0.8193 0.8194 0.8195 0.8196
3713.000000 0.8197 0.8198 0.8199 0.8200 0.8201
3718.000000 0.8202 0.8203 0.8204 0.8203 0.8203
3723.000000 0.8202 0.8202 0.8201 0.8201 0.8201
3728.000000 0.8201 0.8200 0.8200 0.8199 0.8199
3733.000000 0.8198 0.8198 0.8197 0.8197 0.8196
3738.000000 0.8196 0.8196 0.8196 0.8195 0.8195
3743.000000 0.8194 0.8194 0.8193 0.8193 0.8192
3748.000000 0.8192 0.8191 0.8191 0.8190 0.8199
3753.000000 0.8189 0.8189 0.8188 0.8187 0.8186
3758.000000 0.8186 0.8185 0.8185 0.8184 0.8183
3763.000000 0.8182 0.8182 0.8181 0.8181 0.8180
3768.000000 0.8179 0.8178 0.8178 0.8177 0.8177
3773.000000 0.8176 0.8175 0.8174 0.8174 0.8173
3778.000000 0.8173 0.8172 0.8172 0.8172 0.8172
3783.000000 0.8172 0.8172 0.8172 0.8172 0.8171
3788.000000 0.8171 0.8171 0.8171 0.8171 0.8171
3793.000000 0.8171 0.8171 0.8170 0.8170 0.8170
3798.000000 0.8170 0.8170 0.8170
##END=
