##TITLE=ETHANEDIOIC ACID, DISODIUM SALT
##JCAMP-DX=4.24
##DATA TYPE=INFRARED SPECTRUM
##CLASS=COBLENTZ III
##ORIGIN=DOW CHEMICAL COMPANY
##OWNER=COBLENTZ SOCIETY
Collection (C) 2018 copyright by the U.S. Secretary of Commerce
on behalf of the United States of America. All rights reserved.
##DATE=1965/10/20
##NAMES=SODIUM OXALATE
##CAS REGISTRY NO=62-76-0
##MOLFORM=C2 O4 Na2
##SOURCE REFERENCE=COBLENTZ NO. 10185
##$NIST SOURCE=COBLENTZ
##$NIST IMAGE=cob10185
##SPECTROMETER/DATA SYSTEM=DOW KBr FOREPRISM-GRATING
##INSTRUMENT PARAMETERS=BLAZED AT 3.5, 12.0, 20.0 MICRON, CHANGED AT 5.0, 7.5, 14.9 MICRON
##STATE=SOLID (SPLIT MULL, FLUOROLUBE FOR 3800-1350 AND NUJOL FOR 1350-400 CM ^-^1)
##SAMPLING PROCEDURE=TRANSMISSION
##RESOLUTION=4
##DATA PROCESSING=DIGITIZED BY NIST FROM HARD COPY (FROM TWO SEGMENTS)
##XUNITS=1/CM
##YUNITS=TRANSMITTANCE
##XFACTOR=1.000000
##YFACTOR=1
##DELTAX=0.853244
##FIRSTX=383.106
##LASTX=3791.81
##FIRSTY=0.802
##MAXX=3791.81
##MINX=383.106
##MAXY=0.985
##MINY=0.022
##NPOINTS=3996
##XYDATA=(X++(Y..Y))
383.106000 0.8020 0.8040 0.8040 0.8050 0.8060
387.372218 0.8080 0.8080 0.8080 0.8100 0.8120
391.638435 0.8130 0.8130 0.8140 0.8140 0.8140
395.904653 0.8160 0.8170 0.8170 0.8180 0.8200
400.170870 0.8220 0.8220 0.8240 0.8240 0.8250
404.437088 0.8250 0.8260 0.8280 0.8280 0.8290
408.703306 0.8290 0.8300 0.8320 0.8330 0.8330
412.969523 0.8340 0.8360 0.8370 0.8370 0.8380
417.235741 0.8380 0.8400 0.8400 0.8410 0.8420
421.501958 0.8440 0.8450 0.8460 0.8480 0.8480
425.768176 0.8490 0.8500 0.8500 0.8500 0.8500
430.034393 0.8520 0.8530 0.8530 0.8530 0.8530
434.300611 0.8540 0.8560 0.8570 0.8570 0.8570
438.566829 0.8570 0.8570 0.8580 0.8580 0.8580
442.833046 0.8580 0.8600 0.8600 0.8600 0.8600
447.099264 0.8610 0.8610 0.8610 0.8610 0.8620
451.365481 0.8640 0.8640 0.8640 0.8640 0.8650
455.631699 0.8650 0.8660 0.8660 0.8680 0.8680
459.897917 0.8660 0.8660 0.8660 0.8650 0.8650
464.164134 0.8650 0.8640 0.8640 0.8640 0.8640
468.430352 0.8640 0.8640 0.8620 0.8620 0.8620
472.696569 0.8620 0.8620 0.8620 0.8620 0.8620
476.962787 0.8610 0.8610 0.8610 0.8610 0.8610
481.229004 0.8600 0.8600 0.8600 0.8600 0.8570
485.495222 0.8560 0.8530 0.8530 0.8520 0.8500
489.761440 0.8500 0.8480 0.8440 0.8410 0.8380
494.027657 0.8330 0.8280 0.8200 0.8140 0.8120
498.293875 0.8060 0.7960 0.7850 0.7691 0.7531
502.560092 0.7340 0.7160 0.6940 0.6740 0.6441
506.826310 0.6161 0.5721 0.5580 0.5441 0.4853
511.092528 0.4130 0.3490 0.2940 0.2450 0.2041
515.358745 0.1661 0.1530 0.1520 0.1530 0.1600
519.624963 0.1680 0.1810 0.2010 0.2170 0.2250
523.891180 0.2489 0.2799 0.3169 0.3519 0.3809
528.157398 0.4280 0.4640 0.5539 0.5890 0.6209
532.423615 0.6529 0.6779 0.7059 0.7329 0.7639
536.689833 0.7780 0.7960 0.8250 0.8410 0.8440
540.956051 0.8580 0.8730 0.8760 0.8850 0.8920
545.222268 0.8930 0.8940 0.9000 0.9020 0.9050
549.488486 0.9080 0.9130 0.9140 0.9160 0.9180
553.754703 0.9180 0.9200 0.9210 0.9220 0.9220
558.020921 0.9240 0.9260 0.9260 0.9280 0.9300
562.287139 0.9320 0.9330 0.9330 0.9330 0.9340
566.553356 0.9340 0.9360 0.9360 0.9380 0.9400
570.819574 0.9400 0.9410 0.9410 0.9420 0.9420
575.085791 0.9440 0.9440 0.9450 0.9460 0.9480
579.352009 0.9480 0.9480 0.9490 0.9490 0.9490
583.618226 0.9500 0.9520 0.9530 0.9530 0.9530
587.884444 0.9530 0.9540 0.9540 0.9540 0.9560
592.150662 0.9560 0.9570 0.9570 0.9570 0.9570
596.416879 0.9580 0.9580 0.9580 0.9580 0.9600
600.683097 0.9600 0.9600 0.9600 0.9600 0.9600
604.949314 0.9610 0.9610 0.9610 0.9610 0.9620
609.215532 0.9640 0.9650 0.9650 0.9660 0.9660
613.481750 0.9660 0.9680 0.9680 0.9680 0.9680
617.747967 0.9690 0.9690 0.9700 0.9700 0.9720
622.014185 0.9720 0.9720 0.9720 0.9720 0.9720
626.280402 0.9720 0.9730 0.9730 0.9740 0.9740
630.546620 0.9740 0.9740 0.9740 0.9760 0.9760
634.812837 0.9770 0.9770 0.9780 0.9780 0.9800
639.079055 0.9800 0.9810 0.9810 0.9840 0.9840
643.345273 0.9840 0.9840 0.9850 0.9850 0.9850
647.611490 0.9850 0.9850 0.9850 0.9850 0.9850
651.877708 0.9850 0.9850 0.9850 0.9850 0.9850
656.143925 0.9850 0.9850 0.9850 0.9850 0.9850
660.410143 0.9850 0.9850 0.9840 0.9840 0.9820
664.676361 0.9810 0.9780 0.9760 0.9730 0.9720
668.942578 0.9690 0.9680 0.9650 0.9620 0.9610
673.208796 0.9610 0.9610 0.9620 0.9620 0.9620
677.475013 0.9620 0.9620 0.9610 0.9610 0.9610
681.741231 0.9610 0.9610 0.9620 0.9620 0.9620
686.007448 0.9620 0.9640 0.9640 0.9640 0.9640
690.273666 0.9640 0.9620 0.9620 0.9620 0.9610
694.539884 0.9610 0.9610 0.9610 0.9600 0.9600
698.806101 0.9600 0.9580 0.9580 0.9570 0.9570
703.072319 0.9570 0.9560 0.9540 0.9530 0.9520
707.338536 0.9500 0.9490 0.9480 0.9460 0.9440
711.604754 0.9410 0.9370 0.9340 0.9330 0.9320
715.870972 0.9260 0.9210 0.9180 0.9140 0.9040
720.137189 0.8890 0.8860 0.8860 0.8880 0.8900
724.403407 0.8930 0.8960 0.8980 0.9010 0.9050
728.669624 0.9080 0.9120 0.9130 0.9160 0.9160
732.935842 0.9170 0.9170 0.9180 0.9180 0.9200
737.202059 0.9200 0.9210 0.9210 0.9210 0.9220
741.468277 0.9220 0.9220 0.9240 0.9240 0.9250
745.734495 0.9250 0.9250 0.9250 0.9250 0.9250
750.000712 0.9250 0.9240 0.9240 0.9220 0.9200
754.266930 0.9200 0.9180 0.9170 0.9160 0.9140
758.533147 0.9130 0.9090 0.9050 0.9000 0.8960
762.799365 0.8930 0.8890 0.8780 0.8720 0.8521
767.065583 0.8290 0.8220 0.8120 0.7650 0.7211
771.331800 0.6681 0.6181 0.5662 0.5142 0.3776
775.598018 0.2169 0.1380 0.1100 0.0810 0.1080
779.864235 0.1080 0.1060 0.1020 0.1000 0.0970
784.130453 0.0920 0.1160 0.1450 0.1959 0.2529
788.396670 0.3059 0.4317 0.6573 0.8015 0.8329
792.662888 0.8520 0.8680 0.8850 0.8970 0.9040
796.929106 0.9100 0.9130 0.9140 0.9170 0.9200
801.195323 0.9220 0.9250 0.9260 0.9280 0.9290
805.461541 0.9300 0.9320 0.9330 0.9330 0.9340
809.727758 0.9340 0.9360 0.9360 0.9370 0.9380
813.993976 0.9380 0.9380 0.9380 0.9400 0.9400
818.260194 0.9400 0.9410 0.9410 0.9400 0.9400
822.526411 0.9400 0.9400 0.9400 0.9400 0.9400
826.792629 0.9400 0.9400 0.9400 0.9400 0.9410
831.058846 0.9410 0.9400 0.9400 0.9400 0.9400
835.325064 0.9400 0.9380 0.9380 0.9380 0.9380
839.591281 0.9380 0.9370 0.9370 0.9370 0.9380
843.857499 0.9380 0.9380 0.9380 0.9380 0.9380
848.123717 0.9400 0.9400 0.9410 0.9410 0.9410
852.389934 0.9410 0.9410 0.9410 0.9410 0.9410
856.656152 0.9410 0.9410 0.9410 0.9400 0.9400
860.922369 0.9380 0.9380 0.9380 0.9380 0.9370
865.188587 0.9370 0.9360 0.9360 0.9340 0.9360
869.454805 0.9360 0.9370 0.9370 0.9360 0.9360
873.721022 0.9340 0.9340 0.9340 0.9330 0.9280
877.987240 0.9280 0.9260 0.9280 0.9280 0.9300
882.253457 0.9320 0.9320 0.9320 0.9290 0.9290
886.519675 0.9290 0.9280 0.9280 0.9280 0.9280
890.785892 0.9280 0.9280 0.9280 0.9280 0.9280
895.052110 0.9280 0.9280 0.9280 0.9280 0.9280
899.318328 0.9280 0.9290 0.9290 0.9280 0.9280
903.584545 0.9280 0.9280 0.9280 0.9280 0.9280
907.850763 0.9280 0.9260 0.9260 0.9260 0.9240
912.116980 0.9240 0.9240 0.9240 0.9220 0.9220
916.383198 0.9210 0.9210 0.9210 0.9210 0.9210
920.649416 0.9220 0.9220 0.9210 0.9210 0.9210
924.915633 0.9210 0.9210 0.9200 0.9180 0.9180
929.181851 0.9180 0.9180 0.9170 0.9160 0.9160
933.448068 0.9140 0.9140 0.9140 0.9140 0.9140
937.714286 0.9140 0.9140 0.9140 0.9140 0.9140
941.980503 0.9140 0.9140 0.9140 0.9140 0.9140
946.246721 0.9140 0.9140 0.9130 0.9130 0.9130
950.512939 0.9120 0.9100 0.9090 0.9090 0.9080
954.779156 0.9080 0.9060 0.9050 0.9040 0.9040
959.045374 0.9040 0.9020 0.9020 0.9010 0.9010
963.311591 0.9010 0.9000 0.9000 0.9000 0.9000
967.577809 0.9000 0.8980 0.8980 0.8980 0.8980
971.844027 0.8980 0.8980 0.9000 0.9000 0.9010
976.110244 0.9000 0.9000 0.9000 0.9000 0.9000
980.376462 0.9000 0.9000 0.9000 0.9010 0.9010
984.642679 0.9010 0.9010 0.9010 0.9000 0.9000
988.908897 0.8970 0.8960 0.8960 0.8930 0.8930
993.175114 0.8930 0.8930 0.8920 0.8920 0.8900
997.441332 0.8900 0.8890 0.8890 0.8880 0.8880
1001.707550 0.8860 0.8860 0.8860 0.8850 0.8850
1005.973767 0.8850 0.8850 0.8850 0.8850 0.8840
1010.239985 0.8840 0.8810 0.8810 0.8810 0.8810
1014.506202 0.8800 0.8800 0.8800 0.8800 0.8780
1018.772420 0.8780 0.8770 0.8740 0.8740 0.8730
1023.038638 0.8730 0.8730 0.8720 0.8720 0.8720
1027.304855 0.8720 0.8700 0.8700 0.8700 0.8700
1031.571073 0.8680 0.8680 0.8680 0.8680 0.8660
1035.837290 0.8660 0.8650 0.8640 0.8620 0.8620
1040.103508 0.8620 0.8620 0.8620 0.8620 0.8610
1044.369725 0.8600 0.8600 0.8580 0.8580 0.8580
1048.635943 0.8580 0.8570 0.8570 0.8570 0.8560
1052.902161 0.8540 0.8530 0.8520 0.8520 0.8520
1057.168378 0.8500 0.8500 0.8500 0.8500 0.8460
1061.434596 0.8460 0.8440 0.8440 0.8420 0.8410
1065.700813 0.8400 0.8380 0.8370 0.8360 0.8340
1069.967031 0.8330 0.8300 0.8260 0.8250 0.8250
1074.233249 0.8250 0.8250 0.8260 0.8260 0.8280
1078.499466 0.8280 0.8280 0.8280 0.8280 0.8280
1082.765684 0.8280 0.8280 0.8280 0.8280 0.8280
1087.031901 0.8280 0.8280 0.8280 0.8280 0.8280
1091.298119 0.8280 0.8280 0.8290 0.8290 0.8290
1095.564336 0.8290 0.8300 0.8300 0.8300 0.8320
1099.830554 0.8320 0.8330 0.8330 0.8330 0.8330
1104.096772 0.8330 0.8330 0.8330 0.8330 0.8340
1108.362989 0.8340 0.8340 0.8340 0.8340 0.8360
1112.629207 0.8360 0.8360 0.8360 0.8360 0.8360
1116.895424 0.8360 0.8360 0.8360 0.8360 0.8360
1121.161642 0.8340 0.8340 0.8340 0.8330 0.8330
1125.427860 0.8330 0.8330 0.8340 0.8340 0.8360
1129.694077 0.8360 0.8380 0.8380 0.8360 0.8360
1133.960295 0.8330 0.8330 0.8320 0.8300 0.8300
1138.226512 0.8290 0.8280 0.8280 0.8290 0.8300
1142.492730 0.8330 0.8330 0.8340 0.8360 0.8360
1146.758947 0.8370 0.8370 0.8370 0.8370 0.8380
1151.025165 0.8380 0.8380 0.8400 0.8400 0.8400
1155.291383 0.8400 0.8410 0.8410 0.8410 0.8420
1159.557600 0.8420 0.8440 0.8480 0.8520 0.8520
1163.823818 0.8490 0.8460 0.8420 0.8380 0.8340
1168.090035 0.8330 0.8330 0.8340 0.8360 0.8360
1172.356253 0.8360 0.8360 0.8370 0.8370 0.8340
1176.622471 0.8320 0.8290 0.8280 0.8280 0.8300
1180.888688 0.8340 0.8370 0.8400 0.8400 0.8400
1185.154906 0.8400 0.8400 0.8400 0.8400 0.8400
1189.421123 0.8400 0.8400 0.8400 0.8400 0.8400
1193.687341 0.8400 0.8400 0.8380 0.8380 0.8380
1197.953558 0.8380 0.8380 0.8380 0.8370 0.8370
1202.219776 0.8370 0.8370 0.8370 0.8370 0.8380
1206.485994 0.8380 0.8400 0.8400 0.8400 0.8400
1210.752211 0.8400 0.8400 0.8400 0.8380 0.8380
1215.018429 0.8380 0.8380 0.8400 0.8380 0.8380
1219.284646 0.8380 0.8380 0.8380 0.8370 0.8370
1223.550864 0.8370 0.8370 0.8360 0.8340 0.8330
1227.817082 0.8330 0.8330 0.8330 0.8330 0.8320
1232.083299 0.8300 0.8300 0.8300 0.8300 0.8290
1236.349517 0.8280 0.8250 0.8250 0.8240 0.8240
1240.615734 0.8220 0.8220 0.8210 0.8210 0.8200
1244.881952 0.8180 0.8170 0.8170 0.8170 0.8160
1249.148169 0.8160 0.8160 0.8160 0.8160 0.8160
1253.414387 0.8160 0.8160 0.8160 0.8140 0.8140
1257.680605 0.8140 0.8130 0.8130 0.8130 0.8130
1261.946822 0.8120 0.8120 0.8120 0.8100 0.8100
1266.213040 0.8080 0.8050 0.8040 0.8040 0.8040
1270.479257 0.8010 0.8010 0.8000 0.8000 0.8000
1274.745475 0.7980 0.7970 0.7940 0.7930 0.7920
1279.011693 0.7900 0.7890 0.7840 0.7780 0.7730
1283.277910 0.7680 0.7650 0.7600 0.7530 0.7500
1287.544128 0.7420 0.7380 0.7360 0.7290 0.7210
1291.810345 0.7060 0.7000 0.6900 0.6820 0.6661
1296.076563 0.6580 0.6460 0.6370 0.6220 0.6060
1300.342780 0.5820 0.5580 0.5480 0.5360 0.5121
1304.608998 0.4860 0.4560 0.4200 0.3890 0.3660
1308.875216 0.3570 0.3450 0.3221 0.2682 0.2162
1313.141433 0.1919 0.1520 0.1160 0.1010 0.0850
1317.407651 0.0650 0.0370 0.0300 0.0250 0.0220
1321.673868 0.0220 0.0220 0.0240 0.0240 0.0250
1325.940086 0.0250 0.0290 0.0320 0.0360 0.0410
1330.206304 0.0480 0.0620 0.0650 0.0650 0.0620
1334.472521 0.0560 0.0530 0.0490 0.0410 0.0300
1338.738739 0.0280 0.0260 0.0290 0.0371 0.1640
1343.004956 0.1890 0.2399 0.2979 0.3609 0.4208
1347.271174 0.4771 0.5520 0.6050 0.6300 0.6460
1351.537391 0.6480 0.6650 0.6820 0.6970 0.7129
1355.803609 0.7240 0.7280 0.7340 0.7400 0.7420
1360.069827 0.7450 0.7490 0.7530 0.7570 0.7580
1364.336044 0.7600 0.7610 0.7620 0.7640 0.7650
1368.602262 0.7660 0.7680 0.7690 0.7690 0.7700
1372.868479 0.7700 0.7700 0.7690 0.7690 0.7680
1377.134697 0.7680 0.7660 0.7650 0.7650 0.7640
1381.400915 0.7610 0.7580 0.7570 0.7520 0.7440
1385.667132 0.7410 0.7400 0.7380 0.7340 0.7290
1389.933350 0.7280 0.7180 0.7140 0.7080 0.7060
1394.199567 0.7050 0.7010 0.7010 0.7000 0.6980
1398.465785 0.6970 0.6970 0.6960 0.6960 0.6940
1402.732002 0.6940 0.6930 0.6920 0.6920 0.6900
1406.998220 0.6880 0.6880 0.6860 0.6850 0.6780
1411.264438 0.6720 0.6640 0.6610 0.6490 0.6420
1415.530655 0.6320 0.6160 0.6010 0.6000 0.6010
1419.796873 0.6200 0.6380 0.6560 0.6740 0.6929
1424.063090 0.7440 0.7520 0.7540 0.7570 0.7650
1428.329308 0.7680 0.7720 0.7730 0.7730 0.7740
1432.595526 0.7760 0.7760 0.7760 0.7760 0.7760
1436.861743 0.7760 0.7760 0.7760 0.7740 0.7740
1441.127961 0.7740 0.7740 0.7760 0.7760 0.7760
1445.394178 0.7760 0.7760 0.7760 0.7760 0.7760
1449.660396 0.7760 0.7760 0.7740 0.7740 0.7740
1453.926613 0.7740 0.7740 0.7760 0.7760 0.7760
1458.192831 0.7760 0.7760 0.7760 0.7760 0.7760
1462.459049 0.7760 0.7760 0.7740 0.7740 0.7740
1466.725266 0.7740 0.7740 0.7740 0.7740 0.7730
1470.991484 0.7720 0.7720 0.7720 0.7720 0.7700
1475.257701 0.7690 0.7680 0.7680 0.7660 0.7650
1479.523919 0.7650 0.7640 0.7620 0.7620 0.7620
1483.790137 0.7610 0.7610 0.7580 0.7570 0.7570
1488.056354 0.7560 0.7560 0.7540 0.7540 0.7530
1492.322572 0.7520 0.7520 0.7500 0.7500 0.7490
1496.588789 0.7490 0.7480 0.7460 0.7460 0.7460
1500.855007 0.7450 0.7440 0.7420 0.7410 0.7410
1505.121224 0.7400 0.7400 0.7400 0.7380 0.7380
1509.387442 0.7370 0.7370 0.7360 0.7330 0.7330
1513.653660 0.7320 0.7300 0.7290 0.7260 0.7240
1517.919877 0.7220 0.7220 0.7200 0.7170 0.7160
1522.186095 0.7130 0.7120 0.7100 0.7090 0.7080
1526.452312 0.7060 0.7050 0.7000 0.6970 0.6960
1530.718530 0.6940 0.6930 0.6900 0.6900 0.6890
1534.984748 0.6840 0.6820 0.6810 0.6780 0.6770
1539.250965 0.6760 0.6740 0.6730 0.6680 0.6650
1543.517183 0.6640 0.6610 0.6580 0.6580 0.6530
1547.783400 0.6500 0.6490 0.6480 0.6480 0.6450
1552.049618 0.6440 0.6400 0.6340 0.6320 0.6300
1556.315835 0.6300 0.6290 0.6220 0.6200 0.6170
1560.582053 0.6140 0.6080 0.6040 0.6020 0.6010
1564.848271 0.5920 0.5890 0.5840 0.5800 0.5720
1569.114488 0.5620 0.5560 0.5540 0.5540 0.5540
1573.380706 0.5540 0.5530 0.5520 0.5500 0.5500
1577.646923 0.5490 0.5480 0.5460 0.5360 0.5260
1581.913141 0.5210 0.5160 0.5120 0.5060 0.5020
1586.179359 0.5010 0.4920 0.4890 0.4820 0.4800
1590.445576 0.4740 0.4660 0.4580 0.4520 0.4480
1594.711794 0.4450 0.4360 0.4260 0.4250 0.4170
1598.978011 0.4120 0.4060 0.3970 0.3840 0.3770
1603.244229 0.3680 0.3620 0.3560 0.3480 0.3400
1607.510446 0.3320 0.3280 0.3240 0.3100 0.2960
1611.776664 0.2840 0.2680 0.2660 0.2560 0.2460
1616.042882 0.2380 0.2320 0.2260 0.2200 0.2120
1620.309099 0.2010 0.1890 0.1780 0.1730 0.1700
1624.575317 0.1560 0.1500 0.1440 0.1420 0.1360
1628.841534 0.1260 0.1200 0.1130 0.1090 0.1050
1633.107752 0.1020 0.1010 0.1000 0.0980 0.0920
1637.373970 0.0900 0.0900 0.0900 0.0920 0.0930
1641.640187 0.0940 0.0960 0.1000 0.1010 0.1040
1645.906405 0.1050 0.1080 0.1100 0.1130 0.1140
1650.172622 0.1170 0.1180 0.1210 0.1240 0.1250
1654.438840 0.1280 0.1300 0.1320 0.1340 0.1380
1658.705057 0.1440 0.1460 0.1500 0.1530 0.1560
1662.971275 0.1580 0.1580 0.1610 0.1650 0.1660
1667.237493 0.1730 0.1740 0.1760 0.1800 0.1840
1671.503710 0.1880 0.1920 0.1940 0.2020 0.2090
1675.769928 0.2130 0.2140 0.2200 0.2250 0.2300
1680.036145 0.2340 0.2460 0.2560 0.2640 0.2660
1684.302363 0.2730 0.2850 0.3010 0.3090 0.3160
1688.568581 0.3220 0.3260 0.3370 0.3460 0.3540
1692.834798 0.3620 0.3700 0.3800 0.3890 0.3980
1697.101016 0.4060 0.4170 0.4300 0.4380 0.4490
1701.367233 0.4600 0.4720 0.4820 0.4890 0.4930
1705.633451 0.5010 0.5120 0.5170 0.5260 0.5380
1709.899668 0.5610 0.5730 0.5780 0.5890 0.5930
1714.165886 0.6020 0.6090 0.6170 0.6240 0.6320
1718.432104 0.6440 0.6450 0.6530 0.6610 0.6680
1722.698321 0.6740 0.6760 0.6800 0.6850 0.6920
1726.964539 0.6940 0.6980 0.7060 0.7080 0.7140
1731.230756 0.7240 0.7250 0.7290 0.7320 0.7360
1735.496974 0.7400 0.7410 0.7450 0.7500 0.7570
1739.763192 0.7580 0.7620 0.7680 0.7720 0.7740
1744.029409 0.7760 0.7760 0.7780 0.7800 0.7840
1748.295627 0.7860 0.7920 0.7930 0.7940 0.7960
1752.561844 0.7970 0.8000 0.8010 0.8040 0.8050
1756.828062 0.8080 0.8100 0.8120 0.8130 0.8140
1761.094279 0.8180 0.8240 0.8280 0.8300 0.8320
1765.360497 0.8320 0.8330 0.8360 0.8370 0.8400
1769.626715 0.8410 0.8410 0.8440 0.8480 0.8490
1773.892932 0.8500 0.8500 0.8520 0.8520 0.8530
1778.159150 0.8540 0.8570 0.8580 0.8600 0.8610
1782.425367 0.8640 0.8640 0.8660 0.8700 0.8700
1786.691585 0.8720 0.8730 0.8740 0.8770 0.8770
1790.957803 0.8800 0.8810 0.8840 0.8850 0.8880
1795.224020 0.8890 0.8900 0.8900 0.8900 0.8920
1799.490238 0.8920 0.8940 0.8970 0.8980 0.9000
1803.756455 0.9010 0.9010 0.9020 0.9020 0.9040
1808.022673 0.9050 0.9060 0.9060 0.9090 0.9090
1812.288890 0.9100 0.9100 0.9120 0.9130 0.9130
1816.555108 0.9140 0.9160 0.9180 0.9200 0.9200
1820.821326 0.9210 0.9220 0.9250 0.9250 0.9260
1825.087543 0.9280 0.9290 0.9300 0.9300 0.9320
1829.353761 0.9320 0.9320 0.9330 0.9340 0.9360
1833.619978 0.9360 0.9370 0.9370 0.9370 0.9380
1837.886196 0.9380 0.9380 0.9380 0.9380 0.9400
1842.152414 0.9400 0.9400 0.9400 0.9400 0.9400
1846.418631 0.9400 0.9410 0.9420 0.9440 0.9440
1850.684849 0.9450 0.9450 0.9450 0.9450 0.9450
1854.951066 0.9450 0.9450 0.9450 0.9450 0.9450
1859.217284 0.9450 0.9450 0.9450 0.9450 0.9450
1863.483501 0.9450 0.9450 0.9450 0.9450 0.9440
1867.749719 0.9440 0.9420 0.9420 0.9420 0.9410
1872.015937 0.9400 0.9400 0.9380 0.9370 0.9340
1876.282154 0.9360 0.9340 0.9330 0.9300 0.9250
1880.548372 0.9200 0.9140 0.9130 0.9130 0.9130
1884.814589 0.9140 0.9140 0.9160 0.9170 0.9200
1889.080807 0.9210 0.9220 0.9250 0.9260 0.9320
1893.347025 0.9330 0.9340 0.9340 0.9370 0.9370
1897.613242 0.9400 0.9410 0.9420 0.9440 0.9450
1901.879460 0.9490 0.9500 0.9520 0.9530 0.9540
1906.145677 0.9560 0.9560 0.9570 0.9570 0.9580
1910.411895 0.9600 0.9610 0.9610 0.9610 0.9620
1914.678112 0.9620 0.9620 0.9620 0.9620 0.9640
1918.944330 0.9640 0.9640 0.9640 0.9650 0.9650
1923.210548 0.9650 0.9650 0.9650 0.9650 0.9650
1927.476765 0.9650 0.9650 0.9650 0.9660 0.9660
1931.742983 0.9660 0.9680 0.9680 0.9680 0.9680
1936.009200 0.9680 0.9680 0.9680 0.9680 0.9680
1940.275418 0.9680 0.9680 0.9690 0.9690 0.9690
1944.541636 0.9690 0.9690 0.9690 0.9690 0.9690
1948.807853 0.9690 0.9700 0.9720 0.9700 0.9700
1953.074071 0.9700 0.9700 0.9700 0.9720 0.9720
1957.340288 0.9720 0.9720 0.9720 0.9720 0.9720
1961.606506 0.9720 0.9700 0.9690 0.9690 0.9690
1965.872723 0.9690 0.9700 0.9700 0.9700 0.9690
1970.138941 0.9690 0.9690 0.9690 0.9690 0.9700
1974.405159 0.9700 0.9700 0.9700 0.9700 0.9700
1978.671376 0.9700 0.9700 0.9700 0.9700 0.9690
1982.937594 0.9690 0.9700 0.9700 0.9700 0.9700
1987.203811 0.9700 0.9700 0.9700 0.9700 0.9700
1991.470029 0.9700 0.9700 0.9700 0.9700 0.9700
1995.736247 0.9690 0.9680 0.9650 0.9600 0.9530
2000.002464 0.9480 0.9450 0.9420 0.9390 0.9360
2004.268682 0.9345 0.9330 0.9330 0.9330 0.9330
2008.534899 0.9330 0.9330 0.9330 0.9330 0.9330
2012.801117 0.9330 0.9330 0.9335 0.9340 0.9340
2017.067334 0.9340 0.9340 0.9340 0.9340 0.9340
2021.333552 0.9340 0.9340 0.9350 0.9360 0.9360
2025.599770 0.9360 0.9350 0.9340 0.9335 0.9330
2029.865987 0.9330 0.9330 0.9325 0.9320 0.9320
2034.132205 0.9320 0.9320 0.9320 0.9320 0.9320
2038.398422 0.9320 0.9320 0.9320 0.9320 0.9310
2042.664640 0.9300 0.9300 0.9300 0.9310 0.9320
2046.930858 0.9320 0.9320 0.9320 0.9320 0.9310
2051.197075 0.9300 0.9300 0.9300 0.9300 0.9300
2055.463293 0.9300 0.9300 0.9300 0.9300 0.9300
2059.729510 0.9300 0.9300 0.9300 0.9300 0.9300
2063.995728 0.9300 0.9300 0.9300 0.9300 0.9295
2068.261945 0.9290 0.9290 0.9290 0.9290 0.9290
2072.528163 0.9290 0.9290 0.9290 0.9290 0.9290
2076.794381 0.9290 0.9290 0.9290 0.9290 0.9290
2081.060598 0.9290 0.9290 0.9290 0.9290 0.9276
2085.326816 0.9260 0.9260 0.9260 0.9260 0.9260
2089.593033 0.9260 0.9260 0.9260 0.9260 0.9260
2093.859251 0.9260 0.9260 0.9260 0.9270 0.9280
2098.125469 0.9280 0.9280 0.9280 0.9280 0.9280
2102.391686 0.9280 0.9280 0.9280 0.9266 0.9251
2106.657904 0.9255 0.9260 0.9260 0.9260 0.9260
2110.924121 0.9260 0.9255 0.9250 0.9250 0.9250
2115.190339 0.9250 0.9250 0.9250 0.9250 0.9250
2119.456556 0.9250 0.9250 0.9250 0.9250 0.9250
2123.722774 0.9250 0.9250 0.9250 0.9250 0.9250
2127.988992 0.9250 0.9250 0.9250 0.9250 0.9250
2132.255209 0.9250 0.9250 0.9250 0.9250 0.9250
2136.521427 0.9250 0.9250 0.9250 0.9250 0.9250
2140.787644 0.9250 0.9250 0.9250 0.9250 0.9250
2145.053862 0.9250 0.9250 0.9250 0.9245 0.9240
2149.320080 0.9240 0.9240 0.9240 0.9240 0.9231
2153.586297 0.9220 0.9220 0.9220 0.9220 0.9220
2157.852515 0.9220 0.9220 0.9215 0.9210 0.9205
2162.118732 0.9200 0.9200 0.9200 0.9200 0.9200
2166.384950 0.9191 0.9181 0.9180 0.9180 0.9180
2170.651167 0.9180 0.9180 0.9180 0.9175 0.9170
2174.917385 0.9170 0.9170 0.9170 0.9170 0.9170
2179.183603 0.9170 0.9165 0.9160 0.9160 0.9160
2183.449820 0.9160 0.9160 0.9160 0.9160 0.9160
2187.716038 0.9160 0.9160 0.9160 0.9160 0.9160
2191.982255 0.9165 0.9170 0.9170 0.9170 0.9170
2196.248473 0.9170 0.9170 0.9170 0.9170 0.9170
2200.514691 0.9170 0.9170 0.9170 0.9170 0.9170
2204.780908 0.9170 0.9165 0.9160 0.9160 0.9160
2209.047126 0.9160 0.9160 0.9151 0.9141 0.9140
2213.313343 0.9140 0.9135 0.9130 0.9130 0.9130
2217.579561 0.9130 0.9130 0.9125 0.9120 0.9120
2221.845778 0.9120 0.9111 0.9101 0.9100 0.9100
2226.111996 0.9095 0.9090 0.9085 0.9080 0.9080
2230.378214 0.9080 0.9080 0.9080 0.9080 0.9080
2234.644431 0.9071 0.9061 0.9055 0.9050 0.9050
2238.910649 0.9050 0.9050 0.9050 0.9045 0.9040
2243.176866 0.9031 0.9021 0.9020 0.9020 0.9015
2247.443084 0.9010 0.9010 0.9010 0.9010 0.9010
2251.709302 0.9010 0.9010 0.9010 0.9010 0.9015
2255.975519 0.9020 0.9020 0.9020 0.9020 0.9020
2260.241737 0.9015 0.9010 0.9010 0.9010 0.9005
2264.507954 0.9000 0.9000 0.9000 0.9000 0.9000
2268.774172 0.8991 0.8981 0.8980 0.8980 0.8975
2273.040389 0.8970 0.8970 0.8970 0.8965 0.8960
2277.306607 0.8960 0.8960 0.8960 0.8960 0.8960
2281.572825 0.8960 0.8960 0.8960 0.8960 0.8960
2285.839042 0.8960 0.8960 0.8960 0.8960 0.8960
2290.105260 0.8960 0.8960 0.8960 0.8960 0.8960
2294.371477 0.8960 0.8960 0.8960 0.8960 0.8951
2298.637695 0.8941 0.8940 0.8940 0.8940 0.8940
2302.903913 0.8940 0.8940 0.8940 0.8940 0.8940
2307.170130 0.8940 0.8935 0.8931 0.8930 0.8930
2311.436348 0.8926 0.8921 0.8911 0.8901 0.8900
2315.702565 0.8900 0.8909 0.8919 0.8924 0.8929
2319.968783 0.8934 0.8939 0.8936 0.8931 0.8930
2324.235000 0.8930 0.8930 0.8930 0.8930 0.8930
2328.501218 0.8930 0.8930 0.8934 0.8939 0.8940
2332.767436 0.8940 0.8936 0.8931 0.8930 0.8930
2337.033653 0.8930 0.8930 0.8930 0.8930 0.8934
2341.299871 0.8939 0.8940 0.8940 0.8940 0.8940
2345.566088 0.8940 0.8940 0.8940 0.8940 0.8936
2349.832306 0.8931 0.8930 0.8930 0.8930 0.8930
2354.098524 0.8930 0.8930 0.8930 0.8930 0.8930
2358.364741 0.8930 0.8930 0.8930 0.8930 0.8930
2362.630959 0.8934 0.8939 0.8940 0.8940 0.8940
2366.897176 0.8940 0.8953 0.8968 0.8974 0.8979
2371.163394 0.8989 0.8999 0.9004 0.9009 0.9023
2375.429611 0.9038 0.9040 0.9040 0.9031 0.9021
2379.695829 0.9020 0.9020 0.9016 0.9011 0.9010
2383.962047 0.9010 0.9010 0.9010 0.9010 0.9010
2388.228264 0.9010 0.9010 0.9010 0.9010 0.9010
2392.494482 0.9010 0.9010 0.9010 0.9014 0.9019
2396.760699 0.9020 0.9020 0.9020 0.9020 0.9020
2401.026917 0.9020 0.9020 0.9020 0.9020 0.9020
2405.293135 0.9029 0.9039 0.9040 0.9040 0.9040
2409.559352 0.9040 0.9044 0.9049 0.9050 0.9050
2413.825570 0.9050 0.9050 0.9050 0.9050 0.9050
2418.091787 0.9050 0.9050 0.9050 0.9050 0.9050
2422.358005 0.9050 0.9050 0.9050 0.9050 0.9050
2426.624222 0.9050 0.9050 0.9050 0.9050 0.9050
2430.890440 0.9050 0.9050 0.9050 0.9050 0.9050
2435.156658 0.9050 0.9050 0.9050 0.9050 0.9050
2439.422875 0.9050 0.9050 0.9050 0.9050 0.9050
2443.689093 0.9050 0.9046 0.9041 0.9040 0.9040
2447.955310 0.9040 0.9040 0.9040 0.9040 0.9040
2452.221528 0.9040 0.9040 0.9040 0.9032 0.9022
2456.487746 0.9020 0.9020 0.9016 0.9011 0.9010
2460.753963 0.9010 0.9010 0.9010 0.9010 0.9010
2465.020181 0.9010 0.9010 0.9010 0.9010 0.9010
2469.286398 0.9010 0.9014 0.9019 0.9020 0.9020
2473.552616 0.9020 0.9020 0.9020 0.9020 0.9020
2477.818833 0.9020 0.9020 0.9020 0.9028 0.9038
2482.085051 0.9040 0.9040 0.9040 0.9040 0.9040
2486.351269 0.9040 0.9044 0.9049 0.9050 0.9050
2490.617486 0.9054 0.9059 0.9060 0.9060 0.9068
2494.883704 0.9078 0.9080 0.9080 0.9080 0.9080
2499.149921 0.9084 0.9089 0.9090 0.9090 0.9090
2503.416139 0.9090 0.9090 0.9090 0.9090 0.9090
2507.682357 0.9090 0.9090 0.9094 0.9099 0.9100
2511.948574 0.9100 0.9100 0.9100 0.9100 0.9100
2516.214792 0.9100 0.9100 0.9100 0.9100 0.9100
2520.481009 0.9100 0.9100 0.9100 0.9100 0.9100
2524.747227 0.9100 0.9100 0.9108 0.9118 0.9120
2529.013444 0.9120 0.9120 0.9120 0.9120 0.9120
2533.279662 0.9120 0.9120 0.9120 0.9120 0.9120
2537.545880 0.9120 0.9120 0.9120 0.9120 0.9120
2541.812097 0.9120 0.9120 0.9120 0.9120 0.9120
2546.078315 0.9120 0.9120 0.9120 0.9120 0.9120
2550.344532 0.9120 0.9120 0.9120 0.9120 0.9120
2554.610750 0.9120 0.9120 0.9120 0.9120 0.9120
2558.876968 0.9120 0.9120 0.9112 0.9102 0.9100
2563.143185 0.9100 0.9100 0.9100 0.9100 0.9100
2567.409403 0.9100 0.9100 0.9100 0.9100 0.9100
2571.675620 0.9100 0.9100 0.9100 0.9100 0.9100
2575.941838 0.9100 0.9100 0.9108 0.9118 0.9120
2580.208055 0.9120 0.9120 0.9120 0.9120 0.9120
2584.474273 0.9124 0.9129 0.9130 0.9130 0.9130
2588.740491 0.9130 0.9130 0.9130 0.9130 0.9130
2593.006708 0.9130 0.9130 0.9130 0.9130 0.9130
2597.272926 0.9130 0.9126 0.9121 0.9120 0.9120
2601.539143 0.9120 0.9120 0.9120 0.9120 0.9120
2605.805361 0.9120 0.9112 0.9102 0.9100 0.9100
2610.071579 0.9100 0.9100 0.9100 0.9100 0.9100
2614.337796 0.9100 0.9096 0.9091 0.9090 0.9090
2618.604014 0.9090 0.9090 0.9090 0.9090 0.9090
2622.870231 0.9090 0.9086 0.9081 0.9080 0.9080
2627.136449 0.9080 0.9080 0.9080 0.9080 0.9072
2631.402666 0.9062 0.9060 0.9060 0.9060 0.9060
2635.668884 0.9060 0.9060 0.9060 0.9060 0.9060
2639.935102 0.9060 0.9060 0.9060 0.9060 0.9060
2644.201319 0.9060 0.9060 0.9060 0.9060 0.9060
2648.467537 0.9060 0.9060 0.9060 0.9060 0.9060
2652.733754 0.9068 0.9078 0.9080 0.9080 0.9080
2656.999972 0.9080 0.9080 0.9080 0.9080 0.9080
2661.266190 0.9072 0.9062 0.9056 0.9051 0.9050
2665.532407 0.9050 0.9050 0.9050 0.9050 0.9050
2669.798625 0.9050 0.9050 0.9050 0.9050 0.9050
2674.064842 0.9050 0.9050 0.9050 0.9050 0.9050
2678.331060 0.9050 0.9050 0.9046 0.9041 0.9040
2682.597277 0.9040 0.9032 0.9022 0.9020 0.9020
2686.863495 0.9020 0.9020 0.9020 0.9020 0.9020
2691.129713 0.9020 0.9020 0.9020 0.9020 0.9020
2695.395930 0.9020 0.9020 0.9020 0.9020 0.9020
2699.662148 0.9020 0.9020 0.9020 0.9020 0.9020
2703.928365 0.9020 0.9020 0.9020 0.9020 0.9020
2708.194583 0.9020 0.9020 0.9020 0.9020 0.9020
2712.460801 0.9020 0.9020 0.9020 0.9020 0.9020
2716.727018 0.9020 0.9020 0.9020 0.9020 0.9020
2720.993236 0.9020 0.9020 0.9020 0.9020 0.9020
2725.259453 0.9020 0.9020 0.9020 0.9020 0.9020
2729.525671 0.9016 0.9011 0.9006 0.9001 0.8993
2733.791888 0.8982 0.8980 0.8980 0.8980 0.8980
2738.058106 0.8980 0.8980 0.8976 0.8971 0.8966
2742.324324 0.8961 0.8953 0.8943 0.8936 0.8931
2746.590541 0.8926 0.8921 0.8920 0.8920 0.8913
2750.856759 0.8902 0.8900 0.8900 0.8896 0.8891
2755.122976 0.8860 0.8820 0.8784 0.8749 0.8733
2759.389194 0.8723 0.8724 0.8729 0.8771 0.8826
2763.655412 0.8847 0.8857 0.8871 0.8886 0.8901
2767.921629 0.8916 0.8920 0.8920 0.8924 0.8929
2772.187847 0.8941 0.8956 0.8964 0.8969 0.8970
2776.454064 0.8970 0.8970 0.8970 0.8970 0.8970
2780.720282 0.8970 0.8970 0.8970 0.8970 0.8970
2784.986499 0.8970 0.8970 0.8970 0.8970 0.8970
2789.252717 0.8970 0.8970 0.8966 0.8961 0.8960
2793.518935 0.8960 0.8960 0.8960 0.8960 0.8960
2797.785152 0.8960 0.8960 0.8960 0.8960 0.8960
2802.051370 0.8960 0.8960 0.8960 0.8960 0.8960
2806.317587 0.8960 0.8960 0.8953 0.8943 0.8940
2810.583805 0.8940 0.8940 0.8940 0.8940 0.8940
2814.850023 0.8940 0.8940 0.8940 0.8940 0.8940
2819.116240 0.8940 0.8940 0.8940 0.8936 0.8931
2823.382458 0.8930 0.8930 0.8926 0.8921 0.8920
2827.648675 0.8920 0.8920 0.8920 0.8920 0.8920
2831.914893 0.8913 0.8903 0.8900 0.8900 0.8896
2836.181110 0.8891 0.8886 0.8881 0.8873 0.8863
2840.447328 0.8856 0.8851 0.8846 0.8841 0.8840
2844.713546 0.8840 0.8840 0.8840 0.8840 0.8840
2848.979763 0.8840 0.8840 0.8840 0.8840 0.8840
2853.245981 0.8840 0.8840 0.8840 0.8840 0.8840
2857.512198 0.8840 0.8840 0.8840 0.8840 0.8840
2861.778416 0.8840 0.8840 0.8840 0.8840 0.8840
2866.044634 0.8844 0.8849 0.8850 0.8850 0.8850
2870.310851 0.8850 0.8850 0.8850 0.8850 0.8850
2874.577069 0.8850 0.8850 0.8850 0.8850 0.8846
2878.843286 0.8841 0.8840 0.8840 0.8840 0.8840
2883.109504 0.8833 0.8823 0.8820 0.8820 0.8820
2887.375721 0.8820 0.8816 0.8811 0.8810 0.8810
2891.641939 0.8799 0.8784 0.8777 0.8772 0.8767
2895.908157 0.8762 0.8760 0.8760 0.8760 0.8760
2900.174374 0.8750 0.8735 0.8727 0.8722 0.8713
2904.440592 0.8703 0.8696 0.8691 0.8687 0.8682
2908.706809 0.8670 0.8655 0.8647 0.8642 0.8612
2912.973027 0.8572 0.8553 0.8543 0.8540 0.8540
2917.239245 0.8537 0.8532 0.8527 0.8522 0.8499
2921.505462 0.8469 0.8432 0.8392 0.8373 0.8363
2925.771680 0.8353 0.8343 0.8340 0.8340 0.8350
2930.037897 0.8365 0.8380 0.8395 0.8420 0.8450
2934.304115 0.8480 0.8510 0.8523 0.8528 0.8533
2938.570332 0.8538 0.8550 0.8565 0.8573 0.8578
2942.836550 0.8590 0.8605 0.8613 0.8618 0.8627
2947.102768 0.8637 0.8640 0.8640 0.8643 0.8648
2951.368985 0.8663 0.8683 0.8700 0.8715 0.8723
2955.635203 0.8728 0.8733 0.8738 0.8747 0.8757
2959.901420 0.8767 0.8777 0.8790 0.8805 0.8813
2964.167638 0.8818 0.8820 0.8820 0.8820 0.8820
2968.433856 0.8827 0.8837 0.8840 0.8840 0.8840
2972.700073 0.8840 0.8840 0.8840 0.8840 0.8840
2976.966291 0.8840 0.8840 0.8840 0.8840 0.8840
2981.232508 0.8840 0.8840 0.8840 0.8840 0.8840
2985.498726 0.8840 0.8840 0.8840 0.8840 0.8840
2989.764943 0.8840 0.8840 0.8840 0.8840 0.8840
2994.031161 0.8833 0.8823 0.8820 0.8820 0.8820
2998.297379 0.8820 0.8820 0.8820 0.8820 0.8820
3002.563596 0.8817 0.8812 0.8810 0.8810 0.8810
3006.829814 0.8810 0.8807 0.8802 0.8800 0.8800
3011.096031 0.8793 0.8783 0.8780 0.8780 0.8780
3015.362249 0.8780 0.8780 0.8780 0.8780 0.8780
3019.628467 0.8780 0.8780 0.8777 0.8772 0.8767
3023.894684 0.8762 0.8760 0.8760 0.8760 0.8760
3028.160902 0.8760 0.8760 0.8753 0.8743 0.8737
3032.427119 0.8732 0.8727 0.8722 0.8714 0.8704
3036.693337 0.8697 0.8692 0.8687 0.8682 0.8674
3040.959554 0.8663 0.8657 0.8652 0.8647 0.8642
3045.225772 0.8640 0.8640 0.8640 0.8640 0.8640
3049.491990 0.8640 0.8640 0.8640 0.8643 0.8648
3053.758207 0.8650 0.8650 0.8650 0.8650 0.8653
3058.024425 0.8658 0.8660 0.8660 0.8666 0.8676
3062.290642 0.8683 0.8688 0.8690 0.8690 0.8690
3066.556860 0.8690 0.8693 0.8698 0.8700 0.8700
3070.823078 0.8700 0.8700 0.8706 0.8716 0.8720
3075.089295 0.8720 0.8720 0.8720 0.8720 0.8720
3079.355513 0.8720 0.8720 0.8714 0.8704 0.8700
3083.621730 0.8700 0.8700 0.8700 0.8700 0.8700
3087.887948 0.8706 0.8716 0.8720 0.8720 0.8723
3092.154165 0.8728 0.8730 0.8730 0.8730 0.8730
3096.420383 0.8727 0.8722 0.8720 0.8720 0.8720
3100.686601 0.8720 0.8714 0.8704 0.8700 0.8700
3104.952818 0.8700 0.8700 0.8700 0.8700 0.8700
3109.219036 0.8700 0.8700 0.8700 0.8697 0.8692
3113.485253 0.8690 0.8690 0.8690 0.8690 0.8690
3117.751471 0.8690 0.8690 0.8690 0.8690 0.8690
3122.017689 0.8690 0.8690 0.8690 0.8690 0.8690
3126.283906 0.8690 0.8690 0.8690 0.8690 0.8690
3130.550124 0.8690 0.8690 0.8690 0.8690 0.8690
3134.816341 0.8690 0.8690 0.8690 0.8690 0.8690
3139.082559 0.8690 0.8690 0.8693 0.8698 0.8700
3143.348776 0.8700 0.8700 0.8700 0.8700 0.8700
3147.614994 0.8700 0.8700 0.8700 0.8700 0.8700
3151.881212 0.8700 0.8700 0.8700 0.8706 0.8716
3156.147429 0.8720 0.8720 0.8720 0.8720 0.8720
3160.413647 0.8720 0.8723 0.8728 0.8730 0.8730
3164.679864 0.8730 0.8730 0.8730 0.8730 0.8730
3168.946082 0.8730 0.8730 0.8730 0.8730 0.8730
3173.212300 0.8730 0.8730 0.8727 0.8722 0.8720
3177.478517 0.8720 0.8720 0.8720 0.8720 0.8720
3181.744735 0.8714 0.8704 0.8700 0.8700 0.8700
3186.010952 0.8700 0.8700 0.8700 0.8700 0.8700
3190.277170 0.8700 0.8700 0.8700 0.8700 0.8700
3194.543387 0.8700 0.8700 0.8700 0.8697 0.8692
3198.809605 0.8693 0.8698 0.8700 0.8700 0.8700
3203.075823 0.8700 0.8700 0.8700 0.8697 0.8692
3207.342040 0.8690 0.8690 0.8690 0.8690 0.8690
3211.608258 0.8690 0.8690 0.8690 0.8690 0.8690
3215.874475 0.8690 0.8690 0.8690 0.8690 0.8690
3220.140693 0.8690 0.8690 0.8690 0.8690 0.8690
3224.406911 0.8687 0.8682 0.8674 0.8664 0.8660
3228.673128 0.8660 0.8660 0.8660 0.8657 0.8652
3232.939346 0.8650 0.8650 0.8650 0.8650 0.8650
3237.205563 0.8650 0.8647 0.8642 0.8640 0.8640
3241.471781 0.8640 0.8640 0.8640 0.8640 0.8643
3245.737998 0.8648 0.8647 0.8642 0.8640 0.8640
3250.004216 0.8640 0.8640 0.8640 0.8640 0.8640
3254.270434 0.8640 0.8640 0.8640 0.8634 0.8624
3258.536651 0.8620 0.8620 0.8620 0.8620 0.8620
3262.802869 0.8620 0.8620 0.8620 0.8620 0.8620
3267.069086 0.8620 0.8620 0.8620 0.8620 0.8620
3271.335304 0.8620 0.8617 0.8612 0.8610 0.8610
3275.601522 0.8610 0.8610 0.8610 0.8610 0.8610
3279.867739 0.8610 0.8607 0.8602 0.8600 0.8600
3284.133957 0.8600 0.8600 0.8600 0.8600 0.8600
3288.400174 0.8600 0.8600 0.8600 0.8594 0.8584
3292.666392 0.8580 0.8580 0.8580 0.8580 0.8577
3296.932609 0.8572 0.8570 0.8570 0.8570 0.8570
3301.198827 0.8570 0.8570 0.8570 0.8570 0.8570
3305.465045 0.8570 0.8570 0.8570 0.8573 0.8578
3309.731262 0.8580 0.8580 0.8580 0.8580 0.8580
3313.997480 0.8580 0.8580 0.8580 0.8580 0.8580
3318.263697 0.8577 0.8572 0.8570 0.8570 0.8570
3322.529915 0.8570 0.8567 0.8562 0.8560 0.8560
3326.796133 0.8560 0.8560 0.8560 0.8560 0.8560
3331.062350 0.8560 0.8560 0.8560 0.8554 0.8544
3335.328568 0.8540 0.8540 0.8540 0.8540 0.8540
3339.594785 0.8540 0.8540 0.8540 0.8537 0.8532
3343.861003 0.8530 0.8530 0.8530 0.8530 0.8530
3348.127220 0.8530 0.8530 0.8530 0.8530 0.8530
3352.393438 0.8533 0.8538 0.8540 0.8540 0.8540
3356.659656 0.8540 0.8540 0.8540 0.8540 0.8540
3360.925873 0.8540 0.8540 0.8540 0.8540 0.8540
3365.192091 0.8540 0.8537 0.8532 0.8530 0.8530
3369.458308 0.8530 0.8530 0.8530 0.8530 0.8530
3373.724526 0.8530 0.8527 0.8522 0.8520 0.8520
3377.990744 0.8523 0.8528 0.8530 0.8530 0.8530
3382.256961 0.8530 0.8530 0.8530 0.8527 0.8522
3386.523179 0.8520 0.8520 0.8520 0.8520 0.8520
3390.789396 0.8520 0.8520 0.8520 0.8520 0.8520
3395.055614 0.8520 0.8520 0.8520 0.8520 0.8520
3399.321831 0.8520 0.8520 0.8520 0.8520 0.8520
3403.588049 0.8520 0.8520 0.8520 0.8520 0.8520
3407.854267 0.8520 0.8520 0.8520 0.8520 0.8520
3412.120484 0.8520 0.8520 0.8520 0.8520 0.8520
3416.386702 0.8520 0.8520 0.8520 0.8520 0.8520
3420.652919 0.8520 0.8520 0.8520 0.8520 0.8520
3424.919137 0.8520 0.8520 0.8520 0.8520 0.8520
3429.185355 0.8520 0.8520 0.8520 0.8520 0.8520
3433.451572 0.8520 0.8520 0.8520 0.8520 0.8520
3437.717790 0.8520 0.8520 0.8520 0.8520 0.8520
3441.984007 0.8520 0.8520 0.8520 0.8520 0.8520
3446.250225 0.8520 0.8520 0.8520 0.8520 0.8520
3450.516442 0.8520 0.8520 0.8520 0.8523 0.8528
3454.782660 0.8530 0.8530 0.8530 0.8530 0.8530
3459.048878 0.8530 0.8530 0.8530 0.8530 0.8530
3463.315095 0.8530 0.8530 0.8530 0.8530 0.8530
3467.581313 0.8530 0.8533 0.8538 0.8540 0.8540
3471.847530 0.8540 0.8540 0.8540 0.8540 0.8540
3476.113748 0.8540 0.8545 0.8555 0.8560 0.8560
3480.379966 0.8560 0.8560 0.8560 0.8560 0.8560
3484.646183 0.8560 0.8560 0.8560 0.8560 0.8560
3488.912401 0.8560 0.8560 0.8560 0.8560 0.8560
3493.178618 0.8560 0.8560 0.8560 0.8560 0.8560
3497.444836 0.8560 0.8560 0.8560 0.8560 0.8560
3501.711053 0.8560 0.8560 0.8560 0.8563 0.8568
3505.977271 0.8570 0.8570 0.8570 0.8570 0.8570
3510.243489 0.8570 0.8570 0.8570 0.8570 0.8570
3514.509706 0.8570 0.8570 0.8572 0.8577 0.8580
3518.775924 0.8580 0.8580 0.8580 0.8585 0.8595
3523.042141 0.8600 0.8600 0.8600 0.8600 0.8600
3527.308359 0.8600 0.8600 0.8600 0.8600 0.8600
3531.574577 0.8602 0.8607 0.8610 0.8610 0.8610
3535.840794 0.8610 0.8610 0.8610 0.8610 0.8610
3540.107012 0.8612 0.8617 0.8620 0.8620 0.8620
3544.373229 0.8620 0.8620 0.8620 0.8625 0.8635
3548.639447 0.8635 0.8625 0.8620 0.8620 0.8620
3552.905664 0.8620 0.8625 0.8635 0.8640 0.8640
3557.171882 0.8640 0.8640 0.8640 0.8640 0.8640
3561.438100 0.8640 0.8640 0.8640 0.8640 0.8640
3565.704317 0.8640 0.8640 0.8640 0.8640 0.8640
3569.970535 0.8640 0.8640 0.8640 0.8640 0.8640
3574.236752 0.8640 0.8640 0.8635 0.8625 0.8620
3578.502970 0.8620 0.8618 0.8613 0.8610 0.8610
3582.769188 0.8610 0.8610 0.8610 0.8610 0.8612
3587.035405 0.8617 0.8627 0.8642 0.8652 0.8657
3591.301623 0.8665 0.8675 0.8680 0.8680 0.8682
3595.567840 0.8687 0.8692 0.8697 0.8700 0.8700
3599.834058 0.8705 0.8715 0.8720 0.8720 0.8720
3604.100275 0.8720 0.8720 0.8720 0.8720 0.8720
3608.366493 0.8720 0.8720 0.8720 0.8720 0.8720
3612.632711 0.8720 0.8720 0.8720 0.8722 0.8727
3616.898928 0.8730 0.8730 0.8730 0.8730 0.8730
3621.165146 0.8730 0.8730 0.8730 0.8730 0.8730
3625.431363 0.8730 0.8730 0.8730 0.8730 0.8730
3629.697581 0.8730 0.8730 0.8730 0.8730 0.8730
3633.963799 0.8730 0.8730 0.8730 0.8730 0.8730
3638.230016 0.8730 0.8730 0.8730 0.8730 0.8730
3642.496234 0.8730 0.8730 0.8730 0.8730 0.8730
3646.762451 0.8730 0.8732 0.8737 0.8740 0.8740
3651.028669 0.8740 0.8740 0.8740 0.8740 0.8740
3655.294886 0.8740 0.8740 0.8740 0.8740 0.8740
3659.561104 0.8740 0.8740 0.8740 0.8740 0.8740
3663.827322 0.8740 0.8740 0.8740 0.8744 0.8754
3668.093539 0.8760 0.8760 0.8760 0.8760 0.8760
3672.359757 0.8760 0.8762 0.8767 0.8770 0.8770
3676.625974 0.8770 0.8770 0.8770 0.8770 0.8770
3680.892192 0.8770 0.8770 0.8770 0.8768 0.8763
3685.158410 0.8760 0.8760 0.8756 0.8746 0.8740
3689.424627 0.8740 0.8740 0.8740 0.8738 0.8733
3693.690845 0.8730 0.8730 0.8730 0.8730 0.8732
3697.957062 0.8737 0.8744 0.8754 0.8762 0.8767
3702.223280 0.8770 0.8770 0.8772 0.8777 0.8780
3706.489497 0.8780 0.8780 0.8780 0.8780 0.8780
3710.755715 0.8780 0.8780 0.8780 0.8780 0.8780
3715.021933 0.8780 0.8780 0.8780 0.8780 0.8780
3719.288150 0.8780 0.8780 0.8778 0.8773 0.8770
3723.554368 0.8770 0.8770 0.8770 0.8770 0.8770
3727.820585 0.8770 0.8770 0.8770 0.8770 0.8770
3732.086803 0.8770 0.8770 0.8770 0.8770 0.8770
3736.353021 0.8770 0.8770 0.8770 0.8770 0.8770
3740.619238 0.8770 0.8770 0.8770 0.8770 0.8770
3744.885456 0.8768 0.8763 0.8760 0.8760 0.8760
3749.151673 0.8760 0.8760 0.8760 0.8760 0.8760
3753.417891 0.8756 0.8746 0.8740 0.8740 0.8740
3757.684108 0.8740 0.8740 0.8740 0.8744 0.8754
3761.950326 0.8760 0.8760 0.8760 0.8760 0.8760
3766.216544 0.8760 0.8756 0.8746 0.8740 0.8740
3770.482761 0.8740 0.8740 0.8740 0.8740 0.8740
3774.748979 0.8740 0.8740 0.8740 0.8740 0.8740
3779.015196 0.8740 0.8740 0.8740 0.8740 0.8740
3783.281414 0.8740 0.8740 0.8740 0.8740 0.8740
3787.547632 0.8744 0.8754 0.8760 0.8760 0.8760
3791.813849 0.8760
##END=
