##TITLE=1,4-CYCLOHEXADIENE
##JCAMP-DX=4.24
$$ By DXEDIT 1.05 (RS McDonald)
##DATA TYPE=INFRARED SPECTRUM
##CLASS=COBLENTZ III
##ORIGIN=WESTERN REGIONAL RES. USDA
##OWNER=COBLENTZ SOC.
Collection (C) 2018 copyright by the U.S. Secretary of Commerce
on behalf of the United States of America. All rights reserved.
##DATE=1967/05/17
##CAS REGISTRY NO=628-41-1
##MOLFORM=C6 H8
##SOURCE REFERENCE=COBLENTZ NO. 05844
##$NIST SOURCE=COBLENTZ
##$NIST IMAGE=cob5844
##SPECTROMETER/DATA SYSTEM=CARY 90 (GRATING)
##INSTRUMENT PARAMETERS=ORDER CHANGES: 3000, 2000, 1200 CM^-^1
##STATE=LIQUID (NEAT)
##PATH LENGTH=0.0026 CM
##SAMPLING PROCEDURE=TRANSMISSION
##RESOLUTION=2
##DATA PROCESSING=DIGITIZED BY COBLENTZ SOCIETY (BATCH I) FROM HARD COPY
##XUNITS=1/CM
##YUNITS=TRANSMITTANCE
##XLABEL=Wavenumbers (cm-1)
##YLABEL=Transmittance
##XFACTOR=1
##YFACTOR=1
##DELTAX=1
##FIRSTX=3996
##LASTX=473
##FIRSTY=0.9228
##MAXX=3996
##MINX=473
##MAXY=0.9906
##MINY=0.0032
##NPOINTS=3524
##XYDATA=(X++(Y..Y))
3996.000000 0.9228 0.9215 0.9203 0.9189 0.9175
3991.000000 0.9162 0.9149 0.9135 0.9121 0.9111
3986.000000 0.9100 0.9092 0.9084 0.9075 0.9067
3981.000000 0.9070 0.9073 0.9078 0.9086 0.9097
3976.000000 0.9108 0.9120 0.9133 0.9147 0.9161
3971.000000 0.9175 0.9190 0.9204 0.9218 0.9231
3966.000000 0.9244 0.9256 0.9268 0.9281 0.9293
3961.000000 0.9304 0.9316 0.9327 0.9339 0.9338
3956.000000 0.9338 0.9328 0.9320 0.9309 0.9298
3951.000000 0.9286 0.9275 0.9263 0.9252 0.9240
3946.000000 0.9228 0.9214 0.9199 0.9182 0.9166
3941.000000 0.9150 0.9134 0.9117 0.9101 0.9086
3936.000000 0.9071 0.9067 0.9064 0.9071 0.9081
3931.000000 0.9090 0.9099 0.9108 0.9117 0.9125
3926.000000 0.9135 0.9148 0.9161 0.9175 0.9191
3921.000000 0.9206 0.9221 0.9236 0.9251 0.9266
3916.000000 0.9281 0.9294 0.9308 0.9321 0.9334
3911.000000 0.9347 0.9360 0.9371 0.9385 0.9398
3906.000000 0.9411 0.9423 0.9436 0.9449 0.9462
3901.000000 0.9473 0.9484 0.9492 0.9501 0.9509
3896.000000 0.9517 0.9525 0.9533 0.9541 0.9550
3891.000000 0.9554 0.9559 0.9563 0.9567 0.9570
3886.000000 0.9574 0.9577 0.9581 0.9581 0.9581
3881.000000 0.9581 0.9580 0.9578 0.9578 0.9577
3876.000000 0.9575 0.9575 0.9574 0.9571 0.9568
3871.000000 0.9562 0.9557 0.9551 0.9546 0.9540
3866.000000 0.9535 0.9531 0.9527 0.9523 0.9518
3861.000000 0.9515 0.9511 0.9507 0.9503 0.9499
3856.000000 0.9496 0.9492 0.9488 0.9484 0.9480
3851.000000 0.9475 0.9473 0.9468 0.9465 0.9461
3846.000000 0.9457 0.9455 0.9453 0.9452 0.9452
3841.000000 0.9451 0.9451 0.9451 0.9452 0.9453
3836.000000 0.9454 0.9455 0.9457 0.9458 0.9459
3831.000000 0.9460 0.9461 0.9462 0.9464 0.9465
3826.000000 0.9466 0.9467 0.9468 0.9470 0.9471
3821.000000 0.9471 0.9474 0.9475 0.9477 0.9478
3816.000000 0.9478 0.9480 0.9482 0.9483 0.9484
3811.000000 0.9486 0.9489 0.9492 0.9495 0.9498
3806.000000 0.9501 0.9504 0.9507 0.9510 0.9513
3801.000000 0.9516 0.9518 0.9521 0.9525 0.9528
3796.000000 0.9531 0.9534 0.9537 0.9539 0.9542
3791.000000 0.9545 0.9548 0.9551 0.9554 0.9556
3786.000000 0.9559 0.9561 0.9564 0.9566 0.9568
3781.000000 0.9571 0.9574 0.9575 0.9578 0.9581
3776.000000 0.9584 0.9586 0.9589 0.9591 0.9594
3771.000000 0.9596 0.9599 0.9601 0.9604 0.9606
3766.000000 0.9609 0.9611 0.9614 0.9615 0.9616
3761.000000 0.9616 0.9617 0.9617 0.9618 0.9618
3756.000000 0.9618 0.9618 0.9620 0.9620 0.9620
3751.000000 0.9618 0.9618 0.9618 0.9617 0.9616
3746.000000 0.9616 0.9615 0.9614 0.9613 0.9613
3741.000000 0.9612 0.9611 0.9610 0.9610 0.9609
3736.000000 0.9608 0.9607 0.9607 0.9606 0.9605
3731.000000 0.9604 0.9604 0.9603 0.9602 0.9600
3726.000000 0.9598 0.9596 0.9594 0.9592 0.9590
3721.000000 0.9588 0.9586 0.9584 0.9582 0.9580
3716.000000 0.9578 0.9575 0.9574 0.9571 0.9570
3711.000000 0.9568 0.9568 0.9568 0.9568 0.9568
3706.000000 0.9570 0.9570 0.9570 0.9570 0.9571
3701.000000 0.9571 0.9571 0.9571 0.9573 0.9573
3696.000000 0.9573 0.9574 0.9575 0.9575 0.9578
3691.000000 0.9578 0.9581 0.9582 0.9584 0.9585
3686.000000 0.9587 0.9588 0.9589 0.9589 0.9589
3681.000000 0.9588 0.9588 0.9587 0.9587 0.9586
3676.000000 0.9586 0.9586 0.9586 0.9585 0.9585
3671.000000 0.9584 0.9584 0.9583 0.9583 0.9583
3666.000000 0.9583 0.9582 0.9582 0.9581 0.9581
3661.000000 0.9580 0.9580 0.9578 0.9578 0.9578
3656.000000 0.9578 0.9577 0.9577 0.9577 0.9577
3651.000000 0.9575 0.9575 0.9575 0.9575 0.9574
3646.000000 0.9574 0.9573 0.9571 0.9571 0.9570
3641.000000 0.9568 0.9567 0.9566 0.9565 0.9564
3636.000000 0.9563 0.9562 0.9561 0.9560 0.9559
3631.000000 0.9558 0.9557 0.9556 0.9555 0.9554
3626.000000 0.9554 0.9552 0.9551 0.9542 0.9534
3621.000000 0.9525 0.9518 0.9510 0.9502 0.9493
3616.000000 0.9484 0.9475 0.9467 0.9458 0.9449
3611.000000 0.9440 0.9432 0.9423 0.9414 0.9405
3606.000000 0.9397 0.9386 0.9375 0.9374 0.9373
3601.000000 0.9377 0.9381 0.9385 0.9390 0.9394
3596.000000 0.9398 0.9402 0.9407 0.9408 0.9410
3591.000000 0.9411 0.9413 0.9415 0.9417 0.9417
3586.000000 0.9417 0.9416 0.9414 0.9412 0.9410
3581.000000 0.9407 0.9405 0.9402 0.9400 0.9397
3576.000000 0.9395 0.9392 0.9390 0.9387 0.9384
3571.000000 0.9381 0.9378 0.9371 0.9364 0.9360
3566.000000 0.9356 0.9357 0.9359 0.9360 0.9362
3561.000000 0.9363 0.9365 0.9366 0.9368 0.9368
3556.000000 0.9371 0.9371 0.9374 0.9375 0.9375
3551.000000 0.9378 0.9382 0.9385 0.9389 0.9392
3546.000000 0.9396 0.9399 0.9403 0.9406 0.9410
3541.000000 0.9414 0.9418 0.9421 0.9425 0.9428
3536.000000 0.9432 0.9436 0.9441 0.9445 0.9450
3531.000000 0.9454 0.9459 0.9464 0.9468 0.9473
3526.000000 0.9478 0.9483 0.9488 0.9492 0.9497
3521.000000 0.9498 0.9500 0.9501 0.9502 0.9503
3516.000000 0.9504 0.9504 0.9505 0.9506 0.9507
3511.000000 0.9508 0.9509 0.9510 0.9511 0.9512
3506.000000 0.9513 0.9513 0.9513 0.9511 0.9509
3501.000000 0.9507 0.9505 0.9503 0.9501 0.9499
3496.000000 0.9497 0.9494 0.9491 0.9488 0.9485
3491.000000 0.9481 0.9478 0.9475 0.9471 0.9468
3486.000000 0.9466 0.9463 0.9460 0.9459 0.9458
3481.000000 0.9457 0.9457 0.9456 0.9455 0.9454
3476.000000 0.9454 0.9453 0.9452 0.9451 0.9451
3471.000000 0.9450 0.9449 0.9448 0.9448 0.9447
3466.000000 0.9446 0.9445 0.9445 0.9444 0.9443
3461.000000 0.9442 0.9442 0.9441 0.9441 0.9441
3456.000000 0.9441 0.9441 0.9441 0.9441 0.9441
3451.000000 0.9441 0.9441 0.9441 0.9441 0.9441
3446.000000 0.9441 0.9441 0.9441 0.9441 0.9441
3441.000000 0.9441 0.9442 0.9442 0.9442 0.9442
3436.000000 0.9442 0.9442 0.9442 0.9442 0.9442
3431.000000 0.9442 0.9442 0.9442 0.9442 0.9442
3426.000000 0.9442 0.9442 0.9442 0.9442 0.9443
3421.000000 0.9443 0.9443 0.9443 0.9444 0.9444
3416.000000 0.9444 0.9444 0.9445 0.9445 0.9445
3411.000000 0.9445 0.9446 0.9446 0.9446 0.9446
3406.000000 0.9447 0.9447 0.9447 0.9447 0.9447
3401.000000 0.9447 0.9447 0.9447 0.9447 0.9447
3396.000000 0.9447 0.9447 0.9447 0.9446 0.9446
3391.000000 0.9446 0.9446 0.9446 0.9446 0.9446
3386.000000 0.9446 0.9446 0.9446 0.9446 0.9446
3381.000000 0.9446 0.9446 0.9446 0.9447 0.9447
3376.000000 0.9447 0.9447 0.9447 0.9447 0.9447
3371.000000 0.9447 0.9447 0.9447 0.9447 0.9447
3366.000000 0.9447 0.9447 0.9447 0.9447 0.9448
3361.000000 0.9448 0.9448 0.9448 0.9448 0.9448
3356.000000 0.9448 0.9448 0.9449 0.9449 0.9449
3351.000000 0.9449 0.9449 0.9449 0.9449 0.9449
3346.000000 0.9450 0.9450 0.9450 0.9450 0.9450
3341.000000 0.9450 0.9450 0.9449 0.9449 0.9449
3336.000000 0.9449 0.9449 0.9449 0.9450 0.9451
3331.000000 0.9452 0.9453 0.9454 0.9455 0.9447
3326.000000 0.9439 0.9428 0.9418 0.9405 0.9392
3321.000000 0.9371 0.9353 0.9337 0.9321 0.9305
3316.000000 0.9289 0.9258 0.9227 0.9194 0.9162
3311.000000 0.9152 0.9142 0.9140 0.9085 0.9146
3306.000000 0.9154 0.9165 0.9175 0.9194 0.9213
3301.000000 0.9232 0.9251 0.9268 0.9287 0.9304
3296.000000 0.9321 0.9331 0.9342 0.9347 0.9352
3291.000000 0.9355 0.9366 0.9366 0.9366 0.9368
3286.000000 0.9371 0.9365 0.9359 0.9352 0.9345
3281.000000 0.9338 0.9331 0.9321 0.9312 0.9301
3276.000000 0.9290 0.9278 0.9268 0.9259 0.9250
3271.000000 0.9241 0.9232 0.9228 0.9225 0.9225
3266.000000 0.9225 0.9225 0.9202 0.9230 0.9236
3261.000000 0.9245 0.9254 0.9262 0.9271 0.9278
3256.000000 0.9288 0.9296 0.9305 0.9313 0.9321
3251.000000 0.9331 0.9340 0.9348 0.9357 0.9361
3246.000000 0.9365 0.9368 0.9371 0.9375 0.9378
3241.000000 0.9382 0.9386 0.9389 0.9392 0.9395
3236.000000 0.9399 0.9402 0.9406 0.9409 0.9412
3231.000000 0.9415 0.9418 0.9421 0.9425 0.9428
3226.000000 0.9431 0.9433 0.9436 0.9438 0.9441
3221.000000 0.9443 0.9446 0.9448 0.9450 0.9452
3216.000000 0.9455 0.9457 0.9460 0.9462 0.9464
3211.000000 0.9466 0.9468 0.9470 0.9471 0.9473
3206.000000 0.9475 0.9475 0.9477 0.9478 0.9480
3201.000000 0.9481 0.9482 0.9483 0.9485 0.9485
3196.000000 0.9485 0.9485 0.9484 0.9483 0.9482
3191.000000 0.9481 0.9481 0.9480 0.9478 0.9478
3186.000000 0.9477 0.9475 0.9475 0.9474 0.9474
3181.000000 0.9473 0.9495 0.9471 0.9470 0.9468
3176.000000 0.9468 0.9467 0.9466 0.9464 0.9463
3171.000000 0.9462 0.9461 0.9459 0.9458 0.9457
3166.000000 0.9456 0.9454 0.9453 0.9452 0.9451
3161.000000 0.9449 0.9448 0.9446 0.9445 0.9444
3156.000000 0.9443 0.9441 0.9440 0.9437 0.9435
3151.000000 0.9432 0.9430 0.9427 0.9425 0.9421
3146.000000 0.9420 0.9417 0.9414 0.9411 0.9409
3141.000000 0.9406 0.9404 0.9396 0.9389 0.9380
3136.000000 0.9371 0.9363 0.9355 0.9345 0.9336
3131.000000 0.9318 0.9302 0.9285 0.9268 0.9239
3126.000000 0.9209 0.9178 0.9150 0.9120 0.9091
3121.000000 0.9062 0.9034 0.9010 0.8987 0.8966
3116.000000 0.8945 0.8927 0.8910 0.8899 0.8888
3111.000000 0.8884 0.8880 0.8875 0.8871 0.8867
3106.000000 0.8863 0.8858 0.8853 0.8586 0.8318
3101.000000 0.8062 0.7807 0.7551 0.7295 0.7088
3096.000000 0.6861 0.6882 0.6882 0.6938 0.6994
3091.000000 0.7088 0.7182 0.7275 0.7369 0.7464
3086.000000 0.7558 0.7651 0.7746 0.7840 0.7934
3081.000000 0.8028 0.8165 0.8135 0.8148 0.8107
3076.000000 0.8065 0.7910 0.7754 0.7598 0.7442
3071.000000 0.7286 0.7131 0.7014 0.6898 0.6888
3066.000000 0.6878 0.6733 0.6588 0.6384 0.6180
3061.000000 0.5976 0.5773 0.5569 0.5365 0.5160
3056.000000 0.4957 0.4753 0.4549 0.4345 0.4142
3051.000000 0.3938 0.3734 0.3530 0.3326 0.3122
3046.000000 0.2918 0.2714 0.2511 0.2307 0.2103
3041.000000 0.1899 0.1694 0.1491 0.1287 0.1083
3036.000000 0.0880 0.0676 0.0471 0.0267 0.0064
3031.000000 0.0059 0.0054 0.0052 0.0052 0.0051
3026.000000 0.0051 0.0051 0.0052 0.0173 0.0295
3021.000000 0.0465 0.0636 0.0806 0.0976 0.1146
3016.000000 0.1318 0.1488 0.1659 0.1829 0.2000
3011.000000 0.2170 0.2341 0.2512 0.2683 0.2853
3006.000000 0.3024 0.3194 0.3364 0.3534 0.3706
3001.000000 0.3708 0.3709 0.3712 0.3714 0.3716
2996.000000 0.3718 0.3804 0.3890 0.4000 0.4110
2991.000000 0.4221 0.4331 0.4441 0.4552 0.4662
2986.000000 0.4773 0.4883 0.4994 0.5104 0.5215
2981.000000 0.5325 0.5501 0.5454 0.5474 0.5472
2976.000000 0.5471 0.5417 0.5364 0.5310 0.5256
2971.000000 0.5202 0.5149 0.5100 0.5051 0.4875
2966.000000 0.4700 0.4494 0.4288 0.4207 0.4126
2961.000000 0.4116 0.4106 0.4170 0.4234 0.4488
2956.000000 0.4743 0.4997 0.5252 0.5506 0.5760
2951.000000 0.6015 0.6270 0.6524 0.6778 0.7034
2946.000000 0.7289 0.7345 0.7401 0.7428 0.7457
2941.000000 0.7465 0.7533 0.7480 0.7485 0.7475
2936.000000 0.7465 0.7446 0.7426 0.7408 0.7389
2931.000000 0.7362 0.7338 0.7308 0.7281 0.7251
2926.000000 0.7224 0.7175 0.7128 0.7068 0.7010
2921.000000 0.6950 0.6891 0.6818 0.6745 0.6671
2916.000000 0.6597 0.6524 0.6451 0.6384 0.6317
2911.000000 0.6250 0.6183 0.6042 0.5901 0.5753
2906.000000 0.5606 0.5521 0.5436 0.5341 0.5246
2901.000000 0.4373 0.3500 0.3100 0.2700 0.2300
2896.000000 0.1900 0.1500 0.1100 0.0807 0.0515
2891.000000 0.0467 0.0421 0.0376 0.0330 0.0284
2886.000000 0.0237 0.0192 0.0146 0.0126 0.0123
2881.000000 0.0105 0.0105 0.0201 0.0296 0.0390
2876.000000 0.0485 0.0579 0.0674 0.0692 0.0711
2871.000000 0.0711 0.0697 0.0683 0.0655 0.0586
2866.000000 0.0517 0.0448 0.0380 0.0311 0.0242
2861.000000 0.0210 0.0181 0.0178 0.0201 0.0250
2856.000000 0.0325 0.0427 0.0530 0.0633 0.0736
2851.000000 0.0839 0.0942 0.1045 0.1148 0.1251
2846.000000 0.1354 0.1456 0.1559 0.1662 0.1765
2841.000000 0.1810 0.1856 0.1857 0.1858 0.1858
2836.000000 0.1858 0.1857 0.1856 0.1681 0.1507
2831.000000 0.1294 0.1081 0.0868 0.0655 0.0442
2826.000000 0.0229 0.0131 0.0033 0.0032 0.0032
2821.000000 0.0032 0.0032 0.0032 0.0032 0.0237
2816.000000 0.0444 0.0700 0.0957 0.1213 0.1470
2811.000000 0.1727 0.1984 0.2240 0.2497 0.2753
2806.000000 0.3010 0.3266 0.3524 0.3780 0.4037
2801.000000 0.4293 0.4550 0.4762 0.4975 0.5188
2796.000000 0.5401 0.5612 0.5826 0.6038 0.6251
2791.000000 0.6464 0.6676 0.6894 0.7111 0.7125
2786.000000 0.7141 0.7156 0.7171 0.7181 0.7191
2781.000000 0.7199 0.7208 0.7215 0.7225 0.7267
2776.000000 0.7308 0.7378 0.7448 0.7517 0.7586
2771.000000 0.7655 0.7725 0.7794 0.7864 0.7933
2766.000000 0.8003 0.8071 0.8141 0.8210 0.8280
2761.000000 0.8349 0.8418 0.8463 0.8508 0.8516
2756.000000 0.8525 0.8533 0.8541 0.8549 0.8557
2751.000000 0.8568 0.8580 0.8593 0.8607 0.8616
2746.000000 0.8625 0.8644 0.8663 0.8683 0.8703
2741.000000 0.8723 0.8743 0.8763 0.8784 0.8804
2736.000000 0.8824 0.8844 0.8864 0.8884 0.8904
2731.000000 0.8905 0.8916 0.8908 0.8909 0.8823
2726.000000 0.8738 0.8634 0.8530 0.8459 0.8366
2721.000000 0.8385 0.8383 0.8392 0.8401 0.8456
2716.000000 0.8511 0.8565 0.8620 0.8675 0.8730
2711.000000 0.8784 0.8839 0.8894 0.8949 0.9004
2706.000000 0.9059 0.9113 0.9168 0.9194 0.9221
2701.000000 0.9218 0.9196 0.9192 0.9167 0.9128
2696.000000 0.9090 0.9051 0.9013 0.8974 0.8936
2691.000000 0.8901 0.8867 0.8858 0.8850 0.8814
2686.000000 0.8778 0.8677 0.8577 0.8477 0.8377
2681.000000 0.8277 0.8176 0.8075 0.7975 0.7875
2676.000000 0.7775 0.7675 0.7575 0.7475 0.7375
2671.000000 0.7331 0.7289 0.7287 0.7286 0.7286
2666.000000 0.7286 0.7297 0.7308 0.7412 0.7518
2661.000000 0.7624 0.7730 0.7836 0.7942 0.8047
2656.000000 0.8153 0.8258 0.8364 0.8468 0.8575
2651.000000 0.8681 0.8787 0.8892 0.8998 0.9070
2646.000000 0.9143 0.9170 0.9197 0.9215 0.9233
2641.000000 0.9251 0.9268 0.9286 0.9304 0.9318
2636.000000 0.9332 0.9345 0.9359 0.9371 0.9386
2631.000000 0.9399 0.9413 0.9425 0.9440 0.9452
2626.000000 0.9464 0.9475 0.9486 0.9497 0.9509
2621.000000 0.9520 0.9531 0.9542 0.9553 0.9560
2616.000000 0.9567 0.9574 0.9582 0.9589 0.9596
2611.000000 0.9603 0.9610 0.9614 0.9618 0.9618
2606.000000 0.9618 0.9617 0.9617 0.9616 0.9616
2601.000000 0.9613 0.9610 0.9605 0.9600 0.9599
2596.000000 0.9599 0.9598 0.9598 0.9598 0.9598
2591.000000 0.9598 0.9598 0.9598 0.9598 0.9599
2586.000000 0.9600 0.9603 0.9606 0.9609 0.9612
2581.000000 0.9615 0.9618 0.9621 0.9625 0.9628
2576.000000 0.9631 0.9634 0.9638 0.9641 0.9645
2571.000000 0.9648 0.9652 0.9656 0.9660 0.9663
2566.000000 0.9667 0.9670 0.9674 0.9677 0.9681
2561.000000 0.9681 0.9682 0.9682 0.9682 0.9682
2556.000000 0.9682 0.9678 0.9675 0.9668 0.9664
2551.000000 0.9657 0.9650 0.9637 0.9624 0.9611
2546.000000 0.9599 0.9584 0.9568 0.9553 0.9538
2541.000000 0.9528 0.9521 0.9514 0.9507 0.9506
2536.000000 0.9505 0.9503 0.9502 0.9505 0.9508
2531.000000 0.9514 0.9521 0.9527 0.9534 0.9542
2526.000000 0.9550 0.9559 0.9568 0.9575 0.9585
2521.000000 0.9593 0.9602 0.9610 0.9618 0.9627
2516.000000 0.9635 0.9641 0.9647 0.9650 0.9654
2511.000000 0.9658 0.9662 0.9665 0.9668 0.9670
2506.000000 0.9671 0.9671 0.9671 0.9673 0.9674
2501.000000 0.9675 0.9675 0.9675 0.9675 0.9675
2496.000000 0.9674 0.9671 0.9668 0.9666 0.9663
2491.000000 0.9660 0.9658 0.9655 0.9653 0.9648
2486.000000 0.9644 0.9639 0.9635 0.9630 0.9625
2481.000000 0.9620 0.9615 0.9610 0.9606 0.9601
2476.000000 0.9597 0.9592 0.9588 0.9583 0.9578
2471.000000 0.9578 0.9578 0.9578 0.9578 0.9586
2466.000000 0.9594 0.9602 0.9610 0.9615 0.9621
2461.000000 0.9623 0.9625 0.9628 0.9630 0.9632
2456.000000 0.9635 0.9637 0.9639 0.9641 0.9644
2451.000000 0.9648 0.9652 0.9656 0.9661 0.9665
2446.000000 0.9670 0.9674 0.9678 0.9683 0.9688
2441.000000 0.9692 0.9697 0.9700 0.9703 0.9705
2436.000000 0.9707 0.9709 0.9711 0.9713 0.9715
2431.000000 0.9717 0.9720 0.9721 0.9724 0.9725
2426.000000 0.9725 0.9725 0.9724 0.9723 0.9723
2421.000000 0.9721 0.9721 0.9720 0.9720 0.9714
2416.000000 0.9709 0.9700 0.9692 0.9682 0.9671
2411.000000 0.9660 0.9649 0.9637 0.9625 0.9614
2406.000000 0.9603 0.9594 0.9586 0.9578 0.9571
2401.000000 0.9564 0.9558 0.9555 0.9553 0.9551
2396.000000 0.9549 0.9547 0.9545 0.9542 0.9540
2391.000000 0.9538 0.9537 0.9535 0.9533 0.9531
2386.000000 0.9528 0.9527 0.9525 0.9518 0.9513
2381.000000 0.9504 0.9496 0.9483 0.9471 0.9447
2376.000000 0.9423 0.9403 0.9384 0.9365 0.9347
2371.000000 0.9328 0.9310 0.9303 0.9297 0.9297
2366.000000 0.9297 0.9307 0.9318 0.9339 0.9361
2361.000000 0.9382 0.9404 0.9424 0.9445 0.9464
2356.000000 0.9484 0.9503 0.9521 0.9541 0.9561
2351.000000 0.9577 0.9593 0.9606 0.9618 0.9628
2346.000000 0.9637 0.9641 0.9645 0.9645 0.9646
2341.000000 0.9646 0.9646 0.9646 0.9645 0.9641
2336.000000 0.9637 0.9633 0.9628 0.9625 0.9621
2331.000000 0.9615 0.9609 0.9598 0.9587 0.9575
2326.000000 0.9565 0.9545 0.9525 0.9512 0.9498
2321.000000 0.9487 0.9475 0.9466 0.9456 0.9453
2316.000000 0.9450 0.9447 0.9445 0.9444 0.9443
2311.000000 0.9465 0.9487 0.9505 0.9523 0.9534
2306.000000 0.9545 0.9556 0.9567 0.9577 0.9588
2301.000000 0.9597 0.9606 0.9611 0.9617 0.9621
2296.000000 0.9628 0.9633 0.9638 0.9643 0.9649
2291.000000 0.9653 0.9658 0.9659 0.9661 0.9662
2286.000000 0.9664 0.9665 0.9667 0.9668 0.9670
2281.000000 0.9671 0.9673 0.9674 0.9675 0.9675
2276.000000 0.9677 0.9678 0.9678 0.9680 0.9681
2271.000000 0.9682 0.9684 0.9685 0.9686 0.9688
2266.000000 0.9691 0.9694 0.9697 0.9699 0.9702
2261.000000 0.9703 0.9704 0.9705 0.9706 0.9707
2256.000000 0.9708 0.9709 0.9710 0.9710 0.9711
2251.000000 0.9711 0.9711 0.9711 0.9711 0.9710
2246.000000 0.9709 0.9707 0.9705 0.9702 0.9700
2241.000000 0.9696 0.9693 0.9688 0.9684 0.9678
2236.000000 0.9674 0.9668 0.9664 0.9658 0.9652
2231.000000 0.9646 0.9640 0.9634 0.9628 0.9623
2226.000000 0.9617 0.9613 0.9610 0.9609 0.9608
2221.000000 0.9609 0.9611 0.9613 0.9615 0.9616
2216.000000 0.9618 0.9620 0.9621 0.9624 0.9625
2211.000000 0.9628 0.9631 0.9637 0.9643 0.9649
2206.000000 0.9656 0.9662 0.9668 0.9675 0.9682
2201.000000 0.9688 0.9694 0.9700 0.9707 0.9712
2196.000000 0.9718 0.9723 0.9728 0.9731 0.9734
2191.000000 0.9736 0.9739 0.9739 0.9739 0.9737
2186.000000 0.9735 0.9727 0.9720 0.9712 0.9705
2181.000000 0.9693 0.9681 0.9663 0.9646 0.9630
2176.000000 0.9615 0.9600 0.9586 0.9571 0.9557
2171.000000 0.9542 0.9527 0.9514 0.9501 0.9495
2166.000000 0.9490 0.9485 0.9481 0.9478 0.9477
2161.000000 0.9474 0.9471 0.9483 0.9495 0.9508
2156.000000 0.9521 0.9533 0.9546 0.9558 0.9571
2151.000000 0.9583 0.9595 0.9607 0.9618 0.9627
2146.000000 0.9635 0.9640 0.9645 0.9650 0.9656
2141.000000 0.9661 0.9667 0.9671 0.9678 0.9681
2136.000000 0.9685 0.9688 0.9691 0.9694 0.9697
2131.000000 0.9700 0.9703 0.9706 0.9709 0.9712
2126.000000 0.9715 0.9716 0.9718 0.9718 0.9721
2121.000000 0.9721 0.9724 0.9725 0.9727 0.9728
2116.000000 0.9730 0.9731 0.9733 0.9734 0.9736
2111.000000 0.9737 0.9739 0.9740 0.9741 0.9742
2106.000000 0.9744 0.9746 0.9747 0.9747 0.9747
2101.000000 0.9746 0.9746 0.9745 0.9745 0.9745
2096.000000 0.9745 0.9744 0.9744 0.9743 0.9743
2091.000000 0.9741 0.9739 0.9737 0.9735 0.9733
2086.000000 0.9731 0.9728 0.9725 0.9725 0.9725
2081.000000 0.9724 0.9723 0.9721 0.9721 0.9721
2076.000000 0.9720 0.9718 0.9716 0.9713 0.9710
2071.000000 0.9707 0.9704 0.9701 0.9698 0.9692
2066.000000 0.9687 0.9678 0.9671 0.9662 0.9654
2061.000000 0.9646 0.9638 0.9632 0.9625 0.9620
2056.000000 0.9614 0.9608 0.9603 0.9601 0.9599
2051.000000 0.9598 0.9597 0.9595 0.9594 0.9593
2046.000000 0.9592 0.9595 0.9599 0.9605 0.9612
2041.000000 0.9618 0.9625 0.9631 0.9637 0.9636
2036.000000 0.9635 0.9634 0.9634 0.9633 0.9632
2031.000000 0.9630 0.9628 0.9625 0.9625 0.9623
2026.000000 0.9621 0.9618 0.9616 0.9613 0.9610
2021.000000 0.9606 0.9603 0.9599 0.9596 0.9592
2016.000000 0.9589 0.9586 0.9583 0.9578 0.9575
2011.000000 0.9573 0.9570 0.9582 0.9594 0.9611
2006.000000 0.9628 0.9646 0.9664 0.9678 0.9695
2001.000000 0.9720 0.9745 0.9770 0.9795 0.9820
1996.000000 0.9846 0.9866 0.9874 0.9883 0.9892
1991.000000 0.9897 0.9900 0.9903 0.9906 0.9906
1986.000000 0.9818 0.9890 0.9882 0.9874 0.9854
1981.000000 0.9834 0.9814 0.9797 0.9785 0.9774
1976.000000 0.9770 0.9778 0.9786 0.9795 0.9808
1971.000000 0.9820 0.9832 0.9844 0.9856 0.9860
1966.000000 0.9847 0.9797 0.9748 0.9689 0.9653
1961.000000 0.9632 0.9611 0.9590 0.9561 0.9531
1956.000000 0.9501 0.9471 0.9450 0.9431 0.9411
1951.000000 0.9391 0.9378 0.9367 0.9351 0.9340
1946.000000 0.9347 0.9353 0.9368 0.9394 0.9423
1941.000000 0.9455 0.9467 0.9477 0.9477 0.9477
1936.000000 0.9459 0.9397 0.9321 0.9256 0.9210
1931.000000 0.9163 0.9117 0.9052 0.8978 0.8951
1926.000000 0.8944 0.8925 0.8936 0.8968 0.9047
1921.000000 0.9121 0.9175 0.9216 0.9255 0.9295
1916.000000 0.9328 0.9336 0.9339 0.9339 0.9337
1911.000000 0.9327 0.9311 0.9294 0.9267 0.9240
1906.000000 0.9193 0.9142 0.9080 0.9009 0.8960
1901.000000 0.8931 0.8899 0.8871 0.8867 0.8864
1896.000000 0.8864 0.8864 0.8864 0.8867 0.8874
1891.000000 0.8841 0.8892 0.8935 0.8988 0.9035
1886.000000 0.9075 0.9118 0.9161 0.9196 0.9228
1881.000000 0.9259 0.9291 0.9323 0.9350 0.9371
1876.000000 0.9394 0.9417 0.9439 0.9461 0.9483
1871.000000 0.9505 0.9527 0.9554 0.9588 0.9618
1866.000000 0.9644 0.9670 0.9696 0.9718 0.9738
1861.000000 0.9757 0.9768 0.9778 0.9788 0.9798
1856.000000 0.9807 0.9810 0.9812 0.9812 0.9810
1851.000000 0.9807 0.9804 0.9800 0.9797 0.9794
1846.000000 0.9791 0.9788 0.9785 0.9781 0.9778
1841.000000 0.9775 0.9771 0.9768 0.9765 0.9761
1836.000000 0.9758 0.9755 0.9761 0.9767 0.9774
1831.000000 0.9780 0.9787 0.9793 0.9800 0.9806
1826.000000 0.9817 0.9828 0.9841 0.9852 0.9864
1821.000000 0.9864 0.9863 0.9858 0.9851 0.9845
1816.000000 0.9839 0.9832 0.9825 0.9818 0.9813
1811.000000 0.9807 0.9800 0.9800 0.9801 0.9803
1806.000000 0.9804 0.9806 0.9808 0.9809 0.9811
1801.000000 0.9813 0.9814 0.9816 0.9817 0.9818
1796.000000 0.9821 0.9825 0.9828 0.9831 0.9834
1791.000000 0.9837 0.9841 0.9844 0.9848 0.9852
1786.000000 0.9854 0.9856 0.9858 0.9860 0.9862
1781.000000 0.9864 0.9866 0.9873 0.9871 0.9871
1776.000000 0.9873 0.9875 0.9875 0.9877 0.9878
1771.000000 0.9873 0.9867 0.9862 0.9857 0.9851
1766.000000 0.9846 0.9840 0.9835 0.9828 0.9821
1761.000000 0.9814 0.9806 0.9799 0.9791 0.9783
1756.000000 0.9775 0.9768 0.9760 0.9752 0.9745
1751.000000 0.9739 0.9732 0.9725 0.9718 0.9713
1746.000000 0.9707 0.9703 0.9699 0.9695 0.9691
1741.000000 0.9688 0.9684 0.9681 0.9678 0.9674
1736.000000 0.9671 0.9668 0.9667 0.9665 0.9664
1731.000000 0.9663 0.9662 0.9661 0.9660 0.9657
1726.000000 0.9653 0.9650 0.9646 0.9642 0.9640
1721.000000 0.9638 0.9636 0.9634 0.9632 0.9630
1716.000000 0.9627 0.9615 0.9602 0.9590 0.9578
1711.000000 0.9566 0.9549 0.9532 0.9515 0.9497
1706.000000 0.9478 0.9459 0.9440 0.9421 0.9402
1701.000000 0.9377 0.9342 0.9307 0.9271 0.9211
1696.000000 0.9142 0.9066 0.8982 0.8899 0.8817
1691.000000 0.8744 0.8692 0.8641 0.8589 0.8528
1686.000000 0.8420 0.8228 0.8122 0.8041 0.7928
1681.000000 0.7817 0.7705 0.7594 0.7482 0.7369
1676.000000 0.7258 0.7147 0.7035 0.6932 0.6962
1671.000000 0.6935 0.7161 0.7260 0.7358 0.7458
1666.000000 0.7556 0.7655 0.7754 0.7853 0.7951
1661.000000 0.8051 0.8150 0.8249 0.8268 0.8271
1656.000000 0.8307 0.8275 0.8176 0.7771 0.7365
1651.000000 0.6960 0.6554 0.6148 0.5742 0.5336
1646.000000 0.4930 0.4525 0.4119 0.3712 0.3307
1641.000000 0.2901 0.2495 0.2211 0.2208 0.2316
1636.000000 0.2972 0.3628 0.4285 0.4941 0.5597
1631.000000 0.6253 0.6908 0.7565 0.8074 0.8101
1626.000000 0.8110 0.8118 0.8126 0.8133 0.8134
1621.000000 0.8136 0.8137 0.8137 0.8137 0.8134
1616.000000 0.8132 0.8125 0.8098 0.8014 0.7931
1611.000000 0.7848 0.7764 0.7681 0.7598 0.7565
1606.000000 0.7575 0.7576 0.7583 0.7665 0.7765
1601.000000 0.7865 0.7965 0.8065 0.8165 0.8207
1596.000000 0.8218 0.8243 0.8287 0.8350 0.8421
1591.000000 0.8494 0.8568 0.8644 0.8718 0.8790
1586.000000 0.8858 0.8920 0.8977 0.9017 0.9054
1581.000000 0.9091 0.9128 0.9144 0.9151 0.9141
1576.000000 0.9133 0.9128 0.9124 0.9120 0.9117
1571.000000 0.9115 0.9120 0.9137 0.9155 0.9174
1566.000000 0.9192 0.9211 0.9230 0.9249 0.9264
1561.000000 0.9278 0.9293 0.9307 0.9321 0.9337
1556.000000 0.9351 0.9366 0.9377 0.9387 0.9398
1551.000000 0.9408 0.9418 0.9428 0.9440 0.9450
1546.000000 0.9460 0.9470 0.9477 0.9483 0.9489
1541.000000 0.9496 0.9502 0.9509 0.9515 0.9521
1536.000000 0.9528 0.9530 0.9532 0.9534 0.9536
1531.000000 0.9538 0.9540 0.9542 0.9544 0.9546
1526.000000 0.9548 0.9550 0.9552 0.9554 0.9556
1521.000000 0.9558 0.9612 0.9562 0.9565 0.9567
1516.000000 0.9568 0.9571 0.9574 0.9577 0.9578
1511.000000 0.9581 0.9584 0.9586 0.9587 0.9587
1506.000000 0.9588 0.9588 0.9588 0.9589 0.9589
1501.000000 0.9589 0.9586 0.9584 0.9582 0.9578
1496.000000 0.9577 0.9575 0.9571 0.9570 0.9567
1491.000000 0.9563 0.9559 0.9554 0.9550 0.9546
1486.000000 0.9524 0.9491 0.9458 0.9421 0.9378
1481.000000 0.9337 0.9297 0.9271 0.9264 0.9261
1476.000000 0.9258 0.9254 0.9251 0.9248 0.9245
1471.000000 0.9241 0.9237 0.9231 0.9224 0.9217
1466.000000 0.9211 0.9204 0.9193 0.9161 0.9128
1461.000000 0.9087 0.9047 0.9006 0.8960 0.8909
1456.000000 0.8858 0.8803 0.8727 0.8651 0.8575
1451.000000 0.8501 0.8424 0.8344 0.8188 0.8151
1446.000000 0.8119 0.8078 0.8031 0.7925 0.7815
1441.000000 0.7696 0.7019 0.6345 0.5670 0.4994
1436.000000 0.4319 0.3644 0.2969 0.2293 0.1618
1431.000000 0.0942 0.0867 0.0856 0.0872 0.1369
1426.000000 0.1894 0.2422 0.2948 0.3474 0.4000
1421.000000 0.4526 0.5052 0.5578 0.6104 0.6252
1416.000000 0.6384 0.6515 0.6531 0.6544 0.6456
1411.000000 0.6087 0.5719 0.5350 0.4981 0.4612
1406.000000 0.4244 0.4166 0.4167 0.4168 0.4938
1401.000000 0.5846 0.6755 0.7662 0.7995 0.8105
1396.000000 0.8172 0.8238 0.8300 0.8360 0.8435
1391.000000 0.8450 0.8453 0.8453 0.8452 0.8441
1386.000000 0.8428 0.8416 0.8402 0.8388 0.8373
1381.000000 0.8359 0.8347 0.8334 0.8321 0.8308
1376.000000 0.8295 0.8278 0.8262 0.8245 0.8228
1371.000000 0.8184 0.8055 0.7900 0.7742 0.7584
1366.000000 0.7425 0.7268 0.7110 0.6951 0.6794
1361.000000 0.6636 0.6498 0.6483 0.6468 0.6458
1356.000000 0.6458 0.6457 0.6457 0.6472 0.6458
1351.000000 0.6461 0.6521 0.6708 0.6893 0.7078
1346.000000 0.7265 0.7451 0.7636 0.7821 0.8008
1341.000000 0.8193 0.8331 0.8389 0.8428 0.8461
1336.000000 0.8493 0.8525 0.8556 0.8581 0.8606
1331.000000 0.8632 0.8657 0.8682 0.8707 0.8734
1326.000000 0.8760 0.8786 0.8812 0.8839 0.8875
1321.000000 0.8913 0.8952 0.9024 0.9068 0.9110
1316.000000 0.9133 0.9156 0.9171 0.9180 0.9189
1311.000000 0.9197 0.9205 0.9214 0.9221 0.9230
1306.000000 0.9239 0.9249 0.9259 0.9270 0.9280
1301.000000 0.9291 0.9301 0.9311 0.9321 0.9332
1296.000000 0.9342 0.9351 0.9361 0.9370 0.9380
1291.000000 0.9389 0.9396 0.9399 0.9403 0.9406
1286.000000 0.9409 0.9413 0.9416 0.9417 0.9417
1281.000000 0.9411 0.9405 0.9399 0.9393 0.9386
1276.000000 0.9377 0.9442 0.9365 0.9370 0.9375
1271.000000 0.9381 0.9386 0.9391 0.9393 0.9395
1266.000000 0.9397 0.9399 0.9400 0.9402 0.9402
1261.000000 0.9393 0.9384 0.9375 0.9366 0.9357
1256.000000 0.9343 0.9327 0.9310 0.9309 0.9309
1251.000000 0.9309 0.9309 0.9309 0.9310 0.9311
1246.000000 0.9312 0.9313 0.9314 0.9315 0.9316
1241.000000 0.9317 0.9305 0.9282 0.9261 0.9239
1236.000000 0.9221 0.9221 0.9223 0.9224 0.9225
1231.000000 0.9225 0.9227 0.9228 0.9228 0.9221
1226.000000 0.9213 0.9205 0.9198 0.9177 0.9125
1221.000000 0.9075 0.9047 0.9018 0.8990 0.8961
1216.000000 0.8931 0.8899 0.8866 0.8836 0.8805
1211.000000 0.8775 0.8743 0.8709 0.8667 0.8623
1206.000000 0.8578 0.8535 0.8491 0.8447 0.8403
1201.000000 0.8359 0.8315 0.8238 0.8250 0.8254
1196.000000 0.8258 0.8262 0.8274 0.8290 0.8305
1191.000000 0.8320 0.8335 0.8350 0.8365 0.8380
1186.000000 0.8396 0.8411 0.8424 0.8437 0.8450
1181.000000 0.8463 0.8473 0.8483 0.8492 0.8501
1176.000000 0.8501 0.8514 0.8497 0.8489 0.8481
1171.000000 0.8473 0.8466 0.8439 0.8404 0.8371
1166.000000 0.8341 0.8310 0.8275 0.8231 0.8185
1161.000000 0.8101 0.7758 0.7417 0.7095 0.7121
1156.000000 0.7099 0.7208 0.7497 0.7785 0.8072
1151.000000 0.8344 0.8393 0.8441 0.8490 0.8520
1146.000000 0.8542 0.8564 0.8587 0.8609 0.8632
1141.000000 0.8654 0.8675 0.8699 0.8721 0.8744
1136.000000 0.8757 0.8768 0.8778 0.8790 0.8801
1131.000000 0.8810 0.8817 0.8824 0.8831 0.8838
1126.000000 0.8845 0.8852 0.8859 0.8866 0.8873
1121.000000 0.8878 0.8882 0.8885 0.8888 0.8891
1116.000000 0.8894 0.8897 0.8900 0.8903 0.8906
1111.000000 0.8944 0.8911 0.8914 0.8917 0.8920
1106.000000 0.8921 0.8921 0.8921 0.8923 0.8924
1101.000000 0.8925 0.8925 0.8925 0.8927 0.8928
1096.000000 0.8928 0.8925 0.8921 0.8917 0.8913
1091.000000 0.8909 0.8904 0.8900 0.8896 0.8892
1086.000000 0.8888 0.8882 0.8858 0.8835 0.8812
1081.000000 0.8788 0.8761 0.8732 0.8716 0.8704
1076.000000 0.8691 0.8678 0.8668 0.8664 0.8660
1071.000000 0.8655 0.8651 0.8647 0.8642 0.8638
1066.000000 0.8634 0.8630 0.8625 0.8618 0.8611
1061.000000 0.8604 0.8596 0.8589 0.8578 0.8566
1056.000000 0.8552 0.8538 0.8525 0.8511 0.8497
1051.000000 0.8484 0.8470 0.8456 0.8443 0.8428
1046.000000 0.8416 0.8402 0.8389 0.8375 0.8362
1041.000000 0.8348 0.8335 0.8321 0.8304 0.8287
1036.000000 0.8268 0.8252 0.8235 0.8211 0.8212
1031.000000 0.8221 0.8232 0.8242 0.8252 0.8262
1026.000000 0.8270 0.8278 0.8288 0.8297 0.8306
1021.000000 0.8315 0.8323 0.8321 0.8321 0.8321
1016.000000 0.8320 0.8318 0.8317 0.8311 0.8305
1011.000000 0.8298 0.8292 0.8285 0.8277 0.8268
1006.000000 0.8261 0.8253 0.8243 0.8228 0.8216
1001.000000 0.8202 0.8189 0.8161 0.8132 0.8103
996.000000 0.8074 0.8000 0.7926 0.7851 0.7767
991.000000 0.7683 0.7558 0.7412 0.7265 0.7028
986.000000 0.6822 0.6698 0.6571 0.6464 0.6376
981.000000 0.6288 0.6200 0.6006 0.5756 0.5666
976.000000 0.5577 0.5475 0.5217 0.4822 0.4427
971.000000 0.4030 0.3636 0.3240 0.2845 0.2449
966.000000 0.2054 0.1658 0.1263 0.0867 0.0471
961.000000 0.0097 0.0095 0.0095 0.0094 0.0095
956.000000 0.0102 0.0114 0.0131 0.0158 0.0381
951.000000 0.0828 0.1274 0.1720 0.2167 0.2613
946.000000 0.3059 0.3506 0.3952 0.4398 0.4812
941.000000 0.5132 0.5348 0.5564 0.5780 0.5995
936.000000 0.6210 0.6426 0.6643 0.6858 0.7075
931.000000 0.7290 0.7431 0.7517 0.7604 0.7706
926.000000 0.7781 0.7839 0.7888 0.7937 0.7991
921.000000 0.8045 0.8131 0.8205 0.8237 0.8263
916.000000 0.8280 0.8290 0.8290 0.8291 0.8325
911.000000 0.8284 0.8281 0.8270 0.8259 0.8243
906.000000 0.8223 0.8203 0.8181 0.8147 0.8097
901.000000 0.8018 0.7653 0.7228 0.6728 0.6231
896.000000 0.5732 0.5233 0.4735 0.4236 0.3737
891.000000 0.3238 0.2740 0.2241 0.1742 0.1244
886.000000 0.0745 0.0336 0.0336 0.0336 0.0332
881.000000 0.0846 0.1574 0.2301 0.3027 0.3754
876.000000 0.4481 0.5208 0.5934 0.6571 0.7172
871.000000 0.7369 0.7484 0.7594 0.7706 0.7821
866.000000 0.7938 0.8060 0.8151 0.8231 0.8287
861.000000 0.8332 0.8362 0.8392 0.8418 0.8439
856.000000 0.8459 0.8478 0.8499 0.8518 0.8537
851.000000 0.8553 0.8568 0.8582 0.8592 0.8603
846.000000 0.8613 0.8624 0.8634 0.8645 0.8655
841.000000 0.8666 0.8675 0.8683 0.8689 0.8696
836.000000 0.8702 0.8708 0.8715 0.8721 0.8725
831.000000 0.8732 0.8738 0.8744 0.8750 0.8756
826.000000 0.8762 0.8768 0.8774 0.8777 0.8778
821.000000 0.8781 0.8784 0.8786 0.8789 0.8791
816.000000 0.8793 0.8796 0.8798 0.8800 0.8803
811.000000 0.8805 0.8805 0.8805 0.8803 0.8802
806.000000 0.8806 0.8799 0.8794 0.8790 0.8785
801.000000 0.8780 0.8775 0.8771 0.8766 0.8758
796.000000 0.8749 0.8741 0.8732 0.8724 0.8715
791.000000 0.8707 0.8701 0.8697 0.8692 0.8687
786.000000 0.8683 0.8680 0.8677 0.8674 0.8671
781.000000 0.8668 0.8666 0.8666 0.8666 0.8666
776.000000 0.8665 0.8665 0.8667 0.8668 0.8671
771.000000 0.8674 0.8675 0.8678 0.8681 0.8683
766.000000 0.8685 0.8686 0.8687 0.8689 0.8690
761.000000 0.8690 0.8690 0.8689 0.8681 0.8674
756.000000 0.8667 0.8660 0.8653 0.8646 0.8638
751.000000 0.8628 0.8618 0.8609 0.8600 0.8590
746.000000 0.8581 0.8571 0.8562 0.8552 0.8541
741.000000 0.8528 0.8518 0.8506 0.8495 0.8483
736.000000 0.8471 0.8460 0.8445 0.8428 0.8412
731.000000 0.8395 0.8378 0.8362 0.8345 0.8327
726.000000 0.8309 0.8291 0.8263 0.8232 0.8200
721.000000 0.8171 0.8142 0.8092 0.8034 0.7928
716.000000 0.7838 0.7778 0.7718 0.7680 0.7650
711.000000 0.7619 0.7589 0.7558 0.7528 0.7499
706.000000 0.7468 0.7439 0.7408 0.7378 0.7341
701.000000 0.7297 0.7253 0.7210 0.7165 0.7119
696.000000 0.7065 0.7011 0.6956 0.6890 0.6800
691.000000 0.6692 0.6571 0.6450 0.6362 0.6291
686.000000 0.6220 0.6148 0.6056 0.5934 0.5826
681.000000 0.5718 0.5510 0.5099 0.4687 0.4629
676.000000 0.4598 0.4570 0.4546 0.4521 0.4503
671.000000 0.4488 0.4472 0.4442 0.4392 0.4209
666.000000 0.4118 0.4066 0.4025 0.3982 0.3942
661.000000 0.3905 0.3868 0.3832 0.3794 0.3750
656.000000 0.3705 0.3659 0.3616 0.3545 0.3464
651.000000 0.3384 0.3316 0.3262 0.3207 0.3152
646.000000 0.3048 0.2938 0.2828 0.2719 0.2606
641.000000 0.2491 0.2166 0.2004 0.1844 0.1682
636.000000 0.1521 0.1359 0.1198 0.1036 0.0875
631.000000 0.0713 0.0552 0.0390 0.0229 0.0090
626.000000 0.0082 0.0073 0.0065 0.0062 0.0059
621.000000 0.0056 0.0056 0.0055 0.0056 0.0059
616.000000 0.0066 0.0080 0.0093 0.0120 0.0151
611.000000 0.0293 0.0515 0.0774 0.1033 0.1292
606.000000 0.1551 0.1810 0.2069 0.2328 0.2587
601.000000 0.2846 0.3105 0.3364 0.3623 0.3882
596.000000 0.4142 0.4282 0.4374 0.4480 0.4612
591.000000 0.5003 0.5112 0.5209 0.5307 0.5404
586.000000 0.5517 0.5631 0.5823 0.5998 0.6081
581.000000 0.6162 0.6246 0.6366 0.6533 0.6644
576.000000 0.6711 0.6778 0.6844 0.6899 0.6945
571.000000 0.6990 0.7036 0.7061 0.7085 0.7110
566.000000 0.7128 0.7138 0.7148 0.7158 0.7171
561.000000 0.7183 0.7193 0.7197 0.7200 0.7203
556.000000 0.7206 0.7208 0.7212 0.7240 0.7268
551.000000 0.7303 0.7337 0.7371 0.7408 0.7453
546.000000 0.7497 0.7543 0.7592 0.7640 0.7687
541.000000 0.7732 0.7749 0.7765 0.7778 0.7783
536.000000 0.7787 0.7791 0.7795 0.7796 0.7796
531.000000 0.7796 0.7795 0.7795 0.7794 0.7795
526.000000 0.7801 0.7806 0.7811 0.7821 0.7838
521.000000 0.7856 0.7872 0.7895 0.7917 0.7938
516.000000 0.7941 0.7918 0.7945 0.7947 0.7949
511.000000 0.7951 0.7954 0.7946 0.7936 0.7925
506.000000 0.7915 0.7905 0.7895 0.7885 0.7875
501.000000 0.7865 0.7851 0.7837 0.7821 0.7808
496.000000 0.7793 0.7778 0.7764 0.7750 0.7735
491.000000 0.7722 0.7711 0.7701 0.7690 0.7678
486.000000 0.7668 0.7657 0.7647 0.7636 0.7625
481.000000 0.7614 0.7601 0.7591 0.7578 0.7567
476.000000 0.7553 0.7539 0.7526 0.7518
##END=
