##TITLE=ACETIC ACID, n-PENTYL ESTER
##JCAMP-DX=4.24
##DATA TYPE=INFRARED SPECTRUM
##CLASS=COBLENTZ III
##ORIGIN=DOW CORNING CORP.
##OWNER=COBLENTZ SOCIETY
Collection (C) 2018 copyright by the U.S. Secretary of Commerce
on behalf of the United States of America. All rights reserved.
##DATE=1966/02/08
##NAMES=pentyl acetate
##CAS REGISTRY NO=628-63-7
##MOLFORM=C7 H14 O2
##SOURCE REFERENCE=COBLENTZ NO. 4801
##$NIST SOURCE=COBLENTZ
##$NIST IMAGE=cob4801
##SPECTROMETER/DATA SYSTEM=PERKIN-ELMER 521 (GRATING)
##INSTRUMENT PARAMETERS=FILTERS AT 3150, 2500, 2000, 1150, 700, 410; GRATING CHANGES AT 2000, 630 CM^-^1
##STATE=SOLUTION (10% IN CCl4 FOR 3800-1300, 10% IN CS2 FOR 1300-650, 10% IN CCl4 FOR 650-250 CM^-^1) VERSUS SOLVENT
##PATH LENGTH=0.012, 0.011, AND 0.010 CM (CsBr CELL)
##SAMPLING PROCEDURE=TRANSMISSION
##RESOLUTION=4
##DATA PROCESSING=DIGITIZED BY NIST FROM HARD COPY (FROM TWO SEGMENTS)
##XUNITS=1/CM
##YUNITS=TRANSMITTANCE
##XFACTOR=1.000000
##YFACTOR=1
##DELTAX=0.985224
##FIRSTX=240.394
##LASTX=3797.05
##FIRSTY=0.737
##MAXX=3797.05
##MINX=240.394
##MAXY=0.888
##MINY=0
##NPOINTS=3611
##XYDATA=(X++(Y..Y))
240.394000 0.7370 0.7410 0.7440 0.7440 0.7450
245.320119 0.7470 0.7500 0.7510 0.7510 0.7520
250.246238 0.7510 0.7510 0.7510 0.7520 0.7520
255.172356 0.7520 0.7540 0.7560 0.7560 0.7580
260.098475 0.7580 0.7580 0.7580 0.7580 0.7590
265.024594 0.7590 0.7590 0.7600 0.7590 0.7590
269.950713 0.7600 0.7600 0.7600 0.7600 0.7600
274.876832 0.7600 0.7600 0.7600 0.7620 0.7620
279.802951 0.7620 0.7620 0.7630 0.7640 0.7660
284.729069 0.7670 0.7670 0.7670 0.7660 0.7660
289.655188 0.7640 0.7640 0.7640 0.7660 0.7680
294.581307 0.7680 0.7720 0.7740 0.7750 0.7750
299.507426 0.7760 0.7780 0.7780 0.7780 0.7790
304.433545 0.7820 0.7840 0.7870 0.7870 0.7880
309.359663 0.7900 0.7910 0.7930 0.7940 0.7950
314.285782 0.7970 0.8010 0.8030 0.8050 0.8070
319.211901 0.8100 0.8110 0.8130 0.8140 0.8150
324.138020 0.8150 0.8150 0.8180 0.8180 0.8210
329.064139 0.8220 0.8250 0.8330 0.8370 0.8410
333.990258 0.8440 0.8440 0.8450 0.8450 0.8450
338.916376 0.8480 0.8520 0.8520 0.8530 0.8530
343.842495 0.8530 0.8540 0.8560 0.8570 0.8570
348.768614 0.8560 0.8560 0.8560 0.8560 0.8560
353.694733 0.8560 0.8540 0.8540 0.8540 0.8540
358.620852 0.8530 0.8530 0.8520 0.8520 0.8520
363.546970 0.8520 0.8530 0.8540 0.8540 0.8560
368.473089 0.8560 0.8570 0.8570 0.8570 0.8560
373.399208 0.8560 0.8540 0.8540 0.8530 0.8530
378.325327 0.8530 0.8540 0.8560 0.8570 0.8570
383.251446 0.8560 0.8540 0.8500 0.8450 0.8450
388.177565 0.8420 0.8340 0.8330 0.8330 0.8330
393.103683 0.8330 0.8310 0.8260 0.8250 0.8250
398.029802 0.8250 0.8220 0.8210 0.8190 0.8190
402.955921 0.8180 0.8180 0.8180 0.8180 0.8190
407.882040 0.8190 0.8190 0.8180 0.8180 0.8130
412.808159 0.8110 0.8110 0.8090 0.8060 0.8050
417.734277 0.8020 0.8020 0.8010 0.8010 0.7970
422.660396 0.7950 0.7950 0.7930 0.7930 0.7910
427.586515 0.7910 0.7880 0.7870 0.7860 0.7840
432.512634 0.7820 0.7800 0.7790 0.7790 0.7790
437.438753 0.7780 0.7780 0.7760 0.7750 0.7750
442.364872 0.7740 0.7720 0.7720 0.7720 0.7720
447.290990 0.7740 0.7750 0.7790 0.7800 0.7820
452.217109 0.7820 0.7820 0.7800 0.7790 0.7790
457.143228 0.7790 0.7800 0.7800 0.7820 0.7830
462.069347 0.7860 0.7870 0.7880 0.7900 0.7930
466.995466 0.7940 0.7940 0.7950 0.7950 0.7940
471.921584 0.7940 0.7930 0.7900 0.7860 0.7830
476.847703 0.7820 0.7790 0.7750 0.7710 0.7670
481.773822 0.7660 0.7660 0.7660 0.7670 0.7680
486.699941 0.7700 0.7710 0.7740 0.7750 0.7790
491.626060 0.7800 0.7830 0.7870 0.7900 0.7910
496.552179 0.7930 0.7940 0.7970 0.7990 0.8010
501.478297 0.8020 0.8030 0.8050 0.8050 0.8050
506.404416 0.8060 0.8060 0.8060 0.8050 0.8050
511.330535 0.8030 0.8030 0.8030 0.8020 0.8020
516.256654 0.8020 0.8030 0.8050 0.8060 0.8070
521.182773 0.8100 0.8110 0.8110 0.8130 0.8130
526.108891 0.8140 0.8150 0.8170 0.8180 0.8210
531.035010 0.8220 0.8230 0.8250 0.8260 0.8270
535.961129 0.8290 0.8300 0.8300 0.8300 0.8300
540.887248 0.8290 0.8290 0.8290 0.8290 0.8270
545.813367 0.8270 0.8260 0.8260 0.8260 0.8250
550.739486 0.8250 0.8230 0.8230 0.8230 0.8250
555.665604 0.8260 0.8270 0.8270 0.8290 0.8290
560.591723 0.8300 0.8300 0.8300 0.8310 0.8310
565.517842 0.8310 0.8310 0.8310 0.8310 0.8300
570.443961 0.8300 0.8300 0.8290 0.8290 0.8290
575.370080 0.8270 0.8270 0.8260 0.8250 0.8250
580.296198 0.8230 0.8230 0.8220 0.8210 0.8180
585.222317 0.8170 0.8150 0.8140 0.8130 0.8070
590.148436 0.8050 0.7980 0.7950 0.7930 0.7830
595.074555 0.7790 0.7760 0.7480 0.7230 0.6970
600.000674 0.6451 0.6290 0.6121 0.5981 0.5811
604.926793 0.5670 0.5520 0.5520 0.5720 0.5920
609.852911 0.6299 0.6569 0.6849 0.7288 0.7429
614.779030 0.7440 0.7500 0.7550 0.7580 0.7580
619.705149 0.7560 0.7540 0.7500 0.7440 0.7430
624.631268 0.7360 0.7290 0.7210 0.7110 0.7010
629.557387 0.6850 0.6820 0.6810 0.6810 0.6820
634.483505 0.6840 0.6850 0.6860 0.6890 0.6920
639.409624 0.6940 0.6970 0.7040 0.7080 0.7130
644.335743 0.7240 0.7430 0.7550 0.7580 0.7600
649.261862 0.7680 0.7720 0.7750 0.7750 0.7760
654.187981 0.7780 0.7880 0.7950 0.7970 0.8030
659.114100 0.8090 0.8130 0.8210 0.8230 0.8270
664.040218 0.8300 0.8310 0.8380 0.8420 0.8440
668.966337 0.8450 0.8450 0.8480 0.8480 0.8480
673.892456 0.8480 0.8490 0.8520 0.8530 0.8540
678.818575 0.8540 0.8540 0.8540 0.8540 0.8560
683.744694 0.8560 0.8560 0.8570 0.8580 0.8580
688.670812 0.8580 0.8580 0.8580 0.8580 0.8580
693.596931 0.8580 0.8600 0.8600 0.8600 0.8600
698.523050 0.8610 0.8610 0.8620 0.8620 0.8640
703.449169 0.8640 0.8650 0.8650 0.8650 0.8650
708.375288 0.8650 0.8650 0.8640 0.8640 0.8620
713.301407 0.8620 0.8610 0.8610 0.8580 0.8570
718.227525 0.8540 0.8520 0.8500 0.8360 0.8300
723.153644 0.8250 0.8170 0.8150 0.8150 0.8190
728.079763 0.8190 0.8250 0.8270 0.8300 0.8310
733.005882 0.8310 0.8310 0.8310 0.8290 0.8290
737.932001 0.8300 0.8330 0.8370 0.8420 0.8440
742.858119 0.8450 0.8450 0.8460 0.8460 0.8480
747.784238 0.8490 0.8500 0.8520 0.8530 0.8530
752.710357 0.8530 0.8500 0.8500 0.8500 0.8490
757.636476 0.8490 0.8480 0.8460 0.8380 0.8340
762.562595 0.8310 0.8230 0.8190 0.8070 0.8030
767.488714 0.8020 0.7930 0.7910 0.7910 0.7930
772.414832 0.7970 0.8020 0.8060 0.8140 0.8270
777.340951 0.8330 0.8410 0.8450 0.8520 0.8530
782.267070 0.8540 0.8540 0.8580 0.8610 0.8620
787.193189 0.8640 0.8640 0.8650 0.8650 0.8640
792.119308 0.8620 0.8610 0.8610 0.8610 0.8600
797.045426 0.8580 0.8580 0.8570 0.8540 0.8520
801.971545 0.8520 0.8500 0.8500 0.8420 0.8400
806.897664 0.8370 0.8330 0.8250 0.8150 0.8050
811.823783 0.7950 0.7930 0.7780 0.7740 0.7600
816.749902 0.7580 0.7560 0.7580 0.7779 0.7820
821.676021 0.7860 0.7970 0.7980 0.7980 0.7990
826.602139 0.8010 0.8010 0.8050 0.8070 0.8090
831.528258 0.8090 0.8070 0.8070 0.8060 0.8060
836.454377 0.8060 0.8070 0.8090 0.8150 0.8180
841.380496 0.8190 0.8190 0.8170 0.8150 0.8130
846.306615 0.8130 0.8090 0.8070 0.8060 0.8050
851.232733 0.8030 0.8030 0.8030 0.8020 0.7990
856.158852 0.7950 0.7950 0.7910 0.7880 0.7830
861.084971 0.7800 0.7790 0.7780 0.7780 0.7780
866.011090 0.7780 0.7780 0.7790 0.7800 0.7830
870.937209 0.7880 0.7900 0.7900 0.7880 0.7880
875.863327 0.7860 0.7840 0.7830 0.7830 0.7790
880.789446 0.7760 0.7630 0.7600 0.7600 0.7590
885.715565 0.7590 0.7590 0.7580 0.7580 0.7560
890.641684 0.7540 0.7510 0.7500 0.7430 0.7430
895.567803 0.7390 0.7360 0.7330 0.7310 0.7280
900.493922 0.7270 0.7250 0.7250 0.7240 0.7230
905.420040 0.7230 0.7210 0.7200 0.7190 0.7170
910.346159 0.7170 0.7160 0.7160 0.7150 0.7130
915.272278 0.7120 0.7120 0.7110 0.7110 0.7120
920.198397 0.7130 0.7190 0.7230 0.7350 0.7370
925.124516 0.7410 0.7450 0.7500 0.7540 0.7580
930.050634 0.7590 0.7590 0.7560 0.7540 0.7520
934.976753 0.7510 0.7480 0.7470 0.7450 0.7440
939.902872 0.7280 0.7250 0.7190 0.7090 0.7080
944.828991 0.7020 0.6930 0.6700 0.6451 0.6300
949.755110 0.6150 0.5960 0.5810 0.5690 0.5670
954.681229 0.5670 0.5690 0.5770 0.5830 0.5870
959.607347 0.5910 0.5980 0.6080 0.6150 0.6160
964.533466 0.6140 0.6070 0.6030 0.6000 0.5980
969.459585 0.5880 0.5860 0.5860 0.5840 0.5840
974.385704 0.5860 0.5860 0.5870 0.5870 0.5880
979.311823 0.5910 0.6060 0.6110 0.6150 0.6230
984.237941 0.6300 0.6370 0.6410 0.6410 0.6390
989.164060 0.6380 0.6340 0.6290 0.6230 0.6180
994.090179 0.6160 0.6120 0.6030 0.5980 0.5980
999.016298 0.5870 0.5750 0.5610 0.5410 0.5260
1003.942417 0.5130 0.5010 0.4741 0.4521 0.4440
1008.868536 0.4269 0.3880 0.3700 0.3460 0.3300
1013.794654 0.3210 0.3020 0.2870 0.2671 0.2521
1018.720773 0.2500 0.2390 0.2280 0.2170 0.2130
1023.646892 0.1980 0.1890 0.1880 0.1850 0.1820
1028.573011 0.1800 0.1760 0.1720 0.1690 0.1680
1033.499130 0.1620 0.1610 0.1590 0.1590 0.1610
1038.425248 0.1620 0.1650 0.1720 0.1730 0.1740
1043.351367 0.1740 0.1730 0.1720 0.1700 0.1690
1048.277486 0.1690 0.1700 0.1730 0.1810 0.1900
1053.203605 0.1970 0.2000 0.2080 0.2269 0.2310
1058.129724 0.2520 0.2640 0.3010 0.3300 0.3580
1063.055843 0.3870 0.4000 0.4180 0.4379 0.4549
1067.981961 0.4620 0.4690 0.4890 0.4910 0.5140
1072.908080 0.5210 0.5240 0.5290 0.5430 0.5490
1077.834199 0.5560 0.5600 0.5690 0.5760 0.5920
1082.760318 0.5980 0.6080 0.6150 0.6160 0.6220
1087.686437 0.6270 0.6290 0.6310 0.6330 0.6350
1092.612555 0.6370 0.6370 0.6330 0.6250 0.6180
1097.538674 0.6040 0.5960 0.5900 0.5830 0.5750
1102.464793 0.5720 0.5720 0.5730 0.5750 0.5760
1107.390912 0.5770 0.5790 0.5800 0.5830 0.5840
1112.317031 0.5840 0.5800 0.5750 0.5640 0.5610
1117.243150 0.5370 0.5180 0.4950 0.4700 0.4480
1122.169268 0.4480 0.4890 0.5010 0.5249 0.5629
1127.095387 0.5760 0.5910 0.6040 0.6180 0.6340
1132.021506 0.6410 0.6460 0.6470 0.6540 0.6610
1136.947625 0.6610 0.6630 0.6720 0.6780 0.6820
1141.873744 0.6850 0.6850 0.6860 0.6880 0.6890
1146.799862 0.6890 0.6900 0.6900 0.6920 0.6920
1151.725981 0.6930 0.6940 0.6960 0.6970 0.6980
1156.652100 0.7000 0.7040 0.7060 0.7080 0.7060
1161.578219 0.7000 0.6920 0.6800 0.6730 0.6590
1166.504338 0.6460 0.6450 0.6460 0.6530 0.6590
1171.430457 0.6730 0.6770 0.6840 0.6850 0.6980
1176.356575 0.7060 0.7090 0.7060 0.7000 0.6940
1181.282694 0.6900 0.6880 0.6840 0.6800 0.6760
1186.208813 0.6650 0.6620 0.6620 0.6590 0.6510
1191.134932 0.6410 0.6310 0.6220 0.6100 0.6020
1196.061051 0.5950 0.5900 0.5710 0.5510 0.5300
1200.987169 0.5130 0.4900 0.4700 0.4620 0.4460
1205.913288 0.4259 0.4000 0.3880 0.3760 0.3410
1210.839407 0.3090 0.2780 0.2620 0.2440 0.2171
1215.765526 0.1840 0.1610 0.1340 0.1150 0.0980
1220.691645 0.0800 0.0640 0.0361 0.0181 0.0100
1225.617764 0.0060 0.0050 0.0040 0.0040 0.0020
1230.543882 0.0010 0.0010 0.0010 0.0000 0.0000
1235.470001 0.0000 0.0000 0.0000 0.0000 0.0000
1240.396120 0.0010 0.0010 0.0020 0.0020 0.0020
1245.322239 0.0040 0.0040 0.0050 0.0050 0.0060
1250.248358 0.0080 0.0090 0.0180 0.0260 0.0280
1255.174476 0.0300 0.0370 0.0480 0.0610 0.0710
1260.100595 0.1000 0.1140 0.1410 0.1470 0.1650
1265.026714 0.1810 0.2000 0.2130 0.2160 0.2190
1269.952833 0.2400 0.2550 0.2710 0.2720 0.2830
1274.878952 0.3010 0.3150 0.3330 0.3450 0.3520
1279.805071 0.3700 0.3790 0.3960 0.4000 0.4150
1284.731189 0.4270 0.4340 0.4470 0.4670 0.4780
1289.657308 0.4930 0.5050 0.5160 0.5250 0.5320
1294.583427 0.5380 0.5440 0.5480 0.5530 0.5570
1299.509546 0.5610 0.5650 0.5690 0.5830 0.5870
1304.435665 0.5880 0.5900 0.6040 0.6100 0.6140
1309.361783 0.6160 0.6300 0.6350 0.6450 0.6500
1314.287902 0.6590 0.6630 0.6660 0.6680 0.6740
1319.214021 0.6800 0.6860 0.6890 0.6900 0.6930
1324.140140 0.6940 0.6970 0.7000 0.7010 0.7020
1329.066259 0.7040 0.7040 0.7040 0.7020 0.7010
1333.992378 0.7000 0.6970 0.6960 0.6940 0.6930
1338.918496 0.6900 0.6850 0.6770 0.6580 0.6570
1343.844615 0.6540 0.6530 0.6410 0.6340 0.6310
1348.770734 0.6160 0.5980 0.5760 0.5481 0.5320
1353.696853 0.5220 0.5100 0.4900 0.4510 0.4320
1358.622972 0.3990 0.3291 0.2751 0.2201 0.1163
1363.549090 0.1070 0.0960 0.0810 0.0690 0.0560
1368.475209 0.0560 0.0590 0.0790 0.0830 0.1109
1373.401328 0.1230 0.1270 0.1420 0.1580 0.1740
1378.327447 0.1890 0.1900 0.1940 0.1980 0.2050
1383.253566 0.2150 0.2330 0.2350 0.2330 0.2310
1388.179685 0.2280 0.2250 0.2270 0.2370 0.2719
1393.105803 0.3011 0.3300 0.3520 0.3890 0.4070
1398.031922 0.4430 0.4789 0.5219 0.5589 0.5799
1402.958041 0.5830 0.5960 0.5990 0.6040 0.6060
1407.884160 0.6080 0.6080 0.6080 0.6070 0.6040
1412.810279 0.6030 0.6020 0.5980 0.5940 0.5910
1417.736397 0.5870 0.5840 0.5770 0.5750 0.5670
1422.662516 0.5610 0.5520 0.5410 0.5280 0.5240
1427.588635 0.5120 0.5040 0.5010 0.4890 0.4690
1432.514754 0.4620 0.4610 0.4610 0.4620 0.4630
1437.440873 0.4650 0.4630 0.4620 0.4580 0.4560
1442.366992 0.4470 0.4460 0.4460 0.4360 0.4260
1447.293110 0.4150 0.4070 0.3920 0.3730 0.3541
1452.219229 0.3420 0.3410 0.3180 0.2970 0.2820
1457.145348 0.2680 0.2550 0.2350 0.2270 0.2200
1462.071467 0.2130 0.2060 0.2000 0.1940 0.1920
1466.997586 0.1920 0.1930 0.2020 0.2090 0.2359
1471.923704 0.2741 0.3131 0.3421 0.3830 0.3990
1476.849823 0.4360 0.4660 0.4820 0.5359 0.5749
1481.775942 0.6071 0.6250 0.6420 0.6510 0.6690
1486.702061 0.6770 0.6890 0.6930 0.7080 0.7090
1491.628180 0.7170 0.7230 0.7240 0.7280 0.7310
1496.554299 0.7350 0.7360 0.7410 0.7430 0.7480
1501.480417 0.7540 0.7550 0.7560 0.7580 0.7580
1506.406536 0.7580 0.7580 0.7590 0.7590 0.7590
1511.332655 0.7590 0.7620 0.7640 0.7670 0.7680
1516.258774 0.7710 0.7710 0.7710 0.7710 0.7710
1521.184893 0.7720 0.7720 0.7720 0.7720 0.7740
1526.111011 0.7740 0.7740 0.7750 0.7750 0.7760
1531.037130 0.7780 0.7790 0.7790 0.7820 0.7830
1535.963249 0.7840 0.7840 0.7840 0.7840 0.7840
1540.889368 0.7860 0.7870 0.7870 0.7870 0.7870
1545.815487 0.7870 0.7880 0.7910 0.7930 0.7940
1550.741606 0.7940 0.7950 0.7950 0.7970 0.7970
1555.667724 0.7980 0.8010 0.8010 0.8020 0.8030
1560.593843 0.8030 0.8030 0.8050 0.8050 0.8050
1565.519962 0.8060 0.8070 0.8070 0.8090 0.8090
1570.446081 0.8100 0.8110 0.8110 0.8090 0.8090
1575.372200 0.8090 0.8100 0.8130 0.8140 0.8150
1580.298318 0.8150 0.8150 0.8150 0.8150 0.8140
1585.224437 0.8140 0.8150 0.8180 0.8180 0.8180
1590.150556 0.8190 0.8190 0.8190 0.8190 0.8190
1595.076675 0.8190 0.8190 0.8190 0.8190 0.8190
1600.002794 0.8190 0.8190 0.8210 0.8210 0.8210
1604.928913 0.8210 0.8220 0.8220 0.8220 0.8220
1609.855031 0.8190 0.8180 0.8180 0.8170 0.8150
1614.781150 0.8150 0.8150 0.8150 0.8150 0.8150
1619.707269 0.8170 0.8170 0.8170 0.8170 0.8170
1624.633388 0.8170 0.8140 0.8140 0.8130 0.8090
1629.559507 0.8050 0.8030 0.8020 0.7990 0.7980
1634.485625 0.7970 0.7970 0.7950 0.7930 0.7860
1639.411744 0.7830 0.7800 0.7780 0.7760 0.7750
1644.337863 0.7710 0.7680 0.7630 0.7630 0.7590
1649.263982 0.7540 0.7400 0.7370 0.7350 0.7330
1654.190101 0.7320 0.7320 0.7320 0.7330 0.7350
1659.116220 0.7370 0.7370 0.7360 0.7360 0.7360
1664.042338 0.7360 0.7350 0.7350 0.7350 0.7330
1668.968457 0.7330 0.7320 0.7320 0.7310 0.7290
1673.894576 0.7270 0.7250 0.7240 0.7210 0.7160
1678.820695 0.7110 0.7020 0.6970 0.6970 0.6920
1683.746814 0.6810 0.6760 0.6760 0.6660 0.6590
1688.672932 0.6569 0.6390 0.6330 0.6190 0.6160
1693.599051 0.6120 0.6030 0.5950 0.5900 0.5810
1698.525170 0.5690 0.5610 0.5510 0.5410 0.5320
1703.451289 0.5260 0.5250 0.5130 0.5050 0.5020
1708.377408 0.4999 0.4850 0.4769 0.4470 0.4400
1713.303527 0.4270 0.4110 0.3890 0.3730 0.3570
1718.229645 0.3299 0.2909 0.2519 0.2040 0.1880
1723.155764 0.1720 0.1370 0.1030 0.0920 0.0800
1728.081883 0.0650 0.0509 0.0290 0.0020 0.0000
1733.008002 0.0000 0.0000 0.0000 0.0000 0.0000
1737.934121 0.0000 0.0000 0.0000 0.0000 0.0000
1742.860239 0.0000 0.0010 0.0010 0.0010 0.0020
1747.786358 0.0020 0.0040 0.0050 0.0060 0.0080
1752.712477 0.0100 0.0140 0.0170 0.0220 0.0330
1757.638596 0.0492 0.0991 0.1251 0.1571 0.2210
1762.564715 0.2430 0.2550 0.2970 0.3260 0.3500
1767.490834 0.3831 0.4031 0.4360 0.4580 0.4910
1772.416952 0.4980 0.5240 0.5360 0.5480 0.5640
1777.343071 0.5760 0.5841 0.6060 0.6160 0.6290
1782.269190 0.6430 0.6500 0.6540 0.6590 0.6650
1787.195309 0.6800 0.6840 0.6850 0.6860 0.6940
1792.121428 0.7000 0.7020 0.7080 0.7120 0.7170
1797.047546 0.7230 0.7240 0.7270 0.7330 0.7400
1801.973665 0.7440 0.7450 0.7480 0.7520 0.7550
1806.899784 0.7560 0.7590 0.7600 0.7640 0.7700
1811.825903 0.7750 0.7760 0.7820 0.7830 0.7840
1816.752022 0.7840 0.7860 0.7870 0.7930 0.7950
1821.678141 0.7950 0.7970 0.7980 0.8030 0.8070
1826.604259 0.8090 0.8100 0.8110 0.8130 0.8150
1831.530378 0.8180 0.8180 0.8190 0.8190 0.8190
1836.456497 0.8190 0.8210 0.8220 0.8250 0.8270
1841.382616 0.8290 0.8300 0.8300 0.8310 0.8310
1846.308735 0.8330 0.8330 0.8340 0.8340 0.8340
1851.234853 0.8340 0.8340 0.8360 0.8360 0.8360
1856.160972 0.8360 0.8360 0.8360 0.8360 0.8370
1861.087091 0.8370 0.8370 0.8370 0.8370 0.8380
1866.013210 0.8380 0.8380 0.8400 0.8400 0.8400
1870.939329 0.8400 0.8400 0.8400 0.8400 0.8400
1875.865448 0.8410 0.8410 0.8410 0.8410 0.8410
1880.791566 0.8410 0.8410 0.8420 0.8420 0.8420
1885.717685 0.8450 0.8450 0.8460 0.8490 0.8500
1890.643804 0.8530 0.8540 0.8560 0.8560 0.8570
1895.569923 0.8570 0.8570 0.8570 0.8570 0.8560
1900.496042 0.8560 0.8560 0.8560 0.8560 0.8560
1905.422160 0.8560 0.8570 0.8570 0.8560 0.8540
1910.348279 0.8540 0.8560 0.8570 0.8580 0.8600
1915.274398 0.8620 0.8610 0.8580 0.8570 0.8570
1920.200517 0.8580 0.8610 0.8610 0.8610 0.8610
1925.126636 0.8610 0.8600 0.8610 0.8610 0.8610
1930.052755 0.8620 0.8620 0.8620 0.8620 0.8610
1934.978873 0.8610 0.8610 0.8600 0.8580 0.8600
1939.904992 0.8600 0.8610 0.8610 0.8610 0.8610
1944.831111 0.8610 0.8600 0.8600 0.8600 0.8600
1949.757230 0.8600 0.8610 0.8610 0.8620 0.8620
1954.683349 0.8620 0.8620 0.8640 0.8640 0.8640
1959.609467 0.8650 0.8650 0.8650 0.8660 0.8680
1964.535586 0.8680 0.8680 0.8680 0.8680 0.8660
1969.461705 0.8660 0.8660 0.8650 0.8650 0.8650
1974.387824 0.8650 0.8660 0.8660 0.8660 0.8700
1979.313943 0.8700 0.8660 0.8660 0.8660 0.8660
1984.240062 0.8660 0.8680 0.8690 0.8700 0.8720
1989.166180 0.8700 0.8700 0.8720 0.8720 0.8730
1994.092299 0.8750 0.8750 0.8730 0.8730 0.8720
1999.018418 0.8690 0.8660 0.8660 0.8660 0.8655
2003.944537 0.8650 0.8650 0.8650 0.8645 0.8640
2008.870656 0.8640 0.8640 0.8640 0.8640 0.8640
2013.796774 0.8640 0.8640 0.8640 0.8645 0.8650
2018.722893 0.8650 0.8650 0.8655 0.8660 0.8669
2023.649012 0.8679 0.8680 0.8680 0.8689 0.8699
2028.575131 0.8700 0.8700 0.8691 0.8681 0.8680
2033.501250 0.8680 0.8671 0.8661 0.8660 0.8660
2038.427368 0.8660 0.8660 0.8660 0.8660 0.8656
2043.353487 0.8651 0.8650 0.8650 0.8650 0.8650
2048.279606 0.8650 0.8650 0.8646 0.8641 0.8640
2053.205725 0.8640 0.8632 0.8622 0.8628 0.8638
2058.131844 0.8632 0.8622 0.8620 0.8620 0.8616
2063.057963 0.8611 0.8610 0.8610 0.8610 0.8610
2067.984081 0.8614 0.8619 0.8620 0.8620 0.8628
2072.910200 0.8638 0.8632 0.8622 0.8628 0.8638
2077.836319 0.8640 0.8640 0.8644 0.8649 0.8650
2082.762438 0.8650 0.8650 0.8650 0.8654 0.8659
2087.688557 0.8660 0.8660 0.8660 0.8660 0.8656
2092.614675 0.8651 0.8646 0.8641 0.8644 0.8649
2097.540794 0.8650 0.8650 0.8639 0.8624 0.8620
2102.466913 0.8620 0.8616 0.8611 0.8610 0.8610
2107.393032 0.8613 0.8618 0.8620 0.8620 0.8620
2112.319151 0.8620 0.8617 0.8612 0.8610 0.8610
2117.245270 0.8610 0.8610 0.8610 0.8610 0.8607
2122.171388 0.8602 0.8600 0.8600 0.8600 0.8600
2127.097507 0.8600 0.8600 0.8594 0.8584 0.8580
2132.023626 0.8580 0.8580 0.8580 0.8580 0.8580
2136.949745 0.8580 0.8580 0.8580 0.8580 0.8580
2141.875864 0.8580 0.8577 0.8572 0.8570 0.8570
2146.801982 0.8570 0.8570 0.8570 0.8570 0.8573
2151.728101 0.8578 0.8580 0.8580 0.8586 0.8596
2156.654220 0.8600 0.8600 0.8594 0.8584 0.8586
2161.580339 0.8596 0.8600 0.8600 0.8603 0.8608
2166.506458 0.8607 0.8602 0.8595 0.8585 0.8585
2171.432577 0.8595 0.8603 0.8608 0.8610 0.8610
2176.358695 0.8610 0.8610 0.8610 0.8610 0.8610
2181.284814 0.8610 0.8610 0.8610 0.8610 0.8610
2186.210933 0.8608 0.8603 0.8602 0.8607 0.8612
2191.137052 0.8617 0.8620 0.8620 0.8624 0.8634
2196.063171 0.8640 0.8640 0.8642 0.8647 0.8650
2200.989289 0.8650 0.8650 0.8650 0.8650 0.8650
2205.915408 0.8650 0.8650 0.8650 0.8650 0.8650
2210.841527 0.8650 0.8652 0.8657 0.8660 0.8660
2215.767646 0.8664 0.8674 0.8682 0.8687 0.8690
2220.693765 0.8690 0.8690 0.8690 0.8690 0.8690
2225.619884 0.8690 0.8690 0.8690 0.8690 0.8688
2230.546002 0.8683 0.8680 0.8680 0.8680 0.8680
2235.472121 0.8680 0.8680 0.8682 0.8687 0.8688
2240.398240 0.8683 0.8677 0.8667 0.8660 0.8660
2245.324359 0.8658 0.8653 0.8648 0.8643 0.8640
2250.250478 0.8640 0.8640 0.8640 0.8637 0.8627
2255.176596 0.8620 0.8620 0.8620 0.8620 0.8620
2260.102715 0.8620 0.8620 0.8620 0.8620 0.8620
2265.028834 0.8623 0.8633 0.8640 0.8640 0.8640
2269.954953 0.8640 0.8640 0.8640 0.8640 0.8640
2274.881072 0.8640 0.8640 0.8640 0.8640 0.8641
2279.807191 0.8646 0.8651 0.8656 0.8656 0.8636
2284.733309 0.8620 0.8620 0.8620 0.8620 0.8620
2289.659428 0.8620 0.8620 0.8620 0.8620 0.8620
2294.585547 0.8620 0.8620 0.8620 0.8620 0.8620
2299.511666 0.8620 0.8620 0.8620 0.8620 0.8620
2304.437785 0.8620 0.8620 0.8620 0.8620 0.8621
2309.363903 0.8631 0.8640 0.8640 0.8641 0.8646
2314.290022 0.8648 0.8633 0.8620 0.8620 0.8620
2319.216141 0.8620 0.8620 0.8620 0.8620 0.8620
2324.142260 0.8620 0.8620 0.8621 0.8631 0.8639
2329.068379 0.8629 0.8620 0.8620 0.8620 0.8620
2333.994498 0.8619 0.8609 0.8600 0.8600 0.8600
2338.920616 0.8605 0.8610 0.8610 0.8610 0.8610
2343.846735 0.8610 0.8615 0.8620 0.8630 0.8640
2348.772854 0.8640 0.8640 0.8640 0.8640 0.8640
2353.698973 0.8640 0.8640 0.8640 0.8640 0.8640
2358.625092 0.8625 0.8610 0.8605 0.8600 0.8600
2363.551210 0.8600 0.8600 0.8600 0.8600 0.8600
2368.477329 0.8605 0.8610 0.8610 0.8610 0.8610
2373.403448 0.8610 0.8610 0.8610 0.8615 0.8620
2378.329567 0.8620 0.8620 0.8611 0.8601 0.8600
2383.255686 0.8600 0.8600 0.8600 0.8591 0.8581
2388.181805 0.8580 0.8580 0.8594 0.8609 0.8610
2393.107923 0.8610 0.8610 0.8610 0.8610 0.8610
2398.034042 0.8606 0.8601 0.8591 0.8581 0.8580
2402.960161 0.8580 0.8576 0.8571 0.8574 0.8579
2407.886280 0.8580 0.8580 0.8580 0.8580 0.8580
2412.812399 0.8580 0.8588 0.8599 0.8600 0.8600
2417.738517 0.8600 0.8600 0.8600 0.8600 0.8600
2422.664636 0.8600 0.8604 0.8609 0.8610 0.8610
2427.590755 0.8610 0.8610 0.8610 0.8610 0.8610
2432.516874 0.8610 0.8606 0.8601 0.8600 0.8600
2437.442993 0.8600 0.8600 0.8592 0.8582 0.8580
2442.369112 0.8580 0.8580 0.8580 0.8580 0.8580
2447.295230 0.8580 0.8580 0.8580 0.8580 0.8576
2452.221349 0.8571 0.8566 0.8561 0.8553 0.8543
2457.147468 0.8540 0.8540 0.8536 0.8531 0.8501
2462.073587 0.8462 0.8446 0.8441 0.8440 0.8440
2466.999706 0.8440 0.8440 0.8443 0.8448 0.8450
2471.925824 0.8450 0.8453 0.8458 0.8460 0.8460
2476.851943 0.8460 0.8460 0.8460 0.8460 0.8453
2481.778062 0.8443 0.8440 0.8440 0.8440 0.8440
2486.704181 0.8440 0.8440 0.8443 0.8448 0.8450
2491.630300 0.8450 0.8462 0.8483 0.8493 0.8498
2496.556419 0.8509 0.8524 0.8533 0.8538 0.8540
2501.482537 0.8540 0.8546 0.8556 0.8560 0.8560
2506.408656 0.8560 0.8560 0.8563 0.8568 0.8570
2511.334775 0.8570 0.8570 0.8570 0.8570 0.8570
2516.260894 0.8570 0.8570 0.8570 0.8570 0.8570
2521.187013 0.8570 0.8570 0.8570 0.8570 0.8570
2526.113131 0.8570 0.8570 0.8570 0.8570 0.8570
2531.039250 0.8570 0.8570 0.8570 0.8570 0.8570
2535.965369 0.8570 0.8570 0.8570 0.8570 0.8570
2540.891488 0.8570 0.8570 0.8570 0.8570 0.8570
2545.817607 0.8568 0.8563 0.8560 0.8560 0.8560
2550.743726 0.8560 0.8560 0.8560 0.8560 0.8560
2555.669844 0.8555 0.8545 0.8540 0.8540 0.8540
2560.595963 0.8540 0.8538 0.8533 0.8530 0.8530
2565.522082 0.8530 0.8530 0.8528 0.8523 0.8520
2570.448201 0.8520 0.8516 0.8506 0.8498 0.8493
2575.374320 0.8490 0.8490 0.8488 0.8483 0.8476
2580.300438 0.8466 0.8458 0.8453 0.8450 0.8450
2585.226557 0.8448 0.8443 0.8440 0.8440 0.8437
2590.152676 0.8427 0.8420 0.8420 0.8416 0.8406
2595.078795 0.8400 0.8400 0.8397 0.8387 0.8378
2600.004914 0.8373 0.8370 0.8370 0.8370 0.8370
2604.931033 0.8372 0.8377 0.8383 0.8393 0.8400
2609.857151 0.8400 0.8400 0.8400 0.8400 0.8400
2614.783270 0.8396 0.8381 0.8370 0.8370 0.8370
2619.709389 0.8370 0.8370 0.8370 0.8369 0.8364
2624.635508 0.8360 0.8360 0.8358 0.8348 0.8339
2629.561627 0.8334 0.8330 0.8330 0.8330 0.8330
2634.487745 0.8330 0.8330 0.8331 0.8336 0.8343
2639.413864 0.8358 0.8371 0.8376 0.8382 0.8392
2644.339983 0.8400 0.8400 0.8400 0.8400 0.8400
2649.266102 0.8400 0.8398 0.8388 0.8378 0.8368
2654.192221 0.8360 0.8360 0.8358 0.8348 0.8340
2659.118340 0.8340 0.8339 0.8334 0.8330 0.8330
2664.044458 0.8329 0.8319 0.8310 0.8310 0.8309
2668.970577 0.8304 0.8299 0.8294 0.8289 0.8279
2673.896696 0.8269 0.8264 0.8260 0.8260 0.8259
2678.822815 0.8254 0.8249 0.8239 0.8230 0.8230
2683.748934 0.8230 0.8230 0.8230 0.8225 0.8220
2688.675052 0.8220 0.8220 0.8215 0.8210 0.8210
2693.601171 0.8210 0.8210 0.8209 0.8199 0.8190
2698.527290 0.8185 0.8180 0.8175 0.8170 0.8160
2703.453409 0.8150 0.8150 0.8150 0.8145 0.8140
2708.379528 0.8125 0.8110 0.8105 0.8100 0.8100
2713.305647 0.8100 0.8085 0.8070 0.8070 0.8070
2718.231765 0.8045 0.8020 0.8005 0.7990 0.7970
2723.157884 0.7950 0.7950 0.7950 0.7940 0.7930
2728.084003 0.7920 0.7910 0.7910 0.7910 0.7910
2733.010122 0.7910 0.7910 0.7910 0.7920 0.7930
2737.936241 0.7930 0.7930 0.7935 0.7940 0.7954
2742.862359 0.7969 0.7979 0.7989 0.7999 0.8009
2747.788478 0.8019 0.8029 0.8048 0.8068 0.8084
2752.714597 0.8099 0.8100 0.8100 0.8100 0.8100
2757.640716 0.8096 0.8091 0.8081 0.8071 0.8070
2762.566835 0.8070 0.8070 0.8070 0.8066 0.8061
2767.492954 0.8056 0.8051 0.8041 0.8031 0.8021
2772.419072 0.8011 0.8001 0.7992 0.7990 0.7990
2777.345191 0.7982 0.7972 0.7962 0.7952 0.7946
2782.271310 0.7941 0.7936 0.7931 0.7922 0.7912
2787.197429 0.7898 0.7883 0.7864 0.7844 0.7840
2792.123548 0.7840 0.7836 0.7831 0.7814 0.7794
2797.049666 0.7774 0.7754 0.7738 0.7723 0.7705
2801.975785 0.7685 0.7672 0.7662 0.7649 0.7634
2806.901904 0.7626 0.7621 0.7609 0.7594 0.7575
2811.828023 0.7555 0.7524 0.7489 0.7462 0.7437
2816.754142 0.7404 0.7370 0.7335 0.7300 0.7272
2821.680261 0.7247 0.7212 0.7172 0.7125 0.7075
2826.606379 0.7057 0.7052 0.7026 0.6991 0.6952
2831.532498 0.6912 0.6824 0.6714 0.6656 0.6621
2836.458617 0.6600 0.6585 0.6490 0.6355 0.6244
2841.384736 0.6144 0.6019 0.5879 0.5795 0.5740
2846.310855 0.5640 0.5516 0.5397 0.5281 0.5176
2851.236973 0.5076 0.4986 0.4901 0.4782 0.4643
2856.163092 0.4516 0.4396 0.4206 0.3972 0.3765
2861.089211 0.3576 0.3297 0.2958 0.2755 0.2646
2866.015330 0.2574 0.2529 0.2478 0.2423 0.2338
2870.941449 0.2234 0.2152 0.2087 0.2014 0.1934
2875.867568 0.1849 0.1759 0.1667 0.1572 0.1530
2880.793686 0.1530 0.1628 0.1807 0.2059 0.2372
2885.719805 0.2684 0.2992 0.3148 0.3163 0.3173
2890.645924 0.3178 0.3169 0.3150 0.3117 0.3072
2895.572043 0.3007 0.2922 0.2847 0.2783 0.2691
2900.498162 0.2571 0.2464 0.2369 0.2294 0.2239
2905.424280 0.2191 0.2151 0.2121 0.2100 0.2083
2910.350399 0.2068 0.2032 0.1972 0.1919 0.1874
2915.276518 0.1820 0.1756 0.1713 0.1698 0.1657
2920.202637 0.1582 0.1499 0.1404 0.1305 0.1201
2925.128756 0.1109 0.1034 0.0988 0.0983 0.0974
2930.054875 0.0959 0.0917 0.0837 0.0759 0.0685
2934.980993 0.0622 0.0577 0.0542 0.0522 0.0510
2939.907112 0.0510 0.0514 0.0524 0.0541 0.0571
2944.833231 0.0614 0.0678 0.0740 0.0795 0.0832
2949.759350 0.0837 0.0835 0.0820 0.0803 0.0783
2954.685469 0.0747 0.0683 0.0611 0.0526 0.0442
2959.611587 0.0357 0.0285 0.0241 0.0193 0.0138
2964.537706 0.0098 0.0093 0.0092 0.0097 0.0106
2969.463825 0.0126 0.0146 0.0166 0.0186 0.0206
2974.389944 0.0236 0.0291 0.0341 0.0381 0.0435
2979.316063 0.0525 0.0645 0.0849 0.1034 0.1163
2984.242182 0.1299 0.1454 0.1615 0.1796 0.1982
2989.168300 0.2181 0.2384 0.2599 0.2816 0.3046
2994.094419 0.3277 0.3516 0.3756 0.4000 0.4242
2999.020538 0.4476 0.4719 0.4993 0.5249 0.5439
3003.946657 0.5618 0.5757 0.5888 0.5984 0.6076
3008.872776 0.6156 0.6232 0.6292 0.6358 0.6453
3013.798894 0.6538 0.6583 0.6623 0.6643 0.6668
3018.725013 0.6718 0.6762 0.6772 0.6789 0.6849
3023.651132 0.6902 0.6917 0.6935 0.6970 0.7004
3028.577251 0.7029 0.7053 0.7073 0.7092 0.7107
3033.503370 0.7128 0.7187 0.7244 0.7279 0.7315
3038.429489 0.7360 0.7403 0.7428 0.7455 0.7505
3043.355607 0.7550 0.7555 0.7560 0.7560 0.7562
3048.281726 0.7582 0.7603 0.7638 0.7673 0.7708
3053.207845 0.7741 0.7751 0.7761 0.7781 0.7802
3058.133964 0.7842 0.7881 0.7906 0.7930 0.7935
3063.060083 0.7940 0.7940 0.7940 0.7945 0.7950
3067.986201 0.7960 0.7970 0.7980 0.7990 0.8000
3072.912320 0.8010 0.8020 0.8030 0.8030 0.8030
3077.838439 0.8040 0.8050 0.8055 0.8060 0.8094
3082.764558 0.8129 0.8135 0.8140 0.8140 0.8140
3087.690677 0.8140 0.8140 0.8140 0.8140 0.8140
3092.616796 0.8140 0.8145 0.8150 0.8164 0.8179
3097.542914 0.8194 0.8209 0.8219 0.8229 0.8239
3102.469033 0.8249 0.8255 0.8260 0.8260 0.8260
3107.395152 0.8265 0.8270 0.8265 0.8260 0.8255
3112.321271 0.8250 0.8241 0.8231 0.8239 0.8249
3117.247390 0.8254 0.8259 0.8278 0.8298 0.8318
3122.173508 0.8337 0.8375 0.8415 0.8429 0.8439
3127.099627 0.8440 0.8440 0.8440 0.8440 0.8431
3132.025746 0.8421 0.8420 0.8420 0.8416 0.8411
3136.951865 0.8410 0.8410 0.8410 0.8410 0.8410
3141.877984 0.8410 0.8410 0.8410 0.8410 0.8410
3146.804103 0.8406 0.8401 0.8400 0.8400 0.8400
3151.730221 0.8400 0.8400 0.8400 0.8400 0.8400
3156.656340 0.8400 0.8400 0.8400 0.8400 0.8404
3161.582459 0.8409 0.8410 0.8410 0.8410 0.8410
3166.508578 0.8410 0.8410 0.8410 0.8410 0.8410
3171.434697 0.8410 0.8414 0.8419 0.8420 0.8420
3176.360815 0.8420 0.8420 0.8420 0.8420 0.8427
3181.286934 0.8437 0.8440 0.8440 0.8440 0.8440
3186.213053 0.8440 0.8440 0.8444 0.8448 0.8450
3191.139172 0.8450 0.8450 0.8450 0.8453 0.8458
3196.065291 0.8467 0.8477 0.8483 0.8488 0.8493
3200.991409 0.8498 0.8507 0.8516 0.8523 0.8528
3205.917528 0.8530 0.8530 0.8533 0.8538 0.8540
3210.843647 0.8540 0.8546 0.8556 0.8560 0.8560
3215.769766 0.8560 0.8560 0.8560 0.8560 0.8563
3220.695885 0.8568 0.8570 0.8570 0.8573 0.8578
3225.622004 0.8580 0.8580 0.8580 0.8580 0.8589
3230.548122 0.8604 0.8613 0.8618 0.8620 0.8620
3235.474241 0.8620 0.8620 0.8626 0.8636 0.8640
3240.400360 0.8640 0.8640 0.8640 0.8643 0.8648
3245.326479 0.8650 0.8650 0.8650 0.8650 0.8650
3250.252598 0.8650 0.8650 0.8650 0.8653 0.8658
3255.178716 0.8665 0.8675 0.8680 0.8680 0.8680
3260.104835 0.8680 0.8680 0.8680 0.8680 0.8680
3265.030954 0.8680 0.8680 0.8675 0.8665 0.8660
3269.957073 0.8660 0.8660 0.8660 0.8658 0.8653
3274.883192 0.8650 0.8650 0.8650 0.8650 0.8650
3279.809311 0.8650 0.8650 0.8650 0.8652 0.8657
3284.735429 0.8660 0.8660 0.8664 0.8674 0.8680
3289.661548 0.8680 0.8682 0.8687 0.8688 0.8683
3294.587667 0.8680 0.8680 0.8680 0.8680 0.8680
3299.513786 0.8680 0.8680 0.8680 0.8676 0.8666
3304.439905 0.8658 0.8653 0.8648 0.8643 0.8636
3309.366023 0.8626 0.8620 0.8620 0.8620 0.8620
3314.292142 0.8620 0.8620 0.8620 0.8620 0.8620
3319.218261 0.8620 0.8623 0.8633 0.8640 0.8640
3324.144380 0.8637 0.8627 0.8618 0.8613 0.8610
3329.070499 0.8610 0.8610 0.8610 0.8611 0.8616
3333.996618 0.8620 0.8620 0.8620 0.8620 0.8620
3338.922736 0.8620 0.8623 0.8633 0.8640 0.8640
3343.848855 0.8637 0.8627 0.8619 0.8614 0.8610
3348.774974 0.8610 0.8610 0.8610 0.8610 0.8610
3353.701093 0.8610 0.8610 0.8611 0.8616 0.8620
3358.627212 0.8620 0.8619 0.8614 0.8610 0.8610
3363.553330 0.8610 0.8610 0.8610 0.8610 0.8610
3368.479449 0.8610 0.8610 0.8610 0.8610 0.8610
3373.405568 0.8610 0.8610 0.8610 0.8610 0.8610
3378.331687 0.8610 0.8611 0.8616 0.8620 0.8620
3383.257806 0.8619 0.8614 0.8610 0.8610 0.8609
3388.183925 0.8604 0.8600 0.8600 0.8600 0.8600
3393.110043 0.8600 0.8600 0.8600 0.8600 0.8600
3398.036162 0.8600 0.8601 0.8605 0.8610 0.8604
3402.962281 0.8600 0.8600 0.8599 0.8589 0.8580
3407.888400 0.8580 0.8580 0.8580 0.8580 0.8580
3412.814519 0.8580 0.8580 0.8580 0.8580 0.8580
3417.740637 0.8580 0.8580 0.8580 0.8580 0.8580
3422.666756 0.8580 0.8575 0.8570 0.8570 0.8569
3427.592875 0.8554 0.8539 0.8519 0.8500 0.8495
3432.518994 0.8490 0.8490 0.8490 0.8475 0.8460
3437.445113 0.8440 0.8420 0.8400 0.8380 0.8370
3442.371232 0.8360 0.8325 0.8290 0.8280 0.8270
3447.297350 0.8260 0.8250 0.8235 0.8220 0.8206
3452.223469 0.8191 0.8166 0.8141 0.8126 0.8111
3457.149588 0.8110 0.8110 0.8105 0.8100 0.8100
3462.075707 0.8100 0.8100 0.8100 0.8100 0.8100
3467.001826 0.8105 0.8110 0.8124 0.8139 0.8154
3471.927944 0.8169 0.8188 0.8208 0.8228 0.8248
3476.854063 0.8268 0.8288 0.8321 0.8356 0.8386
3481.780182 0.8417 0.8429 0.8439 0.8440 0.8440
3486.706301 0.8444 0.8449 0.8454 0.8459 0.8473
3491.632420 0.8488 0.8494 0.8499 0.8508 0.8518
3496.558539 0.8524 0.8529 0.8534 0.8539 0.8548
3501.484657 0.8558 0.8560 0.8560 0.8552 0.8542
3506.410776 0.8536 0.8531 0.8530 0.8530 0.8530
3511.336895 0.8530 0.8530 0.8530 0.8530 0.8530
3516.263014 0.8530 0.8530 0.8526 0.8521 0.8512
3521.189133 0.8502 0.8496 0.8491 0.8490 0.8490
3526.115251 0.8490 0.8490 0.8490 0.8490 0.8479
3531.041370 0.8464 0.8456 0.8451 0.8450 0.8450
3535.967489 0.8446 0.8441 0.8440 0.8440 0.8440
3540.893608 0.8440 0.8440 0.8440 0.8440 0.8440
3545.819727 0.8440 0.8440 0.8444 0.8448 0.8450
3550.745846 0.8450 0.8450 0.8450 0.8453 0.8458
3555.671964 0.8470 0.8485 0.8490 0.8490 0.8493
3560.598083 0.8498 0.8510 0.8525 0.8530 0.8530
3565.524202 0.8530 0.8530 0.8533 0.8538 0.8540
3570.450321 0.8540 0.8540 0.8540 0.8546 0.8556
3575.376440 0.8563 0.8568 0.8579 0.8594 0.8606
3580.302558 0.8616 0.8629 0.8644 0.8653 0.8658
3585.228677 0.8669 0.8684 0.8690 0.8690 0.8693
3590.154796 0.8698 0.8700 0.8700 0.8706 0.8716
3595.080915 0.8720 0.8720 0.8723 0.8728 0.8730
3600.007034 0.8730 0.8730 0.8730 0.8730 0.8730
3604.933153 0.8727 0.8722 0.8720 0.8720 0.8720
3609.859271 0.8720 0.8715 0.8705 0.8697 0.8692
3614.785390 0.8690 0.8690 0.8690 0.8690 0.8683
3619.711509 0.8667 0.8657 0.8652 0.8648 0.8643
3624.637628 0.8640 0.8640 0.8640 0.8640 0.8640
3629.563747 0.8640 0.8635 0.8625 0.8618 0.8613
3634.489865 0.8610 0.8610 0.8610 0.8610 0.8617
3639.415984 0.8632 0.8642 0.8647 0.8661 0.8686
3644.342103 0.8713 0.8743 0.8760 0.8760 0.8762
3649.268222 0.8767 0.8770 0.8770 0.8770 0.8770
3654.194341 0.8770 0.8770 0.8770 0.8770 0.8774
3659.120460 0.8784 0.8792 0.8797 0.8800 0.8800
3664.046578 0.8800 0.8800 0.8798 0.8793 0.8785
3668.972697 0.8770 0.8760 0.8760 0.8760 0.8760
3673.898816 0.8760 0.8760 0.8760 0.8760 0.8760
3678.824935 0.8760 0.8760 0.8760 0.8762 0.8767
3683.751054 0.8770 0.8770 0.8770 0.8770 0.8770
3688.677172 0.8770 0.8773 0.8783 0.8790 0.8790
3693.603291 0.8791 0.8796 0.8800 0.8800 0.8801
3698.529410 0.8806 0.8813 0.8823 0.8831 0.8836
3703.455529 0.8840 0.8840 0.8840 0.8840 0.8841
3708.381648 0.8846 0.8850 0.8850 0.8852 0.8862
3713.307767 0.8870 0.8870 0.8870 0.8870 0.8870
3718.233885 0.8870 0.8870 0.8870 0.8871 0.8876
3723.160004 0.8880 0.8880 0.8880 0.8880 0.8880
3728.086123 0.8880 0.8880 0.8880 0.8880 0.8880
3733.012242 0.8880 0.8880 0.8880 0.8880 0.8880
3737.938361 0.8880 0.8880 0.8880 0.8880 0.8880
3742.864479 0.8880 0.8880 0.8879 0.8874 0.8870
3747.790598 0.8870 0.8870 0.8870 0.8870 0.8870
3752.716717 0.8869 0.8859 0.8849 0.8844 0.8840
3757.642836 0.8840 0.8841 0.8846 0.8850 0.8850
3762.568955 0.8850 0.8850 0.8850 0.8845 0.8840
3767.495074 0.8840 0.8840 0.8840 0.8840 0.8840
3772.421192 0.8840 0.8835 0.8830 0.8830 0.8830
3777.347311 0.8835 0.8840 0.8845 0.8850 0.8850
3782.273430 0.8850 0.8850 0.8850 0.8860 0.8870
3787.199549 0.8870 0.8870 0.8870 0.8870 0.8870
3792.125668 0.8870 0.8870 0.8870 0.8870 0.8870
3797.051786 0.8870
##END=
