##TITLE=1,4-CYCLOHEXADIENE
##JCAMP-DX=4.24
##DATA TYPE=INFRARED SPECTRUM
##CLASS=COBLENTZ
##ORIGIN=ELPASO NATURAL GAS PRODUCTS COMPANY
##OWNER=COBLENTZ SOCIETY
Collection (C) 2018 copyright by the U.S. Secretary of Commerce
on behalf of the United States of America. All rights reserved.
##DATE=Not specified, most likely prior to 1970
##CAS REGISTRY NO=628-41-1
##MOLFORM=C6 H8
##SOURCE REFERENCE=COBLENTZ NO. 2522
##$NIST SOURCE=COBLENTZ
##$NIST IMAGE=cob2522
##SPECTROMETER/DATA SYSTEM=Not specified, most likely a prism, grating, or hybrid spectrometer.
##STATE=LIQUID
##PATH LENGTH=0.0025 CM
##SAMPLING PROCEDURE=TRANSMISSION
##RESOLUTION=4
##DATA PROCESSING=DIGITIZED BY NIST FROM HARD COPY (FROM TWO SEGMENTS)
##XUNITS=1/CM
##YUNITS=TRANSMITTANCE
##XFACTOR=1.000000
##YFACTOR=1
##DELTAX=0.993886
##FIRSTX=674.159
##LASTX=4963.77
##FIRSTY=0.612
##MAXX=4963.77
##MINX=674.159
##MAXY=0.884
##MINY=0.18
##NPOINTS=4317
##XYDATA=(X++(Y..Y))
674.159000 0.6120 0.6260 0.6400 0.6460 0.6121
679.128428 0.6259 0.6399 0.6460 0.6599 0.6650
684.097857 0.6700 0.6750 0.6830 0.6910 0.6990
689.067285 0.7020 0.7070 0.7110 0.7180 0.7190
694.036714 0.7230 0.7290 0.7310 0.7340 0.7380
699.006142 0.7390 0.7450 0.7470 0.7490 0.7500
703.975571 0.7510 0.7540 0.7580 0.7580 0.7590
708.944999 0.7630 0.7640 0.7700 0.7720 0.7740
713.914428 0.7780 0.7800 0.7840 0.7880 0.7900
718.883856 0.7910 0.7920 0.7950 0.7980 0.7990
723.853285 0.8000 0.8020 0.8030 0.8040 0.8060
728.822713 0.8070 0.8080 0.8100 0.8110 0.8120
733.792142 0.8150 0.8180 0.8190 0.8190 0.8200
738.761570 0.8200 0.8220 0.8230 0.8240 0.8260
743.730999 0.8260 0.8280 0.8280 0.8280 0.8300
748.700427 0.8310 0.8310 0.8310 0.8320 0.8330
753.669856 0.8330 0.8350 0.8360 0.8370 0.8370
758.639284 0.8390 0.8390 0.8400 0.8400 0.8400
763.608713 0.8410 0.8410 0.8430 0.8430 0.8430
768.578141 0.8440 0.8440 0.8440 0.8440 0.8440
773.547570 0.8440 0.8440 0.8440 0.8440 0.8450
778.516998 0.8450 0.8450 0.8470 0.8470 0.8470
783.486426 0.8480 0.8480 0.8480 0.8480 0.8480
788.455855 0.8470 0.8450 0.8450 0.8440 0.8430
793.425283 0.8430 0.8410 0.8400 0.8400 0.8400
798.394712 0.8390 0.8390 0.8390 0.8390 0.8390
803.364140 0.8400 0.8400 0.8410 0.8410 0.8430
808.333569 0.8430 0.8440 0.8450 0.8480 0.8480
813.302997 0.8490 0.8490 0.8490 0.8520 0.8530
818.272426 0.8530 0.8550 0.8550 0.8560 0.8570
823.241854 0.8570 0.8590 0.8590 0.8600 0.8600
828.211283 0.8600 0.8600 0.8600 0.8610 0.8610
833.180711 0.8610 0.8630 0.8630 0.8630 0.8630
838.150140 0.8630 0.8630 0.8630 0.8630 0.8630
843.119568 0.8630 0.8630 0.8630 0.8630 0.8610
848.088997 0.8610 0.8610 0.8600 0.8600 0.8600
853.058425 0.8600 0.8600 0.8600 0.8600 0.8590
858.027854 0.8590 0.8590 0.8570 0.8530 0.8520
862.997282 0.8520 0.8510 0.8490 0.8490 0.8450
867.966711 0.8400 0.8390 0.8320 0.8300 0.8201
872.936139 0.8110 0.8020 0.7920 0.7750 0.7561
877.905568 0.7381 0.7231 0.6454 0.5595 0.5312
882.874996 0.4550 0.4100 0.3780 0.3570 0.3570
887.844425 0.4905 0.5477 0.6047 0.6448 0.6847
892.813853 0.7290 0.7540 0.7710 0.7880 0.7960
897.783281 0.8060 0.8140 0.8220 0.8260 0.8300
902.752710 0.8300 0.8310 0.8330 0.8350 0.8360
907.722138 0.8360 0.8390 0.8390 0.8390 0.8390
912.691567 0.8400 0.8400 0.8400 0.8400 0.8390
917.660995 0.8390 0.8390 0.8390 0.8370 0.8360
922.630424 0.8350 0.8320 0.8310 0.8300 0.8300
927.599852 0.8240 0.8220 0.8200 0.8180 0.8120
932.569281 0.8060 0.8020 0.7980 0.7840 0.7750
937.538709 0.7670 0.7511 0.7351 0.7330 0.7330
942.508138 0.7230 0.7180 0.7020 0.6910 0.6501
947.477566 0.6291 0.5961 0.5721 0.5352 0.4754
952.446995 0.4400 0.4010 0.3100 0.3100 0.2731
957.416423 0.2431 0.2111 0.1911 0.1801 0.1800
962.385852 0.2091 0.3120 0.3340 0.3550 0.4418
967.355280 0.4749 0.5069 0.5628 0.6008 0.6408
972.324709 0.6650 0.6740 0.6820 0.7010 0.7140
977.294137 0.7250 0.7380 0.7450 0.7520 0.7619
982.263566 0.7680 0.7700 0.7750 0.7820 0.7860
987.232994 0.7900 0.7940 0.7960 0.8000 0.8020
992.202423 0.8030 0.8100 0.8110 0.8120 0.8140
997.171851 0.8150 0.8160 0.8180 0.8200 0.8220
1002.141279 0.8230 0.8230 0.8240 0.8240 0.8240
1007.110708 0.8240 0.8240 0.8240 0.8240 0.8240
1012.080136 0.8240 0.8240 0.8240 0.8240 0.8240
1017.049565 0.8240 0.8240 0.8240 0.8240 0.8230
1022.018993 0.8230 0.8230 0.8230 0.8230 0.8220
1026.988422 0.8220 0.8220 0.8220 0.8200 0.8200
1031.957850 0.8200 0.8200 0.8200 0.8200 0.8220
1036.927279 0.8230 0.8240 0.8260 0.8270 0.8280
1041.896707 0.8280 0.8300 0.8300 0.8310 0.8310
1046.866136 0.8320 0.8320 0.8320 0.8330 0.8330
1051.835564 0.8330 0.8350 0.8360 0.8360 0.8360
1056.804993 0.8360 0.8370 0.8370 0.8370 0.8370
1061.774421 0.8370 0.8370 0.8370 0.8370 0.8370
1066.743850 0.8370 0.8370 0.8370 0.8370 0.8370
1071.713278 0.8370 0.8370 0.8370 0.8370 0.8370
1076.682707 0.8390 0.8390 0.8390 0.8390 0.8390
1081.652135 0.8390 0.8390 0.8390 0.8390 0.8390
1086.621564 0.8390 0.8390 0.8400 0.8400 0.8400
1091.590992 0.8400 0.8410 0.8410 0.8410 0.8410
1096.560421 0.8410 0.8410 0.8410 0.8410 0.8410
1101.529849 0.8430 0.8430 0.8430 0.8430 0.8430
1106.499277 0.8440 0.8450 0.8450 0.8450 0.8470
1111.468706 0.8470 0.8470 0.8470 0.8470 0.8480
1116.438134 0.8490 0.8490 0.8510 0.8510 0.8510
1121.407563 0.8510 0.8510 0.8510 0.8510 0.8510
1126.376991 0.8510 0.8510 0.8510 0.8510 0.8520
1131.346420 0.8520 0.8510 0.8510 0.8510 0.8510
1136.315848 0.8520 0.8520 0.8520 0.8530 0.8530
1141.285277 0.8510 0.8510 0.8510 0.8510 0.8490
1146.254705 0.8490 0.8480 0.8450 0.8440 0.8430
1151.224134 0.8400 0.8400 0.8320 0.8220 0.8190
1156.193562 0.8140 0.8070 0.8040 0.8040 0.8070
1161.162991 0.8100 0.8160 0.8230 0.8270 0.8310
1166.132419 0.8330 0.8360 0.8400 0.8410 0.8410
1171.101848 0.8440 0.8440 0.8470 0.8470 0.8470
1176.071276 0.8490 0.8490 0.8490 0.8490 0.8480
1181.040705 0.8480 0.8480 0.8480 0.8480 0.8480
1186.010133 0.8480 0.8470 0.8450 0.8450 0.8450
1190.979562 0.8450 0.8440 0.8430 0.8430 0.8410
1195.948990 0.8410 0.8400 0.8400 0.8400 0.8400
1200.918419 0.8400 0.8400 0.8400 0.8410 0.8410
1205.887847 0.8430 0.8450 0.8490 0.8490 0.8510
1210.857276 0.8520 0.8520 0.8520 0.8530 0.8560
1215.826704 0.8590 0.8600 0.8610 0.8610 0.8610
1220.796132 0.8610 0.8610 0.8630 0.8630 0.8630
1225.765561 0.8630 0.8630 0.8640 0.8640 0.8640
1230.734989 0.8640 0.8650 0.8650 0.8650 0.8680
1235.704418 0.8680 0.8690 0.8690 0.8690 0.8690
1240.673846 0.8690 0.8690 0.8690 0.8690 0.8690
1245.643275 0.8690 0.8690 0.8690 0.8680 0.8680
1250.612703 0.8680 0.8670 0.8650 0.8640 0.8630
1255.582132 0.8610 0.8600 0.8600 0.8600 0.8590
1260.551560 0.8590 0.8590 0.8600 0.8600 0.8630
1265.520989 0.8640 0.8650 0.8680 0.8690 0.8690
1270.490417 0.8690 0.8690 0.8710 0.8710 0.8710
1275.459846 0.8710 0.8710 0.8710 0.8710 0.8710
1280.429274 0.8710 0.8690 0.8690 0.8690 0.8710
1285.398703 0.8710 0.8710 0.8710 0.8710 0.8710
1290.368131 0.8710 0.8710 0.8710 0.8710 0.8710
1295.337560 0.8710 0.8710 0.8710 0.8710 0.8710
1300.306988 0.8710 0.8690 0.8680 0.8680 0.8680
1305.276417 0.8680 0.8690 0.8680 0.8670 0.8650
1310.245845 0.8650 0.8640 0.8640 0.8630 0.8630
1315.215274 0.8610 0.8610 0.8610 0.8600 0.8600
1320.184702 0.8610 0.8610 0.8600 0.8560 0.8550
1325.154130 0.8530 0.8520 0.8520 0.8520 0.8520
1330.123559 0.8510 0.8510 0.8480 0.8470 0.8470
1335.092987 0.8470 0.8470 0.8440 0.8430 0.8410
1340.062416 0.8400 0.8390 0.8280 0.8230 0.8200
1345.031844 0.8190 0.8100 0.8020 0.7920 0.7840
1350.001273 0.7790 0.7740 0.7710 0.7710 0.7710
1354.970701 0.7720 0.7740 0.7750 0.7750 0.7740
1359.940130 0.7710 0.7710 0.7720 0.7790 0.7830
1364.909558 0.7900 0.7940 0.8020 0.8100 0.8120
1369.878987 0.8150 0.8220 0.8240 0.8260 0.8270
1374.848415 0.8300 0.8320 0.8320 0.8330 0.8350
1379.817844 0.8360 0.8370 0.8390 0.8400 0.8410
1384.787272 0.8430 0.8430 0.8430 0.8430 0.8430
1389.756701 0.8430 0.8430 0.8430 0.8430 0.8430
1394.726129 0.8410 0.8400 0.8400 0.8360 0.8300
1399.695558 0.8220 0.8110 0.8000 0.7870 0.7800
1404.664986 0.7590 0.7301 0.7091 0.7060 0.7070
1409.634415 0.7140 0.7310 0.7540 0.7630 0.7700
1414.603843 0.7710 0.7710 0.7710 0.7630 0.7600
1419.573272 0.7490 0.7350 0.7220 0.7060 0.6651
1424.542700 0.6301 0.5931 0.5631 0.5312 0.4803
1429.512128 0.4660 0.4660 0.4920 0.5170 0.5410
1434.481557 0.5899 0.6219 0.6579 0.6938 0.7417
1439.450985 0.7670 0.7820 0.7960 0.8060 0.8110
1444.420414 0.8150 0.8200 0.8260 0.8300 0.8310
1449.389842 0.8320 0.8330 0.8400 0.8410 0.8410
1454.359271 0.8430 0.8440 0.8440 0.8450 0.8490
1459.328699 0.8520 0.8530 0.8570 0.8590 0.8600
1464.298128 0.8610 0.8630 0.8630 0.8640 0.8640
1469.267556 0.8650 0.8650 0.8650 0.8650 0.8650
1474.236985 0.8650 0.8650 0.8650 0.8670 0.8670
1479.206413 0.8670 0.8710 0.8710 0.8720 0.8720
1484.175842 0.8720 0.8730 0.8730 0.8750 0.8750
1489.145270 0.8760 0.8760 0.8760 0.8770 0.8790
1494.114699 0.8790 0.8770 0.8770 0.8770 0.8770
1499.084127 0.8770 0.8770 0.8770 0.8770 0.8770
1504.053556 0.8770 0.8770 0.8770 0.8770 0.8770
1509.022984 0.8770 0.8770 0.8770 0.8770 0.8770
1513.992413 0.8770 0.8760 0.8760 0.8770 0.8790
1518.961841 0.8790 0.8790 0.8790 0.8790 0.8790
1523.931270 0.8790 0.8790 0.8790 0.8790 0.8790
1528.900698 0.8790 0.8790 0.8790 0.8790 0.8790
1533.870127 0.8790 0.8770 0.8770 0.8770 0.8770
1538.839555 0.8770 0.8790 0.8790 0.8790 0.8790
1543.808983 0.8790 0.8790 0.8790 0.8790 0.8790
1548.778412 0.8790 0.8790 0.8770 0.8770 0.8770
1553.747840 0.8760 0.8750 0.8750 0.8750 0.8730
1558.717269 0.8730 0.8730 0.8730 0.8720 0.8710
1563.686697 0.8710 0.8690 0.8690 0.8690 0.8690
1568.656126 0.8680 0.8670 0.8650 0.8650 0.8650
1573.625554 0.8650 0.8670 0.8690 0.8690 0.8690
1578.594983 0.8680 0.8670 0.8650 0.8610 0.8610
1583.564411 0.8610 0.8600 0.8600 0.8560 0.8530
1588.533840 0.8520 0.8490 0.8490 0.8490 0.8410
1593.503268 0.8400 0.8400 0.8400 0.8320 0.8310
1598.472697 0.8300 0.8270 0.8240 0.8220 0.8200
1603.442125 0.8200 0.8180 0.8160 0.8150 0.8150
1608.411554 0.8160 0.8160 0.8190 0.8200 0.8200
1613.380982 0.8220 0.8220 0.8240 0.8260 0.8260
1618.350411 0.8220 0.8220 0.8220 0.8230 0.8240
1623.319839 0.8240 0.8230 0.8220 0.8200 0.8160
1628.289268 0.8100 0.8020 0.7920 0.7800 0.7720
1633.258696 0.7600 0.7420 0.7051 0.6412 0.6062
1638.228125 0.6050 0.6060 0.6420 0.6620 0.6820
1643.197553 0.7189 0.7310 0.7499 0.7739 0.7939
1648.166981 0.8000 0.8030 0.8100 0.8140 0.8190
1653.136410 0.8230 0.8260 0.8280 0.8260 0.8240
1658.105838 0.8220 0.8220 0.8190 0.8110 0.8080
1663.075267 0.8060 0.8000 0.7990 0.7990 0.7910
1668.044695 0.7900 0.7900 0.7900 0.7900 0.7920
1673.014124 0.7990 0.8000 0.8030 0.8100 0.8120
1677.983552 0.8190 0.8190 0.8220 0.8300 0.8330
1682.952981 0.8370 0.8390 0.8400 0.8430 0.8480
1687.922409 0.8490 0.8520 0.8550 0.8560 0.8560
1692.891838 0.8590 0.8590 0.8600 0.8610 0.8610
1697.861266 0.8630 0.8630 0.8650 0.8680 0.8690
1702.830695 0.8690 0.8710 0.8710 0.8710 0.8710
1707.800123 0.8720 0.8710 0.8720 0.8720 0.8720
1712.769552 0.8730 0.8730 0.8730 0.8750 0.8750
1717.738980 0.8750 0.8760 0.8760 0.8760 0.8760
1722.708409 0.8760 0.8760 0.8760 0.8760 0.8760
1727.677837 0.8760 0.8760 0.8760 0.8760 0.8760
1732.647266 0.8760 0.8760 0.8760 0.8750 0.8750
1737.616694 0.8750 0.8750 0.8750 0.8750 0.8760
1742.586123 0.8760 0.8760 0.8760 0.8760 0.8760
1747.555551 0.8770 0.8770 0.8790 0.8790 0.8790
1752.524979 0.8790 0.8790 0.8790 0.8790 0.8790
1757.494408 0.8790 0.8790 0.8800 0.8790 0.8790
1762.463836 0.8810 0.8810 0.8830 0.8830 0.8830
1767.433265 0.8830 0.8830 0.8830 0.8810 0.8810
1772.402693 0.8810 0.8810 0.8830 0.8840 0.8840
1777.372122 0.8840 0.8830 0.8830 0.8830 0.8810
1782.341550 0.8810 0.8830 0.8830 0.8830 0.8810
1787.310979 0.8810 0.8800 0.8800 0.8810 0.8810
1792.280407 0.8810 0.8810 0.8810 0.8810 0.8810
1797.249836 0.8830 0.8830 0.8840 0.8830 0.8810
1802.219264 0.8810 0.8810 0.8810 0.8800 0.8800
1807.188693 0.8800 0.8800 0.8800 0.8790 0.8790
1812.158121 0.8790 0.8790 0.8790 0.8790 0.8790
1817.127550 0.8790 0.8800 0.8800 0.8800 0.8790
1822.096978 0.8770 0.8770 0.8790 0.8790 0.8790
1827.066407 0.8790 0.8790 0.8790 0.8790 0.8790
1832.035835 0.8790 0.8790 0.8790 0.8770 0.8770
1837.005264 0.8770 0.8770 0.8770 0.8770 0.8770
1841.974692 0.8790 0.8790 0.8790 0.8790 0.8800
1846.944121 0.8790 0.8790 0.8790 0.8790 0.8790
1851.913549 0.8790 0.8790 0.8770 0.8760 0.8760
1856.882978 0.8760 0.8760 0.8760 0.8760 0.8730
1861.852406 0.8720 0.8710 0.8710 0.8710 0.8710
1866.821834 0.8690 0.8690 0.8650 0.8650 0.8630
1871.791263 0.8600 0.8590 0.8590 0.8590 0.8560
1876.760691 0.8550 0.8520 0.8510 0.8480 0.8480
1881.730120 0.8470 0.8470 0.8470 0.8450 0.8450
1886.699548 0.8450 0.8450 0.8470 0.8480 0.8490
1891.668977 0.8490 0.8510 0.8530 0.8550 0.8560
1896.638405 0.8590 0.8590 0.8590 0.8600 0.8600
1901.607834 0.8600 0.8600 0.8610 0.8610 0.8600
1906.577262 0.8590 0.8570 0.8560 0.8550 0.8520
1911.546691 0.8510 0.8510 0.8490 0.8490 0.8490
1916.516119 0.8490 0.8490 0.8510 0.8530 0.8560
1921.485548 0.8590 0.8600 0.8600 0.8610 0.8610
1926.454976 0.8610 0.8610 0.8610 0.8610 0.8610
1931.424405 0.8600 0.8600 0.8600 0.8600 0.8590
1936.393833 0.8590 0.8600 0.8600 0.8610 0.8610
1941.363262 0.8630 0.8630 0.8630 0.8630 0.8650
1946.332690 0.8650 0.8650 0.8650 0.8680 0.8680
1951.302119 0.8690 0.8710 0.8710 0.8710 0.8710
1956.271547 0.8710 0.8710 0.8710 0.8710 0.8710
1961.240976 0.8710 0.8710 0.8710 0.8710 0.8710
1966.210404 0.8710 0.8710 0.8710 0.8710 0.8720
1971.179832 0.8720 0.8730 0.8730 0.8710 0.8710
1976.149261 0.8720 0.8730 0.8750 0.8750 0.8730
1981.118689 0.8710 0.8710 0.8710 0.8710 0.8710
1986.088118 0.8710 0.8710 0.8710 0.8710 0.8730
1991.057546 0.8750 0.8750 0.8730 0.8730 0.8710
1996.026975 0.8710 0.8710 0.8710 0.8720 0.8720
2000.996403 0.8722 0.8725 0.8728 0.8730 0.8730
2005.965832 0.8730 0.8730 0.8730 0.8730 0.8730
2010.935260 0.8730 0.8730 0.8730 0.8730 0.8730
2015.904689 0.8730 0.8728 0.8725 0.8723 0.8720
2020.874117 0.8720 0.8720 0.8720 0.8720 0.8718
2025.843546 0.8715 0.8713 0.8710 0.8710 0.8710
2030.812974 0.8710 0.8710 0.8712 0.8715 0.8717
2035.782403 0.8720 0.8727 0.8735 0.8743 0.8750
2040.751831 0.8750 0.8750 0.8750 0.8750 0.8750
2045.721260 0.8750 0.8750 0.8750 0.8750 0.8750
2050.690688 0.8750 0.8750 0.8742 0.8735 0.8727
2055.660117 0.8720 0.8720 0.8720 0.8720 0.8720
2060.629545 0.8720 0.8720 0.8720 0.8720 0.8720
2065.598974 0.8720 0.8720 0.8720 0.8722 0.8725
2070.568402 0.8727 0.8730 0.8735 0.8740 0.8745
2075.537830 0.8750 0.8750 0.8750 0.8750 0.8750
2080.507259 0.8750 0.8750 0.8750 0.8750 0.8753
2085.476687 0.8755 0.8758 0.8760 0.8760 0.8760
2090.446116 0.8760 0.8760 0.8760 0.8760 0.8760
2095.415544 0.8760 0.8760 0.8760 0.8760 0.8760
2100.384973 0.8760 0.8760 0.8760 0.8760 0.8760
2105.354401 0.8760 0.8760 0.8760 0.8760 0.8760
2110.323830 0.8760 0.8760 0.8757 0.8755 0.8752
2115.293258 0.8750 0.8750 0.8750 0.8750 0.8750
2120.262687 0.8750 0.8750 0.8750 0.8750 0.8750
2125.232115 0.8750 0.8750 0.8750 0.8750 0.8750
2130.201544 0.8750 0.8750 0.8750 0.8750 0.8750
2135.170972 0.8750 0.8750 0.8750 0.8750 0.8750
2140.140401 0.8750 0.8750 0.8750 0.8750 0.8742
2145.109829 0.8735 0.8727 0.8720 0.8717 0.8715
2150.079258 0.8712 0.8710 0.8710 0.8710 0.8710
2155.048686 0.8710 0.8710 0.8710 0.8710 0.8710
2160.018115 0.8705 0.8700 0.8695 0.8689 0.8679
2164.987543 0.8669 0.8659 0.8650 0.8647 0.8645
2169.956972 0.8642 0.8639 0.8632 0.8624 0.8617
2174.926400 0.8610 0.8610 0.8610 0.8610 0.8610
2179.895829 0.8615 0.8620 0.8625 0.8630 0.8633
2184.865257 0.8635 0.8638 0.8640 0.8648 0.8655
2189.834685 0.8663 0.8670 0.8675 0.8680 0.8685
2194.804114 0.8690 0.8690 0.8690 0.8690 0.8690
2199.773542 0.8690 0.8690 0.8690 0.8690 0.8690
2204.742971 0.8690 0.8690 0.8690 0.8687 0.8685
2209.712399 0.8682 0.8680 0.8677 0.8675 0.8672
2214.681828 0.8669 0.8662 0.8654 0.8647 0.8640
2219.651256 0.8640 0.8640 0.8640 0.8640 0.8637
2224.620685 0.8635 0.8632 0.8630 0.8630 0.8630
2229.590113 0.8630 0.8630 0.8630 0.8630 0.8630
2234.559542 0.8630 0.8633 0.8635 0.8638 0.8640
2239.528970 0.8640 0.8640 0.8640 0.8640 0.8643
2244.498399 0.8645 0.8648 0.8651 0.8656 0.8661
2249.467827 0.8666 0.8670 0.8670 0.8670 0.8670
2254.437256 0.8670 0.8670 0.8670 0.8670 0.8670
2259.406684 0.8670 0.8670 0.8670 0.8670 0.8670
2264.376113 0.8670 0.8670 0.8670 0.8670 0.8670
2269.345541 0.8670 0.8670 0.8670 0.8670 0.8670
2274.314970 0.8670 0.8670 0.8670 0.8670 0.8669
2279.284398 0.8664 0.8659 0.8654 0.8650 0.8647
2284.253827 0.8645 0.8642 0.8640 0.8640 0.8640
2289.223255 0.8640 0.8640 0.8640 0.8640 0.8640
2294.192683 0.8640 0.8640 0.8640 0.8640 0.8640
2299.162112 0.8640 0.8640 0.8640 0.8640 0.8637
2304.131540 0.8635 0.8632 0.8630 0.8630 0.8630
2309.100969 0.8630 0.8629 0.8624 0.8619 0.8614
2314.070397 0.8610 0.8610 0.8610 0.8610 0.8610
2319.039826 0.8607 0.8605 0.8602 0.8600 0.8597
2324.009254 0.8595 0.8592 0.8590 0.8590 0.8590
2328.978683 0.8590 0.8590 0.8590 0.8590 0.8590
2333.948111 0.8590 0.8590 0.8590 0.8590 0.8590
2338.917540 0.8590 0.8590 0.8590 0.8590 0.8590
2343.886968 0.8590 0.8590 0.8590 0.8590 0.8590
2348.856397 0.8590 0.8590 0.8590 0.8590 0.8590
2353.825825 0.8590 0.8590 0.8590 0.8590 0.8590
2358.795254 0.8590 0.8590 0.8590 0.8589 0.8584
2363.764682 0.8579 0.8574 0.8570 0.8567 0.8565
2368.734111 0.8562 0.8560 0.8557 0.8555 0.8552
2373.703539 0.8550 0.8550 0.8550 0.8550 0.8550
2378.672968 0.8550 0.8550 0.8550 0.8550 0.8550
2383.642396 0.8550 0.8550 0.8550 0.8550 0.8550
2388.611825 0.8550 0.8552 0.8562 0.8572 0.8582
2393.581253 0.8590 0.8593 0.8595 0.8598 0.8601
2398.550681 0.8603 0.8606 0.8608 0.8610 0.8610
2403.520110 0.8610 0.8610 0.8610 0.8610 0.8610
2408.489538 0.8610 0.8611 0.8616 0.8621 0.8626
2413.458967 0.8630 0.8633 0.8635 0.8638 0.8640
2418.428395 0.8643 0.8645 0.8648 0.8650 0.8650
2423.397824 0.8650 0.8650 0.8650 0.8650 0.8650
2428.367252 0.8650 0.8650 0.8650 0.8650 0.8650
2433.336681 0.8650 0.8650 0.8650 0.8650 0.8650
2438.306109 0.8650 0.8650 0.8650 0.8650 0.8650
2443.275538 0.8650 0.8650 0.8649 0.8647 0.8644
2448.244966 0.8642 0.8639 0.8637 0.8634 0.8632
2453.214395 0.8630 0.8630 0.8630 0.8630 0.8629
2458.183823 0.8624 0.8619 0.8614 0.8610 0.8610
2463.153252 0.8610 0.8610 0.8610 0.8610 0.8610
2468.122680 0.8610 0.8610 0.8610 0.8610 0.8610
2473.092109 0.8610 0.8607 0.8604 0.8602 0.8600
2478.061537 0.8600 0.8600 0.8600 0.8600 0.8600
2483.030966 0.8600 0.8600 0.8600 0.8600 0.8600
2488.000394 0.8600 0.8601 0.8603 0.8606 0.8608
2492.969823 0.8610 0.8610 0.8610 0.8610 0.8610
2497.939251 0.8610 0.8610 0.8610 0.8610 0.8610
2502.908680 0.8610 0.8610 0.8610 0.8610 0.8610
2507.878108 0.8610 0.8610 0.8610 0.8610 0.8610
2512.847536 0.8610 0.8610 0.8610 0.8610 0.8610
2517.816965 0.8610 0.8610 0.8610 0.8610 0.8610
2522.786393 0.8610 0.8610 0.8609 0.8607 0.8604
2527.755822 0.8602 0.8599 0.8597 0.8594 0.8592
2532.725250 0.8590 0.8590 0.8590 0.8590 0.8590
2537.694679 0.8590 0.8590 0.8590 0.8589 0.8584
2542.664107 0.8579 0.8574 0.8570 0.8570 0.8570
2547.633536 0.8570 0.8571 0.8576 0.8581 0.8586
2552.602964 0.8590 0.8590 0.8590 0.8590 0.8591
2557.572393 0.8593 0.8596 0.8598 0.8600 0.8600
2562.541821 0.8600 0.8600 0.8600 0.8600 0.8600
2567.511250 0.8600 0.8600 0.8600 0.8600 0.8600
2572.480678 0.8600 0.8600 0.8600 0.8600 0.8600
2577.450107 0.8600 0.8600 0.8600 0.8600 0.8600
2582.419535 0.8600 0.8600 0.8600 0.8600 0.8600
2587.388964 0.8600 0.8600 0.8600 0.8600 0.8600
2592.358392 0.8600 0.8600 0.8600 0.8600 0.8599
2597.327821 0.8597 0.8594 0.8592 0.8588 0.8583
2602.297249 0.8578 0.8573 0.8570 0.8570 0.8570
2607.266678 0.8570 0.8571 0.8576 0.8581 0.8586
2612.236106 0.8590 0.8590 0.8590 0.8590 0.8590
2617.205534 0.8590 0.8590 0.8590 0.8590 0.8590
2622.174963 0.8590 0.8590 0.8590 0.8590 0.8590
2627.144391 0.8590 0.8590 0.8590 0.8590 0.8590
2632.113820 0.8590 0.8590 0.8590 0.8590 0.8590
2637.083248 0.8590 0.8590 0.8590 0.8590 0.8590
2642.052677 0.8590 0.8590 0.8587 0.8577 0.8567
2647.022105 0.8557 0.8548 0.8543 0.8538 0.8533
2651.991534 0.8529 0.8527 0.8524 0.8522 0.8518
2656.960962 0.8510 0.8503 0.8495 0.8487 0.8477
2661.930391 0.8467 0.8457 0.8447 0.8437 0.8427
2666.899819 0.8417 0.8400 0.8368 0.8335 0.8303
2671.869248 0.8274 0.8254 0.8233 0.8213 0.8190
2676.838676 0.8160 0.8130 0.8100 0.8071 0.8046
2681.808105 0.8021 0.7996 0.7980 0.7980 0.7980
2686.777533 0.7980 0.7982 0.7987 0.7992 0.7997
2691.746962 0.8008 0.8033 0.8058 0.8083 0.8108
2696.716390 0.8133 0.8158 0.8183 0.8208 0.8233
2701.685819 0.8258 0.8283 0.8302 0.8307 0.8312
2706.655247 0.8317 0.8322 0.8330 0.8337 0.8345
2711.624676 0.8352 0.8357 0.8362 0.8367 0.8372
2716.594104 0.8377 0.8382 0.8387 0.8391 0.8393
2721.563532 0.8396 0.8398 0.8400 0.8400 0.8400
2726.532961 0.8400 0.8392 0.8369 0.8347 0.8324
2731.502389 0.8309 0.8307 0.8304 0.8302 0.8298
2736.471818 0.8293 0.8288 0.8283 0.8280 0.8280
2741.441246 0.8280 0.8280 0.8283 0.8290 0.8298
2746.410675 0.8305 0.8311 0.8313 0.8316 0.8318
2751.380103 0.8321 0.8323 0.8326 0.8328 0.8328
2756.349532 0.8323 0.8318 0.8313 0.8310 0.8310
2761.318960 0.8310 0.8310 0.8309 0.8307 0.8304
2766.288389 0.8302 0.8297 0.8290 0.8282 0.8275
2771.257817 0.8269 0.8267 0.8264 0.8262 0.8257
2776.227246 0.8250 0.8242 0.8235 0.8227 0.8220
2781.196674 0.8212 0.8205 0.8194 0.8180 0.8165
2786.166103 0.8150 0.8133 0.8113 0.8093 0.8073
2791.135531 0.8055 0.8039 0.8024 0.8009 0.7991
2796.104960 0.7968 0.7946 0.7923 0.7903 0.7885
2801.074388 0.7868 0.7850 0.7838 0.7833 0.7828
2806.043817 0.7823 0.7814 0.7799 0.7784 0.7769
2811.013245 0.7746 0.7711 0.7676 0.7641 0.7601
2815.982674 0.7554 0.7506 0.7459 0.7391 0.7291
2820.952102 0.7191 0.7091 0.6946 0.6728 0.6511
2825.921531 0.6294 0.6043 0.5738 0.5433 0.5128
2830.890959 0.4879 0.4720 0.4560 0.4401 0.4171
2835.860387 0.3849 0.3526 0.3204 0.3006 0.2974
2840.829816 0.2941 0.2909 0.2890 0.2890 0.2890
2845.799244 0.2890 0.2941 0.3061 0.3180 0.3300
2850.768673 0.3420 0.3540 0.3660 0.3780 0.3938
2855.738101 0.4151 0.4363 0.4575 0.4700 0.4700
2860.707530 0.4700 0.4700 0.4661 0.4566 0.4471
2865.676958 0.4376 0.4280 0.4183 0.4086 0.3988
2870.646387 0.3897 0.3816 0.3735 0.3654 0.3587
2875.615815 0.3537 0.3487 0.3438 0.3410 0.3410
2880.585244 0.3410 0.3410 0.3432 0.3482 0.3532
2885.554672 0.3582 0.3616 0.3628 0.3641 0.3653
2890.524101 0.3619 0.3527 0.3435 0.3342 0.3290
2895.493529 0.3290 0.3290 0.3290 0.3355 0.3505
2900.462958 0.3655 0.3804 0.3953 0.4101 0.4248
2905.432386 0.4395 0.4523 0.4622 0.4722 0.4822
2910.401815 0.4922 0.5021 0.5119 0.5218 0.5409
2915.371243 0.5704 0.5999 0.6294 0.6478 0.6538
2920.340672 0.6598 0.6658 0.6718 0.6778 0.6838
2925.310100 0.6898 0.6962 0.7032 0.7102 0.7172
2930.279529 0.7233 0.7283 0.7333 0.7383 0.7420
2935.248957 0.7443 0.7465 0.7488 0.7511 0.7536
2940.218385 0.7561 0.7586 0.7607 0.7622 0.7637
2945.187814 0.7652 0.7664 0.7674 0.7684 0.7694
2950.157242 0.7700 0.7700 0.7700 0.7700 0.7695
2955.126671 0.7685 0.7675 0.7665 0.7643 0.7608
2960.096099 0.7573 0.7538 0.7494 0.7442 0.7390
2965.065528 0.7337 0.7279 0.7214 0.7149 0.7084
2970.034956 0.7028 0.6983 0.6938 0.6894 0.6868
2975.004385 0.6863 0.6858 0.6853 0.6852 0.6857
2979.973813 0.6862 0.6867 0.6886 0.6921 0.6956
2984.943242 0.6991 0.7015 0.7025 0.7035 0.7045
2989.912670 0.7048 0.7043 0.7038 0.7032 0.7008
2994.882099 0.6966 0.6923 0.6881 0.6822 0.6747
2999.851527 0.6672 0.6597 0.6552 0.6537 0.6522
3004.820956 0.6507 0.6487 0.6462 0.6437 0.6412
3009.790384 0.6392 0.6378 0.6363 0.6348 0.6318
3014.759813 0.6273 0.6228 0.6183 0.6111 0.6011
3019.729241 0.5911 0.5811 0.5645 0.5410 0.5175
3024.698670 0.4940 0.4747 0.4597 0.4447 0.4297
3029.668098 0.4085 0.3807 0.3528 0.3250 0.3051
3034.637527 0.2921 0.2791 0.2661 0.2600 0.2600
3039.606955 0.2600 0.2600 0.2655 0.2760 0.2865
3044.576383 0.2970 0.3116 0.3298 0.3480 0.3663
3049.545812 0.3844 0.4023 0.4203 0.4383 0.4563
3054.515240 0.4743 0.4923 0.5103 0.5281 0.5459
3059.484669 0.5636 0.5813 0.5991 0.6168 0.6345
3064.454097 0.6523 0.6642 0.6704 0.6767 0.6829
3069.423526 0.6891 0.6951 0.7012 0.7073 0.7135
3074.392954 0.7197 0.7260 0.7322 0.7371 0.7408
3079.362383 0.7446 0.7483 0.7527 0.7577 0.7627
3084.331811 0.7677 0.7719 0.7754 0.7789 0.7824
3089.301240 0.7862 0.7902 0.7942 0.7982 0.8000
3094.270668 0.8000 0.8000 0.8000 0.8000 0.8000
3099.240097 0.8000 0.8000 0.7992 0.7977 0.7962
3104.209525 0.7947 0.7940 0.7940 0.7940 0.7940
3109.178954 0.7948 0.7963 0.7978 0.7994 0.8029
3114.148382 0.8079 0.8129 0.8179 0.8209 0.8224
3119.117811 0.8239 0.8254 0.8267 0.8280 0.8292
3124.087239 0.8305 0.8316 0.8326 0.8336 0.8346
3129.056668 0.8357 0.8370 0.8382 0.8394 0.8411
3134.026096 0.8431 0.8451 0.8471 0.8480 0.8480
3138.995525 0.8480 0.8480 0.8484 0.8492 0.8499
3143.964953 0.8507 0.8511 0.8514 0.8516 0.8519
3148.934381 0.8524 0.8532 0.8539 0.8547 0.8551
3153.903810 0.8554 0.8556 0.8559 0.8561 0.8564
3158.873238 0.8566 0.8569 0.8570 0.8570 0.8570
3163.842667 0.8570 0.8570 0.8570 0.8570 0.8570
3168.812095 0.8573 0.8578 0.8583 0.8588 0.8590
3173.781524 0.8590 0.8590 0.8590 0.8590 0.8590
3178.750952 0.8590 0.8590 0.8590 0.8590 0.8590
3183.720381 0.8590 0.8590 0.8590 0.8590 0.8590
3188.689809 0.8590 0.8590 0.8590 0.8590 0.8590
3193.659238 0.8590 0.8590 0.8590 0.8592 0.8594
3198.628666 0.8597 0.8599 0.8600 0.8600 0.8600
3203.598095 0.8600 0.8600 0.8600 0.8600 0.8600
3208.567523 0.8600 0.8600 0.8600 0.8600 0.8600
3213.536952 0.8600 0.8600 0.8600 0.8600 0.8600
3218.506380 0.8600 0.8600 0.8600 0.8600 0.8600
3223.475809 0.8600 0.8600 0.8600 0.8600 0.8600
3228.445237 0.8600 0.8600 0.8600 0.8600 0.8598
3233.414666 0.8596 0.8593 0.8591 0.8590 0.8590
3238.384094 0.8590 0.8590 0.8590 0.8590 0.8590
3243.353523 0.8590 0.8587 0.8582 0.8577 0.8572
3248.322951 0.8570 0.8570 0.8570 0.8570 0.8568
3253.292380 0.8566 0.8563 0.8561 0.8558 0.8556
3258.261808 0.8553 0.8551 0.8545 0.8538 0.8530
3263.231236 0.8523 0.8518 0.8516 0.8513 0.8511
3268.200665 0.8510 0.8510 0.8510 0.8510 0.8510
3273.170093 0.8510 0.8510 0.8510 0.8510 0.8510
3278.139522 0.8510 0.8510 0.8513 0.8518 0.8523
3283.108950 0.8528 0.8535 0.8542 0.8550 0.8557
3288.078379 0.8562 0.8564 0.8567 0.8569 0.8570
3293.047807 0.8570 0.8570 0.8570 0.8573 0.8578
3298.017236 0.8583 0.8588 0.8590 0.8590 0.8590
3302.986664 0.8590 0.8577 0.8557 0.8537 0.8517
3307.956093 0.8510 0.8510 0.8510 0.8510 0.8510
3312.925521 0.8510 0.8510 0.8510 0.8513 0.8518
3317.894950 0.8523 0.8528 0.8540 0.8555 0.8570
3322.864378 0.8585 0.8590 0.8590 0.8590 0.8590
3327.833807 0.8592 0.8594 0.8597 0.8599 0.8600
3332.803235 0.8600 0.8600 0.8600 0.8602 0.8604
3337.772664 0.8607 0.8609 0.8610 0.8610 0.8610
3342.742092 0.8610 0.8610 0.8610 0.8610 0.8610
3347.711521 0.8613 0.8618 0.8623 0.8628 0.8630
3352.680949 0.8630 0.8630 0.8630 0.8630 0.8630
3357.650378 0.8630 0.8630 0.8630 0.8630 0.8630
3362.619806 0.8630 0.8630 0.8630 0.8630 0.8630
3367.589234 0.8630 0.8630 0.8630 0.8630 0.8630
3372.558663 0.8630 0.8630 0.8630 0.8630 0.8630
3377.528091 0.8630 0.8630 0.8630 0.8630 0.8630
3382.497520 0.8630 0.8630 0.8630 0.8630 0.8630
3387.466948 0.8630 0.8630 0.8630 0.8630 0.8630
3392.436377 0.8630 0.8630 0.8630 0.8632 0.8634
3397.405805 0.8637 0.8639 0.8640 0.8640 0.8640
3402.375234 0.8640 0.8635 0.8627 0.8620 0.8612
3407.344662 0.8610 0.8610 0.8610 0.8610 0.8610
3412.314091 0.8610 0.8610 0.8610 0.8613 0.8618
3417.283519 0.8623 0.8628 0.8632 0.8634 0.8637
3422.252948 0.8639 0.8640 0.8640 0.8640 0.8640
3427.222376 0.8640 0.8640 0.8640 0.8640 0.8640
3432.191805 0.8640 0.8640 0.8640 0.8640 0.8640
3437.161233 0.8640 0.8640 0.8640 0.8640 0.8640
3442.130662 0.8640 0.8642 0.8644 0.8647 0.8649
3447.100090 0.8650 0.8650 0.8650 0.8650 0.8648
3452.069519 0.8646 0.8643 0.8641 0.8638 0.8636
3457.038947 0.8633 0.8631 0.8626 0.8621 0.8616
3462.008376 0.8611 0.8610 0.8610 0.8610 0.8610
3466.977804 0.8610 0.8610 0.8610 0.8610 0.8610
3471.947232 0.8610 0.8610 0.8610 0.8610 0.8610
3476.916661 0.8610 0.8610 0.8610 0.8610 0.8610
3481.886089 0.8610 0.8610 0.8610 0.8610 0.8610
3486.855518 0.8610 0.8610 0.8610 0.8610 0.8610
3491.824946 0.8610 0.8610 0.8610 0.8610 0.8610
3496.794375 0.8610 0.8610 0.8610 0.8610 0.8610
3501.763803 0.8610 0.8610 0.8610 0.8610 0.8610
3506.733232 0.8610 0.8610 0.8610 0.8610 0.8610
3511.702660 0.8610 0.8610 0.8610 0.8616 0.8623
3516.672089 0.8631 0.8638 0.8638 0.8636 0.8633
3521.641517 0.8631 0.8626 0.8621 0.8616 0.8611
3526.610946 0.8610 0.8610 0.8610 0.8610 0.8610
3531.580374 0.8610 0.8610 0.8610 0.8610 0.8610
3536.549803 0.8610 0.8610 0.8610 0.8610 0.8610
3541.519231 0.8610 0.8608 0.8606 0.8603 0.8601
3546.488660 0.8600 0.8600 0.8600 0.8600 0.8600
3551.458088 0.8600 0.8600 0.8600 0.8598 0.8596
3556.427517 0.8593 0.8591 0.8590 0.8590 0.8590
3561.396945 0.8590 0.8590 0.8590 0.8590 0.8590
3566.366374 0.8590 0.8590 0.8590 0.8590 0.8590
3571.335802 0.8590 0.8590 0.8590 0.8582 0.8572
3576.305231 0.8562 0.8552 0.8550 0.8550 0.8550
3581.274659 0.8550 0.8544 0.8537 0.8529 0.8522
3586.244087 0.8520 0.8520 0.8520 0.8520 0.8520
3591.213516 0.8520 0.8520 0.8520 0.8520 0.8520
3596.182944 0.8520 0.8520 0.8518 0.8515 0.8513
3601.152373 0.8510 0.8510 0.8510 0.8510 0.8510
3606.121801 0.8510 0.8510 0.8510 0.8510 0.8510
3611.091230 0.8510 0.8510 0.8510 0.8510 0.8510
3616.060658 0.8510 0.8510 0.8510 0.8510 0.8510
3621.030087 0.8510 0.8510 0.8510 0.8510 0.8510
3625.999515 0.8512 0.8515 0.8517 0.8520 0.8528
3630.968944 0.8538 0.8548 0.8558 0.8568 0.8578
3635.938372 0.8588 0.8598 0.8602 0.8605 0.8607
3640.907801 0.8610 0.8614 0.8619 0.8624 0.8629
3645.877229 0.8630 0.8630 0.8630 0.8630 0.8630
3650.846658 0.8630 0.8630 0.8630 0.8630 0.8630
3655.816086 0.8630 0.8630 0.8632 0.8635 0.8637
3660.785515 0.8640 0.8640 0.8640 0.8640 0.8640
3665.754943 0.8638 0.8635 0.8633 0.8630 0.8626
3670.724372 0.8621 0.8616 0.8611 0.8610 0.8610
3675.693800 0.8610 0.8610 0.8610 0.8610 0.8610
3680.663229 0.8610 0.8610 0.8610 0.8610 0.8610
3685.632657 0.8610 0.8610 0.8610 0.8610 0.8614
3690.602085 0.8619 0.8624 0.8629 0.8630 0.8630
3695.571514 0.8630 0.8630 0.8630 0.8630 0.8630
3700.540942 0.8630 0.8632 0.8635 0.8637 0.8640
3705.510371 0.8638 0.8635 0.8633 0.8630 0.8630
3710.479799 0.8630 0.8630 0.8630 0.8630 0.8630
3715.449228 0.8630 0.8630 0.8630 0.8630 0.8630
3720.418656 0.8630 0.8630 0.8630 0.8630 0.8630
3725.388085 0.8630 0.8630 0.8630 0.8630 0.8630
3730.357513 0.8630 0.8630 0.8630 0.8626 0.8621
3735.326942 0.8616 0.8611 0.8610 0.8610 0.8610
3740.296370 0.8610 0.8610 0.8610 0.8610 0.8610
3745.265799 0.8614 0.8619 0.8624 0.8630 0.8630
3750.235227 0.8630 0.8630 0.8630 0.8634 0.8639
3755.204656 0.8644 0.8649 0.8650 0.8650 0.8650
3760.174084 0.8650 0.8646 0.8641 0.8636 0.8631
3765.143513 0.8630 0.8630 0.8630 0.8630 0.8630
3770.112941 0.8630 0.8630 0.8630 0.8626 0.8621
3775.082370 0.8616 0.8611 0.8610 0.8610 0.8610
3780.051798 0.8610 0.8608 0.8605 0.8603 0.8600
3785.021227 0.8600 0.8600 0.8600 0.8600 0.8600
3789.990655 0.8600 0.8600 0.8600 0.8600 0.8600
3794.960083 0.8600 0.8600 0.8600 0.8600 0.8600
3799.929512 0.8600 0.8600 0.8600 0.8600 0.8600
3804.898940 0.8598 0.8595 0.8593 0.8590 0.8590
3809.868369 0.8590 0.8590 0.8590 0.8590 0.8590
3814.837797 0.8590 0.8590 0.8590 0.8590 0.8590
3819.807226 0.8590 0.8590 0.8590 0.8590 0.8590
3824.776654 0.8590 0.8590 0.8590 0.8590 0.8585
3829.746083 0.8580 0.8575 0.8570 0.8570 0.8570
3834.715511 0.8570 0.8570 0.8570 0.8570 0.8570
3839.684940 0.8570 0.8575 0.8580 0.8585 0.8590
3844.654368 0.8590 0.8590 0.8590 0.8590 0.8590
3849.623797 0.8590 0.8590 0.8590 0.8592 0.8595
3854.593225 0.8597 0.8600 0.8600 0.8600 0.8600
3859.562654 0.8600 0.8602 0.8605 0.8607 0.8610
3864.532082 0.8610 0.8610 0.8610 0.8610 0.8610
3869.501511 0.8610 0.8610 0.8610 0.8610 0.8610
3874.470939 0.8610 0.8610 0.8608 0.8605 0.8603
3879.440368 0.8600 0.8600 0.8600 0.8600 0.8600
3884.409796 0.8600 0.8600 0.8600 0.8600 0.8600
3889.379225 0.8600 0.8600 0.8600 0.8600 0.8600
3894.348653 0.8600 0.8600 0.8598 0.8595 0.8593
3899.318082 0.8590 0.8590 0.8590 0.8590 0.8590
3904.287510 0.8590 0.8590 0.8590 0.8590 0.8583
3909.256938 0.8575 0.8568 0.8560 0.8553 0.8545
3914.226367 0.8538 0.8530 0.8525 0.8520 0.8515
3919.195795 0.8510 0.8510 0.8510 0.8510 0.8510
3924.165224 0.8505 0.8500 0.8495 0.8490 0.8490
3929.134652 0.8490 0.8490 0.8490 0.8495 0.8500
3934.104081 0.8505 0.8510 0.8512 0.8515 0.8517
3939.073509 0.8520 0.8520 0.8520 0.8520 0.8520
3944.042938 0.8522 0.8525 0.8527 0.8530 0.8535
3949.012366 0.8540 0.8545 0.8550 0.8550 0.8550
3953.981795 0.8550 0.8550 0.8550 0.8550 0.8550
3958.951223 0.8550 0.8550 0.8550 0.8550 0.8550
3963.920652 0.8545 0.8540 0.8535 0.8530 0.8530
3968.890080 0.8530 0.8530 0.8530 0.8528 0.8525
3973.859509 0.8523 0.8520 0.8520 0.8520 0.8520
3978.828937 0.8520 0.8520 0.8520 0.8520 0.8520
3983.798366 0.8527 0.8535 0.8543 0.8550 0.8550
3988.767794 0.8550 0.8550 0.8550 0.8550 0.8550
3993.737223 0.8550 0.8550 0.8550 0.8550 0.8550
3998.706651 0.8550 0.8550 0.8550 0.8550 0.8550
4003.676080 0.8553 0.8555 0.8558 0.8560 0.8563
4008.645508 0.8565 0.8568 0.8570 0.8575 0.8580
4013.614936 0.8585 0.8590 0.8590 0.8590 0.8590
4018.584365 0.8590 0.8590 0.8590 0.8590 0.8590
4023.553793 0.8590 0.8590 0.8590 0.8590 0.8590
4028.523222 0.8590 0.8590 0.8590 0.8590 0.8590
4033.492650 0.8590 0.8590 0.8590 0.8590 0.8590
4038.462079 0.8590 0.8590 0.8590 0.8590 0.8590
4043.431507 0.8590 0.8590 0.8590 0.8590 0.8590
4048.400936 0.8590 0.8590 0.8590 0.8593 0.8595
4053.370364 0.8598 0.8600 0.8600 0.8600 0.8600
4058.339793 0.8600 0.8600 0.8600 0.8600 0.8600
4063.309221 0.8597 0.8595 0.8592 0.8590 0.8590
4068.278650 0.8590 0.8590 0.8590 0.8590 0.8590
4073.248078 0.8590 0.8590 0.8593 0.8595 0.8598
4078.217507 0.8600 0.8600 0.8600 0.8600 0.8600
4083.186935 0.8608 0.8615 0.8623 0.8630 0.8630
4088.156364 0.8630 0.8630 0.8630 0.8630 0.8630
4093.125792 0.8630 0.8630 0.8625 0.8620 0.8615
4098.095221 0.8610 0.8610 0.8610 0.8610 0.8610
4103.064649 0.8615 0.8620 0.8625 0.8630 0.8633
4108.034078 0.8635 0.8638 0.8640 0.8640 0.8640
4113.003506 0.8640 0.8640 0.8640 0.8640 0.8640
4117.972934 0.8640 0.8640 0.8640 0.8640 0.8640
4122.942363 0.8640 0.8640 0.8640 0.8640 0.8640
4127.911791 0.8640 0.8640 0.8640 0.8640 0.8640
4132.881220 0.8640 0.8640 0.8640 0.8640 0.8640
4137.850648 0.8640 0.8640 0.8640 0.8640 0.8640
4142.820077 0.8640 0.8640 0.8640 0.8640 0.8640
4147.789505 0.8640 0.8640 0.8640 0.8640 0.8640
4152.758934 0.8640 0.8640 0.8640 0.8640 0.8640
4157.728362 0.8640 0.8640 0.8640 0.8640 0.8640
4162.697791 0.8640 0.8640 0.8640 0.8640 0.8640
4167.667219 0.8640 0.8640 0.8639 0.8632 0.8624
4172.636648 0.8617 0.8610 0.8607 0.8605 0.8602
4177.606076 0.8600 0.8600 0.8600 0.8600 0.8600
4182.575505 0.8597 0.8595 0.8592 0.8590 0.8590
4187.544933 0.8590 0.8590 0.8588 0.8573 0.8558
4192.514362 0.8543 0.8529 0.8524 0.8519 0.8514
4197.483790 0.8509 0.8502 0.8494 0.8487 0.8479
4202.453219 0.8469 0.8459 0.8449 0.8440 0.8437
4207.422647 0.8435 0.8432 0.8429 0.8424 0.8419
4212.392076 0.8414 0.8410 0.8410 0.8410 0.8410
4217.361504 0.8411 0.8418 0.8426 0.8433 0.8441
4222.330933 0.8454 0.8467 0.8479 0.8490 0.8490
4227.300361 0.8490 0.8490 0.8491 0.8496 0.8501
4232.269789 0.8506 0.8510 0.8513 0.8515 0.8518
4237.239218 0.8521 0.8529 0.8536 0.8544 0.8550
4242.208646 0.8550 0.8550 0.8550 0.8549 0.8544
4247.178075 0.8539 0.8534 0.8529 0.8524 0.8519
4252.147503 0.8514 0.8509 0.8504 0.8499 0.8494
4257.116932 0.8490 0.8490 0.8490 0.8490 0.8490
4262.086360 0.8487 0.8485 0.8482 0.8480 0.8480
4267.055789 0.8480 0.8480 0.8480 0.8480 0.8480
4272.025217 0.8480 0.8480 0.8483 0.8485 0.8488
4276.994646 0.8491 0.8496 0.8501 0.8506 0.8510
4281.964074 0.8513 0.8515 0.8518 0.8520 0.8523
4286.933503 0.8525 0.8528 0.8531 0.8536 0.8541
4291.902931 0.8546 0.8550 0.8550 0.8550 0.8550
4296.872360 0.8550 0.8553 0.8555 0.8558 0.8560
4301.841788 0.8563 0.8565 0.8568 0.8570 0.8570
4306.811217 0.8570 0.8570 0.8570 0.8570 0.8570
4311.780645 0.8570 0.8570 0.8570 0.8570 0.8570
4316.750074 0.8570 0.8570 0.8570 0.8570 0.8570
4321.719502 0.8570 0.8570 0.8570 0.8570 0.8570
4326.688931 0.8570 0.8570 0.8570 0.8570 0.8570
4331.658359 0.8570 0.8570 0.8570 0.8570 0.8570
4336.627787 0.8571 0.8576 0.8581 0.8586 0.8590
4341.597216 0.8590 0.8590 0.8590 0.8591 0.8593
4346.566644 0.8596 0.8598 0.8600 0.8600 0.8600
4351.536073 0.8600 0.8601 0.8603 0.8605 0.8608
4356.505501 0.8611 0.8616 0.8621 0.8626 0.8630
4361.474930 0.8633 0.8635 0.8638 0.8640 0.8640
4366.444358 0.8640 0.8640 0.8640 0.8643 0.8645
4371.413787 0.8648 0.8650 0.8650 0.8650 0.8650
4376.383215 0.8650 0.8650 0.8650 0.8650 0.8650
4381.352644 0.8650 0.8650 0.8650 0.8650 0.8650
4386.322072 0.8650 0.8650 0.8649 0.8647 0.8644
4391.291501 0.8642 0.8639 0.8637 0.8634 0.8632
4396.260929 0.8630 0.8630 0.8630 0.8630 0.8629
4401.230358 0.8624 0.8619 0.8614 0.8610 0.8610
4406.199786 0.8610 0.8610 0.8610 0.8610 0.8610
4411.169215 0.8610 0.8610 0.8610 0.8610 0.8610
4416.138643 0.8610 0.8610 0.8610 0.8610 0.8610
4421.108072 0.8610 0.8610 0.8610 0.8610 0.8610
4426.077500 0.8610 0.8610 0.8609 0.8607 0.8604
4431.046929 0.8602 0.8600 0.8600 0.8600 0.8600
4436.016357 0.8600 0.8600 0.8600 0.8600 0.8600
4440.985785 0.8600 0.8600 0.8600 0.8600 0.8600
4445.955214 0.8600 0.8600 0.8600 0.8600 0.8600
4450.924642 0.8600 0.8599 0.8597 0.8594 0.8592
4455.894071 0.8590 0.8590 0.8590 0.8590 0.8591
4460.863499 0.8593 0.8596 0.8598 0.8600 0.8600
4465.832928 0.8600 0.8600 0.8601 0.8603 0.8606
4470.802356 0.8608 0.8611 0.8616 0.8621 0.8626
4475.771785 0.8633 0.8646 0.8658 0.8671 0.8680
4480.741213 0.8680 0.8680 0.8680 0.8681 0.8683
4485.710642 0.8686 0.8688 0.8690 0.8690 0.8690
4490.680070 0.8690 0.8690 0.8690 0.8690 0.8690
4495.649499 0.8690 0.8690 0.8690 0.8690 0.8689
4500.618927 0.8687 0.8684 0.8682 0.8680 0.8680
4505.588356 0.8680 0.8680 0.8680 0.8680 0.8680
4510.557784 0.8680 0.8679 0.8677 0.8674 0.8672
4515.527213 0.8670 0.8670 0.8670 0.8670 0.8669
4520.496641 0.8664 0.8659 0.8654 0.8650 0.8650
4525.466070 0.8650 0.8650 0.8649 0.8647 0.8644
4530.435498 0.8642 0.8640 0.8640 0.8640 0.8640
4535.404927 0.8640 0.8640 0.8640 0.8640 0.8640
4540.374355 0.8640 0.8640 0.8640 0.8640 0.8640
4545.343784 0.8640 0.8640 0.8641 0.8643 0.8646
4550.313212 0.8648 0.8650 0.8650 0.8650 0.8650
4555.282640 0.8652 0.8660 0.8667 0.8675 0.8680
4560.252069 0.8680 0.8680 0.8680 0.8682 0.8690
4565.221497 0.8697 0.8705 0.8711 0.8716 0.8721
4570.190926 0.8726 0.8730 0.8730 0.8730 0.8730
4575.160354 0.8729 0.8727 0.8724 0.8722 0.8717
4580.129783 0.8707 0.8697 0.8687 0.8678 0.8670
4585.099211 0.8663 0.8655 0.8650 0.8650 0.8650
4590.068640 0.8650 0.8650 0.8650 0.8650 0.8650
4595.038068 0.8650 0.8650 0.8650 0.8650 0.8650
4600.007497 0.8650 0.8650 0.8650 0.8650 0.8650
4604.976925 0.8650 0.8650 0.8652 0.8657 0.8662
4609.946354 0.8667 0.8671 0.8673 0.8676 0.8678
4614.915782 0.8680 0.8680 0.8680 0.8680 0.8680
4619.885211 0.8680 0.8680 0.8680 0.8681 0.8683
4624.854639 0.8686 0.8688 0.8692 0.8697 0.8702
4629.824068 0.8707 0.8710 0.8710 0.8710 0.8710
4634.793496 0.8710 0.8710 0.8710 0.8710 0.8710
4639.762925 0.8710 0.8710 0.8710 0.8708 0.8703
4644.732353 0.8698 0.8693 0.8689 0.8687 0.8684
4649.701782 0.8682 0.8679 0.8677 0.8674 0.8672
4654.671210 0.8670 0.8670 0.8670 0.8670 0.8668
4659.640638 0.8663 0.8658 0.8653 0.8649 0.8647
4664.610067 0.8644 0.8642 0.8640 0.8640 0.8640
4669.579495 0.8640 0.8640 0.8640 0.8640 0.8640
4674.548924 0.8640 0.8640 0.8640 0.8640 0.8640
4679.518352 0.8640 0.8640 0.8640 0.8640 0.8640
4684.487781 0.8640 0.8640 0.8641 0.8643 0.8646
4689.457209 0.8648 0.8650 0.8650 0.8650 0.8650
4694.426638 0.8650 0.8650 0.8650 0.8650 0.8650
4699.396066 0.8650 0.8650 0.8650 0.8650 0.8650
4704.365495 0.8650 0.8650 0.8650 0.8650 0.8650
4709.334923 0.8650 0.8650 0.8650 0.8650 0.8650
4714.304352 0.8650 0.8650 0.8650 0.8650 0.8650
4719.273780 0.8650 0.8650 0.8650 0.8652 0.8657
4724.243209 0.8662 0.8667 0.8671 0.8673 0.8676
4729.212637 0.8678 0.8681 0.8683 0.8686 0.8688
4734.182066 0.8690 0.8690 0.8690 0.8690 0.8690
4739.151494 0.8690 0.8690 0.8690 0.8690 0.8690
4744.120923 0.8690 0.8690 0.8690 0.8690 0.8690
4749.090351 0.8690 0.8690 0.8690 0.8690 0.8690
4754.059780 0.8690 0.8690 0.8690 0.8690 0.8690
4759.029208 0.8690 0.8690 0.8690 0.8689 0.8687
4763.998636 0.8684 0.8682 0.8679 0.8677 0.8674
4768.968065 0.8672 0.8668 0.8663 0.8658 0.8653
4773.937493 0.8650 0.8650 0.8650 0.8650 0.8650
4778.906922 0.8650 0.8650 0.8650 0.8650 0.8650
4783.876350 0.8650 0.8650 0.8653 0.8661 0.8668
4788.845779 0.8676 0.8681 0.8684 0.8686 0.8689
4793.815207 0.8692 0.8697 0.8702 0.8707 0.8710
4798.784636 0.8710 0.8710 0.8710 0.8710 0.8710
4803.754064 0.8710 0.8710 0.8710 0.8710 0.8710
4808.723493 0.8710 0.8707 0.8699 0.8692 0.8684
4813.692921 0.8680 0.8680 0.8680 0.8680 0.8679
4818.662350 0.8676 0.8674 0.8671 0.8670 0.8670
4823.631778 0.8670 0.8670 0.8670 0.8670 0.8670
4828.601207 0.8670 0.8670 0.8670 0.8670 0.8670
4833.570635 0.8670 0.8670 0.8670 0.8670 0.8670
4838.540064 0.8670 0.8670 0.8670 0.8672 0.8677
4843.509492 0.8682 0.8687 0.8692 0.8697 0.8702
4848.478921 0.8707 0.8711 0.8714 0.8716 0.8719
4853.448349 0.8720 0.8720 0.8720 0.8720 0.8719
4858.417778 0.8716 0.8714 0.8711 0.8710 0.8710
4863.387206 0.8710 0.8710 0.8708 0.8703 0.8698
4868.356635 0.8693 0.8689 0.8686 0.8684 0.8681
4873.326063 0.8680 0.8680 0.8680 0.8680 0.8681
4878.295491 0.8684 0.8686 0.8689 0.8690 0.8690
4883.264920 0.8690 0.8690 0.8690 0.8690 0.8690
4888.234348 0.8690 0.8692 0.8697 0.8702 0.8707
4893.203777 0.8711 0.8714 0.8716 0.8719 0.8717
4898.173205 0.8709 0.8701 0.8694 0.8689 0.8686
4903.142634 0.8684 0.8681 0.8679 0.8676 0.8674
4908.112062 0.8671 0.8670 0.8670 0.8670 0.8670
4913.081491 0.8670 0.8670 0.8670 0.8670 0.8670
4918.050919 0.8670 0.8670 0.8670 0.8671 0.8674
4923.020348 0.8676 0.8679 0.8681 0.8684 0.8686
4927.989776 0.8689 0.8692 0.8697 0.8702 0.8707
4932.959205 0.8710 0.8710 0.8710 0.8710 0.8711
4937.928633 0.8714 0.8716 0.8719 0.8720 0.8720
4942.898062 0.8720 0.8720 0.8716 0.8709 0.8701
4947.867490 0.8694 0.8690 0.8690 0.8690 0.8690
4952.836919 0.8689 0.8686 0.8684 0.8681 0.8679
4957.806347 0.8676 0.8674 0.8671 0.8670 0.8670
4962.775776 0.8670 0.8670
##END=
