##TITLE=1,4-CYCLOHEXADIENE
##JCAMP-DX=4.24
$$ By DXEDIT 1.05 (RS McDonald)
##DATA TYPE=INFRARED SPECTRUM
##CLASS=COBLENTZ III
##ORIGIN=WESTERN REGIONAL RES. USDA
##OWNER=COBLENTZ SOC.
Collection (C) 2018 copyright by the U.S. Secretary of Commerce
on behalf of the United States of America. All rights reserved.
##DATE=1967/05/16
##CAS REGISTRY NO=628-41-1
##MOLFORM=C6 H8
##SOURCE REFERENCE=COBLENTZ NO. 05627
##$NIST SOURCE=COBLENTZ
##$NIST IMAGE=cob5627
##SPECTROMETER/DATA SYSTEM=CARY 90 (GRATING)
##INSTRUMENT PARAMETERS=GRATING CHANGES: 3000, 2000, 1200 CM^-^1
##STATE=SOLUTION (10% CCl4 FOR 4000-1200, 10% CS2 FOR 1200-450) VS SOLVENT
##PATH LENGTH=0.010 CM, 0.011 CM
##SAMPLING PROCEDURE=TRANSMISSION
##DATA PROCESSING=DIGITIZED BY COBLENTZ SOCIETY (BATCH I) FROM HARD COPY
##XUNITS=1/CM
##YUNITS=TRANSMITTANCE
##XLABEL=Wavenumbers (cm-1)
##YLABEL=Transmittance
##XFACTOR=1
##YFACTOR=1
##DELTAX=1
##FIRSTX=4000
##LASTX=479
##FIRSTY=0.9117
##MAXX=4000
##MINX=479
##MAXY=0.9373
##MINY=0.0022
##NPOINTS=3522
##XYDATA=(X++(Y..Y))
4000.000000 0.9117 0.9117 0.9118 0.9118 0.9121
3995.000000 0.9121 0.9124 0.9125 0.9127 0.9128
3990.000000 0.9130 0.9131 0.9133 0.9134 0.9136
3985.000000 0.9137 0.9138 0.9139 0.9141 0.9143
3980.000000 0.9145 0.9146 0.9148 0.9149 0.9151
3975.000000 0.9152 0.9154 0.9156 0.9158 0.9158
3970.000000 0.9159 0.9160 0.9161 0.9161 0.9162
3965.000000 0.9163 0.9164 0.9164 0.9165 0.9166
3960.000000 0.9167 0.9168 0.9168 0.9168 0.9170
3955.000000 0.9171 0.9171 0.9171 0.9173 0.9174
3950.000000 0.9175 0.9175 0.9177 0.9178 0.9178
3945.000000 0.9180 0.9181 0.9182 0.9183 0.9184
3940.000000 0.9185 0.9186 0.9187 0.9188 0.9189
3935.000000 0.9190 0.9191 0.9192 0.9193 0.9196
3930.000000 0.9200 0.9204 0.9208 0.9211 0.9215
3925.000000 0.9218 0.9223 0.9225 0.9230 0.9234
3920.000000 0.9238 0.9242 0.9246 0.9249 0.9253
3915.000000 0.9257 0.9261 0.9265 0.9268 0.9273
3910.000000 0.9278 0.9282 0.9287 0.9291 0.9295
3905.000000 0.9299 0.9304 0.9308 0.9312 0.9316
3900.000000 0.9321 0.9324 0.9328 0.9330 0.9332
3895.000000 0.9333 0.9335 0.9337 0.9339 0.9340
3890.000000 0.9342 0.9344 0.9346 0.9348 0.9350
3885.000000 0.9351 0.9353 0.9354 0.9355 0.9355
3880.000000 0.9356 0.9356 0.9356 0.9356 0.9356
3875.000000 0.9356 0.9356 0.9356 0.9357 0.9357
3870.000000 0.9357 0.9356 0.9355 0.9354 0.9353
3865.000000 0.9351 0.9350 0.9349 0.9348 0.9347
3860.000000 0.9346 0.9344 0.9343 0.9342 0.9341
3855.000000 0.9340 0.9339 0.9337 0.9336 0.9335
3850.000000 0.9334 0.9333 0.9332 0.9331 0.9331
3845.000000 0.9330 0.9330 0.9328 0.9328 0.9328
3840.000000 0.9328 0.9327 0.9325 0.9325 0.9325
3835.000000 0.9324 0.9324 0.9323 0.9323 0.9321
3830.000000 0.9321 0.9321 0.9321 0.9320 0.9320
3825.000000 0.9320 0.9320 0.9321 0.9321 0.9323
3820.000000 0.9324 0.9325 0.9327 0.9328 0.9328
3815.000000 0.9330 0.9331 0.9332 0.9334 0.9335
3810.000000 0.9336 0.9337 0.9338 0.9339 0.9341
3805.000000 0.9342 0.9343 0.9344 0.9345 0.9346
3800.000000 0.9347 0.9348 0.9350 0.9351 0.9352
3795.000000 0.9352 0.9353 0.9354 0.9355 0.9356
3790.000000 0.9357 0.9357 0.9358 0.9359 0.9360
3785.000000 0.9361 0.9362 0.9363 0.9364 0.9364
3780.000000 0.9365 0.9366 0.9367 0.9368 0.9368
3775.000000 0.9368 0.9370 0.9371 0.9371 0.9373
3770.000000 0.9373 0.9373 0.9373 0.9373 0.9373
3765.000000 0.9373 0.9373 0.9371 0.9371 0.9371
3760.000000 0.9371 0.9371 0.9371 0.9371 0.9371
3755.000000 0.9370 0.9370 0.9370 0.9370 0.9370
3750.000000 0.9370 0.9368 0.9368 0.9368 0.9368
3745.000000 0.9368 0.9368 0.9368 0.9368 0.9368
3740.000000 0.9368 0.9367 0.9367 0.9367 0.9367
3735.000000 0.9367 0.9367 0.9367 0.9367 0.9367
3730.000000 0.9367 0.9367 0.9367 0.9366 0.9366
3725.000000 0.9366 0.9366 0.9366 0.9366 0.9366
3720.000000 0.9366 0.9364 0.9363 0.9362 0.9361
3715.000000 0.9359 0.9358 0.9356 0.9355 0.9354
3710.000000 0.9353 0.9351 0.9350 0.9349 0.9348
3705.000000 0.9346 0.9345 0.9344 0.9343 0.9341
3700.000000 0.9340 0.9338 0.9337 0.9336 0.9335
3695.000000 0.9333 0.9332 0.9331 0.9330 0.9328
3690.000000 0.9327 0.9325 0.9324 0.9321 0.9321
3685.000000 0.9318 0.9317 0.9315 0.9314 0.9312
3680.000000 0.9310 0.9308 0.9306 0.9304 0.9303
3675.000000 0.9301 0.9299 0.9297 0.9296 0.9294
3670.000000 0.9292 0.9290 0.9289 0.9287 0.9285
3665.000000 0.9283 0.9282 0.9280 0.9278 0.9275
3660.000000 0.9275 0.9271 0.9270 0.9267 0.9265
3655.000000 0.9262 0.9260 0.9257 0.9255 0.9252
3650.000000 0.9250 0.9247 0.9245 0.9242 0.9240
3645.000000 0.9237 0.9235 0.9232 0.9230 0.9228
3640.000000 0.9225 0.9224 0.9223 0.9221 0.9218
3635.000000 0.9217 0.9215 0.9213 0.9211 0.9209
3630.000000 0.9207 0.9205 0.9203 0.9201 0.9199
3625.000000 0.9197 0.9195 0.9193 0.9191 0.9189
3620.000000 0.9187 0.9185 0.9183 0.9181 0.9178
3615.000000 0.9178 0.9180 0.9180 0.9181 0.9181
3610.000000 0.9182 0.9182 0.9183 0.9183 0.9184
3605.000000 0.9184 0.9185 0.9185 0.9186 0.9186
3600.000000 0.9187 0.9187 0.9188 0.9188 0.9189
3595.000000 0.9190 0.9191 0.9192 0.9193 0.9194
3590.000000 0.9196 0.9197 0.9199 0.9200 0.9202
3585.000000 0.9203 0.9204 0.9205 0.9207 0.9208
3580.000000 0.9210 0.9211 0.9213 0.9214 0.9216
3575.000000 0.9217 0.9218 0.9218 0.9221 0.9221
3570.000000 0.9224 0.9225 0.9227 0.9228 0.9230
3565.000000 0.9231 0.9232 0.9233 0.9235 0.9236
3560.000000 0.9238 0.9239 0.9240 0.9241 0.9243
3555.000000 0.9244 0.9245 0.9246 0.9248 0.9249
3550.000000 0.9250 0.9251 0.9253 0.9254 0.9255
3545.000000 0.9256 0.9258 0.9259 0.9260 0.9261
3540.000000 0.9263 0.9264 0.9265 0.9266 0.9267
3535.000000 0.9268 0.9268 0.9270 0.9271 0.9271
3530.000000 0.9274 0.9275 0.9275 0.9275 0.9277
3525.000000 0.9277 0.9277 0.9277 0.9277 0.9275
3520.000000 0.9275 0.9275 0.9275 0.9275 0.9275
3515.000000 0.9275 0.9275 0.9275 0.9275 0.9275
3510.000000 0.9275 0.9275 0.9275 0.9275 0.9277
3505.000000 0.9277 0.9278 0.9278 0.9280 0.9281
3500.000000 0.9282 0.9282 0.9283 0.9284 0.9285
3495.000000 0.9285 0.9286 0.9286 0.9287 0.9287
3490.000000 0.9287 0.9287 0.9287 0.9286 0.9286
3485.000000 0.9286 0.9286 0.9286 0.9286 0.9286
3480.000000 0.9286 0.9286 0.9286 0.9285 0.9285
3475.000000 0.9285 0.9285 0.9285 0.9285 0.9285
3470.000000 0.9285 0.9284 0.9283 0.9282 0.9282
3465.000000 0.9281 0.9280 0.9278 0.9278 0.9278
3460.000000 0.9277 0.9275 0.9275 0.9275 0.9275
3455.000000 0.9274 0.9273 0.9271 0.9271 0.9271
3450.000000 0.9270 0.9268 0.9268 0.9268 0.9267
3445.000000 0.9266 0.9266 0.9265 0.9264 0.9263
3440.000000 0.9263 0.9262 0.9261 0.9260 0.9260
3435.000000 0.9259 0.9258 0.9257 0.9257 0.9256
3430.000000 0.9256 0.9255 0.9255 0.9254 0.9254
3425.000000 0.9253 0.9253 0.9252 0.9252 0.9251
3420.000000 0.9251 0.9250 0.9250 0.9249 0.9249
3415.000000 0.9248 0.9248 0.9247 0.9247 0.9246
3410.000000 0.9246 0.9245 0.9245 0.9244 0.9244
3405.000000 0.9243 0.9243 0.9242 0.9242 0.9241
3400.000000 0.9241 0.9241 0.9241 0.9241 0.9241
3395.000000 0.9241 0.9241 0.9241 0.9241 0.9240
3390.000000 0.9240 0.9241 0.9243 0.9244 0.9246
3385.000000 0.9248 0.9250 0.9251 0.9253 0.9254
3380.000000 0.9256 0.9257 0.9258 0.9258 0.9259
3375.000000 0.9260 0.9261 0.9261 0.9262 0.9263
3370.000000 0.9264 0.9264 0.9265 0.9266 0.9267
3365.000000 0.9267 0.9268 0.9268 0.9270 0.9271
3360.000000 0.9271 0.9271 0.9273 0.9274 0.9275
3355.000000 0.9275 0.9277 0.9277 0.9278 0.9278
3350.000000 0.9280 0.9281 0.9282 0.9282 0.9283
3345.000000 0.9283 0.9283 0.9283 0.9284 0.9284
3340.000000 0.9284 0.9284 0.9285 0.9285 0.9285
3335.000000 0.9281 0.9277 0.9273 0.9270 0.9266
3330.000000 0.9262 0.9258 0.9254 0.9249 0.9244
3325.000000 0.9237 0.9230 0.9223 0.9216 0.9210
3320.000000 0.9205 0.9203 0.9201 0.9199 0.9197
3315.000000 0.9196 0.9196 0.9196 0.9196 0.9196
3310.000000 0.9196 0.9201 0.9206 0.9210 0.9215
3305.000000 0.9220 0.9225 0.9230 0.9235 0.9234
3300.000000 0.9234 0.9233 0.9233 0.9232 0.9232
3295.000000 0.9231 0.9231 0.9228 0.9228 0.9225
3290.000000 0.9221 0.9218 0.9215 0.9212 0.9209
3285.000000 0.9205 0.9202 0.9199 0.9196 0.9193
3280.000000 0.9190 0.9187 0.9184 0.9181 0.9178
3275.000000 0.9175 0.9173 0.9170 0.9168 0.9165
3270.000000 0.9163 0.9162 0.9162 0.9163 0.9167
3265.000000 0.9170 0.9174 0.9177 0.9181 0.9185
3260.000000 0.9189 0.9192 0.9196 0.9200 0.9204
3255.000000 0.9207 0.9211 0.9214 0.9218 0.9221
3250.000000 0.9225 0.9228 0.9233 0.9237 0.9241
3245.000000 0.9244 0.9248 0.9251 0.9255 0.9258
3240.000000 0.9261 0.9264 0.9267 0.9270 0.9273
3235.000000 0.9275 0.9278 0.9281 0.9284 0.9287
3230.000000 0.9290 0.9293 0.9296 0.9299 0.9302
3225.000000 0.9304 0.9307 0.9310 0.9313 0.9314
3220.000000 0.9315 0.9316 0.9317 0.9318 0.9318
3215.000000 0.9318 0.9320 0.9321 0.9321 0.9323
3210.000000 0.9324 0.9324 0.9325 0.9325 0.9327
3205.000000 0.9328 0.9328 0.9328 0.9330 0.9331
3200.000000 0.9331 0.9331 0.9331 0.9331 0.9331
3195.000000 0.9331 0.9331 0.9331 0.9331 0.9331
3190.000000 0.9331 0.9330 0.9330 0.9330 0.9330
3185.000000 0.9330 0.9330 0.9330 0.9330 0.9330
3180.000000 0.9330 0.9328 0.9328 0.9328 0.9328
3175.000000 0.9327 0.9325 0.9325 0.9325 0.9324
3170.000000 0.9324 0.9323 0.9323 0.9321 0.9321
3165.000000 0.9320 0.9320 0.9318 0.9318 0.9318
3160.000000 0.9318 0.9316 0.9315 0.9313 0.9311
3155.000000 0.9309 0.9308 0.9306 0.9305 0.9303
3150.000000 0.9301 0.9298 0.9295 0.9292 0.9290
3145.000000 0.9287 0.9285 0.9282 0.9242 0.9277
3140.000000 0.9275 0.9271 0.9268 0.9265 0.9261
3135.000000 0.9256 0.9252 0.9248 0.9244 0.9240
3130.000000 0.9236 0.9231 0.9227 0.9221 0.9215
3125.000000 0.9209 0.9203 0.9195 0.9188 0.9178
3120.000000 0.9168 0.9157 0.9146 0.9131 0.9116
3115.000000 0.9096 0.9077 0.9058 0.9040 0.9021
3110.000000 0.9004 0.8983 0.8963 0.8951 0.8940
3105.000000 0.8785 0.8631 0.8481 0.8332 0.8182
3100.000000 0.7978 0.8017 0.8001 0.8001 0.8001
3095.000000 0.8040 0.8078 0.8157 0.8236 0.8315
3090.000000 0.8394 0.8473 0.8552 0.8621 0.8692
3085.000000 0.8695 0.8698 0.8700 0.8731 0.8680
3080.000000 0.8658 0.8602 0.8547 0.8491 0.8436
3075.000000 0.8380 0.8324 0.8268 0.8213 0.8157
3070.000000 0.8101 0.8045 0.7990 0.7934 0.7878
3065.000000 0.7868 0.7857 0.7838 0.7819 0.7649
3060.000000 0.7478 0.7308 0.7138 0.6967 0.6796
3055.000000 0.6625 0.6455 0.6284 0.6114 0.5943
3050.000000 0.5772 0.5601 0.5431 0.5260 0.5090
3045.000000 0.4919 0.4748 0.4489 0.4231 0.3810
3040.000000 0.3392 0.2973 0.2554 0.2134 0.1715
3035.000000 0.1295 0.0593 0.0743 0.0611 0.0613
3030.000000 0.0615 0.0763 0.0912 0.1190 0.1469
3025.000000 0.1746 0.2025 0.2303 0.2581 0.2859
3020.000000 0.3137 0.3414 0.3693 0.3970 0.4248
3015.000000 0.4520 0.4792 0.5064 0.5336 0.5608
3010.000000 0.5880 0.6152 0.6424 0.6484 0.6544
3005.000000 0.6544 0.6545 0.6504 0.6464 0.6397
3000.000000 0.6330 0.6262 0.6196 0.6129 0.6062
2995.000000 0.6031 0.6000 0.6024 0.6048 0.6184
2990.000000 0.6320 0.6456 0.6592 0.6728 0.6864
2985.000000 0.7000 0.7136 0.7240 0.7348 0.7345
2980.000000 0.7345 0.7315 0.7288 0.7210 0.7133
2975.000000 0.7056 0.6978 0.6940 0.6901 0.6889
2970.000000 0.6876 0.6864 0.6851 0.6842 0.6832
2965.000000 0.6771 0.6712 0.6610 0.6358 0.6422
2960.000000 0.6339 0.6333 0.6328 0.6380 0.6433
2955.000000 0.6596 0.6758 0.6921 0.7084 0.7246
2950.000000 0.7408 0.7571 0.7734 0.7848 0.7961
2945.000000 0.7969 0.7978 0.7988 0.7997 0.8000
2940.000000 0.8004 0.8005 0.8005 0.8004 0.8000
2935.000000 0.7995 0.7991 0.7987 0.7983 0.7975
2930.000000 0.7968 0.7958 0.7949 0.7939 0.7930
2925.000000 0.7919 0.7911 0.7878 0.7846 0.7778
2920.000000 0.7712 0.7568 0.7425 0.7308 0.7192
2915.000000 0.7115 0.7039 0.6961 0.6886 0.6761
2910.000000 0.6636 0.6401 0.6166 0.6007 0.5849
2905.000000 0.5608 0.5367 0.5126 0.4885 0.4644
2900.000000 0.4404 0.4162 0.3922 0.3680 0.3440
2895.000000 0.3199 0.2958 0.2717 0.2476 0.2234
2890.000000 0.1994 0.1753 0.1512 0.1310 0.1074
2885.000000 0.1108 0.1109 0.1110 0.1112 0.1371
2880.000000 0.1629 0.1975 0.2320 0.2497 0.2675
2875.000000 0.2673 0.2682 0.2670 0.2669 0.2634
2870.000000 0.2601 0.2484 0.2368 0.2251 0.2134
2865.000000 0.2017 0.1800 0.1800 0.1799 0.1796
2860.000000 0.1795 0.1890 0.1984 0.2204 0.2423
2855.000000 0.2642 0.2862 0.3081 0.3300 0.3518
2850.000000 0.3738 0.3957 0.4177 0.4396 0.4615
2845.000000 0.4800 0.5000 0.5000 0.5000 0.5005
2840.000000 0.5010 0.5010 0.5012 0.4662 0.4315
2835.000000 0.3768 0.3224 0.2678 0.2132 0.1586
2830.000000 0.1040 0.0757 0.0475 0.0471 0.0469
2825.000000 0.0467 0.0496 0.0466 0.0466 0.1660
2820.000000 0.2855 0.3949 0.5043 0.5191 0.5340
2815.000000 0.5523 0.5706 0.5927 0.6148 0.6270
2810.000000 0.6392 0.6518 0.6644 0.6769 0.6896
2805.000000 0.7021 0.7147 0.7272 0.7399 0.7524
2800.000000 0.7650 0.7775 0.7901 0.8026 0.8153
2795.000000 0.8245 0.8337 0.8341 0.8346 0.8344
2790.000000 0.8343 0.8336 0.8330 0.8313 0.8297
2785.000000 0.8259 0.8221 0.8213 0.8206 0.8217
2780.000000 0.8228 0.8280 0.8332 0.8389 0.8446
2775.000000 0.8501 0.8556 0.8585 0.8614 0.8642
2770.000000 0.8671 0.8700 0.8728 0.8751 0.8774
2765.000000 0.8793 0.8813 0.8827 0.8841 0.8851
2760.000000 0.8862 0.8873 0.8884 0.8889 0.8894
2755.000000 0.8895 0.8897 0.8898 0.8900 0.8902
2750.000000 0.8905 0.8909 0.8913 0.8917 0.8921
2745.000000 0.8930 0.8939 0.8953 0.8967 0.8978
2740.000000 0.8978 0.8978 0.8966 0.8944 0.8921
2735.000000 0.8882 0.8842 0.8805 0.8768 0.8762
2730.000000 0.8757 0.8751 0.8746 0.8739 0.8739
2725.000000 0.8739 0.8745 0.8755 0.8765 0.8808
2720.000000 0.8851 0.8893 0.8936 0.8975 0.9016
2715.000000 0.9036 0.9056 0.9075 0.9096 0.9121
2710.000000 0.9146 0.9152 0.9159 0.9165 0.9171
2705.000000 0.9171 0.9173 0.9173 0.9173 0.9115
2700.000000 0.9057 0.8999 0.8941 0.8928 0.8918
2695.000000 0.8906 0.8895 0.8881 0.8867 0.8845
2690.000000 0.8823 0.8801 0.8778 0.8751 0.8724
2685.000000 0.8689 0.8655 0.8574 0.8494 0.8413
2680.000000 0.8332 0.8256 0.8180 0.8178 0.8143
2675.000000 0.8174 0.8172 0.8171 0.8169 0.8220
2670.000000 0.8271 0.8331 0.8391 0.8451 0.8511
2665.000000 0.8571 0.8631 0.8691 0.8751 0.8811
2660.000000 0.8871 0.8931 0.8991 0.9051 0.9111
2655.000000 0.9136 0.9161 0.9165 0.9168 0.9173
2650.000000 0.9177 0.9181 0.9186 0.9190 0.9194
2645.000000 0.9197 0.9201 0.9204 0.9208 0.9211
2640.000000 0.9215 0.9217 0.9218 0.9221 0.9223
2635.000000 0.9224 0.9225 0.9227 0.9228 0.9230
2630.000000 0.9232 0.9233 0.9235 0.9236 0.9238
2625.000000 0.9240 0.9242 0.9243 0.9245 0.9246
2620.000000 0.9247 0.9247 0.9248 0.9249 0.9250
2615.000000 0.9251 0.9252 0.9253 0.9254 0.9254
2610.000000 0.9255 0.9256 0.9257 0.9258 0.9259
2605.000000 0.9259 0.9260 0.9260 0.9260 0.9260
2600.000000 0.9260 0.9260 0.9260 0.9260 0.9260
2595.000000 0.9260 0.9260 0.9260 0.9260 0.9260
2590.000000 0.9261 0.9261 0.9261 0.9261 0.9261
2585.000000 0.9261 0.9261 0.9261 0.9261 0.9261
2580.000000 0.9261 0.9261 0.9261 0.9260 0.9260
2575.000000 0.9260 0.9260 0.9260 0.9260 0.9260
2570.000000 0.9260 0.9260 0.9260 0.9259 0.9259
2565.000000 0.9259 0.9259 0.9259 0.9259 0.9259
2560.000000 0.9259 0.9259 0.9259 0.9258 0.9258
2555.000000 0.9258 0.9258 0.9258 0.9259 0.9259
2550.000000 0.9260 0.9260 0.9261 0.9261 0.9262
2545.000000 0.9262 0.9263 0.9263 0.9264 0.9264
2540.000000 0.9265 0.9265 0.9266 0.9266 0.9267
2535.000000 0.9267 0.9268 0.9268 0.9268 0.9268
2530.000000 0.9270 0.9270 0.9271 0.9271 0.9271
2525.000000 0.9271 0.9271 0.9271 0.9271 0.9271
2520.000000 0.9271 0.9271 0.9271 0.9270 0.9270
2515.000000 0.9270 0.9270 0.9270 0.9270 0.9268
2510.000000 0.9268 0.9268 0.9268 0.9268 0.9268
2505.000000 0.9268 0.9268 0.9268 0.9268 0.9267
2500.000000 0.9267 0.9267 0.9267 0.9266 0.9266
2495.000000 0.9266 0.9266 0.9266 0.9266 0.9265
2490.000000 0.9265 0.9264 0.9263 0.9262 0.9262
2485.000000 0.9261 0.9260 0.9259 0.9259 0.9258
2480.000000 0.9257 0.9256 0.9256 0.9255 0.9254
2475.000000 0.9253 0.9253 0.9252 0.9251 0.9250
2470.000000 0.9250 0.9249 0.9248 0.9247 0.9247
2465.000000 0.9246 0.9245 0.9244 0.9244 0.9243
2460.000000 0.9242 0.9241 0.9241 0.9240 0.9240
2455.000000 0.9239 0.9239 0.9238 0.9238 0.9237
2450.000000 0.9236 0.9235 0.9235 0.9234 0.9234
2445.000000 0.9233 0.9233 0.9232 0.9232 0.9231
2440.000000 0.9231 0.9230 0.9230 0.9228 0.9228
2435.000000 0.9227 0.9227 0.9225 0.9225 0.9225
2430.000000 0.9224 0.9223 0.9221 0.9221 0.9220
2425.000000 0.9218 0.9218 0.9217 0.9216 0.9215
2420.000000 0.9214 0.9213 0.9212 0.9211 0.9210
2415.000000 0.9209 0.9208 0.9207 0.9207 0.9206
2410.000000 0.9205 0.9202 0.9200 0.9197 0.9194
2405.000000 0.9191 0.9189 0.9186 0.9183 0.9180
2400.000000 0.9178 0.9175 0.9171 0.9168 0.9167
2395.000000 0.9164 0.9162 0.9158 0.9155 0.9152
2390.000000 0.9149 0.9146 0.9143 0.9139 0.9136
2385.000000 0.9133 0.9130 0.9128 0.9127 0.9125
2380.000000 0.9124 0.9123 0.9121 0.9121 0.9120
2375.000000 0.9118 0.9118 0.9117 0.9117 0.9117
2370.000000 0.9117 0.9116 0.9116 0.9116 0.9116
2365.000000 0.9115 0.9115 0.9114 0.9114 0.9114
2360.000000 0.9114 0.9113 0.9113 0.9113 0.9113
2355.000000 0.9113 0.9113 0.9113 0.9114 0.9115
2350.000000 0.9116 0.9117 0.9118 0.9118 0.9120
2345.000000 0.9121 0.9121 0.9123 0.9124 0.9125
2340.000000 0.9125 0.9127 0.9128 0.9128 0.9128
2335.000000 0.9130 0.9131 0.9132 0.9133 0.9134
2330.000000 0.9135 0.9136 0.9137 0.9138 0.9139
2325.000000 0.9140 0.9142 0.9144 0.9146 0.9147
2320.000000 0.9149 0.9151 0.9153 0.9155 0.9157
2315.000000 0.9159 0.9161 0.9162 0.9164 0.9166
2310.000000 0.9168 0.9170 0.9171 0.9174 0.9175
2305.000000 0.9177 0.9178 0.9181 0.9183 0.9185
2300.000000 0.9187 0.9188 0.9190 0.9191 0.9192
2295.000000 0.9193 0.9194 0.9195 0.9196 0.9197
2290.000000 0.9198 0.9199 0.9200 0.9201 0.9202
2285.000000 0.9203 0.9204 0.9205 0.9206 0.9206
2280.000000 0.9207 0.9208 0.9209 0.9210 0.9211
2275.000000 0.9212 0.9213 0.9214 0.9215 0.9216
2270.000000 0.9217 0.9218 0.9218 0.9218 0.9220
2265.000000 0.9220 0.9220 0.9218 0.9218 0.9218
2260.000000 0.9218 0.9218 0.9218 0.9218 0.9218
2255.000000 0.9217 0.9217 0.9217 0.9217 0.9216
2250.000000 0.9216 0.9216 0.9216 0.9216 0.9216
2245.000000 0.9215 0.9215 0.9215 0.9215 0.9214
2240.000000 0.9214 0.9214 0.9214 0.9214 0.9214
2235.000000 0.9214 0.9214 0.9213 0.9213 0.9213
2230.000000 0.9213 0.9213 0.9213 0.9213 0.9213
2225.000000 0.9213 0.9213 0.9213 0.9213 0.9212
2220.000000 0.9212 0.9212 0.9212 0.9212 0.9212
2215.000000 0.9212 0.9212 0.9212 0.9213 0.9213
2210.000000 0.9213 0.9213 0.9213 0.9213 0.9213
2205.000000 0.9213 0.9214 0.9214 0.9214 0.9214
2200.000000 0.9214 0.9214 0.9214 0.9214 0.9215
2195.000000 0.9215 0.9215 0.9215 0.9215 0.9215
2190.000000 0.9215 0.9215 0.9214 0.9210 0.9207
2185.000000 0.9197 0.9187 0.9175 0.9164 0.9153
2180.000000 0.9142 0.9130 0.9118 0.9106 0.9094
2175.000000 0.9084 0.9074 0.9066 0.9058 0.9049
2170.000000 0.9041 0.9033 0.9025 0.9025 0.9025
2165.000000 0.9025 0.9025 0.9025 0.9027 0.9027
2160.000000 0.9028 0.9028 0.9028 0.9028 0.9030
2155.000000 0.9038 0.9047 0.9058 0.9068 0.9080
2150.000000 0.9091 0.9101 0.9111 0.9118 0.9128
2145.000000 0.9136 0.9145 0.9153 0.9162 0.9170
2140.000000 0.9178 0.9181 0.9184 0.9185 0.9186
2135.000000 0.9187 0.9189 0.9190 0.9192 0.9193
2130.000000 0.9195 0.9196 0.9197 0.9198 0.9199
2125.000000 0.9195 0.9192 0.9189 0.9186 0.9182
2120.000000 0.9178 0.9175 0.9171 0.9168 0.9165
2115.000000 0.9162 0.9159 0.9156 0.9154 0.9152
2110.000000 0.9150 0.9148 0.9147 0.9145 0.9143
2105.000000 0.9141 0.9140 0.9138 0.9136 0.9134
2100.000000 0.9133 0.9131 0.9128 0.9127 0.9125
2095.000000 0.9125 0.9124 0.9123 0.9123 0.9123
2090.000000 0.9123 0.9123 0.9123 0.9123 0.9123
2085.000000 0.9123 0.9123 0.9121 0.9121 0.9121
2080.000000 0.9121 0.9120 0.9118 0.9118 0.9117
2075.000000 0.9116 0.9115 0.9113 0.9112 0.9111
2070.000000 0.9110 0.9109 0.9108 0.9107 0.9106
2065.000000 0.9104 0.9103 0.9102 0.9101 0.9100
2060.000000 0.9099 0.9098 0.9097 0.9096 0.9096
2055.000000 0.9095 0.9095 0.9094 0.9094 0.9093
2050.000000 0.9093 0.9092 0.9092 0.9091 0.9091
2045.000000 0.9090 0.9090 0.9089 0.9089 0.9088
2040.000000 0.9088 0.9087 0.9087 0.9086 0.9086
2035.000000 0.9085 0.9085 0.9084 0.9084 0.9083
2030.000000 0.9083 0.9082 0.9082 0.9081 0.9081
2025.000000 0.9080 0.9078 0.9078 0.9078 0.9077
2020.000000 0.9077 0.9075 0.9075 0.9075 0.9075
2015.000000 0.9074 0.9074 0.9073 0.9073 0.9071
2010.000000 0.9071 0.9073 0.9074 0.9074 0.9075
2005.000000 0.9075 0.9075 0.9077 0.9078 0.9078
2000.000000 0.9080 0.9083 0.9087 0.9090 0.9093
1995.000000 0.9097 0.9100 0.9108 0.9116 0.9124
1990.000000 0.9132 0.9121 0.9111 0.9101 0.9090
1985.000000 0.9086 0.9083 0.9081 0.9078 0.9078
1980.000000 0.9077 0.9086 0.9094 0.9103 0.9111
1975.000000 0.9120 0.9121 0.9121 0.9112 0.9103
1970.000000 0.9094 0.9085 0.9073 0.9058 0.9044
1965.000000 0.9030 0.9016 0.9006 0.8995 0.8985
1960.000000 0.8975 0.8965 0.8954 0.8937 0.8915
1955.000000 0.8892 0.8866 0.8824 0.8781 0.8755
1950.000000 0.8732 0.8727 0.8723 0.8723 0.8723
1945.000000 0.8728 0.8735 0.8746 0.8757 0.8763
1940.000000 0.8762 0.8761 0.8760 0.8756 0.8749
1935.000000 0.8742 0.8724 0.8707 0.8689 0.8667
1930.000000 0.8642 0.8618 0.8598 0.8597 0.8595
1925.000000 0.8594 0.8597 0.8608 0.8645 0.8681
1920.000000 0.8714 0.8740 0.8766 0.8791 0.8811
1915.000000 0.8823 0.8831 0.8828 0.8825 0.8817
1910.000000 0.8798 0.8778 0.8754 0.8727 0.8700
1905.000000 0.8671 0.8640 0.8608 0.8584 0.8566
1900.000000 0.8549 0.8539 0.8533 0.8528 0.8521
1895.000000 0.8517 0.8512 0.8527 0.8546 0.8593
1890.000000 0.8617 0.8639 0.8662 0.8685 0.8708
1885.000000 0.8728 0.8743 0.8757 0.8771 0.8786
1880.000000 0.8800 0.8815 0.8828 0.8843 0.8863
1875.000000 0.8884 0.8905 0.8924 0.8940 0.8957
1870.000000 0.8973 0.8992 0.9012 0.9031 0.9050
1865.000000 0.9060 0.9060 0.9060 0.9051 0.9046
1860.000000 0.9042 0.9039 0.9036 0.9033 0.9030
1855.000000 0.9028 0.9028 0.9030 0.9033 0.9035
1850.000000 0.9037 0.9040 0.9042 0.9044 0.9046
1845.000000 0.9048 0.9054 0.9054 0.9054 0.9054
1840.000000 0.9055 0.9054 0.9053 0.9052 0.9051
1835.000000 0.9050 0.9049 0.9048 0.9043 0.9038
1830.000000 0.9033 0.9027 0.9021 0.9017 0.9014
1825.000000 0.9010 0.9006 0.9003 0.9000 0.9000
1820.000000 0.9001 0.9001 0.9002 0.9005 0.9014
1815.000000 0.9023 0.9036 0.9049 0.9062 0.9073
1810.000000 0.9082 0.9090 0.9094 0.9094 0.9094
1805.000000 0.9095 0.9095 0.9095 0.9090 0.9078
1800.000000 0.9068 0.9057 0.9048 0.9040 0.9032
1795.000000 0.9024 0.9021 0.9020 0.9020 0.9020
1790.000000 0.9020 0.9021 0.9028 0.9033 0.9039
1785.000000 0.9045 0.9051 0.9058 0.9065 0.9071
1780.000000 0.9078 0.9086 0.9097 0.9108 0.9120
1775.000000 0.9128 0.9140 0.9146 0.9147 0.9148
1770.000000 0.9148 0.9146 0.9143 0.9136 0.9117
1765.000000 0.9098 0.9078 0.9056 0.9025 0.8996
1760.000000 0.8966 0.8937 0.8908 0.8878 0.8851
1755.000000 0.8823 0.8796 0.8768 0.8743 0.8718
1750.000000 0.8693 0.8668 0.8650 0.8632 0.8615
1745.000000 0.8605 0.8604 0.8604 0.8604 0.8604
1740.000000 0.8607 0.8608 0.8608 0.8604 0.8599
1735.000000 0.8585 0.8571 0.8557 0.8533 0.8508
1730.000000 0.8485 0.8465 0.8444 0.8417 0.8370
1725.000000 0.8324 0.8278 0.8232 0.8185 0.8121
1720.000000 0.8175 0.8267 0.8325 0.8389 0.8457
1715.000000 0.8521 0.8582 0.8617 0.8645 0.8659
1710.000000 0.8673 0.8687 0.8695 0.8702 0.8709
1705.000000 0.8715 0.8721 0.8728 0.8730 0.8780
1700.000000 0.8720 0.8708 0.8696 0.8683 0.8668
1695.000000 0.8654 0.8640 0.8625 0.8603 0.8580
1690.000000 0.8557 0.8530 0.8493 0.8457 0.8420
1685.000000 0.8380 0.8335 0.8290 0.8245 0.8199
1680.000000 0.8151 0.8086 0.8021 0.7953 0.7872
1675.000000 0.7756 0.7634 0.7682 0.7681 0.7680
1670.000000 0.7775 0.7897 0.8015 0.8133 0.8193
1665.000000 0.8250 0.8304 0.8350 0.8389 0.8418
1660.000000 0.8451 0.8461 0.8470 0.8473 0.8473
1655.000000 0.8473 0.8468 0.8457 0.8423 0.8377
1650.000000 0.8328 0.8271 0.8203 0.7819 0.7335
1645.000000 0.6849 0.6364 0.5879 0.5394 0.4704
1640.000000 0.4699 0.4694 0.4902 0.5349 0.5795
1635.000000 0.6241 0.6687 0.7134 0.7580 0.8025
1630.000000 0.8305 0.8330 0.8321 0.8321 0.8321
1625.000000 0.8315 0.8308 0.8301 0.8293 0.8281
1620.000000 0.8268 0.8256 0.8243 0.8228 0.8213
1615.000000 0.8196 0.8178 0.8158 0.8143 0.8126
1610.000000 0.8121 0.8118 0.8117 0.8117 0.8118
1605.000000 0.8122 0.8144 0.8175 0.8210 0.8282
1600.000000 0.8341 0.8393 0.8440 0.8478 0.8516
1595.000000 0.8555 0.8567 0.8578 0.8589 0.8601
1590.000000 0.8618 0.8638 0.8659 0.8678 0.8694
1585.000000 0.8707 0.8720 0.8733 0.8746 0.8759
1580.000000 0.8771 0.8774 0.8775 0.8778 0.8778
1575.000000 0.8781 0.8794 0.8816 0.8837 0.8859
1570.000000 0.8881 0.8904 0.8925 0.8949 0.8971
1565.000000 0.8994 0.9018 0.9042 0.9066 0.9075
1560.000000 0.9082 0.9089 0.9095 0.9102 0.9109
1555.000000 0.9111 0.9106 0.9101 0.9095 0.9090
1550.000000 0.9084 0.9078 0.9071 0.9065 0.9058
1545.000000 0.9051 0.9044 0.9037 0.9031 0.9031
1540.000000 0.9032 0.9032 0.9032 0.9032 0.9032
1535.000000 0.9032 0.9032 0.9033 0.9033 0.9034
1530.000000 0.9036 0.9037 0.9038 0.9039 0.9041
1525.000000 0.9042 0.9081 0.9045 0.9048 0.9050
1520.000000 0.9053 0.9055 0.9058 0.9060 0.9063
1515.000000 0.9065 0.9068 0.9068 0.9067 0.9067
1510.000000 0.9066 0.9065 0.9064 0.9063 0.9062
1505.000000 0.9061 0.9061 0.9058 0.9054 0.9049
1500.000000 0.9045 0.9041 0.9036 0.9032 0.9023
1495.000000 0.9015 0.9006 0.8998 0.8990 0.8981
1490.000000 0.8971 0.8961 0.8951 0.8940 0.8930
1485.000000 0.8920 0.8910 0.8899 0.8889 0.8877
1480.000000 0.8864 0.8851 0.8838 0.8825 0.8813
1475.000000 0.8800 0.8787 0.8774 0.8761 0.8749
1470.000000 0.8736 0.8723 0.8710 0.8696 0.8678
1465.000000 0.8659 0.8641 0.8621 0.8604 0.8585
1460.000000 0.8564 0.8543 0.8521 0.8500 0.8478
1455.000000 0.8460 0.8443 0.8427 0.8410 0.8393
1450.000000 0.8375 0.8354 0.8333 0.8313 0.8280
1445.000000 0.8239 0.8196 0.8151 0.8069 0.7989
1440.000000 0.7546 0.6850 0.6154 0.5458 0.4762
1435.000000 0.4066 0.3371 0.2675 0.2035 0.2013
1430.000000 0.2340 0.3070 0.3800 0.4530 0.5260
1425.000000 0.5990 0.6719 0.7308 0.7421 0.7518
1420.000000 0.7614 0.7694 0.7761 0.7838 0.7858
1415.000000 0.7864 0.7842 0.7875 0.7875 0.7358
1410.000000 0.6840 0.6302 0.6297 0.6414 0.6750
1405.000000 0.7085 0.7419 0.7755 0.8091 0.8358
1400.000000 0.8412 0.8466 0.8498 0.8530 0.8552
1395.000000 0.8574 0.8596 0.8613 0.8630 0.8645
1390.000000 0.8657 0.8668 0.8677 0.8683 0.8684
1385.000000 0.8685 0.8681 0.8677 0.8671 0.8655
1380.000000 0.8636 0.8617 0.8592 0.8566 0.8539
1375.000000 0.8513 0.8486 0.8435 0.8385 0.8334
1370.000000 0.8278 0.8223 0.8168 0.8100 0.8018
1365.000000 0.7937 0.7842 0.7746 0.7658 0.7594
1360.000000 0.7584 0.7591 0.7598 0.7606 0.7614
1355.000000 0.7621 0.7635 0.7650 0.7676 0.7722
1350.000000 0.7792 0.7881 0.7976 0.8076 0.8175
1345.000000 0.8268 0.8318 0.8366 0.8393 0.8413
1340.000000 0.8433 0.8435 0.8438 0.8440 0.8442
1335.000000 0.8444 0.8447 0.8451 0.8461 0.8470
1330.000000 0.8480 0.8489 0.8499 0.8508 0.8523
1325.000000 0.8540 0.8556 0.8571 0.8588 0.8603
1320.000000 0.8614 0.8625 0.8637 0.8649 0.8660
1315.000000 0.8670 0.8678 0.8689 0.8698 0.8707
1310.000000 0.8716 0.8725 0.8735 0.8740 0.8742
1305.000000 0.8743 0.8745 0.8747 0.8748 0.8748
1300.000000 0.8748 0.8748 0.8747 0.8747 0.8742
1295.000000 0.8737 0.8733 0.8728 0.8723 0.8718
1290.000000 0.8715 0.8711 0.8707 0.8708 0.8708
1285.000000 0.8710 0.8728 0.8715 0.8717 0.8718
1280.000000 0.8718 0.8718 0.8718 0.8717 0.8716
1275.000000 0.8715 0.8714 0.8713 0.8712 0.8709
1270.000000 0.8706 0.8703 0.8701 0.8698 0.8695
1265.000000 0.8692 0.8689 0.8686 0.8684 0.8681
1260.000000 0.8678 0.8675 0.8671 0.8666 0.8660
1255.000000 0.8654 0.8648 0.8642 0.8637 0.8631
1250.000000 0.8624 0.8616 0.8609 0.8601 0.8593
1245.000000 0.8586 0.8578 0.8571 0.8563 0.8555
1240.000000 0.8546 0.8537 0.8527 0.8518 0.8508
1235.000000 0.8499 0.8489 0.8478 0.8466 0.8453
1230.000000 0.8441 0.8428 0.8416 0.8404 0.8391
1225.000000 0.8377 0.8363 0.8349 0.8334 0.8320
1220.000000 0.8306 0.8292 0.8277 0.8257 0.8237
1215.000000 0.8217 0.8197 0.8175 0.8138 0.8101
1210.000000 0.8062 0.8022 0.7983 0.7912 0.7843
1205.000000 0.7775 0.7707 0.7644 0.7582 0.7534
1200.000000 0.7491 0.7451 0.7411 0.7394 0.7415
1195.000000 0.7418 0.7421 0.7422 0.7451 0.7481
1190.000000 0.7510 0.7538 0.7567 0.7591 0.7614
1185.000000 0.7636 0.7658 0.7680 0.7701 0.7718
1180.000000 0.7735 0.7751 0.7768 0.7786 0.7803
1175.000000 0.7818 0.7831 0.7837 0.7843 0.7843
1170.000000 0.7843 0.7832 0.7818 0.7796 0.7774
1165.000000 0.7751 0.7711 0.7655 0.7581 0.7506
1160.000000 0.7428 0.7350 0.7251 0.7115 0.7072
1155.000000 0.7085 0.7083 0.7171 0.7356 0.7451
1150.000000 0.7544 0.7622 0.7701 0.7776 0.7825
1145.000000 0.7875 0.7925 0.7971 0.8003 0.8034
1140.000000 0.8065 0.8089 0.8105 0.8121 0.8137
1135.000000 0.8151 0.8168 0.8184 0.8196 0.8204
1130.000000 0.8212 0.8220 0.8228 0.8235 0.8243
1125.000000 0.8251 0.8259 0.8266 0.8274 0.8281
1120.000000 0.8288 0.8295 0.8302 0.8309 0.8317
1115.000000 0.8324 0.8330 0.8333 0.8336 0.8340
1110.000000 0.8343 0.8346 0.8349 0.8352 0.8354
1105.000000 0.8355 0.8356 0.8357 0.8358 0.8358
1100.000000 0.8359 0.8360 0.8361 0.8361 0.8361
1095.000000 0.8359 0.8356 0.8354 0.8351 0.8349
1090.000000 0.8346 0.8344 0.8341 0.8338 0.8336
1085.000000 0.8333 0.8331 0.8328 0.8325 0.8321
1080.000000 0.8317 0.8312 0.8308 0.8304 0.8299
1075.000000 0.8295 0.8291 0.8286 0.8282 0.8277
1070.000000 0.8271 0.8268 0.8263 0.8258 0.8253
1065.000000 0.8248 0.8243 0.8238 0.8233 0.8228
1060.000000 0.8223 0.8218 0.8213 0.8209 0.8205
1055.000000 0.8201 0.8197 0.8193 0.8188 0.8184
1050.000000 0.8180 0.8175 0.8167 0.8158 0.8149
1045.000000 0.8140 0.8131 0.8121 0.8111 0.8097
1040.000000 0.8083 0.8068 0.7865 0.7845 0.7831
1035.000000 0.7817 0.7807 0.7797 0.7792 0.7790
1030.000000 0.7787 0.7786 0.7785 0.7789 0.7794
1025.000000 0.7798 0.7801 0.7814 0.7826 0.7840
1020.000000 0.7854 0.7867 0.7878 0.7890 0.7901
1015.000000 0.7912 0.7922 0.7933 0.7942 0.7951
1010.000000 0.7960 0.7965 0.7968 0.7971 0.7975
1005.000000 0.8001 0.7981 0.7974 0.7965 0.7957
1000.000000 0.7944 0.7924 0.7904 0.7884 0.7857
995.000000 0.7828 0.7801 0.7772 0.7742 0.7701
990.000000 0.7662 0.7624 0.7585 0.7545 0.7475
985.000000 0.7405 0.7334 0.7265 0.7206 0.7147
980.000000 0.7087 0.7024 0.6957 0.6891 0.6817
975.000000 0.6635 0.6461 0.6297 0.5923 0.5664
970.000000 0.5524 0.5391 0.5231 0.5050 0.4446
965.000000 0.3843 0.3239 0.2635 0.2032 0.1428
960.000000 0.0825 0.0225 0.0228 0.0218 0.0233
955.000000 0.0266 0.0320 0.0372 0.0471 0.1496
950.000000 0.2521 0.3546 0.4570 0.5158 0.5418
945.000000 0.5664 0.5936 0.6151 0.6269 0.6418
940.000000 0.6588 0.6725 0.6871 0.7043 0.7125
935.000000 0.7200 0.7275 0.7348 0.7415 0.7483
930.000000 0.7539 0.7590 0.7640 0.7690 0.7740
925.000000 0.7771 0.7798 0.7821 0.7839 0.7856
920.000000 0.7872 0.7890 0.7907 0.7922 0.7938
915.000000 0.7951 0.7965 0.7976 0.7989 0.8001
910.000000 0.8010 0.8018 0.8022 0.8021 0.8021
905.000000 0.8021 0.8012 0.8003 0.7985 0.7958
900.000000 0.7931 0.7874 0.7771 0.7638 0.7386
895.000000 0.7199 0.7084 0.6968 0.6751 0.6458
890.000000 0.6152 0.5357 0.4092 0.2827 0.1706
885.000000 0.1717 0.1698 0.1695 0.2110 0.3241
880.000000 0.4371 0.5502 0.6615 0.6710 0.6830
875.000000 0.7028 0.7124 0.7219 0.7364 0.7493
870.000000 0.7568 0.7626 0.7668 0.7711 0.7735
865.000000 0.7750 0.7764 0.7778 0.7787 0.7794
860.000000 0.7801 0.7808 0.7815 0.7826 0.7842
855.000000 0.7857 0.7871 0.7887 0.7911 0.7935
850.000000 0.7958 0.7983 0.8004 0.8019 0.8036
845.000000 0.8051 0.8068 0.8082 0.8094 0.8106
840.000000 0.8118 0.8130 0.8142 0.8151 0.8160
835.000000 0.8168 0.8176 0.8185 0.8193 0.8199
830.000000 0.8203 0.8207 0.8210 0.8214 0.8218
825.000000 0.8221 0.8225 0.8228 0.8231 0.8234
820.000000 0.8237 0.8240 0.8242 0.8245 0.8248
815.000000 0.8248 0.8248 0.8249 0.8249 0.8250
810.000000 0.8250 0.8250 0.8251 0.8251 0.8252
805.000000 0.8252 0.8253 0.8254 0.8255 0.8255
800.000000 0.8256 0.8257 0.8258 0.8258 0.8258
795.000000 0.8259 0.8259 0.8258 0.8257 0.8255
790.000000 0.8254 0.8253 0.8252 0.8251 0.8250
785.000000 0.8249 0.8248 0.8247 0.8245 0.8244
780.000000 0.8243 0.8242 0.8241 0.8240 0.8238
775.000000 0.8237 0.8236 0.8236 0.8236 0.8236
770.000000 0.8236 0.8236 0.8237 0.8237 0.8237
765.000000 0.8237 0.8237 0.8238 0.8238 0.8239
760.000000 0.8239 0.8240 0.8241 0.8241 0.8242
755.000000 0.8242 0.8242 0.8242 0.8241 0.8236
750.000000 0.8228 0.8214 0.8196 0.8178 0.8160
745.000000 0.8149 0.8139 0.8130 0.8128 0.8128
740.000000 0.8126 0.8125 0.8124 0.8121 0.8119
735.000000 0.8118 0.8115 0.8115 0.8112 0.8111
730.000000 0.8111 0.8094 0.8051 0.7986 0.7925
725.000000 0.7865 0.7830 0.7794 0.7757 0.7721
720.000000 0.7687 0.7655 0.7624 0.7592 0.7561
715.000000 0.7528 0.7498 0.7465 0.7433 0.7401
710.000000 0.7368 0.7337 0.7314 0.7291 0.7267
705.000000 0.7245 0.7224 0.7204 0.7183 0.7162
700.000000 0.7143 0.7122 0.7101 0.7082 0.7061
695.000000 0.7041 0.7019 0.6999 0.6975 0.6946
690.000000 0.6915 0.6887 0.6849 0.6803 0.6751
685.000000 0.6694 0.6636 0.6571 0.6487 0.6426
680.000000 0.6357 0.6259 0.6160 0.6062 0.5965
675.000000 0.5867 0.5769 0.5671 0.5629 0.5619
670.000000 0.5609 0.5600 0.5593 0.5586 0.5580
665.000000 0.5573 0.5562 0.5550 0.5538 0.5526
660.000000 0.5512 0.5499 0.5473 0.5447 0.5422
655.000000 0.5396 0.5364 0.5314 0.5264 0.5182
650.000000 0.5087 0.4985 0.4865 0.4745 0.4636
645.000000 0.4530 0.4416 0.4288 0.4177 0.4079
640.000000 0.3980 0.3775 0.3462 0.3165 0.2851
635.000000 0.2537 0.2223 0.1910 0.1596 0.1282
630.000000 0.0968 0.0654 0.0341 0.0292 0.0253
625.000000 0.0204 0.0145 0.0067 0.0044 0.0022
620.000000 0.0035 0.0043 0.0064 0.0100 0.0169
615.000000 0.0271 0.0455 0.0829 0.1167 0.1505
610.000000 0.1842 0.2180 0.2518 0.2855 0.3193
605.000000 0.3530 0.3868 0.4148 0.4316 0.4715
600.000000 0.4912 0.5125 0.5354 0.5528 0.5670
595.000000 0.5810 0.5945 0.6070 0.6190 0.6307
590.000000 0.6408 0.6511 0.6565 0.6618 0.6674
585.000000 0.6728 0.6782 0.6831 0.6880 0.6930
580.000000 0.6978 0.7021 0.7061 0.7101 0.7142
575.000000 0.7183 0.7224 0.7265 0.7291 0.7311
570.000000 0.7333 0.7344 0.7351 0.7358 0.7358
565.000000 0.7357 0.7355 0.7353 0.7340 0.7326
560.000000 0.7314 0.7301 0.7287 0.7274 0.7260
555.000000 0.7258 0.7256 0.7255 0.7269 0.7286
550.000000 0.7301 0.7318 0.7356 0.7395 0.7425
545.000000 0.7455 0.7484 0.7498 0.7508 0.7518
540.000000 0.7528 0.7526 0.7525 0.7525 0.7525
535.000000 0.7526 0.7530 0.7532 0.7535 0.7537
530.000000 0.7541 0.7549 0.7557 0.7565 0.7574
525.000000 0.7582 0.7589 0.7595 0.7600 0.7606
520.000000 0.7611 0.7617 0.7600 0.7624 0.7626
515.000000 0.7631 0.7634 0.7634 0.7634 0.7633
510.000000 0.7632 0.7631 0.7630 0.7628 0.7622
505.000000 0.7618 0.7611 0.7607 0.7601 0.7596
500.000000 0.7591 0.7584 0.7572 0.7561 0.7550
495.000000 0.7538 0.7526 0.7512 0.7499 0.7485
490.000000 0.7471 0.7457 0.7443 0.7432 0.7421
485.000000 0.7410 0.7400 0.7389 0.7372 0.7357
480.000000 0.7341 0.7319
##END=
