##TITLE=N-HEPTYL BROMIDE
##JCAMP-DX=4.24
##DATA TYPE=INFRARED SPECTRUM
##CLASS=COBLENTZ
##ORIGIN=CONTINENTAL OIL CO. (HAROLD F. SMITH)
##OWNER=COBLENTZ SOCIETY
Collection (C) 2018 copyright by the U.S. Secretary of Commerce
on behalf of the United States of America. All rights reserved.
##DATE=Not specified, most likely prior to 1970
##NAMES=1-bromoheptane
##CAS REGISTRY NO=629-04-9
##MOLFORM=C7 H15 Br
##SOURCE REFERENCE=COBLENTZ NO. 3752
##$NIST SOURCE=COBLENTZ
##$NIST IMAGE=cob3752
##SPECTROMETER/DATA SYSTEM=Not specified, most likely a prism, grating, or hybrid spectrometer.
##STATE=LIQUID
##PATH LENGTH=0.0036 CM
##SAMPLING PROCEDURE=TRANSMISSION
##RESOLUTION=4
##DATA PROCESSING=DIGITIZED BY NIST FROM HARD COPY
##XUNITS=MICROMETERS
##YUNITS=TRANSMITTANCE
##XFACTOR=1.000000
##YFACTOR=1
##DELTAX=000.006197
##FIRSTX=12.05
##LASTX=26.0126
##FIRSTY=0.902
##MAXX=26.0126
##MINX=12.05
##MAXY=0.962
##MINY=0.179
##NPOINTS=2254
##XYDATA=(X++(Y..Y))
12.050000 0.9020 0.9000 0.9000 0.9000 0.8970
12.081001 0.8910 0.8850 0.8820 0.8800 0.8770
12.112000 0.8750 0.8740 0.8740 0.8740 0.8740
12.143001 0.8740 0.8720 0.8710 0.8710 0.8690
12.174000 0.8620 0.8600 0.8580 0.8570 0.8520
12.205001 0.8490 0.8480 0.8430 0.8400 0.8380
12.236000 0.8370 0.8380 0.8400 0.8400 0.8410
12.267001 0.8430 0.8440 0.8460 0.8480 0.8490
12.297000 0.8510 0.8600 0.8690 0.8750 0.8800
12.328001 0.8890 0.8910 0.8940 0.9000 0.9020
12.359000 0.9030 0.9080 0.9100 0.9130 0.9140
12.390001 0.9170 0.9200 0.9240 0.9280 0.9300
12.421000 0.9300 0.9300 0.9300 0.9300 0.9300
12.452001 0.9300 0.9300 0.9300 0.9300 0.9300
12.483000 0.9300 0.9310 0.9330 0.9340 0.9370
12.514001 0.9390 0.9360 0.9330 0.9310 0.9330
12.545000 0.9330 0.9310 0.9310 0.9310 0.9310
12.576001 0.9310 0.9300 0.9300 0.9300 0.9250
12.607000 0.9190 0.9130 0.9100 0.9080 0.9020
12.638001 0.8990 0.8910 0.8850 0.8820 0.8790
12.669000 0.8740 0.8690 0.8630 0.8520 0.8430
12.700001 0.8380 0.8320 0.8260 0.8200 0.8100
12.731000 0.8060 0.8000 0.7950 0.7820 0.7700
12.762001 0.7610 0.7470 0.7340 0.7220 0.7160
12.793000 0.7100 0.7020 0.7000 0.6990 0.6990
12.824001 0.6990 0.7000 0.7050 0.7110 0.7190
12.855000 0.7240 0.7280 0.7360 0.7500 0.7530
12.886001 0.7610 0.7670 0.7730 0.7810 0.7820
12.917000 0.7890 0.7980 0.8000 0.8060 0.8090
12.948001 0.8100 0.8130 0.8180 0.8210 0.8230
12.979000 0.8230 0.8230 0.8230 0.8210 0.8200
13.010001 0.8180 0.8170 0.8170 0.8170 0.8170
13.041000 0.8170 0.8150 0.8130 0.8120 0.8090
13.072001 0.8040 0.8030 0.8010 0.8010 0.8000
13.103000 0.7980 0.7930 0.7920 0.7900 0.7870
13.134001 0.7820 0.7810 0.7810 0.7790 0.7750
13.165000 0.7730 0.7720 0.7700 0.7680 0.7670
13.196001 0.7650 0.7610 0.7580 0.7510 0.7480
13.227000 0.7440 0.7420 0.7410 0.7390 0.7330
13.258001 0.7310 0.7300 0.7280 0.7280 0.7270
13.289000 0.7220 0.7220 0.7220 0.7220 0.7220
13.320001 0.7220 0.7220 0.7220 0.7220 0.7200
13.351000 0.7190 0.7170 0.7140 0.7130 0.7100
13.382001 0.7080 0.7080 0.7050 0.7000 0.6970
13.413000 0.6960 0.6890 0.6820 0.6790 0.6720
13.444001 0.6720 0.6710 0.6690 0.6690 0.6680
13.475000 0.6680 0.6650 0.6620 0.6580 0.6540
13.506001 0.6510 0.6490 0.6490 0.6480 0.6480
13.537000 0.6480 0.6440 0.6410 0.6400 0.6380
13.568001 0.6380 0.6380 0.6380 0.6380 0.6340
13.599000 0.6310 0.6290 0.6290 0.6270 0.6270
13.630001 0.6270 0.6260 0.6240 0.6210 0.6210
13.661000 0.6200 0.6180 0.6170 0.6150 0.6120
13.692001 0.6100 0.6090 0.6070 0.6010 0.6000
13.723000 0.5980 0.5950 0.5780 0.5720 0.5610
13.754001 0.5440 0.5300 0.5100 0.5000 0.4940
13.785000 0.4830 0.4630 0.4400 0.4210 0.4060
13.816001 0.4010 0.3960 0.3920 0.3760 0.3610
13.847000 0.3420 0.3280 0.3130 0.2970 0.2720
13.878001 0.2630 0.2580 0.2490 0.2440 0.2380
13.909000 0.2340 0.2320 0.2320 0.2340 0.2380
13.940001 0.2410 0.2480 0.2520 0.2630 0.2750
13.971000 0.2880 0.2930 0.2960 0.3100 0.3410
14.002001 0.3510 0.3720 0.3920 0.4320 0.4430
14.033000 0.4520 0.4660 0.4790 0.4880 0.5000
14.064001 0.5050 0.5130 0.5250 0.5410 0.5580
14.095000 0.5760 0.5890 0.6000 0.6130 0.6310
14.126001 0.6430 0.6510 0.6680 0.6800 0.6880
14.157000 0.6990 0.7000 0.7030 0.7100 0.7190
14.188001 0.7240 0.7310 0.7340 0.7410 0.7470
14.219000 0.7510 0.7610 0.7650 0.7700 0.7750
14.250001 0.7790 0.7820 0.7860 0.7930 0.8000
14.281000 0.8120 0.8200 0.8230 0.8260 0.8310
14.312001 0.8340 0.8410 0.8430 0.8490 0.8510
14.343000 0.8520 0.8540 0.8600 0.8600 0.8660
14.374001 0.8720 0.8750 0.8790 0.8800 0.8820
14.405000 0.8860 0.8910 0.8930 0.8930 0.8930
14.436001 0.8930 0.8930 0.8930 0.8940 0.8960
14.467000 0.8990 0.8990 0.9000 0.9000 0.9020
14.498001 0.9020 0.9000 0.9000 0.9000 0.9000
14.529000 0.9020 0.9060 0.9080 0.9080 0.9080
14.560001 0.9100 0.9100 0.9100 0.9100 0.9100
14.591000 0.9100 0.9110 0.9130 0.9140 0.9140
14.622001 0.9140 0.9160 0.9170 0.9190 0.9190
14.653000 0.9190 0.9200 0.9220 0.9200 0.9190
14.684001 0.9140 0.9140 0.9130 0.9140 0.9160
14.714000 0.9140 0.9140 0.9130 0.9130 0.9130
14.745001 0.9130 0.9160 0.9160 0.9140 0.9130
14.776000 0.9110 0.9110 0.9100 0.9100 0.9110
14.807001 0.9110 0.9110 0.9110 0.9110 0.9110
14.838000 0.9100 0.9100 0.9030 0.9020 0.9020
14.869001 0.9000 0.8990 0.8990 0.9000 0.9000
14.900000 0.9000 0.9000 0.9000 0.9000 0.8960
14.931001 0.8940 0.8930 0.8910 0.8910 0.8910
14.962000 0.8910 0.8910 0.8940 0.8940 0.8890
14.993001 0.8880 0.8850 0.8820 0.8800 0.8800
15.024000 0.8820 0.8820 0.8830 0.8830 0.8820
15.055001 0.8800 0.8770 0.8740 0.8710 0.8660
15.086000 0.8550 0.8510 0.8490 0.8400 0.8370
15.117001 0.8350 0.8340 0.8310 0.8260 0.8200
15.148000 0.8120 0.8060 0.8010 0.8010 0.8000
15.179001 0.8000 0.7920 0.7920 0.7820 0.7720
15.210000 0.7680 0.7610 0.7510 0.7500 0.7390
15.241001 0.7300 0.7200 0.7140 0.7000 0.6890
15.272000 0.6790 0.6710 0.6630 0.6510 0.6370
15.303001 0.6130 0.6070 0.6000 0.5900 0.5790
15.334000 0.5590 0.5330 0.5190 0.5080 0.4910
15.365001 0.4790 0.4690 0.4580 0.4440 0.4290
15.396000 0.4100 0.4060 0.4000 0.3790 0.3700
15.427001 0.3530 0.3330 0.3250 0.3170 0.3000
15.458000 0.2890 0.2720 0.2520 0.2380 0.2290
15.489001 0.2180 0.2170 0.2130 0.2090 0.2030
15.520000 0.2010 0.2000 0.1960 0.1890 0.1820
15.551001 0.1810 0.1810 0.1790 0.1790 0.1790
15.582000 0.1790 0.1810 0.1810 0.1840 0.1870
15.613001 0.1920 0.1930 0.1930 0.1960 0.2120
15.644000 0.2180 0.2200 0.2240 0.2310 0.2490
15.675001 0.2580 0.2620 0.2710 0.2800 0.2880
15.706000 0.2990 0.3080 0.3130 0.3240 0.3310
15.737001 0.3420 0.3530 0.3620 0.4200 0.4320
15.768000 0.4460 0.4520 0.4630 0.4720 0.4790
15.799001 0.4970 0.5160 0.5200 0.5300 0.5390
15.830000 0.5500 0.5590 0.5780 0.5870 0.6000
15.861001 0.6200 0.6230 0.6290 0.6380 0.6480
15.892000 0.6540 0.6680 0.6710 0.6790 0.6880
15.923001 0.6990 0.7050 0.7110 0.7200 0.7250
15.954000 0.7280 0.7310 0.7340 0.7370 0.7420
15.985001 0.7440 0.7500 0.7550 0.7590 0.7640
16.016000 0.7670 0.7700 0.7720 0.7760 0.7810
16.047001 0.7840 0.7960 0.8030 0.8040 0.8040
16.078000 0.8070 0.8100 0.8150 0.8200 0.8240
16.109001 0.8240 0.8310 0.8320 0.8340 0.8380
16.140000 0.8400 0.8430 0.8480 0.8490 0.8510
16.171001 0.8510 0.8520 0.8550 0.8580 0.8620
16.202000 0.8680 0.8680 0.8660 0.8660 0.8660
16.233001 0.8660 0.8680 0.8690 0.8690 0.8710
16.264000 0.8710 0.8720 0.8740 0.8770 0.8790
16.295001 0.8800 0.8820 0.8850 0.8850 0.8820
16.326000 0.8820 0.8820 0.8820 0.8820 0.8830
16.357001 0.8850 0.8890 0.8910 0.8930 0.8930
16.388000 0.8910 0.8890 0.8880 0.8880 0.8890
16.419001 0.8910 0.8910 0.8910 0.8910 0.8910
16.450000 0.8910 0.8960 0.8960 0.8910 0.8880
16.481001 0.8880 0.8880 0.8890 0.8890 0.8890
16.512000 0.8890 0.8910 0.8930 0.8940 0.8940
16.543001 0.8940 0.8940 0.8930 0.8930 0.8930
16.574000 0.8930 0.8930 0.8930 0.8960 0.8960
16.605001 0.8940 0.8940 0.8930 0.8930 0.8930
16.636000 0.8930 0.8910 0.8910 0.8890 0.8890
16.667001 0.8890 0.8890 0.8890 0.8890 0.8910
16.698000 0.8910 0.8940 0.8940 0.8930 0.8930
16.729001 0.8930 0.8930 0.8930 0.8930 0.8960
16.760000 0.8940 0.8930 0.8910 0.8930 0.8930
16.791001 0.8930 0.8910 0.8880 0.8860 0.8850
16.822000 0.8830 0.8820 0.8790 0.8790 0.8800
16.853001 0.8800 0.8820 0.8830 0.8860 0.8860
16.884000 0.8850 0.8850 0.8830 0.8820 0.8820
16.915001 0.8800 0.8800 0.8790 0.8790 0.8830
16.946000 0.8830 0.8820 0.8800 0.8800 0.8790
16.977001 0.8790 0.8790 0.8790 0.8820 0.8800
17.008000 0.8790 0.8770 0.8750 0.8720 0.8720
17.039001 0.8720 0.8720 0.8710 0.8710 0.8710
17.069000 0.8690 0.8680 0.8680 0.8660 0.8630
17.100001 0.8570 0.8540 0.8540 0.8520 0.8510
17.131000 0.8430 0.8410 0.8410 0.8410 0.8400
17.162001 0.8400 0.8370 0.8350 0.8340 0.8320
17.193000 0.8310 0.8290 0.8230 0.8200 0.8170
17.224001 0.8070 0.8030 0.8010 0.8010 0.8000
17.255000 0.7980 0.7950 0.7950 0.7930 0.7900
17.286001 0.7890 0.7790 0.7700 0.7640 0.7560
17.317000 0.7510 0.7500 0.7420 0.7330 0.7250
17.348001 0.7200 0.7160 0.7110 0.7100 0.7000
17.379000 0.6990 0.6910 0.6830 0.6750 0.6630
17.410001 0.6580 0.6540 0.6490 0.6400 0.6230
17.441000 0.6120 0.6010 0.5950 0.5890 0.5780
17.472001 0.5680 0.5590 0.5480 0.5390 0.5300
17.503000 0.5190 0.5110 0.5080 0.4990 0.4820
17.534001 0.4690 0.4620 0.4580 0.4490 0.4400
17.565000 0.4340 0.4200 0.4090 0.4060 0.4010
17.596001 0.4010 0.4000 0.3920 0.3860 0.3780
17.627000 0.3700 0.3590 0.3510 0.3480 0.3450
17.658001 0.3390 0.3280 0.3130 0.3030 0.2960
17.689000 0.2880 0.2800 0.2790 0.2710 0.2680
17.720001 0.2650 0.2580 0.2580 0.2540 0.2490
17.751000 0.2410 0.2350 0.2320 0.2290 0.2260
17.782001 0.2260 0.2290 0.2290 0.2260 0.2230
17.813000 0.2210 0.2200 0.2200 0.2230 0.2260
17.844001 0.2290 0.2320 0.2380 0.2400 0.2410
17.875000 0.2410 0.2490 0.2490 0.2580 0.2620
17.906001 0.2690 0.2740 0.2790 0.2910 0.3000
17.937000 0.3100 0.3190 0.3280 0.3340 0.3420
17.968001 0.3500 0.3550 0.3640 0.3720 0.3900
17.999000 0.4290 0.4370 0.4480 0.4540 0.4720
18.030001 0.4800 0.4850 0.4910 0.5000 0.5020
18.061000 0.5100 0.5220 0.5340 0.5510 0.5620
18.092001 0.5900 0.6000 0.6100 0.6130 0.6210
18.123000 0.6310 0.6350 0.6410 0.6510 0.6600
18.154001 0.6690 0.6720 0.6750 0.6800 0.6830
18.185000 0.6890 0.6930 0.7020 0.7130 0.7160
18.216001 0.7200 0.7220 0.7330 0.7420 0.7440
18.247000 0.7470 0.7470 0.7480 0.7500 0.7500
18.278001 0.7560 0.7590 0.7610 0.7650 0.7680
18.309000 0.7700 0.7720 0.7720 0.7750 0.7760
18.340001 0.7780 0.7790 0.7810 0.7890 0.7920
18.371000 0.7930 0.8000 0.8000 0.8030 0.8100
18.402001 0.8130 0.8130 0.8130 0.8170 0.8170
18.433000 0.8200 0.8210 0.8240 0.8270 0.8270
18.464001 0.8290 0.8310 0.8340 0.8370 0.8410
18.495000 0.8430 0.8460 0.8510 0.8510 0.8460
18.526001 0.8440 0.8440 0.8440 0.8440 0.8440
18.557000 0.8440 0.8460 0.8480 0.8490 0.8510
18.588001 0.8510 0.8520 0.8550 0.8550 0.8570
18.619000 0.8600 0.8650 0.8660 0.8680 0.8710
18.650001 0.8720 0.8720 0.8710 0.8690 0.8680
18.681000 0.8660 0.8660 0.8660 0.8660 0.8710
18.712001 0.8720 0.8740 0.8750 0.8770 0.8770
18.743000 0.8770 0.8790 0.8800 0.8800 0.8820
18.774001 0.8830 0.8830 0.8830 0.8820 0.8800
18.805000 0.8800 0.8800 0.8800 0.8800 0.8800
18.836001 0.8800 0.8790 0.8770 0.8770 0.8770
18.867000 0.8770 0.8790 0.8820 0.8820 0.8800
18.898001 0.8800 0.8800 0.8820 0.8820 0.8820
18.929000 0.8820 0.8830 0.8830 0.8830 0.8850
18.960001 0.8850 0.8860 0.8880 0.8880 0.8880
18.991000 0.8860 0.8850 0.8850 0.8830 0.8830
19.022001 0.8860 0.8830 0.8820 0.8800 0.8790
19.053000 0.8800 0.8820 0.8820 0.8830 0.8850
19.084001 0.8860 0.8860 0.8850 0.8830 0.8830
19.115000 0.8830 0.8850 0.8860 0.8850 0.8850
19.146001 0.8830 0.8830 0.8830 0.8820 0.8820
19.177000 0.8820 0.8800 0.8800 0.8830 0.8820
19.208001 0.8830 0.8830 0.8830 0.8860 0.8860
19.239000 0.8860 0.8860 0.8850 0.8850 0.8820
19.270001 0.8800 0.8800 0.8800 0.8820 0.8820
19.301000 0.8830 0.8830 0.8830 0.8830 0.8830
19.332001 0.8830 0.8820 0.8800 0.8800 0.8790
19.363000 0.8790 0.8800 0.8800 0.8830 0.8830
19.394001 0.8850 0.8860 0.8860 0.8860 0.8860
19.425000 0.8850 0.8820 0.8820 0.8820 0.8820
19.456001 0.8820 0.8820 0.8830 0.8850 0.8860
19.486000 0.8860 0.8860 0.8890 0.8910 0.8930
19.517001 0.8930 0.8930 0.8940 0.8960 0.9000
19.548000 0.8940 0.8930 0.8910 0.8890 0.8890
19.579001 0.8910 0.8930 0.8940 0.8960 0.8960
19.610000 0.8930 0.8910 0.8890 0.8890 0.8890
19.641001 0.8910 0.8990 0.9020 0.9100 0.9110
19.672000 0.9140 0.9170 0.9190 0.9170 0.9140
19.703001 0.9110 0.9050 0.9020 0.9020 0.9050
19.734000 0.9060 0.9060 0.9060 0.9060 0.9080
19.765001 0.9110 0.9140 0.9160 0.9170 0.9190
19.796000 0.9200 0.9200 0.9170 0.9130 0.9100
19.827001 0.9060 0.9050 0.9030 0.9020 0.8990
19.858000 0.8970 0.9000 0.9030 0.9030 0.9020
19.889001 0.9020 0.9030 0.9050 0.9080 0.9100
19.920000 0.9110 0.9110 0.9130 0.9130 0.9130
19.951001 0.9130 0.9130 0.9160 0.9190 0.9190
19.982000 0.9170 0.9160 0.9130 0.9130 0.9110
20.013001 0.9110 0.9110 0.9110 0.9130 0.9140
20.044000 0.9140 0.9130 0.9110 0.9130 0.9110
20.075001 0.9080 0.9030 0.9030 0.9030 0.9030
20.106000 0.9030 0.9080 0.9100 0.9100 0.9100
20.137001 0.9100 0.9060 0.9030 0.9030 0.9030
20.168000 0.9030 0.9030 0.9030 0.9020 0.9020
20.199001 0.9020 0.8990 0.9020 0.8970 0.8940
20.230000 0.8940 0.8940 0.8930 0.8910 0.8880
20.261001 0.8880 0.8880 0.8880 0.8890 0.8910
20.292000 0.8910 0.8910 0.8910 0.8930 0.8960
20.323001 0.9020 0.9020 0.9030 0.9030 0.9020
20.354000 0.9000 0.9020 0.9020 0.9030 0.9050
20.385001 0.9060 0.9080 0.9110 0.9140 0.9140
20.416000 0.9160 0.9170 0.9170 0.9170 0.9170
20.447001 0.9170 0.9170 0.9170 0.9170 0.9170
20.478000 0.9170 0.9170 0.9200 0.9220 0.9200
20.509001 0.9170 0.9110 0.9110 0.9110 0.9110
20.540000 0.9110 0.9110 0.9130 0.9130 0.9130
20.571001 0.9130 0.9130 0.9130 0.9130 0.9130
20.602000 0.9130 0.9130 0.9140 0.9140 0.9160
20.633001 0.9170 0.9190 0.9170 0.9170 0.9190
20.664000 0.9200 0.9200 0.9220 0.9240 0.9250
20.695001 0.9250 0.9270 0.9280 0.9280 0.9280
20.726000 0.9300 0.9300 0.9310 0.9310 0.9300
20.757001 0.9300 0.9330 0.9340 0.9360 0.9390
20.788000 0.9410 0.9410 0.9390 0.9370 0.9360
20.819001 0.9310 0.9310 0.9310 0.9310 0.9310
20.850000 0.9330 0.9330 0.9330 0.9280 0.9280
20.881001 0.9330 0.9340 0.9340 0.9340 0.9340
20.912000 0.9330 0.9330 0.9330 0.9330 0.9330
20.943001 0.9330 0.9340 0.9360 0.9370 0.9420
20.974000 0.9420 0.9410 0.9390 0.9370 0.9370
21.005001 0.9390 0.9410 0.9450 0.9450 0.9440
21.036000 0.9420 0.9410 0.9410 0.9410 0.9410
21.067001 0.9410 0.9410 0.9390 0.9410 0.9410
21.098000 0.9410 0.9390 0.9390 0.9360 0.9340
21.129001 0.9340 0.9360 0.9360 0.9360 0.9340
21.160000 0.9330 0.9310 0.9310 0.9310 0.9310
21.191001 0.9310 0.9310 0.9310 0.9330 0.9330
21.222000 0.9330 0.9330 0.9330 0.9330 0.9330
21.253001 0.9340 0.9360 0.9360 0.9370 0.9370
21.284000 0.9370 0.9370 0.9370 0.9370 0.9360
21.315001 0.9330 0.9330 0.9330 0.9330 0.9330
21.346000 0.9340 0.9360 0.9370 0.9420 0.9420
21.377001 0.9410 0.9410 0.9390 0.9390 0.9370
21.408000 0.9360 0.9360 0.9370 0.9390 0.9390
21.439001 0.9390 0.9420 0.9440 0.9440 0.9440
21.470000 0.9440 0.9440 0.9440 0.9420 0.9420
21.501001 0.9420 0.9410 0.9410 0.9410 0.9390
21.532000 0.9390 0.9410 0.9410 0.9420 0.9420
21.563001 0.9440 0.9440 0.9450 0.9470 0.9470
21.594000 0.9470 0.9470 0.9470 0.9470 0.9500
21.625001 0.9500 0.9500 0.9500 0.9500 0.9470
21.656000 0.9470 0.9450 0.9440 0.9440 0.9500
21.687001 0.9500 0.9470 0.9470 0.9470 0.9470
21.718000 0.9470 0.9450 0.9440 0.9440 0.9450
21.749001 0.9470 0.9500 0.9510 0.9510 0.9510
21.780000 0.9530 0.9530 0.9560 0.9580 0.9580
21.811001 0.9580 0.9550 0.9530 0.9530 0.9530
21.842000 0.9510 0.9500 0.9480 0.9480 0.9480
21.873001 0.9480 0.9500 0.9500 0.9500 0.9500
21.903000 0.9510 0.9510 0.9510 0.9530 0.9530
21.934001 0.9530 0.9530 0.9550 0.9530 0.9530
21.965000 0.9530 0.9530 0.9530 0.9550 0.9550
21.996001 0.9560 0.9560 0.9610 0.9620 0.9620
22.027000 0.9620 0.9620 0.9590 0.9580 0.9510
22.058001 0.9510 0.9500 0.9500 0.9510 0.9510
22.089000 0.9530 0.9550 0.9550 0.9550 0.9550
22.120001 0.9560 0.9550 0.9550 0.9550 0.9550
22.151000 0.9550 0.9550 0.9560 0.9580 0.9580
22.182001 0.9560 0.9560 0.9530 0.9510 0.9530
22.213000 0.9530 0.9550 0.9550 0.9550 0.9550
22.244001 0.9530 0.9530 0.9550 0.9550 0.9550
22.275000 0.9560 0.9560 0.9580 0.9590 0.9610
22.306001 0.9610 0.9580 0.9560 0.9550 0.9550
22.337000 0.9550 0.9550 0.9550 0.9550 0.9550
22.368001 0.9550 0.9560 0.9560 0.9560 0.9550
22.399000 0.9530 0.9510 0.9510 0.9510 0.9510
22.430001 0.9510 0.9510 0.9510 0.9510 0.9510
22.461000 0.9550 0.9560 0.9550 0.9510 0.9510
22.492001 0.9500 0.9510 0.9500 0.9480 0.9470
22.523000 0.9470 0.9470 0.9470 0.9470 0.9470
22.554001 0.9470 0.9470 0.9500 0.9510 0.9510
22.585000 0.9510 0.9510 0.9530 0.9550 0.9550
22.616001 0.9530 0.9510 0.9510 0.9510 0.9510
22.647000 0.9510 0.9510 0.9510 0.9510 0.9530
22.678001 0.9530 0.9530 0.9510 0.9510 0.9440
22.709000 0.9440 0.9440 0.9440 0.9440 0.9440
22.740001 0.9450 0.9450 0.9450 0.9450 0.9450
22.771000 0.9470 0.9470 0.9470 0.9450 0.9440
22.802001 0.9440 0.9420 0.9410 0.9410 0.9390
22.833000 0.9390 0.9390 0.9390 0.9390 0.9410
22.864001 0.9410 0.9410 0.9410 0.9410 0.9370
22.895000 0.9360 0.9340 0.9330 0.9340 0.9360
22.926001 0.9410 0.9420 0.9450 0.9420 0.9410
22.957000 0.9410 0.9390 0.9370 0.9360 0.9360
22.988001 0.9360 0.9370 0.9370 0.9370 0.9390
23.019000 0.9390 0.9410 0.9440 0.9470 0.9500
23.050001 0.9500 0.9500 0.9420 0.9410 0.9410
23.081000 0.9390 0.9360 0.9360 0.9360 0.9360
23.112001 0.9370 0.9370 0.9370 0.9370 0.9370
23.143000 0.9370 0.9370 0.9370 0.9370 0.9370
23.174001 0.9370 0.9390 0.9410 0.9450 0.9450
23.205000 0.9440 0.9420 0.9370 0.9370 0.9390
23.236001 0.9410 0.9500 0.9510 0.9510 0.9500
23.267000 0.9500 0.9470 0.9450 0.9450 0.9440
23.298001 0.9450 0.9450 0.9420 0.9410 0.9410
23.329000 0.9410 0.9410 0.9410 0.9410 0.9410
23.360001 0.9410 0.9390 0.9360 0.9340 0.9340
23.391000 0.9360 0.9390 0.9410 0.9410 0.9410
23.422001 0.9420 0.9410 0.9420 0.9420 0.9370
23.453000 0.9360 0.9340 0.9340 0.9340 0.9340
23.484001 0.9340 0.9340 0.9340 0.9330 0.9330
23.515000 0.9300 0.9300 0.9300 0.9300 0.9300
23.546001 0.9300 0.9300 0.9280 0.9270 0.9220
23.577000 0.9200 0.9200 0.9200 0.9220 0.9220
23.608001 0.9220 0.9220 0.9240 0.9240 0.9240
23.639000 0.9240 0.9220 0.9220 0.9220 0.9220
23.670001 0.9240 0.9240 0.9220 0.9220 0.9220
23.701000 0.9200 0.9190 0.9190 0.9170 0.9170
23.732001 0.9190 0.9190 0.9190 0.9160 0.9140
23.763000 0.9130 0.9130 0.9110 0.9100 0.9080
23.794001 0.9030 0.9020 0.9000 0.8990 0.8960
23.825000 0.8960 0.8960 0.8940 0.8930 0.8910
23.856001 0.8910 0.8890 0.8880 0.8830 0.8800
23.887000 0.8790 0.8790 0.8790 0.8790 0.8790
23.918001 0.8790 0.8770 0.8750 0.8740 0.8740
23.949000 0.8740 0.8750 0.8750 0.8750 0.8770
23.980001 0.8770 0.8770 0.8770 0.8770 0.8770
24.011000 0.8770 0.8790 0.8790 0.8790 0.8790
24.042001 0.8770 0.8770 0.8750 0.8740 0.8740
24.073000 0.8740 0.8740 0.8740 0.8740 0.8740
24.104001 0.8740 0.8750 0.8770 0.8770 0.8770
24.135000 0.8750 0.8740 0.8740 0.8740 0.8720
24.166001 0.8710 0.8680 0.8680 0.8680 0.8680
24.197000 0.8660 0.8660 0.8660 0.8680 0.8680
24.228001 0.8680 0.8660 0.8660 0.8650 0.8650
24.259000 0.8660 0.8660 0.8660 0.8650 0.8630
24.290001 0.8620 0.8630 0.8630 0.8650 0.8650
24.320000 0.8660 0.8680 0.8680 0.8680 0.8680
24.351001 0.8680 0.8680 0.8680 0.8680 0.8680
24.382000 0.8680 0.8660 0.8650 0.8620 0.8600
24.413001 0.8600 0.8600 0.8600 0.8600 0.8600
24.444000 0.8580 0.8580 0.8580 0.8580 0.8600
24.475001 0.8620 0.8620 0.8600 0.8580 0.8570
24.506000 0.8550 0.8520 0.8540 0.8540 0.8540
24.537001 0.8540 0.8520 0.8570 0.8570 0.8520
24.568000 0.8510 0.8510 0.8510 0.8490 0.8490
24.599001 0.8510 0.8510 0.8510 0.8490 0.8460
24.630000 0.8440 0.8430 0.8410 0.8400 0.8400
24.661001 0.8400 0.8400 0.8400 0.8400 0.8400
24.692000 0.8410 0.8410 0.8410 0.8400 0.8350
24.723001 0.8340 0.8340 0.8350 0.8370 0.8370
24.754000 0.8370 0.8350 0.8350 0.8310 0.8290
24.785001 0.8290 0.8260 0.8240 0.8230 0.8230
24.816000 0.8230 0.8210 0.8200 0.8180 0.8130
24.847001 0.8120 0.8130 0.8130 0.8170 0.8180
24.878000 0.8180 0.8170 0.8150 0.8070 0.8060
24.909001 0.8040 0.8010 0.8040 0.8030 0.8010
24.940000 0.8010 0.8000 0.8000 0.7980 0.7960
24.971001 0.7930 0.7920 0.7930 0.7920 0.7900
25.002000 0.7890 0.7890 0.7860 0.7840 0.7840
25.033001 0.7840 0.7820 0.7790 0.7730 0.7720
25.064000 0.7720 0.7720 0.7700 0.7680 0.7650
25.095001 0.7640 0.7610 0.7590 0.7560 0.7510
25.126000 0.7480 0.7480 0.7510 0.7510 0.7510
25.157001 0.7510 0.7510 0.7500 0.7480 0.7480
25.188000 0.7470 0.7470 0.7510 0.7530 0.7550
25.219001 0.7580 0.7580 0.7590 0.7590 0.7590
25.250000 0.7610 0.7610 0.7610 0.7610 0.7590
25.281001 0.7580 0.7560 0.7550 0.7530 0.7510
25.312000 0.7500 0.7480 0.7440 0.7440 0.7450
25.343001 0.7450 0.7480 0.7480 0.7480 0.7500
25.374000 0.7550 0.7560 0.7580 0.7580 0.7560
25.405001 0.7550 0.7510 0.7510 0.7510 0.7510
25.436000 0.7550 0.7510 0.7480 0.7420 0.7410
25.467001 0.7410 0.7410 0.7410 0.7410 0.7420
25.498000 0.7420 0.7480 0.7480 0.7440 0.7420
25.529001 0.7420 0.7410 0.7390 0.7390 0.7370
25.560000 0.7390 0.7390 0.7410 0.7410 0.7390
25.591001 0.7390 0.7390 0.7390 0.7390 0.7410
25.622000 0.7410 0.7410 0.7370 0.7340 0.7310
25.653001 0.7310 0.7330 0.7330 0.7330 0.7340
25.684000 0.7340 0.7340 0.7340 0.7340 0.7330
25.715001 0.7300 0.7280 0.7280 0.7270 0.7270
25.746000 0.7270 0.7270 0.7270 0.7270 0.7250
25.777001 0.7240 0.7190 0.7190 0.7170 0.7170
25.808000 0.7170 0.7170 0.7170 0.7170 0.7170
25.839001 0.7170 0.7170 0.7190 0.7190 0.7190
25.870000 0.7200 0.7200 0.7190 0.7190 0.7140
25.901001 0.7110 0.7110 0.7110 0.7110 0.7100
25.932000 0.7080 0.7030 0.7000 0.7050 0.7050
25.963001 0.7000 0.6990 0.7000 0.7000 0.7020
25.994000 0.7000 0.7000 0.7000 0.7020
##END=
