##TITLE=HEXANE, 1,6-DIBROMO
##JCAMP-DX=4.24
##DATA TYPE=INFRARED SPECTRUM
##CLASS=COBLENTZ
##ORIGIN=TENNESSEE EASTMAN COMPANY, RESEARCH LABORATORIES
##OWNER=COBLENTZ SOCIETY
Collection (C) 2018 copyright by the U.S. Secretary of Commerce
on behalf of the United States of America. All rights reserved.
##DATE=1960
##NAMES=1,6-dibromohexane
##CAS REGISTRY NO=629-03-8
##MOLFORM=C6 H12 Br2
##SOURCE REFERENCE=COBLENTZ NO. 957
##$NIST SOURCE=COBLENTZ
##$NIST IMAGE=cob957
##SPECTROMETER/DATA SYSTEM=Not specified, most likely a prism, grating, or hybrid spectrometer.
##PATH LENGTH=0.003 CM
##SAMPLING PROCEDURE=TRANSMISSION
##RESOLUTION=4
##DATA PROCESSING=DIGITIZED BY NIST FROM HARD COPY
##XUNITS=MICROMETERS
##YUNITS=TRANSMITTANCE
##XFACTOR=1.000000
##YFACTOR=1
##DELTAX=000.006652
##FIRSTX=2.002
##LASTX=16.0109
##FIRSTY=0.956
##MAXX=16.0109
##MINX=2.002
##MAXY=0.955
##MINY=0.011
##NPOINTS=2107
##XYDATA=(X++(Y..Y))
2.002000 0.9560 0.9550 0.9530 0.9530 0.9530
2.035275 0.9550 0.9550 0.9530 0.9530 0.9550
2.069000 0.9550 0.9550 0.9550 0.9550 0.9550
2.102275 0.9550 0.9550 0.9550 0.9550 0.9550
2.135000 0.9550 0.9530 0.9530 0.9550 0.9550
2.168275 0.9530 0.9530 0.9550 0.9530 0.9510
2.202000 0.9510 0.9480 0.9360 0.9230 0.9060
2.235275 0.8850 0.8800 0.8800 0.8800 0.8780
2.268000 0.8750 0.8710 0.8700 0.8700 0.8710
2.301275 0.8710 0.8710 0.8730 0.8710 0.8710
2.335000 0.8700 0.8700 0.8700 0.8680 0.8680
2.368275 0.8680 0.8680 0.8680 0.8680 0.8700
2.401000 0.8700 0.8710 0.8730 0.8750 0.8760
2.434275 0.8800 0.8830 0.8880 0.8900 0.8930
2.468000 0.8950 0.8960 0.8980 0.9000 0.9000
2.501275 0.9010 0.9010 0.9010 0.9050 0.9030
2.534000 0.9060 0.9100 0.9110 0.9130 0.9160
2.567275 0.9180 0.9200 0.9200 0.9200 0.9200
2.601000 0.9210 0.9210 0.9210 0.9200 0.9200
2.634275 0.9200 0.9210 0.9230 0.9280 0.9300
2.667000 0.9300 0.9300 0.9300 0.9300 0.9300
2.700275 0.9280 0.9280 0.9280 0.9280 0.9260
2.734000 0.9250 0.9230 0.9180 0.9100 0.9000
2.767275 0.8910 0.8850 0.8850 0.8850 0.8860
2.800000 0.8900 0.8960 0.9010 0.9060 0.9110
2.833275 0.9150 0.9180 0.9200 0.9210 0.9210
2.867000 0.9230 0.9230 0.9230 0.9230 0.9250
2.900275 0.9260 0.9280 0.9280 0.9260 0.9260
2.933000 0.9280 0.9280 0.9300 0.9300 0.9300
2.966275 0.9300 0.9310 0.9310 0.9330 0.9330
3.000000 0.9310 0.9310 0.9310 0.9310 0.9310
3.033275 0.9310 0.9310 0.9310 0.9310 0.9310
3.067000 0.9310 0.9310 0.9310 0.9310 0.9310
3.100275 0.9310 0.9310 0.9310 0.9310 0.9300
3.133000 0.9280 0.9260 0.9250 0.9230 0.9230
3.166275 0.9210 0.9200 0.9180 0.9180 0.9160
3.200000 0.9150 0.9150 0.9110 0.9100 0.9060
3.233275 0.9050 0.9000 0.8950 0.8910 0.8830
3.266000 0.8760 0.8660 0.8550 0.8310 0.8110
3.299275 0.7810 0.7460 0.7080 0.6710 0.6400
3.333000 0.6150 0.6150 0.5760 0.3760 0.2960
3.366275 0.1880 0.1230 0.0900 0.0480 0.0150
3.399000 0.0110 0.0110 0.0130 0.0380 0.0610
3.432275 0.0750 0.1010 0.1510 0.1560 0.1560
3.466000 0.1360 0.1160 0.0810 0.0780 0.0810
3.499275 0.1910 0.2750 0.3650 0.4450 0.5210
3.532000 0.5960 0.6760 0.7610 0.7860 0.7950
3.565275 0.8010 0.8060 0.8150 0.8210 0.8300
3.599000 0.8380 0.8480 0.8550 0.8610 0.8630
3.632275 0.8630 0.8630 0.8630 0.8630 0.8630
3.665000 0.8630 0.8630 0.8630 0.8630 0.8630
3.698275 0.8630 0.8630 0.8610 0.8600 0.8580
3.732000 0.8510 0.8500 0.8500 0.8480 0.8480
3.765275 0.8500 0.8510 0.8550 0.8600 0.8610
3.798000 0.8630 0.8630 0.8650 0.8680 0.8710
3.831275 0.8730 0.8750 0.8760 0.8800 0.8860
3.865000 0.8910 0.8980 0.9010 0.9030 0.9060
3.898275 0.9100 0.9100 0.9100 0.9110 0.9110
3.931000 0.9130 0.9130 0.9130 0.9150 0.9150
3.964275 0.9150 0.9150 0.9150 0.9150 0.9150
3.998000 0.9150 0.9150 0.9150 0.9150 0.9150
4.031275 0.9150 0.9150 0.9150 0.9130 0.9130
4.064000 0.9150 0.9150 0.9150 0.9130 0.9130
4.097275 0.9130 0.9130 0.9130 0.9130 0.9130
4.131000 0.9130 0.9130 0.9150 0.9150 0.9130
4.164275 0.9130 0.9130 0.9130 0.9110 0.9110
4.197000 0.9110 0.9110 0.9110 0.9130 0.9180
4.230275 0.9230 0.9260 0.9280 0.9300 0.9300
4.264000 0.9300 0.9300 0.9300 0.9300 0.9300
4.297275 0.9300 0.9300 0.9280 0.9280 0.9260
4.330000 0.9230 0.9200 0.9180 0.9160 0.9150
4.363275 0.9150 0.9150 0.9130 0.9130 0.9130
4.397000 0.9130 0.9130 0.9130 0.9100 0.9080
4.430275 0.9080 0.9060 0.9050 0.9050 0.9050
4.463000 0.9050 0.9050 0.9050 0.9030 0.9030
4.496275 0.9030 0.9030 0.9030 0.9030 0.9030
4.530000 0.9030 0.9030 0.9030 0.9030 0.9030
4.563275 0.9030 0.9030 0.9030 0.9030 0.9030
4.596000 0.9030 0.9050 0.9060 0.9080 0.9080
4.629275 0.9100 0.9130 0.9150 0.9160 0.9180
4.663000 0.9200 0.9200 0.9200 0.9210 0.9210
4.696275 0.9230 0.9230 0.9230 0.9230 0.9230
4.729000 0.9230 0.9230 0.9230 0.9230 0.9250
4.762275 0.9250 0.9250 0.9250 0.9250 0.9250
4.796000 0.9250 0.9250 0.9250 0.9250 0.9230
4.829275 0.9230 0.9230 0.9230 0.9230 0.9230
4.863000 0.9230 0.9230 0.9250 0.9250 0.9230
4.896275 0.9230 0.9230 0.9230 0.9230 0.9230
4.929000 0.9230 0.9230 0.9230 0.9230 0.9230
4.962275 0.9230 0.9230 0.9230 0.9250 0.9250
4.996000 0.9260 0.9260 0.9280 0.9300 0.9280
5.029275 0.9280 0.9300 0.9300 0.9300 0.9300
5.062000 0.9300 0.9300 0.9300 0.9300 0.9300
5.095275 0.9300 0.9300 0.9300 0.9300 0.9300
5.129000 0.9300 0.9300 0.9300 0.9300 0.9300
5.162275 0.9300 0.9300 0.9300 0.9300 0.9310
5.195000 0.9310 0.9300 0.9300 0.9300 0.9300
5.228275 0.9310 0.9310 0.9310 0.9310 0.9310
5.262000 0.9330 0.9330 0.9330 0.9330 0.9330
5.295275 0.9330 0.9330 0.9330 0.9330 0.9350
5.328000 0.9360 0.9360 0.9380 0.9380 0.9380
5.361275 0.9380 0.9360 0.9360 0.9360 0.9360
5.395000 0.9380 0.9380 0.9400 0.9400 0.9380
5.428275 0.9380 0.9380 0.9380 0.9380 0.9380
5.461000 0.9380 0.9380 0.9380 0.9380 0.9380
5.494275 0.9380 0.9380 0.9380 0.9380 0.9380
5.528000 0.9380 0.9380 0.9380 0.9380 0.9400
5.561275 0.9400 0.9400 0.9400 0.9400 0.9380
5.594000 0.9380 0.9400 0.9380 0.9380 0.9380
5.627275 0.9400 0.9400 0.9400 0.9400 0.9400
5.661000 0.9380 0.9380 0.9380 0.9380 0.9380
5.694275 0.9380 0.9380 0.9380 0.9350 0.9330
5.727000 0.9300 0.9250 0.9210 0.9200 0.9180
5.760275 0.9110 0.9080 0.9060 0.9060 0.9050
5.794000 0.9080 0.9110 0.9160 0.9200 0.9200
5.827275 0.9200 0.9200 0.9200 0.9200 0.9210
5.860000 0.9230 0.9250 0.9260 0.9260 0.9260
5.893275 0.9250 0.9250 0.9230 0.9230 0.9250
5.927000 0.9250 0.9250 0.9250 0.9250 0.9250
5.960275 0.9230 0.9230 0.9230 0.9230 0.9230
5.993000 0.9230 0.9230 0.9230 0.9230 0.9230
6.026275 0.9230 0.9250 0.9260 0.9280 0.9310
6.060000 0.9310 0.9300 0.9280 0.9260 0.9250
6.093275 0.9250 0.9250 0.9250 0.9250 0.9260
6.126000 0.9260 0.9260 0.9260 0.9260 0.9260
6.159275 0.9260 0.9260 0.9260 0.9260 0.9260
6.193000 0.9250 0.9230 0.9230 0.9230 0.9230
6.226275 0.9210 0.9210 0.9230 0.9230 0.9230
6.259000 0.9230 0.9230 0.9230 0.9230 0.9230
6.292275 0.9230 0.9230 0.9250 0.9250 0.9260
6.326000 0.9260 0.9260 0.9260 0.9260 0.9260
6.359275 0.9250 0.9250 0.9250 0.9250 0.9260
6.392000 0.9250 0.9250 0.9210 0.9180 0.9150
6.425275 0.9150 0.9150 0.9160 0.9160 0.9160
6.459000 0.9160 0.9110 0.9060 0.9030 0.9000
6.492275 0.8960 0.8960 0.8960 0.8980 0.8980
6.525000 0.8980 0.8960 0.8950 0.8930 0.8910
6.558275 0.8880 0.8850 0.8830 0.8830 0.8810
6.592000 0.8810 0.8800 0.8780 0.8760 0.8680
6.625275 0.8610 0.8610 0.8600 0.8600 0.8580
6.659000 0.8560 0.8510 0.8480 0.8430 0.8350
6.692275 0.8180 0.8100 0.8050 0.8000 0.7930
6.725000 0.7850 0.7760 0.7650 0.7510 0.7350
6.758275 0.6980 0.6500 0.5930 0.5280 0.4600
6.792000 0.3860 0.3150 0.2450 0.1760 0.1500
6.825275 0.1300 0.1280 0.1300 0.1330 0.1360
6.858000 0.1410 0.1480 0.1580 0.1760 0.1910
6.891275 0.2010 0.2010 0.1930 0.1750 0.1550
6.925000 0.1430 0.1300 0.1250 0.1210 0.1200
6.958275 0.1180 0.1200 0.1250 0.1430 0.2000
6.991000 0.2610 0.3280 0.3980 0.4660 0.5310
7.024275 0.5910 0.6430 0.6830 0.7060 0.7230
7.058000 0.7380 0.7500 0.7610 0.7730 0.7780
7.091275 0.7830 0.7880 0.7930 0.8000 0.8030
7.124000 0.8050 0.8060 0.8080 0.8100 0.8100
7.157275 0.8100 0.8100 0.8100 0.8100 0.8080
7.191000 0.8080 0.8060 0.8030 0.8010 0.7960
7.224275 0.7860 0.7730 0.7610 0.7480 0.7380
7.257000 0.7280 0.7130 0.7030 0.6880 0.6850
7.290275 0.6810 0.6800 0.6780 0.6760 0.6730
7.324000 0.6710 0.6660 0.6610 0.6560 0.6530
7.357275 0.6500 0.6430 0.6380 0.6300 0.6180
7.390000 0.6000 0.5910 0.5910 0.5930 0.5950
7.423275 0.6010 0.6100 0.6200 0.6300 0.6310
7.457000 0.6330 0.6350 0.6350 0.6350 0.6410
7.490275 0.6510 0.6630 0.6730 0.6810 0.6860
7.523000 0.6910 0.6930 0.6910 0.6860 0.6730
7.556275 0.6580 0.6330 0.6150 0.5960 0.5800
7.590000 0.5600 0.5350 0.4980 0.4850 0.4650
7.623275 0.4400 0.4150 0.3860 0.3610 0.3360
7.656000 0.3180 0.3050 0.2980 0.2880 0.2850
7.689275 0.2830 0.2850 0.2850 0.2850 0.2850
7.723000 0.2850 0.2850 0.2830 0.2810 0.2800
7.756275 0.2650 0.2560 0.2460 0.2330 0.2150
7.789000 0.2080 0.1950 0.1910 0.1910 0.1960
7.822275 0.2350 0.2460 0.2700 0.2850 0.2950
7.856000 0.3000 0.3010 0.3010 0.2900 0.2580
7.889275 0.2360 0.2080 0.1780 0.1460 0.1210
7.922000 0.1030 0.0910 0.0750 0.0650 0.0560
7.955275 0.0510 0.0460 0.0450 0.0430 0.0400
7.989000 0.0360 0.0310 0.0260 0.0230 0.0180
8.022275 0.0160 0.0160 0.0150 0.0150 0.0230
8.055000 0.0500 0.0880 0.1450 0.1980 0.2430
8.088275 0.3000 0.3310 0.3660 0.3930 0.4110
8.122000 0.4150 0.4150 0.4130 0.4010 0.3610
8.155275 0.3160 0.2780 0.2450 0.2160 0.1910
8.188000 0.1700 0.1500 0.1350 0.1250 0.1250
8.221275 0.1250 0.1280 0.1450 0.1680 0.1910
8.255000 0.2160 0.2380 0.2600 0.2760 0.2900
8.288275 0.3110 0.3430 0.3810 0.4210 0.4600
8.322000 0.4960 0.5260 0.5460 0.5610 0.5750
8.355275 0.5860 0.5950 0.6000 0.6030 0.6010
8.388000 0.6060 0.6210 0.6330 0.6450 0.6560
8.421275 0.6700 0.6830 0.6960 0.7060 0.7160
8.455000 0.7250 0.7310 0.7430 0.7430 0.7450
8.488275 0.7450 0.7450 0.7450 0.7450 0.7450
8.521000 0.7480 0.7510 0.7530 0.7550 0.7580
8.554275 0.7610 0.7660 0.7700 0.7730 0.7750
8.588000 0.7780 0.7830 0.7850 0.7900 0.7930
8.621275 0.7960 0.8010 0.8030 0.8030 0.8050
8.654000 0.8050 0.8050 0.8030 0.8030 0.8050
8.687275 0.8050 0.8050 0.8030 0.8030 0.8030
8.721000 0.8030 0.8010 0.8010 0.8010 0.8010
8.754275 0.8000 0.8000 0.8000 0.8010 0.8030
8.787000 0.8030 0.8050 0.8050 0.8030 0.8050
8.820275 0.8080 0.8100 0.8110 0.8110 0.8110
8.854000 0.8130 0.8130 0.8130 0.8130 0.8130
8.887275 0.8110 0.8110 0.8080 0.8060 0.8030
8.920000 0.8050 0.8030 0.8010 0.8000 0.7980
8.953275 0.7960 0.7960 0.7950 0.7950 0.7950
8.987000 0.7950 0.7950 0.7950 0.7930 0.7930
9.020275 0.7930 0.7930 0.7950 0.7950 0.7950
9.053000 0.7950 0.7950 0.7950 0.7950 0.7950
9.086275 0.7950 0.7950 0.7960 0.7960 0.7960
9.120000 0.8000 0.8010 0.8010 0.8010 0.8030
9.153275 0.8030 0.8010 0.8010 0.8010 0.7980
9.186000 0.7960 0.7950 0.7950 0.7930 0.7860
9.219275 0.7810 0.7750 0.7700 0.7660 0.7630
9.253000 0.7610 0.7610 0.7600 0.7600 0.7600
9.286275 0.7580 0.7580 0.7560 0.7550 0.7530
9.319000 0.7510 0.7400 0.7380 0.7350 0.7280
9.352275 0.7230 0.7180 0.7130 0.7110 0.7060
9.386000 0.7000 0.6960 0.6960 0.6950 0.6930
9.419275 0.6930 0.6950 0.6930 0.6930 0.6930
9.452000 0.6930 0.6930 0.6930 0.6930 0.6930
9.485275 0.6930 0.6930 0.6930 0.6930 0.6930
9.519000 0.6930 0.6910 0.6900 0.6880 0.6830
9.552275 0.6810 0.6780 0.6750 0.6730 0.6700
9.585000 0.6680 0.6630 0.6600 0.6530 0.6480
9.618275 0.6410 0.6310 0.6230 0.6150 0.6030
9.652000 0.5960 0.5850 0.5800 0.5730 0.5700
9.685275 0.5700 0.5700 0.5700 0.5710 0.5800
9.718000 0.5950 0.6080 0.6200 0.6330 0.6460
9.751275 0.6560 0.6680 0.6780 0.6850 0.6910
9.785000 0.6960 0.7000 0.7030 0.7050 0.7060
9.818275 0.7080 0.7100 0.7110 0.7110 0.7110
9.851000 0.7110 0.7110 0.7110 0.7110 0.7110
9.884275 0.7130 0.7150 0.7180 0.7200 0.7200
9.918000 0.7210 0.7250 0.7280 0.7300 0.7330
9.951275 0.7360 0.7380 0.7400 0.7450 0.7480
9.984000 0.7510 0.7560 0.7630 0.7660 0.7680
10.017275 0.7680 0.7680 0.7700 0.7710 0.7730
10.051000 0.7730 0.7750 0.7780 0.7800 0.7800
10.084275 0.7810 0.7810 0.7830 0.7830 0.7830
10.118000 0.7830 0.7830 0.7830 0.7830 0.7830
10.151275 0.7830 0.7830 0.7830 0.7830 0.7830
10.184000 0.7850 0.7850 0.7850 0.7830 0.7810
10.217275 0.7810 0.7800 0.7780 0.7750 0.7730
10.251000 0.7700 0.7660 0.7630 0.7600 0.7560
10.284275 0.7530 0.7500 0.7480 0.7480 0.7500
10.317000 0.7480 0.7480 0.7480 0.7480 0.7480
10.350275 0.7480 0.7480 0.7480 0.7500 0.7510
10.384000 0.7530 0.7550 0.7580 0.7600 0.7600
10.417275 0.7610 0.7610 0.7610 0.7630 0.7610
10.450000 0.7610 0.7610 0.7610 0.7610 0.7630
10.483275 0.7630 0.7610 0.7610 0.7610 0.7600
10.517000 0.7600 0.7580 0.7580 0.7560 0.7560
10.550275 0.7550 0.7530 0.7550 0.7550 0.7550
10.583000 0.7550 0.7550 0.7550 0.7560 0.7560
10.616275 0.7560 0.7560 0.7560 0.7580 0.7580
10.650000 0.7580 0.7580 0.7580 0.7580 0.7580
10.683275 0.7580 0.7580 0.7580 0.7580 0.7580
10.716000 0.7580 0.7580 0.7580 0.7580 0.7580
10.749275 0.7560 0.7560 0.7550 0.7550 0.7530
10.783000 0.7510 0.7500 0.7480 0.7450 0.7400
10.816275 0.7360 0.7350 0.7300 0.7300 0.7230
10.849000 0.7210 0.7210 0.7180 0.7150 0.7150
10.882275 0.7130 0.7130 0.7130 0.7130 0.7130
10.916000 0.7130 0.7130 0.7130 0.7130 0.7130
10.949275 0.7130 0.7130 0.7130 0.7110 0.7100
10.982000 0.7100 0.7080 0.7050 0.7010 0.6980
11.015275 0.6950 0.6910 0.6880 0.6850 0.6810
11.049000 0.6760 0.6710 0.6660 0.6580 0.6530
11.082275 0.6480 0.6410 0.6350 0.6310 0.6260
11.115000 0.6180 0.6080 0.6050 0.6030 0.6010
11.148275 0.6000 0.5980 0.5980 0.5980 0.5980
11.182000 0.6000 0.6010 0.6030 0.6030 0.6060
11.215275 0.6150 0.6260 0.6350 0.6450 0.6530
11.248000 0.6560 0.6660 0.6730 0.6830 0.6900
11.281275 0.7000 0.7030 0.7060 0.7150 0.7250
11.315000 0.7280 0.7330 0.7360 0.7400 0.7450
11.348275 0.7510 0.7560 0.7610 0.7650 0.7660
11.381000 0.7700 0.7710 0.7760 0.7760 0.7780
11.414275 0.7810 0.7810 0.7830 0.7850 0.7850
11.448000 0.7880 0.7900 0.7910 0.7930 0.7950
11.481275 0.7950 0.7950 0.7950 0.7950 0.7950
11.514000 0.7950 0.7930 0.7910 0.7880 0.7810
11.547275 0.7760 0.7700 0.7630 0.7560 0.7510
11.581000 0.7430 0.7380 0.7300 0.7210 0.7200
11.614275 0.7200 0.7200 0.7200 0.7200 0.7200
11.647000 0.7200 0.7200 0.7210 0.7250 0.7280
11.680275 0.7330 0.7360 0.7400 0.7430 0.7450
11.714000 0.7480 0.7510 0.7550 0.7580 0.7610
11.747275 0.7610 0.7630 0.7630 0.7630 0.7630
11.780000 0.7610 0.7610 0.7610 0.7610 0.7610
11.813275 0.7610 0.7610 0.7600 0.7580 0.7550
11.847000 0.7530 0.7500 0.7460 0.7400 0.7330
11.880275 0.7280 0.7250 0.7210 0.7200 0.7180
11.914000 0.7160 0.7160 0.7160 0.7150 0.7150
11.947275 0.7150 0.7160 0.7160 0.7160 0.7180
11.980000 0.7180 0.7200 0.7210 0.7250 0.7280
12.013275 0.7300 0.7310 0.7310 0.7310 0.7310
12.047000 0.7310 0.7310 0.7310 0.7300 0.7300
12.080275 0.7260 0.7230 0.7210 0.7200 0.7160
12.113000 0.7130 0.7110 0.7100 0.7100 0.7100
12.146275 0.7100 0.7110 0.7110 0.7130 0.7160
12.180000 0.7200 0.7230 0.7260 0.7300 0.7310
12.213275 0.7350 0.7350 0.7360 0.7360 0.7380
12.246000 0.7400 0.7400 0.7380 0.7380 0.7380
12.279275 0.7380 0.7380 0.7380 0.7380 0.7380
12.313000 0.7380 0.7360 0.7350 0.7310 0.7300
12.346275 0.7280 0.7260 0.7250 0.7210 0.7180
12.379000 0.7150 0.7130 0.7080 0.7030 0.6930
12.412275 0.6880 0.6830 0.6800 0.6750 0.6710
12.446000 0.6660 0.6610 0.6580 0.6550 0.6550
12.479275 0.6530 0.6530 0.6530 0.6530 0.6550
12.512000 0.6580 0.6630 0.6660 0.6730 0.6760
12.545275 0.6850 0.6880 0.6930 0.6980 0.7010
12.579000 0.7030 0.7060 0.7110 0.7130 0.7180
12.612275 0.7210 0.7230 0.7250 0.7280 0.7300
12.645000 0.7330 0.7350 0.7360 0.7400 0.7430
12.678275 0.7480 0.7530 0.7550 0.7560 0.7560
12.712000 0.7580 0.7600 0.7600 0.7610 0.7610
12.745275 0.7630 0.7630 0.7630 0.7630 0.7630
12.778000 0.7630 0.7630 0.7610 0.7610 0.7600
12.811275 0.7580 0.7560 0.7550 0.7510 0.7510
12.845000 0.7460 0.7430 0.7350 0.7310 0.7300
12.878275 0.7280 0.7250 0.7230 0.7210 0.7200
12.911000 0.7180 0.7180 0.7200 0.7200 0.7180
12.944275 0.7180 0.7200 0.7200 0.7200 0.7200
12.978000 0.7200 0.7200 0.7200 0.7200 0.7200
13.011275 0.7200 0.7200 0.7200 0.7200 0.7200
13.044000 0.7200 0.7200 0.7200 0.7200 0.7200
13.077275 0.7200 0.7160 0.7160 0.7130 0.7110
13.111000 0.7100 0.7050 0.7030 0.6980 0.6930
13.144275 0.6900 0.6860 0.6830 0.6830 0.6800
13.177000 0.6760 0.6750 0.6710 0.6710 0.6680
13.210275 0.6630 0.6600 0.6560 0.6550 0.6530
13.244000 0.6510 0.6510 0.6500 0.6500 0.6480
13.277275 0.6430 0.6410 0.6400 0.6380 0.6360
13.310000 0.6360 0.6350 0.6330 0.6310 0.6300
13.343275 0.6300 0.6260 0.6230 0.6210 0.6200
13.377000 0.6200 0.6160 0.6130 0.6080 0.6050
13.410275 0.6000 0.6000 0.5850 0.5830 0.5760
13.443000 0.5700 0.5650 0.5550 0.5460 0.5350
13.476275 0.5250 0.5150 0.5050 0.4950 0.4860
13.510000 0.4780 0.4710 0.4630 0.4550 0.4450
13.543275 0.4300 0.4200 0.4080 0.3950 0.3830
13.576000 0.3710 0.3600 0.3500 0.3400 0.3300
13.609275 0.3180 0.3080 0.2960 0.2830 0.2680
13.643000 0.2600 0.2510 0.2430 0.2400 0.2310
13.676275 0.2230 0.2130 0.2050 0.2010 0.1980
13.710000 0.1930 0.1910 0.1910 0.1910 0.1930
13.743275 0.1930 0.1930 0.1930 0.1950 0.1980
13.776000 0.2050 0.2150 0.2260 0.2360 0.2460
13.809275 0.2560 0.2680 0.2810 0.2930 0.3060
13.843000 0.3200 0.3350 0.3480 0.3630 0.3800
13.876275 0.3950 0.4100 0.4250 0.4430 0.4550
13.909000 0.4700 0.4850 0.4910 0.4960 0.5030
13.942275 0.5180 0.5350 0.5460 0.5580 0.5660
13.976000 0.5760 0.5830 0.5930 0.6000 0.6080
14.009275 0.6160 0.6260 0.6350 0.6400 0.6430
14.042000 0.6480 0.6550 0.6580 0.6630 0.6660
14.075275 0.6700 0.6750 0.6780 0.6830 0.6860
14.109000 0.6900 0.6910 0.6950 0.6980 0.7030
14.142275 0.7050 0.7080 0.7130 0.7150 0.7160
14.175000 0.7200 0.7200 0.7230 0.7250 0.7250
14.208275 0.7260 0.7280 0.7280 0.7300 0.7300
14.242000 0.7300 0.7310 0.7330 0.7360 0.7360
14.275275 0.7360 0.7380 0.7380 0.7400 0.7400
14.308000 0.7400 0.7400 0.7400 0.7400 0.7410
14.341275 0.7410 0.7410 0.7430 0.7430 0.7430
14.375000 0.7450 0.7450 0.7450 0.7450 0.7450
14.408275 0.7460 0.7460 0.7450 0.7460 0.7460
14.441000 0.7460 0.7460 0.7460 0.7460 0.7460
14.474275 0.7450 0.7450 0.7450 0.7450 0.7460
14.508000 0.7460 0.7460 0.7460 0.7460 0.7460
14.541275 0.7460 0.7460 0.7460 0.7460 0.7450
14.574000 0.7450 0.7450 0.7450 0.7450 0.7460
14.607275 0.7460 0.7460 0.7460 0.7460 0.7450
14.641000 0.7450 0.7450 0.7450 0.7430 0.7410
14.674275 0.7410 0.7410 0.7380 0.7360 0.7360
14.707000 0.7360 0.7350 0.7350 0.7350 0.7330
14.740275 0.7330 0.7330 0.7310 0.7300 0.7280
14.774000 0.7260 0.7260 0.7250 0.7230 0.7230
14.807275 0.7210 0.7200 0.7200 0.7180 0.7160
14.840000 0.7160 0.7130 0.7110 0.7100 0.7080
14.873275 0.7060 0.7030 0.7030 0.6960 0.6930
14.907000 0.6910 0.6880 0.6860 0.6850 0.6810
14.940275 0.6810 0.6810 0.6780 0.6750 0.6710
14.973000 0.6680 0.6650 0.6610 0.6580 0.6550
15.006275 0.6480 0.6430 0.6360 0.6300 0.6230
15.040000 0.6150 0.6060 0.6010 0.5960 0.5850
15.073275 0.5730 0.5610 0.5530 0.5450 0.5380
15.106000 0.5300 0.5230 0.5160 0.5060 0.4980
15.139275 0.4860 0.4810 0.4780 0.4750 0.4730
15.173000 0.4700 0.4650 0.4580 0.4510 0.4460
15.206275 0.4380 0.4330 0.4250 0.4200 0.4160
15.239000 0.4110 0.4060 0.4030 0.4000 0.3950
15.272275 0.3900 0.3850 0.3810 0.3760 0.3730
15.306000 0.3700 0.3680 0.3650 0.3600 0.3580
15.339275 0.3550 0.3480 0.3450 0.3430 0.3400
15.373000 0.3350 0.3330 0.3310 0.3280 0.3250
15.406275 0.3230 0.3200 0.3130 0.3100 0.3080
15.439000 0.3050 0.3010 0.3000 0.3000 0.2980
15.472275 0.2960 0.2930 0.2930 0.2930 0.2910
15.506000 0.2910 0.2900 0.2880 0.2860 0.2860
15.539275 0.2860 0.2860 0.2850 0.2850 0.2850
15.572000 0.2850 0.2850 0.2850 0.2860 0.2860
15.605275 0.2860 0.2860 0.2860 0.2860 0.2860
15.639000 0.2860 0.2880 0.2880 0.2880 0.2880
15.672275 0.2880 0.2900 0.2900 0.2910 0.2950
15.705000 0.2980 0.3030 0.3060 0.3110 0.3150
15.738275 0.3200 0.3230 0.3280 0.3330 0.3380
15.772000 0.3430 0.3500 0.3550 0.3600 0.3650
15.805275 0.3700 0.3730 0.3780 0.3830 0.3900
15.838000 0.3930 0.4000 0.4030 0.4100 0.4110
15.871275 0.4160 0.4210 0.4260 0.4300 0.4350
15.905000 0.4410 0.4450 0.4460 0.4510 0.4550
15.938275 0.4580 0.4630 0.4660 0.4730 0.4760
15.971000 0.4800 0.4830 0.4850 0.4860 0.4860
16.004275 0.4860 0.4860
##END=
