##TITLE=HEPTANE, 1-BROMO-
##JCAMP-DX=4.24
##DATA TYPE=INFRARED SPECTRUM
##CLASS=COBLENTZ III
##ORIGIN=DOW CHEMICAL COMPANY
##OWNER=COBLENTZ SOCIETY
Collection (C) 2018 copyright by the U.S. Secretary of Commerce
on behalf of the United States of America. All rights reserved.
##DATE=1968/03/13
##NAMES=1-bromoheptane
##CAS REGISTRY NO=629-04-9
##MOLFORM=C7 H15 Br
##SOURCE REFERENCE=COBLENTZ NO. 10007
##$NIST SOURCE=COBLENTZ
##$NIST IMAGE=cob10007
##SPECTROMETER/DATA SYSTEM=DOW KBr FOREPRISM-GRATING
##INSTRUMENT PARAMETERS=BLAZED AT 3.5, 12.0, 20.0 MICRON, CHANGED AT 5.0, 7.5, 14.9 MICRON
##STATE=SOLUTION (10% IN CCl4 FOR 3800-1333, AND 10% IN CS2 FOR 1333-400 CM^-^1)
##PATH LENGTH=0.011, 0.010 CM
$$SPECTRAL CONTAMINATION DUE TO CCl4 AROUND 1550, AND CS2 AROUND 855 CM^-^1
##SAMPLING PROCEDURE=TRANSMISSION
##RESOLUTION=4
##DATA PROCESSING=DIGITIZED BY NIST FROM HARD COPY (FROM TWO SEGMENTS)
##XUNITS=1/CM
##YUNITS=TRANSMITTANCE
##XFACTOR=1.000000
##YFACTOR=1
##DELTAX=0.869566
##FIRSTX=386.957
##LASTX=3801.74
##FIRSTY=0.373
##MAXX=3801.74
##MINX=386.957
##MAXY=1.021
##MINY=0.039
##NPOINTS=3928
##XYDATA=(X++(Y..Y))
386.957000 0.3730 0.3760 0.3780 0.3800 0.3810
391.304831 0.3820 0.3850 0.3890 0.3950 0.3990
395.652661 0.4030 0.4080 0.4120 0.4180 0.4260
400.000492 0.4380 0.4589 0.4710 0.4859 0.5049
404.348323 0.5240 0.5460 0.5680 0.5910 0.6130
408.696153 0.6320 0.6509 0.6699 0.6969 0.7169
413.043984 0.7200 0.7270 0.7350 0.7430 0.7500
417.391815 0.7580 0.7670 0.7730 0.7820 0.7870
421.739645 0.7950 0.8030 0.8070 0.8130 0.8160
426.087476 0.8200 0.8220 0.8250 0.8290 0.8320
430.435307 0.8350 0.8410 0.8480 0.8500 0.8520
434.783137 0.8540 0.8590 0.8650 0.8700 0.8710
439.130968 0.8730 0.8760 0.8810 0.8860 0.8910
443.478798 0.8930 0.8950 0.8970 0.9010 0.9030
447.826629 0.9040 0.9070 0.9110 0.9120 0.9120
452.174460 0.9140 0.9140 0.9150 0.9160 0.9190
456.522290 0.9220 0.9260 0.9330 0.9340 0.9350
460.870121 0.9380 0.9410 0.9420 0.9450 0.9480
465.217952 0.9490 0.9500 0.9530 0.9550 0.9550
469.565782 0.9560 0.9570 0.9590 0.9630 0.9640
473.913613 0.9650 0.9650 0.9670 0.9680 0.9700
478.261444 0.9710 0.9710 0.9720 0.9720 0.9740
482.609274 0.9720 0.9720 0.9720 0.9720 0.9720
486.957105 0.9720 0.9720 0.9720 0.9740 0.9760
491.304936 0.9780 0.9780 0.9780 0.9780 0.9780
495.652766 0.9780 0.9790 0.9790 0.9790 0.9790
500.000597 0.9800 0.9800 0.9800 0.9800 0.9800
504.348428 0.9800 0.9800 0.9800 0.9790 0.9790
508.696258 0.9790 0.9790 0.9790 0.9780 0.9780
513.044089 0.9780 0.9780 0.9780 0.9780 0.9780
517.391920 0.9780 0.9760 0.9760 0.9750 0.9750
521.739750 0.9740 0.9740 0.9740 0.9720 0.9720
526.087581 0.9720 0.9720 0.9710 0.9710 0.9710
530.435411 0.9710 0.9710 0.9710 0.9710 0.9710
534.783242 0.9710 0.9710 0.9710 0.9710 0.9700
539.131073 0.9700 0.9680 0.9670 0.9650 0.9650
543.478903 0.9630 0.9610 0.9590 0.9560 0.9550
547.826734 0.9490 0.9450 0.9410 0.9350 0.9260
552.174565 0.9160 0.9120 0.9010 0.8920 0.8760
556.522395 0.8580 0.8361 0.8161 0.7771 0.7431
560.870226 0.7410 0.7420 0.7580 0.7650 0.7860
565.218057 0.8139 0.8349 0.8509 0.8590 0.8700
569.565887 0.8880 0.9010 0.9330 0.9650 0.9710
573.913718 0.9780 0.9790 0.9830 0.9860 0.9870
578.261549 0.9890 0.9900 0.9900 0.9910 0.9910
582.609379 0.9910 0.9910 0.9930 0.9930 0.9940
586.957210 0.9940 0.9940 0.9940 0.9940 0.9940
591.305041 0.9940 0.9940 0.9940 0.9940 0.9940
595.652871 0.9940 0.9940 0.9930 0.9930 0.9930
600.000702 0.9930 0.9930 0.9910 0.9910 0.9910
604.348533 0.9910 0.9900 0.9890 0.9870 0.9860
608.696363 0.9850 0.9830 0.9820 0.9800 0.9790
613.044194 0.9790 0.9780 0.9760 0.9750 0.9720
617.392024 0.9720 0.9710 0.9710 0.9670 0.9650
621.739855 0.9570 0.9530 0.9460 0.9440 0.9370
626.087686 0.9330 0.9220 0.9150 0.9080 0.8990
630.435516 0.8910 0.8770 0.8670 0.8480 0.8200
634.783347 0.8050 0.7880 0.7601 0.7431 0.7231
639.131178 0.7080 0.6970 0.6940 0.6960 0.7020
643.479008 0.7050 0.7260 0.7469 0.7769 0.8109
647.826839 0.8310 0.8360 0.8540 0.8760 0.8910
652.174670 0.9010 0.9050 0.9120 0.9180 0.9250
656.522500 0.9310 0.9330 0.9370 0.9370 0.9410
660.870331 0.9440 0.9450 0.9530 0.9600 0.9670
665.218162 0.9720 0.9740 0.9750 0.9760 0.9760
669.565992 0.9780 0.9780 0.9790 0.9790 0.9790
673.913823 0.9790 0.9790 0.9800 0.9800 0.9800
678.261654 0.9800 0.9820 0.9830 0.9830 0.9820
682.609484 0.9800 0.9800 0.9800 0.9800 0.9800
686.957315 0.9800 0.9800 0.9820 0.9800 0.9800
691.305146 0.9800 0.9820 0.9800 0.9800 0.9800
695.652976 0.9800 0.9790 0.9790 0.9780 0.9780
700.000807 0.9780 0.9760 0.9760 0.9750 0.9720
704.348637 0.9700 0.9670 0.9640 0.9600 0.9570
708.696468 0.9560 0.9530 0.9500 0.9440 0.9380
713.044299 0.9370 0.9310 0.9250 0.9140 0.8971
717.392129 0.8920 0.8800 0.8740 0.8400 0.8240
721.739960 0.8030 0.7830 0.7621 0.7600 0.7600
726.087791 0.7720 0.7920 0.8130 0.8280 0.8430
730.435621 0.8729 0.9139 0.9180 0.9250 0.9290
734.783452 0.9310 0.9330 0.9330 0.9330 0.9330
739.131283 0.9310 0.9310 0.9350 0.9400 0.9400
743.479113 0.9410 0.9440 0.9450 0.9460 0.9490
747.826944 0.9550 0.9560 0.9590 0.9600 0.9630
752.174775 0.9630 0.9640 0.9640 0.9640 0.9670
756.522605 0.9680 0.9700 0.9700 0.9720 0.9740
760.870436 0.9760 0.9790 0.9790 0.9800 0.9820
765.218267 0.9820 0.9830 0.9830 0.9830 0.9830
769.566097 0.9830 0.9850 0.9860 0.9860 0.9860
773.913928 0.9860 0.9860 0.9860 0.9860 0.9860
778.261759 0.9830 0.9800 0.9790 0.9720 0.9670
782.609589 0.9590 0.9560 0.9450 0.9420 0.9420
786.957420 0.9450 0.9480 0.9560 0.9640 0.9700
791.305250 0.9750 0.9790 0.9820 0.9850 0.9890
795.653081 0.9910 0.9950 0.9980 1.0000 1.0000
800.000912 1.0000 1.0000 1.0000 1.0010 1.0010
804.348742 1.0010 1.0010 1.0010 1.0010 1.0010
808.696573 1.0000 0.9980 0.9980 0.9970 0.9970
813.044404 0.9970 0.9970 0.9970 0.9950 0.9940
817.392234 0.9910 0.9890 0.9860 0.9830 0.9800
821.740065 0.9790 0.9780 0.9780 0.9760 0.9760
826.087896 0.9760 0.9760 0.9780 0.9780 0.9780
830.435726 0.9780 0.9760 0.9750 0.9740 0.9720
834.783557 0.9700 0.9680 0.9650 0.9630 0.9600
839.131388 0.9590 0.9560 0.9450 0.9370 0.9350
843.479218 0.9260 0.9150 0.9080 0.8990 0.8960
847.827049 0.8920 0.8890 0.8760 0.8630 0.8540
852.174880 0.8500 0.8460 0.8460 0.8460 0.8440
856.522710 0.8440 0.8460 0.8460 0.8480 0.8510
860.870541 0.8550 0.8580 0.8590 0.8620 0.8660
865.218372 0.8700 0.8730 0.8810 0.8850 0.8890
869.566202 0.8910 0.8930 0.8960 0.9000 0.9010
873.914033 0.9030 0.9050 0.9070 0.9100 0.9100
878.261863 0.9110 0.9110 0.9120 0.9150 0.9289
882.609694 0.9330 0.9340 0.9400 0.9420 0.9440
886.957525 0.9450 0.9460 0.9480 0.9490 0.9530
891.305355 0.9560 0.9590 0.9600 0.9610 0.9630
895.653186 0.9630 0.9640 0.9670 0.9700 0.9780
900.001017 0.9790 0.9870 0.9940 1.0010 1.0010
904.348847 1.0040 1.0060 1.0080 1.0090 1.0090
908.696678 1.0090 1.0100 1.0100 1.0100 1.0100
913.044509 1.0100 1.0090 1.0090 1.0090 1.0090
917.392339 1.0090 1.0090 1.0090 1.0090 1.0090
921.740170 1.0090 1.0090 1.0090 1.0100 1.0100
926.088001 1.0100 1.0100 1.0100 1.0100 1.0120
930.435831 1.0120 1.0130 1.0130 1.0140 1.0140
934.783662 1.0140 1.0160 1.0160 1.0160 1.0160
939.131493 1.0160 1.0140 1.0140 1.0130 1.0130
943.479323 1.0100 1.0060 1.0040 1.0020 1.0010
947.827154 1.0010 1.0000 0.9980 0.9950 0.9940
952.174985 0.9940 0.9930 0.9930 0.9930 0.9940
956.522815 0.9940 0.9980 0.9980 1.0010 1.0010
960.870646 1.0020 1.0020 1.0020 1.0010 1.0010
965.218476 1.0010 1.0000 0.9980 0.9980 0.9970
969.566307 0.9950 0.9910 0.9900 0.9900 0.9890
973.914138 0.9870 0.9870 0.9870 0.9870 0.9890
978.261968 0.9900 0.9900 0.9910 0.9910 0.9930
982.609799 0.9930 0.9940 0.9950 0.9970 0.9980
986.957630 0.9980 1.0000 1.0010 1.0010 1.0010
991.305460 1.0010 1.0010 1.0010 1.0010 1.0020
995.653291 1.0020 1.0010 1.0010 1.0010 1.0010
1000.001122 1.0010 1.0010 1.0010 1.0010 1.0010
1004.348952 1.0010 1.0020 1.0040 1.0040 1.0040
1008.696783 1.0040 1.0040 1.0040 1.0040 1.0040
1013.044614 1.0040 1.0040 1.0040 1.0040 1.0040
1017.392444 1.0040 1.0040 1.0040 1.0040 1.0040
1021.740275 1.0040 1.0020 1.0020 1.0020 1.0020
1026.088106 1.0020 1.0020 1.0020 1.0020 1.0020
1030.435936 1.0010 1.0010 1.0010 1.0010 1.0010
1034.783767 1.0000 1.0000 1.0000 0.9970 0.9950
1039.131598 0.9940 0.9930 0.9910 0.9900 0.9890
1043.479428 0.9890 0.9870 0.9870 0.9870 0.9870
1047.827259 0.9870 0.9860 0.9860 0.9850 0.9850
1052.175089 0.9850 0.9860 0.9870 0.9890 0.9900
1056.522920 0.9910 0.9930 0.9930 0.9940 0.9950
1060.870751 0.9970 0.9980 1.0000 1.0000 1.0000
1065.218581 1.0000 1.0000 1.0000 1.0000 1.0000
1069.566412 1.0010 1.0010 1.0010 1.0000 1.0000
1073.914243 1.0000 1.0000 1.0000 1.0000 1.0000
1078.262073 1.0000 0.9980 0.9980 1.0000 1.0000
1082.609904 1.0000 1.0000 1.0000 1.0010 1.0010
1086.957735 1.0010 1.0010 1.0010 1.0020 1.0020
1091.305565 1.0010 1.0010 1.0010 1.0010 1.0010
1095.653396 1.0010 1.0010 1.0010 1.0000 1.0000
1100.001227 0.9980 0.9970 0.9970 0.9950 0.9950
1104.349057 0.9950 0.9940 0.9940 0.9940 0.9940
1108.696888 0.9940 0.9950 0.9970 1.0010 1.0040
1113.044719 1.0050 1.0080 1.0100 1.0120 1.0140
1117.392549 1.0170 1.0190 1.0190 1.0200 1.0200
1121.740380 1.0210 1.0210 1.0200 1.0200 1.0200
1126.088211 1.0200 1.0200 1.0200 1.0200 1.0210
1130.436041 1.0210 1.0200 1.0200 1.0190 1.0190
1134.783872 1.0190 1.0170 1.0170 1.0170 1.0160
1139.131702 1.0140 1.0130 1.0120 1.0120 1.0100
1143.479533 1.0100 1.0090 1.0080 1.0060 1.0060
1147.827364 1.0050 1.0050 1.0050 1.0040 1.0040
1152.175194 1.0040 1.0040 1.0040 1.0040 1.0020
1156.523025 1.0020 1.0010 1.0010 1.0010 1.0010
1160.870856 1.0000 1.0000 1.0000 0.9980 0.9970
1165.218686 0.9950 0.9950 0.9950 0.9950 0.9940
1169.566517 0.9940 0.9940 0.9930 0.9930 0.9910
1173.914348 0.9910 0.9900 0.9890 0.9890 0.9870
1178.262178 0.9860 0.9850 0.9850 0.9830 0.9790
1182.610009 0.9790 0.9790 0.9780 0.9760 0.9760
1186.957840 0.9710 0.9670 0.9640 0.9630 0.9560
1191.305670 0.9440 0.9370 0.9151 0.9040 0.8911
1195.653501 0.8760 0.8610 0.8550 0.8470 0.8440
1200.001332 0.8470 0.8610 0.9179 0.9409 0.9440
1204.349162 0.9460 0.9480 0.9490 0.9490 0.9480
1208.696993 0.9460 0.9460 0.9440 0.9370 0.9310
1213.044824 0.9250 0.9150 0.8910 0.8840 0.8740
1217.392654 0.8650 0.8550 0.8201 0.7611 0.7341
1221.740485 0.7320 0.7340 0.7420 0.7470 0.7470
1226.088315 0.7430 0.7410 0.7380 0.7380 0.7390
1230.436146 0.7420 0.7500 0.7570 0.7580 0.7600
1234.783977 0.7580 0.7490 0.7380 0.7230 0.7001
1239.131807 0.6849 0.6600 0.6560 0.6560 0.6580
1243.479638 0.6600 0.6620 0.6660 0.6750 0.6850
1247.827469 0.6980 0.7161 0.7650 0.8020 0.8170
1252.175299 0.8160 0.8140 0.8140 0.8110 0.8020
1256.523130 0.7910 0.7610 0.7350 0.7260 0.6980
1260.870961 0.6620 0.6490 0.6450 0.6470 0.6510
1265.218791 0.6600 0.6740 0.6820 0.6970 0.7170
1269.566622 0.7370 0.7580 0.7820 0.8099 0.8170
1273.914453 0.8220 0.8260 0.8310 0.8330 0.8350
1278.262283 0.8370 0.8370 0.8370 0.8400 0.8410
1282.610114 0.8410 0.8430 0.8430 0.8430 0.8460
1286.957945 0.8480 0.8500 0.8500 0.8460 0.8410
1291.305775 0.8360 0.8320 0.8310 0.8260 0.8250
1295.653606 0.8260 0.8260 0.8310 0.8320 0.8330
1300.001437 0.8370 0.8440 0.8510 0.8580 0.8610
1304.349267 0.8700 0.8710 0.8770 0.8800 0.8850
1308.697098 0.8890 0.8910 0.8930 0.8970 0.9030
1313.044928 0.9080 0.9140 0.9160 0.9190 0.9200
1317.392759 0.9230 0.9250 0.9260 0.9260 0.9260
1321.740590 0.9250 0.9250 0.9250 0.9230 0.9230
1326.088420 0.9220 0.9220 0.9220 0.9220 0.9230
1330.436251 0.9230 0.9220 0.9220 0.9200 0.9190
1334.784082 0.9180 0.9160 0.9150 0.9150 0.9150
1339.131912 0.9160 0.9160 0.9180 0.9190 0.9190
1343.479743 0.9200 0.9200 0.9200 0.9190 0.9180
1347.827574 0.9180 0.9150 0.9150 0.9150 0.9140
1352.175404 0.9140 0.9140 0.9140 0.9140 0.9140
1356.523235 0.9140 0.9140 0.9140 0.9120 0.9120
1360.871066 0.9110 0.9110 0.9110 0.9100 0.9080
1365.218896 0.9070 0.9050 0.9030 0.9000 0.8970
1369.566727 0.8950 0.8920 0.8910 0.8880 0.8850
1373.914558 0.8820 0.8800 0.8780 0.8670 0.8520
1378.262388 0.8330 0.8179 0.7690 0.7420 0.7470
1382.610219 0.7830 0.8030 0.8260 0.8549 0.9098
1386.958050 0.9260 0.9330 0.9340 0.9350 0.9350
1391.305880 0.9370 0.9350 0.9350 0.9340 0.9340
1395.653711 0.9340 0.9340 0.9330 0.9330 0.9330
1400.001541 0.9310 0.9310 0.9300 0.9290 0.9290
1404.349372 0.9270 0.9270 0.9270 0.9260 0.9260
1408.697203 0.9250 0.9250 0.9230 0.9220 0.9220
1413.045033 0.9220 0.9200 0.9200 0.9190 0.9180
1417.392864 0.9180 0.9150 0.9150 0.9140 0.9120
1421.740695 0.9100 0.9030 0.8970 0.8920 0.8910
1426.088525 0.8840 0.8740 0.8690 0.8560 0.8510
1430.436356 0.8159 0.7240 0.7070 0.7010 0.7150
1434.784187 0.7300 0.7450 0.7450 0.7320 0.7041
1439.132017 0.7010 0.6859 0.6410 0.6300 0.6820
1443.479848 0.6930 0.7040 0.7110 0.7120 0.7110
1447.827679 0.7080 0.7050 0.7000 0.6890 0.6680
1452.175509 0.6380 0.6250 0.6030 0.5761 0.5441
1456.523340 0.5310 0.5090 0.5050 0.5020 0.4970
1460.871171 0.4950 0.4950 0.4980 0.5010 0.5060
1465.219001 0.5050 0.5000 0.4890 0.4760 0.4640
1469.566832 0.4520 0.4460 0.4750 0.5319 0.6028
1473.914663 0.6531 0.6851 0.7830 0.8160 0.8520
1478.262493 0.8660 0.8710 0.8760 0.8780 0.8810
1482.610324 0.8840 0.8840 0.8840 0.8840 0.8840
1486.958154 0.8840 0.8820 0.8820 0.8810 0.8810
1491.305985 0.8800 0.8800 0.8800 0.8770 0.8770
1495.653816 0.8700 0.8660 0.8620 0.8590 0.8580
1500.001646 0.8540 0.8510 0.8480 0.8440 0.8370
1504.349477 0.8330 0.8310 0.8260 0.8220 0.8180
1508.697308 0.8160 0.8130 0.8070 0.7970 0.7940
1513.045138 0.7920 0.7860 0.7800 0.7750 0.7670
1517.392969 0.7620 0.7600 0.7560 0.7500 0.7420
1521.740800 0.7350 0.7280 0.7260 0.7230 0.7230
1526.088630 0.7170 0.7090 0.6980 0.6940 0.6930
1530.436461 0.6820 0.6750 0.6680 0.6620 0.6590
1534.784292 0.6510 0.6440 0.6370 0.6290 0.6190
1539.132122 0.6100 0.6000 0.5920 0.5810 0.5690
1543.479953 0.5580 0.5490 0.5390 0.5320 0.5270
1547.827784 0.5230 0.5200 0.5200 0.5190 0.5190
1552.175614 0.5200 0.5200 0.5230 0.5240 0.5350
1556.523445 0.5360 0.5390 0.5440 0.5490 0.5620
1560.871276 0.5800 0.5910 0.5980 0.6030 0.6060
1565.219106 0.6150 0.6300 0.6430 0.6510 0.6580
1569.566937 0.6590 0.6640 0.6740 0.6790 0.6850
1573.914768 0.6900 0.6920 0.6960 0.6970 0.6980
1578.262598 0.6980 0.7010 0.7020 0.7070 0.7090
1582.610429 0.7090 0.7120 0.7150 0.7220 0.7240
1586.958259 0.7270 0.7340 0.7420 0.7450 0.7580
1591.306090 0.7670 0.7770 0.7820 0.7870 0.7970
1595.653921 0.8060 0.8180 0.8290 0.8330 0.8370
1600.001751 0.8480 0.8620 0.8760 0.8840 0.8930
1604.349582 0.8970 0.9050 0.9120 0.9150 0.9180
1608.697413 0.9230 0.9300 0.9340 0.9370 0.9440
1613.045243 0.9490 0.9560 0.9610 0.9640 0.9650
1617.393074 0.9670 0.9680 0.9700 0.9710 0.9740
1621.740905 0.9750 0.9780 0.9780 0.9790 0.9800
1626.088735 0.9820 0.9830 0.9850 0.9860 0.9860
1630.436566 0.9860 0.9870 0.9870 0.9890 0.9890
1634.784397 0.9890 0.9900 0.9910 0.9910 0.9930
1639.132227 0.9930 0.9930 0.9950 0.9970 0.9970
1643.480058 0.9980 0.9980 1.0000 1.0000 1.0000
1647.827889 1.0000 1.0000 1.0010 1.0010 1.0010
1652.175719 1.0000 1.0000 0.9970 0.9970 0.9970
1656.523550 0.9970 0.9970 0.9970 0.9970 0.9980
1660.871381 0.9980 0.9980 0.9980 0.9980 0.9980
1665.219211 0.9980 0.9980 0.9980 0.9980 0.9980
1669.567042 0.9980 1.0000 1.0000 1.0000 0.9980
1673.914872 0.9980 0.9980 0.9980 0.9980 0.9980
1678.262703 0.9980 0.9980 0.9980 0.9980 0.9980
1682.610534 1.0000 1.0000 1.0000 0.9980 0.9980
1686.958364 0.9980 1.0000 1.0000 1.0010 1.0010
1691.306195 1.0010 1.0000 1.0000 1.0010 1.0010
1695.654026 1.0000 1.0000 1.0000 1.0000 1.0000
1700.001856 1.0000 1.0000 1.0000 1.0000 1.0000
1704.349687 1.0000 1.0000 1.0000 1.0010 1.0010
1708.697518 1.0000 1.0000 1.0000 1.0000 1.0000
1713.045348 1.0000 1.0000 0.9980 0.9980 0.9980
1717.393179 0.9980 0.9980 0.9970 0.9970 0.9970
1721.741010 0.9970 0.9950 0.9950 0.9950 0.9940
1726.088840 0.9940 0.9940 0.9940 0.9940 0.9940
1730.436671 0.9930 0.9930 0.9930 0.9940 0.9940
1734.784502 0.9950 1.0010 1.0010 1.0010 1.0020
1739.132332 1.0040 1.0040 1.0050 1.0050 1.0050
1743.480163 1.0040 1.0040 1.0050 1.0040 1.0050
1747.827994 1.0050 1.0050 1.0050 1.0050 1.0050
1752.175824 1.0050 1.0050 1.0050 1.0050 1.0050
1756.523655 1.0050 1.0050 1.0050 1.0050 1.0050
1760.871485 1.0050 1.0050 1.0050 1.0050 1.0050
1765.219316 1.0050 1.0050 1.0050 1.0050 1.0050
1769.567147 1.0050 1.0050 1.0050 1.0040 1.0040
1773.914977 1.0040 1.0040 1.0040 1.0040 1.0040
1778.262808 1.0040 1.0040 1.0040 1.0040 1.0040
1782.610639 1.0040 1.0040 1.0050 1.0040 1.0020
1786.958469 1.0020 1.0020 1.0010 1.0010 1.0010
1791.306300 1.0010 1.0010 1.0010 1.0010 1.0010
1795.654131 1.0010 1.0010 1.0010 1.0010 1.0010
1800.001961 1.0020 1.0020 1.0010 1.0000 1.0000
1804.349792 1.0000 1.0000 0.9980 0.9980 0.9980
1808.697623 0.9980 0.9980 0.9980 0.9980 0.9980
1813.045453 0.9980 0.9980 0.9980 0.9980 0.9980
1817.393284 0.9980 0.9980 0.9980 1.0010 1.0010
1821.741115 1.0010 1.0010 1.0010 1.0000 0.9970
1826.088945 0.9970 0.9970 0.9970 0.9970 0.9970
1830.436776 0.9970 0.9970 0.9970 0.9970 0.9970
1834.784607 0.9970 0.9970 0.9970 0.9980 1.0010
1839.132437 1.0010 1.0010 1.0020 1.0020 1.0020
1843.480268 1.0020 1.0010 1.0010 1.0000 0.9970
1847.828098 0.9970 0.9970 0.9970 0.9970 0.9970
1852.175929 0.9970 0.9970 0.9970 0.9970 1.0000
1856.523760 1.0000 1.0000 1.0000 1.0010 1.0010
1860.871590 1.0010 1.0010 1.0010 1.0010 1.0010
1865.219421 1.0010 1.0010 1.0010 1.0010 1.0010
1869.567252 1.0010 1.0010 1.0010 1.0010 1.0010
1873.915082 1.0010 1.0010 1.0010 1.0010 1.0010
1878.262913 1.0010 1.0010 1.0010 1.0010 1.0000
1882.610744 1.0010 1.0010 1.0010 1.0010 1.0010
1886.958574 1.0010 1.0010 1.0010 1.0010 1.0010
1891.306405 1.0020 1.0020 1.0020 1.0020 1.0020
1895.654236 1.0020 1.0020 1.0020 1.0020 1.0040
1900.002066 1.0020 1.0020 1.0020 1.0040 1.0040
1904.349897 1.0040 1.0040 1.0040 1.0040 1.0040
1908.697728 1.0040 1.0040 1.0040 1.0040 1.0040
1913.045558 1.0040 1.0040 1.0040 1.0040 1.0040
1917.393389 1.0040 1.0040 1.0040 1.0040 1.0040
1921.741220 1.0040 1.0040 1.0040 1.0040 1.0040
1926.089050 1.0040 1.0040 1.0040 1.0040 1.0040
1930.436881 1.0040 1.0020 1.0020 1.0020 1.0020
1934.784711 1.0020 1.0020 1.0020 1.0020 1.0020
1939.132542 1.0020 1.0020 1.0020 1.0010 1.0010
1943.480373 1.0010 1.0010 1.0010 1.0010 1.0010
1947.828203 1.0010 1.0000 1.0000 0.9980 0.9970
1952.176034 0.9970 0.9970 0.9970 0.9970 0.9970
1956.523865 0.9970 0.9970 0.9970 0.9980 0.9980
1960.871695 0.9980 0.9980 0.9980 0.9980 0.9980
1965.219526 0.9980 0.9980 0.9980 0.9980 0.9980
1969.567357 0.9980 0.9980 0.9970 0.9950 0.9950
1973.915187 0.9950 0.9950 0.9950 0.9950 0.9950
1978.263018 0.9950 0.9940 0.9940 0.9940 0.9940
1982.610849 0.9940 0.9940 0.9940 0.9940 0.9940
1986.958679 0.9940 0.9940 0.9940 0.9930 0.9930
1991.306510 0.9930 0.9930 0.9930 0.9930 0.9930
1995.654341 0.9910 0.9910 0.9930 0.9940 0.9970
2000.002171 0.9970 0.9970 0.9970 0.9970 0.9970
2004.350002 0.9960 0.9950 0.9950 0.9950 0.9950
2008.697833 0.9950 0.9950 0.9950 0.9940 0.9930
2013.045663 0.9930 0.9930 0.9930 0.9930 0.9930
2017.393494 0.9930 0.9930 0.9930 0.9930 0.9930
2021.741324 0.9930 0.9930 0.9930 0.9930 0.9930
2026.089155 0.9930 0.9930 0.9930 0.9930 0.9930
2030.436986 0.9930 0.9930 0.9930 0.9930 0.9930
2034.784816 0.9930 0.9930 0.9930 0.9935 0.9940
2039.132647 0.9935 0.9930 0.9930 0.9930 0.9930
2043.480478 0.9930 0.9930 0.9930 0.9930 0.9930
2047.828308 0.9930 0.9930 0.9930 0.9930 0.9935
2052.176139 0.9940 0.9940 0.9940 0.9940 0.9940
2056.523970 0.9940 0.9940 0.9940 0.9940 0.9940
2060.871800 0.9940 0.9940 0.9940 0.9940 0.9940
2065.219631 0.9940 0.9940 0.9940 0.9940 0.9940
2069.567462 0.9940 0.9940 0.9940 0.9940 0.9940
2073.915292 0.9940 0.9940 0.9940 0.9940 0.9940
2078.263123 0.9940 0.9940 0.9940 0.9940 0.9940
2082.610954 0.9935 0.9930 0.9930 0.9930 0.9930
2086.958784 0.9930 0.9930 0.9930 0.9930 0.9930
2091.306615 0.9930 0.9930 0.9930 0.9930 0.9930
2095.654446 0.9930 0.9930 0.9930 0.9930 0.9930
2100.002276 0.9935 0.9940 0.9940 0.9940 0.9935
2104.350107 0.9930 0.9930 0.9930 0.9930 0.9930
2108.697937 0.9930 0.9930 0.9930 0.9930 0.9920
2113.045768 0.9910 0.9910 0.9910 0.9910 0.9910
2117.393599 0.9910 0.9910 0.9910 0.9910 0.9905
2121.741429 0.9900 0.9900 0.9900 0.9900 0.9900
2126.089260 0.9900 0.9900 0.9900 0.9900 0.9895
2130.437091 0.9890 0.9890 0.9890 0.9890 0.9890
2134.784921 0.9890 0.9890 0.9890 0.9890 0.9890
2139.132752 0.9890 0.9880 0.9870 0.9870 0.9870
2143.480583 0.9870 0.9870 0.9870 0.9870 0.9870
2147.828413 0.9870 0.9865 0.9860 0.9865 0.9870
2152.176244 0.9870 0.9870 0.9865 0.9860 0.9860
2156.524075 0.9860 0.9860 0.9860 0.9860 0.9860
2160.871905 0.9860 0.9860 0.9855 0.9850 0.9850
2165.219736 0.9850 0.9850 0.9850 0.9850 0.9850
2169.567567 0.9850 0.9850 0.9855 0.9860 0.9860
2173.915397 0.9860 0.9855 0.9850 0.9850 0.9850
2178.263228 0.9840 0.9830 0.9830 0.9830 0.9830
2182.611059 0.9830 0.9830 0.9830 0.9830 0.9830
2186.958889 0.9830 0.9830 0.9830 0.9830 0.9830
2191.306720 0.9830 0.9825 0.9820 0.9820 0.9820
2195.654550 0.9810 0.9800 0.9800 0.9800 0.9800
2200.002381 0.9800 0.9800 0.9800 0.9800 0.9800
2204.350212 0.9800 0.9800 0.9800 0.9800 0.9800
2208.698042 0.9800 0.9795 0.9790 0.9790 0.9790
2213.045873 0.9790 0.9790 0.9790 0.9790 0.9790
2217.393704 0.9790 0.9790 0.9790 0.9795 0.9800
2221.741534 0.9800 0.9800 0.9795 0.9790 0.9790
2226.089365 0.9790 0.9790 0.9790 0.9785 0.9780
2230.437196 0.9780 0.9780 0.9780 0.9780 0.9770
2234.785026 0.9760 0.9760 0.9760 0.9760 0.9760
2239.132857 0.9760 0.9760 0.9760 0.9760 0.9750
2243.480688 0.9740 0.9740 0.9740 0.9740 0.9740
2247.828518 0.9730 0.9720 0.9720 0.9720 0.9720
2252.176349 0.9720 0.9715 0.9710 0.9710 0.9710
2256.524180 0.9710 0.9710 0.9705 0.9700 0.9700
2260.872010 0.9700 0.9690 0.9680 0.9675 0.9670
2265.219841 0.9660 0.9650 0.9645 0.9640 0.9635
2269.567672 0.9630 0.9630 0.9630 0.9620 0.9610
2273.915502 0.9610 0.9610 0.9610 0.9610 0.9605
2278.263333 0.9600 0.9600 0.9600 0.9600 0.9600
2282.611163 0.9600 0.9600 0.9600 0.9600 0.9600
2286.958994 0.9600 0.9600 0.9600 0.9600 0.9600
2291.306825 0.9605 0.9610 0.9610 0.9610 0.9610
2295.654655 0.9610 0.9620 0.9630 0.9635 0.9640
2300.002486 0.9645 0.9650 0.9660 0.9670 0.9675
2304.350317 0.9680 0.9690 0.9700 0.9705 0.9710
2308.698147 0.9710 0.9710 0.9710 0.9710 0.9715
2313.045978 0.9720 0.9720 0.9720 0.9720 0.9720
2317.393809 0.9730 0.9740 0.9760 0.9780 0.9780
2321.741639 0.9780 0.9790 0.9800 0.9800 0.9800
2326.089470 0.9800 0.9800 0.9795 0.9790 0.9790
2330.437301 0.9790 0.9790 0.9790 0.9785 0.9780
2334.785131 0.9780 0.9780 0.9780 0.9780 0.9780
2339.132962 0.9780 0.9780 0.9780 0.9770 0.9760
2343.480793 0.9760 0.9760 0.9760 0.9760 0.9770
2347.828623 0.9780 0.9780 0.9780 0.9780 0.9780
2352.176454 0.9785 0.9790 0.9785 0.9780 0.9780
2356.524285 0.9780 0.9780 0.9780 0.9780 0.9780
2360.872115 0.9780 0.9780 0.9780 0.9780 0.9780
2365.219946 0.9780 0.9780 0.9780 0.9780 0.9780
2369.567776 0.9780 0.9780 0.9780 0.9780 0.9765
2373.915607 0.9750 0.9750 0.9750 0.9750 0.9750
2378.263438 0.9750 0.9750 0.9750 0.9750 0.9750
2382.611268 0.9750 0.9750 0.9750 0.9750 0.9750
2386.959099 0.9750 0.9750 0.9750 0.9750 0.9750
2391.306930 0.9750 0.9750 0.9750 0.9750 0.9750
2395.654760 0.9750 0.9750 0.9750 0.9750 0.9750
2400.002591 0.9750 0.9765 0.9780 0.9780 0.9780
2404.350422 0.9780 0.9780 0.9780 0.9780 0.9780
2408.698252 0.9780 0.9780 0.9780 0.9780 0.9780
2413.046083 0.9780 0.9780 0.9780 0.9780 0.9780
2417.393914 0.9780 0.9780 0.9780 0.9780 0.9780
2421.741744 0.9780 0.9780 0.9780 0.9780 0.9780
2426.089575 0.9780 0.9770 0.9760 0.9760 0.9760
2430.437406 0.9770 0.9780 0.9780 0.9780 0.9770
2434.785236 0.9760 0.9760 0.9760 0.9770 0.9780
2439.133067 0.9780 0.9780 0.9780 0.9780 0.9780
2443.480898 0.9780 0.9770 0.9760 0.9760 0.9760
2447.828728 0.9760 0.9760 0.9760 0.9760 0.9770
2452.176559 0.9780 0.9780 0.9780 0.9780 0.9780
2456.524389 0.9780 0.9780 0.9780 0.9780 0.9780
2460.872220 0.9780 0.9780 0.9780 0.9780 0.9780
2465.220051 0.9780 0.9780 0.9780 0.9780 0.9780
2469.567881 0.9780 0.9780 0.9780 0.9780 0.9780
2473.915712 0.9770 0.9760 0.9760 0.9760 0.9760
2478.263543 0.9760 0.9760 0.9760 0.9760 0.9760
2482.611373 0.9770 0.9780 0.9770 0.9760 0.9760
2486.959204 0.9760 0.9770 0.9780 0.9770 0.9760
2491.307035 0.9770 0.9780 0.9780 0.9780 0.9780
2495.654865 0.9780 0.9780 0.9780 0.9780 0.9780
2500.002696 0.9770 0.9760 0.9755 0.9750 0.9745
2504.350527 0.9740 0.9740 0.9740 0.9740 0.9740
2508.698357 0.9740 0.9740 0.9740 0.9740 0.9740
2513.046188 0.9740 0.9740 0.9740 0.9740 0.9740
2517.394019 0.9740 0.9740 0.9730 0.9720 0.9720
2521.741849 0.9720 0.9720 0.9720 0.9720 0.9720
2526.089680 0.9720 0.9720 0.9720 0.9720 0.9720
2530.437511 0.9720 0.9720 0.9720 0.9715 0.9710
2534.785341 0.9710 0.9710 0.9710 0.9710 0.9710
2539.133172 0.9710 0.9710 0.9710 0.9710 0.9710
2543.481002 0.9705 0.9700 0.9700 0.9700 0.9700
2547.828833 0.9700 0.9690 0.9680 0.9680 0.9680
2552.176664 0.9680 0.9680 0.9680 0.9680 0.9680
2556.524494 0.9680 0.9680 0.9680 0.9675 0.9670
2560.872325 0.9670 0.9670 0.9670 0.9670 0.9670
2565.220156 0.9670 0.9660 0.9650 0.9650 0.9650
2569.567986 0.9650 0.9650 0.9650 0.9650 0.9645
2573.915817 0.9640 0.9640 0.9640 0.9640 0.9640
2578.263648 0.9640 0.9640 0.9635 0.9630 0.9630
2582.611478 0.9630 0.9630 0.9630 0.9630 0.9630
2586.959309 0.9630 0.9630 0.9620 0.9610 0.9610
2591.307140 0.9610 0.9605 0.9600 0.9595 0.9590
2595.654970 0.9590 0.9590 0.9580 0.9570 0.9570
2600.002801 0.9570 0.9570 0.9570 0.9570 0.9570
2604.350632 0.9565 0.9560 0.9560 0.9560 0.9560
2608.698462 0.9560 0.9560 0.9560 0.9560 0.9560
2613.046293 0.9555 0.9550 0.9550 0.9550 0.9550
2617.394124 0.9550 0.9550 0.9550 0.9550 0.9550
2621.741954 0.9540 0.9530 0.9530 0.9530 0.9530
2626.089785 0.9530 0.9525 0.9520 0.9520 0.9520
2630.437615 0.9510 0.9500 0.9500 0.9500 0.9495
2634.785446 0.9490 0.9490 0.9490 0.9490 0.9490
2639.133277 0.9490 0.9490 0.9485 0.9480 0.9480
2643.481107 0.9480 0.9470 0.9460 0.9460 0.9460
2647.828938 0.9455 0.9450 0.9450 0.9450 0.9450
2652.176769 0.9450 0.9450 0.9450 0.9445 0.9440
2656.524599 0.9440 0.9440 0.9430 0.9420 0.9420
2660.872430 0.9420 0.9420 0.9420 0.9420 0.9420
2665.220261 0.9420 0.9420 0.9430 0.9440 0.9440
2669.568091 0.9440 0.9440 0.9440 0.9440 0.9440
2673.915922 0.9440 0.9440 0.9440 0.9440 0.9440
2678.263753 0.9440 0.9440 0.9440 0.9440 0.9440
2682.611583 0.9440 0.9440 0.9440 0.9440 0.9445
2686.959414 0.9450 0.9450 0.9450 0.9445 0.9440
2691.307245 0.9445 0.9450 0.9450 0.9450 0.9445
2695.655075 0.9440 0.9430 0.9420 0.9420 0.9420
2700.002906 0.9420 0.9420 0.9420 0.9420 0.9415
2704.350737 0.9410 0.9405 0.9400 0.9400 0.9400
2708.698567 0.9390 0.9380 0.9375 0.9370 0.9360
2713.046398 0.9350 0.9350 0.9350 0.9345 0.9340
2717.394228 0.9340 0.9340 0.9335 0.9330 0.9330
2721.742059 0.9330 0.9330 0.9330 0.9330 0.9330
2726.089890 0.9335 0.9340 0.9340 0.9340 0.9345
2730.437720 0.9350 0.9365 0.9380 0.9390 0.9400
2734.785551 0.9400 0.9400 0.9405 0.9410 0.9410
2739.133382 0.9410 0.9410 0.9410 0.9410 0.9410
2743.481212 0.9405 0.9400 0.9400 0.9400 0.9400
2747.829043 0.9400 0.9400 0.9400 0.9400 0.9400
2752.176874 0.9400 0.9400 0.9400 0.9400 0.9390
2756.524704 0.9380 0.9380 0.9380 0.9375 0.9370
2760.872535 0.9360 0.9350 0.9345 0.9340 0.9335
2765.220366 0.9330 0.9320 0.9310 0.9285 0.9260
2769.568196 0.9255 0.9250 0.9235 0.9220 0.9200
2773.916027 0.9180 0.9170 0.9160 0.9150 0.9140
2778.263858 0.9130 0.9120 0.9120 0.9120 0.9115
2782.611688 0.9110 0.9095 0.9080 0.9075 0.9070
2786.959519 0.9060 0.9050 0.9050 0.9050 0.9045
2791.307350 0.9040 0.9035 0.9030 0.9020 0.9010
2795.655180 0.9000 0.8990 0.8980 0.8970 0.8960
2800.003011 0.8950 0.8940 0.8930 0.8895 0.8860
2804.350842 0.8835 0.8810 0.8805 0.8800 0.8785
2808.698672 0.8770 0.8755 0.8740 0.8715 0.8690
2813.046503 0.8655 0.8620 0.8585 0.8550 0.8525
2817.394333 0.8500 0.8455 0.8410 0.8380 0.8350
2821.742164 0.8315 0.8280 0.8195 0.8110 0.8040
2826.089995 0.7970 0.7861 0.7751 0.7676 0.7601
2830.437825 0.7457 0.7312 0.7167 0.7022 0.6846
2834.785656 0.6669 0.6535 0.6400 0.6215 0.6030
2839.133487 0.5950 0.5870 0.5745 0.5620 0.5431
2843.481317 0.5241 0.5051 0.4861 0.4820 0.4780
2847.829148 0.4359 0.3935 0.3199 0.2460 0.2306
2852.176979 0.2160 0.2020 0.1880 0.1730 0.1580
2856.524809 0.1580 0.1580 0.1695 0.1810 0.1924
2860.872640 0.2039 0.2169 0.2299 0.2459 0.2618
2865.220471 0.2744 0.2869 0.2959 0.3049 0.3050
2869.568301 0.3050 0.2920 0.2790 0.2775 0.2760
2873.916132 0.2775 0.2790 0.2979 0.3169 0.3354
2878.263963 0.3539 0.3729 0.3919 0.4103 0.4288
2882.611793 0.4522 0.4757 0.4770 0.4780 0.4780
2886.959624 0.4780 0.4765 0.4750 0.4580 0.4410
2891.307455 0.4320 0.4230 0.4165 0.4100 0.3996
2895.655285 0.3891 0.3825 0.3761 0.3691 0.3621
2900.003116 0.3546 0.3471 0.3357 0.3242 0.3111
2904.350946 0.2980 0.2905 0.2830 0.2815 0.2800
2908.698777 0.2725 0.2650 0.2391 0.2131 0.1981
2913.046608 0.1831 0.1746 0.1661 0.1606 0.1551
2917.394438 0.1347 0.1142 0.1081 0.1021 0.0955
2921.742269 0.0890 0.0785 0.0680 0.0595 0.0510
2926.090100 0.0455 0.0400 0.0395 0.0390 0.0390
2930.437930 0.0390 0.0395 0.0400 0.0445 0.0490
2934.785761 0.0520 0.0550 0.0560 0.0570 0.0605
2939.133592 0.0640 0.0705 0.0770 0.0970 0.1170
2943.481422 0.1405 0.1640 0.1685 0.1730 0.1730
2947.829253 0.1730 0.1705 0.1680 0.1561 0.1441
2952.177084 0.1410 0.1380 0.1316 0.1251 0.1215
2956.524914 0.1180 0.1110 0.1040 0.0975 0.0910
2960.872745 0.0895 0.0880 0.0880 0.0880 0.0935
2965.220576 0.0990 0.1069 0.1149 0.1289 0.1429
2969.568406 0.1628 0.1828 0.2096 0.2366 0.2668
2973.916237 0.2971 0.3296 0.3621 0.3945 0.4270
2978.264068 0.4600 0.4929 0.5214 0.5499 0.5744
2982.611898 0.5989 0.6194 0.6398 0.6573 0.6748
2986.959729 0.6874 0.6999 0.7153 0.7308 0.7380
2991.307559 0.7450 0.7525 0.7600 0.7610 0.7620
2995.655390 0.7635 0.7650 0.7650 0.7650 0.7635
3000.003221 0.7620 0.7595 0.7570 0.7565 0.7560
3004.351051 0.7560 0.7560 0.7580 0.7600 0.7635
3008.698882 0.7670 0.7720 0.7770 0.7835 0.7900
3013.046713 0.8005 0.8110 0.8215 0.8320 0.8360
3017.394543 0.8400 0.8460 0.8520 0.8584 0.8649
3021.742374 0.8714 0.8779 0.8819 0.8859 0.8890
3026.090205 0.8920 0.8925 0.8930 0.8945 0.8960
3030.438035 0.8980 0.9000 0.9015 0.9030 0.9040
3034.785866 0.9050 0.9060 0.9070 0.9075 0.9080
3039.133697 0.9095 0.9110 0.9115 0.9120 0.9135
3043.481527 0.9150 0.9170 0.9190 0.9205 0.9220
3047.829358 0.9225 0.9230 0.9240 0.9250 0.9270
3052.177189 0.9290 0.9295 0.9300 0.9305 0.9310
3056.525019 0.9320 0.9330 0.9330 0.9330 0.9335
3060.872850 0.9340 0.9345 0.9350 0.9365 0.9380
3065.220681 0.9390 0.9400 0.9400 0.9400 0.9400
3069.568511 0.9400 0.9400 0.9400 0.9405 0.9410
3073.916342 0.9410 0.9410 0.9415 0.9420 0.9420
3078.264172 0.9420 0.9420 0.9420 0.9420 0.9420
3082.612003 0.9430 0.9440 0.9445 0.9450 0.9450
3086.959834 0.9450 0.9450 0.9450 0.9450 0.9450
3091.307664 0.9450 0.9450 0.9450 0.9450 0.9450
3095.655495 0.9450 0.9450 0.9450 0.9455 0.9460
3100.003326 0.9460 0.9460 0.9460 0.9460 0.9460
3104.351156 0.9460 0.9460 0.9460 0.9460 0.9460
3108.698987 0.9460 0.9460 0.9460 0.9460 0.9460
3113.046818 0.9460 0.9460 0.9460 0.9460 0.9460
3117.394648 0.9460 0.9460 0.9460 0.9460 0.9460
3121.742479 0.9460 0.9460 0.9460 0.9460 0.9460
3126.090310 0.9460 0.9460 0.9460 0.9460 0.9460
3130.438140 0.9460 0.9460 0.9460 0.9460 0.9460
3134.785971 0.9460 0.9460 0.9460 0.9460 0.9460
3139.133802 0.9460 0.9460 0.9460 0.9470 0.9480
3143.481632 0.9480 0.9480 0.9480 0.9480 0.9480
3147.829463 0.9480 0.9480 0.9480 0.9480 0.9480
3152.177294 0.9480 0.9480 0.9480 0.9480 0.9480
3156.525124 0.9480 0.9480 0.9480 0.9480 0.9480
3160.872955 0.9480 0.9480 0.9485 0.9490 0.9490
3165.220785 0.9490 0.9490 0.9490 0.9490 0.9490
3169.568616 0.9490 0.9490 0.9495 0.9500 0.9500
3173.916447 0.9500 0.9500 0.9500 0.9500 0.9500
3178.264277 0.9510 0.9520 0.9520 0.9520 0.9525
3182.612108 0.9530 0.9530 0.9530 0.9540 0.9550
3186.959939 0.9550 0.9550 0.9550 0.9550 0.9550
3191.307769 0.9550 0.9550 0.9550 0.9555 0.9560
3195.655600 0.9560 0.9560 0.9560 0.9560 0.9560
3200.003431 0.9560 0.9560 0.9560 0.9565 0.9570
3204.351261 0.9580 0.9590 0.9590 0.9590 0.9580
3208.699092 0.9570 0.9570 0.9570 0.9570 0.9570
3213.046923 0.9580 0.9590 0.9590 0.9590 0.9595
3217.394753 0.9600 0.9600 0.9600 0.9600 0.9600
3221.742584 0.9600 0.9600 0.9605 0.9610 0.9610
3226.090415 0.9610 0.9610 0.9610 0.9610 0.9610
3230.438245 0.9610 0.9610 0.9620 0.9630 0.9635
3234.786076 0.9640 0.9645 0.9650 0.9650 0.9650
3239.133907 0.9660 0.9670 0.9670 0.9670 0.9670
3243.481737 0.9670 0.9675 0.9680 0.9680 0.9680
3247.829568 0.9680 0.9680 0.9680 0.9680 0.9690
3252.177398 0.9700 0.9700 0.9700 0.9705 0.9710
3256.525229 0.9710 0.9710 0.9710 0.9710 0.9710
3260.873060 0.9710 0.9715 0.9720 0.9730 0.9740
3265.220890 0.9740 0.9740 0.9740 0.9740 0.9740
3269.568721 0.9740 0.9740 0.9740 0.9740 0.9740
3273.916552 0.9740 0.9740 0.9740 0.9740 0.9740
3278.264382 0.9740 0.9740 0.9740 0.9745 0.9750
3282.612213 0.9755 0.9760 0.9760 0.9760 0.9760
3286.960044 0.9760 0.9760 0.9760 0.9760 0.9760
3291.307874 0.9760 0.9760 0.9770 0.9780 0.9780
3295.655705 0.9780 0.9780 0.9780 0.9770 0.9760
3300.003536 0.9760 0.9760 0.9760 0.9760 0.9760
3304.351366 0.9760 0.9760 0.9760 0.9755 0.9750
3308.699197 0.9750 0.9750 0.9750 0.9750 0.9755
3313.047028 0.9760 0.9760 0.9760 0.9760 0.9760
3317.394858 0.9760 0.9760 0.9760 0.9760 0.9770
3321.742689 0.9780 0.9780 0.9780 0.9780 0.9780
3326.090520 0.9780 0.9780 0.9780 0.9780 0.9780
3330.438350 0.9780 0.9780 0.9780 0.9780 0.9780
3334.786181 0.9780 0.9780 0.9780 0.9780 0.9780
3339.134011 0.9780 0.9780 0.9780 0.9780 0.9780
3343.481842 0.9780 0.9780 0.9780 0.9780 0.9780
3347.829673 0.9780 0.9780 0.9780 0.9780 0.9780
3352.177503 0.9780 0.9780 0.9780 0.9780 0.9780
3356.525334 0.9780 0.9780 0.9780 0.9780 0.9780
3360.873165 0.9780 0.9780 0.9780 0.9780 0.9780
3365.220995 0.9780 0.9780 0.9780 0.9780 0.9780
3369.568826 0.9780 0.9780 0.9780 0.9780 0.9780
3373.916657 0.9780 0.9780 0.9780 0.9780 0.9780
3378.264487 0.9780 0.9780 0.9780 0.9780 0.9770
3382.612318 0.9760 0.9760 0.9760 0.9760 0.9760
3386.960149 0.9760 0.9760 0.9760 0.9760 0.9770
3391.307979 0.9780 0.9780 0.9780 0.9780 0.9780
3395.655810 0.9780 0.9780 0.9780 0.9780 0.9780
3400.003641 0.9780 0.9780 0.9780 0.9780 0.9780
3404.351471 0.9780 0.9780 0.9780 0.9780 0.9780
3408.699302 0.9780 0.9770 0.9760 0.9760 0.9760
3413.047133 0.9760 0.9760 0.9770 0.9780 0.9780
3417.394963 0.9780 0.9780 0.9780 0.9770 0.9760
3421.742794 0.9760 0.9760 0.9760 0.9760 0.9760
3426.090624 0.9760 0.9760 0.9760 0.9760 0.9760
3430.438455 0.9760 0.9760 0.9760 0.9760 0.9760
3434.786286 0.9760 0.9760 0.9760 0.9760 0.9760
3439.134116 0.9760 0.9760 0.9760 0.9760 0.9760
3443.481947 0.9760 0.9760 0.9760 0.9760 0.9760
3447.829778 0.9760 0.9760 0.9760 0.9760 0.9760
3452.177608 0.9760 0.9760 0.9760 0.9760 0.9760
3456.525439 0.9760 0.9760 0.9760 0.9760 0.9760
3460.873270 0.9760 0.9760 0.9760 0.9760 0.9760
3465.221100 0.9760 0.9760 0.9760 0.9760 0.9760
3469.568931 0.9760 0.9760 0.9760 0.9760 0.9760
3473.916762 0.9760 0.9760 0.9760 0.9760 0.9760
3478.264592 0.9760 0.9760 0.9760 0.9760 0.9760
3482.612423 0.9760 0.9760 0.9760 0.9760 0.9760
3486.960254 0.9760 0.9760 0.9760 0.9760 0.9760
3491.308084 0.9760 0.9760 0.9760 0.9760 0.9760
3495.655915 0.9760 0.9760 0.9760 0.9760 0.9760
3500.003746 0.9760 0.9760 0.9760 0.9760 0.9760
3504.351576 0.9760 0.9760 0.9760 0.9760 0.9760
3508.699407 0.9760 0.9760 0.9760 0.9760 0.9760
3513.047237 0.9760 0.9760 0.9760 0.9760 0.9760
3517.395068 0.9760 0.9760 0.9760 0.9760 0.9760
3521.742899 0.9760 0.9760 0.9760 0.9760 0.9760
3526.090729 0.9760 0.9760 0.9760 0.9760 0.9770
3530.438560 0.9780 0.9780 0.9780 0.9780 0.9780
3534.786391 0.9780 0.9780 0.9780 0.9780 0.9780
3539.134221 0.9780 0.9780 0.9780 0.9770 0.9760
3543.482052 0.9760 0.9760 0.9770 0.9780 0.9780
3547.829883 0.9780 0.9780 0.9780 0.9780 0.9780
3552.177713 0.9780 0.9780 0.9780 0.9780 0.9780
3556.525544 0.9780 0.9780 0.9780 0.9780 0.9780
3560.873375 0.9780 0.9780 0.9780 0.9780 0.9780
3565.221205 0.9780 0.9780 0.9780 0.9780 0.9780
3569.569036 0.9780 0.9780 0.9770 0.9760 0.9760
3573.916867 0.9760 0.9760 0.9760 0.9760 0.9760
3578.264697 0.9760 0.9760 0.9760 0.9760 0.9755
3582.612528 0.9750 0.9750 0.9750 0.9750 0.9750
3586.960359 0.9750 0.9750 0.9750 0.9750 0.9750
3591.308189 0.9750 0.9750 0.9750 0.9750 0.9750
3595.656020 0.9750 0.9750 0.9750 0.9750 0.9750
3600.003850 0.9750 0.9750 0.9750 0.9750 0.9750
3604.351681 0.9750 0.9750 0.9750 0.9750 0.9750
3608.699512 0.9750 0.9750 0.9750 0.9750 0.9750
3613.047342 0.9750 0.9750 0.9750 0.9750 0.9750
3617.395173 0.9750 0.9750 0.9750 0.9750 0.9750
3621.743004 0.9750 0.9750 0.9750 0.9750 0.9750
3626.090834 0.9750 0.9750 0.9750 0.9765 0.9780
3630.438665 0.9780 0.9780 0.9780 0.9780 0.9780
3634.786496 0.9780 0.9780 0.9780 0.9780 0.9780
3639.134326 0.9780 0.9780 0.9780 0.9780 0.9780
3643.482157 0.9780 0.9780 0.9780 0.9780 0.9780
3647.829988 0.9780 0.9780 0.9780 0.9780 0.9780
3652.177818 0.9780 0.9780 0.9780 0.9780 0.9780
3656.525649 0.9780 0.9780 0.9780 0.9780 0.9780
3660.873480 0.9780 0.9780 0.9780 0.9780 0.9780
3665.221310 0.9780 0.9780 0.9780 0.9780 0.9780
3669.569141 0.9780 0.9780 0.9780 0.9780 0.9780
3673.916972 0.9780 0.9780 0.9780 0.9780 0.9780
3678.264802 0.9780 0.9780 0.9780 0.9780 0.9780
3682.612633 0.9780 0.9780 0.9780 0.9780 0.9780
3686.960463 0.9780 0.9780 0.9780 0.9780 0.9780
3691.308294 0.9780 0.9780 0.9780 0.9780 0.9780
3695.656125 0.9780 0.9780 0.9780 0.9780 0.9780
3700.003955 0.9780 0.9780 0.9780 0.9780 0.9780
3704.351786 0.9780 0.9780 0.9780 0.9780 0.9780
3708.699617 0.9780 0.9780 0.9780 0.9780 0.9780
3713.047447 0.9780 0.9780 0.9780 0.9780 0.9780
3717.395278 0.9780 0.9780 0.9780 0.9780 0.9780
3721.743109 0.9780 0.9780 0.9780 0.9770 0.9760
3726.090939 0.9760 0.9760 0.9760 0.9760 0.9760
3730.438770 0.9760 0.9760 0.9760 0.9760 0.9760
3734.786601 0.9760 0.9760 0.9760 0.9760 0.9760
3739.134431 0.9760 0.9760 0.9760 0.9760 0.9760
3743.482262 0.9760 0.9760 0.9760 0.9760 0.9760
3747.830093 0.9760 0.9760 0.9760 0.9760 0.9760
3752.177923 0.9760 0.9760 0.9760 0.9760 0.9760
3756.525754 0.9760 0.9760 0.9760 0.9760 0.9760
3760.873585 0.9760 0.9760 0.9760 0.9760 0.9760
3765.221415 0.9760 0.9760 0.9760 0.9760 0.9760
3769.569246 0.9760 0.9760 0.9760 0.9760 0.9760
3773.917076 0.9760 0.9760 0.9760 0.9760 0.9760
3778.264907 0.9760 0.9760 0.9755 0.9750 0.9750
3782.612738 0.9750 0.9750 0.9750 0.9745 0.9740
3786.960568 0.9740 0.9740 0.9740 0.9740 0.9730
3791.308399 0.9720 0.9720 0.9720 0.9720 0.9720
3795.656230 0.9720 0.9720 0.9720 0.9720 0.9720
3800.004060 0.9720 0.9720 0.9720
##END=
