##TITLE=DIBROMO MALONIC ACID, DIETHYL ESTER
##JCAMP-DX=4.24
##DATA TYPE=INFRARED SPECTRUM
##CLASS=COBLENTZ
##ORIGIN=TENNESSEE EASTMAN COMPANY, RESEARCH LABORATORIES
##OWNER=COBLENTZ SOCIETY
Collection (C) 2018 copyright by the U.S. Secretary of Commerce
on behalf of the United States of America. All rights reserved.
##DATE=Not specified, most likely prior to 1970
##NAMES=diethyl 2,2-dibromomalonate
##CAS REGISTRY NO=631-22-1
##MOLFORM=C7 H10 Br2 O4
##BP=103-106 C AT 4 mmHg
##SOURCE REFERENCE=COBLENTZ NO. 1960
##$NIST SOURCE=COBLENTZ
##$NIST IMAGE=cob1960
##SPECTROMETER/DATA SYSTEM=Not specified, most likely a prism, grating, or hybrid spectrometer.
##PATH LENGTH=SMEAR
##SAMPLING PROCEDURE=TRANSMISSION
##RESOLUTION=4
##DATA PROCESSING=DIGITIZED BY NIST FROM HARD COPY
##XUNITS=MICROMETERS
##YUNITS=TRANSMITTANCE
##XFACTOR=1.000000
##YFACTOR=1
##DELTAX=000.006836
##FIRSTX=2.253
##LASTX=16.0067
##FIRSTY=0.991
##MAXX=16.0067
##MINX=2.253
##MAXY=1.001
##MINY=0.047
##NPOINTS=2013
##XYDATA=(X++(Y..Y))
2.253000 0.9910 0.9910 0.9910 0.9910 0.9910
2.287197 0.9910 0.9910 0.9930 0.9910 0.9910
2.321000 0.9910 0.9910 0.9910 0.9930 0.9930
2.355197 0.9930 0.9910 0.9910 0.9930 0.9930
2.390000 0.9930 0.9930 0.9930 0.9930 0.9940
2.424197 0.9940 0.9960 0.9960 0.9960 0.9980
2.458000 0.9980 0.9980 0.9980 0.9980 0.9980
2.492197 0.9980 0.9980 0.9980 0.9980 0.9980
2.526000 0.9980 0.9980 1.0000 1.0000 1.0000
2.560197 1.0000 1.0000 1.0010 1.0010 1.0010
2.595000 1.0010 1.0010 1.0010 1.0010 1.0000
2.629197 1.0000 1.0000 0.9980 0.9980 0.9980
2.663000 0.9960 0.9960 0.9960 0.9940 0.9940
2.697197 0.9930 0.9910 0.9890 0.9890 0.9880
2.731000 0.9860 0.9860 0.9820 0.9810 0.9790
2.765197 0.9740 0.9740 0.9720 0.9720 0.9720
2.800000 0.9700 0.9690 0.9670 0.9640 0.9580
2.834197 0.9520 0.9500 0.9430 0.9410 0.9400
2.868000 0.9400 0.9400 0.9400 0.9400 0.9400
2.902197 0.9410 0.9430 0.9430 0.9450 0.9450
2.937000 0.9460 0.9460 0.9480 0.9480 0.9480
2.971197 0.9480 0.9480 0.9480 0.9480 0.9480
3.005000 0.9500 0.9500 0.9500 0.9520 0.9520
3.039197 0.9520 0.9520 0.9500 0.9500 0.9500
3.073000 0.9500 0.9500 0.9500 0.9500 0.9520
3.107197 0.9520 0.9520 0.9520 0.9500 0.9480
3.142000 0.9480 0.9480 0.9480 0.9480 0.9460
3.176197 0.9460 0.9460 0.9450 0.9450 0.9430
3.210000 0.9410 0.9400 0.9380 0.9340 0.9340
3.244197 0.9330 0.9330 0.9310 0.9240 0.9210
3.278000 0.9070 0.8970 0.8760 0.8160 0.7650
3.312197 0.6910 0.6020 0.5250 0.5220 0.5270
3.347000 0.5870 0.6620 0.7100 0.7200 0.7220
3.381197 0.7190 0.7190 0.7220 0.7360 0.7500
3.415000 0.7600 0.7700 0.7840 0.7970 0.8110
3.449197 0.8210 0.8230 0.8320 0.8450 0.8570
3.483000 0.8690 0.8760 0.8830 0.8900 0.8970
3.517197 0.8980 0.9000 0.9020 0.9040 0.9120
3.552000 0.9190 0.9190 0.9220 0.9220 0.9220
3.586197 0.9220 0.9240 0.9240 0.9260 0.9280
3.620000 0.9290 0.9290 0.9290 0.9310 0.9310
3.654197 0.9310 0.9330 0.9340 0.9360 0.9400
3.688000 0.9400 0.9410 0.9410 0.9430 0.9430
3.722197 0.9450 0.9460 0.9460 0.9480 0.9500
3.757000 0.9500 0.9520 0.9520 0.9520 0.9530
3.791197 0.9530 0.9530 0.9530 0.9530 0.9530
3.825000 0.9530 0.9530 0.9530 0.9530 0.9530
3.859197 0.9530 0.9530 0.9550 0.9550 0.9570
3.894000 0.9570 0.9570 0.9570 0.9570 0.9570
3.928197 0.9570 0.9570 0.9550 0.9530 0.9530
3.962000 0.9530 0.9530 0.9530 0.9530 0.9530
3.996197 0.9530 0.9520 0.9500 0.9480 0.9430
4.030000 0.9410 0.9400 0.9400 0.9380 0.9340
4.064197 0.9340 0.9330 0.9330 0.9330 0.9330
4.099000 0.9330 0.9330 0.9330 0.9330 0.9330
4.133197 0.9330 0.9330 0.9330 0.9330 0.9330
4.167000 0.9330 0.9310 0.9310 0.9310 0.9330
4.201197 0.9330 0.9330 0.9330 0.9310 0.9310
4.235000 0.9310 0.9310 0.9290 0.9280 0.9260
4.269197 0.9240 0.9220 0.9220 0.9220 0.9210
4.304000 0.9210 0.9210 0.9220 0.9240 0.9290
4.338197 0.9310 0.9380 0.9400 0.9430 0.9450
4.372000 0.9460 0.9460 0.9460 0.9460 0.9480
4.406197 0.9480 0.9480 0.9480 0.9500 0.9500
4.440000 0.9500 0.9520 0.9520 0.9520 0.9520
4.474197 0.9520 0.9520 0.9520 0.9520 0.9520
4.509000 0.9520 0.9530 0.9530 0.9530 0.9530
4.543197 0.9530 0.9530 0.9530 0.9530 0.9550
4.577000 0.9550 0.9570 0.9570 0.9580 0.9580
4.611197 0.9580 0.9600 0.9600 0.9600 0.9600
4.646000 0.9600 0.9600 0.9600 0.9600 0.9600
4.680197 0.9600 0.9600 0.9600 0.9580 0.9580
4.714000 0.9570 0.9570 0.9570 0.9550 0.9550
4.748197 0.9550 0.9550 0.9530 0.9530 0.9530
4.782000 0.9530 0.9530 0.9530 0.9550 0.9570
4.816197 0.9580 0.9580 0.9600 0.9600 0.9600
4.851000 0.9600 0.9600 0.9600 0.9600 0.9600
4.885197 0.9600 0.9600 0.9600 0.9600 0.9600
4.919000 0.9620 0.9620 0.9640 0.9640 0.9640
4.953197 0.9650 0.9650 0.9670 0.9670 0.9670
4.987000 0.9690 0.9700 0.9740 0.9760 0.9760
5.021197 0.9740 0.9740 0.9740 0.9740 0.9720
5.056000 0.9700 0.9700 0.9690 0.9690 0.9690
5.090197 0.9690 0.9690 0.9690 0.9690 0.9690
5.124000 0.9690 0.9690 0.9690 0.9690 0.9690
5.158197 0.9690 0.9690 0.9690 0.9690 0.9670
5.192000 0.9670 0.9650 0.9650 0.9620 0.9580
5.226197 0.9570 0.9570 0.9550 0.9550 0.9530
5.261000 0.9520 0.9500 0.9480 0.9460 0.9430
5.295197 0.9410 0.9410 0.9410 0.9400 0.9400
5.329000 0.9400 0.9380 0.9380 0.9380 0.9360
5.363197 0.9360 0.9340 0.9340 0.9330 0.9290
5.397000 0.9280 0.9260 0.9240 0.9220 0.9190
5.431197 0.9190 0.9120 0.9090 0.9070 0.9000
5.466000 0.8980 0.8950 0.8900 0.8880 0.8830
5.500197 0.8810 0.8760 0.8690 0.8660 0.8570
5.534000 0.8510 0.8470 0.8370 0.8280 0.8160
5.568197 0.8040 0.7940 0.7610 0.7340 0.7270
5.603000 0.7020 0.6070 0.5420 0.4160 0.2800
5.637197 0.1690 0.1160 0.0940 0.0780 0.0680
5.671000 0.0490 0.0470 0.0510 0.0610 0.0900
5.705197 0.1140 0.1350 0.1420 0.1420 0.1480
5.739000 0.1550 0.1810 0.2310 0.2850 0.3300
5.773197 0.3750 0.4100 0.4460 0.4860 0.5080
5.808000 0.5560 0.6090 0.6540 0.6790 0.7020
5.842197 0.7140 0.7220 0.7290 0.7380 0.7480
5.876000 0.7500 0.7600 0.7680 0.7770 0.7890
5.910197 0.7970 0.8040 0.8110 0.8150 0.8180
5.944000 0.8200 0.8250 0.8280 0.8320 0.8400
5.978197 0.8400 0.8420 0.8420 0.8470 0.8490
6.013000 0.8540 0.8590 0.8630 0.8630 0.8630
6.047197 0.8640 0.8640 0.8640 0.8640 0.8660
6.081000 0.8680 0.8730 0.8780 0.8800 0.8830
6.115197 0.8830 0.8850 0.8850 0.8850 0.8860
6.149000 0.8880 0.8900 0.8900 0.8900 0.8920
6.183197 0.8930 0.8930 0.8950 0.8970 0.8980
6.218000 0.9000 0.9020 0.9040 0.9050 0.9050
6.252197 0.9090 0.9100 0.9140 0.9170 0.9210
6.286000 0.9220 0.9220 0.9220 0.9220 0.9220
6.320197 0.9220 0.9240 0.9240 0.9260 0.9260
6.354000 0.9280 0.9280 0.9280 0.9260 0.9240
6.388197 0.9220 0.9190 0.9170 0.9160 0.9160
6.423000 0.9170 0.9170 0.9170 0.9190 0.9190
6.457197 0.9100 0.9100 0.9090 0.9070 0.9050
6.491000 0.9070 0.9090 0.9120 0.9140 0.9140
6.525197 0.9120 0.9100 0.9090 0.9050 0.9020
6.560000 0.8980 0.8970 0.8980 0.8980 0.8980
6.594197 0.8980 0.8950 0.8930 0.8880 0.8850
6.628000 0.8850 0.8850 0.8880 0.8860 0.8860
6.662197 0.8850 0.8780 0.8710 0.8570 0.8470
6.696000 0.8350 0.8090 0.7970 0.7800 0.7550
6.730197 0.7200 0.6910 0.6660 0.6470 0.6210
6.765000 0.5970 0.5710 0.5530 0.5510 0.5510
6.799197 0.5560 0.5700 0.5890 0.6060 0.6140
6.833000 0.6190 0.6210 0.6230 0.6210 0.6160
6.867197 0.6020 0.5820 0.5680 0.5580 0.5580
6.901000 0.5680 0.6010 0.6400 0.6710 0.6960
6.935197 0.7260 0.7500 0.7720 0.7890 0.7990
6.970000 0.8060 0.8090 0.8110 0.8150 0.8180
7.004197 0.8200 0.8200 0.8200 0.8200 0.8210
7.038000 0.8210 0.8210 0.8230 0.8230 0.8210
7.072197 0.8200 0.8150 0.8040 0.7970 0.7850
7.106000 0.7670 0.7460 0.7240 0.6980 0.6740
7.140197 0.6520 0.6310 0.6130 0.6010 0.5990
7.175000 0.6010 0.6130 0.6210 0.6330 0.6470
7.209197 0.6660 0.6900 0.7000 0.7000 0.7000
7.243000 0.7000 0.7000 0.6900 0.6620 0.6210
7.277197 0.5870 0.5440 0.5060 0.4720 0.4690
7.312000 0.4690 0.4810 0.5390 0.5820 0.6400
7.346197 0.6860 0.7260 0.7560 0.7790 0.7960
7.380000 0.8060 0.8130 0.8130 0.8150 0.8160
7.414197 0.8200 0.8200 0.8200 0.8200 0.8200
7.448000 0.8150 0.8110 0.8090 0.8030 0.7970
7.482197 0.7910 0.7870 0.7800 0.7790 0.7720
7.517000 0.7650 0.7550 0.7460 0.7360 0.7240
7.551197 0.7120 0.7000 0.6880 0.6720 0.6570
7.585000 0.6420 0.6250 0.6060 0.5850 0.5590
7.619197 0.5350 0.5170 0.4960 0.4770 0.4550
7.653000 0.4240 0.4000 0.3830 0.3640 0.3490
7.687197 0.3320 0.3210 0.3210 0.3270 0.3320
7.722000 0.3420 0.3510 0.3560 0.3630 0.3680
7.756197 0.3680 0.3690 0.3690 0.3630 0.3540
7.790000 0.3440 0.3300 0.3160 0.3040 0.2920
7.824197 0.2800 0.2670 0.2580 0.2480 0.2380
7.858000 0.2240 0.2100 0.1950 0.1840 0.1710
7.892197 0.1640 0.1550 0.1470 0.1300 0.1210
7.927000 0.1140 0.1020 0.0990 0.0900 0.0830
7.961197 0.0780 0.0730 0.0700 0.0680 0.0660
7.995000 0.0650 0.0650 0.0630 0.0630 0.0630
8.029197 0.0650 0.0660 0.0680 0.0700 0.0710
8.063000 0.0770 0.0870 0.0950 0.1020 0.1060
8.097197 0.1160 0.1260 0.1350 0.1480 0.1520
8.132000 0.1620 0.1710 0.1810 0.1900 0.1960
8.166197 0.2000 0.2020 0.2120 0.2170 0.2190
8.200000 0.2220 0.2260 0.2290 0.2290 0.2190
8.234197 0.2100 0.2000 0.1900 0.1810 0.1760
8.269000 0.1740 0.1710 0.1690 0.1690 0.1690
8.303197 0.1710 0.1790 0.1900 0.2070 0.2270
8.337000 0.2510 0.2770 0.3010 0.3250 0.3450
8.371197 0.3680 0.3880 0.4050 0.4220 0.4380
8.405000 0.4500 0.4820 0.5010 0.5100 0.5200
8.439197 0.5270 0.5370 0.5410 0.5440 0.5490
8.474000 0.5490 0.5490 0.5440 0.5390 0.5320
8.508197 0.5230 0.5220 0.5200 0.5200 0.5200
8.542000 0.5220 0.5270 0.5290 0.5300 0.5320
8.576197 0.5320 0.5340 0.5340 0.5350 0.5350
8.610000 0.5370 0.5390 0.5390 0.5410 0.5420
8.644197 0.5470 0.5510 0.5590 0.5650 0.5730
8.679000 0.5780 0.5780 0.5820 0.5850 0.5920
8.713197 0.5990 0.6040 0.6090 0.6130 0.6190
8.747000 0.6250 0.6300 0.6360 0.6420 0.6480
8.781197 0.6520 0.6570 0.6600 0.6670 0.6720
8.815000 0.6790 0.6840 0.6900 0.6910 0.6960
8.849197 0.6980 0.6980 0.7000 0.7020 0.7020
8.884000 0.7000 0.7000 0.6950 0.6840 0.6780
8.918197 0.6690 0.6620 0.6590 0.6500 0.6400
8.952000 0.6310 0.6280 0.6260 0.6260 0.6260
8.986197 0.6260 0.6260 0.6260 0.6250 0.6230
9.021000 0.6210 0.6190 0.6090 0.5950 0.5820
9.055197 0.5680 0.5510 0.5320 0.5100 0.4940
9.089000 0.4760 0.4650 0.4570 0.4500 0.4500
9.123197 0.4500 0.4670 0.4960 0.5250 0.5540
9.157000 0.5800 0.5940 0.6140 0.6260 0.6400
9.191197 0.6450 0.6550 0.6660 0.6740 0.6830
9.226000 0.6860 0.6900 0.6910 0.6960 0.6980
9.260197 0.6980 0.7000 0.7000 0.7020 0.7030
9.294000 0.7030 0.7020 0.7000 0.7000 0.6980
9.328197 0.6960 0.6950 0.6930 0.6910 0.6880
9.362000 0.6860 0.6790 0.6710 0.6670 0.6640
9.396197 0.6590 0.6520 0.6450 0.6360 0.6280
9.431000 0.6210 0.6140 0.6010 0.5950 0.5870
9.465197 0.5750 0.5630 0.5490 0.5340 0.5180
9.499000 0.5000 0.4810 0.4640 0.4450 0.4190
9.533197 0.4000 0.3780 0.3570 0.3350 0.3150
9.567000 0.2910 0.2670 0.2550 0.2440 0.2320
9.601197 0.2190 0.2070 0.1960 0.1880 0.1830
9.636000 0.1790 0.1780 0.1740 0.1720 0.1710
9.670197 0.1690 0.1670 0.1660 0.1660 0.1640
9.704000 0.1640 0.1640 0.1640 0.1660 0.1690
9.738197 0.1710 0.1720 0.1740 0.1780 0.1900
9.772000 0.1960 0.2050 0.2150 0.2310 0.2460
9.806197 0.2650 0.2800 0.2960 0.3060 0.3230
9.841000 0.3400 0.3560 0.3730 0.3900 0.4090
9.875197 0.4260 0.4450 0.4600 0.4760 0.4910
9.909000 0.5080 0.5220 0.5350 0.5490 0.5610
9.943197 0.5700 0.5830 0.5900 0.5990 0.6040
9.978000 0.6160 0.6250 0.6300 0.6360 0.6400
10.012197 0.6450 0.6470 0.6480 0.6480 0.6480
10.046000 0.6480 0.6480 0.6480 0.6480 0.6480
10.080197 0.6480 0.6480 0.6470 0.6470 0.6470
10.114000 0.6470 0.6470 0.6480 0.6480 0.6520
10.148197 0.6520 0.6570 0.6590 0.6600 0.6660
10.183000 0.6670 0.6690 0.6720 0.6780 0.6810
10.217197 0.6840 0.6860 0.6880 0.6900 0.6910
10.251000 0.6960 0.7030 0.7070 0.7080 0.7140
10.285197 0.7170 0.7200 0.7220 0.7260 0.7290
10.319000 0.7310 0.7320 0.7360 0.7380 0.7380
10.353197 0.7410 0.7410 0.7410 0.7430 0.7430
10.388000 0.7430 0.7430 0.7430 0.7430 0.7430
10.422197 0.7430 0.7430 0.7410 0.7390 0.7390
10.456000 0.7380 0.7380 0.7340 0.7320 0.7310
10.490197 0.7310 0.7270 0.7270 0.7260 0.7260
10.524000 0.7260 0.7270 0.7270 0.7270 0.7270
10.558197 0.7270 0.7290 0.7290 0.7310 0.7310
10.593000 0.7310 0.7310 0.7320 0.7320 0.7360
10.627197 0.7380 0.7380 0.7390 0.7430 0.7460
10.661000 0.7480 0.7480 0.7500 0.7500 0.7510
10.695197 0.7530 0.7560 0.7580 0.7600 0.7630
10.729000 0.7670 0.7680 0.7700 0.7720 0.7770
10.763197 0.7790 0.7800 0.7840 0.7870 0.7890
10.798000 0.7910 0.7920 0.7960 0.7970 0.7990
10.832197 0.8010 0.8040 0.8060 0.8090 0.8110
10.866000 0.8130 0.8130 0.8150 0.8160 0.8180
10.900197 0.8180 0.8200 0.8210 0.8230 0.8250
10.935000 0.8270 0.8280 0.8300 0.8320 0.8330
10.969197 0.8350 0.8370 0.8390 0.8400 0.8400
11.003000 0.8400 0.8420 0.8420 0.8420 0.8440
11.037197 0.8440 0.8440 0.8440 0.8440 0.8450
11.071000 0.8470 0.8470 0.8470 0.8490 0.8490
11.105197 0.8510 0.8510 0.8510 0.8510 0.8510
11.140000 0.8510 0.8510 0.8490 0.8490 0.8450
11.174197 0.8420 0.8390 0.8370 0.8350 0.8300
11.208000 0.8230 0.8150 0.8060 0.8030 0.7990
11.242197 0.7970 0.7920 0.7790 0.7630 0.7500
11.276000 0.7340 0.7190 0.7000 0.6860 0.6690
11.310197 0.6540 0.6360 0.6180 0.6010 0.5820
11.345000 0.5630 0.5420 0.5270 0.5170 0.5050
11.379197 0.4960 0.4880 0.4860 0.4720 0.4700
11.413000 0.4700 0.4700 0.4700 0.4720 0.4910
11.447197 0.5010 0.5150 0.5250 0.5370 0.5460
11.481000 0.5560 0.5650 0.5700 0.5800 0.5820
11.515197 0.5900 0.5920 0.5920 0.5920 0.5920
11.550000 0.5900 0.5850 0.5750 0.5710 0.5700
11.584197 0.5650 0.5610 0.5580 0.5540 0.5510
11.618000 0.5490 0.5460 0.5460 0.5460 0.5490
11.652197 0.5560 0.5700 0.5830 0.5990 0.6160
11.687000 0.6310 0.6480 0.6660 0.6810 0.6960
11.721197 0.7080 0.7200 0.7360 0.7460 0.7550
11.755000 0.7610 0.7720 0.7800 0.7910 0.7990
11.789197 0.8040 0.8080 0.8130 0.8160 0.8210
11.823000 0.8230 0.8250 0.8270 0.8280 0.8300
11.857197 0.8320 0.8330 0.8350 0.8370 0.8370
11.892000 0.8370 0.8390 0.8390 0.8390 0.8390
11.926197 0.8390 0.8390 0.8350 0.8330 0.8300
11.960000 0.8250 0.8210 0.8200 0.8160 0.8090
11.994197 0.8030 0.7960 0.7870 0.7800 0.7700
12.028000 0.7630 0.7550 0.7460 0.7390 0.7320
12.062197 0.7260 0.7190 0.7140 0.7070 0.7020
12.097000 0.6950 0.6900 0.6840 0.6760 0.6720
12.131197 0.6670 0.6620 0.6550 0.6520 0.6480
12.165000 0.6470 0.6450 0.6430 0.6400 0.6360
12.199197 0.6350 0.6330 0.6310 0.6300 0.6300
12.233000 0.6300 0.6310 0.6330 0.6330 0.6330
12.267197 0.6360 0.6360 0.6400 0.6420 0.6450
12.302000 0.6470 0.6470 0.6470 0.6470 0.6470
12.336197 0.6470 0.6470 0.6470 0.6470 0.6470
12.370000 0.6430 0.6420 0.6400 0.6350 0.6350
12.404197 0.6350 0.6360 0.6380 0.6400 0.6420
12.438000 0.6450 0.6470 0.6520 0.6570 0.6620
12.472197 0.6660 0.6830 0.6930 0.7000 0.7050
12.507000 0.7140 0.7260 0.7320 0.7390 0.7440
12.541197 0.7500 0.7580 0.7600 0.7670 0.7700
12.575000 0.7770 0.7820 0.7870 0.7910 0.7940
12.609197 0.7960 0.7970 0.8010 0.8030 0.8040
12.644000 0.8060 0.8090 0.8130 0.8130 0.8150
12.678197 0.8150 0.8160 0.8160 0.8180 0.8180
12.712000 0.8200 0.8200 0.8200 0.8200 0.8200
12.746197 0.8200 0.8200 0.8200 0.8200 0.8180
12.780000 0.8180 0.8180 0.8150 0.8150 0.8130
12.814197 0.8130 0.8130 0.8130 0.8130 0.8130
12.849000 0.8130 0.8150 0.8150 0.8150 0.8160
12.883197 0.8160 0.8180 0.8180 0.8200 0.8210
12.917000 0.8230 0.8230 0.8250 0.8250 0.8270
12.951197 0.8270 0.8280 0.8280 0.8320 0.8320
12.985000 0.8320 0.8320 0.8330 0.8330 0.8330
13.019197 0.8330 0.8330 0.8320 0.8280 0.8270
13.054000 0.8250 0.8230 0.8210 0.8210 0.8210
13.088197 0.8210 0.8200 0.8200 0.8180 0.8150
13.122000 0.8130 0.8090 0.8080 0.8040 0.8030
13.156197 0.8010 0.7990 0.7970 0.7960 0.7940
13.190000 0.7890 0.7870 0.7820 0.7770 0.7730
13.224197 0.7720 0.7670 0.7600 0.7530 0.7510
13.259000 0.7440 0.7410 0.7380 0.7340 0.7290
13.293197 0.7270 0.7260 0.7240 0.7220 0.7200
13.327000 0.7190 0.7170 0.7150 0.7150 0.7140
13.361197 0.7140 0.7120 0.7120 0.7100 0.7100
13.396000 0.7100 0.7100 0.7100 0.7100 0.7100
13.430197 0.7100 0.7100 0.7100 0.7100 0.7100
13.464000 0.7100 0.7120 0.7120 0.7140 0.7140
13.498197 0.7150 0.7150 0.7170 0.7190 0.7190
13.532000 0.7200 0.7200 0.7220 0.7220 0.7260
13.566197 0.7260 0.7270 0.7270 0.7290 0.7310
13.601000 0.7340 0.7360 0.7380 0.7390 0.7410
13.635197 0.7430 0.7460 0.7480 0.7480 0.7500
13.669000 0.7510 0.7510 0.7550 0.7550 0.7580
13.703197 0.7610 0.7630 0.7670 0.7680 0.7680
13.737000 0.7700 0.7720 0.7720 0.7730 0.7750
13.771197 0.7750 0.7770 0.7770 0.7770 0.7770
13.806000 0.7770 0.7770 0.7770 0.7790 0.7790
13.840197 0.7800 0.7800 0.7800 0.7800 0.7800
13.874000 0.7800 0.7800 0.7800 0.7800 0.7800
13.908197 0.7800 0.7800 0.7800 0.7800 0.7800
13.942000 0.7800 0.7820 0.7820 0.7820 0.7820
13.976197 0.7840 0.7840 0.7840 0.7840 0.7850
14.011000 0.7850 0.7850 0.7850 0.7850 0.7850
14.045197 0.7850 0.7850 0.7840 0.7840 0.7840
14.079000 0.7840 0.7820 0.7820 0.7820 0.7800
14.113197 0.7800 0.7790 0.7790 0.7770 0.7770
14.147000 0.7770 0.7750 0.7750 0.7750 0.7730
14.181197 0.7730 0.7720 0.7720 0.7720 0.7700
14.216000 0.7680 0.7650 0.7650 0.7630 0.7610
14.250197 0.7600 0.7600 0.7580 0.7580 0.7560
14.284000 0.7550 0.7550 0.7530 0.7510 0.7500
14.318197 0.7480 0.7460 0.7430 0.7430 0.7390
14.353000 0.7380 0.7340 0.7320 0.7310 0.7270
14.387197 0.7260 0.7240 0.7240 0.7220 0.7190
14.421000 0.7150 0.7140 0.7080 0.7070 0.7030
14.455197 0.7000 0.6980 0.6900 0.6900 0.6860
14.489000 0.6830 0.6790 0.6760 0.6710 0.6670
14.523197 0.6640 0.6600 0.6540 0.6500 0.6450
14.558000 0.6420 0.6400 0.6380 0.6360 0.6310
14.592197 0.6310 0.6300 0.6230 0.6210 0.6190
14.626000 0.6160 0.6140 0.6110 0.6090 0.6070
14.660197 0.6020 0.6010 0.5990 0.5970 0.5970
14.694000 0.5970 0.5950 0.5950 0.5950 0.5950
14.728197 0.5940 0.5920 0.5890 0.5890 0.5890
14.763000 0.5870 0.5870 0.5870 0.5870 0.5870
14.797197 0.5870 0.5870 0.5870 0.5870 0.5870
14.831000 0.5870 0.5890 0.5890 0.5890 0.5900
14.865197 0.5900 0.5900 0.5900 0.5900 0.5900
14.899000 0.5900 0.5920 0.5920 0.5940 0.5940
14.933197 0.5940 0.5940 0.5950 0.5970 0.5970
14.968000 0.5990 0.6010 0.6010 0.6020 0.6020
15.002197 0.6040 0.6060 0.6070 0.6090 0.6110
15.036000 0.6110 0.6130 0.6130 0.6130 0.6140
15.070197 0.6140 0.6140 0.6140 0.6140 0.6140
15.104000 0.6140 0.6140 0.6140 0.6140 0.6140
15.138197 0.6140 0.6140 0.6140 0.6140 0.6140
15.173000 0.6140 0.6130 0.6130 0.6130 0.6110
15.207197 0.6110 0.6070 0.6070 0.6070 0.6060
15.241000 0.6060 0.6040 0.6040 0.6020 0.6020
15.275197 0.6010 0.6010 0.5990 0.5990 0.5970
15.310000 0.5970 0.5970 0.5950 0.5940 0.5940
15.344197 0.5940 0.5920 0.5900 0.5890 0.5870
15.378000 0.5850 0.5850 0.5830 0.5820 0.5800
15.412197 0.5780 0.5770 0.5770 0.5750 0.5730
15.446000 0.5710 0.5700 0.5680 0.5680 0.5650
15.480197 0.5610 0.5590 0.5580 0.5560 0.5540
15.515000 0.5510 0.5490 0.5470 0.5460 0.5440
15.549197 0.5420 0.5410 0.5390 0.5370 0.5320
15.583000 0.5300 0.5290 0.5270 0.5250 0.5250
15.617197 0.5220 0.5200 0.5180 0.5180 0.5170
15.651000 0.5110 0.5110 0.5100 0.5100 0.5080
15.685197 0.5080 0.5060 0.5060 0.5030 0.5000
15.720000 0.5000 0.4980 0.4960 0.4960 0.4960
15.754197 0.4960 0.4960 0.4960 0.4960 0.4960
15.788000 0.4960 0.4960 0.4960 0.4960 0.4960
15.822197 0.4960 0.4960 0.4960 0.4960 0.4980
15.856000 0.4980 0.5000 0.5010 0.5030 0.5050
15.890197 0.5060 0.5060 0.5060 0.5080 0.5100
15.925000 0.5110 0.5110 0.5130 0.5130 0.5150
15.959197 0.5170 0.5180 0.5200 0.5220 0.5230
15.993000 0.5230 0.5270 0.5290
##END=
