##TITLE=BENZENE, 1,2,3,4-TETRACHLORO-
##JCAMP-DX=4.24
##DATA TYPE=INFRARED SPECTRUM
##CLASS=COBLENTZ III
##ORIGIN=DOW CHEMICAL COMPANY
##OWNER=COBLENTZ SOCIETY
Collection (C) 2018 copyright by the U.S. Secretary of Commerce
on behalf of the United States of America. All rights reserved.
##DATE=1962/02/21
##NAMES=1,2,3,4-tetrachlorobenzene
##CAS REGISTRY NO=634-66-2
##MOLFORM=C6 H2 Cl4
##MP=47 C
##BP=254 C
##SOURCE REFERENCE=COBLENTZ NO. 10633
##$NIST SOURCE=COBLENTZ
##$NIST IMAGE=cob10633
##SPECTROMETER/DATA SYSTEM=DOW KBr FOREPRISM-GRATING
##INSTRUMENT PARAMETERS=BLAZED AT 3.5, 12.0, 20.0 MICRON, CHANGED AT 5.0, 7.5, 14.9 MICRON
##STATE=SOLUTION (10% IN CCl4 FOR 3800-1333, 10% IN CS2 FOR 1333-450 CM^-^1) VS. SOLVENT
##PATH LENGTH=0.011, 0.011 CM
##SAMPLING PROCEDURE=TRANSMISSION
##RESOLUTION=4
##DATA PROCESSING=DIGITIZED BY NIST FROM HARD COPY (FROM TWO SEGMENTS)
##XUNITS=1/CM
##YUNITS=TRANSMITTANCE
##XFACTOR=1.000000
##YFACTOR=1
##DELTAX=0.952383
##FIRSTX=450.476
##LASTX=3796.2
##FIRSTY=0.976
##MAXX=3796.2
##MINX=450.476
##MAXY=1.019
##MINY=0.00500304
##NPOINTS=3514
##XYDATA=(X++(Y..Y))
450.476000 0.9760 0.9770 0.9800 0.9800 0.9800
455.237917 0.9820 0.9820 0.9820 0.9820 0.9820
459.999834 0.9830 0.9830 0.9830 0.9830 0.9820
464.761751 0.9820 0.9800 0.9800 0.9800 0.9800
469.523668 0.9790 0.9760 0.9710 0.9680 0.9670
474.285585 0.9640 0.9600 0.9550 0.9401 0.9271
479.047502 0.8960 0.8131 0.7451 0.7450 0.9195
483.809418 0.9330 0.9698 0.9710 0.9879 0.9910
488.571335 0.9920 0.9920 0.9920 0.9910 0.9910
493.333252 0.9890 0.9890 0.9890 0.9890 0.9880
498.095169 0.9880 0.9860 0.9830 0.9800 0.9740
502.857086 0.9740 0.9680 0.9600 0.9550 0.9480
507.619003 0.9340 0.9230 0.8930 0.8770 0.8351
512.380920 0.8230 0.7941 0.7920 0.7920 0.7940
517.142837 0.8130 0.8320 0.8470 0.9228 0.9519
521.904754 0.9670 0.9760 0.9800 0.9909 1.0019
526.666671 1.0050 1.0050 1.0110 1.0130 1.0140
531.428588 1.0160 1.0170 1.0170 1.0170 1.0190
536.190505 1.0190 1.0170 1.0170 1.0160 1.0140
540.952422 1.0130 1.0130 1.0110 1.0100 1.0080
545.714338 1.0040 1.0020 1.0000 0.9970 0.9800
550.476255 0.9700 0.9640 0.9361 0.8842 0.7487
555.238172 0.6960 0.6440 0.5501 0.5500 0.9471
560.000089 0.9769 1.0019 1.0020 1.0050 1.0070
564.762006 1.0070 1.0070 1.0070 1.0070 1.0080
569.523923 1.0080 1.0080 1.0080 1.0080 1.0080
574.285840 1.0070 1.0070 1.0070 1.0070 1.0050
579.047757 1.0050 1.0040 1.0050 1.0050 1.0070
583.809674 1.0070 1.0070 1.0070 1.0050 1.0040
588.571591 1.0040 1.0010 1.0000 0.9980 0.9910
593.333508 0.9890 0.9860 0.9850 0.9790 0.9760
598.095425 0.9710 0.9521 0.9311 0.8742 0.8223
602.857342 0.7760 0.7080 0.6391 0.4613 0.4171
607.619258 0.3402 0.2633 0.2610 0.4073 0.7761
612.381175 0.8190 0.8500 0.8930 0.9210 0.9330
617.143092 0.9430 0.9550 0.9610 0.9670 0.9740
621.905009 0.9740 0.9770 0.9790 0.9820 0.9830
626.666926 0.9850 0.9850 0.9860 0.9880 0.9880
631.428843 0.9880 0.9860 0.9860 0.9860 0.9860
636.190760 0.9850 0.9850 0.9830 0.9820 0.9820
640.952677 0.9800 0.9760 0.9710 0.9680 0.9670
645.714594 0.9680 0.9710 0.9790 0.9800 0.9830
650.476511 0.9850 0.9850 0.9850 0.9830 0.9830
655.238428 0.9850 0.9860 0.9880 0.9880 0.9890
660.000345 0.9890 0.9890 0.9890 0.9890 0.9890
664.762262 0.9880 0.9880 0.9880 0.9890 0.9910
669.524178 0.9910 0.9920 0.9920 0.9940 0.9940
674.286095 0.9950 0.9950 0.9950 0.9950 0.9950
679.048012 0.9940 0.9940 0.9940 0.9940 0.9920
683.809929 0.9920 0.9920 0.9920 0.9920 0.9920
688.571846 0.9940 0.9940 0.9940 0.9950 0.9950
693.333763 0.9950 0.9950 0.9950 0.9950 0.9950
698.095680 0.9950 0.9950 0.9970 0.9970 0.9970
702.857597 0.9970 0.9970 0.9970 0.9970 0.9980
707.619514 0.9980 0.9980 0.9980 0.9980 0.9980
712.381431 0.9980 0.9980 0.9980 0.9980 0.9970
717.143348 0.9970 0.9970 0.9970 0.9970 0.9970
721.905265 0.9970 0.9970 0.9970 0.9970 0.9970
726.667182 0.9970 0.9970 0.9970 0.9950 0.9950
731.429098 0.9950 0.9950 0.9950 0.9950 0.9920
736.191015 0.9920 0.9890 0.9880 0.9860 0.9790
740.952932 0.9770 0.9700 0.9650 0.9610 0.9580
745.714849 0.9570 0.9540 0.9490 0.9480 0.9480
750.476766 0.9490 0.9520 0.9540 0.9540 0.9540
755.238683 0.9510 0.9480 0.9450 0.9430 0.9390
760.000600 0.9330 0.9230 0.9081 0.9000 0.8900
764.762517 0.8710 0.8490 0.8130 0.7850 0.7301
769.524434 0.6761 0.5354 0.3935 0.3094 0.2264
774.286351 0.1430 0.1020 0.0590 0.0999 0.1429
779.048268 0.2258 0.5350 0.7541 0.8307 0.8519
783.810185 0.8800 0.8920 0.9080 0.9150 0.9210
788.572102 0.9210 0.9230 0.9230 0.9230 0.9210
793.334018 0.9200 0.9140 0.9090 0.8900 0.8890
798.095935 0.8710 0.8092 0.8040 0.7950 0.7014
802.857852 0.6389 0.5760 0.4510 0.3231 0.1962
807.619769 0.0683 0.0161 0.0160 0.1295 0.4246
812.381686 0.4850 0.5390 0.7129 0.7759 0.8099
817.143603 0.8190 0.8320 0.8499 0.8560 0.8570
821.905520 0.8560 0.8530 0.8520 0.8440 0.8370
826.667437 0.8260 0.8041 0.7482 0.7082 0.6155
831.429354 0.5220 0.4800 0.4240 0.3681 0.1984
836.191271 0.1501 0.1500 0.1888 0.4638 0.4799
840.953188 0.5532 0.7070 0.7240 0.7580 0.7760
845.715105 0.7940 0.8130 0.8369 0.8569 0.8600
850.477022 0.8830 0.9030 0.9240 0.9280 0.9310
855.238938 0.9310 0.9310 0.9300 0.9240 0.9170
860.000855 0.9000 0.8940 0.8940 0.9080 0.9260
864.762772 0.9360 0.9480 0.9490 0.9510 0.9540
869.524689 0.9570 0.9580 0.9600 0.9600 0.9600
874.286606 0.9580 0.9580 0.9570 0.9520 0.9490
879.048523 0.9520 0.9610 0.9670 0.9760 0.9790
883.810440 0.9790 0.9800 0.9820 0.9820 0.9820
888.572357 0.9830 0.9830 0.9830 0.9830 0.9830
893.334274 0.9830 0.9830 0.9830 0.9830 0.9830
898.096191 0.9830 0.9830 0.9830 0.9830 0.9830
902.858108 0.9830 0.9830 0.9830 0.9830 0.9830
907.620025 0.9820 0.9820 0.9820 0.9820 0.9820
912.381942 0.9800 0.9790 0.9790 0.9790 0.9790
917.143858 0.9790 0.9770 0.9770 0.9770 0.9760
921.905775 0.9760 0.9740 0.9740 0.9730 0.9730
926.667692 0.9710 0.9710 0.9700 0.9670 0.9650
931.429609 0.9650 0.9640 0.9630 0.9630 0.9600
936.191526 0.9580 0.9570 0.9550 0.9540 0.9540
940.953443 0.9540 0.9550 0.9570 0.9570 0.9580
945.715360 0.9600 0.9610 0.9610 0.9630 0.9630
950.477277 0.9640 0.9650 0.9670 0.9670 0.9680
955.239194 0.9680 0.9700 0.9710 0.9710 0.9710
960.001111 0.9710 0.9710 0.9710 0.9730 0.9710
964.763028 0.9710 0.9730 0.9730 0.9740 0.9740
969.524945 0.9740 0.9770 0.9770 0.9770 0.9770
974.286862 0.9770 0.9770 0.9790 0.9790 0.9790
979.048778 0.9790 0.9790 0.9770 0.9770 0.9770
983.810695 0.9770 0.9770 0.9790 0.9790 0.9800
988.572612 0.9800 0.9800 0.9800 0.9820 0.9820
993.334529 0.9820 0.9830 0.9830 0.9830 0.9830
998.096446 0.9830 0.9830 0.9830 0.9830 0.9820
1002.858363 0.9820 0.9800 0.9800 0.9790 0.9770
1007.620280 0.9760 0.9680 0.9650 0.9630 0.9550
1012.382197 0.9520 0.9540 0.9570 0.9630 0.9650
1017.144114 0.9700 0.9710 0.9730 0.9740 0.9760
1021.906031 0.9770 0.9770 0.9770 0.9790 0.9790
1026.667948 0.9790 0.9800 0.9800 0.9800 0.9820
1031.429865 0.9820 0.9820 0.9820 0.9830 0.9830
1036.191782 0.9830 0.9830 0.9830 0.9830 0.9820
1040.953698 0.9800 0.9800 0.9800 0.9800 0.9790
1045.715615 0.9790 0.9770 0.9770 0.9760 0.9740
1050.477532 0.9700 0.9680 0.9680 0.9670 0.9640
1055.239449 0.9600 0.9570 0.9540 0.9520 0.9400
1060.001366 0.9330 0.9090 0.9020 0.8890 0.8870
1064.763283 0.8900 0.9110 0.9120 0.9110 0.8941
1069.525200 0.8900 0.8780 0.8470 0.8180 0.7641
1074.287117 0.6742 0.5822 0.4025 0.4000 0.3990
1079.049034 0.7271 0.8180 0.9170 0.9310 0.9390
1083.810951 0.9450 0.9550 0.9600 0.9640 0.9650
1088.572868 0.9650 0.9670 0.9680 0.9760 0.9770
1093.334785 0.9790 0.9800 0.9800 0.9820 0.9820
1098.096702 0.9820 0.9820 0.9830 0.9830 0.9830
1102.858618 0.9820 0.9800 0.9790 0.9790 0.9760
1107.620535 0.9710 0.9700 0.9710 0.9740 0.9760
1112.382452 0.9770 0.9770 0.9760 0.9710 0.9600
1117.144369 0.9550 0.9580 0.9610 0.9680 0.9710
1121.906286 0.9700 0.9700 0.9650 0.9610 0.9550
1126.668203 0.9520 0.9460 0.9360 0.9200 0.8960
1131.430120 0.8680 0.8500 0.8500 0.9118 0.9429
1136.192037 0.9490 0.9540 0.9550 0.9600 0.9610
1140.953954 0.9610 0.9630 0.9640 0.9640 0.9640
1145.715871 0.9640 0.9630 0.9610 0.9600 0.9570
1150.477788 0.9550 0.9540 0.9480 0.9450 0.9420
1155.239705 0.9370 0.9340 0.9270 0.9150 0.8990
1160.001621 0.8780 0.8441 0.8350 0.8151 0.7791
1164.763538 0.7440 0.7150 0.7010 0.6920 0.6830
1169.525455 0.6760 0.6640 0.5792 0.5471 0.4464
1174.287372 0.3457 0.1330 0.1100 0.0790 0.0470
1179.049289 0.0440 0.0450 0.0988 0.1438 0.1739
1183.811206 0.2231 0.2921 0.4460 0.5000 0.5380
1188.573123 0.6069 0.6439 0.6679 0.7079 0.7140
1193.335040 0.7270 0.7440 0.7610 0.7760 0.7890
1198.096957 0.8350 0.8570 0.9029 0.9090 0.9140
1202.858874 0.9200 0.9270 0.9360 0.9370 0.9370
1207.620791 0.9390 0.9370 0.9260 0.9081 0.9000
1212.382708 0.8900 0.8900 0.9120 0.9240 0.9390
1217.144625 0.9490 0.9580 0.9670 0.9760 0.9790
1221.906541 0.9790 0.9800 0.9800 0.9820 0.9830
1226.668458 0.9850 0.9860 0.9880 0.9890 0.9890
1231.430375 0.9910 0.9920 0.9920 0.9910 0.9910
1236.192292 0.9890 0.9880 0.9820 0.9800 0.9800
1240.954209 0.9790 0.9770 0.9760 0.9710 0.9670
1245.716126 0.9550 0.9520 0.9520 0.9540 0.9570
1250.478043 0.9670 0.9680 0.9700 0.9700 0.9700
1255.239960 0.9700 0.9680 0.9680 0.9670 0.9481
1260.001877 0.9310 0.9280 0.9310 0.9570 0.9610
1264.763794 0.9650 0.9740 0.9760 0.9800 0.9820
1269.525711 0.9830 0.9850 0.9850 0.9830 0.9830
1274.287628 0.9820 0.9820 0.9820 0.9820 0.9820
1279.049545 0.9820 0.9800 0.9800 0.9790 0.9790
1283.811461 0.9800 0.9800 0.9820 0.9820 0.9820
1288.573378 0.9830 0.9830 0.9830 0.9830 0.9830
1293.335295 0.9830 0.9820 0.9820 0.9820 0.9820
1298.097212 0.9820 0.9830 0.9850 0.9860 0.9860
1302.859129 0.9860 0.9850 0.9850 0.9850 0.9850
1307.621046 0.9850 0.9830 0.9830 0.9830 0.9800
1312.382963 0.9800 0.9800 0.9790 0.9770 0.9760
1317.144880 0.9760 0.9740 0.9740 0.9730 0.9730
1321.906797 0.9710 0.9680 0.9670 0.9650 0.9650
1326.668714 0.9630 0.9600 0.9580 0.9550 0.9520
1331.430631 0.9460 0.9400 0.9330 0.9240 0.9150
1336.192548 0.8770 0.8770 0.8530 0.8370 0.8130
1340.954465 0.7850 0.7580 0.7261 0.7080 0.7010
1345.716381 0.6930 0.6890 0.6840 0.6760 0.6650
1350.478298 0.6250 0.6160 0.5910 0.5750 0.5481
1355.240215 0.5139 0.4849 0.4518 0.3059 0.1580
1360.002132 0.1270 0.0970 0.0661 0.0630 0.0660
1364.764049 0.1281 0.1611 0.1980 0.2040 0.2510
1369.525966 0.3069 0.5446 0.6368 0.7417 0.7819
1374.287883 0.8160 0.8320 0.8410 0.8460 0.8490
1379.049800 0.8500 0.8520 0.8620 0.8690 0.8720
1383.811717 0.8740 0.8740 0.8750 0.8750 0.8780
1388.573634 0.8810 0.8830 0.8840 0.8900 0.8940
1393.335551 0.8970 0.9000 0.9060 0.9080 0.9080
1398.097468 0.9110 0.9090 0.9060 0.9050 0.9030
1402.859385 0.9000 0.8960 0.8920 0.8840 0.8810
1407.621301 0.8720 0.8690 0.8550 0.8430 0.8380
1412.383218 0.8340 0.8210 0.8130 0.7810 0.7660
1417.145135 0.7300 0.6930 0.4515 0.4001 0.3502
1421.907052 0.2699 0.2229 0.1559 0.0880 0.0290
1426.668969 0.0070 0.0050 0.0070 0.0140 0.1366
1431.430886 0.2571 0.3012 0.4800 0.5310 0.5810
1436.192803 0.5900 0.5900 0.5750 0.5650 0.5261
1440.954720 0.5100 0.4940 0.4910 0.4920 0.5130
1445.716637 0.5340 0.5540 0.5720 0.5999 0.7147
1450.478554 0.7240 0.7410 0.7580 0.7790 0.8120
1455.240471 0.8500 0.8750 0.8960 0.9229 0.9340
1460.002388 0.9450 0.9480 0.9540 0.9570 0.9580
1464.764305 0.9600 0.9630 0.9630 0.9650 0.9650
1469.526221 0.9650 0.9650 0.9640 0.9630 0.9640
1474.288138 0.9650 0.9680 0.9680 0.9700 0.9700
1479.050055 0.9710 0.9710 0.9710 0.9710 0.9710
1483.811972 0.9710 0.9700 0.9700 0.9680 0.9650
1488.573889 0.9610 0.9570 0.9540 0.9540 0.9480
1493.335806 0.9420 0.9310 0.9240 0.9230 0.9240
1498.097723 0.9300 0.9460 0.9580 0.9650 0.9680
1502.859640 0.9700 0.9700 0.9680 0.9670 0.9680
1507.621557 0.9700 0.9700 0.9710 0.9710 0.9730
1512.383474 0.9730 0.9740 0.9760 0.9770 0.9770
1517.145391 0.9770 0.9790 0.9790 0.9790 0.9790
1521.907308 0.9790 0.9790 0.9790 0.9770 0.9770
1526.669225 0.9770 0.9770 0.9770 0.9770 0.9770
1531.431141 0.9760 0.9760 0.9760 0.9740 0.9740
1536.193058 0.9740 0.9740 0.9730 0.9700 0.9700
1540.954975 0.9670 0.9630 0.9580 0.9570 0.9540
1545.716892 0.9450 0.9390 0.9200 0.9110 0.9110
1550.478809 0.9210 0.9210 0.9180 0.9120 0.8930
1555.240726 0.8679 0.8439 0.8090 0.8090 0.8310
1560.002643 0.8920 0.9150 0.9240 0.9400 0.9520
1564.764560 0.9550 0.9570 0.9600 0.9630 0.9630
1569.526477 0.9640 0.9640 0.9650 0.9650 0.9650
1574.288394 0.9670 0.9670 0.9670 0.9680 0.9700
1579.050311 0.9710 0.9740 0.9760 0.9770 0.9800
1583.812228 0.9820 0.9860 0.9880 0.9890 0.9890
1588.574145 0.9890 0.9890 0.9890 0.9880 0.9880
1593.336061 0.9860 0.9860 0.9860 0.9850 0.9850
1598.097978 0.9850 0.9830 0.9830 0.9820 0.9820
1602.859895 0.9800 0.9800 0.9790 0.9790 0.9770
1607.621812 0.9760 0.9710 0.9680 0.9650 0.9610
1612.383729 0.9580 0.9550 0.9520 0.9480 0.9430
1617.145646 0.9420 0.9420 0.9430 0.9510 0.9540
1621.907563 0.9550 0.9580 0.9640 0.9680 0.9760
1626.669480 0.9790 0.9820 0.9860 0.9880 0.9890
1631.431397 0.9910 0.9910 0.9910 0.9910 0.9910
1636.193314 0.9910 0.9920 0.9950 1.0010 1.0040
1640.955231 1.0040 1.0040 1.0040 1.0040 1.0020
1645.717148 1.0020 1.0010 1.0010 1.0000 0.9980
1650.479065 0.9980 0.9950 0.9940 0.9890 0.9860
1655.240981 0.9860 0.9830 0.9830 0.9820 0.9820
1660.002898 0.9800 0.9800 0.9800 0.9800 0.9800
1664.764815 0.9790 0.9790 0.9790 0.9790 0.9790
1669.526732 0.9790 0.9790 0.9790 0.9790 0.9790
1674.288649 0.9790 0.9790 0.9790 0.9790 0.9790
1679.050566 0.9790 0.9790 0.9790 0.9770 0.9770
1683.812483 0.9760 0.9730 0.9730 0.9700 0.9700
1688.574400 0.9680 0.9680 0.9680 0.9680 0.9680
1693.336317 0.9680 0.9680 0.9700 0.9700 0.9700
1698.098234 0.9710 0.9730 0.9740 0.9740 0.9760
1702.860151 0.9770 0.9790 0.9790 0.9790 0.9790
1707.622068 0.9790 0.9790 0.9790 0.9800 0.9800
1712.383985 0.9800 0.9800 0.9800 0.9800 0.9800
1717.145901 0.9800 0.9790 0.9790 0.9770 0.9760
1721.907818 0.9740 0.9740 0.9740 0.9740 0.9740
1726.669735 0.9740 0.9730 0.9730 0.9710 0.9700
1731.431652 0.9680 0.9670 0.9650 0.9640 0.9630
1736.193569 0.9630 0.9600 0.9580 0.9570 0.9540
1740.955486 0.9540 0.9520 0.9510 0.9510 0.9490
1745.717403 0.9490 0.9490 0.9510 0.9510 0.9540
1750.479320 0.9550 0.9580 0.9600 0.9630 0.9650
1755.241237 0.9680 0.9700 0.9730 0.9740 0.9740
1760.003154 0.9760 0.9760 0.9770 0.9790 0.9790
1764.765071 0.9790 0.9800 0.9800 0.9820 0.9820
1769.526988 0.9820 0.9820 0.9820 0.9820 0.9820
1774.288905 0.9800 0.9800 0.9800 0.9790 0.9790
1779.050821 0.9770 0.9770 0.9770 0.9770 0.9770
1783.812738 0.9770 0.9770 0.9770 0.9770 0.9770
1788.574655 0.9790 0.9790 0.9790 0.9790 0.9790
1793.336572 0.9790 0.9800 0.9800 0.9800 0.9800
1798.098489 0.9800 0.9800 0.9800 0.9800 0.9800
1802.860406 0.9800 0.9800 0.9800 0.9800 0.9800
1807.622323 0.9800 0.9800 0.9800 0.9800 0.9800
1812.384240 0.9800 0.9800 0.9800 0.9790 0.9790
1817.146157 0.9790 0.9790 0.9790 0.9790 0.9790
1821.908074 0.9790 0.9790 0.9790 0.9790 0.9790
1826.669991 0.9790 0.9790 0.9790 0.9790 0.9790
1831.431908 0.9790 0.9790 0.9770 0.9770 0.9770
1836.193825 0.9770 0.9770 0.9770 0.9770 0.9770
1840.955741 0.9760 0.9760 0.9760 0.9760 0.9740
1845.717658 0.9740 0.9740 0.9740 0.9710 0.9710
1850.479575 0.9710 0.9710 0.9710 0.9710 0.9700
1855.241492 0.9700 0.9700 0.9710 0.9710 0.9710
1860.003409 0.9730 0.9740 0.9740 0.9740 0.9730
1864.765326 0.9730 0.9710 0.9700 0.9680 0.9670
1869.527243 0.9650 0.9640 0.9630 0.9600 0.9570
1874.289160 0.9540 0.9490 0.9450 0.9420 0.9340
1879.051077 0.9180 0.9110 0.9000 0.8830 0.8800
1883.812994 0.8780 0.8800 0.8900 0.9000 0.9080
1888.574911 0.9230 0.9340 0.9450 0.9550 0.9600
1893.336828 0.9650 0.9670 0.9680 0.9700 0.9730
1898.098745 0.9760 0.9760 0.9770 0.9790 0.9790
1902.860661 0.9800 0.9800 0.9790 0.9790 0.9770
1907.622578 0.9760 0.9760 0.9760 0.9760 0.9760
1912.384495 0.9740 0.9740 0.9740 0.9740 0.9740
1917.146412 0.9740 0.9740 0.9740 0.9740 0.9740
1921.908329 0.9760 0.9770 0.9790 0.9790 0.9790
1926.670246 0.9770 0.9770 0.9760 0.9760 0.9760
1931.432163 0.9740 0.9740 0.9740 0.9740 0.9740
1936.194080 0.9740 0.9740 0.9730 0.9730 0.9710
1940.955997 0.9700 0.9700 0.9700 0.9700 0.9700
1945.717914 0.9700 0.9710 0.9710 0.9710 0.9730
1950.479831 0.9730 0.9730 0.9740 0.9740 0.9740
1955.241748 0.9740 0.9740 0.9760 0.9770 0.9770
1960.003665 0.9770 0.9770 0.9770 0.9790 0.9790
1964.765581 0.9790 0.9790 0.9790 0.9790 0.9790
1969.527498 0.9790 0.9800 0.9800 0.9800 0.9800
1974.289415 0.9800 0.9800 0.9820 0.9820 0.9830
1979.051332 0.9830 0.9830 0.9850 0.9850 0.9850
1983.813249 0.9850 0.9860 0.9860 0.9860 0.9860
1988.575166 0.9880 0.9880 0.9880 0.9880 0.9890
1993.337083 0.9890 0.9890 0.9910 0.9910 0.9910
1998.099000 0.9910 0.9920 0.9920 0.9920 0.9920
2002.860917 0.9920 0.9920 0.9930 0.9940 0.9940
2007.622834 0.9940 0.9940 0.9940 0.9940 0.9940
2012.384751 0.9945 0.9950 0.9950 0.9950 0.9950
2017.146668 0.9950 0.9950 0.9952 0.9962 0.9970
2021.908585 0.9970 0.9970 0.9970 0.9970 0.9970
2026.670501 0.9970 0.9970 0.9970 0.9970 0.9970
2031.432418 0.9970 0.9970 0.9970 0.9970 0.9970
2036.194335 0.9971 0.9977 0.9980 0.9980 0.9980
2040.956252 0.9980 0.9980 0.9980 0.9980 0.9980
2045.718169 0.9980 0.9980 0.9980 0.9980 0.9980
2050.480086 0.9980 0.9980 0.9980 0.9984 0.9995
2055.242003 1.0000 1.0000 1.0000 1.0000 1.0000
2060.003920 1.0000 1.0000 1.0000 1.0000 1.0000
2064.765837 1.0000 1.0000 1.0000 1.0000 1.0000
2069.527754 1.0000 1.0000 1.0000 1.0000 1.0000
2074.289671 1.0000 1.0000 1.0000 1.0000 1.0000
2079.051588 1.0000 1.0000 1.0000 1.0000 1.0000
2083.813505 1.0000 1.0000 1.0000 1.0000 1.0000
2088.575421 1.0000 1.0000 1.0000 1.0000 1.0000
2093.337338 1.0000 1.0000 1.0000 1.0000 1.0000
2098.099255 1.0000 1.0000 1.0000 1.0000 1.0000
2102.861172 0.9991 0.9981 0.9980 0.9980 0.9980
2107.623089 0.9980 0.9980 0.9980 0.9980 0.9980
2112.385006 0.9980 0.9980 0.9980 0.9980 0.9980
2117.146923 0.9980 0.9980 0.9980 0.9980 0.9980
2121.908840 0.9980 0.9980 0.9975 0.9970 0.9970
2126.670757 0.9970 0.9970 0.9970 0.9970 0.9970
2131.432674 0.9970 0.9970 0.9970 0.9970 0.9970
2136.194591 0.9970 0.9970 0.9970 0.9970 0.9970
2140.956508 0.9970 0.9970 0.9970 0.9970 0.9970
2145.718425 0.9968 0.9958 0.9950 0.9950 0.9950
2150.480341 0.9950 0.9950 0.9950 0.9950 0.9950
2155.242258 0.9950 0.9950 0.9950 0.9950 0.9948
2160.004175 0.9943 0.9940 0.9940 0.9940 0.9940
2164.766092 0.9940 0.9940 0.9940 0.9940 0.9936
2169.528009 0.9925 0.9920 0.9920 0.9920 0.9920
2174.289926 0.9920 0.9920 0.9920 0.9920 0.9920
2179.051843 0.9920 0.9920 0.9920 0.9920 0.9920
2183.813760 0.9920 0.9920 0.9920 0.9920 0.9920
2188.575677 0.9920 0.9920 0.9920 0.9920 0.9920
2193.337594 0.9920 0.9920 0.9917 0.9912 0.9910
2198.099511 0.9910 0.9903 0.9893 0.9890 0.9890
2202.861428 0.9886 0.9881 0.9880 0.9880 0.9880
2207.623345 0.9880 0.9884 0.9889 0.9890 0.9890
2212.385261 0.9898 0.9908 0.9914 0.9919 0.9920
2217.147178 0.9920 0.9920 0.9920 0.9929 0.9939
2221.909095 0.9940 0.9940 0.9945 0.9950 0.9950
2226.671012 0.9950 0.9960 0.9970 0.9970 0.9970
2231.432929 0.9970 0.9970 0.9970 0.9970 0.9970
2236.194846 0.9970 0.9970 0.9970 0.9970 0.9970
2240.956763 0.9970 0.9970 0.9970 0.9969 0.9959
2245.718680 0.9950 0.9950 0.9949 0.9944 0.9940
2250.480597 0.9940 0.9940 0.9940 0.9940 0.9940
2255.242514 0.9938 0.9928 0.9919 0.9914 0.9910
2260.004431 0.9910 0.9910 0.9910 0.9910 0.9910
2264.766348 0.9910 0.9910 0.9911 0.9916 0.9920
2269.528265 0.9920 0.9920 0.9920 0.9920 0.9920
2274.290181 0.9923 0.9934 0.9940 0.9940 0.9940
2279.052098 0.9940 0.9940 0.9940 0.9940 0.9940
2283.814015 0.9936 0.9926 0.9920 0.9920 0.9918
2288.575932 0.9913 0.9910 0.9910 0.9905 0.9895
2293.337849 0.9890 0.9890 0.9890 0.9890 0.9887
2298.099766 0.9882 0.9880 0.9880 0.9880 0.9880
2302.861683 0.9880 0.9880 0.9874 0.9864 0.9860
2307.623600 0.9860 0.9860 0.9860 0.9857 0.9852
2312.385517 0.9850 0.9850 0.9850 0.9850 0.9850
2317.147434 0.9850 0.9850 0.9850 0.9850 0.9850
2321.909351 0.9850 0.9850 0.9850 0.9850 0.9850
2326.671268 0.9850 0.9850 0.9850 0.9850 0.9850
2331.433185 0.9850 0.9850 0.9842 0.9831 0.9830
2336.195101 0.9830 0.9830 0.9830 0.9830 0.9830
2340.957018 0.9830 0.9830 0.9830 0.9830 0.9825
2345.718935 0.9820 0.9820 0.9820 0.9820 0.9820
2350.480852 0.9810 0.9800 0.9800 0.9800 0.9800
2355.242769 0.9800 0.9800 0.9800 0.9800 0.9800
2360.004686 0.9800 0.9800 0.9800 0.9800 0.9800
2364.766603 0.9801 0.9811 0.9820 0.9820 0.9820
2369.528520 0.9820 0.9821 0.9826 0.9832 0.9842
2374.290437 0.9851 0.9856 0.9860 0.9860 0.9862
2379.052354 0.9873 0.9881 0.9886 0.9890 0.9890
2383.814271 0.9893 0.9903 0.9912 0.9917 0.9920
2388.576188 0.9920 0.9920 0.9920 0.9920 0.9920
2393.338105 0.9920 0.9920 0.9920 0.9920 0.9920
2398.100021 0.9920 0.9920 0.9920 0.9920 0.9920
2402.861938 0.9920 0.9920 0.9920 0.9920 0.9920
2407.623855 0.9920 0.9920 0.9920 0.9920 0.9920
2412.385772 0.9917 0.9912 0.9910 0.9910 0.9910
2417.147689 0.9910 0.9910 0.9910 0.9910 0.9910
2421.909606 0.9910 0.9910 0.9910 0.9910 0.9904
2426.671523 0.9894 0.9890 0.9890 0.9890 0.9890
2431.433440 0.9890 0.9890 0.9890 0.9890 0.9890
2436.195357 0.9890 0.9890 0.9890 0.9890 0.9890
2440.957274 0.9890 0.9890 0.9890 0.9890 0.9890
2445.719191 0.9890 0.9890 0.9890 0.9890 0.9890
2450.481108 0.9890 0.9890 0.9890 0.9890 0.9890
2455.243025 0.9890 0.9890 0.9890 0.9890 0.9890
2460.004941 0.9890 0.9890 0.9890 0.9890 0.9885
2464.766858 0.9880 0.9880 0.9880 0.9880 0.9880
2469.528775 0.9880 0.9880 0.9880 0.9880 0.9880
2474.290692 0.9880 0.9880 0.9879 0.9869 0.9860
2479.052609 0.9860 0.9859 0.9854 0.9850 0.9850
2483.814526 0.9850 0.9850 0.9848 0.9833 0.9820
2488.576443 0.9820 0.9818 0.9808 0.9799 0.9794
2493.338360 0.9790 0.9790 0.9790 0.9790 0.9791
2498.100277 0.9796 0.9804 0.9819 0.9834 0.9849
2502.862194 0.9863 0.9873 0.9882 0.9887 0.9893
2507.624111 0.9903 0.9910 0.9910 0.9910 0.9910
2512.386028 0.9910 0.9910 0.9910 0.9910 0.9910
2517.147945 0.9910 0.9910 0.9910 0.9910 0.9910
2521.909861 0.9910 0.9910 0.9910 0.9910 0.9910
2526.671778 0.9910 0.9910 0.9910 0.9910 0.9910
2531.433695 0.9910 0.9910 0.9910 0.9910 0.9910
2536.195612 0.9910 0.9910 0.9910 0.9910 0.9910
2540.957529 0.9910 0.9910 0.9910 0.9910 0.9910
2545.719446 0.9910 0.9910 0.9910 0.9910 0.9910
2550.481363 0.9910 0.9910 0.9910 0.9910 0.9910
2555.243280 0.9910 0.9910 0.9910 0.9910 0.9910
2560.005197 0.9910 0.9910 0.9910 0.9910 0.9910
2564.767114 0.9910 0.9910 0.9910 0.9910 0.9910
2569.529031 0.9910 0.9910 0.9910 0.9910 0.9910
2574.290948 0.9910 0.9910 0.9910 0.9910 0.9910
2579.052864 0.9910 0.9910 0.9910 0.9910 0.9910
2583.814781 0.9910 0.9900 0.9890 0.9890 0.9890
2588.576698 0.9890 0.9890 0.9890 0.9890 0.9890
2593.338615 0.9890 0.9885 0.9880 0.9880 0.9879
2598.100532 0.9869 0.9860 0.9860 0.9860 0.9860
2602.862449 0.9860 0.9860 0.9860 0.9860 0.9860
2607.624366 0.9860 0.9860 0.9860 0.9860 0.9860
2612.386283 0.9860 0.9860 0.9860 0.9860 0.9860
2617.148200 0.9860 0.9860 0.9860 0.9860 0.9860
2621.910117 0.9860 0.9860 0.9860 0.9860 0.9860
2626.672034 0.9860 0.9860 0.9860 0.9864 0.9874
2631.433951 0.9880 0.9880 0.9882 0.9887 0.9890
2636.195868 0.9890 0.9890 0.9890 0.9895 0.9905
2640.957784 0.9910 0.9910 0.9910 0.9910 0.9913
2645.719701 0.9918 0.9920 0.9920 0.9920 0.9920
2650.481618 0.9920 0.9920 0.9920 0.9920 0.9917
2655.243535 0.9912 0.9910 0.9910 0.9910 0.9910
2660.005452 0.9910 0.9910 0.9910 0.9910 0.9910
2664.767369 0.9910 0.9914 0.9919 0.9916 0.9911
2669.529286 0.9910 0.9910 0.9903 0.9892 0.9890
2674.291203 0.9890 0.9886 0.9881 0.9872 0.9862
2679.053120 0.9860 0.9860 0.9860 0.9860 0.9869
2683.815037 0.9879 0.9893 0.9908 0.9910 0.9910
2688.576954 0.9910 0.9910 0.9915 0.9920 0.9920
2693.338871 0.9920 0.9920 0.9920 0.9920 0.9920
2698.100788 0.9920 0.9920 0.9920 0.9920 0.9920
2702.862704 0.9920 0.9920 0.9920 0.9920 0.9920
2707.624621 0.9920 0.9920 0.9915 0.9910 0.9910
2712.386538 0.9910 0.9910 0.9909 0.9899 0.9890
2717.148455 0.9890 0.9890 0.9890 0.9890 0.9890
2721.910372 0.9890 0.9890 0.9890 0.9890 0.9890
2726.672289 0.9890 0.9890 0.9890 0.9890 0.9890
2731.434206 0.9890 0.9890 0.9890 0.9890 0.9893
2736.196123 0.9903 0.9910 0.9910 0.9910 0.9910
2740.958040 0.9910 0.9910 0.9910 0.9910 0.9910
2745.719957 0.9910 0.9910 0.9910 0.9910 0.9910
2750.481874 0.9910 0.9910 0.9910 0.9910 0.9910
2755.243791 0.9910 0.9910 0.9910 0.9910 0.9910
2760.005708 0.9905 0.9895 0.9890 0.9890 0.9890
2764.767624 0.9890 0.9890 0.9890 0.9890 0.9890
2769.529541 0.9890 0.9890 0.9890 0.9890 0.9890
2774.291458 0.9890 0.9887 0.9882 0.9880 0.9880
2779.053375 0.9873 0.9863 0.9850 0.9835 0.9819
2783.815292 0.9804 0.9768 0.9722 0.9706 0.9701
2788.577209 0.9704 0.9709 0.9721 0.9737 0.9752
2793.339126 0.9767 0.9794 0.9825 0.9842 0.9858
2798.101043 0.9868 0.9878 0.9880 0.9880 0.9884
2802.862960 0.9889 0.9890 0.9890 0.9899 0.9909
2807.624877 0.9915 0.9920 0.9920 0.9920 0.9920
2812.386794 0.9920 0.9920 0.9920 0.9920 0.9920
2817.148711 0.9920 0.9920 0.9930 0.9940 0.9945
2821.910628 0.9950 0.9950 0.9950 0.9950 0.9950
2826.672544 0.9950 0.9951 0.9961 0.9970 0.9970
2831.434461 0.9970 0.9970 0.9970 0.9970 0.9970
2836.196378 0.9970 0.9970 0.9970 0.9970 0.9970
2840.958295 0.9971 0.9976 0.9980 0.9980 0.9980
2845.720212 0.9980 0.9980 0.9980 0.9980 0.9980
2850.482129 0.9980 0.9980 0.9980 0.9980 0.9980
2855.244046 0.9980 0.9980 0.9980 0.9980 0.9980
2860.005963 0.9980 0.9980 0.9980 0.9980 0.9980
2864.767880 0.9980 0.9980 0.9980 0.9980 0.9980
2869.529797 0.9980 0.9980 0.9980 0.9980 0.9980
2874.291714 0.9980 0.9980 0.9980 0.9985 0.9995
2879.053631 1.0000 1.0000 1.0000 1.0000 1.0000
2883.815548 1.0000 1.0000 1.0000 1.0000 1.0000
2888.577464 1.0000 1.0000 1.0000 1.0000 1.0000
2893.339381 1.0000 1.0000 1.0000 1.0000 1.0000
2898.101298 1.0000 1.0000 1.0000 1.0000 1.0000
2902.863215 1.0000 1.0000 1.0000 1.0000 1.0000
2907.625132 1.0000 1.0000 1.0000 1.0000 1.0000
2912.387049 1.0000 1.0000 1.0000 1.0000 1.0000
2917.148966 1.0004 1.0009 1.0010 1.0010 1.0014
2921.910883 1.0020 1.0020 1.0020 1.0020 1.0020
2926.672800 1.0020 1.0020 1.0020 1.0020 1.0020
2931.434717 1.0020 1.0015 1.0010 1.0010 1.0010
2936.196634 1.0010 1.0010 1.0005 1.0000 0.9990
2940.958551 0.9980 0.9980 0.9980 0.9980 0.9980
2945.720468 0.9980 0.9980 0.9980 0.9981 0.9991
2950.482384 1.0000 1.0000 1.0000 1.0000 1.0000
2955.244301 1.0000 1.0000 1.0000 0.9998 0.9988
2960.006218 0.9980 0.9980 0.9979 0.9974 0.9970
2964.768135 0.9970 0.9967 0.9957 0.9949 0.9943
2969.530052 0.9937 0.9927 0.9920 0.9920 0.9918
2974.291969 0.9913 0.9910 0.9910 0.9910 0.9910
2979.053886 0.9912 0.9917 0.9924 0.9934 0.9940
2983.815803 0.9940 0.9942 0.9947 0.9950 0.9950
2988.577720 0.9950 0.9950 0.9950 0.9950 0.9950
2993.339637 0.9950 0.9950 0.9950 0.9950 0.9950
2998.101554 0.9950 0.9950 0.9950 0.9950 0.9947
3002.863471 0.9942 0.9940 0.9940 0.9940 0.9940
3007.625388 0.9940 0.9940 0.9940 0.9940 0.9933
3012.387304 0.9923 0.9920 0.9920 0.9920 0.9920
3017.149221 0.9927 0.9937 0.9940 0.9940 0.9940
3021.911138 0.9940 0.9944 0.9949 0.9950 0.9950
3026.673055 0.9950 0.9950 0.9958 0.9968 0.9974
3031.434972 0.9979 0.9980 0.9980 0.9980 0.9980
3036.196889 0.9980 0.9980 0.9976 0.9970 0.9970
3040.958806 0.9970 0.9961 0.9951 0.9950 0.9950
3045.720723 0.9945 0.9940 0.9940 0.9940 0.9930
3050.482640 0.9920 0.9920 0.9920 0.9915 0.9910
3055.244557 0.9910 0.9910 0.9899 0.9890 0.9885
3060.006474 0.9879 0.9869 0.9858 0.9843 0.9829
3064.768391 0.9824 0.9817 0.9792 0.9767 0.9747
3069.530308 0.9728 0.9712 0.9694 0.9659 0.9627
3074.292224 0.9612 0.9600 0.9600 0.9601 0.9606
3079.054141 0.9614 0.9629 0.9649 0.9685 0.9717
3083.816058 0.9742 0.9761 0.9767 0.9770 0.9770
3088.577975 0.9770 0.9770 0.9768 0.9763 0.9756
3093.339892 0.9746 0.9740 0.9740 0.9744 0.9754
3098.101809 0.9766 0.9781 0.9792 0.9797 0.9800
3102.863726 0.9800 0.9807 0.9822 0.9830 0.9830
3107.625643 0.9830 0.9830 0.9827 0.9822 0.9815
3112.387560 0.9805 0.9800 0.9800 0.9797 0.9792
3117.149477 0.9784 0.9774 0.9770 0.9770 0.9767
3121.911394 0.9762 0.9760 0.9760 0.9760 0.9760
3126.673311 0.9763 0.9768 0.9777 0.9787 0.9793
3131.435228 0.9798 0.9811 0.9826 0.9841 0.9856
3136.197144 0.9867 0.9878 0.9884 0.9889 0.9898
3140.959061 0.9908 0.9910 0.9910 0.9914 0.9919
3145.720978 0.9928 0.9938 0.9940 0.9940 0.9944
3150.482895 0.9949 0.9950 0.9950 0.9950 0.9950
3155.244812 0.9959 0.9969 0.9970 0.9970 0.9970
3160.006729 0.9970 0.9975 0.9980 0.9980 0.9980
3164.768646 0.9980 0.9980 0.9980 0.9980 0.9980
3169.530563 0.9980 0.9980 0.9980 0.9991 1.0000
3174.292480 1.0000 1.0000 1.0000 1.0000 1.0000
3179.054397 1.0000 1.0006 1.0010 1.0010 1.0010
3183.816314 1.0010 1.0011 1.0016 1.0020 1.0020
3188.578231 1.0020 1.0020 1.0020 1.0020 1.0020
3193.340148 1.0020 1.0020 1.0020 1.0023 1.0033
3198.102064 1.0040 1.0040 1.0040 1.0040 1.0040
3202.863981 1.0040 1.0040 1.0040 1.0040 1.0040
3207.625898 1.0040 1.0040 1.0040 1.0040 1.0040
3212.387815 1.0040 1.0040 1.0040 1.0040 1.0040
3217.149732 1.0040 1.0040 1.0040 1.0040 1.0040
3221.911649 1.0040 1.0040 1.0040 1.0040 1.0040
3226.673566 1.0040 1.0040 1.0040 1.0040 1.0040
3231.435483 1.0040 1.0040 1.0040 1.0040 1.0040
3236.197400 1.0040 1.0040 1.0040 1.0040 1.0043
3240.959317 1.0048 1.0050 1.0050 1.0050 1.0050
3245.721234 1.0050 1.0050 1.0050 1.0050 1.0057
3250.483151 1.0067 1.0070 1.0070 1.0070 1.0070
3255.245068 1.0070 1.0070 1.0070 1.0070 1.0074
3260.006984 1.0079 1.0080 1.0080 1.0080 1.0080
3264.768901 1.0080 1.0080 1.0080 1.0080 1.0080
3269.530818 1.0080 1.0080 1.0080 1.0089 1.0099
3274.292735 1.0100 1.0100 1.0100 1.0100 1.0100
3279.054652 1.0100 1.0100 1.0100 1.0100 1.0100
3283.816569 1.0100 1.0100 1.0105 1.0110 1.0110
3288.578486 1.0110 1.0110 1.0110 1.0110 1.0110
3293.340403 1.0110 1.0110 1.0110 1.0110 1.0110
3298.102320 1.0110 1.0110 1.0111 1.0121 1.0130
3302.864237 1.0130 1.0130 1.0130 1.0130 1.0130
3307.626154 1.0131 1.0136 1.0140 1.0140 1.0140
3312.388071 1.0140 1.0140 1.0140 1.0139 1.0134
3317.149988 1.0130 1.0130 1.0127 1.0117 1.0110
3321.911904 1.0110 1.0110 1.0110 1.0110 1.0110
3326.673821 1.0110 1.0110 1.0114 1.0124 1.0130
3331.435738 1.0130 1.0130 1.0130 1.0132 1.0137
3336.197655 1.0140 1.0140 1.0140 1.0140 1.0140
3340.959572 1.0140 1.0140 1.0140 1.0145 1.0155
3345.721489 1.0160 1.0160 1.0160 1.0160 1.0160
3350.483406 1.0160 1.0160 1.0160 1.0160 1.0160
3355.245323 1.0163 1.0168 1.0170 1.0170 1.0170
3360.007240 1.0170 1.0170 1.0170 1.0170 1.0170
3364.769157 1.0170 1.0170 1.0170 1.0170 1.0170
3369.531074 1.0170 1.0170 1.0170 1.0170 1.0170
3374.292991 1.0170 1.0170 1.0170 1.0170 1.0170
3379.054908 1.0170 1.0170 1.0170 1.0170 1.0170
3383.816824 1.0170 1.0170 1.0170 1.0170 1.0170
3388.578741 1.0170 1.0170 1.0170 1.0170 1.0170
3393.340658 1.0170 1.0170 1.0170 1.0170 1.0170
3398.102575 1.0170 1.0170 1.0170 1.0170 1.0170
3402.864492 1.0170 1.0170 1.0170 1.0170 1.0170
3407.626409 1.0170 1.0170 1.0170 1.0170 1.0170
3412.388326 1.0170 1.0170 1.0170 1.0169 1.0164
3417.150243 1.0160 1.0160 1.0160 1.0160 1.0160
3421.912160 1.0160 1.0160 1.0160 1.0160 1.0160
3426.674077 1.0158 1.0148 1.0140 1.0140 1.0139
3431.435994 1.0134 1.0130 1.0130 1.0127 1.0117
3436.197911 1.0110 1.0110 1.0110 1.0110 1.0110
3440.959828 1.0110 1.0110 1.0110 1.0110 1.0110
3445.721744 1.0110 1.0110 1.0110 1.0110 1.0110
3450.483661 1.0110 1.0108 1.0103 1.0100 1.0100
3455.245578 1.0100 1.0100 1.0100 1.0100 1.0100
3460.007495 1.0100 1.0100 1.0100 1.0100 1.0100
3464.769412 1.0100 1.0100 1.0100 1.0100 1.0100
3469.531329 1.0100 1.0094 1.0084 1.0080 1.0080
3474.293246 1.0077 1.0072 1.0070 1.0070 1.0070
3479.055163 1.0070 1.0063 1.0053 1.0050 1.0050
3483.817080 1.0050 1.0050 1.0050 1.0050 1.0050
3488.578997 1.0050 1.0050 1.0050 1.0050 1.0050
3493.340914 1.0050 1.0050 1.0050 1.0050 1.0050
3498.102831 1.0050 1.0050 1.0050 1.0046 1.0041
3502.864748 1.0040 1.0040 1.0040 1.0040 1.0040
3507.626664 1.0040 1.0040 1.0040 1.0031 1.0020
3512.388581 1.0020 1.0020 1.0015 1.0010 1.0010
3517.150498 1.0010 1.0010 1.0010 1.0010 1.0010
3521.912415 1.0010 1.0010 1.0010 1.0010 1.0010
3526.674332 1.0010 1.0010 1.0010 1.0004 1.0000
3531.436249 1.0000 1.0000 1.0000 1.0000 1.0000
3536.198166 1.0000 1.0000 1.0000 1.0000 1.0000
3540.960083 1.0000 0.9998 0.9988 0.9980 0.9980
3545.722000 0.9980 0.9980 0.9980 0.9980 0.9980
3550.483917 0.9980 0.9980 0.9980 0.9980 0.9980
3555.245834 0.9980 0.9980 0.9980 0.9980 0.9980
3560.007751 0.9980 0.9980 0.9980 0.9980 0.9980
3564.769668 0.9980 0.9980 0.9980 0.9980 0.9980
3569.531584 0.9980 0.9980 0.9980 0.9980 0.9980
3574.293501 0.9980 0.9980 0.9980 0.9980 0.9980
3579.055418 0.9980 0.9980 0.9980 0.9980 0.9980
3583.817335 0.9980 0.9980 0.9986 0.9996 1.0000
3588.579252 1.0000 1.0000 1.0000 1.0000 1.0000
3593.341169 1.0000 1.0000 1.0000 1.0000 1.0000
3598.103086 1.0000 0.9993 0.9983 0.9980 0.9980
3602.865003 0.9980 0.9980 0.9980 0.9980 0.9980
3607.626920 0.9980 0.9980 0.9980 0.9980 0.9980
3612.388837 0.9980 0.9980 0.9980 0.9980 0.9980
3617.150754 0.9980 0.9980 0.9980 0.9980 0.9980
3621.912671 0.9980 0.9980 0.9980 0.9980 0.9975
3626.674588 0.9970 0.9970 0.9970 0.9970 0.9970
3631.436504 0.9970 0.9970 0.9970 0.9970 0.9970
3636.198421 0.9970 0.9970 0.9970 0.9970 0.9970
3640.960338 0.9970 0.9970 0.9970 0.9970 0.9970
3645.722255 0.9970 0.9970 0.9970 0.9970 0.9970
3650.484172 0.9970 0.9970 0.9970 0.9970 0.9970
3655.246089 0.9970 0.9970 0.9970 0.9970 0.9970
3660.008006 0.9970 0.9970 0.9970 0.9970 0.9970
3664.769923 0.9970 0.9970 0.9970 0.9970 0.9970
3669.531840 0.9970 0.9970 0.9970 0.9970 0.9970
3674.293757 0.9970 0.9970 0.9970 0.9970 0.9970
3679.055674 0.9970 0.9972 0.9977 0.9980 0.9980
3683.817591 0.9984 0.9994 1.0000 1.0000 1.0000
3688.579508 1.0000 1.0000 1.0000 0.9995 0.9985
3693.341424 0.9980 0.9980 0.9980 0.9980 0.9980
3698.103341 0.9980 0.9980 0.9980 0.9977 0.9972
3702.865258 0.9970 0.9970 0.9970 0.9970 0.9964
3707.627175 0.9954 0.9950 0.9950 0.9950 0.9950
3712.389092 0.9950 0.9950 0.9950 0.9950 0.9950
3717.151009 0.9950 0.9950 0.9950 0.9958 0.9968
3721.912926 0.9970 0.9970 0.9970 0.9970 0.9970
3726.674843 0.9970 0.9970 0.9970 0.9970 0.9970
3731.436760 0.9970 0.9970 0.9970 0.9970 0.9970
3736.198677 0.9970 0.9970 0.9970 0.9970 0.9970
3740.960594 0.9970 0.9970 0.9970 0.9970 0.9970
3745.722511 0.9970 0.9970 0.9970 0.9970 0.9970
3750.484428 0.9970 0.9970 0.9970 0.9970 0.9970
3755.246344 0.9970 0.9970 0.9970 0.9970 0.9970
3760.008261 0.9970 0.9970 0.9970 0.9970 0.9970
3764.770178 0.9970 0.9970 0.9970 0.9970 0.9970
3769.532095 0.9970 0.9970 0.9970 0.9970 0.9970
3774.294012 0.9971 0.9976 0.9980 0.9980 0.9980
3779.055929 0.9980 0.9980 0.9980 0.9980 0.9980
3783.817846 0.9983 0.9993 1.0000 1.0000 1.0000
3788.579763 1.0000 1.0000 1.0000 1.0000 1.0000
3793.341680 1.0000 1.0000 1.0000 1.0000
##END=
