##TITLE=Ethyl tert-Butyl Ether
##JCAMP-DX=4.24
##DATA TYPE=INFRARED SPECTRUM
##CLASS=IUPAC A
##ORIGIN=NIST, Anayltical Chemistry Division, 301-975-3108
##OWNER=COPYRIGHT (C) 1998 by the U.S. Secretary of Commerce
##DATE=98/10/1
##$SPECTRA VERSION=1.00
##$UNCERTAINTY IN Y=2.8 % relative (B=1.9E-04,C=3.0E-09,D=2.7E-14)
##CAS NAME=tert-Butyl Ethyl Ether
##CAS REGISTRY NO=637-92-3
##MOLFORM=( C H3)3 C O C2 H5
##MP=-94 C
##BP=73.1 C
##$NIST SOURCE=QUANT-IR
##SPECTROMETER/DATA SYSTEM=IFS66V (Bruker)
##INSTRUMENT PARAMETERS=KBr Beam splitter; MCT Detector; Multipass cell
##STATE=gas
##SAMPLE DESCRIPTION=ETBE Primary Gas Standard
##PRESSURE=101.3 kPa
##TEMPERATURE=23 C
##SAMPLING PROCEDURE=1 L/min Flow
##RESOLUTION=1.9290
##DATA PROCESSING=Happ Genzel Apodization
##XUNITS=cm-1
##YUNITS=(micromol/mol)-1m-1 (base 10)
##XFACTOR=1.0
##YFACTOR=9.0949E-13
##DELTAX=0.9645
##FIRSTX=574.687
##LASTX=3974.595
##FIRSTY=-1.40E-07
##MAXX=3973.63
##MINX=574.69
##MAXY=.0013542
##MINY=-4.75E-07
##NPOINTS=3527
##XYDATA=(X++(Y..Y))
574.69-154032-147542-137606-257300-289820-150972
579.51-144430-410114-328176-178618-158840-336182
585.29-522720-296228-165936-212934-152172-120954
591.08-33166-73514-62570-99210-246920-197614
596.86-19042 19252-42144-121520-100178-64176
602.65-92410-127184-98082-53526-1920 126642
608.44 180756 197272 154824 105230 76034 49852
614.22 76526 140826 131232 137700 95310 81848
620.01 135586 164640 130002 93016 129186 142332
625.79 149488 149626 144190 153668 198184 220398
631.58 119698 74142 142026 172432 147220 81868
637.36 86224 103986 65380 34842 70008 78016
643.15 16302 10024 45040 135778 125396 93920
648.93 74814 21180 59022 75252 29248 34544
654.72 11594-17980 36096 96624 78608 9400
660.50-14850 33032 60676 21676 21096 55390
666.29 72728 103876 116948 90618 91462 90448
672.08 80180 81242 80578 102682 63758 94490
677.86 152176 143214 155776 233040 277358 283740
683.65 270666 294330 358228 391922 382060 360702
689.43 404250 469042 502444 526600 573102 583544
695.22 611980 664146 699908 686890 690788 761524
701.00 829076 894640 945386 1016488 1070850 1175186
706.79 1297720 1409836 1495154 1648644 1791976 1966614
712.57 2218098 2480222 2735524 3048884 3424030 3841034
718.36 4308208 4846446 5475992 6178346 6946698 7854608
724.14 8882334 9933764 11089150 12367260 13783610 15361440
729.93 17029830 18696110 20336080 21858560 23196410 24274510
735.71 25037430 25446490 25615260 25710740 25975390 26516130
741.50 26974570 26216220 23978650 22213930 21701720 21502700
747.29 20997370 19842590 18096760 16076280 13947810 11811680
753.07 9899186 8305152 6980636 5882178 4986744 4294674
758.86 3761998 3366678 3057628 2805450 2567994 2397376
764.64 2286466 2171014 2107182 2044810 2020572 2007848
770.43 1986714 1950104 1898024 1874902 1904988 1872310
776.21 1808214 1802406 1806014 1790230 1784372 1751572
782.00 1718282 1690962 1691358 1682936 1666478 1676454
787.78 1695156 1680762 1666566 1660330 1679134 1696774
793.57 1685920 1690278 1725664 1782830 1849384 1896310
799.35 1904158 1962254 2051946 2111798 2179882 2251142
805.14 2314356 2385086 2471772 2591990 2708872 2783760
810.93 2887964 2980066 3066900 3178886 3350724 3483122
816.71 3647232 3868284 4149702 4446844 4767778 5132988
822.50 5594992 6244090 7007896 7870146 8895412 10105120
828.28 11601470 13389330 15414320 17677960 20269840 23238000
834.07 26619570 30431290 34658480 39179470 43938630 48832760
839.85 53689360 58312540 62560380 66151880 68982420 71101630
845.64 72912940 74978940 77653750 80393630 80799110 76658180
851.42 71601700 69387490 68523090 67045790 64235970 59933170
857.21 54410820 48245980 41901780 35937760 30572020 25862180
862.99 21830940 18447770 15543090 13092300 11026680 9321124
868.78 7896108 6716464 5762060 5014838 4420652 3989346
874.57 3642944 3367212 3128644 2945140 2836766 2748166
880.35 2673970 2669664 2687620 2749206 2811924 2870822
886.14 2977128 3170346 3493970 3711088 3507764 3345152
891.92 3451460 3613958 3807778 4026822 4205524 4441766
897.71 4743562 5088950 5469024 5891088 6340122 6803952
903.49 7333312 7918800 8459314 8936684 9344276 9665542
909.28 9871740 9991870 10056590 10170240 10386880 10741830
915.06 11055100 11010460 10760090 10748110 11010280 11201710
920.85 10998130 10519630 10150690 9870576 9642790 9533424
926.63 9528356 9667742 9960742 10394370 10968250 11702770
932.42 12568420 13613450 14852140 16317140 18079710 20188220
938.21 22639060 25476150 28792490 32648440 37023770 41963630
943.99 47483930 53658240 60507890 68011650 76146130 84848020
949.78 93750420 102431200 110383300 117038800 122079000 125431500
955.56 127377200 128562800 130012600 132566300 135433300 135696600
961.35 131204200 123420000 116572600 113116500 110948200 107138500
967.13 100254000 90334540 78287620 65464480 53112690 42192760
972.92 33148450 26065630 20736720 16822770 13990690 11916710
978.70 10319460 9109476 8178330 7444346 6876764 6427088
984.49 6038990 5719500 5476820 5306066 5153168 5055866
990.27 4957928 4909836 4906788 4970448 5056892 5156744
996.06 5308968 5517550 5784324 6129620 6516232 6951056
1001.85 7451970 8053782 8743520 9482192 10277860 11182090
1007.63 12202470 13345260 14601080 15994110 17586300 19379740
1013.42 21297220 23321150 25414380 27466270 29344020 30922100
1019.20 31890400 32041410 31789100 31588110 31785650 32742650
1024.99 34110980 33823560 31510090 30097410 29978910 30070660
1030.77 29857600 29215340 28056790 26552480 24983570 23575600
1036.56 22430960 21656950 21247460 21177790 21410230 21945590
1042.34 22750960 23863150 25194420 26771810 28607150 30746000
1048.13 33139610 35844040 38913290 42435630 46447440 51071070
1053.91 56307540 62341350 69343280 77418220 86648300 97233920
1059.70 109328100 123134000 138751600 156582100 176745300 199332900
1065.48 224432300 251781700 281122800 312293600 344978900 378843400
1071.27 412914500 446741800 479801700 510450000 536382700 556217500
1077.06 569169400 577284900 583423000 589635000 595938900 600069500
1082.84 596589100 582012000 553766400 520371200 492341000 467775800
1088.63 442440400 412153600 374515700 330322800 282539700 235293200
1094.41 193191600 158983000 133882900 117513000 108708300 106009800
1100.20 108132600 113896700 122619100 133851800 147345400 162716600
1105.98 179947300 198849200 218970000 239990900 261871100 284247300
1111.77 306810300 329118100 350501900 369816100 385694000 397113400
1117.55 403582200 405943600 405698200 403903000 400538000 394454400
1123.34 382530200 362885200 340646800 322773200 307364800 290408400
1129.12 269956800 245400100 218097600 189963600 163105700 138991800
1134.91 118317900 101297200 87889710 77652980 70133700 64643540
1140.70 60718420 57984160 56221610 55445780 55444840 55937510
1146.48 56836900 58021340 59399490 60885340 62466340 64045370
1152.27 65599880 67023720 68266020 69404480 70478020 71421740
1158.05 72151540 72630160 72874500 72644620 71984740 71146720
1163.84 70271310 69407280 68534580 67688900 66960860 66364620
1169.62 65960030 65733810 65634050 65647680 65872870 66336060
1175.41 67166940 68419540 70059860 72169580 74982190 78649200
1181.19 83344890 89258270 96601060 105616900 116723600 130279600
1186.98 146478100 165520800 187671400 213151300 241777000 272945400
1192.76 306108200 340623800 375990600 411820000 447998600 484846800
1198.55 522659600 560662700 596613200 627086800 650240700 667805600
1204.34 683108700 697860300 709275100 715246400 714847600 702362800
1210.12 678168600 648877100 617816800 583230800 542930100 495985100
1215.91 444416500 391450300 340660800 295471500 257697400 227505400
1221.69 204381700 187368000 175462000 167546000 162682700 160020700
1227.48 159099700 159487400 160738000 162563000 164671200 166974800
1233.26 169355600 171725500 174123300 176482500 178758200 180936000
1239.05 182835500 184270200 184975500 184891800 184126200 182676700
1244.83 180743500 178528800 176251500 174152800 172293800 170510800
1250.62 168675000 166593600 164158900 161333600 158174900 154730000
1256.40 150907200 146713600 142284900 137650600 132844000 127691700
1262.19 122059400 115816000 109328700 103091800 97162240 91375030
1267.98 85635560 79883360 74230620 68711270 63425300 58499170
1273.76 53943780 49755050 46000160 42638250 39641600 36968920
1279.55 34628600 32559570 30703450 29062890 27640230 26373790
1285.33 25263960 24296230 23419400 22559720 21763310 21041010
1291.12 20387280 19803800 19270020 18758500 18259050 17723880
1296.90 17216460 16766200 16397610 16034720 15641160 15175940
1302.69 14621230 14023490 13449830 12886360 12400370 11970600
1308.47 11611050 11301200 11045230 10824030 10649740 10505010
1314.26 10383120 10275700 10175080 10051160 9949614 9855692
1320.04 9766370 9638620 9486742 9323434 9153128 8995434
1325.83 8896566 8824862 8765036 8643738 8524842 8473176
1331.61 8493880 8539464 8621710 8799332 9110620 9525368
1337.40 10134870 10947710 11989690 13325290 15144900 17582460
1343.19 20783210 24885470 30068610 36523390 44489540 54094460
1348.97 65368150 78343550 92983380 108939200 125877600 143421100
1354.76 161042300 178353100 195260300 211842200 228609200 246609300
1360.54 266647900 287723600 307773100 328872200 349838100 357787200
1366.33 349133600 334994500 319171000 302501900 287811300 274274900
1372.11 257386300 239116400 222680400 207303500 192161600 177622600
1377.90 164523200 153903100 146662400 143568000 144954100 150644000
1383.68 159806200 171000200 182734400 193918000 203877200 211775500
1389.47 215414800 216628200 220570300 228440500 236497600 238047200
1395.25 229344300 216630800 210548900 211915600 213942400 211074100
1401.04 200980900 183939300 162368900 139119000 116534300 96434960
1406.83 79700430 66378460 56154500 48406580 42601910 38170140
1412.61 34769550 32082960 29974410 28324750 27026820 26109800
1418.40 25499320 24364360 23428920 22960600 22722500 22585130
1424.18 22469440 22524250 22777330 23204810 23937990 24937980
1429.97 26056150 27473280 29227100 31145340 33201490 35597500
1435.75 38089110 39894100 41777520 43948080 46127240 48318310
1441.54 50558660 52866420 55230200 57541580 59818820 62388840
1447.32 65008060 66393260 66969310 67452910 67973200 68651380
1453.11 69760400 71296540 73445860 75586140 76953500 78285750
1458.89 79464880 80466640 81451320 82398530 83182630 83516320
1464.68 83260230 83339700 84135820 84705040 84043430 82077200
1470.47 79887350 77797420 75748330 73633720 71775730 70285290
1476.25 68755370 67540740 66822800 66599920 66861410 67465640
1482.04 68205620 68736120 68676670 67918980 66655390 65076600
1487.82 63789090 63722380 64667710 64836590 62068980 57227740
1493.61 53513390 52179220 51351720 49570380 47273440 43971590
1499.39 39791510 35421920 31028330 26876520 23296060 20672770
1505.18 18347160 15971880 13504970 11575770 10187710 9042946
1510.96 8260096 7466252 6704892 6230810 5849662 5675414
1516.75 5317386 4783332 4685126 5038202 5001218 4390220
1522.53 3917670 3769520 3868136 3612646 3456600 3359670
1528.32 3204868 3084082 3097068 3156942 3408878 3389418
1534.11 3035504 2892536 2907078 3355106 4203866 4206506
1539.89 3694850 3604188 3382672 2991468 3111680 3030358
1545.68 2762470 2691872 2728930 2826122 2840322 2703224
1551.46 2701120 2967538 3312590 2982726 2886426 3524330
1557.25 4286516 4311088 4194638 3410372 2833132 2806780
1563.03 2908474 3002448 2929318 2865578 2930740 3212060
1568.82 3454830 3158156 2975126 2981876 3032662 3206872
1574.60 4031694 4250142 3443778 3206356 3221510 3276370
1580.39 3323548 3354702 3372692 3412552 3438846 3455588
1586.17 3454314 3466884 3457442 3433776 3414682 3387814
1591.96 3335276 3283014 3218788 3155014 3099424 3026996
1597.74 2942048 2833780 2734226 2621200 2509082 2398490
1603.53 2282264 2174484 2108802 2045162 1986692 1941746
1609.32 1878374 1803586 1786596 1764528 1756490 1837222
1615.10 2512790 2739042 1981160 1730712 1737214 1748232
1620.89 1794878 2052956 2160498 1919900 1822404 1910390
1626.67 2082330 2063418 1998116 2038814 2097026 2160624
1632.46 2272954 2758106 3448722 3184452 2778372 2728944
1638.24 2683198 2763002 2833122 2920306 2971468 3048438
1644.03 3438224 3969490 3790846 3598598 3422066 3300004
1649.81 3399530 4266660 5377882 4969710 3920544 3360970
1655.60 3163002 3114986 3060204 3033260 2994152 3042724
1661.38 3248690 3205958 2904178 2841472 2793260 2821976
1667.17 2992444 3343026 3164652 3004706 2959820 2831976
1672.96 2968552 3489196 3465458 3046498 2983432 3063668
1678.74 3207446 3297044 3333046 3654976 4322284 5140312
1684.53 4726506 3932878 4000494 4157338 4321116 4436932
1690.31 4542314 4647788 4803872 5043476 5998954 6532808
1696.10 5705758 5372008 5823498 6707908 6402908 5469022
1701.88 5181640 5278658 5274334 5101452 4908848 4557260
1707.67 4342948 4229786 4076720 3808508 3589336 3430102
1713.45 3408406 3245644 3216256 3662812 3330414 2673972
1719.24 2350746 2253024 2219708 2225860 2206130 2150818
1725.02 2149044 2155884 2166830 2236062 2364256 2358790
1730.81 2410448 2949554 3623136 3610868 3062618 2822192
1736.60 2900190 3035658 3373170 3334972 3174004 3446016
1742.38 3994666 4158212 3853674 3730990 3856624 4094138
1748.17 4307510 4515640 4904574 4738998 4385070 4325522
1753.95 4281916 4343008 4456230 4397898 4312322 4192250
1759.74 4147032 4209378 3901274 3531854 3348348 3162402
1765.52 3010880 3037206 3008568 2668462 2570196 2703572
1771.31 2965936 2757506 2242410 2151688 2117026 2042754
1777.09 2032122 2082190 2176190 2261884 2247502 2302056
1782.88 2455820 2699160 2781932 2852594 3030248 3241518
1788.66 3498902 3861642 4278868 4784572 4909488 5015530
1794.45 5413614 5828330 6249774 6707082 7242104 7676320
1800.24 8077714 8478254 8779476 9032642 9272682 9462472
1806.02 9631724 9767592 9868966 9985054 10013350 9866100
1811.81 9665982 9425718 9253640 9105746 8897298 8555348
1817.59 8083790 7529606 6973516 6436486 5961274 5554784
1823.38 5330544 5162268 4835206 4573210 4435216 4399480
1829.16 4319614 3993348 3743274 3610838 3477368 3303248
1834.95 3122444 2944508 2767496 2594914 2452426 2321800
1840.73 2262590 2266616 2558740 2614168 2260556 2168370
1846.52 2203926 2213966 2210890 2231110 2238048 2262452
1852.30 2289328 2305614 2314620 2340420 2359928 2382198
1858.09 2392488 2397524 2389238 2363232 2342652 2322436
1863.88 2306896 2319230 2325866 2336706 2396518 2343336
1869.66 2137504 2028558 1977728 1940102 1902078 1862882
1875.45 1814594 1758078 1723918 1716582 1703630 1698350
1881.23 1690764 1695832 1725834 1748372 1755970 1785062
1887.02 1839512 1964590 2041612 2026830 2078512 2174588
1892.80 2278026 2394862 2494714 2590684 2715442 2855644
1898.59 3013318 3174900 3354330 3551114 3781592 4028910
1904.37 4288054 4575396 4902052 5230716 5584858 5973634
1910.16 6354630 6760358 7193158 7627270 8075976 8543020
1915.94 9097236 9707968 10124740 10501510 10941910 11372780
1921.73 11809540 12133870 12359380 12541570 12649350 12660310
1927.51 12596830 12472610 12301910 12070940 11791940 11427740
1933.30 10990680 10490760 9947386 9400732 8899474 8371302
1939.09 7766864 7090546 6418444 5697340 4955048 4366042
1944.87 3926450 3585840 3365128 3244214 3168682 3125468
1950.66 3118854 3150648 3210534 3288632 3374286 3477520
1956.44 3611104 3725754 3845288 3986672 4114282 4223932
1962.23 4324686 4414244 4491978 4547444 4599776 4590050
1968.01 4550760 4513310 4462498 4395696 4295884 4170070
1973.80 4005520 3853322 3724642 3572128 3395344 3186062
1979.58 2949968 2722544 2513680 2313158 2139690 1990530
1985.37 1854860 1734890 1637268 1549718 1471040 1431380
1991.15 1402724 1319336 1245340 1201000 1182116 1156498
1996.94 1126326 1109364 1092076 1073130 1059712 1055722
2002.73 1053368 1042760 1039598 1044454 1060438 1064702
2008.51 1059120 1060888 1072820 1070096 1068588 1081694
2014.30 1102946 1124944 1142312 1145760 1146246 1163054
2020.08 1178476 1194778 1229828 1261318 1295758 1330834
2025.87 1378234 1420782 1464108 1518394 1579970 1641202
2031.65 1713530 1791024 1876750 1979562 2083766 2188888
2037.44 2309922 2433986 2570490 2699616 2819992 2941562
2043.22 3060288 3177298 3288664 3393914 3486030 3568684
2049.01 3635000 3675514 3705242 3708364 3692380 3657282
2054.79 3610660 3532326 3427348 3292052 3122602 2934120
2060.58 2740378 2564122 2384848 2196884 2032688 1864674
2066.37 1708910 1570510 1455880 1362292 1291158 1239076
2072.15 1212902 1180974 1161198 1156406 1157562 1167760
2077.94 1194522 1232858 1267464 1294880 1333510 1368986
2083.72 1399646 1452310 1513906 1572736 1647134 1727858
2089.51 1789884 1847124 1915880 1982394 2074974 2158134
2095.29 2232062 2309836 2402188 2468650 2532862 2609110
2101.08 2694474 2763502 2816420 2854220 2895140 2914626
2106.86 2915262 2879100 2814452 2726860 2624618 2528984
2112.65 2457740 2377092 2298862 2209710 2123048 2048524
2118.43 1980896 1914180 1859092 1818394 1800160 1786956
2124.22 1777388 1773670 1782738 1796512 1811770 1828812
2130.01 1865240 1889662 1908034 1911468 1929602 1968640
2135.79 2013330 2048778 2079332 2087978 2091756 2093550
2141.58 2113210 2133718 2153680 2162540 2179678 2197290
2147.36 2208364 2229068 2258806 2276568 2309352 2364610
2153.15 2433770 2495064 2548478 2592814 2653634 2707630
2158.93 2755984 2811566 2878248 2935712 2972640 3009226
2164.72 3066166 3125846 3175546 3200568 3216494 3251364
2170.50 3301442 3333946 3367208 3412948 3464272 3526126
2176.29 3588792 3633324 3689956 3767984 3862738 3974478
2182.07 4099474 4230526 4366726 4500710 4640372 4777250
2187.86 4932734 5092602 5231792 5366664 5492864 5576648
2193.64 5627504 5667490 5678010 5665780 5644272 5591820
2199.43 5527430 5436358 5318258 5168650 5004938 4822250
2205.22 4632218 4422948 4204642 3994626 3784438 3550928
2211.00 3337644 3140906 2959240 2805658 2658090 2517024
2216.79 2405758 2323190 2271556 2230152 2209004 2191730
2222.57 2196664 2210234 2225124 2242310 2269760 2297674
2228.36 2327472 2388608 2454490 2513662 2585956 2644096
2234.14 2698154 2748358 2784608 2812216 2832176 2824202
2239.93 2820146 2803312 2787096 2763992 2723646 2664648
2245.71 2590090 2518868 2460170 2409606 2382080 2364746
2251.50 2342518 2300342 2280768 2280382 2296494 2328610
2257.28 2391448 2479514 2584546 2683700 2792450 2902986
2263.07 3038844 3193814 3352514 3466488 3573710 3702474
2268.86 3819642 3926768 4032282 4098420 4162810 4206162
2274.64 4210886 4196264 4191778 4151676 4090462 4023912
2280.43 3957112 3887600 3808324 3715522 3631232 3523490
2286.21 3411464 3271764 3113628 2973422 2852320 2744610
2292.00 2651474 2540102 2417076 2286852 2185430 2098976
2297.78 2000408 1888388 1801588 1737984 1695706 1662988
2303.57 1644814 1627028 1622878 1621222 1645836 1671346
2309.35 1696816 1733204 1776106 1812924 1846614 1890976
2315.14 1925636 1983074 2036404 2093312 2163086 2233850
2320.92 2296984 2354448 2402212 2462712 2516994 2568884
2326.71 2640664 2699376 2745330 2798276 2843404 2890968
2332.50 2940918 2948084 2949844 2978060 3017246 3037356
2338.28 3023192 2996810 2951016 2895304 2842178 2790448
2344.07 2740026 2692946 2640156 2574934 2508528 2457050
2349.85 2404118 2346116 2302862 2259290 2194962 2120316
2355.64 2055768 1971322 1887710 1828500 1788156 1753050
2361.42 1740378 1749052 1761610 1758894 1764694 1786208
2367.21 1815600 1842996 1879132 1937466 1997370 2027550
2372.99 2052718 2080086 2129442 2168474 2208594 2264052
2378.78 2294918 2303508 2318232 2332380 2347476 2339590
2384.56 2335040 2331230 2319832 2297738 2263474 2216120
2390.35 2197276 2182580 2138174 2085506 2045208 2017040
2396.14 1989120 1937776 1894030 1877524 1872382 1865284
2401.92 1851030 1836176 1837300 1843856 1837604 1819626
2407.71 1816506 1811062 1811420 1808426 1802738 1783232
2413.49 1784710 1766166 1739364 1729264 1706054 1690878
2419.28 1688876 1676066 1687736 1697960 1700716 1715100
2425.06 1744518 1779484 1817594 1886664 1962076 2022018
2430.85 2102668 2185546 2254646 2331072 2404822 2485886
2436.63 2575288 2646382 2721750 2785524 2841918 2897906
2442.42 2947652 2978328 2990508 2980886 2966570 2961158
2448.20 2928526 2858314 2803650 2753900 2688548 2613212
2453.99 2552376 2476688 2421786 2373626 2322680 2271924
2459.77 2232322 2175186 2105666 2045406 1996404 1948052
2465.56 1909776 1872408 1832418 1805024 1791510 1768780
2471.35 1750528 1726272 1701750 1684212 1677156 1649982
2477.13 1608100 1560918 1524514 1475246 1441942 1414946
2482.92 1393760 1370812 1338050 1311718 1303054 1284202
2488.70 1252870 1235000 1228066 1213250 1191608 1157752
2494.49 1131900 1095874 1054314 1024592 1001746 978248
2500.27 965050 932226 887794 859850 851324 837486
2506.06 831230 833962 821930 828944 840806 846488
2511.84 840290 844400 871444 888338 903758 909232
2517.63 921148 922646 928926 932180 928368 918122
2523.41 912236 900016 899184 911778 928426 929934
2529.20 914830 904408 910292 899314 899042 891246
2534.99 905132 916302 929268 943410 966538 987754
2540.77 1010492 1026432 1052110 1088292 1139706 1167686
2546.56 1194468 1248972 1293590 1320730 1348666 1376288
2552.34 1427894 1484088 1524216 1546568 1589200 1636026
2558.13 1677656 1701478 1726152 1760324 1794622 1819338
2563.91 1850504 1877956 1911420 1939368 1972270 1997532
2569.70 2022912 2047424 2074522 2071902 2077050 2104264
2575.48 2140018 2172764 2211498 2223144 2239528 2273322
2581.27 2308058 2343214 2388166 2437758 2492652 2552180
2587.05 2619544 2715522 2838540 2932252 3030490 3137334
2592.84 3276730 3440574 3594810 3757966 3951780 4144046
2598.63 4338830 4541364 4756076 4972230 5200084 5435412
2604.41 5709544 5968204 6232972 6509722 6803248 7115144
2610.20 7421566 7709218 8010712 8297492 8577874 8878386
2615.98 9163924 9396982 9606336 9816738 10017700 10168780
2621.77 10316430 10465280 10557550 10593590 10603830 10541350
2627.55 10438600 10291970 10077720 9834508 9601884 9348962
2633.34 9056256 8745336 8444040 8138206 7832690 7546662
2639.12 7269030 6981626 6729988 6484756 6247430 6049984
2644.91 5884052 5733328 5614644 5516404 5410690 5365468
2650.69 5337528 5264180 5238178 5234962 5225166 5202454
2656.48 5212920 5237270 5237514 5221580 5215166 5221816
2662.27 5248130 5263612 5264012 5251396 5240440 5211306
2668.05 5196764 5184528 5166328 5126794 5104630 5096324
2673.84 5087142 5067430 5058284 5033772 5014322 4999256
2679.62 4994628 5008298 5022514 5021420 5047600 5048068
2685.41 5036200 5038886 5061202 5081572 5114708 5147812
2691.19 5196114 5254134 5305046 5363726 5448822 5536608
2696.98 5655036 5798810 5972980 6179882 6429788 6724694
2702.76 7073716 7442636 7877026 8378586 8936612 9544556
2708.55 10200760 10888860 11620320 12357650 13122760 13899540
2714.33 14684450 15441930 16170150 16918880 17676230 18319150
2720.12 18799530 19124130 19408940 19791190 20246110 20653840
2725.91 20995630 21305330 21625200 21899760 22068170 22144380
2731.69 22180690 22183330 22102320 21952070 21804580 21676570
2737.48 21577070 21467210 21322270 21122780 20869160 20568100
2743.26 20281730 19967980 19537760 18997180 18463900 17970730
2749.05 17549410 17197410 16826130 16441530 16115910 15802350
2754.83 15559670 15420650 15337110 15268350 15279650 15404630
2760.62 15643270 15956660 16329370 16680410 17000360 17301980
2766.40 17630450 18035770 18430470 18779090 19147430 19449980
2772.19 19680100 19911560 20159200 20336060 20340620 20210510
2777.97 20067700 19966740 19928170 19894010 19825540 19684870
2783.76 19494680 19249700 18980750 18699970 18422320 18181320
2789.54 17996700 17804120 17638190 17509930 17444310 17401300
2795.33 17383950 17398190 17467470 17566730 17780430 18075350
2801.12 18403220 18796020 19288540 19851920 20443740 21031780
2806.90 21614180 22185860 22775440 23394000 24116090 24914590
2812.69 25752970 26569120 27322840 28116840 28979720 29862420
2818.47 30736300 31583610 32384990 33163450 33930300 34668630
2824.26 35396010 36098520 36797310 37519860 38323980 39221160
2830.04 40168300 41152710 42207450 43325340 44517690 45788170
2835.83 47152140 48533930 49985270 51510910 53005760 54464850
2841.61 55999860 57564350 59148610 60735790 62442400 64289540
2847.40 66230490 68255340 70360170 72534370 74836060 77315500
2853.18 79938450 82718900 85779980 89208320 92984750 97119490
2858.97 101707100 106889800 112801800 119325700 126490500 134347500
2864.76 142978300 152417200 162611400 173554500 185203900 197481400
2870.54 209987600 222442300 234849400 246985700 258810500 270973700
2876.33 284402400 299554100 314837000 327121800 335352900 341640800
2882.11 348018200 354536000 360708800 365863300 369694000 372391100
2887.90 374486900 376369800 378199900 379973200 381926800 383928200
2893.68 385833600 387900200 389188600 388654200 386245100 382207600
2899.47 377119800 371415400 365284900 359004600 352753800 346577100
2905.25 340362800 333537400 325797200 317899700 310904700 304518300
2911.04 298085200 291307000 284195400 277117000 270450200 264128200
2916.82 258080500 252532500 247417300 242558300 238379800 235334300
2922.61 233731300 233682400 235366600 238812100 244236400 251390800
2928.40 259946900 269725800 280141900 290402800 300053700 308207800
2934.18 314838300 320664000 326528700 333319200 340763400 347019900
2939.97 350691600 351498900 350371200 348970200 348054700 346593000
2945.75 343374100 337955100 330597100 321453600 311373600 301169700
2951.54 291485500 282931800 275825600 270027800 265839100 263580500
2957.32 263575300 266460300 273216500 284570600 301315800 323799400
2963.11 353225800 389924500 433695100 484287600 540815700 601098100
2968.89 662813800 724100200 786748200 855134600 937271800 1042435000
2974.68 1157427000 1222167000 1237025000 1280620000 1354655000 1417579000
2980.46 1459966000 1484962000 1489001000 1478653000 1451648000 1405841000
2986.25 1342524000 1266023000 1190158000 1115848000 1034853000 945938900
2992.04 852919000 759192600 667056300 579467800 498559700 425702300
2997.82 360725800 303266700 253225500 210261800 173828800 143443500
3003.61 118407000 98169820 82081060 69527480 59793370 52432280
3009.39 46915480 42842920 39915040 37835540 36366980 35392960
3015.18 34713400 34283820 34009650 33850270 33713410 33582200
3020.96 33453220 33284540 33023730 32710020 32309150 31814760
3026.75 31228270 30518260 29691940 28822260 27851770 26798740
3032.53 25660940 24444790 23195450 21963920 20721400 19498570
3038.32 18311050 17183260 16089590 15050560 14112030 13226610
3044.10 12345770 11571120 10842860 10181150 9579504 9077284
3049.89 8649684 8272804 7931722 7655638 7427864 7262888
3055.67 7115530 6978262 6888304 6850814 6794868 6732336
3061.46 6709456 6738834 6774842 6793952 6803788 6847280
3067.25 6932006 7004696 7063644 7142078 7226760 7349746
3073.03 7458476 7561326 7633250 7696206 7785902 7921696
3078.82 8014034 8077280 8177878 8255142 8255150 8295504
3084.60 8385454 8443474 8378382 8299274 8251650 8213036
3090.39 8137882 8022822 7918444 7805352 7646158 7517462
3096.17 7363990 7188378 6978250 6800628 6648750 6463412
3101.96 6256744 6080362 5936618 5761808 5611652 5482584
3107.74 5363350 5270822 5126226 5024460 4955646 4864614
3113.53 4771906 4705496 4661144 4636716 4609044 4582936
3119.31 4541300 4506462 4515976 4518268 4494200 4468878
3125.10 4449626 4443544 4427750 4398862 4378924 4376146
3130.89 4384510 4408914 4418954 4395492 4356344 4376002
3136.67 4401630 4405164 4419512 4447234 4472044 4494014
3142.46 4512686 4533520 4585684 4638944 4673884 4723938
3148.24 4787124 4893444 4963042 5032532 5129042 5237594
3154.03 5342182 5442398 5562104 5708106 5865436 6046234
3159.81 6230322 6415572 6576730 6768736 6975294 7173496
3165.60 7395732 7632170 7876336 8110322 8327822 8548980
3171.38 8778580 9017048 9225858 9383594 9533952 9722266
3177.17 9923516 10070100 10145600 10220660 10266440 10292490
3182.95 10303170 10253640 10170700 10104900 10016810 9896646
3188.74 9766102 9649168 9520840 9375066 9210266 9059140
3194.53 8914468 8777978 8641736 8512552 8428394 8343688
3200.31 8264798 8213576 8217820 8223960 8200964 8214842
3206.10 8256452 8289050 8366424 8481320 8588726 8668948
3211.88 8760556 8883774 8999130 9117360 9212604 9305492
3217.67 9393096 9489918 9599424 9678432 9767896 9845278
3223.45 9916438 9961494 10009960 10072170 10088910 10101180
3229.24 10125140 10115890 10051020 9979604 9929868 9848030
3235.02 9724304 9603852 9445462 9274708 9079634 8850646
3240.81 8605414 8360896 8086466 7772980 7435188 7147924
3246.59 6869862 6514158 6161736 5836370 5527168 5214318
3252.38 4900404 4583790 4284858 4042048 3808260 3583936
3258.17 3365440 3144882 2985250 2848450 2687672 2585620
3263.95 2493008 2392834 2286276 2234292 2184446 2100788
3269.74 2064154 2043996 2021660 1976940 1938942 1943840
3275.52 1918122 1865716 1858090 1837276 1814462 1788682
3281.31 1777392 1771336 1753092 1773582 1770516 1737022
3287.09 1720470 1705318 1704954 1717576 1710638 1710918
3292.88 1748334 1809134 1865316 1896636 1921452 1962130
3298.66 2042268 2124230 2199272 2324792 2442064 2519822
3304.45 2618104 2771552 2972566 3130460 3257920 3414572
3310.23 3563566 3691482 3825432 3938868 3976978 4036450
3316.02 4119386 4196056 4222908 4181850 4143568 4131162
3321.80 4133306 4129614 4095844 4027188 3949996 3872000
3327.59 3789760 3665936 3542840 3456346 3367752 3207206
3333.38 3059932 2950930 2804870 2670196 2574542 2469822
3339.16 2340706 2182444 2029008 1916590 1827888 1723486
3344.95 1615114 1534212 1453440 1344176 1260496 1206512
3350.73 1139762 1068062 1040120 1027422 957844 873932
3356.52 819808 814076 823872 805492 785130 755176
3362.30 776106 776750 720796 694868 681100 662848
3368.09 660182 695170 720742 718386 717644 697470
3373.87 655122 673888 716630 723866 721302 703894
3379.66 689350 733908 761332 744642 711754 737666
3385.44 803232 847338 824918 794234 796360 794210
3391.23 807080 839756 877422 911598 932224 942310
3397.02 934740 920350 956378 986714 975100 1004644
3402.80 1052222 1070110 1105194 1120502 1147172 1160664
3408.59 1193450 1271194 1338732 1407366 1478146 1527230
3414.37 1611188 1738202 1876036 1970578 2071832 2209152
3420.16 2336998 2480284 2628674 2747608 2830394 2934830
3425.94 3038254 3119242 3215934 3343460 3416698 3410430
3431.73 3426642 3430402 3387010 3382312 3372788 3330416
3437.51 3237702 3115864 2988240 2868364 2754280 2641988
3443.30 2496922 2350618 2247728 2161042 2039998 1893852
3449.08 1754634 1627228 1520632 1449244 1350382 1242364
3454.87 1172562 1127904 1089028 1036068 982876 963458
3460.66 956982 947764 923628 883204 875394 875780
3466.44 897782 913028 907952 921372 992294 1054676
3472.23 1075636 1092514 1086888 1101096 1166846 1199266
3478.01 1210544 1275358 1330152 1352012 1348262 1339330
3483.80 1344488 1323530 1345448 1352776 1327020 1319182
3489.58 1290344 1195740 1134722 1114676 1082740 1025600
3495.37 952906 871942 798222 756610 709854 664688
3501.15 625644 585464 528504 419492 345688 323196
3506.94 312958 313332 273078 194572 159490 141564
3512.72 142506 120556 89438 68192 68932 52056
3518.51 36504 47506 57784 77346 113412 99116
3524.30 64282 55514 72292 77042 25696-6116
3530.08 12486 13346 9928 6736-19600-2630
3535.87 37310 25288 3238-728 23610 29150
3541.65 33374 14780 45848 86660 128482 116306
3547.44 38416 18708 45338 93830 134394 90566
3553.22 68820 67898 51988 22950 19812 59256
3559.01 88540 54436 47842 64218 64670 95724
3564.79 203440 230996 253412 198592 49596 7034
3570.58-8970 8508 7380 13706-910-5828
3576.36 2786 3070 16432 25790 9336 25844
3582.15 57198 66082 82606 218550 274560 264188
3587.94 274932 58082-23192 2198 46312 65692
3593.72 104318 108184 44792 29216 41538 44158
3599.51 72858 44078 4632-4688-34226-37454
3605.29 50440 118174 185314 366116 217636 76478
3611.08 220644 241498 166752 168086 108498 145794
3616.86 272664 369400 468328 264236 157134 159064
3622.65 176416 156382 209812 265234 517304 945390
3628.43 1051450 655208 344512 323924 376014 372848
3634.22 296218 267456 254300 270724 275202 279536
3640.00 361046 529294 586164 452864 396774 465862
3645.79 675268 747042 952604 1061296 837062 693374
3651.57 437014 335538 333826 604036 829780 535696
3657.36 311172 299310 303172 314412 309522 286482
3663.15 279546 294754 319850 327630 484266 669330
3668.93 927788 1179088 644228 365870 542074 1054620
3674.72 1420076 1011464 488848 490444 534244 501770
3680.50 465336 479120 480460 542682 544772 547242
3686.29 838668 1550248 1297986 862746 976648 865486
3692.07 718020 720296 716738 739608 780686 822970
3697.86 864708 910376 1053636 1269034 1201536 1133684
3703.64 1200796 1310308 1415100 1503562 1700726 1917064
3709.43 1867020 2167610 2440408 2041000 1875624 1932068
3715.21 1939272 1922492 1966476 2042106 1992302 1962604
3721.00 2053220 2001208 1836572 1774062 1773354 1732536
3726.79 1472534 1299466 1210130 1237044 1566270 1592776
3732.57 1235414 1374986 1433546 1482180 1219530 919098
3738.36 775970 760824 793878 750484 1083196 2179868
3744.14 2075562 968086 705984 893856 1600372 1553314
3749.93 1070140 1656608 1492178 755284 605636 677874
3755.71 754226 653376 659866 783300 693416 559630
3761.50 542500 528234 572450 699250 694704 577044
3767.28 578476 791852 900406 655112 573052 556492
3773.07 586822 603938 628572 637242 683178 844778
3778.85 964068 816878 761614 764812 830134 893088
3784.64 902704 879006 917910 968066 975772 962002
3790.43 983230 991310 1042408 1086314 1186976 1339242
3796.21 1310968 1186458 1205586 1418840 2098230 1987982
3802.00 1394730 1252714 1191316 1407356 1847156 1594788
3807.78 1179466 1158986 1161414 1183368 1152988 1166716
3813.57 1285482 1940862 2072856 1379022 1214770 1338086
3819.35 1700362 1956580 1700124 1359918 1317110 1338540
3825.14 1456870 1522406 1434874 1372138 1410604 1604956
3830.92 1719166 1513094 1537424 1759572 1686454 1816688
3836.71 2464686 2107052 1591746 1622148 1522562 1419604
3842.49 1537598 1486048 1340932 1298820 1261300 1277568
3848.28 1303766 1356226 1763622 2228036 2335622 2999754
3854.07 2303760 1425320 1430500 1402552 1343988 1308296
3859.85 1395772 1527584 1467774 1510750 1806160 1751534
3865.64 1475704 1460642 1676342 2157528 2207392 1772986
3871.42 1638876 1800288 1952924 1828042 1786478 1830984
3877.21 1846310 1998036 2278166 2275672 2146370 2214912
3882.99 2274060 2582916 2879256 2593324 2414216 2457482
3888.78 2548130 2831604 2944942 2686088 2625912 2633478
3894.56 2637570 2605664 2651974 2807836 2949838 2738460
3900.35 2801006 2813598 2687656 2783944 2568986 2367252
3906.13 2227004 2104796 2040666 2009908 1977386 1950916
3911.92 1884952 1829162 1824740 1841192 1927868 1902856
3917.70 1769714 1813232 1830204 1775306 1802874 1816470
3923.49 1849186 1866364 1814076 1794318 1845128 1908488
3929.28 1928262 1978456 2087764 2093548 2059544 2051276
3935.06 2053980 2074330 2116472 2168598 2205548 2261802
3940.85 2360332 2423298 2375052 2378818 2435080 2486084
3946.63 2530352 2553158 2642010 2689416 2663708 2662068
3952.42 2685462 2705048 2751310 2773946 2765326 2780896
3958.20 2812174 2822472 2835738 2820922 2777602 2755418
3963.99 2730236 2706964 2667328 2657500 2657020 2596680
3969.77 2562672 2574726 2535562 2472744 2447004
##END=
