##TITLE=Ethyl tert-Butyl Ether
##JCAMP-DX=4.24
##DATA TYPE=INFRARED SPECTRUM
##CLASS=IUPAC A
##ORIGIN=NIST, Anayltical Chemistry Division, 301-975-3108
##OWNER=COPYRIGHT (C) 1998 by the U.S. Secretary of Commerce
##DATE=98/10/1
##$SPECTRA VERSION=1.00
##$UNCERTAINTY IN Y=2.8 % relative (B=1.9E-04,C=3.0E-09,D=2.7E-14)
##CAS NAME=tert-Butyl Ethyl Ether
##CAS REGISTRY NO=637-92-3
##MOLFORM=( C H3)3 C O C2 H5
##MP=-94 C
##BP=73.1 C
##$NIST SOURCE=QUANT-IR
##SPECTROMETER/DATA SYSTEM=IFS66V (Bruker)
##INSTRUMENT PARAMETERS=KBr Beam splitter; MCT Detector; Multipass cell
##STATE=gas
##SAMPLE DESCRIPTION=ETBE Primary Gas Standard
##PRESSURE=101.3 kPa
##TEMPERATURE=23 C
##SAMPLING PROCEDURE=1 L/min Flow
##RESOLUTION=0.9640
##DATA PROCESSING=3-Term B-H Apodization
##XUNITS=cm-1
##YUNITS=(micromol/mol)-1m-1 (base 10)
##XFACTOR=1.0
##YFACTOR=9.0949E-13
##DELTAX=0.4820
##FIRSTX=575.169
##LASTX=3975.077
##FIRSTY=-1.18E-07
##MAXX=3974.59
##MINX=575.17
##MAXY=.0013573
##MINY=-5.85E-07
##NPOINTS=7053
##XYDATA=(X++(Y..Y))
575.17-129892-196576-137118-55428-166516-309744
577.58-332466-304482-245194-178652-48324 17496
580.47-261280-624150-499590-232198-197124-196150
583.37-167000-109862-150110-327644-494750-643944
586.26-557276-226122-50088-139124-279706-257774
589.15-138838-119502-178554-147356-56486-15924
592.04 3062-65660-160802-88620 37780-35566
594.94-228614-313500-277042-199886-127194 4820
597.83 97288 19648-52658-7926-46728-187350
600.72-162822-73978-55934-49948-79970-99116
603.61-97564-131012-162030-113934-26306-28654
606.51-87318-50334 94526 167390 156264 164530
609.40 206588 228840 174644 139676 149248 102124
612.29 54978 88178 96652 29590 4552 70698
615.18 153418 157804 124466 129590 134288 137706
618.08 144202 107756 44310 46964 121794 159094
620.97 149244 160402 182450 145490 79076 59304
623.86 104950 160614 144392 123464 151232 151040
626.76 152818 160798 132716 138988 158924 145648
629.65 150224 195684 248000 247800 196188 116170
632.54 35432 40282 110506 168014 175982 156716
635.43 177634 179978 109914 47302 56472 98880
638.33 109318 108950 103824 63992 29344 26042
641.22 33408 62612 116682 109618 33430-11450
644.11-1114 23534 20646 8218 72692 184038
647.00 191100 108376 64266 96438 120418 84368
649.90 36182-2516 4634 63790 109484 101606
652.79 42844-5642 18450 60626 45668 6620
655.68-19586-36460-11532 34948 77238 120472
658.58 115070 71106 51942 14882-38578-36654
661.47 9410 34386 64610 83770 45364 15282
664.36-4108 1232 52386 78280 54878 49792
667.25 98810 116246 103952 128788 128420 72234
670.15 58752 101860 119974 91396 57584 76346
673.04 104590 84848 61308 63758 98358 139316
675.93 99388 27818 38298 99038 143558 166558
678.82 163682 140214 121746 135320 191314 249026
681.72 275170 272934 282730 298942 277390 259894
684.61 264790 282622 330664 363566 387378 402978
687.50 390094 388122 373624 339988 351308 409630
690.40 451534 470756 487672 511354 518068 504118
693.29 539572 602642 599300 563206 570580 620156
696.18 651498 652704 682042 719264 717630 680322
699.07 656122 673206 727274 778130 785432 814698
701.97 883278 908376 901104 929016 997618 1031354
704.86 1027086 1060612 1116234 1166910 1235538 1303078
707.75 1361194 1421432 1452340 1473504 1542372 1657818
710.64 1751850 1788422 1838366 1946866 2088870 2229028
713.54 2345740 2474360 2619342 2730412 2850456 3039920
716.43 3241942 3420268 3609600 3832160 4072090 4301208
719.32 4546090 4829896 5143842 5473964 5805264 6161688
722.22 6558672 6940960 7321396 7821092 8397872 8889208
725.11 9367702 9928340 10489260 11056390 11695960 12367640
728.00 13032680 13746430 14535260 15351820 16191980 17036900
730.89 17859890 18694260 19536800 20349410 21138050 21885590
733.79 22578700 23231470 23813380 24309380 24743450 25095780
736.68 25328600 25473530 25569370 25626740 25667450 25685220
739.57 25746680 25941710 26195900 26478530 26842920 27142640
742.46 27117350 26538710 25331250 23827770 22628120 22003600
745.36 21769570 21693890 21637630 21535180 21373530 21100640
748.25 20623730 19923480 19072880 18126850 17117650 16084280
751.14 15038950 13959180 12856210 11777380 10761220 9853474
754.04 9036324 8265048 7579720 6957164 6373750 5860014
756.93 5385646 4952656 4591378 4276562 4000850 3738842
759.82 3521744 3364362 3207864 3042216 2905116 2816016
762.71 2708204 2545220 2430428 2395854 2360472 2290438
765.61 2211562 2158634 2131152 2112524 2082156 2033422
768.50 2013226 2021452 2021412 2012476 1995700 1985448
771.39 1974834 1955544 1930410 1893166 1861424 1865568
774.28 1884488 1916036 1927822 1880048 1822280 1792972
777.18 1785792 1807152 1822272 1803734 1792904 1791962
780.07 1782330 1791748 1784656 1742518 1729314 1722864
782.96 1701558 1686784 1678958 1689834 1705416 1688350
785.86 1662204 1660290 1667652 1670678 1691666 1705100
788.75 1695186 1681762 1664218 1662658 1669722 1659878
791.64 1650628 1672288 1709382 1710340 1683100 1677880
794.53 1688822 1687902 1690304 1724456 1758864 1779168
797.43 1808610 1850678 1890974 1907082 1904442 1892626
800.32 1901106 1956198 2023038 2061226 2082876 2106806
803.21 2140414 2181684 2215208 2253950 2290862 2306416
806.10 2339690 2391496 2427466 2463628 2510884 2590236
809.00 2679028 2720526 2737516 2773898 2829758 2894274
811.89 2943026 2975440 3026182 3071552 3098250 3160460
814.78 3262008 3366346 3437660 3476382 3530368 3636984
817.68 3762786 3860180 3974812 4150470 4321822 4441256
820.57 4576620 4764430 4953114 5126258 5314956 5556906
823.46 5871998 6239828 6613150 6995974 7401480 7842900
826.35 8343536 8876042 9443288 10072850 10757330 11553040
829.25 12449050 13360030 14332290 15394130 16489070 17621370
832.14 18871830 20235810 21654540 23172230 24825220 26574190
835.03 28404080 30363710 32463130 34626530 36850040 39149370
837.92 41507410 43917880 46360800 48839560 51312270 53715760
840.82 56066360 58363910 60559980 62642670 64563650 66263700
843.71 67748220 69073220 70223840 71153650 71988980 72874740
846.60 73823270 74876520 76138060 77608690 79146290 80594180
849.50 81675880 81697860 79978740 76749460 73352850 70999260
852.39 69791530 69263850 68968740 68639310 68101620 67215290
855.28 65992530 64460160 62490120 60087890 57387180 54483200
858.17 51452060 48283260 45028010 41840580 38775240 35852980
861.07 33087970 30492640 28061420 25763840 23655260 21749770
863.96 20000720 18391570 16886670 15477670 14204670 13051270
866.85 11965660 10973420 10094560 9285826 8539264 7872046
869.74 7251722 6680462 6178326 5735582 5349782 4999764
872.64 4671234 4395466 4173274 3978934 3801532 3638470
875.53 3485116 3356062 3248542 3130434 3010804 2924376
878.42 2874612 2842388 2802886 2744598 2692010 2661758
881.31 2656084 2672180 2679712 2675840 2702042 2748842
884.21 2791756 2824240 2829108 2854036 2913910 2970910
887.10 3043726 3152132 3286010 3479482 3710738 3826762
889.99 3709498 3466666 3318588 3298640 3360836 3463702
892.89 3539762 3603068 3690914 3796362 3927332 4051258
895.78 4121484 4180476 4295664 4443028 4580690 4732200
898.67 4912030 5086362 5261876 5468718 5674496 5875458
901.56 6112760 6352558 6563774 6788614 7040868 7322222
904.46 7629654 7927842 8206912 8469740 8712276 8943766
907.35 9159824 9354490 9532066 9683992 9798326 9878580
910.24 9948574 10006990 10033500 10042030 10081130 10165500
913.13 10253910 10357740 10521470 10738380 10961020 11118860
916.03 11155510 11055300 10862520 10706430 10659770 10697980
918.92 10833340 11033750 11176640 11251500 11244540 11053220
921.81 10756320 10483760 10270740 10144910 10032280 9867096
924.71 9708574 9624910 9573550 9519624 9496380 9510004
927.60 9559216 9647482 9771916 9941612 10150930 10382910
930.49 10631110 10937460 11310630 11694000 12091610 12540730
933.38 13046820 13589680 14173600 14828560 15532080 16269580
936.28 17099840 18043140 19055620 20136270 21316020 22602840
939.17 23961110 25398860 26988360 28734310 30588680 32573970
942.06 34704520 36956920 39339780 41884700 44583600 47401140
944.95 50378830 53575160 56923120 60413760 64098630 67940800
947.85 71914100 76051950 80376180 84832180 89308420 93780260
950.74 98193420 102506600 106682900 110572500 114093900 117239900
953.63 119998600 122320500 124167200 125612200 126712300 127489700
956.53 128052700 128530600 129070100 129830400 130936900 132438500
959.42 134181300 135789800 136710200 136430400 134741100 131709100
962.31 127713700 123292800 119077500 115907600 114046600 112981800
965.20 112167200 111198000 109758800 107579800 104537400 100671900
968.10 95996530 90613790 84695300 78380560 71892860 65405180
970.99 59018060 52907630 47201950 41941130 37164180 32892770
973.88 29118890 25827780 22995260 20567020 18467550 16671900
976.77 15169730 13900160 12808860 11857670 11019020 10272920
979.67 9618000 9068574 8595524 8161430 7764112 7413300
982.56 7122470 6867730 6630986 6419770 6217480 6030118
985.45 5865460 5710552 5567142 5461706 5392560 5312504
988.35 5214186 5136302 5097514 5064184 5008760 4949156
991.24 4910142 4902404 4906496 4899660 4911204 4960270
994.13 5027486 5069914 5085132 5136474 5227838 5309296
997.02 5391942 5508096 5638826 5771932 5933914 6125410
999.92 6321064 6513130 6714378 6936350 7187540 7446752
1002.81 7712506 8034622 8392936 8742818 9097702 9473516
1005.70 9863510 10265690 10691540 11163820 11671170 12188970
1008.59 12734110 13328550 13954760 14587430 15248260 15965810
1011.49 16735980 17555610 18436940 19369380 20319490 21281640
1014.38 22274440 23311680 24365450 25413960 26468390 27495120
1017.27 28463240 29374630 30227350 30991870 31623460 32037560
1020.17 32162060 32072530 31931800 31788670 31639840 31536960
1023.06 31533270 31683830 32030600 32616620 33437390 34309620
1025.95 34840670 34362390 32774490 31154550 30267610 29942590
1028.84 29897150 29974310 30069700 30119440 30064480 29909300
1031.74 29665740 29286690 28763390 28115110 27356640 26546610
1034.63 25743550 24971270 24224330 23531980 22923320 22385450
1037.52 21941790 21606240 21359970 21206510 21141210 21137340
1040.41 21202840 21373570 21622430 21909850 22259940 22710880
1043.31 23245370 23833280 24473210 25169710 25920630 26731030
1046.20 27614440 28572220 29604960 30708730 31877630 33108110
1049.09 34408050 35788640 37267720 38863500 40562120 42366160
1051.99 44299370 46371200 48597670 50991280 53530300 56216420
1054.88 59087840 62196130 65581010 69221220 73103900 77260280
1057.77 81715640 86480790 91579750 97037900 102863300 109101500
1060.66 115793000 122913500 130451400 138461000 147041300 156268200
1063.56 166091600 176462200 187387500 198963300 211253400 224164000
1066.45 237613600 251514500 265917900 280895600 296321000 312103400
1069.34 328229200 344800900 361736100 378826800 395942800 412960000
1072.23 429928900 446782700 463514000 480120200 496117600 511085800
1075.13 524797900 537152400 548065700 557206700 564398200 569835600
1078.02 574014400 577481500 580529800 583374600 586347200 589594700
1080.91 592874800 595998300 599057000 601305700 601130300 597748900
1083.81 592111500 584462100 571998200 554302100 535781600 519209800
1086.70 504757100 492014800 479812500 467802200 455846700 443091200
1089.59 429063000 413271400 395322500 375366800 353733100 330848200
1092.48 306974000 282471500 258088300 234579400 212468900 192124200
1095.38 173824000 157783700 144083800 132710100 123599800 116553500
1098.27 111383000 107914800 105963500 105400400 106036900 107665500
1101.16 110186900 113539000 117590200 122291800 127615900 133552800
1104.05 140087800 147117200 154576500 162476800 170856400 179706700
1106.95 189013800 198710700 208685600 218863300 229232100 239869000
1109.84 250754300 261797200 272982300 284243400 295506900 306818300
1112.73 318109700 329242000 340144700 350720900 360879800 370329100
1115.63 378760800 386223900 392668500 397848000 401600200 404072800
1118.52 405620600 406324800 406254200 405819300 405170800 404099600
1121.41 402660100 400823600 398387600 395217800 390570900 383711200
1124.30 374629900 363481000 351131400 339477800 330136300 322671100
1127.20 315283900 307516100 299526700 290915000 281329300 270547300
1130.09 258615700 245756200 232221100 218221600 203958600 189780200
1132.98 175976800 162708900 150204100 138563900 127753300 117819800
1135.87 108849200 100832700 93722540 87474820 82025100 77296570
1138.77 73270120 69875220 66971660 64457160 62311380 60542180
1141.66 59115890 57902200 56842910 56054640 55592260 55361480
1144.55 55297150 55380980 55582430 55889390 56292560 56796740
1147.45 57373110 57998080 58677320 59384560 60117540 60873820
1150.34 61651780 62470990 63276060 64041240 64822420 65620000
1153.23 66372100 67051520 67684580 68278050 68841610 69407940
1156.12 69974340 70495600 70975210 71451090 71875940 72185780
1159.02 72428720 72648560 72832750 72946360 72915580 72716430
1161.91 72379140 71987460 71595050 71157040 70703310 70265130
1164.80 69829490 69413830 68992010 68526300 68077270 67677970
1167.69 67296170 66944150 66620580 66337160 66115760 65930320
1170.59 65799880 65726010 65667250 65619500 65597990 65618800
1173.48 65696930 65845510 66046460 66285220 66626560 67111300
1176.37 67697410 68367220 69147600 70014700 70960580 72064750
1179.26 73381500 74877350 76570660 78521260 80719950 83178950
1182.16 85964450 89081450 92538170 96389880 100650500 105344200
1185.05 110570500 116405200 122847400 129937400 137702900 146106000
1187.94 155230300 165138500 175781300 187211900 199540300 212740700
1190.84 226734100 241456100 256795700 272682500 289081500 305937700
1193.73 323126300 340520500 358107800 375942800 393873400 411766300
1196.62 429780000 447951200 466200000 484655200 503483200 522633600
1199.51 541844000 560808000 579517600 597427100 613739600 628125500
1202.41 640473900 651061500 660062000 667954900 675624900 683123300
1205.30 690492400 698199200 705311700 710274200 713255600 715554900
1208.19 717287000 716878700 712468200 703931300 692491500 678793100
1211.08 663775400 648857500 634009000 618333000 601631900 583995400
1213.98 564880700 543847900 521066000 496667000 470926400 444530800
1216.87 417939000 391228100 364952300 339862800 316293300 294482600
1219.76 274594900 256701900 240736800 226568900 214234900 203617600
1222.66 194457900 186685200 180251600 174971200 170630500 167138300
1225.55 164445400 162424800 160897600 159788700 159136000 158927500
1228.44 159049500 159389500 159922600 160649700 161548500 162547000
1231.33 163576000 164633900 165763300 166971700 168186200 169358400
1234.23 170525100 171722800 172924500 174116600 175329300 176508400
1237.12 177636100 178752300 179874900 180991300 181997500 182870800
1240.01 183682100 184384900 184865200 185077700 185092300 184968900
1242.90 184701400 184230800 183548900 182732300 181818800 180778100
1245.80 179658800 178556900 177398800 176194600 175113500 174135300
1248.69 173185600 172275100 171398700 170522900 169626100 168704500
1251.58 167719000 166648000 165475400 164203600 162843700 161384200
1254.48 159833100 158196900 156511100 154792200 152959600 150948900
1257.37 148853200 146755900 144570300 142298800 140005800 137668300
1260.26 135302900 132893500 130380300 127744200 125013500 122166000
1263.15 119099400 115848400 112548500 109273400 106098400 103056000
1266.05 100084100 97140110 94237570 91373270 88516900 85639150
1268.94 82752110 79872310 77015430 74208670 71441470 68691460
1271.83 65986320 63360930 60858860 58464350 56137120 53890640
1274.72 51745730 49701910 47761060 45947210 44232220 42590010
1277.62 41049300 39602490 38224240 36926170 35715990 34584560
1280.51 33538630 32545630 31579660 30665960 29823390 29041150
1283.40 28299500 27616990 26979670 26353240 25772630 25247420
1286.30 24745510 24280430 23852280 23422740 22984000 22550810
1289.19 22137730 21749810 21384780 21038600 20699280 20370660
1292.08 20072630 19802260 19538090 19264360 18998610 18757210
1294.97 18519880 18269690 17993060 17716500 17461320 17208400
1297.87 16967850 16753980 16566930 16395830 16223900 16044860
1300.76 15847160 15643850 15433370 15194020 14925420 14624430
1303.65 14313610 14017130 13736380 13456170 13156310 12870010
1306.54 12620610 12394950 12176980 11959910 11768150 11606710
1309.44 11447120 11293340 11160610 11039050 10926950 10821430
1312.33 10721990 10643060 10573180 10504820 10441580 10378210
1315.22 10321080 10275580 10233910 10180390 10113020 10046160
1318.12 9993034 9948266 9902020 9855982 9812196 9770328
1321.01 9717394 9646340 9563208 9481618 9408174 9329306
1323.90 9242178 9151702 9058556 8984374 8936586 8895558
1326.79 8851394 8818758 8803984 8776814 8723596 8648304
1329.69 8566536 8507018 8478792 8470538 8469444 8482956
1332.58 8516344 8548078 8561766 8600342 8680086 8780274
1335.47 8920776 9108602 9292590 9488144 9764930 10116360
1338.36 10495460 10914010 11403750 11961850 12567640 13255950
1341.26 14084990 15066150 16196580 17485890 18964540 20666100
1344.15 22592040 24747330 27174820 29904430 32951380 36327460
1347.04 40083880 44275000 48877480 53876240 59307540 65153760
1349.94 71407420 78115550 85265980 92814820 100691300 108815300
1352.83 117183900 125786100 134561900 143425800 152279600 161084800
1355.72 169806800 178415000 186906800 195295100 203624000 211862200
1358.61 220053300 228428500 237154300 246322100 256053700 266378400
1361.51 277207200 288115600 298304400 307563200 317215900 328421700
1364.40 340356600 351636200 359645200 360892400 356011000 349096700
1367.29 342303800 335320000 327657300 319369000 310736700 302156300
1370.18 294198700 287365200 281435000 275147800 267117900 257506800
1373.08 247720900 238704800 230452700 222592700 214913300 207315500
1375.97 199682000 192080800 184649600 177450800 170579200 164193100
1378.86 158453900 153463300 149323000 146125900 143965100 142963100
1381.76 143138000 144391600 146737700 150171400 154511000 159547600
1384.65 165090400 170946600 176907500 182789800 188578700 194151100
1387.54 199241600 203967100 208539800 212533300 215045600 215858500
1390.43 215833000 216091400 217384100 219957700 223693100 228295100
1393.33 233185100 237411700 239843000 239668900 236425900 230136900
1396.22 222272900 215312900 210914400 209354500 210085400 211980800
1399.11 213734800 214611700 214212100 212098000 208006400 201925300
1402.00 194010700 184548200 173912100 162536900 150830900 139064100
1404.90 127397300 116146600 105654000 96002100 87190670 79241020
1407.79 72172630 65978080 60566190 55834660 51715870 48155720
1410.68 45092480 42431230 40089830 38040690 36252240 34675180
1413.58 33275670 32016450 30892720 29912960 29043710 28266150
1416.47 27618290 27035510 26409990 25923590 25839820 25783520
1419.36 25094320 24198970 23688320 23398170 23146810 22933600
1422.25 22778080 22692000 22670880 22612610 22497650 22426060
1425.15 22436640 22505980 22613730 22754750 22936530 23173000
1428.04 23472680 23867180 24407210 24978560 25454520 25981940
1430.93 26659060 27434700 28288010 29207500 30159860 31132160
1433.82 32137720 33173560 34257580 35468740 36962260 38383220
1436.72 39156160 39747200 40678830 41767020 42860850 43952480
1439.61 45040740 46123480 47209540 48314080 49430520 50547430
1442.50 51682480 52855160 54055930 55239420 56399840 57553610
1445.40 58690560 59806920 60922160 62246020 63895320 65325810
1448.29 66100700 66455080 66711090 66969780 67211410 67447870
1451.18 67708370 67965890 68221270 68583200 69086730 69700680
1454.07 70427040 71255670 72139290 73288090 74827270 75922100
1456.97 76273020 76818310 77634370 78341820 78965940 79486380
1459.86 79964400 80463140 80963380 81453770 81939980 82422080
1462.75 82860860 83209900 83505550 83695530 83517260 83141420
1465.64 83022450 83226030 83644020 84153260 84622810 84897820
1468.54 84808700 84258100 83287170 82074900 80858840 79847030
1471.43 78946210 77774340 76645910 75845480 74792310 73538520
1474.32 72517960 71699610 71033510 70361730 69516500 68674700
1477.21 68006120 67481400 67063880 66761480 66583390 66526680
1480.11 66606570 66829220 67112560 67427220 67823220 68242940
1483.00 68585760 68812260 68893500 68781070 68471390 67982080
1485.89 67356370 66701140 65974290 65060940 64178580 63590300
1488.79 63389470 63555200 64019880 64734130 65325540 65310550
1491.68 64381880 62460000 59790100 56948160 54657660 53169970
1494.57 52304800 52028100 52120640 51661090 50566350 49521520
1497.46 48538110 47471660 46038520 44068760 41932350 39811180
1500.36 37636660 35426650 33205750 30995380 28856480 26820350
1503.25 24898540 23114330 21638900 20731820 19716420 18150130
1506.14 17106060 16251060 14688360 13273390 12356500 11525190
1509.03 10818930 10188780 9536944 8959502 8534678 8297258
1511.93 7986968 7449834 6970576 6642496 6425334 6269860
1514.82 6019066 5768644 5697530 5708958 5659990 5392288
1517.71 4970476 4683684 4575482 4641076 4770990 5005162
1520.61 5417882 5181812 4536316 4362374 4188816 3856096
1523.50 3679852 3677208 3869230 4044356 3816396 3497178
1526.39 3460738 3487160 3413708 3379118 3318496 3177308
1529.28 3093450 3076298 3072400 3100492 3116534 3105080
1532.18 3203688 3438198 3621616 3497924 3148242 2954366
1535.07 2911038 2886462 2881046 2895742 2935392 3116914
1537.96 3791198 4599188 4473244 4150874 4077746 3544980
1540.85 3311648 3764822 3833340 3316720 3017694 2932818
1543.75 2914596 3142470 3313046 3075968 2788048 2701976
1546.64 2699228 2704012 2704620 2699298 2734728 2849916
1549.53 2934212 2866290 2736846 2680088 2676884 2685074
1552.43 2709510 2841270 3273232 3595948 3269742 2852642
1555.32 2751232 2777296 2994302 3487998 4010520 4552182
1558.21 4570672 4015518 4184056 4623250 4058410 3175800
1561.10 2848242 2798126 2794028 2804986 2824940 2872492
1564.00 3000540 3079512 2993642 2894324 2863786 2862580
1566.89 2878056 2895538 2975168 3158540 3473012 3653068
1569.78 3389712 3057600 2963152 2958870 2970062 2987182
1572.67 3007446 3027528 3058844 3108988 3294620 4012748
1575.57 4878646 4565418 3623898 3239032 3203046 3212702
1578.46 3220926 3217596 3231200 3267988 3312012 3339368
1581.35 3343158 3344986 3360700 3375974 3390824 3409644
1584.25 3428852 3443522 3454316 3456988 3453074 3451332
1587.14 3458042 3470924 3472394 3461012 3445268 3430660
1590.03 3420882 3413260 3412448 3396278 3360670 3331288
1592.92 3310938 3284222 3258198 3221630 3175360 3151088
1595.82 3137100 3100798 3062588 3031558 2990574 2943198
1598.71 2893526 2833708 2775724 2732238 2692388 2626906
1601.60 2551384 2501302 2465658 2404916 2335400 2279118
1604.49 2223906 2169444 2129660 2103078 2085206 2055260
1607.39 2009946 1968524 1958888 1962848 1926758 1867816
1610.28 1827104 1799160 1788676 1784692 1774350 1764216
1613.17 1765792 1760504 1746506 1757424 1874400 2446396
1616.07 3263016 3076004 2191108 1778746 1726386 1729752
1618.96 1743108 1745312 1741626 1739866 1743428 1773892
1621.85 1844400 2013542 2292132 2306110 2007598 1836250
1624.74 1821816 1826220 1829364 1863848 1987014 2159272
1627.64 2166796 2039650 1978214 1984124 2010278 2043478
1630.53 2067504 2091450 2126478 2162702 2198044 2243718
1633.42 2341360 2612430 3159050 3775020 3734390 3050960
1636.31 2694574 2782784 2818756 2714108 2655310 2667992
1639.21 2713868 2764964 2801852 2833194 2875846 2921822
1642.10 2954064 2974972 3001464 3030828 3083120 3270538
1644.99 3840110 4311076 3999482 3623718 3640540 3648962
1647.89 3561002 3397944 3291058 3285476 3303224 3328162
1650.78 3456928 4073040 5109630 5735686 5730284 4989642
1653.67 4207766 3901698 3542362 3270840 3196632 3165602
1656.56 3137286 3111376 3083122 3061332 3045362 3030230
1659.46 3010754 2998348 2991510 2991888 3057168 3309568
1662.35 3472936 3231900 2946784 2867688 2853232 2836430
1665.24 2814814 2799526 2790926 2796656 2838902 2924984
1668.13 3141672 3516506 3514894 3084378 2870032 2991958
1671.03 3110536 2996160 2836138 2793180 2813122 2870890
1673.92 3098326 3622084 3889630 3507602 3090412 2967962
1676.81 2964200 2986232 3010648 3042988 3113134 3219072
1679.71 3307514 3320334 3283798 3286004 3366310 3617256
1682.60 3979404 4196262 4606474 5523674 5664696 4615534
1685.49 3907708 3834652 3896284 3982704 4104396 4197048
1688.38 4219710 4279890 4413688 4481850 4475834 4509812
1691.28 4589122 4659810 4726068 4795164 4876634 4972370
1694.17 5166792 5842492 6953402 7063926 6030572 5415128
1697.06 5369666 5366598 5381770 5597526 6287906 7042134
1699.95 7099478 6489306 5721452 5298208 5199136 5168426
1702.85 5155854 5265076 5429228 5342846 5099916 5054472
1705.74 5118146 4969340 4697580 4522976 4411296 4325678
1708.63 4264762 4238288 4210200 4098006 3933542 3801164
1711.53 3688502 3579498 3478542 3420596 3385152 3371902
1714.42 3462084 3362854 3012916 2899864 3426494 4092792
1717.31 3787872 3186284 2966918 2658488 2391038 2310250
1720.20 2287440 2262486 2225358 2201056 2208002 2239934
1723.10 2247880 2206412 2166398 2143062 2135514 2146020
1725.99 2160358 2159722 2155168 2159992 2176654 2209024
1728.88 2295926 2414996 2422804 2340850 2314828 2355918
1731.77 2455636 2872742 3516854 3682370 3767622 3863062
1734.67 3351502 2875306 2794980 2822072 2862208 2903068
1737.56 2929600 2969786 3130278 3480462 3608978 3323876
1740.45 3108162 3114926 3204558 3385688 3691418 4053042
1743.34 4305742 4279516 4006202 3772604 3704082 3703130
1746.24 3763324 3857640 3928672 4078060 4273974 4349802
1749.13 4347926 4399790 4666456 5101206 5128666 4688540
1752.02 4400170 4351744 4341056 4332680 4311800 4277122
1754.92 4256158 4286280 4439182 4554388 4450264 4349622
1757.81 4353294 4340202 4274068 4188044 4113242 4072768
1760.70 4177268 4360776 4215224 3843578 3620560 3514168
1763.59 3434838 3353656 3259394 3162276 3072366 2990382
1766.49 2927620 2993300 3193278 3126248 2796152 2606814
1769.38 2534938 2509868 2626892 2730024 2712226 3013216
1772.27 3261066 2807888 2306912 2156026 2126308 2158404
1775.16 2187172 2129162 2055294 2027128 2018984 2025980
1778.06 2050774 2084634 2101010 2154208 2271412 2303252
1780.95 2241456 2224004 2253178 2297548 2350862 2415924
1783.84 2562746 2768502 2815876 2756556 2767698 2838162
1786.74 2929128 3028780 3135652 3241788 3345496 3467708
1789.63 3645166 3897404 4084642 4165098 4484720 4982838
1792.52 5036760 4814890 4827058 4997564 5190612 5407250
1795.41 5637450 5833858 6025308 6246122 6466902 6684730
1798.31 6945862 7276166 7536808 7658106 7834880 8090050
1801.20 8298210 8494384 8667096 8776672 8898796 9035736
1804.09 9163908 9282456 9380632 9462328 9546906 9633574
1806.98 9718178 9776230 9818308 9867782 9911154 9978934
1809.88 10075030 10063530 9942798 9853342 9792904 9686776
1812.77 9534604 9404984 9322670 9246888 9181892 9121936
1815.66 9031222 8907314 8763662 8581856 8350592 8088910
1818.56 7814288 7532462 7248364 6968700 6694712 6428778
1821.45 6182232 5954528 5734904 5535208 5377446 5281146
1824.34 5293472 5253786 5012564 4780180 4661506 4575822
1827.23 4486648 4411312 4385034 4383302 4421510 4415080
1830.13 4192464 3939430 3810160 3732006 3671068 3616326
1833.02 3555618 3478488 3395842 3311968 3214318 3110372
1835.91 3026148 2958046 2866908 2753326 2665646 2600430
1838.80 2529282 2446334 2368550 2313826 2279794 2261280
1841.70 2244970 2222490 2265810 2549140 2894216 2744196
1844.59 2336722 2170856 2159090 2166404 2178238 2215304
1847.48 2232738 2205678 2197998 2211812 2224478 2232428
1850.38 2234992 2235928 2244132 2261058 2276130 2292818
1853.27 2306334 2305606 2303072 2311764 2326982 2342436
1856.16 2352464 2358518 2368778 2384202 2395264 2392692
1859.05 2390950 2398692 2403134 2393926 2375962 2360544
1861.95 2350046 2342326 2335422 2324464 2311490 2297352
1864.84 2298924 2327944 2342322 2314360 2312244 2350492
1867.73 2340730 2375510 2483626 2400222 2197592 2107424
1870.62 2063620 2020512 1999360 1980674 1956700 1935592
1873.52 1921932 1908274 1882368 1857270 1843578 1823380
1876.41 1785776 1750282 1728196 1721738 1719370 1719048
1879.30 1712870 1699692 1697760 1699864 1696774 1691304
1882.20 1685968 1687710 1703116 1731740 1749554 1748688
1885.09 1746856 1753526 1766308 1780888 1804444 1832458
1887.98 1867476 1958884 2072316 2072402 2011186 2007116
1890.87 2035208 2072434 2124628 2178138 2224350 2272194
1893.77 2329116 2400906 2462836 2493178 2528176 2585248
1896.66 2652946 2717332 2774164 2849960 2939870 3015096
1899.55 3085496 3171036 3266328 3352728 3440074 3548212
1902.44 3661660 3775796 3901900 4031368 4157542 4281760
1905.34 4416670 4570950 4734132 4900554 5070212 5233632
1908.23 5390046 5568184 5781468 5987982 6163654 6344104
1911.12 6545396 6757610 6975148 7196526 7409846 7621142
1914.02 7846400 8078522 8302752 8533906 8787786 9059426
1916.91 9402724 9790174 9999566 10090110 10266680 10502920
1919.80 10733100 10943250 11150380 11366120 11596930 11828030
1922.69 12022160 12151030 12249950 12356590 12465390 12556800
1925.59 12620280 12659990 12677860 12670860 12645550 12605350
1928.48 12544950 12476040 12403890 12313150 12197350 12072230
1931.37 11948770 11806090 11633040 11437440 11226330 10995610
1934.26 10753970 10501170 10228550 9947568 9663214 9389218
1937.16 9142414 8902664 8654382 8386028 8090328 7775928
1940.05 7442444 7091040 6735712 6415952 6108416 5715186
1942.94 5288110 4923700 4614094 4348090 4118988 3915294
1945.84 3733788 3570892 3435270 3348638 3294086 3241844
1948.73 3195330 3163074 3141804 3121694 3109210 3113428
1951.62 3126316 3147744 3175792 3206748 3244986 3288760
1954.51 3333214 3373842 3413528 3467994 3543480 3617918
1957.41 3677544 3727886 3772844 3835052 3918198 3994598
1960.30 4055648 4113774 4172796 4225488 4276084 4328372
1963.19 4370008 4411860 4461966 4499662 4520744 4541874
1966.08 4572416 4615248 4627888 4588154 4557326 4551406
1968.98 4540756 4516352 4487144 4460730 4438252 4406768
1971.87 4350840 4292048 4243556 4180592 4098558 4001362
1974.76 3911200 3847792 3795066 3731258 3653140 3575282
1977.66 3491706 3395862 3301140 3195650 3069648 2944896
1980.55 2829634 2720104 2616704 2514126 2409334 2308940
1983.44 2217968 2134556 2060758 1992346 1919622 1850026
1986.33 1791222 1732396 1678274 1637566 1593634 1547636
1989.23 1509428 1467080 1429604 1421630 1437372 1422096
1992.12 1364768 1313084 1274530 1240660 1214534 1199964
1995.01 1187774 1177384 1178784 1166412 1131024 1116574
1997.90 1122198 1113230 1098418 1091092 1084358 1072434
2000.80 1063298 1059630 1052846 1054114 1060858 1055526
2003.69 1045298 1041706 1040860 1037330 1038120 1044112
2006.58 1049982 1061400 1070490 1067236 1060946 1056938
2009.48 1055998 1058686 1066616 1075880 1078824 1071296
2012.37 1060656 1064842 1076748 1079102 1088788 1106722
2015.26 1112830 1122780 1140084 1143188 1145880 1150226
2018.15 1143918 1139728 1147922 1165536 1179656 1178824
2021.05 1176094 1190556 1213196 1232426 1246422 1257616
2023.94 1278944 1299588 1309462 1325930 1353878 1380586
2026.83 1401278 1421192 1442004 1460732 1484158 1520328
2029.72 1553328 1575818 1608212 1644146 1672972 1708458
2032.62 1753996 1795312 1828330 1867936 1925890 1983578
2035.51 2033564 2083340 2133016 2184216 2245662 2314922
2038.40 2370376 2427048 2501538 2572286 2638736 2704684
2041.29 2759380 2814410 2881576 2947052 3000820 3056076
2044.19 3120278 3181344 3234530 3286878 3342572 3396676
2047.08 3447192 3487238 3522658 3569920 3616544 3640228
2049.97 3652428 3674800 3699870 3709960 3709262 3711328
2052.87 3708820 3693448 3675212 3660202 3639700 3612514
2055.76 3582056 3539066 3483132 3426608 3372024 3301422
2058.65 3213004 3121170 3030816 2939638 2838048 2732874
2061.54 2641032 2567222 2488798 2387488 2278720 2191478
2064.44 2115962 2033052 1949916 1865140 1780350 1703046
2067.33 1636864 1570948 1504020 1451318 1406006 1359526
2070.22 1320378 1290478 1260454 1230030 1220332 1221250
2073.11 1201098 1175466 1163380 1159120 1157840 1157430
2076.01 1155088 1155638 1159242 1165212 1178070 1192360
2078.90 1208956 1234872 1258120 1266528 1277914 1295390
2081.79 1310112 1331760 1356392 1373448 1383960 1390514
2084.69 1415310 1456150 1487484 1512830 1541142 1569812
2087.58 1605538 1647080 1684942 1730546 1774610 1791208
2090.47 1803208 1843004 1892708 1920000 1937380 1974898
2093.36 2028524 2078514 2119260 2159952 2199352 2231558
2096.26 2262448 2304484 2360258 2408998 2441622 2470212
2099.15 2495998 2529002 2568492 2606414 2653828 2698240
2102.04 2732114 2765612 2796602 2819854 2834264 2850150
2104.93 2876792 2901936 2909752 2914492 2923220 2919482
2107.83 2906654 2886084 2851870 2814156 2775566 2731878
2110.72 2680932 2621020 2567484 2525178 2490804 2461328
2113.61 2423398 2374152 2332674 2303934 2260742 2208842
2116.51 2160828 2119704 2084568 2047396 2015288 1981798
2119.40 1944114 1912514 1885552 1857452 1830474 1815570
2122.29 1807030 1798368 1792674 1788496 1782034 1775582
2125.18 1771334 1771238 1778878 1782788 1783292 1796826
2128.08 1811514 1812170 1810782 1822806 1849404 1870264
2130.97 1877884 1888996 1904088 1910540 1909886 1911618
2133.86 1914894 1921146 1942706 1974274 1994930 2009536
2136.75 2031422 2052490 2067610 2080862 2088666 2090522
2139.65 2089952 2088782 2093274 2093636 2093394 2112606
2142.54 2130578 2132530 2141034 2156872 2162736 2162392
2145.43 2163698 2174586 2196918 2203454 2197844 2205582
2148.33 2215172 2226412 2246198 2262222 2270088 2275030
2151.22 2283742 2304018 2334076 2363516 2396716 2434934
2154.11 2469738 2495392 2521572 2553862 2572204 2585164
2157.00 2616460 2657102 2689640 2708364 2726742 2755832
2159.90 2782182 2809022 2843000 2877922 2913166 2942186
2162.79 2958818 2970136 2986476 3006832 3031574 3066346
2165.68 3099184 3125636 3155684 3179502 3194234 3204168
2168.57 3207112 3211698 3224038 3249020 3279818 3304542
2171.47 3322866 3335386 3346552 3360394 3387632 3418858
2174.36 3437046 3457842 3490986 3528484 3561684 3591134
2177.25 3616248 3631550 3651682 3685914 3726460 3766976
2180.15 3811190 3859712 3911928 3974048 4037918 4097570
2183.04 4159726 4230944 4302922 4365220 4430194 4502284
2185.93 4570798 4638830 4710426 4776992 4843604 4927850
2188.82 5021606 5100246 5164860 5230094 5296774 5366580
2191.72 5438526 5499538 5546500 5583116 5608812 5623238
2194.61 5645382 5676998 5690300 5677964 5664262 5668884
2197.50 5667442 5646206 5622764 5594270 5561662 5530214
2200.39 5491426 5440376 5383724 5322760 5251240 5169350
2203.29 5087734 5009588 4919578 4820632 4727472 4636550
2206.18 4534924 4424082 4313178 4203024 4094428 3991424
2209.07 3897270 3794624 3668268 3542964 3436922 3334186
2211.97 3238084 3144214 3043008 2950368 2872288 2810458
2214.86 2740778 2651910 2576316 2518226 2456176 2398184
2217.75 2354752 2320036 2293696 2270610 2247258 2227390
2220.64 2213726 2209706 2202610 2187838 2182338 2195016
2223.54 2209778 2210540 2212792 2225670 2234588 2240460
2226.43 2251942 2268088 2285980 2303322 2309994 2315250
2229.32 2343918 2394746 2433120 2451218 2477622 2513206
2232.21 2549176 2587208 2622612 2645744 2666830 2697540
2235.11 2726642 2751168 2772814 2786448 2793498 2810094
2238.00 2833764 2840506 2829260 2818326 2821806 2825560
2240.89 2815378 2802994 2792862 2784362 2781226 2771200
2243.79 2747144 2721702 2699014 2671632 2631900 2584600
2246.68 2547850 2520558 2490078 2457820 2429044 2406392
2249.57 2392086 2380806 2369158 2364340 2363942 2347284
2252.46 2319436 2297428 2281056 2276244 2279036 2280448
2255.36 2283472 2293580 2306914 2325192 2352248 2387100
2258.25 2428182 2477658 2532272 2586380 2636220 2679832
2261.14 2732756 2797668 2848556 2892608 2962426 3042634
2264.03 3109304 3187582 3281060 3363390 3423558 3467024
2266.93 3511548 3566466 3632916 3708012 3774936 3819970
2269.82 3861158 3926380 3993552 4038070 4072268 4098768
2272.71 4125004 4163036 4198552 4215010 4216392 4213304
2275.61 4203004 4190308 4192118 4200670 4189566 4153058
2278.50 4116524 4092134 4060096 4023204 3992082 3955080
2281.39 3921160 3891600 3854122 3810800 3761534 3709946
2284.28 3671126 3640960 3588520 3517198 3462214 3419650
2287.18 3357550 3273856 3189662 3109084 3035272 2972440
2290.07 2911910 2851384 2790986 2738480 2701920 2657882
2292.96 2598120 2540010 2484956 2418366 2348342 2283688
2295.85 2225872 2179778 2143084 2105574 2056096 1999878
2298.75 1944128 1886374 1833832 1795626 1768414 1737354
2301.64 1708138 1695064 1680958 1657722 1648812 1649540
2304.53 1637012 1620270 1620816 1626250 1623270 1616112
2307.43 1617136 1647986 1673228 1669030 1673716 1696292
2310.32 1717054 1732374 1750558 1774508 1802334 1819300
2313.21 1822600 1835358 1871736 1906244 1906476 1908934
2316.10 1947956 1992466 2017824 2031734 2054012 2094908
2319.00 2132088 2158270 2194892 2240768 2273148 2290360
2321.89 2319576 2367708 2388124 2386014 2418050 2476232
2324.78 2507892 2505904 2526950 2577488 2609066 2627770
2327.67 2674136 2721186 2722314 2721582 2770080 2822532
2330.57 2824694 2820104 2866722 2909400 2909960 2931740
2333.46 2976598 2964878 2914166 2933740 2987740 2979214
2336.35 2969868 3023836 3061244 3034746 3018592 3036206
2339.24 3020550 2985542 2981134 2964578 2915914 2886290
2342.14 2877598 2844770 2806358 2793136 2772646 2732648
2345.03 2710508 2701956 2672114 2633510 2612288 2582566
2347.92 2535368 2501598 2479980 2459792 2435246 2405148
2350.82 2372710 2341738 2320424 2305690 2281620 2259504
2353.71 2242246 2199190 2142852 2119914 2097052 2050850
2356.60 2022642 1978844 1915138 1885648 1852036 1820918
2359.49 1816456 1783026 1761624 1763506 1732002 1730688
2362.39 1750986 1743076 1758242 1768950 1758084 1762608
2365.28 1754478 1756198 1778958 1784478 1798870 1816192
2368.17 1830290 1844666 1853398 1877352 1899852 1932954
2371.06 1980104 2004356 2016124 2024508 2040554 2057866
2373.96 2060490 2072040 2102116 2131844 2157286 2171610
2376.85 2179578 2201172 2234588 2273572 2293964 2295182
2379.74 2296522 2302170 2311152 2320540 2322808 2327872
2382.64 2345672 2354402 2347700 2338022 2331952 2333522
2385.53 2337900 2332748 2326216 2323314 2309302 2297030
2388.42 2289124 2268150 2237216 2209770 2195118 2195222
2391.31 2198110 2190964 2168700 2136676 2106358 2084992
2394.21 2066054 2041476 2023182 2018408 2011518 1991860
2397.10 1966442 1939826 1910256 1883242 1877156 1884636
2399.99 1875850 1864804 1871268 1871306 1860054 1849640
2402.88 1839452 1834580 1834414 1835024 1838850 1845290
2405.78 1853304 1840972 1818452 1817388 1820586 1816122
2408.67 1812496 1809598 1812580 1813236 1806024 1807710
2411.56 1813902 1806222 1790160 1778762 1776774 1785884
2414.46 1792212 1774780 1739922 1726268 1738630 1740356
2417.35 1721254 1700126 1689234 1688456 1694620 1694400
2420.24 1681000 1669218 1672632 1687664 1701560 1703464
2423.13 1695296 1693426 1705838 1718192 1724764 1737274
2426.03 1764202 1789288 1792478 1804332 1843474 1888138
2428.92 1932456 1966198 1989920 2018520 2053870 2099444
2431.81 2151000 2193460 2221518 2246438 2286556 2338788
2434.70 2375870 2397742 2433996 2487850 2537262 2577658
2437.60 2612870 2644954 2682028 2722002 2759872 2791024
2440.49 2811420 2835928 2873354 2902560 2922256 2949546
2443.38 2971408 2979238 2988866 2995048 2989400 2981984
2446.28 2975298 2960722 2956000 2969560 2966154 2933106
2449.17 2892126 2854202 2825530 2803742 2777764 2756242
2452.06 2733752 2691710 2640510 2606780 2588938 2558922
2454.95 2513328 2472042 2442134 2418318 2399870 2378802
2457.85 2348970 2318492 2294578 2274224 2249634 2229282
2460.74 2216178 2183330 2134936 2099140 2074444 2046684
2463.63 2018248 1994838 1972852 1948232 1924710 1907426
2466.52 1892550 1876696 1854736 1825854 1808982 1807154
2469.42 1800218 1791204 1781614 1769654 1757994 1747632
2472.31 1743406 1729976 1709912 1699604 1690318 1682082
2475.20 1680290 1680486 1673028 1651780 1628468 1611894
2478.10 1584424 1552772 1541314 1534464 1503472 1467044
2480.99 1450262 1443330 1431258 1415416 1398970 1391036
2483.88 1388298 1375408 1354726 1335414 1320438 1308256
2486.77 1304182 1305714 1298862 1288762 1271892 1245140
2489.67 1234402 1238116 1233784 1228060 1220896 1213252
2492.56 1209690 1192860 1172812 1158438 1140946 1131858
2495.45 1122148 1098234 1073014 1050182 1032562 1026376
2498.34 1017630 1000306 984708 978000 972292 964628
2501.24 958428 939776 905952 880202 868344 860136
2504.13 852254 848856 850744 842392 823874 819772
2507.02 839648 849498 826032 807704 818568 836256
2509.92 838600 836004 843910 851212 851222 839190
2512.81 825788 839190 863724 875140 879386 885144
2515.70 899366 910212 904988 902090 916548 930106
2518.59 920212 916458 930974 928586 925126 938438
2521.49 938582 922614 920668 921004 916354 911690
2524.38 905590 901384 895174 894020 901712 912228
2527.27 925698 929380 927006 937028 934960 908366
2530.16 894790 904506 913396 915070 905268 892246
2533.06 898128 906404 895316 882810 891184 907946
2535.95 916428 915886 918218 930372 936480 939718
2538.84 955350 968048 973558 988932 1003606 1009218
2541.74 1015980 1028336 1038438 1046452 1065230 1088518
2544.63 1112810 1139754 1165494 1177154 1168926 1178440
2547.52 1219844 1258698 1280988 1291062 1304036 1325868
2550.41 1336862 1344888 1360438 1374766 1393960 1424440
2553.31 1459602 1488370 1512568 1526086 1533874 1544730
2556.20 1559304 1586710 1617730 1637346 1658246 1679560
2559.09 1694146 1704110 1711132 1719460 1739486 1765962
2561.98 1781796 1792034 1806332 1821662 1833438 1848076
2564.88 1866470 1879012 1891364 1911272 1928848 1939572
2567.77 1951882 1972574 1990528 1997956 2007162 2023652
2570.66 2035846 2043628 2062366 2082832 2084428 2069418
2573.56 2061618 2072564 2090392 2102902 2120500 2145042
2576.45 2154028 2166380 2196506 2216496 2226596 2227558
2579.34 2216274 2230670 2263680 2275942 2285808 2308114
2582.23 2327792 2340614 2360282 2390050 2413234 2433110
2585.13 2468524 2492634 2513054 2556552 2589512 2611074
2588.02 2650620 2709432 2782156 2848624 2892628 2927466
2590.91 2974804 3031492 3083028 3133846 3192654 3269594
2593.80 3357582 3447868 3526800 3588716 3661526 3757560
2596.70 3853834 3947052 4050998 4149512 4236914 4334388
2599.59 4438480 4539900 4648176 4757376 4860008 4968724
2602.48 5087410 5203406 5310126 5422302 5563976 5719062
2605.37 5851290 5964760 6088522 6229836 6375552 6510820
2608.27 6645364 6796272 6960108 7117250 7272794 7427164
2611.16 7566906 7705340 7850862 8012864 8171560 8298358
2614.05 8427296 8574420 8723168 8879976 9034984 9174018
2616.95 9292772 9396894 9505102 9608174 9702984 9814836
2619.84 9932708 10028020 10101880 10170240 10236790 10307720
2622.73 10395270 10482150 10535480 10562080 10578680 10594910
2625.62 10609760 10615730 10597900 10546770 10486580 10439780
2628.52 10389110 10307740 10196120 10078960 9958326 9830738
2631.41 9712140 9605470 9490106 9354514 9210912 9060218
2634.30 8899820 8740146 8592610 8448364 8292160 8137310
2637.19 7986718 7830336 7675162 7544148 7419868 7274280
2640.09 7117742 6972204 6846774 6730494 6610610 6488334
2642.98 6360966 6234024 6133412 6053326 5965416 5876152
2645.87 5802818 5736714 5663462 5599434 5566206 5534312
2648.77 5468740 5384536 5352806 5373350 5374326 5345980
2651.66 5302026 5252260 5228158 5237034 5244182 5234528
2654.55 5230634 5230902 5215690 5195494 5191028 5208428
2657.44 5233756 5243632 5243554 5240252 5228200 5218674
2660.34 5217320 5215202 5210920 5215102 5235778 5253474
2663.23 5257310 5262788 5273574 5269754 5250038 5246632
2666.12 5256040 5247150 5222728 5206444 5201602 5198106
2669.01 5188706 5182478 5185614 5172374 5143528 5123978
2671.91 5112420 5099244 5094684 5100816 5099446 5086728
2674.80 5073114 5064802 5065724 5060782 5047574 5035706
2677.69 5022878 5007542 5003836 5007024 4995262 4982784
2680.59 4991934 5014910 5027132 5021646 5017372 5017478
2683.48 5025844 5051316 5067614 5050722 5034438 5032648
2686.37 5031084 5039442 5048506 5057412 5074138 5083026
2689.26 5090676 5112222 5135176 5151398 5161418 5185986
2692.16 5231170 5263296 5277836 5301386 5328762 5358256
2695.05 5402594 5451760 5490916 5532566 5583506 5649220
2697.94 5726122 5795870 5875218 5968328 6066378 6175210
2700.83 6296080 6423162 6561614 6714790 6890282 7076578
2703.73 7253452 7431352 7634970 7865838 8117184 8373674
2706.62 8642220 8930088 9225346 9538856 9865848 10197360
2709.51 10533330 10879940 11247590 11622890 11990780 12351950
2712.41 12726360 13123390 13514530 13896650 14289190 14686110
2715.30 15077340 15453650 15808470 16159210 16530840 16918270
2718.19 17306760 17690870 18045890 18343630 18596150 18819940
2721.08 19002350 19135230 19247930 19386890 19565330 19780440
2723.98 20019670 20254220 20471410 20666750 20839630 20994400
2726.87 21151570 21308540 21457500 21621240 21794080 21926660
2729.76 22005780 22070310 22135130 22155030 22152690 22181070
2732.65 22205210 22193990 22167820 22118800 22031470 21945030
2735.55 21875700 21804170 21732870 21669060 21622090 21581130
2738.44 21528980 21471090 21407530 21331090 21235180 21126420
2741.33 21015350 20880910 20719320 20563470 20416060 20281080
2744.23 20146750 19985850 19795920 19556170 19278440 18993860
2747.12 18714980 18457960 18210330 17964270 17732230 17532950
2750.01 17362190 17206090 17038140 16827870 16613950 16430050
2752.90 16265890 16121290 15964070 15788390 15646110 15545610
2755.80 15466280 15413100 15377320 15340450 15294970 15254630
2758.69 15244300 15265190 15312020 15385200 15500340 15641020
2761.58 15779700 15940660 16138100 16336690 16518420 16687460
2764.47 16844100 16995800 17158700 17309060 17443850 17607710
2767.37 17813570 18042530 18261570 18441620 18597910 18766970
2770.26 18961590 19160840 19330910 19464050 19573790 19671950
2773.15 19785250 19913700 20037220 20159020 20281720 20370960
2776.05 20392600 20356630 20287440 20211090 20136480 20059920
2778.94 19997090 19956600 19937710 19930500 19913310 19896870
2781.83 19878950 19837560 19770970 19687100 19605280 19504340
2784.72 19378140 19257750 19121100 18973500 18842730 18706000
2787.62 18558470 18418050 18280220 18165370 18088440 18007940
2790.51 17900090 17793010 17714240 17640280 17553660 17496390
2793.40 17471990 17440500 17414800 17402890 17388750 17377730
2796.29 17374730 17389820 17425990 17466110 17507210 17551930
2799.19 17625170 17763030 17935160 18076430 18222930 18393930
2802.08 18575160 18785440 19017420 19273020 19558530 19853600
2804.97 20148380 20440450 20735090 21039810 21328090 21609740
2807.87 21900790 22185980 22473460 22773170 23074440 23377940
2810.76 23715160 24103540 24513720 24915520 25314630 25747330
2813.65 26190420 26592450 26950900 27304760 27693570 28113410
2816.54 28540010 28969560 29420430 29874330 30301380 30731150
2819.44 31170800 31596760 32000700 32382270 32765870 33171060
2822.33 33560290 33928410 34302500 34671970 35037310 35399300
2825.22 35749500 36102100 36452020 36787900 37141860 37518840
2828.11 37896340 38297580 38750980 39227410 39691190 40157570
2831.01 40641890 41148590 41665370 42193200 42747590 43321280
2833.90 43903950 44506390 45127570 45769620 46454390 47155740
2836.79 47847120 48526150 49221410 49969500 50741540 51518410
2839.69 52288120 53016240 53722800 54441420 55210060 56010640
2842.58 56777630 57552140 58358080 59157150 59936980 60716220
2845.47 61537630 62416120 63343800 64290620 65231740 66210050
2848.36 67231260 68246520 69282700 70354690 71432530 72518660
2851.26 73637210 74808820 76030260 77297840 78604270 79921930
2854.15 81271160 82681570 84165700 85730580 87384180 89162900
2857.04 91037440 92940540 94923710 97067650 99313250 101625600
2859.93 104096300 106788800 109679400 112723700 115919200 119253400
2862.83 122726400 126391500 130244400 134264400 138442800 142846200
2865.72 147516400 152340300 157313300 162498800 167899400 173483700
2868.61 179200300 185094800 191201900 197460800 203765200 210011000
2871.51 216203700 222433800 228689000 234873000 241012100 247082800
2874.40 252957300 258734700 264669700 270847300 277261700 284082100
2877.29 291520300 299497800 307580800 315258000 322134700 327806800
2880.18 332143900 335560300 338575800 341550300 344708100 348019300
2883.08 351304000 354555600 357788300 360862100 363619900 366050300
2885.97 368134000 369833200 371265300 372484000 373521700 374483900
2888.86 375456100 376385200 377286300 378211400 379107200 379955900
2891.75 380831800 381879700 383028500 384021200 384815700 385724800
2894.65 386845000 387999100 388981100 389478200 389398100 388885400
2897.54 387938700 386459100 384563300 382369800 379849600 377139700
2900.43 374412500 371525000 368403000 365281300 362158600 358992300
2903.32 355876900 352746500 349611400 346576900 343537800 340422700
2906.22 337204000 333704000 329891200 325839400 321692100 317715500
2909.11 314102600 310828500 307692900 304535500 301360400 298133200
2912.00 294804600 291364800 287823300 284193100 280552200 277055700
2914.90 273681600 270379700 267223500 264137100 261032600 257979500
2917.79 255115200 252485200 249954300 247396700 244877500 242476100
2920.68 240248400 238217100 236485700 235161200 234182100 233507300
2923.57 233268200 233480100 234078600 235135100 236632900 238545500
2926.47 240995100 243994800 247444600 251254000 255336300 259733100
2929.36 264543400 269665200 274904700 280171300 285375100 290446000
2932.25 295454300 300284200 304644000 308447200 311796200 314902400
2935.14 317885400 320701600 323457000 326350000 329575900 333195900
2938.04 337057100 340914500 344481400 347415300 349586000 351061600
2940.93 351820500 351800900 351208300 350367400 349517500 348840200
2943.82 348427000 348139900 347658500 346835400 345570900 343692100
2946.72 341171600 338182000 334774000 330852900 326420100 321596900
2949.61 316499500 311340300 306243300 301150100 296099700 291297500
2952.50 286845100 282749400 279026300 275651600 272597900 269859800
2955.39 267454300 265535400 264201700 263349300 262951500 263186100
2958.29 264158400 265952200 268768300 272639700 277593700 283832300
2961.18 291536000 300651300 311002400 322854700 336589100 352245300
2964.07 369765700 389080200 410057900 432730000 457252600 483532500
2966.96 511314800 540302100 570209900 600953300 632045900 662906600
2969.86 693576300 724080900 754644500 786067600 818712900 853423000
2972.75 891657000 934158700 982568400 1038698000 1101828000 1165275000
2975.64 1214188000 1234043000 1230242000 1227799000 1243698000 1276204000
2978.54 1316836000 1357748000 1392898000 1420330000 1442365000 1461591000
2981.43 1477744000 1488585000 1492393000 1489964000 1485669000 1481504000
2984.32 1471400000 1453524000 1432704000 1408241000 1378914000 1345065000
2987.21 1306118000 1265003000 1226041000 1189834000 1154132000 1116979000
2990.11 1077704000 1036063000 992068400 946373800 899845100 852982100
2993.00 806020200 759048100 712335800 666416500 621755800 578637200
2995.89 537089100 497420700 460021500 424695500 391302200 359801400
2998.78 330090300 302270200 276376400 252327000 230033300 209413500
3001.68 190428100 173043500 157197700 142760500 129630700 117787900
3004.57 107160700 97627820 89136630 81629590 75007060 69167380
3007.46 64012910 59497180 55563090 52173990 49286250 46760530
3010.36 44534520 42673920 41132670 39820000 38705000 37750650
3013.25 36951600 36310010 35783560 35349430 34997690 34687630
3016.14 34433920 34258200 34123730 34001970 33901290 33838880
3019.03 33792950 33727280 33638930 33564300 33522420 33471750
3021.93 33387760 33288780 33179380 33036380 32872950 32712480
3024.82 32543330 32335220 32075750 31814050 31552320 31249590
3027.71 30910900 30539760 30119270 29681810 29276220 28847850
3030.60 28357820 27860750 27351570 26803930 26243060 25681290
3033.50 25084650 24436320 23804720 23204280 22584250 21956070
3036.39 21341680 20729160 20104240 19483610 18888690 18313900
3039.28 17734220 17168040 16629060 16096760 15554890 15019320
3042.18 14543670 14114660 13682710 13229930 12765860 12324110
3045.07 11928410 11571940 11207360 10828970 10486560 10176940
3047.96 9869732 9563270 9293566 9070216 8851734 8642312
3050.85 8455104 8267440 8087192 7924946 7777910 7647600
3053.75 7529720 7421566 7329586 7252556 7197634 7125570
3056.64 7032394 6967198 6919642 6877306 6863078 6857476
3059.53 6832878 6800878 6758260 6720272 6703914 6708644
3062.42 6713658 6729828 6767568 6781978 6785200 6794306
3065.32 6800010 6800020 6809324 6839750 6879534 6934274
3068.21 6990834 7009326 7013808 7058424 7115968 7142730
3071.10 7167594 7219646 7284234 7356164 7413704 7450222
3074.00 7512644 7573166 7601924 7633368 7668402 7692932
3076.89 7720250 7775708 7854310 7927110 7989308 8027498
3079.78 8039640 8061342 8110006 8184046 8249354 8271722
3082.67 8260244 8244456 8251508 8289614 8333336 8382732
3085.57 8444260 8473910 8439670 8371236 8322954 8295394
3088.46 8267908 8256158 8233766 8209912 8196334 8149856
3091.35 8083264 8018038 7956860 7915066 7883986 7825918
3094.24 7721446 7624140 7577472 7533694 7451590 7359886
3097.14 7280138 7197608 7096854 6971990 6858928 6795490
3100.03 6737696 6656406 6564440 6464668 6361676 6256700
3102.92 6151146 6063914 6010526 5956850 5861524 5747876
3105.82 5661772 5611542 5560980 5489464 5399308 5342202
3108.71 5335244 5296048 5202768 5111464 5051084 5015996
3111.60 4997926 4966194 4914738 4862156 4811028 4770096
3114.49 4733278 4701230 4676790 4657280 4648058 4639150
3117.39 4622764 4608656 4595652 4584710 4568870 4544308
3120.28 4517914 4488978 4493654 4530696 4534226 4512122
3123.17 4506982 4499814 4481396 4464876 4454418 4450014
3126.06 4444708 4444116 4439716 4431812 4418962 4395348
3128.96 4375304 4379450 4384340 4369986 4368204 4387456
3131.85 4399438 4405744 4418300 4427106 4421800 4400698
3134.74 4366080 4342048 4350306 4372810 4400734 4416172
3137.64 4400430 4392368 4412318 4423754 4425148 4448114
3140.53 4464898 4470906 4485044 4491092 4503344 4518686
3143.42 4521284 4524628 4541618 4587648 4632328 4642816
3146.31 4644146 4669048 4706164 4725554 4740690 4773710
3149.21 4835276 4905044 4950278 4964324 4974258 5026570
3152.10 5089574 5124310 5172808 5245568 5295888 5334922
3154.99 5397238 5445130 5480878 5558556 5641860 5705056
3157.88 5777632 5860112 5955046 6050530 6131568 6227388
3160.78 6331220 6420176 6502376 6573026 6648120 6764408
3163.67 6888600 6978836 7067334 7167296 7275944 7397042
3166.56 7516638 7627126 7746968 7882760 8004672 8109178
3169.46 8216480 8331354 8437274 8545212 8660636 8775936
3172.35 8900762 9018208 9132506 9240824 9318478 9379794
3175.24 9447722 9531976 9619066 9714188 9826198 9932884
3178.13 10023940 10085940 10114010 10136720 10179330 10230100
3181.03 10259610 10267210 10277700 10290230 10303730 10319750
3183.92 10302660 10253600 10205540 10169670 10132860 10106530
3186.81 10078480 10019610 9960652 9901948 9827528 9759038
3189.70 9709050 9650840 9590010 9524988 9449358 9381530
3192.60 9298146 9200972 9129612 9060120 8985452 8918850
3195.49 8840898 8768372 8717782 8656264 8561434 8488554
3198.38 8466258 8444424 8387120 8332674 8302578 8269178
3201.27 8226402 8198490 8199382 8219692 8238204 8232320
3204.17 8206944 8197572 8192802 8199160 8241680 8273398
3207.06 8269100 8271512 8307450 8368898 8424146 8474934
3209.95 8539758 8602454 8636142 8662158 8701726 8753456
3212.85 8822002 8890146 8942694 8993360 9059244 9123790
3215.74 9172474 9215716 9252050 9297720 9362918 9403906
3218.63 9418252 9474402 9563430 9616908 9638124 9661760
3221.52 9720648 9784330 9810208 9834498 9883646 9926712
3224.42 9949244 9962162 9970050 10001010 10051290 10087290
3227.31 10091540 10085100 10089800 10095480 10112140 10133640
3230.20 10139070 10121180 10093130 10058190 10008170 9964442
3233.09 9952092 9944258 9904664 9854706 9790790 9714368
3235.99 9662248 9618660 9541600 9441370 9350762 9280424
3238.88 9197164 9082862 8964058 8855992 8737308 8595166
3241.77 8477376 8377962 8235884 8083856 7939950 7783268
3244.67 7607772 7421732 7261936 7143006 7032560 6893772
3247.56 6708600 6498750 6325642 6168466 5988816 5831506
3250.45 5684560 5524142 5374838 5219996 5049158 4896358
3253.34 4754702 4585906 4412758 4271602 4155030 4045924
3256.24 3927450 3806456 3692222 3575142 3477800 3381328
3259.13 3246902 3125730 3044966 2976106 2931624 2870390
3262.02 2758202 2660868 2621502 2596570 2545688 2486800
3264.91 2444628 2399456 2341214 2274314 2230340 2230982
3267.81 2235900 2207852 2127162 2073072 2083422 2070392
3270.70 2042902 2046478 2041076 2018646 2007360 1986784
3273.59 1941326 1922504 1935870 1950196 1957580 1928950
3276.49 1875334 1849380 1856480 1864854 1863048 1836286
3279.38 1807016 1820774 1820698 1776690 1762330 1783282
3282.27 1788050 1773776 1755510 1744718 1748582 1776112
3285.16 1801032 1779402 1740780 1730878 1729002 1723060
3288.06 1714878 1699732 1697842 1703148 1710072 1724118
3290.95 1724020 1708776 1698386 1703064 1724372 1746704
3293.84 1769856 1811396 1846424 1867836 1887518 1896572
3296.73 1906158 1922388 1935476 1951902 1988914 2044630
3299.63 2093438 2131424 2155464 2179904 2247594 2331258
3302.52 2397710 2455834 2484536 2504958 2561734 2619492
3305.41 2669818 2757380 2869586 2986550 3076660 3132960
3308.31 3187466 3248388 3329334 3418938 3497564 3568080
3311.20 3630648 3689098 3751144 3822784 3900856 3961832
3314.09 3976538 3962776 3978026 4040220 4090336 4114984
3316.98 4152942 4200272 4242438 4241414 4197728 4178718
3319.88 4166914 4132334 4124544 4138542 4131914 4129026
3322.77 4134620 4134420 4128922 4102112 4059538 4028028
3325.66 3997426 3946316 3903904 3874916 3836948 3798452
3328.55 3741384 3663740 3593120 3540476 3486092 3447806
3331.45 3434884 3384106 3301048 3210710 3108990 3038236
3334.34 3012080 2976712 2886750 2789510 2726828 2667646
3337.23 2613846 2575416 2533466 2475032 2407552 2341508
3340.13 2276114 2186896 2084766 2023056 1970274 1906202
3343.02 1869424 1837552 1781080 1725026 1666858 1603454
3345.91 1567036 1539106 1497986 1458434 1410848 1340430
3348.80 1273880 1256454 1247180 1202952 1169628 1154052
3351.70 1103434 1049468 1035670 1041686 1043488 1035716
3354.59 1015090 960404 899792 869736 848288 809806
3357.48 790214 816966 833416 826464 819064 802498
3360.37 791022 795374 779170 733864 734406 788196
3363.27 811194 789468 743282 708720 699218 694666
3366.16 692028 681806 670144 665180 653658 646028
3369.05 668724 704970 717946 720232 727308 722172
3371.95 703976 715194 736032 704652 662584 643488
3374.84 643578 669682 700956 728230 735762 715968
3377.73 713980 728832 727920 706882 675760 675022
3380.62 703736 737214 764100 772194 756984 747996
3383.52 731756 697722 695554 732880 777404 806068
3386.41 828458 861472 866978 823164 783442 788994
3389.30 802862 796088 793078 796298 791740 800674
3392.19 822120 841460 858656 876436 893874 916548
3395.09 930546 927832 936954 947940 946476 938284
3397.98 923484 907708 915818 958608 997504 995582
3400.87 977896 972300 966172 987452 1052176 1074630
3403.77 1048142 1050616 1095024 1121054 1113354 1112248
3406.66 1124410 1153980 1172046 1153648 1152846 1187822
3409.55 1229468 1272202 1317256 1341048 1358428 1401852
3412.44 1456680 1489618 1497964 1518066 1555410 1605514
3415.34 1668960 1731502 1807048 1894544 1941422 1959972
3418.23 2006506 2066100 2133078 2220106 2282300 2324098
3421.12 2397024 2485378 2561812 2627344 2694832 2765800
3424.01 2797556 2811786 2866570 2945484 3001806 3032232
3426.91 3079250 3128620 3153514 3200152 3278490 3353542
3429.80 3414044 3432110 3418736 3406238 3397250 3420320
3432.69 3458234 3453456 3403334 3360480 3373450 3400432
3435.59 3385422 3364436 3364538 3347696 3293168 3236796
3438.48 3182684 3117480 3052150 2983110 2924314 2875182
3441.37 2808668 2744874 2702122 2655496 2579642 2495748
3444.26 2412176 2343250 2292568 2235634 2208748 2179066
3447.16 2105472 2040026 1975354 1888874 1818626 1753274
3450.05 1687540 1633120 1562786 1501388 1483140 1465376
3452.94 1411808 1349268 1290564 1231516 1197314 1173736
3455.83 1144636 1124676 1112446 1091180 1067058 1039088
3458.73 1004254 974744 960500 961928 969216 957234
3461.62 944644 948214 951014 934650 891096 869186
3464.51 879476 878540 871238 870926 882060 895746
3467.40 912292 925402 910544 900568 905492 913140
3470.30 937884 988128 1049298 1071672 1057360 1067182
3473.19 1093198 1100132 1095398 1082732 1080962 1086870
3476.08 1118688 1181454 1212646 1200200 1190010 1198220
3478.98 1229298 1278056 1322284 1339728 1334176 1351252
3481.87 1372782 1351850 1325688 1327674 1353852 1365096
3484.76 1329216 1303060 1322148 1349274 1370606 1364802
3487.65 1332044 1320182 1319926 1315434 1322286 1316920
3490.55 1252664 1175458 1147082 1129080 1121472 1124312
3493.44 1101706 1082652 1066470 1025942 989058 954662
3496.33 913852 875508 829992 784372 766310 769792
3499.22 743084 700274 679548 668664 650482 622230
3502.12 600124 589826 566982 541276 491238 408124
3505.01 350438 339166 338074 323082 309544 311702
3507.90 315222 309242 321644 293368 218750 176194
3510.80 168450 168284 148480 127642 137764 156010
3513.69 145690 111958 100384 98104 73616 53760
3516.58 65902 82472 67076 47744 41470 27050
3519.47 33878 54230 58588 56254 55646 69006
3522.37 102234 123474 126014 106900 67952 56024
3525.26 60290 53960 50396 69150 97940 87558
3528.15 57596 33034-16002-30088 9554 28672
3531.04 12386 10028 15454 2890 7642 22578
3533.94 2014-32126-43186-10904 43252 51886
3536.83 29892 23178 23556 1818-19982-8796
3539.72 21976 31806 21720 23190 40776 45722
3542.62 19278 2938 13886 38394 79704 101212
3545.51 83498 121288 180854 134234 61760 25380
3548.40 2968 17094 32114 43524 61126 77182
3551.29 136186 173284 119378 73716 64310 63528
3554.19 75982 75374 59758 51470 43434 20648
3557.08 5004 11986 30796 56206 92236 110584
3559.97 77738 42898 35748 39394 60354 74034
3562.86 69714 63756 52766 72046 142242 222220
3565.76 271122 238358 171174 257186 341150 218666
3568.65 72104 16742 22972 21970-19586-21272
3571.54 4626 12970 12712 7012 2522 15576
3574.44 22826 448-19836-17020 7310 15414
3577.33-902-7960 4832 21890 29596 29334
3580.22 21196 3920-216 20876 46432 68278
3583.11 69854 59158 69170 68862 80464 215764
3586.01 376150 312592 169400 200784 373060 382820
3588.90 154298-2320-33814-38054-14246 19506
3591.79 13882 30998 85078 74868 48912 92628
3594.68 160000 136654 60046 28580 17780 24930
3597.58 48552 48916 29714 33980 59094 84940
3600.47 85552 50794 5164-14998 3260 14732
3603.36-10596-48964-59884-37948-18644 24022
3606.26 127836 178076 105820 65718 265956 549304
3609.15 429570 128092 41270 56420 93532 226272
3612.04 364992 278546 120526 127162 202822 198074
3614.93 141828 99694 64412 89640 245552 353878
3617.83 274250 255048 506674 638486 381896 175128
3620.72 164730 160834 142590 157166 181386 184406
3623.61 164626 143254 156656 206612 254812 269992
3626.50 278890 400928 789900 1066196 1042844 1172418
3629.40 1033216 556686 346096 323864 319130 325248
3632.29 318814 368630 451042 395442 295660 282638
3635.18 286754 271786 251958 239402 258916 283848
3638.08 279486 268844 272582 276534 287994 332534
3640.97 429726 550078 637214 630084 525820 427240
3643.86 390376 379820 396832 443956 532726 689668
3646.75 839218 765366 607748 889596 1357548 1166614
3649.65 770024 797806 867524 735712 520604 402850
3652.54 360428 316480 300986 333400 365972 490294
3655.43 872870 1079768 741622 409096 340502 320768
3658.32 284552 281936 312124 316674 293350 306964
3661.22 333102 319820 289702 278592 280258 281382
3664.11 278310 286554 312920 331710 325858 316414
3667.00 319362 424192 679694 777826 616350 706022
3669.90 1310384 1571122 960546 436898 350286 362330
3672.79 379074 456948 713964 1096404 1324210 1581066
3675.68 1573236 945132 496896 448032 438140 450470
3678.57 551904 602266 513102 464156 475314 475192
3681.47 478858 470962 459620 481792 513538 541244
3684.36 558906 555402 546116 540402 543034 636496
3687.25 1117368 1915010 1932180 1174744 774592 769298
3690.14 892634 1091094 1051834 816728 708294 704716
3693.04 719504 722774 724262 717528 707482 728932
3695.93 772322 786496 793398 819376 847768 866554
3698.82 885652 910902 929240 987172 1192714 1390608
3701.72 1317968 1153736 1103474 1121380 1158286 1194542
3704.61 1250284 1310480 1363848 1425932 1467624 1493336
3707.50 1537146 1638224 1887232 2060490 1906712 1768024
3710.39 1837096 2059906 2554226 2743008 2260942 1871954
3713.29 1826932 1878906 1934434 1933762 1934388 1952680
3716.18 1936484 1913786 1906774 1940730 2035004 2087750
3719.07 2039736 1985694 1949610 1921668 1967184 2103148
3721.96 2139308 2005046 1873780 1816704 1792964 1785732
3724.86 1741862 1726512 1843174 1824518 1594844 1432958
3727.75 1352172 1283540 1240932 1224038 1193174 1159270
3730.64 1232576 1608928 1961494 1687784 1223402 1110686
3733.54 1221950 1418388 1536020 1417074 1319076 1583060
3736.43 1610662 1149920 916392 931830 861374 761724
3739.32 711230 720718 804672 854444 783782 710752
3742.21 722032 866550 1393824 2427558 3022584 2261834
3745.11 1178834 742168 690232 731394 742126 738250
3748.00 992878 1769346 2249256 1640580 938524 789492
3750.89 1071454 1901038 2273662 1508236 811236 658488
3753.78 622892 599324 598012 643954 774092 831020
3756.68 713026 614626 603382 619402 707230 863442
3759.57 858748 658818 550700 550222 559786 551078
3762.46 517954 518446 548710 547054 582806 739322
3765.35 820948 692820 585070 570140 563670 549260
3768.25 572190 759876 1056360 1025520 721292 582678
3771.14 586220 577448 558636 550190 560834 588100
3774.03 603184 602584 617406 631178 628146 635802
3776.93 656776 670500 689106 815034 1033756 1051448
3779.82 878150 775686 756974 757498 757766 767038
3782.71 778126 808184 880588 924340 909644 895132
3785.60 886006 879798 878878 898526 952758 994008
3788.50 989380 965834 955768 963024 973300 985442
3791.39 983472 984042 1010574 1040230 1062048 1095608
3794.28 1123546 1140786 1230016 1422886 1452438 1278980
3797.17 1180160 1182358 1194830 1199766 1217082 1282250
3800.07 1572570 2303724 2643228 1993858 1422330 1326202
3802.96 1297952 1261220 1213510 1174830 1187160 1260932
3805.85 1603744 2138444 2058144 1475902 1195150 1160076
3808.75 1146540 1149602 1157806 1168430 1186050 1179988
3811.64 1164152 1158812 1155672 1155296 1175974 1212176
3814.53 1345026 1924338 2625936 2335588 1526336 1191062
3817.42 1176734 1232676 1263792 1278414 1405914 1726608
3820.32 1971186 2025662 2006670 1708266 1387104 1306946
3823.21 1312514 1323006 1320152 1326722 1354396 1441954
3826.10 1569984 1571550 1477838 1421264 1376650 1359672
3828.99 1376220 1395592 1429372 1568858 1816278 1836708
3831.89 1596734 1453230 1433198 1463958 1626622 1892400
3834.78 1883928 1631936 1529500 1603724 2068140 2867680
3837.67 2800892 1944432 1523210 1549222 1601052 1641264
3840.57 1672524 1542876 1381910 1340364 1433914 1622354
3843.46 1640670 1457496 1354062 1336764 1319164 1300946
3846.35 1274800 1248696 1255276 1281398 1288432 1299174
3849.24 1333792 1347446 1356768 1570276 2244138 2633020
3852.14 2107798 1811146 2611464 3622540 3318480 2089420
3855.03 1395630 1320194 1393732 1475128 1474944 1389244
3857.92 1345660 1344978 1331424 1299746 1293262 1347400
3860.81 1497392 1624586 1541214 1418614 1408784 1450864
3863.71 1593946 1893456 2035170 1761732 1495892 1439510
3866.60 1430614 1441316 1486520 1617494 1863488 2180566
3869.49 2505588 2361984 1888586 1677770 1627476 1611192
3872.39 1659012 1769666 1950950 2060400 1936124 1764268
3875.28 1735186 1782834 1832924 1850332 1827714 1822596
3878.17 1872648 1942322 2120568 2376570 2419042 2279156
3881.06 2143564 2090064 2151286 2244910 2275736 2250564
3883.96 2264648 2477084 2942640 3117822 2778964 2486194
3886.85 2411062 2396484 2418856 2468536 2497310 2514406
3889.74 2574890 2818300 3130326 3060684 2752610 2606988
3892.63 2614638 2634504 2629618 2634098 2645648 2646554
3895.53 2620136 2587064 2602764 2657080 2685562 2735680
3898.42 2963634 3123280 2892474 2616758 2584772 2806806
3901.31 3039364 2892842 2598720 2537610 2775594 2975256
3904.21 2751782 2468296 2415178 2398104 2309716 2212552
3907.10 2149554 2098098 2058952 2034650 2021348 2017048
3909.99 1997308 1965236 1961022 1967616 1937754 1882132
3912.88 1831482 1814362 1828330 1834368 1819708 1819640
3915.78 1857498 1939500 2012368 1937182 1797178 1725342
3918.67 1723040 1823232 1913054 1848656 1751584 1750224
3921.56 1794188 1811528 1814062 1819182 1813620 1836112
3924.45 1889380 1893984 1844596 1800480 1777348 1787498
3927.35 1815646 1832412 1873958 1936930 1936468 1909694
3930.24 1926882 1963036 2027680 2121230 2143692 2083730
3933.13 2055386 2062242 2053452 2050386 2051530 2047380
3936.03 2057448 2076612 2090986 2107076 2140894 2183330
3938.92 2197016 2187818 2216792 2272870 2302460 2333816
3941.81 2426978 2486258 2406176 2330886 2350146 2386486
3944.70 2406318 2434660 2460098 2481708 2518898 2541314
3947.60 2541872 2534882 2558664 2656260 2721366 2697312
3950.49 2668268 2658180 2655832 2655542 2668692 2694568
3953.38 2700980 2691194 2709018 2763812 2791530 2771872
3956.27 2762540 2766918 2763446 2771856 2799110 2823766
3959.17 2824790 2815370 2819176 2842390 2852012 2829358
3962.06 2790200 2763440 2768180 2769486 2733088 2723374
3964.95 2730278 2706816 2692490 2667180 2634768 2653804
3967.85 2676518 2666582 2647748 2596456 2536434 2551498
3970.74 2587806 2580350 2569526 2547380 2497264 2460162
3973.63 2446030 2446804 2450688
##END=
