##TITLE=Ethyl tert-Butyl Ether
##JCAMP-DX=4.24
##DATA TYPE=INFRARED SPECTRUM
##CLASS=IUPAC A
##ORIGIN=NIST, Anayltical Chemistry Division, 301-975-3108
##OWNER=COPYRIGHT (C) 1998 by the U.S. Secretary of Commerce
##DATE=98/10/1
##$SPECTRA VERSION=1.00
##$UNCERTAINTY IN Y=2.8 % relative (B=1.9E-04,C=3.0E-09,D=2.7E-14)
##CAS NAME=tert-Butyl Ethyl Ether
##CAS REGISTRY NO=637-92-3
##MOLFORM=( C H3)3 C O C2 H5
##MP=-94 C
##BP=73.1 C
##$NIST SOURCE=QUANT-IR
##SPECTROMETER/DATA SYSTEM=IFS66V (Bruker)
##INSTRUMENT PARAMETERS=KBr Beam splitter; MCT Detector; Multipass cell
##STATE=gas
##SAMPLE DESCRIPTION=ETBE Primary Gas Standard
##PRESSURE=101.3 kPa
##TEMPERATURE=23 C
##SAMPLING PROCEDURE=1 L/min Flow
##RESOLUTION=0.9640
##DATA PROCESSING=Happ Genzel Apodization
##XUNITS=cm-1
##YUNITS=(micromol/mol)-1m-1 (base 10)
##XFACTOR=1.0
##YFACTOR=9.0949E-13
##DELTAX=0.4820
##FIRSTX=575.169
##LASTX=3975.077
##FIRSTY=-7.49E-08
##MAXX=3974.59
##MINX=575.17
##MAXY=.0013584
##MINY=-7.14E-07
##NPOINTS=7053
##XYDATA=(X++(Y..Y))
575.17-82360-251196-137338-8164-153450-357518
577.58-317452-332114-221410-214152-33868 84888
580.47-200642-785606-507526-161108-211248-193980
583.37-180396-94386-103208-357168-470182-699062
586.26-625328-176114 3474-125864-323806-279786
589.15-110736-98194-204356-165644-30772-27734
592.04 28592-52034-207330-105244 89562-5270
594.94-265264-330126-290324-185736-149874 7066
597.83 148258 11702-86866 9432-512-250414
600.72-166976-49716-66344-33050-86670-106858
603.61-84476-132026-177388-131202 3286-18754
606.51-104154-86342 122376 184510 147058 159376
609.40 204548 254870 165838 123146 170434 103080
612.29 29942 95094 121002 14962-13962 64604
615.18 174556 167526 107838 135976 133366 133870
618.08 155186 115846 30532 25062 137296 168390
620.97 143688 152806 200292 151434 67814 46748
623.86 98470 182960 145272 103628 167280 147406
626.76 145872 179208 116918 136744 171182 138762
629.65 142440 191912 260758 258534 197416 124556
632.54 11336 28152 115436 176210 187520 139468
635.43 182524 200042 106280 31198 47856 110858
638.33 109496 106142 116202 60342 22242 25326
641.22 31502 51096 131806 128598 21218-21484
644.11-4920 31172 25756-8708 54296 214542
647.00 209558 97956 45422 98368 138906 80282
649.90 38768-12790-8288 68512 119772 112586
652.79 43094-25628 15132 75882 50730-1066
655.68-14462-50326-13520 37572 73438 130458
658.58 128974 55366 61832 19176-50732-49778
661.47 21114 30462 61174 106154 33916 17620
664.36-7180-14244 61950 88568 53846 29726
667.25 111888 125128 88676 135204 146228 59474
670.15 43174 112154 127446 96570 41074 74510
673.04 119222 83234 55300 59992 89552 162926
675.93 107970 4624 29326 105604 146038 171474
678.82 168984 137886 117796 123068 193706 254148
681.72 283294 268602 277802 312450 274272 252708
684.61 268756 268602 340232 363572 385256 415836
687.50 380128 393888 379464 330408 337402 418626
690.40 453978 472194 484348 514094 527546 490298
693.29 529506 622988 605572 551660 561732 623190
696.18 664386 639176 683198 725738 728046 675188
699.07 648594 665630 725620 792972 779458 799792
701.97 899458 913680 894332 915930 1007934 1043362
704.86 1013332 1057392 1120794 1159964 1236544 1307526
707.75 1355724 1431008 1455254 1462428 1531676 1661506
710.64 1768974 1783194 1824912 1942052 2087890 2237362
713.54 2342030 2467074 2631206 2730542 2830298 3040384
716.43 3249758 3416140 3603858 3826200 4079026 4296466
719.32 4538352 4824738 5140286 5475664 5801700 6149218
722.22 6564524 6948108 7293248 7797226 8429718 8890764
725.11 9341300 9936244 10490960 11036510 11691520 12373200
728.00 13023700 13726710 14536560 15344390 16190840 17044560
730.89 17855910 18689670 19547000 20350260 21145890 21897840
733.79 22581920 23245420 23830960 24317660 24756460 25120880
736.68 25344430 25478940 25579900 25625060 25675880 25681070
739.57 25712070 25934210 26199510 26450210 26853210 27200930
742.46 27217620 26665880 25397380 23759130 22505600 21938810
745.36 21743940 21692860 21648590 21543220 21391100 21139210
748.25 20668580 19946840 19089880 18138100 17121680 16083540
751.14 15047570 13964520 12850960 11767100 10740940 9831918
754.04 9038766 8240954 7571448 6953096 6357368 5853880
756.93 5383430 4931344 4591116 4262034 4006068 3728096
759.82 3507346 3367678 3210728 3037226 2892454 2818614
762.71 2727960 2531002 2410962 2399956 2367872 2293024
765.61 2204698 2153956 2129908 2113552 2089784 2025372
768.50 2005390 2027626 2019252 2018132 1990280 1988090
771.39 1974986 1957782 1931050 1896758 1847892 1868630
774.28 1878246 1919124 1943396 1880824 1813850 1792360
777.18 1777236 1808266 1833012 1799170 1789556 1798044
780.07 1774558 1793594 1799690 1727642 1731912 1726460
782.96 1698960 1686448 1675516 1685472 1716722 1688292
785.86 1657140 1656764 1673246 1662408 1694478 1711992
788.75 1692140 1686272 1658426 1660710 1674796 1660440
791.64 1643218 1667442 1718456 1718428 1674690 1675498
794.53 1691746 1689894 1679572 1726542 1763456 1775174
797.43 1807490 1848490 1898794 1908276 1908162 1888982
800.32 1889898 1953678 2031266 2063686 2081684 2105850
803.21 2136764 2186160 2212570 2252736 2298976 2301160
806.10 2332846 2400234 2423230 2465266 2502086 2586332
809.00 2692158 2725400 2731124 2771496 2826822 2897776
811.89 2948914 2968284 3026710 3080906 3086442 3154226
814.78 3260194 3374274 3445062 3473702 3517904 3631940
817.68 3773378 3857186 3957916 4152142 4337294 4436816
820.57 4561466 4768556 4955930 5125044 5303458 5544378
823.46 5858894 6243840 6610022 6991844 7397232 7828242
826.35 8339982 8872596 9426978 10069570 10734690 11527730
829.25 12458460 13344320 14313670 15390140 16487980 17595280
832.14 18848090 20233590 21635460 23144080 24810570 26561930
835.03 28381680 30331200 32459120 34615180 36833920 39142380
837.92 41494030 43916890 46350180 48839920 51328650 53725020
840.82 56070470 58388000 60574870 62672350 64604320 66304850
843.71 67773570 69098840 70274590 71169350 71972940 72865740
846.60 73809710 74833620 76096760 77595380 79165440 80634450
849.50 81862660 82036060 80296180 76773830 73113740 70786780
852.39 69670730 69233520 68975290 68676660 68168510 67279870
855.28 66031940 64549460 62569990 60136480 57425750 54499340
858.17 51478470 48307450 45005730 41822270 38747890 35825590
861.07 33059010 30458580 28046260 25726010 23616470 21726080
863.96 19972670 18375290 16872070 15451480 14179800 13045820
866.85 11947160 10950740 10083350 9278330 8519332 7868298
869.74 7242638 6666692 6168854 5724828 5342208 5000508
872.64 4658218 4386288 4168284 3977188 3797574 3638720
875.53 3479934 3350054 3253110 3131650 3003274 2917124
878.42 2871738 2843242 2808866 2742338 2687530 2658082
881.31 2650120 2674844 2684782 2667312 2697146 2753168
884.21 2788634 2836276 2821698 2845428 2918094 2968114
887.10 3034350 3151676 3273758 3465250 3733668 3875068
889.99 3741192 3435330 3297320 3284466 3350700 3473204
892.89 3543458 3594072 3691984 3787958 3928218 4064546
895.78 4125748 4164688 4290008 4448242 4577778 4723914
898.67 4915492 5088336 5251434 5471010 5678752 5863944
901.56 6112202 6363142 6557408 6784570 7036066 7314928
904.46 7633580 7931440 8208728 8474964 8712838 8946534
907.35 9164652 9356160 9537092 9690490 9806162 9878754
910.24 9949482 10014590 10037700 10036410 10068390 10169210
913.13 10252080 10344630 10510930 10736660 10972380 11142830
916.03 11179550 11077750 10852500 10681940 10648570 10680130
918.92 10813930 11052720 11188760 11256580 11289730 11073270
921.81 10743540 10480130 10245280 10146150 10045310 9868506
924.71 9687348 9621410 9577662 9511488 9490060 9504644
927.60 9550584 9643484 9761594 9935618 10145680 10383550
930.49 10619730 10920510 11314130 11691550 12081360 12529510
933.38 13040920 13585260 14156840 14820730 15530000 16251800
936.28 17074920 18035730 19042690 20119890 21292820 22593530
939.17 23949750 25369790 26955650 28722460 30562180 32547870
942.06 34683510 36936540 39307760 41857370 44564110 47378440
944.95 50328070 53555980 56899550 60374700 64070900 67922740
947.85 71881310 76020440 80344200 84839950 89301970 93793140
950.74 98214110 102520600 106741100 110638100 114160500 117306700
953.63 120074100 122411800 124235900 125669500 126776200 127525400
956.53 128069300 128520700 129028600 129769500 130857900 132389800
959.42 134197800 135910500 136937000 136684900 134989800 131887400
962.31 127781200 123280900 118865400 115640300 113917400 112938000
965.20 112200700 111279200 109894400 107742200 104675300 100821100
968.10 96125180 90702070 84773700 78407080 71887690 65395020
970.99 58964890 52832770 47124740 41854890 37073490 32805370
973.88 29033130 25746240 22921920 20511890 18415300 16615920
976.77 15130950 13868190 12785100 11837700 11003100 10258560
979.67 9596562 9054718 8591160 8153916 7757606 7399976
982.56 7116296 6867374 6622786 6421370 6213852 6025300
985.45 5864358 5709708 5559948 5451680 5397764 5316804
988.35 5210506 5126138 5097460 5070050 5009598 4944680
991.24 4904280 4898274 4913134 4894016 4904174 4955452
994.13 5033010 5079202 5075006 5126446 5233646 5309782
997.02 5383042 5505830 5641272 5764540 5928060 6125276
999.92 6322944 6510774 6711242 6929874 7185366 7451164
1002.81 7696374 8028490 8397148 8741976 9092140 9472358
1005.70 9860736 10263340 10681020 11156910 11671860 12184000
1008.59 12723830 13321920 13956620 14582350 15236470 15956860
1011.49 16728210 17543830 18426220 19368280 20317820 21276410
1014.38 22264820 23307780 24370870 25407460 26475990 27505240
1017.27 28474630 29382030 30244520 31012310 31661930 32094310
1020.17 32205490 32073870 31930680 31793930 31629640 31520920
1023.06 31504780 31649200 31989280 32565830 33425450 34354340
1025.95 35027810 34630600 32750660 30984410 30174400 29897610
1028.84 29875640 29974560 30074900 30142560 30082220 29920830
1031.74 29692460 29313800 28782780 28139040 27363540 26545790
1034.63 25735050 24969770 24214980 23513430 22914600 22367740
1037.52 21920360 21593140 21342180 21190390 21130870 21128550
1040.41 21179130 21360400 21618030 21900210 22238460 22696330
1043.31 23237400 23823940 24463090 25159950 25911430 26716430
1046.20 27602460 28557940 29593010 30696790 31867530 33095960
1049.09 34393470 35772730 37243960 38847360 40544080 42342510
1051.99 44275080 46344840 48565210 50967530 53505740 56183420
1054.88 59047210 62143010 65537240 69180690 73054500 77207340
1057.77 81660910 86423470 91513140 96977060 102789200 109019200
1060.66 115716600 122844700 130366700 138364300 146916500 156167600
1063.56 165994700 176368500 187274600 198824400 211152300 224062600
1066.45 237541300 251432100 265797400 280830300 296250000 312058200
1069.34 328136900 344730300 361721200 378809100 395981700 412952800
1072.23 429952600 446818700 463496700 480246500 496300700 511310900
1075.13 525046100 537384100 548393300 557559700 564721300 570059400
1078.02 574128300 577550100 580578300 583341100 586285200 589583400
1080.91 592934500 595968800 599154200 601771800 601766500 598159000
1083.81 592265500 585408600 573206800 554288100 535346800 518864600
1086.70 504374000 491993800 479783600 467733200 456039900 443292800
1089.59 429378100 413683900 395667600 375680500 353935100 331030000
1092.48 307103200 282449000 257923100 234329900 212153200 191763700
1095.38 173419500 157366100 143676400 132300100 123240000 116223200
1098.27 111078300 107655200 105710700 105191100 105863100 107514900
1101.16 110028900 113426900 117470800 122184500 127509300 133439600
1104.05 140006100 147041000 154503200 162386200 170776800 179622900
1106.95 188942100 198665900 208648000 218838400 229176900 239822600
1109.84 250732200 261769100 272965100 284254600 295489100 306818900
1112.73 318144900 329276300 340208100 350785500 360996000 370537900
1115.63 378916400 386399100 392893800 398110700 401840500 404216800
1118.52 405767600 406484600 406305400 405832900 405270600 404157700
1121.41 402713000 400955000 398475000 395477100 391008700 384084500
1124.30 375024400 363741100 350999400 338997400 329716500 322760700
1127.20 315359300 307515900 299658000 291076600 281561600 270748600
1130.09 258784700 245871100 232302000 218275800 203943300 189701500
1132.98 175895600 162562600 150048600 138420100 127603800 117640900
1135.87 108684000 100669500 93573730 87327890 81906620 77165770
1138.77 73158640 69787600 66909110 64390260 62246440 60474440
1141.66 59081690 57884420 56791180 55989460 55554500 55334870
1144.55 55267720 55363940 55560840 55875960 56271140 56784680
1147.45 57367300 57984630 58675320 59379550 60111880 60874330
1150.34 61637840 62475850 63288080 64034190 64817720 65628730
1153.23 66389030 67056440 67692940 68284030 68840370 69404620
1156.12 69985500 70504970 70971640 71457770 71903950 72195580
1159.02 72429870 72656410 72840820 72975980 72946250 72742300
1161.91 72390820 71977410 71612660 71156420 70698960 70267260
1164.80 69823890 69412300 69006940 68520900 68063980 67680010
1167.69 67288030 66939790 66616280 66320110 66115380 65917930
1170.59 65787830 65725990 65665360 65614960 65590460 65608670
1173.48 65683850 65834140 66046120 66264340 66598060 67093820
1176.37 67687140 68342370 69134220 70004320 70932820 72020500
1179.26 73354630 74844380 76520840 78478300 80678770 83115800
1182.16 85907080 89024740 92465050 96318000 100578400 105249000
1185.05 110458700 116300700 122735100 129809400 137601700 145975700
1187.94 155084900 165015700 175645300 187046300 199384100 212605600
1190.84 226598400 241353700 256697000 272594900 288994900 305881000
1193.73 323092700 340493300 358052900 375921400 393904700 411728300
1196.62 429752100 447943000 466173900 484568000 503435200 522598600
1199.51 541929900 560811900 579646100 597747800 614059800 628526800
1202.41 640756800 651356800 660292800 667939100 675652500 683202200
1205.30 690344800 698277200 705770200 710681800 713309900 715598100
1208.19 717640800 717662700 713264500 704382500 692909200 679076900
1211.08 663668900 648819600 634191900 618533200 601753200 584264400
1213.98 565256300 544137800 521360900 496923500 471035800 444534400
1216.87 417994500 391160400 364713700 339604300 315974100 294144000
1219.76 274238000 256353900 240435700 226234400 213922900 203375200
1222.66 194209800 186444900 180044300 174814100 170480100 166995200
1225.55 164322500 162343000 160829200 159704700 159054100 158868000
1228.44 159017100 159353900 159889300 160615700 161531700 162544200
1231.33 163572800 164620200 165745100 166971500 168198800 169357700
1234.23 170518300 171720000 172933500 174103200 175340700 176519100
1237.12 177635800 178753000 179868900 181014800 182028400 182871900
1240.01 183702300 184423400 184921400 185108000 185117200 184989500
1242.90 184740700 184271900 183570700 182745600 181844100 180798400
1245.80 179642800 178571200 177419800 176157200 175096700 174135100
1248.69 173175900 172269500 171397100 170530600 169625000 168720000
1251.58 167731900 166667600 165493800 164216300 162864600 161397800
1254.48 159850800 158205300 156511700 154812700 152998200 150965900
1257.37 148840500 146779700 144589200 142293500 140021400 137668200
1260.26 135310100 132913100 130404300 127760100 125027000 122212900
1263.15 119136900 115850400 112547800 109253200 106070900 103044300
1266.05 100083300 97129670 94231820 91369530 88524980 85638640
1268.94 82752060 79868110 77006260 74198500 71444320 68679670
1271.83 65976420 63334260 60839330 58455840 56121960 53872660
1274.72 51726530 49687120 47734500 45929820 44223700 42568400
1277.62 41032830 39591850 38210630 36907990 35705570 34565600
1280.51 33530100 32543880 31568880 30653370 29810670 29037760
1283.40 28286720 27606810 26983170 26342730 25760220 25247040
1286.30 24737920 24271250 23855220 23424360 22983360 22546660
1289.19 22133040 21746010 21380720 21038030 20698620 20363700
1292.08 20067330 19801210 19541040 19263960 18990720 18759120
1294.97 18519880 18277680 17992640 17709590 17463980 17205440
1297.87 16962600 16749440 16562740 16398140 16222840 16050960
1300.76 15846850 15643530 15441060 15197120 14933460 14625980
1303.65 14309450 14015280 13733590 13464560 13151770 12862340
1306.54 12616760 12393160 12179030 11954450 11760480 11608820
1309.44 11446490 11287730 11159800 11037210 10925080 10822530
1312.33 10715670 10642520 10573540 10502670 10443020 10376420
1315.22 10319010 10274030 10236980 10183290 10113020 10042910
1318.12 9991086 9949762 9901070 9856506 9810334 9773250
1321.01 9720694 9648928 9562834 9478896 9409850 9331492
1323.90 9241428 9154290 9054064 8978424 8936174 8896814
1326.79 8849920 8812548 8808214 8781598 8727450 8651050
1329.69 8560552 8502000 8473698 8471938 8465108 8480096
1332.58 8514034 8557206 8553632 8592338 8678002 8774410
1335.47 8906600 9114642 9292360 9470476 9748786 10116240
1338.36 10487710 10900980 11389470 11956890 12554240 13227910
1341.26 14058730 15039580 16169980 17452290 18924210 20625360
1344.15 22555410 24696350 27122850 29846470 32896110 36260890
1347.04 40002860 44202650 48811970 53795260 59234780 65086640
1349.94 71321940 78038120 85194820 92754680 100653400 108770500
1352.83 117140300 125756300 134543200 143432800 152286600 161099200
1355.72 169829800 178432900 186930800 195298100 203643300 211881200
1358.61 220015500 228362000 237082700 246214900 255949000 266279200
1361.51 277170600 288259900 298536800 307508600 316816400 328320900
1364.40 340433300 352108500 361043200 362133300 356240600 348987200
1367.29 342346500 335466300 327768000 319436000 310730900 302053400
1370.18 293969300 287170400 281476100 275530200 267447100 257509200
1373.08 247547500 238559900 230392600 222567300 214890500 207335200
1375.97 199676900 192045400 184612300 177393700 170496400 164072700
1378.86 158325600 153310500 149157700 145944100 143758800 142745200
1381.76 142958400 144196600 146536800 150012800 154388800 159457400
1384.65 165035900 170925300 176932200 182803300 188600100 194262800
1387.54 199308400 203970500 208612900 212826800 215390400 216011200
1390.43 215766400 215893500 217141900 219754400 223526200 228234800
1393.33 233288700 237746500 240315300 240212000 237024000 230464000
1396.22 222068800 214811000 210389800 208934700 209861400 212042000
1399.11 213896000 214831200 214522300 212457200 208360500 202255400
1402.00 194284300 184760100 174039700 162592800 150832600 139057100
1404.90 127327100 115997000 105507000 95854300 87038110 79086210
1407.79 72013140 65840910 60447440 55726750 51617500 48066060
1410.68 45021850 42377840 40037540 37993220 36216920 34642320
1413.58 33252610 31994130 30863560 29895380 29029420 28242160
1416.47 27595890 27064600 26384790 25836430 25794620 25972610
1419.36 25125140 24088820 23662800 23393720 23143480 22918500
1422.25 22771670 22669610 22684930 22627120 22486370 22408940
1425.15 22427400 22499250 22608610 22747630 22926670 23161900
1428.04 23459270 23834200 24395510 25016200 25436630 25950070
1430.93 26645000 27420630 28275360 29201980 30158980 31123300
1433.82 32134940 33164800 34243100 35403960 36938980 38573390
1436.72 39175580 39649880 40665540 41767220 42862700 43951280
1439.61 45043670 46122040 47206540 48309950 49433960 50542090
1442.50 51677120 52845870 54063120 55243300 56399820 57556970
1445.40 58694260 59812480 60895020 62145130 63943700 65475870
1448.29 66169450 66466010 66703480 66978340 67210500 67443420
1451.18 67705550 67977360 68193540 68558550 69067550 69682580
1454.07 70402960 71256600 72105090 73159950 74919250 76147890
1456.97 76155730 76769590 77679270 78340500 78996940 79489360
1459.86 79958230 80463820 80965340 81455360 81937730 82430340
1462.75 82878620 83222780 83502190 83785690 83569380 83066410
1465.64 82970210 83182300 83632520 84155610 84659030 84961820
1468.54 84897930 84334220 83335120 82070870 80821120 79796060
1471.43 79038050 77777420 76514260 75949860 74835980 73465970
1474.32 72495340 71664000 71028900 70415460 69509770 68635690
1477.21 67982160 67464700 67042840 66739300 66562110 66504450
1480.11 66575050 66821040 67113760 67404070 67819670 68258420
1483.00 68607940 68834300 68932110 68814880 68503830 68010140
1485.89 67357340 66701780 66031680 65051420 64118850 63522450
1488.79 63315690 63516240 63952350 64755650 65441510 65473800
1491.68 64575360 62593830 59841570 56818610 54506480 53061860
1494.57 52216140 51899310 52270370 51818770 50495290 49533180
1497.46 48535180 47536400 46170200 44076810 41922190 39827820
1500.36 37641110 35427950 33207050 30980450 28837390 26801600
1503.25 24874610 23078730 21494100 20726550 19948150 17944610
1506.14 17037600 16506280 14597140 13155870 12381710 11483840
1509.03 10805270 10206780 9514024 8940988 8482868 8309890
1511.93 8060496 7415362 6945946 6624618 6403738 6300456
1514.82 6027486 5714364 5693024 5710562 5708972 5434598
1517.71 4927436 4654836 4545808 4616340 4797954 4879354
1520.61 5606090 5305442 4336048 4425562 4218232 3817048
1523.50 3648178 3646756 3837354 4173214 3820508 3423112
1526.39 3448930 3532030 3381870 3391396 3342022 3159068
1529.28 3077894 3081938 3059852 3103754 3130502 3080774
1532.18 3168676 3448146 3679242 3570564 3080018 2941058
1535.07 2902590 2893340 2864158 2908752 2905882 3039206
1537.96 3663702 4916998 4469866 4010826 4291876 3443918
1540.85 3121416 3872486 4009802 3197050 3001720 2932492
1543.75 2852364 3132900 3442446 3058936 2743874 2688892
1546.64 2702830 2701676 2709510 2692656 2713242 2853556
1549.53 2972054 2879656 2713404 2673804 2674528 2685296
1552.43 2698400 2771128 3253452 3803948 3243328 2784038
1555.32 2734160 2763664 2899994 3528776 3965582 4638054
1558.21 4797020 3757008 4102884 4913660 4114754 2999834
1561.10 2837874 2776512 2807090 2789506 2836742 2838600
1564.00 3014190 3121090 2992588 2872162 2868538 2849800
1566.89 2890318 2875110 2964224 3122960 3481458 3778108
1569.78 3390918 2988496 2965068 2947584 2978752 2976178
1572.67 3019506 3012604 3070206 3086130 3205516 3876188
1575.57 5229782 4685442 3440924 3202244 3196696 3215858
1578.46 3223472 3213986 3226074 3266410 3315736 3344372
1581.35 3344236 3339430 3363430 3374734 3390880 3408458
1584.25 3431046 3442922 3456684 3458116 3452662 3449714
1587.14 3455950 3473706 3475652 3460290 3446956 3426960
1590.03 3424096 3407570 3418458 3399320 3360216 3326432
1592.92 3316268 3280390 3262172 3224202 3170368 3146192
1595.82 3146466 3098138 3061380 3033456 2993134 2940746
1598.71 2898806 2830948 2774866 2727548 2701984 2627102
1601.60 2547284 2494226 2476220 2403948 2333136 2277838
1604.49 2226870 2163080 2130662 2097446 2091066 2056184
1607.39 2012206 1959196 1955670 1972040 1934578 1857596
1610.28 1831150 1789958 1792554 1781318 1780786 1753586
1613.17 1775236 1755620 1750444 1739520 1807478 2297822
1616.07 3551724 3236358 2016950 1739270 1716868 1732546
1618.96 1742546 1749150 1738780 1741148 1738078 1765940
1621.85 1834872 1966796 2351126 2400084 1942982 1818988
1624.74 1814752 1835578 1817208 1854758 1957894 2208070
1627.64 2196194 2015670 1967058 1982950 2006744 2048166
1630.53 2065966 2089932 2124814 2166006 2192998 2242710
1633.42 2306072 2561870 3111676 3916044 3918440 2922030
1636.31 2607410 2805970 2863654 2685074 2651162 2655644
1639.21 2718630 2763872 2807718 2825670 2879030 2920902
1642.10 2961456 2967622 3007200 3022576 3076878 3174958
1644.99 3816346 4554148 3975830 3504282 3688026 3640892
1647.89 3602524 3364750 3283694 3269558 3320594 3302828
1650.78 3392972 3902770 5283158 5782854 5932314 4993486
1653.67 4033270 4001214 3481782 3247324 3181430 3177784
1656.56 3125416 3122490 3072540 3068290 3037454 3039302
1659.46 3001614 3004284 2984240 2994510 3002066 3313656
1662.35 3591480 3223062 2891240 2868974 2849160 2843568
1665.24 2806888 2805148 2782132 2797398 2822438 2922222
1668.13 3064310 3611880 3633792 3002344 2806680 2986070
1671.03 3182218 2993698 2807018 2786000 2808408 2853232
1673.92 3008396 3661612 4076778 3474696 3025536 2953252
1676.81 2962026 2985474 3011506 3034500 3104578 3222340
1679.71 3322680 3335192 3269004 3279700 3331604 3579506
1682.60 4033440 4186138 4416744 5685394 6023668 4423872
1685.49 3807288 3814162 3908000 3960142 4119194 4209720
1688.38 4218016 4248120 4441152 4494096 4468412 4492632
1691.28 4602566 4650610 4735808 4781710 4886496 4954736
1694.17 5100846 5658764 7197176 7378220 5836934 5317088
1697.06 5384360 5363838 5359218 5486672 6242382 7227064
1699.95 7208708 6538986 5620024 5243538 5192314 5173798
1702.85 5129632 5235192 5498024 5383222 5041972 5022238
1705.74 5179806 4997070 4660554 4521426 4402282 4325948
1708.63 4254534 4236654 4229404 4112436 3918610 3802148
1711.53 3685804 3581126 3469142 3411770 3397352 3326562
1714.42 3500906 3448918 2942522 2792054 3305748 4411840
1717.31 3810302 3044456 3052386 2624316 2356282 2300474
1720.20 2292050 2263584 2224826 2192690 2204146 2241246
1723.10 2265308 2198850 2167160 2137462 2134408 2142076
1725.99 2167392 2157726 2155284 2155598 2177586 2197222
1728.88 2282608 2441490 2449634 2315510 2309968 2347496
1731.77 2413430 2755238 3698574 3673830 3688282 4094292
1734.67 3281112 2798554 2780500 2829102 2852542 2916192
1737.56 2920290 2962514 3063172 3526230 3729098 3277406
1740.45 3064150 3108420 3188858 3359256 3677928 4071964
1743.34 4359834 4339254 3988592 3732184 3701316 3690638
1746.24 3750684 3876448 3905166 4061314 4309180 4363924
1749.13 4337796 4365302 4598336 5197758 5256590 4615386
1752.02 4358196 4352008 4340730 4333766 4317858 4271442
1754.92 4253290 4254896 4434618 4627204 4430814 4326598
1757.81 4359404 4354296 4274206 4188126 4107288 4052342
1760.70 4128044 4456172 4266334 3787956 3609478 3506178
1763.59 3439596 3353158 3263522 3156612 3075084 2985626
1766.49 2914010 2934642 3265356 3199316 2733516 2597664
1769.38 2530642 2478970 2612500 2804868 2607248 2986196
1772.27 3488024 2768338 2227298 2148492 2112678 2154654
1775.16 2213680 2129040 2042294 2027358 2014304 2024682
1778.06 2045502 2092872 2095844 2130074 2294784 2329928
1780.95 2220194 2220806 2247654 2299246 2347692 2406694
1783.84 2529904 2820152 2835438 2734002 2758702 2835474
1786.74 2927584 3027914 3134422 3245466 3339532 3462656
1789.63 3620494 3911168 4125624 4112260 4404974 5118114
1792.52 5096824 4733994 4810882 4993784 5189846 5397678
1795.41 5651630 5832560 6017228 6247880 6469066 6678080
1798.31 6925538 7286984 7582136 7633356 7814746 8110192
1801.20 8296012 8493226 8691370 8762962 8900948 9034908
1804.09 9167758 9283632 9387926 9456724 9550886 9628788
1806.98 9727670 9777904 9815700 9869816 9910144 9961440
1809.88 10103390 10090310 9927586 9846610 9804556 9697442
1812.77 9529820 9390810 9327530 9241958 9180614 9128234
1815.66 9039018 8907682 8771782 8591496 8356056 8090218
1818.56 7816106 7532510 7247876 6966896 6694860 6423724
1821.45 6179376 5952840 5733894 5523996 5373198 5251334
1824.34 5296076 5317680 4995542 4755884 4658204 4578132
1827.23 4485802 4398716 4382438 4378348 4411036 4484698
1830.13 4186684 3908508 3806470 3727656 3671314 3615762
1833.02 3561060 3478000 3395868 3314608 3217374 3104626
1835.91 3022490 2962336 2875808 2743202 2663100 2600774
1838.80 2533872 2443854 2365226 2308100 2279790 2256466
1841.70 2253540 2211104 2223156 2494298 3040462 2794402
1844.59 2257314 2155154 2154696 2171252 2167322 2219952
1847.48 2247278 2195880 2195400 2212238 2225524 2233450
1850.38 2235440 2234790 2241158 2263116 2274836 2292982
1853.27 2310226 2305872 2300012 2310974 2326790 2343552
1856.16 2353856 2356912 2368148 2383932 2399848 2391524
1859.05 2388658 2399182 2406492 2395436 2375392 2359032
1861.95 2350386 2341000 2337614 2323510 2313212 2294464
1864.84 2291628 2329908 2355896 2307678 2296896 2369572
1867.73 2336326 2335368 2543630 2427768 2156158 2108422
1870.62 2063746 2014728 1999478 1982884 1955058 1934982
1873.52 1920090 1913300 1880762 1855112 1843442 1830052
1876.41 1782462 1749968 1722648 1723430 1717432 1720570
1879.30 1715668 1695656 1697384 1701602 1696452 1692246
1882.20 1683860 1686152 1698654 1734868 1754190 1747754
1885.09 1745646 1751408 1767748 1777698 1804098 1833482
1887.98 1856412 1944766 2105636 2085320 1991366 2005142
1890.87 2033740 2069054 2124194 2180968 2223012 2271444
1893.77 2324998 2401564 2473014 2489760 2523652 2583692
1896.66 2652862 2721442 2768586 2846058 2945122 3015778
1899.55 3081944 3168374 3269350 3353604 3433686 3548436
1902.44 3662668 3771790 3902300 4031660 4158646 4279872
1905.34 4411904 4570162 4733600 4899674 5071048 5236968
1908.23 5385310 5559644 5782446 5998246 6159428 6341090
1911.12 6542304 6758640 6971896 7200534 7409334 7618902
1914.02 7843102 8083266 8299858 8529950 8785222 9050738
1916.91 9374442 9842832 10026140 10058800 10260830 10502650
1919.80 10740950 10940150 11151840 11359940 11598550 11831870
1922.69 12039250 12154380 12247610 12355290 12469250 12562130
1925.59 12624510 12663220 12683060 12673940 12647320 12610170
1928.48 12546260 12475050 12408350 12317680 12200160 12068680
1931.37 11954400 11810850 11638290 11438090 11231890 10996300
1934.26 10755520 10506120 10229240 9948198 9662988 9380900
1937.16 9143168 8903402 8658168 8391904 8092720 7779504
1940.05 7446072 7092602 6729274 6405330 6134856 5721612
1942.94 5270448 4916668 4605338 4341882 4114604 3911570
1945.84 3730286 3567922 3423968 3342516 3295804 3240338
1948.73 3192690 3160442 3142556 3120772 3104656 3113186
1951.62 3124226 3146460 3176010 3204772 3244188 3288484
1954.51 3334122 3374694 3410660 3462834 3543892 3622266
1957.41 3677470 3731168 3768294 3829942 3920456 3998382
1960.30 4055384 4113302 4174188 4226692 4273592 4332660
1963.19 4369346 4408912 4464992 4503954 4519474 4541098
1966.08 4567968 4619710 4644134 4581384 4552574 4552672
1968.98 4544494 4516404 4486982 4459210 4439468 4412880
1971.87 4351784 4286572 4249422 4182266 4103122 3999900
1974.76 3904494 3846316 3797190 3735372 3651420 3576204
1977.66 3495706 3393628 3303098 3201480 3067968 2942958
1980.55 2829130 2718420 2616828 2514840 2408678 2306556
1983.44 2217326 2132360 2059436 1993978 1919408 1846510
1986.33 1792514 1731966 1674024 1639318 1595040 1543778
1989.23 1512400 1466140 1424080 1414236 1444748 1433710
1992.12 1359484 1311874 1273328 1240134 1211188 1200116
1995.01 1188582 1173010 1181406 1174474 1124086 1111258
1997.90 1127978 1113602 1096260 1091152 1085800 1072162
2000.80 1060738 1062372 1050154 1052220 1064736 1056162
2003.69 1043536 1040980 1042242 1036156 1036568 1045320
2006.58 1048000 1061422 1074320 1066680 1061014 1055884
2009.48 1055912 1057158 1066450 1077000 1081046 1072608
2012.37 1056972 1062186 1081320 1076362 1085910 1111306
2015.26 1111670 1118858 1146244 1141414 1144932 1153922
2018.15 1142814 1137292 1145828 1166010 1183436 1179720
2021.05 1171310 1189242 1214670 1232496 1248698 1253682
2023.94 1279376 1303126 1307362 1323072 1354718 1381950
2026.83 1401354 1420514 1443086 1460006 1480852 1520534
2029.72 1558022 1571184 1608256 1646350 1671592 1705202
2032.62 1756026 1796718 1828256 1861886 1927586 1985252
2035.51 2033014 2083698 2132752 2182766 2242012 2320146
2038.40 2370298 2420948 2504508 2572842 2637564 2708342
2041.29 2759242 2810796 2882258 2950172 3000510 3052966
2044.19 3121944 3182620 3235198 3285022 3344018 3396188
2047.08 3449946 3488790 3519010 3569402 3622440 3642746
2049.97 3648970 3674082 3703438 3712618 3707292 3712296
2052.87 3712078 3693686 3673834 3661564 3641544 3611732
2055.76 3585268 3541550 3483264 3424766 3375840 3305664
2058.65 3212214 3121846 3029264 2943476 2838006 2731156
2061.54 2635594 2568988 2493656 2390172 2272578 2188768
2064.44 2119770 2031062 1951544 1864546 1779640 1699820
2067.33 1637336 1572444 1499790 1450156 1407322 1357536
2070.22 1318484 1290440 1262176 1224958 1216314 1228804
2073.11 1201004 1172258 1162084 1158960 1157190 1158540
2076.01 1154162 1154816 1159764 1162680 1178754 1191960
2078.90 1206826 1234344 1263502 1264220 1276486 1297174
2081.79 1308094 1330406 1359446 1372940 1387208 1385330
2084.69 1411328 1459768 1488480 1511398 1541992 1568238
2087.58 1603434 1649704 1682314 1729256 1782592 1792228
2090.47 1795834 1840560 1898904 1922766 1931554 1972062
2093.36 2029352 2081364 2118196 2160194 2201136 2232016
2096.26 2260322 2300762 2361884 2413596 2440528 2472110
2099.15 2494096 2526648 2571364 2602004 2655408 2701018
2102.04 2731028 2766488 2797640 2822284 2833834 2847472
2104.93 2876390 2906966 2909950 2911830 2927534 2920324
2107.83 2907522 2889730 2851844 2813832 2777242 2732094
2110.72 2684400 2618626 2565332 2524358 2488638 2464004
2113.61 2425554 2373646 2326670 2310350 2261040 2208110
2116.51 2159904 2117304 2087006 2044702 2016114 1983464
2119.40 1941824 1912202 1885310 1858696 1826550 1815084
2122.29 1807304 1797652 1792186 1789296 1782038 1774860
2125.18 1771336 1768544 1780174 1784726 1779028 1796536
2128.08 1815692 1812032 1808422 1818788 1851086 1874128
2130.97 1875984 1887856 1906296 1912298 1908662 1911508
2133.86 1915116 1917698 1939736 1977898 1996354 2006800
2136.75 2032074 2054042 2067328 2081984 2090220 2090182
2139.65 2091184 2086292 2094560 2095602 2086814 2113500
2142.54 2135714 2129712 2138858 2160100 2163684 2161790
2145.43 2162814 2169948 2201690 2207308 2192148 2207104
2148.33 2215020 2223494 2247834 2263670 2270844 2274188
2151.22 2281808 2301072 2335820 2362056 2395648 2435578
2154.11 2471848 2495948 2517928 2558674 2573732 2579992
2157.00 2614862 2658992 2692604 2709118 2722428 2758308
2159.90 2781786 2806896 2843726 2877118 2914430 2944884
2162.79 2960024 2968540 2985802 3006806 3028492 3067004
2165.68 3101742 3123018 3157756 3181536 3194002 3206838
2168.57 3205836 3210936 3221126 3247466 3282146 3304732
2171.47 3324982 3334608 3347330 3356806 3386006 3423734
2174.36 3435416 3455212 3490210 3529544 3562742 3590644
2177.25 3620006 3629704 3648758 3684748 3727076 3766184
2180.15 3809888 3860284 3908616 3974410 4038990 4097232
2183.04 4157534 4230222 4306398 4363946 4428108 4503890
2185.93 4570952 4637212 4712128 4777782 4839224 4925148
2188.82 5025874 5103176 5163842 5230000 5296602 5364812
2191.72 5441802 5501568 5548772 5584114 5612604 5620894
2194.61 5641938 5681726 5695684 5678740 5658234 5670568
2197.50 5673446 5643962 5625046 5594784 5560876 5531578
2200.39 5494350 5440964 5384034 5325116 5253252 5169592
2203.29 5085332 5013308 4921422 4818756 4726618 4639144
2206.18 4537104 4423156 4313642 4202324 4094160 3988422
2209.07 3898770 3800818 3668152 3536732 3438752 3332148
2211.97 3236568 3148426 3038940 2949684 2866858 2812648
2214.86 2746794 2647730 2571670 2521188 2455138 2394560
2217.75 2354080 2318006 2293080 2271470 2245766 2227404
2220.64 2210322 2211096 2204846 2185894 2177988 2194408
2223.54 2214076 2210038 2209006 2228144 2234744 2239478
2226.43 2250518 2268682 2284680 2306678 2310782 2310192
2229.32 2338238 2397922 2439452 2446928 2476572 2513370
2232.21 2548720 2587014 2625892 2646556 2663158 2699192
2235.11 2727144 2751526 2774218 2788640 2791108 2807144
2238.00 2838730 2843664 2829768 2813956 2821848 2829674
2240.89 2814892 2802338 2793374 2782126 2782778 2774864
2243.79 2746664 2720788 2699992 2673904 2634506 2581298
2246.68 2545858 2521898 2490498 2456840 2428372 2404212
2249.57 2391828 2381280 2367900 2362022 2368374 2350190
2252.46 2316326 2298294 2277378 2275480 2279190 2281030
2255.36 2280816 2294180 2305490 2323892 2350402 2386662
2258.25 2426106 2476778 2532590 2586756 2638442 2677954
2261.14 2728376 2802294 2851154 2885532 2959474 3049004
2264.03 3104938 3183816 3284158 3367426 3427428 3466140
2266.93 3509412 3564708 3630364 3709770 3779734 3822130
2269.82 3853604 3926168 4000130 4038152 4074346 4099408
2272.71 4121154 4163798 4202636 4218212 4216112 4214992
2275.61 4204458 4186264 4190240 4204898 4195636 4152536
2278.50 4112334 4095004 4061896 4019542 3995804 3953234
2281.39 3919786 3894198 3854494 3812114 3762582 3707154
2284.28 3667704 3646692 3593832 3511806 3459046 3424386
2287.18 3362882 3272186 3189656 3107948 3032496 2972524
2290.07 2912146 2850914 2791208 2732328 2705460 2660896
2292.96 2597920 2537412 2489550 2417896 2347444 2282704
2295.85 2223418 2177930 2142956 2108522 2057588 1998622
2298.75 1945750 1884894 1831444 1792384 1770556 1737534
2301.64 1703482 1695356 1685150 1652848 1646580 1653336
2304.53 1638706 1615086 1619966 1629408 1622508 1617640
2307.43 1607202 1649944 1682428 1664588 1669982 1697212
2310.32 1718880 1730982 1750062 1772750 1804696 1823332
2313.21 1820028 1830306 1870088 1917112 1905368 1898980
2316.10 1947966 1997382 2019602 2030930 2048070 2097012
2319.00 2135276 2155410 2191800 2244724 2276458 2288638
2321.89 2311990 2375756 2395384 2375462 2412670 2481652
2324.78 2518526 2498192 2519234 2583750 2613508 2619100
2327.67 2672446 2734552 2723006 2707638 2769280 2835876
2330.57 2827674 2804052 2868336 2923660 2901586 2924048
2333.46 2990154 2978960 2892420 2924464 3008348 2979116
2336.35 2950240 3029226 3079034 3030054 3006882 3047490
2339.24 3026476 2973284 2985850 2973790 2910058 2879210
2342.14 2886462 2846000 2798158 2795562 2779436 2726524
2345.03 2706700 2708302 2674678 2627100 2614540 2589042
2347.92 2529274 2500916 2478808 2461566 2435718 2406088
2350.82 2372120 2340496 2317220 2310060 2280294 2256884
2353.71 2248310 2204972 2131290 2120302 2106980 2040936
2356.60 2027184 1988240 1900120 1891218 1853964 1807618
2359.49 1830752 1778682 1750210 1781272 1719546 1723616
2362.39 1765938 1730124 1761276 1777454 1748100 1770380
2365.28 1752328 1746704 1790180 1776922 1800650 1817306
2368.17 1827668 1850316 1845330 1881358 1897756 1926084
2371.06 1989914 2003098 2019120 2021346 2039636 2063164
2373.96 2057806 2067098 2103716 2132090 2158984 2175188
2376.85 2173748 2201736 2230232 2279720 2297286 2294686
2379.74 2295430 2301872 2310446 2322610 2323110 2322874
2382.64 2349062 2357542 2347800 2337480 2330290 2332446
2385.53 2340544 2333614 2322920 2328516 2307334 2295552
2388.42 2292526 2270338 2236068 2207768 2191430 2195152
2391.31 2199880 2194196 2170570 2136264 2104278 2084100
2394.21 2068490 2039920 2019734 2018944 2014950 1992244
2397.10 1966686 1940214 1911016 1878306 1873110 1890104
2399.99 1876998 1858166 1874714 1873588 1858994 1850226
2402.88 1838332 1833006 1835644 1832916 1840138 1842308
2405.78 1859080 1844440 1810980 1817872 1823058 1814626
2408.67 1813620 1807382 1812908 1816448 1802832 1806330
2411.56 1817682 1807986 1788512 1777708 1773682 1786298
2414.46 1797032 1780042 1734404 1719352 1742504 1744872
2417.35 1721384 1697446 1687998 1686286 1696134 1697740
2420.24 1680628 1665666 1670446 1687786 1704238 1705796
2423.13 1694110 1689432 1706584 1719990 1723430 1734094
2426.03 1763196 1796678 1790124 1796592 1845152 1886490
2428.92 1935340 1968802 1987750 2018144 2051468 2097898
2431.81 2153072 2196616 2222436 2243092 2282790 2342974
2434.70 2380100 2393728 2429596 2489920 2539100 2577964
2437.60 2614466 2642914 2681896 2722258 2760880 2793820
2440.49 2810976 2831290 2876424 2905228 2919054 2950494
2443.38 2976138 2976626 2990086 2997724 2989746 2980442
2446.28 2978716 2958766 2949900 2974244 2972994 2933386
2449.17 2891644 2852664 2822924 2806640 2775602 2755714
2452.06 2738776 2693946 2636408 2602190 2592894 2562338
2454.95 2512104 2469074 2442056 2416450 2400598 2381008
2457.85 2348994 2316870 2293720 2275546 2249586 2225074
2460.74 2222242 2186872 2131128 2096632 2076084 2046774
2463.63 2016826 1994724 1973484 1948440 1922720 1907540
2466.52 1892352 1877850 1856978 1823466 1804066 1810702
2469.42 1799372 1791442 1782576 1768694 1759198 1744390
2472.31 1746348 1732376 1705660 1701162 1689586 1681002
2475.20 1679316 1682334 1675684 1653150 1624426 1616232
2478.10 1585518 1547768 1538834 1542300 1503730 1462378
2480.99 1447910 1445854 1430910 1416622 1396614 1389348
2483.88 1391356 1376712 1354338 1334312 1320354 1306886
2486.77 1301702 1309260 1298290 1289628 1275882 1240618
2489.67 1230332 1242186 1232662 1228394 1222210 1209826
2492.56 1214716 1193020 1170026 1161590 1137302 1131990
2495.45 1126354 1097482 1072434 1050350 1028460 1028126
2498.34 1019266 1000354 981928 978370 973168 963174
2501.24 960970 944270 903102 877206 868292 860040
2504.13 851908 846448 853592 845288 820772 813650
2507.02 841020 859618 823318 800816 817406 840450
2509.92 840058 832006 845214 852118 853498 841560
2512.81 817818 837318 867892 875632 879744 882558
2515.70 899526 915170 903914 897956 915686 937410
2518.59 918882 908676 939156 927274 920428 941102
2521.49 945152 915378 922604 921644 915898 912784
2524.38 904112 902870 894018 891556 902416 910302
2527.27 928172 932168 921584 939948 942286 904238
2530.16 888818 906472 914102 917250 907702 885896
2533.06 898088 911432 896188 876772 890188 909952
2535.95 918330 915784 914514 932930 937778 935482
2538.84 956414 971272 969236 989908 1006012 1008512
2541.74 1014698 1028496 1040542 1042320 1065586 1088176
2544.63 1112136 1139912 1167186 1183796 1164470 1169826
2547.52 1222556 1261534 1283700 1290754 1300118 1330120
2550.41 1337412 1341634 1362822 1372578 1392726 1421838
2553.31 1463246 1486844 1516372 1526502 1533072 1544632
2556.20 1556554 1584618 1622820 1634792 1658892 1680752
2559.09 1695128 1704428 1711526 1716774 1737214 1769670
2561.98 1782370 1791040 1805748 1823218 1832518 1846720
2564.88 1868390 1879406 1888598 1912502 1930248 1939614
2567.77 1949256 1973186 1993676 1996976 2005264 2024526
2570.66 2038268 2039638 2062104 2086788 2088676 2067298
2573.56 2057382 2071334 2092318 2102342 2116492 2151224
2576.45 2153050 2160094 2201122 2217754 2226844 2233398
2579.34 2208980 2224782 2272244 2274402 2282992 2308572
2582.23 2330604 2338154 2358242 2390974 2416794 2425508
2585.13 2473632 2494962 2503958 2561604 2592776 2605564
2588.02 2648246 2705640 2783478 2854084 2894318 2924584
2590.91 2971710 3034774 3081572 3134244 3187120 3268928
2593.80 3356276 3449988 3531828 3585940 3655450 3758708
2596.70 3855784 3942710 4052822 4153186 4233376 4332864
2599.59 4440708 4537090 4648220 4759576 4858582 4965814
2602.48 5088722 5205156 5310750 5414388 5561112 5724646
2605.37 5856328 5960838 6085758 6227812 6379608 6510354
2608.27 6642396 6792290 6963318 7117340 7271022 7432942
2611.16 7564890 7705718 7846276 8011942 8181744 8296218
2614.05 8421804 8577182 8719318 8881038 9037982 9177600
2616.95 9296734 9394268 9505908 9612458 9696796 9813870
2619.84 9937578 10033070 10101230 10171520 10235870 10304390
2622.73 10392990 10491970 10538640 10564850 10577320 10595770
2625.62 10610520 10620100 10605290 10548760 10481640 10440920
2628.52 10394890 10315180 10195000 10079660 9960806 9828326
2631.41 9709078 9607140 9495400 9354704 9212088 9062868
2634.30 8899256 8737986 8590162 8453892 8289472 8137392
2637.19 7987048 7832732 7667510 7543114 7425480 7276362
2640.09 7115380 6967760 6845046 6732044 6610624 6489050
2642.98 6362866 6227272 6128724 6056632 5966306 5871450
2645.87 5801956 5738446 5663882 5589512 5567722 5540246
2648.77 5476760 5371140 5339410 5381828 5379082 5348160
2651.66 5304822 5246486 5220298 5238168 5249596 5231616
2654.55 5229036 5235404 5216868 5191782 5187070 5205560
2657.44 5238876 5244830 5243260 5243108 5227366 5216226
2660.34 5218342 5215498 5210204 5210064 5237084 5257332
2663.23 5256170 5260944 5276334 5275364 5244496 5243332
2666.12 5261014 5250894 5219984 5204036 5201666 5199336
2669.01 5189302 5177556 5191110 5175688 5140762 5121740
2671.91 5114518 5096754 5092106 5102444 5102922 5085244
2674.80 5073894 5060520 5068752 5061990 5047192 5035306
2677.69 5024812 5004410 5001254 5012022 4995572 4977302
2680.59 4989306 5016800 5032618 5019268 5017458 5016336
2683.48 5021318 5052014 5077568 5048908 5029676 5035936
2686.37 5026332 5040906 5048910 5054300 5076784 5084430
2689.26 5085382 5113958 5135090 5154618 5157822 5180370
2692.16 5234590 5269084 5272854 5302204 5328718 5354782
2695.05 5400878 5455736 5489460 5530740 5581868 5644100
2697.94 5731934 5791084 5873742 5967150 6065436 6171080
2700.83 6297498 6418926 6561294 6708432 6888972 7078660
2703.73 7255194 7424052 7631624 7860408 8118046 8371932
2706.62 8636254 8932124 9219484 9537406 9865082 10196570
2709.51 10532410 10874310 11246800 11624530 11992760 12349880
2712.41 12719460 13126410 13517390 13892660 14289200 14686730
2715.30 15080070 15458280 15810090 16153540 16528010 16918860
2718.19 17306580 17695200 18058540 18351470 18599620 18827580
2721.08 19012540 19139940 19241300 19379420 19559500 19773870
2723.98 20023090 20255740 20477140 20668860 20845730 20991190
2726.87 21152150 21311230 21454490 21615960 21804500 21936930
2729.76 22009300 22064450 22148440 22160490 22141670 22182980
2732.65 22214410 22194620 22170630 22129670 22029360 21939880
2735.55 21878580 21802890 21732760 21664660 21620540 21584960
2738.44 21528850 21472370 21409400 21335250 21237960 21125060
2741.33 21019580 20889230 20714510 20563880 20412950 20279110
2744.23 20154850 19987610 19807410 19563930 19277040 18995670
2747.12 18707330 18458600 18209340 17963450 17724310 17528250
2750.01 17359510 17206290 17050240 16827900 16605170 16429880
2752.90 16258730 16125190 15970790 15779510 15637320 15544350
2755.80 15460050 15409860 15378230 15342000 15295970 15246420
2758.69 15240490 15258900 15310160 15374880 15495630 15643900
2761.58 15775980 15930240 16140690 16339250 16521400 16688480
2764.47 16847560 16989920 17162640 17314500 17436380 17599460
2767.37 17809320 18043540 18271090 18446170 18594930 18760860
2770.26 18960560 19166610 19339300 19466240 19578440 19666870
2773.15 19782060 19915820 20037700 20157020 20287190 20385760
2776.05 20402160 20363200 20287830 20209810 20138510 20056700
2778.94 19992650 19953380 19933520 19935370 19911830 19895690
2781.83 19885370 19840600 19776480 19683520 19609010 19512960
2784.72 19371310 19264010 19124120 18966960 18845390 18709490
2787.62 18554670 18419720 18276510 18154790 18090920 18014540
2790.51 17900480 17785040 17713460 17646290 17546490 17487020
2793.40 17478190 17437610 17411360 17404870 17387690 17376320
2796.29 17372400 17383300 17428260 17463730 17509360 17546060
2799.19 17613250 17751180 17950240 18071180 18217360 18395590
2802.08 18566510 18783630 19013090 19266300 19557460 19854470
2804.97 20147700 20442630 20728610 21046980 21328490 21606190
2807.87 21903660 22185590 22469780 22773870 23074940 23372540
2810.76 23702350 24101670 24514500 24920060 25303790 25745250
2813.65 26199750 26601530 26952110 27296260 27687560 28113060
2816.54 28540730 28964490 29417450 29884670 30297480 30729070
2819.44 31173830 31600900 32005130 32383410 32757280 33176690
2822.33 33566020 33923780 34305500 34672170 35036950 35403350
2825.22 35747810 36101390 36458010 36782690 37135820 37522140
2828.11 37891740 38286290 38745320 39234260 39688120 40155990
2831.01 40635600 41148380 41663970 42187190 42744080 43320900
2833.90 43900080 44501800 45127520 45757110 46453490 47157620
2836.79 47850180 48525320 49207020 49967230 50741740 51516090
2839.69 52300530 53018410 53721760 54431690 55198230 56026380
2842.58 56772360 57544080 58361680 59160230 59939770 60705960
2845.47 61527890 62406280 63339690 64295830 65223890 66197050
2848.36 67239710 68239850 69274560 70355770 71431490 72512970
2851.26 73626780 74799660 76023580 77287500 78606720 79915420
2854.15 81259480 82669470 84149430 85719010 87357620 89143850
2857.04 91038040 92929700 94885620 97052200 99308280 101594800
2859.93 104053900 106752900 109654800 112696800 115892500 119235800
2862.83 122685300 126361200 130213100 134240000 138406000 142785300
2865.72 147500200 152315000 157271400 162463100 167861400 173469200
2868.61 179165900 185053700 191174500 197451000 203781100 210024000
2871.51 216193400 222422000 228712100 234877800 241015100 247130600
2874.40 252981100 258697800 264621400 270816100 277192500 283961300
2877.29 291411400 299476000 307661900 315393600 322353700 328071500
2880.18 332303100 335625800 338579200 341510600 344669100 348039400
2883.08 351306800 354553000 357814500 360925600 363678800 366102400
2885.97 368220100 369866300 371309500 372513800 373540500 374469300
2888.86 375470900 376393800 377271000 378225600 379110700 379964700
2891.75 380783800 381859900 383057200 384082500 384777600 385676400
2894.65 386846700 388015000 389081200 389589500 389466900 388953900
2897.54 388047400 386531900 384603500 382440300 379885200 377126800
2900.43 374439000 371593700 368378100 365285200 362177000 358968700
2903.32 355886000 352755300 349578500 346581200 343559800 340422400
2906.22 337271000 333755700 329938100 325860600 321661200 317640300
2909.11 314039300 310801100 307711400 304528700 301373700 298150100
2912.00 294826600 291381600 287840300 284202300 280516400 277030200
2914.90 273683700 270337500 267216900 264143200 261029800 257939100
2917.79 255070100 252461600 249976800 247379700 244864500 242435700
2920.68 240223700 238161900 236407600 235097700 234142600 233420500
2923.57 233183700 233423700 233989900 235054800 236572400 238440800
2926.47 240895200 243917200 247379200 251210900 255286900 259647200
2929.36 264486800 269649300 274901000 280177100 285413200 290444300
2932.25 295477200 300379100 304747600 308530200 311840500 314906800
2935.14 317933100 320706400 323439900 326281400 329502200 333146100
2938.04 337063500 340954000 344608300 347554900 349706400 351179800
2940.93 351975100 351904100 351246400 350370300 349481400 348790800
2943.82 348387200 348193600 347712500 346913700 345679100 343822900
2946.72 341240100 338255300 334863300 330956300 326477100 321659800
2949.61 316500700 311324300 306243300 301156500 296044500 291235700
2952.50 286782000 282683200 278962300 275599800 272536800 269812600
2955.39 267364100 265422400 264119600 263281600 262833100 263052300
2958.29 264026300 265757700 268582600 272460500 277361000 283572000
2961.18 291267600 300465500 310737000 322505700 336249100 351918900
2964.07 369441700 388795700 409766800 432390600 456935400 483273900
2966.96 511089700 540166200 570035500 600880700 632131800 662922600
2969.86 693609000 724112500 754456900 785856400 818430300 852686600
2972.75 891011300 933096400 981151700 1037263000 1101456000 1167710000
2975.64 1220088000 1239190000 1229495000 1223784000 1240642000 1274836000
2978.54 1316809000 1358920000 1394437000 1421282000 1442731000 1462065000
2981.43 1478704000 1489907000 1493644000 1490302000 1485132000 1482775000
2984.32 1473265000 1453488000 1433522000 1409151000 1379577000 1346180000
2987.21 1306563000 1264436000 1225462000 1189768000 1154453000 1117350000
2990.11 1078130000 1036505000 992382000 946496200 899905000 852988500
2993.00 806031300 759018800 712185300 666198000 621463400 578376800
2995.89 536774200 496974300 459677000 424355100 390958800 359504500
2998.78 329746500 301928600 276051300 252016500 229741400 209123500
3001.68 190146900 172767000 156951100 142534400 129400700 117569800
3004.57 106973000 97443050 88959790 81476340 74865210 69052860
3007.46 63895640 59397720 55466910 52080120 49224360 46717800
3010.36 44460030 42617580 41096380 39782320 38679460 37723400
3013.25 36921220 36290620 35769490 35330410 34995290 34677330
3016.14 34416720 34252310 34122430 33999380 33892100 33835560
3019.03 33797960 33732560 33636900 33554080 33526260 33478860
3021.93 33390380 33288050 33188020 33040550 32869800 32714960
3024.82 32548330 32350110 32071940 31812210 31562920 31255070
3027.71 30915330 30550410 30124980 29669390 29280960 28865660
3030.60 28353290 27862770 27361690 26804650 26242060 25686200
3033.50 25100260 24429700 23794860 23213520 22583840 21953520
3036.39 21339700 20734540 20101950 19479700 18882050 18318860
3039.28 17730690 17161270 16629340 16097640 15558400 15003290
3042.18 14535080 14116810 13686610 13233730 12760630 12315850
3045.07 11918820 11574880 11214160 10817800 10481230 10176820
3047.96 9871970 9555774 9281836 9072674 8850998 8634454
3050.85 8459282 8264162 8084706 7921440 7776058 7643494
3053.75 7531086 7415020 7331254 7243164 7203550 7132718
3056.64 7022676 6965066 6920792 6870218 6859848 6865532
3059.53 6829872 6806496 6755522 6717100 6698424 6709770
3062.42 6714224 6718948 6779012 6780886 6784462 6794526
3065.32 6802064 6798658 6803384 6840254 6875828 6931792
3068.21 7000906 7014002 7001784 7055542 7125638 7142546
3071.10 7160112 7219008 7282274 7357154 7423730 7438636
3074.00 7514148 7582884 7598104 7632880 7671310 7693156
3076.89 7714068 7769876 7857648 7927916 7993118 8035668
3079.78 8034802 8058096 8102578 8186458 8258244 8278992
3082.67 8259870 8241242 8242750 8291232 8332604 8377734
3085.57 8450374 8488290 8446180 8366264 8315912 8301484
3088.46 8258514 8262646 8234114 8203186 8207470 8152238
3091.35 8081854 8019168 7951442 7912794 7888094 7838588
3094.24 7719624 7610446 7577438 7544606 7451854 7356362
3097.14 7280872 7201094 7102096 6972374 6843474 6797514
3100.03 6743140 6657272 6566298 6465038 6361664 6257962
3102.92 6147820 6056116 6008886 5968962 5863786 5743242
3105.82 5651400 5614720 5563396 5496018 5393180 5325998
3108.71 5346266 5307940 5201302 5103654 5048394 5010458
3111.60 5001928 4971520 4912250 4864500 4806486 4771248
3114.49 4731734 4699720 4676624 4654606 4647648 4642328
3117.39 4620550 4609618 4594504 4585340 4572100 4542220
3120.28 4521838 4481478 4483162 4541794 4540212 4504886
3123.17 4508750 4503350 4479038 4465790 4450414 4453832
3126.06 4440108 4447906 4438248 4433778 4420472 4396704
3128.96 4367578 4379850 4390650 4366472 4361992 4391310
3131.85 4400418 4403452 4419202 4429998 4424472 4403838
3134.74 4365162 4332998 4349806 4371166 4401496 4426102
3137.64 4397176 4384936 4414948 4429212 4415654 4451952
3140.53 4468576 4465348 4490564 4487788 4501888 4523796
3143.42 4518930 4524710 4532884 4588014 4641594 4643964
3146.31 4638848 4664612 4713228 4724878 4738182 4767056
3149.21 4832856 4911588 4955178 4968696 4960982 5024822
3152.10 5099410 5119870 5164822 5253350 5299494 5325854
3154.99 5401658 5452394 5465682 5560036 5648472 5700266
3157.88 5777340 5857280 5953280 6057492 6125440 6225558
3160.78 6336374 6419304 6505678 6574090 6637154 6761484
3163.67 6900654 6975544 7065760 7166342 7272298 7398086
3166.56 7518856 7626240 7740434 7888482 8007250 8109304
3169.46 8212564 8335646 8436350 8542032 8663962 8770250
3172.35 8905114 9018022 9131292 9249880 9319892 9379582
3175.24 9442456 9533160 9618298 9708354 9829444 9934300
3178.13 10029590 10093520 10114800 10131580 10177030 10235220
3181.03 10264840 10265190 10276760 10292410 10298580 10329740
3183.92 10308120 10253450 10201110 10172080 10130490 10103180
3186.81 10090900 10014260 9962302 9904792 9828376 9750730
3189.70 9715314 9648954 9590570 9529450 9444458 9385448
3192.60 9304332 9190772 9131498 9063044 8979590 8925562
3195.49 8837862 8764002 8717468 8668936 8553904 8477580
3198.38 8465206 8456292 8384018 8326688 8303926 8272932
3201.27 8222242 8193464 8194534 8221208 8241510 8240200
3204.17 8198636 8199518 8192140 8188392 8244376 8284608
3207.06 8264554 8266648 8299488 8373684 8424292 8471928
3209.95 8538102 8611400 8636578 8658260 8701310 8748270
3212.85 8822838 8893774 8943736 8988572 9059556 9128662
3215.74 9171488 9218404 9250940 9290392 9369388 9412768
3218.63 9407142 9464014 9576386 9620478 9640312 9651252
3221.52 9718964 9796088 9808928 9827604 9885300 9932894
3224.42 9947936 9966950 9962650 9997246 10054260 10094240
3227.31 10094680 10079190 10093570 10090590 10112020 10136150
3230.20 10144730 10122380 10093000 10063280 10006510 9957708
3233.09 9948532 9956040 9901952 9858794 9794836 9707674
3235.99 9658464 9628748 9544884 9440252 9343888 9284114
3238.88 9204698 9082916 8960580 8857624 8745108 8589320
3241.77 8467840 8394976 8233014 8082150 7942960 7786368
3244.67 7611790 7415702 7252864 7141326 7038824 6902018
3247.56 6716992 6487186 6320798 6180042 5978726 5830082
3250.45 5690700 5518280 5376704 5225492 5043854 4891872
3253.34 4763730 4586698 4404642 4267716 4153356 4048314
3256.24 3929294 3801792 3697268 3568078 3476192 3393388
3259.13 3243746 3112950 3049844 2965430 2935986 2884208
3262.02 2754694 2645556 2620522 2602916 2548520 2479968
3264.91 2447290 2401560 2343366 2272206 2216130 2234892
3267.81 2237516 2225136 2120300 2053040 2095246 2074508
3270.70 2030820 2051986 2045058 2014540 2007716 1996854
3273.59 1932640 1915080 1938988 1947796 1967058 1935014
3276.49 1868304 1841322 1858638 1865374 1868344 1840646
3279.38 1791596 1825336 1834806 1766706 1753136 1790362
3282.27 1790258 1775488 1752860 1743508 1742514 1774946
3285.16 1813278 1783574 1731044 1731260 1730630 1721388
3288.06 1719538 1694262 1697388 1704086 1706178 1728578
3290.95 1727208 1707358 1695584 1699494 1723976 1749436
3293.84 1762190 1814966 1849662 1865972 1891548 1895768
3296.73 1903916 1924280 1934848 1948238 1983352 2048180
3299.63 2094618 2133758 2158886 2167180 2244822 2338226
3302.52 2394792 2464456 2487650 2493484 2562686 2625952
3305.41 2656684 2756364 2866142 2992574 3085660 3129690
3308.31 3189112 3242248 3327872 3422424 3497914 3570376
3311.20 3630904 3689028 3748538 3821676 3902248 3973086
3314.09 3982372 3957432 3964340 4045652 4097968 4108500
3316.98 4153008 4199190 4250462 4255162 4186272 4177724
3319.88 4176036 4124258 4117426 4148442 4127718 4127484
3322.77 4137022 4133470 4134132 4106118 4055676 4026668
3325.66 4004562 3943506 3898458 3881398 3832250 3804864
3328.55 3744890 3662934 3587206 3543140 3484690 3436308
3331.45 3448102 3389552 3299106 3217598 3100578 3028470
3334.34 3012718 2991736 2887946 2777786 2730594 2665634
3337.23 2610134 2576198 2537478 2476568 2406872 2340626
3340.13 2280112 2194722 2069868 2023884 1975828 1897152
3343.02 1868130 1846050 1778104 1725208 1671148 1594774
3345.91 1565516 1544748 1494388 1461318 1414644 1343714
3348.80 1258398 1256086 1257852 1199630 1161052 1167188
3351.70 1103310 1038732 1033602 1041914 1047080 1034540
3354.59 1025288 961312 891332 868360 853708 808016
3357.48 774956 823542 838572 823790 822932 801490
3360.37 785550 799764 789158 723362 717706 801452
3363.27 816554 796648 739448 702336 700678 692494
3366.16 694876 682278 667066 668156 653580 639084
3369.05 664228 713010 718850 718122 729646 727458
3371.95 696398 708600 754088 703200 657056 642394
3374.84 635670 671116 700618 731092 744694 709792
3377.73 708738 735540 728262 714152 664824 671684
3380.62 701590 740312 764904 781054 751460 749656
3383.52 739160 688670 687460 732314 780830 809154
3386.41 822126 867964 878762 822720 770406 789110
3389.30 808834 794596 789544 801970 785990 799256
3392.19 822526 842416 857792 877304 892292 916704
3395.09 938032 920978 938488 950148 947818 938922
3397.98 925324 902626 907852 958412 1008790 997600
3400.87 973706 973800 964172 970098 1067112 1085506
3403.77 1040542 1039168 1100758 1130650 1108234 1111902
3406.66 1119540 1154228 1185290 1146052 1145818 1187194
3409.55 1230860 1268654 1323970 1343140 1350722 1400228
3412.44 1460416 1497658 1492410 1515740 1553626 1601566
3415.34 1671078 1729302 1800676 1905724 1949242 1949728
3418.23 2005640 2067254 2124172 2228160 2288704 2313916
3421.12 2394650 2489340 2562764 2628898 2689158 2777536
3424.01 2802478 2799884 2862398 2950042 3010378 3025040
3426.91 3077952 3138020 3147062 3191600 3282792 3352718
3429.80 3424322 3439332 3414614 3409978 3387942 3415938
3432.69 3468768 3463020 3402872 3346180 3369274 3414436
3435.59 3384134 3358514 3367292 3358874 3290206 3235908
3438.48 3186904 3115282 3054512 2981270 2919226 2883060
3441.37 2806150 2740604 2701124 2664832 2578726 2495988
3444.26 2411478 2334104 2302350 2222868 2209594 2193110
3447.16 2099350 2038352 1985348 1880146 1819840 1754872
3450.05 1681478 1639940 1561978 1488892 1484310 1474434
3452.94 1413168 1345482 1295732 1221780 1197798 1174754
3455.83 1143646 1120508 1117668 1089038 1069202 1039760
3458.73 1004504 970038 959540 957522 976862 956244
3461.62 939876 949748 952606 944084 884982 859542
3464.51 886368 877764 870878 867696 881912 896564
3467.40 908802 936606 906036 897498 907132 908566
3470.30 934206 982672 1059320 1081172 1049594 1061722
3473.19 1102016 1097548 1101800 1075876 1083288 1081416
3476.08 1109116 1189858 1223732 1196568 1187646 1193554
3478.98 1225278 1279390 1326760 1347496 1326496 1347676
3481.87 1387020 1349990 1320414 1321986 1355294 1379168
3484.76 1326014 1290358 1324298 1348652 1375322 1374344
3487.65 1322838 1319448 1322274 1311630 1322340 1331802
3490.55 1257706 1158006 1151134 1126210 1116062 1134606
3493.44 1098232 1079816 1076006 1021614 988910 957706
3496.33 910632 879256 829410 780394 757050 781248
3499.22 745378 694294 677552 671266 651776 622952
3502.12 593278 597538 563278 546274 501716 400128
3505.01 341128 336480 344582 319876 308822 306918
3507.90 325234 295672 334240 306188 206722 171640
3510.80 165260 174598 149778 118298 137334 160966
3513.69 154208 103000 98832 104816 73016 45124
3516.58 64798 91124 68476 40080 49992 17998
3519.47 32104 58668 59524 55590 54422 61964
3522.37 106898 127018 127630 116194 57120 54414
3525.26 63464 53798 45514 64724 108164 93670
3528.15 48372 47732-27564-42948 15698 39044
3531.04 5974 7248 23538-3344 3362 33368
3533.94 4232-37656-49870-20994 59176 55660
3536.83 26640 18810 32124 748-26850-14400
3539.72 28162 36890 17524 20268 41262 56672
3542.62 14176-2540 12840 33930 81038 117558
3545.51 66706 108786 215936 133780 49880 30586
3548.40-11760 22122 32532 39378 67648 62836
3551.29 136896 203300 108712 67002 65714 57518
3554.19 80896 78578 57328 50232 48902 18400
3557.08-270 10624 29852 53798 92612 126236
3559.97 75466 35360 37090 33336 62176 80406
3562.86 65500 69870 44602 61820 139308 229996
3565.76 282158 262796 119892 254052 404540 209936
3568.65 53644 5342 21812 40550-37090-24230
3571.54 9758 13652 13806 7690-2100 14734
3574.44 33680-4004-21428-25344 13404 20842
3577.33-3466-12850 4606 23976 31218 29832
3580.22 24662 1020-6602 21342 46924 70746
3583.11 77480 47094 77164 68944 55406 191506
3586.01 446978 322854 130004 162886 406806 454944
3588.90 114608-22004-36230-41792-21712 35126
3591.79 8344 13514 110010 75052 33362 82514
3594.68 184606 150626 40826 31936 11430 21836
3597.58 52748 56998 20108 32540 56922 90838
3600.47 92960 52938 646-25352 5590 23922
3603.36-8614-53694-70034-32502-22146 6574
3606.26 134914 216662 93840 23884 210486 675900
3609.15 460538 59570 35806 54462 76602 204856
3612.04 435404 288288 76936 112308 228520 205692
3614.93 136216 99762 60414 50218 254940 407352
3617.83 263798 178476 522786 761988 337224 135192
3620.72 170776 168134 129650 158300 184752 189838
3623.61 165594 135648 148540 207000 263130 272966
3626.50 266132 331972 793866 1199312 919682 1263246
3629.40 1131618 452990 329830 321070 317392 329712
3632.29 311562 343896 499398 398820 270846 283170
3635.18 292994 269642 254798 228466 259394 290550
3638.08 282046 261882 276716 272948 285114 318202
3640.97 427506 553318 657200 650904 525196 407024
3643.86 394728 368058 397928 431528 525452 672500
3646.75 900086 798002 507226 796752 1567432 1201564
3649.65 629046 823940 901966 764838 482734 395724
3652.54 361334 314822 284298 341120 359056 417678
3655.43 887348 1250198 697662 354292 336838 332450
3658.32 271072 277600 314854 330326 277166 307060
3661.22 341588 325212 281842 278694 278612 284742
3664.11 274746 282798 313424 339460 324066 317118
3667.00 305970 375564 712328 861354 557208 572332
3669.90 1352918 1848960 860258 360894 332496 379462
3672.79 355244 439984 651398 1176730 1286118 1597210
3675.68 1784890 843362 419174 457324 438246 423162
3678.57 559010 649500 487730 454944 481150 472548
3681.47 480138 477270 445146 486426 509784 546920
3684.36 559116 562248 536782 550668 523738 584864
3687.25 973906 2119756 2137894 1022010 718604 758516
3690.14 856630 1150968 1108796 760578 704220 692554
3693.04 732582 713878 732546 714688 704888 717308
3695.93 786640 783756 790304 817788 851700 865588
3698.82 883634 913482 928224 950842 1179646 1470276
3701.72 1328142 1120562 1097296 1114646 1164426 1185738
3704.61 1251548 1313126 1359294 1430736 1474064 1484878
3707.50 1537386 1596112 1889188 2160340 1888050 1711904
3710.39 1842128 1966328 2602568 2948868 2183774 1806740
3713.29 1818086 1875380 1952178 1931260 1924658 1967946
3716.18 1932330 1913878 1899186 1925234 2040368 2119636
3719.07 2029472 1986226 1947902 1913082 1934894 2128930
3721.96 2182278 1996120 1856362 1814690 1786308 1794812
3724.86 1748776 1674834 1878106 1887424 1555442 1426250
3727.75 1348726 1282320 1229986 1232406 1193480 1149524
3730.64 1163130 1575692 2145600 1714130 1121258 1090450
3733.54 1194036 1438296 1584158 1442476 1186850 1643012
3736.43 1765826 1046684 870880 967682 863046 748374
3739.32 705970 698566 811298 887272 781102 689634
3742.21 712440 798574 1264368 2468766 3395830 2284914
3745.11 1006536 692990 672304 744392 750326 705890
3748.00 852620 1789546 2572720 1601418 804730 761344
3750.89 904742 1969402 2617428 1406412 698062 655590
3753.78 624090 591476 596944 615954 786982 883016
3756.68 696146 595246 605638 605440 683510 894846
3759.57 921564 613648 538208 547538 564830 557678
3762.46 511196 505974 564840 540044 550764 745924
3765.35 890686 665406 572232 565974 572688 539524
3768.25 549692 704254 1147526 1093694 659194 560312
3771.14 595410 578178 556548 546746 556498 590652
3774.03 609486 595408 618752 636162 625198 631402
3776.93 660492 671570 672878 774538 1089846 1098560
3779.82 845348 765720 751374 762330 751910 769702
3782.71 775544 795454 886518 942384 901966 898046
3785.60 883096 880782 875310 889304 955152 1006410
3788.50 990546 964728 948818 967248 967760 993250
3791.39 980566 979690 1007360 1047926 1052498 1102286
3794.28 1123152 1136944 1185870 1467288 1506608 1245832
3797.17 1161996 1184700 1195250 1200624 1206500 1263830
3800.07 1440488 2354172 2947942 1898756 1321072 1336390
3802.96 1295394 1265916 1212548 1162988 1182692 1221158
3805.85 1505728 2304984 2188500 1353312 1170352 1156370
3808.75 1148088 1142674 1165420 1156984 1200464 1174926
3811.64 1167118 1152370 1163634 1141906 1182444 1201048
3814.53 1266088 1812474 2920128 2435210 1371106 1157840
3817.42 1158204 1247034 1266836 1262668 1353090 1739272
3820.32 2040756 1984728 2110068 1696528 1325886 1302666
3823.21 1309056 1330274 1315104 1325202 1344798 1421784
3826.10 1605180 1594996 1456122 1429518 1366494 1354048
3828.99 1376584 1396160 1412536 1527962 1867186 1915356
3831.89 1542360 1445500 1417906 1454986 1569178 1975014
3834.78 1939632 1582948 1503218 1559368 1905996 3104136
3837.67 3006358 1772048 1457732 1549130 1619224 1612754
3840.57 1735130 1534756 1360238 1316932 1404018 1658682
3843.46 1702814 1414590 1346434 1336042 1321588 1299492
3846.35 1279958 1237378 1253080 1285324 1291588 1286150
3849.24 1345510 1347870 1339468 1441268 2267486 2923424
3852.14 2015490 1571398 2512176 3964208 3532208 1903330
3855.03 1285336 1309494 1391844 1488144 1504200 1366976
3857.92 1342516 1345084 1340370 1291278 1285512 1325910
3860.81 1489522 1687580 1543060 1383912 1413338 1428868
3863.71 1558328 1901958 2168624 1724610 1454934 1433756
3866.60 1434688 1425958 1486464 1572038 1881826 2127498
3869.49 2630978 2449776 1784936 1672090 1618322 1601812
3872.39 1646938 1754656 1953292 2126850 1939580 1726196
3875.28 1725468 1782758 1839270 1860350 1825012 1806214
3878.17 1877028 1924202 2081230 2442128 2451064 2271688
3881.06 2132938 2059634 2150214 2254788 2295406 2236436
3883.96 2243290 2390036 3007212 3261112 2731082 2443916
3886.85 2406916 2390650 2409962 2476478 2500176 2508972
3889.74 2543618 2769056 3243824 3106082 2702332 2578804
3892.63 2616518 2643220 2623590 2634416 2646124 2653220
3895.53 2623598 2575174 2592980 2665414 2691200 2687740
3898.42 2956798 3244680 2878844 2568078 2537518 2780360
3901.31 3151742 2914288 2544536 2477904 2758804 3108396
3904.21 2742290 2407860 2416912 2417748 2309340 2202424
3907.10 2150770 2094738 2056242 2033464 2017894 2020958
3909.99 2002160 1957100 1957042 1978288 1941564 1881778
3912.88 1824696 1806206 1832106 1838840 1818346 1808986
3915.78 1854014 1927430 2056508 1947818 1775548 1721416
3918.67 1695734 1820474 1957564 1851166 1726596 1742284
3921.56 1803082 1814548 1809794 1826208 1806368 1825946
3924.45 1901860 1907790 1838362 1799868 1768664 1783842
3927.35 1820780 1828294 1861778 1957948 1941370 1895598
3930.24 1927302 1958606 2015610 2137976 2166490 2069936
3933.13 2047198 2070716 2049150 2049570 2054954 2042374
3936.03 2056312 2077824 2091748 2102426 2138338 2189214
3938.92 2205670 2176142 2210022 2281970 2304092 2316710
3941.81 2426944 2530240 2396856 2308098 2349708 2393246
3944.70 2400998 2436308 2463074 2474506 2524022 2546104
3947.60 2541870 2534722 2534092 2665706 2746068 2690834
3950.49 2666658 2655374 2657348 2652574 2664144 2700340
3953.38 2705204 2685768 2697878 2770882 2804684 2765986
3956.27 2758762 2772132 2758714 2769156 2797472 2831826
3959.17 2824512 2815044 2811252 2847880 2857222 2834314
3962.06 2786204 2757782 2764630 2786042 2721186 2718496
3964.95 2743194 2698872 2695706 2674520 2616222 2656584
3967.85 2685004 2664902 2654114 2605288 2512320 2549084
3970.74 2601898 2576764 2570330 2557912 2490104 2458132
3973.63 2441390 2447754 2451522
##END=
