##TITLE=Ethyl tert-Butyl Ether
##JCAMP-DX=4.24
##DATA TYPE=INFRARED SPECTRUM
##CLASS=IUPAC A
##ORIGIN=NIST, Anayltical Chemistry Division, 301-975-3108
##OWNER=COPYRIGHT (C) 1998 by the U.S. Secretary of Commerce
##DATE=98/10/1
##$SPECTRA VERSION=1.00
##$UNCERTAINTY IN Y=2.8 % relative (B=1.9E-04,C=3.0E-09,D=2.7E-14)
##CAS NAME=tert-Butyl Ethyl Ether
##CAS REGISTRY NO=637-92-3
##MOLFORM=( C H3)3 C O C2 H5
##MP=-94 C
##BP=73.1 C
##$NIST SOURCE=QUANT-IR
##SPECTROMETER/DATA SYSTEM=IFS66V (Bruker)
##INSTRUMENT PARAMETERS=KBr Beam splitter; MCT Detector; Multipass cell
##STATE=gas
##SAMPLE DESCRIPTION=ETBE Primary Gas Standard
##PRESSURE=101.3 kPa
##TEMPERATURE=23 C
##SAMPLING PROCEDURE=1 L/min Flow
##RESOLUTION=1.9290
##DATA PROCESSING=NB Strong Apodization
##XUNITS=cm-1
##YUNITS=(micromol/mol)-1m-1 (base 10)
##XFACTOR=1.0
##YFACTOR=9.0949E-13
##DELTAX=0.9645
##FIRSTX=574.687
##LASTX=3974.595
##FIRSTY=-1.37E-07
##MAXX=3973.63
##MINX=574.69
##MAXY=.0013539
##MINY=-4.72E-07
##NPOINTS=3527
##XYDATA=(X++(Y..Y))
574.69-151582-149036-138138-256872-286060-155526
579.51-144638-409046-323700-182128-162916-333644
585.29-519242-295480-168450-213738-149356-123440
591.08-32228-74844-63016-100098-244362-195570
596.86-20436 16384-41538-120598-99482-65324
602.65-92460-126178-98012-52376-2142 126946
608.44 178750 197030 154266 105636 76176 51106
614.22 76236 141020 129906 138028 95330 82964
620.01 135364 163288 130492 93382 129726 141620
625.79 149630 149450 144466 154484 197056 219196
631.58 120252 75692 142230 170594 147378 82334
637.36 86746 103078 65568 35832 69280 77716
643.15 15990 12234 44444 135342 124428 93658
648.93 75394 21616 59090 74658 29214 34634
654.72 11586-16884 36400 95206 77770 10144
660.50-13632 32554 59988 21912 21728 55420
666.29 72698 103476 116652 90618 91634 90470
672.08 79848 82118 79662 103110 63920 95220
677.86 151254 143590 156458 233034 276258 283658
683.65 271258 294844 358002 390812 382308 361378
689.43 404918 468350 502618 526318 573218 583340
695.22 612654 663644 699206 687354 691424 762220
701.00 828312 895194 944774 1017274 1070788 1176314
706.79 1296706 1410502 1495108 1649452 1792236 1967924
712.57 2218376 2480350 2736350 3050118 3424882 3841956
718.36 4309616 4848108 5477304 6179874 6949266 7856352
724.14 8883718 9935034 11091800 12369870 13786570 15362980
729.93 17030270 18695050 20334300 21854670 23191840 24268050
735.71 25031370 25441420 25614420 25713530 25980850 26513140
741.50 26950330 26195040 23983210 22235210 21710590 21495470
747.29 20986130 19831460 18091200 16073960 13948330 11815420
753.07 9905148 8310452 6984788 5886320 4990230 4298106
758.86 3764210 3368720 3058286 2806182 2569140 2398026
764.64 2287352 2170880 2108220 2044790 2021200 2007514
770.43 1986502 1949744 1898900 1875180 1904428 1871722
776.21 1808956 1802680 1805976 1789852 1784460 1751064
782.00 1718838 1691056 1691462 1682756 1666968 1676396
787.78 1694944 1680394 1666994 1660624 1679060 1696500
793.57 1685990 1690946 1726016 1783120 1848710 1896148
799.35 1904650 1962792 2051786 2111612 2180054 2251046
805.14 2314404 2385484 2472392 2591588 2708864 2783390
810.93 2888486 2979374 3068154 3178840 3351252 3482820
816.71 3648874 3868948 4150370 4447178 4768522 5135300
822.50 5597838 6246624 7010000 7872726 8899586 10110030
828.28 11607180 13393740 15419230 17683830 20277270 23245590
834.07 26628120 30438550 34664740 39183530 43941480 48831530
839.85 53685800 58304170 62549080 66136580 68969950 71095410
845.64 72918270 74989350 77655110 80341440 80728190 76639580
851.42 71643080 69419200 68511270 67020950 64207400 59911150
857.21 54397000 48244280 41907360 35949840 30584010 25875680
862.99 21842220 18458080 15550750 13100440 11032840 9326994
868.78 7900428 6721132 5765446 5018502 4422916 3991694
874.57 3643762 3368270 3129630 2946418 2837126 2748910
880.35 2674522 2670874 2687828 2749542 2811894 2871570
886.14 2978974 3172866 3490302 3706160 3506908 3349668
891.92 3453436 3614362 3807764 4026966 4205868 4443352
897.71 4744236 5089742 5469742 5891540 6340604 6805156
903.49 7334006 7918420 8457820 8935580 9342320 9663790
909.28 9869638 9991390 10057000 10172590 10389250 10740370
915.06 11049220 11007130 10763650 10753140 11008860 11194590
920.85 10993950 10520050 10153080 9871754 9644520 9535934
926.63 9530740 9670852 9963230 10397390 10970780 11705860
932.42 12571390 13617370 14856410 16322870 18086060 20194960
938.21 22646350 25485450 28802260 32658960 37033910 41975260
943.99 47495930 53671330 60520030 68024260 76155860 84852400
949.78 93746010 102416900 110359400 117007800 122047500 125404700
955.56 127363400 128568100 130032800 132568200 135384700 135610200
961.35 131144900 123437400 116627700 113144000 110917800 107081700
967.13 100196200 90295020 78271980 65473900 53138860 42228720
972.92 33185250 26099080 20763630 16843520 14004760 11926550
978.70 10326290 9115052 8182076 7447528 6878838 6428588
984.49 6039984 5721364 5477488 5307402 5153090 5056970
990.27 4957966 4911400 4907488 4971184 5057158 5157668
996.06 5309972 5518912 5785418 6130780 6516900 6952544
1001.85 7453696 8055480 8744452 9483474 10279650 11184510
1007.63 12204630 13347520 14603740 15997900 17589820 19382470
1013.42 21299070 23322460 25413470 27463230 29338040 30909860
1019.20 31876750 32032730 31790300 31595510 31801220 32746180
1024.99 34079040 33797280 31515150 30124620 29983230 30065600
1030.77 29848550 29206490 28049860 26551510 24986060 23581220
1036.56 22437350 21664360 21253470 21184130 21415240 21951750
1042.34 22755580 23868490 25198180 26777620 28611910 30751830
1048.13 33144750 35851790 38920950 42446150 46457690 51084060
1053.91 56321920 62360230 69363060 77441190 86672970 97264020
1059.70 109358800 123170900 138791800 156627200 176791600 199379900
1065.48 224475200 251820600 281155800 312325100 344997300 378850800
1071.27 412908500 446727200 479751900 510366600 536259600 556096500
1077.06 569072400 577251100 583416500 589645100 595878500 599947500
1082.84 596353200 581780200 553676600 520436200 492426600 467751100
1088.63 442351700 412015400 374393400 330252800 282554200 235384900
1094.41 193344200 159152500 134050400 117655500 108826300 106099900
1100.20 108204000 113951600 122668700 133892600 147383500 162750500
1105.98 179979400 198871900 218988900 240005100 261882100 284249800
1111.77 306806000 329099700 350461800 369752100 385607700 397022100
1117.55 403503700 405894400 405666400 403874700 400482300 394341400
1123.34 382392400 362847400 340703500 322828600 307337300 290339800
1129.12 269884000 245344800 218084300 189985600 163158100 139056300
1134.91 118388500 101364100 87951870 77702740 70173920 64672670
1140.70 60741210 58003480 56239560 55460420 55455030 55944510
1146.48 56842950 58024420 59402360 60886220 62467200 64044180
1152.27 65597720 67020410 68264010 69402960 70475820 71417210
1158.05 72147820 72624070 72866770 72636390 71981030 71146110
1163.84 70271330 69407190 68535420 67690560 66963980 66367750
1169.62 65963720 65735840 65636970 65650810 65878250 66342550
1175.41 67174980 68426900 70069380 72182290 74998940 78668480
1181.19 83368380 89285070 96633550 105656400 116769900 130330100
1186.98 146532300 165580200 187734500 213210000 241826600 272982100
1192.76 306134800 340639500 375999700 411826900 448012200 484863300
1198.55 522663000 560620700 596509800 626953500 650133100 667765200
1204.34 683087700 697797700 709186700 715097300 714638500 702145600
1210.12 678065400 648834600 617755500 583118000 542811200 495894600
1215.91 444390700 391492400 340765200 295610600 257842600 227638400
1221.69 204499300 187463700 175539500 167602800 162726200 160053100
1227.48 159124500 159504600 160748000 162569500 164674200 166976400
1233.26 169355900 171725500 174122700 176481400 178755500 180931400
1239.05 182825900 184256800 184961000 184877700 184114400 182666800
1244.83 180738400 178527600 176254900 174156600 172296000 170509000
1250.62 168670900 166586700 164151700 161327300 158169100 154722900
1256.40 150900700 146708200 142282100 137645900 132838700 127681100
1262.19 122049300 115811200 109332800 103097400 97165550 91375230
1267.98 85636350 79884340 74233730 68715620 63432010 58506040
1273.76 53951320 49762580 46008220 42644700 39648300 36974780
1279.55 34633970 32563600 30707730 29066620 27643670 26376440
1285.33 25266920 24297520 23420360 22560480 21764900 21042260
1291.12 20388660 19804570 19270810 18758140 18259150 17723740
1296.90 17218150 16767070 16398260 16033800 15640010 15174120
1302.69 14620810 14023210 13450920 12886940 12402170 11971350
1308.47 11612480 11301800 11046290 10824580 10650570 10505220
1314.26 10383680 10275380 10175260 10050950 9950288 9855270
1320.04 9766090 9637886 9486694 9323090 9153782 8995942
1325.83 8897738 8824312 8764664 8643348 8526324 8474234
1331.61 8494676 8539986 8623846 8801176 9113544 9528206
1337.40 10139370 10951530 11996050 13333830 15157140 17596600
1343.19 20800750 24905680 30093280 36551720 44520820 54126060
1348.97 65401050 78374100 93009130 108957700 125888800 143422700
1354.76 161036900 178345200 195254400 211846800 228632300 246648200
1360.54 266659900 287714600 307800400 328832800 349607300 357510700
1366.33 348988000 334974400 319157200 302539100 287814900 274234900
1372.11 257355400 239142500 222705100 207308400 192173000 177650600
1377.90 164569500 153968100 146740400 143653300 145035400 150709600
1383.68 159844400 171012100 182722000 193899700 203828000 211702900
1389.47 215376100 216670000 220643900 228439300 236373700 237864300
1395.25 229281000 216734900 210685300 211933900 213851400 210937500
1401.04 200851700 183852400 162336100 139132000 116580400 96498000
1406.83 79766100 66436020 56203120 48442120 42629620 38188520
1412.61 34784360 32093070 29984060 28329940 27037710 26108300
1418.40 25498350 24362560 23439130 22965100 22723890 22586570
1424.18 22471950 22527990 22781190 23210350 23942290 24941690
1429.97 26061000 27479410 29230690 31147780 33209470 35593830
1435.75 38084120 39890250 41784060 43948710 46127200 48319260
1441.54 50560100 52867060 55229530 57540920 59826180 62383240
1447.32 64992340 66374780 66967640 67453120 67977780 68657240
1453.11 69770930 71306840 73442470 75579250 76945580 78286790
1458.89 79460240 80466540 81450240 82395960 83172220 83508850
1464.68 83265060 83350910 84132940 84680590 84023210 82068310
1470.47 79891340 77796600 75748620 73638860 71779570 70288790
1476.25 68758690 67551010 66832140 66608820 66868170 67467910
1482.04 68201560 68725080 68664110 67908640 66649620 65084040
1487.82 63809790 63741520 64649380 64786140 62032970 57246000
1493.61 53554020 52189240 51340720 49552800 47258790 43955200
1499.39 39785400 35423920 31030410 26891320 23308450 20683130
1505.18 18342860 15974210 13512300 11585580 10195120 9046492
1510.96 8261884 7467758 6707288 6236396 5849906 5673850
1516.75 5314880 4790910 4691878 5031570 4993520 4388504
1522.53 3927990 3768136 3868714 3609052 3460372 3357416
1528.32 3206904 3084318 3101072 3157280 3404986 3385260
1534.11 3036176 2897422 2916724 3356796 4193394 4197498
1539.89 3698330 3603218 3383732 2993722 3113278 3025738
1545.68 2765060 2694946 2729616 2823984 2839422 2703310
1551.46 2709614 2962272 3308738 2981250 2903394 3520198
1557.25 4283916 4295602 4193212 3408246 2843928 2810788
1563.03 2906548 3001212 2928342 2868264 2935752 3207408
1568.82 3451188 3154684 2982070 2979364 3040834 3212264
1574.60 4021024 4239526 3443302 3218044 3219076 3277902
1580.39 3322250 3355242 3372358 3412932 3438118 3455814
1586.17 3454004 3466882 3456994 3433932 3414368 3387628
1591.96 3334970 3282984 3218796 3154958 3099430 3026364
1597.74 2942092 2833430 2734392 2620948 2509256 2398242
1603.53 2282728 2174832 2109216 2045078 1987054 1941054
1609.32 1879078 1803170 1788504 1761866 1763080 1843278
1615.10 2503338 2729884 1979836 1741970 1734184 1751516
1620.89 1796580 2050152 2156712 1919402 1828136 1909742
1626.67 2080846 2061794 1999672 2039688 2096882 2161458
1632.46 2282464 2754432 3440122 3177270 2783788 2732354
1638.24 2682394 2765314 2831680 2920802 2971188 3056686
1644.03 3434160 3965694 3782770 3603354 3420568 3306230
1649.81 3414658 4263530 5359522 4953874 3928024 3369414
1655.60 3164758 3116130 3059686 3033610 2996244 3044342
1661.38 3244062 3204170 2903808 2846208 2790864 2829496
1667.17 2988484 3341212 3159750 3008280 2958416 2838598
1672.96 2971120 3482664 3459218 3049250 2989026 3063662
1678.74 3206042 3298452 3334750 3666814 4316250 5125282
1684.53 4719742 3941460 4009490 4153024 4323118 4434452
1690.31 4544786 4645190 4810928 5052262 5987438 6520282
1696.10 5701400 5397116 5820266 6695230 6389562 5477752
1701.88 5190716 5276088 5273058 5097914 4909508 4556860
1707.67 4346552 4227650 4076444 3807404 3592462 3430794
1713.45 3405940 3252724 3215400 3657770 3320316 2680224
1719.24 2355088 2254676 2220124 2225358 2206028 2151028
1725.02 2149784 2155640 2168472 2236076 2362566 2360772
1730.81 2418330 2950910 3611866 3602170 3066406 2827114
1736.60 2905262 3033990 3370578 3331610 3181642 3450366
1742.38 3987786 4151800 3854296 3736640 3858952 4092288
1748.17 4311248 4512716 4899772 4734120 4388344 4328414
1753.95 4282756 4343292 4454742 4395958 4312070 4194954
1759.74 4145572 4206290 3898506 3534670 3349278 3162878
1765.52 3014450 3033858 3007550 2668030 2578428 2702342
1771.31 2958952 2754294 2245318 2156320 2115040 2044266
1777.09 2032996 2083536 2174918 2261784 2246988 2305702
1782.88 2455212 2698436 2780578 2854712 3030742 3243302
1788.66 3499048 3865666 4276156 4781598 4907844 5019460
1794.45 5415984 5826992 6251896 6706744 7241818 7675026
1800.24 8077410 8476942 8778358 9032136 9272138 9461784
1806.02 9631106 9767234 9868912 9983054 10011180 9863722
1811.81 9666536 9425906 9254682 9104204 8895164 8552590
1817.59 8082638 7529008 6974482 6436950 5963406 5557778
1823.38 5330712 5161258 4834914 4576082 4437350 4397178
1829.16 4317616 3992678 3746212 3610608 3476922 3302824
1834.95 3122726 2944214 2768148 2594542 2454094 2321056
1840.73 2266836 2268802 2554838 2609890 2261090 2173218
1846.52 2202530 2214390 2210586 2231570 2237834 2262830
1852.30 2288892 2305790 2314530 2340700 2359642 2382230
1858.09 2392238 2397284 2389018 2363202 2342682 2322660
1863.88 2307216 2319146 2326338 2337014 2394276 2341820
1869.66 2137678 2030612 1977560 1940330 1901922 1862752
1875.45 1814482 1758526 1724200 1716810 1703478 1698510
1881.23 1690952 1696244 1725642 1748404 1755876 1786206
1887.02 1840160 1963764 2040686 2027136 2079768 2174746
1892.80 2278104 2394672 2494732 2590970 2716016 2855690
1898.59 3013692 3174956 3354938 3551492 3782086 4029038
1904.37 4288758 4575830 4902390 5231160 5585240 5973884
1910.16 6354876 6760824 7193372 7627374 8076388 8545150
1915.94 9096748 9706198 10123170 10502280 10942690 11371780
1921.73 11808260 12131750 12358440 12540180 12647670 12658700
1927.51 12595900 12471390 12301180 12069550 11790760 11426060
1933.30 10989700 10489730 9947718 9400980 8899434 8369486
1939.09 7766094 7089968 6417712 5697492 4957256 4369054
1944.87 3928512 3587976 3366958 3245222 3169242 3126202
1950.66 3119534 3151214 3210872 3288740 3374826 3477688
1956.44 3611148 3725706 3845586 3986538 4113946 4223660
1962.23 4324648 4413718 4492038 4546738 4599170 4589270
1968.01 4550702 4513250 4461940 4395382 4295028 4169706
1973.80 4005584 3853606 3724456 3571486 3394794 3185608
1979.58 2950092 2722800 2514014 2313528 2140200 1990780
1985.37 1855200 1735250 1637470 1549968 1471788 1431202
1991.15 1402362 1318980 1246206 1201230 1182162 1156422
1996.94 1126456 1109456 1092016 1073238 1059902 1055672
2002.73 1053380 1042716 1039934 1044458 1060386 1064440
2008.51 1059342 1060892 1072756 1070018 1068870 1081846
2014.30 1102982 1124818 1142072 1145778 1146414 1163086
2020.08 1178622 1194858 1230060 1261110 1296028 1330808
2025.87 1378342 1420706 1464356 1518454 1580096 1641286
2031.65 1713694 1791206 1876996 1979606 2083908 2188958
2037.44 2310248 2433974 2570502 2699434 2819954 2941582
2043.22 3060180 3177268 3288470 3393732 3485834 3568280
2049.01 3634728 3675024 3705010 3707768 3692244 3656810
2054.79 3610276 3531696 3426784 3291482 3122132 2934164
2060.58 2740560 2564042 2384974 2196888 2033036 1864616
2066.37 1709434 1570802 1456432 1362538 1291778 1239212
2072.15 1213152 1180984 1161554 1156510 1157762 1168038
2077.94 1194750 1232750 1267460 1294940 1333492 1369012
2083.72 1399908 1452512 1513952 1572938 1647230 1727558
2089.51 1789896 1847030 1916306 1982364 2075218 2157678
2095.29 2232438 2309672 2402156 2468304 2533282 2609054
2101.08 2694414 2762956 2816436 2853900 2895096 2913950
2106.86 2914820 2878392 2814120 2726486 2624946 2529064
2112.65 2457996 2376766 2298932 2209608 2123340 2048578
2118.43 1981038 1914260 1859528 1818628 1800424 1786908
2124.22 1777616 1773774 1782970 1796362 1812102 1828762
2130.01 1865440 1889170 1908096 1911506 1930116 1968616
2135.79 2013372 2048396 2079246 2087570 2092040 2093546
2141.58 2113526 2133438 2153742 2162484 2179772 2197174
2147.36 2208580 2229056 2258860 2276628 2309922 2364698
2153.15 2433840 2494672 2548626 2592770 2653764 2707406
2158.93 2756194 2811680 2878120 2935338 2972698 3009446
2164.72 3066366 3125526 3175200 3200360 3216882 3251476
2170.50 3301352 3333836 3367436 3413096 3464478 3526006
2176.29 3588688 3633376 3690418 3768294 3863076 3974680
2182.07 4099682 4230486 4366878 4500582 4640574 4777420
2187.86 4932814 5092336 5231648 5366406 5492174 5576064
2193.64 5627140 5667022 5677672 5665318 5644064 5591224
2199.43 5527222 5435586 5317932 5168098 5004848 4821858
2205.22 4632044 4422680 4204888 3994374 3784404 3550960
2211.00 3338102 3141236 2959638 2805844 2658312 2517398
2216.79 2406532 2323478 2272114 2230154 2209458 2191838
2222.57 2197018 2210160 2225252 2242440 2269736 2297900
2228.36 2327828 2388764 2454548 2513582 2585996 2643836
2234.14 2698146 2748054 2784574 2811768 2832102 2823796
2239.93 2820296 2803064 2787078 2763640 2723284 2664388
2245.71 2590164 2518992 2460522 2409816 2382484 2364380
2251.50 2342544 2300388 2281384 2280516 2296992 2328988
2257.28 2392130 2479566 2584792 2683504 2792868 2903116
2263.07 3039520 3193486 3352084 3466204 3574012 3702332
2268.86 3819610 3926308 4032112 4097888 4162688 4205264
2274.64 4210820 4195962 4191560 4151020 4090482 4023808
2280.43 3957168 3887226 3808424 3715176 3631322 3522958
2286.21 3411204 3271386 3113916 2973738 2852748 2744588
2292.00 2651472 2539568 2417282 2287086 2185876 2098616
2297.78 2000416 1888562 1802268 1738158 1696156 1662950
2303.57 1645186 1626886 1623360 1621308 1646124 1671258
2309.35 1697024 1733336 1775930 1813082 1846414 1891322
2315.14 1925536 1983380 2036296 2093602 2163052 2233820
2320.92 2296698 2354516 2402196 2462712 2517056 2569008
2326.71 2640592 2699160 2745318 2798228 2843526 2890698
2332.50 2940496 2947806 2950318 2978296 3016806 3036914
2338.28 3022720 2996608 2950768 2895346 2842204 2790500
2344.07 2740046 2692856 2639920 2574974 2508696 2457058
2349.85 2404124 2346248 2302920 2258858 2194944 2120174
2355.64 2055714 1971184 1888224 1828748 1788438 1753320
2361.42 1740880 1748982 1761540 1758892 1765062 1786294
2367.21 1815638 1843140 1879566 1937324 1997144 2027106
2372.99 2053116 2080112 2129528 2168462 2208708 2263720
2378.78 2294586 2303386 2318504 2332046 2347432 2339350
2384.56 2335216 2330986 2319748 2297310 2263546 2216356
2390.35 2197418 2182126 2137974 2085690 2045522 2016872
2396.14 1988914 1937808 1894512 1877772 1872350 1865128
2401.92 1851102 1836360 1837478 1843516 1837626 1819554
2407.71 1816814 1810848 1811676 1807986 1802994 1783068
2413.49 1784706 1765982 1739444 1729272 1706154 1690892
2419.28 1689108 1676090 1687958 1697782 1700904 1715412
2425.06 1744540 1779740 1817990 1886760 1962048 2022138
2430.85 2102774 2185430 2254582 2331154 2404990 2485804
2436.63 2575316 2646096 2721786 2785262 2841966 2897710
2442.42 2947390 2977882 2990168 2980818 2966630 2960606
2448.20 2928120 2858244 2803954 2753436 2688686 2612966
2453.99 2552686 2476590 2422214 2373386 2322898 2271860
2459.77 2232206 2174880 2105866 2045524 1996564 1948106
2465.56 1909862 1872350 1832714 1805086 1791628 1768580
2471.35 1750640 1726096 1702072 1684128 1677080 1649444
2477.13 1608306 1560698 1524748 1475146 1442320 1414918
2482.92 1393764 1370644 1338222 1311904 1302964 1284004
2488.70 1253078 1235130 1228086 1212906 1191656 1157608
2494.49 1131908 1095712 1054548 1024630 1001946 978154
2500.27 964912 931932 888146 860082 851370 837640
2506.06 831158 834090 821902 829276 840552 846346
2511.84 840560 844542 871640 887930 903960 908952
2517.63 921320 922448 929058 931902 928424 917976
2523.41 912354 900058 899540 911752 928238 929542
2529.20 915114 904280 910576 898872 899538 891076
2534.99 905524 916028 929540 943334 966744 987534
2540.77 1010636 1026348 1052596 1088228 1139552 1167644
2546.56 1194794 1248914 1293336 1320534 1348948 1376444
2552.34 1428190 1483586 1524208 1546574 1589564 1635700
2558.13 1677536 1701348 1726410 1760198 1794674 1819168
2563.91 1850740 1877756 1911634 1939150 1972414 1997264
2569.70 2023204 2047054 2074424 2071736 2077616 2104254
2575.48 2140260 2172458 2211412 2222992 2239894 2273350
2581.27 2308116 2343314 2388328 2437810 2492774 2552292
2587.05 2620260 2715574 2838596 2931838 3031002 3137762
2592.84 3277168 3440492 3595058 3758270 3952044 4143886
2598.63 4339164 4541350 4756430 4972030 5200814 5435414
2604.41 5709922 5967898 6233414 6509948 6803632 7114904
2610.20 7421546 7709074 8010696 8297356 8578150 8878046
2615.98 9163156 9396358 9606498 9816236 10017200 10168460
2621.77 10316400 10464240 10556750 10592540 10603040 10540230
2627.55 10437810 10290780 10077230 9834482 9601634 9348188
2633.34 9056008 8745322 8444102 8138168 7833108 7546582
2639.12 7269316 6981798 6730408 6484888 6248108 6050570
2644.91 5884426 5733954 5614746 5516792 5411456 5365558
2650.69 5337490 5264224 5239134 5234484 5225334 5202726
2656.48 5213292 5236828 5237296 5221580 5215638 5221896
2662.27 5248208 5263082 5264074 5250998 5240604 5211110
2668.05 5197176 5184052 5166354 5126746 5105136 5096066
2673.84 5087306 5067176 5058432 5033546 5014598 4999352
2679.62 4995074 5008030 5022790 5021218 5047702 5047524
2685.41 5036676 5038976 5061518 5081468 5115002 5147912
2691.19 5196352 5253984 5305354 5363874 5449312 5536808
2696.98 5655794 5799184 5973800 6180462 6430980 6725220
2702.76 7074688 7443426 7878546 8379496 8937762 9545178
2708.55 10201790 10889140 11621020 12357670 13123370 13899380
2714.33 14684110 15441390 16170610 16918580 17674530 18315780
2720.12 18796850 19123410 19410580 19792330 20245630 20652360
2725.91 20995290 21305170 21624450 21897810 22066470 22143570
2731.69 22179900 22181850 22101210 21951780 21805250 21676780
2737.48 21577140 21466330 21321480 21121450 20868730 20567930
2743.26 20281320 19965700 19536120 18996790 18464950 17972050
2749.05 17550490 17197180 16826300 16441840 16116920 15803280
2754.83 15561750 15421470 15337880 15269470 15282090 15406410
2760.62 15645170 15957220 16329440 16679600 17000070 17302700
2766.40 17631490 18035640 18430170 18778610 19146740 19448550
2772.19 19680080 19911740 20157780 20332990 20338270 20209890
2777.97 20068830 19967460 19928680 19892960 19824650 19683480
2783.76 19494030 19248960 18980710 18699870 18423350 18181730
2789.54 17997330 17803980 17639490 17510510 17445290 17401330
2795.33 17385090 17398490 17468950 17568140 17782250 18076020
2801.12 18404520 18797710 19290020 19852330 20443890 21031390
2806.90 21614380 22185700 22776630 23395330 24117890 24915230
2812.69 25752360 26568500 27323190 28118160 28980160 29862280
2818.47 30735700 31582870 32384550 33163030 33930080 34668060
2824.26 35395870 36098200 36798020 37521240 38325720 39222080
2830.04 40169270 41153690 42209020 43326360 44519730 45789150
2835.83 47153300 48534850 49986620 51510270 53005790 54465240
2841.61 56001340 57563890 59149590 60737410 62445210 64291370
2847.40 66232130 68256720 70361700 72536800 74839210 77318340
2853.18 79941660 82724180 85786760 89214990 92991840 97127740
2858.97 101719300 106902300 112814700 119337200 126504000 134362100
2864.76 142993300 152432200 162625000 173568800 185214700 197486100
2870.54 209987500 222440300 234844300 246981200 258816400 270998700
2876.33 284432800 299553200 314783000 327049400 335315200 341638000
2882.11 348023400 354527500 360691000 365837700 369673500 372378700
2887.90 374483500 376367500 378200500 379975500 381926800 383929900
2893.68 385832300 387886100 389156300 388616900 386215700 382186700
2899.47 377107600 371407900 365281700 359004800 352755800 346574900
2905.25 340351700 333520900 325796200 317912800 310917600 304517600
2911.04 298078700 291301200 284196400 277123700 270456900 264134400
2916.82 258089300 252539800 247424500 242569800 238402300 235360300
2922.61 233762700 233713200 235402600 238847400 244270100 251417800
2928.40 259969800 269736300 280142200 290387100 300028500 308178800
2934.18 314822500 320665700 326545700 333327900 340743400 346970700
2939.97 350638300 351463000 350365800 348975600 348046100 346559000
2945.75 343335000 337914700 330566900 321433700 311371900 301179200
2951.54 291507800 282957000 275853200 270056900 265876600 263622700
2957.32 263632600 266530700 273308200 284667400 301432000 323925900
2963.11 353366200 390057900 433826700 484395200 540892600 601117100
2968.89 662818900 724116700 786872100 855382000 937755600 1042459000
2974.68 1156544000 1221473000 1237285000 1281218000 1354512000 1417199000
2980.46 1459575000 1484643000 1488660000 1478364000 1451293000 1405486000
2986.25 1342324000 1265989000 1190182000 1115739000 1034702000 945859600
2992.04 852900600 759229100 667136500 579598800 498707300 425854500
2997.82 360868600 303407600 253359300 210387400 173942000 143547200
3003.61 118496600 98250340 82146580 69583140 59836980 52468420
3009.39 46942620 42864940 39930820 37848050 36375220 35399860
3015.18 34717070 34287690 34011060 33851300 33713210 33582440
3020.96 33452090 33283410 33022100 32708760 32307200 31813070
3026.75 31225710 30516680 29690200 28821150 27849680 26797410
3032.53 25659280 24444480 23195240 21964270 20721330 19499630
3038.32 18311790 17184180 16090590 15052470 14112560 13227820
3044.10 12346430 11573160 10843250 10183030 9580780 9079120
3049.89 8650296 8273948 7932434 7657082 7428564 7263546
3055.67 7115622 6979314 6888894 6850882 6794586 6733186
3061.46 6710222 6739144 6774432 6793906 6804376 6847916
3067.25 6931862 7004672 7063512 7142878 7226688 7350228
3073.03 7457742 7561234 7632734 7697114 7786156 7921360
3078.82 8013480 8077802 8177180 8254480 8255156 8296880
3084.60 8384206 8442112 8377428 8300116 8251650 8212436
3090.39 8137230 8022982 7917872 7805384 7645644 7517920
3096.17 7362824 7188402 6978434 6801112 6648294 6462946
3101.96 6257462 6080476 5936718 5761832 5612026 5483284
3107.74 5362878 5271024 5126188 5025324 4955292 4864612
3113.53 4772248 4706106 4661280 4636924 4608842 4582756
3119.31 4541580 4506952 4516046 4517822 4494036 4469142
3125.10 4449700 4443472 4427502 4399040 4379144 4376546
3130.89 4384564 4408868 4418060 4395716 4356818 4376444
3136.67 4401242 4405278 4419754 4447226 4471992 4493874
3142.46 4512914 4533914 4585670 4638954 4673618 4724922
3148.24 4787008 4893598 4962598 5033158 5129230 5237542
3154.03 5342136 5442790 5562424 5708628 5865502 6046716
3159.81 6229840 6415712 6576858 6769104 6975348 7173672
3165.60 7396196 7632198 7876166 8110112 8327752 8549278
3171.38 8778588 9016534 9224982 9383480 9534522 9722550
3177.17 9922336 10069270 10144940 10220540 10265950 10292050
3182.95 10302190 10253160 10170630 10104790 10016040 9896646
3188.74 9766054 9649240 9520248 9375020 9210216 9059458
3194.53 8914552 8777886 8642230 8512854 8428874 8343486
3200.31 8265620 8214316 8217894 8223724 8201402 8215240
3206.10 8256708 8289534 8367242 8481136 8588314 8669234
3211.88 8760788 8884130 8998674 9117382 9212242 9305522
3217.67 9393394 9489702 9599528 9677948 9768216 9844730
3223.45 9916232 9961574 10009820 10071830 10088540 10101400
3229.24 10124480 10115000 10050860 9979842 9929274 9847622
3235.02 9723712 9603778 9444758 9274486 9078882 8850502
3240.81 8605144 8360598 8085472 7772894 7435880 7147778
3246.59 6869152 6513616 6162532 5836486 5527260 5214220
3252.38 4900314 4584400 4285454 4042602 3808314 3583906
3258.17 3365772 3145754 2985438 2848820 2687810 2586532
3263.95 2492322 2393304 2286802 2234338 2184376 2100964
3269.74 2064954 2043660 2021396 1977206 1939364 1943430
3275.52 1918024 1865782 1858554 1836772 1814680 1788882
3281.31 1777256 1771670 1753156 1773514 1770022 1737040
3287.09 1720748 1705524 1705062 1717416 1710724 1711538
3292.88 1748836 1808960 1865012 1896366 1921924 1962680
3298.66 2042278 2124496 2199710 2324828 2441532 2519944
3304.45 2619412 2771998 2972126 3129966 3258116 3414660
3310.23 3563130 3691692 3824550 3938300 3976646 4037234
3316.02 4119132 4195040 4221960 4181600 4144158 4131386
3321.80 4133222 4128990 4095350 4026814 3950214 3871550
3327.59 3789396 3665712 3543660 3455900 3367016 3207196
3333.38 3060308 2950768 2804868 2670772 2574602 2469192
3339.16 2340302 2182514 2029722 1916978 1827706 1723450
3344.95 1615534 1534106 1453236 1344418 1261034 1206344
3350.73 1139772 1068800 1040150 1026810 957304 874592
3356.52 820692 814144 823856 804800 785712 755444
3362.30 775894 776128 720778 695428 680878 663336
3368.09 660606 695132 720316 718284 717160 697518
3373.87 655790 674412 716208 723486 720964 704390
3379.66 689754 734146 760158 744770 712410 738642
3385.44 802610 846394 824710 794550 796650 794282
3391.23 807496 839878 877310 911396 932014 941852
3397.02 934972 920884 956308 986340 975510 1004832
3402.80 1052306 1069594 1105640 1120032 1147366 1160976
3408.59 1193994 1271342 1338668 1407174 1478190 1527488
3414.37 1612258 1738068 1875620 1970622 2072180 2209450
3420.16 2336932 2480560 2627914 2747332 2830376 2934976
3425.94 3037872 3119592 3216278 3342428 3415704 3410320
3431.73 3426366 3430160 3386926 3382776 3371824 3329734
3437.51 3236984 3115862 2988242 2868660 2754038 2641634
3443.30 2496862 2351338 2247974 2160544 2039504 1893952
3449.08 1754784 1627886 1520838 1449116 1350166 1242926
3454.87 1173152 1127936 1088802 1036190 983296 963814
3460.66 956964 947282 923770 883230 876088 875774
3466.44 897874 912576 908500 922106 992250 1054164
3472.23 1075148 1092390 1087312 1101666 1166486 1199156
3478.01 1210936 1275600 1329416 1351452 1348492 1338908
3483.80 1344944 1323448 1345622 1352186 1327228 1318536
3489.58 1289748 1195850 1135586 1114518 1082254 1025324
3495.37 952658 872316 798448 756846 709744 664766
3501.15 625808 584718 528154 419732 346642 323662
3506.94 312920 312558 272838 194658 160488 141318
3512.72 142580 120048 89920 68236 68910 52028
3518.51 36858 47598 58108 77214 112924 98570
3524.30 64720 56078 71802 76412 25916-5474
3530.08 12538 13160 9696 6746-19058-2432
3535.87 36884 24616 4030-828 24044 28244
3541.65 33954 14748 46722 86294 127402 115682
3547.44 38832 19828 45954 92982 133876 90106
3553.22 69590 67468 51914 23316 20686 58694
3559.01 88096 54286 48580 63678 66022 95648
3564.79 203636 229764 251948 198130 49698 9178
3570.58-9636 9248 6644 13956-1060-5558
3576.36 2774 3240 16156 25804 9420 26506
3582.15 56292 67302 83406 217654 274592 261276
3587.94 275008 57038-19240 1506 46710 65448
3593.72 103684 107488 45126 29740 41932 43760
3599.51 72554 43630 4948-4760-33666-35988
3605.29 49576 120382 183444 363758 216840 79916
3611.08 220210 239800 166578 168732 109566 146534
3616.86 274706 365222 467692 262040 161422 157762
3622.65 177604 155660 211790 268088 520062 939042
3628.43 1044338 655006 349760 325976 374390 372488
3634.22 295908 268734 254132 270922 275138 281074
3640.00 362404 526702 584470 451926 401708 465044
3645.79 676614 746992 950016 1059210 832858 696800
3651.57 435346 340830 337300 601440 824436 533686
3657.36 315796 300074 302946 314222 309342 286462
3663.15 280440 294072 320904 329272 484448 674144
3668.93 919504 1175382 640504 378516 546916 1050370
3674.72 1408658 1009388 494956 494628 531184 502894
3680.50 464730 480856 479318 543950 541962 558456
3686.29 835994 1542548 1291706 868502 977992 862250
3692.07 720766 721048 716606 740250 780588 823060
3697.86 864550 913302 1052252 1267130 1199482 1136622
3703.64 1201674 1310138 1414866 1506440 1697984 1917060
3709.43 1870256 2164692 2434968 2038952 1882386 1930738
3715.21 1938988 1923696 1966304 2040712 1992746 1963588
3721.00 2051526 1999558 1837158 1776666 1770468 1731318
3726.79 1471922 1301560 1213686 1240660 1559584 1592432
3732.57 1234536 1382762 1426030 1481782 1215896 923024
3738.36 777968 762000 791340 763128 1086940 2163792
3744.14 2062398 971296 726528 893482 1590114 1553460
3749.93 1073634 1654900 1479962 761606 614080 674852
3755.71 753746 654028 661108 781068 692008 561132
3761.50 543320 529376 573102 697546 692738 579024
3767.28 582560 787990 898196 653434 577514 555354
3773.07 587996 603076 628954 637642 685792 842078
3778.85 962562 815198 764948 764628 830852 891594
3784.64 902774 879396 918582 966980 975954 961688
3790.43 984136 991010 1043096 1087228 1187338 1336032
3796.21 1310940 1185122 1216140 1417894 2090770 1978910
3802.00 1398416 1258174 1196478 1407004 1839728 1590462
3807.78 1183824 1163246 1158506 1185692 1149878 1174340
3813.57 1289376 1931972 2064514 1379250 1226930 1339082
3819.35 1698764 1948382 1698704 1363076 1320966 1338616
3825.14 1456314 1520284 1434456 1374636 1413404 1601794
3830.92 1716706 1514822 1540806 1754688 1694716 1814948
3836.71 2457944 2099382 1599432 1623188 1522092 1421544
3842.49 1536594 1484002 1341736 1300238 1261374 1278100
3848.28 1304368 1364702 1756844 2237608 2323748 2993568
3854.07 2293218 1438122 1435734 1398444 1346358 1309808
3859.85 1395950 1525212 1470286 1512426 1802158 1748094
3865.64 1477656 1468596 1677348 2151196 2200774 1774858
3871.42 1646758 1797706 1951158 1826932 1788876 1830718
3877.21 1849204 1998692 2274412 2274194 2147040 2217982
3882.99 2277476 2579868 2874058 2591074 2419130 2459756
3888.78 2550292 2827540 2941972 2685086 2630396 2631336
3894.56 2638808 2605236 2656492 2803002 2949960 2737592
3900.35 2802004 2813992 2685496 2784708 2564834 2370336
3906.13 2226760 2106060 2041062 2010292 1976996 1950572
3911.92 1885198 1829540 1826112 1841480 1925874 1902420
3917.70 1770724 1813920 1829378 1775470 1803876 1816132
3923.49 1848882 1865566 1814308 1795698 1845248 1907880
3929.28 1929126 1978494 2087016 2092234 2060032 2051608
3935.06 2054220 2074838 2116466 2168584 2205762 2262700
3940.85 2359072 2422384 2375056 2380008 2435316 2485300
3946.63 2530980 2553272 2641812 2688170 2663902 2662442
3952.42 2685798 2705072 2751118 2773438 2765664 2781042
3958.20 2812136 2822194 2835284 2820678 2777488 2755868
3963.99 2729792 2707102 2667692 2657374 2656480 2596928
3969.77 2563190 2574230 2535024 2473294 2447710
##END=
