##TITLE=Ethyl tert-Butyl Ether
##JCAMP-DX=4.24
##DATA TYPE=INFRARED SPECTRUM
##CLASS=IUPAC A
##ORIGIN=NIST, Anayltical Chemistry Division, 301-975-3108
##OWNER=COPYRIGHT (C) 1998 by the U.S. Secretary of Commerce
##DATE=98/10/1
##$SPECTRA VERSION=1.00
##$UNCERTAINTY IN Y=2.8 % relative (B=1.9E-04,C=3.0E-09,D=2.7E-14)
##CAS NAME=tert-Butyl Ethyl Ether
##CAS REGISTRY NO=637-92-3
##MOLFORM=( C H3)3 C O C2 H5
##MP=-94 C
##BP=73.1 C
##$NIST SOURCE=QUANT-IR
##SPECTROMETER/DATA SYSTEM=IFS66V (Bruker)
##INSTRUMENT PARAMETERS=KBr Beam splitter; MCT Detector; Multipass cell
##STATE=gas
##SAMPLE DESCRIPTION=ETBE Primary Gas Standard
##PRESSURE=101.3 kPa
##TEMPERATURE=23 C
##SAMPLING PROCEDURE=1 L/min Flow
##RESOLUTION=0.9640
##DATA PROCESSING=Boxcar Apodization
##XUNITS=cm-1
##YUNITS=(micromol/mol)-1m-1 (base 10)
##XFACTOR=1.0
##YFACTOR=9.0949E-13
##DELTAX=0.4820
##FIRSTX=575.169
##LASTX=3975.077
##FIRSTY=1.82E-07
##MAXX=3974.59
##MINX=575.17
##MAXY=.00136
##MINY=-1.29E-06
##NPOINTS=7053
##XYDATA=(X++(Y..Y))
575.17 200640-542966-21930-1098-10932-638474
577.58-48256-624810 67272-491882 152734-11428
580.47 241832-1422746-325682-16770-333516-120290
583.37-226472-132926 127646-612402-246172-850888
586.26-797524 2230 28950-54768-446642-306086
589.15-51526-53610-248950-250988 116886-155256
592.04 125332-13390-319620-139130 188236 87890
594.94-416258-265932-393838-73080-240618-14828
597.83 305870-56590-123046-32666 240172-530216
600.72-87824 11494-154516 61646-132650-127648
603.61-32530-162564-160238-232234 133680-65582
606.51-61890-241366 251098 185632 115292 182642
609.40 149146 355782 125018 71186 242576 101268
612.29-32184 103656 202384-51630-16998 30804
615.18 225114 200276 33484 188970 114754 121208
618.08 182544 125300 27072-56148 212636 154864
620.97 155708 104464 262754 150310 42736 43862
623.86 57502 248716 154910 19332 249128 124156
626.76 99964 274760 35392 149394 208564 105704
629.65 146132 170562 287538 288438 159722 194382
632.54-73610 26602 133540 162006 252034 62432
635.43 206736 246096 85828 14210 16230 155328
638.33 101670 81928 167140 31570 20714 16486
641.22 50576 1996 166242 181222-31890-14802
644.11-26670 55732 31682-18058-27264 317054
647.00 217040 84588 10082 88758 209086 25222
649.90 80008-43952-32850 84720 132042 126186
652.79 61378-82674 20532 100336 74144-53524
655.68 46174-116952 8702 38034 65356 127718
658.58 201952-40126 131696 706-50236-103324
661.47 75674 18182 13922 214470-54472 59698
664.36-8508-70964 112430 77024 91646-57566
667.25 171586 141982 39326 150580 195186 27584
670.15-1792 163736 105682 141952-18480 79222
673.04 156500 72196 35738 84064 28058 238590
675.93 121162-53446 23662 125330 141494 177356
678.82 187722 116876 137100 73656 224382 242144
681.72 311934 257580 251000 360598 261496 217768
684.61 325482 187330 401444 350242 356822 486650
687.50 309538 438386 374368 332428 281736 472326
690.40 430164 491214 469826 511382 564692 456996
693.29 493652 685716 605888 524692 560390 601910
696.18 735662 560474 726408 705052 773350 645282
699.07 646840 656010 706882 838972 771672 738126
701.97 971870 891750 906682 868088 1036862 1080248
704.86 963750 1062164 1139894 1134830 1238708 1333204
707.75 1316398 1470050 1454482 1442256 1517464 1654274
710.64 1822428 1758886 1800708 1947448 2070806 2268212
713.54 2331904 2439490 2666638 2740206 2771890 3056742
716.43 3270694 3393904 3613496 3791318 4120326 4270326
719.32 4533628 4817408 5132960 5480266 5807622 6109312
722.22 6583972 6974332 7251022 7710744 8545320 8878820
725.11 9264084 9984042 10496820 10984190 11698330 12382960
728.00 13025280 13660740 14582130 15306020 16196220 17063100
730.89 17849620 18663410 19591030 20327780 21161930 21926530
733.79 22566760 23272710 23860370 24320530 24768230 25164920
736.68 25370730 25462560 25625390 25591030 25704170 25694660
739.57 25626220 25929910 26252250 26346000 26891450 27271160
742.46 27346470 26863280 25524430 23634860 22283960 21893790
745.36 21698800 21699470 21671490 21544270 21412510 21187940
748.25 20752130 19954200 19124390 18144990 17135710 16065610
751.14 15073220 13969660 12843820 11748960 10732720 9752126
754.04 9117380 8141890 7595784 6944200 6331170 5831706
756.93 5428352 4830300 4670218 4167288 4075020 3683890
759.82 3484366 3384450 3211838 3034418 2869168 2804856
762.71 2800180 2482470 2375122 2423130 2370690 2306034
765.61 2184984 2149384 2133602 2101814 2120902 2005110
768.50 1977140 2071614 1975426 2069196 1941636 2024912
771.39 1948590 1986676 1899532 1948998 1772036 1923862
774.28 1836296 1930554 1975274 1881814 1784070 1815404
777.18 1746864 1809968 1865698 1779754 1777968 1826410
780.07 1751898 1775606 1877272 1642666 1776378 1717362
782.96 1697776 1683324 1682406 1651624 1767552 1663164
785.86 1667686 1626506 1716476 1619068 1709510 1734798
788.75 1661232 1721632 1628774 1664440 1683938 1663808
791.64 1629084 1655622 1733396 1746416 1638128 1688312
794.53 1682954 1715700 1636596 1743772 1776264 1753242
797.43 1825282 1820210 1937716 1886516 1929628 1879700
800.32 1870004 1946540 2054018 2062878 2075238 2115536
803.21 2113850 2211480 2199360 2244500 2325336 2291912
806.10 2298574 2453782 2376896 2500836 2470604 2576828
809.00 2724252 2732564 2709822 2779414 2814690 2902546
811.89 2969724 2946702 3017228 3128854 3032658 3169582
814.78 3239948 3398060 3453074 3473360 3495132 3615614
817.68 3806860 3852980 3917332 4157590 4374232 4430758
820.57 4513542 4804054 4940710 5143334 5266688 5549416
823.46 5810316 6281770 6588824 6987756 7404406 7789960
826.35 8341448 8886584 9371094 10097830 10702090 11447650
829.25 12540320 13278190 14302690 15374780 16513420 17541770
832.14 18802060 20261850 21599160 23093810 24806380 26537100
835.03 28375460 30240780 32498060 34586570 36799080 39162610
837.92 41438450 43955220 46305880 48848590 51353750 53750140
840.82 56037680 58467350 60553070 62733270 64649440 66370060
843.71 67808030 69096610 70394840 71171830 71938080 72855410
846.60 73817540 74745750 76054800 77545740 79251860 80583420
849.50 82136130 82503490 80844700 76808320 72622460 70566100
852.39 69466340 69252540 68956330 68742300 68243740 67419080
855.28 65991040 64740300 62662350 60184060 57499500 54495270
858.17 51508680 48391140 44910860 41841810 38688100 35793560
861.07 33037860 30373840 28077140 25646590 23560300 21717470
863.96 19911970 18369580 16851960 15421510 14120980 13075430
866.85 11901560 10925340 10059240 9297642 8452342 7897404
869.74 7216312 6649330 6157606 5714636 5315850 5031308
872.64 4613272 4390050 4150528 3987966 3778684 3651278
875.53 3469446 3333074 3270306 3133000 2989838 2904914
878.42 2872914 2835812 2830912 2730458 2681500 2658680
881.31 2633276 2680886 2702302 2647776 2677932 2791366
884.21 2739234 2901220 2781712 2835514 2932294 2967528
887.10 3005310 3168964 3257682 3416088 3787590 3925372
889.99 3845092 3314458 3307730 3255890 3327914 3498714
892.89 3558938 3552068 3727260 3749554 3938302 4083340
895.78 4146910 4118752 4289704 4461974 4574726 4700706
898.67 4927280 5102760 5215720 5483484 5697178 5831004
901.56 6107608 6404126 6523002 6791008 7031112 7292694
904.46 7650648 7934620 8204812 8491978 8705396 8951076
907.35 9177074 9349230 9551426 9691496 9827200 9871710
910.24 9946750 10033630 10038000 10041040 10024020 10199310
913.13 10244160 10323350 10494810 10736170 10979640 11191640
916.03 11192090 11138160 10822380 10637140 10646100 10665760
918.92 10747730 11116650 11208480 11214860 11402080 11102320
921.81 10676650 10540920 10141690 10191470 10044840 9900258
924.71 9618054 9636200 9590240 9489760 9483462 9505758
927.60 9523234 9659258 9726912 9944894 10122680 10400160
930.49 10605650 10872160 11348270 11676390 12070240 12512310
933.38 13028920 13597520 14112950 14818600 15533470 16233280
936.28 17013390 18060200 19000950 20122620 21232470 22603920
939.17 23930360 25340860 26876780 28754560 30493210 32530820
942.06 34642350 36932270 39240700 41839820 44515020 47402990
944.95 50184560 53588180 56852290 60321270 64021910 67934900
947.85 71795220 76028740 80226360 84934790 89232190 93832080
950.74 98263210 102481600 106869000 110702200 114257800 117391800
953.63 120157300 122562200 124315400 125723900 126896700 127547200
956.53 128103200 128512300 128958000 129709800 130720100 132327700
959.42 134204700 136051900 137286200 137006800 135331900 132174200
962.31 127773400 123406600 118495000 115189000 113839100 112828700
965.20 112292000 111359800 110078300 107999400 104805400 101047700
968.10 96308120 90775680 84924230 78420340 71859040 65421980
970.99 58868170 52733680 47028800 41739830 36949650 32696310
973.88 28915750 25644010 22815430 20448450 18356440 16519590
976.77 15100280 13813920 12762780 11808390 10981040 10249340
979.67 9557600 9034742 8598468 8130522 7763976 7369824
982.56 7106362 6885958 6585004 6447812 6196010 6021542
985.45 5863366 5709490 5556560 5418322 5424670 5314396
988.35 5214554 5097172 5105338 5079358 5013028 4931828
991.24 4906328 4871954 4951656 4864386 4905548 4940760
994.13 5039656 5109740 5047456 5104584 5256472 5309426
997.02 5363920 5501296 5658322 5741442 5924674 6122582
999.92 6332162 6501790 6710356 6922760 7166000 7493176
1002.81 7638256 8035248 8402956 8745488 9072798 9483944
1005.70 9844870 10274570 10655610 11146780 11681840 12173620
1008.59 12710380 13305450 13971900 14572110 15216700 15946990
1011.49 16720050 17528480 18403450 19377120 20312470 21271050
1014.38 22252880 23286500 24412330 25358450 26516980 27497830
1017.27 28510790 29367030 30288270 31019890 31718660 32171550
1020.17 32289630 32043010 31930160 31819570 31597850 31513920
1023.06 31460340 31599360 31954400 32460630 33422870 34396290
1025.95 35187890 35285560 32544290 30697540 30094240 29838400
1028.84 29839200 29997960 30055280 30197660 30101210 29922460
1031.74 29736630 29359350 28784620 28201890 27346760 26564340
1034.63 25701530 24984000 24204790 23469770 22924010 22337470
1037.52 21882130 21592510 21305630 21177180 21106000 21142590
1040.41 21118330 21357610 21609000 21899510 22193070 22683360
1043.31 23229850 23809090 24452720 25141300 25910710 26683240
1046.20 27599640 28528290 29585460 30675380 31858100 33081680
1049.09 34367160 35766660 37192470 38841490 40515970 42312310
1051.99 44239540 46320790 48506300 50947150 53476370 56132920
1054.88 59008380 62052170 65489730 69133270 72982380 77144150
1057.77 81579880 86366880 91399250 96925340 102675700 108918000
1060.66 115598900 122790000 130218600 138289300 146685100 156084100
1063.56 165845100 176254700 187158100 198566700 211092600 223877600
1066.45 237464800 251384000 265512100 280877400 296038900 312116000
1069.34 327943200 344610800 361797100 378654800 396182100 412841200
1072.23 429984700 446989800 463253700 480571400 496481200 511609200
1075.13 525444700 537553200 548928800 557983900 565200600 570339700
1078.02 574264000 577600200 580719000 583227900 586227600 589476900
1080.91 593188000 595800400 599142800 602534600 602620200 599005200
1083.81 591722300 586794200 575860700 553424300 534732500 518703900
1086.70 503372600 492382300 479708500 467360400 456628600 443345600
1089.59 429834200 414346200 395988100 376241500 354064400 331327800
1092.48 307301100 282417900 257670800 234018500 211717200 191306700
1095.38 172878200 156796700 143183800 131706600 122802200 115795400
1098.27 110643200 107377200 105316300 104965000 105593700 107390000
1101.16 109727700 113370600 117257700 122068600 127382000 133247400
1104.05 139945700 146906100 154451500 162221000 170706700 179496600
1106.95 188834200 198639600 208559200 218863900 229058400 239766800
1109.84 250717200 261732800 272906300 284334900 295415600 306815000
1112.73 318231500 329273000 340328800 350861700 361064400 370970900
1115.63 379000500 386665500 393176000 398463300 402222300 404326600
1118.52 405954900 406771500 406344600 405747800 405519900 404211200
1121.41 402670600 401313800 398401900 395806800 391782600 384403900
1124.30 375640900 364206000 350756300 338360600 328725400 323386000
1127.20 315336300 307386500 299998000 291135900 282016900 270924700
1130.09 259069400 245980400 232417700 218353800 203952300 189512300
1132.98 175892800 162285900 149878900 138207900 127456900 117342800
1135.87 108521100 100406000 93433180 87069740 81825300 76933410
1138.77 73048740 69640500 66869920 64269250 62193100 60348150
1141.66 59050630 57887750 56710440 55883130 55516740 55314050
1144.55 55201620 55375720 55498750 55890890 56218310 56774720
1147.45 57374290 57943560 58690820 59370890 60088500 60907450
1150.34 61582860 62496570 63320460 64004040 64818340 65629970
1153.23 66436240 67037860 67720020 68284830 68846180 69382330
1156.12 70015080 70519600 70960680 71449270 71974690 72193470
1159.02 72421420 72686000 72822300 73038900 72982780 72768300
1161.91 72441120 71895940 71703860 71116470 70702200 70273900
1164.80 69816840 69390330 69059060 68501870 68027150 67712080
1167.69 67258010 66934080 66634900 66255030 66157240 65878020
1170.59 65771780 65735110 65658930 65610620 65581120 65592120
1173.48 65674870 65796540 66081170 66213860 66565360 67058640
1176.37 67704420 68275340 69136780 69987130 70911980 71927150
1179.26 73346900 74800170 76445020 78418500 80651180 83003480
1182.16 85842650 88961120 92355360 96225080 100497600 105120400
1185.05 110300800 116165400 122616500 129581700 137534000 145779700
1187.94 154875000 164880500 175472300 186814000 199162700 212471300
1190.84 226362300 241277300 256523900 272521200 288838500 305834400
1193.73 323032800 340491600 357958600 375835000 394086800 411550000
1196.62 429786600 447874500 466260100 484272800 503565700 522293600
1199.51 542344300 560599400 579776300 598389600 614221600 629352500
1202.41 640905000 651815400 660738000 667730700 675627100 683633500
1205.30 689770600 698396700 706504800 711428900 713114600 715646700
1208.19 717968200 718870300 714537900 704686100 693518600 679710300
1211.08 663156900 648823200 634474500 618901400 601733100 584652500
1213.98 565890600 544380200 521820200 497270500 471218100 444377200
1216.87 418219300 391088500 364270900 339373900 315476800 293736400
1219.76 273763600 255848000 240126000 225746800 213481300 203130400
1222.66 193840900 186150500 179736200 174657400 170257900 166821600
1225.55 164137800 162254600 160754400 159578300 158950100 158772800
1228.44 159008200 159282400 159866500 160549500 161519800 162542000
1231.33 163573900 164601100 165711000 166968900 168238200 169336400
1234.23 170526700 171680400 173005700 174018000 175399600 176525800
1237.12 177622900 178775900 179829700 181053600 182109400 182814000
1240.01 183769600 184433200 185054500 185098800 185182800 184982400
1242.90 184812800 184330600 183593900 182756600 181871800 180866900
1245.80 179565200 178599700 177510800 176027400 175106500 174143000
1248.69 173145400 172279900 171369100 170579400 169578200 168779700
1251.58 167722600 166705900 165523400 164212500 162918000 161391800
1254.48 159891600 158214700 156497100 154842700 153058100 151014000
1257.37 148761400 146851600 144630000 142231600 140101300 137624800
1260.26 135336300 132934400 130440300 127790100 125009800 122304200
1263.15 119202800 115816000 112578400 109208200 106033000 103022100
1266.05 100107400 97088200 94248740 91335950 88568720 85611950
1268.94 82770840 79848320 77011600 74151780 71494470 68619820
1271.83 66004570 63267330 60820220 58455950 56091210 53859760
1274.72 51684260 49691980 47678620 45907470 44233210 42517720
1277.62 41021920 39573410 38204830 36861390 35719950 34516200
1280.51 33526560 32552270 31541640 30649110 29775070 29055330
1283.40 28259460 27581760 27012620 26315860 25735580 25262090
1286.30 24723380 24247700 23874100 23418680 22987900 22537440
1289.19 22126940 21742880 21372400 21038000 20703730 20347300
1292.08 20061940 19799930 19543470 19276510 18955180 18787910
1294.97 18495850 18307950 17988840 17686220 17484890 17192900
1297.87 16955260 16749420 16543650 16420620 16200150 16078020
1300.76 15838600 15634950 15468460 15183210 14958230 14625880
1303.65 14293970 14029170 13704170 13506720 13126520 12855770
1306.54 12613520 12385340 12191080 11944580 11740880 11622120
1309.44 11445700 11272710 11164850 11035100 10914500 10839780
1312.33 10690290 10650810 10575400 10491930 10455030 10366090
1315.22 10321920 10265120 10246940 10185580 10114290 10037520
1318.12 9984144 9960860 9889474 9868344 9795904 9786008
1321.01 9720820 9655088 9562656 9470996 9413582 9339992
1323.90 9229562 9170558 9041036 8967986 8940180 8895010
1326.79 8857656 8786770 8827614 8784364 8729124 8666624
1329.69 8536620 8510344 8447900 8497270 8436838 8498936
1332.58 8479376 8610040 8511704 8595102 8666526 8787694
1335.47 8851288 9154632 9284648 9448094 9708568 10143370
1338.36 10460590 10895380 11354470 11965290 12539690 13177160
1341.26 14034610 14996610 16144870 17401980 18877160 20556300
1344.15 22534810 24602630 27076700 29750830 32839530 36173490
1347.04 39886320 44104340 48748550 53667740 59139770 65023700
1349.94 71180510 77950460 85100450 92659610 100631000 108699700
1352.83 117075300 125732700 134492400 143472500 152280800 161114200
1355.72 169882800 178421700 187009200 195257300 203682300 211938100
1358.61 219947200 228252300 237033400 246028400 255831900 266143000
1361.51 277044800 288492000 298933500 307655600 315741000 328487800
1364.40 340511600 352196600 363500000 364154400 356048200 348776000
1367.29 342419200 335747100 327857800 319579300 310679800 302001900
1370.18 293547200 286922200 281373200 276270300 267959300 257428000
1373.08 247248800 238364400 230327800 222572200 214795600 207430700
1375.97 199651900 191981400 184588500 177298600 170421200 163869900
1378.86 158197700 153079800 148961700 145693000 143512900 142398800
1381.76 142786400 143919800 146253000 149816700 154230600 159330500
1384.65 164980600 170870300 176998300 182840000 188522700 194541000
1387.54 199353800 203970000 208588300 213313100 215930100 216207800
1390.43 215633500 215635200 216756600 219548000 223234000 228186400
1393.33 233348400 238251500 240965700 240860500 237944400 231038700
1396.22 221641900 214095700 209650000 208411000 209442200 212290700
1399.11 214061500 215115100 214938300 212958100 208806700 202721200
1402.00 194616500 185072000 174175800 162689900 150783200 139090800
1404.90 127252400 115738100 105346200 95651340 86836420 78895940
1407.79 71780340 65673950 60291360 55585390 51492190 47942180
1410.68 44929170 42317900 39966480 37923090 36183700 34588320
1413.58 33227020 31976650 30802090 29893990 28991930 28252380
1416.47 27468540 27236690 26258940 25826680 25436730 26598010
1419.36 25048540 23831080 23730820 23335740 23191970 22838040
1422.25 22832880 22562440 22756530 22640280 22467010 22377680
1425.15 22423870 22485360 22607050 22735480 22916560 23141470
1428.04 23454950 23787160 24323290 25172420 25344390 25916150
1430.93 26634970 27397290 28260780 29187480 30177050 31088300
1433.82 32151270 33143440 34228210 35377540 36641410 39195080
1436.72 39054080 39439680 40736440 41725900 42894490 43925280
1439.61 45068770 46103480 47218610 48281440 49467840 50507360
1442.50 51697400 52799500 54102560 55234660 56404220 57554720
1445.40 58715000 59785420 60973150 61822240 64070880 65768300
1448.29 66198160 66503540 66646250 67037000 67173460 67470460
1451.18 67650260 68069700 68088910 68561630 69021020 69682100
1454.07 70345300 71258420 72163670 72814980 74961610 76924600
1456.97 75521020 76868570 77787170 78238100 79132860 79438480
1459.86 79964600 80463100 80964730 81469020 81914100 82461580
1462.75 82873670 83307200 83374820 83994540 83709000 82818290
1465.64 83003030 83045530 83680860 84106700 84744510 85011840
1468.54 85062330 84400230 83452000 81997180 80861770 79550200
1471.43 79304290 77904350 75954280 76431410 74821330 73274710
1474.32 72557090 71571820 70986100 70585920 69446860 68580460
1477.21 67953440 67450920 67008140 66715780 66525350 66494240
1480.11 66507370 66813880 67151460 67325630 67839790 68266750
1483.00 68657620 68833150 69013640 68840720 68555780 68045690
1485.89 67381490 66612660 66230120 64987440 64022050 63476240
1488.79 63130750 63586860 63736900 64820800 65622290 65640190
1491.68 64936810 62666700 60080730 56458160 54397960 52808180
1494.57 52317980 51386400 52678010 52202700 50063260 49796440
1497.46 48388580 47616160 46498010 43958950 41930740 39865500
1500.36 37636930 35426510 33222350 30951880 28805230 26798000
1503.25 24806370 23110520 21276900 20384790 20973950 17116830
1506.14 16847720 17401630 14074660 13012340 12572180 11306450
1509.03 10809640 10293910 9400526 8999094 8345820 8286582
1511.93 8328366 7209084 6983902 6594222 6336294 6370706
1514.82 6100612 5513566 5796866 5630078 5812128 5547050
1517.71 4794542 4618070 4600960 4344832 5265512 4159632
1520.61 6173332 5728334 3450334 5011410 4033208 3856928
1523.50 3507836 3767022 3504962 4683598 3650014 3355394
1526.39 3354334 3763268 3169928 3495222 3370508 3122304
1529.28 3033462 3137202 3001414 3118918 3170698 3048244
1532.18 3066802 3526922 3645616 3910020 2703088 3129910
1535.07 2738204 3058984 2661830 3141618 2612104 3355896
1537.96 2727110 6157884 4210118 3388188 5265066 2923706
1540.85 2837152 3982808 4650218 2541798 3273506 2827226
1543.75 2837176 2913008 3941910 2805926 2766568 2628882
1546.64 2751286 2663672 2740776 2682368 2668550 2848456
1549.53 3050464 2912598 2631948 2704362 2644332 2715180
1552.43 2656512 2779388 2866516 4630752 2811270 2864472
1555.32 2569106 2989120 2431952 3903470 3750920 4528818
1558.21 5780140 2770192 4037554 5588140 4215150 2407020
1561.10 3168414 2497150 3036726 2580996 3029004 2643696
1564.00 3103172 3176980 3008510 2771044 2971862 2724844
1566.89 3019426 2754414 3012546 3061246 3377446 4144480
1569.78 3323478 2794790 3105718 2807032 3117540 2826502
1572.67 3184200 2828074 3271744 2841902 3470604 2950392
1575.57 6442944 4677114 2947314 3357092 3095706 3272052
1578.46 3204828 3218412 3212808 3264706 3323988 3347500
1581.35 3357448 3310136 3389796 3355174 3405328 3392868
1584.25 3447980 3429692 3468742 3455524 3453536 3447756
1587.14 3450460 3476966 3489344 3442376 3473052 3390622
1590.03 3465696 3360468 3459396 3380884 3382272 3288068
1592.92 3360148 3242038 3290162 3216972 3175112 3112694
1595.82 3195466 3065856 3076166 3022396 3016556 2909200
1598.71 2938574 2795584 2805874 2681772 2756076 2595924
1601.60 2570902 2443516 2535918 2369568 2352234 2252124
1604.49 2263460 2116206 2172122 2048346 2137388 2025660
1607.39 2046226 1919344 1965198 1969766 1984186 1783594
1610.28 1903746 1709248 1864566 1707760 1869772 1646094
1613.17 1888316 1640426 1891806 1530494 2075146 1459680
1616.07 4477068 3483588 1418458 1947490 1574036 1819660
1618.96 1687706 1793440 1707210 1757812 1736188 1722758
1621.85 1896498 1803130 2419174 2740242 1586916 1976926
1624.74 1682402 1961518 1694774 1958696 1772128 2390744
1627.64 2217578 1951706 1963090 1991674 1982448 2078532
1630.53 2043002 2107008 2097008 2207522 2138090 2306646
1633.42 2198086 2557584 2935676 4076646 4521448 2352540
1636.31 2652050 2758128 3071538 2483904 2768210 2545206
1639.21 2800876 2700070 2875800 2756448 2937130 2865994
1642.10 3032838 2890294 3082912 2947366 3137808 3064150
1644.99 3470814 5375152 3720872 3171688 4064128 3326396
1647.89 3951786 3063360 3481248 3042902 3586932 2976590
1650.78 3780238 2905404 6353536 5162256 6660826 5001716
1653.67 3306936 4760424 2923196 3507086 2965112 3360718
1656.56 2963442 3268210 2941390 3183010 2927402 3148790
1659.46 2895622 3101852 2885194 3097828 2862650 3231770
1662.35 3955812 3100656 2776054 2950726 2771058 2929910
1665.24 2714534 2899448 2675638 2913400 2648384 3137776
1668.13 2692888 3857906 3956526 2656254 2856088 2841800
1671.03 3452820 2890940 2774444 2799156 2766844 2914686
1673.92 2796162 3597584 4676502 3155936 3016996 2915108
1676.81 2978542 2970394 3027606 3015042 3086816 3235582
1679.71 3326950 3399802 3192604 3316560 3280750 3465372
1682.60 4144704 4341754 3864294 5781452 7282176 3327980
1685.49 4123832 3547746 4126370 3758524 4264544 4140582
1688.38 4316262 4066128 4604812 4434144 4523306 4374558
1691.28 4737582 4515406 4879244 4621390 5058412 4750304
1694.17 5328264 4920548 7712602 8270528 4960766 5448712
1697.06 5366202 5362366 5364926 5342732 5944482 7837442
1699.95 7084756 6869266 5222230 5299392 5134500 5220184
1702.85 5104820 5097008 5688152 5455182 4910296 4936170
1705.74 5335112 5060876 4510076 4611514 4322480 4379332
1708.63 4204802 4245832 4247090 4171682 3839480 3850256
1711.53 3652518 3599050 3467898 3342138 3518192 3170466
1714.42 3499352 3834938 2497368 3089248 2393062 5652806
1717.31 3533666 2613548 3561214 2303400 2436560 2221790
1720.20 2348056 2231576 2253824 2150392 2230292 2196868
1723.10 2355788 2122534 2220062 2088302 2169614 2098334
1725.99 2216646 2121470 2183434 2123386 2202954 2172572
1728.88 2249034 2471032 2564960 2159018 2431362 2177564
1731.77 2660292 2073064 4442666 3587040 3107602 5145070
1734.67 2628026 2941696 2635000 2958932 2720150 3055184
1737.56 2787786 3094694 2828694 3579028 4100502 3012128
1740.45 3073582 3094178 3176500 3312392 3651416 4105360
1743.34 4414550 4486560 3920076 3650574 3734812 3673860
1746.24 3685640 3979348 3827044 4013352 4407550 4375356
1749.13 4293606 4403396 4348090 5377472 5627868 4268966
1752.02 4411600 4322784 4360626 4312238 4357156 4231742
1754.92 4278402 4216216 4321698 4916608 4257112 4350502
1757.81 4340304 4412880 4231534 4235140 4034974 4148238
1760.70 3845872 4766556 4341898 3589702 3696836 3425332
1763.59 3504238 3302968 3319228 3094046 3140046 2904482
1766.49 3020614 2674694 3455502 3412126 2446334 2725316
1769.38 2451018 2521828 2406896 3183126 2319818 2702386
1772.27 4315094 2342908 2214698 2141146 2099426 2115158
1775.16 2302072 2105854 2010128 2053832 1982786 2048352
1778.06 2011326 2122436 2105404 2046932 2348840 2416434
1780.95 2109068 2283366 2186516 2354652 2282640 2492574
1783.84 2330282 3033228 2812616 2690908 2756006 2832790
1786.74 2921210 3037254 3112818 3282018 3292794 3506144
1789.63 3531008 3943740 4215292 4098168 4042154 5558758
1792.52 5165404 4474770 4907746 4920890 5249978 5318440
1795.41 5730348 5801058 6008306 6254236 6472616 6675612
1798.31 6889304 7260060 7747508 7518156 7788126 8173484
1801.20 8284494 8445440 8813506 8652186 8971006 8986178
1804.09 9212560 9244756 9445452 9396812 9607844 9572004
1806.98 9782284 9755848 9825008 9853832 9951934 9868908
1809.88 10186950 10142800 9871116 9844200 9827732 9710812
1812.77 9535934 9334564 9376986 9205050 9193082 9127074
1815.66 9066092 8887762 8795770 8599806 8367822 8084842
1818.56 7825160 7526228 7254518 6954020 6709332 6401918
1821.45 6189018 5934330 5759870 5472818 5407588 5193294
1824.34 5230582 5551742 4858374 4759544 4644864 4588000
1827.23 4488366 4377612 4358338 4443518 4246238 4763250
1830.13 4072896 3875738 3820636 3704126 3689610 3595794
1833.02 3588528 3462208 3404334 3309766 3236182 3081078
1835.91 3028042 2950950 2923206 2690026 2687332 2579610
1838.80 2563614 2418704 2382798 2270738 2320610 2193558
1841.70 2339164 2113656 2310506 2128776 3531356 2806174
1844.59 2029946 2239248 2084056 2235040 2109550 2234474
1847.48 2296452 2145290 2213410 2203468 2231542 2233532
1850.38 2235166 2237990 2226948 2277498 2265712 2293478
1853.27 2319100 2306256 2291748 2313056 2325340 2343904
1856.16 2360942 2347268 2375396 2372114 2420058 2380398
1859.05 2388958 2396218 2416326 2393810 2378342 2350088
1861.95 2360602 2326842 2354444 2309096 2326224 2286954
1864.84 2280232 2322912 2395914 2295456 2247972 2412556
1867.73 2390822 2132886 2752592 2466558 2012380 2181408
1870.62 2034090 2015310 1994008 1996406 1940198 1948402
1873.52 1898440 1942318 1860420 1866686 1822792 1868398
1876.41 1747796 1777450 1687988 1748756 1699750 1727388
1879.30 1725474 1681058 1699914 1707806 1688808 1702940
1882.20 1670716 1695466 1679844 1745750 1764486 1738598
1885.09 1752392 1736948 1784174 1760206 1812054 1829422
1887.98 1864380 1864804 2211814 2098592 1927834 2032456
1890.87 2018688 2070156 2116848 2195374 2211458 2277624
1893.77 2317002 2391036 2510704 2467004 2521940 2584298
1896.66 2644034 2742036 2750770 2836724 2963132 3011474
1899.55 3078472 3160524 3276608 3361232 3412790 3554924
1902.44 3668934 3755788 3912004 4026166 4164140 4278298
1905.34 4399280 4574978 4729808 4901074 5066274 5252168
1908.23 5372178 5549104 5771720 6040822 6125386 6357498
1911.12 6518492 6782690 6942648 7229380 7391080 7631892
1914.02 7816406 8116626 8272252 8547532 8746614 9113032
1916.91 9209458 10021000 10060290 9951566 10307650 10460790
1919.80 10795380 10894080 11192460 11314810 11632750 11802450
1922.69 12099640 12135090 12254160 12344850 12480800 12566710
1925.59 12632750 12663090 12694000 12677500 12645550 12621240
1928.48 12548940 12465010 12424610 12313720 12219990 12040340
1931.37 11983540 11800460 11662420 11419790 11256450 10986650
1934.26 10758670 10517020 10228100 9944114 9677828 9347222
1937.16 9162588 8893782 8666672 8402708 8091916 7784614
1940.05 7455162 7086318 6744712 6336196 6227334 5717626
1942.94 5225192 4928928 4579530 4341992 4103976 3912028
1945.84 3718094 3577002 3396550 3334938 3306172 3232472
1948.73 3192864 3152502 3146558 3123268 3089164 3122208
1951.62 3116148 3145102 3179946 3197730 3246038 3286324
1954.51 3335966 3377618 3406594 3453198 3541572 3639998
1957.41 3661564 3752068 3751984 3822592 3925060 4007568
1960.30 4050260 4115160 4172010 4238300 4254280 4353970
1963.19 4361296 4403510 4469140 4516790 4508800 4547074
1966.08 4559442 4608772 4705510 4536222 4562686 4545326
1968.98 4559806 4507916 4492812 4452438 4441422 4421934
1971.87 4363202 4254982 4283684 4163880 4123768 3994168
1974.76 3889412 3850028 3794558 3750492 3640894 3576922
1977.66 3509838 3381496 3305736 3218542 3057400 2942062
1980.55 2830608 2712746 2619480 2514720 2410484 2298420
1983.44 2221626 2126192 2057490 1997224 1922886 1833476
1986.33 1800558 1732778 1661474 1644564 1604914 1522462
1989.23 1532400 1455648 1424372 1391832 1456400 1470462
1992.12 1325226 1328478 1259770 1249830 1197864 1203648
1995.01 1194126 1160574 1180930 1203344 1100624 1099596
1997.90 1149114 1107022 1093448 1092062 1086734 1077354
2000.80 1045466 1079776 1038648 1047396 1077056 1053312
2003.69 1041916 1037540 1048072 1033336 1030824 1053210
2006.58 1041394 1058214 1088944 1056292 1068670 1047862
2009.48 1061830 1050154 1068840 1077170 1084760 1076248
2012.37 1051952 1049420 1102216 1064438 1078344 1125046
2015.26 1112190 1097084 1176356 1125108 1144538 1165682
2018.15 1135852 1136198 1141288 1166056 1190620 1184046
2021.05 1158720 1187962 1222748 1222520 1265534 1235576
2023.94 1284098 1312148 1301090 1317222 1358706 1382906
2026.83 1402964 1416046 1448494 1457506 1477360 1512352
2029.72 1582804 1545838 1618734 1646218 1674272 1690710
2032.62 1769958 1788818 1841918 1835804 1942740 1983990
2035.51 2030706 2087424 2127990 2189196 2222530 2340310
2038.40 2370690 2399368 2521586 2569782 2631240 2720108
2041.29 2757978 2801322 2885724 2955100 3003118 3039836
2044.19 3133466 3177158 3244524 3271468 3357158 3385896
2047.08 3459248 3492288 3510170 3566370 3635712 3647528
2049.97 3638620 3674574 3708400 3720716 3697934 3715714
2052.87 3718674 3693044 3670196 3663114 3649312 3601836
2055.76 3597254 3540720 3487780 3415260 3383942 3317506
2058.65 3199746 3136026 3010844 2965506 2824680 2741616
2061.54 2613216 2581810 2494832 2402752 2256148 2180762
2064.44 2140078 2011370 1968016 1853264 1787412 1687872
2067.33 1640122 1580294 1486444 1450440 1413202 1350478
2070.22 1318344 1286818 1270992 1216952 1197616 1259330
2073.11 1188730 1171330 1157950 1162488 1151738 1164622
2076.01 1151146 1150744 1167990 1149580 1187954 1186454
2078.90 1208818 1222550 1287402 1248660 1277366 1302260
2081.79 1305108 1320908 1377882 1354950 1409990 1366286
2084.69 1405130 1470842 1488550 1505956 1546950 1566448
2087.58 1593702 1663134 1674354 1720080 1805578 1791442
2090.47 1780712 1835528 1912156 1931344 1913352 1974256
2093.36 2025650 2093092 2109702 2163128 2203836 2232840
2096.26 2258276 2292580 2362354 2430092 2426332 2484100
2099.15 2489896 2513900 2593156 2577954 2666996 2705812
2102.04 2723850 2773004 2793912 2830982 2830352 2844810
2104.93 2870806 2921004 2910352 2897954 2945696 2914714
2107.83 2908050 2899102 2849530 2809992 2787092 2721492
2110.72 2701842 2606586 2563520 2528312 2475968 2478540
2113.61 2418110 2389944 2291136 2346346 2245532 2211932
2116.51 2161768 2103528 2105002 2028470 2022296 1989322
2119.40 1930960 1919688 1875968 1872736 1808646 1822154
2122.29 1805022 1797784 1789978 1791738 1782914 1770296
2125.18 1777458 1758084 1784052 1793206 1765600 1796192
2128.08 1828276 1805816 1810294 1806660 1855590 1885002
2130.97 1867276 1887290 1909758 1917218 1903348 1912510
2133.86 1917332 1912548 1930088 1989448 1998742 1997688
2136.75 2036128 2056990 2065070 2082936 2096676 2082436
2139.65 2101774 2075212 2096678 2108962 2063336 2119472
2142.54 2149720 2119260 2134106 2169546 2164046 2156982
2145.43 2170758 2150102 2215466 2221118 2166912 2222088
2148.33 2212322 2214254 2256244 2261782 2275508 2269014
2151.22 2284948 2287272 2349406 2352652 2396658 2436288
2154.11 2472834 2505102 2497694 2577994 2574556 2567546
2157.00 2614484 2663064 2694000 2718882 2701440 2774972
2159.90 2776274 2801464 2850202 2870870 2918620 2948212
2162.79 2963378 2964006 2984284 3011142 3019210 3067510
2165.68 3113620 3108246 3166898 3185922 3185936 3220916
2168.57 3194880 3216332 3214398 3241624 3294168 3294602
2171.47 3338948 3322760 3357924 3347170 3378184 3443100
2174.36 3424070 3454220 3488670 3529796 3569824 3579152
2177.25 3638288 3618180 3648022 3681058 3730092 3766050
2180.15 3802590 3870764 3893514 3981718 4038242 4098006
2183.04 4154418 4224336 4319764 4357258 4423740 4509154
2185.93 4571750 4630884 4717442 4780964 4830694 4917396
2188.82 5037698 5106752 5160308 5229184 5301596 5352362
2191.72 5457096 5495544 5560106 5575546 5628124 5613436
2194.61 5631072 5695806 5699512 5686626 5639560 5673432
2197.50 5694888 5623402 5641028 5589384 5561138 5531756
2200.39 5501602 5440018 5382534 5331554 5252672 5176302
2203.29 5070852 5028164 4921078 4815480 4724084 4643674
2206.18 4543628 4415302 4321020 4194756 4101296 3976908
2209.07 3902424 3812104 3672862 3513202 3455534 3325130
2211.97 3225144 3174678 3010428 2969760 2842076 2821804
2214.86 2761848 2636640 2559504 2535104 2450392 2386252
2217.75 2358128 2312462 2290826 2278964 2234620 2238580
2220.64 2194100 2219926 2207476 2183626 2169604 2191926
2223.54 2225004 2210716 2193488 2243522 2226902 2244272
2226.43 2240868 2279286 2271742 2320276 2309870 2303414
2229.32 2326344 2400834 2462704 2423790 2485172 2509284
2232.21 2551104 2582594 2633244 2652030 2647086 2711804
2235.11 2721852 2754836 2773476 2795330 2788184 2793718
2238.00 2857450 2840046 2838316 2799538 2823252 2840878
2240.89 2809942 2800466 2799104 2772902 2786680 2783544
2243.79 2742784 2718840 2703342 2673328 2645808 2569302
2246.68 2544794 2524896 2492004 2452586 2431604 2396618
2249.57 2394550 2380680 2369410 2351598 2378972 2360410
2252.46 2297548 2316072 2257538 2284994 2271214 2292004
2255.36 2265232 2306004 2295528 2328230 2342128 2391886
2258.25 2419002 2476908 2534254 2584384 2644794 2677674
2261.14 2711768 2817846 2856512 2871954 2946254 3077856
2264.03 3084398 3179964 3292228 3369516 3437746 3461252
2266.93 3505944 3565668 3621234 3716376 3782888 3835728
2269.82 3829626 3927452 4019710 4027094 4082406 4102784
2272.71 4108534 4168984 4206952 4226210 4210796 4218422
2275.61 4211176 4174812 4188082 4210706 4208156 4151340
2278.50 4099708 4102800 4072100 3997174 4019198 3939820
2281.39 3918584 3902552 3850306 3816218 3764340 3704846
2284.28 3655360 3659378 3608410 3494252 3456186 3430520
2287.18 3378262 3259340 3196098 3104934 3026832 2973282
2290.07 2916448 2840968 2808596 2700858 2729524 2653888
2292.96 2608624 2516970 2513914 2405252 2351398 2280412
2295.85 2219362 2175898 2141246 2114004 2062998 1988542
2298.75 1957782 1874872 1835402 1778780 1781124 1737664
2301.64 1693638 1692282 1704250 1633436 1646762 1659306
2304.53 1645974 1601140 1616756 1646282 1602668 1645044
2307.43 1568646 1659362 1709260 1642852 1670656 1695540
2310.32 1727664 1721712 1755942 1764688 1808380 1836102
2313.21 1808478 1830914 1850722 1954468 1896296 1877442
2316.10 1951942 2009208 2015216 2040236 2024922 2109942
2319.00 2138916 2152116 2179596 2259968 2274264 2298068
2321.89 2281000 2398262 2417970 2339782 2416252 2477198
2324.78 2557444 2469002 2507080 2597836 2627532 2596442
2327.67 2663564 2769188 2724686 2672900 2771686 2860040
2330.57 2843656 2758000 2871958 2970214 2866680 2914438
2333.46 3003848 3033896 2825828 2906400 3065268 2977410
2336.35 2896950 3047474 3118902 3017522 2970464 3081258
2339.24 3045680 2926862 3009256 2990202 2900012 2853368
2342.14 2918736 2844212 2777436 2800484 2802198 2705250
2345.03 2700512 2722598 2682716 2607992 2616096 2617456
2347.92 2495652 2519574 2462622 2475820 2427240 2415408
2350.82 2363180 2349706 2296320 2333524 2269026 2253368
2353.71 2252952 2232414 2092932 2119710 2149050 1996040
2356.60 2037630 2033938 1832176 1924918 1871594 1741856
2359.49 1897156 1764632 1693010 1869318 1663996 1699458
2362.39 1839636 1660374 1783434 1810450 1694448 1811000
2365.28 1751484 1695628 1861156 1719044 1827794 1818892
2368.17 1803114 1893764 1796098 1911822 1895506 1888944
2371.06 2043364 1966110 2049176 2001968 2038754 2079366
2373.96 2049748 2055058 2112556 2131736 2152446 2201494
2376.85 2136524 2232904 2194192 2311692 2290614 2298454
2379.74 2289964 2305162 2306100 2325872 2331504 2300754
2382.64 2365884 2358104 2347888 2337292 2327510 2329780
2385.53 2343606 2344154 2299014 2357492 2290372 2296770
2388.42 2297892 2275756 2230138 2210222 2179670 2200090
2391.31 2199112 2201466 2172308 2135618 2101732 2078882
2394.21 2078646 2034392 2014098 2018234 2025444 1987166
2397.10 1970902 1936364 1918518 1868156 1861794 1904482
2399.99 1884844 1831194 1894454 1872152 1856076 1852646
2402.88 1838728 1823096 1850418 1813702 1860264 1819592
2405.78 1877384 1855834 1784896 1827020 1829496 1804066
2408.67 1824410 1797984 1812292 1829270 1790674 1804778
2411.56 1825610 1812072 1780822 1782904 1762462 1790654
2414.46 1799970 1796550 1721578 1702202 1757166 1748576
2417.35 1723932 1688248 1692428 1677410 1700866 1703812
2420.24 1680436 1657890 1669048 1686270 1710060 1708610
2423.13 1694964 1677616 1711486 1724104 1718886 1733362
2426.03 1751012 1821468 1784466 1771992 1866150 1869300
2428.92 1946956 1974264 1977898 2024236 2044164 2095752
2431.81 2156646 2202046 2223908 2239388 2270922 2353902
2434.70 2389520 2384310 2419926 2497456 2542324 2573220
2437.60 2624680 2631872 2686930 2720174 2762450 2797920
2440.49 2815618 2813192 2889206 2909818 2910528 2948196
2443.38 2995818 2958136 3000596 2997500 2995372 2968858
2446.28 2992550 2956280 2930786 2988140 2985262 2929208
2449.17 2891262 2854974 2808674 2824134 2763768 2754700
2452.06 2750026 2696586 2631700 2587224 2607616 2564198
2454.95 2512720 2458572 2449944 2407132 2404704 2384478
2457.85 2349210 2313002 2293560 2274810 2259250 2201808
2460.74 2245212 2189056 2123432 2091168 2082586 2045822
2463.63 2013188 1996324 1972528 1952876 1913998 1912918
2466.52 1888526 1880720 1860474 1825078 1782696 1832942
2469.42 1786788 1795172 1787384 1758758 1773200 1726954
2472.31 1756284 1742544 1684726 1717646 1679120 1685954
2475.20 1671324 1691334 1672336 1667852 1599646 1638846
2478.10 1580032 1544994 1521982 1572016 1493246 1459916
2480.99 1437256 1460768 1419638 1427364 1388526 1384740
2483.88 1400930 1375624 1355034 1331432 1320316 1309364
2486.77 1287670 1326792 1289924 1289320 1290050 1229372
2489.67 1217440 1261394 1222090 1228606 1234202 1187822
2492.56 1236820 1190010 1156244 1182214 1118786 1135610
2495.45 1136740 1092852 1069030 1059962 1009234 1041836
2498.34 1015012 1006628 971052 982614 975782 957622
2501.24 963534 958330 892184 873356 871216 856402
2504.13 857354 834706 862952 850628 815158 804024
2507.02 834620 892960 806782 792278 814780 848664
2509.92 846944 815374 855894 850124 852994 858042
2512.81 791646 838692 879780 869338 886182 875118
2515.70 896306 931452 896024 894800 907262 956244
2518.59 923590 870530 982814 905870 921698 932030
2521.49 981684 872994 948008 912910 915666 919428
2524.38 894388 911500 891208 883094 911656 900166
2527.27 932608 945816 899866 948048 961122 892546
2530.16 874652 918158 911008 917264 923462 861350
2533.06 905632 917216 903726 857566 894656 912378
2535.95 919584 921352 898986 943922 941216 923606
2538.84 957474 986750 948936 999110 1009402 1004996
2541.74 1015832 1021754 1056898 1021156 1077154 1083018
2544.63 1111238 1143352 1160554 1206502 1154030 1146810
2547.52 1239352 1259096 1289402 1294994 1282208 1347058
2550.41 1338488 1325252 1383016 1353252 1407252 1398292
2553.31 1491384 1462516 1539094 1517184 1535658 1542926
2556.20 1557586 1567774 1650972 1612150 1671468 1676282
2559.09 1700466 1701520 1715180 1713002 1727170 1784868
2561.98 1776692 1793124 1800526 1830560 1828768 1843234
2564.88 1872814 1883220 1877092 1920838 1928456 1943844
2567.77 1940896 1974184 2003140 1991076 2004588 2021034
2570.66 2052614 2022016 2067804 2088892 2100862 2060016
2573.56 2050736 2070262 2094434 2109430 2093702 2176750
2576.45 2149156 2138444 2221576 2216052 2217908 2258498
2579.34 2190296 2203084 2309918 2253452 2287784 2301350
2582.23 2346216 2323412 2364504 2378458 2446662 2385412
2585.13 2497950 2505082 2468348 2585966 2597988 2587418
2588.02 2655504 2692138 2787296 2865904 2893280 2925150
2590.91 2954568 3058282 3060108 3154966 3160006 3282572
2593.80 3346004 3453956 3544712 3579624 3641912 3762886
2596.70 3865756 3925408 4060058 4163342 4222608 4328548
2599.59 4453194 4523722 4652186 4763456 4857910 4955284
2602.48 5098300 5199804 5324502 5389592 5562154 5730204
2605.37 5874158 5940828 6094230 6210908 6400848 6498724
2608.27 6647006 6775310 6977210 7118890 7253848 7463242
2611.16 7541302 7721594 7833076 8001774 8214544 8285138
2614.05 8403758 8600596 8695946 8892600 9039134 9180674
2616.95 9308884 9384428 9502622 9635056 9669542 9822158
2619.84 9938850 10050020 10087710 10183980 10226240 10310220
2622.73 10368940 10531890 10521790 10584710 10561560 10606730
2625.62 10604400 10628580 10615990 10557020 10462220 10451600
2628.52 10394660 10338690 10180840 10084360 9967504 9821618
2631.41 9704806 9606512 9510938 9348014 9214086 9071490
2634.30 8891524 8745070 8567914 8487194 8262128 8155576
2637.19 7970212 7857818 7636688 7549154 7435442 7278552
2640.09 7112170 6959704 6842158 6737130 6610058 6485442
2642.98 6376464 6208548 6121794 6065082 5971742 5854840
2645.87 5809934 5730456 5685606 5546596 5593606 5528424
2648.77 5514478 5337046 5307388 5416528 5375262 5350556
2651.66 5315470 5234234 5206102 5239504 5267112 5218796
2654.55 5226050 5246244 5219448 5181466 5188198 5190044
2657.44 5259142 5240398 5240868 5251708 5225268 5207924
2660.34 5226564 5209572 5218266 5192018 5243986 5266040
2663.23 5250344 5259900 5273984 5298248 5223316 5240186
2666.12 5270690 5259258 5211572 5200350 5205108 5194950
2669.01 5203800 5149808 5216088 5174098 5139002 5111534
2671.91 5128304 5085318 5091902 5099376 5120148 5066260
2674.80 5094658 5033060 5090484 5053714 5052812 5027550
2677.69 5035904 4996174 4992140 5027616 4995500 4963700
2680.59 4990862 5011286 5055608 5000284 5027240 5011796
2683.48 5016032 5043186 5108604 5039492 5011190 5063012
2686.37 4997476 5057012 5046744 5045866 5081548 5096576
2689.26 5058958 5135872 5117800 5174670 5144630 5171768
2692.16 5236190 5293672 5244578 5318042 5322862 5353058
2695.05 5390728 5472388 5481874 5524246 5594766 5609386
2697.94 5774470 5755188 5891496 5950858 6080834 6144068
2700.83 6324380 6388176 6585252 6678492 6901500 7070214
2703.73 7275534 7392694 7645768 7837536 8128440 8374288
2706.62 8609924 8959684 9189990 9548138 9859770 10194420
2709.51 10538400 10856410 11252020 11624980 11995970 12353050
2712.41 12696380 13139750 13525290 13876580 14297580 14682260
2715.30 15086330 15463260 15818630 16136970 16527120 16921110
2718.19 17305330 17694970 18085590 18358940 18599910 18839600
2721.08 19027160 19151360 19226040 19366860 19562130 19745990
2723.98 20050700 20235710 20507510 20647680 20879650 20964590
2726.87 21164800 21310200 21460070 21585760 21842340 21934890
2729.76 22036270 22020750 22194660 22168250 22108210 22193200
2732.65 22233890 22190140 22165830 22162340 22017230 21924690
2735.55 21897970 21787210 21744390 21651180 21616390 21599590
2738.44 21519360 21480240 21407010 21344130 21242760 21120590
2741.33 21017780 20922780 20682360 20581300 20404770 20263730
2744.23 20189360 19965400 19837700 19578720 19255640 19025330
2747.12 18666470 18484720 18189740 17979720 17699170 17527570
2750.01 17358920 17192830 17085080 16826310 16574430 16455770
2752.90 16224890 16140680 15989340 15757600 15620830 15555550
2755.80 15441760 15407240 15384080 15335560 15314930 15212100
2758.69 15258030 15227940 15332060 15341270 15496150 15648750
2761.58 15780330 15893040 16167000 16326910 16540310 16671750
2764.47 16875720 16957620 17179500 17328280 17417310 17589000
2767.37 17806040 18037290 18295640 18447590 18593400 18745850
2770.26 18963360 19168710 19364980 19449950 19605520 19643720
2773.15 19782280 19919900 20039830 20150530 20289360 20418790
2776.05 20405050 20378790 20284960 20203570 20149210 20048480
2778.94 19983370 19958470 19911500 19959990 19901780 19887110
2781.83 19909600 19827070 19803180 19663550 19610480 19551050
2784.72 19326510 19296140 19126510 18946500 18855180 18721450
2787.62 18535900 18431710 18275550 18123530 18107000 18020770
2790.51 17907530 17763720 17712310 17665870 17534560 17454980
2793.40 17514290 17417130 17408730 17411710 17385020 17369920
2796.29 17382560 17351140 17459100 17433380 17539200 17515690
2799.19 17623790 17686190 18030260 18027490 18214110 18414820
2802.08 18532190 18798310 19000790 19256580 19554480 19865300
2804.97 20129190 20473310 20684460 21086970 21316140 21598840
2807.87 21913410 22185710 22457510 22782500 23070090 23378680
2810.76 23660650 24123370 24492060 24958000 25259520 25752950
2813.65 26213000 26615610 26957190 27276760 27680870 28113980
2816.54 28543090 28961960 29391810 29932790 30265210 30737490
2819.44 31173280 31611450 32003920 32401640 32720330 33199160
2822.33 33580580 33898860 34325150 34666260 35032980 35416900
2825.22 35742080 36092120 36482340 36767110 37119430 37542810
2828.11 37876600 38276020 38719950 39273830 39656200 40176940
2831.01 40606890 41161260 41659800 42176420 42739740 43321880
2833.90 43899770 44478990 45157050 45707130 46473850 47152300
2836.79 47853780 48539650 49163400 49976240 50750020 51487930
2839.69 52347910 53002540 53725950 54431210 55138560 56104570
2842.58 56731680 57535120 58377410 59151520 59963400 60672850
2845.47 61525820 62387760 63329980 64314300 65218560 66145930
2848.36 67294880 68204720 69266830 70362460 71429080 72506160
2851.26 73612760 74780100 76032210 77246900 78637570 79894530
2854.15 81242060 82665100 84107070 85732660 87299060 89119290
2857.04 91045980 92938260 94793420 97048240 99320220 101540500
2859.93 103996200 106702200 109628200 112669500 115829200 119263500
2862.83 122577700 126358200 130151700 134211400 138394900 142626600
2865.72 147546400 152266000 157198000 162448300 167762500 173505100
2868.61 179092300 184998800 191143100 197423400 203823200 210040700
2871.51 216185700 222364200 228793400 234870300 240979700 247242800
2874.40 253019900 258629000 264536400 270812300 277104700 283777900
2877.29 291246400 299430300 307812300 315542500 322627300 328526100
2880.18 332454100 335727400 338560600 341474600 344544600 348154300
2883.08 351265900 354554700 357836400 361023200 363787100 366081300
2885.97 368466900 369782700 371460900 372483100 373638500 374369200
2888.86 375533500 376426600 377177200 378334400 379020000 380098600
2891.75 380596700 381905900 383015900 384304600 384630700 385593600
2894.65 386915500 387939300 389291400 389732700 389553600 388998700
2897.54 388249400 386624600 384598000 382594900 379921300 377091200
2900.43 374415700 371841300 368193600 365345600 362235900 358870900
2903.32 355929800 352799100 349478600 346591000 343661000 340292500
2906.22 337486800 333745400 330048800 325872600 321644200 317489300
2909.11 313988800 310707100 307832600 304432600 301449300 298138300
2912.00 294878700 291393200 287857600 284246900 280442900 276957400
2914.90 273787600 270167400 267284400 264108800 261082300 257828200
2917.79 255054800 252347900 250133700 247239500 244952900 242283200
2920.68 240274500 238045500 236320800 234972300 234167300 233255200
2923.57 233059500 233402200 233838000 234932100 236558000 238246500
2926.47 240777300 243819200 247285900 251157200 255261300 259476300
2929.36 264432100 269625100 274923100 280125300 285552100 290376800
2932.25 295493800 300538900 304891200 308620900 311957200 314787600
2935.14 318134900 320607400 323509000 326111100 329451300 333012400
2938.04 337153300 340905100 344869100 347702700 349895700 351268300
2940.93 352257500 352022800 351273500 350406400 349382800 348786400
2943.82 348208900 348404400 347686200 347082000 345748100 344114800
2946.72 341216200 338421300 334906800 331203700 326428300 321864500
2949.61 316413600 311340100 306198000 301252500 295891000 291195000
2952.50 286675600 282617200 278844700 275582000 272396500 269819300
2955.39 267213100 265261700 264006900 263240700 262652000 262848300
2958.29 263928700 265432100 268346700 272283700 276987400 283310500
2961.18 290767200 300393200 310332900 322024400 335802600 351517000
2964.07 368974300 388458200 409406000 431918700 456478100 483021100
2966.96 510661500 540159400 569688700 600722900 632443100 662816200
2969.86 693652200 724303000 754130100 785375800 818706600 850842100
2972.75 890975000 931268500 979489300 1034922000 1100510000 1170208000
2975.64 1229090000 1248960000 1226486000 1217056000 1236787000 1273232000
2978.54 1316634000 1360800000 1396821000 1422509000 1442878000 1462611000
2981.43 1479978000 1491825000 1495359000 1491458000 1482547000 1484838000
2984.32 1478188000 1450201000 1436461000 1409985000 1379898000 1348423000
2987.21 1307230000 1263149000 1224647000 1189677000 1155102000 1117715000
2990.11 1078749000 1037102000 992872200 946522300 900063600 852922400
2993.00 806072200 759049400 711898900 665994600 620976200 578073900
2995.89 536488000 496146200 459396700 423865000 390460300 359218600
2998.78 329218500 301509100 275619500 251602700 229380500 208723700
3001.68 189800800 172378700 156640300 142249400 129094300 117267800
3004.57 106750700 97197390 88709110 81307550 74637760 68953900
3007.46 63699040 59296390 55333010 51950040 49130920 46716830
3010.36 44306980 42560520 41061420 39713880 38662980 37683510
3013.25 36876960 36262250 35770530 35274320 35021250 34655660
3016.14 34384000 34254160 34116310 34004990 33869370 33832300
3019.03 33809350 33737010 33645400 33516960 33549420 33481500
3021.93 33402120 33271880 33211710 33048870 32849950 32737060
3024.82 32528410 32406120 32041070 31809830 31588890 31255370
3027.71 30920540 30563100 30150640 29626980 29287160 28920460
3030.60 28316240 27872650 27386250 26793420 26249270 25673870
3033.50 25151930 24406010 23762770 23258650 22558940 21967140
3036.39 21316290 20766900 20077250 19494680 18847180 18350800
3039.28 17715950 17145000 16644570 16078120 15596300 14950220
3042.18 14534190 14122010 13687300 13249600 12743110 12312560
3045.07 11896260 11577760 11246790 10774370 10490180 10167200
3047.96 9885914 9544190 9252674 9087566 8857910 8598296
3050.85 8495406 8235942 8098792 7900590 7792758 7612544
3053.75 7566474 7367022 7375608 7191948 7230280 7152752
3056.64 6988388 6972648 6924046 6861332 6837138 6911382
3059.53 6786894 6848688 6727604 6727528 6682252 6707070
3062.42 6743592 6652822 6848664 6742606 6802466 6784298
3065.32 6810458 6800234 6783178 6853702 6865936 6921048
3068.21 7022728 7029820 6968354 7051788 7151492 7139130
3071.10 7141576 7224362 7283944 7336292 7479062 7382002
3074.00 7530418 7608312 7575988 7639528 7674258 7696214
3076.89 7704918 7753286 7873562 7924858 7989414 8070028
3079.78 8001710 8076826 8070758 8202606 8264466 8299356
3082.67 8245978 8252806 8209510 8310286 8328468 8364578
3085.57 8457718 8519024 8447114 8371154 8274002 8358506
3088.46 8195858 8304788 8231056 8170574 8251446 8141702
3091.35 8077620 8031886 7931028 7918654 7880888 7874356
3094.24 7712786 7580850 7577194 7574590 7442022 7352074
3097.14 7280718 7210024 7100626 6997600 6785240 6825292
3100.03 6744944 6656774 6570762 6465404 6358460 6265406
3102.92 6140084 6048288 5990428 6012570 5845702 5757212
3105.82 5608172 5646500 5547080 5518372 5392772 5268938
3108.71 5392430 5315832 5205026 5078080 5061984 4986982
3111.60 5013730 4989322 4887752 4892366 4776200 4791304
3114.49 4719482 4700768 4677510 4650410 4641498 4659242
3117.39 4603670 4621260 4588388 4582024 4590036 4520302
3120.28 4545572 4467970 4448926 4578280 4549486 4480494
3123.17 4517228 4517214 4457106 4492058 4413156 4495740
3126.06 4396678 4485854 4410550 4455294 4406784 4417598
3128.96 4337854 4386944 4405288 4360184 4342340 4409682
3131.85 4397388 4398226 4421720 4434302 4428228 4405870
3134.74 4374702 4302184 4363226 4366098 4390936 4461546
3137.64 4378524 4376350 4411390 4461848 4370850 4474046
3140.53 4481480 4432980 4524776 4468282 4496336 4548456
3143.42 4493692 4548314 4500624 4592766 4664312 4637384
3146.31 4638978 4640016 4747664 4706056 4746028 4751992
3149.21 4823250 4936142 4942608 5003552 4913418 5029444
3152.10 5125440 5108606 5140600 5277588 5309516 5298000
3154.99 5407214 5492338 5404324 5582262 5663862 5678752
3157.88 5786896 5853614 5936218 6092772 6096408 6225878
3160.78 6353958 6405814 6516140 6581116 6615640 6743418
3163.67 6949502 6943858 7075552 7164806 7260714 7406830
3166.56 7515046 7639770 7705846 7921834 7993262 8125316
3169.46 8187974 8357212 8432974 8523364 8694670 8732878
3172.35 8933076 9012076 9116848 9284228 9302730 9395616
3175.24 9419008 9544036 9621920 9684102 9851406 9923516
3178.13 10042370 10105830 10115930 10121140 10171610 10245550
3181.03 10274740 10261010 10265410 10318990 10257380 10374340
3183.92 10297980 10265550 10180670 10184400 10134750 10066650
3186.81 10156890 9961108 9995710 9885510 9858880 9700040
3189.70 9760914 9624138 9594916 9546854 9423354 9391332
3192.60 9333808 9148518 9146372 9079752 8940714 8970178
3195.49 8806262 8779312 8686004 8729070 8511492 8477748
3198.38 8443278 8503846 8358298 8324230 8300818 8290872
3201.27 8203174 8198128 8172868 8241516 8222148 8286702
3204.17 8149698 8224806 8190310 8163748 8244008 8325858
3207.06 8228918 8286440 8258182 8408954 8406852 8480338
3209.95 8517374 8644256 8628724 8647232 8713538 8726842
3212.85 8833020 8895060 8951522 8974236 9059092 9145960
3215.74 9157848 9228856 9254558 9264576 9386490 9434278
3218.63 9388830 9422754 9635518 9591980 9671962 9614760
3221.52 9715728 9830724 9795592 9818262 9881428 9961372
3224.42 9917880 10004660 9927998 10001530 10056480 10101810
3227.31 10114310 10041730 10131530 10056780 10128570 10128610
3230.20 10161330 10122090 10084120 10084650 9992532 9961002
3233.09 9915196 10013880 9861864 9883602 9797812 9699120
3235.99 9637510 9666722 9531336 9454666 9315522 9299332
3238.88 9217182 9080916 8953322 8857192 8762934 8591408
3241.77 8410838 8477338 8186846 8096464 7944042 7786926
3244.67 7627390 7400230 7240132 7135224 7056768 6900536
3247.56 6750728 6454690 6299506 6236610 5928526 5838032
3250.45 5713076 5491126 5386874 5238538 5033658 4872974
3253.34 4794198 4583358 4386992 4267128 4149812 4047854
3256.24 3947890 3767326 3736152 3536442 3473850 3421414
3259.13 3247494 3057330 3108244 2906028 2961284 2906888
3262.02 2754184 2603696 2634650 2604374 2567778 2447712
3264.91 2467458 2399782 2339808 2295250 2150818 2289476
3267.81 2191548 2292866 2100618 1993684 2144034 2082914
3270.70 1985356 2084860 2041874 2012690 1991530 2040526
3273.59 1900230 1900414 1964168 1918782 1999158 1940404
3276.49 1858282 1819604 1875068 1859322 1869810 1873940
3279.38 1733760 1844270 1872714 1736842 1730418 1822468
3282.27 1775354 1792834 1735128 1754280 1726744 1767564
3285.16 1840378 1795724 1698408 1742556 1737742 1702104
3288.06 1750050 1665740 1705054 1711142 1686652 1746796
3290.95 1727976 1705822 1690326 1697620 1713036 1775870
3293.84 1724134 1837346 1853556 1852880 1908948 1889598
3296.73 1896998 1934388 1927968 1951372 1961202 2067038
3299.63 2091136 2130322 2184400 2127888 2241684 2369086
3302.52 2362726 2495354 2494060 2464980 2559458 2667928
3305.41 2594460 2790692 2838136 3006970 3113408 3099576
3308.31 3216266 3215254 3331240 3432626 3489790 3582166
3311.20 3623434 3697078 3735832 3829660 3888880 4006040
3314.09 3980364 3963390 3920598 4067406 4119918 4077286
3316.98 4169954 4189176 4251802 4308614 4133746 4186550
3319.88 4201102 4107004 4087694 4197258 4095232 4134008
3322.77 4144506 4122566 4147884 4113590 4046908 4018232
3325.66 4026118 3940574 3867740 3928046 3786160 3844046
3328.55 3732104 3675578 3564252 3552422 3500354 3380392
3331.45 3502794 3388130 3279628 3255556 3066964 3024068
3334.34 3000258 3030450 2892836 2734024 2764898 2647088
3337.23 2609666 2574276 2547214 2477952 2402696 2345538
3340.13 2267092 2245080 2004796 2046562 1990038 1871916
3343.02 1863180 1875894 1759248 1724328 1693228 1566428
3345.91 1562494 1571658 1464186 1487620 1397056 1382726
3348.80 1199306 1272012 1275694 1202034 1117958 1220672
3351.70 1091560 1013374 1045108 1026970 1073608 1005268
3354.59 1063804 955392 872638 870916 858118 826206
3357.48 715456 862606 840438 810180 838912 798380
3360.37 771326 805924 813820 714822 652846 872000
3363.27 785374 833886 720994 688092 716934 675318
3366.16 708150 683440 653696 681906 650524 632390
3369.05 643272 744986 708102 717798 728902 743228
3371.95 689194 666392 826534 672668 651142 655252
3374.84 603630 690882 692460 729398 773676 692328
3377.73 686680 776640 688458 772796 602948 701288
3380.62 671316 772564 734024 829328 715396 757782
3383.52 764952 660328 678556 735378 778926 830726
3386.41 789024 890798 893604 832072 730004 803062
3389.30 815650 798692 763982 840068 751018 813548
3392.19 814132 851096 850442 881644 894034 898876
3395.09 980990 876908 963838 940896 958050 930854
3397.98 938628 888738 899038 947544 1043156 989810
3400.87 970224 965730 996208 887832 1136034 1085502
3403.77 1034980 1008574 1114776 1160214 1077504 1127988
3406.66 1108748 1136292 1241576 1102890 1151284 1175992
3409.55 1249252 1242794 1348420 1348076 1326342 1410286
3412.44 1450638 1533368 1461314 1524042 1550794 1589822
3415.34 1679756 1732076 1772378 1935332 1969950 1914804
3418.23 2011030 2083892 2084636 2256746 2304948 2282736
3421.12 2395670 2504186 2548354 2654978 2648558 2818108
3424.01 2811804 2765074 2869226 2943784 3045464 2995066
3426.91 3074590 3168688 3129850 3165614 3314014 3327082
3429.80 3451268 3458656 3382288 3446030 3353508 3410238
3432.69 3491674 3473822 3409146 3317282 3350682 3464666
3435.59 3360928 3357774 3357832 3398892 3266494 3236870
3438.48 3203078 3099178 3065078 2985180 2888334 2925384
3441.37 2778982 2750332 2679516 2702352 2562558 2492842
3444.26 2436758 2271108 2378502 2155826 2223740 2230342
3447.16 2075558 2023908 2034864 1831196 1839694 1762138
3450.05 1653082 1667106 1563380 1453574 1496852 1485770
3452.94 1425544 1311678 1344334 1166334 1228660 1157222
3455.83 1161772 1087758 1155696 1058806 1092952 1024156
3458.73 1022986 941710 983218 922098 1014518 943716
3461.62 927210 965600 935286 980046 868926 827398
3464.51 925194 854704 884164 856042 878434 915896
3467.40 869566 993294 871316 899830 918234 888518
3470.30 945700 953066 1088756 1096854 1036972 1031804
3473.19 1156310 1045488 1160308 1021532 1118300 1063312
3476.08 1086790 1207042 1252800 1172560 1196376 1182358
3478.98 1216866 1287840 1322192 1376342 1305458 1325762
3481.87 1441048 1322156 1323904 1310524 1346828 1419828
3484.76 1316584 1254218 1348496 1337890 1373936 1415990
3487.65 1277538 1335440 1324026 1305022 1314658 1357592
3490.55 1288734 1085388 1196802 1110274 1092818 1176114
3493.44 1079492 1064098 1116834 992602 994120 973054
3496.33 885464 906964 808368 800972 704386 836064
3499.22 730150 690238 667912 687370 637032 650596
3502.12 544342 650194 527812 559156 534666 367354
3505.01 342106 312632 386526 278624 349522 244018
3507.90 411138 205914 389736 333014 160012 189474
3510.80 141638 196186 157164 86130 154532 148390
3513.69 196750 60720 107954 115650 76380 22534
3516.58 66600 102858 88252-12064 113634-36510
3519.47 49612 59856 64950 46528 67378 32072
3522.37 126330 136366 105888 169642 1726 73904
3525.26 61604 57366 37666 51978 121538 133122
3528.15-26290 137912-88756-50198 19788 72046
3531.04-18736-2408 55784-25788-10076 63894
3533.94 5552-58510-32186-82506 133782 26704
3536.83 45124-16566 75074-19442-26440-35206
3539.72 46208 49402-1634 30372 18590 105074
3542.62-18232-1062 9706 34058 57864 182116
3545.51 26540 45064 339792 97674 12050 90402
3548.40-90508 69900 23218 16904 108004 24186
3551.29 107902 317284 32604 77808 76176 29196
3554.19 104974 76384 57304 38328 70946 8014
3557.08-9902 13924 23450 60722 67982 181996
3559.97 54324 18292 56248 11164 62188 113160
3562.86 22162 119000 2892 67572 107326 285700
3565.76 222634 417556-58312 238244 603324 106776
3568.65 57368-8172-15132 138040-131348 7812
3571.54 8090 15590 14690 9960-4608-8300
3574.44 87850-50792 13354-73262 47810 19756
3577.33-3594-26390 9500 24184 37964 22512
3580.22 38784-6154-19986 24192 56016 48438
3583.11 137550-33704 145248 29104 85630 11172
3586.01 718352 249284 99086 82920 413366 715362
3588.90-111404 41466-80758-9988-77060 95762
3591.79 5768-73056 223356 28480 35462 33348
3594.68 244338 196416-49976 97216-38530 42274
3597.58 34500 105812-34454 61776 31294 111894
3600.47 101228 54724 484-53048 13464 45844
3603.36-16796-43974-113276 4842-38906-10016
3606.26 90802 382806-45320 129720-153940 1141972
3609.15 417726-120974 122908-10738 138214 20138
3612.04 702702 226678 17680 65536 316118 187010
3614.93 138870 79226 108586-70846 274480 535110
3617.83 241970 43440 430248 1218130 28894 176080
3620.72 146066 223138 61812 194518 170246 208842
3623.61 165070 123566 134442 206420 280918 278308
3626.50 252554 285640 519588 1942326 144544 1706524
3629.40 1347162 53504 491412 228970 365714 293026
3632.29 379338 171894 709976 335328 235868 288032
3635.18 319114 236988 296398 175504 284166 285458
3638.08 308816 216140 321726 232222 319236 258356
3640.97 456870 528114 708592 666312 557234 309298
3643.86 484942 269570 481076 332196 613846 512382
3646.75 1104924 809618 463932 305952 2275306 1176406
3649.65 186536 1114724 782542 967956 272988 487138
3652.54 305082 366832 203162 391158 362276 319420
3655.43 702498 1886760 311882 409112 268774 423436
3658.32 183744 322556 266526 419960 184896 349760
3661.22 329552 361506 236156 308826 250902 313082
3664.11 252426 288512 299838 370044 307692 316308
3667.00 328440 243174 731768 1136078 349622 462916
3669.90 1050550 2948710 80096 592994 99954 614798
3672.79 109632 669008 235738 1604094 1120082 1355752
3675.68 2637984 222536 498008 431828 476140 356216
3678.57 526472 837762 333044 498796 474490 479044
3681.47 455454 538844 355352 561054 443296 613714
3684.36 494628 655048 413252 706872 323462 808110
3687.25 325160 2654162 2666786 386926 859816 720664
3690.14 745570 1251878 1320770 470878 876660 535042
3693.04 876128 595046 829014 644864 763344 628468
3695.93 878652 730022 814286 794614 875386 853500
3698.82 884006 912908 944302 906010 1062050 1727792
3701.72 1277334 1047090 1135318 1058746 1224470 1129940
3704.61 1277258 1313144 1348946 1429602 1515164 1422582
3707.50 1600014 1505992 1802602 2474504 1784664 1542938
3710.39 2033594 1694356 2533992 3670838 1678346 1876580
3713.29 1772142 1866822 1998608 1929140 1868864 2050418
3716.18 1874508 1949220 1870754 1915520 2002406 2253820
3719.07 1923630 2052198 1894828 1967492 1804336 2207072
3721.96 2271108 1950108 1828546 1827554 1770806 1781258
3724.86 1850452 1478940 1956526 2094200 1335616 1529852
3727.75 1275048 1339586 1155922 1293274 1166798 1155968
3730.64 1117206 1277530 2730210 1648916 850270 1226222
3733.54 1013700 1582826 1525512 1722360 706092 1773656
3736.43 2274938 569490 932418 1028644 860614 703134
3739.32 741738 625312 826400 962028 773616 617664
3742.21 773654 664332 1136866 2162114 4516474 2013434
3745.11 687074 745460 576422 822986 728884 727726
3748.00 631920 1492780 3639914 1161344 590224 948920
3750.89 494576 1818130 3797310 662360 752424 606940
3753.78 672292 528736 657106 524718 787782 1047382
3756.68 594534 582118 626606 580210 643166 881002
3759.57 1178822 361574 636912 484444 605434 550444
3762.46 526802 435528 649586 496328 532542 647760
3765.35 1188442 438530 671978 473110 676736 429392
3768.25 659384 413950 1426810 1229124 444406 590688
3771.14 605316 577008 553770 542578 549448 586874
3774.03 640670 559300 634432 641598 625202 608796
3776.93 690372 642438 720766 591546 1255496 1201438
3779.82 701452 825178 691192 818056 703388 799034
3782.71 767552 770714 881116 1014924 834312 946932
3785.60 847668 901962 864458 873990 949906 1048558
3788.50 964524 993274 898302 1022280 907738 1053348
3791.39 938478 1006032 959424 1120580 966832 1184388
3794.28 1046096 1241788 983052 1603416 1633744 1112994
3797.17 1168030 1196924 1172834 1245900 1122722 1362678
3800.07 1174184 2140016 4034044 1220422 1346972 1361320
3802.96 1267584 1294402 1197742 1165260 1122936 1339610
3805.85 1042884 2752328 2522754 844356 1371998 1025658
3808.75 1245850 1042320 1273742 1035668 1323414 1078256
3811.64 1252092 1057630 1273792 1012506 1312070 1049810
3814.53 1443038 1069358 3916642 2444592 931830 1323122
3817.42 998032 1367192 1215540 1286224 1254808 1649412
3820.32 2433484 1515322 2631742 1487020 1250368 1341074
3823.21 1265296 1379190 1281060 1330494 1356990 1330644
3826.10 1699336 1659908 1339116 1525480 1295912 1372268
3828.99 1369654 1397068 1420552 1409292 1912422 2219454
3831.89 1208394 1644868 1217236 1659366 1215666 2304216
3834.78 1965874 1513752 1361588 1823286 1141098 3774320
3837.67 3502642 1079814 1657450 1369476 1860160 1306558
3840.57 2080108 1358392 1401092 1266744 1349922 1667594
3843.46 1946614 1168900 1456100 1267986 1374834 1250902
3846.35 1337570 1174530 1283894 1259702 1346556 1195166
3849.24 1438140 1279626 1416906 1218534 1985642 3974338
3852.14 1407910 1474966 1960112 4838122 3928166 1301910
3855.03 1282512 1275394 1416066 1451756 1645152 1227608
3857.92 1414136 1290246 1404040 1241874 1293844 1309704
3860.81 1395818 1888088 1511258 1272276 1517172 1312016
3863.71 1613328 1676284 2717370 1379966 1536366 1339848
3866.60 1550336 1259580 1689954 1238358 2233050 1705426
3869.49 3007226 2678200 1359072 1885838 1486154 1659328
3872.39 1583220 1783282 1859278 2342758 1890392 1651222
3875.28 1737032 1772716 1851926 1876278 1831584 1758400
3878.17 1892470 1959602 1873310 2688232 2436432 2248034
3881.06 2162170 1949612 2213938 2202062 2418712 2100908
3883.96 2370524 2088672 3113072 3678610 2434508 2475878
3886.85 2378732 2403740 2372016 2504764 2514904 2461206
3889.74 2614532 2460508 3643858 3093286 2598152 2554596
3892.63 2615968 2679720 2585260 2656936 2631006 2670604
3895.53 2634852 2550324 2573516 2681076 2720752 2632326
3898.42 2784110 3684386 2678780 2540326 2522178 2570530
3901.31 3528374 2853720 2441580 2475700 2519402 3600750
3904.21 2548016 2337328 2432382 2460372 2303608 2171682
3907.10 2173008 2077946 2055670 2035872 2005636 2028532
3909.99 2018598 1937416 1941554 2012822 1934406 1887016
3912.88 1816924 1780520 1855454 1829194 1844740 1745896
3915.78 1920508 1806914 2215680 1934528 1710976 1767318
3918.67 1624702 1789980 2087432 1821974 1683036 1732916
3921.56 1823404 1825802 1779420 1864686 1783172 1802200
3924.45 1924154 1949472 1794118 1830538 1734028 1787642
3927.35 1824788 1844562 1793826 2037620 1936084 1857454
3930.24 1944160 1957796 1974948 2168348 2230096 2016144
3933.13 2035350 2105912 2023922 2051286 2071214 2020662
3936.03 2064222 2073498 2101528 2087170 2138944 2188090
3938.92 2242106 2138194 2198762 2308134 2304100 2300028
3941.81 2368268 2690824 2317336 2288516 2344584 2422854
3944.70 2372794 2444982 2479574 2442644 2543820 2559182
3947.60 2517860 2580608 2444468 2696798 2814364 2635906
3950.49 2695532 2630010 2674424 2644820 2648824 2719236
3953.38 2707746 2685236 2665032 2787202 2838632 2742916
3956.27 2747202 2801596 2728282 2786872 2768678 2875286
3959.17 2793520 2846082 2764120 2886448 2841608 2864440
3962.06 2756692 2776854 2714362 2869750 2662316 2710048
3964.95 2794400 2656804 2701552 2720958 2539082 2691558
3967.85 2692444 2661072 2646308 2665374 2424006 2565432
3970.74 2636008 2558734 2559610 2606942 2441756 2486126
3973.63 2409160 2471890 2430006
##END=
