##TITLE=Ethyl tert-Butyl Ether
##JCAMP-DX=4.24
##DATA TYPE=INFRARED SPECTRUM
##CLASS=IUPAC A
##ORIGIN=NIST, Anayltical Chemistry Division, 301-975-3108
##OWNER=COPYRIGHT (C) 1998 by the U.S. Secretary of Commerce
##DATE=98/10/1
##$SPECTRA VERSION=1.00
##$UNCERTAINTY IN Y=2.8 % relative (B=1.9E-04,C=3.0E-09,D=2.7E-14)
##CAS NAME=tert-Butyl Ethyl Ether
##CAS REGISTRY NO=637-92-3
##MOLFORM=( C H3)3 C O C2 H5
##MP=-94 C
##BP=73.1 C
##$NIST SOURCE=QUANT-IR
##SPECTROMETER/DATA SYSTEM=IFS66V (Bruker)
##INSTRUMENT PARAMETERS=KBr Beam splitter; MCT Detector; Multipass cell
##STATE=gas
##SAMPLE DESCRIPTION=ETBE Primary Gas Standard
##PRESSURE=101.3 kPa
##TEMPERATURE=23 C
##SAMPLING PROCEDURE=1 L/min Flow
##RESOLUTION=0.9640
##DATA PROCESSING=Triangular Apodization
##XUNITS=cm-1
##YUNITS=(micromol/mol)-1m-1 (base 10)
##XFACTOR=1.0
##YFACTOR=9.0949E-13
##DELTAX=0.4820
##FIRSTX=575.169
##LASTX=3975.077
##FIRSTY=-5.67E-08
##MAXX=3974.59
##MINX=575.17
##MAXY=.0013418
##MINY=-6.54E-07
##NPOINTS=7053
##XYDATA=(X++(Y..Y))
575.17-62426-230104-136396 7708-156306-315268
577.58-288038-291690-207474-187208-65272 78828
580.47-178070-719710-455820-126462-227072-165012
583.37-184544-91778-101864-341630-414186-624188
586.26-577488-155252-15462-118352-295216-249050
589.15-96842-82312-185082-142344-15374-28532
592.04 32374-30760-182252-89850 89642-1202
594.94-235142-280770-250914-149854-131010 10132
597.83 146750 20672-76206 24606 21318-222892
600.72-133310-23520-61770-10000-71010-83426
603.61-62608-100964-146270-102522 18398 4576
606.51-73656-56438 136954 191304 153668 175380
609.40 207504 264388 176308 137182 188402 124562
612.29 51258 116938 140294 41656 19272 87698
615.18 187088 181078 122302 158278 150334 149550
618.08 170048 138636 60018 54786 157914 184584
620.97 158708 168510 213408 169638 94438 79812
623.86 118944 202066 163870 122076 192192 164944
626.76 162796 203230 136552 159308 194472 159618
629.65 167638 207412 271130 265396 210262 153566
632.54 46188 64530 140822 190574 206118 155412
635.43 197840 216130 128350 63864 76786 135762
638.33 128234 124466 137848 84974 50924 56872
641.22 61316 72476 148018 146030 46670 12978
644.11 27676 57686 58690 24004 77450 226390
647.00 218556 119974 74386 122348 158544 100486
649.90 69350 23798 23224 95488 134440 131998
652.79 70434 8846 43184 101770 71876 28954
655.68 20474-13192 18722 70022 91106 150646
658.58 147142 78034 88310 53310-14340-11614
661.47 55504 57694 82948 133194 57462 53180
664.36 30854 19872 91966 115810 85660 61220
667.25 140968 153468 113122 161244 174642 91590
670.15 79724 143098 153674 128996 77546 107324
673.04 152550 113408 94434 98846 119384 191222
675.93 143060 47280 76354 144296 176364 202384
678.82 201222 176558 161452 166472 231282 285448
681.72 313438 302134 308492 348722 308956 294234
684.61 314156 307462 380418 397318 417140 451682
687.50 414400 431492 424150 377016 386998 462206
690.40 493228 511320 524908 552120 572196 535652
693.29 571502 662958 643980 600902 610958 669902
696.18 708822 685066 727620 769152 771410 729010
699.07 707470 727810 778022 849324 833894 855556
701.97 952912 967360 954024 977084 1064848 1103664
704.86 1075380 1125904 1189142 1224934 1302844 1372850
707.75 1418252 1497494 1526406 1540670 1610868 1734166
710.64 1842504 1862548 1912902 2031462 2170178 2319764
713.54 2424842 2549322 2717248 2822026 2924256 3136520
716.43 3340784 3509574 3700260 3922222 4174692 4394712
719.32 4638182 4926914 5236206 5572664 5897130 6243088
722.22 6654168 7044884 7388694 7882438 8503364 8957456
725.11 9405092 10003500 10548520 11091240 11737570 12411720
728.00 13052110 13746670 14540430 15327040 16149820 16988080
730.89 17776700 18592990 19428330 20208280 20982880 21717840
733.79 22380380 23029480 23599990 24076330 24505220 24867780
736.68 25092650 25238620 25352340 25406650 25470420 25492790
739.57 25521140 25736530 25976400 26186090 26534070 26815530
742.46 26789320 26272920 25120260 23629170 22477440 21934190
745.36 21699310 21600150 21513880 21372690 21187880 20914770
748.25 20439520 19736150 18908500 17993290 17008350 16004030
751.14 14996000 13949530 12868410 11828160 10826730 9941096
754.04 9161592 8375104 7711616 7106286 6505588 6015502
756.93 5541770 5095394 4753150 4420538 4160488 3884316
759.82 3653738 3512536 3344102 3173790 3021216 2940556
762.71 2848800 2654998 2536106 2518834 2475444 2400706
765.61 2313450 2262138 2233948 2210418 2189106 2121742
768.50 2102940 2118684 2106276 2102254 2075434 2068350
771.39 2058010 2034442 2013778 1978976 1933508 1951970
774.28 1957174 1987210 2013964 1950864 1893136 1875234
777.18 1857022 1882872 1906714 1871338 1862692 1874688
780.07 1844708 1864740 1871766 1800222 1807370 1803520
782.96 1772286 1767262 1751968 1761544 1789380 1764324
785.86 1734258 1736900 1752320 1739206 1769720 1786682
788.75 1765358 1765570 1738270 1740784 1756034 1742344
791.64 1728720 1748682 1797710 1797580 1758876 1762200
794.53 1779652 1779622 1769856 1816862 1851880 1863432
797.43 1896656 1934632 1983552 1993562 1998454 1986888
800.32 1988972 2050588 2123786 2154498 2176368 2203102
803.21 2234166 2284688 2311690 2350138 2402458 2403924
806.10 2439886 2507640 2531030 2577650 2616484 2694362
809.00 2800664 2832954 2846950 2891784 2947618 3016996
811.89 3074056 3093606 3158416 3217116 3228782 3300706
814.78 3405400 3515676 3592978 3630610 3684710 3798932
817.68 3944586 4032958 4139030 4331616 4520380 4625778
820.57 4761608 4972826 5166240 5344684 5539054 5786704
823.46 6103802 6487608 6855668 7242408 7658948 8092620
826.35 8612132 9150030 9707908 10363580 11029560 11819060
829.25 12746600 13625660 14591460 15664700 16759090 17867160
832.14 19112890 20491980 21880280 23378790 25025920 26756500
835.03 28553280 30470510 32562890 34675110 36853720 39119860
837.92 41421870 43795650 46174270 48601850 51035530 53371460
840.82 55664750 57927690 60058770 62104640 63993780 65665780
843.71 67118210 68431620 69612170 70523860 71347020 72254650
846.60 73190360 74191030 75389740 76788300 78218500 79512580
849.50 80571450 80680420 79101500 75917310 72598090 70455820
852.39 69337620 68806310 68445580 68043460 67474200 66542410
855.28 65278330 63801490 61857430 59486190 56871820 54027680
858.17 51106060 48035870 44839160 41758140 38767460 35916140
861.07 33212850 30658330 28295820 26010510 23933190 22062420
863.96 20317920 18728610 17237150 15821810 14556000 13421430
866.85 12325440 11325640 10458780 9645648 8882818 8226202
869.74 7597632 7014412 6516068 6059818 5670894 5320752
872.64 4973506 4693162 4466912 4263110 4075804 3909434
875.53 3745432 3606722 3504610 3378400 3248948 3159762
878.42 3106666 3068956 3030470 2961626 2907498 2876356
881.31 2862670 2880952 2889954 2867868 2897322 2946170
884.21 2974848 3023428 3010162 3032990 3106824 3152470
887.10 3216276 3332144 3442350 3614336 3853032 3984460
889.99 3870734 3600476 3489192 3482362 3534448 3654448
892.89 3716794 3770048 3868330 3960458 4092326 4228268
895.78 4292164 4338666 4464326 4620966 4747606 4892524
898.67 5081978 5253464 5413202 5631338 5837744 6017964
901.56 6263572 6510862 6702672 6931974 7180630 7449868
904.46 7760522 8047456 8317900 8580096 8812986 9043416
907.35 9258466 9446438 9625746 9777536 9896812 9973148
910.24 10049270 10118810 10151920 10160960 10199730 10303000
913.13 10388550 10479750 10642420 10849080 11067560 11223510
916.03 11263200 11183160 10990570 10843450 10827060 10853790
918.92 10971990 11192600 11311000 11362230 11406480 11204140
921.81 10911720 10681490 10462260 10368360 10278390 10113850
924.71 9953234 9896492 9864620 9804648 9800374 9822478
927.60 9879546 9980306 10107060 10286400 10502200 10748070
930.49 10994830 11299580 11700080 12080680 12482430 12938720
933.38 13458490 14010950 14591740 15261700 15984140 16713980
936.28 17549140 18511820 19524150 20604010 21782620 23080200
939.17 24445310 25864770 27453650 29210320 31042600 33012950
942.06 35139580 37371210 39730150 42250220 44936840 47720880
944.95 50639890 53824190 57124710 60539660 64184680 67961940
947.85 71853900 75905590 80129620 84511970 88854280 93226870
950.74 97531980 101707800 105812300 109594700 113029700 116105500
953.63 118816400 121126300 122943200 124393400 125536300 126331200
956.53 126937400 127446000 127993100 128737700 129767600 131170300
959.42 132782000 134272500 135129200 134802800 133187000 130285400
962.31 126470200 122316600 118177100 115086200 113331600 112189200
965.20 111274000 110183300 108672400 106461300 103394300 99614130
968.10 95041060 89785540 84069460 77925390 71637460 65374490
970.99 59155580 53217500 47674220 42535100 37859280 33668130
973.88 29947770 26689680 23871960 21456560 19344960 17523050
976.77 16009060 14709730 13590910 12610650 11745610 10976850
979.67 10288030 9720482 9230216 8769424 8356638 7979658
982.56 7677900 7410874 7148152 6934546 6714156 6515084
985.45 6344782 6182650 6025762 5907546 5842164 5753456
988.35 5643232 5555722 5518018 5484950 5419838 5357868
991.24 5314584 5305120 5316730 5296706 5305816 5352310
994.13 5422142 5470460 5467996 5521522 5626968 5702316
997.02 5776186 5900102 6034926 6158204 6321246 6515582
999.92 6711512 6899602 7104112 7321722 7577786 7845984
1002.81 8091614 8421306 8786956 9126688 9479384 9858902
1005.70 10248370 10653120 11072160 11545740 12058870 12568960
1008.59 13107740 13701180 14331690 14955070 15607660 16324270
1011.49 17087830 17892850 18759590 19684880 20615540 21560430
1014.38 22528330 23550070 24587250 25597100 26636710 27639070
1017.27 28579980 29464380 30299140 31041220 31667010 32099960
1020.17 32238330 32151490 32055830 31959570 31830670 31757870
1023.06 31766300 31918690 32248930 32768820 33547150 34337660
1025.95 34927220 34598350 32901860 31333280 30627390 30331230
1028.84 30282030 30342280 30411160 30455670 30386890 30218990
1031.74 29999870 29631090 29128330 28522590 27795620 27028460
1034.63 26267280 25546870 24837990 24174940 23618090 23102360
1037.52 22686710 22384550 22155730 22020880 21980750 21996080
1040.41 22065100 22259380 22531640 22828910 23185970 23657110
1043.31 24209740 24807640 25462240 26175550 26945600 27769480
1046.20 28675380 29649040 30702900 31825490 33018230 34270330
1049.09 35595820 37004200 38503650 40134910 41861470 43689280
1051.99 45655940 47756500 50006580 52438490 55009040 57723460
1054.88 60628840 63756540 67179950 70846190 74745780 78921940
1057.77 83399460 88179320 93286220 98761380 104585000 110811400
1060.66 117504500 124614500 132127000 140106200 148622900 157814000
1063.56 167561600 177849800 188665400 200090800 212277400 225000700
1066.45 238302600 252000900 266159200 280964400 296128300 311686600
1069.34 327491600 343782300 360444500 377172000 394016300 410631700
1072.23 427292400 443798700 460057200 476378400 491974100 506584200
1075.13 519985500 532024900 542809300 551839200 558992200 564446700
1078.02 568662200 572238300 575374300 578199000 581106700 584270900
1080.91 587420300 590138500 592897900 595049100 594753200 591104100
1083.81 585111000 578349400 566728100 548793200 531043400 515314200
1086.70 501073400 488837000 476594900 464475500 452733000 439875700
1089.59 425984400 410444400 392737300 373251200 352104600 329893300
1092.48 306755600 282943700 259291500 236508700 215055200 195285600
1095.38 177450200 161785600 148373800 137153500 128166900 121134300
1098.27 115923200 112388200 110297700 109598500 110085000 111537600
1101.16 113859700 117064800 120918400 125447700 130594700 136332300
1104.05 142709300 149548600 156827600 164524900 172727000 181365100
1106.95 190464500 199957700 209709500 219682300 229803000 240218300
1109.84 250892800 261672100 272613600 283643800 294608200 305656500
1112.73 316691500 327508400 338142900 348390600 358276800 367523800
1115.63 375640800 382908800 389219800 394307000 398009000 400402200
1118.52 402009700 402805300 402701100 402274400 401732600 400580200
1121.41 399086000 397262800 394642800 391522200 387021500 380198800
1124.30 371513800 360797100 348752500 337276600 328155500 321134000
1127.20 313581000 305666000 297783800 289156600 279702100 269043700
1130.09 257326000 244739200 231520400 217901400 203970800 190143100
1132.98 176717200 163730200 151503700 140131000 129511700 119728400
1135.87 110893700 102973200 95920170 89701630 84272570 79513470
1138.77 75454970 72027890 69075850 66499740 64292810 62455420
1141.66 60988730 59736220 58593110 57743570 57246280 56954360
1144.55 56818620 56852290 56986980 57246670 57585100 58043320
1147.45 58574030 59137220 59783030 60439640 61129570 61854910
1150.34 62573980 63372880 64147770 64861240 65612180 66388340
1153.23 67116120 67760740 68378870 68957420 69497540 70045760
1156.12 70605860 71110610 71558200 72026520 72456960 72739830
1159.02 72971120 73193570 73361590 73491460 73459350 73278140
1161.91 72956220 72572510 72237300 71807660 71375300 70975020
1164.80 70549090 70160450 69779480 69322990 68894710 68542840
1167.69 68171460 67854630 67558350 67288100 67111070 66937960
1170.59 66829300 66793460 66754980 66739210 66747870 66806120
1173.48 66915610 67104140 67356720 67623060 67998870 68538020
1176.37 69167700 69866410 70701820 71628190 72614440 73765040
1179.26 75156140 76706270 78438390 80458320 82716200 85211650
1182.16 88059790 91234060 94724430 98631810 102942500 107664300
1185.05 112910900 118781600 125223100 132289900 140068500 148412400
1187.94 157475300 167345500 177893200 189188600 201391400 214434800
1190.84 228219700 242747200 257847100 273489900 289620900 306223700
1193.73 323147200 340276200 357547800 375135500 392837200 410396300
1196.62 428146100 446076300 464006500 482102600 500591400 519314500
1199.51 538184700 556541400 574834600 592407600 608255000 622445200
1202.41 634498500 645045100 654049300 661704400 669434400 676888900
1205.30 683791900 691339100 698445900 703086400 705593000 707647600
1208.19 709280100 708953000 704550800 695949200 685034600 671817500
1211.08 656964900 642526700 628146900 612681900 596116900 578860900
1213.98 560147100 539426600 517200600 493428100 468282800 442554700
1216.87 416815100 390783300 365129400 340758900 317739100 296428000
1219.76 276931200 259344900 243658100 229596100 217364700 206835100
1222.66 197642400 189817900 183320400 177962400 173494400 169865700
1225.55 167038600 164898000 163235000 161971400 161180900 160846300
1228.44 160846700 161046100 161453900 162056200 162846000 163743600
1231.33 164667100 165625600 166656000 167793100 168931600 170019400
1234.23 171108500 172245200 173390400 174492600 175664100 176781200
1237.12 177835200 178901100 179942300 181024400 181971400 182759200
1240.01 183528900 184192200 184642300 184806900 184800300 184660200
1242.90 184395700 183928600 183236600 182429000 181545000 180527600
1245.80 179389100 178342400 177216000 175971100 174926900 173958900
1248.69 172987000 172067900 171176300 170288500 169359500 168432900
1251.58 167422700 166342300 165158900 163873200 162520700 161051700
1254.48 159510400 157870600 156176500 154473000 152662700 150648100
1257.37 148537200 146495600 144315200 142034400 139782300 137436600
1260.26 135084600 132693400 130191500 127565200 124843900 122059400
1263.15 119025400 115802700 112570700 109337500 106196800 103203700
1266.05 100261000 97331660 94451730 91609700 88781900 85923130
1268.94 83062420 80215420 77379860 74604790 71877400 69146420
1271.83 66478160 63868120 61394430 59032080 56714000 54486050
1274.72 52355020 50332290 48387070 46589130 44886340 43233090
1277.62 41698620 40258220 38873880 37570660 36365130 35216980
1280.51 34172210 33178630 32197540 31279540 30428480 29649130
1283.40 28887950 28197340 27566390 26916540 26326160 25805120
1286.30 25283350 24805450 24377450 23935550 23489100 23049110
1289.19 22630950 22238940 21866300 21517420 21173460 20833170
1292.08 20531330 20254940 19988370 19705340 19427380 19189110
1294.97 18941060 18695010 18410260 18125530 17881970 17619610
1297.87 17377160 17159500 16966300 16793760 16609880 16433090
1300.76 16224440 16016240 15812050 15563870 15305350 15002450
1303.65 14694000 14404330 14124070 13859640 13552940 13269430
1306.54 13028020 12802400 12591850 12368740 12175930 12023930
1309.44 11861180 11702080 11575850 11450910 11338780 11237060
1312.33 11129200 11055820 10985320 10912560 10853800 10786770
1315.22 10729730 10683240 10645050 10591860 10525310 10458130
1318.12 10408730 10367860 10320700 10277710 10233010 10196590
1321.01 10147090 10079600 10001480 9922306 9860016 9786610
1323.90 9704098 9626876 9536306 9468484 9432428 9398136
1326.79 9359200 9326406 9328712 9306546 9264776 9203258
1329.69 9131310 9086830 9073282 9081216 9090464 9115740
1332.58 9165476 9223828 9243778 9301188 9412480 9525782
1335.47 9679426 9906200 10112490 10316860 10625050 11014360
1338.36 11414210 11858040 12379490 12981230 13619910 14336450
1341.26 15210020 16228330 17396240 18718780 20226080 21961940
1344.15 23922790 26094270 28547850 31292600 34357700 37735330
1347.04 41474920 45661540 50244540 55188670 60581710 66376020
1349.94 72538070 79168990 86216670 93649730 101419000 109397600
1352.83 117627800 126092600 134718100 143451700 152153200 160828600
1355.72 169433300 177922000 186324800 194599300 202866200 211045600
1358.61 219127000 227416100 236050100 245038100 254582600 264628500
1361.51 275163400 285865400 295902600 304713700 313731500 324712200
1364.40 335944400 346570600 354894100 356027300 350813400 344378000
1367.29 338281700 331749300 324427500 316488600 308209000 299904400
1370.18 292098200 285363000 279580700 273588300 265701000 256157600
1373.08 246635100 237932800 229945300 222246100 214700700 207298200
1375.97 199816200 192384300 185166600 178164900 171491200 165281900
1378.86 159730400 154885500 150870900 147770100 145647100 144643500
1381.76 144816400 145963800 148161400 151444100 155573800 160370500
1384.65 165664900 171257600 176996100 182599800 188145500 193582500
1387.54 198439000 202908200 207330500 211344600 213880100 214663100
1390.43 214706200 215046900 216364900 218862800 222364100 226656400
1393.33 231211900 235186100 237420600 237212900 234298400 228344700
1396.22 220731400 214116500 209990900 208421600 208966100 210639300
1399.11 212002900 212527600 211935300 209692200 205583400 199602200
1402.00 191890300 182715600 172417100 161410100 150086900 138736100
1404.90 127417900 116455000 106282800 96870670 88249640 80447000
1407.79 73475100 67360540 61991230 57269380 53146280 49559740
1410.68 46471780 43776120 41386500 39289800 37465940 35836100
1413.58 34404910 33100120 31935390 30921360 30029300 29194490
1416.47 28518300 27947480 27270850 26676680 26549490 26671630
1419.36 25830450 24838750 24449950 24139720 23871020 23631470
1422.25 23470930 23345270 23339430 23271690 23128300 23056490
1425.15 23068510 23131780 23234170 23368210 23545190 23775350
1428.04 24074820 24431310 24969370 25574720 25990130 26505690
1430.93 27195580 27944940 28780180 29679280 30617570 31556440
1433.82 32558470 33561720 34642160 35748940 37195150 38790040
1436.72 39398420 39918680 40964160 42022250 43098760 44168970
1439.61 45245550 46312560 47382400 48474020 49582120 50678920
1442.50 51797650 52948180 54141060 55303290 56437540 57584670
1445.40 58699720 59817320 60894560 62078870 63782110 65231900
1448.29 65912580 66264800 66554240 66859640 67123350 67373740
1451.18 67662210 67954960 68199580 68578850 69098340 69702520
1454.07 70413380 71248860 72103300 73052320 74725460 75920200
1456.97 75934800 76599560 77495160 78099430 78771810 79251180
1459.86 79727720 80227840 80720690 81197860 81666950 82136580
1462.75 82569380 82899170 83147590 83438720 83260140 82816590
1465.64 82761820 82951550 83342740 83800640 84222420 84471250
1468.54 84374470 83839780 82901220 81728750 80551430 79535250
1471.43 78818120 77594060 76341500 75813850 74712070 73388860
1474.32 72487390 71640770 70998700 70390060 69508710 68673330
1477.21 68047270 67533190 67116530 66810700 66627680 66558000
1480.11 66601100 66815840 67072180 67322960 67692550 68081430
1483.00 68379670 68570700 68639700 68513450 68202130 67736810
1485.89 67103720 66470280 65839840 64911580 64043320 63480390
1488.79 63248280 63397140 63710540 64371050 64893660 64829590
1491.68 63931770 62081250 59541250 56750630 54572550 53187600
1494.57 52296430 51840850 52086390 51570240 50231570 49321460
1497.46 48269870 47234690 45889880 43841840 41772660 39744740
1500.36 37604170 35454780 33291080 31127260 29036800 27059440
1503.25 25166900 23448980 21827750 21004260 20251250 18220070
1506.14 17316700 16817400 14894100 13550390 12798860 11856460
1509.03 11179770 10573270 9870626 9314580 8823026 8618210
1511.93 8355360 7712852 7267404 6949538 6692018 6587854
1514.82 6304084 5993480 5956994 5935308 5905826 5659146
1517.71 5164416 4941020 4807270 4860766 5035510 5002434
1520.61 5718222 5425884 4482558 4634548 4416308 4006720
1523.50 3897484 3842426 4000664 4298746 3977224 3587044
1526.39 3643252 3689202 3540322 3537808 3506760 3311514
1529.28 3254524 3243986 3224044 3249338 3293142 3225448
1532.18 3320048 3538974 3760712 3653076 3216336 3089112
1535.07 3077142 3030128 3040148 3051974 3106080 3199066
1537.96 3706514 4925680 4448984 4007102 4396308 3556144
1540.85 3231210 3961458 4043662 3281232 3135564 3098876
1543.75 2959472 3227382 3499408 3141302 2853676 2828406
1546.64 2814286 2818372 2816960 2808020 2816296 2940180
1549.53 3049496 2961352 2817436 2782770 2794902 2789652
1552.43 2840480 2863204 3295580 3818168 3294338 2888024
1555.32 2901650 2909684 3021666 3629236 3958922 4571780
1558.21 4800418 3772014 4093476 4893510 4080260 3104828
1561.10 2987186 2911378 2906952 2902830 2926678 2934550
1564.00 3070406 3191772 3047388 2962826 2951598 2940532
1566.89 2975718 2967980 3050668 3191000 3483760 3790938
1569.78 3409746 3070742 3057480 3040752 3050950 3069156
1572.67 3086976 3114232 3141850 3219112 3292034 3840668
1575.57 5118606 4607216 3452514 3340266 3280252 3296994
1578.46 3292210 3284118 3290454 3328926 3368194 3398148
1581.35 3394678 3394100 3414448 3427476 3438800 3458576
1584.25 3475800 3489324 3498962 3503766 3495510 3496754
1587.14 3497142 3517034 3513310 3502690 3486564 3470852
1590.03 3464298 3449556 3454138 3440148 3396986 3369718
1592.92 3354974 3322122 3299142 3268922 3210358 3190702
1595.82 3184910 3140078 3098804 3076786 3029888 2983818
1598.71 2937950 2877642 2817436 2774644 2742534 2676304
1601.60 2593406 2546584 2521480 2456074 2381162 2335708
1604.49 2278772 2223276 2185230 2156234 2141162 2112962
1607.39 2064656 2021704 2005374 2028808 1981720 1919310
1610.28 1887780 1857688 1847056 1849520 1833932 1825404
1613.17 1828804 1837454 1812610 1850276 1898750 2271436
1616.07 3456506 3158940 2019970 1861136 1804382 1804386
1618.96 1811140 1809574 1802576 1803894 1805676 1829134
1621.85 1907760 1990066 2356530 2402416 1977060 1886510
1624.74 1890276 1891302 1890066 1914552 2004410 2231066
1627.64 2227260 2053582 2032000 2039688 2063880 2101326
1630.53 2121832 2144448 2183164 2225094 2256886 2319384
1633.42 2382154 2629978 3076896 3822954 3843224 2928630
1636.31 2673888 2874208 2888890 2737098 2701610 2719152
1639.21 2759518 2815906 2843740 2874770 2914818 2966368
1642.10 2998552 3015238 3056046 3078308 3155344 3225204
1644.99 3767358 4507406 3920296 3530360 3726078 3657110
1647.89 3620346 3428318 3327994 3364048 3368566 3428444
1650.78 3478902 3931634 5193940 5569628 5752656 4923226
1653.67 4013480 4074756 3527996 3316846 3264314 3223670
1656.56 3187078 3161846 3127514 3106146 3088450 3077080
1659.46 3051152 3045942 3033778 3050016 3041988 3305838
1662.35 3584372 3221156 2939564 2929280 2900516 2888860
1665.24 2860194 2851460 2841902 2848794 2882452 2982756
1668.13 3070568 3584130 3614594 3025662 2878050 3031550
1671.03 3204132 3028910 2860458 2863188 2872864 2943066
1673.92 3036184 3631248 4023352 3455280 3074616 3036172
1676.81 3017950 3048322 3064346 3093456 3152784 3265478
1679.71 3354604 3380810 3320290 3359012 3406038 3634144
1682.60 4061146 4244714 4343096 5550866 5877096 4380274
1685.49 3894700 3934540 3954192 4030648 4139488 4257498
1688.38 4239350 4290290 4454046 4525090 4484308 4536288
1691.28 4624918 4689238 4759212 4827756 4920670 5021880
1694.17 5173970 5593212 7022378 7213400 5762080 5388558
1697.06 5464756 5400640 5448726 5515686 6194330 7067084
1699.95 7032880 6446542 5638448 5296322 5254952 5208096
1702.85 5168124 5228954 5481012 5364312 5048242 5021978
1705.74 5171112 4982040 4673590 4551648 4434296 4351966
1708.63 4284008 4247076 4242932 4121656 3943794 3831824
1711.53 3723156 3617324 3517280 3445320 3456938 3336934
1714.42 3527586 3463496 3033100 2884982 3288750 4343654
1717.31 3740990 3022762 3126766 2662614 2434444 2380332
1720.20 2351392 2325550 2278846 2253204 2252776 2287488
1723.10 2304400 2244056 2213702 2191514 2181930 2193090
1725.99 2211460 2207458 2202338 2209918 2228410 2255308
1728.88 2317890 2479972 2479944 2374916 2371524 2438678
1731.77 2501898 2760518 3695634 3604182 3599242 4060192
1734.67 3263770 2852852 2874898 2871996 2913078 2955088
1737.56 2975162 3019274 3091752 3509288 3718160 3284672
1740.45 3128782 3182290 3250602 3408908 3695346 4043970
1743.34 4302632 4296880 3986720 3764550 3754044 3733672
1746.24 3788324 3914508 3934920 4075598 4315354 4359868
1749.13 4353288 4394202 4568376 5125974 5186338 4585740
1752.02 4388082 4385180 4354704 4350682 4334024 4288548
1754.92 4284212 4269512 4428430 4612278 4420858 4327790
1757.81 4369862 4345934 4281962 4192434 4132464 4072938
1760.70 4112246 4421558 4237586 3789654 3650430 3539974
1763.59 3467310 3385028 3291708 3195486 3111526 3034620
1766.49 2969148 2954152 3265190 3201500 2759718 2662880
1769.38 2603458 2537856 2648004 2862448 2622958 2956372
1772.27 3457248 2749212 2285622 2244886 2171602 2211394
1775.16 2257216 2177380 2096202 2088844 2071734 2083100
1778.06 2099486 2146614 2154058 2173336 2336276 2365042
1780.95 2268312 2277214 2310370 2351482 2412876 2463814
1783.84 2572970 2847408 2866936 2773522 2822490 2888406
1786.74 2984930 3077270 3187956 3294784 3396046 3518736
1789.63 3671758 3938944 4171806 4156318 4410516 5100432
1792.52 5076278 4753846 4873452 5040466 5225028 5426266
1795.41 5671082 5851986 6030578 6264252 6475968 6690538
1798.31 6919110 7266090 7555378 7611366 7791920 8089892
1801.20 8252134 8452936 8646516 8721548 8858676 8996632
1804.09 9117318 9239668 9336090 9411846 9500248 9580026
1806.98 9671096 9727106 9757860 9819624 9853810 9895244
1809.88 10025150 10015550 9857222 9790688 9743772 9644072
1812.77 9483858 9353494 9290100 9202042 9133334 9078924
1815.66 8983032 8852744 8715210 8539852 8309172 8055404
1818.56 7789422 7517088 7239862 6968932 6704086 6441650
1821.45 6202402 5982166 5770090 5562824 5423324 5284462
1824.34 5310002 5327324 5013622 4793558 4705614 4611682
1827.23 4529076 4430050 4420530 4396322 4408372 4481484
1830.13 4195668 3938468 3853336 3761334 3704926 3642898
1833.02 3586728 3503554 3420422 3342336 3245404 3138730
1835.91 3053232 2995414 2907928 2782964 2702270 2644050
1838.80 2571784 2492312 2409950 2363678 2325378 2311782
1841.70 2299024 2280256 2276638 2493826 3009608 2775100
1844.59 2278548 2225904 2202918 2218348 2204672 2252496
1847.48 2278598 2226482 2230076 2244884 2254430 2262852
1850.38 2264090 2264854 2269532 2291454 2300404 2317216
1853.27 2333896 2330304 2325280 2336970 2350170 2366460
1856.16 2375534 2379434 2389180 2403890 2418424 2411412
1859.05 2407694 2418526 2423074 2414164 2394364 2380990
1861.95 2371382 2362920 2358562 2345768 2335908 2320850
1864.84 2314222 2349500 2373618 2330812 2312932 2392340
1867.73 2355208 2335142 2541418 2427354 2171442 2146374
1870.62 2095478 2044374 2031838 2010586 1985306 1963084
1873.52 1949034 1939870 1910506 1882690 1873316 1857870
1876.41 1814708 1783970 1759166 1758058 1751870 1752312
1879.30 1750362 1728638 1732848 1735194 1730882 1727710
1882.20 1721054 1724360 1734854 1768932 1787010 1782298
1885.09 1782590 1790046 1806584 1818224 1842926 1877282
1887.98 1897164 1973204 2127974 2109396 2025202 2050812
1890.87 2076372 2110076 2164178 2219076 2260696 2310576
1893.77 2362070 2435198 2507294 2525262 2563612 2624102
1896.66 2690726 2761292 2808296 2885308 2983324 3053106
1899.55 3121292 3207272 3307754 3392990 3473108 3588486
1902.44 3701452 3808900 3939292 4066222 4193816 4315688
1905.34 4447864 4604104 4765518 4927686 5098278 5262938
1908.23 5414430 5584268 5803946 6013646 6176344 6357174
1911.12 6559570 6769482 6981802 7204442 7415070 7619458
1914.02 7845164 8078654 8298646 8521442 8781242 9038064
1916.91 9336214 9790602 9971408 10015090 10230480 10461620
1919.80 10691930 10889810 11096280 11302070 11528170 11753000
1922.69 11951560 12069040 12162330 12272360 12379500 12470910
1925.59 12529460 12568990 12587990 12581150 12554260 12521060
1928.48 12457360 12389030 12320980 12232840 12116270 11987910
1931.37 11872240 11730500 11558670 11363980 11161110 10931670
1934.26 10693640 10452360 10178880 9907812 9628740 9351688
1937.16 9114976 8874476 8627092 8364852 8067170 7762656
1940.05 7434108 7093678 6737580 6414064 6149782 5748822
1942.94 5316020 4981130 4673828 4414552 4189528 3986978
1945.84 3807824 3648336 3504442 3419984 3368654 3308440
1948.73 3259460 3224190 3204352 3180970 3163136 3170356
1951.62 3178110 3197600 3225096 3250808 3288222 3329270
1954.51 3372774 3412316 3448452 3497370 3574706 3647930
1957.41 3700620 3755118 3792778 3851370 3938608 4011098
1960.30 4067068 4122680 4182886 4233196 4278290 4336310
1963.19 4371946 4409070 4463372 4500398 4515100 4538940
1966.08 4560134 4607592 4631738 4572208 4547048 4547914
1968.98 4535760 4509838 4479682 4453086 4429140 4404506
1971.87 4342978 4279832 4242524 4174936 4098842 4001592
1974.76 3908102 3850764 3797768 3736022 3651496 3577260
1977.66 3498098 3395954 3306950 3208144 3077702 2957980
1980.55 2846950 2737796 2637544 2537542 2433344 2333740
1983.44 2246030 2161972 2088306 2023704 1949496 1877446
1986.33 1824106 1764476 1705134 1671376 1625934 1574610
1989.23 1544430 1499124 1458382 1443650 1468762 1455856
1992.12 1383998 1341498 1304604 1271432 1243158 1230430
1995.01 1219506 1200360 1207448 1201388 1152228 1140012
1997.90 1155888 1138930 1123042 1117542 1112176 1098666
2000.80 1087100 1089618 1076540 1077434 1089432 1080152
2003.69 1068720 1066452 1067712 1061700 1061616 1070856
2006.58 1071374 1084028 1095826 1088452 1083904 1079958
2009.48 1079762 1081280 1088918 1098948 1101880 1096348
2012.37 1081266 1086818 1105560 1100314 1108254 1134910
2015.26 1133020 1140066 1167544 1161614 1165322 1176212
2018.15 1165080 1162236 1170016 1188500 1205106 1203464
2021.05 1195900 1214840 1237886 1254830 1271880 1276826
2023.94 1301686 1326290 1330006 1347242 1377220 1403978
2026.83 1422660 1442912 1465212 1484218 1503402 1543176
2029.72 1579626 1593292 1629800 1669194 1692764 1727958
2032.62 1776242 1817648 1849548 1883618 1947494 2003584
2035.51 2049806 2101364 2150092 2200654 2256980 2334902
2038.40 2384108 2433722 2516760 2581952 2644400 2715636
2041.29 2765628 2817456 2886904 2953872 3003094 3055766
2044.19 3122594 3182194 3233338 3283100 3340414 3390836
2047.08 3442948 3482684 3511526 3560228 3610770 3631086
2049.97 3638210 3662890 3690386 3699184 3693936 3698986
2052.87 3698482 3680618 3661104 3648962 3628230 3597736
2055.76 3571340 3528148 3471714 3413302 3365200 3295514
2058.65 3205532 3118220 3027994 2943844 2842518 2738816
2061.54 2645556 2577278 2502288 2402182 2288480 2206718
2064.44 2138136 2049126 1972012 1887164 1804554 1726480
2067.33 1664392 1601644 1529318 1481216 1438354 1388810
2070.22 1350404 1321568 1294862 1257176 1246660 1257714
2073.11 1229228 1202298 1193448 1188828 1186212 1187532
2076.01 1182632 1183776 1188644 1191230 1206436 1219940
2078.90 1232500 1258914 1286704 1287928 1299936 1322540
2081.79 1330974 1354124 1381292 1394530 1410966 1410812
2084.69 1435380 1483098 1509060 1532558 1563808 1589742
2087.58 1623536 1669864 1700110 1744472 1797480 1808470
2090.47 1814592 1858114 1914240 1938186 1949296 1989812
2093.36 2044464 2094070 2130166 2171414 2212450 2243336
2096.26 2273246 2311684 2370510 2420186 2446046 2480118
2099.15 2502120 2534410 2579550 2607236 2659564 2703300
2102.04 2731554 2766992 2796592 2821296 2833768 2847218
2104.93 2874012 2903406 2905528 2906874 2922568 2913872
2107.83 2901024 2885172 2847798 2812296 2776858 2732492
2110.72 2688276 2624798 2574886 2534524 2498366 2472244
2113.61 2435492 2384672 2338360 2322118 2272944 2222068
2116.51 2177104 2133678 2105694 2061928 2034880 2002582
2119.40 1962128 1933404 1907172 1881500 1850332 1838716
2122.29 1830760 1819822 1814448 1810972 1803852 1796898
2125.18 1794332 1790430 1801610 1806576 1799920 1816998
2128.08 1834966 1831654 1830180 1839494 1869532 1891324
2130.97 1892708 1904778 1922638 1928582 1926122 1930166
2133.86 1935358 1938080 1958540 1994878 2012028 2022084
2136.75 2047068 2067894 2079992 2094994 2103124 2103684
2139.65 2106596 2101598 2110710 2113654 2103888 2130216
2142.54 2151558 2145106 2154820 2175800 2178564 2178562
2145.43 2181400 2186374 2217652 2223638 2208834 2226612
2148.33 2233744 2241644 2265708 2280728 2288546 2294240
2151.22 2302696 2321784 2355800 2380624 2413180 2451246
2154.11 2486544 2510866 2531674 2572704 2588798 2595592
2157.00 2631268 2671776 2705084 2722426 2736262 2772836
2159.90 2795724 2820214 2857198 2888212 2924430 2954266
2162.79 2970436 2980514 2998926 3020850 3041192 3078848
2165.68 3112648 3132086 3167030 3189858 3202318 3217408
2168.57 3217498 3225432 3235818 3261322 3294416 3315770
2171.47 3336646 3347136 3361998 3372082 3399940 3438090
2174.36 3449130 3470708 3504602 3542752 3574836 3602354
2177.25 3633164 3644620 3665302 3701622 3743160 3781870
2180.15 3825360 3876008 3922880 3987604 4050602 4108210
2183.04 4167766 4238314 4313424 4370010 4433404 4508630
2185.93 4573950 4639288 4713286 4779150 4839446 4922836
2188.82 5019272 5094358 5153686 5220572 5284880 5350822
2191.72 5424426 5482056 5527606 5562884 5592368 5601870
2194.61 5621424 5659506 5671776 5658212 5638024 5650166
2197.50 5651522 5621398 5604342 5574626 5540204 5511212
2200.39 5473512 5420846 5364826 5306640 5236496 5155158
2203.29 5072014 5001296 4911020 4810592 4720038 4633316
2206.18 4532718 4421588 4314928 4206060 4100028 3995132
2209.07 3904508 3808792 3679800 3552072 3458250 3350912
2211.97 3256874 3170652 3062838 2976870 2893650 2837202
2214.86 2773684 2675540 2602866 2552918 2487610 2427902
2217.75 2389132 2351022 2326142 2303226 2277650 2259434
2220.64 2241534 2240674 2234796 2215964 2208982 2222160
2223.54 2241144 2235778 2235458 2253746 2260038 2264202
2226.43 2275998 2292690 2307574 2329136 2335116 2336100
2229.32 2362390 2418204 2457792 2464878 2495628 2531132
2232.21 2564200 2600548 2638366 2659058 2675252 2710994
2235.11 2736942 2760168 2782182 2797386 2800058 2814942
2238.00 2844622 2848818 2837320 2823096 2830022 2837706
2240.89 2822200 2811522 2803190 2791004 2790638 2782764
2243.79 2754838 2730778 2709780 2684352 2647538 2597190
2246.68 2563392 2540394 2509086 2477372 2450350 2426718
2249.57 2414210 2403578 2390318 2382382 2388900 2370610
2252.46 2339686 2324482 2305100 2302606 2307384 2308200
2255.36 2309676 2322678 2335234 2352880 2380122 2414896
2258.25 2453760 2501996 2556494 2607658 2660214 2699226
2261.14 2748602 2820786 2870726 2904458 2977828 3065086
2264.03 3118614 3195192 3291832 3370052 3430892 3470678
2266.93 3516278 3571184 3634508 3709880 3777964 3821472
2269.82 3852732 3922990 3993936 4028818 4066852 4092702
2272.71 4113788 4154724 4190856 4205950 4204614 4205248
2275.61 4196788 4179460 4182222 4194238 4184542 4144650
2278.50 4105692 4090486 4057040 4015320 3993506 3950814
2281.39 3917176 3892258 3851200 3810502 3762596 3708888
2284.28 3667586 3645658 3593354 3514170 3461732 3426220
2287.18 3364278 3277236 3198376 3120478 3045054 2987694
2290.07 2925612 2866922 2807514 2748798 2719340 2675254
2292.96 2611320 2553298 2505266 2435986 2367104 2306148
2295.85 2246472 2202090 2164196 2130020 2078644 2022114
2298.75 1971084 1913170 1861168 1822834 1800026 1768456
2301.64 1733146 1725358 1714646 1682520 1675742 1681528
2304.53 1667278 1644088 1649538 1657170 1650080 1648692
2307.43 1636238 1676334 1707730 1689302 1697306 1723246
2310.32 1743264 1755160 1774604 1795170 1825980 1844534
2313.21 1843786 1854238 1890896 1936808 1927748 1922478
2316.10 1971768 2015818 2038608 2051700 2069258 2116122
2319.00 2154154 2172806 2209324 2259094 2290932 2304770
2321.89 2325996 2388568 2409102 2391846 2428950 2493070
2324.78 2529584 2512518 2533786 2596986 2625002 2630774
2327.67 2680768 2741978 2732502 2719970 2778464 2841068
2330.57 2836044 2813216 2876358 2929012 2906856 2927166
2333.46 2991032 2983914 2902874 2933508 3015482 2984560
2336.35 2957408 3031846 3077772 3030322 3008706 3049708
2339.24 3028044 2975504 2989308 2977880 2915792 2887048
2342.14 2893980 2854334 2806892 2805220 2788868 2736826
2345.03 2717368 2717582 2684740 2636866 2626130 2600480
2347.92 2542794 2516238 2494084 2474280 2450088 2419270
2350.82 2388652 2356308 2333352 2324710 2295494 2269122
2353.71 2261558 2220668 2148556 2137808 2126426 2055898
2356.60 2046198 2010598 1921042 1918604 1881434 1830118
2359.49 1859764 1804370 1774486 1812522 1745304 1750790
2362.39 1795318 1751718 1785624 1802130 1767618 1797660
2365.28 1776932 1770970 1816784 1798694 1824738 1840586
2368.17 1848236 1875172 1866052 1905958 1919556 1944650
2371.06 2007416 2016746 2035388 2038824 2055496 2081244
2373.96 2075830 2085874 2122346 2146186 2173698 2189804
2376.85 2189996 2217850 2243370 2289024 2306860 2303950
2379.74 2308184 2313908 2322352 2334242 2335838 2334058
2382.64 2359782 2366480 2357752 2349384 2343132 2343610
2385.53 2352098 2344160 2333412 2339698 2318608 2306164
2388.42 2304396 2281622 2251076 2224632 2208740 2210238
2391.31 2212606 2205586 2183320 2151450 2121320 2101530
2394.21 2086576 2059086 2038682 2037096 2031282 2009180
2397.10 1984758 1960348 1933470 1902926 1895428 1912242
2399.99 1897798 1879140 1895184 1893054 1877720 1872112
2402.88 1859098 1855208 1856734 1853802 1860480 1860268
2405.78 1876104 1864054 1830650 1840000 1843104 1834116
2408.67 1834662 1827466 1832398 1836526 1822446 1825504
2411.56 1836224 1826174 1808930 1799648 1794954 1804968
2414.46 1813936 1799460 1757446 1743322 1764386 1764864
2417.35 1742918 1722102 1713662 1711138 1719246 1721296
2420.24 1705474 1692958 1697354 1712888 1727396 1729936
2423.13 1720260 1716648 1733664 1746556 1750826 1761846
2426.03 1788206 1822768 1817166 1825252 1873634 1910198
2428.92 1957442 1990870 2009808 2042208 2074448 2118920
2431.81 2171662 2213642 2240900 2262960 2301146 2359232
2434.70 2396056 2411138 2446988 2505498 2551362 2589710
2437.60 2626460 2654842 2693046 2732486 2768588 2802550
2440.49 2819870 2840056 2883530 2912006 2923662 2955518
2443.38 2979686 2980002 2993310 3001660 2993538 2985372
2446.28 2985002 2966476 2955694 2978024 2974794 2936694
2449.17 2899682 2862806 2833336 2817980 2785916 2765360
2452.06 2748438 2705716 2651314 2617852 2606992 2576642
2454.95 2528096 2488010 2461318 2435146 2417800 2398572
2457.85 2366428 2336308 2312162 2294784 2268358 2242450
2460.74 2238874 2204694 2151040 2119144 2098204 2068920
2463.63 2039562 2017570 1996490 1971780 1946656 1931168
2466.52 1915630 1899850 1881390 1848608 1829690 1835554
2469.42 1822280 1814096 1805758 1790836 1783218 1765998
2472.31 1768826 1754502 1728562 1724818 1713316 1703200
2475.20 1701808 1701194 1695746 1672876 1645780 1637294
2478.10 1609684 1571328 1563150 1564314 1528314 1488298
2480.99 1475954 1471298 1456268 1442304 1423350 1414312
2483.88 1416300 1400358 1380156 1360536 1348132 1334134
2486.77 1327884 1334572 1322286 1313134 1302512 1267712
2489.67 1258170 1269308 1257266 1253488 1247884 1233044
2492.56 1239500 1217014 1195014 1188596 1163216 1157256
2495.45 1152388 1122632 1100930 1079682 1057944 1056682
2498.34 1047660 1028918 1011686 1007234 1002058 989932
2501.24 987786 972194 933434 910004 901390 892388
2504.13 884634 877704 884428 876590 854654 846848
2507.02 870984 888832 854660 835198 850798 870972
2509.92 870646 862396 876314 881052 882876 874538
2512.81 851400 870720 898642 904274 910064 912316
2515.70 927804 943688 932924 928822 943468 966402
2518.59 947402 938230 968576 957108 948196 970598
2521.49 972958 944954 953146 952488 945214 944876
2524.38 934646 935932 926850 925008 935790 941290
2527.27 958230 963082 950856 969122 972458 936834
2530.16 923584 941128 945138 948964 941474 920580
2533.06 932124 945246 930946 913908 927070 944786
2535.95 952366 951502 949854 968652 973920 970906
2538.84 992350 1007010 1004128 1025510 1040714 1043914
2541.74 1050612 1064848 1077516 1079510 1103076 1124714
2544.63 1147128 1174060 1198648 1218512 1201576 1208236
2547.52 1258920 1293498 1315400 1324846 1332846 1365012
2550.41 1370852 1377254 1398754 1409840 1428728 1457948
2553.31 1496156 1519174 1547252 1559962 1565730 1581710
2556.20 1591332 1619804 1655994 1667638 1691104 1713664
2559.09 1726910 1738148 1746398 1752856 1772068 1803900
2561.98 1815886 1825468 1840668 1858230 1868050 1881758
2564.88 1904024 1914944 1924394 1948134 1965410 1975658
2567.77 1985342 2008744 2028850 2033060 2041592 2061244
2570.66 2075062 2076760 2098070 2121732 2124482 2107032
2573.56 2099766 2113702 2134172 2144226 2156606 2192586
2576.45 2194336 2200884 2242374 2256538 2265366 2277600
2579.34 2253742 2270768 2317086 2318682 2328012 2355412
2582.23 2375846 2386426 2405162 2439130 2465176 2473264
2585.13 2522484 2545662 2552660 2613198 2643388 2658304
2588.02 2703746 2757790 2832482 2900512 2942468 2974542
2590.91 3023608 3085978 3133748 3188010 3242020 3322454
2593.80 3407548 3497566 3580998 3636474 3707296 3809642
2596.70 3905164 3990112 4099284 4199590 4279022 4379692
2599.59 4486720 4582072 4692106 4803892 4901766 5009888
2602.48 5130514 5247170 5353748 5458588 5600838 5761308
2605.37 5889960 5997448 6122402 6263132 6412016 6543050
2608.27 6674726 6822544 6990792 7141144 7292012 7453312
2611.16 7583380 7725680 7864542 8024458 8194238 8306340
2614.05 8433954 8588382 8726074 8883904 9036930 9172130
2616.95 9293256 9388884 9502180 9608188 9692312 9805920
2619.84 9926980 10018390 10088880 10158560 10225770 10290330
2622.73 10376010 10468630 10514180 10540340 10555900 10572260
2625.62 10586830 10592070 10579920 10525070 10462390 10420440
2628.52 10373820 10295270 10180080 10069140 9955814 9826106
2631.41 9709854 9607038 9496858 9357054 9219360 9072886
2634.30 8915246 8756640 8612152 8476964 8316204 8165968
2637.19 8020070 7868608 7707154 7582258 7465774 7317694
2640.09 7163166 7018708 6897290 6784720 6663566 6544626
2642.98 6422796 6290858 6192624 6121256 6029732 5937916
2645.87 5867398 5805788 5731756 5658722 5633432 5603700
2648.77 5544378 5445216 5411532 5450020 5438806 5409418
2651.66 5370572 5316302 5290226 5305466 5313762 5295078
2654.55 5291636 5298484 5279810 5258336 5253652 5269258
2657.44 5299268 5303600 5301196 5303526 5287806 5278662
2660.34 5280582 5278366 5274080 5273268 5298162 5316856
2663.23 5315068 5319522 5333646 5334298 5304770 5304098
2666.12 5320362 5310434 5281684 5268612 5264930 5263290
2669.01 5253190 5241022 5253438 5239848 5205800 5190780
2671.91 5183082 5167386 5160634 5171804 5169768 5154842
2674.80 5144370 5132078 5138908 5133532 5118158 5109120
2677.69 5099414 5081362 5076872 5089504 5073196 5058364
2680.59 5069034 5094534 5109232 5097502 5097842 5099306
2683.48 5102404 5130760 5156694 5129554 5114578 5124050
2686.37 5113734 5129678 5139240 5142776 5168384 5175686
2689.26 5178916 5207776 5228978 5249760 5257062 5277932
2692.16 5332838 5366426 5372732 5405272 5434410 5461318
2695.05 5508168 5564552 5598624 5645018 5697062 5760450
2697.94 5848812 5910354 5993124 6090938 6186910 6296636
2700.83 6421468 6545960 6687630 6836916 7012942 7203866
2703.73 7379200 7552114 7760038 7986836 8241686 8493936
2706.62 8754860 9050356 9332746 9648188 9971326 10298740
2709.51 10632570 10969800 11337380 11708630 12072900 12428360
2712.41 12792360 13194500 13579020 13949610 14341440 14732240
2715.30 15118380 15493460 15843220 16185440 16554620 16938220
2718.19 17314300 17692390 18046900 18336320 18583500 18813760
2721.08 19002080 19140830 19251730 19399810 19579250 19790510
2723.98 20031260 20258400 20473140 20664550 20839890 20988210
2726.87 21146500 21308550 21446620 21605480 21784450 21915310
2729.76 21987800 22044780 22129950 22147270 22130090 22174660
2732.65 22203180 22183490 22161400 22126950 22032030 21950350
2735.55 21893680 21819860 21754150 21687500 21642620 21606120
2738.44 21548220 21491760 21428190 21353640 21259350 21146380
2741.33 21043570 20916890 20746490 20602680 20453060 20317030
2744.23 20193040 20021470 19846960 19609760 19335080 19066970
2747.12 18788110 18546800 18304820 18065540 17833740 17640250
2750.01 17472050 17314030 17162650 16945370 16732260 16564670
2752.90 16393680 16262420 16114810 15930200 15796000 15706440
2755.80 15620850 15571550 15537410 15503110 15460510 15417300
2758.69 15414040 15434810 15485420 15550240 15663970 15810820
2761.58 15936060 16087650 16288610 16480460 16655010 16821790
2764.47 16979040 17120780 17291160 17445930 17567780 17733710
2767.37 17935660 18160750 18380220 18554340 18703500 18870090
2770.26 19062000 19262040 19428870 19556360 19671820 19763120
2773.15 19877320 20009210 20126030 20239960 20362280 20456340
2776.05 20473400 20443530 20378450 20309280 20247380 20171750
2778.94 20114360 20077800 20056240 20058270 20032460 20015350
2781.83 20004460 19958440 19899890 19808560 19738140 19647550
2784.72 19508800 19409810 19276440 19124130 19010490 18879480
2787.62 18730550 18605350 18468890 18350780 18287830 18212890
2790.51 18104480 17996430 17927750 17867620 17771570 17717290
2793.40 17710470 17671400 17647170 17646510 17629560 17626480
2796.29 17625200 17641590 17687380 17727760 17776490 17824630
2799.19 17893110 18029880 18226010 18346150 18495350 18679560
2802.08 18848340 19068950 19297520 19547000 19836370 20126590
2804.97 20418610 20711670 20995520 21312870 21595480 21872430
2807.87 22175220 22456560 22745710 23050600 23357870 23658370
2810.76 23991760 24385710 24794290 25196870 25579540 26014390
2813.65 26464110 26862520 27221920 27571370 27967210 28389420
2816.54 28817800 29237760 29688340 30152770 30564800 30995430
2819.44 31440640 31863540 32272460 32654870 33031360 33452420
2822.33 33844140 34203820 34592580 34961340 35330150 35702690
2825.22 36052130 36411360 36777640 37109360 37471850 37865260
2828.11 38243640 38642910 39105120 39593240 40050570 40524240
2831.01 41009200 41524980 42046000 42572520 43133400 43713700
2833.90 44295170 44901300 45531500 46161450 46857890 47559560
2836.79 48253200 48936810 49620320 50383370 51153360 51922860
2839.69 52710480 53431640 54149230 54868460 55636380 56470390
2842.58 57219100 57999290 58823790 59627430 60421470 61202430
2845.47 62037580 62923740 63857980 64823210 65757020 66738080
2848.36 67788740 68795770 69839480 70932570 72017020 73116230
2851.26 74243750 75431620 76666260 77939460 79272620 80596830
2854.15 81961980 83392750 84890570 86479860 88132760 89925980
2857.04 91832280 93739400 95712370 97892080 100162400 102465000
2859.93 104943500 107643700 110542300 113572900 116762500 120100900
2862.83 123542200 127210000 131043600 135055300 139207300 143554000
2865.72 148237500 153007900 157926900 163076700 168415800 173967800
2868.61 179602200 185421900 191460700 197639100 203878800 210047300
2871.51 216151200 222311000 228535100 234632500 240707400 246780500
2874.40 252611200 258325300 264238500 270401700 276726000 283398800
2877.29 290671800 298472700 306365100 313810800 320568500 326203400
2880.18 330477400 333925100 337018400 340035600 343229800 346595500
2883.08 349837100 353049000 356259300 359323000 362036100 364447700
2885.97 366575500 368249000 369735000 370992700 372070400 373044000
2888.86 374083100 375030600 375928800 376898000 377796100 378666300
2891.75 379495000 380541200 381700900 382704300 383393100 384266600
2894.65 385371400 386420800 387392300 387835700 387689100 387178400
2897.54 386298100 384828600 382969300 380890900 378430400 375750400
2900.43 373140200 370372400 367232300 364227200 361192700 358035500
2903.32 355016200 351938900 348794700 345837700 342827900 339704700
2906.22 336580500 333115700 329378700 325432100 321351500 317448400
2909.11 313895800 310680200 307588800 304420700 301282000 298092200
2912.00 294800300 291416200 287934300 284391800 280776400 277372900
2914.90 274083300 270794000 267718300 264705000 261646000 258643300
2917.79 255820100 253263800 250812000 248284600 245842500 243505900
2920.68 241371500 239407400 237716300 236473100 235562600 234888600
2923.57 234679800 234949700 235511200 236581100 238086300 239931000
2926.47 242338300 245290300 248648000 252388400 256363400 260617800
2929.36 265316500 270327000 275407000 280533200 285627800 290525500
2932.25 295411300 300191700 304451800 308212200 311517200 314601700
2935.14 317638000 320437300 323190400 326048200 329209800 332756800
2938.04 336507100 340223000 343708300 346546900 348634400 350100900
2940.93 350936100 350958600 350438700 349700300 348924800 348286700
2943.82 347884300 347647100 347128800 346292900 345074700 343254400
2946.72 340771400 337884700 334630400 330862600 326582200 321979600
2949.61 317066000 312107600 307261300 302391100 297520600 292930900
2952.50 288691700 284769200 281233900 278036400 275152500 272615000
2955.39 270368300 268610800 267493000 266839400 266594100 267023100
2958.29 268216500 270135500 273151900 277191500 282250900 288586200
2961.18 296359000 305618500 315951300 327751200 341479600 357034400
2964.07 374388300 393525200 414253300 436572700 460756300 486645000
2966.96 513948600 542514800 571819600 602110100 632847700 663205700
2969.86 693568800 723920400 754080800 785449700 817920100 851982400
2972.75 889948300 931299700 977946500 1031585000 1091865000 1153590000
2975.64 1203385000 1223884000 1218412000 1216730000 1234737000 1267191000
2978.54 1306383000 1345849000 1379535000 1405407000 1426308000 1444991000
2981.43 1460868000 1471530000 1475364000 1472560000 1467267000 1464781000
2984.32 1455237000 1435756000 1416606000 1392775000 1363785000 1331717000
2987.21 1293526000 1253008000 1215107000 1179900000 1144788000 1108019000
2990.11 1069292000 1028401000 985153900 940287400 894715800 848792100
2993.00 802801000 756780700 710923400 665908700 622034700 579766800
2995.89 538902800 499742900 462999200 428113300 395091800 363995500
2998.78 334527300 306973300 281292800 257406000 235242000 214702500
3001.68 195772100 178401700 162561500 148101500 134901600 122986600
3004.57 112287300 102635700 94022130 86391920 79622820 73650970
3007.46 68333260 63675980 59589060 56032470 53015300 50353570
3010.36 47948480 45964180 44298190 42840040 41608850 40529810
3013.25 39608420 38865660 38233440 37688660 37257480 36849110
3016.14 36501700 36254800 36041920 35845670 35666830 35541540
3019.03 35435750 35311290 35162200 35026520 34944090 34844510
3021.93 34708380 34562020 34421370 34235230 34029260 33838070
3024.82 33633620 33405550 33099140 32811770 32535250 32198780
3027.71 31836190 31452260 31013290 30539360 30131730 29698380
3030.60 29168250 28667110 28152980 27584210 27012130 26443620
3033.50 25853710 25178700 24540820 23952760 23315230 22679660
3036.39 22061660 21449470 20815240 20189530 19587070 19018620
3039.28 18425360 17851460 17313710 16775430 16236540 15678880
3042.18 15204320 14774830 14332650 13877750 13403020 12958870
3045.07 12552780 12200750 11833750 11434160 11093690 10782580
3047.96 10471530 10154400 9871564 9657380 9423678 9200850
3050.85 9017752 8816954 8629656 8463970 8308072 8171692
3053.75 8049704 7928240 7837082 7739242 7689384 7614544
3056.64 7497906 7438306 7388096 7328220 7310216 7306266
3059.53 7262032 7236036 7181792 7141734 7116862 7123192
3062.42 7120794 7116450 7170130 7164466 7163372 7171340
3065.32 7173440 7169666 7169210 7203440 7230930 7277828
3068.21 7340610 7352054 7337958 7387750 7451314 7464968
3071.10 7480180 7537400 7590754 7658886 7722902 7731790
3074.00 7803264 7867900 7877644 7912968 7948474 7969490
3076.89 7989766 8039682 8121704 8181446 8242556 8282636
3079.78 8282888 8306216 8346584 8419308 8485536 8501184
3082.67 8487430 8470568 8472058 8514902 8551908 8585744
3085.57 8651856 8680596 8643712 8566816 8521512 8506146
3088.46 8458680 8461008 8430670 8392082 8397664 8336948
3091.35 8270304 8209318 8141350 8098498 8068522 8017612
3094.24 7904624 7796246 7761628 7722238 7629490 7534212
3097.14 7460204 7375892 7281060 7155604 7028868 6979904
3100.03 6921298 6830812 6743416 6640860 6540782 6437802
3102.92 6332308 6237676 6187302 6141772 6039578 5923090
3105.82 5833566 5792836 5736912 5671218 5572796 5501086
3108.71 5516404 5473072 5370042 5278846 5225138 5181808
3111.60 5169804 5135942 5076662 5031138 4973214 4937762
3114.49 4898530 4864058 4842156 4816062 4808038 4799834
3117.39 4776510 4765000 4748132 4736824 4723984 4692064
3120.28 4676522 4636140 4633580 4687186 4682740 4645564
3123.17 4653054 4643290 4621328 4606890 4592630 4593258
3126.06 4579644 4584044 4575422 4566998 4557032 4532902
3128.96 4506098 4514564 4526584 4500290 4496982 4523334
3131.85 4530198 4530926 4545666 4553632 4547626 4529526
3134.74 4495782 4464584 4482372 4497924 4523928 4548166
3137.64 4521500 4509370 4539680 4552430 4537066 4573660
3140.53 4589080 4582762 4611946 4605874 4620758 4642614
3143.42 4637584 4647170 4653368 4704384 4755030 4757828
3146.31 4755950 4780958 4828694 4839566 4856450 4884362
3149.21 4946134 5019124 5060914 5079546 5074160 5135928
3152.10 5210326 5228092 5273580 5359374 5405888 5429622
3154.99 5508046 5559656 5572358 5666856 5753192 5801344
3157.88 5882500 5958450 6051718 6155368 6220704 6319450
3160.78 6428430 6507578 6595586 6667674 6729542 6850792
3163.67 6986478 7058380 7151576 7251996 7355330 7478088
3166.56 7597332 7702754 7814750 7958532 8074924 8175950
3169.46 8278706 8400824 8499928 8603928 8726130 8826706
3172.35 8960832 9068828 9178010 9295420 9364696 9428316
3175.24 9491942 9582478 9666092 9751654 9869144 9966454
3178.13 10057660 10121510 10145570 10165230 10209670 10264080
3181.03 10293910 10293770 10308180 10322650 10325310 10354720
3183.92 10333440 10283140 10234050 10208630 10164990 10136730
3186.81 10124360 10048550 9997516 9944978 9868446 9794198
3189.70 9758478 9691796 9632118 9575414 9487640 9431910
3192.60 9354510 9241106 9187236 9117052 9034316 8981906
3195.49 8897600 8822072 8777216 8728000 8620888 8544478
3198.38 8532314 8517510 8449486 8391770 8373022 8338854
3201.27 8293946 8263856 8266036 8284346 8303540 8301174
3204.17 8263128 8265114 8262798 8252370 8309182 8343740
3207.06 8328410 8332732 8365774 8433878 8483638 8526530
3209.95 8590860 8660446 8686614 8709600 8755598 8798832
3212.85 8870968 8938450 8987950 9031612 9100300 9167276
3215.74 9207366 9256464 9289664 9326820 9402756 9448800
3218.63 9443238 9499562 9605770 9645302 9669672 9681908
3221.52 9745296 9820402 9832008 9851246 9908014 9951386
3224.42 9965934 9988262 9984546 10017400 10069210 10105680
3227.31 10107080 10092810 10109420 10104140 10123020 10143240
3230.20 10149520 10126910 10098870 10070550 10018330 9968654
3233.09 9957692 9960512 9904582 9861074 9803034 9713582
3235.99 9666062 9631206 9548920 9446820 9352886 9289168
3238.88 9210572 9088474 8971092 8865326 8758720 8602420
3241.77 8481452 8408014 8244970 8096948 7961408 7803736
3244.67 7637130 7445930 7286054 7170894 7062290 6923042
3247.56 6746482 6521696 6359272 6222178 6019166 5874100
3250.45 5735970 5561440 5422212 5273442 5093252 4942932
3253.34 4815896 4642596 4464860 4332342 4213506 4108854
3256.24 3988396 3862224 3759756 3631376 3535126 3457892
3259.13 3307850 3183760 3121746 3032210 2996480 2947452
3262.02 2819714 2717796 2688458 2666718 2610394 2542200
3264.91 2510376 2461656 2407320 2339258 2283272 2297578
3267.81 2291322 2280938 2184124 2115032 2160188 2132336
3270.70 2088728 2109128 2100250 2067308 2061122 2052178
3273.59 1989718 1973574 1995366 1995810 2014110 1984514
3276.49 1922530 1897882 1913422 1913860 1916872 1893218
3279.38 1842970 1874826 1885646 1817224 1807804 1840816
3282.27 1837558 1823942 1804286 1795952 1794110 1819580
3285.16 1856386 1827792 1778970 1782340 1779634 1768940
3288.06 1770290 1744026 1748952 1754956 1754308 1776170
3290.95 1775154 1756940 1749764 1752070 1776634 1801004
3293.84 1811320 1862234 1895086 1908550 1937448 1940832
3296.73 1951298 1972226 1984770 1999154 2032960 2095044
3299.63 2138296 2176740 2207794 2214482 2291836 2379598
3302.52 2430388 2500482 2528744 2533722 2607322 2669046
3305.41 2699392 2798592 2900072 3018796 3110846 3153332
3308.31 3218626 3269728 3353854 3444540 3516812 3588088
3311.20 3648860 3705826 3765724 3833998 3910378 3977212
3314.09 3991508 3972924 3981616 4059008 4108914 4116042
3316.98 4163444 4201198 4249606 4257206 4191820 4186470
3319.88 4189758 4136068 4131954 4161170 4137938 4137292
3322.77 4146866 4137886 4139606 4111532 4064042 4033986
3325.66 4015398 3952818 3910700 3892814 3841270 3813430
3328.55 3756240 3677142 3604874 3562186 3505266 3450412
3331.45 3462068 3398946 3311788 3238506 3125558 3054848
3334.34 3033308 3009732 2909390 2803268 2760598 2693202
3337.23 2637240 2601196 2560542 2498814 2432140 2364132
3340.13 2305722 2225110 2103286 2059100 2013056 1930190
3343.02 1902644 1877528 1808990 1757222 1708280 1629484
3345.91 1602742 1578128 1527346 1492558 1448892 1381604
3348.80 1300036 1293406 1295666 1233954 1196618 1203082
3351.70 1140790 1079338 1075168 1077456 1079744 1062758
3354.59 1055618 994966 929712 907452 894074 850506
3357.48 816360 861842 872476 854262 857750 834940
3360.37 819852 830314 825434 761074 755558 832204
3363.27 839946 822614 772556 736564 738166 725046
3366.16 729206 715634 701230 702838 690794 675784
3369.05 698662 743156 746832 745710 757028 757288
3371.95 726778 735356 781634 729782 691124 680958
3374.84 671388 705186 729852 754778 772906 735944
3377.73 739500 761748 755116 743634 700510 705462
3380.62 735734 765444 789784 804364 777438 775358
3383.52 772128 721742 725744 763896 808822 833828
3386.41 844708 885862 899098 847126 801976 818780
3389.30 838604 821456 819544 832316 817034 829944
3392.19 852598 870004 884780 904568 917130 940538
3395.09 962120 945142 962744 974974 970498 965840
3397.98 953528 936312 938552 985920 1030226 1022350
3400.87 998676 1006736 997044 999542 1091002 1109010
3403.77 1066964 1069928 1125880 1155548 1132056 1143236
3406.66 1147246 1180208 1212552 1176684 1179518 1221432
3409.55 1260538 1295560 1349938 1370280 1379052 1427676
3412.44 1483976 1521860 1519332 1546084 1585428 1629674
3415.34 1699698 1754786 1820844 1922648 1967396 1969302
3418.23 2030262 2090362 2142216 2244340 2305034 2329280
3421.12 2411892 2500420 2571372 2637088 2692824 2781026
3424.01 2808400 2808966 2872048 2953606 3013186 3027820
3426.91 3080132 3142522 3150144 3195146 3282438 3342236
3429.80 3411968 3427196 3405470 3408364 3386420 3410658
3432.69 3459726 3451850 3401574 3347456 3368700 3408844
3435.59 3377544 3351496 3359130 3348710 3282098 3230396
3438.48 3185460 3112472 3057798 2984870 2923646 2888442
3441.37 2812670 2748086 2706932 2670576 2583998 2508204
3444.26 2426462 2349394 2321074 2238204 2220356 2206546
3447.16 2107394 2052846 2001272 1897132 1840282 1778222
3450.05 1700998 1665424 1587408 1516842 1507362 1496454
3452.94 1431952 1370798 1322986 1252276 1226068 1205746
3455.83 1169498 1149370 1141998 1115162 1092386 1067780
3458.73 1030884 1001484 988532 984836 1001570 981652
3461.62 964042 974744 971734 968546 911356 888280
3464.51 914758 902870 898122 894508 908022 921156
3467.40 929104 959518 928326 923744 934832 935984
3470.30 960672 1003288 1072426 1097040 1064106 1081526
3473.19 1117190 1112750 1118926 1096386 1105074 1107012
3476.08 1126230 1204958 1233332 1210402 1206318 1213842
3478.98 1241814 1292084 1333024 1356818 1334780 1355474
3481.87 1394512 1358112 1334158 1335830 1362278 1387946
3484.76 1337356 1305252 1339666 1355740 1379624 1381140
3487.65 1330320 1330098 1331834 1318340 1324210 1334416
3490.55 1265848 1171166 1170370 1142054 1127086 1147696
3493.44 1106894 1088846 1087170 1030364 1001948 970734
3496.33 924546 894220 848626 800324 775948 796336
3499.22 761830 710246 697924 685982 668694 639086
3502.12 609028 613438 575308 558550 518648 423690
3505.01 368472 364392 366106 344104 329556 328288
3507.90 344532 310382 346060 323118 225086 200664
3510.80 187568 197686 172136 142752 158212 178606
3513.69 171610 123770 118766 127114 93942 70512
3516.58 84266 111562 86004 61276 73426 41494
3519.47 53324 80346 76594 76600 75692 80362
3522.37 123210 138100 138152 131742 75198 74262
3525.26 83980 71520 67206 77970 122488 104430
3528.15 61888 68126-2834-19916 36926 54230
3531.04 23118 24416 43040 14358 19556 50514
3533.94 19882-13272-24952-1358 72100 68046
3536.83 39902 36022 47672 20536-5440 6368
3539.72 44516 51990 34520 37404 55794 71636
3542.62 32618 18186 36332 50772 93028 132834
3545.51 80870 114932 223388 136822 66228 56052
3548.40 9406 44844 52886 54392 90112 74940
3551.29 143918 209270 115938 83996 86500 71818
3554.19 96560 92008 72318 65476 66336 36978
3557.08 21644 31276 49640 68350 102396 135382
3559.97 88592 52088 60398 49530 80378 94242
3562.86 81640 88068 69402 80318 156882 229754
3565.76 279170 274288 130108 252046 400632 202712
3568.65 77796 31762 41558 62182-17024-1758
3571.54 29354 27698 29946 25324 13936 29872
3574.44 47506 12410-1688-5900 27906 36742
3577.33 11760 7124 20718 39916 43968 44668
3580.22 40018 21694 11604 42724 59180 86272
3583.11 90800 65812 92712 98310 75336 193166
3586.01 435770 317298 149222 175178 390792 441208
3588.90 117508 10014 1286-16048 1242 55212
3591.79 28556 26732 125434 87112 52018 92572
3594.68 188860 155068 53962 53570 33264 37048
3597.58 69730 69894 38356 48968 71766 97926
3600.47 103062 64128 22358-6540 25190 36738
3603.36 11530-31450-41298-9864 9228 19468
3606.26 148968 216616 122336 54542 203604 646950
3609.15 439500 71124 82884 89384 102698 206122
3612.04 426844 290436 94930 140688 238502 215780
3614.93 151064 126958 97740 76014 265658 406036
3617.83 286962 186868 508774 733988 329282 159132
3620.72 210694 184866 158426 176326 207000 203386
3623.61 192576 159254 181674 225918 292854 290890
3626.50 324766 343572 779422 1170280 844998 1206362
3629.40 1105564 441710 387618 357180 339536 360248
3632.29 331806 354340 502636 407448 284064 311172
3635.18 307268 289958 274814 252610 276322 310296
3638.08 296496 284232 296494 299138 308722 344386
3640.97 438160 554816 639850 646826 526900 431914
3643.86 419458 401454 422238 465978 540546 674360
3646.75 877568 820606 536620 773856 1520264 1152484
3649.65 624320 845986 886270 757330 507594 422928
3652.54 403850 342176 328016 366898 415164 418884
3655.43 853048 1192776 673046 372630 387398 349464
3658.32 307874 294914 341580 343552 301926 320120
3661.22 362006 335328 305996 296412 304000 302296
3664.11 302206 301244 338518 355900 352418 342922
3667.00 357784 386734 720428 847352 609526 564778
3669.90 1294896 1751190 830372 400256 426814 411432
3672.79 428590 484690 669926 1171830 1225698 1487848
3675.68 1729996 814988 475130 523262 475708 455916
3678.57 572636 661574 501610 478576 510884 486896
3681.47 506428 496520 473748 506542 536432 558856
3684.36 586270 577648 574658 581898 587070 651602
3687.25 936552 2006722 2034224 980790 788142 819990
3690.14 854590 1147012 1091452 775156 736798 726544
3693.04 749540 740130 746406 743234 723782 743110
3695.93 802320 804506 806528 839714 867664 885676
3698.82 902452 934930 959348 972844 1171710 1451350
3701.72 1311210 1132702 1127984 1137074 1187240 1204674
3704.61 1267996 1329238 1368840 1441874 1486074 1497310
3707.50 1565170 1604012 1865320 2136220 1878822 1728676
3710.39 1898464 1940656 2527428 2867392 2137450 1834166
3713.29 1865486 1877858 1967232 1927272 1931202 1967592
3716.18 1937866 1918020 1916258 1924774 2036874 2103714
3719.07 2022266 1983594 1959306 1922746 1935896 2107224
3721.96 2159492 1979628 1863258 1826696 1791324 1798580
3724.86 1764888 1667396 1864310 1869644 1551468 1450296
3727.75 1377710 1307992 1259404 1261950 1224674 1202396
3730.64 1198358 1537822 2092150 1673080 1149082 1156950
3733.54 1224800 1430728 1567122 1457088 1177540 1612756
3736.43 1741596 1039138 915936 1011080 882394 793058
3739.32 749734 742202 833004 918822 809628 755450
3742.21 782054 896244 1257092 2317540 3191622 2160880
3745.11 1025412 815400 739106 816038 801480 806352
3748.00 874328 1710744 2458638 1543310 848376 914212
3750.89 904508 1883634 2491298 1340734 740342 747676
3753.78 655584 645696 631860 648490 786870 892098
3756.68 699896 628644 634672 639736 685736 887978
3759.57 910004 625532 565288 581690 576088 587282
3762.46 528216 536136 581540 575262 559408 750272
3765.35 877342 672368 587714 601918 588276 580620
3768.25 580408 702328 1110514 1068776 653974 599180
3771.14 620018 599174 577768 571658 575624 609728
3774.03 625202 613010 633768 655126 640572 653166
3776.93 677278 696992 699590 775326 1072678 1077988
3779.82 842250 789328 773164 780668 771472 786772
3782.71 798248 807404 896716 945038 907806 908350
3785.60 897688 894074 895548 901506 966786 1008838
3788.50 998870 974014 965388 979782 982906 1004082
3791.39 999610 992708 1027422 1059774 1069502 1112638
3794.28 1141258 1157018 1187502 1450022 1492438 1244252
3797.17 1189606 1211790 1216932 1235084 1235900 1335260
3800.07 1424134 2251554 2831196 1825756 1347362 1399568
3802.96 1308956 1299620 1241816 1199506 1229014 1273058
3805.85 1465808 2232236 2112520 1338928 1220578 1203754
3808.75 1167028 1178764 1179100 1184478 1209272 1202564
3811.64 1177552 1187732 1179152 1187244 1203168 1273026
3814.53 1300988 1746598 2796040 2338912 1356742 1251974
3817.42 1202934 1292914 1296892 1315036 1367674 1736612
3820.32 1999298 1917866 2069966 1691164 1344522 1356546
3823.21 1329664 1360100 1334276 1352076 1368470 1426216
3826.10 1601766 1587558 1458682 1448754 1388804 1375554
3828.99 1404072 1416810 1448114 1519024 1848762 1884800
3831.89 1547882 1472760 1467158 1483672 1580148 1944232
3834.78 1937168 1583666 1575150 1625932 1852032 2986780
3837.67 2891820 1740818 1525864 1603258 1630032 1619224
3840.57 1730492 1552302 1383552 1372176 1409188 1657960
3843.46 1687226 1422684 1368780 1366906 1336144 1327086
3846.35 1301612 1269482 1278076 1315142 1319262 1315118
3849.24 1383186 1383016 1422896 1458654 2211148 2852848
3852.14 2020448 1634534 2453902 3760546 3369074 1869290
3855.03 1393738 1398350 1430902 1513246 1520746 1391634
3857.92 1369856 1374548 1364454 1324636 1320204 1358626
3860.81 1487152 1691136 1540448 1415360 1445622 1474712
3863.71 1559900 1876072 2123932 1718176 1473492 1494714
3866.60 1457114 1481142 1519250 1609898 1893730 2076866
3869.49 2552482 2403604 1771696 1725736 1659232 1635838
3872.39 1686790 1767936 1943130 2107334 1936960 1745648
3875.28 1760830 1802180 1853856 1873958 1848910 1828742
3878.17 1910822 1949400 2076912 2420952 2416948 2263002
3881.06 2154714 2087296 2169212 2266364 2303122 2260370
3883.96 2285742 2385358 2948538 3194396 2686686 2463988
3886.85 2438822 2412254 2427532 2493396 2508976 2534282
3889.74 2560874 2741998 3191656 3058598 2690296 2605112
3892.63 2629158 2651646 2627686 2640026 2648694 2654640
3895.53 2632998 2586342 2607668 2669678 2710124 2684248
3898.42 2922166 3204582 2852362 2595510 2576532 2756870
3901.31 3120968 2879082 2568744 2505486 2734564 3068020
3904.21 2713496 2410736 2439874 2417578 2318656 2214192
3907.10 2170908 2111398 2075378 2051202 2032718 2033226
3909.99 2016056 1970586 1968780 1987702 1949600 1898022
3912.88 1844710 1827858 1847904 1856588 1833614 1830344
3915.78 1868122 1924300 2048026 1947346 1788612 1758612
3918.67 1719374 1829316 1957816 1855360 1745966 1765090
3921.56 1818128 1825404 1820342 1840064 1821372 1834524
3924.45 1907896 1909872 1847834 1817486 1790626 1801156
3927.35 1840922 1843612 1872114 1965122 1950208 1907272
3930.24 1946516 1972808 2019782 2133248 2162678 2071132
3933.13 2057080 2082118 2057352 2060810 2067614 2054878
3936.03 2069720 2090346 2104068 2115218 2147786 2195438
3938.92 2215120 2186900 2222206 2288836 2313910 2318952
3941.81 2419924 2521242 2397088 2319706 2367138 2401196
3944.70 2408766 2442124 2471088 2476736 2528784 2546534
3947.60 2546560 2547090 2539588 2663108 2737786 2681992
3950.49 2669324 2658770 2662472 2658452 2667992 2702580
3953.38 2708424 2691742 2702370 2768562 2802350 2762584
3956.27 2762230 2774428 2763346 2771138 2799296 2827624
3959.17 2824330 2813750 2812868 2842186 2853612 2828196
3962.06 2790764 2759612 2766794 2787450 2724472 2719480
3964.95 2749854 2696280 2701450 2681492 2623992 2661366
3967.85 2688368 2660030 2657094 2613564 2525508 2558430
3970.74 2609902 2574834 2575178 2562278 2500618 2471388
3973.63 2458328 2459456 2466378
##END=
