##TITLE=Ethyl tert-Butyl Ether
##JCAMP-DX=4.24
##DATA TYPE=INFRARED SPECTRUM
##CLASS=IUPAC A
##ORIGIN=NIST, Anayltical Chemistry Division, 301-975-3108
##OWNER=COPYRIGHT (C) 1998 by the U.S. Secretary of Commerce
##DATE=98/10/1
##$SPECTRA VERSION=1.00
##$UNCERTAINTY IN Y=2.8 % relative (B=1.9E-04,C=3.0E-09,D=2.7E-14)
##CAS NAME=tert-Butyl Ethyl Ether
##CAS REGISTRY NO=637-92-3
##MOLFORM=( C H3)3 C O C2 H5
##MP=-94 C
##BP=73.1 C
##$NIST SOURCE=QUANT-IR
##SPECTROMETER/DATA SYSTEM=IFS66V (Bruker)
##INSTRUMENT PARAMETERS=KBr Beam splitter; MCT Detector; Multipass cell
##STATE=gas
##SAMPLE DESCRIPTION=ETBE Primary Gas Standard
##PRESSURE=101.3 kPa
##TEMPERATURE=23 C
##SAMPLING PROCEDURE=1 L/min Flow
##RESOLUTION=1.9290
##DATA PROCESSING=3-Term B-H Apodization
##XUNITS=cm-1
##YUNITS=(micromol/mol)-1m-1 (base 10)
##XFACTOR=1.0
##YFACTOR=9.0949E-13
##DELTAX=0.9645
##FIRSTX=574.687
##LASTX=3974.595
##FIRSTY=-1.31E-07
##MAXX=3973.63
##MINX=574.69
##MAXY=.0013519
##MINY=-4.05E-07
##NPOINTS=3527
##XYDATA=(X++(Y..Y))
574.69-144490-145466-162404-240592-260104-172540
579.51-196898-343882-318872-200658-193650-339860
585.29-446136-315268-198160-191436-160202-107948
591.08-58714-62392-71528-119750-211192-174282
596.86-44990 2424-46118-102822-97958-75614
602.65-93622-115736-95128-53174 13142 112000
608.44 175234 186044 154010 108720 76588 58914
614.22 84082 126380 135460 127974 100908 93852
620.01 131030 153468 129142 106830 124288 141776
625.79 148002 148706 146828 159776 194792 197716
631.58 129848 94754 134626 163220 139348 94950
637.36 88358 93864 66796 46664 65420 64762
643.15 27286 16130 56296 116620 122170 96476
648.93 67740 38408 54812 63760 39142 29038
654.72 10314-2768 37106 82650 69418 17474
660.50-1958 29520 48390 28888 27288 52110
666.29 75402 100722 109620 95828 91006 88598
672.08 82678 80152 85750 90524 77102 99016
677.86 140146 146992 167728 226680 270956 280054
683.65 277266 301668 352586 384450 379620 372688
689.43 407750 463594 500482 531172 566032 587194
695.22 615996 661396 691090 689742 703182 760282
701.00 829374 891258 949890 1012522 1080620 1177666
706.79 1296624 1404044 1508388 1645944 1797840 1980274
712.57 2219950 2478748 2746034 3059744 3431376 3849896
718.36 4320712 4862644 5488874 6189782 6971410 7876232
724.14 8885692 9952712 11110530 12391730 13812190 15377630
729.93 17029010 18691980 20314920 21826320 23150200 24219280
735.71 24974330 25404450 25601840 25741000 26024340 26502950
741.50 26760190 25948710 24066080 22437800 21754760 21449510
747.29 20881610 19738120 18048540 16057500 13945860 11851620
753.07 9955540 8352598 7020650 5917766 5022980 4322464
758.86 3786592 3381566 3068000 2807670 2579886 2408354
764.64 2284816 2181082 2106562 2052212 2022218 2006560
770.43 1983848 1947460 1902858 1884954 1893322 1866770
776.21 1818798 1804038 1802268 1792486 1779082 1751924
782.00 1718944 1696258 1689530 1681566 1671138 1678210
787.78 1688932 1681112 1667742 1664924 1678958 1691506
793.57 1688790 1695696 1729584 1784388 1846158 1888910
799.35 1913438 1967892 2046326 2113530 2180350 2249686
805.14 2315726 2387868 2477682 2591718 2700738 2789774
810.93 2885132 2979688 3070634 3190524 3342608 3489522
816.71 3656784 3879404 4152122 4451154 4775630 5149720
822.50 5628618 6264062 7025036 7899350 8927398 10156220
828.28 11652780 13431290 15456060 17736250 20335990 23311250
834.07 26695160 30505240 34709720 39221980 43962160 48826640
839.85 53647340 58247410 62443400 66018250 68855670 71047700
845.64 72957360 75088230 77665820 79987360 79981780 76497460
851.42 72115560 69621620 68414550 66809560 63972550 59716630
857.21 54298830 48212810 41970470 36042740 30688350 25981380
862.99 21946320 18531110 15624090 13159520 11090890 9370108
868.78 7939780 6755830 5799162 5041162 4450158 4003672
874.57 3655892 3373414 3138474 2958486 2840306 2750264
880.35 2687000 2672914 2695882 2749086 2811258 2879222
886.14 2992440 3193376 3476518 3634094 3516374 3393198
891.92 3460718 3619538 3812676 4018894 4216334 4453050
897.71 4751414 5094928 5476536 5895864 6342582 6815552
903.49 7343580 7910428 8448424 8924154 9329334 9644818
909.28 9856946 9981574 10065680 10188110 10411640 10735010
915.06 10990990 10973540 10803100 10796870 10997810 11131480
920.85 10948650 10540440 10165840 9879644 9664112 9551402
926.63 9554174 9694682 9985750 10418800 10997070 11725380
932.42 12600480 13647400 14892140 16369580 18141010 20248410
938.21 22707300 25560560 28888210 32739530 37123930 42065530
943.99 47599780 53777190 60623630 68122460 76247260 84882980
949.78 93711490 102302900 110153800 116753800 121780400 125183100
955.56 127242300 128609500 130209000 132625800 134972700 134851900
961.35 130619200 123586500 117180900 113341800 110657300 106593400
967.13 99718070 89957840 78151390 65547330 53366570 42523710
972.92 33495280 26375130 20986540 17013530 14124800 12000130
978.70 10388280 9158422 8213166 7473656 6897764 6437612
984.49 6051410 5732672 5490168 5308316 5163990 5054752
990.27 4967542 4917148 4919106 4974152 5059286 5166006
996.06 5319014 5527584 5798548 6136572 6524956 6962506
1001.85 7469986 8069264 8752160 9492052 10297270 11202420
1007.63 12224240 13365080 14625270 16029270 17622120 19401320
1013.42 21316170 23333420 25407190 27435360 29291390 30814920
1019.20 31744360 31970970 31798010 31658570 31919500 32818990
1024.99 33818460 33454690 31679790 30324290 30016010 30015680
1030.77 29782730 29123150 27996130 26540770 25012610 23621510
1036.56 22497050 21720840 21307910 21230520 21464420 21992310
1042.34 22806230 23900730 25238720 26816480 28661680 30790010
1048.13 33195220 35907650 38994180 42520900 46556680 51177970
1053.91 56449020 62511720 69533320 77621070 86888580 97498860
1059.70 109631800 123451600 139143900 156992900 177173100 199776700
1065.48 224829300 252131900 281447100 312558200 345190400 378876100
1071.27 412872700 446605800 479379700 509611300 535311900 554992400
1077.06 568320100 576931900 583444700 589644600 595573100 598706800
1082.84 594648900 579571600 552850200 521352100 492938800 467648000
1088.63 441559900 410853600 373354100 329689300 282629500 236206700
1094.41 194582900 160594500 135422600 118850000 109784300 106862200
1100.20 108773100 114420000 123060300 134252800 147674500 163046100
1105.98 180241800 199064800 219127100 240144400 261957100 284281100
1111.77 306764800 328955600 350137200 369208100 384907800 396236400
1117.55 402857400 405483300 405427300 403625200 400062600 393423400
1123.34 381157400 362417100 341442000 323202700 307089400 289791600
1129.12 269227100 244917100 217948400 190190700 163589800 139600100
1134.91 118961700 101936700 88447780 78134340 70490370 64920320
1140.70 60928320 58155010 56396430 55582720 55531210 56009940
1146.48 56886640 58056090 59417760 60902980 62465200 64041700
1152.27 65576460 66991580 68247670 69393370 70454820 71384390
1158.05 72106310 72590240 72789610 72568710 71953520 71140150
1163.84 70273460 69405710 68539020 67710180 66983590 66398940
1169.62 65991230 65756470 65653350 65685800 65914110 66401460
1175.41 67241330 68488010 70142120 72294240 75132560 78831040
1181.19 83559490 89510870 96895700 105986100 117156100 130745800
1186.98 146980000 166069200 188259200 213707400 242224400 273298000
1192.76 306345600 340774000 376071200 411880800 448115600 485018600
1198.55 522693700 560302600 595644500 625788000 649254000 667405600
1204.34 683020900 697271100 708301700 714145900 712694400 700289500
1210.12 677273800 648574900 617189400 582224500 541748800 495169600
1215.91 444167500 391833400 341650600 296782200 259034800 228754200
1221.69 205458800 188270800 176164800 168085800 163069700 160328500
1227.48 159330800 159639100 160840000 162612100 164706200 166988300
1233.26 169353300 171730800 174116400 176467500 178741600 180886300
1239.05 182754100 184141100 184835700 184772300 184004400 182591900
1244.83 180693500 178517900 176283100 174195800 172306500 170502100
1250.62 168631100 166531500 164089700 161274800 158124700 154663200
1256.40 150841100 146673000 142247600 137621500 132781800 127608100
1262.19 121949900 115773000 109373600 103146400 97186770 91384020
1267.98 85632350 79901700 74253620 68752590 63488880 58564820
1273.76 54007960 49832280 46069010 42703170 39698290 37028020
1279.55 34676260 32597200 30741300 29101750 27667370 26401750
1285.33 25288810 24312670 23421840 22571290 21776210 21053210
1291.12 20399600 19812770 19273600 18761170 18252030 17729380
1296.90 17226030 16781260 16398120 16029640 15628260 15160300
1302.69 14613240 14028420 13450820 12900840 12409640 11983540
1308.47 11619360 11311130 11050980 10832660 10654690 10509290
1314.26 10385390 10277320 10170380 10055680 9950484 9856978
1320.04 9759148 9634636 9484526 9322422 9154956 9006396
1325.83 8900784 8827646 8753434 8644566 8536512 8486292
1331.61 8497922 8546124 8638226 8823572 9128012 9560534
1337.40 10170180 10988640 12040780 13411340 15253520 17717530
1343.19 20941940 25076560 30292610 36790580 44778680 54389150
1348.97 65668060 78638300 93214990 109112700 125984600 143434500
1354.76 160986800 178281800 195202400 211873600 228827400 246969800
1360.54 266836800 287532500 307955100 328881200 347523700 354818600
1366.33 348200500 334688400 319021000 302851600 288031700 273661100
1372.11 257145900 239447900 222864400 207343700 192267800 177875900
1377.90 164961500 154499000 147395300 144358900 145714800 151257400
1383.68 160165400 171093700 182638700 193698000 203521600 211015100
1389.47 214979300 217119500 221267300 228479000 235346700 236223400
1395.25 228624000 217823400 211871600 212027800 213074500 209796700
1401.04 199750800 183140100 162073200 139236400 116974100 97030060
1406.83 80302240 66926600 56590150 48750850 42842690 38353300
1412.61 34894260 32185990 30054280 28388390 27090870 26170260
1418.40 25398740 24404430 23510240 23001440 22740410 22588190
1424.18 22500070 22559330 22807630 23259050 23985710 24957620
1429.97 26109550 27533140 29255490 31170010 33260230 35619100
1435.75 37960720 39912560 41827290 43949440 46129260 48327200
1441.54 50570300 52876880 55220360 57535760 59869110 62403280
1447.32 64783200 66252930 66952840 67460090 67999620 68729380
1453.11 69834020 71406020 73446970 75442820 76953460 78255360
1458.89 79434820 80463190 81445340 82369210 83104520 83408800
1464.68 83320930 83468790 84094590 84488230 83808860 82041790
1470.47 79903450 77806000 75735340 73678900 71843290 70274650
1476.25 68813220 67627740 66910390 66685620 66921820 67489880
1482.04 68168740 68631680 68552760 67830120 66599440 65126320
1487.82 64007260 63901860 64533580 64312460 61699180 57430120
1493.61 53938540 52268440 51176830 49485710 47092280 43816120
1499.39 39760220 35415600 31073190 26974010 23470340 20721210
1505.18 18341110 15951990 13602600 11671650 10228510 9109440
1510.96 8256552 7471106 6758236 6244096 5889332 5641164
1516.75 5285476 4861124 4766468 4968670 4896654 4418616
1522.53 3971468 3818454 3799056 3635102 3464544 3350732
1528.32 3209376 3109870 3102656 3193818 3359644 3328594
1534.11 3075326 2918968 2982608 3430980 4049344 4115086
1539.89 3772944 3580054 3348886 3088260 3071422 2998342
1545.68 2798076 2710412 2739634 2812186 2811508 2729558
1551.46 2745508 2987486 3185024 3029592 3013252 3552414
1557.25 4145948 4297252 4066750 3452494 2929908 2828552
1563.03 2908120 2971544 2931640 2888460 2968076 3208676
1568.82 3353636 3183202 3005740 2992456 3049692 3327840
1574.60 3923690 4061376 3553902 3245368 3231314 3273262
1580.39 3321828 3351490 3377360 3409496 3437708 3451854
1586.17 3457308 3462590 3455122 3434494 3413478 3383004
1591.96 3335594 3280738 3218866 3156650 3096164 3025126
1597.74 2937500 2835780 2731462 2621622 2509190 2397644
1603.53 2283464 2182350 2108792 2046296 1988908 1938866
1609.32 1875474 1815182 1783966 1769264 1768350 1946762
1615.10 2434130 2556834 2080184 1770870 1740678 1752120
1620.89 1834432 2026156 2096564 1947878 1853438 1927156
1626.67 2046634 2055956 2017102 2041692 2097830 2169512
1632.46 2336880 2800830 3271764 3163118 2842630 2726942
1638.24 2707956 2759120 2837826 2912554 2977032 3101606
1644.03 3469164 3835576 3795136 3597580 3433792 3337356
1649.81 3535178 4316258 5100302 4859302 4008786 3423856
1655.60 3190230 3112686 3066014 3030484 3009528 3071514
1661.38 3204830 3157240 2950884 2839978 2810406 2842710
1667.17 3030798 3242226 3172654 3023536 2945296 2877220
1672.96 3040642 3389538 3394552 3112670 3006676 3075668
1678.74 3198282 3285298 3386816 3711854 4356328 4915322
1684.53 4658944 4091808 4010300 4162190 4309994 4437220
1690.31 4540146 4659496 4814404 5173992 5927548 6280464
1696.10 5804712 5502516 5909992 6488638 6293118 5586204
1701.88 5248498 5261078 5242842 5100690 4877570 4584184
1707.67 4359328 4223992 4054638 3818868 3598434 3455808
1713.45 3383364 3265426 3308848 3516728 3276470 2732822
1719.24 2390890 2263808 2227036 2221222 2199380 2160956
1725.02 2150070 2156878 2176702 2247430 2339772 2368154
1730.81 2497900 2974468 3500162 3514902 3118716 2879646
1736.60 2906952 3076006 3302772 3314150 3251076 3495906
1742.38 3925998 4073376 3888120 3774362 3876064 4091048
1748.17 4303410 4552984 4801632 4706858 4438966 4326378
1753.95 4301264 4352822 4424474 4394150 4305964 4204470
1759.74 4168970 4140548 3891748 3565384 3347048 3168710
1765.52 3042086 3029512 2949206 2715484 2608056 2729502
1771.31 2880870 2701136 2321788 2158668 2111046 2053580
1777.09 2043284 2089372 2175782 2242514 2261340 2318040
1782.88 2473712 2668640 2780878 2871270 3036512 3248680
1788.66 3519220 3868742 4298226 4713568 4907270 5068514
1794.45 5414896 5830656 6254908 6722386 7222862 7671138
1800.24 8077758 8460282 8771108 9030580 9263450 9459114
1806.02 9625774 9761316 9871820 9969880 9981292 9857946
1811.81 9657754 9438780 9257384 9095448 8873290 8532752
1817.59 8068792 7529792 6976360 6447982 5972728 5587424
1823.38 5341142 5132510 4847900 4594798 4453140 4392880
1829.16 4273742 4008640 3763466 3610912 3469784 3302412
1834.95 3122674 2945026 2767698 2601116 2453230 2336148
1840.73 2271296 2320330 2516340 2538866 2310516 2188982
1846.52 2200214 2210942 2215752 2228076 2241664 2262550
1852.30 2287704 2304014 2317972 2338946 2360724 2379844
1858.09 2391708 2395138 2386024 2364290 2342702 2323146
1863.88 2312006 2318168 2326340 2345864 2376638 2315144
1869.66 2156068 2038040 1980436 1939774 1902030 1861196
1875.45 1813130 1761988 1728872 1715292 1705244 1697748
1881.23 1693072 1700266 1724576 1745438 1760184 1789012
1887.02 1852586 1956002 2024688 2039378 2086028 2175884
1892.80 2280508 2391770 2493924 2596010 2717920 2858984
1898.59 3013732 3178304 3357142 3557310 3784394 4031088
1904.37 4292886 4582608 4902146 5235254 5591206 5971924
1910.16 6359190 6765166 7193260 7629928 8079194 8558050
1915.94 9108536 9672056 10118330 10513150 10939480 11374740
1921.73 11788940 12116630 12351810 12528460 12632080 12647360
1927.51 12585900 12464720 12290900 12062900 11776500 11415160
1933.30 10979360 10483300 9946452 9409328 8894300 8358136
1939.09 7753652 7091874 6409582 5693126 4982716 4392312
1944.87 3943766 3607120 3382818 3252090 3174420 3131900
1950.66 3125678 3155588 3213744 3289998 3377216 3483232
1956.44 3607404 3726744 3849234 3984152 4111076 4222472
1962.23 4322544 4412426 4487634 4547444 4588318 4585016
1968.01 4551166 4510802 4459882 4389606 4291586 4162908
1973.80 4007858 3857620 3720216 3567984 3389538 3181284
1979.58 2951530 2725914 2514996 2318062 2143936 1992922
1985.37 1857586 1738908 1639012 1551236 1477920 1433664
1991.15 1392452 1321452 1250326 1205732 1180752 1155698
1996.94 1128750 1109238 1091792 1074114 1061364 1056088
2002.73 1051754 1044240 1040854 1046610 1058208 1063034
2008.51 1060342 1062856 1070036 1070402 1071164 1083146
2014.30 1103054 1124160 1139820 1145186 1149242 1162772
2020.08 1178508 1198336 1228936 1262068 1295640 1333248
2025.87 1377190 1421010 1465998 1519760 1579786 1643278
2031.65 1714378 1792468 1879822 1979802 2083810 2191902
2037.44 2310232 2436398 2569050 2698088 2820248 2941004
2043.22 3060044 3176244 3287646 3391544 3484366 3565886
2049.01 3630250 3673862 3700300 3705198 3688804 3655476
2054.79 3604864 3527736 3421976 3285964 3119314 2933090
2060.58 2743584 2563618 2383054 2201472 2031644 1867096
2066.37 1711790 1574870 1459440 1366430 1294288 1243966
2072.15 1211562 1183320 1163772 1157478 1159118 1170730
2077.94 1196552 1232230 1266080 1296996 1332910 1368038
2083.72 1403662 1453868 1513324 1575578 1648258 1724524
2089.51 1788926 1849444 1915070 1987470 2072922 2156766
2095.29 2232458 2312820 2397190 2468536 2534800 2610952
2101.08 2691342 2760886 2813468 2855122 2891024 2911590
2106.86 2908518 2874236 2810280 2724382 2625594 2533642
2112.65 2455694 2377848 2296674 2210298 2125120 2049828
2118.43 1980926 1916368 1861484 1822544 1800886 1787710
2124.22 1778300 1776072 1783422 1796946 1811812 1832616
2130.01 1862736 1888928 1905072 1914302 1933172 1969780
2135.79 2011482 2048184 2075156 2087408 2091110 2097024
2141.58 2113084 2133868 2151464 2164208 2179666 2196148
2147.36 2210018 2230836 2256428 2279428 2313186 2367238
2153.15 2432168 2493890 2546588 2596048 2652194 2706744
2158.93 2757186 2813632 2876562 2932076 2972514 3012980
2164.72 3066522 3124198 3171062 3199000 3219816 3254212
2170.50 3298118 3334188 3369410 3413916 3466118 3526388
2176.29 3585372 3635618 3693684 3770958 3865710 3976876
2182.07 4100452 4231562 4366164 4501916 4639660 4780706
2187.86 4933502 5088850 5231080 5365222 5485264 5570806
2193.64 5625710 5662226 5673898 5664400 5638474 5590044
2199.43 5522448 5431824 5312438 5166424 5001340 4821192
2205.22 4628630 4421460 4206016 3994822 3779954 3554808
2211.00 3340432 3143552 2964294 2806678 2659130 2522468
2216.79 2410620 2328924 2273034 2234068 2209348 2195936
2222.57 2198012 2210562 2225446 2244190 2269852 2297860
2228.36 2333200 2389402 2453138 2516264 2583186 2643546
2234.14 2697398 2745954 2782948 2811142 2826840 2825316
2239.93 2817544 2803662 2785766 2760988 2720334 2661888
2245.71 2590654 2521196 2461422 2413892 2383686 2364126
2251.50 2338622 2304684 2283926 2283472 2299120 2334242
2257.28 2395706 2482766 2583172 2685738 2792412 2907788
2263.07 3041940 3194832 3344218 3465458 3577582 3700398
2268.86 3817702 3926872 4024818 4098564 4158830 4199504
2274.64 4207186 4198512 4185072 4148184 4089388 4023994
2280.43 3956510 3886064 3805610 3717478 3626622 3523134
2286.21 3406322 3268556 3116812 2976870 2854518 2747460
2292.00 2647938 2538320 2415494 2292240 2187914 2096964
2297.78 1997772 1893130 1805460 1741974 1697136 1665848
2303.57 1644546 1629794 1622934 1626230 1645752 1671418
2309.35 1698744 1734346 1775088 1812176 1848850 1888804
2315.14 1930122 1982006 2037204 2095524 2163330 2232384
2320.92 2296140 2352518 2404684 2461508 2516488 2572608
2326.71 2638206 2697100 2746678 2796822 2843772 2891656
2332.50 2933022 2947272 2954556 2979986 3013934 3031120
2338.28 3021238 2993238 2949322 2895760 2842432 2790652
2344.07 2740658 2691918 2637956 2574674 2511264 2456766
2349.85 2403126 2348860 2302742 2255660 2192978 2122398
2355.64 2051964 1971610 1891968 1831942 1788904 1757160
2361.42 1744058 1749868 1758704 1760548 1767404 1787668
2367.21 1815158 1844580 1883034 1937908 1991808 2026968
2372.99 2052800 2084316 2127358 2168714 2211432 2259614
2378.78 2290878 2304814 2317884 2332858 2343064 2340456
2384.56 2335018 2329998 2317820 2295764 2260880 2221438
2390.35 2197946 2177242 2136728 2087756 2047282 2017232
2396.14 1984766 1939222 1898872 1879518 1872016 1864040
2401.92 1850842 1839120 1838182 1841688 1835302 1822576
2407.71 1815774 1812386 1810530 1808298 1799842 1787434
2413.49 1780836 1764752 1742488 1726758 1707496 1693412
2419.28 1686594 1680768 1687262 1696674 1702790 1717748
2425.06 1745554 1779882 1823226 1887804 1959118 2025906
2430.85 2103008 2182992 2256096 2330506 2406082 2487568
2436.63 2571728 2647452 2719476 2784340 2841788 2896886
2442.42 2944186 2975148 2986580 2980064 2968226 2956388
2448.20 2921602 2861398 2804322 2751308 2686476 2616240
2453.99 2549228 2480806 2422696 2373316 2322508 2274154
2459.77 2229014 2173070 2107268 2047492 1996378 1949962
2465.56 1909860 1871966 1834578 1807666 1789616 1769826
2471.35 1749254 1726390 1702802 1686336 1673312 1647624
2477.13 1606884 1563208 1521814 1478428 1442820 1416110
2482.92 1393392 1369076 1339134 1314984 1301152 1281972
2488.70 1255280 1237018 1226518 1212232 1189206 1159430
2494.49 1129916 1094962 1056380 1025902 1001442 980324
2500.27 961370 930240 890678 863400 850262 838814
2506.06 833022 831006 825622 829606 839818 844316
2511.84 842046 848716 869310 888410 901654 910732
2517.63 918970 923762 928206 931080 927056 919108
2523.41 910894 902198 901454 912610 925628 927090
2529.20 915462 907696 906770 901778 897142 895606
2534.99 904238 916914 929226 945244 965962 988260
2540.77 1009032 1028404 1053712 1091296 1135292 1167510
2546.56 1199520 1247138 1290408 1321062 1348354 1380804
2552.34 1428510 1481428 1520770 1550500 1589686 1635318
2558.13 1674294 1701778 1727744 1760482 1792704 1820750
2563.91 1849566 1879310 1910150 1940536 1970642 1997812
2569.70 2022476 2048262 2068844 2073570 2080800 2105948
2575.48 2139210 2174194 2206328 2224204 2242560 2273500
2581.27 2308068 2345034 2388908 2438754 2493414 2553616
2587.05 2624440 2720708 2832820 2933480 3031698 3143280
2592.84 3281042 3438812 3596292 3763644 3951234 4144684
2598.63 4340010 4543760 4756016 4974684 5200882 5442918
2604.41 5706212 5969664 6234872 6512806 6806432 7114314
2610.20 7417944 7712024 8007870 8296394 8581510 8875814
2615.98 9154426 9392958 9606402 9815360 10008490 10168430
2621.77 10316670 10455270 10547360 10589530 10590480 10534570
2627.55 10430790 10279970 10072540 9836608 9598174 9341954
2633.34 9052940 8747226 8443094 8138318 7836076 7548358
2639.12 7266890 6988384 6730856 6486174 6254532 6055568
2644.91 5886660 5738982 5618470 5514658 5421686 5368736
2650.69 5328780 5273282 5241758 5234110 5222496 5208662
2656.48 5215258 5233020 5234540 5223444 5217266 5225568
2662.27 5245944 5261180 5261420 5252088 5236766 5214320
2668.05 5196830 5183812 5162150 5130224 5106842 5096408
2673.84 5084940 5069714 5055168 5034968 5014896 5001230
2679.62 4997740 5008660 5019302 5026880 5042526 5046178
2685.41 5038570 5042634 5060528 5084142 5114426 5150688
2691.19 5197754 5252918 5306252 5368716 5448900 5542366
2696.98 5659252 5804380 5978550 6187712 6437418 6734700
2702.76 7076688 7454614 7888648 8388734 8945210 9553364
2708.55 10205990 10897010 11620820 12363010 13124470 13901280
2714.33 14679400 15436780 16173700 16920840 17655600 18290670
2720.12 18771720 19117100 19426360 19804290 20237390 20642360
2725.91 20989730 21307470 21617090 21880950 22051820 22137420
2731.69 22174870 22168470 22089890 21952870 21807770 21681920
2737.48 21574990 21461220 21312400 21113500 20860370 20571140
2743.26 20276780 19947470 19517830 18998940 18470740 17983510
2749.05 17561820 17193910 16823380 16452660 16117340 15815250
2754.83 15577860 15430680 15339240 15282860 15299460 15425060
2760.62 15656040 15967640 16325100 16675110 16997030 17306600
2766.40 17644370 18033860 18421830 18783320 19135320 19437230
2772.19 19680360 19914600 20146750 20305450 20316610 20208630
2777.97 20074810 19978190 19928570 19888310 19812340 19676550
2783.76 19484640 19245760 18978450 18700710 18428470 18191890
2789.54 17994580 17809410 17644310 17521580 17447770 17406270
2795.33 17389010 17408570 17471950 17587630 17794490 18081160
2801.12 18414580 18813850 19300920 19857070 20442840 21031050
2806.90 21611920 22189450 22779990 23412840 24129300 24921750
2812.69 25749160 26557610 27330310 28129020 28983180 29860830
2818.47 30731680 31575390 32380940 33161580 33924980 34667020
2824.26 35391320 36098080 36801270 37534450 38340420 39230020
2830.04 40174620 41165460 42218250 43338850 44530990 45805390
2835.83 47154540 48546620 49998400 51505560 52998760 54479210
2841.61 56004270 57568560 59148280 60757480 62467080 64306110
2847.40 66245220 68269590 70372210 72556890 74867640 77340740
2853.18 79966020 82768530 85844980 89269740 93047680 97199740
2858.97 101811500 107019800 112908700 119439300 126612300 134484100
2864.76 143121200 152550000 162744100 173678500 185315800 197521300
2870.54 209977600 222434700 234801400 246929200 258870400 271196600
2876.33 284709300 299580600 314304300 326401100 335010300 341661200
2882.11 348041400 354476900 360527500 365629800 369492700 372286000
2887.90 374448900 376361600 378188400 380006100 381936100 383908400
2893.68 385866000 387762400 388864700 388324300 385956300 382022900
2899.47 377011300 371339700 365258700 359010100 352766400 346571900
2905.25 340254200 333374800 325767600 318062900 311011300 304509800
2911.04 298024000 291247700 284201000 277190700 270510900 264175800
2916.82 258169200 252609800 247460400 242679600 238578900 235590400
2922.61 234004000 233990200 235675300 239163600 244541000 251638100
2928.40 260162800 269839800 280111600 290298600 299786300 307938700
2934.18 314696300 320670300 326693100 333438400 340551400 346563100
2939.97 350184100 351156500 350323500 349060100 347956800 346283100
2945.75 342982900 337615800 330278500 321290200 311350900 301262100
2951.54 291684400 283189600 276054000 270313200 266178800 263979000
2957.32 264083000 267146700 274024300 285527200 302322200 325029900
2963.11 354507000 391173800 434896400 485340000 541471800 601357000
2968.89 662722800 724346600 787743300 857572100 941313100 1044306000
2974.68 1148470000 1213126000 1242355000 1285994000 1352636000 1413929000
2980.46 1456950000 1481194000 1486520000 1475689000 1448327000 1402763000
2986.25 1340152000 1266175000 1190438000 1114649000 1033449000 945211600
2992.04 852795500 759464500 667861400 580641200 499983800 427089400
2997.82 362051600 304574700 254474900 211412500 174897600 144385500
3003.61 119255400 98900430 82706580 70023220 60213580 52756750
3009.39 47170760 43044610 40065180 37942490 36455320 35443740
3015.18 34758490 34310410 34030640 33853640 33714730 33582380
3020.96 33446580 33267690 33014960 32694250 32292840 31798390
3026.75 31206680 30497150 29685110 28803760 27837680 26783480
3032.53 25647290 24438620 23199110 21961450 20725280 19504450
3038.32 18321980 17188980 16099330 15068250 14121870 13226390
3044.10 12365720 11578290 10855390 10191060 9597656 9090042
3049.89 8658988 8278670 7943686 7663690 7439412 7265674
3055.67 7117420 6986464 6897956 6847160 6793844 6739244
3061.46 6718914 6739826 6771932 6792174 6809816 6854666
3067.25 6929836 7002022 7067542 7142582 7234242 7346554
3073.03 7458002 7555388 7631998 7700566 7794624 7913542
3078.82 8008942 8084008 8174016 8240740 8262976 8303900
3084.60 8380386 8420824 8376524 8304618 8253446 8206430
3090.39 8130796 8024702 7917294 7796398 7652510 7512278
3096.17 7360726 7181666 6984408 6805166 6642690 6459670
3101.96 6262002 6086542 5930562 5766504 5615430 5483884
3107.74 5368892 5260598 5134538 5030062 4951692 4864244
3113.53 4776720 4709218 4664878 4635908 4609516 4580076
3119.31 4542390 4514592 4514534 4513544 4494096 4469830
3125.10 4452110 4441720 4425442 4400420 4382066 4377938
3130.89 4387582 4406162 4413254 4392266 4367306 4376766
3136.67 4397702 4407132 4421908 4446670 4471546 4493474
3142.46 4512934 4539204 4585936 4635368 4677042 4725628
3148.24 4795560 4886202 4963420 5037184 5131248 5236830
3154.03 5341406 5445796 5566930 5709822 5869926 6046444
3159.81 6230960 6410794 6582586 6771214 6973648 7177958
3165.60 7398096 7633628 7874516 8107318 8328586 8550362
3171.38 8780298 9011752 9216754 9382250 9540830 9724512
3177.17 9913980 10057080 10146090 10215110 10263090 10289880
3182.95 10292420 10247590 10174100 10100690 10011280 9894624
3188.74 9768798 9646896 9517984 9371426 9212950 9060122
3194.53 8915966 8778098 8642676 8520984 8427870 8344974
3200.31 8269428 8223670 8218092 8218552 8207688 8219862
3206.10 8254486 8297268 8372982 8480018 8583826 8670896
3211.88 8766468 8881958 9000064 9112912 9212448 9304454
3217.67 9394622 9492550 9593448 9680862 9765300 9844544
3223.45 9911570 9962106 10012720 10063690 10088360 10103250
3229.24 10119310 10105880 10049930 9983572 9924206 9840276
3235.02 9725454 9596594 9443698 9270184 9073762 8847616
3240.81 8605812 8355374 8079762 7768374 7444362 7149822
3246.59 6855478 6515240 6166292 5839398 5526376 5214192
3252.38 4899952 4586688 4295174 4043320 3810042 3585044
3258.17 3364800 3155862 2989516 2843482 2698892 2586658
3263.95 2492124 2391190 2296372 2234646 2177986 2109694
3269.74 2066672 2043856 2017534 1978052 1946828 1938302
3275.52 1913036 1874304 1855162 1837306 1813702 1791316
3281.31 1778498 1768720 1760502 1769098 1765068 1740258
3287.09 1720526 1707992 1707362 1713938 1711946 1717566
3292.88 1752422 1808388 1860770 1895602 1924124 1969272
3298.66 2042594 2122678 2208630 2323180 2434874 2523666
3304.45 2627664 2780342 2964612 3125000 3263398 3413014
3310.23 3559890 3692456 3822238 3924804 3981386 4040326
3316.02 4118414 4187282 4210622 4182596 4148070 4133794
3321.80 4132234 4124356 4089516 4025880 3949650 3871580
3327.59 3782020 3666290 3549208 3456324 3354480 3209790
3333.38 3066984 2943936 2807046 2677250 2572750 2465638
3339.16 2335418 2183324 2036318 1920844 1824994 1722758
3344.95 1620056 1534326 1448108 1348908 1265774 1204180
3350.73 1138792 1075890 1043034 1016966 955508 879140
3356.52 828388 817020 818436 805682 782802 764772
3362.30 772360 766366 726594 696752 680418 665430
3368.09 667104 693364 715734 718768 714312 693144
3373.87 666360 678058 710162 722258 718750 704012
3379.66 700436 730384 753820 741378 722576 744484
3385.44 799622 835284 823514 800294 795300 797034
3391.23 810546 840628 876828 909172 930358 939288
3397.02 933234 929638 955314 978964 982658 1008000
3402.80 1046404 1073866 1101000 1123098 1144440 1164154
3408.59 1201626 1269134 1338968 1407952 1473910 1533742
3414.37 1618596 1740396 1868028 1971836 2078496 2207072
3420.16 2340038 2481026 2623646 2740854 2834606 2934498
3425.94 3034252 3121976 3221616 3333840 3402230 3414842
3431.73 3424502 3421502 3394554 3380996 3367286 3321254
3437.51 3232724 3114726 2989760 2869220 2754842 2635944
3443.30 2496746 2358378 2250664 2154814 2035584 1895092
3449.08 1756796 1630684 1527250 1444042 1348796 1249250
3454.87 1176930 1128976 1086492 1035928 989022 965674
3460.66 956446 945302 920352 889480 876378 879972
3466.44 896374 909498 911048 931858 990676 1047128
3472.23 1075242 1088284 1090370 1110544 1160722 1195278
3478.01 1220532 1273254 1324390 1347564 1347064 1342412
3483.80 1339060 1331888 1342454 1346936 1330270 1315706
3489.58 1278140 1202136 1141898 1112528 1078274 1022836
3495.37 951520 873030 804216 755426 710238 665812
3501.15 625294 582850 518752 426088 354760 325206
3506.94 314994 306176 265874 202900 161946 145434
3512.72 137988 119246 90912 72424 65522 52360
3518.51 41296 47312 59290 80646 104108 95608
3524.30 68944 59990 70364 66752 29280 3066
3530.08 9028 12674 10144 2292-11726 1662
3535.87 27612 23946 6026 4868 19570 29694
3541.65 28448 24416 46976 87200 118924 104202
3547.44 49238 26754 49014 93016 118540 95236
3553.22 72170 65406 49456 27692 27252 57802
3559.01 76640 59924 51594 61648 69402 110578
3564.79 187848 231018 239764 180816 70044 10342
3570.58-1924 4234 9494 9398 1144-3502
3576.36 1240 5404 15922 20772 15650 28140
3582.15 53588 66602 104870 204000 261662 270758
3587.94 230928 85172-6024 6498 41068 69722
3593.72 98054 95876 53670 34202 39326 49510
3599.51 62038 42396 10186-8572-29550-21218
3605.29 47342 116210 208796 304556 219792 128546
3611.08 197332 224426 181498 155944 126106 162602
3616.86 265050 373418 410290 284960 174386 163342
3622.65 167984 171286 208354 300950 548868 888684
3628.43 960460 671926 396114 336232 366646 358978
3634.22 305720 269394 260150 268228 275192 293194
3640.00 376584 510066 550790 468616 416774 493548
3645.79 647662 772822 936176 998828 856134 668782
3651.57 468258 350282 383504 597476 734108 550716
3657.36 348374 301752 304672 311506 306154 289594
3663.15 283126 297084 315830 354636 489914 679282
3668.93 933504 1030402 696928 442762 603328 1029342
3674.72 1280658 990990 585098 494942 522194 499808
3680.50 475824 474958 493518 529576 547472 593490
3686.29 922040 1370666 1268144 963638 932454 860904
3692.07 744670 718572 721900 742550 781076 822656
3697.86 865702 926690 1068770 1215996 1203256 1157160
3703.64 1208396 1309326 1412276 1522100 1706594 1865840
3709.43 1931900 2164718 2315348 2087800 1912788 1923766
3715.21 1934692 1933354 1972638 2019102 1995840 1984950
3721.00 2027212 1980754 1855884 1783766 1768090 1691186
3726.79 1489946 1313570 1229980 1291896 1513830 1518698
3732.57 1332268 1352688 1438198 1422086 1215718 945724
3738.36 799440 768658 781294 812638 1227304 1961814
3744.14 1893020 1128230 776164 993792 1463462 1469404
3749.93 1273302 1513478 1391880 863076 641726 680916
3755.71 720442 673618 681314 744106 686058 580894
3761.50 542360 538570 587790 675416 674378 598528
3767.28 615830 774982 833874 688124 581842 566650
3773.07 583064 606320 624930 644320 703130 839032
3778.85 913802 836126 769996 777096 828902 884188
3784.64 896096 890876 919416 960882 971380 969104
3790.43 979858 999930 1040302 1096704 1196380 1307402
3796.21 1292102 1215424 1234202 1509610 1952026 1902664
3802.00 1478344 1264024 1240394 1450718 1720000 1566844
3807.78 1252096 1159822 1167632 1171198 1164034 1180744
3813.57 1385678 1847378 1920552 1480898 1260144 1383488
3819.35 1680922 1864848 1684948 1414804 1326206 1357198
3825.14 1447040 1494792 1439820 1389758 1438218 1592218
3830.92 1659270 1556400 1572348 1707014 1718598 1918150
3836.71 2276266 2083234 1690322 1596558 1522022 1460648
3842.49 1505800 1469614 1360218 1298392 1271872 1278492
3848.28 1308966 1416878 1780794 2151018 2453122 2742374
3854.07 2277816 1584526 1420358 1399500 1346588 1330814
3859.85 1404076 1492620 1485550 1557998 1742080 1711646
3865.64 1524304 1498672 1726612 2079656 2119478 1829396
3871.42 1689320 1800776 1900732 1845174 1800940 1825678
3877.21 1870128 2022292 2226762 2252516 2183802 2210724
3882.99 2319282 2583064 2771312 2615834 2452866 2464986
3888.78 2583224 2802408 2875476 2725414 2635078 2634832
3894.56 2629230 2621432 2669112 2809300 2881578 2791988
3900.35 2790564 2786624 2732226 2723356 2575040 2376406
3906.13 2230872 2114742 2046890 2009168 1978912 1943562
3911.92 1886728 1838700 1827688 1854450 1907992 1882400
3917.70 1802908 1807568 1817028 1791022 1799392 1820428
3923.49 1846424 1853660 1820122 1806814 1847406 1900598
3929.28 1933402 1989840 2068424 2086978 2064090 2053138
3935.06 2057162 2078106 2118408 2165650 2209124 2269196
3940.85 2354532 2402614 2385068 2387970 2433862 2485418
3946.63 2525702 2565816 2634160 2676392 2668148 2666620
3952.42 2684428 2710180 2746900 2768358 2769694 2783814
3958.20 2808168 2823268 2830716 2815624 2781778 2754468
3963.99 2730968 2703686 2672794 2659382 2645942 2601542
3969.77 2571132 2565262 2531444 2479422 2452560
##END=
