##TITLE=Ethyl tert-Butyl Ether
##JCAMP-DX=4.24
##DATA TYPE=INFRARED SPECTRUM
##CLASS=IUPAC A
##ORIGIN=NIST, Anayltical Chemistry Division, 301-975-3108
##OWNER=COPYRIGHT (C) 1998 by the U.S. Secretary of Commerce
##DATE=98/10/1
##$SPECTRA VERSION=1.00
##$UNCERTAINTY IN Y=2.8 % relative (B=1.9E-04,C=3.0E-09,D=2.7E-14)
##CAS NAME=tert-Butyl Ethyl Ether
##CAS REGISTRY NO=637-92-3
##MOLFORM=( C H3)3 C O C2 H5
##MP=-94 C
##BP=73.1 C
##$NIST SOURCE=QUANT-IR
##SPECTROMETER/DATA SYSTEM=IFS66V (Bruker)
##INSTRUMENT PARAMETERS=KBr Beam splitter; MCT Detector; Multipass cell
##STATE=gas
##SAMPLE DESCRIPTION=ETBE Primary Gas Standard
##PRESSURE=101.3 kPa
##TEMPERATURE=23 C
##SAMPLING PROCEDURE=1 L/min Flow
##RESOLUTION=0.9640
##DATA PROCESSING=NB Strong Apodization
##XUNITS=cm-1
##YUNITS=(micromol/mol)-1m-1 (base 10)
##XFACTOR=1.0
##YFACTOR=9.0949E-13
##DELTAX=0.4820
##FIRSTX=575.169
##LASTX=3975.077
##FIRSTY=-7.41E-08
##MAXX=3974.59
##MINX=575.17
##MAXY=.0013583
##MINY=-7.08E-07
##NPOINTS=7053
##XYDATA=(X++(Y..Y))
575.17-81518-251088-134390-14502-151912-357820
577.58-312592-335820-217394-215990-31334 72644
580.47-197538-779302-501568-167234-213116-191690
583.37-180004-97582-103674-360018-467568-695122
586.26-620226-178356-3876-125762-320668-277276
589.15-113294-100064-201822-165300-30418-29570
592.04 27494-52924-203600-103732 84714-7228
594.94-264002-325886-291326-184690-149026 6122
597.83 145104 11076-82894 5748-660-248918
600.72-164180-51478-67470-32708-87066-106228
603.61-85024-132684-174708-131364 2426-21444
606.51-100552-85284 121800 182046 147482 160906
609.40 203210 253888 166012 124116 169330 102890
612.29 31884 94352 119632 15250-11276 64544
615.18 172824 167042 108186 136556 132960 134102
618.08 154310 114924 32446 26062 137060 166670
620.97 144824 152630 199376 150532 68742 48590
623.86 98208 181522 145432 104148 167272 147254
626.76 145594 179216 116932 137432 170444 138786
629.65 143762 191828 259668 257782 196172 125290
632.54 12484 29908 115218 174550 187674 139858
635.43 182488 198372 106210 33144 48206 110346
638.33 109242 105890 115804 60082 23224 25188
641.22 32320 51422 130546 127264 21534-19812
644.11-4934 30640 25214-6494 54764 212896
647.00 207028 99140 47238 97800 138140 79336
649.90 39534-12120-7124 68336 118544 111376
652.79 43546-24226 15716 74374 50574-1346
655.68-13562-50106-12694 37310 73662 129006
658.58 128912 55078 62274 18068-48970-49330
661.47 20914 30694 60344 105936 33080 18474
664.36-6760-13558 61952 86716 55058 30270
667.25 111586 124330 89526 134704 144972 60430
670.15 44264 112056 125720 97070 41890 74856
673.04 118170 83084 55686 61226 89128 161540
675.93 107092 6394 30520 105174 145520 170956
678.82 168700 137658 118896 123508 194194 253066
681.72 282874 268992 277722 311870 274314 252808
684.61 269776 268348 340570 363188 384766 415946
687.50 379634 394240 378514 331806 337956 418756
690.40 452966 472496 484484 513554 527220 491402
693.29 529984 621768 604596 552670 562968 622166
696.18 664434 639020 684204 724254 727718 675156
699.07 649608 666542 725254 792122 780086 800302
701.97 899080 912276 895678 916556 1007176 1042652
704.86 1013948 1058012 1120664 1160246 1236482 1307590
707.75 1355426 1430696 1454788 1463494 1532880 1660730
710.64 1767948 1783270 1826224 1942926 2087518 2236998
713.54 2342316 2467356 2630448 2730790 2831616 3040800
716.43 3249144 3416134 3604974 3826104 4079130 4296446
719.32 4539320 4825330 5140548 5475554 5802370 6149970
722.22 6564128 6947804 7296204 7798318 8428226 8890208
725.11 9342994 9936464 10490800 11038000 11692330 12372650
728.00 13025010 13727780 14537610 15344430 16191100 17044010
730.89 17856270 18689650 19546730 20349520 21145190 21896890
733.79 22581030 23244180 23829220 24316570 24754900 25118480
736.68 25342850 25477730 25579660 25624360 25675370 25682110
739.57 25714690 25935200 26200410 26451490 26852870 27194510
742.46 27206590 26652780 25391230 23765770 22517390 21946980
745.36 21746290 21693130 21647640 21542120 21389170 21134970
748.25 20664370 19943700 19088370 18136700 17121470 16083200
751.14 15046980 13963930 12851440 11768170 10743600 9832870
754.04 9040522 8241754 7573224 6953548 6358872 5854276
756.93 5384876 4931712 4593296 4261552 4007134 3728514
759.82 3508730 3367730 3210236 3037940 2893654 2817836
762.71 2727052 2531734 2412832 2400012 2366816 2293020
765.61 2205156 2154512 2130212 2113024 2089572 2025944
768.50 2005800 2027904 2018378 2018678 1989792 1988642
771.39 1974332 1958158 1930164 1897614 1847812 1869672
774.28 1878060 1918916 1942068 1880684 1814288 1793088
777.18 1777650 1808128 1832362 1799300 1789698 1797998
780.07 1775016 1792854 1799626 1727474 1732746 1725734
782.96 1699216 1686496 1676152 1685222 1716426 1687644
785.86 1658142 1656468 1673608 1662422 1694478 1711632
788.75 1691698 1686616 1658454 1661084 1674320 1660414
791.64 1643956 1667800 1717556 1717992 1674938 1676190
794.53 1691072 1690310 1679956 1726718 1763124 1775150
797.43 1808158 1848032 1898720 1907510 1908184 1889288
800.32 1890970 1953860 2030684 2063290 2081692 2106266
803.21 2136654 2186202 2212618 2252636 2298570 2301628
806.10 2332930 2400428 2422552 2466000 2502546 2586594
809.00 2691164 2724844 2731492 2772074 2826924 2897356
811.89 2948674 2968700 3026394 3080840 3086684 3155566
814.78 3259920 3373734 3444214 3474068 3519136 3632196
817.68 3772744 3857494 3959298 4152020 4336054 4437268
820.57 4562402 4768906 4955104 5125672 5304158 5546312
823.46 5859472 6244270 6609896 6992286 7398096 7829270
826.35 8340542 8873490 9427730 10070860 10737050 11529190
829.25 12459320 13344760 14316060 15390290 16488760 17597640
832.14 18850220 20234690 21637160 23146820 24812530 26562990
835.03 28384750 30333410 32460760 34615990 36835290 39143960
837.92 41494410 43918080 46350550 48840040 51327030 53724320
840.82 56069040 58386700 60572150 62669760 64599680 66300700
843.71 67770930 69095080 70270520 71167180 71974300 72866820
846.60 73811780 74837500 76101560 77595990 79165140 80627520
849.50 81843320 81999650 80264980 76771340 73135250 70811700
852.39 69682490 69238180 68973900 68672920 68160990 67274360
855.28 66025240 64541780 62561020 60130700 57422390 54496840
858.17 51475520 48306220 45006340 41825500 38750180 35828630
861.07 33062650 30461100 28049300 25729260 23620530 21729270
863.96 19975020 18377440 16873630 15454410 14181810 13047350
866.85 11948610 10953280 10084340 9279888 8520396 7869600
869.74 7243252 6668144 6169976 5726050 5342598 5001206
872.64 4658886 4387700 4168538 3977702 3797638 3639010
875.53 3480418 3350446 3252918 3131494 3003994 2917860
878.42 2872182 2842900 2808602 2742334 2688012 2658646
881.31 2650526 2674588 2684556 2667974 2697372 2753578
884.21 2787714 2836304 2821704 2846374 2917906 2968476
887.10 3034894 3152232 3275078 3466064 3731788 3869396
889.99 3739416 3436616 3300698 3285794 3351434 3472586
892.89 3543282 3594252 3692792 3788154 3928332 4063142
895.78 4125676 4165764 4290806 4447854 4578106 4724490
898.67 4915298 5088452 5251966 5471006 5678654 5864696
901.56 6112170 6362722 6557364 6785346 7036644 7315350
904.46 7633498 7930992 8208354 8474692 8712546 8946268
907.35 9164296 9355732 9536772 9689566 9805612 9878540
910.24 9949296 10013990 10037090 10037360 10069030 10169470
913.13 10252130 10345920 10512080 10736870 10970970 11140690
916.03 11176390 11076130 10853170 10684230 10650150 10682320
918.92 10814910 11051720 11187600 11254640 11286340 11071080
921.81 10743600 10482350 10246160 10147160 10043420 9869112
924.71 9688602 9622272 9577440 9512002 9490850 9505410
927.60 9551092 9644476 9762142 9936740 10145790 10383890
930.49 10621010 10921630 11314560 11691440 12082560 12530660
933.38 13041420 13586220 14158080 14821760 15530400 16253820
936.28 17076890 18037420 19043410 20122300 21294580 22595060
939.17 23950900 25373140 26958270 28724970 30564150 32551100
942.06 34685460 36939250 39310640 41860730 44565600 47382320
944.95 50331520 53559540 56901720 60378760 64073670 67925520
947.85 71883750 76025190 80345610 84841410 89300980 93792310
950.74 98212570 102517500 106736300 110630400 114153600 117299500
953.63 120065400 122402800 124228200 125662800 126770300 127520800
956.53 128067800 128521900 129032700 129776700 130865600 132395300
959.42 134195800 135896900 136913900 136656800 134963300 131869600
962.31 127771100 123286100 118886000 115666700 113934000 112941100
965.20 112198400 111269700 109879800 107725900 104659000 100805900
968.10 96111690 90691340 84766590 78403620 71887660 65397240
970.99 58969870 52840860 47133240 41864110 37083160 32814940
973.88 29042240 25755190 22929530 20518060 18421190 16621340
976.77 15135690 13871280 12787890 11839770 11004750 10260390
979.67 9598574 9056178 8591974 8154324 7758744 7401062
982.56 7116914 6867934 6622918 6421870 6213882 6025894
985.45 5864484 5709812 5560906 5452230 5397728 5316102
988.35 5211142 5126856 5097654 5069470 5009524 4945016
991.24 4905174 4898154 4913206 4894020 4905240 4955776
994.13 5032338 5078706 5075716 5127320 5233410 5309692
997.02 5383808 5506040 5641364 5764980 5928822 6125214
999.92 6322920 6510846 6711702 6930602 7185138 7451666
1002.81 7697136 8029550 8396714 8742144 9092454 9472824
1005.70 9860696 10263980 10681860 11157620 11672020 12184420
1008.59 12724970 13322420 13956750 14582790 15237630 15957880
1011.49 16729090 17545120 18427140 19368680 20317870 21277050
1014.38 22265870 23307770 24371200 25407090 26475990 27503610
1017.27 28473940 29380610 30243230 31009650 31657900 32088210
1020.17 32201510 32072890 31930860 31793880 31630190 31523060
1023.06 31507660 31652770 31994390 32570190 33427450 34349100
1025.95 35004870 34609490 32748530 31001420 30185940 29902170
1028.84 29877770 29975130 30073610 30140700 30080230 29919180
1031.74 29689880 29311090 28780060 28137300 27362090 26546430
1034.63 25735370 24970340 24216080 23514870 22916140 22369430
1037.52 21922420 21594990 21343750 21192330 21131680 21130170
1040.41 21180920 21362200 21618400 21901550 22240340 22698060
1043.31 23238330 23824870 24464260 25160840 25912720 26717630
1046.20 27604110 28559180 29594520 30697920 31868720 33097300
1049.09 34394840 35774860 37245980 38849500 40545910 42345060
1051.99 44277610 46347970 48568270 50970380 53508440 56186760
1054.88 59052020 62148160 65542240 69185180 73059630 77213210
1057.77 81666570 86430140 91519620 96984330 102796800 109028200
1060.66 115724400 122853000 130374800 138376100 146928100 156179700
1063.56 166004500 176378800 187287700 198837300 211165300 224071900
1066.45 237549600 251442600 265807000 280841000 296254300 312066300
1069.34 328145000 344737200 361725500 378807200 395981700 412950700
1072.23 429950100 446818300 463492500 480237400 496279200 511286600
1075.13 525021500 537355400 548360900 557520400 564687700 570035100
1078.02 574115600 577541800 580575000 583343000 586292700 589582000
1080.91 592932900 595968800 599140500 601725200 601697200 598124500
1083.81 592229500 585309100 573104100 554266000 535394400 518911000
1086.70 504400900 492007700 479785500 467732800 456028700 443264900
1089.59 429345300 413642700 395626400 375651000 353909700 331011800
1092.48 307090000 282451200 257940100 234357300 212186600 191803100
1095.38 173462900 157410500 143721600 132342700 123279700 116258900
1098.27 111110200 107684800 105736300 105214900 105880700 107533000
1101.16 110043400 113441500 117482100 122196700 127521200 133450600
1104.05 140016200 147048200 154512300 162394700 170786400 179631500
1106.95 188949400 198671600 208650900 218842700 229181700 239827700
1109.84 250735000 261772100 272966000 284255200 295489600 306818700
1112.73 318142300 329271100 340202500 350778300 360981200 370519600
1115.63 378896300 386381400 392869200 398082300 401816500 404199200
1118.52 405751600 406469400 406299300 405828700 405263200 404150700
1121.41 402704200 400946200 398460500 395448800 390966900 384039100
1124.30 374984500 363715600 351012100 339050300 329750100 322764600
1127.20 315347300 307512500 299648800 291054700 281540600 270724500
1130.09 258768100 245857800 232293300 218270300 203945600 189707800
1132.98 175907100 162576200 150066300 138435100 127621000 117658600
1135.87 108703200 100685800 93591150 87342020 81921290 77178320
1138.77 73171580 69796250 66916880 64396600 62254300 60480800
1141.66 59085650 57887020 56796410 55995990 55558920 55338070
1144.55 55270150 55366710 55562220 55878300 56272800 56786110
1147.45 57368360 57985390 58676070 59380010 60112030 60875200
1150.34 61638330 62475710 63287210 64034400 64818450 65627510
1153.23 66387840 67055250 67692460 68283220 68840700 69404530
1156.12 69984640 70504040 70971870 71456580 71901820 72194100
1159.02 72429500 72656150 72839120 72973480 72942740 72739300
1161.91 72390540 71976660 71612610 71155430 70699620 70267220
1164.80 69824460 69411940 69006180 68521170 68064870 67680650
1167.69 67288320 66940280 66617410 66320770 66116580 65918630
1170.59 65789100 65726280 65665400 65615530 65591250 65609710
1173.48 65685480 65834750 66047060 66266010 66601260 67095410
1176.37 67689030 68344160 69136160 70005340 70936220 72024360
1179.26 73358230 74847930 76525900 78482860 80683900 83121820
1182.16 85913540 89031150 92472530 96325800 100586500 105259200
1185.05 110470400 116312000 122748000 129821600 137614400 145989000
1187.94 155100100 165029600 175660100 187063700 199400600 212621300
1190.84 226611500 241366300 256706400 272605400 289003100 305887800
1193.73 323095700 340497300 358058200 375922200 393905000 411729000
1196.62 429756900 447942500 466179600 484572800 503445700 522595200
1199.51 541928900 560805700 579631400 597719300 614017700 628491800
1202.41 640720300 651326400 660272200 667935600 675648100 683202600
1205.30 690351000 698269400 705723800 710642800 713297500 715594400
1208.19 717599000 717581900 713184600 704325800 692866000 679053400
1211.08 663670800 648825700 634173100 618514300 601735600 584236400
1213.98 565219500 544102700 521331000 496896100 471025200 444529700
1216.87 417992500 391168000 364735900 339635400 316006200 294181500
1219.76 274276400 256389900 240470500 226269100 213955700 203403300
1222.66 194235300 186471400 180065700 174832300 170495600 167011100
1225.55 164335200 162352200 160836900 159713300 159063100 158874000
1228.44 159021500 159357000 159893500 160618900 161533800 162544500
1231.33 163573200 164621700 165746800 166971500 168197900 169357200
1234.23 170519500 171719300 172934200 174102800 175340700 176517800
1237.12 177635400 178753700 179868600 181012500 182026000 182870200
1240.01 183701200 184418200 184916800 185103400 185115400 184986400
1242.90 184736900 184267600 183568200 182744000 181841100 180797500
1245.80 179643000 178569900 177419300 176159000 175099400 174135300
1248.69 173176400 172270600 171396500 170530800 169623900 168719400
1251.58 167729800 166665800 165492000 164214300 162863100 161395700
1254.48 159849400 158204400 156511300 154810500 152994200 150964800
1257.37 148840200 146778300 144587600 142292500 140021400 137667000
1260.26 135309800 132910900 130401800 127758700 125024600 122208600
1263.15 119133300 115849200 112548800 109254900 106073800 103045400
1266.05 100084000 97130090 94233080 91369190 88524950 85638030
1268.94 82752500 79868260 77007670 74198740 71445230 68679730
1271.83 65978600 63336320 60841590 58457070 56123260 53874930
1274.72 51728110 49689400 47736790 45931710 44225170 42570130
1277.62 41034890 39592890 38212400 36909340 35707460 34566980
1280.51 33531220 32544350 31569670 30655100 29811500 29038730
1283.40 28287830 27607570 26983480 26343500 25761330 25247520
1286.30 24738600 24271940 23855310 23423950 22983570 22547020
1289.19 22133540 21746490 21381070 21038100 20698860 20364240
1292.08 20067970 19801300 19540690 19264350 18990900 18759640
1294.97 18519210 18277330 17992620 17709920 17464200 17205490
1297.87 16963180 16750090 16562820 16398420 16222350 16050820
1300.76 15846680 15643330 15440730 15196250 14933000 14625740
1303.65 14309650 14015940 13733180 13464490 13151730 12863270
1306.54 12617260 12393170 12179070 11954970 11761050 11608870
1309.44 11446560 11288120 11160070 11037400 10925060 10822850
1312.33 10715880 10642830 10573540 10502680 10443150 10376390
1315.22 10319390 10274020 10236800 10182920 10113060 10043240
1318.12 9991184 9949840 9900890 9856754 9810218 9773170
1321.01 9720226 9648706 9562908 9479062 9409722 9331402
1323.90 9241202 9154364 9054356 8979008 8936338 8896566
1326.79 8850360 8812736 8808150 8780960 8726944 8651066
1329.69 8560786 8502934 8473760 8472374 8465008 8480990
1332.58 8513450 8557274 8553716 8593516 8678036 8775576
1335.47 8907182 9114798 9292204 9472388 9750072 10116940
1338.36 10488090 10902710 11390580 11957790 12555760 13230560
1341.26 14061860 15042220 16173070 17455770 18928700 20629350
1344.15 22560070 24701130 27129050 29852200 32902440 36268100
1347.04 40011310 44210360 48819640 53803400 59242620 65094560
1349.94 71330340 78046900 85202490 92760680 100658200 108774900
1352.83 117144800 125760000 134544500 143432900 152285400 161097600
1355.72 169827900 178430000 186929600 195296600 203641500 211880000
1358.61 220019000 228368600 237091700 246225100 255961000 266289900
1361.51 277172800 288244800 298513600 307520800 316844900 328340700
1364.40 340425700 352042500 360907800 362008300 356203000 348998900
1367.29 342342700 335452300 327754600 319430100 310730400 302066600
1370.18 293991300 287192200 281467500 275494500 267413200 257506700
1373.08 247565000 238575500 230399400 222571000 214891200 207334900
1375.97 199676900 192048800 184617000 177399300 170506200 164084500
1378.86 158340500 153326200 149176000 145963400 143781700 142767100
1381.76 142979500 144217000 146557900 150030300 154402000 159466900
1384.65 165042300 170926700 176930500 182802400 188595000 194254200
1387.54 199300100 203970300 208602000 212797400 215355100 215994300
1390.43 215772700 215915100 217166400 219778000 223542400 228242300
1393.33 233275600 237712000 240265200 240151200 236962500 230432100
1396.22 222086900 214864300 210445600 208980900 209882200 212039700
1399.11 213877200 214807300 214489200 212419000 208321800 202220600
1402.00 194254100 184738100 174025200 162587500 150831000 139058900
1404.90 127335200 116011500 105523800 95869930 87054490 79103290
1407.79 72029700 65856060 60460210 55738350 51628230 48075560
1410.68 45029450 42383850 40043110 37998110 36221120 34645510
1413.58 33255250 31996800 30866180 29897730 29030590 28245760
1416.47 27595830 27064710 26385200 25848950 25791370 25962080
1419.36 25118550 24097760 23668670 23392510 23145270 22918510
1422.25 22774260 22669970 22684770 22625410 22487410 22410650
1425.15 22428590 22499840 22609280 22748320 22927840 23162860
1428.04 23461160 23837700 24395190 25014970 25436670 25953770
1430.93 26646820 27421940 28276830 29202330 30159640 31123520
1433.82 32135940 33165180 34244990 35412790 36934100 38562740
1436.72 39169370 39658300 40669700 41765770 42863340 43950770
1439.61 45043880 46121790 47207260 48309820 49434320 50541950
1442.50 51678420 52846000 54063090 55242580 56399840 57556580
1445.40 58694140 59810860 60901230 62151030 63940210 65462010
1448.29 66160170 66465650 66703120 66978620 67209710 67444740
1451.18 67704500 67978140 68194740 68562150 69069090 69685140
1454.07 70404930 71256100 72112180 73168980 74906980 76136340
1456.97 76155260 76779670 77675860 78337440 78996490 79487380
1459.86 79959380 80463720 80965030 81455500 81937480 82429960
1462.75 82875900 83223410 83499130 83778330 83565550 83070510
1465.64 82978790 83184890 83635380 84154090 84656030 84954100
1468.54 84889380 84325150 83331270 82069480 80828020 79796470
1471.43 79031980 77780580 76517930 75948050 74829080 73471060
1474.32 72500730 71666420 71028420 70412270 69508970 68639860
1477.21 67984900 67466630 67044950 66741820 66564140 66507400
1480.11 66577730 66822010 67114580 67405300 67820740 68256450
1483.00 68606050 68831160 68928730 68810790 68500460 68007160
1485.89 67357910 66699230 66028780 65050910 64124900 63531060
1488.79 63321140 63523920 63956200 64754510 65429640 65454820
1491.68 64557160 62576500 59840500 56827860 54525190 53070560
1494.57 52231880 51903880 52259660 51806420 50493520 49539310
1497.46 48531520 47529040 46160240 44072290 41924100 39826500
1500.36 37640240 35427780 33207240 30981850 28839190 26804390
1503.25 24875640 23085250 21509210 20717440 19942890 17951750
1506.14 17042240 16494070 14595410 13169420 12383440 11484540
1509.03 10807560 10206530 9514014 8945504 8486582 8307360
1511.93 8057150 7414634 6950596 6626568 6404760 6298070
1514.82 6028130 5716806 5696604 5708162 5704432 5431824
1517.71 4929650 4658480 4551350 4612272 4807452 4877464
1520.61 5594376 5299122 4340730 4432760 4208854 3823244
1523.50 3649628 3654082 3833152 4168082 3815544 3431780
1526.39 3448422 3531512 3380874 3392300 3339572 3160490
1529.28 3079130 3082504 3060186 3103512 3129748 3083154
1532.18 3171366 3448598 3670096 3569048 3079942 2947866
1535.07 2899768 2896206 2861808 2912366 2902582 3059404
1537.96 3656218 4904920 4463380 4013770 4287830 3444206
1540.85 3141254 3860254 4001014 3196886 3011248 2930104
1543.75 2860504 3128686 3436940 3054662 2750794 2689448
1546.64 2703320 2701140 2709512 2693432 2715148 2852880
1549.53 2968698 2878540 2714712 2675418 2674300 2685546
1552.43 2699366 2781374 3245906 3796032 3235594 2795920
1555.32 2732546 2771508 2900722 3533514 3966230 4622044
1558.21 4791390 3767776 4112786 4890254 4108440 3009892
1561.10 2848342 2772012 2811150 2786354 2839992 2838546
1564.00 3014300 3116878 2992868 2872888 2870542 2848274
1566.89 2892028 2874732 2967128 3126704 3477086 3770164
1569.78 3388656 2993490 2968578 2945440 2981026 2974052
1572.67 3021780 3010334 3073256 3083204 3225904 3870698
1575.57 5211690 4667868 3453718 3212678 3194232 3217020
1578.46 3222606 3214590 3226494 3266584 3315408 3343736
1581.35 3344432 3339456 3363738 3374394 3391244 3408232
1584.25 3431166 3442670 3456648 3457904 3452716 3449936
1587.14 3456066 3473432 3475508 3459948 3447388 3426538
1590.03 3424734 3407158 3418642 3398436 3360824 3326150
1592.92 3316644 3279950 3262292 3223700 3171164 3146044
1595.82 3146392 3097690 3061906 3032950 2993332 2940308
1598.71 2899060 2830444 2775784 2727050 2701984 2626292
1601.60 2548464 2493942 2476236 2403224 2333906 2277412
1604.49 2227348 2162796 2131588 2096990 2091408 2055280
1607.39 2012718 1959586 1956278 1970758 1934668 1857180
1610.28 1832428 1789234 1793774 1780008 1782030 1752502
1613.17 1776570 1753656 1753144 1736586 1824872 2296372
1616.07 3534942 3219840 2025644 1751400 1713946 1734428
1618.96 1741268 1749682 1738412 1741350 1738882 1765686
1621.85 1838284 1968912 2344514 2395600 1942702 1825832
1624.74 1812314 1837330 1815858 1858806 1957188 2205808
1627.64 2192634 2017254 1968776 1983226 2006644 2048262
1630.53 2065618 2090558 2124360 2166608 2192216 2244594
1633.42 2308034 2569548 3113606 3899876 3908040 2925356
1636.31 2621396 2801458 2862340 2684110 2654774 2654636
1639.21 2719938 2762498 2808530 2825052 2880010 2919652
1642.10 2962248 2966600 3008516 3021416 3079616 3186140
1644.99 3809908 4541596 3971894 3512912 3691500 3633312
1647.89 3605812 3361842 3289490 3266544 3324254 3298344
1650.78 3412402 3900552 5287402 5758666 5922822 4993684
1653.67 4038300 4008052 3474910 3257742 3178148 3180460
1656.56 3123170 3124474 3070822 3070128 3035846 3040754
1659.46 3000220 3005982 2982550 2996974 3006448 3310612
1662.35 3584360 3220788 2896366 2871030 2847564 2844802
1665.24 2805676 2806698 2780716 2800270 2820038 2928728
1668.13 3065358 3604684 3625294 3004724 2817562 2982880
1671.03 3179038 2991332 2810284 2787620 2807498 2857890
1673.92 3015590 3654112 4065906 3470696 3034854 2954544
1676.81 2962480 2985314 3011724 3035250 3105336 3222242
1679.71 3320544 3334848 3268978 3281634 3335338 3581896
1682.60 4028018 4192760 4428822 5664746 6005580 4421784
1685.49 3830768 3810222 3911410 3958612 4120440 4206422
1688.38 4220596 4248114 4441324 4490942 4470698 4492234
1691.28 4603994 4648530 4738000 4779632 4889396 4951538
1694.17 5117238 5665206 7175618 7356980 5840886 5335486
1697.06 5381810 5363322 5363312 5498540 6241248 7216630
1699.95 7189394 6540756 5624236 5252822 5191842 5173952
1702.85 5133078 5235602 5493252 5379214 5046950 5024578
1705.74 5175092 4994666 4661892 4524158 4401384 4327284
1708.63 4254798 4237020 4227188 4111878 3918672 3803322
1711.53 3685282 3581316 3470630 3410804 3399376 3328424
1714.42 3495710 3446288 2940852 2816242 3298056 4399342
1717.31 3799584 3052978 3054636 2619828 2363746 2299864
1720.20 2292646 2262740 2225522 2192908 2205308 2239928
1723.10 2265160 2197940 2168422 2137026 2135432 2141546
1725.99 2167626 2157098 2155966 2155430 2178010 2198464
1728.88 2283430 2438654 2448600 2315250 2313644 2344118
1731.77 2426672 2753114 3692954 3672604 3683760 4089790
1734.67 3273178 2813616 2779132 2830944 2850786 2917782
1737.56 2918068 2967248 3066630 3520848 3721890 3276740
1740.45 3070996 3108966 3190636 3361896 3679188 4070172
1743.34 4353394 4334602 3989342 3735804 3702708 3691914
1746.24 3750698 3876546 3906472 4062388 4306850 4362036
1749.13 4337972 4371688 4601284 5188614 5248104 4616500
1752.02 4365950 4351192 4341122 4333126 4318040 4271066
1754.92 4254522 4258384 4432178 4624500 4428916 4330558
1757.81 4358192 4353576 4273262 4189174 4106260 4058038
1760.70 4127432 4450778 4260952 3790568 3613670 3505046
1763.59 3440582 3351982 3264298 3155884 3076320 2984068
1766.49 2919078 2935980 3260078 3194482 2734752 2602532
1769.38 2529108 2484686 2608634 2804632 2614670 2982260
1772.27 3477788 2762194 2238650 2149692 2113896 2154314
1775.16 2212134 2128462 2043284 2028098 2014062 2025558
1778.06 2045314 2092424 2096970 2131216 2292948 2328320
1780.95 2220308 2222940 2246900 2300318 2346496 2410350
1783.84 2529274 2818390 2832032 2735986 2760132 2835628
1786.74 2927722 3028218 3134074 3245862 3339146 3464534
1789.63 3621812 3909776 4122198 4119696 4406596 5110522
1792.52 5089846 4738658 4816118 4992180 5191566 5396964
1795.41 5651646 5831956 6018086 6247894 6468704 6679108
1798.31 6927474 7284658 7580042 7633854 7816880 8109148
1801.20 8295848 8492198 8691132 8761964 8902500 9033806
1804.09 9168290 9282526 9388330 9455992 9551800 9628006
1806.98 9727692 9777164 9816232 9869146 9911432 9961484
1809.88 10101510 10087890 9928206 9847642 9803418 9696270
1812.77 9530678 9391352 9328158 9241682 9181108 9127332
1815.66 9038590 8907130 8771242 8590354 8355560 8089920
1818.56 7816066 7532356 7248104 6966826 6695206 6423888
1821.45 6180028 5952574 5734776 5524108 5374870 5254066
1824.34 5293876 5314788 4994238 4759532 4658438 4577850
1827.23 4486184 4399770 4382308 4380836 4408028 4482192
1830.13 4184416 3912072 3807532 3727496 3671844 3615272
1833.02 3561018 3477662 3396072 3314124 3217394 3104876
1835.91 3023132 2961434 2875760 2743270 2664090 2600208
1838.80 2533916 2443634 2366066 2308054 2280734 2255652
1841.70 2254338 2210230 2231866 2492228 3032560 2787430
1844.59 2262552 2160066 2153132 2172348 2167338 2219636
1847.48 2246550 2195872 2196316 2211926 2225520 2233314
1850.38 2235358 2235054 2241192 2263216 2274776 2292966
1853.27 2309908 2305838 2300232 2311156 2326766 2343406
1856.16 2353838 2356892 2368436 2383654 2399722 2391402
1859.05 2388990 2399052 2406246 2395192 2375538 2359028
1861.95 2350600 2340816 2337746 2323266 2313288 2294710
1864.84 2292368 2329440 2354956 2308422 2297678 2368006
1867.73 2338532 2335600 2540666 2424796 2158202 2110410
1870.62 2062836 2015552 1999376 1982866 1954936 1935406
1873.52 1919800 1913318 1880484 1855704 1842942 1830084
1876.41 1782026 1750744 1722528 1723852 1717256 1720498
1879.30 1715566 1695810 1697538 1701500 1696294 1692398
1882.20 1683804 1686642 1698784 1734712 1753790 1747642
1885.09 1746006 1751328 1767964 1777722 1804302 1833248
1887.98 1858268 1944616 2103690 2083798 1992496 2006238
1890.87 2033500 2069568 2124070 2180940 2222882 2271734
1893.77 2325386 2401164 2472576 2489616 2524278 2583948
1896.66 2652600 2721424 2768904 2846372 2944852 3015542
1899.55 3082382 3168546 3269096 3353694 3434032 3548588
1902.44 3662688 3771926 3902522 4031452 4158634 4280104
1905.34 4412252 4570402 4733580 4899828 5070810 5236864
1908.23 5385676 5560574 5782036 5997876 6159140 6341950
1911.12 6542142 6759098 6971616 7200684 7408964 7619526
1914.02 7842920 8083398 8299624 8530890 8784580 9053760
1916.91 9374008 9840050 10023190 10060400 10263060 10501500
1919.80 10741260 10939390 11152680 11359670 11599210 11830550
1922.69 12038370 12153410 12248100 12355250 12468970 12561510
1925.59 12624110 12662770 12682600 12673610 12646990 12609800
1928.48 12546130 12474950 12408120 12316930 12200280 12068460
1931.37 11954360 11809900 11638170 11437520 11231740 10995970
1934.26 10755350 10505740 10229070 9948018 9663418 9381190
1937.16 9143590 8903044 8657826 8391384 8092316 7779178
1940.05 7445742 7092228 6730664 6404966 6133540 5720556
1942.94 5271758 4918074 4605858 4342774 4114956 3912100
1945.84 3730452 3568594 3424860 3343188 3295838 3240318
1948.73 3193094 3160598 3142554 3120974 3104886 3113476
1951.62 3124302 3146604 3176092 3204858 3244362 3288460
1954.51 3334040 3374638 3410980 3463312 3543778 3622110
1957.41 3677040 3731260 3768524 3830472 3920272 3998056
1960.30 4055304 4113408 4173938 4226830 4273430 4332614
1963.19 4369234 4409184 4464676 4503680 4519342 4541416
1966.08 4568372 4618760 4643446 4581138 4553546 4552314
1968.98 4544326 4516194 4487140 4459286 4439306 4412268
1971.87 4351942 4286520 4249512 4181512 4103012 3999974
1974.76 3905044 3846654 3796784 3735200 3651384 3576086
1977.66 3495526 3393614 3302890 3201104 3067912 2943226
1980.55 2829244 2718506 2616880 2514734 2408818 2306682
1983.44 2217532 2132518 2059564 1993834 1919532 1846664
1986.33 1792538 1732064 1674278 1639222 1595096 1543756
1989.23 1512516 1465972 1424914 1414696 1443990 1433022
1992.12 1359312 1312518 1273134 1240460 1211328 1200162
1995.01 1188642 1173294 1181008 1174092 1124452 1111714
1997.90 1127724 1113342 1096516 1091162 1085614 1072346
2000.80 1060686 1062454 1050232 1052360 1064516 1055980
2003.69 1043756 1040990 1042198 1036254 1036626 1045374
2006.58 1048098 1061338 1074160 1066476 1061212 1055824
2009.48 1056078 1057198 1066532 1076854 1080804 1072532
2012.37 1057368 1062222 1081222 1076446 1086102 1111038
2015.26 1111840 1118834 1146180 1141222 1145056 1153720
2018.15 1142762 1137630 1146010 1165938 1183074 1179716
2021.05 1171654 1189412 1214668 1232204 1248836 1253762
2023.94 1279432 1302868 1307482 1323344 1354696 1381780
2026.83 1401382 1420502 1443058 1460064 1481222 1520288
2029.72 1558006 1571176 1608522 1646046 1671836 1705310
2032.62 1756088 1796304 1828636 1862060 1927748 1984976
2035.51 2033024 2083756 2132650 2183170 2241996 2319940
2038.40 2370324 2421234 2504560 2572670 2637554 2708144
2041.29 2759216 2811074 2882246 2949856 3000618 3053074
2044.19 3122008 3182292 3235346 3284932 3344164 3395984
2047.08 3449786 3488674 3519296 3569402 3621938 3642508
2049.97 3649200 3674206 3703048 3712454 3707328 3712252
2052.87 3711782 3693638 3673934 3661414 3641488 3611578
2055.76 3585132 3541162 3483380 3424770 3375518 3305360
2058.65 3211998 3122134 3028998 2943502 2837660 2731678
2061.54 2635794 2569070 2492976 2390126 2273026 2188944
2064.44 2119772 2030804 1951762 1864324 1779950 1699972
2067.33 1637324 1572454 1500026 1450340 1407286 1357626
2070.22 1318768 1290326 1262176 1225476 1216388 1228538
2073.11 1200676 1172696 1162174 1159068 1157136 1158548
2076.01 1154208 1154826 1159910 1162694 1178892 1191882
2078.90 1207180 1234106 1263362 1264144 1276698 1297082
2081.79 1308276 1330366 1359500 1372514 1387358 1385576
2084.69 1411722 1459558 1488320 1511460 1542006 1568420
2087.58 1603462 1649700 1682482 1729188 1782060 1792048
2090.47 1796510 1840780 1898358 1922588 1931914 1972538
2093.36 2029128 2081262 2118126 2160236 2200956 2231956
2096.26 2260592 2301074 2361662 2413384 2440282 2472180
2099.15 2494254 2526630 2571558 2601974 2655502 2700750
2102.04 2730980 2766554 2797382 2822166 2833806 2847796
2104.93 2876290 2906620 2909934 2911836 2927414 2920048
2107.83 2907404 2889474 2851770 2813788 2777270 2731762
2110.72 2684382 2618634 2565604 2524580 2488616 2463994
2113.61 2425048 2374162 2326578 2310400 2260568 2208312
2116.51 2160114 2117248 2087168 2044632 2016172 1983378
2119.40 1941860 1912452 1885086 1858894 1826636 1815340
2122.29 1807208 1797750 1792202 1789244 1782062 1774832
2125.18 1771512 1768646 1780082 1784684 1779272 1796580
2128.08 1815422 1811872 1808830 1819040 1850958 1873864
2130.97 1876020 1888014 1906070 1912172 1908700 1911546
2133.86 1915146 1918060 1939904 1977684 1996210 2006950
2136.75 2032092 2053900 2067300 2081856 2090170 2090014
2139.65 2091308 2086346 2094420 2095694 2087120 2113536
2142.54 2135348 2129832 2139050 2159896 2163544 2161744
2145.43 2163180 2170066 2201374 2207132 2192270 2207312
2148.33 2214960 2223664 2247832 2263406 2270852 2274178
2151.22 2282170 2301122 2335936 2362008 2395838 2435500
2154.11 2471562 2496130 2517900 2558500 2573538 2580390
2157.00 2615112 2658806 2692214 2709280 2722480 2758408
2159.90 2781692 2807048 2843812 2877054 2914366 2944580
2162.79 2959940 2968652 2985852 3006938 3028678 3066922
2165.68 3101702 3122982 3157718 3181358 3193810 3206848
2168.57 3205708 3211204 3221362 3247532 3282136 3304424
2171.47 3325062 3334390 3347510 3357072 3386016 3423564
2174.36 3435326 3455582 3490276 3529396 3562784 3590398
2177.25 3619960 3629656 3649164 3684818 3727064 3766294
2180.15 3809874 3860492 3908680 3974558 4038808 4097300
2183.04 4157776 4230156 4306260 4363948 4428290 4503806
2185.93 4570946 4637278 4712018 4777756 4839628 4925336
2188.82 5025568 5102854 5163884 5230008 5296754 5364738
2191.72 5441738 5501116 5548752 5583736 5612474 5621042
2194.61 5642142 5681434 5694982 5678866 5658596 5670408
2197.50 5673160 5643718 5625162 5594566 5560990 5531394
2200.39 5494118 5440856 5383956 5324946 5252944 5169746
2203.29 5085288 5013172 4921144 4818942 4726678 4638890
2206.18 4536962 4423080 4313774 4202218 4094390 3988560
2209.07 3898636 3800230 3668298 3536984 3438968 3332232
2211.97 3236480 3148534 3038736 2950344 2866980 2812552
2214.86 2746350 2648016 2572028 2521130 2455156 2394850
2217.75 2354306 2318130 2293118 2271542 2245676 2227710
2220.64 2210376 2211126 2204596 2186102 2178414 2194408
2223.54 2213760 2210118 2209144 2228198 2234510 2239740
2226.43 2250474 2268880 2284520 2306552 2310638 2310752
2229.32 2338742 2397532 2439164 2446918 2476968 2513236
2232.21 2548848 2586924 2625614 2646590 2663250 2699302
2235.11 2726922 2751568 2773990 2788506 2791380 2807212
2238.00 2838520 2843096 2829934 2814210 2821868 2829392
2240.89 2814814 2802390 2793460 2782198 2782656 2774574
2243.79 2746618 2720884 2699940 2673554 2634436 2581456
2246.68 2546114 2521792 2490464 2456870 2428556 2404324
2249.57 2391934 2381190 2368136 2362064 2368032 2350034
2252.46 2316268 2298652 2277378 2275832 2278966 2281224
2255.36 2280794 2294398 2305436 2324184 2350454 2386856
2258.25 2426220 2476900 2532604 2586616 2638302 2678220
2261.14 2728564 2802028 2850932 2886184 2959546 3048860
2264.03 3105006 3184264 3283944 3366874 3427162 3466128
2266.93 3509634 3564988 3630494 3709692 3779112 3822196
2269.82 3854052 3926232 3999718 4037818 4074278 4099410
2272.71 4121368 4163836 4202154 4217968 4216012 4214838
2275.61 4204432 4186540 4190462 4204438 4195082 4152600
2278.50 4112586 4094814 4061908 4019456 3995914 3953134
2281.39 3919946 3894064 3854314 3812040 3762472 3707510
2284.28 3667862 3646202 3593450 3512122 3459434 3423866
2287.18 3362516 3272086 3189828 3108048 3032720 2972562
2290.07 2912200 2850726 2791642 2732378 2705580 2660286
2292.96 2598222 2537254 2489530 2417630 2347666 2282804
2295.85 2223644 2178166 2142908 2108256 2057508 1998538
2298.75 1945836 1884838 1831896 1792492 1770512 1737528
2301.64 1703876 1695236 1685054 1653030 1646914 1652938
2304.53 1638662 1615450 1620018 1629402 1622054 1618192
2307.43 1607588 1649908 1681830 1664622 1670564 1697030
2310.32 1718844 1730932 1750306 1772782 1804456 1823082
2313.21 1820092 1831072 1869792 1916536 1905294 1899826
2316.10 1948106 1996956 2019228 2031306 2048312 2097042
2319.00 2134924 2155718 2191944 2244546 2275910 2289168
2321.89 2312242 2375198 2394932 2376032 2413572 2480722
2324.78 2518026 2498540 2520020 2583226 2613224 2619772
2327.67 2672440 2733548 2722938 2708746 2769466 2834558
2330.57 2827698 2805134 2868206 2922834 2901868 2924918
2333.46 2988534 2978400 2893800 2925306 3006904 2979056
2336.35 2951680 3028936 3077512 3030412 3007596 3046774
2339.24 3026130 2973806 2985808 2972896 2910630 2879554
2342.14 2886036 2845780 2798780 2795356 2779056 2726838
2345.03 2707094 2707756 2674536 2627500 2614272 2588862
2347.92 2529244 2501526 2478550 2461668 2435450 2406172
2350.82 2371990 2340912 2317128 2310044 2280208 2257154
2353.71 2247552 2204888 2131930 2120206 2106732 2041106
2356.60 2026818 1988160 1900388 1891362 1854196 1807672
2359.49 1830556 1778918 1750248 1781178 1719784 1723972
2362.39 1765844 1730028 1761464 1777166 1747996 1770438
2365.28 1752586 1746670 1790536 1776386 1801158 1817202
2368.17 1827328 1850748 1845092 1881648 1897992 1926054
2371.06 1989978 2002238 2019516 2021300 2039712 2062860
2373.96 2057962 2067484 2103752 2132010 2158582 2175370
2376.85 2173588 2202506 2229892 2279676 2296644 2294836
2379.74 2295466 2301996 2310430 2322390 2323306 2322990
2382.64 2349038 2357094 2347784 2337558 2330466 2332514
2385.53 2340254 2333770 2322746 2328552 2307164 2295788
2388.42 2292202 2270142 2236086 2208120 2191650 2195294
2391.31 2199604 2193920 2170346 2136310 2104516 2084084
2394.21 2068408 2040000 2020078 2018854 2014726 1992056
2397.10 1966766 1940052 1911100 1878768 1873368 1889710
2399.99 1877036 1858400 1874754 1873222 1859044 1850238
2402.88 1838478 1832982 1835858 1832696 1840512 1842120
2405.78 1858724 1844270 1811330 1818078 1822862 1814542
2408.67 1813770 1807442 1812838 1816336 1802964 1806490
2411.56 1817354 1807828 1788548 1778002 1773832 1786358
2414.46 1796400 1779724 1734864 1719896 1742340 1744308
2417.35 1721432 1697592 1688298 1686364 1696034 1697424
2420.24 1680668 1665980 1670724 1687730 1703998 1705534
2423.13 1694310 1689690 1706612 1719828 1723498 1734556
2426.03 1762986 1796288 1790306 1797044 1845502 1886240
2428.92 1935240 1968582 1987782 2018378 2051614 2098064
2431.81 2152874 2196294 2222344 2243486 2283016 2342656
2434.70 2379738 2394060 2429974 2489832 2538910 2577792
2437.60 2614516 2642910 2682050 2722178 2760758 2793536
2440.49 2811166 2831478 2876314 2904980 2919272 2950310
2443.38 2975978 2976508 2990192 2997336 2989844 2980352
2446.28 2978590 2958994 2950262 2973950 2972332 2933220
2449.17 2891722 2852950 2822904 2806702 2775594 2755766
2452.06 2738350 2693686 2636884 2602456 2592712 2561894
2454.95 2512292 2469230 2442278 2416472 2400594 2380792
2457.85 2348980 2317022 2293822 2275340 2249860 2225052
2460.74 2221984 2186420 2131464 2096862 2076014 2046732
2463.63 2016936 1994784 1973366 1948528 1922774 1907666
2466.52 1892290 1877740 1856762 1823852 1804198 1810800
2469.42 1799140 1791510 1782580 1768540 1759432 1744366
2472.31 1746202 1732302 1705704 1701388 1689412 1681276
2475.20 1679270 1682282 1675226 1653340 1624356 1616194
2478.10 1585232 1548402 1538760 1541942 1503422 1462976
2480.99 1447984 1445878 1430654 1416734 1396748 1389456
2483.88 1391186 1376476 1354428 1334384 1320370 1307152
2486.77 1301672 1309230 1298148 1289476 1275706 1240958
2489.67 1230572 1242132 1232516 1228356 1222366 1209698
2492.56 1214610 1192908 1170044 1161712 1137318 1132062
2495.45 1126046 1097438 1072444 1050582 1028534 1028242
2498.34 1018914 1000512 982048 978418 973128 963226
2501.24 960672 944000 903214 877546 868378 859944
2504.13 852118 846474 853434 844998 821080 814288
2507.02 840638 859052 823256 801598 817508 840046
2509.92 840044 832124 845336 851922 853140 841680
2512.81 818254 837634 867612 875368 879886 882730
2515.70 899410 914894 903844 898502 915552 936878
2518.59 919194 908776 939146 926902 921118 940500
2521.49 945168 915284 923014 921324 915930 912840
2524.38 904032 902908 894102 891676 902582 910294
2527.27 927926 932150 921776 939744 941734 904516
2530.16 889302 906520 913894 916936 907784 886154
2533.06 898298 910858 896258 877136 890458 909720
2535.95 918076 915966 914624 932852 937694 935762
2538.84 956296 971226 969302 990030 1005746 1008522
2541.74 1014918 1028286 1040686 1042338 1065856 1088082
2544.63 1112204 1140004 1166732 1183460 1164832 1170450
2547.52 1222636 1261032 1283458 1290940 1300174 1329990
2550.41 1337338 1341674 1363016 1372380 1393284 1421594
2553.31 1463466 1486420 1516416 1526220 1533218 1544642
2556.20 1556952 1584480 1622838 1634552 1659136 1680472
2559.09 1695116 1704310 1711564 1717068 1737266 1769546
2561.98 1782128 1791244 1805696 1823182 1832562 1846812
2564.88 1868240 1879446 1888692 1912552 1929990 1939726
2567.77 1949414 1973122 1993472 1996964 2005520 2024306
2570.66 2038302 2039746 2062300 2086270 2088382 2067412
2573.56 2057826 2071476 2092090 2102628 2116438 2151028
2576.45 2153092 2160402 2201032 2217520 2226538 2233268
2579.34 2209514 2225056 2272022 2274050 2283526 2308334
2582.23 2330580 2338146 2358686 2390504 2417098 2425510
2585.13 2473544 2494926 2504272 2561566 2592422 2605858
2588.02 2648816 2705806 2783398 2853598 2894054 2925012
2590.91 2971708 3034922 3081200 3134744 3187192 3269388
2593.80 3356204 3449762 3531462 3586166 3655970 3758650
2596.70 3855774 3942868 4052750 4152938 4233582 4332978
2599.59 4440722 4537134 4648312 4759374 4858754 4965972
2602.48 5088778 5204754 5311022 5414886 5561538 5724002
2605.37 5856050 5960886 6086384 6227656 6379576 6510110
2608.27 6642956 6792400 6963234 7117368 7270804 7432946
2611.16 7564514 7706108 7846606 8011760 8181190 8296200
2614.05 8422122 8577430 8719226 8881206 9037594 9177132
2616.95 9296526 9394360 9505714 9612444 9696964 9814230
2619.84 9936924 10032770 10100990 10171640 10235770 10305010
2622.73 10392690 10491610 10537730 10564980 10577120 10595920
2625.62 10610270 10619660 10604530 10548680 10481860 10441040
2628.52 10394040 10314740 10194790 10079680 9960636 9828484
2631.41 9709422 9606868 9495066 9354482 9211994 9062698
2634.30 8899146 8738480 8589928 8453976 8289136 8137858
2637.19 7986554 7833048 7667804 7543412 7424952 7276090
2640.09 7115656 6968184 6845214 6731962 6610600 6488844
2642.98 6362958 6227752 6129202 6056396 5966292 5871714
2645.87 5802274 5737988 5664392 5589810 5568206 5539040
2648.77 5476608 5372188 5340462 5381572 5378248 5347916
2651.66 5304710 5246990 5221058 5238034 5249278 5231698
2654.55 5229184 5235056 5216742 5192052 5187680 5205548
2657.44 5238680 5244542 5243224 5242948 5227414 5216368
2660.34 5218412 5215286 5210534 5210304 5237082 5257002
2663.23 5256180 5261192 5275860 5275172 5244730 5243730
2666.12 5260554 5250570 5220152 5204306 5201734 5199040
2669.01 5189612 5177522 5190980 5175178 5141094 5121814
2671.91 5114560 5096828 5092450 5102152 5102858 5084960
2674.80 5074340 5060408 5068886 5061608 5047382 5035168
2677.69 5024818 5004660 5001362 5011736 4995500 4977750
2680.59 4989728 5016372 5032442 5019102 5017700 5016396
2683.48 5021830 5051664 5076976 5048904 5029868 5036212
2686.37 5026218 5041126 5048820 5054484 5076562 5084530
2689.26 5085446 5114302 5134634 5154672 5158022 5180922
2692.16 5234160 5268892 5272816 5302512 5328572 5355232
2695.05 5400848 5455624 5489436 5530852 5582446 5643900
2697.94 5732234 5790820 5874402 5966926 6065936 6170986
2700.83 6297984 6418728 6561958 6708580 6889460 7078156
2703.73 7255460 7424270 7632496 7860562 8118196 8372254
2706.62 8636380 8932598 9219510 9537914 9865050 10196610
2709.51 10532720 10874630 11247070 11624290 11992550 12350280
2712.41 12719820 13126340 13517180 13892800 14289440 14686520
2715.30 15079830 15457750 15810080 16153920 16528390 16918850
2718.19 17306580 17694570 18057440 18350550 18599140 18826820
2721.08 19011440 19139580 19241820 19380190 19560390 19774080
2723.98 20023320 20254990 20477110 20668000 20845740 20990970
2726.87 21152360 21310860 21455040 21615960 21803980 21935400
2729.76 22009530 22064130 22147750 22159940 22142340 22183010
2732.65 22213590 22194420 22170090 22129000 22029320 21940220
2735.55 21878700 21802620 21733110 21664930 21620650 21584810
2738.44 21528600 21472410 21409070 21334870 21237720 21125120
2741.33 21018930 20888940 20714310 20564320 20413190 20278950
2744.23 20154660 19986710 19806610 19563200 19276660 18996230
2747.12 18707330 18459210 18208950 17963990 17724780 17528900
2750.01 17359920 17205850 17049460 16827830 16605600 16430640
2752.90 16258830 16125030 15970340 15780180 15638160 15544840
2755.80 15460420 15410280 15378230 15341600 15296320 15246690
2758.69 15241510 15258970 15311000 15375500 15496270 15643650
2761.58 15776590 15930780 16141000 16338570 16521460 16687900
2764.47 16847820 16989910 17162500 17314100 17436910 17600410
2767.37 17809840 18043230 18270360 18445560 18595310 18761380
2770.26 18960760 19165850 19338770 19465480 19578510 19666990
2773.15 19782520 19915630 20037680 20157150 20286460 20384520
2776.05 20400840 20362690 20287720 20209810 20138530 20056920
2778.94 19993050 19953990 19933500 19935350 19911760 19895630
2781.83 19885120 19839750 19776450 19683480 19608510 19512770
2784.72 19371060 19263990 19123760 18967320 18845300 18709310
2787.62 18554690 18419810 18277020 18155480 18091000 18013730
2790.51 17900610 17785640 17713500 17645970 17547190 17487520
2793.40 17478270 17437470 17411760 17404810 17387720 17376390
2796.29 17372980 17383400 17428740 17463280 17509790 17546130
2799.19 17615240 17751130 17950220 18070750 18218050 18395920
2802.08 18566770 18784310 19013390 19266970 19557580 19854600
2804.97 20147310 20443150 20728350 21047020 21328120 21606470
2807.87 21903550 22185610 22470020 22773970 23074750 23373460
2810.76 23703110 24102510 24513770 24920420 25304190 25745750
2813.65 26198780 26600550 26952110 27296950 27688280 28113090
2816.54 28540710 28965150 29417190 29884480 30297170 30729590
2819.44 31173420 31600550 32004470 32383750 32757520 33176480
2822.33 33565590 33923750 34305630 34671970 35036880 35403150
2825.22 35747900 36101230 36457820 36783000 37136260 37522200
2828.11 37892000 38287630 38745470 39234320 39687700 40156790
2831.01 40635740 41148740 41664070 42187760 42744470 43320990
2833.90 43900610 44501840 45128340 45757550 46454180 47157200
2836.79 47849790 48525880 49207880 49967830 50741940 51515630
2839.69 52300070 53017600 53722060 54433120 55198280 56026250
2842.58 56771980 57545020 58361610 59159500 59940020 60706540
2845.47 61529240 62407240 63339960 64295610 65224860 66197540
2848.36 67239990 68239850 69275520 70355830 71431510 72513640
2851.26 73627870 74800460 76024780 77287860 78607210 79915760
2854.15 81260690 82671100 84150590 85721040 87359900 89145890
2857.04 91038140 92931460 94888640 97054300 99309280 101597700
2859.93 104058500 106756700 109657600 112699900 115894600 119239100
2862.83 122688200 126365500 130215900 134242600 138411100 142789700
2865.72 147503800 152317200 157275400 162467900 167864100 173472300
2868.61 179168800 185058100 191177600 197451600 203779900 210022500
2871.51 216194700 222422100 228711000 234876900 241013700 247126700
2874.40 252978700 258701300 264626000 270820400 277200000 283973800
2877.29 291422800 299477900 307654400 315378100 322329600 328045600
2880.18 332284300 335619200 338578400 341515300 344671400 348039600
2883.08 351305200 354553500 357811300 360919200 363673200 366094300
2885.97 368214400 369859300 371307300 372508700 373540500 374468700
2888.86 375470500 376393400 377270700 378226500 379107600 379966900
2891.75 380785800 381864000 383051800 384079600 384779200 385681200
2894.65 386848500 388010600 389072500 389577400 389459400 388945300
2897.54 388037200 386524000 384597600 382434200 379881200 377127700
2900.43 374434600 371590500 368376700 365286300 362176100 358969300
2903.32 355886000 352755300 349580400 346581000 343559400 340418900
2906.22 337267200 333748000 329934200 325858000 321665000 317647200
2909.11 314047000 310802500 307711900 304527100 301373800 298147400
2912.00 294824700 291379600 287838100 284202300 280519500 277032000
2914.90 273686100 270339000 267219600 264141400 261031300 257942100
2917.79 255076100 252462000 249977600 247378400 244868700 242437500
2920.68 240228400 238166800 236416400 235103500 234148800 233428500
2923.57 233192400 233431300 233998400 235063000 236580700 238450600
2926.47 240906400 243925700 247386000 251215600 255293200 259655000
2929.36 264493500 269651000 274902000 280174800 285411500 290442800
2932.25 295474300 300369900 304736300 308520800 311837200 314903100
2935.14 317931600 320703000 323444000 326286900 329511300 333149900
2938.04 337065000 340947100 344597000 347538900 349694200 351165300
2940.93 351960500 351892400 351241700 350370900 349484000 348797800
2943.82 348388200 348191500 347704200 346906800 345665600 343811800
2946.72 341229900 338249200 334851800 330948000 326467700 321656200
2949.61 316498400 311326900 306242200 301158000 296048400 291243400
2952.50 286788300 282690800 278968400 275606700 272541800 269819500
2955.39 267373100 265434300 264128300 263290100 262845200 263065900
2958.29 264042700 265776600 268602900 272481300 277384200 283602400
2961.18 291292500 300490000 310764100 322542700 336286000 351954700
2964.07 369475500 388827200 409798800 432426400 456968700 483304200
2966.96 511110100 540185700 570051100 600886800 632127800 662917400
2969.86 693604900 724113900 754474000 785874000 818478000 852742100
2972.75 891102500 933199200 981310600 1037409000 1101489000 1167427000
2975.64 1219475000 1238708000 1229523000 1224187000 1240982000 1274987000
2978.54 1316807000 1358800000 1394279000 1421178000 1442684000 1462013000
2981.43 1478602000 1489767000 1493508000 1490290000 1485139000 1482648000
2984.32 1473130000 1453403000 1433487000 1409044000 1379488000 1346082000
2987.21 1306515000 1264484000 1225524000 1189775000 1154424000 1117307000
2990.11 1078085000 1036458000 992350000 946479600 899901000 852985800
2993.00 806030700 759023800 712199000 666224100 621492000 578405800
2995.89 536811700 497015800 459719000 424390500 390994300 359539500
2998.78 329781300 301966300 276086200 252049700 229773500 209154200
3001.68 190177900 172796100 156977900 142559100 129425400 117592900
3004.57 106993900 97462820 88978380 81493730 74879360 69066560
3007.46 63907120 59409160 55477160 52090000 49230690 46723850
3010.36 44466570 42624140 41100650 39785800 38682680 37726240
3013.25 36924360 36292650 35771530 35331600 34996330 34678220
3016.14 34418300 34253230 34122400 33999920 33892810 33835970
3019.03 33797520 33731910 33637440 33554570 33526330 33477890
3021.93 33390330 33287710 33187430 33040150 32869740 32715230
3024.82 32547040 32349490 32071670 31812410 31562120 31254270
3027.71 30914850 30549190 30124890 29670040 29280440 28864590
3030.60 28352910 27862780 27360890 26804230 26242450 25685120
3033.50 25099420 24430000 23795440 23213410 22583210 21954250
3036.39 21339380 20734600 20101630 19480670 18882060 18319000
3039.28 17730790 17161810 16629730 16096940 15558930 15004160
3042.18 14536300 14116650 13686020 13233630 12760880 12316990
3045.07 11919580 11574520 11214050 10818230 10482260 10176560
3047.96 9871986 9556590 9282696 9072758 8851252 8634624
3050.85 8459644 8263886 8085406 7921436 7776718 7643290
3053.75 7531814 7414668 7332224 7243140 7203386 7132256
3056.64 7023126 6965590 6920726 6870972 6859726 6865602
3059.53 6829126 6806838 6755146 6717862 6698762 6709532
3062.42 6714950 6718710 6779262 6779996 6785048 6794248
3065.32 6801952 6798932 6803662 6840564 6876100 6931852
3068.21 7000028 7013756 7002628 7055866 7124920 7142484
3071.10 7160672 7219290 7282580 7356424 7423808 7438764
3074.00 7514374 7582188 7598018 7633170 7670948 7693198
3076.89 7714736 7770246 7857628 7927688 7992480 8035408
3079.78 8034602 8059078 8102818 8186514 8257158 8278448
3082.67 8259576 8242016 8243128 8291486 8332632 8378072
3085.57 8449740 8486978 8445306 8367100 8315808 8302164
3088.46 8258146 8262852 8234018 8203218 8207114 8151558
3091.35 8081960 8019354 7951670 7913300 7887294 7837696
3094.24 7719728 7611624 7577458 7543808 7451560 7356748
3097.14 7280804 7200790 7101304 6973008 6844138 6797976
3100.03 6742408 6657096 6566194 6464966 6361600 6257948
3102.92 6148122 6057018 6008646 5968356 5862974 5744292
3105.82 5651746 5615130 5562574 5495662 5394092 5326788
3108.71 5345932 5306410 5201604 5104112 5049164 5010604
3111.60 5001676 4971228 4911934 4864934 4806314 4771618
3114.49 4731642 4699934 4676706 4654854 4647552 4642324
3117.39 4620400 4609810 4594500 4585150 4572144 4541890
3120.28 4521928 4482214 4483740 4541176 4539600 4505244
3123.17 4508778 4503164 4478814 4466352 4450002 4454394
3126.06 4439620 4448354 4437750 4434034 4419912 4397048
3128.96 4367926 4379950 4390156 4366788 4362378 4391244
3131.85 4400190 4403644 4419148 4429698 4424178 4403432
3134.74 4365568 4333452 4350266 4371258 4401086 4425622
3137.64 4397156 4385774 4414472 4429312 4415796 4452008
3140.53 4468408 4465228 4490746 4487704 4501958 4523738
3143.42 4518548 4525370 4533270 4588090 4640858 4643610
3146.31 4639640 4664584 4713142 4724440 4738774 4767612
3149.21 4832952 4911306 4954096 4969030 4961630 5025178
3152.10 5098706 5120186 5165348 5252854 5299270 5326386
3154.99 5401178 5452432 5466202 5560436 5647944 5700322
3157.88 5777694 5857572 5953056 6057462 6125526 6225836
3160.78 6336122 6419046 6505470 6574152 6638150 6761420
3163.67 6900238 6975134 7066272 7166442 7272506 7398166
3166.56 7518432 7626730 7740456 7888548 8006496 8109724
3169.46 8212464 8335614 8436392 8541968 8664352 8770018
3172.35 8905270 9017886 9131066 9249522 9319194 9380074
3175.24 9442574 9533278 9618516 9708524 9829596 9933794
3178.13 10029120 10092760 10114710 10132060 10177220 10234740
3181.03 10264370 10265350 10276610 10292820 10298210 10329510
3183.92 10307040 10253820 10201180 10172090 10130940 10102680
3186.81 10090890 10013610 9962938 9903898 9829042 9750586
3189.70 9715630 9648574 9590560 9529340 9444552 9385048
3192.60 9304260 9191060 9131672 9063054 8979384 8925790
3195.49 8837470 8765028 8716690 8668674 8553890 8479150
3198.38 8464800 8455804 8383812 8327458 8303692 8272816
3201.27 8222368 8194282 8194696 8221502 8240518 8240312
3204.17 8198528 8199884 8192248 8189220 8244032 8284048
3207.06 8264264 8267888 8299542 8373906 8423824 8472574
3209.95 8537798 8610980 8636308 8658512 8701728 8748422
3212.85 8823000 8893270 8943798 8988886 9059490 9128442
3215.74 9171234 9218308 9251206 9290766 9368880 9412092
3218.63 9408236 9464432 9576110 9619146 9640874 9651810
3221.52 9719096 9795330 9808744 9828354 9884978 9932754
3224.42 9947298 9967294 9962776 9997922 10053890 10093430
3227.31 10094770 10079030 10094060 10090380 10112490 10135590
3230.20 10144350 10122210 10092790 10063100 10006400 9958764
3233.09 9948154 9955894 9901268 9858840 9794384 9708368
3235.99 9658494 9628284 9544042 9440806 9344144 9283966
3238.88 9203964 9082824 8960948 8857312 8744504 8590212
3241.77 8467676 8394760 8232156 8082790 7942594 7785882
3244.67 7611654 7416146 7253842 7141416 7038404 6900742
3247.56 6716728 6487980 6320904 6179934 5978784 5830518
3250.45 5690436 5518364 5376720 5225052 5044344 4892016
3253.34 4763238 4586492 4405322 4268306 4153456 4047976
3256.24 3929524 3801524 3697592 3568280 3476296 3392460
3259.13 3244250 3113312 3050734 2965372 2936000 2882856
3262.02 2755136 2646702 2621022 2602030 2548630 2480078
3264.91 2447486 2401164 2342970 2273134 2216416 2235842
3267.81 2235990 2224446 2120830 2054266 2094920 2074084
3270.70 2031354 2052086 2044394 2015082 2007222 1996584
3273.59 1933006 1915762 1939248 1947326 1966560 1934280
3276.49 1869050 1841906 1858790 1865112 1867596 1840952
3279.38 1792258 1825172 1833810 1767302 1753900 1790194
3282.27 1789516 1775714 1752766 1743966 1742998 1774888
3285.16 1812242 1783298 1731562 1731540 1730576 1721084
3288.06 1719720 1694258 1697668 1704156 1706194 1728436
3290.95 1726766 1707500 1695882 1699936 1723736 1749766
3293.84 1762258 1815060 1849312 1865854 1891472 1895696
3296.73 1904066 1924272 1934746 1948864 1983548 2048188
3299.63 2094350 2133292 2159126 2167926 2245156 2338064
3302.52 2394322 2464032 2487416 2494326 2562496 2626136
3305.41 2656874 2757484 2865868 2992072 3085140 3129304
3308.31 3189654 3242386 3328178 3422202 3497630 3570368
3311.20 3630672 3689240 3748594 3822044 3901704 3972322
3314.09 3981470 3958388 3965146 4045438 4097472 4108546
3316.98 4153530 4199050 4249318 4254644 4186510 4178092
3319.88 4175430 4124918 4117674 4148336 4127426 4127886
3322.77 4136910 4133278 4133768 4105726 4056026 4026604
3325.66 4004148 3943800 3898430 3881732 3831672 3804996
3328.55 3744038 3663394 3587444 3542986 3485360 3436410
3331.45 3447716 3388700 3298844 3217660 3100860 3029806
3334.34 3012266 2990596 2887914 2778288 2731006 2665398
3337.23 2610664 2576040 2537158 2476366 2406892 2340874
3340.13 2279166 2194970 2070258 2024364 1975438 1897736
3343.02 1868212 1845620 1778020 1725140 1671166 1595218
3345.91 1565692 1544636 1494108 1461604 1413616 1344284
3348.80 1259078 1256526 1256820 1200152 1161140 1166738
3351.70 1102988 1039608 1034234 1041450 1047302 1033900
3354.59 1024858 961016 892066 868624 853022 808786
3357.48 775544 823658 837880 823774 822846 801526
3360.37 785998 799240 788408 724638 718386 801460
3363.27 814892 796618 739538 702838 700956 692296
3366.16 694846 682236 667152 668088 653514 639910
3369.05 664316 712706 718420 718438 729262 727130
3371.95 697320 708386 753466 702544 657702 642938
3374.84 635900 671470 700456 730582 744246 710158
3377.73 708958 735654 727134 714670 664768 672926
3380.62 701136 740686 763976 781066 751312 749594
3383.52 738832 689158 688446 732450 780276 809294
3386.41 822168 867624 877466 823016 771244 789438
3389.30 808178 794888 789386 802172 785876 799844
3392.19 822248 842504 857712 877314 892560 916196
3395.09 938118 920776 938950 949602 947864 938644
3397.98 925378 903020 908750 958172 1008040 997146
3400.87 974166 973398 965326 970390 1066804 1083920
3403.77 1041482 1040050 1100264 1130090 1108086 1112454
3406.66 1119934 1153696 1184900 1145978 1146984 1186996
3409.55 1231142 1268466 1323658 1342968 1351184 1400754
3412.44 1459588 1497462 1492370 1516298 1553834 1601778
3415.34 1671024 1729704 1800826 1904896 1948688 1950236
3418.23 2005936 2067546 2124370 2227768 2288230 2314512
3421.12 2395072 2489136 2562224 2629418 2688856 2776940
3424.01 2802012 2800662 2863222 2949174 3010094 3025288
3426.91 3078022 3137518 3147498 3192146 3283050 3352100
3429.80 3423584 3438820 3414302 3410450 3388352 3416418
3432.69 3467884 3461862 3403158 3347466 3369382 3413746
3435.59 3383696 3359362 3366646 3358326 3290002 3236050
3438.48 3186774 3115106 3054500 2981628 2919128 2883062
3441.37 2805776 2741498 2700672 2664518 2578380 2495894
3444.26 2412278 2333676 2303036 2222902 2209806 2192160
3447.16 2099518 2038246 1985250 1880056 1820208 1754874
3450.05 1681526 1639728 1562102 1489778 1484456 1473454
3452.94 1413264 1345148 1296284 1221710 1198524 1174182
3455.83 1144222 1120278 1117900 1088570 1069490 1039288
3458.73 1004918 969988 960310 957200 976766 956056
3461.62 940206 950008 951842 943724 885424 860064
3464.51 886448 877204 871324 867832 881842 896988
3467.40 908208 936552 905724 898012 907204 908656
3470.30 935078 982670 1058616 1080272 1050324 1061766
3473.19 1102180 1096508 1102464 1075404 1083860 1081780
3476.08 1109840 1189150 1222876 1196446 1188240 1193926
3478.98 1225624 1279452 1325938 1347188 1327036 1347598
3481.87 1386438 1349464 1321296 1322536 1354804 1378248
3484.76 1326216 1291208 1324690 1348414 1374592 1374116
3487.65 1322924 1320004 1321976 1312020 1322112 1330336
3490.55 1257836 1158538 1151822 1126194 1116164 1134300
3493.44 1098192 1079798 1075770 1021406 989108 957670
3496.33 910424 879446 828938 781524 756982 781042
3499.22 744664 695002 677656 671258 651222 623590
3502.12 592934 597874 562844 545892 501090 400402
3505.01 342498 336262 344704 319278 309996 305912
3507.90 326128 295204 333892 305104 207120 172886
3510.80 165014 174284 149774 118798 137868 159890
3513.69 154120 103178 99282 104162 73144 45830
3516.58 64950 90228 68778 39786 50488 17836
3519.47 32810 58104 59478 55466 54960 62150
3522.37 106780 126744 126788 116320 57178 55174
3525.26 62978 53852 46100 64940 107100 93834
3528.15 47672 48056-27534-41304 14954 38386
3531.04 6268 7366 23262-3052 3604 32674
3533.94 3874-37376-48420-21194 58866 54344
3536.83 27592 18532 32000 374-25848-14136
3539.72 27740 36480 17624 20982 40564 56388
3542.62 14052-1736 12948 34576 80166 116968
3545.51 68088 108810 214296 132774 50598 31524
3548.40-11846 22722 32246 39264 67914 63818
3551.29 136002 202072 108142 68300 65832 57560
3554.19 80872 78036 57688 50086 48708 18430
3557.08 246 10896 29824 54346 91874 125484
3559.97 75230 35956 37488 33538 61964 80342
3562.86 64946 70276 44720 63366 138982 230332
3565.76 278852 263550 122516 254022 400848 208192
3568.65 56604 6622 20892 40554-37154-22904
3571.54 8984 13564 13688 7666-1510 14246
3574.44 33558-4632-20246-25414 13414 20058
3577.33-3140-12458 4738 23700 31150 29576
3580.22 24514 1288-6100 21432 47018 69842
3583.11 77946 46744 77696 67964 59852 190140
3586.01 444054 319250 135020 166302 401948 451594
3588.90 114172-17350-37054-40478-22102 34480
3591.79 9126 13648 109522 73684 35754 82634
3594.68 182642 149842 41138 33252 11008 22784
3597.58 51700 57092 20056 33528 56572 90516
3600.47 92144 52626 1356-24638 5508 23128
3603.36-9094-52770-69674-32412-21924 8490
3606.26 132898 215296 91900 32988 208544 670180
3609.15 454852 64568 39148 52810 80816 202938
3612.04 432372 285254 81588 113376 226998 204154
3614.93 137052 99188 62342 52650 254152 402832
3617.83 264938 185914 517944 756392 335310 142132
3620.72 169398 168294 129866 159018 183956 189462
3623.61 165528 136336 149456 206768 262644 272198
3626.50 268142 340458 785744 1200528 916200 1262204
3629.40 1123420 456706 337096 318782 318786 328242
3632.29 314378 342860 498042 396670 273386 283412
3635.18 292634 269138 255472 228676 259928 289510
3638.08 282320 261726 277274 272406 286392 318730
3640.97 428560 552276 655554 648434 526038 407438
3643.86 396426 367206 399840 430800 528784 670900
3646.75 896376 793774 520858 796710 1556278 1195650
3649.65 637518 828414 893392 766096 482732 399060
3652.54 359858 316230 284796 340898 360604 425364
3655.43 880306 1242656 693576 363720 335824 332794
3658.32 270954 279252 313286 330646 277130 308110
3661.22 340126 325304 281840 279436 278152 284954
3664.11 274724 283448 313024 339122 323940 316786
3667.00 308832 378786 708400 856048 560828 588554
3669.90 1338704 1838184 853794 378070 329398 382482
3672.79 352514 448566 648984 1176958 1287208 1587960
3675.68 1777778 840880 432856 455390 438916 425552
3678.57 556932 647854 487140 457492 480232 472928
3681.47 479430 477908 444912 487666 508680 547700
3684.36 557580 563502 535082 553104 521004 598888
3687.25 976942 2104432 2122540 1026580 731038 759126
3690.14 858390 1145362 1106026 760988 709496 690118
3693.04 734384 712154 733750 713394 706700 716708
3695.93 786952 782774 791330 817470 851704 865438
3698.82 883946 912998 928866 954972 1178268 1465766
3701.72 1325190 1123428 1099330 1113984 1165200 1185498
3704.61 1252024 1312812 1359600 1430050 1474266 1484272
3707.50 1539180 1599854 1886392 2154470 1887944 1715136
3710.39 1847194 1972222 2593686 2938682 2181026 1818302
3713.29 1818356 1875190 1951184 1931360 1924682 1967910
3716.18 1931408 1914714 1899670 1927098 2038652 2118566
3719.07 2028156 1987880 1946746 1915784 1936108 2127232
3721.96 2178500 1996102 1858192 1815382 1786798 1793014
3724.86 1750742 1676878 1875238 1883890 1555118 1430152
3727.75 1347214 1283982 1229596 1232886 1192498 1151194
3730.64 1172234 1572132 2134934 1708304 1128814 1097272
3733.54 1193100 1439282 1575366 1446710 1192950 1637754
3736.43 1757282 1048422 879454 964170 862432 749278
3739.32 707626 699894 810600 884690 781074 690966
3742.21 714998 805224 1279854 2454274 3372058 2274108
3745.11 1022908 702134 671654 744946 747958 711692
3748.00 867066 1778338 2554810 1595112 817826 771696
3750.89 917052 1955536 2599524 1400802 716168 655092
3753.78 624556 591236 598584 617692 784970 880070
3756.68 695686 597848 605750 606922 685774 889942
3759.57 919392 613366 542720 546338 564950 556740
3762.46 512430 506040 564562 540116 554762 742436
3765.35 888504 663336 576684 564314 573864 538088
3768.25 555994 704462 1141764 1087576 662210 564660
3771.14 594208 577998 556802 547142 556920 590182
3774.03 609410 595486 618952 635636 625554 631522
3776.93 660666 670600 676662 775374 1086232 1094488
3779.82 846158 768914 750498 763100 751496 770020
3782.71 775814 796538 885580 941688 901256 898954
3785.60 882586 881138 875622 890150 954742 1005674
3788.50 989730 965614 948518 968070 966996 993654
3791.39 979958 980914 1006650 1048656 1051680 1103436
3794.28 1121124 1140412 1186792 1464462 1502284 1246888
3797.17 1164990 1184630 1194480 1201934 1205184 1269824
3800.07 1452318 2340876 2933350 1893882 1336702 1335914
3802.96 1294460 1266252 1212262 1164662 1181572 1230604
3805.85 1507070 2293082 2178572 1357192 1179736 1153310
3808.75 1150228 1141252 1167000 1155582 1201480 1173284
3811.64 1168720 1151046 1165096 1140800 1184400 1198854
3814.53 1282598 1808342 2904498 2420992 1381448 1167898
3817.42 1155964 1248386 1264740 1265890 1357870 1735106
3820.32 2041420 1977728 2109360 1692598 1332504 1304714
3823.21 1307986 1330746 1314794 1325574 1346624 1422134
3826.10 1602700 1593320 1456072 1431002 1366026 1355310
3828.99 1376436 1395846 1415560 1530412 1861222 1911992
3831.89 1541342 1451914 1414818 1461674 1568196 1971544
3834.78 1932734 1587616 1503366 1573404 1908410 3088118
3837.67 2989904 1778138 1473102 1544168 1622862 1608796
3840.57 1735222 1531342 1364156 1319454 1406510 1653860
3843.46 1700258 1414226 1350500 1334420 1322474 1298556
3846.35 1280626 1237446 1254122 1284130 1292590 1285532
3849.24 1346508 1345396 1344662 1453834 2256436 2909516
3852.14 2012236 1604232 2511750 3937744 3512126 1913792
3855.03 1301876 1309904 1392520 1485400 1503696 1366484
3857.92 1344900 1343618 1340734 1291174 1286822 1328762
3860.81 1487904 1684070 1541722 1386120 1415268 1429128
3863.71 1564872 1894692 2163980 1720830 1462836 1432546
3866.60 1436618 1424104 1491698 1569616 1888930 2123618
3869.49 2622904 2443444 1788126 1679102 1615900 1604546
3872.39 1647184 1757510 1950450 2122996 1937788 1729640
3875.28 1727336 1782374 1838730 1859260 1825692 1807146
3878.17 1876874 1927852 2081214 2439408 2445900 2272142
3881.06 2135360 2061056 2152054 2251970 2295818 2234666
3883.96 2250110 2394464 3000608 3251746 2729780 2451170
3886.85 2406744 2391736 2410224 2476182 2499968 2508528
3889.74 2550222 2767738 3238226 3099112 2706740 2582486
3892.63 2616048 2642978 2623392 2635016 2645648 2652680
3895.53 2623444 2576172 2593992 2664388 2691374 2693216
3898.42 2953016 3239118 2875134 2574506 2544272 2778110
3901.31 3145936 2909150 2549834 2486718 2754494 3102492
3904.21 2738346 2414722 2417304 2415794 2309352 2203006
3907.10 2151252 2094722 2056626 2033712 2018054 2020582
3909.99 2001912 1957748 1957200 1977696 1940772 1882004
3912.88 1825452 1806732 1832130 1837988 1819178 1808868
3915.78 1856368 1925866 2054422 1945952 1776808 1723406
3918.67 1697694 1820044 1954630 1849958 1729094 1743204
3921.56 1802304 1814420 1809576 1826234 1806824 1826742
3924.45 1900698 1906874 1838078 1800790 1769022 1784402
3927.35 1820186 1829324 1861698 1957056 1940528 1896566
3930.24 1927740 1959226 2016260 2136352 2164922 2070462
3933.13 2048088 2070464 2049040 2049760 2054898 2042502
3936.03 2056696 2077532 2091882 2102716 2138720 2188308
3938.92 2205416 2176794 2210738 2281286 2303908 2318750
3941.81 2425344 2528202 2396048 2310872 2349692 2392994
3944.70 2401036 2436276 2463142 2474626 2523878 2545730
3947.60 2541176 2536068 2535188 2665192 2744346 2690232
3950.49 2667746 2655068 2657576 2652818 2664374 2700022
3953.38 2704634 2686562 2698620 2770268 2803724 2766176
3956.27 2759044 2772144 2758592 2770010 2796968 2831784
3959.17 2823750 2815898 2811182 2848074 2856102 2834332
3962.06 2786060 2759094 2763776 2785912 2721336 2718916
3964.95 2742816 2698776 2695448 2674714 2616812 2657118
3967.85 2684028 2664974 2653008 2605632 2513442 2549846
3970.74 2600842 2576706 2569994 2557680 2489844 2459168
3973.63 2441232 2448216 2450842
##END=
