##TITLE=Ethyl tert-Butyl Ether
##JCAMP-DX=4.24
##DATA TYPE=INFRARED SPECTRUM
##CLASS=IUPAC A
##ORIGIN=NIST, Anayltical Chemistry Division, 301-975-3108
##OWNER=COPYRIGHT (C) 1998 by the U.S. Secretary of Commerce
##DATE=98/10/1
##$SPECTRA VERSION=1.00
##$UNCERTAINTY IN Y=2.8 % relative (B=1.9E-04,C=3.0E-09,D=2.7E-14)
##CAS NAME=tert-Butyl Ethyl Ether
##CAS REGISTRY NO=637-92-3
##MOLFORM=( C H3)3 C O C2 H5
##MP=-94 C
##BP=73.1 C
##$NIST SOURCE=QUANT-IR
##SPECTROMETER/DATA SYSTEM=IFS66V (Bruker)
##INSTRUMENT PARAMETERS=KBr Beam splitter; MCT Detector; Multipass cell
##STATE=gas
##SAMPLE DESCRIPTION=ETBE Primary Gas Standard
##PRESSURE=101.3 kPa
##TEMPERATURE=23 C
##SAMPLING PROCEDURE=1 L/min Flow
##RESOLUTION=1.9290
##DATA PROCESSING=Triangular Apodization
##XUNITS=cm-1
##YUNITS=(micromol/mol)-1m-1 (base 10)
##XFACTOR=1.0
##YFACTOR=9.0949E-13
##DELTAX=0.9645
##FIRSTX=574.687
##LASTX=3974.595
##FIRSTY=-1.17E-07
##MAXX=3973.63
##MINX=574.69
##MAXY=.0013229
##MINY=-4.26E-07
##NPOINTS=3527
##XYDATA=(X++(Y..Y))
574.69-129444-112686-109028-207028-257848-115718
579.51-109166-362780-278428-146156-137032-273972
585.29-469458-234246-132266-179294-112996-90216
591.08-4854-45258-37278-49738-200076-145454
596.86 12720 43428-9072-78058-57628-22446
602.65-48438-79620-46328-6464 37250 157036
608.44 203696 219106 187204 139278 123204 92570
614.22 119570 177942 164930 175866 139304 124024
620.01 175768 200928 170812 136252 173672 182732
625.79 189336 191648 187100 194430 231494 259014
631.58 163368 123574 187454 209830 189506 128250
637.36 133596 151074 115146 83874 120010 126150
643.15 70304 67494 95044 180032 167242 137652
648.93 130720 72042 112672 127430 79370 91480
654.72 71576 41118 91828 145524 129854 69672
660.50 47964 92640 119362 81630 84420 118458
666.29 131002 160718 176266 149200 156196 153678
672.08 147510 148586 148510 174328 137780 165786
677.86 227408 214824 230834 304024 345260 354996
683.65 347456 371064 432370 465332 461442 445964
689.43 489068 553274 584426 610466 660180 672594
695.22 703296 755114 795582 788410 800420 871278
701.00 940648 1005276 1063512 1137200 1200220 1302594
706.79 1431686 1545332 1639546 1799018 1951924 2126912
712.57 2385124 2647610 2910338 3228756 3608162 4026624
718.36 4497108 5034750 5660390 6359886 7117424 8010310
724.14 9018432 10048130 11181030 12430600 13798000 15317970
729.93 16912880 18503710 20066110 21517870 22791840 23828050
735.71 24573090 24993670 25191770 25304550 25540800 25973380
741.50 26354050 25677950 23618960 22009570 21503670 21195730
747.29 20631720 19496460 17829190 15926420 13919960 11896960
753.07 10075990 8542676 7252348 6174368 5287652 4594684
758.86 4051974 3642526 3316404 3054264 2804626 2625824
764.64 2504130 2378174 2306272 2236118 2200226 2181572
770.43 2149870 2114920 2059366 2032534 2056476 2024152
776.21 1958160 1956184 1953484 1936466 1929546 1899568
782.00 1867772 1843570 1842312 1837150 1818940 1830726
787.78 1848016 1836228 1826162 1823006 1841810 1862946
793.57 1855696 1865570 1903070 1958516 2024082 2076422
799.35 2088272 2150888 2242102 2302992 2375166 2452854
805.14 2519744 2600384 2687980 2814104 2933612 3018196
810.93 3129930 3238110 3334380 3461900 3644328 3794708
816.71 3974332 4214670 4508248 4826210 5170122 5568174
822.50 6051114 6722972 7500576 8382922 9429080 10653810
828.28 12149270 13929700 15935420 18181660 20738780 23658630
834.07 26957590 30662710 34747100 39106920 43673340 48369450
839.85 53010080 57434020 61500160 64969750 67734050 69857240
845.64 71645320 73614140 75983120 78384380 78809280 75047680
851.42 70438580 68405900 67371110 65724120 62928920 58781850
857.21 53548760 47723970 41722080 36042910 30908330 26349100
862.99 22427660 19101730 16235760 13798190 11741000 10022570
868.78 8589236 7385908 6414470 5637508 5017056 4552372
874.57 4179358 3875550 3621398 3413952 3292780 3185006
880.35 3100204 3081834 3087120 3132720 3190448 3237814
886.14 3342958 3504106 3795400 4005908 3824902 3690498
891.92 3814098 3958254 4147318 4362528 4542288 4777632
897.71 5077638 5412680 5786226 6195568 6637702 7086016
903.49 7598202 8158198 8677364 9136254 9536720 9854386
909.28 10071480 10209870 10298200 10427140 10639320 10967000
915.06 11272810 11253380 11047660 11055870 11297100 11476780
920.85 11307400 10890250 10591090 10361550 10178440 10114950
926.63 10149700 10322510 10648330 11107420 11709620 12470680
932.42 13366740 14441090 15714860 17207010 18995710 21116870
938.21 23578560 26410390 29709790 33522140 37835660 42687930
943.99 48096900 54116320 60773030 68024410 75844520 84167620
949.78 92645220 100891700 108459200 114821900 119708900 123048100
955.56 125090000 126383400 127787800 130028000 132479000 132573500
961.35 128450100 121332900 114950800 111477800 108987600 104949800
967.13 98207530 88757060 77416400 65356390 53709000 43328770
972.92 34646000 27742030 22467940 18508610 15591140 13409250
978.70 11711180 10405000 9394116 8580930 7952474 7443104
984.49 7014168 6652946 6381588 6177920 6003396 5885138
990.27 5777204 5716032 5706758 5756930 5841632 5934822
996.06 6091390 6296490 6563566 6904642 7292322 7726458
1001.85 8230354 8826408 9514244 10248190 11045370 11945620
1007.63 12960320 14089920 15334170 16702410 18259550 19998750
1013.42 21850950 23793960 25798420 27753450 29536580 31045500
1019.20 32017530 32238370 32113010 32013860 32239160 33046640
1024.99 34313270 34099640 32007570 30801170 30722070 30729050
1030.77 30515850 29910890 28875160 27515780 26125120 24866360
1036.56 23863540 23191290 22877670 22873270 23179760 23769690
1042.34 24639770 25803110 27204100 28842280 30759580 32969790
1048.13 35461450 38256840 41443420 45069880 49203890 53939240
1053.91 59306590 65446470 72561970 80708980 90013270 100623800
1059.70 112723300 126472100 141980100 159593400 179447500 201557000
1065.48 226078100 252678000 281184100 311360600 342942900 375560400
1071.27 408340400 440719000 472339700 501546200 526398200 545615200
1077.06 558542700 566820000 573124700 578937200 584449900 587607700
1082.84 583598800 569831900 543526400 512201100 485609900 461388100
1088.63 436210400 406620200 370408100 328516400 283476400 239025800
1094.41 199282500 166758000 142558600 126478500 117460500 114287900
1100.20 115761600 120846000 128853400 139384100 152150600 166786700
1105.98 183222500 201305300 220554000 240682600 261623500 283004100
1111.77 304507900 325696200 345942900 364194300 379223300 390126800
1117.55 396442600 398869400 398745700 396923300 393393600 387216400
1123.34 375867800 357401900 336385200 319222400 303908900 287002900
1129.12 267070500 243446000 217436100 190687200 165093800 142007900
1134.91 122051700 105477600 92262680 82027110 74374930 68686700
1140.70 64534280 61589140 59599150 58601890 58364090 58632560
1146.48 59319090 60311920 61507160 62831830 64259850 65702830
1152.27 67131340 68460100 69617800 70693880 71697830 72588030
1158.05 73270680 73720020 73961440 73773020 73188620 72455990
1163.84 71673340 70909630 70133580 69395540 68771940 68282140
1169.62 67973900 67855240 67866810 68015070 68385980 69009570
1175.41 69997650 71427050 73252840 75574860 78603330 82491320
1181.19 87394260 93511990 101037000 110204900 121391800 134944400
1186.98 151020800 169825400 191561000 216441100 244271600 274505200
1192.76 306637800 340087400 374364900 409123700 444175900 479764300
1198.55 516059500 552325700 586589500 615828100 638319600 655609400
1204.34 670395600 684412400 694828800 699833500 699041300 687057300
1210.12 664101800 636377800 606528600 573113500 534344700 489560400
1215.91 440608200 390474600 342252400 299160800 262797700 233416600
1221.69 210590500 193525300 181303300 172937200 167549300 164355200
1227.48 162900100 162782100 163544200 164938100 166650300 168608700
1233.26 170680100 172767800 174906800 177018300 179047600 180988900
1239.05 182654400 183899100 184464300 184305000 183521500 182099900
1244.83 180223500 178084700 175854600 173772400 171878300 170034100
1250.62 168125700 165989700 163517800 160687500 157526700 154104700
1256.40 150309100 146168900 141790900 137207500 132441300 127352900
1262.19 121829400 115758500 109447800 103372400 97545660 91851050
1267.98 86204410 80561690 75022230 69624500 64440540 59611300
1273.76 55124560 50992730 47270520 43928850 40933570 38257220
1279.55 35896870 33809750 31924950 30260270 28804060 27506950
1285.33 26357860 25355540 24442340 23557820 22736440 21996220
1291.12 21314570 20710700 20148240 19617260 19098750 18556550
1296.90 18038130 17577590 17185660 16805510 16392160 15928840
1302.69 15377340 14798580 14238610 13692040 13213640 12793590
1308.47 12432750 12127630 11867570 11649150 11469360 11326890
1314.26 11199450 11095610 10995190 10880150 10783260 10699360
1320.04 10616460 10507320 10372200 10239100 10094150 9969590
1325.83 9895596 9853104 9825050 9752156 9682722 9689332
1331.61 9762042 9876172 10028170 10289950 10686210 11197960
1337.40 11908060 12838550 14007030 15487520 17449790 20027960
1343.19 23350130 27559000 32814030 39294480 47213660 56693570
1348.97 67747780 80402150 94627100 110083400 126472500 143451900
1354.76 160543700 177381700 193911800 210159100 226575400 243995400
1360.54 263157400 283236400 302021000 321215200 340596000 347975500
1366.33 340171200 327744400 313505600 297859800 283936300 271001300
1372.11 254883400 237505600 221962800 207215200 192785700 178999900
1377.90 166657300 156654600 149829500 146832700 147987300 153078800
1383.68 161407500 171614900 182403500 192713500 201911700 209427000
1389.47 213113100 214502300 218240400 225193800 232163000 233508300
1395.25 225712500 214192600 208492400 209115100 209961000 206445300
1401.04 196519900 180390700 160172400 138407100 117137400 98075810
1406.83 82013770 69060840 58953250 51177280 45239060 40655780
1412.61 37073910 34244960 31969590 30211800 28764100 27718560
1418.40 27012080 25830580 24865440 24373750 24053090 23886500
1424.18 23728980 23771370 23999580 24402350 25091630 26059130
1429.97 27120470 28491320 30161670 32017140 33961630 36246360
1435.75 38648880 40403920 42255780 44399130 46495310 48646600
1441.54 50815080 53067870 55346120 57611150 59782120 62216770
1447.32 64720720 66081580 66722680 67325620 67913110 68639370
1453.11 69762200 71212740 73236370 75268580 76554840 77866650
1458.89 79026720 79984260 80946860 81828410 82572530 82926180
1464.68 82705840 82766120 83440210 83884170 83229360 81391330
1470.47 79371900 77412420 75475800 73463280 71680690 70264350
1476.25 68784540 67619540 66914480 66640180 66814140 67281660
1482.04 67874010 68278190 68161660 67414840 66245490 64780260
1487.82 63532870 63316950 63960400 63957060 61352720 56885640
1493.61 53406080 52032190 51026280 49105700 46832310 43625980
1499.39 39623480 35475420 31296880 27321080 23848940 21248760
1505.18 18925020 16584720 14182390 12285200 10905870 9703568
1510.96 8900504 8071696 7289990 6800662 6364074 6156252
1516.75 5791262 5258232 5110010 5404432 5317446 4744834
1522.53 4294328 4140404 4203614 3941276 3768640 3692792
1528.32 3510942 3408136 3400080 3431704 3644340 3639020
1534.11 3287944 3206322 3194088 3560800 4336490 4329252
1539.89 3822104 3800868 3581428 3195318 3317404 3239074
1545.68 2960572 2928628 2923254 3028828 3018602 2923542
1551.46 2889662 3144622 3457928 3187124 3058012 3676750
1557.25 4321620 4319278 4240394 3552096 3006868 3025942
1563.03 3059108 3166744 3071134 3041512 3071300 3329026
1568.82 3551442 3278946 3117832 3151978 3202222 3305246
1574.60 4068116 4282802 3508356 3351148 3363766 3387088
1580.39 3440516 3453850 3477892 3505886 3533838 3543282
1586.17 3543176 3550598 3542356 3514794 3496712 3467820
1591.96 3415478 3364942 3301286 3237840 3181288 3109060
1597.74 3025414 2920696 2823480 2715392 2604364 2500828
1603.53 2387000 2284462 2217664 2156794 2093028 2054334
1609.32 1989774 1922678 1906748 1888082 1904200 1919400
1615.10 2548024 2767816 2041996 1861746 1875818 1866718
1620.89 1901664 2129300 2238898 2009404 1937914 2014694
1626.67 2171486 2157362 2094754 2154600 2200206 2289070
1632.46 2374122 2791096 3454914 3187820 2837190 2832228
1638.24 2774306 2851930 2923538 2994572 3077330 3120166
1644.03 3477534 3973408 3794632 3642732 3514972 3422576
1649.81 3498210 4226104 5267098 4856584 3926586 3463178
1655.60 3270268 3211270 3151094 3117486 3088850 3099094
1661.38 3307292 3250840 2984100 2929012 2906486 2904538
1667.17 3059536 3380552 3216570 3060258 3071384 2926768
1672.96 3042666 3522792 3507726 3108966 3103164 3155908
1678.74 3304666 3389938 3442170 3733126 4295498 5080908
1684.53 4704180 3981800 4113436 4229712 4376104 4493998
1690.31 4596766 4703688 4891580 5043930 5936190 6444664
1696.10 5681368 5416548 5801444 6596330 6321992 5448468
1701.88 5237332 5298170 5271728 5093302 4924448 4588858
1707.67 4384000 4272074 4118598 3861068 3665346 3490950
1713.45 3490204 3318490 3245966 3674842 3348558 2738306
1719.24 2477582 2364906 2326632 2318702 2300774 2242704
1725.02 2245132 2252868 2263234 2325350 2455468 2466982
1730.81 2502972 2984578 3594220 3594500 3094892 2919648
1736.60 2996498 3093694 3419120 3395460 3244594 3501482
1742.38 3993910 4154974 3872392 3798856 3909784 4134704
1748.17 4324146 4489020 4868436 4714470 4386252 4370260
1753.95 4307902 4358308 4462978 4392758 4323664 4207230
1759.74 4143528 4212272 3912132 3572668 3411432 3236370
1765.52 3072812 3095086 3069558 2745816 2662620 2756242
1771.31 2993080 2805704 2318656 2264180 2225744 2143166
1777.09 2146708 2180282 2274750 2352600 2352396 2405130
1782.88 2555196 2783694 2875536 2943730 3140530 3335798
1788.66 3597186 3938614 4322786 4818332 4951048 5068010
1794.45 5474466 5864078 6271718 6706752 7220600 7634850
1800.24 8017248 8410722 8698160 8948782 9183892 9368872
1806.02 9531942 9667174 9754468 9864268 9885910 9748094
1811.81 9565126 9339432 9165674 9015110 8798164 8469996
1817.59 8018572 7498748 6972492 6464422 6013798 5615500
1823.38 5383826 5217588 4888730 4643120 4492818 4437900
1829.16 4355246 4038156 3800240 3673406 3528828 3361838
1834.95 3180452 3014116 2837696 2677428 2537970 2415124
1840.73 2363910 2335596 2602442 2655632 2313160 2248264
1846.52 2280016 2274688 2275040 2288790 2296894 2314438
1852.30 2342418 2353488 2363894 2385844 2404240 2422628
1858.09 2432564 2434968 2429354 2402996 2386266 2366662
1863.88 2351118 2360970 2367374 2364748 2421326 2372128
1869.66 2180032 2085314 2037880 1995372 1960164 1919202
1875.45 1876952 1821830 1791578 1783560 1771210 1766432
1881.23 1762094 1765460 1797100 1819030 1829964 1863036
1887.02 1911538 2031008 2108982 2097594 2157034 2252534
1892.80 2350444 2468106 2567356 2666440 2791980 2932330
1898.59 3088692 3251202 3430076 3626764 3853878 4099744
1904.37 4355256 4638426 4960184 5282376 5628950 6011490
1910.16 6383846 6781064 7206326 7628326 8072092 8522830
1915.94 9049468 9640518 10040010 10411640 10843100 11248320
1921.73 11665930 11975410 12189780 12368890 12469910 12483180
1927.51 12422130 12304830 12137590 11913010 11639560 11288300
1933.30 10864710 10388090 9863810 9335340 8842822 8326454
1939.09 7739284 7087034 6444558 5761946 5053720 4494884
1944.87 4068676 3730928 3507214 3378278 3292622 3241936
1950.66 3227068 3250744 3300300 3370802 3447814 3542042
1956.44 3666858 3773452 3883508 4017884 4134784 4238944
1962.23 4332230 4416972 4488402 4537526 4586292 4575656
1968.01 4537064 4501412 4448542 4382204 4283082 4163452
1973.80 4004520 3856294 3729384 3576880 3404152 3203610
1979.58 2976548 2759508 2558280 2364162 2194616 2049096
1985.37 1914428 1796516 1698258 1612972 1530908 1488526
1991.15 1457090 1375090 1303986 1260656 1238264 1212210
1996.94 1179750 1163626 1144362 1126132 1111244 1106964
2002.73 1103072 1093018 1089074 1093074 1106362 1110978
2008.51 1104652 1107156 1118300 1116562 1115086 1128796
2014.30 1147560 1168392 1184868 1190388 1190976 1210070
2020.08 1224840 1241790 1275960 1307310 1340836 1376332
2025.87 1422356 1465868 1508016 1563224 1623338 1684498
2031.65 1755580 1833062 1915638 2017324 2117988 2221024
2037.44 2338784 2458426 2589818 2715176 2831062 2950106
2043.22 3064118 3177674 3283864 3385810 3472700 3552408
2049.01 3614948 3653622 3681300 3684474 3667612 3633306
2054.79 3586276 3509864 3407094 3278502 3115720 2938392
2060.58 2751244 2583590 2409852 2228812 2070706 1909480
2066.37 1758254 1626648 1513480 1423736 1351828 1299884
2072.15 1271812 1239918 1218520 1214550 1213370 1223504
2077.94 1246756 1283172 1315256 1341828 1379320 1415684
2083.72 1444780 1497692 1556606 1613832 1683896 1763644
2089.51 1822128 1880916 1948118 2013544 2101480 2183930
2095.29 2253346 2330650 2418310 2484940 2545464 2621232
2101.08 2699496 2767018 2815502 2853104 2889674 2908194
2106.86 2906114 2873892 2811266 2732898 2635276 2546424
2112.65 2476806 2399222 2322654 2239288 2154434 2085158
2118.43 2018346 1956166 1902142 1863840 1843776 1831500
2124.22 1819862 1817678 1823650 1838364 1850794 1867898
2130.01 1900668 1924776 1941904 1948896 1964848 2004346
2135.79 2043412 2078324 2106222 2117666 2121900 2127054
2141.58 2145056 2166538 2184956 2196014 2212010 2232666
2147.36 2242458 2265538 2294762 2314930 2346590 2401576
2153.15 2465554 2525920 2577446 2622340 2681312 2735834
2158.93 2782308 2838132 2901184 2959028 2995580 3034026
2164.72 3088964 3146886 3194902 3223228 3240660 3277298
2170.50 3326646 3360240 3393980 3441960 3491296 3553020
2176.29 3615388 3661978 3719686 3798820 3890316 4000038
2182.07 4119872 4247466 4378662 4509218 4644882 4777426
2187.86 4925572 5079678 5210518 5339276 5458884 5539588
2193.64 5587254 5628332 5636792 5625706 5603934 5552758
2199.43 5488204 5400580 5284372 5141582 4982370 4807204
2205.22 4622142 4422378 4209404 4007762 3804066 3579470
2211.00 3373702 3185276 3006044 2858566 2713202 2577948
2216.79 2468538 2387826 2333930 2291912 2268340 2250264
2222.57 2251518 2263804 2275336 2291918 2316916 2345532
2228.36 2371558 2431226 2491664 2546900 2614994 2670284
2234.14 2719586 2769404 2801210 2828956 2847368 2840640
2239.93 2836924 2821880 2804234 2783464 2742942 2690180
2245.71 2619228 2555140 2499238 2452694 2424104 2408458
2251.50 2386762 2349872 2332310 2336082 2350906 2385440
2257.28 2443814 2529898 2628212 2725598 2829824 2939248
2263.07 3067318 3215814 3366054 3478344 3580026 3708256
2268.86 3816866 3920708 4020922 4084858 4144486 4189368
2274.64 4192104 4180628 4175400 4138752 4078580 4018332
2280.43 3950646 3885398 3805798 3716312 3632620 3527632
2286.21 3417464 3286166 3132398 3001042 2880670 2775232
2292.00 2680826 2572838 2452994 2329162 2228100 2145100
2297.78 2047518 1942222 1857672 1797444 1752990 1721408
2303.57 1700996 1684144 1679016 1677012 1699182 1723468
2309.35 1746490 1781244 1822290 1857370 1890492 1934828
2315.14 1968188 2024388 2076832 2130386 2198936 2265450
2320.92 2327050 2383628 2430290 2490180 2543764 2592850
2326.71 2663028 2719334 2763086 2816164 2858562 2903028
2332.50 2952310 2959960 2963320 2990140 3024740 3042408
2338.28 3027714 3003944 2961292 2908754 2858928 2809010
2344.07 2759718 2713464 2662098 2599786 2535108 2485754
2349.85 2433428 2376424 2332314 2289734 2226040 2154590
2355.64 2093196 2014050 1934026 1879496 1839598 1806284
2361.42 1791704 1799128 1809032 1807126 1812120 1833902
2367.21 1860542 1888456 1920646 1976526 2031626 2061660
2372.99 2086976 2114562 2161558 2199832 2234852 2289838
2378.78 2317064 2327490 2341582 2355626 2369374 2362800
2384.56 2357272 2355106 2341630 2322170 2290026 2245460
2390.35 2225802 2212186 2167746 2119964 2080604 2053172
2396.14 2025998 1978176 1936220 1921280 1913216 1906460
2401.92 1891620 1878278 1876942 1883734 1875856 1860160
2407.71 1856280 1852052 1849790 1848190 1841816 1823146
2413.49 1824488 1808382 1780742 1775590 1751436 1739054
2419.28 1738288 1725784 1737648 1749018 1751804 1768228
2425.06 1796758 1832926 1868578 1935950 2008532 2065446
2430.85 2143654 2224590 2289866 2366682 2436888 2515602
2436.63 2601474 2669502 2741988 2804634 2857432 2912224
2442.42 2958036 2988060 2999562 2992898 2976974 2973310
2448.20 2941180 2875932 2823124 2777552 2712434 2642032
2453.99 2583450 2511464 2456356 2411016 2358294 2309384
2459.77 2268446 2214530 2146038 2090130 2041170 1994656
2465.56 1955444 1920616 1879438 1853426 1837604 1814936
2471.35 1794916 1772744 1746192 1729360 1718776 1693358
2477.13 1651290 1607968 1572438 1525984 1492564 1467090
2482.92 1443356 1422648 1389282 1364224 1353848 1336194
2488.70 1304106 1287858 1278412 1263460 1241506 1209166
2494.49 1183670 1150680 1109368 1082582 1058916 1035296
2500.27 1021614 991316 948974 923356 915106 900794
2506.06 893790 897778 884410 892104 901838 908478
2511.84 902432 907318 932086 947906 961554 968138
2517.63 978744 981852 986158 991722 986630 979536
2523.41 973814 964826 962482 975980 988538 993260
2529.20 977306 971026 975796 967492 967262 962604
2534.99 974464 988294 998624 1015792 1036134 1059494
2540.77 1080596 1099618 1124020 1160060 1209064 1238794
2546.56 1263144 1319140 1360146 1389540 1418294 1447758
2552.34 1496128 1552212 1590448 1615492 1656662 1703842
2558.13 1743102 1770208 1793784 1830690 1862930 1890122
2563.91 1920220 1949976 1981698 2011900 2042798 2071102
2569.70 2094660 2121420 2148404 2151012 2156970 2188112
2575.48 2221056 2254700 2293360 2308952 2326502 2364530
2581.27 2398628 2437232 2482374 2535154 2589874 2654234
2587.05 2720738 2817010 2937384 3031970 3131884 3242290
2592.84 3377944 3542694 3692884 3856682 4046484 4237902
2598.63 4428424 4631974 4841936 5058960 5283014 5516352
2604.41 5784560 6040542 6299478 6575138 6858930 7165738
2610.20 7463234 7745546 8040128 8322812 8593392 8887016
2615.98 9162134 9391790 9596038 9802814 9997790 10145870
2621.77 10285720 10430740 10515240 10549950 10560190 10500460
2627.55 10400640 10264480 10059160 9829052 9604444 9361858
2633.34 9079042 8782084 8491360 8198266 7900844 7625636
2639.12 7356222 7077688 6834006 6597952 6366236 6175912
2644.91 6012734 5864606 5745652 5652256 5543280 5498548
2650.69 5468690 5395184 5368630 5364688 5351530 5330590
2656.48 5336586 5360600 5357060 5345506 5338502 5346196
2662.27 5367692 5383754 5381524 5372790 5362034 5337588
2668.05 5322208 5313738 5295340 5262114 5239860 5235862
2673.84 5224926 5209320 5200788 5181710 5163392 5155230
2679.62 5148852 5166858 5180048 5181856 5208512 5214964
2685.41 5205474 5216332 5239678 5265388 5300486 5339724
2691.19 5388812 5454174 5507768 5574954 5664782 5760488
2696.98 5882990 6034974 6211094 6425390 6675228 6972992
2702.76 7320304 7690616 8119736 8618046 9162560 9761662
2708.55 10401180 11075700 11788610 12510460 13255170 14014180
2714.33 14776320 15519590 16226910 16954390 17684100 18309730
2720.12 18789160 19132310 19429360 19814650 20256550 20653920
2725.91 20989380 21294800 21604150 21872050 22037900 22121400
2731.69 22162020 22174190 22103510 21971110 21837380 21718570
2737.48 21619110 21511150 21365470 21174380 20929940 20641070
2743.26 20359270 20057100 19644610 19136340 18634840 18169580
2749.05 17760150 17424170 17064150 16698780 16392250 16098300
2754.83 15866030 15738290 15658210 15600330 15615180 15740530
2760.62 15965060 16261490 16613430 16951050 17261740 17563320
2766.40 17879870 18275220 18653580 18988550 19345980 19642920
2772.19 19867670 20095840 20329140 20503040 20515560 20411880
2777.97 20292010 20207450 20170750 20139220 20071660 19943300
2783.76 19766600 19545110 19295480 19043430 18785030 18566650
2789.54 18396070 18223390 18072410 17963810 17907480 17881730
2795.33 17874870 17907890 17991290 18105800 18325050 18628290
2801.12 18956370 19354780 19840850 20398400 20979700 21566930
2806.90 22149340 22729720 23328180 23954180 24675220 25465770
2812.69 26292270 27108800 27864750 28664260 29524550 30401540
2818.47 31270840 32121160 32927430 33717300 34495740 35249860
2824.26 35995260 36722750 37447680 38199500 39022630 39938950
2830.04 40898170 41900980 42969110 44104300 45305870 46586580
2835.83 47956030 49347650 50799390 52336960 53841180 55324520
2841.61 56881470 58472930 60087710 61715030 63454300 65335080
2847.40 67300770 69360270 71503280 73725450 76074140 78607100
2853.18 81286370 84132500 87253220 90738710 94562080 98750880
2858.97 103380800 108584000 114489100 120983200 128102200 135893300
2864.76 144422300 153725300 163743000 174472500 185855600 197838400
2870.54 210048300 222220000 234389900 246342900 258024800 270004900
2876.33 283021900 297496700 312066300 323945100 332159500 338633700
2882.11 345107900 351563700 357619900 362724300 366591600 369418300
2887.90 371651300 373650700 375556700 377350400 379278700 381212100
2893.68 382950200 384815800 385918400 385321500 383034400 379231700
2899.47 374429300 369028900 363172800 357149400 351099200 345075700
2905.25 338998300 332394300 324953700 317362100 310580300 304320100
2911.04 298000700 291421200 284552700 277739700 271314200 265230700
2916.82 259396400 254080200 249202200 244618900 240714000 237919000
2922.61 236477100 236526600 238211100 241561700 246760200 253602500
2928.40 261715200 271006300 280876300 290618000 299853500 307765200
2934.18 314299600 320140000 325904100 332421200 339440900 345330300
2939.97 348873300 349868200 349033100 347871600 347021300 345595600
2945.75 342509900 337448000 330638600 322219200 312945000 303609100
2951.54 294728900 286949800 280551600 275467500 271975700 270467100
2957.32 271178300 274790100 282144300 293969400 310978400 333492100
2963.11 362584400 398612200 441232800 490347200 545023400 603431700
2968.89 663478500 723588200 785258400 852280900 930824500 1028056000
2974.68 1136641000 1199999000 1216696000 1260952000 1331158000 1388172000
2980.46 1427582000 1451101000 1454608000 1444550000 1418703000 1374952000
2986.25 1315412000 1242599000 1170027000 1098172000 1019650000 933935100
2992.04 844594800 754540800 665919900 581451000 503157600 432295200
2997.82 368855100 312467500 263203900 220656500 184406500 153952200
3003.61 128697000 108069500 91511860 78395120 68086420 60120610
3009.39 54034780 49389780 45949490 43370980 41463270 40074590
3015.18 39033410 38263080 37693820 37252980 36878470 36517860
3020.96 36195620 35840400 35423390 34960460 34435890 33818380
3026.75 33137120 32334930 31437160 30497030 29471400 28363910
3032.53 27194090 25942970 24673670 23415100 22155650 20909480
3038.32 19707240 18554990 17448530 16381610 15426030 14513280
3044.10 13614820 12816750 12070980 11383090 10764440 10230580
3049.89 9780064 9370436 9007460 8701310 8448232 8250374
3055.67 8080272 7913928 7800778 7733694 7657036 7571924
3061.46 7530816 7532986 7547638 7545194 7541416 7562600
3067.25 7630652 7680042 7725782 7786052 7855122 7956126
3073.03 8048504 8131576 8195688 8243508 8320960 8436122
3078.82 8517282 8561118 8652180 8714224 8708766 8734306
3084.60 8809430 8850312 8782984 8699670 8649852 8597358
3090.39 8520750 8396292 8292356 8172894 8012058 7878548
3096.17 7723656 7546406 7340404 7158980 7006914 6818780
3101.96 6615688 6436672 6294610 6114424 5966772 5833036
3107.74 5708728 5614264 5468002 5362174 5292418 5194520
3113.53 5103444 5032548 4984188 4952304 4919136 4888368
3119.31 4846016 4805260 4810568 4804998 4778190 4750640
3125.10 4728954 4718174 4701274 4669622 4650398 4643204
3130.89 4647916 4664580 4672984 4649642 4612036 4628856
3136.67 4652070 4650780 4665418 4688986 4712172 4731374
3142.46 4752106 4768910 4821056 4869362 4905388 4953922
3148.24 5014218 5115650 5184204 5250348 5347802 5449794
3154.03 5555256 5651952 5772302 5912818 6066458 6239366
3159.81 6418098 6598654 6757060 6944272 7147810 7338302
3165.60 7556454 7783054 8019414 8245482 8457662 8672262
3171.38 8893584 9121286 9324964 9479030 9628182 9806092
3177.17 9997596 10136070 10209390 10283960 10329160 10350460
3182.95 10363920 10315490 10238140 10174850 10090840 9974134
3188.74 9850084 9735500 9611270 9470256 9312312 9167388
3194.53 9027126 8895494 8764922 8638948 8557700 8474966
3200.31 8398836 8347638 8347904 8353260 8328146 8342916
3206.10 8383688 8412742 8485800 8592344 8693814 8770056
3211.88 8858454 8976238 9083800 9197278 9287900 9378892
3217.67 9463048 9554862 9660176 9733408 9819388 9891558
3223.45 9959638 10001970 10045320 10104600 10117040 10125100
3229.24 10145140 10131910 10069080 9995722 9946034 9860418
3235.02 9736840 9617262 9459816 9288952 9098664 8871746
3240.81 8631924 8389756 8120766 7817156 7486844 7203190
3246.59 6930182 6580484 6239596 5921512 5616988 5309076
3252.38 5002946 4694800 4401356 4162120 3929196 3705564
3258.17 3494510 3273532 3116868 2979022 2817148 2713824
3263.95 2619020 2518288 2411046 2356394 2305914 2219224
3269.74 2182732 2157286 2131698 2088056 2045578 2050114
3275.52 2021714 1968878 1962204 1938688 1915994 1890212
3281.31 1877642 1872408 1849996 1869444 1865212 1831886
3287.09 1819596 1804300 1803158 1816532 1810486 1812360
3292.88 1847918 1904026 1957112 1988796 2016754 2057088
3298.66 2135720 2216340 2286440 2408622 2522374 2600074
3304.45 2699184 2843958 3035782 3185502 3308134 3460022
3310.23 3603796 3723378 3852178 3963218 4001048 4060958
3316.02 4138934 4208214 4236086 4199028 4166516 4155086
3321.80 4152708 4146598 4111206 4045828 3970322 3894224
3327.59 3813758 3695676 3574528 3488272 3401012 3244728
3333.38 3101396 2998406 2853072 2721594 2625746 2519262
3339.16 2393194 2242046 2093700 1983446 1893864 1790740
3344.95 1682720 1602578 1523112 1415874 1333684 1279854
3350.73 1213614 1141638 1110420 1095726 1026548 949468
3356.52 896608 888244 893248 872248 854406 821584
3362.30 839806 840048 784330 762566 749936 731380
3368.09 727556 757720 780744 774588 776318 759508
3373.87 719458 736326 776558 777930 779682 764176
3379.66 750052 790686 816334 801322 773830 796744
3385.44 855880 895552 875960 849072 855508 852860
3391.23 865450 896364 929868 962464 980914 992904
3397.02 989028 975726 1010486 1042748 1028674 1061258
3402.80 1106064 1122362 1158670 1174522 1203138 1220776
3408.59 1251206 1329964 1391742 1459938 1531566 1582036
3414.37 1664784 1785808 1918888 2010672 2110350 2245260
3420.16 2367068 2503244 2646322 2761324 2843050 2945154
3425.94 3047240 3124352 3215202 3334046 3405578 3396946
3431.73 3417902 3422750 3379688 3374614 3362350 3317626
3437.51 3231008 3114334 2995130 2878304 2767270 2657842
3443.30 2519548 2377028 2276294 2187730 2069584 1928074
3449.08 1796690 1673210 1567252 1496768 1400184 1295196
3454.87 1228120 1180856 1140976 1089534 1036490 1017490
3460.66 1006482 996390 972942 934786 928072 927002
3466.44 945138 961312 956438 968588 1033746 1090920
3472.23 1107764 1128688 1125084 1137172 1201150 1231302
3478.01 1239074 1302564 1349632 1371292 1367660 1360654
3483.80 1367422 1345078 1364086 1371884 1340754 1334702
3489.58 1307320 1217846 1159962 1139836 1104230 1048848
3495.37 979610 903902 831454 791850 742990 698432
3501.15 657398 616316 563298 460602 390414 369610
3506.94 350386 350516 309888 236870 203918 185262
3512.72 181972 161988 130124 111020 109912 94972
3518.51 77248 90234 96030 111838 145086 131420
3524.30 99160 91978 104026 110718 61436 32620
3530.08 51058 49040 43870 45632 16884 34098
3535.87 69340 58876 37396 37050 56644 63128
3541.65 67134 51028 78814 115004 149554 145054
3547.44 69548 59336 79030 121126 159064 117506
3553.22 97732 100892 82984 60658 53266 91440
3559.01 116758 86442 79390 101308 98078 123684
3564.79 226144 240266 263814 218866 79164 47336
3570.58 29900 42364 40958 44756 33466 26020
3576.36 38040 34096 48644 58164 42830 59104
3582.15 89286 102796 105706 242090 280578 267456
3587.94 291844 88646 17792 47908 76260 95826
3593.72 124764 136516 71068 64142 73616 71704
3599.51 100866 73276 37274 33290 10090 664
3605.29 90774 147942 193420 379710 239190 102378
3611.08 255188 262932 187290 210986 142120 187854
3616.86 294026 375084 473946 288436 190130 209804
3622.65 213166 204984 257036 313600 518410 911462
3628.43 1007600 649710 380362 370166 405440 401262
3634.22 327116 306266 291882 308690 314566 321270
3640.00 387346 545054 597156 481210 439918 498478
3645.79 703516 741612 935368 1038572 819964 714166
3651.57 477752 395484 381164 605332 830716 537678
3657.36 351958 348510 341562 349786 347392 323318
3663.15 324728 332128 376308 361754 535848 672860
3668.93 901110 1159424 666710 430468 605272 1013584
3674.72 1382418 983280 531376 543380 584580 529526
3680.50 518024 513458 533836 572884 612664 595272
3686.29 833788 1514486 1269332 851174 1022948 882106
3692.07 757372 765084 759706 776734 822726 854726
3697.86 909008 942010 1073552 1278894 1219266 1160610
3703.64 1242380 1333124 1446638 1519008 1701350 1927268
3709.43 1848544 2128634 2408048 2012404 1889854 1951488
3715.21 1944242 1931814 1965398 2040354 1991574 1952980
3721.00 2047426 1988218 1841694 1777214 1775078 1733554
3726.79 1497876 1336328 1281140 1249302 1583116 1588152
3732.57 1252502 1394018 1435610 1463102 1246904 952422
3738.36 856716 812622 880504 832246 1065612 2104062
3744.14 2004288 973708 832508 922940 1593652 1552292
3749.93 1026378 1648862 1471196 772416 687878 722456
3755.71 793310 688514 685192 810114 714552 595646
3761.50 588306 572440 600790 724718 714370 619184
3767.28 604742 806570 903072 674384 608980 603886
3773.07 616396 644908 655612 682228 703632 861596
3778.85 967944 835334 789848 804134 849740 919458
3784.64 919548 908240 937354 994092 992992 991020
3790.43 1008456 1023918 1067420 1119628 1190806 1356462
3796.21 1314960 1229446 1252178 1406718 2045468 1946920
3802.00 1381724 1325480 1237192 1404994 1830724 1578408
3807.78 1205248 1213468 1202072 1221596 1199090 1232038
3813.57 1288886 1904992 2037194 1380690 1285072 1385646
3819.35 1679164 1935796 1681438 1392758 1364576 1376606
3825.14 1471938 1543990 1451592 1417044 1433832 1618112
3830.92 1726394 1541220 1548250 1801122 1698254 1787348
3836.71 2423440 2071604 1586804 1675110 1549478 1445402
3842.49 1566560 1505258 1376866 1341228 1319066 1316468
3848.28 1389376 1383632 1797736 2205688 2230508 2906954
3854.07 2265850 1434494 1529096 1438368 1401784 1355968
3859.85 1432380 1561938 1502982 1524414 1817182 1760438
3865.64 1515224 1526618 1689594 2134902 2183886 1785810
3871.42 1682834 1830264 1966502 1849392 1815604 1877354
3877.21 1879064 2014766 2278492 2280142 2156132 2258590
3882.99 2283700 2562980 2852424 2578314 2430528 2500530
3888.78 2542252 2817672 2916370 2678564 2632292 2653294
3894.56 2639538 2630378 2651302 2796446 2937636 2717334
3900.35 2794728 2808810 2659316 2776286 2558040 2374696
3906.13 2257350 2129302 2074488 2035892 2002546 1975702
3911.92 1914480 1860398 1860464 1861640 1944382 1924472
3917.70 1791276 1843308 1856922 1798416 1832976 1839312
3923.49 1867944 1889166 1839748 1826188 1872108 1933852
3929.28 1949538 1993818 2098986 2102638 2074068 2073588
3935.06 2076964 2097766 2137696 2187850 2224398 2274326
3940.85 2365884 2429590 2384026 2395214 2449152 2495446
3946.63 2540760 2558696 2643096 2690384 2664436 2670190
3952.42 2693076 2709882 2753286 2776510 2767158 2783854
3958.20 2813200 2819464 2832976 2819712 2778908 2760214
3963.99 2735248 2714800 2676194 2664334 2667164 2607386
3969.77 2575234 2588092 2550578 2493058 2473258
##END=
