##TITLE=Ethyl butyl sulfide
##JCAMP-DX=4.24
$$ By DXEDIT 1.05 (RS McDonald)
##DATA TYPE=INFRARED SPECTRUM
##CLASS=COBLENTZ III
##ORIGIN=DOW CHEMICAL COMPANY
##OWNER=COPYRIGHT (C) 1988 by COBLENTZ SOCIETY INC.
Collection (C) 2018 copyright by the U.S. Secretary of Commerce
on behalf of the United States of America. All rights reserved.
##DATE=1964/05/04
##NAMES=butyl ethyl sulfide
1-(ethylsulfanyl)butane
##CAS REGISTRY NO=638-46-0
##MOLFORM=C6 H14 S
##SOURCE REFERENCE=COBLENTZ NO. 6311
##$NIST SOURCE=COBLENTZ
##$NIST IMAGE=cob6311
##SPECTROMETER/DATA SYSTEM=BECKMAN IR-9 (GRATING)
##INSTRUMENT PARAMETERS=ORDER CHANGES: 670, 1200, 2000 CM^-^1
##STATE=SOLUTION (10% CCl4 FOR 3800-1330, 10% CS2 FOR 1330-400)
##PATH LENGTH=0.011 CM, 0.012 CM
$$SPECTRAL CONTAMINATIONS DUE TO CS2 AROUND 650, 850 AND CCl4 AROUND 1550 CM^-^1 HAVE BEEN SUBTRACTED
##SAMPLING PROCEDURE=TRANSMISSION
##RESOLUTION=2
##DATA PROCESSING=DIGITIZED BY COBLENTZ SOCIETY (BATCH I) FROM HARD COPY
##XUNITS=1/CM
##YUNITS=TRANSMITTANCE
##XFACTOR=1
##YFACTOR=1
##DELTAX=1
##FIRSTX=3812
##LASTX=405
##FIRSTY=0.8723
##MAXX=3812
##MINX=405
##MAXY=0.9683
##MINY=0.0146
##NPOINTS=3408
##XYDATA=(X++(Y..Y))
3812.000000 0.8723 0.8728 0.8731 0.8724 0.8722
3807.000000 0.8728 0.8730 0.8730 0.8730 0.8729
3802.000000 0.8721 0.8721 0.8721 0.8720 0.8720
3797.000000 0.8720 0.8725 0.8721 0.8727 0.8726
3792.000000 0.8726 0.8725 0.8725 0.8724 0.8724
3787.000000 0.8724 0.8724 0.8723 0.8718 0.8714
3782.000000 0.8714 0.8718 0.8720 0.8713 0.8718
3777.000000 0.8718 0.8718 0.8711 0.8718 0.8717
3772.000000 0.8717 0.8716 0.8716 0.8715 0.8715
3767.000000 0.8714 0.8713 0.8712 0.8711 0.8710
3762.000000 0.8709 0.8707 0.8710 0.8708 0.8704
3757.000000 0.8703 0.8702 0.8701 0.8700 0.8698
3752.000000 0.8698 0.8697 0.8695 0.8695 0.8694
3747.000000 0.8693 0.8693 0.8693 0.8693 0.8693
3742.000000 0.8693 0.8690 0.8690 0.8693 0.8698
3737.000000 0.8698 0.8698 0.8698 0.8694 0.8690
3732.000000 0.8695 0.8697 0.8697 0.8697 0.8697
3727.000000 0.8697 0.8697 0.8695 0.8695 0.8695
3722.000000 0.8697 0.8697 0.8697 0.8689 0.8691
3717.000000 0.8698 0.8698 0.8698 0.8700 0.8700
3712.000000 0.8702 0.8705 0.8704 0.8709 0.8710
3707.000000 0.8710 0.8710 0.8710 0.8710 0.8710
3702.000000 0.8712 0.8712 0.8713 0.8713 0.8713
3697.000000 0.8713 0.8708 0.8707 0.8708 0.8708
3692.000000 0.8709 0.8709 0.8710 0.8710 0.8711
3687.000000 0.8710 0.8704 0.8704 0.8705 0.8705
3682.000000 0.8706 0.8706 0.8707 0.8707 0.8708
3677.000000 0.8709 0.8710 0.8710 0.8711 0.8711
3672.000000 0.8713 0.8713 0.8720 0.8716 0.8716
3667.000000 0.8716 0.8717 0.8718 0.8719 0.8719
3662.000000 0.8720 0.8721 0.8722 0.8722 0.8723
3657.000000 0.8724 0.8725 0.8725 0.8726 0.8726
3652.000000 0.8727 0.8728 0.8729 0.8729 0.8730
3647.000000 0.8731 0.8732 0.8732 0.8733 0.8734
3642.000000 0.8735 0.8735 0.8736 0.8737 0.8738
3637.000000 0.8738 0.8738 0.8740 0.8741 0.8742
3632.000000 0.8751 0.8752 0.8750 0.8745 0.8750
3627.000000 0.8756 0.8756 0.8756 0.8758 0.8759
3622.000000 0.8760 0.8761 0.8762 0.8763 0.8764
3617.000000 0.8765 0.8766 0.8766 0.8767 0.8768
3612.000000 0.8769 0.8770 0.8771 0.8772 0.8766
3607.000000 0.8774 0.8775 0.8775 0.8776 0.8775
3602.000000 0.8773 0.8778 0.8776 0.8771 0.8776
3597.000000 0.8780 0.8781 0.8782 0.8783 0.8783
3592.000000 0.8784 0.8784 0.8785 0.8785 0.8786
3587.000000 0.8787 0.8788 0.8788 0.8789 0.8789
3582.000000 0.8790 0.8790 0.8790 0.8790 0.8789
3577.000000 0.8788 0.8786 0.8782 0.8787 0.8786
3572.000000 0.8782 0.8776 0.8776 0.8775 0.8775
3567.000000 0.8774 0.8773 0.8772 0.8772 0.8771
3562.000000 0.8771 0.8770 0.8769 0.8768 0.8768
3557.000000 0.8767 0.8767 0.8773 0.8765 0.8765
3552.000000 0.8772 0.8771 0.8769 0.8765 0.8771
3547.000000 0.8771 0.8771 0.8767 0.8767 0.8770
3542.000000 0.8770 0.8770 0.8765 0.8767 0.8764
3537.000000 0.8767 0.8770 0.8770 0.8770 0.8769
3532.000000 0.8769 0.8769 0.8768 0.8761 0.8761
3527.000000 0.8761 0.8761 0.8761 0.8761 0.8760
3522.000000 0.8760 0.8760 0.8760 0.8760 0.8760
3517.000000 0.8760 0.8760 0.8760 0.8760 0.8759
3512.000000 0.8759 0.8759 0.8759 0.8759 0.8758
3507.000000 0.8758 0.8758 0.8758 0.8758 0.8757
3502.000000 0.8757 0.8756 0.8756 0.8755 0.8754
3497.000000 0.8753 0.8753 0.8752 0.8751 0.8750
3492.000000 0.8750 0.8749 0.8747 0.8747 0.8746
3487.000000 0.8744 0.8744 0.8744 0.8743 0.8742
3482.000000 0.8740 0.8740 0.8740 0.8739 0.8737
3477.000000 0.8737 0.8737 0.8736 0.8735 0.8734
3472.000000 0.8733 0.8732 0.8732 0.8731 0.8729
3467.000000 0.8728 0.8728 0.8727 0.8726 0.8725
3462.000000 0.8724 0.8723 0.8723 0.8722 0.8721
3457.000000 0.8720 0.8719 0.8718 0.8718 0.8717
3452.000000 0.8716 0.8715 0.8715 0.8714 0.8713
3447.000000 0.8712 0.8711 0.8710 0.8710 0.8709
3442.000000 0.8708 0.8707 0.8706 0.8705 0.8705
3437.000000 0.8704 0.8703 0.8702 0.8702 0.8701
3432.000000 0.8699 0.8698 0.8697 0.8695 0.8695
3427.000000 0.8695 0.8695 0.8689 0.8694 0.8695
3422.000000 0.8695 0.8695 0.8697 0.8697 0.8697
3417.000000 0.8697 0.8697 0.8697 0.8697 0.8697
3412.000000 0.8698 0.8698 0.8698 0.8698 0.8698
3407.000000 0.8702 0.8702 0.8698 0.8699 0.8699
3402.000000 0.8699 0.8699 0.8699 0.8699 0.8699
3397.000000 0.8699 0.8699 0.8699 0.8700 0.8700
3392.000000 0.8700 0.8700 0.8700 0.8700 0.8701
3387.000000 0.8701 0.8702 0.8702 0.8703 0.8703
3382.000000 0.8703 0.8703 0.8704 0.8704 0.8705
3377.000000 0.8705 0.8706 0.8706 0.8707 0.8707
3372.000000 0.8707 0.8707 0.8715 0.8709 0.8709
3367.000000 0.8709 0.8710 0.8710 0.8710 0.8710
3362.000000 0.8711 0.8711 0.8712 0.8712 0.8713
3357.000000 0.8713 0.8714 0.8714 0.8714 0.8714
3352.000000 0.8715 0.8715 0.8716 0.8716 0.8717
3347.000000 0.8717 0.8718 0.8725 0.8726 0.8719
3342.000000 0.8726 0.8720 0.8720 0.8721 0.8728
3337.000000 0.8728 0.8727 0.8719 0.8719 0.8719
3332.000000 0.8719 0.8719 0.8719 0.8719 0.8719
3327.000000 0.8719 0.8719 0.8719 0.8719 0.8718
3322.000000 0.8718 0.8718 0.8718 0.8718 0.8718
3317.000000 0.8718 0.8718 0.8718 0.8718 0.8717
3312.000000 0.8725 0.8725 0.8725 0.8725 0.8724
3307.000000 0.8719 0.8725 0.8725 0.8722 0.8717
3302.000000 0.8717 0.8716 0.8716 0.8716 0.8717
3297.000000 0.8717 0.8717 0.8717 0.8718 0.8718
3292.000000 0.8719 0.8719 0.8720 0.8720 0.8721
3287.000000 0.8721 0.8722 0.8722 0.8723 0.8731
3282.000000 0.8730 0.8722 0.8722 0.8727 0.8724
3277.000000 0.8717 0.8718 0.8721 0.8720 0.8718
3272.000000 0.8717 0.8715 0.8711 0.8711 0.8711
3267.000000 0.8709 0.8708 0.8706 0.8705 0.8702
3262.000000 0.8701 0.8697 0.8694 0.8690 0.8686
3257.000000 0.8682 0.8671 0.8674 0.8671 0.8667
3252.000000 0.8664 0.8660 0.8656 0.8650 0.8646
3247.000000 0.8640 0.8635 0.8626 0.8621 0.8619
3242.000000 0.8613 0.8607 0.8602 0.8596 0.8592
3237.000000 0.8586 0.8581 0.8575 0.8570 0.8565
3232.000000 0.8560 0.8555 0.8550 0.8545 0.8539
3227.000000 0.8532 0.8521 0.8517 0.8518 0.8513
3222.000000 0.8509 0.8504 0.8500 0.8495 0.8491
3217.000000 0.8486 0.8482 0.8478 0.8474 0.8470
3212.000000 0.8466 0.8463 0.8461 0.8459 0.8451
3207.000000 0.8447 0.8445 0.8442 0.8440 0.8437
3202.000000 0.8434 0.8433 0.8431 0.8435 0.8429
3197.000000 0.8433 0.8429 0.8433 0.8433 0.8432
3192.000000 0.8432 0.8431 0.8428 0.8427 0.8430
3187.000000 0.8430 0.8426 0.8425 0.8426 0.8426
3182.000000 0.8427 0.8427 0.8429 0.8430 0.8430
3177.000000 0.8430 0.8432 0.8433 0.8434 0.8434
3172.000000 0.8434 0.8436 0.8437 0.8437 0.8437
3167.000000 0.8439 0.8440 0.8441 0.8446 0.8451
3162.000000 0.8448 0.8450 0.8454 0.8455 0.8452
3157.000000 0.8456 0.8453 0.8452 0.8461 0.8463
3152.000000 0.8464 0.8465 0.8466 0.8466 0.8460
3147.000000 0.8460 0.8461 0.8462 0.8462 0.8462
3142.000000 0.8461 0.8462 0.8466 0.8465 0.8464
3137.000000 0.8462 0.8461 0.8460 0.8459 0.8458
3132.000000 0.8457 0.8455 0.8454 0.8453 0.8451
3127.000000 0.8450 0.8449 0.8447 0.8444 0.8441
3122.000000 0.8440 0.8437 0.8436 0.8433 0.8431
3117.000000 0.8429 0.8427 0.8424 0.8422 0.8420
3112.000000 0.8418 0.8414 0.8412 0.8410 0.8408
3107.000000 0.8409 0.8411 0.8407 0.8404 0.8400
3102.000000 0.8396 0.8391 0.8393 0.8390 0.8387
3097.000000 0.8391 0.8395 0.8398 0.8394 0.8390
3092.000000 0.8385 0.8374 0.8370 0.8358 0.8347
3087.000000 0.8344 0.8341 0.8328 0.8318 0.8312
3082.000000 0.8307 0.8300 0.8294 0.8287 0.8288
3077.000000 0.8289 0.8286 0.8280 0.8280 0.8275
3072.000000 0.8264 0.8257 0.8250 0.8236 0.8239
3067.000000 0.8226 0.8219 0.8213 0.8206 0.8192
3062.000000 0.8187 0.8177 0.8171 0.8165 0.8153
3057.000000 0.8137 0.8123 0.8114 0.8102 0.8086
3052.000000 0.8074 0.8069 0.8060 0.8048 0.8036
3047.000000 0.8022 0.8014 0.7996 0.7984 0.7973
3042.000000 0.7961 0.7950 0.7939 0.7919 0.7901
3037.000000 0.7877 0.7848 0.7807 0.7771 0.7729
3032.000000 0.7690 0.7655 0.7617 0.7567 0.7519
3027.000000 0.7461 0.7401 0.7343 0.7287 0.7238
3022.000000 0.7190 0.7160 0.7131 0.7107 0.7079
3017.000000 0.7049 0.7013 0.6983 0.6955 0.6916
3012.000000 0.6880 0.6829 0.6779 0.6728 0.6677
3007.000000 0.6622 0.6573 0.6450 0.6322 0.6028
3002.000000 0.5734 0.5555 0.5378 0.4993 0.4605
2997.000000 0.4285 0.3964 0.3644 0.3324 0.3005
2992.000000 0.2685 0.2364 0.2043 0.1723 0.1402
2987.000000 0.1081 0.0761 0.0502 0.0242 0.0207
2982.000000 0.0172 0.0163 0.0156 0.0152 0.0149
2977.000000 0.0147 0.0146 0.0151 0.0156 0.0164
2972.000000 0.0171 0.0183 0.0197 0.0241 0.0287
2967.000000 0.0334 0.0379 0.0426 0.0473 0.0519
2962.000000 0.0609 0.0584 0.0603 0.0590 0.0576
2957.000000 0.0542 0.0509 0.0424 0.0341 0.0312
2952.000000 0.0283 0.0257 0.0231 0.0206 0.0182
2947.000000 0.0178 0.0174 0.0181 0.0189 0.0204
2942.000000 0.0217 0.0274 0.0330 0.0385 0.0440
2937.000000 0.0473 0.0506 0.0541 0.0576 0.0633
2932.000000 0.0692 0.0753 0.0815 0.0874 0.0935
2927.000000 0.0993 0.1050 0.1086 0.1123 0.1156
2922.000000 0.1189 0.1228 0.1270 0.1340 0.1411
2917.000000 0.1509 0.1608 0.1720 0.1833 0.1941
2912.000000 0.2052 0.2161 0.2271 0.2380 0.2491
2907.000000 0.2600 0.2707 0.2816 0.2925 0.3034
2902.000000 0.3143 0.3252 0.3362 0.3412 0.3463
2897.000000 0.3456 0.3470 0.3442 0.3434 0.3221
2892.000000 0.3008 0.2730 0.2453 0.2175 0.1897
2887.000000 0.1619 0.1342 0.1222 0.1104 0.1109
2882.000000 0.1115 0.1154 0.1107 0.1301 0.1410
2877.000000 0.1518 0.1629 0.1738 0.1846 0.1923
2872.000000 0.2000 0.2016 0.2034 0.2050 0.2068
2867.000000 0.2111 0.2154 0.2217 0.2280 0.2503
2862.000000 0.2727 0.2865 0.3006 0.3014 0.3024
2857.000000 0.3118 0.3213 0.3379 0.3544 0.3710
2852.000000 0.3878 0.4044 0.4212 0.4379 0.4546
2847.000000 0.4713 0.4885 0.4978 0.5071 0.5158
2842.000000 0.5252 0.5514 0.5775 0.5955 0.6139
2837.000000 0.6231 0.6322 0.6413 0.6506 0.6577
2832.000000 0.6648 0.6700 0.6754 0.6810 0.6861
2827.000000 0.6918 0.6971 0.7018 0.7072 0.7130
2822.000000 0.7177 0.7230 0.7278 0.7326 0.7369
2817.000000 0.7418 0.7467 0.7516 0.7566 0.7631
2812.000000 0.7695 0.7759 0.7823 0.7886 0.7954
2807.000000 0.7988 0.8022 0.8053 0.8087 0.8119
2802.000000 0.8150 0.8180 0.8207 0.8225 0.8241
2797.000000 0.8257 0.8274 0.8290 0.8307 0.8323
2792.000000 0.8340 0.8345 0.8362 0.8366 0.8378
2787.000000 0.8388 0.8398 0.8413 0.8428 0.8435
2782.000000 0.8441 0.8454 0.8468 0.8479 0.8489
2777.000000 0.8498 0.8509 0.8513 0.8520 0.8524
2772.000000 0.8529 0.8533 0.8537 0.8541 0.8547
2767.000000 0.8548 0.8549 0.8549 0.8550 0.8550
2762.000000 0.8550 0.8550 0.8549 0.8549 0.8546
2757.000000 0.8538 0.8530 0.8521 0.8511 0.8492
2752.000000 0.8472 0.8448 0.8424 0.8409 0.8392
2747.000000 0.8378 0.8361 0.8348 0.8337 0.8324
2742.000000 0.8312 0.8304 0.8296 0.8291 0.8286
2737.000000 0.8282 0.8280 0.8280 0.8280 0.8280
2732.000000 0.8282 0.8295 0.8308 0.8328 0.8348
2727.000000 0.8366 0.8385 0.8395 0.8408 0.8420
2722.000000 0.8431 0.8442 0.8454 0.8466 0.8477
2717.000000 0.8488 0.8499 0.8507 0.8515 0.8525
2712.000000 0.8534 0.8542 0.8551 0.8562 0.8572
2707.000000 0.8580 0.8588 0.8587 0.8586 0.8585
2702.000000 0.8585 0.8584 0.8583 0.8581 0.8580
2697.000000 0.8578 0.8577 0.8577 0.8578 0.8580
2692.000000 0.8583 0.8585 0.8588 0.8590 0.8592
2687.000000 0.8594 0.8597 0.8599 0.8603 0.8605
2682.000000 0.8608 0.8610 0.8613 0.8615 0.8620
2677.000000 0.8624 0.8628 0.8632 0.8636 0.8637
2672.000000 0.8638 0.8638 0.8639 0.8639 0.8640
2667.000000 0.8640 0.8641 0.8641 0.8641 0.8641
2662.000000 0.8639 0.8636 0.8634 0.8632 0.8631
2657.000000 0.8636 0.8635 0.8633 0.8631 0.8628
2652.000000 0.8627 0.8625 0.8620 0.8620 0.8623
2647.000000 0.8627 0.8628 0.8628 0.8629 0.8637
2642.000000 0.8651 0.8658 0.8666 0.8676 0.8687
2637.000000 0.8693 0.8699 0.8704 0.8717 0.8721
2632.000000 0.8727 0.8725 0.8731 0.8743 0.8748
2627.000000 0.8753 0.8758 0.8763 0.8768 0.8772
2622.000000 0.8779 0.8782 0.8786 0.8789 0.8792
2617.000000 0.8795 0.8798 0.8799 0.8801 0.8802
2612.000000 0.8803 0.8803 0.8804 0.8805 0.8806
2607.000000 0.8807 0.8808 0.8808 0.8809 0.8810
2602.000000 0.8811 0.8811 0.8812 0.8813 0.8814
2597.000000 0.8814 0.8815 0.8816 0.8817 0.8818
2592.000000 0.8819 0.8819 0.8821 0.8821 0.8823
2587.000000 0.8823 0.8824 0.8824 0.8826 0.8826
2582.000000 0.8827 0.8828 0.8828 0.8828 0.8830
2577.000000 0.8830 0.8831 0.8831 0.8833 0.8833
2572.000000 0.8834 0.8834 0.8835 0.8835 0.8836
2567.000000 0.8837 0.8838 0.8838 0.8839 0.8839
2562.000000 0.8840 0.8841 0.8842 0.8842 0.8843
2557.000000 0.8843 0.8844 0.8844 0.8845 0.8845
2552.000000 0.8846 0.8846 0.8846 0.8846 0.8847
2547.000000 0.8847 0.8847 0.8847 0.8848 0.8848
2542.000000 0.8848 0.8848 0.8849 0.8849 0.8849
2537.000000 0.8849 0.8850 0.8850 0.8850 0.8850
2532.000000 0.8851 0.8851 0.8851 0.8851 0.8852
2527.000000 0.8852 0.8852 0.8852 0.8852 0.8852
2522.000000 0.8853 0.8853 0.8853 0.8853 0.8853
2517.000000 0.8853 0.8853 0.8853 0.8854 0.8854
2512.000000 0.8854 0.8854 0.8854 0.8854 0.8855
2507.000000 0.8855 0.8855 0.8855 0.8856 0.8856
2502.000000 0.8857 0.8857 0.8858 0.8858 0.8859
2497.000000 0.8859 0.8859 0.8859 0.8860 0.8860
2492.000000 0.8861 0.8861 0.8862 0.8862 0.8863
2487.000000 0.8863 0.8863 0.8863 0.8864 0.8864
2482.000000 0.8865 0.8871 0.8875 0.8876 0.8877
2477.000000 0.8877 0.8878 0.8879 0.8879 0.8881
2472.000000 0.8882 0.8882 0.8884 0.8884 0.8885
2467.000000 0.8886 0.8886 0.8888 0.8889 0.8891
2462.000000 0.8892 0.8893 0.8895 0.8896 0.8894
2457.000000 0.8895 0.8894 0.8891 0.8888 0.8891
2452.000000 0.8891 0.8888 0.8879 0.8880 0.8879
2447.000000 0.8875 0.8872 0.8867 0.8864 0.8860
2442.000000 0.8857 0.8854 0.8851 0.8847 0.8844
2437.000000 0.8840 0.8836 0.8832 0.8829 0.8826
2432.000000 0.8824 0.8821 0.8818 0.8815 0.8812
2427.000000 0.8809 0.8807 0.8803 0.8800 0.8798
2422.000000 0.8796 0.8794 0.8792 0.8790 0.8788
2417.000000 0.8786 0.8786 0.8786 0.8788 0.8788
2412.000000 0.8789 0.8789 0.8789 0.8791 0.8795
2407.000000 0.8793 0.8799 0.8799 0.8800 0.8801
2402.000000 0.8802 0.8802 0.8803 0.8804 0.8805
2397.000000 0.8805 0.8806 0.8807 0.8808 0.8808
2392.000000 0.8809 0.8809 0.8809 0.8816 0.8814
2387.000000 0.8811 0.8807 0.8806 0.8809 0.8806
2382.000000 0.8804 0.8809 0.8807 0.8806 0.8809
2377.000000 0.8810 0.8812 0.8810 0.8812 0.8812
2372.000000 0.8810 0.8808 0.8806 0.8797 0.8793
2367.000000 0.8790 0.8788 0.8786 0.8784 0.8781
2362.000000 0.8781 0.8778 0.8785 0.8785 0.8791
2357.000000 0.8790 0.8798 0.8802 0.8802 0.8800
2352.000000 0.8799 0.8794 0.8788 0.8787 0.8790
2347.000000 0.8796 0.8799 0.8798 0.8792 0.8788
2342.000000 0.8787 0.8786 0.8785 0.8777 0.8783
2337.000000 0.8783 0.8774 0.8773 0.8780 0.8778
2332.000000 0.8778 0.8779 0.8784 0.8783 0.8782
2327.000000 0.8783 0.8789 0.8792 0.8797 0.8797
2322.000000 0.8797 0.8797 0.8797 0.8797 0.8797
2317.000000 0.8797 0.8797 0.8797 0.8797 0.8797
2312.000000 0.8797 0.8797 0.8797 0.8797 0.8797
2307.000000 0.8796 0.8795 0.8793 0.8792 0.8791
2302.000000 0.8790 0.8789 0.8788 0.8790 0.8794
2297.000000 0.8793 0.8791 0.8791 0.8791 0.8791
2292.000000 0.8793 0.8793 0.8794 0.8794 0.8789
2287.000000 0.8788 0.8789 0.8789 0.8790 0.8783
2282.000000 0.8783 0.8786 0.8790 0.8793 0.8790
2277.000000 0.8794 0.8797 0.8795 0.8799 0.8803
2272.000000 0.8806 0.8803 0.8807 0.8806 0.8805
2267.000000 0.8808 0.8811 0.8809 0.8808 0.8812
2262.000000 0.8815 0.8811 0.8812 0.8815 0.8812
2257.000000 0.8812 0.8815 0.8816 0.8812 0.8813
2252.000000 0.8813 0.8814 0.8808 0.8808 0.8810
2247.000000 0.8811 0.8813 0.8812 0.8807 0.8808
2242.000000 0.8809 0.8810 0.8813 0.8814 0.8816
2237.000000 0.8817 0.8819 0.8814 0.8813 0.8814
2232.000000 0.8816 0.8817 0.8819 0.8820 0.8821
2227.000000 0.8822 0.8824 0.8825 0.8827 0.8827
2222.000000 0.8827 0.8820 0.8821 0.8821 0.8822
2217.000000 0.8822 0.8822 0.8822 0.8822 0.8821
2212.000000 0.8821 0.8821 0.8821 0.8821 0.8821
2207.000000 0.8814 0.8807 0.8799 0.8790 0.8781
2202.000000 0.8774 0.8766 0.8758 0.8751 0.8744
2197.000000 0.8736 0.8728 0.8715 0.8714 0.8708
2192.000000 0.8698 0.8697 0.8697 0.8697 0.8699
2187.000000 0.8700 0.8702 0.8703 0.8710 0.8710
2182.000000 0.8709 0.8710 0.8712 0.8717 0.8727
2177.000000 0.8732 0.8736 0.8740 0.8744 0.8748
2172.000000 0.8752 0.8756 0.8760 0.8764 0.8762
2167.000000 0.8766 0.8771 0.8775 0.8779 0.8783
2162.000000 0.8789 0.8793 0.8798 0.8802 0.8806
2157.000000 0.8809 0.8813 0.8817 0.8820 0.8824
2152.000000 0.8828 0.8832 0.8836 0.8840 0.8844
2147.000000 0.8847 0.8851 0.8854 0.8858 0.8861
2142.000000 0.8866 0.8869 0.8874 0.8876 0.8881
2137.000000 0.8884 0.8888 0.8889 0.8891 0.8892
2132.000000 0.8894 0.8895 0.8897 0.8898 0.8900
2127.000000 0.8901 0.8903 0.8905 0.8907 0.8908
2122.000000 0.8903 0.8910 0.8912 0.8913 0.8915
2117.000000 0.8915 0.8916 0.8916 0.8917 0.8917
2112.000000 0.8918 0.8918 0.8918 0.8918 0.8919
2107.000000 0.8919 0.8920 0.8920 0.8920 0.8920
2102.000000 0.8922 0.8922 0.8923 0.8923 0.8917
2097.000000 0.8915 0.8921 0.8923 0.8916 0.8922
2092.000000 0.8923 0.8923 0.8923 0.8923 0.8923
2087.000000 0.8922 0.8922 0.8920 0.8920 0.8920
2082.000000 0.8920 0.8920 0.8920 0.8919 0.8919
2077.000000 0.8918 0.8918 0.8918 0.8918 0.8916
2072.000000 0.8915 0.8903 0.8892 0.8878 0.8868
2067.000000 0.8857 0.8846 0.8835 0.8824 0.8815
2062.000000 0.8804 0.8803 0.8803 0.8804 0.8805
2057.000000 0.8808 0.8816 0.8817 0.8818 0.8818
2052.000000 0.8815 0.8813 0.8817 0.8813 0.8809
2047.000000 0.8808 0.8808 0.8808 0.8808 0.8807
2042.000000 0.8807 0.8806 0.8806 0.8806 0.8806
2037.000000 0.8805 0.8805 0.8804 0.8804 0.8803
2032.000000 0.8803 0.8802 0.8802 0.8802 0.8804
2027.000000 0.8806 0.8801 0.8803 0.8808 0.8807
2022.000000 0.8807 0.8806 0.8806 0.8805 0.8804
2017.000000 0.8803 0.8803 0.8803 0.8803 0.8802
2012.000000 0.8802 0.8802 0.8802 0.8802 0.8802
2007.000000 0.8801 0.8801 0.8799 0.8797 0.8795
2002.000000 0.8793 0.8788 0.8783 0.8779 0.8721
1997.000000 0.8648 0.8578 0.8509 0.8465 0.8466
1992.000000 0.8515 0.8568 0.8621 0.8675 0.8729
1987.000000 0.8761 0.8755 0.8754 0.8753 0.8753
1982.000000 0.8753 0.8754 0.8755 0.8755 0.8748
1977.000000 0.8749 0.8749 0.8754 0.8756 0.8761
1972.000000 0.8764 0.8767 0.8772 0.8775 0.8779
1967.000000 0.8782 0.8789 0.8792 0.8792 0.8801
1962.000000 0.8807 0.8810 0.8811 0.8811 0.8811
1957.000000 0.8811 0.8811 0.8811 0.8802 0.8800
1952.000000 0.8800 0.8799 0.8796 0.8788 0.8787
1947.000000 0.8787 0.8790 0.8792 0.8794 0.8795
1942.000000 0.8799 0.8802 0.8803 0.8806 0.8809
1937.000000 0.8811 0.8813 0.8815 0.8817 0.8781
1932.000000 0.8822 0.8824 0.8826 0.8829 0.8831
1927.000000 0.8833 0.8835 0.8837 0.8839 0.8839
1922.000000 0.8839 0.8839 0.8838 0.8838 0.8837
1917.000000 0.8837 0.8836 0.8836 0.8835 0.8834
1912.000000 0.8834 0.8833 0.8833 0.8832 0.8832
1907.000000 0.8837 0.8839 0.8839 0.8840 0.8841
1902.000000 0.8841 0.8842 0.8843 0.8843 0.8842
1897.000000 0.8842 0.8841 0.8840 0.8840 0.8839
1892.000000 0.8838 0.8835 0.8829 0.8828 0.8828
1887.000000 0.8828 0.8828 0.8828 0.8833 0.8836
1882.000000 0.8836 0.8836 0.8836 0.8836 0.8833
1877.000000 0.8831 0.8829 0.8836 0.8834 0.8832
1872.000000 0.8830 0.8829 0.8827 0.8825 0.8823
1867.000000 0.8821 0.8820 0.8818 0.8814 0.8813
1862.000000 0.8812 0.8810 0.8807 0.8807 0.8807
1857.000000 0.8814 0.8812 0.8810 0.8810 0.8812
1852.000000 0.8813 0.8814 0.8814 0.8816 0.8817
1847.000000 0.8817 0.8819 0.8821 0.8822 0.8823
1842.000000 0.8824 0.8825 0.8825 0.8825 0.8824
1837.000000 0.8824 0.8820 0.8814 0.8813 0.8813
1832.000000 0.8812 0.8810 0.8810 0.8810 0.8808
1827.000000 0.8806 0.8806 0.8805 0.8805 0.8804
1822.000000 0.8802 0.8802 0.8802 0.8809 0.8807
1817.000000 0.8807 0.8806 0.8806 0.8805 0.8805
1812.000000 0.8804 0.8804 0.8803 0.8800 0.8794
1807.000000 0.8794 0.8793 0.8793 0.8788 0.8784
1802.000000 0.8783 0.8783 0.8782 0.8782 0.8781
1797.000000 0.8781 0.8780 0.8780 0.8779 0.8779
1792.000000 0.8778 0.8778 0.8777 0.8777 0.8777
1787.000000 0.8777 0.8776 0.8776 0.8776 0.8776
1782.000000 0.8776 0.8776 0.8775 0.8775 0.8775
1777.000000 0.8775 0.8770 0.8766 0.8766 0.8766
1772.000000 0.8766 0.8766 0.8766 0.8765 0.8765
1767.000000 0.8764 0.8763 0.8763 0.8762 0.8761
1762.000000 0.8760 0.8760 0.8759 0.8759 0.8764
1757.000000 0.8764 0.8763 0.8762 0.8761 0.8761
1752.000000 0.8760 0.8759 0.8758 0.8757 0.8756
1747.000000 0.8755 0.8754 0.8753 0.8752 0.8752
1742.000000 0.8751 0.8751 0.8750 0.8748 0.8748
1737.000000 0.8747 0.8747 0.8745 0.8745 0.8744
1732.000000 0.8744 0.8745 0.8746 0.8746 0.8746
1727.000000 0.8746 0.8747 0.8747 0.8747 0.8747
1722.000000 0.8747 0.8748 0.8748 0.8748 0.8747
1717.000000 0.8745 0.8746 0.8744 0.8743 0.8742
1712.000000 0.8738 0.8729 0.8720 0.8711 0.8702
1707.000000 0.8696 0.8690 0.8685 0.8679 0.8674
1702.000000 0.8669 0.8671 0.8672 0.8672 0.8673
1697.000000 0.8674 0.8676 0.8673 0.8671 0.8668
1692.000000 0.8666 0.8663 0.8661 0.8659 0.8656
1687.000000 0.8656 0.8655 0.8654 0.8652 0.8653
1682.000000 0.8653 0.8652 0.8650 0.8648 0.8644
1677.000000 0.8640 0.8638 0.8634 0.8630 0.8630
1672.000000 0.8631 0.8627 0.8623 0.8619 0.8616
1667.000000 0.8612 0.8609 0.8609 0.8608 0.8606
1662.000000 0.8604 0.8602 0.8607 0.8599 0.8596
1657.000000 0.8601 0.8599 0.8597 0.8595 0.8592
1652.000000 0.8584 0.8588 0.8586 0.8583 0.8581
1647.000000 0.8580 0.8580 0.8580 0.8576 0.8572
1642.000000 0.8572 0.8570 0.8565 0.8561 0.8562
1637.000000 0.8559 0.8559 0.8557 0.8551 0.8553
1632.000000 0.8548 0.8547 0.8539 0.8539 0.8531
1627.000000 0.8529 0.8519 0.8506 0.8509 0.8506
1622.000000 0.8510 0.8509 0.8499 0.8496 0.8492
1617.000000 0.8485 0.8485 0.8484 0.8482 0.8470
1612.000000 0.8461 0.8455 0.8440 0.8433 0.8410
1607.000000 0.8367 0.8338 0.8295 0.8283 0.8255
1602.000000 0.8239 0.8202 0.8192 0.8145 0.8091
1597.000000 0.8036 0.7982 0.7934 0.7888 0.7845
1592.000000 0.7819 0.7785 0.7726 0.7680 0.7622
1587.000000 0.7547 0.7477 0.7392 0.7306 0.7254
1582.000000 0.7211 0.7179 0.7139 0.7108 0.7087
1577.000000 0.7075 0.7058 0.7044 0.7039 0.7033
1572.000000 0.7025 0.7032 0.7025 0.7016 0.7002
1567.000000 0.7003 0.6944 0.6868 0.6801 0.6734
1562.000000 0.6676 0.6626 0.6580 0.6512 0.6335
1557.000000 0.6129 0.6115 0.6123 0.6120 0.6109
1552.000000 0.6102 0.6119 0.6126 0.6123 0.6112
1547.000000 0.6117 0.6127 0.6166 0.6203 0.6269
1542.000000 0.6334 0.6386 0.6439 0.6496 0.6583
1537.000000 0.6654 0.6745 0.6823 0.6852 0.6880
1532.000000 0.6910 0.6942 0.6963 0.6991 0.7024
1527.000000 0.7054 0.7090 0.7122 0.7158 0.7189
1522.000000 0.7226 0.7256 0.7291 0.7317 0.7336
1517.000000 0.7360 0.7384 0.7404 0.7424 0.7435
1512.000000 0.7448 0.7455 0.7468 0.7481 0.7491
1507.000000 0.7500 0.7511 0.7519 0.7534 0.7546
1502.000000 0.7556 0.7569 0.7585 0.7601 0.7610
1497.000000 0.7626 0.7631 0.7633 0.7629 0.7632
1492.000000 0.7623 0.7614 0.7606 0.7606 0.7571
1487.000000 0.7555 0.7545 0.7521 0.7498 0.7480
1482.000000 0.7456 0.7403 0.7338 0.7254 0.7135
1477.000000 0.7018 0.6913 0.6810 0.6677 0.6394
1472.000000 0.6217 0.6038 0.5858 0.5656 0.2834
1467.000000 0.4215 0.2837 0.2837 0.2993 0.3185
1462.000000 0.3219 0.3226 0.3073 0.2395 0.2468
1457.000000 0.2404 0.2416 0.2518 0.2613 0.2708
1452.000000 0.2802 0.2897 0.2990 0.3089 0.3189
1447.000000 0.3287 0.3657 0.3805 0.3948 0.4072
1442.000000 0.4196 0.4466 0.4678 0.4826 0.4923
1437.000000 0.5020 0.5113 0.5246 0.5485 0.5645
1432.000000 0.5766 0.5888 0.5930 0.5934 0.5908
1427.000000 0.5857 0.5817 0.5776 0.5759 0.5750
1422.000000 0.5749 0.5755 0.5771 0.5790 0.5931
1417.000000 0.6157 0.6939 0.7048 0.7166 0.7313
1412.000000 0.7451 0.7554 0.7614 0.7674 0.7736
1407.000000 0.7770 0.7803 0.7831 0.7849 0.7865
1402.000000 0.7874 0.7882 0.7890 0.7898 0.7888
1397.000000 0.7876 0.7859 0.7845 0.7830 0.7814
1392.000000 0.7798 0.7781 0.7767 0.7747 0.7705
1387.000000 0.7675 0.7583 0.7446 0.7287 0.7122
1382.000000 0.6936 0.6788 0.6655 0.4397 0.4403
1377.000000 0.4403 0.4439 0.4493 0.4560 0.4792
1372.000000 0.5033 0.5252 0.5399 0.5478 0.6018
1367.000000 0.6585 0.7152 0.7647 0.7695 0.7741
1362.000000 0.7789 0.7822 0.7844 0.7865 0.7885
1357.000000 0.7906 0.7918 0.7932 0.7946 0.7960
1352.000000 0.7974 0.7987 0.8001 0.8005 0.8005
1347.000000 0.8003 0.8001 0.7994 0.7987 0.7979
1342.000000 0.7967 0.7961 0.7958 0.7956 0.7975
1337.000000 0.7996 0.8026 0.8058 0.8088 0.8119
1332.000000 0.8147 0.8173 0.8196 0.8215 0.8239
1327.000000 0.8254 0.8269 0.8277 0.8277 0.8274
1322.000000 0.8267 0.8267 0.8266 0.8263 0.8253
1317.000000 0.8247 0.8242 0.8232 0.8224 0.8199
1312.000000 0.8176 0.8119 0.8036 0.7949 0.7818
1307.000000 0.7705 0.7614 0.7519 0.7422 0.7385
1302.000000 0.7354 0.7323 0.7314 0.7317 0.7327
1297.000000 0.7341 0.7348 0.7314 0.7239 0.7126
1292.000000 0.7094 0.7086 0.7085 0.7103 0.7131
1287.000000 0.7159 0.7189 0.7190 0.7183 0.7130
1282.000000 0.7046 0.6947 0.6842 0.6770 0.6696
1277.000000 0.6623 0.6465 0.6364 0.6330 0.6296
1272.000000 0.6260 0.6216 0.6170 0.5996 0.5640
1267.000000 0.5052 0.4886 0.4340 0.3727 0.3115
1262.000000 0.2579 0.2562 0.2595 0.2556 0.2702
1257.000000 0.3200 0.3697 0.4195 0.4693 0.5186
1252.000000 0.5682 0.5883 0.6025 0.6105 0.6467
1247.000000 0.6999 0.7054 0.7109 0.7162 0.7234
1242.000000 0.7304 0.7386 0.7495 0.7620 0.7715
1237.000000 0.7774 0.7803 0.7821 0.7854 0.7841
1232.000000 0.7840 0.7829 0.7802 0.7736 0.7582
1227.000000 0.7432 0.7160 0.6787 0.6412 0.6037
1222.000000 0.5662 0.5288 0.5173 0.5185 0.5171
1217.000000 0.5215 0.5474 0.5936 0.6397 0.6860
1212.000000 0.7297 0.7573 0.7815 0.8042 0.8191
1207.000000 0.8304 0.8386 0.8441 0.8481 0.8503
1202.000000 0.8525 0.8543 0.8555 0.8568 0.8573
1197.000000 0.8582 0.8593 0.8600 0.8606 0.8614
1192.000000 0.8607 0.8599 0.8591 0.8583 0.8572
1187.000000 0.8569 0.8569 0.8586 0.8600 0.8658
1182.000000 0.8684 0.8704 0.8726 0.8752 0.8792
1177.000000 0.8829 0.8854 0.8880 0.8906 0.8919
1172.000000 0.8932 0.8946 0.8960 0.8973 0.8984
1167.000000 0.9003 0.9013 0.9024 0.9033 0.9043
1162.000000 0.9054 0.9064 0.9072 0.9080 0.9089
1157.000000 0.9097 0.9103 0.9107 0.9111 0.9115
1152.000000 0.9119 0.9118 0.9124 0.9131 0.9129
1147.000000 0.9127 0.9127 0.9127 0.9127 0.9119
1142.000000 0.9126 0.9127 0.9127 0.9135 0.9144
1137.000000 0.9150 0.9149 0.9152 0.9147 0.9137
1132.000000 0.9134 0.9131 0.9127 0.9120 0.9112
1127.000000 0.9107 0.9098 0.9091 0.9083 0.9075
1122.000000 0.9072 0.9066 0.9055 0.9042 0.9030
1117.000000 0.9017 0.9010 0.9000 0.8986 0.8971
1112.000000 0.8955 0.8941 0.8914 0.8884 0.8845
1107.000000 0.8788 0.8693 0.8538 0.8428 0.8379
1102.000000 0.8321 0.8259 0.8204 0.8180 0.8177
1097.000000 0.8210 0.8276 0.8337 0.8407 0.8456
1092.000000 0.8486 0.8511 0.8525 0.8533 0.8533
1087.000000 0.8533 0.8520 0.8496 0.8444 0.8386
1082.000000 0.8329 0.8316 0.8306 0.8304 0.8342
1077.000000 0.8419 0.8452 0.8487 0.8514 0.8545
1072.000000 0.8563 0.8576 0.8588 0.8597 0.8606
1067.000000 0.8645 0.8612 0.8601 0.8588 0.8560
1062.000000 0.8544 0.8535 0.8525 0.8511 0.8508
1057.000000 0.8489 0.8459 0.8434 0.8408 0.8360
1052.000000 0.8314 0.8269 0.8226 0.8146 0.8158
1047.000000 0.8156 0.8162 0.8201 0.8240 0.8280
1042.000000 0.8318 0.8359 0.8401 0.8441 0.8502
1037.000000 0.8535 0.8548 0.8546 0.8545 0.8545
1032.000000 0.8548 0.8549 0.8545 0.8548 0.8560
1027.000000 0.8574 0.8585 0.8593 0.8606 0.8622
1022.000000 0.8641 0.8659 0.8678 0.8702 0.8729
1017.000000 0.8749 0.8755 0.8760 0.8765 0.8790
1012.000000 0.8768 0.8765 0.8762 0.8761 0.8752
1007.000000 0.8743 0.8737 0.8731 0.8716 0.8708
1002.000000 0.8686 0.8664 0.8642 0.8623 0.8612
997.000000 0.8602 0.8598 0.8594 0.8590 0.8589
992.000000 0.8590 0.8594 0.8593 0.8581 0.8540
987.000000 0.8482 0.8375 0.8257 0.8137 0.8029
982.000000 0.7947 0.7869 0.7810 0.7752 0.7705
977.000000 0.7660 0.7618 0.7577 0.7495 0.7386
972.000000 0.7274 0.7172 0.7064 0.6996 0.7002
967.000000 0.7017 0.7099 0.7288 0.7495 0.7703
962.000000 0.7912 0.8120 0.8275 0.8367 0.8461
957.000000 0.8549 0.8641 0.8740 0.8812 0.8861
952.000000 0.8913 0.8968 0.9022 0.9070 0.9110
947.000000 0.9149 0.9164 0.9179 0.9188 0.9194
942.000000 0.9194 0.9194 0.9193 0.9231 0.9191
937.000000 0.9191 0.9190 0.9186 0.9177 0.9169
932.000000 0.9161 0.9154 0.9144 0.9127 0.9109
927.000000 0.9092 0.9071 0.9017 0.8963 0.8881
922.000000 0.8797 0.8720 0.8643 0.8561 0.8477
917.000000 0.8405 0.8347 0.8288 0.8234 0.8200
912.000000 0.8188 0.8180 0.8182 0.8211 0.8281
907.000000 0.8357 0.8452 0.8551 0.8641 0.8691
902.000000 0.8745 0.8791 0.8803 0.8808 0.8795
897.000000 0.8769 0.8754 0.8744 0.8744 0.8744
892.000000 0.8767 0.8792 0.8819 0.8848 0.8869
887.000000 0.8865 0.8837 0.8805 0.8753 0.8675
882.000000 0.8610 0.8553 0.8496 0.8433 0.8371
877.000000 0.8323 0.8311 0.8325 0.8340 0.8356
872.000000 0.8371 0.8379 0.8383 0.8371 0.8358
867.000000 0.8352 0.8337 0.8334 0.8341 0.8346
862.000000 0.8352 0.8370 0.8390 0.8406 0.8423
857.000000 0.8439 0.8450 0.8475 0.8492 0.8503
852.000000 0.8508 0.8505 0.8525 0.8532 0.8541
847.000000 0.8570 0.8599 0.8714 0.8806 0.8847
842.000000 0.8888 0.8928 0.8978 0.9033 0.9074
837.000000 0.9121 0.9162 0.9210 0.9246 0.9266
832.000000 0.9287 0.9300 0.9310 0.9319 0.9324
827.000000 0.9333 0.9333 0.9332 0.9333 0.9334
822.000000 0.9333 0.9320 0.9310 0.9303 0.9296
817.000000 0.9274 0.9256 0.9230 0.9203 0.9174
812.000000 0.9150 0.9127 0.9113 0.9105 0.9094
807.000000 0.9079 0.9075 0.9068 0.9056 0.9044
802.000000 0.9009 0.8964 0.8905 0.8845 0.8802
797.000000 0.8761 0.8704 0.8642 0.8574 0.8510
792.000000 0.8447 0.8390 0.8323 0.8260 0.8199
787.000000 0.8137 0.8074 0.8012 0.7949 0.7880
782.000000 0.7791 0.7772 0.7755 0.7759 0.7818
777.000000 0.7927 0.8009 0.8130 0.8291 0.8401
772.000000 0.8490 0.8535 0.8562 0.8561 0.8626
767.000000 0.8566 0.8564 0.8557 0.8535 0.8515
762.000000 0.8484 0.8450 0.8414 0.8371 0.8327
757.000000 0.8284 0.8232 0.8179 0.8126 0.8054
752.000000 0.7948 0.7873 0.7797 0.7690 0.7464
747.000000 0.7290 0.7201 0.7121 0.7036 0.6924
742.000000 0.6881 0.6828 0.6848 0.6841 0.6945
737.000000 0.7576 0.7644 0.7711 0.7920 0.8024
732.000000 0.8108 0.8173 0.8220 0.8250 0.8282
727.000000 0.8313 0.8344 0.8379 0.8407 0.8440
722.000000 0.8484 0.8535 0.8583 0.8637 0.8702
717.000000 0.8771 0.8830 0.8887 0.8951 0.9008
712.000000 0.9062 0.9116 0.9147 0.9178 0.9203
707.000000 0.9221 0.9237 0.9254 0.9261 0.9274
702.000000 0.9278 0.9320 0.9290 0.9284 0.9278
697.000000 0.9272 0.9266 0.9259 0.9255 0.9244
692.000000 0.9235 0.9230 0.9226 0.9222 0.9224
687.000000 0.9227 0.9227 0.9230 0.9233 0.9246
682.000000 0.9254 0.9262 0.9273 0.9274 0.9293
677.000000 0.9296 0.9297 0.9287 0.9244 0.9181
672.000000 0.9108 0.9043 0.9017 0.9054 0.9094
667.000000 0.9044 0.8998 0.8986 0.8941 0.8886
662.000000 0.8831 0.8782 0.8734 0.8687 0.8634
657.000000 0.8573 0.8526 0.8509 0.8498 0.8493
652.000000 0.8485 0.8530 0.8587 0.8642 0.8697
647.000000 0.8765 0.8826 0.8889 0.8914 0.8936
642.000000 0.8963 0.8988 0.9010 0.9037 0.9050
637.000000 0.9062 0.9084 0.9105 0.9115 0.9136
632.000000 0.9154 0.9172 0.9194 0.9215 0.9228
627.000000 0.9248 0.9260 0.9280 0.9301 0.9313
622.000000 0.9334 0.9354 0.9376 0.9400 0.9428
617.000000 0.9448 0.9463 0.9484 0.9503 0.9518
612.000000 0.9534 0.9545 0.9555 0.9565 0.9576
607.000000 0.9581 0.9584 0.9589 0.9596 0.9601
602.000000 0.9608 0.9613 0.9618 0.9624 0.9629
597.000000 0.9632 0.9636 0.9639 0.9642 0.9646
592.000000 0.9649 0.9652 0.9656 0.9659 0.9663
587.000000 0.9663 0.9665 0.9667 0.9665 0.9666
582.000000 0.9667 0.9668 0.9670 0.9670 0.9671
577.000000 0.9665 0.9665 0.9667 0.9675 0.9677
572.000000 0.9675 0.9672 0.9669 0.9683 0.9662
567.000000 0.9651 0.9649 0.9654 0.9649 0.9638
562.000000 0.9634 0.9631 0.9628 0.9625 0.9621
557.000000 0.9618 0.9615 0.9606 0.9599 0.9597
552.000000 0.9586 0.9587 0.9586 0.9583 0.9578
547.000000 0.9574 0.9571 0.9567 0.9562 0.9559
542.000000 0.9555 0.9551 0.9544 0.9539 0.9540
537.000000 0.9536 0.9536 0.9528 0.9518 0.9517
532.000000 0.9506 0.9497 0.9486 0.9476 0.9466
527.000000 0.9456 0.9451 0.9444 0.9432 0.9421
522.000000 0.9408 0.9397 0.9386 0.9373 0.9362
517.000000 0.9349 0.9336 0.9320 0.9304 0.9289
512.000000 0.9274 0.9259 0.9243 0.9228 0.9215
507.000000 0.9201 0.9191 0.9180 0.9167 0.9156
502.000000 0.9139 0.9119 0.9101 0.9082 0.9064
497.000000 0.9045 0.9027 0.9008 0.8988 0.8966
492.000000 0.8945 0.8925 0.8904 0.8883 0.8862
487.000000 0.8841 0.8822 0.8801 0.8782 0.8762
482.000000 0.8743 0.8721 0.8699 0.8678 0.8655
477.000000 0.8634 0.8612 0.8591 0.8566 0.8539
472.000000 0.8512 0.8485 0.8457 0.8431 0.8404
467.000000 0.8376 0.8350 0.8322 0.8286 0.8249
462.000000 0.8211 0.8172 0.8134 0.8096 0.8052
457.000000 0.8008 0.7963 0.7919 0.7874 0.7817
452.000000 0.7762 0.7707 0.7659 0.7614 0.7567
447.000000 0.7521 0.7467 0.7410 0.7351 0.7295
442.000000 0.7222 0.7149 0.7067 0.6987 0.6947
437.000000 0.6913 0.6890 0.6859 0.6817 0.6810
432.000000 0.6803 0.6798 0.6797 0.6797 0.6797
427.000000 0.6817 0.6834 0.6915 0.6992 0.7433
422.000000 0.7929 0.8427 0.8923 0.9233 0.9235
417.000000 0.9237 0.9237 0.9237 0.9237 0.9227
412.000000 0.9217 0.9201 0.9189 0.9176 0.9169
407.000000 0.9165 0.9160 0.9156
##END=
