##TITLE=ETHANOL, 2-[[3-(METHYLAMINO)PROPYL]AMINO]-, S-ESTER WITH PHOSPHOROTHIOIC ACID, HYDRATE
##JCAMP-DX=4.24
##DATA TYPE=INFRARED SPECTRUM
##CLASS=COBLENTZ III
##ORIGIN=SOUTHERN RESEARCH INSTITUTE
##OWNER=COBLENTZ SOCIETY
Collection (C) 2018 copyright by the U.S. Secretary of Commerce
on behalf of the United States of America. All rights reserved.
##DATE=1964/11/06
##NAMES=S-(2-([3-(methylamino)propyl]amino)ethyl) dihydrogen thiophosphate hydrate
PHOSPHOROTHIOIC ACID, S-2-[[3-(METHYLAMINO)PROPYL]AMINO]ETHYL ESTER, HYDRATE
##CAS REGISTRY NO=63980-94-9
##MOLFORM=C6 H17 N2 O3 P S  * H2 O
##SOURCE REFERENCE=COBLENTZ NO. 7423
##$NIST SOURCE=COBLENTZ
##$NIST IMAGE=cob7423
##SPECTROMETER/DATA SYSTEM=PERKIN-ELMER 221 (GRATING)
##INSTRUMENT PARAMETERS=FILTER AT 980 CM^-^1. GRATING 4000-1428 CM^-^1, NaCl PRISM 1428-650 CM^-^1
##STATE=SOLID (1 mg / 650 mg KBr DISC)
##SAMPLING PROCEDURE=TRANSMISSION
##RESOLUTION=2
##DATA PROCESSING=DIGITIZED BY NIST FROM HARD COPY (FROM TWO SEGMENTS)
##XUNITS=1/CM
##YUNITS=TRANSMITTANCE
##XFACTOR=1.000000
##YFACTOR=1
##DELTAX=1.212611
##FIRSTX=603.912
##LASTX=3825.82
##FIRSTY=0.634
##MAXX=3825.82
##MINX=603.912
##MAXY=0.86
##MINY=0.122096
##NPOINTS=2658
##XYDATA=(X++(Y..Y))
603.912000 0.6340 0.6330 0.6330 0.6320 0.6320
609.975055 0.6320 0.6311 0.6310 0.6291 0.6290
616.038110 0.6272 0.6252 0.6232 0.6221 0.6211
622.101165 0.6210 0.6201 0.6183 0.6172 0.6162
628.164220 0.6143 0.6115 0.6102 0.6092 0.6082
634.227275 0.6080 0.6064 0.6052 0.6058 0.6075
640.290330 0.6088 0.6097 0.6100 0.6100 0.6100
646.353385 0.6093 0.6090 0.6090 0.6083 0.6066
652.416440 0.6060 0.6053 0.6017 0.5987 0.5967
658.479495 0.5941 0.5949 0.6003 0.6115 0.6224
664.542550 0.6361 0.6500 0.6631 0.6724 0.6795
670.605605 0.6891 0.7043 0.7162 0.7284 0.7385
676.668660 0.7426 0.7465 0.7520 0.7580 0.7619
682.731715 0.7668 0.7718 0.7745 0.7759 0.7770
688.794770 0.7774 0.7789 0.7817 0.7852 0.7878
694.857825 0.7906 0.7930 0.7934 0.7944 0.7950
700.920880 0.7960 0.7987 0.8003 0.8010 0.8013
706.983935 0.8020 0.8029 0.8050 0.8050 0.8053
713.046990 0.8060 0.8063 0.8073 0.8080 0.8080
719.110045 0.8080 0.8084 0.8096 0.8080 0.8080
725.173100 0.8078 0.8070 0.8068 0.8060 0.8057
731.236155 0.8040 0.8037 0.8019 0.8009 0.7999
737.299210 0.7989 0.7978 0.7959 0.7948 0.7930
743.362265 0.7927 0.7889 0.7859 0.7637 0.7567
749.425320 0.7459 0.7430 0.7450 0.7470 0.7540
755.488375 0.7639 0.7826 0.8004 0.8125 0.8187
761.551430 0.8228 0.8230 0.8239 0.8240 0.8240
767.614485 0.8231 0.8203 0.8191 0.8181 0.8180
773.677540 0.8171 0.8170 0.8161 0.8143 0.8140
779.740595 0.8132 0.8130 0.8130 0.8122 0.8120
785.803650 0.8120 0.8112 0.8110 0.8102 0.8085
791.866705 0.8073 0.8063 0.8053 0.8043 0.8012
797.929760 0.8000 0.7993 0.7983 0.7960 0.7930
803.992815 0.7728 0.7453 0.7347 0.7340 0.7334
810.055870 0.7349 0.7452 0.7589 0.7868 0.8020
816.118925 0.8020 0.8020 0.8014 0.8004 0.8000
822.181980 0.8000 0.7995 0.7969 0.7945 0.7940
828.245035 0.7935 0.7915 0.7885 0.7851 0.7816
834.308090 0.7777 0.7727 0.7678 0.7628 0.7583
840.371145 0.7535 0.7471 0.7402 0.7356 0.7342
846.434200 0.7319 0.7296 0.7312 0.7364 0.7432
852.497255 0.7561 0.7677 0.7710 0.7710 0.7710
858.560310 0.7710 0.7710 0.7710 0.7707 0.7700
864.623365 0.7697 0.7688 0.7673 0.7648 0.7636
870.686420 0.7614 0.7586 0.7558 0.7502 0.7468
876.749475 0.7455 0.7423 0.7385 0.7357 0.7340
882.812530 0.7339 0.7326 0.7296 0.7265 0.7229
888.875585 0.7216 0.7178 0.7155 0.7096 0.7046
894.938640 0.6979 0.6968 0.6930 0.6919 0.6890
901.001695 0.6890 0.6870 0.6820 0.6800 0.6751
907.064750 0.6740 0.6692 0.6671 0.6641 0.6612
913.127805 0.6582 0.6571 0.6506 0.6445 0.6395
919.190860 0.6372 0.6352 0.6315 0.6144 0.6016
925.253915 0.5897 0.5660 0.5427 0.5324 0.5236
931.316970 0.4985 0.4786 0.4694 0.4625 0.4524
937.380025 0.4322 0.4255 0.4265 0.4300 0.4340
943.443080 0.4350 0.4184 0.4034 0.3915 0.3627
949.506135 0.3402 0.3227 0.2940 0.2757 0.2641
955.569190 0.2587 0.2586 0.2781 0.3445 0.3795
961.632245 0.3835 0.3850 0.3850 0.3797 0.3691
967.695300 0.3572 0.3453 0.3367 0.3307 0.3215
973.758355 0.3096 0.2982 0.2925 0.4224 0.5560
979.821410 0.5727 0.5964 0.6185 0.6294 0.6310
985.884465 0.6301 0.6286 0.6271 0.6256 0.6233
991.947520 0.6137 0.6010 0.5960 0.5876 0.5661
998.010575 0.5365 0.5133 0.4973 0.4957 0.4953
1004.073630 0.4967 0.5138 0.5555 0.5720 0.5711
1010.136685 0.5684 0.5667 0.5638 0.5546 0.5420
1016.199740 0.5318 0.5266 0.5204 0.5136 0.5079
1022.262795 0.5023 0.4940 0.4831 0.4701 0.4650
1028.325850 0.4574 0.4414 0.4249 0.4118 0.4043
1034.388905 0.3992 0.3917 0.3727 0.3521 0.3344
1040.451960 0.3272 0.3176 0.2987 0.2793 0.2694
1046.515015 0.2581 0.2404 0.2246 0.2128 0.2040
1052.578070 0.2010 0.1980 0.1941 0.1891 0.1831
1058.641125 0.1733 0.1529 0.1435 0.1355 0.1276
1064.704180 0.1252 0.1232 0.1221 0.1229 0.1257
1070.767235 0.1322 0.1383 0.1407 0.1410 0.1444
1076.830290 0.1458 0.1485 0.1506 0.1576 0.1712
1082.893345 0.1804 0.1908 0.1938 0.2026 0.2081
1088.956400 0.2212 0.2423 0.2517 0.2537 0.2555
1095.019455 0.2546 0.2511 0.2465 0.2373 0.2216
1101.082510 0.2099 0.2010 0.1861 0.1721 0.1647
1107.145565 0.1617 0.1616 0.1639 0.1687 0.1886
1113.208620 0.2054 0.2178 0.2542 0.2904 0.3245
1119.271675 0.3510 0.3663 0.3910 0.4157 0.4330
1125.334730 0.4597 0.4811 0.4880 0.4930 0.4965
1131.397785 0.5023 0.5212 0.5398 0.5439 0.5463
1137.460840 0.5493 0.5510 0.5497 0.5480 0.5472
1143.523895 0.5460 0.5476 0.5531 0.5595 0.5638
1149.586950 0.5688 0.5730 0.5770 0.5847 0.5946
1155.650005 0.6016 0.6069 0.6143 0.6258 0.6384
1161.713060 0.6498 0.6575 0.6631 0.6765 0.6822
1167.776115 0.6865 0.6882 0.6899 0.6939 0.6970
1173.839170 0.6970 0.6953 0.6868 0.6798 0.6728
1179.902225 0.6664 0.6624 0.6580 0.6511 0.6448
1185.965280 0.6431 0.6441 0.6474 0.6722 0.6962
1192.028335 0.7099 0.7220 0.7364 0.7435 0.7523
1198.091390 0.7592 0.7661 0.7690 0.7710 0.7720
1204.154445 0.7740 0.7750 0.7760 0.7770 0.7780
1210.217500 0.7780 0.7799 0.7800 0.7800 0.7800
1216.280555 0.7800 0.7800 0.7800 0.7800 0.7800
1222.343610 0.7800 0.7809 0.7810 0.7818 0.7820
1228.406665 0.7837 0.7857 0.7868 0.7878 0.7888
1234.469720 0.7898 0.7900 0.7900 0.7915 0.7920
1240.532775 0.7920 0.7905 0.7893 0.7883 0.7873
1246.595830 0.7834 0.7778 0.7718 0.7659 0.7524
1252.658885 0.7396 0.7280 0.7004 0.6874 0.6864
1258.721940 0.6866 0.6876 0.6904 0.6974 0.7082
1264.784995 0.7160 0.7285 0.7400 0.7470 0.7533
1270.848050 0.7582 0.7681 0.7766 0.7790 0.7816
1276.911105 0.7830 0.7830 0.7830 0.7830 0.7835
1282.974160 0.7840 0.7826 0.7788 0.7742 0.7711
1289.037215 0.7696 0.7694 0.7708 0.7744 0.7816
1295.100270 0.7878 0.7901 0.7924 0.7934 0.7940
1301.163325 0.7944 0.7953 0.7960 0.7966 0.7980
1307.226380 0.7974 0.7960 0.7960 0.7960 0.7960
1313.289435 0.7960 0.7957 0.7947 0.7938 0.7930
1319.352490 0.7930 0.7930 0.7934 0.7952 0.7966
1325.415545 0.7990 0.7985 0.7960 0.7960 0.7958
1331.478600 0.7950 0.7949 0.7941 0.7950 0.7951
1337.541655 0.7960 0.7960 0.7960 0.7960 0.7960
1343.604710 0.7959 0.7949 0.7938 0.7899 0.7880
1349.667765 0.7870 0.7860 0.7840 0.7830 0.7780
1355.730820 0.7711 0.7652 0.7650 0.7640 0.7621
1361.793875 0.7582 0.7533 0.7428 0.7365 0.7305
1367.856930 0.7255 0.7232 0.7239 0.7266 0.7374
1373.919985 0.7425 0.7516 0.7589 0.7667 0.7738
1379.983040 0.7758 0.7768 0.7770 0.7778 0.7796
1386.046095 0.7800 0.7800 0.7800 0.7808 0.7788
1392.109150 0.7765 0.7687 0.7573 0.7490 0.7456
1398.172205 0.7429 0.7406 0.7359 0.7313 0.7280
1404.235260 0.7257 0.7243 0.7240 0.7240 0.7240
1410.298315 0.7234 0.7236 0.7240 0.7234 0.7224
1416.361370 0.7220 0.7214 0.7199 0.7184 0.7180
1422.424425 0.7175 0.7170 0.7175 0.7206 0.7311
1428.487480 0.7475 0.7629 0.7705 0.7705 0.7691
1434.550535 0.7634 0.7485 0.7330 0.7232 0.7119
1440.613590 0.7033 0.7002 0.6986 0.6976 0.6962
1446.676645 0.6946 0.6936 0.6926 0.6916 0.6875
1452.739700 0.6793 0.6734 0.6648 0.6518 0.6359
1458.802755 0.6266 0.6142 0.6083 0.6037 0.6030
1464.865810 0.6035 0.6060 0.6104 0.6175 0.6286
1470.928865 0.6455 0.6751 0.6848 0.6932 0.6991
1476.991920 0.7045 0.7087 0.7173 0.7194 0.7224
1483.054975 0.7254 0.7283 0.7301 0.7309 0.7298
1489.118030 0.7277 0.7248 0.7227 0.7183 0.7085
1495.181085 0.6995 0.6906 0.6827 0.6748 0.6699
1501.244140 0.6649 0.6559 0.6440 0.6282 0.6153
1507.307195 0.6121 0.6149 0.6121 0.6139 0.6112
1513.370250 0.6045 0.6021 0.5993 0.5972 0.5961
1519.433305 0.5889 0.5809 0.5738 0.5625 0.5463
1525.496360 0.5423 0.5403 0.5400 0.5417 0.5477
1531.559415 0.5595 0.5749 0.5972 0.6099 0.6222
1537.622470 0.6366 0.6560 0.6791 0.6902 0.6935
1543.685525 0.6947 0.7073 0.7185 0.7309 0.7420
1549.748580 0.7464 0.7490 0.7500 0.7507 0.7510
1555.811635 0.7516 0.7520 0.7520 0.7520 0.7520
1561.874690 0.7520 0.7520 0.7520 0.7520 0.7514
1567.937745 0.7510 0.7504 0.7489 0.7469 0.7433
1574.000800 0.7384 0.7334 0.7295 0.7245 0.7185
1580.063855 0.7136 0.7086 0.7046 0.7007 0.6953
1586.126910 0.6880 0.6795 0.6724 0.6665 0.6572
1592.189965 0.6417 0.6210 0.6032 0.5963 0.5867
1598.253020 0.5743 0.5655 0.5557 0.5453 0.5440
1604.316075 0.5443 0.5453 0.5473 0.5518 0.5578
1610.379130 0.5640 0.5715 0.5845 0.6041 0.6118
1616.442185 0.6189 0.6257 0.6292 0.6334 0.6350
1622.505240 0.6354 0.6372 0.6378 0.6366 0.6345
1628.568295 0.6318 0.6304 0.6264 0.6210 0.6081
1634.631350 0.6010 0.5921 0.5756 0.5548 0.5434
1640.694405 0.5364 0.5290 0.5159 0.5151 0.5162
1646.757460 0.5217 0.5574 0.5683 0.5784 0.6001
1652.820515 0.6140 0.6388 0.6727 0.6769 0.6789
1658.883570 0.6800 0.6800 0.6809 0.6810 0.6810
1664.946625 0.6819 0.6847 0.6859 0.6905 0.6919
1671.009680 0.6991 0.7114 0.7147 0.7201 0.7346
1677.072735 0.7605 0.7650 0.7708 0.7769 0.7812
1683.135790 0.7836 0.7864 0.7878 0.7896 0.7900
1689.198845 0.7915 0.7920 0.7927 0.7937 0.7947
1695.261900 0.7993 0.8039 0.8057 0.8067 0.8070
1701.324955 0.8077 0.8080 0.8093 0.8107 0.8110
1707.388010 0.8116 0.8120 0.8126 0.8130 0.8130
1713.451065 0.8130 0.8130 0.8130 0.8130 0.8130
1719.514120 0.8130 0.8130 0.8130 0.8130 0.8135
1725.577175 0.8140 0.8140 0.8140 0.8140 0.8140
1731.640230 0.8140 0.8140 0.8140 0.8140 0.8140
1737.703285 0.8140 0.8140 0.8140 0.8140 0.8140
1743.766340 0.8140 0.8140 0.8140 0.8140 0.8140
1749.829395 0.8140 0.8140 0.8140 0.8140 0.8140
1755.892450 0.8140 0.8140 0.8140 0.8140 0.8140
1761.955505 0.8140 0.8140 0.8140 0.8140 0.8140
1768.018560 0.8140 0.8140 0.8138 0.8130 0.8130
1774.081615 0.8130 0.8130 0.8130 0.8130 0.8128
1780.144670 0.8120 0.8120 0.8120 0.8120 0.8119
1786.207725 0.8110 0.8110 0.8110 0.8110 0.8110
1792.270780 0.8110 0.8110 0.8109 0.8100 0.8100
1798.333835 0.8100 0.8100 0.8110 0.8110 0.8110
1804.396890 0.8110 0.8110 0.8110 0.8100 0.8100
1810.459945 0.8100 0.8081 0.8071 0.8061 0.8051
1816.523000 0.8050 0.8041 0.8040 0.8022 0.8020
1822.586055 0.8011 0.8010 0.8010 0.8002 0.8000
1828.649110 0.7992 0.7990 0.7990 0.7982 0.7980
1834.712165 0.7980 0.7980 0.7965 0.7960 0.7960
1840.775220 0.7960 0.7953 0.7950 0.7943 0.7940
1846.838275 0.7933 0.7909 0.7900 0.7893 0.7890
1852.901330 0.7877 0.7870 0.7870 0.7864 0.7860
1858.964385 0.7860 0.7848 0.7840 0.7840 0.7834
1865.027440 0.7824 0.7820 0.7820 0.7820 0.7814
1871.090495 0.7810 0.7805 0.7805 0.7805 0.7784
1877.153550 0.7765 0.7755 0.7745 0.7726 0.7686
1883.216605 0.7646 0.7616 0.7596 0.7590 0.7590
1889.279660 0.7590 0.7586 0.7584 0.7586 0.7572
1895.342715 0.7552 0.7536 0.7530 0.7526 0.7516
1901.405770 0.7510 0.7507 0.7500 0.7494 0.7477
1907.468825 0.7470 0.7467 0.7460 0.7457 0.7450
1913.531880 0.7445 0.7427 0.7420 0.7420 0.7418
1919.594935 0.7408 0.7400 0.7400 0.7398 0.7390
1925.657990 0.7390 0.7386 0.7368 0.7360 0.7360
1931.721045 0.7360 0.7359 0.7350 0.7350 0.7350
1937.784100 0.7349 0.7340 0.7340 0.7339 0.7330
1943.847155 0.7330 0.7330 0.7329 0.7310 0.7310
1949.910210 0.7310 0.7310 0.7300 0.7300 0.7300
1955.973265 0.7300 0.7290 0.7290 0.7290 0.7290
1962.036320 0.7290 0.7281 0.7280 0.7280 0.7280
1968.099375 0.7280 0.7271 0.7270 0.7270 0.7270
1974.162430 0.7270 0.7270 0.7253 0.7250 0.7242
1980.225485 0.7240 0.7232 0.7222 0.7220 0.7212
1986.288540 0.7194 0.7190 0.7182 0.7172 0.7170
1992.351595 0.7163 0.7153 0.7128 0.7106 0.7072
1998.414650 0.7053 0.7050 0.7043 0.7033 0.7016
2004.477705 0.6996 0.6990 0.6990 0.6983 0.6980
2010.540760 0.6973 0.6970 0.6956 0.6950 0.6943
2016.603815 0.6933 0.6930 0.6923 0.6913 0.6896
2022.666870 0.6890 0.6876 0.6870 0.6870 0.6863
2028.729925 0.6853 0.6850 0.6836 0.6823 0.6813
2034.792980 0.6796 0.6776 0.6756 0.6736 0.6730
2040.856035 0.6716 0.6710 0.6703 0.6700 0.6693
2046.919090 0.6690 0.6683 0.6673 0.6670 0.6670
2052.982145 0.6670 0.6656 0.6650 0.6643 0.6633
2059.045200 0.6630 0.6623 0.6620 0.6613 0.6596
2065.108255 0.6569 0.6553 0.6522 0.6476 0.6460
2071.171310 0.6446 0.6440 0.6433 0.6416 0.6403
2077.234365 0.6400 0.6393 0.6390 0.6390 0.6383
2083.297420 0.6380 0.6373 0.6370 0.6356 0.6343
2089.360475 0.6333 0.6330 0.6323 0.6313 0.6296
2095.423530 0.6283 0.6280 0.6266 0.6239 0.6216
2101.486585 0.6182 0.6156 0.6150 0.6143 0.6126
2107.549640 0.6120 0.6113 0.6103 0.6093 0.6083
2113.612695 0.6066 0.6060 0.6019 0.5986 0.5966
2119.675750 0.5960 0.5946 0.5933 0.5916 0.5889
2125.738805 0.5873 0.5863 0.5853 0.5843 0.5819
2131.801860 0.5796 0.5790 0.5783 0.5766 0.5753
2137.864915 0.5743 0.5726 0.5706 0.5693 0.5676
2143.927970 0.5663 0.5646 0.5633 0.5616 0.5603
2149.991025 0.5586 0.5573 0.5556 0.5543 0.5526
2156.054080 0.5513 0.5496 0.5483 0.5445 0.5395
2162.117135 0.5366 0.5360 0.5339 0.5323 0.5306
2168.180190 0.5279 0.5263 0.5260 0.5253 0.5257
2174.243245 0.5260 0.5253 0.5216 0.5186 0.5159
2180.306300 0.5136 0.5123 0.5106 0.5093 0.5076
2186.369355 0.5042 0.5016 0.5003 0.4986 0.4973
2192.432410 0.4956 0.4929 0.4906 0.4872 0.4846
2198.495465 0.4819 0.4803 0.4786 0.4759 0.4743
2204.558520 0.4740 0.4733 0.4723 0.4713 0.4710
2210.621575 0.4696 0.4690 0.4690 0.4690 0.4683
2216.684630 0.4673 0.4670 0.4663 0.4653 0.4650
2222.747685 0.4636 0.4623 0.4613 0.4610 0.4603
2228.810740 0.4593 0.4569 0.4553 0.4543 0.4540
2234.873795 0.4533 0.4516 0.4503 0.4486 0.4480
2240.936850 0.4473 0.4456 0.4450 0.4443 0.4440
2246.999905 0.4433 0.4423 0.4413 0.4396 0.4383
2253.062960 0.4380 0.4373 0.4370 0.4356 0.4336
2259.126015 0.4289 0.4242 0.4196 0.4173 0.4156
2265.189070 0.4164 0.4156 0.4150 0.4143 0.4133
2271.252125 0.4123 0.4113 0.4110 0.4096 0.4090
2277.315180 0.4083 0.4073 0.4063 0.4053 0.4036
2283.378235 0.4023 0.4013 0.4003 0.4000 0.4000
2289.441290 0.3993 0.3976 0.3970 0.3963 0.3946
2295.504345 0.3933 0.3916 0.3910 0.3903 0.3893
2301.567400 0.3883 0.3880 0.3873 0.3849 0.3833
2307.630455 0.3830 0.3830 0.3830 0.3830 0.3823
2313.693510 0.3813 0.3782 0.3735 0.3651 0.3599
2319.756565 0.3583 0.3587 0.3583 0.3580 0.3580
2325.819620 0.3566 0.3553 0.3543 0.3540 0.3540
2331.882675 0.3540 0.3533 0.3530 0.3530 0.3530
2337.945730 0.3523 0.3520 0.3520 0.3506 0.3493
2344.008785 0.3483 0.3473 0.3470 0.3477 0.3480
2350.071840 0.3480 0.3473 0.3470 0.3463 0.3460
2356.134895 0.3446 0.3440 0.3433 0.3430 0.3430
2362.197950 0.3430 0.3430 0.3430 0.3430 0.3430
2368.261005 0.3430 0.3430 0.3430 0.3430 0.3430
2374.324060 0.3423 0.3420 0.3420 0.3420 0.3420
2380.387115 0.3420 0.3420 0.3413 0.3410 0.3410
2386.450170 0.3410 0.3410 0.3403 0.3400 0.3400
2392.513225 0.3400 0.3400 0.3386 0.3380 0.3380
2398.576280 0.3380 0.3380 0.3373 0.3377 0.3380
2404.639335 0.3380 0.3394 0.3400 0.3407 0.3410
2410.702390 0.3410 0.3410 0.3410 0.3410 0.3410
2416.765445 0.3410 0.3403 0.3386 0.3380 0.3373
2422.828500 0.3363 0.3360 0.3360 0.3353 0.3350
2428.891555 0.3350 0.3343 0.3340 0.3326 0.3320
2434.954610 0.3320 0.3320 0.3320 0.3320 0.3320
2441.017665 0.3320 0.3320 0.3320 0.3313 0.3317
2447.080720 0.3320 0.3320 0.3320 0.3320 0.3320
2453.143775 0.3320 0.3334 0.3347 0.3350 0.3357
2459.206830 0.3360 0.3367 0.3391 0.3407 0.3417
2465.269885 0.3427 0.3430 0.3451 0.3460 0.3467
2471.332940 0.3470 0.3470 0.3470 0.3477 0.3480
2477.395995 0.3480 0.3480 0.3480 0.3487 0.3490
2483.459050 0.3497 0.3500 0.3500 0.3514 0.3520
2489.522105 0.3520 0.3527 0.3530 0.3530 0.3537
2495.585160 0.3547 0.3557 0.3560 0.3574 0.3587
2501.648215 0.3597 0.3600 0.3607 0.3617 0.3634
2507.711270 0.3640 0.3647 0.3657 0.3667 0.3670
2513.774325 0.3677 0.3680 0.3694 0.3700 0.3707
2519.837380 0.3717 0.3727 0.3730 0.3744 0.3750
2525.900435 0.3750 0.3757 0.3767 0.3770 0.3770
2531.963490 0.3777 0.3780 0.3780 0.3787 0.3790
2538.026545 0.3804 0.3817 0.3820 0.3834 0.3847
2544.089600 0.3850 0.3864 0.3870 0.3877 0.3887
2550.152655 0.3897 0.3907 0.3924 0.3937 0.3947
2556.215710 0.3957 0.3960 0.3960 0.3967 0.3970
2562.278765 0.3970 0.3984 0.3976 0.3970 0.3970
2568.341820 0.3970 0.3963 0.3960 0.3960 0.3960
2574.404875 0.3960 0.3960 0.3960 0.3960 0.3960
2580.467930 0.3953 0.3950 0.3950 0.3950 0.3950
2586.530985 0.3950 0.3950 0.3950 0.3950 0.3943
2592.594040 0.3940 0.3940 0.3933 0.3930 0.3930
2598.657095 0.3930 0.3916 0.3910 0.3910 0.3903
2604.720150 0.3900 0.3900 0.3900 0.3900 0.3900
2610.783205 0.3900 0.3900 0.3900 0.3921 0.3930
2616.846260 0.3930 0.3930 0.3930 0.3930 0.3930
2622.909315 0.3930 0.3930 0.3930 0.3930 0.3930
2628.972370 0.3944 0.3936 0.3930 0.3930 0.3930
2635.035425 0.3930 0.3930 0.3916 0.3910 0.3903
2641.098480 0.3886 0.3880 0.3880 0.3873 0.3856
2647.161535 0.3843 0.3833 0.3816 0.3796 0.3783
2653.224590 0.3773 0.3763 0.3760 0.3760 0.3760
2659.287645 0.3760 0.3760 0.3753 0.3750 0.3750
2665.350700 0.3750 0.3750 0.3750 0.3750 0.3750
2671.413755 0.3750 0.3750 0.3750 0.3750 0.3750
2677.476810 0.3750 0.3736 0.3730 0.3730 0.3730
2683.539865 0.3730 0.3723 0.3720 0.3720 0.3720
2689.602920 0.3713 0.3710 0.3710 0.3703 0.3707
2695.665975 0.3710 0.3710 0.3710 0.3710 0.3717
2701.729030 0.3720 0.3720 0.3720 0.3720 0.3727
2707.792085 0.3730 0.3723 0.3727 0.3730 0.3744
2713.855140 0.3750 0.3757 0.3760 0.3767 0.3770
2719.918195 0.3777 0.3780 0.3787 0.3790 0.3804
2725.981250 0.3810 0.3817 0.3820 0.3827 0.3837
2732.044305 0.3840 0.3847 0.3850 0.3864 0.3877
2738.107360 0.3880 0.3887 0.3897 0.3907 0.3910
2744.170415 0.3924 0.3937 0.3947 0.3950 0.3957
2750.233470 0.3967 0.3991 0.4007 0.4017 0.4027
2756.296525 0.4051 0.4074 0.4149 0.4221 0.4254
2762.359580 0.4281 0.4297 0.4300 0.4307 0.4310
2768.422635 0.4317 0.4327 0.4344 0.4357 0.4367
2774.485690 0.4377 0.4387 0.4404 0.4417 0.4427
2780.548745 0.4444 0.4464 0.4484 0.4497 0.4521
2786.611800 0.4537 0.4554 0.4567 0.4591 0.4607
2792.674855 0.4617 0.4641 0.4678 0.4711 0.4734
2798.737910 0.4761 0.4784 0.4804 0.4831 0.4847
2804.800965 0.4850 0.4864 0.4884 0.4890 0.4890
2810.864020 0.4897 0.4900 0.4900 0.4907 0.4903
2816.927075 0.4907 0.4917 0.4920 0.4927 0.4944
2822.990130 0.4950 0.4957 0.4960 0.4967 0.4977
2829.053185 0.4980 0.4994 0.5021 0.5051 0.5067
2835.116240 0.5077 0.5087 0.5097 0.5114 0.5127
2841.179295 0.5137 0.5154 0.5188 0.5214 0.5234
2847.242350 0.5247 0.5257 0.5267 0.5277 0.5321
2853.305405 0.5368 0.5387 0.5424 0.5447 0.5450
2859.368460 0.5450 0.5457 0.5460 0.5474 0.5480
2865.431515 0.5494 0.5507 0.5517 0.5541 0.5557
2871.494570 0.5560 0.5588 0.5621 0.5651 0.5674
2877.557625 0.5687 0.5690 0.5697 0.5714 0.5706
2883.620680 0.5714 0.5727 0.5737 0.5747 0.5750
2889.683735 0.5757 0.5760 0.5760 0.5774 0.5787
2895.746790 0.5797 0.5807 0.5810 0.5810 0.5817
2901.809845 0.5820 0.5820 0.5834 0.5840 0.5826
2907.872900 0.5820 0.5820 0.5820 0.5806 0.5793
2913.935955 0.5783 0.5759 0.5674 0.5544 0.5466
2919.999010 0.5443 0.5433 0.5437 0.5482 0.5528
2926.062065 0.5568 0.5642 0.5691 0.5714 0.5727
2932.125120 0.5730 0.5730 0.5730 0.5730 0.5730
2938.188175 0.5730 0.5730 0.5730 0.5730 0.5730
2944.251230 0.5723 0.5685 0.5642 0.5609 0.5572
2950.314285 0.5532 0.5499 0.5483 0.5466 0.5460
2956.377340 0.5460 0.5474 0.5487 0.5490 0.5497
2962.440395 0.5514 0.5541 0.5564 0.5591 0.5607
2968.503450 0.5617 0.5627 0.5637 0.5654 0.5688
2974.566505 0.5728 0.5747 0.5757 0.5774 0.5787
2980.629560 0.5790 0.5790 0.5797 0.5800 0.5800
2986.692615 0.5807 0.5810 0.5810 0.5810 0.5810
2992.755670 0.5817 0.5813 0.5810 0.5803 0.5800
2998.818725 0.5793 0.5783 0.5759 0.5729 0.5699
3004.881780 0.5656 0.5626 0.5620 0.5613 0.5624
3010.944835 0.5637 0.5640 0.5654 0.5667 0.5670
3017.007890 0.5670 0.5677 0.5680 0.5687 0.5697
3023.070945 0.5700 0.5734 0.5778 0.5811 0.5834
3029.134000 0.5840 0.5847 0.5857 0.5867 0.5905
3035.197055 0.5920 0.5927 0.5930 0.5937 0.5954
3041.260110 0.5967 0.6005 0.6034 0.6054 0.6081
3047.323165 0.6104 0.6131 0.6161 0.6191 0.6214
3053.386220 0.6241 0.6264 0.6277 0.6287 0.6304
3059.449275 0.6310 0.6324 0.6330 0.6337 0.6347
3065.512330 0.6377 0.6418 0.6444 0.6464 0.6470
3071.575385 0.6484 0.6490 0.6497 0.6507 0.6517
3077.638440 0.6527 0.6544 0.6557 0.6560 0.6567
3083.701495 0.6598 0.6610 0.6624 0.6637 0.6647
3089.764550 0.6650 0.6664 0.6670 0.6684 0.6704
3095.827605 0.6724 0.6737 0.6754 0.6767 0.6784
3101.890660 0.6797 0.6814 0.6827 0.6844 0.6850
3107.953715 0.6850 0.6857 0.6860 0.6860 0.6867
3114.016770 0.6877 0.6887 0.6904 0.6917 0.6927
3120.079825 0.6937 0.6947 0.6964 0.6977 0.6987
3126.142880 0.6997 0.7007 0.7024 0.7037 0.7047
3132.205935 0.7057 0.7067 0.7070 0.7070 0.7070
3138.268990 0.7084 0.7090 0.7090 0.7090 0.7097
3144.332045 0.7100 0.7100 0.7100 0.7100 0.7100
3150.395100 0.7100 0.7100 0.7100 0.7100 0.7100
3156.458155 0.7100 0.7100 0.7100 0.7100 0.7100
3162.521210 0.7100 0.7100 0.7100 0.7100 0.7100
3168.584265 0.7100 0.7093 0.7076 0.7070 0.7063
3174.647320 0.7060 0.7060 0.7053 0.7050 0.7043
3180.710375 0.7033 0.7030 0.7016 0.7010 0.7003
3186.773430 0.7000 0.6993 0.6990 0.6983 0.6980
3192.836485 0.6973 0.6970 0.6970 0.6970 0.6956
3198.899540 0.6943 0.6933 0.6923 0.6920 0.6913
3204.962595 0.6896 0.6890 0.6883 0.6866 0.6860
3211.025650 0.6853 0.6836 0.6816 0.6782 0.6770
3217.088705 0.6763 0.6753 0.6743 0.6733 0.6716
3223.151760 0.6703 0.6679 0.6670 0.6656 0.6643
3229.214815 0.6626 0.6599 0.6576 0.6556 0.6529
3235.277870 0.6499 0.6476 0.6463 0.6453 0.6443
3241.340925 0.6440 0.6433 0.6409 0.6386 0.6380
3247.403980 0.6373 0.6349 0.6340 0.6326 0.6313
3253.467035 0.6310 0.6296 0.6283 0.6280 0.6273
3259.530090 0.6270 0.6263 0.6260 0.6253 0.6236
3265.593145 0.6216 0.6189 0.6166 0.6153 0.6150
3271.656200 0.6143 0.6126 0.6113 0.6110 0.6103
3277.719255 0.6100 0.6066 0.6029 0.6006 0.5986
3283.782310 0.5966 0.5946 0.5940 0.5933 0.5930
3289.845365 0.5923 0.5920 0.5913 0.5910 0.5910
3295.908420 0.5903 0.5886 0.5873 0.5856 0.5843
3301.971475 0.5840 0.5840 0.5826 0.5820 0.5820
3308.034530 0.5813 0.5810 0.5803 0.5793 0.5790
3314.097585 0.5790 0.5769 0.5753 0.5736 0.5723
3320.160640 0.5706 0.5693 0.5683 0.5687 0.5676
3326.223695 0.5649 0.5633 0.5596 0.5573 0.5570
3332.286750 0.5563 0.5553 0.5543 0.5526 0.5513
3338.349805 0.5489 0.5411 0.5346 0.5296 0.5259
3344.412860 0.5243 0.5226 0.5206 0.5193 0.5183
3350.475915 0.5159 0.5116 0.5072 0.4991 0.4898
3356.538970 0.4822 0.4765 0.4722 0.4682 0.4663
3362.602025 0.4639 0.4609 0.4566 0.4516 0.4411
3368.665080 0.4281 0.4171 0.4078 0.4015 0.3993
3374.728135 0.3976 0.3922 0.3838 0.3748 0.3679
3380.791190 0.3626 0.3596 0.3548 0.3509 0.3493
3386.854245 0.3483 0.3404 0.3349 0.3306 0.3269
3392.917300 0.3239 0.3209 0.3152 0.3095 0.3052
3398.980355 0.3019 0.2996 0.2969 0.2953 0.2929
3405.043410 0.2920 0.2906 0.2893 0.2890 0.2883
3411.106465 0.2880 0.2880 0.2887 0.2890 0.2897
3417.169520 0.2921 0.2944 0.2985 0.3028 0.3088
3423.232575 0.3145 0.3160 0.3167 0.3177 0.3187
3429.295630 0.3197 0.3235 0.3278 0.3304 0.3331
3435.358685 0.3347 0.3357 0.3374 0.3414 0.3464
3441.421740 0.3494 0.3500 0.3514 0.3548 0.3601
3447.484795 0.3655 0.3698 0.3717 0.3748 0.3774
3453.547850 0.3780 0.3787 0.3811 0.3841 0.3878
3459.610905 0.3904 0.3924 0.3937 0.3947 0.3957
3465.673960 0.3967 0.3998 0.4024 0.4051 0.4081
3471.737015 0.4124 0.4168 0.4214 0.4278 0.4307
3477.800070 0.4324 0.4344 0.4364 0.4411 0.4465
3483.863125 0.4501 0.4524 0.4530 0.4544 0.4577
3489.926180 0.4611 0.4682 0.4738 0.4791 0.4845
3495.989235 0.4888 0.4907 0.4938 0.4957 0.4967
3502.052290 0.4977 0.5021 0.5068 0.5108 0.5120
3508.115345 0.5127 0.5144 0.5184 0.5255 0.5301
3514.178400 0.5344 0.5374 0.5408 0.5434 0.5468
3520.241455 0.5480 0.5494 0.5507 0.5531 0.5567
3526.304510 0.5601 0.5624 0.5658 0.5691 0.5721
3532.367565 0.5744 0.5771 0.5794 0.5800 0.5807
3538.430620 0.5817 0.5855 0.5939 0.6005 0.6027
3544.493675 0.6030 0.6037 0.6047 0.6071 0.6080
3550.556730 0.6107 0.6148 0.6195 0.6224 0.6230
3556.619785 0.6244 0.6264 0.6298 0.6310 0.6358
3562.682840 0.6428 0.6498 0.6541 0.6557 0.6567
3568.745895 0.6577 0.6587 0.6611 0.6654 0.6677
3574.808950 0.6694 0.6721 0.6751 0.6760 0.6781
3580.872005 0.6804 0.6824 0.6851 0.6874 0.6942
3586.935060 0.6977 0.7021 0.7075 0.7104 0.7124
3592.998115 0.7151 0.7174 0.7201 0.7217 0.7234
3599.061170 0.7267 0.7287 0.7290 0.7297 0.7300
3605.124225 0.7328 0.7374 0.7411 0.7454 0.7497
3611.187280 0.7531 0.7540 0.7568 0.7615 0.7671
3617.250335 0.7697 0.7734 0.7757 0.7774 0.7794
3623.313390 0.7807 0.7817 0.7827 0.7837 0.7854
3629.376445 0.7867 0.7891 0.7921 0.7978 0.8000
3635.439500 0.8007 0.8010 0.8017 0.8034 0.8054
3641.502555 0.8095 0.8124 0.8130 0.8137 0.8154
3647.565610 0.8167 0.8177 0.8180 0.8180 0.8187
3653.628665 0.8197 0.8200 0.8200 0.8214 0.8220
3659.691720 0.8220 0.8220 0.8220 0.8227 0.8237
3665.754775 0.8240 0.8247 0.8257 0.8260 0.8274
3671.817830 0.8280 0.8280 0.8280 0.8280 0.8280
3677.880885 0.8280 0.8280 0.8280 0.8280 0.8280
3683.943940 0.8280 0.8280 0.8287 0.8297 0.8307
3690.006995 0.8331 0.8354 0.8367 0.8370 0.8377
3696.070050 0.8394 0.8407 0.8410 0.8417 0.8420
3702.133105 0.8427 0.8430 0.8437 0.8440 0.8454
3708.196160 0.8460 0.8467 0.8470 0.8477 0.8480
3714.259215 0.8487 0.8490 0.8497 0.8500 0.8500
3720.322270 0.8514 0.8520 0.8520 0.8520 0.8520
3726.385325 0.8520 0.8520 0.8520 0.8520 0.8520
3732.448380 0.8520 0.8520 0.8520 0.8520 0.8520
3738.511435 0.8520 0.8520 0.8527 0.8530 0.8530
3744.574490 0.8530 0.8530 0.8530 0.8537 0.8540
3750.637545 0.8540 0.8540 0.8540 0.8540 0.8547
3756.700600 0.8550 0.8550 0.8550 0.8550 0.8550
3762.763655 0.8550 0.8550 0.8550 0.8550 0.8550
3768.826710 0.8550 0.8550 0.8550 0.8550 0.8550
3774.889765 0.8550 0.8550 0.8550 0.8557 0.8560
3780.952820 0.8560 0.8560 0.8560 0.8574 0.8587
3787.015875 0.8590 0.8590 0.8590 0.8590 0.8590
3793.078930 0.8590 0.8590 0.8590 0.8590 0.8590
3799.141985 0.8590 0.8590 0.8590 0.8597 0.8600
3805.205040 0.8600 0.8600 0.8600 0.8600 0.8600
3811.268095 0.8600 0.8593 0.8590 0.8590 0.8590
3817.331150 0.8597 0.8600 0.8600 0.8600 0.8600
3823.394205 0.8600 0.8600 0.8600
##END=
