##TITLE=1,3,4,5-TETRAHYDROXYCYCLOHEXANECARBOXYLIC ACID, Gamma-LACTONE
##JCAMP-DX=4.24
##DATA TYPE=INFRARED SPECTRUM
##CLASS=COBLENTZ III
##ORIGIN=WESTERN REGIONAL RES. USDA
##OWNER=COBLENTZ SOCIETY
Collection (C) 2018 copyright by the U.S. Secretary of Commerce
on behalf of the United States of America. All rights reserved.
##DATE=1967/03/30
##NAMES=1,3,4-trihydroxy-6-oxabicyclo[3.2.1]octan-7-one
##CAS REGISTRY NO=640-06-2
##MOLFORM=C7 H10 O5
##SOURCE REFERENCE=COBLENTZ NO. 6983
##$NIST SOURCE=COBLENTZ
##$NIST IMAGE=cob6983
##SPECTROMETER/DATA SYSTEM=CARY 90 (GRATING)
##INSTRUMENT PARAMETERS=GRATING CHANGES AT 3000, 2000, 1200 CM^-^1
##STATE=SOLID (OIL MULL)
##PATH LENGTH=
$$SPECTRAL CONTAMINATION DUE TO OIL AROUND 2900, 1450, 1350 CM^-^1
##SAMPLING PROCEDURE=TRANSMISSION
##RESOLUTION=4
##DATA PROCESSING=DIGITIZED BY NIST FROM HARD COPY (FROM TWO SEGMENTS)
##XUNITS=1/CM
##YUNITS=TRANSMITTANCE
##XFACTOR=1.000000
##YFACTOR=1
##DELTAX=0.928218
##FIRSTX=468.441
##LASTX=3998.45
##FIRSTY=0.649
##MAXX=3998.45
##MINX=468.441
##MAXY=0.931
##MINY=0.013
##NPOINTS=3804
##XYDATA=(X++(Y..Y))
468.441000 0.6490 0.6490 0.6480 0.6480 0.6470
473.082088 0.6470 0.6460 0.6450 0.6450 0.6430
477.723176 0.6430 0.6420 0.6410 0.6410 0.6400
482.364264 0.6400 0.6390 0.6390 0.6380 0.6360
487.005352 0.6360 0.6350 0.6350 0.6340 0.6340
491.646439 0.6330 0.6320 0.6320 0.6310 0.6310
496.287527 0.6290 0.6290 0.6280 0.6260 0.6250
500.928615 0.6250 0.6240 0.6220 0.6220 0.6210
505.569703 0.6210 0.6200 0.6190 0.6190 0.6180
510.210791 0.6160 0.6160 0.6140 0.6130 0.6130
514.851879 0.6120 0.6110 0.6110 0.6100 0.6090
519.492967 0.6060 0.6050 0.6040 0.6030 0.5990
524.134055 0.5980 0.5960 0.5930 0.5910 0.5900
528.775142 0.5810 0.5621 0.5550 0.5490 0.5440
533.416230 0.5130 0.4790 0.4400 0.4031 0.3651
538.057318 0.3281 0.3280 0.3439 0.3679 0.4685
542.698406 0.5080 0.5170 0.5260 0.5340 0.5510
547.339494 0.5590 0.5670 0.5740 0.5810 0.5880
551.980582 0.5930 0.5990 0.6060 0.6120 0.6170
556.621670 0.6200 0.6280 0.6320 0.6380 0.6380
561.262758 0.6380 0.6330 0.6270 0.6160 0.6000
565.903845 0.5950 0.5930 0.5970 0.6070 0.6219
570.544933 0.6390 0.6480 0.6550 0.6610 0.6640
575.186021 0.6680 0.6710 0.6720 0.6740 0.6750
579.827109 0.6760 0.6770 0.6770 0.6780 0.6790
584.468197 0.6790 0.6800 0.6800 0.6820 0.6840
589.109285 0.6850 0.6870 0.6890 0.6900 0.6900
593.750373 0.6910 0.6920 0.6920 0.6920 0.6930
598.391461 0.6930 0.6930 0.6930 0.6920 0.6920
603.032548 0.6920 0.6900 0.6890 0.6890 0.6870
607.673636 0.6840 0.6800 0.6720 0.6610 0.6490
612.314724 0.6191 0.6070 0.6040 0.6020 0.6040
616.955812 0.6120 0.6220 0.6360 0.6500 0.6560
621.596900 0.6640 0.6700 0.6750 0.6790 0.6820
626.237988 0.6850 0.6870 0.6890 0.6900 0.6910
630.879076 0.6920 0.6920 0.6920 0.6930 0.6930
635.520164 0.6940 0.6960 0.6980 0.6980 0.6990
640.161252 0.6990 0.6990 0.6980 0.6980 0.6980
644.802339 0.6970 0.6940 0.6930 0.6920 0.6900
649.443427 0.6870 0.6860 0.6840 0.6830 0.6800
654.084515 0.6780 0.6740 0.6700 0.6690 0.6690
658.725603 0.6650 0.6630 0.6600 0.6570 0.6540
663.366691 0.6510 0.6480 0.6460 0.6420 0.6400
668.007779 0.6400 0.6260 0.6130 0.6020 0.5891
672.648867 0.5740 0.5560 0.5450 0.5330 0.5030
677.289955 0.4860 0.4830 0.4870 0.4940 0.5109
681.931042 0.5230 0.5300 0.5340 0.5370 0.5390
686.572130 0.5400 0.5420 0.5420 0.5440 0.5420
691.213218 0.5410 0.5380 0.5350 0.5330 0.5320
695.854306 0.5320 0.5330 0.5350 0.5380 0.5400
700.495394 0.5420 0.5450 0.5510 0.5530 0.5560
705.136482 0.5610 0.5640 0.5680 0.5710 0.5750
709.777570 0.5780 0.5820 0.5840 0.5870 0.5880
714.418658 0.5880 0.5890 0.5910 0.5910 0.5930
719.059745 0.5960 0.5980 0.6000 0.6040 0.6070
723.700833 0.6100 0.6120 0.6130 0.6170 0.6180
728.341921 0.6190 0.6190 0.6200 0.6200 0.6190
732.983009 0.6190 0.6021 0.5691 0.5471 0.5251
737.624097 0.4980 0.4640 0.4300 0.3961 0.3960
742.265185 0.4249 0.4539 0.4829 0.5119 0.5180
746.906273 0.5710 0.5960 0.6220 0.6360 0.6390
751.547361 0.6570 0.6600 0.6789 0.6969 0.7050
756.188448 0.7130 0.7200 0.7250 0.7260 0.7270
760.829536 0.7270 0.7270 0.7260 0.7200 0.7130
765.470624 0.7060 0.6930 0.6670 0.6191 0.5771
770.111712 0.5770 0.5810 0.5979 0.6179 0.6598
774.752800 0.6900 0.7130 0.7290 0.7420 0.7510
779.393888 0.7610 0.7670 0.7710 0.7740 0.7770
784.034976 0.7770 0.7780 0.7790 0.7790 0.7800
788.676064 0.7800 0.7810 0.7810 0.7830 0.7840
793.317152 0.7860 0.7870 0.7870 0.7870 0.7880
797.958239 0.7900 0.7900 0.7910 0.7920 0.7920
802.599327 0.7930 0.7930 0.7940 0.7940 0.7950
807.240415 0.7950 0.7960 0.7960 0.7980 0.7960
811.881503 0.7980 0.7980 0.7980 0.7980 0.7980
816.522591 0.7950 0.7930 0.7920 0.7900 0.7860
821.163679 0.7810 0.7740 0.7710 0.7740 0.7850
825.804767 0.7900 0.7930 0.7950 0.7960 0.8000
830.445855 0.8010 0.8020 0.8020 0.8030 0.8030
835.086942 0.8050 0.8050 0.8050 0.8060 0.8060
839.728030 0.8060 0.8060 0.8060 0.8060 0.8060
844.369118 0.8060 0.8070 0.8070 0.8080 0.8090
849.010206 0.8100 0.8100 0.8100 0.8120 0.8120
853.651294 0.8130 0.8130 0.8130 0.8140 0.8140
858.292382 0.8140 0.8150 0.8150 0.8150 0.8160
862.933470 0.8160 0.8160 0.8160 0.8160 0.8150
867.574558 0.8150 0.8150 0.8140 0.8140 0.8130
872.215645 0.8130 0.8100 0.8090 0.8060 0.8020
876.856733 0.7960 0.7900 0.7810 0.7720 0.7620
881.497821 0.7490 0.7320 0.6981 0.6641 0.6222
886.138909 0.5710 0.5470 0.5220 0.5519 0.5600
890.779997 0.6338 0.6798 0.7119 0.7289 0.7399
895.421085 0.7440 0.7490 0.7560 0.7630 0.7670
900.062173 0.7710 0.7740 0.7760 0.7770 0.7780
904.703261 0.7780 0.7780 0.7780 0.7770 0.7770
909.344348 0.7740 0.7710 0.7690 0.7640 0.7610
913.985436 0.7580 0.7550 0.7540 0.7500 0.7450
918.626524 0.7380 0.7270 0.7111 0.6901 0.6611
923.267612 0.6239 0.5400 0.4570 0.3901 0.3251
927.908700 0.2612 0.2610 0.3248 0.3897 0.5721
932.549788 0.6690 0.7000 0.7200 0.7360 0.7450
937.190876 0.7520 0.7560 0.7580 0.7590 0.7580
941.831964 0.7560 0.7550 0.7510 0.7480 0.7480
946.473052 0.7440 0.7211 0.6842 0.6482 0.6132
951.114139 0.5800 0.5800 0.6190 0.6509 0.6650
955.755227 0.6760 0.6929 0.7249 0.7260 0.7230
960.396315 0.7210 0.7190 0.7050 0.6980 0.6830
965.037403 0.6641 0.6500 0.6351 0.6111 0.5712
969.678491 0.5390 0.5060 0.4500 0.4170 0.3791
974.319579 0.3391 0.3051 0.2632 0.2630 0.3516
978.960667 0.4450 0.4520 0.6039 0.6410 0.6650
983.601755 0.6869 0.7000 0.7199 0.7320 0.7400
988.242842 0.7450 0.7500 0.7540 0.7560 0.7590
992.883930 0.7620 0.7650 0.7660 0.7670 0.7660
997.525018 0.7640 0.7610 0.7560 0.7510 0.7450
1002.166106 0.7410 0.7360 0.7320 0.7230 0.7131
1006.807194 0.7000 0.6870 0.6530 0.6211 0.5731
1011.448282 0.5102 0.4462 0.4181 0.3901 0.3631
1016.089370 0.3360 0.3360 0.3730 0.4079 0.4399
1020.730458 0.4400 0.4400 0.4380 0.4091 0.3732
1025.371545 0.3370 0.3060 0.2760 0.2510 0.2300
1030.012633 0.2140 0.2040 0.1990 0.1940 0.1930
1034.653721 0.1930 0.1940 0.2090 0.2210 0.2899
1039.294809 0.3828 0.4478 0.4829 0.5169 0.5180
1043.935897 0.5180 0.5120 0.4731 0.4401 0.3772
1048.576985 0.2933 0.2133 0.1821 0.1502 0.1192
1053.218073 0.1040 0.0880 0.1130 0.1459 0.1759
1057.859161 0.2059 0.2339 0.2738 0.3427 0.3897
1062.500248 0.4390 0.4650 0.5040 0.5290 0.5679
1067.141336 0.5690 0.5690 0.5680 0.5521 0.5341
1071.782424 0.5150 0.4810 0.4430 0.3921 0.3361
1076.423512 0.2791 0.2302 0.1931 0.1601 0.1292
1081.064600 0.1280 0.1290 0.1620 0.2079 0.2639
1085.705688 0.3229 0.3998 0.4648 0.5686 0.6108
1090.346776 0.6450 0.6700 0.6920 0.7090 0.7230
1094.987864 0.7340 0.7430 0.7490 0.7550 0.7580
1099.628952 0.7610 0.7630 0.7650 0.7690 0.7720
1104.270039 0.7720 0.7730 0.7730 0.7720 0.7710
1108.911127 0.7670 0.7630 0.7580 0.7520 0.7480
1113.552215 0.7430 0.7380 0.7340 0.7260 0.7161
1118.193303 0.7140 0.6990 0.6900 0.6750 0.6530
1122.834391 0.6251 0.5951 0.5601 0.5411 0.5231
1127.475479 0.4840 0.4460 0.4080 0.3701 0.3341
1132.116567 0.3011 0.2651 0.2291 0.1932 0.1612
1136.757655 0.1330 0.1110 0.1100 0.1110 0.1429
1141.398742 0.1919 0.2379 0.2928 0.3667 0.4168
1146.039830 0.4640 0.5529 0.5870 0.6139 0.6359
1150.680918 0.6539 0.6670 0.6770 0.6850 0.6900
1155.322006 0.6940 0.6970 0.7120 0.7180 0.7180
1159.963094 0.7140 0.7090 0.6980 0.6900 0.6701
1164.604182 0.6510 0.6390 0.6040 0.5631 0.5480
1169.245270 0.5330 0.5021 0.4552 0.4550 0.4789
1173.886358 0.5030 0.5240 0.5760 0.6040 0.6100
1178.527445 0.6319 0.6330 0.6310 0.6280 0.6041
1183.168533 0.5510 0.5410 0.5320 0.5100 0.4880
1187.809621 0.4810 0.4650 0.4650 0.5526 0.5958
1192.450709 0.6320 0.6600 0.6800 0.6940 0.7000
1197.091797 0.7000 0.7060 0.7070 0.7060 0.7040
1201.732885 0.6990 0.6930 0.6860 0.6780 0.6690
1206.373973 0.6580 0.6470 0.6331 0.6191 0.6031
1211.015061 0.5970 0.5810 0.5800 0.5810 0.5970
1215.656148 0.6040 0.6140 0.6289 0.6449 0.6599
1220.297236 0.6740 0.6850 0.6960 0.7040 0.7120
1224.938324 0.7190 0.7250 0.7290 0.7330 0.7370
1229.579412 0.7400 0.7420 0.7450 0.7470 0.7520
1234.220500 0.7540 0.7540 0.7540 0.7520 0.7490
1238.861588 0.7440 0.7420 0.7380 0.7360 0.7340
1243.502676 0.7300 0.7210 0.7140 0.7070 0.7010
1248.143764 0.6940 0.6470 0.6190 0.6000 0.5781
1252.784852 0.5601 0.5411 0.4932 0.4741 0.4382
1257.425939 0.4020 0.4020 0.4699 0.4720 0.4690
1262.067027 0.4690 0.4471 0.4241 0.4031 0.3771
1266.708115 0.3570 0.3390 0.3000 0.2980 0.3000
1271.349203 0.3269 0.3539 0.3789 0.4457 0.5673
1275.990291 0.5850 0.6030 0.6290 0.6450 0.6510
1280.631379 0.6540 0.6580 0.6570 0.6600 0.6610
1285.272467 0.6620 0.6610 0.6540 0.6430 0.6320
1289.913555 0.6190 0.6040 0.5881 0.5711 0.5541
1294.554642 0.5450 0.5350 0.5180 0.5000 0.4820
1299.195730 0.4640 0.4161 0.4120 0.4160 0.4279
1303.836818 0.4380 0.4480 0.4590 0.4690 0.5179
1308.477906 0.5190 0.5180 0.5041 0.4950 0.4622
1313.118994 0.4300 0.4000 0.3720 0.3460 0.3241
1317.760082 0.3051 0.2990 0.2701 0.2690 0.2700
1322.401170 0.2760 0.3140 0.3410 0.3700 0.4009
1327.042258 0.4319 0.4639 0.4929 0.5199 0.5598
1331.683345 0.5760 0.5770 0.5770 0.5740 0.5520
1336.324433 0.5390 0.5250 0.4961 0.4691 0.4471
1340.965521 0.4310 0.4250 0.4080 0.4070 0.4080
1345.606609 0.4090 0.4210 0.4409 0.4679 0.4959
1350.247697 0.5220 0.5560 0.5580 0.5800 0.5810
1354.888785 0.5810 0.5780 0.5621 0.5560 0.5451
1359.529873 0.5330 0.4890 0.4650 0.4301 0.4290
1364.170961 0.4300 0.4649 0.4889 0.5089 0.5309
1368.812048 0.5330 0.5330 0.5300 0.5090 0.5030
1373.453136 0.4841 0.4830 0.4860 0.4999 0.5199
1378.094224 0.5390 0.5440 0.5550 0.5660 0.5760
1382.735312 0.5850 0.5960 0.6060 0.6120 0.6269
1387.376400 0.6410 0.6500 0.6690 0.6840 0.6970
1392.017488 0.7070 0.7180 0.7250 0.7320 0.7370
1396.658576 0.7410 0.7440 0.7480 0.7510 0.7540
1401.299664 0.7560 0.7580 0.7590 0.7620 0.7620
1405.940752 0.7660 0.7670 0.7670 0.7670 0.7660
1410.581839 0.7650 0.7630 0.7630 0.7610 0.7580
1415.222927 0.7570 0.7550 0.7490 0.7440 0.7400
1419.864015 0.7350 0.7320 0.7280 0.7250 0.7200
1424.505103 0.7160 0.7120 0.7070 0.7010 0.6940
1429.146191 0.6870 0.6780 0.6680 0.6561 0.6431
1433.787279 0.6280 0.6110 0.5920 0.5700 0.5590
1438.428367 0.5460 0.5191 0.4543 0.4251 0.4190
1443.069455 0.4180 0.4190 0.4210 0.4350 0.4450
1447.710542 0.4480 0.4500 0.4510 0.4500 0.4331
1452.351630 0.4240 0.4160 0.4100 0.4060 0.4010
1456.992718 0.3960 0.3880 0.3790 0.3651 0.3531
1461.633806 0.3510 0.3500 0.3510 0.3640 0.3770
1466.274894 0.3870 0.4179 0.4499 0.4908 0.5586
1470.915982 0.5880 0.6120 0.6330 0.6530 0.6710
1475.557070 0.6870 0.6990 0.7070 0.7219 0.7339
1480.198158 0.7410 0.7480 0.7520 0.7560 0.7620
1484.839245 0.7670 0.7740 0.7800 0.7850 0.7900
1489.480333 0.7940 0.7980 0.8010 0.8050 0.8080
1494.121421 0.8100 0.8130 0.8150 0.8170 0.8200
1498.762509 0.8210 0.8230 0.8240 0.8250 0.8270
1503.403597 0.8280 0.8290 0.8300 0.8310 0.8320
1508.044685 0.8340 0.8350 0.8360 0.8380 0.8390
1512.685773 0.8410 0.8420 0.8430 0.8430 0.8440
1517.326861 0.8450 0.8450 0.8460 0.8480 0.8480
1521.967948 0.8480 0.8490 0.8490 0.8500 0.8510
1526.609036 0.8520 0.8530 0.8540 0.8560 0.8570
1531.250124 0.8580 0.8590 0.8600 0.8610 0.8610
1535.891212 0.8600 0.8590 0.8580 0.8540 0.8510
1540.532300 0.8490 0.8460 0.8460 0.8450 0.8450
1545.173388 0.8460 0.8490 0.8510 0.8530 0.8560
1549.814476 0.8580 0.8610 0.8650 0.8680 0.8720
1554.455564 0.8740 0.8750 0.8750 0.8750 0.8770
1559.096652 0.8780 0.8780 0.8780 0.8790 0.8790
1563.737739 0.8800 0.8800 0.8820 0.8860 0.8880
1568.378827 0.8890 0.8890 0.8890 0.8880 0.8850
1573.019915 0.8850 0.8820 0.8810 0.8800 0.8800
1577.661003 0.8790 0.8790 0.8790 0.8790 0.8780
1582.302091 0.8780 0.8790 0.8790 0.8800 0.8800
1586.943179 0.8800 0.8810 0.8820 0.8830 0.8830
1591.584267 0.8830 0.8830 0.8830 0.8850 0.8850
1596.225355 0.8850 0.8850 0.8860 0.8860 0.8860
1600.866442 0.8870 0.8870 0.8870 0.8880 0.8890
1605.507530 0.8890 0.8900 0.8900 0.8900 0.8920
1610.148618 0.8900 0.8890 0.8890 0.8890 0.8890
1614.789706 0.8890 0.8890 0.8890 0.8900 0.8900
1619.430794 0.8930 0.8930 0.8920 0.8900 0.8900
1624.071882 0.8890 0.8890 0.8880 0.8880 0.8870
1628.712970 0.8870 0.8870 0.8870 0.8880 0.8880
1633.354058 0.8880 0.8880 0.8880 0.8870 0.8880
1637.995145 0.8870 0.8870 0.8860 0.8850 0.8830
1642.636233 0.8820 0.8810 0.8820 0.8890 0.8890
1647.277321 0.8900 0.8900 0.8890 0.8870 0.8850
1651.918409 0.8830 0.8850 0.8850 0.8860 0.8870
1656.559497 0.8880 0.8900 0.8920 0.8940 0.8950
1661.200585 0.8950 0.8940 0.8940 0.8930 0.8920
1665.841673 0.8890 0.8890 0.8880 0.8870 0.8850
1670.482761 0.8830 0.8820 0.8820 0.8820 0.8820
1675.123848 0.8830 0.8850 0.8860 0.8860 0.8860
1679.764936 0.8850 0.8830 0.8820 0.8810 0.8800
1684.406024 0.8800 0.8800 0.8810 0.8830 0.8850
1689.047112 0.8850 0.8850 0.8860 0.8860 0.8860
1693.688200 0.8860 0.8860 0.8860 0.8850 0.8850
1698.329288 0.8830 0.8810 0.8800 0.8800 0.8800
1702.970376 0.8790 0.8790 0.8780 0.8780 0.8770
1707.611464 0.8770 0.8750 0.8750 0.8750 0.8750
1712.252552 0.8750 0.8740 0.8740 0.8730 0.8730
1716.893639 0.8720 0.8710 0.8710 0.8700 0.8680
1721.534727 0.8680 0.8680 0.8660 0.8650 0.8640
1726.175815 0.8640 0.8630 0.8630 0.8610 0.8610
1730.816903 0.8600 0.8600 0.8590 0.8580 0.8540
1735.457991 0.8520 0.8500 0.8490 0.8480 0.8460
1740.099079 0.8440 0.8410 0.8360 0.8290 0.8190
1744.740167 0.8130 0.8050 0.7911 0.7781 0.7651
1749.381255 0.7650 0.7730 0.7830 0.7900 0.7910
1754.022342 0.7910 0.7900 0.7880 0.7810 0.7760
1758.663430 0.7710 0.7660 0.7640 0.7620 0.7590
1763.304518 0.7570 0.7540 0.7490 0.7490 0.7430
1767.945606 0.7340 0.7220 0.7110 0.7000 0.6920
1772.586694 0.6890 0.6701 0.6501 0.6311 0.6101
1777.227782 0.5890 0.5660 0.5480 0.5300 0.4751
1781.868870 0.4391 0.3902 0.3343 0.2743 0.2143
1786.509958 0.1580 0.1100 0.0900 0.0700 0.0461
1791.151045 0.0380 0.0320 0.0250 0.0200 0.0170
1795.792133 0.0160 0.0160 0.0170 0.0250 0.1088
1800.433221 0.1628 0.2138 0.2518 0.2699 0.3028
1805.074309 0.3440 0.3800 0.4160 0.4519 0.4859
1809.715397 0.5169 0.5728 0.5929 0.6099 0.6319
1814.356485 0.6490 0.6650 0.6790 0.6910 0.7000
1818.997573 0.7080 0.7160 0.7220 0.7280 0.7340
1823.638661 0.7400 0.7450 0.7520 0.7610 0.7690
1828.279748 0.7790 0.7910 0.8049 0.8120 0.8160
1832.920836 0.8230 0.8340 0.8430 0.8500 0.8560
1837.561924 0.8610 0.8650 0.8700 0.8720 0.8740
1842.203012 0.8770 0.8780 0.8790 0.8820 0.8850
1846.844100 0.8870 0.8880 0.8900 0.8920 0.8920
1851.485188 0.8930 0.8940 0.8960 0.8990 0.9010
1856.126276 0.9020 0.9020 0.9030 0.9030 0.9040
1860.767364 0.9040 0.9060 0.9060 0.9060 0.9040
1865.408452 0.9040 0.9030 0.9030 0.9030 0.9030
1870.049539 0.9030 0.9030 0.9030 0.9030 0.9040
1874.690627 0.9040 0.9040 0.9040 0.9040 0.9060
1879.331715 0.9060 0.9060 0.9060 0.9060 0.9070
1883.972803 0.9070 0.9070 0.9070 0.9070 0.9080
1888.613891 0.9080 0.9080 0.9090 0.9090 0.9090
1893.254979 0.9090 0.9100 0.9100 0.9100 0.9110
1897.896067 0.9110 0.9110 0.9110 0.9110 0.9120
1902.537155 0.9120 0.9120 0.9120 0.9120 0.9140
1907.178242 0.9140 0.9140 0.9140 0.9140 0.9150
1911.819330 0.9150 0.9150 0.9150 0.9150 0.9150
1916.460418 0.9150 0.9150 0.9150 0.9150 0.9150
1921.101506 0.9150 0.9150 0.9150 0.9150 0.9150
1925.742594 0.9150 0.9150 0.9150 0.9150 0.9160
1930.383682 0.9160 0.9160 0.9170 0.9170 0.9170
1935.024770 0.9180 0.9180 0.9180 0.9190 0.9190
1939.665858 0.9190 0.9210 0.9220 0.9230 0.9230
1944.306945 0.9240 0.9240 0.9250 0.9250 0.9250
1948.948033 0.9250 0.9260 0.9260 0.9260 0.9250
1953.589121 0.9250 0.9250 0.9240 0.9240 0.9240
1958.230209 0.9230 0.9230 0.9220 0.9220 0.9220
1962.871297 0.9220 0.9220 0.9220 0.9220 0.9220
1967.512385 0.9220 0.9220 0.9230 0.9230 0.9230
1972.153473 0.9230 0.9240 0.9240 0.9240 0.9250
1976.794561 0.9250 0.9240 0.9240 0.9240 0.9230
1981.435648 0.9230 0.9220 0.9220 0.9210 0.9190
1986.076736 0.9180 0.9180 0.9180 0.9180 0.9180
1990.717824 0.9190 0.9210 0.9210 0.9220 0.9220
1995.358912 0.9230 0.9230 0.9240 0.9240 0.9260
2000.000000 0.9280 0.9285 0.9290 0.9295 0.9300
2004.641088 0.9300 0.9300 0.9305 0.9310 0.9310
2009.282176 0.9310 0.9310 0.9310 0.9310 0.9310
2013.923264 0.9310 0.9310 0.9305 0.9300 0.9300
2018.564352 0.9300 0.9300 0.9300 0.9295 0.9290
2023.205439 0.9285 0.9280 0.9280 0.9280 0.9270
2027.846527 0.9260 0.9255 0.9250 0.9245 0.9240
2032.487615 0.9235 0.9230 0.9235 0.9240 0.9245
2037.128703 0.9250 0.9255 0.9260 0.9270 0.9280
2041.769791 0.9280 0.9280 0.9285 0.9290 0.9290
2046.410879 0.9290 0.9290 0.9290 0.9290 0.9290
2051.051967 0.9290 0.9290 0.9285 0.9280 0.9280
2055.693055 0.9280 0.9270 0.9260 0.9255 0.9250
2060.334142 0.9245 0.9240 0.9240 0.9240 0.9235
2064.975230 0.9230 0.9225 0.9220 0.9220 0.9220
2069.616318 0.9215 0.9210 0.9200 0.9190 0.9190
2074.257406 0.9190 0.9190 0.9190 0.9190 0.9190
2078.898494 0.9185 0.9180 0.9175 0.9170 0.9165
2083.539582 0.9160 0.9160 0.9160 0.9155 0.9150
2088.180670 0.9145 0.9140 0.9140 0.9140 0.9130
2092.821758 0.9120 0.9115 0.9110 0.9110 0.9110
2097.462845 0.9110 0.9110 0.9105 0.9100 0.9100
2102.103933 0.9100 0.9095 0.9090 0.9095 0.9100
2106.745021 0.9100 0.9100 0.9090 0.9080 0.9080
2111.386109 0.9080 0.9080 0.9080 0.9075 0.9070
2116.027197 0.9070 0.9070 0.9065 0.9060 0.9050
2120.668285 0.9040 0.9035 0.9030 0.9025 0.9020
2125.309373 0.9020 0.9020 0.9015 0.9010 0.9005
2129.950461 0.9000 0.8995 0.8990 0.8980 0.8970
2134.591548 0.8970 0.8970 0.8965 0.8960 0.8955
2139.232636 0.8950 0.8940 0.8930 0.8930 0.8930
2143.873724 0.8915 0.8900 0.8890 0.8880 0.8855
2148.514812 0.8830 0.8820 0.8810 0.8805 0.8800
2153.155900 0.8805 0.8810 0.8830 0.8850 0.8860
2157.796988 0.8870 0.8875 0.8880 0.8880 0.8880
2162.438076 0.8885 0.8890 0.8890 0.8890 0.8895
2167.079164 0.8900 0.8910 0.8920 0.8920 0.8920
2171.720252 0.8925 0.8930 0.8930 0.8930 0.8930
2176.361339 0.8930 0.8930 0.8930 0.8925 0.8920
2181.002427 0.8910 0.8900 0.8880 0.8860 0.8860
2185.643515 0.8860 0.8855 0.8850 0.8840 0.8830
2190.284603 0.8825 0.8820 0.8820 0.8820 0.8815
2194.925691 0.8810 0.8810 0.8810 0.8805 0.8800
2199.566779 0.8795 0.8790 0.8785 0.8780 0.8780
2204.207867 0.8780 0.8775 0.8770 0.8760 0.8750
2208.848955 0.8745 0.8740 0.8735 0.8730 0.8730
2213.490042 0.8730 0.8730 0.8730 0.8725 0.8720
2218.131130 0.8715 0.8710 0.8705 0.8700 0.8690
2222.772218 0.8680 0.8680 0.8680 0.8680 0.8680
2227.413306 0.8680 0.8680 0.8680 0.8680 0.8675
2232.054394 0.8670 0.8665 0.8660 0.8655 0.8650
2236.695482 0.8645 0.8640 0.8635 0.8630 0.8630
2241.336570 0.8630 0.8620 0.8610 0.8610 0.8610
2245.977658 0.8610 0.8610 0.8605 0.8600 0.8600
2250.618745 0.8600 0.8600 0.8600 0.8595 0.8590
2255.259833 0.8590 0.8590 0.8585 0.8580 0.8575
2259.900921 0.8570 0.8570 0.8570 0.8565 0.8560
2264.542009 0.8560 0.8560 0.8550 0.8540 0.8535
2269.183097 0.8530 0.8530 0.8530 0.8525 0.8520
2273.824185 0.8520 0.8520 0.8515 0.8510 0.8510
2278.465273 0.8510 0.8510 0.8510 0.8505 0.8500
2283.106361 0.8500 0.8500 0.8500 0.8500 0.8500
2287.747448 0.8500 0.8500 0.8500 0.8500 0.8500
2292.388536 0.8500 0.8500 0.8500 0.8500 0.8500
2297.029624 0.8500 0.8500 0.8500 0.8495 0.8490
2301.670712 0.8490 0.8490 0.8485 0.8480 0.8470
2306.311800 0.8460 0.8455 0.8450 0.8450 0.8450
2310.952888 0.8445 0.8440 0.8440 0.8440 0.8440
2315.593976 0.8440 0.8435 0.8430 0.8430 0.8430
2320.235064 0.8425 0.8420 0.8420 0.8420 0.8420
2324.876152 0.8420 0.8415 0.8410 0.8410 0.8410
2329.517239 0.8410 0.8410 0.8400 0.8390 0.8390
2334.158327 0.8390 0.8385 0.8380 0.8375 0.8370
2338.799415 0.8370 0.8370 0.8365 0.8360 0.8360
2343.440503 0.8360 0.8355 0.8350 0.8350 0.8350
2348.081591 0.8345 0.8340 0.8340 0.8340 0.8329
2352.722679 0.8320 0.8315 0.8310 0.8310 0.8310
2357.363767 0.8305 0.8300 0.8295 0.8290 0.8285
2362.004855 0.8280 0.8275 0.8270 0.8260 0.8249
2366.645942 0.8234 0.8219 0.8194 0.8169 0.8154
2371.287030 0.8140 0.8135 0.8130 0.8130 0.8130
2375.928118 0.8125 0.8120 0.8120 0.8120 0.8120
2380.569206 0.8121 0.8131 0.8140 0.8140 0.8140
2385.210294 0.8145 0.8150 0.8155 0.8160 0.8165
2389.851382 0.8170 0.8170 0.8170 0.8170 0.8170
2394.492470 0.8165 0.8160 0.8160 0.8160 0.8160
2399.133558 0.8160 0.8155 0.8150 0.8145 0.8140
2403.774645 0.8135 0.8130 0.8125 0.8119 0.8109
2408.415733 0.8100 0.8100 0.8100 0.8095 0.8090
2413.056821 0.8085 0.8080 0.8075 0.8070 0.8065
2417.697909 0.8060 0.8055 0.8050 0.8050 0.8050
2422.338997 0.8050 0.8050 0.8050 0.8049 0.8039
2426.980085 0.8030 0.8030 0.8030 0.8030 0.8030
2431.621173 0.8030 0.8031 0.8041 0.8050 0.8050
2436.262261 0.8050 0.8050 0.8050 0.8050 0.8050
2440.903348 0.8050 0.8050 0.8050 0.8050 0.8050
2445.544436 0.8050 0.8050 0.8049 0.8039 0.8030
2450.185524 0.8025 0.8020 0.8015 0.8010 0.8005
2454.826612 0.7999 0.7989 0.7980 0.7980 0.7979
2459.467700 0.7969 0.7960 0.7960 0.7960 0.7960
2464.108788 0.7960 0.7955 0.7950 0.7950 0.7950
2468.749876 0.7945 0.7940 0.7940 0.7940 0.7935
2473.390964 0.7930 0.7930 0.7930 0.7925 0.7920
2478.032052 0.7920 0.7920 0.7915 0.7910 0.7910
2482.673139 0.7910 0.7905 0.7900 0.7900 0.7899
2487.314227 0.7889 0.7880 0.7880 0.7880 0.7875
2491.955315 0.7870 0.7870 0.7870 0.7870 0.7870
2496.596403 0.7865 0.7860 0.7860 0.7860 0.7855
2501.237491 0.7850 0.7845 0.7840 0.7835 0.7829
2505.878579 0.7819 0.7810 0.7805 0.7800 0.7795
2510.519667 0.7790 0.7785 0.7780 0.7775 0.7770
2515.160755 0.7770 0.7769 0.7754 0.7740 0.7735
2519.801842 0.7730 0.7725 0.7720 0.7715 0.7710
2524.442930 0.7710 0.7710 0.7710 0.7710 0.7710
2529.084018 0.7710 0.7710 0.7710 0.7715 0.7720
2533.725106 0.7720 0.7720 0.7720 0.7720 0.7725
2538.366194 0.7730 0.7730 0.7730 0.7730 0.7730
2543.007282 0.7735 0.7740 0.7740 0.7740 0.7740
2547.648370 0.7740 0.7740 0.7740 0.7740 0.7740
2552.289458 0.7740 0.7740 0.7740 0.7740 0.7740
2556.930545 0.7740 0.7740 0.7740 0.7740 0.7740
2561.571633 0.7740 0.7740 0.7735 0.7730 0.7730
2566.212721 0.7730 0.7730 0.7730 0.7730 0.7729
2570.853809 0.7719 0.7710 0.7705 0.7700 0.7695
2575.494897 0.7689 0.7674 0.7660 0.7655 0.7650
2580.135985 0.7645 0.7639 0.7629 0.7620 0.7615
2584.777073 0.7609 0.7594 0.7580 0.7575 0.7570
2589.418161 0.7565 0.7560 0.7555 0.7550 0.7545
2594.059248 0.7539 0.7529 0.7520 0.7515 0.7510
2598.700336 0.7505 0.7500 0.7500 0.7499 0.7489
2603.341424 0.7480 0.7475 0.7469 0.7454 0.7440
2607.982512 0.7435 0.7430 0.7425 0.7420 0.7415
2612.623600 0.7410 0.7410 0.7410 0.7410 0.7410
2617.264688 0.7415 0.7421 0.7431 0.7441 0.7456
2621.905776 0.7471 0.7481 0.7490 0.7495 0.7502
2626.546864 0.7527 0.7551 0.7561 0.7571 0.7581
2631.187952 0.7591 0.7601 0.7611 0.7616 0.7620
2635.829039 0.7620 0.7620 0.7620 0.7620 0.7625
2640.470127 0.7630 0.7635 0.7640 0.7645 0.7650
2645.111215 0.7655 0.7661 0.7676 0.7691 0.7701
2649.752303 0.7711 0.7721 0.7731 0.7736 0.7742
2654.393391 0.7757 0.7771 0.7781 0.7791 0.7801
2659.034479 0.7811 0.7821 0.7830 0.7830 0.7830
2663.675567 0.7835 0.7840 0.7845 0.7850 0.7856
2668.316655 0.7861 0.7866 0.7871 0.7876 0.7881
2672.957742 0.7891 0.7901 0.7906 0.7911 0.7916
2677.598830 0.7920 0.7920 0.7919 0.7914 0.7910
2682.239918 0.7905 0.7899 0.7889 0.7880 0.7880
2686.881006 0.7881 0.7891 0.7901 0.7906 0.7911
2691.522094 0.7916 0.7921 0.7926 0.7930 0.7930
2696.163182 0.7929 0.7924 0.7919 0.7909 0.7899
2700.804270 0.7889 0.7879 0.7875 0.7869 0.7859
2705.445358 0.7850 0.7850 0.7847 0.7822 0.7798
2710.086445 0.7778 0.7758 0.7743 0.7729 0.7719
2714.727533 0.7709 0.7699 0.7687 0.7657 0.7629
2719.368621 0.7619 0.7608 0.7588 0.7569 0.7564
2724.009709 0.7561 0.7566 0.7571 0.7576 0.7582
2728.650797 0.7597 0.7611 0.7616 0.7621 0.7626
2733.291885 0.7630 0.7630 0.7630 0.7630 0.7631
2737.932973 0.7636 0.7640 0.7640 0.7640 0.7640
2742.574061 0.7639 0.7634 0.7630 0.7630 0.7629
2747.215148 0.7624 0.7619 0.7614 0.7609 0.7599
2751.856236 0.7589 0.7584 0.7579 0.7574 0.7569
2756.497324 0.7559 0.7548 0.7533 0.7519 0.7514
2761.138412 0.7509 0.7499 0.7489 0.7484 0.7479
2765.779500 0.7474 0.7469 0.7459 0.7449 0.7444
2770.420588 0.7439 0.7434 0.7429 0.7419 0.7408
2775.061676 0.7393 0.7378 0.7363 0.7348 0.7333
2779.702764 0.7318 0.7303 0.7289 0.7279 0.7269
2784.343852 0.7259 0.7249 0.7239 0.7229 0.7224
2788.984939 0.7219 0.7214 0.7209 0.7204 0.7200
2793.626027 0.7200 0.7200 0.7200 0.7199 0.7194
2798.267115 0.7189 0.7184 0.7178 0.7163 0.7149
2802.908203 0.7144 0.7138 0.7123 0.7108 0.7093
2807.549291 0.7078 0.7063 0.7047 0.7022 0.6998
2812.190379 0.6983 0.6967 0.6942 0.6917 0.6892
2816.831467 0.6867 0.6842 0.6816 0.6786 0.6753
2821.472555 0.6698 0.6644 0.6599 0.6553 0.6504
2826.113642 0.6452 0.6387 0.6321 0.6251 0.6178
2830.754730 0.6083 0.5985 0.5865 0.5751 0.5681
2835.395818 0.5610 0.5535 0.5445 0.5260 0.5069
2840.036906 0.4839 0.4587 0.4192 0.3812 0.3522
2844.677994 0.3235 0.2965 0.2711 0.2566 0.2420
2849.319082 0.2265 0.2112 0.1967 0.1826 0.1709
2853.960170 0.1599 0.1524 0.1459 0.1454 0.1451
2858.601258 0.1456 0.1461 0.1466 0.1471 0.1476
2863.242345 0.1481 0.1486 0.1491 0.1501 0.1511
2867.883433 0.1521 0.1531 0.1541 0.1552 0.1567
2872.524521 0.1581 0.1591 0.1611 0.1691 0.1768
2877.165609 0.1823 0.1882 0.1967 0.2072 0.2302
2881.806697 0.2501 0.2506 0.2510 0.2510 0.2509
2886.447785 0.2504 0.2490 0.2415 0.2340 0.2264
2891.088873 0.2190 0.2125 0.2060 0.1990 0.1921
2895.729961 0.1856 0.1791 0.1731 0.1669 0.1594
2900.371048 0.1518 0.1433 0.1352 0.1292 0.1232
2905.012136 0.1172 0.1114 0.1069 0.1027 0.1007
2909.653224 0.0987 0.0967 0.0943 0.0893 0.0844
2914.294312 0.0804 0.0762 0.0707 0.0651 0.0586
2918.935400 0.0517 0.0427 0.0336 0.0236 0.0149
2923.576488 0.0139 0.0130 0.0130 0.0135 0.0170
2928.217576 0.0205 0.0235 0.0265 0.0300 0.0335
2932.858664 0.0365 0.0391 0.0401 0.0414 0.0444
2937.499752 0.0480 0.0544 0.0607 0.0657 0.0707
2942.140839 0.0757 0.0804 0.0829 0.0852 0.0867
2946.781927 0.0877 0.0857 0.0839 0.0834 0.0826
2951.423015 0.0801 0.0772 0.0722 0.0673 0.0628
2956.064103 0.0587 0.0567 0.0553 0.0573 0.0597
2960.705191 0.0647 0.0714 0.0879 0.1030 0.1101
2965.346279 0.1179 0.1299 0.1427 0.1597 0.1772
2969.987367 0.1971 0.2168 0.2348 0.2526 0.2696
2974.628455 0.2862 0.3007 0.3152 0.3297 0.3439
2979.269542 0.3564 0.3689 0.3819 0.3947 0.4063
2983.910630 0.4180 0.4299 0.4420 0.4545 0.4670
2988.551718 0.4795 0.4948 0.5253 0.5527 0.5637
2993.192806 0.5743 0.5828 0.5905 0.5935 0.5962
2997.833894 0.5977 0.5992 0.6007 0.6025 0.6061
3002.474982 0.6094 0.6119 0.6148 0.6198 0.6243
3007.116070 0.6263 0.6281 0.6286 0.6294 0.6319
3011.757158 0.6344 0.6369 0.6393 0.6413 0.6434
3016.398245 0.6459 0.6482 0.6497 0.6513 0.6533
3021.039333 0.6553 0.6568 0.6583 0.6598 0.6611
3025.680421 0.6616 0.6621 0.6626 0.6630 0.6630
3030.321509 0.6630 0.6630 0.6631 0.6636 0.6639
3034.962597 0.6634 0.6629 0.6624 0.6618 0.6608
3039.603685 0.6598 0.6588 0.6579 0.6574 0.6568
3044.244773 0.6558 0.6549 0.6544 0.6538 0.6523
3048.885861 0.6509 0.6504 0.6498 0.6488 0.6479
3053.526948 0.6474 0.6468 0.6458 0.6448 0.6438
3058.168036 0.6428 0.6418 0.6408 0.6398 0.6389
3062.809124 0.6384 0.6377 0.6362 0.6348 0.6338
3067.450212 0.6328 0.6318 0.6308 0.6293 0.6279
3072.091300 0.6274 0.6268 0.6258 0.6248 0.6232
3076.732388 0.6218 0.6208 0.6197 0.6182 0.6167
3081.373476 0.6152 0.6138 0.6128 0.6118 0.6108
3086.014564 0.6097 0.6082 0.6067 0.6052 0.6038
3090.655652 0.6028 0.6017 0.5997 0.5978 0.5968
3095.296739 0.5956 0.5936 0.5917 0.5902 0.5886
3099.937827 0.5866 0.5848 0.5838 0.5827 0.5812
3104.578915 0.5797 0.5777 0.5756 0.5731 0.5707
3109.220003 0.5692 0.5677 0.5657 0.5637 0.5622
3113.861091 0.5605 0.5580 0.5557 0.5542 0.5528
3118.502179 0.5518 0.5507 0.5492 0.5476 0.5456
3123.143267 0.5436 0.5411 0.5386 0.5361 0.5337
3127.784355 0.5317 0.5296 0.5271 0.5246 0.5220
3132.425442 0.5196 0.5176 0.5154 0.5124 0.5094
3137.066530 0.5064 0.5033 0.4993 0.4954 0.4919
3141.707618 0.4884 0.4849 0.4815 0.4785 0.4756
3146.348706 0.4736 0.4717 0.4702 0.4688 0.4678
3150.989794 0.4664 0.4634 0.4606 0.4586 0.4565
3155.630882 0.4540 0.4516 0.4496 0.4478 0.4468
3160.271970 0.4457 0.4442 0.4427 0.4412 0.4398
3164.913058 0.4388 0.4378 0.4368 0.4356 0.4336
3169.554145 0.4317 0.4302 0.4286 0.4266 0.4244
3174.195233 0.4214 0.4188 0.4178 0.4167 0.4152
3178.836321 0.4136 0.4116 0.4097 0.4082 0.4065
3183.477409 0.4040 0.4015 0.3990 0.3966 0.3946
3188.118497 0.3924 0.3894 0.3864 0.3834 0.3804
3192.759585 0.3774 0.3745 0.3720 0.3693 0.3658
3197.400673 0.3624 0.3594 0.3563 0.3528 0.3493
3202.041761 0.3458 0.3423 0.3383 0.3344 0.3308
3206.682848 0.3272 0.3232 0.3193 0.3158 0.3122
3211.323936 0.3082 0.3041 0.2996 0.2952 0.2912
3215.965024 0.2872 0.2832 0.2791 0.2746 0.2702
3220.606112 0.2662 0.2622 0.2583 0.2542 0.2502
3225.247200 0.2460 0.2410 0.2362 0.2322 0.2282
3229.888288 0.2242 0.2201 0.2156 0.2112 0.2072
3234.529376 0.2032 0.1992 0.1951 0.1906 0.1862
3239.170464 0.1822 0.1781 0.1736 0.1695 0.1670
3243.811552 0.1646 0.1626 0.1609 0.1604 0.1601
3248.452639 0.1606 0.1617 0.1652 0.1684 0.1704
3253.093727 0.1727 0.1762 0.1796 0.1826 0.1857
3257.734815 0.1892 0.1927 0.1962 0.1998 0.2038
3262.375903 0.2079 0.2124 0.2167 0.2202 0.2236
3267.016991 0.2266 0.2298 0.2338 0.2376 0.2406
3271.658079 0.2437 0.2472 0.2505 0.2530 0.2554
3276.299167 0.2574 0.2592 0.2602 0.2611 0.2616
3280.940255 0.2620 0.2620 0.2619 0.2614 0.2610
3285.581342 0.2610 0.2607 0.2592 0.2577 0.2562
3290.222430 0.2549 0.2544 0.2537 0.2522 0.2507
3294.863518 0.2492 0.2475 0.2450 0.2424 0.2394
3299.504606 0.2365 0.2340 0.2313 0.2278 0.2243
3304.145694 0.2208 0.2173 0.2138 0.2102 0.2062
3308.786782 0.2021 0.1976 0.1932 0.1892 0.1851
3313.427870 0.1806 0.1761 0.1716 0.1666 0.1595
3318.068958 0.1528 0.1473 0.1421 0.1381 0.1346
3322.710045 0.1326 0.1307 0.1292 0.1279 0.1274
3327.351133 0.1270 0.1270 0.1271 0.1276 0.1281
3331.992221 0.1286 0.1292 0.1302 0.1311 0.1316
3336.633309 0.1321 0.1326 0.1332 0.1342 0.1349
3341.274397 0.1344 0.1339 0.1334 0.1326 0.1306
3345.915485 0.1288 0.1278 0.1268 0.1258 0.1250
3350.556573 0.1250 0.1249 0.1244 0.1241 0.1246
3355.197661 0.1251 0.1256 0.1267 0.1297 0.1328
3359.838748 0.1363 0.1403 0.1463 0.1524 0.1589
3364.479836 0.1654 0.1719 0.1783 0.1843 0.1903
3369.120924 0.1963 0.2024 0.2089 0.2154 0.2219
3373.762012 0.2285 0.2350 0.2416 0.2486 0.2554
3378.403100 0.2613 0.2676 0.2746 0.2816 0.2885
3383.044188 0.2946 0.2970 0.3001 0.3051 0.3106
3387.685276 0.3181 0.3255 0.3325 0.3393 0.3454
3392.326364 0.3503 0.3518 0.3543 0.3598 0.3650
3396.967452 0.3695 0.3739 0.3779 0.3819 0.3859
3401.608539 0.3899 0.3939 0.3978 0.4013 0.4048
3406.249627 0.4083 0.4119 0.4159 0.4198 0.4233
3410.890715 0.4267 0.4297 0.4328 0.4363 0.4398
3415.531803 0.4433 0.4468 0.4503 0.4539 0.4579
3420.172891 0.4618 0.4653 0.4688 0.4723 0.4759
3424.813979 0.4799 0.4839 0.4879 0.4921 0.4972
3429.455067 0.5021 0.5066 0.5111 0.5156 0.5194
3434.096155 0.5209 0.5240 0.5325 0.5392 0.5402
3438.737242 0.5410 0.5410 0.5408 0.5398 0.5375
3443.378330 0.5310 0.5249 0.5199 0.5143 0.5067
3448.019418 0.4961 0.4756 0.4570 0.4445 0.4282
3452.660506 0.3998 0.3738 0.3558 0.3394 0.3284
3457.301594 0.3186 0.3126 0.3072 0.3037 0.3002
3461.942682 0.2967 0.2933 0.2903 0.2879 0.2874
3466.583770 0.2871 0.2876 0.2920 0.3085 0.3245
3471.224858 0.3390 0.3555 0.3785 0.4022 0.4282
3475.865945 0.4531 0.4746 0.4941 0.5070 0.5252
3480.507033 0.5601 0.5906 0.6061 0.6207 0.6323
3485.148121 0.6417 0.6447 0.6486 0.6551 0.6617
3489.789209 0.6687 0.6756 0.6821 0.6881 0.6926
3494.430297 0.6968 0.7003 0.7034 0.7049 0.7064
3499.071385 0.7079 0.7095 0.7115 0.7136 0.7161
3503.712473 0.7185 0.7205 0.7227 0.7257 0.7287
3508.353561 0.7317 0.7347 0.7377 0.7406 0.7431
3512.994648 0.7458 0.7493 0.7527 0.7557 0.7587
3517.635736 0.7617 0.7647 0.7677 0.7707 0.7737
3522.276824 0.7765 0.7785 0.7806 0.7831 0.7854
3526.917912 0.7869 0.7889 0.7924 0.7959 0.7994
3531.559000 0.8027 0.8057 0.8086 0.8111 0.8134
3536.200088 0.8149 0.8166 0.8191 0.8212 0.8223
3540.841176 0.8233 0.8243 0.8250 0.8250 0.8255
3545.482264 0.8275 0.8291 0.8296 0.8300 0.8300
3550.123352 0.8301 0.8306 0.8310 0.8310 0.8309
3554.764439 0.8304 0.8294 0.8269 0.8246 0.8231
3559.405527 0.8214 0.8189 0.8160 0.8120 0.8080
3564.046615 0.8040 0.8010 0.8010 0.8016 0.8041
3568.687703 0.8084 0.8179 0.8266 0.8331 0.8392
3573.328791 0.8442 0.8487 0.8517 0.8545 0.8565
3577.969879 0.8583 0.8593 0.8605 0.8625 0.8643
3582.610967 0.8653 0.8666 0.8691 0.8714 0.8729
3587.252055 0.8745 0.8765 0.8781 0.8786 0.8793
3591.893142 0.8803 0.8811 0.8816 0.8821 0.8826
3596.534230 0.8833 0.8843 0.8850 0.8850 0.8851
3601.175318 0.8856 0.8861 0.8866 0.8871 0.8876
3605.816406 0.8883 0.8893 0.8904 0.8919 0.8931
3610.457494 0.8936 0.8940 0.8940 0.8944 0.8959
3615.098582 0.8970 0.8970 0.8970 0.8970 0.8969
3619.739670 0.8964 0.8960 0.8960 0.8960 0.8960
3624.380758 0.8959 0.8954 0.8950 0.8950 0.8947
3629.021845 0.8937 0.8929 0.8924 0.8916 0.8901
3633.662933 0.8889 0.8884 0.8879 0.8874 0.8869
3638.304021 0.8864 0.8859 0.8854 0.8846 0.8831
3642.945109 0.8817 0.8807 0.8797 0.8787 0.8779
3647.586197 0.8774 0.8767 0.8757 0.8749 0.8744
3652.227285 0.8739 0.8734 0.8729 0.8724 0.8719
3656.868373 0.8714 0.8709 0.8704 0.8697 0.8687
3661.509461 0.8679 0.8674 0.8670 0.8670 0.8670
3666.150548 0.8670 0.8670 0.8670 0.8670 0.8670
3670.791636 0.8671 0.8676 0.8680 0.8680 0.8683
3675.432724 0.8693 0.8700 0.8700 0.8700 0.8700
3680.073812 0.8701 0.8706 0.8711 0.8716 0.8720
3684.714900 0.8720 0.8721 0.8726 0.8731 0.8736
3689.355988 0.8741 0.8746 0.8750 0.8750 0.8753
3693.997076 0.8763 0.8771 0.8776 0.8781 0.8786
3698.638164 0.8790 0.8790 0.8791 0.8796 0.8801
3703.279252 0.8806 0.8811 0.8816 0.8820 0.8820
3707.920339 0.8820 0.8820 0.8820 0.8820 0.8819
3712.561427 0.8814 0.8810 0.8810 0.8809 0.8804
3717.202515 0.8800 0.8800 0.8799 0.8794 0.8789
3721.843603 0.8784 0.8780 0.8780 0.8779 0.8774
3726.484691 0.8770 0.8770 0.8767 0.8757 0.8749
3731.125779 0.8744 0.8740 0.8740 0.8739 0.8734
3735.766867 0.8730 0.8730 0.8729 0.8724 0.8719
3740.407955 0.8714 0.8709 0.8704 0.8700 0.8700
3745.049042 0.8697 0.8687 0.8680 0.8680 0.8679
3749.690130 0.8674 0.8669 0.8664 0.8660 0.8660
3754.331218 0.8659 0.8654 0.8650 0.8650 0.8649
3758.972306 0.8644 0.8640 0.8640 0.8639 0.8634
3763.613394 0.8630 0.8630 0.8627 0.8617 0.8610
3768.254482 0.8610 0.8610 0.8610 0.8609 0.8604
3772.895570 0.8600 0.8600 0.8599 0.8594 0.8589
3777.536658 0.8584 0.8580 0.8580 0.8579 0.8574
3782.177745 0.8570 0.8570 0.8569 0.8564 0.8557
3786.818833 0.8547 0.8540 0.8540 0.8540 0.8540
3791.459921 0.8539 0.8534 0.8530 0.8530 0.8530
3796.101009 0.8530 0.8530 0.8530 0.8530 0.8530
3800.742097 0.8530 0.8530 0.8530 0.8530 0.8530
3805.383185 0.8530 0.8531 0.8536 0.8540 0.8540
3810.024273 0.8540 0.8540 0.8540 0.8540 0.8543
3814.665361 0.8553 0.8560 0.8560 0.8561 0.8566
3819.306448 0.8573 0.8583 0.8592 0.8597 0.8601
3823.947536 0.8607 0.8614 0.8629 0.8641 0.8646
3828.588624 0.8653 0.8663 0.8674 0.8689 0.8703
3833.229712 0.8713 0.8721 0.8726 0.8733 0.8743
3837.870800 0.8753 0.8763 0.8773 0.8783 0.8792
3842.511888 0.8797 0.8801 0.8807 0.8811 0.8816
3847.152976 0.8821 0.8826 0.8830 0.8830 0.8830
3851.794064 0.8830 0.8833 0.8843 0.8853 0.8863
3856.435152 0.8872 0.8877 0.8882 0.8887 0.8892
3861.076239 0.8897 0.8905 0.8920 0.8932 0.8937
3865.717327 0.8942 0.8946 0.8952 0.8956 0.8964
3870.358415 0.8979 0.8991 0.8996 0.9001 0.9007
3874.999503 0.9012 0.9017 0.9022 0.9027 0.9032
3879.640591 0.9037 0.9043 0.9053 0.9062 0.9067
3884.281679 0.9072 0.9077 0.9082 0.9087 0.9092
3888.922767 0.9096 0.9102 0.9106 0.9112 0.9117
3893.563855 0.9123 0.9133 0.9140 0.9140 0.9142
3898.204942 0.9147 0.9150 0.9150 0.9150 0.9150
3902.846030 0.9150 0.9150 0.9150 0.9150 0.9150
3907.487118 0.9150 0.9150 0.9150 0.9150 0.9150
3912.128206 0.9150 0.9150 0.9150 0.9150 0.9150
3916.769294 0.9150 0.9150 0.9150 0.9152 0.9157
3921.410382 0.9160 0.9160 0.9160 0.9160 0.9160
3926.051470 0.9160 0.9162 0.9167 0.9170 0.9170
3930.692558 0.9170 0.9170 0.9170 0.9170 0.9172
3935.333645 0.9177 0.9180 0.9180 0.9180 0.9180
3939.974733 0.9180 0.9180 0.9182 0.9187 0.9190
3944.615821 0.9190 0.9190 0.9190 0.9190 0.9190
3949.256909 0.9193 0.9203 0.9210 0.9210 0.9210
3953.897997 0.9210 0.9210 0.9210 0.9212 0.9217
3958.539085 0.9220 0.9220 0.9222 0.9227 0.9230
3963.180173 0.9230 0.9230 0.9230 0.9232 0.9237
3967.821261 0.9240 0.9240 0.9242 0.9247 0.9250
3972.462348 0.9250 0.9250 0.9250 0.9252 0.9257
3977.103436 0.9260 0.9260 0.9263 0.9273 0.9280
3981.744524 0.9280 0.9280 0.9280 0.9282 0.9287
3986.385612 0.9290 0.9290 0.9290 0.9290 0.9292
3991.026700 0.9297 0.9300 0.9300 0.9300 0.9300
3995.667788 0.9300 0.9300 0.9300 0.9300
##END=
