##TITLE=Ethanol
##JCAMP-DX=4.24
##DATA TYPE=INFRARED SPECTRUM
##CLASS=IUPAC A
##ORIGIN=NIST, Anayltical Chemistry Division, 301-975-3108
##OWNER=COPYRIGHT (C) 1998 by the U.S. Secretary of Commerce
##DATE=98/10/1
##$SPECTRA VERSION=1.00
##$UNCERTAINTY IN Y=2.0 % relative (B=1.0E-04,C=2.9E-10,D=2.7E-14)
##CAS NAME=Ethanol
##CAS REGISTRY NO=64-17-5
##MOLFORM=C2 H5 O H
##MP=-117.3 C
##BP=78.5 C
##$NIST SOURCE=QUANT-IR
##SPECTROMETER/DATA SYSTEM=IFS66V (Bruker)
##INSTRUMENT PARAMETERS=KBr Beam splitter; MCT Detector; Multipass cell
##STATE=gas
##SAMPLE DESCRIPTION=Ethanol Primary Gas Standard
##PRESSURE=101.3 kPa
##TEMPERATURE=23 C
##SAMPLING PROCEDURE=1 L/min Flow
##RESOLUTION=1.9290
##DATA PROCESSING=3-Term B-H Apodization
##XUNITS=cm-1
##YUNITS=(micromol/mol)-1m-1 (base 10)
##XFACTOR=1.0
##YFACTOR=2.2737E-13
##DELTAX=0.9645
##FIRSTX=574.687
##LASTX=3974.595
##FIRSTY=2.47E-06
##MAXX=3973.63
##MINX=574.69
##MAXY=.000304
##MINY=-3.91E-07
##NPOINTS=3527
##XYDATA=(X++(Y..Y))
574.69 10863160 10972720 11745170 10668560 8383712 7767442
579.51 8334236 9370732 10842540 11943190 11888090 10969150
585.29 9363776 8281184 9348082 10273320 10205490 10333940
591.08 10326360 10407700 10583160 10814830 11438390 11972460
596.86 11724280 11282650 11420910 11539870 11402770 11260750
602.65 11168890 11773490 12612040 12687740 12327650 12261830
608.44 12235050 11801420 11322410 11108970 11313400 11855170
614.22 11710150 11543290 12168220 12253790 12186790 12737760
620.01 13114990 12702850 11998760 11600990 11455030 11665260
625.79 11941010 11730220 11149690 10842280 10969580 11002360
631.58 10997160 11271280 11149710 10848350 10923500 11010510
637.36 10924300 10860220 10924180 10946720 10521360 10064770
643.15 10217350 10253800 9819836 9324822 9066978 9110292
648.93 8931216 8380750 7710464 7344010 7339894 7246060
654.72 7072744 6813578 7105632 7740188 7678994 7495802
660.50 7597480 7423318 6864222 6574202 6847170 8188894
666.29 10733650 11055320 8727272 6967032 6570440 6574686
672.08 6212704 5879182 5943702 5984292 5625062 5487894
677.86 5633444 5560200 5574162 5532970 5386154 5764942
683.65 5999272 5460020 4573826 4336180 4720156 5045258
689.43 4807686 4104120 3582146 3734946 3973002 3665904
695.22 3444520 3656546 3561536 3104930 3172742 3579700
701.00 3558444 3196016 2855884 2615612 2420668 2232022
706.79 2169266 2399760 2645738 2696004 2447726 2047560
712.57 1874954 2054772 2130252 1953564 1790942 1787318
718.36 1934670 2211118 2206878 2096446 2401860 2671812
724.14 2823814 2962688 2922638 2732504 2349206 2196398
729.93 2583398 2699280 2294942 2297928 2640440 2877474
735.71 2866432 2555652 2509476 2981540 3384362 3350846
741.50 3173970 3224926 3559998 3761546 3741398 3702388
747.29 3507592 3393276 3447334 3613156 3851256 4067242
753.07 4147740 4057002 4233730 4540160 4731000 5134642
758.86 5554126 5641674 5447576 5765364 6610324 7072512
764.64 7002544 6964594 7321494 8035792 8722818 9033804
770.43 9141322 9576672 10271670 10834470 11235730 11330700
776.21 11661440 12581370 13197440 13472360 14006930 14592690
782.00 15095650 15713900 16199260 16357520 16405690 16602220
787.78 16863210 16857240 16507080 16283060 16539720 16954330
793.57 17207150 17159330 17719000 19311670 19646980 20158030
799.35 24057310 26048580 22721680 19815030 20256510 21114360
805.14 19888680 18349660 17937050 17897020 18362290 19503810
810.93 20371500 20381980 19444200 18347580 17981840 17980080
816.71 17826780 17840390 18124450 18172050 17830170 17552360
822.50 17332540 17061920 17108060 17365060 17471490 17383460
828.28 17154240 17018500 17105460 17195490 17291770 17488450
834.07 18013490 18738240 19260370 19669060 20237720 21198010
839.85 22471810 23855770 25327000 26993580 28958180 31032730
845.64 33171310 36039770 39499360 42994630 46607520 50748840
851.42 55597110 60798320 66434890 72542910 78957420 85856280
857.21 93311110 101224600 109218000 116898400 124546100 132558100
862.99 140312000 147379300 153732000 158843800 162574500 165184200
868.78 166852400 166793300 164467300 160681800 156332500 151519200
874.57 147250000 146260300 158348000 197177900 222757500 193663800
880.35 165757600 171918400 177267600 169066200 162809200 162096400
886.14 162720400 165231600 171410300 188404700 214838100 221992700
891.92 205061200 190926300 186829400 187107200 187865900 187104100
897.71 184754000 180977200 175906600 169894100 162739300 154634500
903.49 146353600 138000600 128992600 119677300 110585600 101707000
909.28 93362340 85786370 78511590 71500540 65057470 59516200
915.06 54613960 50038090 45925470 42330920 39224240 36683600
920.85 34491810 32504750 30697180 29288390 28144850 27086020
926.63 26140320 25418210 24731080 23803710 22840560 22125810
932.42 21641280 21251950 20749710 20325800 20013400 19720530
938.21 19393370 19077820 18787920 18504360 18321320 18176820
943.99 17971190 17791530 17632050 17554720 17447220 17407100
949.78 17472070 17601920 17767850 17828640 17774250 17870900
955.56 18227440 18699220 19202860 19968450 20660140 21001330
961.35 21328980 21754480 22182040 22769260 23522730 24170100
967.13 24908400 25970440 27122130 28429590 29772570 30848990
972.92 31849430 33216090 34731040 36055040 37415790 39180190
978.70 41242240 43351230 45497380 47808080 50403500 53204590
984.49 56090580 59273590 62876010 66975140 71312440 75945530
990.27 81189510 86883640 92648840 98657940 105512300 113097700
996.06 121138400 130134100 140061500 150364600 161144800 173262500
1001.85 187631300 203847900 218962900 231618900 243998900 257571500
1007.63 272495300 289110600 306592400 323885700 340020000 354848900
1013.42 369368300 382492400 392654000 400829800 408852900 415091500
1019.20 419670700 425747800 432996200 439747700 451209400 483526200
1024.99 559085700 664967400 695382300 609375500 535101700 535773200
1030.77 568101800 604275200 640536600 685591600 752189400 838203800
1036.56 894942000 897524900 899067300 926539000 958855700 987297300
1042.34 1014487000 1039529000 1064155000 1087409000 1100569000 1107519000
1048.13 1120405000 1135414000 1144869000 1152152000 1152933000 1145835000
1053.91 1146636000 1169465000 1213575000 1228447000 1162089000 1072225000
1059.70 1026832000 1022558000 1048465000 1100292000 1186555000 1298531000
1065.48 1337081000 1242391000 1111633000 1047243000 1048634000 1072362000
1071.27 1098030000 1119917000 1133776000 1137020000 1132945000 1122824000
1077.06 1104153000 1076913000 1041369000 1000575000 957549100 913501100
1082.84 871068200 828863700 786381700 743948200 704632300 677946000
1088.63 649751900 591274900 521763800 479437900 460343800 447519600
1094.41 438125400 433302500 428337700 422093200 417449900 412653200
1100.20 405875600 397847600 389137200 378616800 365480800 350022100
1105.98 333772300 317471000 301122000 284675700 266664400 247934200
1111.77 232037700 219510900 206920100 191718700 177922500 167818500
1117.55 158115400 148021300 138901600 131556000 125235000 119600900
1123.34 114751300 110356800 105927500 101543500 97559750 93683460
1129.12 90010740 86584940 83200550 80327420 77824960 74915610
1134.91 71587820 68711540 66187420 63607720 61436710 59843180
1140.70 58024460 55656480 53766680 52528090 50948940 49274540
1146.48 48053770 47096780 46325100 46144370 46835600 47631590
1152.27 47124320 45834090 45026210 44451920 43922810 43697600
1158.05 43503370 43214700 43245490 43398680 43394080 43637790
1163.84 44336320 44996730 44965180 44688590 44674820 44703200
1169.62 44746380 45296880 46245070 46971580 47448200 48125750
1175.41 49117000 50226880 51221710 52420380 53897760 55334740
1181.19 56809790 58364880 59858660 61332060 62853900 64451900
1186.98 65945980 67323920 68754770 70527160 72852330 75445820
1192.76 77900650 80258720 82639540 84998660 87097390 88962730
1198.55 90722960 92777490 95369760 98467510 101892800 105860800
1204.34 110316800 114937200 119836700 124735700 130311800 136851100
1210.12 143701800 151264500 159899000 169471400 179123000 189926300
1215.91 201566100 212776500 223932200 235246500 246727200 258098700
1221.69 268800600 278316600 286681000 294828300 301987600 307426100
1227.48 311689500 314637700 315770000 313112900 306176100 296740000
1233.26 285829700 275249500 265227600 255091800 243959900 243774200
1239.05 288878900 356214000 354035800 300629000 272623200 273543600
1244.83 283896500 292657900 308498900 337411300 352061000 339969400
1250.62 325638200 319787700 316131100 311155800 305796300 301249200
1256.40 295377900 288174500 281625800 273803300 262856400 250755300
1262.19 240141400 230055000 219226300 207840200 195902600 184027400
1267.98 172797100 162538400 154165500 146910900 140243600 133634600
1273.76 127536700 122909000 118734100 114316300 110116100 106212700
1279.55 102580800 98846160 95187160 91964530 88788430 85820580
1285.33 83744880 82130280 80456430 78741720 77145740 75754700
1291.12 74294690 72781300 71686220 71010750 70329690 69359000
1296.90 68023920 66539550 65641240 65347750 65214080 65561150
1302.69 66247810 66518200 66686280 66646780 66017660 65556240
1308.47 65627860 65821500 65926260 65892320 65704520 65525850
1314.26 65597890 65889280 66073030 66055620 66159890 66708880
1320.04 67841530 69166810 70026500 70460820 70560990 69914860
1325.83 68908330 68267850 68226080 68840700 69782820 70634470
1331.61 71327080 71706000 72024220 73082370 74959430 76825060
1337.40 77338650 76489650 76420570 77912450 79419000 80401860
1343.19 81628870 83120020 84907570 87080990 89205540 91082600
1348.97 92818890 95227030 98850800 102983000 106961000 110853000
1354.76 115127200 120112900 125522100 130923600 136448400 142536300
1360.54 149135900 156443300 164702800 173767100 183072400 192469900
1366.33 202248300 212681900 224491300 237856800 251529600 264791100
1372.11 277738600 290557300 303464700 316745400 330357500 343168000
1377.90 354200200 363154100 370095500 374456700 375543700 372453000
1383.68 364485800 352944300 339580800 325237100 313331500 311774400
1389.47 326347200 361495600 435109300 533531100 553471800 457775500
1395.25 357639200 320098600 320103000 330953000 345036400 362034600
1401.04 380566600 398026600 413180400 423396400 426072500 423690100
1406.83 418671000 410274700 397870300 382352200 364895200 345419700
1412.61 323983600 302058400 281364000 261698400 242933900 225927800
1418.40 210637800 197215400 185934300 176270000 167467700 159959100
1424.18 153905700 148401200 143597900 138745500 133002400 128509200
1429.97 126459100 125669400 125392200 125450100 125690000 125609200
1435.75 125892400 126025700 124965500 123935700 123615600 123300300
1441.54 122681200 122037800 121573500 121874400 123283700 127384000
1447.32 138198500 154209400 159369800 150641800 147576300 153244100
1453.11 150609600 132974200 111982400 99625370 95800030 94594260
1458.89 94139020 94049090 92903680 90683110 89054900 88407300
1464.68 88445260 88106500 87615110 87466500 87160380 86654400
1470.47 86623210 86805340 86814260 86930140 86740140 86296510
1476.25 85602980 84530020 82843170 80936980 78534140 75699690
1482.04 72842660 69597400 66384240 63530810 61355800 60109980
1487.82 59696380 59277120 58169390 57203110 56593940 54567880
1493.61 51204140 48515040 46845380 45543980 44565770 43549360
1499.39 42289440 41021290 39785020 38598280 37425420 36004500
1505.18 34430760 32960170 31534650 30027240 28550100 27082430
1510.96 25697850 24492490 23283300 22019680 20821970 19787880
1516.75 18828720 17699720 16555790 15572600 14737450 14027750
1522.53 13415810 12765810 12135830 11531730 10814530 10045120
1528.32 9422672 8912142 8448716 8149752 7880634 7383696
1534.11 6858372 6466284 6074844 5770088 5593808 5308026
1539.89 4997158 4744110 4526704 4330678 4107836 3846596
1545.68 3666562 3601528 3518522 3375984 3296142 3194314
1551.46 3011422 2859508 2800538 2778902 2707332 2546728
1557.25 2431920 2416984 2401460 2366130 2299366 2216782
1563.03 2198486 2187714 2127624 2006500 1891016 1889222
1568.82 1945370 1959824 1914232 1854006 1874940 1896330
1574.60 1858296 1778890 1815528 1915648 1848214 1748978
1580.39 1768168 1760532 1726576 1649690 1600610 1640748
1586.17 1712138 1807932 1881668 1845732 1799484 1818852
1591.96 1887674 1954864 1930836 1835946 1856174 1855634
1597.74 1759338 1730968 1748790 1792346 1859982 1798058
1603.53 1722820 1790502 1872054 1785550 1712730 1907458
1609.32 2017228 1809358 1658694 1613864 1551702 1541568
1615.10 1571432 1589116 1595206 1619128 1727398 1771504
1620.89 1730248 1659836 1577654 1485838 1454132 1509586
1626.67 1598670 1629766 1608344 1607496 1622504 1611204
1632.46 1568822 1487512 1436832 1469612 1492884 1458908
1638.24 1551496 1732188 1785132 1713386 1683572 1793416
1644.03 1887480 1789012 1715132 1821280 1910342 1831854
1649.81 1758406 1747286 1710566 1703612 1676828 1606668
1655.60 1644136 1707502 1711262 1726256 1811596 1850156
1661.38 1853430 1925260 1925500 1811374 1833064 1937702
1667.17 1988088 2074278 2169516 2171714 2194814 2267172
1672.96 2351182 2369366 2229070 2076542 2092930 2184816
1678.74 2242002 2259448 2247548 2227102 2215716 2219596
1684.53 2252702 2237496 2147368 2066776 2093298 2134466
1690.31 2139320 2097362 1989696 1914110 1939974 1984378
1696.10 1995564 1927942 1850146 1833428 1887522 2008262
1701.88 2041390 1915686 1799734 1714770 1640992 1646738
1707.67 1644976 1562656 1522858 1539204 1592298 1695126
1713.45 1785100 1889792 1952022 1841402 1664428 1537374
1719.24 1565596 1716914 1766864 1661396 1538510 1483644
1725.02 1462990 1438938 1444336 1467502 1494380 1512888
1730.81 1521446 1488382 1433708 1489162 1644516 1724360
1736.60 1754750 1835058 1972534 2027998 2020466 2066828
1742.38 2093858 2088240 2114612 2082846 2032154 2047394
1748.17 2118458 2136134 2117288 2199484 2245312 2150700
1753.95 2256434 2527590 2410086 2047378 2050274 2300376
1759.74 2422290 2491680 2635364 2695234 2651822 2624690
1765.52 2626366 2705794 2830736 2871662 2848550 2803158
1771.31 2743572 2665270 2575228 2454296 2380486 2377590
1777.09 2425384 2515714 2544382 2276286 1801594 1557916
1782.88 1581012 1599424 1541080 1522932 1561204 1530570
1788.66 1387428 1200046 1088424 1026700 993522 977812
1794.45 919204 819022 752404 649922 450132 278398
1800.24 209734 148744 50168-6816 37190 7028
1806.02-107014-196796-329550-470190-497776-516646
1811.81-620106-648718-563964-542670-657238-761550
1817.59-691376-611338-659386-804064-891098-803258
1823.38-718512-723918-717418-707052-760086-827698
1829.16-815478-760420-770362-786124-723700-720876
1834.95-809982-882338-881392-863740-885424-919182
1840.73-874946-777724-718480-697520-695522-754306
1846.52-786764-789500-790102-723116-693502-782406
1852.30-763050-648904-622166-665230-642260-527408
1858.09-435358-399310-378740-390500-376124-340400
1863.88-285422-167788-24972 91152 128786 133976
1869.66 158204 227326 368004 518964 642734 709866
1875.45 754160 804860 897708 1032598 1141428 1240132
1881.23 1407322 1686522 2019442 2301174 2507862 2726754
1887.02 3029156 3356360 3706778 4049818 4316546 4585304
1892.80 4984464 5445220 5882576 6255806 6625594 7014238
1898.59 7372028 7735970 8131876 8572292 8907584 9098860
1904.37 9353414 9659326 10005170 10377190 10674480 10889560
1910.16 11249340 11880060 12703270 13708520 14502020 14333470
1915.94 13523620 13174540 13556510 14179790 14674320 15036770
1921.73 15449020 15812840 16057470 16418000 16708570 16557480
1927.51 16283100 16325220 16744240 17379670 18277010 19471490
1933.30 19464500 17499420 15746660 15022810 14572360 14338530
1939.09 14267700 14286230 14462920 14752300 15019230 15023990
1944.87 14520020 13616720 12724880 12013300 11413330 10857140
1950.66 10357700 9811482 9200170 8670010 8218250 7761452
1956.44 7343026 6960900 6570708 6212910 5892208 5600456
1962.23 5415416 5227090 4978070 4810190 4678978 4408370
1968.01 4071218 3808272 3606704 3385234 3148008 2992742
1973.80 3028370 3115614 3097862 3018944 2780254 2381940
1979.58 2123816 2087480 2092392 2099094 2164372 2186742
1985.37 2204260 2244438 2209810 2130514 1969040 1746640
1991.15 1586340 1372014 1127476 1000134 860018 651288
1996.94 465354 311300 217336 106984-135882-393090
2002.73-464718-477440-637312-845296-973228-1037010
2008.51-996974-1031604-1183368-1176078-1027934-1028924
2014.30-1223450-1420992-1510762-1552574-1581168-1557204
2020.08-1466310-1430146-1465354-1465552-1432604-1441236
2025.87-1490352-1529446-1522798-1531344-1559790-1532730
2031.65-1468898-1416096-1411706-1466558-1474778-1444930
2037.44-1384502-1302314-1286590-1303362-1291338-1315946
2043.22-1400152-1412310-1362662-1390198-1321536-1119230
2049.01-1008940-1099652-1321038-1531428-1644138-1663642
2054.79-1441468-982400-678070-672184-751766-810652
2060.58-840716-806548-688070-660012-680494-602954
2066.37-506378-389296-363242-504954-558154-409570
2072.15-205066-294498-450562-199492 273134 442000
2077.94 280382 193196 383132 768076 977812 939400
2083.72 1059054 1476308 1665426 1480278 1582660 2194036
2089.51 2792832 2780866 2629494 2950454 3628644 3861570
2095.29 3595586 3669154 4329448 4813124 4607352 4480512
2101.08 5051322 5842432 5760954 5375992 5702812 6477852
2106.86 6744446 6351466 6391448 7152344 7558076 6926372
2112.65 6374122 6578078 6777790 6188450 5695440 6124192
2118.43 6901414 6846768 6436156 6830854 7702604 7744926
2124.22 7040190 6817646 7193434 7159646 6562516 6296502
2130.01 6426714 6204244 5558856 5179632 5170836 5036594
2135.79 4561108 4089688 3862738 3721044 3408998 3046686
2141.58 2720858 2481206 2356440 2303272 2349482 2248906
2147.36 1878752 1681596 1866256 1840726 1431660 1385882
2153.15 1826584 1819442 1341270 1433262 1982222 1865260
2158.93 1366282 1649594 2217948 1902406 1428510 1935694
2164.72 2398384 1813832 1529748 2322510 2632116 1969288
2170.50 1999546 2790624 2691506 2134452 2594924 3089776
2176.29 2349144 1811828 2487422 2791462 2301474 2461226
2182.07 3072810 2768728 2271034 2708010 2883606 2176696
2187.86 2039834 2490590 2193332 1645886 1783670 1876946
2193.64 1579086 1553530 1591830 1149276 832836 951728
2199.43 827722 578966 671728 684580 407120 238846
2205.22 280938 213818 101956 143864 184418 139480
2211.00 127848 155832 109638 54314 97914 113918
2216.79 105196 115662 102942 218764 417020 517248
2222.57 624294 741904 882574 1079320 1077608 968236
2228.36 1051288 1297190 1529532 1710328 1917368 2054834
2234.14 2163826 2355286 2604378 2946824 3208248 3259226
2239.93 3315222 3463926 3655960 3854332 4055652 4257948
2245.71 4463146 4682562 4923148 5198908 5429242 5463126
2251.50 5440016 5537264 5691088 5815224 5813414 5651084
2257.28 5551588 5737678 6138946 6450534 6480596 6359992
2263.07 6276636 6278454 6354208 6375340 6279716 6254670
2268.86 6533874 7046870 7316300 7073266 6865196 6890326
2274.64 6762756 6517676 6327388 6250678 6248324 6225432
2280.43 6268952 6227820 6089176 5976570 5756112 5495106
2286.21 5344974 5171338 4984256 4804916 4567648 4349662
2292.00 4117776 3829008 3684554 3657040 3521874 3336754
2297.78 3301174 3327352 3320848 3432088 3495522 3336338
2303.57 3280516 3374024 3502360 3547024 3630548 3859994
2309.35 4072798 4136428 4207248 4350758 4397020 4566578
2315.14 4837186 5067578 5143626 5320046 5539610 5772212
2320.92 5822720 5890192 6031172 6333324 6810558 7570456
2326.71 8462716 8682438 7937018 7357704 7369296 7664312
2332.50 8038892 8328164 8519790 8736778 8900830 9076628
2338.28 9143142 8994346 8734656 8475336 8202104 7762812
2344.07 7101510 6284574 5465262 4747524 4245730 4249022
2349.85 4752634 5436734 6146582 6894586 7610260 8244986
2355.64 8754094 9090172 9395390 9755328 10000780 10053030
2361.42 10031870 9944110 9801912 9634778 9354428 9012928
2367.21 8689494 8300096 7792146 7254138 6785676 6388110
2372.99 6113758 5918716 5705124 5459852 5242786 5094282
2378.78 5024498 4926808 4807504 4837700 4981812 5105106
2384.56 5212982 5303910 5321148 5321210 5341958 5358894
2390.35 5384048 5491982 5667472 5797616 5888898 6020836
2396.14 6175922 6251402 6177646 6048246 6061056 6250744
2401.92 6466444 6556884 6641306 6844610 6984040 6994048
2407.71 7050008 7184288 7344142 7453674 7431894 7351242
2413.49 7300500 7212658 7039674 6854018 6788236 6776276
2419.28 6718910 6597348 6398704 6261218 6134688 5909832
2425.06 5671102 5408702 5232504 5308750 5453114 5374614
2430.85 5253056 5226026 5182854 5184644 5218498 5233848
2436.63 5140952 4900474 4763718 4721902 4561738 4360708
2442.42 4263044 4171492 4087118 4076734 3979012 3809698
2448.20 3770580 3873428 3971554 3992892 4033490 4048180
2453.99 4023460 4094930 4147710 4061546 4023386 4094804
2459.77 4149292 4106762 4045542 3991776 3894608 3947280
2465.56 4128490 4135070 4025432 3974284 4089498 4254364
2471.35 4346766 4384940 4354726 4284232 4281064 4381264
2477.13 4513604 4578312 4442898 4080436 3884790 4175458
2482.92 4632466 4754346 4621370 4635642 4699492 4605068
2488.70 4394524 4111858 3999764 4085468 4172800 4151478
2494.49 3985554 3750048 3590692 3526594 3410034 3264286
2500.27 3215786 3164448 3116012 3084918 3092658 3181966
2506.06 3153118 2957954 2841338 2777806 2719190 2805884
2511.84 2925652 2766078 2623032 2781334 2885294 2755764
2517.63 2672688 2668932 2537382 2317440 2295756 2444052
2523.41 2549970 2540272 2447460 2372156 2340816 2291158
2529.20 2299576 2371046 2412970 2465372 2493092 2387370
2534.99 2267656 2230410 2245862 2286032 2349484 2420236
2540.77 2508338 2562254 2513612 2499456 2629282 2741380
2546.56 2828192 3012710 3158366 3129718 3055350 2962348
2552.34 2931004 3010928 3078980 3090666 3098342 3094818
2558.13 3142274 3251320 3326320 3309992 3411118 3610398
2563.91 3688166 3600656 3564258 3628484 3729274 3872830
2569.70 3926968 3892802 3938048 4067654 4166686 4337646
2575.48 4605698 4726976 4700472 4697766 4773098 4854798
2581.27 4930036 5044480 5216884 5367264 5542306 5658698
2587.05 5609728 5570762 5647540 5787914 5905410 5961656
2592.84 6170002 6490878 6729996 6769604 6658896 6585874
2598.63 6681084 6885236 7053190 7098528 7086786 7104808
2604.41 7214734 7339874 7377704 7401234 7480332 7709178
2610.20 7958910 8027452 8102992 8242826 8330154 8376382
2615.98 8491360 8680346 9017752 9501408 10027230 10330960
2621.77 10246300 9919614 9683552 9677982 9776606 9908658
2627.55 10153920 10423620 10710680 11024890 11255670 11328910
2633.34 11342390 11397210 11444060 11478490 11554100 11717110
2639.12 11963290 12137340 12294070 12468900 12589730 12729890
2644.91 12921270 13079440 13242920 13367530 13451160 13584340
2650.69 13785200 14007970 14230020 14375910 14388050 14302780
2656.48 14343550 14578840 14768760 14830770 14969160 15147450
2662.27 15269290 15356960 15430310 15540920 15705720 15756460
2668.05 15715510 15755890 15846970 15929680 15979410 16024410
2673.84 16140480 16244560 16258680 16263910 16356060 16486900
2679.62 16772820 17101730 17213740 17289730 17490580 17621820
2685.41 17619180 17622130 17754530 17949170 18185990 18445520
2691.19 18628530 18765560 18855490 18859000 19036890 19378760
2696.98 19666430 19958150 20311010 20627560 20918840 21173120
2702.76 21429490 21817620 22358730 22884450 23479150 24144500
2708.55 24523310 24534890 24717110 25231690 25809370 26296940
2714.33 26729580 27228220 27721240 28130760 28531560 28910490
2720.12 29407390 29914180 30241090 30415270 30470780 30593180
2725.91 31045630 31753630 32551100 33257940 33841500 34336830
2731.69 34765500 35281650 36012000 36784030 37516180 38264110
2737.48 38887300 39463310 40290570 41189670 42006090 42646230
2743.26 43110790 43524900 44026420 44384960 44542780 44794420
2749.05 45078530 45242080 45423060 45578450 45803340 46145730
2754.83 46520540 46937870 47429080 48065450 48732480 49089350
2760.62 49222340 49347540 49528290 49783540 50101300 50422240
2766.40 50804680 51244180 51711490 52245650 52880420 53414890
2772.19 53884620 54561180 55219780 55616880 56171480 57018200
2777.97 57914380 58620540 59151470 59642400 60105080 60299860
2783.76 60185750 60068980 60211070 60878670 62397760 64290780
2789.54 65795340 66804670 67685350 68731670 69883350 70882310
2795.33 71754240 72466110 73070920 73756770 74615700 75439940
2801.12 76059110 76498180 77091540 77813910 78479970 79148330
2806.90 79726050 80225780 80950050 81825810 82683830 83780500
2812.69 85297800 87032480 88785520 90391900 92191620 94425170
2818.47 96802440 98793260 100588600 102710300 105036300 107071900
2824.26 108653600 110027600 111543000 113435600 115970900 119143200
2830.04 122766800 126588500 130275600 133777900 137525900 141833500
2835.83 146681400 151780800 156945500 162147500 167167400 171815100
2841.61 176883000 182979900 189655800 196168000 202841000 210378300
2847.40 218606400 227010500 235591000 244636600 254297800 264353500
2853.18 274711800 285484300 296780700 308282000 319968400 332187100
2858.97 345611600 360248300 375671000 391381900 407251700 423318000
2864.76 438935500 452908600 464574100 473903900 481698500 489077300
2870.54 496327300 502954900 508731000 514297200 522200200 533782600
2876.33 547685800 561674600 575183200 591167700 611464600 631153300
2882.11 645072200 654698200 660452600 660527000 656983000 654305200
2887.90 656069800 663251300 674175500 685064100 692139400 694709600
2893.68 693506600 690964500 693066200 703864600 731384600 793160300
2899.47 857669400 851111000 793264300 753348800 741174800 738360600
2905.25 732982100 725395300 720181700 718984600 723375800 728540000
2911.04 721538000 702095000 683328100 671691100 665619700 662746100
2916.82 661829600 661996400 663010100 664316700 663813500 659887800
2922.61 653318700 646829500 641899900 637800900 634191400 629927200
2928.40 624442700 618851100 614085600 610579300 608783000 609736100
2934.18 612905600 614402000 612551700 610466800 611156300 614766700
2939.97 620512600 626980900 632743200 637212900 639410600 637900700
2945.75 635325000 636800800 644174800 656410900 671392000 685311900
2951.54 696042300 705769500 716775800 728994000 742260100 755753000
2957.32 767616400 776306800 783308000 791127100 801420300 814186800
2963.11 829982100 848824300 869663600 892476300 911826900 922946600
2968.89 932320300 946038200 956200500 951254000 938098800 930068300
2974.68 927730000 924497800 919183400 915644700 915255000 917953200
2980.46 915103300 901882900 902107300 926082500 950967800 964902700
2986.25 968677800 992034000 1030396000 975497500 857708100 797651500
2992.04 785565100 782227600 777485800 768932600 755215800 737880400
2997.82 718940200 697608500 675208100 653815800 632664800 611077700
3003.61 589010500 566705300 543945600 521470100 499411200 477521300
3009.39 455365600 433412800 412145900 392454500 373831000 355398900
3015.18 337222000 319654300 302459400 285699200 269518700 253999800
3020.96 239031900 224760900 210829600 197296800 184335200 172100200
3026.75 160229200 148523000 137211300 126992300 117483200 108281900
3032.53 99545860 91426440 83720330 76436320 69524970 63227330
3038.32 57487100 52231080 47488260 43082500 38803720 35063070
3044.10 31725200 28600190 25656020 23012160 20737290 18879220
3049.89 17235620 15503260 13779250 12516340 11454410 10315580
3055.67 9137638 8212196 7530424 7020050 6637768 6213632
3061.46 5661844 5336808 4948232 4491534 4131842 3911590
3067.25 3835168 3794760 3632992 3455592 3289844 3222300
3073.03 3284360 3364160 3330414 3222884 3075562 2954728
3078.82 2805224 2776384 2751128 2782494 2859978 2777322
3084.60 2714338 2846248 3032888 3074206 2893252 2839872
3090.39 2926342 3193558 3292764 3014240 2735118 2690936
3096.17 2831188 3058998 3058688 2951948 2947140 2969616
3101.96 2819738 2732772 2881866 3038806 2923390 2716246
3107.74 2638702 2693832 2814492 2895300 2890762 2848052
3113.53 2682640 2490354 2477970 2657830 2709154 2658592
3119.31 2714430 2753036 2589996 2414672 2471444 2705440
3125.10 2792970 2723038 2648074 2620692 2678526 2698866
3130.89 2531050 2578894 2776304 2725400 2544880 2513316
3136.67 2647626 2732202 2741594 2856252 2816974 2617552
3142.46 2500506 2562830 2833278 3137572 3144240 3064270
3148.24 2999888 2864858 2779330 2902298 2999356 3044452
3154.03 3143092 3355264 3526346 3423972 3354640 3392766
3159.81 3300480 3352266 3555474 3782446 4024200 4165836
3165.60 3996434 3920424 3985100 3936852 3938418 4016730
3171.38 4156852 4242340 4041970 3872930 3970060 4237968
3177.17 4486468 4643972 4813538 4928512 4874696 5031730
3182.95 5526490 5780704 5653004 5565148 5587010 5699524
3188.74 5853210 5987572 6132108 6316958 6561682 6740062
3194.53 6680540 6718638 6964006 7191148 7307776 7295252
3200.31 7405290 7762654 7961978 8098010 8447290 8681418
3206.10 8679054 8645362 8590082 8581994 8720064 8784854
3211.88 8712572 8766850 8959732 9197442 9192968 9188158
3217.67 9335562 9346454 9324450 9419728 9516258 9637432
3223.45 9744762 9634458 9343056 9225636 9176368 8966560
3229.24 8644046 8372898 8301262 8242488 7987754 7754302
3235.02 7497984 7214374 7121670 7263310 7009750 6462660
3240.81 6340304 6164130 5684258 5283484 4941660 4785216
3246.59 4724406 4612380 4447486 4097732 3647024 3521144
3252.38 3614952 3445282 3145998 2879980 2543212 2395574
3258.17 2374498 2070228 1701756 1457116 1181598 880096
3263.95 724910 659304 521396 614972 745010 565550
3269.74 275786-68300-462376-606318-486084-471388
3275.52-558012-560078-646080-769618-684086-658996
3281.31-1054368-1435774-1363120-1115114-1085592-1270562
3287.09-1376288-1269688-1135636-1172280-1301782-1436354
3292.88-1554296-1486326-1286968-1057538-969708-1151804
3298.66-1446116-1586276-1438014-1157394-1041008-1073180
3304.45-1135980-1122876-1048646-1092370-1281624-1376646
3310.23-1371202-1455212-1500492-1446466-1562684-1635302
3316.02-1322198-1128876-1355962-1606952-1721032-1661482
3321.80-1461446-1198828-1113940-1244088-1265628-1270594
3327.59-1291374-1170990-1205952-1275444-1152218-1191064
3333.38-1392884-1323440-1051688-928256-894770-898582
3339.16-1056186-1343884-1349218-903676-682188-702292
3344.95-819390-859606-642094-543390-603258-690066
3350.73-707772-662514-693842-649388-585282-569612
3356.52-373586-136564-57130-62120-19680-60308
3362.30-226904-29598 448896 680408 665812 699756
3368.09 736636 783386 1002436 1187574 1329826 1662810
3373.87 1737734 1543470 1613900 2006268 2456566 2762362
3379.66 2851596 2891892 3061332 3272938 3426374 3560396
3385.44 3645146 3576436 3531146 3686364 3786208 3750582
3391.23 3783020 3925348 3937168 3895712 4067596 4285380
3397.02 4322902 4322654 4501818 4684304 4809740 5144486
3402.80 5380480 5344258 5341228 5197354 4785410 4841234
3408.59 5469254 5738324 5653678 5800258 5910392 5994960
3414.37 6118878 6000852 5644124 5288894 4988718 4817100
3420.16 4842078 4856184 4626814 4500788 4568730 4472784
3425.94 4183082 4073544 4153902 4060342 3901146 3879658
3431.73 4000766 4185810 4156152 4018868 3952030 4092488
3437.51 4326532 4388136 4311096 4165272 4238172 4357732
3443.30 4322840 4585088 4925202 4932148 4738552 4634402
3449.08 4750074 5123618 5456464 5439300 5459454 5586948
3454.87 5606890 5576384 5378772 5136822 5256976 5715258
3460.66 6294120 6613982 6407914 6314396 6582450 6778062
3466.44 6742276 6560340 6401838 6535344 6969264 7605508
3472.23 8657374 9460700 8831632 7849652 7651710 7394294
3478.01 6946462 6852278 6941870 7015200 6905466 6737598
3483.80 6681616 6708272 6832566 6779316 6458268 6220064
3489.58 6146420 6125232 5970144 5901546 6098342 6008160
3495.37 5547176 5356744 5376982 5173212 4891104 5012134
3501.15 5457898 5714712 5477544 4986264 4600094 4552664
3506.94 4740522 4794486 4541840 4249834 4132100 4188788
3512.72 4394680 4342238 4030152 3820470 3666450 3638292
3518.51 3720848 3552696 3199050 3036022 3076856 3160762
3524.30 3245806 3265548 3179782 3214652 3283174 3487432
3530.08 3882360 4117286 4085674 3893906 3740732 3753896
3535.87 3805520 3664956 3554140 3666522 3644882 3347202
3541.65 3253816 3555232 3812468 3874944 3898088 3723746
3547.44 3413490 3424732 3584552 3561556 3490740 3548152
3553.22 3696976 3816188 3763480 3658784 3837570 4080608
3559.01 3979664 3927880 4182258 4436432 4415620 4342488
3564.79 4436910 4530274 4556292 4488812 4345614 4083740
3570.58 3514534 2995100 3119626 3448882 3387866 3265018
3576.36 3299196 3311882 3493654 3688232 3482572 3218460
3582.15 3328826 3788972 4236554 4381654 4295852 4241338
3587.94 4495420 5040890 5630116 6193248 6694160 7150948
3593.72 7507728 7628688 7651234 7884254 8362796 9033372
3599.51 9706656 10140960 10486380 10945850 11534400 12125790
3605.29 12560650 13058190 13904240 14824250 15734790 16792790
3611.08 18029420 19365440 20813140 22396200 23879140 25197070
3616.86 26616140 28119810 29563990 31114450 32862620 34842610
3622.65 37259510 39698100 41585960 43311540 45356640 47609260
3628.43 49968880 52594830 55735630 59178400 62873340 67015720
3634.22 71250240 75205260 79241310 83902980 89282470 94964430
3640.00 100655300 106349400 112207300 118424400 125059600 131574500
3645.79 137636000 143750900 150065500 155789700 160693400 165512000
3651.57 170598800 176245900 185835300 198788600 206567200 214406000
3657.36 226194400 227081900 224530800 234043800 240945300 234614000
3663.15 228420500 228345300 229931700 230890600 230756700 229654500
3668.93 228923300 228701800 227703600 227725300 237571400 271336500
3674.72 314411600 303078400 237925200 192466900 181537500 182679300
3680.50 188528700 200581300 214040400 214647900 204768800 198300000
3686.29 196396900 195140500 193192500 190429100 186520000 181301700
3692.07 174539800 166420900 157456800 148098900 138279100 128283100
3697.86 118599600 109219200 99850560 90585320 81723380 73689980
3703.64 66571530 60453550 55088620 50114840 45566070 41697460
3709.43 38385630 35115810 31532420 28172080 25574320 23630250
3715.21 22008640 20852110 20149860 19383060 18219470 16736280
3721.00 15217480 13993230 12995680 12207760 11548510 10909290
3726.79 10345730 10076960 9836972 9252958 8758346 8576202
3732.57 8239828 7929078 7858800 7728724 7299038 6719414
3738.36 6310366 6247650 6298122 6174954 5862968 5735732
3744.14 5820748 6044976 6177608 6085796 6021822 6242994
3749.93 6608152 6758162 6653230 6600546 6504192 6226332
3755.71 5932514 5932944 6021342 6034298 6193580 6210296
3761.50 5815404 5619278 5740348 5827302 5656464 5327478
3767.28 5035330 4827976 4808812 4938166 5224200 5535074
3773.07 5630636 5679940 5769002 6021130 6358564 6561782
3778.85 6640456 6763372 7050070 7560342 8034056 8050658
3784.64 7962876 8176908 8452904 8664896 8655034 8408476
3790.43 8039756 7880290 7922352 7837698 7599310 7301772
3796.21 7017576 6844968 6664546 6625308 6687552 6701522
3802.00 6830664 6903244 6780144 6749242 6891844 7049746
3807.78 7076728 7103586 7214434 7367060 7426400 7416940
3813.57 7434538 7361688 7001294 6772316 6980718 7224638
3819.35 7423662 7611038 7642844 7543502 7489840 7700248
3825.14 8089232 8511096 8891964 8978260 8860018 9140494
3830.92 9985474 11052830 11207950 10553820 10252950 10197610
3836.71 9924656 9633384 9726860 10024240 10036180 9948980
3842.49 10202310 10582560 10694570 10707650 10835660 10990540
3848.28 10882480 10444580 10206170 10304180 10439620 10537120
3854.07 10452680 10259310 10295200 10337460 10104320 9878508
3859.85 9898214 10019850 10144110 10254670 10179710 9958096
3865.64 10076290 10491560 10367470 9529810 8679940 8470472
3871.42 8787000 9080110 9162244 9225800 9213442 9084240
3877.21 8927228 8790688 8635320 8577278 8741296 8853970
3882.99 8960250 9240152 9779594 10221630 9708992 8513858
3888.78 7601194 7382202 7540738 7627578 7444294 7213840
3894.56 7153304 7176802 7123978 7023030 6896556 6767550
3900.35 6722606 6584582 6395620 6369262 6370390 6239642
3906.13 6132282 6208564 6245586 6119242 5829204 5631722
3911.92 5748230 5891900 5843686 5555358 5283070 5264500
3917.70 5184258 4967348 4742042 4712622 4856718 4980150
3923.49 5018666 4896400 4623658 4467164 4498304 4304152
3929.28 3851634 3658910 3707638 3854996 4053296 4124596
3935.06 3998624 3717784 3495002 3540794 3782788 4022340
3940.85 4039584 4014596 4016936 3883014 3791576 3898912
3946.63 4257686 4600280 4374400 3998998 3989822 4098374
3952.42 4122770 4231602 4334718 4378456 4537066 4661646
3958.20 4556284 4583606 4936692 5178828 5095846 4986136
3963.99 5106588 5196606 4994774 4981650 5300980 5514052
3969.77 5414684 5219706 5345304 5637858 5641944
##END=
