##TITLE=Ethanol
##JCAMP-DX=4.24
##DATA TYPE=INFRARED SPECTRUM
##CLASS=IUPAC A
##ORIGIN=NIST, Anayltical Chemistry Division, 301-975-3108
##OWNER=COPYRIGHT (C) 1998 by the U.S. Secretary of Commerce
##DATE=98/10/1
##$SPECTRA VERSION=1.00
##$UNCERTAINTY IN Y=2.0 % relative (B=1.0E-04,C=2.9E-10,D=2.7E-14)
##CAS NAME=Ethanol
##CAS REGISTRY NO=64-17-5
##MOLFORM=C2 H5 O H
##MP=-117.3 C
##BP=78.5 C
##$NIST SOURCE=QUANT-IR
##SPECTROMETER/DATA SYSTEM=IFS66V (Bruker)
##INSTRUMENT PARAMETERS=KBr Beam splitter; MCT Detector; Multipass cell
##STATE=gas
##SAMPLE DESCRIPTION=Ethanol Primary Gas Standard
##PRESSURE=101.3 kPa
##TEMPERATURE=23 C
##SAMPLING PROCEDURE=1 L/min Flow
##RESOLUTION=1.9290
##DATA PROCESSING=Happ Genzel Apodization
##XUNITS=cm-1
##YUNITS=(micromol/mol)-1m-1 (base 10)
##XFACTOR=1.0
##YFACTOR=2.2737E-13
##DELTAX=0.9645
##FIRSTX=574.687
##LASTX=3974.595
##FIRSTY=2.46E-06
##MAXX=3973.63
##MINX=574.69
##MAXY=.0003113
##MINY=-4.02E-07
##NPOINTS=3527
##XYDATA=(X++(Y..Y))
574.69 10853400 10642770 12241480 11060150 7789694 7674724
579.51 8235208 9278802 10882450 12221860 12019770 11079180
585.29 9439368 7552034 9550240 10549730 10004760 10484840
591.08 10232220 10419780 10589720 10708710 11429060 12182560
596.86 11774570 11090680 11456440 11630560 11332560 11354590
602.65 10942570 11727790 12803530 12792690 12211020 12254720
608.44 12349230 11804470 11250000 11073900 11149390 12082640
614.22 11767180 11191050 12455150 12246320 12008510 12783560
620.01 13300910 12771000 11879040 11611240 11343760 11657450
625.79 12042270 11835820 11064040 10745260 10993860 11072570
631.58 10827050 11442420 11174870 10732120 10940630 11058890
637.36 10909730 10834750 10909580 11058440 10571740 9844344
643.15 10291750 10364960 9807288 9301550 8957836 9189488
648.93 9004294 8400718 7670268 7206754 7444254 7185708
654.72 7176446 6659714 6977742 7986102 7667048 7388530
660.50 7692742 7498548 6837044 6402156 6811486 7626286
666.29 11365400 11694980 8435224 6724154 6458808 6747884
672.08 6153314 5815688 5899190 6160010 5515768 5423616
677.86 5717584 5531676 5534678 5681340 5125062 5884884
683.65 6102604 5623680 4340880 4258678 4697256 5200264
689.43 4884204 4095376 3394338 3717564 4143242 3631682
695.22 3305280 3746136 3688262 2942746 3084536 3715644
701.00 3609868 3190308 2820448 2626790 2400658 2249062
706.79 2054590 2443698 2646514 2789284 2456006 2030862
712.57 1748748 2121154 2169688 1961932 1735870 1788356
718.36 1869076 2290632 2269564 1930508 2466094 2688572
724.14 2800906 3028258 2915204 2808320 2304230 2043870
729.93 2640466 2892168 2122904 2252932 2673080 2905178
735.71 2965900 2489372 2375896 3007938 3494584 3369922
741.50 3128440 3148998 3593066 3839980 3683362 3793918
747.29 3450964 3377986 3421372 3597960 3861602 4075798
753.07 4222372 3973164 4187322 4634814 4613888 5175452
758.86 5578170 5775710 5290638 5638770 6713736 7203516
764.64 6971884 6892176 7236404 8046428 8805384 9094056
770.43 9053244 9504774 10342060 10820260 11339130 11298190
776.21 11457690 12711320 13280200 13374400 14007480 14638440
782.00 15032370 15753900 16268880 16382770 16361600 16581250
787.78 16919150 16942010 16488220 16151620 16532260 16974820
793.57 17295840 17101690 17304760 19727360 19848540 18989050
799.35 24486580 27572550 22319700 19077730 20119600 21793680
805.14 19830480 18067800 17926180 17837480 18134040 19633890
810.93 20485970 20619700 19466590 18162790 17903230 18069870
816.71 17767740 17771560 18173400 18286340 17780390 17534240
822.50 17385770 16963950 17068200 17408060 17505430 17412600
828.28 17147740 16939570 17142630 17173600 17297780 17411210
834.07 17953510 18817830 19264310 19659300 20138310 21151260
839.85 22449680 23856610 25279860 26946600 28908730 31103210
845.64 32967000 35930230 39529460 42971440 46527510 50566720
851.42 55589150 60702440 66336860 72521590 78849230 85766670
857.21 93209940 101210000 109299300 116926700 124413900 132618800
862.99 140480600 147430700 154018500 159058100 162818700 165263500
868.78 167188700 167246800 164734400 160722500 156454800 151493900
874.57 146739300 144778400 151473000 197285300 239858400 190249300
880.35 157019700 173463200 181232900 167425400 161927500 161948200
886.14 162513800 164575000 169914000 184552500 219680900 228074500
891.92 202804200 189190600 185987600 187210300 188108000 187468900
897.71 184911100 181316400 175950200 170189900 162876900 154693300
903.49 146263500 138232300 129001400 119641900 110535100 101660600
909.28 93126400 85824100 78414740 71461690 64818420 59442940
915.06 54547500 49980990 45789610 42302920 39053460 36683550
920.85 34401850 32543350 30555820 29284430 28103520 27102210
926.63 26060090 25426560 24778290 23836390 22749500 22123430
932.42 21572270 21341090 20682220 20336920 19982960 19755960
938.21 19368670 19087580 18778530 18497780 18284720 18234540
943.99 17916430 17840850 17558740 17616810 17393900 17414260
949.78 17439830 17610400 17766910 17890830 17709950 17844700
955.56 18173750 18753430 19090140 20005110 20746150 20993100
961.35 21292250 21782090 22137940 22727540 23558780 24176870
967.13 24790160 26015120 27050690 28437010 29819170 30904610
972.92 31722200 33207810 34774840 36072420 37301850 39140430
978.70 41230820 43364420 45450010 47773280 50330780 53248040
984.49 55985940 59246880 62727920 66980690 71254910 75826950
990.27 81086720 86905860 92622490 98481720 105348700 113100800
996.06 120904200 129970800 140000600 150340600 160873900 172880600
1001.85 187122500 204135700 219574400 231598600 243711400 257409800
1007.63 272094700 288977600 306638900 324061500 340410900 354697200
1013.42 369668400 383058500 393152900 400572200 409277300 415624400
1019.20 419103200 425572300 433200300 439495400 447622600 475718100
1024.99 548661100 679279600 727281100 600847000 518037300 532100100
1030.77 567729300 605030100 638724200 682069600 746082800 843707500
1036.56 909618500 895067100 892547900 926847600 959854500 987180000
1042.34 1015059000 1039710000 1063593000 1090072000 1102015000 1105700000
1048.13 1119620000 1137542000 1144280000 1153562000 1155183000 1144224000
1053.91 1142392000 1164235000 1216354000 1250089000 1165317000 1060723000
1059.70 1020380000 1017252000 1044106000 1095220000 1176489000 1312441000
1065.48 1369353000 1247242000 1095785000 1033833000 1046775000 1071755000
1071.27 1099188000 1120887000 1136353000 1137919000 1133931000 1124497000
1077.06 1105596000 1078499000 1042398000 1000644000 958147200 912714200
1082.84 871287400 828899500 786263800 744125500 701380000 676852400
1088.63 657752200 594322500 514181700 475549400 459686400 447262300
1094.41 436709800 433694200 428761600 421451100 417593000 413061900
1100.20 406144700 397803000 389566500 379035500 366019500 350070800
1105.98 333763600 317520800 301023000 285037500 266997800 247206800
1111.77 231368200 219422900 207816500 191359800 176891600 168054000
1117.55 158135200 147928100 138411400 131493600 125073000 119478800
1123.34 114634900 110404000 105936400 101421400 97574260 93657100
1129.12 89910940 86669990 83032390 80268020 77892740 75081020
1134.91 71413020 68658780 66237300 63529860 61274580 59907280
1140.70 58191650 55542520 53551570 52706330 50939560 49174440
1146.48 47999320 47106570 46196830 45977610 46737900 47985730
1152.27 47293700 45645600 45017520 44467370 43831920 43698010
1158.05 43561170 43117210 43209980 43487350 43308830 43563180
1163.84 44287650 45219270 44972230 44629320 44653600 44760350
1169.62 44598250 45223310 46293760 47062750 47362110 48094460
1175.41 49054800 50311330 51148380 52360470 53925000 55331890
1181.19 56768650 58409400 59835910 61351340 62800340 64505880
1186.98 65949280 67338800 68676940 70426970 72771980 75527550
1192.76 77879860 80289820 82586960 85108000 87088830 89041890
1198.55 90621830 92708500 95239670 98457340 101774400 105746300
1204.34 110346100 114824700 119897300 124639400 129992000 136994200
1210.12 143409300 151236700 159487800 169763000 178698700 189802100
1215.91 201714900 212765700 223888000 235234700 246691800 258277800
1221.69 268943900 278677000 286531700 295069100 302337800 307596100
1227.48 311906700 314939000 316359600 314219700 306216700 297453200
1233.26 285268000 275585700 264703600 256018100 242908100 235050800
1239.05 278435200 376294400 364986300 291336500 268238900 271438600
1244.83 285503300 291388000 304309100 340441900 359246000 338744600
1250.62 323891700 319448000 316651200 311162900 305503900 301533400
1256.40 295866100 287673000 282007900 274409800 263223700 250170900
1262.19 240168400 230191400 219344000 207910800 195980300 183759000
1267.98 172844600 161931300 154162100 146667300 140354500 133549500
1273.76 127178000 122835000 118881000 114182400 110136200 106080000
1279.55 102675400 98816150 95082360 91962110 88823420 85556030
1285.33 83702540 82145290 80475860 78715080 77094390 75769110
1291.12 74347640 72661780 71613740 71002520 70410260 69399430
1296.90 68114600 66374180 65521610 65361400 65123360 65423790
1302.69 66433750 66475770 66704450 66830600 65951230 65425520
1308.47 65630620 65835410 65952950 65924380 65711200 65467200
1314.26 65547490 65914170 66135070 66021350 66086290 66580410
1320.04 67790540 69285550 70114810 70462300 70757810 69981870
1325.83 68814300 68170220 68089060 68775240 69826980 70644550
1331.61 71393850 71761870 71842580 72919580 74929570 77097170
1337.40 77713930 76270100 76029050 77974500 79588230 80281300
1343.19 81607010 83080500 84788060 87133740 89226050 91161980
1348.97 92686900 94947650 98771980 103047200 106976500 110800500
1354.76 114950700 120057500 125518100 130958300 136269500 142511300
1360.54 148973000 156295000 164508600 173768800 183061800 192397500
1366.33 202151500 212445300 224110800 237864600 251624900 264837600
1372.11 277777400 290521000 303431900 316586800 330556200 343471000
1377.90 354617500 363452200 370557000 375050400 376217500 373479600
1383.68 365059300 353275700 339725800 325185500 311242200 308849000
1389.47 323240200 354902900 425050300 549746700 582729300 454117400
1395.25 343148400 314195600 318907600 330556900 344448300 361671200
1401.04 380891500 398349600 413955800 425071600 426885600 424004800
1406.83 419310100 411027200 398463800 382589200 365293900 345797400
1412.61 324126600 301707300 281202700 261626200 242516500 225686900
1418.40 210291500 196818200 185615200 176190400 167243600 159590400
1424.18 153940200 148194200 143563900 139099700 132716000 127930500
1429.97 126341300 125527300 125413300 125299900 125900200 125442100
1435.75 125859600 126423300 124855900 123799600 123585600 123455600
1441.54 122573800 122143800 121294800 121830500 122811900 126282500
1447.32 136280800 156653400 163274800 148487900 145244600 155182400
1453.11 154164300 133393100 110027500 97773890 95750270 94341510
1458.89 94125620 94169660 93334620 90327160 89045620 88081570
1464.68 88708700 88059060 87545610 87489940 87258710 86514300
1470.47 86548240 86952530 86646910 87124520 86674330 86434660
1476.25 85563710 84766260 82772720 81070100 78655610 75591360
1482.04 73038680 69503040 66385330 63359070 61225420 59896340
1487.82 59716160 59458880 58158820 56971820 56982140 54884160
1493.61 50993340 48280100 46860080 45423160 44606900 43600820
1499.39 42284990 41006330 39794010 38558550 37509930 36021220
1505.18 34411510 32931590 31584640 29990780 28569400 27063410
1510.96 25653390 24497410 23308220 21993480 20805410 19739380
1516.75 18907310 17676860 16537980 15529360 14736400 13981340
1522.53 13454050 12743930 12132950 11552910 10840990 9996716
1528.32 9408278 8911842 8413048 8123706 7960738 7373266
1534.11 6825282 6472812 6073342 5706508 5659260 5286508
1539.89 4999318 4726246 4532950 4323550 4134576 3816328
1545.68 3649370 3596046 3554348 3336462 3314656 3208344
1551.46 3010244 2830314 2801870 2779254 2740714 2528456
1557.25 2409226 2421410 2407024 2366074 2315830 2187422
1563.03 2207742 2190346 2146670 2004618 1867126 1870610
1568.82 1967502 1957322 1938764 1810090 1897062 1889922
1574.60 1890602 1736270 1801098 1958054 1867036 1690732
1580.39 1808216 1738536 1757574 1631122 1588052 1630760
1586.17 1716494 1794342 1926642 1830566 1796914 1797554
1591.96 1898898 1957806 1974530 1777410 1877392 1879392
1597.74 1739012 1718062 1759342 1760772 1913458 1790886
1603.53 1691634 1778034 1923600 1789162 1633954 1919254
1609.32 2124836 1757374 1647960 1620424 1544278 1522186
1615.10 1591564 1571758 1619776 1566030 1770696 1769144
1620.89 1749934 1645508 1597536 1460460 1446694 1491766
1626.67 1621772 1635392 1606814 1596104 1638080 1605848
1632.46 1588930 1473584 1423572 1461024 1529780 1413278
1638.24 1534574 1761188 1818296 1697464 1656046 1781186
1644.03 1956114 1769070 1675406 1817144 1967768 1814306
1649.81 1744248 1760008 1702214 1697376 1711802 1555666
1655.60 1656998 1711390 1723116 1689724 1838766 1854306
1661.38 1834480 1930704 1979056 1753330 1826772 1953468
1667.17 1982006 2056054 2213490 2147682 2194962 2257518
1672.96 2363680 2405090 2240150 2023690 2089240 2189300
1678.74 2254510 2258488 2257108 2214634 2226674 2195942
1684.53 2277148 2241616 2162244 2022234 2108186 2132102
1690.31 2153186 2107902 1992274 1876682 1952922 1976488
1696.10 2025506 1922150 1840134 1820742 1869978 2021044
1701.88 2091382 1895358 1798428 1717280 1619790 1643602
1707.67 1677772 1540316 1516478 1535124 1576454 1704520
1713.45 1781356 1883626 2006782 1839924 1664410 1501410
1719.24 1534664 1742692 1805130 1657114 1526028 1471848
1725.02 1475222 1422192 1450072 1458696 1504556 1505276
1730.81 1536890 1492044 1417118 1449426 1684158 1720546
1736.60 1756306 1803862 2005848 2037818 2004422 2067446
1742.38 2116384 2057344 2147664 2075512 2026286 2024606
1748.17 2138472 2148466 2086798 2198350 2305498 2092694
1753.95 2196208 2631760 2485536 1931012 2006168 2342824
1759.74 2437848 2453948 2666526 2716406 2642122 2622584
1765.52 2613598 2683452 2865116 2871218 2861928 2793866
1771.31 2760346 2651472 2599532 2431464 2374574 2364102
1777.09 2420412 2513084 2611150 2335430 1735306 1498716
1782.88 1595362 1617538 1533578 1498592 1587748 1543070
1788.66 1410970 1165700 1092944 1013218 995212 979736
1794.45 940680 795908 765758 671220 449188 242782
1800.24 221734 149718 56144-51474 70132 23334
1806.02-121870-184050-318946-506812-496990-488120
1811.81-638134-684420-539638-519072-644748-822338
1817.59-679396-587750-636868-810650-942690-793664
1823.38-692696-735098-719126-691558-752752-850978
1829.16-823842-744996-759004-823834-695632-707592
1834.95-807718-908452-875580-862190-870504-947866
1840.73-878764-774976-699858-712616-662166-776558
1846.52-785292-788954-804300-729310-638542-830072
1852.30-777652-629026-600232-686352-661432-523218
1858.09-414988-410362-358302-406544-375940-340630
1863.88-303434-168610-24392 111860 134570 125468
1869.66 158338 201144 377798 513956 664222 706206
1875.45 758318 794218 886586 1041748 1146126 1225424
1881.23 1385574 1671520 2036442 2313262 2513318 2694856
1887.02 3039836 3341654 3712278 4062804 4329130 4540440
1892.80 4985640 5441314 5905476 6251202 6617504 7028046
1898.59 7365754 7734022 8116300 8587382 8961624 9055692
1904.37 9363458 9640242 10005440 10383860 10709980 10852260
1910.16 11194010 11852320 12664810 13705510 14733590 14480550
1915.94 13398660 13012760 13531240 14207490 14716430 15003700
1921.73 15461360 15854690 16016680 16407890 16837240 16569190
1927.51 16216810 16246330 16714900 17352890 18150060 19661320
1933.30 20036150 17316630 15519410 15030830 14513980 14312590
1939.09 14262830 14246230 14446740 14747240 15067410 15121590
1944.87 14615170 13589580 12695460 11983830 11422420 10828800
1950.66 10377160 9827940 9180878 8646884 8234186 7744518
1956.44 7339262 6963034 6568490 6195728 5905600 5559286
1962.23 5426128 5245058 4958004 4789326 4725614 4414670
1968.01 4056684 3788836 3620798 3384310 3143056 2941276
1973.80 3019824 3148842 3096008 3048094 2831822 2338182
1979.58 2078018 2083186 2105832 2067086 2190358 2182696
1985.37 2191272 2270222 2210094 2144596 1995318 1710992
1991.15 1610438 1384882 1087574 1008562 883674 633182
1996.94 471762 288256 222468 135752-120420-450608
2002.73-472332-441244-620594-881116-961350-1082706
2008.51-970056-995644-1225036-1218702-982142-991214
2014.30-1221266-1455150-1509020-1559576-1582212-1585588
2020.08-1443886-1416340-1473484-1479450-1415348-1438714
2025.87-1485718-1549010-1512412-1526348-1572448-1543714
2031.65-1459614-1417314-1382860-1492858-1472174-1453556
2037.44-1392496-1284910-1276468-1320102-1278182-1302270
2043.22-1410858-1446168-1313832-1428188-1349764-1101540
2049.01-961038-1080900-1317184-1563614-1642862-1714804
2054.79-1503740-944094-601944-675748-747950-825324
2060.58-837266-847582-649786-649882-712620-597224
2066.37-512224-387438-294688-553580-576548-458300
2072.15-105626-279392-550912-256006 351204 523196
2077.94 246490 145638 326484 813644 1048650 894386
2083.72 981896 1513748 1805766 1365362 1506652 2139548
2089.51 3003618 2764182 2552252 2825296 3756240 3994928
2095.29 3493172 3542224 4334046 5046470 4528764 4369770
2101.08 4914356 6133588 5803814 5192958 5608882 6570358
2106.86 6969680 6181458 6260864 7157260 7916720 6800290
2112.65 6257184 6488376 7091490 6080466 5547834 5955234
2118.43 7195686 6893202 6259488 6665812 7942092 7919928
2124.22 6902386 6656088 7306430 7324610 6442442 6201852
2130.01 6509018 6336306 5457390 5108712 5187492 5144516
2135.79 4531116 4050694 3820452 3794024 3393870 3049854
2141.58 2703830 2450808 2361498 2260140 2384168 2321668
2147.36 1847678 1560436 1930450 1954008 1344194 1231586
2153.15 1959390 1959834 1181422 1291778 2178034 1984238
2158.93 1135736 1559792 2478024 1959084 1132286 1938642
2164.72 2722368 1726734 1208676 2464412 2932664 1751268
2170.50 1765632 3069216 2838480 1805092 2574592 3459612
2176.29 2298734 1430348 2642780 3028044 2095556 2304248
2182.07 3364218 2828800 1962470 2787376 3172980 1978872
2187.86 1859114 2737478 2261648 1411322 1834270 2001350
2193.64 1477204 1513734 1756986 1104416 692682 1049638
2199.43 874596 449496 717036 757034 379276 168174
2205.22 333754 223036 54012 150762 211098 125138
2211.00 115480 176374 119750 15032 117630 119560
2216.79 89290 139882 66434 192748 459364 501386
2222.57 622856 751202 840998 1142716 1104398 913378
2228.36 1023408 1299014 1554892 1683502 1945204 2062212
2234.14 2136296 2358402 2573096 2958166 3273358 3238554
2239.93 3302242 3451462 3661612 3848748 4059760 4254222
2245.71 4463808 4675664 4919698 5192472 5487070 5470116
2251.50 5406988 5529308 5697046 5833646 5859346 5635840
2257.28 5492246 5687002 6161716 6512568 6511890 6340024
2263.07 6269580 6251554 6372304 6401254 6276560 6181638
2268.86 6484614 7078928 7468278 7035476 6793752 6949666
2274.64 6783834 6497064 6316864 6214652 6287354 6176324
2280.43 6306820 6247690 6068166 6005582 5777132 5444564
2286.21 5373180 5164958 4979646 4824208 4559970 4342324
2292.00 4153820 3781704 3659552 3685966 3544530 3287108
2297.78 3295022 3346168 3289010 3420038 3590684 3270828
2303.57 3273844 3349730 3537592 3541550 3579538 3884190
2309.35 4084446 4174734 4117072 4469294 4275368 4634982
2315.14 4746520 5220400 4996670 5430046 5414488 5933486
2320.92 5709762 5969480 5919290 6378326 6693938 7571644
2326.71 8528940 9006082 7790388 7280142 7290574 7684034
2332.50 8023406 8393164 8459462 8798452 8853626 9120900
2338.28 9175790 9022994 8724000 8474124 8234902 7807918
2344.07 7129794 6287130 5437524 4731588 4134836 4150414
2349.85 4727950 5443486 6128800 6905878 7624490 8262086
2355.64 8798278 9091806 9372850 9778956 10049760 10052580
2361.42 10047910 9956942 9795122 9665238 9367944 8996526
2367.21 8708900 8320884 7806246 7225166 6789830 6350600
2372.99 6105938 5918690 5720824 5446066 5237748 5068496
2378.78 5035848 4942484 4766198 4815624 4992550 5108834
2384.56 5207420 5329294 5317748 5317644 5342010 5362822
2390.35 5365072 5473284 5683866 5806342 5877996 6011924
2396.14 6193046 6280934 6197680 6009986 6028344 6239138
2401.92 6506512 6557460 6602814 6861336 7024524 6969664
2407.71 7039812 7176136 7353074 7482292 7447446 7331534
2413.49 7315432 7225698 7052818 6816936 6780238 6791578
2419.28 6721362 6627636 6374308 6252446 6173702 5891728
2425.06 5691830 5391756 5177934 5279984 5528276 5372742
2430.85 5219236 5249224 5162158 5181184 5223140 5243240
2436.63 5196426 4857954 4741384 4756612 4575430 4323226
2442.42 4271832 4176968 4054988 4104582 4002676 3771926
2448.20 3745152 3870144 4003334 3972294 4043402 4065094
2453.99 3992678 4092378 4198364 4035744 4002924 4094884
2459.77 4178626 4104996 4037042 4015172 3864026 3893814
2465.56 4199494 4138200 4030024 3921074 4090180 4269942
2471.35 4355398 4395754 4370098 4264826 4262134 4371710
2477.13 4529060 4606942 4510946 4045792 3770926 4135788
2482.92 4720286 4816740 4565728 4620324 4754190 4601548
2488.70 4439282 4055714 3964234 4086344 4196816 4177434
2494.49 4005770 3727400 3569234 3537730 3433764 3216464
2500.27 3241016 3149990 3120672 3077868 3068406 3200520
2506.06 3214328 2909554 2847088 2776196 2696798 2765530
2511.84 3027860 2750366 2541880 2794718 2962548 2718546
2517.63 2659372 2691724 2579556 2252810 2267834 2453818
2523.41 2577382 2553488 2447604 2350348 2361980 2269976
2529.20 2286256 2382556 2411494 2455512 2540298 2377578
2534.99 2254562 2216006 2249312 2273706 2356908 2408850
2540.77 2515942 2586154 2515530 2447254 2652834 2744934
2546.56 2805004 3006766 3221774 3109106 3080462 2937780
2552.34 2912858 3006244 3108434 3068526 3124570 3063768
2558.13 3147170 3234154 3382406 3254794 3402314 3625098
2563.91 3743494 3572134 3544994 3631158 3707314 3898498
2569.70 3950702 3869886 3916016 4085068 4156884 4293216
2575.48 4658986 4747594 4701616 4665942 4789262 4843698
2581.27 4938560 5010138 5247250 5341524 5558142 5698010
2587.05 5609662 5532168 5652942 5769588 5956176 5897128
2592.84 6163732 6494372 6782820 6792170 6659134 6539004
2598.63 6667912 6884928 7090414 7100204 7088042 7078566
2604.41 7210452 7366910 7375256 7394374 7450916 7683648
2610.20 8034878 7994874 8102744 8240598 8363040 8333518
2615.98 8508122 8627022 9010976 9466568 10086840 10397000
2621.77 10311810 9880874 9644614 9647944 9798218 9857356
2627.55 10173320 10408390 10709110 11032700 11298980 11333810
2633.34 11331490 11396510 11457110 11458240 11554520 11673580
2639.12 12007440 12123350 12294480 12478550 12595310 12698380
2644.91 12953860 13054860 13266500 13367980 13449250 13557910
2650.69 13796840 13991180 14258210 14387530 14429120 14262410
2656.48 14303990 14582440 14822990 14785450 14974500 15154390
2662.27 15281150 15352990 15434230 15509320 15743950 15777060
2668.05 15689810 15746530 15853960 15929200 15995170 15990240
2673.84 16156300 16253890 16278040 16219060 16381180 16434020
2679.62 16761810 17160520 17225460 17235810 17526410 17639550
2685.41 17631910 17574460 17761450 17931600 18184560 18457920
2691.19 18647920 18749070 18912060 18793860 19010700 19394630
2696.98 19676240 19921680 20344920 20608880 20946390 21158600
2702.76 21423750 21754470 22401600 22848450 23465440 24184510
2708.55 24645780 24460570 24655500 25219340 25839500 26303670
2714.33 26717630 27213460 27767700 28096300 28575560 28851990
2720.12 29419010 29946560 30274550 30429270 30484020 30495190
2725.91 31022500 31715670 32591660 33267420 33866610 34342800
2731.69 34766260 35210260 36027110 36785890 37514040 38274740
2737.48 38942560 39352010 40323940 41169970 42072070 42651560
2743.26 43153840 43460780 44081690 44425880 44519300 44763860
2749.05 45147010 45192100 45466860 45541150 45790940 46134510
2754.83 46523540 46914490 47416010 48020570 48836770 49109020
2760.62 49234290 49319970 49533460 49747880 50130240 50385360
2766.40 50814040 51222060 51723690 52191320 52928220 53426970
2772.19 53837360 54535410 55337620 55535520 56135030 56984670
2777.97 57983250 58633030 59176700 59611930 60181320 60352840
2783.76 60199450 59997560 60160780 60660020 62342280 64372180
2789.54 65919050 66800280 67668610 68670860 69964470 70860380
2795.33 71820630 72459620 73086120 73677530 74660260 75446250
2801.12 76142890 76422410 77081220 77827980 78479060 79151230
2806.90 79780800 80140860 80938750 81832500 82662300 83653490
2812.69 85305800 86978820 88883480 90311010 92130470 94349860
2818.47 96936370 98821470 100515600 102642400 105122800 107147900
2824.26 108714500 109970800 111508300 113284500 115874500 119043900
2830.04 122745000 126599200 130358400 133697400 137444500 141696500
2835.83 146673800 151745300 156967500 162123800 167336400 171685300
2841.61 176694700 182822700 189774700 196126600 202669200 210214600
2847.40 218637500 226948600 235548700 244458500 254292100 264248000
2853.18 274708600 285293700 296837400 308183300 319970700 331869400
2858.97 345447700 360051300 375683500 391324400 407228100 423324400
2864.76 439303800 453283200 465064800 474147700 481782900 489008100
2870.54 496523800 503041600 508946700 513775300 521462700 533340600
2876.33 547709000 561939900 574731900 590082000 611503400 632621600
2882.11 645658800 655240400 661704600 661199700 656827600 653387500
2887.90 655064600 662479000 674196800 685841000 693046800 695254200
2893.68 694140500 689799500 691700900 701599900 724155500 788482800
2899.47 876300400 861853600 786428700 748261900 739575400 739529000
2905.25 733355000 724848400 719508900 717907700 722565300 731396400
2911.04 724374500 701474900 681830700 670702000 665138400 662366000
2916.82 661694100 661834600 662877900 664650300 664526100 660413300
2922.61 653298900 646363900 641910000 637570800 634384500 630198100
2928.40 624452900 618669100 613882800 610283300 608314600 609087900
2934.18 613363100 615170900 612611300 609777800 610709100 614295000
2939.97 620439200 627093600 633027300 637462500 640326600 638165000
2945.75 634469700 635619300 643375000 655765100 671684500 686038000
2951.54 696263700 705326800 716712200 728658500 742304000 755893000
2957.32 768463800 776496700 783249300 790508200 801100300 813621000
2963.11 829324200 848671700 869016200 892946000 914029800 923072400
2968.89 931113300 946144200 960070300 952768400 936650900 928713800
2974.68 928256100 925034800 918730900 915032200 914610800 918252300
2980.46 919223200 898377900 896438100 926565800 953716500 966551300
2986.25 967731500 978935700 1056736000 991150400 838108200 791176700
2992.04 784164300 783371100 777484900 770504300 755502000 738264600
2997.82 719256800 698100000 674588200 654094600 632487200 611452300
3003.61 588734200 567128600 543584400 521648000 499112700 477865600
3009.39 455071600 433558600 411590100 392428000 373691800 355511700
3015.18 336929800 319757700 302239600 285739100 269240100 254080500
3020.96 238715700 224883200 210609900 197345400 184036500 172186700
3026.75 160071800 148629100 136819200 126996900 117347000 108301500
3032.53 99310620 91478460 83527540 76495500 69299180 63220910
3038.32 57323790 52217470 47325160 43202850 38571440 35086960
3044.10 31612990 28648090 25530070 23014980 20589370 18897990
3049.89 17199480 15601200 13575480 12565030 11405160 10408710
3055.67 9003856 8238340 7435302 7062914 6561834 6359714
3061.46 5483978 5455690 4894848 4525026 4056942 3930986
3067.25 3773392 3883734 3576416 3506508 3225636 3236688
3073.03 3234402 3442292 3287700 3290590 3000494 3037924
3078.82 2705700 2839538 2699176 2789758 2883568 2804932
3084.60 2622694 2888332 2997752 3209196 2772626 2897342
3090.39 2810710 3276576 3350834 3040850 2638018 2712994
3096.17 2744148 3177766 3029986 2966904 2888554 3068064
3101.96 2765586 2707050 2844088 3142086 2911124 2705492
3107.74 2594434 2701272 2799592 2944402 2856816 2910376
3113.53 2662214 2483198 2392484 2729972 2711344 2643380
3119.31 2691322 2832634 2567904 2387998 2397914 2776454
3125.10 2801362 2739982 2617726 2628788 2640108 2807944
3130.89 2430980 2559002 2832754 2768140 2488168 2495880
3136.67 2636150 2797430 2652210 2939316 2822758 2622782
3142.46 2438404 2556064 2769692 3269698 3104808 3090028
3148.24 2988004 2898796 2679214 2957914 2982880 3055632
3154.03 3099728 3362964 3596318 3424244 3279918 3496860
3159.81 3206914 3365470 3518404 3818012 3982972 4304418
3165.60 3922404 3898612 4024948 3920048 3916032 4022254
3171.38 4126934 4354704 4001844 3832068 3922382 4257856
3177.17 4501564 4644844 4800356 5003264 4816292 4939994
3182.95 5583596 5894570 5597200 5570706 5550458 5706384
3188.74 5848062 5998162 6110176 6321054 6539888 6839334
3194.53 6627106 6679286 6971274 7213850 7336108 7287212
3200.31 7308334 7837684 7976936 8023422 8481846 8747096
3206.10 8656872 8667744 8574494 8551534 8719052 8859330
3211.88 8633420 8788382 8891142 9309034 9162410 9147280
3217.67 9377338 9364222 9269726 9452094 9487934 9650426
3223.45 9769322 9713906 9257814 9233292 9201232 9003710
3229.24 8621020 8342704 8265772 8341252 7924160 7798604
3235.02 7480986 7210582 7011448 7382646 7107544 6299162
3240.81 6374312 6268224 5607328 5324892 4866300 4785904
3246.59 4732298 4618318 4479910 4146290 3558232 3458362
3252.38 3704136 3464212 3114296 2928026 2490782 2343020
3258.17 2474420 2068672 1659488 1481218 1182658 860908
3263.95 673346 734470 425702 612384 830568 570178
3269.74 278434-34414-524398-673166-447518-437094
3275.52-607284-522610-631294-828542-691004-531760
3281.31-1064442-1550562-1394652-1058988-1036408-1290640
3287.09-1430666-1271096-1096982-1147434-1323006-1406096
3292.88-1623598-1487606-1311838-1021306-917834-1119658
3298.66-1488238-1635860-1485072-1094462-1029138-1055464
3304.45-1162556-1134854-1029490-1043560-1316958-1403458
3310.23-1337324-1459892-1548864-1383576-1557646-1755226
3316.02-1292014-1002732-1393748-1610984-1772230-1671654
3321.80-1491232-1158720-1048942-1294674-1267304-1236162
3327.59-1370504-1099694-1198328-1347678-1101228-1135368
3333.38-1473176-1371224-999974-913684-906562-850728
3339.16-1038626-1360886-1527878-772268-674906-672042
3344.95-819462-956586-579046-523970-597094-700070
3350.73-740162-616052-730040-655696-547490-634320
3356.52-376246-95008-44554-73292-24752 21386
3362.30-345656-85110 509436 749952 621038 716030
3368.09 739490 737620 1002450 1243160 1218988 1759166
3373.87 1800250 1474034 1542140 2007082 2478524 2816176
3379.66 2859148 2856042 3053470 3293740 3422810 3565836
3385.44 3681388 3586158 3454972 3723260 3810598 3742794
3391.23 3735752 3973758 3955272 3833302 4057344 4337940
3397.02 4330412 4275254 4493020 4740126 4712808 5186948
3402.80 5449468 5315680 5347938 5316368 4657508 4690726
3408.59 5574046 5858554 5515106 5874686 5885962 5987074
3414.37 6160444 6073924 5608554 5305026 4946916 4792324
3420.16 4811206 4960710 4571178 4457504 4605120 4535774
3425.94 4128392 4018288 4214700 4076782 3852856 3878098
3431.73 3947324 4273112 4152026 4020140 3901828 4060120
3437.51 4389222 4389572 4354270 4099118 4209480 4457148
3443.30 4198464 4585852 5000484 4977694 4708576 4598664
3449.08 4694540 5109804 5578596 5396434 5428956 5634286
3454.87 5589146 5623670 5403134 5047860 5190050 5702770
3460.66 6308928 6788446 6340742 6229690 6609566 6832160
3466.44 6759690 6574228 6328560 6480298 6952318 7514326
3472.23 8617188 9874328 8879982 7589242 7728062 7466814
3478.01 6814808 6858622 6915038 7081558 6906432 6708670
3483.80 6677016 6674572 6861630 6869804 6401858 6211046
3489.58 6108196 6186030 5950286 5815612 6162688 6134850
3495.37 5433720 5324520 5427284 5223548 4771146 4957264
3501.15 5481350 5845078 5506056 4978056 4517718 4505536
3506.94 4767430 4871942 4546392 4198032 4124440 4121300
3512.72 4469344 4411802 3971888 3835276 3636940 3596840
3518.51 3786298 3608014 3132640 3008084 3062522 3176726
3524.30 3229792 3332956 3106356 3243968 3251850 3425656
3530.08 3936662 4159726 4127042 3876084 3711054 3727496
3535.87 3873436 3656090 3483412 3701250 3726380 3299342
3541.65 3143874 3590056 3857886 3864438 3931842 3792780
3547.44 3300064 3407766 3633474 3575330 3449702 3540464
3553.22 3689812 3864190 3781120 3591600 3792820 4212242
3559.01 3938090 3862102 4174700 4515376 4424614 4283624
3564.79 4458196 4531992 4581148 4499472 4353706 4159336
3570.58 3535996 2814770 3081134 3571042 3386544 3205708
3576.36 3342184 3259444 3464156 3816526 3478046 3142368
3582.15 3248132 3797922 4304018 4428758 4289988 4180476
3587.94 4422488 5058420 5619436 6219190 6690736 7167856
3593.72 7556488 7662926 7590018 7846788 8324390 9019654
3599.51 9779856 10146780 10465360 10912890 11535980 12160380
3605.29 12575080 12939930 13928070 14820430 15711780 16748510
3611.08 18022210 19346630 20774940 22417510 23934750 25154360
3616.86 26598720 28146900 29543100 31063480 32853970 34721940
3622.65 37246840 39845830 41620610 43208810 45346160 47577400
3628.43 49955340 52452110 55711220 59140800 62771510 66984220
3634.22 71353500 75176310 79132760 83731910 89260020 94953060
3640.00 100680100 106299900 112166600 118299600 125100500 131691800
3645.79 137619100 143652500 150208500 155977900 160688800 165420600
3651.57 170657600 175558500 184514700 200542500 206892000 211892300
3657.36 229893900 228052800 220626900 234748300 244858100 233642700
3663.15 227165600 228102900 230224500 230922200 231178600 229349400
3668.93 228939800 228724400 228033400 225991600 233225600 265994800
3674.72 327079100 317252300 229584300 186085500 179982100 182282700
3680.50 187176200 199627700 217179300 217208700 203130500 197662200
3686.29 196230900 195456700 193162500 190787100 186612100 181708200
3692.07 174688200 166666400 157406100 148282200 138253100 128265300
3697.86 118470900 109302700 99770020 90589680 81491820 73597700
3703.64 66325470 60358910 54998300 50090110 45388400 41624510
3709.43 38335660 35260150 31449240 28044080 25413700 23635210
3715.21 21890300 20768480 20150230 19496510 18247600 16787300
3721.00 15100830 14003060 12917260 12215870 11520190 10937600
3726.79 10244560 10079050 9926986 9251002 8623622 8687826
3732.57 8197992 7887930 7848760 7826196 7300404 6719118
3738.36 6192768 6268036 6292772 6278928 5758732 5745248
3744.14 5749892 6093772 6210154 6105700 5928436 6234580
3749.93 6629156 6859150 6580100 6646296 6513268 6275318
3755.71 5819058 5945808 6041430 5999414 6181678 6377410
3761.50 5707412 5576228 5733210 5899612 5681328 5311928
3767.28 5029646 4784242 4783752 4918608 5185544 5629818
3773.07 5594152 5709296 5707226 6015404 6381170 6601258
3778.85 6617580 6744842 6992450 7554366 8150208 8088748
3784.64 7841276 8221760 8416312 8751106 8661536 8477014
3790.43 7960284 7847522 7947086 7885608 7582812 7334330
3796.21 6949406 6895740 6606484 6609478 6716256 6662148
3802.00 6830656 6981554 6726394 6734418 6863152 7113990
3807.78 7046494 7108392 7179724 7411444 7425278 7419062
3813.57 7424330 7458580 6972244 6646702 7009140 7232768
3819.35 7407196 7661112 7653900 7559178 7407198 7687174
3825.14 8072078 8526366 8925758 9086034 8712270 9087560
3830.92 9846752 11302390 11404620 10403530 10213240 10264270
3836.71 9938870 9538712 9668448 10116250 10062780 9856644
3842.49 10166970 10667980 10705050 10674280 10828540 11030470
3848.28 10988930 10376190 10128110 10320150 10433240 10574690
3854.07 10500290 10176630 10296340 10416560 10097450 9814682
3859.85 9886462 10027470 10131090 10297960 10227260 9886934
3865.64 9962154 10641910 10512100 9544052 8519020 8373438
3871.42 8795216 9152958 9129756 9257020 9231276 9091720
3877.21 8916782 8797792 8633848 8497190 8783602 8854788
3882.99 8917962 9204788 9726540 10483850 9827690 8459554
3888.78 7428434 7334862 7542758 7710896 7438166 7178994
3894.56 7128380 7206664 7127724 7023316 6912124 6726664
3900.35 6755200 6607858 6337886 6374932 6396998 6253040
3906.13 6058958 6243938 6260982 6167842 5814782 5543772
3911.92 5756492 5930912 5888390 5578008 5175408 5325888
3917.70 5184638 4996980 4679688 4685234 4862272 4998538
3923.49 5040364 4946148 4588580 4415358 4541704 4403916
3929.28 3745788 3636932 3685512 3842384 4078192 4167218
3935.06 4024498 3722478 3416040 3525162 3755462 4104238
3940.85 4026446 3999948 4060984 3874894 3741908 3868770
3946.63 4202560 4788550 4376742 3910842 3960616 4153150
3952.42 4070936 4247970 4353438 4345736 4528236 4744054
3958.20 4518462 4494844 4967868 5264792 5089958 4933696
3963.99 5088376 5314236 4922266 4905490 5329440 5587924
3969.77 5438428 5147862 5277064 5752446 5636746
##END=
