##TITLE=ACETIC ACID
##JCAMP-DX=4.24
##DATA TYPE=INFRARED SPECTRUM
##CLASS=COBLENTZ III
##ORIGIN=DOW CORNING CORP.
##OWNER=COBLENTZ SOCIETY
Collection (C) 2018 copyright by the U.S. Secretary of Commerce
on behalf of the United States of America. All rights reserved.
##DATE=1966/02/03
##CAS REGISTRY NO=64-19-7
##MOLFORM=C2 H4 O2
##BP=118 C
##SOURCE REFERENCE=COBLENTZ NO. 4819
##$NIST SOURCE=COBLENTZ
##$NIST IMAGE=cob4819
##SPECTROMETER/DATA SYSTEM=PERKIN-ELMER 521 (GRATING)
##INSTRUMENT PARAMETERS=GRATING CHANGES AT 2000, 630 CM^-^1
##STATE=SOLUTION (10% IN CCl4 FOR 3800-1300, 10% IN CS2 FOR 1300-650, 10% IN CCl4 FOR 650-250 CM^-^1) VERSUS SOLVENT
##PATH LENGTH=0.012, 0.012, AND 0.010 CM (CsBr CELL)
##SAMPLING PROCEDURE=TRANSMISSION
##RESOLUTION=4
##DATA PROCESSING=DIGITIZED BY NIST FROM HARD COPY (FROM TWO SEGMENTS)
##XUNITS=1/CM
##YUNITS=TRANSMITTANCE
##XFACTOR=1.000000
##YFACTOR=1
##DELTAX=0.985222
##FIRSTX=234.483
##LASTX=3792.12
##FIRSTY=0.814
##MAXX=3792.12
##MINX=234.483
##MAXY=0.932
##MINY=0.002
##NPOINTS=3612
##XYDATA=(X++(Y..Y))
234.483000 0.8140 0.8160 0.8140 0.8160 0.8160
239.409112 0.8160 0.8160 0.8160 0.8170 0.8170
244.335224 0.8170 0.8170 0.8170 0.8180 0.8180
249.261336 0.8220 0.8240 0.8250 0.8250 0.8240
254.187448 0.8240 0.8240 0.8220 0.8220 0.8240
259.113560 0.8260 0.8280 0.8280 0.8290 0.8300
264.039672 0.8320 0.8330 0.8330 0.8340 0.8400
268.965784 0.8450 0.8490 0.8490 0.8510 0.8520
273.891896 0.8530 0.8530 0.8550 0.8550 0.8550
278.818008 0.8560 0.8560 0.8560 0.8590 0.8600
283.744120 0.8630 0.8640 0.8640 0.8640 0.8640
288.670232 0.8640 0.8640 0.8640 0.8640 0.8640
293.596344 0.8640 0.8640 0.8650 0.8650 0.8670
298.522456 0.8670 0.8680 0.8680 0.8690 0.8690
303.448568 0.8710 0.8720 0.8730 0.8750 0.8750
308.374680 0.8750 0.8760 0.8760 0.8760 0.8770
313.300792 0.8800 0.8830 0.8880 0.8910 0.8920
318.226904 0.8920 0.8950 0.8950 0.8970 0.8990
323.153016 0.8990 0.8990 0.9000 0.9000 0.9000
328.079128 0.9000 0.9020 0.9020 0.9020 0.9030
333.005240 0.9030 0.9040 0.9060 0.9070 0.9100
337.931352 0.9120 0.9120 0.9140 0.9140 0.9140
342.857464 0.9140 0.9140 0.9140 0.9150 0.9150
347.783576 0.9150 0.9140 0.9110 0.9100 0.9100
352.709688 0.9080 0.9080 0.9080 0.9100 0.9100
357.635800 0.9100 0.9110 0.9110 0.9120 0.9120
362.561912 0.9120 0.9120 0.9120 0.9120 0.9120
367.488024 0.9140 0.9140 0.9140 0.9120 0.9120
372.414136 0.9110 0.9110 0.9110 0.9100 0.9100
377.340248 0.9100 0.9100 0.9110 0.9120 0.9120
382.266360 0.9140 0.9140 0.9120 0.9120 0.9110
387.192472 0.9110 0.9100 0.9070 0.9060 0.9030
392.118584 0.9030 0.9030 0.9030 0.9030 0.9030
397.044696 0.9030 0.9020 0.9020 0.9000 0.8990
401.970808 0.8990 0.8970 0.8970 0.8970 0.8970
406.896920 0.8970 0.8960 0.8960 0.8950 0.8930
411.823032 0.8930 0.8930 0.8930 0.8920 0.8910
416.749144 0.8890 0.8890 0.8880 0.8880 0.8870
421.675256 0.8850 0.8830 0.8800 0.8770 0.8770
426.601368 0.8750 0.8750 0.8730 0.8730 0.8720
431.527480 0.8720 0.8710 0.8710 0.8680 0.8670
436.453592 0.8650 0.8650 0.8640 0.8640 0.8630
441.379704 0.8600 0.8570 0.8550 0.8530 0.8520
446.305816 0.8510 0.8490 0.8480 0.8450 0.8410
451.231928 0.8400 0.8380 0.8370 0.8340 0.8330
456.158040 0.8320 0.8260 0.8250 0.8220 0.8160
461.084152 0.8120 0.8060 0.8040 0.7930 0.7820
466.010264 0.7730 0.7660 0.7540 0.7281 0.7101
470.936376 0.6680 0.6460 0.6290 0.6090 0.5461
475.862488 0.5191 0.5110 0.5110 0.5429 0.5539
480.788600 0.5650 0.5860 0.6440 0.6440 0.6829
485.714712 0.7578 0.7740 0.7850 0.8049 0.8140
490.640824 0.8260 0.8290 0.8330 0.8370 0.8400
495.566936 0.8420 0.8480 0.8510 0.8510 0.8520
500.493048 0.8530 0.8530 0.8530 0.8550 0.8550
505.419160 0.8550 0.8550 0.8550 0.8550 0.8530
510.345272 0.8530 0.8530 0.8520 0.8520 0.8520
515.271384 0.8520 0.8520 0.8510 0.8490 0.8490
520.197496 0.8490 0.8480 0.8480 0.8460 0.8450
525.123608 0.8440 0.8420 0.8410 0.8410 0.8410
530.049720 0.8400 0.8400 0.8400 0.8400 0.8410
534.975832 0.8420 0.8420 0.8440 0.8440 0.8450
539.901944 0.8460 0.8490 0.8510 0.8520 0.8520
544.828056 0.8520 0.8530 0.8530 0.8530 0.8530
549.754168 0.8530 0.8550 0.8550 0.8550 0.8550
554.680280 0.8550 0.8560 0.8560 0.8560 0.8560
559.606393 0.8560 0.8560 0.8550 0.8550 0.8530
564.532505 0.8530 0.8520 0.8520 0.8520 0.8520
569.458617 0.8490 0.8480 0.8450 0.8420 0.8400
574.384729 0.8380 0.8340 0.8320 0.8300 0.8320
579.310841 0.8330 0.8340 0.8360 0.8360 0.8360
584.236953 0.8370 0.8370 0.8360 0.8340 0.8320
589.163065 0.8300 0.8300 0.8260 0.8250 0.8240
594.089177 0.8240 0.8240 0.8220 0.8220 0.8160
599.015289 0.8140 0.8130 0.8140 0.8160 0.8140
603.941401 0.8120 0.8040 0.8000 0.7930 0.7910
608.867513 0.7740 0.7650 0.7530 0.7310 0.7120
613.793625 0.6631 0.6520 0.6371 0.6221 0.6081
618.719737 0.5930 0.5780 0.5480 0.5300 0.5180
623.645849 0.5100 0.4851 0.4591 0.4321 0.4320
628.571961 0.4880 0.5200 0.5530 0.6759 0.6810
633.498073 0.7099 0.7459 0.7630 0.7710 0.7740
638.424185 0.7790 0.7870 0.7890 0.7940 0.7980
643.350297 0.8020 0.8060 0.8120 0.8160 0.8200
648.276409 0.8240 0.8290 0.8330 0.8370 0.8380
653.202521 0.8420 0.8440 0.8450 0.8490 0.8550
658.128633 0.8560 0.8530 0.8520 0.8490 0.8460
663.054745 0.8420 0.8410 0.8420 0.8420 0.8440
667.980857 0.8490 0.8560 0.8690 0.8730 0.8750
672.906969 0.8750 0.8760 0.8760 0.8770 0.8770
677.833081 0.8760 0.8760 0.8750 0.8730 0.8730
682.759193 0.8730 0.8730 0.8730 0.8730 0.8730
687.685305 0.8720 0.8720 0.8720 0.8720 0.8720
692.611417 0.8720 0.8720 0.8730 0.8730 0.8730
697.537529 0.8750 0.8750 0.8750 0.8750 0.8750
702.463641 0.8750 0.8750 0.8750 0.8750 0.8760
707.389753 0.8760 0.8760 0.8750 0.8750 0.8750
712.315865 0.8730 0.8730 0.8720 0.8720 0.8720
717.241977 0.8710 0.8710 0.8690 0.8690 0.8680
722.168089 0.8680 0.8680 0.8680 0.8680 0.8680
727.094201 0.8680 0.8670 0.8670 0.8670 0.8670
732.020313 0.8670 0.8670 0.8650 0.8650 0.8640
736.946425 0.8640 0.8630 0.8610 0.8570 0.8530
741.872537 0.8520 0.8520 0.8510 0.8410 0.8400
746.798649 0.8360 0.8300 0.8250 0.8210 0.8160
751.724761 0.8130 0.8120 0.8080 0.7980 0.7940
756.650873 0.7870 0.7860 0.7830 0.7810 0.7750
761.576985 0.7700 0.7660 0.7620 0.7620 0.7630
766.503097 0.7650 0.7650 0.7670 0.7700 0.7740
771.429209 0.7770 0.7810 0.7810 0.7850 0.7860
776.355321 0.7870 0.7950 0.8000 0.8130 0.8160
781.281433 0.8180 0.8220 0.8250 0.8260 0.8260
786.207545 0.8280 0.8280 0.8300 0.8300 0.8320
791.133657 0.8330 0.8340 0.8360 0.8360 0.8360
796.059769 0.8370 0.8370 0.8370 0.8360 0.8340
800.985881 0.8340 0.8330 0.8320 0.8320 0.8300
805.911993 0.8290 0.8280 0.8280 0.8260 0.8250
810.838105 0.8250 0.8240 0.8220 0.8220 0.8210
815.764217 0.8170 0.8140 0.8140 0.8140 0.8080
820.690329 0.7950 0.7940 0.7930 0.7860 0.7780
825.616441 0.7700 0.7670 0.7610 0.7530 0.7260
830.542553 0.7100 0.6881 0.6850 0.6671 0.6640
835.468665 0.6630 0.6610 0.6630 0.6640 0.6640
840.394777 0.6680 0.6710 0.6720 0.6730 0.6760
845.320889 0.6760 0.6770 0.6770 0.6770 0.6760
850.247001 0.6760 0.6760 0.6750 0.6730 0.6730
855.173113 0.6720 0.6720 0.6710 0.6710 0.6690
860.099225 0.6690 0.6680 0.6680 0.6670 0.6670
865.025337 0.6670 0.6650 0.6630 0.6630 0.6610
869.951449 0.6600 0.6590 0.6560 0.6530 0.6460
874.877561 0.6420 0.6380 0.6340 0.6330 0.6220
879.803673 0.6120 0.6060 0.6000 0.5930 0.5860
884.729785 0.5810 0.5740 0.5670 0.5480 0.5460
889.655897 0.5480 0.5540 0.5590 0.5700 0.5750
894.582009 0.5780 0.5790 0.5790 0.5810 0.5810
899.508121 0.5790 0.5790 0.5780 0.5750 0.5740
904.434233 0.5710 0.5690 0.5670 0.5650 0.5620
909.360345 0.5610 0.5580 0.5570 0.5391 0.5281
914.286457 0.5190 0.5140 0.5040 0.5030 0.5020
919.212569 0.4920 0.4840 0.4691 0.4630 0.4610
924.138681 0.4570 0.4550 0.4510 0.4440 0.4360
929.064793 0.4340 0.4330 0.4330 0.4330 0.4330
933.990905 0.4340 0.4360 0.4360 0.4370 0.4400
938.917017 0.4440 0.4460 0.4490 0.4560 0.4610
943.843129 0.4670 0.4770 0.4880 0.4970 0.5000
948.769241 0.5140 0.5280 0.5469 0.5540 0.5610
953.695353 0.5660 0.5830 0.5940 0.6060 0.6200
958.621465 0.6250 0.6380 0.6549 0.6749 0.6790
963.547577 0.6850 0.6920 0.6950 0.7080 0.7240
968.473689 0.7270 0.7310 0.7360 0.7430 0.7440
973.399801 0.7480 0.7540 0.7580 0.7620 0.7630
978.325913 0.7650 0.7650 0.7660 0.7670 0.7670
983.252025 0.7660 0.7660 0.7650 0.7620 0.7590
988.178137 0.7580 0.7550 0.7530 0.7500 0.7480
993.104249 0.7460 0.7440 0.7400 0.7380 0.7360
998.030361 0.7350 0.7340 0.7310 0.7180 0.7080
1002.956473 0.7060 0.7020 0.6920 0.6770 0.6690
1007.882585 0.6630 0.6520 0.6450 0.6400 0.6370
1012.808697 0.6360 0.6370 0.6410 0.6450 0.6490
1017.734809 0.6600 0.6750 0.6800 0.6910 0.6970
1022.660921 0.7000 0.7000 0.7000 0.6990 0.6970
1027.587033 0.6950 0.6930 0.6910 0.6890 0.6870
1032.513145 0.6850 0.6830 0.6770 0.6710 0.6670
1037.439257 0.6630 0.6630 0.6510 0.6480 0.6440
1042.365369 0.6380 0.6300 0.6280 0.6250 0.6220
1047.291481 0.6210 0.6210 0.6210 0.6220 0.6240
1052.217593 0.6330 0.6410 0.6440 0.6450 0.6530
1057.143705 0.6630 0.6670 0.6760 0.6770 0.6790
1062.069817 0.6800 0.6830 0.6840 0.6870 0.6930
1066.995929 0.6950 0.6960 0.6970 0.6970 0.6990
1071.922041 0.6990 0.6990 0.7000 0.7000 0.7000
1076.848153 0.7000 0.7020 0.7020 0.7020 0.7020
1081.774265 0.7030 0.7030 0.7030 0.7030 0.7040
1086.700377 0.7040 0.7070 0.7080 0.7080 0.7100
1091.626489 0.7100 0.7110 0.7110 0.7150 0.7180
1096.552601 0.7200 0.7240 0.7240 0.7270 0.7300
1101.478713 0.7320 0.7360 0.7390 0.7390 0.7400
1106.404825 0.7430 0.7470 0.7480 0.7480 0.7500
1111.330937 0.7540 0.7570 0.7570 0.7580 0.7620
1116.257049 0.7660 0.7670 0.7700 0.7740 0.7770
1121.183161 0.7770 0.7790 0.7850 0.7870 0.7900
1126.109273 0.7950 0.8020 0.8080 0.8120 0.8130
1131.035385 0.8140 0.8140 0.8160 0.8180 0.8210
1135.961497 0.8220 0.8240 0.8250 0.8250 0.8260
1140.887609 0.8360 0.8400 0.8410 0.8420 0.8450
1145.813721 0.8450 0.8460 0.8460 0.8460 0.8460
1150.739833 0.8460 0.8460 0.8450 0.8450 0.8440
1155.665945 0.8440 0.8440 0.8440 0.8440 0.8440
1160.592057 0.8440 0.8420 0.8420 0.8410 0.8410
1165.518169 0.8400 0.8380 0.8360 0.8330 0.8330
1170.444281 0.8320 0.8300 0.8300 0.8300 0.8300
1175.370393 0.8320 0.8320 0.8320 0.8330 0.8330
1180.296505 0.8340 0.8340 0.8360 0.8370 0.8370
1185.222617 0.8370 0.8380 0.8380 0.8420 0.8460
1190.148729 0.8490 0.8490 0.8490 0.8480 0.8480
1195.074841 0.8460 0.8460 0.8460 0.8460 0.8450
1200.000953 0.8450 0.8450 0.8440 0.8440 0.8440
1204.927066 0.8410 0.8410 0.8410 0.8400 0.8400
1209.853178 0.8380 0.8380 0.8370 0.8370 0.8360
1214.779290 0.8360 0.8340 0.8330 0.8320 0.8320
1219.705402 0.8300 0.8290 0.8280 0.8250 0.8240
1224.631514 0.8240 0.8220 0.8200 0.8160 0.8130
1229.557626 0.8120 0.8080 0.7980 0.7940 0.7940
1234.483738 0.7930 0.7850 0.7820 0.7780 0.7750
1239.409850 0.7610 0.7580 0.7430 0.7400 0.7360
1244.335962 0.7300 0.7270 0.7160 0.7080 0.7070
1249.262074 0.6960 0.6800 0.6630 0.6410 0.6300
1254.188186 0.6050 0.5821 0.5401 0.5340 0.5260
1259.114298 0.5080 0.5030 0.4850 0.4710 0.4670
1264.040410 0.4560 0.4281 0.4160 0.3981 0.3791
1268.966522 0.3620 0.3310 0.3120 0.2651 0.2530
1273.892634 0.2281 0.2001 0.1751 0.1611 0.0913
1278.818746 0.0830 0.0720 0.0630 0.0520 0.0410
1283.744858 0.0290 0.0280 0.0290 0.0380 0.0480
1288.670970 0.0570 0.0630 0.0770 0.1110 0.1440
1293.597082 0.1949 0.2588 0.2969 0.3418 0.3858
1298.523194 0.4301 0.4750 0.5180 0.5390 0.5590
1303.449306 0.5969 0.6319 0.6609 0.6849 0.6960
1308.375418 0.7110 0.7420 0.7620 0.7780 0.7820
1313.301530 0.7850 0.7910 0.8020 0.8130 0.8160
1318.227642 0.8200 0.8260 0.8300 0.8320 0.8340
1323.153754 0.8370 0.8400 0.8420 0.8440 0.8440
1328.079866 0.8450 0.8450 0.8450 0.8450 0.8440
1333.005978 0.8440 0.8410 0.8400 0.8380 0.8370
1337.932090 0.8360 0.8340 0.8320 0.8260 0.8240
1342.858202 0.8160 0.8120 0.8040 0.7950 0.7900
1347.784314 0.7470 0.7240 0.7000 0.6750 0.6680
1352.710426 0.6510 0.6201 0.6200 0.6679 0.6800
1357.636538 0.7021 0.7350 0.7500 0.7610 0.7690
1362.562650 0.7690 0.7710 0.7730 0.7730 0.7730
1367.488762 0.7730 0.7710 0.7650 0.7610 0.7530
1372.414874 0.7500 0.7470 0.7460 0.7460 0.7400
1377.340986 0.7340 0.7280 0.7220 0.7150 0.7110
1382.267098 0.7100 0.7080 0.6960 0.6870 0.6810
1387.193210 0.6690 0.6640 0.6480 0.6400 0.6260
1392.119322 0.6040 0.5940 0.5770 0.5421 0.5310
1397.045434 0.5190 0.4960 0.4640 0.4330 0.4100
1401.971546 0.3890 0.3790 0.3650 0.3540 0.3391
1406.897658 0.3240 0.3100 0.2950 0.2800 0.2790
1411.823770 0.2790 0.2800 0.2840 0.2880 0.2930
1416.749882 0.2970 0.3030 0.3070 0.3180 0.3270
1421.675994 0.3530 0.3590 0.3730 0.3870 0.3980
1426.602106 0.4060 0.4210 0.4260 0.4450 0.4850
1431.528218 0.5030 0.5240 0.5300 0.5360 0.5480
1436.454330 0.5610 0.5740 0.5830 0.6160 0.6250
1441.380442 0.6320 0.6490 0.6600 0.6760 0.6800
1446.306554 0.6950 0.7020 0.7040 0.7190 0.7340
1451.232666 0.7400 0.7500 0.7550 0.7610 0.7650
1456.158778 0.7660 0.7710 0.7740 0.7790 0.7820
1461.084890 0.7860 0.7860 0.7930 0.7950 0.7980
1466.011002 0.8000 0.8020 0.8050 0.8080 0.8100
1470.937114 0.8130 0.8160 0.8180 0.8200 0.8210
1475.863226 0.8210 0.8210 0.8200 0.8180 0.8170
1480.789338 0.8170 0.8160 0.8160 0.8160 0.8140
1485.715450 0.8130 0.8120 0.8120 0.8100 0.8090
1490.641562 0.8080 0.8080 0.8050 0.8040 0.7950
1495.567674 0.7940 0.7910 0.7900 0.7860 0.7750
1500.493786 0.7730 0.7710 0.7700 0.7690 0.7660
1505.419898 0.7660 0.7650 0.7630 0.7620 0.7620
1510.346010 0.7610 0.7610 0.7590 0.7590 0.7590
1515.272122 0.7590 0.7610 0.7630 0.7650 0.7710
1520.198234 0.7750 0.7790 0.7810 0.7830 0.7860
1525.124346 0.7870 0.7870 0.7870 0.7870 0.7870
1530.050458 0.7870 0.7860 0.7860 0.7830 0.7780
1534.976570 0.7770 0.7770 0.7750 0.7750 0.7740
1539.902682 0.7730 0.7730 0.7740 0.7740 0.7740
1544.828794 0.7740 0.7750 0.7750 0.7750 0.7780
1549.754906 0.7780 0.7790 0.7790 0.7820 0.7860
1554.681018 0.7930 0.7950 0.7970 0.7980 0.8050
1559.607130 0.8080 0.8100 0.8120 0.8120 0.8130
1564.533242 0.8130 0.8130 0.8130 0.8130 0.8130
1569.459354 0.8130 0.8140 0.8140 0.8140 0.8160
1574.385466 0.8160 0.8170 0.8180 0.8180 0.8210
1579.311578 0.8210 0.8220 0.8220 0.8240 0.8240
1584.237690 0.8260 0.8260 0.8280 0.8300 0.8320
1589.163802 0.8340 0.8370 0.8380 0.8400 0.8400
1594.089914 0.8420 0.8440 0.8450 0.8460 0.8480
1599.016026 0.8510 0.8520 0.8520 0.8530 0.8530
1603.942138 0.8530 0.8530 0.8530 0.8530 0.8530
1608.868250 0.8530 0.8530 0.8530 0.8530 0.8520
1613.794362 0.8520 0.8510 0.8510 0.8510 0.8490
1618.720474 0.8460 0.8450 0.8450 0.8440 0.8410
1623.646586 0.8330 0.8320 0.8320 0.8320 0.8300
1628.572698 0.8250 0.8240 0.8180 0.8170 0.8140
1633.498810 0.8080 0.8040 0.8020 0.7940 0.7930
1638.424922 0.7910 0.7830 0.7810 0.7790 0.7790
1643.351034 0.7780 0.7770 0.7750 0.7750 0.7710
1648.277146 0.7690 0.7660 0.7650 0.7630 0.7620
1653.203258 0.7610 0.7580 0.7570 0.7530 0.7470
1658.129370 0.7460 0.7440 0.7440 0.7390 0.7390
1663.055482 0.7270 0.7240 0.7230 0.7200 0.7190
1667.981594 0.7160 0.7120 0.7080 0.6930 0.6870
1672.907706 0.6840 0.6760 0.6680 0.6640 0.6550
1677.833818 0.6490 0.6440 0.6340 0.6240 0.6081
1682.759930 0.5970 0.5810 0.5770 0.5380 0.5280
1687.686042 0.5200 0.4881 0.4681 0.4182 0.4060
1692.612154 0.3850 0.3590 0.3390 0.3020 0.2750
1697.538266 0.2530 0.2251 0.1861 0.0644 0.0570
1702.464378 0.0440 0.0300 0.0170 0.0080 0.0040
1707.390490 0.0020 0.0020 0.0020 0.0040 0.0080
1712.316602 0.0090 0.0120 0.0160 0.0200 0.0240
1717.242714 0.0340 0.0460 0.0650 0.0680 0.0760
1722.168826 0.0920 0.1150 0.1360 0.1740 0.1950
1727.094938 0.2250 0.2510 0.2909 0.3179 0.3728
1732.021050 0.3900 0.4160 0.4330 0.4680 0.4920
1736.947162 0.5150 0.5300 0.5440 0.5580 0.5630
1741.873274 0.5650 0.5770 0.5860 0.5870 0.5890
1746.799386 0.5870 0.5850 0.5780 0.5710 0.5610
1751.725498 0.5540 0.5530 0.5480 0.5480 0.5470
1756.651610 0.5460 0.5440 0.5420 0.5400 0.5390
1761.577722 0.5390 0.5400 0.5420 0.5440 0.5500
1766.503834 0.5540 0.5670 0.5730 0.5770 0.5790
1771.429946 0.5820 0.5850 0.5850 0.5890 0.5980
1776.356058 0.6040 0.6100 0.6130 0.6180 0.6449
1781.282170 0.6650 0.6800 0.6950 0.7080 0.7240
1786.208282 0.7400 0.7480 0.7540 0.7620 0.7769
1791.134394 0.7810 0.7860 0.7890 0.7940 0.7970
1796.060506 0.8020 0.8080 0.8120 0.8140 0.8140
1800.986618 0.8170 0.8220 0.8220 0.8240 0.8250
1805.912730 0.8250 0.8250 0.8250 0.8260 0.8280
1810.838842 0.8290 0.8290 0.8300 0.8290 0.8290
1815.764954 0.8300 0.8320 0.8320 0.8320 0.8330
1820.691066 0.8370 0.8400 0.8410 0.8420 0.8380
1825.617178 0.8340 0.8330 0.8330 0.8340 0.8360
1830.543290 0.8360 0.8360 0.8340 0.8340 0.8340
1835.469402 0.8340 0.8340 0.8370 0.8380 0.8380
1840.395514 0.8410 0.8410 0.8420 0.8440 0.8480
1845.321627 0.8510 0.8510 0.8510 0.8510 0.8520
1850.247739 0.8530 0.8510 0.8510 0.8510 0.8510
1855.173851 0.8520 0.8520 0.8530 0.8570 0.8570
1860.099963 0.8560 0.8560 0.8550 0.8550 0.8550
1865.026075 0.8560 0.8570 0.8630 0.8630 0.8600
1869.952187 0.8590 0.8550 0.8550 0.8550 0.8550
1874.878299 0.8550 0.8530 0.8550 0.8570 0.8590
1879.804411 0.8610 0.8630 0.8630 0.8600 0.8590
1884.730523 0.8590 0.8590 0.8600 0.8600 0.8610
1889.656635 0.8630 0.8630 0.8630 0.8630 0.8600
1894.582747 0.8600 0.8600 0.8610 0.8610 0.8630
1899.508859 0.8640 0.8640 0.8650 0.8650 0.8650
1904.434971 0.8670 0.8720 0.8730 0.8730 0.8750
1909.361083 0.8730 0.8770 0.8790 0.8790 0.8800
1914.287195 0.8790 0.8800 0.8800 0.8800 0.8800
1919.213307 0.8800 0.8800 0.8800 0.8800 0.8810
1924.139419 0.8810 0.8810 0.8810 0.8800 0.8800
1929.065531 0.8800 0.8800 0.8800 0.8800 0.8800
1933.991643 0.8800 0.8810 0.8810 0.8790 0.8790
1938.917755 0.8790 0.8790 0.8790 0.8790 0.8800
1943.843867 0.8800 0.8800 0.8800 0.8800 0.8810
1948.769979 0.8810 0.8800 0.8810 0.8810 0.8810
1953.696091 0.8830 0.8830 0.8810 0.8790 0.8770
1958.622203 0.8770 0.8810 0.8830 0.8810 0.8810
1963.548315 0.8810 0.8810 0.8810 0.8800 0.8800
1968.474427 0.8810 0.8810 0.8830 0.8830 0.8810
1973.400539 0.8810 0.8810 0.8810 0.8810 0.8810
1978.326651 0.8810 0.8830 0.8830 0.8840 0.8840
1983.252763 0.8800 0.8800 0.8830 0.8850 0.8870
1988.178875 0.8880 0.8890 0.8920 0.8920 0.8890
1993.104987 0.8850 0.8810 0.8810 0.8840 0.8880
1998.031099 0.8910 0.8930 0.8930 0.8925 0.8920
2002.957211 0.8915 0.8910 0.8910 0.8910 0.8900
2007.883323 0.8890 0.8885 0.8880 0.8865 0.8850
2012.809435 0.8845 0.8840 0.8840 0.8840 0.8840
2017.735547 0.8840 0.8840 0.8840 0.8835 0.8830
2022.661659 0.8830 0.8830 0.8835 0.8840 0.8835
2027.587771 0.8830 0.8830 0.8830 0.8830 0.8830
2032.513883 0.8830 0.8830 0.8830 0.8830 0.8830
2037.439995 0.8830 0.8835 0.8840 0.8840 0.8840
2042.366107 0.8840 0.8840 0.8854 0.8869 0.8870
2047.292219 0.8870 0.8875 0.8880 0.8885 0.8890
2052.218331 0.8890 0.8890 0.8890 0.8890 0.8890
2057.144443 0.8890 0.8890 0.8890 0.8890 0.8890
2062.070555 0.8890 0.8890 0.8899 0.8909 0.8910
2066.996667 0.8910 0.8910 0.8910 0.8910 0.8910
2071.922779 0.8910 0.8910 0.8910 0.8910 0.8910
2076.848891 0.8910 0.8910 0.8910 0.8910 0.8910
2081.775003 0.8901 0.8891 0.8890 0.8890 0.8890
2086.701115 0.8890 0.8886 0.8881 0.8880 0.8880
2091.627227 0.8880 0.8880 0.8876 0.8871 0.8870
2096.553339 0.8870 0.8870 0.8870 0.8862 0.8852
2101.479451 0.8850 0.8850 0.8846 0.8841 0.8844
2106.405563 0.8849 0.8850 0.8850 0.8858 0.8868
2111.331675 0.8870 0.8870 0.8858 0.8843 0.8820
2116.257787 0.8795 0.8778 0.8763 0.8748 0.8733
2121.183899 0.8730 0.8730 0.8726 0.8721 0.8720
2126.110011 0.8720 0.8720 0.8720 0.8716 0.8711
2131.036123 0.8687 0.8657 0.8646 0.8641 0.8629
2135.962235 0.8614 0.8602 0.8592 0.8590 0.8590
2140.888347 0.8579 0.8564 0.8560 0.8560 0.8556
2145.814459 0.8551 0.8550 0.8550 0.8550 0.8550
2150.740571 0.8543 0.8533 0.8530 0.8530 0.8530
2155.666683 0.8530 0.8530 0.8530 0.8526 0.8521
2160.592795 0.8520 0.8520 0.8520 0.8520 0.8524
2165.518907 0.8529 0.8537 0.8547 0.8564 0.8584
2170.445019 0.8597 0.8607 0.8610 0.8610 0.8617
2175.371131 0.8627 0.8647 0.8673 0.8691 0.8706
2180.297243 0.8713 0.8718 0.8720 0.8720 0.8730
2185.223355 0.8745 0.8750 0.8750 0.8750 0.8750
2190.149467 0.8753 0.8758 0.8760 0.8760 0.8763
2195.075579 0.8768 0.8770 0.8770 0.8780 0.8795
2200.001691 0.8800 0.8800 0.8797 0.8792 0.8783
2204.927803 0.8773 0.8770 0.8770 0.8767 0.8762
2209.853915 0.8757 0.8752 0.8744 0.8734 0.8730
2214.780027 0.8730 0.8724 0.8714 0.8704 0.8694
2219.706139 0.8690 0.8690 0.8690 0.8690 0.8690
2224.632251 0.8690 0.8690 0.8690 0.8690 0.8690
2229.558363 0.8678 0.8658 0.8647 0.8642 0.8640
2234.484475 0.8640 0.8631 0.8616 0.8586 0.8546
2239.410587 0.8527 0.8522 0.8520 0.8520 0.8520
2244.336699 0.8520 0.8523 0.8528 0.8536 0.8546
2249.262811 0.8550 0.8550 0.8544 0.8534 0.8536
2254.188923 0.8546 0.8556 0.8566 0.8576 0.8586
2259.115035 0.8593 0.8598 0.8600 0.8600 0.8600
2264.041147 0.8600 0.8597 0.8592 0.8590 0.8590
2268.967259 0.8585 0.8575 0.8567 0.8562 0.8552
2273.893371 0.8537 0.8525 0.8515 0.8502 0.8487
2278.819483 0.8472 0.8457 0.8442 0.8427 0.8420
2283.745595 0.8420 0.8420 0.8420 0.8420 0.8420
2288.671707 0.8425 0.8435 0.8440 0.8440 0.8442
2293.597819 0.8447 0.8460 0.8480 0.8495 0.8505
2298.523931 0.8513 0.8517 0.8522 0.8527 0.8535
2303.450043 0.8545 0.8550 0.8550 0.8552 0.8557
2308.376155 0.8560 0.8560 0.8560 0.8560 0.8560
2313.302267 0.8560 0.8560 0.8560 0.8560 0.8560
2318.228379 0.8560 0.8560 0.8558 0.8553 0.8550
2323.154491 0.8550 0.8550 0.8550 0.8546 0.8536
2328.080603 0.8530 0.8530 0.8528 0.8523 0.8522
2333.006715 0.8527 0.8530 0.8530 0.8530 0.8530
2337.932827 0.8530 0.8530 0.8530 0.8530 0.8530
2342.858939 0.8530 0.8530 0.8530 0.8528 0.8523
2347.785051 0.8520 0.8520 0.8518 0.8513 0.8510
2352.711163 0.8510 0.8510 0.8510 0.8498 0.8468
2357.637275 0.8440 0.8415 0.8394 0.8379 0.8364
2362.563387 0.8349 0.8340 0.8340 0.8340 0.8340
2367.489499 0.8340 0.8340 0.8340 0.8340 0.8345
2372.415611 0.8360 0.8370 0.8370 0.8370 0.8370
2377.341723 0.8368 0.8363 0.8356 0.8346 0.8338
2382.267835 0.8333 0.8330 0.8330 0.8330 0.8330
2387.193947 0.8328 0.8323 0.8320 0.8320 0.8320
2392.120059 0.8320 0.8320 0.8320 0.8317 0.8307
2397.046171 0.8298 0.8293 0.8285 0.8270 0.8258
2401.972283 0.8253 0.8250 0.8250 0.8248 0.8243
2406.898395 0.8231 0.8201 0.8177 0.8167 0.8157
2411.824507 0.8147 0.8143 0.8153 0.8160 0.8160
2416.750619 0.8155 0.8140 0.8129 0.8124 0.8117
2421.676731 0.8107 0.8099 0.8094 0.8089 0.8084
2426.602843 0.8080 0.8080 0.8080 0.8080 0.8080
2431.528955 0.8080 0.8080 0.8080 0.8077 0.8067
2436.455067 0.8059 0.8054 0.8049 0.8044 0.8036
2441.381179 0.8021 0.8006 0.7991 0.7979 0.7974
2446.307291 0.7968 0.7958 0.7950 0.7950 0.7949
2451.233403 0.7944 0.7940 0.7940 0.7939 0.7934
2456.159515 0.7930 0.7930 0.7928 0.7918 0.7908
2461.085627 0.7898 0.7890 0.7890 0.7888 0.7878
2466.011739 0.7870 0.7870 0.7869 0.7864 0.7860
2470.937851 0.7860 0.7859 0.7854 0.7848 0.7838
2475.863963 0.7828 0.7818 0.7807 0.7792 0.7779
2480.790075 0.7774 0.7768 0.7758 0.7749 0.7744
2485.716187 0.7736 0.7716 0.7690 0.7636 0.7589
2490.642300 0.7584 0.7580 0.7580 0.7580 0.7580
2495.568412 0.7580 0.7580 0.7576 0.7551 0.7525
2500.494524 0.7495 0.7465 0.7430 0.7398 0.7389
2505.420636 0.7378 0.7363 0.7347 0.7327 0.7307
2510.346748 0.7282 0.7257 0.7237 0.7216 0.7186
2515.272860 0.7157 0.7137 0.7117 0.7092 0.7068
2520.198972 0.7053 0.7038 0.7018 0.6999 0.6994
2525.125084 0.6984 0.6934 0.6882 0.6813 0.6746
2530.051196 0.6706 0.6668 0.6648 0.6626 0.6591
2534.977308 0.6557 0.6532 0.6502 0.6428 0.6357
2539.903420 0.6327 0.6298 0.6278 0.6258 0.6238
2544.829532 0.6216 0.6166 0.6113 0.6024 0.5938
2549.755644 0.5913 0.5890 0.5890 0.5893 0.5933
2554.681756 0.5973 0.6008 0.6045 0.6109 0.6170
2559.607868 0.6175 0.6183 0.6233 0.6283 0.6343
2564.533980 0.6403 0.6457 0.6513 0.6572 0.6632
2569.460092 0.6692 0.6752 0.6802 0.6851 0.6866
2574.386204 0.6881 0.6901 0.6921 0.6936 0.6950
2579.312316 0.6960 0.6969 0.6950 0.6930 0.6910
2584.238428 0.6890 0.6870 0.6850 0.6830 0.6810
2589.164540 0.6790 0.6770 0.6750 0.6730 0.6710
2594.090652 0.6690 0.6670 0.6650 0.6625 0.6600
2599.016764 0.6520 0.6441 0.6381 0.6321 0.6286
2603.942876 0.6251 0.6186 0.6121 0.6086 0.6051
2608.868988 0.6002 0.5952 0.5931 0.5910 0.5881
2613.795100 0.5851 0.5738 0.5623 0.5475 0.5325
2618.721212 0.5224 0.5124 0.5039 0.4954 0.4936
2623.647324 0.4921 0.4934 0.4949 0.4983 0.5018
2628.573436 0.5057 0.5097 0.5147 0.5197 0.5295
2633.499548 0.5394 0.5438 0.5478 0.5522 0.5567
2638.425660 0.5686 0.5811 0.5857 0.5897 0.5905
2643.351772 0.5910 0.5910 0.5910 0.5905 0.5900
2648.277884 0.5895 0.5890 0.5872 0.5852 0.5823
2653.203996 0.5793 0.5785 0.5780 0.5775 0.5770
2658.130108 0.5761 0.5751 0.5732 0.5712 0.5701
2663.056220 0.5691 0.5593 0.5483 0.5439 0.5404
2667.982332 0.5383 0.5363 0.5351 0.5341 0.5322
2672.908444 0.5302 0.5287 0.5272 0.5270 0.5270
2677.834556 0.5274 0.5279 0.5297 0.5317 0.5333
2682.760668 0.5348 0.5367 0.5387 0.5407 0.5427
2687.686780 0.5434 0.5439 0.5465 0.5495 0.5517
2692.612892 0.5537 0.5574 0.5614 0.5687 0.5767
2697.539004 0.5809 0.5844 0.5867 0.5886 0.5906
2702.465116 0.5926 0.5938 0.5948 0.5958 0.5968
2707.391228 0.5986 0.6006 0.6014 0.6019 0.6032
2712.317340 0.6047 0.6054 0.6059 0.6068 0.6078
2717.243452 0.6080 0.6080 0.6080 0.6080 0.6088
2722.169564 0.6098 0.6112 0.6127 0.6134 0.6139
2727.095676 0.6140 0.6140 0.6140 0.6140 0.6136
2732.021788 0.6131 0.6126 0.6121 0.6112 0.6102
2736.947900 0.6096 0.6091 0.6079 0.6064 0.6045
2741.874012 0.6025 0.6005 0.5985 0.5961 0.5936
2746.800124 0.5904 0.5869 0.5834 0.5799 0.5786
2751.726236 0.5781 0.5776 0.5771 0.5759 0.5744
2756.652348 0.5722 0.5697 0.5665 0.5630 0.5609
2761.578460 0.5594 0.5586 0.5581 0.5580 0.5580
2766.504572 0.5576 0.5571 0.5563 0.5553 0.5546
2771.430684 0.5541 0.5536 0.5531 0.5523 0.5513
2776.356796 0.5510 0.5510 0.5507 0.5502 0.5500
2781.282908 0.5500 0.5500 0.5500 0.5500 0.5500
2786.209020 0.5503 0.5508 0.5520 0.5535 0.5550
2791.135132 0.5565 0.5573 0.5578 0.5583 0.5588
2796.061244 0.5590 0.5590 0.5590 0.5590 0.5597
2800.987356 0.5607 0.5610 0.5610 0.5610 0.5610
2805.913468 0.5604 0.5594 0.5587 0.5582 0.5570
2810.839580 0.5555 0.5537 0.5517 0.5500 0.5485
2815.765692 0.5474 0.5464 0.5451 0.5436 0.5421
2820.691804 0.5406 0.5388 0.5368 0.5345 0.5320
2825.617916 0.5307 0.5302 0.5300 0.5300 0.5294
2830.544028 0.5284 0.5280 0.5280 0.5277 0.5272
2835.470140 0.5270 0.5270 0.5267 0.5262 0.5260
2840.396252 0.5260 0.5254 0.5244 0.5237 0.5232
2845.322364 0.5230 0.5230 0.5221 0.5206 0.5197
2850.248476 0.5192 0.5187 0.5182 0.5171 0.5156
2855.174588 0.5141 0.5126 0.5109 0.5089 0.5074
2860.100700 0.5064 0.5049 0.5029 0.5012 0.4997
2865.026812 0.4979 0.4959 0.4934 0.4903 0.4876
2869.952924 0.4851 0.4832 0.4817 0.4805 0.4795
2874.879036 0.4774 0.4744 0.4695 0.4631 0.4587
2879.805148 0.4562 0.4514 0.4444 0.4397 0.4372
2884.731260 0.4340 0.4300 0.4270 0.4250 0.4224
2889.657372 0.4194 0.4165 0.4135 0.4095 0.4045
2894.583484 0.4000 0.3960 0.3938 0.3933 0.3893
2899.509596 0.3818 0.3751 0.3691 0.3650 0.3630
2904.435708 0.3603 0.3568 0.3548 0.3543 0.3530
2909.361820 0.3510 0.3495 0.3485 0.3480 0.3480
2914.287932 0.3478 0.3473 0.3468 0.3463 0.3460
2919.214044 0.3460 0.3455 0.3445 0.3440 0.3440
2924.140156 0.3440 0.3440 0.3444 0.3455 0.3465
2929.066268 0.3475 0.3487 0.3502 0.3517 0.3532
2933.992380 0.3547 0.3562 0.3579 0.3599 0.3614
2938.918492 0.3624 0.3643 0.3673 0.3707 0.3747
2943.844604 0.3780 0.3805 0.3843 0.3898 0.3953
2948.770716 0.4008 0.4053 0.4082 0.4104 0.4114
2953.696828 0.4148 0.4218 0.4264 0.4274 0.4280
2958.622940 0.4280 0.4276 0.4266 0.4256 0.4246
2963.549052 0.4229 0.4199 0.4169 0.4138 0.4062
2968.475164 0.3912 0.3812 0.3792 0.3750 0.3670
2973.401276 0.3599 0.3545 0.3501 0.3476 0.3455
2978.327388 0.3440 0.3430 0.3430 0.3428 0.3423
2983.253500 0.3417 0.3407 0.3400 0.3400 0.3398
2988.179612 0.3393 0.3390 0.3390 0.3390 0.3390
2993.105724 0.3390 0.3390 0.3390 0.3390 0.3392
2998.031836 0.3397 0.3400 0.3400 0.3400 0.3400
3002.957948 0.3403 0.3413 0.3422 0.3427 0.3430
3007.884060 0.3430 0.3435 0.3450 0.3460 0.3460
3012.810172 0.3462 0.3467 0.3470 0.3470 0.3471
3017.736284 0.3476 0.3480 0.3480 0.3483 0.3493
3022.662396 0.3500 0.3500 0.3500 0.3500 0.3497
3027.588508 0.3487 0.3480 0.3480 0.3479 0.3474
3032.514620 0.3470 0.3470 0.3471 0.3476 0.3483
3037.440732 0.3493 0.3500 0.3500 0.3501 0.3506
3042.366844 0.3510 0.3510 0.3512 0.3523 0.3531
3047.292956 0.3536 0.3544 0.3559 0.3575 0.3595
3052.219068 0.3612 0.3622 0.3635 0.3655 0.3673
3057.145180 0.3688 0.3709 0.3749 0.3783 0.3798
3062.071292 0.3815 0.3840 0.3867 0.3903 0.3935
3066.997404 0.3954 0.3971 0.3976 0.3984 0.4004
3071.923516 0.4023 0.4038 0.4051 0.4056 0.4060
3076.849628 0.4060 0.4060 0.4060 0.4062 0.4072
3081.775740 0.4080 0.4080 0.4080 0.4080 0.4078
3086.701852 0.4068 0.4059 0.4054 0.4047 0.4032
3091.627964 0.4018 0.4008 0.3998 0.3988 0.3980
3096.554076 0.3980 0.3980 0.3980 0.3980 0.3980
3101.480188 0.3981 0.3991 0.4001 0.4012 0.4022
3106.406300 0.4037 0.4053 0.4073 0.4092 0.4107
3111.332412 0.4121 0.4131 0.4140 0.4140 0.4141
3116.258524 0.4151 0.4161 0.4166 0.4171 0.4176
3121.184636 0.4183 0.4213 0.4247 0.4313 0.4372
3126.110748 0.4387 0.4405 0.4445 0.4483 0.4508
3131.036860 0.4531 0.4541 0.4551 0.4556 0.4561
3135.962973 0.4576 0.4595 0.4645 0.4692 0.4712
3140.889085 0.4733 0.4768 0.4800 0.4805 0.4810
3145.815197 0.4810 0.4811 0.4826 0.4842 0.4867
3150.741309 0.4892 0.4911 0.4931 0.4941 0.4951
3155.667421 0.4971 0.4990 0.4995 0.5001 0.5016
3160.593533 0.5031 0.5046 0.5060 0.5071 0.5081
3165.519645 0.5091 0.5100 0.5105 0.5110 0.5110
3170.445757 0.5110 0.5115 0.5121 0.5141 0.5161
3175.371869 0.5175 0.5190 0.5205 0.5220 0.5225
3180.297981 0.5230 0.5250 0.5270 0.5275 0.5280
3185.224093 0.5290 0.5301 0.5326 0.5350 0.5375
3190.150205 0.5400 0.5410 0.5420 0.5425 0.5430
3195.076317 0.5450 0.5470 0.5485 0.5500 0.5505
3200.002429 0.5510 0.5544 0.5579 0.5600 0.5620
3204.928541 0.5640 0.5660 0.5660 0.5660 0.5675
3209.854653 0.5690 0.5719 0.5749 0.5760 0.5770
3214.780765 0.5799 0.5829 0.5849 0.5869 0.5880
3219.706877 0.5890 0.5900 0.5909 0.5958 0.6008
3224.632989 0.6015 0.6020 0.6053 0.6088 0.6104
3229.559101 0.6119 0.6139 0.6159 0.6183 0.6208
3234.485213 0.6224 0.6239 0.6249 0.6259 0.6292
3239.411325 0.6327 0.6348 0.6368 0.6393 0.6418
3244.337437 0.6434 0.6449 0.6478 0.6508 0.6515
3249.263549 0.6520 0.6525 0.6530 0.6566 0.6606
3254.189661 0.6628 0.6648 0.6681 0.6716 0.6738
3259.115773 0.6758 0.6764 0.6769 0.6819 0.6874
3264.041885 0.6893 0.6908 0.6914 0.6919 0.6942
3268.967997 0.6967 0.6983 0.6998 0.7031 0.7065
3273.894109 0.7074 0.7079 0.7089 0.7099 0.7104
3278.820221 0.7109 0.7123 0.7138 0.7191 0.7252
3283.746333 0.7264 0.7269 0.7287 0.7307 0.7323
3288.672445 0.7338 0.7365 0.7395 0.7408 0.7418
3293.598557 0.7437 0.7457 0.7464 0.7469 0.7482
3298.524669 0.7497 0.7529 0.7564 0.7586 0.7607
3303.450781 0.7614 0.7619 0.7624 0.7629 0.7638
3308.376893 0.7648 0.7670 0.7695 0.7712 0.7727
3313.303005 0.7746 0.7766 0.7774 0.7779 0.7792
3318.229117 0.7807 0.7830 0.7855 0.7888 0.7923
3323.155229 0.7930 0.7930 0.7934 0.7939 0.7944
3328.081341 0.7949 0.7958 0.7968 0.7970 0.7970
3333.007453 0.7989 0.8014 0.8035 0.8055 0.8068
3337.933565 0.8078 0.8088 0.8097 0.8108 0.8118
3342.859677 0.8120 0.8120 0.8124 0.8129 0.8130
3347.785789 0.8130 0.8130 0.8130 0.8130 0.8130
3352.711901 0.8134 0.8139 0.8147 0.8157 0.8167
3357.638013 0.8177 0.8191 0.8206 0.8214 0.8219
3362.564125 0.8235 0.8255 0.8260 0.8260 0.8267
3367.490237 0.8277 0.8280 0.8280 0.8287 0.8297
3372.416349 0.8307 0.8317 0.8334 0.8354 0.8363
3377.342461 0.8368 0.8408 0.8463 0.8494 0.8514
3382.268573 0.8523 0.8528 0.8530 0.8530 0.8537
3387.194685 0.8547 0.8557 0.8567 0.8580 0.8595
3392.120797 0.8603 0.8608 0.8617 0.8627 0.8630
3397.046909 0.8630 0.8637 0.8647 0.8657 0.8667
3401.973021 0.8673 0.8678 0.8683 0.8688 0.8697
3406.899133 0.8707 0.8710 0.8710 0.8713 0.8718
3411.825245 0.8730 0.8745 0.8753 0.8758 0.8763
3416.751357 0.8768 0.8776 0.8786 0.8793 0.8798
3421.677469 0.8803 0.8808 0.8816 0.8826 0.8833
3426.603581 0.8838 0.8840 0.8840 0.8843 0.8848
3431.529693 0.8859 0.8874 0.8880 0.8880 0.8883
3436.455805 0.8888 0.8896 0.8906 0.8910 0.8910
3441.381917 0.8916 0.8926 0.8930 0.8930 0.8930
3446.308029 0.8930 0.8936 0.8946 0.8950 0.8950
3451.234141 0.8950 0.8950 0.8950 0.8950 0.8953
3456.160253 0.8958 0.8960 0.8960 0.8960 0.8960
3461.086365 0.8963 0.8968 0.8970 0.8970 0.8970
3466.012477 0.8970 0.8970 0.8970 0.8975 0.8985
3470.938589 0.8990 0.8990 0.8993 0.8998 0.9000
3475.864701 0.9000 0.9005 0.9015 0.9020 0.9020
3480.790813 0.9015 0.9005 0.9000 0.9000 0.9000
3485.716925 0.9000 0.9000 0.9000 0.9000 0.9000
3490.643037 0.9000 0.9000 0.9000 0.9000 0.8998
3495.569149 0.8993 0.8985 0.8975 0.8970 0.8970
3500.495261 0.8967 0.8963 0.8960 0.8960 0.8958
3505.421373 0.8953 0.8950 0.8950 0.8943 0.8928
3510.347485 0.8918 0.8913 0.8903 0.8888 0.8871
3515.273597 0.8851 0.8838 0.8833 0.8825 0.8815
3520.199709 0.8805 0.8795 0.8790 0.8790 0.8792
3525.125821 0.8797 0.8802 0.8807 0.8819 0.8839
3530.051933 0.8865 0.8900 0.8922 0.8927 0.8934
3534.978045 0.8944 0.8952 0.8957 0.8973 0.9003
3539.904157 0.9024 0.9034 0.9053 0.9083 0.9102
3544.830269 0.9107 0.9110 0.9110 0.9112 0.9117
3549.756381 0.9124 0.9134 0.9140 0.9140 0.9142
3554.682493 0.9147 0.9152 0.9157 0.9166 0.9181
3559.608605 0.9192 0.9197 0.9200 0.9200 0.9208
3564.534717 0.9228 0.9246 0.9261 0.9272 0.9277
3569.460829 0.9280 0.9280 0.9280 0.9280 0.9278
3574.386941 0.9273 0.9268 0.9263 0.9256 0.9246
3579.313053 0.9240 0.9240 0.9240 0.9240 0.9240
3584.239165 0.9240 0.9240 0.9240 0.9238 0.9233
3589.165277 0.9230 0.9230 0.9230 0.9230 0.9230
3594.091389 0.9230 0.9232 0.9237 0.9243 0.9253
3599.017501 0.9262 0.9267 0.9268 0.9263 0.9257
3603.943613 0.9247 0.9240 0.9240 0.9240 0.9240
3608.869725 0.9240 0.9240 0.9240 0.9240 0.9240
3613.795837 0.9240 0.9240 0.9240 0.9240 0.9240
3618.721949 0.9243 0.9253 0.9254 0.9234 0.9220
3623.648061 0.9220 0.9220 0.9220 0.9220 0.9220
3628.574173 0.9221 0.9226 0.9231 0.9236 0.9240
3633.500285 0.9240 0.9243 0.9253 0.9260 0.9260
3638.426397 0.9261 0.9266 0.9270 0.9270 0.9270
3643.352509 0.9270 0.9269 0.9264 0.9260 0.9260
3648.278621 0.9260 0.9260 0.9260 0.9260 0.9260
3653.204733 0.9260 0.9260 0.9260 0.9258 0.9248
3658.130845 0.9240 0.9240 0.9240 0.9240 0.9239
3663.056957 0.9234 0.9230 0.9230 0.9230 0.9230
3667.983069 0.9230 0.9230 0.9230 0.9230 0.9230
3672.909181 0.9230 0.9230 0.9230 0.9230 0.9230
3677.835293 0.9230 0.9230 0.9231 0.9236 0.9240
3682.761405 0.9240 0.9240 0.9240 0.9240 0.9240
3687.687517 0.9242 0.9252 0.9260 0.9260 0.9260
3692.613629 0.9260 0.9260 0.9260 0.9261 0.9266
3697.539741 0.9273 0.9288 0.9300 0.9300 0.9298
3702.465853 0.9288 0.9280 0.9280 0.9280 0.9280
3707.391965 0.9280 0.9280 0.9279 0.9274 0.9271
3712.318077 0.9276 0.9281 0.9291 0.9300 0.9300
3717.244189 0.9301 0.9306 0.9311 0.9316 0.9320
3722.170301 0.9320 0.9319 0.9314 0.9310 0.9310
3727.096413 0.9308 0.9293 0.9281 0.9291 0.9300
3732.022525 0.9300 0.9300 0.9305 0.9310 0.9310
3736.948637 0.9310 0.9310 0.9309 0.9305 0.9299
3741.874749 0.9284 0.9270 0.9270 0.9271 0.9286
3746.800861 0.9300 0.9305 0.9310 0.9315 0.9320
3751.726973 0.9320 0.9320 0.9320 0.9320 0.9320
3756.653085 0.9319 0.9309 0.9299 0.9279 0.9259
3761.579197 0.9249 0.9240 0.9240 0.9240 0.9240
3766.505309 0.9240 0.9240 0.9240 0.9250 0.9260
3771.431421 0.9260 0.9260 0.9245 0.9230 0.9230
3776.357534 0.9231 0.9251 0.9270 0.9275 0.9280
3781.283646 0.9280 0.9280 0.9280 0.9280 0.9280
3786.209758 0.9280 0.9280 0.9280 0.9280 0.9280
3791.135870 0.9280 0.9280
##END=
