##TITLE=Ethanol
##JCAMP-DX=4.24
##DATA TYPE=INFRARED SPECTRUM
##CLASS=IUPAC A
##ORIGIN=NIST, Anayltical Chemistry Division, 301-975-3108
##OWNER=COPYRIGHT (C) 1998 by the U.S. Secretary of Commerce
##DATE=98/10/1
##$SPECTRA VERSION=1.00
##$UNCERTAINTY IN Y=2.0 % relative (B=1.0E-04,C=2.9E-10,D=2.7E-14)
##CAS NAME=Ethanol
##CAS REGISTRY NO=64-17-5
##MOLFORM=C2 H5 O H
##MP=-117.3 C
##BP=78.5 C
##$NIST SOURCE=QUANT-IR
##SPECTROMETER/DATA SYSTEM=IFS66V (Bruker)
##INSTRUMENT PARAMETERS=KBr Beam splitter; MCT Detector; Multipass cell
##STATE=gas
##SAMPLE DESCRIPTION=Ethanol Primary Gas Standard
##PRESSURE=101.3 kPa
##TEMPERATURE=23 C
##SAMPLING PROCEDURE=1 L/min Flow
##RESOLUTION=0.9640
##DATA PROCESSING=3-Term B-H Apodization
##XUNITS=cm-1
##YUNITS=(micromol/mol)-1m-1 (base 10)
##XFACTOR=1.0
##YFACTOR=2.2737E-13
##DELTAX=0.4820
##FIRSTX=575.169
##LASTX=3975.077
##FIRSTY=2.20E-06
##MAXX=3974.59
##MINX=575.17
##MAXY=.0003209
##MINY=-4.34E-07
##NPOINTS=7053
##XYDATA=(X++(Y..Y))
575.17 9705552 10639950 11363860 12395890 13341000 11989420
577.58 8622704 6751332 6812756 7788018 8862546 8025134
580.47 7434734 9660544 10962210 10117510 11101320 13411040
583.37 12992650 11381260 11178010 11593770 10926590 9542440
586.26 7927870 6660510 7132130 9768258 12091310 11002090
589.15 9114872 9513460 10684140 10969650 10372460 9799742
592.04 10134560 10741080 10558200 10377190 10859870 10610720
594.94 10490220 11586470 12268780 12018900 12419540 12187290
597.83 10888170 10774390 11204820 11388450 11861930 12033980
600.72 11246140 10827170 11551710 11919290 11046030 10367560
603.61 10901860 11888220 12489390 12824880 13281870 12996130
606.51 12212660 12117540 12147910 12059370 12491610 12690330
609.40 12067760 11764210 11514160 11063720 11038710 11294090
612.29 11112470 10555360 11316580 12657770 12732350 11867020
615.18 10742870 10582140 11575930 13037620 13425300 11958340
618.08 11182280 12060950 12649360 12575970 13090480 13699840
620.97 13356900 12849600 12168660 11486840 11746590 11982320
623.86 11286820 11003390 11503740 11727530 11800680 12086660
626.76 12340150 11980290 11277150 11006950 10839460 10586280
629.65 10661120 10995240 11406660 11311210 10620680 10471500
632.54 11077950 11660360 11870630 11269240 10444630 10508110
635.43 11017540 10982650 10892460 11243570 11090590 10740240
638.33 10853990 10845820 10852630 10887550 10876390 11210040
641.22 11210120 10683950 9951738 9481056 9742068 10428930
644.11 10885810 10491640 9815252 9791842 9739220 9288136
647.00 8950286 8731248 9020782 9359420 9309346 9101324
649.90 8671482 8297164 8171334 7890746 7025268 6777442
652.79 7493358 7797028 7415434 6874068 6965434 7539136
655.68 7316266 6400832 6051188 6736806 7918542 8412702
658.58 8047486 7599402 7297014 7070962 7597492 8079488
661.47 7597948 7359496 7523836 7021054 6014056 5998976
664.36 6921520 7079520 6796232 6789686 8107798 12252550
667.25 14713460 12049130 9004740 8225448 7635854 6407620
670.15 5859792 6423684 7097214 6923332 6362370 6121984
673.04 5959004 5760976 5609514 5704244 6328776 6610122
675.93 5781172 5204506 5461748 5320092 5275266 6019456
678.82 6209568 5284328 4808710 5593066 6321194 5852692
681.72 5028994 4755752 5254974 6162288 6349446 6023744
684.61 6062584 5963120 5029130 3944692 3807534 4272016
687.50 4566594 4700740 4920836 5230388 5469196 5088814
690.40 4303742 4018014 3825730 3264282 3027916 3556098
693.29 4398538 4506264 3897978 3519550 3292952 3139290
696.18 3407966 3766584 4078168 4009534 3297542 2596966
699.07 2537700 3138302 3613762 3757216 3846340 3741936
701.97 3366894 3121952 2968234 2791130 2753174 2660402
704.86 2421626 2359060 2419742 2371164 1982966 1808728
707.75 2240932 2576786 2577102 2597746 2774102 2902586
710.64 2714748 2479542 2268624 1960382 1785488 1656488
713.54 1730244 2169796 2466292 2249830 1923278 1933464
716.43 1934226 1718886 1559034 1790700 1987144 1804872
719.32 1774792 2300688 2795914 2530104 1724388 1505466
722.22 2170786 2688644 2793946 2704740 2487820 2715292
725.11 3189482 3098926 2887052 2902624 2928682 2884638
728.00 2638160 2357300 1986688 1779814 2025636 2767568
730.89 3315276 3053146 2512444 1979974 1682958 2135182
733.79 2822974 2828520 2560804 2770662 3221398 3220190
736.68 2732182 2332792 2211882 2303002 2536632 2985762
739.57 3453222 3692160 3564226 3268896 3164490 3207726
742.46 3109722 2931640 3179018 3756624 3985998 3889572
745.36 3688638 3522228 3754796 4007064 3732538 3367418
748.25 3205446 3289820 3564424 3532074 3244026 3464270
751.14 3963208 3948396 3797124 4022630 4284834 4361478
754.04 4235280 3855218 3635818 4120370 4772324 4830786
756.93 4482176 4359660 4779962 5364810 5501298 5399080
759.82 5787248 6105154 5650944 5064628 4986478 5436078
762.71 6270302 6947022 7154144 7271980 7215292 6954898
765.61 6791018 6785444 6927546 7284174 7525538 7886378
768.50 8609522 9032794 9008916 9017502 9186138 9121934
771.39 8911036 9186702 10155700 10723690 10415150 10619740
774.28 11193030 11458120 11630080 11344780 10877660 11155680
777.18 12044230 12868160 13408550 13450260 13145050 13163950
780.07 13541220 14079670 14535970 14662270 14695990 14997640
782.96 15405150 15696360 16045660 16542890 16506980 16082450
785.86 16323770 16694350 16323820 16131110 16923100 17426530
788.75 16769490 16635190 17220720 16786510 15710790 15766400
791.64 16629650 16661950 16441030 17046980 17395750 17180170
794.53 17363040 17409590 16746220 16528970 17711850 20376750
797.43 21815440 20218810 18099790 17519700 19622890 24546730
800.32 29555580 30052470 25441790 20996550 19294600 18835530
803.21 18720330 19533510 21691340 23082360 21715660 19373550
806.10 18057640 17850960 17988830 17964300 17945010 17905670
809.00 17676870 17634630 18681550 20144210 20361310 20296170
811.89 20761750 20932970 20455830 19498320 18571860 17789440
814.78 17770630 18093660 17874130 18074770 18299290 17699820
817.68 17336930 17670650 18140410 18286620 18194900 18348370
820.57 18446910 17728960 17052960 17577940 17965480 17346360
823.46 16920110 17000270 16864500 16963820 17277100 17467950
826.35 17617090 17495850 17385370 17446240 17462150 17198600
829.25 16749540 16832090 17150800 17150490 17178260 17233070
832.14 17104840 17230590 17539570 17422480 17238720 17838480
835.03 18627520 18980140 19040580 19128510 19570720 19769230
837.92 19667130 20019580 20630040 21046500 21716360 22540690
840.82 23117910 23827450 24590790 25199020 26041260 26982840
843.71 27787870 28747840 30059520 31366560 32130830 32609910
846.60 33808220 35978420 37977020 39461150 41211020 42989130
849.50 44679500 46563780 48329920 50236620 52836220 55770620
852.39 58348380 60487090 63058440 66377900 69573660 72404720
855.28 75517840 78898950 82115030 85556000 89478580 93246470
858.17 96862570 101174700 105541000 109290000 113141100 117172200
861.07 120588100 124036400 128337000 132807000 136815000 140671100
863.96 144256100 147143300 150596100 154770700 157360700 158506000
866.85 160955800 163886600 164435800 164317600 166381200 168316100
869.74 167766000 166882400 166976200 165568100 162311700 160305000
872.64 159092200 156771500 153976500 151421600 148905200 146480000
875.53 144545500 143963400 145211000 148485700 156267300 183471200
878.42 242442800 275859800 231734300 173348400 152041000 152122800
881.31 160019100 174653400 188371400 186803800 173896300 163896800
884.21 160982900 161745700 162325300 162309100 162155200 161751200
887.10 162404700 164707200 167023000 169182300 172758800 179752100
889.99 194981500 223714700 245938000 235256800 211182300 198685500
892.89 193167500 188171700 185417800 185702900 186574600 186940400
895.78 187666400 188809400 188785400 187222900 185988900 185554800
898.67 183914200 181082000 178680300 176415200 173249200 170015800
901.56 167077600 163323200 158830700 154500300 150381400 146291900
904.46 142219100 138451100 134126600 128903900 124149400 119672000
907.35 114864600 110500900 106353000 101687200 96815620 92820220
910.24 89556240 85976560 81962690 78276130 75007300 71478190
913.13 67796660 64594580 61962700 59359960 56775290 54624460
916.03 52436480 49797810 47399890 45850320 44254690 42109250
918.92 40298290 39106360 37825340 36522690 35496880 34442540
921.81 33394130 32546440 31550600 30488920 29658000 29190330
924.71 28835020 28179430 27448100 27050920 26650480 26055210
927.60 25556890 25362030 25183030 24903400 24487310 23807190
930.49 23084170 22716770 22483830 22096160 21676890 21523840
933.38 21552380 21416430 21050720 20673830 20356420 20281490
936.28 20248170 20005330 19833400 19722060 19575310 19469370
939.17 19214360 18945400 18901300 18945420 18697140 18353250
942.06 18220750 18349320 18439470 18201070 17970890 17945100
944.95 17905170 17842990 17702400 17521250 17473390 17678300
947.85 17661360 17348310 17243300 17387290 17458780 17525660
950.74 17480350 17465270 17706570 17896510 17875310 17860580
953.63 17841870 17729520 17638680 17759760 17974940 18162070
956.53 18440440 18831480 18977980 18971630 19292570 19946820
959.42 20652720 21037130 20851660 20753970 21142410 21407240
962.31 21469850 21730110 22015160 22212230 22304320 22546650
965.20 23101570 23722250 24076480 24139210 24190120 24693220
968.10 25439950 26051450 26549680 27034470 27589640 28379140
970.99 29192490 29944030 30521790 30900870 31226420 31664730
973.88 32261720 33089220 34103790 34984560 35465950 35976190
976.77 36618800 37306500 38013400 38995540 40236170 41319840
979.67 42280860 43343620 44347140 45426840 46659810 47727700
982.56 48788980 50296730 51922370 53293800 54515360 55896160
985.45 57511040 59249700 60900480 62595910 64620950 66967480
988.35 69260500 71338970 73289170 75572450 78319490 81151490
991.24 83858000 86825270 89906660 92745660 95399630 98209090
994.13 101515700 105247700 109197500 113247200 116909100 120588800
997.02 124998900 129875700 134862300 139963200 145162000 150457800
999.92 155444000 160490900 166356900 172929600 179215000 186219900
1002.81 195179100 204604400 213076200 220142600 226143300 231647700
1005.70 236924100 243176000 250535800 257783900 264161900 271229700
1008.59 280170200 289330200 297557300 306497600 315790400 324125900
1011.49 332309500 341054000 348677700 353904700 360709300 370700800
1014.38 378303800 382813900 387863400 394588900 398376500 399062700
1017.27 402839900 410462200 415914700 415686200 415061400 419280100
1020.17 423062400 424295100 428106000 434585200 438527600 438681400
1023.06 440276400 446290300 454911400 469104900 496594100 539310800
1025.95 597818600 680515500 764561000 777964400 688518100 573684300
1028.84 516403700 507774900 516781200 531537900 547197600 566668600
1031.74 588822000 607107500 620847800 636112100 657113900 681169700
1034.63 706289000 738737700 785626500 844892000 901600400 933324200
1037.52 916848800 881995600 876351700 890409500 906687800 926720400
1040.41 947474500 961696300 972764400 985884100 1000991000 1016279000
1043.31 1029624000 1040115000 1049019000 1061924000 1078856000 1092561000
1046.20 1101140000 1104940000 1102906000 1101876000 1108334000 1119452000
1049.09 1131020000 1140701000 1143635000 1141993000 1146082000 1154498000
1051.99 1160307000 1159248000 1150507000 1141271000 1137252000 1139822000
1054.88 1148542000 1159801000 1178673000 1212122000 1254008000 1279591000
1057.77 1246305000 1161304000 1087882000 1049729000 1030477000 1017632000
1060.66 1010958000 1013088000 1022421000 1040483000 1065978000 1094786000
1063.56 1124126000 1162676000 1227783000 1317402000 1401617000 1411760000
1066.45 1332649000 1246771000 1161174000 1075838000 1033536000 1024340000
1069.34 1034144000 1047635000 1057751000 1072058000 1085754000 1098818000
1072.23 1113027000 1121761000 1129628000 1138885000 1142152000 1138318000
1075.13 1134656000 1133969000 1132526000 1126908000 1116979000 1105573000
1078.02 1093620000 1081009000 1063650000 1041996000 1021434000 1000908000
1080.91 980170200 958878600 935714400 911841400 889945900 871232800
1083.81 852282800 830014500 805785800 784051300 766742100 747630800
1086.70 721356900 695676500 681988700 675651300 670513900 665861100
1089.59 646175100 598879200 542700100 503890700 484876600 474357200
1092.48 466064200 459085200 453657800 447807600 440622700 434674500
1095.38 432578400 434706700 434935900 428697000 423297800 420989500
1098.27 418881300 417922300 416387900 412939600 410091100 407115400
1101.16 401743300 396786100 394355700 390630200 384377200 379066200
1104.05 373943100 366167200 358392900 350716400 341290500 333110100
1106.95 326470900 317987700 308622300 300719000 293181100 285212700
1109.84 277287700 267664900 256521400 246387600 237875900 230747300
1112.73 224830000 219338800 213909300 208824700 201939600 191223300
1115.63 180717300 175146500 173164600 169264500 162662200 157669200
1118.52 153814200 148017200 142026800 137918400 134818400 131406300
1121.41 128103100 125257300 122038000 118960200 116905300 115012100
1124.30 112403800 109806800 108539600 106711500 103171900 100574500
1127.20 99758900 98217890 95323220 93182460 92123330 89985820
1130.09 87587780 87022810 85607610 82374320 80737780 80757860
1132.98 79533530 77376610 76465840 75916400 73487130 70581370
1135.87 69546020 69107130 67602910 65970980 65011320 63702920
1138.77 61980980 60923640 60610230 60047480 59176990 58408020
1141.66 57232500 55406780 53826500 53263710 53279320 52992330
1144.55 52138280 50906850 49781210 49025610 48525940 47992610
1147.45 47547580 47101340 46621960 46170800 45760200 45777300
1150.34 46195890 46579600 47274380 48425400 48666300 47434410
1153.23 46013140 45337300 45210180 45119350 44851040 44458400
1156.12 44095410 43747050 43554640 43685030 43820630 43678580
1159.02 43342560 42989450 42838490 43120080 43668970 43664110
1161.91 43260440 43190950 43365600 43529680 43732300 44151500
1164.80 44837170 45631520 45528220 44722160 44619410 44717710
1167.69 44492860 44547080 44888070 44919410 44585470 44387460
1170.59 44678640 45170690 45668990 46387610 46983200 47114350
1173.48 47094900 47316910 47691440 47965060 48499770 49104460
1176.37 49595800 50342400 51002140 51127280 51363940 52226490
1179.26 53256640 54067660 54691910 55193220 55935360 56854080
1182.16 57618600 58344860 59182970 59900000 60527560 61313140
1185.05 62116620 62788050 63539440 64516900 65424100 65976870
1187.94 66560910 67327990 68034890 68650650 69407570 70303980
1190.84 71345610 72723940 74283600 75600380 76690420 77891340
1193.73 79143280 80263140 81385240 82541490 83880750 85221410
1196.62 86234040 87063830 88046420 89116140 89940340 90563480
1199.51 91404300 92573840 93945000 95228810 96580570 98388070
1202.41 100239300 101807500 103432800 105387500 107915300 110862400
1205.30 112809200 114127000 116867900 120489300 122961600 124272800
1208.19 126246900 129649100 133955500 137428700 139670300 142985600
1211.08 147391100 151336000 154852700 159130400 164125700 169992600
1213.98 175581300 178390600 181679200 189745300 197915100 201248200
1216.87 206038700 214125400 218365600 222141600 230867600 236504200
1219.76 238203400 246661200 255902600 256633300 260967900 272373800
1222.66 275782700 274839600 283028100 290843700 288445600 290766800
1225.55 303609000 305955300 299661900 306857900 315304000 310549900
1228.44 309934300 318242700 318038700 312499600 317211200 319645100
1231.33 308740700 303034600 304803700 299677900 290327700 283356200
1234.23 280445000 277508800 269635600 262911500 260594800 257801200
1237.12 250616600 242108300 236510500 231791000 232761400 256057500
1240.01 322991100 409267600 428744100 367432000 305545300 282681900
1242.90 274008300 263705200 263793800 272036900 278346200 285438500
1245.80 292574500 293415600 291073200 296034900 315978700 346041700
1248.69 365731800 364341100 354481900 338073300 322202500 320775700
1251.58 325082600 320834100 314227900 316297300 318699700 311417000
1254.48 304297700 305291600 306025400 301136800 297544600 297960100
1257.37 293492400 284859300 282732700 284563600 280444000 272924200
1260.26 269118800 265572900 256793800 247518600 244029700 242077600
1263.15 235762800 228796100 225147000 220687400 213093200 206937000
1266.05 203033700 196971800 188760400 182533400 178954300 174015900
1268.94 166581600 160154000 157569900 155497700 150192800 145485700
1271.83 143573200 140921600 136996400 133543200 130076200 126599200
1274.72 124291800 122931500 121400200 119134000 116244400 113844000
1277.62 112297500 110311800 107872000 105877000 104348400 102778200
1280.51 100957600 98862980 96749910 94886300 93289660 92041210
1283.40 90752940 88840400 86856020 85352620 84245230 83583200
1286.30 83154600 82296300 81172110 80382850 79730170 78776190
1289.19 77773970 76973180 76335440 75833000 75261280 74404650
1292.08 73392000 72529080 72008770 71524380 71157140 71058560
1294.97 70884770 70426930 69913090 69440730 68926410 68245230
1297.87 67240290 66214170 65576080 65304350 65439440 65559760
1300.76 65310990 64967560 64880690 65260720 65983940 66703390
1303.65 66877470 66391390 66108240 66597510 67283540 67192650
1306.54 66389040 65780040 65479030 65292640 65421900 65671490
1309.44 65816810 65846290 65863250 65964060 66034300 65948200
1312.33 65841930 65735200 65565350 65382420 65409740 65514340
1315.22 65641650 65950340 66198560 66175180 66098630 66000580
1318.12 65933940 66042200 66215040 66468570 66945490 67726850
1321.01 68620890 69377230 70018860 70253690 70172150 70331000
1323.90 70752540 71033600 70772060 69991280 69233720 68699420
1326.79 68371920 68168430 67944620 67907310 68275590 68719810
1329.69 69244560 69975730 70380310 70515700 70958990 71519100
1332.58 71816750 71839840 71703320 71656640 71974130 72789540
1335.47 73829540 74895780 76075900 77186010 78129770 78401980
1338.36 77246010 75748100 75384100 75805230 76558420 77974300
1341.26 79452300 79862040 79800710 80025580 80679720 81711470
1344.15 82557240 82988320 83618370 84698100 85925700 87199330
1347.04 88347290 89202680 90149620 91261200 92147300 92659000
1349.94 93216370 94579660 96645060 98793200 100942800 103079200
1352.83 105145400 107007800 108821100 110815200 112730300 114662200
1355.72 117265800 120190600 122662900 125421600 128501100 131028400
1358.61 133407100 136092700 139132000 142527700 145810700 148923700
1361.51 152177600 155995400 160465300 164519000 168492500 173671800
1364.40 179030400 183165200 187130400 192271400 197609200 202092400
1367.29 206775600 212354000 218055700 223579400 230201400 238099200
1370.18 245438500 251642700 257851300 264844200 271868700 277823500
1373.08 283681700 290502200 297306900 303447100 309639100 316241400
1375.97 323520900 331011300 337500900 343398800 349548000 355267600
1378.86 359623100 363346500 367371100 371009400 373822100 375543000
1381.76 376162300 376522200 376422900 374585200 370378300 365235300
1384.65 360113200 353517500 346200700 339898200 333410700 325417100
1387.54 316763900 309764100 305842000 305969900 311644400 321662500
1390.43 334578800 352539000 375075000 409279200 473656300 562869900
1393.33 627036400 618324500 540361500 441224200 368548900 330881400
1396.22 315635700 311740500 312995000 317864000 324619800 331008500
1399.11 336630500 343330600 352112700 361843200 371301000 380658400
1402.00 390609900 399260100 405897000 413571300 422170400 427386400
1404.90 428096400 426837000 425728900 424391500 422237200 419725900
1407.79 416345800 411632800 405843600 399026100 390976500 382525300
1410.68 374345100 365690000 356206100 346046400 335496900 324362400
1413.58 312683300 301288100 290733100 281020700 271657800 261898700
1416.47 251573400 241791900 233484600 225831700 217876900 209828800
1419.36 202663200 196738800 190940800 185016400 180370900 176547000
1422.25 171895500 166892400 162637100 159185900 156557500 154227900
1425.15 151252600 147898500 145190200 143392200 141887100 139741900
1428.04 136373500 132332500 129033400 127289100 126819900 126553100
1430.93 125827800 125108600 125288600 125841100 125489200 124622900
1433.82 125141800 126781600 126589300 124598700 124439700 126319200
1436.72 127088900 126439100 125987600 125067900 123538100 123481400
1439.61 124054100 123420100 123362700 124062100 123173500 121863800
1442.50 122402800 122803600 121520600 120719200 121289600 121899200
1445.40 122302700 122576900 123373000 125719400 128949800 133995400
1448.29 143512500 157285600 170839100 170383000 154746100 143814200
1451.18 142404100 143568400 147395600 157007700 163740000 156706600
1454.07 145398400 134885700 120663800 107025100 99356360 96830910
1456.97 96215660 95773270 95117830 94225400 93907500 93989150
1459.86 93905380 94338680 94847140 93731340 91572100 90008820
1462.75 89241010 88989730 88677610 87870870 87627270 88841740
1465.64 89648260 88269970 86616820 87115940 88341940 87841840
1468.54 86765780 87066950 87706460 86710600 85335540 85968960
1471.43 87814790 87798610 85983010 85700540 87434940 88069560
1474.32 86657650 85936330 86838250 87122280 85899710 85020060
1477.21 85330920 85362310 84180530 82465350 81304430 81219340
1480.11 80937050 78864320 76339420 75249850 74878590 73501830
1483.00 71121890 69163620 68028600 66527500 64630320 63225340
1485.89 62119930 61083780 60269000 59781860 59585600 59586360
1488.79 59787840 59818270 59221140 58058770 57021660 56712720
1491.68 56899110 57300770 57101040 55305510 52781480 50666350
1494.57 49041250 48084480 47612230 46952160 46059630 45271860
1497.46 44841190 44629240 44288760 43779010 42952200 42091190
1500.36 41615230 41148890 40416680 39702230 39131630 38577510
1503.25 38021740 37540650 36962780 36084940 35143110 34335840
1506.14 33615770 32942060 32295680 31628420 30809430 29973940
1509.03 29232850 28509050 27873770 27203420 26252810 25423420
1511.93 25058870 24667250 23947370 23222730 22639340 22043630
1514.82 21380270 20767570 20174070 19668500 19369400 19024970
1517.71 18381490 17640710 17037270 16493550 15989600 15543080
1520.61 15103240 14692410 14346060 13960150 13659310 13472580
1523.50 13209890 12762030 12317440 12064920 11908580 11644510
1526.39 11228540 10810270 10423830 10010280 9588014 9319582
1529.28 9213800 8997182 8641064 8326116 8137820 8120628
1532.18 8141654 8026140 7765516 7375400 7036706 6739540
1535.07 6557296 6564354 6412916 6024536 5704748 5653674
1537.96 5740052 5722036 5551670 5288012 5054438 4951356
1540.85 4914462 4765402 4572168 4497702 4441350 4354316
1543.75 4256098 4111478 3980064 3862228 3672808 3537876
1546.64 3619670 3671506 3584532 3551778 3492504 3319848
1549.53 3217464 3280514 3402884 3277258 3033362 2982438
1552.43 2938088 2821528 2757626 2790066 2813290 2783480
1555.32 2794484 2742356 2671310 2574706 2381518 2310980
1558.21 2426796 2504334 2424700 2360328 2367320 2384450
1561.10 2410578 2314552 2189962 2199402 2180672 2173996
1564.00 2225360 2231840 2184056 2105794 2108918 2051172
1566.89 1921816 1825520 1751090 1878850 2023394 1957152
1569.78 1903856 1964902 2038100 1978140 1793046 1751896
1572.67 1861706 1919032 1912790 1878018 1903490 1929450
1575.57 1840826 1706930 1663112 1746728 1906552 2036528
1578.46 2052598 1881768 1648778 1585350 1773460 1919946
1581.35 1788476 1657068 1745968 1802842 1745630 1624344
1584.25 1538326 1568372 1583244 1645498 1715222 1699230
1587.14 1691278 1784698 1927562 1972686 1898054 1812980
1590.03 1802126 1781926 1760626 1792276 1868774 1899240
1592.92 1897404 1946618 2057386 2061440 1836680 1691000
1595.82 1749676 1881072 1981234 1963196 1806646 1638422
1598.71 1652784 1769740 1801424 1742136 1693838 1732324
1601.60 1846276 1972848 1950622 1791172 1678396 1623748
1604.49 1665554 1829726 1888904 1903034 1967108 1867242
1607.39 1643300 1480142 1585736 1962290 2282002 2247334
1610.28 1956358 1672326 1580588 1643820 1672384 1652192
1613.17 1606466 1524104 1434292 1493614 1677692 1611128
1616.07 1465368 1563778 1705520 1645238 1499654 1516694
1618.96 1652732 1801838 1865590 1780138 1719782 1732312
1621.85 1751962 1668574 1553154 1608368 1596522 1440606
1624.74 1375716 1421488 1486804 1497588 1528994 1611640
1627.64 1687220 1691946 1597622 1551472 1599824 1623378
1630.53 1617496 1621384 1642576 1613474 1601532 1602134
1633.42 1527870 1499260 1433984 1359278 1410362 1472740
1636.31 1542526 1569076 1483680 1387072 1360378 1477116
1639.21 1673242 1856504 1872880 1765324 1769374 1759682
1642.10 1627586 1570890 1664802 1800330 1907808 2022778
1644.99 1992574 1732538 1591400 1651510 1688116 1819456
1647.89 1980772 1994724 1967458 1831548 1660780 1686146
1650.78 1803890 1824386 1734148 1672236 1638556 1666948
1653.67 1801862 1798668 1587962 1445270 1557434 1721506
1656.56 1708578 1688946 1754232 1751268 1663838 1639416
1659.46 1735256 1871692 1919706 1861458 1835644 1795366
1662.35 1797614 1940248 2088338 2058440 1846134 1659680
1665.24 1703190 1821404 1904988 2019098 2036880 1899492
1668.13 1920488 2104418 2185592 2219292 2222812 2166298
1671.03 2090130 2127728 2301642 2310718 2238254 2299430
1673.92 2472174 2511148 2347888 2209620 2118422 1982126
1676.81 1950666 2091802 2190376 2193562 2240346 2237976
1679.71 2252120 2290660 2276892 2242288 2209314 2228740
1682.60 2233188 2223252 2204642 2164500 2226058 2306256
1685.49 2290320 2249816 2223406 2168696 2081092 1986988
1688.38 1978522 2108352 2224702 2151518 2057804 2144908
1691.28 2220954 2130762 2021456 2004890 1932260 1808934
1694.17 1857310 1999106 2020944 1945940 1944510 2075876
1697.06 2093344 1884582 1790236 1851892 1850346 1817218
1699.95 1803724 1846202 1920186 2012784 2156160 2161170
1702.85 2015348 1863408 1771540 1800776 1805096 1732758
1705.74 1653968 1583182 1565588 1643824 1741732 1709298
1708.63 1613318 1522060 1469528 1499794 1545620 1564598
1711.53 1540684 1511092 1609276 1758634 1809516 1760634
1714.42 1727054 1870544 2060898 2059826 1954952 1832128
1717.31 1740732 1659162 1569986 1492370 1455266 1457728
1720.20 1593852 1831266 1896394 1781394 1716642 1701638
1723.10 1604722 1464074 1435164 1506424 1522374 1442790
1725.99 1432228 1441768 1404962 1458330 1458962 1429800
1728.88 1515142 1512520 1469444 1517884 1546782 1530946
1731.77 1508386 1511888 1507154 1403076 1287976 1392504
1734.67 1654118 1728886 1683944 1750518 1768856 1692868
1737.56 1755310 1834170 1839810 1995154 2160314 2086170
1740.45 1938758 1962574 2033756 2058438 2151196 2176940
1743.34 2033536 1983224 2114620 2207314 2151292 2072832
1746.24 2021636 1985756 2033066 2035938 2018734 2138008
1749.13 2224908 2203018 2096724 2003180 2068534 2213954
1752.02 2340772 2387804 2238890 2054986 1965898 2042916
1754.92 2422980 2819456 2849068 2538186 2121566 1794502
1757.81 1755792 1965700 2217768 2430002 2494786 2417542
1760.70 2361542 2435582 2562342 2651106 2769994 2808714
1763.59 2670378 2540906 2607228 2708658 2646688 2534548
1766.49 2568028 2709496 2806244 2869788 2907676 2890706
1769.38 2863906 2841242 2844312 2809048 2767864 2753704
1772.27 2737362 2649070 2579454 2632186 2586656 2400654
1775.16 2318876 2351652 2408550 2395074 2330110 2360594
1778.06 2516632 2555476 2497246 2624572 2724586 2442586
1780.95 1977414 1623918 1459978 1485680 1532506 1580130
1783.84 1678542 1644062 1573372 1548842 1454006 1429948
1786.74 1580836 1661354 1557014 1512734 1566918 1458806
1789.63 1230874 1125968 1107158 1090272 1073378 1012964
1792.52 977912 973942 996034 1002410 974464 959582
1795.41 882578 773466 728536 760006 790638 713048
1798.31 569714 446532 302548 187726 215406 256002
1801.20 200484 134448 126034 86692-39500-121460
1804.09-43208 105196 169980 74332-116758-189696
1806.98-145426-119524-214484-348010-413532-526602
1809.88-588068-514320-435758-412128-525910-705068
1812.77-749916-691012-621954-523292-466786-511494
1815.66-536912-605842-773916-911626-866920-637422
1818.56-511266-586782-628752-619596-666700-779932
1821.45-941500-1059944-943028-716834-649896-711476
1824.34-732984-706986-741400-773026-688044-633210
1827.23-692176-773120-814040-868218-871730-825152
1830.13-809446-735316-655754-727610-877692-904798
1833.02-741632-637072-671322-708246-718872-803522
1835.91-920094-928248-882492-883686-873454-854134
1838.80-835576-842736-937226-984648-935866-880730
1841.70-844088-769402-690474-666562-726480-781226
1844.59-657856-566476-710382-844804-803964-772550
1847.48-793894-769156-765300-836426-859820-754208
1850.38-565584-544494-741740-897328-894648-813752
1853.27-683470-554338-560248-646462-640986-632218
1856.16-734660-759466-584256-457882-453672-421818
1859.05-401852-414038-391254-353742-344864-378450
1861.95-472438-440082-269542-268070-413644-384708
1864.84-202756-109716-125414-84148 78596 175726
1867.73 151174 120054 98904 113672 183362 163850
1870.62 112682 186870 285884 378304 472876 501184
1873.52 575732 696418 724110 710202 690378 746358
1876.41 830962 786246 777742 881608 962504 1048740
1879.30 1148558 1152440 1115588 1230204 1356086 1314022
1882.20 1425430 1722936 1894772 2004100 2180746 2354596
1885.09 2458462 2510396 2547794 2657118 2855682 3074996
1887.98 3197938 3299166 3533430 3718524 3861082 4095840
1890.87 4270400 4337332 4373478 4484622 4738716 4988088
1893.77 5202954 5476042 5679692 5863840 6150082 6312934
1896.66 6344854 6543962 6881160 7107784 7175178 7321064
1899.55 7531238 7751698 7981046 8073060 8230092 8614126
1902.44 8954294 9033094 8953070 8981734 9173776 9393396
1905.34 9536150 9616144 9771410 10003600 10211120 10388970
1908.23 10579830 10755450 10812380 10825220 10922750 11103830
1911.12 11446190 11898290 12260500 12592920 13064570 13659850
1914.02 14361160 14964580 15100070 14649600 13899900 13217770
1916.91 12859190 12910950 13159420 13491020 13914770 14245960
1919.80 14517520 14779320 14875330 14953620 15154940 15441700
1922.69 15756890 15962840 15968480 15909320 16064940 16392500
1925.59 16757280 17001140 16899300 16561560 16256740 16140520
1928.48 16170630 16191420 16319310 16710920 17082350 17327050
1931.37 17671970 18089230 18537620 19502250 20919540 21056290
1934.26 19057550 16758450 15631850 15393900 15361800 15132260
1937.16 14728170 14389310 14280320 14337090 14359340 14244510
1940.05 14154900 14228070 14345340 14410710 14539030 14766650
1942.94 14966640 15077440 15139520 15228060 15142120 14660510
1945.84 14095960 13599400 13070580 12635620 12302800 11983530
1948.73 11686350 11426320 11134910 10807710 10543470 10375760
1951.62 10189020 9884006 9489626 9119362 8848318 8663746
1954.51 8459934 8209620 8013526 7771738 7472930 7304596
1957.41 7179496 7000822 6766174 6537680 6363610 6178742
1960.30 6050104 5946290 5735682 5491594 5405158 5451048
1963.19 5419706 5268464 5107524 4923234 4782622 4779994
1966.08 4797686 4775102 4630520 4434474 4221374 3995104
1968.98 3896390 3814326 3677658 3611930 3549082 3401794
1971.87 3233494 3134634 3040050 2893220 2865246 2989134
1974.76 3151612 3245350 3149818 3017156 3046358 3109908
1977.66 3060080 2867466 2606580 2308480 2062172 2032084
1980.55 2076278 2060828 2131168 2170564 2038912 1986740
1983.44 2114780 2246112 2255556 2175792 2128522 2142858
1986.33 2244442 2345542 2302730 2166680 2103910 2176610
1989.23 2199792 2018594 1782756 1672582 1642404 1615782
1992.12 1569448 1455340 1215374 958420 955372 1111874
1995.01 1038370 854422 740526 618370 544532 502052
1997.90 363938 241150 256958 222696 159290 186960
2000.80 129746-125632-382356-476008-523964-521112
2003.69-424958-375880-421462-612922-860514-914882
2006.58-885122-944810-1048986-1118044-1107678-984766
2009.48-834922-904274-1125042-1315742-1361222-1214886
2012.37-1071278-987108-884198-909602-1086840-1257014
2015.26-1375882-1464202-1523102-1516350-1512850-1565626
2018.15-1570446-1578010-1625056-1609552-1531448-1436958
2021.05-1373138-1370230-1440410-1523572-1527918-1445994
2023.94-1419370-1462478-1394010-1383124-1487694-1507130
2026.83-1506630-1552402-1568866-1526744-1467486-1489370
2029.72-1571156-1606580-1601830-1540904-1454134-1467908
2032.62-1481452-1399250-1350840-1366292-1417218-1515994
2035.51-1560014-1464800-1415090-1451336-1454076-1447054
2038.40-1337746-1213402-1230284-1302570-1339772-1307538
2041.29-1288998-1309736-1261228-1253258-1339456-1410156
2044.19-1516238-1535962-1338930-1184534-1327432-1523040
2047.08-1486116-1363832-1243600-1081176-927108-938948
2049.97-1004952-1037642-1151394-1336684-1497706-1573742
2052.87-1628094-1645218-1669214-1737740-1736552-1598712
2055.76-1310486-871336-549938-558050-651396-676602
2058.65-690438-742318-839838-846790-766950-825356
2061.54-945094-872060-734006-680722-540546-539602
2064.44-775234-838234-665890-526478-492982-538772
2067.33-584502-401678-142632-215366-442170-633602
2070.22-648314-532526-548490-590628-329522 85624
2073.11 46450-289010-538306-695540-591204-227448
2076.01 50838 330860 698764 680212 364408 140866
2078.90 90250 176772 225612 196762 382302 965490
2081.79 1236192 1006794 916138 916452 887142 879010
2084.69 998788 1508488 2144714 1994444 1424210 1248158
2087.58 1295782 1446172 1694624 2000826 2632244 3380924
2090.47 3260882 2615622 2374622 2523094 2676772 2719618
2093.36 2936812 3819412 4649494 4142212 3420470 3397590
2096.26 3450358 3486112 3647998 4092804 5128220 5645368
2099.15 4800254 4171904 4322738 4451624 4427820 4555400
2102.04 5344984 6736272 6869152 5582830 4882890 5083444
2104.93 5477202 5579922 5615118 6538126 7694898 7265958
2107.83 6230014 6005148 6083674 6190676 6375046 6880802
2110.72 8188920 8639462 7389452 6471842 6292024 6225728
2113.61 6182072 6188760 6917808 7797456 6984414 5685546
2116.51 5392958 5526954 5628932 5666492 6297652 7716492
2119.40 7957946 6730636 6087612 6141788 6295430 6535166
2122.29 6990918 8123176 8954708 8105208 7012882 6730744
2125.18 6663760 6573660 6627574 7265126 8094016 7636918
2128.08 6588024 6187990 6230700 6260374 6118114 6387056
2130.97 7034422 6642604 5616960 5231668 5251852 5173826
2133.86 4922222 5041014 5549820 5394040 4693438 4413534
2136.75 4361492 4079254 3737070 3683198 3931982 3986152
2139.65 3615654 3299418 3172540 3095158 2931262 2668664
2142.54 2475066 2434656 2423016 2364184 2310536 2224806
2145.43 2211342 2375598 2543064 2468082 2117108 1747448
2148.33 1576620 1519270 1487356 1886690 2435074 2159414
2151.22 1503404 1220198 1145430 1091430 1250656 2086810
2154.11 2727812 2083248 1269032 1051076 1052598 1074318
2157.00 1434076 2547408 2943650 1913528 1131188 1064134
2159.90 1116428 1182064 1967258 3207734 2881812 1622170
2162.79 1157648 1119374 1085240 1466174 2903076 3664248
2165.68 2376728 1236204 1108186 1125004 1229364 2304762
2168.57 3890660 3497436 1967926 1466512 1443190 1401624
2171.47 2021406 3641426 4104722 2698584 1754534 1664678
2174.36 1793070 2176742 3404528 4389988 3370672 1892070
2177.25 1279974 1200822 1488888 2639404 3946216 3392010
2180.15 2173284 1891358 1900216 1949694 2710502 4038296
2183.04 3894258 2591968 1947154 1788548 1860998 2630198
2185.93 3872548 3739778 2427974 1676094 1485854 1545948
2188.82 2206876 3290946 3208332 2091700 1425094 1290398
2191.72 1314446 1727984 2466172 2297796 1515300 1314856
2194.61 1376186 1366660 1704640 2154960 1694996 909070
2197.50 598508 561752 727294 1173262 1456302 883628
2200.39 317400 361990 516504 674130 973516 954224
2203.29 498146 289906 248320 75674 102872 477290
2206.18 497144 169532 22316 10718 41108 187286
2209.07 279636 177444 171998 184664 43954 29150
2211.97 212032 227570 151858 158300 45252-71788
2214.86 21266 159744 186598 173300 40360-25956
2217.75 171156 255404 109010-25650 9810 197700
2220.64 365958 505042 547124 494790 460536 562334
2223.54 802976 859934 675712 699894 1000000 1272972
2226.43 1299766 1104178 904478 860208 926232 1003846
2229.32 1099762 1303878 1520574 1570970 1593056 1667056
2232.21 1759238 1958676 2123800 2107182 2018280 2031084
2235.11 2265130 2448186 2438760 2499934 2688704 2961184
2238.00 3252702 3371486 3281038 3174200 3213708 3326128
2240.89 3351504 3427376 3583722 3649970 3732890 3889556
2243.79 3947322 4016554 4187522 4274308 4327952 4473242
2246.68 4562272 4651012 4833416 4921518 4990238 5172478
2249.57 5409304 5546266 5544210 5517966 5396588 5294432
2252.46 5427678 5604492 5619588 5647566 5767006 5876784
2255.36 5916660 5880788 5794854 5650424 5492398 5403446
2258.25 5477752 5674536 5908712 6139620 6402140 6634304
2261.14 6620980 6482086 6405726 6345610 6285702 6258434
2264.03 6223798 6237654 6303636 6352008 6430764 6488446
2266.93 6357642 6244788 6186158 6122664 6200330 6442064
2269.82 6748932 7045338 7446428 7715544 7454250 6929376
2272.71 6643068 6720604 6892346 7048482 7056686 6750076
2275.61 6506382 6521284 6473086 6299358 6153862 6139758
2278.50 6314826 6396112 6214680 6079230 6163924 6337570
2281.39 6441312 6324414 6056740 5968646 6068994 6076610
2284.28 5968486 5807040 5550268 5358064 5366914 5425952
2287.18 5359042 5171032 4987336 4921838 4968010 4911254
2290.07 4671558 4517690 4441792 4300226 4285802 4269834
2292.96 3950570 3702846 3642458 3602970 3680054 3764372
2295.85 3691762 3547118 3382960 3244134 3215896 3255218
2298.75 3362626 3427594 3337894 3230386 3211408 3357934
2301.64 3675754 3788724 3445190 3136570 3114772 3290700
2304.53 3409608 3369312 3268446 3496682 3847652 3627218
2307.43 3224358 3405628 3964572 4044106 3762698 3941272
2310.32 4457060 4434140 3812908 3719522 4501958 4994302
2313.21 4297854 3729142 4376328 5168776 4727612 4159918
2316.10 4911622 5945950 5339442 4272340 4767474 6183090
2319.00 5938190 4575890 5046848 6891122 6641258 4744818
2321.89 4943848 6962430 6837794 4809080 5160462 7572272
2324.78 7404146 5308522 6184890 9045958 8691748 6789460
2327.67 8737528 11367270 8863876 5479736 7172554 9343672
2330.57 6882618 5164154 8230192 9656564 6584480 6293542
2333.46 9995436 9769200 6378976 7616946 10795100 8987140
2336.35 6757258 9398548 10713220 7915802 8027210 10872970
2339.24 9670286 7235072 9119456 10295780 7704218 7413750
2342.14 9570274 8653362 6925994 8052444 8380348 6561654
2345.03 6357740 6949524 5797608 4918116 5269776 5031380
2347.92 4187376 3827994 4071308 4285636 4107004 4532144
2350.82 5573354 5375554 5245260 6650356 6635916 6135116
2353.71 7889876 7993078 6950860 8826572 9087404 7764320
2356.60 9597328 9575966 8096002 10010310 9864086 8827210
2359.49 10830230 10065360 9353440 10974290 9565056 9712978
2362.39 10936410 9246586 9983076 10220240 9042338 10227640
2365.28 9502998 9075466 9624922 8531958 9058676 8836864
2368.17 8251934 8639236 7899042 7934176 7501080 7039922
2371.06 7167342 6685264 6642012 6273790 6150130 6124210
2373.96 6006102 5965274 5782448 5746810 5595628 5472738
2376.85 5271558 5198836 5210776 5082586 4907756 5011292
2379.74 5180324 4982218 4709458 4746054 4780092 4754522
2382.64 4891754 5032198 5086422 5106998 5132452 5180368
2385.53 5285418 5381392 5379356 5282466 5243158 5375250
2388.42 5362180 5269550 5363182 5416370 5358030 5323700
2391.31 5361346 5469302 5582296 5698826 5780690 5814088
2394.21 5846660 5868358 5893178 5993886 6157116 6197792
2397.10 6221596 6328466 6340034 6201136 6054850 5989704
2399.99 5963974 5984968 6092260 6220534 6405450 6568922
2402.88 6569850 6572628 6565556 6508418 6637208 6929256
2405.78 7087958 7033080 6961604 6965950 6985918 7001448
2408.67 7073062 7223870 7289438 7279400 7417898 7598242
2411.56 7544234 7379050 7350814 7385860 7309200 7240974
2414.46 7347516 7307246 7094296 7036334 6993282 6796174
2417.35 6664362 6732738 6901464 6855310 6680706 6692364
2420.24 6718522 6705724 6554258 6295970 6202798 6251484
2423.13 6310078 6251088 6003366 5829026 5815628 5716966
2426.03 5553108 5425404 5223220 5072300 5142812 5263212
2428.92 5429118 5616362 5605030 5399568 5137674 5107520
2431.81 5310110 5348676 5209418 5073982 5106874 5230134
2434.70 5253960 5208320 5173340 5245416 5327894 5257368
2437.60 5077330 4809664 4639242 4705716 4834448 4795752
2440.49 4709544 4607388 4413642 4261576 4239550 4297994
2443.38 4292014 4193396 4080292 3993046 4010152 4154982
2446.28 4220858 4010734 3781748 3754006 3756456 3702772
2449.17 3730822 3872806 4029498 4040022 3962142 3953338
2452.06 3987954 4037558 4072392 4125652 4087350 3899440
2454.95 3878550 4151224 4302124 4199418 4102880 4062324
2457.85 3972062 3905560 4040382 4176556 4134316 4150716
2460.74 4227400 4125118 4016330 4007994 4008950 4066672
2463.63 4062692 3833208 3620940 3822548 4188828 4285804
2466.52 4203848 4133082 4101266 4019834 3927652 3926176
2469.42 3906968 4014234 4285576 4356528 4274754 4297796
2472.31 4409074 4463514 4397656 4334952 4328150 4296422
2475.20 4218180 4183662 4302350 4424334 4434734 4517828
2478.10 4588218 4633396 4664514 4556560 4342672 4085766
2480.99 3749308 3558762 3808460 4179094 4454626 4751932
2483.88 4979920 4942688 4677800 4431766 4422940 4657866
2486.77 4820940 4796620 4694296 4543674 4554564 4540538
2489.67 4282486 3985394 3836214 3931402 4062562 4101768
2492.56 4147776 4187108 4232576 4232380 4133974 3990822
2495.45 3881082 3720810 3585522 3559610 3507256 3517034
2498.34 3623812 3503810 3210580 3113714 3247698 3320752
2501.24 3187822 3126900 3144094 3077026 3099878 3147490
2504.13 3057296 2972730 3067284 3247350 3353682 3304654
2507.02 3031258 2813458 2835512 2862068 2836850 2785322
2509.92 2748070 2693828 2595916 2671210 2979418 3176650
2512.81 3043390 2746244 2491918 2392194 2557876 2883750
2515.70 3045316 2990676 2886144 2707164 2565982 2607354
2518.59 2724264 2749384 2678438 2623198 2450620 2181174
2521.49 2088210 2224396 2421942 2506664 2499140 2564862
2524.38 2638540 2590232 2494708 2425670 2385610 2335588
2527.27 2320860 2401748 2383712 2222646 2197974 2282984
2530.16 2337688 2401394 2453184 2416640 2332464 2428346
2533.06 2602582 2596896 2464494 2368108 2318416 2210332
2535.95 2171526 2263564 2249832 2212554 2233350 2289158
2538.84 2348018 2325340 2348678 2451174 2481472 2451370
2541.74 2544560 2671364 2647580 2485576 2350118 2415286
2544.63 2572168 2637358 2719628 2823634 2775114 2715760
2547.52 2811482 3024930 3237350 3291818 3172242 3056484
2550.41 3104538 3100228 3015972 2975860 2855770 2839222
2553.31 2937470 3048222 3112128 3099096 3101466 3031804
2556.20 3076310 3213162 3083604 2976582 3135694 3161492
2559.09 3109716 3244600 3370752 3394954 3407700 3248592
2561.98 3089356 3365672 3689620 3624458 3621132 3838012
2564.88 3801850 3521544 3390010 3488150 3689390 3716950
2567.77 3567446 3607582 3834102 3985566 3971166 3937200
2570.66 3920052 3872024 3839768 3853942 3981924 4140248
2573.56 4204462 4160360 4064320 4210050 4560518 4736134
2576.45 4730966 4767502 4794912 4677660 4585450 4659148
2579.34 4768490 4783910 4781518 4866496 4924960 4921930
2582.23 4930170 4988744 5110172 5282726 5351782 5316236
2585.13 5372160 5536626 5716240 5777152 5727224 5569996
2588.02 5453582 5525700 5628010 5659030 5642140 5722940
2590.91 5945444 6057524 5907124 5823034 5911688 6124948
2593.80 6414436 6526852 6596360 6829080 6904602 6818928
2596.70 6748796 6607634 6549850 6579312 6513244 6572710
2599.59 6834438 6938440 6952014 7105088 7186162 7124762
2602.48 7039492 7057268 7119178 7093550 7052682 7154034
2605.37 7350402 7457340 7398100 7319190 7328250 7426524
2608.27 7489694 7415310 7377400 7624158 8025110 8176488
2611.16 8005166 7897976 8031864 8144492 8110778 8217716
2614.05 8415276 8423420 8268652 8249416 8452904 8564846
2616.95 8513820 8560430 8783334 9017552 9185624 9442834
2619.84 9785970 10097670 10362170 10507270 10456320 10327320
2622.73 10140120 9871720 9661510 9581416 9581240 9638806
2625.62 9764484 9825360 9793052 9797392 9963770 10195630
2628.52 10325270 10444500 10521430 10616270 10884280 11137940
2631.41 11189810 11243290 11393540 11432010 11306380 11200080
2634.30 11343340 11519740 11444920 11384600 11452570 11479790
2637.19 11513010 11541740 11543120 11643740 11837720 12033110
2640.09 12143230 12160590 12125640 12215960 12442730 12557920
2642.98 12554320 12552510 12591980 12697050 12845740 12955700
2645.87 13033080 13079340 13085650 13234020 13431360 13407730
2648.77 13350570 13426590 13483320 13552410 13697060 13759150
2651.66 13868750 14056050 14107190 14210200 14392530 14449860
2654.55 14415190 14429210 14402890 14273020 14169670 14188390
2657.44 14398920 14679320 14778770 14806780 14855760 14804370
2660.34 14725410 14899530 15215150 15235450 15131350 15212810
2663.23 15412870 15411900 15306850 15420270 15518030 15471650
2666.12 15553320 15759370 15904810 15858100 15672180 15578710
2669.01 15685890 15829150 15815850 15779880 15892310 15975800
2671.91 15990270 15999460 15950250 15970560 16063530 16143330
2674.80 16221200 16295260 16317840 16277590 16203220 16187930
2677.69 16248840 16415220 16484040 16380200 16451500 16688650
2680.59 17027470 17334230 17305510 17125170 17151970 17255870
2683.48 17301040 17532850 17734550 17639870 17614150 17676750
2686.37 17584590 17493690 17616370 17794760 17850430 17936500
2689.26 18044700 18127440 18312990 18510740 18637590 18660530
2692.16 18592550 18726220 18948170 18961900 18864850 18759360
2695.05 18738190 18935690 19245640 19473950 19590560 19638030
2697.94 19732510 19892630 20155960 20395640 20473230 20581320
2700.83 20799420 20957490 21052300 21173560 21302630 21407640
2703.73 21501020 21683090 22057480 22461310 22703090 22818650
2706.62 23043940 23436970 23807010 24230290 24616390 24753670
2709.51 24662520 24415370 24265940 24548040 25009140 25266180
2712.41 25474940 25822400 26173180 26335440 26484880 26704760
2715.30 26879230 27181190 27598910 27857020 27892440 27987530
2718.19 28360780 28698090 28720830 28761500 29025690 29404300
2721.08 29793030 30011160 30144110 30287330 30322880 30459650
2723.98 30600480 30462730 30355370 30441660 30635900 30994920
2726.87 31367180 31690690 32108040 32629340 33019830 33277540
2729.76 33592290 33837060 34107520 34419080 34589100 34725630
2732.65 34928390 35136170 35534960 36088370 36423510 36772480
2735.55 37237140 37488300 37736200 38285500 38871060 39045370
2738.44 38950550 39180510 39809920 40396150 40795370 41132960
2741.33 41583910 42168040 42490360 42578080 42930160 43265460
2744.23 43278800 43363760 43688200 44122580 44426660 44509690
2747.12 44503740 44425620 44475710 44779870 45088820 45212590
2750.01 45156010 45137420 45270340 45491300 45635690 45541640
2752.90 45491780 45725710 46051330 46170070 46264860 46533530
2755.80 46682550 46890230 47219660 47424330 47541410 47933570
2758.69 48576810 48938840 49060420 49170970 49177650 49178660
2761.58 49251140 49342250 49451750 49506780 49538930 49758090
2764.47 50022800 50081040 50211360 50458190 50566000 50723830
2767.37 51033210 51284850 51446400 51704310 51935390 52135930
2770.26 52542180 52936620 53249830 53542180 53640120 53692590
2773.15 53985140 54539170 55141120 55500460 55447090 55437580
2776.05 55691050 56060240 56536010 57010970 57475540 58008580
2778.94 58437780 58656890 58921450 59170480 59361470 59611900
2781.83 59905200 60216790 60387350 60446280 60402660 60157460
2784.72 59909980 60012160 60119340 60071490 60184510 60514340
2787.62 61169940 62218760 63460580 64528640 65360870 65992650
2790.51 66378880 66831620 67294320 67601260 67982300 68628370
2793.40 69438420 70040660 70414260 70859710 71364450 71825260
2796.29 72238820 72484340 72759820 73108740 73307040 73567430
2799.19 74159160 74735900 75030220 75479560 75926950 76154890
2802.08 76327450 76444130 76554070 76932360 77557900 78021400
2804.97 78142190 78314060 78759010 79265550 79617290 79753970
2807.87 79887260 80140700 80448820 80833090 81338840 81978640
2810.76 82412360 82509620 82860920 83648770 84493290 85239350
2813.65 86057700 86990790 87953780 88955430 89738560 90253080
2816.54 90999520 92042820 93144740 94328890 95624050 97004900
2819.44 98169130 98974140 99564020 100246800 101420000 102775500
2822.33 103883100 105021600 106350700 107343700 108021700 108684100
2825.22 109294700 109997800 110741700 111375900 112225000 113297800
2828.11 114382500 115656900 117288800 119135700 120867800 122537800
2831.01 124551700 126821800 128684500 130236700 132019100 133798100
2833.90 135431500 137229800 139375200 141708100 144097300 146581900
2836.79 149120800 151848200 154454100 156864500 159404900 162141700
2839.69 164960300 167473900 169613800 171673200 173833500 176389300
2842.58 179450700 182809300 186282000 189793600 193178200 196279300
2845.47 199169700 202296400 206072700 210267600 214428800 218551600
2848.36 222735500 227037700 231270500 235397800 239710700 244402200
2851.26 249325100 254208400 259137800 264252500 269488300 274671200
2854.15 279764200 285165000 290962800 296829400 302598600 308209300
2857.04 313854200 319921900 326012600 331600600 337852900 345382500
2859.93 352812100 359864100 367468300 375700900 383751300 391354800
2862.83 398986700 407170200 415337100 423210700 431526700 439700200
2865.72 446898300 453547000 459807200 465427300 470232200 474393900
2868.61 478188300 481793600 485228400 488882600 492945300 496764200
2871.51 499968600 503008200 506206600 509396100 511531000 513176500
2874.40 516240500 520828800 526435200 533092400 540460700 547490000
2877.29 554745800 562811800 569271200 573734100 580135300 589916200
2880.18 599863400 610024500 623340600 635984100 641754200 644070300
2883.08 649805400 657073900 660534000 661364500 663104800 663302900
2885.97 659136700 655128600 654651300 654096300 651939300 652989600
2888.86 658142500 662930800 666886800 673209200 681386200 687340100
2891.75 690540700 693299900 695241300 695725400 695677500 695008800
2894.65 692169900 688653200 687896600 690419100 694910900 700979400
2897.54 708734500 719936600 738684300 774841300 838524500 903346000
2900.43 913181600 866863600 813966500 778168600 756992100 745308900
2903.32 739211800 737875500 740412900 741609100 738123900 733373400
2906.22 729100400 724050000 720203600 719597100 719047200 716429800
2909.11 716788500 721922300 727887900 733391200 735286100 728318800
2912.00 713542700 698947700 689752100 681733100 673316500 669408200
2914.90 668327800 664864600 661923500 662632800 662531100 660572700
2917.79 661361300 662990800 661762400 661527700 664399000 665695800
2920.68 664701900 664872000 664342000 660610100 656902800 653835600
2923.57 649201700 645204500 643841100 642657400 639777200 636768000
2926.47 635570700 634945900 632931600 630355900 627660900 624345200
2929.36 621154800 618713200 616224800 613462500 611509800 610373200
2932.25 609083700 607778900 607495700 608452600 610716900 613776300
2935.14 615851600 616076000 614753200 612450800 610344700 609221400
2938.04 609297400 610342100 611950500 614033200 616748300 620224200
2940.93 623981100 627393900 630336100 633154200 635583200 637485800
2943.82 639539000 641264300 640913500 638573500 635695200 633434900
2946.72 632958700 634934400 638416000 642506000 648149200 655658300
2949.61 663387700 671270300 680001700 687533000 692140700 695787500
2952.50 700339400 705190800 710423500 716690100 722671600 728308600
2955.39 735010000 742416200 749164900 755888800 763000400 769175500
2958.29 773738900 776865500 779460700 782816800 786858600 790522000
2961.18 794101000 800295600 808153900 813755600 819216800 828275500
2964.07 839014800 849058000 858978100 868158800 878173500 893177500
2966.96 908492900 915774700 919392300 924710700 926435500 927432000
2969.86 936439200 947666900 954877800 963338400 965784300 953333200
2972.75 941004900 936522000 930093600 925784000 929265000 929901500
2975.64 925661700 926279000 925514400 915679200 911602900 918727700
2978.54 917904300 909268800 912348200 921658500 923209200 921951900
2981.43 915603200 896960300 882105700 888114100 908340700 930450400
2984.32 946744100 954773500 959186100 966231600 976161600 975540900
2987.21 958406600 950295900 994874700 1095698000 1120580000 998214500
2990.11 871457600 817061600 796985700 788942100 786003600 783587100
2993.00 783431400 785082000 781400100 775885000 776179200 772944600
2995.89 762625000 755953300 749710800 736729100 726425200 721941600
2998.78 712069600 696320100 684261600 675414700 665319400 653539800
3001.68 641888800 633109400 624072400 610697700 598252000 589780700
3004.57 579569000 566065000 554486600 544708100 532902500 520489800
3007.46 510080600 499898000 488558700 477449100 466636700 455338000
3010.36 444095600 433298600 422469200 411498200 401253600 391889600
3013.25 383136600 374227000 364628900 355063800 346036600 337086600
3016.14 328214500 319551100 310855700 302356800 294054100 285479600
3019.03 277053500 269269200 261761700 254012900 246026500 238500900
3021.93 231840300 224939800 217493700 210592300 204091000 197163900
3024.82 190295700 184027300 178069900 172025200 165999900 160178500
3027.71 154443700 148578000 142514000 136612500 131417900 126818200
3030.60 122284500 117499900 112694200 108109200 103603200 99298790
3033.50 95286900 91367290 87425960 83500260 79904600 76437040
3036.39 72805030 69294770 66002900 63003540 60245050 57375120
3039.28 54675560 52060580 49491160 47294620 45407680 43249580
3042.18 40781780 38459180 36570190 34962900 33382550 31762950
3045.07 30012880 28421010 27151710 25660030 24091720 22829590
3047.96 21713390 20682850 19642410 18671730 18019280 17350610
3050.85 16562220 15625580 14419930 13428930 12940310 12509380
3053.75 12032920 11495230 10939310 10391060 9713362 8955964
3056.64 8470654 8227072 7781006 7388888 7333728 7032306
3059.53 6621932 6533402 6643250 6562190 5891928 5192366
3062.42 5287620 5658728 5398608 4853316 4603542 4437558
3065.32 4299444 4163852 3939326 3770178 3791214 3896572
3068.21 3860802 3814238 3796254 3646480 3505916 3407218
3071.10 3383642 3343550 3158948 3100750 3199214 3272424
3074.00 3444230 3446814 3283530 3322234 3424606 3270830
3076.89 3052698 2970656 3078590 3113484 2838944 2637080
3079.78 2713852 2806674 2871100 2796798 2628246 2624826
3082.67 2818804 3073084 3107392 2678688 2353282 2708516
3085.57 2978762 2758758 2723050 3071394 3394374 3287138
3088.46 2884426 2702028 2785128 2879928 2913208 2782714
3091.35 2847494 3205882 3574336 3623520 3224974 2860396
3094.24 2758186 2677956 2641078 2671654 2633230 2718348
3097.14 2983404 3196028 3299786 3106372 2865726 2876578
3100.03 2942090 2920466 2944568 3081432 3092460 2815452
3102.92 2560014 2533748 2754292 2982644 2992086 3058942
3105.82 3258248 3076542 2621454 2518128 2723910 2703432
3108.71 2537718 2617442 2751628 2841620 2983144 2917856
3111.60 2819652 2901238 2971970 2866450 2773942 2778674
3114.49 2618096 2334590 2282266 2455864 2551116 2637968
3117.39 2868550 2915258 2575344 2464348 2630460 2760986
3120.28 2882604 2808002 2694418 2692062 2501776 2189980
3123.17 2238818 2479176 2601218 2720736 2877568 2946680
3126.06 2814818 2569902 2617948 2777372 2646050 2506066
3128.96 2558478 2636542 2812822 2950984 2684572 2331680
3131.85 2287636 2440102 2738036 3066436 2985236 2620650
3134.74 2515580 2593244 2518854 2327752 2417694 2736486
3137.64 2923182 2833116 2569290 2548202 2860304 2972776
3140.53 2932774 2948038 2777364 2484408 2392122 2510034
3143.42 2584922 2441034 2435280 2790886 3201240 3288350
3146.31 3291626 3213930 2938808 2970144 3157146 3093558
3149.21 2928842 2841594 2782002 2659496 2638824 2935948
3152.10 3217552 3044040 2845844 2977702 3156688 3203492
3154.99 3107906 3158560 3587144 3872280 3650060 3302008
3157.88 3121716 3195640 3565472 3653018 3315852 3122044
3160.78 3150512 3345258 3506952 3507814 3662700 3820686
3163.67 3857880 3990348 4166402 4354250 4435132 3971098
3166.56 3426040 3708948 4327050 4231914 3815924 3759178
3169.46 3919620 4061016 3929498 3892342 4132556 4113188
3172.35 4169782 4529282 4454646 3881680 3660610 3840398
3175.24 3896396 3888034 4008994 4236678 4466942 4571008
3178.13 4598292 4563772 4671046 4836806 4942022 5074598
3181.03 5017940 4766642 4716560 4776882 5072436 5752640
3183.92 6126604 5923834 5632942 5620344 5565278 5481704
3186.81 5551392 5617866 5618362 5574356 5737622 6048866
3189.70 5965072 5761686 6083286 6286150 6118758 6241966
3192.60 6460270 6498494 6719702 6991386 6859658 6571316
3195.49 6463084 6571580 6832966 7109318 7154848 7063208
3198.38 7265072 7519748 7440952 7152912 7107440 7326082
3201.27 7496416 7797408 8183722 8134642 7817796 7781338
3204.17 8147928 8698104 8850562 8632962 8652752 8797370
3207.06 8625402 8563572 8701538 8625678 8542180 8478298
3209.95 8455964 8742876 9064434 8939348 8576884 8566402
3212.85 8725490 8782236 8862018 8774536 8997376 9497128
3215.74 9493280 9153796 8904938 8971326 9348586 9601160
3218.63 9414992 9232556 9338756 9241692 9252314 9547142
3221.52 9538162 9403488 9529964 9700900 9687588 9733614
3224.42 9944730 9858424 9398140 9149000 9165046 9187424
3227.31 9277896 9320732 9149222 8944890 8832994 8652656
3230.20 8466960 8328942 8098018 8173630 8558358 8477678
3233.09 8064812 7861364 7806050 7813410 7742006 7504812
3235.99 7303332 7158666 7057548 6992550 6964744 7313632
3238.88 7841300 7462244 6401954 5859048 6133426 6600828
3241.77 6660162 6297568 5851806 5525600 5398770 5378026
3244.67 5206212 4841100 4525074 4734386 5005016 4805012
3247.56 4520968 4546130 4670282 4549484 4361408 4155480
3250.45 3878748 3594580 3227994 3184904 3714420 4027914
3253.34 3689632 3282798 3253632 3212398 2956832 2870734
3256.24 2939592 2533694 2041518 2202014 2570112 2676596
3259.13 2463328 1935150 1678860 1713832 1622222 1448536
3262.02 1315180 1243836 1076438 805162 626074 588210
3264.91 776922 887130 632766 306816 263392 514548
3267.81 956474 1075024 718502 396916 418256 412268
3270.70 144330-113454-209046-435794-880724-873314
3273.59-463342-322794-396504-418418-506656-705036
3276.49-664842-429798-449904-622588-736920-945842
3279.38-943130-627864-472392-469860-541412-1026152
3282.27-1557634-1740298-1566158-1344858-1238504-1018392
3285.16-911458-997446-1108242-1298798-1523098-1496302
3288.06-1286594-1298960-1286690-975050-929670-1187562
3290.95-1358706-1361414-1225378-1340002-1635268-1697630
3293.84-1602144-1475380-1410474-1344164-1143574-1024238
3296.73-955508-783244-858928-1199290-1393062-1408958
3299.63-1565974-1813738-1698314-1421074-1267880-1105228
3302.52-960818-927162-1066916-1185328-1017022-1048306
3305.41-1318418-1254072-986018-918802-1057130-1068692
3308.31-1027746-1299188-1595094-1474754-1255830-1255416
3311.20-1381480-1491068-1542504-1617170-1565330-1252000
3314.09-1255558-1580664-1790852-1875306-1791390-1293808
3316.98-726824-818556-1320860-1460766-1460710-1658056
3319.88-1732450-1745294-1841992-1721576-1511596-1501138
3322.77-1422292-1188670-905066-877794-1205296-1400750
3325.66-1441844-1293730-999004-1155430-1509010-1472888
3328.55-1251788-1050014-916156-1129864-1460174-1516222
3331.45-1275216-961532-918686-1105930-1371862-1534248
3334.34-1549900-1490716-1194900-853390-792666-958014
3337.23-1069268-898472-724284-805268-997238-1085780
3340.13-1005272-1219434-1809766-1910930-1177062-458202
3343.02-414316-760944-890346-670530-491724-654080
3345.91-1191142-1252660-698154-368794-429502-608834
3348.80-616990-550696-571930-679800-887976-816422
3351.70-552158-557398-666726-738226-806960-746584
3354.59-487132-385922-617854-802876-647552-343304
3357.48-83268-30826-141856-93344 119130-18796
3360.37-339850-100810 324864 182102-284708-518800
3363.27-379558-144132 183134 595542 858140 852884
3366.16 581640 502662 732306 767200 626098 785962
3369.05 911520 590028 536050 1108506 1478728 1232224
3371.95 1027462 1126770 1419646 1796308 2062720 2031144
3374.84 1514402 1240508 1420316 1576668 1730734 1902364
3377.73 2274140 2606414 2687144 2777632 2897898 2989328
3380.62 2854160 2623250 2885418 3273584 3144006 3144072
3383.52 3486574 3505068 3385586 3535244 3669298 3735876
3386.41 3764072 3569232 3396476 3402290 3489734 3756394
3389.30 3949768 3827614 3710150 3757378 3746864 3625368
3392.19 3765934 4078154 4155256 3951132 3777602 3789210
3395.09 3879240 3957914 4277592 4570914 4272094 4171416
3397.98 4536834 4275010 3969216 4508864 4973036 4826380
3400.87 4503356 4578414 4947554 5184392 5427872 5619490
3403.77 5483196 5188498 5118144 5363082 5615198 5487126
3406.66 4973488 4543506 4371082 4459620 4974670 5709410
3409.55 6276410 6041948 5367884 5270656 5675482 6029920
3412.44 6052918 5833204 5756480 5995796 6129386 6155850
3415.34 6312152 6154762 5794924 5576018 5401102 5385688
3418.23 5134750 4792142 4937336 4814558 4550940 4830184
3421.12 5038624 4997218 4944390 4561000 4193066 4409570
3424.01 4630928 4614222 4709174 4589392 4295752 4183260
3426.91 3947378 3771188 4113254 4486774 4299018 3938620
3429.80 3860054 3878514 3870836 3868398 3844988 3866606
3432.69 4088336 4400422 4409826 4129638 3947282 3978310
3435.59 4071844 3964250 3713746 3891874 4396204 4604564
3438.48 4423026 4190306 4345582 4640082 4306768 3856572
3441.37 3908544 4235058 4527854 4600046 4389204 3998548
3444.26 4025404 4655926 5048158 5074966 5029254 4926300
3447.16 4963998 4779722 4403442 4495642 4816630 4701358
3450.05 4564894 5034696 5634276 5760150 5565338 5315246
3452.94 5217338 5349316 5638140 5833162 5569156 5396090
3455.83 5689712 5765986 5506844 5438942 5308000 4909368
3458.73 4795060 5158060 5610644 5706932 5756394 6265530
3461.62 6893460 7002024 6698866 6259414 6008184 6071106
3464.51 6414156 6800042 6748906 6759754 6977016 6760356
3467.40 6594710 6680406 6464226 6179356 6247866 6488282
3470.30 6678680 6890886 7270830 7589940 7660140 8270386
3473.19 9640608 10564100 10075860 8779702 7758418 7262014
3476.08 7351936 7888592 8143870 7607748 6720222 6581922
3478.98 6947398 6925108 6752634 6897182 7092506 7066324
3481.87 7079820 7058046 6702582 6480330 6771514 6834534
3484.76 6570410 6584524 6706840 6853582 7118918 7011806
3487.65 6573310 6304068 6239194 6249840 6140030 6023034
3490.55 6140978 6245732 6207538 6005354 5714400 5602890
3493.44 5906714 6298866 6434322 6281818 5816454 5264070
3496.33 5067648 5326686 5549308 5425388 5370538 5381106
3499.22 5021818 4520910 4582566 5036632 5255602 5384142
3502.12 5752876 6115900 5855020 5404512 5231930 5010270
3505.01 4726736 4429312 4322398 4440698 4687818 4830732
3507.90 4826036 4926582 4936284 4556186 4155656 4149170
3510.80 4193890 4143910 4119298 3969242 4111852 4650414
3513.69 4775450 4435414 4090512 3872004 3865106 3890222
3516.58 3789800 3621796 3492882 3501814 3706334 3861570
3519.47 3902052 3694258 3301022 2987356 3006784 3056528
3522.37 2964710 3012230 3149452 3300680 3156206 3022500
3525.26 3402914 3604206 3198636 2844360 3072192 3391700
3528.15 3385450 3212278 3124590 3302264 3720922 4091918
3531.04 4129080 4097828 4229454 4213610 4040608 3810824
3533.94 3708130 3745532 3701162 3617758 3763164 4028590
3536.83 3978676 3598164 3335996 3427564 3644280 3661592
3539.72 3785196 3932114 3619414 3186132 2996108 3011344
3542.62 3308416 3694310 3827834 3850800 3955372 3876642
3545.51 3703322 3938380 4188182 3897510 3419738 3119418
3548.40 3219496 3413350 3528760 3777320 3730366 3444080
3551.29 3499180 3490442 3362460 3563988 3648492 3603972
3554.19 3837030 3947666 3819826 3846826 3766336 3428542
3557.08 3449830 3787354 4111066 4362732 4333036 3867714
3559.97 3553036 3818942 4152848 4087682 4269788 4684742
3562.86 4702304 4400370 4160726 4206476 4390928 4521756
3565.76 4526654 4492904 4549388 4625956 4603226 4502416
3568.65 4409396 4326516 4302612 4234204 4025436 3627632
3571.54 3023310 2589826 2586954 3023166 3607386 3745924
3574.44 3547766 3363720 3230352 3087454 3161866 3502570
3577.33 3529102 3097544 3015194 3475476 3891052 3942322
3580.22 3741564 3502556 3230220 2976830 3083964 3277142
3583.11 3376222 3731126 4222670 4432984 4376022 4449558
3586.01 4473024 4237178 4172274 4208044 4109578 4284462
3588.90 4767368 5144758 5329472 5570782 5920996 6256888
3591.79 6511312 6682458 6902290 7124926 7449364 7664150
3594.68 7637178 7675884 7689702 7532528 7484728 7816380
3597.58 8215564 8296694 8445490 8968650 9594358 9913278
3600.47 9933468 10128250 10364520 10432310 10576380 10883690
3603.36 11267780 11551270 11755470 12174050 12631210 12588550
3606.26 12542470 12812470 13288770 14032320 14510010 14765550
3609.15 15208520 15689490 16191480 16739880 17305410 17981360
3612.04 18743190 19363560 19984000 20706170 21514910 22479430
3614.93 23344120 23938070 24533340 25197970 25727660 26483690
3617.83 27497530 28234830 28829590 29523540 30195950 30985650
3620.72 31977460 32911400 33695090 34573530 35802890 37178810
3623.61 38617000 40162730 41093200 41425600 42212710 43289290
3626.50 44165820 45180780 46527980 47746530 48602710 49752170
3629.40 51380500 52513140 53409500 55560180 58119320 59140130
3632.29 60145320 62831250 65354000 66577930 68695060 72068020
3635.18 73858120 74401740 76704260 79868980 81382180 82633800
3638.08 86305310 90299070 91881640 93965700 98321340 101545200
3640.97 102857000 105508900 109943600 112789800 114161100 117727600
3643.86 122602700 125338200 127418200 131984200 136042100 137034100
3646.75 139341500 144370400 147702900 149249300 153118000 157325100
3649.65 158417600 159737300 163215200 165872300 167536900 170534100
3652.54 173711500 175428100 177739400 182343700 190471100 203012000
3655.43 211345000 207757300 202555000 207031600 220716200 235590200
3658.32 239260200 228835100 217618200 215803800 222354800 234788200
3661.22 248363700 250881800 240642700 231029900 226804600 225844100
3664.11 227535600 228739900 228616700 230137100 231691200 230655900
3667.00 230716900 232312400 230759700 228263200 228961600 229292200
3669.90 228041500 228904300 230017900 227926500 225711700 225903500
3672.79 226363800 229304500 240174800 259556400 289483800 335297900
3675.68 368696900 338113800 265441400 213947800 192314900 183037200
3678.57 179800200 179933000 180271500 181286700 184174400 187246000
3681.47 190331800 196706800 208373500 221601600 226571200 219191700
3684.36 207876000 200953600 198386600 197264900 196619500 196438500
3687.25 196161000 195481200 194406900 193339400 192238400 190807500
3690.14 189106200 186927400 184337100 181813500 178837800 174989600
3693.04 170798200 166695200 162325300 157435400 152698000 148396000
3695.93 143618900 138281800 133164800 128158600 123116700 118486800
3698.82 113974100 109261500 104493800 99817310 95200300 90522740
3701.72 85797270 81397570 77337900 73396390 69722330 66342220
3704.61 63006610 60032020 57621660 55192710 52484260 49858660
3707.50 47580460 45465630 43285860 41320610 39896380 38501350
3710.39 36823380 35299120 33565130 31505270 29444610 27769070
3713.29 26563390 25406250 24351980 23569290 22831530 21895120
3716.18 21037180 20591760 20352950 20277370 20050240 19463170
3719.07 18893790 18377410 17668240 16756730 15849320 15019440
3721.96 14414060 14064940 13442910 12815320 12542900 12197060
3724.86 11793760 11557810 11332390 10900590 10456330 10268910
3727.75 10087170 9894976 10009150 10227330 9920490 9106814
3730.64 8476542 8573236 8862230 8675102 8471186 8401160
3733.54 7913448 7576422 7831080 8062256 7936708 7742056
3736.43 7632912 7455298 7056240 6576858 6313034 6196586
3739.32 6136214 6230052 6284818 6315048 6426728 6375382
3742.21 6021404 5661476 5621076 5683382 5783894 5855278
3745.11 5719068 5961246 6421886 6400204 6091474 5969330
3748.00 6071762 5958660 5841596 6154794 6525952 6680290
3750.89 6848520 6954478 6773660 6510522 6447180 6660900
3753.78 6787210 6525776 6344442 6340950 6095918 5741856
3756.68 5572874 5892598 6291452 6112894 5899720 5965264
3759.57 5947060 6120210 6525162 6583178 6199630 5606470
3762.46 5223764 5480086 5896460 5789804 5629900 5897672
3765.35 6125622 5792914 5261384 5204646 5325246 5092016
3768.25 4796180 4711950 4693448 4780882 4951778 4902784
3771.14 4824300 5122430 5597972 5755960 5615400 5555568
3774.03 5590194 5714472 5811906 5683174 5637904 5965138
3776.93 6348006 6443220 6455556 6647652 6659876 6580392
3779.82 6663850 6699310 6784996 7021798 7216444 7420040
3782.71 7875214 8351960 8497338 8109330 7590608 7700434
3785.60 8131918 8301156 8263032 8360360 8628824 8819876
3788.50 8833464 8663774 8554108 8539490 8343264 7907422
3791.39 7620648 7793592 7977712 8005188 8012886 7892786
3794.28 7691676 7599322 7506710 7368046 7109038 6846082
3797.17 6871552 6961208 6853358 6634394 6357406 6461226
3800.07 6846268 6891242 6641450 6498606 6619156 6906978
3802.96 7101134 7007906 6827194 6725516 6661220 6653708
3805.85 6764480 6912800 6981600 7132902 7199726 7049698
3808.75 6954902 7068552 7208298 7195788 7196646 7400718
3811.64 7575498 7498934 7320388 7317506 7507578 7483426
3814.53 7355846 7491020 7546740 7042202 6446300 6363008
3817.42 6794938 7254368 7214980 7070490 7280252 7464736
3820.32 7555278 7693884 7698044 7678874 7648582 7582190
3823.21 7412170 7325496 7461750 7639502 7902018 8080956
3826.10 8302860 8556544 8633890 8909000 9315684 9254278
3828.99 8815492 8487720 8665346 9148788 9423526 9640334
3831.89 10307110 11463530 12336970 11793620 10464510 10023690
3834.78 10312860 10275120 10185650 10300360 10281240 10032450
3837.67 9619388 9343038 9454726 9700976 9866168 10126690
3840.57 10392500 10196120 9721536 9676140 9973308 10157600
3843.46 10394570 10768440 10897690 10749370 10516390 10546350
3846.35 10861360 10906400 10799150 10952880 11254250 11246420
3849.24 10707920 10191680 10038290 10108450 10236590 10288460
3852.14 10422360 10514410 10393930 10498770 10787230 10667740
3855.03 10208630 10001670 10127640 10312490 10504860 10518580
3857.92 10286380 10111840 9928328 9660536 9715786 9988246
3860.81 10042010 9940756 10033330 10194490 10211160 10267190
3863.71 10384710 10322380 10115770 9821584 9607172 9802852
3866.60 10316230 10844500 10942820 10600600 10134140 9605386
3869.49 8909198 8303260 8170808 8346484 8516456 8768524
3872.39 9114240 9290168 9161466 9011960 9134310 9339738
3875.28 9344614 9222590 9155690 9091270 9008790 8924114
3878.17 8854224 8737540 8733302 8792342 8488952 8239500
3881.06 8536922 8956554 9036310 8827110 8618666 8852430
3883.96 9280360 9248148 9067246 9530064 10454650 10818870
3886.85 10461590 9966382 9209942 8301336 7717826 7353102
3889.74 7135818 7259132 7485412 7588144 7646612 7735382
3892.63 7765432 7494338 7124980 7076234 7214134 7157922
3895.53 7057720 7206584 7338784 7153350 6946900 6972108
3898.42 7088758 6998514 6739066 6629596 6686640 6811358
3901.31 6848250 6656010 6351766 6216970 6352296 6453348
3904.21 6351578 6342540 6516334 6355700 5918978 5929050
3907.10 6218744 6293326 6267790 6292306 6263548 6155434
3909.99 6070252 5914114 5542370 5340316 5537970 5849352
3912.88 5998894 5937066 5827038 5898550 6008200 5690820
3915.78 5088016 4933466 5315654 5529406 5263590 5080196
3918.67 5189928 5064662 4753636 4660914 4611292 4559426
3921.56 4791194 4947082 4953808 4992244 4959760 5071384
3924.45 5195840 4930232 4688598 4661952 4485110 4234934
3927.35 4340034 4664582 4753684 4525468 4006354 3576924
3930.24 3557456 3628292 3664850 3736990 3739554 3716482
3933.13 3921122 4231968 4249880 4074700 4064828 4166556
3936.03 4012458 3612932 3428274 3440878 3403170 3451000
3938.92 3617728 3777118 3905806 4154786 4296950 4013800
3941.81 3813590 3973234 4086934 4143054 4129738 3781422
3944.70 3607456 3776984 3872900 3837150 3814228 4099050
3947.60 4618456 5010058 4984972 4325914 3820714 3892424
3950.49 3860176 3876262 4153190 4264052 4119126 3988018
3953.38 4025358 4292474 4418878 4359020 4381962 4278824
3956.27 4269098 4554074 4801618 4793110 4666124 4582896
3959.17 4361098 4270970 4608482 5128652 5348404 5241688
3962.06 5169656 5178222 5050234 4762928 4790330 5185216
3964.95 5357140 5372114 5280402 4903758 4604140 4716864
3967.85 5187662 5491892 5454754 5598402 5678772 5463634
3970.74 5289262 5110740 4920780 5115544 5713968 6002298
3973.63 5686188 5542818 5669842
##END=
