##TITLE=9H-Purine, 6-chloro-9-(2-chloroethyl)-
##JCAMP-DX=4.24
##DATA TYPE=INFRARED SPECTRUM
##CLASS=COBLENTZ III
##ORIGIN=SOUTHERN RESEARCH INSTITUTE
##OWNER=Copyright (C) 1987 by the Coblentz Society
Collection (C) 2018 copyright by the U.S. Secretary of Commerce
on behalf of the United States of America. All rights reserved.
##DATE=1958/05/28
##NAMES=6-chloro-9-(2-chloroethyl)-9H-purine
##CAS REGISTRY NO=64127-00-0
##MOLFORM=C7 H6 Cl2 N4
##SOURCE REFERENCE=COBLENTZ NO. 8249
##$NIST SOURCE=COBLENTZ
##$NIST IMAGE=cob8249
##SPECTROMETER/DATA SYSTEM=PERKIN-ELMER 21 (GRATING)
##INSTRUMENT PARAMETERS=FILTER CHANGE ABOUT 1090 CM^-^1
##STATE=SOLID (KBr DISC)
##SAMPLING PROCEDURE=TRANSMISSION
##RESOLUTION=2
##DATA PROCESSING=DIGITIZED BY COBLENTZ SOCIETY (BATCH II) FROM HARD COPY (ADJUSTED \addcm-1\15-12-3\)
##XUNITS=1/CM
##YUNITS=TRANSMITTANCE
##XFACTOR=1.0
##YFACTOR=1
##DELTAX=1.005314
##FIRSTX=594.9
##LASTX=4017.99
##FIRSTY=0.6482
##MAXX=4017.99
##MINX=594.9
##MAXY=0.928036
##MINY=0.163495
##NPOINTS=3406
##XYDATA=(X++(Y..Y))
594.900000 0.6482 0.7100 0.7718 0.8336 0.8818
599.926571 0.8859 0.8860 0.8846 0.8847 0.8837
604.953142 0.8820 0.8799 0.8779 0.8760 0.8733
609.979712 0.8702 0.8669 0.8635 0.8603 0.8572
615.006283 0.8538 0.8502 0.8466 0.8429 0.8390
620.032854 0.8350 0.8309 0.8266 0.8215 0.8159
625.059425 0.8095 0.8025 0.7944 0.7835 0.7664
630.085995 0.7298 0.6519 0.5976 0.5990 0.5999
635.112566 0.6093 0.6293 0.6492 0.6711 0.6870
640.139137 0.6819 0.6616 0.6400 0.6410 0.6533
645.165708 0.6629 0.6730 0.6813 0.6745 0.6463
650.192278 0.6095 0.5739 0.5487 0.5545 0.5913
655.218849 0.6514 0.7114 0.7775 0.8831 0.8882
660.245420 0.8913 0.8939 0.8950 0.8936 0.8949
665.271991 0.8943 0.8938 0.8929 0.8918 0.8899
670.298561 0.8881 0.8853 0.8809 0.8675 0.8395
675.325132 0.8095 0.7796 0.7496 0.7196 0.6944
680.351703 0.6900 0.7442 0.8168 0.8902 0.9178
685.378274 0.9235 0.9250 0.9273 0.9280 0.9276
690.404844 0.9270 0.9260 0.9248 0.9235 0.9218
695.431415 0.9196 0.9164 0.9113 0.9051 0.8987
700.457986 0.8924 0.8852 0.8766 0.8677 0.8584
705.484557 0.8504 0.8422 0.8236 0.7937 0.7637
710.511127 0.7337 0.7038 0.6738 0.6508 0.6478
715.537698 0.6797 0.7757 0.8578 0.8883 0.8888
720.564269 0.8884 0.8879 0.8873 0.8867 0.8860
725.590840 0.8853 0.8845 0.8836 0.8828 0.8839
730.617410 0.8864 0.8884 0.8904 0.8922 0.8935
735.643981 0.8944 0.8952 0.8960 0.8963 0.8966
740.670552 0.8969 0.8929 0.8954 0.8950 0.8937
745.697123 0.8923 0.8904 0.8885 0.8864 0.8844
750.723693 0.8823 0.8810 0.8804 0.8798 0.8791
755.750264 0.8787 0.8784 0.8782 0.8780 0.8764
760.776835 0.8744 0.8724 0.8705 0.8684 0.8663
765.803406 0.8640 0.8618 0.8596 0.8576 0.8557
770.829977 0.8538 0.8520 0.8506 0.8498 0.8490
775.856547 0.8481 0.8472 0.8456 0.8429 0.8395
780.883118 0.8354 0.8313 0.8269 0.8227 0.8187
785.909689 0.8099 0.7821 0.7400 0.6980 0.6560
790.936260 0.6182 0.6019 0.6016 0.6076 0.6479
795.962830 0.6822 0.7165 0.7508 0.7850 0.8172
800.989401 0.8195 0.8205 0.8207 0.8176 0.8206
806.015972 0.8200 0.8194 0.8182 0.8169 0.8156
811.042543 0.8143 0.8130 0.8116 0.8100 0.8085
816.069113 0.8071 0.8058 0.8044 0.8030 0.8012
821.095684 0.7992 0.7973 0.7951 0.7927 0.7902
826.122255 0.7877 0.7852 0.7828 0.7804 0.7780
831.148826 0.7742 0.7702 0.7659 0.7615 0.7570
836.175396 0.7510 0.7445 0.7313 0.7230 0.7159
841.201967 0.7072 0.6985 0.6936 0.6890 0.6849
846.228538 0.6811 0.6773 0.6414 0.5750 0.5059
851.255109 0.4368 0.3779 0.3735 0.3791 0.4243
856.281679 0.4740 0.5238 0.5736 0.6234 0.6731
861.308250 0.7229 0.7590 0.7735 0.7839 0.7958
866.334821 0.8056 0.8104 0.8107 0.8106 0.8096
871.361392 0.8080 0.8057 0.8019 0.7972 0.7922
876.387962 0.7863 0.7798 0.7716 0.7631 0.6858
881.414533 0.5945 0.5484 0.5448 0.5631 0.5892
886.441104 0.6162 0.6433 0.6704 0.6974 0.7161
891.467675 0.7189 0.7160 0.7113 0.7025 0.6947
896.494245 0.6875 0.6814 0.6751 0.6662 0.6582
901.520816 0.6519 0.6458 0.6399 0.6000 0.5771
906.547387 0.5641 0.5362 0.5039 0.4716 0.4393
911.573958 0.4069 0.3746 0.3684 0.3609 0.3961
916.600528 0.4582 0.5243 0.5905 0.6565 0.7187
921.627099 0.7328 0.7318 0.7305 0.7292 0.7279
926.653670 0.7246 0.7126 0.6950 0.6764 0.6579
931.680241 0.6393 0.6208 0.6023 0.5837 0.5652
936.706812 0.5466 0.5281 0.5050 0.4843 0.4446
941.733382 0.3965 0.3484 0.3003 0.2522 0.2293
946.759953 0.2264 0.2265 0.2910 0.3846 0.4784
951.786524 0.5721 0.6320 0.6580 0.6732 0.6867
956.813095 0.6989 0.7096 0.7198 0.7314 0.7433
961.839665 0.7540 0.7656 0.7727 0.7772 0.7905
966.866236 0.8088 0.8242 0.8296 0.8302 0.8281
971.892807 0.8220 0.8144 0.8068 0.7993 0.7917
976.919378 0.7841 0.7719 0.7663 0.7657 0.7813
981.945948 0.8129 0.8419 0.8558 0.8610 0.8644
986.972519 0.8665 0.8680 0.8681 0.8678 0.8676
991.999090 0.8671 0.8665 0.8658 0.8650 0.8642
997.025661 0.8632 0.8622 0.8611 0.8600 0.8586
1002.052231 0.8570 0.8555 0.8536 0.8513 0.8491
1007.078802 0.8468 0.8442 0.8413 0.8385 0.8357
1012.105373 0.8328 0.8303 0.8281 0.8261 0.8242
1017.131944 0.8222 0.8202 0.8182 0.8160 0.8137
1022.158514 0.8114 0.8090 0.8067 0.8043 0.8019
1027.185085 0.7995 0.7971 0.7948 0.7925 0.7905
1032.211656 0.7884 0.7863 0.7839 0.7805 0.7765
1037.238227 0.7727 0.7689 0.7651 0.7612 0.7570
1042.264797 0.7534 0.7505 0.7488 0.7481 0.7481
1047.291368 0.7529 0.7613 0.7690 0.7766 0.7843
1052.317939 0.7920 0.7997 0.8021 0.8010 0.8014
1057.344510 0.8003 0.7993 0.7981 0.7967 0.7953
1062.371080 0.7939 0.7927 0.7915 0.7904 0.7897
1067.397651 0.7891 0.7881 0.7868 0.7851 0.7824
1072.424222 0.7791 0.7763 0.7739 0.7715 0.7694
1077.450793 0.7678 0.7665 0.7652 0.7642 0.7633
1082.477363 0.7626 0.7620 0.7614 0.7527 0.7316
1087.503934 0.7103 0.6889 0.6755 0.6801 0.7033
1092.530505 0.7355 0.7490 0.7479 0.7461 0.7439
1097.557076 0.7419 0.7397 0.7370 0.7339 0.7310
1102.583647 0.7282 0.7254 0.7223 0.7187 0.7150
1107.610217 0.7113 0.7075 0.7040 0.7004 0.6967
1112.636788 0.6925 0.6872 0.6818 0.6766 0.6713
1117.663359 0.6642 0.6535 0.6247 0.5695 0.5287
1122.689930 0.4879 0.4572 0.4510 0.4623 0.5013
1127.716500 0.5474 0.5935 0.6348 0.6561 0.6528
1132.743071 0.6394 0.6232 0.6070 0.5908 0.5746
1137.769642 0.5585 0.5459 0.5456 0.5572 0.5774
1142.796213 0.5975 0.6166 0.6296 0.6330 0.6366
1147.822783 0.6409 0.6487 0.6603 0.6620 0.6597
1152.849354 0.6534 0.6563 0.6505 0.6468 0.6458
1157.875925 0.6448 0.6432 0.6406 0.6373 0.6324
1162.902496 0.6257 0.6137 0.6002 0.5868 0.5733
1167.929066 0.5598 0.5464 0.5330 0.5208 0.5109
1172.955637 0.5019 0.4943 0.4863 0.4764 0.4641
1177.982208 0.4417 0.3950 0.3579 0.3208 0.2837
1183.008779 0.2466 0.2139 0.2026 0.2009 0.2009
1188.035349 0.2090 0.2529 0.3219 0.3909 0.4599
1193.061920 0.5289 0.5979 0.6588 0.6747 0.6753
1198.088491 0.6765 0.6671 0.6203 0.5583 0.4964
1203.115062 0.4346 0.3727 0.3108 0.2491 0.1961
1208.141632 0.1964 0.1969 0.2022 0.2485 0.3016
1213.168203 0.3548 0.4081 0.4613 0.5145 0.5673
1218.194774 0.6079 0.6264 0.7057 0.7377 0.7475
1223.221345 0.7547 0.7567 0.7587 0.7604 0.7615
1228.247915 0.7625 0.7632 0.7634 0.7632 0.7638
1233.274486 0.7620 0.7597 0.7561 0.7511 0.7355
1238.301057 0.7184 0.7013 0.6841 0.6669 0.6498
1243.327628 0.6394 0.6354 0.6326 0.6302 0.6284
1248.354198 0.6269 0.6255 0.6243 0.6156 0.6031
1253.380769 0.5902 0.5772 0.5643 0.5538 0.5500
1258.407340 0.5587 0.5758 0.5948 0.6137 0.6325
1263.433911 0.6397 0.6415 0.6032 0.5542 0.5186
1268.460482 0.4899 0.4794 0.4796 0.4945 0.5162
1273.487052 0.5325 0.5487 0.5649 0.5811 0.5973
1278.513623 0.6136 0.6298 0.6461 0.6623 0.6760
1283.540194 0.6864 0.7068 0.7303 0.7346 0.7365
1288.566765 0.7379 0.7383 0.7367 0.7352 0.7325
1293.593335 0.7286 0.7244 0.7175 0.7084 0.6994
1298.619906 0.6904 0.6813 0.6723 0.6634 0.6547
1303.646477 0.6433 0.6268 0.6174 0.6017 0.5830
1308.673048 0.5643 0.5455 0.5279 0.5188 0.5235
1313.699618 0.5531 0.5890 0.6236 0.6449 0.6456
1318.726189 0.6447 0.6306 0.6453 0.5956 0.5793
1323.752760 0.5628 0.5467 0.5403 0.5351 0.5279
1328.779331 0.5186 0.5044 0.4881 0.4521 0.4155
1333.805901 0.3788 0.3422 0.2852 0.2813 0.2810
1338.832472 0.2813 0.2969 0.3227 0.3498 0.3769
1343.859043 0.4039 0.4311 0.4472 0.4584 0.4997
1348.885614 0.5275 0.5787 0.6376 0.6965 0.7537
1353.912184 0.7679 0.7691 0.7681 0.7670 0.7662
1358.938755 0.7618 0.7495 0.7343 0.7191 0.7039
1363.965326 0.6887 0.6735 0.6583 0.6431 0.6279
1368.991897 0.6128 0.6051 0.6090 0.6280 0.6549
1374.018467 0.6697 0.6722 0.6713 0.6635 0.6495
1379.045038 0.6343 0.6190 0.6037 0.5773 0.5606
1384.071609 0.5612 0.5605 0.5784 0.6083 0.6348
1389.098180 0.6479 0.6432 0.6283 0.6102 0.5920
1394.124750 0.5739 0.5593 0.5444 0.5143 0.4794
1399.151321 0.4444 0.4069 0.3774 0.3835 0.4037
1404.177892 0.4467 0.4896 0.5326 0.5756 0.6186
1409.204463 0.6617 0.7010 0.7213 0.7217 0.7215
1414.231033 0.7216 0.7230 0.7183 0.7139 0.7069
1419.257604 0.7016 0.6916 0.6649 0.6381 0.6114
1424.284175 0.5846 0.5579 0.5310 0.5043 0.4776
1429.310746 0.4508 0.4242 0.4057 0.4075 0.4219
1434.337317 0.4365 0.4510 0.4567 0.4572 0.4548
1439.363887 0.4472 0.4392 0.4313 0.4234 0.4205
1444.390458 0.4184 0.4193 0.4198 0.4202 0.4206
1449.417029 0.4214 0.4226 0.4240 0.4415 0.4889
1454.443600 0.5428 0.5966 0.6505 0.7043 0.7581
1459.470170 0.7960 0.8099 0.8186 0.8230 0.8238
1464.496741 0.8237 0.8231 0.8224 0.8221 0.8213
1469.523312 0.8181 0.8101 0.8000 0.7898 0.7796
1474.549883 0.7694 0.7592 0.7490 0.7388 0.7287
1479.576453 0.7185 0.7083 0.6980 0.6882 0.6829
1484.603024 0.6818 0.6807 0.6796 0.6785 0.6776
1489.629595 0.6720 0.6547 0.6300 0.6053 0.5806
1494.656166 0.5644 0.5621 0.5621 0.5622 0.5630
1499.682736 0.5707 0.5884 0.6061 0.6238 0.6414
1504.709307 0.6591 0.6768 0.6945 0.7088 0.7138
1509.735878 0.7152 0.7158 0.7160 0.7166 0.7182
1514.762449 0.7137 0.7109 0.7012 0.6819 0.6697
1519.789019 0.6593 0.6494 0.6399 0.6310 0.6220
1524.815590 0.6130 0.6040 0.5949 0.5860 0.5782
1529.842161 0.5703 0.5618 0.5430 0.5227 0.5025
1534.868732 0.4822 0.4619 0.4416 0.4214 0.4011
1539.895302 0.3808 0.3606 0.3403 0.3270 0.3206
1544.921873 0.3145 0.3079 0.2978 0.2889 0.2803
1549.948444 0.2713 0.2592 0.2469 0.2353 0.2243
1554.975015 0.2158 0.2077 0.1996 0.1915 0.1835
1560.001585 0.1754 0.1676 0.1669 0.1635 0.1704
1565.028156 0.1783 0.1892 0.2205 0.2601 0.3000
1570.054727 0.3401 0.4145 0.4543 0.4649 0.4712
1575.081298 0.4754 0.4792 0.4827 0.4857 0.4918
1580.107868 0.4873 0.4718 0.4547 0.4375 0.4204
1585.134439 0.4032 0.3860 0.3689 0.3517 0.3346
1590.161010 0.3175 0.2947 0.2812 0.2968 0.3326
1595.187581 0.3755 0.4185 0.4614 0.5043 0.5472
1600.214151 0.5901 0.6330 0.6744 0.7183 0.7577
1605.240722 0.7737 0.7863 0.7964 0.8036 0.8106
1610.267293 0.8173 0.8228 0.8256 0.8267 0.8276
1615.293864 0.8278 0.8280 0.8281 0.8282 0.8281
1620.320435 0.8280 0.8279 0.8277 0.8274 0.8271
1625.347005 0.8267 0.8265 0.8266 0.8267 0.8268
1630.373576 0.8275 0.8297 0.8325 0.8368 0.8423
1635.400147 0.8471 0.8489 0.8501 0.8506 0.8507
1640.426718 0.8508 0.8509 0.8510 0.8511 0.8512
1645.453288 0.8513 0.8514 0.8515 0.8516 0.8517
1650.479859 0.8518 0.8519 0.8520 0.8524 0.8531
1655.506430 0.8540 0.8550 0.8564 0.8577 0.8588
1660.533001 0.8596 0.8600 0.8601 0.8602 0.8603
1665.559571 0.8604 0.8605 0.8606 0.8607 0.8607
1670.586142 0.8607 0.8607 0.8606 0.8606 0.8606
1675.612713 0.8606 0.8606 0.8607 0.8608 0.8609
1680.639284 0.8611 0.8612 0.8613 0.8615 0.8616
1685.665854 0.8615 0.8614 0.8612 0.8611 0.8610
1690.692425 0.8604 0.8601 0.8606 0.8605 0.8604
1695.718996 0.8602 0.8601 0.8599 0.8597 0.8596
1700.745567 0.8594 0.8592 0.8590 0.8589 0.8587
1705.772137 0.8585 0.8584 0.8582 0.8580 0.8578
1710.798708 0.8576 0.8574 0.8573 0.8571 0.8569
1715.825279 0.8567 0.8565 0.8563 0.8559 0.8553
1720.851850 0.8548 0.8542 0.8537 0.8531 0.8525
1725.878420 0.8520 0.8513 0.8505 0.8495 0.8484
1730.904991 0.8474 0.8462 0.8446 0.8428 0.8409
1735.931562 0.8381 0.8346 0.8309 0.8270 0.8228
1740.958133 0.8186 0.8139 0.8085 0.8029 0.7976
1745.984703 0.7926 0.7876 0.7830 0.7789 0.7747
1751.011274 0.7710 0.7677 0.7653 0.7634 0.7626
1756.037845 0.7628 0.7672 0.7842 0.8085 0.8329
1761.064416 0.8500 0.8552 0.8554 0.8556 0.8557
1766.090986 0.8559 0.8559 0.8558 0.8559 0.8559
1771.117557 0.8557 0.8557 0.8556 0.8556 0.8555
1776.144128 0.8555 0.8554 0.8554 0.8553 0.8552
1781.170699 0.8552 0.8551 0.8550 0.8550 0.8549
1786.197270 0.8548 0.8545 0.8543 0.8541 0.8539
1791.223840 0.8536 0.8534 0.8532 0.8530 0.8525
1796.250411 0.8519 0.8512 0.8505 0.8499 0.8494
1801.276982 0.8489 0.8485 0.8481 0.8477 0.8473
1806.303553 0.8469 0.8467 0.8466 0.8466 0.8465
1811.330123 0.8464 0.8463 0.8463 0.8462 0.8461
1816.356694 0.8460 0.8459 0.8458 0.8457 0.8456
1821.383265 0.8455 0.8454 0.8453 0.8450 0.8448
1826.409836 0.8445 0.8443 0.8440 0.8438 0.8435
1831.436406 0.8433 0.8430 0.8428 0.8425 0.8423
1836.462977 0.8420 0.8417 0.8415 0.8412 0.8410
1841.489548 0.8407 0.8404 0.8401 0.8398 0.8395
1846.516119 0.8392 0.8389 0.8386 0.8383 0.8380
1851.542689 0.8377 0.8374 0.8371 0.8368 0.8364
1856.569260 0.8360 0.8355 0.8351 0.8347 0.8342
1861.595831 0.8338 0.8334 0.8329 0.8325 0.8321
1866.622402 0.8316 0.8312 0.8308 0.8304 0.8299
1871.648972 0.8295 0.8291 0.8287 0.8282 0.8278
1876.675543 0.8274 0.8269 0.8265 0.8261 0.8254
1881.702114 0.8247 0.8240 0.8232 0.8225 0.8218
1886.728685 0.8211 0.8204 0.8196 0.8183 0.8171
1891.755255 0.8158 0.8146 0.8133 0.8121 0.8108
1896.781826 0.8085 0.8058 0.8031 0.8002 0.7972
1901.808397 0.7943 0.7914 0.7886 0.7866 0.7854
1906.834968 0.7866 0.7848 0.7850 0.7864 0.7883
1911.861538 0.7908 0.7945 0.7981 0.8009 0.8036
1916.888109 0.8095 0.8164 0.8204 0.8217 0.8220
1921.914680 0.8222 0.8224 0.8226 0.8227 0.8229
1926.941251 0.8231 0.8233 0.8235 0.8237 0.8239
1931.967821 0.8241 0.8252 0.8240 0.8238 0.8236
1936.994392 0.8234 0.8233 0.8231 0.8225 0.8220
1942.020963 0.8215 0.8210 0.8205 0.8199 0.8195
1947.047534 0.8190 0.8186 0.8182 0.8178 0.8174
1952.074105 0.8171 0.8168 0.8164 0.8161 0.8158
1957.100675 0.8155 0.8152 0.8149 0.8146 0.8143
1962.127246 0.8141 0.8138 0.8135 0.8136 0.8138
1967.153817 0.8139 0.8140 0.8141 0.8143 0.8144
1972.180388 0.8145 0.8146 0.8146 0.8146 0.8145
1977.206958 0.8145 0.8145 0.8145 0.8145 0.8146
1982.233529 0.8147 0.8147 0.8148 0.8149 0.8150
1987.260100 0.8151 0.8152 0.8153 0.8153 0.8154
1992.286671 0.8155 0.8156 0.8157 0.8156 0.8154
1997.313241 0.8152 0.8150 0.8148 0.8146 0.8144
2002.339812 0.8141 0.8138 0.8134 0.8131 0.8128
2007.366383 0.8125 0.8119 0.8114 0.8108 0.8103
2012.392954 0.8098 0.8092 0.8087 0.8081 0.8075
2017.419524 0.8069 0.8063 0.8057 0.8051 0.8045
2022.446095 0.8040 0.8035 0.8031 0.8026 0.8021
2027.472666 0.8017 0.8012 0.8007 0.8003 0.8000
2032.499237 0.7997 0.7994 0.7991 0.7988 0.7985
2037.525807 0.7982 0.7979 0.7976 0.7973 0.7970
2042.552378 0.7966 0.7963 0.7960 0.7956 0.7953
2047.578949 0.7949 0.7946 0.7943 0.7939 0.7936
2052.605520 0.7933 0.7929 0.7926 0.7922 0.7919
2057.632090 0.7916 0.7912 0.7909 0.7905 0.7902
2062.658661 0.7899 0.7895 0.7891 0.7888 0.7885
2067.685232 0.7881 0.7878 0.7875 0.7871 0.7868
2072.711803 0.7865 0.7861 0.7858 0.7855 0.7851
2077.738373 0.7848 0.7845 0.7841 0.7838 0.7835
2082.764944 0.7831 0.7828 0.7825 0.7822 0.7820
2087.791515 0.7817 0.7814 0.7811 0.7809 0.7806
2092.818086 0.7803 0.7801 0.7798 0.7795 0.7793
2097.844656 0.7790 0.7787 0.7784 0.7782 0.7779
2102.871227 0.7776 0.7774 0.7771 0.7768 0.7765
2107.897798 0.7763 0.7760 0.7758 0.7755 0.7753
2112.924369 0.7751 0.7748 0.7746 0.7744 0.7741
2117.950940 0.7739 0.7737 0.7734 0.7732 0.7730
2122.977510 0.7727 0.7725 0.7723 0.7720 0.7718
2128.004081 0.7716 0.7713 0.7711 0.7709 0.7706
2133.030652 0.7704 0.7702 0.7699 0.7697 0.7695
2138.057223 0.7694 0.7693 0.7691 0.7690 0.7689
2143.083793 0.7687 0.7686 0.7685 0.7683 0.7682
2148.110364 0.7681 0.7679 0.7678 0.7677 0.7676
2153.136935 0.7674 0.7673 0.7672 0.7670 0.7669
2158.163506 0.7668 0.7666 0.7665 0.7664 0.7662
2163.190076 0.7661 0.7660 0.7658 0.7657 0.7656
2168.216647 0.7654 0.7653 0.7652 0.7651 0.7650
2173.243218 0.7649 0.7649 0.7648 0.7647 0.7647
2178.269789 0.7646 0.7645 0.7645 0.7644 0.7643
2183.296359 0.7643 0.7642 0.7641 0.7641 0.7640
2188.322930 0.7639 0.7639 0.7638 0.7638 0.7637
2193.349501 0.7636 0.7636 0.7635 0.7634 0.7634
2198.376072 0.7634 0.7634 0.7634 0.7634 0.7633
2203.402642 0.7633 0.7633 0.7633 0.7633 0.7633
2208.429213 0.7632 0.7632 0.7632 0.7632 0.7632
2213.455784 0.7631 0.7630 0.7629 0.7628 0.7627
2218.482355 0.7626 0.7625 0.7624 0.7623 0.7623
2223.508925 0.7622 0.7621 0.7620 0.7619 0.7618
2228.535496 0.7616 0.7614 0.7612 0.7610 0.7608
2233.562067 0.7605 0.7603 0.7601 0.7599 0.7597
2238.588638 0.7595 0.7593 0.7591 0.7589 0.7587
2243.615208 0.7585 0.7583 0.7581 0.7580 0.7579
2248.641779 0.7578 0.7576 0.7575 0.7574 0.7573
2253.668350 0.7572 0.7570 0.7566 0.7559 0.7550
2258.694921 0.7541 0.7533 0.7523 0.7513 0.7503
2263.721491 0.7494 0.7489 0.7486 0.7484 0.7483
2268.748062 0.7482 0.7483 0.7484 0.7485 0.7486
2273.774633 0.7488 0.7489 0.7490 0.7492 0.7494
2278.801204 0.7496 0.7498 0.7500 0.7502 0.7505
2283.827775 0.7508 0.7511 0.7514 0.7517 0.7521
2288.854345 0.7525 0.7528 0.7530 0.7530 0.7530
2293.880916 0.7527 0.7521 0.7516 0.7510 0.7505
2298.907487 0.7500 0.7495 0.7489 0.7484 0.7479
2303.934058 0.7474 0.7469 0.7464 0.7459 0.7455
2308.960628 0.7450 0.7447 0.7444 0.7441 0.7438
2313.987199 0.7436 0.7433 0.7430 0.7427 0.7424
2319.013770 0.7421 0.7418 0.7415 0.7412 0.7409
2324.040341 0.7406 0.7403 0.7400 0.7397 0.7394
2329.066911 0.7391 0.7388 0.7385 0.7382 0.7379
2334.093482 0.7376 0.7373 0.7370 0.7367 0.7364
2339.120053 0.7361 0.7358 0.7355 0.7352 0.7349
2344.146624 0.7346 0.7343 0.7340 0.7337 0.7334
2349.173194 0.7331 0.7328 0.7325 0.7322 0.7319
2354.199765 0.7316 0.7314 0.7315 0.7315 0.7315
2359.226336 0.7316 0.7315 0.7314 0.7313 0.7312
2364.252907 0.7311 0.7310 0.7309 0.7308 0.7307
2369.279477 0.7307 0.7308 0.7309 0.7310 0.7311
2374.306048 0.7311 0.7312 0.7313 0.7313 0.7313
2379.332619 0.7313 0.7313 0.7313 0.7313 0.7313
2384.359190 0.7313 0.7313 0.7312 0.7311 0.7310
2389.385760 0.7309 0.7308 0.7307 0.7306 0.7305
2394.412331 0.7304 0.7303 0.7302 0.7301 0.7299
2399.438902 0.7298 0.7297 0.7297 0.7296 0.7296
2404.465473 0.7295 0.7295 0.7294 0.7294 0.7294
2409.492043 0.7293 0.7293 0.7292 0.7292 0.7291
2414.518614 0.7291 0.7291 0.7290 0.7288 0.7285
2419.545185 0.7283 0.7281 0.7279 0.7277 0.7275
2424.571756 0.7272 0.7270 0.7268 0.7266 0.7262
2429.598326 0.7258 0.7254 0.7250 0.7246 0.7243
2434.624897 0.7239 0.7235 0.7231 0.7227 0.7223
2439.651468 0.7219 0.7216 0.7213 0.7209 0.7206
2444.678039 0.7203 0.7199 0.7196 0.7192 0.7189
2449.704610 0.7187 0.7186 0.7184 0.7182 0.7181
2454.731180 0.7179 0.7177 0.7176 0.7174 0.7172
2459.757751 0.7169 0.7166 0.7163 0.7160 0.7157
2464.784322 0.7154 0.7151 0.7148 0.7145 0.7142
2469.810893 0.7139 0.7135 0.7132 0.7132 0.7132
2474.837463 0.7131 0.7131 0.7131 0.7130 0.7130
2479.864034 0.7130 0.7129 0.7129 0.7129 0.7128
2484.890605 0.7129 0.7130 0.7131 0.7131 0.7132
2489.917176 0.7133 0.7134 0.7135 0.7136 0.7137
2494.943746 0.7138 0.7139 0.7140 0.7140 0.7141
2499.970317 0.7141 0.7142 0.7142 0.7142 0.7143
2504.996888 0.7143 0.7143 0.7144 0.7144 0.7144
2510.023459 0.7145 0.7145 0.7146 0.7147 0.7147
2515.050029 0.7148 0.7149 0.7149 0.7150 0.7151
2520.076600 0.7151 0.7152 0.7153 0.7155 0.7156
2525.103171 0.7158 0.7160 0.7161 0.7163 0.7164
2530.129742 0.7166 0.7167 0.7165 0.7163 0.7160
2535.156312 0.7157 0.7155 0.7152 0.7149 0.7147
2540.182883 0.7143 0.7138 0.7131 0.7123 0.7116
2545.209454 0.7109 0.7102 0.7095 0.7088 0.7081
2550.236025 0.7074 0.7067 0.7062 0.7057 0.7051
2555.262595 0.7046 0.7041 0.7035 0.7030 0.7025
2560.289166 0.7020 0.7014 0.7009 0.7004 0.6998
2565.315737 0.6993 0.6988 0.6983 0.6977 0.6972
2570.342308 0.6967 0.6962 0.6956 0.6951 0.6947
2575.368878 0.6945 0.6945 0.6945 0.6945 0.6945
2580.395449 0.6945 0.6944 0.6944 0.6945 0.6945
2585.422020 0.6946 0.6947 0.6947 0.6948 0.6948
2590.448591 0.6949 0.6950 0.6950 0.6951 0.6952
2595.475161 0.6952 0.6952 0.6952 0.6952 0.6952
2600.501732 0.6952 0.6952 0.6952 0.6952 0.6952
2605.528303 0.6952 0.6952 0.6951 0.6951 0.6951
2610.554874 0.6951 0.6951 0.6951 0.6951 0.6951
2615.581445 0.6950 0.6950 0.6950 0.6950 0.6949
2620.608015 0.6949 0.6949 0.6949 0.6948 0.6948
2625.634586 0.6948 0.6947 0.6947 0.6947 0.6947
2630.661157 0.6946 0.6946 0.6946 0.6945 0.6945
2635.687728 0.6944 0.6942 0.6941 0.6940 0.6939
2640.714298 0.6938 0.6936 0.6935 0.6934 0.6933
2645.740869 0.6932 0.6930 0.6929 0.6928 0.6926
2650.767440 0.6925 0.6923 0.6921 0.6919 0.6917
2655.794011 0.6915 0.6913 0.6910 0.6906 0.6902
2660.820581 0.6898 0.6893 0.6889 0.6885 0.6881
2665.847152 0.6876 0.6872 0.6868 0.6864 0.6862
2670.873723 0.6861 0.6859 0.6858 0.6856 0.6855
2675.900294 0.6853 0.6851 0.6849 0.6846 0.6844
2680.926864 0.6841 0.6838 0.6836 0.6833 0.6830
2685.953435 0.6828 0.6825 0.6822 0.6820 0.6817
2690.980006 0.6814 0.6812 0.6809 0.6806 0.6804
2696.006577 0.6802 0.6800 0.6798 0.6796 0.6794
2701.033147 0.6792 0.6790 0.6788 0.6786 0.6785
2706.059718 0.6783 0.6781 0.6779 0.6777 0.6775
2711.086289 0.6773 0.6770 0.6768 0.6765 0.6763
2716.112860 0.6760 0.6758 0.6755 0.6753 0.6750
2721.139430 0.6748 0.6745 0.6743 0.6740 0.6738
2726.166001 0.6735 0.6733 0.6730 0.6728 0.6725
2731.192572 0.6723 0.6720 0.6718 0.6715 0.6713
2736.219143 0.6711 0.6709 0.6707 0.6705 0.6703
2741.245713 0.6701 0.6699 0.6697 0.6695 0.6693
2746.272284 0.6691 0.6689 0.6687 0.6685 0.6683
2751.298855 0.6681 0.6678 0.6676 0.6674 0.6672
2756.325426 0.6670 0.6668 0.6666 0.6664 0.6662
2761.351996 0.6660 0.6658 0.6657 0.6656 0.6656
2766.378567 0.6655 0.6654 0.6653 0.6653 0.6652
2771.405138 0.6651 0.6650 0.6649 0.6649 0.6648
2776.431709 0.6647 0.6646 0.6646 0.6645 0.6644
2781.458280 0.6644 0.6643 0.6643 0.6642 0.6642
2786.484850 0.6641 0.6641 0.6640 0.6640 0.6639
2791.511421 0.6639 0.6638 0.6638 0.6637 0.6635
2796.537992 0.6632 0.6629 0.6626 0.6623 0.6620
2801.564563 0.6618 0.6615 0.6612 0.6610 0.6607
2806.591133 0.6605 0.6602 0.6600 0.6598 0.6595
2811.617704 0.6593 0.6590 0.6588 0.6586 0.6583
2816.644275 0.6580 0.6578 0.6575 0.6573 0.6570
2821.670846 0.6567 0.6565 0.6562 0.6559 0.6557
2826.697416 0.6553 0.6548 0.6543 0.6538 0.6533
2831.723987 0.6528 0.6523 0.6518 0.6513 0.6508
2836.750558 0.6503 0.6498 0.6493 0.6488 0.6484
2841.777129 0.6480 0.6476 0.6473 0.6469 0.6465
2846.803699 0.6462 0.6458 0.6455 0.6451 0.6447
2851.830270 0.6444 0.6440 0.6436 0.6431 0.6425
2856.856841 0.6419 0.6414 0.6408 0.6402 0.6396
2861.883412 0.6391 0.6385 0.6379 0.6373 0.6368
2866.909982 0.6362 0.6356 0.6351 0.6344 0.6338
2871.936553 0.6333 0.6327 0.6321 0.6315 0.6310
2876.963124 0.6304 0.6298 0.6292 0.6287 0.6281
2881.989695 0.6275 0.6269 0.6264 0.6258 0.6252
2887.016265 0.6246 0.6238 0.6230 0.6222 0.6214
2892.042836 0.6208 0.6202 0.6197 0.6191 0.6185
2897.069407 0.6180 0.6175 0.6169 0.6164 0.6159
2902.095978 0.6154 0.6148 0.6143 0.6139 0.6135
2907.122548 0.6131 0.6127 0.6123 0.6119 0.6115
2912.149119 0.6114 0.6114 0.6114 0.6114 0.6113
2917.175690 0.6113 0.6113 0.6116 0.6119 0.6122
2922.202261 0.6124 0.6127 0.6130 0.6133 0.6136
2927.228831 0.6139 0.6143 0.6146 0.6149 0.6152
2932.255402 0.6156 0.6158 0.6158 0.6159 0.6159
2937.281973 0.6159 0.6157 0.6154 0.6152 0.6150
2942.308544 0.6147 0.6145 0.6142 0.6140 0.6137
2947.335115 0.6135 0.6131 0.6127 0.6123 0.6119
2952.361685 0.6115 0.6111 0.6107 0.6103 0.6099
2957.388256 0.6095 0.6091 0.6087 0.6083 0.6078
2962.414827 0.6072 0.6067 0.6061 0.6055 0.6050
2967.441398 0.6041 0.6030 0.6019 0.6007 0.5996
2972.467968 0.5985 0.5974 0.5969 0.5964 0.5958
2977.494539 0.5953 0.5948 0.5943 0.5941 0.5941
2982.521110 0.5941 0.5941 0.5941 0.5941 0.5940
2987.547681 0.5940 0.5940 0.5940 0.5942 0.5948
2992.574251 0.5954 0.5960 0.5966 0.5972 0.5978
2997.600822 0.5990 0.6003 0.6015 0.6028 0.6040
3002.627393 0.6053 0.6065 0.6076 0.6087 0.6098
3007.653964 0.6108 0.6119 0.6124 0.6125 0.6127
3012.680534 0.6128 0.6130 0.6131 0.6133 0.6132
3017.707105 0.6132 0.6131 0.6131 0.6130 0.6129
3022.733676 0.6129 0.6128 0.6128 0.6127 0.6126
3027.760247 0.6126 0.6125 0.6125 0.6124 0.6123
3032.786817 0.6123 0.6122 0.6121 0.6120 0.6119
3037.813388 0.6118 0.6117 0.6116 0.6115 0.6114
3042.839959 0.6113 0.6112 0.6110 0.6104 0.6096
3047.866530 0.6087 0.6078 0.6070 0.6066 0.6062
3052.893100 0.6058 0.6054 0.6051 0.6047 0.6043
3057.919671 0.6044 0.6046 0.6048 0.6050 0.6052
3062.946242 0.6054 0.6057 0.6061 0.6066 0.6071
3067.972813 0.6076 0.6082 0.6087 0.6092 0.6097
3072.999383 0.6103 0.6108 0.6112 0.6112 0.6111
3078.025954 0.6111 0.6109 0.6104 0.6095 0.6087
3083.052525 0.6077 0.6068 0.6053 0.6038 0.6024
3088.079096 0.6010 0.5997 0.5984 0.5970 0.5957
3093.105666 0.5945 0.5936 0.5926 0.5920 0.5923
3098.132237 0.5925 0.5928 0.5931 0.5939 0.5953
3103.158808 0.5967 0.5981 0.5997 0.6014 0.6031
3108.185379 0.6048 0.6066 0.6084 0.6102 0.6124
3113.211950 0.6149 0.6173 0.6193 0.6209 0.6221
3118.238520 0.6226 0.6225 0.6224 0.6222 0.6220
3123.265091 0.6217 0.6215 0.6213 0.6211 0.6209
3128.291662 0.6206 0.6203 0.6200 0.6197 0.6193
3133.318233 0.6190 0.6187 0.6184 0.6181 0.6178
3138.344803 0.6175 0.6172 0.6169 0.6165 0.6162
3143.371374 0.6158 0.6154 0.6151 0.6147 0.6144
3148.397945 0.6141 0.6139 0.6136 0.6133 0.6131
3153.424516 0.6128 0.6125 0.6124 0.6123 0.6123
3158.451086 0.6124 0.6124 0.6126 0.6129 0.6132
3163.477657 0.6135 0.6138 0.6142 0.6148 0.6155
3168.504228 0.6162 0.6168 0.6174 0.6177 0.6179
3173.530799 0.6181 0.6180 0.6178 0.6176 0.6174
3178.557369 0.6172 0.6170 0.6168 0.6166 0.6164
3183.583940 0.6161 0.6158 0.6155 0.6151 0.6148
3188.610511 0.6145 0.6142 0.6138 0.6135 0.6131
3193.637082 0.6128 0.6125 0.6122 0.6119 0.6116
3198.663652 0.6112 0.6109 0.6106 0.6103 0.6100
3203.690223 0.6097 0.6094 0.6091 0.6088 0.6085
3208.716794 0.6080 0.6076 0.6071 0.6067 0.6063
3213.743365 0.6058 0.6054 0.6050 0.6044 0.6039
3218.769935 0.6033 0.6027 0.6021 0.6015 0.6004
3223.796506 0.5993 0.5981 0.5971 0.5967 0.5963
3228.823077 0.5959 0.5956 0.5955 0.5955 0.5954
3233.849648 0.5954 0.5954 0.5953 0.5951 0.5948
3238.876218 0.5945 0.5941 0.5937 0.5927 0.5916
3243.902789 0.5906 0.5896 0.5889 0.5883 0.5878
3248.929360 0.5873 0.5869 0.5868 0.5866 0.5865
3253.955931 0.5863 0.5862 0.5861 0.5859 0.5859
3258.982501 0.5858 0.5857 0.5856 0.5855 0.5854
3264.009072 0.5854 0.5853 0.5852 0.5852 0.5851
3269.035643 0.5850 0.5850 0.5849 0.5848 0.5846
3274.062214 0.5845 0.5843 0.5842 0.5841 0.5839
3279.088784 0.5835 0.5830 0.5826 0.5820 0.5815
3284.115355 0.5810 0.5805 0.5800 0.5795 0.5790
3289.141926 0.5784 0.5778 0.5772 0.5766 0.5761
3294.168497 0.5755 0.5749 0.5743 0.5737 0.5731
3299.195068 0.5725 0.5719 0.5712 0.5706 0.5700
3304.221638 0.5695 0.5690 0.5685 0.5679 0.5674
3309.248209 0.5669 0.5665 0.5662 0.5659 0.5656
3314.274780 0.5655 0.5654 0.5653 0.5653 0.5652
3319.301351 0.5651 0.5649 0.5648 0.5646 0.5642
3324.327921 0.5635 0.5628 0.5619 0.5607 0.5593
3329.354492 0.5580 0.5567 0.5554 0.5544 0.5539
3334.381063 0.5538 0.5537 0.5536 0.5535 0.5534
3339.407634 0.5532 0.5531 0.5531 0.5531 0.5531
3344.434204 0.5531 0.5530 0.5530 0.5530 0.5530
3349.460775 0.5530 0.5530 0.5530 0.5529 0.5528
3354.487346 0.5527 0.5527 0.5525 0.5524 0.5521
3359.513917 0.5517 0.5513 0.5509 0.5506 0.5500
3364.540487 0.5493 0.5485 0.5476 0.5468 0.5460
3369.567058 0.5451 0.5440 0.5427 0.5414 0.5402
3374.593629 0.5390 0.5378 0.5366 0.5354 0.5342
3379.620200 0.5332 0.5325 0.5318 0.5311 0.5304
3384.646770 0.5296 0.5290 0.5285 0.5281 0.5277
3389.673341 0.5273 0.5269 0.5265 0.5261 0.5258
3394.699912 0.5254 0.5251 0.5247 0.5244 0.5240
3399.726483 0.5237 0.5234 0.5231 0.5229 0.5226
3404.753053 0.5223 0.5220 0.5217 0.5215 0.5215
3409.779624 0.5220 0.5215 0.5212 0.5212 0.5211
3414.806195 0.5212 0.5213 0.5214 0.5216 0.5219
3419.832766 0.5222 0.5226 0.5230 0.5233 0.5237
3424.859336 0.5240 0.5244 0.5248 0.5252 0.5257
3429.885907 0.5262 0.5266 0.5270 0.5275 0.5280
3434.912478 0.5285 0.5290 0.5295 0.5301 0.5305
3439.939049 0.5309 0.5314 0.5318 0.5322 0.5326
3444.965619 0.5330 0.5335 0.5339 0.5343 0.5347
3449.992190 0.5351 0.5356 0.5360 0.5363 0.5366
3455.018761 0.5369 0.5372 0.5376 0.5379 0.5382
3460.045332 0.5385 0.5388 0.5391 0.5395 0.5398
3465.071903 0.5401 0.5403 0.5406 0.5409 0.5412
3470.098473 0.5414 0.5417 0.5420 0.5422 0.5425
3475.125044 0.5428 0.5431 0.5435 0.5438 0.5442
3480.151615 0.5446 0.5450 0.5454 0.5458 0.5462
3485.178186 0.5465 0.5469 0.5473 0.5477 0.5480
3490.204756 0.5483 0.5486 0.5489 0.5492 0.5496
3495.231327 0.5498 0.5499 0.5500 0.5501 0.5503
3500.257898 0.5504 0.5505 0.5506 0.5507 0.5508
3505.284469 0.5509 0.5510 0.5510 0.5511 0.5512
3510.311039 0.5512 0.5513 0.5514 0.5514 0.5515
3515.337610 0.5515 0.5516 0.5517 0.5518 0.5520
3520.364181 0.5521 0.5523 0.5524 0.5525 0.5527
3525.390752 0.5528 0.5530 0.5531 0.5533 0.5534
3530.417322 0.5536 0.5537 0.5538 0.5539 0.5540
3535.443893 0.5541 0.5542 0.5543 0.5544 0.5545
3540.470464 0.5546 0.5547 0.5548 0.5551 0.5555
3545.497035 0.5559 0.5564 0.5568 0.5573 0.5578
3550.523605 0.5584 0.5590 0.5596 0.5602 0.5607
3555.550176 0.5613 0.5619 0.5625 0.5630 0.5637
3560.576747 0.5645 0.5653 0.5660 0.5668 0.5675
3565.603318 0.5682 0.5686 0.5688 0.5689 0.5690
3570.629888 0.5692 0.5693 0.5694 0.5695 0.5697
3575.656459 0.5698 0.5699 0.5700 0.5702 0.5703
3580.683030 0.5704 0.5704 0.5705 0.5706 0.5707
3585.709601 0.5708 0.5709 0.5709 0.5710 0.5711
3590.736171 0.5712 0.5713 0.5714 0.5715 0.5716
3595.762742 0.5718 0.5720 0.5723 0.5725 0.5727
3600.789313 0.5729 0.5731 0.5733 0.5735 0.5737
3605.815884 0.5740 0.5742 0.5744 0.5746 0.5748
3610.842454 0.5750 0.5753 0.5754 0.5755 0.5756
3615.869025 0.5757 0.5758 0.5759 0.5760 0.5761
3620.895596 0.5762 0.5763 0.5764 0.5765 0.5764
3625.922167 0.5763 0.5763 0.5762 0.5761 0.5761
3630.948738 0.5760 0.5759 0.5759 0.5758 0.5757
3635.975308 0.5756 0.5756 0.5755 0.5754 0.5754
3641.001879 0.5753 0.5752 0.5751 0.5751 0.5750
3646.028450 0.5749 0.5749 0.5748 0.5747 0.5746
3651.055021 0.5746 0.5745 0.5744 0.5743 0.5743
3656.081591 0.5747 0.5752 0.5756 0.5760 0.5764
3661.108162 0.5769 0.5773 0.5777 0.5782 0.5786
3666.134733 0.5791 0.5795 0.5799 0.5803 0.5808
3671.161304 0.5814 0.5820 0.5827 0.5834 0.5840
3676.187874 0.5847 0.5854 0.5861 0.5867 0.5872
3681.214445 0.5875 0.5877 0.5880 0.5882 0.5885
3686.241016 0.5887 0.5890 0.5893 0.5895 0.5898
3691.267587 0.5900 0.5903 0.5904 0.5903 0.5903
3696.294157 0.5902 0.5902 0.5902 0.5901 0.5901
3701.320728 0.5900 0.5900 0.5900 0.5899 0.5898
3706.347299 0.5897 0.5896 0.5895 0.5894 0.5893
3711.373870 0.5892 0.5890 0.5889 0.5888 0.5887
3716.400440 0.5886 0.5885 0.5884 0.5882 0.5881
3721.427011 0.5880 0.5879 0.5877 0.5876 0.5875
3726.453582 0.5873 0.5872 0.5871 0.5870 0.5868
3731.480153 0.5867 0.5866 0.5864 0.5861 0.5858
3736.506723 0.5855 0.5853 0.5850 0.5848 0.5845
3741.533294 0.5843 0.5840 0.5837 0.5835 0.5832
3746.559865 0.5830 0.5827 0.5825 0.5822 0.5820
3751.586436 0.5817 0.5814 0.5812 0.5809 0.5807
3756.613006 0.5806 0.5804 0.5802 0.5801 0.5799
3761.639577 0.5797 0.5796 0.5794 0.5792 0.5791
3766.666148 0.5789 0.5787 0.5786 0.5784 0.5782
3771.692719 0.5781 0.5779 0.5777 0.5775 0.5772
3776.719289 0.5770 0.5767 0.5765 0.5762 0.5760
3781.745860 0.5757 0.5755 0.5752 0.5750 0.5747
3786.772431 0.5745 0.5742 0.5740 0.5737 0.5735
3791.799002 0.5732 0.5729 0.5726 0.5723 0.5720
3796.825573 0.5717 0.5714 0.5710 0.5707 0.5704
3801.852143 0.5701 0.5698 0.5695 0.5693 0.5690
3806.878714 0.5687 0.5684 0.5681 0.5678 0.5675
3811.905285 0.5672 0.5669 0.5666 0.5663 0.5660
3816.931856 0.5657 0.5654 0.5652 0.5650 0.5649
3821.958426 0.5647 0.5645 0.5644 0.5642 0.5641
3826.984997 0.5639 0.5638 0.5636 0.5635 0.5633
3832.011568 0.5632 0.5630 0.5628 0.5627 0.5625
3837.038139 0.5624 0.5622 0.5621 0.5619 0.5619
3842.064709 0.5619 0.5619 0.5619 0.5619 0.5618
3847.091280 0.5618 0.5618 0.5618 0.5618 0.5617
3852.117851 0.5617 0.5617 0.5617 0.5617 0.5617
3857.144422 0.5617 0.5618 0.5618 0.5618 0.5619
3862.170992 0.5619 0.5619 0.5620 0.5620 0.5620
3867.197563 0.5621 0.5621 0.5621 0.5622 0.5622
3872.224134 0.5622 0.5623 0.5623 0.5623 0.5624
3877.250705 0.5624 0.5624 0.5624 0.5624 0.5624
3882.277275 0.5624 0.5624 0.5624 0.5624 0.5624
3887.303846 0.5624 0.5624 0.5624 0.5624 0.5624
3892.330417 0.5624 0.5624 0.5624 0.5624 0.5624
3897.356988 0.5624 0.5624 0.5624 0.5624 0.5624
3902.383558 0.5624 0.5624 0.5625 0.5626 0.5626
3907.410129 0.5627 0.5628 0.5628 0.5629 0.5630
3912.436700 0.5630 0.5631 0.5632 0.5632 0.5633
3917.463271 0.5634 0.5634 0.5635 0.5635 0.5636
3922.489841 0.5637 0.5637 0.5638 0.5639 0.5640
3927.516412 0.5641 0.5641 0.5642 0.5642 0.5643
3932.542983 0.5643 0.5644 0.5644 0.5645 0.5645
3937.569554 0.5646 0.5646 0.5647 0.5648 0.5648
3942.596124 0.5649 0.5649 0.5650 0.5650 0.5651
3947.622695 0.5651 0.5651 0.5651 0.5650 0.5650
3952.649266 0.5649 0.5649 0.5648 0.5648 0.5647
3957.675837 0.5647 0.5646 0.5646 0.5616 0.5632
3962.702408 0.5645 0.5644 0.5644 0.5643 0.5643
3967.728978 0.5642 0.5641 0.5640 0.5639 0.5637
3972.755549 0.5636 0.5635 0.5634 0.5632 0.5631
3977.782120 0.5630 0.5628 0.5627 0.5626 0.5624
3982.808691 0.5623 0.5622 0.5621 0.5619 0.5617
3987.835261 0.5614 0.5612 0.5609 0.5607 0.5604
3992.861832 0.5602 0.5598 0.5592 0.5586 0.5574
3997.888403 0.5560 0.5547 0.5533 0.5518 0.5501
4002.914974 0.5484 0.5468 0.5452 0.5437 0.5422
4007.941544 0.5399 0.5375 0.5351 0.5327 0.5302
4012.968115 0.5278 0.5254 0.5230 0.5204 0.5180
4017.994686 0.5165
##END=
