##TITLE=Ethanol
##JCAMP-DX=4.24
##DATA TYPE=INFRARED SPECTRUM
##CLASS=IUPAC A
##ORIGIN=NIST, Anayltical Chemistry Division, 301-975-3108
##OWNER=COPYRIGHT (C) 1998 by the U.S. Secretary of Commerce
##DATE=98/10/1
##$SPECTRA VERSION=1.00
##$UNCERTAINTY IN Y=2.0 % relative (B=1.0E-04,C=2.9E-10,D=2.7E-14)
##CAS NAME=Ethanol
##CAS REGISTRY NO=64-17-5
##MOLFORM=C2 H5 O H
##MP=-117.3 C
##BP=78.5 C
##$NIST SOURCE=QUANT-IR
##SPECTROMETER/DATA SYSTEM=IFS66V (Bruker)
##INSTRUMENT PARAMETERS=KBr Beam splitter; MCT Detector; Multipass cell
##STATE=gas
##SAMPLE DESCRIPTION=Ethanol Primary Gas Standard
##PRESSURE=101.3 kPa
##TEMPERATURE=23 C
##SAMPLING PROCEDURE=1 L/min Flow
##RESOLUTION=1.9290
##DATA PROCESSING=Boxcar Apodization
##XUNITS=cm-1
##YUNITS=(micromol/mol)-1m-1 (base 10)
##XFACTOR=1.0
##YFACTOR=2.2737E-13
##DELTAX=0.9645
##FIRSTX=574.687
##LASTX=3974.595
##FIRSTY=2.34E-06
##MAXX=3973.63
##MINX=574.69
##MAXY=.000328
##MINY=-5.68E-07
##NPOINTS=3527
##XYDATA=(X++(Y..Y))
574.69 10292860 9717146 13153230 12637690 5284782 8788698
579.51 7464364 9481062 10621090 12893900 12253960 10598990
585.29 11025290 4577838 11021170 11089180 8819134 11687840
591.08 9342496 10853410 10484860 10570810 11254430 12694920
596.86 11914730 10527090 11582140 12092380 10600990 12280400
602.65 9947142 11928290 13040410 13125890 11767230 12332070
608.44 12561640 11870620 10892870 11462980 10346710 12709410
614.22 12355560 9451524 14086960 11649790 11798120 12858320
620.01 13594510 13058200 11277120 12104900 10793020 11868140
625.79 12030060 12244900 10686680 10764040 10760000 11769590
631.58 9758128 12379600 10939130 10520420 11019240 11177380
637.36 10821950 10846980 10819030 11183570 11005800 8946706
643.15 10778150 10501420 9633260 9519380 8461374 9555134
648.93 9064112 8313830 7940154 6396716 8364166 6344510
654.72 7970804 6154174 6528666 8849534 7428130 7042242
660.50 8157238 7258996 7399056 5103204 8437322 4724672
666.29 13588250 12817570 7181398 6979562 5670696 7777694
672.08 5421268 6237712 5224976 7134452 4820484 5520046
677.86 5801634 5718966 4824518 7008092 3441216 7172516
683.65 5322908 6852728 3055564 4829258 4129892 5889630
689.43 4661498 4398652 2821322 3727564 4590456 3515048
695.22 2945148 3936128 4103646 2470818 2883410 4167724
701.00 3492630 3325686 2571976 2895202 2055054 2712846
706.79 1360476 3016558 2189720 3342748 2096932 2407440
712.57 1085754 2637634 1950962 2212310 1388450 2070392
718.36 1529920 2459428 2657340 1174552 2968234 2585528
724.14 2649434 3369856 2609718 3173634 2154202 1785034
729.93 2537696 3735802 1277422 2483546 2690126 2822838
735.71 3312426 2300104 2108102 3076764 3747122 3322934
741.50 3102406 2994712 3555712 4278620 3100360 4448964
747.29 2958452 3602604 3273200 3586010 3950610 3929434
753.07 4542626 3767782 3883096 5317000 3794156 5824222
758.86 5042362 6582836 4625046 5552084 6854812 7546106
764.64 6752546 6909646 6991012 8135958 8892856 9270644
770.43 8883064 9233076 10760680 10473890 11688330 11389270
776.21 10695450 13305310 13340710 13113880 14016200 14880720
782.00 14695130 15971220 16305380 16481370 16230000 16549010
787.78 17007750 17082500 16548320 15753650 16683860 16956980
793.57 17307420 17607690 15714830 20713050 21439110 15271300
799.35 25216950 31997100 19600430 18989700 18760370 24422310
805.14 18691220 17897990 17840710 18153890 17095660 20537990
810.93 20061740 21424230 19299720 17898500 17642730 18516020
816.71 17455600 17748070 18142370 18671190 17531980 17469420
822.50 17687810 16597090 17096420 17473450 17567060 17393550
828.28 17302590 16540470 17508120 16891660 17497180 17238460
834.07 17728470 19193820 19029540 19882800 19767350 21259720
839.85 22282010 24031020 25024080 27125750 28450950 31760310
845.64 32221680 35913420 39678000 42798780 46667890 49928530
851.42 55955250 60395230 66166760 72675560 78517090 85798240
857.21 92942600 101245700 109394300 117131100 123982200 132704200
862.99 141055800 146914100 155011300 158805600 163694500 164787500
868.78 167943600 167827800 165193900 160568300 156611200 151976100
874.57 145251200 144976200 143844000 175776500 300937300 161374800
880.35 146965400 176132600 193731000 157160400 165080700 159334100
886.14 164918000 160081300 174721500 168524600 231796600 242558000
891.92 190545800 191664600 182060300 189477700 187067700 189166900
897.71 183906700 182999700 174797100 171592400 162309200 155486900
903.49 145225200 139463800 128365100 120024400 110025800 102234700
909.28 91955380 86751590 77527900 72148030 63793400 59881460
915.06 54068860 50330830 45076490 42912970 38105330 37407080
920.85 33572870 33331670 29673690 29839070 27600520 27542110
926.63 25577040 25705630 24624670 24209540 22177100 22625580
932.42 20897620 22093770 20027630 20798640 19568440 20134870
938.21 19059010 19325330 18561170 18739120 17871040 18795970
943.99 17287520 18504890 16844150 18280610 16839990 17800160
949.78 17087740 17901350 17453920 18363100 17225350 18187980
955.56 17662760 19352300 18446190 20331100 20803090 21028310
961.35 21100890 22002870 21947940 22716500 23532890 24461500
967.13 24156430 26598090 26513050 28758280 29611040 31365910
972.92 31121390 33480930 34656710 36344500 36853010 39306880
978.70 41039310 43601840 45135370 48032640 49805750 53854460
984.49 55274790 59777420 61980540 67423010 70948360 75802400
990.27 80762860 87127010 92532670 98327650 104790400 113672800
996.06 120076200 130068500 139637500 150780500 160016800 172968100
1001.85 185540300 204970200 220783200 231357100 242978000 257777800
1007.63 270982600 289007800 306902400 323655200 342169200 353062500
1013.42 371041400 383069400 395050200 398807600 410213100 417562900
1019.20 416510900 426694400 432014600 442474100 440023100 470510000
1024.99 523570400 685385100 820750700 551014800 497279400 533512200
1030.77 563625100 611527000 631270500 683320400 729949900 846505900
1036.56 950940000 876280800 883046300 930993500 960972400 986106600
1042.34 1015894000 1042063000 1058036000 1098095000 1103382000 1102744000
1048.13 1114920000 1147470000 1136989000 1158109000 1159522000 1142132000
1053.91 1133811000 1162682000 1198285000 1312210000 1156897000 1038088000
1059.70 1017383000 1009668000 1034822000 1100218000 1143952000 1328717000
1065.48 1442952000 1238206000 1072644000 1007386000 1056758000 1062863000
1071.27 1107511000 1116085000 1145473000 1135332000 1136406000 1126754000
1077.06 1107318000 1080418000 1045202000 997834300 962645300 907961600
1082.84 873877800 828567300 784697500 747617200 695404100 669092500
1088.63 676414000 602853200 492323300 476534600 456475600 450333000
1094.41 430881200 436691900 429510000 419084500 418916200 413013000
1100.20 407321900 396528500 391259000 378653600 367703600 349454300
1105.98 333877200 317808000 300494100 285472600 268565300 244864200
1111.77 231316500 217992800 210867600 190518200 173816500 170443100
1117.55 156714800 149143100 136305500 132595600 124109500 119799200
1123.34 114100200 110718700 105973200 101068300 97694010 93800770
1129.12 89284810 87482640 82158280 80622530 77550270 75962400
1134.91 70554380 68867890 66275010 63518720 60810680 60113270
1140.70 58523030 55496530 52669350 53665910 50503420 49231250
1146.48 47712800 47436180 45730960 46044920 46067120 48996620
1152.27 47544700 45004900 45242040 44506040 43602430 43693440
1158.05 43804240 42861540 43026990 43985580 42784720 43855490
1163.84 43659300 46186500 44521500 44810080 44315180 45287100
1169.62 43975980 45361930 46147020 47568140 46798790 48471000
1175.41 48511210 50907500 50719880 52389490 53933320 55441110
1181.19 56475520 58780420 59477210 61728690 62344660 64935680
1186.98 65663840 67629170 68335970 70520590 72299420 76126460
1192.76 77357700 80852120 81909390 85903420 86449920 89765620
1198.55 89944470 93059180 94653940 98787420 101490200 105424800
1204.34 110753000 114317400 120080500 125049700 128240500 139022900
1210.12 141012500 153390500 156433400 172714800 176202700 190509200
1215.91 201751000 212836600 223615000 235576900 246055700 259291700
1221.69 268133200 280488700 284991700 296169400 302577800 307945800
1227.48 311798000 316121400 315320100 319024600 301903600 303476400
1233.26 278942900 281823800 257667400 264007900 235718700 238590400
1239.05 226119300 440405200 376830300 261926300 274493800 259950600
1244.83 295199000 288424000 294495600 343100900 380182700 326521700
1250.62 325838200 316718000 319430400 310097000 305383500 301192000
1256.40 298480400 284437900 284417200 273954300 265465700 247259600
1262.19 241671700 229568200 220166100 207200800 197312700 181649800
1267.98 175129000 158707200 156259700 144720800 141618700 133037300
1273.76 126675700 122491100 119797000 113132900 111017600 105082300
1279.55 103471500 98410420 95107960 91694510 89440900 84510970
1285.33 84110580 81941620 80655400 78591040 77064300 75667990
1291.12 74709980 72181530 71734620 70763780 70827710 69082340
1296.90 68711340 65753930 65484820 65375140 65205920 64678810
1302.69 67380610 65978520 66731630 67366910 65677710 65173980
1308.47 65760470 65784160 66029980 65941920 65777820 65325000
1314.26 65488520 65907600 66355140 65848850 66090200 66314580
1320.04 67691100 69498620 70382680 70105730 71374260 69970940
1325.83 68615020 68122800 67836070 68645830 70016480 70565780
1331.61 71456480 72075730 71334670 72795010 74795280 77377580
1337.40 78744510 75644690 75255560 78218840 80123100 79709110
1343.19 81775110 83112490 84311220 87576700 88922260 91584500
1348.97 92415460 94422880 98704740 103278000 106851100 110967700
1354.76 114359800 120312900 125159300 131560900 135350700 143122800
1360.54 148244400 156523800 163811300 174121000 182904200 192370600
1366.33 201953700 212394000 223056800 238287900 251684100 264823800
1372.11 278023400 290156800 303868700 315687600 331404000 343445800
1377.90 355597100 363502900 371189000 376136100 376377800 375924600
1383.68 364874400 354625900 338525700 327627000 306146300 306752300
1389.47 316445600 355588600 391759700 572226100 655272900 423912200
1395.25 323483200 308288400 318696600 330019200 343672200 360688900
1401.04 381963400 398592400 414169500 428820700 427222800 424163400
1406.83 420416600 411874100 399661200 382258700 366289100 346006600
1412.61 324817800 300633300 281103800 262002900 241269500 225940900
1418.40 209511600 196462800 184954100 176310500 167146500 158403200
1424.18 154805600 147457400 143302700 140280200 132141300 126493200
1429.97 127074800 124477100 126431300 123973300 127265200 124640800
1435.75 125489700 127942000 123812100 124206500 122837300 124711300
1441.54 121142600 123777000 119332800 123392400 120682200 127202300
1447.32 129735700 160637100 174272800 140241200 141952800 157931700
1453.11 161995000 132118800 107766400 93214290 98424520 92043950
1458.89 95621620 92715200 96112790 87469160 91212780 85563360
1464.68 90828440 86906060 87981100 87168550 87748960 86204500
1470.47 86002760 88165260 85071500 88805940 85252710 87861100
1476.25 84286970 86246540 81790230 81592260 79131150 74608960
1482.04 74344720 68419810 67189900 62472800 61597010 59110630
1487.82 60029710 59589760 58582610 55738650 58239490 55290720
1493.61 50579890 47661030 47425330 44739730 45016290 43518460
1499.39 42377630 40835270 40034310 38191830 37938810 35826940
1505.18 34557130 32656170 31948950 29662730 28798380 26941600
1510.96 25612800 24459930 23469510 21780020 21015730 19339840
1516.75 19395630 17334920 16756270 15231480 14997780 13631210
1522.53 13782180 12510950 12249500 11482880 11019780 9781758
1528.32 9475408 8878096 8427056 7915292 8306842 7198302
1534.11 6848100 6398990 6269852 5288988 6117750 4959312
1539.89 5219022 4526480 4699772 4150008 4352422 3610636
1545.68 3760372 3428990 3821672 3055708 3506596 3125566
1551.46 3103324 2677646 2913666 2665128 2911244 2418246
1557.25 2402928 2414900 2455088 2286948 2461756 2004086
1563.03 2341038 2100252 2249960 1951982 1882150 1747192
1568.82 2147158 1768450 2208358 1479774 2182858 1647232
1574.60 2163486 1496998 1867576 1950016 2067310 1316564
1580.39 2187546 1414424 2046088 1427264 1692008 1506170
1586.17 1860340 1591038 2202904 1617386 1955840 1605466
1591.96 2087650 1751730 2309000 1416598 2088036 1846494
1597.74 1747548 1611590 1937108 1492138 2211486 1639110
1603.53 1724572 1667266 2090054 1791390 1483078 1828682
1609.32 2566854 1389220 1807244 1534886 1633276 1345918
1615.10 1822550 1298030 1959916 1147550 2148976 1510844
1620.89 1992254 1423390 1817242 1258836 1574322 1336636
1626.67 1771322 1557822 1680534 1483724 1774002 1475162
1632.46 1742748 1343648 1507724 1307060 1773716 1183096
1638.24 1590142 1756334 1943572 1587838 1707254 1604714
1644.03 2267052 1581714 1708420 1692024 2217928 1659586
1649.81 1771844 1764492 1737710 1557076 1984538 1229892
1655.60 1887220 1546708 1919974 1440002 2042388 1762228
1661.38 1881166 1797750 2290592 1433166 1963408 1901430
1667.17 2065008 1868828 2484130 1926418 2327714 2153620
1672.96 2429842 2419296 2347188 1811148 2196312 2117394
1678.74 2350138 2168404 2377124 2065662 2399878 1983386
1684.53 2488162 2078356 2376164 1746786 2311260 1995560
1690.31 2271670 2034244 2116080 1661306 2140024 1807794
1696.10 2206726 1820212 1875524 1777442 1867032 1969380
1701.88 2295660 1736558 1865738 1703184 1601734 1578536
1707.67 1837354 1404510 1560278 1526200 1530798 1733272
1713.45 1811134 1759924 2244868 1697892 1766520 1392580
1719.24 1490334 1780222 1907454 1591194 1560650 1380044
1725.02 1597338 1285350 1566472 1343084 1620790 1394704
1730.81 1647868 1420022 1504344 1210604 1951974 1532564
1736.60 1927912 1579470 2203596 1970638 2028860 1981154
1742.38 2307460 1805594 2394872 1912690 2136224 1883252
1748.17 2242942 2149834 2050802 2107778 2557316 1915422
1753.95 2041860 2837266 2741982 1535208 2043930 2388972
1759.74 2534006 2262268 2821316 2709472 2627686 2608468
1765.52 2650436 2532740 3068268 2723288 3019482 2632798
1771.31 2944230 2458668 2808768 2251988 2473096 2267180
1777.09 2481344 2431416 2735460 2500718 1549588 1403392
1782.88 1670348 1612300 1576956 1353596 1758686 1422888
1788.66 1607992 939152 1252218 874952 1096964 877952
1794.45 1100100 631288 875982 642934 532492 60988
1800.24 377424 19060 227006-305602 263236-4874
1806.02-150712-171544-246576-635280-467174-428300
1811.81-648694-823322-395916-591436-473310-1098238
1817.59-527358-615448-583482-782906-1102584-729254
1823.38-635088-790612-705526-679386-706002-935244
1829.16-799264-769818-632786-1042812-503742-796368
1834.95-704210-1060686-757344-966466-723624-1117398
1840.73-776380-879128-530446-916038-419950-973684
1846.52-673030-858956-741472-896310-327326-1107222
1852.30-685886-662286-494522-784928-648078-569112
1858.09-291226-549754-204124-526740-328400-336110
1863.88-363406-130776-62128 170070 149980 63096
1869.66 246548 47680 513962 390080 803112 614164
1875.45 824144 748812 870282 1062416 1164976 1185840
1881.23 1378274 1602342 2126244 2260924 2622454 2510964
1887.02 3196510 3202992 3810466 3992368 4479560 4314750
1892.80 5128128 5323924 6028516 6199828 6593808 7090490
1898.59 7316530 7755914 8100414 8513756 9246210 8745208
1904.37 9589916 9453102 10127400 10273110 10898840 10706020
1910.16 11147040 11791620 12699280 13457510 15290630 14709420
1915.94 13136250 12700380 13618410 14158600 14910700 14820810
1921.73 15523600 15956630 15947830 16237440 17265850 16436600
1927.51 16182020 16078210 16703060 17379230 17941230 19408300
1933.30 21972050 16145220 15395560 15182630 14311770 14317320
1939.09 14302400 14115970 14494140 14666870 15187970 15186560
1944.87 14903570 13370620 12786720 11807260 11593100 10639170
1950.66 10507170 9811690 9186646 8536600 8364554 7627462
1956.44 7397718 6914612 6641382 6052214 6085072 5340050
1962.23 5545246 5234152 4970338 4653056 4926398 4329498
1968.01 4101756 3678656 3733102 3300796 3230462 2781284
1973.80 3025540 3245022 3047644 3059880 3021038 2162098
1979.58 2066344 2021180 2244764 1866180 2358368 2122364
1985.37 2147854 2361522 2179478 2130128 2143488 1514644
1991.15 1736812 1411252 971406 1035054 983882 498386
1996.94 597126 152510 296248 120204 11554-669114
2002.73-402728-438024-487268-1114382-730464-1347264
2008.51-817406-949168-1282354-1367114-808622-1002208
2014.30-1148138-1611024-1398314-1665434-1473736-1752200
2020.08-1308526-1451536-1441996-1568934-1308026-1512278
2025.87-1397684-1664654-1430396-1551614-1563322-1614586
2031.65-1358674-1540268-1188954-1678070-1364438-1517768
2037.44-1392792-1266542-1219896-1418450-1190740-1342020
2043.22-1321004-1689442-1003472-1662674-1305564-1140040
2049.01-807642-1140098-1215968-1730532-1521640-1838156
2054.79-1620042-897862-376054-833296-607680-990032
2060.58-658494-1101798-443274-679818-786610-572724
2066.37-465018-561920 97430-942754-296166-864828
2072.15 328492-359754-699686-394812 511674 722652
2077.94 69154 184268 131950 922780 1240600 726464
2083.72 940142 1334776 2505136 644272 1908782 1430340
2089.51 4025780 2190942 2840674 2240294 4175440 4293688
2095.29 3117056 3570588 3901164 6107966 3714016 4851378
2101.08 3901312 7342012 5545156 4869394 5596012 6378390
2106.86 7992828 5172714 6724728 6266208 9669746 5475276
2112.65 7023746 5249712 8844366 4841662 6208250 4712396
2118.43 8603306 6393280 6350062 5914236 8735910 8117012
2124.22 6643938 6291016 7520386 7822432 5966818 6172654
2130.01 6505022 6854726 4957488 5226934 4983968 5623128
2135.79 4187872 4240318 3470874 4216582 3130828 3185166
2141.58 2653032 2341070 2504736 2047576 2511720 2423026
2147.36 1895036 1161778 2156386 2171746 1243402 751902
2153.15 2339448 2279754 833478 895254 2675646 2299298
2158.93 557424 1322060 3117068 2142342 373342 1893738
2164.72 3608764 1481984 415996 2785622 3763070 1141380
2170.50 1163056 3796408 3277982 854672 2550658 4350370
2176.29 2289382 268914 3282326 3523818 1616550 1785378
2182.07 4203094 2984962 1089998 2976484 4043348 1337874
2187.86 1410610 3427240 2454318 646330 2153966 2275966
2193.64 1207730 1307438 2301276 936058 300538 1364640
2199.43 1063466-56314 1016194 792084 416070-119430
2205.22 591608 185052-56866 181786 285984 65610
2211.00 103244 193908 208586-161772 234184 124968
2216.79-7690 279986-39578 100334 640790 394910
2222.57 610518 879600 592172 1383204 1131916 761364
2228.36 1049672 1224146 1723118 1492962 2088652 2062602
2234.14 2034866 2446744 2475732 2926708 3514030 3058232
2239.93 3383992 3355428 3743100 3777580 4120520 4200114
2245.71 4514226 4609814 4990812 5063584 5694990 5425228
2251.50 5350026 5521706 5726334 5804016 6010126 5562726
2257.28 5432218 5561876 6233856 6593170 6603148 6217596
2263.07 6362680 6104242 6484290 6378966 6370248 5955458
2268.86 6520978 6928874 7987148 6796532 6641550 7146236
2274.64 6798952 6386144 6454092 5927252 6646070 5810132
2280.43 6561352 6209368 6023490 6031246 5927782 5171364
2286.21 5599058 5047742 5004474 4853590 4575362 4230414
2292.00 4370514 3571418 3683752 3691194 3675984 3091020
2297.78 3355946 3356814 3311542 3168600 4115456 2787834
2303.57 3553612 3106808 3712886 3559210 3328984 4184718
2309.35 3737880 4793162 3168018 5656306 2999796 5871930
2315.14 3382812 6804350 3360666 7007832 3816484 7551286
2320.92 4274150 7219316 4747376 7354804 5729918 8283338
2326.71 7752078 10587960 6567632 7847022 6669390 8184132
2332.50 7531314 9011352 7812006 9418894 8336636 9495142
2338.28 9031592 9193042 8617458 8503652 8261856 7903248
2344.07 7131460 6352462 5290292 4866262 3858522 4048386
2349.85 4680446 5518406 6031648 6965972 7639832 8247198
2355.64 8919090 9067356 9321594 9797984 10191900 9969734
2361.42 10106650 9988990 9732430 9747584 9405834 8899862
2367.21 8812850 8275290 7935350 7035848 6956896 6153842
2372.99 6203584 5830106 5840572 5332022 5317768 4956688
2378.78 5080204 5011468 4643740 4806770 5008176 5141858
2384.56 5132402 5448084 5248904 5348106 5315278 5398310
2390.35 5327526 5419472 5744646 5806390 5867926 5973108
2396.14 6246528 6288144 6298520 5871834 6043930 6148464
2401.92 6645994 6538978 6512064 6878476 7170600 6829602
2407.71 7095666 7119642 7388480 7503856 7525770 7208208
2413.49 7425164 7166512 7164386 6678700 6792160 6853942
2419.28 6645430 6766028 6286806 6186832 6371244 5699464
2425.06 5860998 5289322 5161618 5104624 5807678 5299744
2430.85 5108200 5397904 5043200 5204084 5265718 5142806
2436.63 5455198 4646014 4755426 4803970 4647258 4179226
2442.42 4335320 4216248 3926928 4192646 4076682 3639962
2448.20 3775198 3780196 4175052 3825644 4111850 4101388
2453.99 3933624 4021812 4415858 3867242 4048958 4031148
2459.77 4289586 4067102 4008864 4072754 3887078 3601478
2465.56 4582924 3902502 4243658 3658866 4210546 4240526
2471.35 4398002 4370818 4451716 4178864 4278596 4306970
2477.13 4615942 4548344 4734728 3951190 3577674 4041742
2482.92 4913420 4948014 4413648 4538418 5018190 4353728
2488.70 4763380 3768316 4018898 4032546 4279370 4168386
2494.49 4096626 3631070 3583038 3475170 3638454 2914560
2500.27 3499186 2964842 3232970 3014362 3071008 3116370
2506.06 3526470 2583678 3053312 2629116 2842408 2424580
2511.84 3484516 2565210 2448416 2736702 3276452 2455678
2517.63 2774240 2594928 2835160 1967544 2336338 2408210
2523.41 2677760 2512242 2525498 2201136 2523490 2145822
2529.20 2306264 2379980 2464868 2318418 2766168 2234946
2534.99 2321922 2116936 2341340 2166870 2455456 2316906
2540.77 2576866 2572760 2626714 2198764 2847824 2651756
2546.56 2859552 2830914 3564470 2812708 3345612 2729286
2552.34 3016628 2854196 3350782 2796976 3420136 2762238
2558.13 3411248 2915678 3800468 2873276 3599676 3470658
2563.91 4011024 3391858 3554052 3676978 3601316 3985064
2569.70 3993618 3816160 3871564 4119632 4217896 4051712
2575.48 4932258 4628378 4841214 4448990 4997088 4644414
2581.27 5155492 4726336 5527252 5114574 5685552 5704302
2587.05 5695798 5313952 5877912 5466800 6368046 5484156
2592.84 6390186 6314710 7017942 6702094 6776664 6341822
2598.63 6761614 6775274 7264198 6999900 7170350 6984054
2604.41 7207398 7443970 7346552 7373542 7490826 7435120
2610.20 8456594 7650258 8337570 8007080 8688722 7958780
2615.98 8853042 8252330 9275620 9151868 10392100 10309280
2621.77 10606680 9626056 9749876 9417454 10084030 9511818
2627.55 10437240 10218740 10822220 10935460 11470140 11262970
2633.34 11362840 11326830 11592860 11270500 11761850 11354560
2639.12 12329960 11907500 12420600 12387060 12750060 12442300
2644.91 13244450 12787090 13490300 13223520 13582890 13363020
2650.69 13987850 13784800 14476250 14222680 14683630 14041480
2656.48 14356910 14442960 15133570 14478050 15154890 15049890
2662.27 15397810 15240110 15571660 15307560 15917950 15774180
2668.05 15642910 15714910 15923970 15829580 16166950 15759770
2673.84 16351510 16097190 16522070 15889240 16685930 16161760
2679.62 16817610 17231600 17337540 16957690 17783270 17495560
2685.41 17831950 17301310 17954580 17770790 18284010 18366200
2691.19 18845920 18467460 19309550 18428820 19130280 19313470
2696.98 19848460 19636990 20659440 20318670 21235740 20898690
2702.76 21688180 21331580 22807910 22523180 23648240 23980980
2708.55 25195890 24026500 24738450 25090860 26000140 26213160
2714.33 26818490 26986650 28137840 27684740 29015450 28439570
2720.12 29651210 29856430 30452320 30277700 30760040 30046030
2725.91 31278810 31400700 32887760 33091440 34057860 34195340
2731.69 34971960 34857040 36273080 36623000 37678900 38020220
2737.48 39464700 38646080 40887130 40687170 42579800 42271790
2743.26 43609810 42971540 44453760 44323340 44637370 44439620
2749.05 45647200 44686820 45916450 45197440 45968160 45970760
2754.83 46683100 46703880 47637520 47611070 49359490 48842340
2760.62 49481080 49050150 49788680 49420980 50470150 50046090
2766.40 51092530 50931920 52028850 51803140 53259910 53279080
2772.19 53939260 54157800 56013030 54940890 56446020 56603220
2777.97 58413750 58358400 59493390 59255760 60561860 60218630
2783.76 60457110 59578840 60515420 59914900 62543860 64299120
2789.54 66371090 66483820 67968180 68154100 70579810 70338540
2795.33 72359020 72045990 73525770 73099960 75177490 75013240
2801.12 76725770 75911940 77310610 77715050 78609020 78939700
2806.90 80187190 79673270 81185980 81627140 82958440 83006220
2812.69 85859420 86313100 89652140 89659630 92490360 93761260
2818.47 97583260 98601460 100573200 102295000 105522300 107017900
2824.26 109076900 109564900 111812200 112742200 116022700 118661000
2830.04 122959100 126329200 130869500 133194400 137699300 141099900
2835.83 147086500 151284600 157479800 161454600 168330000 170899100
2841.61 176875800 182067700 190532000 195713800 202684800 209588300
2847.40 219206500 226358500 236068400 243525800 255025900 263345400
2853.18 275577100 284044500 297926100 307089100 320994800 330461600
2858.97 346029900 359074900 376351900 390731900 407679900 422669600
2864.76 440497300 453152200 466375000 473919000 482454300 488079500
2870.54 497729400 502153900 510426100 512286100 520600700 532651600
2876.33 547689200 562812900 574152800 588002800 610864900 636495000
2882.11 645337300 655572700 664368100 661619700 657051100 651513600
2887.90 654098000 660871600 674612200 686552400 695409400 694026300
2893.68 697965400 685326800 692073900 697204100 721386700 757569400
2899.47 927744000 874957600 765380500 747033000 734011500 745104900
2905.25 732031200 724695400 718022300 717792000 718063000 737848100
2911.04 729670100 698540300 680129800 669091100 665034400 661428000
2916.82 661886800 661510500 662538900 665036500 665860200 660901600
2922.61 653826600 644464200 643335600 636027900 635407000 630354200
2928.40 624625000 618149800 613925200 609516600 608431000 606840900
2934.18 614990000 616087800 613211600 607733200 611116300 612734100
2939.97 621117200 626561400 634312200 636494000 642873600 638213800
2945.75 633342700 633356200 643178700 653852000 672817000 686873500
2951.54 697309000 703213800 718276800 726558300 743942700 754224900
2957.32 771737000 775062400 784604500 788272900 801629400 812692400
2963.11 827780300 849560200 867489300 892036400 920526200 920859100
2968.89 930785000 942134000 970864300 952811500 934572400 925341900
2974.68 930726100 925404500 918480900 912640600 917166100 910615900
2980.46 937163900 885953500 888593900 925232100 967652100 949672300
2986.25 1004852000 899145400 1139278000 1021668000 771809600 809314200
2992.04 768206100 796264800 768439100 779820300 750823800 742103700
2997.82 716744000 702275700 669709200 658289500 628688400 615552600
3003.61 584645200 571460700 539499700 525243100 495404600 481638100
3009.39 451520900 436793500 408045200 394661600 371597200 357611900
3015.18 334524300 321862800 300077500 287663600 266908800 256258600
3020.96 236168100 227119600 208378200 199309600 181728100 174152100
3026.75 158057700 150693000 134382700 128632700 115792600 109689500
3032.53 97570290 92994110 81848730 77979740 67677730 64403540
3038.32 56003530 53325870 45844090 44781640 36876320 36318090
3044.10 30423810 29683750 24454870 23886180 19541500 19738550
3049.89 16292400 16777790 12163550 13668940 10389710 11511740
3055.67 7852984 9182402 6420004 8058170 5382628 7818072
3061.46 3932634 6771098 3908256 5321568 3282452 4600184
3067.25 3017428 4711216 2818484 4210822 2550482 3816434
3073.03 2569606 4204178 2536544 4124620 2097798 3983490
3078.82 1770862 3610050 2109646 3164422 2595292 3275642
3084.60 1915804 3619802 2153420 4346594 1610008 3912490
3090.39 1815066 4033010 2972378 3552090 1915942 3409456
3096.17 1884322 4085890 2351430 3558006 2202586 3820326
3101.96 2177576 3083412 2357984 3739458 2531780 2968282
3107.74 2265776 2987762 2468022 3385394 2391394 3414652
3113.53 2252252 2866734 1818868 3257196 2410410 2867954
3119.31 2352126 3306462 2207118 2671520 1907060 3270082
3125.10 2493600 3051048 2260250 3018850 2086818 3552884
3130.89 1790212 2804782 2754070 3044418 2137304 2750924
3136.67 2259110 3401492 1925716 3598738 2413664 3001722
3142.46 1947346 3021344 2078692 4131006 2450208 3606618
3148.24 2523994 3452514 1981078 3535532 2586442 3355616
3154.03 2824582 3486100 3613900 3665518 2671382 4314790
3159.81 2413096 3952000 2948730 4414576 3294760 5157832
3165.60 3322014 4088436 4032100 3944786 3750238 4274292
3171.38 3705946 4962264 3585280 4013788 3654662 4455904
3177.17 4398754 4787220 4558586 5377842 4573592 4821264
3182.95 5583524 6346114 5151616 5888382 5248256 5917950
3188.74 5670662 6192274 5872550 6582760 6158662 7386888
3194.53 6241890 6766512 6913066 7311922 7285706 7477958
3200.31 6843466 8223816 7930590 7838250 8548476 8969920
3206.10 8425596 8883676 8405854 8658966 8446424 9415528
3211.88 7973938 9390696 8196868 10012190 8779880 9205560
3217.67 9378624 9546132 8925188 9797556 9172608 9914366
3223.45 9512134 10224620 8723542 9538118 9031496 9260568
3229.24 8376344 8552614 7819068 9021654 7275224 8341440
3235.02 7054866 7615204 6421806 7784054 7406516 5733186
3240.81 6512900 6691952 5034472 5859878 4366530 5039302
3246.59 4613782 4701952 4427630 4379908 3319634 3293490
3252.38 3981926 3466366 2941466 3165644 2359938 2121334
3258.17 2843562 1965856 1533774 1646568 1042698 1045456
3263.95 248336 1293308-83846 747498 993222 533980
3269.74 231622 132156-689266-796114-370086-279662
3275.52-871586-317968-651320-897866-843958-127110
3281.31-1164092-1769164-1426776-945152-956912-1313218
3287.09-1571676-1218968-1092202-986140-1579162-1061938
3292.88-2036376-1221744-1559426-823998-943754-951150
3298.66-1688904-1556926-1767078-754952-1214338-871014
3304.45-1327146-1069908-1094168-838092-1472558-1432614
3310.23-1266310-1407784-1775108-1161846-1509612-2065560
3316.02-1276470-554740-1774700-1343522-2071590-1502164
3321.80-1667352-1069194-859058-1471914-1316588-947650
3327.59-1829188-722690-1250210-1552856-966230-964704
3333.38-1702872-1445494-866218-866662-1070914-562826
3339.16-1302574-898302-2498994 109344-1103424-458886
3344.95-738224-1369666-210740-648132-547382-662100
3350.73-941394-348508-915218-679320-341028-897580
3356.52-313114-2272-93366 27110-287586 536900
3362.30-872966 2644 497886 1043202 317510 907380
3368.09 667892 738734 804738 1727682 550596 2270472
3373.87 1774238 1390766 1368182 2099568 2430094 2970534
3379.66 2841950 2787908 3029168 3375760 3366860 3600464
3385.44 3683982 3756266 3091264 4002658 3703072 3869540
3391.23 3486660 4183402 3971498 3689276 4031290 4486228
3397.02 4298452 4249206 4312842 5157414 4193366 5480694
3402.80 5494856 5312312 5144352 5858792 4222250 4472216
3408.59 5669224 6453730 4658610 6575736 5454346 6203690
3414.37 6014158 6458678 5235586 5629034 4618146 5032232
3420.16 4406486 5534898 4174648 4533058 4563990 4773202
3425.94 3953346 3892174 4377596 4157000 3588720 4165266
3431.73 3497158 4780180 3865458 4192792 3771810 3914354
3437.51 4688676 4165100 4614436 3936160 3964174 5055404
3443.30 3553664 4846624 5009332 5133706 4581890 4579158
3449.08 4660966 4888282 6075728 5108502 5389238 5842120
3454.87 5394210 5791196 5462086 4877476 5031334 5873102
3460.66 5976608 7520472 5891582 6209454 6615012 6996980
3466.44 6664578 6744418 6086616 6477454 6880604 7594588
3472.23 7960684 11172220 8758432 6871482 8095428 7727142
3478.01 6230532 7266302 6535094 7450662 6766448 6688962
3483.80 6696882 6618700 6782674 7288872 5978736 6502514
3489.58 5762990 6519672 5830274 5661048 6161724 6666592
3495.37 4866778 5524212 5316122 5589852 4275938 5108360
3501.15 5285884 6310610 5317620 5141368 4257276 4501998
3506.94 4762046 5045432 4576880 3976188 4337012 3776498
3512.72 4710426 4599458 3675150 4036964 3524616 3499102
3518.51 3897198 3814640 2836516 3141862 2867370 3438718
3524.30 2874532 3850134 2584164 3581490 3115920 3239508
3530.08 4169896 4089406 4313710 3728960 3781882 3527814
3535.87 4139214 3598680 3306974 3779986 3911746 3240100
3541.65 2825208 3791470 3884756 3861584 3850776 4191338
3547.44 2804458 3565646 3642542 3680150 3263440 3654036
3553.22 3552376 4046394 3750702 3586856 3443560 4814040
3559.01 3576200 3906874 4043478 4748834 4442334 4059030
3564.79 4649164 4411602 4695836 4482988 4341592 4252702
3570.58 3759152 2298394 3075712 3876526 3353316 2974120
3576.36 3598670 3111564 3265404 4280682 3284218 3127856
3582.15 3034380 3867354 4399398 4518052 4249684 4156002
3587.94 4168388 5282098 5426338 6407510 6572462 7250044
3593.72 7571398 7828138 7368812 7868236 8274694 8896542
3599.51 10051990 10027960 10518910 10777760 11622290 12092730
3605.29 12856400 12400750 14282030 14629150 15805330 16576050
3611.08 18094250 19300240 20707310 22407500 24151090 24957040
3616.86 26618240 28194850 29563630 30843430 33076980 34343930
3622.65 37249250 40144120 41746140 42804090 45616190 47257940
3628.43 50284330 51884810 55944080 58994100 62679980 66762580
3634.22 71805830 74888570 79218460 83176870 89540970 94687410
3640.00 100985200 105960300 112407300 117811200 125332000 131849300
3645.79 137684000 143237300 150590400 156288400 160640900 165201100
3651.57 170712900 175985100 179408500 204963400 211357400 198397200
3657.36 243927700 228633100 210823800 235503100 256911500 226078100
3663.15 228031600 226231700 232542100 228807500 234238800 226406700
3668.93 231328900 225896100 232721900 219226400 235052800 242959300
3674.72 350708600 356045900 193249600 187940800 174590100 184609900
3680.50 184543000 195888900 223439600 223857500 195458400 200311700
3686.29 193681100 198102100 191057200 193137100 185031600 183776600
3692.07 173556800 168240800 156101200 149617600 137346000 129005800
3697.86 117456100 110305100 98809540 91477060 80298500 74292140
3703.64 65275900 60808750 54391850 50603460 44590060 42036880
3709.43 37696360 36126750 30801110 28284630 24725540 24149100
3715.21 21345350 20903530 19876330 20036310 17856660 17371470
3721.00 14354310 14572760 12322000 12651260 11093390 11385390
3726.79 9736548 10289570 9930138 9557074 7857402 9478706
3732.57 7672152 8144722 7504272 8356928 6909264 7156906
3738.36 5507060 6829234 5719026 7095584 4932558 6350372
3744.14 5145420 6560406 5952880 6460456 5430418 6558908
3749.93 6281662 7510552 5916108 7199564 6085018 6826626
3755.71 5178728 6306170 5871702 6172894 5722162 7263090
3761.50 4965284 5884036 5468666 6199902 5629614 5283478
3767.28 5060644 4703464 4696382 5067990 4792132 6221420
3773.07 5086574 6151694 5299346 6214846 6265912 6816550
3778.85 6434058 6847002 6817152 7547086 8308566 8383708
3784.64 7180420 8841430 7816638 9390982 8191954 9028214
3790.43 7475440 8024096 7807424 8196090 7239046 7771976
3796.21 6408040 7390516 6228516 6704726 6768102 6606776
3802.00 6685430 7393538 6316018 7017172 6492798 7573636
3807.78 6662262 7416248 6835904 7745758 7206612 7615226
3813.57 7173614 7818666 6903024 6287396 7229068 7217526
3819.35 7272042 7912344 7463748 7839322 7000680 7923976
3825.14 7820908 8806480 8577960 9856900 7794724 9709404
3830.92 8928856 12126680 11751860 9872066 10295730 10361870
3836.71 10005000 9361498 9486062 10401130 10081460 9680832
3842.49 10042200 10944320 10648700 10597290 10879550 10940740
3848.28 11390850 10098970 10008610 10436190 10360830 10599310
3854.07 10731080 9862550 10355320 10592460 10067230 9672980
3859.85 9892892 10084930 10027920 10418080 10287620 9895538
3865.64 9466148 11186560 10546360 9757674 8043094 8391276
3871.42 8662128 9509822 8810788 9494236 9149530 9159134
3877.21 8876550 8768344 8787770 8140062 9040220 8828144
3882.99 8731552 9442910 9122180 11420890 9658294 8629926
3888.78 6863110 7546528 7312524 8076418 7256056 7225004
3894.56 6994522 7344216 7097730 6981250 7047094 6527948
3900.35 6870068 6714324 6097134 6523414 6306134 6482688
3906.13 5663886 6557416 6092260 6358386 5798650 5308834
3911.92 5837278 6015584 5826906 5904730 4566462 5867500
3917.70 4821062 5350462 4347790 4783648 4792948 5102718
3923.49 4960946 5163398 4424232 4397386 4448420 4903784
3929.28 3192610 3879032 3516132 3887368 4063624 4303034
3935.06 3953786 3911028 3051044 3773032 3420686 4519338
3940.85 3818850 4018134 4138586 3922706 3499590 4126744
3946.63 3635768 5601402 4043958 3928886 3735586 4517620
3952.42 3719950 4443538 4319486 4342606 4379284 5061564
3958.20 4367686 4327308 5013056 5502956 4960600 4978914
3963.99 4801230 5868104 4534400 4881792 5331880 5771402
3969.77 5415688 5158548 4855074 6380604 5183556
##END=
