##TITLE=Ethanol
##JCAMP-DX=4.24
##DATA TYPE=INFRARED SPECTRUM
##CLASS=IUPAC A
##ORIGIN=NIST, Anayltical Chemistry Division, 301-975-3108
##OWNER=COPYRIGHT (C) 1998 by the U.S. Secretary of Commerce
##DATE=98/10/1
##$SPECTRA VERSION=1.00
##$UNCERTAINTY IN Y=2.0 % relative (B=1.0E-04,C=2.9E-10,D=2.7E-14)
##CAS NAME=Ethanol
##CAS REGISTRY NO=64-17-5
##MOLFORM=C2 H5 O H
##MP=-117.3 C
##BP=78.5 C
##$NIST SOURCE=QUANT-IR
##SPECTROMETER/DATA SYSTEM=IFS66V (Bruker)
##INSTRUMENT PARAMETERS=KBr Beam splitter; MCT Detector; Multipass cell
##STATE=gas
##SAMPLE DESCRIPTION=Ethanol Primary Gas Standard
##PRESSURE=101.3 kPa
##TEMPERATURE=23 C
##SAMPLING PROCEDURE=1 L/min Flow
##RESOLUTION=0.9640
##DATA PROCESSING=Happ Genzel Apodization
##XUNITS=cm-1
##YUNITS=(micromol/mol)-1m-1 (base 10)
##XFACTOR=1.0
##YFACTOR=2.2737E-13
##DELTAX=0.4820
##FIRSTX=575.169
##LASTX=3975.077
##FIRSTY=2.19E-06
##MAXX=3974.59
##MINX=575.17
##MAXY=.0003265
##MINY=-4.81E-07
##NPOINTS=7053
##XYDATA=(X++(Y..Y))
575.17 9657546 10707840 11305650 12282490 13837570 12581860
577.58 8108028 6397902 6724770 7601906 9430078 8109612
580.47 6445652 10080850 11554330 9634796 10521830 14399480
583.37 13059720 11087000 10930320 11999980 10957700 9613794
586.26 7917648 6296284 6688586 9656802 13087430 11103230
589.15 8469900 9424846 10913820 11127150 10414830 9524942
592.04 10103890 10921640 10650170 10002670 11247180 10521980
594.94 10174230 11660380 12648400 11650300 12582690 12610500
597.83 10392760 10775110 11284400 11294340 11865630 12352220
600.72 11129480 10519950 11635900 12267630 10978610 10056600
603.61 10853100 11967360 12596230 12684980 13486750 13164060
606.51 11940700 12160980 12203320 11909830 12483670 13020230
609.40 11838370 11810590 11594200 10926260 10998110 11344140
612.29 11338280 10163020 11135030 13080240 12781410 12047660
615.18 10445620 10400280 11449160 13196910 13989280 11716200
618.08 10740630 12223990 12837250 12389680 12998120 14050680
620.97 13253900 12922120 12232060 11201380 11743730 12292480
623.86 11147480 10766550 11670530 11715530 11766870 12050270
626.76 12499140 12075240 11126220 11001490 10908560 10464230
629.65 10654400 10934090 11518060 11487010 10479540 10267890
632.54 11159520 11661510 12087290 11336960 10204000 10405630
635.43 11186740 11019640 10682440 11445970 11137560 10558510
638.33 10956960 10823160 10809520 10992570 10678980 11361570
641.22 11284270 10734530 9919348 9297492 9681390 10440170
644.11 11101460 10571710 9600214 9812294 9897888 9160802
647.00 9035682 8540062 9036644 9476868 9277144 9203542
649.90 8618406 8270240 8134762 8128312 6862572 6490904
652.79 7680410 7896228 7489948 6712588 6818248 7745522
655.68 7511824 6219542 5882644 6565808 8132436 8570350
658.58 8066048 7506622 7394502 6824576 7581788 8411438
661.47 7451174 7246972 7693492 7182628 5779586 5705530
664.36 7216298 7144876 6694668 6742714 7219908 12547490
667.25 16162880 11851260 8445206 8248900 7888684 6189028
670.15 5641624 6374322 7338492 6990690 6247784 6133234
673.04 5970814 5743308 5600314 5539896 6377564 6931230
675.93 5707708 4910120 5686956 5290322 5027136 6148036
678.82 6534772 5143056 4505060 5589932 6660132 5880568
681.72 4905532 4626064 5105754 6377420 6476292 5868460
684.61 6095556 6159392 5102104 3675380 3710262 4328654
687.50 4613984 4654206 4926190 5199610 5615308 5216336
690.40 4125440 4001986 3969586 3164746 2882954 3448988
693.29 4584752 4689658 3780018 3501476 3328538 2990770
696.18 3438772 3754650 4125018 4203594 3246298 2511578
699.07 2329872 3237708 3661108 3767832 3851996 3855126
701.97 3281714 3129374 2975136 2759546 2743414 2744916
704.86 2328036 2373844 2395894 2496662 1934970 1633512
707.75 2297674 2661750 2551342 2570480 2760114 3003792
710.64 2703742 2454390 2330872 1891138 1805588 1628276
713.54 1616522 2218936 2571928 2302220 1783366 1986366
716.43 1954876 1752814 1417568 1822416 2084086 1785374
719.32 1616700 2310402 2962876 2670450 1595336 1258074
722.22 2269832 2769520 2800982 2776740 2371304 2616438
725.11 3385834 3096272 2804492 2950372 2883592 2995746
728.00 2568876 2442290 1917080 1723986 1890556 2793244
730.89 3540894 3056644 2514984 1969586 1496378 2062966
733.79 3022040 2886696 2421566 2721190 3315080 3359624
736.68 2661104 2309114 2141330 2321622 2451700 3009568
739.57 3474792 3785132 3594914 3220248 3123616 3249448
742.46 3147056 2836010 3072000 3879488 4032984 3900130
745.36 3708386 3415326 3722696 4182396 3705418 3337296
748.25 3161382 3228824 3636370 3632296 3092186 3382724
751.14 4125204 3976788 3671198 4046320 4315812 4395002
754.04 4292676 3855786 3443030 4086564 4926974 4909444
756.93 4437858 4227038 4746856 5465932 5598684 5222648
759.82 5796930 6321536 5653460 4950780 4894274 5356002
762.71 6282292 7105592 7096996 7341292 7246032 6943136
765.61 6736486 6799626 6831370 7355508 7511428 7751716
768.50 8713782 9124842 8997846 8948738 9261296 9169486
771.39 8810678 9012148 10209100 11048070 10171800 10561520
774.28 11315890 11402280 11758280 11416880 10680600 11032190
777.18 12085900 12911780 13493640 13570980 13016970 13126860
780.07 13492120 14102850 14604040 14703100 14600850 14997630
782.96 15426000 15710550 15950510 16683590 16641750 15865830
785.86 16277250 16938320 16272240 15869770 16949530 17825540
788.75 16558240 16409310 17521090 16970630 15400560 15550500
791.64 16899450 16755120 16125350 17181300 17550020 17034500
794.53 17346130 17691230 16564870 16344050 17273420 20597540
797.43 22643130 20164170 17852840 17014360 19011090 24446120
800.32 30450980 31334150 25170190 20372970 19125960 18837230
803.21 18560630 19185510 21773120 23824870 21819660 19134990
806.10 17826230 17804000 18056270 17941670 17941880 17960070
809.00 17676770 17395060 18490980 20570310 20361640 20102790
811.89 20895030 21007380 20619140 19400760 18635940 17589390
814.78 17643550 18363480 17669230 18047140 18581450 17585030
817.68 17184290 17657760 18207950 18366640 18100760 18335970
820.57 18651370 17794770 16644990 17677870 18225550 17284820
823.46 16724620 17178890 16737420 16931550 17336010 17424320
826.35 17719850 17474190 17333460 17474550 17485760 17314110
829.25 16562670 16798340 17254300 17126670 17139870 17335420
832.14 17006960 17185170 17642370 17496630 16987430 17830500
835.03 18747570 19003690 19085940 18972440 19668820 19858530
837.92 19537650 19945880 20743890 20948820 21670780 22646640
840.82 23053530 23803670 24676530 25103650 26030930 27033180
843.71 27753950 28664330 30045000 31498800 32216290 32457520
846.60 33560060 36043580 38156880 39310350 41244500 43029020
849.50 44591170 46626130 48327790 50054360 52780540 55841940
852.39 58483810 60386460 62853340 66448040 69675300 72326150
855.28 75427210 79003370 82044460 85443920 89502740 93378300
858.17 96601060 101200500 105709700 109254000 113024100 117393200
861.07 120579300 123800000 128328200 132927700 136837700 140646700
863.96 144523100 146979000 150324600 155166100 157790900 158064200
866.85 160750100 164561300 164635300 163623300 166417300 169018700
869.74 167747500 166523400 167306900 166176600 161788600 160160800
872.64 159419800 156840700 153872100 151457700 148877500 146428000
875.53 144292200 143599900 144914100 148005000 153680600 174566100
878.42 245362800 297526700 231500000 164107800 149067100 151168500
881.31 158648400 174063000 192250000 189113900 172814100 162463200
884.21 160276500 162004700 162402600 162296000 162275600 161574200
887.10 161928200 164852200 167075800 168946700 172194000 178600000
889.99 191636000 223675200 254847900 237268900 207638500 197737100
892.89 193426200 187689000 184682800 185735000 186709800 186874800
895.78 187463600 189107800 189137800 187147000 185644500 185948800
898.67 184158100 180934400 178573100 176736800 173192600 169898900
901.56 167275500 163522500 158702300 154518000 150321600 146374700
904.46 142054800 138580800 134399100 128716400 124059100 119871700
907.35 114660800 110491900 106449000 101806000 96566400 92669180
910.24 89648460 86101310 81869750 78153330 75108670 71519950
913.13 67689460 64463000 61975820 59406320 56617770 54660300
916.03 52544030 49790470 47132350 45908950 44405780 42036000
918.92 40104890 39205540 37812370 36453780 35504220 34485450
921.81 33279290 32645310 31529210 30474060 29552740 29181630
924.71 28894050 28238800 27305220 27104070 26669890 26072050
927.60 25437480 25410340 25172450 24945090 24522170 23860610
930.49 22952670 22725060 22501650 22137120 21585780 21504340
933.38 21569640 21500050 21006710 20707650 20269530 20281340
936.28 20312710 19978400 19802730 19772070 19509300 19554780
939.17 19184100 18926610 18830660 19068020 18681070 18332080
942.06 18141860 18364860 18519840 18208740 17882180 18003870
944.95 17859310 17905060 17669350 17550290 17344970 17780620
947.85 17709410 17318840 17141670 17472670 17398560 17593040
950.74 17462000 17403310 17710370 17974050 17836050 17880080
953.63 17847290 17753070 17562040 17764840 17972650 18165130
956.53 18374020 18916520 19013240 18896300 19213770 19955930
959.42 20677920 21213090 20806440 20623490 21182850 21497470
962.31 21355370 21784040 21984570 22286330 22237700 22506930
965.20 23051430 23822220 24092730 24203540 24028760 24685630
968.10 25449250 26108030 26505670 27082290 27470830 28440610
970.99 29150000 30021360 30524460 30950370 31158930 31682920
973.88 32172990 33093650 34065590 35160160 35372980 36005050
976.77 36562450 37361360 37920340 38951340 40266160 41380220
979.67 42201420 43409620 44304200 45397360 46687650 47784140
982.56 48623950 50319750 51951190 53365140 54436090 55890820
985.45 57439560 59324450 60857380 62569460 64498150 67041770
988.35 69249680 71435300 73164600 75515650 78259600 81263610
991.24 83728060 86838780 89937100 92815620 95346150 98134100
994.13 101394500 105274200 109089800 113415200 116883600 120438300
997.02 124883100 129925700 134771200 140029600 145032500 150632300
999.92 155379300 160383200 166101000 173141500 179093100 185716300
1002.81 195137000 204820000 213310900 220412300 226099700 231868900
1005.70 236584400 243030700 250456900 258159500 263934300 270845100
1008.59 280041200 289796200 297173100 306484600 316009400 324215500
1011.49 332022600 341305200 349279000 353744500 359429000 371762300
1014.38 378706600 382914000 386988300 395516300 399153200 398311500
1017.27 401772700 411052600 417188400 415996100 413381000 419743800
1020.17 423824100 423578400 427356000 435257000 439469000 438368800
1023.06 439111100 446195800 454079400 466578800 493522600 537467100
1025.95 592440500 677626400 778298000 801333900 693461800 558139200
1028.84 508363100 505386300 515739800 531943600 546162700 565984800
1031.74 589724400 608311000 620337900 634977700 656292200 681784100
1034.63 704545500 736425700 782241700 846031200 904609600 944717900
1037.52 921476600 872869100 873775500 890600000 905904300 926006600
1040.41 949549400 962029400 972243100 985507300 1000890000 1016768000
1043.31 1030032000 1040789000 1048002000 1060814000 1079791000 1093600000
1046.20 1101634000 1106567000 1102648000 1100079000 1107550000 1119516000
1049.09 1131153000 1142023000 1145226000 1140009000 1145363000 1155074000
1051.99 1161489000 1161112000 1150422000 1140109000 1136249000 1138302000
1054.88 1148637000 1158675000 1175289000 1210534000 1255284000 1291941000
1057.77 1258935000 1156179000 1080574000 1046747000 1029782000 1016808000
1060.66 1008796000 1012458000 1020359000 1039350000 1065176000 1095220000
1063.56 1123057000 1157104000 1222574000 1317004000 1414511000 1436167000
1066.45 1325850000 1248120000 1164768000 1062984000 1030260000 1019311000
1069.34 1034542000 1048844000 1056090000 1072513000 1086344000 1097416000
1072.23 1115347000 1121302000 1129103000 1140129000 1143943000 1137939000
1075.13 1133858000 1134235000 1133243000 1128002000 1116892000 1105908000
1078.02 1093352000 1082047000 1064889000 1041088000 1021854000 1000730000
1080.91 980296000 959293800 935901800 911476900 889135900 871294200
1083.81 853099300 830400000 805411100 782736300 767179500 749344600
1086.70 721717200 692468000 680803500 676010900 669470700 668442000
1089.59 652681600 600671100 538475700 499890600 483818500 474014300
1092.48 465991800 458574300 453847200 448172700 440407600 433908300
1095.38 431652000 434778400 437085500 427920800 422622100 421270100
1098.27 418435100 418015300 417037800 412563500 410047000 407805200
1101.16 401703500 395914700 394815900 391287000 384029100 378775700
1104.05 374928000 365863500 358273200 351368300 340905100 332573700
1106.95 327133200 318142000 308199900 300648200 293434600 284947700
1109.84 277759000 268035800 256212800 246090400 237658800 230478400
1112.73 224784800 219373800 213759700 209020700 203024700 191126200
1115.63 179649600 174259000 173754300 170016800 162100900 157283600
1118.52 154530700 147948300 141611500 137684000 135008100 131351500
1121.41 127957700 125386200 122077600 118619600 116959700 115117200
1124.30 112557400 109300900 108717900 107210500 102914900 100063700
1127.20 100016700 98580660 95109390 92836610 92464680 90185940
1130.09 86896500 87313040 86182080 81879320 80294780 81171450
1132.98 79783500 76996510 76315740 76447970 73635990 70020720
1135.87 69467690 69410170 67639280 65704520 65178020 63797230
1138.77 61842310 60706060 60737160 60109820 59110600 58482820
1141.66 57418580 55340380 53609640 53121840 53396180 53067510
1144.55 52257010 50838110 49743160 48925700 48602600 47921520
1147.45 47578830 47101060 46607480 46194010 45663040 45675360
1150.34 46250780 46532390 47094980 48628720 49026670 47424040
1153.23 45846200 45222250 45231450 45144800 44893120 44427480
1156.12 44111880 43720960 43473070 43683270 43896870 43698980
1159.02 43362940 42937460 42776720 43003300 43836990 43761440
1161.91 43140390 43165320 43363940 43547430 43662860 44133410
1164.80 44746110 45835520 45767320 44429070 44635220 44818900
1167.69 44416140 44454860 44986680 44992370 44568300 44259290
1170.59 44652560 45200770 45592180 46404080 47113420 47119160
1173.48 47060880 47237720 47797080 47841600 48512070 49151890
1176.37 49516730 50331600 51178040 51079750 51218000 52191900
1179.26 53339860 54060350 54769030 55099580 55909940 56892080
1182.16 57642220 58284060 59235440 59918370 60484740 61299810
1185.05 62173490 62753870 63499430 64499250 65555450 65926810
1187.94 66532040 67331490 68083890 68592850 69396810 70282890
1190.84 71278160 72665580 74360780 75644860 76662220 77855580
1193.73 79216140 80216390 81424420 82465700 83889940 85289260
1196.62 86288050 87004580 88030380 89163450 90011420 90488350
1199.51 91357140 92516870 93981030 95246110 96436770 98401760
1202.41 100314400 101795700 103357100 105317000 107726100 111134000
1205.30 113039200 113703500 116674400 120767300 123276600 124065000
1208.19 125971900 129445900 134086100 137899700 139242100 142809400
1211.08 147488800 151532300 154578600 159067500 163960900 169830700
1213.98 176449200 178358400 180413700 189574300 199532000 200706000
1216.87 204823300 215530200 218612800 220367800 231795400 238071200
1219.76 235915600 246232700 258826800 255476800 258478300 275020600
1222.66 277129800 271809900 283080900 294078500 287245100 287176100
1225.55 306722900 309010700 294844700 306722100 319590700 308919400
1228.44 307068200 320992500 319807300 308956400 317525700 324112400
1231.33 306488700 300846900 307332900 300185700 289786600 282520700
1234.23 280078100 279306500 268991500 261887500 260692400 258881600
1237.12 251017300 241041200 236779000 231208100 229097800 247501500
1240.01 315120800 424897700 447751100 364523900 296187000 280709600
1242.90 276213600 260377600 262296300 273076900 278027100 284873400
1245.80 294464600 293949900 289987100 292649700 313865000 347562700
1248.69 371654200 363987100 356592200 338307800 318494400 319444600
1251.58 327741400 321445200 311682400 316057800 321627500 311156600
1254.48 301986600 305610900 307595300 300788300 296033800 299422900
1257.37 294810800 282934700 281662800 286335200 281244000 271667800
1260.26 268989200 267034100 256973600 245934800 243674200 243394300
1263.15 235862400 227746400 225407300 221642400 212615100 206221000
1266.05 203731400 197475800 188311900 181750800 179426500 174597300
1268.94 166433100 159171600 157382700 156565000 149940300 144653800
1271.83 143950200 141239800 136740300 133609700 130147500 126303100
1274.72 124096700 122996400 121540400 119289000 116160000 113549500
1277.62 112503400 110393900 107770100 105751100 104401500 102799000
1280.51 101039000 98853300 96700150 94840770 93225780 91998000
1283.40 90960550 88818750 86753460 85287090 84175970 83485710
1286.30 83298210 82347680 81084110 80329750 79844410 78758220
1289.19 77739070 76938220 76317040 75822150 75354470 74405500
1292.08 73402310 72399030 72062630 71483220 71098760 71064540
1294.97 70973940 70410860 69910710 69441360 68955740 68313720
1297.87 67270600 66090250 65558800 65180120 65457800 65653600
1300.76 65321410 64924040 64779900 65197250 65976180 66800970
1303.65 67058360 66327920 65932400 66535800 67471280 67362010
1306.54 66306320 65704800 65510770 65181880 65428650 65678460
1309.44 65857970 65833270 65855990 65946020 66102920 65916060
1312.33 65865750 65722420 65608700 65297720 65419990 65515050
1315.22 65593520 65950860 66287170 66153330 66114440 66001280
1318.12 65883740 66041990 66207050 66421480 66892060 67682220
1321.01 68692100 69346060 70127700 70326740 70104860 70263830
1323.90 70789120 71126180 70913770 69941700 69207460 68650540
1326.79 68351050 68181340 67928890 67787520 68292570 68720700
1329.69 69153160 70073350 70460390 70407540 70940590 71586100
1332.58 71859610 71880930 71681340 71596200 71862580 72751020
1335.47 73853630 74841460 76110250 77202110 78203150 78757620
1338.36 77336300 75424530 75278470 75775730 76420590 77879140
1341.26 79792180 79892340 79746390 79942290 80592100 81744670
1344.15 82691800 82915790 83520540 84685580 85919540 87199940
1347.04 88450440 89154580 90104420 91313690 92229280 92678760
1349.94 93030960 94421960 96683840 98766720 100963900 103070700
1352.83 105201800 107026800 108750700 110852000 112759600 114504300
1355.72 117149700 120399400 122548000 125304200 128699800 131026100
1358.61 133335000 136050900 139023400 142580700 145857000 148881600
1361.51 152113500 155765000 160637800 164593200 168144800 173618200
1364.40 179384900 183199100 186809700 192215200 197907400 201996300
1367.29 206569000 212330400 218195400 223327300 229861600 238278500
1370.18 245715000 251608200 257669700 264778600 272200000 277826700
1373.08 283407200 290520900 297520300 303369900 309597300 316096600
1375.97 323411900 331299000 337615100 343274400 349613800 355583400
1378.86 359771600 363161600 367510800 371138000 374008200 375814100
1381.76 376132500 376571300 376742000 375098600 370563200 365027900
1384.65 360543900 353712700 345810300 339998200 333713200 325651400
1387.54 316364800 309239000 305152100 304926200 310700500 321587700
1390.43 333267900 352038700 373777900 403132700 467176100 567304200
1393.33 642228800 631932100 544457300 434360700 362036700 326991300
1396.22 313824500 311033800 312289300 317504600 324756600 331247700
1399.11 336409700 342832300 351999400 361888800 371439300 380335300
1402.00 390914300 399829600 405573300 413138000 423010300 428279600
1404.90 428446100 426671600 425770800 424632400 422193500 419920300
1407.79 416598800 411822100 405990000 399302800 391065300 382357700
1410.68 374512500 365806800 356372000 346059100 335622100 324499500
1413.58 312609700 301124600 290567100 280945500 271745200 262054400
1416.47 251489900 241422200 233390500 225923900 217929700 209653000
1419.36 202366800 196740700 191091100 184664300 180165200 176819300
1422.25 171976600 166681100 162536900 159003200 156477400 154400900
1425.15 151358800 147734400 145010200 143318500 142022700 139982600
1428.04 136558000 132140700 128752800 126997600 126833400 126647600
1430.93 125886500 124853000 125203400 126057400 125678100 124278900
1433.82 124793400 127235300 127129400 124068000 123917900 126683400
1436.72 127442900 126238800 126094800 125348500 123096400 123277300
1439.61 124548300 123178300 123082800 124539200 123345900 121246700
1442.50 122492300 123294100 121361300 120325000 121426200 121873400
1445.40 122377800 122512500 123001800 125590400 128843100 132904200
1448.29 142875700 156693100 173622300 174617200 152574100 141908200
1451.18 142312400 143257100 145967600 156887000 167815300 156733300
1454.07 144829800 136164100 120497100 105685700 98395700 96558110
1456.97 96263030 95757010 95266250 94029590 93826780 94099160
1459.86 93768180 94217400 95285200 93950140 91372740 89883460
1462.75 89130740 88989280 88842380 87786120 87224300 88897540
1465.64 90235390 88330210 86065180 86901010 88883540 87930090
1468.54 86413750 86911550 88203760 86797670 84859740 85616990
1471.43 88299830 88290540 85556390 85176780 87726010 88639400
1474.32 86415020 85501640 87018220 87531950 85777220 84690940
1477.21 85427800 85643210 84279640 82353990 81052300 81185860
1480.11 81442860 78939020 75974070 75068420 75156080 73723860
1483.00 71021400 68908280 68178460 66646540 64457430 63199850
1485.89 62117710 61039900 60210240 59718560 59571980 59522250
1488.79 59816850 59951030 59340570 58049430 56831740 56651960
1491.68 56840650 57359730 57504430 55427190 52643700 50614930
1494.57 48903300 47963540 47690860 46998140 46037500 45200660
1497.46 44775610 44694640 44282480 43869000 42970270 41972270
1500.36 41626120 41226740 40397430 39667350 39134990 38584660
1503.25 37996550 37549100 37045580 36088560 35105040 34330160
1506.14 33598980 32948700 32278780 31682120 30803450 29947200
1509.03 29242190 28487310 27859020 27296900 26228410 25294270
1511.93 25076060 24763400 23925310 23193050 22639080 22075040
1514.82 21350890 20775600 20164640 19609350 19379080 19097830
1517.71 18405250 17588220 17046310 16475800 15986650 15532200
1520.61 15118060 14648950 14389490 13921780 13641950 13478780
1523.50 13264670 12756660 12271630 12044860 11931910 11684910
1526.39 11217650 10803680 10430350 10019020 9559124 9267862
1529.28 9254186 9026466 8628368 8303250 8104540 8101172
1532.18 8190746 8029176 7819542 7337104 7043464 6725644
1535.07 6490564 6614786 6468436 6006808 5644576 5621690
1537.96 5773814 5745546 5575556 5278484 5028962 4928562
1540.85 4949080 4780202 4531380 4502980 4450860 4346996
1543.75 4276500 4101084 3975742 3880020 3677168 3465642
1546.64 3640374 3711370 3557896 3551918 3537342 3288448
1549.53 3195998 3244488 3475080 3311890 2960116 3000466
1552.43 2955612 2807334 2737632 2785778 2845466 2746300
1555.32 2829750 2736272 2667176 2616498 2344402 2269666
1558.21 2433558 2552630 2410508 2341210 2377254 2366528
1561.10 2446008 2330162 2135502 2228326 2175070 2149660
1564.00 2251384 2224996 2213880 2061122 2135510 2072508
1566.89 1894116 1852808 1683630 1874684 2091544 1937424
1569.78 1881090 1959492 2065236 2017208 1754414 1708550
1572.67 1894930 1914926 1935944 1848252 1908980 1951806
1575.57 1858692 1677292 1648142 1719526 1926450 2041164
1578.46 2107672 1884996 1626030 1513180 1788706 1989358
1581.35 1794264 1579574 1777136 1820326 1756146 1629460
1584.25 1489008 1601334 1555430 1646448 1740100 1694536
1587.14 1671758 1764842 1959024 1989492 1910868 1777424
1590.03 1822688 1772948 1757636 1772490 1887036 1906666
1592.92 1883392 1934672 2062626 2141258 1797710 1651416
1595.82 1738376 1886306 2004982 1990834 1817718 1589172
1598.71 1631054 1796000 1817686 1742912 1669674 1724594
1601.60 1832306 2009450 1985064 1769228 1671380 1613848
1604.49 1620230 1868844 1904746 1860620 2029518 1876166
1607.39 1647646 1415788 1531116 1965074 2370694 2290928
1610.28 1955352 1629818 1542780 1664096 1678842 1653874
1613.17 1617270 1525516 1415916 1430214 1769042 1623952
1616.07 1395210 1557990 1755896 1669944 1450784 1497922
1618.96 1654252 1807218 1916616 1757146 1710308 1726308
1621.85 1773064 1695330 1484736 1636720 1640428 1402972
1624.74 1363110 1408554 1512894 1484622 1519232 1613192
1627.64 1697714 1720668 1585200 1521040 1619048 1621650
1630.53 1622304 1606646 1663540 1608854 1583340 1644434
1633.42 1491550 1519942 1444124 1314242 1425346 1464740
1636.31 1544468 1607038 1470476 1389522 1315278 1475284
1639.21 1662960 1895962 1910600 1719796 1774336 1802220
1642.10 1600160 1541900 1654426 1818122 1891698 2047790
1644.99 2061074 1697266 1530672 1691196 1651202 1805678
1647.89 2034102 1978172 1998136 1851750 1599568 1676718
1650.78 1820448 1859646 1713346 1672394 1634742 1624864
1653.67 1839556 1849846 1572032 1383486 1542208 1780426
1656.56 1699860 1660974 1776762 1770892 1651374 1607122
1659.46 1734950 1878400 1964592 1824876 1860898 1780084
1662.35 1769186 1929722 2136242 2088082 1856648 1586612
1665.24 1704648 1832052 1892172 2029560 2095794 1848724
1668.13 1875946 2149458 2182852 2222628 2242294 2162066
1671.03 2087582 2057806 2379124 2307778 2220532 2256848
1673.92 2511758 2557938 2335380 2187576 2150846 1950306
1676.81 1913870 2096382 2236100 2147672 2281234 2217228
1679.71 2248626 2307586 2273226 2252040 2186268 2239818
1682.60 2236944 2215038 2228526 2124794 2227912 2330220
1685.49 2294142 2239810 2235410 2170500 2088816 1969376
1688.38 1946466 2105450 2276568 2160044 1999776 2154546
1691.28 2262620 2134600 1988034 2022908 1957886 1757164
1694.17 1837760 2031738 2043266 1929624 1907278 2094624
1697.06 2167822 1839782 1750320 1884038 1847568 1817476
1699.95 1790932 1836488 1930448 1980268 2196556 2195212
1702.85 2003682 1866578 1727836 1818126 1822334 1727168
1705.74 1659224 1568782 1551354 1625224 1787660 1709602
1708.63 1615674 1515836 1448860 1498402 1554326 1566666
1711.53 1557342 1468928 1603474 1779656 1832686 1759506
1714.42 1688494 1843368 2130542 2055390 1974916 1808160
1717.31 1752608 1650660 1579106 1472604 1462186 1426084
1720.20 1562372 1874342 1943942 1753758 1707452 1719910
1723.10 1623670 1430312 1416738 1514796 1557366 1414240
1725.99 1424392 1473838 1359544 1482204 1478356 1375198
1728.88 1557728 1519390 1436782 1532538 1553272 1533084
1731.77 1502362 1506648 1535468 1410442 1241330 1340962
1734.67 1716304 1756136 1640150 1764676 1808636 1640790
1737.56 1753644 1875058 1782584 1993906 2220266 2106996
1740.45 1883526 1959644 2057002 2028788 2161418 2232818
1743.34 2001968 1939186 2126200 2246924 2148982 2061752
1746.24 2032112 1953438 2047956 2057866 1960424 2166000
1749.13 2236860 2224970 2097554 1963644 2052372 2227756
1752.02 2337358 2448210 2235904 2031862 1954090 1958550
1754.92 2421506 2900794 2919182 2547310 2114410 1730838
1757.81 1702176 1972288 2215290 2463274 2527642 2408586
1760.70 2335192 2416960 2590950 2623350 2792410 2847624
1763.59 2675982 2483004 2603718 2750528 2660674 2495570
1766.49 2544904 2726090 2813856 2863928 2933960 2874894
1769.38 2881752 2813738 2873316 2795474 2772422 2741316
1772.27 2764474 2646394 2540010 2654366 2637654 2353190
1775.16 2311188 2334584 2435348 2401464 2318698 2314124
1778.06 2555078 2589274 2436744 2618432 2827604 2470860
1780.95 1946678 1594082 1414578 1487622 1547168 1539958
1783.84 1733530 1641288 1552640 1579150 1440774 1377916
1786.74 1600970 1713676 1536020 1475340 1616244 1488550
1789.63 1192770 1108574 1119034 1074758 1100472 992982
1792.52 980984 963656 998464 1018374 956622 983034
1795.41 887596 759042 712832 755886 818936 726272
1798.31 558190 453506 307580 142526 219944 279870
1801.20 202826 115010 132962 112260-49184-157950
1804.09-60046 128298 194788 109518-158078-208410
1806.98-144084-91254-198768-384788-381804-540748
1809.88-625804-503038-434728-380080-503828-746196
1812.77-766220-688094-629088-524438-426106-537766
1815.66-520858-582948-778204-947266-914924-614146
1818.56-449238-617280-633146-610826-648160-778864
1821.45-930046-1126814-963568-676658-618662-730738
1824.34-742768-693464-728350-820704-666214-615326
1827.23-680102-797890-793900-886820-884736-807682
1830.13-826312-748462-607702-720828-889688-970042
1833.02-708344-612052-669930-726032-693416-795012
1835.91-947822-943124-859908-894790-873900-849832
1838.80-843646-805620-959442-1002210-937660-869036
1841.70-859156-769878-677316-654642-709220-843470
1844.59-646332-504638-712488-902172-784328-761942
1847.48-807274-771540-733152-859272-874214-790462
1850.38-520286-493700-755956-936988-900182-825228
1853.27-688650-523098-535040-681546-640494-598164
1856.16-747234-820196-562278-422042-477530-411060
1859.05-395412-421732-399592-338834-350040-347140
1861.95-505766-483238-221860-225006-465200-421730
1864.84-172012-87822-133274-125816 103414 202900
1867.73 146202 117684 99250 87058 213600 176920
1870.62 70086 193030 289022 367530 500142 486758
1873.52 553846 734110 718018 721416 671254 727542
1876.41 880296 769580 745318 900342 957468 1039220
1879.30 1173204 1169492 1072692 1216626 1425484 1264420
1882.20 1371288 1775672 1899422 1986068 2179070 2375834
1885.09 2461100 2522020 2526918 2641908 2847286 3097920
1887.98 3216260 3244704 3560784 3734852 3820242 4121972
1890.87 4289058 4344320 4362194 4445726 4744702 5008694
1893.77 5168322 5505926 5687616 5823460 6181214 6361422
1896.66 6285212 6523026 6896546 7165240 7133706 7315006
1899.55 7538356 7728090 8034352 8057076 8165390 8630768
1902.44 9009608 9072296 8920506 8946026 9173020 9407560
1905.34 9557878 9592714 9753888 10014350 10216740 10385630
1908.23 10575360 10786130 10825840 10795000 10922720 11064260
1911.12 11420230 11925190 12276620 12547710 13057150 13625670
1914.02 14374140 15054030 15223930 14701410 13882320 13160380
1916.91 12767920 12883500 13157130 13452850 13949650 14259610
1919.80 14495790 14837720 14869480 14923830 15145760 15426160
1922.69 15784260 15998390 15999620 15843410 16040120 16386990
1925.59 16765810 17085910 16940640 16553800 16214820 16108760
1928.48 16183060 16185130 16236790 16732630 17120300 17293910
1931.37 17651950 18117270 18436600 19330990 21167040 21590880
1934.26 19059290 16476960 15476680 15363260 15418050 15165800
1937.16 14717660 14335180 14250180 14341700 14400530 14236150
1940.05 14114490 14220310 14368090 14393660 14512550 14777960
1942.94 14983640 15090940 15123940 15245970 15252610 14657260
1945.84 14067840 13630100 13036290 12620140 12301360 11984470
1948.73 11669880 11439330 11142820 10797250 10515730 10383680
1951.62 10212420 9905534 9481278 9100530 8828118 8668512
1954.51 8480148 8184718 8023422 7802994 7422076 7308018
1957.41 7188566 7012356 6770470 6511940 6384298 6156320
1960.30 6043116 5973472 5749374 5452360 5372884 5473824
1963.19 5448884 5261002 5113200 4928336 4730962 4799848
1966.08 4784402 4818114 4629838 4434076 4239746 3951768
1968.98 3897290 3840006 3646708 3616102 3568928 3407732
1971.87 3214400 3128914 3069086 2858258 2834772 2985988
1974.76 3157178 3292482 3164038 2963064 3051154 3126652
1977.66 3096372 2871422 2616238 2308510 2005528 2016742
1980.55 2110996 2023438 2134430 2226788 2012288 1941590
1983.44 2122106 2268226 2282176 2156658 2126490 2118574
1986.33 2241194 2381924 2321320 2152964 2065734 2187602
1989.23 2249790 2031096 1745150 1663042 1641660 1620404
1992.12 1576878 1486124 1226362 903038 898728 1193574
1995.01 1051650 824884 758808 600724 534156 528708
1997.90 370222 187826 287090 231496 124184 208040
2000.80 177402-122984-432626-470546-530180-553414
2003.69-403440-365126-392864-584896-922166-927006
2006.58-857326-941002-1052072-1138220-1120864-1013480
2009.48-766590-883122-1131762-1339072-1411718-1205898
2012.37-1048454-1011692-849682-874328-1097438-1265462
2015.26-1382456-1464944-1540260-1519344-1486854-1589800
2018.15-1566948-1560710-1647004-1617218-1537664-1428114
2021.05-1364340-1353450-1435826-1542418-1546590-1439762
2023.94-1380582-1517306-1369622-1347000-1524340-1505352
2026.83-1491048-1563052-1578630-1535564-1446764-1472834
2029.72-1589260-1609026-1611726-1556630-1420134-1467930
2032.62-1515130-1381090-1340452-1362912-1403722-1521464
2035.51-1603260-1448710-1384346-1480790-1432308-1484312
2038.40-1341832-1172866-1226984-1306372-1359482-1304558
2041.29-1268426-1339714-1250846-1220540-1363694-1386480
2044.19-1530340-1595818-1330210-1110848-1308144-1601066
2047.08-1479484-1370248-1243470-1099566-872526-935430
2049.97-1024968-1008340-1144814-1331624-1531362-1560096
2052.87-1647176-1640320-1654370-1752926-1764948-1619536
2055.76-1351416-855096-458662-559234-668200-677262
2058.65-684032-726772-857280-883388-718332-811122
2061.54-992668-898046-677560-740684-500038-471234
2064.44-825722-898564-640094-512738-474076-533728
2067.33-629748-453286-23140-219234-432716-675806
2070.22-688956-481638-543654-648074-406578 229626
2073.11 94130-327872-535380-749536-660730-187104
2076.01 63428 260102 818096 736256 327522 119106
2078.90 47488 199452 241642 177168 248496 1045506
2081.79 1392048 902736 937414 904232 901770 848740
2084.69 937778 1410264 2377086 2083828 1282564 1245040
2087.58 1263424 1436780 1686508 1957186 2519324 3643184
2090.47 3358000 2497408 2299280 2530214 2716590 2693450
2093.36 2798914 3725200 5083380 4116924 3223798 3437238
2096.26 3450414 3455058 3630088 3921464 5179244 6084244
2099.15 4636940 4005760 4354576 4505598 4382874 4472664
2102.04 5093022 7052448 7259000 5328804 4735948 5034704
2104.93 5568220 5622134 5419524 6361710 8190368 7349176
2107.83 5983918 5991286 6094054 6151494 6392700 6597414
2110.72 8346970 9168994 7141092 6365398 6276922 6230650
2113.61 6190248 6066646 6713006 8357500 7014522 5412522
2116.51 5352736 5535906 5665394 5583930 6007208 8004008
2119.40 8387156 6441768 6000192 6130936 6287000 6514498
2122.29 6839510 8065758 9494864 8040738 6829710 6702018
2125.18 6704312 6525452 6558260 7075480 8519464 7707206
2128.08 6419358 6104162 6248232 6312048 6062628 6181184
2130.97 7362006 6780442 5406734 5182904 5267004 5244428
2133.86 4842684 4893870 5739318 5541522 4532820 4385178
2136.75 4423890 4101620 3665950 3616444 3957608 4125884
2139.65 3554502 3279414 3150400 3123556 2951894 2656354
2142.54 2435586 2432232 2442820 2349342 2328802 2213260
2145.43 2163416 2376988 2588794 2535416 2112898 1704668
2148.33 1544706 1552886 1387222 1792472 2684072 2224308
2151.22 1381966 1205060 1137924 1092728 1066578 2070090
2154.11 3118706 2049480 1115114 1046108 1035598 1079258
2157.00 1162728 2706790 3356524 1750346 986682 1065416
2159.90 1140856 1064036 1712368 3679492 3088040 1329924
2162.79 1145604 1105614 1083694 1139354 2991408 4292642
2165.68 2192364 1011226 1131254 1135430 1059114 2011956
2168.57 4477764 3751998 1590834 1461560 1451212 1334186
2171.47 1672854 3899754 4661248 2409162 1637040 1621914
2174.36 1800462 1969268 3325526 5013628 3349290 1690898
2177.25 1200106 1161184 1333746 2443054 4524612 3486068
2180.15 1868814 1918222 1888936 1860290 2426496 4466992
2183.04 4177344 2311970 1930962 1732888 1776666 2386014
2185.93 4257942 4030154 2186820 1622060 1435222 1476144
2188.82 1989680 3624120 3452338 1908900 1346382 1269278
2191.72 1277322 1552822 2734542 2457998 1294470 1312208
2194.61 1400880 1312620 1582390 2452914 1731504 766888
2197.50 587646 506788 695062 1122422 1748106 826900
2200.39 165062 372098 528962 617576 1025138 1113354
2203.29 367394 286540 277022 67448-44896 609500
2206.18 570762 101736 6306 9928 13894 180478
2209.07 361652 117724 175518 231210 19204-42524
2211.97 277318 248292 103548 211206 42730-123292
2214.86 6914 205796 166714 216592 35882-114262
2217.75 214208 312744 92316-48078-42416 230974
2220.64 347802 538960 559612 496484 432354 522856
2223.54 837938 944192 602474 647010 1004058 1329472
2226.43 1343830 1105150 865006 841548 927182 1006346
2229.32 1073514 1289982 1575082 1566672 1575264 1680184
2232.21 1722026 1964338 2173940 2111112 2012382 1963102
2235.11 2281616 2510178 2402604 2482130 2672528 2950474
2238.00 3288604 3422110 3277262 3145130 3185918 3368486
2240.89 3330426 3401122 3618146 3646290 3698260 3931838
2243.79 3941614 3979458 4219578 4285808 4290036 4498196
2246.68 4570738 4604624 4878778 4918718 4963312 5161398
2249.57 5424870 5591104 5522442 5554324 5397194 5232606
2252.46 5415480 5660736 5603738 5625278 5773936 5886902
2255.36 5937068 5880334 5815144 5646722 5488596 5362712
2258.25 5457900 5669620 5909966 6138678 6384408 6708772
2261.14 6635814 6464272 6400414 6357422 6262684 6278584
2264.03 6201336 6233150 6304568 6356338 6405096 6566090
2266.93 6325942 6237096 6201364 6084560 6173760 6422460
2269.82 6770900 7008270 7450096 7855570 7496202 6881740
2272.71 6549964 6724788 6891936 7059184 7152704 6724710
2275.61 6430996 6553748 6503156 6284350 6141436 6081666
2278.50 6336622 6470852 6193482 6027876 6151380 6347932
2281.39 6485312 6370810 6005130 5921624 6101734 6101602
2284.28 5963672 5841900 5535054 5309232 5357778 5457344
2287.18 5383070 5171086 4961216 4895318 4983078 4974492
2290.07 4630076 4500726 4473510 4267928 4253916 4387954
2292.96 3900470 3662726 3660044 3565276 3675760 3809394
2295.85 3696626 3550314 3385750 3211500 3212826 3238022
2298.75 3361032 3480950 3321670 3229434 3167102 3329826
2301.64 3681662 3949880 3378962 3112492 3039516 3338490
2304.53 3415698 3418656 3177092 3436008 4018520 3667668
2307.43 3079810 3304010 4092738 4160198 3607382 3878730
2310.32 4546320 4651838 3623914 3562424 4477824 5405380
2313.21 4174874 3499392 4234890 5614572 4665972 3912320
2316.10 4691788 6517592 5342228 3982334 4398306 6715196
2319.00 6197364 4145636 4578216 7514210 7066868 4203176
2321.89 4395302 7580352 7374010 4173072 4531916 8329124
2324.78 7965232 4483588 5586932 9979930 9204696 5627628
2327.67 8452154 12829660 9121246 3995678 7062930 10746040
2330.57 6690396 3713592 8720614 11028870 5768398 5031344
2333.46 11209590 10725560 4959816 7017476 12361990 9101906
2336.35 5204136 9836302 12058150 6929862 7168282 12152430
2339.24 10084650 5781724 9398536 11523460 6912300 6629786
2342.14 10636340 8843996 5964102 8354936 9096062 5938778
2345.03 6139414 7564126 5641680 4538282 5523264 5156978
2347.92 4054990 3697780 4074244 4428814 3988038 4251426
2350.82 5999684 5423788 4628008 7152686 6928698 5194184
2353.71 8491764 8524556 5744002 9434634 9818666 6354316
2356.60 10375710 10240310 6587104 10951770 10306780 7356156
2359.49 12142910 10010850 8170444 12518450 8785474 9145408
2362.39 12446430 7894318 10337990 10978170 7687822 11370590
2365.28 9204168 8519144 10691420 7458026 9637576 8947556
2368.17 7631226 9460986 7199214 8358088 7467682 6696358
2371.06 7667994 6189934 7064068 5971612 6263292 6113472
2373.96 5947816 6088888 5627554 5899878 5467334 5600452
2376.85 5158128 5234826 5201094 5147306 4798182 5009052
2379.74 5265964 5019694 4593376 4780154 4802794 4695720
2382.64 4906548 5047514 5094302 5101916 5133156 5164652
2385.53 5283486 5408428 5391344 5290736 5168620 5434784
2388.42 5387474 5199076 5390448 5442376 5345274 5315452
2391.31 5339416 5478206 5575586 5705592 5796820 5803760
2394.21 5857898 5861426 5889776 5956374 6209356 6191930
2397.10 6194524 6351466 6377614 6196672 6036144 5983336
2399.99 5963032 5956228 6101082 6204864 6396578 6626774
2402.88 6549450 6572726 6596272 6457136 6597772 6962148
2405.78 7140652 7027412 6941442 6967822 6987280 6995430
2408.67 7043902 7248428 7317896 7233154 7401576 7660634
2411.56 7571830 7332610 7342452 7410454 7327518 7164678
2414.46 7401084 7355584 7037602 7031622 7048684 6768776
2417.35 6628862 6698736 6953806 6908526 6592010 6730110
2420.24 6699146 6745034 6585846 6247768 6176352 6254416
2423.13 6322026 6310416 5978668 5779898 5851114 5731490
2426.03 5529594 5453334 5223214 5002536 5156292 5251180
2428.92 5409402 5670906 5635892 5419206 5093420 5028222
2431.81 5381450 5366976 5222346 5025338 5088096 5260806
2434.70 5263738 5209016 5149978 5228858 5383416 5252004
2437.60 5119936 4776750 4596304 4676782 4897854 4786916
2440.49 4708594 4638512 4398664 4237074 4218146 4315688
2443.38 4315232 4187808 4083964 3968512 3983498 4157206
2446.28 4303044 4004844 3728786 3752212 3782912 3675056
2449.17 3712374 3861966 4066108 4065602 3929458 3960370
2452.06 3971102 4057274 4051698 4146626 4130832 3868506
2454.95 3789126 4195250 4365804 4180710 4091240 4073836
2457.85 3984024 3841550 4043958 4231918 4112228 4117574
2460.74 4294402 4114070 3985728 4025050 3981750 4078500
2463.63 4115530 3848976 3508466 3786152 4269142 4311982
2466.52 4197896 4120192 4113578 4034228 3886256 3953254
2469.42 3882256 3952082 4354394 4387526 4240536 4282030
2472.31 4417308 4499516 4388402 4321504 4333784 4311332
2475.20 4209850 4150142 4288554 4483334 4380736 4544736
2478.10 4585208 4628650 4700142 4574296 4344904 4105424
2480.99 3746080 3429704 3808850 4208346 4438430 4758534
2483.88 5038350 4991298 4671144 4385990 4361992 4677890
2486.77 4876672 4781304 4740192 4476234 4563298 4609944
2489.67 4274612 3969012 3770572 3930232 4098096 4078990
2492.56 4167172 4168586 4252638 4242518 4157074 3961490
2495.45 3909420 3714262 3550680 3579562 3499888 3468932
2498.34 3691066 3548160 3156020 3064010 3257236 3387976
2501.24 3155210 3097974 3193520 3033704 3097018 3185522
2504.13 3058720 2926698 3050030 3269608 3370582 3366000
2507.02 3022442 2735648 2864190 2858280 2852582 2773606
2509.92 2750766 2715318 2561126 2605930 3008950 3251548
2512.81 3072306 2730536 2471752 2334320 2518732 2923848
2515.70 3100930 2976154 2915536 2701496 2518024 2598132
2518.59 2739206 2784688 2648856 2659122 2479218 2137484
2521.49 2039728 2214544 2447110 2535032 2470330 2560582
2524.38 2674352 2592820 2490298 2416514 2391368 2334678
2527.27 2287156 2423818 2434004 2173866 2175796 2303968
2530.16 2323536 2409870 2461646 2449410 2273602 2411496
2533.06 2650202 2622256 2451284 2352942 2339502 2205268
2535.95 2113914 2319688 2238844 2201226 2232528 2274168
2538.84 2385984 2302588 2332050 2464646 2511270 2405994
2541.74 2540404 2705728 2676106 2485094 2300118 2393358
2544.63 2607738 2628630 2698484 2876242 2771952 2678690
2547.52 2792884 3017382 3276330 3324284 3180764 3000286
2550.41 3124404 3136252 2966638 3036760 2805802 2824888
2553.31 2939194 3045550 3151822 3061308 3150100 2994624
2556.20 3035106 3300868 3083354 2876282 3203588 3177890
2559.09 3050292 3253652 3405916 3370938 3455912 3274418
2561.98 2961264 3352060 3816306 3589486 3546740 3913892
2564.88 3863554 3470720 3351494 3458828 3726762 3779100
2567.77 3500896 3574922 3847604 4033300 3962556 3931002
2570.66 3934756 3861384 3840250 3824172 3972288 4170248
2573.56 4211306 4196198 3999348 4156294 4613954 4777476
2576.45 4708386 4762822 4839974 4670482 4540340 4658096
2579.34 4789030 4797132 4743526 4886170 4933540 4922460
2582.23 4915840 4983008 5089704 5306262 5388120 5278428
2585.13 5362876 5518590 5756664 5785034 5755508 5570440
2588.02 5392136 5539888 5630422 5686388 5609654 5696570
2590.91 5950280 6150372 5862340 5796882 5893388 6092644
2593.80 6466948 6548566 6521556 6888586 6940568 6789320
2596.70 6788994 6580156 6518386 6626692 6482142 6508704
2599.59 6887670 6971496 6884198 7147756 7201800 7143288
2602.48 7001618 7054360 7136846 7109136 7008228 7141400
2605.37 7360178 7508440 7387278 7309572 7300108 7437364
2608.27 7521600 7420008 7303446 7590538 8075378 8266062
2611.16 7971938 7845336 8028818 8210340 8051052 8200982
2614.05 8458366 8467094 8236170 8186784 8483334 8612398
2616.95 8480932 8524506 8778196 9050824 9152138 9427790
2619.84 9795742 10105380 10375770 10559850 10458940 10334720
2622.73 10167720 9852510 9637664 9563934 9581258 9610354
2625.62 9786818 9846294 9785840 9764182 9936752 10244490
2628.52 10302240 10465870 10523490 10567180 10884590 11197400
2631.41 11183090 11205480 11430090 11461730 11315230 11130670
2634.30 11328640 11603140 11425580 11346030 11479810 11470190
2637.19 11509650 11563410 11508300 11633910 11828970 12060150
2640.09 12151840 12183090 12096610 12172710 12482900 12578890
2642.98 12550420 12545330 12579930 12684180 12858350 12962940
2645.87 13029840 13105890 13044380 13209790 13503120 13407160
2648.77 13307900 13444220 13486080 13517090 13734700 13749880
2651.66 13823620 14125690 14070410 14194590 14420830 14478680
2654.55 14386350 14442620 14430380 14263430 14149030 14150880
2657.44 14369720 14739740 14785070 14788440 14888690 14813810
2660.34 14676280 14833810 15325350 15239510 15098340 15165630
2663.23 15476390 15444520 15231660 15430290 15573330 15420980
2666.12 15534480 15767020 15948090 15890110 15651100 15531190
2669.01 15676880 15872690 15825590 15728650 15909370 15998520
2671.91 15969020 16038000 15915930 15964260 16064030 16149780
2674.80 16210850 16316130 16319030 16298760 16176760 16187140
2677.69 16215270 16427940 16556660 16306510 16438450 16665960
2680.59 17015570 17423640 17339250 17062860 17133740 17300600
2683.48 17234760 17528480 17837940 17592370 17590370 17727360
2686.37 17584730 17439330 17600180 17844270 17826070 17931780
2689.26 18065710 18090000 18315200 18530490 18642250 18709670
2692.16 18524900 18702590 19013600 18969020 18870940 18746420
2695.05 18691460 18904860 19280080 19480320 19622670 19607960
2697.94 19738320 19857430 20160210 20443070 20462050 20544420
2700.83 20825660 20969100 21042570 21171670 21309920 21410060
2703.73 21492400 21631390 22053390 22500760 22729730 22801820
2706.62 22983520 23478550 23771960 24238030 24671020 24793250
2709.51 24693260 24414280 24154920 24508930 25080820 25265180
2712.41 25442280 25810990 26232700 26331300 26451730 26744370
2715.30 26836330 27153200 27633970 27913520 27880460 27913520
2718.19 28361550 28795900 28699700 28708710 29014950 29389510
2721.08 29838750 30033660 30111950 30346020 30278470 30443910
2723.98 30692510 30440520 30304410 30447060 30580120 31006390
2726.87 31382380 31669020 32078030 32656740 33071000 33223620
2729.76 33641990 33814980 34091760 34461580 34594520 34698540
2732.65 34947010 35097960 35471190 36178630 36406890 36718710
2735.55 37317960 37484930 37660010 38266360 38972610 39114730
2738.44 38868900 39080910 39843010 40433660 40807120 41114260
2741.33 41532240 42231230 42572650 42473570 42935570 43370240
2744.23 43235730 43320890 43660700 44149500 44484540 44505070
2747.12 44534760 44401440 44405320 44793520 45119250 45261280
2750.01 45140080 45102590 45258650 45490150 45711370 45525310
2752.90 45422520 45707120 46102190 46198510 46169080 46622190
2755.80 46636270 46867970 47246720 47461260 47478540 47850900
2758.69 48669790 48985710 49034620 49213580 49169630 49160600
2761.58 49254720 49331920 49464120 49525760 49487260 49736290
2764.47 50098500 50051720 50164540 50524740 50537520 50689780
2767.37 51044820 51323640 51401390 51716330 51965990 52059340
2770.26 52561900 52964150 53221180 53612790 53637010 53653880
2773.15 53912720 54551020 55156690 55633070 55406370 55378990
2776.05 55687710 56024960 56548200 57014260 57455260 58017340
2778.94 58512680 58613520 58933070 59195770 59326730 59628940
2781.83 59868140 60277300 60384200 60474880 60431300 60196110
2784.72 59784380 60036910 60173100 60012600 60164860 60447750
2787.62 61095220 62171960 63506450 64583040 65367220 66083470
2790.51 66326620 66832060 67345520 67577260 67933960 68575260
2793.40 69499130 70094500 70384350 70841580 71391910 71806920
2796.29 72300220 72468460 72721230 73174550 73284730 73496930
2799.19 74132410 74870810 74921760 75511260 75969800 76162460
2802.08 76327550 76472950 76480720 76880810 77584800 78121740
2804.97 78115060 78247410 78754570 79292370 79672520 79748690
2807.87 79852580 80144520 80427150 80820980 81293980 82013590
2810.76 82525310 82428990 82763980 83650830 84526890 85218490
2813.65 86026490 87002940 87924620 88998940 89825440 90179990
2816.54 90932270 92059160 93113320 94324140 95582760 97055450
2819.44 98249220 99000490 99580390 100103400 101396800 102844700
2822.33 103890100 104922900 106465700 107400200 108000800 108713600
2825.22 109268800 109971200 110806100 111307400 112174900 113324800
2828.11 114337700 115590200 117231300 119180800 120891400 122463500
2831.01 124463200 126939600 128768500 130136700 132039000 133845600
2833.90 135388300 137163500 139327500 141734500 144036500 146626900
2836.79 149025400 151904500 154502000 156821600 159375900 162104600
2839.69 165030000 167564500 169602100 171680600 173743700 176294400
2842.58 179393500 182804700 186258900 189825800 193225700 196342200
2845.47 199121400 202161500 205974100 210318700 214412800 218562400
2848.36 222683500 227068300 231299600 235361400 239630800 244350800
2851.26 249355200 254200000 259091800 264235500 269487400 274725500
2854.15 279683900 285077800 290964900 296846000 302632000 308225800
2857.04 313739400 319890800 326201200 331475900 337477600 345512200
2859.93 352900800 359748000 367285200 375798400 383823600 391391700
2862.83 398804400 407193900 415464800 423045300 431529000 439977200
2865.72 446928100 453637700 459889500 465620700 470314100 474489900
2868.61 478175200 481877300 485161000 488787200 492976400 496950300
2871.51 499939800 503018700 506109300 509673400 511708700 512785400
2874.40 515991600 520659100 526259100 532890800 540613700 547501100
2877.29 554378700 563213100 569841700 573289000 579252900 590088200
2880.18 600034200 609099700 623279000 637718300 642528200 642996200
2883.08 649386800 658109000 661101500 660891000 663287400 664553000
2885.97 658982000 654170800 654731400 654799300 651101400 651999000
2888.86 658444400 663262000 666265500 672709600 681947700 688024900
2891.75 690357100 693535000 695519300 695843200 695603500 695618700
2894.65 692338900 688050000 687196700 690208900 694547100 700818600
2897.54 708125100 718812400 735933800 768733700 836126800 915930900
2900.43 925542600 865967600 810330000 775576400 755370700 744433500
2903.32 738434000 736918400 740703300 742840000 738179700 733105300
2906.22 729477300 723835500 719378500 719553900 719889400 715687900
2909.11 715591000 722108200 727799000 733870500 737166800 729942900
2912.00 713504000 697401500 689760100 682206600 672116000 668675600
2914.90 669272800 664753900 660825100 662963100 663269100 659615600
2917.79 661134300 663947900 661495700 660541600 664968800 666325000
2920.68 664172700 664915500 665333700 660367700 656622700 654414800
2923.57 649058100 644489500 643877400 643107400 639818800 636300300
2926.47 635401400 635401700 632945000 630333400 627853100 624313500
2929.36 620946600 618739800 616372200 613230800 611339400 610435600
2932.25 609159700 607511600 607309900 608203200 610498400 614003000
2935.14 616239300 616312600 614996300 612364800 610170000 608988800
2938.04 609113000 610272300 611853400 613952700 616552800 620202600
2940.93 624026400 627542700 630284100 633252000 635708500 637436400
2943.82 639478200 641772900 641284400 638655800 635579700 633134900
2946.72 632425500 634680300 638397300 642229400 647663000 655751300
2949.61 663399400 670974000 680195100 688279600 692253800 695520100
2952.50 700306400 705237800 710025500 716892100 722758000 728070600
2955.39 734777100 742703400 749121000 755731300 763217700 769491100
2958.29 773992300 777025500 779219500 782695000 786918700 790734000
2961.18 793461600 799761000 808949700 813828700 818270700 827979100
2964.07 839357800 848912800 859185600 868287800 876820000 892844000
2966.96 910635100 916536200 918249200 925963700 926936300 925168000
2969.86 935952300 949354400 953754900 964076900 969994800 952778500
2972.75 938456500 938021600 929736600 923377500 930275800 931603500
2975.64 923712800 926352200 928508100 914239000 908047000 921303700
2978.54 920457500 905611300 910831900 924464800 922948700 922414700
2981.43 919115800 896388000 877015300 885806100 908073700 931674300
2984.32 948472000 955492400 958515300 965199900 977833400 980393900
2987.21 956751000 941449000 977645200 1109341000 1161365000 990847700
2990.11 855420400 812408600 795458400 787683300 786521500 782941900
2993.00 782737000 786463900 782311100 773524900 777306900 775071000
2995.89 761072600 755539600 752112600 735726700 724651000 723467500
2998.78 713755900 694859500 683736200 675804700 665642100 653644700
3001.68 641112900 632941400 625513600 610307300 597116000 590285800
3004.57 580598300 565321300 554022800 545361500 533078300 519846800
3007.46 510115700 500251800 488421700 477336700 466845200 455263000
3010.36 444023100 433262000 422619500 411250900 401156600 391711300
3013.25 383195500 374393600 364632300 354885000 346087300 337059400
3016.14 328157500 319583000 310826100 302260500 294185600 285430300
3019.03 276914900 269201600 261844000 254057900 245980500 238223200
3021.93 231952300 225102600 217334300 210464000 204274800 197118000
3024.82 190171600 183952500 178128000 172008800 165959800 160151500
3027.71 154480800 148617200 142514700 136438400 131312500 126803600
3030.60 122361800 117501100 112629000 108116200 103571500 99215960
3033.50 95300810 91344890 87472520 83388060 79891880 76491500
3036.39 72776860 69236040 65990760 62879360 60374190 57253300
3039.28 54715270 52034380 49443760 47175430 45516910 43299030
3042.18 40765970 38349700 36526480 34965380 33385120 31795700
3045.07 30007710 28286290 27264210 25664690 24011830 22814110
3047.96 21701360 20670800 19677370 18540770 18076320 17349110
3050.85 16590920 15692380 14398810 13263270 12997730 12478720
3053.75 12075100 11478350 10943890 10406650 9759090 8880110
3056.64 8409008 8291802 7800658 7238426 7456914 7043014
3059.53 6540512 6499120 6658382 6716048 5920238 4976876
3062.42 5223448 5834342 5465462 4734882 4630232 4415616
3065.32 4299934 4191272 3927852 3728610 3764962 3943538
3068.21 3862748 3779658 3862990 3610052 3522714 3373690
3071.10 3389658 3385114 3137330 3033126 3265312 3188206
3074.00 3520004 3475600 3238746 3278776 3525700 3250564
3076.89 3047236 2908130 3096052 3196926 2825276 2544410
3079.78 2752730 2782160 2915736 2819296 2588416 2583824
3082.67 2807340 3100702 3228270 2680256 2143496 2751264
3085.57 3131420 2677528 2647934 3063220 3503854 3348326
3088.46 2834044 2620700 2829454 2841824 3007408 2704312
3091.35 2796814 3199062 3630598 3740670 3203190 2783644
3094.24 2782890 2662350 2619296 2700914 2615524 2647768
3097.14 3039580 3166328 3404736 3099218 2805448 2863804
3100.03 2981374 2897404 2923774 3086594 3191002 2779336
3102.92 2533880 2465626 2758548 3041006 2986974 2981176
3105.82 3375950 3140310 2533368 2429090 2806618 2740270
3108.71 2461654 2608590 2793958 2776266 3075498 2903554
3111.60 2780032 2896050 3027638 2858508 2731860 2830450
3114.49 2650280 2283078 2214780 2505524 2544040 2602038
3117.39 2880672 3057142 2481826 2399794 2679276 2715844
3120.28 2962682 2799012 2659660 2729326 2569272 2066946
3123.17 2216746 2515646 2600634 2697938 2907226 2969836
3126.06 2875326 2473252 2588980 2871106 2637666 2447012
3128.96 2578838 2609150 2793012 3070564 2696842 2246800
3131.85 2266504 2414710 2707322 3164080 3070050 2521644
3134.74 2494574 2616120 2580460 2234686 2378890 2762562
3137.64 2986054 2868684 2534594 2425834 2957860 2988656
3140.53 2903414 2991184 2825496 2413230 2368810 2490874
3143.42 2679464 2383800 2370346 2753870 3312234 3279246
3146.31 3283088 3314786 2822848 2942836 3232018 3104444
3149.21 2908738 2830026 2809454 2643602 2563098 2915612
3152.10 3360094 3032990 2753402 2987112 3179266 3239192
3154.99 3095604 3038730 3629758 3995756 3665816 3251018
3157.88 3104054 3088634 3642848 3773756 3242470 3095714
3160.78 3114684 3336314 3587156 3426714 3681060 3856640
3163.67 3824186 3981812 4179086 4327360 4590222 4009002
3166.56 3213124 3609944 4543410 4292418 3695926 3748348
3169.46 3894956 4151280 3916610 3769392 4264032 4075930
3172.35 4068174 4632890 4606460 3758020 3571954 3894792
3175.24 3914478 3841242 4009208 4207422 4530240 4544642
3178.13 4655168 4496520 4674770 4856288 4920512 5108220
3181.03 5093106 4682850 4715974 4760282 4926520 5861282
3183.92 6234708 5961158 5517558 5673422 5569476 5430080
3186.81 5572022 5615834 5651334 5520758 5682066 6152986
3189.70 6032774 5568120 6140932 6412178 5996130 6234368
3192.60 6530620 6437964 6682670 7116762 6874206 6530174
3195.49 6423486 6540732 6828492 7149766 7223132 6950098
3198.38 7270446 7588884 7501718 7087200 7035990 7375668
3201.27 7457578 7749858 8299534 8204896 7728152 7726380
3204.17 8070118 8813144 8938128 8560552 8596204 8923480
3207.06 8577428 8487402 8803354 8588340 8548062 8489962
3209.95 8370476 8724702 9177324 9002104 8475646 8518410
3212.85 8805092 8702144 8975872 8676312 8898578 9660522
3215.74 9539054 9134518 8846612 8890578 9378660 9706750
3218.63 9429996 9100276 9456922 9203868 9145900 9664390
3221.52 9556420 9329718 9519520 9762758 9669670 9673200
3224.42 10011000 9971088 9319020 9090902 9191752 9156060
3227.31 9284716 9377480 9153436 8907392 8862748 8657516
3230.20 8430812 8388586 8030562 8056128 8709744 8546226
3233.09 7988104 7849098 7790594 7818928 7802970 7468820
3235.99 7308936 7140886 7055640 6995434 6903634 7192244
3238.88 8099478 7609688 6269766 5675850 6105722 6697804
3241.77 6746704 6305958 5820324 5499752 5348482 5444172
3244.67 5213122 4890790 4350636 4736916 5133590 4811064
3247.56 4446094 4509466 4759784 4535990 4364754 4181164
3250.45 3858836 3636838 3182166 3006918 3791930 4174908
3253.34 3711540 3150800 3290290 3261194 2932096 2775386
3256.24 3102836 2558520 1862034 2168054 2658036 2688888
3259.13 2594004 1826494 1621034 1760976 1635224 1436630
3262.02 1300546 1255178 1126784 749320 641208 498572
3264.91 813036 959778 669216 209774 248848 424466
3267.81 1054046 1173460 716398 290632 438816 483878
3270.70 130658-155168-196448-332222-1012114-977560
3273.59-362914-289466-419482-412982-451656-776360
3276.49-717502-358386-404692-683266-663330-1011214
3279.38-1020678-581462-417578-524722-386990-1052474
3282.27-1617118-1821298-1577534-1280136-1312888-968970
3285.16-873426-1004864-1092340-1274126-1585010-1551990
3288.06-1211894-1287080-1410012-878706-859910-1234740
3290.95-1365340-1428322-1146802-1288216-1715824-1710272
3293.84-1614938-1457566-1398494-1397546-1111276-999664
3296.73-1015806-714588-788200-1252982-1431186-1381860
3299.63-1504590-1936282-1715844-1377116-1284848-1102346
3302.52-937110-898160-1039910-1301386-948246-964646
3305.41-1434616-1282498-946306-852184-1110108-1089966
3308.31-944448-1272260-1728616-1469538-1210550-1223644
3311.20-1399622-1493626-1549570-1599332-1695244-1128600
3314.09-1199158-1617114-1818120-1878592-1898890-1328630
3316.98-565120-709014-1451782-1485248-1377054-1717828
3319.88-1744380-1698696-1905664-1757610-1424542-1547110
3322.77-1441760-1209094-865502-760970-1279796-1413718
3325.66-1461504-1380882-851192-1114204-1621884-1500090
3328.55-1226392-1075754-811734-1109330-1530636-1563548
3331.45-1312384-876762-890950-1082674-1395008-1576578
3334.34-1532856-1562060-1207046-781118-753826-956710
3337.23-1152436-895096-653954-797216-1003134-1155602
3340.13-936672-1099130-1923224-2115580-1163622-288254
3343.02-349716-799382-1003346-617922-471660-501422
3345.91-1328304-1415242-599366-306342-392094-667352
3348.80-630016-517172-579624-622224-964348-883936
3351.70-445316-568418-665554-744104-811766-823636
3354.59-434944-314026-615644-906294-647778-354240
3357.48-26688 2712-170736-165286 220080 51950
3360.37-502506-157244 493140 229112-327622-620580
3363.27-366060-164520 147776 645636 884770 943408
3366.16 522810 416306 793340 830180 525214 775638
3369.05 1068960 512458 371286 1157388 1658426 1180586
3371.95 964356 1107486 1377692 1850688 2064638 2205748
3374.84 1424804 1117672 1485758 1532814 1774208 1821208
3377.73 2288336 2685684 2652238 2789304 2883294 3042252
3380.62 2907022 2486810 2828384 3463684 3078808 3032744
3383.52 3602466 3539578 3286112 3568400 3684006 3716184
3386.41 3841532 3552360 3347734 3412132 3435032 3759572
3389.30 4052802 3796526 3682622 3751464 3819002 3527566
3392.19 3742304 4120244 4237060 3920754 3748704 3760410
3395.09 3914272 3891156 4240824 4769822 4215774 3979796
3397.98 4769116 4302948 3689780 4587916 5097946 4875030
3400.87 4397856 4503454 5019930 5156840 5428054 5700970
3403.77 5518776 5136314 5046346 5358886 5695148 5580208
3406.66 4944710 4475040 4366602 4329928 4971040 5686630
3409.55 6479084 6158568 5191952 5183504 5688644 6107544
3412.44 6101172 5812172 5656728 6041884 6176270 6067168
3415.34 6417402 6202724 5722120 5618352 5319054 5449534
3418.23 5217216 4575508 5070666 4871880 4355508 4895330
3421.12 5102872 4948574 5045420 4585988 4005574 4442428
3424.01 4714496 4532606 4778072 4649596 4199964 4250964
3426.91 3951018 3628478 4099802 4641778 4327674 3849066
3429.80 3859626 3886662 3864094 3877830 3841272 3824600
3432.69 4049676 4479212 4476292 4097614 3897974 3969894
3435.59 4101906 4041316 3584952 3820376 4471486 4693842
3438.48 4426222 4119528 4247532 4862014 4299818 3734780
3441.37 3864574 4243532 4573754 4648026 4446610 3924012
3444.26 3840012 4759144 5129948 5044200 5093786 4833536
3447.16 5040968 4846768 4274434 4423848 4960748 4712486
3450.05 4398702 5008274 5764672 5804942 5577000 5287272
3452.94 5160934 5336134 5614138 5985772 5538826 5249914
3455.83 5766412 5864430 5419862 5447564 5417086 4811224
3458.73 4714772 5109426 5735318 5704964 5654500 6203708
3461.62 7057408 7042798 6749446 6204844 5948598 6029928
3464.51 6361870 6952400 6720602 6647474 7158394 6711350
3467.40 6506086 6791054 6476290 6085572 6218832 6515326
3470.30 6670542 6858286 7250448 7717480 7520318 8078426
3473.19 9722416 10892540 10233110 8682020 7667726 7167296
3476.08 7222080 7972184 8290032 7742482 6493216 6471514
3478.98 7081858 6952838 6660832 6882894 7175438 7026766
3481.87 7077160 7150190 6698416 6299682 6867706 6928790
3484.76 6463360 6579504 6729692 6773418 7230052 7088656
3487.65 6511160 6272372 6219936 6276338 6171230 5924060
3490.55 6185234 6246308 6261854 6007266 5708558 5479986
3493.44 5907550 6353982 6481476 6344374 5849356 5180952
3496.33 4968666 5324762 5670206 5371928 5343872 5473904
3499.22 5078902 4376174 4480548 5140362 5255094 5339804
3502.12 5704270 6300700 5890394 5284736 5305776 4975534
3505.01 4777236 4354172 4304534 4394220 4719714 4877052
3507.90 4778768 4936100 5038736 4569164 4035370 4158914
3510.80 4235620 4095138 4194784 3902258 3980602 4776008
3513.69 4882840 4394844 4100688 3792128 3888372 3896204
3516.58 3830436 3580246 3511216 3403182 3777086 3828662
3519.47 3994092 3701408 3318448 2880420 3012238 3120476
3522.37 2893030 3029774 3107768 3387672 3188338 2836790
3525.26 3476430 3743866 3202796 2667972 3083704 3465946
3528.15 3418332 3191670 3075004 3244774 3730294 4169920
3531.04 4159586 4007252 4312048 4209000 4081852 3763056
3533.94 3683320 3761942 3732632 3548094 3734998 4092932
3536.83 4073398 3547246 3276550 3371980 3741542 3607292
3539.72 3753766 4069502 3632206 3115400 2984664 2939250
3542.62 3285862 3762766 3855542 3800542 4009842 3922528
3545.51 3584160 3911854 4362382 3885250 3420690 2999306
3548.40 3217476 3461306 3450376 3855724 3823268 3299016
3551.29 3545392 3553174 3227526 3623150 3705584 3484872
3554.19 3894662 4010358 3762730 3845866 3896764 3281928
3557.08 3420400 3779846 4141282 4374390 4485646 3800970
3559.97 3438598 3765828 4331482 3970264 4211260 4797128
3562.86 4758972 4391082 4085848 4188826 4401720 4549770
3565.76 4540020 4460986 4550898 4642552 4629708 4483012
3568.65 4425786 4296790 4317908 4261752 4049946 3691188
3571.54 2984980 2495308 2522890 2945360 3755768 3785402
3574.44 3550196 3330842 3265902 3031712 3091606 3558682
3577.33 3684910 2979698 2898230 3492538 3981008 3978922
3580.22 3751602 3487788 3275134 2854028 3084354 3329236
3583.11 3293528 3703438 4281840 4514356 4310534 4454524
3586.01 4568224 4167882 4140462 4284234 4027066 4213330
3588.90 4804052 5192240 5312312 5533992 5945318 6247836
3591.79 6564230 6628486 6945628 7067024 7478650 7737532
3594.68 7592880 7681586 7742380 7511992 7394722 7787538
3597.58 8326080 8269394 8353072 8953064 9651196 10011190
3600.47 9851008 10124270 10427260 10392730 10557970 10850140
3603.36 11307230 11566070 11719680 12107400 12814130 12552570
3606.26 12460540 12821430 13171930 14131010 14567460 14682780
3609.15 15235430 15669280 16191610 16732780 17296500 17933630
3612.04 18808400 19347160 19960360 20707680 21459400 22506700
3614.93 23410780 23935180 24486790 25273450 25665830 26396460
3617.83 27599860 28254210 28788040 29549370 30174220 30924260
3620.72 32006120 32942410 33691640 34477220 35787820 37190170
3623.61 38541970 40296550 41287060 41239460 42174210 43360690
3626.50 44138510 45080670 46566440 47849150 48549420 49574190
3629.40 51548110 52620720 53088670 55372600 58630000 59125460
3632.29 59664470 62884200 65792410 66312250 68287000 72512890
3635.18 74260240 73828820 76504640 80338960 81535020 81933850
3638.08 86190340 91067380 91728020 93240500 98715180 102069100
3640.97 102486600 104976300 110400400 113284300 113482700 117383000
3643.86 123228500 125586700 126613800 132058100 137045000 136576100
3646.75 138563400 144893000 148307100 148446600 152959900 158323000
3649.65 158238600 159078200 163558000 166183700 167087600 170459900
3652.54 174219000 175229200 177293000 181865900 189234800 203527600
3655.43 214611600 207814500 200385100 205224500 220266600 237815800
3658.32 242680600 228621100 215494400 214357900 221389900 234024800
3661.22 250722700 254099700 239753100 229938700 226425800 225132100
3664.11 227741800 229232600 228041200 230007200 232613200 230237900
3667.00 230110200 233291200 231082000 227148800 229246200 229875200
3669.90 227306500 228756400 230995600 227876300 224987700 226096000
3672.79 226173200 227495300 238799300 258067200 285713100 335049600
3675.68 384136200 347553200 258137900 208402800 190685300 182098400
3678.57 179001200 180205200 180105000 180831200 184165200 187486000
3681.47 189612400 195666400 207713400 223298000 229357400 219819700
3684.36 206684300 200152900 198211000 197247100 196448100 196529900
3687.25 196185200 195621300 194344300 193356500 192307600 190849000
3690.14 189175000 187070900 184224700 181933000 179017700 175060900
3693.04 170726700 166759000 162453100 157414600 152524400 148552100
3695.93 143749200 138197600 133125000 128243300 122953400 118507300
3698.82 114004700 109290300 104448300 99826780 95188140 90578800
3701.72 85698390 81338940 77330700 73354120 69634210 66382440
3704.61 62934600 59886120 57647740 55271840 52457720 49783920
3707.50 47538980 45513090 43243430 41196820 39867780 38650470
3710.39 36682500 35405840 33607380 31522550 29366050 27648490
3713.29 26594630 25387200 24281810 23565180 22880850 21905790
3716.18 20903560 20604780 20284540 20313400 20150800 19431990
3719.07 18874900 18425100 17710810 16752340 15826870 15006990
3721.96 14298220 14185940 13440490 12697010 12599010 12209820
3724.86 11742180 11558520 11378860 10925580 10358760 10302360
3727.75 10092350 9832636 9946586 10374590 10013750 9094968
3730.64 8278324 8541264 9001316 8676922 8366302 8582318
3733.54 7851510 7427778 7849538 8162302 7929352 7720516
3736.43 7640874 7509196 7079346 6519934 6280326 6214870
3739.32 6071766 6262534 6291624 6277998 6465010 6443140
3742.21 6034196 5565868 5618738 5690146 5744150 5975510
3745.11 5589356 5894622 6570878 6438224 6061814 5880820
3748.00 6161078 5969156 5715552 6156844 6594076 6655916
3750.89 6847442 7036738 6779288 6476164 6376386 6669700
3753.78 6905804 6491208 6269360 6441448 6090246 5734108
3756.68 5450206 5846802 6479864 6091440 5804946 6035870
3759.57 5896532 6035414 6631010 6657532 6246436 5578846
3762.46 5070122 5425720 6066608 5785668 5510510 5903566
3765.35 6262990 5851904 5120840 5162468 5439588 5091852
3768.25 4735078 4717472 4675598 4738982 5022752 4920302
3771.14 4722922 5083806 5670042 5840498 5559262 5560770
3774.03 5560186 5713098 5876900 5675364 5529896 5968840
3776.93 6409076 6484830 6360064 6726944 6681116 6511556
3779.82 6708860 6679026 6747274 7035146 7238900 7337048
3782.71 7879024 8412144 8604244 8179362 7398488 7652984
3785.60 8201590 8351030 8225168 8311122 8663338 8838866
3788.50 8888930 8641412 8515580 8593860 8386600 7909142
3791.39 7464772 7841500 7999076 8005886 8028464 7938378
3794.28 7627714 7633326 7488866 7410850 7114940 6775236
3797.17 6844088 7042334 6827812 6703266 6244112 6389010
3800.07 6945070 6953712 6608860 6444402 6585396 6919388
3802.96 7176452 7018590 6797966 6732652 6642312 6641484
3805.85 6732588 6970544 6924416 7162806 7253554 7035312
3808.75 6901226 7064198 7252520 7195808 7139448 7402574
3811.64 7647572 7505710 7301726 7233886 7595200 7501748
3814.53 7284894 7479606 7711494 7049294 6330580 6262670
3817.42 6769692 7399504 7235178 6954252 7310838 7503124
3820.32 7498992 7769264 7664706 7703374 7636626 7616214
3823.21 7409044 7239362 7510408 7567588 7968310 8047490
3826.10 8285254 8626558 8581490 8837524 9461508 9308448
3828.99 8813690 8359600 8602628 9210968 9462002 9520942
3831.89 10219040 11451950 12692870 11976660 10220630 9833854
3834.78 10479950 10248800 10126230 10344890 10318900 10073820
3837.67 9599014 9244330 9435468 9739090 9835488 10100960
3840.57 10503470 10282530 9593276 9603366 10028900 10147690
3843.46 10330070 10849610 10939470 10776080 10467900 10444550
3846.35 10963250 10939050 10723440 10924350 11299250 11397180
3849.24 10677430 10108200 10009610 10084450 10278770 10253900
3852.14 10415410 10603170 10318940 10438000 10895260 10752530
3855.03 10136180 9922696 10144770 10290560 10543070 10585560
3857.92 10255100 10099480 9994638 9554306 9676306 10041010
3860.81 10095630 9869184 10023450 10242150 10195450 10237050
3863.71 10438790 10345310 10123360 9841116 9484932 9772938
3866.60 10275510 10963000 11019470 10620080 10125180 9661556
3869.49 8897862 8194278 8104916 8378772 8489124 8741812
3872.39 9147628 9363000 9170300 8933920 9123114 9385780
3875.28 9381074 9186286 9173192 9083292 9020300 8907514
3878.17 8876772 8721668 8672484 8926270 8469348 8102214
3881.06 8511412 9053832 9072670 8858156 8498378 8795456
3883.96 9411338 9299888 8905356 9409898 10589460 11003950
3886.85 10411140 10049150 9253356 8207666 7682672 7354406
3889.74 7038410 7250066 7523366 7587224 7645860 7722542
3892.63 7850480 7518022 7045336 7023884 7284440 7167416
3895.53 6989308 7198666 7438626 7140556 6896248 6945378
3898.42 7139100 7049560 6684886 6607396 6668438 6825590
3901.31 6902090 6679416 6320774 6143868 6367524 6511584
3904.21 6330112 6272164 6598974 6457922 5771880 5877606
3907.10 6288242 6309858 6240306 6314122 6277328 6151974
3909.99 6060398 5998580 5492002 5250208 5520666 5887794
3912.88 6041538 5952320 5780506 5869732 6112220 5774252
3915.78 4975966 4800922 5365336 5656110 5237886 4971922
3918.67 5283186 5103358 4689566 4645250 4664568 4434034
3921.56 4850746 4975566 4924738 5032300 4922552 5029512
3924.45 5338104 4892202 4628594 4709728 4521072 4140654
3927.35 4282872 4738836 4795600 4598140 3998392 3454874
3930.24 3571448 3635146 3649374 3753422 3761156 3656488
3933.13 3884210 4313004 4294950 4023796 4032712 4223656
3936.03 4088120 3542258 3380818 3482294 3369380 3430184
3938.92 3618230 3797030 3869722 4148748 4436992 3972788
3941.81 3717096 4005764 4110562 4104692 4267158 3710364
3944.70 3520426 3821502 3887890 3853938 3740142 4038752
3947.60 4665284 5052802 5164876 4290422 3625662 4003302
3950.49 3824390 3806914 4194230 4338372 4087922 3981844
3953.38 3943146 4339234 4481654 4289664 4450618 4256660
3956.27 4180916 4584870 4841320 4843982 4601820 4666256
3959.17 4314998 4187644 4552762 5210708 5422108 5216814
3962.06 5146104 5207634 5103616 4700210 4665752 5292154
3964.95 5363002 5374786 5368950 4879150 4519252 4637594
3967.85 5210952 5625336 5342856 5632362 5760370 5427714
3970.74 5289734 5144654 4827600 5018912 5766136 6192644
3973.63 5595596 5468530 5766578
##END=
