##TITLE=Ethanol
##JCAMP-DX=4.24
##DATA TYPE=INFRARED SPECTRUM
##CLASS=IUPAC A
##ORIGIN=NIST, Anayltical Chemistry Division, 301-975-3108
##OWNER=COPYRIGHT (C) 1998 by the U.S. Secretary of Commerce
##DATE=98/10/1
##$SPECTRA VERSION=1.00
##$UNCERTAINTY IN Y=2.0 % relative (B=1.0E-04,C=2.9E-10,D=2.7E-14)
##CAS NAME=Ethanol
##CAS REGISTRY NO=64-17-5
##MOLFORM=C2 H5 O H
##MP=-117.3 C
##BP=78.5 C
##$NIST SOURCE=QUANT-IR
##SPECTROMETER/DATA SYSTEM=IFS66V (Bruker)
##INSTRUMENT PARAMETERS=KBr Beam splitter; MCT Detector; Multipass cell
##STATE=gas
##SAMPLE DESCRIPTION=Ethanol Primary Gas Standard
##PRESSURE=101.3 kPa
##TEMPERATURE=23 C
##SAMPLING PROCEDURE=1 L/min Flow
##RESOLUTION=0.9640
##DATA PROCESSING=Triangular Apodization
##XUNITS=cm-1
##YUNITS=(micromol/mol)-1m-1 (base 10)
##XFACTOR=1.0
##YFACTOR=2.2737E-13
##DELTAX=0.4820
##FIRSTX=575.169
##LASTX=3975.077
##FIRSTY=2.26E-06
##MAXX=3974.59
##MINX=575.17
##MAXY=.0003198
##MINY=-4.41E-07
##NPOINTS=7053
##XYDATA=(X++(Y..Y))
575.17 9963108 10737650 11246980 11970960 13413420 12364730
577.58 8233772 6832522 7206872 7620632 9591872 8295244
580.47 6687678 10094920 11618160 9534596 10506880 14084330
583.37 12808650 10941620 10975860 11838640 10862690 9634848
586.26 8249120 6768266 7104330 9582786 12835710 10972110
589.15 8562756 9662964 10833120 11064070 10412820 9678778
592.04 10116720 10990360 10641260 10042470 11284560 10650660
594.94 10189410 11684420 12582210 11498110 12468240 12614330
597.83 10397340 10932750 11387880 11258830 11823760 12297030
600.72 11196350 10594380 11652140 12224280 11047970 10242090
603.61 11011380 11968250 12563870 12539190 13373500 13086440
606.51 11928430 12200080 12282690 11874710 12453630 12967000
609.40 11788690 11835580 11681930 10983800 11114740 11340330
612.29 11506300 10267410 11215860 12981860 12594310 12069040
615.18 10628740 10624960 11542390 12976200 13888500 11711290
618.08 10903810 12304660 12846960 12333340 12930100 13933220
620.97 13091700 12856970 12322120 11254200 11787930 12329850
623.86 11198890 10873790 11754800 11718190 11763870 12010430
626.76 12401470 12060730 11125560 11098870 10988990 10560850
629.65 10753460 10968060 11457920 11516420 10540080 10396930
632.54 11211730 11569990 11991360 11350730 10297150 10498370
635.43 11228000 11038630 10667770 11456460 11149830 10545620
638.33 11047970 10808100 10833940 11029530 10652510 11322540
641.22 11212040 10708400 10033900 9432010 9797708 10406020
644.11 11001090 10556790 9587340 9872896 9910208 9183762
647.00 9160814 8625650 9084710 9480332 9217720 9207584
649.90 8644204 8327210 8148140 8230472 7018206 6651810
652.79 7777032 7881290 7538298 6872120 6871986 7798928
655.68 7519266 6408222 6114902 6723938 8082410 8507392
658.58 7996376 7558054 7517522 6929240 7584124 8439736
661.47 7422952 7297686 7705170 7283376 5997514 5895154
664.36 7374006 7220386 6853090 7189934 7223514 12089430
667.25 15472970 11358460 8417152 8421674 7953330 6412460
670.15 5865396 6526218 7322164 7015508 6276852 6265882
673.04 6047456 5867662 5738832 5647128 6338788 6942010
675.93 5743686 5028788 5825110 5427426 5078636 6177284
678.82 6502714 5260460 4659482 5660036 6607470 5870266
681.72 5030210 4844182 5165266 6377928 6412198 5835350
684.61 6046250 6130004 5164326 3879444 3915924 4483208
687.50 4673242 4725134 4964610 5176438 5545372 5231700
690.40 4162246 4112788 4088454 3329862 3094712 3556418
693.29 4567970 4673596 3792878 3618418 3482090 3100736
696.18 3577448 3771086 4112880 4188476 3343464 2692956
699.07 2537370 3324828 3726128 3733328 3882072 3848848
701.97 3353060 3180002 3105032 2811202 2858994 2816738
704.86 2449230 2471196 2488926 2578562 2105954 1763664
707.75 2442160 2708190 2623248 2636866 2803794 3032990
710.64 2744444 2505708 2447602 1980656 1969214 1777576
713.54 1760792 2277178 2622664 2345430 1898680 2076632
716.43 2071496 1865276 1576744 1916160 2205362 1895900
719.32 1765582 2366820 2960188 2710996 1774638 1442512
722.22 2420720 2804210 2821704 2871168 2485054 2671886
725.11 3456730 3096818 2889632 3015654 2944624 3043922
728.00 2650712 2547998 2099224 1916830 2070100 2820848
730.89 3553446 3032010 2621118 2164968 1714920 2197918
733.79 3108308 2935820 2548610 2802874 3364902 3372462
736.68 2770548 2457170 2345772 2484362 2619538 3092796
739.57 3533982 3784390 3666252 3297752 3256624 3343110
742.46 3303826 2986166 3212698 3947320 4072052 3934550
745.36 3844192 3514882 3817612 4240432 3785176 3469654
748.25 3353854 3351580 3760132 3762850 3264226 3514176
751.14 4248124 4064338 3805334 4170746 4409642 4454136
754.04 4411100 4040342 3656458 4241946 5010996 4979460
756.93 4597256 4425214 4894262 5549240 5705588 5315558
759.82 5875152 6374952 5764456 5160656 5185818 5545588
762.71 6411120 7149594 7134780 7377030 7350952 7045116
765.61 6926488 6986512 7011854 7524572 7692616 7862558
768.50 8809700 9159866 9077954 9035352 9381240 9298668
771.39 9040504 9175332 10291180 11118680 10249500 10679610
774.28 11437170 11392650 11839510 11543230 10906680 11247360
777.18 12245090 12918220 13505280 13602030 13135670 13271690
780.07 13643920 14151080 14678470 14750090 14714580 15072720
782.96 15514810 15758990 15977570 16654400 16704860 15909740
785.86 16368050 16978250 16401010 15973820 16997990 17836450
788.75 16628020 16459390 17593510 17035550 15646480 15746030
791.64 17080420 16866300 16278640 17295570 17689250 17091790
794.53 17497040 17848210 16837250 16770090 17499520 20446660
797.43 22442370 20086230 18332460 17669370 19449320 24126480
800.32 29453360 30340530 24763680 20602410 19650060 19219140
803.21 19019510 19378880 21681320 23526430 21661060 19287930
806.10 18205710 18096500 18341110 18140920 18184250 18177370
809.00 18011050 17710080 18655110 20646960 20349060 20128300
811.89 20918100 20936980 20633250 19482520 18895720 17884990
814.78 17885270 18647670 17844020 18217330 18789880 17778110
817.68 17496610 17902500 18393080 18521910 18293110 18440160
820.57 18826440 18025050 16949910 17895400 18451730 17470200
823.46 17040600 17497080 17044540 17211770 17646400 17614140
826.35 17995570 17700340 17629360 17729320 17753960 17630250
829.25 16937540 17145760 17630980 17423190 17502290 17695920
832.14 17410790 17550810 18040290 17929390 17453080 18284220
835.03 19121260 19342840 19509740 19385610 20091650 20328610
837.92 20022080 20480250 21276110 21464090 22172840 23174210
840.82 23533680 24316430 25209510 25629230 26575830 27586220
843.71 28313340 29240540 30567790 32000980 32783820 33155280
846.60 34246950 36659040 38706300 39821220 41803660 43588400
849.50 45114700 47208740 48932440 50670400 53359590 56302360
852.39 58952300 60890020 63365630 66874820 70065150 72665530
855.28 75793980 79306800 82367960 85666950 89715540 93511860
858.17 96701020 101169300 105633400 109052600 112808400 117126400
861.07 120325300 123511500 127968000 132403000 136200000 139896800
863.96 143801400 146232400 149424500 154109200 156743000 157062500
866.85 159688600 163396000 163594000 162631000 165400300 167785000
869.74 166634500 165421000 166319400 165269000 161183600 159700500
872.64 159141000 156509400 153969100 151683100 149520100 147274600
875.53 145746600 145169500 147253800 150334200 158012600 173042200
878.42 235950800 285566000 223560700 164935300 154717300 154364300
881.31 160663200 172959300 189839900 186458900 172034900 163265600
884.21 161240000 162584400 162759100 162546200 162765000 162157700
887.10 162568900 165505800 167664200 169858600 173135100 180069000
889.99 190824700 218857300 248152300 231516000 205141700 197814800
892.89 193247600 187749400 184763600 185618400 186266400 186223500
895.78 186650000 187994200 188019900 186019000 184569700 184727000
898.67 182984500 179758400 177548900 175653900 172218300 168869700
901.56 166382500 162580700 157990300 153881900 149809500 145877300
904.46 141614300 138059300 134079500 128393100 123975700 119819300
907.35 114705600 110553600 106603800 102019800 96980650 93071670
910.24 90065400 86468390 82363940 78652030 75681950 72092600
913.13 68407220 65180180 62737420 60125460 57369960 55346490
916.03 53291800 50553460 47981760 46664280 45209440 42801840
918.92 40975030 39999340 38637070 37186000 36321990 35205170
921.81 34046630 33348750 32297940 31199000 30367110 29854040
924.71 29617040 28876550 28025030 27739670 27362110 26693190
927.60 26138700 26008140 25803310 25459080 25128570 24429850
930.49 23627470 23331510 23158590 22724380 22262800 22087530
933.38 22184220 22026200 21605410 21289420 20911460 20834940
936.28 20934670 20505340 20420930 20317980 20098250 20088330
939.17 19799090 19484120 19441150 19594220 19284420 18903740
942.06 18797210 18894110 19124910 18736260 18516820 18568010
944.95 18480650 18449740 18313160 18137840 17998770 18326890
947.85 18351220 17897530 17832230 18081160 18044910 18182660
950.74 18147360 18005250 18380220 18554530 18483910 18485690
953.63 18531290 18405750 18298460 18447660 18710680 18843180
956.53 19087040 19564390 19741480 19592740 19989760 20611090
959.42 21313240 21802470 21522080 21300560 21955790 22174930
962.31 22119470 22502230 22766030 23008310 23089650 23274390
965.20 23895600 24527140 24899650 24984650 24953720 25513930
968.10 26354340 26877430 27404760 27904560 28394160 29255380
970.99 30034570 30781310 31412780 31760770 32137370 32584870
973.88 33210540 33993630 35034870 36025380 36365340 36954940
976.77 37642840 38370410 39065030 39977670 41384360 42387360
979.67 43311130 44465760 45469570 46469480 47882780 48918980
982.56 49876290 51480620 53180780 54508400 55738110 57130350
985.45 58790090 60575860 62252330 63888520 65932430 68333310
988.35 70630290 72747270 74657140 76917860 79758130 82640220
991.24 85203280 88199580 91400500 94177750 96918870 99647400
994.13 103050600 106795300 110650700 114865400 118512000 121983900
997.02 126596700 131433700 136367200 141470800 146555700 152030400
999.92 156970500 161918300 167726200 174632500 180739100 187096700
1002.81 196458400 205533600 213960900 220858700 226795500 232611200
1005.70 237662500 243948700 251481600 258922500 265049500 271698500
1008.59 280974800 290314900 297762200 306695200 316353300 324103700
1011.49 332159800 340821500 349301300 353581100 359499900 371219600
1014.38 378197600 382296300 386736400 394778800 399077900 398291200
1017.27 402337800 410714600 417046000 416234500 414342000 420730300
1020.17 425139200 424905600 429192200 436677100 441444600 441065600
1023.06 443007000 450785000 459703500 472530500 498825700 540885700
1025.95 590538000 665107600 754550200 777310800 681594600 561689300
1028.84 520786200 516682300 523912300 538902600 551543900 570114600
1031.74 592824800 610600000 623413200 638017700 659649000 684430000
1034.63 707586600 738238000 781359200 839981600 892065400 931357400
1037.52 912992800 869966000 874967200 890720800 904146000 923523600
1040.41 945872800 958203300 968579800 982159400 996869800 1012398000
1043.31 1025240000 1036436000 1043877000 1056197000 1074433000 1087232000
1046.20 1095004000 1100814000 1098026000 1096468000 1104006000 1115218000
1049.09 1125544000 1136043000 1139764000 1135100000 1140690000 1149572000
1051.99 1154956000 1155385000 1145841000 1137294000 1134496000 1136266000
1054.88 1146535000 1155939000 1170725000 1202323000 1239169000 1271854000
1057.77 1242920000 1149069000 1083062000 1052159000 1035052000 1022232000
1060.66 1014452000 1018074000 1025485000 1043025000 1067739000 1095721000
1063.56 1124236000 1154842000 1216609000 1297178000 1384352000 1406759000
1066.45 1301645000 1237224000 1164142000 1066845000 1040676000 1026530000
1069.34 1038595000 1051472000 1055433000 1072151000 1083669000 1093729000
1072.23 1110672000 1115977000 1122641000 1133324000 1136347000 1131012000
1075.13 1127048000 1127209000 1125392000 1120205000 1109119000 1098749000
1078.02 1085854000 1074772000 1058045000 1034887000 1016536000 995769300
1080.91 975487800 955144100 932113400 908690600 886432700 868751700
1083.81 850258800 828221600 803889200 781667600 765589600 748140400
1086.70 721697700 693572400 681709400 675820700 666427300 663481200
1089.59 647796700 599559200 542252500 506825300 490417900 479534500
1092.48 470535200 462625500 457138300 451451100 443395800 437364400
1095.38 434190400 436440800 438214400 429124700 424021600 422945700
1098.27 419233800 418775300 417381200 412848700 410027600 407939600
1101.16 401724100 396053000 394566900 391043900 383551500 378430500
1104.05 374504100 365489300 357911400 351492600 340940300 332856900
1106.95 327298200 318452500 308564900 301282500 293907600 285370500
1109.84 278178600 268796100 257243400 247674700 239264000 232133200
1112.73 226197200 220773000 214783000 209890500 203978600 192776200
1115.63 181858600 176492900 175336800 171561600 163569400 158968900
1118.52 156094600 149641000 143460000 139668100 136749100 133136200
1121.41 129553500 127123500 123684100 120332900 118485700 116620400
1124.30 114026100 110772700 109981400 108563600 104271000 101551900
1127.20 101305200 99813290 96402800 94134750 93717810 91503020
1130.09 88094420 88490750 87359130 83135250 81606880 82324820
1132.98 80836180 78119090 77329660 77422080 74674830 71251740
1135.87 70658440 70517710 68657500 66808520 66237730 64913800
1138.77 62962800 61881040 61772050 61119020 60006010 59428040
1141.66 58334590 56436280 54738380 54269600 54347820 53981430
1144.55 53131040 51846870 50751580 49990860 49604370 48935280
1147.45 48545200 48107570 47563060 47236430 46676580 46683300
1150.34 47193220 47432560 47813940 49218140 49536070 48071670
1153.23 46659740 46114650 46048610 45938260 45657800 45226980
1156.12 44912600 44573330 44278500 44484980 44621260 44445750
1159.02 44122440 43769320 43607260 43768490 44537050 44467020
1161.91 43874020 43961240 44122280 44309020 44397500 44876960
1164.80 45329060 46376110 46344700 45070720 45341660 45545680
1167.69 45096170 45187940 45644070 45681870 45295700 45066280
1170.59 45419960 45982660 46268410 47080080 47708100 47780810
1173.48 47730980 47962690 48505610 48568460 49191030 49886600
1176.37 50151260 50994370 51791610 51787400 51918810 52928100
1179.26 53952020 54679070 55378090 55764600 56522510 57535550
1182.16 58218400 58897800 59803660 60533120 61055190 61921010
1185.05 62742540 63379380 64077100 65086960 66095880 66522260
1187.94 67116050 67970730 68690250 69266850 70057020 71005180
1190.84 71943130 73327100 74920330 76224260 77196070 78437740
1193.73 79751060 80776760 81975360 83041750 84394240 85813700
1196.62 86782400 87575680 88580740 89747450 90611300 91170940
1199.51 92091940 93255720 94713860 96014760 97197450 99151000
1202.41 101050200 102535000 104166300 106151100 108414400 111762500
1205.30 113741500 114478200 117438000 121348600 123874300 124805000
1208.19 126934800 130231200 134707900 138514400 139944700 143549600
1211.08 148162400 152133200 155209000 159762500 164512800 170023000
1213.98 176655700 178883300 180962700 189703600 199461500 200610900
1216.87 204599700 215388400 218425500 219934400 231286800 237712700
1219.76 235385300 245369800 258020000 254606200 257435100 273757900
1222.66 275816900 270626900 281719900 292512700 286236200 285649100
1225.55 304785500 307238400 293169200 305105600 317690500 306847200
1228.44 305414700 318869000 317817700 306774300 315163300 321857800
1231.33 304439600 299537800 306118500 298253000 289242000 282377500
1234.23 279656500 279118600 269167100 262591000 261461600 259484100
1237.12 252627200 243362600 240863700 236500400 236684700 253550100
1240.01 310444400 410086400 430735000 355295000 296613300 284339800
1242.90 279212200 263481900 264953900 275418200 278356000 285246300
1245.80 293817000 294417400 290975600 294861900 312771900 343562100
1248.69 365067700 357478100 351905100 336827700 317543400 319206600
1251.58 326016500 320255400 310496500 314728500 319708800 309762800
1254.48 301101800 304629700 306021900 299477700 294567800 297876000
1257.37 293495100 282063900 280735600 284845200 279581500 270396500
1260.26 267740200 265755300 256171600 245694900 243276000 242713000
1263.15 235193800 227340900 224917000 221196600 212279200 206117300
1266.05 203486000 197367900 188550400 182203000 179662300 174855600
1268.94 167092900 160125200 158013400 157149400 150519400 145404900
1271.83 144664000 141756000 137263100 134337500 130923100 127166800
1274.72 124917000 123689700 122023600 119867300 116788000 114221500
1277.62 113106400 111004500 108374000 106450200 104985600 103377900
1280.51 101569000 99490620 97325810 95575250 93875780 92632750
1283.40 91542100 89489940 87460620 86113570 84912970 84188700
1286.30 83884140 82964690 81660910 80955370 80394820 79353640
1289.19 78311980 77581540 76866420 76392020 75843590 74967370
1292.08 73969510 73030600 72653970 72107020 71632700 71608850
1294.97 71423650 70896840 70361510 69936280 69382500 68820170
1297.87 67802530 66727540 66225980 65832960 66022100 66208370
1300.76 65843740 65538960 65372320 65774110 66411320 67156520
1303.65 67397230 66762920 66394010 66943160 67735620 67667340
1306.54 66650230 66184870 65994090 65679380 65878370 66122390
1309.44 66230320 66259410 66225830 66352680 66454660 66315100
1312.33 66233360 66146060 66018560 65760690 65850810 65987100
1315.22 65993610 66365240 66650760 66541920 66513050 66462400
1318.12 66325530 66539140 66671080 66927660 67344200 68102150
1321.01 69024240 69619750 70346470 70598180 70368700 70584190
1323.90 71011350 71333340 71131380 70270900 69615120 69142760
1326.79 68828510 68719010 68478870 68358380 68844610 69259980
1329.69 69607030 70520750 70886580 70850460 71386180 71999340
1332.58 72250540 72335970 72195190 72197240 72461300 73326470
1335.47 74360240 75273610 76472740 77485690 78340820 78987980
1338.36 77724260 76076500 76030740 76567950 77078090 78442790
1341.26 80235540 80361780 80297190 80639220 81207600 82367370
1344.15 83274440 83576520 84193350 85391230 86536220 87802220
1347.04 89039710 89776850 90727500 91960390 92876660 93476800
1349.94 93901110 95331750 97519650 99520540 101670800 103742200
1352.83 105852600 107708100 109434900 111566900 113529800 115289400
1355.72 117886300 121131800 123218400 125950300 129346400 131641000
1358.61 134029500 136812200 139716800 143280900 146504600 149594200
1361.51 152873900 156456800 161269100 165254900 168725300 174128800
1364.40 179735400 183606200 187236900 192627600 198218800 202342600
1367.29 206936200 212684600 218498400 223647600 229991000 238199700
1370.18 245370000 251275500 257294700 264265200 271549700 277184200
1373.08 282709800 289773200 296606900 302394400 308621100 315019600
1375.97 322048200 329749500 335865200 341433800 347580000 353415900
1378.86 357544800 360909200 365200000 368649800 371399600 373254200
1381.76 373557700 374006600 374080100 372554700 368358500 363092200
1384.65 359058300 352607900 345176200 339759800 333885000 326473100
1387.54 318180100 311874100 308663200 308660900 314472900 325283300
1390.43 336504900 355184000 377070800 404618100 461415000 550461600
1393.33 616185700 606766600 529586500 431805500 367411400 334766100
1396.22 320536700 316819200 316536300 320856000 326959200 332957800
1399.11 337655700 343850500 352386900 361729900 370707500 379096600
1402.00 389034600 397712200 403041000 410203200 419362900 424232100
1404.90 424503600 423075300 422287700 421224700 418694400 416468000
1407.79 413102700 408410800 402669100 396235800 388226000 379767000
1410.68 372070800 363490800 354230200 344180400 333966800 323212400
1413.58 311640200 300547000 290171700 280675600 271514100 262046100
1416.47 251753800 241939200 233980100 226546500 218635900 210601100
1419.36 203358900 197769000 192149700 185770000 181200200 177812900
1422.25 172916600 167779600 163724700 160161800 157468600 155329400
1425.15 152242200 148740100 146002000 144228900 142710900 140671700
1428.04 137358700 133264100 130034400 128312800 127929500 127651400
1430.93 126821700 125817700 125997600 126759100 126352100 125070200
1433.82 125367900 127625200 127520600 124680000 124514800 127084000
1436.72 127608800 126415600 126329800 125789800 123526200 123737400
1439.61 124959500 123546500 123347400 124859900 123664900 121689600
1442.50 122858900 123691100 121769000 120969900 122031400 122432500
1445.40 122942200 123341800 123775000 126514100 129744400 133460200
1448.29 142850400 154407700 169752100 171440000 150935100 142408400
1451.18 142942300 143547900 145297800 154490800 164746900 153634300
1454.07 142775600 135577700 120596200 107244500 100299100 98284660
1456.97 97464740 96720890 96083560 94810610 94457780 94721840
1459.86 94180450 94480580 95394930 94110450 91681620 90409160
1462.75 89591340 89391780 89220460 88263640 87597700 89087740
1465.64 90260820 88554420 86414020 87209070 88962250 88054440
1468.54 86593190 87075590 88230050 86972510 85160880 85822350
1471.43 88205090 88230340 85683510 85349520 87642180 88456140
1474.32 86349560 85523880 86898510 87319040 85642290 84630910
1477.21 85258140 85365000 84029400 82317290 81002830 80998100
1480.11 81170670 78811140 76003340 75140700 75050970 73652020
1483.00 71080130 69062430 68333930 66831670 64681820 63533460
1485.89 62430690 61373450 60549920 60031900 59840930 59699230
1488.79 59890870 59944340 59343960 58164450 56995900 56822560
1491.68 56852880 57167180 57272040 55283030 52711710 50896660
1494.57 49226750 48264390 47947670 47201480 46281210 45456830
1497.46 44999100 44869460 44388590 43979140 43126830 42129730
1500.36 41791930 41359670 40534600 39824160 39290050 38727240
1503.25 38122650 37643760 37143970 36196860 35259920 34499590
1506.14 33770450 33110300 32428670 31830760 30971160 30119630
1509.03 29447240 28672530 28034510 27485910 26461460 25529600
1511.93 25299920 24942580 24113410 23402700 22854510 22288600
1514.82 21567890 21011120 20409900 19842390 19575730 19282830
1517.71 18590030 17818090 17284870 16733140 16221160 15792950
1520.61 15355550 14899510 14627300 14172930 13863860 13697190
1523.50 13454750 12979220 12496250 12273370 12120120 11875360
1526.39 11405350 11016980 10641320 10255320 9802324 9507810
1529.28 9468186 9239898 8840322 8557056 8330238 8316376
1532.18 8360164 8187010 7988128 7527046 7252078 6962346
1535.07 6688314 6810408 6641066 6218444 5875634 5843044
1537.96 5954132 5906268 5737366 5468162 5225124 5120644
1540.85 5124842 4965432 4709668 4695732 4620638 4515988
1543.75 4442478 4276476 4140006 4064390 3866576 3659984
1546.64 3810518 3880026 3697568 3712560 3687988 3457588
1549.53 3371788 3394254 3601602 3455702 3102062 3172944
1552.43 3104528 2972230 2896514 2940236 2990098 2877800
1555.32 2966440 2867110 2790820 2767886 2500392 2434990
1558.21 2574458 2681966 2537950 2479014 2518532 2483114
1561.10 2566672 2462358 2261366 2377214 2301724 2278690
1564.00 2371836 2334358 2335736 2175850 2253388 2195704
1566.89 2011296 2013682 1820810 2002612 2204290 2044768
1569.78 2002338 2074930 2152334 2133842 1871678 1848064
1572.67 2008688 2020996 2035830 1963948 1999588 2060626
1575.57 1952956 1813592 1771028 1849584 2011886 2121020
1578.46 2167780 1988546 1746786 1654248 1878190 2080748
1581.35 1882522 1689868 1882948 1905008 1844228 1744874
1584.25 1597268 1727540 1659362 1748350 1836648 1794658
1587.14 1774314 1861210 2028892 2062226 1986706 1871912
1590.03 1915230 1873096 1853488 1868964 1972242 1989896
1592.92 1969398 2011578 2117128 2207762 1882532 1761342
1595.82 1846048 1959834 2066094 2049076 1906548 1691900
1598.71 1734980 1879840 1892828 1828778 1765042 1818676
1601.60 1902090 2063486 2044726 1842200 1769186 1725636
1604.49 1701660 1955500 1964482 1917316 2083728 1941844
1607.39 1741548 1552572 1634280 2027078 2373512 2304652
1610.28 2004646 1730410 1634970 1758708 1743004 1731460
1613.17 1685682 1621082 1513832 1509306 1835902 1699528
1616.07 1474502 1645802 1808690 1742990 1531932 1598400
1618.96 1723910 1855442 1964590 1810108 1778034 1788068
1621.85 1824612 1772474 1546536 1711040 1706208 1481298
1624.74 1457918 1493078 1587926 1560670 1587906 1680802
1627.64 1741450 1780752 1647298 1595164 1687926 1682758
1630.53 1686358 1664244 1727168 1667658 1638962 1712854
1633.42 1547678 1590050 1528244 1386410 1517498 1524768
1636.31 1604194 1661674 1538340 1476528 1410452 1556528
1639.21 1718298 1922340 1956312 1757916 1832680 1858280
1642.10 1672252 1624208 1730014 1874096 1929554 2062160
1644.99 2102150 1755184 1612536 1783682 1716620 1854514
1647.89 2079908 1992360 2037734 1908910 1670996 1749726
1650.78 1870168 1905290 1765154 1739226 1710838 1678600
1653.67 1882316 1890518 1641410 1475202 1612874 1840502
1656.56 1745674 1719406 1825762 1828998 1710214 1689962
1659.46 1787616 1928400 1997992 1875256 1910574 1858102
1662.35 1819256 1987616 2145046 2123486 1908360 1677098
1665.24 1778710 1910214 1928958 2073840 2138812 1917152
1668.13 1930644 2214680 2198910 2267902 2266012 2221700
1671.03 2142214 2115982 2410760 2353164 2256516 2312570
1673.92 2513184 2585504 2345854 2246038 2201572 2037124
1676.81 1973758 2167398 2272374 2189612 2321952 2264126
1679.71 2279436 2355606 2298966 2306618 2222508 2292876
1682.60 2273502 2258302 2278060 2175594 2266248 2368836
1685.49 2317208 2279136 2269346 2213658 2138480 2038654
1688.38 2007808 2147558 2304752 2200668 2043778 2195744
1691.28 2287008 2168690 2028146 2071626 2015676 1822236
1694.17 1897030 2075320 2073890 1982890 1948282 2119648
1697.06 2197110 1883670 1808316 1946174 1886836 1876272
1699.95 1844946 1890022 1980216 2003440 2210882 2204140
1702.85 2024338 1922764 1774638 1868840 1859284 1770648
1705.74 1711584 1634802 1609656 1673582 1818378 1744242
1708.63 1655124 1584092 1502742 1566268 1597014 1619844
1711.53 1611102 1535300 1647998 1822938 1848638 1817244
1714.42 1726996 1884112 2132248 2063534 1984716 1851592
1717.31 1782964 1708362 1624654 1542734 1525772 1505654
1720.20 1598234 1901668 1946658 1780212 1734786 1758570
1723.10 1661076 1492350 1471748 1562048 1599892 1461060
1725.99 1470946 1536732 1396586 1536744 1529058 1413736
1728.88 1606486 1562046 1475822 1583570 1586072 1576468
1731.77 1544198 1548292 1576044 1476314 1319322 1404524
1734.67 1753886 1786868 1666786 1803060 1852850 1680396
1737.56 1802324 1925582 1818500 2017222 2231714 2124728
1740.45 1924754 2004114 2101986 2050726 2182078 2256450
1743.34 2040820 1986158 2160314 2263194 2171278 2093086
1746.24 2086366 1989222 2096128 2102886 1999618 2200782
1749.13 2256016 2241008 2148918 2011986 2110082 2257574
1752.02 2341730 2460192 2260406 2089398 2043636 2024006
1754.92 2436906 2864056 2865178 2541524 2173726 1832900
1757.81 1802120 2053802 2243576 2479050 2534018 2442022
1760.70 2374512 2460182 2617186 2639224 2786772 2855654
1763.59 2692132 2528440 2628848 2775740 2679066 2547284
1766.49 2579874 2765006 2815952 2880088 2931996 2891164
1769.38 2888112 2835848 2878830 2820438 2780278 2766222
1772.27 2769110 2685522 2548104 2682566 2647706 2393412
1775.16 2353282 2380366 2450948 2438302 2349238 2347832
1778.06 2558508 2606882 2429096 2602710 2784706 2452342
1780.95 1975176 1683406 1487984 1566832 1600618 1574914
1783.84 1763230 1670362 1573590 1628270 1483484 1425000
1786.74 1620876 1731024 1549344 1496020 1624684 1510772
1789.63 1222626 1167206 1161242 1112874 1137894 1032472
1792.52 1022080 1003934 1025424 1050758 973544 1010660
1795.41 914676 798532 753734 782622 834386 747120
1798.31 582590 497990 362414 200524 269514 319716
1801.20 239334 157674 170974 153806 6696-95740
1804.09-7092 150242 202670 134466-116190-154280
1806.98-108286-64662-163090-347232-324300-478706
1809.88-567730-442512-410808-350294-463676-682474
1812.77-700010-619812-590642-488578-401282-510826
1815.66-496478-538550-728292-856816-857218-570552
1818.56-434768-589292-605692-570692-627878-727906
1821.45-864778-1038672-907822-632028-605828-687664
1824.34-713594-644590-692076-770472-638398-581322
1827.23-658196-750474-750432-825708-844612-743916
1830.13-794962-707816-591812-680392-837458-905372
1833.02-674958-581734-654016-689488-667648-745948
1835.91-900050-884642-811126-852200-828708-807000
1838.80-811814-760956-909744-942296-881550-817930
1841.70-817170-727846-652216-625088-665736-796322
1844.59-622636-475368-685012-843600-735846-708970
1847.48-773674-720958-694638-799724-815076-742462
1850.38-508272-469508-720172-861930-829512-760462
1853.27-654130-492000-505130-638502-598060-545614
1856.16-683218-755888-508438-385626-446432-371326
1859.05-352294-383026-353028-300394-314356-295768
1861.95-439944-431394-178686-180494-403326-350580
1864.84-122500-46730-82898-75522 138682 232870
1867.73 173050 166330 152468 133726 262010 234018
1870.62 128008 261854 344540 408648 552468 530808
1873.52 596038 775438 748506 771556 727738 771758
1876.41 936352 823840 809122 968432 1011530 1089082
1879.30 1220506 1231842 1140296 1277190 1501030 1337678
1882.20 1448172 1840638 1944526 2032556 2228274 2410328
1885.09 2499798 2572106 2590130 2708452 2900774 3140674
1887.98 3270962 3287056 3613222 3776762 3852648 4156120
1890.87 4313300 4377362 4426110 4500066 4802330 5050022
1893.77 5198850 5531766 5721528 5830812 6201084 6373544
1896.66 6320372 6552450 6909090 7168426 7146954 7338620
1899.55 7566606 7724272 8052050 8074712 8184174 8625624
1902.44 8971830 9048328 8928832 8974594 9193984 9411170
1905.34 9567580 9609474 9772474 10027100 10217090 10388700
1908.23 10564840 10783810 10831300 10824300 10971880 11118080
1911.12 11445560 11941340 12269560 12542770 13035090 13558570
1914.02 14226940 14848870 15004110 14553210 13839760 13223080
1916.91 12862340 12981300 13226080 13475410 13952950 14234720
1919.80 14446860 14801100 14828640 14903890 15125120 15381310
1922.69 15712560 15919710 15946700 15811220 16015230 16327710
1925.59 16652400 16957230 16827240 16493020 16209910 16108350
1928.48 16198580 16202610 16244250 16712980 17081590 17230760
1931.37 17588240 18040260 18340560 19051070 20686810 21090210
1934.26 18767060 16489250 15620220 15439080 15437560 15170100
1937.16 14749760 14394620 14299270 14363750 14405530 14251320
1940.05 14132410 14231960 14362880 14378870 14481550 14724390
1942.94 14895210 14993780 15001350 15087990 15103140 14522890
1945.84 13984390 13588110 13010440 12612600 12304000 11979670
1948.73 11671700 11433720 11148900 10806040 10531500 10381550
1951.62 10203630 9899222 9500550 9136024 8868588 8695770
1954.51 8514442 8205322 8053966 7841744 7460992 7355832
1957.41 7220126 7041604 6811878 6553130 6438302 6204244
1960.30 6084392 6014294 5798922 5517562 5433864 5509720
1963.19 5477500 5279788 5159486 4977238 4786052 4844486
1966.08 4805304 4828708 4647298 4452732 4294154 3995408
1968.98 3953912 3890866 3690938 3662264 3608104 3454194
1971.87 3269194 3186050 3137050 2932040 2908980 3045668
1974.76 3171430 3306804 3181660 2995082 3075766 3129832
1977.66 3090038 2881590 2645402 2381650 2081892 2096654
1980.55 2180062 2073728 2171820 2272318 2056630 2003780
1983.44 2162592 2287512 2298776 2184330 2166608 2153256
1986.33 2254268 2383328 2322110 2173830 2087704 2188390
1989.23 2243668 2034634 1775642 1699798 1672528 1634100
1992.12 1588644 1495274 1273118 963984 943754 1219896
1995.01 1061694 847350 804510 640404 568558 568904
1997.90 415092 231680 333082 269840 149804 228088
2000.80 192434-82682-373016-394674-462236-502908
2003.69-361300-351606-377848-538116-866470-858116
2006.58-807596-890928-994852-1064880-1058884-976858
2009.48-750704-863604-1088854-1252340-1341978-1142008
2012.37-1012332-996856-843316-866106-1078056-1217570
2015.26-1331520-1402206-1483538-1466590-1432966-1542178
2018.15-1514682-1504130-1592838-1555910-1491242-1392144
2021.05-1341284-1324836-1400772-1487570-1501594-1400228
2023.94-1340620-1486536-1339408-1310204-1496484-1455970
2026.83-1450498-1517812-1529334-1496140-1415934-1436340
2029.72-1548358-1552466-1558782-1518552-1381970-1430874
2032.62-1479136-1344822-1318124-1340042-1368932-1467534
2035.51-1557356-1401394-1349802-1446600-1379052-1439714
2038.40-1313650-1148422-1214418-1267788-1323104-1269600
2041.29-1230464-1312482-1223332-1190644-1341014-1333694
2044.19-1468952-1534464-1303120-1091884-1279720-1537620
2047.08-1412674-1314580-1211256-1083618-870358-932964
2049.97-1020012-991504-1124654-1288508-1474336-1492726
2052.87-1581658-1577920-1579092-1670504-1670044-1523738
2055.76-1298498-848676-480472-576646-663838-651300
2058.65-674434-688750-822468-840496-692690-759082
2061.54-948882-837548-636790-717300-497228-435046
2064.44-790676-821438-599202-479876-463062-474350
2067.33-589116-426196-24298-225306-395686-602750
2070.22-631118-423252-481312-574322-380678 223550
2073.11 78862-301332-436824-636574-568176-110648
2076.01 100740 247858 795602 708370 345268 194942
2078.90 115574 267276 304862 281844 291054 1057832
2081.79 1368260 900376 980628 967114 946100 951832
2084.69 1012330 1403492 2323530 2047912 1316016 1359236
2087.58 1365452 1510900 1786006 2012370 2479828 3551826
2090.47 3284512 2515164 2393194 2607438 2763626 2800520
2093.36 2856904 3649586 4974362 4038120 3248868 3550276
2096.26 3508358 3522268 3755162 3919502 5067986 5957838
2099.15 4589246 4064844 4469722 4532520 4481864 4592600
2102.04 5040234 6870640 7082836 5286856 4868434 5148556
2104.93 5573722 5719072 5459582 6279972 8014998 7212046
2107.83 5958076 6112198 6140654 6189678 6503708 6520186
2110.72 8154758 8947036 7014506 6406294 6398684 6220462
2113.61 6322148 6095040 6620784 8199676 6930188 5455538
2116.51 5551494 5609956 5776186 5728466 5971002 7860210
2119.40 8210700 6388622 6098240 6270726 6299972 6650828
2122.29 6792316 7917738 9243302 7910442 6782896 6836822
2125.18 6682094 6640492 6569318 7010008 8333338 7603694
2128.08 6369128 6230318 6231812 6373384 6075886 6124654
2130.97 7239728 6695650 5389904 5289210 5286542 5289850
2133.86 4901188 4882116 5687510 5478582 4525180 4426716
2136.75 4456180 4123870 3750966 3658534 3967726 4103376
2139.65 3562402 3318328 3203142 3142684 2997614 2706490
2142.54 2509810 2491196 2501042 2388430 2386570 2271292
2145.43 2217448 2399402 2575898 2523266 2142722 1779470
2148.33 1626524 1667002 1477714 1793286 2651786 2190314
2151.22 1428316 1328928 1232908 1243670 1147274 2017728
2154.11 3041844 1986260 1201956 1186682 1141648 1243160
2157.00 1191626 2610138 3255974 1697178 1129342 1194480
2159.90 1281658 1205886 1654790 3558974 2964908 1341070
2162.79 1323788 1225430 1282730 1196832 2849682 4143714
2165.68 2090888 1156176 1310000 1303156 1239164 1929760
2168.57 4312378 3584608 1590922 1652822 1593212 1534118
2171.47 1688716 3740626 4488902 2316836 1801988 1769206
2174.36 1958296 2037054 3165246 4827016 3190638 1785448
2177.25 1410666 1374116 1504736 2353114 4390996 3344716
2180.15 1900962 2072868 2010696 2001898 2367642 4317416
2183.04 4015036 2280926 2079784 1884408 1918538 2341604
2185.93 4100034 3872204 2158568 1768634 1598398 1614500
2188.82 1972468 3495522 3325952 1886406 1476312 1398294
2191.72 1400470 1540070 2682374 2403018 1313908 1401774
2194.61 1485414 1356306 1547544 2396912 1690640 824530
2197.50 718226 619194 762814 1091470 1720088 842082
2200.39 250040 488514 598110 627838 1015036 1103132
2203.29 399166 340078 368630 140038 18858 626156
2206.18 588350 127542 92464 83190 71766 216138
2209.07 399462 148852 211306 284434 73916 8934
2211.97 322904 276760 131180 257646 102348-62270
2214.86 72512 245252 192296 254962 109852-65964
2217.75 273784 333780 150520 28940 42616 289426
2220.64 391108 558708 600668 532312 510668 558710
2223.54 869956 970096 663238 711144 1044902 1314948
2226.43 1345672 1130478 933522 915198 999962 1074164
2229.32 1137292 1328374 1609758 1592168 1614090 1735404
2232.21 1757820 1990134 2188540 2130750 2073958 2016206
2235.11 2322726 2541706 2436408 2535532 2719962 2956858
2238.00 3280318 3399210 3289326 3175946 3223718 3401930
2240.89 3367566 3425716 3656120 3668484 3721456 3957238
2243.79 3967306 3996676 4244456 4304174 4303640 4522756
2246.68 4591356 4612248 4897664 4924588 4980044 5163520
2249.57 5405458 5564008 5494068 5544948 5421456 5256566
2252.46 5440106 5665298 5605240 5632784 5776056 5870518
2255.36 5921150 5866396 5817968 5666840 5539414 5423312
2258.25 5522702 5707006 5936134 6135904 6356918 6659118
2261.14 6602404 6435414 6412638 6354266 6282000 6288762
2264.03 6233660 6240316 6334740 6353956 6403618 6560754
2266.93 6335118 6257542 6257740 6130148 6239930 6447204
2269.82 6791020 6973160 7370814 7748636 7425308 6885982
2272.71 6597362 6758426 6888026 7006712 7125014 6714768
2275.61 6446944 6574154 6507974 6303400 6192678 6110766
2278.50 6342266 6466444 6204808 6060602 6179808 6330396
2281.39 6454770 6355644 6022478 5937522 6110838 6079928
2284.28 5949814 5844440 5567678 5344738 5393836 5457368
2287.18 5391430 5184146 5008038 4918090 5000614 4980614
2290.07 4661362 4524492 4534410 4291722 4281032 4413984
2292.96 3946184 3724248 3757054 3614706 3732134 3833432
2295.85 3728810 3586542 3461596 3272400 3307708 3288280
2298.75 3420546 3506092 3387030 3278898 3274706 3353400
2301.64 3707582 3925614 3433110 3178692 3155362 3376726
2304.53 3477776 3463488 3277842 3442428 4061080 3681808
2307.43 3214722 3357806 4150880 4144434 3709000 3879022
2310.32 4580034 4598078 3783192 3607750 4545566 5288804
2313.21 4309788 3551880 4380726 5498518 4801896 3939284
2316.10 4799792 6349560 5425342 4062220 4561168 6555834
2319.00 6262012 4226020 4721206 7334516 7055734 4315554
2321.89 4578090 7450954 7372784 4337478 4702834 8219068
2324.78 7951782 4670654 5703552 9810650 9149440 5681788
2327.67 8291004 12447710 9020156 4234842 7154342 10647620
2330.57 6796876 3951880 8683944 10920380 5888496 5157400
2333.46 11059770 10620190 5085786 7091480 12199830 9070674
2336.35 5271100 9824474 11937390 6938840 7156448 12042910
2339.24 9989448 5810696 9364886 11464130 6865942 6686568
2342.14 10592010 8766488 5932958 8383764 9044602 5911620
2345.03 6194724 7637382 5648564 4677996 5654476 5233740
2347.92 4214068 3947240 4226932 4622386 4188348 4340938
2350.82 6089406 5579748 4619798 7246042 7052350 5117874
2353.71 8520230 8650200 5566614 9488130 9904988 6105146
2356.60 10433410 10350850 6294052 11125250 10346830 7018990
2359.49 12339730 9927564 7839752 12839880 8546826 8985706
2362.39 12729540 7507936 10422020 11126840 7286806 11657180
2365.28 9021510 8371152 10962440 7149262 9796234 8933140
2368.17 7448604 9688102 6966086 8496936 7467286 6679702
2371.06 7805622 6130054 7175044 6020514 6306762 6214756
2373.96 5940916 6181014 5641416 5962444 5512840 5642562
2376.85 5255432 5262678 5295666 5183078 4909482 5032070
2379.74 5329906 5051072 4683326 4858174 4894876 4750664
2382.64 4985592 5083928 5141054 5141510 5188858 5203174
2385.53 5323316 5425094 5421368 5338910 5209412 5474378
2388.42 5433954 5232746 5445640 5474650 5390250 5376854
2391.31 5394360 5531612 5610182 5737384 5821022 5833096
2394.21 5885330 5902808 5926924 5985402 6226452 6211240
2397.10 6199248 6363238 6374498 6221646 6075150 6041722
2399.99 6022800 6012480 6157936 6244204 6410544 6644524
2402.88 6553844 6593118 6637656 6501778 6634226 6966506
2405.78 7126730 7025312 6959038 6993034 7010894 7026836
2408.67 7060518 7257788 7326682 7242790 7391878 7642026
2411.56 7548294 7340206 7345926 7417906 7337172 7168174
2414.46 7394144 7358864 7034818 7051934 7067372 6796142
2417.35 6686162 6718862 6962740 6913544 6604394 6757724
2420.24 6700736 6732730 6610870 6272292 6231340 6276994
2423.13 6321996 6318844 6006454 5814626 5890328 5762960
2426.03 5560648 5511662 5295552 5081824 5238320 5308102
2428.92 5425508 5682264 5619574 5459070 5152546 5089004
2431.81 5413452 5383692 5253184 5088610 5125088 5303170
2434.70 5270276 5252084 5170438 5253954 5378210 5254186
2437.60 5134482 4841014 4654346 4733650 4919592 4807878
2440.49 4722376 4682600 4440142 4310070 4271614 4363984
2443.38 4347390 4234000 4139402 4042100 4036448 4187734
2446.28 4320624 4049888 3790530 3831768 3849902 3747122
2449.17 3786300 3909690 4100052 4096724 3973576 4013248
2452.06 4018400 4098526 4088446 4166248 4177566 3933162
2454.95 3852782 4231524 4376892 4197428 4129438 4120036
2457.85 4045160 3903284 4086728 4271558 4138610 4144462
2460.74 4327372 4142634 4031546 4083210 4022582 4106392
2463.63 4149886 3921722 3603182 3856694 4299382 4309510
2466.52 4223464 4151990 4154730 4087710 3938576 4027870
2469.42 3956950 3996808 4391282 4402586 4275022 4322328
2472.31 4442130 4516976 4418084 4353102 4378722 4345268
2475.20 4275344 4200448 4339020 4519754 4405810 4573094
2478.10 4606142 4627324 4705312 4580724 4367260 4171384
2480.99 3860256 3555856 3916454 4274818 4453380 4756978
2483.88 5002178 4973908 4686870 4458100 4411378 4712358
2486.77 4870192 4773510 4762518 4499198 4574484 4632178
2489.67 4294950 4057438 3847000 4007672 4141846 4116586
2492.56 4198284 4199640 4260374 4262034 4170774 3994120
2495.45 3945566 3775776 3598076 3652496 3555776 3509492
2498.34 3719786 3588836 3223300 3151550 3306880 3439894
2501.24 3198888 3157670 3260464 3088764 3148926 3240466
2504.13 3114374 3001396 3107042 3307410 3366358 3392578
2507.02 3069190 2809776 2938704 2914852 2904344 2838458
2509.92 2803812 2797744 2644034 2682282 3036652 3254466
2512.81 3079942 2790576 2569400 2447872 2594820 2963758
2515.70 3112526 2986120 2956176 2761822 2592686 2665100
2518.59 2783516 2822870 2682018 2701010 2548758 2228232
2521.49 2154676 2299960 2506066 2586466 2520030 2605748
2524.38 2714608 2630032 2545844 2476952 2456414 2408554
2527.27 2349278 2476350 2499120 2240862 2263712 2376928
2530.16 2386426 2462160 2513060 2511806 2346732 2465902
2533.06 2694456 2647384 2508848 2406892 2417972 2283540
2535.95 2189618 2398778 2304216 2277064 2313968 2337690
2538.84 2456646 2374036 2398728 2530594 2573966 2473262
2541.74 2597618 2751152 2717268 2563868 2393778 2481460
2544.63 2685724 2691128 2751058 2935804 2834042 2760670
2547.52 2873622 3065420 3301542 3342500 3232068 3049216
2550.41 3188036 3190266 3015042 3119684 2882030 2916172
2553.31 3017458 3101668 3213754 3109494 3221526 3074912
2556.20 3083024 3375432 3149236 2955366 3285614 3254656
2559.09 3117068 3333228 3461350 3413524 3512152 3376920
2561.98 3059594 3431088 3870502 3634998 3595634 3956756
2564.88 3902088 3543526 3466454 3542188 3789520 3846806
2567.77 3587060 3666798 3916036 4078570 4015890 3990624
2570.66 4012656 3934364 3939896 3911986 4056508 4233574
2573.56 4267968 4282220 4104632 4241284 4675698 4809132
2576.45 4751620 4804990 4897610 4735566 4630000 4736346
2579.34 4862590 4866250 4820382 4957762 5006780 4994788
2582.23 5003470 5069848 5161182 5365820 5450516 5348232
2585.13 5444686 5575160 5802606 5812336 5809192 5646106
2588.02 5487552 5627914 5712736 5757236 5712344 5768878
2590.91 6015728 6201790 5943676 5896518 6016660 6155478
2593.80 6538184 6599904 6565548 6927218 6972986 6813726
2596.70 6865238 6650324 6604420 6721034 6590140 6589488
2599.59 6977056 7027356 6950720 7202298 7257906 7196614
2602.48 7093536 7122626 7227442 7183598 7116276 7220336
2605.37 7435694 7555962 7465782 7391528 7404664 7508764
2608.27 7615962 7516202 7434936 7673828 8131722 8292766
2611.16 8051420 7929688 8125084 8287568 8141768 8274676
2614.05 8530396 8527620 8346402 8286178 8586412 8694440
2616.95 8591112 8637244 8887588 9140676 9242444 9498678
2619.84 9855036 10122610 10378250 10554690 10461980 10356550
2622.73 10222670 9932954 9747568 9682476 9701690 9713606
2625.62 9885846 9936748 9898596 9881074 10044330 10338170
2628.52 10379270 10547990 10623630 10651200 10956530 11251170
2631.41 11236620 11260700 11483700 11507570 11399250 11225010
2634.30 11407570 11676680 11497260 11433100 11583700 11552230
2637.19 11606340 11664600 11617540 11739810 11921520 12131090
2640.09 12219660 12265330 12198540 12262070 12565340 12643200
2642.98 12628350 12639640 12679210 12774850 12944290 13039610
2645.87 13103450 13198770 13136290 13285240 13578310 13479860
2648.77 13398050 13545770 13587410 13599980 13839220 13835380
2651.66 13906670 14211370 14148580 14262690 14491980 14533580
2654.55 14457790 14512860 14519000 14360360 14283460 14283400
2657.44 14472390 14827720 14851650 14867730 14968320 14926880
2660.34 14791030 14937580 15398450 15317280 15191830 15268500
2663.23 15547920 15544560 15317230 15541100 15668480 15523770
2666.12 15639050 15850150 16005840 15970370 15757900 15660650
2669.01 15789170 15972760 15934900 15833880 16027230 16094850
2671.91 16067990 16149990 16038140 16082580 16192160 16253330
2674.80 16324670 16413780 16426630 16414870 16308310 16336410
2677.69 16350270 16546750 16693860 16444390 16605640 16808970
2680.59 17103480 17501910 17427970 17183590 17268790 17447800
2683.48 17355120 17633780 17944800 17690600 17711870 17857200
2686.37 17725550 17599300 17753890 17990820 17960640 18073320
2689.26 18219930 18225510 18456720 18649250 18749260 18849860
2692.16 18665850 18842640 19139820 19087210 19018460 18936480
2695.05 18879510 19095050 19430160 19621530 19763050 19768780
2697.94 19905990 20028000 20298890 20593230 20602820 20701520
2700.83 20975050 21117390 21191750 21334960 21471360 21584240
2703.73 21686240 21818270 22225900 22637390 22876890 22960810
2706.62 23148790 23634850 23899530 24329600 24753950 24857140
2709.51 24810760 24596410 24370230 24709510 25252850 25414000
2712.41 25603260 25949880 26369130 26462590 26596010 26906960
2715.30 26995010 27296590 27759810 28024030 28033500 28066680
2718.19 28500250 28920220 28840530 28876600 29195790 29517190
2721.08 29963980 30143560 30224270 30486490 30417430 30572250
2723.98 30852810 30605120 30522680 30688960 30802720 31223280
2726.87 31582350 31867010 32251120 32813520 33213370 33360040
2729.76 33796960 33968850 34231820 34619560 34747660 34872060
2732.65 35148130 35304760 35646660 36357560 36558460 36864090
2735.55 37474100 37641800 37826200 38405640 39068970 39244510
2738.44 39050220 39286120 40013110 40559040 40927280 41255440
2741.33 41636460 42315050 42668750 42564900 43038680 43472870
2744.23 43344160 43474130 43793110 44243510 44571420 44586100
2747.12 44665860 44559280 44573290 44945740 45236480 45385680
2750.01 45292610 45277800 45440010 45635650 45880000 45706900
2752.90 45649830 45902370 46300760 46383350 46365480 46830170
2755.80 46843520 47059340 47451860 47655250 47710120 48032460
2758.69 48833620 49100300 49163220 49370830 49341080 49347620
2761.58 49464870 49530050 49675200 49752740 49726380 49956100
2764.47 50334620 50272180 50403560 50768320 50785660 50936580
2767.37 51296670 51564040 51648500 51962880 52242450 52301680
2770.26 52830000 53189260 53443130 53834220 53900190 53929470
2773.15 54219550 54793320 55359720 55831000 55653910 55662690
2776.05 56010100 56305740 56829860 57274200 57696440 58230140
2778.94 58735630 58817100 59175040 59428270 59577100 59876580
2781.83 60112560 60496530 60623100 60695760 60712240 60519540
2784.72 60155310 60419820 60586970 60431620 60662520 60939880
2787.62 61583980 62575260 63841860 64840350 65596580 66333020
2790.51 66583860 67105390 67644250 67885490 68279500 68885120
2793.40 69774940 70357300 70653720 71128600 71679350 72063140
2796.29 72592360 72754450 73036420 73491820 73651870 73842160
2799.19 74486670 75191860 75247930 75822740 76310090 76462670
2802.08 76702920 76855620 76921650 77290840 77977020 78489580
2804.97 78528280 78681890 79200590 79692820 80095180 80192460
2807.87 80340760 80658280 80950430 81363620 81815480 82512580
2810.76 83060340 83009460 83391650 84266190 85113660 85802580
2813.65 86609220 87583610 88466830 89522860 90384240 90767610
2816.54 91564350 92687230 93709420 94917860 96120170 97560950
2819.44 98722610 99512420 100169800 100736900 102000300 103437200
2822.33 104445700 105469100 106987500 107923900 108539300 109343100
2825.22 109912500 110656400 111545100 112079300 112991100 114169800
2828.11 115201100 116473200 118093200 120000100 121716400 123286500
2831.01 125247400 127669800 129503100 130873700 132840500 134639400
2833.90 136246300 138034800 140224100 142585600 144883100 147457000
2836.79 149830700 152665200 155277100 157570000 160178400 162829900
2839.69 165750900 168266500 170376900 172541000 174698100 177260400
2842.58 180367100 183701100 187124300 190621500 194028800 197159000
2845.47 200055200 203117800 206942100 211199900 215260200 219377500
2848.36 223496000 227839600 232096200 236160100 240470300 245137600
2851.26 250126300 254918500 259816200 264916000 270141500 275369100
2854.15 280347200 285708800 291566200 297348700 303129700 308721900
2857.04 314256600 320321600 326712000 331995000 338011500 345915000
2859.93 353211100 359958000 367471900 375770500 383698300 391178700
2862.83 398555400 406770500 414993500 422331000 430711500 438921400
2865.72 445775500 452390200 458635300 464278000 469075800 473284000
2868.61 477130400 480889200 484340300 487932300 492175600 496095200
2871.51 499190500 502359000 505477600 509117400 511429600 512759000
2874.40 516231700 520879400 526404300 532803300 540385500 547125100
2877.29 553765300 562403800 569138200 572844500 578903900 589481600
2880.18 599166500 607643900 620989100 634726800 639633700 640483200
2883.08 646926000 655190500 658169700 658048600 660595100 662090800
2885.97 657206500 652936400 653856000 654134100 650883100 651850100
2888.86 658144900 662580000 665589300 671574300 680365400 685969700
2891.75 688334900 691536000 693706000 694062300 694121100 694379100
2894.65 691866400 688194200 688045100 691134600 695631800 702022000
2897.54 709798700 720723800 738151300 767513300 826301200 898738900
2900.43 907211400 853501800 806047800 775171500 755910600 745368500
2903.32 739003800 736812500 739560800 741204900 736395600 731715300
2906.22 728438600 723146500 718788900 718823800 719205600 715118500
2909.11 714898000 720930600 725328700 730364100 733032100 726340500
2912.00 711425300 696564700 689552300 682492700 672539200 669184400
2914.90 669574900 665063700 661039100 663120500 663246100 659523200
2917.79 660878700 663640400 661063700 660093300 664196700 665329700
2920.68 662959900 663690800 664087200 659216100 655703900 653838200
2923.57 648654800 644319900 643642300 642704800 639543200 636165100
2926.47 635178000 635054700 632497700 629997000 627672800 624281300
2929.36 621048600 618948600 616672300 613670800 611840700 610980500
2932.25 609740200 608212900 608068600 608874800 610807900 613992600
2935.14 615920700 615988500 614921100 612609300 610747600 609748300
2938.04 609922400 611036000 612573500 614588200 617095200 620512900
2940.93 624159600 627478800 630154000 632981900 635472000 637077500
2943.82 639051600 641236200 640934200 638677600 636245400 634228200
2946.72 633832400 636044500 639773000 643455200 648727100 656468000
2949.61 663831600 670912400 679786600 687542300 691658600 695059600
2952.50 700108900 704974900 709742900 716472400 722349600 727523100
2955.39 734184300 741854000 748146500 754498400 761868900 767859600
2958.29 772475100 775711200 778199200 781796000 786084200 790140500
2961.18 793008000 799095500 808193900 813076000 817640400 827209900
2964.07 838158700 847205900 857385200 866563300 874684900 889561300
2966.96 906615900 912193600 914086000 922288300 923891200 922130900
2969.86 932648100 945275300 948354700 957647500 964149700 947854400
2972.75 935084200 935756300 927668400 921104800 927873900 928873200
2975.64 920809200 923275200 926033400 912443500 906296100 919042700
2978.54 918335200 903788900 909152700 921739800 918951000 918316500
2981.43 916639800 896161500 879078300 887807000 907358700 928164700
2984.32 943704400 950327100 953803300 959626300 970991000 974972400
2987.21 953815200 943861600 967641800 1085038000 1134447000 974491200
2990.11 856788900 821832300 799758000 792047200 787982000 784394300
2993.00 781821900 785639000 780552000 771738000 774592100 772641800
2995.89 757941100 753048900 749460000 733593300 722271200 721152600
2998.78 711045200 692985200 682268400 674365200 663733200 652461100
3001.68 639722800 631515300 623974000 609190600 596024400 589289700
3004.57 579374000 564480400 553254700 544749800 532378600 519484100
3007.46 509718000 499933500 487996700 477186500 466668300 455291600
3010.36 444074800 433527000 422905100 411769300 401698000 392318600
3013.25 383594500 374894300 365094600 355530700 346718200 337783500
3016.14 328821100 320391100 311580900 303104300 295022300 286396800
3019.03 277881200 270258500 262791300 255121600 247088200 239394400
3021.93 233028600 226251100 218444900 211687000 205450200 198373600
3024.82 191448900 185298700 179391200 173323100 167239000 161490600
3027.71 155764800 149991600 143944500 137986600 132832500 128293300
3030.60 123761400 118949900 114052100 109626400 105038400 100735000
3033.50 96762720 92826470 88929910 84899640 81331700 78004970
3036.39 74204730 70794830 67476490 64402910 61828030 58740060
3039.28 56135560 53545040 50863300 48631630 46841990 44668170
3042.18 42111730 39798400 37894340 36350710 34650200 33118190
3045.07 31286990 29579390 28507010 26936870 25235890 24116120
3047.96 22892450 21902900 20853990 19726890 19183830 18452010
3050.85 17588270 16790590 15465030 14401090 14062930 13522150
3053.75 13037480 12479130 11865090 11374230 10689970 9882372
3056.64 9337076 9256446 8707964 8144178 8329966 7914154
3059.53 7383230 7362350 7391104 7469812 6707024 5830140
3062.42 6001504 6561510 6141190 5469366 5378958 5152720
3065.32 4995200 4913804 4620722 4456018 4428636 4618496
3068.21 4478188 4413228 4468282 4231206 4125588 4008822
3071.10 3955662 4012552 3708100 3654384 3837324 3751856
3074.00 4023448 4028856 3734404 3819974 4001544 3764478
3076.89 3552048 3450152 3555608 3701378 3301196 3075624
3079.78 3252398 3262210 3360010 3302504 3056276 3083680
3082.67 3247612 3499956 3618986 3159712 2605526 3215708
3085.57 3533232 3105044 3080922 3467236 3818452 3722472
3088.46 3210476 3071062 3229464 3233436 3388592 3121946
3091.35 3180324 3569792 3889388 4046068 3511574 3167756
3094.24 3160702 3055898 2970264 3100596 2968892 3024962
3097.14 3361954 3462406 3673678 3428578 3115606 3226690
3100.03 3281550 3237762 3211916 3387092 3457546 3102868
3102.92 2870498 2835742 3048298 3350514 3250200 3250050
3105.82 3604162 3417710 2828468 2766774 3088016 3047208
3108.71 2738516 2931728 3066480 3034630 3322672 3167988
3111.60 3032546 3160928 3262188 3112354 2973710 3082586
3114.49 2915882 2576764 2516112 2785658 2810294 2841382
3117.39 3086370 3289262 2718804 2680504 2941990 2928840
3120.28 3172018 3027374 2860242 2969478 2810882 2354526
3123.17 2485336 2784042 2806536 2927366 3088636 3158198
3126.06 3082954 2712552 2802184 3095714 2839442 2683314
3128.96 2818346 2828020 2960904 3252466 2888794 2497092
3131.85 2531724 2665112 2874236 3324254 3218932 2731966
3134.74 2705766 2835024 2784236 2486650 2591068 2969684
3137.64 3112792 3066950 2736724 2650210 3132268 3164294
3140.53 3029062 3178272 2983700 2646746 2579968 2708792
3143.42 2866570 2620118 2589210 2948086 3451474 3404082
3146.31 3395170 3497372 2985010 3130022 3387868 3252774
3149.21 3078850 3017452 2995412 2865444 2765648 3082262
3152.10 3500136 3195542 2933916 3190956 3321554 3407538
3154.99 3280500 3216520 3745712 4094920 3762074 3429884
3157.88 3314932 3263070 3766200 3908510 3375944 3319084
3160.78 3299034 3507664 3749482 3580178 3824602 4015962
3163.67 3941116 4133568 4285712 4400066 4661288 4176490
3166.56 3416568 3788354 4644412 4386498 3836096 3951620
3169.46 4016218 4301912 4061744 3911856 4414512 4222754
3172.35 4162230 4731228 4688416 3924788 3753602 4099138
3175.24 4052848 4029568 4160232 4361530 4637540 4664414
3178.13 4773290 4643020 4793028 4997846 5004230 5209876
3181.03 5213130 4817316 4905642 4950688 5058210 5927196
3183.92 6257264 6013212 5617742 5796718 5696510 5550118
3186.81 5710296 5726850 5783198 5668616 5783498 6252132
3189.70 6154574 5684424 6261364 6524592 6089402 6360268
3192.60 6648172 6527606 6755828 7177674 6936552 6653518
3195.49 6572628 6685392 6924512 7228446 7312448 7047938
3198.38 7355358 7648344 7572794 7213934 7168298 7515526
3201.27 7564126 7806104 8347954 8250108 7842250 7872492
3204.17 8157708 8832608 8966286 8599704 8650266 8990996
3207.06 8635050 8554862 8887560 8643498 8629784 8610632
3209.95 8459864 8797292 9188898 9065116 8548150 8640474
3212.85 8896888 8758080 9074056 8778950 8939860 9701416
3215.74 9520288 9208412 8956748 8996292 9411168 9733156
3218.63 9468674 9151170 9543084 9281310 9193074 9728658
3221.52 9589222 9387728 9573592 9796566 9704440 9684184
3224.42 9999668 9975444 9357066 9173168 9273740 9201548
3227.31 9310834 9398146 9177578 8946046 8914296 8718254
3230.20 8478978 8489344 8127078 8114032 8732858 8555862
3233.09 8021018 7948350 7843478 7871810 7843028 7531472
3235.99 7377446 7240900 7120932 7113720 6984546 7194964
3238.88 8031102 7585814 6357698 5864068 6215530 6715312
3241.77 6733090 6319506 5902972 5591594 5443330 5506666
3244.67 5283148 5013570 4481422 4826490 5190476 4858890
3247.56 4537186 4582782 4811224 4571882 4407786 4263004
3250.45 3914008 3771314 3329582 3148136 3836068 4192562
3253.34 3724542 3245738 3350940 3352606 2992764 2849882
3256.24 3146072 2682018 1968114 2323942 2685186 2697434
3259.13 2627886 1925662 1710910 1883594 1683948 1550644
3262.02 1364464 1360114 1200094 878146 763180 639308
3264.91 868936 1049254 730610 364574 382564 530492
3267.81 1061670 1198210 749878 386190 503566 550912
3270.70 195816-56796-118718-192954-863656-821832
3273.59-261094-225034-362102-329294-367516-656190
3276.49-640658-271120-364806-607936-569732-874910
3279.38-938360-482092-400232-509306-354008-968822
3282.27-1469852-1641550-1449674-1157572-1247020-902084
3285.16-825452-963596-1019744-1179046-1459320-1451166
3288.06-1112256-1194436-1347670-818666-828116-1177268
3290.95-1254266-1357244-1080006-1208628-1619192-1574060
3293.84-1513070-1366370-1303710-1324926-1042380-938784
3296.73-993872-686046-764450-1184414-1348426-1291788
3299.63-1394746-1808292-1595082-1273322-1234786-1037992
3302.52-909570-860774-965816-1247078-886380-898672
3305.41-1353268-1193632-893734-822236-1050378-1060202
3308.31-882068-1205998-1613128-1383670-1137506-1197806
3311.20-1311542-1436778-1441090-1507186-1616012-1093740
3314.09-1147396-1565134-1682262-1747680-1765948-1296770
3316.98-579366-718650-1406908-1404268-1286814-1644474
3319.88-1649758-1581900-1808176-1661770-1337008-1480046
3322.77-1357010-1160252-867170-729702-1246190-1307480
3325.66-1356614-1334994-812338-1058994-1541126-1379608
3328.55-1156194-1054490-784872-1060530-1432294-1442274
3331.45-1245450-842536-880362-1035018-1306726-1475166
3334.34-1402602-1463258-1137584-752208-737888-892944
3337.23-1084340-840484-625846-771184-931784-1102716
3340.13-892306-1011906-1752710-1940466-1061660-314142
3343.02-353644-758512-914800-572242-469204-444336
3345.91-1202966-1297292-512854-314758-360536-615512
3348.80-569684-458196-551532-531648-881680-799104
3351.70-389460-522834-614098-645452-728784-729966
3354.59-401394-256088-553784-781492-552396-283876
3357.48-12210 52770-121934-111854 242064 132816
3360.37-426746-78974 503678 251298-231430-479756
3363.27-228748-59454 209136 676706 867006 965034
3366.16 583226 483232 850580 890286 581466 825178
3369.05 1132718 612928 475788 1207824 1670284 1204960
3371.95 1067370 1204358 1435612 1869328 2020382 2224086
3374.84 1488000 1229836 1614594 1599148 1873330 1885870
3377.73 2325042 2710862 2651732 2819614 2891244 3043308
3380.62 2973254 2553480 2874748 3500392 3105342 3060494
3383.52 3640012 3551982 3311692 3616004 3696832 3711138
3386.41 3859746 3589378 3402146 3508052 3476080 3792114
3389.30 4053020 3826992 3713226 3807886 3864452 3605334
3392.19 3781404 4149606 4226654 3968138 3810160 3838680
3395.09 3987256 3958144 4231102 4795816 4250728 3994942
3397.98 4829354 4364484 3766006 4658180 5071216 4885098
3400.87 4473052 4573830 5074706 5155438 5404436 5673528
3403.77 5503996 5181272 5094928 5376026 5648382 5574454
3406.66 4975684 4599336 4515474 4467208 5053756 5647158
3409.55 6380932 6130070 5232664 5289160 5720114 6080742
3412.44 6083504 5841174 5682794 6059994 6176348 6018930
3415.34 6390940 6172932 5708410 5682204 5323560 5480646
3418.23 5288852 4605740 5148638 4948616 4402562 4971060
3421.12 5115400 4923404 5071326 4657706 4087296 4526288
3424.01 4763734 4524166 4803846 4674754 4228394 4326212
3426.91 4055886 3722292 4156920 4645038 4343556 3906962
3429.80 3952736 3955116 3931464 3945922 3925488 3900436
3432.69 4096298 4480004 4489790 4129174 3986770 4023630
3435.59 4155244 4113944 3699022 3892734 4516508 4659706
3438.48 4476752 4174754 4279404 4872670 4346094 3826732
3441.37 4000572 4289882 4600738 4641276 4512186 4052082
3444.26 3940238 4826312 5111508 5023958 5126286 4842732
3447.16 5060214 4920728 4355938 4515706 5019694 4797392
3450.05 4491610 5071568 5748838 5757614 5587624 5339968
3452.94 5237074 5399172 5609660 5994514 5575128 5292244
3455.83 5797064 5885772 5425384 5505050 5481792 4936088
3458.73 4850902 5220674 5771390 5784520 5701236 6234634
3461.62 6992682 6969722 6726708 6269996 6038574 6142864
3464.51 6371382 6983124 6719474 6637306 7185556 6719430
3467.40 6530170 6846348 6534326 6183684 6338988 6593862
3470.30 6757156 6916418 7288440 7767452 7595000 8068710
3473.19 9558656 10579180 10004840 8602696 7781508 7297134
3476.08 7314390 7946330 8213234 7747044 6594898 6581072
3478.98 7158730 6988432 6718710 6933664 7197718 7039004
3481.87 7066710 7179540 6754110 6364186 6908460 6971254
3484.76 6481992 6662298 6770198 6770200 7199520 7079236
3487.65 6517386 6362282 6258038 6341328 6218104 5992824
3490.55 6222232 6278420 6258082 6069446 5784222 5589528
3493.44 5947236 6361458 6413758 6332244 5871156 5300570
3496.33 5074738 5401238 5701812 5404770 5365144 5510564
3499.22 5157762 4513916 4610258 5229832 5292420 5384784
3502.12 5666226 6264500 5843584 5301616 5353664 5023622
3505.01 4847614 4472264 4410540 4499128 4755796 4931334
3507.90 4787178 4951094 5036938 4630756 4108066 4269132
3510.80 4305336 4154052 4281634 4019144 4020670 4810394
3513.69 4832090 4419460 4157070 3895038 3937648 3984272
3516.58 3859468 3693376 3584198 3516306 3816006 3873010
3519.47 3982662 3756730 3390780 3009828 3106176 3242184
3522.37 2963936 3159320 3152222 3464688 3275414 2927300
3525.26 3519528 3782984 3265896 2809330 3180402 3541784
3528.15 3453550 3309288 3181630 3373002 3759906 4210492
3531.04 4159988 4045408 4324818 4237278 4106000 3857418
3533.94 3738746 3858882 3793150 3654534 3775508 4135754
3536.83 4082164 3642324 3383194 3480576 3814952 3676592
3539.72 3767324 4120258 3667882 3239586 3138424 3091854
3542.62 3376132 3837102 3889916 3850402 4041072 4013082
3545.51 3636928 3971804 4368284 3918376 3529250 3153182
3548.40 3333020 3595146 3488708 3923728 3888708 3375966
3551.29 3643754 3681292 3296312 3747652 3786772 3571928
3554.19 3953500 4099330 3792738 3942046 3979230 3429950
3557.08 3541624 3921694 4157184 4419322 4497848 3940712
3559.97 3563954 3908586 4417608 4070858 4266684 4858208
3562.86 4760272 4486616 4190512 4317058 4478048 4626820
3565.76 4606210 4548618 4616312 4714500 4681936 4560692
3568.65 4501666 4383744 4379302 4337606 4098174 3828418
3571.54 3149962 2758346 2752814 3116420 3834492 3864718
3574.44 3627168 3482766 3404350 3232352 3221682 3687160
3577.33 3795362 3170230 3085418 3663898 4043968 4074832
3580.22 3846288 3645244 3472894 3075278 3299588 3554722
3583.11 3480620 3882840 4397710 4635032 4428140 4587640
3586.01 4729910 4337474 4338988 4521934 4258164 4461348
3588.90 5002096 5376568 5479904 5730326 6104106 6408542
3591.79 6709112 6788214 7107936 7225394 7598706 7890374
3594.68 7720162 7859206 7923264 7749872 7645266 8020944
3597.58 8544004 8498064 8600346 9174568 9802944 10185170
3600.47 10020940 10335780 10634770 10620790 10801840 11101360
3603.36 11518860 11815590 11950560 12320500 13033810 12796970
3606.26 12755020 13184640 13440760 14414180 14816120 14954610
3609.15 15535320 15967820 16476580 17046520 17590420 18224320
3612.04 19086030 19626090 20241770 21011570 21721170 22744690
3614.93 23632240 24167250 24725630 25558580 25952080 26671930
3617.83 27865800 28503010 29050140 29863710 30482600 31249210
3620.72 32307860 33251580 34019660 34832080 36108950 37505170
3623.61 38727320 40469540 41473590 41501780 42483530 43704680
3626.50 44448940 45443310 46859000 48194380 48899080 49954910
3629.40 51878050 53068100 53515340 55741610 58910250 59498460
3632.29 60048980 63255500 66062100 66666180 68522890 72698140
3635.18 74431220 74159280 76816740 80585750 81845720 82354950
3638.08 86409010 91236180 91886560 93449010 98791270 102061200
3640.97 102613300 105107800 110360300 113282100 113564900 117426500
3643.86 123061400 125465200 126453200 131771000 136717100 136376900
3646.75 138403900 144603500 147929100 148090200 152494400 157845100
3649.65 157753700 158813300 163284400 165898900 166796600 170262800
3652.54 174014300 175232400 177476100 182334700 188632200 201699700
3655.43 212386800 206528800 200482800 205639900 218531300 234349000
3658.32 239060000 226759100 215606500 215333900 221510800 232122000
3661.22 247177100 250552300 237305100 229286800 226414900 224763800
3664.11 227194000 228567000 227203800 229065000 231675200 229305100
3667.00 229059500 232348000 230205500 226475100 228680700 229358200
3669.90 226662000 228199700 230378300 227627500 225050400 226840000
3672.79 227198500 229007600 239694300 258132800 281640000 323212400
3675.68 368693500 335385600 254264400 212155600 195457600 185721500
3678.57 182076800 182413400 181995200 182174100 185381900 188326700
3681.47 190442200 195890600 206461500 220181100 225805800 217105700
3684.36 205655400 199912000 198060500 196807200 195917000 195775300
3687.25 195337600 194638700 193392300 192276800 191260000 189636100
3690.14 188014500 185861600 183053400 180698700 177849500 173906400
3693.04 169742500 165777100 161625200 156647900 151876800 147894200
3695.93 143214100 137703500 132833800 127997300 122811600 118376800
3698.82 113952100 109225800 104524300 99910190 95382380 90822990
3701.72 86078760 81751990 77846780 73866160 70208690 66971160
3704.61 63582970 60493400 58256740 55808770 53053380 50384310
3707.50 48175760 46106060 43909080 41793070 40466910 39168340
3710.39 37176640 35883490 34118210 32057760 30034610 28283250
3713.29 27274630 25997710 24911480 24127350 23449550 22459660
3716.18 21480910 21156910 20768940 20697200 20529310 19754960
3719.07 19234170 18737940 18055340 17095830 16243160 15433930
3721.96 14705260 14581570 13850720 13076100 13020670 12566230
3724.86 12122710 11894630 11725490 11260010 10725950 10642290
3727.75 10459040 10141020 10238260 10566900 10247620 9388756
3730.64 8662222 8831444 9289368 8887116 8603406 8829116
3733.54 8143710 7704622 8129268 8341724 8126906 7906720
3736.43 7841142 7682840 7310582 6761460 6563522 6484946
3739.32 6322034 6494906 6511926 6458918 6638944 6598222
3742.21 6248460 5790506 5878486 5909310 5927474 6199734
3745.11 5790480 6067474 6705798 6544424 6232576 6051372
3748.00 6338936 6163062 5904712 6334716 6725072 6749106
3750.89 6932318 7115294 6876210 6616932 6522404 6757074
3753.78 7004710 6579350 6383360 6563604 6210052 5922512
3756.68 5647652 5967214 6589108 6180346 5924818 6197264
3759.57 6021374 6130602 6682868 6671742 6309162 5752092
3762.46 5259148 5573312 6166412 5879880 5620082 5982506
3765.35 6294458 5932894 5246782 5296558 5555000 5204234
3768.25 4884232 4891130 4839446 4870330 5159624 5059850
3771.14 4886878 5206796 5749702 5893112 5643264 5670626
3774.03 5680328 5789178 5988928 5786136 5677154 6065768
3776.93 6484274 6545982 6421996 6797390 6758134 6581354
3779.82 6820438 6774274 6844348 7126034 7328966 7397000
3782.71 7914706 8366310 8560194 8218362 7497670 7757588
3785.60 8255834 8367200 8273696 8343286 8686352 8805248
3788.50 8888586 8635016 8538658 8586260 8422630 7978174
3791.39 7574548 7910362 8059258 7997816 8073280 7949696
3794.28 7684462 7669970 7547250 7438644 7221884 6844750
3797.17 6949896 7091428 6887236 6800190 6380844 6475140
3800.07 7018204 6977348 6694656 6548056 6684558 6955386
3802.96 7209444 7041282 6866892 6805820 6740564 6722358
3805.85 6813178 7035278 6975536 7192380 7299246 7084608
3808.75 6982874 7125738 7303010 7256298 7190476 7445892
3811.64 7654602 7538680 7356042 7288510 7623978 7547472
3814.53 7310970 7496498 7716332 7113672 6478828 6438232
3817.42 6852508 7443632 7287886 7012454 7397972 7545018
3820.32 7526222 7811096 7686384 7749868 7672360 7684462
3823.21 7492902 7344170 7617724 7645164 8031764 8117388
3826.10 8297966 8697506 8593360 8855694 9423542 9298028
3828.99 8864660 8506582 8694124 9308098 9503164 9609050
3831.89 10217000 11298620 12420970 11838850 10208240 9932532
3834.78 10529250 10259760 10127260 10363780 10286280 10098130
3837.67 9669680 9348958 9525322 9803648 9867954 10090480
3840.57 10474820 10291700 9661396 9690872 10103450 10178070
3843.46 10334880 10830510 10890320 10770580 10511800 10458510
3846.35 10974000 10923780 10729110 10914880 11225670 11336900
3849.24 10668310 10173150 10103260 10134080 10330940 10275210
3852.14 10419350 10626210 10332740 10436440 10862440 10730510
3855.03 10165190 9994024 10199400 10298640 10513000 10577430
3857.92 10237130 10124790 10046960 9625868 9731642 10074450
3860.81 10107650 9899096 10044460 10257520 10194750 10223590
3863.71 10430070 10310030 10138130 9893152 9572852 9832370
3866.60 10261140 10853740 10910310 10515800 10091730 9662802
3869.49 8994392 8326796 8260040 8494148 8572400 8786502
3872.39 9152756 9349152 9183816 8970098 9145426 9382580
3875.28 9367106 9186804 9188186 9094608 9043494 8921430
3878.17 8915386 8757258 8687554 8953788 8539288 8178522
3881.06 8586116 9040324 9056760 8889742 8571968 8815490
3883.96 9418618 9300246 8965716 9388012 10470100 10806950
3886.85 10229080 9941212 9236650 8240726 7801914 7485522
3889.74 7159684 7348930 7578398 7614106 7666776 7714640
3892.63 7838260 7545590 7100358 7090002 7320528 7211106
3895.53 7022950 7220756 7438630 7153988 6937964 6977272
3898.42 7142906 7065616 6718220 6667818 6705230 6830084
3901.31 6897948 6694018 6380158 6206646 6409832 6534456
3904.21 6365852 6280476 6601440 6483382 5832332 5945464
3907.10 6330184 6302720 6254882 6312292 6288734 6151052
3909.99 6067624 6028288 5565506 5338512 5594690 5895354
3912.88 6031748 5954692 5796188 5855956 6079160 5787936
3915.78 5052942 4900762 5389198 5659980 5244624 5007954
3918.67 5300438 5142588 4718378 4731198 4737210 4496604
3921.56 4890910 5010662 4909644 5081992 4923530 5024542
3924.45 5326086 4896912 4644314 4753340 4564248 4214090
3927.35 4326278 4746604 4739782 4594874 4053728 3549370
3930.24 3675966 3714222 3701400 3812804 3820796 3722798
3933.13 3913482 4318168 4287220 4044616 4048124 4220552
3936.03 4106818 3594720 3461416 3571786 3438492 3508952
3938.92 3669682 3848854 3889280 4137902 4429198 4001226
3941.81 3754228 4069706 4115580 4094108 4292224 3760958
3944.70 3588842 3898694 3915122 3925688 3810580 4081160
3947.60 4652562 4936956 5113800 4299968 3692566 4099958
3950.49 3895410 3843650 4241282 4333026 4124446 4046086
3953.38 3997142 4358738 4509696 4276370 4506820 4292836
3956.27 4240320 4598256 4838808 4825398 4613840 4696250
3959.17 4399488 4262868 4616174 5178594 5395414 5178066
3962.06 5157876 5187062 5142890 4751990 4719684 5309634
3964.95 5340242 5324860 5387152 4904364 4637390 4702082
3967.85 5236436 5614932 5322030 5602980 5758372 5392714
3970.74 5333364 5192548 4929978 5058550 5750464 6137102
3973.63 5583852 5457460 5798492
##END=
