##TITLE=Ethanol
##JCAMP-DX=4.24
##DATA TYPE=INFRARED SPECTRUM
##CLASS=IUPAC A
##ORIGIN=NIST, Anayltical Chemistry Division, 301-975-3108
##OWNER=COPYRIGHT (C) 1998 by the U.S. Secretary of Commerce
##DATE=98/10/1
##$SPECTRA VERSION=1.00
##$UNCERTAINTY IN Y=2.0 % relative (B=1.0E-04,C=2.9E-10,D=2.7E-14)
##CAS NAME=Ethanol
##CAS REGISTRY NO=64-17-5
##MOLFORM=C2 H5 O H
##MP=-117.3 C
##BP=78.5 C
##$NIST SOURCE=QUANT-IR
##SPECTROMETER/DATA SYSTEM=IFS66V (Bruker)
##INSTRUMENT PARAMETERS=KBr Beam splitter; MCT Detector; Multipass cell
##STATE=gas
##SAMPLE DESCRIPTION=Ethanol Primary Gas Standard
##PRESSURE=101.3 kPa
##TEMPERATURE=23 C
##SAMPLING PROCEDURE=1 L/min Flow
##RESOLUTION=1.9290
##DATA PROCESSING=Triangular Apodization
##XUNITS=cm-1
##YUNITS=(micromol/mol)-1m-1 (base 10)
##XFACTOR=1.0
##YFACTOR=2.2737E-13
##DELTAX=0.9645
##FIRSTX=574.687
##LASTX=3974.595
##FIRSTY=2.47E-06
##MAXX=3973.63
##MINX=574.69
##MAXY=.0003038
##MINY=-3.59E-07
##NPOINTS=3527
##XYDATA=(X++(Y..Y))
574.69 10898740 10386880 12160850 10968500 8006894 8053220
579.51 8555844 9361468 10824070 12009760 11779660 11001050
585.29 9702650 7762636 9782972 10593500 9966668 10589840
591.08 10282920 10484820 10705940 10738360 11426520 12101280
596.86 11780220 11091650 11543090 11638760 11374020 11465070
602.65 11059280 11738020 12768790 12693280 12200640 12228850
608.44 12365830 11819610 11361160 11235740 11195220 12147360
614.22 11836770 11208000 12535140 12251760 12010740 12752950
620.01 13196860 12709050 11912550 11713690 11445360 11676140
625.79 12051340 11817220 11167330 10823700 11112220 11138180
631.58 10866850 11470640 11224330 10763010 11024160 11079810
637.36 10947170 10874570 10904790 11058420 10627320 9895616
643.15 10349210 10372710 9827838 9413042 9025884 9263874
648.93 9023986 8505130 7819856 7388522 7611376 7317740
654.72 7355640 6874098 7076704 8114906 7685894 7497174
660.50 7746566 7639164 6982264 6690278 7119570 7584206
666.29 11076660 11357480 8308946 6947556 6668854 6883224
672.08 6329688 5952958 6068388 6260056 5696462 5521230
677.86 5931394 5579464 5701438 5786242 5272020 5906518
683.65 6160646 5652904 4572050 4427436 4871926 5206112
689.43 4988340 4232250 3633638 3862202 4308828 3759618
695.22 3478046 3870980 3859410 3100858 3275550 3816430
701.00 3709364 3295804 3014618 2785950 2626504 2446846
706.79 2291050 2601864 2804204 2876204 2640094 2213396
712.57 1990838 2292824 2365598 2132212 1975090 2014608
718.36 2071340 2461668 2484062 2103658 2686270 2830970
724.14 2936468 3160236 3040680 2969230 2554160 2248292
729.93 2842598 3074826 2336932 2498560 2892968 3042036
735.71 3174970 2722350 2639262 3212252 3662126 3530646
741.50 3369892 3356416 3804618 4003100 3858578 3998304
747.29 3691480 3630090 3709178 3836910 4120996 4270330
753.07 4499766 4212490 4483350 4897986 4879628 5399200
758.86 5797744 6007712 5614270 5904936 6962648 7367524
764.64 7225288 7189556 7550362 8281570 9007566 9307774
770.43 9308976 9752018 10577820 10973130 11552790 11549320
776.21 11689700 12919920 13456720 13531460 14210940 14798820
782.00 15172450 15860720 16368580 16486880 16514640 16720920
787.78 17055840 17095780 16735970 16427640 16848230 17206280
793.57 17590760 17486180 17551630 19940060 20253030 18992880
799.35 24246190 27093080 22185050 19413830 20452550 21867060
805.14 20060100 18396500 18504240 18255990 18554460 19858340
810.93 20606590 20701080 19754570 18520970 18371010 18487450
816.71 18209780 18178130 18568460 18664510 18196480 17997920
822.50 17912570 17502890 17621680 17948850 18016830 17985880
828.28 17766730 17608550 17845180 17895360 18076430 18225950
834.07 18763630 19634850 20097670 20571560 21118510 22147900
839.85 23464620 24861830 26333860 28006460 29981180 32242550
845.64 34116310 37095680 40634030 44054250 47619800 51639290
851.42 56594410 61629810 67131090 73258230 79401600 86226440
857.21 93408000 101199900 108988500 116494400 123652400 131696700
862.99 139138600 145908100 152153600 157174800 160720700 163323500
868.78 165026900 165514500 163055100 159980600 155886900 152456900
874.57 147657900 148707500 151381800 192228700 233296200 186425400
880.35 156677600 175018200 179270200 167162400 162099000 163314800
886.14 162840200 165998600 170751500 182548500 214747600 222652500
891.92 198814900 188389400 185329600 185827500 186404800 185278500
897.71 182813400 179138000 173994600 168303400 161362100 153357900
903.49 145297700 137429200 128574900 119431000 110765800 102060800
909.28 93835670 86627140 79447290 72594370 66181790 60790980
915.06 56041290 51408730 47367470 43818420 40647360 38170440
920.85 35927900 33973250 32041350 30657080 29508120 28387310
926.63 27389280 26619890 26023170 24999780 24015780 23325040
932.42 22803070 22493210 21882300 21473550 21174680 20865970
938.21 20549040 20198180 19976490 19622710 19484050 19368200
943.99 19118970 19004970 18789620 18806230 18661310 18630430
949.78 18739790 18831610 19064390 19152070 19081080 19194940
955.56 19586200 20130560 20491850 21341290 22132130 22349250
961.35 22758080 23252890 23692900 24256410 25176860 25783940
967.13 26477460 27700440 28770590 30103450 31554760 32646310
972.92 33578400 35058870 36708420 38022240 39386100 41228870
978.70 43397200 45513040 47725330 50057680 52723530 55657040
984.49 58513330 61823190 65393910 69646720 74022110 78589150
990.27 83924620 89708690 95548380 101434800 108397200 116147700
996.06 123983900 132986900 143002800 153265900 163858400 175770700
1001.85 189595200 206039600 221167500 233150900 245455800 259232500
1007.63 273630500 290234800 307297400 324314400 340325200 354412200
1013.42 369076700 382438000 392666900 400441200 409540500 416647000
1019.20 420769100 428289600 436735600 445153800 454618100 483425700
1024.99 544127000 662773500 711209200 595524900 527344400 545569200
1030.77 575194400 611452100 643425200 686481000 743712100 834057000
1036.56 897694700 885368400 887497500 922716300 953075800 979505500
1042.34 1007008000 1030878000 1053688000 1079490000 1092141000 1096019000
1048.13 1110518000 1127590000 1133869000 1142794000 1146474000 1136143000
1053.91 1136980000 1153737000 1198076000 1230738000 1153327000 1060183000
1059.70 1028998000 1024266000 1049133000 1095749000 1162538000 1283605000
1065.48 1336385000 1225826000 1092878000 1040478000 1050069000 1069738000
1071.27 1092061000 1111045000 1123793000 1124746000 1119628000 1110564000
1077.06 1091146000 1065519000 1030505000 990789600 950069400 906150500
1082.84 866029600 824832800 783101700 743010900 700424300 673904000
1088.63 655226000 595033900 520081900 484538400 467647800 453420000
1094.41 441809400 437529000 431742700 423461800 419148300 413803700
1100.20 406423600 397771000 389226300 378525900 365618200 350044900
1105.98 334075400 318261500 301836200 286257700 268731400 249588800
1111.77 234075700 221909900 210460400 194306300 180186900 171417100
1117.55 161350900 151237000 141888900 134863400 128396200 122570200
1123.34 117659200 113185600 108707800 104022400 100220800 96150560
1129.12 92402710 89090100 85440850 82530730 80108630 77212790
1134.91 73615460 70823860 68454830 65663410 63420970 61897090
1140.70 60220570 57535430 55587840 54672960 52907130 51118710
1146.48 50017260 49046780 48177340 47828200 48388420 49440200
1152.27 48756120 47143020 46649620 46054620 45422990 45245880
1158.05 45138020 44624760 44749370 44959500 44813300 44994100
1163.84 45665380 46482410 46298370 45946760 46086380 46160380
1169.62 46086630 46618780 47701740 48370750 48759700 49453380
1175.41 50438090 51626450 52510830 53641020 55252490 56543070
1181.19 58024400 59583160 61050870 62507710 64006070 65641970
1186.98 67163640 68523850 70001630 71674980 74055350 76654450
1192.76 79041350 81349470 83714790 86142940 88235220 90191390
1198.55 91971840 94069760 96730900 99889860 103296600 107129400
1204.34 111841500 116085600 121376300 125954200 131465500 138269200
1210.12 144768800 152355700 160567200 170521200 179364500 189960200
1215.91 201771000 212191200 223309700 234097300 245393400 256350600
1221.69 266842500 276134200 283941400 291964800 299290600 303929100
1227.48 308572600 310833700 312700400 310208200 303435000 294982600
1233.26 284570600 274948500 266163400 257452000 249133000 240412900
1239.05 275664700 367117800 355267400 287778600 272680400 273756100
1244.83 286802900 292163400 301935400 335434200 352363600 333100700
1250.62 320703900 317252000 313708800 308775400 302694800 299142700
1256.40 293209100 285300400 279438300 272161400 261169300 248862300
1262.19 238980300 229386800 218446500 207653700 195860500 184289100
1267.98 173619900 163101900 155334700 147959700 141496000 134997500
1273.76 128440000 124258400 120045900 115428900 111317800 107324300
1279.55 103823500 100096200 96273980 93302350 90127820 86942570
1285.33 85004870 83415680 81614970 79916710 78199950 76916090
1291.12 75446610 73823170 72708380 72078590 71361170 70385260
1296.90 69143660 67528260 66655840 66548100 66186260 66420890
1302.69 67328180 67279280 67437150 67633010 66750660 66316210
1308.47 66489070 66648380 66723640 66717450 66519190 66323460
1314.26 66381890 66740330 66945760 66882920 66983760 67469350
1320.04 68544810 69946660 70675660 70995000 71338100 70674830
1325.83 69660780 69180860 69114570 69769790 70759900 71512260
1331.61 72273100 72725770 72862450 73944780 75771020 77787840
1337.40 78517880 77313220 77224490 79165090 80710530 81412540
1343.19 82852590 84341250 86043500 88383910 90466120 92495590
1348.97 94183480 96472930 100291300 104420100 108356000 112187800
1354.76 116396000 121414900 126865700 132248700 137614900 143840900
1360.54 150327700 157551100 165675200 174714500 183899000 193077400
1366.33 202824900 212975800 224367300 237709100 250998400 263838400
1372.11 276484800 288939600 301520100 314196700 327605100 339917000
1377.90 350624100 359065400 365957500 370222800 371478200 369125200
1383.68 361736900 351145900 339467900 326935400 315368900 314056600
1389.47 328883200 358307500 415589500 527892800 559787700 441783600
1395.25 346404000 323170400 324481200 334061700 345612000 361236800
1401.04 378509000 394276200 408232700 418564400 419950200 417292100
1406.83 412757700 404744500 392668500 377501800 360923000 342304600
1412.61 321621200 300183000 280513100 261663900 243107500 226869800
1418.40 211837000 198638100 187522100 178180000 169242600 161562800
1424.18 155884100 149989200 145204400 140913200 134611300 130039900
1429.97 128323000 127256100 126892000 126540000 127015900 126360400
1435.75 126610300 127117800 125545000 124520700 124361800 124101200
1441.54 123338900 122953900 122300200 122908300 124099400 127454800
1447.32 135567100 154152300 160519900 146535000 143632100 152597000
1453.11 150889200 132137500 110952300 100068400 97655220 95874700
1458.89 94982660 95009790 93835740 91109760 89746490 88825500
1464.68 89173150 88575300 87861750 87879320 87534200 86789860
1470.47 86758210 87085240 86647020 87056500 86526730 86202840
1476.25 85294810 84484130 82477740 80838940 78502060 75503890
1482.04 73108200 69704650 66733650 63895090 61753900 60430340
1487.82 59996460 59717700 58292160 57049870 56934930 54963470
1493.61 51208720 48771840 47321880 45847450 44934030 43935060
1499.39 42540040 41332960 40061280 38843590 37743780 36309270
1505.18 34683740 33270760 31899050 30351910 28925790 27486140
1510.96 26038480 24933680 23696800 22442250 21227980 20185040
1516.75 19315240 18132600 16981950 16034420 15194100 14457250
1522.53 13879760 13189210 12527830 11981310 11244510 10450410
1528.32 9838886 9377496 8825950 8538140 8329200 7771008
1534.11 7199956 6900810 6456694 6107040 6021980 5663042
1539.89 5347272 5111638 4868296 4688052 4465076 4186324
1545.68 3980754 3944418 3862538 3660220 3606672 3523390
1551.46 3299258 3152314 3088556 3070904 3009168 2824106
1557.25 2683678 2714310 2658950 2635182 2566840 2454042
1563.03 2450526 2442952 2373182 2270416 2108124 2137066
1568.82 2187030 2195772 2153914 2052490 2106654 2117664
1574.60 2092884 1977474 1988622 2179642 2046100 1911170
1580.39 2002918 1947494 1941214 1857950 1779000 1859638
1586.17 1892136 1988534 2083404 2021228 1962906 1998050
1591.96 2048652 2129372 2125520 1954850 2028778 2063560
1597.74 1887192 1912802 1918272 1926784 2056148 1961582
1603.53 1843420 1946542 2053890 1966392 1772288 2067010
1609.32 2235178 1896558 1791068 1803408 1683062 1702692
1615.10 1726902 1737864 1756008 1722744 1886204 1906950
1620.89 1854646 1795278 1723478 1628882 1586622 1650980
1626.67 1738216 1776040 1720378 1738166 1751006 1739902
1632.46 1705538 1625754 1553620 1610286 1661320 1565420
1638.24 1653676 1886548 1907874 1830856 1769188 1900390
1644.03 2048620 1893098 1785684 1939466 2055262 1927600
1649.81 1842572 1895846 1799422 1825758 1823634 1690296
1655.60 1768394 1841608 1825060 1816774 1932770 1977200
1661.38 1917964 2041896 2072596 1877704 1932616 2081784
1667.17 2066938 2162364 2294256 2245844 2276906 2354748
1672.96 2417762 2488446 2318868 2142526 2189618 2295280
1678.74 2324660 2353502 2328622 2314096 2304120 2292254
1684.53 2342696 2332608 2240528 2130290 2190318 2227420
1690.31 2213676 2204448 2073712 1988034 2040664 2067742
1696.10 2097044 2019710 1927122 1935110 1946410 2096998
1701.88 2148730 1972056 1879650 1826018 1708696 1745080
1707.67 1767388 1642844 1618096 1650578 1663258 1803648
1713.45 1847682 1946130 2056246 1906294 1750460 1618248
1719.24 1622000 1826148 1858422 1738516 1608538 1576316
1725.02 1564188 1525818 1537096 1559336 1582658 1600620
1730.81 1609762 1600616 1509960 1559178 1760764 1808214
1736.60 1826990 1889298 2058204 2113510 2051898 2147154
1742.38 2170428 2127198 2205216 2154374 2095114 2111668
1748.17 2197622 2232648 2146656 2268910 2371932 2179140
1753.95 2240632 2676104 2529084 2029570 2108330 2432338
1759.74 2486526 2511336 2703670 2763474 2675602 2693936
1765.52 2663178 2740088 2891646 2905218 2880166 2837084
1771.31 2787254 2699938 2640594 2497714 2429192 2431798
1777.09 2455638 2531680 2602688 2375524 1804878 1612028
1782.88 1679056 1696450 1594468 1570282 1630018 1594282
1788.66 1458322 1244574 1163120 1100572 1051740 1051724
1794.45 991646 865364 813588 746462 514900 341646
1800.24 300826 244014 139546 38918 138118 100836
1806.02-63092-94652-235368-404866-410302-385532
1811.81-549152-580170-464598-439590-559688-721584
1817.59-594336-512818-569908-705590-847850-693362
1823.38-617524-656638-647694-610568-676730-753944
1829.16-744796-655340-684706-738752-628778-627594
1834.95-736296-805846-795094-764650-789182-839998
1840.73-797756-680410-637200-632388-593816-683414
1846.52-708164-678712-727738-636478-557360-727416
1852.30-688416-529354-524702-577904-570470-422310
1858.09-339112-324346-272650-307850-279686-228202
1863.88-205758-62494 55048 199936 214214 228016
1869.66 261746 313024 475338 609594 747418 803664
1875.45 854998 912154 991944 1162096 1257110 1360182
1881.23 1509918 1796936 2129866 2414234 2605934 2805652
1887.02 3135702 3442186 3782518 4149204 4403980 4635220
1892.80 5060816 5507510 5945766 6300820 6646752 7073300
1898.59 7385018 7775074 8120504 8595060 8955848 9070502
1904.37 9382182 9674156 10008730 10401590 10717190 10901470
1910.16 11225320 11886810 12604340 13542360 14499810 14327900
1915.94 13365960 13099340 13571350 14191700 14652780 14936680
1921.73 15360610 15773400 15890700 16277180 16683800 16466060
1927.51 16159260 16242930 16638000 17274090 17845030 19209900
1933.30 19609920 17068950 15499230 15136230 14528680 14372550
1939.09 14273090 14249510 14390630 14646060 14871760 14912840
1944.87 14415780 13481990 12639990 11981310 11414590 10841050
1950.66 10375160 9861268 9209724 8712172 8288846 7818798
1956.44 7400840 7050700 6639614 6291408 5994898 5657174
1962.23 5501290 5336014 5024420 4866786 4779072 4486778
1968.01 4131108 3889458 3706452 3488464 3251718 3059392
1973.80 3103724 3222586 3125654 3091282 2886702 2437002
1979.58 2187448 2200902 2194782 2148214 2256318 2244628
1985.37 2226376 2315898 2223746 2173496 2027190 1751372
1991.15 1656380 1452308 1142046 1085678 941698 707002
1996.94 547694 374046 282904 213102-43166-342082
2002.73-388680-348614-548020-774220-853132-975764
2008.51-891440-892626-1138574-1117166-924550-928200
2014.30-1155466-1348994-1411728-1447220-1486138-1484060
2020.08-1369678-1331170-1404530-1391606-1348856-1358954
2025.87-1413072-1459864-1438198-1433708-1496856-1449790
2031.65-1392568-1344162-1317112-1410438-1394954-1362924
2037.44-1332152-1209738-1222954-1246828-1223016-1219602
2043.22-1339754-1357526-1233476-1334702-1282880-1036128
2049.01-939666-1025050-1246850-1447354-1515424-1561628
2054.79-1405860-871694-588108-638092-701836-742596
2060.58-762632-763716-588696-564982-654220-497140
2066.37-463526-321288-241908-459014-480240-369694
2072.15-47152-172964-440328-141150 392342 570294
2077.94 311538 277136 413704 889956 1092384 995958
2083.72 1041696 1584828 1840616 1482596 1605594 2205470
2089.51 2988800 2803292 2625824 2895364 3744516 3994080
2095.29 3547894 3615250 4343368 5016222 4553282 4449980
2101.08 4912062 6087068 5760396 5250314 5628064 6526402
2106.86 6873496 6216000 6224562 7111884 7736640 6797684
2112.65 6224956 6539248 7007520 6176442 5611430 6055588
2118.43 7111100 6913430 6256106 6692012 7795138 7819510
2124.22 6844624 6663088 7233804 7254672 6409794 6193286
2130.01 6470818 6287158 5473030 5139372 5206790 5124032
2135.79 4561784 4100376 3884148 3836416 3445092 3122646
2141.58 2805844 2549562 2472040 2340152 2437540 2392678
2147.36 1945324 1668336 2000746 2040474 1457294 1341874
2153.15 2014950 2030878 1286556 1388796 2217716 2048746
2158.93 1236320 1636598 2501192 2027234 1227584 1994978
2164.72 2746934 1810668 1306212 2505866 2944744 1822846
2170.50 1826142 3093080 2852508 1861514 2580272 3458248
2176.29 2343604 1534838 2702986 3058842 2128124 2340588
2182.07 3352084 2850530 1983804 2807940 3174870 2017126
2187.86 1901706 2775176 2276574 1472664 1903258 2055394
2193.64 1503662 1556016 1798962 1178038 765784 1151832
2199.43 945456 532416 791992 828904 454722 273584
2205.22 427046 322648 143116 255016 292506 216706
2211.00 198488 267882 210926 110464 216820 217044
2216.79 179768 257300 175796 296994 559324 580384
2222.57 710888 843754 902262 1212772 1179068 1017758
2228.36 1137138 1395528 1635056 1751970 2012708 2137766
2234.14 2204742 2449862 2627128 2999226 3300182 3277604
2239.93 3356650 3517422 3709148 3902494 4096754 4300188
2245.71 4492310 4711980 4932672 5190792 5471762 5473542
2251.50 5416770 5558210 5696378 5830910 5863830 5683256
2257.28 5558358 5747604 6160428 6489598 6479464 6348584
2263.07 6290818 6283786 6382438 6433184 6314532 6255006
2268.86 6503792 7038256 7400336 7000524 6770430 6960692
2274.64 6758822 6525338 6347408 6255680 6317398 6194650
2280.43 6305822 6261184 6051402 6027400 5791384 5480216
2286.21 5414086 5211142 5013822 4886532 4609496 4413430
2292.00 4238866 3885500 3758372 3788010 3642192 3404442
2297.78 3406520 3468944 3383114 3505104 3686168 3359496
2303.57 3408368 3446126 3658072 3625440 3711728 3934404
2309.35 4202786 4200662 4248248 4503192 4428354 4652880
2315.14 4889998 5205310 5138634 5422224 5546084 5904950
2320.92 5848900 5973480 6096428 6389094 6838044 7456922
2326.71 8454236 8818734 7811828 7309026 7456212 7678718
2332.50 8090160 8340818 8471982 8737164 8832036 9018608
2338.28 9122556 8921168 8695194 8406436 8212148 7764994
2344.07 7168982 6369080 5618984 4976842 4446814 4443916
2349.85 4987274 5616468 6251938 6969836 7646222 8232798
2355.64 8759208 9040020 9311998 9696538 9953694 9950204
2361.42 9960706 9879428 9714078 9602396 9310844 8959594
2367.21 8679242 8313730 7821364 7282326 6871566 6453750
2372.99 6202856 6021654 5814824 5558174 5357558 5190902
2378.78 5152380 5071198 4895946 4944434 5104336 5198564
2384.56 5286662 5404864 5393004 5398098 5427484 5453300
2390.35 5458658 5558856 5756686 5871824 5937144 6068164
2396.14 6227890 6318698 6250760 6095240 6116552 6311374
2401.92 6555326 6612888 6642166 6901478 7047750 7002294
2407.71 7074920 7206870 7351692 7483272 7440866 7341038
2413.49 7322034 7241980 7081914 6863118 6822318 6830220
2419.28 6737112 6669858 6408234 6301930 6221786 5947686
2425.06 5767618 5503706 5284658 5371226 5592932 5436010
2430.85 5284224 5339154 5225138 5256260 5272748 5283388
2436.63 5247796 4926836 4811190 4836312 4648796 4415954
2442.42 4368380 4283378 4140906 4204936 4098238 3892712
2448.20 3863276 3978806 4091670 4059712 4120102 4162336
2453.99 4067480 4176774 4269850 4122440 4087866 4182824
2459.77 4243012 4189104 4105744 4127476 3959224 3996010
2465.56 4272734 4215248 4118048 4036312 4174988 4356194
2471.35 4404834 4467110 4433612 4357170 4342684 4454816
2477.13 4573842 4648186 4570364 4172772 3910790 4250136
2482.92 4756862 4857292 4597662 4683888 4786794 4641478
2488.70 4504938 4161340 4060700 4185894 4242480 4241212
2494.49 4062974 3831076 3656298 3650492 3528626 3333560
2500.27 3348294 3271024 3217964 3210180 3150892 3301192
2506.06 3289912 3021900 2952462 2921576 2806406 2879424
2511.84 3112852 2876676 2645288 2919846 3037764 2824518
2517.63 2751218 2808150 2687760 2404894 2402588 2589226
2523.41 2663880 2667680 2551846 2482002 2485440 2412754
2529.20 2406278 2521872 2516512 2571288 2641712 2505810
2534.99 2383002 2373650 2383516 2424178 2484076 2550492
2540.77 2624210 2723416 2641388 2600806 2780232 2892046
2546.56 2909580 3128600 3304290 3218312 3186214 3093446
2552.34 3034534 3163388 3218868 3215580 3246048 3226964
2558.13 3272464 3384684 3506040 3412738 3525776 3758760
2563.91 3848480 3717474 3685436 3800272 3834824 4042700
2569.70 4078904 4029190 4061704 4254698 4299366 4439856
2575.48 4769786 4872694 4817200 4826220 4922704 5006904
2581.27 5075706 5170876 5377994 5486686 5657816 5839814
2587.05 5725204 5708838 5797714 5934330 6100794 6070204
2592.84 6299676 6631556 6863204 6917720 6784444 6719002
2598.63 6818890 7040694 7210346 7246536 7231898 7252626
2604.41 7355348 7537518 7517806 7590450 7614980 7858058
2610.20 8173606 8159934 8244544 8425018 8510878 8534374
2615.98 8685412 8841280 9167864 9617318 10142210 10470680
2621.77 10375030 10048160 9817428 9873904 9988294 10068970
2627.55 10349120 10598460 10846330 11183360 11407500 11484500
2633.34 11464090 11576770 11611570 11656890 11734020 11869990
2639.12 12170130 12306540 12441240 12668370 12747810 12886340
2644.91 13111890 13233840 13415490 13556710 13609800 13758680
2650.69 13957800 14169860 14392580 14548700 14580720 14475950
2656.48 14490830 14789640 14992320 14981720 15150470 15352570
2662.27 15444010 15554020 15616640 15707350 15916050 15980350
2668.05 15878790 15979610 16054150 16157030 16206270 16230990
2673.84 16367860 16496160 16503660 16485580 16640270 16714280
2679.62 16984900 17409850 17435610 17489450 17750570 17892020
2685.41 17875280 17870540 18034570 18233960 18435100 18744880
2691.19 18890950 19033000 19193210 19128070 19314680 19737670
2696.98 19960670 20249360 20629520 20928510 21228660 21504410
2702.76 21737860 22109680 22703250 23175990 23709830 24443790
2708.55 24876300 24777340 24971110 25570770 26109450 26620050
2714.33 26981450 27521320 28027150 28390440 28850950 29163360
2720.12 29675230 30240220 30512970 30757950 30820950 30914400
2725.91 31409380 32106700 32898870 33597680 34142900 34688460
2731.69 35087430 35586610 36342180 37136150 37777640 38597460
2737.48 39218160 39680900 40589650 41446320 42255490 42893150
2743.26 43351140 43721070 44280520 44704910 44748870 45081630
2749.05 45423280 45524820 45788240 45934540 46145610 46559050
2754.83 46886210 47343500 47781010 48397820 49142200 49462320
2760.62 49573620 49759200 49941750 50225480 50569560 50887520
2766.40 51272810 51743320 52197380 52710440 53384840 53957890
2772.19 54304300 55059160 55813340 56081770 56649120 57531150
2777.97 58426660 59128470 59622700 60126100 60644320 60928210
2783.76 60798080 60772760 60975780 61535140 63067180 65033960
2789.54 66432130 67402160 68232040 69300340 70510270 71454430
2795.33 72358740 73104120 73696500 74384940 75296500 76144340
2801.12 76816720 77207610 77838580 78682150 79268790 80048940
2806.90 80670770 81150220 81929690 82944210 83742890 84847980
2812.69 86428400 88134510 89976470 91502360 93265100 95512750
2818.47 97984710 99957020 101616900 103829700 106208900 108315300
2824.26 109907100 111367200 112986400 114926300 117493800 120716600
2830.04 124281400 128164200 131858800 135333200 139066800 143404900
2835.83 148247400 153356000 158438200 163657300 168845600 173397400
2841.61 178407800 184613800 191416600 197882700 204351100 211991600
2847.40 220218800 228580000 237040400 246026600 255659500 265654500
2853.18 275906600 286524300 297833800 309217600 320836800 332792000
2858.97 346064900 360489200 375601300 390991400 406323900 422056000
2864.76 437416600 451151000 462703600 472057800 479805000 487377500
2870.54 494956100 501785900 508068100 513450800 521288200 533035800
2876.33 546811300 560822300 573399000 588159000 608314400 628364200
2882.11 640525600 650074600 656766000 657119200 653950600 651805600
2887.90 653778700 661075600 671641500 682832800 689367600 692433700
2893.68 692095000 689747300 692061400 704020300 722973700 778103600
2899.47 859538100 845682900 777507300 747238300 738204900 737336400
2905.25 730882200 722727000 717980700 715897100 718970700 726600500
2911.04 719818800 698734100 681263000 671018200 665397400 662409100
2916.82 661336900 661165700 661605400 662974800 662441600 658644700
2922.61 651943000 645570800 641304400 637031200 633759900 629846600
2928.40 624263200 619064200 614483300 611311700 609309900 609874600
2934.18 613561600 615349500 612988200 610853600 611872100 615374800
2939.97 620906400 627252400 632629800 636969700 639927600 638709300
2945.75 635815900 637779700 645202300 656922600 671645800 685535500
2951.54 695328400 704664000 715770300 727576200 740492500 753745800
2957.32 765820400 774199600 781199600 789006800 799499100 812042200
2963.11 826884800 845837600 864423000 887123100 906975000 916168800
2968.89 923641700 937793100 950675500 944616300 929977500 923804400
2974.68 922814500 920336600 913649700 911365300 909591200 913231700
2980.46 914621500 896616900 893118500 923095200 943689500 957747700
2986.25 958351200 960123100 1035591000 974972500 831857600 796511600
2992.04 785665900 781179100 774176400 765428000 751022100 733078300
2997.82 715299800 693900700 671553600 650889600 630061000 608738700
3003.61 586869000 565121000 542459200 520384000 498638600 477219500
3009.39 455242000 433726000 412514300 393114000 374915200 356434300
3015.18 338421100 321036400 304043800 287340100 271344400 255970100
3020.96 241022300 226952100 213091300 199607300 186702300 174581400
3026.75 162832100 151216500 139787300 129728500 120362400 111037200
3032.53 102347600 94261740 86552470 79296920 72347260 66022620
3038.32 60342980 54943640 50215860 45844940 41366520 37644430
3044.10 34301580 31072240 28117490 25362080 23067150 21081520
3049.89 19485010 17660340 15766010 14524680 13454880 12229640
3055.67 10979280 9995008 9319416 8680782 8281348 7871706
3061.46 7092284 6882396 6432326 5874496 5555062 5223688
3067.25 5161214 5080690 4871422 4651720 4486822 4327546
3073.03 4414394 4441460 4383788 4247234 4062252 3981282
3078.82 3740234 3748932 3704620 3627876 3842450 3613700
3084.60 3557584 3665384 3846430 3933912 3607700 3638882
3090.39 3624918 3913278 4099974 3670322 3433112 3389362
3096.17 3479808 3775290 3715754 3550472 3565040 3639094
3101.96 3437902 3284372 3480402 3660342 3513504 3245914
3107.74 3228186 3228344 3380334 3428694 3398458 3382844
3113.53 3222530 2990568 2955990 3198706 3234280 3084682
3119.31 3197294 3256754 3077514 2849814 2911582 3187210
3125.10 3260064 3127518 3098626 3028172 3086970 3205430
3130.89 2890220 2939874 3270280 3114714 2944434 2873422
3136.67 3072206 3148916 3052684 3264232 3227340 2961732
3142.46 2898794 2913842 3163942 3556736 3456704 3373150
3148.24 3375788 3220052 3079500 3281442 3359988 3357770
3154.03 3473350 3616408 3935582 3679422 3625144 3793402
3159.81 3566236 3660992 3874798 4062978 4262840 4529056
3165.60 4218134 4144734 4355544 4161260 4244124 4276552
3171.38 4402404 4593844 4306036 4126552 4264698 4514768
3177.17 4789462 4869666 5057406 5236042 5110170 5166550
3182.95 5817884 6056016 5815322 5795604 5819582 5922326
3188.74 6106224 6198192 6359074 6510762 6742762 7013586
3194.53 6848378 6874390 7199984 7363194 7541268 7476474
3200.31 7514922 8005778 8162862 8149738 8640284 8837332
3206.10 8788756 8785406 8757504 8675598 8892774 8978300
3211.88 8810290 8931852 9042554 9404104 9308670 9230054
3217.67 9532622 9444214 9411698 9542738 9609618 9693378
3223.45 9848344 9757200 9366406 9300382 9313040 9054744
3229.24 8770544 8437470 8405272 8420662 8044298 7890504
3235.02 7636064 7339122 7142794 7443158 7237470 6372698
3240.81 6531624 6364836 5739600 5492458 5054588 4939964
3246.59 4901630 4724162 4617060 4292534 3751222 3615606
3252.38 3860106 3575446 3250576 3092470 2665272 2485850
3258.17 2634754 2196786 1835382 1650972 1382962 1051926
3263.95 878764 936014 617428 758510 980296 672858
3269.74 438310 145908-296824-468214-243150-273968
3275.52-438820-363474-449168-673220-543390-399588
3281.31-881084-1340744-1176066-911166-881464-1130468
3287.09-1235690-1118978-941688-1024136-1158066-1236054
3292.88-1425404-1314774-1146484-925548-797766-1009668
3298.66-1297016-1454752-1302896-973046-907306-946486
3304.45-1014828-1021048-904186-933552-1170178-1270290
3310.23-1176734-1320298-1400338-1243128-1377422-1616252
3316.02-1152424-914504-1275950-1451752-1581556-1505448
3321.80-1338582-1065606-923120-1197822-1119508-1099628
3327.59-1245242-974514-1056792-1238114-960926-1010968
3333.38-1307772-1229326-855094-832912-789628-768252
3339.16-885180-1189542-1353626-638916-584050-585680
3344.95-661326-847774-438164-439604-477306-570876
3350.73-608586-474426-592446-522852-385204-506314
3356.52-232500 1534 71286 25878 99296 163016
3362.30-166262 55530 637870 816338 731850 817114
3368.09 894546 842950 1145436 1355116 1318908 1833296
3373.87 1910110 1586592 1715352 2114662 2558456 2858238
3379.66 2934684 2924238 3143470 3349756 3489326 3600658
3385.44 3748870 3652176 3547074 3793972 3893348 3814476
3391.23 3829642 4043846 4058476 3915742 4162518 4396262
3397.02 4425940 4347072 4593044 4814564 4782742 5209460
3402.80 5494912 5306326 5395448 5378898 4810260 4778414
3408.59 5667220 5857514 5552232 5905694 5933056 5957760
3414.37 6181180 6039632 5661298 5354016 5074024 4873706
3420.16 4911354 5023948 4676914 4532578 4705690 4603294
3425.94 4256770 4114262 4345242 4162934 3994274 4004796
3431.73 4059586 4356480 4245200 4129546 4044000 4157090
3437.51 4491664 4440416 4474748 4202066 4329686 4584588
3443.30 4309268 4676038 5069376 5026434 4817034 4733898
3449.08 4826992 5176902 5649728 5439582 5503022 5704862
3454.87 5643062 5690944 5533422 5185734 5371198 5795238
3460.66 6339990 6802430 6401344 6296670 6698762 6848638
3466.44 6826348 6659798 6485072 6602652 7102390 7538104
3472.23 8496638 9694596 8787558 7562298 7835278 7515002
3478.01 6917512 6969144 6998508 7125204 6986692 6765308
3483.80 6791256 6714916 6918244 6897286 6479844 6298176
3489.58 6211620 6256654 6073546 5869224 6238260 6178326
3495.37 5540574 5424196 5554366 5329076 4943434 5075880
3501.15 5557064 5842116 5551746 5070870 4680478 4635710
3506.94 4870044 4943248 4649616 4325838 4289426 4224878
3512.72 4562752 4492064 4074196 3977834 3792694 3710662
3518.51 3913708 3721242 3305502 3182808 3253988 3317950
3524.30 3380136 3479110 3263242 3413484 3430980 3555028
3530.08 4049786 4220438 4210286 3991528 3850648 3853744
3535.87 4004230 3797208 3629178 3833878 3874466 3474220
3541.65 3342338 3749732 3993416 3956466 4056884 3939464
3547.44 3485218 3586634 3815900 3727034 3645990 3715122
3553.22 3864926 4005586 3975818 3771062 3974478 4373434
3559.01 4116950 4050860 4353810 4656510 4583662 4446692
3564.79 4636578 4680012 4727918 4654158 4498884 4351106
3570.58 3808346 3129800 3381168 3837342 3633482 3478386
3576.36 3654378 3544746 3733534 4089632 3781982 3507724
3582.15 3632078 4121294 4601954 4717958 4653082 4578692
3587.94 4839606 5442624 5970758 6544040 7011088 7464660
3593.72 7873800 8017290 7995902 8297026 8761458 9425498
3599.51 10168430 10552360 10895620 11385420 11981540 12647630
3605.29 13084620 13493010 14483200 15387030 16266470 17336500
3611.08 18579960 19917850 21293510 22932930 24428040 25676110
3616.86 27119900 28710750 30100380 31673310 33474000 35331960
3622.65 37762340 40359540 42116820 43814260 45974090 48258680
3628.43 50647720 53190400 56407040 59853480 63375110 67566510
3634.22 71834490 75705820 79652700 84264190 89636840 95245200
3640.00 100821000 106421400 112171200 118219100 124801200 131315000
3645.79 137094500 143075300 149462900 155234000 159954000 164834500
3651.57 170227400 175407400 183175200 199166300 204845900 208882400
3657.36 226877300 225628000 217856500 232190400 241233200 230800000
3663.15 225465500 227003000 228279700 229280100 229283000 228047900
3668.93 227455000 227900000 227472800 226599000 233302700 258787700
3674.72 314952500 306648800 225592700 189916700 184558400 184468400
3680.50 188704400 198051000 214507300 213763600 201004200 196360600
3686.29 195012100 193494800 191311800 188468500 184508000 179352600
3692.07 172757000 164752600 156022800 146996500 137501200 127625100
3697.86 118297600 109183700 100060000 91007220 82312990 74492520
3703.64 67474520 61416440 56203680 51181120 46618710 42706170
3709.43 39452940 36258820 32605370 29177820 26653110 24738240
3715.21 23017530 21700370 21053600 20190090 18995590 17486670
3721.00 15912220 14756420 13727740 12912500 12266810 11589200
3726.79 10944920 10634570 10541950 9769722 9209684 9195294
3732.57 8744578 8336096 8347662 8195156 7769918 7144058
3738.36 6719732 6676572 6738676 6637954 6209124 6131312
3744.14 6182436 6391330 6575870 6390374 6309322 6494110
3749.93 6914562 7043594 6834032 6834492 6775610 6495844
3755.71 6129588 6176992 6338428 6177928 6402308 6549822
3761.50 5948740 5798902 5977308 6053506 5899862 5506958
3767.28 5323320 5034424 5097318 5158598 5428476 5811650
3773.07 5797858 5897872 5939902 6178504 6568774 6727108
3778.85 6803786 6899372 7175980 7616238 8245494 8132032
3784.64 7963210 8298914 8490642 8748026 8709558 8507860
3790.43 8091270 7920214 8073378 7927838 7703356 7435194
3796.21 7107402 7038122 6792752 6741258 6906288 6765752
3802.00 6978272 7079434 6876898 6856820 7011218 7201998
3807.78 7176256 7200460 7303712 7477026 7526712 7481864
3813.57 7508912 7540708 7132176 6792584 7196446 7333512
3819.35 7519056 7734118 7763408 7671070 7580448 7809658
3825.14 8216636 8560104 8997154 9136252 8846168 9205312
3830.92 9855158 11170340 11314640 10335030 10273050 10291350
3836.71 10017100 9636046 9761836 10170420 10128220 9925154
3842.49 10226470 10685250 10705440 10684630 10827460 10992540
3848.28 10988720 10413540 10202730 10392470 10450710 10583600
3854.07 10532220 10205640 10329000 10439070 10140450 9880344
3859.85 9964562 10068050 10155560 10288520 10263330 9919582
3865.64 9975550 10571230 10454280 9566010 8683816 8522710
3871.42 8913914 9190436 9161486 9269234 9259130 9111140
3877.21 8968660 8849320 8728836 8554424 8869670 8884300
3882.99 8976338 9201504 9631640 10310560 9724596 8470724
3888.78 7594318 7462312 7640450 7740956 7506214 7238874
3894.56 7211382 7251568 7179884 7058406 6983054 6763552
3900.35 6820952 6659512 6413448 6429268 6463700 6305278
3906.13 6130154 6285614 6293858 6190960 5904886 5605820
3911.92 5841896 5928998 5923094 5615560 5251862 5381888
3917.70 5252004 5056514 4797220 4758640 4951062 5011524
3923.49 5076650 4962568 4668382 4454366 4605262 4456152
3929.28 3856190 3759880 3822856 3902416 4151620 4178620
3935.06 4094154 3797632 3553516 3629464 3843186 4140534
3940.85 4087400 4023874 4150830 3925042 3868076 3942490
3946.63 4238964 4774592 4418946 3963058 4078580 4215026
3952.42 4151938 4295226 4436018 4380806 4582558 4776082
3958.20 4595478 4540686 5015704 5247650 5125222 4958050
3963.99 5126706 5337908 4988116 4949934 5380640 5557712
3969.77 5487186 5178266 5335862 5747654 5650140
##END=
