##TITLE=Ethanol
##JCAMP-DX=4.24
##DATA TYPE=INFRARED SPECTRUM
##CLASS=IUPAC A
##ORIGIN=NIST, Anayltical Chemistry Division, 301-975-3108
##OWNER=COPYRIGHT (C) 1998 by the U.S. Secretary of Commerce
##DATE=98/10/1
##$SPECTRA VERSION=1.00
##$UNCERTAINTY IN Y=2.0 % relative (B=1.0E-04,C=2.9E-10,D=2.7E-14)
##CAS NAME=Ethanol
##CAS REGISTRY NO=64-17-5
##MOLFORM=C2 H5 O H
##MP=-117.3 C
##BP=78.5 C
##$NIST SOURCE=QUANT-IR
##SPECTROMETER/DATA SYSTEM=IFS66V (Bruker)
##INSTRUMENT PARAMETERS=KBr Beam splitter; MCT Detector; Multipass cell
##STATE=gas
##SAMPLE DESCRIPTION=Ethanol Primary Gas Standard
##PRESSURE=101.3 kPa
##TEMPERATURE=23 C
##SAMPLING PROCEDURE=1 L/min Flow
##RESOLUTION=1.9290
##DATA PROCESSING=NB Strong Apodization
##XUNITS=cm-1
##YUNITS=(micromol/mol)-1m-1 (base 10)
##XFACTOR=1.0
##YFACTOR=2.2737E-13
##DELTAX=0.9645
##FIRSTX=574.687
##LASTX=3974.595
##FIRSTY=2.46E-06
##MAXX=3973.63
##MINX=574.69
##MAXY=.0003107
##MINY=-4.03E-07
##NPOINTS=3527
##XYDATA=(X++(Y..Y))
574.69 10841960 10662720 12196650 11044350 7808324 7718848
579.51 8228570 9297120 10869810 12200120 12006630 11049340
585.29 9473338 7575560 9561796 10524150 10000220 10497500
591.08 10220770 10429640 10586550 10719860 11426240 12165170
596.86 11771910 11102450 11455680 11629350 11322630 11366360
602.65 10948650 11739460 12782650 12785730 12216770 12257380
608.44 12338880 11805310 11250650 11090650 11150150 12067070
614.22 11775200 11194140 12458680 12230640 12028720 12779560
620.01 13281290 12769090 11880030 11623260 11345170 11663870
625.79 12027780 11830660 11067290 10759070 10984460 11081120
631.58 10822690 11442940 11165140 10742650 10941060 11054510
637.36 10909490 10839210 10908940 11045480 10576570 9851664
643.15 10294580 10352310 9803906 9311704 8959534 9188616
648.93 8994532 8395896 7683310 7204704 7454330 7171074
654.72 7182920 6669176 6982866 7975202 7660850 7396130
660.50 7690378 7482200 6855046 6391774 6862190 7628448
666.29 11334130 11632610 8442644 6768236 6453038 6749930
672.08 6142724 5835790 5888060 6159952 5513992 5433942
677.86 5709692 5538912 5522474 5694906 5118220 5901594
683.65 6067338 5631868 4341284 4284378 4686360 5195178
689.43 4867776 4104338 3406910 3719630 4130986 3633170
695.22 3316164 3737890 3681356 2953188 3092388 3707866
701.00 3599304 3194512 2819530 2631752 2394702 2258630
706.79 2052954 2452344 2634666 2789910 2445802 2042918
712.57 1749754 2124922 2158472 1967026 1734720 1795940
718.36 1869304 2283384 2271510 1933404 2471098 2682968
724.14 2800058 3028398 2907754 2806934 2307350 2058546
729.93 2629554 2886966 2124732 2265988 2669124 2898170
735.71 2961308 2493660 2388240 3005948 3485384 3365498
741.50 3134968 3155408 3587556 3840342 3675896 3798556
747.29 3445796 3386114 3421482 3599332 3863202 4069662
753.07 4221130 3979040 4186282 4639294 4608806 5187116
758.86 5560184 5777652 5296108 5654228 6703216 7192962
764.64 6970766 6903088 7242332 8047174 8795596 9090150
770.43 9061510 9507688 10343720 10812220 11333780 11305700
776.21 11466270 12708770 13269810 13381190 14008140 14638120
782.00 15032470 15754040 16259780 16381630 16364680 16583460
787.78 16913400 16933280 16492880 16159530 16538170 16970720
793.57 17282580 17125440 17320910 19691790 19865620 19056020
799.35 24445850 27469740 22303740 19184430 20103150 21764090
805.14 19809490 18102520 17927580 17852700 18140110 19639200
810.93 20458160 20606180 19459880 18181750 17908280 18068230
816.71 17768140 17780820 18165540 18280100 17780930 17535010
822.50 17386440 16968010 17074800 17403840 17501690 17408170
828.28 17152790 16940190 17147300 17168780 17302440 17417770
834.07 17956040 18816500 19257190 19666680 20142970 21160540
839.85 22448750 23860510 25280290 26957970 28903310 31110850
845.64 32976250 35945700 39529080 42969530 46543310 50575370
851.42 55600380 60707770 66346160 72529060 78855400 85780700
857.21 93217330 101213100 109289600 116928800 124420800 132613100
862.99 140471300 147409900 154003800 159021000 162806700 165241000
868.78 167159100 167199100 164705500 160717200 156433400 151524800
874.57 146739700 145029800 152262200 196677300 239031700 189962500
880.35 158013400 173340200 180959600 167402600 162132100 161911500
886.14 162592600 164551100 170269400 184674900 219305000 227586400
891.92 202791600 189523200 186001400 187250600 188049600 187457700
897.71 184865100 181310500 175915400 170183000 162843800 154704700
903.49 146250300 138230500 128984500 119655600 110530400 101681300
909.28 93130050 85842560 78405460 71484660 64826560 59463840
915.06 54545480 49997030 45791240 42322200 39053490 36702060
920.85 34393230 32558050 30553370 29298990 28096800 27110650
926.63 26059810 25431750 24768330 23840640 22748150 22136700
932.42 21564550 21347880 20674920 20347100 19976970 19760160
938.21 19364810 19091590 18775020 18504300 18279700 18240590
943.99 17907970 17851110 17550620 17625070 17387410 17422730
949.78 17435990 17616070 17759430 17893720 17706890 17857210
955.56 18168070 18761400 19089500 20008050 20735870 20994530
961.35 21293050 21783510 22139790 22732570 23553460 24183030
967.13 24790460 26024130 27046940 28444010 29807330 30908380
972.92 31725070 33215840 34765750 36076530 37306900 39150060
978.70 41227910 43368020 45449160 47784590 50327680 53257500
984.49 55982170 59264690 62729560 66991050 71255540 75842680
990.27 81093620 86907470 92624560 98502320 105357600 113115100
996.06 120916100 129996300 140000200 150354600 160889900 172938600
1001.85 187153900 204115500 219518900 231594000 243733700 257443900
1007.63 272121100 288999000 306638500 324025100 340402100 354676000
1013.42 369662300 382976500 393133200 400561800 409241400 415599800
1019.20 419115000 425629900 433132400 439613600 447902300 476761600
1024.99 549494400 677345500 725192600 600715300 519979200 532694100
1030.77 567620500 605112500 638760100 682640600 746532500 842973400
1036.56 908613900 894906300 893250300 926924700 959724000 987169900
1042.34 1015001000 1039750000 1063525000 1089899000 1101849000 1105879000
1048.13 1119613000 1137500000 1144173000 1153470000 1154991000 1144369000
1053.91 1142805000 1164964000 1215449000 1248631000 1164619000 1061768000
1059.70 1021270000 1017777000 1044466000 1096125000 1177073000 1310865000
1065.48 1366653000 1246284000 1097480000 1035084000 1047287000 1071599000
1071.27 1099237000 1120626000 1136219000 1137730000 1133849000 1124328000
1077.06 1105425000 1078330000 1042322000 1000560000 958184400 912698300
1082.84 871326000 828888600 786227800 744199000 701701000 676792000
1088.63 657097800 594104400 514691300 476148100 459687000 447375500
1094.41 436760400 433715300 428722800 421476700 417611700 412999700
1100.20 406137700 397776300 389550300 378964800 365986700 350048400
1105.98 333766700 317524200 301020900 284997700 266990500 247249000
1111.77 231466100 219394200 207769300 191388400 176958100 168085300
1117.55 158092000 147974100 138426500 131531000 125071200 119503800
1123.34 114638600 110404100 105937500 101428100 97576670 93663860
1129.12 89908770 86679270 83033590 80285760 77874010 75080250
1134.91 71415760 68671450 66231660 63540000 61286560 59902460
1140.70 58176970 55557360 53559290 52706170 50929200 49189940
1146.48 48000250 47112990 46203220 46003820 46733840 47961380
1152.27 47276280 45655150 45025610 44465750 43838950 43697530
1158.05 43559800 43123860 43210690 43487400 43307320 43581820
1163.84 44278030 45212540 44959660 44642170 44648290 44765400
1169.62 44603710 45236980 46283440 47062270 47359990 48108870
1175.41 49049370 50314680 51148020 52369160 53922140 55334370
1181.19 56767360 58412470 59829900 61358360 62796300 64509110
1186.98 65941680 67343580 68679910 70443140 72771690 75530950
1192.76 77869500 80299800 82577130 85112920 87073460 89049220
1198.55 90618820 92727380 95243040 98467010 101784600 105752700
1204.34 110354900 114824500 119895800 124662300 129992600 137026600
1210.12 143388000 151297900 159465400 169799200 178694300 189836600
1215.91 201697500 212765500 223890200 235243400 246681900 258277800
1221.69 268902300 278673000 286513700 295061700 302297700 307575800
1227.48 311879800 314921300 316253600 314182700 306102200 297504100
1233.26 285190700 275690000 264613300 256059700 242879100 236434600
1239.05 278518700 375121000 363710200 291872800 269093600 271402100
1244.83 285523500 291507800 304641800 340082800 358763800 338591100
1250.62 324203800 319429700 316639000 311142100 305536300 301488400
1256.40 295862300 287661700 282015700 274311600 263228400 250180300
1262.19 240202600 230158100 219344800 207885500 196001700 183742900
1267.98 172897900 161933000 154218100 146651300 140369600 133551000
1273.76 127213400 122838900 118882400 114174200 110156700 106072900
1279.55 102682000 98810900 95096800 91956190 88834200 85566520
1285.33 83719340 82138020 80476900 78716580 77100250 75764790
1291.12 74349160 72666590 71627100 70997820 70409340 69385190
1296.90 68117230 66382000 65537050 65360530 65138180 65423540
1302.69 66432630 66468500 66702090 66819180 65952750 65438170
1308.47 65633690 65831900 65951090 65920300 65711850 65472100
1314.26 65553080 65910450 66131820 66021590 66096970 66592220
1320.04 67794810 69274360 70109300 70452420 70746140 69971820
1325.83 68822250 68183520 68101800 68781100 69825900 70640720
1331.61 71385730 71762380 71854790 72940540 74930360 77064620
1337.40 77687380 76285300 76065060 77972160 79577860 80282780
1343.19 81615290 83086920 84792270 87138450 89214400 91161580
1348.97 92699120 94973390 98782230 103043200 106971100 110812200
1354.76 114960900 120071700 125509400 130968800 136270900 142530800
1360.54 148977200 156322000 164518400 173777100 183059700 192406100
1366.33 202160500 212478000 224137200 237875100 251612200 264830600
1372.11 277778400 290516400 303448800 316585700 330550800 343426300
1377.90 354584600 363410400 370509100 374994000 376126000 373396100
1383.68 364974500 353261900 339674500 325252100 311411400 309205500
1389.47 323485800 355916600 425609800 547992000 580450400 453814800
1395.25 344748800 314904800 319041500 330604400 344507400 361699600
1401.04 380872800 398311400 413848400 424932800 426776700 423966000
1406.83 419249000 410941200 398411100 382547100 365263600 345748200
1412.61 324125000 301729100 281223200 261646800 242542000 225728900
1418.40 210319800 196866000 185642800 176204800 167273400 159610700
1424.18 153959200 148204400 143560200 139081600 132740200 127976600
1429.97 126377800 125518800 125438100 125284900 125907400 125444600
1435.75 125854200 126406900 124843700 123829700 123571300 123465000
1441.54 122552200 122171000 121283600 121876600 122819600 126473600
1447.32 136381200 156403300 163005900 148578000 145500100 154978200
1453.11 153851700 133301700 110249800 97922700 95824850 94317600
1458.89 94164440 94116430 93343820 90303870 89104190 88062220
1464.68 88725740 88036620 87565850 87478960 87257220 86526130
1470.47 86544660 86963850 86628600 87141640 86646000 86452760
1476.25 85535320 84772120 82756420 81064860 78651540 75579750
1482.04 73046300 69487070 66406530 63360560 61253330 59907400
1487.82 59720150 59436910 58171540 56972730 56959170 54849920
1493.61 51011760 48298600 46872690 45422200 44611600 43591750
1499.39 42287320 41004640 39798750 38554780 37508870 36013960
1505.18 34417840 32928710 31586930 29987410 28572440 27063370
1510.96 25658160 24496270 23308350 21991930 20813230 19735860
1516.75 18908770 17671260 16546010 15528060 14743170 13978910
1522.53 13457020 12741180 12136130 11548300 10841620 9998266
1528.32 9411792 8911330 8418298 8122080 7958200 7370376
1534.11 6830248 6470368 6078478 5704670 5661982 5280978
1539.89 5004596 4723914 4536084 4320290 4136168 3815554
1545.68 3654528 3592594 3556128 3334834 3316924 3204340
1551.46 3012604 2830732 2804508 2776238 2740306 2528336
1557.25 2412112 2420880 2407240 2364108 2317282 2186830
1563.03 2209900 2187710 2146392 2003812 1870650 1870342
1568.82 1968812 1952812 1942270 1807784 1901360 1884508
1574.60 1892932 1736512 1804426 1952210 1869260 1689388
1580.39 1812508 1733124 1760560 1628736 1592184 1629338
1586.17 1719332 1791152 1927272 1827318 1801220 1795894
1591.96 1901994 1952038 1977066 1776372 1879702 1875478
1597.74 1741678 1717486 1762392 1758200 1913608 1787990
1603.53 1696880 1777150 1920136 1789174 1640986 1915342
1609.32 2120996 1755060 1653650 1617580 1547188 1520774
1615.10 1594434 1567196 1625144 1562706 1774336 1762858
1620.89 1753232 1642002 1600196 1459032 1450918 1490468
1626.67 1622130 1632782 1608746 1595008 1639264 1603300
1632.46 1589918 1472362 1427560 1458248 1530842 1413878
1638.24 1538322 1757140 1816468 1697154 1661266 1778334
1644.03 1954338 1767092 1681920 1814570 1965942 1812924
1649.81 1746730 1758720 1703974 1694756 1713916 1554428
1655.60 1661160 1706600 1726436 1688598 1839954 1851632
1661.38 1838124 1926596 1979488 1753304 1831114 1950122
1667.17 1984764 2053906 2214258 2145306 2198366 2256430
1672.96 2363310 2400552 2241210 2025820 2092508 2186898
1678.74 2254990 2256496 2258690 2212668 2229534 2193892
1684.53 2279040 2236830 2165642 2021492 2111274 2129058
1690.31 2154004 2104726 1994962 1876512 1955970 1973176
1696.10 2025894 1920440 1842270 1821728 1872218 2017916
1701.88 2089578 1894082 1800324 1716740 1622182 1642408
1707.67 1677272 1539894 1518512 1535664 1577234 1704186
1713.45 1782572 1881236 2005292 1836254 1667116 1503892
1719.24 1537744 1740168 1802108 1656132 1528666 1471212
1725.02 1476594 1421050 1452240 1457020 1506018 1503654
1730.81 1537326 1489856 1421640 1448964 1685436 1716152
1736.60 1760568 1802574 2006042 2034940 2007032 2065370
1742.38 2118060 2055156 2149438 2072294 2029950 2024334
1748.17 2138074 2147000 2090088 2196118 2303438 2096592
1753.95 2200572 2622338 2481312 1937340 2013586 2337968
1759.74 2437980 2454418 2666086 2713318 2642850 2622824
1765.52 2616216 2682794 2865466 2867440 2864060 2791100
1771.31 2762690 2648422 2601500 2430078 2377914 2363586
1777.09 2422722 2511404 2604594 2331506 1739728 1504978
1782.88 1595114 1614812 1535722 1498402 1588370 1538114
1788.66 1412748 1164732 1096400 1011674 997450 976934
1794.45 941668 795058 766550 667618 451308 243308
1800.24 223992 146140 59824-51766 70436 20406
1806.02-120740-185346-318678-504830-496466-490484
1811.81-636006-682766-539416-524460-641924-820938
1817.59-677002-591906-638894-808688-939704-793186
1823.38-694986-734942-718516-693426-752678-849698
1829.16-822134-747780-757356-824154-694632-711782
1834.95-805468-908498-873470-865036-868948-948008
1840.73-875718-777922-698216-715744-660620-778428
1846.52-782808-790536-800852-732750-638236-830524
1852.30-773184-632594-600880-685656-658502-524886
1858.09-414728-412488-357088-407450-374762-340356
1863.88-302606-167278-25672 110572 134024 125098
1869.66 160662 200824 380028 511372 664794 704330
1875.45 759382 794692 887598 1041122 1145774 1226616
1881.23 1388418 1671968 2036232 2310208 2515364 2694634
1887.02 3042386 3340228 3713898 4059212 4331190 4540976
1892.80 4989266 5438750 5905360 6250650 6617840 7027990
1898.59 7365006 7735238 8117908 8583324 8961418 9053586
1904.37 9368070 9638134 10008470 10380100 10709640 10853990
1910.16 11200390 11854980 12671360 13699350 14714850 14465520
1915.94 13409500 13028260 13537030 14202010 14715520 15003760
1921.73 15460960 15851730 16020550 16404940 16830050 16563910
1927.51 16225300 16253760 16717750 17358690 18162580 19626700
1933.30 20005920 17311160 15549200 15034560 14515690 14317140
1939.09 14264220 14248640 14450260 14746080 15063500 15109390
1944.87 14609010 13587830 12702110 11983460 11425530 10827950
1950.66 10377610 9825356 9183582 8647472 8235218 7743958
1956.44 7341174 6961648 6570556 6194456 5908430 5559440
1962.23 5427582 5242384 4961030 4788884 4724108 4411562
1968.01 4059888 3788866 3621630 3382204 3146088 2944532
1973.80 3021028 3146872 3094756 3044322 2829358 2339858
1979.58 2084270 2082212 2107542 2066284 2191126 2181764
1985.37 2191760 2269262 2208996 2142246 1995588 1710792
1991.15 1610324 1383896 1089976 1008304 882784 632198
1996.94 474196 288072 223536 131294-119286-447906
2002.73-469584-446184-619670-882106-956830-1083146
2008.51-970092-999344-1220808-1216214-984308-996882
2014.30-1219750-1454188-1506456-1561320-1579250-1585828
2020.08-1443656-1419122-1471642-1479638-1415110-1440972
2025.87-1484100-1549162-1511878-1527564-1570596-1543804
2031.65-1458384-1420400-1381840-1494002-1469744-1453836
2037.44-1391604-1286698-1276624-1320094-1277968-1305118
2043.22-1407016-1447762-1312622-1428898-1344642-1104838
2049.01-964166-1085002-1315110-1563382-1639978-1710450
2054.79-1498128-948126-607162-679302-744798-827530
2060.58-833014-848404-649970-651834-710452-596814
2066.37-510534-392154-294242-556970-566224-462156
2072.15-108616-283562-540522-251238 343934 516888
2077.94 246368 154022 329176 810166 1043108 896936
2083.72 991564 1503914 1803656 1362998 1528416 2128586
2089.51 3000156 2751250 2571334 2827912 3748786 3983446
2095.29 3498104 3561486 4321836 5040776 4518252 4399276
2101.08 4906680 6123942 5790268 5211172 5622292 6551738
2106.86 6963836 6179906 6291662 7133524 7910442 6784248
2112.65 6293784 6469414 7091466 6063990 5586158 5947478
2118.43 7189428 6873930 6286892 6670582 7927772 7900206
2124.22 6915228 6670240 7295458 7313984 6447188 6214872
2130.01 6497096 6330678 5459008 5122028 5179918 5141228
2135.79 4526582 4061290 3817354 3794676 3389000 3052954
2141.58 2705134 2451944 2364890 2260602 2382464 2313864
2147.36 1853464 1567472 1926976 1943430 1354220 1241238
2153.15 1950096 1948056 1195354 1301804 2162730 1975444
2158.93 1153800 1566532 2457132 1955910 1155034 1936954
2164.72 2698966 1732904 1234112 2452374 2911150 1766756
2170.50 1783332 3048358 2828766 1827692 2576704 3429920
2176.29 2305700 1454638 2637402 3006952 2112502 2313316
2182.07 3344192 2824582 1983580 2781098 3154330 1990356
2187.86 1873198 2720480 2256614 1424812 1835652 1990740
2193.64 1484536 1514088 1747616 1106558 702114 1044318
2199.43 872604 454688 718612 747430 384194 170844
2205.22 332920 220770 57788 150838 209038 125746
2211.00 116868 173894 120712 15872 117992 118932
2216.79 88758 140364 68792 193920 458346 500558
2222.57 622786 753536 840054 1140188 1101130 917246
2228.36 1028268 1296598 1555834 1682168 1945058 2061264
2234.14 2137262 2360686 2574788 2955746 3270406 3236644
2239.93 3306358 3450778 3662818 3847790 4060638 4253474
2245.71 4464888 4675030 4922090 5189948 5484234 5467988
2251.50 5410096 5530498 5696834 5830224 5856662 5636112
2257.28 5499190 5691156 6160164 6505870 6509666 6339770
2263.07 6273060 6251624 6372484 6397064 6279224 6186450
2268.86 6492714 7070126 7460188 7034710 6799758 6946898
2274.64 6780570 6497440 6321968 6212098 6291428 6173562
2280.43 6308018 6244178 6069534 6002476 5777942 5444578
2286.21 5375178 5162844 4980694 4822560 4561238 4340484
2292.00 4154354 3783008 3663684 3682066 3544544 3289298
2297.78 3297190 3344138 3293912 3415116 3591108 3267038
2303.57 3282712 3346402 3537440 3542422 3580814 3887954
2309.35 4074392 4184750 4105742 4482814 4260074 4656782
2315.14 4724684 5239038 4975742 5454854 5391376 5951824
2320.92 5689316 5989722 5905908 6395906 6687114 7588928
2326.71 8499762 9000564 7779784 7305612 7286708 7693034
2332.50 8013604 8399464 8451444 8805738 8847094 9124020
2338.28 9167776 9022842 8723282 8474690 8231302 7803604
2344.07 7126024 6288370 5437576 4737406 4143488 4161788
2349.85 4730296 5444350 6128764 6905884 7622918 8259124
2355.64 8795190 9090962 9374752 9776088 10046520 10050380
2361.42 10047210 9956098 9794240 9663234 9366886 8996436
2367.21 8708812 8316732 7807574 7224348 6793644 6350832
2372.99 6109550 5916446 5721612 5445056 5240626 5069252
2378.78 5035278 4942144 4768812 4818610 4991436 5109124
2384.56 5206224 5328836 5316376 5318990 5341284 5363170
2390.35 5366850 5474520 5683122 5805074 5879268 6012298
2396.14 6191924 6276878 6197426 6011866 6033530 6238374
2401.92 6504314 6557050 6605810 6859514 7022492 6969430
2407.71 7042802 7175924 7352552 7478876 7447200 7331178
2413.49 7316212 7222172 7053938 6818600 6781680 6791198
2419.28 6718666 6627272 6375310 6252032 6173418 5889092
2425.06 5693318 5391556 5185368 5279414 5524890 5371074
2430.85 5220982 5250198 5161602 5182540 5223594 5239050
2436.63 5195460 4858418 4744952 4752946 4575274 4324828
2442.42 4272212 4177384 4055984 4103094 4001080 3773910
2448.20 3749670 3868158 4003336 3971388 4043642 4063878
2453.99 3995336 4090988 4196800 4034960 4007132 4093258
2459.77 4177158 4104526 4037128 4013690 3868848 3893822
2465.56 4199502 4131326 4035072 3921928 4093076 4267160
2471.35 4355008 4393758 4369876 4265482 4265184 4371510
2477.13 4529120 4601202 4506980 4048360 3782218 4139178
2482.92 4712404 4811494 4569460 4620668 4753286 4595258
2488.70 4441588 4056188 3970686 4085064 4195216 4173698
2494.49 4005020 3728420 3572436 3534636 3435682 3215328
2500.27 3244260 3147246 3122654 3077672 3071564 3195878
2506.06 3213624 2908014 2851528 2772784 2703738 2762370
2511.84 3025058 2747996 2550776 2791638 2959400 2717132
2517.63 2664256 2685970 2580090 2254698 2273558 2451432
2523.41 2575760 2550732 2449534 2349596 2363150 2269858
2529.20 2288476 2381094 2412938 2453384 2539448 2375246
2534.99 2258138 2215624 2251076 2272774 2358304 2408280
2540.77 2516196 2582554 2518060 2448326 2654412 2742218
2546.56 2809500 3003216 3221594 3104276 3083718 2936134
2552.34 2917802 3003314 3110234 3064800 3128352 3060546
2558.13 3153232 3228334 3385242 3252810 3408692 3619024
2563.91 3742432 3571626 3547808 3632324 3707332 3897312
2569.70 3948242 3871944 3917810 4083654 4159798 4293288
2575.48 4658500 4741538 4704968 4665062 4792186 4840198
2581.27 4942932 5007662 5250188 5339468 5558836 5692994
2587.05 5611448 5532372 5657924 5764222 5959730 5895558
2592.84 6170528 6489384 6781066 6786836 6661948 6540806
2598.63 6672128 6882182 7089526 7097368 7089972 7080038
2604.41 7210712 7365410 7374370 7395232 7455996 7680818
2610.20 8035040 7990544 8108790 8235076 8366564 8330022
2615.98 8514594 8625002 9018710 9463628 10085990 10385510
2621.77 10309780 9880154 9652694 9646412 9802466 9855666
2627.55 10177380 10405770 10712080 11029290 11296960 11331560
2633.34 11333560 11395130 11458500 11456360 11559890 11671430
2639.12 12009530 12119860 12297400 12475160 12598260 12696350
2644.91 12956750 13051430 13268810 13364390 13452730 13556870
2650.69 13799970 13988360 14259740 14381650 14429680 14262710
2656.48 14310820 14578430 14823230 14783930 14978410 15150860
2662.27 15282220 15350790 15437230 15508610 15742900 15774250
2668.05 15691940 15747420 15854510 15926780 15997320 15989230
2673.84 16159010 16248550 16281600 16216800 16385600 16434670
2679.62 16764450 17154370 17226350 17236500 17527930 17633260
2685.41 17635220 17574290 17765330 17930210 18186960 18454130
2691.19 18650100 18744070 18914370 18793770 19017290 19390660
2696.98 19678890 19919760 20348120 20604160 20949700 21154170
2702.76 21431280 21752620 22405850 22845430 23471930 24173590
2708.55 24642460 24459980 24666360 25218200 25838730 26300890
2714.33 26721550 27209950 27770630 28090360 28580870 28849700
2720.12 29423120 29940090 30273810 30423680 30489120 30497590
2725.91 31032490 31712980 32593310 33261810 33867590 34338450
2731.69 34771260 35211560 36030970 36781920 37518030 38266970
2737.48 38948110 39349540 40333910 41160340 42075530 42641180
2743.26 43159370 43457570 44082950 44418010 44525100 44760230
2749.05 45150160 45185960 45472330 45537750 45796880 46132430
2754.83 46526630 46912810 47423470 48016410 48835390 49099380
2760.62 49238710 49317330 49539010 49744720 50134710 50382040
2766.40 50819660 51217910 51729690 52189270 52929510 53422000
2772.19 53846300 54529510 55338260 55531630 56148330 56979860
2777.97 57984140 58624450 59181060 59607460 60179860 60342220
2783.76 60203710 59997040 60177150 60672110 62355140 64359070
2789.54 65912330 66793260 67678540 68666400 69968720 70850100
2795.33 71824820 72450190 73095000 73674240 74667140 75434110
2801.12 76145940 76420260 77088180 77823770 78481830 79145760
2806.90 79783250 80141180 80946300 81826740 82672470 83655200
2812.69 85318990 86969050 88889300 90305780 92148510 94345580
2818.47 96933500 98812180 100527000 102643800 105120300 107133900
2824.26 108714800 109968600 111521000 113292200 115891800 119048700
2830.04 122753100 126591000 130359300 133696100 137462400 141701100
2835.83 146685000 151739000 156977300 162109800 167337800 171683600
2841.61 176726200 182826000 189776400 196122400 202693300 210222700
2847.40 218646900 226942600 235567600 244460400 254311200 264240100
2853.18 274731100 285288900 296857100 308169100 319996500 331878600
2858.97 345485700 360054800 375697800 391318300 407242500 423307500
2864.76 439281800 453226900 465028000 474108100 481787800 488994700
2870.54 496527300 503004900 508954600 513810900 521545800 533387000
2876.33 547703000 561923700 574782400 590184500 611479800 632514900
2882.11 645564500 655173100 661596200 661112800 656855800 653471200
2887.90 655182000 662550300 674200800 685752300 692974600 695147200
2893.68 694144300 689859300 691882600 701819800 725147300 788314900
2899.47 874992600 860643500 786846100 749000800 739638700 739506100
2905.25 733266400 724918700 719569900 718062200 722561600 731155600
2911.04 724106100 701483900 682006300 670800600 665203200 662395100
2916.82 661717800 661850400 662887100 664614200 664457200 660351600
2922.61 653315700 646380700 641947200 637562600 634383000 630164500
2928.40 624454000 618683500 613911000 610306100 608385200 609122400
2934.18 613339100 615084900 612616800 609824400 610783600 614322200
2939.97 620466000 627064600 633020300 637401500 640260700 638129300
2945.75 634560800 635731300 643483600 655808200 671669800 685957300
2951.54 696257200 705336600 716761900 728652400 742340200 755829800
2957.32 768427400 776431800 783293300 790538700 801158400 813680400
2963.11 829372000 848723600 869065600 892855900 913881900 922997700
2968.89 931282500 946023700 959796400 952552700 936802400 928828500
2974.68 928236600 924975000 918776500 915070800 914767200 918004200
2980.46 919095900 898573100 897015300 926509200 953642400 965857500
2986.25 968932300 978638700 1055159000 989710000 839121000 792675500
2992.04 783899100 783538800 777258100 770511900 755351400 738298500
2997.82 719156700 698130800 674555500 654160200 632417300 611501600
3003.61 588670700 567177700 543532800 521713200 499061800 477911700
3009.39 455023200 433619700 411580000 392486800 373660300 355546800
3015.18 336911700 319795100 302217100 285781100 269221200 254123900
3020.96 238696100 224922100 210584800 197387600 184021100 172223600
3026.75 160043200 148666200 136813200 127037100 117327700 108332700
3032.53 99300650 91509000 83512460 76524380 69290560 63250930
3038.32 57314400 52246700 47310870 43225930 38561120 35114750
3044.10 31599120 28666780 25521380 23035880 20584660 18915820
3049.89 17181980 15616950 13568600 12586110 11386550 10422990
3055.67 8994184 8257932 7423788 7081524 6542666 6376472
3061.46 5469210 5472566 4877544 4539790 4048796 3944510
3067.25 3763444 3891782 3565434 3516802 3218128 3248826
3073.03 3225120 3450148 3274884 3302156 2988036 3050454
3078.82 2695826 2850060 2692188 2797216 2873986 2812016
3084.60 2618398 2900772 2981068 3219340 2759596 2915536
3090.39 2801856 3283434 3333780 3049152 2634080 2727508
3096.17 2734508 3184014 3016854 2979716 2879572 3073030
3101.96 2758514 2720106 2837330 3142330 2903456 2713320
3107.74 2592920 2707040 2793552 2948526 2849832 2914284
3113.53 2654722 2494028 2390028 2733026 2703608 2650926
3119.31 2686324 2833092 2561986 2398978 2395982 2778770
3125.10 2792554 2745072 2613370 2637518 2631124 2811822
3130.89 2428762 2567828 2823340 2768292 2487968 2504478
3136.67 2628286 2803698 2646154 2944396 2811738 2631126
3142.46 2435298 2568700 2761000 3273036 3093666 3099366
3148.24 2978116 2908002 2675582 2964816 2975164 3061294
3154.03 3099696 3363958 3587780 3429788 3275020 3503324
3159.81 3199566 3378664 3509258 3828234 3970886 4306892
3165.60 3917552 3906090 4020418 3922008 3915696 4027792
3171.38 4120146 4354566 3996650 3842556 3922632 4259650
3177.17 4497128 4648198 4796018 5002124 4818754 4949604
3182.95 5575814 5889790 5593494 5578346 5547950 5710554
3188.74 5844602 6001228 6107492 6327212 6532924 6839514
3194.53 6624728 6686960 6969296 7212494 7331026 7293434
3200.31 7309896 7837042 7973860 8028740 8479234 8743122
3206.10 8654182 8669930 8572828 8558170 8712468 8862976
3211.88 8627436 8801388 8882542 9311372 9157214 9153922
3217.67 9372258 9365716 9268966 9456250 9484064 9655162
3223.45 9759256 9715752 9256238 9239936 9193722 9004318
3229.24 8618680 8352050 8259408 8344854 7916238 7806448
3235.02 7472228 7221910 7011860 7375444 7102412 6306560
3240.81 6374064 6264130 5602864 5333600 4863720 4792354
3246.59 4728418 4619296 4473998 4145374 3564950 3462740
3252.38 3698966 3461350 3114112 2927694 2494880 2344394
3258.17 2470288 2065690 1662568 1481976 1178850 868612
3263.95 669240 738762 425862 616160 823022 568040
3269.74 277106-35028-519646-667010-450854-437970
3275.52-607200-522636-633806-821930-694050-539442
3281.31-1065632-1539862-1390644-1064408-1041288-1288480
3287.09-1426268-1269782-1102180-1146972-1326652-1401302
3292.88-1624610-1480402-1314580-1021660-925614-1120270
3298.66-1487120-1626782-1485652-1094640-1035722-1053278
3304.45-1162790-1131610-1033844-1045296-1315782-1400600
3310.23-1340126-1457900-1547902-1386966-1556684-1746592
3316.02-1295596-1009154-1398632-1603038-1772880-1665726
3321.80-1491396-1162610-1052674-1292624-1268110-1233272
3327.59-1371666-1099786-1200622-1343078-1104656-1139150
3333.38-1467486-1366546-1003448-915106-908636-850460
3339.16-1048048-1345904-1528338-767254-687728-671006
3344.95-816498-954436-577558-530650-596504-697402
3350.73-741216-615268-729944-655560-547068-632440
3356.52-373754-98880-47450-69034-31150 23390
3362.30-342484-74928 500694 747304 619778 718382
3368.09 737756 743672 997440 1248152 1217002 1758886
3373.87 1790720 1481380 1548408 2009154 2474140 2812346
3379.66 2857810 2859238 3054172 3292708 3422082 3565720
3385.44 3676394 3589226 3456332 3725352 3804214 3747246
3391.23 3736078 3972128 3953348 3838174 4058518 4333866
3397.02 4328830 4281152 4489566 4743258 4712948 5188412
3402.80 5441234 5319250 5341828 5313256 4664994 4705954
3408.59 5562070 5856620 5512280 5882770 5878278 5993360
3414.37 6151316 6072956 5604282 5310862 4944662 4801972
3420.16 4805026 4960726 4568876 4465540 4599084 4532550
3425.94 4132130 4022404 4210818 4075984 3853030 3886100
3431.73 3942818 4274222 4144764 4024582 3905884 4060492
3437.51 4388752 4382570 4355664 4104068 4206882 4459166
3443.30 4198820 4592954 4989874 4975040 4709610 4603344
3449.08 4701882 5105424 5574666 5394606 5432396 5633294
3454.87 5586222 5621254 5401482 5055638 5195998 5709028
3460.66 6297636 6782936 6338496 6241216 6606342 6828148
3466.44 6754952 6576466 6333130 6487452 6953346 7529892
3472.23 8604984 9849354 8870138 7606956 7728018 7462448
3478.01 6818210 6869006 6908510 7081680 6902922 6711720
3483.80 6678986 6677348 6855668 6867738 6398710 6220254
3489.58 6104570 6185680 5950658 5823284 6153808 6130404
3495.37 5435210 5334386 5417262 5225558 4775676 4969064
3501.15 5472970 5838362 5497042 4983490 4522924 4512152
3506.94 4763388 4865300 4546610 4199366 4131732 4121416
3512.72 4465134 4406860 3972080 3838768 3638334 3599890
3518.51 3780138 3605180 3134592 3015482 3059664 3181154
3524.30 3222624 3337214 3102752 3248830 3252924 3429286
3530.08 3935446 4151410 4126126 3874774 3717346 3725870
3535.87 3870682 3655918 3488926 3698310 3719490 3304654
3541.65 3151370 3590278 3852252 3865600 3924940 3793466
3547.44 3303218 3414378 3626862 3575710 3451012 3544426
3553.22 3687432 3861642 3778190 3601008 3789986 4209312
3559.01 3934296 3872936 4172374 4509982 4423960 4285948
3564.79 4460524 4528334 4580588 4497812 4351966 4150852
3570.58 3538974 2827054 3086472 3561642 3385676 3207952
3576.36 3343212 3262898 3463036 3810556 3473224 3153096
3582.15 3254306 3798220 4297022 4423974 4290038 4188490
3587.94 4426298 5061834 5615752 6220420 6688292 7167440
3593.72 7549926 7662384 7592826 7852932 8328600 9018228
3599.51 9776588 10142750 10469690 10914450 11537630 12153740
3605.29 12580440 12942590 13934090 14815880 15717340 16750600
3611.08 18024800 19348450 20778370 22414300 23932380 25155390
3616.86 26601560 28144530 29546370 31064940 32861200 34729490
3622.65 37248300 39832890 41618400 43213250 45354750 47573370
3628.43 49965960 52457680 55720480 59142810 62783150 66983350
3634.22 71350080 75172980 79150450 83742160 89270300 94947840
3640.00 100684100 106298200 112178800 118304900 125100200 131679400
3645.79 137623100 143656000 150198000 155958800 160688800 165427200
3651.57 170647100 175678300 184558400 200411600 206969800 211886700
3657.36 229736800 227933700 220920800 234677500 244608500 233579200
3663.15 227372300 228093500 230235800 230867000 231194100 229321100
3668.93 228995300 228650800 228102300 226050400 233936500 266135900
3674.72 325876400 316249000 229798700 187086800 180058000 182380200
3680.50 187320200 199651500 216901800 217010600 203164100 197828400
3686.29 196187600 195477100 193114800 190795200 186560000 181702100
3692.07 174639400 166671000 157381000 148289300 138234700 128285700
3697.86 118464300 109315700 99757160 90611440 81494320 73628340
3703.64 66334000 60383100 54996180 50105940 45393810 41645170
3709.43 38326440 35261460 31444600 28068270 25419180 23647230
3715.21 21893600 20783230 20143870 19493550 18233740 16795050
3721.00 15098220 14016360 12913230 12225620 11513440 10944780
3726.79 10246510 10083320 9914960 9258758 8623072 8692486
3732.57 8190410 7900048 7841996 7825256 7290564 6730078
3738.36 6192314 6279346 6278756 6285116 5752234 5759530
3744.14 5744742 6098232 6199468 6111324 5929640 6243672
3749.93 6617464 6861354 6573530 6653994 6500980 6282402
3755.71 5819060 5952674 6034984 6008284 6171568 6376714
3761.50 5703248 5590618 5727578 5896560 5676960 5312752
3767.28 5032046 4787636 4785624 4925058 5180746 5631912
3773.07 5585804 5716782 5705610 6021114 6375288 6600804
3778.85 6616356 6749832 6996830 7554190 8138354 8090546
3784.64 7841568 8231778 8405722 8755462 8648406 8481340
3790.43 7959540 7856218 7940614 7886178 7576524 7341118
3796.21 6944854 6901494 6605110 6613624 6714352 6665560
3802.00 6827346 6980850 6723440 6743932 6857692 7116602
3807.78 7040920 7115626 7175934 7413558 7419918 7423902
3813.57 7419156 7453976 6974984 6654688 7011580 7230614
3819.35 7406256 7660462 7647302 7564180 7408664 7694812
3825.14 8068622 8530874 8912094 9090684 8708998 9112414
3830.92 9842112 11287900 11386150 10410260 10222210 10256610
3836.71 9938648 9547780 9671984 10110460 10059400 9865358
3842.49 10168750 10663080 10701770 10677260 10831110 11021980
3848.28 10984490 10378600 10136100 10321330 10431840 10569940
3854.07 10499750 10180090 10297820 10409810 10097540 9820146
3859.85 9888434 10027790 10130390 10294570 10222220 9897418
3865.64 9965616 10634650 10492040 9547432 8530080 8387644
3871.42 8790596 9151748 9125994 9258878 9226576 9092362
3877.21 8917348 8795696 8638630 8498618 8784956 8853326
3882.99 8919352 9216532 9717936 10470990 9806028 8471682
3888.78 7438908 7346988 7536464 7708256 7434456 7185100
3894.56 7128598 7205872 7126502 7021890 6913906 6726864
3900.35 6753814 6607184 6339904 6378006 6390758 6257184
3906.13 6059022 6247312 6254210 6165616 5816938 5549632
3911.92 5758180 5926888 5880566 5583434 5174700 5331570
3917.70 5174814 5001906 4680244 4691358 4860124 4998202
3923.49 5035464 4944358 4589782 4422014 4533116 4402756
3929.28 3746244 3646576 3684474 3844872 4074802 4164148
3935.06 4019248 3726552 3417900 3534016 3750444 4103328
3940.85 4023176 4001976 4057446 3876528 3743142 3879986
3946.63 4195286 4782956 4367740 3923710 3959340 4154560
3952.42 4069270 4250520 4350228 4350070 4525730 4740388
3958.20 4520164 4502938 4964986 5258202 5087690 4942460
3963.99 5083292 5311978 4922478 4915654 5325978 5581280
3969.77 5435062 5158150 5275976 5752532 5625300
##END=
