##TITLE=Ethanol
##JCAMP-DX=4.24
##DATA TYPE=INFRARED SPECTRUM
##CLASS=IUPAC A
##ORIGIN=NIST, Anayltical Chemistry Division, 301-975-3108
##OWNER=COPYRIGHT (C) 1998 by the U.S. Secretary of Commerce
##DATE=98/10/1
##$SPECTRA VERSION=1.00
##$UNCERTAINTY IN Y=2.0 % relative (B=1.0E-04,C=2.9E-10,D=2.7E-14)
##CAS NAME=Ethanol
##CAS REGISTRY NO=64-17-5
##MOLFORM=C2 H5 O H
##MP=-117.3 C
##BP=78.5 C
##$NIST SOURCE=QUANT-IR
##SPECTROMETER/DATA SYSTEM=IFS66V (Bruker)
##INSTRUMENT PARAMETERS=KBr Beam splitter; MCT Detector; Multipass cell
##STATE=gas
##SAMPLE DESCRIPTION=Ethanol Primary Gas Standard
##PRESSURE=101.3 kPa
##TEMPERATURE=23 C
##SAMPLING PROCEDURE=1 L/min Flow
##RESOLUTION=0.9640
##DATA PROCESSING=Boxcar Apodization
##XUNITS=cm-1
##YUNITS=(micromol/mol)-1m-1 (base 10)
##XFACTOR=1.0
##YFACTOR=2.2737E-13
##DELTAX=0.4820
##FIRSTX=575.169
##LASTX=3975.077
##FIRSTY=2.47E-06
##MAXX=3974.59
##MINX=575.17
##MAXY=.0003456
##MINY=-5.70E-07
##NPOINTS=7053
##XYDATA=(X++(Y..Y))
575.17 10876260 10238860 11634110 11605730 14510760 14497750
577.58 6180394 6218290 7034848 6507384 10724120 9331702
580.47 2642366 12438160 12016510 9591168 7355320 18844350
583.37 11067550 11925330 9149804 14091630 9967456 10135260
586.26 8042876 5407684 6624112 8120200 16276490 10609920
589.15 7081436 9571368 11426200 11060130 10984460 8439856
592.04 10598450 10613550 11963840 7620306 13602830 9375106
594.94 10118280 11104180 14500710 9868580 12959220 14417770
597.83 8042810 11853560 10989970 11402440 11346460 13540720
600.72 10583510 9992728 11687280 13159100 10766850 9292454
603.61 11130260 11766790 13272600 11846760 14054140 13802150
606.51 10784400 12778540 12095960 11878620 11796680 14692360
609.40 10340350 12481350 11715090 10424790 11308100 10847820
612.29 12538740 9026326 10440910 14864080 11555320 13560820
615.18 9007774 10686930 11123750 12971060 15797270 10786780
618.08 9804850 12879100 13113800 12149700 12225880 15649240
620.97 12143810 13449920 12468390 10462470 11659380 13221910
623.86 10755840 9987356 12596260 11192660 12055350 11667700
626.76 12938210 12305580 10674510 11001390 11328650 9835056
629.65 11068540 10507000 11796600 11878890 10262520 9586882
632.54 11863010 11089970 12794160 11434450 9652152 10261880
635.43 11494690 11392670 9673814 12326780 11161950 9891360
638.33 11512520 10725600 10361570 11939080 9414044 12371720
641.22 10951040 10974620 9957564 8774856 9857510 10176830
644.11 11637550 10774590 9032218 9751860 10733400 8093510
647.00 10079660 7540832 9333066 9840516 8771736 9893580
649.90 8024536 8729524 7443858 9152814 6421124 5602886
652.79 8633744 7532454 8007824 6238536 6523988 8084966
655.68 8174548 5391614 6197236 5639420 9096914 8374000
658.58 8502022 6740438 8299756 5935368 7425198 9593770
661.47 6637556 7207914 7947618 7585782 5476458 4681106
664.36 8326084 7160732 5926636 8021492 4573654 12596030
667.25 20407920 9819798 8036826 8024232 8985318 5193164
670.15 5717472 5913166 8107648 6968276 5926006 6278510
673.04 6001312 5591942 5838634 5052380 6379248 7698824
675.93 5691218 3755154 6825220 4961576 4522810 6270122
678.82 7488186 4573716 4126992 5319096 7685066 5608492
681.72 4711172 4656336 4470326 7038556 6741092 5295850
684.61 6332564 6342016 5559808 2793746 3849080 4302794
687.50 4868536 4330964 5194438 4895246 5915282 5635084
690.40 3539820 3982928 4508636 2697858 2910762 3003202
693.29 5027870 5131838 3319158 3504076 3677724 2337862
696.18 3827992 3631086 3969766 4981328 2621872 2968876
699.07 1333870 4015912 3324954 4090932 3456534 4536158
701.97 2663952 3469334 2801256 2886788 2420870 3352930
704.86 1649650 2886730 1900816 3060720 1775774 1180832
707.75 2548062 2829982 2382708 2666354 2534472 3380600
710.64 2593478 2284278 2712422 1486766 2013836 1638266
713.54 1219416 2521792 2511490 2763070 1017184 2592212
716.43 1541310 2282888 726968 2164370 2119646 1920720
719.32 1135186 2436748 3190694 2957124 1480952 500614
722.22 2803466 2793312 2680002 3091064 2139700 2192236
725.11 4083458 2950834 2448610 3488908 2195018 3885624
728.00 1719192 3235564 1313620 2007262 1473134 2748290
730.89 4218302 2752086 2605942 2065550 1109210 1831064
733.79 3558096 2961580 2040482 2771182 3285244 3928558
736.68 2105894 2689704 1623956 2800670 1901052 3388130
739.57 3234418 4122538 3548212 3176274 2994976 3371248
742.46 3219596 2753490 2645108 4387050 3929008 3921606
745.36 3821138 3231930 3437688 4878764 3301486 3474986
748.25 3051722 3103760 3697920 4025260 2649328 3192954
751.14 4559160 4044366 3236668 4312414 4234810 4508266
754.04 4290806 4081408 2894092 4086136 5280054 4943538
756.93 4459216 3882342 4799546 5488394 6079832 4585772
759.82 5852230 6878998 5489442 4810796 4738950 5340338
762.71 6009678 7860588 6439050 7869274 7011054 7171256
765.61 6342752 7220814 6273322 7744622 7529348 7236402
768.50 9177070 9109642 9108056 8628792 9536314 9251776
771.39 8610556 8836756 9823276 12482050 8925360 10771250
774.28 11708170 10944750 12164470 11623570 10186780 10890440
777.18 12208560 12994970 13420830 14162240 12340920 13449860
780.07 13158850 14312330 14557870 15003440 14147230 15257190
782.96 15242180 16023870 15447560 17051260 17061300 15252800
785.86 16101500 17711940 15969180 15540010 16540320 19314250
788.75 15635460 15956400 18240550 17406150 14683990 15067790
791.64 17543920 17226560 14865840 17964420 17668680 16858490
794.53 16811330 19082140 15324170 16943840 15963880 20660080
797.43 25085150 18925330 18135110 16121540 17977930 24312620
800.32 31226070 34779660 23398770 19695930 18927910 19018290
803.21 18323910 18655590 21284320 26031630 21213820 19021860
806.10 17320370 17811490 18270170 17801700 17939950 18086550
809.00 17684950 17247860 17448920 22166690 19965010 19482490
811.89 21688640 20454960 21615580 18457250 19388430 17058030
814.78 17030800 19659510 16670650 18010060 19510220 16984620
817.68 17061440 17670800 18223620 18708480 17711670 18401330
820.57 18807730 18536290 15050850 18475120 18443850 17466220
823.46 15702420 18369240 15876620 17115000 17558280 17038110
826.35 18191940 17299520 17164210 17762470 17112800 18079610
829.25 15728450 16993160 17413520 17143710 16800070 17929200
832.14 16484670 17303950 17608460 18059860 16070010 18056650
835.03 19063100 18701890 19648770 18156140 20201720 19937500
837.92 19330940 19620430 21320540 20521190 21575380 23043120
840.82 22792310 23673760 25118310 24647990 26152680 27129690
843.71 27688360 28531360 29950740 31778680 32393480 32240240
846.60 33028790 36120150 38879600 38506460 41617720 43111320
849.50 44248160 46871780 48430640 49543730 52870140 55808260
852.39 58892370 60205580 62302840 66786280 69803690 72264570
855.28 74992460 79604740 81610460 85497250 89153010 94324540
858.17 95394700 101693700 105854900 109386500 112343600 118250000
861.07 120442700 123227400 128494200 133041700 137095100 140032700
863.96 145631500 146426100 149617200 155874400 159061200 156741900
866.85 160154100 166149900 165260000 161662300 166564600 170828400
869.74 167247800 165832900 167411100 168537700 159430500 160544300
872.64 159996000 156949800 153430700 151825000 148627400 146513900
875.53 144028200 142686800 145303300 146232700 154844200 158412400
878.42 232002200 363505600 209031000 151951100 147567800 149683200
881.31 158236800 168574700 202701200 191527300 169892400 160922100
884.21 158631900 163470200 161956200 162377000 162446900 161774300
887.10 160234300 166036300 166706100 168978400 171113400 177932200
889.99 187645700 214656700 280758300 234552900 200119500 198278400
892.89 194091200 187021600 182844800 186634700 186524800 187216500
895.78 186427300 190129700 189402800 187527200 184003700 187592200
898.67 184057400 180958900 177754400 178098300 172540700 169808400
901.56 167468300 164292500 157779000 155267400 149507700 147275700
904.46 141138600 138972500 135108400 128169800 123600500 121019000
907.35 113464400 111095400 106110700 102592000 95666560 92641340
910.24 89736840 86449190 81653670 77794740 75490100 71532140
913.13 67521380 64239150 61927230 59825880 55906010 55071180
916.03 52455450 50223580 46114510 46417180 44517050 42134500
918.92 39325100 39895610 37475140 36516280 35286630 35000020
921.81 32483120 33417070 31005950 30862790 29034800 29451730
924.71 28698000 28793910 26483810 27733990 26253930 26576700
927.60 24712190 25991320 24752310 25334280 24229420 24393360
930.49 22248180 23156510 22194820 22563000 21085310 21776790
933.38 21287410 22021250 20496050 21184190 19806850 20434910
936.28 20397380 19992770 19525940 20258770 18882080 20223970
939.17 18665400 19355020 18187830 19806860 18223520 18623310
942.06 17760850 18549790 18537220 18449220 17318940 18629920
944.95 17227410 18563750 17045150 18231980 16464190 18514010
947.85 17385110 17661760 16452140 18231160 16722660 18143720
950.74 17178000 17443180 17535630 18385410 17452220 18182640
953.63 17601700 18085160 17129240 18049230 17736600 18447030
956.53 17935660 19324290 18945520 18860230 18931370 20226500
959.42 20348900 21897370 20479900 20477750 21107420 22063960
962.31 20565180 22491360 21351820 22954780 21660480 22868010
965.20 22510570 24497370 23557860 24936560 23138150 25199940
968.10 25032580 26671130 25869050 27826250 26558910 29244100
970.99 28446720 30697550 30017610 31534450 30519760 32275410
973.88 31463070 33727710 33244230 36320740 34366920 36773660
976.77 35849090 38016410 37344580 39168300 40051760 41864400
979.67 41578450 43992660 43879850 45606270 46427280 48376730
982.56 47757720 50893280 51543020 53961810 53794480 56408080
985.45 56779780 60011160 60266150 63083670 63672520 67839900
988.35 68547960 72297420 72310180 76026240 77529360 82197550
991.24 82817740 87383520 89588280 93304880 94900910 98426700
994.13 100684300 106020100 108123100 114416100 116370900 120548000
997.02 124249600 130696800 133801600 141108700 143738800 151976100
999.92 154388700 161094600 164717200 174337600 178773600 184594100
1002.81 195278700 205349200 213126200 221703600 224683800 233800900
1005.70 234544400 244130200 248950700 260299300 262373400 271212700
1008.59 278459200 292562900 294675100 307614400 315656700 325227500
1011.49 330412300 342576600 349230700 356093800 352774700 378298000
1014.38 375493300 386615400 381694800 399718200 399528900 397710600
1017.27 398497600 413480200 417940800 419139500 406713900 423186600
1020.17 424737200 422329200 425335900 437098400 440879600 438546200
1023.06 435444100 448236400 452184200 464346800 486184800 539829100
1025.95 583237300 666539500 797903600 844290100 704483600 516917200
1028.84 508034600 500578800 513960400 535055500 542662600 565440800
1031.74 590577800 612015400 617396700 635525900 651280100 688758800
1034.63 696007200 740263900 767886700 857732000 896864300 969568300
1037.52 934558800 842847100 881266700 887218100 907826900 920103200
1040.41 957966800 959345900 972355600 984878000 1000128000 1018679000
1043.31 1028947000 1043919000 1045324000 1058336000 1082090000 1095881000
1046.20 1099787000 1111696000 1101373000 1096575000 1106967000 1119885000
1049.09 1131204000 1142302000 1152187000 1131897000 1146767000 1155553000
1051.99 1162263000 1165618000 1149443000 1137511000 1136841000 1133604000
1054.88 1150732000 1158780000 1166371000 1212615000 1249841000 1310661000
1057.77 1290337000 1133905000 1074027000 1042528000 1029316000 1018122000
1060.66 1001232000 1017127000 1012785000 1041272000 1061431000 1097822000
1063.56 1122934000 1148580000 1211177000 1323176000 1408427000 1520046000
1066.45 1268106000 1266465000 1185313000 1015119000 1052398000 993726500
1069.34 1045951000 1048726000 1052014000 1072973000 1091937000 1086660000
1072.23 1128003000 1114489000 1130505000 1140448000 1149009000 1135614000
1075.13 1132299000 1135742000 1132655000 1132118000 1113741000 1109021000
1078.02 1090805000 1083628000 1069597000 1035160000 1026416000 997900100
1080.91 981649900 959531800 936382100 911150900 887333000 871330200
1083.81 855171400 830031600 806488300 778276700 769394900 750910500
1086.70 725638300 683371600 680533100 678866800 664821800 670927400
1089.59 666259300 602739200 530256800 493401400 484674100 472239000
1092.48 467498900 456226600 455130100 448473100 440513900 432094200
1095.38 431537500 431477600 445724300 422526900 422708600 422515700
1098.27 416923500 417883600 419414300 410644100 410193200 409109100
1101.16 402372900 392735500 396878000 392082600 383838500 376420700
1104.05 379210300 363438700 358177000 353332500 339973900 330651500
1106.95 329660900 317714000 307622300 300034400 295106500 282931800
1109.84 279495000 268533700 255414300 245756000 237547300 229822200
1112.73 224941400 219381900 213787500 208072600 206466800 189941500
1115.63 178551100 171922500 175421300 171694700 160695100 155788900
1118.52 157361200 146664700 141531800 136744700 136028700 130888900
1121.41 127754000 125502100 122747600 117089200 118064100 114252300
1124.30 114189000 107054000 109658100 108187000 102483100 98650910
1127.20 100942200 99221770 94722340 91900660 93135900 91461660
1130.09 84257970 88490950 87618390 80520110 79313390 82360540
1132.98 80253540 76109130 75811120 77700400 74160970 68346060
1135.87 69789960 69837100 68033610 64521000 66138260 63593480
1138.77 61931720 59882530 61402850 60037810 58984800 58477130
1141.66 57994060 55016620 53442450 52593070 54035580 52706720
1144.55 52941580 50209320 50202450 48204940 49331440 47298920
1147.45 47964940 46957430 46572430 46339380 45476180 45422920
1150.34 46463850 46581220 46486940 49028190 49837910 47131310
1153.23 45693510 44917610 45462150 45006760 45149660 44180670
1156.12 44281460 43647240 43332530 43627020 44165300 43540080
1159.02 43603580 42624080 43002880 42401460 44408660 43937990
1161.91 42702050 43366090 43159940 43837960 43256720 44435850
1164.80 44304090 46088260 46776870 43089680 45207980 44843780
1167.69 44371640 44092460 45384050 44953280 44691890 43894840
1170.59 44677490 45352130 45370680 46349350 47565210 46822820
1173.48 47364820 46589510 48623720 47074960 48849100 49162460
1176.37 49429960 50073630 51835410 50747860 51098820 51966460
1179.26 53811220 53612940 55353860 54559930 56105030 56804610
1182.16 57883240 57917200 59541260 59839780 60478870 61143460
1185.05 62485680 62474760 63673570 64117640 66215700 65451980
1187.94 66746310 67111980 68429020 68250160 69556630 70170380
1190.84 71271740 72400960 74677110 75582180 76758860 77516760
1193.73 79743200 79685170 81929620 81984380 84125340 85246080
1196.62 86553950 86709300 88144490 89085130 90365220 90111780
1199.51 91490520 92291180 94070060 95463060 95915740 98626780
1202.41 100362500 101889500 103009700 105635700 106880500 111790700
1205.30 113854700 112384200 116632000 121063400 124211300 123307500
1208.19 125687000 129301500 133541800 140140800 137025900 143516700
1211.08 146942100 152737100 153310200 159381200 164092400 168233500
1213.98 179297500 178015800 178218800 187935800 204754700 198936000
1216.87 200789200 220128100 219537500 214938400 233873100 243801900
1219.76 228891400 244427600 267788000 252306200 250567400 283118400
1222.66 280569700 263110700 283358500 302403300 285364200 276478200
1225.55 313962400 320066900 278248700 308365800 331359100 303342300
1228.44 299499400 328463600 325044300 298925300 316286700 339018600
1231.33 297140300 295782500 316376800 297770500 289632400 282163100
1234.23 276244100 286943300 264541500 261428000 260306900 260856800
1237.12 252845100 236910700 238880100 231742200 222289600 242347100
1240.01 284749400 458802500 485901300 347640100 282566700 276533500
1242.90 288601100 246976700 263437900 274952200 278337500 280378300
1245.80 301902400 291188100 292443600 283052900 315258800 341425600
1248.69 394192300 349270100 368136400 336966200 311610700 316093700
1251.58 335101200 322207900 306008200 314403900 329968100 309380300
1254.48 296492000 307420600 310505400 300976300 290632700 303700200
1257.37 298228000 277943800 279292700 290914800 282686800 268205300
1260.26 268732400 270372900 257540900 242249900 242931200 246832900
1263.15 235830000 224967700 226149700 224113500 211366000 204032900
1266.05 206184200 197704200 188233900 179102200 181450800 175025300
1268.94 166744500 157114200 156402000 159940800 148847200 142491500
1271.83 145508400 141771500 135730000 134067800 130420100 125590800
1274.72 123849100 123180600 121713600 119495700 116381800 112306600
1277.62 113618600 110096700 107862700 105227300 104862300 102499900
1280.51 101433700 98656610 96732000 94669410 93349550 91493290
1283.40 91824600 88410780 86765250 85068720 84318670 82950150
1286.30 83902930 82234610 81056320 79998580 80376260 78448700
1289.19 77862680 76740940 76474260 75526160 75860960 74000460
1292.08 73895500 71652910 72644260 71114640 71182570 70887300
1294.97 71360270 70158750 70049950 69337660 69074800 68295930
1297.87 67594110 65490070 65987420 64627000 65664040 65807200
1300.76 65284550 64921680 64569050 65130380 65981540 66809470
1303.65 67600500 66041640 65723640 66310560 67873730 67692500
1306.54 66078720 65451510 65922140 64609750 65777180 65434020
1309.44 66150300 65599530 66061860 65631920 66563390 65499040
1312.33 66242160 65353820 66063070 64802920 65687380 65412880
1315.22 65581190 65802980 66665720 65887660 66261110 65998870
1318.12 65747060 66087690 66230210 66272370 66960850 67351220
1321.01 69176270 68902720 70550780 70365020 70013280 70058480
1323.90 70993750 71042080 71454820 69522380 69407410 68425780
1326.79 68418300 68119370 68089000 67364660 68473150 68798930
1329.69 68785630 70365370 70679380 70044210 70983860 71735970
1332.58 71838470 72032580 71569370 71591480 71634070 72667150
1335.47 74063770 74549580 76300500 77226780 78046140 79546060
1338.36 77628440 74444570 75508300 75575940 76509460 77057910
1341.26 81165840 79319760 79955380 79685230 80529250 81645770
1344.15 83190930 82572650 83441680 84652570 86006550 86983470
1347.04 88898640 88871100 90072260 91412860 92323600 92825490
1349.94 92691380 94029180 97069460 98438340 101230600 102867100
1352.83 105386200 107106300 108482000 111022400 112824300 114345800
1355.72 116554300 121343400 122040700 124937000 129425100 130769700
1358.61 133225500 136155800 138631400 142806300 146003100 148566700
1361.51 152495000 154769900 161358100 164824200 167288900 173463400
1364.40 180308900 183149400 186205200 191881200 199004700 201371800
1367.29 206445800 212053600 218861000 222783600 229062800 238804300
1370.18 246266900 251337200 257582100 264206900 273309700 277602500
1373.08 282867000 290473200 298286100 302779800 309831200 315868800
1375.97 322893700 332165000 337683100 342906500 349724800 356062200
1378.86 360324400 362190700 368265300 371069700 374170000 376569000
1381.76 375696100 376714800 377111300 375907100 371198300 363736400
1384.65 361872400 354250000 344298500 340899500 333594100 326804800
1387.54 315016400 309072700 303850000 304271300 307531600 324527300
1390.43 328782000 352480700 374264000 393940600 453462200 572431800
1393.33 669181100 649106200 554589900 416161900 356622100 320554600
1396.22 312387300 310450100 311042800 317038400 325054800 331778800
1399.11 336200800 341528500 352507300 361284600 372680400 378697000
1402.00 391814500 401030000 405042000 411357100 425391300 429105400
1404.90 429240100 425933500 425826100 425478900 421462300 420615100
1407.79 416756300 412215000 405970900 399809400 391452100 381418600
1410.68 375455500 365405000 357096300 345648400 335980700 324759100
1413.58 312412200 300921500 290311500 280809800 271896600 262327200
1416.47 251575200 240453700 233530100 226001600 218136500 209375000
1419.36 201818700 196638200 191901900 183651300 179791400 177551500
1422.25 172137800 166025300 162755300 158538800 156335000 154748300
1425.15 151655500 147276600 144882200 143043000 142398100 140125900
1428.04 137232200 131416400 128739900 126119600 127305000 126446400
1430.93 126459700 123988600 125264100 126276700 126338800 123537200
1433.82 123950400 128017500 128694100 122588400 122896000 127633000
1436.72 128253700 125360100 126275200 126408300 121947800 122466200
1439.61 126500300 122073300 122435600 125603400 124158200 119192400
1442.50 123130800 124301900 121104700 119019800 122592100 121110900
1445.40 122934900 122344200 122482800 124871200 130376700 129235100
1448.29 143997200 153898800 175912700 187998300 142084600 141637400
1451.18 142365000 142864600 145065200 151177800 182036400 151254800
1454.07 144219200 139830700 119549400 103376200 97213750 96174610
1456.97 96797720 95103360 96242100 93151170 93867660 94407060
1459.86 93611800 93494440 96510690 94215100 90770950 89935310
1462.75 88874970 88923290 89257650 87792060 86300720 88812700
1465.64 91692350 88256800 85139360 86035020 90684250 87528460
1468.54 86113400 86000420 89836650 86595190 84231280 84591600
1471.43 89396450 89448020 84482460 84171900 88217100 90133610
1474.32 85573460 84661080 87392180 88502300 85406440 83917740
1477.21 85780490 86114540 84405540 82150850 80776700 80597190
1480.11 82969160 78725430 75407410 74545700 75949650 73913870
1483.00 71054380 68052020 68761090 66944750 63835830 63421220
1485.89 62047130 60978970 60174930 59523990 59716410 59282850
1488.79 59886950 60187190 59463780 58206260 56269010 56770920
1491.68 56757180 57105240 58556330 55447950 52249520 50759650
1494.57 48642510 47655800 48003000 46997220 45995400 45176020
1497.46 44463450 45103900 43970460 44189400 43019560 41636050
1500.36 41709910 41420570 40291100 39622530 39148270 38616460
1503.25 37946810 37492750 37282900 36044390 34997330 34417140
1506.14 33459940 33105350 32071800 31935370 30701230 29910120
1509.03 29279750 28486590 27696550 27610710 26164670 24994920
1511.93 25122710 25048310 23738990 23237250 22543970 22262930
1514.82 21167530 20866880 20170620 19448460 19423660 19205630
1517.71 18520290 17336350 17244130 16294500 16130670 15342640
1520.61 15376220 14290890 14757520 13629000 13769510 13357150
1523.50 13471960 12688260 12201000 12019890 11947010 11808670
1526.39 11133880 10822170 10430310 10038630 9561958 9073020
1529.28 9428614 9028166 8620328 8247350 8116660 7933460
1532.18 8477172 7779408 8164212 7055086 7168328 6740370
1535.07 6248582 6805666 6535382 5974908 5552704 5528730
1537.96 5907680 5706394 5674794 5213060 5034894 4831038
1540.85 5049894 4831776 4390112 4560776 4480922 4270770
1543.75 4391002 4014936 4012262 3851312 3814776 3181808
1546.64 3779098 3775106 3494834 3487916 3758392 3070754
1549.53 3326682 3016198 3695212 3420068 2676022 3163378
1552.43 2944606 2773532 2748966 2675288 3080504 2466976
1555.32 3064144 2645358 2620620 2797684 2189402 2252960
1558.21 2388942 2718300 2329570 2291666 2468506 2249824
1561.10 2536986 2429806 1890732 2412598 2135754 2029326
1564.00 2444476 2022692 2477760 1789080 2279532 2145738
1566.89 1694530 2108410 1414406 1887344 2305412 1796478
1569.78 1898462 1925160 2100662 2122608 1687692 1541996
1572.67 2118214 1726640 2151156 1642870 2024772 1904806
1575.57 1988528 1509508 1757718 1531008 2121394 1866836
1578.46 2367856 1741144 1737912 1249764 1903362 2060010
1581.35 1910384 1257470 2000686 1774952 1745876 1761314
1584.25 1205250 1879112 1348980 1713684 1786970 1657092
1587.14 1689510 1645004 2119918 1897460 2073882 1543748
1590.03 2026448 1625982 1862510 1644486 1981278 1909588
1592.92 1825230 1992968 1908042 2493130 1553060 1673400
1595.82 1698476 1896490 2050364 2007530 1892316 1453764
1598.71 1602138 1875850 1803458 1792728 1566084 1788444
1601.60 1734064 2105508 2060590 1688306 1666780 1665192
1604.49 1441060 1993534 2005536 1580684 2369186 1685436
1607.39 1828354 1188032 1534896 1865414 2627880 2275586
1610.28 1989768 1554788 1445032 1758970 1661674 1638796
1613.17 1681262 1446366 1554520 1061932 2165628 1550358
1616.07 1254056 1569608 1834798 1757982 1299564 1496606
1618.96 1699358 1706606 2149932 1581974 1773276 1691666
1621.85 1760210 1884458 1188950 1775516 1760478 1225084
1624.74 1460732 1273260 1672190 1380668 1539720 1609984
1627.64 1694152 1793760 1576548 1396848 1755448 1522844
1630.53 1718496 1497218 1750242 1627462 1424040 1911082
1633.42 1242362 1653716 1485238 1138550 1553394 1413224
1636.31 1496352 1788024 1295232 1562008 1081174 1615032
1639.21 1543186 1990480 2028088 1556446 1792848 1949002
1642.10 1468936 1557650 1578114 1929334 1798514 2071590
1644.99 2241508 1629328 1311628 1943356 1482116 1753768
1647.89 2250424 1809442 2099808 1949478 1375554 1772612
1650.78 1754040 2023294 1583230 1707142 1680448 1455652
1653.67 1964298 1932252 1543006 1279576 1466552 1981450
1656.56 1625016 1592992 1855640 1776400 1673274 1475246
1659.46 1848820 1728860 2257040 1517652 2109880 1622944
1662.35 1817092 1803624 2336692 2000944 2042856 1277688
1665.24 1851520 1788772 1913590 1945594 2341516 1672372
1668.13 1767610 2332444 2104120 2217060 2354116 2006502
1671.03 2333134 1595478 2861718 2036218 2387730 2014580
1673.92 2691500 2589360 2350988 2044992 2357002 1775458
1676.81 1951756 1963880 2550290 1774890 2615254 2007860
1679.71 2307930 2350972 2205948 2352536 2063534 2306518
1682.60 2260394 2112638 2408720 1923774 2310130 2340138
1685.49 2327138 2171124 2312820 2118992 2148408 1919536
1688.38 1906694 2066252 2395708 2208748 1810686 2232228
1691.28 2317064 2165900 1879068 2064552 2069530 1590594
1694.17 1833646 2094546 2083198 1898768 1848080 2053998
1697.06 2435988 1655624 1673482 2024402 1766916 1859004
1699.95 1771094 1769172 2059026 1791576 2341998 2262016
1702.85 1892472 2004956 1517664 1941348 1830940 1683222
1705.74 1725986 1479384 1620260 1462484 2010080 1593618
1708.63 1679860 1487904 1417006 1484194 1612954 1487608
1711.53 1704918 1282590 1667922 1773928 1904742 1723240
1714.42 1698912 1629460 2487152 1799160 2221740 1574510
1717.31 1939990 1493308 1728624 1315888 1582404 1327856
1720.20 1499058 1944712 2085330 1613114 1750506 1701298
1723.10 1732744 1291426 1452092 1459534 1706496 1307062
1725.99 1372184 1663602 1132496 1585520 1590728 1108872
1728.88 1781386 1484470 1338902 1617596 1527604 1548866
1731.77 1501720 1457364 1626618 1400788 1216796 1139166
1734.67 1936206 1780094 1520120 1780424 1972466 1454396
1737.56 1744246 2074832 1539510 2057774 2299216 2198426
1740.45 1701346 1993920 2137930 1931152 2147580 2423984
1743.34 1871788 1883848 2135788 2346156 2126406 2004508
1746.24 2130732 1829496 2065486 2225482 1658968 2399084
1749.13 2128932 2326568 2083848 1900524 1990806 2347940
1752.02 2184154 2684410 2160876 1962546 2064666 1687514
1754.92 2485156 3006920 3068656 2482502 2177238 1599658
1757.81 1590682 2064980 2137514 2547154 2593214 2355050
1760.70 2348926 2283292 2797014 2417580 2930026 2846004
1763.59 2768982 2288878 2650196 2810070 2711842 2391836
1766.49 2521460 2752714 2868548 2747338 3131460 2659554
1769.38 3120994 2545490 3132662 2595748 2924498 2594110
1772.27 2901756 2614378 2465758 2639010 2878792 2073388
1775.16 2480746 2153202 2611820 2305554 2414978 2107104
1778.06 2696540 2672824 2286952 2550368 3108796 2448404
1780.95 1885330 1588174 1316624 1469670 1700518 1266696
1783.84 2017296 1537946 1506506 1675050 1427910 1236538
1786.74 1657960 1832360 1492320 1341712 1770306 1531120
1789.63 1107402 1053726 1237778 907154 1302986 821050
1792.52 1084332 899668 992352 1111528 826934 1104462
1795.41 855676 745244 694624 722930 894082 739518
1798.31 527530 448442 391296-28706 293492 296912
1801.20 226452 53596 146934 179712-79878-206432
1804.09-122832 232906 135236 295674-350762-162030
1806.98-174316-55568-91510-592354-193524-610780
1809.88-724486-410456-497722-311948-421498-887902
1812.77-740088-705526-595420-631228-204176-739048
1815.66-401488-581320-768230-998362-1007020-616474
1818.56-215860-826806-529590-681206-527784-896104
1821.45-756278-1369622-930540-634592-521006-830700
1824.34-707124-738026-575800-1074776-472516-709810
1827.23-537604-983018-626022-996660-891212-757674
1830.13-840902-860874-393620-854278-736536-1282588
1833.02-473940-681282-588582-848460-577700-808496
1835.91-980860-1010006-749256-968114-869156-790754
1838.80-968412-605286-1110486-961008-990102-791898
1841.70-928042-765606-621684-718888-537634-1100094
1844.59-550242-416866-663962-1121370-628682-810620
1847.48-781584-863880-545956-1039406-752094-994076
1850.38-353518-435800-769072-1045484-851628-868218
1853.27-698474-486140-434010-819784-606370-540858
1856.16-723750-1008424-477226-314682-617490-313658
1859.05-432000-391762-481410-216430-481990-175636
1861.95-612654-586376-113044-111382-602220-499144
1864.84-60518-105156-74678-298166 225378 220286
1867.73 139824 87016 167128-46962 319856 226112
1870.62-80854 266430 295570 296324 605716 457498
1873.52 436118 925022 586434 818178 630518 619432
1876.41 1076942 682094 666446 992670 918700 1012764
1879.30 1221504 1220888 997496 1100048 1707892 1091652
1882.20 1224270 1994136 1817080 1996918 2129742 2476362
1885.09 2387254 2618212 2432242 2656636 2817206 3108158
1887.98 3354730 3001122 3703306 3787734 3642948 4266640
1890.87 4263288 4371620 4361626 4354094 4743744 5137532
1893.77 4972884 5655346 5690158 5713940 6212446 6575556
1896.66 6010526 6636096 6771602 7448642 6897300 7370634
1899.55 7602862 7555492 8256232 7995244 8002262 8716358
1902.44 9059476 9186426 8818684 8892288 9198828 9393508
1905.34 9649092 9509322 9731014 10051860 10210120 10397060
1908.23 10534450 10849170 10890660 10651210 11034990 10932160
1911.12 11401910 11951070 12388060 12342020 13187510 13467970
1914.02 14431950 15145350 15462920 14744570 13839120 13120920
1916.91 12573780 12868150 13229030 13278280 14084210 14306910
1919.80 14324590 15084330 14775120 14874880 15186840 15320740
1922.69 15911590 15950530 16196910 15588190 16085700 16385660
1925.59 16691370 17319720 16934610 16575620 16122040 16070590
1928.48 16184600 16291930 15936360 16882990 17177900 17223110
1931.37 17575210 18259920 18326310 18870770 21410080 22895850
1934.26 18725220 16002570 15336220 15278730 15587640 15161450
1937.16 14754090 14188850 14257880 14293560 14537870 14186870
1940.05 14049470 14193910 14452790 14344540 14449210 14828440
1942.94 14988860 15126670 15109590 15154750 15595280 14550530
1945.84 13968380 13817350 12854720 12679110 12247920 12048350
1948.73 11571920 11520100 11118200 10823000 10416180 10440850
1951.62 10217720 9971586 9439150 9089308 8788110 8660330
1954.51 8568014 8094846 8011232 7980448 7180504 7427634
1957.41 7156310 7024786 6839384 6355284 6550196 6026038
1960.30 6066570 6005456 5805702 5361800 5310436 5529756
1963.19 5506646 5233160 5080360 5069890 4445886 5057514
1966.08 4552336 5053010 4535554 4426750 4349702 3796048
1968.98 3917362 3951676 3501962 3679636 3581928 3427858
1971.87 3186550 3065960 3218236 2724032 2811624 2999566
1974.76 3128654 3381376 3248776 2748890 3177320 3058904
1977.66 3234120 2812286 2646766 2348926 1875904 1964750
1980.55 2278954 1865156 2137426 2396712 1919456 1844586
1983.44 2190182 2240718 2410472 2024140 2212192 2028788
1986.33 2234560 2469092 2325792 2163102 1956478 2223420
1989.23 2335114 2076966 1620004 1705486 1607012 1658712
1992.12 1544382 1570896 1229970 873390 645340 1515576
1995.01 990112 731368 877974 508068 539776 547138
1997.90 474598-50342 457048 227776 14622 276368
2000.80 241950-72264-606320-387508-528618-676496
2003.69-290882-393146-373966-436710-1141760-894986
2006.58-786994-983860-994972-1253570-1012206-1241794
2009.48-481786-956236-1113798-1349210-1540674-1173170
2012.37-947530-1159338-731188-816642-1152144-1250522
2015.26-1413656-1441554-1570836-1567580-1355254-1713336
2018.15-1535964-1492888-1743782-1575198-1588744-1380888
2021.05-1377728-1316540-1415342-1602926-1528244-1533062
2023.94-1133492-1804906-1229738-1260878-1665318-1458692
2026.83-1454304-1609180-1564122-1581944-1398736-1423704
2029.72-1661628-1585880-1610452-1640542-1306918-1464030
2032.62-1638044-1279296-1361770-1351852-1389870-1487936
2035.51-1731326-1419612-1234038-1699964-1215912-1669802
2038.40-1319708-1065498-1276680-1272456-1415238-1316346
2041.29-1166362-1458768-1235140-1079598-1534958-1247986
2044.19-1561308-1740400-1292796-1007354-1170530-1930174
2047.08-1263328-1533372-1096394-1296876-642148-985970
2049.97-1110736-863744-1243494-1195534-1737426-1386160
2052.87-1788792-1577610-1638234-1768810-1830530-1607984
2055.76-1435504-898542-173282-684990-651628-690082
2058.65-672982-703770-834270-1064488-509746-859094
2061.54-1000534-1107846-305822-1115048-301638-348158
2064.44-928174-1064096-482530-583898-376848-591212
2067.33-556442-839370 551124-547482-223360-806652
2070.22-822802-258796-660686-555328-851932 781810
2073.11 22150-425542-449874-844826-826744-89070
2076.01 223664-158114 1272836 732740 207854 201674
2078.90-162378 383220 132304 355278-193736 1174106
2081.79 1984506 226934 1398548 571460 1186694 566996
2084.69 1168454 770130 3146398 2188116 777774 1555432
2087.58 987748 1614932 1469970 2263524 1729348 4619234
2090.47 3278492 2282306 2218508 2504830 2901162 2497498
2093.36 2943138 2763754 6751628 3508586 2902286 3689638
2096.26 3382962 3368652 3728878 3660896 4722414 7763946
2099.15 3524914 4105826 4253126 4840080 3977286 4872430
2102.04 4034896 7783760 8362736 4157588 5029000 4630302
2104.93 5984400 5534634 5464056 5200590 9969868 7026010
2107.83 5482810 6111736 6218564 5785732 6938252 5726130
2110.72 8290606 11099300 5541202 6917662 5900522 6514770
2113.61 5897612 6548760 5110378 10618390 6326752 5016102
2116.51 5423842 5523352 5677294 5779626 5033770 8507284
2119.40 9799290 4970468 6518872 5819210 6470616 6326230
2122.29 6997792 6983438 11660200 6951490 6963926 6394784
2125.18 7157228 5956642 7221412 5611960 10345930 7163250
2128.08 6338170 5865122 6428126 6211452 6430720 5054612
2130.97 8561522 6869202 4792084 5379180 5115552 5508366
2133.86 4757144 4376716 6237880 5938016 3919556 4559262
2136.75 4444450 4240478 3434654 3631356 3763472 4737010
2139.65 3061678 3522422 2929912 3293056 2921532 2681588
2142.54 2332284 2430738 2535672 2238138 2422612 2200476
2145.43 2033758 2429038 2598716 2725366 2028688 1697004
2148.33 1398558 1733578 1285394 1278618 3499106 2186854
2151.22 1036916 1382606 958752 1311494 716018 1640082
2154.11 4427960 1540922 858172 1289168 666660 1643254
2157.00 175294 2987332 4583342 861720 991796 1099768
2159.90 1058848 1373340 347262 5238134 3373128 272374
2162.79 1755548 595018 1647578 256064 2693188 6422864
2165.68 919166 934030 1283594 972842 1366778 427276
2168.57 6356460 4142490 235890 2202256 958194 1851010
2171.47 503766 4223914 6538928 715216 2233772 1165956
2174.36 2074412 1795464 2269950 7319698 2373908 1655762
2177.25 1090014 1001452 1605218 1032412 6573900 3232840
2180.15 989318 2557978 1353706 2469268 945372 5841300
2183.04 4780338 1105680 2659622 1055328 2387790 1071494
2185.93 5452872 4654866 1149018 2141470 882658 2018826
2188.82 802880 4731016 3861362 1218744 1567592 957676
2191.72 1698332 614216 3598416 2838174 430054 1768708
2194.61 1128752 1668242 666402 3634802 1480386 414378
2197.50 876342 87002 1117160 317842 3005848 242272
2200.39 12680 443648 564470 531380 871942 1876472
2203.29-426652 711930 6768 472926-818362 1242850
2206.18 558872-73616 53984-25064 47556-25704
2209.07 794696-261886 326914 259526 69374-338212
2211.97 535840 289344-135088 474834-57916-154438
2214.86-115926 455014-54252 394230 72756-408546
2217.75 385720 436570-49302 78646-342658 537396
2220.64 89312 761606 468880 569402 353884 478476
2223.54 795458 1296532 270414 683574 938288 1478056
2226.43 1373800 1139620 756036 844774 919534 1027440
2229.32 1043916 1188686 1772510 1500586 1515102 1790392
2232.21 1588000 1966540 2335532 2004108 2136468 1730996
2235.11 2331576 2715598 2209234 2541016 2617574 2932324
2238.00 3325756 3558140 3200914 3174602 3020564 3583234
2240.89 3215096 3346844 3713872 3665964 3532790 4116834
2243.79 3899026 3865810 4325202 4326764 4150800 4578354
2246.68 4658462 4358344 5125706 4822776 4935688 5168344
2249.57 5370904 5807360 5306480 5741660 5364858 5128206
2252.46 5344090 5869398 5490268 5602958 5812400 5855124
2255.36 6035576 5789050 5938178 5554034 5571632 5229324
2258.25 5465180 5669486 5874376 6233520 6181594 7008732
2261.14 6535722 6496526 6317556 6497710 6069818 6477866
2264.03 6022166 6343044 6187622 6539064 6098530 6986758
2266.93 6051652 6305416 6263072 5953242 6212608 6303594
2269.82 6909800 6913946 7326952 8273706 7408070 6924400
2272.71 6255850 6862114 6873158 6965588 7463692 6613826
2275.61 6244580 6683360 6560340 6189458 6229872 5886976
2278.50 6387960 6666422 6097182 5945350 6151238 6357742
2281.39 6521728 6527850 5853292 5836868 6187828 6165606
2284.28 5865962 5989824 5472522 5226258 5339656 5531594
2287.18 5401702 5191040 4893898 4888534 4912594 5242140
2290.07 4411590 4528042 4526118 4296134 3943924 4935320
2292.96 3554208 3673920 3745150 3447476 3660414 3939858
2295.85 3653810 3553334 3439772 3092054 3262082 3218608
2298.75 3259304 3740914 3095744 3429796 2895438 3538546
2301.64 3277046 4769252 2709992 3550260 2493148 3804166
2304.53 3096806 3771596 2916632 3190612 4528274 3656396
2307.43 2833374 3078536 4301048 4620582 2944638 4141272
2310.32 4200048 5759580 2517772 4070350 3421576 7350840
2313.21 2847760 4096772 2756776 7823356 3316270 4659130
2316.10 2765328 9221412 3958130 4693856 2345870 8893878
2319.00 5998634 3964518 2715726 9539726 7584268 3385956
2321.89 2730064 9292078 8434672 2979706 2697530 10366470
2324.78 9204554 2670716 3994886 12219810 10735940 2614916
2327.67 7552574 16389490 9796260 277208 6875974 14285150
2330.57 6353988-118944 10020330 14526010 3873248 1435136
2333.46 14584830 13104560 1312456 5329968 16662010 9355584
2336.35 949594 10985020 16041300 3832646 5048852 15451850
2339.24 11553400 1288728 10498930 14939570 4573034 4346104
2342.14 14017800 9032642 3229744 9278984 11322920 3714588
2345.03 5746968 9480464 4907588 3516616 6554062 5123560
2347.92 3837842 3493394 4034862 4747038 4079828 3014834
2350.82 7309790 5926110 2365156 8612510 8532230 1501572
2353.71 10476440 10848780 1146880 11371140 13201620 368908
2356.60 13479740 13136300 240348 14854240 12553050 515596
2359.49 18128270 9797766 2390898 20035210 5098584 6142654
2362.39 20201980 645474 12508670 14963260 144806 18021090
2365.28 7071328 5366206 17327260 525906 13771250 9099630
2368.17 3768810 15179320 1804322 11812930 6846940 4571464
2371.06 11506130 1804872 11110100 2878420 8053702 5468802
2373.96 5678048 7056620 4240660 7436008 3973244 6986364
2376.85 3992490 6050858 4572326 5819026 4154292 5280398
2379.74 5230444 5334368 4074400 5063884 4823580 4493160
2382.64 5040742 5006664 5149640 5052764 5168932 5130030
2385.53 5241208 5535630 5278708 5509974 4790992 5708804
2388.42 5438902 4946076 5549874 5462648 5287550 5362654
2391.31 5233174 5564192 5522514 5710874 5876334 5697148
2394.21 5980046 5733518 6041384 5692144 6488170 6075704
2397.10 6166988 6377646 6474808 6150686 6025878 5945578
2399.99 6028926 5826672 6185966 6177336 6288026 6869220
2402.88 6399548 6579618 6729816 6301172 6548550 7009288
2405.78 7265684 6980126 6899520 7000630 6959542 7038680
2408.67 6930358 7314192 7412976 7099636 7365026 7788846
2411.56 7656916 7156190 7420142 7347372 7547996 6792998
2414.46 7649012 7430408 6887456 6995324 7260514 6607536
2417.35 6653442 6592826 6991280 7227280 6081680 7148056
2420.24 6402908 6941754 6627948 6131632 6138724 6308910
2423.13 6242904 6519834 5889050 5646710 5981680 5750712
2426.03 5436420 5525996 5300612 4739764 5317892 5195580
2428.92 5314254 5845342 5620334 5462756 5116402 4670462
2431.81 5775200 5173274 5410900 4831272 5092802 5333956
2434.70 5258024 5206868 5165010 5058024 5691480 4989672
2437.60 5424890 4538338 4685142 4446926 5204980 4631830
2440.49 4730874 4733358 4324726 4236578 4150590 4357426
2443.38 4383344 4114036 4164480 3865948 4011968 4034612
2446.28 4588614 3904832 3654530 3726112 3910810 3541140
2449.17 3751908 3791332 4136914 4175580 3737560 4131302
2452.06 3784174 4247258 3886888 4240864 4186380 3891104
2454.95 3497898 4367008 4491640 4070830 4126286 4029852
2457.85 4124050 3611328 4096486 4353974 4082398 3940136
2460.74 4566966 4012384 3898548 4162590 3830474 4154050
2463.63 4150166 3996132 3204266 3730950 4496918 4275588
2466.52 4211998 4087292 4105190 4159436 3670982 4115614
2469.42 3856508 3709016 4615088 4391194 4151388 4297998
2472.31 4375406 4634426 4308692 4328448 4318118 4375684
2475.20 4154326 4173620 4091178 4864226 3986350 4817888
2478.10 4465494 4631974 4784054 4572414 4368920 4061342
2480.99 3944808 2966930 3994920 4216430 4402874 4743448
2483.88 5149398 5074010 4640094 4340770 4237462 4673940
2486.77 5127518 4493828 5106158 4132252 4649306 4793572
2489.67 4141890 4065480 3570946 3941694 4262756 3870118
2492.56 4382806 3960866 4439252 4108796 4357920 3736514
2495.45 4090232 3660250 3464366 3642626 3547524 3245958
2498.34 3910856 3623082 3010548 3028570 3200220 3618990
2501.24 3036428 2968730 3461226 2793376 3167204 3236834
2504.13 3084040 2821506 3014930 3360498 3312104 3517178
2507.02 3066968 2423780 3132362 2678592 3003646 2673944
2509.92 2776208 2768204 2530950 2424502 3104446 3370472
2512.81 3121002 2660462 2503650 2208586 2458518 2969462
2515.70 3282676 2808122 3061882 2681318 2388212 2657770
2518.59 2668848 2984868 2433232 2816196 2518340 2050896
2521.49 1958782 2217532 2463336 2638800 2364482 2548952
2524.38 2783830 2544180 2515358 2377918 2407772 2366520
2527.27 2187256 2441012 2620236 1992246 2151486 2416098
2530.16 2194696 2531730 2340584 2674152 2033610 2433290
2533.06 2738518 2660922 2415732 2324642 2356228 2315294
2535.95 1797478 2651222 2067964 2225358 2278168 2133156
2538.84 2599342 2140750 2383618 2402992 2689580 2203308
2541.74 2595562 2748752 2715442 2511630 2192802 2339140
2544.63 2720482 2613134 2572954 3076872 2711166 2608930
2547.52 2809074 2939048 3408548 3304956 3285120 2812968
2550.41 3152744 3369668 2574876 3478132 2468310 2921302
2553.31 2956412 2916888 3435030 2725636 3471170 2825066
2556.20 2913894 3528128 3157292 2466000 3553048 3125396
2559.09 2925252 3267110 3550626 3206906 3574166 3428852
2561.98 2614148 3304026 4202098 3427958 3353952 4115594
2564.88 4002948 3286100 3369486 3374896 3744114 4038104
2567.77 3209456 3644034 3779076 4211126 3872404 3924436
2570.66 4004936 3781242 3904918 3748294 3920564 4317022
2573.56 4077300 4418398 3796396 4054080 4754820 4844964
2576.45 4642570 4725450 4970322 4650196 4418004 4716074
2579.34 4762854 4923076 4537418 5045114 4863890 4984542
2582.23 4836114 5033244 5012634 5326076 5553628 5063800
2585.13 5504258 5331928 5968660 5686516 5831384 5647366
2588.02 5129932 5749004 5461702 5905678 5399182 5804936
2590.91 5741026 6584072 5547290 5876044 5861708 5984678
2593.80 6575634 6695478 6178554 7148342 6992234 6612166
2596.70 6999970 6473308 6409780 6816998 6399346 6340564
2599.59 7010592 7147794 6520858 7468786 7025256 7346906
2602.48 6786012 7159628 7076992 7253758 6803688 7240168
2605.37 7248570 7740696 7226136 7410010 7158568 7520610
2608.27 7521844 7521990 7080122 7606228 8064356 8570220
2611.16 7757738 7873668 7866840 8562068 7732776 8283012
2614.05 8477720 8588512 8173028 8031226 8563696 8747830
2616.95 8344942 8531492 8687786 9235944 8981724 9466146
2619.84 9784332 10151960 10317680 10735190 10392710 10337270
2622.73 10270770 9757582 9655852 9475296 9678934 9459216
2625.62 9894592 9862826 9759394 9770584 9754044 10529430
2628.52 10069760 10617720 10507490 10466580 10861730 11355970
2631.41 11162910 11057320 11593930 11420380 11426040 10951420
2634.30 11253780 11880610 11304730 11252640 11605340 11413930
2637.19 11466380 11706380 11326680 11734200 11707050 12208360
2640.09 12067270 12292710 12043000 12025670 12645680 12560110
2642.98 12555930 12527890 12575440 12642460 12890320 12999610
2645.87 12949960 13246570 12933420 13101220 13739610 13352950
2648.77 13201240 13511860 13529280 13359460 13872900 13787300
2651.66 13539530 14523150 13784050 14286120 14391510 14623940
2654.55 14226740 14521370 14474650 14236000 14116230 14138610
2657.44 14214200 14963870 14742070 14706660 15025750 14750760
2660.34 14749020 14432020 15856510 14978760 15231150 14907930
2663.23 15701680 15518920 15013680 15453300 15793190 15180120
2666.12 15611040 15710130 16055800 15934620 15620510 15438990
2669.01 15657100 15960940 15882250 15557980 15973480 16111080
2671.91 15760810 16312990 15673260 16085350 15972620 16256080
2674.80 16078830 16473810 16185360 16476270 15997790 16295040
2677.69 16124600 16347170 16919830 15918340 16599330 16583030
2680.59 16926180 17656780 17376820 16934010 17049710 17529620
2683.48 17016870 17448590 18226590 17320000 17593990 17852310
2686.37 17569010 17353860 17509210 18058870 17678370 17938070
2689.26 18170540 17948620 18339520 18625000 18500830 18989620
2692.16 18265000 18666890 19223540 18870220 18945140 18698480
2695.05 18659580 18758870 19490920 19309120 19869330 19360430
2697.94 19924380 19681890 20200270 20545020 20447850 20412210
2700.83 20949600 20949790 21033660 21156140 21345910 21379690
2703.73 21545100 21482090 22066220 22594740 22715900 22896990
2706.62 22665600 23812190 23512650 24337050 24732270 24861980
2709.51 24693810 24523230 23880440 24427360 25327860 25157570
2712.41 25453700 25700350 26426550 26312490 26279970 26991940
2715.30 26630860 27160380 27658800 28049550 27850690 27780870
2718.19 28286040 29118470 28552740 28623980 29062470 29294980
2721.08 29937230 30152590 29852480 30677010 30066890 30373850
2723.98 30984500 30329540 30155610 30626630 30319320 31142420
2726.87 31375930 31637400 32035930 32616930 33370460 32826030
2729.76 34004890 33610790 34101710 34549510 34616200 34588920
2732.65 35036820 35095440 35164970 36561800 36297780 36506690
2735.55 37634610 37390030 37556760 38171050 39198460 39246940
2738.44 38722310 38833080 40018060 40444310 40824360 41129670
2741.33 41368180 42317810 42892150 42081620 42969990 43709190
2744.23 42979230 43361060 43568800 44174880 44670980 44358970
2747.12 44680200 44371020 44193670 44933700 45066130 45428780
2750.01 45065390 45025780 45319120 45350380 45987460 45427840
2752.90 45290700 45724940 46081940 46526690 45549010 47258950
2755.80 46208940 47011150 47192830 47608060 47387010 47562710
2758.69 48987540 49035080 48868580 49421780 49072570 49144020
2761.58 49287340 49289270 49476050 49611100 49376230 49622610
2764.47 50361710 49959960 49955980 50855990 50320230 50726270
2767.37 50974190 51528230 51195500 51755170 52146490 51755460
2770.26 52681610 53088920 52955430 53973820 53427380 53789510
2773.15 53563810 54850420 54839370 56203670 55094740 55336510
2776.05 55762440 55864440 56662250 56965750 57479500 57888220
2778.94 58856590 58334300 59022250 59323650 59070760 59927320
2781.83 59490620 60690200 60100140 60741260 60227820 60596290
2784.72 59230250 60266040 60308700 59763580 60297820 60255780
2787.62 61045830 62050000 63582860 64784510 65112900 66543600
2790.51 65979930 66918940 67481400 67454890 67958780 68355100
2793.40 69705710 70160910 70328190 70738930 71594620 71571700
2796.29 72568300 72402910 72521620 73505530 73054830 73600570
2799.19 73697180 75680190 74155030 75953160 75836000 76298740
2802.08 76170830 76722190 76193300 76910230 77499680 78458030
2804.97 77958730 78137030 78793780 79280580 79818450 79723750
2807.87 79737150 80250860 80303640 80891780 81173010 81978600
2810.76 82935860 82113620 82658350 83660940 84619710 85176110
2813.65 85916220 87134270 87783080 89045340 90106450 89949550
2816.54 90791500 92243630 92896180 94489890 95365220 97183480
2819.44 98446780 98853730 99896750 99568570 101558500 102847700
2822.33 104123900 104386900 106972900 107360500 107920200 108829300
2825.22 109236800 109783100 111144600 111038600 112097800 113491300
2828.11 114163000 115592000 117013100 119380100 120883400 122421200
2831.01 124142400 127254100 129002500 129736600 132204800 133954400
2833.90 135232600 137185600 139042800 142134000 143493600 147206200
2836.79 148408000 152286100 154510500 156697800 159421900 161946700
2839.69 165155900 167819500 169377900 171908200 173452200 176259900
2842.58 179217200 182938500 186079700 189997500 193171100 196581600
2845.47 198954500 202051000 205626400 210708900 214100400 218846000
2848.36 222362200 227271100 231300800 235325300 239506400 244226700
2851.26 249484900 254181100 258958900 264312700 269332000 275024900
2854.15 279420100 284958700 291013700 296857100 302652400 308359500
2857.04 313487200 319708300 326720400 331482000 336217100 346415900
2859.93 352698000 359859200 366538400 376454200 383527300 391884700
2862.83 398105400 407356100 415903800 422548300 431347100 440934100
2865.72 446373700 454216400 459550800 466353300 469980400 475053700
2868.61 477683300 482445000 484746100 488845500 492692000 497770900
2871.51 499293000 503618500 505344100 510386700 512337600 511562700
2874.40 516087400 520197300 526308900 532205000 541073900 547948400
2877.29 552884200 564297800 571009800 572658500 577040200 591012900
2880.18 600977700 606853400 622466000 641603000 643901600 640247100
2883.08 648508700 660576400 661949100 659647700 662735400 668215700
2885.97 657820200 652460500 654514000 657509600 648757600 650164700
2888.86 659522700 664206800 664795800 671755300 682851500 690030300
2891.75 688516700 694980000 695180000 696850000 694156200 697735600
2894.65 692139300 687408000 685459700 691040500 693017000 701625600
2897.54 706736600 717866000 733097900 760622400 823307600 941561500
2900.43 948721500 855413000 807855000 771027200 753918600 743104600
2903.32 738050800 734658700 741061200 745912200 737446800 732158200
2906.22 730975000 723300000 717945900 718801300 722918500 713906000
2909.11 712617200 724218300 726673500 734007100 740748500 731964900
2912.00 714416700 692912800 690865300 684027500 669297200 666785000
2914.90 672467600 664302100 658094800 663722000 666060000 656301100
2917.79 660908900 666494100 661042600 657555400 667011800 667612900
2920.68 662631400 664330600 668564900 658793500 655845200 656266800
2923.57 648660900 642776800 644316400 643953300 639923800 635439200
2926.47 634687000 637031600 632311900 630336200 628348500 624213400
2929.36 620512100 618694500 617073400 612413000 611297300 610364200
2932.25 609740500 606599600 607411500 607783200 609975200 614435300
2935.14 617021700 616216600 615827300 611836000 610136600 608582100
2938.04 608790500 610396500 611464300 614218500 615820800 620595800
2940.93 623666200 628297700 629657000 633734500 635720800 637653800
2943.82 638644400 643249200 641455200 638920700 635238100 633036200
2946.72 631262200 634530700 638447600 642146600 646204600 656584100
2949.61 663353800 670321100 680118800 690247300 691847000 695209700
2952.50 699917900 706309600 708055700 718339900 722348700 728131500
2955.39 733650400 744053100 748605700 755392100 763648800 770036700
2958.29 774059800 777790500 778205700 783014900 786437800 791944600
2961.18 792204000 797914500 811628600 813731100 816256300 827512500
2964.07 840791300 847856600 859500300 869780000 873591900 891396100
2966.96 915476500 918572000 912843300 930546000 928387000 919939900
2969.86 934154200 956162500 948661400 963237800 981451500 950006400
2972.75 930577600 945300000 928474400 917119600 932889700 937329800
2975.64 916949600 925884900 936846000 911666400 897638100 928727000
2978.54 927639600 895421600 907371300 934321000 918549800 921845300
2981.43 927608600 896559900 864766800 886065000 906241900 934358900
2984.32 950839800 957057300 956492100 964696300 975083700 997388400
2987.21 946031700 941137500 937595400 1107658000 1285026000 926412200
2990.11 847117100 803822200 797743800 781761300 791446300 779785800
2993.00 781804600 787865500 787850600 763825900 781841200 780203100
2995.89 756319600 753038500 760598000 731378000 721007300 726430700
2998.78 719009200 688817900 684814000 676139100 666014700 654275600
3001.68 639801500 631011800 630585600 608175000 595006700 590981400
3004.57 583940400 562413100 553491200 546873600 533701600 517828000
3007.46 510704700 501028700 487985200 476834000 467861500 454483700
3010.36 444483700 432487300 423848900 409882100 401848200 390817100
3013.25 383661900 374485200 364911100 354128700 346624700 336791600
3016.14 328119600 319611900 310979100 301683100 294889500 285045000
3019.03 276870700 268888300 262263800 253819900 246407700 237143800
3021.93 232558600 225345400 217079800 209917400 205124300 196649400
3024.82 190205800 183614200 178488800 171799700 166017000 159986300
3027.71 154671500 148530200 142766000 135912800 131337700 126653600
3030.60 122619500 117468600 112458800 108186900 103608600 98869520
3033.50 95632030 90958950 87958660 82851300 80070510 76515540
3036.39 72856270 68852840 66510280 61916030 61497180 56210920
3039.28 55442710 51521580 49823040 46480620 46149730 43075990
3042.18 40968920 37982240 36588240 34926590 33433040 31731810
3045.07 30307470 27583890 27904790 25449180 23927630 22771110
3047.96 21800930 20399220 20174610 17794820 18648260 17022760
3050.85 16811750 15643620 14686750 12481900 13663820 11958690
3053.75 12507520 11182130 11140630 10246440 10046630 8600540
3056.64 8366206 8317454 8157450 6451010 8157544 6827276
3059.53 6432056 6506976 6547836 7067854 6062946 4439484
3062.42 5145346 6189774 5693542 4208726 5004484 4178106
3065.32 4381168 4232150 3905926 3674752 3677020 4060490
3068.21 3937018 3491652 4294596 3226810 3820120 3124390
3071.10 3509200 3375902 3282480 2559976 3888256 2516494
3074.00 4056164 3271940 3370390 2898316 4075266 2870196
3076.89 3313748 2602178 3216708 3308296 2917108 2127920
3079.78 3143960 2464276 3162400 2791398 2541286 2495482
3082.67 2832584 3060282 3463156 2847906 1505992 2927344
3085.57 3585476 2275514 2708042 2880088 3845870 3329220
3088.46 2895332 2195852 3337804 2276400 3665720 2201678
3091.35 2916224 3113252 3682194 4027496 3129532 2550852
3094.24 2981196 2552012 2601060 2729180 2734744 2223604
3097.14 3550936 2661880 3959264 2853120 2813616 2738764
3100.03 3205848 2699990 3049776 2853462 3667590 2416004
3102.92 2739212 2172474 2876360 3069632 3138780 2549976
3105.82 3830156 3141624 2447346 2125976 3118426 2759372
3108.71 2317488 2500526 3151922 2251786 3624938 2616612
3111.60 2851972 2775556 3221390 2827424 2568186 3018388
3114.49 2653984 2273504 1934552 2810222 2365214 2695284
3117.39 2621230 3671674 2058470 2280278 3020130 2282582
3120.28 3422952 2568342 2713518 2625300 2987930 1535946
3123.17 2385536 2503568 2673908 2526672 3121748 2787024
3126.06 3244646 2101502 2569678 3121536 2587892 2270004
3128.96 2719350 2559656 2614500 3443090 2656966 2043672
3131.85 2310832 2385864 2585922 3312202 3396412 2066034
3134.74 2710450 2419212 2981406 1805756 2489248 2694450
3137.64 3194836 2790296 2725474 1833350 3509278 2795150
3140.53 2919708 2973690 3103450 2028466 2621184 2120066
3143.42 3226136 1962732 2524370 2418470 3766302 3146012
3146.31 3103200 3840094 2300074 3025986 3391508 3065710
3149.21 2907798 2753972 2929784 2584038 2496460 2697756
3152.10 3843312 2894384 2546218 3096112 3173548 3275772
3154.99 3219418 2626426 3820548 4187712 3722804 3010900
3157.88 3339756 2647012 3868448 4112036 2889340 3197274
3160.78 3065012 3148072 4047030 2952714 3912900 3868220
3163.67 3773316 3898938 4383746 3981502 5078326 4059486
3166.56 2821796 3280364 5167482 4349570 3283918 4004104
3169.46 3615752 4437582 4018434 3157962 4947684 3774180
3172.35 3908558 4734844 5119164 3281204 3509966 4007468
3175.24 4016550 3583232 4268212 3830604 5026240 4072052
3178.13 5166218 4045320 4880082 4824976 4905554 5050994
3181.03 5444448 4315044 4779880 4967720 4256462 6449514
3183.92 6092944 6350764 4919908 6079506 5478982 5270674
3186.81 5753314 5450160 5865098 5353502 5566860 6279604
3189.70 6443490 4827176 6422456 6797492 5502382 6347410
3192.60 6702478 6312614 6466094 7558304 6736666 6511166
3195.49 6368078 6465160 6889802 7048724 7645568 6411412
3198.38 7512144 7565282 7720678 6927008 6827692 7631242
3201.27 7327016 7588702 8548922 8428150 7339704 7934948
3204.17 7626218 9241518 9000060 8490108 8285534 9427528
3207.06 8384748 8177132 9314362 8236666 8683262 8543864
3209.95 8170812 8663218 9422114 9119966 8306918 8225260
3212.85 9414214 7963010 9715480 8262202 8603848 10223020
3215.74 9404062 9170200 8781686 8674606 9503648 9790952
3218.63 9713232 8407884 10103640 8996246 8788758 10129300
3221.52 9454702 9220976 9458612 9960244 9605880 9528006
3224.42 10079480 10334110 9015244 9013088 9348232 9005120
3227.31 9316246 9490710 9174368 8767302 8967446 8713778
3230.20 8216248 8648736 7953606 7592060 9241996 8584908
3233.09 7760124 7923530 7764314 7719018 8106754 7177772
3235.99 7510298 6970068 7170202 6873812 7104544 6464512
3238.88 8978760 7681808 6072186 5319018 6112542 6876518
3241.77 6865846 6338734 5669572 5653820 4970308 5925926
3244.67 4793454 5479940 3612850 4943632 5378448 4751900
3247.56 4381790 4290430 5148456 4321816 4423484 4270606
3250.45 3730032 3747764 3284666 2377334 4198894 4256528
3253.34 3960302 2585880 3660040 3131592 3164828 2189366
3256.24 3753930 2496386 1508108 2053972 3094284 2243738
3259.13 3322592 1243466 1691400 1834402 1659100 1380334
3262.02 1345560 1115712 1490324 289236 1082304-36466
3264.91 1163808 843742 1026544-339408 674994-157630
3267.81 1532762 1148222 873000-80960 575722 639012
3270.70 29858-142384-370018 154656-1431020-1200962
3273.59-2566-366084-397538-524082-169100-1038828
3276.49-770916-271448-148854-1135138-162842-1359838
3279.38-1045780-622860-20560-1139060 405190-1484180
3282.27-1502396-2017818-1681432-894710-1778584-643940
3285.16-918098-998656-1106104-1153910-1722788-1694476
3288.06-1048554-1110652-1937450-478100-755154-1486290
3290.95-1127102-1800516-860688-1161002-2012728-1577538
3293.84-1717660-1412546-1302570-1608368-1000368-873094
3296.73-1294432-508074-616848-1468350-1386356-1498644
3299.63-1104774-2443862-1582880-1298192-1355622-1106274
3302.52-839914-994836-730756-1806660-692482-686902
3305.41-1885194-1130476-1034650-555940-1361262-1077986
3308.31-846600-1039376-2241544-1220472-1278926-1041056
3311.20-1594566-1303136-1837324-1124324-2470150-457242
3314.09-1354252-1579090-1968694-1705670-2192136-1407546
3316.98-280874-386302-1890510-1493060-1061736-1997152
3319.88-1721852-1544190-2036244-1962282-1001190-1875080
3322.77-1327422-1275334-936134-290806-1683382-1326640
3325.66-1347328-1862886-289238-1151348-1852496-1554024
3328.55-1021792-1376372-427964-1142988-1712138-1494568
3331.45-1575962-514912-1022272-960454-1428384-1751638
3334.34-1316100-1820064-1205716-597126-786046-835328
3337.23-1410720-866590-446016-926744-846058-1446194
3340.13-786774-777086-2163300-2508902-1149616 148946
3343.02-447528-620100-1569696-64514-957992 256430
3345.91-1813988-1779244-166708-429508-158484-900012
3348.80-633090-352840-784880-327258-1148156-1172330
3351.70 53514-882780-456534-936226-583220-1220786
3354.59-136960-344696-419558-1344300-370552-598376
3357.48 231950-58752-83076-487324 504268 264062
3360.37-895554-351486 1034506 73968-214150-994066
3363.27-155130-230438-20032 917734 676122 1338848
3366.16 287570 255920 919480 1036276 259750 633886
3369.05 1622428 211984 103922 1154786 2216896 858334
3371.95 896552 1228680 1035520 2325456 1557584 2987452
3374.84 1029080 785944 1980682 1030218 2258188 1388414
3377.73 2394542 2940336 2382342 2994190 2717992 3158272
3380.62 3095670 2215362 2511670 4180740 2741764 2763676
3383.52 3951888 3625522 2926632 3785894 3702440 3539078
3386.41 4143368 3439364 3225122 3542356 3295138 3654308
3389.30 4469714 3478052 3866762 3457380 4322632 3004972
3392.19 3952430 3989170 4593986 3651752 3875456 3549800
3395.09 4137000 3758810 3954274 5391774 4133420 3232044
3397.98 5571776 4432394 2731940 5183218 5054224 5114670
3400.87 4136426 4291348 5365638 4941472 5450794 5861558
3403.77 5576238 5041846 4916930 5352978 5814634 5758374
3406.66 4929834 4165806 4742110 3690850 5409602 5227494
3409.55 7035432 6431894 4643608 5232114 5609966 6328826
3412.44 6088552 5902956 5323886 6187516 6419904 5596276
3415.34 6813694 6313398 5333380 6038326 4922930 5524514
3418.23 5801072 3546972 5750996 5006178 3679230 5283606
3421.12 5205026 4683644 5310596 4788136 3389490 4661248
3424.01 4984548 4137308 5003478 4892630 3728368 4608212
3426.91 3939594 3320478 4036408 5027112 4347582 3581750
3429.80 3974598 3869114 3839688 3916042 3826770 3800354
3432.69 3879054 4697296 4570264 4035888 3769074 4060958
3435.59 3958160 4478380 3104194 3813820 4551916 4941340
3438.48 4258014 4303732 3551110 5817044 3943480 3614390
3441.37 3807180 4248726 4667770 4679290 4555292 3960194
3444.26 3208304 5194534 5293588 4683350 5637176 4235750
3447.16 5425360 4948868 4029786 4171160 5407796 4706712
3450.05 4030644 4949946 6122066 5745068 5627574 5290872
3452.94 4938582 5550054 5234334 6564820 5385456 4870860
3455.83 5999286 6118322 5136852 5382098 5911076 4298904
3458.73 4907324 4681218 6311098 5445330 5704870 5746168
3461.62 7770594 6703784 7106336 5962008 5870220 6118178
3464.51 5983634 7488524 6669590 6071784 7969266 6352072
3467.40 6292132 7159592 6429628 5901910 6170294 6649058
3470.30 6548176 6977652 6889784 8365150 7033246 7812516
3473.19 9744432 11580880 10433700 8417046 7548948 7195690
3476.08 6719412 8421902 8175148 8426258 5713610 6380126
3478.98 7442806 6940940 6490636 6778068 7519852 6768796
3481.87 7135876 7248476 6935006 5596092 7306846 7114188
3484.76 6117898 6619026 6948842 6328784 7635952 7183772
3487.65 6319284 6286494 6192492 6217468 6497572 5363208
3490.55 6659788 5899494 6642378 5735952 6005460 4988122
3493.44 6102716 6371416 6564504 6397728 5999662 4950116
3496.33 4901108 5144976 6168078 5033192 5366520 5601716
3499.22 5282884 4079902 4161126 5626870 4983872 5516430
3502.12 5283456 6874456 5978516 4700632 5954492 4396586
3505.01 5348022 3825486 4594454 4106842 4864820 4993864
3507.90 4616576 4942324 5241090 4662746 3678768 4240484
3510.80 4448626 3733518 4585812 3743228 3589946 5129978
3513.69 5135704 4045404 4469694 3294612 4275934 3577462
3516.58 4260480 3079572 4068724 2641482 4515700 3188530
3519.47 4635878 3301514 3700382 2443838 3079612 3423380
3522.37 2454222 3387046 2771318 3613910 3475856 2091596
3525.26 3937328 3785362 3453456 2035130 3359812 3487764
3528.15 3521096 3109024 3055156 3087356 3801864 4206184
3531.04 4453260 3427470 4914662 3789910 4481604 3440654
3533.94 3797088 3660452 3963670 3265500 3792198 4071014
3536.83 4444776 3208850 3439648 2963572 4257680 3314644
3539.72 3640052 4458364 3591142 2901920 3138010 2709452
3542.62 3276934 3883140 3967556 3566460 4179962 4056092
3545.51 3353262 3651302 5078656 3401384 3821338 2504774
3548.40 3331708 3663542 3118776 4011332 4229384 2687158
3551.29 3796990 3816292 2695106 3881690 3947628 2964452
3554.19 4236992 4025752 3747730 3534784 4670138 2453408
3557.08 3827790 3436462 4533422 3930750 5250916 3254126
3559.97 3627528 3182142 5266628 3297832 4243612 5049226
3562.86 4762090 4461434 3855840 4247222 4385496 4594094
3565.76 4610562 4321278 4637538 4578280 4797580 4289270
3568.65 4620700 4107314 4415186 4301428 4015678 3878468
3571.54 2929482 2221076 2701298 2408286 4443142 3498652
3574.44 3796988 3025674 3577044 2779826 3074360 3443702
3577.33 4311354 2463740 2852492 3439568 4256206 3880032
3580.22 3932442 3201052 3712460 2328342 3222768 3517272
3583.11 2996726 3762658 4271928 4824130 4033630 4443364
3586.01 4901470 3915126 4024350 4636854 3720944 4131912
3588.90 4895804 5261996 5325818 5331124 6215726 5928300
3591.79 7025832 6122626 7411990 6679986 7625546 7934416
3594.68 7389880 7725246 7871372 7458390 7277736 7604182
3597.58 8725358 8115880 8171788 9013482 9593314 10424000
3600.47 9465406 10178190 10657290 10139320 10719730 10599040
3603.36 11566700 11409710 11930410 11537760 13614150 12222920
3606.26 12260490 13165200 12579870 14560820 14678800 14314150
3609.15 15547270 15428740 16352800 16578210 17473560 17601490
3612.04 19169040 19173430 19930830 20816230 21231140 22635420
3614.93 23481780 24020390 24189660 25646810 25485650 26105460
3617.83 27986580 28191480 28668270 29664190 30162400 30711850
3620.72 32181970 32889890 33825450 34181070 35820350 37318670
3623.61 38260010 40423520 42036630 40400780 42400100 43420370
3626.50 44181890 44755420 46738720 47975290 48665040 48853720
3629.40 52165250 52801860 52653240 54392110 60380820 58780720
3632.29 58674820 62858670 67153100 65549650 67251660 73441410
3635.18 75606420 71936490 76468830 81156530 82300360 80126860
3638.08 85785780 93198350 91374180 91083730 100141800 103016200
3640.97 101785000 103595000 111392300 114890000 111427900 116872400
3643.86 124530200 126545800 124404500 131839600 140221900 134834100
3646.75 136997000 145949700 150322000 145960900 152373900 161327000
3649.65 157259300 157436000 164730600 166942800 165864600 170087500
3652.54 175924700 174368600 176542800 181969000 186948400 201838800
3655.43 224049300 205352300 197327200 202557100 219349000 240118900
3658.32 250905600 226041100 212359600 212266500 221238600 230866700
3661.22 254183700 262498900 234408200 229485000 226528700 223126300
3664.11 228418100 230778600 226438000 229046400 235819200 228695800
3667.00 228256500 235851900 232347800 223357500 230800700 231506000
3669.90 225142500 228158800 233765100 227367000 223176200 226837600
3672.79 227284400 222915200 238398500 255620000 283448900 321094100
3675.68 419230400 365252100 234561600 206066100 187701300 182270100
3678.57 176095200 182515900 178921000 180457700 183613800 189159600
3681.47 187451200 195110500 205179600 226231500 234568100 220318700
3684.36 203906500 199534700 197842400 197747600 195483300 197401000
3687.25 195543200 196468200 193722600 193671600 192254700 191067100
3690.14 188934100 187845400 183399900 182529200 179074400 175373900
3693.04 170316600 167036800 162553000 157636300 151758800 149200000
3695.93 143833100 138102300 132784500 128942500 122069800 119027100
3698.82 113731400 109620300 104078600 100138900 94846260 91035420
3701.72 85245460 81418670 77246380 73439540 69262470 66696620
3704.61 62769010 59559140 57766620 55458820 52340550 49730140
3707.50 47352880 45782220 43045060 41167700 39416660 39620920
3710.39 35618890 36226920 33276120 31761040 29212300 27329990
3713.29 26828230 25313940 24117220 23633910 22852710 22193410
3716.18 20287500 21051830 19878510 20465060 20394270 19268150
3719.07 18852200 18534640 17742270 16813530 15619580 15324080
3721.96 13654240 14775660 13341010 12337530 12892220 12175990
3724.86 11606390 11625340 11354700 11188720 9882194 10641280
3727.75 9931362 9919168 9531972 10941860 9892984 9367478
3730.64 7660856 8630606 9213160 8877412 7672710 9474296
3733.54 7409686 7260092 7837404 8467270 7775280 7751080
3736.43 7594426 7639082 7120756 6422928 6145592 6452236
3739.32 5730056 6488982 6266396 6153144 6581078 6505914
3742.21 6158638 5271980 5659180 5871080 5298756 6656936
3745.11 5061536 5753944 7056132 6254996 6248008 5434018
3748.00 6556656 5964690 5392068 6221598 6770454 6554792
3750.89 6777450 7303476 6673334 6502430 6217696 6620804
3753.78 7235848 6420310 5912094 6952412 5777998 5956968
3756.68 5169990 5597606 7105350 5901932 5519918 6373358
3759.57 5763972 5729176 7021760 6620660 6379344 5561948
3762.46 4817790 5167400 6636674 5635018 5286324 5909386
3765.35 6507222 6046422 4742486 5078524 5778422 5009644
3768.25 4597188 4782422 4686132 4544186 5246572 4978808
3771.14 4457450 5086778 5703254 6175734 5195166 5792730
3774.03 5384910 5736794 5985988 5762310 5161794 6156784
3776.93 6337176 6829160 5828702 7131386 6681054 6230972
3779.82 6997070 6513940 6746356 6982770 7446182 7011156
3782.71 7988692 8490886 8651772 8606604 6709596 7798558
3785.60 8256582 8476214 8153244 8142036 8863730 8716838
3788.50 9098856 8570958 8348458 8850332 8240568 8263716
3791.39 6750048 8334280 7782640 8169066 7848250 8308504
3794.28 7164520 8028176 7180436 7669516 7037458 6741198
3797.17 6592530 7534186 6343980 7250854 5784286 6310784
3800.07 7176388 7039316 6531192 6359718 6555316 6881300
3802.96 7372372 7014222 6675008 6868738 6472638 6811952
3805.85 6412422 7400596 6524770 7381158 7291138 7038182
3808.75 6772800 7064082 7355874 7199672 7026714 7342418
3811.64 7918854 7319442 7527362 6757326 8052888 7364654
3814.53 7270598 7238560 8251290 6924298 6139074 6183956
3817.42 6570044 7821482 7243860 6628598 7424894 7726806
3820.32 7059200 8297820 7245480 8010212 7445004 7710356
3823.21 7567646 6737514 8082582 6947648 8499750 7748404
3826.10 8293390 8803152 8547436 8439370 10057050 9093398
3828.99 9061796 7954840 8602282 9251274 9725506 9057630
3831.89 10397930 10962910 13647550 12194170 9797936 9233938
3834.78 11270230 9881108 10085700 10466000 10321320 10166140
3837.67 9610782 9004426 9437936 9860758 9756206 9995300
3840.57 10692380 10570600 9200188 9533608 10169420 10196120
3843.46 10012910 11204430 10858000 10864650 10487370 10025720
3846.35 11379470 10929130 10521750 10988600 11177000 11895230
3849.24 10454690 9979572 10062000 9917362 10496960 10130830
3852.14 10298130 10973750 10043110 10308040 11136290 10919770
3855.03 9978348 9721046 10337790 10117900 10646400 10727030
3857.92 10194430 9924842 10412170 9089748 9780908 10018720
3860.81 10353130 9571470 10080240 10342900 10168850 10110110
3863.71 10601590 10387400 9990788 10168760 8926622 10104420
3866.60 9845490 11450400 10942720 10767660 9952944 9884746
3869.49 8849156 8024666 7935392 8580914 8350274 8721462
3872.39 9180878 9496162 9234252 8695150 9190986 9392652
3875.28 9564506 8941294 9379970 8922396 9162196 8786968
3878.17 8934232 8832426 8250576 9497444 8268598 7909862
3881.06 8384922 9408226 8895446 9150788 8137762 8687806
3883.96 9704482 9450502 8543698 9204500 10755630 11586440
3886.85 9892480 10446580 9278046 8002462 7616360 7517676
3889.74 6711322 7322714 7619232 7500220 7758314 7529000
3892.63 8138566 7499440 6940838 6835212 7547364 7119894
3895.53 6898388 7070996 7796964 6969736 6882900 6853944
3898.42 7221304 7232342 6451120 6683144 6586862 6844162
3901.31 7020966 6682496 6330666 5935970 6442400 6624286
3904.21 6317662 6065006 6710288 6873060 5236448 5920642
3907.10 6418332 6352120 6102738 6449628 6209186 6264076
3909.99 5833098 6387312 5256600 5146210 5486634 5974562
3912.88 6086398 6003776 5698118 5749580 6321840 5985494
3915.78 4733514 4532452 5495084 5895334 5258642 4532010
3918.67 5712142 5033006 4658762 4418088 5161990 3749890
3921.56 5303140 4895554 4834730 5164064 4922248 4681784
3924.45 5948496 4569516 4589178 4779728 4666842 3922126
3927.35 4124622 5013052 4712898 4771192 4079382 3036542
3930.24 3806946 3556622 3646636 3748530 3871612 3515934
3933.13 3769490 4520306 4372564 3888400 3991108 4274156
3936.03 4338288 3318070 3269594 3703222 3179246 3479386
3938.92 3566278 3878350 3837942 3935300 4957812 3722860
3941.81 3571188 4051992 4332390 3651320 4935324 3323218
3944.70 3389152 4024120 3780844 4001540 3582468 3846838
3947.60 4943048 4835316 5670238 4314666 2854044 4737950
3950.49 3437602 3813718 4160402 4653664 3780338 4240186
3953.38 3580302 4493132 4738900 3869642 4820942 4167094
3956.27 3901474 4847078 4656184 5267694 4042704 5241116
3959.17 3947882 4245848 4291600 5469318 5526112 5132070
3962.06 5105364 5255236 5198786 4729796 4132614 5846276
3964.95 5158146 5357918 5630822 4768626 4385508 4582098
3967.85 5019278 6287210 4686314 5931134 5880984 5307996
3970.74 5253952 5354982 4544376 4961374 5627824 6893726
3973.63 5120834 5405750 5962830
##END=
