##TITLE=Ethanol
##JCAMP-DX=4.24
##DATA TYPE=INFRARED SPECTRUM
##CLASS=IUPAC A
##ORIGIN=NIST, Anayltical Chemistry Division, 301-975-3108
##OWNER=COPYRIGHT (C) 1998 by the U.S. Secretary of Commerce
##DATE=98/10/1
##$SPECTRA VERSION=1.00
##$UNCERTAINTY IN Y=2.0 % relative (B=1.0E-04,C=2.9E-10,D=2.7E-14)
##CAS NAME=Ethanol
##CAS REGISTRY NO=64-17-5
##MOLFORM=C2 H5 O H
##MP=-117.3 C
##BP=78.5 C
##$NIST SOURCE=QUANT-IR
##SPECTROMETER/DATA SYSTEM=IFS66V (Bruker)
##INSTRUMENT PARAMETERS=KBr Beam splitter; MCT Detector; Multipass cell
##STATE=gas
##SAMPLE DESCRIPTION=Ethanol Primary Gas Standard
##PRESSURE=101.3 kPa
##TEMPERATURE=23 C
##SAMPLING PROCEDURE=1 L/min Flow
##RESOLUTION=0.9640
##DATA PROCESSING=NB Strong Apodization
##XUNITS=cm-1
##YUNITS=(micromol/mol)-1m-1 (base 10)
##XFACTOR=1.0
##YFACTOR=2.2737E-13
##DELTAX=0.4820
##FIRSTX=575.169
##LASTX=3975.077
##FIRSTY=2.20E-06
##MAXX=3974.59
##MINX=575.17
##MAXY=.0003262
##MINY=-4.76E-07
##NPOINTS=7053
##XYDATA=(X++(Y..Y))
575.17 9700632 10682640 11324240 12280970 13782740 12548620
577.58 8129704 6444376 6748470 7595422 9384444 8129814
580.47 6487482 10081800 11482730 9701492 10522960 14374580
583.37 12996630 11151580 10920290 11996030 10927040 9616802
586.26 7922792 6324448 6753052 9629802 13029140 11075430
589.15 8525216 9444262 10891960 11103270 10423290 9537196
592.04 10119960 10888300 10671620 9993048 11253890 10505080
594.94 10217340 11635200 12643770 11655050 12569090 12599090
597.83 10399520 10805180 11265110 11310020 11851860 12337350
600.72 11132240 10550280 11625260 12240670 10982520 10081440
603.61 10867960 11949530 12599960 12681970 13472680 13157080
606.51 11948730 12171170 12193160 11929820 12466570 13017900
609.40 11830560 11822310 11586160 10931770 11013900 11321320
612.29 11339660 10188150 11143320 13067560 12739700 12063390
615.18 10449430 10434520 11460010 13165520 13957710 11725350
618.08 10780370 12217580 12817430 12410070 12990800 14043520
620.97 13238260 12925610 12230270 11222160 11741920 12272760
623.86 11156670 10780120 11671630 11702510 11779920 12045550
626.76 12487190 12068580 11135090 11002980 10909520 10464710
629.65 10666870 10931720 11508510 11472920 10493470 10279440
632.54 11167080 11645360 12074880 11329980 10224090 10416650
635.43 11170240 11024690 10685200 11440720 11131770 10565630
638.33 10958700 10822550 10803900 11003420 10672820 11367450
641.22 11264350 10733180 9925754 9309380 9695668 10431090
644.11 11084080 10566580 9615156 9808564 9897198 9149684
647.00 9052494 8540220 9042436 9470006 9267556 9207824
649.90 8609832 8287128 8120654 8121806 6874282 6508244
652.79 7679784 7871042 7493044 6724324 6830648 7725678
655.68 7500166 6224024 5915598 6566042 8126594 8542826
658.58 8074762 7499386 7405164 6836416 7579088 8396148
661.47 7449552 7263238 7675222 7169664 5806340 5719466
664.36 7204542 7135226 6686350 6787534 7275984 12505980
667.25 16067620 11824030 8516656 8240474 7879490 6194668
670.15 5675192 6369420 7323402 6980998 6255054 6136444
673.04 5969278 5741724 5608200 5551134 6369600 6905992
675.93 5717702 4921636 5685046 5285954 5049086 6133410
678.82 6512320 5148638 4539180 5583106 6638414 5868880
681.72 4918116 4646706 5109242 6364500 6464730 5875876
684.61 6097314 6135650 5103656 3690998 3727940 4319932
687.50 4613416 4652478 4932864 5195950 5601674 5209892
690.40 4134936 4004256 3963018 3166146 2905340 3452452
693.29 4569210 4675552 3784132 3504548 3333060 2993798
696.18 3445800 3752466 4114304 4196242 3236858 2536340
699.07 2333504 3243578 3645922 3774160 3841364 3856466
701.97 3278012 3136718 2970430 2766558 2736880 2748544
704.86 2323536 2385602 2385992 2493218 1938312 1646018
707.75 2296932 2653318 2550682 2577314 2755768 2999502
710.64 2702336 2453192 2332756 1889540 1808726 1632378
713.54 1622582 2219708 2555170 2306738 1783456 1994760
716.43 1940856 1761862 1420022 1826484 2071314 1791414
719.32 1627142 2312442 2944520 2657600 1611454 1273208
722.22 2270216 2758248 2796200 2775328 2382070 2618756
725.11 3377034 3091754 2807536 2957882 2871476 3003706
728.00 2556014 2451222 1910946 1739510 1899496 2787530
730.89 3527214 3047284 2517256 1973838 1513018 2067014
733.79 3007782 2879748 2432072 2729574 3300868 3354330
736.68 2656792 2322588 2137876 2331414 2449514 3016030
739.57 3465580 3780230 3589718 3225738 3126614 3246060
742.46 3143906 2847542 3076080 3875376 4023438 3898646
745.36 3709334 3425474 3719808 4175798 3698252 3345286
748.25 3165372 3233826 3627668 3628236 3102550 3389156
751.14 4113712 3974092 3677942 4050172 4309202 4392960
754.04 4284294 3861872 3456214 4091556 4913980 4898672
756.93 4444970 4237288 4752974 5451518 5597838 5231038
759.82 5797126 6305178 5648466 4963346 4904086 5366604
762.71 6273414 7102862 7087680 7345260 7235788 6950370
765.61 6734152 6808924 6830038 7355576 7514288 7756936
768.50 8711616 9110656 9002724 8950016 9258040 9164096
771.39 8820530 9032700 10190400 11040300 10172920 10575760
774.28 11309560 11396790 11751390 11411630 10695980 11046160
777.18 12083610 12907100 13479630 13569360 13017340 13140880
780.07 13490700 14104440 14593470 14704760 14602910 15004320
782.96 15418100 15717000 15950980 16672450 16634310 15880120
785.86 16279900 16923030 16271970 15898950 16934390 17807760
788.75 16564280 16429690 17497420 16954540 15427380 15568150
791.64 16878020 16753900 16137500 17182580 17531670 17049870
794.53 17334970 17687740 16556340 16388580 17301840 20566190
797.43 22590250 20136470 17897600 17062880 19072880 24457610
800.32 30340850 31241650 25161830 20445790 19146190 18839000
803.21 18579010 19221300 21748260 23776590 21787850 19166840
806.10 17847070 17809860 18052860 17940460 17943040 17954630
809.00 17677380 17426360 18489550 20552480 20350040 20114530
811.89 20897830 20980770 20623190 19388610 18647520 17604410
814.78 17644110 18360810 17670970 18050270 18566230 17584350
817.68 17204070 17659770 18198370 18364040 18104760 18338780
820.57 18626220 17805040 16661690 17684270 18194390 17297740
823.46 16725940 17185220 16732340 16940850 17334500 17418870
826.35 17718880 17471760 17337020 17478150 17471930 17318200
829.25 16567440 16807990 17244380 17129710 17136820 17336260
832.14 17007470 17194630 17626540 17501170 16998850 17838210
835.03 18738520 18991560 19095300 18972820 19668730 19848140
837.92 19550360 19948050 20742880 20951450 21674430 22642660
840.82 23055190 23803800 24676200 25104910 26035820 27028500
843.71 27756810 28673270 30044430 31487110 32208210 32474360
846.60 33581450 36036110 38150430 39310060 41250010 43025820
849.50 44593940 46624220 48330520 50067010 52791430 55830130
852.39 58475170 60396270 62868380 66446740 69664160 72335500
855.28 75429100 79003820 82043610 85460980 89490090 93384440
858.17 96606770 101209500 105689700 109262300 113023000 117384200
861.07 120576800 123818900 128334100 132913200 136841600 140633200
863.96 144514400 146988700 150344600 155127800 157762500 158093500
866.85 160763900 164505900 164623500 163671200 166417000 168964400
869.74 167737600 166556900 167262000 166152000 161800900 160192200
872.64 159388900 156831600 153876900 151461700 148875000 146436600
875.53 144323400 143623800 144975200 147995400 154118500 175424600
878.42 244566400 296175400 230911300 165131000 149478800 151236500
881.31 158850100 173992200 191974500 188840100 172893200 162634900
884.21 160331600 162005800 162379200 162299000 162263800 161604900
887.10 161951000 164864200 167055100 168985100 172235300 178757500
889.99 192019000 223431300 254258900 236900400 207950900 197901000
892.89 193395900 187742200 184739600 185754400 186684400 186893300
895.78 187466400 189090700 189094700 187167900 185651300 185935200
898.67 184120800 180955700 178567800 176725900 173184300 169912300
901.56 167253600 163512900 158696900 154535400 150308300 146386900
904.46 142054700 138571000 134380600 128727200 124061000 119873300
907.35 114658100 110509500 106426100 101809300 96578990 92689930
910.24 89637760 86091860 81878030 78161080 75104660 71513480
913.13 67701050 64475650 61972740 59410580 56621780 54665760
916.03 52526230 49802820 47144380 45913380 44387430 42048490
918.92 40112650 39209110 37805800 36464440 35498300 34492320
921.81 33274960 32651340 31518660 30485860 29555200 29189000
924.71 28881080 28244330 27304580 27112670 26656480 26082420
927.60 25436060 25418220 25163550 24948580 24510060 23866490
930.49 22953470 22734860 22491380 22141820 21586370 21513790
933.38 21560170 21501410 20999660 20715300 20270240 20284620
936.28 20306650 19981630 19800570 19777420 19502370 19559910
939.17 19175090 18940330 18824190 19069530 18671570 18342330
942.06 18144070 18366430 18509690 18213130 17880720 18011580
944.95 17849570 17913030 17658040 17563780 17340710 17784530
947.85 17694720 17331340 17138700 17480190 17389470 17597440
950.74 17457910 17412440 17705970 17973180 17831950 17884950
953.63 17840350 17758070 17562030 17771230 17967030 18171920
956.53 18372260 18914630 19006860 18905520 19218350 19961530
959.42 20665570 21205520 20805040 20637590 21175950 21498750
962.31 21351220 21794940 21972460 22292690 22232850 22521360
965.20 23045300 23824840 24076730 24213160 24029150 24699500
968.10 25437870 26113640 26496040 27094470 27464330 28452480
970.99 29138230 30027190 30511690 30957640 31152790 31694900
973.88 32168020 33108970 34049920 35165100 35360150 36020820
976.77 36552300 37369880 37919570 38962350 40257120 41383570
979.67 42196860 43415060 44299930 45406190 46677520 47791040
982.56 48625320 50331150 51936810 53369780 54431370 55904590
985.45 57433140 59330910 60848760 62586020 64494860 67051430
988.35 69233240 71443380 73160860 75536540 78249510 81271500
991.24 83723300 86850530 89924500 92817120 95343310 98151560
994.13 101393900 105289700 109080000 113416700 116874800 120461400
997.02 124884600 129937500 134759400 140048100 145017400 150641900
999.92 155362800 160417400 166101300 173141400 179103700 185756800
1002.81 195149900 204800400 213273700 220407000 226069000 231887700
1005.70 236580400 243079700 250429600 258159500 263928200 270908300
1008.59 280019300 289801100 297163500 306514400 315971600 324225400
1011.49 332027000 341296600 349195300 353827800 359438700 371782400
1014.38 378562500 382997600 386977700 395489200 399055600 398398600
1017.27 401847400 411026800 417025000 416035700 413446800 419767700
1020.17 423739800 423644700 427416200 435204700 439372100 438416900
1023.06 439183200 446259800 454147500 466882600 493760400 537795000
1025.95 592983200 677767400 776826300 799099500 693047400 559287400
1028.84 509536600 505586800 515824500 531976400 546213600 566070200
1031.74 589619300 608228900 620339600 635150800 656282400 681871600
1034.63 704571700 736859800 782346200 846199600 903952500 943734600
1037.52 921169200 873374500 874366700 890473100 906060200 925958700
1040.41 949471100 961910400 972319600 985550100 1000880000 1016752000
1043.31 1029940000 1040777000 1048079000 1060906000 1079721000 1093511000
1046.20 1101511000 1106472000 1102650000 1100246000 1107647000 1119519000
1049.09 1131133000 1141837000 1145185000 1140076000 1145509000 1155007000
1051.99 1161332000 1160969000 1150404000 1140207000 1136414000 1138388000
1054.88 1148680000 1158839000 1175530000 1210847000 1254947000 1290650000
1057.77 1257959000 1156313000 1081476000 1047061000 1029856000 1016963000
1060.66 1008901000 1012675000 1020452000 1039561000 1065198000 1095203000
1063.56 1123230000 1157644000 1223073000 1317221000 1412454000 1434940000
1066.45 1325244000 1248444000 1164824000 1063498000 1031379000 1019323000
1069.34 1034777000 1048688000 1056192000 1072483000 1086398000 1097331000
1072.23 1115353000 1121188000 1129214000 1139964000 1143814000 1137935000
1075.13 1133932000 1134240000 1133120000 1127958000 1116816000 1105950000
1078.02 1093319000 1081940000 1064839000 1041056000 1021921000 1000679000
1080.91 980312200 959243300 935882900 911525400 889201900 871289500
1083.81 853033200 830334700 805494100 782810900 767173000 749135700
1086.70 721771200 692688100 680964600 676042400 669495000 668138800
1089.59 652101100 600466600 538867800 500300400 483989300 474012100
1092.48 466041500 458587000 453851000 448131300 440435100 433976600
1095.38 431781600 434677200 437008100 427887000 422720800 421269000
1098.27 418452600 418001600 417006300 412567700 410055700 407742000
1101.16 401725900 395957500 394802700 391215200 384073100 378755100
1104.05 374901300 365842600 358285600 351330500 340932900 332601500
1106.95 327104400 318108700 308244300 300643500 293442600 284931600
1109.84 277737200 267996500 256234000 246126500 237685800 230500500
1112.73 224793700 219370800 213781800 208967000 202959200 191108000
1115.63 179775500 174326500 173710100 169954800 162142800 157301000
1118.52 154502400 147923000 141669600 137693900 135006100 131348700
1121.41 127971300 125372500 122088200 118629100 116980900 115078300
1124.30 112579200 109314600 108716000 107165500 102939300 100101100
1127.20 100003700 98544600 95130860 92861290 92432640 90192420
1130.09 86924810 87302870 86137660 81913620 80333820 81142930
1132.98 79759230 77028730 76323700 76404540 73628080 70057520
1135.87 69487650 69377770 67643940 65712030 65179300 63778230
1138.77 61864370 60716120 60735960 60099500 59116160 58472710
1141.66 57406150 55341900 53636080 53128920 53395720 53047320
1144.55 52257640 50831850 49760560 48921120 48610780 47915260
1147.45 47584330 47097830 46607810 46195120 45671810 45683300
1150.34 46248260 46541030 47104390 48610340 48996000 47417620
1153.23 45866580 45230980 45234190 45137440 44893840 44425480
1156.12 44113740 43723160 43480670 43682460 43892650 43691980
1159.02 43366220 42936580 42792080 43003730 43828090 43752080
1161.91 43145800 43174850 43358360 43552790 43661460 44145130
1164.80 44746850 45812620 45760360 44435010 44648700 44805080
1167.69 44425340 44459280 44982630 44980790 44573970 44268420
1170.59 44656450 45201090 45596660 46400900 47106110 47110870
1173.48 47073860 47231800 47803970 47839020 48518720 49146220
1176.37 49525040 50326860 51169630 51078180 51235430 52191560
1179.26 53339900 54049510 54773450 55099030 55918370 56884750
1182.16 57644760 58283450 59235630 59914080 60490240 61298130
1185.05 62173030 62751800 63509620 64491800 65553860 65921610
1187.94 66541670 67325510 68085570 68592410 69402140 70283380
1190.84 71287260 72667420 74357510 75637260 76668410 77852140
1193.73 79219480 80208940 81432190 82464150 83894460 85278780
1196.62 86286790 87005820 88035460 89154690 90010440 90489050
1199.51 91367810 92518880 93977980 95249640 96443460 98405780
1202.41 100305000 101799400 103358600 105336700 107730200 111112100
1205.30 113028000 113729100 116702200 120734200 123256300 124073600
1208.19 126005900 129470700 134051900 137892000 139244300 142854300
1211.08 147459800 151536100 154583500 159085500 163989600 169809600
1213.98 176399300 178354700 180539300 189553000 199438400 200738300
1216.87 204888700 215451600 218602900 220477400 231715600 238000800
1219.76 236058000 246243600 258646600 255558900 258625300 274856100
1222.66 277026000 272016000 283081800 293828700 287375100 287405700
1225.55 306464700 308869300 295092600 306788600 319287500 309000700
1228.44 307285800 320790600 319695400 309199300 317445200 323870900
1231.33 306557800 301029800 307218200 300033000 289868800 282634200
1234.23 280023200 279254400 268962300 262025700 260670400 258771900
1237.12 251015600 241076100 236804700 231287900 229438000 248631700
1240.01 315435900 423545700 446016700 364490300 297200200 280880300
1242.90 276215100 260498600 262539500 272986300 278068500 284845900
1245.80 294381900 293803700 290197400 292899200 314199700 347179900
1248.69 371404800 363641000 356594500 338250100 318834700 319559100
1251.58 327541800 321381400 311898800 316049600 321425200 311145600
1254.48 302176200 305614700 307441800 300847000 296107500 299324900
1257.37 294711800 283079000 281756600 286200100 281165500 271758800
1260.26 269002500 266909900 256962600 246067000 243705500 243294900
1263.15 235846500 227825400 225388900 221570600 212649800 206267800
1266.05 203695600 197407800 188375300 181794200 179412100 174522700
1268.94 166463300 159260900 157380900 156502200 149946500 144716300
1271.83 143938900 141206800 136749800 133613400 130143900 126326700
1274.72 124118400 122992500 121523500 119272700 116178300 113558800
1277.62 112503500 110374000 107786700 105756200 104405500 102788300
1280.51 101037200 98850150 96707310 94843580 93237930 91990850
1283.40 90953450 88811200 86768010 85291450 84189260 83485770
1286.30 83293150 82337650 81095670 80329120 79841670 78752840
1289.19 77746900 76938750 76323180 75816430 75353990 74394840
1292.08 73413870 72398040 72070040 71479770 71108850 71059540
1294.97 70970850 70406840 69914400 69439190 68954000 68303810
1297.87 67274610 66092010 65573000 65183200 65460430 65644470
1300.76 65318280 64930800 64788410 65205040 65977320 66786960
1303.65 67046640 66329450 65952480 66539010 67454250 67346900
1306.54 66311690 65709380 65517040 65182490 65436910 65671220
1309.44 65859230 65829560 65862010 65940720 66104880 65909940
1312.33 65872060 65714660 65614340 65297010 65425200 65512770
1315.22 65599620 65947180 66284360 66149400 66115960 66001490
1318.12 65886820 66043730 66208270 66424640 66901430 67679820
1321.01 68694900 69338680 70123060 70317680 70111550 70268850
1323.90 70788940 71110650 70907700 69937740 69216520 68651940
1326.79 68355370 68177980 67935420 67793400 68294840 68723020
1329.69 69156060 70067300 70454660 70413270 70944770 71580370
1332.58 71852650 71879230 71681260 71605020 71872440 72754220
1335.47 73855940 74841140 76110550 77201180 78187540 78727860
1338.36 77330660 75445440 75299550 75774960 76442490 77871040
1341.26 79779830 79872500 79759460 79948500 80602240 81737640
1344.15 82685260 82917370 83532240 84687010 85922380 87194060
1347.04 88447580 89153970 90110090 91309120 92219200 92680300
1349.94 93048380 94434340 96688580 98761340 100968300 103066400
1352.83 105198500 107026400 108753600 110851000 112757300 114523000
1355.72 117149900 120395000 122550800 125311000 128691300 131018700
1358.61 133342600 136060400 139027800 142579700 145853700 148879000
1361.51 152133800 155771100 160631800 164589200 168171600 173622500
1364.40 179357500 183193200 186839900 192214600 197893200 201993400
1367.29 206595800 212326200 218192400 223349800 229888800 238267400
1370.18 245688600 251606300 257694200 264772500 272181500 277820600
1373.08 283432100 290517400 297509700 303364600 309610000 316112000
1375.97 323413000 331281300 337599800 343283400 349607300 355550500
1378.86 359765300 363162000 367511900 371117400 373985200 375796200
1381.76 376124700 376569400 376705400 375045800 370555200 365022100
1384.65 360518600 353698300 345826500 340008600 333665900 325647100
1387.54 316387700 309307300 305218800 305057200 310749700 321678800
1390.43 333333700 352115700 373972600 403781500 467753100 566812100
1393.33 640749000 630420900 544146800 434872100 362836100 327378000
1396.22 314035100 311122400 312352400 317546700 324742000 331228200
1399.11 336434800 342870600 352028700 361865300 371452900 380339000
1402.00 390892700 399780900 405605300 413154600 422953100 428171600
1404.90 428417500 426677000 425766000 424621100 422179500 419911800
1407.79 416566300 411806000 405968100 399276900 391063000 382356800
1410.68 374514100 365778800 356367600 346046800 335613200 324487200
1413.58 312614300 301143400 290584000 280953100 271736000 262039000
1416.47 251504300 241449700 233407900 225912400 217926700 209671900
1419.36 202394600 196737300 191091000 184688100 180184600 176800000
1422.25 171968300 166694100 162557500 159017200 156484600 154385500
1425.15 151350700 147746300 145032700 143322400 142012500 139951900
1428.04 136548800 132149400 128792800 127016700 126843300 126628500
1430.93 125892900 124867500 125217100 126031900 125667600 124310200
1433.82 124820900 127190200 127092700 124105600 123966300 126656200
1436.72 127413000 126244600 126083400 125337600 123128800 123285000
1439.61 124529500 123183700 123105300 124499400 123342100 121281600
1442.50 122496000 123250800 121376100 120348100 121437700 121856500
1445.40 122380300 122519500 123039300 125589600 128900500 132957900
1448.29 143007600 156702000 173276400 174369800 152600000 142185700
1451.18 142322100 143290100 146155400 156744900 167613600 156579600
1454.07 144895600 136084400 120487500 105822000 98501540 96586910
1456.97 96269200 95741460 95271120 94034710 93838580 94092440
1459.86 93783490 94215720 95254750 93925500 91385000 89904020
1462.75 89139460 88987330 88829100 87799130 87257940 88887480
1465.64 90188360 88319990 86120430 86909500 88852410 87906620
1468.54 86456980 86910250 88174510 86779540 84912310 85641170
1471.43 88257880 88250160 85589630 85226610 87696430 88596420
1474.32 86427760 85542760 87002100 87498030 85785140 84718340
1477.21 85423380 85615020 84267850 82365620 81081660 81174660
1480.11 81410260 78922500 76011810 75081630 75136260 73696720
1483.00 71037220 68922320 68172300 66637410 64465150 63210230
1485.89 62115630 61044530 60217930 59722180 59578060 59524940
1488.79 59814760 59938070 59326310 58055410 56843650 56664400
1491.68 56847150 57343810 57474780 55409950 52652900 50626840
1494.57 48915950 47972580 47688130 46990890 46039820 45210360
1497.46 44776540 44696480 44274700 43864520 42969320 41980150
1500.36 41627100 41220490 40397300 39671330 39134810 38584460
1503.25 37998980 37546210 37040160 36086640 35107830 34333290
1506.14 33597630 32952010 32275610 31681120 30801720 29949790
1509.03 29242150 28490350 27856740 27291680 26230420 25304750
1511.93 25075070 24756890 23923520 23198620 22636560 22075540
1514.82 21350140 20776880 20166220 19613620 19378810 19090250
1517.71 18404740 17589230 17050180 16473700 15990610 15528980
1520.61 15122640 14645720 14392960 13919620 13647740 13474820
1523.50 13262040 12755770 12276270 12047280 11928740 11682500
1526.39 11216860 10805300 10429260 10018300 9563422 9270110
1529.28 9252980 9022352 8629702 8305420 8109414 8099652
1532.18 8191300 8021910 7821154 7334990 7045724 6728374
1535.07 6493380 6612906 6461914 6008588 5650886 5623828
1537.96 5772502 5741046 5574742 5278154 5032848 4929240
1540.85 4946680 4779570 4533310 4503974 4450178 4346010
1543.75 4276612 4100382 3977210 3876722 3680224 3468526
1546.64 3640958 3707550 3559756 3550436 3536666 3287058
1549.53 3202854 3243452 3470440 3310000 2962786 3002614
1552.43 2952464 2808610 2740820 2783360 2847272 2743956
1555.32 2831132 2734716 2666348 2615500 2345456 2275342
1558.21 2431296 2550090 2410380 2342576 2378518 2365734
1561.10 2443386 2330728 2136514 2229422 2174598 2149994
1564.00 2252932 2220298 2216936 2060086 2135602 2071530
1566.89 1892356 1856166 1685928 1875638 2087538 1936264
1569.78 1885032 1959462 2061960 2014650 1758000 1710534
1572.67 1896062 1910410 1938332 1847242 1911056 1947584
1575.57 1859258 1677362 1653024 1718618 1928628 2035992
1578.46 2106480 1880808 1632186 1516866 1789256 1981348
1581.35 1796470 1582132 1778832 1816384 1754304 1632486
1584.25 1488240 1604290 1553744 1648146 1737786 1694138
1587.14 1675110 1764568 1958688 1984646 1913346 1776370
1590.03 1825130 1770322 1760856 1771944 1886918 1905602
1592.92 1883918 1938068 2057550 2139272 1796674 1657774
1595.82 1739072 1885654 2002892 1987110 1818266 1592590
1598.71 1633514 1794288 1814902 1744158 1670374 1727510
1601.60 1831666 2006660 1982224 1770110 1672278 1616876
1604.49 1621636 1866796 1905052 1859232 2029726 1869644
1607.39 1651742 1419224 1538978 1962146 2364610 2284242
1610.28 1956366 1634184 1545404 1663922 1677186 1653458
1613.17 1617226 1523236 1422448 1429332 1766520 1620120
1616.07 1401478 1559428 1750406 1668912 1453618 1500816
1618.96 1655190 1803608 1915658 1755598 1713550 1726250
1621.85 1769428 1696876 1486406 1636544 1637222 1403528
1624.74 1367752 1406670 1513394 1483732 1521124 1613076
1627.64 1695854 1718656 1586664 1522162 1619964 1619130
1630.53 1624330 1605698 1662944 1610032 1581530 1645754
1633.42 1489874 1520580 1443948 1315678 1427016 1464240
1636.31 1543012 1606394 1467604 1393870 1315470 1479350
1639.21 1661286 1892548 1908608 1721762 1774304 1799906
1642.10 1600570 1546586 1653838 1818526 1891660 2044576
1644.99 2056212 1700468 1533488 1692444 1651836 1806182
1647.89 2032536 1975672 1996620 1851430 1602350 1680806
1650.78 1816128 1858990 1712826 1673258 1636702 1626250
1653.67 1837576 1844498 1573586 1389780 1542242 1777378
1656.56 1698986 1663330 1775556 1768254 1653596 1608506
1659.46 1737876 1873496 1965892 1821988 1863778 1778332
1662.35 1774272 1928252 2134360 2081594 1860038 1589044
1665.24 1708192 1829568 1894406 2025852 2093826 1851446
1668.13 1879268 2148248 2180648 2222422 2242168 2158654
1671.03 2094536 2055520 2380804 2300972 2227410 2256914
1673.92 2510396 2552416 2337252 2187272 2151380 1950510
1676.81 1919922 2092388 2237804 2144250 2284380 2214636
1679.71 2250562 2306580 2271604 2253666 2186032 2240206
1682.60 2236952 2213404 2230020 2125098 2229816 2327132
1685.49 2294314 2239556 2235706 2168866 2089232 1970638
1688.38 1950082 2104770 2272208 2160166 2003088 2155318
1691.28 2257940 2134942 1989960 2021374 1957208 1760134
1694.17 1840540 2028724 2040906 1931356 1911094 2090692
1697.06 2164344 1841248 1754040 1883336 1845500 1818756
1699.95 1792194 1835990 1932628 1979698 2194776 2192040
1702.85 2002240 1870106 1728312 1819050 1820004 1726778
1705.74 1660262 1568476 1555280 1623528 1786992 1706456
1708.63 1616940 1516216 1450740 1498458 1554472 1564280
1711.53 1558870 1470104 1605932 1776686 1830866 1759072
1714.42 1694124 1841750 2129916 2049204 1978560 1805586
1717.31 1755674 1647886 1581604 1471388 1464210 1428300
1720.20 1564982 1870188 1940676 1754120 1709910 1716820
1723.10 1623726 1431570 1420366 1512016 1556364 1415494
1725.99 1423980 1474612 1359676 1481672 1478682 1375682
1728.88 1557802 1517386 1438768 1532928 1551438 1533296
1731.77 1503220 1506114 1533712 1409132 1247500 1342972
1734.67 1713154 1752904 1643192 1763076 1807384 1643172
1737.56 1753664 1874584 1784252 1995872 2213682 2106378
1740.45 1886726 1960892 2055964 2030312 2159624 2229850
1743.34 2003006 1944156 2124782 2243790 2148772 2061670
1746.24 2033538 1954500 2046388 2059222 1960644 2168366
1749.13 2232208 2224316 2097360 1967408 2053242 2228996
1752.02 2333578 2445982 2234228 2033232 1958966 1963378
1754.92 2423496 2891892 2912964 2544252 2117206 1736542
1757.81 1706822 1973990 2213340 2460856 2524520 2408550
1760.70 2339354 2416064 2592346 2621888 2792780 2842030
1763.59 2677544 2486368 2605352 2746144 2659824 2498666
1766.49 2547408 2724644 2813948 2861870 2935312 2871516
1769.38 2885504 2810638 2875930 2792242 2775678 2739384
1772.27 2763890 2646342 2543362 2651026 2636542 2352612
1775.16 2316850 2332304 2435976 2398100 2322872 2315428
1778.06 2553062 2586862 2441352 2617646 2820196 2466132
1780.95 1949370 1598570 1418196 1486970 1549198 1538266
1783.84 1733324 1638954 1554206 1577550 1442194 1381784
1786.74 1599482 1709326 1537862 1477258 1613158 1485478
1789.63 1195816 1109834 1120414 1072438 1102078 991170
1792.52 983364 963460 997826 1018744 955550 983028
1795.41 885938 760748 714708 755540 816840 724782
1798.31 558960 452396 309112 144440 221292 276840
1801.20 203096 116240 132322 110308-48568-154016
1804.09-59178 127706 189526 109504-157342-204322
1806.98-145142-94488-197976-385254-381178-540626
1809.88-623122-501914-436804-382810-504834-744018
1812.77-763224-688856-627296-527092-425998-539376
1815.66-520004-586102-777610-943126-910676-617464
1818.56-452058-618428-629770-613800-647822-782082
1821.45-927118-1123508-959870-681158-620860-730326
1824.34-740606-696460-726284-820492-664278-620346
1827.23-678154-799154-792422-886884-883348-808514
1830.13-824562-749326-609090-725352-883848-968886
1833.02-706994-617428-668098-726530-694188-796460
1835.91-944794-942726-860162-895280-873616-848830
1838.80-845938-805526-960332-998544-938804-868668
1841.70-858876-769592-677768-658182-707014-841290
1844.59-645548-511098-711066-899560-783124-764640
1847.48-804858-773460-732946-860768-868822-790586
1850.38-522536-499356-754418-933988-898186-824620
1853.27-688282-526572-536006-680110-639688-601590
1856.16-744732-816514-563112-424380-477888-409952
1859.05-397270-419934-400468-337704-352924-347066
1861.95-503688-479856-225806-228246-461438-418318
1864.84-173540-91542-130486-124388 103052 199512
1867.73 146616 117298 101076 87226 212074 176426
1870.62 72046 194244 288758 366986 499230 487972
1873.52 553824 733948 715140 722504 673034 727148
1876.41 878622 769528 747880 900222 957050 1039964
1879.30 1170830 1168478 1076950 1215270 1423202 1266826
1882.20 1375200 1774004 1896392 1988996 2178100 2375378
1885.09 2458734 2522942 2527356 2644588 2847664 3094742
1887.98 3217552 3245814 3560796 3733922 3821250 4122276
1890.87 4285566 4343926 4364048 4448696 4743892 5009182
1893.77 5168022 5505558 5686778 5826080 6177782 6359966
1896.66 6286556 6529158 6890878 7164566 7133312 7317354
1899.55 7539322 7726482 8032842 8057616 8170414 8630800
1902.44 9002750 9069736 8922490 8949810 9173856 9404996
1905.34 9557248 9593846 9755820 10013840 10215640 10386580
1908.23 10574790 10783470 10825590 10795470 10925750 11066530
1911.12 11423300 11922140 12277120 12548730 13061760 13626470
1914.02 14373810 15043650 15212350 14695150 13883630 13167830
1916.91 12775730 12887020 13159480 13453430 13948380 14258950
1919.80 14494140 14836160 14867570 14926910 15148250 15425560
1922.69 15783740 15991850 16000520 15845990 16045030 16387840
1925.59 16762420 17080060 16934410 16555480 16218620 16112110
1928.48 16181320 16188910 16240640 16733480 17116410 17296680
1931.37 17652840 18116630 18448910 19343560 21137590 21548580
1934.26 19049750 16505410 15495740 15364910 15414420 15160740
1937.16 14720150 14339180 14254730 14339710 14398150 14236100
1940.05 14118570 14220750 14367000 14394830 14514650 14777800
1942.94 14981130 15090090 15125940 15240740 15246070 14654710
1945.84 14069290 13630840 13036220 12623990 12300180 11985930
1948.73 11669740 11439510 11141070 10799380 10517180 10384020
1951.62 10209190 9904136 9481384 9102960 8830032 8667428
1954.51 8479782 8185750 8021688 7803336 7422758 7310948
1957.41 7186268 7010978 6771826 6511304 6385880 6156034
1960.30 6044732 5970422 5748818 5455672 5375922 5471924
1963.19 5446354 5261122 5111682 4931322 4730748 4804026
1966.08 4779966 4818222 4627526 4433672 4240394 3953578
1968.98 3897818 3839302 3647190 3617334 3566308 3407436
1971.87 3216468 3127960 3068950 2859640 2838538 2987010
1974.76 3155346 3288180 3164200 2965170 3053944 3122348
1977.66 3094808 2869354 2615478 2309810 2010104 2017554
1980.55 2110550 2024544 2133970 2223356 2013440 1945710
1983.44 2122848 2264216 2281806 2155812 2129152 2119702
1986.33 2241438 2379044 2318642 2155306 2068398 2186906
1989.23 2244868 2030450 1747308 1665550 1640872 1620686
1992.12 1575072 1483722 1224986 910326 900006 1190514
1995.01 1047970 826592 759540 600724 535758 525364
1997.90 372162 189050 287364 230126 126280 206926
2000.80 172110-121910-430098-469044-529224-552210
2003.69-403290-367568-396578-584780-919316-924212
2006.58-859576-942702-1050144-1138352-1115982-1015524
2009.48-768782-888166-1130468-1335656-1408134-1206218
2012.37-1049040-1012172-851410-877876-1097462-1263682
2015.26-1382478-1464128-1538618-1520284-1486956-1589738
2018.15-1566576-1561358-1646536-1614870-1538198-1428078
2021.05-1366022-1354830-1436042-1541174-1543444-1443262
2023.94-1379404-1517216-1369388-1349762-1523074-1504122
2026.83-1492426-1562792-1576726-1535578-1448502-1473848
2029.72-1588682-1607984-1610200-1556744-1421928-1467844
2032.62-1513594-1380888-1342574-1363120-1405350-1519628
2035.51-1600590-1450160-1384750-1482608-1429426-1483970
2038.40-1340710-1175684-1229042-1304702-1358168-1305404
2041.29-1268500-1338714-1251886-1221358-1365018-1386040
2044.19-1529208-1590906-1330574-1118704-1307328-1598532
2047.08-1474628-1373736-1239534-1102220-874212-937278
2049.97-1024402-1008590-1148532-1328628-1532068-1557370
2052.87-1648194-1639468-1655972-1751272-1762638-1616104
2055.76-1347774-858668-464144-562502-665294-677294
2058.65-684966-728196-854244-882820-719994-814246
2061.54-986188-899836-675690-742068-500756-477514
2064.44-821558-893886-639828-516438-474608-535610
2067.33-621368-456190-24844-227788-428330-673052
2070.22-686828-483006-547650-636980-407566 223734
2073.11 85258-325078-533224-744328-655316-190242
2076.01 66054 258834 813388 727826 329598 124764
2078.90 47852 201210 235938 185396 255568 1037578
2081.79 1385384 899442 946950 897250 906708 845904
2084.69 952986 1407024 2364238 2073654 1289306 1254236
2087.58 1260638 1442430 1682172 1971902 2514236 3631588
2090.47 3341656 2508704 2308354 2528530 2715054 2692438
2093.36 2823134 3712374 5065842 4103986 3243440 3439112
2096.26 3447986 3456678 3636324 3938940 5159380 6066068
2099.15 4630502 4032454 4348136 4505560 4378520 4496300
2102.04 5100558 7026326 7232340 5333546 4765906 5031186
2104.93 5564758 5614628 5449068 6355890 8166480 7328520
2107.83 6005454 5997822 6095178 6146400 6406414 6614190
2110.72 8322640 9144544 7133456 6395906 6270228 6235256
2113.61 6182788 6097078 6699288 8337362 6991686 5440668
2116.51 5362198 5532740 5660290 5602268 6022346 7976150
2119.40 8362990 6443590 6027260 6124866 6291084 6514286
2122.29 6864934 8045232 9474596 8021198 6858918 6699940
2125.18 6708258 6518482 6585844 7063698 8506654 7682880
2128.08 6440544 6111776 6248732 6302550 6080752 6180414
2130.97 7346958 6762914 5420066 5196462 5259756 5241306
2133.86 4852444 4900812 5725574 5530614 4539582 4394234
2136.75 4415430 4101528 3670668 3626202 3948812 4121946
2139.65 3550108 3288890 3147912 3123624 2948342 2658622
2142.54 2438712 2432374 2442626 2348264 2328822 2214510
2145.43 2166926 2378258 2582382 2530736 2111224 1710906
2148.33 1544988 1553022 1399272 1791874 2670316 2213598
2151.22 1390190 1212742 1133118 1099062 1084000 2060338
2154.11 3098028 2039852 1131032 1053772 1026844 1094948
2157.00 1175076 2690958 3330412 1748882 1009154 1065426
2159.90 1134600 1090774 1711354 3653858 3065500 1343320
2162.79 1165276 1091930 1100326 1163022 2969688 4260104
2165.68 2183314 1043126 1131648 1128500 1093868 2010214
2168.57 4444144 3725242 1608542 1483714 1434856 1359308
2171.47 1691482 3870696 4631934 2404038 1671960 1614592
2174.36 1806898 1995536 3307330 4986608 3324812 1720020
2177.25 1208640 1161860 1364964 2431944 4497158 3464802
2180.15 1889436 1932306 1874792 1891114 2426748 4442414
2183.04 4152376 2319646 1953842 1721714 1806288 2385422
2185.93 4234452 4004902 2193414 1644634 1426958 1501504
2188.82 1988814 3605730 3428018 1916448 1364468 1263212
2191.72 1294802 1552238 2719258 2444900 1303068 1325186
2194.61 1389752 1330308 1575080 2441960 1719070 778086
2197.50 597218 503152 711526 1107626 1739942 819286
2200.39 182952 372838 527978 623368 1013598 1110816
2203.29 365060 298312 265796 79366-44156 607262
2206.18 559934 106498 10282 8966 18752 175818
2209.07 361542 116144 178970 225380 24062-40120
2211.97 274890 246400 103992 210766 40362-116746
2214.86 5778 205876 163514 215024 37860-109794
2217.75 213034 307372 91048-41388-42940 234386
2220.64 343516 539894 555608 497806 434810 527080
2223.54 831838 941352 604172 655706 1001862 1325016
2226.43 1338404 1105852 867902 844316 926764 1006538
2229.32 1076612 1289134 1572624 1565448 1576122 1681500
2232.21 1723604 1963700 2171036 2107428 2016866 1966596
2235.11 2280540 2506802 2402446 2486412 2673492 2951374
2238.00 3284576 3418250 3275870 3150174 3185450 3368098
2240.89 3330470 3403270 3615938 3647256 3698786 3930752
2243.79 3941320 3981670 4217856 4285292 4291610 4496882
2246.68 4571898 4604534 4879078 4916328 4966580 5163240
2249.57 5421050 5590578 5519690 5554064 5396384 5238622
2252.46 5415410 5658168 5602892 5627998 5774000 5884522
2255.36 5936808 5877940 5815542 5644704 5491424 5364950
2258.25 5461052 5670194 5908866 6141416 6381508 6706016
2261.14 6631118 6467498 6399280 6359220 6261000 6280828
2264.03 6200040 6236402 6301612 6360468 6400564 6566248
2266.93 6323122 6239936 6201054 6086200 6178992 6421720
2269.82 6771716 7011062 7446290 7846576 7487582 6889972
2272.71 6555510 6727878 6891604 7054804 7147394 6725348
2275.61 6436864 6552734 6500136 6283874 6145844 6084770
2278.50 6334794 6465322 6193854 6033168 6153324 6346594
2281.39 6479862 6368332 6008598 5926098 6099424 6099602
2284.28 5961734 5840848 5535600 5314014 5358760 5454628
2287.18 5380178 5171462 4963416 4898872 4979010 4972464
2290.07 4630386 4503594 4470728 4273150 4250160 4385720
2292.96 3898296 3668708 3660158 3567178 3676182 3806340
2295.85 3694744 3549876 3387010 3212688 3214936 3239718
2298.75 3358736 3479982 3318222 3234466 3166876 3339002
2301.64 3670310 3948202 3370808 3127542 3036134 3343710
2304.53 3406364 3420710 3183966 3437566 4008012 3660732
2307.43 3094960 3312176 4080180 4154928 3613030 3894200
2310.32 4524892 4648608 3623068 3597842 4454214 5396098
2313.21 4158850 3547284 4217724 5606636 4640758 3966748
2316.10 4673926 6505054 5306050 4042518 4398718 6693992
2319.00 6155946 4202232 4597974 7476288 7019724 4259424
2321.89 4431744 7534922 7324944 4233556 4574700 8272878
2324.78 7916806 4555380 5631468 9903116 9171728 5716188
2327.67 8469530 12712180 9101846 4112484 7073586 10636510
2330.57 6709386 3822314 8683492 10923170 5836480 5118462
2333.46 11123320 10650490 5068212 7059632 12249110 9092674
2336.35 5314924 9804060 11969570 6989944 7235862 12055650
2339.24 10063830 5871894 9387462 11437920 6963152 6682786
2342.14 10572840 8821164 6029538 8336846 9052070 5968574
2345.03 6160844 7527448 5643082 4566570 5514766 5136964
2347.92 4068280 3712176 4071650 4416676 4008672 4257832
2350.82 5972852 5432188 4654398 7119576 6931536 5228458
2353.71 8458140 8513526 5790664 9400048 9807312 6391948
2356.60 10348700 10226010 6627364 10925190 10305550 7377028
2359.49 12121120 10012900 8178326 12507680 8793558 9143336
2362.39 12446820 7884578 10348800 10981060 7669656 11394870
2365.28 9185426 8511266 10725010 7416680 9671506 8935238
2368.17 7611916 9504162 7147422 8394738 7454540 6687004
2371.06 7702504 6139744 7114572 5931040 6294682 6099104
2373.96 5947098 6098826 5611302 5919880 5445456 5618878
2376.85 5144058 5250502 5186628 5154894 4797872 5015726
2379.74 5253282 5022220 4596554 4782654 4800314 4698360
2382.64 4908460 5043888 5094792 5101222 5134158 5165860
2385.53 5282794 5407820 5386496 5295680 5169068 5433550
2388.42 5385356 5202154 5391164 5438912 5345556 5318064
2391.31 5339574 5479372 5575000 5704840 5796566 5802462
2394.21 5859458 5859056 5894356 5954674 6209246 6189774
2397.10 6197544 6349084 6374552 6196236 6038500 5983274
2399.99 5964964 5956764 6102196 6206424 6394756 6625168
2402.88 6548214 6572888 6595510 6460260 6602282 6958600
2405.78 7136346 7026956 6943300 6968448 6986224 6997588
2408.67 7045008 7246610 7316336 7236332 7402902 7655144
2411.56 7569924 7334820 7345660 7405158 7330880 7165710
2414.46 7399902 7350804 7041522 7031542 7046326 6768130
2417.35 6635094 6700518 6947298 6909448 6590924 6736206
2420.24 6693896 6744386 6582786 6251214 6179530 6255360
2423.13 6318056 6307508 5979894 5783358 5849576 5729904
2426.03 5530360 5451338 5225316 5005406 5158824 5251446
2428.92 5409488 5668094 5630542 5417808 5100428 5030062
2431.81 5381798 5358942 5225516 5027422 5090640 5258690
2434.70 5261694 5209268 5153520 5226846 5383586 5245760
2437.60 5121822 4775320 4604762 4674904 4896820 4784124
2440.49 4709172 4636806 4398552 4240868 4219278 4314332
2443.38 4313620 4186674 4085518 3969416 3988118 4153582
2446.28 4298730 4003114 3734368 3751916 3782386 3675406
2449.17 3716282 3861508 4062762 4064816 3929030 3964026
2452.06 3968452 4059514 4050424 4145884 4126138 3873588
2454.95 3794266 4193530 4359890 4180438 4093996 4070868
2457.85 3986100 3844690 4044702 4227328 4114552 4117564
2460.74 4292192 4112782 3987806 4026426 3981550 4078852
2463.63 4108672 3850706 3516628 3789906 4263740 4306920
2466.52 4199406 4121124 4111502 4035686 3886198 3953820
2469.42 3885242 3954318 4351684 4382910 4243164 4284870
2472.31 4414900 4497906 4387676 4323538 4332760 4310562
2475.20 4209884 4155426 4285294 4485104 4377784 4548292
2478.10 4582516 4629260 4697396 4571684 4345164 4101326
2480.99 3752008 3435820 3813828 4204360 4439634 4757448
2483.88 5032720 4986582 4671064 4391760 4367194 4675058
2486.77 4875300 4775566 4743710 4476658 4564280 4605082
2489.67 4271686 3974476 3774398 3930866 4097282 4076638
2492.56 4170196 4165784 4254604 4237594 4159054 3959766
2495.45 3910044 3714008 3553072 3578592 3502208 3469846
2498.34 3687296 3543664 3159972 3070532 3254004 3384644
2501.24 3156628 3098658 3193742 3033346 3099382 3181416
2504.13 3059070 2930666 3051488 3269078 3366212 3361410
2507.02 3024854 2738508 2867392 2853844 2854336 2772824
2509.92 2750786 2713792 2565238 2610654 3007176 3243934
2512.81 3069322 2731010 2475470 2339444 2522664 2919294
2515.70 3097804 2973610 2915374 2701694 2521506 2601130
2518.59 2735026 2785072 2647306 2658110 2476210 2141296
2521.49 2044796 2215952 2443822 2533768 2471650 2560910
2524.38 2672162 2591024 2491716 2416796 2390872 2335808
2527.27 2289302 2420994 2431884 2175838 2178540 2303868
2530.16 2322108 2411968 2457080 2450734 2275748 2414430
2533.06 2645854 2619324 2452582 2354118 2337042 2208964
2535.95 2113594 2320702 2235626 2203556 2234030 2272338
2538.84 2386328 2301532 2335808 2461074 2511694 2407164
2541.74 2542496 2701986 2672822 2486030 2304484 2394998
2544.63 2605670 2629472 2698088 2874158 2770614 2682234
2547.52 2796110 3016286 3274320 3318844 3182666 3003124
2550.41 3122462 3137364 2962920 3040214 2803632 2829712
2553.31 2939466 3042232 3154024 3057426 3151810 2995712
2556.20 3037350 3294656 3085204 2879758 3203236 3174110
2559.09 3055344 3252924 3404692 3369958 3451944 3275090
2561.98 2970366 3352740 3808342 3590150 3552390 3908440
2564.88 3858230 3472974 3357916 3460638 3721750 3777100
2567.77 3502638 3581648 3843764 4031094 3961456 3931648
2570.66 3934698 3860496 3842156 3826286 3972370 4169912
2573.56 4206492 4197098 4003356 4161252 4610106 4773134
2576.45 4710044 4762426 4837040 4670836 4543734 4659740
2579.34 4785342 4798586 4743518 4887590 4930442 4923982
2582.23 4915784 4985274 5090514 5303406 5387300 5278060
2585.13 5368192 5516042 5756670 5781084 5753520 5572466
2588.02 5393972 5543478 5625564 5688066 5609028 5703130
2590.91 5944028 6148522 5860374 5802636 5895636 6093902
2593.80 6462510 6549394 6523018 6887128 6936810 6788518
2596.70 6789236 6581096 6519980 6624944 6484562 6513172
2599.59 6883554 6971234 6884322 7150270 7194786 7145896
2602.48 7001642 7057298 7132942 7110448 7009456 7145710
2605.37 7355922 7507082 7384662 7313530 7300646 7437748
2608.27 7517158 7421804 7308474 7595658 8067946 8260962
2611.16 7971276 7853622 8024984 8210134 8051230 8205580
2614.05 8452772 8463712 8239520 8191468 8481262 8608922
2616.95 8482140 8529904 8776502 9050904 9152462 9430908
2619.84 9794184 10105410 10372270 10557040 10456760 10333730
2622.73 10166540 9852684 9641632 9564036 9583934 9610312
2625.62 9786586 9843548 9786252 9769198 9935658 10245210
2628.52 10299180 10466820 10522920 10571480 10883980 11193030
2631.41 11183510 11207000 11429330 11456050 11317090 11135990
2634.30 11328600 11598660 11425010 11349060 11479490 11469790
2637.19 11509090 11564090 11508430 11638070 11826970 12060220
2640.09 12148260 12182770 12099500 12174890 12481600 12575220
2642.98 12551150 12545950 12581560 12684870 12857410 12962930
2645.87 13027990 13105980 13047390 13210270 13499200 13405710
2648.77 13311210 13443520 13486960 13517650 13733270 13752100
2651.66 13822430 14126450 14067970 14199250 14416120 14478220
2654.55 14386410 14442670 14427750 14263820 14151290 14156030
2657.44 14369590 14737190 14782820 14789100 14887390 14810890
2660.34 14685320 14832560 15323630 15231840 15106730 15165760
2663.23 15472840 15442210 15236320 15429750 15571090 15421780
2666.12 15539410 15764420 15944560 15886760 15653250 15535750
2669.01 15677570 15868650 15825860 15731270 15908870 15998130
2671.91 15966450 16039890 15914390 15968290 16061730 16151440
2674.80 16209040 16317220 16315310 16300500 16175640 16190340
2677.69 16217660 16423730 16556180 16306380 16444900 16667130
2680.59 17014640 17417100 17335300 17068530 17133960 17300510
2683.48 17238360 17526890 17833650 17591680 17594080 17723370
2686.37 17584180 17445030 17599980 17842970 17825520 17932570
2689.26 18065730 18091310 18315770 18530170 18637510 18710370
2692.16 18527570 18705090 19009880 18965170 18872030 18747190
2695.05 18697140 18905610 19280600 19474830 19624630 19605670
2697.94 19742440 19858000 20160380 20439190 20463090 20546340
2700.83 20825160 20966910 21043660 21171660 21309750 21408820
2703.73 21495170 21634740 22054510 22497340 22725580 22806840
2706.62 22983630 23481610 23770050 24239460 24665070 24789110
2709.51 24688850 24417460 24163600 24512380 25077090 25262220
2712.41 25447580 25809510 26229390 26331370 26451810 26745450
2715.30 26836920 27157480 27629660 27908690 27881660 27920650
2718.19 28359380 28790410 28698730 28714020 29018130 29388700
2721.08 29834990 30033630 30109400 30346700 30279230 30444040
2723.98 30687430 30440370 30307890 30451270 30580910 31008530
2726.87 31379840 31671460 32081150 32651730 33071740 33220530
2729.76 33644740 33812730 34094090 34458040 34594190 34699440
2732.65 34946780 35103580 35471830 36176170 36406240 36720700
2735.55 37314960 37482660 37668420 38266730 38963690 39108300
2738.44 38876780 39088760 39842950 40428370 40805720 41117760
2741.33 41535160 42224280 42569590 42477970 42935840 43364280
2744.23 43234680 43328560 43662160 44146130 44481420 44501510
2747.12 44534380 44404090 44409760 44795510 45113170 45258820
2750.01 45140340 45105570 45262200 45486220 45708080 45524750
2752.90 45429420 45709960 46094420 46203200 46166120 46626670
2755.80 46631430 46874930 47241560 47459460 47485670 47854720
2758.69 48665220 48980050 49033850 49213260 49168050 49162740
2761.58 49255240 49332150 49462600 49525340 49491880 49736130
2764.47 50094900 50053300 50165750 50524090 50535710 50695720
2767.37 51041250 51323520 51402380 51715430 51966830 52061720
2770.26 52562720 52963320 53218220 53612210 53631950 53662850
2773.15 53914190 54557250 55145800 55629240 55403930 55386180
2776.05 55690550 56025390 56549600 57012510 57458870 58012460
2778.94 58511390 58611930 58934120 59195400 59324870 59634570
2781.83 59863390 60279480 60377370 60477590 60421830 60201300
2784.72 59787660 60039400 60169180 60013880 60171710 60451830
2787.62 61104970 62175220 63501990 64580600 65359240 66083080
2790.51 66324690 66834380 67341870 67577140 67941940 68576940
2793.40 69495780 70088620 70387020 70841580 71393570 71802860
2796.29 72298900 72468780 72721620 73173630 73282110 73509660
2799.19 74124720 74872980 74916880 75518380 75960540 76164350
2802.08 76323890 76475030 76483960 76888920 77578700 78116060
2804.97 78114900 78254020 78756570 79287810 79668630 79748700
2807.87 79854500 80146950 80426670 80824900 81297210 82007380
2810.76 82520130 82432020 82775340 83650790 84524330 85220450
2813.65 86027900 87004960 87924960 88993700 89820670 90184100
2816.54 90938390 92061820 93111650 94329660 95582630 97051820
2819.44 98242810 98992590 99586660 100109900 101404200 102835000
2822.33 103895200 104922900 106462700 107391200 108001200 108713000
2825.22 109271400 109969900 110806000 111309900 112180100 113325300
2828.11 114339300 115600000 117233800 119179400 120887700 122473300
2831.01 124467300 126930800 128762900 130140000 132041200 133841200
2833.90 135390600 137173400 139327000 141741200 144030500 146636100
2836.79 149022600 151906400 154495600 156823900 159382200 162105200
2839.69 165023700 167558100 169597700 171685700 173749000 176306900
2842.58 179397200 182808600 186257600 189825600 193217600 196339000
2845.47 199124300 202177700 205979300 210321600 214406600 218568400
2848.36 222682600 227069000 231295600 235365400 239639400 244354500
2851.26 249354600 254200400 259095100 264240100 269483100 274725700
2854.15 279688400 285087100 290966200 296843600 302627700 308226900
2857.04 313749900 319889400 326188400 331493800 337498200 345517500
2859.93 352882400 359767200 367292400 375801300 383805200 391399600
2862.83 398812600 407193800 415459300 423054800 431524700 439962600
2865.72 446909100 453640200 459869200 465611800 470294100 474490700
2868.61 478164500 481879600 485160600 488801700 492965000 496944900
2871.51 499926500 503034100 506102600 509652000 511700300 512808300
2874.40 516030900 520670400 526286300 532900800 540603600 547512300
2877.29 554391600 563183700 569790000 573336800 579321500 590086600
2880.18 600035300 609174000 623266700 637570400 642453000 643079000
2883.08 649426000 658023400 661042900 660927000 663246800 664469400
2885.97 658974000 654263800 654713900 654768600 651160200 652092700
2888.86 658430300 663236500 666318100 672755600 681891600 687978500
2891.75 690335200 693539800 695471100 695852600 695576900 695585500
2894.65 692310500 688118000 687253200 690259800 694558400 700861000
2897.54 708176700 718937500 736256800 769415600 836126400 914799200
2900.43 924374200 865811500 810808000 775828100 755557700 744524500
2903.32 738533800 736997400 740668500 742745900 738150600 733120000
2906.22 729462600 723852100 719460400 719538000 719849000 715746900
2909.11 715683000 722141300 727779800 733807100 736990900 729760400
2912.00 713537300 697505400 689786900 682187600 672212200 668731700
2914.90 669220400 664758200 660910000 662936200 663236900 659665200
2917.79 661160600 663878500 661521000 660605300 664940700 666269200
2920.68 664207300 664894100 665277600 660360100 656642000 654382000
2923.57 649066800 644547700 643884700 643063300 639815900 636345500
2926.47 635406300 635380000 632925400 630337000 627838800 624315200
2929.36 620965200 618734700 616369300 613242500 611362800 610424600
2932.25 609163900 607525500 607339300 608228700 610515100 613982800
2935.14 616203800 616275700 614984000 612362800 610194600 609011400
2938.04 609130800 610285400 611856800 613971200 616561800 620215800
2940.93 624010400 627541100 630275600 633249900 635691800 637449100
2943.82 639465400 641738800 641235700 638650200 635588100 633174800
2946.72 632472000 634711600 638401500 642266600 647694300 655759300
2949.61 663397300 670998700 680166200 688223300 692227600 695549500
2952.50 700302000 705259000 710030400 716901100 722735200 728105800
2955.39 734781400 742697200 749114400 755744000 763199700 769458700
2958.29 773958100 777022800 779227500 782721900 786895400 790736100
2961.18 793521500 799787400 808906700 813814600 818353500 828009900
2964.07 839347100 848904000 859162700 868310300 876931600 892851000
2966.96 910456300 916481400 918269100 925905000 926905000 925353200
2969.86 935973800 949296500 953781600 963943000 969699500 952781600
2972.75 938613600 938003100 929753000 923555200 930201100 931510700
2975.64 923814800 926326100 928299500 914379800 908282900 921127200
2978.54 920282200 905863600 910962200 924325700 922867000 922329600
2981.43 918839100 896469300 877424600 886150500 908060800 931563100
2984.32 948291300 955422700 958569200 965336800 977512100 980156200
2987.21 956646000 942798300 979057200 1107297000 1158804000 990146800
2990.11 857551500 812888100 795677400 787733300 786557500 782967100
2993.00 782799100 786308400 782326000 773608700 777261100 774908400
2995.89 761162900 755537000 751990800 735756900 724808400 723329600
2998.78 713649000 694909100 683843400 675759000 665598700 653652000
3001.68 641188600 632913700 625440400 610307600 597223200 590232900
3004.57 580536800 565352100 554075300 545308600 533067600 519887000
3007.46 510125900 500222300 488428100 477341100 466841300 455253600
3010.36 444045300 433247200 422630000 411250200 401188900 391714100
3013.25 383198000 374373000 364638400 354891300 346093900 337056700
3016.14 328163700 319580100 310833900 302259200 294185100 285427500
3019.03 276933200 269203900 261842400 254045200 245998600 238234800
3021.93 231951600 225086300 217349700 210468600 204270600 197112100
3024.82 190190300 183954700 178128700 172006000 165966700 160151500
3027.71 154480000 148609300 142521100 136449600 131328400 126801700
3030.60 122357100 117500600 112633300 108117700 103576500 99218970
3033.50 95307510 91337710 87478660 83390360 79897690 76485330
3036.39 72781700 69235340 66005800 62871700 60385410 57243260
3039.28 54728300 52025250 49459930 47174850 45517370 43286330
3042.18 40773090 38356420 36533710 34964750 33385140 31789740
3045.07 30016400 28286910 27265020 25658540 24020330 22816250
3047.96 21704830 20665680 19685470 18539790 18083190 17341210
3050.85 16591680 15682320 14408910 13266690 13007120 12469330
3053.75 12080140 11473510 10947900 10400610 9759568 8884344
3056.64 8416036 8283566 7807256 7238906 7458094 7035584
3059.53 6549020 6505170 6652496 6703390 5919822 4994010
3062.42 5230446 5818572 5461644 4737940 4636692 4412310
3065.32 4301822 4188704 3928516 3733666 3765910 3940296
3068.21 3864148 3777076 3864934 3605016 3528090 3372388
3071.10 3391198 3379646 3143688 3030580 3272372 3182496
3074.00 3522990 3466604 3248120 3275466 3525408 3243454
3076.89 3054946 2909558 3096040 3188416 2829260 2546888
3079.78 2757654 2777112 2915714 2815568 2592580 2587670
3082.67 2809730 3095504 3216764 2685070 2156364 2750130
3085.57 3121240 2678368 2660668 3059744 3496556 3339534
3088.46 2842468 2621558 2836536 2832000 3011458 2702260
3091.35 2807128 3198362 3623076 3731980 3204024 2788760
3094.24 2784512 2661864 2621442 2697984 2620826 2646826
3097.14 3045244 3157002 3404248 3094074 2813864 2862944
3100.03 2981042 2895954 2929854 3079856 3189288 2774926
3102.92 2542992 2468094 2760470 3033742 2991578 2981098
3105.82 3370866 3131280 2543614 2434250 2802530 2735880
3108.71 2468254 2607454 2797302 2771512 3076980 2897956
3111.60 2787590 2893780 3024544 2859012 2733502 2827982
3114.49 2645732 2290198 2217194 2506280 2540416 2609802
3117.39 2871688 3053452 2483654 2406068 2681658 2710294
3120.28 2963582 2794386 2665782 2721426 2570504 2070678
3123.17 2224256 2510402 2602138 2697130 2908524 2961482
3126.06 2876560 2477412 2592410 2864534 2637278 2450830
3128.96 2579798 2611848 2790862 3063464 2693830 2253648
3131.85 2270770 2417834 2708156 3154176 3066304 2523938
3134.74 2503424 2607530 2582032 2236970 2387142 2757530
3137.64 2981800 2861904 2544600 2427758 2958362 2981516
3140.53 2907516 2985188 2825326 2413670 2378760 2483838
3143.42 2680134 2380966 2383898 2750168 3308392 3277106
3146.31 3279052 3314952 2825088 2949304 3225480 3101576
3149.21 2911834 2829672 2808488 2644454 2572344 2912574
3152.10 3352452 3030870 2761064 2989180 3175338 3235074
3154.99 3100814 3045090 3628586 3983222 3664752 3252026
3157.88 3113264 3092072 3637560 3765730 3242918 3103000
3160.78 3118232 3332392 3588156 3425546 3684558 3852128
3163.67 3827132 3981246 4182776 4321912 4580614 4005074
3166.56 3233510 3615452 4528814 4285026 3702022 3757648
3169.46 3890160 4146230 3921342 3770404 4263606 4073318
3172.35 4078340 4620976 4597844 3763436 3582864 3890456
3175.24 3913830 3841644 4015824 4201760 4534246 4535808
3178.13 4660596 4494380 4679314 4853204 4922788 5101892
3181.03 5091952 4684602 4718048 4768302 4929532 5861486
3183.92 6215068 5966306 5518268 5676666 5566506 5432956
3186.81 5574356 5611278 5652322 5524378 5686712 6141240
3189.70 6034320 5575942 6140274 6404458 6000214 6238750
3192.60 6525128 6443196 6682300 7110600 6868116 6535806
3195.49 6427676 6543302 6830658 7141094 7224726 6951942
3198.38 7276340 7578126 7498630 7092714 7040456 7375504
3201.27 7459770 7752152 8289820 8200338 7730750 7740238
3204.17 8069402 8807690 8927360 8569112 8595974 8918974
3207.06 8579068 8489906 8802850 8583836 8550846 8490020
3209.95 8377170 8726124 9166962 8996704 8485346 8517760
3212.85 8810172 8693160 8979708 8679564 8904440 9652792
3215.74 9527922 9138700 8853266 8896686 9377360 9693736
3218.63 9435698 9100404 9457568 9203756 9151328 9660408
3221.52 9550624 9337640 9519510 9758858 9670784 9678010
3224.42 10003200 9964598 9322196 9097290 9192238 9156334
3227.31 9284648 9372298 9153432 8909000 8861290 8658526
3230.20 8429818 8387220 8038348 8060444 8702340 8537248
3233.09 7992774 7853512 7791694 7815576 7802262 7466260
3235.99 7313360 7139314 7058312 6992126 6917990 7190226
3238.88 8085674 7590184 6283396 5693376 6109706 6688386
3241.77 6737484 6305398 5821222 5507378 5345830 5447430
3244.67 5200590 4899664 4356104 4741986 5121694 4808200
3247.56 4455674 4508644 4757450 4532060 4365728 4180392
3250.45 3857564 3634056 3191412 3015998 3791436 4155926
3253.34 3714704 3155336 3294462 3250912 2941778 2773686
3256.24 3096204 2553860 1877700 2170854 2656556 2674978
3259.13 2594854 1826690 1630958 1756770 1633086 1437648
3262.02 1303298 1250232 1128904 745212 650694 497620
3264.91 816620 946748 672870 209504 262272 422112
3267.81 1052404 1158776 720678 296396 439368 477672
3270.70 129828-148432-203422-333822-1004528-968392
3273.59-367694-296552-415498-416654-452248-772714
3276.49-711740-365948-404686-686524-660684-1010676
3279.38-1010802-588614-415184-533302-387830-1060538
3282.27-1605330-1814602-1579178-1278684-1315058-967142
3285.16-880060-1003838-1094790-1274718-1579398-1548090
3288.06-1218252-1283888-1406648-881496-867394-1234958
3290.95-1357318-1429092-1150388-1292210-1712460-1704428
3293.84-1616108-1459048-1397382-1395732-1112918-999594
3296.73-1014864-718672-794096-1250818-1424418-1389082
3299.63-1502660-1932228-1709810-1381064-1284828-1102332
3302.52-938174-905122-1035062-1298504-951202-969294
3305.41-1430086-1273984-954570-854086-1108738-1086956
3308.31-953580-1270212-1722792-1463776-1218636-1223968
3311.20-1401490-1488744-1555972-1589186-1697234-1128554
3314.09-1211208-1611314-1817752-1873884-1890752-1325978
3316.98-580894-716176-1444602-1481850-1380560-1716916
3319.88-1742102-1701012-1900218-1757868-1425570-1549686
3322.77-1435520-1207798-873608-764634-1280484-1409164
3325.66-1455338-1381654-857310-1121142-1612042-1497184
3328.55-1224630-1080360-816296-1113392-1525336-1554524
3331.45-1314398-879076-898736-1082664-1392380-1575502
3334.34-1529160-1558912-1205128-786580-760646-953282
3337.23-1147468-894712-658550-802168-997630-1153370
3340.13-942704-1108050-1913122-2096544-1164816-301740
3343.02-361432-789110-1001930-610502-488158-502998
3345.91-1321312-1401784-601418-319528-390760-665202
3348.80-628260-517258-584690-622070-958490-881846
3351.70-447310-575352-660248-748124-805238-822742
3354.59-434916-324946-611072-902746-640450-359022
3357.48-28310-3538-164244-163296 212612 47852
3360.37-489850-153882 483138 217872-318078-615982
3363.27-362288-163422 148284 646044 874900 941090
3366.16 525130 424448 787830 826648 532730 773248
3369.05 1060984 515610 388130 1150148 1647500 1178960
3371.95 972150 1113432 1374386 1856094 2050006 2202028
3374.84 1426930 1126420 1490170 1524740 1781562 1821102
3377.73 2289040 2681376 2649556 2793598 2880942 3037252
3380.62 2904906 2499164 2827980 3455586 3079126 3041480
3383.52 3595434 3536632 3290750 3569762 3682310 3714042
3386.41 3838686 3551716 3351196 3414736 3438746 3756552
3389.30 4048856 3792662 3691434 3744578 3821814 3527976
3392.19 3751140 4110952 4234364 3918218 3756256 3758854
3395.09 3915070 3897776 4237726 4758090 4222028 3986772
3397.98 4757652 4302086 3704292 4593232 5077940 4874472
3400.87 4406478 4508256 5019084 5154754 5428762 5693572
3403.77 5514926 5141530 5053240 5359592 5686326 5571934
3406.66 4948096 4476866 4377304 4331240 4983850 5677340
3409.55 6464460 6149356 5202312 5198014 5684410 6102068
3412.44 6093788 5817936 5662076 6039054 6176414 6066786
3415.34 6413286 6198760 5721582 5624580 5319522 5442232
3418.23 5221734 4578288 5070140 4867346 4364938 4897030
3421.12 5096214 4948124 5038132 4587956 4015890 4443674
3424.01 4709924 4533204 4774586 4647488 4200826 4250936
3426.91 3950190 3640812 4100182 4629532 4324048 3854820
3429.80 3863038 3884802 3864436 3877440 3841420 3830096
3432.69 4050748 4473512 4469356 4100282 3902124 3973348
3435.59 4093594 4041832 3590926 3830256 4463346 4686650
3438.48 4421812 4134812 4242844 4855604 4291174 3748940
3441.37 3870064 4241802 4570134 4641452 4441258 3936184
3444.26 3849368 4756436 5122160 5038686 5099738 4830564
3447.16 5040002 4840126 4286266 4427738 4951554 4710804
3450.05 4412846 5010726 5755400 5796490 5577012 5291298
3452.94 5163104 5344130 5606952 5979342 5539256 5260768
3455.83 5761630 5857150 5424490 5444958 5414266 4811694
3458.73 4731628 5105180 5732088 5698792 5670266 6200790
3461.62 7052672 7027668 6751768 6206400 5954720 6039048
3464.51 6358274 6945366 6723306 6647804 7154588 6708428
3467.40 6513116 6785256 6472966 6094202 6222066 6514526
3470.30 6668690 6866222 7243500 7716298 7527648 8099160
3473.19 9711550 10862860 10216200 8688606 7678316 7181356
3476.08 7227618 7972142 8265356 7741536 6505322 6484940
3478.98 7072230 6948092 6669800 6882160 7172598 7025760
3481.87 7078860 7139594 6705470 6306874 6865492 6920438
3484.76 6468916 6581850 6732234 6772886 7224956 7080246
3487.65 6514490 6278146 6221340 6271214 6175304 5923428
3490.55 6191522 6237122 6263818 5999996 5717128 5484874
3493.44 5912364 6346906 6476374 6337190 5848208 5187168
3496.33 4981080 5320144 5666040 5370616 5348434 5463758
3499.22 5076116 4389200 4486776 5138422 5247464 5351634
3502.12 5699466 6289778 5887396 5286394 5312904 4964618
3505.01 4785308 4350932 4314732 4393550 4718472 4873952
3507.90 4780998 4935136 5029046 4570106 4042912 4159950
3510.80 4235346 4092070 4194490 3908048 3988514 4768086
3513.69 4873398 4391630 4109080 3790626 3894880 3887444
3516.58 3835284 3573532 3522972 3397460 3786328 3816608
3519.47 3997624 3689882 3326032 2884440 3012862 3119874
3522.37 2890778 3037830 3104048 3381278 3191586 2843578
3525.26 3478276 3724626 3208744 2676890 3089282 3455974
3528.15 3415798 3192946 3081218 3249450 3730230 4160036
3531.04 4162772 4005000 4316292 4198434 4086320 3761856
3533.94 3689426 3757296 3733740 3551142 3740222 4083410
3536.83 4069172 3545824 3289582 3368928 3741294 3607560
3539.72 3754812 4060642 3628734 3120074 2990510 2943524
3542.62 3288696 3756238 3854404 3801776 4006090 3920024
3545.51 3594786 3909042 4356372 3873624 3431672 3003516
3548.40 3220290 3460586 3452064 3848834 3820954 3303216
3551.29 3545534 3551636 3231946 3622150 3703592 3488172
3554.19 3895316 4002250 3769934 3838156 3898314 3281140
3557.08 3435182 3772470 4146630 4361494 4483328 3796644
3559.97 3459902 3757986 4330546 3969356 4220380 4788208
3562.86 4750066 4394878 4090256 4193192 4399516 4546940
3565.76 4539944 4461962 4552932 4638512 4630294 4480644
3568.65 4428688 4296046 4318184 4259214 4044926 3687576
3571.54 2988432 2502000 2536900 2942162 3752624 3772150
3574.44 3556206 3327898 3268484 3033682 3100878 3547698
3577.33 3678842 2983148 2913762 3489154 3974682 3971460
3580.22 3754824 3482194 3280574 2857530 3087918 3326930
3583.11 3297212 3709420 4272672 4511084 4312626 4453304
3586.01 4563770 4170828 4141946 4282874 4030450 4221740
3588.90 4801004 5187330 5314922 5534216 5948846 6240636
3591.79 6568984 6622594 6952022 7065126 7477976 7732740
3594.68 7593344 7682360 7737892 7513622 7404744 7786590
3597.58 8320904 8268964 8361786 8957144 9640936 10008540
3600.47 9852280 10126560 10424290 10391530 10565040 10848470
3603.36 11308020 11560030 11730610 12101450 12809480 12548690
3606.26 12466690 12830320 13171930 14128850 14561930 14684690
3609.15 15240220 15665650 16195710 16729880 17302450 17931570
3612.04 18808730 19344800 19962830 20710670 21461150 22506200
3614.93 23403060 23937990 24485310 25272770 25669960 26401040
3617.83 27595740 28249530 28790700 29549020 30176800 30927570
3620.72 32006670 32936360 33695770 34483320 35790440 37192730
3623.61 38544660 40280760 41279220 41243750 42185950 43352170
3626.50 44143000 45087200 46564810 47837970 48560110 49581060
3629.40 51539470 52610630 53123400 55373440 58602580 59118670
3632.29 59707360 62876280 65764380 66331360 68317730 72473700
3635.18 74237550 73861460 76533000 80292020 81533120 81988020
3638.08 86194880 91013800 91740300 93288100 98696830 102017300
3640.97 102522200 105016900 110360000 113255800 113525900 117420000
3643.86 123171400 125577200 126671300 132041100 136985100 136595500
3646.75 138634700 144845200 148273700 148496500 152966600 158260100
3649.65 158236900 159130400 163540000 166158800 167119500 170461200
3652.54 174190800 175235000 177333600 181942900 189352000 203406300
3655.43 214392100 207737700 200616500 205422500 220303400 237554900
3658.32 242405000 228583200 215718500 214511100 221527400 234049200
3661.22 250472300 253862300 239735000 230088400 226485400 225177100
3664.11 227730600 229203200 228081300 229999500 232566600 230257600
3667.00 230146900 233219400 231069100 227207900 229247000 229835400
3669.90 227353300 228763400 230927000 227871300 225041200 226090300
3672.79 226225500 227637600 238976100 258220300 286217900 334700800
3675.68 382846200 346661300 258557700 209163900 190832100 182228400
3678.57 179042000 180223600 180099800 180884100 184153900 187492900
3681.47 189658500 195803900 207743300 223128900 229095200 219740700
3684.36 206785700 200252300 198225900 197261500 196447600 196539700
3687.25 196164700 195623300 194337600 193361500 192297600 190847700
3690.14 189159300 187070800 184219200 181931500 178993800 175058300
3693.04 170727100 166756400 162437800 157423300 152529500 148546400
3695.93 143733300 138206300 133122400 128249400 122953500 118518000
3698.82 113993400 109294200 104445700 99833260 95181020 90582570
3701.72 85700930 81349030 77329890 73362140 69637020 66384800
3704.61 62940820 59898060 57647590 55264820 52458700 49793110
3707.50 47540330 45512660 43245000 41213310 39860110 38654950
3710.39 36674080 35412690 33592440 31525830 29374180 27656500
3713.29 26597030 25387310 24288020 23567280 22873030 21911910
3716.18 20906160 20615190 20283490 20311890 20143310 19431570
3719.07 18877620 18420740 17705830 16754280 15824660 15017590
3721.96 14297280 14184370 13438370 12703910 12599470 12206420
3724.86 11746410 11560000 11371560 10928910 10360260 10306300
3727.75 10087600 9843634 9945032 10368100 9997076 9103750
3730.64 8291196 8547456 8987488 8681644 8362936 8580082
3733.54 7848684 7444490 7847124 8155400 7926560 7724392
3736.43 7638740 7504490 7077462 6525304 6281550 6218668
3739.32 6071690 6263996 6290040 6279878 6462844 6434626
3742.21 6036106 5571400 5620490 5694112 5737280 5977064
3745.11 5593624 5900588 6562556 6427252 6071664 5881430
3748.00 6158688 5967664 5724876 6158504 6588876 6656662
3750.89 6845818 7032058 6775408 6481972 6382670 6666602
3753.78 6897906 6494076 6270682 6440952 6082060 5741510
3756.68 5460758 5846160 6469824 6089228 5810822 6035178
3759.57 5899964 6039528 6626432 6645582 6242958 5582816
3762.46 5085516 5426588 6057228 5782082 5521970 5903096
3765.35 6249208 5848822 5131038 5166380 5432124 5089518
3768.25 4740222 4718522 4678508 4739608 5018622 4919126
3771.14 4730686 5089444 5660490 5837200 5557592 5566304
3774.03 5560096 5713446 5870804 5678442 5536038 5973148
3776.93 6398258 6488208 6359430 6726492 6678126 6513628
3779.82 6710462 6677340 6752694 7031776 7241298 7340094
3782.71 7881854 8405364 8589770 8181046 7407608 7664024
3785.60 8192846 8346904 8229000 8313542 8664074 8832370
3788.50 8886916 8642518 8517024 8592606 8376434 7918406
3791.39 7468264 7847572 7990580 8009504 8022028 7941276
3794.28 7624816 7638840 7483498 7410948 7112764 6783906
3797.17 6841826 7043634 6818272 6708122 6248384 6397030
3800.07 6937396 6946446 6611740 6449954 6589658 6916282
3802.96 7171046 7016686 6799144 6735090 6640638 6647726
3805.85 6728576 6973814 6921968 7164224 7246960 7037208
3808.75 6905834 7064720 7248770 7196064 7144550 7400972
3811.64 7644128 7499796 7310578 7233252 7594562 7495656
3814.53 7294686 7474940 7702022 7044766 6342182 6275544
3817.42 6767534 7389778 7232742 6961916 7310024 7503292
3820.32 7495186 7772932 7657884 7708448 7632932 7613940
3823.21 7413762 7238150 7519084 7560990 7972996 8044750
3826.10 8287184 8622026 8587580 8837596 9456278 9294734
3828.99 8820410 8367902 8611046 9203536 9462760 9526196
3831.89 10236850 11440620 12666320 11956570 10244320 9845646
3834.78 10476860 10242490 10133660 10342260 10312930 10070520
3837.67 9602266 9252190 9438284 9736752 9837940 10101820
3840.57 10492420 10277730 9601390 9611940 10024750 10150260
3843.46 10330870 10847700 10930880 10774580 10475880 10447580
3846.35 10960040 10933690 10729100 10930580 11289050 11388950
3849.24 10675700 10116870 10015500 10082900 10278870 10255520
3852.14 10413040 10600530 10322270 10443450 10886040 10744660
3855.03 10142430 9928790 10147530 10289080 10540050 10580100
3857.92 10257670 10096700 9996242 9557210 9684802 10032830
3860.81 10094590 9871744 10026290 10238060 10196990 10237880
3863.71 10435720 10342720 10118880 9847000 9487604 9786278
3866.60 10269930 10958660 11006650 10620990 10122250 9659022
3869.49 8898468 8205272 8110022 8379394 8489288 8745240
3872.39 9143670 9355948 9170752 8938938 9126512 9379326
3875.28 9380632 9185006 9176314 9079978 9022644 8906436
3878.17 8875154 8727128 8669696 8922246 8466888 8116672
3881.06 8512186 9048944 9062504 8861584 8506440 8800488
3883.96 9400436 9295900 8919690 9421600 10574460 10992840
3886.85 10404410 10047990 9248000 8215262 7686264 7358510
3889.74 7043538 7253476 7520348 7584910 7649232 7719136
3892.63 7845792 7514220 7053978 7026590 7281042 7164916
3895.53 6996706 7196486 7433728 7137702 6903404 6946848
3898.42 7133830 7047216 6686252 6612880 6668830 6823988
3901.31 6897514 6675974 6325688 6148860 6367322 6505978
3904.21 6333174 6276680 6589932 6454338 5778718 5886280
3907.10 6281836 6308180 6240970 6314376 6273690 6155448
3909.99 6055684 5996760 5492992 5260374 5522504 5884310
3912.88 6036578 5951466 5785256 5870666 6102646 5767824
3915.78 4985646 4813266 5361268 5644254 5242098 4976002
3918.67 5280986 5096174 4697556 4641742 4670188 4433656
3921.56 4854262 4969696 4925710 5030864 4927572 5026232
3924.45 5334020 4888996 4636182 4704834 4519528 4148626
3927.35 4286758 4735832 4786822 4592454 4001838 3461134
3930.24 3575918 3631958 3651418 3750992 3760892 3661570
3933.13 3886364 4306926 4290326 4027702 4036368 4216526
3936.03 4084016 3546390 3384716 3482362 3368858 3434796
3938.92 3616486 3796508 3874152 4143748 4430716 3972192
3941.81 3726776 4002810 4112892 4097822 4265526 3710128
3944.70 3529358 3821012 3882100 3855900 3746492 4042242
3947.60 4666590 5039916 5152900 4296238 3632912 4007338
3950.49 3819008 3816850 4187922 4335620 4084204 3989942
3953.38 3945190 4336402 4479986 4287664 4451320 4257002
3956.27 4186452 4587366 4830590 4848022 4596124 4669530
3959.17 4311924 4201078 4554208 5205300 5414572 5217794
3962.06 5149010 5204100 5098682 4710110 4669298 5291804
3964.95 5356604 5373606 5363774 4878962 4528644 4647316
3967.85 5202268 5624028 5341268 5635426 5752278 5429032
3970.74 5289262 5144876 4833886 5031260 5754808 6183794
3973.63 5596240 5477256 5758384
##END=
