##TITLE=DIBENZONITRILE, 4,4'-OXY-
##JCAMP-DX=4.24
##DATA TYPE=INFRARED SPECTRUM
##CLASS=COBLENTZ III
##ORIGIN=DOW CHEMICAL COMPANY
##OWNER=COBLENTZ SOC.
Collection (C) 2018 copyright by the U.S. Secretary of Commerce
on behalf of the United States of America. All rights reserved.
##DATE=1963/10/16
##CAS REGISTRY NO=6508-04-9
##MOLFORM=C14 H8 N2 O
##SOURCE REFERENCE=COBLENTZ NO. 07533
##$NIST SOURCE=COBLENTZ
##$NIST IMAGE=cob7533
##SPECTROMETER/DATA SYSTEM=BECKMAN IR-9 (GRATING)
##INSTRUMENT PARAMETERS=ORDER CHANGES: 670, 1200, 2000 CM^-^1
##STATE=SOLID (SPLIT MULL), FLUOROLUBE FOR 3800-1330 CM^-^1, NUJOL FOR 1330-400 CM^-^1
$$ SPECTRAL FEATURE AT 1329 CM^-^1 IS AN ARTIFACT CAUSED BY A CHANGE IN SOLVENT
$$ SEE SPECTRUM NO. 4352 FOR KBr DISC
##SAMPLING PROCEDURE=TRANSMISSION
##RESOLUTION=2
##DATA PROCESSING=DIGITIZED BY COBLENTZ SOCIETY (BATCH I) FROM HARD COPY
##XUNITS=1/CM
##YUNITS=TRANSMITTANCE
##XLABEL=Wavenumbers (cm-1)
##YLABEL=% Transmission
##XFACTOR=1
##YFACTOR=1
##DELTAX=1
##FIRSTX=402
##LASTX=3798
##FIRSTY=0.7487
##MAXX=3798
##MINX=402
##MAXY=0.9033
##MINY=0.0175
##NPOINTS=3397
##XYDATA=(X++(Y..Y))
402.000000 0.7487 0.7445 0.7403 0.7358 0.7315
407.000000 0.7271 0.7211 0.7151 0.7081 0.7003
412.000000 0.6915 0.6896 0.6890 0.6883 0.6871
417.000000 0.6867 0.6862 0.6858 0.6855 0.6851
422.000000 0.6848 0.6845 0.6815 0.6853 0.6857
427.000000 0.6865 0.6875 0.6886 0.6901 0.6918
432.000000 0.6937 0.6962 0.6992 0.7021 0.7050
437.000000 0.7078 0.7107 0.7136 0.7165 0.7196
442.000000 0.7225 0.7256 0.7287 0.7317 0.7346
447.000000 0.7374 0.7401 0.7431 0.7458 0.7487
452.000000 0.7519 0.7556 0.7592 0.7628 0.7662
457.000000 0.7699 0.7735 0.7767 0.7794 0.7821
462.000000 0.7849 0.7875 0.7904 0.7932 0.7960
467.000000 0.7988 0.8008 0.8022 0.8037 0.8050
472.000000 0.8055 0.8061 0.8062 0.8065 0.8067
477.000000 0.8078 0.8101 0.8126 0.8153 0.8178
482.000000 0.8203 0.8227 0.8250 0.8274 0.8298
487.000000 0.8321 0.8343 0.8363 0.8382 0.8397
492.000000 0.8410 0.8423 0.8439 0.8459 0.8478
497.000000 0.8499 0.8521 0.8545 0.8568 0.8587
502.000000 0.8603 0.8618 0.8635 0.8650 0.8650
507.000000 0.8650 0.8652 0.8645 0.8618 0.8586
512.000000 0.8547 0.8508 0.8471 0.8451 0.8434
517.000000 0.8431 0.8425 0.8449 0.8468 0.8488
522.000000 0.8507 0.8525 0.8539 0.8545 0.8549
527.000000 0.8554 0.8562 0.8571 0.8594 0.8600
532.000000 0.8604 0.8608 0.8638 0.8597 0.8585
537.000000 0.8553 0.8491 0.8256 0.7841 0.7425
542.000000 0.7011 0.6596 0.6181 0.5766 0.5351
547.000000 0.4936 0.4512 0.4487 0.4487 0.4962
552.000000 0.5826 0.6690 0.7554 0.8244 0.8421
557.000000 0.8474 0.8471 0.8482 0.8375 0.8304
562.000000 0.8232 0.8160 0.8088 0.8055 0.8069
567.000000 0.8202 0.8360 0.8518 0.8797 0.8882
572.000000 0.8916 0.8934 0.8952 0.8970 0.8984
577.000000 0.8992 0.9000 0.9008 0.9015 0.9023
582.000000 0.9027 0.9028 0.9030 0.9031 0.9033
587.000000 0.9033 0.9033 0.9032 0.9031 0.9030
592.000000 0.9028 0.9028 0.9027 0.9025 0.9025
597.000000 0.9025 0.9025 0.9027 0.9028 0.9028
602.000000 0.9028 0.9028 0.9030 0.9031 0.9031
607.000000 0.9031 0.9031 0.9031 0.9031 0.9031
612.000000 0.9030 0.9030 0.9030 0.9030 0.9030
617.000000 0.9028 0.9028 0.9028 0.9027 0.9025
622.000000 0.9025 0.9025 0.9021 0.9014 0.9006
627.000000 0.8998 0.8990 0.8978 0.8966 0.8962
632.000000 0.8960 0.8958 0.8958 0.8963 0.8967
637.000000 0.8971 0.8971 0.8968 0.8967 0.8963
642.000000 0.8958 0.8954 0.8949 0.8950 0.8951
647.000000 0.8955 0.8968 0.8984 0.8996 0.9007
652.000000 0.9016 0.9016 0.9016 0.9008 0.8999
657.000000 0.8989 0.8977 0.8965 0.8968 0.8978
662.000000 0.8987 0.8995 0.9004 0.9013 0.9021
667.000000 0.9030 0.9030 0.9030 0.9028 0.9028
672.000000 0.9028 0.9028 0.9025 0.9023 0.9021
677.000000 0.9018 0.9016 0.9010 0.8995 0.8980
682.000000 0.8960 0.8940 0.8908 0.8873 0.8837
687.000000 0.8777 0.8756 0.8743 0.8728 0.8718
692.000000 0.8716 0.8716 0.8718 0.8723 0.8735
697.000000 0.8746 0.8763 0.8781 0.8792 0.8804
702.000000 0.8804 0.8805 0.8790 0.8759 0.8702
707.000000 0.8614 0.8518 0.8438 0.8358 0.8273
712.000000 0.8174 0.8078 0.8068 0.8061 0.8051
717.000000 0.8033 0.7975 0.7850 0.7747 0.7665
722.000000 0.7581 0.7468 0.7482 0.7488 0.7521
727.000000 0.7557 0.7606 0.7651 0.7689 0.7726
732.000000 0.7764 0.7794 0.7825 0.7855 0.7887
737.000000 0.7918 0.7951 0.7995 0.8042 0.8089
742.000000 0.8142 0.8198 0.8256 0.8314 0.8366
747.000000 0.8406 0.8441 0.8465 0.8490 0.8514
752.000000 0.8527 0.8540 0.8552 0.8565 0.8574
757.000000 0.8580 0.8587 0.8593 0.8600 0.8606
762.000000 0.8612 0.8618 0.8625 0.8627 0.8627
767.000000 0.8625 0.8625 0.8625 0.8624 0.8623
772.000000 0.8621 0.8620 0.8618 0.8618 0.8612
777.000000 0.8616 0.8616 0.8616 0.8616 0.8617
782.000000 0.8617 0.8617 0.8617 0.8617 0.8618
787.000000 0.8618 0.8618 0.8618 0.8618 0.8618
792.000000 0.8617 0.8615 0.8614 0.8613 0.8602
797.000000 0.8589 0.8575 0.8558 0.8537 0.8516
802.000000 0.8495 0.8471 0.8446 0.8416 0.8386
807.000000 0.8356 0.8325 0.8295 0.8249 0.8202
812.000000 0.8156 0.8108 0.8062 0.8017 0.7957
817.000000 0.7884 0.7798 0.7664 0.6845 0.6465
822.000000 0.6087 0.5960 0.5938 0.5978 0.6162
827.000000 0.6347 0.6532 0.6526 0.6522 0.6204
832.000000 0.5925 0.5646 0.5366 0.5087 0.4808
837.000000 0.4612 0.4560 0.4508 0.4449 0.4375
842.000000 0.4236 0.4173 0.4158 0.4408 0.4857
847.000000 0.5307 0.5756 0.6198 0.6223 0.6164
852.000000 0.6062 0.5962 0.5862 0.5789 0.5786
857.000000 0.6312 0.6848 0.7383 0.7801 0.7940
862.000000 0.7981 0.8001 0.8018 0.8025 0.8046
867.000000 0.8035 0.8033 0.8028 0.8012 0.7965
872.000000 0.7255 0.6640 0.6025 0.5410 0.4795
877.000000 0.4336 0.4341 0.4906 0.5790 0.6674
882.000000 0.7558 0.8176 0.8287 0.8339 0.8350
887.000000 0.8361 0.8365 0.8366 0.8367 0.8368
892.000000 0.8371 0.8373 0.8375 0.8397 0.8377
897.000000 0.8378 0.8378 0.8380 0.8382 0.8383
902.000000 0.8385 0.8386 0.8388 0.8388 0.8387
907.000000 0.8386 0.8385 0.8385 0.8384 0.8383
912.000000 0.8382 0.8377 0.8371 0.8366 0.8360
917.000000 0.8353 0.8347 0.8340 0.8334 0.8327
922.000000 0.8320 0.8314 0.8307 0.8300 0.8294
927.000000 0.8287 0.8280 0.8274 0.8267 0.8260
932.000000 0.8253 0.8244 0.8237 0.8230 0.8224
937.000000 0.8217 0.8209 0.8199 0.8188 0.8178
942.000000 0.8168 0.8157 0.8126 0.8078 0.8025
947.000000 0.7967 0.7932 0.7897 0.7881 0.7868
952.000000 0.7854 0.7861 0.7868 0.7885 0.7914
957.000000 0.7948 0.7978 0.8006 0.8025 0.8035
962.000000 0.8035 0.8034 0.8033 0.8030 0.8025
967.000000 0.8018 0.8010 0.8001 0.7993 0.7985
972.000000 0.7976 0.7969 0.7962 0.7956 0.7949
977.000000 0.7942 0.7940 0.7940 0.7940 0.7948
982.000000 0.7958 0.7968 0.7978 0.7986 0.7993
987.000000 0.8000 0.8001 0.8003 0.8004 0.8005
992.000000 0.8000 0.7996 0.7991 0.7981 0.7969
997.000000 0.7958 0.7948 0.7932 0.7907 0.7878
1002.000000 0.7834 0.7789 0.7722 0.7642 0.7556
1007.000000 0.7478 0.7407 0.7308 0.7190 0.7168
1012.000000 0.7164 0.7287 0.7407 0.7525 0.7631
1017.000000 0.7611 0.7586 0.7576 0.7578 0.7601
1022.000000 0.7672 0.7736 0.7791 0.7843 0.7883
1027.000000 0.7915 0.7932 0.7972 0.7944 0.7944
1032.000000 0.7938 0.7930 0.7922 0.7915 0.7908
1037.000000 0.7900 0.7893 0.7885 0.7878 0.7869
1042.000000 0.7862 0.7855 0.7848 0.7840 0.7833
1047.000000 0.7825 0.7815 0.7807 0.7799 0.7790
1052.000000 0.7781 0.7771 0.7762 0.7754 0.7737
1057.000000 0.7708 0.7680 0.7648 0.7595 0.7541
1062.000000 0.7481 0.7415 0.7351 0.7292 0.7235
1067.000000 0.7201 0.7172 0.7196 0.7224 0.7288
1072.000000 0.7350 0.7405 0.7448 0.7483 0.7518
1077.000000 0.7547 0.7571 0.7596 0.7604 0.7611
1082.000000 0.7618 0.7624 0.7638 0.7630 0.7633
1087.000000 0.7633 0.7628 0.7624 0.7618 0.7608
1092.000000 0.7596 0.7583 0.7571 0.7558 0.7536
1097.000000 0.7508 0.7478 0.7451 0.7418 0.7368
1102.000000 0.7318 0.7264 0.7201 0.7137 0.7074
1107.000000 0.7004 0.6897 0.6830 0.6750 0.6788
1112.000000 0.6803 0.6821 0.6846 0.6878 0.6912
1117.000000 0.6948 0.6995 0.7042 0.7084 0.7119
1122.000000 0.7157 0.7194 0.7221 0.7247 0.7271
1127.000000 0.7297 0.7321 0.7340 0.7356 0.7356
1132.000000 0.7357 0.7357 0.7351 0.7340 0.7328
1137.000000 0.7308 0.7287 0.7260 0.7228 0.7197
1142.000000 0.7164 0.7132 0.7100 0.7064 0.7022
1147.000000 0.6982 0.6939 0.6895 0.6850 0.6804
1152.000000 0.6740 0.6675 0.6611 0.6519 0.6387
1157.000000 0.5807 0.4469 0.4102 0.4103 0.4102
1162.000000 0.4101 0.4785 0.5045 0.5305 0.5565
1167.000000 0.5885 0.5890 0.5883 0.5516 0.5098
1172.000000 0.4680 0.4262 0.3844 0.3720 0.4722
1177.000000 0.5812 0.6905 0.7101 0.7130 0.7145
1182.000000 0.7134 0.7148 0.7111 0.7099 0.7085
1187.000000 0.7065 0.7037 0.7001 0.6956 0.6884
1192.000000 0.6781 0.6656 0.6531 0.6406 0.6282
1197.000000 0.6157 0.6032 0.5907 0.5874 0.5910
1202.000000 0.5949 0.5987 0.6024 0.6025 0.6026
1207.000000 0.5923 0.5800 0.5686 0.5686 0.5686
1212.000000 0.5700 0.5718 0.5732 0.5733 0.5707
1217.000000 0.5565 0.5433 0.5301 0.5169 0.5037
1222.000000 0.4870 0.4667 0.4437 0.4255 0.4169
1227.000000 0.4082 0.3997 0.3894 0.3759 0.3623
1232.000000 0.3488 0.3362 0.3245 0.3128 0.3010
1237.000000 0.2848 0.2659 0.2488 0.2329 0.2171
1242.000000 0.2011 0.1706 0.1178 0.0943 0.0781
1247.000000 0.0628 0.0502 0.0461 0.0437 0.0432
1252.000000 0.0432 0.0514 0.0770 0.1188 0.1606
1257.000000 0.2024 0.2442 0.2860 0.3278 0.3696
1262.000000 0.4114 0.4532 0.4950 0.5368 0.5590
1267.000000 0.5770 0.6071 0.6166 0.6198 0.6201
1272.000000 0.6202 0.6203 0.6157 0.6098 0.6040
1277.000000 0.5981 0.5923 0.5868 0.5848 0.5942
1282.000000 0.6015 0.6079 0.6078 0.6065 0.5960
1287.000000 0.5884 0.5808 0.5773 0.5767 0.5912
1292.000000 0.6059 0.6205 0.6350 0.6415 0.6415
1297.000000 0.6415 0.6411 0.6401 0.6389 0.6389
1302.000000 0.6390 0.6418 0.6489 0.6788 0.6915
1307.000000 0.7031 0.7151 0.7246 0.7307 0.7342
1312.000000 0.7358 0.7375 0.7392 0.7405 0.7417
1317.000000 0.7503 0.7575 0.7633 0.7715 0.7753
1322.000000 0.7628 0.7428 0.7231 0.7032 0.6834
1327.000000 0.6755 0.6768 0.6781 0.6794 0.6807
1332.000000 0.6822 0.6828 0.6833 0.6834 0.6834
1337.000000 0.6833 0.6818 0.6801 0.6783 0.6756
1342.000000 0.6737 0.6733 0.6734 0.6738 0.6754
1347.000000 0.6784 0.6860 0.6934 0.7001 0.7060
1352.000000 0.7106 0.7147 0.7178 0.7208 0.7239
1357.000000 0.7264 0.7290 0.7315 0.7334 0.7353
1362.000000 0.7372 0.7390 0.7398 0.7406 0.7414
1367.000000 0.7417 0.7418 0.7421 0.7424 0.7425
1372.000000 0.7425 0.7425 0.7426 0.7428 0.7428
1377.000000 0.7428 0.7426 0.7424 0.7421 0.7418
1382.000000 0.7415 0.7411 0.7408 0.7404 0.7399
1387.000000 0.7394 0.7389 0.7384 0.7378 0.7374
1392.000000 0.7368 0.7361 0.7353 0.7343 0.7334
1397.000000 0.7325 0.7304 0.7271 0.7239 0.7207
1402.000000 0.7175 0.7150 0.7128 0.7115 0.7101
1407.000000 0.7089 0.7069 0.7028 0.6968 0.6891
1412.000000 0.6790 0.6681 0.6531 0.6388 0.6322
1417.000000 0.6318 0.6312 0.6304 0.6272 0.6272
1422.000000 0.6271 0.6487 0.6572 0.6661 0.6761
1427.000000 0.6892 0.6950 0.7001 0.7035 0.7058
1432.000000 0.7068 0.7075 0.7078 0.7080 0.7081
1437.000000 0.7080 0.7078 0.7074 0.7064 0.7053
1442.000000 0.7043 0.7025 0.7006 0.6978 0.6951
1447.000000 0.6924 0.6891 0.6855 0.6818 0.6783
1452.000000 0.6746 0.6710 0.6672 0.6636 0.6600
1457.000000 0.6558 0.6518 0.6476 0.6436 0.6396
1462.000000 0.6356 0.6317 0.6268 0.6203 0.6135
1467.000000 0.6034 0.5930 0.5815 0.5530 0.5193
1472.000000 0.4857 0.4520 0.4183 0.3846 0.3509
1477.000000 0.3173 0.2868 0.2739 0.2640 0.2539
1482.000000 0.2420 0.2301 0.2160 0.2028 0.1916
1487.000000 0.1807 0.1709 0.0963 0.0705 0.0531
1492.000000 0.0374 0.0249 0.0183 0.0182 0.0175
1497.000000 0.0210 0.0259 0.0377 0.0565 0.0783
1502.000000 0.1211 0.1419 0.1816 0.2039 0.2157
1507.000000 0.2203 0.2249 0.2697 0.3090 0.3509
1512.000000 0.3930 0.4350 0.5281 0.5482 0.5684
1517.000000 0.5892 0.6136 0.6307 0.6450 0.6538
1522.000000 0.6625 0.6714 0.6801 0.6875 0.6950
1527.000000 0.7024 0.7078 0.7121 0.7158 0.7196
1532.000000 0.7234 0.7282 0.7353 0.7428 0.7536
1537.000000 0.7643 0.7733 0.7795 0.7844 0.7871
1542.000000 0.7897 0.7917 0.7931 0.7946 0.7950
1547.000000 0.7943 0.7946 0.7940 0.7919 0.7841
1552.000000 0.7775 0.7707 0.7640 0.7582 0.7522
1557.000000 0.7465 0.7406 0.7348 0.7290 0.7231
1562.000000 0.7176 0.7124 0.7071 0.7008 0.6940
1567.000000 0.6869 0.6783 0.6696 0.6601 0.6499
1572.000000 0.6127 0.5770 0.5571 0.5435 0.5300
1577.000000 0.5122 0.4944 0.4816 0.4688 0.4549
1582.000000 0.4405 0.4260 0.4052 0.3545 0.2926
1587.000000 0.2498 0.2071 0.1644 0.1248 0.0831
1592.000000 0.0667 0.0549 0.0517 0.1132 0.0491
1597.000000 0.2560 0.3274 0.3988 0.4702 0.5416
1602.000000 0.5953 0.5954 0.5954 0.5896 0.5829
1607.000000 0.5764 0.5765 0.5768 0.6576 0.6749
1612.000000 0.6865 0.6984 0.7144 0.7372 0.7711
1617.000000 0.7975 0.8160 0.8288 0.8345 0.8397
1622.000000 0.8424 0.8449 0.8459 0.8468 0.8481
1627.000000 0.8474 0.8470 0.8460 0.8451 0.8441
1632.000000 0.8432 0.8418 0.8405 0.8390 0.8371
1637.000000 0.8355 0.8337 0.8320 0.8304 0.8289
1642.000000 0.8273 0.8258 0.8242 0.8225 0.8209
1647.000000 0.8193 0.8175 0.8158 0.8143 0.8126
1652.000000 0.8111 0.8095 0.8078 0.8062 0.8049
1657.000000 0.8037 0.8025 0.8011 0.8000 0.7988
1662.000000 0.7975 0.7962 0.7951 0.7939 0.7931
1667.000000 0.7925 0.7918 0.7911 0.7905 0.7898
1672.000000 0.7891 0.7885 0.7878 0.7871 0.7865
1677.000000 0.7861 0.7858 0.7857 0.7855 0.7853
1682.000000 0.7851 0.7850 0.7848 0.7847 0.7861
1687.000000 0.7865 0.7876 0.7887 0.7897 0.7908
1692.000000 0.7919 0.7931 0.7943 0.7958 0.7967
1697.000000 0.7972 0.7978 0.7984 0.7990 0.7997
1702.000000 0.8006 0.8014 0.8021 0.8031 0.8038
1707.000000 0.8044 0.8050 0.8057 0.8061 0.8064
1712.000000 0.8065 0.8068 0.8071 0.8071 0.8067
1717.000000 0.8062 0.8058 0.8055 0.8051 0.8047
1722.000000 0.8043 0.8039 0.8035 0.8031 0.8026
1727.000000 0.8022 0.8018 0.8012 0.8007 0.8001
1732.000000 0.7996 0.7990 0.7985 0.7978 0.7974
1737.000000 0.7968 0.7962 0.7957 0.7951 0.7946
1742.000000 0.7939 0.7933 0.7926 0.7919 0.7914
1747.000000 0.7907 0.7901 0.7895 0.7888 0.7882
1752.000000 0.7875 0.7868 0.7862 0.7856 0.7849
1757.000000 0.7843 0.7836 0.7828 0.7822 0.7815
1762.000000 0.7808 0.7803 0.7796 0.7789 0.7783
1767.000000 0.7775 0.7768 0.7762 0.7756 0.7750
1772.000000 0.7743 0.7737 0.7731 0.7724 0.7718
1777.000000 0.7711 0.7705 0.7699 0.7692 0.7686
1782.000000 0.7680 0.7671 0.7664 0.7655 0.7647
1787.000000 0.7638 0.7630 0.7621 0.7612 0.7604
1792.000000 0.7596 0.7587 0.7578 0.7569 0.7569
1797.000000 0.7569 0.7586 0.7572 0.7574 0.7575
1802.000000 0.7583 0.7590 0.7596 0.7604 0.7612
1807.000000 0.7621 0.7630 0.7639 0.7644 0.7644
1812.000000 0.7644 0.7636 0.7628 0.7621 0.7615
1817.000000 0.7607 0.7600 0.7600 0.7601 0.7604
1822.000000 0.7608 0.7611 0.7615 0.7618 0.7621
1827.000000 0.7625 0.7632 0.7639 0.7646 0.7651
1832.000000 0.7650 0.7649 0.7648 0.7646 0.7645
1837.000000 0.7643 0.7624 0.7640 0.7639 0.7637
1842.000000 0.7636 0.7635 0.7633 0.7632 0.7630
1847.000000 0.7628 0.7628 0.7624 0.7617 0.7610
1852.000000 0.7603 0.7596 0.7588 0.7581 0.7574
1857.000000 0.7567 0.7561 0.7556 0.7550 0.7544
1862.000000 0.7537 0.7528 0.7519 0.7511 0.7503
1867.000000 0.7495 0.7486 0.7478 0.7469 0.7461
1872.000000 0.7453 0.7444 0.7435 0.7426 0.7418
1877.000000 0.7408 0.7401 0.7392 0.7383 0.7374
1882.000000 0.7365 0.7357 0.7348 0.7340 0.7332
1887.000000 0.7325 0.7317 0.7308 0.7301 0.7294
1892.000000 0.7286 0.7278 0.7269 0.7265 0.7261
1897.000000 0.7258 0.7255 0.7251 0.7249 0.7245
1902.000000 0.7242 0.7237 0.7231 0.7224 0.7217
1907.000000 0.7211 0.7204 0.7197 0.7191 0.7184
1912.000000 0.7171 0.7160 0.7148 0.7136 0.7122
1917.000000 0.7111 0.7101 0.7094 0.7087 0.7078
1922.000000 0.7071 0.7062 0.7058 0.7058 0.7058
1927.000000 0.7062 0.7065 0.7065 0.7076 0.7090
1932.000000 0.7103 0.7117 0.7132 0.7132 0.7132
1937.000000 0.7132 0.7133 0.7136 0.7140 0.7143
1942.000000 0.7148 0.7154 0.7160 0.7165 0.7171
1947.000000 0.7181 0.7191 0.7201 0.7211 0.7221
1952.000000 0.7232 0.7242 0.7254 0.7265 0.7278
1957.000000 0.7291 0.7301 0.7306 0.7310 0.7308
1962.000000 0.7303 0.7299 0.7294 0.7289 0.7285
1967.000000 0.7280 0.7274 0.7268 0.7262 0.7257
1972.000000 0.7251 0.7246 0.7240 0.7234 0.7228
1977.000000 0.7222 0.7217 0.7211 0.7206 0.7200
1982.000000 0.7194 0.7189 0.7183 0.7176 0.7171
1987.000000 0.7165 0.7157 0.7146 0.7136 0.7125
1992.000000 0.7106 0.7069 0.7034 0.6994 0.6944
1997.000000 0.6940 0.6928 0.6947 0.6947 0.7032
2002.000000 0.7117 0.7126 0.7138 0.7143 0.7148
2007.000000 0.7150 0.7153 0.7153 0.7153 0.7153
2012.000000 0.7153 0.7153 0.7151 0.7151 0.7150
2017.000000 0.7148 0.7147 0.7145 0.7144 0.7140
2022.000000 0.7136 0.7131 0.7125 0.7118 0.7112
2027.000000 0.7105 0.7098 0.7086 0.7075 0.7062
2032.000000 0.7051 0.7039 0.7026 0.7015 0.7004
2037.000000 0.6992 0.6981 0.6969 0.6960 0.6951
2042.000000 0.6943 0.6934 0.6925 0.6918 0.6911
2047.000000 0.6910 0.6908 0.6908 0.6907 0.6906
2052.000000 0.6905 0.6904 0.6903 0.6901 0.6900
2057.000000 0.6899 0.6898 0.6896 0.6895 0.6893
2062.000000 0.6892 0.6890 0.6889 0.6887 0.6886
2067.000000 0.6884 0.6883 0.6881 0.6880 0.6878
2072.000000 0.6875 0.6874 0.6872 0.6871 0.6868
2077.000000 0.6867 0.6865 0.6862 0.6861 0.6858
2082.000000 0.6857 0.6855 0.6853 0.6851 0.6849
2087.000000 0.6847 0.6845 0.6843 0.6841 0.6839
2092.000000 0.6837 0.6835 0.6834 0.6832 0.6830
2097.000000 0.6828 0.6826 0.6825 0.6822 0.6821
2102.000000 0.6818 0.6817 0.6815 0.6814 0.6811
2107.000000 0.6810 0.6808 0.6807 0.6805 0.6801
2112.000000 0.6800 0.6795 0.6791 0.6787 0.6783
2117.000000 0.6778 0.6774 0.6769 0.6765 0.6761
2122.000000 0.6757 0.6753 0.6749 0.6744 0.6740
2127.000000 0.6736 0.6732 0.6726 0.6722 0.6718
2132.000000 0.6715 0.6710 0.6705 0.6699 0.6694
2137.000000 0.6688 0.6683 0.6676 0.6671 0.6665
2142.000000 0.6661 0.6655 0.6650 0.6643 0.6637
2147.000000 0.6626 0.6617 0.6607 0.6597 0.6587
2152.000000 0.6578 0.6568 0.6558 0.6548 0.6538
2157.000000 0.6528 0.6518 0.6508 0.6499 0.6489
2162.000000 0.6478 0.6468 0.6458 0.6440 0.6421
2167.000000 0.6404 0.6386 0.6368 0.6350 0.6334
2172.000000 0.6319 0.6305 0.6291 0.6280 0.6270
2177.000000 0.6267 0.6265 0.6262 0.6260 0.6258
2182.000000 0.6256 0.6254 0.6252 0.6250 0.6249
2187.000000 0.6248 0.6247 0.6226 0.6206 0.6184
2192.000000 0.6162 0.6116 0.6070 0.6021 0.5972
2197.000000 0.5928 0.5885 0.5847 0.5810 0.5773
2202.000000 0.5736 0.5688 0.5641 0.5589 0.5537
2207.000000 0.5485 0.5434 0.5378 0.5323 0.5262
2212.000000 0.5202 0.5141 0.5080 0.4987 0.4894
2217.000000 0.4543 0.4193 0.3671 0.3150 0.2628
2222.000000 0.2107 0.1585 0.1063 0.1042 0.1024
2227.000000 0.1015 0.1006 0.1459 0.1912 0.2460
2232.000000 0.3009 0.3557 0.4106 0.4654 0.5203
2237.000000 0.5926 0.6650 0.6688 0.6725 0.6740
2242.000000 0.6755 0.6761 0.6767 0.6768 0.6771
2247.000000 0.6771 0.6758 0.6769 0.6768 0.6767
2252.000000 0.6765 0.6761 0.6757 0.6748 0.6740
2257.000000 0.6725 0.6711 0.6694 0.6676 0.6661
2262.000000 0.6646 0.6631 0.6615 0.6603 0.6590
2267.000000 0.6576 0.6565 0.6553 0.6541 0.6528
2272.000000 0.6518 0.6507 0.6496 0.6485 0.6474
2277.000000 0.6464 0.6454 0.6446 0.6439 0.6431
2282.000000 0.6424 0.6415 0.6408 0.6401 0.6394
2287.000000 0.6387 0.6381 0.6375 0.6369 0.6362
2292.000000 0.6357 0.6351 0.6346 0.6340 0.6334
2297.000000 0.6328 0.6322 0.6316 0.6310 0.6305
2302.000000 0.6299 0.6293 0.6287 0.6281 0.6276
2307.000000 0.6270 0.6264 0.6258 0.6252 0.6246
2312.000000 0.6241 0.6235 0.6230 0.6224 0.6219
2317.000000 0.6214 0.6209 0.6205 0.6201 0.6197
2322.000000 0.6193 0.6189 0.6186 0.6182 0.6178
2327.000000 0.6174 0.6170 0.6166 0.6162 0.6159
2332.000000 0.6155 0.6151 0.6147 0.6143 0.6140
2337.000000 0.6136 0.6133 0.6129 0.6126 0.6122
2342.000000 0.6119 0.6115 0.6112 0.6108 0.6105
2347.000000 0.6101 0.6098 0.6095 0.6092 0.6090
2352.000000 0.6088 0.6085 0.6083 0.6081 0.6079
2357.000000 0.6077 0.6075 0.6072 0.6070 0.6068
2362.000000 0.6067 0.6066 0.6065 0.6062 0.6062
2367.000000 0.6060 0.6060 0.6058 0.6057 0.6055
2372.000000 0.6054 0.6053 0.6052 0.6049 0.6047
2377.000000 0.6045 0.6043 0.6041 0.6039 0.6036
2382.000000 0.6034 0.6032 0.6030 0.6024 0.6018
2387.000000 0.6009 0.6000 0.5991 0.5982 0.5973
2392.000000 0.5964 0.5957 0.5950 0.5944 0.5938
2397.000000 0.5931 0.5925 0.5919 0.5912 0.5907
2402.000000 0.5901 0.5894 0.5888 0.5882 0.5876
2407.000000 0.5870 0.5864 0.5857 0.5851 0.5845
2412.000000 0.5839 0.5836 0.5833 0.5830 0.5828
2417.000000 0.5825 0.5823 0.5820 0.5818 0.5815
2422.000000 0.5812 0.5810 0.5808 0.5807 0.5807
2427.000000 0.5808 0.5810 0.5810 0.5812 0.5814
2432.000000 0.5816 0.5818 0.5821 0.5823 0.5824
2437.000000 0.5824 0.5824 0.5818 0.5812 0.5808
2442.000000 0.5803 0.5794 0.5786 0.5776 0.5767
2447.000000 0.5758 0.5749 0.5745 0.5741 0.5737
2452.000000 0.5733 0.5729 0.5726 0.5722 0.5718
2457.000000 0.5714 0.5710 0.5718 0.5727 0.5738
2462.000000 0.5750 0.5760 0.5773 0.5784 0.5795
2467.000000 0.5806 0.5818 0.5827 0.5836 0.5841
2472.000000 0.5847 0.5849 0.5852 0.5846 0.5841
2477.000000 0.5835 0.5830 0.5824 0.5819 0.5812
2482.000000 0.5806 0.5799 0.5793 0.5787 0.5781
2487.000000 0.5774 0.5768 0.5760 0.5755 0.5752
2492.000000 0.5749 0.5747 0.5746 0.5745 0.5744
2497.000000 0.5742 0.5741 0.5740 0.5739 0.5737
2502.000000 0.5736 0.5735 0.5734 0.5734 0.5735
2507.000000 0.5735 0.5736 0.5737 0.5738 0.5738
2512.000000 0.5739 0.5739 0.5740 0.5740 0.5741
2517.000000 0.5741 0.5742 0.5743 0.5744 0.5744
2522.000000 0.5745 0.5745 0.5746 0.5746 0.5747
2527.000000 0.5747 0.5747 0.5747 0.5747 0.5746
2532.000000 0.5746 0.5746 0.5746 0.5746 0.5746
2537.000000 0.5746 0.5746 0.5746 0.5746 0.5745
2542.000000 0.5745 0.5744 0.5744 0.5742 0.5741
2547.000000 0.5740 0.5739 0.5738 0.5737 0.5736
2552.000000 0.5735 0.5734 0.5733 0.5729 0.5725
2557.000000 0.5720 0.5716 0.5710 0.5707 0.5702
2562.000000 0.5698 0.5693 0.5689 0.5684 0.5680
2567.000000 0.5675 0.5671 0.5666 0.5662 0.5658
2572.000000 0.5654 0.5650 0.5646 0.5642 0.5638
2577.000000 0.5634 0.5630 0.5626 0.5622 0.5617
2582.000000 0.5612 0.5609 0.5605 0.5602 0.5599
2587.000000 0.5596 0.5593 0.5590 0.5587 0.5584
2592.000000 0.5581 0.5578 0.5575 0.5572 0.5569
2597.000000 0.5566 0.5562 0.5560 0.5562 0.5562
2602.000000 0.5567 0.5571 0.5575 0.5579 0.5583
2607.000000 0.5587 0.5591 0.5594 0.5597 0.5598
2612.000000 0.5599 0.5600 0.5602 0.5602 0.5602
2617.000000 0.5600 0.5599 0.5597 0.5596 0.5594
2622.000000 0.5593 0.5591 0.5589 0.5587 0.5585
2627.000000 0.5582 0.5580 0.5578 0.5576 0.5574
2632.000000 0.5572 0.5570 0.5568 0.5565 0.5562
2637.000000 0.5560 0.5558 0.5555 0.5553 0.5550
2642.000000 0.5548 0.5545 0.5543 0.5538 0.5534
2647.000000 0.5529 0.5525 0.5520 0.5515 0.5510
2652.000000 0.5506 0.5502 0.5499 0.5495 0.5491
2657.000000 0.5487 0.5484 0.5480 0.5477 0.5473
2662.000000 0.5470 0.5466 0.5462 0.5459 0.5456
2667.000000 0.5452 0.5449 0.5445 0.5442 0.5441
2672.000000 0.5441 0.5441 0.5442 0.5442 0.5442
2677.000000 0.5442 0.5442 0.5442 0.5442 0.5442
2682.000000 0.5443 0.5443 0.5443 0.5442 0.5442
2687.000000 0.5440 0.5439 0.5437 0.5435 0.5433
2692.000000 0.5432 0.5430 0.5428 0.5426 0.5424
2697.000000 0.5422 0.5421 0.5419 0.5417 0.5415
2702.000000 0.5414 0.5412 0.5410 0.5408 0.5407
2707.000000 0.5405 0.5403 0.5401 0.5400 0.5398
2712.000000 0.5397 0.5395 0.5394 0.5392 0.5391
2717.000000 0.5389 0.5388 0.5386 0.5385 0.5382
2722.000000 0.5379 0.5376 0.5374 0.5371 0.5369
2727.000000 0.5366 0.5362 0.5360 0.5358 0.5355
2732.000000 0.5353 0.5350 0.5348 0.5345 0.5342
2737.000000 0.5339 0.5337 0.5333 0.5330 0.5327
2742.000000 0.5324 0.5320 0.5317 0.5312 0.5310
2747.000000 0.5306 0.5303 0.5299 0.5296 0.5292
2752.000000 0.5289 0.5285 0.5282 0.5279 0.5276
2757.000000 0.5273 0.5270 0.5267 0.5264 0.5260
2762.000000 0.5258 0.5255 0.5252 0.5249 0.5246
2767.000000 0.5243 0.5240 0.5237 0.5234 0.5231
2772.000000 0.5228 0.5225 0.5222 0.5219 0.5216
2777.000000 0.5212 0.5209 0.5205 0.5202 0.5199
2782.000000 0.5196 0.5192 0.5189 0.5185 0.5182
2787.000000 0.5178 0.5175 0.5171 0.5168 0.5164
2792.000000 0.5160 0.5158 0.5155 0.5153 0.5151
2797.000000 0.5149 0.5148 0.5146 0.5144 0.5142
2802.000000 0.5140 0.5138 0.5137 0.5135 0.5133
2807.000000 0.5131 0.5130 0.5128 0.5126 0.5124
2812.000000 0.5122 0.5120 0.5119 0.5117 0.5115
2817.000000 0.5112 0.5112 0.5110 0.5108 0.5106
2822.000000 0.5104 0.5102 0.5100 0.5098 0.5097
2827.000000 0.5095 0.5093 0.5091 0.5089 0.5087
2832.000000 0.5086 0.5083 0.5080 0.5075 0.5070
2837.000000 0.5065 0.5060 0.5054 0.5049 0.5043
2842.000000 0.5038 0.5032 0.5026 0.5020 0.5014
2847.000000 0.5007 0.5001 0.4995 0.4989 0.4983
2852.000000 0.4977 0.4971 0.4965 0.4959 0.4953
2857.000000 0.4947 0.4942 0.4937 0.4932 0.4927
2862.000000 0.4922 0.4920 0.4918 0.4918 0.4919
2867.000000 0.4919 0.4920 0.4920 0.4921 0.4921
2872.000000 0.4922 0.4922 0.4923 0.4923 0.4924
2877.000000 0.4925 0.4926 0.4926 0.4927 0.4927
2882.000000 0.4927 0.4927 0.4927 0.4927 0.4927
2887.000000 0.4927 0.4928 0.4928 0.4928 0.4928
2892.000000 0.4928 0.4926 0.4924 0.4921 0.4918
2897.000000 0.4915 0.4912 0.4910 0.4907 0.4904
2902.000000 0.4902 0.4899 0.4896 0.4893 0.4891
2907.000000 0.4888 0.4885 0.4882 0.4879 0.4876
2912.000000 0.4874 0.4868 0.4862 0.4854 0.4847
2917.000000 0.4839 0.4832 0.4824 0.4817 0.4809
2922.000000 0.4802 0.4794 0.4787 0.4779 0.4772
2927.000000 0.4767 0.4762 0.4756 0.4751 0.4746
2932.000000 0.4741 0.4735 0.4730 0.4725 0.4720
2937.000000 0.4715 0.4710 0.4710 0.4710 0.4710
2942.000000 0.4710 0.4710 0.4710 0.4710 0.4710
2947.000000 0.4710 0.4710 0.4710 0.4710 0.4710
2952.000000 0.4712 0.4712 0.4712 0.4712 0.4712
2957.000000 0.4714 0.4715 0.4716 0.4717 0.4718
2962.000000 0.4719 0.4720 0.4721 0.4722 0.4724
2967.000000 0.4725 0.4726 0.4727 0.4727 0.4727
2972.000000 0.4727 0.4726 0.4725 0.4724 0.4723
2977.000000 0.4722 0.4722 0.4721 0.4720 0.4719
2982.000000 0.4718 0.4717 0.4716 0.4715 0.4714
2987.000000 0.4712 0.4712 0.4712 0.4710 0.4710
2992.000000 0.4709 0.4708 0.4708 0.4707 0.4706
2997.000000 0.4705 0.4705 0.4704 0.4704 0.4703
3002.000000 0.4702 0.4701 0.4701 0.4700 0.4699
3007.000000 0.4698 0.4698 0.4697 0.4697 0.4696
3012.000000 0.4695 0.4694 0.4694 0.4692 0.4691
3017.000000 0.4685 0.4680 0.4675 0.4670 0.4665
3022.000000 0.4660 0.4655 0.4650 0.4645 0.4640
3027.000000 0.4635 0.4630 0.4619 0.4608 0.4596
3032.000000 0.4585 0.4573 0.4560 0.4549 0.4537
3037.000000 0.4525 0.4512 0.4501 0.4489 0.4476
3042.000000 0.4464 0.4452 0.4440 0.4428 0.4416
3047.000000 0.4403 0.4390 0.4370 0.4350 0.4330
3052.000000 0.4310 0.4308 0.4308 0.4309 0.4312
3057.000000 0.4317 0.4322 0.4332 0.4342 0.4348
3062.000000 0.4354 0.4352 0.4351 0.4350 0.4349
3067.000000 0.4346 0.4343 0.4334 0.4326 0.4312
3072.000000 0.4299 0.4279 0.4259 0.4243 0.4228
3077.000000 0.4228 0.4228 0.4228 0.4228 0.4239
3082.000000 0.4243 0.4244 0.4245 0.4246 0.4247
3087.000000 0.4247 0.4247 0.4246 0.4246 0.4246
3092.000000 0.4246 0.4245 0.4245 0.4245 0.4245
3097.000000 0.4240 0.4236 0.4209 0.4182 0.4137
3102.000000 0.4093 0.4026 0.3959 0.3962 0.3997
3107.000000 0.3966 0.3968 0.3973 0.3979 0.4024
3112.000000 0.4068 0.4104 0.4139 0.4191 0.4244
3117.000000 0.4298 0.4352 0.4372 0.4393 0.4405
3122.000000 0.4418 0.4425 0.4432 0.4433 0.4435
3127.000000 0.4437 0.4439 0.4440 0.4442 0.4442
3132.000000 0.4443 0.4444 0.4445 0.4445 0.4446
3137.000000 0.4446 0.4447 0.4447 0.4447 0.4446
3142.000000 0.4446 0.4446 0.4446 0.4446 0.4446
3147.000000 0.4445 0.4445 0.4445 0.4445 0.4444
3152.000000 0.4444 0.4443 0.4443 0.4442 0.4442
3157.000000 0.4441 0.4441 0.4440 0.4440 0.4439
3162.000000 0.4439 0.4438 0.4438 0.4437 0.4437
3167.000000 0.4436 0.4436 0.4435 0.4385 0.4433
3172.000000 0.4433 0.4432 0.4431 0.4430 0.4430
3177.000000 0.4429 0.4428 0.4427 0.4427 0.4426
3182.000000 0.4425 0.4424 0.4424 0.4423 0.4422
3187.000000 0.4421 0.4421 0.4420 0.4419 0.4418
3192.000000 0.4418 0.4417 0.4416 0.4415 0.4415
3197.000000 0.4414 0.4414 0.4412 0.4412 0.4410
3202.000000 0.4410 0.4409 0.4408 0.4406 0.4405
3207.000000 0.4403 0.4402 0.4400 0.4399 0.4397
3212.000000 0.4396 0.4394 0.4392 0.4390 0.4389
3217.000000 0.4387 0.4386 0.4384 0.4383 0.4381
3222.000000 0.4380 0.4378 0.4377 0.4375 0.4374
3227.000000 0.4372 0.4370 0.4368 0.4366 0.4362
3232.000000 0.4360 0.4359 0.4357 0.4355 0.4353
3237.000000 0.4351 0.4349 0.4346 0.4344 0.4342
3242.000000 0.4340 0.4338 0.4336 0.4334 0.4332
3247.000000 0.4329 0.4327 0.4325 0.4323 0.4321
3252.000000 0.4319 0.4316 0.4314 0.4312 0.4310
3257.000000 0.4308 0.4306 0.4304 0.4302 0.4299
3262.000000 0.4297 0.4295 0.4293 0.4291 0.4289
3267.000000 0.4287 0.4285 0.4282 0.4280 0.4278
3272.000000 0.4276 0.4274 0.4272 0.4269 0.4267
3277.000000 0.4265 0.4262 0.4260 0.4258 0.4255
3282.000000 0.4252 0.4249 0.4246 0.4243 0.4240
3287.000000 0.4237 0.4234 0.4231 0.4228 0.4225
3292.000000 0.4222 0.4218 0.4215 0.4212 0.4209
3297.000000 0.4206 0.4203 0.4200 0.4197 0.4194
3302.000000 0.4191 0.4188 0.4185 0.4182 0.4179
3307.000000 0.4176 0.4173 0.4170 0.4167 0.4164
3312.000000 0.4160 0.4158 0.4155 0.4152 0.4149
3317.000000 0.4146 0.4143 0.4140 0.4137 0.4134
3322.000000 0.4131 0.4128 0.4125 0.4122 0.4119
3327.000000 0.4116 0.4112 0.4110 0.4107 0.4104
3332.000000 0.4101 0.4098 0.4095 0.4092 0.4089
3337.000000 0.4086 0.4082 0.4080 0.4077 0.4074
3342.000000 0.4071 0.4068 0.4064 0.4062 0.4059
3347.000000 0.4056 0.4053 0.4050 0.4047 0.4044
3352.000000 0.4042 0.4039 0.4037 0.4034 0.4032
3357.000000 0.4029 0.4027 0.4024 0.4022 0.4018
3362.000000 0.4016 0.4014 0.4012 0.4009 0.4007
3367.000000 0.4004 0.4002 0.3999 0.3997 0.3994
3372.000000 0.3992 0.3989 0.3987 0.3984 0.3982
3377.000000 0.3979 0.3977 0.3974 0.3972 0.3968
3382.000000 0.3966 0.3964 0.3962 0.3959 0.3957
3387.000000 0.3954 0.3952 0.3949 0.3947 0.3944
3392.000000 0.3942 0.3939 0.3937 0.3934 0.3932
3397.000000 0.3929 0.3927 0.3925 0.3923 0.3920
3402.000000 0.3918 0.3914 0.3912 0.3909 0.3908
3407.000000 0.3906 0.3905 0.3903 0.3900 0.3899
3412.000000 0.3897 0.3895 0.3894 0.3892 0.3890
3417.000000 0.3888 0.3887 0.3884 0.3882 0.3880
3422.000000 0.3879 0.3877 0.3876 0.3874 0.3872
3427.000000 0.3870 0.3868 0.3866 0.3864 0.3864
3432.000000 0.3866 0.3866 0.3866 0.3866 0.3868
3437.000000 0.3868 0.3868 0.3868 0.3870 0.3870
3442.000000 0.3871 0.3871 0.3872 0.3872 0.3873
3447.000000 0.3873 0.3873 0.3873 0.3873 0.3872
3452.000000 0.3871 0.3870 0.3868 0.3868 0.3866
3457.000000 0.3866 0.3866 0.3864 0.3864 0.3862
3462.000000 0.3862 0.3860 0.3859 0.3858 0.3856
3467.000000 0.3854 0.3853 0.3850 0.3849 0.3847
3472.000000 0.3845 0.3843 0.3841 0.3839 0.3838
3477.000000 0.3836 0.3834 0.3832 0.3830 0.3828
3482.000000 0.3826 0.3824 0.3822 0.3818 0.3816
3487.000000 0.3814 0.3812 0.3809 0.3807 0.3804
3492.000000 0.3802 0.3799 0.3797 0.3794 0.3792
3497.000000 0.3790 0.3788 0.3786 0.3784 0.3782
3502.000000 0.3780 0.3778 0.3776 0.3774 0.3772
3507.000000 0.3770 0.3768 0.3766 0.3764 0.3762
3512.000000 0.3759 0.3758 0.3756 0.3754 0.3752
3517.000000 0.3750 0.3748 0.3746 0.3744 0.3742
3522.000000 0.3740 0.3738 0.3736 0.3734 0.3732
3527.000000 0.3730 0.3728 0.3726 0.3724 0.3722
3532.000000 0.3720 0.3716 0.3714 0.3712 0.3710
3537.000000 0.3709 0.3707 0.3705 0.3703 0.3700
3542.000000 0.3698 0.3696 0.3694 0.3692 0.3690
3547.000000 0.3688 0.3686 0.3682 0.3680 0.3679
3552.000000 0.3677 0.3675 0.3673 0.3670 0.3668
3557.000000 0.3666 0.3664 0.3662 0.3659 0.3658
3562.000000 0.3656 0.3653 0.3650 0.3649 0.3647
3567.000000 0.3645 0.3643 0.3641 0.3639 0.3636
3572.000000 0.3634 0.3632 0.3630 0.3630 0.3629
3577.000000 0.3628 0.3627 0.3626 0.3625 0.3624
3582.000000 0.3623 0.3622 0.3621 0.3620 0.3618
3587.000000 0.3618 0.3616 0.3616 0.3614 0.3614
3592.000000 0.3612 0.3612 0.3610 0.3609 0.3609
3597.000000 0.3608 0.3607 0.3605 0.3604 0.3603
3602.000000 0.3602 0.3600 0.3600 0.3599 0.3598
3607.000000 0.3597 0.3596 0.3595 0.3594 0.3593
3612.000000 0.3592 0.3591 0.3590 0.3589 0.3588
3617.000000 0.3587 0.3586 0.3584 0.3584 0.3582
3622.000000 0.3582 0.3580 0.3580 0.3579 0.3578
3627.000000 0.3577 0.3576 0.3575 0.3574 0.3573
3632.000000 0.3572 0.3571 0.3570 0.3568 0.3568
3637.000000 0.3566 0.3566 0.3564 0.3564 0.3562
3642.000000 0.3560 0.3559 0.3557 0.3555 0.3553
3647.000000 0.3550 0.3550 0.3548 0.3546 0.3544
3652.000000 0.3543 0.3541 0.3539 0.3537 0.3536
3657.000000 0.3534 0.3532 0.3530 0.3528 0.3526
3662.000000 0.3525 0.3523 0.3521 0.3518 0.3518
3667.000000 0.3516 0.3514 0.3512 0.3509 0.3508
3672.000000 0.3507 0.3505 0.3503 0.3500 0.3500
3677.000000 0.3498 0.3496 0.3494 0.3493 0.3491
3682.000000 0.3489 0.3487 0.3484 0.3482 0.3482
3687.000000 0.3480 0.3478 0.3476 0.3475 0.3473
3692.000000 0.3471 0.3468 0.3466 0.3464 0.3462
3697.000000 0.3460 0.3459 0.3457 0.3455 0.3453
3702.000000 0.3450 0.3449 0.3447 0.3445 0.3443
3707.000000 0.3440 0.3438 0.3436 0.3434 0.3432
3712.000000 0.3430 0.3428 0.3426 0.3424 0.3422
3717.000000 0.3420 0.3418 0.3416 0.3414 0.3412
3722.000000 0.3409 0.3408 0.3406 0.3404 0.3402
3727.000000 0.3400 0.3398 0.3395 0.3393 0.3391
3732.000000 0.3389 0.3387 0.3384 0.3382 0.3380
3737.000000 0.3379 0.3377 0.3375 0.3373 0.3371
3742.000000 0.3368 0.3366 0.3364 0.3362 0.3360
3747.000000 0.3358 0.3356 0.3354 0.3352 0.3350
3752.000000 0.3348 0.3346 0.3344 0.3342 0.3340
3757.000000 0.3338 0.3336 0.3332 0.3330 0.3329
3762.000000 0.3327 0.3325 0.3323 0.3321 0.3318
3767.000000 0.3316 0.3314 0.3312 0.3309 0.3308
3772.000000 0.3307 0.3305 0.3303 0.3300 0.3300
3777.000000 0.3298 0.3296 0.3294 0.3293 0.3291
3782.000000 0.3289 0.3287 0.3284 0.3282 0.3282
3787.000000 0.3280 0.3278 0.3276 0.3275 0.3273
3792.000000 0.3271 0.3268 0.3268 0.3266 0.3264
3797.000000 0.3262 0.3262
##END=
