##TITLE=Benzoic acid
##JCAMP-DX=4.24
$$ By DXEDIT 1.05 (RS McDonald)
##DATA TYPE=INFRARED SPECTRUM
##CLASS=COBLENTZ III
##ORIGIN=DOW CHEMICAL COMPANY
##OWNER=COPYRIGHT (C) 1988 by COBLENTZ SOCIETY INC.
Collection (C) 2018 copyright by the U.S. Secretary of Commerce
on behalf of the United States of America. All rights reserved.
##DATE=1965/03/02
##CAS REGISTRY NO=65-85-0
##MOLFORM=C7 H6 O2
##SOURCE REFERENCE=COBLENTZ NO. 06267
##$NIST SOURCE=COBLENTZ
##$NIST IMAGE=cob6267
##SPECTROMETER/DATA SYSTEM=DOW KBr FOREPRISM-GRATING
##INSTRUMENT PARAMETERS=BLAZED AT 3.5, 12.0, 20.0 MICRON AND CHANGED AT 5.0, 7.5, 14.9 MICRON
##STATE=SOLID (SPLIT MULL)
##SAMPLING PROCEDURE=TRANSMISSION
##RESOLUTION=2
##DATA PROCESSING=DIGITIZED BY COBLENTZ SOCIETY (BATCH I) FROM HARD COPY
##XUNITS=1/CM
##YUNITS=TRANSMITTANCE
##XFACTOR=1
##YFACTOR=1
##DELTAX=1
##FIRSTX=3816
##LASTX=453
##FIRSTY=0.7781
##MAXX=3816
##MINX=453
##MAXY=0.8887
##MINY=0.0762
##NPOINTS=3364
##XYDATA=(X++(Y..Y))
3816.000000 0.7781 0.7781 0.7782 0.7782 0.7782
3811.000000 0.7782 0.7783 0.7783 0.7783 0.7783
3806.000000 0.7784 0.7784 0.7784 0.7784 0.7785
3801.000000 0.7785 0.7785 0.7785 0.7786 0.7786
3796.000000 0.7786 0.7786 0.7786 0.7786 0.7786
3791.000000 0.7785 0.7785 0.7787 0.7789 0.7790
3786.000000 0.7792 0.7794 0.7796 0.7798 0.7800
3781.000000 0.7801 0.7804 0.7806 0.7808 0.7811
3776.000000 0.7814 0.7815 0.7818 0.7819 0.7822
3771.000000 0.7825 0.7826 0.7828 0.7832 0.7834
3766.000000 0.7837 0.7839 0.7841 0.7842 0.7843
3761.000000 0.7844 0.7845 0.7846 0.7847 0.7848
3756.000000 0.7850 0.7851 0.7851 0.7853 0.7854
3751.000000 0.7855 0.7856 0.7857 0.7858 0.7860
3746.000000 0.7861 0.7861 0.7864 0.7865 0.7865
3741.000000 0.7867 0.7868 0.7868 0.7868 0.7868
3736.000000 0.7868 0.7868 0.7868 0.7868 0.7868
3731.000000 0.7868 0.7868 0.7868 0.7868 0.7867
3726.000000 0.7867 0.7865 0.7865 0.7864 0.7864
3721.000000 0.7862 0.7861 0.7861 0.7860 0.7858
3716.000000 0.7858 0.7857 0.7856 0.7856 0.7856
3711.000000 0.7856 0.7856 0.7856 0.7856 0.7856
3706.000000 0.7857 0.7857 0.7857 0.7857 0.7857
3701.000000 0.7858 0.7860 0.7862 0.7865 0.7868
3696.000000 0.7871 0.7872 0.7875 0.7878 0.7882
3691.000000 0.7884 0.7887 0.7889 0.7892 0.7895
3686.000000 0.7898 0.7900 0.7903 0.7904 0.7906
3681.000000 0.7908 0.7910 0.7911 0.7914 0.7915
3676.000000 0.7917 0.7918 0.7921 0.7921 0.7924
3671.000000 0.7925 0.7928 0.7928 0.7931 0.7932
3666.000000 0.7933 0.7934 0.7936 0.7937 0.7938
3661.000000 0.7939 0.7941 0.7942 0.7943 0.7944
3656.000000 0.7945 0.7946 0.7947 0.7948 0.7949
3651.000000 0.7950 0.7951 0.7951 0.7953 0.7954
3646.000000 0.7955 0.7955 0.7956 0.7956 0.7956
3641.000000 0.7956 0.7957 0.7957 0.7958 0.7958
3636.000000 0.7958 0.7958 0.7960 0.7960 0.7960
3631.000000 0.7961 0.7961 0.7962 0.7965 0.7965
3626.000000 0.7967 0.7968 0.7969 0.7971 0.7972
3621.000000 0.7974 0.7975 0.7975 0.7978 0.7978
3616.000000 0.7980 0.7981 0.7983 0.7984 0.7985
3611.000000 0.7986 0.7988 0.7989 0.7990 0.7992
3606.000000 0.7995 0.7996 0.7998 0.7999 0.8000
3601.000000 0.8000 0.8001 0.8000 0.7998 0.7993
3596.000000 0.7988 0.7983 0.7978 0.7974 0.7969
3591.000000 0.7965 0.7961 0.7957 0.7953 0.7954
3586.000000 0.7956 0.7957 0.7958 0.7960 0.7961
3581.000000 0.7964 0.7965 0.7968 0.7971 0.7972
3576.000000 0.7975 0.7978 0.7980 0.7982 0.7985
3571.000000 0.7987 0.7989 0.7991 0.7993 0.7994
3566.000000 0.7996 0.7998 0.8000 0.8001 0.8003
3561.000000 0.8004 0.8006 0.8006 0.8007 0.8007
3556.000000 0.8008 0.8008 0.8008 0.8008 0.8010
3551.000000 0.8010 0.8011 0.8011 0.8011 0.8011
3546.000000 0.8012 0.8012 0.8012 0.8012 0.8014
3541.000000 0.8014 0.8015 0.8015 0.8015 0.8015
3536.000000 0.8015 0.8015 0.8017 0.8017 0.8017
3531.000000 0.8017 0.8018 0.8018 0.8018 0.8018
3526.000000 0.8018 0.8018 0.8018 0.8018 0.8019
3521.000000 0.8019 0.8021 0.8021 0.8022 0.8022
3516.000000 0.8024 0.8025 0.8025 0.8025 0.8026
3511.000000 0.8028 0.8028 0.8028 0.8030 0.8031
3506.000000 0.8032 0.8033 0.8034 0.8034 0.8035
3501.000000 0.8036 0.8037 0.8038 0.8040 0.8041
3496.000000 0.8043 0.8045 0.8047 0.8048 0.8050
3491.000000 0.8051 0.8054 0.8056 0.8058 0.8060
3486.000000 0.8061 0.8064 0.8065 0.8068 0.8069
3481.000000 0.8071 0.8075 0.8076 0.8078 0.8081
3476.000000 0.8083 0.8085 0.8088 0.8090 0.8093
3471.000000 0.8095 0.8097 0.8097 0.8098 0.8098
3466.000000 0.8099 0.8099 0.8100 0.8101 0.8101
3461.000000 0.8101 0.8103 0.8103 0.8104 0.8104
3456.000000 0.8105 0.8106 0.8107 0.8107 0.8108
3451.000000 0.8108 0.8108 0.8108 0.8108 0.8108
3446.000000 0.8110 0.8110 0.8110 0.8110 0.8111
3441.000000 0.8111 0.8111 0.8111 0.8112 0.8114
3436.000000 0.8115 0.8115 0.8115 0.8117 0.8118
3431.000000 0.8118 0.8118 0.8119 0.8121 0.8121
3426.000000 0.8122 0.8124 0.8125 0.8125 0.8126
3421.000000 0.8126 0.8128 0.8128 0.8128 0.8128
3416.000000 0.8128 0.8128 0.8128 0.8128 0.8128
3411.000000 0.8128 0.8128 0.8128 0.8128 0.8128
3406.000000 0.8128 0.8128 0.8128 0.8128 0.8128
3401.000000 0.8126 0.8126 0.8126 0.8126 0.8126
3396.000000 0.8126 0.8125 0.8125 0.8124 0.8122
3391.000000 0.8121 0.8121 0.8119 0.8119 0.8118
3386.000000 0.8128 0.8115 0.8115 0.8114 0.8114
3381.000000 0.8112 0.8111 0.8111 0.8111 0.8110
3376.000000 0.8108 0.8108 0.8108 0.8107 0.8106
3371.000000 0.8105 0.8104 0.8103 0.8101 0.8101
3366.000000 0.8100 0.8099 0.8098 0.8097 0.8097
3361.000000 0.8096 0.8096 0.8095 0.8095 0.8094
3356.000000 0.8094 0.8093 0.8093 0.8092 0.8091
3351.000000 0.8090 0.8089 0.8088 0.8087 0.8086
3346.000000 0.8085 0.8081 0.8076 0.8071 0.8067
3341.000000 0.8061 0.8058 0.8053 0.8049 0.8045
3336.000000 0.8042 0.8038 0.8034 0.8030 0.8026
3331.000000 0.8022 0.8019 0.8015 0.8011 0.8008
3326.000000 0.8005 0.8001 0.7997 0.7995 0.7994
3321.000000 0.7992 0.7991 0.7989 0.7988 0.7986
3316.000000 0.7985 0.7983 0.7982 0.7980 0.7978
3311.000000 0.7975 0.7972 0.7968 0.7965 0.7961
3306.000000 0.7958 0.7955 0.7951 0.7947 0.7944
3301.000000 0.7940 0.7936 0.7932 0.7928 0.7925
3296.000000 0.7921 0.7917 0.7914 0.7908 0.7905
3291.000000 0.7900 0.7896 0.7891 0.7887 0.7882
3286.000000 0.7876 0.7871 0.7868 0.7862 0.7858
3281.000000 0.7854 0.7850 0.7845 0.7841 0.7836
3276.000000 0.7832 0.7826 0.7822 0.7818 0.7814
3271.000000 0.7808 0.7804 0.7799 0.7795 0.7790
3266.000000 0.7786 0.7781 0.7776 0.7771 0.7767
3261.000000 0.7761 0.7758 0.7753 0.7749 0.7744
3256.000000 0.7740 0.7735 0.7731 0.7725 0.7721
3251.000000 0.7715 0.7711 0.7706 0.7701 0.7696
3246.000000 0.7691 0.7686 0.7681 0.7675 0.7671
3241.000000 0.7665 0.7660 0.7654 0.7649 0.7643
3236.000000 0.7637 0.7631 0.7625 0.7619 0.7615
3231.000000 0.7608 0.7603 0.7597 0.7591 0.7585
3226.000000 0.7578 0.7572 0.7567 0.7560 0.7554
3221.000000 0.7548 0.7542 0.7536 0.7530 0.7524
3216.000000 0.7518 0.7511 0.7504 0.7495 0.7487
3211.000000 0.7478 0.7468 0.7460 0.7451 0.7443
3206.000000 0.7435 0.7425 0.7418 0.7408 0.7401
3201.000000 0.7392 0.7384 0.7375 0.7367 0.7358
3196.000000 0.7350 0.7340 0.7331 0.7321 0.7311
3191.000000 0.7301 0.7292 0.7282 0.7272 0.7262
3186.000000 0.7254 0.7244 0.7235 0.7225 0.7215
3181.000000 0.7204 0.7194 0.7183 0.7171 0.7161
3176.000000 0.7150 0.7139 0.7128 0.7118 0.7107
3171.000000 0.7096 0.7086 0.7075 0.7064 0.7051
3166.000000 0.7038 0.7025 0.7011 0.6999 0.6987
3161.000000 0.6974 0.6961 0.6948 0.6935 0.6921
3156.000000 0.6910 0.6897 0.6885 0.6872 0.6861
3151.000000 0.6849 0.6837 0.6825 0.6812 0.6801
3146.000000 0.6790 0.6776 0.6765 0.6751 0.6739
3141.000000 0.6725 0.6712 0.6700 0.6687 0.6674
3136.000000 0.6661 0.6648 0.6635 0.6621 0.6610
3131.000000 0.6597 0.6584 0.6571 0.6558 0.6545
3126.000000 0.6532 0.6518 0.6505 0.6491 0.6476
3121.000000 0.6462 0.6450 0.6436 0.6422 0.6408
3116.000000 0.6395 0.6378 0.6362 0.6346 0.6330
3111.000000 0.6314 0.6298 0.6281 0.6265 0.6247
3106.000000 0.6229 0.6210 0.6193 0.6175 0.6157
3101.000000 0.6140 0.6124 0.6108 0.6092 0.6076
3096.000000 0.6060 0.6045 0.6030 0.6016 0.6002
3091.000000 0.5990 0.5978 0.5966 0.5954 0.5942
3086.000000 0.5930 0.5917 0.5905 0.5821 0.5737
3081.000000 0.5590 0.5443 0.5296 0.5009 0.5100
3076.000000 0.5052 0.5059 0.5066 0.5126 0.5186
3071.000000 0.5245 0.5305 0.5344 0.5383 0.5393
3066.000000 0.5404 0.5424 0.5445 0.5485 0.5525
3061.000000 0.5559 0.5593 0.5609 0.5625 0.5631
3056.000000 0.5637 0.5641 0.5646 0.5648 0.5670
3051.000000 0.5652 0.5652 0.5651 0.5649 0.5644
3046.000000 0.5640 0.5628 0.5616 0.5598 0.5580
3041.000000 0.5562 0.5545 0.5527 0.5510 0.5493
3036.000000 0.5476 0.5460 0.5444 0.5428 0.5412
3031.000000 0.5397 0.5382 0.5367 0.5353 0.5339
3026.000000 0.5326 0.5312 0.5300 0.5289 0.5279
3021.000000 0.5268 0.5258 0.5249 0.5241 0.5234
3016.000000 0.5228 0.5223 0.5219 0.5216 0.5212
3011.000000 0.5210 0.5208 0.5205 0.5203 0.5202
3006.000000 0.5202 0.5202 0.5202 0.5203 0.5205
3001.000000 0.5206 0.5208 0.5210 0.5214 0.5217
2996.000000 0.5221 0.5224 0.5228 0.5231 0.5234
2991.000000 0.5236 0.5239 0.5241 0.5243 0.5244
2986.000000 0.5246 0.5248 0.5250 0.5251 0.5253
2981.000000 0.5253 0.5254 0.5254 0.5255 0.5255
2976.000000 0.5255 0.5255 0.5255 0.5255 0.5255
2971.000000 0.5255 0.5255 0.5255 0.5255 0.5254
2966.000000 0.5254 0.5254 0.5254 0.5254 0.5254
2961.000000 0.5253 0.5252 0.5251 0.5250 0.5248
2956.000000 0.5247 0.5247 0.5247 0.5248 0.5249
2951.000000 0.5250 0.5251 0.5253 0.5256 0.5262
2946.000000 0.5269 0.5276 0.5283 0.5290 0.5298
2941.000000 0.5305 0.5312 0.5319 0.5326 0.5331
2936.000000 0.5336 0.5340 0.5345 0.5349 0.5353
2931.000000 0.5357 0.5362 0.5362 0.5364 0.5365
2926.000000 0.5366 0.5367 0.5368 0.5368 0.5368
2921.000000 0.5364 0.5360 0.5356 0.5352 0.5347
2916.000000 0.5343 0.5337 0.5331 0.5325 0.5320
2911.000000 0.5314 0.5309 0.5297 0.5286 0.5275
2906.000000 0.5264 0.5253 0.5242 0.5230 0.5219
2901.000000 0.5207 0.5195 0.5182 0.5170 0.5159
2896.000000 0.5148 0.5137 0.5126 0.5115 0.5105
2891.000000 0.5095 0.5085 0.5077 0.5070 0.5062
2886.000000 0.5056 0.5052 0.5049 0.5047 0.5022
2881.000000 0.5044 0.5043 0.5041 0.5040 0.5039
2876.000000 0.5038 0.5036 0.5035 0.5053 0.5072
2871.000000 0.5085 0.5099 0.5105 0.5112 0.5117
2866.000000 0.5123 0.5127 0.5132 0.5133 0.5134
2861.000000 0.5134 0.5134 0.5134 0.5134 0.5131
2856.000000 0.5128 0.5118 0.5108 0.5081 0.5055
2851.000000 0.5038 0.5022 0.5006 0.4990 0.4975
2846.000000 0.4960 0.4954 0.4948 0.4943 0.4938
2841.000000 0.4934 0.4930 0.4929 0.4928 0.4927
2836.000000 0.4927 0.4927 0.4927 0.4936 0.4945
2831.000000 0.4956 0.4968 0.4983 0.4998 0.5014
2826.000000 0.5030 0.5053 0.5077 0.5101 0.5126
2821.000000 0.5156 0.5187 0.5216 0.5246 0.5274
2816.000000 0.5302 0.5325 0.5348 0.5368 0.5388
2811.000000 0.5407 0.5427 0.5446 0.5466 0.5484
2806.000000 0.5502 0.5519 0.5536 0.5553 0.5571
2801.000000 0.5588 0.5606 0.5622 0.5639 0.5654
2796.000000 0.5670 0.5686 0.5702 0.5717 0.5733
2791.000000 0.5749 0.5765 0.5781 0.5797 0.5810
2786.000000 0.5826 0.5840 0.5854 0.5868 0.5883
2781.000000 0.5897 0.5912 0.5926 0.5941 0.5952
2776.000000 0.5964 0.5976 0.5988 0.6000 0.6012
2771.000000 0.6024 0.6036 0.6048 0.6060 0.6071
2766.000000 0.6083 0.6095 0.6107 0.6119 0.6131
2761.000000 0.6142 0.6154 0.6165 0.6177 0.6187
2756.000000 0.6198 0.6208 0.6218 0.6229 0.6241
2751.000000 0.6254 0.6268 0.6281 0.6294 0.6306
2746.000000 0.6318 0.6326 0.6334 0.6340 0.6347
2741.000000 0.6350 0.6354 0.6355 0.6341 0.6348
2736.000000 0.6339 0.6329 0.6320 0.6305 0.6291
2731.000000 0.6276 0.6262 0.6248 0.6235 0.6224
2726.000000 0.6214 0.6210 0.6209 0.6208 0.6210
2721.000000 0.6210 0.6212 0.6236 0.6260 0.6273
2716.000000 0.6286 0.6298 0.6310 0.6322 0.6333
2711.000000 0.6338 0.6344 0.6346 0.6349 0.6349
2706.000000 0.6349 0.6349 0.6349 0.6305 0.6262
2701.000000 0.6185 0.6108 0.6065 0.6023 0.5986
2696.000000 0.5949 0.5909 0.5870 0.5816 0.5762
2691.000000 0.5719 0.5677 0.5638 0.5599 0.5568
2686.000000 0.5538 0.5508 0.5478 0.5453 0.5428
2681.000000 0.5409 0.5390 0.5382 0.5375 0.5368
2676.000000 0.5362 0.5357 0.5353 0.5353 0.5353
2671.000000 0.5354 0.5355 0.5356 0.5357 0.5364
2666.000000 0.5372 0.5380 0.5388 0.5395 0.5403
2661.000000 0.5410 0.5419 0.5430 0.5442 0.5454
2656.000000 0.5467 0.5481 0.5495 0.5509 0.5524
2651.000000 0.5538 0.5553 0.5569 0.5586 0.5602
2646.000000 0.5618 0.5634 0.5651 0.5671 0.5691
2641.000000 0.5715 0.5739 0.5760 0.5783 0.5802
2636.000000 0.5821 0.5840 0.5859 0.5879 0.5900
2631.000000 0.5922 0.5944 0.5962 0.5983 0.5995
2626.000000 0.6007 0.6014 0.6022 0.6026 0.6031
2621.000000 0.6032 0.6034 0.6034 0.6034 0.6034
2616.000000 0.6033 0.6023 0.6012 0.5997 0.5982
2611.000000 0.5964 0.5946 0.5927 0.5909 0.5888
2606.000000 0.5868 0.5857 0.5847 0.5845 0.5843
2601.000000 0.5848 0.5854 0.5873 0.5893 0.5932
2596.000000 0.5971 0.5995 0.6019 0.6027 0.6035
2591.000000 0.6042 0.6049 0.6054 0.6060 0.6062
2586.000000 0.6067 0.6069 0.6100 0.6072 0.6073
2581.000000 0.6062 0.6051 0.6021 0.5991 0.5940
2576.000000 0.5890 0.5850 0.5810 0.5731 0.5651
2571.000000 0.5581 0.5512 0.5470 0.5429 0.5399
2566.000000 0.5370 0.5358 0.5333 0.5343 0.5341
2561.000000 0.5338 0.5336 0.5336 0.5336 0.5337
2556.000000 0.5339 0.5342 0.5345 0.5353 0.5362
2551.000000 0.5379 0.5396 0.5431 0.5466 0.5500
2546.000000 0.5535 0.5559 0.5584 0.5608 0.5632
2541.000000 0.5654 0.5677 0.5698 0.5720 0.5742
2536.000000 0.5764 0.5785 0.5807 0.5827 0.5848
2531.000000 0.5867 0.5887 0.5906 0.5926 0.5945
2526.000000 0.5965 0.5984 0.6003 0.6022 0.6041
2521.000000 0.6064 0.6087 0.6110 0.6134 0.6157
2516.000000 0.6181 0.6198 0.6215 0.6230 0.6245
2511.000000 0.6260 0.6275 0.6290 0.6305 0.6320
2506.000000 0.6335 0.6349 0.6364 0.6379 0.6394
2501.000000 0.6408 0.6424 0.6437 0.6451 0.6465
2496.000000 0.6478 0.6492 0.6506 0.6514 0.6522
2491.000000 0.6532 0.6541 0.6549 0.6558 0.6565
2486.000000 0.6575 0.6584 0.6593 0.6605 0.6617
2481.000000 0.6628 0.6640 0.6651 0.6662 0.6674
2476.000000 0.6686 0.6697 0.6708 0.6719 0.6732
2471.000000 0.6743 0.6754 0.6765 0.6775 0.6786
2466.000000 0.6797 0.6807 0.6818 0.6828 0.6839
2461.000000 0.6848 0.6858 0.6865 0.6872 0.6880
2456.000000 0.6888 0.6896 0.6904 0.6911 0.6918
2451.000000 0.6925 0.6932 0.6941 0.6951 0.6960
2446.000000 0.6968 0.6975 0.6983 0.6989 0.6996
2441.000000 0.7001 0.7008 0.7015 0.7022 0.7028
2436.000000 0.7036 0.7043 0.7050 0.7056 0.7062
2431.000000 0.7069 0.7076 0.7084 0.7091 0.7098
2426.000000 0.7105 0.7111 0.7118 0.7125 0.7133
2421.000000 0.7140 0.7148 0.7155 0.7161 0.7168
2416.000000 0.7176 0.7184 0.7192 0.7199 0.7207
2411.000000 0.7214 0.7221 0.7228 0.7237 0.7244
2406.000000 0.7251 0.7260 0.7268 0.7275 0.7283
2401.000000 0.7291 0.7299 0.7307 0.7315 0.7321
2396.000000 0.7330 0.7338 0.7346 0.7354 0.7361
2391.000000 0.7368 0.7376 0.7384 0.7391 0.7398
2386.000000 0.7405 0.7411 0.7419 0.7425 0.7433
2381.000000 0.7438 0.7444 0.7450 0.7456 0.7461
2376.000000 0.7467 0.7471 0.7478 0.7483 0.7488
2371.000000 0.7493 0.7499 0.7505 0.7511 0.7518
2366.000000 0.7524 0.7528 0.7533 0.7534 0.7536
2361.000000 0.7537 0.7538 0.7538 0.7538 0.7538
2356.000000 0.7539 0.7539 0.7540 0.7540 0.7541
2351.000000 0.7541 0.7542 0.7546 0.7550 0.7554
2346.000000 0.7558 0.7562 0.7567 0.7571 0.7575
2341.000000 0.7581 0.7586 0.7590 0.7595 0.7599
2336.000000 0.7604 0.7608 0.7612 0.7617 0.7621
2331.000000 0.7625 0.7631 0.7633 0.7636 0.7638
2326.000000 0.7640 0.7642 0.7645 0.7647 0.7650
2321.000000 0.7651 0.7654 0.7656 0.7658 0.7661
2316.000000 0.7665 0.7669 0.7674 0.7678 0.7682
2311.000000 0.7685 0.7689 0.7693 0.7697 0.7704
2306.000000 0.7711 0.7718 0.7726 0.7732 0.7737
2301.000000 0.7742 0.7747 0.7747 0.7748 0.7749
2296.000000 0.7750 0.7750 0.7751 0.7751 0.7753
2291.000000 0.7758 0.7764 0.7769 0.7775 0.7782
2286.000000 0.7789 0.7795 0.7801 0.7806 0.7811
2281.000000 0.7817 0.7821 0.7826 0.7833 0.7838
2276.000000 0.7843 0.7847 0.7851 0.7854 0.7858
2271.000000 0.7861 0.7865 0.7865 0.7865 0.7868
2266.000000 0.7871 0.7875 0.7878 0.7883 0.7887
2261.000000 0.7891 0.7895 0.7898 0.7901 0.7908
2256.000000 0.7914 0.7918 0.7925 0.7931 0.7937
2251.000000 0.7943 0.7949 0.7955 0.7961 0.7967
2246.000000 0.7972 0.7978 0.7985 0.7991 0.7997
2241.000000 0.8003 0.8008 0.8015 0.8021 0.8026
2236.000000 0.8034 0.8040 0.8046 0.8051 0.8058
2231.000000 0.8065 0.8071 0.8076 0.8084 0.8090
2226.000000 0.8097 0.8103 0.8110 0.8115 0.8122
2221.000000 0.8128 0.8136 0.8142 0.8149 0.8155
2216.000000 0.8161 0.8165 0.8171 0.8176 0.8183
2211.000000 0.8187 0.8192 0.8195 0.8199 0.8203
2206.000000 0.8207 0.8210 0.8213 0.8216 0.8218
2201.000000 0.8221 0.8224 0.8224 0.8225 0.8225
2196.000000 0.8225 0.8225 0.8227 0.8228 0.8230
2191.000000 0.8231 0.8233 0.8234 0.8236 0.8237
2186.000000 0.8239 0.8240 0.8242 0.8244 0.8246
2181.000000 0.8248 0.8250 0.8252 0.8254 0.8257
2176.000000 0.8260 0.8264 0.8268 0.8274 0.8278
2171.000000 0.8284 0.8289 0.8294 0.8299 0.8304
2166.000000 0.8309 0.8314 0.8318 0.8324 0.8330
2161.000000 0.8335 0.8341 0.8346 0.8351 0.8356
2156.000000 0.8361 0.8365 0.8370 0.8374 0.8378
2151.000000 0.8383 0.8387 0.8391 0.8396 0.8400
2146.000000 0.8404 0.8407 0.8411 0.8415 0.8418
2141.000000 0.8421 0.8425 0.8428 0.8431 0.8433
2136.000000 0.8435 0.8436 0.8437 0.8437 0.8438
2131.000000 0.8438 0.8439 0.8440 0.8441 0.8441
2126.000000 0.8442 0.8442 0.8443 0.8444 0.8445
2121.000000 0.8445 0.8446 0.8446 0.8447 0.8447
2116.000000 0.8448 0.8448 0.8449 0.8449 0.8449
2111.000000 0.8449 0.8449 0.8447 0.8446 0.8444
2106.000000 0.8442 0.8440 0.8439 0.8437 0.8435
2101.000000 0.8433 0.8431 0.8428 0.8428 0.8420
2096.000000 0.8412 0.8396 0.8380 0.8360 0.8340
2091.000000 0.8335 0.8330 0.8328 0.8327 0.8338
2086.000000 0.8350 0.8364 0.8378 0.8392 0.8407
2081.000000 0.8418 0.8430 0.8439 0.8449 0.8458
2076.000000 0.8467 0.8475 0.8486 0.8495 0.8505
2071.000000 0.8514 0.8523 0.8531 0.8540 0.8546
2066.000000 0.8552 0.8558 0.8565 0.8571 0.8577
2061.000000 0.8583 0.8589 0.8592 0.8595 0.8598
2056.000000 0.8601 0.8604 0.8607 0.8610 0.8613
2051.000000 0.8616 0.8618 0.8621 0.8624 0.8625
2046.000000 0.8627 0.8628 0.8630 0.8631 0.8633
2041.000000 0.8634 0.8636 0.8638 0.8640 0.8641
2036.000000 0.8642 0.8642 0.8643 0.8643 0.8644
2031.000000 0.8644 0.8645 0.8645 0.8646 0.8646
2026.000000 0.8646 0.8646 0.8647 0.8647 0.8648
2021.000000 0.8648 0.8649 0.8649 0.8650 0.8650
2016.000000 0.8651 0.8651 0.8652 0.8652 0.8652
2011.000000 0.8652 0.8651 0.8651 0.8649 0.8645
2006.000000 0.8642 0.8639 0.8636 0.8632 0.8628
2001.000000 0.8620 0.8611 0.8600 0.8583 0.8564
1996.000000 0.8541 0.8518 0.8496 0.8481 0.8482
1991.000000 0.8482 0.8490 0.8499 0.8505 0.8511
1986.000000 0.8517 0.8523 0.8527 0.8528 0.8528
1981.000000 0.8536 0.8544 0.8553 0.8561 0.8566
1976.000000 0.8566 0.8566 0.8565 0.8564 0.8558
1971.000000 0.8547 0.8536 0.8524 0.8512 0.8512
1966.000000 0.8513 0.8528 0.8543 0.8559 0.8570
1961.000000 0.8578 0.8588 0.8594 0.8598 0.8601
1956.000000 0.8605 0.8605 0.8604 0.8599 0.8593
1951.000000 0.8587 0.8584 0.8582 0.8578 0.8577
1946.000000 0.8575 0.8574 0.8571 0.8571 0.8570
1941.000000 0.8570 0.8568 0.8562 0.8549 0.8536
1936.000000 0.8518 0.8501 0.8482 0.8463 0.8445
1931.000000 0.8428 0.8415 0.8409 0.8405 0.8405
1926.000000 0.8405 0.8405 0.8404 0.8398 0.8390
1921.000000 0.8382 0.8371 0.8356 0.8340 0.8325
1916.000000 0.8311 0.8297 0.8283 0.8268 0.8254
1911.000000 0.8240 0.8241 0.8242 0.8268 0.8294
1906.000000 0.8321 0.8335 0.8349 0.8363 0.8377
1901.000000 0.8391 0.8405 0.8418 0.8432 0.8438
1896.000000 0.8443 0.8448 0.8452 0.8457 0.8462
1891.000000 0.8467 0.8471 0.8474 0.8475 0.8478
1886.000000 0.8480 0.8482 0.8485 0.8487 0.8489
1881.000000 0.8491 0.8493 0.8495 0.8497 0.8498
1876.000000 0.8500 0.8502 0.8504 0.8506 0.8507
1871.000000 0.8509 0.8511 0.8513 0.8514 0.8515
1866.000000 0.8516 0.8517 0.8518 0.8520 0.8524
1861.000000 0.8527 0.8531 0.8534 0.8538 0.8541
1856.000000 0.8545 0.8548 0.8552 0.8555 0.8559
1851.000000 0.8562 0.8566 0.8567 0.8567 0.8568
1846.000000 0.8568 0.8568 0.8568 0.8564 0.8560
1841.000000 0.8556 0.8552 0.8548 0.8544 0.8540
1836.000000 0.8536 0.8534 0.8531 0.8527 0.8523
1831.000000 0.8518 0.8512 0.8503 0.8491 0.8480
1826.000000 0.8465 0.8449 0.8433 0.8417 0.8402
1821.000000 0.8390 0.8384 0.8385 0.8386 0.8388
1816.000000 0.8392 0.8397 0.8401 0.8406 0.8410
1811.000000 0.8415 0.8420 0.8425 0.8425 0.8423
1806.000000 0.8420 0.8417 0.8409 0.8400 0.8391
1801.000000 0.8381 0.8371 0.8362 0.8353 0.8342
1796.000000 0.8325 0.8310 0.8288 0.8265 0.8245
1791.000000 0.8228 0.8213 0.8199 0.8186 0.8174
1786.000000 0.8167 0.8160 0.8160 0.8158 0.8167
1781.000000 0.8183 0.8198 0.8217 0.8237 0.8257
1776.000000 0.8277 0.8295 0.8308 0.8321 0.8335
1771.000000 0.8348 0.8361 0.8373 0.8385 0.8399
1766.000000 0.8414 0.8428 0.8441 0.8453 0.8466
1761.000000 0.8474 0.8481 0.8489 0.8496 0.8498
1756.000000 0.8498 0.8498 0.8497 0.8497 0.8487
1751.000000 0.8474 0.8453 0.8428 0.8404 0.8378
1746.000000 0.8355 0.8341 0.8327 0.8323 0.8325
1741.000000 0.8343 0.8361 0.8378 0.8399 0.8420
1736.000000 0.8440 0.8453 0.8464 0.8466 0.8457
1731.000000 0.8423 0.8390 0.8345 0.8299 0.8221
1726.000000 0.8096 0.8008 0.7926 0.7815 0.7696
1721.000000 0.7512 0.7337 0.7193 0.7041 0.6800
1716.000000 0.6209 0.6050 0.5932 0.5814 0.5417
1711.000000 0.5166 0.4940 0.4742 0.4477 0.4145
1706.000000 0.3812 0.3480 0.3148 0.2816 0.2497
1701.000000 0.1810 0.1707 0.1596 0.1494 0.1418
1696.000000 0.1330 0.1259 0.1203 0.1151 0.1087
1691.000000 0.1009 0.0879 0.0837 0.0808 0.0784
1686.000000 0.0770 0.0776 0.0765 0.0762 0.0771
1681.000000 0.0805 0.1030 0.1405 0.1609 0.1789
1676.000000 0.2003 0.2217 0.2459 0.3026 0.3273
1671.000000 0.3454 0.3992 0.4167 0.4352 0.4601
1666.000000 0.4827 0.5054 0.5280 0.5616 0.6042
1661.000000 0.6172 0.6316 0.6498 0.6651 0.6735
1656.000000 0.6818 0.6875 0.6931 0.6987 0.7045
1651.000000 0.7119 0.7195 0.7269 0.7351 0.7432
1646.000000 0.7510 0.7586 0.7651 0.7711 0.7771
1641.000000 0.7831 0.7888 0.7941 0.7985 0.8021
1636.000000 0.8058 0.8096 0.8122 0.8150 0.8175
1631.000000 0.8203 0.8224 0.8243 0.8264 0.8278
1626.000000 0.8287 0.8287 0.8287 0.8284 0.8263
1621.000000 0.8240 0.8204 0.8119 0.8036 0.7951
1616.000000 0.7880 0.7878 0.7925 0.8001 0.8078
1611.000000 0.8156 0.8167 0.8168 0.8053 0.7837
1606.000000 0.7619 0.7403 0.7187 0.6969 0.6753
1601.000000 0.6537 0.6353 0.6350 0.6367 0.6580
1596.000000 0.6792 0.7005 0.7217 0.7430 0.7642
1591.000000 0.7855 0.8068 0.8154 0.8210 0.8182
1586.000000 0.8191 0.7896 0.7255 0.6614 0.6055
1581.000000 0.6056 0.6056 0.6062 0.6431 0.6800
1576.000000 0.7168 0.7348 0.7458 0.7547 0.7632
1571.000000 0.7693 0.7740 0.7787 0.7834 0.7880
1566.000000 0.7925 0.7969 0.8014 0.8057 0.8091
1561.000000 0.8117 0.8144 0.8168 0.8194 0.8214
1556.000000 0.8227 0.8240 0.8247 0.8249 0.8250
1551.000000 0.8250 0.8251 0.8252 0.8258 0.8278
1546.000000 0.8301 0.8323 0.8345 0.8367 0.8390
1541.000000 0.8413 0.8436 0.8459 0.8477 0.8485
1536.000000 0.8492 0.8495 0.8498 0.8500 0.8503
1531.000000 0.8505 0.8507 0.8508 0.8509 0.8510
1526.000000 0.8511 0.8511 0.8511 0.8511 0.8513
1521.000000 0.8515 0.8517 0.8528 0.8551 0.8588
1516.000000 0.8621 0.8652 0.8674 0.8696 0.8718
1511.000000 0.8736 0.8745 0.8753 0.8762 0.8770
1506.000000 0.8768 0.8768 0.8780 0.8773 0.8765
1501.000000 0.8751 0.8736 0.8718 0.8699 0.8455
1496.000000 0.7934 0.7907 0.7908 0.7908 0.8194
1491.000000 0.8510 0.8605 0.8643 0.8680 0.8717
1486.000000 0.8752 0.8787 0.8812 0.8835 0.8858
1481.000000 0.8867 0.8875 0.8880 0.8883 0.8874
1476.000000 0.8887 0.8880 0.8874 0.8868 0.8861
1471.000000 0.8843 0.8825 0.8808 0.8791 0.8760
1466.000000 0.8690 0.8615 0.8534 0.8447 0.8318
1461.000000 0.8157 0.8071 0.7980 0.7865 0.7731
1456.000000 0.7621 0.6901 0.5575 0.4248 0.3647
1451.000000 0.3647 0.3647 0.4309 0.4989 0.5670
1446.000000 0.6350 0.7030 0.7710 0.7908 0.7965
1441.000000 0.8021 0.8100 0.8101 0.8115 0.8106
1436.000000 0.8007 0.7850 0.7526 0.7318 0.7134
1431.000000 0.6971 0.6784 0.6544 0.5973 0.5287
1426.000000 0.4600 0.3914 0.3788 0.3754 0.3748
1421.000000 0.3716 0.3721 0.3742 0.3762 0.3936
1416.000000 0.4251 0.4490 0.4728 0.4966 0.5204
1411.000000 0.5442 0.5680 0.5918 0.6156 0.6394
1406.000000 0.6633 0.6780 0.6856 0.6997 0.7104
1401.000000 0.7145 0.7186 0.7225 0.7267 0.7311
1396.000000 0.7385 0.7461 0.7541 0.7637 0.7681
1391.000000 0.7725 0.7771 0.7814 0.7856 0.7893
1386.000000 0.7926 0.7961 0.7999 0.8026 0.8031
1381.000000 0.8035 0.8040 0.8044 0.8055 0.8069
1376.000000 0.8084 0.8099 0.8112 0.8128 0.8141
1371.000000 0.8153 0.8165 0.8180 0.8191 0.8200
1366.000000 0.8200 0.8199 0.8197 0.8194 0.8182
1361.000000 0.8164 0.8145 0.8118 0.8091 0.8062
1356.000000 0.8021 0.7968 0.7917 0.7865 0.7808
1351.000000 0.7751 0.7694 0.7632 0.7558 0.7485
1346.000000 0.7411 0.7357 0.7303 0.7248 0.7191
1341.000000 0.7128 0.7068 0.6928 0.6818 0.6728
1336.000000 0.6637 0.6525 0.6412 0.6228 0.6008
1331.000000 0.5465 0.4818 0.4172 0.3525 0.2878
1326.000000 0.2231 0.1915 0.1912 0.1901 0.2350
1321.000000 0.2822 0.3294 0.3766 0.4238 0.4710
1316.000000 0.5182 0.5441 0.5543 0.5614 0.5685
1311.000000 0.5756 0.5858 0.5923 0.5944 0.5936
1306.000000 0.5922 0.5647 0.5043 0.4439 0.3834
1301.000000 0.3396 0.3207 0.3008 0.2758 0.2481
1296.000000 0.2209 0.1873 0.1694 0.1629 0.1584
1291.000000 0.1566 0.1566 0.1566 0.1574 0.1733
1286.000000 0.2027 0.2281 0.2534 0.2788 0.3042
1281.000000 0.3295 0.3549 0.3803 0.4056 0.4310
1276.000000 0.4516 0.4602 0.4671 0.4743 0.4816
1271.000000 0.4926 0.5165 0.5469 0.5741 0.5927
1266.000000 0.6192 0.6301 0.6393 0.6485 0.6558
1261.000000 0.6625 0.6784 0.6871 0.6947 0.7000
1256.000000 0.7051 0.7093 0.7112 0.7133 0.7154
1251.000000 0.7175 0.7197 0.7244 0.7293 0.7350
1246.000000 0.7408 0.7478 0.7551 0.7622 0.7695
1241.000000 0.7767 0.7839 0.7911 0.7983 0.8048
1236.000000 0.8082 0.8115 0.8149 0.8182 0.8216
1231.000000 0.8249 0.8280 0.8303 0.8325 0.8343
1226.000000 0.8357 0.8371 0.8386 0.8396 0.8405
1221.000000 0.8413 0.8421 0.8430 0.8430 0.8427
1216.000000 0.8424 0.8413 0.8400 0.8383 0.8365
1211.000000 0.8336 0.8312 0.8293 0.8278 0.8254
1206.000000 0.8268 0.8275 0.8293 0.8312 0.8331
1201.000000 0.8350 0.8367 0.8383 0.8399 0.8408
1196.000000 0.8417 0.8417 0.8417 0.8416 0.8399
1191.000000 0.8378 0.8350 0.8300 0.8248 0.8165
1186.000000 0.7896 0.6868 0.6225 0.6219 0.6266
1181.000000 0.6411 0.6558 0.6684 0.6696 0.6696
1176.000000 0.6521 0.6346 0.6293 0.6289 0.6511
1171.000000 0.6758 0.7003 0.7248 0.7493 0.7738
1166.000000 0.7885 0.8018 0.8087 0.8118 0.8149
1161.000000 0.8184 0.8225 0.8268 0.8300 0.8330
1156.000000 0.8352 0.8371 0.8378 0.8386 0.8393
1151.000000 0.8399 0.8401 0.8403 0.8380 0.8406
1146.000000 0.8406 0.8407 0.8405 0.8404 0.8402
1141.000000 0.8401 0.8399 0.8395 0.8391 0.8386
1136.000000 0.8382 0.8364 0.8339 0.8314 0.8278
1131.000000 0.8240 0.8171 0.7869 0.7358 0.6846
1126.000000 0.6578 0.6571 0.6583 0.6690 0.6999
1121.000000 0.7308 0.7615 0.7878 0.7987 0.8091
1116.000000 0.8168 0.8242 0.8282 0.8323 0.8362
1111.000000 0.8390 0.8418 0.8451 0.8464 0.8514
1106.000000 0.8483 0.8489 0.8492 0.8494 0.8488
1101.000000 0.8482 0.8467 0.8377 0.8242 0.8106
1096.000000 0.7984 0.8015 0.8061 0.8168 0.8275
1091.000000 0.8383 0.8437 0.8456 0.8475 0.8484
1086.000000 0.8491 0.8498 0.8505 0.8508 0.8507
1081.000000 0.8507 0.8499 0.8486 0.8473 0.8436
1076.000000 0.8395 0.8340 0.7944 0.7543 0.7143
1071.000000 0.6742 0.6565 0.6585 0.6828 0.7071
1066.000000 0.7314 0.7557 0.7704 0.7792 0.7878
1061.000000 0.7954 0.8022 0.8071 0.8111 0.8154
1056.000000 0.8192 0.8227 0.8239 0.8251 0.8258
1051.000000 0.8260 0.8262 0.8264 0.8266 0.8266
1046.000000 0.8266 0.8266 0.8268 0.8274 0.8280
1041.000000 0.8286 0.8291 0.8295 0.8299 0.8303
1036.000000 0.8308 0.8313 0.8318 0.8324 0.8328
1031.000000 0.8332 0.8309 0.8323 0.8305 0.8274
1026.000000 0.7861 0.6147 0.6154 0.6245 0.6646
1021.000000 0.7047 0.7448 0.7849 0.8082 0.8189
1016.000000 0.8239 0.8284 0.8304 0.8321 0.8339
1011.000000 0.8355 0.8368 0.8381 0.8388 0.8393
1006.000000 0.8398 0.8418 0.8407 0.8407 0.8404
1001.000000 0.8398 0.8393 0.8380 0.8363 0.8336
996.000000 0.8284 0.8235 0.8185 0.8136 0.8117
991.000000 0.8121 0.8144 0.8182 0.8223 0.8367
986.000000 0.8328 0.8352 0.8352 0.8339 0.8325
981.000000 0.8313 0.8300 0.8287 0.8268 0.8249
976.000000 0.8230 0.8210 0.8191 0.8171 0.8147
971.000000 0.8122 0.8099 0.8075 0.8051 0.8025
966.000000 0.8000 0.7974 0.7935 0.7886 0.7837
961.000000 0.7788 0.7734 0.7674 0.7612 0.7551
956.000000 0.7469 0.7383 0.7297 0.7206 0.7071
951.000000 0.6586 0.5975 0.5832 0.5709 0.5653
946.000000 0.5602 0.5527 0.5444 0.5360 0.5288
941.000000 0.5197 0.5146 0.5112 0.5082 0.4973
936.000000 0.4725 0.4477 0.4262 0.4204 0.4212
931.000000 0.4210 0.4244 0.4315 0.4458 0.4642
926.000000 0.4872 0.5006 0.5129 0.5214 0.5288
921.000000 0.5362 0.5456 0.5560 0.5665 0.5790
916.000000 0.5924 0.6054 0.6164 0.6274 0.6360
911.000000 0.6425 0.6490 0.6555 0.6640 0.6730
906.000000 0.6842 0.6960 0.7075 0.7164 0.7251
901.000000 0.7311 0.7371 0.7431 0.7494 0.7578
896.000000 0.7661 0.7721 0.7764 0.7805 0.7846
891.000000 0.7888 0.7928 0.7956 0.7984 0.8011
886.000000 0.8040 0.8068 0.8096 0.8121 0.8142
881.000000 0.8161 0.8182 0.8203 0.8223 0.8243
876.000000 0.8262 0.8281 0.8301 0.8320 0.8339
871.000000 0.8357 0.8367 0.8378 0.8389 0.8400
866.000000 0.8408 0.8415 0.8423 0.8431 0.8438
861.000000 0.8444 0.8449 0.8453 0.8457 0.8461
856.000000 0.8465 0.8458 0.8449 0.8421 0.8390
851.000000 0.8363 0.8351 0.8361 0.8377 0.8394
846.000000 0.8410 0.8420 0.8430 0.8440 0.8450
841.000000 0.8453 0.8456 0.8475 0.8460 0.8462
836.000000 0.8464 0.8459 0.8453 0.8447 0.8442
831.000000 0.8437 0.8432 0.8427 0.8423 0.8418
826.000000 0.8414 0.8411 0.8408 0.8406 0.8400
821.000000 0.8391 0.8383 0.8353 0.8315 0.8274
816.000000 0.8227 0.8175 0.8125 0.8069 0.8015
811.000000 0.7958 0.7904 0.7848 0.6611 0.6608
806.000000 0.6853 0.7150 0.7176 0.7137 0.7101
801.000000 0.7071 0.7062 0.7098 0.7465 0.7653
796.000000 0.7832 0.7934 0.8019 0.8093 0.8167
791.000000 0.8221 0.8252 0.8282 0.8312 0.8342
786.000000 0.8368 0.8390 0.8411 0.8432 0.8452
781.000000 0.8473 0.8492 0.8510 0.8524 0.8537
776.000000 0.8551 0.8564 0.8575 0.8588 0.8600
771.000000 0.8612 0.8618 0.8621 0.8624 0.8625
766.000000 0.8628 0.8631 0.8633 0.8636 0.8638
761.000000 0.8641 0.8640 0.8644 0.8644 0.8643
756.000000 0.8643 0.8643 0.8643 0.8643 0.8640
751.000000 0.8634 0.8628 0.8624 0.8618 0.8614
746.000000 0.8609 0.8601 0.8591 0.8582 0.8573
741.000000 0.8564 0.8555 0.8546 0.8535 0.8525
736.000000 0.8514 0.8504 0.8493 0.8482 0.8468
731.000000 0.8457 0.8444 0.8432 0.8418 0.8407
726.000000 0.8377 0.8347 0.8317 0.8288 0.8247
721.000000 0.8197 0.8146 0.8090 0.7978 0.7851
716.000000 0.7680 0.7460 0.6587 0.5555 0.4523
711.000000 0.3491 0.2459 0.1427 0.0872 0.0874
706.000000 0.0875 0.1008 0.1106 0.1546 0.2340
701.000000 0.3134 0.3928 0.4722 0.5516 0.6310
696.000000 0.7104 0.7801 0.7898 0.7980 0.8028
691.000000 0.8048 0.8060 0.8093 0.8078 0.8081
686.000000 0.7950 0.7380 0.6808 0.6081 0.6078
681.000000 0.6078 0.6105 0.6493 0.6948 0.7401
676.000000 0.7857 0.8245 0.8274 0.8305 0.8328
671.000000 0.8336 0.8332 0.8303 0.8245 0.4257
666.000000 0.4271 0.4214 0.4234 0.4255 0.4897
661.000000 0.5564 0.6232 0.6899 0.7565 0.8041
656.000000 0.8142 0.8235 0.8317 0.8418 0.8447
651.000000 0.8453 0.8458 0.8464 0.8487 0.8528
646.000000 0.8571 0.8599 0.8627 0.8655 0.8671
641.000000 0.8687 0.8699 0.8706 0.8714 0.8721
636.000000 0.8728 0.8736 0.8743 0.8749 0.8756
631.000000 0.8762 0.8768 0.8775 0.8777 0.8780
626.000000 0.8782 0.8784 0.8787 0.8789 0.8780
621.000000 0.8794 0.8795 0.8796 0.8797 0.8789
616.000000 0.8778 0.8768 0.8752 0.8737 0.8721
611.000000 0.8707 0.8693 0.8686 0.8696 0.8707
606.000000 0.8718 0.8727 0.8730 0.8734 0.8737
601.000000 0.8741 0.8741 0.8741 0.8739 0.8737
596.000000 0.8735 0.8733 0.8731 0.8728 0.8728
591.000000 0.8727 0.8725 0.8724 0.8723 0.8721
586.000000 0.8720 0.8718 0.8718 0.8714 0.8708
581.000000 0.8701 0.8694 0.8686 0.8678 0.8668
576.000000 0.8661 0.8653 0.8642 0.8628 0.8617
571.000000 0.8605 0.8592 0.8578 0.8560 0.8543
566.000000 0.8525 0.8500 0.8474 0.8445 0.8380
561.000000 0.8258 0.7658 0.7275 0.7068 0.6912
556.000000 0.6828 0.6767 0.6728 0.6707 0.6678
551.000000 0.6690 0.6738 0.6801 0.6878 0.6968
546.000000 0.7060 0.7151 0.7210 0.7257 0.7304
541.000000 0.7351 0.7403 0.7458 0.7515 0.7571
536.000000 0.7615 0.7657 0.7700 0.7728 0.7751
531.000000 0.7774 0.7797 0.7819 0.7843 0.7865
526.000000 0.7889 0.7908 0.7928 0.7948 0.7968
521.000000 0.7988 0.8008 0.8028 0.8046 0.8064
516.000000 0.8083 0.8101 0.8115 0.8128 0.8139
511.000000 0.8150 0.8161 0.8171 0.8181 0.8188
506.000000 0.8194 0.8201 0.8207 0.8213 0.8220
501.000000 0.8223 0.8225 0.8230 0.8233 0.8236
496.000000 0.8239 0.8242 0.8244 0.8247 0.8249
491.000000 0.8252 0.8254 0.8255 0.8257 0.8258
486.000000 0.8259 0.8261 0.8262 0.8263 0.8270
481.000000 0.8266 0.8266 0.8266 0.8266 0.8265
476.000000 0.8265 0.8261 0.8258 0.8254 0.8250
471.000000 0.8247 0.8243 0.8240 0.8233 0.8224
466.000000 0.8215 0.8206 0.8195 0.8184 0.8172
461.000000 0.8161 0.8150 0.8139 0.8126 0.8115
456.000000 0.8103 0.8091 0.8078 0.8068
##END=
