##TITLE=Benzoic acid
##JCAMP-DX=4.24
$$ By DXEDIT 1.05 (RS McDonald)
##DATA TYPE=INFRARED SPECTRUM
##CLASS=COBLENTZ III
##ORIGIN=DOW CHEMICAL COMPANY
##OWNER=COPYRIGHT (C) 1988 by COBLENTZ SOCIETY INC.
Collection (C) 2018 copyright by the U.S. Secretary of Commerce
on behalf of the United States of America. All rights reserved.
##DATE=1965/03/02
##CAS REGISTRY NO=65-85-0
##MOLFORM=C7 H6 O2
##SOURCE REFERENCE=COBLENTZ NO. 6268
##$NIST SOURCE=COBLENTZ
##$NIST IMAGE=cob6268
##SPECTROMETER/DATA SYSTEM=DOW KBr FOREPRISM-GRATING
##INSTRUMENT PARAMETERS=BLAZED AT 3.5, 12.0, 20.0 MICRON AND CHANGED AT 5.0, 7.5, 14.9 MICRON
##STATE=SOLUTION (2% CCl4 FOR 3800-1330, 2% CS2 FOR 1330-460 CM^-^1)
##PATH LENGTH=0.011 CM, 0.011 CM
$$SPECTRAL CONTAMINATIONS DUE TO CS2 AROUND 850 AND CCl4 AROUND 1550 CM^-^1 HAVE BEEN SUBTRACTED
##SAMPLING PROCEDURE=TRANSMISSION
##RESOLUTION=2
##DATA PROCESSING=DIGITIZED BY COBLENTZ SOCIETY (BATCH I) FROM HARD COPY
##XUNITS=1/CM
##YUNITS=TRANSMITTANCE
##XFACTOR=1
##YFACTOR=1
##DELTAX=1
##FIRSTX=3800
##LASTX=456
##FIRSTY=0.9418
##MAXX=3800
##MINX=456
##MAXY=0.9889
##MINY=0.02
##NPOINTS=3345
##XYDATA=(X++(Y..Y))
3800.000000 0.9418 0.9418 0.9419 0.9422 0.9436
3795.000000 0.9424 0.9441 0.9441 0.9442 0.9442
3790.000000 0.9443 0.9443 0.9444 0.9444 0.9445
3785.000000 0.9445 0.9433 0.9426 0.9427 0.9442
3780.000000 0.9448 0.9432 0.9446 0.9449 0.9450
3775.000000 0.9431 0.9451 0.9451 0.9452 0.9452
3770.000000 0.9453 0.9453 0.9453 0.9453 0.9454
3765.000000 0.9454 0.9454 0.9454 0.9455 0.9455
3760.000000 0.9466 0.9465 0.9456 0.9456 0.9457
3755.000000 0.9457 0.9457 0.9457 0.9457 0.9457
3750.000000 0.9457 0.9457 0.9457 0.9457 0.9458
3745.000000 0.9458 0.9458 0.9458 0.9458 0.9458
3740.000000 0.9458 0.9464 0.9478 0.9478 0.9478
3735.000000 0.9478 0.9469 0.9459 0.9470 0.9479
3730.000000 0.9479 0.9479 0.9479 0.9478 0.9478
3725.000000 0.9478 0.9477 0.9476 0.9476 0.9475
3720.000000 0.9475 0.9455 0.9457 0.9474 0.9474
3715.000000 0.9474 0.9474 0.9473 0.9479 0.9486
3710.000000 0.9479 0.9492 0.9492 0.9491 0.9491
3705.000000 0.9490 0.9490 0.9490 0.9490 0.9489
3700.000000 0.9489 0.9488 0.9488 0.9487 0.9470
3695.000000 0.9466 0.9466 0.9466 0.9466 0.9465
3690.000000 0.9465 0.9465 0.9465 0.9460 0.9444
3685.000000 0.9443 0.9443 0.9443 0.9443 0.9442
3680.000000 0.9442 0.9441 0.9441 0.9440 0.9440
3675.000000 0.9439 0.9439 0.9437 0.9437 0.9436
3670.000000 0.9453 0.9438 0.9435 0.9434 0.9434
3665.000000 0.9432 0.9432 0.9432 0.9431 0.9429
3660.000000 0.9429 0.9429 0.9429 0.9428 0.9428
3655.000000 0.9427 0.9426 0.9424 0.9424 0.9424
3650.000000 0.9424 0.9424 0.9424 0.9424 0.9424
3645.000000 0.9424 0.9426 0.9426 0.9426 0.9426
3640.000000 0.9426 0.9426 0.9426 0.9424 0.9424
3635.000000 0.9424 0.9424 0.9428 0.9444 0.9443
3630.000000 0.9435 0.9421 0.9428 0.9431 0.9421
3625.000000 0.9410 0.9398 0.9385 0.9372 0.9363
3620.000000 0.9353 0.9344 0.9334 0.9330 0.9325
3615.000000 0.9334 0.9344 0.9358 0.9373 0.9380
3610.000000 0.9387 0.9392 0.9383 0.9406 0.9405
3605.000000 0.9404 0.9398 0.9380 0.9361 0.9362
3600.000000 0.9344 0.9321 0.9321 0.9321 0.9310
3595.000000 0.9291 0.9273 0.9258 0.9244 0.9234
3590.000000 0.9227 0.9233 0.9238 0.9245 0.9252
3585.000000 0.9280 0.9309 0.9316 0.9325 0.9331
3580.000000 0.9336 0.9344 0.9351 0.9353 0.9348
3575.000000 0.9341 0.9353 0.9348 0.9335 0.9319
3570.000000 0.9313 0.9309 0.9305 0.9300 0.9295
3565.000000 0.9289 0.9282 0.9276 0.9271 0.9263
3560.000000 0.9259 0.9251 0.9242 0.9228 0.9215
3555.000000 0.9225 0.9199 0.9198 0.9211 0.9208
3550.000000 0.9200 0.9190 0.9203 0.9202 0.9202
3545.000000 0.9193 0.9192 0.9207 0.9211 0.9215
3540.000000 0.9208 0.9217 0.9215 0.9227 0.9237
3535.000000 0.9241 0.9245 0.9251 0.9259 0.9265
3530.000000 0.9273 0.9260 0.9267 0.9273 0.9281
3525.000000 0.9284 0.9288 0.9291 0.9294 0.9298
3520.000000 0.9301 0.9304 0.9307 0.9310 0.9312
3515.000000 0.9316 0.9320 0.9322 0.9325 0.9325
3510.000000 0.9326 0.9325 0.9323 0.9320 0.9319
3505.000000 0.9315 0.9312 0.9310 0.9308 0.9305
3500.000000 0.9303 0.9299 0.9297 0.9294 0.9292
3495.000000 0.9289 0.9286 0.9283 0.9281 0.9279
3490.000000 0.9277 0.9274 0.9272 0.9268 0.9266
3485.000000 0.9262 0.9261 0.9258 0.9255 0.9252
3480.000000 0.9250 0.9248 0.9246 0.9244 0.9243
3475.000000 0.9240 0.9239 0.9237 0.9236 0.9235
3470.000000 0.9234 0.9234 0.9234 0.9234 0.9235
3465.000000 0.9235 0.9235 0.9235 0.9235 0.9235
3460.000000 0.9235 0.9235 0.9235 0.9234 0.9234
3455.000000 0.9234 0.9234 0.9234 0.9234 0.9233
3450.000000 0.9233 0.9233 0.9233 0.9233 0.9233
3445.000000 0.9232 0.9232 0.9232 0.9232 0.9232
3440.000000 0.9233 0.9233 0.9233 0.9233 0.9234
3435.000000 0.9234 0.9234 0.9234 0.9235 0.9235
3430.000000 0.9236 0.9236 0.9237 0.9237 0.9236
3425.000000 0.9219 0.9230 0.9229 0.9226 0.9222
3420.000000 0.9219 0.9215 0.9212 0.9210 0.9206
3415.000000 0.9203 0.9200 0.9197 0.9194 0.9190
3410.000000 0.9187 0.9184 0.9181 0.9188 0.9183
3405.000000 0.9171 0.9168 0.9165 0.9162 0.9158
3400.000000 0.9154 0.9151 0.9149 0.9142 0.9137
3395.000000 0.9132 0.9126 0.9121 0.9116 0.9110
3390.000000 0.9105 0.9100 0.9094 0.9089 0.9084
3385.000000 0.9078 0.9073 0.9068 0.9063 0.9057
3380.000000 0.9052 0.9047 0.9041 0.9036 0.9031
3375.000000 0.9024 0.9019 0.9013 0.9008 0.8999
3370.000000 0.9008 0.8973 0.8951 0.8936 0.8921
3365.000000 0.8908 0.8895 0.8884 0.8872 0.8859
3360.000000 0.8848 0.8835 0.8825 0.8815 0.8804
3355.000000 0.8792 0.8782 0.8771 0.8760 0.8757
3350.000000 0.8755 0.8752 0.8750 0.8748 0.8745
3345.000000 0.8758 0.8760 0.8740 0.8753 0.8734
3340.000000 0.8732 0.8729 0.8744 0.8742 0.8738
3335.000000 0.8717 0.8711 0.8705 0.8700 0.8694
3330.000000 0.8689 0.8683 0.8678 0.8672 0.8668
3325.000000 0.8661 0.8656 0.8651 0.8645 0.8638
3320.000000 0.8629 0.8622 0.8615 0.8608 0.8601
3315.000000 0.8593 0.8586 0.8578 0.8588 0.8577
3310.000000 0.8569 0.8557 0.8542 0.8517 0.8520
3305.000000 0.8509 0.8492 0.8468 0.8458 0.8447
3300.000000 0.8437 0.8425 0.8413 0.8405 0.8395
3295.000000 0.8386 0.8377 0.8368 0.8359 0.8350
3290.000000 0.8341 0.8332 0.8323 0.8314 0.8306
3285.000000 0.8296 0.8289 0.8294 0.8281 0.8254
3280.000000 0.8247 0.8249 0.8234 0.8209 0.8203
3275.000000 0.8203 0.8190 0.8178 0.8165 0.8151
3270.000000 0.8139 0.8127 0.8115 0.8101 0.8089
3265.000000 0.8076 0.8065 0.8050 0.8036 0.8020
3260.000000 0.8004 0.7987 0.7973 0.7956 0.7926
3255.000000 0.7925 0.7910 0.7895 0.7884 0.7870
3250.000000 0.7857 0.7842 0.7829 0.7815 0.7803
3245.000000 0.7780 0.7768 0.7762 0.7749 0.7734
3240.000000 0.7721 0.7708 0.7695 0.7681 0.7671
3235.000000 0.7658 0.7645 0.7632 0.7618 0.7607
3230.000000 0.7595 0.7582 0.7568 0.7554 0.7528
3225.000000 0.7519 0.7518 0.7506 0.7494 0.7481
3220.000000 0.7468 0.7454 0.7443 0.7430 0.7418
3215.000000 0.7404 0.7390 0.7376 0.7360 0.7345
3210.000000 0.7330 0.7314 0.7286 0.7270 0.7255
3205.000000 0.7238 0.7224 0.7209 0.7194 0.7181
3200.000000 0.7171 0.7167 0.7144 0.7139 0.7120
3195.000000 0.7118 0.7105 0.7091 0.7079 0.7065
3190.000000 0.7044 0.7031 0.7025 0.7011 0.6989
3185.000000 0.6970 0.6956 0.6941 0.6927 0.6912
3180.000000 0.6899 0.6884 0.6869 0.6854 0.6842
3175.000000 0.6827 0.6812 0.6797 0.6783 0.6768
3170.000000 0.6754 0.6740 0.6726 0.6711 0.6697
3165.000000 0.6681 0.6672 0.6660 0.6637 0.6621
3160.000000 0.6610 0.6592 0.6565 0.6557 0.6538
3155.000000 0.6522 0.6522 0.6511 0.6498 0.6486
3150.000000 0.6474 0.6461 0.6436 0.6420 0.6404
3145.000000 0.6387 0.6371 0.6355 0.6339 0.6327
3140.000000 0.6321 0.6301 0.6283 0.6262 0.6242
3135.000000 0.6228 0.6215 0.6202 0.6190 0.6177
3130.000000 0.6165 0.6152 0.6140 0.6122 0.6103
3125.000000 0.6077 0.6050 0.6030 0.6011 0.5993
3120.000000 0.5976 0.5959 0.5942 0.5924 0.5907
3115.000000 0.5886 0.5867 0.5847 0.5827 0.5807
3110.000000 0.5787 0.5767 0.5748 0.5720 0.5691
3105.000000 0.5651 0.5613 0.5570 0.5528 0.5486
3100.000000 0.5455 0.5442 0.5427 0.5428 0.5432
3095.000000 0.5440 0.5438 0.5436 0.5432 0.5421
3090.000000 0.5418 0.5405 0.5395 0.5391 0.5389
3085.000000 0.5352 0.5322 0.5281 0.5241 0.5234
3080.000000 0.5230 0.5229 0.5235 0.5246 0.5251
3075.000000 0.5251 0.5261 0.5270 0.5267 0.5279
3070.000000 0.5294 0.5302 0.5332 0.5348 0.5376
3065.000000 0.5389 0.5402 0.5398 0.5405 0.5409
3060.000000 0.5417 0.5427 0.5430 0.5426 0.5422
3055.000000 0.5414 0.5403 0.5381 0.5366 0.5348
3050.000000 0.5326 0.5294 0.5263 0.5239 0.5224
3045.000000 0.5194 0.5172 0.5168 0.5166 0.5172
3040.000000 0.5178 0.5178 0.5179 0.5177 0.5167
3035.000000 0.5158 0.5155 0.5145 0.5138 0.5138
3030.000000 0.5135 0.5130 0.5132 0.5130 0.5129
3025.000000 0.5132 0.5136 0.5138 0.5142 0.5144
3020.000000 0.5148 0.5158 0.5162 0.5163 0.5154
3015.000000 0.5154 0.5155 0.5156 0.5158 0.5160
3010.000000 0.5163 0.5164 0.5163 0.5156 0.5161
3005.000000 0.5173 0.5178 0.5182 0.5184 0.5194
3000.000000 0.5210 0.5220 0.5226 0.5240 0.5254
2995.000000 0.5268 0.5281 0.5305 0.5323 0.5337
2990.000000 0.5353 0.5368 0.5383 0.5394 0.5405
2985.000000 0.5412 0.5420 0.5427 0.5436 0.5438
2980.000000 0.5443 0.5452 0.5451 0.5449 0.5459
2975.000000 0.5462 0.5465 0.5472 0.5479 0.5485
2970.000000 0.5492 0.5506 0.5517 0.5525 0.5532
2965.000000 0.5546 0.5561 0.5576 0.5591 0.5605
2960.000000 0.5619 0.5644 0.5657 0.5659 0.5673
2955.000000 0.5686 0.5702 0.5724 0.5738 0.5751
2950.000000 0.5765 0.5780 0.5795 0.5806 0.5815
2945.000000 0.5834 0.5861 0.5878 0.5901 0.5911
2940.000000 0.5931 0.5940 0.5946 0.5947 0.5956
2935.000000 0.5930 0.5923 0.5907 0.5893 0.5874
2930.000000 0.5854 0.5834 0.5815 0.5784 0.5754
2925.000000 0.5721 0.5688 0.5641 0.5593 0.5544
2920.000000 0.5502 0.5482 0.5462 0.5446 0.5431
2915.000000 0.5415 0.5399 0.5383 0.5368 0.5352
2910.000000 0.5337 0.5322 0.5318 0.5304 0.5280
2905.000000 0.5265 0.5251 0.5239 0.5227 0.5215
2900.000000 0.5203 0.5190 0.5179 0.5171 0.5165
2895.000000 0.5157 0.5151 0.5145 0.5141 0.5136
2890.000000 0.5130 0.5132 0.5110 0.5135 0.5137
2885.000000 0.5140 0.5143 0.5151 0.5158 0.5165
2880.000000 0.5172 0.5186 0.5199 0.5203 0.5229
2875.000000 0.5243 0.5258 0.5274 0.5290 0.5306
2870.000000 0.5324 0.5340 0.5357 0.5374 0.5391
2865.000000 0.5410 0.5430 0.5450 0.5470 0.5490
2860.000000 0.5510 0.5528 0.5546 0.5563 0.5580
2855.000000 0.5598 0.5605 0.5621 0.5639 0.5642
2850.000000 0.5647 0.5650 0.5653 0.5658 0.5672
2845.000000 0.5676 0.5677 0.5673 0.5687 0.5692
2840.000000 0.5691 0.5693 0.5704 0.5708 0.5705
2835.000000 0.5710 0.5721 0.5738 0.5755 0.5769
2830.000000 0.5784 0.5808 0.5814 0.5835 0.5851
2825.000000 0.5852 0.5865 0.5893 0.5899 0.5928
2820.000000 0.5945 0.5960 0.5966 0.5983 0.6001
2815.000000 0.6018 0.6035 0.6052 0.6069 0.6087
2810.000000 0.6106 0.6124 0.6151 0.6176 0.6195
2805.000000 0.6214 0.6233 0.6253 0.6272 0.6290
2800.000000 0.6308 0.6325 0.6343 0.6361 0.6377
2795.000000 0.6393 0.6408 0.6423 0.6435 0.6442
2790.000000 0.6464 0.6468 0.6484 0.6499 0.6514
2785.000000 0.6529 0.6550 0.6555 0.6559 0.6579
2780.000000 0.6597 0.6608 0.6620 0.6631 0.6642
2775.000000 0.6651 0.6661 0.6669 0.6679 0.6689
2770.000000 0.6697 0.6707 0.6716 0.6725 0.6734
2765.000000 0.6744 0.6754 0.6763 0.6774 0.6786
2760.000000 0.6797 0.6809 0.6821 0.6833 0.6844
2755.000000 0.6855 0.6867 0.6878 0.6888 0.6898
2750.000000 0.6906 0.6917 0.6926 0.6937 0.6949
2745.000000 0.6960 0.6974 0.6985 0.6997 0.7009
2740.000000 0.7021 0.7031 0.7042 0.7052 0.7061
2735.000000 0.7070 0.7081 0.7090 0.7100 0.7108
2730.000000 0.7117 0.7123 0.7132 0.7138 0.7147
2725.000000 0.7147 0.7147 0.7147 0.7146 0.7144
2720.000000 0.7143 0.7141 0.7141 0.7137 0.7134
2715.000000 0.7129 0.7124 0.7120 0.7115 0.7109
2710.000000 0.7104 0.7083 0.7064 0.7036 0.7008
2705.000000 0.6977 0.6946 0.6913 0.6882 0.6842
2700.000000 0.6801 0.6763 0.6725 0.6693 0.6661
2695.000000 0.6629 0.6597 0.6554 0.6511 0.6463
2690.000000 0.6416 0.6368 0.6320 0.6274 0.6229
2685.000000 0.6182 0.6135 0.6113 0.6092 0.6071
2680.000000 0.6052 0.6033 0.6014 0.6011 0.6005
2675.000000 0.6009 0.6009 0.6015 0.6020 0.6032
2670.000000 0.6043 0.6058 0.6074 0.6111 0.6148
2665.000000 0.6175 0.6202 0.6223 0.6245 0.6260
2660.000000 0.6275 0.6286 0.6299 0.6322 0.6332
2655.000000 0.6345 0.6357 0.6369 0.6382 0.6397
2650.000000 0.6410 0.6446 0.6490 0.6522 0.6547
2645.000000 0.6556 0.6568 0.6586 0.6614 0.6625
2640.000000 0.6640 0.6657 0.6675 0.6692 0.6710
2635.000000 0.6734 0.6771 0.6794 0.6816 0.6827
2630.000000 0.6853 0.6891 0.6917 0.6937 0.6961
2625.000000 0.6979 0.6999 0.7019 0.7038 0.7067
2620.000000 0.7094 0.7106 0.7117 0.7126 0.7137
2615.000000 0.7138 0.7167 0.7143 0.7143 0.7143
2610.000000 0.7141 0.7137 0.7132 0.7095 0.7059
2605.000000 0.7028 0.6998 0.6943 0.6887 0.6865
2600.000000 0.6836 0.6844 0.6845 0.6856 0.6867
2595.000000 0.6931 0.6997 0.7044 0.7090 0.7115
2590.000000 0.7139 0.7163 0.7187 0.7211 0.7235
2585.000000 0.7255 0.7278 0.7286 0.7296 0.7300
2580.000000 0.7305 0.7303 0.7301 0.7298 0.7296
2575.000000 0.7289 0.7284 0.7211 0.7137 0.7032
2570.000000 0.6926 0.6871 0.6818 0.6756 0.6695
2565.000000 0.6639 0.6584 0.6546 0.6507 0.6456
2560.000000 0.6404 0.6351 0.6298 0.6289 0.6280
2555.000000 0.6278 0.6257 0.6271 0.6271 0.6270
2550.000000 0.6272 0.6300 0.6329 0.6359 0.6389
2545.000000 0.6419 0.6450 0.6481 0.6512 0.6542
2540.000000 0.6572 0.6601 0.6632 0.6657 0.6682
2535.000000 0.6706 0.6731 0.6755 0.6780 0.6807
2530.000000 0.6833 0.6862 0.6891 0.6920 0.6949
2525.000000 0.6975 0.7001 0.7027 0.7053 0.7078
2520.000000 0.7104 0.7130 0.7156 0.7178 0.7203
2515.000000 0.7226 0.7250 0.7273 0.7297 0.7321
2510.000000 0.7345 0.7368 0.7392 0.7414 0.7437
2505.000000 0.7460 0.7482 0.7503 0.7525 0.7548
2500.000000 0.7571 0.7592 0.7614 0.7632 0.7649
2495.000000 0.7666 0.7682 0.7700 0.7718 0.7735
2490.000000 0.7752 0.7770 0.7788 0.7805 0.7823
2485.000000 0.7842 0.7860 0.7877 0.7895 0.7923
2480.000000 0.7946 0.7959 0.7971 0.7985 0.7998
2475.000000 0.8009 0.8023 0.8036 0.8049 0.8059
2470.000000 0.8069 0.8080 0.8091 0.8100 0.8111
2465.000000 0.8120 0.8131 0.8141 0.8152 0.8166
2460.000000 0.8180 0.8194 0.8200 0.8210 0.8221
2455.000000 0.8221 0.8233 0.8255 0.8272 0.8283
2450.000000 0.8279 0.8301 0.8315 0.8326 0.8336
2445.000000 0.8345 0.8357 0.8367 0.8378 0.8383
2440.000000 0.8391 0.8398 0.8406 0.8412 0.8419
2435.000000 0.8425 0.8432 0.8436 0.8440 0.8444
2430.000000 0.8449 0.8453 0.8459 0.8464 0.8468
2425.000000 0.8472 0.8478 0.8482 0.8487 0.8490
2420.000000 0.8495 0.8499 0.8505 0.8511 0.8517
2415.000000 0.8524 0.8530 0.8536 0.8543 0.8548
2410.000000 0.8555 0.8567 0.8581 0.8581 0.8599
2405.000000 0.8605 0.8612 0.8619 0.8624 0.8631
2400.000000 0.8638 0.8645 0.8651 0.8657 0.8665
2395.000000 0.8669 0.8677 0.8678 0.8681 0.8684
2390.000000 0.8685 0.8708 0.8712 0.8715 0.8720
2385.000000 0.8727 0.8747 0.8749 0.8759 0.8775
2380.000000 0.8779 0.8789 0.8805 0.8817 0.8831
2375.000000 0.8834 0.8847 0.8857 0.8859 0.8860
2370.000000 0.8862 0.8849 0.8846 0.8848 0.8850
2365.000000 0.8851 0.8853 0.8854 0.8856 0.8858
2360.000000 0.8877 0.8881 0.8900 0.8905 0.8926
2355.000000 0.8941 0.8944 0.8945 0.8949 0.8944
2350.000000 0.8934 0.8936 0.8949 0.8970 0.8982
2345.000000 0.8985 0.8975 0.8970 0.8973 0.8975
2340.000000 0.8977 0.8963 0.8980 0.8985 0.8968
2335.000000 0.8970 0.8991 0.8991 0.8992 0.8995
2330.000000 0.9012 0.9012 0.9012 0.9018 0.9032
2325.000000 0.9034 0.9042 0.9035 0.9028 0.9019
2320.000000 0.9013 0.9007 0.9001 0.8993 0.8986
2315.000000 0.8981 0.8975 0.8972 0.8969 0.8964
2310.000000 0.8961 0.8956 0.8953 0.8950 0.8945
2305.000000 0.8945 0.8946 0.8950 0.8954 0.8957
2300.000000 0.8961 0.8970 0.8988 0.8992 0.8995
2295.000000 0.8998 0.9003 0.9006 0.9010 0.9014
2290.000000 0.9016 0.9019 0.9010 0.9011 0.9017
2285.000000 0.9023 0.9030 0.9018 0.9022 0.9027
2280.000000 0.9034 0.9038 0.9027 0.9032 0.9035
2275.000000 0.9025 0.9031 0.9036 0.9036 0.9030
2270.000000 0.9037 0.9035 0.9029 0.9037 0.9044
2265.000000 0.9039 0.9038 0.9044 0.9051 0.9043
2260.000000 0.9044 0.9051 0.9041 0.9045 0.9051
2255.000000 0.9058 0.9046 0.9051 0.9056 0.9060
2250.000000 0.9049 0.9054 0.9060 0.9065 0.9070
2245.000000 0.9070 0.9062 0.9067 0.9073 0.9077
2240.000000 0.9083 0.9089 0.9094 0.9099 0.9105
2235.000000 0.9097 0.9096 0.9101 0.9106 0.9111
2230.000000 0.9117 0.9122 0.9127 0.9129 0.9131
2225.000000 0.9132 0.9133 0.9134 0.9133 0.9118
2220.000000 0.9120 0.9121 0.9123 0.9124 0.9125
2215.000000 0.9126 0.9127 0.9128 0.9129 0.9130
2210.000000 0.9130 0.9130 0.9130 0.9130 0.9130
2205.000000 0.9130 0.9130 0.9130 0.9130 0.9131
2200.000000 0.9132 0.9133 0.9136 0.9137 0.9135
2195.000000 0.9124 0.9141 0.9139 0.9126 0.9126
2190.000000 0.9129 0.9129 0.9132 0.9134 0.9137
2185.000000 0.9139 0.9153 0.9152 0.9146 0.9148
2180.000000 0.9150 0.9152 0.9170 0.9176 0.9179
2175.000000 0.9181 0.9183 0.9186 0.9189 0.9191
2170.000000 0.9194 0.9195 0.9181 0.9184 0.9188
2165.000000 0.9190 0.9193 0.9196 0.9199 0.9202
2160.000000 0.9206 0.9209 0.9212 0.9215 0.9218
2155.000000 0.9222 0.9225 0.9227 0.9230 0.9232
2150.000000 0.9234 0.9235 0.9239 0.9241 0.9244
2145.000000 0.9246 0.9248 0.9250 0.9252 0.9252
2140.000000 0.9253 0.9253 0.9253 0.9253 0.9253
2135.000000 0.9253 0.9253 0.9253 0.9253 0.9253
2130.000000 0.9253 0.9253 0.9253 0.9253 0.9253
2125.000000 0.9252 0.9251 0.9248 0.9228 0.9239
2120.000000 0.9239 0.9235 0.9234 0.9231 0.9227
2115.000000 0.9224 0.9222 0.9219 0.9215 0.9211
2110.000000 0.9208 0.9204 0.9199 0.9195 0.9191
2105.000000 0.9184 0.9178 0.9170 0.9163 0.9155
2100.000000 0.9149 0.9140 0.9119 0.9103 0.9109
2095.000000 0.9103 0.9077 0.9083 0.9076 0.9066
2090.000000 0.9059 0.9051 0.9044 0.9035 0.9028
2085.000000 0.9023 0.9020 0.9017 0.9017 0.9013
2080.000000 0.9013 0.9013 0.9016 0.9024 0.9033
2075.000000 0.9041 0.9051 0.9060 0.9068 0.9077
2070.000000 0.9086 0.9095 0.9103 0.9113 0.9123
2065.000000 0.9132 0.9142 0.9151 0.9161 0.9170
2060.000000 0.9177 0.9183 0.9190 0.9200 0.9221
2055.000000 0.9226 0.9233 0.9232 0.9222 0.9219
2050.000000 0.9229 0.9218 0.9208 0.9207 0.9207
2045.000000 0.9206 0.9206 0.9205 0.9203 0.9202
2040.000000 0.9202 0.9201 0.9201 0.9200 0.9200
2035.000000 0.9199 0.9199 0.9198 0.9198 0.9197
2030.000000 0.9197 0.9197 0.9203 0.9209 0.9197
2025.000000 0.9205 0.9216 0.9216 0.9217 0.9217
2020.000000 0.9217 0.9217 0.9217 0.9216 0.9216
2015.000000 0.9215 0.9215 0.9214 0.9213 0.9212
2010.000000 0.9212 0.9210 0.9210 0.9209 0.9209
2005.000000 0.9208 0.9207 0.9206 0.9206 0.9204
2000.000000 0.9203 0.9191 0.9169 0.9142 0.9121
1995.000000 0.9092 0.9089 0.9102 0.9120 0.9137
1990.000000 0.9149 0.9149 0.9149 0.9149 0.9129
1985.000000 0.9123 0.9120 0.9117 0.9108 0.9090
1980.000000 0.9076 0.9060 0.9039 0.9039 0.9040
1975.000000 0.9046 0.9054 0.9061 0.9069 0.9073
1970.000000 0.9074 0.9057 0.9013 0.8980 0.8975
1965.000000 0.8953 0.8929 0.8933 0.8927 0.8919
1960.000000 0.8941 0.8967 0.8991 0.9012 0.9027
1955.000000 0.9042 0.9038 0.9051 0.9063 0.9075
1950.000000 0.9079 0.9060 0.9056 0.9051 0.9047
1945.000000 0.9041 0.9033 0.9027 0.9020 0.9013
1940.000000 0.9003 0.8993 0.8980 0.8963 0.8946
1935.000000 0.8919 0.8895 0.8879 0.8862 0.8846
1930.000000 0.8829 0.8814 0.8798 0.8782 0.8767
1925.000000 0.8753 0.8739 0.8744 0.8761 0.8780
1920.000000 0.8798 0.8818 0.8834 0.8846 0.8844
1915.000000 0.8836 0.8829 0.8822 0.8816 0.8808
1910.000000 0.8798 0.8790 0.8785 0.8815 0.8836
1905.000000 0.8853 0.8871 0.8890 0.8908 0.8926
1900.000000 0.8944 0.8962 0.8979 0.8991 0.8998
1895.000000 0.9007 0.9014 0.9021 0.9029 0.9032
1890.000000 0.9025 0.9026 0.9028 0.9030 0.9032
1885.000000 0.9034 0.9048 0.9058 0.9060 0.9061
1880.000000 0.9081 0.9065 0.9066 0.9068 0.9070
1875.000000 0.9089 0.9092 0.9092 0.9089 0.9086
1870.000000 0.9083 0.9080 0.9077 0.9074 0.9071
1865.000000 0.9070 0.9069 0.9068 0.9067 0.9066
1860.000000 0.9063 0.9062 0.9061 0.9071 0.9063
1855.000000 0.9053 0.9049 0.9046 0.9046 0.9046
1850.000000 0.9049 0.9050 0.9055 0.9057 0.9060
1845.000000 0.9062 0.9064 0.9067 0.9069 0.9073
1840.000000 0.9075 0.9076 0.9066 0.9057 0.9034
1835.000000 0.9006 0.8987 0.8974 0.8969 0.8967
1830.000000 0.8966 0.8966 0.8946 0.8924 0.8900
1825.000000 0.8860 0.8822 0.8791 0.8759 0.8723
1820.000000 0.8700 0.8707 0.8704 0.8704 0.8718
1815.000000 0.8732 0.8748 0.8764 0.8780 0.8795
1810.000000 0.8814 0.8828 0.8838 0.8854 0.8860
1805.000000 0.8868 0.8864 0.8860 0.8862 0.8864
1800.000000 0.8866 0.8868 0.8869 0.8870 0.8866
1795.000000 0.8858 0.8852 0.8845 0.8837 0.8831
1790.000000 0.8823 0.8815 0.8806 0.8798 0.8788
1785.000000 0.8778 0.8757 0.8738 0.8727 0.8727
1780.000000 0.8726 0.8756 0.8791 0.8824 0.8845
1775.000000 0.8870 0.8895 0.8914 0.8934 0.8943
1770.000000 0.8953 0.8962 0.8971 0.8979 0.8981
1765.000000 0.8985 0.8987 0.8987 0.8983 0.8979
1760.000000 0.8974 0.8967 0.8971 0.8961 0.8950
1755.000000 0.8927 0.8894 0.8853 0.8811 0.8760
1750.000000 0.8706 0.8598 0.8465 0.8245 0.8170
1745.000000 0.8094 0.8019 0.7941 0.7866 0.7812
1740.000000 0.7808 0.7808 0.7850 0.7891 0.7933
1735.000000 0.7991 0.8065 0.8139 0.8206 0.8245
1730.000000 0.8262 0.8267 0.8267 0.8268 0.8256
1725.000000 0.8212 0.8133 0.8052 0.7861 0.7714
1720.000000 0.7586 0.7264 0.6947 0.6739 0.6488
1715.000000 0.6171 0.5853 0.5607 0.4769 0.4427
1710.000000 0.3919 0.3411 0.2903 0.2395 0.1887
1705.000000 0.1379 0.0943 0.0696 0.0554 0.0437
1700.000000 0.0345 0.0283 0.0245 0.0221 0.0212
1695.000000 0.0214 0.0200 0.0207 0.0248 0.0348
1690.000000 0.0496 0.0632 0.0819 0.1667 0.1914
1685.000000 0.3061 0.3311 0.3539 0.3762 0.4247
1680.000000 0.4384 0.5063 0.5809 0.5903 0.5996
1675.000000 0.6339 0.6466 0.6602 0.6769 0.6930
1670.000000 0.7063 0.7169 0.7275 0.7378 0.7436
1665.000000 0.7495 0.7554 0.7613 0.7673 0.7727
1660.000000 0.7795 0.7836 0.7889 0.7959 0.8015
1655.000000 0.8075 0.8136 0.8189 0.8200 0.8238
1650.000000 0.8260 0.8278 0.8309 0.8362 0.8422
1645.000000 0.8482 0.8527 0.8574 0.8630 0.8676
1640.000000 0.8712 0.8741 0.8777 0.8808 0.8838
1635.000000 0.8857 0.8876 0.8910 0.8932 0.8956
1630.000000 0.8960 0.8968 0.8971 0.8982 0.8975
1625.000000 0.8982 0.8962 0.8875 0.8818 0.8646
1620.000000 0.8520 0.8513 0.8539 0.8650 0.8785
1615.000000 0.8875 0.8950 0.8995 0.9008 0.9008
1610.000000 0.8974 0.8842 0.8823 0.8743 0.5708
1605.000000 0.5755 0.5803 0.5892 0.6390 0.6903
1600.000000 0.7427 0.7981 0.8547 0.8713 0.8811
1595.000000 0.8925 0.9011 0.9086 0.9156 0.9231
1590.000000 0.9272 0.9310 0.8806 0.7973 0.7122
1585.000000 0.5822 0.5847 0.6179 0.6605 0.7023
1580.000000 0.7455 0.7879 0.8234 0.8463 0.8663
1575.000000 0.8778 0.8849 0.8932 0.9002 0.9098
1570.000000 0.9187 0.9244 0.9311 0.9382 0.9423
1565.000000 0.9473 0.9527 0.9581 0.9639 0.9694
1560.000000 0.9606 0.9515 0.9609 0.9699 0.9774
1555.000000 0.9839 0.9881 0.9889 0.9872 0.9830
1550.000000 0.9787 0.9781 0.9698 0.9628 0.9625
1545.000000 0.9669 0.9661 0.9629 0.9547 0.9473
1540.000000 0.9360 0.9286 0.9237 0.9176 0.9111
1535.000000 0.9036 0.8974 0.8935 0.8907 0.8882
1530.000000 0.8876 0.8889 0.8911 0.8929 0.8951
1525.000000 0.8975 0.9018 0.9045 0.9103 0.9140
1520.000000 0.9196 0.9239 0.9265 0.9289 0.9289
1515.000000 0.9280 0.9284 0.9276 0.9277 0.9268
1510.000000 0.9269 0.9276 0.9270 0.9266 0.9263
1505.000000 0.9259 0.9245 0.9221 0.9182 0.9164
1500.000000 0.9132 0.9082 0.8916 0.8760 0.8352
1495.000000 0.8193 0.8108 0.8328 0.8600 0.8706
1490.000000 0.8807 0.8937 0.9079 0.9183 0.9301
1485.000000 0.9348 0.9397 0.9467 0.9550 0.9617
1480.000000 0.9646 0.9628 0.9596 0.9562 0.9550
1475.000000 0.9534 0.9511 0.9518 0.9514 0.9496
1470.000000 0.9479 0.9461 0.9440 0.9439 0.9413
1465.000000 0.9390 0.9343 0.9312 0.9256 0.9193
1460.000000 0.9126 0.9039 0.8740 0.8175 0.7612
1455.000000 0.7041 0.6468 0.5905 0.5342 0.4779
1450.000000 0.4675 0.4671 0.4671 0.5890 0.7184
1445.000000 0.8482 0.8586 0.8697 0.8819 0.8952
1440.000000 0.9080 0.9110 0.9127 0.9109 0.9063
1435.000000 0.8989 0.8903 0.8812 0.8736 0.8680
1430.000000 0.8592 0.8488 0.7662 0.6973 0.6294
1425.000000 0.5937 0.5739 0.5580 0.5322 0.5044
1420.000000 0.4586 0.4128 0.3671 0.3355 0.3346
1415.000000 0.3340 0.3451 0.3623 0.3758 0.3890
1410.000000 0.4052 0.4447 0.4848 0.5248 0.5649
1405.000000 0.6049 0.6330 0.6467 0.6617 0.6845
1400.000000 0.7020 0.7151 0.7287 0.7419 0.7544
1395.000000 0.7689 0.7815 0.7934 0.8050 0.8164
1390.000000 0.8284 0.8381 0.8461 0.8557 0.8655
1385.000000 0.8753 0.8811 0.8815 0.8819 0.8825
1380.000000 0.8848 0.8862 0.8891 0.8920 0.8941
1375.000000 0.8954 0.8982 0.9006 0.9020 0.9034
1370.000000 0.9049 0.9065 0.9078 0.9090 0.9104
1365.000000 0.9117 0.9126 0.9128 0.9139 0.9138
1360.000000 0.9121 0.9106 0.9087 0.9066 0.9026
1355.000000 0.9005 0.8984 0.8964 0.8944 0.8924
1350.000000 0.8902 0.8880 0.8872 0.8869 0.8862
1345.000000 0.8858 0.8853 0.8856 0.8885 0.8920
1340.000000 0.8924 0.8916 0.8912 0.8896 0.8881
1335.000000 0.8866 0.8837 0.8790 0.8742 0.8673
1330.000000 0.8599 0.8507 0.8433 0.8358 0.8281
1325.000000 0.8188 0.8063 0.7935 0.7781 0.7631
1320.000000 0.6513 0.5420 0.4326 0.3236 0.3122
1315.000000 0.3140 0.3317 0.3920 0.4525 0.5128
1310.000000 0.5732 0.6335 0.6940 0.7543 0.7866
1305.000000 0.7910 0.7907 0.7908 0.7908 0.7883
1300.000000 0.7820 0.7742 0.7527 0.7306 0.7043
1295.000000 0.6314 0.5749 0.5183 0.4617 0.4048
1290.000000 0.3660 0.3081 0.2078 0.1370 0.1324
1285.000000 0.1327 0.1338 0.1558 0.1755 0.1908
1280.000000 0.2106 0.2644 0.2921 0.3196 0.3478
1275.000000 0.3756 0.4032 0.4309 0.4586 0.4862
1270.000000 0.5139 0.5415 0.5691 0.5972 0.6258
1265.000000 0.6535 0.6789 0.7006 0.7247 0.7396
1260.000000 0.7525 0.7635 0.7746 0.7909 0.8022
1255.000000 0.8098 0.8185 0.8292 0.8300 0.8308
1250.000000 0.8296 0.8271 0.8236 0.8183 0.8148
1245.000000 0.8146 0.8133 0.8136 0.8209 0.8384
1240.000000 0.8470 0.8543 0.8624 0.8692 0.8787
1235.000000 0.8890 0.8970 0.9046 0.9120 0.9172
1230.000000 0.9206 0.9238 0.9268 0.9297 0.9324
1225.000000 0.9353 0.9372 0.9385 0.9397 0.9410
1220.000000 0.9424 0.9437 0.9449 0.9460 0.9466
1215.000000 0.9474 0.9475 0.9481 0.9496 0.9496
1210.000000 0.9497 0.9487 0.9473 0.9469 0.9469
1205.000000 0.9470 0.9470 0.9470 0.9473 0.9478
1200.000000 0.9482 0.9487 0.9475 0.9475 0.9477
1195.000000 0.9508 0.9479 0.9493 0.9487 0.9480
1190.000000 0.9474 0.9467 0.9451 0.9424 0.9396
1185.000000 0.9333 0.9269 0.9192 0.9088 0.8980
1180.000000 0.8908 0.8851 0.8403 0.7876 0.7340
1175.000000 0.6805 0.6594 0.6610 0.6691 0.6950
1170.000000 0.7208 0.7466 0.7726 0.8003 0.8262
1165.000000 0.8521 0.8744 0.8854 0.8936 0.9000
1160.000000 0.9060 0.9085 0.9089 0.9090 0.9090
1155.000000 0.9087 0.9108 0.9167 0.9221 0.9254
1150.000000 0.9300 0.9337 0.9347 0.9349 0.9357
1145.000000 0.9359 0.9341 0.9305 0.9302 0.9274
1140.000000 0.9246 0.9242 0.9246 0.9249 0.9238
1135.000000 0.9249 0.9236 0.9201 0.9169 0.9134
1130.000000 0.9058 0.8970 0.8862 0.8613 0.7810
1125.000000 0.7304 0.7310 0.7294 0.7440 0.7675
1120.000000 0.7904 0.8135 0.8364 0.8592 0.8841
1115.000000 0.9073 0.9219 0.9250 0.9281 0.9314
1110.000000 0.9348 0.9365 0.9375 0.9402 0.9388
1105.000000 0.9387 0.9407 0.9382 0.9372 0.9362
1100.000000 0.9350 0.9326 0.9269 0.9189 0.9126
1095.000000 0.9070 0.9011 0.8945 0.8945 0.9023
1090.000000 0.9077 0.9125 0.9152 0.9151 0.9138
1085.000000 0.9123 0.9123 0.9136 0.9164 0.9177
1080.000000 0.9190 0.9191 0.9179 0.9161 0.9135
1075.000000 0.9105 0.9075 0.9031 0.8983 0.8928
1070.000000 0.8872 0.8746 0.7867 0.7903 0.7860
1065.000000 0.7988 0.8118 0.8251 0.8398 0.8531
1060.000000 0.8661 0.8775 0.8925 0.9046 0.9130
1055.000000 0.9163 0.9196 0.9224 0.9229 0.9239
1050.000000 0.9256 0.9258 0.9261 0.9265 0.9265
1045.000000 0.9264 0.9261 0.9257 0.9257 0.9257
1040.000000 0.9257 0.9251 0.9252 0.9251 0.9251
1035.000000 0.9251 0.9250 0.9250 0.9247 0.9243
1030.000000 0.9218 0.9183 0.9121 0.8264 0.6667
1025.000000 0.6564 0.6560 0.6548 0.6885 0.7242
1020.000000 0.7600 0.7958 0.8314 0.8673 0.9030
1015.000000 0.9143 0.9168 0.9187 0.9202 0.9218
1010.000000 0.9233 0.9241 0.9230 0.9233 0.9238
1005.000000 0.9239 0.9250 0.9216 0.9193 0.9163
1000.000000 0.9121 0.9045 0.9042 0.9029 0.9050
995.000000 0.9074 0.9115 0.9122 0.9135 0.9148
990.000000 0.9149 0.9150 0.9151 0.9146 0.9141
985.000000 0.9137 0.9130 0.9125 0.9119 0.9114
980.000000 0.9103 0.9092 0.9081 0.9069 0.9059
975.000000 0.9047 0.9026 0.9002 0.8968 0.8952
970.000000 0.8915 0.8878 0.8841 0.8809 0.8778
965.000000 0.8748 0.8714 0.8681 0.8649 0.8618
960.000000 0.8585 0.8553 0.8512 0.8468 0.8425
955.000000 0.8385 0.8335 0.8259 0.8187 0.8109
950.000000 0.8024 0.7938 0.7795 0.7711 0.7623
945.000000 0.7538 0.7453 0.7367 0.7282 0.7194
940.000000 0.7109 0.7023 0.6938 0.6853 0.6766
935.000000 0.6680 0.6500 0.6531 0.6532 0.6533
930.000000 0.6636 0.6715 0.6782 0.6835 0.6888
925.000000 0.6946 0.7003 0.7058 0.7100 0.7143
920.000000 0.7186 0.7232 0.7285 0.7316 0.7370
915.000000 0.7409 0.7450 0.7488 0.7536 0.7584
910.000000 0.7618 0.7653 0.7697 0.7737 0.7773
905.000000 0.7818 0.7854 0.7886 0.7928 0.7964
900.000000 0.8009 0.8042 0.8088 0.8137 0.8186
895.000000 0.8229 0.8290 0.8322 0.8370 0.8418
890.000000 0.8464 0.8513 0.8572 0.8600 0.8635
885.000000 0.8666 0.8708 0.8738 0.8752 0.8776
880.000000 0.8799 0.8813 0.8827 0.8842 0.8854
875.000000 0.8858 0.8864 0.8869 0.8874 0.8877
870.000000 0.8884 0.8897 0.8911 0.8944 0.8960
865.000000 0.8976 0.9012 0.9044 0.9061 0.9084
860.000000 0.9117 0.9134 0.9142 0.9133 0.9111
855.000000 0.9077 0.9021 0.8978 0.8924 0.8859
850.000000 0.8796 0.9075 0.9089 0.9079 0.9053
845.000000 0.9043 0.9012 0.8992 0.8977 0.8931
840.000000 0.8903 0.8893 0.8868 0.8876 0.8868
835.000000 0.8891 0.8928 0.8955 0.8995 0.9033
830.000000 0.9078 0.9109 0.9120 0.9140 0.9157
825.000000 0.9171 0.9193 0.9215 0.9221 0.9212
820.000000 0.9215 0.9221 0.9229 0.9233 0.9253
815.000000 0.9254 0.9243 0.9225 0.9218 0.9204
810.000000 0.9145 0.9074 0.8818 0.7983 0.7977
805.000000 0.8036 0.8124 0.8212 0.8278 0.8281
800.000000 0.8245 0.8180 0.8116 0.8053 0.8049
795.000000 0.8068 0.8282 0.8381 0.8479 0.8552
790.000000 0.8595 0.8651 0.8709 0.8776 0.8842
785.000000 0.8909 0.8965 0.8985 0.9008 0.9042
780.000000 0.9067 0.9106 0.9134 0.9154 0.9187
775.000000 0.9208 0.9227 0.9235 0.9245 0.9264
770.000000 0.9277 0.9276 0.9282 0.9295 0.9309
765.000000 0.9305 0.9310 0.9315 0.9320 0.9326
760.000000 0.9331 0.9331 0.9332 0.9333 0.9333
755.000000 0.9333 0.9338 0.9352 0.9350 0.9347
750.000000 0.9327 0.9339 0.9337 0.9333 0.9331
745.000000 0.9328 0.9326 0.9322 0.9320 0.9314
740.000000 0.9307 0.9300 0.9293 0.9287 0.9277
735.000000 0.9269 0.9258 0.9248 0.9238 0.9230
730.000000 0.9227 0.9205 0.9182 0.9160 0.9115
725.000000 0.9072 0.8925 0.8862 0.8818 0.8769
720.000000 0.8699 0.8540 0.8217 0.7926 0.7467
715.000000 0.5622 0.4336 0.3044 0.1749 0.0657
710.000000 0.0639 0.0672 0.2419 0.4649 0.6647
705.000000 0.6798 0.7023 0.7259 0.7483 0.7709
700.000000 0.7947 0.8171 0.8394 0.8618 0.8843
695.000000 0.8925 0.8963 0.8984 0.9019 0.9001
690.000000 0.8991 0.8970 0.8946 0.8889 0.8519
685.000000 0.7424 0.6672 0.6703 0.6701 0.6797
680.000000 0.7110 0.7665 0.8256 0.8834 0.9240
675.000000 0.9292 0.9311 0.9347 0.9367 0.9401
670.000000 0.9486 0.9620 0.9711 0.9559 0.9407
665.000000 0.9365 0.8436 0.6267 0.5188 0.5169
660.000000 0.5262 0.5651 0.6942 0.8251 0.8832
655.000000 0.8947 0.9015 0.9093 0.9155 0.9235
650.000000 0.9276 0.9313 0.9352 0.9383 0.9399
645.000000 0.9431 0.9443 0.9444 0.9455 0.9458
640.000000 0.9457 0.9468 0.9467 0.9468 0.9490
635.000000 0.9508 0.9502 0.9515 0.9526 0.9518
630.000000 0.9506 0.9498 0.9448 0.9408 0.9389
625.000000 0.9388 0.9399 0.9439 0.9488 0.9522
620.000000 0.9556 0.9584 0.9623 0.9622 0.9613
615.000000 0.9618 0.9616 0.9609 0.9613 0.9616
610.000000 0.9619 0.9622 0.9625 0.9615 0.9611
605.000000 0.9614 0.9617 0.9620 0.9623 0.9666
600.000000 0.9629 0.9625 0.9620 0.9617 0.9612
595.000000 0.9608 0.9602 0.9600 0.9598 0.9596
590.000000 0.9593 0.9590 0.9589 0.9578 0.9570
585.000000 0.9567 0.9553 0.9548 0.9544 0.9539
580.000000 0.9533 0.9527 0.9520 0.9499 0.9484
575.000000 0.9469 0.9474 0.9463 0.9450 0.9436
570.000000 0.9415 0.9396 0.9372 0.9328 0.9296
565.000000 0.9277 0.9237 0.9188 0.9158 0.9128
560.000000 0.9073 0.8998 0.8892 0.8685 0.8544
555.000000 0.8405 0.8320 0.8247 0.8124 0.7962
550.000000 0.7830 0.7475 0.7449 0.7445 0.7473
545.000000 0.7579 0.7687 0.7797 0.7910 0.8045
540.000000 0.8177 0.8304 0.8433 0.8489 0.8555
535.000000 0.8600 0.8629 0.8676 0.8711 0.8745
530.000000 0.8771 0.8790 0.8808 0.8826 0.8852
525.000000 0.8869 0.8879 0.8889 0.8898 0.8908
520.000000 0.8917 0.8923 0.8930 0.8937 0.8944
515.000000 0.8950 0.8957 0.8965 0.8971 0.8977
510.000000 0.8982 0.8988 0.8992 0.8994 0.8995
505.000000 0.8995 0.8996 0.8997 0.8998 0.8999
500.000000 0.9000 0.9000 0.9003 0.9003 0.9006
495.000000 0.9006 0.9003 0.9000 0.8999 0.8996
490.000000 0.8994 0.8990 0.8987 0.8983 0.8979
485.000000 0.8974 0.8970 0.8966 0.8962 0.8954
480.000000 0.8947 0.8938 0.8930 0.8921 0.8911
475.000000 0.8897 0.8884 0.8871 0.8858 0.8844
470.000000 0.8827 0.8811 0.8795 0.8778 0.8764
465.000000 0.8750 0.8736 0.8723 0.8709 0.8695
460.000000 0.8681 0.8663 0.8647 0.8631 0.8615
##END=
