##TITLE=BENZOIC ACID
##JCAMP-DX=4.24
##DATA TYPE=INFRARED SPECTRUM
##CLASS=COBLENTZ
##ORIGIN=DOW CHEMICAL COMPANY
##OWNER=COBLENTZ SOCIETY
Collection (C) 2018 copyright by the U.S. Secretary of Commerce
on behalf of the United States of America. All rights reserved.
##DATE=1964/10/05
##CAS REGISTRY NO=65-85-0
##MOLFORM=C7 H6 O2
##SOURCE REFERENCE=COBLENTZ NO. 6994
##$NIST SOURCE=COBLENTZ
##$NIST IMAGE=cob-r6994
##SPECTROMETER/DATA SYSTEM=DOW KBr FOREPRISM-GRATING
##INSTRUMENT PARAMETERS=BLAZED AT 3.5, 12.0, 20.0 MICRON, CHANGED AT 5.0, 7.5, 14.9 MICRON
$$ SPECTRAL FEATURE AT 660 CM^-^1 IS AN ARTIFACT CAUSED BY A CHANGE IN GRATING.
##STATE=VAPOR AT 160 C
##PATH LENGTH=100 CM
##SAMPLING PROCEDURE=TRANSMISSION
##RESOLUTION=2
##DATA PROCESSING=DIGITIZED BY NIST FROM HARD COPY (FROM TWO SEGMENTS)
##XUNITS=1/CM
##YUNITS=TRANSMITTANCE
##XFACTOR=1.000000
##YFACTOR=1
##DELTAX=1.267970
##FIRSTX=454.353
##LASTX=3791.65
##FIRSTY=0.91
##MAXX=3791.65
##MINX=454.353
##MAXY=1.009
##MINY=0.073001
##NPOINTS=2633
##XYDATA=(X++(Y..Y))
454.353000 0.9100 0.9100 0.9100 0.9100 0.9100
460.692852 0.9120 0.9180 0.9180 0.9220 0.9280
467.032705 0.9300 0.9320 0.9340 0.9400 0.9460
473.372557 0.9500 0.9540 0.9560 0.9560 0.9580
479.712410 0.9600 0.9620 0.9640 0.9660 0.9660
486.052262 0.9660 0.9660 0.9660 0.9660 0.9640
492.392115 0.9640 0.9640 0.9640 0.9640 0.9620
498.731967 0.9620 0.9620 0.9600 0.9600 0.9580
505.071820 0.9580 0.9560 0.9560 0.9540 0.9540
511.411672 0.9520 0.9500 0.9480 0.9480 0.9480
517.751525 0.9480 0.9500 0.9500 0.9480 0.9480
524.091377 0.9460 0.9460 0.9440 0.9440 0.9420
530.431230 0.9400 0.9360 0.9360 0.9340 0.9320
536.771082 0.9300 0.9260 0.9240 0.9180 0.9160
543.110935 0.9140 0.9120 0.9040 0.9000 0.8940
549.450787 0.8820 0.8720 0.8780 0.8740 0.8720
555.790640 0.8700 0.8620 0.8600 0.8540 0.8360
562.130492 0.8300 0.8300 0.8141 0.8120 0.8041
568.470345 0.8000 0.7960 0.7740 0.7201 0.6881
574.810197 0.7019 0.7378 0.7420 0.7539 0.7639
581.150050 0.7780 0.7980 0.8040 0.8140 0.8299
587.489902 0.8400 0.8599 0.8699 0.8919 0.9138
593.829755 0.9220 0.9320 0.9420 0.9540 0.9620
600.169607 0.9680 0.9780 0.9780 0.9820 0.9800
606.509460 0.9800 0.9800 0.9800 0.9780 0.9760
612.849312 0.9740 0.9700 0.9640 0.9560 0.9421
619.189164 0.9339 0.8780 0.8400 0.7861 0.7401
625.529017 0.6961 0.6960 0.7239 0.7419 0.7003
631.868869 0.6680 0.7280 0.7220 0.7140 0.7080
638.208722 0.6960 0.6960 0.7000 0.8213 0.8657
644.548574 0.8960 0.9220 0.9400 0.9540 0.9560
650.888427 0.9540 0.9460 0.9460 0.9460 0.9460
657.228279 0.9440 0.9440 0.9400 0.9400 0.9520
663.568132 0.9560 0.9620 0.9759 0.9720 0.9780
669.907984 1.0070 1.0070 0.9940 0.9900 0.9840
676.247837 0.9780 0.9780 0.9740 0.9641 0.9561
682.587689 0.9480 0.9400 0.9320 0.9200 0.9120
688.927542 0.9100 0.8582 0.8461 0.8341 0.8181
695.267394 0.8100 0.7960 0.7860 0.7520 0.7081
701.607247 0.6920 0.6541 0.6460 0.6341 0.6201
707.947099 0.6160 0.6020 0.5620 0.5181 0.4671
714.286952 0.3474 0.4147 0.4667 0.5058 0.5318
720.626804 0.5600 0.5820 0.5920 0.6000 0.6160
726.966657 0.6319 0.6519 0.6759 0.7078 0.7557
733.306509 0.7800 0.7960 0.8200 0.8520 0.8720
739.646362 0.8919 0.9119 0.9299 0.9320 0.9340
745.986214 0.9340 0.9340 0.9320 0.9180 0.9120
752.326067 0.8941 0.8900 0.8820 0.8721 0.8700
758.665919 0.8640 0.8380 0.8160 0.8160 0.8340
765.005771 0.8300 0.8160 0.8140 0.8120 0.7941
771.345624 0.7940 0.7960 0.8120 0.8200 0.8360
777.685476 0.8500 0.8540 0.8739 0.9019 0.9338
784.025329 0.9340 0.9380 0.9380 0.9380 0.9380
790.365181 0.9320 0.9240 0.9200 0.9140 0.9120
796.705034 0.9100 0.9100 0.9020 0.8940 0.8840
803.044886 0.8900 0.8900 0.8820 0.8780 0.8720
809.384739 0.8720 0.8580 0.8520 0.8500 0.8420
815.724591 0.8400 0.8400 0.8400 0.8420 0.8440
822.064444 0.8560 0.8640 0.8700 0.8820 0.8940
828.404296 0.9020 0.9120 0.9160 0.9259 0.9320
834.744149 0.9320 0.9340 0.9360 0.9380 0.9420
841.084001 0.9440 0.9460 0.9480 0.9460 0.9440
847.423854 0.9440 0.9480 0.9500 0.9540 0.9560
853.763706 0.9560 0.9560 0.9580 0.9580 0.9600
860.103559 0.9640 0.9680 0.9700 0.9720 0.9720
866.443411 0.9740 0.9740 0.9760 0.9760 0.9780
872.783264 0.9780 0.9800 0.9820 0.9820 0.9800
879.123116 0.9800 0.9800 0.9820 0.9820 0.9820
885.462969 0.9840 0.9840 0.9840 0.9840 0.9840
891.802821 0.9840 0.9840 0.9840 0.9840 0.9840
898.142674 0.9840 0.9840 0.9840 0.9820 0.9820
904.482526 0.9820 0.9820 0.9820 0.9820 0.9840
910.822379 0.9840 0.9840 0.9840 0.9840 0.9840
917.162231 0.9820 0.9820 0.9820 0.9800 0.9800
923.502083 0.9800 0.9800 0.9800 0.9800 0.9800
929.841936 0.9800 0.9800 0.9800 0.9780 0.9780
936.181788 0.9800 0.9800 0.9800 0.9820 0.9840
942.521641 0.9840 0.9820 0.9800 0.9780 0.9780
948.861493 0.9780 0.9800 0.9820 0.9840 0.9840
955.201346 0.9840 0.9820 0.9800 0.9800 0.9800
961.541198 0.9800 0.9840 0.9860 0.9860 0.9880
967.881051 0.9880 0.9880 0.9860 0.9860 0.9880
974.220903 0.9880 0.9880 0.9860 0.9860 0.9860
980.560756 0.9800 0.9820 0.9820 0.9840 0.9840
986.900608 0.9780 0.9780 0.9760 0.9700 0.9660
993.240461 0.9640 0.9580 0.9560 0.9540 0.9520
999.580313 0.9500 0.9340 0.9220 0.9140 0.9060
1005.920166 0.8940 0.8800 0.8740 0.8601 0.8043
1012.260018 0.7580 0.7400 0.7240 0.6980 0.6920
1018.599871 0.6621 0.6281 0.6180 0.6240 0.6260
1024.939723 0.6260 0.6260 0.6260 0.6180 0.6180
1031.279576 0.6300 0.6400 0.6460 0.6579 0.6739
1037.619428 0.7041 0.7240 0.7420 0.7780 0.8120
1043.959281 0.8180 0.8240 0.8300 0.8300 0.8300
1050.299133 0.8140 0.7940 0.7680 0.7360 0.7100
1056.638986 0.6781 0.6600 0.6321 0.6161 0.5881
1062.978838 0.5740 0.5720 0.5640 0.5620 0.5480
1069.318691 0.5360 0.5041 0.4671 0.4471 0.4171
1075.658543 0.3970 0.3810 0.3690 0.3550 0.3450
1081.998395 0.3310 0.3310 0.3330 0.3390 0.3490
1088.338248 0.3590 0.3670 0.3710 0.3970 0.4130
1094.678100 0.4170 0.4270 0.4449 0.4629 0.4909
1101.017953 0.5662 0.6261 0.6701 0.7160 0.7240
1107.357805 0.7300 0.7440 0.7500 0.7640 0.7779
1113.697658 0.7880 0.7960 0.8120 0.8200 0.8300
1120.037510 0.8320 0.8340 0.8380 0.8420 0.8440
1126.377363 0.8460 0.8500 0.8520 0.8540 0.8580
1132.717215 0.8600 0.8680 0.8700 0.8720 0.8720
1139.057068 0.8720 0.8720 0.8720 0.8740 0.8760
1145.396920 0.8760 0.8740 0.8740 0.8720 0.8720
1151.736773 0.8700 0.8620 0.8540 0.8520 0.8400
1158.076625 0.8320 0.8300 0.8160 0.7781 0.7342
1164.416478 0.6858 0.6398 0.5759 0.5079 0.4590
1170.756330 0.4130 0.3890 0.3710 0.3889 0.3711
1177.096183 0.3630 0.3550 0.3690 0.3430 0.3010
1183.436035 0.2830 0.2830 0.2950 0.3389 0.3848
1189.775888 0.4191 0.4511 0.4790 0.5020 0.5260
1196.115740 0.5260 0.5260 0.5499 0.5779 0.6178
1202.455593 0.6903 0.7622 0.8300 0.8520 0.8700
1208.795445 0.8920 0.9020 0.9140 0.9220 0.9379
1215.135298 0.9420 0.9460 0.9500 0.9520 0.9520
1221.475150 0.9520 0.9500 0.9480 0.9480 0.9460
1227.815002 0.9420 0.9380 0.9360 0.9320 0.9300
1234.154855 0.9320 0.9260 0.9220 0.9140 0.9120
1240.494707 0.9060 0.9000 0.8940 0.8900 0.8780
1246.834560 0.8720 0.8580 0.8540 0.8301 0.8220
1253.174412 0.8120 0.7980 0.7820 0.7760 0.7740
1259.514265 0.7580 0.7500 0.7400 0.7240 0.7160
1265.854117 0.7100 0.7080 0.7080 0.7080 0.7080
1272.193970 0.7100 0.7160 0.7240 0.7240 0.7260
1278.533822 0.7320 0.7380 0.7400 0.7420 0.7460
1284.873675 0.7460 0.7480 0.7480 0.7480 0.7580
1291.213527 0.7601 0.7761 0.8000 0.8120 0.8200
1297.553380 0.8320 0.8380 0.8500 0.8580 0.8719
1303.893232 0.8820 0.8840 0.8900 0.8920 0.8920
1310.233085 0.8920 0.8920 0.8820 0.8760 0.8720
1316.572937 0.8700 0.8620 0.8540 0.8500 0.8340
1322.912790 0.8240 0.8180 0.8160 0.8140 0.8120
1329.252642 0.8060 0.8020 0.7980 0.7960 0.7720
1335.592495 0.7640 0.7560 0.7500 0.7420 0.7320
1341.932347 0.6299 0.6159 0.5779 0.5360 0.5240
1348.272200 0.5180 0.5140 0.5140 0.5140 0.5140
1354.612052 0.5140 0.5140 0.5160 0.5320 0.5140
1360.951905 0.5160 0.5500 0.6299 0.6599 0.7098
1367.291757 0.7421 0.7580 0.7640 0.7760 0.8000
1373.631610 0.8220 0.8340 0.8340 0.8320 0.8300
1379.971462 0.8300 0.8280 0.8300 0.8320 0.8340
1386.311314 0.8360 0.8360 0.8380 0.8400 0.8400
1392.651167 0.8400 0.8420 0.8440 0.8440 0.8500
1398.991019 0.8500 0.8540 0.8640 0.8660 0.8700
1405.330872 0.8720 0.8720 0.8780 0.8900 0.8960
1411.670724 0.9020 0.9040 0.9060 0.9120 0.9140
1418.010577 0.9140 0.9160 0.9220 0.9280 0.9320
1424.350429 0.9340 0.9340 0.9340 0.9340 0.9340
1430.690282 0.9320 0.9320 0.9320 0.9300 0.9280
1437.030134 0.9240 0.9220 0.9160 0.9120 0.9100
1443.369987 0.9020 0.8960 0.8920 0.8880 0.8760
1449.709839 0.8580 0.8540 0.8580 0.8620 0.8720
1456.049692 0.8740 0.8760 0.8760 0.8720 0.8700
1462.389544 0.8700 0.8720 0.8800 0.8940 0.9040
1468.729397 0.9121 0.9320 0.9460 0.9480 0.9540
1475.069249 0.9500 0.9460 0.9440 0.9440 0.9400
1481.409102 0.9300 0.9240 0.9120 0.9120 0.9060
1487.748954 0.9060 0.9060 0.9060 0.9080 0.9120
1494.088807 0.9161 0.9320 0.9380 0.9400 0.9400
1500.428659 0.9420 0.9440 0.9460 0.9480 0.9520
1506.768512 0.9540 0.9540 0.9480 0.9500 0.9560
1513.108364 0.9560 0.9580 0.9600 0.9600 0.9600
1519.448217 0.9580 0.9560 0.9560 0.9560 0.9560
1525.788069 0.9540 0.9540 0.9540 0.9540 0.9520
1532.127922 0.9520 0.9520 0.9540 0.9540 0.9540
1538.467774 0.9520 0.9520 0.9480 0.9460 0.9440
1544.807626 0.9440 0.9440 0.9420 0.9420 0.9400
1551.147479 0.9360 0.9340 0.9340 0.9340 0.9340
1557.487331 0.9320 0.9300 0.9300 0.9280 0.9280
1563.827184 0.9280 0.9280 0.9280 0.9280 0.9280
1570.167036 0.9260 0.9240 0.9220 0.9180 0.9180
1576.506889 0.9160 0.9140 0.9100 0.9060 0.9000
1582.846741 0.8960 0.8920 0.8899 0.8760 0.8740
1589.186594 0.8680 0.8340 0.8120 0.7980 0.7780
1595.526446 0.7760 0.7740 0.7700 0.7680 0.7700
1601.866299 0.7860 0.8020 0.8140 0.8300 0.8400
1608.206151 0.8480 0.8520 0.8560 0.8680 0.8700
1614.546004 0.8700 0.8740 0.8900 0.8940 0.9080
1620.885856 0.9240 0.9320 0.9360 0.9380 0.9400
1627.225709 0.9400 0.9400 0.9400 0.9420 0.9420
1633.565561 0.9440 0.9460 0.9460 0.9460 0.9460
1639.905414 0.9460 0.9460 0.9460 0.9460 0.9480
1646.245266 0.9480 0.9540 0.9540 0.9500 0.9460
1652.585119 0.9460 0.9460 0.9460 0.9460 0.9480
1658.924971 0.9480 0.9480 0.9540 0.9540 0.9540
1665.264824 0.9540 0.9540 0.9520 0.9520 0.9520
1671.604676 0.9520 0.9520 0.9520 0.9500 0.9500
1677.944529 0.9480 0.9480 0.9480 0.9460 0.9420
1684.284381 0.9420 0.9400 0.9380 0.9360 0.9340
1690.624233 0.9320 0.9300 0.9260 0.9240 0.9200
1696.964086 0.9160 0.9140 0.9140 0.9080 0.9000
1703.303938 0.8940 0.8900 0.8800 0.8720 0.8720
1709.643791 0.8680 0.8620 0.8560 0.8520 0.8400
1715.983643 0.8340 0.8300 0.8280 0.8280 0.8320
1722.323496 0.8340 0.8380 0.8440 0.8440 0.8460
1728.663348 0.8460 0.8480 0.8480 0.8460 0.8440
1735.003201 0.8340 0.8319 0.8139 0.7980 0.7859
1741.343053 0.7439 0.6940 0.6540 0.6260 0.5361
1747.682906 0.4867 0.4327 0.3789 0.3544 0.1950
1754.022758 0.1789 0.1490 0.1210 0.0910 0.0810
1760.362611 0.0790 0.0791 0.0890 0.0890 0.0890
1766.702463 0.0850 0.0790 0.0750 0.0730 0.0750
1773.042316 0.1494 0.2252 0.2631 0.2833 0.3732
1779.382168 0.4371 0.4711 0.5900 0.6859 0.7160
1785.722021 0.7442 0.7822 0.8141 0.8380 0.8501
1792.061873 0.8740 0.8960 0.9020 0.9020 0.9060
1798.401726 0.9120 0.9120 0.9140 0.9140 0.9120
1804.741578 0.9120 0.9120 0.9060 0.9000 0.9000
1811.081431 0.8960 0.8920 0.8880 0.8880 0.8880
1817.421283 0.8880 0.8880 0.8860 0.8840 0.8820
1823.761136 0.8800 0.8800 0.8840 0.8920 0.8960
1830.100988 0.8980 0.9120 0.9180 0.9220 0.9240
1836.440841 0.9260 0.9320 0.9340 0.9360 0.9400
1842.780693 0.9420 0.9440 0.9460 0.9500 0.9520
1849.120545 0.9540 0.9560 0.9560 0.9560 0.9560
1855.460398 0.9580 0.9580 0.9580 0.9600 0.9600
1861.800250 0.9600 0.9600 0.9600 0.9600 0.9600
1868.140103 0.9620 0.9620 0.9620 0.9620 0.9620
1874.479955 0.9620 0.9620 0.9620 0.9620 0.9620
1880.819808 0.9620 0.9620 0.9600 0.9600 0.9600
1887.159660 0.9600 0.9600 0.9600 0.9600 0.9580
1893.499513 0.9580 0.9560 0.9560 0.9540 0.9540
1899.839365 0.9540 0.9560 0.9560 0.9540 0.9540
1906.179218 0.9540 0.9540 0.9540 0.9520 0.9500
1912.519070 0.9460 0.9440 0.9420 0.9420 0.9440
1918.858923 0.9440 0.9460 0.9460 0.9440 0.9440
1925.198775 0.9440 0.9460 0.9480 0.9480 0.9480
1931.538628 0.9500 0.9520 0.9520 0.9520 0.9520
1937.878480 0.9520 0.9520 0.9520 0.9520 0.9520
1944.218333 0.9500 0.9500 0.9500 0.9480 0.9460
1950.558185 0.9460 0.9460 0.9460 0.9460 0.9480
1956.898038 0.9480 0.9480 0.9480 0.9480 0.9480
1963.237890 0.9480 0.9480 0.9480 0.9480 0.9480
1969.577743 0.9480 0.9500 0.9520 0.9540 0.9560
1975.917595 0.9560 0.9580 0.9580 0.9580 0.9600
1982.257448 0.9620 0.9620 0.9640 0.9660 0.9660
1988.597300 0.9680 0.9680 0.9680 0.9700 0.9700
1994.937153 0.9720 0.9740 0.9740 0.9740 0.9340
2001.277005 0.9320 0.9300 0.9300 0.9300 0.9300
2007.616857 0.9300 0.9300 0.9300 0.9300 0.9300
2013.956710 0.9310 0.9320 0.9320 0.9320 0.9320
2020.296562 0.9320 0.9310 0.9300 0.9300 0.9300
2026.636415 0.9300 0.9300 0.9310 0.9320 0.9330
2032.976267 0.9340 0.9350 0.9360 0.9360 0.9360
2039.316120 0.9360 0.9360 0.9350 0.9341 0.9340
2045.655972 0.9340 0.9340 0.9340 0.9340 0.9340
2051.995825 0.9350 0.9360 0.9360 0.9360 0.9360
2058.335677 0.9360 0.9360 0.9360 0.9369 0.9379
2064.675530 0.9389 0.9399 0.9400 0.9400 0.9400
2071.015382 0.9400 0.9400 0.9400 0.9400 0.9400
2077.355235 0.9400 0.9400 0.9400 0.9400 0.9400
2083.695087 0.9400 0.9400 0.9400 0.9400 0.9400
2090.034940 0.9400 0.9400 0.9400 0.9400 0.9400
2096.374792 0.9400 0.9400 0.9400 0.9409 0.9419
2102.714645 0.9420 0.9420 0.9429 0.9439 0.9440
2109.054497 0.9440 0.9440 0.9440 0.9440 0.9440
2115.394350 0.9440 0.9440 0.9440 0.9440 0.9440
2121.734202 0.9440 0.9440 0.9440 0.9440 0.9440
2128.074055 0.9440 0.9440 0.9440 0.9440 0.9440
2134.413907 0.9440 0.9431 0.9421 0.9420 0.9420
2140.753760 0.9411 0.9401 0.9400 0.9400 0.9400
2147.093612 0.9400 0.9409 0.9419 0.9420 0.9420
2153.433464 0.9420 0.9420 0.9420 0.9420 0.9420
2159.773317 0.9420 0.9429 0.9439 0.9440 0.9440
2166.113169 0.9440 0.9440 0.9448 0.9458 0.9460
2172.453022 0.9460 0.9460 0.9460 0.9477 0.9497
2178.792874 0.9500 0.9500 0.9508 0.9518 0.9528
2185.132727 0.9538 0.9540 0.9540 0.9540 0.9540
2191.472579 0.9540 0.9540 0.9540 0.9540 0.9540
2197.812432 0.9540 0.9540 0.9540 0.9540 0.9540
2204.152284 0.9548 0.9558 0.9568 0.9578 0.9580
2210.492137 0.9580 0.9580 0.9580 0.9580 0.9580
2216.831989 0.9580 0.9580 0.9580 0.9580 0.9580
2223.171842 0.9580 0.9580 0.9580 0.9580 0.9580
2229.511694 0.9580 0.9580 0.9580 0.9580 0.9580
2235.851547 0.9580 0.9580 0.9580 0.9580 0.9580
2242.191399 0.9580 0.9580 0.9580 0.9580 0.9580
2248.531252 0.9580 0.9588 0.9598 0.9600 0.9600
2254.871104 0.9600 0.9600 0.9600 0.9600 0.9600
2261.210957 0.9600 0.9600 0.9600 0.9600 0.9600
2267.550809 0.9592 0.9582 0.9573 0.9563 0.9567
2273.890662 0.9577 0.9580 0.9580 0.9587 0.9598
2280.230514 0.9608 0.9618 0.9620 0.9620 0.9627
2286.570367 0.9637 0.9640 0.9640 0.9633 0.9623
2292.910219 0.9620 0.9620 0.9627 0.9637 0.9640
2299.250072 0.9640 0.9618 0.9589 0.9580 0.9580
2305.589924 0.9580 0.9580 0.9602 0.9632 0.9647
2311.929776 0.9657 0.9660 0.9660 0.9667 0.9677
2318.269629 0.9680 0.9680 0.9673 0.9663 0.9660
2324.609481 0.9660 0.9667 0.9677 0.9694 0.9714
2330.949334 0.9727 0.9737 0.9740 0.9740 0.9733
2337.289186 0.9723 0.9706 0.9686 0.9680 0.9680
2343.629039 0.9680 0.9680 0.9680 0.9680 0.9680
2349.968891 0.9680 0.9680 0.9680 0.9680 0.9680
2356.308744 0.9680 0.9680 0.9680 0.9680 0.9680
2362.648596 0.9680 0.9680 0.9680 0.9680 0.9680
2368.988449 0.9687 0.9697 0.9707 0.9717 0.9713
2375.328301 0.9703 0.9693 0.9684 0.9673 0.9663
2381.668154 0.9660 0.9660 0.9660 0.9660 0.9660
2388.008006 0.9660 0.9660 0.9660 0.9660 0.9660
2394.347859 0.9660 0.9660 0.9660 0.9660 0.9660
2400.687711 0.9660 0.9660 0.9660 0.9660 0.9660
2407.027564 0.9666 0.9676 0.9680 0.9680 0.9680
2413.367416 0.9680 0.9680 0.9680 0.9680 0.9680
2419.707269 0.9680 0.9680 0.9680 0.9680 0.9680
2426.047121 0.9680 0.9674 0.9664 0.9660 0.9660
2432.386974 0.9660 0.9660 0.9660 0.9660 0.9666
2438.726826 0.9676 0.9680 0.9680 0.9686 0.9696
2445.066679 0.9700 0.9700 0.9694 0.9684 0.9674
2451.406531 0.9664 0.9660 0.9660 0.9660 0.9660
2457.746384 0.9660 0.9660 0.9666 0.9676 0.9680
2464.086236 0.9680 0.9680 0.9680 0.9680 0.9680
2470.426088 0.9680 0.9680 0.9686 0.9696 0.9700
2476.765941 0.9700 0.9694 0.9684 0.9680 0.9680
2483.105793 0.9686 0.9696 0.9700 0.9700 0.9694
2489.445646 0.9684 0.9680 0.9680 0.9686 0.9696
2495.785498 0.9700 0.9700 0.9700 0.9700 0.9700
2502.125351 0.9700 0.9700 0.9700 0.9700 0.9700
2508.465203 0.9694 0.9684 0.9680 0.9680 0.9680
2514.805056 0.9680 0.9680 0.9680 0.9680 0.9680
2521.144908 0.9680 0.9680 0.9680 0.9680 0.9680
2527.484761 0.9680 0.9680 0.9680 0.9680 0.9680
2533.824613 0.9680 0.9680 0.9680 0.9680 0.9680
2540.164466 0.9680 0.9680 0.9680 0.9680 0.9680
2546.504318 0.9680 0.9680 0.9680 0.9680 0.9680
2552.844171 0.9680 0.9680 0.9680 0.9680 0.9680
2559.184023 0.9685 0.9695 0.9705 0.9715 0.9725
2565.523876 0.9735 0.9740 0.9740 0.9735 0.9725
2571.863728 0.9715 0.9705 0.9700 0.9700 0.9700
2578.203581 0.9700 0.9700 0.9700 0.9700 0.9700
2584.543433 0.9700 0.9700 0.9700 0.9700 0.9700
2590.883286 0.9700 0.9700 0.9700 0.9700 0.9700
2597.223138 0.9700 0.9700 0.9700 0.9700 0.9700
2603.562991 0.9700 0.9700 0.9700 0.9700 0.9700
2609.902843 0.9700 0.9700 0.9700 0.9700 0.9700
2616.242695 0.9700 0.9700 0.9700 0.9691 0.9671
2622.582548 0.9660 0.9660 0.9664 0.9674 0.9680
2628.922400 0.9680 0.9684 0.9694 0.9704 0.9714
2635.262253 0.9720 0.9720 0.9720 0.9720 0.9720
2641.602105 0.9720 0.9720 0.9720 0.9720 0.9720
2647.941958 0.9720 0.9720 0.9716 0.9706 0.9696
2654.281810 0.9686 0.9680 0.9680 0.9680 0.9680
2660.621663 0.9680 0.9680 0.9684 0.9694 0.9700
2666.961515 0.9700 0.9700 0.9700 0.9700 0.9700
2673.301368 0.9696 0.9686 0.9680 0.9680 0.9680
2679.641220 0.9680 0.9680 0.9680 0.9680 0.9680
2685.981073 0.9680 0.9680 0.9680 0.9680 0.9680
2692.320925 0.9680 0.9684 0.9694 0.9700 0.9700
2698.660778 0.9700 0.9700 0.9700 0.9700 0.9704
2705.000630 0.9714 0.9720 0.9720 0.9720 0.9720
2711.340483 0.9720 0.9720 0.9720 0.9720 0.9720
2717.680335 0.9720 0.9716 0.9706 0.9700 0.9700
2724.020188 0.9700 0.9700 0.9707 0.9727 0.9740
2730.360040 0.9740 0.9740 0.9740 0.9740 0.9740
2736.699893 0.9740 0.9740 0.9740 0.9740 0.9740
2743.039745 0.9740 0.9743 0.9753 0.9760 0.9760
2749.379598 0.9757 0.9747 0.9737 0.9727 0.9717
2755.719450 0.9707 0.9700 0.9700 0.9700 0.9700
2762.059303 0.9703 0.9713 0.9720 0.9720 0.9717
2768.399155 0.9707 0.9697 0.9687 0.9680 0.9680
2774.739007 0.9677 0.9667 0.9660 0.9660 0.9663
2781.078860 0.9673 0.9680 0.9680 0.9680 0.9680
2787.418712 0.9680 0.9680 0.9680 0.9680 0.9683
2793.758565 0.9693 0.9703 0.9713 0.9720 0.9720
2800.098417 0.9720 0.9720 0.9720 0.9720 0.9720
2806.438270 0.9720 0.9720 0.9720 0.9720 0.9720
2812.778122 0.9720 0.9720 0.9720 0.9720 0.9720
2819.117975 0.9720 0.9720 0.9720 0.9720 0.9720
2825.457827 0.9720 0.9720 0.9720 0.9720 0.9717
2831.797680 0.9708 0.9700 0.9700 0.9698 0.9687
2838.137532 0.9677 0.9667 0.9657 0.9647 0.9640
2844.477385 0.9640 0.9640 0.9640 0.9640 0.9640
2850.817237 0.9640 0.9640 0.9640 0.9640 0.9640
2857.157090 0.9640 0.9640 0.9640 0.9640 0.9640
2863.496942 0.9640 0.9640 0.9642 0.9652 0.9660
2869.836795 0.9660 0.9658 0.9648 0.9640 0.9640
2876.176647 0.9640 0.9640 0.9640 0.9640 0.9640
2882.516500 0.9640 0.9640 0.9640 0.9638 0.9628
2888.856352 0.9620 0.9620 0.9620 0.9620 0.9620
2895.196205 0.9620 0.9620 0.9620 0.9620 0.9620
2901.536057 0.9618 0.9608 0.9598 0.9588 0.9580
2907.875910 0.9580 0.9580 0.9580 0.9580 0.9580
2914.215762 0.9580 0.9580 0.9578 0.9568 0.9558
2920.555614 0.9548 0.9540 0.9540 0.9540 0.9540
2926.895467 0.9540 0.9540 0.9540 0.9540 0.9540
2933.235319 0.9540 0.9540 0.9540 0.9540 0.9540
2939.575172 0.9540 0.9540 0.9540 0.9540 0.9540
2945.915024 0.9540 0.9540 0.9540 0.9540 0.9540
2952.254877 0.9535 0.9506 0.9479 0.9469 0.9459
2958.594729 0.9449 0.9432 0.9372 0.9312 0.9251
2964.934582 0.9195 0.9165 0.9140 0.9140 0.9143
2971.274434 0.9163 0.9186 0.9225 0.9264 0.9294
2977.614287 0.9321 0.9331 0.9345 0.9385 0.9427
2983.954139 0.9487 0.9541 0.9551 0.9561 0.9571
2990.293992 0.9581 0.9591 0.9600 0.9600 0.9601
2996.633844 0.9611 0.9621 0.9631 0.9640 0.9640
3002.973697 0.9638 0.9618 0.9599 0.9589 0.9580
3009.313549 0.9580 0.9580 0.9580 0.9580 0.9580
3015.653402 0.9580 0.9580 0.9579 0.9569 0.9559
3021.993254 0.9549 0.9537 0.9507 0.9479 0.9469
3028.333107 0.9459 0.9449 0.9439 0.9429 0.9419
3034.672959 0.9399 0.9378 0.9348 0.9317 0.9277
3041.012812 0.9236 0.9186 0.9139 0.9129 0.9117
3047.352664 0.9077 0.9039 0.9029 0.9019 0.8999
3053.692517 0.8979 0.8959 0.8939 0.8929 0.8917
3060.032369 0.8868 0.8819 0.8789 0.8759 0.8739
3066.372222 0.8718 0.8688 0.8657 0.8607 0.8555
3072.712074 0.8465 0.8379 0.8359 0.8340 0.8350
3079.051926 0.8361 0.8381 0.8401 0.8431 0.8461
3085.391779 0.8481 0.8500 0.8510 0.8521 0.8561
3091.731631 0.8608 0.8798 0.8980 0.8990 0.9001
3098.071484 0.9031 0.9061 0.9091 0.9120 0.9130
3104.411336 0.9140 0.9140 0.9140 0.9150 0.9160
3110.751189 0.9190 0.9220 0.9300 0.9380 0.9420
3117.091041 0.9461 0.9491 0.9520 0.9530 0.9540
3123.430894 0.9570 0.9600 0.9600 0.9600 0.9640
3129.770746 0.9680 0.9700 0.9720 0.9720 0.9720
3136.110599 0.9730 0.9740 0.9740 0.9740 0.9750
3142.450451 0.9760 0.9760 0.9760 0.9750 0.9740
3148.790304 0.9740 0.9740 0.9740 0.9740 0.9740
3155.130156 0.9740 0.9740 0.9740 0.9740 0.9740
3161.470009 0.9740 0.9740 0.9740 0.9740 0.9740
3167.809861 0.9740 0.9740 0.9740 0.9740 0.9740
3174.149714 0.9750 0.9760 0.9760 0.9760 0.9760
3180.489566 0.9760 0.9769 0.9779 0.9780 0.9780
3186.829419 0.9780 0.9780 0.9780 0.9780 0.9780
3193.169271 0.9780 0.9790 0.9799 0.9800 0.9800
3199.509124 0.9800 0.9800 0.9800 0.9800 0.9800
3205.848976 0.9800 0.9800 0.9800 0.9800 0.9800
3212.188829 0.9800 0.9800 0.9800 0.9800 0.9800
3218.528681 0.9800 0.9800 0.9800 0.9800 0.9800
3224.868534 0.9800 0.9800 0.9809 0.9819 0.9820
3231.208386 0.9820 0.9820 0.9820 0.9820 0.9820
3237.548238 0.9820 0.9820 0.9820 0.9820 0.9820
3243.888091 0.9820 0.9829 0.9839 0.9840 0.9840
3250.227943 0.9840 0.9840 0.9849 0.9859 0.9860
3256.567796 0.9860 0.9869 0.9879 0.9880 0.9880
3262.907648 0.9880 0.9880 0.9880 0.9880 0.9871
3269.247501 0.9861 0.9860 0.9860 0.9860 0.9860
3275.587353 0.9860 0.9860 0.9860 0.9860 0.9869
3281.927206 0.9879 0.9880 0.9880 0.9880 0.9880
3288.267058 0.9888 0.9898 0.9900 0.9900 0.9900
3294.606911 0.9900 0.9900 0.9900 0.9909 0.9919
3300.946763 0.9929 0.9938 0.9940 0.9940 0.9932
3307.286616 0.9922 0.9920 0.9920 0.9920 0.9920
3313.626468 0.9920 0.9920 0.9920 0.9920 0.9920
3319.966321 0.9920 0.9920 0.9920 0.9912 0.9902
3326.306173 0.9900 0.9900 0.9908 0.9918 0.9920
3332.646026 0.9920 0.9920 0.9920 0.9920 0.9920
3338.985878 0.9928 0.9938 0.9948 0.9958 0.9960
3345.325731 0.9960 0.9952 0.9942 0.9932 0.9922
3351.665583 0.9912 0.9902 0.9900 0.9900 0.9900
3358.005436 0.9900 0.9908 0.9918 0.9920 0.9920
3364.345288 0.9920 0.9920 0.9928 0.9938 0.9940
3370.685141 0.9940 0.9940 0.9940 0.9940 0.9940
3377.024993 0.9948 0.9958 0.9960 0.9960 0.9960
3383.364845 0.9960 0.9960 0.9960 0.9968 0.9978
3389.704698 0.9980 0.9980 0.9980 0.9980 0.9980
3396.044550 0.9980 0.9980 0.9980 0.9980 0.9980
3402.384403 0.9980 0.9980 0.9980 0.9980 0.9980
3408.724255 0.9980 0.9980 0.9980 0.9980 0.9980
3415.064108 0.9980 0.9980 0.9980 0.9980 0.9980
3421.403960 0.9980 0.9980 0.9980 0.9980 0.9980
3427.743813 0.9980 0.9980 0.9980 0.9980 0.9980
3434.083665 0.9980 0.9980 0.9980 0.9980 0.9980
3440.423518 0.9980 0.9980 0.9980 0.9980 0.9980
3446.763370 0.9980 0.9980 0.9980 0.9980 0.9980
3453.103223 0.9980 0.9980 0.9980 0.9980 0.9980
3459.443075 0.9980 0.9973 0.9963 0.9960 0.9960
3465.782928 0.9960 0.9960 0.9960 0.9960 0.9960
3472.122780 0.9960 0.9953 0.9943 0.9940 0.9940
3478.462633 0.9933 0.9923 0.9913 0.9903 0.9893
3484.802485 0.9883 0.9866 0.9847 0.9820 0.9790
3491.142338 0.9780 0.9780 0.9773 0.9763 0.9760
3497.482190 0.9760 0.9760 0.9760 0.9767 0.9777
3503.822043 0.9780 0.9780 0.9780 0.9780 0.9793
3510.161895 0.9813 0.9827 0.9837 0.9853 0.9873
3516.501748 0.9893 0.9913 0.9933 0.9953 0.9966
3522.841600 0.9977 0.9987 0.9997 1.0000 1.0000
3529.181453 0.9994 0.9984 0.9980 0.9980 0.9980
3535.521305 0.9980 0.9974 0.9964 0.9960 0.9960
3541.861157 0.9954 0.9944 0.9921 0.9892 0.9861
3548.201010 0.9831 0.9814 0.9804 0.9787 0.9767
3554.540862 0.9704 0.9614 0.9505 0.9386 0.9167
3560.880715 0.8888 0.8682 0.8523 0.7860 0.6873
3567.220567 0.6174 0.5665 0.5034 0.4321 0.4018
3573.560420 0.3998 0.4002 0.4022 0.4085 0.4175
3579.900272 0.4264 0.4354 0.4420 0.4470 0.4885
3586.240125 0.5548 0.6238 0.6946 0.7631 0.8299
3592.579977 0.8754 0.9053 0.9346 0.9636 0.9789
3598.919830 0.9839 0.9878 0.9908 0.9926 0.9936
3605.259682 0.9940 0.9940 0.9940 0.9940 0.9946
3611.599535 0.9956 0.9960 0.9960 0.9960 0.9960
3617.939387 0.9960 0.9960 0.9960 0.9960 0.9966
3624.279240 0.9976 0.9980 0.9980 0.9980 0.9980
3630.619092 0.9980 0.9980 0.9980 0.9980 0.9980
3636.958945 0.9980 0.9980 0.9980 0.9980 0.9980
3643.298797 0.9980 0.9980 0.9980 0.9980 0.9980
3649.638650 0.9980 0.9980 0.9980 0.9980 0.9980
3655.978502 0.9975 0.9965 0.9960 0.9960 0.9965
3662.318355 0.9975 0.9980 0.9980 0.9985 0.9995
3668.658207 1.0000 1.0000 1.0000 1.0000 1.0000
3674.998060 1.0000 0.9995 0.9985 0.9975 0.9965
3681.337912 0.9955 0.9945 0.9935 0.9925 0.9920
3687.677765 0.9920 0.9935 0.9965 0.9980 0.9980
3694.017617 0.9985 0.9995 1.0002 1.0007 1.0010
3700.357469 1.0010 1.0010 1.0010 1.0003 0.9988
3706.697322 0.9980 0.9980 0.9985 0.9995 1.0002
3713.037174 1.0007 1.0015 1.0025 1.0030 1.0030
3719.377027 1.0030 1.0030 1.0025 1.0015 1.0008
3725.716879 1.0003 1.0002 1.0007 1.0015 1.0025
3732.056732 1.0035 1.0045 1.0050 1.0050 1.0055
3738.396584 1.0065 1.0070 1.0070 1.0070 1.0070
3744.736437 1.0070 1.0070 1.0070 1.0070 1.0066
3751.076289 1.0055 1.0050 1.0050 1.0050 1.0050
3757.416142 1.0050 1.0050 1.0054 1.0064 1.0070
3763.755994 1.0070 1.0074 1.0084 1.0090 1.0090
3770.095847 1.0090 1.0090 1.0090 1.0090 1.0090
3776.435699 1.0090 1.0090 1.0090 1.0090 1.0090
3782.775552 1.0090 1.0090 1.0090 1.0090 1.0086
3789.115404 1.0076 1.0070 1.0070
##END=
