##TITLE=Uracil
##JCAMP-DX=4.24
##DATA TYPE=INFRARED SPECTRUM
##CLASS=COBLENTZ III
##ORIGIN=K. K. DEB-NCI FREDERICK CANCER RESEARCH CENTER
##OWNER=Copyright (C) 1987 by the Coblentz Society
Collection (C) 2018 copyright by the U.S. Secretary of Commerce
on behalf of the United States of America. All rights reserved.
##DATE=1974/08/20
##NAMES=2,4(1H,3H)-pyrimidinedione
2,4-(1H,3H)PYRIMIDINEDIONE
##CAS REGISTRY NO=66-22-8
##MOLFORM=C4 H4 N2 O2
##SOURCE REFERENCE=COBLENTZ NO. 9732
##$NIST SOURCE=COBLENTZ
##$NIST IMAGE=cob9732
##SPECTROMETER/DATA SYSTEM=PERKIN-ELMER 180 (GRATING)
##INSTRUMENT PARAMETERS=GRATINGS: 2000, 1000, 500, 250 CM^-^1; FILTER CHANGE: 2970, 2000, 1485, 1000, 743, 500, 372, 250, 186 CM^-^1.
##STATE=SOLID (1.2 mg / 400 mg KBr DISC)
$$ PURITY - ANALYTICAL
##SAMPLING PROCEDURE=TRANSMISSION
##RESOLUTION=2
##DATA PROCESSING=DIGITIZED BY COBLENTZ SOCIETY (BATCH II) FROM HARD COPY
##XUNITS=1/CM
##YUNITS=TRANSMITTANCE
##XFACTOR=1.0
##YFACTOR=1
##FIRSTX=406
##LASTX=3776
##FIRSTY=0.6718
##MAXX=3776
##MINX=406
##MAXY=0.9233
##MINY=0.1389
##NPOINTS=3371
##XYDATA=(X++(Y..Y))
406.000000 0.6718 0.6707 0.6685 0.6658 0.6632
411.000000 0.6606 0.6580 0.6541 0.6487 0.6433
416.000000 0.6379 0.6315 0.6246 0.6178 0.6109
421.000000 0.5947 0.5671 0.5029 0.4836 0.4728
426.000000 0.4619 0.4548 0.4491 0.4440 0.4430
431.000000 0.4420 0.4417 0.4423 0.4431 0.4440
436.000000 0.4545 0.4780 0.5014 0.5249 0.5483
441.000000 0.5718 0.5952 0.6187 0.6421 0.6655
446.000000 0.6890 0.7124 0.7359 0.7593 0.7795
451.000000 0.7874 0.7954 0.8093 0.8260 0.8333
456.000000 0.8407 0.8455 0.8478 0.8500 0.8523
461.000000 0.8545 0.8562 0.8568 0.8573 0.8579
466.000000 0.8584 0.8590 0.8595 0.8589 0.8606
471.000000 0.8604 0.8602 0.8599 0.8596 0.8594
476.000000 0.8591 0.8588 0.8586 0.8583 0.8576
481.000000 0.8569 0.8562 0.8554 0.8547 0.8540
486.000000 0.8533 0.8526 0.8519 0.8509 0.8498
491.000000 0.8486 0.8475 0.8464 0.8453 0.8442
496.000000 0.8431 0.8420 0.8408 0.8393 0.8378
501.000000 0.8363 0.8341 0.8320 0.8297 0.8219
506.000000 0.8175 0.8137 0.8102 0.8075 0.8049
511.000000 0.8022 0.7996 0.7964 0.7929 0.7895
516.000000 0.7860 0.7821 0.7761 0.7701 0.7642
521.000000 0.7582 0.7522 0.7438 0.7351 0.7264
526.000000 0.7177 0.7077 0.6931 0.6785 0.6643
531.000000 0.6510 0.6376 0.5807 0.5534 0.5261
536.000000 0.4988 0.4715 0.4442 0.4169 0.3896
541.000000 0.3623 0.3430 0.3376 0.3366 0.3339
546.000000 0.3584 0.3865 0.4146 0.4427 0.4708
551.000000 0.4989 0.5270 0.5551 0.5832 0.6113
556.000000 0.6132 0.6178 0.5965 0.5776 0.5587
561.000000 0.5398 0.5208 0.5019 0.4896 0.4892
566.000000 0.5164 0.5672 0.6179 0.6687 0.7195
571.000000 0.7748 0.7855 0.7958 0.8037 0.8109
576.000000 0.8144 0.8208 0.8172 0.8178 0.8088
581.000000 0.7948 0.7809 0.7670 0.7531 0.7391
586.000000 0.7358 0.7372 0.7638 0.7994 0.8350
591.000000 0.8661 0.8696 0.8730 0.8745 0.8761
596.000000 0.8776 0.8792 0.8801 0.8805 0.8810
601.000000 0.8806 0.8819 0.8819 0.8816 0.8814
606.000000 0.8811 0.8809 0.8807 0.8804 0.8802
611.000000 0.8800 0.8797 0.8792 0.8786 0.8780
616.000000 0.8774 0.8768 0.8761 0.8755 0.8748
621.000000 0.8742 0.8735 0.8728 0.8721 0.8714
626.000000 0.8707 0.8701 0.8694 0.8687 0.8680
631.000000 0.8672 0.8665 0.8658 0.8651 0.8644
636.000000 0.8636 0.8629 0.8622 0.8615 0.8607
641.000000 0.8599 0.8590 0.8582 0.8574 0.8565
646.000000 0.8557 0.8548 0.8540 0.8532 0.8523
651.000000 0.8515 0.8506 0.8498 0.8493 0.8487
656.000000 0.8482 0.8476 0.8470 0.8465 0.8459
661.000000 0.8454 0.8448 0.8442 0.8437 0.8431
666.000000 0.8426 0.8421 0.8417 0.8413 0.8408
671.000000 0.8404 0.8400 0.8396 0.8392 0.8388
676.000000 0.8383 0.8379 0.8375 0.8371 0.8367
681.000000 0.8362 0.8358 0.8354 0.8350 0.8346
686.000000 0.8340 0.8335 0.8330 0.8324 0.8319
691.000000 0.8313 0.8308 0.8302 0.8297 0.8291
696.000000 0.8286 0.8277 0.8265 0.8253 0.8241
701.000000 0.8228 0.8216 0.8204 0.8192 0.8179
706.000000 0.8167 0.8150 0.8132 0.8114 0.8096
711.000000 0.8078 0.8059 0.8041 0.8023 0.8005
716.000000 0.7987 0.7969 0.7949 0.7929 0.7908
721.000000 0.7888 0.7868 0.7847 0.7827 0.7806
726.000000 0.7786 0.7766 0.7743 0.7721 0.7699
731.000000 0.7677 0.7654 0.7632 0.7610 0.7600
736.000000 0.7590 0.7580 0.7569 0.7559 0.7549
741.000000 0.7530 0.7507 0.7484 0.7459 0.7386
746.000000 0.7281 0.7155 0.7066 0.6976 0.6841
751.000000 0.6664 0.6487 0.6310 0.6134 0.5957
756.000000 0.5780 0.5603 0.5426 0.5408 0.5382
761.000000 0.5427 0.5728 0.6030 0.6331 0.6628
766.000000 0.6673 0.6697 0.6699 0.6699 0.6725
771.000000 0.6635 0.6566 0.6497 0.6427 0.6358
776.000000 0.6288 0.6219 0.6149 0.6080 0.6011
781.000000 0.5941 0.5896 0.5896 0.5942 0.5991
786.000000 0.5988 0.5982 0.5943 0.5896 0.5849
791.000000 0.5802 0.5755 0.5708 0.5661 0.5614
796.000000 0.5567 0.5520 0.5473 0.5426 0.5379
801.000000 0.5332 0.5290 0.5262 0.5239 0.5224
806.000000 0.5209 0.5197 0.5192 0.5187 0.5182
811.000000 0.5177 0.5172 0.5168 0.5064 0.4944
816.000000 0.4825 0.4705 0.4586 0.4467 0.4347
821.000000 0.4228 0.4183 0.4156 0.4279 0.4407
826.000000 0.4534 0.4661 0.4789 0.4916 0.4952
831.000000 0.4943 0.4942 0.4935 0.4923 0.4902
836.000000 0.4875 0.4843 0.4810 0.4778 0.4745
841.000000 0.4713 0.4681 0.4650 0.4618 0.4587
846.000000 0.4560 0.4532 0.4505 0.4477 0.4449
851.000000 0.4429 0.4411 0.4393 0.4389 0.4388
856.000000 0.4408 0.4396 0.4411 0.4431 0.4470
861.000000 0.4626 0.4719 0.4812 0.4905 0.4997
866.000000 0.5090 0.5183 0.5276 0.5369 0.5461
871.000000 0.5554 0.5647 0.5740 0.5833 0.5926
876.000000 0.6018 0.6111 0.6204 0.6297 0.6400
881.000000 0.6505 0.6606 0.6680 0.6754 0.6827
886.000000 0.6897 0.6962 0.7027 0.7093 0.7154
891.000000 0.7198 0.7242 0.7285 0.7329 0.7372
896.000000 0.7416 0.7458 0.7482 0.7505 0.7529
901.000000 0.7552 0.7576 0.7599 0.7623 0.7645
906.000000 0.7662 0.7678 0.7695 0.7711 0.7728
911.000000 0.7744 0.7760 0.7777 0.7793 0.7809
916.000000 0.7822 0.7836 0.7849 0.7862 0.7875
921.000000 0.7888 0.7901 0.7914 0.7927 0.7940
926.000000 0.7954 0.7965 0.7973 0.7981 0.7989
931.000000 0.7996 0.8004 0.8012 0.8019 0.8027
936.000000 0.8035 0.8042 0.8044 0.8046 0.8048
941.000000 0.8050 0.8052 0.8054 0.8056 0.8058
946.000000 0.8060 0.8057 0.8064 0.8062 0.8060
951.000000 0.8058 0.8056 0.8054 0.8051 0.8049
956.000000 0.8047 0.8045 0.8040 0.8032 0.8025
961.000000 0.8018 0.8011 0.8004 0.7997 0.7985
966.000000 0.7972 0.7959 0.7946 0.7933 0.7912
971.000000 0.7883 0.7853 0.7820 0.7769 0.7718
976.000000 0.7667 0.7607 0.7535 0.7464 0.7392
981.000000 0.7322 0.7253 0.7183 0.7114 0.7041
986.000000 0.6912 0.6783 0.6654 0.6525 0.6396
991.000000 0.6268 0.6149 0.6149 0.6149 0.6128
996.000000 0.6237 0.6348 0.6459 0.6569 0.6680
1001.000000 0.6790 0.6901 0.7011 0.7122 0.7232
1006.000000 0.7343 0.7453 0.7564 0.7674 0.7785
1011.000000 0.7897 0.8020 0.8095 0.8129 0.8162
1016.000000 0.8195 0.8219 0.8231 0.8242 0.8246
1021.000000 0.8244 0.8243 0.8243 0.8240 0.8238
1026.000000 0.8237 0.8235 0.8233 0.8232 0.8230
1031.000000 0.8229 0.8227 0.8225 0.8224 0.8222
1036.000000 0.8220 0.8219 0.8217 0.8215 0.8214
1041.000000 0.8212 0.8210 0.8209 0.8207 0.8204
1046.000000 0.8202 0.8199 0.8196 0.8193 0.8190
1051.000000 0.8187 0.8184 0.8181 0.8178 0.8175
1056.000000 0.8172 0.8169 0.8165 0.8162 0.8158
1061.000000 0.8154 0.8150 0.8147 0.8143 0.8139
1066.000000 0.8135 0.8131 0.8128 0.8123 0.8117
1071.000000 0.8111 0.8105 0.8099 0.8093 0.8087
1076.000000 0.8081 0.8075 0.8068 0.8055 0.8041
1081.000000 0.8028 0.8014 0.8001 0.7988 0.7974
1086.000000 0.7961 0.7939 0.7910 0.7881 0.7853
1091.000000 0.7795 0.7780 0.7776 0.7771 0.7771
1096.000000 0.7771 0.7771 0.7771 0.7777 0.7792
1101.000000 0.7811 0.7838 0.7865 0.7890 0.7914
1106.000000 0.7927 0.7937 0.7936 0.7935 0.7934
1111.000000 0.7927 0.7914 0.7901 0.7888 0.7876
1116.000000 0.7863 0.7854 0.7846 0.7838 0.7830
1121.000000 0.7822 0.7814 0.7814 0.7816 0.7818
1126.000000 0.7820 0.7822 0.7823 0.7820 0.7816
1131.000000 0.7809 0.7802 0.7794 0.7787 0.7779
1136.000000 0.7771 0.7763 0.7755 0.7748 0.7740
1141.000000 0.7732 0.7724 0.7716 0.7709 0.7701
1146.000000 0.7693 0.7685 0.7675 0.7664 0.7653
1151.000000 0.7642 0.7631 0.7620 0.7609 0.7598
1156.000000 0.7586 0.7575 0.7564 0.7553 0.7542
1161.000000 0.7531 0.7520 0.7509 0.7498 0.7484
1166.000000 0.7467 0.7450 0.7432 0.7415 0.7398
1171.000000 0.7381 0.7363 0.7346 0.7329 0.7311
1176.000000 0.7293 0.7275 0.7256 0.7238 0.7220
1181.000000 0.7202 0.7183 0.7165 0.7142 0.7109
1186.000000 0.7076 0.7044 0.7011 0.6978 0.6945
1191.000000 0.6912 0.6871 0.6830 0.6790 0.6749
1196.000000 0.6708 0.6667 0.6615 0.6559 0.6502
1201.000000 0.6446 0.6390 0.6333 0.6253 0.6129
1206.000000 0.6005 0.5885 0.5798 0.5711 0.5625
1211.000000 0.5538 0.5426 0.5310 0.5214 0.5144
1216.000000 0.5075 0.5022 0.4974 0.4927 0.4879
1221.000000 0.4831 0.4276 0.4000 0.3611 0.3393
1226.000000 0.3183 0.3055 0.2987 0.2919 0.2859
1231.000000 0.2839 0.2818 0.2813 0.2825 0.2828
1236.000000 0.2903 0.3217 0.3555 0.3894 0.4233
1241.000000 0.4571 0.4910 0.5248 0.5587 0.5926
1246.000000 0.6264 0.6603 0.6942 0.7280 0.7555
1251.000000 0.7652 0.7746 0.7833 0.7920 0.8010
1256.000000 0.8102 0.8194 0.8270 0.8335 0.8399
1261.000000 0.8434 0.8450 0.8465 0.8471 0.8489
1266.000000 0.8479 0.8483 0.8485 0.8482 0.8479
1271.000000 0.8476 0.8473 0.8466 0.8456 0.8447
1276.000000 0.8437 0.8423 0.8406 0.8390 0.8374
1281.000000 0.8358 0.8339 0.8313 0.8287 0.8262
1286.000000 0.8235 0.8209 0.8182 0.8156 0.8129
1291.000000 0.8102 0.8083 0.8065 0.8046 0.8028
1296.000000 0.8009 0.7991 0.7972 0.7954 0.7935
1301.000000 0.7917 0.7899 0.7882 0.7867 0.7852
1306.000000 0.7838 0.7823 0.7808 0.7794 0.7779
1311.000000 0.7764 0.7750 0.7735 0.7720 0.7706
1316.000000 0.7691 0.7676 0.7662 0.7646 0.7631
1321.000000 0.7616 0.7600 0.7585 0.7570 0.7554
1326.000000 0.7539 0.7524 0.7508 0.7493 0.7478
1331.000000 0.7462 0.7441 0.7419 0.7397 0.7375
1336.000000 0.7353 0.7331 0.7310 0.7288 0.7266
1341.000000 0.7244 0.7222 0.7201 0.7179 0.7157
1346.000000 0.7135 0.7113 0.7092 0.7070 0.7049
1351.000000 0.7027 0.7006 0.6985 0.6963 0.6942
1356.000000 0.6921 0.6900 0.6878 0.6861 0.6844
1361.000000 0.6828 0.6811 0.6794 0.6772 0.6746
1366.000000 0.6720 0.6679 0.6630 0.6581 0.6524
1371.000000 0.6464 0.6404 0.6336 0.6264 0.6192
1376.000000 0.6120 0.6043 0.5959 0.5876 0.5775
1381.000000 0.5637 0.5498 0.5360 0.5222 0.5083
1386.000000 0.4945 0.4806 0.4733 0.4725 0.4875
1391.000000 0.5072 0.5270 0.5468 0.5666 0.5864
1396.000000 0.5945 0.5936 0.5786 0.5597 0.5408
1401.000000 0.5219 0.5030 0.4840 0.4651 0.4462
1406.000000 0.4273 0.4084 0.3895 0.3706 0.3516
1411.000000 0.3327 0.3138 0.2949 0.2760 0.2603
1416.000000 0.2611 0.2591 0.3058 0.3457 0.3856
1421.000000 0.4255 0.4655 0.5054 0.5453 0.5852
1426.000000 0.6252 0.6651 0.6821 0.6810 0.6806
1431.000000 0.6724 0.6580 0.6435 0.6290 0.6146
1436.000000 0.6001 0.5856 0.5712 0.5567 0.5423
1441.000000 0.5278 0.5133 0.4989 0.4844 0.4700
1446.000000 0.4555 0.4410 0.4266 0.4121 0.3976
1451.000000 0.3954 0.3979 0.3940 0.4515 0.4782
1456.000000 0.5050 0.5318 0.5586 0.5853 0.6121
1461.000000 0.6246 0.6306 0.6366 0.6426 0.6502
1466.000000 0.6582 0.6661 0.6727 0.6757 0.6787
1471.000000 0.6817 0.6825 0.6820 0.6818 0.6807
1476.000000 0.6792 0.6767 0.6743 0.6720 0.6696
1481.000000 0.6664 0.6630 0.6596 0.6556 0.6511
1486.000000 0.6351 0.6272 0.6202 0.6132 0.6063
1491.000000 0.5993 0.5923 0.5854 0.5784 0.5714
1496.000000 0.5645 0.5575 0.5505 0.5436 0.5366
1501.000000 0.5296 0.5227 0.5157 0.5087 0.4937
1506.000000 0.4896 0.4898 0.4885 0.4944 0.5036
1511.000000 0.5138 0.5225 0.5300 0.5326 0.5351
1516.000000 0.5369 0.5381 0.5394 0.5402 0.5403
1521.000000 0.5405 0.5407 0.5409 0.5410 0.5412
1526.000000 0.5414 0.5416 0.5418 0.5420 0.5423
1531.000000 0.5425 0.5430 0.5424 0.5422 0.5419
1536.000000 0.5416 0.5414 0.5405 0.5392 0.5380
1541.000000 0.5361 0.5340 0.5317 0.5288 0.5259
1546.000000 0.5232 0.5209 0.5185 0.5161 0.5138
1551.000000 0.5114 0.5090 0.5066 0.5043 0.5019
1556.000000 0.4988 0.4956 0.4925 0.4893 0.4861
1561.000000 0.4830 0.4798 0.4766 0.4732 0.4699
1566.000000 0.4665 0.4632 0.4599 0.4565 0.4532
1571.000000 0.4499 0.4465 0.4434 0.4404 0.4375
1576.000000 0.4346 0.4316 0.4287 0.4258 0.4228
1581.000000 0.4199 0.4170 0.4141 0.4111 0.4081
1586.000000 0.4039 0.3997 0.3954 0.3912 0.3870
1591.000000 0.3827 0.3785 0.3740 0.3690 0.3640
1596.000000 0.3590 0.3540 0.3490 0.3440 0.3389
1601.000000 0.3351 0.3314 0.3278 0.3242 0.3205
1606.000000 0.3169 0.3132 0.3096 0.3045 0.2989
1611.000000 0.2933 0.2877 0.2821 0.2765 0.2710
1616.000000 0.2677 0.2644 0.2611 0.2578 0.2545
1621.000000 0.2512 0.2480 0.2447 0.2414 0.2381
1626.000000 0.2348 0.2317 0.2288 0.2260 0.2232
1631.000000 0.2203 0.2175 0.2147 0.2118 0.2090
1636.000000 0.2061 0.2027 0.1993 0.1959 0.1926
1641.000000 0.1893 0.1862 0.1847 0.1848 0.1842
1646.000000 0.1852 0.1866 0.1888 0.1910 0.1935
1651.000000 0.1962 0.1973 0.1983 0.1993 0.1992
1656.000000 0.1988 0.1984 0.1979 0.1974 0.1968
1661.000000 0.1966 0.1970 0.1974 0.1977 0.1985
1666.000000 0.1996 0.2008 0.2023 0.2041 0.2058
1671.000000 0.2078 0.2110 0.2142 0.2173 0.2205
1676.000000 0.2252 0.2304 0.2356 0.2407 0.2459
1681.000000 0.2549 0.2650 0.2752 0.2834 0.2914
1686.000000 0.2994 0.3028 0.3061 0.3043 0.3064
1691.000000 0.3046 0.3008 0.2955 0.2871 0.2788
1696.000000 0.2704 0.2621 0.2537 0.2454 0.2370
1701.000000 0.2287 0.2203 0.2120 0.2036 0.1953
1706.000000 0.1869 0.1785 0.1702 0.1618 0.1475
1711.000000 0.1429 0.1398 0.1398 0.1389 0.1430
1716.000000 0.1478 0.1559 0.1625 0.1677 0.1729
1721.000000 0.1779 0.1827 0.1849 0.1844 0.1833
1726.000000 0.1816 0.1793 0.1767 0.1740 0.1706
1731.000000 0.1670 0.1661 0.1653 0.1639 0.1656
1736.000000 0.1665 0.1679 0.1721 0.1802 0.1922
1741.000000 0.2042 0.2163 0.2283 0.2403 0.2523
1746.000000 0.2643 0.2763 0.2883 0.3003 0.3106
1751.000000 0.3212 0.3328 0.3385 0.3437 0.3472
1756.000000 0.3490 0.3492 0.3498 0.3486 0.3475
1761.000000 0.3442 0.3423 0.3408 0.3398 0.3398
1766.000000 0.3398 0.3384 0.3417 0.3437 0.3460
1771.000000 0.3492 0.3540 0.3585 0.3629 0.3673
1776.000000 0.3730 0.3795 0.3860 0.3969 0.4099
1781.000000 0.4178 0.4195 0.4204 0.4213 0.4222
1786.000000 0.4242 0.4267 0.4295 0.4323 0.4355
1791.000000 0.4389 0.4422 0.4463 0.4507 0.4552
1796.000000 0.4605 0.4659 0.4712 0.4765 0.4809
1801.000000 0.4852 0.4895 0.4939 0.4982 0.5025
1806.000000 0.5069 0.5137 0.5276 0.5415 0.5529
1811.000000 0.5636 0.5743 0.5824 0.5888 0.5953
1816.000000 0.6017 0.6081 0.6149 0.6218 0.6288
1821.000000 0.6357 0.6410 0.6456 0.6502 0.6548
1826.000000 0.6594 0.6644 0.6700 0.6757 0.6814
1831.000000 0.6870 0.6911 0.6952 0.6992 0.7032
1836.000000 0.7073 0.7111 0.7141 0.7171 0.7202
1841.000000 0.7232 0.7262 0.7293 0.7323 0.7351
1846.000000 0.7377 0.7404 0.7430 0.7457 0.7483
1851.000000 0.7510 0.7536 0.7557 0.7578 0.7600
1856.000000 0.7621 0.7642 0.7663 0.7685 0.7706
1861.000000 0.7734 0.7763 0.7793 0.7822 0.7851
1866.000000 0.7881 0.7910 0.7940 0.7969 0.7998
1871.000000 0.8027 0.8056 0.8085 0.8114 0.8143
1876.000000 0.8172 0.8192 0.8209 0.8226 0.8242
1881.000000 0.8257 0.8271 0.8285 0.8299 0.8313
1886.000000 0.8328 0.8342 0.8356 0.8370 0.8384
1891.000000 0.8399 0.8413 0.8427 0.8441 0.8455
1896.000000 0.8469 0.8480 0.8491 0.8503 0.8514
1901.000000 0.8525 0.8536 0.8544 0.8552 0.8559
1906.000000 0.8567 0.8575 0.8582 0.8590 0.8595
1911.000000 0.8600 0.8605 0.8610 0.8615 0.8621
1916.000000 0.8626 0.8631 0.8636 0.8641 0.8646
1921.000000 0.8651 0.8655 0.8658 0.8662 0.8665
1926.000000 0.8669 0.8673 0.8676 0.8685 0.8695
1931.000000 0.8704 0.8714 0.8723 0.8729 0.8732
1936.000000 0.8736 0.8740 0.8744 0.8747 0.8747
1941.000000 0.8747 0.8746 0.8746 0.8745 0.8745
1946.000000 0.8747 0.8754 0.8760 0.8767 0.8773
1951.000000 0.8780 0.8786 0.8793 0.8799 0.8806
1956.000000 0.8798 0.8799 0.8793 0.8787 0.8781
1961.000000 0.8775 0.8769 0.8759 0.8748 0.8737
1966.000000 0.8726 0.8715 0.8704 0.8693 0.8682
1971.000000 0.8667 0.8650 0.8632 0.8615 0.8598
1976.000000 0.8580 0.8563 0.8546 0.8528 0.8512
1981.000000 0.8496 0.8481 0.8465 0.8449 0.8448
1986.000000 0.8449 0.8430 0.8451 0.8455 0.8467
1991.000000 0.8478 0.8495 0.8513 0.8530 0.8548
1996.000000 0.8579 0.8610 0.8662 0.8723 0.8770
2001.000000 0.8774 0.8779 0.8773 0.8767 0.8761
2006.000000 0.8755 0.8748 0.8742 0.8736 0.8730
2011.000000 0.8737 0.8745 0.8753 0.8761 0.8790
2016.000000 0.8819 0.8862 0.8905 0.8932 0.8960
2021.000000 0.8988 0.9016 0.9036 0.9057 0.9077
2026.000000 0.9098 0.9115 0.9133 0.9139 0.9146
2031.000000 0.9153 0.9160 0.9166 0.9173 0.9180
2036.000000 0.9187 0.9193 0.9200 0.9201 0.9202
2041.000000 0.9203 0.9204 0.9205 0.9206 0.9207
2046.000000 0.9233 0.9208 0.9209 0.9210 0.9211
2051.000000 0.9210 0.9210 0.9208 0.9206 0.9204
2056.000000 0.9202 0.9200 0.9198 0.9196 0.9195
2061.000000 0.9193 0.9191 0.9188 0.9186 0.9182
2066.000000 0.9178 0.9174 0.9170 0.9166 0.9162
2071.000000 0.9158 0.9154 0.9150 0.9146 0.9142
2076.000000 0.9138 0.9134 0.9130 0.9125 0.9121
2081.000000 0.9117 0.9113 0.9109 0.9105 0.9100
2086.000000 0.9096 0.9092 0.9088 0.9084 0.9080
2091.000000 0.9076 0.9072 0.9067 0.9063 0.9059
2096.000000 0.9055 0.9051 0.9047 0.9042 0.9038
2101.000000 0.9038 0.9038 0.9039 0.9040 0.9041
2106.000000 0.9043 0.9044 0.9046 0.9047 0.9049
2111.000000 0.9050 0.9051 0.9052 0.9054 0.9059
2116.000000 0.9064 0.9068 0.9073 0.9077 0.9082
2121.000000 0.9087 0.9092 0.9096 0.9101 0.9099
2126.000000 0.9098 0.9094 0.9091 0.9088 0.9085
2131.000000 0.9081 0.9078 0.9074 0.9071 0.9067
2136.000000 0.9064 0.9060 0.9057 0.9053 0.9050
2141.000000 0.9046 0.9043 0.9039 0.9036 0.9032
2146.000000 0.9029 0.9025 0.9022 0.9018 0.9015
2151.000000 0.9011 0.9008 0.9004 0.9001 0.8997
2156.000000 0.8994 0.8990 0.8987 0.8983 0.8980
2161.000000 0.8976 0.8973 0.8968 0.8963 0.8958
2166.000000 0.8953 0.8947 0.8942 0.8937 0.8932
2171.000000 0.8927 0.8922 0.8916 0.8911 0.8906
2176.000000 0.8901 0.8896 0.8891 0.8886 0.8881
2181.000000 0.8875 0.8870 0.8865 0.8860 0.8855
2186.000000 0.8850 0.8847 0.8845 0.8843 0.8842
2191.000000 0.8840 0.8839 0.8837 0.8836 0.8834
2196.000000 0.8833 0.8831 0.8830 0.8828 0.8827
2201.000000 0.8825 0.8824 0.8822 0.8821 0.8818
2206.000000 0.8815 0.8811 0.8808 0.8805 0.8802
2211.000000 0.8798 0.8795 0.8792 0.8789 0.8785
2216.000000 0.8782 0.8777 0.8772 0.8765 0.8759
2221.000000 0.8752 0.8745 0.8738 0.8732 0.8725
2226.000000 0.8718 0.8714 0.8710 0.8706 0.8702
2231.000000 0.8698 0.8694 0.8690 0.8686 0.8693
2236.000000 0.8700 0.8708 0.8716 0.8724 0.8732
2241.000000 0.8739 0.8747 0.8755 0.8763 0.8771
2246.000000 0.8779 0.8786 0.8794 0.8798 0.8802
2251.000000 0.8797 0.8793 0.8788 0.8784 0.8779
2256.000000 0.8775 0.8770 0.8766 0.8761 0.8757
2261.000000 0.8752 0.8748 0.8743 0.8739 0.8734
2266.000000 0.8730 0.8725 0.8721 0.8716 0.8712
2271.000000 0.8707 0.8703 0.8699 0.8695 0.8690
2276.000000 0.8686 0.8681 0.8677 0.8672 0.8668
2281.000000 0.8664 0.8660 0.8655 0.8651 0.8646
2286.000000 0.8642 0.8637 0.8633 0.8629 0.8625
2291.000000 0.8620 0.8616 0.8611 0.8607 0.8603
2296.000000 0.8599 0.8594 0.8590 0.8585 0.8581
2301.000000 0.8576 0.8572 0.8568 0.8564 0.8560
2306.000000 0.8556 0.8553 0.8550 0.8546 0.8543
2311.000000 0.8540 0.8537 0.8533 0.8530 0.8527
2316.000000 0.8524 0.8521 0.8518 0.8519 0.8520
2321.000000 0.8520 0.8521 0.8521 0.8522 0.8523
2326.000000 0.8524 0.8524 0.8525 0.8525 0.8526
2331.000000 0.8527 0.8528 0.8528 0.8529 0.8530
2336.000000 0.8531 0.8531 0.8532 0.8532 0.8533
2341.000000 0.8534 0.8535 0.8535 0.8536 0.8530
2346.000000 0.8525 0.8519 0.8514 0.8508 0.8503
2351.000000 0.8497 0.8492 0.8486 0.8481 0.8475
2356.000000 0.8470 0.8464 0.8459 0.8453 0.8447
2361.000000 0.8437 0.8427 0.8417 0.8407 0.8397
2366.000000 0.8387 0.8377 0.8367 0.8357 0.8347
2371.000000 0.8334 0.8322 0.8306 0.8291 0.8275
2376.000000 0.8260 0.8244 0.8229 0.8213 0.8198
2381.000000 0.8182 0.8167 0.8152 0.8137 0.8122
2386.000000 0.8108 0.8093 0.8079 0.8068 0.8058
2391.000000 0.8056 0.8054 0.8052 0.8050 0.8052
2396.000000 0.8055 0.8069 0.8084 0.8109 0.8134
2401.000000 0.8142 0.8151 0.8153 0.8156 0.8158
2406.000000 0.8161 0.8157 0.8153 0.8147 0.8142
2411.000000 0.8131 0.8121 0.8111 0.8101 0.8092
2416.000000 0.8084 0.8081 0.8079 0.8076 0.8074
2421.000000 0.8072 0.8071 0.8070 0.8070 0.8069
2426.000000 0.8069 0.8064 0.8060 0.8053 0.8046
2431.000000 0.8039 0.8032 0.8018 0.8004 0.7990
2436.000000 0.7976 0.7950 0.7924 0.7896 0.7869
2441.000000 0.7855 0.7842 0.7828 0.7814 0.7800
2446.000000 0.7787 0.7773 0.7760 0.7748 0.7736
2451.000000 0.7728 0.7721 0.7715 0.7710 0.7715
2456.000000 0.7720 0.7725 0.7730 0.7737 0.7744
2461.000000 0.7754 0.7764 0.7774 0.7785 0.7793
2466.000000 0.7802 0.7810 0.7819 0.7828 0.7837
2471.000000 0.7844 0.7851 0.7857 0.7863 0.7869
2476.000000 0.7875 0.7881 0.7887 0.7892 0.7898
2481.000000 0.7903 0.7908 0.7912 0.7917 0.7921
2486.000000 0.7926 0.7931 0.7936 0.7939 0.7943
2491.000000 0.7946 0.7950 0.7953 0.7957 0.7960
2496.000000 0.7963 0.7963 0.7964 0.7961 0.7959
2501.000000 0.7956 0.7953 0.7950 0.7947 0.7943
2506.000000 0.7940 0.7936 0.7932 0.7928 0.7924
2511.000000 0.7918 0.7912 0.7906 0.7900 0.7894
2516.000000 0.7888 0.7881 0.7875 0.7868 0.7862
2521.000000 0.7855 0.7849 0.7842 0.7836 0.7829
2526.000000 0.7823 0.7816 0.7810 0.7799 0.7788
2531.000000 0.7776 0.7765 0.7754 0.7744 0.7737
2536.000000 0.7731 0.7724 0.7718 0.7711 0.7705
2541.000000 0.7698 0.7692 0.7687 0.7683 0.7684
2546.000000 0.7685 0.7687 0.7689 0.7691 0.7694
2551.000000 0.7696 0.7698 0.7699 0.7700 0.7700
2556.000000 0.7700 0.7699 0.7699 0.7697 0.7696
2561.000000 0.7694 0.7693 0.7689 0.7685 0.7681
2566.000000 0.7677 0.7673 0.7669 0.7663 0.7658
2571.000000 0.7645 0.7633 0.7620 0.7608 0.7596
2576.000000 0.7584 0.7571 0.7559 0.7546 0.7534
2581.000000 0.7521 0.7509 0.7496 0.7484 0.7471
2586.000000 0.7459 0.7448 0.7438 0.7429 0.7420
2591.000000 0.7411 0.7403 0.7394 0.7386 0.7377
2596.000000 0.7369 0.7360 0.7351 0.7342 0.7334
2601.000000 0.7327 0.7321 0.7315 0.7310 0.7304
2606.000000 0.7299 0.7294 0.7289 0.7283 0.7278
2611.000000 0.7272 0.7267 0.7261 0.7256 0.7251
2616.000000 0.7246 0.7240 0.7235 0.7229 0.7224
2621.000000 0.7219 0.7214 0.7208 0.7203 0.7198
2626.000000 0.7193 0.7187 0.7182 0.7176 0.7171
2631.000000 0.7164 0.7158 0.7151 0.7145 0.7138
2636.000000 0.7132 0.7125 0.7118 0.7111 0.7105
2641.000000 0.7098 0.7092 0.7085 0.7078 0.7068
2646.000000 0.7059 0.7049 0.7040 0.7030 0.7021
2651.000000 0.7011 0.7002 0.6993 0.6984 0.6974
2656.000000 0.6965 0.6954 0.6943 0.6930 0.6918
2661.000000 0.6905 0.6892 0.6879 0.6866 0.6853
2666.000000 0.6840 0.6827 0.6814 0.6801 0.6789
2671.000000 0.6776 0.6763 0.6748 0.6733 0.6714
2676.000000 0.6695 0.6676 0.6657 0.6647 0.6638
2681.000000 0.6631 0.6624 0.6617 0.6610 0.6603
2686.000000 0.6596 0.6589 0.6582 0.6574 0.6567
2691.000000 0.6559 0.6552 0.6540 0.6528 0.6501
2696.000000 0.6474 0.6447 0.6421 0.6394 0.6368
2701.000000 0.6341 0.6314 0.6287 0.6260 0.6236
2706.000000 0.6212 0.6189 0.6166 0.6143 0.6121
2711.000000 0.6098 0.6076 0.6054 0.6033 0.6012
2716.000000 0.5991 0.5969 0.5948 0.5940 0.5933
2721.000000 0.5926 0.5920 0.5913 0.5906 0.5899
2726.000000 0.5893 0.5889 0.5885 0.5887 0.5890
2731.000000 0.5897 0.5905 0.5913 0.5921 0.5929
2736.000000 0.5937 0.5945 0.5953 0.5962 0.5971
2741.000000 0.5979 0.5988 0.5994 0.6000 0.5999
2746.000000 0.5998 0.5997 0.5996 0.5995 0.5995
2751.000000 0.5991 0.5988 0.5982 0.5976 0.5969
2756.000000 0.5963 0.5957 0.5951 0.5936 0.5921
2761.000000 0.5904 0.5887 0.5870 0.5854 0.5827
2766.000000 0.5800 0.5772 0.5744 0.5716 0.5688
2771.000000 0.5656 0.5624 0.5591 0.5559 0.5526
2776.000000 0.5494 0.5462 0.5430 0.5397 0.5365
2781.000000 0.5332 0.5300 0.5267 0.5235 0.5202
2786.000000 0.5170 0.5137 0.5105 0.5072 0.5040
2791.000000 0.5007 0.4975 0.4942 0.4910 0.4877
2796.000000 0.4845 0.4812 0.4780 0.4764 0.4749
2801.000000 0.4748 0.4748 0.4747 0.4747 0.4746
2806.000000 0.4746 0.4739 0.4733 0.4704 0.4676
2811.000000 0.4654 0.4633 0.4632 0.4632 0.4631
2816.000000 0.4634 0.4667 0.4704 0.4745 0.4786
2821.000000 0.4827 0.4869 0.4910 0.4978 0.4960
2826.000000 0.4970 0.4966 0.4962 0.4958 0.4955
2831.000000 0.4923 0.4892 0.4855 0.4818 0.4780
2836.000000 0.4743 0.4706 0.4669 0.4631 0.4594
2841.000000 0.4556 0.4519 0.4482 0.4445 0.4407
2846.000000 0.4370 0.4333 0.4296 0.4268 0.4240
2851.000000 0.4240 0.4219 0.4274 0.4309 0.4350
2856.000000 0.4392 0.4433 0.4474 0.4515 0.4557
2861.000000 0.4598 0.4640 0.4639 0.4639 0.4633
2866.000000 0.4647 0.4618 0.4610 0.4601 0.4593
2871.000000 0.4581 0.4569 0.4549 0.4529 0.4502
2876.000000 0.4476 0.4443 0.4410 0.4380 0.4351
2881.000000 0.4322 0.4293 0.4259 0.4225 0.4179
2886.000000 0.4133 0.4097 0.4061 0.4043 0.4025
2891.000000 0.4019 0.4014 0.4010 0.4006 0.4004
2896.000000 0.4002 0.3988 0.3975 0.3953 0.3931
2901.000000 0.3906 0.3881 0.3843 0.3805 0.3770
2906.000000 0.3736 0.3702 0.3669 0.3642 0.3615
2911.000000 0.3588 0.3562 0.3535 0.3508 0.3480
2916.000000 0.3452 0.3423 0.3395 0.3366 0.3338
2921.000000 0.3311 0.3284 0.3261 0.3239 0.3224
2926.000000 0.3209 0.3203 0.3198 0.3192 0.3187
2931.000000 0.3188 0.3169 0.3194 0.3198 0.3236
2936.000000 0.3274 0.3338 0.3403 0.3468 0.3533
2941.000000 0.3597 0.3662 0.3726 0.3791 0.3856
2946.000000 0.3921 0.3964 0.4008 0.4023 0.4039
2951.000000 0.4047 0.4055 0.4057 0.4042 0.4055
2956.000000 0.4051 0.4037 0.4024 0.4000 0.3977
2961.000000 0.3947 0.3917 0.3887 0.3858 0.3827
2966.000000 0.3797 0.3767 0.3737 0.3715 0.3694
2971.000000 0.3675 0.3657 0.3638 0.3620 0.3606
2976.000000 0.3560 0.3584 0.3577 0.3575 0.3573
2981.000000 0.3575 0.3578 0.3582 0.3586 0.3600
2986.000000 0.3615 0.3631 0.3648 0.3667 0.3686
2991.000000 0.3705 0.3725 0.3744 0.3764 0.3785
2996.000000 0.3806 0.3830 0.3854 0.3866 0.3879
3001.000000 0.3886 0.3893 0.3900 0.3907 0.3905
3006.000000 0.3901 0.3900 0.3898 0.3895 0.3893
3011.000000 0.3890 0.3888 0.3885 0.3882 0.3878
3016.000000 0.3875 0.3862 0.3850 0.3836 0.3823
3021.000000 0.3804 0.3785 0.3756 0.3728 0.3705
3026.000000 0.3682 0.3666 0.3651 0.3644 0.3637
3031.000000 0.3635 0.3633 0.3631 0.3630 0.3633
3036.000000 0.3637 0.3640 0.3644 0.3649 0.3654
3041.000000 0.3659 0.3664 0.3669 0.3674 0.3675
3046.000000 0.3676 0.3676 0.3676 0.3675 0.3675
3051.000000 0.3671 0.3668 0.3660 0.3653 0.3638
3056.000000 0.3623 0.3606 0.3589 0.3570 0.3551
3061.000000 0.3527 0.3503 0.3463 0.3423 0.3388
3066.000000 0.3353 0.3328 0.3303 0.3278 0.3253
3071.000000 0.3228 0.3203 0.3176 0.3150 0.3123
3076.000000 0.3096 0.3068 0.3041 0.3013 0.2985
3081.000000 0.2981 0.2977 0.2972 0.2968 0.2963
3086.000000 0.2959 0.2956 0.2953 0.2951 0.2949
3091.000000 0.2946 0.2944 0.2942 0.2940 0.2939
3096.000000 0.2938 0.2937 0.2936 0.2935 0.2935
3101.000000 0.2934 0.2933 0.2932 0.2932 0.2931
3106.000000 0.2931 0.2930 0.2908 0.2933 0.2938
3111.000000 0.2942 0.2946 0.2973 0.3001 0.3029
3116.000000 0.3058 0.3084 0.3111 0.3128 0.3146
3121.000000 0.3162 0.3179 0.3195 0.3212 0.3228
3126.000000 0.3245 0.3261 0.3278 0.3294 0.3311
3131.000000 0.3331 0.3351 0.3374 0.3398 0.3422
3136.000000 0.3446 0.3469 0.3493 0.3517 0.3541
3141.000000 0.3561 0.3581 0.3599 0.3618 0.3636
3146.000000 0.3655 0.3673 0.3692 0.3710 0.3728
3151.000000 0.3745 0.3762 0.3775 0.3788 0.3793
3156.000000 0.3798 0.3802 0.3807 0.3812 0.3817
3161.000000 0.3821 0.3826 0.3830 0.3834 0.3837
3166.000000 0.3841 0.3844 0.3848 0.3852 0.3856
3171.000000 0.3863 0.3871 0.3891 0.3912 0.3939
3176.000000 0.3967 0.4002 0.4037 0.4075 0.4113
3181.000000 0.4152 0.4191 0.4230 0.4269 0.4329
3186.000000 0.4390 0.4453 0.4516 0.4543 0.4570
3191.000000 0.4596 0.4623 0.4649 0.4676 0.4702
3196.000000 0.4729 0.4747 0.4765 0.4778 0.4792
3201.000000 0.4802 0.4813 0.4817 0.4821 0.4824
3206.000000 0.4828 0.4832 0.4836 0.4839 0.4843
3211.000000 0.4846 0.4849 0.4852 0.4856 0.4859
3216.000000 0.4863 0.4866 0.4870 0.4874 0.4879
3221.000000 0.4884 0.4889 0.4902 0.4915 0.4928
3226.000000 0.4942 0.4955 0.4969 0.4982 0.4996
3231.000000 0.5010 0.5024 0.5038 0.5053 0.5067
3236.000000 0.5081 0.5095 0.5110 0.5124 0.5139
3241.000000 0.5155 0.5171 0.5201 0.5231 0.5261
3246.000000 0.5291 0.5320 0.5350 0.5380 0.5410
3251.000000 0.5455 0.5501 0.5563 0.5626 0.5688
3256.000000 0.5750 0.5812 0.5874 0.5935 0.5997
3261.000000 0.6058 0.6120 0.6169 0.6218 0.6265
3266.000000 0.6312 0.6359 0.6406 0.6453 0.6500
3271.000000 0.6544 0.6588 0.6631 0.6675 0.6719
3276.000000 0.6763 0.6806 0.6850 0.6880 0.6911
3281.000000 0.6937 0.6964 0.6991 0.7018 0.7045
3286.000000 0.7072 0.7098 0.7125 0.7152 0.7179
3291.000000 0.7210 0.7241 0.7273 0.7305 0.7337
3296.000000 0.7369 0.7401 0.7434 0.7466 0.7498
3301.000000 0.7528 0.7559 0.7589 0.7619 0.7649
3306.000000 0.7679 0.7709 0.7739 0.7762 0.7785
3311.000000 0.7801 0.7817 0.7832 0.7848 0.7864
3316.000000 0.7880 0.7895 0.7911 0.7926 0.7942
3321.000000 0.7958 0.7974 0.7980 0.7986 0.7992
3326.000000 0.7999 0.8005 0.8011 0.8017 0.8023
3331.000000 0.8029 0.8036 0.8042 0.8048 0.8054
3336.000000 0.8060 0.8066 0.8073 0.8079 0.8085
3341.000000 0.8091 0.8097 0.8103 0.8110 0.8114
3346.000000 0.8118 0.8122 0.8126 0.8130 0.8134
3351.000000 0.8137 0.8141 0.8145 0.8149 0.8153
3356.000000 0.8157 0.8160 0.8164 0.8168 0.8172
3361.000000 0.8176 0.8180 0.8181 0.8182 0.8183
3366.000000 0.8185 0.8186 0.8187 0.8188 0.8190
3371.000000 0.8191 0.8192 0.8193 0.8195 0.8196
3376.000000 0.8198 0.8199 0.8200 0.8198 0.8196
3381.000000 0.8192 0.8188 0.8183 0.8179 0.8174
3386.000000 0.8170 0.8166 0.8162 0.8157 0.8153
3391.000000 0.8149 0.8146 0.8142 0.8139 0.8136
3396.000000 0.8133 0.8132 0.8131 0.8135 0.8139
3401.000000 0.8143 0.8147 0.8150 0.8154 0.8158
3406.000000 0.8162 0.8166 0.8170 0.8173 0.8177
3411.000000 0.8181 0.8185 0.8189 0.8193 0.8196
3416.000000 0.8200 0.8204 0.8208 0.8212 0.8216
3421.000000 0.8219 0.8222 0.8225 0.8229 0.8232
3426.000000 0.8235 0.8238 0.8242 0.8245 0.8248
3431.000000 0.8251 0.8255 0.8258 0.8261 0.8264
3436.000000 0.8267 0.8270 0.8274 0.8277 0.8280
3441.000000 0.8283 0.8286 0.8288 0.8290 0.8292
3446.000000 0.8294 0.8296 0.8298 0.8300 0.8302
3451.000000 0.8304 0.8307 0.8309 0.8311 0.8313
3456.000000 0.8315 0.8317 0.8319 0.8321 0.8323
3461.000000 0.8325 0.8327 0.8328 0.8330 0.8331
3466.000000 0.8333 0.8334 0.8336 0.8337 0.8339
3471.000000 0.8340 0.8342 0.8343 0.8345 0.8346
3476.000000 0.8348 0.8349 0.8350 0.8351 0.8353
3481.000000 0.8354 0.8356 0.8358 0.8360 0.8361
3486.000000 0.8363 0.8364 0.8366 0.8367 0.8369
3491.000000 0.8371 0.8373 0.8374 0.8376 0.8377
3496.000000 0.8379 0.8380 0.8382 0.8383 0.8385
3501.000000 0.8387 0.8389 0.8390 0.8392 0.8394
3506.000000 0.8397 0.8399 0.8401 0.8403 0.8405
3511.000000 0.8407 0.8409 0.8411 0.8413 0.8415
3516.000000 0.8417 0.8419 0.8421 0.8423 0.8425
3521.000000 0.8427 0.8429 0.8431 0.8433 0.8435
3526.000000 0.8437 0.8439 0.8442 0.8444 0.8446
3531.000000 0.8448 0.8450 0.8452 0.8454 0.8456
3536.000000 0.8458 0.8460 0.8462 0.8464 0.8466
3541.000000 0.8468 0.8470 0.8472 0.8474 0.8475
3546.000000 0.8477 0.8477 0.8478 0.8478 0.8479
3551.000000 0.8479 0.8480 0.8480 0.8481 0.8482
3556.000000 0.8483 0.8483 0.8484 0.8484 0.8485
3561.000000 0.8485 0.8486 0.8486 0.8487 0.8488
3566.000000 0.8489 0.8489 0.8490 0.8490 0.8491
3571.000000 0.8491 0.8492 0.8492 0.8493 0.8493
3576.000000 0.8494 0.8495 0.8496 0.8496 0.8497
3581.000000 0.8497 0.8498 0.8498 0.8499 0.8499
3586.000000 0.8499 0.8498 0.8498 0.8498 0.8498
3591.000000 0.8497 0.8497 0.8497 0.8497 0.8496
3596.000000 0.8496 0.8496 0.8496 0.8496 0.8496
3601.000000 0.8495 0.8495 0.8495 0.8495 0.8494
3606.000000 0.8494 0.8494 0.8494 0.8493 0.8493
3611.000000 0.8493 0.8493 0.8493 0.8493 0.8492
3616.000000 0.8492 0.8492 0.8492 0.8491 0.8491
3621.000000 0.8491 0.8491 0.8490 0.8490 0.8490
3626.000000 0.8490 0.8490 0.8490 0.8489 0.8489
3631.000000 0.8489 0.8489 0.8488 0.8488 0.8488
3636.000000 0.8488 0.8487 0.8487 0.8487 0.8487
3641.000000 0.8486 0.8486 0.8486 0.8486 0.8485
3646.000000 0.8485 0.8485 0.8485 0.8485 0.8485
3651.000000 0.8484 0.8484 0.8484 0.8484 0.8483
3656.000000 0.8483 0.8483 0.8483 0.8482 0.8482
3661.000000 0.8482 0.8482 0.8481 0.8481 0.8481
3666.000000 0.8481 0.8480 0.8480 0.8480 0.8480
3671.000000 0.8479 0.8479 0.8479 0.8479 0.8478
3676.000000 0.8478 0.8478 0.8478 0.8477 0.8477
3681.000000 0.8477 0.8477 0.8476 0.8476 0.8475
3686.000000 0.8475 0.8474 0.8474 0.8473 0.8473
3691.000000 0.8472 0.8472 0.8471 0.8471 0.8470
3696.000000 0.8469 0.8468 0.8468 0.8467 0.8467
3701.000000 0.8466 0.8466 0.8465 0.8465 0.8464
3706.000000 0.8464 0.8463 0.8463 0.8462 0.8461
3711.000000 0.8460 0.8460 0.8459 0.8459 0.8458
3716.000000 0.8458 0.8457 0.8457 0.8456 0.8456
3721.000000 0.8455 0.8455 0.8454 0.8453 0.8452
3726.000000 0.8452 0.8451 0.8450 0.8449 0.8448
3731.000000 0.8447 0.8446 0.8445 0.8451 0.8443
3736.000000 0.8442 0.8441 0.8440 0.8439 0.8438
3741.000000 0.8437 0.8437 0.8436 0.8435 0.8434
3746.000000 0.8433 0.8432 0.8431 0.8430 0.8429
3751.000000 0.8428 0.8427 0.8426 0.8425 0.8424
3756.000000 0.8423 0.8421 0.8420 0.8418 0.8416
3761.000000 0.8414 0.8413 0.8411 0.8409 0.8407
3766.000000 0.8406 0.8404 0.8402 0.8400 0.8399
3771.000000 0.8397 0.8396 0.8394 0.8392 0.8391
3776.000000 0.8390
##END=
