##TITLE=ETHYLENE, TETRACYANO-
##JCAMP-DX=4.24
$$ By DXEDIT 1.05 (RS McDonald)
##DATA TYPE=INFRARED SPECTRUM
##CLASS=COBLENTZ III
##ORIGIN=DOW CHEMICAL COMPANY
##OWNER=COBLENTZ SOC.
Collection (C) 2018 copyright by the U.S. Secretary of Commerce
on behalf of the United States of America. All rights reserved.
##DATE=1967/04/20
##NAMES=1,1,2,2-ethylenetetracarbonitrile
##CAS REGISTRY NO=670-54-2
##MOLFORM=C6 N4
##SOURCE REFERENCE=COBLENTZ NO. 05724
##$NIST SOURCE=COBLENTZ
##$NIST IMAGE=cob5724
##SPECTROMETER/DATA SYSTEM=BECKMAN IR-9 (GRATING)
##INSTRUMENT PARAMETERS=ORDER CHANGES: 670, 1200, 2000 CM^-^1
##STATE=SOLID (SPLIT MULL)
##SAMPLING PROCEDURE=TRANSMISSION
##RESOLUTION=2
##DATA PROCESSING=DIGITIZED BY COBLENTZ SOCIETY (BATCH I) FROM HARD COPY
##XUNITS=1/CM
##YUNITS=TRANSMITTANCE
##XLABEL=Wavenumbers (cm-1)
##YLABEL=% Transmission
##XFACTOR=1
##YFACTOR=1
##DELTAX=1
##FIRSTX=3800
##LASTX=400
##FIRSTY=0.2089
##MAXX=3800
##MINX=400
##MAXY=0.8892
##MINY=0.0308
##NPOINTS=3401
##XYDATA=(X++(Y..Y))
3800.000000 0.2089 0.2089 0.2090 0.2091 0.2092
3795.000000 0.2093 0.2095 0.2096 0.2097 0.2098
3790.000000 0.2099 0.2100 0.2102 0.2103 0.2104
3785.000000 0.2105 0.2107 0.2108 0.2109 0.2110
3780.000000 0.2112 0.2113 0.2114 0.2115 0.2117
3775.000000 0.2118 0.2119 0.2120 0.2121 0.2122
3770.000000 0.2124 0.2124 0.2124 0.2124 0.2125
3765.000000 0.2125 0.2125 0.2125 0.2126 0.2126
3760.000000 0.2127 0.2127 0.2127 0.2127 0.2128
3755.000000 0.2128 0.2129 0.2129 0.2129 0.2129
3750.000000 0.2130 0.2130 0.2131 0.2131 0.2131
3745.000000 0.2131 0.2132 0.2133 0.2134 0.2134
3740.000000 0.2137 0.2138 0.2140 0.2141 0.2143
3735.000000 0.2144 0.2146 0.2147 0.2149 0.2150
3730.000000 0.2152 0.2153 0.2155 0.2156 0.2158
3725.000000 0.2159 0.2161 0.2162 0.2164 0.2165
3720.000000 0.2167 0.2168 0.2170 0.2171 0.2173
3715.000000 0.2174 0.2176 0.2177 0.2179 0.2180
3710.000000 0.2182 0.2182 0.2183 0.2184 0.2184
3705.000000 0.2185 0.2187 0.2188 0.2189 0.2190
3700.000000 0.2191 0.2191 0.2192 0.2193 0.2194
3695.000000 0.2195 0.2196 0.2197 0.2198 0.2199
3690.000000 0.2200 0.2200 0.2201 0.2202 0.2203
3685.000000 0.2204 0.2205 0.2206 0.2207 0.2208
3680.000000 0.2209 0.2209 0.2210 0.2211 0.2212
3675.000000 0.2213 0.2215 0.2216 0.2218 0.2219
3670.000000 0.2220 0.2221 0.2223 0.2224 0.2225
3665.000000 0.2226 0.2228 0.2229 0.2230 0.2231
3660.000000 0.2233 0.2234 0.2235 0.2237 0.2238
3655.000000 0.2239 0.2241 0.2242 0.2243 0.2244
3650.000000 0.2246 0.2247 0.2248 0.2249 0.2251
3645.000000 0.2252 0.2254 0.2255 0.2256 0.2257
3640.000000 0.2258 0.2259 0.2260 0.2261 0.2262
3635.000000 0.2263 0.2264 0.2265 0.2266 0.2267
3630.000000 0.2268 0.2269 0.2270 0.2271 0.2272
3625.000000 0.2273 0.2274 0.2275 0.2276 0.2277
3620.000000 0.2278 0.2279 0.2280 0.2281 0.2282
3615.000000 0.2283 0.2284 0.2284 0.2285 0.2287
3610.000000 0.2288 0.2289 0.2290 0.2291 0.2292
3605.000000 0.2293 0.2294 0.2295 0.2296 0.2297
3600.000000 0.2298 0.2299 0.2300 0.2301 0.2302
3595.000000 0.2303 0.2304 0.2305 0.2306 0.2307
3590.000000 0.2308 0.2309 0.2310 0.2311 0.2312
3585.000000 0.2313 0.2314 0.2315 0.2316 0.2316
3580.000000 0.2317 0.2318 0.2319 0.2320 0.2321
3575.000000 0.2322 0.2323 0.2324 0.2325 0.2325
3570.000000 0.2326 0.2327 0.2328 0.2329 0.2330
3565.000000 0.2331 0.2332 0.2332 0.2333 0.2334
3560.000000 0.2334 0.2335 0.2337 0.2338 0.2339
3555.000000 0.2339 0.2340 0.2341 0.2342 0.2343
3550.000000 0.2344 0.2345 0.2346 0.2347 0.2348
3545.000000 0.2348 0.2349 0.2350 0.2351 0.2352
3540.000000 0.2353 0.2354 0.2355 0.2356 0.2357
3535.000000 0.2358 0.2359 0.2360 0.2361 0.2362
3530.000000 0.2364 0.2365 0.2366 0.2367 0.2368
3525.000000 0.2369 0.2370 0.2371 0.2373 0.2374
3520.000000 0.2375 0.2376 0.2377 0.2378 0.2380
3515.000000 0.2381 0.2382 0.2383 0.2384 0.2384
3510.000000 0.2385 0.2387 0.2389 0.2390 0.2391
3505.000000 0.2392 0.2393 0.2394 0.2396 0.2397
3500.000000 0.2398 0.2399 0.2400 0.2401 0.2403
3495.000000 0.2404 0.2405 0.2406 0.2407 0.2408
3490.000000 0.2409 0.2410 0.2412 0.2413 0.2414
3485.000000 0.2415 0.2416 0.2417 0.2419 0.2420
3480.000000 0.2421 0.2422 0.2423 0.2424 0.2426
3475.000000 0.2427 0.2429 0.2430 0.2432 0.2433
3470.000000 0.2434 0.2435 0.2438 0.2439 0.2441
3465.000000 0.2442 0.2444 0.2445 0.2447 0.2448
3460.000000 0.2450 0.2451 0.2453 0.2454 0.2456
3455.000000 0.2457 0.2459 0.2460 0.2462 0.2463
3450.000000 0.2465 0.2466 0.2468 0.2469 0.2471
3445.000000 0.2472 0.2474 0.2475 0.2477 0.2478
3440.000000 0.2480 0.2481 0.2483 0.2484 0.2487
3435.000000 0.2488 0.2490 0.2491 0.2493 0.2494
3430.000000 0.2496 0.2497 0.2499 0.2500 0.2502
3425.000000 0.2503 0.2505 0.2506 0.2508 0.2509
3420.000000 0.2511 0.2512 0.2514 0.2515 0.2517
3415.000000 0.2518 0.2520 0.2521 0.2523 0.2524
3410.000000 0.2526 0.2527 0.2529 0.2530 0.2532
3405.000000 0.2533 0.2534 0.2535 0.2538 0.2539
3400.000000 0.2541 0.2542 0.2544 0.2545 0.2547
3395.000000 0.2548 0.2550 0.2552 0.2554 0.2555
3390.000000 0.2557 0.2558 0.2560 0.2561 0.2563
3385.000000 0.2564 0.2566 0.2567 0.2569 0.2570
3380.000000 0.2572 0.2573 0.2575 0.2576 0.2578
3375.000000 0.2579 0.2581 0.2582 0.2584 0.2584
3370.000000 0.2587 0.2588 0.2590 0.2591 0.2593
3365.000000 0.2594 0.2596 0.2597 0.2599 0.2600
3360.000000 0.2602 0.2603 0.2605 0.2606 0.2608
3355.000000 0.2610 0.2612 0.2613 0.2615 0.2617
3350.000000 0.2619 0.2620 0.2622 0.2623 0.2625
3345.000000 0.2627 0.2629 0.2630 0.2632 0.2633
3340.000000 0.2634 0.2637 0.2639 0.2640 0.2642
3335.000000 0.2643 0.2645 0.2647 0.2649 0.2650
3330.000000 0.2652 0.2653 0.2655 0.2657 0.2659
3325.000000 0.2660 0.2662 0.2663 0.2665 0.2667
3320.000000 0.2669 0.2670 0.2672 0.2673 0.2675
3315.000000 0.2677 0.2679 0.2680 0.2682 0.2683
3310.000000 0.2684 0.2687 0.2689 0.2690 0.2692
3305.000000 0.2694 0.2696 0.2697 0.2699 0.2701
3300.000000 0.2703 0.2705 0.2707 0.2708 0.2710
3295.000000 0.2712 0.2714 0.2715 0.2717 0.2719
3290.000000 0.2721 0.2722 0.2724 0.2726 0.2728
3285.000000 0.2729 0.2731 0.2733 0.2734 0.2737
3280.000000 0.2739 0.2740 0.2742 0.2744 0.2746
3275.000000 0.2747 0.2749 0.2751 0.2754 0.2756
3270.000000 0.2758 0.2760 0.2763 0.2765 0.2767
3265.000000 0.2769 0.2772 0.2774 0.2776 0.2778
3260.000000 0.2781 0.2783 0.2785 0.2788 0.2790
3255.000000 0.2792 0.2795 0.2797 0.2799 0.2801
3250.000000 0.2804 0.2806 0.2808 0.2810 0.2813
3245.000000 0.2815 0.2817 0.2819 0.2822 0.2824
3240.000000 0.2827 0.2829 0.2831 0.2833 0.2835
3235.000000 0.2837 0.2839 0.2841 0.2843 0.2845
3230.000000 0.2847 0.2849 0.2851 0.2853 0.2855
3225.000000 0.2857 0.2859 0.2861 0.2863 0.2865
3220.000000 0.2867 0.2868 0.2870 0.2872 0.2874
3215.000000 0.2876 0.2878 0.2880 0.2882 0.2884
3210.000000 0.2885 0.2888 0.2890 0.2892 0.2894
3205.000000 0.2896 0.2898 0.2899 0.2901 0.2903
3200.000000 0.2905 0.2907 0.2909 0.2912 0.2915
3195.000000 0.2918 0.2921 0.2923 0.2926 0.2929
3190.000000 0.2932 0.2934 0.2938 0.2940 0.2943
3185.000000 0.2946 0.2949 0.2952 0.2955 0.2958
3180.000000 0.2961 0.2963 0.2966 0.2969 0.2972
3175.000000 0.2975 0.2978 0.2980 0.2983 0.2984
3170.000000 0.2988 0.2990 0.2993 0.2995 0.2998
3165.000000 0.3000 0.3003 0.3005 0.3008 0.3010
3160.000000 0.3012 0.3014 0.3017 0.3019 0.3022
3155.000000 0.3024 0.3027 0.3029 0.3032 0.3034
3150.000000 0.3037 0.3039 0.3041 0.3043 0.3046
3145.000000 0.3048 0.3051 0.3053 0.3056 0.3059
3140.000000 0.3062 0.3065 0.3068 0.3071 0.3074
3135.000000 0.3077 0.3080 0.3083 0.3085 0.3089
3130.000000 0.3092 0.3095 0.3098 0.3100 0.3103
3125.000000 0.3106 0.3109 0.3112 0.3115 0.3118
3120.000000 0.3121 0.3124 0.3127 0.3130 0.3133
3115.000000 0.3135 0.3139 0.3142 0.3145 0.3148
3110.000000 0.3151 0.3153 0.3156 0.3158 0.3160
3105.000000 0.3162 0.3165 0.3167 0.3170 0.3172
3100.000000 0.3175 0.3177 0.3180 0.3182 0.3184
3095.000000 0.3187 0.3190 0.3192 0.3195 0.3197
3090.000000 0.3200 0.3202 0.3205 0.3207 0.3209
3085.000000 0.3210 0.3214 0.3216 0.3218 0.3221
3080.000000 0.3224 0.3227 0.3230 0.3234 0.3237
3075.000000 0.3240 0.3244 0.3247 0.3250 0.3254
3070.000000 0.3258 0.3260 0.3264 0.3268 0.3272
3065.000000 0.3275 0.3279 0.3282 0.3286 0.3290
3060.000000 0.3294 0.3302 0.3310 0.3323 0.3334
3055.000000 0.3347 0.3359 0.3372 0.3384 0.3397
3050.000000 0.3409 0.3409 0.3412 0.3412 0.3414
3045.000000 0.3416 0.3418 0.3420 0.3422 0.3423
3040.000000 0.3425 0.3426 0.3428 0.3429 0.3430
3035.000000 0.3430 0.3432 0.3432 0.3432 0.3434
3030.000000 0.3434 0.3434 0.3436 0.3436 0.3437
3025.000000 0.3438 0.3439 0.3439 0.3440 0.3441
3020.000000 0.3442 0.3442 0.3443 0.3443 0.3444
3015.000000 0.3445 0.3446 0.3446 0.3447 0.3448
3010.000000 0.3449 0.3450 0.3450 0.3452 0.3454
3005.000000 0.3455 0.3457 0.3458 0.3459 0.3460
3000.000000 0.3462 0.3464 0.3466 0.3466 0.3468
2995.000000 0.3468 0.3471 0.3472 0.3474 0.3475
2990.000000 0.3477 0.3478 0.3480 0.3480 0.3482
2985.000000 0.3484 0.3486 0.3487 0.3489 0.3490
2980.000000 0.3492 0.3493 0.3495 0.3497 0.3499
2975.000000 0.3500 0.3503 0.3504 0.3506 0.3508
2970.000000 0.3509 0.3512 0.3514 0.3516 0.3518
2965.000000 0.3520 0.3522 0.3523 0.3524 0.3525
2960.000000 0.3527 0.3528 0.3529 0.3530 0.3530
2955.000000 0.3532 0.3532 0.3534 0.3534 0.3536
2950.000000 0.3537 0.3538 0.3539 0.3540 0.3542
2945.000000 0.3543 0.3544 0.3545 0.3546 0.3547
2940.000000 0.3548 0.3549 0.3550 0.3550 0.3552
2935.000000 0.3552 0.3553 0.3554 0.3555 0.3555
2930.000000 0.3556 0.3556 0.3557 0.3558 0.3559
2925.000000 0.3559 0.3559 0.3560 0.3562 0.3562
2920.000000 0.3562 0.3566 0.3568 0.3575 0.3580
2915.000000 0.3587 0.3593 0.3599 0.3606 0.3612
2910.000000 0.3618 0.3625 0.3632 0.3639 0.3646
2905.000000 0.3653 0.3660 0.3668 0.3675 0.3680
2900.000000 0.3688 0.3690 0.3693 0.3696 0.3699
2895.000000 0.3702 0.3705 0.3707 0.3709 0.3712
2890.000000 0.3716 0.3718 0.3720 0.3722 0.3725
2885.000000 0.3727 0.3730 0.3732 0.3734 0.3737
2880.000000 0.3739 0.3741 0.3744 0.3746 0.3749
2875.000000 0.3750 0.3753 0.3755 0.3758 0.3759
2870.000000 0.3762 0.3764 0.3766 0.3768 0.3772
2865.000000 0.3774 0.3777 0.3779 0.3782 0.3784
2860.000000 0.3788 0.3791 0.3794 0.3797 0.3800
2855.000000 0.3804 0.3808 0.3814 0.3820 0.3825
2850.000000 0.3830 0.3837 0.3843 0.3848 0.3854
2845.000000 0.3859 0.3866 0.3874 0.3880 0.3888
2840.000000 0.3896 0.3903 0.3909 0.3916 0.3924
2835.000000 0.3930 0.3937 0.3939 0.3942 0.3944
2830.000000 0.3947 0.3949 0.3950 0.3953 0.3956
2825.000000 0.3958 0.3960 0.3962 0.3964 0.3966
2820.000000 0.3970 0.3972 0.3975 0.3977 0.3979
2815.000000 0.3980 0.3984 0.3986 0.3989 0.3991
2810.000000 0.3994 0.3996 0.3998 0.4000 0.4003
2805.000000 0.4005 0.4008 0.4009 0.4012 0.4014
2800.000000 0.4016 0.4018 0.4022 0.4024 0.4027
2795.000000 0.4029 0.4032 0.4034 0.4036 0.4039
2790.000000 0.4042 0.4045 0.4048 0.4050 0.4055
2785.000000 0.4058 0.4060 0.4064 0.4068 0.4071
2780.000000 0.4074 0.4077 0.4080 0.4084 0.4087
2775.000000 0.4090 0.4094 0.4097 0.4100 0.4103
2770.000000 0.4107 0.4110 0.4112 0.4116 0.4119
2765.000000 0.4122 0.4125 0.4128 0.4131 0.4134
2760.000000 0.4138 0.4141 0.4144 0.4147 0.4150
2755.000000 0.4153 0.4156 0.4159 0.4162 0.4165
2750.000000 0.4168 0.4171 0.4174 0.4177 0.4181
2745.000000 0.4184 0.4187 0.4190 0.4193 0.4196
2740.000000 0.4199 0.4202 0.4205 0.4208 0.4210
2735.000000 0.4215 0.4219 0.4222 0.4226 0.4229
2730.000000 0.4233 0.4237 0.4241 0.4244 0.4248
2725.000000 0.4252 0.4256 0.4259 0.4262 0.4266
2720.000000 0.4270 0.4274 0.4278 0.4282 0.4287
2715.000000 0.4292 0.4298 0.4304 0.4310 0.4315
2710.000000 0.4320 0.4323 0.4326 0.4329 0.4333
2705.000000 0.4336 0.4340 0.4343 0.4347 0.4348
2700.000000 0.4350 0.4351 0.4353 0.4354 0.4356
2695.000000 0.4357 0.4359 0.4360 0.4362 0.4362
2690.000000 0.4365 0.4366 0.4368 0.4369 0.4371
2685.000000 0.4375 0.4379 0.4383 0.4387 0.4391
2680.000000 0.4395 0.4399 0.4403 0.4407 0.4410
2675.000000 0.4415 0.4420 0.4424 0.4428 0.4432
2670.000000 0.4436 0.4441 0.4446 0.4450 0.4455
2665.000000 0.4460 0.4465 0.4469 0.4474 0.4479
2660.000000 0.4484 0.4488 0.4493 0.4498 0.4503
2655.000000 0.4507 0.4512 0.4517 0.4522 0.4526
2650.000000 0.4531 0.4536 0.4541 0.4545 0.4550
2645.000000 0.4554 0.4558 0.4562 0.4566 0.4570
2640.000000 0.4574 0.4578 0.4582 0.4585 0.4589
2635.000000 0.4593 0.4597 0.4601 0.4606 0.4610
2630.000000 0.4616 0.4621 0.4627 0.4632 0.4638
2625.000000 0.4643 0.4649 0.4654 0.4659 0.4664
2620.000000 0.4670 0.4675 0.4681 0.4684 0.4688
2615.000000 0.4691 0.4694 0.4697 0.4700 0.4703
2610.000000 0.4706 0.4709 0.4712 0.4715 0.4718
2605.000000 0.4721 0.4724 0.4727 0.4730 0.4733
2600.000000 0.4737 0.4740 0.4743 0.4746 0.4749
2595.000000 0.4752 0.4756 0.4759 0.4762 0.4766
2590.000000 0.4769 0.4772 0.4776 0.4779 0.4783
2585.000000 0.4786 0.4790 0.4793 0.4797 0.4800
2580.000000 0.4803 0.4806 0.4810 0.4812 0.4817
2575.000000 0.4820 0.4824 0.4828 0.4833 0.4837
2570.000000 0.4841 0.4845 0.4849 0.4853 0.4858
2565.000000 0.4862 0.4866 0.4870 0.4874 0.4878
2560.000000 0.4883 0.4887 0.4891 0.4895 0.4899
2555.000000 0.4902 0.4905 0.4908 0.4910 0.4914
2550.000000 0.4917 0.4920 0.4923 0.4925 0.4928
2545.000000 0.4931 0.4934 0.4937 0.4940 0.4941
2540.000000 0.4943 0.4944 0.4946 0.4947 0.4949
2535.000000 0.4950 0.4952 0.4953 0.4955 0.4957
2530.000000 0.4959 0.4960 0.4962 0.4962 0.4965
2525.000000 0.4966 0.4966 0.4966 0.4966 0.4965
2520.000000 0.4964 0.4962 0.4962 0.4962 0.4962
2515.000000 0.4960 0.4960 0.4959 0.4959 0.4958
2510.000000 0.4958 0.4958 0.4958 0.4957 0.4957
2505.000000 0.4956 0.4956 0.4955 0.4955 0.4958
2500.000000 0.4962 0.4966 0.4970 0.4973 0.4977
2495.000000 0.4981 0.4985 0.4988 0.4992 0.4996
2490.000000 0.5000 0.5003 0.5007 0.5010 0.5015
2485.000000 0.5018 0.5022 0.5025 0.5029 0.5032
2480.000000 0.5036 0.5039 0.5043 0.5046 0.5050
2475.000000 0.5053 0.5057 0.5060 0.5064 0.5067
2470.000000 0.5071 0.5074 0.5078 0.5081 0.5085
2465.000000 0.5088 0.5092 0.5096 0.5100 0.5103
2460.000000 0.5107 0.5110 0.5114 0.5117 0.5121
2455.000000 0.5125 0.5129 0.5132 0.5136 0.5140
2450.000000 0.5144 0.5148 0.5152 0.5155 0.5159
2445.000000 0.5160 0.5162 0.5164 0.5165 0.5165
2440.000000 0.5166 0.5166 0.5167 0.5168 0.5169
2435.000000 0.5169 0.5170 0.5170 0.5171 0.5172
2430.000000 0.5173 0.5173 0.5174 0.5174 0.5175
2425.000000 0.5176 0.5177 0.5178 0.5179 0.5180
2420.000000 0.5181 0.5182 0.5183 0.5184 0.5185
2415.000000 0.5186 0.5187 0.5187 0.5188 0.5189
2410.000000 0.5190 0.5191 0.5192 0.5192 0.5193
2405.000000 0.5194 0.5195 0.5196 0.5197 0.5198
2400.000000 0.5200 0.5201 0.5203 0.5205 0.5207
2395.000000 0.5212 0.5217 0.5222 0.5228 0.5235
2390.000000 0.5243 0.5250 0.5258 0.5266 0.5274
2385.000000 0.5281 0.5289 0.5312 0.5337 0.5373
2380.000000 0.5410 0.5446 0.5483 0.5512 0.5542
2375.000000 0.5560 0.5578 0.5588 0.5598 0.5608
2370.000000 0.5619 0.5624 0.5629 0.5627 0.5626
2365.000000 0.5625 0.5624 0.5622 0.5621 0.5620
2360.000000 0.5619 0.5617 0.5616 0.5614 0.5612
2355.000000 0.5612 0.5610 0.5610 0.5610 0.5610
2350.000000 0.5610 0.5610 0.5610 0.5610 0.5610
2345.000000 0.5610 0.5610 0.5610 0.5610 0.5610
2340.000000 0.5610 0.5610 0.5610 0.5610 0.5612
2335.000000 0.5614 0.5616 0.5618 0.5620 0.5622
2330.000000 0.5624 0.5625 0.5627 0.5629 0.5631
2325.000000 0.5633 0.5635 0.5637 0.5639 0.5641
2320.000000 0.5643 0.5645 0.5647 0.5649 0.5651
2315.000000 0.5653 0.5655 0.5656 0.5658 0.5660
2310.000000 0.5662 0.5664 0.5666 0.5668 0.5671
2305.000000 0.5676 0.5681 0.5686 0.5691 0.5696
2300.000000 0.5702 0.5708 0.5714 0.5719 0.5725
2295.000000 0.5730 0.5736 0.5744 0.5752 0.5762
2290.000000 0.5772 0.5781 0.5791 0.5805 0.5819
2285.000000 0.5834 0.5850 0.5865 0.5880 0.5896
2280.000000 0.5912 0.5930 0.5948 0.5964 0.5980
2275.000000 0.5988 0.5996 0.6003 0.6010 0.6015
2270.000000 0.6020 0.6023 0.6027 0.6027 0.6042
2265.000000 0.6022 0.6017 0.5996 0.5975 0.5697
2260.000000 0.5419 0.4628 0.3838 0.3048 0.1538
2255.000000 0.1892 0.1526 0.1527 0.1529 0.1818
2250.000000 0.2107 0.2519 0.2932 0.3344 0.3757
2245.000000 0.4169 0.4582 0.4899 0.5217 0.5241
2240.000000 0.5266 0.5287 0.5309 0.5328 0.5347
2235.000000 0.5357 0.5397 0.5370 0.5374 0.5375
2230.000000 0.5377 0.5151 0.4926 0.4323 0.3721
2225.000000 0.3720 0.3712 0.3805 0.3890 0.4058
2220.000000 0.4226 0.4394 0.4562 0.4646 0.4730
2215.000000 0.4730 0.4730 0.4730 0.4730 0.4730
2210.000000 0.4730 0.4730 0.4730 0.4810 0.4891
2205.000000 0.5166 0.5441 0.5486 0.5532 0.5575
2200.000000 0.5618 0.5645 0.5673 0.5700 0.5727
2195.000000 0.5754 0.5782 0.5799 0.5817 0.5828
2190.000000 0.5839 0.5850 0.5860 0.5872 0.5883
2185.000000 0.5894 0.5905 0.5915 0.5926 0.5936
2180.000000 0.5947 0.5957 0.5967 0.5977 0.5988
2175.000000 0.5998 0.6009 0.6019 0.6030 0.6040
2170.000000 0.6050 0.6060 0.6071 0.6081 0.6092
2165.000000 0.6105 0.6118 0.6131 0.6144 0.6157
2160.000000 0.6170 0.6182 0.6195 0.6208 0.6221
2155.000000 0.6229 0.6238 0.6244 0.6251 0.6257
2150.000000 0.6264 0.6270 0.6277 0.6283 0.6290
2145.000000 0.6297 0.6304 0.6310 0.6317 0.6323
2140.000000 0.6330 0.6338 0.6346 0.6354 0.6362
2135.000000 0.6371 0.6380 0.6388 0.6397 0.6405
2130.000000 0.6412 0.6421 0.6430 0.6439 0.6449
2125.000000 0.6458 0.6468 0.6476 0.6487 0.6497
2120.000000 0.6507 0.6515 0.6525 0.6535 0.6545
2115.000000 0.6554 0.6564 0.6572 0.6583 0.6592
2110.000000 0.6601 0.6608 0.6615 0.6624 0.6632
2105.000000 0.6639 0.6647 0.6655 0.6662 0.6669
2100.000000 0.6678 0.6685 0.6693 0.6701 0.6708
2095.000000 0.6715 0.6722 0.6728 0.6734 0.6739
2090.000000 0.6745 0.6751 0.6757 0.6761 0.6768
2085.000000 0.6774 0.6780 0.6785 0.6791 0.6796
2080.000000 0.6801 0.6808 0.6814 0.6818 0.6825
2075.000000 0.6826 0.6828 0.6831 0.6833 0.6835
2070.000000 0.6837 0.6839 0.6841 0.6843 0.6846
2065.000000 0.6850 0.6855 0.6858 0.6862 0.6867
2060.000000 0.6871 0.6875 0.6881 0.6885 0.6890
2055.000000 0.6895 0.6901 0.6910 0.6918 0.6928
2050.000000 0.6938 0.6947 0.6956 0.6965 0.6974
2045.000000 0.6983 0.6993 0.7001 0.7011 0.7019
2040.000000 0.7030 0.7039 0.7049 0.7058 0.7068
2035.000000 0.7078 0.7088 0.7098 0.7108 0.7118
2030.000000 0.7128 0.7138 0.7148 0.7155 0.7161
2025.000000 0.7167 0.7172 0.7178 0.7185 0.7190
2020.000000 0.7195 0.7197 0.7200 0.7201 0.7205
2015.000000 0.7207 0.7208 0.7211 0.7214 0.7215
2010.000000 0.7218 0.7221 0.7210 0.7225 0.7228
2005.000000 0.7218 0.7208 0.7198 0.7188 0.7157
2000.000000 0.7126 0.7081 0.7018 0.6993 0.6948
1995.000000 0.6974 0.6975 0.7126 0.7226 0.7264
1990.000000 0.7299 0.7318 0.7325 0.7333 0.7346
1985.000000 0.7349 0.7356 0.7364 0.7368 0.7375
1980.000000 0.7380 0.7386 0.7391 0.7397 0.7401
1975.000000 0.7408 0.7412 0.7419 0.7428 0.7436
1970.000000 0.7445 0.7453 0.7461 0.7469 0.7478
1965.000000 0.7486 0.7495 0.7498 0.7500 0.7503
1960.000000 0.7505 0.7506 0.7506 0.7506 0.7506
1955.000000 0.7514 0.7521 0.7530 0.7538 0.7545
1950.000000 0.7553 0.7561 0.7568 0.7571 0.7571
1945.000000 0.7574 0.7575 0.7576 0.7578 0.7580
1940.000000 0.7582 0.7584 0.7585 0.7587 0.7589
1935.000000 0.7590 0.7592 0.7594 0.7595 0.7597
1930.000000 0.7600 0.7601 0.7605 0.7608 0.7611
1925.000000 0.7612 0.7615 0.7618 0.7621 0.7624
1920.000000 0.7626 0.7628 0.7632 0.7635 0.7638
1915.000000 0.7641 0.7645 0.7649 0.7653 0.7656
1910.000000 0.7660 0.7664 0.7668 0.7671 0.7675
1905.000000 0.7680 0.7684 0.7688 0.7692 0.7695
1900.000000 0.7699 0.7703 0.7707 0.7710 0.7714
1895.000000 0.7717 0.7719 0.7724 0.7726 0.7731
1890.000000 0.7734 0.7737 0.7741 0.7744 0.7748
1885.000000 0.7751 0.7755 0.7758 0.7761 0.7765
1880.000000 0.7768 0.7771 0.7775 0.7778 0.7780
1875.000000 0.7783 0.7785 0.7788 0.7790 0.7793
1870.000000 0.7795 0.7798 0.7800 0.7801 0.7805
1865.000000 0.7807 0.7810 0.7811 0.7815 0.7817
1860.000000 0.7819 0.7821 0.7825 0.7826 0.7830
1855.000000 0.7832 0.7834 0.7837 0.7839 0.7842
1850.000000 0.7844 0.7846 0.7849 0.7851 0.7853
1845.000000 0.7856 0.7858 0.7861 0.7862 0.7865
1840.000000 0.7868 0.7869 0.7872 0.7875 0.7876
1835.000000 0.7880 0.7882 0.7886 0.7892 0.7897
1830.000000 0.7901 0.7908 0.7912 0.7918 0.7924
1825.000000 0.7930 0.7935 0.7940 0.7946 0.7951
1820.000000 0.7957 0.7961 0.7968 0.7972 0.7978
1815.000000 0.7981 0.7985 0.7988 0.7992 0.7996
1810.000000 0.7999 0.8003 0.8006 0.8010 0.8011
1805.000000 0.8014 0.8015 0.8018 0.8019 0.8021
1800.000000 0.8022 0.8025 0.8028 0.8031 0.8033
1795.000000 0.8036 0.8039 0.8041 0.8044 0.8046
1790.000000 0.8049 0.8051 0.8055 0.8058 0.8064
1785.000000 0.8068 0.8071 0.8075 0.8080 0.8084
1780.000000 0.8089 0.8093 0.8094 0.8094 0.8094
1775.000000 0.8094 0.8094 0.8094 0.8094 0.8094
1770.000000 0.8093 0.8092 0.8091 0.8090 0.8088
1765.000000 0.8087 0.8086 0.8081 0.8071 0.8062
1760.000000 0.8054 0.8045 0.8037 0.8028 0.8018
1755.000000 0.8007 0.7993 0.7978 0.7965 0.7951
1750.000000 0.7939 0.7933 0.7930 0.7928 0.7925
1745.000000 0.7922 0.7921 0.7918 0.7917 0.7914
1740.000000 0.7911 0.7911 0.7912 0.7914 0.7914
1735.000000 0.7915 0.7915 0.7917 0.7918 0.7918
1730.000000 0.7918 0.7918 0.7919 0.7921 0.7921
1725.000000 0.7921 0.7921 0.7922 0.7922 0.7924
1720.000000 0.7924 0.7922 0.7921 0.7906 0.7891
1715.000000 0.7875 0.7858 0.7840 0.7830 0.7821
1710.000000 0.7811 0.7810 0.7812 0.7812 0.7818
1705.000000 0.7825 0.7833 0.7839 0.7844 0.7849
1700.000000 0.7855 0.7855 0.7854 0.7854 0.7853
1695.000000 0.7851 0.7851 0.7853 0.7853 0.7854
1690.000000 0.7856 0.7857 0.7858 0.7861 0.7865
1685.000000 0.7872 0.7880 0.7888 0.7895 0.7901
1680.000000 0.7919 0.7941 0.7961 0.7983 0.8003
1675.000000 0.8022 0.8042 0.8061 0.8082 0.8098
1670.000000 0.8111 0.8124 0.8137 0.8150 0.8162
1665.000000 0.8175 0.8189 0.8202 0.8214 0.8225
1660.000000 0.8236 0.8248 0.8259 0.8270 0.8281
1655.000000 0.8293 0.8304 0.8315 0.8327 0.8337
1650.000000 0.8347 0.8357 0.8367 0.8377 0.8387
1645.000000 0.8397 0.8407 0.8416 0.8418 0.8420
1640.000000 0.8421 0.8424 0.8425 0.8428 0.8428
1635.000000 0.8430 0.8432 0.8433 0.8434 0.8436
1630.000000 0.8441 0.8446 0.8452 0.8458 0.8464
1625.000000 0.8470 0.8475 0.8481 0.8487 0.8493
1620.000000 0.8499 0.8504 0.8510 0.8518 0.8525
1615.000000 0.8533 0.8541 0.8548 0.8556 0.8563
1610.000000 0.8571 0.8578 0.8586 0.8594 0.8601
1605.000000 0.8610 0.8618 0.8625 0.8634 0.8643
1600.000000 0.8651 0.8659 0.8667 0.8675 0.8684
1595.000000 0.8692 0.8701 0.8709 0.8717 0.8725
1590.000000 0.8735 0.8744 0.8753 0.8762 0.8771
1585.000000 0.8780 0.8789 0.8798 0.8806 0.8814
1580.000000 0.8821 0.8830 0.8838 0.8844 0.8846
1575.000000 0.8847 0.8849 0.8851 0.8853 0.8854
1570.000000 0.8856 0.8858 0.8871 0.8861 0.8863
1565.000000 0.8865 0.8867 0.8867 0.8866 0.8866
1560.000000 0.8865 0.8864 0.8864 0.8863 0.8863
1555.000000 0.8862 0.8861 0.8861 0.8860 0.8860
1550.000000 0.8859 0.8858 0.8858 0.8858 0.8859
1545.000000 0.8859 0.8859 0.8859 0.8860 0.8860
1540.000000 0.8860 0.8860 0.8861 0.8861 0.8862
1535.000000 0.8863 0.8863 0.8864 0.8864 0.8865
1530.000000 0.8866 0.8866 0.8864 0.8861 0.8857
1525.000000 0.8854 0.8851 0.8847 0.8844 0.8841
1520.000000 0.8837 0.8834 0.8831 0.8828 0.8828
1515.000000 0.8830 0.8830 0.8830 0.8831 0.8831
1510.000000 0.8831 0.8832 0.8832 0.8833 0.8833
1505.000000 0.8833 0.8834 0.8834 0.8830 0.8825
1500.000000 0.8821 0.8817 0.8812 0.8809 0.8806
1495.000000 0.8803 0.8800 0.8797 0.8794 0.8791
1490.000000 0.8787 0.8782 0.8775 0.8771 0.8766
1485.000000 0.8760 0.8755 0.8750 0.8745 0.8738
1480.000000 0.8727 0.8717 0.8706 0.8695 0.8685
1475.000000 0.8674 0.8664 0.8653 0.8642 0.8632
1470.000000 0.8621 0.8611 0.8601 0.8591 0.8580
1465.000000 0.8568 0.8556 0.8543 0.8530 0.8517
1460.000000 0.8504 0.8491 0.8482 0.8475 0.8468
1455.000000 0.8462 0.8455 0.8449 0.8443 0.8437
1450.000000 0.8430 0.8421 0.8412 0.8402 0.8392
1445.000000 0.8382 0.8371 0.8362 0.8354 0.8345
1440.000000 0.8337 0.8328 0.8321 0.8315 0.8309
1435.000000 0.8302 0.8302 0.8293 0.8280 0.8268
1430.000000 0.8256 0.8243 0.8231 0.8217 0.8201
1425.000000 0.8185 0.8168 0.8153 0.8137 0.8121
1420.000000 0.8104 0.8093 0.8084 0.8074 0.8064
1415.000000 0.8055 0.8045 0.8036 0.8028 0.8019
1410.000000 0.8011 0.8004 0.7996 0.7988 0.7980
1405.000000 0.7972 0.7965 0.7958 0.7951 0.7946
1400.000000 0.7940 0.7934 0.7928 0.7921 0.7912
1395.000000 0.7901 0.7891 0.7880 0.7868 0.7858
1390.000000 0.7847 0.7836 0.7822 0.7808 0.7795
1385.000000 0.7780 0.7765 0.7751 0.7738 0.7724
1380.000000 0.7708 0.7695 0.7681 0.7667 0.7653
1375.000000 0.7639 0.7625 0.7610 0.7595 0.7581
1370.000000 0.7565 0.7551 0.7536 0.7515 0.7481
1365.000000 0.7447 0.7412 0.7369 0.7303 0.7225
1360.000000 0.7150 0.7094 0.7039 0.6978 0.6908
1355.000000 0.6839 0.6749 0.6658 0.6580 0.6503
1350.000000 0.6425 0.6342 0.5992 0.5835 0.5759
1345.000000 0.5737 0.5715 0.5710 0.5708 0.5705
1340.000000 0.5705 0.5710 0.5716 0.5730 0.5748
1335.000000 0.5768 0.5774 0.5777 0.5778 0.5778
1330.000000 0.5810 0.6104 0.6396 0.6688 0.6981
1325.000000 0.7003 0.7011 0.7005 0.6995 0.6986
1320.000000 0.6975 0.6964 0.6953 0.6942 0.6932
1315.000000 0.6926 0.6921 0.6917 0.6911 0.6907
1310.000000 0.6901 0.6896 0.6890 0.6885 0.6878
1305.000000 0.6878 0.6882 0.6886 0.6889 0.6893
1300.000000 0.6901 0.6911 0.6919 0.6928 0.6939
1295.000000 0.6948 0.6957 0.6969 0.6985 0.6999
1290.000000 0.7014 0.7028 0.7042 0.7057 0.7071
1285.000000 0.7086 0.7100 0.7112 0.7125 0.7137
1280.000000 0.7150 0.7161 0.7174 0.7186 0.7199
1275.000000 0.7211 0.7222 0.7234 0.7240 0.7246
1270.000000 0.7253 0.7258 0.7265 0.7271 0.7278
1265.000000 0.7285 0.7256 0.7301 0.7310 0.7318
1260.000000 0.7325 0.7334 0.7343 0.7350 0.7356
1255.000000 0.7361 0.7368 0.7375 0.7381 0.7387
1250.000000 0.7392 0.7396 0.7400 0.7404 0.7405
1245.000000 0.7405 0.7404 0.7404 0.7403 0.7398
1240.000000 0.7393 0.7388 0.7381 0.7312 0.7243
1235.000000 0.7171 0.7101 0.7026 0.7025 0.7037
1230.000000 0.7139 0.7242 0.7345 0.7428 0.7441
1225.000000 0.7454 0.7465 0.7480 0.7494 0.7500
1220.000000 0.7501 0.7505 0.7508 0.7501 0.7492
1215.000000 0.7482 0.7475 0.7469 0.7465 0.7460
1210.000000 0.7454 0.7457 0.7461 0.7467 0.7471
1205.000000 0.7480 0.7493 0.7505 0.7517 0.7528
1200.000000 0.7540 0.7549 0.7557 0.7561 0.7561
1195.000000 0.7561 0.7561 0.7562 0.7560 0.7551
1190.000000 0.7542 0.7525 0.7503 0.7481 0.7458
1185.000000 0.7441 0.7428 0.7417 0.7405 0.7403
1180.000000 0.7403 0.7404 0.7405 0.7405 0.7387
1175.000000 0.7365 0.7344 0.7321 0.7286 0.7249
1170.000000 0.7211 0.7174 0.7121 0.7057 0.6995
1165.000000 0.6945 0.6895 0.6846 0.6764 0.6661
1160.000000 0.6101 0.5833 0.4960 0.4090 0.3218
1155.000000 0.2346 0.1475 0.0603 0.0308 0.0312
1150.000000 0.0481 0.1034 0.1587 0.2140 0.2693
1145.000000 0.3246 0.3799 0.4352 0.4905 0.5458
1140.000000 0.6010 0.6564 0.6526 0.6505 0.6493
1135.000000 0.6705 0.7037 0.7287 0.7347 0.7407
1130.000000 0.7469 0.7531 0.7557 0.7575 0.7589
1125.000000 0.7594 0.7597 0.7606 0.7601 0.7593
1120.000000 0.7550 0.7471 0.7380 0.7280 0.7192
1115.000000 0.7108 0.5972 0.4128 0.4034 0.4088
1110.000000 0.4703 0.5319 0.5934 0.6549 0.7165
1105.000000 0.7276 0.7351 0.7430 0.7495 0.7553
1100.000000 0.7584 0.7600 0.7611 0.7614 0.7628
1095.000000 0.7618 0.7617 0.7600 0.7583 0.7533
1090.000000 0.7454 0.7222 0.6635 0.6047 0.5417
1085.000000 0.5417 0.5409 0.5507 0.5791 0.6074
1080.000000 0.6358 0.6641 0.6925 0.7208 0.7262
1075.000000 0.7301 0.7341 0.7411 0.7483 0.7555
1070.000000 0.7586 0.7596 0.7604 0.7611 0.7619
1065.000000 0.7628 0.7636 0.7644 0.7651 0.7660
1060.000000 0.7668 0.7676 0.7685 0.7693 0.7701
1055.000000 0.7708 0.7717 0.7725 0.7733 0.7742
1050.000000 0.7748 0.7753 0.7758 0.7764 0.7768
1045.000000 0.7774 0.7778 0.7784 0.7789 0.7794
1040.000000 0.7798 0.7810 0.7810 0.7810 0.7811
1035.000000 0.7812 0.7812 0.7812 0.7811 0.7811
1030.000000 0.7811 0.7751 0.7658 0.7614 0.7569
1025.000000 0.7545 0.7518 0.7494 0.7471 0.7428
1020.000000 0.7467 0.7468 0.7475 0.7515 0.7561
1015.000000 0.7608 0.7638 0.7668 0.7698 0.7728
1010.000000 0.7755 0.7781 0.7807 0.7832 0.7842
1005.000000 0.7851 0.7861 0.7871 0.7882 0.7928
1000.000000 0.7895 0.7899 0.7901 0.7905 0.7908
995.000000 0.7911 0.7912 0.7912 0.7912 0.7912
990.000000 0.7912 0.7911 0.7911 0.7908 0.7905
985.000000 0.7901 0.7898 0.7895 0.7891 0.7888
980.000000 0.7884 0.7880 0.7875 0.7868 0.7864
975.000000 0.7858 0.7853 0.7847 0.7833 0.7818
970.000000 0.7804 0.7790 0.7771 0.7749 0.7725
965.000000 0.7701 0.7661 0.7618 0.7545 0.6448
960.000000 0.5289 0.4130 0.2971 0.2954 0.2918
955.000000 0.3494 0.3952 0.4410 0.4869 0.5327
950.000000 0.5785 0.6244 0.6701 0.7160 0.7396
945.000000 0.7422 0.7438 0.7442 0.7442 0.7442
940.000000 0.7430 0.7391 0.7098 0.6771 0.6445
935.000000 0.6135 0.6099 0.6117 0.6122 0.6192
930.000000 0.6356 0.6519 0.6684 0.6848 0.7011
925.000000 0.7175 0.7339 0.7467 0.7476 0.7486
920.000000 0.7486 0.7258 0.6978 0.6698 0.6417
915.000000 0.6137 0.5904 0.5955 0.5984 0.6280
910.000000 0.6717 0.7155 0.7593 0.7758 0.7782
905.000000 0.7806 0.7830 0.7854 0.7878 0.7900
900.000000 0.7921 0.7943 0.7965 0.7986 0.8006
895.000000 0.8018 0.8031 0.8043 0.8056 0.8068
890.000000 0.8081 0.8093 0.8106 0.8118 0.8125
885.000000 0.8132 0.8140 0.8147 0.8154 0.8161
880.000000 0.8168 0.8175 0.8182 0.8181 0.8180
875.000000 0.8178 0.8176 0.8175 0.8175 0.8174
870.000000 0.8172 0.8171 0.8171 0.8168 0.8167
865.000000 0.8164 0.8161 0.8158 0.8156 0.8153
860.000000 0.8151 0.8148 0.8145 0.8141 0.8138
855.000000 0.8135 0.8131 0.8128 0.8124 0.8125
850.000000 0.8125 0.8125 0.8125 0.8126 0.8130
845.000000 0.8134 0.8138 0.8143 0.8147 0.8151
840.000000 0.8151 0.8150 0.8149 0.8148 0.8148
835.000000 0.8148 0.8144 0.8136 0.8128 0.8117
830.000000 0.8085 0.8049 0.8015 0.7988 0.7971
825.000000 0.7965 0.7964 0.7964 0.7965 0.7985
820.000000 0.8037 0.8103 0.8137 0.8137 0.8138
815.000000 0.8124 0.8110 0.8058 0.8006 0.7950
810.000000 0.7891 0.7832 0.7778 0.7725 0.7621
805.000000 0.7512 0.7451 0.5690 0.5693 0.5722
800.000000 0.6022 0.6322 0.6621 0.6921 0.7221
795.000000 0.7521 0.7808 0.7991 0.8065 0.8133
790.000000 0.8161 0.8191 0.8220 0.8245 0.8254
785.000000 0.8262 0.8271 0.8278 0.8288 0.8296
780.000000 0.8300 0.8303 0.8306 0.8309 0.8312
775.000000 0.8316 0.8318 0.8318 0.8320 0.8318
770.000000 0.8316 0.8315 0.8313 0.8311 0.8309
765.000000 0.8302 0.8303 0.8304 0.8302 0.8299
760.000000 0.8297 0.8295 0.8292 0.8290 0.8288
755.000000 0.8286 0.8283 0.8277 0.8270 0.8263
750.000000 0.8256 0.8249 0.8236 0.8218 0.8200
745.000000 0.8182 0.8164 0.8145 0.8122 0.8100
740.000000 0.8078 0.8055 0.8032 0.8007 0.7982
735.000000 0.7956 0.7931 0.7906 0.7868 0.7826
730.000000 0.7786 0.7728 0.7655 0.7582 0.7508
725.000000 0.7441 0.7376 0.7258 0.7268 0.7268
720.000000 0.7269 0.7314 0.7456 0.7631 0.7761
715.000000 0.7868 0.7941 0.8012 0.8085 0.8157
710.000000 0.8236 0.8283 0.8311 0.8320 0.8324
705.000000 0.8327 0.8308 0.8286 0.8265 0.8243
700.000000 0.8218 0.8193 0.8185 0.8185 0.8187
695.000000 0.8217 0.8247 0.8275 0.8315 0.8355
690.000000 0.8394 0.8434 0.8482 0.8525 0.8541
685.000000 0.8556 0.8561 0.8551 0.8541 0.8532
680.000000 0.8521 0.8512 0.8502 0.8504 0.8514
675.000000 0.8523 0.8532 0.8542 0.8556 0.8571
670.000000 0.8589 0.8605 0.8621 0.8638 0.8655
665.000000 0.8671 0.8683 0.8695 0.8706 0.8718
660.000000 0.8728 0.8741 0.8753 0.8764 0.8775
655.000000 0.8787 0.8795 0.8797 0.8799 0.8801
650.000000 0.8803 0.8805 0.8807 0.8809 0.8811
645.000000 0.8813 0.8815 0.8815 0.8815 0.8815
640.000000 0.8815 0.8816 0.8816 0.8816 0.8816
635.000000 0.8817 0.8818 0.8821 0.8823 0.8825
630.000000 0.8827 0.8828 0.8831 0.8833 0.8835
625.000000 0.8837 0.8839 0.8844 0.8854 0.8863
620.000000 0.8870 0.8875 0.8880 0.8885 0.8890
615.000000 0.8891 0.8892 0.8891 0.8889 0.8887
610.000000 0.8886 0.8884 0.8883 0.8875 0.8868
605.000000 0.8861 0.8809 0.8846 0.8839 0.8833
600.000000 0.8825 0.8820 0.8814 0.8808 0.8799
595.000000 0.8787 0.8775 0.8762 0.8744 0.8725
590.000000 0.8707 0.8662 0.8608 0.8575 0.8545
585.000000 0.8537 0.8542 0.8546 0.8551 0.8541
580.000000 0.8496 0.8409 0.8162 0.6084 0.4274
575.000000 0.4281 0.4621 0.5219 0.5818 0.6417
570.000000 0.7015 0.7615 0.8214 0.8391 0.8436
565.000000 0.8462 0.8481 0.8482 0.8483 0.8475
560.000000 0.8465 0.8450 0.8406 0.8356 0.8206
555.000000 0.7074 0.5818 0.4562 0.3306 0.3093
550.000000 0.3093 0.4529 0.5974 0.7419 0.8416
545.000000 0.8480 0.8534 0.8571 0.8602 0.8616
540.000000 0.8616 0.8611 0.8598 0.8584 0.8571
535.000000 0.8573 0.8590 0.8575 0.8578 0.8578
530.000000 0.8578 0.8578 0.8578 0.8578 0.8578
525.000000 0.8578 0.8578 0.8577 0.8573 0.8570
520.000000 0.8567 0.8563 0.8560 0.8556 0.8553
515.000000 0.8549 0.8546 0.8543 0.8539 0.8536
510.000000 0.8533 0.8530 0.8525 0.8523 0.8520
505.000000 0.8517 0.8514 0.8510 0.8507 0.8504
500.000000 0.8501 0.8496 0.8490 0.8483 0.8475
495.000000 0.8468 0.8463 0.8456 0.8449 0.8442
490.000000 0.8435 0.8428 0.8421 0.8412 0.8401
485.000000 0.8390 0.8378 0.8368 0.8358 0.8347
480.000000 0.8336 0.8325 0.8314 0.8303 0.8292
475.000000 0.8282 0.8271 0.8257 0.8242 0.8227
470.000000 0.8212 0.8197 0.8182 0.8165 0.8151
465.000000 0.8136 0.8121 0.8106 0.8087 0.8067
460.000000 0.8047 0.8028 0.8008 0.7988 0.7968
455.000000 0.7948 0.7928 0.7903 0.7874 0.7846
450.000000 0.7818 0.7789 0.7761 0.7732 0.7701
445.000000 0.7672 0.7644 0.7614 0.7561 0.7506
440.000000 0.7448 0.7374 0.7308 0.7301 0.7296
435.000000 0.7287 0.7276 0.7249 0.7139 0.7057
430.000000 0.6984 0.6715 0.6615 0.6593 0.6581
425.000000 0.6568 0.6558 0.6548 0.6524 0.6493
420.000000 0.6458 0.6421 0.6382 0.6347 0.6312
415.000000 0.6277 0.6242 0.6214 0.6189 0.6162
410.000000 0.6150 0.6139 0.6128 0.6120 0.6112
405.000000 0.6105 0.6108 0.6115 0.6122 0.6133
400.000000 0.6154
##END=
