##TITLE=Methanol
##JCAMP-DX=4.24
##DATA TYPE=INFRARED SPECTRUM
##CLASS=IUPAC A
##ORIGIN=NIST, Anayltical Chemistry Division, 301-975-3108
##OWNER=COPYRIGHT (C) 1998 by the U.S. Secretary of Commerce
##DATE=98/10/1
##$SPECTRA VERSION=1.00
##$UNCERTAINTY IN Y=2.0 % relative (B=1.0E-04,C=6.6E-10,D=2.7E-14)
##CAS NAME=Methanol
##CAS REGISTRY NO=67-56-1
##MOLFORM=C H3 O H
##MP=-93.9 C
##BP=64.96 C
##$NIST SOURCE=QUANT-IR
##SPECTROMETER/DATA SYSTEM=IFS66V (Bruker)
##INSTRUMENT PARAMETERS=KBr Beam splitter; MCT Detector; Multipass cell
##STATE=gas
##SAMPLE DESCRIPTION=Methanol Primary Gas Standard
##PRESSURE=101.3 kPa
##TEMPERATURE=23 C
##SAMPLING PROCEDURE=1 L/min Flow
##RESOLUTION=0.9640
##DATA PROCESSING=NB Strong Apodization
##XUNITS=cm-1
##YUNITS=(micromol/mol)-1m-1 (base 10)
##XFACTOR=1.0
##YFACTOR=4.5474E-13
##DELTAX=0.4820
##FIRSTX=575.169
##LASTX=3975.077
##FIRSTY=2.63E-06
##MAXX=3974.59
##MINX=575.17
##MAXY=.0009372
##MINY=3.52E-07
##NPOINTS=7053
##XYDATA=(X++(Y..Y))
575.17 5789502 5882830 4910902 4826698 5846568 5040750
577.58 4972564 5361766 4020736 5240852 6475612 5822850
580.47 7001096 9359086 10301250 10899670 9157942 6160630
583.37 4989966 5065566 4805830 4047814 3858554 3594740
586.26 3682082 4323036 4879380 4560560 4701518 5616170
589.15 5497014 4898844 5091392 4958936 4871630 5372752
592.04 5250374 4641924 6503718 6288150 4442448 4451242
594.94 4423524 3875360 4536466 5183998 5054716 5572050
597.83 6879254 8821956 10573370 9267818 6101740 4003396
600.72 3395892 4058178 5035494 5445842 5445972 5320478
603.61 4543300 3605098 3450196 3388142 3657232 4051112
606.51 3203214 3305164 4089382 3626864 3704582 4395842
609.40 4280734 5033948 6602950 7053520 5399750 3611148
612.29 3432064 3590962 3366590 3516534 3809988 3926368
615.18 4542132 5191314 6228062 7879086 8177970 5370238
618.08 3721408 3260754 3006142 3108090 2727418 2374568
620.97 2887748 3819862 4254896 4790894 5392370 5881516
623.86 4705540 3342672 3064940 2927428 2797634 2497866
626.76 2702364 2693944 2666040 3173280 3363094 2983044
629.65 3140048 3940392 3416926 2851106 3211548 3033532
632.54 2963862 3491716 3333102 2882622 3248738 3370758
635.43 2846876 3205888 3322130 2516614 2450194 3679762
638.33 4014132 3177066 3315056 3585228 2891686 2905734
641.22 3573902 3471694 3246246 4111292 5296124 5345618
644.11 4246962 3268042 3168890 3931742 4599812 4653306
647.00 5838748 5969836 4243158 4195676 5075324 4582990
649.90 3858772 3888194 3528440 3205312 3769702 4384988
652.79 4382720 4921288 5621140 5743658 6650862 8524218
655.68 8233490 6560960 5474722 4398302 4092766 4729072
658.58 5018244 3585866 2843462 3233766 3435752 3116816
661.47 3069490 3099018 3055992 3130634 3168960 2977646
664.36 2618896 2041394 2022570 2851400 2950496 2564588
667.25 3063470 3196712 3118020 3245362 3061036 2861382
670.15 3045924 2935696 2946318 3278610 2959614 2902604
673.04 3443054 3184446 2910986 3336882 3280132 3121428
675.93 3399328 3477728 3105534 3041138 3485358 2867794
678.82 2669026 3458596 3356114 2750972 3108788 3432554
681.72 3245138 2900400 2834976 2904642 2667752 2500624
684.61 2925374 3227632 3067274 2755796 2915784 2968834
687.50 2674230 2909216 3347470 3723178 4517262 5450674
690.40 6312704 7240844 7974278 6674916 4583256 4479156
693.29 5357142 8896164 8682612 4548432 3160436 3299582
696.18 3739012 3985884 3530812 2672722 2711048 2558556
699.07 2557022 2758952 2878268 2712950 2687032 2894240
701.97 2651034 2434626 2683256 2928486 2677070 2444164
704.86 2795296 2778010 2740372 3089938 2835776 2430800
707.75 2363570 2766970 3261002 3110794 3247658 3548262
710.64 3553714 3368702 3211390 3085500 3357196 3343876
713.54 3050172 2914938 3180864 3214884 3169384 3123776
716.43 3201570 2928762 2694652 2895358 2998328 2841800
719.32 3120402 3220662 3292570 3233004 3326772 2895094
722.22 2625350 3086006 3292958 2829914 3045942 3113918
725.11 2675400 2545530 2728194 2632008 2687066 2800660
728.00 2645254 2333652 2514564 2531288 2324758 2559004
730.89 2688666 2719958 3127614 3570086 3909452 4043028
733.79 4312860 4768510 6113532 8341128 10399780 10357370
736.68 7901964 4180568 2371286 2039952 2018448 2031224
739.57 1891950 1922892 1835480 1838128 2114962 2192738
742.46 1907466 1879084 2089006 2002552 1911130 2067654
745.36 2445136 2817738 3110380 2857262 2502544 2787500
748.25 3081752 2642308 2885774 3237286 2803108 2425794
751.14 2755746 2685772 2641700 3095514 2935284 2563036
754.04 2760814 2620574 2283020 2666428 2628100 2265942
756.93 2714966 2841108 2479854 2611336 2729662 2413674
759.82 2451538 2476904 2216914 2492932 2718904 2297134
762.71 2398072 2544210 2271098 2559462 2826524 2328926
765.61 2331842 2434892 2110878 1918692 2334122 2133694
768.50 2045242 2534356 2335198 2011832 2287884 1902010
771.39 1625738 1915482 2112164 2258570 2227228 1926380
774.28 2055888 2044396 2233598 2536162 2630832 3870364
777.18 5291462 4768610 4954030 5954752 6719866 6206906
780.07 5678036 4202850 2253678 1681288 1715684 1534960
782.96 1391656 1393650 1375896 1213348 1287378 1462770
785.86 1461642 1232892 1378596 1521320 1224736 1431480
788.75 1936978 1718056 1711926 2097314 1853674 1474976
791.64 1908278 2087926 1775254 1971568 2145940 1884684
794.53 2268780 2351920 1884222 1759430 1964810 1746448
797.43 1790384 2153208 1978286 1711872 2072574 1977938
800.32 1692082 2056212 2205594 1807936 2102582 2087868
803.21 1752508 1613394 2092602 2341686 2538140 2575966
806.10 2184306 1761512 1774316 1822452 2065068 1872590
809.00 1865742 1841994 1725310 1580614 1572398 1574350
811.89 1797662 1974566 2028748 2030816 1982866 1894458
814.78 1826084 1780740 1839678 1972136 2091026 1900820
817.68 2219078 2688340 3242692 3823908 4452998 4348932
820.57 4310732 3596170 2396142 2071134 2044054 2087620
823.46 2676088 3051238 2808122 2043902 1753132 1782266
826.35 1920170 2344148 2739402 2555260 2162410 2051150
829.25 2081770 1808648 1821962 1855456 1796222 1595002
832.14 1623386 1708810 1870826 1997706 1937356 1604548
835.03 1769586 2017594 2111760 2284060 2330426 1958052
837.92 2264246 2590698 2320306 2059652 2184486 2141146
840.82 2125784 2233142 2277726 2113642 2125530 2235330
843.71 2259482 2392268 2482742 2498096 2705812 2387106
846.60 2181344 2178896 2200868 2134948 2137632 1988554
849.50 2099314 2139378 2021502 1988974 2206756 2237732
852.39 2408354 2267492 2236782 2303018 2325722 2135246
855.28 2268034 2378978 2268192 2120192 2458546 2858044
858.17 3138638 3536682 4248504 4270388 3347090 2342016
861.07 2050688 2029466 2052650 1992286 2083156 2129282
863.96 2310596 2288472 2347132 2489502 2775954 2739952
866.85 2600312 2358520 2660940 2997962 2852592 2451242
869.74 2484248 2481174 2841596 3103754 3382382 3692278
872.64 4105972 3636272 3128150 2941454 2869972 2763250
875.53 2916476 2792982 2629734 2565378 2623678 2656756
878.42 2900206 2862392 2587282 2580888 2687086 2667412
881.31 2700244 2468638 2450684 2531888 2613928 2608292
884.21 2982998 3114734 2874858 2593298 2686728 2759264
887.10 2748608 2634738 2789678 2863608 2751124 2524896
889.99 2696966 2640938 2730996 3003858 3009710 2702686
892.89 3073394 3210388 2890152 2934452 3308996 3033252
895.78 3081722 3525768 3567220 3202720 3680426 4192398
898.67 5005430 5303590 4622398 3577778 3112156 3126848
901.56 3176700 3002006 3207562 3196538 3161784 3079874
904.46 3239240 3361174 3596140 3590850 3880054 3963742
907.35 3767324 3757864 4199294 4044788 3984324 3824970
910.24 3622518 3894026 4259632 4199940 4480544 4456358
913.13 4193156 4069512 4310062 4208240 4411944 5020314
916.03 5121354 4497458 4394212 4598964 4852618 4615422
918.92 4631858 4932820 5238538 4907678 5110436 5379134
921.81 5199722 4976492 5391052 5679852 5892142 5981654
924.71 6156480 5973658 6134304 6109478 6532306 6542656
927.60 6358448 6332990 6654042 6544910 6350214 6541644
930.49 7035494 6757052 7135334 7695106 7871456 7385364
933.38 7308216 7393056 6999302 6645416 7528942 7370882
936.28 6862824 7652552 8255872 7595846 8427430 9277152
939.17 8629968 8339578 9705354 9816518 8907980 8444120
942.06 8301998 8080150 8976292 9694976 9289722 8318348
944.95 8418130 8939032 9366422 9545850 9794726 9595276
947.85 9913188 9749372 9714946 9069394 10149930 12363300
950.74 13062990 11282890 10975810 11868210 13790330 13991970
953.63 13405500 12820310 14333140 16675180 15218990 12956870
956.53 13767310 16777190 17451270 16137280 17919060 18429830
959.42 19740380 22287410 21773200 19341380 20313570 25009480
962.31 25655540 21826250 21668700 25594380 29593190 28433950
965.20 25579420 25567240 33024870 37745460 34490280 31930090
968.10 39295330 46699230 44623320 36359300 36042330 46723460
970.99 56321500 49876950 40490860 47437680 66171240 68038410
973.88 50866540 49486360 71073340 85115870 68928530 55462570
976.77 72572000 99264230 95226150 68742950 75704810 111716200
979.67 125421000 91062050 81591340 116270600 144596400 120024100
982.56 95239330 122006800 160360400 155698600 114900500 127537700
985.45 173783400 193151800 146012300 139259000 187237100 225413800
988.35 185649500 156992600 201114600 254661500 232483400 181300100
991.24 216829400 280955900 280224100 212336500 233665900 306246100
994.13 328665200 251763700 252194100 328137300 372228600 295028700
997.02 273623400 352198100 418279100 340950000 294815200 378608600
999.92 465007900 385237500 317691000 409919800 509065300 420693000
1002.81 343356000 451495200 550157700 444447100 364361400 486234900
1005.70 577875100 459713300 390131500 525645900 596900600 463388200
1008.59 413152400 557977300 599639400 457308700 438936100 588885600
1011.49 591691600 445447100 463644400 602346500 558110000 428068600
1014.38 494315700 608155000 514488300 421976600 528306600 583882800
1017.27 459788300 424157600 524201600 498574200 380030600 418466000
1020.17 493905000 408880200 341844900 407081200 401235400 305210400
1023.06 300575100 359230600 322347300 263858700 284726500 286282600
1025.95 235481600 253647500 285443100 240989700 221106500 255400200
1028.84 263236700 279893200 348317500 440405100 558057200 741749100
1031.74 1043146000 1541623000 2055285000 2061029000 1404438000 598016600
1034.63 253400800 211526500 214141700 199618400 185550500 169797500
1037.52 183784000 208939100 188920200 188035100 234958400 248186400
1040.41 248756100 295922600 324360800 308682500 341505800 400684400
1043.31 392158300 403112300 472699500 467079000 468860900 553406100
1046.20 550751600 534755300 618253000 614082800 589667800 679603100
1049.09 671811800 639142400 731281300 713879700 678831300 770374200
1051.99 734920800 702544400 791603200 739649500 722506200 796871400
1054.88 732429200 737681000 782214700 714345300 734962600 742589600
1057.77 692506600 717432700 693460000 670265000 681789100 642546000
1060.66 635082800 625941300 594672900 590055200 567580900 547962000
1063.56 534563100 510936300 492224500 468367700 452956000 431251400
1066.45 411877400 399128200 372233000 362320600 342159300 316365000
1069.34 308147800 284053600 270433800 257408800 239169400 227439400
1072.23 211260800 202206400 185231900 179618600 156495700 146889900
1075.13 130146300 121924200 112730700 102341400 95680710 87274520
1078.02 80800730 74139810 69610480 65410380 59620770 53331080
1080.91 51636740 47131680 41867620 39784070 37397170 34099130
1083.81 32948890 31429550 29438130 28019170 26427250 25084530
1086.70 24081100 21826930 21995550 23263750 21682710 20785010
1089.59 22378130 21756070 20091950 21584760 23365150 22943910
1092.48 24645490 27430630 26848000 23164470 21974060 21335660
1095.38 19776690 19688510 22052320 24400470 21589040 19495830
1098.27 20267950 19627930 18736610 19685000 19709370 18674300
1101.16 18712590 18957740 18674370 18400600 18709280 18762090
1104.05 18693740 19709830 20850840 21321980 21159910 19861770
1106.95 18083650 18310870 20649000 19493780 17445920 17797170
1109.84 18336640 18451440 19309840 20639370 18201300 16744350
1112.73 18827370 21909130 23078390 22487120 21548370 18538690
1115.63 16714490 17316690 16271800 15621130 16581890 15753650
1118.52 15091840 16056360 15741800 15530310 16628110 16265000
1121.41 15053560 15794920 16283370 15596110 15913700 16516360
1124.30 14997960 14034600 14425180 14729690 14271410 13746060
1127.20 13641170 13300560 13918380 15481980 14248140 12885380
1130.09 13190120 13110180 12668440 13154740 13016490 12006320
1132.98 12114920 12866790 13142260 15470370 17519770 16811890
1135.87 14978090 13837230 13595920 12433920 12431490 11735220
1138.77 10399080 11420600 12227830 12625230 17043990 17780350
1141.66 13515100 11742720 11989070 12418040 12668070 13514270
1144.55 12659190 11235590 11082350 10772160 10777760 11931650
1147.45 12217890 11521630 11709990 11941660 10658410 9744144
1150.34 9778402 9806410 10277150 11605730 11460210 10381080
1153.23 11537810 11378370 9227470 9365006 10257890 9676836
1156.12 10528590 12331350 11744610 10200150 9967714 10493290
1159.02 10648270 10837500 11420010 11734390 11100340 10531560
1161.91 10134380 10587420 11287950 11805850 12686960 12825850
1164.80 11573080 10751100 10815810 9554848 9227354 10070220
1167.69 9718626 8962174 9553738 10281710 10145450 9752694
1170.59 9809106 9860606 9200116 8978112 9841600 9989872
1173.48 9736104 10566230 10945630 10336600 10517160 11370520
1176.37 11093980 10506840 11038010 11175230 10698290 11066910
1179.26 11919550 11882410 11444300 11204360 12066740 13200020
1182.16 13004630 12583520 13531090 13759640 12339240 12625330
1185.05 13245280 12369090 12876900 14452640 14477350 13988740
1187.94 14575010 14180050 12995290 13745180 14646450 13645950
1190.84 13784430 15487370 15054450 13725110 14846920 15662010
1193.73 14136770 15159150 18396540 17593330 15312560 17133620
1196.62 18820830 18060250 17478620 18153460 18064780 16911140
1199.51 17557040 18695490 18630910 19070900 22150810 23663590
1202.41 21632860 19282970 19439650 20708610 20847760 19815140
1205.30 20378190 20925200 20069710 21171090 23419470 23059420
1208.19 23559500 23747010 21659480 18958340 20156110 23470110
1211.08 22830620 22472140 26767500 27175410 24032690 27896690
1213.98 30601540 25226530 22518020 23520560 22369680 19801030
1216.87 21303970 22861640 20669980 20098120 22342200 21836210
1219.76 21263290 22550000 22549290 20604300 21869550 24482000
1222.66 22461970 21015180 23325380 25790920 28523000 28982380
1225.55 26293180 22695950 23443020 25371060 26296290 28365270
1228.44 26199760 21390720 18314500 19236600 18849240 17117050
1231.33 20812080 27025840 27436410 27066180 28886630 22923780
1234.23 21503450 22451170 19338090 18916900 23251010 22858120
1237.12 20569100 23331030 29786870 31698370 31359100 32376880
1240.01 29494920 26914140 25687780 24475740 25792860 27439200
1242.90 25171090 23725280 25127050 25374170 23420820 23710690
1245.80 24868460 24708650 24395690 25658690 27012070 29265650
1248.69 30792230 30589320 29761970 29240620 28116150 27479780
1251.58 28174950 28578050 28863020 29031850 29611540 30440280
1254.48 29944050 28931490 30966450 33259650 32090950 31404050
1257.37 32971340 32763790 29890460 29123150 31302870 32496390
1260.26 30045010 29796840 32210900 32469840 31802580 31286740
1263.15 31649910 31820920 30257630 30661280 32135200 30562560
1266.05 29122870 32265580 33351170 30976610 31098190 34339980
1268.94 33496670 31520980 32417300 31156770 30363930 32248320
1271.83 30963620 29939250 32479930 31351310 29655610 32899690
1274.72 33049280 29786660 31280870 33554960 30616080 28870690
1277.62 32219120 33531370 30958060 31752360 34541200 32846380
1280.51 30275020 33252010 34713020 32231150 32768450 36180810
1283.40 36041720 34981790 35233790 34780960 33265390 33551740
1286.30 35923230 35528660 32960700 33404960 36352020 37738630
1289.19 36811750 36040640 37978700 37969160 36566570 39436660
1292.08 43113870 45160320 48698110 48787820 45762370 43475230
1294.97 43616850 46774500 44776310 43223840 46897390 46798910
1297.87 43520800 45959910 48108980 45332840 47383740 51199320
1300.76 47913580 46786310 54674520 56710660 49027870 49646910
1303.65 56351600 52952880 47909390 55400890 59536770 52068240
1306.54 51887460 58164120 57843840 58433220 64555540 62753620
1309.44 56871520 55214370 54242240 54895120 59341480 60834370
1312.33 55081560 54048140 56828000 52374220 57219660 66869540
1315.22 58948970 51152240 57476360 69182870 72415220 69425830
1318.12 71741120 64320000 59763940 71768330 79090020 73198840
1321.01 80691990 85925750 70405040 64484290 72315820 75333350
1323.90 66706860 63525550 66931260 68208570 66183420 65036270
1326.79 62050070 59690000 60278090 62561520 64726690 62721640
1329.69 63156920 69072170 84258020 104656800 99817500 76149820
1332.58 63338350 58427850 55998450 57839870 56237070 53888810
1335.47 56856780 57607390 54012220 57152380 60599860 59629150
1338.36 65110210 79890840 84865660 76946040 68532090 64597420
1341.26 64037200 63973980 67287070 65074710 61768670 70069980
1344.15 90895940 110570400 110686500 94449970 85796830 99209400
1347.04 93862840 72547940 70582200 73618640 70912690 64991120
1349.94 62625900 61880020 59271680 61216040 65301390 62881530
1352.83 65265610 72513860 68286630 66390440 72401270 67834230
1355.72 62255380 72435950 77597650 70223020 73963580 74609060
1358.61 63749940 68027980 82656390 75984170 67174760 72087260
1361.51 66136600 62754440 70075320 65330680 58293770 64091910
1364.40 65110340 62069040 62875230 60282810 57308930 59749910
1367.29 59209710 58540490 59623180 58436540 61252580 72128720
1370.18 74413300 67254020 67328150 72500990 68604670 62494780
1373.08 59296510 57332040 55455520 56661120 58121250 59076440
1375.97 56427030 53403860 55848530 54914940 51756060 55324310
1378.86 62248380 64352950 59999310 53427480 52498520 52576280
1381.76 49827290 51350940 51220200 47383430 48529450 52952160
1384.65 54168590 51721720 51836040 52719100 50541340 50758580
1387.54 55374080 57726300 56961680 54673550 50644910 47643680
1390.43 49302460 50427310 49215110 49340370 49874790 49602940
1393.33 50113430 49624940 48007030 48889180 48471490 47842480
1396.22 51053730 49116690 43863520 46809750 50934310 49592180
1399.11 47712950 46786630 44304120 42848430 43997960 44540400
1402.00 41121190 42466350 44202450 42434810 40879310 40691420
1404.90 41511700 40775310 40034380 38257350 35660910 37038290
1407.79 38534700 37793170 38291410 36632770 38844880 42537940
1410.68 39445500 39595230 45869410 51791570 51210120 48238720
1413.58 47442550 46198240 41484020 36576040 35981060 38553740
1416.47 36776160 38987100 42981560 41008560 38991260 38700510
1419.36 38648620 39603360 38427860 35296960 34313880 35631400
1422.25 37233680 38158880 40017610 38936170 37210020 36970620
1425.15 39891610 39349580 33100250 34136240 36529790 36997660
1428.04 36994610 36815710 36783190 38481950 40739450 36814280
1430.93 34549280 37682710 39780080 40315860 37654990 34731460
1433.82 35177720 38425170 37617220 33597240 34862390 40188050
1436.72 39409360 33540940 30222200 31608510 31953890 30513800
1439.61 29524030 30333730 29352390 27543840 27229880 26734970
1442.50 25524450 24023540 22542470 23332490 23694870 20220310
1445.40 19028740 20604230 19265970 17564290 19307530 18256030
1448.29 16124250 17261230 18444770 19831830 20378680 22940820
1451.18 30654410 44736740 56355580 63186260 74092580 77450010
1454.07 80125140 75252140 58011510 44451540 40808260 42733520
1456.97 42232720 40339790 37342710 33349630 31724130 31762400
1459.86 34208380 35646830 35603700 38385170 39484560 36385670
1462.75 35350910 36955670 37629880 37170180 33974700 29202820
1465.64 28601900 29663130 29804080 30265930 31518540 34615370
1468.54 36980460 37103020 37837000 39346060 39192300 38173810
1471.43 40659590 41952430 41359210 41265790 39012760 37278930
1474.32 37574530 35544110 33899890 36355690 42468120 47967310
1477.21 46794790 38811680 37594960 44001740 51996750 43882340
1480.11 30699150 27451170 26716070 27815540 27050840 27875450
1483.00 28979870 30010190 27487320 25589650 24427970 26096570
1485.89 29036400 30762460 29456170 27243870 26836320 26756480
1488.79 25364430 25869200 28162870 29614890 27332790 23739720
1491.68 22380150 23327100 23419730 21654340 21250300 22248320
1494.57 22083830 21708840 24332630 26034060 26242560 27086560
1497.46 30001810 31617760 30385790 27311810 24345930 24019110
1500.36 25075460 25672540 23598690 21570290 20244220 19164590
1503.25 19770250 19742010 19250760 22247490 26438110 25778580
1506.14 24671530 26031140 23175710 20169690 20192460 21692380
1509.03 23013170 24236760 26208530 27181670 25446000 21792710
1511.93 20264550 21396550 21951810 19994390 18093770 20353750
1514.82 24200680 23967370 22959410 24164070 24094810 21331430
1517.71 19760130 20130980 20053690 19238050 20852310 21806070
1520.61 22885300 23127180 22813700 24231320 22785240 20799750
1523.50 19213840 19004450 19269810 20040390 20417840 20464080
1526.39 19849200 18951100 19135910 20896510 19650560 17167770
1529.28 17587240 18814610 19158930 17834150 17551890 17692490
1532.18 18036760 18668470 19143840 18796240 17610880 18265220
1535.07 19147540 19614040 19664720 17932110 17185380 17731460
1537.96 18986410 20532100 19469090 19580470 20167660 17086870
1540.85 16843210 19057030 17310930 14832400 16240670 16082700
1543.75 13684780 14606600 18143000 17166120 14269900 13618490
1546.64 15150280 14604290 12334700 12952640 15349010 14357230
1549.53 13004350 14414880 15283540 13541610 11859450 12675320
1552.43 13692680 12265250 12618770 15088370 14691710 12699080
1555.32 11642350 12234690 13382060 14918880 15249450 16092390
1558.21 16958370 13933750 13147220 14923160 14361670 10738170
1561.10 9224762 10033430 10943690 9673390 9632042 11049120
1564.00 11457010 10102940 9757086 10354180 9940186 8496628
1566.89 8702382 9935866 10236770 9147658 9823386 11350570
1569.78 9571920 7340718 8259280 8787752 7394276 6913204
1572.67 9101122 9336626 7589178 7525628 9102528 9403144
1575.57 10845090 10247220 8814030 7559524 6777604 7671866
1578.46 8061800 6758298 6079350 6844574 6796926 5611164
1581.35 5580304 6402826 6362280 5645988 5659482 5963226
1584.25 5741340 5279868 5598630 5736812 5224864 5023298
1587.14 5673212 6170008 5487060 4912416 5518860 5582608
1590.03 4654008 4568294 5263882 5157260 4669968 4793108
1592.92 5047358 4695572 4457606 4684530 4823810 4489414
1595.82 4381508 4878514 4941594 4323604 4168006 4519790
1598.71 4414100 3916796 3994718 4148488 3841488 3653268
1601.60 3817184 3837576 3821554 3813828 3737232 3702148
1604.49 3878804 3875020 3694304 3570834 3551602 3361100
1607.39 3178766 3086522 3097898 3111554 3051508 2930694
1610.28 2914416 2751392 2786048 2983132 3018742 2785172
1613.17 2935356 3048964 2949078 2821156 3121318 4069138
1616.07 6595330 5925592 3458348 2860254 2619394 2567910
1618.96 2455852 2375610 2320940 2401072 2447348 2416186
1621.85 2502762 2805506 3632856 3637962 2636992 2362108
1624.74 2334556 2454022 2306720 2149400 2238816 2835960
1627.64 2815848 2282994 2044760 2022178 1974476 1947984
1630.53 2007002 2020658 1951502 1947252 1916958 1955806
1633.42 2024966 2454188 3587308 5344124 5247874 2913840
1636.31 2243664 2543474 2459390 1976284 1904200 1793884
1639.21 1740094 1785734 1834476 1658058 1642332 1719824
1642.10 1776098 1660980 1689252 1722104 1747922 1826016
1644.99 3188972 4810452 3505720 2349668 2561870 2459934
1647.89 2496402 1916084 1757876 1756150 1818808 1708422
1650.78 1827564 2879026 6076824 7122692 7481240 5390744
1653.67 3375876 3353496 2177814 1749450 1515300 1510324
1656.56 1495106 1533772 1411940 1414058 1388948 1499630
1659.46 1519984 1535224 1501584 1592312 1608860 2236672
1662.35 2873990 2202110 1533732 1480658 1499050 1609650
1665.24 1514866 1470636 1438646 1467504 1481544 1788304
1668.13 2088084 3267890 3327480 1961218 1519588 1882922
1671.03 2278338 1753630 1360644 1344164 1372486 1434620
1673.92 1686634 3081604 3951174 2529830 1547098 1444302
1676.81 1405712 1404030 1364030 1334716 1391988 1580630
1679.71 1724812 1713852 1516826 1456232 1404062 1867246
1682.60 2744052 3006500 3360170 6057758 6735688 3093998
1685.49 1669916 1380654 1443162 1341102 1475238 1597780
1688.38 1511850 1355840 1650722 1696982 1554462 1360158
1691.28 1414298 1394218 1395480 1274186 1345458 1346912
1694.17 1669860 2750588 5999886 6350016 2876910 1643282
1697.06 1649352 1539938 1418062 1665842 3358676 5601894
1699.95 5635654 4319234 2335066 1484094 1285102 1298118
1702.85 1342890 1534206 2106750 1983074 1405386 1589734
1705.74 2128494 1903840 1376076 1219994 1108116 1108294
1708.63 1060788 1220544 1369524 1383338 1279736 1172956
1711.53 1043018 1131196 1179294 1323880 1614210 1742006
1714.42 2332540 2439734 1560040 1465448 2683754 5277454
1717.31 4040846 2557644 2670516 1793914 1266822 1114438
1720.20 1114004 1110574 1163740 1229864 1232296 1283654
1723.10 1378700 1244580 1166084 1158048 1133014 1118152
1725.99 1135140 1171200 1222238 1225310 1206308 1168960
1728.88 1407872 1627202 1501244 1211710 1189662 1157126
1731.77 1329172 2042800 3951884 3722914 3667616 4493118
1734.67 2440368 1303232 1143318 1208944 1160314 1213880
1737.56 1060664 1109014 1262770 2253348 2747108 1727430
1740.45 1129102 1100658 1126774 1218460 1378574 1430670
1743.34 1268318 1201552 1128510 1097932 1200134 1257640
1746.24 1328738 1468564 1341286 1455324 1752766 1627766
1749.13 1354912 1302568 1657068 2888430 2962046 1563178
1752.02 1070150 1099532 1160450 1116148 1056998 1071112
1754.92 1049736 1081926 1548216 2001324 1452534 1125402
1757.81 1137326 1152776 1065312 1093972 1098302 1122666
1760.70 1460260 2440428 2189418 1305478 1067910 1085650
1763.59 1103042 1023974 1043172 997852 994334 1061586
1766.49 1120360 1337158 2200408 2089166 1144282 986946
1769.38 1032576 1214212 1634280 2087792 1670030 2534102
1772.27 3734946 2252172 1141760 1036464 1070528 1233984
1775.16 1354376 1159548 949634 924530 989894 1044368
1778.06 1057144 1054286 1032914 1173356 1437832 1386432
1780.95 1056556 1002422 968594 1014502 1002770 1042374
1783.84 1223336 1674846 1461486 1058346 964078 1003252
1786.74 1033910 1065812 1069804 1090948 1059172 1090188
1789.63 1121868 1475620 1611666 1278398 1605176 2795284
1792.52 2415518 1324702 1120402 1088406 1118996 1166840
1795.41 1243378 1220288 1155432 1078986 1098682 1114428
1798.31 1133190 1453190 1639484 1273600 1176122 1304112
1801.20 1270790 1321280 1361088 1092092 1064126 1064732
1804.09 1040024 1056428 1006176 992086 981166 996810
1806.98 1113002 1129596 1147444 1143760 1130062 1228508
1809.88 1489662 1514260 1201130 1107216 1135070 1098922
1812.77 1041224 1049186 1100590 1069112 1034222 1093038
1815.66 1109714 1067950 1109638 1200798 1138226 1115754
1818.56 1150890 1122556 1039704 1028570 1064636 1073908
1821.45 1037270 1061578 1149430 1125392 1082404 1192732
1824.34 1631490 1932708 1429440 1147048 1150654 1231668
1827.23 1211572 1199774 1365952 1587738 1739860 2020456
1830.13 1522900 1095730 1033728 1059592 1118364 1186880
1833.02 1170440 1102258 1118654 1112786 1122898 1162512
1835.91 1199170 1320714 1331876 1201942 1181652 1182674
1838.80 1128486 1106898 1134340 1099382 1093540 1157230
1841.70 1216258 1210332 1270612 1804984 3061512 2594712
1844.59 1459732 1268364 1232408 1211204 1113078 1202414
1847.48 1273946 1165872 1121600 1139156 1111462 1087068
1850.38 1107452 1160618 1100730 1082888 1083432 1121514
1853.27 1092070 1079472 1117940 1188920 1135834 1069384
1856.16 1047556 1100684 1105082 1109288 1140886 1141878
1859.05 1132322 1151960 1118092 1098098 1126754 1148208
1861.95 1106864 1108398 1117948 1104560 1088812 1137316
1864.84 1177078 1177898 1260040 1255082 1314236 1503386
1867.73 1454922 1464618 1966686 1766080 1264780 1290394
1870.62 1223324 1179242 1149480 1126784 1095220 1129162
1873.52 1068804 1126914 1157136 1157706 1134468 1112752
1876.41 1165512 1153406 1120858 1125940 1067902 1048808
1879.30 1111900 1152360 1160760 1163982 1116306 1106012
1882.20 1070886 1081238 1142558 1232476 1158584 1120490
1885.09 1143348 1172532 1193290 1167444 1119130 1124888
1887.98 1172374 1346384 1586432 1447768 1186538 1146626
1890.87 1060858 1039070 1081228 1166060 1153724 1119658
1893.77 1106572 1207902 1254268 1177346 1163770 1153726
1896.66 1110118 1118460 1128306 1159032 1177014 1150292
1899.55 1055216 1058152 1080426 1080094 1094210 1071540
1902.44 1046400 1106958 1137336 1195774 1169118 1120032
1905.34 1143662 1138232 1093966 1134260 1168864 1148670
1908.23 1103624 1110300 1156986 1150014 1034408 1058868
1911.12 1171422 1260756 1200672 1147820 1091376 1050172
1914.02 1031390 1078160 1131472 1143986 1075718 1030832
1916.91 1215444 1795006 1628682 1134138 1054136 1054768
1919.80 1054306 1052714 1139368 1210614 1194604 1212972
1922.69 1269666 1157338 1039276 1033466 1074210 1087204
1925.59 1053632 1017238 985232 1014254 1088732 1110600
1928.48 998218 950570 979302 1005412 1001566 982604
1931.37 996862 1003062 1019216 1024328 987314 1023568
1934.26 1095562 1108982 1065246 1060590 1075316 1039098
1937.16 1018054 1064810 1030386 972404 964430 993078
1940.05 975374 971284 1038374 1148452 1359950 1260056
1942.94 1070714 1105184 1105450 1037928 1007308 998068
1945.84 999450 960752 1012472 1101180 1102788 1079516
1948.73 996814 953466 902638 866786 774448 800176
1951.62 951892 1061864 1024738 964214 933250 922234
1954.51 877468 892034 952482 1068576 1056538 1055892
1957.41 1006158 915114 861332 843314 797132 836586
1960.30 1055208 1175796 1048966 922174 873500 833564
1963.19 806844 906876 1100270 1257118 1139604 969756
1966.08 908758 1024330 1045536 892706 914640 1113274
1968.98 1229740 1090954 1018536 1015914 958934 877356
1971.87 808082 897732 1251962 1387364 1208418 1019086
1974.76 868044 915598 1032062 1140320 1275152 1320078
1977.66 1158526 1102138 1224752 1271376 1081474 991062
1980.55 1110800 1376072 1488080 1413860 1288568 1185702
1983.44 1107398 1121948 1350618 1671986 1730008 1448060
1986.33 1258218 1391254 1662894 1767160 1454546 1325546
1989.23 1687844 2121818 2247760 1895932 1578172 1514808
1992.12 1808458 2291836 2459584 2148920 1780446 1933406
1995.01 2288746 2511352 2252240 1943764 2091576 2573984
1997.90 3056286 3135936 2470934 1939150 2197982 3015270
2000.80 3636128 3275606 2454242 2580828 3456378 4019750
2003.69 3405384 2531098 2782926 3960484 4739304 4316878
2006.58 3047630 2874064 4074688 5024162 4782580 3594922
2009.48 3288776 4575960 5612372 5261794 3627026 3474164
2012.37 5221746 6625310 6121156 4124144 4021574 5916202
2015.26 6938904 6174278 4564806 5338488 7017480 7576114
2018.15 6133804 4678244 5977566 7841718 8362522 6622180
2021.05 5792880 7283060 8669482 7982324 6006574 6589024
2023.94 8821606 9511672 7736386 6373144 8107066 9857654
2026.83 9180710 6901294 7313930 9565582 9837782 7632568
2029.72 6580508 8983544 10469930 9121178 7197518 8692088
2032.62 10286540 9418164 7256960 8224358 10382240 9972694
2035.51 7843870 7947904 9833990 9741816 7683122 7733196
2038.40 9539650 9274712 7314336 7214516 8840450 8734826
2041.29 7221522 7584936 8895094 8088876 6540664 6955786
2044.19 7947132 7385278 6870304 7700742 8144848 7332590
2047.08 7246328 8094252 8430920 8705640 9835888 10659420
2049.97 10914410 11871200 13581260 15362380 17606170 20084130
2052.87 22345930 24208610 23110780 17401700 10230060 5877272
2055.76 4988018 4890102 4951746 5078076 5186448 5126726
2058.65 5616836 5892242 5556102 5910438 6486376 6420930
2061.54 7240512 7817696 7769814 8892398 9571854 9807204
2064.44 11071800 11192070 11659610 12431550 12446130 13745350
2067.33 14148020 15054390 16012480 16531980 17554090 17283840
2070.22 18328860 18419930 18750260 19312510 19171180 19927050
2073.11 19952240 20188050 20122420 20672870 20058210 20589620
2076.01 19983780 20444110 20269820 20101530 19570440 19345010
2078.90 18734700 18337720 17874460 17261120 16760990 16222150
2081.79 15417060 14608260 13881060 13193340 12557960 11751510
2084.69 10788810 9902388 9105566 8348062 7741032 7280020
2087.58 6340146 5305270 4530066 4126416 3963230 4224238
2090.47 4077964 3661502 3651528 3841156 3948216 4529644
2093.36 5064220 4789670 4078940 3213700 3259944 3667200
2096.26 3438926 3357714 3405782 3556018 4126672 4350740
2099.15 3508126 2624746 2079550 1971520 2092426 2203940
2102.04 2354050 2876652 2869396 2362086 2582176 2862730
2104.93 2636154 2874070 3199264 3256538 3659452 3664474
2107.83 3480400 3569680 3391626 3435394 3816468 3750916
2110.72 4097546 4335084 3898910 4117332 4065088 4122892
2113.61 4471656 4393340 4726444 5195924 4791498 4503566
2116.51 4215588 4398426 4461094 4209002 4544250 4865038
2119.40 4860104 4627934 4547018 4611358 4112792 4099520
2122.29 4429830 4624214 4688428 4171308 3944386 3912896
2125.18 3804002 3969470 3833594 3824806 3675722 3290876
2128.08 3086760 3034256 3080546 3078574 3204754 3155650
2130.97 3225280 3003090 2803672 2660418 2441582 2396484
2133.86 2553936 2601264 2703260 2556142 2157052 1894486
2136.75 1840820 1935610 1907404 1854490 2003704 2013244
2139.65 1857826 1790620 1830716 2088652 2619150 2735058
2142.54 2706618 2582782 2435930 2300392 1934642 1691796
2145.43 1767638 1854746 1996436 2130160 2097432 2140656
2148.33 2289416 2829512 3447510 3159060 3158208 3303974
2151.22 3031190 2835254 2500282 2265972 2175204 2425784
2154.11 2902310 3107816 3009490 2931208 2962770 2926328
2157.00 2836332 3062300 3113458 2892062 2858478 2907200
2159.90 3047462 3051164 2848702 2938940 2757486 2536798
2162.79 2608808 2789700 3108690 3367562 3545288 3534104
2165.68 3089264 2865562 2762160 2748302 2901864 3148356
2168.57 3406194 3205368 2773672 2662082 2719546 2812794
2171.47 2826972 3257452 3499606 3098302 2948904 3032918
2174.36 3151204 3257854 3526824 3646660 3153766 2878586
2177.25 2992238 3083920 3045072 3319226 3603364 3309102
2180.15 2908184 2727936 2658448 2716252 2775896 3055294
2183.04 3034508 2723328 2616304 2663226 2742240 2833568
2185.93 3270902 3382200 2992230 2731212 2564322 2565818
2188.82 2634388 2931952 2957296 2708598 2559434 2476448
2191.72 2504208 2566534 2724846 2638572 2353052 2332160
2194.61 2389620 2357906 2482686 2731900 2551218 2385702
2197.50 2314152 2328970 2422714 2488184 2511634 2435698
2200.39 2287492 2235580 2402222 2549850 2530046 2468284
2203.29 2351260 2210802 2053794 2102650 2249860 2412420
2206.18 2393828 2300482 2349090 2366202 2324014 2482740
2209.07 2532720 2352052 2428536 2660310 2508540 2349572
2211.97 2253924 2189850 2167602 2182156 2274798 2350598
2214.86 2265356 2328080 2338592 2305660 2404400 2478416
2217.75 2398692 2380064 2295212 2274694 2380078 2439008
2220.64 2485444 2556720 2354430 2255692 2259996 2228852
2223.54 2185744 2158252 2121186 2159664 2153236 2125470
2226.43 2188932 2143086 2065754 2134950 2207398 2189022
2229.32 2120222 2140806 2213716 2218012 2171028 2151234
2232.21 2195912 2142742 2013958 2069164 2115046 2137040
2235.11 2221834 2291292 2160286 2108366 2184282 2157594
2238.00 2143886 2121228 2108362 2035102 1946506 1895984
2240.89 1891908 1917718 1921046 2011448 2081124 2055836
2243.79 1961090 1987824 1976110 1884268 1932438 2000994
2246.68 1975814 1971082 1996700 1994646 2038236 2048178
2249.57 2018638 1996964 1972920 2048088 2164792 2204678
2252.46 2126058 2084128 2177004 2225870 2203202 2276200
2255.36 2176562 1969860 1930924 1984604 1917736 1917524
2258.25 2031472 2070110 2023344 2015262 2056334 2103342
2261.14 2047318 2096906 2165736 2154504 2042606 1965896
2264.03 1943152 1994696 1985672 1988194 2051132 2087014
2266.93 2100066 2166822 2188022 2095440 2049116 2116562
2269.82 2149126 2103524 2037316 2059286 2130818 2175718
2272.71 2095966 2083690 2163838 2119166 2044544 2086304
2275.61 2155408 2182542 2154414 2184886 2270078 2310738
2278.50 2176284 2108768 2200052 2230628 2254674 2227036
2281.39 2208162 2223086 2120440 2122496 2208308 2242586
2284.28 2249762 2228832 2247980 2335348 2344380 2397496
2287.18 2399764 2428476 2426292 2405020 2450258 2484262
2290.07 2363634 2303794 2376390 2470232 2380084 2347444
2292.96 2428704 2551122 2509828 2500820 2548300 2576166
2295.85 2460336 2491272 2510732 2512354 2552884 2561688
2298.75 2558280 2565526 2599596 2689982 2602328 2506506
2301.64 2483212 2603540 2543758 2469526 2525276 2574752
2304.53 2526420 2474112 2470678 2450076 2403928 2480196
2307.43 2628026 2557240 2507380 2591794 2592594 2605850
2310.32 2630282 2703272 2730270 2783584 2881014 2930256
2313.21 2861842 2860420 2858880 2864160 2802246 2682920
2316.10 2682836 2825952 2786210 2669646 2734756 2810172
2319.00 2671096 2572078 2676948 2779864 2654650 2637774
2321.89 2857392 2995398 2872092 2899456 3042830 3031510
2324.78 2965134 3056176 3155366 3233082 3103086 2995788
2327.67 3005754 3145138 3288598 3341586 3385602 3351352
2330.57 3108860 2880024 2918788 2998752 2953218 3058222
2333.46 3232740 3158330 2999612 3039548 3064142 2992234
2336.35 2934172 3089480 3203014 3284796 3373208 3374034
2339.24 3217608 3216854 3278956 3277792 3221566 3156244
2342.14 3338030 3562550 3500664 3435408 3658824 3845780
2345.03 3589446 3524064 3802632 4027398 3882948 3557736
2347.92 3360794 3403930 3361004 3325668 3315292 3408350
2350.82 3513304 3541024 3529856 3492904 3344942 3268694
2353.71 3400036 3687204 3709484 3503836 3425552 3514306
2356.60 3595470 3575684 3691844 3899798 3721212 3485914
2359.49 3475220 3497024 3523122 3613884 3747676 3990216
2362.39 3910242 3755122 3775388 3815988 3812564 3872264
2365.28 3910882 3770218 3470960 3526104 3603310 3498496
2368.17 3550792 3716258 3733806 3690244 3667248 3915348
2371.06 4124110 4201310 4222846 4455612 4541800 4306906
2373.96 4020846 3891490 3663204 3566440 3568626 3742506
2376.85 3921446 3952738 3958694 3969588 3860028 3823256
2379.74 3699408 3485128 3547816 3769394 3757728 3746004
2382.64 3895130 3769424 3383576 3361954 3449424 3384534
2385.53 3407636 3508828 3592496 3688554 3680304 3702330
2388.42 3660936 3536336 3550804 3601556 3638522 3780976
2391.31 3792630 3753964 3791498 3966018 4094794 4322098
2394.21 4273546 4015778 3815494 3652596 3474486 3446706
2397.10 3505270 3630584 3757246 3865508 4069056 4222078
2399.99 4199498 4198654 4119870 3774560 3558372 3626800
2402.88 3693106 3830266 3994740 4269656 4419502 4399738
2405.78 4358602 4398536 4423466 4402428 4237520 4139554
2408.67 3976354 4053582 3988262 3888592 4005028 3913386
2411.56 3728338 3867894 3896010 3981132 4123466 4135230
2414.46 4019072 4043114 4196566 4184470 3980526 3895664
2417.35 3735562 3610850 3750694 3754696 3588698 3424774
2420.24 3233832 3343980 3423046 3447284 3511176 3523292
2423.13 3484240 3460610 3515772 3658700 3808346 3791934
2426.03 3844050 3874046 3567584 3473054 3546360 3422758
2428.92 3382066 3460046 3395556 3391942 3137740 3043148
2431.81 3164614 3168800 3186322 3259926 3288410 3257950
2434.70 3109918 3053944 3101886 3107480 3047456 3021662
2437.60 2967926 2991560 3002498 3104018 3088176 3098308
2440.49 3116714 2951020 2981742 3204752 3231112 3118458
2443.38 2966522 2875246 2953810 3012730 2944492 2788176
2446.28 2665616 2661232 2654666 2710930 2743364 2814706
2449.17 2974530 3164366 3174384 3057094 2805688 2642500
2452.06 2670770 2768582 2729590 2819692 2782204 2712192
2454.95 2766534 2723170 2645680 2653264 2643580 2668654
2457.85 2653844 2716220 2736388 2752058 2722674 2714632
2460.74 2769650 2794304 2614386 2548478 2593422 2554164
2463.63 2432528 2510854 2633360 2693130 2692010 2587688
2466.52 2453860 2539746 2649746 2672612 2585346 2519034
2469.42 2561758 2650402 2649046 2744224 3034420 2976208
2472.31 2569076 2461868 2477444 2526220 2441448 2368760
2475.20 2435812 2405276 2375344 2350026 2339994 2430330
2478.10 2482224 2444032 2417870 2346880 2240930 2417006
2480.99 2563212 2523160 2510742 2594752 2515644 2477232
2483.88 2576168 2670984 2659086 2574822 2468564 2529976
2486.77 2445968 2368446 2418654 2427618 2407566 2521356
2489.67 2640620 2571766 2502830 2548938 2562924 2537506
2492.56 2432670 2428524 2474776 2472542 2472292 2582736
2495.45 2635464 2584094 2449278 2354258 2323106 2403768
2498.34 2413810 2492022 2575232 2625680 2640946 2513594
2501.24 2333434 2341944 2454218 2460164 2399436 2448592
2504.13 2397066 2277406 2252216 2275150 2355128 2491944
2507.02 2415470 2423660 2509460 2562648 2473268 2448886
2509.92 2538844 2587854 2460316 2370340 2388514 2540408
2512.81 2582894 2562450 2462258 2480334 2570790 2529284
2515.70 2490256 2601008 2622666 2587680 2586710 2652506
2518.59 2726366 2660272 2605008 2700844 2714080 2785834
2521.49 2724822 2675074 2812478 2912966 2791588 2784012
2524.38 2875446 2989624 3053180 3063910 2974174 3035160
2527.27 3020460 3007192 3016878 2942950 2812510 2852380
2530.16 2881778 2836692 2782586 2926076 3021476 2937768
2533.06 2881890 2961222 2975170 2969956 2970940 2947432
2535.95 2825954 2951424 3022920 2959616 2910878 2983602
2538.84 3098140 3230644 3202088 3159044 3175724 3085382
2541.74 3037848 3090342 3072640 3066792 2960970 2927256
2544.63 2970602 2952490 2925378 3044450 2951736 3023418
2547.52 3187334 3074312 2880774 2959602 3013970 2941444
2550.41 2943974 2926680 2972944 3221198 3295410 3326622
2553.31 3359092 3300616 3243528 3287580 3302038 3251136
2556.20 3165880 3095666 2966590 2951516 2924174 2960332
2559.09 2907314 3015340 3283044 3398672 3342546 3310550
2561.98 3304688 3154738 3055598 3197376 3242230 3176022
2564.88 3198638 3346976 3326618 3313162 3223548 3223342
2567.77 3231526 3284592 3275386 3421606 3524580 3505530
2570.66 3561022 3620318 3490384 3481088 3613828 3745642
2573.56 3725488 3786592 3902814 3817860 3636682 3651106
2576.45 3602954 3593422 3714676 3893946 3822980 3777070
2579.34 3798848 3777872 3755210 3855138 3968540 4129400
2582.23 4270032 4304116 4142962 4060190 4017070 3918256
2585.13 4082112 4412506 4580942 4527166 4323988 4365494
2588.02 4361650 4270524 4381422 4523630 4420828 4628274
2590.91 4778284 4635220 4720628 5002676 5005502 4960564
2593.80 5321670 5447580 5015070 4939204 4977620 4982862
2596.70 4889282 4872630 5085080 5271316 5101942 5217306
2599.59 5331458 5104526 4983996 5058190 4858082 4789478
2602.48 4874830 4974372 4902610 4656250 4501166 4798102
2605.37 5010088 4860004 4915658 5088440 5014796 4921284
2608.27 4852356 4888872 4787920 4824456 5040244 5188576
2611.16 5192788 5371196 5722212 5785336 5344254 5136716
2614.05 5062100 5122996 5251240 5204166 5163416 5196984
2616.95 5111688 5022884 5375182 5920578 5892486 5672828
2619.84 5524560 5405038 5438044 5655052 5599492 5625874
2622.73 5653880 5559328 5530912 5623970 5655426 5667202
2625.62 6003100 6224320 5896812 5980466 5961140 5789068
2628.52 5541498 5638930 5680210 5587006 6036232 6584356
2631.41 6263174 5776586 5962742 5938918 5547088 5566286
2634.30 6076632 6259128 5842364 5770460 5780864 5481476
2637.19 5523496 5915704 5650846 5184034 5183798 5310924
2640.09 5283802 5343232 5522640 5592642 5154358 4664174
2642.98 4663170 4797712 4778464 5039368 5073638 5121916
2645.87 4892244 4625368 4705928 4790538 4934340 5406306
2648.77 5819630 5953112 5525296 5362868 5151286 5023354
2651.66 5026698 5067088 4927918 4796618 4772002 4893328
2654.55 4959526 4974474 4852412 4968648 4924512 4876148
2657.44 5061626 5237820 5234206 5325142 5403034 5404428
2660.34 5483776 5525864 5105426 4678896 4559612 4508728
2663.23 4626172 4885418 4806416 4926766 5407482 5457758
2666.12 5235582 5218582 5027032 4789586 5031828 5288358
2669.01 5020626 5132454 5314532 5429966 5823902 5677912
2671.91 5137196 5331880 5393892 4916440 4861258 5014430
2674.80 4945944 5043822 5065738 5070474 5162856 5178624
2677.69 5095294 5323984 5407338 5413128 5503168 5276952
2680.59 4947826 5161820 5158414 4991560 5105228 4992200
2683.48 4814488 4952662 4885044 4939464 5094728 5086734
2686.37 4882456 4846078 4837212 4858388 4743764 4554296
2689.26 4549698 4657988 4594812 4637216 4716380 4823128
2692.16 4916310 5016092 4838534 4780772 4824074 4956400
2695.05 5354736 5175944 4728150 4954136 5213522 5084746
2697.94 5061008 5110172 5184366 5182918 5211550 5180636
2700.83 5153042 5303694 5387922 5342444 5011988 5077760
2703.73 5398124 5335880 5214914 5381312 5308324 5098856
2706.62 5066742 5424884 5114468 4958244 5343198 5562460
2709.51 5378768 5581890 5836952 5752436 5426024 5327028
2712.41 5265546 5333642 5287190 5302708 5448232 5481860
2715.30 5276434 5164406 5067882 5105576 5036944 5016930
2718.19 5132700 5452574 5465448 5462706 5745204 6050020
2721.08 5980542 6022770 6026848 5651178 5638312 5940930
2723.98 5757888 5678932 5802246 6171586 6334898 6468660
2726.87 6773540 6869320 6468914 6207434 6192738 6212486
2729.76 6346438 6453196 6109614 6180690 6597428 6625502
2732.65 6642232 6811810 6751390 7006066 7321966 7263158
2735.55 7177012 7680634 8409814 8879318 8774188 8525118
2738.44 8311814 8280330 8200256 8148896 8496536 8633312
2741.33 8293138 8369870 8700832 8649144 8379718 8712082
2744.23 9169034 9015660 8961698 9380384 9517528 9417304
2747.12 9190270 9435042 9773754 9945516 10063470 10319500
2750.01 10526000 10923770 10624940 10579980 10837460 10859780
2752.90 10478070 10176650 10023040 10592890 10926710 10705680
2755.80 10975310 11660000 11449750 10986540 11019080 11328650
2758.69 11453500 11761980 11833320 12045480 12083300 11912120
2761.58 11642760 12120820 11999030 12320360 13458580 13897080
2764.47 13424930 13165020 13395790 13834700 13968040 14043000
2767.37 14135330 14395370 14457740 14853160 15091860 15146120
2770.26 15571530 16434630 16568270 16305400 16303630 16764750
2773.15 16759640 16724360 17140910 17607310 18289830 19287270
2776.05 18795740 18110840 18307180 18679600 18724070 19126280
2778.94 19671560 19642610 20650110 21838530 21556280 21759770
2781.83 23323240 23013130 22143220 23221310 23864640 23616400
2784.72 25197380 26617610 25031960 24151230 25186710 26368350
2787.62 26301670 26831530 28372070 29210220 28715580 28871730
2790.51 29949070 31497880 32886680 33470540 34282560 34977540
2793.40 35220870 34789410 34346720 35296400 37287760 38518520
2796.29 38879080 39699640 41203760 41913770 42914850 45562320
2799.19 48328720 48220300 47162400 48584700 50737710 52518870
2802.08 54147340 55222180 57056080 59540970 60160180 60011700
2804.97 63431900 66417690 65901980 67091370 72168540 73359500
2807.87 72930390 75280860 81173560 81466510 79972540 83522980
2810.76 88756050 90045780 89448620 92340190 96008760 99454060
2813.65 98882940 101373800 106208600 109960800 108479000 108519700
2816.54 114053200 118100600 117652900 114543400 119836400 126814800
2819.44 126781400 126932000 133443300 134606500 129608000 130182800
2822.33 136509500 136698500 129555100 130351200 139595700 140057900
2825.22 130753500 137538700 144745000 133746900 130020100 138981000
2828.11 136222400 129800500 133679500 135880500 130044600 129380800
2831.01 130824900 129163600 126814300 126230400 120030600 113567500
2833.90 119545100 125346500 118480300 109907100 107555900 108176400
2836.79 108010500 112631900 118820200 127344000 130207000 126581700
2839.69 120866900 115133500 129112400 155024800 173745200 189237600
2842.58 211993800 225769300 257439700 255709500 205773200 180324500
2845.47 185777900 163952800 142327700 130180000 130560200 131908500
2848.36 121138800 113004300 107933300 106719300 109115000 106467800
2851.26 114294900 120979700 112421000 115503700 130808600 133925100
2854.15 133834900 141833600 148545600 148988600 154075400 166022800
2857.04 169613700 167631300 175490700 180849600 180324900 186650700
2859.93 192543600 191388300 194692000 198542700 198769600 202813200
2862.83 209534900 211573600 208046900 207649600 214166900 211624600
2865.72 206913900 213478800 205796300 197379400 206173900 208252000
2868.61 198137100 200400600 197983000 189850000 195914800 200051800
2871.51 193549600 195072000 194221400 185057500 178230200 181664900
2874.40 196390400 196503400 176975000 173015600 173112000 167874700
2877.29 169781300 172178800 161940700 153201000 160824200 166650300
2880.18 162455700 172200000 172337800 152781600 145316300 148802400
2883.08 147865700 142794800 141493600 136072400 134277200 144184700
2885.97 150098500 156462300 159291800 155156700 140869300 133286100
2888.86 135286700 137899800 135524500 133219000 135328000 145172200
2891.75 162262700 187404800 184982800 160656400 151775800 151582000
2894.65 151325000 150715000 149710300 148565800 152735300 157906500
2897.54 160451400 161150900 168897500 174964000 171608200 167738400
2900.43 170766400 175252400 199269900 212497100 196604400 180411700
2903.32 181720100 183747900 186392000 187763000 186921200 195010200
2906.22 199998900 199757400 210393500 221391900 225991700 233100600
2909.11 225313800 220226600 220444200 220874300 223418800 225272900
2912.00 222965000 222602300 234197500 244172200 246660400 240085000
2914.90 238227400 248820300 251719300 245957800 252042600 257432900
2917.79 267584100 283610700 299489100 308547000 314876200 309583900
2920.68 296121100 297500200 315585900 310542700 315935600 328464500
2923.57 324174000 305721400 286056200 285280400 284005400 271032200
2926.47 262954500 259662300 251650000 267799600 290993800 278984700
2929.36 260712600 261583000 260714800 257573000 270698300 278210600
2932.25 273871400 285542100 295870000 300109800 302220700 308782300
2935.14 311999000 313627700 324009900 327898300 316611100 316457100
2938.04 314189500 308364800 318724700 333642800 317273800 301378000
2940.93 303642900 314942800 331189900 320906300 305432200 307637600
2943.82 304952800 302494800 298521000 295777700 304851100 317681200
2946.72 306814200 311335100 312451900 302477100 322093300 346253200
2949.61 316261800 291231000 312659600 329365200 319016900 304988900
2952.50 298317400 308285900 304679500 297325200 298534300 304292800
2955.39 290657100 265410000 285241700 324157100 343278600 331183800
2958.29 310106800 301164400 285510500 269545600 281564200 286558500
2961.18 277822500 291962800 311586700 323065200 324167700 318582700
2964.07 318097700 325532900 344793900 342412500 326914200 347333800
2966.96 366117900 363452400 348793400 324592200 304640900 299147600
2969.86 306872400 320889000 340491900 353003700 353748300 350180500
2972.75 369926700 363481400 344840900 334226700 331349200 326221900
2975.64 290215800 283579400 316448800 319825300 294000700 291951200
2978.54 300854400 332576800 342124100 326886000 338742400 395698000
2981.43 426723600 365839100 312598400 296404300 282303400 272598900
2984.32 280718000 292681300 269890100 272902700 297057400 272396700
2987.21 247595100 264101500 277253800 259371300 231708400 222757900
2990.11 237714100 246726800 241313800 253488100 265813600 244946600
2993.00 222018300 208836400 199568700 198873800 210210500 218606700
2995.89 225192700 221056200 198759500 180521600 170071800 163714400
2998.78 169076200 178971300 178294300 190097200 210198400 203382800
3001.68 185941500 176228100 175233500 177305900 175991000 175487600
3004.57 201327300 241775700 224541700 191410200 178080500 168769300
3007.46 168846100 182726700 189045900 185307600 192904200 218992600
3010.36 212626900 176706400 167184500 175236700 164729600 150666900
3013.25 158959300 167724000 156814800 149337300 171079000 187370100
3016.14 165126500 155911300 148512900 134753200 128942400 123015500
3019.03 121606700 128951400 126518400 119230400 122999700 132940700
3021.93 136505400 146785200 156487800 138287200 117961400 103096200
3024.82 106033100 118124900 119358100 114523000 112162100 107952400
3027.71 105583300 117000300 128039800 120331500 105469800 101336800
3030.60 110645100 124524600 124182800 108632400 106708800 110349500
3033.50 97634370 91341110 95346030 92268720 95460900 106690800
3036.39 98197350 86399270 88121500 84662610 78068180 78673000
3039.28 79345280 76817890 77303060 81148080 87899340 90938670
3042.18 87315920 82786870 77467570 76313870 74373750 67761260
3045.07 62887620 66701750 71617940 68526830 63352170 60380050
3047.96 58754150 59530770 61941920 57659930 50635630 48532490
3050.85 49845770 48458990 49037020 55510360 58959380 54094430
3053.75 50134000 51752110 50761070 46686220 47261040 47493410
3056.64 44957050 42410790 41676380 43816380 44767030 41292830
3059.53 40908550 43961750 43702190 38142580 35753610 38229330
3062.42 40716480 37561830 35819940 38712790 39573560 35516160
3065.32 34994600 37599980 37166680 33463240 32426570 32590330
3068.21 31218630 29292000 28879410 28971560 28336230 26679090
3071.10 26240270 26776470 26868340 25251840 24938330 24839230
3074.00 23292140 22541530 24328000 24397540 22256410 21336050
3076.89 21962750 20811850 19437000 20173400 20891150 19516220
3079.78 19144190 19824200 19140560 17472840 17310120 17137740
3082.67 16475350 15647090 15572580 15878870 15018410 13796660
3085.57 14426000 14817460 13456990 12609640 13739430 13850490
3088.46 12545200 12031210 12677580 11965820 10925600 11441550
3091.35 12025230 10803980 10081430 10496430 10503280 9537238
3094.24 9296754 9558132 9252070 8691572 9024314 9177134
3097.14 8894002 8520194 8347292 8170206 7922898 7594330
3100.03 7730768 7610296 6979904 6952122 7375534 7020514
3102.92 6625264 6631586 6741290 6450532 6366506 6493080
3105.82 6148460 5885128 5793096 5565264 5649278 5513960
3108.71 5333510 5316174 5305454 5145204 4905652 4879748
3111.60 4906862 4525168 4353908 4598384 4606140 3966248
3114.49 3958280 4106526 4040176 3990964 4154566 4130958
3117.39 4211688 4124024 4126218 4056172 3757992 3551678
3120.28 3710424 3709606 3510644 3512590 3665200 3448906
3123.17 3382696 3336724 3127356 3007894 3152028 3068276
3126.06 3121992 3315646 3366778 3154846 3061746 3146256
3128.96 3068640 2953202 3128198 2968434 3042804 3312834
3131.85 3319820 3089304 2985606 2906702 2807394 2651620
3134.74 2684108 2695210 2659850 2650784 2853036 2893960
3137.64 2636454 2435914 2303404 2223506 2526256 2610026
3140.53 2489638 2292132 2433526 2517642 2685646 2805934
3143.42 2682998 2377388 2445844 2392300 2399172 2284262
3146.31 2168476 2205206 2298954 2207522 2297002 2379518
3149.21 2405724 2283564 2128076 2146006 2251248 2099122
3152.10 1991880 2163662 2231644 2252454 2405246 2244888
3154.99 2236874 2372078 2364968 2258646 2189458 2274808
3157.88 2305908 2140074 2115366 2167402 2349906 2507668
3160.78 2488546 2325350 2407926 3004630 3140114 2375960
3163.67 2191742 2125754 2229398 2381708 2656526 2735224
3166.56 2504410 2159640 2121586 2052610 1974310 2011760
3169.46 2151430 2189094 2376894 2558848 2445522 2097012
3172.35 2064384 2097890 2102072 2004668 2024474 2068292
3175.24 2078768 1972890 1890930 1956866 2097622 2248800
3178.13 2299978 2228506 2113856 2244692 2360842 2185552
3181.03 2075892 2208776 2203402 1976966 1948112 2017700
3183.92 2059958 2099272 2119670 2081974 2154326 2221876
3186.81 2114564 2018110 2193086 2168300 1948964 1862958
3189.70 2011798 2070034 2228416 2621402 2559510 2145234
3192.60 2025782 2006028 1940418 1894008 1972488 1897680
3195.49 1963174 2031066 2023288 1882456 1874402 1801208
3198.38 1775164 1835676 2084806 2119226 2090176 2140700
3201.27 2124722 2114446 2272140 2148680 2008562 1944406
3204.17 1962006 1864266 1800102 1865924 1817946 1670692
3207.06 1696986 1719802 1936988 2134028 2092044 1877844
3209.95 1872370 1959496 2035888 2031696 2153650 1944680
3212.85 1751538 1792730 1866328 1806388 1832040 1906436
3215.74 1946626 1743956 1631070 1711312 1777636 1687098
3218.63 1705546 1673972 1832794 1932994 1875056 1917644
3221.52 1896404 1828506 1741892 1852662 1980472 1867496
3224.42 1813936 1712630 1735712 1759404 1864158 1848008
3227.31 1809484 1708034 1739826 1737690 1683896 1666230
3230.20 1583998 1516424 1694740 1808002 1739330 1559848
3233.09 1654172 1751528 1680726 1597200 1627638 1799590
3235.99 1833852 1616594 1559850 1604076 1660870 1791698
3238.88 1711144 1568824 1626512 1550604 1463110 1474356
3241.77 1530998 1658340 1585292 1464786 1592686 1593482
3244.67 1682358 1852156 1899366 1645790 1531304 1606236
3247.56 1782546 1765448 1650420 1614106 1577290 1423080
3250.45 1416648 1464954 1412038 1408224 1527356 1506524
3253.34 1591406 1671236 1496024 1422550 1562608 1605150
3256.24 1545288 1440304 1500378 1496232 1453086 1378074
3259.13 1390856 1589460 1657994 1568144 1642354 1772040
3262.02 1614716 1557320 1584912 1439860 1423702 1400334
3264.91 1483708 1578494 1680100 1685988 1614168 1424264
3267.81 1424508 1419790 1484998 1591384 1609164 1272318
3270.70 1185090 1383598 1607828 1339908 1242112 1284376
3273.59 1332700 1358384 1288486 1409524 1635286 1601478
3276.49 1385840 1158002 1216862 1316186 1455664 1432848
3279.38 1439450 1414574 1560050 1569736 1361794 1304028
3282.27 1443080 1387726 1510814 1538892 1494246 1305740
3285.16 1197494 1342960 1514944 1467974 1403072 1351994
3288.06 1402408 1508724 1466534 1231968 1168922 1274440
3290.95 1333764 1275264 1406638 1415248 1482556 1411826
3293.84 1290848 1165370 1098974 1116436 1260486 1392814
3296.73 1372574 1308454 1486248 1446054 1304652 1292764
3299.63 1345612 1345524 1310154 1329200 1370532 1416074
3302.52 1400532 1374438 1313316 1091468 1182580 1220922
3305.41 1099044 1066266 1282418 1405502 1418196 1335144
3308.31 1247072 1207332 1265172 1278222 1392668 1355474
3311.20 1375626 1332418 1256102 1288066 1413480 1425512
3314.09 1237810 1120912 1354218 1365834 1318752 1471272
3316.98 1475074 1296064 1190318 1201888 1347434 1421520
3319.88 1316330 1192456 1348368 1496922 1391420 1149694
3322.77 1138098 1270256 1303752 1125514 1100518 1373018
3325.66 1564572 1453564 1376754 1346874 1402510 1596704
3328.55 1574514 1359420 1407260 1547650 1494078 1287082
3331.45 1221300 1316582 1428498 1446322 1498148 1357278
3334.34 1226752 1243162 1410358 1362130 1375132 1464126
3337.23 1472490 1349510 1336262 1445678 1552500 1595958
3340.13 1518634 1521814 1319120 1237366 1569146 1681798
3343.02 1652868 1588782 1506430 1404828 1497912 1666846
3345.91 1601338 1346070 1457008 1675064 1795140 1626938
3348.80 1619408 1378790 1325740 1355440 1582980 1713546
3351.70 1668324 1608822 1585128 1538094 1559550 1624630
3354.59 1919306 1740080 1293424 1307738 1507608 1434768
3357.48 1365684 1440720 1628628 1462226 1349274 1566194
3360.37 1802058 1636724 1589408 1581944 1597396 1706250
3363.27 1876964 1923626 1958940 2090516 2043422 1849222
3366.16 1698372 1589152 1539322 1356194 1455340 1512690
3369.05 1523246 1650382 1743386 1752634 1717590 1624966
3371.95 1541322 1492940 1732814 1835350 1749952 1720540
3374.84 1868480 1854538 1613714 1604246 1938714 2383554
3377.73 2731882 2265128 1893480 1900302 1830770 1814286
3380.62 1806490 1829850 1828544 1695016 1714176 1906906
3383.52 2282852 2493942 2357304 1941062 1983788 2023852
3386.41 1887958 2003922 2070116 1824522 1770076 1994914
3389.30 2231922 2135304 1931742 1898378 2174276 2284932
3392.19 2180414 1941816 2055948 2239446 2051274 2017102
3395.09 2306874 2171500 1874648 2054796 2306118 2285060
3397.98 2182422 1950964 1716012 1702270 1770494 1657188
3400.87 1815072 2217716 2404862 2345966 2332530 2497004
3403.77 2675580 2284856 1800870 1870968 2084568 1977224
3406.66 1912658 2016440 1926086 1772030 1923562 2336154
3409.55 2957304 2817124 2358982 2197138 2154994 2218940
3412.44 2232314 2227344 2306958 2276200 2322700 2297640
3415.34 2165524 2318162 2382226 2470778 2530030 2622324
3418.23 2910186 2965590 2845758 2597982 2522212 2504374
3421.12 2387582 2234730 2369144 2372242 2126066 2221246
3424.01 2428714 2302950 2228516 2342398 2368770 2317048
3426.91 2573470 2815848 2756200 2695924 2764062 2740230
3429.80 2876868 3085630 3269308 3810682 4400544 3930166
3432.69 3228912 2802892 2685296 2736482 2744440 2978434
3435.59 2908056 2833588 3067282 3194030 2817148 2546350
3438.48 2689050 2859338 2743474 2683498 3283004 3886616
3441.37 3604718 3721872 4489466 3997822 3159860 2692190
3444.26 2584114 2678024 2644262 2451130 2317922 2435158
3447.16 2934176 3650408 4124978 4090426 3522636 2985412
3450.05 3170646 3217184 3144488 3937086 3823398 3257852
3452.94 2840956 2634218 2659936 2668104 2733018 2772694
3455.83 2465722 2402404 3027880 3457648 3220544 3908720
3458.73 4691464 3947990 3092964 2719568 2674430 3147464
3461.62 3493154 3140166 2813128 2866318 2889596 3156570
3464.51 3642654 3904932 3424364 2964912 3078488 2908776
3467.40 2705256 2811680 2836938 2784036 2958780 3016206
3470.30 3154820 3747964 4034818 3445308 3092822 2985628
3473.19 2739734 2725552 2996074 3167856 3266000 3333142
3476.08 3085890 3122308 3875380 4391188 4002148 3762818
3478.98 3786716 3645668 4356818 5585276 6160332 5252516
3481.87 4679406 4343738 3936506 4263590 4650018 4370572
3484.76 4249874 4685606 4605484 4199230 4795592 5644454
3487.65 5747910 6064322 5659316 4246098 3717156 3927620
3490.55 3843912 3492972 3564864 3888806 4305456 5207118
3493.44 5591718 4373174 3567860 3657428 3856448 3584238
3496.33 3527002 4035160 4426506 4363960 4309196 4116052
3499.22 4109296 3753070 3246628 2809900 3109434 3506648
3502.12 3314164 3138734 3521190 3875956 4257082 4618422
3505.01 5766060 6485038 4943308 3705936 3294242 3234536
3507.90 3213462 3474646 3657110 3452772 3212854 3196274
3510.80 4213240 5466304 5318424 5547706 5517022 3959198
3513.69 3071796 3021568 3131758 3075454 3251532 3354110
3516.58 3370046 3326896 3711822 3987096 3932658 3896312
3519.47 3728556 3822310 3755454 3432740 3258302 3508440
3522.37 3998656 4812476 5686082 5498514 4756558 3610458
3525.26 3530872 4606478 6189354 5615798 4177818 3646766
3528.15 3347254 3354382 3287362 3015688 3303296 3968942
3531.04 4046328 3759376 3858678 4266040 5513648 5702970
3533.94 4546518 5805512 7819606 5948534 4403330 4290144
3536.83 3826804 3392304 3442664 6291120 9936814 7839478
3539.72 6130780 7453834 6334504 4207584 3306532 3377196
3542.62 3532162 3470616 3507150 3786268 4299436 5494904
3545.51 5819070 4501618 4095874 4541028 4488844 3953836
3548.40 3758728 3655200 3586456 3770390 4068866 3967532
3551.29 4165946 4391592 4079818 3862190 4641952 5146134
3554.19 4885708 5495130 6082824 4980316 4140740 4664048
3557.08 4875414 4321964 4308760 4499818 4342324 4306346
3559.97 4758112 4947142 4909640 5043614 5198126 4756020
3562.86 4196510 4317670 4860308 4852836 4788306 5313468
3565.76 6407180 8764408 11349900 12229200 10982000 7165268
3568.65 5136570 5188136 5370018 5448926 5401356 5287608
3571.54 4687114 4650064 5657546 6003620 6178564 7818376
3574.44 10301350 11087940 8925208 7331268 6839766 7326300
3577.33 9214356 8020556 5744418 6141738 7869562 7902786
3580.22 7662008 8272222 8583542 7559160 6360982 5804652
3583.11 6029614 6932316 7133832 6419722 6672848 8528690
3586.01 9527998 8292866 7702956 7880524 8207904 8476400
3588.90 7515916 7036066 7306570 7590384 7227098 6899410
3591.79 7456520 7975498 8145862 9239300 10166720 9611820
3594.68 9815042 10788870 10079000 8679468 8803376 9416362
3597.58 9302530 9777084 10551960 10247160 9709470 9248602
3600.47 8959564 9525622 9808264 9299684 9071220 8924420
3603.36 8915738 9705866 9822140 9559932 10734420 11750060
3606.26 11088890 10721380 11943550 12300990 11030620 12466530
3609.15 13436210 11847780 11103480 12251940 12699920 12563400
3612.04 14956300 18179840 18072810 15920440 16816310 16948360
3614.93 14570710 14866810 17151450 18541980 21430850 21684630
3617.83 17035790 13773480 15043520 18354860 18909850 20287930
3620.72 22780390 21103570 18217120 17912360 17991570 16865740
3623.61 17117910 19187180 19497220 19671180 22307270 27495870
3626.50 31072990 31244040 33064840 32375190 29009900 28020810
3629.40 26254720 24933680 27634750 30504460 29797540 28468850
3632.29 29055450 29520720 31056800 30644220 27673050 28384460
3635.18 30099910 29929940 32590120 37000110 38045200 38324700
3638.08 40837720 39139200 37226440 38089640 38391300 39294280
3640.97 44862170 52176380 53252230 49179620 49840440 53878200
3643.86 58908540 64873220 67153010 58791460 52232400 51260230
3646.75 52952400 54384740 55741050 58762840 63356630 64053700
3649.65 64706780 70236650 74440090 75204700 75966210 77765060
3652.54 79446090 75777250 70178620 73612340 80691610 75887500
3655.43 72518060 82967580 88958510 85215480 90154100 99937320
3658.32 90554590 80026030 86018050 88865180 79263020 81434140
3661.22 92634340 93637790 97224940 111961400 109487400 90946560
3664.11 88350140 94759660 90448510 92466100 108179600 108523900
3667.00 90208630 89019020 99326700 90364860 79795760 82936180
3669.90 82640580 78795540 84623920 92232380 92125540 94049540
3672.79 90076260 78580600 75736460 85008630 82957460 73921810
3675.68 79792450 91114380 91027820 81258340 76390500 75889420
3678.57 84781970 102120900 113206100 132277900 177323400 169921300
3681.47 119739600 88739400 76370620 71950860 70258320 79287820
3684.36 85843780 83507310 65011560 49389830 51919420 61921000
3687.25 65466780 61353820 52411310 52221200 59546550 63078630
3690.14 65897470 72515930 69771220 75475850 91600260 97930340
3693.04 94232560 95635140 99629700 98722980 107300000 107645000
3695.93 99280620 102669000 106545200 101730200 100602400 96771300
3698.82 90753540 93484180 98678020 94035670 93392720 101604600
3701.72 104129200 96869930 93739590 94332230 95106530 97311400
3704.61 103869600 109879400 108945200 110391200 106184100 93718160
3707.50 92710950 101465400 103229200 101251900 102595200 93220320
3710.39 87402460 92644690 93038430 93443780 99509680 102520200
3713.29 102000800 98569620 91090960 82494410 80049430 83298940
3716.18 81134950 81159770 83064220 75084340 74682370 84151410
3719.07 85091320 80523350 80530610 81079780 73564940 68481320
3721.96 67303350 63888430 63158800 60744800 55110430 53460300
3724.86 54067210 54830330 55105640 51138240 47751770 44619450
3727.75 43426130 45454950 48437360 49060540 47004610 46062420
3730.64 43740160 42593190 47638730 45380720 39071500 38215170
3733.54 37097660 33888920 30793640 28961880 29274030 29312250
3736.43 28300040 28594190 28680500 30293300 33310730 29327540
3739.32 24010330 24381250 26427940 23227560 19880720 21086900
3742.21 19785210 17990670 20955650 23724230 23880350 21928200
3745.11 19928450 19088230 20023060 19708390 16043950 14923140
3748.00 18350900 23562830 27575800 23050430 16889190 13709000
3750.89 14743280 18785960 18149830 15940250 18808710 19721350
3753.78 16364060 14076500 12332890 11018450 12812070 13780650
3756.68 13329110 14902490 20780220 24730580 20104440 14155010
3759.57 11350860 10812120 11809370 12416900 11990940 11577230
3762.46 11077090 10985480 14320220 18863170 17398690 15076160
3765.35 16222460 14145920 11160950 10338710 9864352 9599358
3768.25 10053630 9772850 10157830 10432050 8871244 7797306
3771.14 8831390 8690572 8239606 8666668 8183522 7033366
3774.03 7693526 7819396 6941382 7296926 7687436 7369062
3776.93 8189462 9228788 8310392 7882386 8609244 7602318
3779.82 6505988 6982930 7511002 6933646 7112014 8425636
3782.71 8502942 7253442 6976708 6360406 5693906 6134866
3785.60 5922802 5252098 5762696 6025798 5403396 5579242
3788.50 6394872 5845100 5417186 6342816 7640906 7864154
3791.39 7254048 7015714 6988618 6823332 5678376 5433030
3794.28 5797206 5574282 6453164 10695700 12055490 7840812
3797.17 6178910 5949008 5024962 5210922 5941240 5805088
3800.07 6014518 8540718 9830082 6835748 5839866 6254376
3802.96 5347524 4938176 5438408 5229646 5256574 6144502
3805.85 6978274 7900510 7328946 6622612 6340190 5984390
3808.75 7002998 7196704 7081572 9473652 10793190 8548960
3811.64 7766456 7395374 6240052 5356224 5766282 6379034
3814.53 7328276 9229608 10615570 7783294 5274132 4971082
3817.42 4770864 4825844 4762938 4501294 4888084 5850436
3820.32 6223540 6180888 6941546 5822564 5098606 7063386
3823.21 10309610 11377610 8528398 6458818 6027642 5695026
3826.10 6254514 6609462 5875356 5232100 5199272 4989884
3828.99 5108734 5495870 5253340 5105410 5980238 6271358
3831.89 5216978 5012588 5432986 5591996 5991678 7164144
3834.78 6721484 5801502 5724808 5905396 6773914 9353700
3837.67 9056192 6449996 6056274 6703524 6767672 6634608
3840.57 7524398 8413368 9726954 10785470 9732206 7497264
3843.46 6342960 5402126 5236902 5089606 5022730 5069042
3846.35 5463590 5917914 6572852 6831592 6579206 6165024
3849.24 5689594 5160886 5675276 5980032 7749460 9864446
3852.14 8787968 8723094 12159060 15962080 13081000 7619154
3855.03 6091138 5843486 5906082 6281454 6494250 6329192
3857.92 6401504 6392542 6493140 6465116 5961200 5237780
3860.81 5692458 6792826 6711046 6677316 7263716 6685474
3863.71 6142702 7074450 8341114 7823394 8639698 9573514
3866.60 8141236 6897244 7777404 8530912 8717702 8983954
3869.49 10082090 9278800 7739386 7392058 7667246 8028936
3872.39 7555958 6697030 6442178 6329474 5764856 5354590
3875.28 5477804 5568764 5543750 5416204 5161860 4778236
3878.17 4593370 4950676 5533580 6068882 6146564 5609518
3881.06 4909922 5110574 5768662 5687912 6069870 6276572
3883.96 5735420 5813016 7842046 8299150 6721288 6464832
3886.85 6436730 6224360 6458382 6788360 7705848 9725600
3889.74 9651134 8039094 8251100 8082908 7249484 7186300
3892.63 8140232 9062370 9238432 9172964 8539016 7394890
3895.53 7012802 6734608 6509492 6912228 7408980 7554624
3898.42 8278922 9023160 8460784 8351976 8396436 8138046
3901.31 8026212 7116316 6358562 6311384 7038044 7598706
3904.21 6339466 5495306 5592952 5518666 5248858 5078042
3907.10 5009448 5097130 5266554 5356046 5616434 5719142
3909.99 5401490 5107732 4947194 4669600 4545822 4421944
3912.88 4485506 4805856 4904394 4876720 5307840 5429342
3915.78 4983900 4954554 5512002 5030898 4682724 4980072
3918.67 5276828 5809934 6427048 6682900 6628052 5850318
3921.56 5205716 5270030 5699636 6220254 6088242 5479548
3924.45 5240660 5153586 4920314 4872748 5041912 4952668
3927.35 4973868 5243442 5240598 5214364 5301290 5268422
3930.24 5010138 4777364 5004206 5701000 5994628 6012878
3933.13 6134138 5716328 5208802 5009804 4951410 4859458
3936.03 5025478 5199678 5132884 5134502 5455190 5561102
3938.92 5957502 6285328 5767422 5340298 5700702 5841956
3941.81 6201044 6771668 6766334 6317470 5943914 5758722
3944.70 5943746 6225926 6588834 6715080 6621222 6198642
3947.60 5776950 5430828 5303512 5430268 5386592 5218084
3950.49 5412716 5714236 5975206 6092708 5765940 5261232
3953.38 5070654 5133006 5273080 5469800 5538284 5424280
3956.27 5408490 5535928 5476336 5434388 5595126 5448376
3959.17 5165298 5232938 5391968 5504284 5637158 5781388
3962.06 5985218 6162028 6130448 6081898 5916256 5555070
3964.95 5717568 6255342 6263686 6091128 5914400 5753646
3967.85 5723376 5639496 5581090 5806986 6382308 6510080
3970.74 6101700 5795230 5575958 5468302 5542822 5464098
3973.63 5347312 5564480 5708178
##END=
