##TITLE=Methanol
##JCAMP-DX=4.24
##DATA TYPE=INFRARED SPECTRUM
##CLASS=IUPAC A
##ORIGIN=NIST, Anayltical Chemistry Division, 301-975-3108
##OWNER=COPYRIGHT (C) 1998 by the U.S. Secretary of Commerce
##DATE=98/10/1
##$SPECTRA VERSION=1.00
##$UNCERTAINTY IN Y=2.0 % relative (B=1.0E-04,C=6.6E-10,D=2.7E-14)
##CAS NAME=Methanol
##CAS REGISTRY NO=67-56-1
##MOLFORM=C H3 O H
##MP=-93.9 C
##BP=64.96 C
##$NIST SOURCE=QUANT-IR
##SPECTROMETER/DATA SYSTEM=IFS66V (Bruker)
##INSTRUMENT PARAMETERS=KBr Beam splitter; MCT Detector; Multipass cell
##STATE=gas
##SAMPLE DESCRIPTION=Methanol Primary Gas Standard
##PRESSURE=101.3 kPa
##TEMPERATURE=23 C
##SAMPLING PROCEDURE=1 L/min Flow
##RESOLUTION=1.9290
##DATA PROCESSING=Triangular Apodization
##XUNITS=cm-1
##YUNITS=(micromol/mol)-1m-1 (base 10)
##XFACTOR=1.0
##YFACTOR=4.5474E-13
##DELTAX=0.9645
##FIRSTX=574.687
##LASTX=3974.595
##FIRSTY=4.34E-06
##MAXX=3973.63
##MINX=574.69
##MAXY=.0007108
##MINY=4.04E-07
##NPOINTS=3527
##XYDATA=(X++(Y..Y))
574.69 9552888 5993786 5472720 5412758 5124632 5486952
579.51 6507220 8477694 9272530 6810738 5119946 4486384
585.29 4014948 4412664 4812762 5202904 5170412 5060730
591.08 5127208 5451736 5535536 4689226 4517962 5052212
596.86 5941488 8121908 7927396 4943306 4414254 5231892
602.65 4984458 4040288 3697280 3768802 3688546 3941540
608.44 4209330 5276980 5818672 4384458 3641308 3815580
614.22 4193836 5312948 6726782 5532292 3616586 3175332
620.01 3012350 3704908 4723920 4960954 3825812 3046774
625.79 2847446 2846762 3106332 3272294 3438622 3254482
631.58 3142808 3285586 3227038 3218328 3164218 2986432
637.36 3333474 3564854 3291598 3330714 3488616 4253036
643.15 4670506 3853122 3949564 4966106 5100528 4624346
648.93 4443788 3934140 3750850 4300680 4985056 5956418
654.72 7208700 6460898 4795890 4554414 3915590 3322802
660.50 3313258 3154686 3183828 2941884 2502016 2679824
666.29 2950366 3115200 3181194 3043644 3063906 3106080
672.08 3164138 3212696 3230652 3313722 3328308 3230854
677.86 3117124 3165586 3182912 3215612 3108580 2874262
683.65 2877450 3079742 3059198 3014742 3215546 4005588
689.43 5300922 6731058 6122476 5280564 6867130 5419728
695.22 3618920 3776830 3109302 2785254 2827656 2871302
701.00 2800310 2742056 2791072 2754276 2835510 2927658
706.79 2707602 2873952 3226360 3426016 3380696 3274334
712.57 3254870 3143042 3200314 3194902 3022858 2954648
718.36 3053074 3216030 3265788 3049268 3034670 3103404
724.14 2966942 2779460 2765090 2774320 2636392 2612142
729.93 2706200 3024104 3616558 4196442 5127580 7673038
735.71 8394440 4926302 2554540 2295388 2091538 2127924
741.50 2170090 2131420 2129390 2308012 2774194 2874266
747.29 2818812 2934620 2949086 2775964 2766224 2911662
753.07 2805788 2655042 2603536 2634410 2702202 2678374
758.86 2592400 2493196 2537422 2541902 2495500 2590438
764.64 2546762 2361436 2241860 2275570 2358876 2294666
770.43 2063240 2069120 2274244 2227862 2308046 2713906
776.21 3869866 4821108 5514640 5708530 3972536 2243606
782.00 1780176 1594098 1496408 1530094 1529430 1525288
787.78 1665196 1879554 1939430 1896064 1996672 2058750
793.57 2166044 2194054 1998690 1962162 2046124 2032226
799.35 2021966 2069196 2129196 2047702 1998262 2343996
805.14 2433518 2051906 1990020 2025158 1925910 1786620
810.93 1815144 2027654 2115646 2030304 1999342 2109368
816.71 2273004 2821380 3725808 4130852 3424644 2439994
822.50 2466336 2799402 2372230 2045622 2429636 2517710
828.28 2232476 2052150 1970254 1855036 1909986 2038228
834.07 1961536 2114938 2319156 2334326 2447268 2348978
839.85 2289962 2347228 2328392 2365562 2505020 2633634
845.64 2531588 2356806 2307826 2256238 2249990 2267604
851.42 2407988 2460194 2436934 2445770 2468128 2546460
857.21 2943342 3655650 3794630 2831664 2310590 2304954
862.99 2393322 2514706 2720564 2823652 2782760 2947236
868.78 2836296 2840582 3274780 3744956 3682010 3195800
874.57 3066086 2981724 2860368 2938608 2976258 2870842
880.35 2887988 2801678 2787124 2977768 3140164 2992892
886.14 2964032 2992656 3029106 2940384 2994456 3141110
891.92 3228526 3294320 3353238 3436334 3662772 3791132
897.71 4466712 4917726 4105650 3506334 3520188 3511828
903.49 3565154 3720726 4024032 4147882 4254748 4343970
909.28 4232160 4303504 4643114 4690938 4614318 4735234
915.06 5144078 5070842 5030118 5147242 5333266 5520634
920.85 5641204 5706208 6078082 6409456 6525498 6701114
926.63 6913452 6942164 7045820 7158706 7524842 7943262
932.42 8055582 7767544 7752324 7900038 8239310 8750038
938.21 9260562 9553150 9916648 9330586 9336564 9882746
943.99 9636280 9764270 10405410 10615110 10726500 10877300
949.78 12571340 12746300 13366470 14447820 14957090 16052890
955.56 15801900 17027240 18533920 19969460 22170410 22307870
961.35 24647360 24876790 27264820 29055160 30792420 35515290
967.13 37974500 43352190 42153380 47783550 50326940 54839900
972.92 60991260 62933880 72680880 72822220 85865430 86478860
978.70 101437900 103360800 114705100 120882900 130738300 141001000
984.49 148454900 164362000 170288400 189494300 195155600 216943600
990.27 223283000 245726800 253326900 276240900 285820600 306409200
996.06 318826700 339010900 353472100 372273400 389005500 405399600
1001.85 423405300 439081300 453316900 464462000 478776100 487809000
1007.63 497948700 502583100 510162400 513307100 515771900 512173400
1013.42 512101800 508522000 504685000 496363200 479838700 453866300
1019.20 434690400 411934500 382131400 348028400 327276000 305561200
1024.99 279926800 276562400 270000100 279724200 335949200 486026400
1030.77 779869800 1396366000 1563145000 779144800 296301200 250647200
1036.56 213559700 219656900 227044700 260864900 298654600 337169100
1042.34 380401300 426006400 470466200 519474100 562076900 600667100
1048.13 636866700 668985000 695518700 715335800 727865500 735886300
1053.91 738757900 736450900 726439000 710980400 691690900 668930500
1059.70 641032600 609956400 577354700 543187900 506226000 467173200
1065.48 429663100 393766500 358341300 322455800 288581700 258094100
1071.27 229322300 203399800 177763500 150333000 127190100 108994000
1077.06 93097060 80235700 69521620 59770730 51424980 44380020
1082.84 39130280 35179130 31765560 28664900 26294100 25309210
1088.63 24630780 24100950 24221850 25753470 27285660 25731240
1094.41 22928980 22763350 23667310 22242740 21079480 20907910
1100.20 20481830 20156700 20001430 20056520 20860930 21782830
1105.98 20692690 20095310 20044830 19078820 19757140 20004980
1111.77 19347640 21475600 22320260 19670600 17756590 17093360
1117.55 16678470 16475150 16687650 16618760 16388600 16532390
1123.34 16236180 15318720 15044240 14569030 14414020 14880420
1129.12 14150750 13633020 13563630 13182880 13498830 15574900
1134.91 16250440 14569760 13325990 12406880 12121970 14327490
1140.70 15572750 13279800 12820580 13212330 12155190 11547100
1146.48 11984590 12171530 11715640 10716210 10605850 11334980
1152.27 11473230 11015400 10277300 10683150 11591480 11128140
1158.05 10779750 11348190 11582820 11087280 11092650 12084730
1163.84 12329210 11312880 10365200 10064540 9967232 10235100
1169.62 10303590 9978860 9866784 10242650 10707220 10969980
1175.41 11193720 11277330 11261720 11640650 11926290 12079290
1181.19 12836710 13308620 13352200 13112650 13235190 14055930
1186.98 14495330 14192460 14108090 14443310 14857860 15041020
1192.76 15136010 16259530 17090610 17389500 18165260 18012240
1198.55 17995860 18468340 20216300 21767150 20579320 20346720
1204.34 20672010 20707740 21691940 23121480 22693570 21203070
1210.12 22196790 24204000 25620410 26878680 25747420 22923230
1215.91 21851820 21693930 21553710 21969050 22207810 22220940
1221.69 22903760 22938840 25538510 27077790 24553580 25104250
1227.48 26174780 22615130 19669630 20306250 24628330 26818080
1233.26 24409950 21661570 21571000 22545610 25165860 29825720
1239.05 30363910 27356930 25882560 25993740 25264560 24795880
1244.83 24672340 25020920 26234520 28736730 30023040 28995280
1250.62 28326920 28616680 29436590 29844940 30378320 31613680
1256.40 32231990 31492520 30756670 31055570 31138340 31795380
1262.19 31754540 31294360 31199740 30960050 31583930 32088270
1267.98 32682020 32486040 31525510 31400700 31320340 31466300
1273.76 31781760 31848230 31609190 31394720 32104280 32744040
1279.55 32755900 32994560 33662940 34824860 35524600 34538220
1285.33 34764310 34895380 35096420 36821500 37437280 37992280
1291.12 40221120 44971070 46641870 44819490 44897100 45297470
1296.90 45768430 46033710 47398890 48421560 50410120 52362900
1302.69 52141730 52441230 54010600 54779540 55745210 59653050
1308.47 60015800 56151220 56448910 58054830 55638780 56684900
1314.26 59840820 58285810 64964380 69560070 66132150 69357380
1320.04 76462090 75898140 70686020 69688730 66959370 66351080
1325.83 64899600 61617360 63387240 64188660 73124060 88967770
1331.61 78100050 61051970 58309190 56993900 57475530 58471110
1337.40 63240310 73976570 75066150 66496730 66492830 66068980
1343.19 76401210 96806110 95348140 88972010 79598690 71110820
1348.97 67449420 62483980 62955200 65099340 68159510 68791290
1354.76 67940840 70087910 73094280 70188140 71436170 73382780
1360.54 68575200 66361070 64492400 62933690 63096100 60476830
1366.33 59572950 59437180 61010160 67322230 68947070 67586440
1372.11 63516900 57822680 57501710 57356140 55845840 54396470
1377.90 56907060 60040280 55592970 52069890 51188060 49918810
1383.68 51633080 52608800 51689180 52541680 55441200 53511440
1389.47 49833390 49648370 49657180 49653840 49308410 48450640
1395.25 48962060 47877300 47486670 48616360 46185680 44160360
1401.04 43374820 42872030 42392820 41198930 40747590 38534780
1406.83 37871970 38255890 38819490 40179160 42543540 47616970
1412.61 48092040 44051150 39271470 37702450 39811840 40323660
1418.40 39111020 38589360 36662100 36128820 38337470 38286490
1424.18 38144100 37251920 35556850 36693640 37043870 38171820
1429.97 37349720 37517690 38454330 36449360 36459970 35921850
1435.75 36952760 34594000 31465510 30999540 29705450 28376400
1441.54 26637830 24776350 23495060 21933400 20418940 19942110
1447.32 19125350 19436770 21593710 27494250 43331560 60650980
1453.11 71290900 66140790 48872210 42271050 40151630 35058880
1458.89 33672340 35459770 37441590 36881140 36530990 35671830
1464.68 31570440 30197810 31484060 34353540 37095170 38269720
1470.47 39117770 40531880 39989350 38018000 36083860 38183700
1476.25 43531120 40931700 42712460 40363160 30067310 28058230
1482.04 28557430 28740990 26598110 27050260 29107040 27993570
1487.82 26445900 26829030 27567400 24998800 23276250 22763360
1493.61 22262250 23335500 25317170 27585780 29438560 27128720
1499.39 24770250 24532820 22180320 20398330 20341920 22670610
1505.18 25088030 24221750 21893710 21890190 24330180 25304690
1510.96 22765750 21361880 20553250 21158380 23302600 23285900
1516.75 21820860 20262090 20424580 21642300 22757770 22792930
1522.53 21070670 19504100 20028910 20058490 19597120 19583120
1528.32 18541500 18404440 18343990 17907820 18632180 18510710
1534.11 18511800 19139440 18351620 18161150 19418920 19254020
1539.89 18159110 17399520 16492230 15320480 15783640 15978270
1545.68 14741640 14037660 13874970 14153100 14223290 13641920
1551.46 12916250 13129170 13882430 13234280 12756460 14415190
1557.25 15416560 14542660 13687670 11754440 10285770 10406200
1563.03 10591720 10570090 9932210 9444166 9499574 9942716
1568.82 9832122 8824436 8100156 8213894 8502128 8369162
1574.60 9432738 9571806 7959422 7527906 7127340 6616098
1580.39 6255834 6130208 6065806 5804832 5725512 5534404
1586.17 5534614 5665530 5476816 5229582 5033156 5031280
1591.96 4939786 4802700 4725938 4670884 4722232 4569190
1597.74 4383090 4224170 4043432 3904024 3885364 3861738
1603.53 3836224 3830994 3663540 3433500 3237030 3169174
1609.32 3059020 2948234 3008766 3021858 3089364 3123448
1615.10 4406018 4837516 3247450 2692346 2555062 2523020
1620.89 2567606 3001810 3174448 2623440 2431874 2400472
1626.67 2598208 2453832 2117214 2107754 2082212 2104360
1632.46 2113482 2866074 4185292 3437890 2459830 2242518
1638.24 1926400 1893226 1828926 1805314 1861076 1823728
1644.03 2463574 3461806 2914672 2468436 2204910 1992338
1649.81 2069432 3615834 5961558 5075254 3086912 2093880
1655.60 1690150 1628192 1545534 1579794 1626704 1693316
1661.38 2180296 2137870 1654732 1621896 1599578 1580626
1667.17 1942942 2661394 2296784 1913376 1863034 1510826
1672.96 1712188 2667882 2542816 1618816 1527086 1482666
1678.74 1657672 1719146 1670434 2095872 3121550 4658010
1684.53 3613838 1697196 1627588 1584188 1630722 1638560
1690.31 1576014 1473232 1552400 1606184 3390196 4334570
1696.10 2463808 1701794 2458480 4290258 3834654 1939908
1701.88 1516268 1740104 1833964 1769318 1766966 1360720
1707.67 1217870 1295092 1391954 1256426 1266528 1428208
1713.45 1951440 2022304 2245808 3494490 3025968 1867946
1719.24 1366228 1225464 1298936 1330426 1314350 1217866
1725.02 1206588 1239786 1274164 1340784 1514058 1409300
1730.81 1405848 2344674 3473126 3225824 1867412 1299308
1736.60 1289252 1313782 1951610 1810520 1239088 1314846
1742.38 1376078 1271430 1211976 1327148 1408782 1557166
1748.17 1559920 1600468 2242918 1852776 1196254 1213370
1753.95 1122624 1319168 1577520 1327378 1180838 1163488
1759.74 1347190 1860350 1549328 1147750 1131568 1095306
1765.52 1134990 1543890 1706960 1224262 1398482 1810466
1771.31 2435500 2176090 1254524 1263836 1198134 1038692
1777.09 1087420 1098756 1239610 1273364 1098678 1046222
1782.88 1174348 1386838 1221310 1051062 1122652 1113616
1788.66 1194454 1373408 1598434 2039670 1656736 1163478
1794.45 1240780 1221858 1170720 1178208 1384674 1364808
1800.24 1280850 1312006 1196900 1099186 1081018 1044188
1806.02 1074160 1153298 1171050 1296090 1364454 1197280
1811.81 1123802 1104510 1104988 1109220 1134718 1162924
1817.59 1166922 1125744 1097334 1091642 1136010 1148060
1823.38 1351846 1568586 1324932 1233418 1313510 1556712
1829.16 1674844 1289102 1130356 1189674 1168680 1155616
1834.95 1203810 1281948 1262130 1192900 1173250 1156182
1840.73 1223384 1294744 1943100 2136900 1437352 1239768
1846.52 1241520 1212280 1161544 1143922 1149188 1130916
1852.30 1126798 1135432 1160848 1124878 1116978 1145466
1858.09 1161970 1157358 1148640 1151348 1147402 1139884
1863.88 1173980 1225986 1315082 1414902 1598016 1592500
1869.66 1322856 1217634 1169936 1138972 1155832 1169072
1875.45 1164062 1166486 1135496 1116412 1159780 1169864
1881.23 1130446 1139782 1189834 1175330 1188942 1189006
1887.02 1183324 1351628 1378390 1177442 1115908 1156100
1892.80 1164712 1200322 1213070 1166386 1152362 1171988
1898.59 1150914 1102458 1112504 1103840 1132158 1177206
1904.37 1169496 1147990 1161620 1156972 1155954 1135194
1910.16 1137334 1206886 1175620 1094032 1127180 1131990
1915.94 1194808 1455584 1303984 1088508 1134802 1187668
1921.73 1233094 1165190 1092744 1093106 1055804 1062486
1927.51 1079512 1021200 1023116 1026416 1036116 1041238
1933.30 1066388 1103198 1090052 1072724 1061928 1029822
1939.09 1016692 1039726 1179008 1219280 1123584 1078976
1944.87 1034880 1030612 1085802 1074296 990046 900174
1950.66 906960 1017360 1006370 950318 959734 1042706
1956.44 1052220 969684 888662 954342 1077420 997052
1962.23 897200 998752 1143930 1061498 1020474 1014566
1968.01 1097014 1129800 1041496 952734 1050720 1248208
1973.80 1100176 1015758 1189636 1255638 1225642 1216192
1979.58 1166468 1337746 1416362 1263972 1295276 1571756
1985.37 1525020 1523612 1642114 1617818 1971376 1934954
1991.15 1768876 2169484 2161026 2113222 2340446 2228966
1996.94 2596702 2822890 2414316 2944878 3095946 3018278
2002.73 3487586 3146998 3781648 3962056 3604110 4419582
2008.51 4070998 4530304 4734922 4476078 5594268 5037454
2014.30 5573240 5868924 5866144 6578546 5977272 7063354
2020.08 6990632 7254932 7424906 7436918 8213732 7792968
2025.87 8520102 8124572 8552158 8261236 8584860 8872510
2031.65 8785398 8853316 8794860 9077852 8766310 8801308
2037.44 8554370 8459380 8080038 8119092 8056710 7801728
2043.22 7413250 7531286 7709970 7828490 8171380 9234950
2049.01 10542940 12233990 15113800 18831040 21015470 15885280
2054.79 8109666 5785344 5669430 5759774 6054034 6350372
2060.58 7015170 7877222 8935774 10180170 11287980 12267290
2066.37 13472600 14933340 16326280 17338120 18120820 18771420
2072.15 19328550 19729450 19915450 19890020 19829520 19535390
2077.94 18824750 17956430 16974130 15834610 14446310 13063400
2083.72 11611020 9971824 8521984 7240452 5707292 4631824
2089.51 4351320 4093806 4045012 4565320 4546210 3759480
2095.29 3591180 3553288 3752754 3865626 2943562 2312326
2101.08 2454394 2749264 2760488 2805930 3033430 3385732
2106.86 3606080 3558386 3615150 3910084 4105706 4109192
2112.65 4225706 4530904 4781416 4560514 4367548 4456500
2118.43 4655154 4667550 4410212 4294806 4460250 4252026
2124.22 3927078 3888558 3754562 3403034 3145076 3155526
2130.01 3174846 3015568 2705242 2547444 2626070 2475400
2135.79 2098516 1986538 2014312 2020892 1955544 2232656
2141.58 2609628 2558136 2259330 1942584 1981950 2153338
2147.36 2294962 2805704 3159230 3098438 2821060 2444068
2153.15 2595478 2959002 2976166 2935874 3003446 2969112
2158.93 2953870 2993768 2880040 2733594 2883594 3287430
2164.72 3318828 2975690 2874998 3128196 3100820 2818354
2170.50 2869120 3159682 3178608 3074530 3309942 3362374
2176.29 3090844 3065504 3287232 3215036 2845176 2794546
2182.07 2937296 2834814 2724866 2960528 3120652 2818100
2187.86 2663228 2824542 2745884 2563048 2613734 2581884
2193.64 2421048 2463004 2572622 2464640 2395552 2485700
2199.43 2426852 2369052 2480750 2457544 2259228 2217912
2205.22 2357208 2375176 2380244 2446598 2465530 2508072
2211.00 2402474 2249978 2260078 2321754 2339152 2373004
2216.79 2427432 2383910 2348916 2440506 2451278 2325324
2222.57 2247706 2198864 2175184 2184330 2160560 2171688
2228.36 2189500 2189132 2209300 2193904 2147230 2110926
2234.14 2182544 2222148 2178860 2166822 2139632 2054798
2239.93 1965196 1958320 2028870 2051024 2003282 1974412
2245.71 1996232 2014078 2034234 2057406 2035552 2093236
2251.50 2165970 2154804 2208484 2207042 2071566 1985132
2257.28 2008444 2054270 2070828 2087728 2128098 2122686
2263.07 2035204 2012716 2048812 2101782 2161116 2134566
2268.86 2131714 2121116 2117086 2148140 2147690 2132068
2274.64 2140772 2181774 2233416 2252772 2208094 2236872
2280.43 2257342 2212642 2202764 2251756 2282260 2332574
2286.21 2403598 2426240 2450850 2437622 2401992 2421794
2292.00 2438350 2501786 2545446 2541600 2523844 2547054
2297.78 2573150 2600590 2628684 2574602 2559574 2552592
2303.57 2554140 2528026 2485910 2536852 2588286 2599000
2309.35 2648414 2710300 2814838 2880284 2878190 2839730
2315.14 2774826 2772238 2777070 2744764 2714352 2724182
2320.92 2788070 2904110 2975742 3016498 3090152 3149006
2326.71 3087574 3155780 3318282 3251030 3040222 3000856
2332.50 3109246 3135684 3076948 3053148 3119442 3293126
2338.28 3318168 3283776 3272926 3310346 3449274 3573616
2344.07 3652858 3686312 3811950 3632194 3417728 3398342
2349.85 3437662 3539436 3470072 3421174 3577854 3581372
2355.64 3533400 3655156 3732762 3615186 3540116 3680312
2361.42 3847666 3832782 3804294 3859810 3737180 3597514
2367.21 3606940 3697170 3753578 3922828 4161514 4330112
2372.99 4238228 3897494 3691636 3781980 3930034 3926504
2378.78 3799240 3654080 3702928 3802444 3681660 3484744
2384.56 3468340 3551756 3668506 3692430 3626728 3647582
2390.35 3760142 3814220 3964710 4161310 4018602 3706510
2396.14 3579132 3688138 3916074 4123874 4130916 3867648
2401.92 3725110 3902216 4205952 4353504 4366544 4323550
2407.71 4149064 4031360 3987436 3917346 3889164 4013344
2413.49 4077324 4085222 4087486 3886458 3740934 3696144
2419.28 3494988 3407616 3500910 3529330 3539678 3659496
2425.06 3796348 3735938 3566784 3470248 3443890 3334648
2430.85 3191010 3204960 3268864 3231560 3139164 3113854
2436.63 3063320 3040468 3097074 3112614 3064054 3141536
2442.42 3111870 2979766 2978992 2851604 2738458 2767194
2448.20 2887414 3078170 3005396 2780166 2773516 2808078
2453.99 2785924 2743990 2701846 2701352 2740826 2758708
2459.77 2767524 2738826 2643070 2577818 2588504 2683500
2465.56 2621668 2605410 2653098 2619150 2650880 2817530
2471.35 2819730 2586734 2515594 2475434 2443908 2420186
2477.13 2456622 2480402 2406334 2458554 2562446 2566694
2482.92 2573956 2637702 2605866 2521652 2474258 2470266
2488.70 2557380 2591872 2575380 2546832 2501588 2518492
2494.49 2589034 2573684 2447948 2443266 2533712 2617944
2500.27 2529926 2442586 2474878 2457354 2371612 2372292
2506.06 2458196 2506706 2536790 2543816 2550210 2487536
2511.84 2544038 2579540 2556226 2582296 2617776 2648368
2517.63 2691918 2708924 2732150 2776392 2799682 2863546
2523.41 2882660 2990928 3054404 3039146 3039380 2966500
2529.20 2908824 2897690 2951980 2987646 2983414 3012296
2534.99 2972654 2991366 3013064 3058654 3187490 3199764
2540.77 3136570 3113048 3078746 3015546 3015066 3032872
2546.56 3097654 3084286 3023824 3025090 3036692 3203100
2552.34 3339816 3326738 3309064 3271770 3139992 3043824
2558.13 3022994 3148080 3345270 3347450 3242196 3232302
2563.91 3276316 3337946 3348122 3306128 3348350 3460396
2569.70 3576418 3598230 3612648 3728736 3833692 3818182
2575.48 3709970 3728082 3848500 3866460 3853290 3941688
2581.27 4152256 4253116 4140054 4114772 4379680 4499384
2587.05 4411282 4419360 4515294 4653910 4776042 4917902
2592.84 5125676 5212044 5061952 4988442 5031088 5166258
2598.63 5228412 5164454 5017364 4934736 4943246 4808816
2604.41 4838976 4990014 5032118 5012088 4925504 5000822
2610.20 5180438 5459032 5563670 5289908 5212348 5283248
2615.98 5227604 5309224 5692072 5719066 5538850 5624512
2621.77 5671852 5653964 5667306 5838564 6029344 5984384
2627.55 5839038 5705390 5881366 6194474 6070388 5840102
2633.34 5851290 6021910 5848698 5688216 5695448 5465460
2639.12 5332722 5462418 5404588 5003338 4882846 5074232
2644.91 5082034 4902972 4953836 5433028 5706274 5415416
2650.69 5172398 5094254 4966796 4982052 5034888 5021788
2656.48 5073576 5244146 5370210 5462142 5376980 4937562
2662.27 4755962 4904600 5144074 5378784 5237208 5106432
2668.05 5205086 5283236 5539410 5576524 5368098 5182236
2673.84 5077576 5146502 5202478 5258810 5361706 5479344
2679.62 5337522 5208376 5182756 5092196 5024906 5092206
2685.41 5100844 4996832 4919646 4790724 4756602 4816062
2691.19 4946076 5038506 4972910 5149170 5186972 5130374
2696.98 5227346 5250400 5309878 5320112 5402668 5378748
2702.76 5324552 5440022 5418426 5362506 5338322 5368842
2708.55 5534894 5736294 5743662 5541198 5462860 5524752
2714.33 5531212 5390948 5284814 5328972 5532742 5764100
2720.12 6043804 6129940 5988986 5979116 6027166 6282718
2725.91 6670918 6787816 6527408 6488192 6537232 6576736
2731.69 6836864 6990356 7268682 7494416 7992904 8694092
2737.48 8687904 8463350 8536082 8657414 8726538 8812562
2743.26 9014778 9268452 9513036 9623772 9766564 10143340
2749.05 10540320 10835180 10922120 10896820 10640990 10801170
2754.83 11198920 11531140 11515180 11593830 12006260 12246580
2760.62 12288680 12339280 13000210 13725360 13752160 14052660
2766.40 14426470 14728270 15174350 15692190 16438880 16774030
2772.19 16997580 17339070 18107940 18987410 18910320 19093510
2777.97 19684460 20545400 21679280 22607970 23228540 23595460
2783.76 24783730 25771220 25690070 26475420 27888010 29169030
2789.54 30017840 31914410 33911900 35182410 35493140 36575660
2795.33 38788280 40690900 42720500 46057890 48243350 49806960
2801.12 52876450 56159410 59072430 62055720 65326580 69108950
2806.90 72697230 76926390 80648900 84630920 89027740 93118020
2812.69 97600520 102448900 106997900 110651500 114901300 117837300
2818.47 122756800 128270200 130322300 131809900 132462300 133231100
2824.26 135326800 136409600 135401100 133970600 133174200 132085500
2830.04 130002100 128546400 124032300 119747100 120257800 114636400
2835.83 110806600 116109700 125673400 127331500 127579900 153590600
2841.61 186062500 220352300 223667300 189099500 161174500 139094100
2847.40 129058300 118719900 111453100 114222400 117950300 123357000
2853.18 133476900 142436200 151316000 162125900 170345200 177603600
2858.97 185074200 191148800 195607200 201858300 206531400 207571700
2864.76 208616500 206289700 202563600 202046000 197923400 194400600
2870.54 194706100 193170000 185456100 185401400 186803400 175411700
2876.33 170751700 167399600 161058200 163405300 166777300 157265200
2882.11 148727500 145544800 140445100 144714100 154069200 150789900
2887.90 139934000 138671100 138459700 150549200 171990200 165143400
2893.68 153267200 152704000 152855300 158277100 164641900 171606300
2899.47 171466100 182747400 197042300 188242000 184906500 189392900
2905.25 194887800 204291200 217484600 225607500 221935300 222175800
2911.04 224087700 228392100 239312000 242447900 245939500 251126300
2916.82 259955900 281225800 301224500 302530000 300744200 309399700
2922.61 315381600 302305700 284618000 273694300 262057300 270348600
2928.40 274725100 263742700 265831600 274896900 285676300 297513600
2934.18 305467800 313601300 318985700 313839200 313795800 318327400
2939.97 309195000 313365500 316115700 306177600 302300000 301013600
2945.75 309061300 308409400 313650800 320381500 310735100 313970800
2951.54 309339600 301875100 301932400 295297700 287667800 311362400
2957.32 322548700 298064100 284172500 284474800 296951400 315616300
2963.11 319201400 327279500 335012900 343587600 350409500 326282500
2968.89 308410300 323825000 342713300 352550800 350189300 336119300
2974.68 314292800 303099300 306656100 303241500 320613300 336257400
2980.46 368826700 356554500 298950500 283625700 279918900 279554400
2986.25 269713800 263447600 253543000 236157400 240995700 249837000
2992.04 239760300 213815600 206035400 215778900 211555900 186590400
2997.82 173631600 178288300 192327300 195596600 182655200 177635100
3003.61 188328400 212626000 197157400 175704400 180559500 189732600
3009.39 199699900 185824000 167890400 162271300 159202700 161856400
3015.18 168320900 156814100 137917800 128558000 126664400 126042000
3020.96 130744500 142895100 133734200 113884300 114744800 116033900
3026.75 110162700 116699300 115836700 109045400 116055100 112936600
3032.53 104147800 96710560 95370000 98263740 91526830 84242950
3038.32 80520120 79051930 82468900 86703430 82113120 76025270
3044.10 69590460 67774340 67372730 61860990 60323620 57069960
3049.89 51421230 50726060 54192200 54301600 50952980 48914590
3055.67 46674910 44268760 43578220 43051360 42543470 40089000
3061.46 38572900 38620640 37954030 37211580 36304810 34767720
3067.25 32261920 30537790 29032110 27802220 26889300 26192980
3073.03 24701350 24055500 23690050 22405710 21178710 20609510
3078.82 20201620 19544810 18428040 17291950 16479420 15754220
3084.60 15023170 14452050 13867980 13539040 12889010 12206740
3090.39 11830010 11320880 10704270 10215210 9711084 9428678
3096.17 9273246 8943964 8449144 8125180 7752508 7479236
3101.96 7280360 6997010 6816896 6611866 6254946 5974816
3107.74 5787220 5607984 5400138 5166528 4911178 4757294
3113.53 4499750 4324232 4351972 4378024 4374024 4189824
3119.31 3959434 3873116 3800330 3712742 3524152 3365730
3125.10 3360768 3458052 3408066 3307098 3259698 3260370
3130.89 3368154 3303224 3084294 2943950 2875812 2918182
3136.67 2930408 2679444 2581552 2690640 2612636 2713398
3142.46 2825388 2671146 2564618 2474298 2406330 2440488
3148.24 2494250 2433786 2343648 2299956 2308588 2428658
3154.03 2436442 2458652 2423642 2402330 2345462 2389064
3159.81 2543148 2588946 2844566 2674978 2351102 2553902
3165.60 2660482 2409450 2210720 2212088 2362128 2503052
3171.38 2332442 2211274 2183936 2176342 2124092 2135630
3177.17 2302988 2323044 2329812 2312692 2257002 2172404
3182.95 2136254 2197062 2227930 2243236 2220912 2188942
3188.74 2089472 2223722 2471104 2325456 2101012 2054880
3194.53 2049812 2085956 2029206 1941702 2012962 2165240
3200.31 2193402 2231074 2194076 2066308 1978400 1930570
3206.10 1848116 1906348 2087940 2043128 2029986 2120008
3211.88 2018688 1910814 1922556 1954518 1866620 1808194
3217.67 1811760 1836410 1941196 1966954 1908068 1930566
3223.45 1937918 1843618 1860476 1893150 1827866 1799042
3229.24 1726628 1709186 1782888 1750010 1748862 1738856
3235.02 1793632 1745954 1699654 1767870 1708962 1622274
3240.81 1599168 1652100 1636202 1693032 1832334 1752808
3246.59 1711530 1769168 1673778 1561116 1519138 1530442
3252.38 1608072 1628792 1585842 1606756 1575586 1539922
3258.17 1515112 1595618 1684496 1704002 1648002 1547858
3263.95 1522390 1627604 1680070 1553592 1518304 1580760
3269.74 1442850 1443296 1449714 1374272 1402328 1502214
3275.52 1546130 1359118 1395588 1485456 1522104 1529060
3281.31 1447148 1490520 1537410 1412840 1422504 1491720
3287.09 1455202 1479970 1372294 1326640 1396096 1456740
3292.88 1431444 1268472 1258694 1376446 1437366 1437340
3298.66 1386134 1385070 1395306 1434732 1389936 1276390
3304.45 1227852 1245248 1385888 1380250 1308338 1358038
3310.23 1410576 1369952 1383830 1385322 1321814 1384446
3316.02 1456542 1367948 1329012 1383296 1366434 1413890
3321.80 1315208 1285006 1273258 1388918 1486434 1446656
3327.59 1533948 1505628 1498196 1410438 1383288 1484542
3333.38 1410138 1365028 1430654 1474160 1450426 1494148
3339.16 1588466 1502212 1463970 1635780 1613222 1546160
3344.95 1600420 1551830 1646408 1690634 1499908 1507710
3350.73 1663846 1666148 1605322 1720736 1658126 1475814
3356.52 1487788 1535136 1539814 1620146 1699534 1658676
3362.30 1770442 1932470 2009490 1883904 1662858 1542698
3368.09 1570466 1689042 1764422 1679398 1674446 1789880
3373.87 1841532 1817676 1839986 2266508 2264500 1946454
3379.66 1890410 1879572 1830836 2029852 2300496 2140628
3385.44 2011960 2038126 1953400 2050888 2106922 2082096
3391.23 2186636 2138274 2129024 2180242 2136438 2146510
3397.02 2230922 2021144 1828250 1871910 2164680 2367168
3402.80 2459472 2275958 2019520 2056246 2024636 1998034
3408.59 2400198 2629702 2322204 2263788 2306514 2343426
3414.37 2327688 2370878 2500406 2701864 2843302 2687592
3420.16 2503836 2411892 2350780 2344038 2383478 2388874
3425.94 2508328 2727394 2794546 2860858 3126388 3696578
3431.73 3698724 3012026 2844184 2920162 3007244 3003934
3437.51 2835006 2811830 3055198 3501278 3865048 3702308
3443.30 2976462 2736052 2632252 2733206 3514248 3768066
3449.08 3305848 3265898 3574048 3320852 2824958 2807720
3454.87 2742660 2819088 3249982 3848072 3754124 3030958
3460.66 3137390 3198358 2972874 3298462 3547498 3232106
3466.44 2970960 2911456 2951832 3144952 3568916 3508428
3472.23 3056694 2978924 3224086 3306476 3504280 4023678
3478.01 3936384 4081568 5121698 5192042 4424464 4362988
3483.80 4485874 4529714 4643764 5278056 5557074 4607406
3489.58 3964320 3823602 4054764 4834804 4472596 3834886
3495.37 3791866 4046732 4296514 4170856 3725716 3308948
3501.15 3388684 3543318 3904888 4855848 5324442 4174208
3506.94 3426748 3612012 3539646 3785262 4826312 5203806
3512.72 4185738 3313468 3322426 3428568 3590216 3885220
3518.51 3920418 3836328 3655472 3783710 4749438 5079800
3524.30 4188610 4731096 5076018 3957534 3515440 3474276
3530.08 3870324 4043784 4630834 5223056 5881080 5804824
3535.87 4470120 4112006 6246426 7458042 6398348 4849498
3541.65 3728278 3774816 4109662 5025216 4833284 4424728
3547.44 4201284 3866424 3960604 4199808 4287744 4403012
3553.22 4908470 5402312 5096322 4691932 4651366 4526860
3559.01 4657664 4939702 5125682 4883726 4760564 5123028
3564.79 5856964 8565372 10395110 7790606 5644110 5711120
3570.58 5392042 5451482 6173760 8101642 9470116 7922986
3576.36 7798844 7636766 6986730 7756010 8115688 7503254
3582.15 6539802 6850904 7105238 8141078 8455868 8082132
3587.94 8107422 7612718 7559060 7562966 8126294 9184650
3593.72 9882326 10064180 9484878 9355092 9993376 10132440
3599.51 9601896 9629038 9603390 9398134 9745740 10408360
3605.29 11201850 11564710 11955770 12482390 12491100 12433270
3611.08 13976670 16517700 16984020 16238390 16143940 18832380
3616.86 19398600 16533710 17732020 20517120 20452700 18676760
3622.65 18257910 19326760 21513840 26558240 30783750 30759350
3628.43 28082380 27156120 29162180 29471750 30032420 30227320
3634.22 29680540 31777980 35820660 38800330 39213300 38811220
3640.00 42049430 49005860 50900690 54113000 61302910 58563520
3645.79 53505690 55269600 59586560 64050160 69230330 74001220
3651.57 76324320 74940440 74796290 76899100 80689180 87529080
3657.36 90246680 86440550 84287340 85623300 93702790 101748000
3663.15 96278790 90737310 96853160 98615940 93055350 88765690
3668.93 83156620 83022490 88745740 89995250 82990330 81137310
3674.72 80909650 86016720 83825570 83148260 99237430 133134800
3680.50 140292600 98258300 76026860 79810790 76061560 60462850
3686.29 60904110 61584550 57840540 64807180 70522870 79974440
3692.07 91879670 95368840 99837100 102509600 101596700 101037100
3697.86 95974740 94329270 95356470 98251060 97624680 94717620
3703.64 98607940 105327600 105616600 98052580 98165130 100267600
3709.43 94243090 91441100 94637920 98540480 94925840 85175410
3715.21 81763550 81057780 78186770 79933250 80813330 76613080
3721.00 69793940 64547720 59872320 55181870 54402780 51306450
3726.79 46422280 46304100 47777800 45461440 44489190 43097380
3732.57 38551120 34286540 30759680 29621230 29170620 30386890
3738.36 28676090 25438370 23672520 21080210 20603720 22563760
3744.14 21945960 20179760 18957290 17740470 22240840 21604040
3749.93 16552590 17222090 17919210 17784310 14873880 13070520
3755.71 13729160 16725640 20047010 15653600 12032660 12580440
3761.50 11924210 12915770 15921250 15898470 13504680 11089760
3767.28 10131100 10265770 9834346 8924800 8744380 8537634
3773.07 7941730 7746260 7605202 7998706 8496402 8352332
3778.85 7690356 7270194 7405500 7914562 7571516 6596052
3784.64 6147004 5959836 5907514 6049590 6075356 6658024
3790.43 7423976 7166154 6640216 5995132 6465780 9010198
3796.21 8424602 6067124 5799646 6252538 7728352 7406946
3802.00 5992498 5622130 5560652 6354794 7242396 6880384
3807.78 6621150 7290414 8708742 8728622 7166612 6228938
3813.57 6694504 8528026 7612840 5470894 5080228 5111328
3819.35 5737252 6464066 6127490 7593002 9219432 7203492
3825.14 6149464 6273526 5610232 5343756 5396338 5633250
3830.92 5803310 5502492 5833264 6569908 6217590 6466350
3836.71 7938008 7300944 6641312 7146728 8389082 9422404
3842.49 7779878 5935552 5445268 5453698 6108082 6584014
3848.28 6314526 5776066 6883760 8446744 10061700 12155720
3854.07 9090116 6267618 6519540 6462780 6552276 6321904
3859.85 5978368 6441276 6915326 6820666 7212292 8192424
3865.64 8452752 7864184 8184136 9046194 8697688 7771432
3871.42 7583796 6985462 6231914 5756492 5610702 5493374
3877.21 5061104 5244266 5852904 5673002 5423594 5945100
3882.99 6036484 6609016 7303756 6770538 6487992 7230870
3888.78 8580118 8549192 7789886 7744882 8567330 8726034
3894.56 7669022 6970126 7072708 7756236 8361930 8280914
3900.35 7998974 7154738 6730414 6812462 5997186 5519074
3906.13 5292858 5223102 5461110 5527152 5217118 4821122
3911.92 4670156 4808738 5099916 5216608 5209458 5126472
3917.70 5148032 5806234 6361730 5873988 5532640 5880908
3923.49 5616364 5178088 5048140 5070126 5188330 5288850
3929.28 5209928 5098238 5538466 5930716 5635728 5166706
3935.06 5058826 5188964 5305602 5674096 5912920 5700752
3940.85 5929050 6448268 6288598 5958324 6221082 6494592
3946.63 6138764 5604554 5442822 5429548 5691962 5852066
3952.42 5433822 5258236 5438790 5485884 5483206 5518606
3958.20 5428254 5358884 5541696 5797678 6034956 5988952
3963.99 5803836 6023826 6050196 5817336 5696612 5927364
3969.77 6186262 5838596 5566994 5503880 5560558
##END=
