##TITLE=Methanol
##JCAMP-DX=4.24
##DATA TYPE=INFRARED SPECTRUM
##CLASS=IUPAC A
##ORIGIN=NIST, Anayltical Chemistry Division, 301-975-3108
##OWNER=COPYRIGHT (C) 1998 by the U.S. Secretary of Commerce
##DATE=98/10/1
##$SPECTRA VERSION=1.00
##$UNCERTAINTY IN Y=2.0 % relative (B=1.0E-04,C=6.6E-10,D=2.7E-14)
##CAS NAME=Methanol
##CAS REGISTRY NO=67-56-1
##MOLFORM=C H3 O H
##MP=-93.9 C
##BP=64.96 C
##$NIST SOURCE=QUANT-IR
##SPECTROMETER/DATA SYSTEM=IFS66V (Bruker)
##INSTRUMENT PARAMETERS=KBr Beam splitter; MCT Detector; Multipass cell
##STATE=gas
##SAMPLE DESCRIPTION=Methanol Primary Gas Standard
##PRESSURE=101.3 kPa
##TEMPERATURE=23 C
##SAMPLING PROCEDURE=1 L/min Flow
##RESOLUTION=0.9640
##DATA PROCESSING=Triangular Apodization
##XUNITS=cm-1
##YUNITS=(micromol/mol)-1m-1 (base 10)
##XFACTOR=1.0
##YFACTOR=4.5474E-13
##DELTAX=0.4820
##FIRSTX=575.169
##LASTX=3975.077
##FIRSTY=2.65E-06
##MAXX=3974.59
##MINX=575.17
##MAXY=.0008753
##MINY=3.75E-07
##NPOINTS=7053
##XYDATA=(X++(Y..Y))
575.17 5836330 6183392 5151120 4868332 6069452 5017790
577.58 5085434 5549922 4153180 5327256 6652610 5787090
580.47 6998304 9137590 9832612 10449420 8930300 6131438
583.37 5136590 5206452 4897712 4165940 4014132 3780730
586.26 3793770 4402594 4916240 4608608 4677890 5626178
589.15 5444778 4901712 5115920 5040460 4826460 5442730
592.04 5286766 4587146 6422304 6258434 4375980 4611112
594.94 4563394 3985090 4640652 5288960 5105470 5651666
597.83 6785746 8454290 10098440 8907232 6030756 4238282
600.72 3664362 4213672 5066292 5379852 5346756 5267936
603.61 4567348 3676390 3604162 3479590 3695688 4139040
606.51 3271344 3363816 4206806 3658248 3767760 4490116
609.40 4308476 4953864 6395494 6816930 5309034 3682192
612.29 3587228 3740328 3453130 3641704 3904202 4014788
615.18 4578506 5211930 5994706 7552272 7871612 5232458
618.08 3802564 3461602 3106646 3244570 2883554 2524164
620.97 3024962 3860684 4240482 4693316 5216818 5715160
623.86 4622762 3369348 3175060 3018810 2889654 2583340
626.76 2793230 2785740 2710880 3200140 3402118 3004942
629.65 3131402 3942926 3413488 2858976 3297714 3074950
632.54 2975402 3515004 3363188 2885994 3291708 3409858
635.43 2856718 3223930 3393662 2602340 2518474 3692618
638.33 4003634 3145934 3343234 3653844 2945892 2971760
641.22 3649496 3536048 3300812 4094996 5173164 5221312
644.11 4229104 3402264 3293920 4015258 4636030 4549378
647.00 5703910 5908202 4199046 4215774 5099418 4549958
649.90 3884218 3983168 3658084 3311558 3879188 4454474
652.79 4414042 4922398 5650814 5689864 6449442 8252398
655.68 7915900 6377380 5486752 4511882 4131268 4729776
658.58 4987094 3638264 2928532 3360460 3471740 3167194
661.47 3114326 3164484 3076878 3160786 3172512 3000970
664.36 2696412 2177062 2101706 2931894 2980810 2584256
667.25 3101314 3215992 3093024 3276388 3079674 2890578
670.15 3097382 2975882 2952462 3328724 2987156 2913122
673.04 3480072 3204188 2919286 3385220 3292584 3134344
675.93 3396752 3504542 3112720 3054130 3526630 2925740
678.82 2678894 3512358 3361952 2779564 3139918 3445272
681.72 3238248 2945862 2870892 2975476 2736000 2577568
684.61 2968046 3255276 3100516 2811798 2988208 3071160
687.50 2771864 3035560 3464948 3789964 4546676 5398560
690.40 6181548 6934192 7756848 6525180 4687634 4685078
693.29 5214410 8541018 8387284 4412422 3373212 3501034
696.18 3745936 4020302 3541258 2759588 2811830 2675822
699.07 2612114 2830830 2912134 2764634 2711690 2947816
701.97 2697384 2496048 2720440 2968346 2716064 2488238
704.86 2855414 2817232 2740020 3122466 2859142 2517866
707.75 2444708 2822232 3280738 3123962 3233994 3560020
710.64 3514072 3390194 3228652 3123800 3353328 3379714
713.54 3061880 2975278 3196080 3248906 3164496 3151824
716.43 3207472 2994954 2718614 2975300 3022886 2892580
719.32 3128576 3254654 3269664 3244814 3323210 2972350
722.22 2641792 3145138 3299334 2845646 3049722 3167726
725.11 2689234 2621962 2778236 2689088 2705206 2854270
728.00 2690266 2403064 2584392 2629616 2386828 2670174
730.89 2773246 2816060 3190544 3633666 3932784 4118910
733.79 4382506 4853818 6002606 8019466 9793862 9791026
736.68 7584258 4222452 2607224 2320206 2185302 2187418
739.57 1999282 2045238 1941808 1924184 2176350 2261648
742.46 1967728 1960604 2160264 2086572 1988370 2160452
745.36 2478252 2820482 3085414 2894610 2515046 2832322
748.25 3108906 2663352 2877220 3269808 2809722 2473108
751.14 2818406 2737020 2638770 3123196 2944780 2572572
754.04 2807836 2680920 2304772 2728282 2679896 2291784
756.93 2750918 2878162 2481142 2651170 2764672 2440624
759.82 2489710 2553408 2242956 2535198 2756120 2323846
762.71 2431476 2622626 2276604 2593242 2842338 2353940
765.61 2349252 2511360 2150772 1983918 2394754 2202122
768.50 2048602 2600404 2345878 2044220 2349656 1989108
771.39 1694556 2032130 2140210 2316488 2276764 2014368
774.28 2152600 2169052 2308710 2715184 2662006 3871668
777.18 5203392 4697258 4824972 5828952 6445204 5945138
780.07 5476172 4213326 2331244 1887030 1867786 1667772
782.96 1494538 1511226 1470162 1322846 1363962 1545514
785.86 1531478 1313600 1442220 1626746 1289482 1500664
788.75 1993956 1761702 1726430 2156782 1899202 1535926
791.64 1961180 2155988 1787242 2037960 2192540 1913236
794.53 2276628 2399198 1901722 1835214 2031020 1822362
797.43 1816718 2223658 2010708 1765174 2119414 2062640
800.32 1708982 2136474 2234830 1855618 2128334 2172342
803.21 1801380 1723822 2135522 2379222 2492738 2606726
806.10 2190560 1860864 1840022 1904386 2097836 1939676
809.00 1894632 1929080 1771464 1684320 1651400 1673590
811.89 1850690 2040068 2053390 2092066 2023180 1979024
814.78 1890514 1891980 1903642 2073688 2168328 2025024
817.68 2294826 2785788 3219424 3786884 4340710 4227650
820.57 4198626 3620156 2444804 2243806 2178656 2190938
823.46 2693766 3052386 2807268 2131874 1865346 1934628
826.35 1992248 2397932 2732504 2589490 2189766 2137862
829.25 2146134 1900992 1884662 1954116 1859898 1708668
832.14 1705186 1818536 1913284 2074940 2000822 1713140
835.03 1847930 2123032 2135302 2348002 2385854 2035038
837.92 2301208 2658196 2345446 2144978 2258032 2233268
840.82 2181046 2315982 2336634 2202460 2194642 2337154
843.71 2307044 2477344 2520214 2546648 2736184 2462946
846.60 2235814 2294072 2257698 2235768 2209268 2098146
849.50 2162586 2257454 2088248 2111186 2275206 2327276
852.39 2457372 2369926 2290552 2413258 2395498 2250402
855.28 2339866 2499812 2361176 2263638 2551184 2964786
858.17 3165382 3536344 4153562 4222434 3338662 2477048
861.07 2193498 2205644 2166244 2146980 2186726 2266278
863.96 2393652 2422882 2423390 2604894 2818784 2838592
866.85 2678324 2499240 2718646 3103800 2898804 2595394
869.74 2604166 2645774 2920550 3228336 3400338 3727438
872.64 4081782 3692760 3174692 3092782 2963782 2893008
875.53 3000096 2923864 2724230 2719058 2732966 2777870
878.42 2974968 2984682 2674648 2729534 2784410 2791066
881.31 2800758 2621906 2565146 2697546 2727264 2744316
884.21 3051818 3225764 2953690 2748866 2799368 2912414
887.10 2853392 2790738 2885262 3014098 2858724 2693576
889.99 2831902 2823282 2829892 3165010 3123906 2859262
892.89 3180836 3385676 2994668 3111010 3442078 3217450
895.78 3189054 3711802 3685764 3394138 3820078 4303016
898.67 4962482 5318474 4631532 3761446 3289308 3372998
901.56 3345976 3215752 3361938 3410432 3313286 3313228
904.46 3397508 3573292 3738220 3779550 3990634 4162134
907.35 3897700 3952050 4334904 4216176 4121696 4074304
910.24 3794388 4130764 4416594 4379334 4607252 4662972
913.13 4351934 4310776 4508864 4459904 4554390 5210282
916.03 5242774 4725156 4592628 4857710 5027546 4881222
918.92 4817260 5184690 5416654 5154376 5282724 5649456
921.81 5392518 5272292 5601420 5948194 6045960 6233832
924.71 6325842 6245396 6336662 6382660 6702022 6819176
927.60 6548848 6631112 6857216 6865826 6577190 6865626
930.49 7276872 7065796 7333664 7961068 8032376 7675346
933.38 7518508 7756434 7293928 7006050 7826068 7777532
936.28 7129574 8049400 8561214 7934732 8660092 9633592
939.17 8874224 8677250 9932722 10106820 9137830 8906918
942.06 8718400 8553028 9282194 10069170 9595288 8828228
944.95 8855226 9474846 9709314 10027560 10148660 10107390
947.85 10296000 10316870 10227610 9791232 10559330 12836630
950.74 13337980 11867800 11546590 12513240 14167730 14481760
953.63 13933800 13501000 14737350 17173970 15721640 13808710
956.53 14474720 17499720 17993690 16782160 18655660 19173080
959.42 20139150 22850340 22342870 20272850 20978040 25663270
962.31 26162210 22820830 22646640 26519850 29994740 29334270
965.20 26699310 26868910 33579980 38459520 35211600 33130190
968.10 39798540 46997740 45031940 38001530 37519240 47512370
970.99 56469170 50983340 42306470 48692870 66217880 68477340
973.88 52549020 51441900 71460320 85060860 70055240 58089700
976.77 73559980 99054480 95439280 71475220 77287350 111510100
979.67 124560000 92931310 84110980 116831900 143715600 120722400
982.56 98459220 122891700 159749200 155060100 118455500 129038600
985.45 173735700 191366700 148720600 141506900 187505200 223359700
988.35 186728700 160366600 201115600 253108300 231300600 185620600
991.24 216385600 280350200 276813300 217316300 232937700 306422500
994.13 323277900 256517900 251558000 329011300 365831900 299128300
997.02 273298400 352891600 411251400 343943900 294923800 378846400
999.92 457710600 386845500 318007100 409420300 501990400 421060700
1002.81 343384700 449667300 542879800 443952700 364811600 483824000
1005.70 571010000 458619400 390069600 522093200 590294300 462062700
1008.59 412841500 553868100 593820200 456078400 437859400 583878700
1011.49 586320100 444051300 462109500 597670000 554271600 426802300
1014.38 491843000 603517900 510946000 419781100 525236300 578854700
1017.27 456009000 421844000 522362900 496661900 378992700 417733300
1020.17 493198300 406716300 341838600 408536100 402895500 307668100
1023.06 305196800 362769200 325199600 267465200 292153500 294629800
1025.95 242388000 261474000 295367200 251154100 235099600 273441600
1028.84 281380900 300151200 369694000 460646400 573635600 750096100
1031.74 1014682000 1454251000 1912161000 1924911000 1330808000 605406100
1034.63 302959300 261666800 243211400 223798200 205412700 188441700
1037.52 197139500 223165900 200852900 199220400 245460600 257027100
1040.41 254422500 301596200 329942100 312993800 344304500 404792300
1043.31 393636700 402660000 475381800 467574600 465186300 553882200
1046.20 548665300 528375600 617566700 611344400 581303700 677952300
1049.09 667503300 628889900 728978500 708134800 667046700 768245800
1051.99 727724100 690942300 790107100 730735900 711848900 795354000
1054.88 721518000 729006600 779446600 702900400 729386200 738195300
1057.77 682416800 713896600 687106800 662578700 678548700 635660400
1060.66 630450400 622418600 589038800 587042900 563613400 544165800
1063.56 531786400 507728400 490279900 466257400 451831300 429946700
1066.45 410652400 398984600 370996200 362229100 342442800 315963900
1069.34 309787700 284305100 271872500 258327700 240847800 228270100
1072.23 213603400 202818000 187387400 180476000 159137700 148667100
1075.13 133701800 123918400 116259600 104430800 98917140 89712960
1078.02 83716620 76758560 72109690 67878600 62097300 55707700
1080.91 54062600 49537770 44113420 42219830 39651760 36248490
1083.81 35050940 33443790 31291850 29949870 28225740 26866760
1086.70 25942500 23617170 23620390 24899360 23158140 22211610
1089.59 23797960 23178600 21401980 22922450 24549310 23948290
1092.48 25371770 28023260 27410830 23904580 22972580 22430290
1095.38 20914410 20685120 22744650 24993900 22230950 20237000
1098.27 21216110 20434820 19500390 20451960 20431880 19368770
1101.16 19455230 19672400 19367170 19088000 19403570 19457840
1104.05 19318240 20269300 21255560 21634870 21487810 20418410
1106.95 18706240 18819280 21118120 19922580 17990550 18431670
1109.84 18951480 18870300 19637860 21013480 18741330 17357050
1112.73 19346200 22050940 23021150 22371100 21732860 18896410
1115.63 17156930 17898040 16753500 16028910 17095160 16179160
1118.52 15499700 16524330 16144870 15817870 16980650 16588140
1121.41 15388460 16132630 16637130 15813140 16155840 16763520
1124.30 15305050 14387360 14818520 15015640 14601190 14058590
1127.20 14089330 13644700 14152790 15681360 14480240 13149810
1130.09 13605840 13439080 12976900 13450170 13393150 12360710
1132.98 12562620 13317510 13390060 15530200 17406380 16725010
1135.87 15033380 14071660 13889140 12710650 12739430 12233370
1138.77 10760590 11949990 12666630 12645420 16900320 17613790
1141.66 13508130 12109470 12409750 12660680 12806380 13619730
1144.55 12838500 11443730 11459160 11108060 11032750 12122700
1147.45 12385090 11632250 11851150 12112480 10881180 10052700
1150.34 10160820 10135690 10459520 11766210 11625270 10464930
1153.23 11680080 11602850 9444804 9701652 10620450 9899320
1156.12 10662570 12405800 11813010 10381420 10261230 10739280
1159.02 10860090 10976580 11538740 11820020 11239670 10765730
1161.91 10401090 10821390 11462680 11853420 12646970 12844480
1164.80 11609180 10882850 11048980 9809268 9442068 10337190
1167.69 9931376 9204584 9772808 10447500 10276370 9920670
1170.59 9975424 10082080 9447086 9214782 10080370 10201120
1173.48 9887512 10724760 11101690 10488130 10656940 11522620
1176.37 11229980 10660080 11218610 11379880 10869110 11251200
1179.26 12045310 12009860 11643450 11430750 12198660 13297850
1182.16 13098030 12642400 13602570 13884300 12441280 12804900
1185.05 13486980 12548460 13020860 14565690 14511030 14008180
1187.94 14668400 14353660 13151010 13917220 14843550 13802110
1190.84 13899070 15615070 15196930 13856320 15029820 15918870
1193.73 14344790 15224750 18447560 17626730 15400910 17288580
1196.62 18845850 18048240 17523630 18274010 18209210 17114190
1199.51 17730290 18931030 18776960 19119040 21944530 23427130
1202.41 21482620 19463830 19601890 20839610 20909530 19929480
1205.30 20470700 21182990 20148160 21274060 23396410 22915100
1208.19 23344680 23722940 21830830 19361740 20394090 23709040
1211.08 22931260 22363810 26668860 27147630 23684070 27585030
1213.98 30237400 24948250 22540760 23793300 22565510 20055930
1216.87 21453340 23107040 20761710 20309470 22532920 21966170
1219.76 21279220 22679840 22718800 20791650 21922570 24645350
1222.66 22546830 21319970 23561010 25651010 28035010 28594340
1225.55 26213280 22867350 23733210 25425680 25929080 27952750
1228.44 26012420 21600590 18802350 19834860 19539340 17733420
1231.33 20959450 27070000 26814240 26550660 28714580 22924610
1234.23 21567340 23134090 19661960 19384440 23546210 23252400
1237.12 20939270 23574740 29626840 31126810 30668960 31988910
1240.01 29229320 26890630 26061160 24634910 25881540 27460400
1242.90 25286750 23835420 25363930 25511570 23656780 23933740
1245.80 25174500 24880700 24693320 25887170 27099210 29089560
1248.69 30582420 30319850 29635520 29260010 28248910 27640000
1251.58 28350220 28671900 28945330 29115160 29598960 30458630
1254.48 30083070 29015880 30947150 33155070 31957040 31249440
1257.37 32874520 32688250 30042200 29284410 31363250 32519230
1260.26 30117820 29890950 32291820 32330760 31793030 31287330
1263.15 31659150 31903090 30369290 30654910 32295840 30699270
1266.05 29263540 32287210 33408530 30963070 31109640 34300810
1268.94 33382630 31376310 32612390 31275110 30377680 32448990
1271.83 31099040 29924710 32682790 31501250 29640630 32977450
1274.72 33156220 29794380 31370050 33669710 30798630 29060970
1277.62 32417050 33610440 31035810 31759820 34652570 32946010
1280.51 30434820 33394050 34900830 32287320 32912020 36193860
1283.40 35920290 34880450 35307940 34938550 33513100 33698900
1286.30 36011060 35695960 33248270 33770870 36478690 37771130
1289.19 36926600 36187550 38205650 38340960 36834560 39758700
1292.08 43136820 44686500 48179600 48254030 45617150 43633090
1294.97 43642090 46849340 44892700 43147550 47022490 46899690
1297.87 43538910 46110530 48361330 45336360 47339090 51344640
1300.76 48093460 46694630 54406270 56488750 48908430 49611530
1303.65 56447430 53079940 47884970 55375190 59462790 51960140
1306.54 52036910 58468480 57554760 57834970 63985220 62159340
1309.44 56617030 55651530 54695720 54964640 59061760 60759990
1312.33 55018800 54263130 57683120 52639910 56940120 66812320
1315.22 58999660 52042080 57991490 68910560 71419600 68355690
1318.12 71560400 64986140 59885020 71847820 78704120 71788680
1321.01 79351290 85042810 69937120 64568640 72406980 74775190
1323.90 66633910 63665750 67244350 67911860 66000170 65107140
1326.79 62466220 60258210 60895170 62844910 65197470 63275490
1329.69 64183120 69272330 82102860 101211200 96743750 74635060
1332.58 64201790 59709570 56870850 58646870 57075030 54367280
1335.47 57567780 58271980 54644300 57792300 61521760 60171480
1338.36 64907600 78684150 83082280 75780280 68514470 65309900
1341.26 64816610 64453540 67945580 66253010 63306840 70761420
1344.15 89467310 107082700 107764100 92881580 84350200 97956050
1347.04 92805950 72047780 71326590 73942680 70847300 65400530
1349.94 63189730 62831970 59919690 61667990 65900080 63049480
1352.83 65038540 72553340 67999160 65962240 72542980 68184340
1355.72 62163440 72438310 77233120 69264740 73473500 75008050
1358.61 63793590 67640830 82199060 74921100 66406590 72500710
1361.51 66231460 62327300 70377420 65293690 58332520 64439660
1364.40 65079170 61612800 63132650 60441120 57567760 60121400
1367.29 59520940 58621070 60303130 58870540 61122290 71298890
1370.18 73634590 66357180 66833260 71767980 67927410 62144920
1373.08 59685900 57678430 55888180 56871180 58032800 58947540
1375.97 56568670 53460340 56137700 55320460 52059350 55413270
1378.86 61579720 63371550 59516280 53361700 52788870 52982740
1381.76 49892870 51558680 51586230 47743640 48837700 52975070
1384.65 53985000 51595480 51797830 52930760 50694410 50839220
1387.54 55140180 57120460 56250010 54433790 50783080 47918670
1390.43 49541160 50539550 49175620 49394710 49920170 49472160
1393.33 50051170 49638380 47942380 48986110 48585710 47541270
1396.22 50937050 49178680 43971060 46893280 50773410 49059040
1399.11 47514420 46737140 44531570 42900680 44137510 44658910
1402.00 41202920 42503920 44247440 42329230 41021460 40778640
1404.90 41570790 40707820 40093870 38633340 35976860 37443260
1407.79 38779260 37848420 38748250 36885780 38952940 42755880
1410.68 39692190 39741710 45661390 50895110 50361550 47445230
1413.58 47012290 45796980 41680660 36956300 36520970 39064190
1416.47 36985530 38873000 42910790 40656460 38986030 38835260
1419.36 38562930 39524510 38461040 35577550 34688570 35992150
1422.25 37301440 38018440 39826480 38817280 37314680 36827840
1425.15 39721050 39361790 33264180 34512640 36784170 36873940
1428.04 37032490 36902670 36785820 38177660 40639420 36781760
1430.93 34725380 37763760 39441930 39904280 37655450 34850760
1433.82 35265850 38236360 37653180 33619740 34811260 39699540
1436.72 38964790 33402860 30542180 31801020 32076840 30530080
1439.61 29611740 30368950 29434950 27590670 27412820 26845590
1442.50 25695490 24383820 22822440 23540280 24010590 20608910
1445.40 19449890 21192260 19762480 18028390 19980010 18964890
1448.29 16955090 18311140 19413510 20973820 21738510 24469070
1451.18 31296900 44735940 55166950 61179570 71664220 74267510
1454.07 76661440 72991200 56934680 44928670 41571340 43130290
1456.97 42167020 40323430 37625150 33882310 32468810 32325430
1459.86 34534360 35877360 35470400 38178140 39287410 36256370
1462.75 35370010 36923940 37245210 36920960 34097250 29624050
1465.64 29214090 30223710 30204580 30734440 31760390 34669130
1468.54 36855520 36945930 37588030 39209740 39055580 38002710
1471.43 40432100 41616160 40804140 41067520 38838750 37267510
1474.32 37719880 35953950 34299770 36700690 41806530 47046020
1477.21 45979300 38812040 37587860 43075630 50646210 42921300
1480.11 30769460 28352810 27488320 28184650 27536990 27907710
1483.00 29112340 29826460 27685970 25854450 24998070 26230110
1485.89 29011770 30387720 29338420 27147700 26993190 26897390
1488.79 25580280 25908990 27992510 29248630 27195520 23889750
1491.68 22677800 23548050 23612720 21914530 21509910 22608520
1494.57 22375320 21959720 24448390 26069800 26154470 26924140
1497.46 29583740 31014640 29889090 27172860 24491460 24150090
1500.36 25035850 25544040 23554560 21728730 20633060 19485020
1503.25 20154780 20189370 19558620 22217620 26289390 25378370
1506.14 24308860 25903470 23202960 20416710 20621420 21909010
1509.03 23070470 24068680 25826400 26733490 25205180 21882610
1511.93 20475550 21540450 22021500 20300430 18429190 20518220
1514.82 24107760 23750030 22681070 23993130 23908520 21361650
1517.71 19883130 20404090 20252680 19396190 21005160 21725430
1520.61 22772590 22963130 22558670 23973190 22636930 20750260
1523.50 19468750 19157640 19450220 20015050 20404150 20353670
1526.39 19918280 19007960 19082840 20829260 19640770 17285570
1529.28 17756280 18854110 19127590 17881970 17668940 17833440
1532.18 18077960 18638370 19080770 18826540 17650750 18343790
1535.07 19092510 19435120 19613830 17957420 17357600 17855810
1537.96 18855010 20446880 19211880 19346850 20150610 17074170
1540.85 16752090 19110330 17244820 14877380 16322480 16312120
1543.75 13780410 14684730 17974660 17029310 14253350 13777160
1546.64 15163440 14757700 12449130 13081250 15375950 14367240
1549.53 12982380 14423980 15191050 13591630 11983170 12802500
1552.43 13839820 12344680 12618620 15020660 14565430 12749790
1555.32 11883830 12454770 13382820 14902640 14986920 15782110
1558.21 16742940 13861720 12981770 14863640 14165740 10899920
1561.10 9431068 10300010 11020100 9845924 9657530 11115080
1564.00 11364110 10148810 9741144 10436560 9973238 8670742
1566.89 8789404 9999286 10230430 9172990 9679520 11313000
1569.78 9518090 7461576 8355782 8957786 7484466 7067826
1572.67 9073366 9419216 7557714 7733804 9117804 9273578
1575.57 10597200 10101480 8697212 7741350 6834732 7732128
1578.46 8057896 6819090 6136036 6927680 6845660 5711124
1581.35 5664384 6475988 6370986 5707236 5706828 6031108
1584.25 5783622 5342994 5639424 5801820 5287500 5103012
1587.14 5674100 6171396 5501324 4946296 5545706 5629848
1590.03 4700108 4644080 5307008 5186178 4693132 4841864
1592.92 5078252 4739384 4500424 4730338 4855056 4541192
1595.82 4403640 4891792 4942820 4354360 4199812 4558872
1598.71 4437796 3956776 4034262 4203600 3875376 3716204
1601.60 3867982 3880550 3841892 3860988 3767914 3738190
1604.49 3888362 3896470 3700866 3605032 3575484 3409656
1607.39 3220840 3156204 3134446 3168972 3082274 2991126
1610.28 2963798 2835772 2822026 3052256 3046440 2859902
1613.17 2961986 3146072 2983496 2977954 3196830 3933612
1616.07 6348628 5716728 3357548 3003852 2726748 2646676
1618.96 2544628 2448632 2399588 2465734 2514924 2480276
1621.85 2578736 2780046 3583184 3577908 2640030 2422940
1624.74 2414314 2482316 2383038 2203070 2278524 2822836
1627.64 2813450 2289020 2112734 2085658 2038850 2000882
1630.53 2063594 2071766 2010036 2017544 1997700 2059046
1633.42 2131374 2533642 3444644 5116616 5043814 2858774
1636.31 2301152 2649586 2465878 2045526 1956488 1888158
1639.21 1778644 1858934 1871354 1731176 1687914 1791860
1642.10 1820236 1734154 1755662 1812870 1880986 1882646
1644.99 3066862 4698254 3354374 2368024 2622582 2495636
1647.89 2507194 2027754 1807498 1936808 1874778 1973358
1650.78 1954958 2930240 5845064 6674294 7075398 5208200
1653.67 3287980 3468078 2249308 1849446 1671438 1574506
1656.56 1601710 1578148 1498586 1463618 1467782 1536458
1659.46 1583396 1572830 1563306 1660634 1642640 2185100
1662.35 2832340 2154370 1578792 1553904 1558554 1642842
1665.24 1573124 1504942 1521290 1518402 1563488 1850436
1668.13 2041554 3159508 3244838 1944990 1589380 1926646
1671.03 2278798 1779494 1419416 1449338 1453516 1561562
1673.92 1675938 2971180 3810308 2438928 1584768 1560652
1676.81 1464504 1473660 1425204 1400984 1448694 1617968
1679.71 1752364 1750856 1575586 1564062 1511174 1927534
1682.60 2771468 3072834 3124980 5756654 6399894 2942864
1685.49 1765308 1608756 1503542 1478890 1490106 1690574
1688.38 1529732 1429708 1659472 1748902 1559978 1439896
1691.28 1446426 1481242 1437324 1390336 1429864 1517014
1694.17 1811392 2604162 5672692 6047532 2718774 1781490
1697.06 1860134 1655148 1649144 1745672 3298156 5299972
1699.95 5308546 4120006 2374730 1598982 1450532 1396992
1702.85 1449120 1547574 2117374 1992386 1436804 1603770
1705.74 2131222 1875902 1405406 1274984 1179728 1162020
1708.63 1126002 1246516 1405590 1386920 1321016 1214206
1711.53 1110042 1190718 1252284 1352620 1689596 1695888
1714.42 2337082 2401872 1691268 1532738 2583520 5071826
1717.31 3829862 2403960 2744560 1796300 1345434 1214784
1720.20 1181630 1176838 1204012 1276242 1256974 1306232
1723.10 1397386 1268734 1193836 1200588 1164478 1160684
1725.99 1166614 1209142 1244978 1263994 1242432 1214082
1728.88 1411884 1649266 1503052 1281702 1254088 1293100
1731.77 1424152 1981580 3893166 3503842 3427484 4369406
1734.67 2376336 1344802 1322406 1247050 1258192 1249218
1737.56 1153218 1184592 1285090 2170748 2680902 1669422
1740.45 1183856 1180622 1179866 1246618 1395174 1437864
1743.34 1285902 1230824 1176510 1128874 1246058 1277814
1746.24 1346564 1490828 1364312 1451530 1764438 1623450
1749.13 1406780 1374216 1613408 2778594 2859406 1518206
1752.02 1142374 1176878 1199290 1157510 1097946 1112508
1754.92 1117600 1095314 1534592 1961784 1441904 1136158
1757.81 1202090 1170664 1119974 1117686 1174532 1156538
1760.70 1430902 2362510 2126304 1283820 1131294 1133762
1763.59 1138626 1060784 1078628 1047862 1028948 1121452
1766.49 1169798 1305602 2150130 2043256 1151934 1067928
1769.38 1129886 1247854 1632466 2129180 1617494 2404284
1772.27 3617836 2145866 1167838 1161992 1109288 1265590
1775.16 1361552 1182082 985648 971676 1025872 1069342
1778.06 1083124 1081836 1065670 1168732 1436004 1371314
1780.95 1077056 1030226 1017374 1032544 1056510 1058040
1783.84 1222894 1640870 1453750 1058476 1021082 1029250
1786.74 1071710 1080404 1103654 1107978 1101038 1123348
1789.63 1152102 1462896 1652216 1288176 1554236 2709886
1792.52 2327890 1298282 1193602 1142774 1150286 1194938
1795.41 1253344 1237522 1174018 1109020 1126496 1157028
1798.31 1138312 1444756 1627006 1270858 1187196 1336344
1801.20 1262184 1323158 1366192 1104492 1087292 1095942
1804.09 1052672 1084264 1023348 1022680 1007602 1020134
1806.98 1130268 1142278 1158290 1165642 1150062 1226762
1809.88 1472762 1499640 1199908 1126422 1159954 1115624
1812.77 1064830 1066458 1121158 1085578 1053054 1108446
1815.66 1130066 1079928 1123550 1209810 1148786 1122862
1818.56 1166718 1134076 1062046 1048822 1087858 1093152
1821.45 1063080 1077812 1175934 1143922 1128096 1191128
1824.34 1605954 1888366 1418042 1161922 1202742 1243924
1827.23 1256492 1206132 1398960 1562666 1694842 1970474
1830.13 1514648 1109214 1097676 1086562 1145582 1198084
1833.02 1188974 1116732 1144162 1132658 1143532 1182960
1835.91 1205148 1322706 1334334 1209162 1195836 1205436
1838.80 1144146 1133182 1154970 1134140 1113230 1199862
1841.70 1233024 1279362 1297764 1731796 2945096 2491208
1844.59 1418960 1333044 1271282 1243648 1142404 1216800
1847.48 1293778 1172850 1144090 1156206 1134444 1101736
1850.38 1126704 1170810 1119100 1095854 1105092 1131792
1853.27 1114100 1090274 1133732 1192530 1150224 1082846
1856.16 1070772 1115494 1122910 1117744 1156958 1150066
1859.05 1144512 1162692 1134910 1110292 1142956 1160290
1861.95 1121902 1123380 1136334 1124228 1107334 1157716
1864.84 1194492 1190926 1276784 1273766 1310392 1517682
1867.73 1458312 1428390 1940540 1734156 1256074 1320498
1870.62 1247278 1188178 1180010 1138244 1120890 1145568
1873.52 1091114 1138500 1173526 1163684 1153034 1120652
1876.41 1181236 1161044 1132264 1141076 1089238 1064582
1879.30 1132158 1157898 1171030 1170110 1131932 1119076
1882.20 1096490 1094214 1155992 1236812 1170278 1131286
1885.09 1163062 1179286 1205782 1179952 1139650 1149928
1887.98 1189568 1330290 1569924 1427710 1191150 1169894
1890.87 1091264 1059832 1105702 1173804 1168994 1132908
1893.77 1122872 1212090 1262510 1177436 1177968 1165624
1896.66 1126332 1131950 1144118 1162972 1186242 1158880
1899.55 1073242 1074270 1101710 1088324 1113622 1085266
1902.44 1066618 1120598 1147194 1198472 1181174 1124926
1905.34 1160520 1149370 1109570 1143326 1181632 1154896
1908.23 1122292 1117550 1171172 1160328 1058918 1073412
1911.12 1185310 1255672 1206368 1151896 1115082 1066350
1914.02 1060732 1088950 1152600 1149256 1115616 1056668
1916.91 1204160 1759006 1598758 1125208 1095630 1083688
1919.80 1080348 1074036 1150930 1220892 1195946 1212054
1922.69 1271842 1164958 1056710 1054918 1089560 1097762
1925.59 1067736 1034798 1007698 1027036 1097330 1117692
1928.48 1012808 970032 1000632 1019568 1017916 997192
1931.37 1015150 1016480 1033502 1040638 1004766 1036288
1934.26 1105840 1114820 1075396 1069708 1090246 1051180
1937.16 1030882 1077606 1045130 990330 984522 1016148
1940.05 995390 997322 1056824 1144074 1350608 1256316
1942.94 1072130 1123768 1117100 1051132 1026266 1015546
1945.84 1022628 977910 1028678 1106032 1106058 1082216
1948.73 1011936 966624 927154 892470 813154 824752
1951.62 972248 1061660 1033294 971578 956294 939520
1954.51 907572 911256 971746 1072824 1061494 1056190
1957.41 1022614 930022 889864 874334 835872 856986
1960.30 1063664 1169888 1052190 937742 907828 866660
1963.19 847458 928094 1104964 1246754 1142226 989450
1966.08 935036 1043472 1068766 920644 939774 1124616
1968.98 1230366 1095890 1033290 1041546 982770 920124
1971.87 857122 923064 1255496 1371182 1205566 1048348
1974.76 914728 957044 1069678 1149342 1281224 1324352
1977.66 1180694 1120352 1247432 1286786 1118288 1034806
1980.55 1148884 1383126 1487420 1413588 1312640 1224922
1983.44 1163660 1170224 1373534 1664324 1727504 1468404
1986.33 1309068 1428586 1672734 1784140 1496210 1381748
1989.23 1717762 2101664 2223458 1904980 1640266 1587366
1992.12 1845384 2276468 2442884 2159580 1837760 1980222
1995.01 2304658 2504980 2289204 2000186 2164096 2573662
1997.90 3011746 3102490 2517092 2038542 2293994 2997860
2000.80 3591062 3266688 2530242 2648456 3451186 3961886
2003.69 3434374 2627354 2888474 3929548 4639866 4286960
2006.58 3144194 2987218 4104448 4922920 4759150 3667782
2009.48 3408284 4573706 5513344 5236152 3752458 3611110
2012.37 5221080 6454004 6082104 4211352 4174016 5895770
2015.26 6826008 6154918 4667986 5411980 6928464 7453552
2018.15 6178218 4828622 6057162 7722272 8231408 6642252
2021.05 5882160 7276816 8541174 7960340 6108862 6670338
2023.94 8713772 9362574 7742146 6479106 8094200 9705142
2026.83 9106144 6973704 7378022 9452880 9746918 7673324
2029.72 6729570 8918874 10363790 9024720 7299362 8641836
2032.62 10221200 9338226 7371418 8207386 10311730 9841462
2035.51 7899882 7953614 9788304 9671174 7719434 7751580
2038.40 9503834 9223086 7374772 7280272 8851914 8729428
2041.29 7248116 7603880 8885622 8106820 6632224 7075660
2044.19 8031376 7458974 6948728 7785176 8222750 7441368
2047.08 7392614 8264952 8556726 8799992 9914074 10733030
2049.97 10971670 11929750 13563280 15180300 17236170 19477110
2052.87 21372570 23018660 22038240 16887660 10373410 6463626
2055.76 5608456 5382066 5291248 5389176 5445820 5354036
2058.65 5794826 6105530 5716398 6107054 6688688 6552298
2061.54 7380710 7982642 7835512 9014882 9645036 9789166
2064.44 11139450 11160240 11674050 12477860 12418470 13770860
2067.33 14084240 14982870 15898130 16358300 17423980 17080570
2070.22 18198270 18226840 18581910 19127090 19013530 19668290
2073.11 19835090 19869350 20012980 20359620 19928010 20300950
2076.01 19865110 20114040 20126970 19766370 19421450 19077660
2078.90 18593510 18103800 17749020 17055590 16628910 16052910
2081.79 15306600 14495050 13819800 13104300 12504430 11694850
2084.69 10787570 9911690 9170136 8392438 7802244 7329198
2087.58 6451266 5445888 4754438 4330718 4144466 4354076
2090.47 4221954 3784412 3807876 3974164 4022422 4535394
2093.36 5021944 4741208 4141314 3316234 3371724 3755826
2096.26 3494226 3425284 3495060 3555634 4088528 4283056
2099.15 3502532 2705798 2241234 2109046 2235068 2308860
2102.04 2414446 2910030 2928128 2407718 2661732 2943790
2104.93 2681764 2937558 3251378 3253114 3668416 3667470
2107.83 3478470 3620960 3434962 3464656 3876628 3735918
2110.72 4097790 4337664 3889408 4149282 4104264 4110164
2113.61 4519526 4357770 4694434 5137354 4744610 4508172
2116.51 4244968 4410760 4502022 4207118 4553338 4823878
2119.40 4826860 4594856 4527608 4624624 4129292 4125652
2122.29 4432096 4563180 4660114 4146562 3966274 3941622
2125.18 3806324 3976336 3816454 3809104 3681630 3315828
2128.08 3128498 3089866 3106092 3107174 3205402 3154924
2130.97 3211950 3014892 2808000 2713724 2478268 2447420
2133.86 2580736 2602392 2689460 2565744 2186568 1962576
2136.75 1899042 1993886 1953932 1895000 2036774 2054334
2139.65 1896554 1868692 1889492 2118330 2608564 2699590
2142.54 2670282 2573072 2423714 2329498 1982916 1763716
2145.43 1845914 1911936 2035204 2176126 2135482 2211790
2148.33 2318394 2808626 3413386 3095326 3116248 3281586
2151.22 2996990 2844236 2544906 2335468 2259062 2463654
2154.11 2910164 3081630 2997594 2924516 2975600 2940850
2157.00 2841466 3060574 3116428 2889782 2888710 2909376
2159.90 3051178 3050268 2846464 2955212 2794510 2576850
2162.79 2674450 2812882 3116304 3325430 3493420 3496280
2165.68 3083430 2894570 2815892 2784816 2930110 3123432
2168.57 3380100 3187926 2799846 2708490 2769244 2857184
2171.47 2837080 3238072 3483126 3083842 2976514 3061244
2174.36 3167868 3239078 3486636 3615544 3153094 2902286
2177.25 3033746 3105822 3048954 3286728 3570240 3272572
2180.15 2924784 2767226 2705848 2752860 2784546 3046286
2183.04 3032422 2735070 2654436 2702892 2776710 2823590
2185.93 3240568 3337648 2971122 2750202 2610406 2602190
2188.82 2649242 2919494 2944814 2702300 2586260 2505764
2191.72 2532176 2568142 2722702 2643466 2374090 2361562
2194.61 2432964 2371184 2488728 2724342 2549106 2397908
2197.50 2351382 2347920 2441354 2486596 2513742 2445468
2200.39 2317288 2259384 2419390 2542748 2522498 2461610
2203.29 2367604 2237492 2099586 2137614 2272230 2413054
2206.18 2405048 2303888 2370746 2382146 2333418 2480974
2209.07 2548072 2350088 2433046 2651540 2500498 2352384
2211.97 2285308 2210496 2205910 2198214 2294936 2359562
2214.86 2277426 2336636 2361558 2305998 2416340 2474048
2217.75 2401380 2387644 2320386 2283580 2401752 2431166
2220.64 2477036 2547874 2359350 2262894 2284306 2236942
2223.54 2205920 2176012 2140268 2175888 2172248 2133180
2226.43 2205762 2158648 2084186 2150102 2217654 2197790
2229.32 2135814 2152804 2223802 2222196 2182666 2155926
2232.21 2208306 2156866 2034734 2091022 2136984 2141764
2235.11 2223232 2293472 2165498 2118098 2197532 2161850
2238.00 2150104 2127698 2116366 2048550 1968902 1921324
2240.89 1919908 1941736 1941490 2019136 2088088 2062054
2243.79 1972252 2002326 1998678 1901352 1953158 2017706
2246.68 1987704 1986258 2014412 2005682 2050756 2058126
2249.57 2032934 2017566 1995300 2060108 2169856 2204558
2252.46 2137814 2091532 2189736 2225944 2196244 2269354
2255.36 2186198 1982832 1959842 2010100 1944540 1934870
2258.25 2051550 2076158 2039948 2026210 2072438 2112584
2261.14 2061384 2099618 2172660 2152076 2059302 1984976
2264.03 1969614 2014226 2008896 2002556 2070410 2097594
2266.93 2108462 2168110 2196414 2104894 2066702 2127680
2269.82 2160250 2114380 2059152 2075032 2142530 2184692
2272.71 2109914 2093164 2180798 2131828 2065576 2104772
2275.61 2170918 2192422 2169956 2192696 2272852 2315166
2278.50 2189750 2126044 2221640 2235988 2265196 2234738
2281.39 2218838 2240836 2143064 2142182 2231504 2249412
2284.28 2269300 2241466 2267742 2345132 2355592 2400892
2287.18 2410470 2428730 2442050 2405016 2459910 2486254
2290.07 2384836 2317006 2398462 2475826 2402404 2358848
2292.96 2450004 2550554 2522992 2498168 2561696 2578644
2295.85 2475772 2501744 2532596 2515052 2570816 2563634
2298.75 2575942 2568992 2607322 2684728 2614868 2516008
2301.64 2502658 2611388 2561112 2477674 2544388 2580860
2304.53 2539878 2487234 2492540 2474984 2429738 2492562
2307.43 2644950 2564670 2525030 2609416 2610572 2618474
2310.32 2649864 2712346 2745960 2781806 2884184 2922734
2313.21 2864154 2860582 2865506 2861736 2820520 2698910
2316.10 2701558 2834688 2801942 2677542 2751468 2819878
2319.00 2695342 2593664 2703554 2797576 2685226 2656442
2321.89 2876120 2998288 2882828 2903312 3059320 3031942
2324.78 2981592 3060580 3155292 3224012 3114194 3013446
2327.67 3033788 3150876 3288088 3320246 3364832 3339182
2330.57 3124596 2906332 2956090 3027940 2974730 3061784
2333.46 3239656 3157538 3016666 3055390 3091088 3014374
2336.35 2968010 3109098 3219356 3274674 3372030 3372110
2339.24 3230138 3230940 3297276 3287922 3254674 3178884
2342.14 3354502 3563466 3511558 3432814 3656468 3834892
2345.03 3595662 3525072 3797760 3982072 3862930 3555274
2347.92 3391524 3428412 3390836 3347250 3347288 3418494
2350.82 3525856 3534424 3534790 3501454 3378502 3300548
2353.71 3419908 3680016 3706052 3508304 3452978 3530606
2356.60 3617256 3578522 3684990 3886540 3721538 3496812
2359.49 3517126 3520172 3555916 3627482 3746508 3972896
2362.39 3905926 3748248 3795090 3816518 3818880 3855322
2365.28 3908718 3777104 3498930 3552474 3645100 3514606
2368.17 3584168 3725804 3755470 3708940 3700016 3917224
2371.06 4127022 4178538 4205214 4404594 4506914 4264134
2373.96 4023998 3906976 3704772 3606560 3616144 3754080
2376.85 3931990 3935940 3953254 3961844 3857588 3824824
2379.74 3730948 3512686 3578276 3783206 3762722 3728516
2382.64 3890136 3773280 3408034 3399736 3493814 3408054
2385.53 3443480 3529214 3605394 3692504 3683836 3702824
2388.42 3682254 3551192 3586194 3623160 3657672 3785996
2391.31 3811658 3761460 3815776 3965260 4076808 4279140
2394.21 4247532 3992492 3835772 3682568 3523884 3495530
2397.10 3552904 3659196 3784106 3867660 4062016 4200958
2399.99 4172680 4169498 4124374 3793192 3611356 3677768
2402.88 3739684 3854652 4009950 4249464 4404360 4367872
2405.78 4353116 4372624 4412988 4375232 4239424 4143924
2408.67 3994218 4061888 4015698 3882302 4032604 3925360
2411.56 3754960 3894592 3918742 3974170 4125916 4123770
2414.46 4025476 4031780 4187414 4163146 3970700 3903780
2417.35 3763746 3620366 3769722 3750244 3603130 3459384
2420.24 3277882 3381150 3455586 3457562 3530092 3534616
2423.13 3506122 3484276 3536842 3658430 3808440 3769392
2426.03 3823710 3866386 3571342 3479864 3576898 3425712
2428.92 3402562 3466472 3397626 3404402 3171008 3069068
2431.81 3206804 3181836 3205518 3264064 3292834 3262628
2434.70 3132336 3070316 3128670 3116642 3070358 3039756
2437.60 2999016 3013234 3023792 3116030 3099706 3098846
2440.49 3141956 2969094 2999868 3207942 3221298 3118168
2443.38 2989642 2895508 2972732 3015410 2957148 2808670
2446.28 2704780 2698204 2694510 2739190 2779904 2828034
2449.17 2982434 3142050 3157538 3045446 2835232 2669432
2452.06 2712522 2789922 2746210 2829552 2804154 2716700
2454.95 2792720 2734626 2672460 2674000 2672364 2686156
2457.85 2679350 2726806 2755072 2757006 2745234 2718058
2460.74 2780810 2798924 2636798 2564838 2626416 2578038
2463.63 2468860 2535610 2655684 2689646 2706166 2606056
2466.52 2487056 2562582 2667826 2678680 2609920 2542560
2469.42 2590144 2671738 2670778 2729898 3019240 2958492
2472.31 2579358 2495026 2509116 2546144 2469834 2389858
2475.20 2467648 2425022 2403706 2380874 2367960 2448422
2478.10 2501924 2451762 2445728 2380910 2278660 2438644
2480.99 2585886 2526160 2527158 2607876 2539976 2491284
2483.88 2598632 2667214 2668832 2583856 2488564 2550096
2486.77 2476494 2389736 2455560 2454324 2434460 2532474
2489.67 2654880 2577272 2522512 2562758 2578990 2552182
2492.56 2461412 2449970 2506948 2490980 2495306 2587992
2495.45 2644152 2585848 2478070 2383532 2363562 2433368
2498.34 2442770 2505596 2590016 2619300 2648806 2528516
2501.24 2368420 2369822 2483666 2474628 2418088 2464760
2504.13 2427474 2302298 2301962 2305282 2384390 2508928
2507.02 2441346 2437514 2533986 2570980 2501164 2462640
2509.92 2562622 2595512 2491256 2399746 2427996 2555772
2512.81 2600682 2576568 2494624 2499330 2603734 2549308
2515.70 2518352 2621992 2646876 2606220 2617440 2664202
2518.59 2752058 2675598 2636214 2723830 2735354 2798858
2521.49 2760382 2690160 2840434 2923632 2818468 2804658
2524.38 2908142 2989760 3065756 3065178 2990554 3042878
2527.27 3041238 3006156 3039624 2957312 2846242 2874510
2530.16 2916880 2861812 2817798 2940176 3045256 2947362
2533.06 2911962 2978166 3001752 2976958 2999236 2970960
2535.95 2860362 2970962 3053638 2975430 2950878 3006866
2538.84 3116176 3232618 3211446 3159438 3199632 3098310
2541.74 3065382 3107614 3093414 3083150 2997044 2947872
2544.63 3013744 2974562 2956356 3072460 2982950 3029738
2547.52 3210946 3087752 2914028 2991726 3051982 2963058
2550.41 2992936 2966104 3007816 3239640 3305906 3321510
2553.31 3374504 3307388 3265522 3296848 3321048 3256774
2556.20 3194348 3121014 3012648 2990382 2974194 3005168
2559.09 2962996 3043872 3306522 3396884 3351330 3315490
2561.98 3335284 3184514 3099214 3227300 3282260 3196942
2564.88 3237320 3362530 3353030 3329630 3268694 3252182
2567.77 3280800 3317712 3317470 3440332 3558138 3512694
2570.66 3586504 3639488 3528816 3510512 3649850 3760124
2573.56 3747644 3786160 3920958 3825424 3669968 3686372
2576.45 3657136 3625426 3751350 3909162 3849546 3796886
2579.34 3844444 3811172 3804398 3890894 4003320 4135128
2582.23 4274892 4305244 4162880 4089994 4078742 3966114
2585.13 4129098 4418198 4579194 4527650 4347884 4391276
2588.02 4412738 4295924 4425554 4558988 4449206 4644826
2590.91 4814296 4650706 4748400 5015868 5028622 4944990
2593.80 5316258 5427588 5019530 4961032 5019084 4997938
2596.70 4941846 4891434 5112020 5276348 5109404 5206210
2599.59 5351360 5097796 5010856 5083846 4898356 4819664
2602.48 4915212 4981262 4939688 4707270 4563510 4835074
2605.37 5049034 4870132 4947018 5102784 5038394 4945172
2608.27 4898358 4931486 4850526 4864510 5089002 5210370
2611.16 5226014 5360750 5706164 5757704 5353400 5178332
2614.05 5124724 5154650 5294264 5228668 5202256 5237776
2616.95 5184350 5074386 5405002 5904882 5872614 5661814
2619.84 5572808 5438934 5481128 5679472 5623588 5636726
2622.73 5693348 5583108 5577772 5653862 5712440 5671612
2625.62 6017910 6211818 5897132 5978592 5990896 5809018
2628.52 5597224 5683710 5756842 5616346 6032914 6555692
2631.41 6247634 5775928 6000398 5974868 5602558 5602850
2634.30 6088708 6245914 5839176 5783360 5837148 5510254
2637.19 5548408 5924580 5675222 5219732 5260044 5357254
2640.09 5329808 5357824 5527464 5584700 5205672 4723616
2642.98 4772554 4865924 4840538 5072634 5104450 5137828
2645.87 4965404 4681408 4816582 4858002 5005432 5401690
2648.77 5801262 5903992 5525374 5375944 5218560 5055764
2651.66 5091748 5096860 4994746 4846646 4852594 4933082
2654.55 5016282 5011860 4908264 5014552 4996512 4917796
2657.44 5120918 5265540 5265858 5341060 5433854 5403786
2660.34 5482976 5527420 5145954 4745602 4674900 4599982
2663.23 4704442 4958902 4873660 4957234 5437826 5456526
2666.12 5248834 5257286 5106082 4846006 5099480 5341720
2669.01 5066224 5187502 5376912 5416442 5829736 5691312
2671.91 5158990 5371432 5456178 4957344 4949300 5087376
2674.80 5006720 5097002 5133976 5107330 5226104 5226382
2677.69 5148310 5361082 5447344 5409852 5541336 5317166
2680.59 5003428 5221042 5222606 5018760 5178378 5043712
2683.48 4882112 5021416 4957050 4977760 5150752 5118688
2686.37 4943870 4902090 4904824 4905756 4825956 4624434
2689.26 4643812 4734136 4680360 4707356 4801122 4875858
2692.16 4971082 5068542 4904650 4860640 4914726 4992662
2695.05 5397870 5233580 4794632 5038522 5279696 5134706
2697.94 5131222 5176364 5249284 5237144 5280898 5244732
2700.83 5225890 5352248 5440224 5403202 5104142 5141902
2703.73 5485598 5377006 5286514 5429450 5400086 5165034
2706.62 5156046 5496478 5223516 5027086 5451828 5614620
2709.51 5450982 5616616 5892480 5775290 5507650 5406284
2712.41 5370628 5410910 5392124 5365322 5534428 5536658
2715.30 5370324 5253506 5189968 5204876 5173972 5127470
2718.19 5254572 5540726 5576018 5539934 5833750 6105386
2721.08 6037604 6065966 6132698 5735498 5756974 6043942
2723.98 5876742 5795106 5935712 6259118 6430218 6509962
2726.87 6825614 6907348 6553574 6310106 6340034 6316672
2729.76 6457434 6571980 6250072 6303040 6742008 6717880
2732.65 6762196 6938380 6882134 7106594 7449966 7380424
2735.55 7328184 7780146 8462816 8873106 8798814 8577782
2738.44 8411756 8386140 8340710 8249334 8606428 8734138
2741.33 8413414 8481322 8829308 8769548 8523680 8824366
2744.23 9301084 9108670 9091050 9477378 9628412 9524668
2747.12 9355444 9559052 9928198 10029160 10202660 10398170
2750.01 10617720 10983880 10737300 10647210 10964750 10927910
2752.90 10637680 10353540 10229700 10731710 11106230 10817890
2755.80 11113820 11746780 11584570 11116530 11239080 11480300
2758.69 11629530 11881730 11999010 12138620 12269000 12068660
2761.58 11859140 12336230 12250830 12458440 13606960 13957710
2764.47 13573070 13337100 13612960 13986170 14154390 14196460
2767.37 14344400 14575900 14666500 15018550 15320820 15319300
2770.26 15757480 16547330 16719830 16452910 16515430 16954240
2773.15 16996550 16927510 17416930 17789230 18412450 19388370
2776.05 18955600 18321310 18598190 18959080 18983580 19389170
2778.94 19977120 19897230 20843810 22064830 21741750 21907490
2781.83 23520350 23224260 22370730 23521800 24188330 23789740
2784.72 25348120 26758240 25274850 24500070 25596640 26680330
2787.62 26639460 27104810 28637460 29442120 29025950 29269980
2790.51 30314080 31754530 33087660 33635850 34444270 35155250
2793.40 35441460 35181880 34810250 35759050 37636620 38843480
2796.29 39195260 40062450 41580720 42331750 43247240 45746150
2799.19 48428050 48433390 47506790 49073220 51087990 52782890
2802.08 54410880 55517290 57192900 59781520 60423440 60333830
2804.97 63584590 66743550 66057940 67362000 72250870 73569460
2807.87 73087820 75420320 81142170 81546730 80130780 83669980
2810.76 88746260 89887040 89584980 92363980 95953980 99266440
2813.65 98903060 101206000 105897900 109555600 108293100 108411600
2816.54 113708600 117584400 117426300 114533600 119534200 126449900
2819.44 126081100 126150800 132588600 133856700 129092700 129655400
2822.33 135824900 136093900 129474900 129901900 139035200 139547600
2825.22 130095200 136688400 144350500 132985900 129721700 138790400
2828.11 135855300 129236200 133583000 135482900 129686900 129164200
2831.01 130755000 128774700 126485100 126285900 120793200 114160200
2833.90 119886100 125219400 118637000 110862500 109250500 109892400
2836.79 109575400 114067500 119331400 127538900 129997100 127542700
2839.69 123143900 118587400 130928100 156458600 171963200 187299700
2842.58 208370800 219321600 248116100 249500300 200425700 179207400
2845.47 185127000 163655100 143219800 132631100 131519200 133343900
2848.36 121908500 115272200 110151300 108981000 111530900 108217600
2851.26 115414400 122805200 113804700 117052700 131995100 134468900
2854.15 134196900 142413900 148887500 149338400 153907400 165779700
2857.04 169130000 167035500 175115200 180520400 179414500 185971300
2859.93 191777200 190366500 193895300 197924600 197864800 201724700
2862.83 208060700 210084900 206953200 206152800 213166000 210259200
2865.72 205307600 212521300 205395700 196313800 205830800 207286500
2868.61 196968800 199915100 198206800 189175900 195764400 199372800
2871.51 192430900 194177600 193801700 184981200 179201500 181070500
2874.40 195062900 195068000 176177900 173350300 174029300 167717100
2877.29 169735400 172110300 162756200 153869300 161763700 166931300
2880.18 161382900 170944900 171732100 152606300 146412800 149862200
2883.08 148497100 143251800 143015900 137604300 135874800 145104800
2885.97 150154100 155222600 158324400 154498700 141862200 134631400
2888.86 137170000 138982600 137310700 135047300 137750400 146360500
2891.75 160803100 184443000 182453700 159615000 152910100 153009800
2894.65 152085200 151900800 150845000 150016400 153615700 158885200
2897.54 160988600 161808900 168641600 175268900 171476400 169076900
2900.43 172308600 175467000 197201800 210480600 194884300 181048100
2903.32 183170400 184692900 187030400 188894400 187553500 195696200
2906.22 200877200 199721900 210617100 220381800 224148200 231668300
2909.11 224443500 219972900 221044900 221027900 223504400 225752000
2912.00 223695300 223379500 234132300 243363100 245751200 240462100
2914.90 238099200 249377400 251675500 246550800 252978300 258594000
2917.79 267152600 282860600 296678600 305425800 311013000 308205500
2920.68 294714000 296728600 314372800 308294600 312635100 325064000
2923.57 320266500 304072200 285495400 285168500 284268000 271070000
2926.47 264270500 262276500 253278400 267436300 289984800 277635000
2929.36 260922200 263359400 262776800 258370600 271885600 278695300
2932.25 274059200 285441200 295522400 298763700 301428300 307459100
2935.14 311355600 311464100 322233800 325716700 314973100 315376900
2938.04 314661300 307374600 317235500 331683900 316004700 301682200
2940.93 304790300 313169200 329473400 318871900 304755500 307718000
2943.82 305124600 302087200 300088400 295633400 304936100 316897800
2946.72 305855600 310304200 313898900 301180800 319990900 343700100
2949.61 315396400 291064200 313433100 326919700 317379800 304584300
2952.50 298588800 308030400 304521200 297049000 297993200 304132600
2955.39 292697100 268277200 286919700 322031700 338294200 327501900
2958.29 307835800 301695600 287600200 271364800 283991700 288716800
2961.18 279165300 293228800 310932000 321060800 322680800 318010900
2964.07 318347000 323973300 343136600 341272800 325340900 345520800
2966.96 362178200 358520900 346182900 324770600 306689200 302507500
2969.86 308795000 321607500 338259300 350932500 350902800 346777000
2972.75 366250800 359758200 342229900 332877000 329597600 326801200
2975.64 292690700 284680400 317741700 318624500 295021400 294682400
2978.54 301772700 330926900 340983500 326197000 335381800 387051800
2981.43 416886000 358379100 311301600 298968700 284817200 274182100
2984.32 280836000 293419300 269498000 271287400 296533700 271553700
2987.21 247717600 264141600 275340900 258459500 233493600 225099500
2990.11 238911700 247156400 239773400 251135000 262998700 242693200
2993.00 221960900 211212700 201852900 200767900 210832400 217198000
2995.89 222659100 219360700 198400000 182243300 173408000 166609800
2998.78 171359900 181041200 178954200 189130600 208567400 201400000
3001.68 185855500 177601500 176942800 178544600 178743600 176254800
3004.57 199002100 237316600 220340400 189509700 180592900 170763700
3007.46 170643700 183008100 189329800 184760200 190662700 215324400
3010.36 209957200 175369200 167855600 176004400 165559300 151467200
3013.25 159783300 167807100 157871100 149066900 169971000 184958400
3016.14 162525900 155041100 149363100 134980700 130950800 124667600
3019.03 122787400 129846000 127519300 120328000 123967900 133672900
3021.93 135221400 144492200 153896400 136704800 118850600 105650100
3024.82 107464900 118921700 118977100 114453000 112815400 109232300
3027.71 106227100 116559800 126810400 119535000 106180800 102748700
3030.60 110546100 123083900 123001800 107713100 106401300 110664400
3033.50 97824910 91960500 96753220 92614290 94840400 106129500
3036.39 97549740 86164660 88876740 85263560 78629820 79598900
3039.28 80110970 77517060 78074180 81208990 87299140 89878370
3042.18 86414180 82470250 77427580 76250120 74672090 68413430
3045.07 63669300 67064240 71470670 68265870 63459620 61040580
3047.96 59189690 59634370 61851530 57914720 51218200 49500840
3050.85 50780450 49341020 49399270 55435020 58557480 53926540
3053.75 50123670 52034260 50926130 46876020 47504780 47762350
3056.64 45154500 43036140 42031300 44084060 44913800 41603670
3059.53 40982790 44041690 43620020 38582600 36201950 38629760
3062.42 40785840 37856290 35908550 38912330 39556260 35706030
3065.32 35061160 37702060 37041550 33590420 32583230 32882770
3068.21 31364220 29645290 29117610 29264270 28526170 27046040
3071.10 26473080 27040420 27006940 25476900 25084230 25187090
3074.00 23552350 22826540 24431490 24546740 22356730 21592660
3076.89 22180320 21122430 19650090 20444190 21043170 19698790
3079.78 19243780 20007450 19237460 17684620 17518570 17384530
3082.67 16665720 15931760 15735390 16107480 15229500 14054030
3085.57 14600360 15048290 13648450 12864880 13898250 14030510
3088.46 12680640 12249770 12853210 12209250 11094950 11651520
3091.35 12158700 10995430 10256400 10726590 10658460 9755266
3094.24 9480110 9796046 9428292 8905822 9188900 9345620
3097.14 9007146 8703836 8495602 8359742 8093186 7777316
3100.03 7874964 7811914 7142694 7140674 7525238 7179280
3102.92 6775594 6811012 6890680 6605352 6489256 6653074
3105.82 6268666 6051118 5957612 5725134 5795092 5675502
3108.71 5465644 5473018 5426476 5301276 5033962 5029754
3111.60 5038816 4697938 4479590 4750954 4730884 4132290
3114.49 4110336 4295042 4159264 4151260 4270786 4260512
3117.39 4308416 4244768 4207782 4188584 3874110 3700566
3120.28 3827410 3850176 3614336 3642864 3769980 3566760
3123.17 3480538 3482580 3244412 3155616 3280340 3206664
3126.06 3220450 3426958 3447008 3270778 3154014 3277780
3128.96 3165704 3068590 3237814 3088488 3119580 3407480
3131.85 3372124 3179916 3067590 3019740 2904218 2773856
3134.74 2783592 2814594 2754728 2752522 2916086 2979834
3137.64 2701404 2564534 2420522 2352488 2607250 2709692
3140.53 2563610 2414674 2523486 2623562 2723042 2883518
3143.42 2732304 2474464 2525894 2492122 2465528 2398706
3146.31 2248112 2316794 2380612 2303192 2367620 2459908
3149.21 2460636 2374776 2207286 2238796 2332574 2199428
3152.10 2074964 2270452 2301000 2321270 2474214 2322018
3154.99 2300834 2451092 2420096 2342396 2257578 2356154
3157.88 2374856 2228874 2203690 2263054 2406804 2572600
3160.78 2542210 2425266 2434460 3032174 3137230 2427130
3163.67 2278196 2252204 2295238 2460188 2664096 2773916
3166.56 2531134 2239968 2195600 2156978 2048474 2109816
3169.46 2218532 2260026 2399830 2597886 2472926 2166706
3172.35 2130774 2178442 2159212 2081512 2084776 2136168
3175.24 2135840 2050160 1967746 2037508 2155430 2292888
3178.13 2338580 2283792 2164912 2292204 2404584 2236590
3181.03 2124146 2265430 2253722 2040704 2016962 2091540
3183.92 2110068 2157466 2169796 2138526 2192124 2276128
3186.81 2160692 2072010 2235172 2224622 2006412 1942266
3189.70 2084680 2135062 2241194 2634736 2559760 2181680
3192.60 2078464 2082256 1989738 1964222 2024090 1964060
3195.49 1998670 2088636 2053910 1945168 1923296 1883702
3198.38 1833774 1904004 2118816 2165600 2107938 2195558
3201.27 2151126 2151184 2291606 2187446 2038976 2002318
3204.17 2002724 1927494 1838510 1930296 1863450 1742048
3207.06 1762906 1789972 1961514 2168634 2106488 1933208
3209.95 1911386 2018678 2057554 2060536 2170010 1995054
3212.85 1788966 1862088 1904354 1861074 1862276 1946654
3215.74 1971628 1800892 1674758 1776604 1816120 1740236
3218.63 1758164 1727724 1866784 1972598 1894420 1954726
3221.52 1925202 1879374 1778966 1895464 2002326 1900694
3224.42 1846546 1771094 1773244 1809604 1884392 1885922
3227.31 1835580 1754832 1771228 1786044 1710106 1721772
3230.20 1631254 1573402 1725820 1841748 1767960 1606728
3233.09 1690754 1793266 1710668 1649722 1659650 1827852
3235.99 1857338 1652326 1607412 1656726 1682574 1822956
3238.88 1735864 1601708 1667814 1596840 1507122 1533228
3241.77 1559444 1701296 1617388 1511658 1636890 1640922
3244.67 1695606 1873082 1904522 1684882 1570314 1652432
3247.56 1796872 1791670 1664100 1652006 1612090 1471874
3250.45 1456332 1520872 1449726 1454312 1566900 1539588
3253.34 1606220 1707284 1522368 1467504 1592216 1635420
3256.24 1570896 1480084 1533942 1534884 1490248 1433266
3259.13 1427614 1623726 1682712 1591130 1656344 1799534
3262.02 1623840 1589756 1616288 1482178 1463424 1456266
3264.91 1509340 1615208 1678780 1709156 1625614 1471084
3267.81 1455542 1475972 1492246 1618846 1618458 1332086
3270.70 1220918 1430228 1619162 1375320 1275124 1343936
3273.59 1355778 1412394 1314812 1442878 1632914 1618222
3276.49 1406432 1222460 1260474 1367186 1469254 1469332
3279.38 1457520 1449496 1560760 1607532 1375668 1356082
3282.27 1473290 1421320 1519236 1562930 1504426 1360074
3285.16 1233008 1389130 1527844 1491092 1423366 1393618
3288.06 1414956 1532218 1479822 1279500 1203178 1328948
3290.95 1356772 1312020 1424264 1439178 1483438 1440260
3293.84 1309632 1221818 1143694 1174080 1282788 1425676
3296.73 1389048 1331230 1500274 1471136 1323032 1332928
3299.63 1370090 1378276 1333516 1363810 1385546 1442548
3302.52 1405222 1399552 1341258 1134136 1213186 1273274
3305.41 1131758 1119802 1304534 1427110 1417060 1368262
3308.31 1268636 1255570 1291580 1312000 1407608 1380820
3311.20 1387148 1371578 1278974 1324190 1420200 1454678
3314.09 1267442 1161526 1387604 1396802 1324566 1493334
3316.98 1482480 1326692 1229280 1245296 1364226 1446164
3319.88 1339658 1229654 1364188 1513080 1403966 1192422
3322.77 1174788 1306950 1332208 1176500 1137688 1403484
3325.66 1569552 1464610 1401352 1387518 1414182 1612304
3328.55 1585108 1384536 1425958 1568824 1504408 1328392
3331.45 1256836 1361930 1442552 1464012 1505480 1395990
3334.34 1257088 1289118 1436084 1394144 1389592 1491608
3337.23 1490454 1384088 1369456 1474866 1562938 1611020
3340.13 1520760 1559402 1360448 1280302 1593928 1692408
3343.02 1644988 1615880 1527718 1451654 1506766 1696030
3345.91 1611072 1397472 1474290 1706740 1776472 1643828
3348.80 1628588 1435080 1361874 1414826 1588134 1738522
3351.70 1659782 1641372 1597978 1581174 1580152 1633600
3354.59 1904020 1765092 1313626 1370310 1536626 1476994
3357.48 1390812 1477650 1644202 1509426 1372318 1604518
3360.37 1806500 1655464 1609532 1631382 1621418 1736480
3363.27 1883750 1934456 1943604 2088820 2026020 1864100
3366.16 1713890 1630200 1580208 1408068 1496694 1564352
3369.05 1542554 1684026 1747980 1771070 1726896 1664520
3371.95 1580852 1538068 1752182 1861706 1761480 1749248
3374.84 1878512 1895570 1650770 1674304 1952446 2348748
3377.73 2682850 2246940 1902336 1955666 1854442 1856922
3380.62 1831440 1865210 1860194 1751402 1757826 1944954
3383.52 2258004 2472322 2341418 1960346 2009114 2071726
3386.41 1895698 2034260 2089904 1868554 1805212 2027836
3389.30 2225714 2155998 1955114 1940958 2180190 2291296
3392.19 2189508 1974738 2069996 2273148 2064022 2031520
3395.09 2320322 2197036 1896580 2089976 2306088 2274052
3397.98 2183574 1990744 1759590 1763906 1832390 1721040
3400.87 1851658 2240152 2391848 2350492 2326776 2476330
3403.77 2651872 2302862 1838526 1931198 2121396 2010818
3406.66 1936170 2067320 1967964 1846968 1975184 2333130
3409.55 2912338 2781880 2349898 2247380 2189292 2257870
3412.44 2260220 2251566 2336188 2292944 2347430 2333916
3415.34 2196310 2360656 2405528 2496372 2549726 2625854
3418.23 2891538 2943574 2828886 2614952 2534982 2538024
3421.12 2418766 2269990 2397320 2419548 2157762 2264492
3424.01 2461562 2336752 2261440 2393138 2412070 2358286
3426.91 2593006 2835872 2759028 2724860 2799888 2782328
3429.80 2903600 3130272 3249846 3739500 4300704 3850004
3432.69 3226166 2863146 2753024 2797240 2776874 3005916
3435.59 2940910 2843266 3075514 3197722 2847622 2600570
3438.48 2745730 2909614 2809704 2735008 3278546 3888496
3441.37 3555166 3653348 4413968 3927070 3157732 2780188
3444.26 2650928 2744202 2699678 2531900 2422122 2529280
3447.16 2973452 3612502 4034580 4013854 3530076 3001616
3450.05 3249266 3256426 3131740 3900188 3780652 3232674
3452.94 2911520 2689852 2738768 2711680 2775490 2828726
3455.83 2559552 2468012 3075218 3495112 3194434 3834648
3458.73 4606534 3865632 3123976 2831864 2745226 3171036
3461.62 3497916 3147664 2863554 2943232 2948272 3172382
3464.51 3604998 3865498 3410232 2984662 3132206 2962706
3467.40 2749010 2882612 2889360 2835400 3011712 3076434
3470.30 3152864 3718094 3989484 3423956 3122536 3067236
3473.19 2813252 2805506 3059550 3204858 3285842 3388806
3476.08 3162410 3178158 3875008 4379146 3972080 3815814
3478.98 3875944 3739424 4339618 5484714 6004664 5149806
3481.87 4665882 4433046 3984182 4310842 4675794 4392520
3484.76 4262676 4715918 4654786 4231514 4808574 5602134
3487.65 5589332 5924636 5597402 4263950 3803394 4030888
3490.55 3913018 3590384 3655748 3985246 4266224 5112438
3493.44 5485768 4355208 3619418 3763268 3908624 3671794
3496.33 3567904 4083238 4390282 4346218 4278804 4118670
3499.22 4091322 3801948 3323050 2936094 3181874 3593296
3502.12 3369302 3233232 3603532 3922582 4300502 4545494
3505.01 5593770 6309674 4842710 3750896 3443946 3345442
3507.90 3312044 3529276 3715508 3515648 3356590 3292144
3510.80 4212594 5414492 5141616 5391924 5441738 3963872
3513.69 3175378 3181448 3222756 3172982 3308568 3429028
3516.58 3429034 3386104 3740930 4001412 3926216 3929202
3519.47 3750444 3859914 3805068 3526232 3360904 3641256
3522.37 4024530 4779386 5542476 5407320 4737050 3773150
3525.26 3638934 4599688 6040840 5506240 4139968 3784888
3528.15 3445572 3472380 3410492 3149916 3384022 4047302
3531.04 4076918 3856310 3968402 4300436 5450108 5770046
3533.94 4486752 5708766 7675036 5815100 4419436 4510070
3536.83 3975600 3754964 3598994 6128106 9681164 7526500
3539.72 5899332 7420484 6237398 4276586 3529518 3566118
3542.62 3687852 3603218 3642686 3919940 4294020 5419708
3545.51 5747196 4492274 4139436 4613204 4500730 4019422
3548.40 3841994 3784638 3670548 3865456 4135056 4031768
3551.29 4194724 4467506 4163514 3948454 4690064 5194910
3554.19 4844378 5438014 6040478 4995094 4197238 4765902
3557.08 4925970 4384032 4384246 4608394 4419542 4398162
3559.97 4816658 5004170 4930006 5078962 5229136 4860802
3562.86 4328864 4477602 4997548 5014192 4962284 5552382
3565.76 6455028 8621812 10877010 11670620 10637830 7160996
3568.65 5347630 5487730 5518572 5583724 5498490 5462770
3571.54 4894744 4846382 5851722 6173148 6296968 7760208
3574.44 10011110 10802960 8736094 7464482 7013388 7318676
3577.33 9147840 8075602 5861224 6368856 7938400 7910106
3580.22 7610366 8240944 8509418 7579082 6506378 6049766
3583.11 6189634 7043832 7243386 6591372 6763368 8507134
3586.01 9443116 8230826 7784334 7959564 8207300 8510230
3588.90 7599920 7162674 7448628 7698304 7387956 7057842
3591.79 7631874 8132234 8210584 9242248 10172000 9575600
3594.68 9757260 10756920 10090950 8774348 8966006 9565388
3597.58 9366856 9801222 10559900 10225980 9776456 9401838
3600.47 9087074 9630246 9905058 9386466 9250910 9135792
3603.36 9079052 9872114 10013090 9677400 10830240 11799200
3606.26 11199560 10785380 12065060 12430630 11100720 12525440
3609.15 13544520 11972060 11353910 12552760 12989930 12784510
3612.04 14926360 18020200 17893400 15812430 16839180 17156830
3614.93 14755370 15207510 17384790 18325040 21043860 21441820
3617.83 17189480 14299010 15536700 18647730 18915490 20063120
3620.72 22617430 20991900 18344190 18247680 18421940 17300310
3623.61 17549970 19632880 19926620 20163980 22531830 27378910
3626.50 30685620 30591830 32543310 32054290 28776250 28267560
3629.40 26684510 25311570 27828890 30539720 29740660 28611970
3632.29 29315080 29590440 31071380 30927940 27977380 28930520
3635.18 30666490 30363400 32756310 37134090 37854240 38121280
3638.08 40771170 39265640 37443730 38747200 39004290 39876930
3640.97 44778820 51814380 52780560 49223930 50048270 54097520
3643.86 58090870 63711100 65988760 58425560 52554870 52172900
3646.75 53471400 54999820 56069610 58922390 63371780 64123000
3649.65 64554270 70028080 73840660 74569060 75358240 77017800
3652.54 78795390 75797360 70385220 73589270 80784250 76053080
3655.43 72642020 82854270 88667150 84268260 88929580 98785980
3658.32 89938420 79686000 86311800 89150730 79637300 81763220
3661.22 93054280 93059810 95593320 109989000 108041400 90223460
3664.11 88705290 95405270 90562330 91553720 106692300 107280000
3667.00 89407250 88645660 99191230 89930840 79951900 83780070
3669.90 83434010 79075160 84857110 91749980 90914240 92905040
3672.79 89978940 79024000 76223970 85457780 83406780 74573930
3675.68 80123500 90839680 90343310 81832870 78004950 78261670
3678.57 85484430 103113100 111979400 126966000 169940000 162852400
3681.47 115992700 89972020 79038820 74107580 71839010 79200960
3684.36 84851060 82551390 66157240 51338650 54294950 62609090
3687.25 65696770 61975780 54077170 53696480 61226520 63710760
3690.14 66367590 73381590 70584980 75527500 91049800 96789070
3693.04 93000100 95149660 99243750 97548560 106029200 106902000
3695.93 98061640 102197400 105696700 100670800 100023400 97059030
3698.82 90760480 93644980 98642260 94071300 93013740 101139400
3701.72 103242700 96422530 93880500 94768110 95353970 97153020
3704.61 103092600 108793000 107159400 108958200 105687500 93846910
3707.50 92876300 101445300 102159500 99970720 102099800 93219380
3710.39 87491300 93244660 92901390 92950700 98704980 101079900
3713.29 100375600 97403030 90750460 82761940 80330350 83676770
3716.18 80900430 80706200 83283780 75229390 74637460 83782200
3719.07 84158900 79491830 79668690 80422900 72995820 68357780
3721.96 67521290 63744920 63087160 60972910 55329630 54031160
3724.86 54262040 54727230 54927080 51140500 48081020 45334130
3727.75 43972700 45784280 48283360 48868460 46641660 46179660
3730.64 43883890 42343530 47317100 45058450 38795930 38439750
3733.54 37192810 34117350 31287730 29484330 29714390 29721820
3736.43 28532210 29009800 28800770 30046180 33009460 29299470
3739.32 24177860 24673250 26592600 23460230 20134540 21680220
3742.21 20289310 18426940 21218750 23655630 23634100 21957930
3745.11 20123570 19321640 20095570 20048550 16477710 15650650
3748.00 18573310 23090740 26828820 22634890 17123250 14475400
3750.89 15053050 19011870 18193410 15887340 18734000 19592760
3753.78 16206920 14427230 12855750 11501820 13227280 14163530
3756.68 13682670 14919180 20202910 23927710 19508740 14233860
3759.57 11903200 11269120 12127160 12615870 12157800 11850520
3762.46 11518940 11274460 14165180 18576140 16947850 14720140
3765.35 16108540 14096120 11212010 10694670 10090750 9815754
3768.25 10219830 9884542 10130630 10546670 8971154 7983904
3771.14 9003490 8827866 8251482 8802514 8305538 7165952
3774.03 7843148 7999432 7040108 7474048 7852378 7456746
3776.93 8188592 9260410 8273666 7879348 8663256 7700362
3779.82 6617718 7149798 7619956 7049560 7124314 8419440
3782.71 8430820 7221152 7061472 6518062 5782240 6296394
3785.60 6058288 5375850 5881584 6175138 5500334 5687030
3788.50 6504176 5972894 5558096 6425516 7609620 7779712
3791.39 7231506 7016844 7012568 6898100 5825778 5606308
3794.28 6067020 5850172 6374704 10384680 11689920 7599296
3797.17 6293542 6255194 5186598 5434144 6097984 6016970
3800.07 5977312 8387864 9643734 6723066 5893888 6468496
3802.96 5440664 5103536 5627236 5385104 5399614 6245966
3805.85 6912816 7843232 7258314 6675772 6491162 6088846
3808.75 7092374 7357580 6967586 9332446 10533110 8353326
3811.64 7699434 7532132 6323168 5618836 5936500 6580072
3814.53 7218388 8960182 10302110 7655308 5346254 5274332
3817.42 4922562 5012012 4927390 4704608 4988236 5963414
3820.32 6225940 6150064 6993820 5995106 5281060 7063970
3823.21 9952136 10994880 8283424 6512950 6233878 5793564
3826.10 6289348 6633238 5894772 5323266 5338350 5103962
3828.99 5187890 5583666 5353940 5140210 6009146 6281662
3831.89 5286898 5111518 5600734 5645502 5996212 7113838
3834.78 6732568 5829382 5935058 6044138 6684406 9166210
3837.67 8900764 6426840 6201562 6861412 6835864 6732528
3840.57 7560030 8351258 9413064 10498750 9448242 7459458
3843.46 6448904 5604816 5384402 5298250 5151892 5250874
3846.35 5555210 5991980 6537914 6830852 6540606 6254924
3849.24 5834488 5347988 5947104 6106350 7707070 9813114
3852.14 8782464 8625136 11693210 15291090 12578700 7538644
3855.03 6419484 6142540 6048240 6419464 6542454 6397506
3857.92 6442166 6449814 6490202 6517604 6062934 5399036
3860.81 5774156 6883774 6684100 6679326 7272876 6802120
3863.71 6193444 7152398 8332706 7756294 8457976 9528888
3866.60 8065070 7006134 7830840 8558634 8612346 8839776
3869.49 9890352 9169948 7694414 7477880 7641458 7982702
3872.39 7516988 6706890 6479762 6396380 5833786 5453976
3875.28 5564542 5627508 5577252 5467494 5240516 4904648
3878.17 4725582 5059908 5558084 6039988 6109902 5675080
3881.06 4997048 5227290 5843994 5720764 6064304 6361202
3883.96 5830984 5818348 7765382 8193126 6637030 6547360
3886.85 6555216 6302556 6601494 6883578 7598214 9563620
3889.74 9473674 7906824 8251008 8129476 7301314 7284370
3892.63 8126062 8966926 9045140 9033208 8474826 7405568
3895.53 7103164 6866054 6605746 6993922 7470216 7525914
3898.42 8195496 8932104 8329896 8276484 8332230 8025956
3901.31 7988034 7123970 6452738 6364184 6984084 7539410
3904.21 6315788 5544276 5695050 5567438 5311880 5159892
3907.10 5085288 5161054 5312162 5369484 5596814 5708282
3909.99 5385692 5137184 4993298 4735040 4622340 4521320
3912.88 4540820 4873776 4937480 4901306 5292026 5459664
3915.78 4987052 4978948 5539468 5076732 4739492 5094150
3918.67 5299880 5803142 6344108 6564832 6545734 5851014
3921.56 5263100 5349002 5687026 6169872 6039640 5468724
3924.45 5271660 5210826 4967994 4921986 5094912 4992436
3927.35 4999514 5271058 5248772 5219298 5310366 5285464
3930.24 5065348 4857518 5044246 5707686 5937570 5937576
3933.13 6079128 5703532 5222724 5080506 5011490 4926088
3936.03 5058394 5253230 5160004 5179734 5488702 5566956
3938.92 5898638 6273260 5755916 5386488 5760526 5867068
3941.81 6149214 6717468 6675938 6296684 5962916 5815466
3944.70 5965114 6223444 6523566 6644764 6546440 6176304
3947.60 5789226 5490658 5343312 5481164 5427366 5262698
3950.49 5446098 5713354 5922906 6047778 5749144 5293106
3953.38 5132546 5190612 5298398 5476854 5542702 5432816
3956.27 5415626 5551254 5484338 5430800 5603444 5467848
3959.17 5198442 5281930 5426182 5520314 5650510 5776226
3962.06 5962098 6130958 6090564 6055502 5939122 5582006
3964.95 5729964 6239118 6212564 6061302 5916098 5763400
3967.85 5745534 5677344 5614750 5799058 6330206 6442238
3970.74 6050040 5799778 5603700 5486740 5570758 5490830
3973.63 5366484 5577392 5705342
##END=
