##TITLE=Methanol
##JCAMP-DX=4.24
##DATA TYPE=INFRARED SPECTRUM
##CLASS=IUPAC A
##ORIGIN=NIST, Anayltical Chemistry Division, 301-975-3108
##OWNER=COPYRIGHT (C) 1998 by the U.S. Secretary of Commerce
##DATE=98/10/1
##$SPECTRA VERSION=1.00
##$UNCERTAINTY IN Y=2.0 % relative (B=1.0E-04,C=6.6E-10,D=2.7E-14)
##CAS NAME=Methanol
##CAS REGISTRY NO=67-56-1
##MOLFORM=C H3 O H
##MP=-93.9 C
##BP=64.96 C
##$NIST SOURCE=QUANT-IR
##SPECTROMETER/DATA SYSTEM=IFS66V (Bruker)
##INSTRUMENT PARAMETERS=KBr Beam splitter; MCT Detector; Multipass cell
##STATE=gas
##SAMPLE DESCRIPTION=Methanol Primary Gas Standard
##PRESSURE=101.3 kPa
##TEMPERATURE=23 C
##SAMPLING PROCEDURE=1 L/min Flow
##RESOLUTION=1.9290
##DATA PROCESSING=NB Strong Apodization
##XUNITS=cm-1
##YUNITS=(micromol/mol)-1m-1 (base 10)
##XFACTOR=1.0
##YFACTOR=4.5474E-13
##DELTAX=0.9645
##FIRSTX=574.687
##LASTX=3974.595
##FIRSTY=4.42E-06
##MAXX=3973.63
##MINX=574.69
##MAXY=.0007576
##MINY=3.72E-07
##NPOINTS=3527
##XYDATA=(X++(Y..Y))
574.69 9736438 6158164 5157136 5255734 4886366 5382508
579.51 6537022 8839444 9526072 7055720 4977200 4300854
585.29 3770424 4311746 4691968 5239024 5096540 5081630
591.08 5060876 5523476 5450978 4663022 4313338 4968412
596.86 6063376 8448758 8089282 5050144 4268784 5194308
602.65 4934114 4013754 3517916 3661926 3527312 3855598
608.44 4163650 5416236 5853382 4435948 3466740 3662334
614.22 4096864 5515908 6866230 5729130 3502860 3008278
620.01 2757520 3734736 4722134 5131126 3767026 3016914
625.79 2617330 2801378 2948590 3304008 3328256 3278210
631.58 3021682 3289372 3111238 3229100 3003598 2990530
637.36 3199426 3577364 3160022 3289638 3374306 4334454
643.15 4587602 3891190 3859098 5034706 5109528 4732896
648.93 4321096 3884184 3556978 4248874 4918990 6227846
654.72 7368798 6732346 4811918 4563750 3749076 3317042
660.50 3107104 3168646 3022128 2917810 2306262 2641644
666.29 2790368 3157364 3049876 3077206 2916374 3131902
672.08 3027878 3249314 3103842 3366030 3202378 3271160
677.86 2971674 3193166 3046870 3254498 2946556 2870264
683.65 2692360 3060314 2859634 2944180 2986386 4013142
689.43 5373942 6954208 6218700 5585220 6892272 5595932
695.22 3554894 3685660 2912802 2750162 2605812 2872644
701.00 2612874 2755810 2598610 2778464 2665016 2939068
706.79 2525486 2896204 3083830 3507354 3265534 3337484
712.57 3106294 3190732 3057472 3232144 2864406 2971862
718.36 2897810 3270632 3125918 3098590 2882724 3141402
724.14 2801718 2799868 2571596 2772328 2416550 2570294
729.93 2448350 2996684 3394816 4220602 5230682 8195842
735.71 8679522 5210508 2297834 2091956 1788728 2061362
741.50 1921048 2094256 1888696 2315764 2596642 2935164
747.29 2672106 2995980 2782174 2829502 2592864 2966348
753.07 2633230 2698380 2403758 2678612 2519378 2733536
758.86 2397662 2536226 2334242 2585142 2307230 2647400
764.64 2352808 2400040 2017996 2306256 2149030 2314156
770.43 1822582 2063690 2011538 2202726 2011836 2736770
776.21 3723594 5102754 5654652 6047176 3894948 2263340
782.00 1403984 1527648 1180168 1507914 1234526 1526408
787.78 1399412 1917642 1696548 1946482 1747220 2122314
793.57 1941274 2256954 1752528 2008248 1783558 2085150
799.35 1763772 2128080 1867582 2090230 1748276 2423034
805.14 2194828 2127136 1712342 2065134 1634378 1808768
810.93 1511260 2070950 1827242 2069784 1675918 2110382
816.71 1954690 2931566 3588946 4363024 3224556 2509002
822.50 2154942 2841440 2068354 2091662 2116714 2593988
828.28 1940478 2090432 1618774 1878632 1563692 2061980
834.07 1626112 2160248 1995090 2415290 2129062 2412008
839.85 1956684 2391666 1983338 2421746 2179540 2712746
845.64 2202144 2410582 1937888 2286082 1868278 2302314
851.42 2036568 2504558 2061310 2470556 2058648 2569402
857.21 2616748 3820810 3509590 2921116 1861720 2275064
862.99 1936814 2546366 2295476 2878748 2367682 2989564
868.78 2379418 2885468 2868546 3874658 3304848 3283652
874.57 2601246 3003424 2387014 2967744 2497416 2908300
880.35 2387252 2810882 2279524 3008296 2642062 3029994
886.14 2439492 3010860 2482026 2948466 2428362 3151316
891.92 2663258 3309510 2762926 3450178 3046432 3862420
897.71 3966350 5043170 3546692 3505312 2808128 3478812
903.49 2864414 3711774 3343224 4171024 3583362 4343246
909.28 3514524 4295562 3916976 4682948 3862026 4723844
915.06 4378474 5062028 4228168 5099360 4506100 5483760
920.85 4777780 5664304 5205594 6384224 5652186 6676960
926.63 5996330 6895476 6069478 7084622 6551942 7910464
932.42 7055166 7671300 6628578 7728704 7095430 8623940
938.21 8145814 9499726 8728180 9173316 8044884 9619436
943.99 8259618 9478452 8941706 10289000 9122998 10539640
949.78 10899630 12438240 11672490 14076440 13221790 15583870
955.56 13863810 16441760 16487650 19516800 20059930 21873290
961.35 22270980 24310900 24653670 28317690 28102760 34847780
967.13 35585860 42561200 39708440 46533990 47766950 53552480
972.92 58453460 61649960 69970130 71668850 82871030 85909150
978.70 98194440 103477100 110811500 121704100 125988600 142776800
984.49 142944200 167178100 164257200 193350700 188868100 221694400
990.27 217144300 251086300 247731600 281999500 281047100 312279200
996.06 315142900 344874200 351262500 378233500 388373900 411547500
1001.85 424680300 445430000 456144700 470776500 482832300 494197100
1007.63 503040300 508762200 516038600 519396500 521999300 517766300
1013.42 518375600 513951000 511761500 501614600 485483400 456597200
1019.20 437606200 411481500 380965600 342957200 321018200 294788200
1024.99 268693700 258900400 249624500 251551100 308751200 464652700
1030.77 835102800 1501083000 1666117000 830421300 277463800 195341800
1036.56 186040000 191057000 209205200 243343900 288380500 327865900
1042.34 376294800 422362200 472017100 521443000 568426000 607202200
1048.13 646780000 678933800 708343200 727462000 741982100 748856200
1053.91 753355100 749624000 740531700 723117400 704320800 679408200
1059.70 651718800 618255700 585746100 549182700 512084300 470461500
1065.48 432873600 394772400 359480800 321434500 287768100 255402300
1071.27 227390900 199967000 174720400 145568000 122809300 103262500
1077.06 88482050 74731300 65164180 54613910 47322260 39497740
1082.84 35399370 30795710 28501020 24684550 23385250 21750760
1088.63 22157490 20992040 22266370 23392890 25990210 23615030
1094.41 21571420 20628170 22428710 20362000 19937630 19002060
1100.20 19410770 18402300 18984650 18478700 20153870 20441570
1105.98 20107210 18771010 19294470 17795520 19116770 18715160
1111.77 18983990 20588100 22154700 18795100 17266880 15854420
1117.55 16141400 15367900 16268760 15622460 16086580 15628270
1123.34 15934110 14418760 14652570 13621280 14109370 13996260
1129.12 13856780 12745050 13142790 12221960 13273070 14954460
1134.91 16285720 13974610 13048710 11385560 11888420 13680940
1140.70 15577050 12725490 12710610 12434430 12009570 10782580
1146.48 11825330 11522960 11560550 9963712 10388720 10660380
1152.27 11375520 10334290 10075780 10030740 11454290 10540810
1158.05 10663350 10759030 11475070 10509200 11014080 11629790
1163.84 12354790 10835520 10200090 9400544 9774662 9644900
1169.62 10143340 9369566 9667920 9637548 10576850 10450340
1175.41 11100620 10731730 11155520 11086980 11811840 11579780
1181.19 12796290 12879780 13321980 12604150 13166360 13608320
1186.98 14481920 13746500 14012490 13945690 14764360 14519400
1192.76 15060490 15800820 17103140 17075040 18187170 17619070
1198.55 17895560 18083170 20362210 21564840 20751310 19998600
1204.34 20593320 20345970 21821680 22900250 22763010 20785800
1210.12 22154700 23957010 26124810 26985370 26124970 22626110
1215.91 21761860 21100190 21516100 21454770 22205040 21756440
1221.69 22820570 22640300 25870780 26901520 24981600 24988130
1227.48 26349050 22128600 19224750 19586410 24773330 26792520
1233.26 24580090 21089980 21046690 21896690 25307970 30028130
1239.05 30884880 27429120 25851380 25624140 25121190 24353640
1244.83 24363940 24524900 26163540 28652810 30240830 28911140
1250.62 28295500 28319940 29401780 29636020 30478690 31584730
1256.40 32420860 31413920 30776430 30805190 31189800 31645100
1262.19 31828370 31098880 31145800 30686120 31571450 31943110
1267.98 32815290 32319870 31543590 31073710 31237390 31171480
1273.76 31745130 31550040 31498240 31024880 32005420 32406230
1279.55 32688640 32617810 33634830 34611340 35526980 34271700
1285.33 34565290 34400000 34903740 36361780 37189980 37520190
1291.12 40297880 45065800 47107310 44912420 44980850 45025690
1296.90 45770900 45746620 47352570 48259640 50634340 52365330
1302.69 52342350 52406100 54050930 54718640 56160830 60023680
1308.47 60407670 56290040 56476350 57663740 55586400 56343500
1314.26 59339580 58366450 65221960 69818780 66633740 70136010
1320.04 77326540 77211400 71380980 69997180 66972410 66499710
1325.83 64331670 61417240 62176350 64206840 74624860 91077350
1331.61 79629750 61323520 56729220 55905410 56209800 57564080
1337.40 63312650 74717140 75642540 66818460 65021600 65439430
1343.19 77286600 99041370 98520770 91210740 80274900 71149300
1348.97 66639110 61615100 62233620 64638260 68335380 68705900
1354.76 68315170 70335860 73534060 70738770 72209300 73784940
1360.54 69276130 66346720 64495690 62881020 62973360 60239100
1366.33 59175490 58898490 61199370 67784140 70147860 68437390
1372.11 63892210 57707000 57333020 57052120 55688890 54179390
1377.90 57291560 60256020 56040820 51801000 50795980 49513620
1383.68 51591930 52366340 51876390 52690310 55896260 53672600
1389.47 50023280 49335310 49727590 49583560 49421120 48464740
1395.25 49043450 47878040 47788840 48648180 46404280 44001600
1401.04 43298880 42672670 42384300 41037600 40561220 38119180
1406.83 37463100 37725040 38453690 39896880 42871070 48288720
1412.61 48937510 44390460 39060830 37340620 39651050 40330660
1418.40 39281380 38359650 36470100 35893560 38261140 38371200
1424.18 38260140 37063700 35495520 36418360 37189440 38088940
1429.97 37620650 37538810 38714220 36433900 36682670 35978080
1435.75 37348850 34515820 31619750 30608320 29703090 28024340
1441.54 26417160 24216640 23010340 21071260 19662140 18680980
1447.32 17911610 17624030 19832620 26358890 43975600 63441080
1453.11 75176040 68881170 50315340 42119290 39567840 34496770
1458.89 33093380 35104110 37475880 37081370 36762910 35492370
1464.68 31217200 29476350 30971600 34146300 37267860 38497560
1470.47 39649280 40864360 40498310 37846660 36172640 38347060
1476.25 44059090 42020720 43770070 40643550 30129130 27386210
1482.04 28105590 28402430 26351060 26888430 29075240 27962350
1487.82 26487890 26774340 27618370 24861590 23041500 22198490
1493.61 21916300 22948060 25360220 27936040 29881510 27446630
1499.39 24938160 24362160 21926350 19918780 19935280 22615070
1505.18 25239340 24316890 21771220 21790340 24460890 25499830
1510.96 22917490 21110430 20306940 21042750 23443930 23404900
1516.75 21888320 20010370 20326970 21579820 23060930 22899030
1522.53 21176330 19364870 19979190 19962050 19706410 19434950
1528.32 18571700 18209620 18284800 17775160 18631480 18410660
1534.11 18662990 19026400 18458390 18136690 19623140 19339480
1539.89 18404530 17309390 16480130 15156010 15816130 15858840
1545.68 14782730 13809810 13823680 14018080 14263520 13470980
1551.46 12873240 12976090 13879090 13059100 12822000 14411060
1557.25 15730940 14763020 13839960 11590170 10168780 10137780
1563.03 10569350 10446700 9897504 9261782 9482730 9874954
1568.82 9878472 8675848 8012240 7997042 8421588 8340488
1574.60 9556508 9594108 8054558 7396006 7054746 6463618
1580.39 6167028 5969558 5999090 5664410 5658664 5387488
1586.17 5504120 5551082 5465696 5102456 4996986 4897610
1591.96 4914004 4674962 4700016 4556862 4719182 4463346
1597.74 4376546 4092500 4012160 3764470 3855048 3739318
1603.53 3834668 3725704 3657990 3302480 3203008 3015102
1609.32 3012202 2789824 2959022 2864046 3005798 3074988
1615.10 4526710 4871332 3321490 2531358 2440796 2358326
1620.89 2535862 2925342 3197194 2532318 2395916 2271956
1626.67 2595412 2328008 2095068 1935162 2033206 1899774
1632.46 2081782 2853594 4319674 3479668 2500742 2075802
1638.24 1867774 1739952 1752992 1666820 1745404 1703442
1644.03 2485622 3454646 2991884 2386180 2104376 1745516
1649.81 1994356 3702592 6270366 5304084 3207592 1906536
1655.60 1578894 1439212 1470922 1431790 1562048 1617698
1661.38 2182650 2083604 1633516 1505246 1508508 1482056
1667.17 1948626 2644738 2339478 1867776 1779188 1383986
1672.96 1716794 2643822 2597052 1554644 1440334 1345404
1678.74 1599820 1577862 1589544 2003074 3314176 4805118
1684.53 3788504 1639016 1509772 1414512 1606822 1497606
1690.31 1539756 1307580 1416894 1557036 3527560 4421852
1696.10 2515368 1551914 2489874 4409774 3992248 1921342
1701.88 1416940 1588178 1836924 1696732 1767628 1242060
1707.67 1185798 1162580 1367380 1128428 1212936 1333050
1713.45 1924998 1967484 2373084 3569094 3172118 1849862
1719.24 1294718 1087206 1259152 1231354 1300756 1112034
1725.02 1186778 1125218 1258624 1244274 1492768 1264584
1730.81 1398432 2356936 3680188 3303394 1944480 1136918
1736.60 1214384 1227658 1990174 1746624 1269340 1193278
1742.38 1374774 1167360 1210054 1214512 1435782 1461460
1748.17 1587666 1576790 2320376 1813584 1225144 1062822
1753.95 1114776 1242580 1597666 1262670 1163518 1057608
1759.74 1389028 1816568 1598966 1066532 1100964 966854
1765.52 1152054 1472988 1734536 1137184 1397132 1796102
1771.31 2559034 2170186 1302604 1148942 1173286 951916
1777.09 1060312 1026274 1248332 1210142 1092958 966064
1782.88 1181508 1333132 1229644 980610 1093458 1034264
1788.66 1179122 1314996 1670298 2034874 1709960 1103778
1794.45 1222352 1134852 1173276 1105456 1407544 1309094
1800.24 1317448 1242736 1215326 1019466 1079020 957194
1806.02 1080280 1070626 1198324 1240544 1399578 1135044
1811.81 1137768 1019356 1117318 1029590 1153184 1091524
1817.59 1186772 1049650 1104604 1009142 1132356 1079002
1823.38 1388922 1518750 1357876 1153270 1336384 1524998
1829.16 1722838 1235560 1137498 1095334 1179248 1074682
1834.95 1223442 1212636 1286866 1114586 1177848 1062332
1840.73 1206954 1258124 2027180 2141008 1500934 1162866
1846.52 1229974 1144678 1163238 1074830 1153488 1062326
1852.30 1134690 1069648 1171532 1057610 1127152 1077952
1858.09 1176150 1092286 1161164 1082702 1154786 1067530
1863.88 1179114 1158758 1331366 1381004 1650144 1564604
1869.66 1353598 1149768 1167282 1070598 1160212 1106236
1875.45 1176650 1103204 1143528 1051962 1170750 1105828
1881.23 1141982 1075478 1200726 1116064 1200448 1120630
1887.02 1207154 1305960 1407326 1122222 1121068 1082372
1892.80 1180620 1140810 1231644 1104900 1169146 1107572
1898.59 1165692 1035456 1120336 1035170 1147470 1115056
1904.37 1187392 1087050 1175060 1096548 1167134 1071244
1910.16 1152110 1149140 1185780 1033228 1121844 1066052
1915.94 1224996 1413820 1332032 1029370 1133786 1130932
1921.73 1254502 1107066 1107198 1020650 1067402 994852
1927.51 1090022 952214 1031328 953764 1046696 971324
1933.30 1082786 1038394 1109046 1006672 1073536 955142
1939.09 1019708 973258 1201978 1167142 1148234 1010122
1944.87 1040722 964382 1099874 1013224 993742 819736
1950.66 906396 946038 1014336 878406 965584 976924
1956.44 1066250 891894 887764 877676 1087710 917194
1962.23 900592 918652 1157660 992492 1023636 934340
1968.01 1106726 1057854 1035206 865544 1050744 1172560
1973.80 1096926 936350 1175812 1188100 1223982 1127582
1979.58 1156758 1261412 1404066 1176162 1285228 1476860
1985.37 1529566 1432160 1618794 1543862 1969572 1841614
1991.15 1783686 2062930 2168564 2030812 2307958 2149656
1996.94 2605892 2707668 2444326 2820138 3107662 2951038
2002.73 3454794 3087318 3785644 3861292 3666044 4275088
2008.51 4136214 4420506 4738434 4432070 5580480 5003842
2014.30 5592762 5797420 5943724 6474480 6071156 6978000
2020.08 7103552 7194522 7524762 7374198 8342256 7747346
2025.87 8670858 8060572 8684198 8180468 8715864 8833724
2031.65 8903520 8845186 8875270 9102824 8821102 8834590
2037.44 8555288 8460982 8031754 8105986 7982274 7735190
2043.22 7269108 7394414 7521630 7641340 7968542 9061850
2049.01 10449350 12329680 15633110 19941580 22123350 16482190
2054.79 7985306 5121022 5046860 5341990 5664794 6030770
2060.58 6719560 7645140 8783880 10088140 11254400 12264400
2066.37 13542970 15076940 16574220 17627100 18457890 19109190
2072.15 19714380 20113880 20330490 20298870 20265360 19944800
2077.94 19231480 18302240 17295530 16082580 14660340 13189570
2083.72 11677580 9947920 8452288 7047308 5474246 4328922
2089.51 4068184 3824960 3909392 4443526 4480710 3649298
2095.29 3457110 3432878 3730268 3782830 2844302 2122774
2101.08 2283464 2596116 2659414 2678506 2960916 3312496
2106.86 3579454 3489218 3589554 3849784 4106178 4061954
2112.65 4242170 4524564 4835360 4548490 4385810 4424622
2118.43 4704058 4661406 4446704 4284752 4492776 4240370
2124.22 3954728 3857452 3757630 3349500 3115576 3098304
2130.01 3169826 2968526 2673264 2486080 2595586 2408390
2135.79 2042920 1882188 1940988 1915504 1899454 2177614
2141.58 2619186 2540774 2228138 1842456 1899268 2042258
2147.36 2271324 2784462 3216082 3112984 2811164 2368706
2153.15 2564090 2910960 2994606 2912492 3004698 2938270
2158.93 2960470 2954806 2857028 2669672 2878738 3279012
2164.72 3344742 2946144 2868962 3089068 3095854 2766590
2170.50 2854138 3116922 3187396 3059648 3332804 3343028
2176.29 3105406 3041338 3308216 3192326 2843950 2742494
2182.07 2920216 2784116 2723510 2937162 3137592 2792954
2187.86 2665014 2778522 2746180 2526648 2602864 2529218
2193.64 2409878 2415522 2563214 2423658 2390596 2435696
2199.43 2418554 2331900 2479686 2414504 2243286 2159578
2205.22 2337038 2334426 2378198 2411000 2477708 2481020
2211.00 2397972 2200844 2239434 2271806 2334750 2338926
2216.79 2427944 2346920 2353390 2410930 2460716 2293308
2222.57 2238122 2147980 2163176 2133918 2151336 2125286
2228.36 2183024 2149178 2208366 2151958 2137902 2065474
2234.14 2178950 2186106 2184246 2131576 2136332 2006582
2239.93 1945010 1904132 2016912 2007864 1992788 1925020
2245.71 1980026 1967918 2024644 2009950 2026428 2052496
2251.50 2161882 2127886 2216140 2174624 2063266 1932078
2257.28 1987386 2007190 2061030 2050840 2125162 2082860
2263.07 2022120 1959976 2031850 2061934 2155238 2099142
2268.86 2122056 2077980 2105810 2106812 2134474 2089394
2274.64 2123516 2143902 2224966 2217638 2198354 2200154
2280.43 2241942 2171382 2182300 2205692 2266676 2297330
2286.21 2395830 2399632 2445784 2403750 2388824 2379710
2292.00 2425552 2469104 2540262 2509572 2515734 2509620
2297.78 2567938 2570942 2625458 2540856 2549538 2512536
2303.57 2541606 2480072 2466716 2487792 2570428 2556368
2309.35 2632532 2676054 2815180 2861510 2883286 2810968
2315.14 2763918 2734602 2759290 2702064 2685714 2673104
2320.92 2764298 2868000 2965370 2992502 3088570 3120924
2326.71 3083078 3139568 3327260 3231922 3025692 2953538
2332.50 3089458 3099100 3056594 3001556 3104230 3258778
2338.28 3319370 3245520 3256660 3263170 3449062 3546784
2344.07 3673896 3684508 3837974 3608804 3408902 3338606
2349.85 3428874 3496100 3458750 3382582 3564912 3543790
2355.64 3531722 3626362 3731480 3578038 3521540 3646480
2361.42 3848820 3821258 3814334 3837462 3724164 3551158
2367.21 3571134 3644520 3734988 3902822 4194600 4357884
2372.99 4270538 3868710 3665230 3734734 3933778 3908312
2378.78 3793104 3610726 3695758 3768968 3671992 3427166
2384.56 3430558 3498116 3657582 3651054 3609890 3599586
2390.35 3739366 3785508 3986208 4162304 4030702 3657730
2396.14 3529502 3625186 3913836 4122036 4141676 3825254
2401.92 3685034 3854056 4211878 4366948 4403620 4325340
2407.71 4153870 4004926 3965360 3876276 3872278 3986872
2413.49 4086118 4089374 4096182 3871584 3731254 3647906
2419.28 3459168 3350496 3461486 3484192 3523214 3641940
2425.06 3807610 3729776 3563172 3441510 3422810 3292058
2430.85 3157442 3160976 3244416 3199478 3114784 3068974
2436.63 3027838 2998956 3069444 3075358 3051530 3111728
2442.42 3097340 2951690 2948774 2797926 2691856 2705196
2448.20 2871630 3057008 2996062 2742728 2737922 2762164
2453.99 2761228 2697948 2667890 2654960 2711998 2725334
2459.77 2747598 2702794 2607444 2526034 2553168 2637266
2465.56 2592944 2562386 2616966 2572284 2635762 2792976
2471.35 2813254 2551250 2478598 2414794 2403080 2363288
2477.13 2421024 2423244 2368654 2406926 2530028 2527990
2482.92 2553672 2601466 2583220 2474612 2431800 2418416
2488.70 2525152 2553844 2549828 2500886 2464126 2476094
2494.49 2559936 2530894 2406750 2389860 2501900 2580708
2500.27 2500282 2395528 2434346 2399804 2325862 2307474
2506.06 2416754 2455648 2508330 2495218 2512868 2433238
2511.84 2504590 2523878 2518594 2526488 2576256 2599536
2517.63 2651518 2661790 2690780 2728796 2759962 2816704
2523.41 2849374 2957220 3030782 3013936 3009348 2923532
2529.20 2861864 2845074 2906998 2942970 2945994 2964344
2534.99 2929284 2937912 2965450 3018212 3157672 3167574
2540.77 3107944 3067216 3033424 2959742 2960944 2981124
2546.56 3051672 3033690 2968674 2956934 2980132 3159148
2552.34 3307422 3302566 3277724 3227186 3082702 2967014
2558.13 2947586 3089986 3302330 3305352 3192270 3167376
2563.91 3219154 3280540 3290072 3238956 3284026 3401208
2569.70 3526702 3544500 3564118 3682438 3796862 3768708
2575.48 3653482 3663102 3788148 3802614 3789422 3882070
2581.27 4111090 4205844 4083774 4056816 4328132 4457324
2587.05 4363210 4357154 4451420 4602612 4728186 4895592
2592.84 5109246 5200486 5029576 4943630 4982608 5138760
2598.63 5204486 5134676 4969950 4880040 4868838 4738548
2604.41 4766492 4929270 4978180 4947628 4848130 4923240
2610.20 5130774 5437280 5534810 5248424 5146634 5197572
2615.98 5149346 5256264 5645998 5686980 5496158 5568474
2621.77 5610148 5598146 5604588 5804438 5995850 5962350
2627.55 5770662 5647472 5829188 6175870 6033532 5805446
2633.34 5797048 5986152 5804018 5652350 5619238 5399140
2639.12 5259560 5402884 5322152 4913674 4768032 4975866
2644.91 4974122 4795774 4854622 5388314 5670812 5388896
2650.69 5089912 4997168 4856764 4885728 4922672 4930308
2656.48 4974464 5172550 5313172 5428742 5296158 4837648
2662.27 4607422 4782850 5052296 5310216 5148778 5015712
2668.05 5084336 5215456 5467140 5530580 5279948 5086172
2673.84 4943618 5044044 5077026 5181194 5265630 5417066
2679.62 5237308 5128204 5052456 4991028 4894486 4994126
2685.41 4976610 4899568 4771150 4662194 4587590 4689192
2691.19 4797172 4920970 4837220 5035974 5046510 5021786
2696.98 5079768 5137228 5167276 5210576 5259652 5259186
2702.76 5178678 5315622 5264876 5228816 5158854 5226398
2708.55 5380846 5628948 5599310 5409292 5283786 5375004
2714.33 5344842 5219100 5056578 5132334 5310638 5615674
2720.12 5867796 5993234 5786394 5792032 5789486 6127722
2725.91 6488116 6651114 6320422 6287694 6270730 6365768
2731.69 6567658 6785964 7000200 7304658 7800286 8579822
2737.48 8513828 8317264 8281348 8468226 8456788 8610374
2743.26 8733816 9080870 9235030 9426998 9472154 9961370
2749.05 10281440 10699810 10664310 10698530 10296490 10555200
2754.83 10862110 11309180 11169620 11345160 11644040 11988470
2760.62 11881570 12040560 12613710 13458190 13394240 13761830
2766.40 14007450 14415860 14743980 15402380 16038370 16486100
2772.19 16541440 17005340 17677330 18672880 18435310 18679440
2777.97 19097140 20148650 21176650 22279190 22693710 23239210
2783.76 24241560 25362770 25055370 25977360 27185600 28674840
2789.54 29348000 31490660 33351590 34765980 34778780 35973820
2795.33 37972560 40082700 42072140 45553050 47619300 49304410
2801.12 52228220 55692870 58559830 61632070 64861860 68748220
2806.90 72401950 76696670 80491840 84531680 89010670 93148480
2812.69 97844060 102724900 107504700 111159600 115441300 118456600
2818.47 123727400 129317900 131665400 132868700 133451800 134162000
2824.26 136405800 137420300 136416000 134691500 133880400 132540300
2830.04 130634600 128561700 123894500 119271400 119205500 112945200
2835.83 108787100 114356600 123923400 125046000 125798300 153248700
2841.61 191144500 228506100 232120300 194245400 162294200 137290100
2847.40 126869300 115065200 108562400 110406500 115434100 120941500
2853.18 132106700 141318700 151359200 162178700 171299200 178561500
2858.97 186554100 192494800 197578800 203779800 208938800 209968600
2864.76 210923600 208086400 204422300 203199200 199138100 195383900
2870.54 195953200 193729300 186644700 186131200 187616500 175884800
2876.33 170843100 166347000 161003700 163272900 167076100 157104700
2882.11 147916500 143382600 138862800 143781300 153818000 150232300
2887.90 138759800 135613300 136429700 150379700 172710400 165996100
2893.68 152839500 150540900 151125400 156746200 163880900 170362500
2899.47 171308100 183127000 197604400 188490300 184178400 187620800
2905.25 194133600 204178300 218673300 226619900 223005800 221791700
2911.04 223652500 228209600 239409200 242609100 245843400 250342400
2916.82 260546000 283483700 304702400 306381700 304373400 313662600
2922.61 319364400 305925500 285607300 272745000 260978200 269888900
2928.40 273685800 263306300 263967000 274192800 285845600 299006100
2934.18 307409100 316800600 321045700 316715400 315551100 319944600
2939.97 310836200 315332400 317141100 307670000 301926600 301765700
2945.75 308899400 310332500 315038100 322538800 312491800 315977700
2951.54 309648600 303706100 301061600 294705000 287596100 313447300
2957.32 324234700 299618500 281816500 282326700 296255500 316266200
2963.11 321236500 329268200 338186200 348088500 353790300 327135400
2968.89 308449900 323304000 346422400 357013800 355880300 337907700
2974.68 315891400 301241400 306093200 302163300 322428600 341838100
2980.46 377658700 362333000 302757600 282257200 279794200 280048000
2986.25 271251400 263939600 253260800 235429300 241914000 251005100
2992.04 241325900 212842200 205838500 215416400 212034500 184791600
2997.82 170763100 176018000 192246900 195736900 181903900 176334000
3003.61 189614900 214278400 199016300 175458300 180045000 191186600
3009.39 202568700 187172800 168714400 160600400 159281800 162478300
3015.18 170186300 157353400 137708400 126320000 124894800 124498100
3020.96 131727600 143673100 134557900 113403800 113593300 114456300
3026.75 110541400 115983800 116124700 109413500 116797300 113366800
3032.53 104551300 95883940 95426060 97957580 91647700 83426840
3038.32 79370220 78178980 82564180 87074820 82859430 75747400
3044.10 69271650 67132360 66997830 61418980 59960810 55955810
3049.89 50643470 49652060 53920260 53984380 51015660 48301910
3055.67 46285400 43525490 43180220 42520530 42274760 39522560
3061.46 38219000 38075320 37758930 36940870 36173610 34456860
3067.25 31948210 30029470 28541280 27290740 26456450 25699530
3073.03 24290390 23624490 23301590 21988110 20767530 20165430
3078.82 19866630 19182970 18080770 16864450 16064170 15305170
3084.60 14618770 14013360 13499840 13138530 12530160 11819530
3090.39 11468800 10934150 10351030 9803462 9344260 9047296
3096.17 8950366 8594996 8139706 7757606 7433498 7125708
3101.96 6974730 6665948 6540226 6289024 5980592 5647234
3107.74 5512108 5296770 5140548 4855696 4652708 4436990
3113.53 4229340 4006604 4101738 4106836 4166500 3925038
3119.31 3741930 3598422 3590150 3448640 3304980 3089452
3125.10 3151380 3206930 3225598 3063804 3073236 3035154
3130.89 3214274 3092348 2923176 2705054 2704686 2704214
3136.67 2767306 2457802 2410456 2455860 2463014 2519488
3142.46 2692426 2489030 2420676 2263868 2256324 2244264
3148.24 2358824 2248346 2199408 2100888 2168814 2247252
3154.03 2318294 2289286 2305614 2220010 2219096 2210188
3159.81 2430314 2460798 2767034 2527172 2259014 2401148
3165.60 2570646 2265388 2083836 2044022 2265838 2370726
3171.38 2245176 2062012 2073836 2017506 2013720 1987510
3177.17 2210948 2198520 2255358 2186420 2170280 2032646
3182.95 2039786 2063042 2144396 2123952 2139208 2052916
3188.74 1998762 2116244 2410534 2230822 2021696 1921392
3194.53 1962398 1965354 1936546 1814698 1925270 2056974
3200.31 2137838 2142666 2133368 1962760 1898760 1800714
3206.10 1758630 1792424 2016198 1948572 1977142 2022530
3211.88 1958334 1806482 1853842 1848794 1799066 1693108
3217.67 1733940 1730878 1884428 1871362 1859310 1835050
3223.45 1881174 1747376 1805486 1795266 1779410 1693686
3229.24 1664696 1604648 1724556 1653094 1694006 1646090
3235.02 1741302 1653694 1650826 1676940 1654064 1525624
3240.81 1533738 1550924 1577302 1614694 1784524 1682204
3246.59 1670270 1690824 1623190 1471134 1446696 1442150
3252.38 1549744 1552724 1534450 1529100 1516880 1454726
3258.17 1451774 1519982 1641640 1644674 1600266 1467154
3263.95 1466920 1559432 1635336 1487988 1472028 1499384
3269.74 1396632 1360368 1391540 1286878 1354008 1428868
3275.52 1502592 1279152 1342476 1406282 1490142 1455334
3281.31 1409012 1421780 1490986 1344676 1374256 1421170
3287.09 1421012 1410310 1321856 1250198 1349616 1397048
3292.88 1385904 1190100 1200114 1302738 1401444 1376504
3298.66 1345552 1316798 1358712 1374170 1350682 1199290
3304.45 1168234 1169842 1343246 1314314 1268996 1290554
3310.23 1368698 1312142 1341750 1318096 1276894 1327478
3316.02 1411816 1313990 1278618 1321738 1325308 1355476
3321.80 1264946 1209594 1218046 1325272 1447680 1398910
3327.59 1501536 1456802 1461490 1344928 1344046 1417506
3333.38 1367206 1299256 1383432 1410674 1410592 1440976
3339.16 1548426 1442344 1429076 1575692 1583388 1494384
3344.95 1553880 1500728 1617980 1632248 1459100 1444652
3350.73 1621910 1615598 1582752 1670226 1622440 1410616
3356.52 1432600 1457176 1499312 1555402 1660324 1599062
3362.30 1745808 1900156 2011366 1844008 1620424 1458588
3368.09 1512882 1628024 1721808 1620934 1623990 1733380
3373.87 1792922 1754772 1817382 2244062 2259418 1914288
3379.66 1836558 1796380 1785390 1985042 2286736 2109148
3385.44 1987036 1962422 1921630 1983946 2078706 2031768
3391.23 2163624 2082232 2113406 2114922 2121730 2096676
3397.02 2211602 1943714 1767674 1775938 2134386 2342932
3402.80 2465036 2229602 1979308 1968308 1947232 1940744
3408.59 2374232 2606154 2304844 2207706 2251532 2288320
3414.37 2274908 2312278 2467466 2685702 2842236 2666316
3420.16 2468480 2342630 2288974 2269212 2313614 2313882
3425.94 2453798 2668914 2749332 2808626 3141528 3731358
3431.73 3732080 2994488 2779252 2849866 2970824 2946984
3437.51 2766524 2731214 3004840 3522122 3916624 3721164
3443.30 2941756 2620390 2497800 2672576 3499786 3775168
3449.08 3311346 3252270 3554606 3291970 2768126 2693752
3454.87 2637722 2727782 3244464 3863864 3767918 3000324
3460.66 3073518 3099800 2944024 3248270 3538734 3189314
3466.44 2910048 2796806 2874548 3092108 3557310 3465520
3472.23 2993298 2872352 3117070 3220558 3459420 3956008
3478.01 3885386 4100556 5157158 5248134 4436966 4306702
3483.80 4420628 4485342 4652210 5355480 5613468 4628888
3489.58 3855436 3698776 4020134 4828662 4469096 3776370
3495.37 3699464 3993316 4297790 4135846 3662148 3170502
3501.15 3258038 3393808 3902450 4908066 5407756 4157806
3506.94 3345544 3419414 3426446 3730102 4892658 5256740
3512.72 4200332 3186182 3169250 3287796 3521368 3805006
3518.51 3880232 3729294 3540036 3710464 4757526 5037616
3524.30 4245838 4696566 5077620 3871440 3379792 3252518
3530.08 3745822 3896454 4596628 5225956 5994718 5766442
3535.87 4332230 4006616 6280548 7682676 6536632 4804706
3541.65 3476306 3574436 3962188 5010070 4782080 4401216
3547.44 4030196 3748746 3784960 4082406 4141328 4322862
3553.22 4851374 5386696 5050032 4609296 4496926 4386368
3559.01 4517524 4831968 4993472 4720176 4527574 4842906
3564.79 5824782 8812664 10667930 7953024 5515030 5373284
3570.58 5111060 5141030 6041468 8157772 9551266 8049804
3576.36 7716622 7493952 6872530 7704898 8022448 7436190
3582.15 6294222 6627472 6914314 8092782 8372130 8065150
3587.94 7930282 7456236 7284680 7327798 7915962 9107196
3593.72 9848224 10033310 9342010 9242596 9833266 10022720
3599.51 9433184 9421848 9315174 9125232 9429698 10176910
3605.29 10973590 11391750 11755090 12265740 12139550 12127030
3611.08 13766440 16489910 16947210 16057260 16042630 18767560
3616.86 19234310 16309750 17469130 20334760 20345500 18266610
3622.65 17605180 18564150 21168600 26622140 31263180 31045660
3628.43 28083000 26835210 28843470 29230590 29779270 29653420
3634.22 29106170 31230290 35590850 38698280 38883390 38285860
3640.00 41801030 48783320 51232760 54875310 61959440 58914040
3645.79 53325410 54525110 59245370 64140130 69814030 74874220
3651.57 77103570 75445290 74867300 76959740 81296330 88677240
3657.36 91306420 87226500 84115440 85989010 94819340 103333400
3663.15 97335720 91971100 97485560 100169100 93911340 89132830
3668.93 82463730 83347830 88759190 90837060 82805300 80815930
3674.72 80330690 85580520 82630480 82205220 101646500 138436000
3680.50 145660400 100719400 75951880 77966730 75313980 59024280
3686.29 59059240 59098620 56435170 62660190 69756730 80027980
3692.07 92700480 96910550 101486700 104082900 103238600 102008600
3697.86 96563910 94566990 95783820 98836470 98046900 95115030
3703.64 99506610 106721300 107000900 99245340 99101390 100913200
3709.43 94930170 91907550 95639120 100086000 96137620 85928180
3715.21 81833070 81048890 78662380 80754120 81914000 77647820
3721.00 70396410 64583460 59630430 54981910 54151090 50853950
3726.79 46086960 45949790 47658910 45712600 44727360 43260250
3732.57 38484560 33875580 30055260 29013210 28828550 30266520
3738.36 28547950 25224940 23070870 20430100 20170740 22166230
3744.14 21849100 19810320 18409370 17564540 22193270 21537760
3749.93 16473840 16823270 17808510 17627330 14529600 12426120
3755.71 13356870 16851100 20299220 15694510 11823540 11880330
3761.50 11610350 12771080 16116090 16127250 13620340 10817060
3767.28 9885418 9961296 9646996 8682462 8527592 8270778
3773.07 7725148 7449084 7383678 7827586 8410958 8251794
3778.85 7552854 7073434 7292950 7822056 7496026 6433644
3784.64 5926926 5700026 5699934 5799084 5917726 6545448
3790.43 7387358 7115856 6475500 5737578 6473850 9032034
3796.21 8528808 5937970 5546814 6105478 7761396 7359500
3802.00 5931648 5315050 5381052 6214948 7197226 6784576
3807.78 6531512 7276556 8831850 8832166 7123478 6055304
3813.57 6682698 8583298 7661342 5354688 4777146 4850628
3819.35 5612172 6256432 6154482 7690872 9370134 7302830
3825.14 6138530 6066424 5525804 5138240 5277494 5487246
3830.92 5701142 5351816 5785024 6415122 6185412 6448624
3836.71 7948106 7290092 6581444 7094572 8573298 9608960
3842.49 7876252 5816526 5160586 5257252 5973066 6513256
3848.28 6119028 5639110 6671836 8567384 10471220 12553550
3854.07 9269916 6233776 6215198 6363402 6435258 6188392
3859.85 5854118 6325298 6823328 6750900 7215256 8223776
3865.64 8517276 7897080 8284340 9135014 8851238 7839674
3871.42 7606930 6932620 6171774 5613398 5505514 5319806
3877.21 4933354 5116344 5764538 5570194 5353462 5787884
3882.99 6007242 6589002 7321636 6697548 6439102 7199582
3888.78 8704100 8623126 7855946 7749900 8678722 8799490
3894.56 7705924 6860496 7004984 7766098 8475048 8428150
3900.35 8072248 7186292 6735264 6778072 5952592 5428164
3906.13 5157018 5150928 5401696 5505786 5156660 4730528
3911.92 4545546 4723030 5030640 5186980 5147736 5052442
3917.70 5093990 5837760 6386714 5922748 5535730 5873806
3923.49 5595602 5144572 4957034 5011614 5136624 5253178
3929.28 5143500 5065470 5530196 5960572 5637192 5125708
3935.06 4967752 5110678 5259704 5666800 5887462 5702326
3940.85 5940202 6477224 6310872 5982170 6243422 6543048
3946.63 6160862 5583322 5364474 5394386 5681712 5849904
3952.42 5408082 5222416 5383512 5472286 5461858 5499210
3958.20 5382216 5324566 5501342 5814770 6047820 6009904
3963.99 5813606 6041284 6055232 5817486 5682690 5951852
3969.77 6208982 5866102 5544864 5475942 5546482
##END=
