##TITLE=Methanol
##JCAMP-DX=4.24
##DATA TYPE=INFRARED SPECTRUM
##CLASS=IUPAC A
##ORIGIN=NIST, Anayltical Chemistry Division, 301-975-3108
##OWNER=COPYRIGHT (C) 1998 by the U.S. Secretary of Commerce
##DATE=98/10/1
##$SPECTRA VERSION=1.00
##$UNCERTAINTY IN Y=2.0 % relative (B=1.0E-04,C=6.6E-10,D=2.7E-14)
##CAS NAME=Methanol
##CAS REGISTRY NO=67-56-1
##MOLFORM=C H3 O H
##MP=-93.9 C
##BP=64.96 C
##$NIST SOURCE=QUANT-IR
##SPECTROMETER/DATA SYSTEM=IFS66V (Bruker)
##INSTRUMENT PARAMETERS=KBr Beam splitter; MCT Detector; Multipass cell
##STATE=gas
##SAMPLE DESCRIPTION=Methanol Primary Gas Standard
##PRESSURE=101.3 kPa
##TEMPERATURE=23 C
##SAMPLING PROCEDURE=1 L/min Flow
##RESOLUTION=0.9640
##DATA PROCESSING=3-Term B-H Apodization
##XUNITS=cm-1
##YUNITS=(micromol/mol)-1m-1 (base 10)
##XFACTOR=1.0
##YFACTOR=4.5474E-13
##DELTAX=0.4820
##FIRSTX=575.169
##LASTX=3975.077
##FIRSTY=2.99E-06
##MAXX=3974.59
##MINX=575.17
##MAXY=.0008971
##MINY=3.73E-07
##NPOINTS=7053
##XYDATA=(X++(Y..Y))
575.17 6589636 5628804 5081794 5023322 5512166 5179178
577.58 5072140 5018116 4494552 5228770 6137532 6145438
580.47 7203056 9095512 10287420 10501140 8948556 6475800
583.37 5186446 5008160 4713564 4157556 3831428 3656732
586.26 3770296 4315940 4723400 4640412 4839992 5435394
589.15 5414972 5046208 5022594 4969276 4971572 5278270
592.04 5130420 5108950 6124560 6015180 4777686 4429544
594.94 4324728 4091138 4528724 5045338 5169204 5696248
597.83 6977556 8814760 10059970 8966612 6289374 4235794
600.72 3602426 4106698 4940188 5379636 5433820 5210596
603.61 4512668 3743448 3455072 3440450 3694604 3820394
606.51 3375502 3425862 3860832 3727994 3814854 4239348
609.40 4435992 5169764 6424206 6702460 5379334 3886504
612.29 3478568 3520688 3433634 3541148 3770470 4019446
615.18 4536120 5256152 6332294 7680620 7629516 5600178
618.08 3903362 3285228 3074040 3019278 2732246 2516698
620.97 2960766 3725030 4283520 4791686 5395124 5591316
623.86 4680760 3530748 3074152 2937236 2757132 2593958
626.76 2658264 2688752 2761560 3117834 3266074 3069522
629.65 3263152 3702744 3414996 3017026 3106746 3053408
632.54 3072248 3370100 3281962 3027272 3207356 3249872
635.43 3010928 3161048 3162456 2638582 2674448 3526070
638.33 3810214 3355212 3337048 3410836 3018396 3017436
641.22 3437594 3448974 3431296 4164926 5108904 5156992
644.11 4270168 3410368 3307954 3921344 4476180 4867846
647.00 5663038 5641210 4544388 4348128 4834888 4548656
649.90 3995126 3811874 3533180 3355618 3778810 4271030
652.79 4482454 4948198 5516230 5869910 6833802 8150158
655.68 8010386 6676764 5457794 4529768 4243434 4685360
658.58 4711392 3716970 3027616 3199758 3343910 3169846
661.47 3078708 3085852 3076872 3125540 3129838 2954510
664.36 2577922 2130350 2171466 2723724 2862536 2729696
667.25 2988542 3165138 3157206 3190042 3056540 2932460
670.15 2989256 2955538 3009124 3159108 3005176 3012006
673.04 3298418 3183164 3037534 3245682 3265140 3198596
675.93 3363942 3402434 3152204 3142230 3288844 2943736
678.82 2842082 3301270 3268136 2924178 3094300 3349934
681.72 3218834 2948348 2858312 2851384 2675910 2604740
684.61 2900458 3153726 3038588 2840090 2896682 2904218
687.50 2768740 2939588 3331032 3796806 4536428 5438866
690.40 6321898 7224734 7637160 6527556 4947384 4575834
693.29 5863096 8251366 8014656 5053612 3378908 3351786
696.18 3704562 3876928 3451250 2841292 2660202 2591754
699.07 2587168 2747864 2828204 2736356 2731488 2812768
701.97 2657200 2513178 2682878 2844674 2676824 2550680
704.86 2724920 2774028 2814954 2980180 2815754 2485082
707.75 2438630 2788538 3142358 3168688 3272138 3499658
710.64 3521566 3377742 3208778 3160316 3303308 3300764
713.54 3072604 2988194 3134184 3207698 3164584 3151500
716.43 3137440 2936376 2768296 2879830 2946536 2926602
719.32 3079012 3225712 3261510 3271370 3229252 2924058
722.22 2748854 3045938 3168876 2959266 3014302 3028140
725.11 2728694 2600846 2673538 2663018 2695180 2758330
728.00 2613210 2423756 2482892 2489960 2405328 2536890
730.89 2669366 2787290 3128136 3557392 3870398 4071356
733.79 4332966 4916722 6253534 8325806 10052480 9979792
736.68 7677864 4514890 2600796 2083780 2026084 2000768
739.57 1926518 1898266 1850656 1885556 2082124 2129522
742.46 1952518 1920992 2034764 2004338 1950180 2105326
745.36 2440606 2811094 3016642 2840060 2610492 2794540
748.25 2944144 2770226 2901168 3103658 2810890 2553506
751.14 2678072 2689952 2733896 2985806 2899252 2666656
754.04 2699370 2581420 2415234 2589378 2567556 2414128
756.93 2654008 2756684 2569164 2608670 2650462 2480192
759.82 2448596 2422202 2312526 2486882 2600118 2395466
762.71 2403768 2466134 2371752 2559614 2686386 2425944
765.61 2343530 2363900 2127220 2032778 2217798 2154940
768.50 2150168 2411376 2312590 2126388 2162398 1925826
771.39 1721814 1894272 2106026 2233190 2173990 2009542
774.28 2021448 2081498 2255064 2488618 2824474 3917396
777.18 4937336 4914446 5074942 5929998 6490436 6231732
780.07 5513990 4118080 2491548 1773332 1675172 1543336
782.96 1415006 1392006 1347444 1256356 1301948 1436162
785.86 1418676 1300046 1379312 1440630 1312344 1486560
788.75 1805500 1759318 1781828 1987718 1827476 1619724
791.64 1860602 2001414 1867142 1969186 2060924 2007440
794.53 2211704 2259752 1942870 1819264 1884400 1794310
797.43 1846696 2059974 1959342 1827668 1987718 1945054
800.32 1805926 2021532 2101488 1942090 2038042 2041182
803.21 1777654 1725572 2042978 2339880 2512320 2505774
806.10 2175872 1841034 1768246 1867332 1979586 1914672
809.00 1857054 1829854 1717478 1607092 1568308 1615278
811.89 1787034 1955402 2020624 2023288 1975524 1898996
814.78 1827780 1799800 1848268 1976968 2027892 1996158
817.68 2233990 2707594 3239420 3845888 4316676 4378616
820.57 4194558 3510504 2550404 2113338 2048422 2185766
823.46 2635468 2955972 2715498 2130270 1800874 1797366
826.35 1967872 2342722 2640506 2523592 2208522 2079090
829.25 2021742 1865164 1819128 1844674 1767260 1638524
832.14 1627568 1724426 1862772 1972086 1883542 1695804
835.03 1777700 1992162 2124880 2269758 2248194 2082888
837.92 2263270 2490330 2322062 2129264 2149328 2149050
840.82 2145088 2224864 2239358 2146068 2141044 2218854
843.71 2279110 2386460 2464326 2541930 2606654 2414550
846.60 2210944 2185286 2181772 2152988 2104220 2039166
849.50 2082904 2115392 2031862 2037500 2165268 2272660
852.39 2346586 2293288 2248292 2300908 2282510 2196728
855.28 2259668 2345160 2256432 2206666 2463196 2839528
858.17 3153714 3597588 4132288 4117128 3332224 2465502
861.07 2087364 2039828 2033238 2023632 2068242 2159624
863.96 2269098 2308160 2354666 2521072 2714852 2731842
866.85 2573266 2457122 2662052 2921512 2803944 2534910
869.74 2463584 2552642 2814926 3113826 3379074 3724774
872.64 3946232 3640418 3177840 2962674 2856760 2815342
875.53 2862586 2791626 2642784 2589034 2613144 2698452
878.42 2850238 2822686 2633848 2600144 2661244 2684168
881.31 2647734 2511394 2461468 2536764 2590828 2680938
884.21 2936858 3057170 2864226 2661392 2676938 2750314
887.10 2725316 2686286 2770794 2838184 2724176 2602288
889.99 2647580 2671014 2759348 2964030 2946642 2829322
892.89 3026732 3134522 2949948 2998558 3186112 3096700
895.78 3144938 3462848 3486466 3360450 3666254 4255752
898.67 4917138 5146196 4560446 3678516 3185840 3136022
901.56 3129124 3077882 3160284 3201384 3145918 3127922
904.46 3223480 3390054 3544386 3651264 3839456 3920902
907.35 3791842 3845974 4084234 4073854 3962642 3816606
910.24 3701380 3913756 4177060 4271284 4420818 4422304
913.13 4210618 4139386 4240876 4264074 4479452 4939854
916.03 4991838 4596720 4434450 4616522 4759332 4667534
918.92 4670766 4945062 5116342 5011532 5114710 5307376
921.81 5185642 5093282 5357968 5676068 5863368 6008984
924.71 6080998 6049100 6083482 6202354 6450346 6518936
927.60 6377720 6400550 6572478 6537070 6406588 6607106
930.49 6883608 6886090 7153684 7641826 7750544 7465168
933.38 7330770 7316988 6989488 6877610 7333826 7314812
936.28 7084906 7628264 8017106 7873522 8421466 9024732
939.17 8681836 8640058 9474616 9656426 8984498 8502216
942.06 8268498 8282908 8937472 9516408 9185772 8510562
944.95 8474334 8929734 9315578 9575000 9697856 9708870
947.85 9805468 9802108 9576692 9376392 10326780 12132350
950.74 12618330 11570350 11133550 12072940 13473510 13889000
953.63 13385110 13170020 14498200 16013900 15097870 13464730
956.53 14135940 16389720 17079280 16729500 17636970 18584080
959.42 19966470 21766910 21448280 19900860 20959810 24325610
962.31 24883170 22479190 22306900 25644670 28694330 28204060
965.20 25974030 26880520 32532910 36427660 34566190 33645960
968.10 39265380 45158720 43557650 37702820 37828680 46618860
970.99 53583800 49404580 43177860 49465310 63363680 64770160
973.88 53570680 53285980 69899900 79948990 69431660 60556090
976.77 74194860 94184540 91285730 74513130 80415240 108255900
979.67 116992700 95536750 88803040 115387100 135550100 120014000
982.56 104004600 123755700 153472100 149129900 124415000 132621400
985.45 169943600 181210000 153463500 147917400 186131500 211805000
988.35 187799900 169125600 202749900 242027700 227196400 196454400
991.24 221066800 270774000 267913000 228404700 241320300 298900100
994.13 310649000 266003300 263854500 323927600 350508200 305520400
997.02 289548400 351182500 392947700 347020700 316103300 379941900
999.92 435994400 387820500 344389200 411750200 476530500 422871800
1002.81 374771400 450279500 514887900 449010500 398756300 481280100
1005.70 541748000 468129800 425251000 514718000 561687100 477726400
1008.59 446650400 540258800 567997400 478622800 467927700 563546800
1011.49 566051700 473798400 484436300 570731300 543337200 461937400
1014.38 502621600 572151800 514792100 456438000 519442700 552749400
1017.27 475367300 447657800 502353200 482309800 407498200 424797000
1020.17 465897700 412212100 365057400 394361000 385756700 321036200
1023.06 311524700 342394700 318870700 277783200 281247000 276734900
1025.95 247802900 256017700 271952900 245493100 230472600 250214600
1028.84 264724000 288540800 351780800 444194800 568546800 759838600
1031.74 1075340000 1546649000 1972784000 1953373000 1379198000 676655900
1034.63 300314900 217726200 210877200 200106000 184843200 174830300
1037.52 185957300 200842700 192198700 196442900 228815400 245914800
1040.41 257053000 292698000 316496200 317146300 346287300 388604000
1043.31 395483100 413912900 459030700 468187100 484083700 537600000
1046.20 548223000 553102700 602251100 610184500 610825500 661711300
1049.09 667092600 662344200 711083600 710527000 702511100 746827200
1051.99 735433900 725335800 765175500 746310200 739689300 770658600
1054.88 745894100 744945800 760991500 731496500 732101200 731799400
1057.77 707070100 707687400 693951400 676924400 671947100 648950200
1060.66 634496300 621811300 599906900 586407900 568365900 549067200
1063.56 532593200 512105800 491016200 470087700 451698800 431611400
1066.45 413286100 396249000 375583900 360362300 341057100 319787600
1069.34 304910300 286203400 270399900 256406400 240540700 226298700
1072.23 212929700 200276900 187864600 175917300 159482700 145099200
1075.13 131951300 121541700 112567000 103013600 95294410 87675420
1078.02 80690400 74540960 69632340 65176940 59465520 54194340
1080.91 51085640 47020810 42416450 39717050 37217340 34494540
1083.81 32857710 31354910 29540620 27984050 26460990 25167350
1086.70 23828010 22252900 22188210 22757980 21802330 21230120
1089.59 21981090 21572380 20639240 21631820 22957850 23329490
1092.48 24826570 26883140 26307030 23627490 22044670 21165210
1095.38 20025680 20077460 22096920 23487300 21744990 19988240
1098.27 20001600 19582900 19066150 19515570 19526970 18869370
1101.16 18738160 18869490 18673170 18504320 18662210 18732620
1104.05 18883110 19725180 20738910 21230020 20971720 19778910
1106.95 18399170 18703360 20024830 19358460 17864540 17804400
1109.84 18269660 18559310 19439740 19958060 18391300 17323870
1112.73 18986810 21592030 22784520 22471340 21174360 18739650
1115.63 17143060 17001800 16343490 15915330 16252390 15785820
1118.52 15385840 15815170 15762260 15767330 16373400 16111410
1121.41 15404340 15739470 16078580 15771860 15978890 16135350
1124.30 15109530 14256220 14407500 14601100 14261420 13822860
1127.20 13590670 13450180 14110270 14980780 14245150 13171590
1130.09 13113850 13041780 12839850 13044350 12864320 12198010
1132.98 12228840 12750910 13511350 15421830 17057060 16642410
1135.87 15085410 14009150 13401990 12663030 12301890 11610300
1138.77 10813800 11378600 12102310 13372930 16405850 16929850
1141.66 13981950 12046890 12021270 12368590 12798650 13212870
1144.55 12567570 11462250 11039330 10818200 10982570 11779270
1147.45 12049760 11679620 11725030 11673520 10731420 9901562
1150.34 9767794 9872800 10434960 11357400 11283120 10793330
1153.23 11304860 11026690 9635246 9487140 9984012 9930234
1156.12 10699870 11917240 11594020 10423990 10090280 10422870
1159.02 10656590 10903320 11382630 11567130 11125810 10546220
1161.91 10281570 10624010 11249640 11877600 12566520 12591290
1164.80 11644620 10920880 10562160 9724258 9427830 9859430
1167.69 9647944 9197690 9569776 10136750 10104730 9830234
1170.59 9811752 9735078 9270510 9169422 9712326 9916424
1173.48 9932076 10485840 10774020 10474170 10635710 11173730
1176.37 11039110 10707700 10963180 11068210 10843360 11151910
1179.26 11762220 11825690 11467920 11390540 12115530 12972720
1182.16 12963900 12825100 13414510 13460720 12649550 12679990
1185.05 12970610 12615250 13059030 14182560 14391310 14187940
1187.94 14403290 14034590 13334440 13772050 14307560 13844610
1190.84 14062610 15114030 14897740 14155380 14797030 15238310
1193.73 14575450 15553270 17697290 17334880 16039070 17084580
1196.62 18408180 18100070 17695320 18026150 17866400 17233370
1199.51 17628790 18491210 18695410 19540880 21880240 23078140
1202.41 21583160 19707710 19612820 20525730 20634210 20104760
1205.30 20372660 20668330 20403790 21386910 22933510 23251720
1208.19 23499750 23376800 21535940 19611730 20527180 22771890
1211.08 22866710 23307570 26095010 26523960 25287640 27703540
1213.98 29187370 25744110 23127560 23147440 22100660 20520470
1216.87 21306030 22206840 20951680 20602000 21831010 21846630
1219.76 21583700 22338170 22193860 21158790 22120650 23661400
1222.66 22574800 21661270 23297960 25875220 28137330 28487700
1225.55 26108290 23451230 23619080 25161400 26564340 27620100
1228.44 25793640 21653350 19010710 18989730 18586490 18038970
1231.33 21248720 26022400 27297640 27577070 27412000 23813560
1234.23 21870930 21728080 19782640 19770460 22393320 22557300
1237.12 21400340 23973450 28989370 31329460 31665910 31658320
1240.01 29592350 27135890 25656760 24905600 25871430 26745550
1242.90 25332850 24205710 24933320 24976960 23830550 23838970
1245.80 24647170 24671660 24680780 25637340 27185370 29138470
1248.69 30511580 30488030 29828640 29127330 28193320 27712340
1251.58 28107210 28569670 28836140 29101910 29660160 30221600
1254.48 29834240 29459030 31016400 32655090 32188140 31795360
1257.37 32674060 32300370 30257110 29605290 31155870 31849690
1260.26 30437560 30254340 31815540 32342400 31820420 31434660
1263.15 31634620 31497220 30607580 30850040 31610640 30559010
1266.05 29941380 31887900 32768990 31393080 31659970 33611790
1268.94 33311890 32054240 32004810 31233410 30858790 31669590
1271.83 31001510 30594330 31814760 31239730 30546130 32347420
1274.72 32449280 30628960 31415980 32643570 30824640 29749130
1277.62 31862790 32849790 31556770 32096980 33771760 32674200
1280.51 31261750 32966230 34032540 32752950 33274240 35540680
1283.40 35915950 35212500 35111590 34592920 33560120 33922450
1286.30 35447400 35156270 33475030 33820340 36079420 37366340
1289.19 36818450 36532320 37630420 37708160 37312370 39555360
1292.08 42797940 45481040 48099470 48279900 45909500 43824710
1294.97 44197490 45835060 44861220 44150930 46231240 46231350
1297.87 44538310 45907230 47211780 46199220 47704810 49948640
1300.76 48263170 48364570 53683370 55011720 50489930 50700010
1303.65 54589130 52640240 50110530 54818510 57498360 53383060
1306.54 52980210 56969580 58001900 59464050 63150900 62099820
1309.44 57630500 55269800 54492580 55548740 58880500 59562810
1312.33 55909570 54765580 55431190 54002640 58142810 63762070
1315.22 59058230 53494760 58344580 67780580 71299010 70557660
1318.12 69929850 64790440 62600820 70979840 76690990 75661870
1321.01 80371080 82244560 72192770 66722040 71529390 73293870
1323.90 67725190 64588700 66561170 67635060 66400910 64685070
1326.79 62160600 60181570 60525100 62594250 63966050 63159790
1329.69 64011040 70516110 85336870 100401900 96700620 78125100
1332.58 64548180 58755160 56775450 57202750 56100070 54823280
1335.47 56484290 56794120 55236890 57164670 59809880 60672560
1338.36 66752670 78213340 82746950 76940220 69242380 65174760
1341.26 64019350 64648350 66292750 64864080 63671530 72103300
1344.15 90777080 107331800 108045800 95580930 89765230 95891530
1347.04 91110970 76031270 71227750 72690370 70355200 65622420
1349.94 62892990 61504840 60047460 61624800 64107160 63712560
1352.83 66192860 70442200 68729150 67829770 70516080 67612900
1355.72 65019640 71563970 75340990 72320880 73407380 72536640
1358.61 66344750 69889560 78897630 75674950 69698710 70005890
1361.51 66613980 64690870 67906750 64928760 60596410 63147160
1364.40 64444860 62801240 62250400 60188840 58301200 59156490
1367.29 59221060 58860330 59195160 59050950 62700210 70648260
1370.18 72815350 68514980 68234580 70884100 68318110 62971030
1373.08 59504450 57290840 56011980 56653840 58082080 58468050
1375.97 56323370 54401820 55223130 54517270 52902540 55876530
1378.86 61440660 63323430 59601530 54412680 52657240 52022840
1381.76 50627390 51050890 50552600 48258240 49056980 52422720
1384.65 53533710 52190860 51970700 52167230 50941180 51519160
1387.54 54961140 57231580 56735700 54384140 50783920 48452970
1390.43 49184760 50021770 49465840 49403000 49722530 49755650
1393.33 49950200 49403300 48472660 48644630 48397320 48565970
1396.22 50161520 48510600 45308510 46970580 49997140 49539220
1399.11 47895480 46491650 44487930 43267560 43943390 43782390
1402.00 42008170 42497140 43601660 42500970 41085000 40883220
1404.90 41219950 40805580 39867350 38079760 36359360 37047540
1407.79 38116590 38084030 37843150 37310450 39144710 41301670
1410.68 40046740 40588290 45830080 50688800 50842110 48623240
1413.58 47378670 45602830 41461780 37259970 36571730 37704800
1416.47 37512240 39304090 41927020 41056450 39276750 38710070
1419.36 38847560 39241930 38090790 35670720 34676310 35685340
1422.25 37083340 38378540 39480070 38866100 37422210 37526400
1425.15 39349540 38288600 34444860 34274470 36220240 36928750
1428.04 36966320 36835000 37051090 38646660 39633520 37119300
1430.93 35476170 37446350 39577760 39761790 37625100 35269620
1433.82 35675540 37730950 37061860 34487400 35571970 39137320
1436.72 38583730 33964670 31028140 31391040 31673330 30573400
1439.61 29857650 30007570 29217700 27809970 27187540 26616810
1442.50 25487280 24003190 22933540 23283830 23007820 20629830
1445.40 19505490 20087720 19188970 18199420 18793940 18068470
1448.29 16710650 17213360 18515730 19653510 20712670 23742500
1451.18 31726440 44336990 55447470 64087880 72650890 77519800
1454.07 78908730 73146240 58694610 46040250 41731620 42267860
1456.97 42040420 40168720 37148860 33772190 31949340 32185910
1459.86 34030100 35366930 36123900 38104080 38756450 36760040
1462.75 35790120 36776360 37470570 36729150 33677830 29932910
1465.64 28850770 29492060 29871540 30372940 31840460 34493450
1468.54 36592800 37224880 37969120 39076070 39008140 38813480
1471.43 40426140 41633810 41490040 40874840 39100780 37654440
1474.32 37141510 35614420 34561450 36958480 42368880 46921600
1477.21 45578890 40027230 38747070 44415870 49220680 43069820
1480.11 32455480 27718990 27100440 27412060 27389970 27858910
1483.00 29042030 29349990 27661680 25652570 24922150 26283420
1485.89 28855070 30253750 29312990 27552140 26896820 26503590
1488.79 25699880 26151900 28044800 28985280 27126200 24109110
1491.68 22763310 23182350 23093330 21896730 21482990 22050190
1494.57 22017900 22252270 24142600 25798920 26333070 27455380
1497.46 29775750 31157480 30096540 27313920 24797360 24223260
1500.36 25024440 25204140 23631240 21687860 20258820 19467080
1503.25 19650490 19640520 19839020 22470770 25596060 25710930
1506.14 25154730 25258260 23185430 20666370 20424880 21655080
1509.03 22988730 24376740 26045550 26748120 25115860 22154330
1511.93 20703200 21298530 21530850 19990100 18788330 20634120
1514.82 23486160 23856530 23349680 23950910 23629280 21549750
1517.71 20076340 20059800 19891130 19693560 20692080 21855510
1520.61 22747620 23003020 23169290 23694660 22744620 20837420
1523.50 19460390 19056840 19368690 19961550 20377320 20349460
1526.39 19806150 19111280 19436140 20370080 19439720 17678120
1529.28 17691620 18689790 18854790 18038300 17602550 17727470
1532.18 18085150 18641680 19020720 18631270 17944130 18284130
1535.07 19076220 19570920 19341640 18115100 17391760 17829710
1537.96 19071150 20055960 19689960 19696080 19490180 17597880
1540.85 17268800 18365440 17180280 15529100 15946820 15695950
1543.75 14239080 15078970 17344820 16876320 14635760 13998500
1546.64 14788350 14306160 12823300 13269720 14748470 14306860
1549.53 13482900 14317890 14843170 13553530 12279830 12718210
1552.43 13251050 12574890 12995450 14580280 14448110 12848840
1555.32 11921290 12303000 13466700 14699410 15337000 16146680
1558.21 16244180 14352080 13567340 14540930 13826150 11123020
1561.10 9583512 10070840 10543090 9904762 9867430 10888170
1564.00 11147330 10289440 9910524 10189510 9751592 8787516
1566.89 8862958 9789474 9985218 9454624 9984400 10778570
1569.78 9493506 7893900 8172388 8467080 7531702 7392090
1572.67 8748382 9011272 7867838 7823434 8830418 9659830
1575.57 10464010 10135740 8843140 7621198 7069896 7584024
1578.46 7771498 6867254 6327604 6703876 6597654 5814332
1581.35 5720890 6255928 6245808 5776764 5703766 5876876
1584.25 5694134 5420750 5563714 5626376 5276164 5166574
1587.14 5650920 5968452 5503948 5119792 5423386 5410350
1590.03 4800516 4702144 5121734 5095536 4775170 4816602
1592.92 4939966 4718212 4535306 4670622 4741600 4526532
1595.82 4487164 4804886 4824128 4405054 4253642 4441870
1598.71 4344388 4019818 4005344 4068526 3862528 3714900
1601.60 3788098 3834286 3822716 3802690 3741628 3741314
1604.49 3845852 3847220 3703152 3591120 3519590 3364920
1607.39 3192012 3104490 3097056 3100974 3038496 2953384
1610.28 2883674 2788008 2810732 2959926 2966474 2858230
1613.17 2922524 3018714 2935688 2903192 3195158 4380884
1616.07 6034860 5631622 3796608 2892304 2660056 2550374
1618.96 2465512 2376150 2345550 2394604 2432684 2438136
1621.85 2530538 2902450 3497004 3461132 2775516 2388246
1624.74 2367420 2401946 2310822 2181718 2333846 2726596
1627.64 2732348 2335740 2078728 2016398 1977828 1962696
1630.53 1999672 2005300 1965130 1939714 1931240 1956008
1633.42 2084090 2562700 3703304 5045202 4855016 3221484
1636.31 2387340 2481476 2385798 2055894 1888472 1807294
1639.21 1753500 1790416 1791434 1689842 1654044 1719868
1642.10 1742744 1690020 1685762 1724624 1745642 2037774
1644.99 3257646 4293330 3551370 2586046 2485252 2506072
1647.89 2372546 2004034 1770540 1776668 1777438 1758798
1650.78 1943258 3289086 5658732 7074214 7046774 5407184
1653.67 3739702 3111374 2337160 1758092 1564510 1498900
1656.56 1511938 1499500 1439724 1402652 1417352 1479318
1659.46 1523978 1521964 1528562 1570138 1714322 2246552
1662.35 2645382 2211458 1638060 1484200 1520488 1569244
1665.24 1529098 1467740 1454046 1455858 1541408 1766490
1668.13 2256204 3077124 3082368 2131128 1640578 1897566
1671.03 2113270 1785478 1421272 1348000 1380586 1453942
1673.92 1884596 3005988 3550418 2625204 1687632 1448998
1676.81 1413514 1396232 1366438 1347490 1415204 1571654
1679.71 1702226 1679238 1545318 1449634 1490632 1937718
1682.60 2640952 2999586 3778318 5737486 5970750 3529176
1685.49 1815518 1451880 1400600 1390484 1467516 1567810
1688.38 1492478 1441370 1600130 1672500 1540268 1408370
1691.28 1394282 1405172 1366578 1316100 1321148 1410700
1694.17 1762136 3150700 5515434 5689266 3298268 1821642
1697.06 1628462 1536506 1471308 1900928 3467534 5216458
1699.95 5441998 4192306 2539110 1577958 1320416 1301386
1702.85 1362110 1607072 1986192 1905388 1536390 1650438
1705.74 1996930 1854870 1443864 1219818 1131676 1094056
1708.63 1099810 1215750 1349166 1362638 1282352 1164770
1711.53 1083350 1120554 1194604 1352340 1577654 1827458
1714.42 2257700 2259438 1709688 1645456 2970538 4585540
1717.31 4030990 2840452 2474136 1871702 1318776 1142098
1720.20 1109786 1121662 1165334 1219040 1239732 1294254
1723.10 1336612 1257118 1176734 1154952 1134494 1123712
1725.99 1137480 1174806 1212888 1223960 1199000 1218458
1728.88 1403136 1571804 1470578 1263750 1177628 1199284
1731.77 1394280 2279378 3561134 3761156 3856614 3958606
1734.67 2638742 1442450 1186272 1179914 1187832 1168646
1737.56 1104394 1111282 1412700 2174734 2483642 1812992
1740.45 1218356 1106420 1137526 1229974 1362286 1392402
1743.34 1288170 1198100 1135232 1120844 1191598 1258406
1746.24 1345152 1417694 1384710 1487870 1679818 1603812
1749.13 1394174 1357322 1817552 2694690 2707432 1733016
1752.02 1144780 1105874 1141220 1114352 1069942 1064208
1754.92 1056352 1153050 1555766 1821242 1502348 1176512
1757.81 1139190 1131862 1089068 1085678 1104564 1163320
1760.70 1585796 2222880 2088710 1419700 1103352 1087508
1763.59 1083438 1044592 1028736 1006914 1004318 1062108
1766.49 1136550 1459482 2032786 1945718 1289884 1007454
1769.38 1058890 1246746 1654744 1920112 1893878 2611212
1772.27 3255188 2343480 1301026 1053588 1092212 1228910
1775.16 1299864 1158834 980256 938536 988002 1037110
1778.06 1055608 1049492 1059816 1195492 1386076 1336724
1780.95 1109234 999074 986270 1000510 1014774 1058886
1783.84 1279326 1555422 1435124 1110134 984806 1000448
1786.74 1035422 1059576 1075112 1078990 1073492 1083798
1789.63 1181292 1438366 1530200 1382816 1767016 2519116
1792.52 2301602 1482856 1137408 1101970 1118910 1174214
1795.41 1224902 1215328 1151950 1096146 1097578 1111924
1798.31 1185614 1433938 1541162 1324660 1212536 1274086
1801.20 1286130 1323244 1302998 1139124 1064754 1060830
1804.09 1048112 1043662 1013500 992152 984132 1015970
1806.98 1093600 1132080 1143032 1142010 1147336 1257486
1809.88 1451220 1455098 1242076 1125352 1124010 1095256
1812.77 1052112 1056992 1085986 1068334 1050926 1085238
1815.66 1099716 1081746 1119596 1172600 1146856 1125114
1818.56 1140368 1112876 1052378 1035934 1060346 1065752
1821.45 1047304 1073344 1129412 1122604 1106150 1246840
1824.34 1615638 1789074 1476632 1189350 1164892 1212594
1827.23 1213624 1228186 1377676 1568640 1775828 1878370
1830.13 1543558 1154118 1046438 1064508 1120594 1172836
1833.02 1161026 1118106 1113316 1115808 1128194 1160338
1835.91 1215210 1302166 1307202 1222404 1184186 1173208
1838.80 1133766 1116128 1122322 1105114 1104370 1157668
1841.70 1202874 1223482 1336296 1948980 2757412 2490112
1844.59 1626810 1282174 1239506 1193294 1148030 1198356
1847.48 1242866 1178074 1131874 1130606 1112720 1093456
1850.38 1114922 1139102 1110374 1083760 1091692 1108308
1853.27 1096248 1086622 1125276 1166318 1135394 1075400
1856.16 1061384 1091008 1105724 1113998 1135666 1139716
1859.05 1138396 1141846 1121028 1105892 1126176 1136540
1861.95 1115284 1109068 1114398 1103566 1099948 1136064
1864.84 1168822 1194224 1242942 1265942 1337994 1462438
1867.73 1459292 1558538 1841404 1716308 1360900 1265738
1870.62 1231744 1179020 1152588 1122652 1109714 1108950
1873.52 1092448 1119646 1153456 1153686 1133900 1126628
1876.41 1153490 1150146 1128400 1113978 1074796 1062642
1879.30 1107690 1146786 1161244 1153918 1124546 1099894
1882.20 1079726 1087928 1149988 1202322 1166832 1129794
1885.09 1144236 1171396 1185654 1163358 1128566 1130688
1887.98 1192310 1360870 1521208 1427714 1227186 1134344
1890.87 1073808 1047550 1090212 1147998 1151914 1121352
1893.77 1127116 1198402 1232772 1189624 1163880 1147284
1896.66 1119932 1117404 1132646 1156296 1170918 1137134
1899.55 1073324 1060228 1076522 1083036 1088064 1070060
1902.44 1062466 1099472 1144354 1180318 1165686 1132806
1905.34 1138572 1130732 1109410 1132420 1160238 1144086
1908.23 1112700 1116504 1149402 1129478 1059992 1071498
1911.12 1169364 1233942 1204386 1145902 1094700 1052676
1914.02 1043102 1078266 1126080 1129060 1081236 1062272
1916.91 1292146 1662770 1576862 1207626 1062580 1055944
1919.80 1052340 1068712 1136314 1195816 1200312 1221386
1922.69 1239530 1157542 1057836 1040712 1069678 1079250
1925.59 1053856 1017142 995652 1021430 1081180 1086708
1928.48 1010482 962662 978598 1000624 998678 988810
1931.37 994836 1004970 1017886 1016162 1000356 1029194
1934.26 1085988 1099136 1072364 1063888 1066492 1041144
1937.16 1030838 1049840 1027218 980432 970932 984748
1940.05 977226 984140 1042360 1170122 1304964 1245886
1942.94 1110400 1097278 1094260 1044852 1009988 1000818
1945.84 991150 976600 1018940 1085404 1100844 1067864
1948.73 1005394 950336 907176 854916 795046 820448
1951.62 945482 1036642 1022300 968488 937530 914876
1954.51 888832 897414 964452 1044260 1061424 1046640
1957.41 999706 921194 867708 837554 810428 867502
1960.30 1039022 1133818 1050840 934892 874754 834370
1963.19 828496 920946 1096844 1209362 1133452 986030
1966.08 939478 1008322 1014624 923518 942912 1101134
1968.98 1184858 1104922 1029562 1006406 955208 878952
1971.87 832022 944600 1214206 1335120 1209992 1022506
1974.76 902528 925186 1030372 1145164 1261986 1283608
1977.66 1177632 1131490 1213288 1229580 1100252 1023596
1980.55 1136352 1349400 1458306 1406104 1292636 1189148
1983.44 1121442 1157102 1366720 1629148 1672974 1464092
1986.33 1311756 1412576 1638276 1694466 1486104 1407726
1989.23 1697180 2074330 2166188 1905376 1617420 1572580
1992.12 1840922 2239482 2382044 2136804 1870740 1962034
1995.01 2270900 2428896 2244976 2019272 2145300 2573188
1997.90 2995478 3008562 2495152 2068142 2288220 2985464
2000.80 3474700 3195082 2616612 2700208 3409200 3821792
2003.69 3362424 2717662 2935686 3892596 4547410 4170008
2006.58 3232212 3102072 4028264 4833214 4622504 3738714
2009.48 3559584 4524812 5396044 5035012 3879502 3788494
2012.37 5159698 6320752 5860270 4446458 4355782 5758656
2015.26 6659826 6011308 4984384 5471744 6840530 7245438
2018.15 6117980 5155852 6048516 7639642 7970386 6781808
2021.05 6181814 7258662 8335626 7748910 6449002 6856032
2023.94 8567072 9103084 7794460 6907802 8092596 9469060
2026.83 8893804 7366884 7617106 9233362 9426756 7812090
2029.72 7180930 8806924 10015580 8999494 7803524 8682420
2032.62 9893940 9176550 7804332 8413722 9954534 9677820
2035.51 8227198 8247232 9501040 9401688 8047320 8031746
2038.40 9185016 8987790 7631030 7509014 8542156 8492414
2041.29 7546586 7748712 8530476 7964232 6877470 7051730
2044.19 7675166 7396836 7102004 7635168 7925044 7461916
2047.08 7403808 8000006 8416922 8857476 9779576 10559630
2049.97 11034000 11995250 13582230 15441520 17645010 20043160
2052.87 22301760 23738910 22353650 17167600 10692190 6447572
2055.76 5090544 4919596 4957578 5081006 5148180 5227572
2058.65 5579990 5782426 5677822 5951922 6360198 6586636
2061.54 7195926 7698004 7986020 8808746 9483886 10010460
2064.44 10850600 11264180 11721870 12270780 12703600 13555580
2067.33 14254470 15062020 15919680 16656650 17286300 17558650
2070.22 18128360 18478410 18796370 19168120 19358330 19767590
2073.11 20023700 20099550 20274390 20419020 20316280 20334490
2076.01 20218080 20295980 20302720 20017920 19643820 19262560
2078.90 18783560 18320670 17850640 17280860 16756350 16175780
2081.79 15418800 14621600 13886210 13203950 12529160 11725390
2084.69 10802820 9916226 9111636 8370008 7771952 7194014
2087.58 6329258 5344608 4593434 4157084 4041886 4150406
2090.47 4033388 3731036 3684576 3819770 4031740 4524530
2093.36 4926244 4727752 4043678 3370282 3320612 3551226
2096.26 3472488 3375734 3418960 3629196 4074400 4167322
2099.15 3511240 2675762 2152170 2006088 2091418 2204534
2102.04 2424300 2786554 2780342 2492232 2590482 2769678
2104.93 2721780 2887346 3146546 3325874 3586466 3633444
2107.83 3532888 3517852 3428634 3498880 3728846 3828682
2110.72 4083398 4207612 4028528 4056752 4087078 4176876
2113.61 4389924 4466660 4756892 5036790 4827612 4490520
2116.51 4302030 4376040 4401132 4316288 4535784 4813326
2119.40 4822762 4651388 4580394 4503900 4202736 4153632
2122.29 4402706 4612530 4582330 4227504 3975752 3892700
2125.18 3859772 3908594 3863348 3799466 3634912 3324130
2128.08 3108126 3053458 3066734 3107244 3166994 3185330
2130.97 3169366 3011866 2812352 2646232 2469632 2432440
2133.86 2530498 2615710 2660864 2513974 2181524 1926798
2136.75 1866562 1913570 1901924 1891494 1978424 1986002
2139.65 1873324 1807536 1862594 2140582 2543084 2717622
2142.54 2689666 2579244 2440880 2258926 1955394 1745980
2145.43 1765692 1864662 1996540 2099952 2112526 2154758
2148.33 2352328 2852480 3282682 3219304 3182556 3228006
2151.22 3053122 2805746 2520982 2285172 2231608 2463908
2154.11 2856452 3057842 3014548 2949590 2952078 2913106
2157.00 2894286 3030978 3066300 2927344 2868612 2923652
2159.90 3026716 3010998 2906900 2886848 2752430 2586740
2162.79 2622754 2814398 3097388 3354514 3519518 3455848
2165.68 3133118 2881258 2776292 2776108 2914914 3154574
2168.57 3328772 3166350 2830628 2685512 2728564 2792448
2171.47 2902222 3227366 3386444 3148092 2983610 3038878
2174.36 3147018 3286060 3507116 3538082 3195704 2941374
2177.25 2988150 3058196 3100048 3323404 3503870 3294586
2180.15 2946134 2742460 2682264 2710624 2818720 3002850
2183.04 2985644 2760494 2638894 2670070 2738440 2897652
2185.93 3215302 3296814 3020186 2741536 2595408 2570816
2188.82 2678140 2883958 2912012 2728256 2567374 2496526
2191.72 2506610 2586040 2683444 2603620 2400458 2343184
2194.61 2373544 2382708 2508992 2653614 2559726 2398918
2197.50 2328284 2342106 2417250 2482328 2495282 2423694
2200.39 2302412 2272656 2398604 2521148 2525546 2457994
2203.29 2349312 2204946 2090160 2116096 2254456 2381324
2206.18 2381326 2325722 2343352 2353746 2360738 2464054
2209.07 2491988 2396192 2457592 2590954 2512406 2358488
2211.97 2259192 2196346 2173242 2194636 2274160 2319774
2214.86 2294624 2316738 2331234 2328352 2401064 2450342
2217.75 2412756 2366168 2306616 2295818 2371684 2435678
2220.64 2494278 2506108 2375774 2271344 2253842 2226632
2223.54 2189222 2155046 2135308 2151320 2148788 2142908
2226.43 2169182 2137470 2091440 2134448 2192822 2180046
2229.32 2135676 2149510 2201872 2209856 2175200 2162894
2232.21 2179724 2128058 2047592 2065000 2111514 2147216
2235.11 2221330 2255488 2174786 2130872 2164396 2162162
2238.00 2140894 2124336 2097462 2032974 1952806 1903040
2240.89 1897634 1911994 1937316 2006924 2066656 2042606
2243.79 1983566 1980636 1961280 1909304 1935186 1984676
2246.68 1979880 1976566 1990772 2003564 2032044 2041588
2249.57 2020786 1995120 1990136 2054538 2152630 2184586
2252.46 2132148 2107224 2169386 2212118 2222868 2245598
2255.36 2158874 1998282 1946964 1962078 1929814 1936890
2258.25 2018404 2055632 2030778 2022312 2059152 2083286
2261.14 2067548 2098652 2153698 2136722 2049988 1973138
2264.03 1957006 1982892 1988140 1998504 2046304 2082694
2266.93 2109942 2159454 2168514 2103290 2068702 2109866
2269.82 2136772 2099422 2052716 2066512 2127744 2153408
2272.71 2107964 2100132 2141668 2114268 2064730 2089840
2275.61 2149108 2172416 2165006 2193328 2264250 2280012
2278.50 2187928 2136480 2187354 2231508 2245306 2228296
2281.39 2215864 2200574 2139698 2135922 2199006 2238832
2284.28 2244934 2234714 2261208 2319346 2354838 2386512
2287.18 2406188 2422380 2423160 2416076 2449878 2456346
2290.07 2375450 2324376 2382018 2436494 2392284 2364300
2292.96 2437964 2520734 2517998 2508472 2547706 2548248
2295.85 2488946 2486620 2508270 2519276 2547194 2559640
2298.75 2560622 2568236 2612254 2657016 2604082 2515372
2301.64 2510972 2569826 2542948 2491332 2524114 2557992
2304.53 2526250 2482528 2467682 2444964 2424006 2494164
2307.43 2588954 2561824 2531426 2575004 2596860 2605890
2310.32 2640096 2693824 2735584 2790504 2874300 2908710
2313.21 2875618 2858456 2861444 2852632 2792466 2701884
2316.10 2708774 2793424 2773498 2700950 2737140 2772536
2319.00 2678754 2605798 2677816 2739080 2674046 2677090
2321.89 2844724 2948888 2900194 2918464 3016448 3021326
2324.78 2993854 3054370 3155478 3195568 3109324 3013546
2327.67 3027470 3145524 3272976 3341328 3373966 3316154
2330.57 3110576 2925508 2925040 2975290 2979926 3070680
2333.46 3190380 3143778 3035346 3034756 3049224 2992104
2336.35 2972698 3079264 3199116 3285770 3360652 3345034
2339.24 3246366 3225958 3268164 3269768 3217608 3198664
2342.14 3345856 3512850 3500704 3483850 3655660 3766514
2345.03 3625120 3580024 3794498 3965328 3855058 3577526
2347.92 3403386 3385248 3364914 3327622 3333644 3409614
2350.82 3500684 3534600 3527388 3472654 3357602 3301124
2353.71 3428272 3641748 3671890 3526202 3452708 3512986
2356.60 3577216 3598190 3710988 3831666 3713910 3524222
2359.49 3478892 3496810 3535196 3617548 3771158 3932432
2362.39 3899952 3784940 3778044 3807396 3824576 3868316
2365.28 3883564 3739214 3534928 3527246 3571142 3526026
2368.17 3570492 3689240 3726580 3689608 3716286 3905124
2371.06 4104832 4188770 4262444 4429640 4489722 4297738
2373.96 4051048 3869508 3688662 3578900 3598598 3742604
2376.85 3896668 3948964 3961688 3946702 3875412 3808050
2379.74 3682366 3532036 3575156 3727676 3758478 3775560
2382.64 3849398 3722806 3448760 3377912 3421934 3400740
2385.53 3420418 3504348 3596902 3668904 3687768 3691596
2388.42 3645746 3560984 3556178 3597062 3659414 3756372
2391.31 3786258 3764464 3817072 3953346 4117004 4273536
2394.21 4240538 4026304 3822080 3647704 3500864 3458958
2397.10 3516578 3630600 3752990 3882564 4061166 4191652
2399.99 4205290 4187524 4073300 3796590 3607078 3621960
2402.88 3707410 3831464 4016102 4247376 4392584 4395830
2405.78 4373742 4393978 4419114 4374614 4254420 4121704
2408.67 4022934 4025284 3982338 3927974 3968506 3894918
2411.56 3788594 3842510 3908664 3990104 4102534 4112650
2414.46 4043444 4064880 4169502 4150660 4004530 3880694
2417.35 3739802 3657962 3725884 3726332 3592552 3414836
2420.24 3288794 3334580 3414770 3454724 3502166 3515080
2423.13 3486520 3473572 3529484 3661472 3778476 3804866
2426.03 3843866 3812684 3606880 3501166 3510400 3437514
2428.92 3404416 3430944 3413132 3343872 3167312 3079414
2431.81 3142226 3172228 3196142 3251468 3280698 3236472
2434.70 3126610 3070678 3094962 3095446 3055482 3014138
2437.60 2983698 2985686 3021354 3081278 3094022 3101648
2440.49 3082488 2985238 3014756 3169856 3209996 3112200
2443.38 2975380 2904542 2949614 2992066 2930394 2793026
2446.28 2686660 2658118 2667120 2704970 2750534 2828252
2449.17 2981502 3132802 3156616 3033006 2821548 2672572
2452.06 2684350 2741016 2756524 2795158 2777262 2734790
2454.95 2748636 2717362 2661516 2647900 2651800 2659066
2457.85 2669564 2706716 2737708 2743190 2727012 2724334
2460.74 2767102 2756922 2636148 2565934 2580016 2537922
2463.63 2468468 2516158 2623376 2683608 2675824 2580482
2466.52 2492918 2541430 2636602 2653698 2589364 2536664
2469.42 2570014 2633862 2664174 2779962 2976354 2915228
2472.31 2624802 2477306 2485378 2502170 2443364 2394274
2475.20 2416672 2407216 2375674 2351564 2357786 2423370
2478.10 2467094 2446886 2411400 2337316 2291562 2409732
2480.99 2532368 2527608 2529590 2564268 2524056 2499658
2483.88 2575712 2652548 2649180 2568092 2500966 2501700
2486.77 2448432 2390232 2410946 2421806 2430740 2522830
2489.67 2608174 2572302 2523246 2541710 2558476 2522136
2492.56 2451168 2435972 2466808 2471608 2492618 2571670
2495.45 2619794 2569302 2457428 2362448 2344172 2388498
2498.34 2427538 2491678 2570030 2621042 2617344 2503856
2501.24 2365698 2358632 2436366 2447832 2420652 2430044
2504.13 2385954 2293656 2259630 2282870 2368252 2451862
2507.02 2433336 2434542 2505922 2536800 2485646 2467176
2509.92 2533408 2556432 2468920 2385646 2413276 2519206
2512.81 2575550 2546882 2483290 2492570 2547842 2529050
2515.70 2517522 2583914 2614280 2593084 2597644 2654680
2518.59 2702452 2661114 2633296 2682428 2728406 2760780
2521.49 2727306 2706512 2807506 2872908 2813840 2798244
2524.38 2880234 2979816 3047284 3043412 3003968 3018710
2527.27 3022642 3010752 3003864 2931248 2843738 2848248
2530.16 2870858 2832672 2818106 2916778 2991662 2942210
2533.06 2906252 2947830 2973736 2969770 2969674 2926152
2535.95 2872164 2939094 3001696 2961290 2932184 2988352
2538.84 3103530 3202054 3200670 3170496 3156124 3092732
2541.74 3056058 3075784 3078012 3047266 2974762 2939376
2544.63 2960866 2948090 2955346 3002502 2983044 3038966
2547.52 3140438 3059818 2929172 2953506 2991894 2956012
2550.41 2939532 2935008 3010404 3188038 3290908 3327140
2553.31 3343760 3300358 3261648 3281418 3292244 3244492
2556.20 3170792 3082440 2989190 2945348 2938558 2941348
2559.09 2935496 3042176 3257096 3370394 3347528 3316140
2561.98 3279462 3162040 3098402 3178402 3224784 3189472
2564.88 3222914 3314200 3332896 3296352 3242082 3221150
2567.77 3242304 3269888 3304830 3412754 3503984 3518618
2570.66 3563658 3585380 3513146 3502822 3615242 3717792
2573.56 3740980 3796296 3869440 3800008 3673486 3636344
2576.45 3611120 3613080 3727690 3848312 3830474 3787586
2579.34 3791802 3776170 3777298 3854868 3977878 4125162
2582.23 4254768 4269578 4158320 4066964 4004554 3963002
2585.13 4109822 4384230 4547332 4498870 4369618 4354894
2588.02 4346424 4304560 4389340 4475824 4479216 4616902
2590.91 4726846 4675372 4754678 4953832 4995840 5032248
2593.80 5284040 5347598 5084136 4951912 4974686 4964254
2596.70 4902566 4909700 5084466 5204864 5156516 5215730
2599.59 5272902 5122880 5020850 5005540 4884692 4812386
2602.48 4878636 4945450 4874812 4667938 4579746 4782668
2605.37 4946614 4897826 4936160 5043882 5015616 4922004
2608.27 4874072 4861100 4812958 4853400 5029510 5162262
2611.16 5223220 5399964 5677892 5696142 5390764 5153626
2614.05 5084924 5135140 5220088 5206400 5176942 5176346
2616.95 5108710 5095912 5411202 5819776 5865998 5684784
2619.84 5528702 5427598 5473598 5602872 5618508 5624854
2622.73 5632902 5570504 5551778 5612948 5649790 5722602
2625.62 5988842 6121902 5979464 5953930 5941874 5770512
2628.52 5604386 5626944 5653084 5680196 6056254 6435708
2631.41 6235464 5896484 5922412 5875602 5616574 5648600
2634.30 6023332 6153698 5908040 5782832 5724896 5538576
2637.19 5588116 5799578 5619492 5264038 5203076 5282522
2640.09 5300144 5362036 5508616 5505690 5146394 4746338
2642.98 4685876 4764184 4835322 4991926 5085038 5071592
2645.87 4886110 4685552 4703490 4797030 4993262 5391376
2648.77 5782308 5850366 5582022 5346026 5168860 5042280
2651.66 5035596 5034096 4931898 4811650 4798710 4880512
2654.55 4955814 4945390 4899616 4936254 4925050 4915378
2657.44 5060514 5205088 5253370 5321662 5390078 5417348
2660.34 5482074 5445234 5106652 4730988 4567458 4535154
2663.23 4654120 4822928 4840938 4990930 5332088 5412666
2666.12 5275430 5186272 5017254 4871058 5037378 5191256
2669.01 5093698 5139828 5299340 5484272 5732366 5606174
2671.91 5270362 5305854 5298736 4992980 4895140 4971524
2674.80 4980062 5026964 5064330 5084952 5151800 5156840
2677.69 5154038 5294570 5395552 5430388 5450246 5254680
2680.59 5047012 5118860 5130472 5043888 5063898 4979134
2683.48 4874160 4909880 4910176 4954622 5069512 5050922
2686.37 4915016 4846620 4845090 4834506 4731272 4584676
2689.26 4570590 4624658 4616620 4640110 4723074 4817994
2692.16 4922684 4964714 4862452 4796460 4834038 5008736
2695.05 5254546 5128596 4846824 4956564 5145340 5107456
2697.94 5070056 5116262 5169596 5190096 5201054 5179244
2700.83 5185974 5288916 5372256 5288200 5082106 5120436
2703.73 5331494 5325436 5268934 5335442 5290220 5120974
2706.62 5144710 5299440 5146900 5047794 5316442 5488552
2709.51 5451470 5586678 5783274 5708982 5470012 5326656
2712.41 5291998 5309962 5299486 5323862 5431564 5438750
2715.30 5297252 5161706 5095026 5082912 5048294 5034750
2718.19 5172532 5395642 5465306 5509390 5751892 5982448
2721.08 6004302 6018522 5958282 5713452 5695982 5849924
2723.98 5783540 5705876 5848278 6132032 6331776 6498270
2726.87 6741858 6782808 6496618 6247002 6196580 6230338
2729.76 6347870 6369426 6183818 6239202 6527606 6625398
2732.65 6672586 6765060 6809844 7014940 7259356 7255276
2735.55 7278554 7713706 8370914 8781424 8756240 8528304
2738.44 8344476 8270356 8201538 8219364 8461828 8548076
2741.33 8368564 8410954 8637058 8608508 8484534 8733310
2744.23 9062638 9033212 9046314 9325948 9485438 9388874
2747.12 9275436 9445244 9748034 9933286 10092900 10300700
2750.01 10573890 10791980 10678560 10626330 10801620 10787990
2752.90 10499520 10189150 10152820 10548550 10831380 10788650
2755.80 11052740 11501140 11413870 11067730 11067670 11288170
2758.69 11495450 11711250 11867590 12009100 12058090 11880270
2761.58 11788510 11998830 12078950 12460260 13339710 13744320
2764.47 13466880 13242050 13433310 13777860 13964680 14040050
2767.37 14171340 14351120 14523490 14820910 15062330 15203410
2770.26 15654080 16304110 16509510 16344090 16389360 16677390
2773.15 16757610 16800430 17146540 17635030 18362960 19022340
2776.05 18773600 18258560 18334150 18619020 18785680 19157840
2778.94 19556900 19827920 20683790 21581760 21635950 22011090
2781.83 22989700 22917500 22488280 23136580 23699480 23937810
2784.72 25185000 26087260 25174450 24461140 25214710 26143260
2787.62 26411330 27000200 28258790 28977780 28836070 29016730
2790.51 30023180 31478060 32741930 33523060 34258000 34909360
2793.40 35108870 34781840 34576430 35471040 37155180 38374820
2796.29 38955220 39824440 41055820 41961410 43188120 45596160
2799.19 47842470 48057920 47595000 48686450 50671310 52505400
2802.08 54042710 55352640 57174400 59230630 60001580 60645340
2804.97 63347770 65819000 66172180 67803100 71449290 73131950
2807.87 73348100 75948440 80171430 81183500 80831350 83796200
2810.76 88095340 89707960 90087050 92397720 96054190 98689350
2813.65 99470290 101713200 106081400 109043100 108739700 109471600
2816.54 113758000 117414300 117117000 116025900 120091300 125617000
2819.44 126797500 128083800 132506300 133559600 130563600 131161100
2822.33 135488500 135415400 130919000 131774800 138159700 138255500
2825.22 133635700 137615300 141546100 135048200 132249800 136859000
2828.11 135637600 131598400 133383200 134444200 131025400 129683700
2831.01 130307200 129031600 127188800 125254600 119915800 115716300
2833.90 119512400 123179200 118268000 110931600 108054600 107940800
2836.79 108887600 112782900 119295200 126388000 129134800 126347800
2839.69 120642600 118494500 131001700 153810800 173057300 190826400
2842.58 209919400 229411100 251828900 247551400 210035200 185777100
2845.47 180614700 164404300 143680200 132300400 130742900 129756500
2848.36 121727500 113443800 108518100 107429600 108049900 108364600
2851.26 114151000 118241400 114470900 117610400 128611900 133445400
2854.15 135243200 141597100 147449600 149771100 155287600 164588000
2857.04 168614900 169425200 175002500 179801900 181565600 186580700
2859.93 191271300 192243000 194759700 197883400 199443000 203267000
2862.83 208757400 210647700 208537100 208911600 212581200 211165100
2865.72 209089900 210856600 205687200 200383000 205004600 206044100
2868.61 200492800 199484900 196922100 192376900 195555200 198128800
2871.51 195100600 194611000 192814400 185475700 179827600 183646000
2874.40 194003700 193032100 179877400 173548100 172129700 169143100
2877.29 169914300 169994500 162169400 155996500 160519400 164736700
2880.18 165095800 170558400 168912800 154987800 147067800 148029500
2883.08 147131100 143552600 140709700 136604900 136370400 143294500
2885.97 150340500 155808500 158293100 153341100 142082400 134821600
2888.86 135389200 137018200 135586000 133868100 136643300 146165600
2891.75 163908400 182739200 181305400 163471200 153054000 151557200
2894.65 151252300 150682500 149610600 149510200 152843600 157516800
2897.54 160046800 162429100 168589800 173407600 171477200 169042600
2900.43 170635900 178810000 197412900 207638000 196613800 183448700
2903.32 181627300 183911400 186203600 187271000 188545700 194435500
2906.22 199023700 201685000 210437700 220170700 226748500 230339500
2909.11 225973600 221047900 220433900 221249500 223306200 224585200
2912.00 223184100 224715000 233805200 243042900 245102800 240855700
2914.90 240389300 247498500 250128700 248191500 251662700 258312100
2917.79 268485300 283655100 298265400 308289900 312914000 308233900
2920.68 298444000 300658200 311156300 312659700 317100100 325626000
2923.57 321971400 305371500 289380000 285089600 281993500 271902600
2926.47 263858600 258527000 255812800 269125900 284891900 278087300
2929.36 264046800 261143900 260187300 260465700 269722600 276001400
2932.25 276869100 285082800 294966800 299682700 303076000 308163500
2935.14 311680100 315177000 323010000 325140000 318789900 315939800
2938.04 313528500 311046700 319746300 328110800 317562600 304411600
2940.93 304885000 316085500 326550400 320093200 308620900 306512400
2943.82 305177400 302147000 298725900 297626900 305813500 313194600
2946.72 309901700 310611400 310358700 307543200 323191000 336765900
2949.61 317265300 299161700 311661500 324788200 318673500 305944500
2952.50 301409300 305694400 304209900 298700400 299396100 301139800
2955.39 288308100 273259200 288133900 320960500 338149300 329750200
2958.29 312330800 299933100 285211500 274505100 280220000 284030900
2961.18 281935900 292659100 310287000 321415800 323017900 319525800
2964.07 319199200 327749800 341131400 339919100 333365100 346763200
2966.96 362616700 361661900 347170000 325318200 306950000 301306700
2969.86 307739200 321948800 339203100 351278600 352620200 354729100
2972.75 365064200 361711300 346219200 335361100 331386600 320516400
2975.64 295297800 290293500 311372000 314743100 298512600 293080500
2978.54 305148800 328645700 337941700 331347200 346293400 391875700
2981.43 410816400 367846300 318705600 296426900 283014100 275432700
2984.32 281757900 286268300 274504400 276773900 288388300 272543900
2987.21 254667100 263392100 272085000 257828300 234749100 226763900
2990.11 236663800 244119300 244451900 253675700 260027600 244900000
2993.00 223592500 209403400 200876400 200965000 209552600 218434600
2995.89 223531400 217935100 199591700 181764200 170626900 165640100
2998.78 169916000 176967000 180455700 191683300 205506400 201805300
3001.68 187230400 177632800 175726300 176719500 175998700 179704300
3004.57 204324400 231640300 222301500 194829700 178514100 170245600
3007.46 171241900 181360400 187376100 187061300 196328100 213476700
3010.36 207599500 181355200 170093800 171964500 164093200 154535800
3013.25 158997900 164356300 157324700 154292000 170364200 180476800
3016.14 167894500 155997200 147379400 136214000 128792900 123707500
3019.03 123199200 127203200 125711200 121093100 124050400 131724200
3021.93 137671400 146960200 151551100 138294300 118624700 106097100
3024.82 107536000 116238400 118396000 115009000 111819700 108151600
3027.71 107946300 116970600 124881800 119189700 107255500 103492900
3030.60 111434700 122217600 121529700 111059400 107706300 107393400
3033.50 98833460 93115780 93978180 93319760 97009350 103205300
3036.39 97702370 88810640 87100700 84138140 79331470 78645340
3039.28 78768650 77360300 77803730 81659950 87299240 89806300
3042.18 87262350 82573010 78227490 76163300 73584260 68018900
3045.07 64353060 66892050 70240400 68235030 63723100 60581250
3047.96 59121870 59873020 60779880 57223650 51457510 49114180
3050.85 49334880 48774350 50053670 55013000 57550070 54269920
3053.75 51101740 51289330 50200230 47537780 47161520 47034320
3056.64 44966920 42692210 42158700 43643670 43972610 41850520
3059.53 41476190 43430180 42775890 38714530 36528750 38269280
3062.42 39715910 37830500 36600940 38384650 38699790 36156830
3065.32 35506140 37095700 36595780 33951740 32608120 32331610
3068.21 31118850 29558510 28949530 28862920 28146680 26899820
3071.10 26386670 26722960 26552090 25500570 24967060 24591060
3074.00 23410350 22994140 24021580 24030800 22463500 21612770
3076.89 21640300 20777290 19795500 20176960 20515810 19705480
3079.78 19319480 19596510 18962420 17749810 17288300 17064610
3082.67 16440370 15775650 15640150 15682660 14945070 14124490
3085.57 14379490 14520270 13537460 12958820 13553220 13616800
3088.46 12676050 12241090 12432160 11913010 11189770 11460610
3091.35 11704580 10902210 10269020 10430220 10329430 9670414
3094.24 9376714 9463520 9200836 8854354 8983442 9109396
3097.14 8877374 8557614 8342482 8162892 7901528 7679900
3100.03 7685920 7520584 7082378 7033824 7234404 7021588
3102.92 6689412 6652412 6667932 6488298 6405756 6407830
3105.82 6165968 5916430 5761822 5626626 5605448 5509304
3108.71 5360548 5317400 5280582 5131304 4941158 4892730
3111.60 4832066 4563980 4421630 4564872 4485606 4085266
3114.49 3976020 4072430 4039946 4032868 4114778 4157072
3117.39 4176576 4144436 4112996 4018464 3770898 3616636
3120.28 3680048 3677102 3543290 3542840 3595602 3481114
3123.17 3383588 3309892 3139544 3057576 3106194 3095662
3126.06 3143700 3293828 3320710 3176694 3091636 3118976
3128.96 3057876 3011048 3061314 3013796 3073976 3269558
3131.85 3278846 3114432 2986726 2905844 2794032 2686900
3134.74 2677136 2689422 2661066 2689466 2825210 2843922
3137.64 2647704 2448328 2305478 2294830 2482590 2582366
3140.53 2470564 2356008 2415842 2536494 2675594 2769678
3143.42 2645942 2449424 2415656 2409478 2374592 2286144
3146.31 2192044 2217852 2262278 2243306 2291914 2373034
3149.21 2379970 2278386 2156296 2162832 2205284 2106954
3152.10 2040426 2144104 2221790 2281154 2345652 2275124
3154.99 2259826 2347572 2349290 2264150 2215814 2266820
3157.88 2269866 2167486 2124232 2190796 2345056 2479488
3160.78 2463558 2363810 2496528 2932592 2978188 2490290
3163.67 2197488 2160042 2231076 2407058 2621724 2687246
3166.56 2481982 2216188 2111242 2052678 1991618 2031320
3169.46 2129716 2217668 2374998 2512428 2402288 2155562
3172.35 2070134 2096086 2081748 2027326 2026172 2064578
3175.24 2058274 1977026 1915654 1967930 2100204 2231852
3178.13 2281222 2218850 2157036 2242424 2310354 2197376
3181.03 2117718 2185394 2164148 2013192 1962380 2012976
3183.92 2059400 2097284 2108004 2102104 2153306 2192956
3186.81 2113934 2068076 2156310 2137206 1970182 1904066
3189.70 1993112 2085484 2272486 2543722 2499832 2199324
3192.60 2038664 1999356 1940892 1919518 1940660 1926300
3195.49 1959970 2022038 1997028 1909904 1858758 1812202
3198.38 1785094 1871944 2044638 2111022 2103900 2129672
3201.27 2122714 2148504 2219320 2150574 2018516 1960552
3204.17 1940142 1870556 1822628 1846892 1798978 1703858
3207.06 1690570 1755742 1931882 2096508 2060834 1916354
3209.95 1884114 1960534 2017524 2060600 2092186 1950798
3212.85 1789528 1798840 1841124 1823578 1837746 1904342
3215.74 1902594 1761464 1661872 1710502 1747598 1710698
3218.63 1691308 1709770 1821668 1904978 1895508 1904442
3221.52 1890750 1822992 1775826 1857004 1936286 1883240
3224.42 1800770 1737682 1730976 1777314 1840072 1848444
3227.31 1795248 1733622 1732040 1729390 1690820 1655428
3230.20 1583762 1560722 1680942 1780682 1717290 1609490
3233.09 1652436 1723470 1679222 1615218 1651946 1777654
3235.99 1789404 1646546 1575154 1604298 1676178 1754970
3238.88 1699922 1606184 1600382 1550042 1479800 1479868
3241.77 1545264 1623894 1575372 1511396 1565152 1611690
3244.67 1694036 1835238 1845316 1673010 1559376 1625484
3247.56 1748166 1750512 1663776 1615344 1554728 1450110
3250.45 1424884 1447452 1419332 1431688 1499664 1526928
3253.34 1591632 1626358 1513940 1459606 1543616 1590758
3256.24 1534924 1471492 1486442 1491744 1446868 1391492
3259.13 1423622 1566650 1630794 1596524 1653886 1720194
3262.02 1634186 1573178 1551348 1466528 1417614 1421168
3264.91 1482636 1582228 1662160 1676878 1590064 1460948
3267.81 1418686 1434106 1489276 1582258 1543282 1319774
3270.70 1227152 1394542 1517288 1376018 1261928 1285266
3273.59 1330188 1339988 1321250 1428468 1590008 1574738
3276.49 1380246 1209842 1217844 1327612 1423940 1442896
3279.38 1429112 1447544 1535546 1533640 1385922 1341044
3282.27 1402662 1425106 1489674 1531266 1467824 1319590
3285.16 1239288 1348154 1476188 1468068 1403490 1369500
3288.06 1411604 1485434 1432188 1262922 1195106 1268382
3290.95 1309472 1313628 1379302 1431132 1455894 1406348
3293.84 1288678 1175906 1111036 1138314 1257866 1368670
3296.73 1361962 1354654 1445304 1431052 1326460 1303270
3299.63 1336454 1339350 1319892 1332126 1371808 1405824
3302.52 1398308 1372280 1280096 1150264 1169520 1195420
3305.41 1111902 1110678 1263430 1389836 1401362 1335898
3308.31 1252944 1226312 1252980 1300596 1362036 1369750
3311.20 1362758 1327462 1273496 1304470 1394406 1392952
3314.09 1246538 1184738 1311730 1357020 1354634 1445166
3316.98 1444376 1309908 1207634 1225358 1334796 1392708
3319.88 1311010 1241766 1345556 1455884 1367220 1190054
3322.77 1160342 1255216 1266376 1151604 1150268 1359940
3325.66 1512072 1462770 1383046 1359772 1427728 1560266
3328.55 1540324 1406318 1421290 1515892 1467590 1312032
3331.45 1246490 1320382 1409976 1456902 1462240 1361900
3334.34 1247984 1272366 1369100 1376020 1386608 1451876
3337.23 1448998 1368934 1356312 1444066 1544162 1572866
3340.13 1537284 1483862 1337466 1311270 1526512 1662146
3343.02 1646334 1587432 1500434 1438816 1509904 1629682
3345.91 1565088 1412928 1468890 1664638 1739540 1665070
3348.80 1570092 1418070 1332170 1392772 1564154 1685588
3351.70 1666040 1616314 1578560 1552496 1560836 1670920
3354.59 1836158 1695318 1372742 1338418 1458132 1438968
3357.48 1386306 1464916 1563784 1474164 1402614 1572818
3360.37 1728934 1663282 1592448 1586376 1611778 1717912
3363.27 1854914 1921704 1977334 2059836 2019054 1858598
3366.16 1702376 1603390 1509982 1409662 1443792 1505298
3369.05 1543732 1644094 1729426 1746842 1706742 1628720
3371.95 1542370 1545790 1706316 1805572 1758316 1752402
3374.84 1840830 1815520 1652116 1661898 1951880 2377798
3377.73 2587356 2287962 1957164 1882612 1842276 1814116
3380.62 1811914 1827464 1803342 1723076 1738900 1940372
3383.52 2253278 2441442 2304372 2025392 1978954 1992172
3386.41 1933232 1996206 2014434 1859396 1814210 1999172
3389.30 2173922 2120504 1956666 1953834 2142346 2253692
3392.19 2153724 2004026 2067794 2173928 2077516 2075946
3395.09 2231650 2143780 1957588 2064728 2259094 2275470
3397.98 2159996 1950172 1752428 1717646 1735038 1704564
3400.87 1855794 2181064 2363962 2355062 2360350 2504590
3403.77 2577290 2269690 1895070 1893898 2027766 1986338
3406.66 1942488 1982598 1913520 1825544 1959600 2380698
3409.55 2823892 2768342 2411206 2212908 2174010 2209354
3412.44 2228318 2244296 2285036 2291812 2311378 2275278
3415.34 2219218 2297246 2389664 2464932 2533034 2659694
3418.23 2867200 2941402 2821234 2629874 2529818 2489166
3421.12 2377998 2286722 2346086 2327268 2186322 2240490
3424.01 2369430 2314102 2260118 2327560 2352402 2371838
3426.91 2570148 2764638 2756948 2719906 2744170 2769556
3429.80 2887706 3078590 3327840 3828496 4215280 3901116
3432.69 3273016 2851830 2714572 2722462 2790324 2921068
3435.59 2909534 2885532 3051914 3106456 2837254 2615230
3438.48 2692850 2810810 2749414 2795414 3287354 3730762
3441.37 3672570 3845510 4263344 3952486 3219496 2749762
3444.26 2617202 2655946 2617770 2461122 2357274 2496794
3447.16 2970496 3610626 4044154 4003646 3524176 3111232
3450.05 3144470 3183966 3311226 3768104 3759230 3282074
3452.94 2873952 2673374 2654220 2677836 2732426 2710612
3455.83 2505424 2518594 2997914 3333276 3385748 3930558
3458.73 4425570 3942248 3171340 2767136 2762572 3127580
3461.62 3373660 3147288 2879532 2853942 2932424 3191392
3464.51 3610550 3778386 3428132 3067690 3022570 2904884
3467.40 2758922 2796150 2821370 2826566 2935094 3027700
3470.30 3233582 3700900 3881808 3494080 3132200 2958170
3473.19 2778962 2773358 2977346 3155652 3265424 3276228
3476.08 3131598 3244052 3837486 4235234 4033548 3810408
3478.98 3744972 3794786 4436700 5488946 5900366 5326422
3481.87 4714530 4322950 4064558 4272550 4534550 4398028
3484.76 4348944 4595338 4545162 4372088 4838720 5507786
3487.65 5800548 5945808 5482484 4403538 3835748 3875646
3490.55 3796530 3566948 3603790 3898366 4390020 5132238
3493.44 5310920 4456528 3710894 3676538 3771624 3622064
3496.33 3621650 4015878 4346514 4375086 4277198 4158072
3499.22 4043030 3735678 3248866 2938084 3123204 3406454
3502.12 3315626 3237696 3507076 3886858 4243256 4754666
3505.01 5711280 6087598 5018164 3833078 3352784 3233618
3507.90 3264328 3461456 3590818 3450954 3241474 3367564
3510.80 4263296 5212740 5401098 5513140 5244886 4088474
3513.69 3201102 3049046 3096428 3121772 3233312 3344856
3516.58 3353110 3404600 3690894 3930216 3942826 3866952
3519.47 3779392 3792154 3713450 3456242 3328628 3544456
3522.37 4048362 4834394 5499094 5425948 4672646 3798336
3525.26 3703098 4713736 5813992 5481590 4339278 3671498
3528.15 3402700 3340520 3248154 3110602 3368008 3868824
3531.04 3983554 3831650 3893676 4420754 5338262 5458524
3533.94 4961182 5958350 7127078 6040376 4640894 4215972
3536.83 3839868 3451484 3899286 6474560 8920308 7938744
3539.72 6668926 7004016 6186270 4411678 3463280 3386064
3542.62 3495142 3486500 3548874 3815084 4422448 5356380
3545.51 5531298 4670496 4232702 4455804 4405640 4018038
3548.40 3768506 3660888 3626010 3795220 3992572 4025398
3551.29 4170150 4301000 4089540 4036524 4593454 5008084
3554.19 5041886 5499398 5787990 5030580 4373324 4606282
3557.08 4741150 4422292 4339274 4439514 4360314 4393526
3559.97 4708370 4911318 4938448 5052150 5095262 4736832
3562.86 4308786 4390880 4761910 4843932 4888004 5393930
3565.76 6617180 8810398 11060400 11915550 10526040 7488268
3568.65 5470446 5195724 5356932 5424722 5398918 5198392
3571.54 4778000 4833402 5535330 5969856 6424876 7958412
3574.44 10035810 10581820 9044888 7508042 6973266 7603228
3577.33 8668126 7849646 6193362 6366778 7565348 7869486
3580.22 7806926 8227036 8355800 7537868 6465498 5925796
3583.11 6147334 6814548 6975558 6579802 6943462 8392558
3586.01 9139128 8423512 7822914 7896904 8215880 8252392
3588.90 7610972 7153772 7311744 7478698 7230950 7051674
3591.79 7447038 7906420 8309102 9217952 9903484 9749368
3594.68 9954448 10498030 9963132 8942290 8881380 9281346
3597.58 9408740 9833334 10362320 10218880 9722936 9267278
3600.47 9110194 9475648 9671404 9355776 9081928 8937198
3603.36 9061886 9585882 9749364 9812636 10708190 11461430
3606.26 11141230 10993180 11807500 11989430 11528600 12373930
3609.15 12998700 11998610 11425060 12124960 12582220 12998550
3612.04 15098920 17628760 17709990 16477420 16674430 16501930
3614.93 15037660 15199410 16953240 18840910 21002170 20848820
3617.83 17289770 14503860 15398910 17846610 19069070 20510220
3620.72 22055320 20915950 18663700 17965800 17774340 17092830
3623.61 17442030 18862330 19481120 20067490 22734330 27241860
3626.50 30463130 31597300 32628720 31909170 29463380 27851280
3629.40 26309300 25621350 27656810 29899060 29699150 28815540
3632.29 28990270 29733200 30738700 30177580 28330680 28539260
3635.18 29741120 30424600 32890360 36421200 37904370 38776530
3638.08 40067400 39133340 37703970 37967940 38464010 40073980
3640.97 45168920 51148170 52362470 50031250 50347680 54032690
3643.86 59059520 64363810 65289740 59189390 53116900 51692900
3646.75 52882360 54375380 55995730 59070520 62666080 64037520
3649.65 65562510 69985930 73865280 75231360 76124030 77791040
3652.54 78546570 75417210 71694870 74288990 78599220 76117620
3655.43 74925500 82156910 87269780 86711540 91114380 96571610
3658.32 90411060 82872370 85467600 86634310 81340570 82964950
3661.22 90791680 94053820 99280280 109033100 106733300 93751740
3664.11 89850380 92790200 91516920 94883000 105599200 105288600
3667.00 93206170 91022450 95904010 90167780 82192470 82242650
3669.90 81998400 80466720 84934540 90823580 92640730 93042380
3672.79 88792860 79987490 77872260 83011340 81732400 76514180
3675.68 80652010 89234180 89382960 82196640 76976640 77425030
3678.57 86196660 101026200 114187300 137323500 168263100 162925100
3681.47 123264700 91582670 77689460 72181700 72208440 78727260
3684.36 84574140 80719020 65526730 52393920 53117200 60796260
3687.25 64298170 60470940 53916060 53452770 58868920 62902900
3690.14 66726860 70718430 71269880 77249510 89916290 96260680
3693.04 95142010 96134700 98585980 100559000 105828400 106120700
3695.93 101384700 102720700 104982600 102514400 100086400 96363240
3698.82 92235420 93949010 96904460 94761730 94897700 100656800
3701.72 102437900 97663920 94309210 94342020 95316060 98035550
3704.61 103834000 108617000 109492100 109464300 104700100 95694860
3707.50 94332020 100236400 102574500 102012800 100629200 93856200
3710.39 89327720 91691270 93056150 94449670 98938170 101980800
3713.29 101552100 97908640 90889410 83487370 81060280 82275540
3716.18 81539310 81589370 81238140 76415840 76383000 82630240
3719.07 84208860 81317780 80678180 79638840 74038680 69154520
3721.96 66834160 64414100 62863400 60166930 55818940 53804470
3724.86 54068040 54810480 54338640 51306660 47749740 44938010
3727.75 43951580 45609340 48056930 48596610 47238690 45816850
3730.64 43862700 43754980 46330600 44713280 40052750 38118830
3733.54 36754960 33917850 30984820 29326270 29221360 29116680
3736.43 28546750 28532990 28913720 30608010 32081360 29131230
3739.32 24964780 24674100 25514870 23201880 20698660 20610750
3742.21 19685090 18826130 20883490 23311300 23531470 21934230
3745.11 20104900 19392560 19830200 19117510 16476710 15675670
3748.00 18598580 23453600 26093430 22846820 17365210 14372260
3750.89 15281490 17968680 17869120 16853360 18451860 18998280
3753.78 16584440 14156490 12365220 11573630 12643080 13543170
3756.68 13646020 15631460 20497440 23267130 19939230 14675500
3759.57 11698670 11066980 11738520 12242600 12003290 11562120
3762.46 11120240 11550320 14563580 17819560 17267590 15720530
3765.35 15623270 14016830 11531660 10378640 9889116 9737700
3768.25 9904924 9900740 10145910 10116710 8945924 8175208
3771.14 8603844 8647378 8396932 8513024 8053342 7363298
3774.03 7589610 7641416 7164800 7296930 7555506 7568144
3776.93 8237068 8883042 8400610 8095786 8295028 7595438
3779.82 6771842 6990834 7313378 7064558 7308466 8218350
3782.71 8270692 7442564 6904322 6345756 5893414 6015734
3785.60 5838376 5464184 5715006 5871370 5539504 5698468
3788.50 6148832 5872044 5641742 6404360 7462178 7724120
3791.39 7327470 7040678 6982146 6638812 5843866 5530054
3794.28 5691876 5730336 7047000 10227850 11081950 8335568
3797.17 6391032 5814240 5220272 5300512 5788994 5850732
3800.07 6413144 8358928 9068472 7221046 6063938 6014176
3802.96 5438574 5097290 5304952 5269982 5407854 6116404
3805.85 7018552 7634544 7318184 6701498 6301306 6239736
3808.75 6848858 7128614 7522102 9306014 10161400 8845796
3811.64 7812852 7266624 6276274 5581914 5781396 6436318
3814.53 7477766 9186500 9874348 7868198 5644072 4964366
3817.42 4821772 4803576 4724820 4610426 4983768 5754928
3820.32 6137008 6354392 6595038 5894716 5542014 7272480
3823.21 9968944 10705130 8689238 6728596 6019858 5855698
3826.10 6218154 6424762 5893918 5339680 5158236 5047314
3828.99 5157732 5385014 5265538 5284250 5885638 6032984
3831.89 5375722 5108288 5388070 5619908 6146798 6873524
3834.78 6654088 5943080 5764026 5994014 7098508 8857792
3837.67 8664892 6846766 6210646 6606424 6723590 6821094
3840.57 7503604 8492574 9693838 10437840 9530368 7701494
3843.46 6350098 5546726 5223938 5110378 5033104 5133012
3846.35 5464060 5959566 6503562 6751318 6551778 6163402
3849.24 5661602 5356432 5609056 6229672 7834534 9291342
3852.14 8977918 9287884 12264570 14824120 12661050 8312860
3855.03 6259904 5897198 5954340 6258412 6424136 6379034
3857.92 6379354 6416596 6470898 6390076 5915548 5436096
3860.81 5805812 6582386 6722842 6797684 7051570 6697270
3863.71 6382152 7148836 8005732 8077600 8661858 9167296
3866.60 8173264 7266992 7732744 8447746 8714586 9154780
3869.49 9743856 9164460 7944746 7483290 7688594 7886552
3872.39 7491988 6802438 6464968 6249954 5790672 5446212
3875.28 5467020 5551742 5527100 5396764 5139524 4808322
3878.17 4684476 4983592 5528546 5994592 6047674 5578598
3881.06 5059694 5193398 5626558 5782774 6035908 6152092
3883.96 5822754 6162088 7571300 7947380 6972246 6484798
3886.85 6404432 6301862 6469396 6872304 7913576 9368966
3889.74 9382628 8378698 8164268 7973822 7376792 7354326
3892.63 8133734 8934936 9208376 9082670 8445148 7534320
3895.53 7020256 6739804 6615982 6927522 7342388 7654840
3898.42 8293772 8786592 8555538 8373390 8338540 8179196
3901.31 7879772 7148946 6471094 6435290 7026762 7275496
3904.21 6425184 5650484 5557716 5487084 5266708 5093206
3907.10 5034540 5111938 5249080 5388486 5590804 5648008
3909.99 5407538 5132494 4922354 4699910 4541228 4452852
3912.88 4529576 4768182 4878274 4961636 5253126 5334286
3915.78 5049838 5067316 5320532 5062744 4790684 4971962
3918.67 5317754 5826262 6363262 6642546 6501910 5875100
3921.56 5323518 5323928 5719920 6110864 6008136 5546464
3924.45 5263784 5126480 4951044 4911964 4993714 4971986
3927.35 5018930 5193010 5239452 5233880 5281868 5230632
3930.24 5013592 4850464 5086186 5629528 5948554 6039948
3933.13 6037696 5705658 5259318 5033380 4940832 4905762
3936.03 5025410 5159468 5141460 5194386 5409206 5615460
3938.92 5949752 6140430 5781556 5480544 5650108 5882850
3941.81 6238982 6674536 6694056 6333930 5969896 5823140
3944.70 5953620 6244236 6545994 6684798 6563734 6202862
3947.60 5786978 5465800 5347036 5400618 5362694 5282240
3950.49 5426904 5707808 5954854 6018724 5736394 5314766
3953.38 5110630 5143800 5283652 5448808 5507276 5440968
3956.27 5434364 5502232 5478660 5472554 5541072 5424650
3959.17 5226744 5245056 5383742 5508334 5638256 5791394
3962.06 5982464 6125620 6130328 6064448 5878496 5643262
3964.95 5783524 6160338 6239630 6090456 5915546 5777432
3967.85 5711994 5643716 5624840 5869702 6306276 6420596
3970.74 6123866 5807248 5592896 5500546 5515632 5455158
3973.63 5407098 5548954 5682484
##END=
