##TITLE=Methanol
##JCAMP-DX=4.24
##DATA TYPE=INFRARED SPECTRUM
##CLASS=IUPAC A
##ORIGIN=NIST, Anayltical Chemistry Division, 301-975-3108
##OWNER=COPYRIGHT (C) 1998 by the U.S. Secretary of Commerce
##DATE=98/10/1
##$SPECTRA VERSION=1.00
##$UNCERTAINTY IN Y=2.0 % relative (B=1.0E-04,C=6.6E-10,D=2.7E-14)
##CAS NAME=Methanol
##CAS REGISTRY NO=67-56-1
##MOLFORM=C H3 O H
##MP=-93.9 C
##BP=64.96 C
##$NIST SOURCE=QUANT-IR
##SPECTROMETER/DATA SYSTEM=IFS66V (Bruker)
##INSTRUMENT PARAMETERS=KBr Beam splitter; MCT Detector; Multipass cell
##STATE=gas
##SAMPLE DESCRIPTION=Methanol Primary Gas Standard
##PRESSURE=101.3 kPa
##TEMPERATURE=23 C
##SAMPLING PROCEDURE=1 L/min Flow
##RESOLUTION=1.9290
##DATA PROCESSING=Boxcar Apodization
##XUNITS=cm-1
##YUNITS=(micromol/mol)-1m-1 (base 10)
##XFACTOR=1.0
##YFACTOR=9.0949E-13
##DELTAX=0.9645
##FIRSTX=574.687
##LASTX=3974.595
##FIRSTY=4.39E-06
##MAXX=3973.63
##MINX=574.69
##MAXY=.0010149
##MINY=-2.00E-07
##NPOINTS=3527
##XYDATA=(X++(Y..Y))
574.69 4832882 2591560 2372194 3001254 2004036 2910572
579.51 2803516 4694868 5458404 3308284 2114088 2500924
585.29 1322998 2584888 1948352 3070224 2228554 2800088
591.08 2220066 2989578 2779596 2368166 1770770 2832210
596.86 2319202 4898882 4639072 1889168 1837438 3003352
602.65 2435264 2047082 1455224 2176362 1378618 2268048
608.44 1645002 2908198 3330208 2063178 1460272 2003092
614.22 1770266 2715074 3856030 3257560 976054 2040662
620.01 706664 2290884 1992016 3365998 1284590 1828624
625.79 930288 1679038 1195656 1936346 1434488 1955688
631.58 1082802 2081314 1165412 1965970 1226092 1697408
637.36 1259280 2323204 1057892 2082438 1164014 2519194
643.15 2352964 1976708 1425310 3043736 2386942 2501012
648.93 2019976 2163424 1318796 2458680 2116320 3259636
654.72 3766716 4007850 1470482 2994460 1383052 1934812
660.50 1248126 1900258 1163140 1968284 539860 1782118
666.29 985608 1995944 1180794 1885262 1061758 1976630
672.08 1086350 2076408 1081072 2153500 1160684 2110952
677.86 970942 2088126 1042996 2111378 1059354 1832098
683.65 847844 2045634 986528 1880766 962564 2346724
689.43 2198028 4210882 3097408 2024630 4258798 3024612
695.22 829786 2721404 757808 1867586 787006 1974532
701.00 802608 1844516 832136 1874502 778734 2120674
706.79 609458 1955680 1057554 2297172 1161238 2100776
712.57 1139534 1996294 1085608 2124970 935342 1925448
718.36 973874 2106194 1177480 1953286 946088 2110896
724.14 911040 1867170 761158 1960656 640532 1813156
729.93 656858 1981840 1168780 2681996 1643140 4809158
735.71 4958636 2580502 283144 1674250 280938 1582938
741.50 454758 1555236 421368 1573150 890024 2016150
747.29 740666 2075454 876298 1948450 666566 2147186
753.07 718954 1922556 600296 1916970 693348 1963192
758.86 616134 1829226 570256 1936048 474208 1994532
764.64 571592 1815234 351324 1769686 475304 1823932
770.43 248392 1574852 507022 1639732 405412 1784338
776.21 1303284 3279164 2068268 4238156 1156306 1558944
782.00 20260 1452604-144958 1483286-92966 1452766
787.78-39884 1715058 153990 1648918 169390 1783804
793.57 220966 1959098 54944 1755060 147702 1814584
799.35 89012 1844944 168800 1862722-42578 2065404
805.14 432954 1741510 59966 1869518 7550 1706770
810.93-130504 1918616 91690 1887148-65910 1948204
816.71 30644 2252874 997416 3274312 807516 1889542
822.50 130578 2517624 117196 1743640 271332 2267514
828.28 18932 1948866-98770 1844892-200076 2069716
834.07-220626 2024744 115064 2090232 187260 2146634
839.85-28676 2217280-24914 2199512 72000 2420162
845.64 103566 2175608-22384 2134840-68074 2130758
851.42 19602 2301402-23812 2285154-21274 2285912
857.21 172950 3035632 988382 2358810-231718 2255566
862.99-178436 2426906-42208 2725778-157492 2852322
868.78-96944 2604730 175714 3277022 519310 2761254
874.57 70238 2780814-130564 2770216 18358 2679774
880.35-47942 2683746-206572 2809954 90346 2792552
886.14-122326 2855748-99416 2841076-231872 3046024
891.92-136810 3137038-103584 3179744 67048 3350174
897.71 372520 4492450 5232 3287972-210618 3383246
903.49-248162 3498652 20234 3806632 30496 3998912
909.28-57118 3852552 257866 4149860 102346 4078682
915.06 501024 4360718 182496 4484500 277700 4753810
920.85 391604 4807860 527394 5370042 649698 5494300
926.63 862394 5624630 818800 5748242 970008 6324028
932.42 1285092 6120236 905020 6266716 1059080 6780264
938.21 1655040 7160658 2083956 7061148 1139722 7867240
943.99 1182104 7442722 1796532 7918472 1868918 7623756
949.78 2992650 9200048 2305204 10910800 2499008 12173140
955.56 2614722 11991400 4765266 12814360 7444208 13468710
961.35 8348808 15491110 7932770 19693320 7094404 25011520
967.13 9544842 30395280 11278710 29744500 19723000 27942190
972.92 31037900 26158590 41768000 27553560 49673900 35563360
978.70 53864210 51290510 50678400 70792610 47180010 93074920
984.49 43600730 116573000 44562870 137640000 50634030 156119000
990.27 62603850 171143300 79225890 183497900 100989800 192276900
996.06 124666700 201685600 150137100 210637800 176539000 220051400
1001.85 200754600 232446300 221520000 239437600 239545500 247964800
1007.63 252709700 252317200 261021300 256589800 266023200 253513400
1013.42 264587700 251952500 261492500 246551400 250851400 219839200
1019.20 225838100 200971600 197563900 163107000 164932100 147375600
1024.99 129866200 131399700 124220400 119187100 140287200 219163300
1030.77 343655000 779448700 1115989000 252481300 96956600 99501710
1036.56 89913420 94188060 103339300 117388200 149781100 157705000
1042.34 192781600 207420300 238546000 258434100 288599200 299757100
1048.13 327929400 336350800 358757400 361371900 374708200 371962200
1053.91 380282200 373054300 373920500 359021700 355452600 337603900
1059.70 329229900 306212600 296079100 271934200 259618500 231676400
1065.48 219291200 194257800 182962900 157518600 146032800 124940500
1071.27 115859400 97141740 90925890 69099030 63281630 48952020
1077.06 46254110 34568860 35068420 24586750 26004520 17048210
1082.84 19876300 13069780 16472150 10098700 13544930 8787776
1088.63 13184630 8323336 12971700 9462614 15789610 9990212
1094.41 12241000 7965002 13965680 7967390 11708520 7751824
1100.20 11485280 7397822 11228080 7413026 11581800 9150476
1105.98 11503160 7477210 11821430 6620904 11375610 8160060
1111.77 10219960 8975030 13585970 7336014 10138870 6246588
1117.55 9722566 5924860 9843806 6260194 9500170 6323356
1123.34 9723144 5426564 8949890 5333882 8188596 6044988
1129.12 8132286 4930808 8045174 4691934 7526828 6373342
1134.91 10140710 5241782 8016330 4208386 6867156 5355492
1140.70 10434610 4028890 7829158 5096154 7349766 3679626
1146.48 7479382 4397670 7354882 3411972 6325302 4225792
1152.27 7003740 4040826 6033130 3593498 7385660 3944980
1158.05 6332318 4276466 7083536 4010616 6377242 4873064
1163.84 7544394 4273142 6034126 3656678 5846142 3807888
1169.62 6238986 3559110 5817182 3727726 6428394 4127474
1175.41 6656800 4330914 6554812 4468882 7109974 4458104
1181.19 7639110 5372068 7827472 5169078 7468210 5844544
1186.98 8457452 5759950 7949606 5968276 8397440 6380934
1192.76 8219856 6987318 9776896 7199310 10502310 7640856
1198.55 9925902 7870338 10895390 10813990 10701210 9143772
1204.34 11305990 9035116 11719450 10834450 12754450 8680776
1210.12 12022210 11142880 13951350 12888500 14603470 9623898
1215.91 11996640 9402800 11842930 9495626 12571300 9190810
1221.69 13224820 9264910 14239490 13552500 12573210 11122520
1227.48 15681010 9424502 10385060 7721782 13985130 13330890
1233.26 13207630 9080764 11260850 10118030 12515310 15457340
1239.05 16646350 12734380 13066320 12695350 12858300 11718060
1244.83 12569800 11693560 13258700 13990100 16266220 13618180
1250.62 14649930 13411870 15438060 14239690 15574880 15404300
1256.40 16971820 15263150 15502920 15197740 15778310 15544480
1262.19 16558570 14762920 16417960 14345920 16629700 15191440
1267.98 17190490 15790920 16043670 15074390 16120190 14954120
1273.76 16556010 15166330 16472820 14588410 16725390 15686260
1279.55 16948730 15549390 17459220 16520230 19075940 15921510
1285.33 18076230 16731050 17428980 18179140 18969060 18134290
1291.12 19932730 22581330 25168550 20822450 23606130 21429160
1296.90 24031020 21586550 24768420 23137270 25830700 26282170
1302.69 26388550 25526140 27578480 27235110 27393430 30467400
1308.47 31715540 26503700 28334690 29684200 27429300 26631510
1314.26 32561770 25853030 33507080 37304780 30905260 34840600
1320.04 39565430 40701810 32848890 37371160 31431550 34482880
1325.83 32160500 29887700 31083720 32220860 32338800 54227870
1331.61 39082140 27593110 28953080 27460660 28125710 28641660
1337.40 29520640 39567620 40402980 30304310 33633070 31830730
1343.19 33325070 57906680 46459300 47876710 39377730 34143410
1348.97 35024250 28347770 32300440 30882390 35779700 33709990
1354.76 34536310 33537850 39722360 33110420 36293260 38633590
1360.54 33572600 33171800 32703520 30197890 33125110 28924040
1366.33 29950040 29323620 29101060 35305280 35455440 34149840
1372.11 33309930 26495250 29834400 27972090 28644680 25770670
1377.90 28483860 31934500 27758380 24756260 26649080 22996560
1383.68 26979820 25777090 26453420 24762400 29966140 26514190
1389.47 24573370 24414170 25311710 24257090 25579590 23081590
1395.25 25614190 23390040 23540660 25214290 23101580 21452980
1401.04 22135480 20654960 22185850 19356970 21646540 17973780
1406.83 19028760 18709140 19046100 20153310 20254470 25468160
1412.61 25063630 22316720 19073680 17648360 20537900 20356360
1418.40 19423990 19450520 18326340 16721390 20397790 18565710
1424.18 19506260 18836870 16827740 18774290 18206110 19370820
1429.97 19154770 17388380 21687760 15822790 20461640 15721120
1435.75 20945820 16316920 15869150 15056160 15329540 13532100
1441.54 13859190 11330460 12200320 10025380 10084460 8998736
1447.32 9415498 7769570 10624580 10087700 22667540 32104710
1453.11 40269920 37552720 21683430 20662790 21073660 15908370
1458.89 16501620 17090260 19718660 18145070 18322030 18819320
1464.68 14715090 14444890 15288740 16915780 19247530 18961760
1470.47 19951520 20375150 21134600 18099960 18666000 16427740
1476.25 26207440 17843150 23346650 22629200 12071550 14387300
1482.04 13398910 15359720 12305040 12969170 15649910 13576240
1487.82 13326490 12602500 15336150 11488540 11776450 10872370
1493.61 10943150 11011960 13053870 13422060 16255880 13492120
1499.39 11757790 13074350 10523570 9910682 9396398 11267080
1505.18 13322550 12457000 10360700 10446370 12372350 13764690
1510.96 10851470 10596920 10095760 9763922 12704760 11415050
1516.75 11490170 9157952 10464760 10380520 12100410 11383800
1522.53 11047360 8674276 10642730 9745084 9908700 9830694
1528.32 9277716 8736638 9805222 7961114 10158470 8671408
1534.11 9528312 9507636 9561930 8125688 10772950 9249582
1539.89 9630038 8118612 8973830 6597000 8465676 7892766
1545.68 7545392 6511092 7166586 6681962 7646576 6384908
1551.46 6669100 5879476 7748372 6124546 6265228 6950358
1557.25 8782778 6669342 7718720 5292494 5052480 4876774
1563.03 5525796 5138828 5149944 4273692 4933928 4729212
1568.82 5471726 3918096 4198352 3587004 4781472 3467362
1574.60 5202780 5119498 3691126 3709092 3655502 3049746
1580.39 3235864 2739240 3321158 2494500 3150276 2394876
1586.17 2945046 2642320 2938086 2339090 2666590 2247836
1591.96 2714638 2052140 2641962 1944278 2713712 1933808
1597.74 2467270 1772866 2280882 1578200 2206548 1607620
1603.53 2160160 1646208 2091476 1387938 1838554 1241942
1609.32 1814224 1030758 1842608 1055970 1929148 910388
1615.10 2598918 2860632 1339938 1204274 1297496 1050910
1620.89 1358716 1251152 2090184 798066 1556428 720006
1626.67 1706648 910800 1236878 719016 1288678 665642
1632.46 1287034 779668 3109386 1350030 1331354 920900
1638.24 1015928 744702 1020872 661520 1057632 638942
1644.03 1117330 2144412 1397318 1099154 1196896 658976
1649.81 1037318 1151362 4327980 2404178 1647472 649872
1655.60 942666 547234 907086 509588 1019218 474072
1661.38 1387726 1022120 763726 722988 805844 662552
1667.17 838290 1606748 1167380 748566 1131170 458224
1672.96 781908 1411898 1697330 267636 1050340 362896
1678.74 1033678 681840 803966 864846 1477070 2881916
1684.53 2297958-14756 1264126 276226 1189732 404092
1690.31 1140814 244900 1149310 90542 1984072 2961002
1696.10 763492 712750 827084 2745252 2395766 365104
1701.88 891056 565290 1253588 475250 1342588 205334
1707.67 888438 256458 1054682 230318 871592 331770
1713.45 1253450 914976 858512 2216700 1742540 628140
1719.24 787478 303640 865552 390574 910194 290372
1725.02 835386 313434 887226 323594 1071170 404194
1730.81 729794 872408 2352462 1654540 998422 195170
1736.60 999410 64494 1528936 678488 706546 393304
1742.38 966912 322712 822692 358834 985010 436864
1748.17 1188648 192800 1801088 632472 687100 387610
1753.95 712732 345096 1191186 333162 787040 329502
1759.74 730924 967016 977230 217002 828502 215244
1765.52 774828 443704 1417000-3460 1070246 482458
1771.31 1720920 1064972 523660 510618 768888 233216
1777.09 757358 279634 825028 492916 663382 315642
1782.88 690990 625522 756482 266600 749958 339976
1788.66 705904 556142 842404 1097486 1034898 189654
1794.45 912070 309020 847842 231874 1020294 425526
1800.24 841648 450458 814936 268968 777582 239280
1806.02 749850 337056 796476 384714 1012334 275776
1811.81 819946 255748 807054 265984 817730 309210
1817.59 842190 283488 785664 259860 808856 289992
1823.38 858214 710126 796242 365182 850138 526678
1829.16 1250660 284156 777680 339784 817892 293622
1834.95 836798 389782 899304 286670 862482 233224
1840.73 913814 220068 1302406 1139494 711870 439932
1846.52 771610 417380 745556 351642 773314 331636
1852.30 766868 323692 808788 315638 758770 341812
1858.09 791978 347112 777302 342334 782576 320736
1863.88 793700 367546 871468 468166 1039742 678240
1869.66 785504 410066 753504 349398 760362 378980
1875.45 763796 377638 757500 320036 785170 373528
1881.23 752762 330584 817526 351854 792296 389334
1887.02 735798 494662 956284 317962 743424 358700
1892.80 776556 375408 832634 339442 781254 356802
1898.59 800308 288778 781868 299984 773254 368774
1904.37 796476 333524 792444 350730 777908 351570
1910.16 732332 424004 782032 310714 740334 381536
1915.94 682666 671300 832664 266956 778250 356490
1921.73 856180 354412 728414 331242 721472 284854
1927.51 782700 238106 738324 258466 738972 271554
1933.30 744200 325234 760890 290058 756624 257382
1939.09 725786 241364 830614 415092 746658 319018
1944.87 707696 270648 761012 326530 688064 209382
1950.66 605990 327008 694608 241724 652874 313084
1956.44 747538 245074 624846 201230 820348 233338
1962.23 637950 207080 883976 228496 751374 216786
1968.01 779372 350818 711842 218784 655298 519046
1973.80 692220 232050 797722 444238 754916 438756
1979.58 670068 490274 931892 374006 747240 651756
1985.37 948356 438714 1145298 373436 1344372 749398
1991.15 910886 970190 1309930 661870 1561552 673952
1996.94 1532678 1392500 1098458 1320900 1942136 863488
2002.73 2469398 823976 2318484 1957090 1490344 2506560
2008.51 1918398 1977078 3068312 1085886 4048354 1511750
2014.30 3314440 2834398 2641300 3901756 2253726 4014530
2020.08 3476136 3282172 4471732 2536194 5653698 2268242
2025.87 5934874 2576850 5610694 3069698 5004476 4091144
2031.65 4625918 4396950 4273504 4870980 4074922 4755470
2037.44 3948070 4595934 3638374 4329600 3802914 4119880
2043.22 3328606 3862720 3661670 3902462 3768334 4550774
2049.01 5229656 5860254 7764622 9833366 12634680 8891342
2054.79 2419318 2617484 2399744 2717716 2829458 2950314
2060.58 3343510 3795118 4357104 5064560 5689036 6048016
2066.37 6765718 7494186 8421502 8776866 9307582 9498598
2072.15 9940528 10023610 10265010 10076790 10210910 10013470
2077.94 9655366 9133338 8693786 8061618 7350498 6551656
2083.72 5946730 4874594 4230224 3563334 2729944 1904746
2089.51 2183602 1798258 1901648 2215314 2586070 1469768
2095.29 1895086 1569386 1878476 2143466 1343960 880734
2101.08 1168700 1328780 1367166 1242118 1533080 1586302
2106.86 1955228 1609424 1853024 1828770 2231560 1859194
2112.65 2236934 2093784 2697682 2091740 2289542 2046412
2118.43 2526004 2251848 2337580 1912526 2487476 2017664
2124.22 2005130 1858552 2023318 1564392 1585582 1471006
2130.01 1698226 1438082 1388446 1102156 1424764 1200420
2135.79 1002972 876302 1024312 939086 936010 977236
2141.58 1504528 1195172 1233852 743926 1016542 987820
2147.36 1101704 1351076 1786960 1458458 1577234 940804
2153.15 1350110 1448638 1592482 1323328 1634332 1367986
2158.93 1545860 1433840 1520552 1204016 1445548 1648812
2164.72 1829776 1338380 1426386 1533362 1702222 1205306
2170.50 1474936 1521924 1742532 1313136 1823340 1651286
2176.29 1583348 1369412 1807898 1585572 1423394 1240886
2182.07 1621236 1304290 1372888 1376136 1790852 1250368
2187.86 1346344 1367116 1494394 1093796 1429250 1205488
2193.64 1246976 1094696 1436434 1106970 1237046 1177434
2199.43 1300652 1022140 1368868 1154654 1180194 940642
2205.22 1304296 1075108 1252514 1149018 1293912 1198270
2211.00 1294886 972142 1205744 1057622 1255552 1065182
2216.79 1333106 1081666 1232778 1131976 1357858 1029842
2222.57 1214300 977652 1162848 989938 1156222 967444
2228.36 1196592 964276 1216592 976182 1176716 901848
2234.14 1197754 1018864 1169860 978610 1171016 914444
2239.93 1048582 843680 1111382 928972 1079820 863156
2245.71 1080714 899310 1089848 940384 1075762 932948
2251.50 1199808 946722 1207356 1034314 1100548 861996
2257.28 1074766 929616 1111160 938188 1147668 986022
2263.07 1071324 889270 1102370 933914 1193082 947712
2268.86 1150382 959926 1116468 992364 1137730 974278
2274.64 1119044 1010170 1172148 1074354 1130076 1047488
2280.43 1196080 1017546 1137028 1052100 1190368 1077140
2286.21 1277758 1128984 1292476 1151888 1231656 1145912
2292.00 1251974 1184290 1338114 1195912 1312970 1186090
2297.78 1360668 1197720 1421688 1169442 1360574 1173042
2303.57 1351392 1177164 1279230 1175816 1371156 1190376
2309.35 1394596 1252620 1484616 1379718 1502778 1359770
2315.14 1418132 1314942 1441146 1298926 1385868 1281630
2320.92 1415374 1400954 1533668 1443964 1582354 1555532
2326.71 1554438 1490676 1770664 1591368 1527732 1390236
2332.50 1625154 1510138 1573274 1437514 1573380 1612252
2338.28 1732212 1538016 1715222 1506772 1842542 1659168
2344.07 1981712 1667276 2122280 1695652 1750544 1593580
2349.85 1763136 1718510 1810780 1543642 1917738 1702414
2355.64 1795298 1751306 1981338 1712904 1777022 1758468
2361.42 2023298 1862098 1915032 1931404 1898974 1706384
2367.21 1809994 1802314 1882304 1892416 2157150 2163210
2372.99 2253372 1836798 1842186 1789520 2075220 1892694
2378.78 1988402 1679812 1913468 1856572 1933304 1586404
2384.56 1790254 1657322 1926732 1770748 1859920 1703154
2390.35 1967214 1803464 2027288 2100726 2104386 1726614
2396.14 1788962 1731140 2024180 2023004 2201452 1818810
2401.92 1842952 1847444 2194812 2159104 2238142 2162372
2407.71 2092830 1951542 2030132 1900998 1931902 1975142
2413.49 2100344 1976404 2155796 1869552 1872678 1841466
2419.28 1738212 1592444 1801908 1700388 1783428 1764838
2425.06 1992802 1839296 1804524 1665092 1766968 1628610
2430.85 1567854 1547554 1668880 1590372 1555618 1526616
2436.63 1532226 1455890 1567496 1537416 1509854 1548448
2442.42 1624064 1372018 1573398 1342980 1359050 1310266
2448.20 1440300 1549744 1578716 1260176 1421444 1347644
2453.99 1424002 1311316 1363886 1282530 1396900 1332024
2459.77 1402742 1348686 1309500 1244050 1256302 1355864
2465.56 1297044 1235110 1372968 1230136 1329844 1370990
2471.35 1533250 1148908 1316924 1139198 1261796 1118364
2477.13 1250296 1209004 1182310 1159510 1326964 1226480
2482.92 1290976 1291420 1336786 1186770 1257532 1141528
2488.70 1319520 1248906 1304620 1230992 1242994 1203668
2494.49 1312864 1282512 1181694 1171274 1258198 1315122
2500.27 1271014 1135554 1268144 1178530 1186176 1087484
2506.06 1275726 1168884 1323120 1174632 1348764 1118034
2511.84 1316812 1231906 1281766 1231262 1320260 1268100
2517.63 1355024 1314260 1346328 1373802 1359674 1434684
2523.41 1393716 1486310 1546500 1473514 1548606 1432860
2529.20 1444418 1393346 1467562 1480856 1454230 1510380
2534.99 1443890 1467418 1496646 1462490 1630638 1575882
2540.77 1560220 1515680 1550308 1437980 1507690 1455148
2546.56 1557260 1524744 1459760 1501246 1439236 1594388
2552.34 1685430 1644186 1635592 1642818 1525472 1477308
2558.13 1451184 1516208 1705274 1665830 1574596 1574020
2563.91 1611790 1639330 1674074 1583252 1647990 1681900
2569.70 1798566 1765000 1763488 1838808 1924840 1901920
2575.48 1805820 1795496 1938734 1889944 1893482 1896286
2581.27 2089946 2138568 2041402 1940684 2212712 2276640
2587.05 2140334 2182450 2201350 2325434 2344010 2449224
2592.84 2545372 2689566 2451740 2489374 2441556 2608202
2598.63 2607456 2591338 2473980 2400802 2497866 2319516
2604.41 2353620 2511476 2467560 2524304 2360258 2470248
2610.20 2533982 2731508 2884130 2539616 2560520 2629414
2615.98 2568296 2526432 2920506 2901072 2639102 2846366
2621.77 2778778 2831710 2738554 2917296 3029706 3013322
2627.55 2863808 2805580 2810524 3268522 2952098 2928238
2633.34 2777740 3152882 2839174 2802740 2863890 2694246
2639.12 2544034 2758124 2733504 2405848 2289804 2571786
2644.91 2493470 2397462 2289494 2766392 2936968 2688256
2650.69 2468118 2577216 2339640 2487052 2437676 2495198
2656.48 2417260 2641472 2623548 2753450 2724266 2374648
2662.27 2208856 2441184 2446814 2806324 2517494 2479846
2668.05 2555512 2567492 2752184 2864234 2554826 2620450
2673.84 2339178 2633512 2436552 2688600 2506192 2882546
2679.62 2504608 2629168 2462864 2577058 2331276 2589312
2685.41 2444346 2497752 2341440 2379548 2201064 2424172
2691.19 2293500 2629226 2226526 2661584 2469086 2519188
2696.98 2528224 2588268 2563438 2626824 2594682 2721316
2702.76 2444892 2798022 2538590 2695520 2494150 2663660
2708.55 2604208 2922124 2777914 2739176 2543466 2772242
2714.33 2631752 2677350 2424156 2619734 2572082 2886552
2720.12 2854684 3181676 2705376 3051576 2707148 3176596
2725.91 3143962 3567348 2944434 3263200 3050844 3207212
2731.69 3250650 3439302 3423968 3741150 3652630 4647728
2737.48 4100982 4254508 3972826 4423384 4045390 4470562
2743.26 4163338 4747028 4424694 4956330 4418150 5266538
2749.05 4855038 5706624 4999314 5766644 4704580 5575932
2754.83 5119068 6040310 5282182 5849616 5624232 6273680
2760.62 5709458 6156452 5975312 7251778 6257658 7191908
2766.40 6750970 7423336 7144890 7854652 7885702 8518690
2772.19 7951482 8778020 8369142 10028430 8683162 9685830
2777.97 9141032 10369910 10288830 11531950 11074280 11817020
2783.76 11658040 13547340 11671840 13528660 12969620 15164270
2789.54 13732980 16398060 16178520 18193990 16687880 18228700
2795.33 18651700 20555100 20183290 23515550 23645720 24525380
2801.12 25900060 28191920 28986090 31073840 32006760 34788570
2806.90 35740420 38704900 40111930 42101430 44796580 46217320
2812.69 49192480 50954820 54535200 54697670 58749440 58298060
2818.47 61851380 65442500 65730740 66542340 66904140 66466160
2824.26 68671800 68862660 68491420 66900900 67231180 66302190
2830.04 65254650 64501230 62915930 57013790 62513640 55425740
2835.83 52889910 56464600 62986750 65469400 54870710 78472800
2841.61 93204940 118503400 126826400 89638500 85385220 61846490
2847.40 67721070 54644400 54100540 53907770 59280800 57696870
2853.18 68115820 69485330 76022360 80997540 86468790 88411100
2858.97 94168610 96085180 98765340 101489200 106050100 103815900
2864.76 106779500 104100200 101206900 102644300 99594380 96421890
2870.54 98633280 98102890 92336930 90572610 99778100 83196890
2876.33 87335480 82934740 79640820 79743120 88167310 76806950
2882.11 73158000 72805940 67495900 70254950 79982730 76839800
2887.90 66475680 68566980 67044140 69961960 95657070 81650560
2893.68 74020440 76419410 73531340 79418470 80546660 87944290
2899.47 83360580 88338970 107506700 89320140 92772630 92723460
2905.25 97337780 100561100 110301900 116144000 110030800 110339200
2911.04 112933000 110451100 123844600 119281500 123722200 124542900
2916.82 127823900 141260800 156932900 153366100 149231800 157547300
2922.61 162887100 155071800 138271500 141204700 122571900 137965200
2928.40 140235400 128234100 130829700 137974900 141155400 152112200
2934.18 151741600 160020300 161409700 159327400 152749600 168207000
2939.97 147813500 160459300 160833300 151785700 151676900 148017300
2945.75 156737400 155579000 152415500 171780800 145402300 166470100
2951.54 150388500 153986000 147935200 153644300 131428500 162287800
2957.32 169289000 146429400 138247700 140794600 144226500 164688100
2963.11 156850700 165617200 169937900 170411200 187297000 159796700
2968.89 148609100 160468200 177085600 177248200 183628700 165712600
2974.68 162398600 138886300 166429600 134986100 173783600 156670800
2980.46 201958800 191836500 136771800 144455000 136212200 144291500
2986.25 133897000 131102200 132371700 108524400 124140300 125430000
2992.04 128141600 98708360 102295500 107693500 113910100 86432480
2997.82 84713380 84834030 98446590 102478800 87017160 88598470
3003.61 87107540 119239800 99854630 79432620 94265970 89812650
3009.39 111089300 90304700 84273850 78032410 81464780 76546380
3015.18 92219630 77395520 68657520 60317680 64035620 60670350
3020.96 63856410 75707690 71557660 49077790 59255930 58470790
3026.75 52427000 58516300 62560180 47004970 64884560 54527750
3032.53 54084730 45591340 47052800 51298090 45728640 40706010
3038.32 39918190 37931360 40772550 45876380 41072170 38037970
3044.10 34220610 32001430 36630080 27646500 32047290 27404790
3049.89 25387240 22836070 28819890 26787510 25833870 23419850
3055.67 24207510 20310990 22728090 20103580 22598990 18742260
3061.46 19330070 18873080 19154700 18245440 18329300 17391380
3067.25 15772560 15017090 14225440 13622610 13096410 13153580
3073.03 11896860 11701690 11977860 10857110 10341010 9978492
3078.82 10061510 9597484 9130714 8268718 8109568 7603764
3084.60 7311042 7007112 6695038 6619074 6335528 5744814
3090.39 5866672 5410878 5207858 4859430 4693644 4423322
3096.17 4587206 4268408 4084226 3832470 3782716 3439332
3101.96 3635954 3181222 3390390 3072350 3078018 2695682
3107.74 2870128 2542530 2681748 2333364 2399530 2141908
3113.53 2223750 1822244 2207008 1903026 2264274 1838460
3119.31 1960206 1683508 1912600 1627690 1771950 1389966
3125.10 1679290 1509140 1759830 1367992 1694434 1322324
3130.89 1805260 1425258 1584858 1200048 1479720 1193648
3136.67 1608114 1046658 1279602 1177494 1300884 1113990
3142.46 1567552 1059164 1366700 984492 1248728 977828
3148.24 1340602 1000266 1206780 940688 1152254 1062446
3154.03 1244214 1054436 1262090 990662 1244220 900114
3159.81 1454064 956530 1660600 1164758 1109154 1121008
3165.60 1483966 992184 1117646 898454 1212898 1179404
3171.38 1184902 917412 1142764 902190 1132090 806872
3177.17 1297836 947436 1267736 972848 1209500 900874
3182.95 1096604 950952 1159612 986100 1147132 970140
3188.74 1041202 916642 1410598 1019218 1057016 883474
3194.53 1044484 927018 1058542 794506 1018366 993684
3200.31 1126202 1008856 1169508 882640 1028144 825960
3206.10 951036 753154 1180206 859164 1044010 981714
3211.88 1056550 793088 1007152 868062 981598 734056
3217.67 977794 731710 1070798 848314 1013632 806734
3223.45 1087864 725042 1011562 818704 976390 753552
3229.24 941440 646702 1033052 671542 992520 671776
3235.02 1015022 727418 876376 797642 902594 678422
3240.81 820886 723280 856820 686864 1044782 740434
3246.59 878156 822938 872248 657314 782616 643430
3252.38 842912 746164 784606 745292 791588 693846
3258.17 741426 716072 882650 781326 864900 665850
3263.95 760006 730856 919892 667516 747136 775288
3269.74 696502 622666 800058 522180 773236 596008
3275.52 945414 449016 783184 619736 825540 681206
3281.31 743328 629822 873254 561276 732818 700426
3287.09 715398 709912 687140 547376 742924 638680
3292.88 803964 486424 639810 611278 760964 650418
3298.66 707934 609418 724082 641810 762702 502894
3304.45 666178 462766 792464 596886 669944 581762
3310.23 772394 579614 721562 641474 640312 625680
3316.02 778234 619778 623198 693776 619972 734918
3321.80 602038 603060 607666 612890 838432 564240
3327.59 882670 622734 829944 603236 677176 724448
3333.38 708616 583124 744074 675840 740268 647408
3339.16 874930 667274 693490 804446 849182 644224
3344.95 888514 643000 864982 844208 709130 655990
3350.73 886284 792772 767208 842360 892722 590550
3356.52 784850 674464 803546 692558 957066 667234
3362.30 953454 881076 1117632 872818 849514 648260
3368.09 794552 768116 947056 754250 805368 879652
3373.87 899174 913038 761708 1243280 1209100 842974
3379.66 968768 867936 900192 886948 1337148 953488
3385.44 1015814 973742 965006 932718 1161374 856026
3391.23 1250954 906302 1154128 971144 1170936 883662
3397.02 1319862 826894 973038 712268 1212246 1076182
3402.80 1368438 1077332 952884 978552 1029850 830440
3408.59 1227654 1456356 1034122 1126458 1109340 1166142
3414.37 1128236 1128498 1244848 1307938 1529858 1287308
3420.16 1249778 1138962 1167742 1091412 1203536 1110618
3425.94 1215492 1366922 1381676 1367398 1500440 1931258
3431.73 2104554 1259692 1441130 1376304 1525220 1505972
3437.51 1351162 1331098 1446776 1795486 1997868 2058704
3443.30 1271412 1344992 1252770 1126054 1896974 2045494
3449.08 1535106 1536628 1914630 1715068 1223384 1420424
3454.87 1289026 1283340 1610260 1984340 2167258 1128522
3460.66 1693620 1564084 1381996 1574332 1987732 1467904
3466.44 1507296 1304732 1507854 1389202 1953342 1773144
3472.23 1435304 1349756 1627300 1608052 1590290 2178278
3478.01 1908944 1772408 2822790 2842480 1943660 2227182
3483.80 2167298 2303280 2163780 2713784 3129964 2179416
3489.58 1818354 1907394 1710250 2819582 2193518 1770050
3495.37 1835732 1941726 2291830 2033288 1946638 1347122
3501.15 1772892 1557752 1939340 2344558 3265494 1790460
3506.94 1571790 1751222 1750314 1568926 2652904 2864736
3512.72 2107410 1315388 1699730 1565190 1774512 1919934
3518.51 1998824 1830490 1816752 1573938 2530286 2859678
3524.30 1732900 2269704 3157614 1386978 2015718 1173408
3530.08 2309950 1524090 2592474 2357044 3249218 3080474
3535.87 2105168 1336226 3382922 4399688 3082490 2624290
3541.65 1154652 2198374 1397268 3155186 2095754 2357182
3547.44 1922822 1891678 1767414 2182838 1983986 2162996
3553.22 2314734 2959178 2472038 2226054 2310680 2118122
3559.01 2246496 2417904 2590182 2372012 2095932 2540390
3564.79 2416322 4380150 6526494 3632782 2251260 2986454
3570.58 2394734 2507926 2846916 3887186 5824640 3260646
3576.36 4030036 4026440 2804494 4308416 3813060 4252434
3582.15 2347670 3913094 2815258 4521320 4167996 3926712
3587.94 4148422 3571200 3677752 3613108 3744380 4790288
3593.72 4809146 5371632 4406388 4582270 4892010 5334336
3599.51 4386032 4873634 4643308 4481526 4653286 5071784
3605.29 5563290 5735774 5734168 6360170 6014436 5908594
3611.08 6395880 8986666 8410030 8198372 7175766 9753242
3616.86 10821930 6729292 8740134 10622690 10648420 8681978
3622.65 8637918 9237358 9940834 13343480 16643580 15726880
3628.43 14059520 12208870 15546220 13976540 15240050 14985730
3634.22 14048110 15205310 18052540 19829400 19642910 18609930
3640.00 19700950 25935560 25567150 25343510 34230840 29242290
3645.79 25361220 26873680 29909030 31673010 35156120 37562260
3651.57 39575630 37257580 36946160 38651460 39461780 45371420
3657.36 46962700 43113860 41441320 42213740 46053110 55945250
3663.15 47659960 43807560 49012810 53165760 44149010 47519740
3668.93 37874340 42712980 42680640 50386860 36595450 43830500
3674.72 35746520 46989910 40042960 38644090 47004960 71312270
3680.50 88028980 40171290 36436880 37965910 44314990 21872860
3686.29 32448260 30052350 25571190 32380220 34445420 38269630
3692.07 49713120 46679590 51527500 52989710 50425170 53200520
3697.86 46442020 47677810 46965500 50270010 50016440 45472940
3703.64 49773500 53810480 56260960 46894520 49212460 52919810
3709.43 46127620 45124520 47403420 51489330 49638230 41161760
3715.21 40346200 41875920 37492320 41031940 41704110 39370540
3721.00 34775050 31973880 30540020 25863480 28206680 25665390
3726.79 22151030 22337540 25252330 22050880 22377350 22664320
3732.57 18543210 17523810 13850490 15256580 13276030 16266080
3738.36 14400740 12061290 12108440 9634204 9606184 11581760
3744.14 11469540 9036806 10434030 6321592 12841090 11907650
3749.93 6165252 9326372 8369402 9869932 6838094 5650890
3755.71 6788466 7282132 12869600 6824056 5284812 6307654
3761.50 5712838 5453852 9206820 8043488 7115756 4845454
3767.28 4967342 4924324 5154706 3951310 4433888 4166400
3773.07 3777342 3753628 3587254 3857426 4369526 4195146
3778.85 3744158 3424236 3562836 4055920 3954110 2978402
3784.64 3030550 2768052 2857106 2910486 2913550 3088788
3790.43 4069422 3442194 3352320 2760716 2559926 5267214
3796.21 4808586 2053216 3243004 2285726 4678848 3642062
3802.00 2830450 2576470 2640324 2885706 4108030 3146502
3807.78 3270052 3314600 4751174 4786732 3273428 3006716
3813.57 2730636 5098898 4040424 2129452 2555290 2200522
3819.35 2806706 3421262 2773280 3381698 6043820 2879350
3825.14 3096542 3127702 2764498 2389984 2778622 2542578
3830.92 3200414 2336222 2935040 3335868 3215158 2521068
3836.71 4882666 3327572 3189958 3428994 4134784 5544174
3842.49 3822176 2635276 2580714 2480154 3006724 3451880
3848.28 3086268 2603922 2996826 4847260 4187280 8181018
3854.07 4013924 2594378 3323840 3078788 3302154 3166442
3859.85 2714714 3160724 3613826 3202238 3529262 4172562
3865.64 4587840 3593048 4118882 4721474 4704728 3489204
3871.42 4142360 3313580 3169728 2641856 2819698 2706452
3877.21 2397452 2363598 3167768 2752114 2483440 3038462
3882.99 2961398 3052454 4209998 3004762 3308904 3155594
3888.78 4933880 4217876 3958136 3525516 4584740 4601162
3894.56 3791444 3242258 3470370 3806632 4486344 4102014
3900.35 4234666 3513774 3120142 3799166 2703830 2804154
3906.13 2488918 2556652 2694102 2869176 2553994 2351116
3911.92 2197554 2357226 2529156 2647890 2536350 2595180
3917.70 2339570 2964786 3397908 2979746 2475224 3229322
3923.49 2718610 2570756 2414446 2528592 2538020 2682296
3929.28 2592822 2407366 2747990 3166146 2801800 2522904
3935.06 2400842 2631026 2524608 2871080 3061358 2751854
3940.85 2859308 3441636 3162306 2862016 3100800 3429878
3946.63 3094770 2706900 2675550 2659104 2797468 3135886
3952.42 2571564 2581498 2703364 2777702 2673482 2821542
3958.20 2658912 2635920 2717124 2938930 3025586 3120468
3963.99 2710484 3148874 3029068 2917978 2759950 2939652
3969.77 3281984 2869276 2739468 2741108 2720820
##END=
