##TITLE=Methanol
##JCAMP-DX=4.24
##DATA TYPE=INFRARED SPECTRUM
##CLASS=IUPAC A
##ORIGIN=NIST, Anayltical Chemistry Division, 301-975-3108
##OWNER=COPYRIGHT (C) 1998 by the U.S. Secretary of Commerce
##DATE=98/10/1
##$SPECTRA VERSION=1.00
##$UNCERTAINTY IN Y=2.0 % relative (B=1.0E-04,C=6.6E-10,D=2.7E-14)
##CAS NAME=Methanol
##CAS REGISTRY NO=67-56-1
##MOLFORM=C H3 O H
##MP=-93.9 C
##BP=64.96 C
##$NIST SOURCE=QUANT-IR
##SPECTROMETER/DATA SYSTEM=IFS66V (Bruker)
##INSTRUMENT PARAMETERS=KBr Beam splitter; MCT Detector; Multipass cell
##STATE=gas
##SAMPLE DESCRIPTION=Methanol Primary Gas Standard
##PRESSURE=101.3 kPa
##TEMPERATURE=23 C
##SAMPLING PROCEDURE=1 L/min Flow
##RESOLUTION=0.9640
##DATA PROCESSING=Boxcar Apodization
##XUNITS=cm-1
##YUNITS=(micromol/mol)-1m-1 (base 10)
##XFACTOR=1.0
##YFACTOR=9.0949E-13
##DELTAX=0.4820
##FIRSTX=575.169
##LASTX=3975.077
##FIRSTY=1.20E-06
##MAXX=3974.59
##MINX=575.17
##MAXY=.0010279
##MINY=2.25E-07
##NPOINTS=7053
##XYDATA=(X++(Y..Y))
575.17 1323244 4043458 1924396 2117954 3565406 2257232
577.58 2080452 3681692 931156 2832988 3789994 2399576
580.47 3183156 5307114 4720660 6066398 4802918 2615808
583.37 2388790 2560792 2630230 1718048 2133170 1646258
586.26 1811532 2075978 2725786 2155310 2112084 3086330
589.15 2881916 2113094 2792728 2394076 2370710 2604336
592.04 3240076 1167314 4082670 3423154 1616054 2394494
594.94 2421296 1549300 2334336 2826246 2321828 2696312
597.83 3423552 4183850 5964632 4905262 2746166 1880134
600.72 1468002 2007440 2626174 2795850 2664044 2800672
603.61 2350548 1557954 1809370 1679998 1593830 2546412
606.51 1253502 1453474 2500386 1591760 1639246 2598204
609.40 1824266 2407006 3428982 3948140 2715864 1418848
612.29 1747916 1916536 1569890 1707000 2063060 1727356
615.18 2411486 2471356 3059736 3852680 5109918 2005060
618.08 1857850 1653384 1334768 1746820 1328846 1065234
620.97 1294548 2163506 1934648 2557704 2452970 3436562
623.86 2310836 1382252 1676316 1321698 1600716 990632
626.76 1500736 1358330 1166530 1683966 1787062 1454772
629.65 1253292 2423646 1653982 1128834 1870008 1466522
632.54 1281210 1953340 1742938 1209468 1659594 1967370
635.43 1058518 1721066 1872048 1139476 892396 2048618
638.33 2329826 1243170 1635312 2118126 1209826 1310494
641.22 2005642 1773790 1381560 1999568 2847402 2874798
644.11 2069778 1497152 1481340 1874716 2681716 1824476
647.00 3134502 3549038 1561940 1966534 2899896 2302760
649.90 1669760 2146346 1746754 1423322 1846180 2438276
652.79 1973958 2444382 2978668 2799684 2894808 4848788
655.68 4317358 2973816 2958970 1957902 1986256 2226992
658.58 3099936 1445938 1294576 1642840 1886484 1412132
661.47 1571610 1562960 1498372 1559282 1648450 1466164
664.36 1394516 958100 766618 1615144 1663578 902570
667.25 1779204 1575626 1485648 1710380 1562340 1273884
670.15 1660792 1451816 1306654 1884194 1410010 1230842
673.04 1997826 1582050 1212598 1882958 1626566 1437322
675.93 1770318 1801114 1581588 1214894 2178790 1265094
678.82 1077320 1976422 1827598 1044148 1677644 1764304
681.72 1667688 1379890 1387274 1521946 1364818 1066502
684.61 1550948 1649778 1616184 1223738 1489076 1622554
687.50 1161676 1451080 1744388 1727626 2283286 2720624
690.40 3184864 3514580 4327588 3741790 1404358 2902146
693.29 1390874 5454914 5258040 1209516 1738838 1469968
696.18 1986706 1995228 2032724 905130 1643050 1113550
699.07 1312776 1348198 1526854 1332892 1234554 1607890
701.97 1291962 1124472 1342072 1558066 1386290 1000268
704.86 1567406 1400764 1182884 1775914 1375604 1173678
707.75 1137064 1271852 1898744 1369884 1649288 1805872
710.64 1837560 1611272 1707686 1348948 1828616 1658182
713.54 1564884 1285890 1745926 1528582 1666382 1440872
716.43 1745694 1427484 1269984 1432330 1667800 1169332
719.32 1763926 1462944 1819058 1414242 1899354 1366824
722.22 1182618 1535308 1936572 1087092 1655722 1642624
725.11 1277578 1162880 1517796 1206186 1373864 1403214
728.00 1435432 974944 1339044 1349572 999270 1349788
730.89 1392980 1226542 1631490 1733464 2070730 1904444
733.79 2250882 2168362 2994506 4046988 5656044 5356296
736.68 4405098 1505916 1094778 1003052 970112 1111606
739.57 833730 1046074 888632 855580 1088750 1194550
742.46 884790 866660 1158534 960816 943562 965528
745.36 1278334 1343490 1703458 1436484 1139482 1302606
748.25 1870786 1014618 1481650 1769918 1431026 957950
751.14 1577370 1333220 1130306 1746300 1514474 1086670
754.04 1492254 1420214 870368 1485104 1448672 832300
756.93 1506284 1536866 1078620 1309264 1524242 1055608
759.82 1238962 1364786 944798 1221954 1611024 918652
762.71 1218462 1429728 963528 1230628 1716660 898038
765.61 1234958 1258944 1123342 678150 1448204 1004284
768.50 831224 1476938 1228564 716716 1456132 845202
771.39 698886 1027370 1050220 1103448 1281272 728786
774.28 1194272 928300 1067360 1422908 1099920 1670128
777.18 3407932 1869410 2579832 2784134 3861404 2782072
780.07 3131016 2236478 767534 818696 931122 732352
782.96 687710 670546 771468 509724 665228 718904
785.86 838700 491926 676546 918932 482566 594432
788.75 1228404 748704 747016 1206934 999468 477172
791.64 1064846 1175526 729202 958488 1310032 632608
794.53 1295210 1259888 883130 749062 1176312 766686
797.43 815034 1201876 1062446 602622 1232354 1017370
800.32 686340 1028736 1379940 530984 1300174 980312
803.21 962220 551056 1240198 1081352 1322434 1336282
806.10 1158604 688490 1047360 692066 1300440 742692
809.00 1034698 875288 923724 703142 861730 684398
811.89 951050 988576 1026926 1012946 1011996 922548
814.78 941046 834564 969494 879870 1263154 697048
817.68 1227928 1224510 1747892 1707322 2573732 1937312
820.57 2350924 1934342 938452 1048260 1083494 842962
823.46 1463900 1536832 1595924 831716 885590 881596
826.35 913660 1136410 1518422 1273308 1058690 927922
829.25 1222916 726530 1004056 866576 1006172 674112
832.14 876844 787354 990852 950338 1136108 593418
835.03 950212 1012092 1067462 1067362 1406364 697330
837.92 1201298 1396668 1175714 885644 1213538 1012296
840.82 1068576 1092562 1226662 982842 1057322 1151034
843.71 1100484 1174820 1345710 1056924 1611356 1046832
846.60 1128026 1031800 1189708 956666 1211886 840118
849.50 1138164 1047586 1063632 840536 1286862 928396
852.39 1408680 997922 1184082 1073068 1312808 898896
855.28 1215760 1170888 1221348 886740 1294192 1410294
858.17 1616664 1605922 2297836 2257802 1726506 964722
861.07 1078046 942368 1126044 871982 1160732 922698
863.96 1307538 1027912 1260246 1102938 1566982 1254252
866.85 1461776 957176 1407448 1514490 1579482 979094
869.74 1448994 1001752 1595244 1419850 1829822 1621744
872.64 2404542 1675604 1581756 1391360 1546384 1209238
875.53 1623012 1320594 1357516 1199616 1403674 1201216
878.42 1551538 1467720 1234376 1249910 1438216 1213402
881.31 1520346 1085832 1298878 1179656 1443944 1104748
884.21 1629446 1555204 1511542 1141392 1438906 1313542
887.10 1486574 1167052 1499378 1372240 1520314 1031634
889.99 1545844 1196460 1389226 1466658 1715902 1045312
892.89 1695378 1654268 1420704 1275136 1963618 1316484
895.78 1539552 1746238 2049568 1194792 2099284 1849626
898.67 2678396 2756060 2424946 1610332 1554346 1479644
901.56 1775352 1253454 1809734 1463166 1718204 1366368
904.46 1771372 1504658 2013270 1579482 2087696 1952342
907.35 1963536 1609342 2427310 1822880 2099804 1904814
910.24 1744960 1854118 2370030 1843032 2438294 2170818
913.13 2171790 1830714 2375258 1961756 2162526 2533800
916.03 2828112 1976420 2304468 2137442 2687816 2105210
918.92 2407208 2287318 2963168 2147518 2661864 2699056
921.81 2718982 2213422 2891406 2707076 3116856 2775424
924.71 3385480 2650860 3389970 2704638 3549384 3159764
927.60 3276186 2953640 3555434 3168748 3246686 2984858
930.49 3976584 2973744 3732252 3748512 4226330 3452050
933.38 3721290 3684120 3729410 2751074 4242208 3671182
936.28 3182346 3727092 4722796 3147996 4375324 4883570
939.17 4388908 3545918 5378844 4945734 4404168 4059286
942.06 4418104 3596008 4682712 4915052 4911164 3757446
944.95 4325806 4352902 4902364 4494150 5319124 4296104
947.85 5471700 4385152 5467648 3875712 5110846 6123188
950.74 7480426 4764464 5861558 5226836 7678116 6747610
953.63 6968094 6009788 6705450 9406978 7570112 5961274
956.53 6467654 8698932 9688380 6509268 10088350 8718740
959.42 9509696 11832360 11266440 9130626 9191404 13331150
962.31 14029140 9650264 10671570 12178750 16429930 13721290
965.20 13316780 10403850 17634260 20040600 17717620 13258470
968.10 20247990 24565750 24025270 16233320 16630220 22569850
970.99 32093640 25067380 17647590 20818840 36194190 38735840
973.88 21419950 21032530 35787690 49877810 33182400 22045170
976.77 34385180 54623270 54464830 25166280 34837980 56202160
979.67 77355110 36196980 35104140 56707500 85053220 59771000
982.56 35597470 61836970 83701540 92426680 38465920 65783360
985.45 82168900 121138500 54794650 67070240 87501960 135717100
988.35 86189450 65533840 98223830 140754600 128029800 64620440
991.24 111837300 142181700 168734000 72011500 121892900 146307800
994.13 203928600 91389690 127627400 152682500 230179200 118955800
997.02 131382800 162132300 255663000 150842600 131430900 175477000
999.92 280806600 181207300 131586000 193824200 305145700 202509600
1002.81 134041600 222052900 327032700 213072200 138285400 246825500
1005.70 340662800 216886600 147920100 276541200 347957300 211317900
1008.59 160385200 303381200 344007700 199004500 178550700 330148600
1011.49 331662000 182702400 202029900 346754500 299595800 166165200
1014.38 234040600 357473800 255700100 160733400 277552100 337778800
1017.27 204771600 178266700 294132000 274977100 147067800 200912200
1020.17 289606500 198041500 133905900 226584200 220959600 130217900
1023.06 133672600 207283500 163497700 110631100 147820800 161887600
1025.95 95671980 123575100 165131500 111470000 96555440 140726500
1028.84 128536000 129642900 173599400 218761400 268978600 360421300
1031.74 491724700 744362800 1113367000 1130233000 741842700 186096100
1034.63 105931900 100854100 115499900 93958020 98337860 78134020
1037.52 86217130 118976400 89827530 80186230 129272200 127902100
1040.41 110341000 152472500 175644000 141536400 161506800 221098400
1043.31 192343400 179020100 262561000 233911800 203129900 306809500
1046.20 281650800 229314000 340556100 317092600 250050100 375645000
1049.09 347468200 269257100 407704700 365365800 286527600 435728100
1051.99 367400900 299151300 455843000 353503800 321811800 460360600
1054.88 331329700 353593700 441404400 311852400 378982600 395589700
1057.77 307426900 387805900 341447100 318614400 367302800 301332200
1060.66 322347400 322022700 282690400 307042900 278896400 272408500
1063.56 272542700 249837600 251942900 228359300 230234300 215750700
1066.45 200566300 208935800 176384700 186185100 174209400 148624100
1069.34 164586100 134646500 136993000 131361400 114241300 120500100
1072.23 96870330 111782400 79662390 104494500 65028310 83575940
1075.13 57488850 64621300 55574220 50077190 49269950 42172080
1078.02 41506350 35921140 35325820 32397280 30932960 24503550
1080.91 27423700 23369560 20231620 20036940 19210960 16164960
1083.81 16927750 15696470 14573310 14068690 13307910 12114280
1086.70 12806800 10164220 10712250 12468760 10668480 9598570
1089.59 11912180 11141190 9260614 10689980 12557650 10665340
1092.48 12235270 14127650 14382460 10552760 11155660 10974310
1095.38 9488738 9697808 10410560 13865900 10211560 9106648
1098.27 10686900 9889254 8775012 10191050 10110210 8955570
1101.16 9435636 9549272 9382302 9013774 9440648 9501132
1104.05 9034490 9895426 10567550 10646700 10823530 9984130
1106.95 8936768 8237308 11500920 9734276 8077886 9148738
1109.84 9096944 9390122 8905674 11726890 8508118 7870444
1112.73 9257584 11280410 11968550 10843210 11519480 8998758
1115.63 7611844 9401888 7980254 7229304 8970886 7790960
1118.52 6984574 8580420 7794340 7342930 8693286 8441246
1121.41 6866404 8113850 8414426 7570362 7680340 9002196
1124.30 7138728 6845952 7235704 7527010 7144182 6724540
1127.20 6943688 6628506 6353726 8717536 6900006 6086244
1130.09 6760878 6719284 5970892 6782624 6719046 5767826
1132.98 5799032 6944216 5845040 7857504 9338802 8405980
1135.87 7537372 6410436 7493284 5536046 6540322 6144462
1138.77 4550600 5710552 6884432 4652532 9571608 10032490
1141.66 5703700 5917704 5803850 6532550 5832802 7326868
1144.55 6385942 5225650 5737454 5384422 5022338 6223228
1147.45 6330280 5509742 5753458 6445320 5115232 4715656
1150.34 4956474 4900294 4830758 6080520 6182554 4324138
1153.23 6188838 6262252 3902742 4572932 5686350 4408116
1156.12 4960982 6805506 5943178 4822126 4859754 5404666
1159.02 5270822 5371702 5658662 6188824 5343256 5414858
1161.91 4812744 5293774 5761446 5716962 6477408 6685352
1164.80 5761580 4922418 6047716 4404696 4365600 5362090
1167.69 4973446 4102740 4835150 5300080 5107942 4774224
1170.59 4866764 5128362 4551216 4165268 5156672 5141282
1173.48 4498450 5436074 5719174 4965056 5068044 5978878
1176.37 5650138 4880706 5703186 5729756 5160464 5381484
1179.26 6249174 5881592 5803646 5351406 5949690 6904932
1182.16 6582412 5915720 6840380 7475338 5556630 6265148
1185.05 7165642 5738912 6214644 7622406 7359684 6588116
1187.94 7559332 7379338 5958754 6821766 7902546 6518778
1190.84 6421072 8326394 7765926 6196008 7445966 8615022
1193.73 6436084 6918820 10210940 9235346 6395374 8923372
1196.62 9870958 8916508 8455636 9180770 9489014 7829436
1199.51 8848982 9527200 9479694 8673262 11544960 12418880
1202.41 10887030 9060912 9667516 10443630 10890380 9330832
1205.30 10240620 10925880 9630422 10022060 12852510 10751470
1208.19 12061510 12132420 11185380 8695904 9458554 12857760
1211.08 11497540 9752680 14332110 14924540 9774882 14185880
1213.98 17603280 11252350 10799390 12168360 11852180 8654946
1216.87 10755810 12395030 9963764 9090688 12313860 10616060
1219.76 10266650 11429580 11981030 9506562 10379280 13647240
1222.66 10928260 9527278 12266460 12310730 14941630 14674950
1225.55 13775600 10127910 11656660 13407150 12005240 15620550
1228.44 13080530 10783660 7989804 10155100 10015920 7331252
1231.33 9784158 14863840 14267740 11269740 18211300 8839648
1234.23 10868200 12244270 9322458 7795238 13380650 11440500
1237.12 9565150 10591920 16179530 16313470 14508870 17831210
1240.01 14066290 13315960 13117060 11699560 12533400 14960800
1242.90 12098190 11353630 12706250 13490910 10832180 11946500
1245.80 12605730 12578730 11565570 13272330 13004470 14914840
1248.69 15613160 15444360 14645020 14875840 14005710 13340530
1251.58 14375480 14145740 14562080 14404710 14716150 15411580
1254.48 15334860 13674050 15356160 17588550 15759900 15172150
1257.37 16806760 17115670 14320200 14180860 15560220 17406630
1260.26 14313640 14244170 16929660 16072240 15997780 15480790
1263.15 15634490 16649060 14479840 15079980 16734160 15602210
1266.05 13036260 16983980 17267210 15123590 14453750 18472770
1268.94 16937150 14624900 17198600 15491990 14142990 17261860
1271.83 15504170 13630620 17507040 15961260 13178190 17443880
1274.72 17468240 13496680 15457830 18182740 14966410 13199560
1277.62 16629410 17867310 14436230 15442260 18260800 16939400
1280.51 13373700 17326180 18254880 15419670 15504230 19332150
1283.40 17845250 17194030 17783210 17672970 16372400 16122140
1286.30 18657520 18260290 15784850 16228350 18631740 19101510
1289.19 18675940 17035520 19616750 19524870 17109890 19669370
1292.08 22399960 21473990 25383870 24881990 22393390 22032920
1294.97 20209370 25330180 22111010 20095780 24520050 24398730
1297.87 20020340 23045390 25798500 21082990 23127520 27577180
1300.76 23652110 20955100 28569680 31047570 22121690 23344940
1303.65 30784920 27220140 20443300 28546870 33083090 23557750
1306.54 24619760 31192550 28767140 26978820 34816450 31818210
1309.44 27096300 28085210 26907270 26593240 29851950 32482810
1312.33 26344950 25242740 31855090 23579990 26359150 38868980
1315.22 28225040 23153650 28015530 35785110 38750430 30750530
1318.12 40065250 31293530 26207700 36502020 44331750 31637280
1321.01 40226710 49468140 30987430 30704410 36441820 41204010
1323.90 30924840 31120340 33789870 35140440 32080420 33462260
1326.79 30750040 29228010 30282570 30594120 33976960 30418620
1329.69 30925610 34029060 38832900 57992100 53416240 34321540
1332.58 31286770 29483300 26353870 30305190 28298130 25533450
1335.47 28736920 30697160 24491990 29074670 31426200 29036000
1338.36 29733820 42432460 44632700 37799100 33982010 31160760
1341.26 33215730 29914840 35639840 32808430 28851210 33270140
1344.15 44808640 59245550 57204510 47841270 35259800 55371960
1347.04 50927970 29642700 36731940 37097640 36540000 31352750
1349.94 31028470 31887320 28640410 29556240 35033250 30292190
1352.83 30374450 40223860 33093550 30494540 39443020 34593620
1355.72 26793640 37351520 43163720 30289490 38209680 40849120
1358.61 28400900 30517510 47584170 38067400 28335090 41166700
1361.51 31836570 27841550 38954340 33340380 24867540 34679020
1364.40 33052530 29453740 32666430 30600730 26520500 31617860
1367.29 29135420 28747460 30590260 29102840 27898860 38349810
1370.18 39141350 31874340 31978320 39272880 33656930 31040740
1373.08 29171020 29350460 26488730 28961370 28609370 30295470
1375.97 28827020 24643270 29301300 28031920 24343050 27093260
1378.86 32170440 32874430 30852640 25156130 26057960 27758380
1381.76 23081240 26310840 26807770 22197450 23945980 26915700
1384.65 28122010 24926230 25732210 27321990 24810750 24209440
1387.54 28553180 29175760 28586850 27612570 25511350 22510520
1390.43 25072450 25794210 24070910 24657600 25274990 24436770
1393.33 25175990 25443880 22965160 24962560 24734520 22294220
1396.22 26869890 25771340 19472440 23634780 26703730 24592100
1399.11 23421370 24121110 21680410 21275880 21378930 24279490
1402.00 18472030 21678490 22878670 20824790 20510180 19794530
1404.90 21476970 20039500 20150010 19733910 16668490 18545840
1407.79 20296530 17596200 20618270 17207960 18503600 23802730
1410.68 18226980 19122950 22657080 27444730 25726950 23597110
1413.58 23661200 24009800 20518570 18030720 16434240 21584300
1416.47 16725060 19031260 23290400 19885750 19241910 19620690
1419.36 18780710 20303570 19714730 17015280 17005880 17536530
1422.25 19294850 18076280 21265480 19031480 18784470 17644850
1425.15 20058180 22178810 13489260 17995910 18291030 18586630
1428.04 18521760 18354720 18419670 18250780 22459940 17727880
1430.93 15924440 19811200 19440760 21163790 18596760 17071260
1433.82 16659040 20215570 19554530 15762650 16270440 21698120
1436.72 20349690 16428950 13876590 16537550 16002600 15460150
1439.61 13985740 15857300 14763990 13327100 13783090 13498470
1442.50 12674020 12261640 10734440 11461500 13126190 9327086
1445.40 8876358 11102630 9939854 7432498 10728840 9403470
1448.29 6919380 9329698 8623310 10577440 9637552 11049250
1451.18 14029710 22422910 30718930 27984000 41071260 36671660
1454.07 41436500 40520520 27436850 21129660 19111320 22533760
1456.97 20910810 20284880 19209610 15795350 16162580 15093790
1459.86 17391420 18475030 16742900 19556380 20847020 17468860
1462.75 17191170 18912520 18751770 18939010 17710180 13355970
1465.64 14301410 15148090 14643560 15275840 15223130 17449890
1468.54 19086050 18203930 18828930 19805850 20291020 17734200
1471.43 20991040 21375560 20089900 21402050 19412260 17812810
1474.32 19770480 17493350 16436610 17432880 21520950 24372150
1477.21 25878030 16750150 19044840 19780000 30308340 22599490
1480.11 12254800 15096280 11689740 15611980 12065840 14915430
1483.00 13402930 16723820 12610480 13497710 11220750 13194310
1485.89 14449510 16075390 14794820 13263370 13223150 14029890
1488.79 12019040 12848230 13955390 15670570 13764350 11497870
1491.68 10754640 11813340 12258330 10374110 10423380 11289600
1494.57 11489280 9713164 12837950 13029180 13255950 12846400
1497.46 15413320 16219480 15363420 13855060 11453330 12100520
1500.36 12261600 13680210 11498770 10650630 10361310 8991764
1503.25 10154020 10159310 8912710 10629650 14477730 13008190
1506.14 11033040 14706470 11100930 9675018 9894990 10923850
1509.03 11623760 11807140 13329820 13903570 13243570 10379450
1511.93 9690040 10812360 11460700 10104470 8267374 9654262
1514.82 13274180 11913020 10909440 12310510 12766320 10185470
1517.71 9668054 9981386 10696990 8475318 11203110 10508600
1520.61 11565520 12123940 10218600 13499150 10789040 10796360
1523.50 9017386 9778708 9287258 10310780 10067210 10469570
1526.39 9856312 9563244 8814830 11325330 10109240 7703576
1529.28 9044146 9220852 10282060 8314110 8967442 8744026
1532.18 8964484 9408442 9529400 9889760 8109666 9319714
1535.07 9682882 9583826 10504020 8536578 8425566 8982706
1537.96 8975580 11260120 9270316 9275422 11544250 7529640
1540.85 7858922 10547600 8934030 6126978 8822870 8488352
1543.75 6298452 6334696 10523190 8519598 6911476 6163930
1546.64 8155894 7691868 5594266 5876676 8721608 7109126
1549.53 5827014 7384932 8182386 6731384 5451102 6151266
1552.43 7672278 5662876 5639294 8471000 7346274 6314712
1555.32 5381910 6308246 6352520 7884702 7592730 7410938
1558.21 10054000 5918314 6315446 7710276 8132632 4505498
1561.10 4592908 4632076 6377344 4226054 4716630 5564830
1564.00 6290994 4621244 4802706 5267030 5389738 3708652
1566.89 4330302 4984546 5620956 4104704 4567830 6512246
1569.78 4925320 2747104 4488222 4658778 3765480 2515682
1572.67 5291578 4889326 3617270 3038346 5584556 3609404
1575.57 6426970 4892712 4432574 3851564 2919636 3980374
1578.46 4426448 3214046 2698330 3615908 3720184 2461258
1581.35 2665722 3373470 3366664 2575062 2842334 3036640
1584.25 3017490 2359408 2902926 2996216 2559492 2340804
1587.14 2830854 3356144 2744630 2121354 2917740 3042118
1590.03 2109364 2095418 2874572 2622128 2198708 2345188
1592.92 2712174 2276736 2150744 2344310 2533958 2209220
1595.82 2028526 2533948 2643412 2025354 1986676 2350984
1598.71 2337256 1767480 2012844 2184994 1891472 1721650
1601.60 1997824 1885724 1922792 1906086 1896828 1759932
1604.49 2015756 1942686 1856674 1725028 1855504 1641756
1607.39 1599924 1506352 1570420 1539504 1584788 1371316
1610.28 1569652 1277044 1411068 1456088 1667610 1192066
1613.17 1584576 1460810 1630896 1109488 1903818 1131550
1616.07 4284938 3231552 1086344 1692320 1108182 1413126
1618.96 1146820 1239278 1101754 1217194 1260968 1143004
1621.85 1309322 1203684 1953632 2140380 956084 1341468
1624.74 998306 1398528 1052372 1155738 884464 1628088
1627.64 1473516 1056486 1000762 1027774 983018 955602
1630.53 1005218 1049630 924206 1024228 900600 1030826
1633.42 924156 1191730 1573606 2897606 3325764 761710
1636.31 1192526 1251554 1423644 758046 1090408 810794
1639.21 910488 825406 1039362 724074 865654 804294
1642.10 991282 729402 908774 801862 960754 730986
1644.99 1233818 3327828 1485736 824914 1638668 879216
1647.89 1673706 611300 1065228 684074 1158466 540232
1650.78 1303986 279332 4291576 2850650 4612644 2635602
1653.67 916762 2515422 447506 1193658 508734 917358
1656.56 607210 916384 571512 816302 577644 849886
1659.46 683072 858166 633426 924104 650232 1025642
1662.35 1813508 1001546 632938 823104 641238 936254
1665.24 658862 816294 613684 876732 505252 1165708
1668.13 617336 1915818 2025194 609548 791188 784312
1671.03 1476214 722560 647142 697450 631546 810194
1673.92 563160 1495504 2659750 913190 705912 746996
1676.81 674116 728616 666358 673504 648372 827236
1679.71 844540 950224 651488 820806 577908 857020
1682.60 1452384 1730606 988296 3186690 4798994 296020
1685.49 1229026 340484 989326 460570 848856 745672
1688.38 889384 445210 1008318 773174 883094 526224
1691.28 837796 573946 855496 443844 879334 401070
1694.17 1119272 525724 3584456 4211606 448408 959366
1697.06 782540 801816 685026 651512 1342768 3497182
1699.95 2682378 2547940 723274 808304 562004 662054
1702.85 704776 589038 1243948 1091256 522028 711234
1705.74 1251726 1002716 545800 699272 453026 650264
1708.63 423000 661098 674150 741694 593912 650384
1711.53 424024 618720 579960 577854 943536 709200
1714.42 1169708 1640222 301294 1047092 314760 4073824
1717.31 1670766 836424 1877192 561556 722300 463722
1720.20 612884 514666 593114 621542 623754 589512
1723.10 785206 567898 589206 579082 569452 546610
1725.99 577002 564692 644156 579728 662922 481802
1728.88 740574 838216 845462 441472 751644 366342
1731.77 914998 315354 2790570 1764020 1159946 3501982
1734.67 424328 836206 368942 789616 396842 811346
1737.56 329894 728724 346564 1181602 1801976 603430
1740.45 539010 553632 551318 599592 686330 792662
1743.34 567262 633868 553718 517774 613418 651986
1746.24 586754 862940 582440 679874 979486 844376
1749.13 582892 730312 501186 1677398 1883466 384564
1752.02 599300 496564 629906 549054 508736 552000
1754.92 524974 494094 646260 1367786 514548 589952
1757.81 524342 655116 443164 621218 471726 665756
1760.70 376468 1622892 1149442 469252 567552 500616
1763.59 622740 433628 587172 453096 519996 481732
1766.49 663026 376596 1351638 1264410 247920 627690
1769.38 398372 686922 605416 1466086 498516 952114
1772.27 2787226 685788 522696 513960 516042 598258
1775.16 765144 559638 444304 453998 495160 536256
1778.06 517132 549824 483056 554936 761070 797688
1780.95 386056 590628 396488 588062 424354 600074
1783.84 416648 1084644 691800 482834 462368 520846
1786.74 495428 565146 493508 604570 456148 630806
1789.63 424446 805526 899262 605034 423448 1877970
1792.52 1286904 385344 664086 469752 604536 537922
1795.41 671762 588850 602904 505708 552910 585230
1798.31 492336 712262 1003680 509046 566870 705980
1801.20 614270 612134 826076 410520 584006 524624
1804.09 501072 559882 481132 498424 504738 446630
1806.98 613062 533596 592880 568198 560674 565870
1809.88 776636 859786 505796 560600 576956 555334
1812.77 509132 509880 573726 538140 486894 564448
1815.66 564848 524192 522172 662446 535720 555150
1818.56 583290 580146 496436 512588 533546 550652
1821.45 509660 504804 612072 559318 523654 556572
1824.34 747308 1250408 536696 601922 524042 669414
1827.23 583726 594602 619726 922430 657146 1330812
1830.13 623396 525898 505082 531138 550288 607946
1833.02 606322 513550 583214 547744 549960 601734
1835.91 562362 683724 707472 554666 601362 599948
1838.80 563414 528884 600476 527984 549902 554528
1841.70 665600 526134 734926 471708 2083092 1337166
1844.59 452944 745496 532518 693006 468818 623790
1847.48 679616 555892 549126 590216 542492 553362
1850.38 517968 639620 504158 571702 503640 602598
1853.27 519656 552874 524818 646564 543940 548638
1856.16 488748 580218 541836 550922 575118 580120
1859.05 545002 602194 545982 547020 554284 602376
1861.95 528422 563186 557448 559954 528398 564366
1864.84 619978 537936 678148 609580 616678 796552
1867.73 790960 498832 1216942 936314 436420 777536
1870.62 534828 633218 536956 607972 481582 644900
1873.52 456564 607530 564114 586566 576398 524988
1876.41 609164 579438 538812 592110 519488 508926
1879.30 562564 587926 563090 615288 522376 586334
1882.20 503670 559616 528136 686848 541064 563164
1885.09 568792 586694 603382 592692 543416 562970
1887.98 577972 621788 890640 747848 505620 640222
1890.87 479826 541106 502766 630154 553754 581374
1893.77 511942 619586 661100 558464 586694 593080
1896.66 529444 576722 546146 594384 577246 612758
1899.55 484968 541068 542828 534094 551256 551880
1902.44 481132 592526 531916 633168 582508 542056
1905.34 577418 589464 513446 581566 585840 586956
1908.23 533596 557968 567598 628730 457428 543756
1911.12 561296 688700 565518 596504 527336 538704
1914.02 488586 554882 550930 614662 493898 567520
1916.91 395514 1144628 837692 445914 568940 500396
1919.80 552882 490890 581410 620850 596116 574610
1922.69 692540 563602 502096 512036 540130 556504
1925.59 518162 518462 474804 506782 537622 601540
1928.48 467574 470106 491182 505598 509046 476476
1931.37 508030 497252 504962 534018 468322 511060
1934.26 554894 570498 518296 527372 548404 524592
1937.16 477470 566742 507970 482814 469672 510310
1940.05 492334 453084 554662 495624 780464 636350
1942.94 469162 583468 562112 503324 511892 482404
1945.84 526536 453630 494572 585122 527150 578424
1948.73 461100 507350 417858 476326 347362 388730
1951.62 473460 571472 497954 489604 446274 492118
1954.51 402328 470932 426116 601006 486582 556778
1957.41 501614 455194 417254 436784 391046 373672
1960.30 544400 645976 503684 453696 431990 430946
1963.19 366534 458774 521824 712844 544838 490994
1966.08 403382 532284 577400 389772 443678 547740
1968.98 696312 497480 508102 519796 481810 435196
1971.87 403520 364836 684652 756006 568376 540706
1974.76 371948 467964 515076 566804 631992 726994
1977.66 536396 530126 606542 713236 489050 489014
1980.55 505722 734912 764640 713352 636374 593060
1983.44 547698 523840 652774 876312 935886 699822
1986.33 566200 693488 822000 1002688 677768 562630
1989.23 864196 1071184 1250654 893556 776626 700348
1992.12 857370 1211704 1291726 1124066 739098 995940
1995.01 1110814 1382794 1117676 892670 994060 1305714
1997.90 1534078 1759170 1177034 847236 1016110 1520516
2000.80 1979568 1777144 982040 1221704 1722840 2265968
2003.69 1739266 1064742 1218340 2087462 2502814 2396132
2006.58 1281352 1181162 2139308 2657610 2599442 1669756
2009.48 1257172 2473692 2877870 3045406 1443756 1400764
2012.37 2742816 3516480 3497288 1620778 1597858 3293712
2015.26 3547860 3559536 1517638 2739402 3594224 4135180
2018.15 3249824 1550608 3199172 3876782 4831106 3026394
2021.05 2434582 3761054 4560622 4479452 2300470 3099086
2023.94 4668376 5183324 3941860 2347856 4302958 5146366
2026.83 5166562 2716872 3373370 5181798 5332786 3788696
2029.72 2299676 5012860 5462880 5065876 2455506 4727506
2032.62 5297478 5326580 2686408 4050580 5619960 5431784
2035.51 3365480 3640376 5294784 5385462 3303936 3488644
2038.40 5250824 4995530 3247948 3209904 4837712 4711490
2041.29 3137878 3556444 4968418 4188598 2811372 3359668
2044.19 4400108 3635826 3121434 3922724 4424928 3433540
2047.08 3434640 4219834 4267514 4088098 5035804 5477508
2049.97 5295638 5792194 6883386 7558854 8752644 10157840
2052.87 11057970 12488790 12375650 8879764 4671614 2271876
2055.76 2639028 2319714 2551280 2444300 2759714 2344688
2058.65 2869414 3136730 2590708 2838442 3593144 2827970
2061.54 3713334 4199630 3427142 4624998 5052374 4319364
2064.44 6128208 5365098 5611394 6811812 5402198 7573918
2067.33 6674176 7527232 8375706 7604770 9749028 7640176
2070.22 9915000 8902910 9244648 10152950 8892244 10663330
2073.11 9365270 10769560 9189528 11447540 8833606 11468710
2076.01 8950220 11000480 9628262 10505430 9384816 10023690
2078.90 9125694 9287570 8927530 8617198 8361304 8191504
2081.79 7680250 7294386 6947524 6566706 6316562 5908710
2084.69 5363712 4950292 4536230 4193410 3755836 3819494
2087.58 3112958 2665772 2145628 2135290 1790922 2270174
2090.47 2070664 1745704 1775656 2017158 1834236 2246000
2093.36 2743544 2346702 2190252 1370972 1548128 2068920
2096.26 1579958 1703636 1709674 1679160 2064088 2464902
2099.15 1639752 1325172 933882 988214 1019454 1170788
2102.04 1013576 1561356 1593260 948382 1296132 1617968
2104.93 1139268 1429608 1747618 1422594 1992980 1859684
2107.83 1614900 1912272 1657716 1559788 2145832 1699620
2110.72 2012514 2492812 1564536 2311598 1948492 1952582
2113.61 2425816 2076998 2237806 2947584 2152570 2433520
2116.51 1904808 2251814 2372924 1878264 2356938 2457662
2119.40 2466624 2325706 2122850 2582506 1842968 2025510
2122.29 2295624 2213932 2577814 1934860 1946552 2060634
2125.18 1715558 2184952 1780214 1976092 1896428 1569962
2128.08 1568862 1445628 1634814 1406612 1761060 1419658
2130.97 1774826 1425562 1412374 1349740 1204020 1123552
2133.86 1363388 1225204 1419256 1326800 1032000 936610
2136.75 875868 1005190 975510 850288 1055450 1030408
2139.65 908918 871818 932834 903644 1484564 1310858
2142.54 1397672 1292400 1183190 1228518 938528 769792
2145.43 921220 905720 983550 1127326 1003306 1077982
2148.33 1112106 1268136 2072622 1377090 1565642 1804810
2151.22 1388018 1535046 1166940 1163736 1015868 1167112
2154.11 1509328 1608178 1483650 1451128 1476536 1527780
2157.00 1294570 1592750 1627114 1364046 1455372 1424772
2159.90 1517612 1645712 1250922 1610812 1357514 1201124
2162.79 1327566 1344056 1579512 1705888 1738466 1933946
2165.68 1411758 1467964 1360568 1339458 1463706 1524926
2168.57 1804946 1658102 1278356 1362334 1297058 1509772
2171.47 1266950 1651572 1945584 1405818 1489436 1492010
2174.36 1602200 1594778 1729290 2024328 1460784 1401058
2177.25 1488484 1611618 1433046 1633710 1949114 1641844
2180.15 1397702 1390994 1257802 1435646 1268212 1620742
2183.04 1576440 1285776 1320826 1290216 1442852 1275260
2185.93 1717200 1814042 1393140 1422728 1192356 1352352
2188.82 1199478 1556954 1525532 1301300 1307170 1186656
2191.72 1289740 1223060 1418690 1378236 1087140 1178068
2194.61 1211392 1176238 1144100 1537130 1193586 1214152
2197.50 1134396 1150352 1225082 1240064 1275532 1228864
2200.39 1137636 1067854 1207644 1319376 1243252 1266144
2203.29 1149754 1149832 953416 1071990 1092960 1255200
2206.18 1210342 1109680 1181334 1224574 1086918 1271306
2209.07 1329198 1120828 1143092 1472656 1190688 1192044
2211.97 1112816 1094420 1076508 1088502 1107698 1259940
2214.86 1045032 1211300 1170554 1126484 1192268 1303318
2217.75 1138270 1241244 1120390 1116616 1198232 1245752
2220.64 1177368 1398122 1101976 1134446 1131622 1123438
2223.54 1076228 1101986 1026636 1097964 1091378 1020176
2226.43 1133136 1080322 990436 1080754 1111688 1112544
2229.32 1036116 1061114 1124400 1113600 1085554 1055426
2232.21 1111438 1113188 933350 1070330 1048904 1067294
2235.11 1087372 1213076 1050472 1015228 1145796 1043576
2238.00 1097522 1037960 1078614 1014074 965920 948168
2240.89 926956 988650 919192 1028470 1037706 1065248
2243.79 930670 1010764 1018258 896030 970838 1023822
2246.68 978568 973706 1019680 972322 1033630 1032216
2249.57 996950 1016322 956472 1024302 1088510 1129944
2252.46 1055668 1011724 1095024 1151882 1039614 1197364
2255.36 1101530 952954 936880 1042458 932270 936458
2258.25 1033278 1056256 990218 1017102 999018 1110270
2261.14 966972 1069552 1077178 1114592 991958 997630
2264.03 934910 1030970 981184 982458 1032096 1054178
2266.93 1030226 1091054 1120586 1038486 994840 1076608
2269.82 1078948 1066364 990096 1035674 1051490 1130866
2272.71 1026252 1014182 1119854 1063956 990574 1051274
2275.61 1074250 1115114 1053220 1094556 1123134 1207354
2278.50 1070530 1008072 1142488 1091342 1147558 1116612
2281.39 1071276 1170042 1015344 1054264 1119434 1119426
2284.28 1129668 1119950 1083444 1223270 1120368 1245450
2287.18 1165730 1236204 1211060 1195980 1206280 1300776
2290.07 1143740 1152344 1151330 1312888 1139592 1187138
2292.96 1168494 1351202 1207386 1272740 1235580 1370994
2295.85 1146114 1286454 1246046 1247906 1284708 1286084
2298.75 1265332 1305080 1244130 1427310 1254822 1288932
2301.64 1160028 1385564 1249092 1214692 1262106 1311984
2304.53 1258382 1226318 1239120 1236212 1185242 1201308
2307.43 1385980 1263090 1208210 1347650 1261742 1328988
2310.32 1279592 1385416 1343910 1395052 1429262 1516106
2313.21 1383136 1458708 1407508 1453268 1408964 1333016
2316.10 1287738 1472764 1402750 1294216 1355686 1468320
2319.00 1312542 1256652 1319510 1466806 1285854 1282878
2321.89 1426258 1585226 1370368 1438532 1549832 1543554
2324.78 1417240 1572068 1530732 1699502 1511334 1500666
2327.67 1470974 1575530 1667042 1662426 1695434 1720986
2330.57 1557256 1380056 1453996 1549718 1429132 1510780
2333.46 1669908 1605268 1429616 1554240 1526554 1529174
2336.35 1384076 1595674 1583406 1653332 1674256 1755010
2339.24 1542516 1615770 1652664 1634458 1639706 1516548
2342.14 1653046 1857900 1739036 1670444 1794980 2074776
2345.03 1705096 1722916 1894564 2098966 1946056 1782826
2347.92 1594514 1774136 1638026 1690550 1618498 1714308
2350.82 1764692 1783490 1746924 1791630 1642054 1623746
2353.71 1640472 1912918 1892574 1717114 1689104 1756260
2356.60 1828392 1770036 1782780 2070928 1843212 1696056
2359.49 1744590 1759840 1725140 1848646 1783982 2112688
2362.39 1937154 1845688 1885970 1932346 1873572 1956134
2365.28 1950932 1976292 1605244 1792700 1847328 1709254
2368.17 1740476 1919782 1833864 1898466 1724714 2019412
2371.06 2042066 2161266 2014292 2286358 2306782 2185780
2373.96 1924102 2036850 1750352 1817872 1725778 1883872
2376.85 1986044 1983764 1950206 2045736 1877070 1939520
2379.74 1883200 1683102 1731550 1959076 1869736 1820688
2382.64 1994752 1974880 1569122 1687712 1770048 1659696
2385.53 1689554 1777978 1762724 1895978 1805124 1868180
2388.42 1859412 1726406 1771492 1831628 1755602 1956448
2391.31 1871664 1899320 1823416 2061236 1953778 2256802
2394.21 2149934 1996242 1891152 1857356 1686682 1732300
2397.10 1733250 1816610 1894372 1902966 2038548 2159100
2399.99 2075988 2096872 2133248 1858790 1703872 1867294
2402.88 1791414 1957056 1934674 2184480 2220936 2217040
2405.78 2138366 2236400 2170520 2290250 2022418 2179244
2408.67 1852790 2114582 1994656 1873708 2054866 2014694
2411.56 1722370 2041884 1887746 1998444 2070830 2110002
2414.46 1968560 2000720 2118136 2156822 1919258 1990506
2417.35 1876474 1721496 1924918 1915194 1747330 1788540
2420.24 1492318 1733150 1703780 1712068 1769696 1767226
2423.13 1743138 1713586 1753964 1806468 1960766 1872684
2426.03 1883978 2065824 1694200 1708648 1837590 1691136
2428.92 1630536 1831770 1588482 1828166 1494238 1482910
2431.81 1631380 1568020 1577378 1653220 1628246 1677666
2434.70 1517404 1518638 1551110 1585074 1483798 1557908
2437.60 1424350 1551532 1431380 1616886 1520632 1526878
2440.49 1632108 1419738 1444276 1664722 1619166 1565792
2443.38 1485404 1391808 1492332 1525156 1481992 1400448
2446.28 1288646 1366428 1285168 1387850 1348136 1410766
2449.17 1453286 1644864 1568116 1583258 1363058 1314370
2452.06 1285456 1474646 1269950 1479630 1386374 1315712
2454.95 1417852 1371326 1283924 1364402 1277984 1384432
2457.85 1270406 1403172 1338082 1406956 1341240 1363310
2460.74 1355180 1480498 1247206 1273850 1295858 1326528
2463.63 1142370 1275086 1317970 1358508 1349672 1330290
2466.52 1150656 1297450 1320186 1368822 1279394 1247616
2469.42 1262472 1356546 1316930 1304966 1580380 1594840
2472.31 1154868 1274270 1193338 1312778 1219254 1131266
2475.20 1271688 1178220 1193660 1182122 1138066 1230220
2478.10 1257738 1216308 1199656 1226886 1018510 1247160
2480.99 1305756 1267706 1200872 1370516 1224568 1224064
2483.88 1280504 1370484 1311370 1337130 1142862 1345508
2486.77 1198542 1159860 1222282 1229342 1169348 1254434
2489.67 1367128 1282368 1213408 1306552 1258848 1314124
2492.56 1172246 1220452 1238398 1254592 1189432 1325338
2495.45 1313596 1326068 1192236 1200010 1102424 1261428
2498.34 1159806 1263718 1288690 1310426 1345094 1278302
2501.24 1119148 1160398 1242802 1261662 1143954 1267682
2504.13 1204386 1118822 1116612 1153536 1116384 1348022
2507.02 1138222 1232614 1230020 1339010 1200142 1219408
2509.92 1254608 1357764 1187608 1204348 1129606 1334566
2512.81 1259710 1329636 1188978 1228560 1315888 1275102
2515.70 1187840 1346498 1305780 1293108 1281874 1317384
2518.59 1392292 1345584 1229722 1428744 1284092 1460564
2521.49 1344092 1308106 1392418 1540026 1329336 1407394
2524.38 1411448 1530750 1493496 1606250 1394430 1585836
2527.27 1478220 1512584 1505938 1514924 1334284 1463554
2530.16 1427414 1455608 1318778 1492648 1537906 1472528
2533.06 1389586 1526792 1462754 1510000 1445720 1559592
2535.95 1297300 1535036 1512174 1493838 1412626 1514472
2538.84 1513194 1670410 1592056 1554138 1625926 1534254
2541.74 1477990 1597774 1487674 1593286 1438464 1465992
2544.63 1478968 1523430 1358666 1648150 1389900 1504268
2547.52 1646478 1569680 1353194 1508326 1538240 1436324
2550.41 1483476 1480432 1397826 1697866 1619788 1668306
2553.31 1694572 1658946 1585156 1667950 1645258 1651712
2556.20 1544060 1608212 1407404 1537518 1393620 1550726
2559.09 1399446 1479760 1675134 1729568 1659826 1638988
2561.98 1689242 1583658 1447376 1654538 1619250 1598624
2564.88 1525836 1772208 1589514 1734482 1537528 1665330
2567.77 1554276 1714008 1558664 1745470 1781030 1739890
2570.66 1751958 1890408 1683244 1744518 1779866 1935536
2573.56 1821474 1885722 1980664 1956846 1725722 1894892
2576.45 1759568 1808440 1797650 2048780 1861870 1893910
2579.34 1898260 1910016 1828544 1957986 1951616 2087612
2582.23 2122806 2218396 2030182 2020814 2050794 1895920
2585.13 2007500 2258212 2287356 2343322 2053004 2232972
2588.02 2192600 2104674 2141338 2395804 2068566 2354130
2590.91 2465254 2254796 2310714 2575210 2528256 2370068
2593.80 2678508 2921710 2317198 2538528 2446284 2545116
2596.70 2411830 2419272 2489566 2796962 2407746 2638536
2599.59 2736752 2538422 2395890 2669026 2335990 2409342
2602.48 2408822 2534198 2460840 2355202 2123880 2429556
2605.37 2605054 2356508 2423224 2636350 2454308 2509600
2608.27 2345424 2534346 2331718 2397760 2518040 2651230
2611.16 2540318 2668028 2863794 3064162 2530912 2612202
2614.05 2490632 2540942 2679374 2588482 2558014 2628100
2616.95 2574060 2439246 2599930 3139144 2916234 2837588
2619.84 2749618 2715896 2614242 2967974 2712884 2839294
2622.73 2848458 2768692 2734426 2830400 2849196 2772764
2625.62 2948524 3366532 2685022 3151020 2907318 2998626
2628.52 2631578 2862838 2905566 2664810 2964888 3495536
2631.41 3172636 2676320 3083350 3048742 2684082 2693132
2634.30 3073538 3316840 2761922 2894764 2980572 2683586
2637.19 2621104 3163370 2830002 2488034 2581430 2713580
2640.09 2597142 2674570 2731540 2926876 2571634 2243322
2642.98 2282010 2533094 2196632 2700746 2412114 2677264
2645.87 2441688 2227030 2374376 2425480 2340176 2799930
2648.77 2832664 3224614 2545554 2816228 2490418 2538496
2651.66 2460472 2614650 2419404 2421262 2315466 2514346
2654.55 2415894 2604366 2279784 2592448 2433882 2401474
2657.44 2518732 2689820 2556430 2687018 2709868 2699762
2660.34 2695876 2898478 2525126 2274554 2295158 2243460
2663.23 2230768 2576308 2347490 2354660 2824552 2781736
2666.12 2519822 2681114 2533474 2299612 2461322 2865226
2669.01 2316328 2608510 2708714 2583160 3028328 2986920
2671.91 2310162 2739856 2848526 2314348 2396182 2618438
2674.80 2359310 2596286 2506822 2533886 2562270 2680094
2677.69 2400038 2758306 2696892 2669462 2802560 2726982
2680.59 2263720 2703798 2610130 2388056 2629528 2541234
2683.48 2256482 2623898 2346926 2488108 2541794 2629316
2686.37 2346388 2475172 2370560 2477604 2377790 2255536
2689.26 2219068 2423864 2217066 2361356 2313586 2462438
2692.16 2385774 2630704 2345926 2380562 2453468 2336122
2695.05 2835724 2664496 2168384 2503622 2718362 2459814
2697.94 2562548 2517910 2637568 2559538 2621914 2615830
2700.83 2496266 2723194 2636300 2813748 2373978 2497764
2703.73 2790308 2698682 2474590 2823576 2595948 2635146
2706.62 2282534 3022776 2422282 2412598 2667800 2948868
2709.51 2508946 2848114 2930138 2979558 2583944 2748546
2712.41 2533022 2753550 2595666 2646690 2711466 2838278
2715.30 2546544 2656668 2434888 2645592 2450334 2555126
2718.19 2444748 2863044 2691570 2703720 2822274 3163156
2721.08 2911632 3002516 3135734 2746252 2689200 3191322
2723.98 2739674 2901922 2774336 3196274 3139650 3207690
2726.87 3384364 3583208 3150542 3082486 3095000 3111306
2729.76 3098708 3419254 2909222 3022312 3418418 3304150
2732.65 3229472 3553170 3235330 3523376 3717492 3681968
2735.55 3424796 3861020 4192166 4594904 4340386 4301462
2738.44 4087094 4168002 4128898 3959594 4278288 4475552
2741.33 3994200 4166004 4406868 4419370 4023396 4331906
2744.23 4741198 4488788 4315992 4847960 4694712 4840424
2747.12 4407622 4780662 4868518 5046790 4900262 5329454
2750.01 5006824 5812328 5099948 5317264 5396274 5587436
2752.90 5102602 5219526 4744646 5414140 5575322 5270136
2755.80 5304786 6127228 5680696 5444724 5396440 5834124
2758.69 5528718 6092788 5729302 6189538 5919052 6205356
2761.58 5388534 6453730 5805438 5994010 6875038 7146646
2764.47 6591818 6559796 6600554 7061812 6899428 7115946
2767.37 6911712 7391094 7022212 7552442 7533050 7581128
2770.26 7572482 8485804 8248126 8193308 7942510 8594962
2773.15 8330334 8286594 8554438 8889954 8828996 10154690
2776.05 9293392 8908122 9126166 9456162 9288676 9426120
2778.94 10165910 9470608 10274250 11294080 10732710 10344060
2781.83 12259040 11626100 10494310 11816050 12250940 11320840
2784.72 12451510 14244530 12051480 11883930 12455730 13631820
2787.62 12892650 13265650 14247080 14997560 14080750 14358740
2790.51 14925710 15682870 16744540 16512250 17258670 17488150
2793.40 17745810 17441810 16928740 17423790 18855900 19390860
2796.29 19391230 19578810 20931650 20865720 21189730 22606680
2799.19 24791980 24354190 22884870 24369270 25467920 26149900
2802.08 27328560 27406220 28348250 30053030 30610250 28855880
2804.97 32003850 33901110 32922300 31974140 37784060 36263420
2807.87 36692810 35942940 42535840 40788730 38901200 41542630
2810.76 45058530 45779350 43248770 47074200 46831170 51823100
2813.65 47727070 51078120 52547870 56557250 53860550 52759620
2816.54 58008980 58970890 60557900 54595720 60042170 64843040
2819.44 63670090 61243270 68323460 68590780 63496870 63886940
2822.33 69292010 70445300 62714210 63686580 70784590 74020890
2825.22 60068220 68777250 77432020 64643080 61356310 73567660
2828.11 68336340 62321160 67172980 70633910 62591460 65057180
2831.01 65764210 65090630 62191640 64589100 60768870 53608910
2833.90 59848790 65751770 58707370 54128260 52853360 55522660
2836.79 51866170 57458540 57867490 65010880 66513740 62118500
2839.69 63063650 52329120 63737120 78135110 90167120 87754920
2842.58 115460100 101565600 136932500 137728900 97360100 80162360
2845.47 105604100 76097500 72770300 61733140 64883010 69785050
2848.36 58323410 56729040 53926200 51084760 58176040 49456510
2851.26 56927420 65455090 52780340 54694170 69487450 66835610
2854.15 64944920 71344300 75914540 73563020 75072420 84923290
2857.04 86761310 80227680 89076820 92150150 87891050 93339590
2859.93 98744140 93562690 97604280 100461300 98238900 100896300
2862.83 105656600 106736500 103926100 101344900 109403400 107670400
2865.72 97788640 112465800 102504600 94331820 104546700 108653400
2868.61 93337010 102790500 100997900 90608110 98607950 103815700
2871.51 92790590 99019850 98772250 91621180 88399860 87734700
2874.40 100199200 104605600 81882840 87629940 88145060 81909300
2877.29 84288060 89298630 80793460 72977060 80326380 88178450
2880.18 75018390 88663790 91452630 71885500 71662460 75211140
2883.08 75435050 69212290 72497650 68229560 62901770 75744340
2885.97 72575660 80384220 78809340 81347700 67719170 65767080
2888.86 67165420 70645340 66898370 66979140 65176270 74007350
2891.75 76079070 100151900 97131210 74733260 76320940 75460650
2894.65 76092050 74846490 75889140 72352030 77087590 78569950
2897.54 81910600 77873720 85423950 88749150 86968650 80050410
2900.43 89727780 79996080 103058800 111520500 98213420 85322370
2903.32 93117580 90835050 93152530 95749280 90152890 98756620
2906.22 101984400 96676860 104999200 114163800 108271000 123255400
2909.11 109260000 110223300 110388300 109796800 111941200 113090100
2912.00 112473200 107338500 119136100 121957800 125787600 119227900
2914.90 115988000 125944100 129516600 117339600 129557200 126092900
2917.79 134027100 140591600 152544300 152452800 160575000 155446000
2920.68 147863700 140291700 169387600 148255700 157735000 167809900
2923.57 162923300 155173700 137171100 144123700 144517000 134409100
2926.47 128940000 134496400 119586300 131015700 154865900 139085800
2929.36 125483000 132418100 132238300 123828100 136541100 144273400
2932.25 129717000 146341700 147147900 151819300 148771200 155845000
2935.14 156675800 154564000 161961800 169917600 152208400 160960400
2938.04 157698700 151958100 155166200 176768400 155943100 147087000
2940.93 153202600 152611700 173398100 160990400 146500800 158618400
2943.82 149665200 153209500 148144500 147946100 146819300 170417900
2946.72 143892200 158780700 160054000 144925300 156160400 188838500
2949.61 154815800 135239800 159109500 170855800 156773600 155056300
2952.50 141486600 161089000 150586500 148121900 147536600 154365000
2955.39 152493700 119429800 142817300 164197400 177314400 167016700
2958.29 150838600 152701200 145542500 126004300 143859100 148443700
2961.18 130870900 147753800 156401200 162836100 164073800 156828300
2964.07 160272000 157774800 176810600 177490700 150968100 177921700
2966.96 186008800 182230400 176897000 160970400 150700600 146820000
2969.86 154427300 157301400 173806300 174904900 183792100 162127400
2972.75 196772300 180382400 170767900 168027900 160709800 175661100
2975.64 136600700 133654200 164617400 168838100 135104800 152906800
2978.54 139204000 174123700 175488700 158648600 161554600 196524000
2981.43 238928100 172918100 150951300 150559800 139597100 135362100
2984.32 134210700 160241800 126453900 128913300 163673100 133905100
2987.21 114386500 134284800 144420100 130628900 113215700 106430500
2990.11 120267000 128222800 115397900 124930800 142497800 119327800
2993.00 110268700 103924800 99556300 95730830 107702400 108288500
2995.89 113483300 115349000 96805870 89476620 85187260 79998900
2998.78 82402730 94066350 85974420 91262400 112900200 101385200
3001.68 91865970 86787460 87107460 89510070 88347980 85578500
3004.57 90882500 138847600 110265300 91517460 90237470 83376060
3007.46 80514770 94214820 95693920 92571460 89128840 117161100
3010.36 112997400 80819460 80602690 92637860 83466340 69613530
3013.25 79889210 88300900 78167540 68880380 83625660 107210700
3016.14 72861410 80912100 75682640 64469840 65766950 61284900
3019.03 57548940 67777700 63891320 57488370 59889340 69116740
3021.93 66938480 70211170 87653100 64843340 61303360 47105020
3024.82 51633760 61807650 60394770 56159870 56664140 54694720
3027.71 49426880 58321040 68025650 61004480 50672650 48891690
3030.60 54224930 64175140 66459870 50184870 51479080 60791670
3033.50 46076320 43182960 50760040 45021800 43868030 59425440
3036.39 49080730 39008580 46786440 42735310 37085230 39683530
3039.28 40729840 37269020 38711760 39683740 44451220 47199640
3042.18 42632910 42679130 37044250 38681020 38033490 33897740
3045.07 29589470 33019310 37862190 34039680 31331260 30027080
3047.96 29369540 28607270 32898630 29006250 24489420 23368480
3050.85 26042400 23905830 23094990 28269680 31328800 26652230
3053.75 23671670 26570260 26534630 21548400 24273530 24155020
3056.64 22382530 21044920 20308390 21764210 23929910 19479210
3059.53 20036410 22249750 23457620 17835710 17520970 18504030
3062.42 22203580 18031620 17104220 19490160 21397730 16433210
3065.32 17150650 19226490 19582070 15689750 16271140 16525830
3068.21 15843700 14155840 14555930 14411560 14638910 12834670
3071.10 13202710 13147340 14189490 11972870 12581850 12679040
3074.00 11706550 10420720 12764840 12538530 10929510 10132640
3076.89 11624270 10363600 9303678 9965984 11165330 9287880
3079.78 9441456 10114560 9965862 8116574 8935158 8508206
3082.67 8380346 7629460 7694968 8146200 7745618 6315526
3085.57 7367818 7746354 6725934 5687652 7276938 7115776
3088.46 6190128 5584682 6826472 5980720 5163312 5587240
3091.35 6600026 5107162 4895696 5262478 5589260 4472958
3094.24 4627810 4845444 4800842 3994598 4697468 4586834
3097.14 4509038 4161296 4239898 4024798 4082068 3607742
3100.03 3948068 3936680 3369382 3303766 3977538 3408306
3102.92 3295156 3235730 3526468 3148094 3100138 3410298
3105.82 3018474 2870820 3031924 2598598 2966240 2716622
3108.71 2649120 2650918 2683346 2589296 2424898 2372532
3111.60 2616160 2160726 2145374 2246416 2595868 1681166
3114.49 2072282 2040428 2077756 1858694 2234722 1921794
3117.39 2241732 1967224 2108302 2053206 1899066 1650942
3120.28 1936360 1870944 1744914 1653716 2009636 1599894
3123.17 1735054 1674978 1594538 1372142 1720364 1440244
3126.06 1569626 1652594 1766596 1526570 1504808 1589352
3128.96 1610764 1294598 1771128 1346384 1521000 1686250
3131.85 1733418 1468178 1534866 1413286 1470982 1233058
3134.74 1396420 1319540 1370190 1240482 1475534 1502490
3137.64 1299062 1178250 1229566 932074 1411246 1244604
3140.53 1358350 971930 1339788 1164596 1402782 1377784
3143.42 1478094 981950 1383204 1078824 1292540 1100602
3146.31 1092618 1039214 1263978 990710 1209556 1157268
3149.21 1252400 1136308 1046062 1025816 1210188 1033906
3152.10 924224 1117798 1157084 1015760 1358182 1026652
3154.99 1112456 1216502 1192926 1129402 1062702 1129722
3157.88 1233926 989578 1094986 1030058 1196034 1269918
3160.78 1282026 1135902 1093218 1513704 1909928 846820
3163.67 1267380 917916 1203720 1091712 1412364 1371094
3166.56 1331506 946206 1136732 991908 1000428 943728
3169.46 1157178 1014860 1217632 1291116 1329350 907454
3172.35 1094176 1001478 1121676 933916 1043352 1013104
3175.24 1078232 977566 914886 979822 1034188 1153060
3178.13 1150090 1153988 983468 1125286 1254890 1070410
3181.03 981466 1129430 1174098 909792 983954 1008366
3183.92 1036518 1035996 1097044 996170 1087872 1132436
3186.81 1091510 897740 1183030 1095328 969384 858288
3189.70 1059066 1029268 1018744 1419382 1362528 958294
3192.60 1044920 983386 1011888 854260 1101608 845096
3195.49 1041554 971422 1101460 840166 1020120 835516
3198.38 937548 812606 1144446 1035388 1037146 1070162
3201.27 1107294 944592 1272798 1009258 1036122 916954
3204.17 1038448 911780 873098 947230 964060 742056
3207.06 924844 768462 1007274 1075026 1120570 845056
3209.95 974240 929256 1109346 887656 1228510 914156
3212.85 857344 869250 999370 843554 947612 908374
3215.74 1070308 815374 806528 826844 975870 747078
3218.63 941170 744770 947560 1015328 874748 1007926
3221.52 925722 946894 823566 899732 1093038 843178
3224.42 992672 763706 939362 797234 1016900 866568
3227.31 972770 780220 907830 869184 831516 838652
3230.20 824578 665150 905088 892104 942772 674680
3233.09 858548 902410 837442 786694 781752 911330
3235.99 997654 739448 778196 818818 783824 952252
3238.88 881826 698156 886560 756486 710990 751518
3241.77 725018 875072 832272 616112 902682 723790
3244.67 864236 897416 1064838 737904 780684 745658
3247.56 960128 880054 817098 785750 848950 651042
3250.45 713404 750260 713792 640050 844120 698538
3253.34 790014 907304 720240 651202 836504 782108
3256.24 824866 637808 807388 726212 744810 684286
3259.13 639510 832812 864332 748024 782126 986942
3262.02 759186 740198 887006 623356 781986 629094
3264.91 786024 746276 896678 801154 895764 603122
3267.81 783890 646954 785376 731102 968662 497734
3270.70 627556 585084 1015752 533088 649066 632434
3273.59 658298 722342 599302 665614 899296 785180
3276.49 750616 460290 681070 576796 831640 634472
3279.38 799856 610894 840094 810754 678232 549386
3282.27 865180 553666 855386 717764 813954 621818
3285.16 562586 649930 831234 697534 726798 643072
3288.06 699518 760486 802510 548204 584888 610276
3290.95 758028 507568 824424 609682 827036 671106
3293.84 672450 554322 558526 518290 647810 700318
3296.73 744192 532968 846896 711908 632294 634352
3299.63 685794 682972 636572 669580 678752 717104
3302.52 718208 640228 773306 396836 664362 610114
3305.41 566688 442180 707244 684386 749258 641412
3308.31 649624 539468 708948 541584 802096 600990
3311.20 737698 656486 620106 613270 737142 732860
3314.09 650718 422810 786832 675888 599540 777852
3316.98 776472 612992 600950 556386 702104 725904
3319.88 692756 506970 701596 774772 745686 502452
3322.77 567522 631032 718568 522216 497006 691402
3325.66 868700 679304 699010 668766 654042 841526
3328.55 849402 592284 708492 797590 792240 595144
3331.45 604678 631750 775782 651792 842914 628056
3334.34 637426 531392 817652 616482 698852 726572
3337.23 783246 638736 647996 739684 756512 865188
3340.13 681210 840430 657750 476206 904474 812016
3343.02 856386 769510 793942 639018 754072 842476
3345.91 903816 518136 799422 759510 1071996 625674
3348.80 1004822 529830 753620 569456 854742 865172
3351.70 847576 771854 838000 704018 855342 667806
3354.59 1109414 912842 540984 613036 855166 663254
3357.48 711754 623092 960264 669488 649330 722698
3360.37 1063338 705702 842084 765458 800874 821580
3363.27 978688 964600 938278 1089824 1052910 886216
3366.16 887326 716366 890112 535788 798190 749556
3369.05 733622 835984 891620 863990 893240 772812
3371.95 828366 625260 944450 924656 884720 798312
3374.84 976448 976914 769374 715948 1025520 1078576
3377.73 1641086 1026652 877552 1014264 869718 926398
3380.62 896222 895772 981794 775438 880830 870862
3383.52 1217180 1236200 1323302 782990 1049858 1059528
3386.41 867388 1001810 1139114 832372 869734 958906
3389.30 1218548 1041794 986000 830904 1183644 1116850
3392.19 1176698 859652 1016332 1221332 995942 893708
3395.09 1283058 1120890 811892 1033120 1224368 1114558
3397.98 1133676 971322 827534 806510 979406 744472
3400.87 867930 1153392 1253006 1142490 1164606 1183232
3403.77 1491232 1150082 780150 912982 1137422 958090
3406.66 911616 1054372 1002740 779076 1013476 1002260
3409.55 1716742 1416176 1099922 1120470 1035910 1131114
3412.44 1132852 1061304 1218126 1093276 1163618 1228046
3415.34 946038 1256188 1138966 1252862 1290724 1212136
3418.23 1562726 1447702 1499038 1218976 1284406 1243056
3421.12 1248232 1013414 1223944 1267462 963474 1082682
3424.01 1319286 1108930 1084762 1180678 1239690 1057556
3426.91 1306306 1468990 1377418 1289066 1454934 1302134
3429.80 1442222 1562156 1597300 1777544 2523106 1893622
3432.69 1595734 1364358 1280110 1465238 1221086 1636470
3435.59 1414588 1368292 1519628 1739134 1356226 1199888
3438.48 1345216 1485848 1394236 1199442 1598280 2190322
3441.37 1734952 1555736 2695616 1902426 1559288 1285940
3444.26 1258692 1369322 1352218 1210992 1131234 1160652
3447.16 1421386 1872856 2125942 2125736 1798902 1301496
3450.05 1613770 1807798 1122644 2387388 1840650 1636582
3452.94 1389956 1265594 1358506 1324890 1329074 1500950
3455.83 1184028 1069896 1499436 2006154 1317944 1875592
3458.73 2777556 1846780 1489032 1358134 1215670 1584390
3461.62 1913132 1541604 1295200 1521850 1356066 1571490
3464.51 1803546 2127846 1715208 1287238 1694314 1428106
3467.40 1281172 1434214 1465518 1292504 1548776 1503896
3470.30 1472716 1880586 2276680 1570284 1527568 1554114
3473.19 1316322 1303890 1536728 1603406 1587470 1775942
3476.08 1496542 1407246 1960200 2427460 1915340 1776086
3478.98 2089536 1541280 2196074 2741368 3552958 2347040
3481.87 2362734 2262392 1763316 2134242 2490298 2150810
3484.76 1954984 2482100 2420570 1854068 2321422 3114282
3487.65 2650566 3167876 3122466 1833112 1782278 2027168
3490.55 2008324 1621882 1764424 1973944 2045962 2564508
3493.44 3286098 1920256 1714820 1764074 2094578 1714610
3496.33 1665824 2019456 2370582 2049206 2317224 1869660
3499.22 2248558 1785402 1736428 1180930 1578186 1866542
3502.12 1685282 1378320 1888400 1831156 2249922 2128784
3505.01 2763444 3954738 2108360 1860606 1529672 1701340
3507.90 1498556 1759790 1926284 1679516 1645286 1424668
3510.80 1915252 3245056 2377624 2740558 3265254 1624226
3513.69 1525926 1422508 1703098 1384514 1733168 1608624
3516.58 1793716 1498762 1911360 2083704 1873844 2074886
3519.47 1718820 1994940 1907316 1703546 1547938 1730118
3522.37 2005266 2236012 3219142 2590668 2699024 1405038
3525.26 1829582 1901226 3731660 2854466 1818936 1932024
3528.15 1546444 1711054 1729310 1379346 1568020 2107026
3531.04 2134714 1688008 2072144 1802402 2953014 3296164
3533.94 1737862 2419604 5205858 2452680 2001312 2356420
3536.83 1789098 1781448 1364902 2368440 6785322 3452670
3539.72 2174040 4681234 3082812 1923838 1491780 1720886
3542.62 1804172 1730624 1672542 1962028 1930528 2833988
3545.51 3403150 1871884 1972698 2357774 2383942 1818840
3548.40 1935904 1796872 1792368 1777532 2234840 1824368
3551.29 2104804 2286598 2096226 1650068 2395116 2827868
3554.19 2171374 2671150 3511122 2360820 1770320 2434444
3557.08 2661278 1939486 2170784 2317086 2185250 1984244
3559.97 2505630 2479798 2439400 2457302 2760024 2382204
3562.86 1992538 2033360 2607816 2424998 2251678 2680380
3565.76 2970150 4227302 6157724 6036988 6384660 2903972
3568.65 2338056 2675940 2642846 2806780 2609408 2823060
3571.54 2267884 2016172 3078374 3069306 2772658 3798332
3574.44 5265268 6322658 4084412 3496778 3595502 2854986
3577.33 5629468 4036008 2391732 2728762 4508490 3838576
3580.22 3685862 4127734 4622770 3723936 3082264 2840940
3583.11 2826760 3610636 3792678 3025826 3020354 4326348
3586.01 5407394 3755586 3805612 4013012 3887926 4728824
3588.90 3457690 3495018 3590176 3965174 3623644 3234100
3591.79 3752450 4166448 3806214 4577874 5545478 4543764
3594.68 4663162 5823110 5174686 3965796 4330468 4984222
3597.58 4453510 4768264 5599940 5052424 4835538 4699374
3600.47 4218788 4850010 5110008 4499772 4541336 4552640
3603.36 4153332 5062772 5079088 4369814 5401380 6288514
3606.26 5437026 5043932 5966434 6965132 4434398 6553590
3609.15 7273818 5672444 5140950 6324150 6669718 5630248
3612.04 7338804 9617608 9745034 6837240 8743592 9203828
3614.93 6564936 6977782 9302662 8444956 11174380 12010900
3617.83 7935562 6371848 6830512 10251590 9057986 9579378
3620.72 12545610 10612060 8482992 8982180 9344718 8228830
3623.61 7940060 10298960 9623180 9519578 10676040 13808000
3626.50 16770870 14435050 17282090 16936760 13411070 14615930
3629.40 13170660 11512110 13865820 15994170 15031930 13512530
3632.29 15093290 14162040 15830580 16271080 12635720 14129910
3635.18 15842490 14144870 15929290 19240060 19454700 17789800
3638.08 22098040 19180370 18006450 19371610 19315490 18702850
3640.97 22012560 27083110 28089740 22887870 24975980 26626510
3643.86 29607440 31851780 36904670 27770490 25758390 25013210
3646.75 26856100 27038320 27908780 28511790 32891120 32106940
3649.65 30966630 35712480 37887610 37298380 38059860 38411400
3652.54 40861630 38565410 33372320 35281990 43764200 37741760
3655.43 32536470 43074570 46806060 40762000 42408790 55632620
3658.32 44787980 36183260 43641150 48473920 36073860 38805240
3661.22 49518920 46596940 44509230 60005390 58602820 40970990
3664.11 42428140 51129240 43802020 42433100 57149580 59159810
3667.00 40475050 41367240 55562650 44647380 36215310 43352190
3669.90 42315690 37069330 41619040 49144570 43647910 48766480
3672.79 46476360 38232700 34184020 45815510 43388020 32886880
3675.68 39631340 47228640 48059030 38135040 39010100 36030140
3678.57 41002420 51703750 59930970 52855800 103343400 91537620
3681.47 52963590 43978040 35620820 38262180 30595150 42473580
3684.36 41899040 46383120 31223980 21586570 24735670 32885580
3687.25 32864650 32702010 23815180 25039960 30607050 32684680
3690.14 29710220 40925390 31924720 35607130 48154000 50803250
3693.04 45860690 46196300 53598130 44447130 56608520 56091570
3695.93 45977650 51482070 56286420 48197500 51757570 48997060
3698.82 43643690 45493990 52749500 45421150 44958300 51705670
3701.72 54763040 46392770 46862020 47144040 47525200 47953550
3704.61 51246050 57643830 52402960 56225240 55792770 43832500
3707.50 44667050 52446890 53014160 47567950 55530300 45283650
3710.39 40731080 48755050 46235680 44992360 51107980 51374680
3713.29 51338480 49956340 45821500 40528020 38068770 43992490
3716.18 39808100 38869740 45436820 35206220 34932620 44791380
3719.07 43069460 39345530 39414730 43235510 35534400 33244210
3721.96 35160280 30490930 32137000 31399210 26279100 26612670
3724.86 27331000 26720920 29228750 24522890 24438880 21836130
3727.75 21229390 22591650 24498510 25305010 22810870 23331920
3730.64 22597150 18553990 26354050 23301350 17767000 19783300
3733.54 18799890 16829920 15363910 13968230 14730910 15095130
3736.43 13565030 14567250 14378170 13928550 18814960 14501690
3739.32 10989130 11659310 14594550 11701930 8420626 11636240
3742.21 10136210 7587576 11023670 12039490 12420680 10785590
3745.11 9945480 9121516 10069990 10836650 7425488 6527874
3748.00 9517200 10879960 16324300 10976020 8166254 6422852
3750.89 6347990 10661770 9604672 6282776 10167400 10769570
3753.78 7576864 7015384 6520988 4427106 6968386 7055682
3756.68 6497766 6563652 10321250 14497290 9684872 6582710
3759.57 5495222 5077992 6036928 6430344 5897372 5798466
3762.46 5664044 4950198 6446362 11050240 8802198 6143994
3765.35 9482240 6906764 5126652 5240070 5016162 4410874
3768.25 5493366 4543714 5077732 5624884 4459014 3161536
3771.14 5019248 4262044 3892692 4482744 4460448 2837518
3774.03 4129786 4194756 3050158 3705176 4105344 3384480
3776.93 3930642 5194648 3991052 3488582 4930954 3688538
3779.82 2953518 3458050 4108062 3257236 3292950 4432434
3782.71 4666914 3130068 3745376 3237032 2478418 3296182
3785.60 3133732 2232572 3012010 3225130 2546336 2511736
3788.50 3675416 2793134 2480964 3101264 4011912 4133696
3791.39 3407274 3635272 3283050 3879484 2452372 2692672
3794.28 3004236 2885202 2263866 5727218 7671362 2626380
3797.17 3188830 3222860 2194564 2519932 3190470 2939488
3800.07 2501586 4176620 6341256 2410010 2845032 3529586
3802.96 2501626 2213236 3008560 2558602 2346632 3337852
3805.85 3148572 4471294 3560566 3120064 3506564 2398798
3808.75 3852124 3796984 2873844 4772446 6572834 3348934
3811.64 4155564 3725112 3218404 2262282 3077568 3021374
3814.53 3692548 4180274 6629898 3442978 2231954 2694828
3817.42 2219104 2473244 2464118 2101082 2364110 2950592
3820.32 3458660 2446148 4253364 2688444 2095110 3365304
3823.21 5297634 6724176 3769810 2968470 3231650 2520718
3826.10 3213994 3532476 2901442 2426176 2759720 2391836
3828.99 2463844 2922780 2641744 2287428 3053326 3571552
3831.89 2230310 2520660 2711554 2940020 2514382 4184018
3834.78 3270824 2783854 2769414 3154604 2600856 5444070
3837.67 5041264 2490226 3078112 3381440 3589606 2895146
3840.57 4018752 4002518 4867400 5730312 5211266 3226136
3843.46 3500784 2298532 2842758 2389872 2620728 2360498
3846.35 2853056 2804158 3430668 3439720 3369934 2952886
3849.24 3115894 2074960 3225886 2661038 3474288 6049026
3852.14 3843078 4032236 5475480 9583684 6952186 2637030
3855.03 3307840 2736008 2977672 3092922 3428908 2979400
3857.92 3339034 3088640 3309786 3257226 3122806 2369728
3860.81 2654896 3755576 3326612 3024200 4082324 3206262
3863.71 2935040 3183886 4985948 3265848 4338572 5321638
3866.60 4061414 2834346 4212786 4159106 4613156 3929842
3869.49 5697400 4655918 3583482 3715746 3721750 4222654
3872.39 3845608 3190080 3203474 3286918 2853834 2539300
3875.28 2807458 2772606 2797260 2714524 2610424 2383016
3878.17 2171416 2486130 2739632 3116818 3153100 2870930
3881.06 2302994 2358906 3262252 2527972 3171724 3217098
3883.96 2957212 2262104 4319298 4696764 2757972 3423340
3886.85 3224368 3010546 3224680 3454254 3380974 5343322
3889.74 5289724 3259798 4502910 4087776 3507828 3404134
3892.63 4080506 4714498 4575008 4645946 4484460 3395880
3895.53 3604830 3370168 3120562 3431608 3847130 3648632
3898.42 3988286 4999676 3914548 4208930 4346700 3840510
3901.31 4343774 3420616 3102754 3083424 3339546 4405094
3904.21 2881218 2616752 2879072 2783824 2592592 2536672
3907.10 2485376 2511234 2698830 2599384 2839524 2949600
3909.99 2683136 2493732 2563664 2239840 2329782 2167242
3912.88 2187878 2438418 2543820 2249492 2767430 2799268
3915.78 2487586 2170668 3183320 2355822 2230874 2560484
3918.67 2575944 2857294 3344900 3268392 3534808 2860594
3921.56 2465966 2639694 2770800 3248872 3147426 2613898
3924.45 2618372 2622638 2432008 2355802 2625606 2445028
3927.35 2397372 2733662 2587706 2588310 2665918 2682158
3930.24 2498732 2342428 2364780 2971280 3063888 2876104
3933.13 3261570 2812722 2571250 2459376 2541704 2333318
3936.03 2538282 2629756 2601936 2412456 2893120 2650224
3938.92 2969312 3334880 2893998 2402414 3055864 2808306
3941.81 3049480 3505440 3461676 3095194 3006144 2754444
3944.70 3037126 3024402 3400734 3317796 3423880 3045044
3947.60 2907212 2682164 2591888 2753772 2753752 2492404
3950.49 2728912 2858824 2983300 3135146 2917434 2556770
3953.38 2506288 2570476 2612794 2757520 2809068 2693664
3956.27 2654434 2828506 2744316 2631514 2888026 2759942
3959.17 2480936 2634032 2703598 2742348 2823722 2881346
3962.06 2977034 3143602 3043598 3040316 3047108 2669404
3964.95 2742352 3311446 3093644 3056636 2970060 2825120
3967.85 2902844 2800728 2782410 2783476 3297982 3363270
3970.74 2977980 2910788 2779640 2679146 2813140 2770510
3973.63 2559154 2837696 2873834
##END=
