##TITLE=Methanol
##JCAMP-DX=4.24
##DATA TYPE=INFRARED SPECTRUM
##CLASS=IUPAC A
##ORIGIN=NIST, Anayltical Chemistry Division, 301-975-3108
##OWNER=COPYRIGHT (C) 1998 by the U.S. Secretary of Commerce
##DATE=98/10/1
##$SPECTRA VERSION=1.00
##$UNCERTAINTY IN Y=2.0 % relative (B=1.0E-04,C=6.6E-10,D=2.7E-14)
##CAS NAME=Methanol
##CAS REGISTRY NO=67-56-1
##MOLFORM=C H3 O H
##MP=-93.9 C
##BP=64.96 C
##$NIST SOURCE=QUANT-IR
##SPECTROMETER/DATA SYSTEM=IFS66V (Bruker)
##INSTRUMENT PARAMETERS=KBr Beam splitter; MCT Detector; Multipass cell
##STATE=gas
##SAMPLE DESCRIPTION=Methanol Primary Gas Standard
##PRESSURE=101.3 kPa
##TEMPERATURE=23 C
##SAMPLING PROCEDURE=1 L/min Flow
##RESOLUTION=1.9290
##DATA PROCESSING=3-Term B-H Apodization
##XUNITS=cm-1
##YUNITS=(micromol/mol)-1m-1 (base 10)
##XFACTOR=1.0
##YFACTOR=4.5474E-13
##DELTAX=0.9645
##FIRSTX=574.687
##LASTX=3974.595
##FIRSTY=4.28E-06
##MAXX=3973.63
##MINX=574.69
##MAXY=.0006787
##MINY=4.04E-07
##NPOINTS=3527
##XYDATA=(X++(Y..Y))
574.69 9418928 6598408 5332302 5153712 5047792 5465376
579.51 6748332 8577378 8991832 7138076 5217098 4293916
585.29 3972144 4257014 4744258 5103638 5137378 5063636
591.08 5156596 5427566 5334710 4729800 4490268 5008020
596.86 6317510 7982798 7633446 5447526 4550036 4979922
602.65 4835034 4078826 3635304 3594026 3623864 3827016
608.44 4340910 5280202 5538380 4518978 3663304 3681430
614.22 4267148 5514314 6453200 5538338 3823790 3004130
620.01 2988462 3710190 4658484 4805792 3903444 3049544
625.79 2729178 2777266 2998248 3235610 3331216 3226170
631.58 3131126 3191022 3183112 3153358 3052636 3013178
637.36 3247322 3418844 3279466 3251828 3545046 4203830
643.15 4433742 3993788 4079894 4827906 5052172 4722182
648.93 4324186 3885368 3743720 4219932 5039406 6198536
654.72 7088442 6493692 5136676 4425242 3838626 3334650
660.50 3166338 3117422 3050986 2805118 2493212 2581536
666.29 2850362 3057908 3092780 3026290 2999824 3055774
672.08 3105896 3163188 3197686 3269960 3266812 3183450
677.86 3085692 3104044 3133158 3143780 3008570 2829046
683.65 2809108 2938370 2932058 2909730 3170448 4041548
689.43 5444908 6545366 6235820 5947060 6428240 5468010
695.22 3958740 3481022 3052790 2721476 2701432 2756346
701.00 2707812 2679596 2680040 2702302 2761170 2789184
706.79 2689546 2834812 3151458 3369774 3345194 3263102
712.57 3181064 3131668 3133830 3114906 2970168 2914940
718.36 2997668 3160488 3168582 3044040 2988414 3013458
724.14 2885694 2735036 2671740 2648582 2532182 2492606
729.93 2587540 2942004 3492024 4207262 5603500 7772346
735.71 8026572 5305956 2771720 2027676 1916874 1961780
741.50 2001970 2002388 2019736 2267020 2631280 2806982
747.29 2802652 2875384 2855324 2751458 2728384 2813532
753.07 2733826 2605724 2530366 2574120 2613832 2610070
758.86 2508554 2447554 2442488 2461380 2447518 2505804
764.64 2444776 2293922 2163996 2197554 2237838 2168912
770.43 1979140 1983300 2080384 2108064 2190228 2750214
776.21 3818488 4930296 5685788 5575070 4028562 2355818
782.00 1595668 1408532 1332290 1367326 1367496 1416980
787.78 1547224 1754214 1814350 1833822 1881036 1989966
793.57 2067090 2075922 1923694 1885366 1912504 1938942
799.35 1921216 1981260 1991306 1949296 1966068 2228036
805.14 2261980 2031096 1882322 1889236 1780184 1683632
810.93 1701204 1889426 1955608 1916550 1862180 1959502
816.71 2189982 2832210 3660716 3997768 3342162 2525016
822.50 2376572 2542162 2251234 2048318 2236202 2356296
828.28 2127554 1935696 1789626 1731288 1753052 1849160
834.07 1843710 1990890 2142156 2250174 2273402 2237182
839.85 2159852 2194474 2179916 2252604 2365692 2482516
845.64 2378218 2242802 2128524 2103196 2064504 2130922
851.42 2214532 2295776 2261750 2275262 2268140 2431914
857.21 2870744 3515308 3515964 2792286 2163908 2084296
862.99 2157022 2339116 2501372 2626116 2631044 2710056
868.78 2634536 2729560 3108658 3544764 3463398 3110524
874.57 2847704 2762032 2658414 2721632 2713036 2685660
880.35 2613122 2579942 2561892 2754512 2837940 2796706
886.14 2706046 2753240 2722238 2707558 2714136 2868480
891.92 2933996 3028968 3049704 3187260 3327016 3662286
897.71 4223138 4516484 3888398 3304860 3121732 3173144
903.49 3198940 3417640 3634622 3841354 3906534 3978424
909.28 3880984 4006454 4203446 4320216 4240856 4426852
915.06 4645674 4709626 4617098 4746966 4877054 5093054
920.85 5152656 5328914 5592914 5947312 6065586 6274034
926.63 6378528 6488126 6496806 6702242 6994290 7415266
932.42 7427946 7267654 7114884 7303728 7590788 8153334
938.21 8586208 9018050 9061426 8771420 8651070 8963498
943.99 8850666 9032516 9405336 9719962 9694386 10228200
949.78 11234490 11891710 12392440 13319040 13990440 14662670
955.56 14811770 15801630 17172550 18938590 20417230 21500890
961.35 22694030 23840590 25444150 27354920 29632500 33417960
967.13 37102320 40426680 41787990 45223800 48749030 53336650
972.92 58061450 62763110 68473230 73709400 81026540 87864300
978.70 96757760 103856100 111644200 120048900 128936300 138794000
984.49 148482400 160814600 171666100 185470300 197504400 212946500
990.27 226103200 242332400 256468200 273775400 288599000 305540800
996.06 321432900 339364000 356096400 374242800 391519400 409087600
1001.85 426604700 443259600 457174000 470135500 482841100 493770600
1007.63 502478800 509154100 515244700 519495800 520618500 518881100
1013.42 517247100 514634000 510206500 500987700 482994200 458714400
1019.20 436060400 411114600 379333400 346019100 320027800 294754900
1024.99 271537900 258762400 251228700 260264100 324153900 497454000
1030.77 887135400 1423180000 1492677000 886499300 352649700 204663300
1036.56 188346100 193061300 211730800 245258700 287114200 329663500
1042.34 375612300 423145600 471839500 521212800 566891000 607604300
1048.13 645357600 678742700 706488300 726935000 740592500 748677800
1053.91 751882900 748937500 739037900 723095200 703185800 679131500
1059.70 650624800 618606300 584924200 549279800 511155100 471317400
1065.48 432605500 395404400 358837400 322311300 287820600 256235400
1071.27 227338900 200484100 173869400 146788800 123168900 104147900
1077.06 88499290 75548880 64841180 55287620 47079960 40241760
1082.84 35174680 31298780 28118110 25214690 23211620 22197180
1088.63 21774530 21505240 22124770 23770700 25041330 23783540
1094.41 21652370 21203790 21645790 20763350 19748120 19318910
1100.20 19076570 18764340 18700620 18934840 19845470 20411020
1105.98 19864070 19183710 18833320 18384800 18729370 18887540
1111.77 19153830 20669230 21228320 19219780 17186680 16220070
1117.55 15868690 15741190 15917880 15893900 15852550 15842840
1123.34 15538030 14807620 14348550 13950950 13946130 14050450
1129.12 13630700 13073410 12838220 12614900 13317390 14972200
1134.91 15594110 14309270 12834800 11807030 12032980 13794240
1140.70 14665880 13325410 12576120 12476620 11800410 11245000
1146.48 11514750 11665020 11204900 10377830 10291780 10799230
1152.27 11020470 10526330 10045200 10350910 10982010 10788100
1158.05 10596890 10925150 11126010 10817060 10976990 11707790
1163.84 11919940 11048760 10113930 9646440 9634798 9807812
1169.62 9870464 9608160 9553090 9857088 10337920 10642680
1175.41 10871710 10920380 11017330 11277910 11584370 11891610
1181.19 12540540 13005300 13067190 12874370 13091470 13736780
1186.98 14154100 13974710 13899650 14147180 14533390 14695480
1192.76 15048930 15944590 16817470 17342690 17834360 17825550
1198.55 17814600 18483560 20152970 21246830 20746930 20261970
1204.34 20391130 20686850 21712210 22751340 22386730 21416620
1210.12 22155220 24063860 25875350 26762170 25617870 23147060
1215.91 21716510 21335120 21373750 21657950 21924400 22100720
1221.69 22500870 23308980 25449660 26427360 25290090 25292890
1227.48 25315220 22439470 19671860 20464270 24181580 26144870
1233.26 24330630 21718440 21122010 22338270 25529550 29403730
1239.05 30143800 27792940 26050050 25582020 25061820 24502720
1244.83 24357280 24785720 26286270 28537370 29716100 29080360
1250.62 28361000 28529790 29220140 29766630 30500400 31569950
1256.40 32086530 31501750 30872890 30868840 31191420 31620470
1262.19 31646200 31271610 31009420 30959100 31435150 32073620
1267.98 32554710 32299690 31576240 31198620 31168330 31311780
1273.76 31582450 31611540 31384610 31310430 31868200 32419870
1279.55 32595830 32833020 33588650 34654900 35103510 34596150
1285.33 34439000 34529240 35057240 36259780 37084090 37934600
1291.12 40626910 44640450 46348830 45379730 44901530 45200430
1296.90 45575990 46082870 47167850 48552530 50505950 52083590
1302.69 52345160 52697810 53856040 54840520 56594620 59456260
1308.47 59606650 57077540 56625930 57081200 56061930 56790730
1314.26 58503250 59821180 64814380 68433420 67844840 70733560
1320.04 76127200 76202750 72274870 69572040 67506570 66156830
1325.83 64202600 62050210 62322890 65493230 75944450 86175230
1331.61 78646760 63678780 57223860 56098840 56353300 58235980
1337.40 64354410 72952460 73967200 68144220 65225090 67246590
1343.19 79201920 95026420 97717820 90526070 80595880 71958260
1348.97 66417440 62644020 62420100 64930190 67718800 68623250
1354.76 68674060 70629350 72395300 71565650 72223450 72714360
1360.54 69610560 66507120 64495600 63233580 62418580 60581380
1366.33 59262200 59290410 61970440 67032920 69513170 68016490
1372.11 63541720 58765960 57261900 56914020 55606260 54983980
1377.90 57289900 59017280 56070470 52377280 50653170 50152000
1383.68 51311440 52188440 52048960 53174460 54920100 53475080
1389.47 50518920 49508050 49614850 49616240 49239810 48783720
1395.25 48694640 48081730 47968580 48102170 46392320 44300560
1401.04 43275280 42768640 42155780 41253880 40161850 38467690
1406.83 37582360 37801120 38569800 40112710 43337940 47470220
1412.61 48106260 44266410 39642320 38027970 39343530 40052840
1418.40 39326370 38184050 36664540 36432840 37820090 38386300
1424.18 38069920 36980710 35945040 36349590 37240380 37850320
1429.97 37663680 37827800 38020420 36987720 36392050 36455680
1435.75 36548410 34567070 31916030 30631990 29555010 28067580
1441.54 26282530 24422910 22849490 21184350 19713950 18728990
1447.32 17953490 18059610 20419820 28262180 44211720 62263760
1453.11 72258200 66791780 52178890 42999230 39058980 35152200
1458.89 33618040 35185340 36981100 37130980 36628320 34949160
1464.68 31669000 29986390 31235340 34148530 36934860 38508050
1470.47 39659320 40625170 40092160 38039210 36729750 39079610
1476.25 42563180 42853230 42931420 39330220 31546650 27860620
1482.04 28073380 27957550 26812030 27179190 28485190 27934730
1487.82 26760310 26914240 26956560 25074150 23175830 22289660
1493.61 22118560 23185520 25361440 27885510 29116640 27457780
1499.39 25292130 24006960 22019820 20228530 20379790 22612910
1505.18 24646050 24048070 22201060 22230570 24199320 24873280
1510.96 23086380 21256110 20542340 21352970 23001690 23199540
1516.75 21797560 20402180 20448220 21641310 22775520 22662610
1522.53 21132760 19808180 19833330 19940150 19705350 19331610
1528.32 18653140 18299400 18147430 18050770 18405850 18519040
1534.11 18672570 18876840 18475520 18481650 19284310 19267770
1539.89 18357330 17383800 16351280 15529560 15683890 15685630
1545.68 14791900 13985940 13833950 14047920 14070000 13522450
1551.46 12966870 13141160 13555930 13173030 13118300 14383860
1557.25 15318540 14825530 13581220 11748880 10385690 10217590
1563.03 10468860 10386420 9871042 9416492 9497220 9829370
1568.82 9657516 8786672 8100168 8089244 8301980 8592386
1574.60 9347528 9327118 8218816 7442084 7005852 6521126
1580.39 6172034 6020320 5921184 5738082 5595700 5466834
1586.17 5481442 5538794 5410026 5155952 4987198 4928008
1591.96 4857830 4734332 4654768 4626236 4631342 4509160
1597.74 4328372 4141324 3968258 3836408 3804680 3788880
1603.53 3787922 3746160 3596770 3359022 3174170 3060304
1609.32 2958072 2873994 2894496 2924252 2963168 3333828
1615.10 4335118 4548694 3465378 2641504 2434134 2405672
1620.89 2563866 2921524 3019778 2646060 2373560 2368380
1626.67 2477302 2349506 2095176 1990096 1979698 1963712
1632.46 2156960 3007080 3899012 3486950 2583654 2113342
1638.24 1875010 1769130 1728062 1703722 1711676 1845284
1644.03 2525116 3204002 2979942 2443230 2080756 1847722
1649.81 2216478 3886750 5645178 5150804 3331610 2072632
1655.60 1595926 1475410 1449056 1470686 1533944 1720204
1661.38 2060326 2030466 1688522 1526384 1498404 1563430
1667.17 1994990 2469750 2316046 1940866 1712350 1510880
1672.96 1816414 2486154 2417518 1734254 1419146 1419300
1678.74 1541674 1588732 1648986 2149316 3360218 4385012
1684.53 3588832 2010024 1476424 1485574 1536072 1542894
1690.31 1473858 1385936 1387302 1889640 3349254 3937032
1696.10 2696848 1846772 2670906 4012642 3711574 2206678
1701.88 1506272 1612136 1755782 1755056 1644760 1341822
1707.67 1171706 1218394 1274370 1199974 1200288 1428876
1713.45 1818368 2027190 2522210 3292732 3020828 1990172
1719.24 1336794 1160190 1212552 1261186 1243996 1170074
1725.02 1149938 1171034 1218992 1305160 1396912 1332954
1730.81 1524144 2435130 3385444 3152298 2030990 1295414
1736.60 1175376 1381784 1798994 1722842 1329060 1244862
1742.38 1295852 1223166 1190112 1263336 1389012 1494992
1748.17 1540148 1735456 2083750 1819338 1288296 1102028
1753.95 1116658 1296504 1464566 1319718 1148180 1137178
1759.74 1403548 1711720 1539830 1175786 1055156 1032276
1765.52 1161614 1482898 1564638 1307974 1392834 1881220
1771.31 2352874 2096912 1424442 1178170 1122410 1019398
1777.09 1022512 1081540 1195286 1204948 1083924 1029650
1782.88 1165654 1295792 1198360 1051686 1052462 1077320
1788.66 1169532 1354990 1673732 1922106 1655404 1240676
1794.45 1169296 1170610 1139870 1183956 1324568 1340654
1800.24 1293656 1260546 1176038 1074672 1035034 1010526
1806.02 1046172 1104112 1172902 1274166 1313580 1195824
1811.81 1102646 1068914 1072464 1078312 1109016 1131156
1817.59 1134798 1094984 1066174 1058746 1088472 1151762
1823.38 1351210 1476168 1344344 1226252 1325512 1542504
1829.16 1591018 1318372 1132592 1127264 1135364 1129628
1834.95 1184380 1239702 1232410 1168586 1132366 1121356
1840.73 1170546 1397710 1907666 2019016 1552720 1233830
1846.52 1195152 1170872 1136102 1112704 1114360 1100534
1852.30 1100516 1109238 1123568 1099836 1096196 1113410
1858.09 1134840 1128810 1125726 1118796 1116784 1112004
1863.88 1145324 1202114 1298718 1430054 1581758 1551826
1869.66 1348448 1194250 1138148 1111486 1126222 1136734
1875.45 1143224 1131954 1111032 1097962 1129342 1132918
1881.23 1114482 1118590 1153950 1155830 1162480 1156920
1887.02 1201180 1316638 1330960 1182438 1103230 1114820
1892.80 1147436 1173728 1183876 1148322 1137080 1138694
1898.59 1122470 1083684 1079418 1079768 1112306 1143358
1904.37 1147648 1129882 1135946 1132482 1128692 1110386
1910.16 1129358 1164842 1144184 1084276 1087126 1108766
1915.94 1226304 1373552 1287380 1108902 1102746 1164192
1921.73 1197790 1142894 1082704 1052418 1036948 1034622
1927.51 1038368 1001376 992580 994186 1006666 1014052
1933.30 1045686 1068646 1069098 1046718 1030606 997538
1939.09 988242 1031966 1146348 1180524 1119138 1047974
1944.87 1011864 1010990 1051864 1035410 957356 872864
1950.66 889364 959650 970660 925760 942924 1000352
1956.44 1011692 931020 875176 927290 1010648 955434
1962.23 894148 969106 1075032 1040660 989330 991018
1968.01 1058034 1073412 999608 934326 1033022 1145524
1973.80 1074754 1014056 1126368 1201686 1194620 1154424
1979.58 1163058 1276440 1331110 1242508 1291834 1459712
1985.37 1495236 1494268 1555164 1648960 1859512 1862880
1991.15 1836888 2037992 2116700 2119202 2211620 2272758
1996.94 2536240 2645846 2555134 2809654 3013426 3095786
2002.73 3267366 3303124 3659910 3815522 3818058 4129382
2008.51 4215822 4439246 4593864 4736446 5224852 5253564
2014.30 5497920 5791340 6028442 6280764 6331070 6818136
2020.08 7105676 7251638 7403336 7624400 8000478 8090926
2025.87 8326664 8348570 8425278 8408196 8609910 8846098
2031.65 8873908 8859730 8917892 9001900 8890214 8767124
2037.44 8605722 8384628 8134674 8057712 7974976 7684596
2043.22 7380624 7383182 7525244 7666598 8100030 9102406
2049.01 10520350 12565300 15796020 19641820 20817920 16002580
2054.79 8965126 5533016 5101630 5343310 5670134 6084634
2060.58 6755660 7678798 8811808 10065180 11225750 12311170
2066.37 13582670 15074360 16497450 17596540 18426090 19106450
2072.15 19678070 20088610 20286270 20304730 20217120 19882290
2077.94 19197010 18292530 17261500 16049230 14652560 13186560
2083.72 11636220 9991004 8466374 7016308 5539538 4481778
2089.51 4057678 3881164 3984480 4366928 4323288 3773528
2095.29 3469930 3492200 3693980 3611772 2883698 2270760
2101.08 2303380 2554650 2650438 2725356 2968174 3304248
2106.86 3513302 3527652 3610864 3855050 4047878 4107780
2112.65 4250776 4540514 4724570 4579954 4410768 4472282
2118.43 4643320 4639602 4447824 4357818 4405044 4241914
2124.22 3983224 3861316 3700198 3383574 3147220 3116864
2130.01 3120500 2956898 2686564 2541668 2541098 2380760
2135.79 2076268 1919924 1923892 1917094 1946100 2210558
2141.58 2526298 2510494 2208924 1922328 1907116 2056050
2147.36 2318362 2774680 3122696 3089942 2777338 2483158
2153.15 2582788 2869664 2963592 2948780 2971078 2958674
2158.93 2952488 2943136 2836532 2739146 2908440 3226696
2164.72 3262622 3005082 2916022 3056078 3033328 2843082
2170.50 2878304 3088608 3146858 3137102 3281808 3305256
2176.29 3130860 3102894 3238758 3156638 2882808 2794152
2182.07 2860184 2801076 2766050 2941342 3038116 2836620
2187.86 2702216 2756322 2709254 2584318 2570984 2525326
2193.64 2426994 2444942 2508106 2447196 2400550 2427950
2199.43 2401790 2378170 2438288 2401146 2253274 2209020
2205.22 2299692 2347722 2372648 2419668 2464942 2470382
2211.00 2373980 2245780 2232570 2281250 2320104 2359096
2216.79 2393710 2366302 2358074 2414418 2418844 2318624
2222.57 2226376 2170302 2151072 2145886 2139506 2144358
2228.36 2161970 2170876 2183286 2164924 2121722 2102846
2234.14 2155396 2189402 2171736 2146214 2108854 2022764
2239.93 1943150 1934868 1991336 2011786 1979358 1950440
2245.71 1963580 1984072 2008690 2018650 2024054 2071412
2251.50 2131688 2154896 2189878 2167090 2055870 1967558
2257.28 1976376 2017102 2045940 2069776 2101744 2083460
2263.07 2018136 1986352 2019626 2078150 2124564 2118222
2268.86 2105860 2094104 2097672 2114800 2118642 2106188
2274.64 2117578 2157346 2207508 2217878 2199900 2209756
2280.43 2219492 2188482 2181258 2214500 2258304 2312560
2286.21 2375920 2411046 2427674 2411128 2387390 2390772
2292.00 2422716 2476672 2520126 2519122 2510342 2523872
2297.78 2554456 2584790 2596760 2562014 2536860 2528170
2303.57 2522370 2491366 2469224 2501538 2549748 2576086
2309.35 2622218 2696448 2795918 2861208 2865032 2817762
2315.14 2764414 2746302 2742536 2711770 2683332 2692492
2320.92 2764064 2869070 2951158 3006848 3076438 3109888
2326.71 3097038 3165500 3276436 3216372 3045680 2991202
2332.50 3064372 3093664 3051708 3029774 3111078 3245126
2338.28 3294188 3264230 3249994 3298870 3427724 3558626
2344.07 3646606 3718994 3765318 3620552 3426130 3367606
2349.85 3422484 3481382 3447436 3432764 3524038 3549474
2355.64 3546934 3632038 3683740 3597922 3548610 3662534
2361.42 3806536 3828018 3819178 3815210 3712484 3585570
2367.21 3577394 3647786 3745886 3925836 4171448 4320954
2372.99 4214420 3905660 3706528 3759316 3892136 3898786
2378.78 3776588 3660290 3689882 3744226 3642926 3473856
2384.56 3435088 3518198 3625704 3649134 3611268 3628992
2390.35 3717830 3815370 3981100 4113544 3987894 3702208
2396.14 3561758 3659616 3897382 4096080 4081288 3858462
2401.92 3732406 3887910 4174582 4350868 4384316 4310882
2407.71 4156508 4025184 3954098 3891504 3891070 3985292
2413.49 4067778 4095168 4053094 3889322 3740050 3629586
2419.28 3470972 3389916 3442578 3489158 3534342 3653142
2425.06 3764300 3717970 3568916 3461160 3401610 3292300
2430.85 3179616 3175390 3221358 3194072 3121220 3069902
2436.63 3028328 3017352 3057136 3070502 3066242 3100466
2442.42 3072038 2981316 2918988 2808310 2709250 2731068
2448.20 2874884 3017536 2961102 2788952 2738594 2760194
2453.99 2748982 2705454 2668516 2668646 2702464 2728914
2459.77 2735554 2695162 2609106 2543910 2563488 2614500
2465.56 2595326 2578798 2596846 2592500 2650082 2773488
2471.35 2761286 2589468 2474596 2426942 2394686 2382568
2477.13 2409930 2414170 2383406 2422910 2506306 2534886
2482.92 2556564 2591756 2566454 2488096 2433330 2441426
2488.70 2509256 2550742 2541186 2503844 2470868 2489644
2494.49 2540370 2514906 2424820 2411192 2496426 2554354
2500.27 2495334 2422108 2419466 2394836 2333034 2331396
2506.06 2401294 2461674 2493898 2504846 2491526 2463276
2511.84 2492232 2521792 2519422 2534902 2569992 2606142
2517.63 2643076 2665820 2692118 2727012 2765340 2810930
2523.41 2863294 2951396 3014802 3018498 2993840 2929152
2529.20 2867764 2859094 2901924 2937258 2949884 2954000
2534.99 2937568 2940686 2968192 3035010 3134176 3157462
2540.77 3110866 3069364 3024908 2974050 2961858 2991400
2546.56 3035884 3025958 2978594 2960240 3007654 3153446
2552.34 3281590 3300564 3274280 3210652 3088206 2981778
2558.13 2973734 3102906 3266372 3286766 3207600 3179568
2563.91 3220478 3272628 3278672 3256160 3294636 3403744
2569.70 3507676 3545214 3580766 3682098 3773260 3753998
2575.48 3674278 3683312 3767810 3798944 3805750 3906226
2581.27 4088320 4169728 4098456 4109122 4302578 4419576
2587.05 4380012 4372140 4461504 4596852 4735778 4903172
2592.84 5091280 5154158 5047148 4961506 5003770 5122370
2598.63 5183548 5118548 4982412 4894966 4845382 4766388
2604.41 4789268 4908370 4967678 4933458 4879130 4942464
2610.20 5148510 5404774 5467532 5283364 5171172 5178868
2615.98 5173460 5307606 5585074 5647456 5545032 5559154
2621.77 5603268 5598676 5638644 5802416 5959122 5936340
2627.55 5781958 5695726 5861902 6088096 6024732 5838224
2633.34 5835694 5917490 5813398 5673180 5585652 5411818
2639.12 5309680 5364510 5266070 4958040 4828934 4937350
2644.91 4945844 4832014 4937444 5344956 5576878 5388122
2650.69 5127014 4983600 4888778 4883982 4919156 4933942
2656.48 5002816 5159752 5312284 5388866 5240290 4876042
2662.27 4675482 4793232 5056450 5235274 5157378 5048882
2668.05 5091908 5237484 5437010 5475950 5294802 5088652
2673.84 4989550 5025912 5094312 5172038 5284754 5354356
2679.62 5256052 5129562 5058172 4980110 4932612 4969888
2685.41 4970284 4889050 4776646 4664232 4620386 4685032
2691.19 4806428 4877366 4894402 4997082 5044346 5034698
2696.98 5079932 5131890 5170454 5210552 5254022 5240682
2702.76 5222310 5277066 5273398 5218366 5185072 5236400
2708.55 5401218 5579346 5575970 5417366 5323704 5350618
2714.33 5332652 5208990 5099766 5144154 5335010 5603028
2720.12 5853702 5929986 5831958 5779742 5853708 6124436
2725.91 6464406 6559058 6381640 6281802 6292546 6381060
2731.69 6571454 6782640 7017764 7328352 7861820 8425336
2737.48 8504710 8337010 8325880 8424880 8493992 8594888
2743.26 8781314 9037944 9253058 9388368 9561318 9916508
2749.05 10315340 10607510 10697560 10603210 10427320 10542910
2754.83 10903900 11193150 11238070 11353470 11663390 11900620
2760.62 11936360 12096440 12677160 13282310 13491490 13722670
2766.40 14047990 14389430 14808950 15390050 16017420 16408160
2772.19 16624300 17019880 17759090 18435730 18545930 18683060
2777.97 19219210 20125910 21207800 22148190 22729840 23299880
2783.76 24290040 25082940 25302420 25986370 27267000 28492620
2789.54 29637380 31405410 33315670 34496280 35006990 36082790
2795.33 38005730 40028400 42362510 45283360 47568640 49507540
2801.12 52322340 55576500 58610620 61639070 64989920 68682620
2806.90 72532750 76593710 80538480 84610940 88936200 93257280
2812.69 97856520 102735400 107280400 111319200 115170200 118869400
2818.47 123783100 128762800 131507500 132767700 133457400 134443600
2824.26 136186800 137100400 136290600 134865500 133779100 132450100
2830.04 130626900 128138000 123837400 120168000 118033600 113324500
2835.83 110382400 115026800 122520700 124746900 130437800 154673000
2841.61 191293100 223101900 225061400 195747900 163058200 139958600
2847.40 126333200 116036700 109865200 110943300 115389700 121999500
2853.18 131655500 141519800 151468800 161917100 170964100 178741100
2858.97 186180300 192370400 197765400 203648600 208199900 210056100
2864.76 210252100 207956000 204882300 202678300 199179400 196148700
2870.54 195479700 192871000 187753200 186615400 185150600 177266400
2876.33 170798300 166188100 162256500 163647000 164626100 157366300
2882.11 148696900 143259900 140444400 144700900 151502200 148909500
2887.90 140263600 136101700 138519500 152072000 167579300 165133100
2893.68 154706200 150860300 152023300 156906900 163879800 169283100
2899.47 173168800 183784200 193347300 189598600 185332000 188118500
2905.25 194648900 204978500 217615400 224645200 223508000 222284200
2911.04 223975100 229491700 237880700 242760100 245977900 251217600
2916.82 262681900 283268000 301377100 305822000 306350000 313086700
2922.61 316196900 304770500 287067600 272521100 264716600 268886700
2928.40 271225400 265273500 265486200 274325400 286200400 298094900
2934.18 307713900 315931400 319640100 317176500 316757800 317258900
2939.97 313488100 314739400 315222000 308407500 302713400 303091800
2945.75 307816400 310844900 315826900 319097200 315361900 313888000
2951.54 309978800 304133400 300608100 294106200 293571300 310763400
2957.32 318261800 300971500 284766200 284368900 297452400 313476500
2963.11 321999300 329328500 338299900 347767600 348069200 328603600
2968.89 314006000 324579800 344246300 355346700 352968200 337478800
2974.68 316748500 304991300 303773100 306947000 321397900 345456400
2980.46 368950700 354770600 309882600 284726500 280406300 278359300
2986.25 271637800 263482700 251715000 239811500 242121600 248111000
2992.04 237924600 216674600 208459700 213398000 207822100 187238600
2997.82 173743200 177905400 190132900 192760800 183426600 179195500
3003.61 191946600 207265400 197740300 180382400 180711300 191643700
3009.39 197793500 186938700 170344700 161732500 159849200 163523100
3015.18 166546400 156398800 139013500 128015600 124899000 125763700
3020.96 132648500 140152800 132410300 117258300 113490600 113584600
3026.75 112234600 115099300 114750100 112153300 114680200 112684100
3032.53 104462500 97295780 95942880 96421570 91373900 84138360
3038.32 79767830 79114160 82626910 85572550 82458440 75829010
3044.10 69970090 67543220 65933410 62278240 59430500 55772800
3049.89 51308550 50593720 53142790 53531890 51048840 48453200
3055.67 46096040 43993180 43054700 42663150 41788720 39814120
3061.46 38385390 38053570 37665380 36967070 36013050 34323540
3067.25 32054670 30093810 28577950 27356660 26477490 25575570
3073.03 24423350 23686010 23124590 22012360 20865970 20218080
3078.82 19799240 19118520 18057630 16939730 16064300 15318960
3084.60 14630970 14026700 13527870 13096350 12509560 11886980
3090.39 11430890 10930290 10354830 9818872 9367584 9084962
3096.17 8902838 8581530 8150794 7768838 7431598 7158044
3101.96 6940000 6704592 6513176 6284546 5971262 5686100
3107.74 5492010 5312888 5113456 4874390 4646392 4442560
3113.53 4219612 4067424 4077196 4125524 4108322 3942200
3119.31 3742484 3626526 3562088 3454504 3285872 3142218
3125.10 3143692 3207046 3188410 3100930 3055266 3081850
3130.89 3154924 3093000 2907978 2748044 2696456 2724710
3136.67 2694460 2510582 2420212 2451788 2466828 2547328
3142.46 2619448 2522720 2396784 2296010 2247824 2273248
3148.24 2313492 2266122 2184698 2133402 2166166 2249734
3154.03 2297698 2302198 2282982 2240410 2209114 2258700
3159.81 2384700 2522946 2664134 2528594 2325254 2409970
3165.60 2483942 2294258 2100378 2092102 2242916 2335196
3171.38 2232860 2099590 2056200 2032120 2001958 2038524
3177.17 2161538 2219458 2227158 2202450 2143368 2062362
3182.95 2037290 2077010 2123094 2134604 2118678 2060726
3188.74 2022730 2153392 2323420 2233094 2035902 1947610
3194.53 1952520 1963974 1915978 1858044 1924796 2051006
3200.31 2122974 2144830 2101724 1985918 1888388 1813472
3206.10 1765650 1831412 1959252 1971344 1976838 2007006
3211.88 1939872 1844652 1840482 1845262 1785266 1722980
3217.67 1719548 1763998 1850290 1877048 1852478 1853108
3223.45 1843404 1787058 1787868 1799240 1763468 1708158
3229.24 1652776 1642714 1683538 1680708 1670746 1678312
3235.02 1703400 1673204 1652526 1671670 1632884 1552264
3240.81 1531648 1555130 1574682 1643502 1731962 1703114
3246.59 1673050 1678228 1606390 1495934 1445516 1464604
3252.38 1529040 1551384 1535696 1529172 1506984 1465834
3258.17 1461726 1531048 1619412 1640330 1582276 1491884
3263.95 1479640 1560104 1593808 1513774 1478340 1476740
3269.74 1407684 1374462 1363268 1321342 1349144 1436550
3275.52 1443506 1336452 1334988 1414540 1467000 1456194
3281.31 1416080 1435880 1448744 1379582 1373914 1414146
3287.09 1419760 1397596 1322732 1281700 1337104 1392170
3292.88 1349858 1229112 1211710 1304438 1378652 1378108
3298.66 1343716 1330720 1351960 1371132 1325280 1224124
3304.45 1167560 1204588 1303866 1315608 1277486 1303278
3310.23 1341878 1330844 1330242 1316066 1291286 1335328
3316.02 1378516 1326428 1291838 1313112 1332692 1332826
3321.80 1272566 1219130 1233478 1330768 1413446 1431830
3327.59 1469894 1471720 1436068 1367208 1355678 1396700
3333.38 1362990 1327310 1371008 1408090 1413248 1458050
3339.16 1508296 1460206 1455852 1552386 1564912 1524570
3344.95 1528346 1534642 1598700 1600694 1485412 1478752
3350.73 1587990 1612444 1603906 1648508 1591552 1454718
3356.52 1428132 1462862 1498326 1568504 1625872 1640030
3362.30 1741780 1898268 1961510 1838712 1627378 1496730
3368.09 1519602 1627824 1685844 1640898 1640920 1724766
3373.87 1777210 1767402 1884652 2172070 2198556 1964396
3379.66 1838388 1801620 1817798 2008248 2199336 2125212
3385.44 2001120 1959218 1937878 1992444 2048594 2070534
3391.23 2119164 2108548 2102910 2120670 2110000 2129722
3397.02 2138142 1967196 1790044 1840958 2101454 2336736
3402.80 2401328 2229668 2019480 1965950 1944534 2019052
3408.59 2340462 2513114 2345560 2227738 2250998 2279036
3414.37 2283204 2331956 2476540 2679054 2783852 2666506
3420.16 2478782 2355366 2292522 2281878 2303166 2338432
3425.94 2466368 2645574 2745150 2852728 3187490 3636510
3431.73 3602102 3092462 2818952 2859990 2946320 2920368
3437.51 2790732 2780380 3045584 3502230 3824098 3618026
3443.30 3027228 2646688 2540892 2788914 3404568 3649992
3449.08 3383650 3315026 3457062 3247310 2849406 2689916
3454.87 2660850 2798564 3262662 3750230 3645032 3157342
3460.66 3054462 3068326 3022964 3249412 3425084 3209552
3466.44 2932314 2830934 2890860 3141854 3460006 3403894
3472.23 3052390 2934176 3088790 3241556 3510150 3852666
3478.01 3931118 4252300 4990712 5094434 4562962 4338278
3483.80 4414054 4495988 4747448 5286128 5399456 4672916
3489.58 3956004 3766216 4117388 4620300 4421206 3880226
3495.37 3756002 3998562 4217346 4090486 3651682 3275424
3501.15 3253852 3458054 3982314 4839480 5099626 4246814
3506.94 3489982 3401382 3468194 3884538 4757148 5021862
3512.72 4208476 3358614 3179514 3309784 3529078 3771574
3518.51 3842446 3724660 3590482 3866706 4628928 4846236
3524.30 4469560 4690906 4789128 4020778 3413290 3376098
3530.08 3662482 4008968 4565882 5266452 5827910 5564142
3535.87 4504878 4454262 6128370 7254754 6463444 4852250
3541.65 3731782 3588400 4103896 4769574 4779666 4394518
3547.44 4047654 3796972 3832820 4035404 4165024 4377072
3553.22 4860874 5234178 5038818 4666136 4491146 4428226
3559.01 4546718 4808858 4919714 4732188 4614910 4930326
3564.79 6171720 8646144 9880972 8025954 5905760 5325994
3570.58 5164654 5275380 6242838 8061856 9031496 8290124
3576.36 7720556 7408360 7142240 7595316 7895200 7316092
3582.15 6575072 6576152 7095722 7922698 8283016 8102730
3587.94 7863598 7514098 7312892 7413636 8022914 9022362
3593.72 9772510 9874548 9450926 9353260 9771430 9880684
3599.51 9546968 9395498 9301128 9206834 9500640 10185740
3605.29 10909290 11381790 11789270 12151610 12156250 12391930
3611.08 13967710 16091070 16744300 16178890 16529400 18393030
3616.86 18622040 17043390 17732550 19859310 19995170 18518190
3622.65 17858510 18807780 21652430 26499440 30453340 30612730
3628.43 28350340 27417780 28508900 29302640 29654730 29568930
3634.22 29550180 31600440 35381260 38218980 38743260 38953640
3640.00 42421230 47958500 51427950 55575940 60168630 58539050
3645.79 54468970 55072940 59240880 64287710 69710820 74438380
3651.57 76437700 75648130 75303360 77279580 81855660 87882980
3657.36 90186970 87418080 84901920 87112610 94879660 100796800
3663.15 97505340 93824740 97009510 98590200 94349610 88629750
3668.93 83833060 83991150 88348700 88950120 84067410 80808700
3674.72 81516980 84017670 83057540 85393350 104642200 133792000
3680.50 136590600 104587600 80203860 77229760 72740460 62096410
3686.29 58837890 58603580 58007690 62682280 70272530 80529850
3692.07 91157300 97114220 101139400 103492700 103279000 101203200
3697.86 97218620 95029230 96129810 98184280 97637460 96386820
3703.64 99949050 105623100 105570000 100627800 99430230 99520620
3709.43 95481050 93003820 95781880 98702240 95066760 87009950
3715.21 82369340 80686220 79486610 80572420 81030090 77161280
3721.00 70656290 64729960 59617290 55688020 53688180 50598670
3726.79 46868880 46273470 46988050 45928380 44659060 42679540
3732.57 38561650 33954780 30554510 29087730 29159800 29703250
3738.36 28294870 25450870 22945730 20832100 20555120 21768820
3744.14 21554850 19965720 18399450 18590760 21254360 20775530
3749.93 17463950 16851340 17665590 17107460 14711370 12921960
3755.71 13742260 16933150 18868500 15885590 12479200 11783710
3761.50 11835670 13176650 15525060 15745670 13558970 11140750
3767.28 10037690 9901344 9524086 8835604 8499674 8222572
3773.07 7773418 7477200 7468746 7853754 8285974 8164834
3778.85 7588708 7187730 7347410 7680440 7369244 6536914
3784.64 5963976 5738968 5714676 5798780 5999868 6592174
3790.43 7190468 7069762 6449042 5968448 6807692 8506020
3796.21 8172244 6342394 5655520 6327478 7390950 7204284
3802.00 6069728 5420000 5502308 6253652 6946816 6825542
3807.78 6684526 7425116 8570858 8545176 7241168 6315542
3813.57 6923734 8091816 7435260 5662468 4859768 4970248
3819.35 5595012 6114502 6433436 7748550 8696010 7500718
3825.14 6307714 5981068 5550794 5230208 5278732 5501470
3830.92 5589104 5495912 5814788 6268498 6254946 6690940
3836.71 7550368 7304552 6776276 7249760 8520024 9132294
3842.49 7837000 6052114 5270648 5361614 5945494 6356200
3848.28 6101068 5888232 6820244 8531848 10581970 11594890
3854.07 9353946 6738968 6215764 6359206 6380826 6168254
3859.85 5993870 6328720 6719496 6845558 7306452 8108888
3865.64 8353082 8077996 8359522 8947772 8722038 7991884
3871.42 7514880 6928644 6197714 5693174 5488844 5283226
3877.21 5026284 5202098 5613370 5569264 5468794 5740854
3882.99 6067500 6630652 7074086 6776244 6590330 7344464
3888.78 8420684 8523756 7957200 7933370 8538144 8598404
3894.56 7749930 7023632 7100478 7762838 8342844 8391248
3900.35 7976292 7259590 6829300 6614060 6018516 5460768
3906.13 5201666 5192360 5379568 5428622 5146726 4768296
3911.92 4605468 4743096 5006144 5154004 5141310 5067370
3917.70 5216832 5805900 6215314 5935112 5669056 5757390
3923.49 5574382 5186140 4997346 5020600 5137686 5214334
3929.28 5145842 5158380 5526528 5831884 5610086 5183366
3935.06 5018516 5105028 5307270 5635982 5815518 5775260
3940.85 5994902 6353986 6285306 6083158 6250922 6427026
3946.63 6130556 5644680 5401388 5436794 5666918 5740920
3952.42 5457188 5278154 5370272 5454492 5473700 5470322
3958.20 5393068 5362396 5524032 5800994 6005864 5977610
3963.99 5893282 5999476 6015914 5832612 5750616 5952928
3969.77 6103960 5874732 5585842 5496350 5563044
##END=
