##TITLE=Methanol
##JCAMP-DX=4.24
##DATA TYPE=INFRARED SPECTRUM
##CLASS=IUPAC A
##ORIGIN=NIST, Anayltical Chemistry Division, 301-975-3108
##OWNER=COPYRIGHT (C) 1998 by the U.S. Secretary of Commerce
##DATE=98/10/1
##$SPECTRA VERSION=1.00
##$UNCERTAINTY IN Y=2.0 % relative (B=1.0E-04,C=6.6E-10,D=2.7E-14)
##CAS NAME=Methanol
##CAS REGISTRY NO=67-56-1
##MOLFORM=C H3 O H
##MP=-93.9 C
##BP=64.96 C
##$NIST SOURCE=QUANT-IR
##SPECTROMETER/DATA SYSTEM=IFS66V (Bruker)
##INSTRUMENT PARAMETERS=KBr Beam splitter; MCT Detector; Multipass cell
##STATE=gas
##SAMPLE DESCRIPTION=Methanol Primary Gas Standard
##PRESSURE=101.3 kPa
##TEMPERATURE=23 C
##SAMPLING PROCEDURE=1 L/min Flow
##RESOLUTION=1.9290
##DATA PROCESSING=Happ Genzel Apodization
##XUNITS=cm-1
##YUNITS=(micromol/mol)-1m-1 (base 10)
##XFACTOR=1.0
##YFACTOR=4.5474E-13
##DELTAX=0.9645
##FIRSTX=574.687
##LASTX=3974.595
##FIRSTY=4.45E-06
##MAXX=3973.63
##MINX=574.69
##MAXY=.000763
##MINY=3.74E-07
##NPOINTS=3527
##XYDATA=(X++(Y..Y))
574.69 9791974 6116160 5135886 5252076 4886546 5353438
579.51 6529186 8869308 9572302 7057678 4957738 4279804
585.29 3771832 4293766 4708106 5234390 5109220 5068806
591.08 5062866 5527178 5466228 4650528 4307000 4937908
596.86 6065506 8487490 8129088 5023402 4236756 5206558
602.65 4953538 4000184 3516320 3651848 3535768 3838178
608.44 4160400 5428236 5881008 4432816 3449234 3648270
614.22 4083946 5520664 6909398 5738494 3496152 2974512
620.01 2759918 3712838 4755948 5137530 3780668 2991686
625.79 2620610 2789526 2956148 3299332 3341054 3268090
631.58 3029144 3279238 3122870 3221122 3011076 2975168
637.36 3211666 3571600 3172420 3268312 3377164 4336346
643.15 4609004 3872608 3851872 5037588 5129590 4727424
648.93 4328112 3870912 3553330 4233392 4918192 6225692
654.72 7410700 6733580 4815042 4542122 3764278 3298162
660.50 3114036 3159464 3037940 2905908 2312086 2623468
666.29 2804966 3149536 3062798 3065458 2925672 3120292
672.08 3040364 3236676 3116294 3354014 3217986 3257366
677.86 2983446 3178474 3061252 3244316 2960730 2853450
683.65 2702572 3049844 2874408 2925202 2987536 3986132
689.43 5393484 6979134 6213590 5575242 6917128 5605942
695.22 3545236 3663848 2933798 2724456 2620608 2860318
701.00 2626766 2741102 2612412 2762384 2682324 2924784
706.79 2537456 2875730 3101548 3498168 3280182 3324458
712.57 3117968 3177020 3071046 3221394 2876502 2954930
718.36 2909342 3261344 3141492 3083826 2894428 3130640
724.14 2816938 2782786 2586170 2758658 2431318 2551654
729.93 2458680 2977104 3410996 4186364 5226590 8226350
735.71 8750896 5198286 2268308 2063656 1805602 2044494
741.50 1937908 2079456 1897428 2299604 2614908 2924102
747.29 2685818 2981644 2800668 2810656 2607864 2952110
753.07 2652342 2679580 2418302 2661746 2537280 2718840
758.86 2413624 2517746 2351682 2567314 2324508 2630922
764.64 2373650 2381096 2032644 2287604 2170198 2298534
770.43 1835884 2044886 2029460 2187222 2016682 2710414
776.21 3740294 5087822 5696562 6052930 3920492 2222094
782.00 1411472 1507088 1198598 1487888 1254674 1503500
787.78 1418800 1899974 1718138 1925304 1766448 2101496
793.57 1965130 2237496 1773042 1983920 1806268 2063754
799.35 1784530 2106190 1892680 2064616 1766732 2404818
805.14 2223000 2103270 1730862 2044848 1658374 1781660
810.93 1532328 2048666 1854890 2044580 1698790 2082176
816.71 1971554 2901006 3624798 4359684 3252598 2468146
822.50 2174292 2826108 2092552 2057398 2143160 2576320
828.28 1965998 2062320 1644200 1849270 1590850 2035198
834.07 1651704 2132178 2022748 2390934 2156758 2385358
839.85 1982796 2363544 2011246 2390864 2209252 2687814
845.64 2232222 2380850 1964898 2257736 1894990 2272714
851.42 2066286 2476940 2090768 2440578 2086356 2532192
857.21 2641862 3805618 3553806 2889880 1879668 2240250
862.99 1968480 2512252 2332186 2843834 2404316 2954878
868.78 2413678 2841954 2903340 3850452 3345658 3246246
874.57 2632984 2967430 2420832 2932074 2534614 2872784
880.35 2423296 2773270 2312506 2973022 2682528 2993154
886.14 2474588 2973658 2521654 2907306 2466784 3110802
891.92 2705744 3268032 2803238 3408104 3085378 3811376
897.71 4020142 5013198 3595830 3446766 2851496 3432454
903.49 2908276 3663288 3392738 4123602 3634632 4295014
909.28 3561448 4242288 3970376 4636104 3907210 4671646
915.06 4433928 5012412 4278100 5042690 4562034 5429258
920.85 4833932 5602698 5264546 6327324 5713036 6615750
926.63 6059608 6834160 6129832 7016966 6615432 7852316
932.42 7126464 7602824 6690636 7656308 7161140 8555546
938.21 8215560 9438200 8807160 9093228 8116156 9545314
943.99 8337878 9391152 9023328 10220510 9184836 10455020
949.78 10986590 12354180 11762910 13969060 13343550 15471550
955.56 13966820 16321560 16579100 19436530 20146320 21794960
961.35 22355840 24198760 24779990 28146130 28270030 34618240
967.13 35847720 42347900 39899320 46343670 47862960 53520190
972.92 58395750 61771510 69773850 71873410 82629080 86082670
978.70 98095790 103486300 110920500 121407700 126432800 142141500
984.49 143701200 166242500 165300100 192178100 190086400 220406000
990.27 218438600 249782300 248976600 280803200 282171900 311228700
996.06 316068400 344042800 351976600 377622300 388890100 411119600
1001.85 425036900 445226600 456349600 470657000 482926100 494234000
1007.63 503048700 508832000 515981200 519577400 521920800 517909400
1013.42 518234800 514137500 511688300 501981300 485407900 456756600
1019.20 437433400 411844900 380799900 342955700 320920700 294772600
1024.99 268519700 258778800 249431100 250433200 307232300 459365900
1030.77 830871900 1512950000 1677966000 831341700 266847300 193404100
1036.56 186224100 190626200 208938600 243240500 288270800 327938800
1042.34 376131600 422447800 471906000 521609800 568427200 607364800
1048.13 646744500 679154600 708381700 727691200 741995300 749030700
1053.91 753389900 749843500 740566300 723271200 704315900 679579700
1059.70 651702500 618370000 585692500 549326600 512026000 470531000
1065.48 432745700 394854700 359396300 321477800 287632500 255423200
1071.27 227271900 200052200 174648000 145585300 122635300 103271300
1077.06 88361060 74760250 65069640 54664360 47222010 39534200
1082.84 35306790 30850330 28433330 24728580 23304490 21799570
1088.63 22097170 21034800 22179230 23463980 25983580 23695080
1094.41 21470300 20672070 22394510 20428930 19864960 19052180
1100.20 19361670 18449190 18928300 18510110 20118050 20508460
1105.98 20062960 18816750 19238510 17835550 19073410 18754410
1111.77 18914970 20652180 22160250 18849350 17188330 15893180
1117.55 16088760 15410490 16225620 15669060 16039380 15681410
1123.34 15894860 14461540 14605400 13653610 14070770 14042270
1129.12 13824120 12776000 13105930 12239320 13213270 15017350
1134.91 16282420 14024410 12995230 11400770 11809930 13752220
1140.70 15569610 12767240 12643610 12493320 11966080 10806160
1146.48 11783370 11581930 11525760 9987688 10337480 10702230
1152.27 11358410 10368180 10021190 10062590 11433780 10579240
1158.05 10614380 10796870 11453800 10531260 10968350 11672870
1163.84 12346630 10868360 10158620 9420710 9741448 9678110
1169.62 10119560 9396786 9628242 9665806 10548850 10483820
1175.41 11073210 10761280 11120900 11119000 11777560 11607730
1181.19 12764270 12923260 13295230 12625760 13126290 13644010
1186.98 14464460 13775030 13974560 13971730 14743470 14540910
1192.76 15022430 15830600 17077160 17112160 18160080 17656510
1198.55 17848870 18085080 20357330 21613470 20735810 20003940
1204.34 20566370 20356770 21791860 22963220 22743160 20783190
1210.12 22096790 23987450 26116320 27058780 26117790 22640460
1215.91 21701510 21128470 21476750 21493630 22163460 21802970
1221.69 22760910 22652570 25866490 26970080 24928920 25017920
1227.48 26371490 22179240 19097960 19562680 24778170 26906760
1233.26 24567830 21071830 20988380 21869620 25282010 30105730
1239.05 30938870 27427080 25808300 25637060 25115260 24355310
1244.83 24342250 24513680 26132690 28692990 30260220 28934360
1250.62 28252480 28330000 29388170 29648460 30454950 31610630
1256.40 32431870 31425390 30754390 30804200 31180830 31664790
1262.19 31820610 31118130 31116090 30701790 31541890 31968990
1267.98 32812710 32344280 31523460 31078620 31219740 31185490
1273.76 31731590 31576780 31473230 31032460 31985200 32434570
1279.55 32669200 32625770 33603880 34653050 35516970 34292880
1285.33 34537460 34404870 34882070 36376610 37188420 37483660
1291.12 40257780 45134300 47137750 44934880 44923220 45063470
1296.90 45733460 45769320 47315910 48270080 50626870 52405090
1302.69 52330070 52397280 54051480 54701720 56132290 60092260
1308.47 60450140 56257270 56447210 57705140 55531000 56367620
1314.26 59291320 58333680 65234640 69904060 66579480 70045510
1320.04 77474930 77255540 71408220 69914760 67011890 66486100
1325.83 64343850 61376100 62140250 63971480 74723580 91365980
1331.61 79851410 61115340 56589950 55916880 56182620 57450860
1337.40 63271780 74884520 75760450 66804630 64898420 65182760
1343.19 77303390 99187730 98854880 91177550 80261870 71108640
1348.97 66561210 61600280 62122610 64678940 68344510 68756310
1354.76 68230620 70390210 73539850 70740580 72197760 73851840
1360.54 69295620 66312460 64466920 62902720 62960900 60260070
1366.33 59137590 58833600 61167720 67816930 70239130 68514550
1372.11 63862830 57675920 57268630 57113880 55652820 54119530
1377.90 57308010 60349640 56058500 51771270 50739310 49516600
1383.68 51566610 52421240 51814460 52706330 55938140 53725650
1389.47 49968880 49315960 49722620 49611080 49396240 48484520
1395.25 49033400 47875900 47784120 48681380 46417320 43981630
1401.04 43272860 42699510 42359920 41075810 40541800 38129150
1406.83 37423240 37721250 38447630 39842390 42868080 48343800
1412.61 49046360 44404500 38986150 37287800 39658660 40366240
1418.40 39290470 38370040 36430840 35879820 38253720 38410820
1424.18 38269620 37055520 35480810 36388170 37211860 38104480
1429.97 37594160 37575750 38685240 36492470 36595240 36040600
1435.75 37344750 34563170 31569800 30613610 29703530 28044540
1441.54 26400590 24229160 22995640 21081630 19640670 18690770
1447.32 17879190 17616060 19684020 26228000 43884810 63622380
1453.11 75518140 69036340 50218630 41986160 39574210 34473990
1458.89 33001140 35121750 37498330 37097920 36791870 35515270
1464.68 31199370 29403860 30938890 34156740 37287220 38512100
1470.47 39641820 40905250 40518450 37861420 36038010 38401050
1476.25 44042400 42085480 43822660 40717620 30083450 27249950
1482.04 28158700 28405070 26326110 26868890 29105910 27994110
1487.82 26434160 26800500 27635420 24885390 23002880 22194580
1493.61 21885410 22934400 25335430 27981860 29928780 27459260
1499.39 24923400 24364140 21941370 19866880 19893330 22619430
1505.18 25297200 24346070 21728260 21741950 24498450 25542590
1510.96 22929760 21080050 20269670 21038000 23457360 23459880
1516.75 21869500 19995110 20287640 21593530 23076510 22943010
1522.53 21154930 19351930 19962920 19979870 19705910 19442210
1528.32 18560930 18216040 18266410 17787130 18616800 18424420
1534.11 18651680 19049850 18436070 18135680 19621390 19377660
1539.89 18387090 17329290 16456260 15153060 15804700 15889590
1545.68 14773810 13801930 13807080 14032660 14265850 13483140
1551.46 12842710 12985700 13885050 13063310 12781710 14430120
1557.25 15744760 14798140 13833650 11593800 10134650 10134110
1563.03 10573540 10461340 9890424 9256386 9468738 9895510
1568.82 9883912 8682424 7985290 8007286 8405380 8341910
1574.60 9566332 9618302 8049662 7385164 7056212 6464896
1580.39 6156686 5976164 5992342 5673056 5649378 5392196
1586.17 5496534 5560806 5463294 5105702 4988830 4904304
1591.96 4908174 4682154 4689818 4565544 4712496 4473656
1597.74 4367954 4100576 4003100 3770592 3846782 3746574
1603.53 3828200 3735040 3652848 3308450 3193876 3023258
1609.32 3002852 2797660 2947608 2877846 2985278 3070040
1615.10 4539438 4898772 3318994 2514168 2438192 2357638
1620.89 2525768 2939102 3196966 2542310 2376960 2281250
1626.67 2590782 2339302 2084334 1939860 2027000 1905514
1632.46 2053220 2868486 4331890 3503278 2481934 2075050
1638.24 1862856 1741994 1748490 1671642 1739280 1691838
1644.03 2487854 3470134 3001794 2380998 2100474 1740754
1649.81 1952690 3715924 6302390 5346892 3183794 1895188
1655.60 1567762 1442988 1464702 1437762 1551720 1621298
1661.38 2185146 2093708 1627894 1503010 1507336 1472322
1667.17 1950090 2656148 2344246 1866942 1775264 1376338
1672.96 1705166 2664796 2603228 1556170 1422296 1352536
1678.74 1595478 1582386 1579676 1984108 3319896 4846098
1684.53 3798190 1627808 1482264 1429838 1595410 1510664
1690.31 1528264 1320544 1392728 1543408 3545182 4457166
1696.10 2517600 1501682 2486538 4444100 4015760 1909946
1701.88 1389100 1598510 1830412 1709882 1760172 1250656
1707.67 1170044 1172870 1360636 1136942 1198180 1337938
1713.45 1925410 1960084 2369812 3587866 3189644 1844040
1719.24 1278172 1089834 1252642 1240096 1294604 1118246
1725.02 1178432 1132490 1249600 1252232 1489608 1266402
1730.81 1375158 2361966 3699910 3328362 1928958 1132106
1736.60 1196302 1236154 1989682 1762352 1255610 1195836
1742.38 1371878 1173396 1200634 1220654 1428144 1473568
1748.17 1570868 1587258 2320792 1829396 1210804 1063440
1753.95 1105800 1250254 1596020 1271690 1153518 1055364
1759.74 1385564 1829796 1598946 1066978 1091850 971686
1765.52 1138652 1489320 1729418 1143992 1373812 1807624
1771.31 2567676 2182836 1291094 1146430 1171420 955476
1777.09 1052414 1031376 1245138 1217740 1087644 964946
1782.88 1178572 1341680 1226484 982296 1087692 1037990
1788.66 1173850 1313484 1670424 2048380 1708646 1102694
1794.45 1212516 1144946 1162820 1111792 1402328 1317518
1800.24 1310772 1249612 1209758 1024564 1072076 962552
1806.02 1073624 1076586 1190954 1249040 1395180 1142534
1811.81 1128448 1026236 1110042 1036236 1146210 1099010
1817.59 1180636 1056510 1096978 1015676 1124958 1081612
1823.38 1385896 1528320 1353840 1153052 1327244 1536688
1829.16 1721260 1242032 1125570 1102250 1173248 1079808
1834.95 1216682 1220948 1280800 1121736 1168896 1070864
1840.73 1193454 1259698 2030200 2156832 1495586 1158400
1846.52 1226716 1149652 1157914 1079630 1148246 1067914
1852.30 1128404 1075728 1166176 1063316 1120662 1083752
1858.09 1170954 1098010 1155386 1088524 1148894 1072828
1863.88 1172512 1164266 1324308 1386180 1648924 1572786
1869.66 1348274 1151852 1162064 1074904 1155104 1111516
1875.45 1171836 1108750 1137856 1056570 1165760 1112000
1881.23 1135724 1080674 1195476 1121826 1195412 1124482
1887.02 1200456 1313604 1405010 1126798 1112998 1087744
1892.80 1175192 1146906 1226708 1110334 1162782 1114116
1898.59 1159926 1041130 1113846 1040716 1141480 1121550
1904.37 1181968 1092436 1169300 1102402 1161970 1075570
1910.16 1146692 1155492 1181372 1037158 1116860 1067590
1915.94 1221138 1422302 1329828 1030888 1125954 1138176
1921.73 1250248 1112940 1100978 1025822 1061406 1000908
1927.51 1084376 958332 1024404 960082 1040534 976890
1933.30 1076974 1044824 1103492 1012672 1067588 961276
1939.09 1011900 978164 1197586 1174922 1142990 1014718
1944.87 1034370 969242 1095262 1020374 988420 822658
1950.66 900238 952376 1010614 882150 959236 983436
1956.44 1062744 897248 878978 883620 1084140 924252
1962.23 890378 925328 1153138 1000734 1014792 939854
1968.01 1101392 1065978 1029578 866512 1046302 1180872
1973.80 1092192 937468 1171308 1194946 1220586 1130138
1979.58 1150440 1267294 1402572 1177670 1278198 1484434
1985.37 1524680 1438644 1608382 1551074 1966168 1847856
1991.15 1774626 2069780 2164048 2037934 2298378 2153734
1996.94 2604422 2713996 2435252 2825816 3099876 2965744
2002.73 3438492 3096850 3780576 3865560 3664998 4272784
2008.51 4135284 4430614 4718308 4453556 5559196 5025836
2014.30 5575532 5801202 5953336 6461404 6080442 6968106
2020.08 7111212 7202756 7501416 7404072 8306652 7790608
2025.87 8628272 8103170 8648922 8204704 8694720 8850500
2031.65 8899418 8842592 8879674 9098922 8831216 8824340
2037.44 8567660 8451058 8037568 8097206 7995122 7728372
2043.22 7268804 7386206 7527224 7631924 7959616 9053764
2049.01 10437040 12308290 15605100 20004760 22249330 16523510
2054.79 7916562 5043064 5046688 5340272 5663122 6026300
2060.58 6713976 7641170 8781336 10090830 11255560 12261560
2066.37 13536410 15080130 16579080 17634650 18458410 19112980
2072.15 19715470 20120270 20331780 20302320 20268820 19952800
2077.94 19235090 18304730 17298690 16086800 14660520 13192790
2083.72 11677870 9946580 8450060 7049834 5463670 4318954
2089.51 4060714 3822038 3900332 4456968 4485946 3650908
2095.29 3443622 3431692 3736604 3795722 2843096 2108104
2101.08 2278390 2601404 2658918 2676202 2956460 3318282
2106.86 3580650 3490824 3582452 3854596 4105432 4064518
2112.65 4233512 4532286 4837090 4554360 4375624 4426320
2118.43 4704198 4669762 4439466 4286498 4492856 4246336
2124.22 3948412 3860772 3758838 3350330 3108520 3099732
2130.01 3171562 2973302 2667692 2485284 2597140 2413250
2135.79 2038608 1879356 1941002 1916080 1892466 2178764
2141.58 2622990 2550940 2223784 1839722 1894036 2041442
2147.36 2265930 2788214 3221200 3123308 2805984 2364158
2153.15 2556816 2918184 2994390 2914366 3002250 2940954
2158.93 2957954 2959384 2855030 2665550 2873440 3287332
2164.72 3349296 2944122 2861530 3095278 3097228 2764332
2170.50 2847138 3123962 3185126 3059846 3331858 3350614
2176.29 3099330 3039882 3310868 3198896 2837410 2741498
2182.07 2920710 2786486 2715624 2942140 3140934 2794426
2187.86 2657990 2783376 2745204 2527240 2600456 2533374
2193.64 2404544 2417354 2563148 2425992 2386566 2439234
2199.43 2415930 2332794 2478896 2419940 2238068 2159632
2205.22 2335032 2337836 2375410 2412652 2476832 2485254
2211.00 2396262 2201006 2235346 2274926 2331928 2341840
2216.79 2426556 2349086 2349314 2414698 2460126 2296162
2222.57 2234286 2149960 2160454 2136394 2148604 2127736
2228.36 2180246 2152182 2205822 2155834 2134064 2067076
2234.14 2176418 2189950 2181794 2134256 2134858 2009180
2239.93 1940720 1905440 2015064 2011724 1990056 1926682
2245.71 1977332 1970250 2022808 2012206 2023158 2054938
2251.50 2159694 2130498 2214598 2179040 2060458 1932252
2257.28 1984374 2009982 2058734 2052856 2124084 2085998
2263.07 2019282 1960882 2028676 2065152 2153350 2102168
2268.86 2119360 2079972 2103436 2109072 2132958 2090782
2274.64 2121050 2145324 2224428 2219548 2196332 2201652
2280.43 2241212 2172610 2179736 2207194 2264688 2299104
2286.21 2394294 2402062 2444638 2405458 2386940 2380330
2292.00 2423776 2470794 2539632 2511460 2513380 2511286
2297.78 2565590 2573980 2623632 2543478 2546418 2514918
2303.57 2540090 2481822 2463646 2489490 2568754 2558408
2309.35 2629444 2677806 2813776 2864626 2882784 2812462
2315.14 2761718 2735736 2758430 2703596 2683520 2673076
2320.92 2762380 2869802 2964704 2993180 3088474 3122936
2326.71 3079960 3139974 3329394 3236106 3021384 2952320
2332.50 3088834 3102484 3054772 3000370 3102006 3261920
2338.28 3319460 3247412 3252488 3264670 3445530 3551788
2344.07 3669496 3689604 3837738 3613498 3403332 3337832
2349.85 3427442 3500190 3455716 3383178 3563494 3547048
2355.64 3527440 3629060 3732664 3579262 3515898 3647702
2361.42 3850006 3823006 3813194 3840288 3724046 3549450
2367.21 3568634 3645082 3732364 3902326 4194940 4365228
2372.99 4272916 3868308 3657588 3735178 3934382 3913776
2378.78 3790246 3609842 3692866 3774806 3671128 3426948
2384.56 3425104 3500302 3657170 3654622 3606356 3600494
2390.35 3737020 3785772 3985184 4169252 4032764 3656320
2396.14 3522476 3624184 3912598 4128892 4143994 3825330
2401.92 3676840 3853106 4212856 4371156 4404852 4327618
2407.71 4152554 4004546 3964412 3875846 3869500 3988106
2413.49 4085726 4092780 4096730 3872632 3729514 3649688
2419.28 3456808 3348810 3460316 3485940 3519960 3643446
2425.06 3809578 3733382 3560756 3441536 3423082 3293028
2430.85 3154378 3160462 3245550 3200936 3113892 3069204
2436.63 3026640 2998504 3069612 3075996 3050238 3113980
2442.42 3096932 2953268 2947546 2799700 2688176 2703046
2448.20 2871100 3062352 2997076 2741758 2734420 2764578
2453.99 2760772 2698890 2665974 2655376 2711090 2726618
2459.77 2747910 2704234 2606882 2523956 2552894 2638644
2465.56 2592652 2562412 2616412 2572190 2632666 2797866
2471.35 2814274 2552698 2474310 2416978 2400836 2363794
2477.13 2420660 2424744 2366420 2406814 2530290 2529088
2482.92 2552398 2603570 2583416 2475418 2428884 2418720
2488.70 2524324 2556104 2549558 2501498 2462304 2475872
2494.49 2561336 2532508 2405104 2387468 2502554 2583624
2500.27 2499876 2394798 2433754 2401940 2323286 2307374
2506.06 2415290 2458240 2506552 2498134 2510708 2434262
2511.84 2502720 2525998 2517220 2526896 2575384 2600382
2517.63 2651130 2662130 2690538 2728408 2760482 2815852
2523.41 2849066 2957670 3031548 3015358 3009152 2924464
2529.20 2859938 2844506 2907014 2943292 2946658 2964170
2534.99 2929320 2937466 2964044 3018332 3158420 3169804
2540.77 3107116 3067892 3032804 2959960 2958968 2981662
2546.56 3052398 3034506 2968650 2954736 2978682 3159196
2552.34 3309820 3303440 3278484 3228154 3082870 2964788
2558.13 2944428 3089654 3305104 3307762 3191026 3165736
2563.91 3218860 3281984 3290208 3238286 3281754 3401986
2569.70 3527808 3544792 3562432 3682560 3799406 3770072
2575.48 3651222 3661854 3788860 3804034 3786628 3880642
2581.27 4112966 4209864 4081168 4053372 4329396 4460882
2587.05 4363002 4354188 4451238 4602184 4727998 4894266
2592.84 5112914 5202852 5030590 4939318 4982076 5139164
2598.63 5207820 5135962 4968350 4880164 4868646 4737068
2604.41 4764346 4929848 4981570 4946728 4846972 4919154
2610.20 5129702 5442294 5538860 5247854 5143186 5198834
2615.98 5145478 5254028 5650200 5690226 5494732 5565906
2621.77 5613168 5596010 5602574 5803984 5999982 5965214
2627.55 5769740 5640314 5830106 6179692 6039196 5798042
2633.34 5798034 5987898 5806294 5650514 5621282 5397462
2639.12 5256176 5406098 5327172 4909346 4763276 4977316
2644.91 4978776 4789408 4848872 5391434 5680454 5389698
2650.69 5088162 4994462 4856932 4883300 4924680 4927892
2656.48 4973946 5171212 5315310 5433492 5300670 4834124
2662.27 4601424 4777762 5056924 5313476 5150894 5011984
2668.05 5081638 5214684 5470848 5533990 5282708 5080830
2673.84 4943966 5040322 5080296 5176726 5270220 5417030
2679.62 5241090 5124120 5055160 4988010 4895036 4992664
2685.41 4980230 4898734 4772594 4659154 4587440 4685098
2691.19 4802216 4917712 4839630 5033586 5050116 5019428
2696.98 5079986 5137372 5167582 5209570 5262630 5256646
2702.76 5180288 5313382 5269306 5225708 5159440 5221668
2708.55 5382548 5631004 5604496 5405922 5282810 5374090
2714.33 5349372 5216826 5055394 5127234 5311264 5613292
2720.12 5874960 5992680 5790288 5784470 5789854 6121514
2725.91 6498350 6651890 6323402 6281320 6271832 6362318
2731.69 6568308 6784480 7001372 7295096 7805288 8583982
2737.48 8525096 8308196 8283536 8464440 8461394 8603170
2743.26 8737782 9075982 9243444 9419006 9476120 9951714
2749.05 10292910 10693910 10679090 10689130 10301320 10538970
2754.83 10874050 11305690 11176030 11333400 11652150 11987320
2760.62 11885530 12023060 12623220 13455810 13405150 13749250
2766.40 14015660 14407930 14745780 15396120 16049160 16483560
2772.19 16546100 16985970 17692620 18670420 18449760 18657600
2777.97 19100510 20135350 21188690 22279080 22702470 23217950
2783.76 24261230 25357440 25065930 25942550 27209900 28655380
2789.54 29356200 31465040 33388360 34762970 34781740 35941600
2795.33 37986510 40060320 42075800 45553520 47637290 49279200
2801.12 52223340 55692740 58569090 61614800 64866680 68732720
2806.90 72409550 76691130 80492640 84528480 89005100 93151900
2812.69 97825310 102748500 107493200 111190000 115420900 118444100
2818.47 123720200 129360900 131703000 132877100 133439200 134152200
2824.26 136413900 137465900 136420200 134688100 133881300 132549700
2830.04 130645000 128618600 123839900 119288900 119218700 112952000
2835.83 108599500 114289300 124109400 124902500 125523100 152852300
2841.61 191285200 229173100 232651400 194473900 161871100 137265400
2847.40 126697200 115071900 108363200 110383800 115351400 120932400
2853.18 132055800 141355200 151324000 162224000 171309200 178582700
2858.97 186564800 192522700 197550800 203826100 208964600 210030200
2864.76 210955100 208101600 204412200 203218000 199132200 195328100
2870.54 196001400 193789800 186520400 186207100 187656900 175954700
2876.33 170730600 166380200 160848800 163326300 167205100 157172200
2882.11 147837400 143324000 138715300 143725600 154026300 150347300
2887.90 138698800 135466200 136137500 150434100 172993700 166243300
2893.68 152668800 150399200 151111900 156641000 163986300 170359800
2899.47 171133600 183225400 197776300 188625400 183929500 187598800
2905.25 194033700 204129600 218804700 226771200 223024800 221733000
2911.04 223523900 228227800 239403200 242717800 245774000 250221100
2916.82 260334200 283552800 304987900 306470300 304208600 313721500
2922.61 319703700 305997400 285648800 272457900 260844900 269874800
2928.40 273885200 263203900 263758800 274120300 285899000 298997400
2934.18 307474300 316861600 321217400 316580500 315667100 319870700
2939.97 310872700 315255800 317318900 307696100 301715300 301747200
2945.75 308916400 310232900 315226600 322453100 312698100 315797700
2951.54 309857600 303519900 301296800 294402700 287347800 313566000
2957.32 324798600 299631600 281446100 281997700 296311100 316317600
2963.11 321363100 329182900 338100500 348395700 354112000 327120400
2968.89 307853100 323131800 346578100 357365400 356045800 338163000
2974.68 315476700 301331500 305639700 302383800 321767400 342135400
2980.46 378348000 362933100 302497300 281561100 279956000 280058300
2986.25 271300800 264079800 253153200 235258600 241669800 251516000
2992.04 241449900 212653500 205426700 215764600 212271900 184750800
2997.82 170275800 175893800 192472300 195962100 181898600 175779400
3003.61 189729900 214706600 199230400 175133500 179632200 191498000
3009.39 202769400 187417200 168450600 160528700 159076200 162594500
3015.18 170366300 157599200 137498800 126199300 124802800 124363800
3020.96 131711300 144031500 134656900 113225300 113452900 114514900
3026.75 110452800 116088700 116076400 109438100 116739500 113630000
3032.53 104454700 95776260 95390200 98067160 91709580 83366140
3038.32 79283120 78090610 82589170 87180700 82961080 75714540
3044.10 69178720 67162740 66978860 61469100 59921620 56020800
3049.89 50528280 49610550 53940740 54072760 50993870 48317080
3055.67 46253550 43535350 43129770 42569690 42266830 39535420
3061.46 38178040 38086980 37759880 36949140 36187100 34468560
3067.25 31943520 30017490 28538010 27280570 26462010 25700870
3073.03 24283580 23620880 23311120 21993230 20752890 20162570
3078.82 19870590 19193700 18079060 16861760 16059180 15305850
3084.60 14616910 14010470 13499030 13142360 12529320 11818440
3090.39 11466790 10938400 10348620 9803140 9339054 9047006
3096.17 8951682 8598932 8137274 7758152 7429942 7127848
3101.96 6971348 6668796 6537506 6294072 5976996 5648286
3107.74 5508594 5300470 5138498 4858018 4649654 4440458
3113.53 4224466 4007308 4096202 4113018 4165368 3929588
3119.31 3736556 3600408 3588020 3453416 3301072 3089704
3125.10 3146562 3212472 3223174 3067430 3066530 3039202
3130.89 3212326 3099512 2918506 2706714 2698384 2710552
3136.67 2765896 2459886 2404602 2459040 2458594 2523514
3142.46 2691220 2494830 2415124 2267280 2250524 2248060
3148.24 2356762 2252872 2195482 2101788 2165444 2250208
3154.03 2316984 2292264 2303114 2223574 2212656 2214630
3159.81 2422932 2467532 2767510 2532658 2249442 2404030
3165.60 2573518 2269190 2076256 2043150 2265246 2376800
3171.38 2243838 2062244 2070532 2021476 2008026 1990366
3177.17 2207434 2204362 2251600 2190970 2167388 2034480
3182.95 2035682 2065398 2142876 2126572 2138286 2054742
3188.74 1992140 2118694 2412664 2236478 2016514 1921324
3194.53 1960470 1968930 1934558 1814150 1922046 2059906
3200.31 2137108 2145994 2132514 1964796 1895852 1802932
3206.10 1753048 1794680 2015210 1951766 1973980 2026706
3211.88 1956996 1806526 1851344 1852696 1796582 1694810
3217.67 1729566 1733444 1882466 1875576 1855510 1838664
3223.45 1878582 1749720 1801920 1799162 1777192 1696630
3229.24 1660178 1607686 1721010 1658012 1688924 1649946
3235.02 1738946 1656284 1647688 1680044 1653318 1526026
3240.81 1530996 1553222 1573598 1617312 1783966 1684858
3246.59 1667284 1694108 1622564 1471628 1443188 1443136
3252.38 1549132 1554710 1533332 1530088 1516712 1454750
3258.17 1449198 1520710 1641680 1647972 1599386 1466998
3263.95 1463116 1562392 1636100 1488230 1470524 1501230
3269.74 1395290 1361260 1390036 1288432 1348844 1435026
3275.52 1500538 1281292 1336748 1409860 1489514 1457680
3281.31 1405616 1424350 1490218 1345670 1371534 1422706
3287.09 1421358 1411848 1320298 1249482 1347514 1401732
3292.88 1385134 1190154 1195676 1304792 1401848 1378388
3298.66 1343870 1317208 1357292 1377368 1349732 1201020
3304.45 1163150 1171534 1342544 1317730 1265486 1292182
3310.23 1367866 1313686 1340668 1319368 1274410 1328508
3316.02 1412956 1314254 1277386 1320928 1327042 1355478
3321.80 1265866 1207774 1215620 1327446 1446268 1401944
3327.59 1498460 1461030 1459662 1345206 1342050 1419778
3333.38 1366632 1298424 1382394 1412896 1407958 1442654
3339.16 1549052 1442468 1426086 1578336 1583148 1495752
3344.95 1551012 1501724 1617948 1635672 1456074 1442770
3350.73 1623150 1616898 1580892 1673280 1622770 1410196
3356.52 1429108 1459428 1496316 1558386 1658336 1600282
3362.30 1741438 1904706 2013140 1847850 1616916 1456894
3368.09 1509402 1631002 1722574 1621058 1621426 1734034
3373.87 1795736 1749848 1815466 2248568 2265026 1912944
3379.66 1832964 1797284 1779392 1987750 2289518 2112774
3385.44 1983458 1962868 1919148 1985846 2076336 2035190
3391.23 2160636 2086000 2109464 2118914 2117122 2101166
3397.02 2210968 1948702 1758312 1775578 2130996 2350008
3402.80 2467688 2231566 1975042 1968932 1944014 1936190
3408.59 2377548 2612340 2305690 2202410 2252790 2288582
3414.37 2274086 2310566 2465122 2689168 2845390 2669220
3420.16 2465740 2342340 2286984 2269786 2312458 2312506
3425.94 2452470 2670776 2749956 2802776 3138288 3743680
3431.73 3739282 2992964 2768626 2851238 2972844 2949390
3437.51 2764504 2724836 3001084 3523452 3930420 3726044
3443.30 2940070 2613478 2489626 2666320 3506744 3786936
3449.08 3306432 3246982 3562744 3295336 2764578 2689292
3454.87 2636062 2720160 3242284 3880466 3770792 2997126
3460.66 3066708 3103916 2936772 3250672 3544830 3193856
3466.44 2902946 2796666 2867230 3093476 3563214 3473544
3472.23 2987030 2867060 3117648 3216792 3460102 3960950
3478.01 3879170 4092518 5169970 5261118 4432908 4295904
3483.80 4424978 4479444 4645730 5365816 5629254 4630848
3489.58 3844406 3682734 4023366 4838374 4480520 3765818
3495.37 3690068 3996094 4302804 4145892 3656620 3167356
3501.15 3250044 3390860 3889590 4927088 5425378 4160662
3506.94 3327288 3419224 3417350 3721750 4903360 5282254
3512.72 4198812 3173606 3160026 3289052 3519540 3809166
3518.51 3883570 3732316 3527802 3701224 4771266 5047410
3524.30 4233458 4701420 5088454 3881130 3352636 3259942
3530.08 3732824 3903806 4583316 5234412 6008882 5788758
3535.87 4305568 3971722 6290584 7722374 6561354 4781864
3541.65 3469078 3545472 3975378 5010324 4801008 4393302
3547.44 4031704 3740392 3783864 4082224 4142334 4313412
3553.22 4856822 5396192 5055356 4604670 4493456 4384338
3559.01 4512852 4836212 5000194 4717304 4524354 4818440
3564.79 5796100 8844514 10727260 7963350 5479274 5360610
3570.58 5114746 5120048 6017440 8188366 9572104 8059464
3576.36 7703384 7490680 6866826 7694282 8057438 7423186
3582.15 6296634 6597248 6924354 8092350 8387686 8067074
3587.94 7928180 7457926 7276506 7316624 7910814 9106650
3593.72 9869142 10038300 9339342 9226314 9845196 10026970
3599.51 9434654 9415986 9318244 9116966 9420428 10177260
3605.29 10979370 11391220 11757940 12271940 12139570 12090890
3611.08 13762410 16511740 16988470 16022540 16012780 18810250
3616.86 19262180 16275010 17421080 20388540 20377550 18251030
3622.65 17572780 18522730 21127190 26639620 31341330 31107360
3628.43 28034470 26811700 28828110 29260430 29779710 29656150
3634.22 29062880 31190480 35611160 38752810 38895210 38199990
3640.00 41775380 48824160 51201120 54891200 62058680 58995580
3645.79 53211290 54450100 59231390 64139290 69815270 74943260
3651.57 77152540 75441110 74822940 76889950 81276610 88750120
3657.36 91415050 87231960 84010870 85842740 94899170 103502600
3663.15 97365400 91794780 97539980 100254400 94014100 89033260
3668.93 82432200 83178330 88932100 90853710 82893340 80592160
3674.72 80411460 85585950 82646020 81791810 101368100 139121300
3680.50 146259600 100702100 75302710 78155890 75344280 58981300
3686.29 58910990 59142430 56352210 62571400 69702540 80055060
3692.07 92745840 96996010 101492700 104121300 103314400 102001700
3697.86 96572940 94456700 95784540 98898150 98053300 95026930
3703.64 99425380 106888800 107069000 99180720 99066060 100994600
3709.43 94926560 91763520 95640660 100239000 96219170 85858600
3715.21 81774620 81023170 78640770 80740710 82021220 77697320
3721.00 70378080 64578690 59583720 54966180 54159440 50881740
3726.79 46009820 45934030 47682340 45729700 44736470 43294540
3732.57 38517670 33822990 30044840 28950430 28845710 30291660
3738.36 28582690 25223870 23053400 20397210 20136930 22200100
3744.14 21868290 19840910 18325670 17549230 22243040 21596200
3749.93 16438980 16752480 17872790 17648420 14527380 12374540
3755.71 13279820 16914750 20371180 15727500 11751910 11868840
3761.50 11580660 12759000 16145030 16195680 13612000 10794770
3767.28 9858600 9974802 9647806 8680602 8521666 8276700
3773.07 7723274 7441426 7375952 7826488 8422278 8262650
3778.85 7548798 7060056 7289248 7837324 7504962 6431102
3784.64 5915912 5698326 5697754 5797754 5906554 6549222
3790.43 7396906 7132346 6473122 5701778 6461774 9073518
3796.21 8557348 5926904 5495268 6117470 7774982 7388022
3802.00 5918224 5299604 5364420 6222212 7208332 6793704
3807.78 6503658 7271544 8855854 8858744 7122088 6009118
3813.57 6681490 8616538 7687460 5337218 4750378 4844470
3819.35 5617278 6259928 6126330 7711058 9398980 7319142
3825.14 6107252 6073420 5523782 5132118 5268992 5497630
3830.92 5698500 5347542 5778724 6431068 6165742 6452164
3836.71 7957992 7309226 6553726 7073372 8594238 9643376
3842.49 7891266 5793070 5140206 5249698 5975880 6529634
3848.28 6118668 5611734 6666216 8536112 10521980 12596250
3854.07 9295674 6180420 6197994 6373726 6438612 6187060
3859.85 5843688 6324722 6828646 6745306 7204472 8239900
3865.64 8525012 7887784 8273188 9157150 8856288 7840700
3871.42 7600892 6943214 6162258 5609360 5505076 5322572
3877.21 4921874 5113900 5772654 5572050 5346976 5785250
3882.99 6000380 6597030 7329704 6706014 6406730 7202510
3888.78 8716782 8646284 7836504 7739436 8688286 8821102
3894.56 7703114 6843200 6990650 7771746 8481690 8442584
3900.35 8075468 7178564 6735256 6779562 5959388 5416554
3906.13 5154556 5145476 5405564 5512126 5159810 4724990
3911.92 4539650 4720110 5033764 5189522 5151318 5045266
3917.70 5085594 5840932 6402992 5919644 5531232 5875004
3923.49 5604658 5137614 4953692 5008864 5138266 5256732
3929.28 5141354 5057492 5531758 5971210 5643030 5118180
3935.06 4964226 5106730 5258200 5670084 5892092 5696114
3940.85 5937746 6485664 6314940 5972788 6243266 6553270
3946.63 6165194 5578318 5357980 5389648 5687250 5855208
3952.42 5408116 5214650 5384796 5473012 5463378 5499718
3958.20 5382260 5319924 5499128 5815498 6054968 6007970
3963.99 5812446 6040174 6062158 5814298 5675746 5954348
3969.77 6215558 5869096 5539594 5472100 5547084
##END=
