##TITLE=Methanol
##JCAMP-DX=4.24
##DATA TYPE=INFRARED SPECTRUM
##CLASS=IUPAC A
##ORIGIN=NIST, Anayltical Chemistry Division, 301-975-3108
##OWNER=COPYRIGHT (C) 1998 by the U.S. Secretary of Commerce
##DATE=98/10/1
##$SPECTRA VERSION=1.00
##$UNCERTAINTY IN Y=2.0 % relative (B=1.0E-04,C=6.6E-10,D=2.7E-14)
##CAS NAME=Methanol
##CAS REGISTRY NO=67-56-1
##MOLFORM=C H3 O H
##MP=-93.9 C
##BP=64.96 C
##$NIST SOURCE=QUANT-IR
##SPECTROMETER/DATA SYSTEM=IFS66V (Bruker)
##INSTRUMENT PARAMETERS=KBr Beam splitter; MCT Detector; Multipass cell
##STATE=gas
##SAMPLE DESCRIPTION=Methanol Primary Gas Standard
##PRESSURE=101.3 kPa
##TEMPERATURE=23 C
##SAMPLING PROCEDURE=1 L/min Flow
##RESOLUTION=0.9640
##DATA PROCESSING=Happ Genzel Apodization
##XUNITS=cm-1
##YUNITS=(micromol/mol)-1m-1 (base 10)
##XFACTOR=1.0
##YFACTOR=4.5474E-13
##DELTAX=0.4820
##FIRSTX=575.169
##LASTX=3975.077
##FIRSTY=2.61E-06
##MAXX=3974.59
##MINX=575.17
##MAXY=.0009428
##MINY=3.51E-07
##NPOINTS=7053
##XYDATA=(X++(Y..Y))
575.17 5752050 5853942 4915906 4814456 5859334 5036494
577.58 4981338 5355366 4009016 5229992 6496866 5802254
580.47 6984788 9363580 10332900 10928850 9179668 6136026
583.37 4961680 5074270 4807514 4048548 3850112 3593456
586.26 3668810 4329780 4888510 4553904 4693642 5628814
589.15 5503400 4894540 5087904 4961332 4859980 5394246
592.04 5230366 4636256 6515812 6316816 4425108 4442168
594.94 4427868 3863182 4533414 5192774 5049194 5555388
597.83 6862346 8838582 10618780 9303108 6088968 3969690
600.72 3375072 4051466 5045152 5452594 5451954 5330612
603.61 4543072 3597630 3443036 3379924 3666970 4056710
606.51 3195850 3297738 4098456 3624686 3699062 4396812
609.40 4274532 5016670 6625970 7088152 5401856 3587994
612.29 3421794 3595324 3362990 3515032 3806920 3925292
615.18 4534916 5186588 6213840 7919630 8207076 5374850
618.08 3689256 3254104 3006680 3110650 2728922 2357902
620.97 2884246 3820454 4262400 4779576 5408130 5899848
623.86 4712644 3328652 3053310 2935780 2791174 2498146
626.76 2700386 2693872 2660312 3176750 3373240 2969892
629.65 3139580 3952134 3420794 2841968 3211848 3033716
632.54 2958058 3499466 3336810 2872780 3253514 3373364
635.43 2842112 3206082 3336420 2502958 2432294 3693496
638.33 4028500 3168682 3312462 3594370 2885208 2895286
641.22 3583556 3473582 3229256 4105180 5316250 5365514
644.11 4246786 3251224 3151476 3940298 4595512 4648972
647.00 5855814 5989924 4227446 4177038 5093604 4588972
649.90 3851504 3888406 3528656 3190988 3770456 4389102
652.79 4379228 4918226 5628230 5725836 6647330 8550770
655.68 8260002 6560720 5462866 4390806 4070486 4745716
658.58 5033888 3585232 2819670 3237418 3441670 3116732
661.47 3065638 3100114 3054648 3131606 3171644 2983384
664.36 2620722 2029212 2013108 2861120 2953662 2560784
667.25 3059970 3203678 3116504 3248760 3059886 2859396
670.15 3046632 2933078 2946778 3283104 2956144 2898256
673.04 3449906 3185476 2904982 3338296 3284118 3115614
675.93 3401192 3486734 3095258 3043758 3491222 2865148
678.82 2656136 3469322 3362368 2742102 3102960 3444054
681.72 3247160 2895984 2833280 2909256 2664486 2494188
684.61 2923962 3238462 3066786 2750990 2917310 2970864
687.50 2669546 2903960 3345704 3719378 4511972 5453664
690.40 6307656 7252160 8009770 6675322 4578380 4415798
693.29 5354320 8943766 8738880 4531330 3109340 3302446
696.18 3738898 4003846 3527838 2671054 2701272 2563362
699.07 2549958 2762494 2881774 2709908 2686748 2897742
701.97 2652418 2426628 2683402 2937214 2673718 2440342
704.86 2796230 2777886 2739938 3093482 2842750 2423632
707.75 2353208 2770776 3264198 3112724 3241896 3554124
710.64 3556082 3371454 3205348 3084760 3357256 3351970
713.54 3044074 2912790 3179288 3221046 3165118 3126460
716.43 3203906 2929130 2687542 2898412 2996940 2843034
719.32 3114602 3229102 3286994 3239128 3329140 2894380
722.22 2612956 3093042 3296020 2828536 3043016 3122866
725.11 2670664 2542454 2728040 2633532 2683894 2807762
728.00 2643516 2330374 2514942 2532656 2321910 2557772
730.89 2689232 2716736 3123176 3575508 3909106 4045478
733.79 4303824 4756004 6093430 8350804 10431330 10412040
736.68 7911346 4159860 2336914 2033232 2020710 2029706
739.57 1893658 1921522 1834662 1833998 2118732 2197358
742.46 1904142 1876364 2091160 2004908 1905214 2065258
745.36 2442392 2823020 3117634 2859120 2491264 2792122
748.25 3084344 2639792 2880806 3250464 2800130 2420000
751.14 2756270 2685470 2638470 3101404 2938522 2557878
754.04 2764126 2619960 2278096 2669752 2629750 2259996
756.93 2715688 2848184 2475102 2611302 2733052 2412056
759.82 2451376 2477726 2211266 2495552 2723050 2295118
762.71 2396062 2546866 2265408 2562282 2831324 2329274
765.61 2325512 2444266 2103822 1917044 2336252 2133554
768.50 2040240 2541336 2335552 2010794 2289182 1904794
771.39 1616846 1913720 2114454 2264396 2225560 1927294
774.28 2051028 2043498 2234608 2532732 2611958 3879026
777.18 5304094 4776550 4926096 5971100 6727696 6223198
780.07 5688262 4207922 2236462 1665656 1718654 1535826
782.96 1388096 1395586 1375592 1211978 1283466 1468326
785.86 1462114 1229048 1379746 1524680 1218092 1429778
788.75 1942940 1717976 1707020 2105934 1853666 1466506
791.64 1909596 2094048 1770136 1973396 2145272 1883536
794.53 2268378 2362244 1878234 1757132 1966470 1744694
797.43 1786250 2160930 1977050 1707992 2074938 1981204
800.32 1683402 2061548 2206094 1808624 2097824 2099886
803.21 1743054 1609826 2089108 2347250 2540012 2584204
806.10 2182264 1759500 1765178 1828804 2062798 1877492
809.00 1861094 1846492 1723310 1581248 1568454 1573664
811.89 1796372 1977538 2029704 2031910 1983156 1894908
814.78 1824418 1780526 1835366 1977962 2088232 1900278
817.68 2209306 2692112 3235552 3833160 4454018 4359144
820.57 4318778 3601386 2387086 2062110 2039740 2083426
823.46 2674932 3067294 2811958 2040918 1744472 1779834
826.35 1915300 2346312 2747478 2560698 2156062 2052308
829.25 2080668 1810168 1816610 1861010 1794704 1594996
832.14 1618844 1709906 1869106 2005100 1936082 1601882
835.03 1764336 2021188 2109320 2291204 2329138 1954370
837.92 2260194 2601250 2319532 2056432 2182918 2143424
840.82 2122244 2235940 2278942 2112558 2123514 2235506
843.71 2258588 2394200 2479308 2502936 2706396 2391622
846.60 2174176 2180874 2199016 2138638 2134458 1989310
849.50 2097002 2144382 2016908 1989966 2202364 2243822
852.39 2406206 2271288 2231032 2307994 2324000 2134996
855.28 2264598 2385776 2265010 2115886 2453942 2862250
858.17 3133140 3536070 4257934 4288942 3346654 2333238
861.07 2041188 2032104 2050098 1994438 2078384 2132814
863.96 2308468 2292066 2340690 2492592 2775534 2748574
866.85 2594952 2354960 2656512 3009594 2851934 2452054
869.74 2474784 2483734 2835694 3109816 3374446 3700714
872.64 4111530 3644266 3118948 2942114 2865660 2764976
875.53 2915550 2797778 2625128 2566256 2619768 2657504
878.42 2902752 2866454 2583584 2579546 2685804 2672178
881.31 2698560 2470472 2444430 2536284 2609418 2608122
884.21 2982520 3124534 2872428 2590866 2682678 2764782
887.10 2745864 2634890 2786740 2871484 2746806 2526032
889.99 2693198 2643090 2725222 3012610 3007364 2700010
892.89 3071824 3219750 2881998 2935130 3310946 3034508
895.78 3071528 3537090 3564750 3201360 3666002 4196876
898.67 5010208 5323524 4626788 3570716 3100042 3130216
901.56 3173434 3004414 3202862 3203942 3156368 3081970
904.46 3232784 3367084 3591684 3593636 3878426 3972322
907.35 3758458 3759556 4198286 4052450 3981846 3825852
910.24 3614034 3895934 4258830 4203910 4478490 4465520
913.13 4185738 4070082 4308444 4206960 4403712 5032106
916.03 5127426 4497206 4380480 4605926 4852840 4618612
918.92 4619728 4941828 5238114 4908738 5103544 5390166
921.81 5195480 4972966 5384906 5688308 5887070 5989906
924.71 6150480 5981754 6122650 6115306 6529188 6553048
927.60 6349804 6333806 6654750 6551904 6336574 6548152
930.49 7032816 6760228 7121990 7710022 7874904 7385616
933.38 7301178 7406314 6986474 6641626 7532880 7380312
936.28 6841578 7662288 8259496 7588964 8418826 9304412
939.17 8617066 8326566 9712082 9841454 8899068 8443290
942.06 8291290 8072788 8971184 9721136 9291756 8309506
944.95 8401834 8946860 9362812 9557348 9785516 9606730
947.85 9899564 9771188 9701220 9055916 10118840 12405570
950.74 13081370 11288390 10923960 11877650 13795780 14026350
953.63 13392250 12782740 14336440 16719880 15245450 12898530
956.53 13731170 16824910 17453270 16136930 17893230 18434440
959.42 19726120 22331910 21808510 19274780 20264880 25074250
962.31 25715710 21792290 21567230 25623690 29648420 28505850
965.20 25476010 25488030 33042520 37899130 34449480 31799550
968.10 39263080 46889960 44704540 36245110 35817780 46793530
970.99 56550790 49953210 40181880 47268710 66466710 68309040
973.88 50650830 49051800 71268460 85550660 68929270 54922870
976.77 72414290 99835420 95483530 68313860 75070300 112306900
979.67 125958100 90880350 80679930 116525700 145361400 120053000
982.56 94455900 121654300 161340900 155927600 114434400 126521000
985.45 174758800 193681400 145864800 137902400 187823200 226332700
988.35 185700000 155681200 200986800 256013500 232670700 180284400
991.24 215886600 282614700 280582600 211666300 232031600 307937900
994.13 329336700 251424700 250091500 329561800 373273500 294963300
997.02 271216900 353230600 419797400 341091000 292139300 379226800
999.92 467049700 385470800 314782200 410289800 511562000 420778500
1002.81 340280400 451927100 553037000 444211400 361154700 486857500
1005.70 580909500 459054000 387003100 526677500 599908600 462172500
1008.59 410244300 559518500 602356500 455468900 436480000 591037800
1011.49 593885800 443046700 461911000 604964700 559375900 425208900
1014.38 493707100 611027500 514531800 419181200 528984000 586390800
1017.27 458677200 422220100 525959500 499766700 377993700 417899300
1020.17 496034800 408733300 340164600 407806700 402642200 303896000
1023.06 299714300 360396400 322803400 262814000 284971800 286730000
1025.95 234770300 253448700 286326900 240817200 220373100 255446100
1028.84 263207700 279056300 347752900 439853100 556973900 739222200
1031.74 1039396000 1542325000 2064202000 2073425000 1406245000 591505900
1034.63 246503500 210809800 214301400 199877200 185331800 169320000
1037.52 183819800 209387000 188655600 187469300 235262200 248333400
1040.41 248224400 296195600 324858100 308024600 341293600 401431100
1043.31 391806600 402732700 473353300 466838600 468299000 554167300
1046.20 550759500 534101900 618952600 614074800 588980900 680331800
1049.09 671846500 638477400 731984800 713886300 678268500 771077300
1051.99 734833000 702086400 792154800 739600600 722169400 797245300
1054.88 732464300 737428400 782506800 714452200 734650400 742833900
1057.77 692618900 717129700 693748700 670229200 681697700 642800300
1060.66 634847700 626046000 594765800 589861200 567786400 547872400
1063.56 534546700 511123200 492032000 468465600 452920300 431177700
1066.45 412000900 398989400 372311000 362322200 342138700 316418800
1069.34 307991800 284190300 270304600 257421500 239270300 227208300
1072.23 211525000 201862100 185603900 179319100 156825500 146555600
1075.13 130306100 121776600 112786700 102318200 95637290 87312050
1078.02 80742700 74144730 69574990 65470240 59574850 53321180
1080.91 51629280 47161900 41821260 39782600 37397540 34087370
1083.81 32935380 31442840 29432010 28019190 26416080 25098880
1086.70 24074700 21800640 21982100 23296370 21673960 20758350
1089.59 22401070 21770410 20048470 21582210 23380370 22928230
1092.48 24619290 27499740 26880240 23150810 21949430 21346840
1095.38 19759420 19627980 22086640 24451260 21599490 19452250
1098.27 20276610 19632420 18717540 19691410 19724960 18665420
1101.16 18702190 18969080 18671600 18394560 18712240 18759040
1104.05 18681550 19703730 20861490 21338480 21178150 19872320
1106.95 18034030 18303260 20680790 19519440 17414160 17779450
1109.84 18353090 18421400 19336680 20666800 18207230 16675130
1112.73 18808480 21944990 23100330 22517730 21563800 18520660
1115.63 16689590 17321850 16269980 15608700 16593740 15754280
1118.52 15077580 16061770 15743110 15517220 16647210 16272120
1121.41 15035060 15790790 16300710 15580920 15919880 16534620
1124.30 15002220 14006810 14425990 14742970 14271380 13743820
1127.20 13640830 13275630 13924960 15505720 14263190 12859240
1130.09 13191290 13112430 12661660 13161360 13028530 11988950
1132.98 12112080 12852830 13125850 15469910 17563700 16841610
1135.87 14955520 13840530 13583790 12438610 12434580 11736150
1138.77 10371840 11427550 12197340 12604660 17086120 17854970
1141.66 13503530 11684090 11996500 12405970 12677890 13530180
1144.55 12670680 11222830 11075860 10764660 10765860 11941740
1147.45 12232560 11510540 11713700 11957680 10659830 9726792
1150.34 9775912 9794420 10270260 11631480 11460510 10366190
1153.23 11551140 11401920 9203432 9350372 10269150 9661130
1156.12 10517950 12362030 11766990 10178870 9953576 10496140
1159.02 10649960 10829260 11429550 11742860 11109720 10518840
1161.91 10125270 10581380 11286570 11805340 12699880 12848530
1164.80 11562190 10751290 10818070 9549480 9209022 10085070
1167.69 9724458 8945184 9546874 10296990 10150560 9745130
1170.59 9811536 9869718 9190648 8966068 9848794 9993052
1173.48 9726148 10570140 10959770 10325590 10508840 11385800
1176.37 11096930 10495950 11039120 11184580 10685580 11061360
1179.26 11928370 11896840 11434580 11187540 12064090 13220290
1182.16 13006020 12565710 13547100 13772370 12325510 12618870
1185.05 13257470 12355650 12859330 14474030 14484580 13980380
1187.94 14587480 14186250 12971190 13744020 14667910 13630960
1190.84 13766370 15515040 15066080 13693140 14854610 15685230
1193.73 14100300 15133930 18452710 17610430 15267610 17117490
1196.62 18864310 18060760 17458500 18169200 18070030 16895070
1199.51 17540450 18719570 18609180 19043680 22168100 23727740
1202.41 21638270 19244320 19413220 20735320 20855010 19801070
1205.30 20377630 20937840 20039270 21169460 23429520 23076910
1208.19 23551230 23795190 21659040 18892370 20133640 23519450
1211.08 22817580 22423480 26824560 27199570 23961180 27913290
1213.98 30699280 25226140 22439390 23559200 22374960 19754530
1216.87 21298590 22911900 20646480 20071470 22357080 21854320
1219.76 21231090 22577040 22565850 20557560 21863760 24532020
1222.66 22464670 20964900 23289400 25815010 28546240 29058030
1225.55 26283040 22644310 23415620 25359700 26325550 28400890
1228.44 26273300 21337940 18267840 19246870 18857310 17033040
1231.33 20780310 27108840 27427130 27125870 28895260 22939620
1234.23 21435230 22505490 19288330 18872380 23288840 22910960
1237.12 20469320 23288290 29842650 31732470 31383430 32392200
1240.01 29523600 26886330 25671840 24437890 25802110 27480690
1242.90 25173710 23674900 25150470 25392970 23405330 23682980
1245.80 24894860 24702400 24386170 25633500 27014040 29270400
1248.69 30826240 30597770 29765390 29243680 28105980 27465530
1251.58 28167400 28589610 28859430 29025740 29609470 30466890
1254.48 29938780 28890560 30966230 33303270 32092380 31369710
1257.37 33001840 32798920 29865990 29062430 31335980 32534130
1260.26 30022390 29759510 32224560 32505770 31791360 31271030
1263.15 31666220 31829050 30237520 30646290 32182790 30542720
1266.05 29078040 32277070 33414680 30927160 31071030 34382530
1268.94 33515950 31504250 32422180 31148980 30347530 32273590
1271.83 30954870 29914370 32512180 31351600 29608790 32930740
1274.72 33092710 29730790 31268070 33624110 30601630 28796930
1277.62 32247430 33580280 30919810 31720810 34611400 32843210
1280.51 30216410 33257110 34773060 32186530 32735710 36211940
1283.40 36076120 34960380 35243700 34796710 33229410 33529610
1286.30 35961880 35561670 32916530 33361010 36371270 37789930
1289.19 36791300 36018980 38000080 37977820 36515060 39417690
1292.08 43112700 45179340 48732070 48847300 45768760 43390680
1294.97 43623020 46812120 44777560 43162820 46942700 46833180
1297.87 43456740 45965300 48150840 45285160 47364790 51290140
1300.76 47870840 46668080 54769220 56833260 48926320 49558320
1303.65 56492100 52958140 47752590 55447680 59677940 52000650
1306.54 51782210 58233200 57828220 58399220 64633020 62841130
1309.44 56827640 55170580 54213160 54834970 59414230 60919600
1312.33 55013380 54045130 56840800 52260550 57208160 67054370
1315.22 59021360 50890550 57372620 69353550 72441220 69490420
1318.12 71784980 64287810 59511870 71866860 79193200 73095260
1321.01 80754230 86144700 70371540 64186510 72433770 75467600
1323.90 66682900 63382110 66971210 68245730 66210440 65035420
1326.79 62049270 59644890 60222270 62605430 64751120 62713050
1329.69 63049250 68842560 84289520 105032400 100133200 76053230
1332.58 63141590 58354740 55974930 57861060 56246710 53820660
1335.47 56900240 57626610 53961700 57119780 60664560 59496780
1338.36 65004960 80020740 85097110 76990080 68423420 64571530
1341.26 63960080 63994440 67331570 65097410 61567240 69825180
1344.15 90954580 110887900 111030600 94197260 85604890 99413170
1347.04 94084960 72377740 70361330 73769380 70943770 64949360
1349.94 62602830 61880180 59201530 61217090 65351700 62809900
1352.83 65255630 72612960 68277900 66317240 72519460 67825750
1355.72 62057780 72513300 77705130 70173880 73982660 74736560
1358.61 63522090 67933100 82902250 76035260 67081520 72107460
1361.51 66134840 62654010 70190680 65361560 58171740 64080280
1364.40 65195080 62050390 62897350 60271880 57275730 59738210
1367.29 59237330 58524190 59643940 58336380 61175490 72242570
1370.18 74564430 67149690 67274500 72588580 68698090 62425830
1373.08 59287600 57297610 55438870 56619350 58159200 59135400
1375.97 56401120 53366290 55867560 54947460 51657160 55260200
1378.86 62323030 64491210 60009670 53356810 52484410 52574020
1381.76 49810790 51360760 51258980 47328970 48455380 53017770
1384.65 54212810 51698940 51826060 52751710 50502750 50700600
1387.54 55389340 57792560 56995880 54705180 50607570 47587790
1390.43 49295800 50460240 49207680 49329350 49878340 49601390
1393.33 50134510 49620410 47995690 48898260 48448250 47825720
1396.22 51121610 49143120 43771850 46765000 51017100 49618340
1399.11 47705830 46793150 44300380 42785900 44048760 44540870
1402.00 41103270 42431180 44255900 42452120 40835290 40695600
1404.90 41514340 40793280 40057040 38245360 35617640 37033240
1407.79 38539260 37832860 38268490 36587320 38854500 42587570
1410.68 39440160 39463090 45892580 51887740 51263810 48206500
1413.58 47453710 46247830 41500160 36472640 35981500 38550060
1416.47 36756400 38963600 43044610 41045400 38955650 38679010
1419.36 38651680 39632780 38455590 35271800 34260900 35639560
1422.25 37216060 38186430 40028570 38979840 37157030 36929060
1425.15 39981380 39369540 33067510 34048440 36582350 37006910
1428.04 36996380 36816490 36731400 38521700 40794230 36807070
1430.93 34474410 37658010 39847550 40348050 37674130 34656150
1433.82 35149350 38485080 37664460 33509180 34810990 40269620
1436.72 39512540 33489230 30158690 31600410 32001790 30490240
1439.61 29515390 30346540 29369460 27527590 27224450 26747860
1442.50 25538180 24008870 22509010 23355650 23731280 20199170
1445.40 18987900 20641520 19259270 17542930 19325140 18272290
1448.29 16097130 17221250 18474270 19819510 20360170 22822300
1451.18 30556850 44801000 56347860 63268740 74073580 77572090
1454.07 80251750 75426660 58000400 44238140 40733100 42739470
1456.97 42281700 40362430 37339950 33335560 31662500 31740910
1459.86 34222660 35650820 35583220 38410100 39539790 36368330
1462.75 35304710 36956600 37664120 37224650 33978230 29157280
1465.64 28557220 29672720 29811670 30235590 31498040 34627270
1468.54 37010120 37103280 37820220 39384840 39178380 38150940
1471.43 40656720 41980500 41378480 41280540 39004620 37266950
1474.32 37586930 35549840 33820460 36292380 42471130 48123660
1477.21 46849370 38770930 37369900 44078820 52201700 43982720
1480.11 30593890 27309480 26761220 27777800 27082880 27817990
1483.00 29036180 30017270 27528400 25535320 24402810 26057100
1485.89 29070100 30809680 29473910 27214790 26837130 26759680
1488.79 25348540 25824680 28191360 29670170 27362490 23698570
1491.68 22340710 23343520 23441920 21640370 21223690 22271680
1494.57 22066860 21687710 24322270 26074810 26218270 27066210
1497.46 30014180 31672000 30425870 27297880 24313490 23976700
1500.36 25103480 25699280 23612760 21559090 20224170 19151740
1503.25 19774190 19740980 19192820 22242630 26501840 25783070
1506.14 24672460 26054260 23207610 20109430 20163220 21695920
1509.03 23009190 24232270 26221790 27237900 25470120 21762340
1511.93 20216020 21406020 21996470 19987060 18022320 20338880
1514.82 24250000 23991050 22928400 24184880 24131480 21323060
1517.71 19719390 20148420 20038630 19234430 20827070 21825360
1520.61 22901030 23111030 22830110 24234050 22832010 20768440
1523.50 19206940 18979320 19273580 20036880 20432490 20470500
1526.39 19860390 18916350 19133400 20931160 19669600 17135730
1529.28 17551230 18849870 19166390 17837750 17530310 17692870
1532.18 18032090 18667840 19169280 18791860 17599040 18248650
1535.07 19152490 19637970 19675630 17929750 17159420 17705030
1537.96 19008590 20547970 19461110 19595380 20189190 17063630
1540.85 16806480 19110100 17317350 14793110 16247430 16120640
1543.75 13624040 14585330 18189230 17221720 14219990 13591930
1546.64 15178550 14630000 12286680 12935750 15386490 14370710
1549.53 12964440 14418980 15327310 13541550 11815990 12681300
1552.43 13715560 12242040 12596060 15116430 14735570 12674970
1555.32 11621660 12209470 13391600 14927720 15236280 16125360
1558.21 16980130 13928180 13091190 14971890 14396740 10724980
1561.10 9163496 10051420 10956720 9671140 9598234 11073380
1564.00 11476460 10096690 9735902 10376460 9947160 8479838
1566.89 8675614 9960890 10248630 9122728 9819144 11395090
1569.78 9577798 7302658 8251736 8826714 7366428 6888906
1572.67 9116680 9377356 7554316 7518720 9082820 9430308
1575.57 10845890 10281090 8809356 7541210 6758712 7677136
1578.46 8087652 6749554 6057994 6856554 6811364 5597752
1581.35 5563656 6417246 6371208 5638712 5650990 5974800
1584.25 5740160 5273260 5598102 5747884 5219586 5008630
1587.14 5677970 6187756 5483830 4897762 5525406 5596466
1590.03 4642676 4556784 5273150 5165372 4660372 4792124
1592.92 5054096 4696260 4448934 4686818 4830574 4484906
1595.82 4373636 4885200 4951136 4318044 4159292 4527542
1598.71 4417940 3911082 3991904 4155126 3840020 3649092
1601.60 3816490 3840282 3820770 3815614 3734758 3701076
1604.49 3879752 3879406 3692288 3571008 3552174 3362842
1607.39 3175970 3085446 3097010 3114174 3050176 2932656
1610.28 2912768 2750950 2781058 2989014 3018186 2784678
1613.17 2930920 3057226 2942704 2826104 3084740 4074490
1616.07 6628790 5959338 3442126 2835482 2626616 2562658
1618.96 2459188 2372432 2320234 2401320 2447308 2417184
1621.85 2493154 2802150 3647404 3648134 2636458 2346754
1624.74 2339636 2452652 2312174 2138598 2237228 2841730
1627.64 2825938 2279682 2039698 2022432 1974038 1946748
1630.53 2008038 2020894 1952440 1945256 1918336 1952342
1633.42 2020996 2436194 3581918 5381882 5270864 2905318
1636.31 2213476 2555298 2460752 1976582 1898428 1796620
1639.21 1735708 1788804 1834516 1658962 1637658 1723188
1642.10 1775442 1662412 1685446 1726378 1742174 1799992
1644.99 3201846 4839472 3516538 2330220 2551414 2475474
1647.89 2490582 1922288 1745106 1762940 1812746 1718176
1650.78 1782710 2882822 6066908 7179246 7500012 5390346
1653.67 3364280 3338994 2193502 1726958 1522072 1503044
1656.56 1500204 1530968 1415116 1409522 1391038 1497176
1659.46 1523916 1531834 1504684 1587710 1600054 2241602
1662.35 2888832 2207668 1523704 1474542 1502526 1608382
1665.24 1518370 1466450 1442244 1460668 1486672 1773624
1668.13 2086854 3282964 3346722 1956116 1495372 1891066
1671.03 2285418 1758080 1352290 1341280 1375936 1423968
1673.92 1670498 3098024 3976402 2536644 1526406 1441410
1676.81 1407008 1403360 1364742 1332112 1390874 1579924
1679.71 1729866 1713838 1518950 1451404 1396682 1859960
1682.60 2758442 2990316 3333464 6102982 6776272 3100332
1685.49 1617500 1390382 1435262 1344300 1470922 1605284
1688.38 1507494 1355212 1648296 1705584 1550790 1360890
1691.28 1410070 1399566 1391122 1278590 1337026 1354232
1694.17 1633248 2736678 6046954 6397434 2868996 1601344
1697.06 1655584 1540840 1408484 1637422 3360678 5624304
1699.95 5678728 4315956 2327728 1463706 1283828 1297654
1702.85 1336436 1533668 2115258 1990318 1394008 1584556
1705.74 2139170 1909502 1373248 1214100 1110690 1104648
1708.63 1060732 1218350 1373450 1384030 1282078 1170258
1711.53 1042334 1129716 1176834 1325412 1610214 1739008
1714.42 2344052 2445518 1564548 1412092 2701972 5304310
1717.31 4065394 2538040 2667094 1804352 1251104 1115590
1720.20 1111618 1110852 1163148 1230992 1230686 1285124
1723.10 1379844 1245902 1163906 1158394 1132806 1117786
1725.99 1134300 1171734 1221916 1227578 1203880 1166582
1728.88 1406796 1634732 1501168 1212484 1182370 1163648
1731.77 1300122 2049522 3965358 3722972 3679302 4503196
1734.67 2458824 1266718 1147620 1203872 1166196 1209266
1737.56 1065982 1097072 1254768 2264156 2764674 1730170
1740.45 1114482 1099450 1125978 1216932 1381706 1432256
1743.34 1269264 1200018 1127834 1096262 1200502 1256074
1746.24 1331050 1469012 1339268 1453034 1758388 1630440
1749.13 1354464 1286868 1650820 2907164 2980232 1559836
1752.02 1052098 1102066 1160978 1116814 1056038 1071566
1754.92 1048174 1072642 1555244 2008942 1457598 1114824
1757.81 1139308 1152086 1066292 1091292 1101970 1108486
1760.70 1461552 2452200 2203502 1297710 1058856 1088472
1763.59 1101868 1025368 1041628 998932 991462 1064778
1766.49 1110226 1335262 2213130 2100044 1140104 974324
1769.38 1035708 1203080 1645582 2088586 1652778 2541694
1772.27 3758054 2265982 1116592 1032918 1069056 1235588
1775.16 1358460 1160886 946296 922516 990292 1044726
1778.06 1058176 1053754 1030088 1171816 1443928 1388544
1780.95 1056446 997276 970960 1012184 1005336 1034422
1783.84 1226168 1679792 1468454 1052638 961166 1002980
1786.74 1034758 1065064 1071322 1089404 1061378 1085798
1789.63 1119954 1478464 1619520 1262030 1601832 2812070
1792.52 2430550 1315298 1109880 1091370 1116140 1168342
1795.41 1243510 1222446 1154474 1078046 1098952 1112686
1798.31 1129010 1457516 1644660 1273008 1171244 1305460
1801.20 1269870 1323976 1361688 1092840 1060558 1065784
1804.09 1040146 1056292 1006580 991784 979748 996868
1806.98 1112662 1131216 1147016 1144316 1127218 1226594
1809.88 1494392 1517868 1200220 1103458 1136392 1099326
1812.77 1039926 1048874 1101574 1069054 1033220 1093298
1815.66 1110754 1066210 1110004 1201694 1138882 1114318
1818.56 1152148 1123116 1038952 1027394 1065318 1074496
1821.45 1035994 1061344 1150308 1126522 1078954 1185958
1824.34 1638756 1939354 1432818 1137802 1151102 1232210
1827.23 1212016 1195772 1367542 1582770 1747554 2024360
1830.13 1528230 1087170 1031796 1059088 1118346 1188540
1833.02 1170588 1102052 1117918 1112878 1122788 1161412
1835.91 1198892 1322410 1333480 1201388 1180524 1183692
1838.80 1127752 1106738 1134468 1099532 1091820 1158176
1841.70 1215592 1212970 1252040 1808402 3078478 2610532
1844.59 1448868 1257726 1237368 1208512 1112592 1201832
1847.48 1276386 1165750 1120336 1139452 1112022 1085374
1850.38 1108402 1160600 1101990 1080830 1084350 1121262
1853.27 1092914 1077472 1118760 1189600 1137406 1067472
1856.16 1047340 1100520 1105578 1108818 1141382 1141728
1859.05 1132600 1152060 1118380 1096910 1127408 1148438
1861.95 1107010 1107682 1118700 1104192 1087954 1137798
1864.84 1176440 1178426 1259960 1254074 1313078 1507534
1867.73 1449702 1463810 1973050 1771458 1260900 1285680
1870.62 1227052 1176616 1151104 1124854 1096846 1127536
1873.52 1069692 1125366 1158624 1158080 1133766 1112538
1876.41 1165774 1153848 1120966 1126118 1067612 1047474
1879.30 1112082 1152690 1161728 1163618 1117138 1105012
1882.20 1071302 1078890 1144034 1233196 1159598 1118728
1885.09 1143250 1172828 1194134 1167580 1118592 1123840
1887.98 1169238 1347414 1591344 1449816 1185118 1144324
1890.87 1061942 1036242 1082006 1166276 1155510 1117966
1893.77 1105594 1208660 1255690 1177312 1163310 1153852
1896.66 1110068 1117520 1128660 1158600 1178790 1150166
1899.55 1054790 1057064 1080818 1080138 1094884 1070826
1902.44 1046310 1105686 1138522 1196242 1169728 1119094
1905.34 1144080 1138294 1093402 1133672 1170226 1148776
1908.23 1103062 1109134 1158962 1150208 1033734 1055770
1911.12 1173292 1261776 1202178 1146794 1091838 1049036
1914.02 1030890 1077348 1133094 1144190 1077494 1021694
1916.91 1216056 1801974 1636242 1129366 1049486 1056642
1919.80 1052942 1052156 1139252 1212092 1193722 1213560
1922.69 1271170 1158320 1037158 1032450 1074854 1087762
1925.59 1054156 1016642 984510 1013038 1090510 1111774
1928.48 998134 948770 979294 1006138 1001474 982540
1931.37 996528 1003034 1019774 1024316 986680 1022626
1934.26 1096764 1109708 1064866 1060260 1076118 1038428
1937.16 1017876 1065174 1031454 971172 964160 993576
1940.05 974852 971150 1035212 1149924 1363002 1262056
1942.94 1068210 1104338 1106952 1037728 1006226 998780
1945.84 999070 959792 1012036 1101714 1104712 1079052
1948.73 997680 952064 903992 866168 773322 797466
1951.62 953052 1063796 1025980 963066 933698 921652
1954.51 877746 889528 953614 1068516 1058354 1055710
1957.41 1007264 914300 861026 843452 795180 834138
1960.30 1056894 1179428 1049960 920440 873516 832652
1963.19 805352 904078 1102700 1260026 1142356 966406
1966.08 906668 1025908 1047408 890994 910496 1116022
1968.98 1232326 1091608 1016696 1016670 959640 877286
1971.87 803804 895092 1254660 1392514 1210564 1016310
1974.76 866068 913360 1032284 1139818 1277744 1322206
1977.66 1157846 1098404 1227060 1273798 1081530 985750
1980.55 1109490 1377790 1491902 1414852 1288284 1185176
1983.44 1105318 1118180 1349200 1676970 1735362 1446912
1986.33 1252786 1387538 1668078 1772080 1452334 1317532
1989.23 1684750 2129678 2253728 1897934 1572008 1508344
1992.12 1805784 2296838 2469174 2147858 1774340 1926368
1995.01 2294128 2517762 2253864 1935940 2085140 2572994
1997.90 3066656 3145874 2470504 1924560 2187036 3020104
2000.80 3653930 3280814 2441540 2564044 3465064 4038304
2003.69 3410330 2511584 2766832 3965546 4764768 4327112
2006.58 3030850 2850650 4075666 5049238 4796758 3578100
2009.48 3266040 4572546 5646574 5274476 3606704 3440596
2012.37 5223368 6667144 6137582 4096822 3988780 5922188
2015.26 6983874 6171498 4541194 5309466 7043642 7612252
2018.15 6124108 4645940 5950300 7881276 8389144 6612444
2021.05 5754278 7278980 8714886 7990930 5974852 6553752
2023.94 8850274 9556232 7721038 6333328 8092940 9912926
2026.83 9193466 6866988 7278242 9598834 9883462 7602774
2029.72 6538326 8981428 10534990 9110428 7163840 8669624
2032.62 10345450 9421484 7220498 8195814 10428990 9996964
2035.51 7811226 7917262 9868056 9768634 7653544 7705146
2038.40 9570766 9302504 7284696 7188450 8866094 8755136
2041.29 7194972 7571258 8925516 8101548 6511200 6946418
2044.19 7967494 7386960 6849936 7707450 8160692 7325032
2047.08 7231066 8099370 8430240 8696270 9838128 10667290
2049.97 10904310 11858760 13574950 15356870 17602830 20082630
2052.87 22360810 24265190 23190470 17430880 10177620 5820428
2055.76 4961290 4893626 4946338 5083512 5182382 5123000
2058.65 5620052 5898178 5547662 5910814 6484984 6417534
2061.54 7242532 7818436 7763436 8894486 9569318 9811596
2064.44 11069660 11195960 11663050 12419280 12456910 13730580
2067.33 14157140 15052350 16004170 16554700 17535550 17303100
2070.22 18313330 18430520 18750720 19305050 19183440 19910450
2073.11 19977510 20162030 20150070 20646990 20089290 20559370
2076.01 20008610 20421700 20294490 20089000 19581530 19338210
2078.90 18740460 18334300 17878010 17259510 16762340 16225450
2081.79 15418360 14606760 13879380 13193710 12560360 11754140
2084.69 10788140 9900284 9105336 8343092 7742956 7283602
2087.58 6345594 5297872 4526496 4116442 3961882 4227150
2090.47 4083450 3655166 3648930 3838478 3942870 4531582
2093.36 5074404 4804336 4074656 3201714 3254816 3671920
2096.26 3442606 3352986 3402486 3550006 4135514 4364122
2099.15 3515100 2614940 2073386 1965768 2094328 2199202
2102.04 2352450 2884680 2874244 2354780 2580308 2866556
2104.93 2633384 2871982 3198526 3258352 3661268 3667928
2107.83 3479962 3569876 3387702 3435176 3815360 3749504
2110.72 4102278 4335674 3902114 4110934 4066424 4121632
2113.61 4472326 4389142 4728924 5200822 4801624 4493434
2116.51 4213696 4399396 4461722 4205644 4539480 4872990
2119.40 4864096 4622828 4551404 4611678 4111406 4091422
2122.29 4428916 4633468 4691054 4171788 3940348 3909402
2125.18 3806936 3966558 3837570 3825042 3678980 3290056
2128.08 3081364 3035418 3077030 3082078 3201034 3160738
2130.97 3224608 3006202 2801928 2661146 2438146 2394904
2133.86 2552348 2603714 2706314 2560240 2156012 1889206
2136.75 1839436 1937016 1906936 1853022 2004678 2016316
2139.65 1856774 1788912 1824040 2088810 2620928 2741932
2142.54 2706710 2582984 2437688 2302316 1933004 1687312
2145.43 1765414 1854506 1997530 2131088 2098296 2137254
2148.33 2280456 2835490 3453106 3162120 3154636 3306950
2151.22 3036200 2832396 2502258 2260716 2169752 2422340
2154.11 2906366 3113288 3009754 2928984 2964998 2924306
2157.00 2834336 3063770 3116990 2891616 2854484 2906500
2159.90 3051500 3050150 2850074 2938684 2759748 2532748
2162.79 2604398 2789148 3108696 3368496 3552106 3536746
2165.68 3090402 2860434 2760954 2745988 2898330 3150812
2168.57 3412934 3208740 2770686 2655796 2722392 2809348
2171.47 2823416 3261338 3506450 3099282 2941472 3033678
2174.36 3150132 3255046 3532654 3652490 3154044 2870008
2177.25 2993448 3084022 3041080 3320364 3610920 3312818
2180.15 2904960 2723622 2659126 2711970 2776348 3058378
2183.04 3039206 2721842 2611352 2664988 2737942 2831772
2185.93 3275168 3389188 2994148 2725502 2564842 2560334
2188.82 2634444 2934462 2962102 2708774 2556022 2476486
2191.72 2501146 2567156 2728448 2640822 2350552 2329554
2194.61 2391192 2353864 2484386 2734388 2555184 2382010
2197.50 2312958 2327822 2422596 2489582 2513168 2437170
2200.39 2285168 2232408 2402344 2552072 2532196 2468020
2203.29 2353254 2208996 2052178 2098942 2251110 2414842
2206.18 2394938 2298868 2349560 2365680 2322434 2484244
2209.07 2535540 2348070 2427980 2663140 2512112 2346902
2211.97 2253704 2189062 2166816 2180324 2276790 2350468
2214.86 2265950 2327080 2339578 2303656 2405426 2479238
2217.75 2400214 2379208 2294806 2272630 2380736 2438022
2220.64 2488156 2557734 2355584 2252602 2260774 2228868
2223.54 2186128 2157318 2120952 2159976 2152942 2125328
2226.43 2189782 2143540 2064024 2134108 2209500 2189428
2229.32 2119034 2139896 2214618 2219244 2170150 2150598
2232.21 2197840 2142588 2012888 2067568 2116184 2135366
2235.11 2223484 2293122 2159710 2106966 2184178 2159212
2238.00 2142668 2122164 2108690 2035710 1945868 1894738
2240.89 1892168 1916784 1920858 2010776 2083862 2055690
2243.79 1960396 1988030 1976662 1882976 1931606 2002318
2246.68 1975776 1970870 1996294 1994786 2038320 2048814
2249.57 2019114 1996090 1971858 2046932 2166514 2206498
2252.46 2125334 2082160 2177850 2225726 2203822 2277720
2255.36 2178728 1967044 1929894 1985358 1917316 1915656
2258.25 2032484 2071438 2023314 2013454 2057718 2103084
2261.14 2047400 2095288 2168104 2155334 2043124 1963702
2264.03 1943086 1994642 1985930 1987232 2051480 2087118
2266.93 2099574 2167668 2189666 2094716 2047550 2116566
2269.82 2151012 2103342 2036414 2057614 2132312 2176838
2272.71 2095208 2082694 2165158 2119846 2043018 2085142
2275.61 2156756 2182812 2154072 2183224 2271946 2312716
2278.50 2175376 2106986 2199354 2232224 2254900 2226586
2281.39 2209046 2223132 2120030 2120640 2208796 2243582
2284.28 2250128 2227538 2248254 2334540 2345936 2396398
2287.18 2400766 2428288 2426766 2403670 2451414 2485490
2290.07 2363914 2300246 2377678 2471266 2381088 2343732
2292.96 2429902 2551738 2511292 2498174 2550794 2575740
2295.85 2460752 2489504 2511598 2511934 2553072 2561958
2298.75 2558584 2563694 2600910 2690506 2604978 2502642
2301.64 2483606 2604090 2545286 2467134 2525352 2576222
2304.53 2526704 2473336 2470992 2450248 2401416 2480416
2307.43 2630048 2557562 2506084 2591320 2594156 2604154
2310.32 2630810 2702852 2730572 2782290 2882814 2930786
2313.21 2862502 2858920 2859758 2864978 2803330 2680180
2316.10 2681744 2827848 2787730 2666874 2734982 2812790
2319.00 2671176 2568094 2677986 2782152 2653832 2633284
2321.89 2859712 2997960 2871330 2896966 3045416 3031720
2324.78 2964206 3053618 3158416 3234304 3104574 2992552
2327.67 3003894 3145042 3289730 3342214 3387430 3354634
2330.57 3108298 2875992 2918044 2999628 2951580 3057310
2333.46 3236570 3159314 2997788 3038200 3067096 2990186
2336.35 2932740 3088048 3204742 3284052 3376124 3374710
2339.24 3216884 3214760 3279906 3279740 3220164 3152904
2342.14 3337634 3566430 3501270 3429996 3661604 3849872
2345.03 3588996 3516806 3804246 4033064 3887356 3554076
2347.92 3358804 3402584 3363096 3323618 3314454 3407656
2350.82 3514814 3541434 3531354 3493616 3344680 3263654
2353.71 3398940 3690740 3713580 3502264 3422120 3514816
2356.60 3596576 3572876 3692640 3903828 3723600 3482406
2359.49 3473824 3496630 3523282 3610464 3749478 3992708
2362.39 3913104 3752164 3774754 3816172 3812362 3871770
2365.28 3915972 3769672 3468196 3524110 3605744 3496622
2368.17 3549282 3717184 3737188 3686948 3665584 3913292
2371.06 4128686 4199710 4221942 4456602 4548316 4306648
2373.96 4020976 3889476 3664060 3562090 3567000 3741938
2376.85 3923896 3953096 3959980 3969566 3860784 3824236
2379.74 3700060 3480884 3545730 3771944 3758066 3744324
2382.64 3900022 3771706 3380190 3358692 3451188 3384086
2385.53 3406132 3508116 3593974 3688548 3681268 3703218
2388.42 3661500 3534986 3549930 3600426 3638962 3781100
2391.31 3795216 3750850 3791596 3963150 4096966 4324470
2394.21 4278268 4014908 3815204 3651552 3473166 3443988
2397.10 3504528 3630640 3756832 3864528 4070164 4224226
2399.99 4199964 4200894 4123076 3772738 3554634 3624168
2402.88 3694276 3827350 3994944 4270516 4423260 4399576
2405.78 4358274 4397164 4426692 4401668 4240790 4135488
2408.67 3977014 4053028 3988846 3886812 4007610 3913038
2411.56 3727058 3865212 3897698 3979206 4126340 4136666
2414.46 4017226 4040778 4199948 4186176 3981010 3895520
2417.35 3734056 3608362 3751488 3757418 3591134 3421378
2420.24 3232446 3341622 3424940 3446902 3511664 3524478
2423.13 3483756 3459440 3513522 3659906 3809696 3791222
2426.03 3846656 3876266 3566544 3470124 3548110 3421884
2428.92 3381890 3458424 3399822 3391652 3137332 3039550
2431.81 3165020 3169594 3185434 3259920 3290822 3258580
2434.70 3109328 3051688 3102912 3107744 3048526 3019990
2437.60 2969016 2988938 3003800 3103760 3088560 3099428
2440.49 3117670 2948788 2978946 3206706 3234728 3119120
2443.38 2964714 2873186 2953428 3015250 2946278 2786934
2446.28 2664774 2659470 2655214 2709994 2743498 2812248
2449.17 2975354 3165916 3178638 3057924 2805258 2637860
2452.06 2671556 2767544 2731106 2819478 2783176 2711156
2454.95 2767110 2723792 2645314 2651792 2644964 2667130
2457.85 2654690 2715046 2737980 2751806 2722990 2712682
2460.74 2771940 2795526 2614354 2545558 2595716 2553930
2463.63 2430954 2508720 2634860 2694234 2694482 2586636
2466.52 2451934 2537656 2652328 2673940 2585392 2516750
2469.42 2561500 2651406 2646620 2742532 3040356 2979996
2472.31 2567844 2456098 2479136 2527290 2441064 2367926
2475.20 2435456 2406694 2374872 2349238 2338982 2430616
2478.10 2483666 2444050 2419564 2345058 2238676 2415852
2480.99 2566922 2522128 2510864 2595412 2516250 2474400
2483.88 2576488 2672172 2661908 2572732 2468872 2529696
2486.77 2447052 2366370 2419022 2427744 2405640 2521608
2489.67 2643150 2572028 2501616 2548114 2565216 2537276
2492.56 2432202 2426940 2475992 2471644 2471644 2582548
2495.45 2638370 2584628 2449816 2351402 2323246 2402594
2498.34 2414452 2491010 2575890 2626818 2643374 2513986
2501.24 2330766 2339782 2456286 2460310 2399314 2449066
2504.13 2398500 2276104 2251284 2272888 2356796 2492354
2507.02 2416808 2420474 2511532 2563654 2473254 2446166
2509.92 2540576 2589414 2461458 2366480 2388276 2540016
2512.81 2586232 2562104 2461124 2479150 2572666 2528758
2515.70 2489156 2601000 2624504 2586878 2585318 2652946
2518.59 2728470 2659256 2604740 2698906 2716362 2785958
2521.49 2725326 2671716 2814046 2914726 2791910 2780638
2524.38 2876078 2989258 3056214 3062732 2974922 3033694
2527.27 3021958 3006244 3019094 2942350 2811570 2850782
2530.16 2884518 2835068 2780920 2925950 3024768 2936950
2533.06 2880756 2960726 2976862 2968538 2973650 2945610
2535.95 2825326 2949822 3026440 2958660 2909720 2981358
2538.84 3099524 3232124 3202774 3158896 3176432 3084844
2541.74 3037214 3089472 3074886 3066400 2961070 2925266
2544.63 2972468 2950316 2926936 3043562 2951738 3021380
2547.52 3191908 3074904 2877860 2958872 3015654 2941430
2550.41 2943792 2924152 2972216 3221260 3297994 3326342
2553.31 3360588 3300280 3242564 3287226 3303970 3250770
2556.20 3167396 3094162 2967506 2948598 2926134 2959154
2559.09 2905756 3012608 3285240 3401840 3342218 3310780
2561.98 3306582 3153150 3053224 3197202 3245270 3173176
2564.88 3198944 3346434 3330226 3311190 3224910 3220442
2567.77 3233504 3282630 3275206 3421148 3526672 3504328
2570.66 3562236 3621342 3490354 3477070 3615256 3746612
2573.56 3725226 3785606 3906536 3818036 3636152 3649282
2576.45 3604134 3589348 3716160 3895438 3824772 3775040
2579.34 3799940 3777012 3754410 3853304 3968926 4128710
2582.23 4273484 4305840 4142890 4059784 4016296 3914786
2585.13 4079200 4414188 4587096 4526860 4323010 4364272
2588.02 4363264 4266832 4383180 4523196 4419896 4627768
2590.91 4782128 4632500 4717670 5006714 5005188 4955444
2593.80 5326920 5452266 5015462 4932360 4980742 4983126
2596.70 4888600 4867540 5088544 5272492 5101580 5215896
2599.59 5336680 5102586 4983582 5058350 4859502 4784592
2602.48 4875738 4976696 4906792 4652408 4495542 4799046
2605.37 5014450 4858484 4914008 5090362 5018132 4917928
2608.27 4853780 4888022 4787410 4820542 5042040 5189824
2611.16 5190744 5367454 5729720 5789818 5345390 5130796
2614.05 5060578 5122546 5252938 5204844 5162426 5198926
2616.95 5110852 5014836 5374524 5926630 5899042 5670870
2619.84 5524270 5400442 5438614 5655022 5601804 5624486
2622.73 5655888 5558378 5528950 5625188 5654456 5661888
2625.62 6008836 6225720 5899536 5974560 5969228 5785750
2628.52 5539230 5638682 5680332 5579168 6036168 6597236
2631.41 6265258 5769460 5962920 5945194 5540600 5557610
2634.30 6083820 6265368 5841194 5767822 5784522 5475370
2637.19 5521252 5922706 5656042 5176948 5180744 5312456
2640.09 5283740 5339696 5526932 5599708 5155700 4655978
2642.98 4662030 4795076 4781132 5035696 5079764 5123480
2645.87 4893032 4621090 4704348 4788014 4931858 5402816
2648.77 5831092 5955036 5529346 5357218 5153366 5018798
2651.66 5028092 5068064 4929762 4792844 4771520 4891492
2654.55 4964190 4971992 4853612 4967458 4925982 4872002
2657.44 5062306 5239148 5234668 5324320 5404532 5402390
2660.34 5487034 5531200 5106910 4674232 4556956 4504916
2663.23 4626836 4887598 4803872 4922828 5412536 5462380
2666.12 5234922 5219680 5027168 4781742 5034404 5290810
2669.01 5020752 5128434 5313262 5429662 5832148 5680678
2671.91 5130862 5331584 5400436 4912932 4857158 5014756
2674.80 4947538 5041942 5067416 5068376 5165816 5176596
2677.69 5094616 5322960 5409470 5412992 5508840 5275074
2680.59 4944262 5161314 5161016 4989998 5106898 4991814
2683.48 4813890 4950458 4886802 4935836 5099208 5087696
2686.37 4882752 4842646 4838788 4859758 4745232 4550650
2689.26 4549464 4657808 4596136 4634086 4717902 4820816
2692.16 4919944 5016988 4839240 4778784 4819150 4956918
2695.05 5361918 5179086 4720366 4951644 5218342 5086334
2697.94 5057094 5111632 5183918 5183862 5212240 5179296
2700.83 5152414 5301580 5394580 5342696 5007994 5073392
2703.73 5403362 5336238 5213614 5381084 5315026 5089490
2706.62 5069342 5426904 5117186 4947406 5347544 5565052
2709.51 5377386 5577568 5845242 5753764 5426390 5321686
2712.41 5267254 5332488 5287732 5299720 5451564 5483426
2715.30 5278520 5160182 5069340 5103860 5039126 5010962
2718.19 5133444 5453954 5467874 5456528 5747140 6052964
2721.08 5981262 6024564 6030290 5645888 5636418 5942552
2723.98 5762622 5670100 5802240 6171726 6336830 6465500
2726.87 6778966 6875026 6469328 6202142 6191752 6209270
2729.76 6351142 6455262 6105968 6175208 6601346 6626566
2732.65 6642766 6810318 6750232 7003406 7329034 7261660
2735.55 7169540 7673548 8417376 8886538 8780258 8521966
2738.44 8310436 8280626 8197720 8144356 8500552 8637978
2741.33 8289782 8363868 8708374 8650260 8371854 8710312
2744.23 9177082 9014308 8957180 9379742 9527384 9413902
2747.12 9187082 9429726 9778768 9943704 10066190 10311990
2750.01 10534210 10924260 10628890 10570700 10844310 10862950
2752.90 10482880 10165970 10017330 10593730 10935470 10697070
2755.80 10973080 11668930 11458560 10976040 11017120 11325360
2758.69 11458640 11757570 11838700 12041890 12095040 11901690
2761.58 11645480 12116810 11997030 12307520 13468890 13911960
2764.47 13424870 13153160 13395140 13835860 13973700 14037740
2767.37 14138870 14390770 14459300 14851270 15097240 15136070
2770.26 15570390 16440510 16580640 16296170 16301800 16766760
2773.15 16762600 16716950 17140110 17596950 18297830 19300260
2776.05 18806450 18094610 18303990 18682780 18718050 19130180
2778.94 19669640 19632860 20648240 21858580 21545110 21751070
2781.83 23342430 23022030 22120720 23222890 23872060 23592540
2784.72 25208660 26649820 25037580 24108970 25190300 26379900
2787.62 26298480 26812020 28387600 29225800 28712800 28850810
2790.51 29939170 31506250 32892010 33476100 34278800 34989320
2793.40 35232470 34787160 34322640 35279960 37297840 38535060
2796.29 38868830 39695300 41208640 41911370 42883740 45567890
2799.19 48373630 48232420 47132620 48560530 50743590 52528990
2802.08 54149090 55211280 57048420 59576580 60153860 59973800
2804.97 63430570 66475200 65858690 67066610 72185610 73426700
2807.87 72841390 75274000 81223420 81512720 79892100 83488730
2810.76 88827410 90058420 89430370 92271040 96077940 99452770
2813.65 98890430 101288100 106267600 110020200 108457400 108449400
2816.54 114039600 118230300 117632400 114455600 119786400 126929700
2819.44 126761600 126873200 133503300 134707900 129524100 130087800
2822.33 136622200 136791200 129444300 130199500 139787400 140110400
2825.22 130592900 137529300 144969600 133670500 129863600 139086900
2828.11 136311000 129656400 133704200 135959900 130031600 129302800
2831.01 130891500 129154400 126827200 126309300 119996700 113400700
2833.90 119542100 125529400 118552300 109781000 107526700 108126400
2836.79 108000000 112525200 118842400 127419100 130306000 126701300
2839.69 120737900 114875200 128853400 155178600 173669100 189406700
2842.58 211724600 225861200 257913000 256463400 205410400 179999200
2845.47 185853300 164274700 141982600 130012500 130574400 132019600
2848.36 121199700 112900400 107834500 106752700 109056500 106383600
2851.26 114342400 121127000 112292000 115331000 130925300 134022500
2854.15 133714900 141844600 148635300 148907500 153993600 166149300
2857.04 169659800 167553200 175488500 180917000 180261300 186658900
2859.93 192603700 191381100 194661900 198578900 198729400 202762800
2862.83 209615000 211678000 207957900 207599100 214288800 211580600
2865.72 206909200 213562900 205834400 197147800 206275000 208344500
2868.61 198103300 200391700 198028900 189701400 195927600 200141200
2871.51 193542700 195051100 194359200 185055600 177979100 181527500
2874.40 196680400 196693200 176902100 172845600 173175200 167793400
2877.29 169790500 172360900 161904700 152951700 160884800 166661400
2880.18 162405300 172318100 172589800 152696600 145065100 148888200
2883.08 147895500 142811800 141510000 135970000 134187700 144100600
2885.97 150216600 156438600 159516800 155235500 140826100 133079900
2888.86 135291400 137956000 135563000 133089000 135259300 144895500
2891.75 162309800 187802300 185321400 160533700 151512200 151609700
2894.65 151318000 150748900 149665000 148521300 152674000 157997500
2897.54 160417000 161094000 168898300 175142600 171566500 167758500
2900.43 170499500 175124000 199380000 212996800 196618500 180189700
2903.32 181584900 183792700 186433900 187718100 186858000 195032600
2906.22 200030500 199642700 210387000 221379600 226175200 233138700
2909.11 225422400 220078100 220427600 220856000 223423000 225365500
2912.00 222861700 222489800 234130300 244380900 246781200 239987600
2914.90 238064700 248942800 251766000 245935400 251878200 257445400
2917.79 267422000 283669500 299531000 308695700 315035500 309760200
2920.68 295731700 297502600 315598500 310636100 315744500 328716400
2923.57 324525700 305616200 285856800 285220700 284188700 270958500
2926.47 262967500 259548900 251325900 267762200 291445600 279176100
2929.36 260442400 261553200 260678900 257402700 270784000 278262200
2932.25 273821500 285384000 296079500 300076500 302212900 308809300
2935.14 311993900 313515700 324181200 327992800 316626600 316377200
2938.04 314253800 308045000 318819800 333959700 317408900 301082000
2940.93 303310600 315087300 331479700 321020000 305278500 307514000
2943.82 305097200 302446300 298534800 295463400 305047500 317706900
2946.72 306893800 311278800 312540000 302014800 322214600 346899500
2949.61 316297000 290525500 312624800 329793800 319252800 304643200
2952.50 298279500 308286800 304882100 297110800 298494000 304716100
2955.39 290594000 264906800 284707500 324582000 343824900 331319900
2958.29 310001300 301239900 285372600 269262100 281594900 286663500
2961.18 277640200 291707200 311781500 323274100 324233200 318588900
2964.07 317802600 325485200 345151700 342429300 326610800 347137500
2966.96 366542800 363743400 348906000 324550800 304349000 298940700
2969.86 306670400 320892400 340503500 353404000 353486300 350237100
2972.75 369995600 363891300 344707700 333943200 331695400 326399600
2975.64 289864400 282954100 316895300 320162900 293988800 291275800
2978.54 300843200 332764000 342577500 326408100 337902800 396477600
2981.43 427830500 366156800 311857200 296241800 282298500 272146600
2984.32 280963900 292881400 269632500 272730000 297571600 272539000
2987.21 246960200 264064500 277800200 259586400 231335000 222376000
2990.11 237820500 246857000 241111900 253568600 266198700 245166600
2993.00 221790000 208761200 199363000 198750700 210151200 218703600
2995.89 225430600 221281000 198785900 180355800 169959700 163500800
2998.78 169078100 179017100 178122500 190068700 210503000 203691400
3001.68 185780800 176065800 175175900 177375300 175954400 174881800
3004.57 201449000 242373900 225068300 191094400 177899600 168597700
3007.46 168671200 182790500 189264800 184994900 192780500 219466200
3010.36 213068300 176385800 166858400 175490600 164772500 150360200
3013.25 158918200 168044800 156725500 148849300 171330100 187688800
3016.14 165286900 155696200 148604600 134711900 128867300 122914000
3019.03 121541400 129042400 126621500 119038900 122928500 132970700
3021.93 136392000 146960400 156733000 138578200 117688400 102851000
3024.82 105872100 118269000 119487400 114506500 112186900 107867400
3027.71 105388300 117016000 128333800 120481400 105290700 101065900
3030.60 110580100 124813400 124355900 108476300 106657900 110496400
3033.50 97607450 91197060 95376170 92158860 95446860 106899100
3036.39 98287180 86253380 88114730 84732870 77976350 78650940
3039.28 79380020 76800650 77206260 81118780 87970850 91023940
3042.18 87394390 82736820 77443800 76307980 74457510 67715830
3045.07 62749380 66690600 71726040 68593460 63310420 60352550
3047.96 58690690 59546410 62021130 57724420 50545690 48487980
3050.85 49865140 48423380 48951760 55563220 59088260 54087020
3053.75 50056040 51786650 50784940 46654970 47234910 47546910
3056.64 44965710 42367180 41628330 43856020 44806880 41269180
3059.53 40836920 44035640 43763830 38120270 35640660 38261550
3062.42 40775080 37560380 35737200 38759650 39624530 35488200
3065.32 34928020 37659280 37204060 33443770 32391500 32619430
3068.21 31223310 29275110 28860610 28994680 28340380 26671690
3071.10 26210020 26801140 26875300 25249550 24927520 24864540
3074.00 23268490 22516380 24343630 24439090 22233730 21321240
3076.89 21978570 20819840 19401990 20179790 20910960 19512930
3079.78 19122600 19849950 19147020 17464170 17295580 17154440
3082.67 16473210 15635630 15567910 15899380 15016190 13776470
3085.57 14424740 14847230 13443610 12587710 13746180 13878830
3088.46 12527980 12021720 12689710 11974530 10899370 11446200
3091.35 12043890 10805600 10058190 10506520 10512650 9532458
3094.24 9284574 9569904 9250238 8685538 9019558 9188836
3097.14 8893512 8519324 8344268 8175284 7918840 7591384
3100.03 7733844 7616860 6970240 6948704 7381528 7027068
3102.92 6615090 6633038 6744194 6448652 6365516 6496692
3105.82 6149612 5884110 5789560 5566784 5647658 5517284
3108.71 5330212 5315974 5308332 5146136 4901486 4881648
3111.60 4909756 4524522 4344444 4607468 4608424 3964870
3114.49 3949384 4112792 4037200 3991984 4151538 4135616
3117.39 4209168 4126218 4126082 4060720 3754760 3548074
3120.28 3710836 3713928 3505894 3513748 3665976 3451222
3123.17 3380016 3340568 3123570 3007586 3150794 3069446
3126.06 3117830 3319514 3369834 3153856 3058664 3149582
3128.96 3065756 2954968 3126384 2969330 3037672 3318024
3131.85 3322682 3089518 2982856 2909300 2805554 2651282
3134.74 2681984 2697932 2657156 2649276 2855048 2898684
3137.64 2636242 2435930 2298178 2222524 2524494 2618598
3140.53 2485904 2291906 2428994 2519942 2684118 2813400
3143.42 2680964 2377986 2440806 2396718 2397896 2286090
3146.31 2164272 2206788 2298150 2208498 2294000 2382564
3149.21 2407336 2284546 2124420 2146050 2253964 2098544
3152.10 1988372 2164408 2230828 2254736 2405388 2245876
3154.99 2233326 2374122 2367420 2257342 2187102 2276606
3157.88 2307024 2140546 2111372 2166664 2349574 2511338
3160.78 2491040 2319534 2400144 3016226 3146486 2378244
3163.67 2179440 2128968 2223872 2383070 2657724 2742976
3166.56 2503490 2158116 2118722 2054578 1970756 2012114
3169.46 2150194 2188956 2375604 2565978 2446384 2095740
3172.35 2059416 2101198 2101250 2004968 2022248 2070222
3175.24 2079964 1972660 1888656 1954768 2098142 2249902
3178.13 2303352 2227496 2111054 2244938 2364860 2184904
3181.03 2072242 2211200 2205628 1975760 1944950 2018462
3183.92 2059804 2100404 2119374 2081200 2153992 2225430
3186.81 2112492 2016530 2193954 2173018 1945616 1860482
3189.70 2011738 2067430 2227206 2627674 2564770 2143082
3192.60 2021472 2008324 1937888 1895390 1970720 1899208
3195.49 1960092 2035216 2022348 1883940 1872020 1803300
3198.38 1770360 1835984 2085450 2121914 2088710 2142228
3201.27 2122376 2115704 2272550 2152522 2004856 1944958
3204.17 1962386 1864162 1798248 1868026 1817916 1670894
3207.06 1693182 1719278 1935614 2139812 2092994 1876852
3209.95 1868110 1962374 2033296 2034888 2154690 1947154
3212.85 1746390 1793052 1866800 1807024 1829102 1909580
3215.74 1948262 1744302 1626506 1713084 1777406 1689290
3218.63 1702156 1673738 1832816 1934522 1875814 1916470
3221.52 1899146 1827114 1739180 1853518 1981588 1870632
3224.42 1810710 1714120 1732086 1761412 1863072 1851512
3227.31 1807684 1708174 1738944 1738822 1683704 1667522
3230.20 1582082 1514576 1693468 1813584 1738458 1557904
3233.09 1652492 1754608 1681446 1594526 1625574 1802704
3235.99 1836334 1615918 1557256 1602748 1661512 1794296
3238.88 1711400 1567996 1626168 1552002 1461674 1472110
3241.77 1531502 1661162 1584550 1464196 1590586 1594936
3244.67 1678972 1856780 1901570 1646408 1525462 1606442
3247.56 1784348 1768012 1648778 1615130 1577418 1422180
3250.45 1415036 1466692 1410382 1408292 1526902 1506462
3253.34 1591938 1674176 1494940 1419764 1562406 1609050
3256.24 1543686 1440180 1499070 1498466 1453110 1375838
3259.13 1388872 1590976 1660454 1565448 1643024 1774290
3262.02 1614702 1556900 1584616 1441566 1420226 1401152
3264.91 1481292 1580298 1679878 1690046 1612838 1424692
3267.81 1421180 1420972 1481832 1596872 1610410 1272674
3270.70 1175600 1388494 1610070 1342410 1236938 1284480
3273.59 1334212 1358362 1285972 1408458 1638110 1607074
3276.49 1383214 1156420 1212146 1319304 1454708 1436240
3279.38 1436204 1414744 1560890 1573906 1358154 1303944
3282.27 1440902 1390298 1508046 1543422 1494866 1304966
3285.16 1192800 1343218 1517118 1470266 1401458 1350824
3288.06 1401120 1512236 1468286 1230680 1164558 1277018
3290.95 1332308 1276914 1403552 1418750 1481826 1414786
3293.84 1289770 1165094 1096544 1114912 1260084 1396658
3296.73 1370674 1308256 1486652 1449372 1302272 1291492
3299.63 1346550 1345838 1309784 1328162 1370968 1417024
3302.52 1399922 1377850 1311494 1090830 1180248 1225228
3305.41 1095958 1064120 1281634 1409260 1418818 1336380
3308.31 1244626 1207970 1262466 1280606 1391188 1357860
3311.20 1374840 1333664 1253840 1286852 1415150 1429800
3314.09 1234174 1118752 1354504 1367742 1316582 1472794
3316.98 1478150 1295862 1186892 1200574 1347952 1425536
3319.88 1315080 1189470 1347150 1502364 1392560 1147162
3322.77 1134320 1273154 1306146 1123402 1095340 1374920
3325.66 1568200 1455094 1374970 1344694 1401386 1600182
3328.55 1576532 1356828 1404472 1551606 1496006 1285634
3331.45 1217444 1317472 1427890 1448988 1498498 1359582
3334.34 1221596 1243802 1410392 1363800 1372484 1466510
3337.23 1473662 1348426 1334024 1444826 1555406 1595338
3340.13 1520780 1523102 1316022 1233792 1568672 1687172
3343.02 1652208 1590384 1505122 1402614 1495844 1672472
3345.91 1601362 1344028 1450628 1681636 1793856 1632248
3348.80 1615516 1382104 1318994 1355534 1582656 1717420
3351.70 1668328 1609174 1583654 1539688 1554320 1625918
3354.59 1924360 1744810 1286790 1304550 1510056 1437446
3357.48 1360212 1442680 1630780 1463852 1341808 1568728
3360.37 1804474 1639360 1585878 1582620 1594958 1706102
3363.27 1878382 1923556 1958626 2092692 2045936 1849864
3366.16 1695252 1591792 1536558 1356150 1452858 1514206
3369.05 1521826 1650410 1744818 1754228 1717412 1626832
3371.95 1537378 1491522 1732484 1840026 1747996 1718692
3374.84 1870916 1857854 1609854 1599394 1932672 2392234
3377.73 2739108 2268024 1886978 1898752 1832286 1812720
3380.62 1806160 1831448 1828676 1694726 1708424 1906126
3383.52 2283334 2503824 2357098 1938432 1981036 2025942
3386.41 1885456 2004952 2073336 1823522 1763368 1996474
3389.30 2235732 2139408 1926174 1896138 2173704 2292144
3392.19 2179488 1937894 2054958 2244080 2048708 2014242
3395.09 2311638 2174034 1868438 2052408 2309824 2288610
3397.98 2183616 1951212 1711710 1702502 1770630 1654314
3400.87 1810608 2221034 2409056 2346182 2327598 2499992
3403.77 2682936 2286888 1792280 1868236 2088538 1977486
3406.66 1910546 2019056 1926100 1769516 1913612 2339378
3409.55 2965122 2825122 2355248 2192440 2154766 2219104
3412.44 2231888 2227986 2306284 2276618 2324510 2296238
3415.34 2165312 2315176 2384578 2470642 2527714 2622306
3418.23 2910606 2972174 2845160 2597372 2519538 2507586
3421.12 2385724 2232322 2370826 2374582 2122218 2219534
3424.01 2432338 2303772 2224930 2344330 2368108 2313930
3426.91 2572898 2820668 2756322 2695438 2762826 2739416
3429.80 2875142 3085192 3261544 3815944 4411740 3940258
3432.69 3222154 2796602 2684518 2732394 2746500 2978892
3435.59 2910202 2827772 3070716 3200306 2816998 2538966
3438.48 2688266 2864540 2740864 2672794 3285710 3897356
3441.37 3597320 3720134 4499274 4012528 3150770 2685438
3444.26 2581000 2679708 2647166 2450348 2312844 2428036
3447.16 2930782 3654176 4135016 4100766 3519098 2976586
3450.05 3172986 3209914 3145018 3938916 3839432 3253518
3452.94 2836330 2631440 2658632 2667220 2735528 2776360
3455.83 2461628 2390644 3034490 3460946 3210746 3910060
3458.73 4709458 3957974 3082730 2710930 2667206 3150334
3461.62 3503150 3140942 2808676 2862620 2888032 3150650
3464.51 3649660 3915662 3423342 2959782 3077960 2911252
3467.40 2700756 2812260 2836758 2783090 2958592 3014114
3470.30 3148012 3755746 4044652 3446808 3087090 2986260
3473.19 2736628 2720952 2996788 3168694 3269262 3336002
3476.08 3080802 3110834 3880862 4403022 4002724 3761062
3478.98 3781456 3637674 4341606 5605630 6174998 5257766
3481.87 4671918 4340804 3928064 4261624 4659666 4367908
3484.76 4243544 4692592 4608140 4185168 4793038 5648756
3487.65 5753800 6076108 5670958 4237700 3700998 3932652
3490.55 3847032 3487850 3559750 3884446 4297952 5222720
3493.44 5609016 4375956 3547142 3657932 3861330 3582040
3496.33 3517322 4037764 4430854 4370380 4304254 4120676
3499.22 4108568 3761930 3239126 2801482 3106116 3516404
3502.12 3312558 3133642 3515020 3881960 4250720 4606298
3505.01 5783744 6507838 4954370 3682810 3291264 3229896
3507.90 3211224 3475864 3661886 3457104 3204568 3177488
3510.80 4217744 5476268 5322964 5555760 5531202 3960304
3513.69 3049472 3022216 3129718 3076914 3247986 3360130
3516.58 3365924 3324006 3711862 3991056 3937292 3892708
3519.47 3729346 3822040 3761046 3429316 3251732 3503136
3522.37 3990034 4819202 5694652 5521350 4750962 3603054
3525.26 3496298 4614008 6213968 5635890 4167858 3633948
3528.15 3346756 3354578 3288718 3007230 3297686 3978130
3531.04 4050530 3759390 3842562 4260186 5533454 5714978
3533.94 4509294 5810284 7855716 5967482 4374722 4287222
3536.83 3836438 3374226 3385016 6311882 9994868 7853116
3539.72 6094908 7468062 6368416 4183070 3288630 3374484
3542.62 3535982 3468382 3505458 3775942 4292458 5513738
3545.51 5837126 4496846 4076544 4549954 4495058 3952450
3548.40 3753634 3655826 3579960 3772928 4069264 3967540
3551.29 4164088 4401482 4074422 3849778 4646134 5153142
3554.19 4876266 5499278 6103900 4979946 4119534 4667120
3557.08 4884844 4318748 4302342 4505842 4338578 4301816
3559.97 4758760 4952882 4905696 5046030 5206032 4758948
3562.86 4183702 4312950 4866212 4854384 4781136 5296650
3565.76 6386652 8765272 11369000 12290150 11002830 7152880
3568.65 5093112 5180708 5376606 5446846 5408476 5291370
3571.54 4675786 4638606 5662446 6005920 6155452 7800258
3574.44 10341590 11124660 8930448 7310252 6803734 7331876
3577.33 9243478 8048598 5697638 6123214 7886666 7915816
3580.22 7646062 8280010 8602386 7566538 6349248 5786682
3583.11 6021754 6943582 7147524 6402962 6645824 8548916
3586.01 9553804 8296436 7683828 7872604 8221590 8483110
3588.90 7519140 7016702 7309484 7599730 7225134 6887114
3591.79 7456754 7975652 8134702 9246166 10182280 9604828
3594.68 9806448 10811810 10090770 8657652 8794322 9421914
3597.58 9297134 9775046 10563500 10257410 9708324 9239822
3600.47 8950584 9528732 9818480 9300298 9068712 8915810
3603.36 8910546 9713444 9823378 9542874 10736120 11774800
3606.26 11085570 10694880 11968050 12301700 11014370 12461650
3609.15 13476430 11838540 11073080 12261810 12700350 12528480
3612.04 14940710 18242570 18089550 15895820 16819910 16977680
3614.93 14537980 14837810 17136800 18545090 21475350 21755400
3617.83 17030040 13676800 15027940 18373870 18907310 20286850
3620.72 22830390 21133920 18178690 17901300 18007280 16839290
3623.61 17101810 19197660 19510390 19620550 22263580 27538000
3626.50 31096810 31261590 33091160 32406060 29004900 28009030
3629.40 26242910 24875520 27627640 30562320 29806770 28455540
3632.29 29027470 29523680 31094530 30661480 27638300 28360580
3635.18 30111450 29896410 32562830 37051550 38042110 38335750
3638.08 40861880 39165380 37184430 38087430 38374170 39215520
3640.97 44837560 52291120 53314750 49139480 49749960 53866930
3643.86 58874920 64999580 67263110 58827280 52101240 51220640
3646.75 52945900 54394240 55694100 58766060 63399700 64049570
3649.65 64649210 70238780 74499710 75220020 75930530 77791190
3652.54 79533190 75794160 70021880 73596660 80835720 75860530
3655.43 72337120 83008390 89101600 85072580 90159420 100159600
3658.32 90609490 79777910 86071060 88996260 79129560 81293520
3661.22 92746140 93578780 97131870 112213400 109717200 90749780
3664.11 88198670 94862740 90353250 92288120 108436300 108770600
3667.00 89983040 88872700 99538780 90440510 79614300 82933000
3669.90 82688920 78658650 84611190 92280410 92193950 94114410
3672.79 90205730 78400870 75603100 85143960 83050700 73731100
3675.68 79656020 91335040 91155740 81253010 76241280 75729620
3678.57 84648090 102266100 112800700 132271400 177942700 170723600
3681.47 119579100 88245620 76316690 71767640 70209020 79200890
3684.36 86132500 83702390 64995730 49072820 51778780 62000930
3687.25 65664070 61378430 52296030 52083400 59604080 63038120
3690.14 65967890 72522670 69701660 75304290 91741060 98103580
3693.04 94156730 95653140 99558310 98728220 107366900 107755000
3695.93 99161770 102641100 106623600 101770100 100598600 96797770
3698.82 90611160 93482070 98769700 94010190 93243380 101708800
3701.72 104253100 96864280 93637570 94333860 95072160 97228620
3704.61 103925000 109917300 108987900 110487300 106266400 93568680
3707.50 92538650 101565800 103253500 101322900 102658500 93194620
3710.39 87265100 92645180 93060150 93380240 99517130 102609600
3713.29 102055900 98642560 91108380 82363720 80005600 83320900
3716.18 81113960 81202660 83122850 75006740 74540390 84239210
3719.07 85215230 80441210 80560560 81154600 73565500 68429250
3721.96 67281900 63895930 63174030 60776340 55074600 53402860
3724.86 54049010 54880560 55128930 51178440 47715520 44593270
3727.75 43367270 45434580 48489320 49087060 47013000 46084420
3730.64 43667660 42572670 47700410 45457660 39017970 38182460
3733.54 37144600 33892380 30760250 28932360 29277970 29316180
3736.43 28298510 28584820 28636080 30319280 33385010 29372880
3739.32 23908180 24363760 26500030 23224500 19839030 21096600
3742.21 19788570 17936600 20930550 23786200 23911010 21938010
3745.11 19898380 19060860 20056100 19745600 16010740 14849240
3748.00 18283800 23643310 27668670 23123410 16824490 13615570
3750.89 14720960 18845350 18164320 15890760 18820200 19788150
3753.78 16367820 14061730 12303910 10992960 12804440 13813680
3756.68 13283340 14830690 20835610 24847170 20158910 14094990
3759.57 11299700 10790960 11812920 12433240 11995030 11580550
3762.46 11060730 10920100 14326680 18938910 17415140 15054860
3765.35 16235760 14180560 11126980 10324500 9856332 9600536
3768.25 10049050 9772034 10161510 10459370 8857280 7778940
3771.14 8831910 8703070 8228052 8682958 8182322 7020166
3774.03 7693266 7831406 6930684 7292760 7693426 7353584
3776.93 8192512 9250710 8305612 7874554 8623096 7611212
3779.82 6478968 6983236 7523612 6923540 7095186 8447300
3782.71 8516502 7253188 6972270 6358588 5684200 6140080
3785.60 5926610 5240602 5762706 6038726 5389904 5576386
3788.50 6406786 5849336 5392172 6336500 7659840 7876016
3791.39 7254944 7002802 7003846 6825256 5674128 5418210
3794.28 5809802 5538614 6412456 10753480 12117810 7840146
3797.17 6133798 5955560 5013722 5199132 5955738 5792730
3800.07 5978090 8579186 9869752 6834712 5805172 6269006
3802.96 5344496 4926518 5442526 5227016 5248440 6130988
3805.85 6994828 7912032 7338108 6621728 6323628 5979342
3808.75 7008206 7193466 7049664 9499602 10827360 8557656
3811.64 7740280 7415070 6229416 5341938 5752996 6378392
3814.53 7300414 9265844 10658980 7797692 5236248 4956570
3817.42 4774980 4825014 4764934 4491044 4877454 5865022
3820.32 6215676 6193394 6950750 5825210 5050060 7036114
3823.21 10361920 11426930 8533070 6428114 6013822 5689364
3826.10 6255048 6626840 5874756 5225552 5195786 4986648
3828.99 5106224 5504130 5249678 5091736 5992384 6285110
3831.89 5213476 4995412 5440464 5578206 5995580 7176262
3834.78 6738338 5785722 5723240 5875940 6769142 9390376
3837.67 9091308 6428804 6024898 6718990 6762710 6629192
3840.57 7511542 8411610 9733882 10822990 9746044 7494992
3843.46 6320070 5402942 5225410 5095254 5014844 5068358
3846.35 5456260 5919974 6576422 6843078 6579626 6173438
3849.24 5676248 5161298 5660072 5957946 7761372 9892150
3852.14 8791326 8643072 12180640 16057570 13127510 7574656
3855.03 6042270 5847396 5897000 6287710 6495366 6332166
3857.92 6396582 6394868 6493272 6476692 5960148 5218518
3860.81 5686080 6805356 6711612 6676184 7272172 6691628
3863.71 6110016 7084480 8346688 7820374 8635756 9608210
3866.60 8138112 6870924 7764744 8552518 8701484 8990582
3869.49 10098650 9297572 7722824 7373228 7671858 8040210
3872.39 7562722 6688810 6439268 6335504 5762366 5347464
3875.28 5475098 5572676 5544968 5419194 5163952 4773324
3878.17 4585682 4944012 5536336 6076340 6159266 5610006
3881.06 4893832 5108842 5768864 5691808 6067334 6293362
3883.96 5713586 5794168 7863546 8324772 6717556 6447844
3886.85 6441894 6218552 6456490 6768754 7701224 9756466
3889.74 9667536 8029842 8240658 8099522 7235398 7168202
3892.63 8141458 9072104 9247112 9184656 8541138 7390468
3895.53 7004962 6733444 6499814 6911426 7410942 7545570
3898.42 8286532 9031976 8465634 8345592 8396264 8146810
3901.31 8029368 7120532 6343252 6293936 7052590 7615378
3904.21 6343560 5476560 5593160 5523362 5247622 5075478
3907.10 5006352 5097100 5265212 5355460 5619034 5725462
3909.99 5401828 5107128 4945638 4670606 4543062 4419008
3912.88 4481834 4809874 4903194 4873782 5310560 5440042
3915.78 4972744 4954834 5517554 5035824 4671480 4976016
3918.67 5274570 5809762 6429504 6695026 6635592 5850198
3921.56 5194176 5259718 5701698 6230348 6095484 5476040
3924.45 5236646 5155350 4916812 4871262 5043398 4951390
3927.35 4971906 5244808 5243040 5212150 5303522 5272188
3930.24 5009980 4767286 4999096 5705444 5998398 6016722
3933.13 6138170 5721140 5202294 5008364 4949262 4857366
3936.03 5024194 5204476 5129274 5134134 5452370 5559762
3938.92 5960070 6297660 5764596 5333172 5695980 5842128
3941.81 6198062 6780306 6774444 6318404 5937232 5755466
3944.70 5937938 6228330 6589548 6722818 6624006 6201296
3947.60 5774178 5426516 5300126 5432844 5386922 5214528
3950.49 5408636 5715142 5979232 6099776 5768908 5256662
3953.38 5065486 5130860 5272840 5472048 5541104 5422476
3956.27 5407290 5537848 5475430 5433436 5598594 5450248
3959.17 5161252 5229520 5392978 5504364 5636486 5780254
3962.06 5986776 6164204 6131828 6085284 5916804 5546744
3964.95 5713636 6259804 6270716 6090400 5913190 5752982
3967.85 5722704 5640124 5573760 5803864 6388688 6518640
3970.74 6102738 5792064 5573426 5466490 5544786 5463168
3973.63 5344358 5563542 5711358
##END=
