##TITLE=Acetone
##JCAMP-DX=4.24
##DATA TYPE=INFRARED SPECTRUM
##CLASS=IUPAC A
##ORIGIN=NIST, Anayltical Chemistry Division, 301-975-3108
##OWNER=COPYRIGHT (C) 1998 by the U.S. Secretary of Commerce
##DATE=98/10/1
##$SPECTRA VERSION=1.00
##$UNCERTAINTY IN Y=2.3 % relative (B=1.3E-04,C=1.7E-09,D=2.7E-14)
##CAS NAME=2-Propanone
##CAS REGISTRY NO=67-64-1
##MOLFORM=C H3 C O C H3
##MP=-95.35 C
##BP=56.2 C
##$NIST SOURCE=QUANT-IR
##SPECTROMETER/DATA SYSTEM=IFS66V (Bruker)
##INSTRUMENT PARAMETERS=KBr Beam splitter; MCT Detector; Multipass cell
##STATE=gas
##SAMPLE DESCRIPTION=Acetone Primary Gas Standard
##PRESSURE=101.3 kPa
##TEMPERATURE=23 C
##SAMPLING PROCEDURE=1 L/min Flow
##RESOLUTION=0.9640
##DATA PROCESSING=Triangular Apodization
##XUNITS=cm-1
##YUNITS=(micromol/mol)-1m-1 (base 10)
##XFACTOR=1.0
##YFACTOR=4.5474E-13
##DELTAX=0.4820
##FIRSTX=575.169
##LASTX=3975.077
##FIRSTY=2.55E-07
##MAXX=3974.59
##MINX=575.17
##MAXY=.0005137
##MINY=-1.63E-07
##NPOINTS=7053
##XYDATA=(X++(Y..Y))
575.17 561666 382134 126986 418774 672356 438998
577.58 705404 699998 147356 505764 626668 569512
580.47 395414-152192 14774 544208 473074 414126
583.37 377036 149260 436708 1025150 986384 576152
586.26 561674 224852 198018 403266-40438-204642
589.15-28528 77630 78502 382330 719610 555610
592.04 489328 625160 538022 478604 290718 16050
594.94 238046 365494 315768 178600 768 150994
597.83 120268 220266 237796 112572 272138 282488
600.72 158930 220122 182834 88062 393098 330358
603.61 108634 77134-81180 112296 203686 104098
606.51 273962 194540 62504-88042-73770 94852
609.40 101252 77696 69040 250856 404944 279514
612.29 238328 404904 313624 194566 272908 287686
615.18 153174 118630 193904 135842 18534-22836
618.08-40594-21082 17428-19604-19138 61750
620.97 142952 213036 83406 165384 101556-40428
623.86 21838-81554 32538 10856-142740 390
626.76 47886-98586-87270-41606-62554-69612
629.65-60560-108024 53894 176748 49490 10662
632.54-23708-97304-79554-216530-359254-211964
635.43-39812-9112 13816 44840-78702-192506
638.33-177834-143024-26996 162354 59130-102918
641.22-147338-262176-192772-109560-157282-12846
644.11 52866-69470-157164-117590-76870-130352
647.00-101120-79328-53004-202424-366056-255120
649.90-58766-32812-180624-16432 138466-26216
652.79-80458-81058-290298-313456-248994-248634
655.68-180688-94008-50136-177464-117134-57246
658.58-153674-91128-80710-49470-104994-197310
661.47-116808-123974-185350-274524-330510-253098
664.36-185660-189668-161600-101060-124700 153158
667.25 583940 335166 59904 90880 23996-51574
670.15-173196-122258-25640-147722-53678 29814
673.04-71164 22730-66298-256888-116228-14186
675.93-151080-145082-20990-71876-89604-86762
678.82-156348-69990-33722-27586-49516-123926
681.72-119428-21732-31352-154294-80228-10092
684.61-79346-37494 13266-27590-59686-121254
687.50-95902-75618-67516 6842 51272-584
690.40 9158 250-101136-33674 85410 15082
693.29-32220-48634 7058 74184 6730-47906
696.18-116094-24438-8488 56606 150668-18278
699.07-103958 7746 131950 158636 181810 136812
701.97 29420 10670-14516 41440 114736 141852
704.86 186930 83956 25660 93436 109108 78560
707.75 85714 140692 135654 180682 283416 230560
710.64 219166 265782 214836 263096 248844 210604
713.54 193402 209156 308298 316764 334134 285324
716.43 240116 285406 282788 351056 492426 515558
719.32 413734 506420 591850 530564 514334 520542
722.22 601240 705448 692440 525460 550676 691618
725.11 802748 930122 923388 836946 835676 842362
728.00 866106 986498 1014666 1018612 1063490 1144052
730.89 1156480 1126624 1222562 1291150 1344258 1446230
733.79 1478728 1468754 1604432 1713506 1696010 1731188
736.68 1778856 1851178 1932038 2000106 2089534 2140742
739.57 2237604 2323642 2452792 2531118 2592862 2799782
742.46 2905148 2979402 3138194 3201944 3225792 3399702
745.36 3538478 3699286 3890154 4019448 4200078 4381178
748.25 4541904 4667398 4890432 5091394 5200076 5417568
751.14 5607046 5831954 6113972 6313194 6543488 6773368
754.04 7012486 7239176 7519888 7780828 7978374 8210686
756.93 8393414 8661762 8963166 9149280 9370376 9621322
759.82 9816794 10002640 10254340 10507010 10836270 11155020
762.71 11365380 11556420 11683840 11818650 11921450 11943510
765.61 12052280 12330120 12485130 12498570 12555610 12641940
768.50 12796850 12964510 13076290 13208920 13328220 13369500
771.39 13271860 13264420 13245060 13108140 12976540 12915900
774.28 12891340 12758690 12686560 12660920 12689120 12986460
777.18 13350900 13593810 13704260 13618570 13532350 13380450
780.07 13217170 13037570 12807870 12661720 12599530 12628810
782.96 12842430 13183210 13597690 13871400 14050520 14195740
785.86 13972610 13766760 13705850 13467830 13218880 13036720
788.75 12835930 12693570 12514180 12376890 12219720 11964870
791.64 11703070 11573510 11411360 11133610 10892990 10539640
794.53 10171280 9913996 9740746 9445710 9107472 8682126
797.43 8203222 7910174 7634190 7228560 6783892 6464338
800.32 6108706 5675804 5289314 4936430 4747758 4581282
803.21 4222902 3964114 3839416 3563536 3359264 3185590
806.10 3061264 2865968 2651456 2551192 2420778 2386682
809.00 2342096 2306458 2210552 2040008 1850542 1651518
811.89 1540514 1477264 1375720 1269444 1191682 1190102
814.78 1184338 1134704 1068780 991540 955164 999622
817.68 1035800 1029508 1006698 929238 891056 798540
820.57 795652 902490 973876 962094 904042 836692
823.46 810036 863062 848078 831400 961148 1039980
826.35 962462 945644 954530 980818 957326 965624
829.25 901892 839708 1002334 1027638 970696 1002918
832.14 1104454 1228638 1239280 1185962 1163392 1158168
835.03 1170844 1274286 1295702 1302494 1359892 1409270
837.92 1466726 1529730 1492698 1477284 1532366 1600198
840.82 1680270 1620462 1624490 1725462 1763172 1752012
843.71 1764218 1819518 1870096 1899516 1967398 2075004
846.60 2104476 2169794 2286034 2313902 2383582 2499942
849.50 2589950 2692664 2805424 2857650 2924072 3007382
852.39 3128256 3323240 3475374 3594142 3717434 3884736
855.28 4019198 4162338 4401856 4698252 5014250 5210352
858.17 5376150 5644880 5944758 6206902 6497290 6877512
861.07 7255130 7665116 8086682 8457874 8899814 9422336
863.96 9959522 10492080 11052280 11677930 12328860 12891370
866.85 13493080 14215020 14946860 15676450 16425660 17231540
869.74 18070610 18943780 19842080 20829020 21794630 22749360
872.64 23712820 24582510 25492580 26386670 27346320 28212380
875.53 28996150 29704530 29944040 30107220 30220650 29970350
878.42 29603990 29399550 29483390 29813720 30216890 30760490
881.31 31430810 31895370 32186150 32540870 32814590 32935740
884.21 33100420 33688430 35399400 39630410 43727860 44263560
887.10 42897940 41653120 41431580 42021310 43008790 43655980
889.99 43340380 42246820 41343610 40990080 41105040 41898960
892.89 43839960 47793800 52206520 53519240 52014300 50579860
895.78 49895770 49545800 49468810 49922280 50543640 50968290
898.67 51026800 51085280 51261570 51219340 50750950 50228280
901.56 49831050 49431450 49207840 49048750 48926330 48759210
904.46 48491610 48280300 48181240 47982660 47677020 47385310
907.35 46949740 46377330 45934680 45502120 44946040 44352980
910.24 43735460 43160980 42504120 41819910 41234680 40544510
913.13 39833520 39129080 38376380 37596130 36744010 35915900
916.03 35127080 34398000 33726600 33007150 32342190 31613180
918.92 30903020 30297110 29663750 29108630 28509650 27942680
921.81 27465100 26955070 26449600 25867110 25239170 24738370
924.71 24257410 23766620 23250390 22732890 22292230 21860620
927.60 21414810 20938280 20523640 20138750 19670330 19212470
930.49 18773160 18327910 17936920 17484980 17052670 16680380
933.38 16292160 15955180 15621790 15280000 14924500 14551940
936.28 14167110 13814350 13462570 13183430 12928670 12578290
939.17 12253300 11996020 11674580 11389900 11234330 11075010
942.06 10894210 10644250 10471080 10299690 10110960 9960944
944.95 9803466 9685708 9569516 9464230 9365272 9218738
947.85 9087926 9030758 8955020 8916470 8884922 8803488
950.74 8737114 8667010 8620506 8533692 8503196 8495672
953.63 8436116 8391148 8355698 8328462 8271048 8263028
956.53 8303130 8299792 8325776 8358250 8321310 8245230
959.42 8238370 8249450 8195052 8137300 8066944 8075310
962.31 8063666 7965174 7942242 7899646 7794158 7704738
965.20 7620830 7548428 7516972 7538736 7661790 7790028
968.10 8021422 8186596 7831396 7507586 7469176 7447730
970.99 7399856 7342984 7299610 7247690 7203086 7175460
973.88 7162552 7133026 7070086 7026522 6993946 6956364
976.77 6938460 6952728 6987210 6975954 6931914 6907954
979.67 6885670 6860386 6847484 6837814 6755670 6690968
982.56 6668420 6604680 6556650 6486672 6436384 6367314
985.45 6301130 6282272 6287930 6287392 6282380 6250766
988.35 6195222 6171412 6089940 5919544 5832862 5791248
991.24 5665506 5568258 5481380 5371598 5251708 5155964
994.13 5109480 5068824 5008142 4958942 4905564 4865196
997.02 4806588 4739010 4753982 4825082 4834430 4831862
999.92 4863422 4813260 4676896 4513810 4441558 4341632
1002.81 4205440 4158728 4138706 4051764 3984130 4019394
1005.70 3987200 3938854 3989652 4024938 4009634 3987890
1008.59 3958950 3915412 3933818 3987244 3997894 4056898
1011.49 4143736 4092608 3951302 3933426 3938456 3937476
1014.38 3964340 3915150 3868350 3824192 3816704 3810760
1017.27 3769762 3708960 3698082 3811842 3977858 3938032
1020.17 3724830 3616652 3607552 3591236 3578078 3587788
1023.06 3586952 3628978 3652732 3589282 3589830 3637762
1025.95 3619644 3642672 3633036 3644294 3681834 3669046
1028.84 3667182 3720908 3757812 3784932 3870918 3880142
1031.74 3853920 3856368 3875250 3941706 4008214 4019670
1034.63 4052834 4106946 4153642 4274330 4342298 4355502
1037.52 4413492 4446606 4465464 4464176 4448796 4501078
1040.41 4631468 4728728 4714758 4698394 4732928 4803080
1043.31 4884958 4887748 4901896 4953894 4996942 5034390
1046.20 5084254 5083576 5119370 5199728 5209532 5253716
1049.09 5287862 5353908 5437978 5403744 5407960 5458584
1051.99 5498726 5476122 5491532 5586644 5628556 5652132
1054.88 5672036 5717326 5760844 5816004 5895126 5977990
1057.77 6072876 6142166 6214366 6317802 6421634 6509072
1060.66 6622296 6765040 6860946 6927364 7002210 7129210
1063.56 7292832 7404046 7526444 7657738 7843220 8043852
1066.45 8205372 8402474 8535064 8695908 8905690 9075226
1069.34 9255676 9463132 9669940 9865010 10050930 10253910
1072.23 10451840 10596040 10745240 10981380 11236660 11383770
1075.13 11527530 11766600 11927570 12117030 12383730 12558040
1078.02 12770510 13042190 13145100 13108290 13189330 13360550
1080.91 13648880 13817790 13807850 13978750 14214180 14460970
1083.81 14811240 15183700 15587860 16062380 16649740 17408030
1086.70 18531660 19672120 20715870 22178390 24318170 27047750
1089.59 29947310 33473280 41353980 57045300 56809040 39821400
1092.48 32289570 30819380 34514150 44644470 40086880 26714380
1095.38 22956170 21978320 21492090 21145820 20756820 20498360
1098.27 20331370 20232770 20268670 20375830 20508520 20698570
1101.16 20933980 21203060 21449350 21690550 21905980 22130320
1104.05 22383620 22625090 22814700 23022260 23164960 23256650
1106.95 23358220 23379570 23432160 23503400 23557900 23591460
1109.84 23541770 23489820 23464870 23369810 23208580 23060880
1112.73 22907690 22694860 22431380 22237300 21988390 21619550
1115.63 21262310 20924790 20572160 20199590 19854270 19476520
1118.52 19058100 18613760 18195330 17780670 17414970 17072550
1121.41 16700820 16295060 15855470 15457870 15047390 14641980
1124.30 14235490 13884780 13561850 13192770 12833000 12490350
1127.20 12189520 11875720 11567880 11252530 10931360 10624960
1130.09 10372810 10144240 9903168 9678632 9405414 9142956
1132.98 8950276 8767100 8558612 8334554 8166494 8060366
1135.87 7951554 7766200 7606164 7492266 7341226 7207080
1138.77 7049964 6930676 6879044 6754096 6642710 6554560
1141.66 6484984 6420264 6365392 6336116 6282770 6218094
1144.55 6125644 6016542 5921938 5866274 5838340 5765236
1147.45 5707094 5699980 5647828 5643844 5657014 5665694
1150.34 5729544 5685450 5649016 5716284 5766902 5781164
1153.23 5776642 5813270 5929944 5951540 5989924 6099564
1156.12 6128740 6157688 6250084 6408186 6572334 6692892
1159.02 6832576 6934140 7083596 7257194 7410134 7621318
1161.91 7805262 8003840 8281826 8498388 8721896 9056350
1164.80 9368084 9699980 10028420 10373970 10781170 11155940
1167.69 11591910 12063110 12517730 13026260 13555570 14099450
1170.59 14661880 15290750 15993880 16668410 17390940 18148690
1173.48 18996460 19888900 20774470 21722730 22733010 23800900
1176.37 24961950 26259450 27619060 29007780 30538220 32210240
1179.26 34030330 35952210 38040250 40327570 42803270 45496210
1182.16 48421580 51581030 55069140 58853750 62969840 67498820
1185.05 72436250 77762600 83538880 89799840 96661930 104097400
1187.94 111991800 120545100 129900600 139934700 150531300 161640100
1190.84 172897600 183913700 195804100 209046100 222424100 235973600
1193.73 249514400 263376400 278699500 294920900 311783100 328889000
1196.62 346096900 363744900 381275300 398260100 415250600 431989900
1199.51 448242500 463588800 478061300 491665700 504324500 516367000
1202.41 527636000 538061600 547046600 555032800 561907800 566865000
1205.30 568981600 567202800 563633300 560194200 556866400 552776300
1208.19 547797500 542210700 536864800 532298000 529670600 528941500
1211.08 529976000 532633200 537494000 547338900 564368600 588309000
1213.98 619875300 657095600 697870600 741412000 786397800 818855500
1216.87 833910000 821472400 770024400 692394600 650323300 606946200
1219.76 491871100 422836400 421378300 430656400 447693700 466269000
1222.66 486265700 505146000 523585700 541033200 557713000 572903900
1225.55 587094600 599576600 610954400 619745200 626138200 630758700
1228.44 632342400 630254900 624923900 616338900 604803500 590979900
1231.33 575430600 558674400 539995300 518516900 495886100 472547200
1234.23 447791900 422320100 397307300 371908800 346135600 321110700
1237.12 296838200 273270100 250716600 229336600 209201600 190383700
1240.01 172843400 156476900 141391100 127533300 115026900 103640200
1242.90 93452460 84310420 76008140 68650550 62076220 56176360
1245.80 50919050 46291530 42235140 38613300 35409170 32630790
1248.69 30139250 27911360 25949910 24175120 22640850 21251570
1251.58 20031620 18969030 17954790 17002090 16175660 15465220
1254.48 14777800 14127550 13548500 13021140 12554110 12086650
1257.37 11665610 11277270 10947980 10576990 10253720 10031050
1260.26 9732518 9456442 9298374 9065542 8856938 8731658
1263.15 8592558 8402852 8256316 8131826 7996090 7890466
1266.05 7794962 7737312 7640208 7509572 7481184 7451040
1268.94 7390418 7315118 7241898 7208756 7220368 7210666
1271.83 7133440 7077924 7063142 7054560 7087202 7095260
1274.72 7107036 7152408 7159318 7164004 7189472 7225510
1277.62 7295016 7334472 7379596 7410546 7468398 7536828
1280.51 7564484 7640552 7709126 7763578 7842420 7927556
1283.40 8015278 8104052 8215174 8291888 8432490 8604322
1286.30 8779346 8906110 9037372 9266456 9579718 9967268
1289.19 10476430 10884720 10623440 10144020 10078820 10188880
1292.08 10288680 10427710 10610870 10733420 10859210 11029130
1294.97 11193150 11400690 11628560 11828230 12039330 12282370
1297.87 12551040 12804620 13093620 13385490 13665460 13989470
1300.76 14318850 14618600 14963150 15343900 15710420 16021240
1303.65 16315830 16647470 17063130 17515600 17969580 18387400
1306.54 18750080 19097460 19574740 20101360 20587470 21091270
1309.44 21630220 22154160 22720540 23408210 24128610 24739210
1312.33 25252360 25882180 26690090 27535390 28391860 29254590
1315.22 30200680 31042360 31839360 32648470 33321880 34134680
1318.12 35219080 36263910 37256980 38404580 39625260 40862260
1321.01 42207940 43656430 45151510 46721560 48345200 49997210
1323.90 51769760 53658280 55543160 57519940 59584680 61743880
1326.79 64102210 66591830 69260620 72087900 75063270 78228420
1329.69 81674950 85226350 88933740 92842140 96927430 101307000
1332.58 106002500 111013400 116288600 121895200 127917400 134255600
1335.47 140902000 147908100 155293000 162987400 171112500 179695400
1338.36 188620600 197935400 207726000 217974900 228439300 239065400
1341.26 250248400 261951500 273997100 286227300 298710900 311455100
1344.15 324295500 337165100 350299100 363524500 376523800 389216800
1347.04 402105800 414985700 427826000 440576500 452132400 463337800
1349.94 474845100 485866200 495751400 504121500 510930900 515711700
1352.83 519680400 523113400 526398000 529585000 530756900 528790800
1355.72 524918000 521041600 517171100 513166100 510419900 509233300
1358.61 512695900 523204500 544630900 578314200 603540900 598412700
1361.51 583467100 579094300 585813500 594368100 610320400 639045200
1364.40 728122200 858248200 802538800 663068700 626616100 622285400
1367.29 626968100 635937600 646878400 653148700 652176800 647345700
1370.18 642161700 637975600 635732400 633593700 630755700 626680800
1373.08 622278900 617640100 612889900 607827600 601954000 595536400
1375.97 588309200 580510000 571921300 562552600 552605400 541771100
1378.86 530975100 520632200 508938400 494362400 477281800 459375800
1381.76 441378000 423169500 405478200 388150100 371546900 355241800
1384.65 339091900 323209100 308034800 293221200 279416000 266325000
1387.54 252718600 240064100 228645400 217843000 207735800 198456900
1390.43 189971800 182023200 174699200 168011600 162013600 156519100
1393.33 151770100 148161000 143860900 139338300 136081200 132868400
1396.22 129957400 127703600 125844900 123938000 122598800 121928200
1399.11 120399800 118850200 117978200 117226500 116712100 116281300
1402.00 116025000 115864400 115871200 115954400 116150100 116421800
1404.90 116195700 116033400 116481000 117184400 118174900 119633900
1407.79 121408300 123671800 126182100 128167400 128541300 126961400
1410.68 125769700 126356400 128047300 130291700 132929000 135679300
1413.58 138229600 140330600 141993400 143239900 144224300 145022700
1416.47 146389800 147994900 149099600 150487800 153178900 156286400
1419.36 156531600 156421900 157955400 159545700 161142900 162617300
1422.25 163944600 164844400 165742500 166343400 166481300 166602300
1425.15 166784300 166941500 167023100 166993000 166823800 166362800
1428.04 165680900 164919600 164514900 164089000 163145000 162832300
1430.93 163926400 166285200 169598000 173316700 177140400 181209400
1433.82 184438600 184191600 183463300 182484100 179568600 177550700
1436.72 174652900 172837500 173380300 174217800 175671500 177882600
1439.61 179720600 180050200 178994300 176968800 175008000 173372400
1442.50 171915000 170396900 169087200 168332600 167984000 168238800
1445.40 169034800 168942700 168152200 169340200 172254500 172142900
1448.29 170058600 167839500 164097400 159787400 156076900 152801300
1451.18 149589100 146348600 143555500 142540500 144500600 154260900
1454.07 180626100 187778000 162084800 144558700 140280100 136507200
1456.97 130366000 127314700 125861700 123701800 122139800 120358900
1459.86 118935700 117736600 116652300 115416600 113755500 111775900
1462.75 109880800 108115600 106731300 106215700 104419100 101657600
1465.64 99931810 98329500 96749290 95306110 93918350 92515970
1468.54 91238570 90203110 89350340 88505330 87759010 87887580
1471.43 89212840 88795930 88235950 89023030 86611110 82703460
1474.32 80232940 78391440 77415880 76715900 75060200 73579660
1477.21 72523040 71238770 69835890 68164680 66221940 64048660
1480.11 62067200 60542660 59092680 57656890 56500670 55550100
1483.00 54935100 54686050 53950580 52739840 51317820 49959230
1485.89 49008740 48568420 48449200 47335710 46376270 46035240
1488.79 45854500 45685500 44981820 44644860 43782720 42745420
1491.68 42322700 41897120 41524900 41209760 40901680 40621580
1494.57 40415390 40593160 42445200 42146810 39851160 39315190
1497.46 39058830 39589040 39908840 38829390 38201860 38088200
1500.36 37890010 37810830 37745000 37534650 37327700 37231460
1503.25 37070640 37086480 37042600 38846220 40527900 38516640
1506.14 39483600 41338330 39268400 39573990 41506670 40256870
1509.03 38385060 37412320 36548360 36211730 36009320 36516300
1511.93 36796610 36034160 35748480 35829610 35913500 36214880
1514.82 36052400 35796380 36183280 36578700 36967320 36701040
1517.71 35772410 35587170 35599840 36191640 37138040 37645100
1520.61 40229420 39824230 37397310 37818760 37314840 36449200
1523.50 36448510 36647130 37427400 38539050 37955940 37131380
1526.39 37270530 37224080 36681190 36574100 36425720 35869110
1529.28 35678540 35603200 35598530 35687950 35829500 35643940
1532.18 35885090 36457820 36992500 36721480 35544840 35233410
1535.07 35311430 35236280 35312310 35372680 35379690 35456860
1537.96 36690520 39794130 38496490 37337710 38245590 35960730
1540.85 35161650 37028540 37058900 34978720 34567530 34433410
1543.75 34010450 34585940 35223880 34194610 33351130 33206360
1546.64 33075060 33057550 33113180 33331890 33727030 33935290
1549.53 33612110 32808720 32128210 31882340 31811440 31765800
1552.43 31828770 31811130 32905760 34113880 32447430 31142280
1555.32 30949600 30798760 30970270 32410890 33049590 34551300
1558.21 35014810 32156270 32943030 34909270 32555960 29779650
1561.10 29386520 29167360 29099980 28977160 28794140 28500000
1564.00 28593830 28563520 27894520 27415780 27154440 26903440
1566.89 26747780 26512050 26509850 26607760 27117190 27684940
1569.78 26396910 25313540 25021590 24638040 24346480 24035430
1572.67 23716940 23457440 23192520 23083390 22918140 24069340
1575.57 27208470 25529840 22245830 21754740 21304590 20998660
1578.46 20729370 20528190 20286000 20095680 19896670 19717370
1581.35 19520540 19313090 19102130 18878670 18680670 18523770
1584.25 18338740 18133620 17964640 17855080 17680310 17522670
1587.14 17356470 17156620 17008420 16827490 16622090 16450430
1590.03 16250700 16066170 15844050 15574020 15358970 15184870
1592.92 15006670 14837070 14713330 14485850 14198230 14001920
1595.82 13848720 13624010 13378060 13166000 12985680 12822870
1598.71 12636840 12475980 12303700 12119530 11983300 11806170
1601.60 11597690 11455490 11309600 11132950 10952670 10802250
1604.49 10647830 10507620 10378650 10255230 10204820 10103150
1607.39 9907808 9789320 9729820 9741474 9561506 9339188
1610.28 9215734 9050834 8936740 8893028 8775932 8686088
1613.17 8640782 8605156 8523408 8563292 8648160 9645596
1616.07 12701850 11813590 8792738 8331066 8079226 8003866
1618.96 7951754 7926576 7938382 7954908 7894366 7825340
1621.85 7878888 8056934 9076464 9155340 8017736 7736656
1624.74 7630794 7496742 7439284 7418536 7549088 8112100
1627.64 7972392 7432344 7392844 7375228 7340702 7342998
1630.53 7339974 7360114 7368908 7434158 7468294 7570086
1633.42 7652134 8189986 9345804 11343580 11309090 8822304
1636.31 8138690 8561454 8518028 8108272 8042056 8110248
1639.21 8194046 8330218 8356200 8403506 8518876 8652754
1642.10 8782646 8858266 8996682 9109838 9356610 9573748
1644.99 11106910 13129890 11580320 10629680 11258210 11181180
1647.89 11250710 10895630 10703170 10894350 10992130 11316130
1650.78 11599870 12970320 16568700 17696050 18282190 16183170
1653.67 14046140 14443960 13119800 12756710 12800570 12858610
1656.56 12961160 13101770 13185060 13295130 13406130 13561370
1659.46 13666400 13782540 13921800 14173660 14294950 15136990
1662.35 15983810 15159410 14616900 14745010 14857960 15093490
1665.24 15362550 15790960 16447310 17270780 18138120 19131180
1668.13 19777680 21349950 21655620 20317220 20118020 20693250
1671.03 21353570 21179670 21202160 21716460 22228890 22889280
1673.92 23676350 25811530 27360550 26401130 26015200 26590990
1676.81 27148900 27805930 28401290 29045720 29784360 30655320
1679.71 31442530 32062670 32470000 33159690 33903300 35110720
1682.60 36789480 37822070 38697990 42644860 44142760 40815040
1685.49 40344650 41270760 42233330 43418650 44767070 46255000
1688.38 47429840 48843180 50674800 52416210 54026170 55974080
1691.28 58088700 60227530 62424720 64704760 67191030 69877160
1694.17 73004470 77084710 84293460 88637170 89198220 93373020
1697.06 99261570 105347800 112182200 119180200 127655800 136128800
1699.95 142000200 146955300 151941200 158848100 167054400 175759200
1702.85 185192700 195454100 206814000 217871200 229080000 241868600
1705.74 255791100 269362900 283167000 298049800 313609900 329790100
1708.63 346585100 363762800 381418800 399249000 417273600 435634700
1711.53 454073100 472798900 491518900 510028500 528487500 546387100
1714.42 564893400 582400300 598461300 614931600 632762500 651684200
1717.31 665162600 677482700 691579700 704083600 716551800 728854500
1720.20 740782100 752577000 763832700 774667100 785459500 795660400
1723.10 805388900 814400400 822762600 830922400 838824000 846411900
1725.99 853471900 859860900 866520800 873036500 876601500 875377400
1728.88 871011600 866033000 861068300 857728300 857453200 861974100
1731.77 873786300 892465400 918387300 948597600 984736000 1020915000
1734.67 1048449000 1072547000 1092823000 1106805000 1115326000 1120540000
1737.56 1124578000 1128054000 1129822000 1129042000 1122825000 1111320000
1740.45 1098866000 1087164000 1078151000 1070948000 1062586000 1053137000
1743.34 1044109000 1035892000 1027671000 1018169000 1006999000 994360800
1746.24 981095700 967616400 954370200 942352500 930884900 919156100
1749.13 908029100 898421400 891261100 886192800 878061500 865533000
1752.02 852085000 837808300 822374800 805213600 786082400 766315300
1754.92 747845600 730610100 714627300 699327300 683622700 669602900
1757.81 657269200 645624300 634278800 622839000 611684000 600846300
1760.70 591344100 580961300 564277200 545553900 528947100 512583400
1763.59 496162300 479981000 464763500 450243700 436086900 422397600
1766.49 409115800 396187800 384195900 371806300 360133500 350901000
1769.38 342647600 334565600 325483700 315235900 305305400 298278500
1772.27 294841900 292046000 284017000 271078800 257848900 244761800
1775.16 232366800 221679900 213767700 208491700 205069600 202027300
1778.06 197650600 192267600 187052200 182495200 178714800 174929200
1780.95 171321800 168503400 166055100 163682700 161307600 159067000
1783.84 156945200 155066500 152799500 150622400 148987800 147180900
1786.74 144792900 141431800 137212200 132604100 127831900 123576900
1789.63 120235300 117882900 116053600 113838800 112291800 111604700
1792.52 108811200 105106800 102425800 99748580 97102690 94453110
1795.41 91746420 88865390 86080370 83478880 80960800 78626850
1798.31 76465930 74745360 73025340 70891220 69113710 67618600
1801.20 65731570 63964700 62282870 60314100 58581600 56968080
1804.09 55388260 53932400 52610800 51301220 50014510 48760400
1806.98 47532660 46169510 44807460 43554600 42297290 41116120
1809.88 40194910 39017580 37535620 36400090 35370520 34245810
1812.77 33146220 32121160 31134050 30171690 29262270 28400410
1815.66 27606870 26809010 26126870 25468180 24698770 23989030
1818.56 23339430 22748370 22152960 21574730 21043540 20506970
1821.45 20001160 19560020 19132390 18664050 18308200 17929010
1824.34 18019460 18016470 17099360 16438040 16104930 15746240
1827.23 15473790 15167190 15073210 14922000 14888680 15075710
1830.13 14273590 13505070 13228030 12916510 12697440 12463450
1833.02 12236570 12058020 11935050 11842050 11751940 11602570
1835.91 11366700 11206650 11053830 10807140 10615150 10449840
1838.80 10303970 10252740 10293800 10213570 9921452 9730088
1841.70 9651656 9573050 9396016 9738464 10847240 9970420
1844.59 8519158 8224746 7914810 7686438 7522102 7546868
1847.48 7399750 7081546 6877554 6717208 6568934 6423888
1850.38 6268382 6155026 6048328 5936776 5812080 5707768
1853.27 5612856 5541296 5469686 5372340 5280370 5205192
1856.16 5127602 5039104 4977694 4891050 4788552 4668466
1859.05 4581594 4528334 4460840 4399016 4342872 4265686
1861.95 4192038 4138210 4074296 4035426 4011348 3996454
1864.84 3955300 3963592 4011844 3907172 3871202 4125254
1867.73 4014228 3942114 4535360 4292500 3670164 3623638
1870.62 3557598 3473270 3425282 3412294 3397190 3358604
1873.52 3331882 3309244 3250034 3221036 3200312 3160840
1876.41 3114126 3080838 3044660 3023820 2991612 2954894
1879.30 2929810 2875424 2852462 2832320 2781820 2791784
1882.20 2780518 2721898 2679436 2676744 2682048 2662340
1885.09 2649328 2675816 2720838 2804660 2855828 2725946
1887.98 2553558 2572184 2826926 2640094 2283416 2234990
1890.87 2201772 2180616 2150100 2120024 2110584 2144980
1893.77 2118146 2157204 2235334 2134842 2066468 2033338
1896.66 2017026 2014412 1977480 1965242 1930434 1899228
1899.55 1897568 1886834 1845806 1815512 1780476 1733164
1902.44 1711342 1705714 1677784 1637774 1589766 1571026
1905.34 1540000 1503144 1473922 1441816 1478522 1452914
1908.23 1363296 1329658 1426254 1427674 1278048 1230174
1911.12 1207016 1188206 1162720 1108994 1096526 1075078
1914.02 1053540 1021274 1001064 1003836 1033044 1040294
1916.91 1197840 1774092 1562992 1018070 972366 918104
1919.80 905896 934302 950350 981912 1056856 1131394
1922.69 1200204 1060698 948976 932464 908960 903516
1925.59 921768 926350 915970 903918 887228 894698
1928.48 890290 881028 895370 909634 895686 889680
1931.37 887760 889496 905674 915316 930530 934934
1934.26 913252 933120 926638 915668 938800 966522
1937.16 968552 956358 968002 967582 937846 970746
1940.05 995100 1009642 1027528 1146246 1421138 1283200
1942.94 1055348 1054172 1040904 1083470 1117448 1129806
1945.84 1145484 1137120 1140746 1156320 1144512 1159506
1948.73 1207388 1224124 1218420 1251128 1256574 1279726
1951.62 1336824 1341008 1364650 1399578 1398928 1416416
1954.51 1460376 1466570 1454006 1484272 1525470 1556620
1957.41 1596836 1631808 1624836 1646630 1682370 1705900
1960.30 1749572 1775298 1804120 1820586 1827676 1861918
1963.19 1890668 1910914 1927496 1936938 1980794 2084700
1966.08 2105978 2196630 2276020 2189076 2202446 2249994
1968.98 2232994 2220292 2240484 2259768 2309652 2309644
1971.87 2291930 2350334 2390600 2420872 2456426 2460306
1974.76 2449784 2442852 2451326 2481358 2504650 2486848
1977.66 2480538 2531616 2575282 2579302 2557008 2570492
1980.55 2566482 2523502 2506052 2507100 2518612 2533574
1983.44 2512304 2485872 2504154 2510814 2541680 2566988
1986.33 2531880 2519380 2535694 2530668 2447728 2338382
1989.23 2305608 2278570 2272556 2332488 2524216 2575696
1992.12 2435518 2355292 2313818 2317256 2331310 2338856
1995.01 2260742 2099756 2048982 2048422 2004540 1992378
1997.90 1973474 1976884 1957740 1897700 1855362 1836232
2000.80 1822500 1779522 1735952 1726632 1711388 1657462
2003.69 1614586 1577992 1524630 1489394 1447190 1377168
2006.58 1307424 1272324 1226642 1165088 1121156 1057312
2009.48 982914 940824 940328 887664 817188 780516
2012.37 741112 711790 668184 650658 629866 579104
2015.26 538786 551572 627682 576444 504392 518720
2018.15 487428 461542 455664 453404 442364 427536
2021.05 429440 430008 429498 412484 393536 367646
2023.94 378566 402370 404830 403728 406110 413332
2026.83 378996 365018 370364 384076 396502 378338
2029.72 389402 389638 382038 379324 357274 381312
2032.62 397880 368282 354480 391766 410400 418768
2035.51 424894 414186 400460 392712 403566 408344
2038.40 425652 434502 431572 424818 423700 447270
2041.29 458720 453940 463578 447786 431866 470352
2044.19 499440 518088 523916 495270 476556 481364
2047.08 503064 525562 518002 517484 541128 552604
2049.97 523320 530004 567332 575628 609908 615676
2052.87 603640 625018 614330 645880 680044 668000
2055.76 694256 702854 695886 680646 714154 771258
2058.65 782526 772762 790208 811148 818374 847634
2061.54 857878 874268 896852 918456 960674 1007688
2064.44 1030152 1033994 1044840 1058214 1083314 1092284
2067.33 1119500 1152412 1184762 1231518 1267096 1304246
2070.22 1338118 1373606 1424474 1454270 1483032 1494582
2073.11 1526742 1594644 1622354 1667860 1746680 1816464
2076.01 1861302 1900276 1956780 2018358 2097060 2190552
2078.90 2254090 2317194 2359810 2441172 2544344 2619078
2081.79 2712058 2813880 2912168 3016402 3117850 3212574
2084.69 3321738 3419572 3534946 3645298 3740128 3860554
2087.58 3986352 4106294 4227674 4343184 4464230 4561526
2090.47 4665264 4794996 4910064 5023620 5126984 5280696
2093.36 5389314 5427418 5514006 5616508 5730560 5841714
2096.26 5895210 5941140 6066376 6240752 6403778 6571720
2099.15 6694960 6782694 6868014 6867288 6823738 6807310
2102.04 6833876 6904662 7040980 7226946 7434890 7644956
2104.93 7869788 8101624 8287448 8443112 8563866 8636372
2107.83 8686512 8723138 8773064 8847418 8932778 9071042
2110.72 9265520 9478330 9675902 9856550 10009160 10167550
2113.61 10328600 10463450 10593990 10701830 10810300 10971080
2116.51 11121010 11245440 11385730 11504040 11599440 11688810
2119.40 11784290 11893830 12017770 12108240 12171470 12247630
2122.29 12317470 12411790 12471250 12499760 12548560 12579790
2125.18 12562820 12533670 12545140 12533170 12510030 12504340
2128.08 12519470 12526150 12515690 12496850 12472020 12477210
2130.97 12489550 12487030 12473260 12442810 12435660 12464190
2133.86 12507390 12562930 12572490 12567950 12446720 12203590
2136.75 12043200 11950960 11863780 11773000 11688930 11586590
2139.65 11518580 11507990 11507220 11537300 11610600 11646640
2142.54 11738210 12009280 12274330 12389670 12378340 12109090
2145.43 11541090 11042750 10747390 10560870 10453780 10349400
2148.33 10238320 10124230 10004210 9862974 9696236 9548668
2151.22 9401886 9280238 9164514 8987150 8773920 8574776
2154.11 8407374 8223234 8058578 7869478 7608208 7382566
2157.00 7168754 6918370 6704322 6495082 6273842 6029454
2159.90 5776626 5545630 5306162 5083650 4832292 4598584
2162.79 4431804 4258502 4057058 3839870 3678350 3550748
2165.68 3388038 3231030 3113748 2995588 2855416 2761260
2168.57 2683092 2586508 2491792 2392914 2294502 2200578
2171.47 2120956 2065490 2033632 1992640 1956702 1935864
2174.36 1904642 1854738 1812070 1795474 1739574 1699784
2177.25 1681452 1663864 1675416 1632238 1582734 1585016
2180.15 1541344 1473718 1477212 1495282 1432880 1342064
2183.04 1332242 1397668 1457678 1469834 1450712 1430522
2185.93 1393440 1348458 1313314 1270238 1221752 1207260
2188.82 1251758 1314968 1352446 1349042 1337960 1355816
2191.72 1364078 1324560 1304012 1285546 1283208 1303558
2194.61 1302226 1301136 1281166 1273200 1299602 1317634
2197.50 1327880 1350268 1341292 1355748 1366912 1338530
2200.39 1344100 1364992 1383066 1411800 1403570 1400446
2203.29 1431830 1439246 1426188 1438876 1470384 1459780
2206.18 1464314 1532170 1588480 1596556 1635862 1680896
2209.07 1722872 1803426 1850070 1870998 1903630 1934970
2211.97 1956716 1942078 1978410 2023038 2026744 2016838
2214.86 1996200 1991000 2004326 2046704 2069274 2084846
2217.75 2138432 2188452 2228722 2255552 2269268 2319370
2220.64 2357032 2392390 2467200 2537726 2593944 2683666
2223.54 2773134 2846782 2920266 2992046 3105656 3182194
2226.43 3223162 3247446 3265784 3321594 3409534 3516494
2229.32 3597964 3649082 3724968 3759008 3781406 3842598
2232.21 3872230 3916466 3944310 3956422 3983244 4013038
2235.11 4040764 4075390 4143552 4199914 4219748 4264932
2238.00 4331522 4382438 4392702 4447846 4528092 4573670
2240.89 4623868 4680018 4739424 4832910 4928682 5050226
2243.79 5244664 5417272 5472780 5379640 5265454 5206804
2246.68 5105716 4911986 4743040 4660248 4617922 4617234
2249.57 4642742 4660162 4689512 4733732 4782510 4863360
2252.46 4902240 4889548 4906684 4942018 4996354 5015120
2255.36 5024968 5013630 4986948 4978910 4951360 4949874
2258.25 4929000 4894062 4865964 4831816 4827144 4806114
2261.14 4741072 4661664 4614800 4598942 4537666 4429600
2264.03 4337078 4257286 4161380 4083354 4076126 4046344
2266.93 3967028 3909936 3851724 3779706 3710834 3668414
2269.82 3615716 3554490 3516578 3488376 3430704 3393472
2272.71 3365902 3285820 3216042 3153052 3084422 3044504
2275.61 2987718 2932794 2899912 2836532 2786202 2756722
2278.50 2666094 2593564 2578182 2537014 2491018 2458268
2281.39 2461422 2443038 2388258 2326262 2282764 2267898
2284.28 2233128 2165640 2123894 2121226 2119794 2105690
2287.18 2076024 2054082 2039318 1987712 1958626 1940888
2290.07 1911038 1921776 1915824 1893250 1884076 1865678
2292.96 1841276 1804190 1785818 1772608 1728526 1727906
2295.85 1714678 1671190 1673934 1657960 1655240 1638066
2298.75 1617382 1624754 1625446 1633518 1619326 1558690
2301.64 1544050 1548840 1518856 1504146 1493984 1523318
2304.53 1527970 1506654 1514292 1553350 1568250 1530402
2307.43 1526204 1538932 1585134 1561108 1501176 1540738
2310.32 1606934 1610628 1596620 1615298 1634898 1633988
2313.21 1578900 1552656 1617076 1684504 1595686 1504794
2316.10 1549950 1675904 1655478 1590070 1663692 1748926
2319.00 1643514 1491348 1506480 1673514 1691082 1506368
2321.89 1521584 1742538 1726728 1543846 1593294 1842230
2324.78 1828034 1559520 1625154 1899356 1862412 1643430
2327.67 1759238 1995434 1820148 1540252 1714186 1946566
2330.57 1682474 1481320 1795190 1937156 1588202 1539556
2333.46 1951188 1905400 1506652 1619430 1942300 1696200
2336.35 1423682 1730494 1871060 1495408 1482924 1867316
2339.24 1709032 1387268 1645826 1794340 1450746 1394306
2342.14 1650980 1528480 1314204 1466954 1519844 1329898
2345.03 1403508 1534406 1379650 1267246 1305572 1262362
2347.92 1167512 1135500 1144202 1168346 1139550 1155288
2350.82 1257296 1222222 1141428 1292274 1281978 1102148
2353.71 1310218 1342906 1136140 1386736 1392492 1107916
2356.60 1392234 1399116 1156834 1467658 1369458 1109362
2359.49 1433128 1282950 1137242 1469416 1159092 1147606
2362.39 1403886 1068008 1241152 1286620 1037494 1268514
2365.28 1057030 1009308 1163824 891950 1067260 1019238
2368.17 913210 1026128 819484 906070 848038 786546
2371.06 818022 701218 756758 676916 711942 673378
2373.96 610996 629946 564384 593080 592182 562772
2376.85 508424 467942 419014 424336 417654 401652
2379.74 419626 429760 390056 340006 358588 384288
2382.64 373292 369470 386048 384628 370384 357122
2385.53 343808 335560 338348 345086 344302 330066
2388.42 329006 370472 391266 362822 373692 412260
2391.31 420356 400504 387314 401354 457456 480050
2394.21 479186 512994 525216 523978 550622 571812
2397.10 574532 614596 625828 652694 677744 673436
2399.99 694496 699660 744694 809154 831510 865206
2402.88 934172 966844 972444 1003814 1056492 1083604
2405.78 1080878 1102698 1137994 1171550 1213060 1229078
2408.67 1257616 1313036 1351526 1365794 1392288 1443252
2411.56 1490440 1538042 1562444 1578800 1609720 1629976
2414.46 1634986 1652660 1709356 1760752 1802056 1811892
2417.35 1822150 1883052 1914112 1911454 1930372 1967874
2420.24 1996074 2028472 2022912 2026242 2050296 2086282
2423.13 2135442 2125762 2102296 2114624 2146180 2140596
2426.03 2128122 2125382 2132678 2126822 2125688 2156742
2428.92 2183452 2200602 2212436 2237938 2242774 2191894
2431.81 2184908 2187038 2136914 2126714 2133294 2125638
2434.70 2121792 2092288 2106312 2142926 2091872 2069266
2437.60 2098574 2073388 2052952 2076654 2126804 2163890
2440.49 2179026 2221924 2266464 2372736 2513522 2501934
2443.38 2344296 2177368 2063558 2009628 1973532 1941408
2446.28 1933296 1917892 1932150 2021114 2146846 2313900
2449.17 2378924 2198218 1923204 1679414 1496782 1364692
2452.06 1268552 1185862 1114260 1058780 1032058 1035260
2454.95 1002280 944816 942034 941456 916360 878412
2457.85 801928 770062 764460 759554 758754 751804
2460.74 746870 740688 713740 718626 724324 711800
2463.63 687152 668220 696354 692592 670342 653412
2466.52 640826 622214 593162 600628 618522 609224
2469.42 608350 599210 584694 590692 591926 594546
2472.31 604306 649280 656446 599260 620772 639612
2475.20 631018 645684 640486 624428 641994 670484
2478.10 686074 689668 721868 768382 767808 754716
2480.99 750334 772616 808662 831460 859274 853060
2483.88 842084 882434 907582 906634 894662 897710
2486.77 956112 984102 995872 974628 952672 976784
2489.67 971740 1006010 1021634 992284 1006520 1038414
2492.56 1046434 1059098 1065284 1078962 1113564 1117812
2495.45 1105362 1090734 1074092 1085382 1137818 1166212
2498.34 1182666 1208316 1201268 1191406 1209470 1200632
2501.24 1217488 1238440 1262486 1311774 1307270 1309032
2504.13 1328044 1354026 1347966 1330044 1307266 1301850
2507.02 1342090 1373420 1361466 1368782 1386818 1408248
2509.92 1412110 1377830 1363568 1365460 1357816 1357418
2512.81 1335858 1326710 1350802 1317982 1302942 1322614
2515.70 1343720 1378790 1376250 1330938 1340222 1370092
2518.59 1333854 1333538 1361392 1317722 1340252 1351300
2521.49 1298574 1320414 1358600 1380864 1433774 1485328
2524.38 1527198 1524636 1471314 1497966 1498694 1449604
2527.27 1484816 1524222 1549558 1564722 1556984 1599978
2530.16 1653862 1665872 1681206 1683600 1703496 1743582
2533.06 1767354 1785020 1803000 1820844 1821102 1861142
2535.95 1937904 1973988 2002552 2031614 2057572 2113956
2538.84 2153322 2179336 2186054 2207582 2268910 2310748
2541.74 2347726 2372872 2464064 2577710 2617292 2613250
2544.63 2650260 2736370 2779318 2844250 2938250 3040002
2547.52 3137440 3201320 3298650 3379346 3408490 3485126
2550.41 3584294 3701756 3812120 3887382 3969278 4082714
2553.31 4218698 4283704 4341018 4439676 4545230 4635868
2556.20 4724470 4822014 4909674 4993832 5064960 5183600
2559.09 5282200 5318808 5391418 5427814 5472876 5554326
2561.98 5580702 5588852 5638284 5666138 5668726 5678672
2564.88 5679426 5664904 5677732 5719254 5718582 5749226
2567.77 5822370 5865404 5903534 6001138 6092720 6102638
2570.66 6088770 6098190 6147358 6282070 6466852 6655382
2573.56 6940418 7282966 7511586 7255088 6481496 5866362
2576.45 5620854 5558232 5582266 5605846 5562558 5535200
2579.34 5521526 5511544 5573546 5676834 5769804 5832848
2582.23 5911390 5963604 5961258 5935176 5900912 5890808
2585.13 5854150 5796254 5748872 5642178 5537180 5447598
2588.02 5373654 5256150 5117666 4975936 4828182 4688050
2590.91 4513142 4364432 4221040 4056216 3863644 3698922
2593.80 3529270 3357128 3228084 3050104 2891096 2763928
2596.70 2606216 2458680 2321766 2227260 2144738 2043328
2599.59 1937864 1814806 1754362 1682510 1584832 1525900
2602.48 1486744 1447926 1384800 1333406 1326194 1292968
2605.37 1232424 1229004 1178220 1118412 1104230 1078024
2608.27 1043954 1060190 1079698 1048064 1044004 1048016
2611.16 1043534 1040666 1020912 1031624 1047334 1046226
2614.05 1042888 996520 967012 986762 994418 940826
2616.95 951212 1009846 993988 961774 968918 992902
2619.84 1030170 1053534 1037014 1031428 1027310 1030436
2622.73 1037086 1046212 1039058 1029606 1052074 1062438
2625.62 1077402 1103340 1125598 1166196 1199910 1179240
2628.52 1156646 1168060 1195612 1213346 1183974 1154134
2631.41 1143972 1150882 1192814 1238480 1217498 1187208
2634.30 1237118 1261138 1254372 1286708 1246378 1218040
2637.19 1255956 1259536 1277030 1315886 1319658 1301698
2640.09 1304828 1303580 1272782 1307596 1330668 1284314
2642.98 1317208 1348216 1341506 1331374 1302772 1274876
2645.87 1305476 1328410 1312848 1299750 1250726 1265062
2648.77 1263020 1227092 1239994 1260674 1259962 1236748
2651.66 1205608 1196756 1225312 1225304 1231614 1214220
2654.55 1193956 1221258 1209674 1192746 1228188 1245416
2657.44 1183474 1154636 1163862 1161180 1164476 1106934
2660.34 1085464 1149954 1193812 1129312 1060890 1062942
2663.23 1055268 1047278 1034650 985454 984226 970244
2666.12 955562 939426 861678 888330 910924 885740
2669.01 864256 864860 868752 821492 773626 775176
2671.91 772198 744576 744448 730420 715186 716712
2674.80 699244 690274 695502 660564 662140 682094
2677.69 665766 712762 735138 679824 668852 713200
2680.59 745954 722988 706964 726064 723376 742132
2683.48 769864 742838 730446 758440 744492 733172
2686.37 732138 767724 833634 824972 811864 794288
2689.26 815716 841566 835722 846732 827430 813738
2692.16 815126 811580 815116 833096 846290 830294
2695.05 812550 852726 859204 829520 842834 874090
2697.94 934346 971164 939500 874262 850036 847904
2700.83 874614 928730 908984 897856 961472 1005494
2703.73 1019194 1042290 1094854 1164104 1196828 1203330
2706.62 1176574 1161356 1185494 1143356 1147058 1193310
2709.51 1183136 1208526 1299000 1298802 1229484 1253798
2712.41 1273428 1258052 1266276 1294874 1299364 1295060
2715.30 1300396 1259734 1205604 1202412 1198232 1202048
2718.19 1214126 1240012 1176042 1132106 1136618 1078334
2721.08 1058326 1056994 1069710 1078130 1063924 1052902
2723.98 1041624 1017148 1016808 1038910 999254 997136
2726.87 1047766 1011358 999774 1022674 974676 946008
2729.76 927168 855262 879032 957782 974906 990592
2732.65 1032068 1010414 975206 989124 1021510 1021868
2735.55 1037898 1069438 1059832 1052658 1034178 986524
2738.44 966974 994794 1028128 1035394 1086670 1125810
2741.33 1111474 1099180 1064706 1083874 1101710 1116476
2744.23 1157696 1156622 1133542 1144518 1163076 1173172
2747.12 1168744 1201760 1243990 1261910 1274360 1300992
2750.01 1332022 1329280 1348348 1381286 1407614 1407110
2752.90 1440386 1485774 1518774 1584194 1589868 1554848
2755.80 1597680 1643704 1667750 1714156 1770094 1806404
2758.69 1822526 1895380 1966116 2023632 2062734 2091116
2761.58 2166436 2228488 2291518 2313160 2332458 2429236
2764.47 2510726 2556228 2569356 2602874 2680736 2750976
2767.37 2861188 2928716 2949344 3041786 3098654 3164224
2770.26 3279046 3394652 3503218 3556656 3647154 3748938
2773.15 3818610 3953010 4011872 4050556 4135018 4164518
2776.05 4258234 4383766 4513108 4645448 4746408 4778984
2778.94 4756830 4772360 4760884 4786628 4883608 4960292
2781.83 5020006 5043806 5076870 5114782 5141500 5196638
2784.72 5298818 5344462 5421098 5504236 5526926 5587452
2787.62 5622866 5687966 5829928 5890464 5849682 5897388
2790.51 5955132 5979882 5998522 6009484 6080714 6144400
2793.40 6201836 6263212 6304968 6416588 6523258 6546854
2796.29 6633028 6753474 6788216 6813496 6780376 6650248
2799.19 6632254 6620870 6583792 6627012 6661828 6717582
2802.08 6733906 6704622 6719482 6767738 6752934 6687330
2804.97 6712234 6811186 6860866 6838960 6798382 6745258
2807.87 6734674 6735040 6752176 6765094 6762854 6769594
2810.76 6703308 6741938 6791836 6776736 6817978 6813886
2813.65 6869224 6948646 6961162 6940344 6963136 6993208
2816.54 6980818 7030050 7077366 7101934 7114136 7161360
2819.44 7247540 7359290 7475430 7622842 7682958 7680992
2822.33 7810434 7890538 7957106 8170268 8349818 8398626
2825.22 8530664 8758666 8887164 9003716 9168742 9367122
2828.11 9546622 9669610 9885404 10100120 10288990 10543680
2831.01 10808330 11077450 11333600 11571400 11819850 12105410
2833.90 12317600 12507680 12746520 12999980 13286380 13555160
2836.79 13799780 14039180 14212500 14429900 14675380 14875130
2839.69 15111340 15331700 15544500 15769530 15908950 16010240
2842.58 16224760 16421230 16575330 16710160 16844640 16985700
2845.47 17132300 17309770 17459880 17543720 17686730 17825170
2848.36 17933530 18086810 18229960 18407870 18522240 18642830
2851.26 18828740 18941070 19048420 19191370 19338170 19440550
2854.15 19488120 19532790 19633340 19780710 19913270 20020940
2857.04 20087190 20110240 20157140 20240810 20246330 20275750
2859.93 20343860 20434500 20563350 20677930 20853020 21054570
2862.83 21232700 21428050 21549630 21545130 21448320 21352030
2865.72 21297850 21175930 21102600 21089280 21059130 21068180
2868.61 21010390 20873600 20773620 20624640 20471660 20436160
2871.51 20358000 20234620 20157670 20040990 19878180 19796620
2874.40 19777430 19668230 19539020 19428220 19385700 19355830
2877.29 19296410 19217280 19150690 19116740 19029250 18989660
2880.18 18945740 18898760 18870320 18848360 18828910 18793930
2883.08 18818020 18854260 18867900 18864600 18969320 19054950
2885.97 19041970 19134920 19254170 19342180 19466170 19544150
2888.86 19654820 19825300 20003120 20241030 20516210 20846890
2891.75 21273350 21542830 21684130 21863290 22036300 22237530
2894.65 22431350 22716290 23078220 23494290 23949640 24368430
2897.54 24838030 25385760 25841760 26319000 26838620 27376310
2900.43 27993730 28595600 29247510 29924210 30578370 31318140
2903.32 32106450 32923280 33805430 34728760 35691320 36597770
2906.22 37604340 38652790 39659040 40731450 41748910 42821380
2909.11 44089410 45508780 46946420 48285480 49594700 50886690
2912.00 52174760 53549470 54968240 56363030 57645840 59005620
2914.90 60439680 61819290 63229270 64681210 66075740 67344420
2917.79 68541660 69701060 70783170 71713880 72555750 73393960
2920.68 74172200 74853660 75661610 76473090 77094500 77764520
2923.57 78552240 79197320 79707860 80169460 80571780 80912170
2926.47 81216780 81653190 82147460 82665760 83513600 84226540
2929.36 84135830 83655170 83374140 83195370 83021260 82889160
2932.25 82737650 82735180 83035590 83665750 84730660 86150950
2935.14 87748860 89510700 91297360 92987140 94511160 95806850
2938.04 96995830 98141290 99213210 100190800 101341100 102622300
2940.93 104063000 105238800 105561000 105745900 106095100 106424600
2943.82 106878700 107307000 107564000 107932700 108246400 108386500
2946.72 108437500 108309700 108096800 107742400 107352300 106827700
2949.61 106135700 105516500 104828300 103989200 103137200 102317900
2952.50 101635000 100835500 99935290 98953980 97934620 97025180
2955.39 96159140 95331110 94663880 94236250 93303950 92110060
2958.29 91155970 89961250 88638040 87514070 86909830 86496720
2961.18 86265900 86341280 86583430 87090860 88009460 89537210
2964.07 91740700 94583380 98370110 103371400 109989000 117712100
2966.96 126800500 138573100 156359500 185232100 232778200 273980400
2969.86 267256500 233550500 204941600 181983000 161859200 144023000
2972.75 129516900 118361000 109881500 103389500 98422440 94407950
2975.64 91551290 89545950 87877380 86363980 85102180 84199510
2978.54 83842850 83893980 84186790 84551870 84964520 85519990
2981.43 86309540 87347550 88531390 89761940 91036310 92207280
2984.32 93194440 94246510 95358550 96398180 97455060 98340050
2987.21 99154460 99962410 100796100 101624900 102387600 103189700
2990.11 104026300 104758500 105475800 106307100 107169200 108052100
2993.00 108917000 109862600 110906100 112020900 113088600 114091600
2995.89 115057800 115992700 117009800 118063700 119159300 120152500
2998.78 121098400 122067800 123001800 123795000 124534500 125220300
3001.68 125787000 126294400 126740800 127080900 127396600 127623500
3004.57 127604100 127447100 127223500 127074400 127038200 126770700
3007.46 126225000 125757700 125353000 124828000 124299900 123813400
3010.36 123328400 123244700 123539600 123943300 124595300 125681300
3013.25 127232900 129231200 131524700 133592600 135229700 136670800
3016.14 139406500 141816800 136493500 127044500 122128600 120578400
3019.03 120242900 120487700 120978800 121782400 122667600 123311300
3021.93 123701700 124074700 124501000 124859700 125236300 125531000
3024.82 125681100 125714100 125838100 125947400 125740800 125423100
3027.71 124894000 124140000 123197100 121951400 120541600 118940500
3030.60 117145400 115180000 113002800 110693600 108175900 105593400
3033.50 103042500 100405300 97901500 95394700 92838430 90398730
3036.39 87992670 85547490 83117300 80724880 78426970 76215720
3039.28 73984130 71878140 69890870 67790590 65833180 64154820
3042.18 62729490 61518940 60409780 59450840 58540720 57665050
3045.07 56830050 56055580 55305160 54548230 53788050 53120120
3047.96 52541230 51974300 51489640 50989170 50485220 50103040
3050.85 49783340 49459150 49184210 48969130 48814460 48707220
3053.75 48626140 48521340 48342740 48167610 48004010 47772220
3056.64 47557660 47356500 47107990 46913620 46748690 46538190
3059.53 46326110 46141110 45964460 45787880 45676900 45617470
3062.42 45553050 45420200 45346810 45399490 45390780 45290040
3065.32 45099180 44939990 44851180 44685780 44588240 44557420
3068.21 44500260 44472100 44382960 44250020 44109960 43992020
3071.10 43852470 43665110 43599930 43481620 43256540 43059170
3074.00 42841690 42545680 42228460 41968050 41728120 41499160
3076.89 41182420 40916710 40783460 40640710 40438290 40127060
3079.78 39909780 39732900 39440530 39162270 38975160 38759580
3082.67 38471400 38181430 37788240 37429280 37103930 36779160
3085.57 36481260 36174660 35911020 35649900 35360520 35118660
3088.46 34845760 34503040 34179050 33816780 33495150 33084170
3091.35 32491160 31934260 31470700 30925870 30358390 29880760
3094.24 29451390 29014630 28492250 28003320 27594360 27149650
3097.14 26765660 26453310 26142510 25854550 25549480 25197350
3100.03 24867880 24543560 24201300 23805780 23366300 23018910
3102.92 22714400 22281680 21813220 21460130 21032890 20642780
3105.82 20329010 19895010 19479620 19105360 18733460 18430410
3108.71 18108080 17691480 17333630 16962110 16523510 16202280
3111.60 15938170 15618610 15287070 14939780 14537790 14144740
3114.49 13837410 13583750 13285420 12925060 12614560 12444370
3117.39 12179930 11847620 11587500 11274310 10978240 10777380
3120.28 10673320 10497180 10218490 9998426 9822782 9594888
3123.17 9348986 9157926 8999496 8814224 8634788 8508004
3126.06 8298856 8133394 8066194 7916602 7699952 7535122
3128.96 7392318 7285790 7192894 7096546 7011254 6864318
3131.85 6770054 6656686 6467172 6343754 6306068 6269402
3134.74 6154268 6031382 5946578 5931522 5932660 5873524
3137.64 5789154 5620740 5504782 5527896 5588278 5569418
3140.53 5453662 5303994 5160544 5121834 5120914 5042208
3143.42 4978620 4960232 4925748 4891038 4811716 4761120
3146.31 4775358 4777360 4781388 4718530 4704946 4760266
3149.21 4722996 4693348 4737972 4658614 4465668 4448182
3152.10 4590946 4627558 4514142 4427056 4359680 4265756
3154.99 4243740 4263308 4237008 4224884 4278954 4271420
3157.88 4212154 4122710 4083270 4124928 4114762 4019818
3160.78 3975724 3954746 3935560 4012418 4034016 3980362
3163.67 3905334 3909932 3945466 3919798 3874220 3832476
3166.56 3784626 3793114 3790228 3804732 3797346 3750232
3169.46 3746232 3751174 3716606 3636816 3653164 3653594
3172.35 3551900 3503316 3509266 3458236 3451940 3489154
3175.24 3514284 3521256 3464518 3475584 3500752 3441358
3178.13 3374836 3378738 3342096 3213484 3164592 3181802
3181.03 3181512 3177442 3138024 3134106 3160412 3100210
3183.92 3074444 3043466 2996028 2949018 2916464 2910400
3186.81 2838892 2794870 2794722 2804676 2812724 2738044
3189.70 2662086 2641964 2669454 2707768 2610214 2516526
3192.60 2522078 2536042 2534932 2515676 2486986 2431520
3195.49 2470166 2433230 2326586 2361380 2362750 2325614
3198.38 2348906 2311966 2217638 2213770 2219974 2186460
3201.27 2124850 2133122 2166468 2076314 2019934 2027256
3204.17 2020982 1990734 1990296 1981624 1946974 1957486
3207.06 1953140 1921118 1918826 1868622 1820256 1854422
3209.95 1923382 1882378 1776952 1780788 1853212 1814778
3212.85 1679960 1740404 1764006 1680240 1693734 1707726
3215.74 1727154 1670114 1614550 1635334 1612112 1580502
3218.63 1591346 1634972 1673606 1601978 1534940 1567632
3221.52 1595452 1577758 1531632 1465370 1455944 1517874
3224.42 1575734 1585924 1515656 1468412 1452320 1387368
3227.31 1365598 1409724 1435504 1433872 1430554 1482634
3230.20 1480102 1425412 1421782 1474508 1451152 1310360
3233.09 1252156 1310964 1355478 1329634 1343434 1346086
3235.99 1360668 1377930 1322978 1352210 1418426 1389932
3238.88 1311346 1269528 1297406 1298428 1295986 1282536
3241.77 1237996 1219782 1216138 1280980 1289812 1294840
3244.67 1318602 1199722 1162526 1209016 1193248 1168936
3247.56 1176854 1214836 1163728 1095350 1143980 1225020
3250.45 1228276 1227078 1167320 1118748 1212400 1274558
3253.34 1254282 1240538 1238196 1112910 1078798 1159760
3256.24 1165012 1175766 1126314 1107518 1168114 1123194
3259.13 1038162 1064400 1107680 1095036 1092144 1114028
3262.02 1111008 1072956 992746 1016208 1082550 1094270
3264.91 1022402 978672 1039766 1039890 993904 959278
3267.81 1000098 980948 941346 994342 969698 884350
3270.70 901258 980304 1064122 1082134 1044540 1011820
3273.59 970194 957582 995314 995812 986960 1039946
3276.49 1048530 1011824 1009112 1034212 983186 928360
3279.38 941272 1017624 1071264 1066888 1040082 998832
3282.27 1048004 1031970 997494 1042976 1005284 946266
3285.16 971980 1031204 1079994 1041662 1010632 1142026
3288.06 1202232 1101772 1024150 1014920 1010060 1054532
3290.95 1112374 1158162 1154878 1081978 990156 954994
3293.84 1046162 1069986 1000016 990318 1024606 1003514
3296.73 992678 1019636 1043774 1064550 1025312 1092870
3299.63 1159300 1112440 1116554 1066598 999916 948454
3302.52 946274 968666 953456 916974 1006678 1064296
3305.41 982960 998448 1020828 1032966 1044912 1052666
3308.31 1089212 1128030 1149846 1123734 1054738 1049884
3311.20 1046942 1038804 928830 881212 923492 951320
3314.09 1005528 955156 1005724 1012884 950438 992268
3316.98 1043910 1019362 988124 974898 918624 968216
3319.88 935168 838638 895626 899448 881514 883938
3322.77 895494 885904 818650 859138 920820 891580
3325.66 858906 862328 896616 923424 899190 839088
3328.55 775360 721768 741044 726652 667744 721812
3331.45 827448 784016 696930 701710 693608 678426
3334.34 750472 713072 666110 694710 692326 619206
3337.23 598082 607204 585788 701676 697660 668824
3340.13 710328 658806 577710 609554 610938 570314
3343.02 613500 661258 633402 587968 532150 523692
3345.91 576466 603440 639128 696990 685246 640328
3348.80 688866 633498 506380 495970 543878 592836
3351.70 629852 595906 611698 684720 687870 672344
3354.59 615476 570502 633768 661420 610006 635618
3357.48 643576 676028 719512 698370 683824 595954
3360.37 574766 637310 655132 708020 683674 690328
3363.27 751898 783534 817230 778430 737300 706094
3366.16 680688 742734 777034 771226 775090 666582
3369.05 705694 919484 899010 885386 931476 942514
3371.95 960056 981482 993776 1016518 1093644 1056456
3374.84 1068494 1135328 1123442 1096284 1099514 1128996
3377.73 1264730 1315576 1280428 1234150 1195904 1229328
3380.62 1261956 1340070 1360108 1366982 1360946 1398670
3383.52 1520504 1473770 1330690 1331218 1366598 1414020
3386.41 1463650 1450950 1432962 1414896 1393766 1375570
3389.30 1400840 1406682 1444630 1460444 1472270 1572104
3392.19 1625378 1556544 1475354 1466550 1416782 1387114
3395.09 1406970 1413918 1492386 1533372 1517256 1593660
3397.98 1600080 1533720 1460142 1441854 1455180 1500290
3400.87 1597650 1612218 1605522 1618802 1628482 1596726
3403.77 1591820 1657216 1632336 1612474 1652590 1665152
3406.66 1744538 1778228 1779556 1779290 1814194 1840936
3409.55 1929680 2083292 2079356 2027954 2090416 2173216
3412.44 2246864 2359906 2443700 2535862 2627358 2700506
3415.34 2811118 2944838 2995738 3100562 3305428 3418958
3418.23 3472958 3673114 3882446 4106222 4309096 4376690
3421.12 4640524 4868784 5024056 5307324 5571942 5829124
3424.01 6070764 6285380 6571260 6859590 7167890 7563580
3426.91 7868358 8173254 8499158 8903830 9296778 9621792
3429.80 9994616 10398040 10802170 11131250 11458170 11808370
3432.69 12345000 12793020 13150950 13567750 13916190 14278940
3435.59 14603290 14940410 15315880 15650370 15981560 16367410
3438.48 16669150 16953460 17286130 17562030 17803640 18054230
3441.37 18361030 18715460 19042350 19302810 19525510 19713690
3444.26 19977740 20246600 20455260 20702340 21061400 21375050
3447.16 21478590 21572300 21647620 21652350 21571780 21405000
3450.05 21482260 21821070 22184700 22641050 23224070 23910190
3452.94 24563750 25097510 25482700 25691670 25711960 25585680
3455.83 25504840 25448880 25374370 25210900 24996530 24984260
3458.73 24921890 24779550 24858870 24837710 24737670 24732360
3461.62 24710150 24749580 24739320 24634040 24501380 24431840
3464.51 24296900 24086880 23915580 23769140 23579470 23314430
3467.40 23010410 22683350 22504290 22234160 21819290 21595940
3470.30 21301780 20907730 20636920 20384600 19947050 19514610
3473.19 19167860 18794390 18497170 18153470 17680170 17215750
3476.08 16884130 16527510 16097190 15695160 15316080 14862020
3478.98 14505610 14226890 13871970 13510840 13153510 12811650
3481.87 12450570 12103680 11783890 11473190 11110330 10724680
3484.76 10385070 10054430 9790040 9493082 9138384 8877510
3487.65 8599218 8372222 8241016 8079646 8008472 7903172
3490.55 7762948 7611058 7384964 7232622 7046918 6910884
3493.44 6864488 6793246 6759184 6637804 6421488 6289864
3496.33 6119864 5910176 5754214 5564434 5420644 5352316
3499.22 5298226 5207806 5055926 4950718 4898920 4759404
3502.12 4638842 4673586 4525754 4260534 4154664 4026010
3505.01 3841456 3678226 3661534 3584472 3382548 3246244
3507.90 3245672 3170834 3073564 2909716 2714906 2689410
3510.80 2660328 2621794 2488634 2360192 2351722 2242914
3513.69 2079514 2048478 2014214 1925170 1796644 1716698
3516.58 1689956 1641438 1602214 1573570 1566938 1540646
3519.47 1474882 1345396 1282262 1334462 1266050 1189680
3522.37 1253044 1246122 1220498 1190890 1067534 1069644
3525.26 1124420 1021290 1014924 1034380 972188 940474
3528.15 886770 898058 825848 742156 787678 766922
3531.04 669358 579726 558256 591548 520320 461376
3533.94 468660 440740 474538 550890 548818 508256
3536.83 457132 394280 383410 398856 310442 300716
3539.72 330028 201194 141064 175386 260730 367404
3542.62 359072 360224 327176 292558 417308 336052
3545.51 136020 286718 551370 381204 216656 218466
3548.40 133610 120032 153314 193440 236536 229620
3551.29 302564 493410 409936 277450 265936 183288
3554.19 107308 98576 188170 165802 173784 251940
3557.08 239914 206980 230404 217254 139722 247512
3559.97 265746 161198 149738 210136 216152 135340
3562.86 248304 275084 251440 257630 349856 575138
3565.76 784042 801464 408646 656742 982354 478154
3568.65 127844 81028 81120 131566 140320 48470
3571.54-46786-36444-66876-124586-94106-32884
3574.44-52726-125690-92140-21468 2128-44186
3577.33-150770-183804-129808-14368 84200 56358
3580.22-67388-138528-152856-74908-106268-156534
3583.11-100086-113542-93872-6624 25174 343054
3586.01 884996 588328 165828 201536 996996 1079356
3588.90 106494-65804-61738-116218-123606-47850
3591.79 30976 203302 298172 92078-53790 8432
3594.68 305944 346590 179228 18748-41864 19146
3597.58 64708 94984 91988 117828 79448 127702
3600.47 272524 189896 31940 19072 70876 21784
3603.36-30422 11832-11062 27030 134202 131654
3606.26 464730 514198 204316 131570 606100 1783546
3609.15 1219120 225946 109436 13252 67982 539470
3612.04 1238352 758906 192282 315162 574042 445590
3614.93 240092 172346 106464 82602 562814 839378
3617.83 432702 325480 1256086 1673904 642738 331880
3620.72 411178 208366 129090 130268 198598 176688
3623.61 90794 80588 111124 131710 296040 322212
3626.50 363242 394212 1601104 2472598 1598864 2758496
3629.40 2467816 686090 441408 238176 166720 138766
3632.29 153972 350670 662978 443146 183392 162766
3635.18 125840 102650 170764 171080 201180 317630
3638.08 285774 202970 153758 169792 162974 127410
3640.97 139938 221688 279190 235004 214686 204482
3643.86 168086 262542 340478 428762 671326 1105728
3646.75 1642348 1383190 666894 1390702 3412318 2393076
3649.65 989458 1515026 1636470 1284918 516238 347600
3652.54 314708 224732 252514 284756 468724 554918
3655.43 1623020 2329398 1004212 336748 279388 206062
3658.32 261748 252044 254154 210220 237144 285008
3661.22 285176 249634 217284 230910 306954 269102
3664.11 225974 261510 299822 320610 388948 395454
3667.00 455780 501660 1330670 1637060 957862 869966
3669.90 2961668 4059666 1605046 588814 570972 446990
3672.79 525232 699722 1190504 2476240 2616242 3351772
3675.68 3832272 1476624 671602 687156 557772 554902
3678.57 862902 1040754 659504 575918 527390 405174
3681.47 373382 365838 386506 445454 455218 443248
3684.36 525278 475040 371390 408466 589446 810124
3687.25 1411224 4226054 4205856 1302592 722992 810298
3690.14 1076892 1831246 1611128 704412 577718 588654
3693.04 547978 500254 533836 566290 550356 533544
3695.93 558556 532736 514550 492532 498358 540132
3698.82 563096 499804 516772 615806 1033720 1647428
3701.72 1239210 683284 610900 529482 512422 504108
3704.61 556294 586288 585290 570860 589940 522002
3707.50 614834 720274 1371594 1943576 1211348 749526
3710.39 1034636 1203630 2758948 3564556 1722964 841832
3713.29 707100 660040 850768 671720 588992 662006
3716.18 662800 666428 656512 669842 905402 1033992
3719.07 782748 619478 663514 679756 757886 1235800
3721.96 1316802 888650 749834 752116 882044 1084346
3724.86 973826 814838 1408730 1547664 891060 774752
3727.75 763630 790398 741060 757086 835804 985934
3730.64 992882 1825356 3254600 2264820 1096260 1131416
3733.54 1313124 1968956 2320066 2024010 1518904 2820920
3736.43 3171296 1370108 1096690 1426052 1212014 994948
3739.32 895632 942732 1131760 1349716 1102632 966026
3742.21 1068516 1467256 2416852 5240058 7566282 4789194
3745.11 1850622 1324326 1102416 1228430 1250736 1337822
3748.00 1461052 3731208 5680718 3243158 1389300 1614368
3750.89 1755286 4366030 5898622 2873296 1314022 1299462
3753.78 1035428 995034 1111570 1175256 1397830 1636724
3756.68 1188814 996328 990286 1098398 1339842 1895504
3759.57 1937446 1213290 959816 994210 1014292 1019740
3762.46 989704 1004520 972970 1033856 1134674 1599978
3765.35 1910396 1355898 996588 993434 1068410 1126576
3768.25 1099052 1366508 2420108 2380960 1349296 1198464
3771.14 1196124 1106214 1067436 1065848 1029516 1084720
3774.03 1086608 1001706 1002222 1013346 1064074 1137096
3776.93 1127700 1283390 1361934 1486420 2082272 1915346
3779.82 1304856 1252650 1284668 1328698 1314288 1270762
3782.71 1247242 1302456 1439014 1601728 1596072 1395592
3785.60 1277170 1333372 1357296 1314324 1320030 1323476
3788.50 1325416 1376566 1392810 1414736 1423532 1404346
3791.39 1407632 1378822 1358604 1397820 1376550 1414332
3794.28 1524018 1581652 1715240 2396816 2354680 1738582
3797.17 1757266 1737314 1624334 1732008 1790066 2082316
3800.07 2293046 4569614 6151284 3427504 2182602 2376200
3802.96 2040944 1921810 1857282 1827266 1934850 2035410
3805.85 2506476 4489568 4167600 2205192 1824758 1689704
3808.75 1738330 1788822 1657090 1596556 1577230 1609042
3811.64 1698488 1754576 1728990 1737774 1709444 1841736
3814.53 1942186 3226572 6003996 4682686 2137062 1907162
3817.42 1717904 1875522 1832376 1907774 2048702 2872006
3820.32 3483824 3381802 3783578 2794472 1853706 1791328
3823.21 1670378 1780216 1660150 1613642 1633936 1688410
3826.10 2147204 2071160 1670386 1656706 1567578 1544154
3828.99 1515966 1508166 1591328 1732574 2507804 2657240
3831.89 1812024 1541770 1538386 1533158 1817780 2727650
3834.78 2530354 1626658 1615104 1697354 2448614 5586164
3837.67 5153046 2115446 1594450 1712642 1784858 1838090
3840.57 2292288 1740332 1257210 1318916 1352924 1943842
3843.46 1973312 1349548 1194776 1087824 1026888 1041378
3846.35 1048064 1029682 1071724 1078770 1145298 1217198
3849.24 1247902 1153916 1233458 1383510 3428172 4956260
3852.14 2810164 1952096 4232696 7628904 6310176 2463698
3855.03 1375582 1123072 1107906 1371514 1387822 1076430
3857.92 949968 910078 846608 873366 1021354 1027022
3860.81 1290662 1814338 1342286 914636 986004 1125308
3863.71 1247938 2044554 2743176 1700240 992180 931236
3866.60 816052 826342 881854 1181312 1867610 2281150
3869.49 3508072 2789244 990200 951510 875994 863458
3872.39 854416 953048 1347258 1756116 1259100 784424
3875.28 803128 710702 737198 710670 696432 715046
3878.17 774526 808080 1144754 1896104 1631948 1135908
3881.06 972278 757832 788052 985534 1006910 856398
3883.96 941910 1160894 2636258 3170396 1567492 842226
3886.85 861650 780420 722074 765100 814402 894444
3889.74 842186 1334982 2591128 2163134 1123502 1009256
3892.63 934580 929426 1015382 951186 831858 839298
3895.53 861374 881518 925864 994416 1103256 1139050
3898.42 1786896 2514474 1665330 1066530 1126634 1690616
3901.31 2625444 1979790 1308082 1267352 1962236 2899206
3904.21 2015192 1272232 1456004 1491188 1292192 1126636
3907.10 1102058 1152194 1124780 1088404 1126784 1146948
3909.99 1092188 1166062 1231096 1175984 1217260 1236984
3912.88 1253338 1289598 1325148 1359460 1297294 1329726
3915.78 1488608 1773152 2185606 1788636 1363554 1426290
3918.67 1428150 1704774 1937834 1582056 1343316 1363902
3921.56 1391230 1436578 1446944 1542464 1561804 1583300
3924.45 1818990 1802774 1472228 1304168 1306546 1392644
3927.35 1456264 1470496 1556346 1620540 1518342 1507094
3930.24 1524794 1465018 1614850 1917526 1870140 1593394
3933.13 1514362 1509308 1560054 1655546 1587194 1505964
3936.03 1500000 1381840 1369396 1507814 1533044 1496168
3938.92 1503366 1493432 1512206 1527754 1471854 1478226
3941.81 1670384 1849706 1627008 1497252 1560756 1514270
3944.70 1527374 1531624 1526982 1503682 1582218 1656490
3947.60 1588298 1492022 1457984 1647744 1746504 1562828
3950.49 1504102 1485632 1460746 1489736 1450386 1419026
3953.38 1450202 1503208 1563738 1580870 1493468 1452476
3956.27 1499526 1558662 1565452 1591832 1588332 1593180
3959.17 1634150 1615202 1651296 1657126 1706794 1767792
3962.06 1717770 1658040 1615248 1669638 1755370 1765602
3964.95 1781414 1807678 1804436 1785848 1825730 1891194
3967.85 1898640 1961354 2016108 2016944 2018478 2014352
3970.74 2017678 2138150 2282642 2245468 2186236 2230758
3973.63 2270206 2378636 2437812
##END=
