##TITLE=Chloroform
##JCAMP-DX=4.24
##DATA TYPE=INFRARED SPECTRUM
##CLASS=IUPAC A
##ORIGIN=NIST, Analytical Chemistry Division, 301-975-3108
##OWNER=COPYRIGHT (C) 2000 by the U.S. Secretary of Commerce
##DATE=00/02/01
##$SPECTRA VERSION=1.10
##$UNCERTAINTY IN Y=2.2 % relative (B=1.2E-04,C=3.2E-09,D=1.1E-13)
##CAS NAME=Chloroform
##CAS REGISTRY NO=67-66-3
##MOLFORM=C H Cl3
##MP=-63.5 C
##BP=61.7 C
##$NIST SOURCE=QUANT-IR
##SPECTROMETER/DATA SYSTEM=IFS66V (Bruker)
##INSTRUMENT PARAMETERS=KBr Beam Splitter; MCT Detector; Multipass cell
##STATE=gas
##SAMPLE DESCRIPTION=Chloroform Primary Gas Standard
##PRESSURE=101.3 Pa
##TEMPERATURE=23 C
##SAMPLING PROCEDURE=1 L/min Flow
##RESOLUTION=0.9640
##DATA PROCESSING=Boxcar Apodization
##XUNITS=cm-1
##YUNITS=(micromol/mol)-1m-1 (base 10)
##XFACTOR=1.0
##YFACTOR=3.6379E-12
##DELTAX=0.4820
##FIRSTX=575.17
##LASTX=3974.605
##FIRSTY=-3.96E-06
##MAXX=3974.12
##MINX=575.17
##MAXY=.0028061
##MINY=-8.34E-06
##NPOINTS=7052
##XYDATA=(X++(Y..Y))
575.17-1090930-493933 327300 752125-282270-349911
577.58-569770 588159 158674 263707-147187-23671
580.47 1021859-340287 200855-3838-337000-404739
583.37-194003 41789-1265-459086 40222-453088
586.26-229561 262036-723228-286487-226587 143533
589.15 374989-83950-34380 100951-186170 196571
592.04-123884-347214-119296 56475 27177-183815
594.94 131484-21913 116395-61115-53920 20027
597.83-188073 52293 504189-301826 220515 43458
600.72-23250 249170 216851 76069 558586 228522
603.62 430600 169928 173707 234258 95798 210061
606.51 61935 278516 267174 318840-53617 542729
609.40 174264 487731 360763 502639 467256 349399
612.29 389803 289049 310765 115280 811486 510223
615.19 617601 410781 974234 454163 429598 275451
618.08 397009 341890 85958 398508 513884 953159
620.97 1212237 1886166 1177776 306096 207706 392519
623.86 88460 190893 397918 631023 1260229 1592305
626.76 1679690 792645 104554 606689 506363 332198
629.65 349570 12657 625618 473214 520402 420782
632.54 842812 428993 516006 437469 567861 560703
635.44 559392 454148 718437 479806 533175 467641
638.33 529602 356584 595298 345995 472361 384317
641.22 472113 279318 317252 172074 261066 151189
644.11 265805-47025 118867 80008 281924 55541
647.01 23880 207670 97445 85075 98847 2152
649.90 271039 95895 209911 471446 110939 170160
652.79 264415 383485 376625 286601 216671 373752
655.68 605246 535389 495114 356686 934713 748449
658.58 581176 718397 890913 978744 1221168 912814
661.47 1000846 1271154 1497731 1374499 1597084 1766654
664.36 1707661 1850899 2105876 1959413 2083255 2749384
667.26 3684102 3289273 3494781 3668372 4595566 5449304
670.15 6412076 7676248 9089127 10720822 13341057 15196493
673.04 15711927 17181658 19260220 15383075 12547276 13810740
675.93 9806683 2499177 2647924 3068593 3608193 4487694
678.83 4993141 5943628 6643168 7292962 8162445 8979511
681.72 9722560 10204221 11065162 11597082 11934971 11962328
684.61 12324404 12252526 12202248 12078631 11685307 11088155
687.50 10722581 10064007 9315016 8502902 7627163 7011350
690.40 6365555 5395804 4870874 4137290 3567829 3192850
693.29 2656248 1941230 1840717 1390184 1366570 966732
696.18 995164 674627 626535 638355 363501 375396
699.08 382522 259969 171360 84757 276769 44674
701.97-32147 66318 147024-21655 130756 16218
704.86 6099-88218 217201-156677 107512 33714
707.75-16929 1220 105194-73217 224700-207398
710.65-10049-16591 149202-46356 52046-38353
713.54 166477 4384 247072 21820 120989 112376
716.43-13284-5155 135774 45775 162684 79075
719.32 195602 150120 145721-8333 298048 172197
722.22 275485 193679 279128 298322 417305 275410
725.11 385414 367538 484500 432290 602889 676547
728.00 818309 727508 858697 930142 1254488 970484
730.90 1369299 1270523 1542051 1481291 1912288 1789518
733.79 2206259 2254383 2500740 2744159 3194346 3281885
736.68 3771670 4009104 4642874 4727175 5458872 5645759
739.57 6452773 6925342 7692187 8217964 9150079 9803317
742.47 10901652 11552981 12702347 13687823 15237933 16119804
745.36 17655539 18783961 20550859 21729025 23695563 24815318
748.25 27179468 28764011 30977621 32764065 35622050 37484091
751.14 41456821 44615613 47335589 51720692 56537443 59647444
754.04 64267157 68272121 74090980 79578305 86120961 92726231
756.93 100330996 107228965 117963039 127841800 137728405 150444856
759.82 166765217 176329090 193861224 212701903 230709643 250530205
762.72 272524361 295778940 322689440 349730276 380102765 408876461
765.61 444829474 476610363 513342061 547907058 582819800 617278049
768.50 650792191 679721768 708925326 727977700 747073059 745849993
771.39 771338259 764641853 757971155 761563313 732896266 678272337
774.29 702936951 766005512 653219328 669685542 734399617 651561864
777.18 576709624 516280536 460511870 413012144 368586710 331577440
780.07 295761757 265046901 237679315 212290826 190449637 170017455
782.96 151602120 136241496 121560370 109290472 97645378 87993141
785.86 78550489 71043058 63268239 57378953 51203613 46737919
788.75 41840387 37965894 34205939 31388562 28152222 26048198
791.64 23613157 22070877 20082840 18812836 17197142 15864816
794.54 14449835 13556588 12159418 11275594 9905575 9650557
797.43 8035890 7529277 6137519 5544561 4824500 4669462
800.32 4058918 3776760 3022865 2742220 2347759 2213235
803.21 1801665 1762476 1449754 1543538 1098786 1101584
806.11 985498 871175 734810 810398 454454 510196
809.00 485098 570555 284825 487220 336045 363304
811.89 147462 191465 168675 220905 33318 192493
814.78 138542 99748 32381 142103-60935 158397
817.68-53445 78526 31970 358755-3409 130537
820.57 35901 80088-12875 57398-192250-8976
823.46-91260 133249-2432 109985-100753 164428
826.36 102744 80457 15837 46589 57723 158984
829.25 88202 172322 137029 144833 81936 67701
832.14 54124 257640 183886 224982 193312 373252
835.03 160476 314440 253896 441452 282914 537681
837.93 301363 477425 301044 461469 401201 608080
840.82 429814 549641 343961 573180 498659 564085
843.71 606879 630932 589190 819854 694359 876397
846.60 625599 863102 695299 843520 1064226 1419466
849.50 1218775 1412940 1274828 1221497 1261239 1367755
852.39 1202958 1380727 1554079 1681990 1687026 1549185
855.28 1624828 1760065 1567344 1441618 1333164 1374809
858.18 1179919 1159919 1111160 990249 783176 633366
861.07 566821 679104 559514 589086 444231 318622
863.96 229955 216050 195934 263248 206985 420988
866.85 318146 320049 145506 220125 55643 261524
869.75 102755 73461 83164 197685 172525 93011
872.64 141133 94592 56165 160183 24162 85899
875.53 151042 109101 104294 147011 122410 153148
878.42 104966 139319 47314 47351 66480 70403
881.32-1249 128700 73571 102568-34842 63525
884.21-9803 60168 4353-29730 37441-5900
887.10 7282 49495-25557-19898 16569-27891
889.99-19682 93381-57246-37754 22477-29828
892.89-41741-45977-20755 15998-60564-30926
895.78-4643-30657 64020-35689 40645 1562
898.67-21607 78662 8330 20636 47692 82172
901.57 60557 114900 41755 71883 41859 92439
904.46 196468 230252 150922 255229 207588 297351
907.35 267878 370957 282734 401789 391271 466708
910.24 444359 549288 506551 677392 742777 718422
913.14 605989 808853 813935 902986 804440 920021
916.03 951878 956739 944808 996481 1075971 1069419
918.92 1106490 1067023 1086768 1140318 1180547 1239257
921.81 1196019 1219386 1194514 1162959 1193386 1195639
924.71 1294628 1248750 1367924 1458585 1431316 1491372
927.60 1469960 1427482 1290337 1439491 1618836 1922294
930.49 2049811 1919930 1699911 1402374 1030245 1186859
933.39 1389650 1620396 1773530 1765679 1541537 1176191
936.28 501614 632846 726811 676926 688044 832522
939.17 772167 879788 940712 950302 995997 1030110
942.06 1059996 1090318 1031370 1005298 945002 1035305
944.96 920448 966129 915909 810496 785565 747341
947.85 597788 713648 554820 573425 512433 491458
950.74 374302 422547 316652 261985 263400 329660
953.63 278460 98962 151718 207793 135990 206915
956.53 125778 95749 88119 161968 128209 83458
959.42 79564 50362 144010 67208 39557 36938
962.31 60161 41869 103777 131208 84424 10397
965.21 27875 54526 58283 43977 43829 22121
968.10 5302 47598 49426 100442 29107 82209
970.99 59018 17585 26551 13501 27092 17208
973.88-19398-9227-3282-20689-17421-119491
976.78-28570-77830 7265-11893-20902-26492
979.67-50405-42556-42109-25402-123901-38079
982.56-47726-43133 6469-50813 6745-85620
985.45-110960-95508-23878-155592-63530-1948
988.35-109822-115586-61358-98432-65087-49864
991.24-15725-52665-18104-77961-110840-40642
994.13-19613-85913-99639 44815-58298-70395
997.03-43367 13684-105028-37377-117449-34983
999.92-37358-6510-2823 24434-6808-53341
1002.81-82231-14095-51018-16682-10648-50631
1005.70-39186 32386 71125 91916 38339 56253
1008.60 35524 4710 123056 125563 25193 97103
1011.49 97152 104449 157388 92222 146786 251570
1014.38 135235 255546 246681 304766 347327 371095
1017.27 344790 331544 366851 377061 402654 446898
1020.17 410882 542846 521952 614525 542702 554195
1023.06 485530 573516 508598 496110 613100 563208
1025.95 552815 576293 491556 553980 594824 582318
1028.85 570831 552617 562624 604784 590590 600482
1031.74 590515 604875 606290 556632 554517 500146
1034.63 559977 580624 512702 536181 578335 549014
1037.52 486858 456655 436566 364064 338011 361549
1040.42 321282 295101 299178 258197 143837 176633
1043.31 136046 123147 49797 91900-34539-10911
1046.20 8445-6920-71653-21818-23397 53695
1049.09 5766-28696-21709-9002-34502 21889
1051.99-78210 760 6887-106095 29327-86707
1054.88-31466-3203-38204-35441-113101-69903
1057.77-51650 20700-57478-110318-54357-51153
1060.67-37773-51816-59709-55649-5217-49687
1063.56-132502 18315-56142-88585-188041-73399
1066.45-95565-96856-64505-109201-121816-20059
1069.34 90707-86639-112584-66728-20235-34220
1072.24-50185-99894-55270-22503-94580-106668
1075.13-49302-58266-50223-75637-68451-72387
1078.02-29434-42726-126468-55134-89535-109402
1080.91-57860-66078-45807-115122-65332-122660
1083.81-93756-92599-59625-83650-107460-118020
1086.70-57744-107795-38677-141200-17055-54395
1089.59-108661-56805-88627-52290-42972-8731
1092.49-47404-96510-69043-50244-124445-68051
1095.38-49411-80175-62360-92468-96388-153890
1098.27-60298-50049-123432-60390-3661 37883
1101.16-100985-80931-125323-125308-60873-86223
1104.06-31978-76088-2779-38330-52873-100098
1106.95-51408-149122-90676-19033-137459-115689
1109.84-27036-77982-107572-152356-26376-101205
1112.73-50963-22817-61788-118438-57897-54718
1115.63-117873-136672 1334-117585-110194-101567
1118.52-16295-117623-119629-78183-90830-25764
1121.41-99669-61077-134195-107459-74010-78255
1124.31 4386-37097-134366-78108-70047-1773
1127.20-100295-79392-103827-50563-98257-29562
1130.09-41082-84839-37767-84249-28667-114159
1132.98-111070-67879-52410-133602 6720-70542
1135.88-81204-120332-57279-64916-81262-101287
1138.77-90506-78461-7627-26424-28407-104609
1141.66-171512-19990-12747-15972-20111-105880
1144.55-23960-66294-49881-105146-14065-29276
1147.45-31674-96925-93577-108057-111006-47799
1150.34-25825-94341-58018-109755-94058-111809
1153.23-53343-55001-96125-74054-75784-81122
1156.13-136436-90928-17787 48173-114018-139503
1159.02-78308-124454-93387-116934-30686-11426
1161.91-24991-114343 10877-78357-71051-76425
1164.80-121250-14537-30520-82407-99249-38206
1167.70 31170-65322-34303 11159-72732-30650
1170.59-53685-69081-26517-67279 5134-69193
1173.48 3899-37924 60233-12585-6903 1330
1176.37 86331-10368 93026 18729 69896 2199
1179.27 170266 64259 114528 96147 178129 88636
1182.16 201471 197327 237333 189302 330202 247408
1185.05 396139 309492 399859 386432 461301 487664
1187.95 620293 562767 713067 620423 776733 747581
1190.84 782163 698805 789938 774820 939580 844933
1193.73 1022294 963571 1230980 1227709 1387603 1393296
1196.62 1688620 1766779 2057213 2166641 2594082 2673710
1199.52 3162663 3379699 3936130 4255772 4921140 5337378
1202.41 6102097 6669445 7583157 8272532 9355045 10230454
1205.30 11394118 12372605 13731220 14903584 16580022 18180715
1208.19 20767260 23160486 25558001 27806768 30675486 33381513
1211.09 36817192 39951803 44073203 48455675 53779826 59029417
1213.98 65604414 71868882 79689483 87341644 96744014 105325926
1216.87 117505428 128368432 140245856 146095620 148483438 133553472
1219.77 133038299 150629754 135688980 124001194 111040504 101632034
1222.66 90765536 82485993 73727862 67034551 59879526 54436969
1225.55 48650069 44300847 39601356 35995631 32126420 29341973
1228.44 26118921 23880382 21258136 19375981 17291979 15859682
1231.34 14123863 13020658 11611331 10616743 9406921 8676674
1234.23 7712860 7198074 6282968 5906576 5153806 4809031
1237.12 4277366 3926059 3392190 3261617 2818295 2660907
1240.01 2388166 2218556 1860179 1785616 1454367 1460688
1242.91 1168779 1157652 946688 968590 767435 772691
1245.80 634229 597839 496832 544731 381530 448361
1248.69 309479 379089 215128 334900 216903 238927
1251.59 91110 167908 74961 119309 86679 102019
1254.48 35487 53801 52036 95405-82868 37118
1257.37-51136 55391-51485 22075-37051-42324
1260.26-52048 53592-36142 42173-82197-106373
1263.16-49693-5561-34716-58486-115118 11237
1266.05-149051-4384-101379-17374-112647 5047
1268.94-80651-77176-61381-77539-91605-11337
1271.83-35353-57550-116548 17567-62568-41727
1274.73-38727-11422-79634 23332-110242-63888
1277.62-139135-60285-153289 2074-8134-2659
1280.51-95871-51006-50239-72764-119779-8528
1283.41-66044-74140-98504-54777-116084-21286
1286.30-114302-15890-91134-62622-30355-50066
1289.19-92782-39802-38979-50053-63780-25443
1292.08-96298-74260-87309-44824-120593-53761
1294.98-110473-12472-143074-57414-129311-54230
1297.87-43579-75514-121566-71377-61117-25399
1300.76-70764-27460-75423-37116-36976-62350
1303.65-119130-63545-144167 18762-68430-42389
1306.55-112843-86258-107300-63869-127127-54649
1309.44-90736-61618-102452-14830-63862-730
1312.33-54838-56141-126552-50636-126924-84289
1315.23-61799-67848-100865-29869-122664-52358
1318.12-115979-84948-31886-7410-65081-49307
1321.01-62198-53231-86719-86894-45533 3521
1323.90-55431-7951-75888-3529-104623-19968
1326.80-34685-33380-52194-27899 22734-61961
1329.69-2623 9208-100877-10918 9455 21424
1332.58-40722-60-9181-15363 26953-11205
1335.47 17884 12168-50425 84260-57277-87385
1338.37-106546 2049-23557-143533-89980 48833
1341.26 948 18043 23939 65613 33535 64041
1344.15-400 50005 20814-16820-20215-77974
1347.05-61518 4528-26911-69215-2181-54949
1349.94-124320-136296-92809-186465-144152-156314
1352.83-223760-130693-172879 90011-193104-74422
1355.72-119605 130456-69934-18163-105177-61091
1358.62 6651-79638-201946-100344-312512-77947
1361.51-127065-152951-329612-277319-39767-112824
1364.40-151795-87201-111829-105408-90617-65183
1367.29 31370-86229-79420-54162-137854-99738
1370.19-77187-55033-84692-78974-105452-74072
1373.08-278372-262342-89684-133405-93492-62690
1375.97-59925 5431-23112-87098-58509-34200
1378.87-64884-53432-85042-98378 3919-7070
1381.76-47885-55650-82139 3976-62092-58265
1384.65-8174-78919-16745-129480-124200-495961
1387.54-110575-82222-8216 37538-41415-42015
1390.44-30041-71182-43575-74208-45695-63010
1393.33 11333-437574-338987 63401-273166-139630
1396.22-30507-30922-114341-44862-34425-381240
1399.11-81315-70056-96302-19721-32522 9565
1402.01-27425-40304 10997 30587 43934-291457
1404.90-116400 46342-54558 22001-66528 37144
1407.79-26438-16014-81567-26002-68086-34935
1410.69-20450-42115 28448 63617-30302-36978
1413.58-37764-22472 2992 15522 15484 27616
1416.47 72478-151414 46384-20783-108370-957213
1419.36-297204 217363 3741 252404 157186 183960
1422.26 120819 157423 109599 166698 297786 306071
1425.15 333390 433347 396146 429413 405384 487833
1428.04 469783 627153 557388 466258 669238 807139
1430.93 807815 901086 963562 986682 1007325 1162196
1433.83 1197119 1266664 1311770 1456035 1333584 496056
1436.72 1393608 1890413 1843121 1999164 2004241 2185694
1439.61 2157844 2351117 2391702 2566461 2455208 2418190
1442.51 2405634 2575192 2769787 2844169 2518742 2311613
1445.40 2252570 2534975 2638798 2588407 1950670 1842180
1448.29 1756127 1723342 2018811 1754368 1536081 1292057
1451.18 1171020 897150 882671 751941 705560 559437
1454.08 452596 370472 205392 374421-701761-1373186
1456.97 214077-167785-191306 77782-37734 114352
1459.86 83474 113112 147071 91291 119116 31367
1462.75 129348 100834 185491-315212-259395 274078
1465.65 130783 288062 187590 294636 241935 375152
1468.54 280823 419363 328690 321936 304754 351958
1471.43-488011-37400 484631-430743-9219 400655
1474.33 239289 419503 209337-35200 276713 447797
1477.22 338108 457758 369402 404191 411669 388175
1480.11 404669 280813 292004 381760 379110 379905
1483.00 280888 380923 306637 405794 373840 307021
1485.90 363910 293315-55728 225587 303605 191769
1488.79 144772-106405 120042-121157-23460 234067
1491.68 57976 148681 36053 133018 12670 164063
1494.57-53839 176570-885058-759622 221061-132752
1497.47 39967-286890-430947-8581 29117 20478
1500.36 34430 17757-20739 20419 31853 70124
1503.25 74455 14333 35434-411504-1493398 46612
1506.15-667152-1409638-88882-9861-240619 129393
1509.04-14109 15685 171080 150446 296354 65759
1511.93-112539 325959 314423 331071 333157 263997
1514.82 246940 463150 231757 244313 21782 194508
1517.72 548882 550369 536488 642565 102829 677315
1520.61-595795-177655 974819 106962 671326 787366
1523.50 908398 824686 860030 277405 943631 1016142
1526.39 1047648 824441 1146136 989471 1093231 1222558
1529.29 1251792 1261943 1311170 1291845 1280576 1368858
1532.18 1312031 1063130 1119488 902237 1628539 1362452
1535.07 1552255 1438104 1678331 1438812 1746634 1305999
1537.97 1642056-287674 995370 1337559 394223 1774492
1540.86 1774539 1102123 869696 2102538 1597759 1960925
1543.75 2009754 1978345 1376186 2102024 1995217 2216096
1546.64 1974544 1968143 2081631 1897009 1810480 1601894
1549.54 1501028 1394575 1401601 1297073 1218962 1132048
1552.43 1197338 1121530 1011355 132703 1189571 1133056
1555.32 1364713 1096137 1467021 615846 722382 212562
1558.21-408809 1315784 439438-355990 405830 1382300
1561.11 886499 1209696 793512 1090909 785282 955076
1564.00 612084 602266 640492 720037 487314 638323
1566.89 446693 546439 314599 258264 95412-372959
1569.79 99030 287287 123503 286624 85909 267422
1572.68-34039 189981-52820 186960-158080 53190
1575.57-1954106-767031 104514-119075 30447-16710
1578.46 6006-29013-47798-47621-28507-36144
1581.36-42108 1135-21741 65754-78632-8866
1584.25-54202-4285-8296-8291-58582-21026
1587.14-5730 42284-58064-21077-61347-45141
1590.03-59394-53488-15362-58719-74602-32255
1592.93-104554-76437-184744-40279-98178-73370
1595.82-125201-38325-57884-71593-48509-70132
1598.71-90914-50663-99112-42236-128816-52724
1601.61-90584-57752-148835-78559-125526-33116
1604.50-152311-80374-152414-29066-129873-33448
1607.39-96421-13052-137612-118886-144899-56283
1610.28-167405-47806-115088-16668-137056-40883
1613.18-178535 7114-125884 699-276435-7039
1616.07-1721638-990502 71264-228190-52298-94749
1618.96-52704-131138-95928-108399-104285-89278
1621.85-145975-54390-506331-595784-19426-128514
1624.75-21758-105611-33318-166498-66274-360209
1627.64-209535-58390-71853-76454-61866-74333
1630.53-90125-98666-46121-112445-63951-131818
1633.43-43067-237882-368813-1090959-1232543-28610
1636.32-169275-204915-360509-15087-157676-24797
1639.21-179390-42914-184825-79020-152671-58085
1642.10-143149-13226-123073-13198-134031-5660
1645.00-333287-1335211-326105-96478-584265-147008
1647.89-476280-33202-215786 54531-211690 32994
1650.78-359291 102374-1924396-1137663-2084247-987295
1653.67-159016-976473 78305-249332 10157-193944
1656.57 36212-208433-4114-180156 4325-113029
1659.46-35075-101494-43288-135602-72250-245710
1662.35-655969-162722-17300-93958-84128-113659
1665.25-32262-114023-825-81879-9755-211064
1668.14-46686-707057-766240 1104-146562-145604
1671.03-425723-65337-65797-90269-87668-96602
1673.92-27220-493509-1083845-125744-51210-37799
1676.82-73323-40651-71314-32002-121426-125556
1679.71-131504-188220-26426-101679-60187-142305
1682.60-476832-536338-207024-1419005-2099826 220425
1685.49-328734 57325-193718 100444-232293-86679
1688.39-229638 65123-210211-99616-129077 21005
1691.28-170137 12121-189290 8210-226668 105355
1694.17-300098 43500-1669804-1803189 61597-224040
1697.07-191532-153604-110699-117487-497103-1529002
1699.96-1161518-982100-34092-140933-48093-117592
1702.85-73021-83931-420958-293105-12207-132753
1705.74-442787-248440-13063-105472-67190-66222
1708.64 14166-95019-167245-101296-70849-75976
1711.53-78914-54850-34720-107634-264499-118226
1714.42-400976-603645 69428-292004 74476-1903343
1717.31-560329-272695-714133-17016-149161-54528
1720.21-92473-46573-124573-50750-103045-84808
1723.10-188189-79307-72895-28573-99036-93613
1725.99-137513-80797-104083-75677-88886-82649
1728.89-109759-202688-255534 3710-176317 12899
1731.78-280358 134166-1237530-627709-449485-1530759
1734.67-9086-232938 20982-140825 3360-203132
1737.56 38534-126220 360-440481-651877-35408
1740.46-93043-92896-58971-115672-202954-200823
1743.35-100740-140975-120572-93164-104894-74745
1746.24-105171-223222-102867-119842-341941-229701
1749.13-122995-94975-42687-669412-745990-6137
1752.03-112047-98182-93585-49337-87911-40768
1754.92-113276-53466-144402-442649-81101-67291
1757.81-47891-96152-71676-105551-51316-105742
1760.71-324-625245-391387 14986-136975-43729
1763.60-97657 8362-109575-28282-76087 3212
1766.49-153044 3307-468452-441497 3185-124077
1769.38-3653-108873-71015-490454-28444-337889
1772.28-1216421-119847-119968-120264-79730-66285
1775.17-154017-45474 2488-68287-8855-39941
1778.06-76528-70702-46456-11615-210036-196192
1780.95 20965-73192 20831-47355-19635-104314
1783.85 38629-335938-113417-9359-46275-51015
1786.74-17734-31499-15048-68681-49515-37172
1789.63 24306-176480-248425-50599-14843-775974
1792.53-400369 81320-74334 17279-90291-23644
1795.42-84091-20352-29369 11111-23382 35073
1798.31 4016-123249-222631 16565 5103-139570
1801.20-51352-10407-108336 66208-34150 75510
1804.10-11449 35309-5430 69019 33202 67517
1806.99-14001 49120-18579 123524 29816 103818
1809.88-61891-29434 56621 93579 73216 116150
1812.77 85557 130146 103160 94245 111890 126131
1815.67 61493 164016 108216 88610 143408 145064
1818.56 112446 169596 184994 144919 146029 170804
1821.45 100844 139022 80104 158746 102735 122313
1824.35-13942-235124 53421 15427 57845 40453
1827.24 29314 85333 55653-70324 59444-272179
1830.13 155080 187655 219163 225799 190947 238937
1833.02 219076 213938 190568 192866 147004 189633
1835.92 128458 120544 63312 145005 92353 121362
1838.81 60931 82990 31196 85047 80978 55130
1841.70 14015 97929-90012 4066-746678-280048
1844.59 55642-33861 48890-29379-31004-69729
1847.49-63936 12683-23866-13035-45838-23313
1850.38 991 434-67121-25296-15692-14115
1853.27-51829-27552-61449-22213-21193-4930
1856.17-13122-14181-86673-19307-74246-41479
1859.06-51517-26857-47617-72853-43262-23731
1861.95-54366-38444-58600-20088-50401-63762
1864.84-59439-43092-123364-79950-79705-186620
1867.74-143236-31686-382681-284725-33041-111637
1870.63-93563-90065-28052-74694-111615-87108
1873.52-60838-93698-49246-61827-80069-74155
1876.41-58942-93872-91096-88494-78460-93758
1879.31-53855-23623-41840-56294-66098-63465
1882.20-77765-48922-104596-62425-68726-19836
1885.09-112376-69379-12181-15038-85774-61644
1887.99-101032-27811-251834-85142-9431-54815
1890.88-2091-55510 1616-56138 14440 23056
1893.77-15256-50744-67524-51460-22092-19842
1896.66-45736-27280-63178-37670-87000-27179
1899.56-37853-40542-38247-36822-66815-72353
1902.45-77841-32301-64675-74220-27097-61246
1905.34-71187-77676-44804-114353-99518-88193
1908.23-107996-56691-77880-128447-67936-80724
1911.13-72067-102508-79779-94569-25597-100813
1914.02-47398-114719-39229-81349-25465-83199
1916.91-34814-395597-188037-22723-66381-97339
1919.81-74578-80276-109999-27073-100143-102367
1922.70-190575-40545-66340-45372-80362-30198
1925.59-55304-34815-45329-101086-74007-43175
1928.48-75000-65805-95034-46767-57612-93213
1931.38-103829-66396-60926-37768-69189-40431
1934.27-46300-86966-134793-75264-128166-73698
1937.16-62389-93932-64064-78499-81736-75505
1940.05-36761-28161-107675-28353-226659-122676
1942.95-28231-39255-71778-102653-121026-83017
1945.84-98084-84244-62498-77053-59543-77058
1948.73-77518-87514-23645-47761-49968-28379
1951.63-97676-47034-28034-50792-34445-14882
1954.52-88399-91848-89989-25872-56632-63664
1957.41-35602-44215-85071-33023-60913-7584
1960.30-62961-36432-20621-32310-15708-39191
1963.20-44067-38351-30011-37650-21401-85040
1966.09-70899-39912-109096-70752-80415-9901
1968.98-68748-35963-59415-33495-50480-23691
1971.87-3833-17089-43736-3961 23011-14503
1974.77-101298-80476-43383-27704-28438-29404
1977.66-53964 327-73159-4669-24444-5670
1980.55-4231-13542-30258 1299-27379 20835
1983.45-65626-31254-10766-51953-15115-48236
1986.34-37497-42919-44140-43450-22872-40240
1989.23-31432 35243-22587 36911-70135-74343
1992.12-21003 19810 8973-50086-71478-18182
1995.02-30140-27513-66478-51119-47149-48204
1997.91-16997-18577-59456-18639-35089-19503
2000.80-50497-50219-53818-52925 5796-19721
2003.69-43184-52087-16641-42373-33397-46692
2006.59-27107-75398-51939 5545 9248-54458
2009.48-71216-21777-61303 8161-56145-40354
2012.37-37085-42269-57829-60789-46329-70783
2015.27-65191-64064-130094-52040-28096-43462
2018.16-45417-70868-78907-25379-56405-57720
2021.05-50718-63207-61010-60738-58132-38089
2023.94-85417-68147-57052-48412-37240-76691
2026.84-51128-70583-78809-46112-85385-46673
2029.73-74279-76227-50451-90698-53277-88228
2032.62-84726-53879-99332-56509-91605-30235
2035.51-92287-62627-37670-26412-46909-69880
2038.41-77063-42704-49629-119951-67066-107811
2041.30-90401-39633-51415-68734-71955-53001
2044.19-51241-112314-72307-30983-107791-115646
2047.09-80806-26657-60026-64378-82161-74340
2049.98-62765-46106-67838-54161-74457-83291
2052.87-118140-104775-70393-45392-63870-107033
2055.76-53318-75859-66625-28251-25303-74163
2058.66-49805-113311-87509-53416-87224-55962
2061.55-104199-74679-38826-46156-67993-102937
2064.44-99385 16445-57931-15257-126744-94879
2067.33-119287-58309-102067-68640-72732-63836
2070.23-74294-92974-59196-65783-65074-38875
2073.12-94834-60350-113269-28820-70436-51861
2076.01-127956-45613-91669-48831-48510-69939
2078.91-55830-133559-64109-86730-64180-104010
2081.80-90385-59709-73550-68539-88206-82604
2084.69-88647-74913-90196-74946-66720-57511
2087.58-96137-56403-78293-99146-98413-106165
2090.48-73622-29194-82962-49876-90571-105666
2093.37-70603-92304-124104-87442-63505-61522
2096.26-66836-39086-54999-83634-128601-101836
2099.15-36653-98853-74144-31823-56231-77182
2102.05-83127-107157-118976-85182-82283-86655
2104.94-83959-102980-38457-39872-126262-55927
2107.83-72900-83341-36731-106542-34748-68823
2110.73-150793-158497-6069-76112-64068-76060
2113.62-76278-41220-67763-141529-98002-36111
2116.51-40279-44351-64763-67468-88458-73007
2119.40-123999 3221-72005-24710-91060-23406
2122.30-60560-106242-186151-87062-92836-20895
2125.19-81792-55884-54024-63298-135573-57738
2128.08-21983-74699-41472-68697-109548-71582
2130.97-85485-82165-92472-37834-108358-61146
2133.87-79355-21327-113812-89779 27490-100167
2136.76-42400-42565-61529-59532-42434-68660
2139.65-58301-73066-50635-94425-76777-16428
2142.55-41120-74634-67066-28371-111053-89273
2145.44-68126-64253-100052-54862-58178-57607
2148.33-95802-53626-57969-51611-123141-53070
2151.22-57327-52544-74423-68095-51108-67135
2154.12-128259-68559-51253-50008-37735-34226
2157.01-96658-101292-133880-28477-75411-45635
2159.90-50048-58648-43968-101358-105672-24098
2162.79-63148-1536-64426-47265-97573-150677
2165.69-54911-32561-40431-46936-46160-67021
2168.58-136376-110996-70286-74685-61422-71329
2171.47-55081-106970-65681-28724-63341-45187
2174.37-25491-37163-73900-130616-36674 2470
2177.26-56674-66515-114046-25836-125567-106254
2180.15-32501-25626-45964-46079-43025-74468
2183.04-79710 3851-47550-5421-6749 11764
2185.94-108300-89021 21727-39680 20196-12853
2188.83-4795-85991-59996-25991-43130-10988
2191.72-20114-6325-45718 6422-18532 51885
2194.61-41327 23208-45961 16980-7067-5813
2197.51-53049 21272-2548 54239 21265 37662
2200.40 11376-41496 9690 32257 10136-9170
2203.29 60359 6467 92133-151 32689-13863
2206.19 73921 30086 87373 2257 121960-9580
2209.08 59053-13559 72163-13396 93538 1548
2211.97 39044 23127 37437 78281 93589 65574
2214.86 65060 15754 36412 6186 55899 35153
2217.76-787 390 7955 38371 2724 7215
2220.65-21656 42823 27033-8907 1281-25619
2223.54 12731-43189-13484-2402 58204 20470
2226.43 10266-41265-9718 17601 16003 71002
2229.33 29698 20875 35010 75442 15052 63617
2232.22 28596 2357 48459 40222 55458 20138
2235.11 28625 27885 57668 28062 38344 80400
2238.01 66409 63407 33780 11142 30195 38258
2240.90 25116 65493-10972 11076 24898 101365
2243.79 5527 7534 7942-25049 15600 43769
2246.68-14241-30976-36864 407-52440-25494
2249.58-64086 10178-28271 7561 2797-32519
2252.47-2425-26264-8930-18487-40920-41569
2255.36-10746-6485-20460-48894-22362-33193
2258.25-51804-44112-13531-13895-17601 6710
2261.15-103625-33368-53860-16582-17655-53062
2264.04-33689-27111-20430-12485-1430-27313
2266.93 3501-12147-43035-16686-17505 17681
2269.83 4704-34876-97795-14934-13767 19398
2272.72-6309-17210 5510 2787-17497-18112
2275.61 24680 22316 34488-21044-765 12537
2278.50-9107 12293 22486 10708 67310 18997
2281.40 37505 9541-3973 77799 79438 42300
2284.29 18349 56867 71673 82216 85717 85133
2287.18 78638 63568 40230 93028 35491 120957
2290.07 57507 76272 60163 54474 84462 96086
2292.97 73685 64518 29475 42152-41542 48773
2295.86 23395 26121-756 33936-5548 1367
2298.75-31144-7467-24695 18264-60910 25036
2301.65-50941 54114-83016-15406-87096 52482
2304.54 1299-47503-56277-26268 44498-27199
2307.43-44053 11428 29052 85533-56730 12182
2310.32-7496 173268-84311-4698-35811 240466
2313.22-82961 79902-58342 346401-30040 40187
2316.11-98285 408532-3743 83910-101472 385082
2319.00 150983 2664-66042 447047 299895 6456
2321.89-20019 504678 386249-26888-9517 598237
2324.79 474061-93076 53922 706073 460201-168381
2327.68 178246 875619 410804-238827 374206 943777
2330.57 256005-191393 671999 951594 60175-122747
2333.47 979652 780285-188581 223849 1074814 422143
2336.36-195305 666099 996932 7265 91925 936452
2339.25 570511-244375 565765 913153 66011 64439
2342.14 869261 406916-104876 458899 587113-62963
2345.04 187528 442133 72987 27244 316522 137120
2347.93 13643 24797 57353 114082 78896-13587
2350.82 374191 208397-21843 453569 439944-143675
2353.71 710762 546748-151967 706188 779654-198584
2356.61 927267 828821-183375 1061234 768770-188857
2359.50 1303076 462486-31890 1462809 153238 322022
2362.39 1367416-175995 832770 936356-246990 1217516
2365.29 283064 178208 1172154-222026 871527 387908
2368.18 47670 963954-137149 673311 281090 108288
2371.07 610261-167369 600350-88685 359752 87717
2373.96 62851 240211 532 231882-84144 162751
2376.86 20465 128641-15563 110948 9091 85426
2379.75 10002 122227 33341 12198-23965-12227
2382.64 1318-16323 21647 1473 45045 26259
2385.53 39356 70282 105466 42211 79488 126935
2388.43 137052 85765 144350 124771 164992 160055
2391.32 208108 216654 306856 267343 359780 339210
2394.21 384064 365632 440388 448492 495245 543930
2397.11 611330 668064 749905 542665 515219 516262
2400.00 493664 400004 464184 362182 366594 412743
2402.89 424401 341924 341993 289676 343790 289296
2405.78 450337 512959 1036810 1514868 2935210 4233031
2408.68 6175641 4295290 525468 586081 137884 353089
2411.57 124427 315446 236401 417929 393436 538663
2414.46 463473 568385 555857 654159 633836 729895
2417.35 714149 780516 754564 769732 780863 746500
2420.25 744244 751385 710656 731118 692812 674464
2423.14 596254 591989 504345 553365 438098 460594
2426.03 356155 402202 319817 380574 295524 315327
2428.93 253447 309731 244384 250015 212663 194749
2431.82 149298 158459 114746 145017 77151 102367
2434.71 75344 48789 54079 84289 77341 135160
2437.60 156337 189200 184980 298272 320777 331631
2440.50 357792 355612 370340 432564 286549 356078
2443.39 231956 256099 136532 200513 153801 155657
2446.28 152146 128729 117445 121668 156516 197508
2449.17 175856 177204 165332 172985 179360 243266
2452.07 212948 206912 156577 225905 205145 231849
2454.96 250703 222307 202206 216859 232358 230082
2457.85 192716 220464 231626 175562 165252 213372
2460.75 150697 176665 132776 130022 94546 132244
2463.64 139264 132131 76363 89650 122887 90852
2466.53 42049 105617 41991 66617 78458 80200
2469.42 26037 12433 57520-9461-20439 3954
2472.32-19377-35451 13528 22456-30342-39392
2475.21-39891-12863-5624-29164-71473-32762
2478.10-61829-53348-48242-70372-91215-50374
2480.99-40358-15435-56580-60337-69975-74510
2483.89-110098-27068-71961-74702-100580-50139
2486.78-83674-30913-69882-39998-85340-54239
2489.67-75753-78912-103887-39989-75366-15163
2492.57-74219-87565-46297-68932-76102-93308
2495.46-39937-79659-64429-81035-108980-85993
2498.35-77434-57389-114234-95495-70996-41959
2501.24-38006-22756-44245-80171-74215-50039
2504.14-133635-53087-17146-73183-23314-41142
2507.03-90398-84091-122104-72087-83906-72716
2509.92-76618-102790-77464-65420-76461-76567
2512.81-70789-84394-27868-83697-120767-63321
2515.71-37311-43970-51285-34076-48668-98818
2518.60-51901-77005-102468-69870-129397-90558
2521.49-129183-43839-40722-42813-103506-102774
2524.39-38983-104856-88041-103574-101396-118533
2527.28-67247-74243-50525-68501-63645-81903
2530.17-114861-66511-64266-51911-77418-32244
2533.06-125449-111469-59801-106839-81362-98962
2535.96-101129-71236-54342-96503-21996-110684
2538.85-54026-102713-96430-33830-105702-123636
2541.74-93449-94854-95596-100198-51398-53603
2544.63-131624-119561-58550-118199-47107-89110
2547.53-143468-33149-111837-65489-91557-102865
2550.42-69908-76784-74017-106559-90411-116653
2553.31-106776-92139-65328-81851-92159-44236
2556.21-152023-120510-64671-128933-70597-145891
2559.10-88706-67966-96539-50353-97108-72006
2561.99-58818-92794-76088-93659-119749 32860
2564.88-52570-53621-80820-34074-100668-9051
2567.78-42884-55128-100355-79444-54991-100093
2570.67-109642-134448-107858-116979-126844-161346
2573.56-94851-112935-117401-68530-48312-82909
2576.45-82755-105490-61540-42915-106848-121586
2579.35-70989-98193-57879 7588-74280-42648
2582.24-26086-35222-91045-88473-16489-57758
2585.13-117225-75034-109300-70668-49580-146960
2588.03-44321-83465-102297-62422-91419-110416
2590.92-112062-155492-138097-49227-132408-81278
2593.81-35517-63736-49446-60026-55268-73844
2596.70-59546-128926-115615-55166-68581-64717
2599.60-68958-151546-106898-78311-74480-70555
2602.49-60539-139878-24081-88509-60492-115607
2605.38-88124-91234-71524-52491-66458-85131
2608.27-82247-136445-63490-55174-111418-89469
2611.17-124596-80310-72950-114229-77771-93563
2614.06-19534-80987-85585-92260-4804-85195
2616.95-73053-99784-67844-45687-95096-97075
2619.85-109204-68858-100956-90274-114770-87319
2622.74-112601-81117-92124-74010-51207-94716
2625.63-33344-86383-108031-80419-108373-94422
2628.52-45604-36335-102475-74331-47665-88153
2631.42-72074-80628-114385-129256-49618-89866
2634.31-99121-36263-81051-64414-72965-51394
2637.20-112314-48869-48764-107594-34721-70510
2640.09-84311-30963-122733-37989-50354-60673
2642.99-42186-102165-83164-113210-65159-49480
2645.88-95203-12067-68613-43782-50827-87522
2648.77-121227-79607-63347-126068-104810-66467
2651.67-85248-105870-37321-16317-89891-91686
2654.56-82888-51566-43558-90143-53152-119921
2657.45-55684-154201-107691-94123-35050-116607
2660.34-121513-83461-58416-73996-52706-72684
2663.24-56779 1646-103323-96712-60350-95810
2666.13-81293-46523-91273-91688-86814-109583
2669.02-97063-87685-99989-47386-65868-58532
2671.91-66932-79768-78698-69829-146176-101445
2674.81-92461-63633 19975-102750-136129-118525
2677.70-81620-37840-53270-45233-77955-63289
2680.59-58830-133304-55286-62152-93289-88588
2683.49-55762-44020-126114-17243-45307-28179
2686.38-64096-102197-90898-8436-84131-79693
2689.27-77648-89701-82134-55833-34877-60276
2692.16-128033-61926-81736-109174-97641-90534
2695.06-63280-164238-145598-56942-107066-142891
2697.95-141397-118314-108779-148052-66235-89890
2700.84-75101-53802-97551-168854-94090-17627
2703.73-153405-102200-12563-87855-22970-101529
2706.63-39964 27231-57461-25532-41520 1951
2709.52-26519-34549-56306-47404-70517-81282
2712.41-66548-56356-121885-94878-77213-107095
2715.31-79096-125772-56389-61636-90112-75071
2718.20-104918-74529 238-87111-64950-121644
2721.09-95994-102937-142414-128469-117851-135637
2723.98-130951-30530-82549-59946-157527-93345
2726.88-88191-85163-63532-59599-46834-87711
2729.77-48428-75895-113213-70357-91407-70789
2732.66-85866 1714-66082-72508-91895-50274
2735.55-58346-79778-73274-59221-165-112504
2738.45-87209-52833-114421-121923-30654-57624
2741.34-103215-74173-35997-116319-57754-104245
2744.23-86807-85396-43853-59200-122549-90303
2747.12-71228-47499-134839-47319-72472-77284
2750.02-98456-58115-136521-85476-116130-96295
2752.91-37464-53960-40335-101997-87189-134717
2755.80-145141-97412-120803-63250-68606-118252
2758.70-117414-92202-112157-80564-96850-55639
2761.59-128864-74208-36250-44163-159289-79456
2764.48-79952-119231-113030-107545-104010-74934
2767.37-101024-38325-37551-80493-92254-161555
2770.27-100238-125466-84811-103341-62651-91096
2773.16-47078-68353-112901-44286-66476-150545
2776.05-119741-113947-155712-110855-72456-3853
2778.94-98864-127312-91469-79116-81356-57870
2781.84-52592-85787-34324-39971-146104-82905
2784.73-62711-133297-83625-101654-89546-106879
2787.62-104426-70390-61375-93291-41186-77126
2790.52-106954-84179-144223-95382-116641-78714
2793.41-138605-29572-50003-88959-89402-115192
2796.30-110174-49018-6534-48894-86996-78829
2799.19-99935-114133-85389-93358-96942-87681
2802.09-140583-76402-140659-164435-80866-51364
2804.98-16497-109363-182736-109489-86409-121239
2807.87-6340-141786-59646-80610-80028-68534
2810.76-105766-34713-138777-135565-135196-77133
2813.66-166371-172813-132829-70197-168073-62762
2816.55-86232-117686-62914-80283-139420-89132
2819.44-126910-108828-87561-96184-71657-114213
2822.34-81824-69102-119728-77901-120514-116416
2825.23-27902-45304-50323-120394-91483-85975
2828.12-75575-77382-58296-83256-39041-67430
2831.01 2887-63243-33678-96597-75894-86783
2833.91-64795-101003-155496-82004-148816-87025
2836.80-113908-109226-64643-63859-125067-34472
2839.69-93439-7516-113864-126865-61507-46056
2842.58-130394-65894-45258-165825-61120-81071
2845.48-91391-104143-120664-50557-76713-41051
2848.37-87241-127895-109991-120755-71400-60775
2851.26-45614-149883-107768-79869-87575-115216
2854.16-117119-164650-152732-127615-90675-146577
2857.05-111563-86379-73342-63694-52915-45769
2859.94-101867-150349-114845-81513-102834 6072
2862.83-142329-49916-126473-135077-123847-133900
2865.73-112402-113612-121261-174161-116572-94976
2868.62-107618-161052-109303-26164-23184-109250
2871.51-118300-131835-81186-128140-91683-66394
2874.40-186938-95572-123904-130397-7431-114277
2877.30-89044-104059-104287-66674-114724-160588
2880.19-70740-87026-105321-131222-112146-99865
2883.08-52863-127799-131643-190687-135591-155936
2885.98-85328-179350-102022-63579-118039-137426
2888.87-77477-132648-187676-46815-34459-105458
2891.76-119756-75961-77920-122590-159860-162039
2894.65-137061-128255-160202-127192-62463-37888
2897.55-96647-121152-37536-51903-85597-68835
2900.44-69386-57403-110590-120986-137038-67888
2903.33-130709-109311-144936-201982-154599 23811
2906.22-103232-134193-141791-96686-91050-47705
2909.12-142903-69139-118931-60092-135214-98423
2912.01-88997-135694-85543-111620-119584-205094
2914.90-171706-133121-98885-144028-109386-124626
2917.80-105353-78500-183731-127827-186577-194909
2920.69-130204-99168-115953-131981-128867-215138
2923.58-110051-164689-178250-166257-156811-86833
2926.47-90499-130548-203532-132453-84047-143651
2929.37-182642-125012-185429-116492-118135-183802
2932.26-76498-191698-61791-114471-87233-200171
2935.15-142432-76480-112749-189681-121369-194169
2938.04-130273-136837-125659-138144-98802-151272
2940.94-136568-100067-165840-54093-116815-105090
2943.83-74738-55557-147676-158196-127642-124985
2946.72-125559-157368-122070-96182-45000-179441
2949.62-119474-112675-160024-150787-130633-66497
2952.51-127721-131711-120094-83056-95610-62998
2955.40-121626-77957-84679-147737-131328-102650
2958.29-135517-45912-182221-132154-165720-70033
2961.19-266129-221323 6765-108164-105870-52282
2964.08-136707-161206-180208-104073-162130-197777
2966.97-217041-127382-173815-134653-211343-157499
2969.86-201817-244288-94091-111250-149622-207717
2972.76-65382-118907-151086-237562-176192-175755
2975.65-150812-155372-56920-162539-147602-178883
2978.54-131126-166689-132927-107395-111822-124936
2981.44-126446-103162-218585-165204-141814-82747
2984.33-59828-162762-81366-99098-68295-109696
2987.22-39222-109903-145862-20553-80292-91698
2990.11-104847-165090-110652-64372-2920-80458
2993.01-69627-175205-119943-19811-77926-74126
2995.90-183424-67294-122538-138848-65859-101877
2998.79-69083-70160-87947-95618-101585-97639
3001.68-92344-172319-140271-101290-160719-70503
3004.58-54320-135172-132397-114987-126243-119961
3007.47-54812-31653-89769-98925-53928-124528
3010.36-43710-49499-23361-47045 16338-43152
3013.26-22200 30058-20740 60849-18825 11885
3016.15 161751 148568 79323 92347 102604 137551
3019.04 119810 121621 108329 210934 142777 170637
3021.93 171796 170426 303782 275341 250786 197407
3024.83 130641 244464 145261 119378 64901 46648
3027.72 163649 45719 173232 249657 39174 101715
3030.61-145085 61157-86713 732665 5510361 2900525
3033.50 1503051 842547 350054 143086 89914 15439
3036.40 111448 139777 78943 103527 121053 151884
3039.29 215215 214598 263052 255164 378333 246973
3042.18 307809 238735 296404 289942 344561 280616
3045.08 341359 232705 323515 295980 220564 143040
3047.97 207663 199398 205473 118824 97338 133825
3050.86 67447 68917 31024 103229-39494-12804
3053.75-3826 7820-26417-75084-111014-48268
3056.65-133617-29871 68588-81726-66031-61760
3059.54-36538-108750-42815-147448-72808-127973
3062.43-113172-65881-160947-70411-121298-70162
3065.32-105653-42499-86650-60744-119637-114690
3068.22-39652-45011-72321-93274-98897-101219
3071.11-103742-75871-63525-17593-83134-122236
3074.00-369-112353-103117-9731-70500-57236
3076.90-42669-80278-47715-106345-108065-56525
3079.79-48438-76217-62018-125642-69599-116229
3082.68-69182-13736-42901-23919-65045-102098
3085.57-129474-131017-27585-59814-28720 59097
3088.47-47681-92605-19868-24940-61178-118502
3091.36-99388-21890-47489 5759-33751 52776
3094.25-80799-41786-57294-48541-360-60673
3097.14-115936-105923-100345-41876 18580-11006
3100.04-26207-15501-78112-13592-81312-74546
3102.93-83911-36613-68185-41084 11071-52089
3105.82-82773-14877-21327-26149 35550-24040
3108.72-40213 27709 3064 23779-64786 27695
3111.61-17891-43571 34985 24723 61300-126186
3114.50-5012 48634-101132-54243-31927-69262
3117.39-15129 24046-2018-49536 21173-26384
3120.29 35100 20967-29352-24493-69432-102291
3123.18-39078-39840-16565-56041-27316 47139
3126.07 30473-44560 37087 88515 6585-47308
3128.96 13565-685 84114 77280-94232 61589
3131.86 77363 21107 15420 739 45979-81395
3134.75-32034-11290 21653 58926 30095-34604
3137.64-12667-40329 37659 13280-15296-26016
3140.54 28505 34319 68732-33555 35499-79178
3143.43 15565 421-13751-53706 29939-36986
3146.32 10431 55833 21670 25908 74663-43193
3149.21 18519-10329-67891 32536 35072 58877
3152.11-33845 13505 63546-29449 60083 16068
3155.00 56304 46599 63279 55060-54123 48867
3157.89 729 88565 86424 42587 63820 30401
3160.78 95112 23887 211-25846 63852 51580
3163.68 1806 52499 152160 54154 86486-28832
3166.57 62127 9428-6210-49653 41306-17423
3169.46 23829-33840-55500 8254-18437 57739
3172.36 109168-9257 57793 124908-28096 24058
3175.25-51544 45685-15443 60169-30555 27686
3178.14 54219-25235 44246-34983 108552-42809
3181.03 46589 86712 42709 23194 32802 34896
3183.93 17064 100748 42810 19968 24648 43219
3186.82 18167 60483 35481 31733 12867 35919
3189.71 68921-63144-12530 19071-14435-20614
3192.60-26186 329 67351 2710 1354-14621
3195.50 3099 4926-4754 113248 28791 46346
3198.39-37646 20927-24312 37350 27032 60129
3201.28-70889 14016 52153 25034-29460 67502
3204.18 109283-14199-21506 13420 43223-75638
3207.07 49965 43856-34740 15952-8362 29678
3209.96 28309 57921 62645 20159 85310-43797
3212.85 42213 13965-30959-13210 9566 79450
3215.75-6958 34848 26055 108271 129803-52526
3218.64 69437 12408 29410-7288 70603 14414
3221.53 168807-55868 62058-36195 26283 13353
3224.42-28989 43980-28278-61714 37785 57170
3227.32 98448 21043-10706 22998 69287 91784
3230.21 113925 42493 46753 51926 197-14160
3233.10 51348 16844-17013 76531 16957 71138
3236.00-46921 88394-19914 36276-2441 62492
3238.89 140 88155 50820 22596 41549 125073
3241.78 43864 115133-48779 128996 77097 7546
3244.67 84127-12046 54364 64242-12666 138340
3247.57 31939 97093 35528-96927 17957 71740
3250.46 22909 56263 55852 125285 54746 118891
3253.35-120896 58951 91254 74173 16912 27174
3256.24 64900-36284 108076 28826 12808 16084
3259.14-14052 62686 30983-22029 94075 53592
3262.03 69843 124906-5654 5364 76622-27361
3264.92 21628 46202 27512 41506-29138 91192
3267.82 97864 34470 84497 110643 17759 10019
3270.71 2070-56377 83598 36190 75356-53170
3273.60 73505-19773-49329 122251 49321-10783
3276.49-28069-10826-14725 65022-2383-30900
3279.39 33887 20546 16539-16930-12849 22030
3282.28 15180 31843 34989 50713 4957-103071
3285.17 29714 17855 10465 78902 1188 2105
3288.06 79459 96726-26478 52344 25364-31996
3290.96-51785 23870 50044-36491 61230-43288
3293.85-14095 53747-39242 36053-20762-30618
3296.74 56860 34404 81159 12206 143515-6216
3299.64-53138 65119 38316 50173 48116-71457
3302.53 12499-107535-3266 19584 47783 3041
3305.42 46318-41442-150517 122673 59545-20609
3308.31 45718-52591-1139 42938-92998-13853
3311.21 14671-7463-25603-49158-26393-58317
3314.10-7907-98811-66233-2636 72098-117801
3316.99-60137-30268 31532-88892-108939-32549
3319.88-18521-51934-21881-70481-27369 318
3322.78-37101-35216-53443-43214-11471 4722
3325.67-90853-75158-82970-92117 34663-15668
3328.56 2242 29564-12178-132099 1034-11884
3331.46-98363-58872-4217-27465-59218-85949
3334.35-46583-23273 5315-43269-163954 18906
3337.24 15273-58191 591-48190-71257-39796
3340.13-21353-122275-92146 29763 40094-111410
3343.03 50196-15553-146066-99686 26195-61966
3345.92 21535-41053-159604-20004-138550 1215
3348.81-68256-6289-53083-41540-40399-19597
3351.70-47754-454-113152-77528-95605-91469
3354.60-146228 12104 21581-59229-37569-91876
3357.49-106585-54499-75885-55672 15235-3036
3360.38-101520-30448-10043-146150-47932-100264
3363.28-17086-24928-149859-82292-25162 3347
3366.17-33498-117434-21612-56767-97883 9376
3369.06 5723-113056-49488-83283-103251-83944
3371.95-79496-68995-131961-85334-41063-72739
3374.85-71134-146797-43681-85837 13788-55001
3377.74-56658-146202-128519-86861-29588-154091
3380.63-72023-138077-179875-34210 5523-87372
3383.52-1745-76784 8159-17662-16874 15285
3386.42-32806-82751-25729-84774-4215 12445
3389.31-85354-106613 25574-57245-21958-39392
3392.20-58638-75378-79676-195084-81324-148226
3395.10 2638-116882-35351-48860-33515 140066
3397.99-3513-52000 4710-54798-155709 21962
3400.88-29207-27859-12870-55857-84980-68235
3403.77-38123-60293-58588-32954 9573-697
3406.67-26995-110559-62000-71748-31701-66914
3409.56-122452-12900-56269-100241-51226-103062
3412.45 170667-3185-27166-54323-158401-69027
3415.34-69774-87855-72871 94462-57473-98385
3418.24-93748-62518-18918-53997-156420-5781
3421.13-77131-126544 46717-61407-58469 86800
3424.02-21641-115990-24792-10687-48904-60370
3426.92-66494-172115-21680-56532-117771-100283
3429.81-166274-84927-42475-18111 3444-37322
3432.70-25705-117477-108478 32440-22300-1936
3435.59 46899-55388-61242-85025-50729-154780
3438.49-103370-108952-157326-102587 27568-146444
3441.38-148701-54629-28875-146535-199229-72923
3444.27 21244-42518-72204-157577-9383-132732
3447.16-193756 298-124089-119065-41926-92911
3450.06-171291-47692 8004-61941-94447-42250
3452.95-7285-75750-129142-103981-55167-46983
3455.84-42005-121221-157087-27054-7588-21116
3458.74-96307-165875-127794-95205-1020-193741
3461.63-77659 31477 9510-10415-43945-106072
3464.52-115852-125109 26701 28370-15191-141962
3467.41-90634-85722-134596-64081-43910-39843
3470.31-133462-178711-102480-190750-166305 39222
3473.20-23827-79304-111521-71931-109341-82227
3476.09-38855-5839-67432-136785-29725-69273
3478.98-110929-126858-130637-46635-146226-77259
3481.88-39990-132581-116534-81420-21460-66132
3484.77-189418-136560-156914-74850-29422-132526
3487.66-35958-182044-114482-56903-194811-115599
3490.56-173010-51411-27024-140311-59068-189254
3493.45-185436-87845-104246-103282-124353-133567
3496.34-87448-107407-34929-133408-131901-157282
3499.23-109083-158412-159098-60658-160827-79685
3502.13-91850-161192-129430-107528-212672-159780
3505.02-116619-141628-103569-50449-174098-77845
3507.91-185227-87987-184264-173907-142923-139146
3510.80-21159-124352-242932-106407-75686-176928
3513.70-59834-170632-143329-18176-58630-113123
3516.59-125324-41707-116010-111982-205869-162134
3519.48-184566-69245-97425-88380-178485-94864
3522.38-176788-62394-106566-203131-43828-118282
3525.27-156421-148475-94180-129271-158773-132229
3528.16-152670-164207-184188-122946-172243-129649
3531.05-113612-112622-136732-193739-70-64316
3533.95-81292-46165-45924-166495-189144-107340
3536.84-78450-102819-128878-138727-179641-172107
3539.73-127071-150625-45155-84926-71998-149971
3542.62-200787-30185-107431-110585-173146-244859
3545.52-103380-89722-167705-93759-120730-173378
3548.41-53214-97449-55110-117396-194778-132217
3551.30-134882-218558-214833-51376-120723-108567
3554.20-126754-101660-24988-162368-55020-158664
3557.09-28794-111293-136408-48749-99430-108427
3559.98-41465-118926-77687-148479-154540-161405
3562.87-117202-119504-93943-84469-110864-276659
3565.77-196109-214078-77294-218959-286771-137842
3568.66-87154-88990-134648-179556-194902-149087
3571.55-135391-147067-86794-69554-61977-132104
3574.44-33814-88396-101548-60849-156142-145172
3577.34-128825-168912-30794-50269-110587-132560
3580.23-113609-69262-119610-99700-148191-88628
3583.12-100237-101176-39915-42717-79285-66699
3586.02-463727-254987-91367-64709-442333-437796
3588.91-23511-226572-91494-84484-51714-48415
3591.80-69010-176241-150529-175642-57021 21102
3594.69-215139-166150-92798-65913-3589-14118
3597.59-100403-86064-19347-33256-13377-188358
3600.48-130676-113462 58335-57170-69902-127635
3603.37-117459-58505-31605-53702-72941-148039
3606.26-213937-268173-100219-282940-164-758948
3609.16-308028-4717-167293-22850-143449-186773
3612.05-522076-177232-132860-86543-243323-140153
3614.94-108008-104005-98549-40016-285663-263224
3617.84-124411-72248-457414-676027 16579-176454
3620.73-171354-87926-47097-84539-103127-112642
3623.62-82105-120434-62376-58478-97337-185408
3626.51-125285-159730-315185-1109882 44428-1075948
3629.41-660082-289-243973-97041-103799-62825
3632.30-136081-59832-379055-179381-61991-36722
3635.19-130446-92203-12327-71172-160658-152320
3638.08-116278-98180-117333-143314-96558-133975
3640.98-176331-117793-120817-104164-104447 19989
3643.87-110069-14187-217514-32891-191363-244121
3646.76-633255-340706-268412-143741-1350391-544575
3649.66-133976-551787-434347-435878-119153-223857
3652.55-68944-121193-91552-86021-124288-124393
3655.44-363370-906687-68627-156547-27206-157896
3658.33-55580-246794-68075-119675-98419-198714
3661.23-79476-113239-9067-199577-50258-201967
3664.12-148304-112104-135194-167899-100180-127744
3667.01-134293-30011-491344-548414-100882-156008
3669.90-694087-1525679 39660-275264-115869-273452
3672.80-511-421445 98391-865677-478808-781626
3675.69-1378353 16202-322187-137491-178914-42674
3678.58-174318-307711-76163-105391 10621-153524
3681.48-32016-158727-70090-188856 31593-228265
3684.37 25329-187337 47702-191873 73116-228530
3687.26 66426-1343226-1102724 31246-132676-57350
3690.15-90064-382947-326988 59260-24588 81436
3693.05-110602-50576-20257 2606-27315 15702
3695.94 18386 41196-18238-55660 32120 41721
3698.83-3349 13869 16561 126806 128047-240925
3701.72 82605 287015 323064 526302 271556 300061
3704.62 280840 324172 18181-36110-33694-12742
3707.51-147687-77352-221858-454074-97210 17303
3710.40-185429-50300-529184-1094048 35413-57515
3713.30 139696-18889-57978-25251 112008-48284
3716.19 129566-9372-1981-2117-10754-219295
3719.08 19389-100779-83456-165041-46763-300594
3721.97-287599-58646-108706-102514-76133-240385
3724.87-161473-35265-349641-457152-34734-232756
3727.76-82503-153423-62177-99717-82646-220912
3730.65-71564-209845-1020264-377178-33940-220294
3733.54-81546-467292-422323-490834-17819-695658
3736.44-915538-92371-220973-269660-143259-139876
3739.33-176730-148404-204471-338295-218828-207949
3742.22-212048-68952-419275-1036022-2344622-912741
3745.12-168639-281603-96376-289482-176210-177070
3748.01-104977-701500-1784780-425633-82713-260964
3750.90-146988-1006551-1868845-69270-314678-122330
3753.79-221361-58942-181422-109239-273382-354353
3756.69-166481-94131-157137-193285-135182-347920
3759.58-523535-73970-236554-89618-187055-39045
3762.47-157223-202230-154704-87515-100482-247591
3765.36-519275-44545-186591-77789-161176-81731
3768.26-181335-100329-602317-423878-118287-226750
3771.15-161312-148401-165868-177285-149683-190619
3774.04-120634-101077-55119-221382-143865-113405
3776.94-145968-74139-203424-89897-493339-326147
3779.83-139395-210359-99872-76767-96615-140356
3782.72-104475-190930-157923-226773-141580-151958
3785.61-128316-118871-42834-114894-65355-69558
3788.51-185635-185711-20976-142568-20599-181013
3791.40-121914-149380-63086-163710-24548-220550
3794.29-121580-127021-48455-486620-244957-200320
3797.18-206882-154868 25608-136461-6351-157277
3800.08-102299-672695-1543645-94814-136178-150140
3802.97-85170-12980-62134-35217 62576-164562
3805.86-56922-923651-713414 46497-199187 77980
3808.76-107881 29086-67668-31644-58192 20195
3811.65-121800 26587-179646 31173-162160-20199
3814.54-282396-134266-1735403-803579-43254-120993
3817.43-90298-184020-122344-196312-249250-385088
3820.33-771385-248605-920719-295194-148092-142180
3823.22-205929-134909-123846-183840-104828-129237
3826.11-458307-181896-86025-212832-129029-100615
3829.00-108430-165307-224066-177257-417927-657619
3831.90-52356-283315-66719-257761-22605-652906
3834.79-268630-208232-87321-325671-56329-1674829
3837.68-1175686 62848-301159-139411-436119-118864
3840.58-571900-157108-189775-73650-205712-303863
3843.47-399673-121307-173778-79246-131202-61297
3846.36-211167-132819-196600-51036-92519-122925
3849.25-339312-140075-269244-112494-687803-1529350
3852.15-139508-365868-580449-2295124-1416616-152858
3855.04-180023-169118-169454-219130-318017-165500
3857.93-187983-12434-231141-209863-199362-71723
3860.82-235855-443799-202113-84077-267036-177172
3863.72-219833-282761-905559-62404-212564-108289
3866.61-227638-96294-261683-39324-575818-224969
3869.50-1173403-727677-102395-227157-56028-268668
3872.40-148855-177336-322421-496032-203880-211799
3875.29-98156-168308-171005-96365-80774-125729
3878.18-162389-161964-195876-641276-414838-261362
3881.07-216440-109977-193724-88328-143737-67108
3883.97-323245-64646-754025-924035-126325-196240
3886.86-245842-152418-69683-116847-165472-148458
3889.75-135781-196046-692372-371073-98100-141348
3892.64-112015-181898-233804-82094-135321-124812
3895.54-91986-138728-204704-231107-147378-107860
3898.43-287352-704449-68682-233019-114472-249192
3901.32-705451-317833-155659-166305-256303-753803
3904.22-162058-138139-267899-405587-135284-194536
3907.11-84246-222848-209971-121960-173536-166066
3910.00-127338-256185-144262-136611-287904-103621
3912.89-156335-98191-143397-253216-161938-153762
3915.79-198220-176473-511647-229587-97232-208866
3918.68-112367-192813-435357-153319-121592-127427
3921.57-78313-33424-151444-130748-190567-152454
3924.46-163525-254986-85259-163587-66137-261034
3927.36-88989-212117-140624-325938-240176-240274
3930.25-169529-185867-187319-229927-290216-159952
3933.14-113958-132731-159092-132874-127351-110289
3936.04-107163-266868-57784-113231-114046-176071
3938.93-23730-106528-110210-86592-169013-116148
3941.82-227990-256065-121497-117423-201614-101606
3944.71-42733-115966-85258-120258-114505-151443
3947.61-112251-196524-75846-209726-336984-188720
3950.50-174366-41571-135406-62292-172918-137078
3953.39-83099-147542-111413-21468-114391-136704
3956.28-183321-103152-105116-269306-73787-63724
3959.18-229828-196157-140737-210615-158821-195162
3962.07-216727-195175-49800-186599-118687-153415
3964.96-49224-87108-128746-149982-79264-234473
3967.86-133561-64295-155318-174005-110623-44043
3970.75 1431-203975-58935-107347-122680-181632
3973.64-168115-117625
##END=
