##TITLE=2-Propanol
##JCAMP-DX=4.24
##DATA TYPE=INFRARED SPECTRUM
##CLASS=IUPAC A
##ORIGIN=NIST, Anayltical Chemistry Division, 301-975-3108
##OWNER=COPYRIGHT (C) 1998 by the U.S. Secretary of Commerce
##DATE=98/10/1
##$SPECTRA VERSION=1.00
##$UNCERTAINTY IN Y=2.0 % relative (B=1.0E-04,C=6.5E-10,D=2.7E-14)
##CAS NAME=2-Propanol
##CAS REGISTRY NO=67-63-0
##MOLFORM=C H3 C H( O H) C H3
##MP=-89.5 C
##BP=82.4 C
##$NIST SOURCE=QUANT-IR
##SPECTROMETER/DATA SYSTEM=IFS66V (Bruker)
##INSTRUMENT PARAMETERS=KBr Beam splitter; MCT Detector; Multipass cell
##STATE=gas
##SAMPLE DESCRIPTION=2-Propanol Primary Gas Standard
##PRESSURE=101.3 kPa
##TEMPERATURE=23 C
##SAMPLING PROCEDURE=1 L/min Flow
##RESOLUTION=1.9290
##DATA PROCESSING=Boxcar Apodization
##XUNITS=cm-1
##YUNITS=(micromol/mol)-1m-1 (base 10)
##XFACTOR=1.0
##YFACTOR=4.5474E-13
##DELTAX=0.9645
##FIRSTX=574.687
##LASTX=3974.595
##FIRSTY=2.55E-06
##MAXX=3973.63
##MINX=574.69
##MAXY=.0006084
##MINY=1.94E-07
##NPOINTS=3527
##XYDATA=(X++(Y..Y))
574.69 5608452 5803944 6294980 6020570 6997708 6434104
579.51 6097458 6303546 6833754 6262948 6466732 6525822
585.29 6776938 6557204 7245690 6916146 7267536 6972748
591.08 6975558 7267546 7964804 7934290 7510264 7620804
596.86 7723012 8005856 7877928 7675590 7896674 7961418
602.65 7661056 8017606 8559820 8101256 8256530 7979040
608.44 8763700 8402932 8615820 8313118 8361372 8361338
614.22 8267146 8608358 8775078 8740152 9015116 8641696
620.01 9186010 9216542 8770960 8601002 9274610 9186102
625.79 9704740 9092866 9129956 9009482 8788822 8780502
631.58 9000514 9119488 9019286 8941432 9224052 8785112
637.36 9209484 9158616 9288916 8882894 9287392 9019512
643.15 9253486 8870730 9049650 8928916 9074074 8480078
648.93 8696002 8387662 8591004 8354528 8375886 8134786
654.72 8198088 7765896 8196450 7843032 7930526 7479138
660.50 7915922 7444490 7511186 7344002 7577472 7572352
666.29 6714056 6302494 7303610 6931452 7314342 7113068
672.08 7158056 6888604 7156904 6865206 7058162 6794704
677.86 6573380 6511508 6748776 6531826 6745892 6077108
683.65 6637692 6173546 6374850 6326846 6150212 6166726
689.43 6441856 6083272 6137842 5724282 5824568 5552862
695.22 5893280 5845350 5812516 5735150 6145478 6052614
701.00 6008598 5996326 6162438 5874222 5898022 5839964
706.79 5859288 5561912 5600378 5421164 5724812 5357650
712.57 5342924 5073216 5117362 4753954 5114254 4881848
718.36 4949816 4758696 5109824 4695600 4911890 4567078
724.14 4730594 4400766 4615462 4219568 4356870 4107096
729.93 4282668 3891596 4054384 3580194 3710856 3396300
735.71 3683176 3283384 3515442 3188238 3275780 2891270
741.50 3069458 2885232 3174136 2763282 2983838 2696586
747.29 2754154 2473736 2695500 2343414 2514026 2391932
753.07 2648926 2375110 2517104 2217542 2433940 2231682
758.86 2517656 2193996 2323940 2090116 2448434 2085112
764.64 2427358 2288292 2577262 2260278 2393484 2368030
770.43 2676308 2362892 2680634 2605164 3022034 2942522
776.21 3507000 3346802 3841314 4028042 4720924 4681342
782.00 5558906 6037254 7282006 8016342 9188500 10266150
787.78 11975500 13341080 15500550 17241800 20040530 22254720
793.57 25269240 27788940 30902880 33403150 36924510 39503720
799.35 42359840 44765560 47232760 48563600 50425040 51148440
805.14 52380270 52684600 53517630 54198800 55804490 56821010
810.93 58302830 59480620 59926300 63618020 66421200 62582440
816.71 61525520 57250870 62406700 63094320 57364320 55481140
822.50 54639180 54910080 55571270 56662580 57353220 57385030
828.28 56817750 55335400 53553440 50584960 47739000 43454440
834.07 39906270 35496710 32028840 28162800 24826770 21748190
839.85 19308920 16673580 15096750 12882530 11901600 10347610
845.64 9559022 8335628 7938396 7000898 6827174 5981398
851.42 5915504 5319102 5393028 4851500 4785930 4289398
857.21 4378364 3916652 4161324 3647702 3835024 3431814
862.99 3653626 3350896 3653246 3211908 3557070 3192520
868.78 3628842 3165812 3581126 3142564 3536422 3126372
874.57 3446558 3132226 3394558 3157550 3419610 3153782
880.35 3560846 3332544 3680376 3439428 3866916 3531618
886.14 4028114 3783038 4290158 4123340 4666630 4418106
891.92 5109482 4826486 5503926 5307784 6067716 5910850
897.71 6758308 6597710 7449188 7374566 8466790 8442276
903.49 9622604 9791126 10972650 11299600 12664190 13204910
909.28 14860760 15547280 17366240 18428750 20774170 22322090
915.06 25084660 27117030 30777110 33953180 38660580 41336070
920.85 46598760 51475350 58263980 64567800 73208030 81291650
926.63 91915090 102313800 115560000 127420100 142696900 156970900
932.42 174132900 189871700 207895100 224502800 242034200 255968100
938.21 270565700 280789800 291824700 298005100 304971500 307644700
943.99 311198900 312189200 317480000 321204900 333114000 342462000
949.78 358741400 365320300 379958100 373977700 376841600 351678000
955.56 377823000 398581000 342705000 329523600 313417000 310126200
961.35 310246100 318330800 322866600 328334000 326856800 323471500
967.13 312058300 299421100 280377300 260280400 235785100 212398800
972.92 187323800 164316900 142118200 123006100 104747600 89792270
978.70 76012920 65253030 55301820 47758060 40905710 35999440
984.49 31253760 28023880 24675420 22804480 20621410 19525100
990.27 17812340 16972350 15799330 15182150 14267580 14021220
996.06 13311260 13157150 12536060 12530720 12033000 12101010
1001.85 11871390 11896870 11603150 11663740 11475900 11633960
1007.63 11459010 11473980 11302820 11411600 11255090 11274320
1013.42 11102990 11167670 11180430 11500930 11634480 12139660
1019.20 12593880 12973670 13211780 13745710 14218710 14757940
1024.99 15303330 16118640 16637850 17607730 18436100 19668530
1030.77 20729900 22044200 23457830 25061930 27170090 29240700
1036.56 31671240 34410720 37499440 40873700 44551790 48624000
1042.34 53553830 59137690 65701800 72316460 79243470 86365870
1048.13 94196690 102555900 111030600 119926200 129185000 138053600
1053.91 146938400 156613000 166848500 176119000 184996000 193849600
1059.70 202130500 206824800 211276800 217061200 224481400 230935000
1065.48 243104300 256648800 266605500 278999200 280040400 292350000
1071.27 297295700 302725100 286074900 281772000 277367500 277330000
1077.06 281450200 279144700 275736900 274275000 274704700 271006400
1082.84 264066000 262026400 262057800 258868800 256557900 254908700
1088.63 250800200 242672500 232606800 222828500 212859000 202502000
1094.41 193067000 183794400 174907600 166711700 159240700 152953300
1100.20 147677300 143157100 139725900 136975300 135383000 134724800
1105.98 135067700 136009900 137999900 140209100 143200700 146672500
1111.77 150732400 155197000 160646100 165689600 170279400 175622800
1117.55 181675100 187809000 193858300 199469400 205229800 211350800
1123.34 217803600 224214100 232052100 236133800 244470500 253887800
1129.12 252337200 263482400 268121600 262257200 270903500 281848500
1134.91 289868200 303882200 311468900 309764000 317276500 320992100
1140.70 326659100 333343100 342974300 350147900 358317800 367371400
1146.48 377423500 386036600 391823100 395361700 397869300 396913200
1152.27 395976400 393399300 391613200 388167100 383533600 376712600
1158.05 370369700 362729300 358504200 350725200 349739000 348011400
1163.84 334001900 319802100 312300100 307904700 301379500 287460300
1169.62 275409800 265339200 257256600 245990400 236700500 228560300
1175.41 220249700 211521300 202874300 193594400 183629100 172679000
1181.19 161935700 151764400 141230000 130782200 120780400 111090900
1186.98 102222800 94095820 86821580 80206660 74658690 69389650
1192.76 65290770 61147250 58021510 54603070 52185760 49628640
1198.55 47755690 45985260 44951330 43691690 42994550 42061740
1204.34 41771180 41773090 41740640 41634200 42523930 43034710
1210.12 44350930 45535010 46992950 48138630 51396920 53558060
1215.91 56184000 58804760 62579720 66295820 71225370 75592820
1221.69 81350420 86733880 93410580 100060100 107949200 115291100
1227.48 124284000 132698500 142021300 150024900 158993300 166958700
1233.26 175838000 183578700 192095500 198374700 204829200 207474400
1239.05 210801400 212086600 216820200 215035600 214449300 215951100
1244.83 220581400 225929500 238782300 246750700 258406100 267943500
1250.62 278945800 261120100 252390600 255860100 236813200 231789300
1256.40 222802100 220413200 215561900 215950800 212707200 213849300
1262.19 211703400 207947900 199385800 193011600 184353100 176276000
1267.98 165372300 156060900 145297000 136607500 125106100 115240900
1273.76 107480800 100079800 91888340 85134790 78700380 73688570
1279.55 68606260 64835620 60740240 57773600 54419990 51784180
1285.33 48966730 46859440 44618960 42810180 40780900 39407170
1291.12 37811330 37008080 35823890 35309360 34609330 34455700
1296.90 33982700 33856950 33334850 33336240 33033530 33273190
1302.69 33082470 33353400 33380480 33874990 34084560 34615510
1308.47 34955800 35845850 36498700 37472780 38216760 39503530
1314.26 40759090 42574780 43921620 45486890 46908290 48604660
1320.04 50750860 53040420 54845040 57085800 59512640 62385180
1325.83 65175870 68446740 71481950 74765210 77679310 80592970
1331.61 82902950 85698180 88160780 89782330 92526600 94562490
1337.40 97478750 99886090 101605800 105336000 108574900 111772100
1343.19 112261100 110003500 113566700 122617100 122055300 122459300
1348.97 125219800 128422500 132638600 137473100 143410600 150005000
1354.76 154916300 160422800 164224600 168681400 173211100 178670600
1360.54 182996300 189168400 195342000 203673800 211108100 221345200
1366.33 231215400 244998800 256935900 274316300 291474700 314971200
1372.11 327856500 331083300 346365900 360768500 375555600 388969600
1377.90 404273500 424106000 433477900 446437900 443106400 423360100
1383.68 420165500 415868400 415837200 410753300 404644100 394900100
1389.47 394478100 402963500 405958700 403112800 392323600 373882200
1395.25 355371300 337731000 319122000 300179300 279856900 258897200
1401.04 238751700 219159400 201093300 185952500 172180000 160012000
1406.83 149982800 139661400 129738300 120263800 111731200 103717800
1412.61 96701720 89633380 83411380 77756770 73406900 68956260
1418.40 65160570 61373870 58342140 55644760 53671370 51965440
1424.18 50895850 49601240 48456510 47565240 47308180 47099440
1429.97 47292340 47518670 48319000 49230460 50049580 50920400
1435.75 52515680 53419680 54953490 56348710 58021220 59455150
1441.54 61075560 62223880 63789240 65142080 66875120 68344420
1447.32 70313670 72297480 74899190 76186260 77160680 81806630
1453.11 87449170 94436290 96263840 100188300 109240500 109185300
1458.89 118546100 127465000 138031200 150537500 145984100 113305200
1464.68 86843280 77049480 74149580 75507220 87980930 104266700
1470.47 129240800 149571900 172060700 128784200 100183200 86205620
1476.25 76450630 72105920 69025280 67426440 66282140 65473780
1482.04 64676800 64010380 62986240 61986860 60593620 59147470
1487.82 57260760 55357920 53198120 50538900 47973260 45275610
1493.61 42035000 39214400 36820540 33931940 31721100 29249290
1499.39 27033190 24951810 22320830 20421660 18638040 17305010
1505.18 16049470 14799020 13568500 12446370 11672940 10693340
1510.96 10186180 9337382 8781624 8295524 7829514 7514150
1516.75 7192882 6640730 6454738 6262720 6154316 5594158
1522.53 5461708 5136006 5190298 4804624 4847238 4577470
1528.32 4544816 4419526 4444986 4067594 4157160 3999596
1534.11 3854142 3668516 3703948 3571116 3949150 3735238
1539.89 3645948 3520376 3605266 3288984 3455794 3249096
1545.68 3251562 3068648 3121656 2970008 3032652 2783414
1551.46 2924838 2780680 3027760 2722782 2836858 2687578
1557.25 3090786 2796418 3031404 2541702 2578014 2457384
1563.03 2496684 2465092 2462214 2337302 2439772 2365100
1568.82 2595216 2301570 2411314 2270436 2389404 2158276
1574.60 2499366 2611622 2268134 2271958 2266934 2251036
1580.39 2290380 2192918 2279572 2170454 2229628 2113056
1586.17 2200752 2089342 2224874 2108374 2264886 2122226
1591.96 2244018 2114320 2224116 2129592 2201630 2054564
1597.74 2177518 2028298 2125008 1986368 2092004 1971234
1603.53 2073888 1960164 2098726 1922382 2036880 1945968
1609.32 2103672 1930762 2057608 1929626 2064442 1913168
1615.10 2215418 2270302 2020628 2052758 2110040 2006900
1620.89 2110866 2008370 2229942 2005528 2175782 2064310
1626.67 2284768 2117590 2258824 2172480 2416282 2307550
1632.46 2472318 2474658 2811836 2449884 2530026 2439168
1638.24 2531890 2525082 2714612 2628780 2773448 2752376
1644.03 2993538 3185736 3125178 3134992 3197884 3152046
1649.81 3265924 3269526 3902170 3561566 3575802 3387688
1655.60 3488400 3386310 3499602 3411456 3550288 3500624
1661.38 3738120 3662602 3740184 3766524 3820224 3718724
1667.17 3823146 3894496 3799060 3695500 3904580 3677524
1672.96 3749160 3796978 3940904 3603374 3722850 3567454
1678.74 3798880 3491792 3560090 3549010 3693186 3865180
1684.53 3771884 3422194 3649046 3417390 3632276 3385324
1690.31 3508444 3283166 3546422 3254652 3679994 3742594
1696.10 3472692 3432538 3463270 3754704 3732412 3333286
1701.88 3483690 3360008 3562094 3382438 3563622 3352554
1707.67 3584464 3474212 3724058 3581442 3746742 3592708
1713.45 3845282 3684966 3739250 3894344 3954794 3877402
1719.24 4063136 3924172 4097786 3854658 4044586 3935600
1725.02 4127342 4028730 4179096 4032550 4307146 4365982
1730.81 4785030 4730160 5045854 4858132 4874610 4609300
1736.60 4873712 4802718 5189612 5114294 5363788 5468294
1742.38 5868664 5951332 6312268 6364344 6798776 6869274
1748.17 7271604 7305498 7898690 7804940 8072522 8105096
1753.95 8395058 8358260 8543158 8372444 8596668 8421670
1759.74 8584032 8559036 8686822 8481478 8750076 8632336
1765.52 8893022 8726942 8970976 8527704 8941984 8412176
1771.31 9029736 8240522 7745754 7479848 7423594 7316924
1777.09 7419900 7404280 7629218 7387558 7280674 6871458
1782.88 6657374 6126510 5702926 5014188 4657636 4007960
1788.66 3615280 3138416 2857460 2515162 2278848 1886232
1794.45 1877604 1583922 1620872 1339564 1488160 1167208
1800.24 1302138 1105948 1211780 1018304 1217800 1081388
1806.02 1234194 1086570 1226480 1126464 1299452 1164842
1811.81 1378854 1219280 1344642 1216676 1436518 1251160
1817.59 1420268 1255772 1421636 1253734 1455218 1328846
1823.38 1511542 1448832 1519466 1378874 1522422 1439484
1829.16 1664880 1449516 1670942 1511278 1641852 1505606
1834.95 1647154 1419342 1604520 1350650 1559842 1355056
1840.73 1539674 1295630 1581706 1425706 1445078 1312908
1846.52 1427564 1295516 1404672 1225980 1439642 1265970
1852.30 1482962 1365452 1628704 1610526 2093584 1979112
1858.09 1917532 1756596 1940124 1837762 2076588 1952180
1863.88 2113382 1931906 2157392 2035272 2324472 2283996
1869.66 2455084 2419912 2727936 2739346 3040844 2951982
1875.45 3166142 3084320 3337366 3328884 3560414 3597244
1881.23 3869166 3811110 4063672 4000842 4323468 4280082
1887.02 4612328 4607128 4888660 4759482 5024178 4894664
1892.80 5087336 4968000 5160578 5031474 5179818 5053518
1898.59 5284692 5125346 5352162 5190028 5359482 5179586
1904.37 5493638 4955348 5143538 5185184 4744426 4376664
1910.16 4308682 4058328 4158386 3942850 3908316 3755284
1915.94 3776880 3602550 3515654 3220126 3127044 2780268
1921.73 2730546 2284272 2242822 1847054 1777104 1385700
1927.51 1400190 1090778 1094196 789284 919842 673548
1933.30 721586 527236 669124 470444 659822 499422
1939.09 658638 443922 673694 432280 559346 397238
1944.87 613456 428590 628652 453568 647606 477290
1950.66 709738 541894 768482 656722 863602 699726
1956.44 877608 713952 875284 714650 945490 780630
1962.23 999124 837626 1017984 859702 1065334 854818
1968.01 1049554 895712 1122646 907336 1137596 1013212
1973.80 1253444 1003914 1255574 1082564 1284066 1169038
1979.58 1319614 1109904 1334032 1188862 1370244 1187148
1985.37 1307216 1076266 1210844 1016262 1176236 1006310
1991.15 1203956 1030756 1188694 1009240 1244630 1040772
1996.94 1250112 1054030 1232088 1082136 1260166 1132410
2002.73 1306404 1110246 1353606 1157178 1476072 1280480
2008.51 1472878 1301262 1584314 1319628 1526864 1379732
2014.30 1570516 1439476 1634246 1401674 1653926 1480330
2020.08 1708084 1581944 1775516 1589616 1848318 1636500
2025.87 1915180 1688048 1866264 1647558 1933080 1679874
2031.65 1846154 1612856 1816626 1642814 1813176 1626966
2037.44 1851882 1614036 1822932 1601514 1822442 1574612
2043.22 1759198 1540120 1726924 1461876 1692478 1461298
2049.01 1684606 1541846 1722860 1527322 1779836 1615146
2054.79 1894506 1715796 1992102 1768120 2092620 1872058
2060.58 2094328 1992074 2288980 2166286 2353520 2192170
2066.37 2468618 2384774 2693944 2417676 2748024 2544186
2072.15 2958504 2641264 2813560 2680948 3003628 2930238
2077.94 2959798 2846616 3025168 3005544 3127858 2811484
2083.72 2981228 2896310 3331168 2706488 3023140 2588440
2089.51 3188586 2661750 2855100 2524272 2926586 2759874
2095.29 2562822 2407072 2610230 2746748 2406302 2254138
2101.08 2280014 2580458 2333472 1937640 2045120 2048792
2106.86 2349288 1586334 1975220 1625804 2402296 1464076
2112.65 1880024 1422132 2348280 1385468 1693878 1290142
2118.43 2152748 1570004 1673300 1304976 1962012 1682092
2124.22 1588802 1368968 1842862 1814926 1638674 1527294
2130.01 1851924 1886868 1797756 1790368 2089516 2200364
2135.79 2287694 2253072 2461224 2132888 2144112 1987028
2141.58 2083440 1908660 2172654 2023582 2359216 2263362
2147.36 2467376 2283040 2701372 2596038 2651492 2489874
2153.15 3003330 2785892 2686266 2570792 3161124 2978334
2158.93 2797568 2838900 3521670 3195784 3062730 3232732
2164.72 3765300 3109516 3137500 3409772 3685340 2917320
2170.50 3088452 3425428 3437336 2780170 3258632 3474660
2176.29 3296992 2884124 3501096 3450138 3297070 3257262
2182.07 3912754 3486472 3383118 3545650 3912318 3412680
2187.86 3680964 3895444 3987016 3562246 4070194 3998312
2193.64 3861566 3698694 4153218 3718510 3719292 3594078
2199.43 3683526 3207018 3511076 3388724 3344496 3045774
2205.22 3268756 2914996 3002062 2818540 2940078 2586724
2211.00 2743672 2447734 2431230 2118810 2201766 1837292
2216.79 1918064 1580918 1640240 1354092 1485654 1146526
2222.57 1307584 1056494 1224178 917588 1147838 838820
2228.36 1050452 820790 1037990 745416 979680 808690
2234.14 984524 791562 993782 877008 1002072 727872
2239.93 995024 780654 1007724 781204 1013976 794262
2245.71 1084362 861098 1105058 911064 1128798 941406
2251.50 1200386 1007826 1185946 1044046 1286158 1048378
2257.28 1264510 1154256 1382864 1181738 1449096 1361476
2263.07 1701678 1487018 1714842 1453684 1741328 1594188
2268.86 1823240 1654152 1997448 1787388 2086004 1889174
2274.64 2150144 2067384 2448744 2293824 2626566 2584532
2280.43 2856460 2675300 2945028 2780388 3151188 3037442
2286.21 3324744 3189708 3504718 3354132 3719728 3559802
2292.00 3925760 3804316 4245280 4099374 4480918 4319584
2297.78 4695786 4634214 4895838 4804010 5106368 4944958
2303.57 5273642 5163132 5475894 5370704 5679892 5458578
2309.35 5929582 5620286 6128716 5568554 5989686 5457470
2315.14 6005630 5353620 5960986 5341794 5909428 5340070
2320.92 5944470 5265972 5690622 5148264 5555510 4985110
2326.71 5380416 4780098 5116908 4611944 4942780 4572552
2332.50 4891116 4323238 4406896 3828048 4057150 3626742
2338.28 3801802 3303734 3337824 2890270 2990018 2587906
2344.07 2796072 2409540 2620854 2319598 2481494 2077780
2349.85 2174508 1756102 1851466 1437580 1647754 1186270
2355.64 1440870 1034718 1222990 927406 1150418 847760
2361.42 1119316 873700 1151808 971860 1269428 1028170
2367.21 1448306 1230618 1581976 1355066 1784482 1627996
2372.99 2085798 1894826 2387826 2080434 2308248 2100558
2378.78 2395194 2223660 2480432 2219802 2472646 2252634
2384.56 2524622 2307508 2587296 2395506 2722884 2600050
2390.35 2831528 2552780 2919374 2561328 2852390 2530090
2396.14 2754826 2420120 2744410 2449976 2733430 2341064
2401.92 2619386 2382094 2638594 2338740 2619006 2334502
2407.71 2634244 2346942 2696686 2547898 2761278 2563576
2413.49 2768276 2589544 2989210 2689494 2936894 2545180
2419.28 2898996 2515548 2829084 2565048 2902190 2646608
2425.06 2942710 2694588 3000102 2724578 3007040 2667598
2430.85 3076590 2844934 3148128 2908530 3284876 3028520
2436.63 3318636 2987728 3253474 2874076 3191660 2903898
2442.42 3252390 2885640 3143760 2887612 3204096 2975972
2448.20 3259292 2980846 3255454 2890220 3190202 2909596
2453.99 3152034 2881370 3182874 2871502 3129708 2761600
2459.77 3031288 2688734 2923266 2523184 2829392 2580230
2465.56 2929050 2682764 2999544 2680808 3084046 2829800
2471.35 3189980 2974660 3232506 3045342 3394720 3114430
2477.13 3488540 3290296 3635638 3386342 3718124 3494176
2482.92 3886364 3619114 3968202 3739486 4046814 3840946
2488.70 4179824 3912792 4303206 4107336 4422362 4180780
2494.49 4518900 4251030 4648944 4313998 4628132 4363672
2500.27 4742334 4497122 4758778 4400770 4765812 4425980
2506.06 4750188 4431154 4694436 4511886 4775170 4487618
2511.84 4723430 4369472 4575164 4160314 4457248 4057518
2517.63 4337888 3953832 4190142 3802570 4122316 3760578
2523.41 4067698 3659770 3941180 3631090 3858836 3516878
2529.20 3747456 3382482 3797388 3448546 3721810 3585144
2534.99 3975720 3392854 3619388 3354430 3595154 3162396
2540.77 3425030 3020248 3305826 3042804 3303032 2929062
2546.56 3262144 2912274 3251074 2936992 3093142 2798714
2552.34 3136232 2735858 3077506 2718602 3042314 2748276
2558.13 3063860 2769134 3043654 2812312 3167030 2832432
2563.91 3213728 2868974 3235462 3029722 3384988 3090488
2569.70 3456238 3225404 3629828 3296776 3708998 3494022
2575.48 3927980 3676694 4150936 3865278 4366084 4150474
2581.27 4589142 4347360 4774116 4529816 4991458 4766976
2587.05 5172298 5030264 5475368 5271650 5669506 5485212
2592.84 5975372 5713582 6176346 6093738 6607474 6368498
2598.63 6980432 6759552 7391502 7320642 7897084 7930510
2604.41 8756936 9418678 10000880 8894258 8898616 8469524
2610.20 8846150 8696452 9179472 8933336 9540540 9359160
2615.98 9933192 9726636 10307760 10123020 10850450 10743140
2621.77 11496350 11394980 12124820 12217920 13155490 13476440
2627.55 14646270 14841380 14899350 14121340 14292770 13586600
2633.34 14235710 14432370 15634630 16498970 18174820 18481280
2639.12 19050780 18498970 18621240 18101190 18495850 18184630
2644.91 18699680 18429580 18766640 18436300 18948020 18520840
2650.69 18892620 18498730 19023400 18793970 19252520 18976640
2656.48 19618090 19587470 20459320 19835520 20021300 19811550
2662.27 20742530 20825010 21677880 21570090 21502950 20258850
2668.05 19866580 18831750 18707860 17687460 17340450 16096960
2673.84 15999250 15265250 15330690 14776300 15157910 14726140
2679.62 15022650 14356470 14511490 13798800 13954140 13238490
2685.41 13334900 12636190 12712520 12105870 12225650 11582160
2691.19 11705540 11198910 11342260 10634460 10904460 10281390
2696.98 10627100 10189640 10539000 10139960 10573810 10193100
2702.76 10597670 10118370 10533040 10192230 10752300 10491840
2708.55 11159270 10971960 11730650 11682400 12336350 12052070
2714.33 12683160 12329430 12940650 12657630 13298270 13029830
2720.12 13653160 13358180 13892510 13333770 13869320 13613150
2725.91 14300500 14087870 14903050 14683790 15419980 15085690
2731.69 15711500 15447980 16153520 15682310 16272860 15657780
2737.48 16026160 15495990 15964700 15415560 16010720 15548960
2743.26 15946450 15385200 15814420 15279720 15746770 15068360
2749.05 15606230 15145260 15696060 15254710 15923710 15674720
2754.83 16189410 15832440 16643190 16404250 17172080 16879930
2760.62 17618640 17293390 18151180 17889170 18663210 18398420
2766.40 19260830 19251450 20042650 19425710 20012840 19358760
2772.19 19883770 19309280 19993790 19430030 20416420 20103640
2777.97 20880740 20424080 21272120 21014940 21948780 21686690
2783.76 22677350 22523820 23497970 23072550 23856690 23452360
2789.54 24338900 23988190 24855530 24693480 25923000 25839920
2795.33 26678680 26029220 26821930 26313280 27130800 26789100
2801.12 27543530 27364070 28100550 27451200 28267680 27937580
2806.90 29047740 29003610 30104210 30262240 31659360 31446330
2812.69 32827950 33031840 34914240 33967130 34495140 34295620
2818.47 36103600 36999800 38467740 38114180 39097110 39001900
2824.26 39619840 39215440 40654140 41084150 43252140 43521020
2830.04 44367900 43667530 44620740 44346050 45593940 45290480
2835.83 46848730 46643040 47734960 47808660 49726970 50048560
2841.61 52143440 53367940 56441610 58624030 63083580 66072970
2847.40 71005010 74829700 80275120 82729490 86623490 89300440
2853.18 93271420 94974470 99690220 103923800 110827400 116476800
2858.97 124592800 130942300 139428500 146173000 154776900 161030200
2864.76 168892700 174750700 182701600 188460300 196095400 200945500
2870.54 207763800 211040100 215624200 219313900 225698400 231981600
2876.33 240959300 250271300 268352200 290366300 309910300 339033300
2882.11 364025700 354200300 341492400 335906800 343503700 355580600
2887.90 361065400 354150600 350236800 339765600 330712800 319690100
2893.68 312827300 304347900 301120200 297171300 295982800 292771600
2899.47 293092500 290363800 289710700 286124200 284435800 280097300
2905.25 278097700 272651700 269552200 263223600 260436200 253955800
2911.04 251047200 245842300 245041500 243201000 242664400 236576700
2916.82 234547900 228866000 226851200 222295100 222494400 220380100
2922.61 223849500 225171200 231605000 233985300 241892300 245411100
2928.40 255881000 259863200 270297600 263889100 257317100 254555500
2934.18 252092400 253017000 262617600 268865500 276437300 272776600
2939.97 272727900 275210300 285658600 296078500 314170700 330131500
2945.75 355460500 371256600 380049400 389324100 409973800 424483600
2951.54 445934200 459895300 481793000 495498200 515147400 526398700
2957.32 546835600 557568500 579233600 594152700 618956400 630411000
2963.11 660263600 692282000 733572400 738254900 763412300 773678100
2968.89 909836800 1089904000 919766600 879044400 876215100 852603900
2974.68 878553700 913504300 978491300 1029396000 1143403000 1171986000
2980.46 1288865000 1337898000 881333200 804554500 737064900 738842600
2986.25 696488200 682916400 658347200 665327000 644683000 628814600
2992.04 605161500 597610800 575943200 565477600 541421800 525150100
2997.82 495968400 472688100 438401400 410591300 373898500 344225600
3003.61 307402100 278196800 243660500 217659300 187441200 165429700
3009.39 140081600 122617200 102386800 89441880 73698600 64876270
3015.18 52683820 46878950 37646220 34213120 27313390 25363910
3020.96 20116370 19168480 15061430 15003510 11581060 11983910
3026.75 9160410 9845928 7416632 8339846 6144664 7179198
3032.53 5252248 6380126 4584942 5726232 4147422 5242520
3038.32 3796320 4881516 3401134 4690182 3109170 4276418
3044.10 2923914 4012976 2747512 3827298 2580128 3591246
3049.89 2472738 3504082 2404398 3308454 2186290 3342362
3055.67 2129822 3157610 2155454 3106654 2062792 3039370
3061.46 2079776 3006388 2056856 3068214 2030312 2999080
3067.25 2070466 3029996 2055816 3009302 2141006 2919844
3073.03 2106196 2918156 2149074 2940604 2190634 3073808
3078.82 2207910 2996840 2229546 3099098 2343744 3082534
3084.60 2354988 3077646 2460282 3206068 2482812 3252470
3090.39 2415508 3135870 2507826 3238376 2652630 3290726
3096.17 2615142 3350264 2718066 3363710 2704344 3417974
3101.96 2818736 3382988 2769810 3462726 2822908 3487042
3107.74 2956506 3669414 3058108 3595388 2931776 3641572
3113.53 3071316 3699372 3133468 3791762 3197410 3788656
3119.31 3291148 3803586 3379154 3978720 3484108 4008100
3125.10 3494588 3945370 3553864 4107098 3648498 4171016
3130.89 3617236 4061176 3666756 4176654 3788036 4247144
3136.67 3822380 4345952 3883508 4473882 3892418 4574182
3142.46 4154928 4511226 4196950 4672584 4449500 4917418
3148.24 4566562 5104466 4768592 5261600 5053810 5554934
3154.03 5257802 5806764 5544562 6178310 5927572 6389000
3159.81 6166928 6748714 6657176 7202328 7049872 7624798
3165.60 7308154 8099962 7807132 8487156 8379988 8898514
3171.38 8662390 9212294 9249818 9870520 9631720 10205190
3177.17 10012230 10497320 10429590 10861960 10561490 10956170
3182.95 10836540 11395430 11017300 11497960 11457560 11879750
3188.74 11533030 11731880 11245540 11394220 11014590 11218070
3194.53 11065200 11715570 11754520 12187120 11532980 11820430
3200.31 11426820 11540800 10803300 10871470 10463330 10807480
3206.10 10481750 10776040 10531890 10321980 9763772 9969084
3211.88 9729188 10808810 10140670 9647494 9337198 9458144
3217.67 9170824 9311606 9051140 9105050 8938986 9103544
3223.45 9110210 9255900 8604480 8422388 8131454 7985474
3229.24 7664616 7905740 7539658 7653314 7335468 7353672
3235.02 7151868 6980728 6496094 6489844 6130844 6440592
3240.81 6139832 6460274 5420760 5366806 4858492 4947024
3246.59 4671094 5158748 4874962 4178648 3599758 3555584
3252.38 3036160 3149674 2765952 2780852 2435278 2530200
3258.17 2058440 2238652 1882634 1992798 1692320 1892130
3263.95 1465408 1668902 1200282 1330208 1207410 1381288
3269.74 967068 1127620 810038 1158246 762548 822200
3275.52 752362 894424 531576 911512 559236 829976
3281.31 596228 717568 611820 902148 631156 848136
3287.09 494114 793118 576552 689964 628860 782114
3292.88 579148 877222 706462 806034 724878 735922
3298.66 745204 902254 771570 1019262 807808 1195610
3304.45 907354 1211918 1085430 1197570 1130668 1432094
3310.23 1409366 1622832 1588640 1794664 1638970 2023498
3316.02 1932562 2128994 2029468 2215748 2231584 2383576
3321.80 2304508 2453562 2471310 2799770 2611632 3047390
3327.59 3024220 3324902 3294238 3539470 3505230 3773678
3333.38 3644064 3904774 3809032 3889444 3823832 4149110
3339.16 3932482 4110490 3928962 4132328 3909234 4039212
3344.95 3913454 3904282 3853360 4051642 3911466 4107152
3350.73 3837750 3829868 3728238 3795934 3704174 3779886
3356.52 3575096 3686394 3506050 3657280 3446776 3479886
3362.30 3381350 3344814 3154916 3263554 3118018 3191678
3368.09 3097622 3080742 2872302 3018980 2735702 2972012
3373.87 2825912 2941608 2742562 2914678 2617356 2941528
3379.66 2741962 2963908 2842270 3089434 2824872 2941462
3385.44 2953262 3166460 3034450 3165724 3168110 3393038
3391.23 3245208 3441804 3392012 3682114 3549908 3779782
3397.02 3633916 3976520 3717730 3762680 3720824 4057486
3402.80 3959838 4132994 4190390 4279586 4156092 4216120
3408.59 4092214 4401758 4309758 4516406 4334666 4608784
3414.37 4445310 4623746 4528342 4769370 4643508 5083960
3420.16 5277766 5502962 5274556 5914402 5447542 5295178
3425.94 5133092 5082342 4976248 5300026 5258346 5435896
3431.73 5212540 5505224 5385374 5614736 5571522 5504808
3437.51 5522532 5667334 5609878 5771464 5537386 5607318
3443.30 5515844 5803426 5737864 5871256 5920730 6598566
3449.08 7083022 6700854 5848098 5881810 5560044 5569376
3454.87 5461880 5711750 5395580 5789350 5576184 5640104
3460.66 5493826 5604182 5427618 5502782 5241528 5165638
3466.44 4917578 5154454 4997652 4894800 4711806 4815530
3472.23 4482190 4519444 4320298 4358540 4110768 4237872
3478.01 3832300 3943448 3656244 3745298 3381522 3456342
3483.80 3285150 3371706 3045360 3193700 2858740 2875332
3489.58 2640876 2807832 2582804 2639732 2506298 2416020
3495.37 2182912 2419626 2258756 2395234 2111316 2295644
3501.15 1847022 2091834 1807838 1969190 1817854 1914382
3506.94 1703246 1982210 1726094 1823386 1548642 1802350
3512.72 1512006 1790192 1529688 1826296 1616836 1853070
3518.51 1535106 1861574 1642460 1894114 1681450 1952494
3524.30 1764094 2123824 1825142 2140670 2101306 2344804
3530.08 2110778 2505590 2355476 2497338 2261352 2515932
3535.87 2321714 2637752 2310020 2589336 2444686 2803800
3541.65 2621242 2881698 2548398 2712576 2422024 2658194
3547.44 2346738 2488922 2355726 2584230 2223006 2556160
3553.22 2185632 2476800 2214418 2394798 2074538 2394126
3559.01 2001036 2350126 2085536 2436950 1970200 2415970
3564.79 2047876 2476972 2060436 2392040 2021050 2334952
3570.58 1873158 2267340 1862310 2211738 1787048 2169202
3576.36 1889892 2405838 2062174 2539556 2079974 2505350
3582.15 2126758 2612962 2203502 2706528 2310134 2878002
3587.94 2577284 3054670 2703002 3246372 2819378 3481350
3593.72 3098750 3765246 3172188 3821666 3299110 3921122
3599.51 3535732 4406142 4054564 5006410 4721574 5960556
3605.29 6127450 7666174 7253238 8791262 8389752 9701174
3611.08 9523084 11147410 10923840 12780140 12489540 14514110
3616.86 14328440 16517150 16221940 18540940 17988460 20537870
3622.65 19916940 22890650 22239480 25755840 24712620 30842530
3628.43 28819890 31635600 30397680 37038840 36010080 48415130
3634.22 48445590 127939500 89722550 59209320 74953850 73791480
3640.00 85774480 82301370 90291540 92096460 99066550 101456500
3645.79 107620400 105938600 108309900 107303900 108788800 107415800
3651.57 109406200 110129500 116169000 120533100 123877000 116066900
3657.36 113364600 119238900 121719400 116386500 114058200 111173700
3663.15 107655600 104524800 103935200 101944500 102295900 100994300
3668.93 100180000 97630110 94898260 90894400 87221520 81854920
3674.72 77337410 70734010 65316980 58759120 53409200 47420870
3680.50 42493440 36917460 33019400 28499490 25336330 21906490
3686.29 19579800 17072550 15163840 12779760 11901960 10067870
3692.07 9359860 8044742 7802830 6784044 6662952 5909840
3697.86 5901024 5220260 5130446 4675966 4846930 4176986
3703.64 4368294 3812672 4101936 3662196 3934454 3698408
3709.43 3925982 3563660 4064484 3580596 3778054 3354662
3715.21 3403592 3068110 3265856 2845900 3039646 2659416
3721.00 3032270 2734220 2904354 2558752 2896616 2522840
3726.79 2717394 2360184 2701832 2377562 2694180 2517506
3732.57 2549600 2463518 2522128 2418592 2683808 2378150
3738.36 2674318 2389504 2566462 2388108 2427360 2697566
3744.14 2885454 2157982 2439716 2149924 2553396 2388824
3749.93 2278454 2364098 2367266 2047078 2233790 2019270
3755.71 2392154 1954216 2283838 2045128 2293626 1993752
3761.50 2440648 2073996 2366608 2388156 2615364 2333850
3767.28 2670330 2493808 2778014 2578798 2963876 2716104
3773.07 3106988 2994334 3300100 3166412 3428972 3439670
3778.85 3752056 3553460 4022130 3816530 4302394 4109876
3784.64 4521142 4389634 4801034 4566822 4788720 4606220
3790.43 4891678 4548206 4931552 4770472 5109666 4959288
3796.21 5418862 5231654 5489114 5351210 5808450 5389858
3802.00 5438840 5339544 5414396 5312312 5752264 5450882
3807.78 5532572 5521248 5775756 5739302 5804176 5627966
3813.57 5771218 5875208 6190244 5728076 5965222 5971086
3819.35 6199786 6012554 5909626 5579214 5752162 5645050
3825.14 5801514 5835260 5984080 5925788 6018076 5750544
3830.92 5895208 5531942 5642466 5519390 5781206 5364070
3836.71 5925352 5472080 5542990 5367786 5404980 5232070
3842.49 5434608 5228154 5216726 4994804 5273608 5103872
3848.28 5148032 5046430 5184632 5259074 5073780 5477472
3854.07 5172864 4978882 5166584 5032442 5004038 4809050
3859.85 4941698 4704010 4757138 4773062 4977424 5015240
3865.64 5176966 5864654 6220442 5580732 5282936 4822166
3871.42 4831638 4756716 4763744 4591918 4811598 4523742
3877.21 4846716 4612170 4970182 4779472 4826582 4786480
3882.99 4941648 4676784 4943350 4656096 4748556 4615628
3888.78 4772124 4623114 4910944 4821838 5145656 5271092
3894.56 5571462 5358566 5168830 4894824 5241234 4826352
3900.35 4862978 4378522 4391564 4332098 4268370 4068846
3906.13 4153316 4041898 4060594 4027656 4148196 3945902
3911.92 4091472 3766502 3794462 3570040 3834502 3652624
3917.70 3548832 3298978 3437240 3185526 3305938 3214648
3923.49 3168204 3150304 3172910 3021204 3051622 2903100
3929.28 3082648 2887794 3028774 2991002 3201648 2939184
3935.06 2830966 2634914 2636560 2419586 2561880 2453952
3940.85 2541688 2514940 2524284 2495000 2594498 2495388
3946.63 2564270 2348946 2273710 2028200 2190436 1886300
3952.42 2181702 1956074 2037030 1979114 2095544 1796210
3958.20 2064014 1848020 1862848 1678148 1835778 1698474
3963.99 1791830 1593100 1783918 1632278 1796414 1632934
3969.77 1703002 1594420 1755248 1551578 1674460
##END=
