##TITLE=2-Propanol
##JCAMP-DX=4.24
##DATA TYPE=INFRARED SPECTRUM
##CLASS=IUPAC A
##ORIGIN=NIST, Anayltical Chemistry Division, 301-975-3108
##OWNER=COPYRIGHT (C) 1998 by the U.S. Secretary of Commerce
##DATE=98/10/1
##$SPECTRA VERSION=1.00
##$UNCERTAINTY IN Y=2.0 % relative (B=1.0E-04,C=6.5E-10,D=2.7E-14)
##CAS NAME=2-Propanol
##CAS REGISTRY NO=67-63-0
##MOLFORM=C H3 C H( O H) C H3
##MP=-89.5 C
##BP=82.4 C
##$NIST SOURCE=QUANT-IR
##SPECTROMETER/DATA SYSTEM=IFS66V (Bruker)
##INSTRUMENT PARAMETERS=KBr Beam splitter; MCT Detector; Multipass cell
##STATE=gas
##SAMPLE DESCRIPTION=2-Propanol Primary Gas Standard
##PRESSURE=101.3 kPa
##TEMPERATURE=23 C
##SAMPLING PROCEDURE=1 L/min Flow
##RESOLUTION=1.9290
##DATA PROCESSING=Happ Genzel Apodization
##XUNITS=cm-1
##YUNITS=(micromol/mol)-1m-1 (base 10)
##XFACTOR=1.0
##YFACTOR=4.5474E-13
##DELTAX=0.9645
##FIRSTX=574.687
##LASTX=3974.595
##FIRSTY=2.62E-06
##MAXX=3973.63
##MINX=574.69
##MAXY=.0005789
##MINY=2.24E-07
##NPOINTS=3527
##XYDATA=(X++(Y..Y))
574.69 5775138 5872132 6118376 6309330 6642224 6486466
579.51 6222682 6378326 6579726 6441664 6433350 6570126
585.29 6668304 6766750 7010808 7073252 7118450 7041410
591.08 7042280 7361050 7796890 7843498 7633600 7618882
596.86 7764688 7911080 7860760 7773284 7860602 7877180
602.65 7812622 8060442 8328918 8242880 8156684 8224102
608.44 8499426 8535286 8496864 8394092 8350232 8339614
614.22 8367604 8568098 8728554 8811650 8865520 8853438
620.01 9067468 9106690 8834554 8795632 9098774 9326182
625.79 9443906 9242596 9093604 8986366 8837814 8833184
631.58 8977202 9068918 9024442 9024600 9057572 8984296
637.36 9099836 9200414 9165176 9069898 9132260 9135300
643.15 9111194 9000320 8980514 8990262 8903536 8666944
648.93 8575044 8505718 8489530 8414016 8315332 8205018
654.72 8083768 7964950 8015572 7944758 7806196 7684058
660.50 7706378 7568646 7457226 7436442 7522424 7375502
666.29 6817130 6628430 6986766 7105656 7179564 7169884
672.08 7085508 7012674 7027702 6977026 6952858 6804424
677.86 6610170 6580526 6643978 6631270 6542200 6360750
683.65 6401266 6327078 6317330 6297166 6194776 6226394
689.43 6295644 6178594 6029836 5842838 5738742 5694092
695.22 5803680 5848832 5802242 5847672 6029380 6063884
701.00 6015924 6037482 6057614 5946210 5879136 5857818
706.79 5786218 5639398 5550156 5532570 5570042 5438964
712.57 5284096 5145628 5023330 4920928 4977504 4951150
718.36 4890040 4883804 4933242 4841072 4782432 4684360
724.14 4616770 4526400 4474588 4342588 4267564 4205232
729.93 4151932 4019382 3907420 3719746 3608136 3535062
735.71 3524748 3429164 3386410 3283928 3166868 3021096
741.50 2985842 2994392 3012686 2908962 2866676 2776142
747.29 2676174 2589600 2563100 2464010 2446494 2479394
753.07 2526456 2471046 2415228 2336584 2337348 2344326
758.86 2377000 2298652 2240012 2226736 2281936 2247902
764.64 2316310 2387048 2437456 2364146 2356878 2445028
770.43 2532870 2508512 2589912 2718756 2907508 3091104
776.21 3339802 3497858 3770302 4144822 4551930 4892946
782.00 5466800 6214080 7164242 8117356 9166698 10411900
787.78 11896180 13524240 15404060 17485780 19905660 22439370
793.57 25155080 27926040 30761290 33638740 36707130 39567600
799.35 42255920 44779740 46970580 48686020 50162470 51265740
805.14 52166280 52806580 53482600 54412110 55668560 56928370
810.93 58232680 59311710 60675240 63413000 64888750 63224260
816.71 60783130 59426700 61375780 61613620 58251870 55721380
822.50 54895940 55000130 55670510 56570140 57201220 57246800
828.28 56606620 55266270 53279680 50613220 47407080 43624340
834.07 39707520 35713970 31936970 28285080 24886170 21895690
839.85 19263690 16917800 14949690 13167080 11769380 10524200
845.64 9458704 8526242 7813746 7177116 6672118 6161332
851.42 5793106 5473762 5251032 4961314 4686500 4424484
857.21 4251312 4079628 3986370 3809424 3698778 3576018
862.99 3532604 3490500 3481662 3393370 3393326 3377298
868.78 3421342 3368464 3384120 3334620 3350944 3294852
874.57 3300162 3265274 3279350 3272694 3297816 3309032
880.35 3414254 3465468 3544532 3593650 3690926 3723530
886.14 3857018 3956584 4134668 4287176 4483944 4634960
891.92 4884676 5048078 5302374 5528370 5856192 6142568
897.71 6525728 6831216 7235518 7643782 8209136 8720258
903.49 9389160 10024850 10775480 11539000 12474110 13462190
909.28 14637120 15808560 17191710 18724740 20590170 22602330
915.06 24916190 27492570 30665440 34306490 38191770 41932990
920.85 46509680 51916490 58152120 65106840 73079600 81877620
926.63 91863200 102970700 115240100 128208400 142465500 157637200
932.42 173804500 190398700 207568400 224715800 241204100 256121200
938.21 269556500 280976800 290704600 298186400 303980900 307848000
943.99 310607400 313181400 317118700 323093200 332523100 344061200
949.78 356503300 367179600 375201000 376018200 370375000 363516000
955.56 376579900 380899500 352555200 328848700 316373900 310913100
961.35 312083700 317512000 323081500 326731700 326416500 321619300
967.13 311775800 297942900 280134200 259265500 236040800 212009000
972.92 187800800 164503300 142830200 123203000 105509600 90063550
978.70 76709540 65439590 55857260 47917580 41354710 36036490
984.49 31603480 27996520 25016310 22732460 20872150 19382870
990.27 18013710 16895520 15927580 15113540 14421750 13914260
996.06 13439510 13049410 12678120 12417120 12163530 12032340
1001.85 11930250 11823220 11684900 11606420 11555710 11557130
1007.63 11502830 11431030 11367410 11350390 11295630 11230350
1013.42 11157440 11155690 11251430 11457800 11720220 12127900
1019.20 12576710 12940980 13280030 13731650 14233990 14759360
1024.99 15365610 16050320 16741830 17575080 18529330 19629060
1030.77 20788250 22067120 23501780 25178230 27161420 29323740
1036.56 31742520 34491290 37565320 40943800 44642720 48821870
1042.34 53704720 59363850 65713450 72388510 79288540 86529310
1048.13 94318580 102582500 111127700 120010000 129095000 138057300
1053.91 147120600 156742400 166625800 176028200 184990600 193717500
1059.70 201303000 206768900 211584200 217438600 224258400 232253700
1065.48 243421600 255821000 267167700 276379900 282640300 290651000
1071.27 297407300 297630800 288923700 281748600 278375100 278289300
1077.06 279967600 278890400 276185800 274711400 273752300 270258300
1082.84 265196700 262504200 261314800 259071400 256710600 254341300
1088.63 249872800 242225300 232673100 222784400 212769600 202714700
1094.41 193104500 183883400 175067000 166878900 159513800 153186700
1100.20 147851700 143408400 139882900 137242500 135598500 134955800
1105.98 135206000 136251700 138050500 140389600 143311500 146808200
1111.77 150825800 155424200 160552500 165584900 170453200 175786300
1117.55 181693900 187789500 193757200 199503800 205313000 211427300
1123.34 217793900 224543500 231185400 237115500 244719800 251357200
1129.12 255266400 261981300 265698200 265605200 271433900 281173600
1134.91 291251200 302399200 309325100 311890700 316400500 321442400
1140.70 326893800 334023100 342407300 350377800 358521700 367601800
1146.48 377091400 385384400 391304500 395123800 397070100 396917600
1152.27 395598000 393581800 391230200 387893100 383028900 376822900
1158.05 370070400 363517300 357684300 352292400 349567900 345177600
1163.84 333957900 321347400 313016900 307413300 299673500 287891400
1169.62 275866600 265797800 256522000 246446300 236965700 228521000
1175.41 220153300 211540000 202728200 193436200 183401900 172726700
1181.19 162067700 151680600 141250000 130885100 120852400 111280400
1186.98 102393800 94292560 86973700 80452820 74723040 69659630
1192.76 65280470 61382080 57953980 54834050 52153500 49786490
1198.55 47779340 46155180 44899260 43821480 42940180 42209920
1204.34 41838660 41765160 41723570 41864040 42436500 43220540
1210.12 44320440 45598190 46920900 48626050 51143780 53665300
1215.91 56182810 59071060 62566140 66575780 71095680 75913540
1221.69 81264090 87032260 93404300 100346100 107823000 115672000
1227.48 124150500 132908000 141716900 150247500 158761900 167169500
1233.26 175575300 183757800 191579200 198415100 203950300 207631700
1239.05 210330300 212882200 215316300 215312100 214931100 216672900
1244.83 220747000 227661000 237655300 247601300 257917400 268281400
1250.62 272294500 263218800 255205200 250665000 240048500 230874900
1256.40 224324400 219845100 216770900 215112700 213719000 213090700
1262.19 211332000 206838900 199890600 192484500 184487200 175623800
1267.98 165739600 155725700 145775600 135958700 125483600 115726600
1273.76 107563600 99897420 92220090 85208420 79028600 73672300
1279.55 68908880 64760690 61000660 57684320 54585600 51742270
1285.33 49130570 46828710 44718560 42759310 40932150 39355930
1291.12 37994200 36920190 35978390 35266560 34735400 34382020
1296.90 34062820 33765500 33455630 33266080 33158670 33173890
1302.69 33188980 33297140 33488320 33809250 34158710 34571520
1308.47 35082640 35791130 36572820 37419690 38341990 39496330
1314.26 40888320 42466600 43972020 45453700 46971740 48708450
1320.04 50783930 52928530 54945670 57128740 59615480 62366300
1325.83 65286660 68392370 71539180 74680030 77679200 80453680
1331.61 83014910 85621440 87966730 90041370 92363160 94765610
1337.40 97361330 99727440 102069700 105222600 108565200 111147200
1343.19 111627400 111346500 114832700 120399300 122278100 123003000
1348.97 125321800 128656300 132781300 137727600 143562100 149616700
1354.76 155053600 160029500 164375700 168698200 173425600 178409000
1360.54 183422300 189168700 195839900 203466700 211754700 221260500
1366.33 232118200 244572800 258191700 274265000 292936900 312522800
1372.11 325628100 333864900 346162800 360857200 375238800 389405600
1377.90 405318300 421692400 434305700 442679000 439319100 427178900
1383.68 419911200 416852600 414671400 410516700 403805500 397050900
1389.47 396533300 401696800 404611000 401280100 390558000 373866100
1395.25 355572100 337507400 319044900 299860800 279709800 259085000
1401.04 238879200 219511500 201768200 186268100 172550100 160505400
1406.83 149915300 139753300 129841800 120481100 111851000 103947900
1412.61 96689640 89828630 83542290 78057800 73383640 69107370
1418.40 65162640 61548060 58419290 55811800 53733080 52112260
1424.18 50843930 49635820 48514990 47711570 47319330 47192100
1429.97 47300050 47651100 48344640 49209160 50061510 51087550
1435.75 52356190 53564990 54921520 56412690 57966180 59498170
1441.54 60966640 62320100 63740210 65229800 66814270 68459760
1447.32 70317030 72440040 74595870 76114120 78007780 82036570
1453.11 87759380 93245840 96747640 101371400 107139200 111357800
1458.89 118444200 127845100 138478800 146601400 139494800 114739400
1464.68 90688960 78640060 75131920 78071950 88860430 106271200
1470.47 128169500 150069500 156886900 132169800 103557100 87179850
1476.25 77698900 72397570 69367170 67531310 66359650 65476400
1482.04 64706920 63927840 62991950 61895980 60581410 59045820
1487.82 57257040 55298630 53082890 50560490 47942800 45150330
1493.61 42131900 39312860 36706390 34088320 31660890 29308290
1499.39 27064270 24825000 22489670 20448320 18742000 17322890
1505.18 16050640 14803620 13593510 12526820 11625370 10802340
1510.96 10107360 9404992 8797696 8300158 7864272 7512788
1516.75 7139612 6725212 6453348 6282012 6050088 5692840
1522.53 5417122 5223678 5088788 4903440 4775166 4632176
1528.32 4523444 4454306 4352040 4175332 4100142 4002390
1534.11 3844874 3719518 3665126 3688984 3812576 3763990
1539.89 3637578 3568934 3512708 3400444 3369618 3297354
1545.68 3208792 3123080 3074438 3019448 2960694 2873548
1551.46 2858948 2870946 2900388 2819466 2776098 2815048
1557.25 2929840 2918550 2864204 2663066 2541806 2494282
1563.03 2480328 2471716 2434058 2389764 2398902 2435420
1568.82 2474374 2394642 2353492 2330388 2308630 2290300
1574.60 2446570 2506470 2348266 2269916 2264426 2263782
1580.39 2258816 2235398 2234404 2209282 2189080 2160184
1586.17 2154814 2146316 2166724 2171364 2195860 2183240
1591.96 2185994 2169576 2176974 2168020 2151078 2116864
1597.74 2114722 2085040 2070708 2042728 2039768 2022782
1603.53 2023966 2018372 2026070 1989484 1989488 2003328
1609.32 2027392 1999922 1998814 1990258 1998436 2017806
1615.10 2158346 2200034 2085648 2058562 2073028 2054684
1620.89 2063232 2083138 2127044 2096586 2110782 2140894
1626.67 2195332 2188746 2206318 2248652 2334944 2370652
1632.46 2434844 2551912 2650530 2551884 2490574 2481524
1638.24 2508926 2570380 2651080 2681960 2735208 2812880
1644.03 2982242 3127418 3141414 3147238 3172798 3188896
1649.81 3240482 3414660 3677620 3643434 3529116 3454326
1655.60 3441610 3436004 3453126 3463826 3506798 3566878
1661.38 3665902 3697926 3728362 3772836 3784416 3766234
1667.17 3815516 3856014 3797186 3767634 3803954 3746438
1672.96 3743666 3819152 3829822 3708814 3659432 3656702
1678.74 3674634 3578402 3541776 3584830 3699604 3803970
1684.53 3712728 3555214 3543258 3520416 3525720 3470708
1690.31 3428062 3395880 3418366 3420106 3596300 3665876
1696.10 3525700 3448894 3523422 3682320 3645468 3460074
1701.88 3420452 3435168 3474018 3465692 3473122 3454758
1707.67 3505522 3557294 3633508 3652484 3673064 3686520
1713.45 3750020 3734478 3762510 3872506 3922992 3938110
1719.24 3988222 3996290 4001634 3954572 3975622 4004984
1725.02 4060352 4086174 4110592 4129716 4257366 4449090
1730.81 4675686 4815656 4929704 4905244 4809596 4731518
1736.60 4796328 4908362 5082970 5189234 5330338 5536556
1742.38 5795364 6015534 6241008 6452562 6714810 6945834
1748.17 7186598 7434540 7740198 7888306 8018302 8164480
1753.95 8319668 8409410 8461112 8463566 8504560 8499506
1759.74 8540806 8594286 8609962 8590826 8660940 8719646
1765.52 8794558 8821564 8812400 8725560 8724164 8676898
1771.31 8705162 8308456 7798560 7528218 7411962 7365294
1777.09 7392538 7459782 7521564 7418654 7210920 6916478
1782.88 6584286 6151260 5641750 5090830 4590006 4067254
1788.66 3595858 3183616 2843308 2539614 2242786 1974826
1794.45 1811836 1660206 1547444 1438752 1379826 1272390
1800.24 1225742 1175630 1142724 1108970 1140300 1148116
1806.02 1164878 1152910 1171124 1189452 1228484 1245276
1811.81 1292660 1285020 1286194 1296922 1343030 1332942
1817.59 1343300 1331992 1344630 1338958 1379574 1400154
1823.38 1454922 1479596 1470732 1444432 1470168 1510624
1829.16 1563188 1550292 1583018 1578242 1580292 1569698
1834.95 1561936 1514628 1503224 1457488 1464330 1444900
1840.73 1440774 1417940 1479710 1466168 1410116 1369856
1846.52 1370644 1351166 1338260 1316504 1350276 1356104
1852.30 1405786 1453302 1563772 1726172 1955720 1991314
1858.09 1894610 1836070 1874164 1916482 1992782 2018076
1863.88 2034320 2025800 2077192 2130172 2248410 2332808
1869.66 2407496 2499094 2659502 2806276 2950780 3021896
1875.45 3097854 3161582 3277026 3384260 3515492 3651484
1881.23 3793032 3882776 3990906 4089774 4239022 4366748
1887.02 4534472 4673282 4793900 4850358 4933226 4968998
1892.80 5015350 5039966 5086360 5095486 5116452 5135994
1898.59 5194590 5214442 5262424 5266532 5278880 5293550
1904.37 5296984 5122964 5109728 5073882 4761268 4445830
1910.16 4266604 4139176 4085572 3984610 3880976 3795574
1915.94 3731676 3622722 3467518 3266834 3068512 2848804
1921.73 2639052 2377674 2161074 1922228 1702938 1479348
1927.51 1325460 1162954 1023058 889756 832894 741456
1933.30 665662 604814 590548 559976 579120 573162
1939.09 572364 546474 564982 517296 492628 484526
1944.87 520918 517400 542098 538732 563542 570216
1950.66 617382 632898 690418 730238 778062 778576
1956.44 798808 788932 801000 804972 854194 869078
1962.23 911452 916500 939854 943664 969320 948318
1968.01 969130 983564 1020612 1010138 1055772 1097336
1973.80 1140446 1119548 1157594 1168972 1211036 1230318
1979.58 1236490 1210000 1248826 1264204 1286152 1257094
1985.37 1226230 1160600 1134900 1098066 1100122 1091116
1991.15 1118394 1107156 1110852 1104952 1143286 1136104
1996.94 1156572 1140352 1156410 1157808 1189614 1202030
2002.73 1221002 1211652 1252138 1276074 1357370 1369998
2008.51 1388894 1406162 1457940 1428510 1445104 1457696
2014.30 1496266 1514646 1535650 1513532 1555674 1572930
2020.08 1626434 1655708 1687964 1692194 1739760 1749668
2025.87 1798478 1781570 1774686 1763894 1808786 1776658
2031.65 1753964 1713696 1729510 1722222 1730908 1721820
2037.44 1745114 1717108 1723650 1703572 1714290 1674378
2043.22 1666064 1633766 1622672 1576232 1585936 1566158
2049.01 1600148 1616546 1635982 1630696 1683578 1717598
2054.79 1788820 1820778 1876676 1894666 1966862 1974228
2060.58 2019454 2084168 2192170 2237792 2273094 2293180
2066.37 2385492 2475450 2558872 2557634 2624776 2686808
2072.15 2789718 2754210 2743212 2785994 2912246 2953990
2077.94 2926866 2913924 2979444 3038290 3026644 2923642
2083.72 2922474 3016232 3086710 2923672 2849788 2827200
2089.51 2928568 2827910 2734162 2693422 2795300 2752872
2095.29 2572352 2489880 2594856 2636702 2449742 2295216
2101.08 2343364 2454152 2299130 2053766 2021170 2117274
2106.86 2103928 1852088 1804880 1885574 2006676 1776510
2112.65 1678412 1741458 1912456 1678764 1529574 1582314
2118.43 1819274 1728286 1564490 1541548 1745836 1725150
2124.22 1559608 1529026 1727078 1780704 1653642 1627890
2130.01 1785086 1858244 1816612 1861094 2046072 2194938
2135.79 2259558 2309086 2337444 2211232 2105282 2045514
2141.58 2020870 2009894 2077352 2135414 2259664 2332548
2147.36 2377776 2422088 2580552 2633134 2601410 2645628
2153.15 2834696 2813072 2682610 2733636 2982748 2978800
2158.93 2848814 2986894 3288950 3240274 3132654 3316384
2164.72 3491120 3267276 3193866 3410532 3444562 3134004
2170.50 3126718 3350426 3282966 3042186 3198084 3383824
2176.29 3242728 3121732 3346990 3426578 3323204 3417682
2182.07 3663164 3560978 3444466 3592748 3712442 3589856
2187.86 3668552 3867086 3867886 3777444 3936414 3983346
2193.64 3855540 3841140 3948052 3818986 3690224 3643604
2199.43 3552948 3387112 3412694 3406748 3285780 3166142
2205.22 3135690 3016704 2939632 2888922 2830510 2704462
2211.00 2639182 2512204 2362956 2210032 2098536 1940020
2216.79 1821642 1672390 1560532 1450466 1377056 1261930
2222.57 1212494 1153114 1114752 1041448 1023418 958944
2228.36 948638 923890 920374 866968 886180 888710
2234.14 899436 882738 920184 932804 909954 852772
2239.93 883928 882504 903072 887172 909578 911886
2245.71 965918 968896 1004014 1006058 1035328 1044392
2251.50 1096206 1093348 1112112 1132644 1175436 1153104
2257.28 1189206 1232438 1283716 1289826 1367196 1460182
2263.07 1573660 1589108 1602024 1580304 1641016 1680982
2268.86 1731382 1772370 1869778 1904750 1971696 1994798
2274.64 2070838 2174466 2325014 2406338 2540098 2656970
2280.43 2751924 2779328 2844810 2903924 3039394 3129972
2286.21 3227302 3293542 3397296 3473226 3598480 3681134
2292.00 3813306 3934076 4109878 4221066 4355664 4443604
2297.78 4594782 4708782 4814290 4894956 4999368 5058032
2303.57 5172312 5260790 5379464 5466308 5557496 5618310
2309.35 5749550 5808952 5882170 5794958 5769730 5706736
2315.14 5728728 5644184 5677994 5615618 5647100 5610880
2320.92 5648480 5520492 5467514 5367356 5329948 5207918
2326.71 5150706 4996312 4922694 4804780 4781030 4731470
2332.50 4686596 4473560 4254042 4014458 3904988 3766436
2338.28 3646498 3426514 3226700 3016544 2874228 2728710
2344.07 2658864 2547474 2502594 2426456 2350996 2193242
2349.85 2055656 1874638 1733972 1581564 1492790 1351486
2355.64 1288422 1171864 1111356 1047056 1029136 980242
2361.42 999994 994534 1046126 1082032 1145110 1180768
2367.21 1301148 1361908 1448558 1506494 1649304 1769724
2372.99 1936112 2052632 2203158 2203916 2207768 2216454
2378.78 2287640 2322478 2361056 2338270 2363548 2366148
2384.56 2411776 2422154 2478494 2515288 2619012 2681796
2390.35 2713810 2701674 2752184 2711090 2710876 2656302
2396.14 2625752 2572164 2601658 2583306 2577504 2495806
2401.92 2500424 2496022 2510232 2472586 2488702 2469300
2407.71 2498802 2493922 2581664 2631458 2666434 2656418
2413.49 2679812 2722992 2827848 2815724 2789438 2717190
2419.28 2728894 2676356 2695826 2703752 2765436 2773892
2425.06 2817146 2822322 2866044 2853316 2863554 2840276
2430.85 2928778 2968334 3022896 3050642 3138898 3154602
2436.63 3175354 3125388 3104626 3034884 3051994 3050694
2442.42 3087368 3029810 3025108 3019730 3078444 3093972
2448.20 3129682 3108446 3107830 3043698 3056248 3030272
2453.99 3033652 3013380 3041472 3002916 2985206 2908752
2459.77 2890032 2821878 2776848 2686140 2701258 2718196
2465.56 2791748 2812674 2852918 2847382 2932352 2971560
2471.35 3057200 3083828 3129834 3169132 3249442 3265414
2477.13 3356488 3415712 3498442 3520408 3589906 3636330
2482.92 3734218 3761316 3834890 3863162 3928410 3966630
2488.70 4040028 4064478 4167938 4225210 4293942 4314528
2494.49 4379086 4404640 4479858 4463754 4494640 4512054
2500.27 4598394 4614066 4615808 4567592 4603184 4579188
2506.06 4601780 4565506 4591574 4614748 4648082 4608368
2511.84 4587358 4498594 4431992 4324536 4296514 4214432
2517.63 4184592 4096962 4046200 3965762 3965084 3914896
2523.41 3902722 3818814 3804710 3755180 3727394 3648972
2529.20 3610050 3562416 3621176 3592078 3627232 3706790
2534.99 3751126 3579598 3505992 3471100 3439768 3322838
2540.77 3271044 3179528 3179252 3163528 3156710 3092194
2546.56 3104574 3071164 3100440 3045484 2989184 2944516
2552.34 2965986 2907058 2915874 2876096 2899788 2888928
2558.13 2923050 2900470 2926942 2947528 3007990 2997604
2563.91 3046214 3033072 3103438 3159156 3235074 3242820
2569.70 3318594 3371970 3459678 3468726 3564290 3643744
2575.48 3769880 3844088 3975612 4046732 4200792 4301430
2581.27 4432148 4501604 4619290 4692692 4833156 4912286
2587.05 5046012 5165728 5325672 5410446 5535194 5640822
2592.84 5801882 5880752 6050518 6231326 6433808 6564822
2598.63 6788286 6956318 7229350 7469988 7771800 8113472
2604.41 8718942 9400322 9611228 9150584 8798612 8655420
2610.20 8724718 8842432 9011240 9130218 9358598 9533448
2615.98 9753096 9908370 10131060 10333480 10657860 10941680
2621.77 11299180 11586760 11977910 12412760 13013220 13672290
2627.55 14421380 14809740 14706470 14340390 14090290 13899300
2633.34 14131320 14664380 15556670 16686200 17858870 18541960
2639.12 18792070 18654490 18473040 18312230 18332990 18375270
2644.91 18518530 18569660 18612660 18630580 18731400 18705170
2650.69 18715960 18710660 18849420 18952700 19083080 19188290
2656.48 19463030 19795690 20114240 20022300 19930050 20074740
2662.27 20546770 21002750 21456240 21579470 21231400 20455380
2668.05 19718330 19041930 18501020 17842820 17133620 16361320
2673.84 15852450 15449700 15187690 14992250 14970240 14894170
2679.62 14800530 14545930 14311290 13999070 13753180 13425850
2685.41 13151450 12815010 12554940 12273470 12049550 11759090
2691.19 11560180 11348870 11145880 10860060 10698410 10504910
2696.98 10446410 10371180 10366330 10332130 10385870 10374280
2702.76 10393740 10324630 10358740 10400080 10562980 10705920
2708.55 10962060 11190220 11544480 11844410 12119880 12263260
2714.33 12455940 12552060 12734330 12870740 13088530 13235580
2720.12 13441290 13549520 13640320 13586240 13686660 13830840
2725.91 14092860 14325010 14664390 14904230 15173000 15307200
2731.69 15506310 15671560 15882020 15927280 15994700 15884680
2737.48 15818850 15726450 15729860 15679570 15766870 15747210
2743.26 15725250 15613720 15592020 15510840 15482490 15348980
2749.05 15375780 15378700 15467150 15510890 15711910 15850920
2754.83 15988300 16101860 16401000 16636530 16927520 17117770
2760.62 17373160 17566340 17892820 18128210 18423530 18658490
2766.40 19059690 19436160 19717760 19703510 19726470 19630800
2772.19 19630090 19599750 19705790 19787680 20116670 20355100
2777.97 20596090 20725100 21017120 21289730 21672850 21975720
2783.76 22413360 22784000 23175060 23351620 23582490 23750190
2789.54 24053440 24269220 24618030 25014550 25620160 26052610
2795.33 26335320 26361960 26521680 26619260 26863350 27042000
2801.12 27328070 27575400 27780810 27789400 28003140 28269880
2806.90 28781420 29267720 29886740 30548120 31287870 31814250
2812.69 32556230 33419110 34261410 34307470 34327290 34758790
2818.47 35893240 37131710 38047480 38422540 38848360 39166440
2824.26 39383970 39640680 40421420 41485140 42813970 43654370
2830.04 44010920 44049040 44337440 44697340 45236020 45720010
2835.83 46441750 46942420 47500040 48234250 49358580 50457700
2841.61 51942630 53794580 56235980 59149410 62744380 66521180
2847.40 70749530 75203630 79585020 83061640 86342690 89599000
2853.18 92748160 95669560 99578970 104539800 110538000 117045900
2858.97 124185200 131435300 139026600 146602000 154234600 161401400
2864.76 168430200 175233600 182195800 188893200 195452800 201399600
2870.54 206946600 211341800 215417800 219935700 225675100 232603300
2876.33 241036400 252294500 269259600 289796300 312120300 338080100
2882.11 355992400 353535200 343135700 338948300 344537300 354059600
2887.90 358204500 354842900 348723800 340092800 330258300 320649900
2893.68 312454300 305559600 300953800 297808200 295516100 293586500
2899.47 292388900 290842700 289034000 286562200 283824400 280637000
2905.25 277302600 273193100 268807200 264040600 259584100 254779900
2911.04 250517400 246858400 244801600 243501900 241383700 237513200
2916.82 233705000 229712000 226264800 223392200 221960600 221668400
2922.61 223354000 226350700 230669800 235260400 240879900 247014800
2928.40 254384100 261351800 266411600 263851300 258196200 254624400
2934.18 252874000 255018700 261844000 269170900 273845700 273610000
2939.97 273311900 277048200 285652000 297848600 313678900 332292900
2945.75 353261000 369640800 380160600 391948500 408557100 426084900
2951.54 444206200 461726400 479902800 496869600 513209800 528518000
2957.32 544596600 560090700 577677100 596433200 615876400 634655700
2963.11 660763100 694420900 725126000 742978900 759976400 802722900
2968.89 919961200 1009100000 949622300 887787300 871420200 864038700
2974.68 880630200 920433700 975241300 1043953000 1123692000 1192357000
2980.46 1273209000 1221227000 968936600 806697100 753045900 728660300
2986.25 703128600 680379100 665626200 658953500 645784700 627018400
2992.04 608876500 594353700 578527700 562342000 543217600 522171400
2997.82 497329800 470148500 439895500 408541600 375517900 342575600
3003.61 309159600 276966600 245629500 216686200 189334400 164659700
3009.39 141900400 121978900 104067600 88796180 75295370 64098700
3015.18 54157550 46088070 38984300 33413300 28455510 24602980
3020.96 21108380 18439600 15995650 14227250 12463630 11239530
3026.75 9970010 9127280 8190122 7620370 6889824 6495926
3032.53 5957058 5705716 5262444 5098650 4764344 4656192
3038.32 4380362 4289586 4040096 4028000 3743248 3695060
3044.10 3487232 3469740 3288608 3290422 3101160 3099900
3049.89 2968752 3012412 2866700 2840966 2711924 2795874
3055.67 2646710 2689260 2606132 2646354 2528948 2592658
3061.46 2514960 2573524 2509272 2595408 2493290 2561316
3067.25 2506098 2583850 2500568 2588980 2521032 2552426
3073.03 2481256 2553378 2509138 2584950 2567434 2670262
3078.82 2589712 2637788 2607198 2724200 2688472 2744222
3084.60 2689578 2768476 2774788 2867130 2827258 2881790
3090.39 2774814 2824766 2821282 2934682 2934994 2987634
3096.17 2940620 3034796 3012888 3062618 3021122 3115068
3101.96 3087176 3111332 3071152 3155238 3123756 3211408
3107.74 3243394 3363890 3323110 3318318 3248648 3346238
3113.53 3347790 3423900 3415914 3502752 3470952 3537460
3119.31 3524164 3587432 3615412 3726272 3719120 3768728
3125.10 3717070 3751038 3771834 3873648 3874862 3922692
3130.89 3847430 3867750 3875400 3969348 3983622 4043218
3136.67 4041180 4118458 4126414 4203516 4183870 4320154
3142.46 4333864 4356512 4379198 4511376 4608926 4728510
3148.24 4771616 4902868 4959832 5099912 5217370 5370760
3154.03 5453012 5619612 5751276 5974242 6091884 6231304
3159.81 6352394 6593364 6804072 7041376 7217694 7419096
3165.60 7563898 7849714 8031588 8305536 8524348 8724400
3171.38 8843742 9094080 9384368 9672216 9819128 10028360
3177.17 10168670 10369770 10544970 10692880 10721880 10837510
3182.95 10993090 11179240 11215440 11377740 11564290 11702340
3188.74 11658900 11573790 11392050 11272330 11149130 11135850
3194.53 11250520 11574500 11845340 11936390 11750220 11663300
3200.31 11543930 11344350 10989180 10761570 10636900 10652930
3206.10 10624800 10651810 10539790 10241620 9939932 9866366
3211.88 10033630 10405560 10181040 9689690 9436694 9363950
3217.67 9269596 9219030 9123672 9054298 9015268 9067116
3223.45 9142284 9071988 8712764 8397278 8164898 7945126
3229.24 7794276 7765644 7650342 7553758 7413002 7302912
3235.02 7158942 6908398 6606466 6408458 6285138 6299736
3240.81 6283154 6146502 5648150 5261978 4996196 4862936
3246.59 4847270 4980760 4779780 4205742 3723128 3445934
3252.38 3182192 3034952 2857922 2697684 2536910 2399454
3258.17 2208864 2114934 1990192 1898056 1807746 1747576
3263.95 1610812 1513832 1338380 1271902 1275858 1245602
3269.74 1099680 1017306 963650 986610 867606 792326
3275.52 801250 777930 702952 742576 702978 713580
3281.31 678152 665174 703202 772640 743740 716394
3287.09 644780 674166 652684 649700 678316 699926
3292.88 694748 769052 768834 764338 746150 735516
3298.66 779296 835868 858868 913328 946068 1039630
3304.45 1044130 1112466 1140486 1156262 1215650 1357306
3310.23 1463860 1565692 1644062 1711208 1763610 1913798
3316.02 1998864 2060710 2095410 2176424 2262996 2330266
3321.80 2357140 2423268 2542998 2680580 2755578 2941506
3327.59 3098938 3248454 3357892 3474990 3575066 3681836
3333.38 3734120 3822534 3849674 3855754 3914018 4024080
3339.16 4023532 4027538 4017764 4033934 3990694 3980208
3344.95 3940352 3894650 3910856 3973552 3988956 3999846
3350.73 3898088 3808238 3767304 3759144 3742812 3715168
3356.52 3648024 3619108 3582552 3573820 3502982 3449514
3362.30 3395654 3309430 3223794 3204912 3168592 3152984
3368.09 3115428 3036546 2954236 2919780 2855582 2883782
3373.87 2886314 2868992 2828196 2806368 2760748 2820692
3379.66 2839214 2884636 2927360 2971368 2912812 2917286
3385.44 2999728 3086814 3095194 3135986 3219454 3307036
3391.23 3324674 3384958 3470432 3584680 3633448 3693092
3397.02 3746616 3837764 3787808 3742654 3808156 3957282
3402.80 4022318 4106286 4197726 4230514 4198434 4173684
3408.59 4192220 4309112 4378662 4426796 4439842 4507822
3414.37 4524194 4560566 4605964 4684722 4774168 5027054
3420.16 5285006 5398308 5474880 5659060 5520102 5292936
3425.94 5158778 5069574 5075428 5215708 5308926 5343398
3431.73 5331602 5410044 5465944 5551848 5566100 5524290
3437.51 5551852 5620668 5660416 5680176 5607528 5570080
3443.30 5603300 5721948 5783766 5851896 6065708 6553948
3449.08 6883070 6592278 6052626 5799794 5636434 5542422
3454.87 5544330 5581152 5559378 5649318 5640114 5591608
3460.66 5553036 5537984 5485698 5425164 5284296 5125916
3466.44 5029464 5063624 5010098 4876312 4777958 4714690
3472.23 4567694 4464902 4375068 4292552 4197260 4114972
3478.01 3951518 3851540 3743054 3640822 3482716 3399582
3483.80 3344618 3276442 3154880 3082192 2939850 2817410
3489.58 2733490 2717394 2647858 2595812 2516254 2383066
3495.37 2291310 2327896 2327360 2298240 2219350 2149610
3501.15 2007012 1969828 1910588 1897046 1875040 1843398
3506.94 1816322 1858756 1807632 1737550 1670566 1676826
3512.72 1643178 1665906 1658224 1709536 1719666 1725204
3518.51 1683790 1735698 1751076 1786988 1793052 1846490
3524.30 1890558 1971914 1966854 2058790 2166568 2234630
3530.08 2255864 2379864 2422840 2410162 2374536 2412386
3535.87 2439440 2489222 2450078 2491518 2560914 2678826
3541.65 2723454 2744706 2663176 2607662 2543550 2531846
3547.44 2451402 2425388 2439178 2448168 2383214 2393806
3553.22 2338298 2349086 2316572 2279290 2222164 2229696
3559.01 2172272 2208538 2227660 2248184 2180738 2228196
3564.79 2231804 2281868 2233046 2229938 2179068 2155984
3570.58 2070650 2082946 2036378 2033134 1973204 2016590
3576.36 2073374 2207508 2251606 2323380 2284152 2319858
3582.15 2326284 2406314 2414030 2499014 2532610 2677602
3587.94 2756808 2863392 2909506 3022490 3070626 3240348
3593.72 3340798 3474640 3458866 3551254 3563184 3688696
3599.51 3825470 4124204 4355290 4721084 5073150 5713206
3605.29 6443958 7215886 7703364 8343772 8784960 9357514
3611.08 9938938 10721060 11403710 12284810 13023690 14004160
3616.86 14876250 15944060 16825090 17878430 18704120 19806410
3622.65 20746290 22054320 23201010 24703860 26367610 28961570
3628.43 29936180 30700360 32215540 35269250 39109500 45560140
3634.22 66778960 100780300 91499600 69882030 71053040 76824380
3640.00 82208410 84946180 88864460 93288160 98009820 102327200
3645.79 105810200 106873800 107530700 107878600 108129400 108191800
3651.57 109113900 111356100 115782400 120297700 121303500 117245400
3657.36 115343400 118455900 119916600 117079700 113929900 111027500
3663.15 107745000 105111100 103611900 102484900 101914500 101106700
3668.93 99779560 97588130 94604780 90970760 86830740 82050820
3674.72 76856140 71007710 65053760 59037800 53261900 47665630
3680.50 42343800 37304590 32875930 28812520 25274800 22161010
3686.29 19538140 17210650 15054170 13127290 11681330 10327680
3692.07 9219788 8292352 7623590 6991160 6517132 6081564
3697.86 5745992 5356604 5046312 4820268 4652916 4375694
3703.64 4195962 4007604 3933740 3826468 3817180 3805374
3709.43 3789882 3762806 3837290 3737796 3634812 3463636
3715.21 3314902 3191136 3123340 2987494 2907218 2833168
3721.00 2877478 2842240 2785364 2716442 2732426 2653966
3726.79 2590092 2521426 2548192 2525428 2580368 2565672
3732.57 2522336 2496902 2484720 2503670 2552096 2517004
3738.36 2540274 2496044 2484484 2438314 2480648 2678572
3744.14 2674260 2390828 2307854 2309874 2422336 2401328
3749.93 2323680 2345068 2292660 2164030 2141218 2154796
3755.71 2205080 2131308 2152712 2157536 2167106 2166046
3761.50 2252944 2226102 2304068 2435606 2497992 2476434
3767.28 2551970 2600106 2666478 2713606 2817864 2863456
3773.07 2990812 3090872 3198710 3257834 3370864 3509274
3778.85 3634162 3707412 3866562 3976064 4145878 4249182
3784.64 4395914 4514894 4652078 4672056 4695418 4714188
3790.43 4746572 4715898 4805942 4885896 4996712 5100016
3796.21 5269636 5334248 5397896 5488522 5606376 5497736
3802.00 5404630 5379722 5373574 5437372 5581222 5539264
3807.78 5511112 5582582 5708626 5762680 5748554 5701672
3813.57 5762160 5923900 6010926 5889422 5911862 6022498
3819.35 6103822 6032004 5857142 5695350 5687546 5705862
3825.14 5773200 5861810 5936296 5960530 5935058 5845646
3830.92 5778018 5641254 5588570 5608192 5624558 5589812
3836.71 5691272 5593020 5486206 5416790 5356506 5318694
3842.49 5340244 5273150 5168162 5110332 5170120 5153222
3848.28 5114402 5101758 5169922 5199146 5209672 5314050
3854.07 5198388 5066946 5092328 5056838 4965604 4884642
3859.85 4856254 4771108 4748554 4816538 4938998 5043830
3865.64 5298318 5788076 5990756 5659618 5245334 4930660
3871.42 4812166 4775622 4722478 4682246 4694498 4664674
3877.21 4718086 4748886 4843580 4834342 4806462 4831532
3882.99 4844738 4799396 4815572 4743704 4696554 4682404
3888.78 4701638 4723902 4823976 4917108 5099886 5311452
3894.56 5453040 5363908 5149388 5037968 5065588 4930524
3900.35 4742754 4493306 4374836 4331114 4237040 4134370
3906.13 4108120 4071918 4048682 4063066 4073712 4026160
3911.92 3982908 3847930 3736234 3682836 3731522 3670640
3917.70 3515134 3388524 3347264 3271384 3257094 3224994
3923.49 3174790 3159650 3132692 3063224 3010336 2978792
3929.28 2996266 2965278 2987534 3048318 3092492 2974772
3935.06 2810700 2680526 2586120 2502476 2504148 2499096
3940.85 2515274 2523266 2515372 2524712 2548676 2534146
3946.63 2498698 2381266 2234424 2122276 2082834 2024626
3952.42 2061490 2026810 2004990 2019338 1999618 1927060
3958.20 1952390 1901274 1816814 1757130 1767730 1751692
3963.99 1724440 1682976 1704906 1705134 1720826 1686818
3969.77 1661784 1656578 1671150 1626920 1610194
##END=
