##TITLE=Chloroform
##JCAMP-DX=4.24
##DATA TYPE=INFRARED SPECTRUM
##CLASS=IUPAC A
##ORIGIN=NIST, Analytical Chemistry Division, 301-975-3108
##OWNER=COPYRIGHT (C) 2000 by the U.S. Secretary of Commerce
##DATE=00/02/01
##$SPECTRA VERSION=1.10
##$UNCERTAINTY IN Y=2.2 % relative (B=1.2E-04,C=3.2E-09,D=1.1E-13)
##CAS NAME=Chloroform
##CAS REGISTRY NO=67-66-3
##MOLFORM=C H Cl3
##MP=-63.5 C
##BP=61.7 C
##$NIST SOURCE=QUANT-IR
##SPECTROMETER/DATA SYSTEM=IFS66V (Bruker)
##INSTRUMENT PARAMETERS=KBr Beam Splitter; MCT Detector; Multipass cell
##STATE=gas
##SAMPLE DESCRIPTION=Chloroform Primary Gas Standard
##PRESSURE=101.3 Pa
##TEMPERATURE=23 C
##SAMPLING PROCEDURE=1 L/min Flow
##RESOLUTION=1.9290
##DATA PROCESSING=Triangular Apodization
##XUNITS=cm-1
##YUNITS=(micromol/mol)-1m-1 (base 10)
##XFACTOR=1.0
##YFACTOR=3.6379E-12
##DELTAX=0.9645
##FIRSTX=575.652
##LASTX=3974.605
##FIRSTY=-7.94E-07
##MAXX=3973.64
##MINX=575.65
##MAXY=.0026789
##MINY=-4.40E-06
##NPOINTS=3526
##XYDATA=(X++(Y..Y))
575.65-218416 115709-92731 76834 172871 187051
580.47 188863-54165-159851-84229-124883-153606
586.26-161084-186451 49626 95019 33485 3556
592.04-68863-10817 37449 64786 49851 20769
597.83 111982 133323 124840 195555 295984 354613
603.62 296164 236151 225820 269551 294445 336224
609.40 430506 473266 451670 384956 460334 594369
615.19 647156 592793 455260 403161 499475 949293
620.97 1203685 729743 386314 427648 824935 1263342
626.76 927237 562100 478046 435287 549410 622408
632.54 616402 587199 613878 628719 618230 574317
638.33 550216 526424 498638 428401 348874 297385
644.11 232785 239417 243809 233581 232691 242248
649.90 325155 376816 379189 453187 468844 556434
655.68 660189 752391 866746 950793 1142307 1252621
661.47 1432041 1686500 1896035 2129008 2394153 3056887
667.25 3691957 4370711 5812310 7932006 10820426 13889838
673.04 15706101 14717429 11157619 6239345 4122667 5049367
678.83 6205489 7574536 8921287 10199746 11196721 11749819
684.61 11895144 11633513 10904676 9840597 8483567 7089301
690.40 5733770 4493108 3455549 2548942 1907395 1476146
696.18 1152873 922786 758926 625244 529615 452971
701.97 417917 421713 394533 380332 394215 393866
707.75 407636 419258 392752 418633 456255 475338
713.54 540903 561745 547841 550261 608806 663445
719.32 694716 724320 812345 875342 965153 1038319
725.11 1128072 1266879 1462197 1631016 1850514 2081150
730.89 2335296 2645031 3032749 3466728 4031135 4688333
736.68 5475949 6348142 7382121 8617841 10071122 11729968
742.47 13641386 15862207 18421137 21200882 24326768 27755349
748.25 31695597 36089561 41461454 47871106 55442858 63789316
754.04 73116979 84384189 97772191 113635424 133084902 156434917
759.82 183959347 216643089 254973546 299228637 350693519 408076030
765.61 471065701 536059514 599958145 656900354 700589961 725506028
771.39 736391564 720508103 695837329 681586763 663937643 613477079
777.18 510402961 412969344 336106467 271855186 220557431 178096269
782.96 144275996 116861397 95175136 77491098 63487867 52146455
788.75 43188773 35899424 30246690 25710714 22106319 18916591
794.53 16218810 13763184 11649274 9566254 7795007 6529402
800.32 5497580 4499119 3787801 3223257 2802289 2402314
806.11 2118567 1834092 1628077 1476991 1362217 1201558
811.89 1071847 974651 918523 839399 779573 717231
817.68 718148 730883 677566 603672 530462 480847
823.46 527245 517682 531808 514885 495526 516436
829.25 537519 506039 486443 526901 575421 589165
835.03 613088 659859 702607 689977 715433 761272
840.82 756885 766614 825695 876126 956119 997194
846.60 1009900 1144730 1396620 1476669 1461063 1472279
852.39 1582360 1727462 1761871 1732554 1603637 1436927
858.17 1301335 1098703 877684 775022 689243 521126
863.96 416506 412896 460283 415216 333177 296891
869.75 267517 276364 270160 237798 225956 225890
875.53 242265 245165 246331 215953 183898 171736
881.32 184644 167063 138942 128749 116043 114747
887.10 113673 96256 99773 100467 87291 74152
892.89 70691 73317 73326 90139 102462 102764
898.67 115830 126699 152073 164088 159915 205941
904.46 271313 302989 351281 398883 452751 518314
910.24 592484 699694 761738 820974 901548 953925
916.03 1004572 1057278 1116197 1139025 1185735 1240654
921.81 1247759 1241670 1274283 1348967 1440578 1488499
927.60 1458845 1537438 1795796 1803897 1466337 1339251
933.39 1558110 1586741 1155511 801003 791710 843577
939.17 921628 994031 1051549 1069836 1032646 998233
944.96 954829 865260 761592 677485 599755 515094
950.74 426098 355757 317938 248034 219709 207853
956.53 171797 167537 147251 131594 121667 97303
962.31 114292 127035 95262 86040 87840 71502
968.10 81236 97527 93346 72359 58784 45074
973.88 30794 14171-12566-2997 16413 4709
979.67-4960-17477-20662-377 2676-27453
985.45-47421-41598-35921-47304-42303-17203
991.24-9987-27332-27907-20104-10790-8619
997.03-13269-28126-18667 15462 24223-1748
1002.81-6292 7630 11840 52040 89243 77417
1008.60 90994 113895 120309 143591 171981 212002
1014.38 258085 320997 365468 375661 406655 450461
1020.17 515323 563112 555627 544246 558497 577372
1025.95 565774 571031 588634 584203 597734 606404
1031.74 605230 579549 558221 557347 554326 533530
1037.52 471650 403601 359412 321101 257461 188704
1043.31 138617 77474 36244 13446 10826 30460
1049.09 19346 8587 7111 587-6601-12663
1054.88-5652-28384-33189-18074-35185-31353
1060.67-24620-23807-28477-34038-63317-78956
1066.45-61681-60934-16616-21857-37614-25573
1072.24-37050-41479-48318-39762-40454-38071
1078.02-40858-58644-56244-47534-56725-70618
1083.81-61366-63266-67311-58866-49770-44702
1089.59-49235-33318-21775-40778-52495-51208
1095.38-45459-63889-69291-56167-28589-14196
1101.16-57551-69876-43676-24377-21610-49352
1106.95-62305-60262-56748-57869-65575-43021
1112.73-33149-46093-55955-57908-57944-55954
1118.52-58262-58376-42274-57063-63069-30473
1124.31-31555-43886-30668-45533-42120-26795
1130.09-25659-31865-45807-48389-31934-32909
1135.88-43746-39774-44977-24474-4625-40104
1141.66-21077 6727-10322-17542-13416-2717
1147.45-27292-45398-22614-19946-39150-34065
1153.23-22500-24367-36363-13184 7240-31472
1159.02-40941-13317 17272 16628 7477-2301
1164.80 13835 16284 32720 52413 50039 43234
1170.59 43099 56131 71507 96346 113607 129571
1176.37 158003 168855 197741 232603 260787 299485
1182.16 353620 406934 475414 536329 607674 711325
1187.95 819758 909110 987385 1029015 1121720 1244484
1193.73 1419984 1644378 1918181 2283969 2761748 3336765
1199.52 4074948 4988936 6125815 7489323 9158827 11100423
1205.30 13367849 16025147 19543276 23952262 28880912 34446176
1211.09 41167898 49435444 59758077 71984784 86589418 103406732
1216.87 122371931 134146539 133523553 130982772 118634431 98636901
1222.66 81680082 66968138 55027958 45079289 37010759 30319957
1228.44 24907385 20421270 16831892 13891348 11474219 9464193
1234.23 7864067 6515552 5418320 4486182 3737021 3135929
1240.01 2624920 2156967 1786740 1484062 1251468 1049217
1245.80 885406 754736 649704 554052 484583 400621
1251.59 324603 282902 247377 214596 180910 140264
1257.37 132440 113606 95637 105685 86075 48911
1263.16 57647 42376 27011 25651 26095 24916
1268.94 12904 7718 21587 15962 18441 24156
1274.73 23766 11464-20939-31593 6172 15742
1280.51-7460-17580-14180-21608-30404-23621
1286.30-19323-15111-14764-15016-10370-22289
1292.08-34771-40612-40991-42519-51599-40473
1297.87-42018-42324-21639-21770-21150-38726
1303.65-53337-31882-38194-60646-60374-54470
1309.44-46457-28759-18415-42251-62240-57978
1315.23-49942-50961-59192-44805-23027-30376
1321.01-43255-39494-16757-15947-26416-23165
1326.80-16253-7791-377-9345-3057 11755
1332.58 6437 14092 18313 18052 3705-32131
1338.37-36613-39626-4789 34078 47229 47761
1344.15 33594 4472-25995-21508-24150-54593
1349.94-98091-121578-144197-118700-74124-61295
1355.72-18286-32148-49595-79193-145993-139114
1361.51-169967-174134-109096-97872-83433-49806
1367.29-45200-74740-78894-68739-74829-130006
1373.08-159094-105915-58361-31674-40456-44918
1378.87-52312-44920-24206-38039-36227-37323
1384.65-43103-113794-187868-88456-13579-29475
1390.44-46342-47356-79169-178015-160787-100194
1396.22-62277-80468-130400-89334-32133-16337
1402.01-2584-10478-72055-41775-3961-5340
1407.79-17435-31667-23889 3245 17015-4274
1413.58-5410 25191 16600 3696-111442-274364
1419.36-49895 160657 165893 169718 219897 322429
1425.15 395016 436141 490222 558594 614759 760024
1430.93 893045 1000471 1115159 1264051 1268781 1227807
1436.72 1605727 1929145 2073493 2258618 2381521 2398812
1442.51 2510831 2562054 2374693 2386124 2275292 1897689
1448.29 1779798 1657264 1318822 997706 789294 574684
1454.08 392659-29379-362688-135246 13689 73576
1459.86 127308 115113 113570 86458-18345 77640
1465.65 225502 257108 310138 330864 308682 128999
1471.43 26486 51151 193503 271038 216347 326398
1477.22 391197 390895 381865 340682 349083 352759
1483.00 340898 351214 330642 229644 190609 178212
1488.79 60897 27457 87218 104970 71697 59022
1494.57-191465-310872-102058-155127-108211 13439
1500.36 10936 11484 37512-50172-394799-595404
1506.15-524879-209622-7978 62850 156697 129273
1511.93 201548 303252 301146 311149 235776 300898
1517.72 479645 461323 206694 196329 489102 717952
1523.50 774368 740132 899471 990747 1047935 1164193
1529.29 1238735 1274197 1272207 1172167 1207332 1405811
1535.07 1472262 1515865 1315478 908569 982715 1316078
1540.86 1371056 1551487 1824407 1803266 1861354 1985015
1546.64 1943387 1835515 1610593 1430436 1287390 1194843
1552.43 1022421 870919 1062449 1159012 818095 452712
1558.21 440024 448637 781891 986691 888326 792216
1564.00 654367 614513 538007 440251 218478 48366
1569.79 142457 191840 134576 72661 925-454148
1575.57-562662-113052-16399-27790-31379-27621
1581.36-8430-3608-20474-14662-16246-14549
1587.14-6770-29761-43380-41479-45295-62749
1592.93-88810-88150-77781-67415-57366-65283
1598.71-68777-75097-76161-86247-93346-91692
1604.50-97788-88115-70292-79563-105304-107907
1610.28-89964-84955-93539-101069-129832-513555
1616.07-619695-209945-103609-109820-113777-114054
1621.85-227004-287477-135349-81371-129202-179676
1627.64-130613-76396-88347-86971-104153-116346
1633.43-306581-638765-446954-207647-170475-109542
1639.21-121994-123219-107011-100753-86924-260637
1645.00-511908-390745-299940-215770-142458-184909
1650.78-621174-1209888-966774-456056-209572-115851
1656.57-112603-97274-84238-87026-119948-252617
1662.35-225382-100438-91282-79849-73434-174938
1668.14-378019-292697-188931-174214-99322-148931
1673.92-384391-331328-88478-79053-84660-130616
1679.71-127308-125149-236900-491887-879749-600634
1685.49-127494-122812-126018-125565-108916-101183
1691.28-92972-129492-129473-584542-822766-354189
1697.07-183081-387411-847686-689946-210221-128512
1702.85-191852-215268-203381-198825-99147-70549
1708.64-89034-110668-83204-88846-128002-266799
1714.42-279902-333845-657587-537059-236626-122548
1720.21-90699-98148-110216-103848-78086-100687
1725.99-104043-94510-111922-157738-139881-136006
1731.78-362262-654657-601554-250973-101509-100143
1737.56-117607-274807-228377-99822-135350-153518
1743.35-131874-107828-116152-138823-189297-189615
1749.13-183415-352945-268297-99333-92868-77155
1754.92-130073-182432-111560-83151-86901-128354
1760.71-258135-180516-76519-69099-64493-72454
1766.49-179344-234589-111677-123958-226425-409287
1772.28-356252-129786-100155-71108-41397-53540
1778.06-57977-89060-101055-47773-32935-69881
1783.85-114807-79199-35819-40342-41601-58088
1789.63-103402-173573-283901-160010-36098-56687
1795.42-35316-14341-14319-72847-66783-49867
1801.20-43896-5629 17770 21067 35351 36211
1806.99 29076 52928 36313 20423 66941 94515
1812.77 103449 104836 107196 113280 118743 130738
1818.56 148542 151088 137150 116398 114501 53700
1824.35-24086 16902 47262 46973 3136 3700
1830.13 135053 198896 202881 197625 174938 151509
1835.92 117882 105362 94497 68898 62712 47265
1841.70 5236-180394-211056-33284-18536-42003
1847.49-24748-21706-19541-20729-26886-26144
1853.27-35488-28913-17148-30505-46688-45299
1859.06-43477-47233-42777-43367-44736-55107
1864.84-70326-96980-118539-169118-179708-107342
1870.63-76233-76640-81301-71386-66715-71333
1876.41-78052-82557-69340-48757-53001-63378
1882.20-69092-65553-62255-54414-46944-66677
1887.99-97990-87471-38477-29690-18858-9580
1893.77-35483-42533-31621-40490-49942-45969
1899.56-38721-48722-60118-58178-54276-58664
1905.34-67749-84107-88525-82876-84997-81393
1911.13-81351-75137-68702-75459-60827-91966
1916.91-162467-114451-75525-83742-78012-101844
1922.70-85812-59807-51894-51664-65471-66153
1928.48-67608-67866-75420-71909-55434-56762
1934.27-79605-95837-83090-74845-74360-64800
1940.05-58486-97446-98631-65656-85637-92486
1945.84-78302-69293-70262-62377-46825-51906
1951.63-52078-39521-49533-68590-57926-48443
1957.41-51786-47997-39474-35174-28545-33616
1963.20-36308-38128-53401-66875-66325-49930
1968.98-44539-41438-26289-21140-12937-31824
1974.77-55379-37059-30788-32243-24209-13064
1980.55-14008-13892-18875-28915-29803-34566
1986.34-38379-35078-26000-5777-16662-33804
1992.12-14418-28006-36641-36671-46950-36387
1997.91-31289-31621-33533-43857-34340-26704
2003.69-35074-34013-39477-42239-24831-33174
2009.48-41371-32845-38893-45598-53554-59800
2015.27-73220-61801-46836-56233-53068-51867
2021.05-57697-56215-58537-61061-53440-56512
2026.84-64050-63655-64205-65967-68881-72319
2032.62-73509-69429-65122-55892-46460-57053
2038.41-62657-76980-81961-64616-59938-65544
2044.19-70197-75237-80895-63002-63370-68326
2049.98-59866-64711-84149-85425-68244-71298
2055.76-64991-48446-57095-77138-73280-73919
2061.55-66651-60587-71397-49686-59327-90460
2067.33-84836-74555-71249-72480-64300-64287
2073.12-73002-66176-70437-75178-61700-66790
2078.91-81717-80351-80879-75276-74078-80848
2084.69-80095-74329-70901-74700-86610-84322
2090.48-65061-71094-84110-90560-84521-65103
2096.26-59869-80399-86152-70696-61740-71755
2102.05-93667-89975-84161-74071-69419-74201
2107.83-70393-66441-88541-93175-68343-66494
2113.62-70974-84521-65016-51679-69883-75546
2119.40-58845-51781-61228-96424-99505-65239
2125.19-61345-73938-68093-55400-70490-80862
2130.97-77076-73708-68710-66602-59891-50704
2136.76-52942-54598-57689-64209-65144-53099
2142.55-54206-67532-75851-73630-66347-65784
2148.33-64553-68910-68458-61154-63754-74165
2154.12-73023-50808-60389-85506-72409-54071
2159.90-57986-71028-58880-41980-67804-83519
2165.69-55737-48462-77309-90662-71703-67552
2171.47-68473-55893-42713-54554-64386-46851
2177.26-60110-78252-70060-44969-44941-52974
2183.04-36832-17289-32329-44642-15601-15002
2188.83-40215-38081-20749-17868-8458 1621
2194.61-5195-5782-8903-169 24378 18695
2200.40 4172 11809 21040 35406 31175 28426
2206.19 46358 51384 40747 29990 36316 35403
2211.97 37473 60879 63440 37885 31240 25321
2217.76 13788 15195 9695 13930 7912-5633
2223.54-9589 9148 17508-2288 13264 35044
2229.33 36062 42473 38385 32044 39109 35951
2235.11 35633 43534 56031 51097 31022 33750
2240.90 28855 25393 36437 15011 5024 7065
2246.68-13233-23816-28875-18780-6580-11611
2252.47-14522-21930-24232-18772-26551-33670
2258.25-30769-17597-29789-42521-30134-29985
2264.04-25160-13863-10491-15817-15941-5200
2269.83-27362-26542-3046-1637-3496 2486
2275.61 15343 8291 4780 13470 28270 33013
2281.40 26407 47012 51030 53940 74943 77836
2287.18 66785 66945 75231 69532 68360 75811
2292.97 56918 27188 20926 22963 13131-1073
2298.75-9555-9623-9182-12502-27022-9159
2304.54-19308-12089-6505 12025 18969 23406
2310.32 26682 25898 43841 63194 80745 75601
2316.11 96759 102330 120578 131634 171254 191002
2321.89 213786 225850 251653 265703 280256 301876
2327.68 329272 340229 360351 389511 402763 410719
2333.47 419090 415262 425748 433460 430563 411403
2339.25 397418 399915 383666 350762 302341 258378
2345.04 206296 176953 133901 84785 94245 149713
2350.82 208785 260667 323159 371116 414721 478126
2356.61 520787 546137 559415 566345 579729 580119
2362.39 565728 541650 513757 494002 459896 419335
2368.18 390846 352716 297504 248195 205420 160149
2373.96 132610 103441 80672 76320 62700 62855
2379.75 61720 30221 6791 15777 29895 49703
2385.53 72480 90077 113569 132622 151177 189326
2391.32 243223 305244 352107 398165 457005 541495
2397.11 617583 582091 505765 459498 419743 418849
2402.89 404249 392647 473071 814678 1852483 3563115
2408.68 3032369 969522 396195 368229 415220 503088
2414.46 557160 627359 690647 736822 749193 741145
2420.25 721256 696523 642841 570735 505227 436598
2426.03 380851 345093 307156 278643 244432 198486
2431.82 159644 131486 104386 85398 96343 139108
2437.60 192383 264171 320202 347468 347546 297325
2443.39 228110 183134 163689 144087 147038 174067
2449.17 177768 183236 205874 202110 203515 223451
2454.96 221008 216289 215713 208238 192163 176928
2460.75 157840 130119 125174 116096 99830 88781
2466.53 72324 68735 57799 33723 12478-6021
2472.32-5337-4617-22065-21386-29604-45794
2478.10-49783-60257-52593-40737-56461-69827
2483.89-65033-69022-67731-55840-58119-65644
2489.67-73504-63162-54926-63030-67453-69067
2495.46-67412-79606-81618-79315-79238-53253
2501.24-43323-60385-73676-63398-46710-57689
2507.03-83136-83931-77682-80090-74254-72024
2512.81-66985-73314-68426-48127-51690-65849
2518.60-76907-89918-95887-69961-65276-79456
2524.39-82918-94722-91054-71303-66692-79196
2530.17-76508-63195-75359-89029-87688-88107
2535.96-78526-67783-74466-80121-82369-94600
2541.74-95751-81235-83605-94950-85301-86980
2547.53-86053-83050-85007-80454-90658-99154
2553.31-89757-79260-91681-101956-98499-99123
2559.10-84968-76407-74410-78286-78088-51079
2564.88-52027-61358-50317-62940-77309-91489
2570.67-110240-117425-119872-105872-81458-76958
2576.45-79278-76593-89704-72120-47988-43810
2582.24-55052-62356-68914-84884-82422-82718
2588.03-83007-84175-103393-116460-100734-76851
2593.81-60272-59539-71399-90400-80253-75764
2599.60-98940-87536-76863-78808-75020-85850
2605.38-82601-68919-81231-88775-83209-93530
2611.17-91406-86513-73183-69275-67252-66882
2616.95-76040-75046-87895-90278-93211-96424
2622.74-88328-76008-68858-77984-90520-77794
2628.52-66380-71760-73264-87998-92664-79829
2634.31-70325-67643-70969-69257-66413-65590
2640.09-68411-63291-58311-77016-82083-67125
2645.88-54840-57338-78140-88526-89671-87794
2651.66-70045-60854-73303-67659-68590-87080
2657.45-101181-89747-88658-85278-67468-59018
2663.24-58086-76929-78114-74997-85186-93280
2669.02-87537-70851-66034-74004-90651-95706
2674.81-63311-78113-95392-64335-57806-71157
2680.59-78375-76633-72265-68767-54804-52903
2686.38-70200-64898-72269-78401-64046-70924
2692.16-85947-90291-95744-110653-108679-116577
2697.95-121023-106526-83696-86168-99995-90747
2703.73-77441-61024-51153-33599-30587-28850
2709.52-37488-57898-67471-79491-89015-91134
2715.30-86039-76160-80800-67816-66849-93612
2721.09-109432-120595-113050-84216-88401-98784
2726.88-78709-65274-66219-76774-83157-70692
2732.66-55591-64542-68221-65417-59666-66954
2738.45-85054-81012-71605-72901-77043-84421
2744.23-74870-76710-83826-78809-77701-78181
2750.02-89299-98303-81221-62151-82255-112148
2755.80-108616-89486-96101-101607-89825-87410
2761.59-76009-79172-95740-100728-101580-87020
2767.37-66067-79320-110181-105899-87962-76021
2773.16-74399-81870-103529-121646-97419-73062
2778.94-90067-84618-68260-62817-73403-90722
2784.73-93493-95608-93655-82576-71865-80036
2790.52-99796-105527-95878-74685-77888-92670
2796.30-64085-56733-84721-94738-94256-99268
2802.09-113234-111178-75514-95938-114186-87193
2807.87-81755-81969-79407-93320-114911-125626
2813.66-133386-116767-99417-91103-95169-107109
2819.44-102041-91588-89568-88851-97006-83185
2825.23-62967-81725-84402-72197-64475-48444
2831.01-48872-70669-81208-98608-111624-106020
2836.80-92063-82050-71947-72087-85958-80523
2842.58-83568-90722-89116-93223-80050-73848
2848.37-100537-96884-79178-96088-98879-108700
2854.16-132877-125127-112418-93548-68991-77443
2859.94-106782-93394-75886-94527-118413-119917
2865.73-121379-126063-117053-109310-75950-85267
2871.51-110438-101748-108750-117953-95528-86848
2877.30-95586-100481-107273-101101-108857-99993
2883.08-113695-142903-135214-120575-106232-109733
2888.87-119277-94493-87033-96713-117613-139179
2894.65-134787-107477-80815-79650-70860-72213
2900.44-84147-107407-107780-125609-134780-95060
2906.22-105998-106108-90526-97512-98031-105607
2912.01-106506-119771-149199-138787-121524-116762
2917.80-121226-151289-154482-126234-132420-150724
2923.58-155536-151539-122438-132460-137890-135597
2929.37-148953-137894-134647-122299-115236-132049
2935.15-126073-138904-149457-134844-126066-127436
2940.94-122069-108049-94294-102577-127645-130911
2946.72-125333-109154-115299-133243-129180-114178
2952.51-113337-101157-90956-98490-115648-115784
2958.29-117300-134479-154229-144040-95739-106889
2964.08-139024-151360-169054-166767-160415-181450
2969.86-167657-142958-137573-138964-171468-167126
2975.65-133535-134740-150237-140906-123559-119193
2981.44-140860-146569-110307-102126-94559-83674
2987.22-91067-82212-91585-111589-74236-72047
2993.01-102807-82863-92295-111107-101894-86592
2998.79-80671-90926-102031-122587-120184-97202
3004.58-102084-114782-90487-67009-74381-70086
3010.36-43793-23098-12951 5795 20024 60672
3016.15 106581 104292 117301 130548 155912 168982
3021.93 209011 241002 207651 176247 137093 107438
3027.72 149890 166707 130770 209350 1628206 2319856
3033.50 1030513 309792 161268 137158 144674 175036
3039.29 231974 275046 288691 274229 293982 295177
3045.08 284264 252505 202345 181837 145841 100896
3050.86 73459 37791 5518-12301-49430-70399
3056.65-36957-35644-57796-69742-90760-98919
3062.43-99842-97755-85965-72849-81609-80776
3068.22-64741-80538-91717-73379-61303-69591
3074.00-70757-60508-54866-63957-78759-71486
3079.79-67750-84697-78534-48379-48699-85235
3085.57-87089-40664-22753-39708-50347-69844
3091.36-52699-18870-20670-42702-41601-58916
3097.14-83286-44321-18294-32902-49707-62073
3102.93-55398-35939-37477-33032-11734-8679
3108.72-3061-1900-12761-2226 6488-15170
3114.50-26715-42270-33118-9373-10094-1094
3120.29 132-35168-53438-38726-21001 1832
3126.07 16197 23411 5321 21700 27847 23974
3131.86 31124 9429-15386-4226 22151-1773
3137.64-4756 3736 3751 24036 10264-10321
3143.43-8234-11058 725 23109 29045 10864
3149.21-8532 9245 22486 17092 24523 34781
3155.00 47017 30478 23133 53720 57868 52449
3160.78 33348 21653 36318 61610 67834 35565
3166.57 12510-432 3351-11590-3844 35012
3172.36 50200 42220 11581 8094 17536 18456
3178.14 18853 20747 31460 44516 38398 36058
3183.93 48690 36832 32978 37402 32167 25471
3189.71 4324-4897-6831 8077 16100 1280
3195.50 13823 39779 25101 4248 19348 15028
3201.28 10706 22702 36532 25894 4416 8636
3207.07 11780 8455 21298 43083 39361 23277
3212.85 5589 8087 25543 38253 60534 45029
3218.64 24759 31435 50291 36807 10008 10212
3224.42 207 1959 41296 37614 36349 71552
3230.21 62269 33385 19679 22444 32342 31534
3236.00 24361 23385 33500 46794 51012 67163
3241.78 60725 58127 52187 39172 44193 62058
3247.57 47240 10427 30122 55925 72930 43116
3253.35 33654 54160 35012 37314 35316 21446
3259.14 26112 36867 60636 58603 31283 24253
3264.92 29254 31578 50048 68560 58797 20121
3270.71 13614 36807 22076 11735 32515 13435
3276.49-2305 12046 9396 12394 5109 9655
3282.28 28081 17156-8340 13747 29331 34624
3288.06 43141 22350-2742 3645 12672 1904
3293.85 6230 3026 9821 39130 53366 28087
3299.64 23373 31258-8576-26448 6890 15391
3305.42-17000 9401 19549-3536-13271-16698
3311.21-14485-29654-39834-45810-24889-33243
3316.99-37739-46951-50676-35724-37872-26853
3322.78-35944-32519-36081-63475-47250-6738
3328.56-13032-37911-45099-42102-40689-50648
3334.35-34752-46802-38909-22741-39531-50149
3340.13-57569-30136-16204-47331-58314-30440
3345.92-51843-74318-51529-38571-39611-35636
3351.70-48972-78531-84347-44565-36371-69396
3357.49-69434-41253-34130-50095-69011-62152
3363.28-64096-64412-38987-53978-55366-39766
3369.06-54669-78795-81259-86047-79301-73170
3374.85-83394-56995-55460-95498-91369-92424
3380.63-110161-71880-40916-34863-17875-20311
3386.42-44593-39992-37504-48453-36695-44985
3392.20-76131-107967-88348-61799-29456 12077
3397.99-12789-51776-42599-27361-48699-57496
3403.77-50246-29939-24905-57644-61254-62079
3409.56-60219-61819-19256 2982-59636-83577
3415.34-56157-29856-58689-63532-61862-70048
3421.13-53426-29159-16178-39557-41467-62074
3426.92-81693-77851-101845-83604-33302-36440
3432.70-62528-35254-7428-34610-71218-99007
3438.49-111478-89364-88392-89120-105105-83645
3444.27-54938-86212-100326-96910-86432-93039
3450.06-69516-53728-54379-70754-83314-64732
3455.84-87335-63704-58109-104483-94124-79047
3461.63-35688-25571-79927-63600-28283-71652
3467.41-96564-75994-81836-126738-126201-67541
3473.20-63728-89747-68143-56790-72259-84405
3478.98-102656-99601-87342-94691-81594-95013
3484.77-128922-96416-88086-109800-119409-127041
3490.56-94823-94078-133414-122377-109897-111892
3496.34-94601-108399-131859-132258-118979-111255
3502.13-123548-142801-147465-120982-109632-124012
3507.91-139412-148235-117940-125086-133556-117885
3513.70-117452-88818-89318-98971-129322-153638
3519.48-117160-114305-126394-118827-117980-121523
3525.27-128438-130042-142652-152660-149210-130740
3531.05-125674-109856-72386-75335-119510-122033
3536.84-110055-139170-148375-114374-93604-120508
3542.62-112000-128403-155295-126558-123086-114919
3548.41-94751-117658-149996-159739-129751-108013
3554.20-99101-95860-98630-94602-94534-87759
3559.98-96407-125326-138199-114740-121432-177579
3565.77-177573-181186-159141-121180-152654-152542
3571.55-119613-91034-84288-85288-102858-130187
3577.34-109376-86881-104852-103604-109537-107406
3583.12-87196-75230-174551-210470-212656-248076
3588.91-155686-93259-81145-125540-117507-96580
3594.69-120350-69678-51818-61911-54432-99670
3600.48-78142-55082-92597-79712-73623-147658
3606.26-186298-216279-301343-195993-119340-228996
3612.05-226115-157191-151399-113403-151506-185874
3617.84-248465-302593-178127-110325-97196-106529
3623.62-99759-106434-145386-275544-486095-530301
3629.41-316286-143276-118676-164281-165353-98843
3635.19-83443-97727-127282-120305-121804-133623
3640.98-131980-104997-77657-102506-154214-303411
3646.76-359686-487735-542088-402241-330605-186778
3652.55-132532-121003-249606-362751-188580-117437
3658.33-139392-126369-127382-106665-113762-144737
3664.12-140120-147852-130391-241089-310272-437076
3669.90-583255-310172-192149-253627-462481-681365
3675.69-463161-198119-165674-168866-109381-89968
3681.48-109639-110478-97129-98977-80883-216781
3687.26-578067-391929-131058-211305-98582-25486
3693.05-41063-21411 3361 2378-1154 11045
3698.83 31524 47350 36052 193853 317962 273187
3704.62 173573 20780-54649-142371-206017-120864
3710.40-269863-393560-107648-3079-13639 23748
3716.19 10124-30824-75189-87198-121708-182547
3721.97-148297-120242-147205-198853-237751-171512
3727.76-122567-125439-158366-359355-375397-220952
3733.54-320522-376181-455788-381847-215744-190956
3739.33-200492-259774-240146-351946-951701-908133
3745.12-334011-246789-281485-667509-624475-360003
3750.90-740519-609398-225216-176888-197066-235421
3756.69-174957-189107-275374-242655-152266-141321
3762.47-152894-151413-224606-210873-138496-145108
3768.26-256131-307983-202700-166962-167604-151483
3774.04-125318-139544-141700-137186-223614-259207
3779.83-168575-115910-125038-156168-169159-143479
3785.61-110183-89525-113009-124153-99803-118782
3791.40-124018-116428-132686-156080-235979-221097
3797.18-138512-95279-192022-540790-463859-140395
3802.97-92858-49677-170361-411958-273989-63109
3808.76-57320-48738-59596-72945-104045-159211
3814.54-545720-609943-220841-162793-236273-387901
3820.33-502578-368848-200619-166876-158966-206794
3826.11-217547-157454-146700-168391-282046-333824
3831.90-222907-205574-315798-248960-354165-729173
3837.68-499184-248268-318458-250103-193191-249828
3843.47-216326-136431-138897-162924-132198-194191
3849.25-223462-448170-644816-688998-1059355-663203
3855.04-211531-255795-200198-173369-180666-209030
3860.82-248802-216491-223638-358785-313663-186110
3866.61-194019-263191-516374-518763-243627-186561
3872.40-249928-293891-214228-153775-140382-135244
3878.18-221524-350133-297632-176385-156928-165936
3883.97-359400-462826-270078-161369-148560-162835
3889.75-294256-307046-171597-162697-154208-125805
3895.54-162033-179624-233305-311665-230014-312022
3901.32-324962-270553-335166-265844-240278-189806
3907.11-171535-172335-164237-177017-180176-162602
3912.89-148101-177543-183502-246889-242616-171780
3918.68-215614-203451-118856-105868-140066-168413
3924.46-164387-145042-154411-180219-223015-216482
3930.25-189489-210823-178488-142019-133659-133209
3936.04-139077-122819-109116-100871-116218-160144
3941.82-175281-147578-114241-97898-112703-132280
3947.61-142535-191228-190553-120716-112733-126052
3953.39-108694-98272-121494-141805-139544-141981
3959.18-167066-174032-179127-158686-132210-117341
3964.96-102178-128026-137612-129742-120290-88144
3970.75-93161-118295-141844-158968
##END=
