##TITLE=Acetone
##JCAMP-DX=4.24
##DATA TYPE=INFRARED SPECTRUM
##CLASS=IUPAC A
##ORIGIN=NIST, Anayltical Chemistry Division, 301-975-3108
##OWNER=COPYRIGHT (C) 1998 by the U.S. Secretary of Commerce
##DATE=98/10/1
##$SPECTRA VERSION=1.00
##$UNCERTAINTY IN Y=2.3 % relative (B=1.3E-04,C=1.7E-09,D=2.7E-14)
##CAS NAME=2-Propanone
##CAS REGISTRY NO=67-64-1
##MOLFORM=C H3 C O C H3
##MP=-95.35 C
##BP=56.2 C
##$NIST SOURCE=QUANT-IR
##SPECTROMETER/DATA SYSTEM=IFS66V (Bruker)
##INSTRUMENT PARAMETERS=KBr Beam splitter; MCT Detector; Multipass cell
##STATE=gas
##SAMPLE DESCRIPTION=Acetone Primary Gas Standard
##PRESSURE=101.3 kPa
##TEMPERATURE=23 C
##SAMPLING PROCEDURE=1 L/min Flow
##RESOLUTION=1.9290
##DATA PROCESSING=Triangular Apodization
##XUNITS=cm-1
##YUNITS=(micromol/mol)-1m-1 (base 10)
##XFACTOR=1.0
##YFACTOR=4.5474E-13
##DELTAX=0.9645
##FIRSTX=574.687
##LASTX=3974.595
##FIRSTY=4.07E-07
##MAXX=3973.63
##MINX=574.69
##MAXY=.0005083
##MINY=-1.02E-07
##NPOINTS=3527
##XYDATA=(X++(Y..Y))
574.69 896152 462548 465014 637012 554610 518810
579.51 503908 198066 363388 447272 396946 768514
585.29 693930 372048 211578 11296 84872 408492
591.08 574156 565512 431224 236530 295414 214454
596.86 138350 211412 225724 252852 205408 241200
602.65 262120 101348 98706 206808 162830 26272
608.44 58128 127570 238864 327516 313886 289458
614.22 234524 184966 121776 24302 6932 20538
620.01 84204 161762 130232 41820 4000-8402
625.79-10100-25354-42558-47080-9294 87558
631.58 33788-56240-179288-165744-3760-978
637.36-117034-81970 56716-45712-168170-123718
643.15-26642-42930-96236-85296-71158-177206
648.93-184826-74628-8020 12098-127142-239258
654.72-196804-106122-90718-95206-73426-73520
660.50-111074-136268-219138-225416-146374-92226
666.29 195614 293988 88492-34650-81516-55486
672.08-7838-28410-101756-86238-70220-51646
677.86-77690-56842-25952-61522-48386-53616
683.65-40302-5968-13152-61014-50018 14372
689.43 39728-4264 13546 32688 11888 43594
695.22-8804-12844 79132 37018 46858 167122
701.00 137532 50694 81272 159456 130084 107544
706.79 128202 153130 224878 266408 266236 274974
712.57 251624 272712 338682 326132 312646 415210
718.36 499110 542636 568658 593228 679056 643014
724.14 724628 905036 900394 898188 993086 1078634
729.93 1153746 1216138 1328618 1457828 1565866 1702038
735.71 1788216 1899422 2051466 2201878 2381958 2578786
741.50 2808890 3048798 3233182 3447676 3751614 4078852
747.29 4406302 4742214 5094578 5453378 5880092 6344084
753.07 6793264 7271838 7761840 8202936 8669458 9149476
758.86 9588756 10012720 10512620 11068030 11486070 11752770
764.64 11947520 12238510 12466590 12629560 12893820 13142990
770.43 13253160 13207020 13067410 12904210 12769650 12699100
776.21 13001710 13460500 13539500 13322820 13004490 12709440
782.00 12721150 13175310 13751260 13947550 13732470 13380160
787.78 12985620 12635060 12317910 11919880 11518150 11093160
793.57 10501530 9925052 9394450 8663182 7931786 7233322
799.35 6493288 5740834 5077164 4577500 4092392 3655160
805.14 3283422 2940852 2637168 2464648 2346374 2094616
810.93 1770114 1546720 1372360 1272278 1204254 1093088
816.71 1075204 1088110 1010666 915260 963974 1004518
822.50 934348 911430 962584 1040954 1032072 1034844
828.28 1009724 1000678 1060640 1117658 1245094 1268618
834.07 1248208 1324404 1396358 1488636 1564764 1589810
839.85 1672172 1728426 1786120 1852914 1909718 2014608
845.64 2144404 2286758 2428520 2597584 2799850 2970252
851.42 3147560 3426864 3721270 4002186 4339932 4831954
857.21 5329086 5799648 6363044 7028150 7807706 8628006
862.99 9567570 10635290 11802930 13018710 14326500 15773590
868.78 17318410 19004680 20834880 22716090 24526650 26296060
874.57 28023450 29328440 29915710 29819510 29544880 29885910
880.35 30825600 31813100 32547550 33055120 34391930 39314210
886.14 42874510 41888670 42012690 43021440 42248520 41340010
891.92 42551070 47666300 51646000 50571420 49423170 49810340
897.71 50508610 50835700 50717320 50031150 49276460 48862080
903.49 48500560 48104850 47701240 47087900 46203410 45241950
909.28 44157590 42953370 41696240 40386420 38989320 37471080
915.06 35872960 34377940 32994040 31612200 30303080 29109210
920.85 27993460 26965190 25875160 24789430 23791780 22811150
926.63 21897100 21015390 20157800 19279480 18407730 17564750
932.42 16758310 16038170 15351850 14632380 13914280 13284970
938.21 12687690 12079750 11555490 11162550 10776660 10397810
943.99 10069310 9791650 9564096 9325940 9128930 9010592
949.78 8894486 8758762 8641694 8558940 8479416 8399548
955.56 8359106 8379442 8389822 8335534 8282680 8201030
961.35 8124986 8049034 7936376 7778368 7646948 7644844
967.13 7884170 8001066 7686752 7488366 7415202 7309018
972.92 7244884 7178452 7095126 7026488 7018784 7014782
978.70 6962584 6917914 6860142 6760046 6659118 6549550
984.49 6428566 6354542 6334688 6292830 6190090 6006762
990.27 5818258 5639560 5433718 5253736 5133846 5036526
996.06 4930702 4854012 4867522 4903098 4826120 4617924
1001.85 4406586 4255616 4148208 4083238 4061202 4082024
1007.63 4062946 4023524 4051204 4135198 4123962 4028014
1013.42 4017330 3987240 3918758 3877932 3817898 3906322
1019.20 3932158 3751986 3679998 3681444 3703964 3702750
1024.99 3705438 3725782 3742416 3766996 3807594 3893562
1030.77 3950372 3962784 4033388 4119030 4202678 4342248
1036.56 4453536 4525386 4551224 4629092 4767658 4814382
1042.34 4893900 4982088 5045474 5128606 5194162 5272696
1048.13 5352974 5450290 5514152 5554608 5601270 5677834
1053.91 5764558 5834186 5945546 6099244 6263502 6438064
1059.70 6640776 6865398 7054902 7269080 7530272 7807550
1065.48 8154514 8502280 8835158 9197854 9581160 9977700
1071.27 10363070 10717910 11102520 11501290 11861890 12265340
1077.06 12688710 13094750 13287980 13569560 13917120 14231150
1082.84 14713780 15470300 16362340 17894770 19863380 22897460
1088.63 27016310 35571060 48590130 42093880 33517680 37950400
1094.41 30265180 22457740 21645390 20791210 20592840 20596390
1100.20 20927440 21338650 21813460 22237220 22689390 23053060
1105.98 23307660 23432530 23543180 23590290 23533690 23370860
1111.77 23097100 22718650 22265970 21682050 20999850 20302180
1117.55 19566560 18750040 17946820 17213930 16450430 15638660
1123.34 14845280 14107950 13417050 12740170 12120210 11503730
1129.12 10914520 10414060 9940088 9462462 9052252 8666214
1134.91 8366534 8088256 7803956 7530534 7294516 7098990
1140.70 6918110 6783138 6692242 6574738 6409778 6272174
1146.48 6182940 6108578 6087406 6119048 6142602 6180010
1152.27 6255540 6334530 6469172 6597788 6739090 6973890
1158.05 7278430 7552276 7883058 8261976 8709066 9201634
1163.84 9786970 10453040 11184850 11995830 12917450 13927690
1169.62 15046000 16296300 17711710 19261530 21025600 22945480
1175.41 25118410 27626530 30495630 33780570 37632560 42106950
1181.19 47396920 53605600 60982350 69720140 80056620 92171370
1186.98 106400100 122882100 142013000 163244400 185686700 210279300
1192.76 236795500 264508500 295263200 328381100 362452200 396278800
1198.55 429171100 459956800 487573300 511897800 532954200 549665000
1204.34 560622000 561885800 556744800 549591000 540711400 532439100
1210.12 530119900 534453700 551720100 590762100 654559700 730510000
1215.91 795624100 785693200 698028800 577961100 461981600 439349900
1221.69 471612900 504780800 539262000 568567100 594168700 612318800
1227.48 622457700 621193800 607794900 583487000 551881800 512945600
1233.26 468161900 419876200 370433500 321274500 274582300 231576900
1239.05 193292400 159796500 131194700 107343000 87904260 72114340
1244.83 59468450 49372110 41469180 35228700 30330000 26395690
1250.62 23307620 20814380 18768840 17062220 15655400 14441090
1256.40 13433290 12544690 11794790 11135820 10586390 10105490
1262.19 9722468 9368188 9050730 8785946 8579222 8378788
1267.98 8244236 8100988 7994924 7927452 7830556 7785198
1273.76 7801164 7826812 7850872 7904014 7989480 8070326
1279.55 8165716 8277426 8403436 8558708 8733668 8942642
1285.33 9219398 9532318 9903672 10600550 11134660 10911500
1291.12 10803790 11078580 11354760 11669610 12042980 12476990
1296.90 12936620 13471220 14036680 14656060 15300820 16013070
1302.69 16694870 17387670 18222070 19083220 19890060 20846560
1308.47 21876430 22968990 24224830 25524520 26811150 28406410
1314.26 30148250 31917300 33527020 35239000 37255620 39508400
1320.04 41990990 44815690 47892090 51254620 54892120 58859160
1325.83 63162330 68078910 73585180 79836610 86791370 94490360
1331.61 103023200 112749200 123653500 135968100 149555600 164621500
1337.40 181136900 199330000 218997000 240068700 262533200 286506500
1343.19 311232800 336706500 362369700 387911700 413109200 437852100
1348.97 460679300 482234100 499820100 511909800 519655600 525623300
1354.76 525149000 519668200 513139600 512217700 528131600 571872900
1360.54 589202000 585205600 593657500 665304000 764874300 697429300
1366.33 622791600 636631700 644873900 643780400 634512300 629815900
1372.11 622345200 613921900 603389600 591417000 576188200 558651900
1377.90 538169800 516663000 490050300 457099900 421897100 387843600
1383.68 355191800 323982400 294552700 267510900 242271100 220099200
1389.47 200883400 184499900 170489000 159099600 149956900 141864600
1395.25 134955900 129785300 125962700 123263400 120691100 118816500
1401.04 117765600 117259400 117246100 117414400 117464400 118472100
1406.83 120784400 124554300 127934400 127843000 127767800 131233900
1412.61 136060800 140447000 143325300 145576700 148007400 151304400
1418.40 155103800 157147500 159456800 162429000 164590000 165933700
1424.18 166440600 166736400 166788400 166176200 165140000 164108000
1429.97 163845600 166913600 173190300 179968900 182926400 181116500
1435.75 177017400 173795600 174343200 177268500 178713800 176448300
1441.54 173130700 170322400 168432600 168230700 168390200 169400500
1447.32 170416300 166495100 159834500 152777000 147431000 144105900
1453.11 159854700 171187500 150454200 135260100 128882400 123948300
1458.89 120894800 117855200 115406900 111852700 108550300 105769400
1464.68 102246900 98548990 95643620 92853860 90615500 88862030
1470.47 88436060 88698640 87614980 83273530 78965940 76546850
1476.25 73935500 71314330 68238180 64440390 60988860 58195480
1482.04 56132310 54835820 52984800 50560440 49064500 47762650
1487.82 46524060 45852890 44783060 43362160 42287470 41632380
1493.61 40995940 41471090 41516910 39962220 39718220 39261300
1499.39 38403890 38128240 37863760 37528360 37574210 38800720
1505.18 39758600 40002370 40350060 39864170 37821880 36608340
1510.96 36672640 36415520 36129930 36265120 36268400 36721910
1516.75 36634560 36036260 36502770 38354300 39006040 37793260
1522.53 36926740 37120380 37925240 37631760 37129770 36731620
1528.32 36151580 35842820 35859480 35971120 36517700 36480880
1534.11 35597080 35498000 35482760 36251740 38107960 37980080
1539.89 36558070 36396550 35655780 34529080 34706400 34322470
1545.68 33437060 33266910 33521530 33770040 32969390 32187540
1551.46 31924950 32451060 33008830 31850480 31129810 32439450
1557.25 33816220 33557010 33080530 30943580 29325220 29154170
1563.03 28761580 28457050 27665910 27118030 26739910 26934790
1568.82 27011650 25803820 24815820 24237020 23692730 23311930
1574.60 24712060 24734570 22183900 21218170 20747430 20292250
1580.39 19912370 19501260 19089700 18707750 18348990 18026730
1586.17 17709860 17363530 17008480 16637670 16244300 15800980
1591.96 15391660 15058150 14668000 14238630 13832080 13411290
1597.74 13047120 12705060 12371210 12032990 11701320 11377380
1603.53 11059270 10766680 10543810 10320180 10092300 9921602
1609.32 9649972 9348310 9169048 8995396 8934108 8897994
1615.10 10484800 10962820 8935486 8323110 8284890 8244164
1620.89 8178930 8636202 8899950 8204092 7834326 7872790
1626.67 8125848 7957192 7700700 7723838 7713198 7840592
1632.46 7939858 8907650 10582570 9793368 8743726 8664624
1638.24 8525824 8710500 8856970 9060670 9346678 9546630
1644.03 10603760 12042100 11701990 11529040 11458320 11431850
1649.81 11883520 14169820 17264200 16483760 14417930 13566100
1655.60 13423760 13659400 13865260 14128670 14396980 14781600
1661.38 15655490 15817550 15491470 15854090 16656500 17998550
1667.17 19750450 21380510 21428820 21456280 22083710 22605010
1672.96 23931980 26271390 27368020 27559310 28772020 30077440
1678.74 31651380 33036940 34387710 36391480 39109160 42538280
1684.53 43003980 42764940 45094260 47698920 50705000 54069500
1690.31 57911570 62130120 66908820 72188280 80456750 89241280
1696.10 96791200 107886400 122045200 137015200 149289000 161923600
1701.88 178607800 198313100 220256100 244490800 271336900 300016400
1707.67 331330600 364788500 399722100 435558900 472201500 508764600
1713.45 544981100 579626400 613258000 646479000 675000000 700631900
1719.24 725417600 748823100 770996700 791625500 810263100 826914700
1725.02 842177700 855876300 867502900 870367600 864181100 858885400
1730.81 866087000 895567400 948634500 1011310000 1062477000 1094764000
1736.60 1110614000 1117950000 1117473000 1102629000 1081556000 1064224000
1742.38 1047384000 1030107000 1011789000 988919900 963262300 938646200
1748.17 915684000 895901600 880556300 860465600 833081500 800806000
1753.95 764277900 729349400 697897100 669247900 644618900 621557400
1759.74 599906000 576509400 545254300 511964900 480509300 450826500
1765.52 423339500 397490700 373395000 352658900 335273300 316553500
1771.31 301042500 290162600 271532000 246596900 225163700 211503300
1777.09 203244600 193950700 184465200 176598800 170177200 164970400
1782.88 160304500 155898200 151685200 147529800 141689000 133363400
1788.66 125087300 119115400 115090600 111475600 106245200 100509300
1794.45 95250540 89746740 84433810 79648930 75626280 71883300
1800.24 68310420 64800860 61207450 57810700 54796740 52083320
1806.02 49508660 46900880 44284000 41922300 39594100 37167270
1811.81 34948950 32840600 30888520 29108080 27524990 26074270
1817.59 24663420 23372010 22210170 21116420 20161120 19256270
1823.38 18663920 18152560 17118290 16281060 15738940 15451490
1829.16 15119600 14164330 13394500 12923760 12516340 12254010
1834.95 11965020 11593780 11209710 10836900 10656490 10463740
1840.73 10140730 9873916 10232210 9929976 8641636 8059560
1846.52 7805568 7432416 7039422 6731856 6465820 6228560
1852.30 6007782 5823820 5653092 5474440 5315372 5141464
1858.09 4945314 4780406 4654548 4514266 4385920 4283932
1863.88 4231668 4194622 4181552 4196484 4360260 4293414
1869.66 3875624 3692838 3623406 3560428 3494692 3417400
1875.45 3348234 3268938 3205498 3138658 3067112 3002598
1881.23 2960132 2901408 2852868 2834346 2848664 2934810
1887.02 2853284 2800030 2705128 2429042 2334782 2292308
1892.80 2277752 2310608 2277112 2186424 2144402 2097042
1898.59 2048266 2009000 1947986 1876658 1829560 1766196
1904.37 1700442 1632980 1597362 1547760 1509822 1483862
1910.16 1378702 1304236 1253986 1194530 1163154 1127566
1915.94 1259616 1541910 1315474 1044440 1062482 1109148
1921.73 1218600 1166484 1047860 1023278 1027210 1010546
1927.51 997106 995134 1002032 994854 996806 1015546
1933.30 1026270 1022402 1028552 1049752 1061590 1054206
1939.09 1070492 1106862 1271988 1311404 1162856 1172298
1944.87 1217294 1228696 1235720 1260028 1301214 1329394
1950.66 1373816 1427512 1467052 1506094 1538338 1570370
1956.44 1636446 1691906 1728964 1784984 1846712 1889134
1962.23 1933060 1978802 2025706 2127022 2244802 2280862
1968.01 2286978 2298570 2330324 2367258 2407812 2477928
1973.80 2508054 2508858 2533442 2549444 2583604 2620822
1979.58 2615038 2586032 2567494 2573054 2555620 2572140
1985.37 2590400 2581808 2541584 2427696 2345338 2435290
1991.15 2531172 2426012 2369448 2342638 2194590 2089176
1996.94 2049012 2016356 1955098 1888348 1830800 1773456
2002.73 1709264 1623010 1536792 1430786 1323138 1226214
2008.51 1110612 1016130 937612 844470 769772 712002
2014.30 646520 632352 623264 566638 530520 508962
2020.08 492636 486244 467082 441988 449962 461984
2025.87 452284 432048 435814 442234 439398 430462
2031.65 432154 429888 440176 468318 464022 453200
2037.44 465028 480606 481076 494264 508484 501718
2043.22 521252 559564 548766 542582 564492 579468
2049.01 588602 595656 632386 659608 669352 696730
2054.79 730298 744080 755398 802382 835148 858018
2060.58 895152 928646 979334 1046290 1086990 1113484
2066.37 1152788 1206926 1281668 1354762 1431022 1502242
2072.15 1559792 1635862 1737960 1857572 1961744 2079730
2077.94 2232242 2364024 2503380 2676148 2863188 3062684
2083.72 3262638 3469758 3682920 3904828 4143472 4378150
2089.51 4598156 4822172 5053230 5287450 5470124 5650872
2095.29 5845922 6007334 6264556 6568450 6787408 6867488
2101.08 6866184 6980690 7276380 7676118 8090934 8426662
2106.86 8627104 8743582 8877306 9119332 9482824 9846394
2112.65 10162940 10450470 10696070 10956730 11232760 11473300
2118.43 11670950 11875310 12068610 12220700 12364720 12473630
2124.22 12524860 12521370 12502480 12492360 12495820 12475670
2130.01 12461260 12459220 12433200 12446650 12512100 12473460
2135.79 12210470 11944190 11770880 11603480 11520700 11549070
2141.58 11660160 11955630 12235630 11905070 11114150 10592480
2147.36 10344520 10110450 9842782 9542004 9270072 8959144
2153.15 8581288 8224590 7840582 7393508 6942044 6506262
2158.93 6048522 5577000 5111056 4673168 4291486 3918984
2164.72 3592428 3306528 3046228 2828386 2641556 2450990
2170.50 2267244 2134294 2050838 1982916 1909544 1831430
2176.29 1759714 1716882 1676650 1611096 1550528 1504808
2182.07 1428588 1439178 1493814 1459504 1393656 1313572
2187.86 1282004 1342336 1382948 1385280 1365970 1331842
2193.64 1335446 1332464 1326202 1351602 1376600 1388826
2199.43 1386698 1402674 1433120 1449574 1466586 1483190
2205.22 1505344 1565556 1640806 1715814 1819236 1901536
2211.00 1953300 1988396 2032740 2042668 2035240 2073732
2216.79 2133824 2214526 2285258 2349012 2441572 2563948
2222.57 2713374 2867868 3026354 3180482 3264864 3357774
2228.36 3519340 3665608 3763404 3845114 3920174 3975134
2234.14 4025766 4104402 4197328 4288434 4377796 4471326
2239.93 4581248 4694328 4838134 5071992 5329972 5341622
2245.71 5172044 4927176 4703310 4652230 4682588 4751866
2251.50 4850174 4902014 4947316 5003640 5002950 4970498
2257.28 4940380 4891290 4840322 4780904 4676456 4576806
2263.07 4439190 4259198 4124908 4035390 3922962 3794666
2268.86 3680454 3579394 3492852 3408946 3301226 3170512
2274.64 3059118 2957888 2862310 2754514 2641696 2555506
2280.43 2497136 2445682 2359766 2281854 2202850 2147726
2286.21 2122946 2077144 2018880 1964112 1940250 1918906
2292.00 1882966 1833994 1787318 1747634 1710624 1684628
2297.78 1661440 1648004 1642792 1599420 1561244 1536816
2303.57 1538466 1542916 1564228 1562202 1571652 1568238
2309.35 1578648 1616006 1639594 1624218 1619248 1630494
2315.14 1598028 1625152 1673764 1670778 1603100 1612964
2320.92 1626268 1648712 1679616 1723616 1731798 1761418
2326.71 1814472 1809812 1766766 1737078 1730284 1732428
2332.50 1752908 1758586 1724858 1697784 1675716 1662174
2338.28 1657962 1635906 1601838 1543814 1499450 1453546
2344.07 1442226 1433772 1350108 1255872 1188146 1173480
2349.85 1205956 1232592 1246452 1253438 1283586 1312502
2355.64 1311200 1330762 1343360 1309952 1297448 1281840
2361.42 1247592 1228922 1207164 1154416 1085650 1037886
2367.21 1010404 954006 888204 831182 768768 727426
2372.99 685740 630256 607940 571960 495090 446644
2378.78 440936 429834 394864 392594 401844 399786
2384.56 381718 365320 365932 363502 385022 401750
2390.35 422932 427778 442370 493772 528310 556240
2396.14 589164 628894 673336 701770 740252 813978
2401.92 898338 970296 1030772 1086622 1128258 1188568
2407.71 1251248 1321136 1385514 1456846 1539094 1595368
2413.49 1634890 1682112 1763072 1823622 1879784 1927390
2419.28 1973114 2021098 2043196 2093876 2123594 2128696
2425.06 2142272 2137380 2139152 2163840 2205096 2228778
2430.85 2212882 2175034 2146936 2131528 2122202 2119094
2436.63 2102038 2085310 2102904 2164786 2230236 2373892
2442.42 2417784 2205506 2030850 1967618 1945456 2044280
2448.20 2239660 2128838 1715036 1405428 1220206 1103526
2453.99 1046162 990518 953024 889192 809950 785152
2459.77 776206 756260 742880 726210 707586 702512
2465.56 677518 642046 628966 631618 621126 612320
2471.35 623546 650942 648040 650428 660476 660738
2477.13 685616 722726 767122 779220 797414 847988
2482.92 869166 896016 917514 936412 986994 991884
2488.70 988398 1014902 1025414 1047048 1073888 1101196
2494.49 1124332 1109468 1120282 1176422 1210320 1216676
2500.27 1225054 1258642 1305580 1330918 1353494 1342956
2506.06 1337502 1370422 1389664 1410494 1398716 1378894
2511.84 1366938 1355312 1341388 1346910 1377254 1370912
2517.63 1365254 1362582 1359408 1352738 1355768 1412646
2523.41 1495316 1524670 1508978 1503468 1540018 1581042
2529.20 1626356 1683184 1712754 1758782 1807364 1838984
2534.99 1899282 1988804 2053426 2129626 2191932 2248120
2540.77 2327216 2425714 2563348 2654464 2743690 2882080
2546.56 3051828 3228382 3373500 3515132 3708192 3898808
2552.34 4093926 4281384 4446070 4633658 4814694 4985500
2558.13 5164216 5313232 5418962 5519328 5590700 5642842
2563.91 5665998 5672934 5703466 5765092 5859738 5989140
2569.70 6079858 6115638 6293758 6650360 7137324 6952294
2575.48 6038500 5617866 5602566 5552122 5553798 5668742
2581.27 5822060 5911990 5906590 5850862 5767816 5612376
2587.05 5429526 5222622 4959386 4665608 4363652 4046692
2592.84 3707836 3384860 3076756 2779970 2496850 2266726
2598.63 2071420 1874746 1709372 1575700 1473818 1386142
2604.41 1317828 1247018 1170164 1111652 1094590 1086298
2610.20 1074792 1063866 1061966 1065044 1031606 1006106
2615.98 995228 1006496 1005168 1021832 1060236 1055584
2621.77 1055960 1062400 1065548 1086534 1125088 1178922
2627.55 1194128 1194686 1211854 1183094 1188220 1228562
2633.34 1236336 1266106 1278614 1261600 1281572 1317504
2639.12 1324240 1312996 1318744 1327344 1347090 1338814
2644.91 1314494 1327142 1307512 1277322 1263216 1267944
2650.69 1251122 1230134 1240224 1233836 1223514 1230776
2656.48 1227546 1191038 1173508 1142894 1155070 1141766
2662.27 1081832 1061164 1020134 989216 943474 913196
2668.05 905620 884760 843082 798622 776828 754406
2673.84 735684 718774 699554 699456 725590 720818
2679.62 731264 748416 744438 766198 770714 768680
2685.41 764620 800462 837672 832464 851126 858526
2691.19 842566 839344 853340 856620 864814 870204
2696.98 908012 960378 913916 891940 926940 956378
2702.76 1014308 1079804 1164958 1207124 1190946 1183770
2708.55 1196032 1252664 1287292 1276878 1285038 1304336
2714.33 1312612 1275080 1227862 1230280 1226350 1173630
2720.12 1115962 1091978 1095800 1078636 1056506 1045730
2725.91 1043352 1044020 1027626 978404 930518 968038
2731.69 1028120 1032206 1029324 1056314 1083716 1076274
2737.48 1034416 1032744 1084888 1133730 1128720 1120790
2743.26 1159286 1180922 1186850 1206058 1244384 1295080
2749.05 1337914 1373774 1415594 1457668 1523066 1595500
2754.83 1624802 1675582 1760776 1840064 1938780 2051478
2760.62 2147070 2261270 2353016 2463912 2579742 2661060
2766.40 2801528 2950024 3070884 3222494 3420234 3599712
2772.19 3770504 3952938 4091366 4216288 4411906 4645032
2777.97 4772582 4789314 4845172 4974366 5073608 5140686
2783.76 5243544 5380090 5510688 5606816 5741634 5870444
2789.54 5933296 5999638 6064198 6169906 6290162 6436442
2795.33 6587764 6734858 6795962 6714230 6646628 6668080
2801.12 6729472 6757230 6772308 6764980 6824930 6862380
2806.90 6802938 6787020 6807258 6798242 6803736 6843880
2812.69 6892844 6973592 7015486 7040862 7099194 7166394
2818.47 7253334 7436400 7651836 7797152 7965340 8228850
2824.26 8502608 8790730 9097336 9422360 9773520 10157540
2830.04 10615840 11121350 11624770 12115550 12566310 13044630
2835.83 13571550 14036460 14462260 14899810 15342660 15740230
2841.61 16064350 16409310 16720750 17002480 17306500 17576420
2847.40 17828100 18105110 18395100 18676450 18941930 19201360
2853.18 19420800 19570640 19785830 20007080 20132000 20229890
2858.97 20319860 20473680 20721830 21051010 21380520 21485940
2864.76 21364610 21207500 21110190 21059630 20906950 20668150
2870.54 20471070 20304550 20086100 19895990 19730500 19547630
2876.33 19432630 19323020 19204260 19104160 19026240 18974870
2882.11 18953930 18982940 19054800 19171340 19311290 19514370
2887.90 19731130 20017810 20441160 21050380 21644830 22046940
2893.68 22435690 22968870 23717720 24601720 25558160 26547860
2899.47 27614780 28826950 30130120 31553580 33152760 34930730
2905.25 36810100 38808130 40868530 43056040 45621870 48335680
2911.04 50925400 53585590 56298760 58988740 61738750 64520440
2916.82 67131020 69458900 71460500 73155250 74700810 76195380
2922.61 77602750 78919120 79938310 80732190 81507640 82620200
2928.40 83652300 83588220 83143880 82939660 82993820 84018380
2934.18 86318630 89483210 92737570 95522780 97840180 99963300
2939.97 102330100 104457500 105411900 106092900 106868000 107522600
2945.75 107923200 107866200 107340600 106437400 105207300 103762500
2951.54 102198700 100674800 98888970 97077300 95484940 94157380
2957.32 92373940 90267640 88240410 87288490 87189400 88304740
2963.11 90867850 96347520 105113100 119777600 140947900 190316100
2968.89 244652400 228856300 180214500 145584100 120301200 105393700
2974.68 96042620 90845500 87389340 85360110 84741790 85250240
2980.46 86163280 87875340 90080690 92361100 94406520 96483910
2986.25 98334160 100001700 101592000 103191700 104716900 106297000
2992.04 107986800 109832500 111872100 113910400 115826800 117842500
2997.82 119845900 121723600 123398200 124777900 125851300 126640200
3003.61 127094800 127018400 126749700 126307700 125511600 124601500
3009.39 123720100 123332900 124007600 125707200 129052900 132609400
3015.18 136369000 137254900 128517900 121238700 120766300 121674700
3020.96 122955600 123726500 124447900 124959500 125204400 125191200
3026.75 124663000 123339000 121184000 118202500 114511000 110118300
3032.53 105226200 100185200 95205360 90322260 85528450 80824750
3038.32 76340350 72114540 68107500 64590590 61890850 59776160
3044.10 57959030 56326870 54802460 53408930 52245050 51224590
3049.89 50357490 49688030 49186520 48878420 48622590 48283680
3055.67 47882430 47444970 47025980 46632300 46240020 45908920
3061.46 45693030 45516440 45428340 45289100 45003420 44746220
3067.25 44580910 44457910 44252380 43977020 43703320 43418920
3073.03 43035720 42521010 41982380 41463820 40978910 40595150
3078.82 40155080 39671880 39185570 38705550 38125070 37434410
3084.60 36782060 36185370 35628680 35086080 34473470 33798690
3090.39 32979700 31967130 30923710 29935720 29012960 28082280
3096.17 27224570 26510530 25885560 25238980 24565110 23825450
3101.96 23070920 22308920 21488920 20721670 19952220 19177940
3107.74 18481420 17774280 17011700 16304850 15682610 14993430
3113.53 14271570 13649770 13045240 12498030 11963990 11376730
3119.31 10918200 10542910 10110870 9678312 9267970 8913010
3125.10 8572678 8263196 7975006 7643506 7383758 7181140
3130.89 6965870 6711752 6473190 6318816 6136008 6016004
3136.67 5928044 5721096 5620668 5588382 5382366 5211732
3142.46 5117142 5028738 4942170 4859046 4832876 4803420
3148.24 4779710 4773968 4664544 4578450 4606260 4489648
3154.03 4351078 4302990 4300868 4288410 4197548 4150222
3159.81 4086670 4013044 4038118 4015066 3966564 3949128
3165.60 3877150 3837432 3832284 3805820 3766120 3712170
3171.38 3650656 3568860 3514238 3525364 3532078 3511778
3177.17 3468518 3393152 3281204 3216270 3201264 3174496
3182.95 3138904 3067568 2991948 2921794 2851190 2832118
3188.74 2767444 2702810 2684028 2594736 2560982 2540998
3194.53 2493514 2442216 2387418 2374330 2320150 2255210
3200.31 2208196 2171432 2117472 2057736 2033182 2005598
3206.10 1983000 1958876 1901368 1898488 1882448 1839698
3211.88 1810376 1763074 1741242 1731580 1700968 1651878
3217.67 1630232 1653706 1629876 1597390 1588424 1521690
3223.45 1544342 1575744 1505308 1436560 1433306 1463700
3229.24 1481546 1471946 1459364 1373934 1335562 1366992
3235.02 1375286 1377226 1390170 1384800 1323794 1317262
3240.81 1296498 1258176 1286520 1310888 1253010 1211428
3246.59 1212144 1201090 1171484 1217326 1225350 1197462
3252.38 1256122 1255500 1170242 1161454 1174206 1156384
3258.17 1127460 1100026 1115804 1125272 1079916 1062564
3263.95 1075410 1043830 1035458 1010698 997090 989324
3269.74 950858 1002758 1072984 1030298 998208 1015786
3275.52 1040508 1045190 1023194 984594 1027376 1070468
3281.31 1046358 1045596 1032462 1005254 1040414 1070018
3287.09 1125904 1121108 1043492 1080320 1146692 1087586
3292.88 1027044 1048098 1030526 1024132 1041140 1064652
3298.66 1104892 1133482 1070070 995046 971698 988606
3304.45 1027484 1028878 1046388 1079220 1129068 1117558
3310.23 1071554 1017032 945764 968604 1004964 1001758
3316.02 1015590 1023032 985216 951596 913810 902748
3321.80 908698 884640 888556 899944 892864 912262
3327.59 851572 770890 734796 760672 778728 722220
3333.38 723690 724600 701752 658372 630658 679686
3339.16 706156 666572 623024 623508 647918 609484
3344.95 571910 629160 681634 687506 622820 556938
3350.73 603214 637128 677198 673704 635312 653098
3356.52 658694 696412 710240 647416 653720 704120
3362.30 734328 793522 793820 738032 762272 784958
3368.09 762550 857446 932982 960108 1001550 1049140
3373.87 1092400 1126570 1130638 1188206 1289084 1263290
3379.66 1258718 1340586 1379916 1441466 1448340 1381692
3385.44 1430724 1466182 1436156 1418770 1441868 1488050
3391.23 1569712 1569986 1484428 1440456 1471054 1542612
3397.02 1594420 1560832 1497866 1553728 1633108 1649476
3402.80 1649464 1666128 1680432 1730358 1809182 1839570
3408.59 1923918 2067008 2129648 2227014 2411530 2588134
3414.37 2777258 2972598 3204244 3457282 3756770 4143312
3420.16 4506652 4900414 5368386 5870490 6364402 6921866
3425.94 7574282 8222868 8925822 9655958 10406470 11127620
3431.73 11876790 12733230 13519680 14229000 14914690 15604470
3437.51 16283010 16911710 17484620 18020610 18636370 19204230
3443.30 19671900 20142030 20667230 21183030 21476300 21531810
3449.08 21486190 21819200 22649160 23773800 24851080 25400240
3454.87 25423140 25279540 25070960 24850440 24746990 24686210
3460.66 24622860 24597670 24492000 24270860 23970620 23621400
3466.44 23170060 22624220 22079300 21476610 20863330 20225300
3472.23 19475610 18755390 18039230 17225360 16460150 15676330
3478.01 14886650 14189890 13509560 12804420 12124440 11462860
3483.80 10764800 10109940 9513366 8928446 8460874 8153704
3489.58 7919454 7618334 7262330 6981220 6824214 6618268
3495.37 6300038 5954130 5619058 5392920 5212556 4992704
3501.15 4798606 4617788 4344358 4024910 3774056 3560596
3506.94 3337550 3179204 2939532 2736030 2613104 2436908
3512.72 2253586 2091640 1942148 1780828 1677778 1618322
3518.51 1545750 1414300 1323036 1275728 1257712 1192132
3524.30 1113358 1078684 1026590 967712 887986 818786
3530.08 751548 645596 580186 519514 492194 543586
3535.87 519684 441402 387670 339906 252428 235372
3541.65 345876 364402 362284 315726 345430 378548
3547.44 223526 175084 210418 289490 391732 336172
3553.22 201364 161364 194712 237012 241718 221196
3559.01 231292 217798 202190 225626 266394 319480
3564.79 566570 658122 667428 498144 147500 129764
3570.58 71614-27404-61102-49412-61148-26688
3576.36-48052-117606-9580 25212-83064-90976
3582.15-95130-68652 7628 409060 475974 503872
3587.94 624312 101818-80768 880 166788 121424
3593.72 114638 246784 89308 34856 104400 109274
3599.51 172218 159060 72888 35534 33570 58352
3605.29 277764 341740 464358 1036422 589156 100688
3611.08 600564 672606 405260 417974 198858 324438
3616.86 538914 759848 1041030 559200 242556 200620
3622.65 175880 136988 226124 332348 850460 1829234
3628.43 2130172 1183308 311528 224422 387886 420052
3634.22 197484 159552 207006 273478 238466 181494
3640.00 176582 228640 264988 232896 304762 518358
3645.79 1116304 1206544 1767920 2069574 1448528 1119302
3651.57 480234 327444 346754 941852 1458338 667190
3657.36 256834 292776 259798 288224 278448 270402
3663.15 300398 283102 392882 403060 859156 1150370
3668.93 1771014 2495744 1187192 522018 972122 2050932
3674.72 2982388 1910212 712688 733944 838456 636418
3680.50 466892 414080 463946 492174 518534 484758
3686.29 1175632 2879808 2062822 936406 1435156 989716
3692.07 595310 567814 568338 566604 554074 523670
3697.86 561254 537706 789564 1200442 887970 558184
3703.64 567530 587430 616710 593150 960504 1423052
3709.43 1048972 1690972 2408532 1252934 730772 744430
3715.21 667730 686258 774294 886010 732732 748380
3721.00 1074354 980378 849834 952706 1109804 1208184
3726.79 908130 783144 855152 995116 1944700 2050290
3732.57 1355392 1804420 2042230 2331546 1897434 1246432
3738.36 1125076 1052006 1241786 1150906 1852896 4637252
3744.14 4388592 1683334 1303842 1573242 3376692 3246132
3749.93 1930682 3668646 3202394 1333904 1144658 1270400
3755.71 1402890 1126040 1207840 1638532 1382054 1022506
3761.50 1045306 1019254 1104414 1495326 1396724 1085218
3767.28 1114742 1634654 1913548 1341274 1127124 1095180
3773.07 1077798 1059008 1049284 1147568 1265288 1625168
3778.85 1695072 1348864 1312258 1302184 1352888 1521706
3784.64 1435376 1339250 1344960 1341122 1380034 1420396
3790.43 1422744 1403008 1408094 1460582 1669690 2085330
3796.21 1961660 1743686 1776624 2240072 3986428 3757716
3802.00 2246254 2048744 1878570 2347176 3431588 2755082
3807.78 1761828 1787154 1641826 1683002 1741360 1806054
3813.57 1906152 3570352 3922074 2169284 1850758 2051886
3819.35 2735854 3376986 2727696 1882776 1741068 1680064
3825.14 1825924 1935648 1677346 1587598 1559016 1967404
3830.92 2225872 1726648 1710338 2299462 1923394 2196848
3836.71 3961482 3002000 1685298 1988754 1722590 1436218
3842.49 1704382 1517638 1144994 1078914 1106556 1116208
3848.28 1296098 1182108 2247040 3312280 3476892 5272868
3854.07 3505050 1241504 1390370 1147040 986568 934798
3859.85 1189514 1422378 1169388 1174000 1909082 1740464
3865.64 998610 930170 1325408 2405552 2267138 1118972
3871.42 888018 1127676 1365576 1015722 753796 770176
3877.21 741226 996336 1463532 1271748 866452 975346
3882.99 929988 1631622 2202404 1251858 784678 855714
3888.78 878592 1567898 1805298 1126350 969268 965818
3894.56 873738 940558 1006284 1416148 1862470 1408776
3900.35 1749750 1865282 1655224 2125114 1679220 1362126
3906.13 1237552 1131782 1147566 1136874 1182950 1216326
3911.92 1248814 1304634 1340194 1402830 1762918 1742656
3917.70 1466218 1660242 1610046 1395960 1449634 1516186
3923.49 1656722 1657912 1413240 1393476 1508534 1562656
3929.28 1525400 1563558 1759976 1665132 1542958 1597968
3935.06 1534362 1439656 1479462 1515382 1515360 1505384
3940.85 1569974 1684290 1584816 1533354 1534940 1552626
3946.63 1597804 1543024 1605664 1602124 1497490 1480554
3952.42 1458206 1515940 1545648 1505740 1548288 1591826
3958.20 1612008 1637412 1681084 1727878 1682808 1693344
3963.99 1772994 1802472 1821168 1881040 1965292 2018756
3969.77 2032188 2148484 2231390 2248326 2354376
##END=
