##TITLE=Chloroform
##JCAMP-DX=4.24
##DATA TYPE=INFRARED SPECTRUM
##CLASS=IUPAC A
##ORIGIN=NIST, Analytical Chemistry Division, 301-975-3108
##OWNER=COPYRIGHT (C) 2000 by the U.S. Secretary of Commerce
##DATE=00/02/01
##$SPECTRA VERSION=1.10
##$UNCERTAINTY IN Y=2.2 % relative (B=1.2E-04,C=3.2E-09,D=1.1E-13)
##CAS NAME=Chloroform
##CAS REGISTRY NO=67-66-3
##MOLFORM=C H Cl3
##MP=-63.5 C
##BP=61.7 C
##$NIST SOURCE=QUANT-IR
##SPECTROMETER/DATA SYSTEM=IFS66V (Bruker)
##INSTRUMENT PARAMETERS=KBr Beam Splitter; MCT Detector; Multipass cell
##STATE=gas
##SAMPLE DESCRIPTION=Chloroform Primary Gas Standard
##PRESSURE=101.3 Pa
##TEMPERATURE=23 C
##SAMPLING PROCEDURE=1 L/min Flow
##RESOLUTION=1.9290
##DATA PROCESSING=NB Strong Apodization
##XUNITS=cm-1
##YUNITS=(micromol/mol)-1m-1 (base 10)
##XFACTOR=1.0
##YFACTOR=3.6379E-12
##DELTAX=0.9645
##FIRSTX=575.652
##LASTX=3974.605
##FIRSTY=-9.29E-07
##MAXX=3973.64
##MINX=575.65
##MAXY=.0027668
##MINY=-4.71E-06
##NPOINTS=3526
##XYDATA=(X++(Y..Y))
575.65-255568 58579-108948 42809 154032 183446
580.47 162985-96201-206582-149675-165514-218457
586.26-218862-243469 14370 56527 8980-57341
592.04-113399-73774-2207 9962 4151-38216
597.83 65101 72908 80787 139338 264996 310335
603.62 259934 173159 173321 199954 244520 274836
609.40 391873 418639 404758 315514 411362 540722
615.19 616713 531507 388214 299637 449622 925914
620.97 1199373 681229 289552 320107 798735 1238895
626.76 917600 484697 381955 331787 478187 537149
632.54 558978 499755 552631 541835 557102 482224
638.33 481276 429883 423764 321514 258690 171144
644.11 129057 106281 135118 95913 114038 98547
649.90 206548 229437 259467 291258 337714 385824
655.68 523182 575341 720220 762418 982864 1046404
661.47 1262127 1461219 1703643 1856349 2170177 2756311
667.25 3434696 4057701 5617962 7860491 11156374 14510687
673.04 16611228 15412806 11367139 5863824 3510568 4418558
678.83 5870529 7384709 8902996 10290611 11400425 11996530
684.61 12178163 11879021 11118380 9945369 8508446 6985700
690.40 5559888 4222266 3146659 2178328 1542062 1079820
696.18 790254 538916 406885 250427 181646 78962
701.97 73204 48321 48090 1742 37768 4988
707.75 41494 10630 7070-12665 48465 26014
713.54 115122 83506 88807 31392 113903 108061
719.32 160951 123484 230827 225399 332319 325003
725.11 429331 486512 695030 779336 1004569 1136610
730.89 1389729 1591356 1969768 2290563 2841329 3379738
736.68 4147089 4885544 5890479 6983257 8405626 9910534
742.47 11786869 13846612 16363845 18958935 22008275 25204276
748.25 29014680 33141500 38386016 44571476 52032758 60087388
754.04 69235430 80160956 93386232 109038428 128532355 151924400
759.82 179904420 213087664 252497735 298139592 351799134 411933813
765.61 478564667 547586300 615975082 676858034 723499935 750608784
771.39 760540430 743571292 717127437 704346154 686782769 633556028
777.18 523028708 418085793 334556405 268608443 214883380 172295293
782.96 137569232 110637053 88724177 71728872 57755060 47108665
788.75 38271399 31627640 26128454 22180424 18716439 16010721
794.53 13385416 11308560 9202615 7402554 5624841 4618887
800.32 3593652 2839158 2118046 1772719 1347504 1142090
806.11 839656 723872 496195 499336 357406 331922
811.89 165204 191397 99232 134681 32600 77162
817.68 43063 155789 63848 70599-49773-15544
823.46-8634 67170 41546 95698 38039 129201
829.25 110304 142953 81881 186866 199613 275929
835.03 262998 369866 374608 417711 406134 501610
840.82 462117 519086 543424 647286 695338 775992
846.60 759114 950982 1185123 1318487 1263878 1314019
852.39 1402360 1604028 1618990 1626947 1455529 1319571
858.17 1136489 957580 697096 623287 502854 364547
863.96 226346 263935 291257 283147 169872 160194
869.75 106929 149639 118446 116857 78375 109695
875.53 104815 139177 116670 111354 53945 69076
881.32 59599 69165 16988 30637-3931 21175
887.10-3248 6079-13433 12794-23488-13057
892.89-39732-13030-33768 7388-1526 22460
898.67 13008 48133 52388 84086 59892 128276
904.46 175679 232451 259938 329658 364684 452915
910.24 513851 643972 691888 772873 836391 909542
916.03 944542 1016352 1058874 1100698 1133152 1204519
921.81 1194120 1200667 1216939 1315496 1398707 1459462
927.60 1414859 1530544 1790165 1807796 1435049 1318356
933.39 1539490 1584202 1112457 732551 695969 780723
939.17 864509 962339 1018386 1051628 1004344 980657
944.96 922777 841191 720208 642910 551365 474045
950.74 370788 310267 257998 201353 161094 161288
956.53 117288 124051 93840 90813 67227 57857
962.31 64965 90152 48786 49108 38881 35915
968.10 36280 65866 52131 41481 15576 12680
973.88-12978-21270-58101-36719-25946-25269
979.67-47154-50611-61612-29725-35929-58101
985.45-89366-74318-77457-79255-81798-46259
991.24-46933-56080-66641-49377-47257-36198
997.03-51689-58561-56461-10930-11382-29238
1002.81-46317-24431-26437 25933 53627 53385
1008.60 54488 86612 83502 116076 135025 187042
1014.38 227232 303621 339186 359396 379138 436882
1020.17 497405 556851 538564 534252 538050 565986
1025.95 546000 559849 568156 574942 580459 599859
1031.74 589679 571535 540634 550364 541271 529128
1037.52 454400 391878 336310 305772 230873 168045
1043.31 103862 49898-3559-16641-25097 5987
1049.09-12197-13411-24614-21266-37721-33099
1054.88-37156-49462-63894-40049-64870-51689
1060.67-53727-42140-55336-55065-94100-103545
1066.45-94849-80462-43853-39224-63260-45026
1072.24-64672-61096-77369-59100-68086-55966
1078.02-69549-78294-84932-67502-85539-91086
1083.81-91589-84425-96941-79637-78226-64846
1089.59-76711-51433-48380-59604-81465-71836
1095.38-75484-85944-101657-77099-55150-33111
1101.16-87569-93099-74877-42163-49774-69944
1106.95-95031-83651-89397-81711-97771-64957
1112.73-63814-67747-88997-82881-91433-81546
1118.52-92411-83207-77008-84240-96930-57757
1124.31-64700-69543-67100-73781-78219-55136
1130.09-60779-61344-85145-79529-71774-64261
1135.88-84314-75078-86897-57067-48450-73652
1141.66-65162-28334-54025-54337-59880-41183
1147.45-78027-87166-75973-63671-93654-81063
1153.23-79434-74466-95057-63720-54066-87580
1159.02-108613-73560-48783-43497-64703-69668
1164.80-65389-54839-48816-21928-37615-39110
1170.59-55032-34534-33137-238 1345 25383
1176.37 35023 53650 63492 104562 113212 158013
1182.16 190689 251758 296283 362313 409395 519228
1187.95 602501 694955 733768 769155 813904 929275
1193.73 1055888 1269667 1487465 1841172 2255450 2818538
1199.52 3487946 4392119 5459127 6821131 8418670 10357796
1205.30 12526529 15198811 18675586 23175501 28096473 33777572
1211.09 40527120 49116609 59753962 72775689 88279031 107046331
1216.87 127490138 140493188 140307455 137103741 123345470 101900935
1222.66 83064262 67419324 54840927 44530186 36255935 29440015
1228.44 23989169 19481645 15931400 13013031 10661095 8685465
1234.23 7152731 5841919 4807863 3905952 3216692 2642855
1240.01 2182830 1733534 1403399 1116654 922800 733568
1245.80 603685 482564 407159 319891 274144 193253
1251.59 137980 97586 83289 51559 33845-6688
1257.37 160-19681-19973-13615-19383-59674
1263.16-40445-58652-61861-68094-54718-60966
1268.94-62504-71775-48226-56668-44514-42312
1274.73-33311-52926-79998-93581-46783-38576
1280.51-55614-70926-62423-72691-76217-72241
1286.30-61645-59509-54151-56016-47526-62178
1292.08-71965-80552-77116-81389-85686-77930
1297.87-74837-76175-51419-51762-49017-71118
1303.65-80985-63065-65152-91295-89054-85328
1309.44-70808-54142-39945-68642-86744-86452
1315.23-73148-78283-81653-69834-42502-54011
1321.01-63698-63613-35194-37979-44235-46384
1326.80-33763-28233-17081-29543-18744-8068
1332.58-7046-4011 6562 1415-10641-53652
1338.37-56876-62353-19033 19971 40795 37881
1344.15 24652-10471-39178-36660-36274-70783
1349.94-115588-147274-165788-141319-89252-72075
1355.72-25718-39634-57122-96270-160731-164230
1361.51-191769-195357-126676-112644-91618-61113
1367.29-52533-87160-89127-80816-87657-150091
1373.08-179014-125049-68024-40122-47542-56931
1378.87-62654-56136-33015-47428-43665-44695
1384.65-53754-136316-206988-107361-19446-34362
1390.44-49456-57817-93578-200412-181496-117037
1396.22-70564-96382-145790-106565-43474-21677
1402.01-8737-23552-84767-57649-14674-16025
1407.79-28799-49019-35651-11933 7882-21367
1413.58-13980 7081 14980-21808-149349-321994
1419.36-81707 137879 162744 146800 203984 303530
1425.15 384496 420685 475920 535919 601494 744383
1430.93 890662 995859 1128495 1259728 1259252 1215728
1436.72 1612967 1955558 2135368 2313479 2444786 2468743
1442.51 2588220 2629115 2459068 2453859 2331299 1948675
1448.29 1817992 1683410 1340529 993999 773193 564381
1454.08 348769-100875-447128-209980-29643 61734
1459.86 105287 107558 93947 59553-47679 53849
1465.65 212553 259752 317336 340280 308010 111174
1471.43-7298 23681 177089 261832 213663 324813
1477.22 394391 401834 381598 343211 346328 354027
1483.00 344240 358754 330160 231556 184064 167568
1488.79 44353 14498 74127 105932 79441 43180
1494.57-219005-341936-140891-171073-118155 5423
1500.36 13278 23308 44790-58534-442951-667370
1506.15-592890-243915-18379 70442 149086 128575
1511.93 196918 303655 304375 300706 220945 296976
1517.72 483292 448886 177907 151550 472557 716647
1523.50 785973 738850 904925 990963 1069570 1174053
1529.29 1268166 1293665 1285404 1170216 1217191 1418434
1535.07 1521749 1548175 1311857 874583 948405 1284618
1540.86 1388112 1575016 1860139 1849094 1918103 2036158
1546.64 2013761 1878781 1647950 1436767 1302479 1181020
1552.43 1013354 854622 1089334 1165375 832637 403275
1558.21 388155 410402 797422 1008066 936813 802130
1564.00 671498 615416 553282 430563 201397 17438
1569.79 127109 181562 146205 77892-31794-511203
1575.57-618329-153872-16022-20617-41665-29123
1581.36-16823-5814-27524-19115-23072-16633
1587.14-12462-33496-49745-46556-50767-69809
1592.93-97266-97618-84653-72571-60755-69552
1598.71-72357-80285-80166-92358-97723-99010
1604.50-101717-92171-70869-83118-107379-112991
1610.28-88943-84422-84449-85259-150602-552117
1616.07-662099-236478-95736-92000-108346-115371
1621.85-241412-298657-142159-78627-127083-185901
1627.64-130958-76144-76495-82693-83955-116063
1633.43-334116-678057-485100-222088-156510-101875
1639.21-115909-113634-103072-76571-83482-268495
1645.00-538274-415986-308773-193456-106450-169266
1650.78-674015-1295264-1054099-488669-188866-91633
1656.57-94495-82861-73732-72986-127481-256555
1662.35-239099-96590-86778-56670-72743-177017
1668.14-401331-305993-205086-154797-95085-153187
1673.92-404935-343915-95552-56549-76364-116747
1679.71-117605-104099-239038-541052-940596-643016
1685.49-136307-93739-109252-119223-95816-89912
1691.28-75519-95841-142424-618059-867949-366812
1697.07-171812-398611-903377-727593-227332-100611
1702.85-178709-216200-209009-198441-93042-62136
1708.64-79027-104501-73772-75570-127551-260371
1714.42-288537-366651-698468-573898-254420-104822
1720.21-77799-89149-105761-99512-74037-96766
1725.99-98116-91048-107625-152303-125127-133642
1731.78-386577-706490-642613-270383-80691-80745
1737.56-116399-283456-232180-106936-126280-156543
1743.35-128224-108187-107201-145204-185138-196821
1749.13-197010-372497-278770-107444-75527-75440
1754.92-131148-186706-114533-77484-80729-138688
1760.71-267888-191945-76438-60075-51948-75297
1766.49-183129-242525-110211-121707-240759-439629
1772.28-378668-143131-91896-62578-38131-45764
1778.06-60165-90586-105233-44982-33025-69511
1783.85-122262-80116-38209-31910-40749-52116
1789.63-109854-192105-303585-173469-40135-50653
1795.42-31900-12668-13314-77698-72358-59219
1801.20-45158-9436 19345 21429 36864 34150
1806.99 31508 49092 34475 15905 66171 94592
1812.77 108281 104678 110204 112108 121942 132193
1818.56 155102 155170 143061 121004 116117 46481
1824.35-31242 5777 45373 39279-6616-4717
1830.13 136789 208077 219371 205496 185222 153188
1835.92 123018 104346 98127 68819 69154 51833
1841.70-3842-201013-228639-47647-16454-40159
1847.49-28053-21967-20468-21821-28093-28809
1853.27-37272-29942-17633-31836-48289-48770
1859.06-45152-49211-43123-44023-43626-55457
1864.84-71131-99614-127504-181460-190704-113919
1870.63-77377-75742-83245-72132-68497-72464
1876.41-82078-85563-71475-49139-53208-65071
1882.20-71724-68768-63559-55090-46879-71651
1887.99-103362-93696-40391-28688-14678-9949
1893.77-33931-44548-32198-42640-50427-48166
1899.56-38575-50818-60957-60917-54463-60082
1905.34-69411-87950-91794-87050-87210-84662
1911.13-83101-76668-69989-73330-61221-98528
1916.91-168343-122858-77742-83073-81124-105825
1922.70-88274-61565-49717-52203-65475-68567
1928.48-68669-70933-77114-74031-54550-58278
1934.27-81024-100996-85744-78792-73680-65579
1940.05-59885-101258-100803-70687-86832-96726
1945.84-81047-72699-71121-64526-46885-53638
1951.63-50676-41710-49848-72329-59570-52235
1957.41-51736-51226-39196-36516-27300-34786
1963.20-35121-40688-54968-72438-69186-54457
1968.98-45416-43542-25922-20347-11694-34502
1974.77-57089-41434-32193-33963-24362-13949
1980.55-12396-14633-18636-31039-30867-38233
1986.34-39950-39123-24402-7428-15118-35123
1992.12-14615-30068-36454-41615-47421-40163
1997.91-30805-33647-34206-46748-34427-29188
2003.69-33883-37176-40267-44080-24982-34630
2009.48-40721-34942-38409-47528-54675-64486
2015.27-75458-65385-47702-57815-53200-54757
2021.05-57493-59473-59152-63580-53541-59045
2026.84-64218-66972-64684-69048-69839-76297
2032.62-74866-73484-65195-57384-45107-57909
2038.41-63515-81376-83693-67593-59838-66841
2044.19-71655-78994-82146-65814-63602-69402
2049.98-59685-67694-85740-89829-70134-74026
2055.76-63553-49939-56194-79898-75620-76969
2061.55-66970-63585-69520-51112-59578-93801
2067.33-87732-78397-71641-74649-64122-66756
2073.12-72459-69291-71047-76968-61708-68989
2078.91-82160-84623-81642-78104-74515-84048
2084.69-80643-77182-70044-78374-87389-87712
2090.48-64466-73454-84725-96002-84850-67020
2096.26-58821-83347-87143-73168-60395-74372
2102.05-95048-95379-85231-76773-68954-76536
2107.83-68694-70793-88882-98568-67893-69568
2113.62-70414-89034-63224-55277-68022-79691
2119.40-56986-52761-60941-102394-101663-69544
2125.19-60604-75852-67631-57657-70485-84565
2130.97-79290-77011-69840-69078-59651-52027
2136.76-51978-55936-58310-66984-65454-54705
2142.55-53765-70184-77667-77338-67237-67970
2148.33-65165-71731-68860-63388-64644-77609
2154.12-73078-52904-61154-88977-74165-56434
2159.90-58179-73408-58077-44221-68558-86629
2165.69-56142-50487-78511-95570-74931-71034
2171.47-69358-57146-42949-55924-64769-49325
2177.26-62628-82460-73371-47683-46319-55085
2183.04-36821-18811-32762-46254-15917-17035
2188.83-41149-42479-22879-19574-7962 214
2194.61-4770-8932-10591-1374 24874 17888
2200.40 3660 8577 21516 34223 31780 27623
2206.19 48003 51436 42084 28041 35615 32758
2211.97 39450 61606 66448 38435 30964 22591
2217.76 13016 11876 9156 11541 6436-10361
2223.54-11597 5676 16007-5445 12352 32709
2229.33 38971 41323 39617 30366 39361 33663
2235.11 36312 42854 58821 50531 32842 30882
2240.90 29340 24943 36967 13931 5371 3539
2246.68-14536-29335-31974-22331-7150-13134
2252.47-15436-25140-25291-21998-28243-37590
2258.25-31855-20901-31395-46565-33401-33825
2264.04-26220-16316-11020-18201-16095-9435
2269.83-29396-31006-4911-4504-3943-416
2275.61 15019 4995 3253 9941 27938 30019
2281.40 26843 43965 51496 53487 77169 77694
2287.18 69047 65714 76745 68949 71774 75572
2292.97 58270 23861 19102 18880 11590-6080
2298.75-13210-14863-12451-18752-30157-16882
2304.54-22407-20191-8427 4565 19947 14958
2310.32 27265 14529 46340 52535 85672 64248
2316.11 101437 89128 125518 119087 178717 181386
2321.89 223137 217218 261002 257512 289558 295425
2327.68 338970 335776 371665 387453 415897 410831
2333.47 430507 415454 437420 435732 442187 412742
2339.25 407339 402297 393977 352055 306589 251516
2345.04 203290 163414 120764 62229 77020 131056
2350.82 202096 253775 324368 369900 422532 483508
2356.61 534728 556205 573622 576507 594677 591179
2362.39 580102 549749 525116 499601 468219 422906
2368.18 396709 352999 299241 242891 200607 151013
2373.96 124343 91715 71802 64327 54880 54075
2379.75 53245 18128-6375 116 17459 37876
2385.53 62206 80323 103719 121855 139883 179287
2391.32 235720 301476 349171 398001 460103 556267
2397.11 631138 596289 503458 450255 397448 395598
2402.89 356776 335511 382315 790728 2034510 3828040
2408.68 3261132 1041930 298666 259007 378022 460997
2414.46 554669 614878 705055 741391 771171 749808
2420.25 742830 704449 659308 572119 511209 429163
2426.03 380812 334607 306468 269279 241960 186212
2431.82 152554 114402 92198 64700 83688 123337
2437.60 191434 263652 333730 358463 363647 300686
2443.39 231221 173835 158229 132329 144102 165740
2449.17 178791 179648 208073 199623 208168 221987
2454.96 227265 216630 221855 208309 198020 175346
2460.75 160370 126504 126535 112239 101905 84123
2466.53 73947 65058 59228 28994 10421-13018
2472.32-6800-10906-21795-27298-30479-51944
2478.10-52606-67191-52773-46107-56390-75908
2483.89-67245-75220-67959-60566-57404-71161
2489.67-73917-68033-53921-66997-66939-73717
2495.46-67631-84986-83062-86309-78777-56178
2501.24-40639-63684-73558-66945-44191-61039
2507.03-82783-90441-78432-85002-73876-76032
2512.81-66526-77662-66480-50228-48308-68123
2518.60-77532-96425-96299-74094-63149-82207
2524.39-83701-100779-90940-75144-64828-82516
2530.17-74426-66658-73458-93794-88486-93035
2535.96-76620-71025-71547-83668-81787-100170
2541.74-94796-86137-82124-99131-84818-91154
2547.53-84479-87165-82721-84411-90151-103902
2553.31-88622-83090-90371-107366-99790-104221
2559.10-84204-79516-72906-82650-75737-53578
2564.88-48243-61566-47323-64025-75423-96550
2570.67-112134-125428-123179-110819-81092-78577
2576.45-77641-81094-89709-74995-44608-43532
2582.24-50903-64626-67761-88992-81950-86855
2588.03-80629-89140-104338-124255-101682-80320
2593.81-55444-60605-69342-94068-79171-80928
2599.60-97621-92781-75495-81258-73799-89813
2605.38-80257-72943-78673-92952-82926-98540
2611.17-91427-90878-71421-71233-64453-68982
2616.95-73900-78350-87463-94565-94506-101000
2622.74-88386-78169-66832-81422-89918-81478
2628.52-64403-73218-72436-92685-93241-84130
2634.31-68731-70075-69442-72098-64933-68503
2640.09-66603-65096-57123-80484-82221-69825
2645.88-51665-58535-77301-93283-91864-91251
2651.66-69014-62532-70749-69124-67650-90966
2657.45-102196-95696-88966-88979-65076-60039
2663.24-54880-79859-76357-79531-84357-99083
2669.02-86555-74173-62162-77996-90587-99622
2674.81-62723-82350-93497-68296-54678-73440
2680.59-77881-80875-71785-70765-51918-54659
2686.38-67098-68474-71150-80722-61923-73325
2692.16-83689-94700-95711-115588-110188-123433
2697.95-123003-110978-83037-89106-100823-95393
2703.73-77946-62539-48403-32532-25712-26781
2709.52-34373-58524-67546-83223-90703-95567
2715.30-86427-79389-78581-68480-64719-96280
2721.09-112227-128096-113857-88855-87514-102526
2726.88-77450-67214-62939-80984-81884-74179
2732.66-52603-66858-65708-68156-56422-70679
2738.45-83649-85772-69714-75926-75616-87903
2744.23-73508-80183-82068-82268-75518-81267
2750.02-89483-102299-78970-63273-80633-117032
2755.80-109706-94235-95268-105398-89785-89236
2761.59-73464-81321-95056-105975-102361-88386
2767.37-63470-81231-111121-111060-87985-76434
2773.16-71388-83709-105935-126733-98513-75923
2778.94-88412-86768-65972-62771-71294-93768
2784.73-94235-100355-93196-84792-68931-82578
2790.52-99840-111606-94941-77947-76282-94571
2796.30-60621-58077-81002-99225-93305-105071
2802.09-113893-114715-74704-99369-113005-91732
2807.87-78873-82003-76828-95385-115794-132572
2813.66-136290-121845-98373-92665-94258-110817
2819.44-102072-95037-87725-93241-95854-85794
2825.23-60974-84239-83202-76341-60078-48553
2831.01-43804-71733-80173-104559-113270-112277
2836.80-91918-84054-68950-74058-83562-83653
2842.58-82424-93707-89323-95787-77524-76912
2848.37-98696-99848-78231-97048-97987-114225
2854.16-134835-132335-113481-94335-65180-78894
2859.94-104810-95896-73126-96665-117723-126413
2865.73-122262-132335-117764-111557-72340-86962
2871.51-107486-106875-109289-121282-94823-87839
2877.30-93398-102923-106661-104054-106857-102014
2883.08-114648-148062-138389-124285-105384-113199
2888.87-117786-96699-83014-98244-118177-147183
2894.65-136920-112344-77151-79849-65043-72835
2900.44-80785-110223-108851-132262-134372-100443
2906.22-103436-107990-88653-98497-95494-107376
2912.01-104140-125244-149743-145229-119740-118349
2917.80-119922-157264-153903-131643-129689-156798
2923.58-156565-156677-120774-135496-135599-141790
2929.37-147858-144175-132613-125247-112728-134486
2935.15-125276-144767-149508-140587-125428-131248
2940.94-120990-109179-90687-103960-127520-135920
2946.72-125187-111299-115058-136980-130365-118170
2952.51-111617-102112-87428-99888-113221-119138
2958.29-115772-141014-155917-148311-91851-107418
2964.08-135519-159043-169889-173820-162901-188446
2969.86-168889-147335-133986-144401-172779-173537
2975.65-133678-139081-149686-146671-121265-124494
2981.44-141346-153593-110466-105606-90406-87658
2987.22-86372-86554-91181-115265-72586-76096
2993.01-98766-88973-91668-117566-101967-91611
2998.79-77357-95875-102550-132386-121286-106504
3004.58-103360-124241-91426-75940-74457-79926
3010.36-44204-31794-11211-4717 22750 54458
3016.15 113423 99848 123343 123268 161811 164271
3021.93 221599 238592 219303 162502 131766 80675
3027.72 136600 116341 53642 243965 1763004 2489204
3033.50 1156164 298415 87217 107451 108771 167780
3039.29 220008 282328 287556 284081 295940 307268
3045.08 290100 260890 204506 185495 144143 102141
3050.86 68400 34871-242-19161-59283-76699
3056.65-43281-37381-60398-74705-97140-105572
3062.43-107064-103033-89492-76419-83846-83050
3068.22-67262-84343-94452-77297-62367-72036
3074.00-71800-62601-54524-66945-79809-75425
3079.79-70067-89569-79178-50527-48756-91083
3085.57-89129-44072-18768-40248-51678-75635
3091.36-52262-20337-17173-43203-42480-65679
3097.14-85303-48309-16043-33186-50970-67896
3102.93-56994-40709-37349-35785-10730-9413
3108.72-120-4310-10200-3517 8949-16728
3114.50-28557-47994-34341-12646-7421-400
3120.29 406-38904-58573-45116-23166 1538
3126.07 18318 23175 7028 20617 29803 25444
3131.86 33282 6134-16090-7890 22358-3706
3137.64-5002-675 6495 22217 11766-13844
3143.43-10871-16022 1198 22097 31836 7513
3149.21-9090 4561 22873 14603 25556 33849
3155.00 48781 27761 24623 51852 62562 51599
3160.78 33853 16972 38375 61999 73767 34077
3166.57 12659-6547 608-18813-4375 32934
3172.36 55591 41351 12382 3210 16919 14942
3178.14 19060 17146 33738 42231 41379 34610
3183.93 50881 35174 35465 35182 35276 22221
3189.71 4284-11597-7613 3527 16418-2952
3195.50 16688 36663 28431 394 19866 10039
3201.28 12668 19443 40246 22480 5835 2622
3207.07 11555 3606 23881 41102 43994 18647
3212.85 5615 888 27016 36450 65871 42143
3218.64 27589 27697 54197 33545 11938 2089
3224.42-1685-2967 41538 35060 41259 70893
3230.21 67146 30831 18692 17840 32810 28199
3236.00 24005 19020 33486 44172 54315 66145
3241.78 64770 56588 53669 35199 47542 59077
3247.57 48898 4105 30269 53886 77475 40748
3253.35 36481 49113 38418 33375 35792 16431
3259.14 25896 34205 65228 56932 33720 18637
3264.92 28773 27971 54269 69366 62381 16667
3270.71 14135 32145 23407 10020 32315 10647
3276.49-2634 7598 9801 9235 4317 8358
3282.28 28644 14174-8845 9498 31117 35920
3288.06 46530 19887-2392-1410 12811-1525
3293.85 5759-2178 11767 38876 57791 28889
3299.64 27098 28089-9521-30771 6245 12027
3305.42-14060 6711 22753-5233-11697-21008
3311.21-12296-35219-39669-51519-23606-36847
3316.99-36764-52805-50601-40695-35833-30232
3322.78-33712-35307-37453-69061-46368-8818
3328.56-8179-41069-44419-47321-40048-54302
3334.35-34920-50138-36800-25212-38004-55066
3340.13-58060-31024-15024-48748-57686-34005
3345.92-52605-77982-53352-40124-36521-36324
3351.70-49397-84578-85905-47557-35186-72576
3357.49-69878-43836-30627-52970-68098-68402
3363.28-63823-67593-37413-56727-51393-42960
3369.06-51793-83630-82787-91864-79233-79102
3374.85-80795-59624-54226-98968-94071-101832
3380.63-111923-78197-38618-34056-12443-21942
3386.42-40597-44196-35275-50850-32751-48996
3392.20-77528-118102-93009-67778-22901 13556
3397.99-7452-54284-41702-31231-46875-63253
3403.77-48555-31859-21604-61062-61650-68390
3409.56-61946-64262-13973 3199-58380-89110
3415.34-57254-32007-56576-67736-63965-74919
3421.13-52301-29675-11385-38780-39722-66102
3426.92-82074-86490-105216-87615-31967-37400
3432.70-59622-34981-1913-32320-71274-106254
3438.49-114695-95331-87946-95101-104989-86966
3444.27-52321-89699-99980-104449-86597-98197
3450.06-66861-55293-50361-74408-81289-71464
3455.84-83822-67055-57238-110065-97051-83200
3461.63-28989-28482-74672-66395-25013-74123
3467.41-94419-81374-82253-135418-127213-72929
3473.20-60269-91445-65486-58414-67743-89389
3478.98-102314-104878-86821-96317-79442-100605
3484.77-127437-101708-85524-113317-120935-131473
3490.56-92503-98586-131392-129459-109163-113949
3496.34-91492-112330-131231-138654-117217-114583
3502.13-122267-149978-147704-125821-106150-128122
3507.91-140218-153684-118363-129311-132895-123632
3513.70-114521-90019-83658-101144-130695-159215
3519.48-118250-117832-124053-122899-116212-124793
3525.27-127213-134751-143918-159866-150907-137379
3531.05-124928-111036-65917-76379-115260-127319
3536.84-109702-146822-147628-119974-89489-122068
3542.62-109824-136058-154108-135202-120329-117010
3548.41-90181-122247-151203-169388-130086-111984
3554.20-94454-98616-94732-97645-89701-89031
3559.98-93011-130587-135920-118585-120463-183803
3565.77-184027-190205-159045-126723-152957-158136
3571.55-119971-90591-78814-84599-103124-133347
3577.34-109608-88435-101931-105750-109349-107010
3583.12-79033-77230-172380-224992-225444-262352
3588.91-156519-94675-72616-128957-114856-105511
3594.69-114646-73752-43634-59800-50999-101404
3600.48-73182-57757-83886-77358-69052-147325
3606.26-189790-235497-307796-203426-121306-231186
3612.05-230534-165234-141113-113538-141543-195820
3617.84-258038-320066-178951-111800-80370-104769
3623.62-82829-100001-131458-297002-515797-572065
3629.41-330020-142590-103537-164861-160345-99236
3635.19-72487-96336-121361-123421-117384-137562
3640.98-125163-102904-60488-92792-146439-307909
3646.76-379678-520704-571730-430971-334641-180591
3652.55-113899-113718-258787-373712-197712-114359
3658.33-127944-125761-119896-102899-107498-141218
3664.12-135823-136820-126272-231329-326104-467242
3669.90-607594-318935-179443-242134-497458-716897
3675.69-495955-200696-154274-156490-105095-78986
3681.48-105738-101386-95588-77234-74940-239399
3687.26-608991-423297-152221-200165-98539-21768
3693.05-31817-17721 6832 5881-1107 12410
3698.83 30602 42363 41794 210645 350067 307241
3704.62 192740 25444-61164-159961-206762-144258
3710.40-292276-415978-120373 2162 9001 30841
3716.19 24867-27460-69121-89675-125203-187525
3721.97-150729-118888-146566-205526-244217-171793
3727.76-115153-106366-166117-363691-389302-225022
3733.54-323645-388407-481495-386235-217299-168261
3739.33-190913-234579-219191-385562-1000896-962376
3745.12-349718-206896-279484-679970-638718-405050
3750.90-758817-634894-232735-152538-184135-229075
3756.69-168373-192894-276214-249588-149179-135156
3762.47-142628-156030-224093-215230-130264-148418
3768.26-259368-324421-206636-172828-158782-155130
3774.04-117104-141085-130855-146248-226291-274344
3779.83-168574-117828-115659-163644-167707-151130
3785.61-101694-92015-104856-127550-94079-121710
3791.40-116067-119526-122933-167503-236042-233340
3797.18-121611-86493-202393-576186-487972-157041
3802.97-58505-36476-177505-431233-289097-64227
3808.76-35241-34690-44919-57033-80183-178444
3814.54-574357-645860-231379-148488-221012-417048
3820.33-519672-395428-192824-160008-145273-212158
3826.11-208976-159756-127998-172796-282229-345933
3831.90-216784-213395-291003-258095-375411-763728
3837.68-523622-269917-297913-253628-188187-249966
3843.47-208987-132522-124292-147733-120954-166877
3849.25-224591-445741-676497-759228-1120253-696256
3855.04-224224-218555-189855-159445-170398-206509
3860.82-243844-213969-229978-365522-318719-181574
3866.61-175344-277266-540148-545992-250478-182128
3872.40-242871-304079-211188-152717-120323-132651
3878.18-223254-367014-304621-179219-134774-171628
3883.97-372558-488876-280926-159856-126472-171220
3889.75-296172-323521-171877-163812-138426-129285
3895.54-145678-187319-233096-320402-237991-322783
3901.32-329424-289384-339234-278775-241759-190240
3907.11-168193-171323-162033-181061-177603-165685
3912.89-143397-178771-186908-258190-245378-184403
3918.68-216715-208462-115414-102869-135469-173785
3924.46-163677-148351-151092-188454-226765-227615
3930.25-195137-219071-179820-146782-129818-137422
3936.04-137561-126445-104665-100942-114991-167958
3941.82-180289-154973-111395-98139-108801-134616
3947.61-147451-201920-195433-126963-111044-126566
3953.39-107148-99137-120892-145490-141514-147404
3959.18-170468-183762-184625-166178-132692-118398
3964.96-100766-131800-139772-136760-118525-89563
3970.75-89014-121485-143787-168851
##END=
