##TITLE=2-Propanol
##JCAMP-DX=4.24
##DATA TYPE=INFRARED SPECTRUM
##CLASS=IUPAC A
##ORIGIN=NIST, Anayltical Chemistry Division, 301-975-3108
##OWNER=COPYRIGHT (C) 1998 by the U.S. Secretary of Commerce
##DATE=98/10/1
##$SPECTRA VERSION=1.00
##$UNCERTAINTY IN Y=2.0 % relative (B=1.0E-04,C=6.5E-10,D=2.7E-14)
##CAS NAME=2-Propanol
##CAS REGISTRY NO=67-63-0
##MOLFORM=C H3 C H( O H) C H3
##MP=-89.5 C
##BP=82.4 C
##$NIST SOURCE=QUANT-IR
##SPECTROMETER/DATA SYSTEM=IFS66V (Bruker)
##INSTRUMENT PARAMETERS=KBr Beam splitter; MCT Detector; Multipass cell
##STATE=gas
##SAMPLE DESCRIPTION=2-Propanol Primary Gas Standard
##PRESSURE=101.3 kPa
##TEMPERATURE=23 C
##SAMPLING PROCEDURE=1 L/min Flow
##RESOLUTION=0.9640
##DATA PROCESSING=NB Strong Apodization
##XUNITS=cm-1
##YUNITS=(micromol/mol)-1m-1 (base 10)
##XFACTOR=1.0
##YFACTOR=4.5474E-13
##DELTAX=0.4820
##FIRSTX=575.169
##LASTX=3975.077
##FIRSTY=2.56E-06
##MAXX=3974.59
##MINX=575.17
##MAXY=.000623
##MINY=2.29E-07
##NPOINTS=7053
##XYDATA=(X++(Y..Y))
575.17 5637674 5846538 6102456 6219052 6107230 6159550
577.58 6472040 6888780 6829358 6392092 6276734 6149128
580.47 6054620 6362614 6754496 6618272 6485400 6485520
583.37 6343308 6307288 6499118 6683340 6670962 6567348
586.26 6694490 6777712 6824058 7029722 7222682 7075486
589.15 6947764 7111012 7329986 7046678 6740292 7061394
592.04 7176364 7252322 7605932 7892754 8030666 7975976
594.94 7631000 7495360 7665522 7572844 7621330 7810028
597.83 7809254 7998336 7983220 7885330 7704374 7710348
600.72 7839950 7863156 7866180 8006098 7870104 7650938
603.61 7683368 8142036 8391446 8405284 8288256 8218386
606.51 8244614 8112064 8054804 8175476 8359000 8597244
609.40 8623626 8540552 8457174 8515170 8487150 8430596
612.29 8304330 8231678 8449958 8409742 8275536 8236986
615.18 8421162 8668216 8718336 8707806 8703450 8848324
618.08 8925196 8869050 8816032 8808594 8857780 9071362
620.97 9264084 9279482 8979698 8705104 8659840 8714870
623.86 8937718 9154634 9248244 9306570 9412228 9578164
626.76 9475254 9180062 9021546 9102820 9108954 9036320
629.65 8889014 8754318 8770660 8846194 8875126 8969754
632.54 9046906 9139356 9136814 8950144 8914136 9041118
635.43 9138540 9089366 8996500 8916892 8945120 9163920
638.33 9174932 9219036 9238128 9251526 9005018 8997958
641.22 9122694 9165406 9147452 9119598 9142608 9165896
644.11 9048198 8949714 8994734 8961086 8932198 9060032
647.00 9034120 8923632 8794162 8593892 8563496 8630060
649.90 8502842 8501184 8521718 8441818 8489422 8477190
652.79 8346542 8254214 8301224 8218556 8118200 8178118
655.68 7946830 7832578 8013930 8123668 7976788 7923358
658.58 7951636 7815638 7648400 7613702 7750194 7735374
661.47 7691820 7608386 7416028 7416822 7461178 7412480
664.36 7469264 7478896 7606268 7580436 7232054 6660592
667.25 6317810 6550976 6843254 7060542 7171522 7107398
670.15 7057182 7176158 7277140 7223898 7082008 7071126
673.04 7051950 6971844 7016290 7058156 7016980 6973754
675.93 6950302 6932792 6989338 6850374 6656412 6565648
678.82 6458356 6613912 6689486 6627574 6583064 6681148
681.72 6680496 6572216 6401046 6261056 6330974 6451850
684.61 6488762 6312544 6166346 6312062 6411196 6359224
687.50 6246474 6096166 6095634 6299188 6337790 6262498
690.40 6317122 6192906 6078818 6041632 5932094 5862492
693.29 5723912 5727370 5722018 5648846 5691666 5796886
696.18 5912682 5915014 5805248 5759922 5741398 5858242
699.07 5914310 6049560 6133496 6119226 6020932 5941386
701.97 5994530 6077866 6084144 6076704 6025336 5941104
704.86 5893806 5834848 5848614 5890200 5921956 5753626
707.75 5648428 5712564 5581082 5485284 5513568 5513066
710.64 5592108 5616576 5540454 5443576 5368332 5258700
713.54 5169684 5175836 5135558 4993978 4921720 4857100
716.43 4957260 5011378 4970090 4985792 4946886 4855264
719.32 4794280 4875310 5013206 4935140 4877052 4858244
722.22 4814720 4753454 4740920 4721414 4630692 4595288
725.11 4582328 4528818 4484276 4510162 4427176 4315086
728.00 4297236 4260766 4203690 4213032 4243664 4143448
730.89 4049128 4052390 3983542 3900174 3814798 3737370
733.79 3625662 3580324 3558022 3528162 3544030 3536334
736.68 3490044 3440022 3357562 3401046 3369678 3296424
739.57 3241860 3140808 3078548 3049798 2949054 2932300
742.46 3014826 3002528 3003746 3055448 3000798 2869038
745.36 2845570 2893918 2840462 2808610 2715636 2645316
748.25 2621948 2582914 2575018 2591966 2519786 2459844
751.14 2410388 2420306 2449806 2499364 2515138 2547768
754.04 2521014 2456136 2461078 2432370 2330522 2328538
756.93 2350040 2328178 2297288 2345602 2428598 2353462
759.82 2358848 2326962 2251312 2217648 2189032 2205036
762.71 2292636 2330618 2229804 2230922 2269390 2286666
765.61 2353784 2417666 2445586 2436804 2424234 2381262
768.50 2329580 2283506 2355954 2489246 2559384 2525792
771.39 2510784 2503232 2517990 2565866 2626090 2718378
774.28 2854142 2882224 2952246 3088826 3244698 3362504
777.18 3413174 3487244 3597940 3732460 3886604 4162660
780.07 4436580 4549458 4658604 4869962 5133730 5377970
782.96 5792122 6227168 6628668 7128288 7677378 8144842
785.86 8587006 9092210 9680964 10406070 11164170 11822430
788.75 12607830 13526890 14433190 15351660 16305540 17465700
791.64 18639860 19839410 21166360 22435270 23740220 25111960
794.53 26526210 27955540 29358910 30720420 32137920 33615930
797.43 35145680 36704220 38286960 39663420 40887360 42198440
800.32 43621590 44873940 46015550 47055900 47938470 48684200
803.21 49520900 50224900 50843220 51282460 51735620 52259640
806.10 52533720 52813620 53113000 53387480 53809140 54391110
809.00 54997320 55627400 56344470 56958930 57529620 58216750
811.89 58902270 59464420 59842250 60010940 61248820 63886210
814.78 65663540 65556160 64433450 63327260 61997060 60679380
817.68 59723700 58222010 58739980 62148740 63940320 62463310
820.57 59942790 57786210 56319250 55501360 54927550 54743350
823.46 54773750 54931190 55152460 55642120 56108180 56614130
826.35 57102770 57286750 57340410 57410120 57209270 56682600
829.25 56062640 55395360 54549980 53383940 52059460 50678790
832.14 49253310 47558230 45558330 43634340 41709620 39703440
835.03 37706280 35704650 33706680 31876720 30122870 28325210
837.92 26451390 24698450 23288750 21911860 20495050 19189470
840.82 17962670 16860120 15862490 14938820 13985930 13088620
843.71 12335680 11728590 11194460 10485160 9896096 9453230
846.60 8948296 8487016 8114236 7799318 7469760 7175572
849.50 6880092 6670896 6431628 6148890 5898432 5768428
852.39 5667468 5446428 5322228 5270720 5138360 4981534
855.28 4813080 4641252 4548706 4437528 4312318 4252526
858.17 4134138 4077710 4034190 3992462 3937842 3784646
861.07 3720472 3720648 3607630 3581252 3569296 3482924
863.96 3483498 3537830 3498022 3478302 3437044 3378158
866.85 3396926 3370526 3374122 3377496 3414702 3435538
869.74 3388992 3387842 3352240 3353594 3421632 3341220
872.64 3268010 3372990 3381410 3288224 3239720 3293746
875.53 3328362 3274808 3243274 3247666 3284404 3309692
878.42 3293304 3252154 3280018 3339146 3344866 3387428
881.31 3451236 3514890 3489708 3512830 3568862 3593414
884.21 3677724 3683096 3678950 3732846 3782334 3835680
887.10 3894458 3990236 4032386 4094166 4202408 4324148
889.99 4401042 4462200 4533436 4632354 4763608 4899502
892.89 4965424 5038360 5170902 5287214 5397302 5532838
895.78 5696542 5828592 5996058 6146192 6320252 6532612
898.67 6688606 6816998 7024634 7232450 7376644 7643384
901.56 7923540 8189874 8478424 8710968 8987766 9386548
904.46 9723132 10048070 10350850 10724260 11165850 11544100
907.35 11952980 12430840 12942420 13455810 14017030 14618990
910.24 15197930 15816340 16446130 17104650 17895660 18709840
913.13 19584940 20511510 21536280 22618960 23689140 24807920
916.03 26084540 27439990 28908430 30519330 32323810 34278890
918.92 36331070 38300460 40005230 41734580 43849390 46336640
921.81 49032260 51830020 54799020 57997550 61371540 64957320
924.71 68823420 72918540 77199260 81715220 86510700 91648860
927.60 97031670 102739000 108905600 115235400 121372600 127935200
930.49 135024400 142256800 149801000 157534000 165436000 173671600
933.38 182077400 190359200 198748600 207510700 216234200 224887300
936.28 233375900 241443000 249058000 256430200 263404600 269826800
939.17 275807100 281309600 286425900 290996000 295081200 298621600
942.06 301540800 304080800 306513500 308344600 309384100 310383300
944.95 311676900 313226300 314626000 316632100 319243400 322476500
947.85 326973200 331930300 337748500 344091300 350465900 356733300
950.74 362536700 367490900 372056500 376864600 378995600 376341300
953.63 373765200 372823200 368309700 356244500 355376200 379074100
956.53 397390300 390735100 369304800 347950900 334721700 327679300
959.42 321568500 315304700 311115000 309491800 309746100 311500400
962.31 314279500 317419600 320554400 323586800 325889400 327307700
965.20 327796400 327271700 325563700 322442800 318072000 312399100
968.10 305949100 298693200 290104300 280641800 270542100 259684400
970.99 248093700 236188400 224097000 212014900 199831500 187738300
973.88 175748100 164092800 153052000 142600600 132443100 122809200
976.77 113737900 105198400 97117220 89652860 82767680 76417280
979.67 70491460 65123560 60186680 55622750 51424590 47651660
982.56 44233460 41185660 38393060 35867260 33561790 31486360
985.45 29607750 27888380 26295540 24880360 23727870 22666240
988.35 21664220 20811450 20078080 19366750 18642620 17998790
991.24 17374970 16827510 16380890 15957430 15469210 15062940
994.13 14714560 14407350 14132920 13904920 13663040 13435590
997.02 13222800 13056500 12834790 12655560 12529450 12418180
999.92 12290040 12145190 12039790 12018730 11993200 11960550
1002.81 11869080 11822560 11754510 11679960 11622450 11605580
1005.70 11556980 11552360 11558220 11559750 11543010 11540780
1008.59 11450760 11415530 11387200 11371950 11348830 11346320
1011.49 11348990 11312540 11241550 11236520 11199900 11138550
1014.38 11122830 11154180 11147940 11231410 11341680 11461320
1017.27 11563470 11679650 11877070 12111310 12368650 12617130
1020.17 12792120 12947300 13074940 13263930 13453930 13741220
1023.06 13972090 14237160 14495250 14748360 15006780 15326820
1025.95 15730710 16094780 16351730 16681030 17125950 17581400
1028.84 18005140 18482490 19043780 19641130 20195750 20776630
1031.74 21358630 22026570 22765230 23490580 24201500 25103940
1034.63 26101880 27165830 28210110 29260750 30405970 31720100
1037.52 33019990 34419480 35928660 37537120 39168210 40871050
1040.41 42700010 44605560 46514710 48676470 51061680 53588420
1043.31 56282630 59206720 62376060 65720520 68995510 72325880
1046.20 75783040 79253920 82744500 86454470 90225630 94208060
1049.09 98358340 102597100 106768600 111034000 115449400 119980400
1051.99 124537800 129149100 133644500 138086400 142435600 147000600
1054.88 151699600 156668700 161758300 166761400 171530900 176132900
1057.77 180565500 184960500 189390000 193920000 198060500 201881100
1060.66 204691400 206828400 208943200 211333000 214080700 217249800
1063.56 220676500 224358800 227715400 231433200 236344700 243148600
1066.45 250498000 256309200 261142800 267171900 273151600 277949400
1069.34 279987900 281029900 284377900 293374400 295598600 295127700
1072.23 302256600 301606900 294073500 287201800 283225800 281365200
1075.13 280215000 277759700 276201700 277667800 280395400 280360500
1078.02 280269200 279874100 277199000 275329400 275222500 274588900
1080.91 274207400 274491500 273304900 270780800 267478800 264305700
1083.81 262669600 262304900 262142500 261686000 260671900 259015800
1086.70 257501800 256556000 255841300 254825200 253044000 250429700
1089.59 247069100 242601300 237553900 232632500 227764900 222781100
1092.48 217912200 212767400 207682500 202633900 197667200 193044100
1095.38 188496600 183827500 179257300 174955800 170788300 166777300
1098.27 162883300 159312700 156030800 153031100 150255200 147713600
1101.16 145363600 143229500 141394800 139754800 138283800 137071000
1104.05 136114800 135424300 134981000 134801600 134874700 135083600
1106.95 135448800 136109300 137010000 137948000 139055800 140330200
1109.84 141669600 143151000 144919100 146768200 148672500 150688700
1112.73 152925600 155342700 157840200 160576800 163269900 165658800
1115.63 167977700 170313100 172845200 175736900 178650100 181597200
1118.52 184745400 187868200 190862600 193752200 196685900 199530600
1121.41 202365400 205156900 208228900 211510800 214572400 217672700
1124.30 220945800 224492000 228102300 231637700 234374600 236592200
1127.20 239566400 244392200 250116000 253308300 252593100 253223600
1130.09 257861900 262557000 266566400 268351600 264495000 262711900
1132.98 266245300 271251500 276391400 281401800 285899000 290858600
1135.87 295845900 303349200 309459100 310523600 309895200 310698000
1138.77 313721700 316505400 319261600 321421600 323736200 326410400
1141.66 329879900 333779400 338118800 342570700 346746500 350365000
1144.55 354113800 358171400 362868800 367542600 372406800 377183800
1147.45 381845800 386060100 389104500 391512900 393669200 395416200
1150.34 396850600 397460300 397475200 397098900 396522100 395633600
1153.23 394765900 393619200 392514400 391314400 389986200 388289500
1156.12 386034300 383094000 380171600 377038600 373595600 369898200
1159.02 366546900 363352500 360450700 357781800 355005700 351626400
1161.91 349150000 349326300 350413800 347107800 340761000 334431300
1164.80 326885100 319921900 315428000 312844200 310233800 307368400
1167.69 304956900 301414500 294377300 287360800 281513600 275507600
1170.59 270119000 265555900 261309800 257046000 251790800 246047500
1173.48 241175200 236778400 232645500 228538200 224448600 220181000
1176.37 215888300 211595600 207185700 202773500 198308600 193607600
1179.26 188653700 183473600 178253100 172747400 167212100 161926100
1182.16 156876900 151806100 146467100 141202000 135999100 130851200
1185.05 125759600 120737400 115913700 111197400 106606200 102190900
1187.94 98132930 94203610 90408450 86798910 83472240 80311980
1190.84 77405940 74626600 71955980 69521940 67334190 65202210
1193.73 63184500 61286940 59575660 57900480 56309620 54757060
1196.62 53342080 52084080 50923930 49756440 48645900 47665360
1199.51 46875760 46112290 45434780 44841190 44348320 43803680
1202.41 43315310 42880970 42563250 42170660 41864520 41707290
1205.30 41776660 41843990 41786380 41646960 41630660 41787440
1208.19 42089600 42384480 42763170 43197050 43670880 44226310
1211.08 44944600 45640000 46322110 46840020 47478150 48410680
1213.98 49716290 51184580 52571360 53687040 54828670 56071150
1216.87 57474600 58979920 60666080 62451470 64400530 66486570
1219.76 68760870 71050440 73387730 75802870 78459610 81167120
1222.66 84015020 86977780 90028940 93240130 96699890 100297800
1225.55 104007200 107720600 111589500 115588000 119740400 124031500
1228.44 128532700 132930000 137358200 141741000 146068000 150273800
1231.33 154489200 158728500 162999600 167207300 171427200 175522300
1234.23 179726500 183845200 187920900 191682900 195289300 198648800
1237.12 201754500 204281000 206253200 207835700 209206000 210298600
1240.01 211385000 212712100 214472200 215913400 216457700 215442600
1242.90 214417600 214203000 215129600 216539300 218202500 220110900
1245.80 222913800 227005800 232357400 237583500 242934300 248012300
1248.69 252537400 256613900 263344800 270553700 273009700 273459100
1251.58 276412200 261720600 250427200 255634400 257136500 252482800
1254.48 245440500 239241600 234310200 230478600 226957900 224111100
1257.37 221670900 219484000 217762200 216600700 215675400 215253300
1260.26 214276600 213438600 213191000 213259500 212958800 211946200
1263.15 210037200 207418500 203649800 199799900 196249600 192585600
1266.05 188686500 184677600 180416600 175859200 170799900 165751800
1268.94 160738500 155682400 150652400 145745700 140853900 136187600
1271.83 131109800 125349100 119881300 115294400 111301000 107609300
1274.72 103838800 99901660 95935530 92115620 88467570 85027510
1277.62 81823750 78947250 76163870 73536180 71108820 68826720
1280.51 66678820 64691050 62776060 60930490 59210050 57646380
1283.40 56098780 54575770 53066960 51670530 50374760 49107330
1286.30 47878140 46768350 45727460 44741740 43699410 42720960
1289.19 41777680 40893920 40088050 39333770 38558580 37942450
1292.08 37419030 36896580 36395720 35958070 35544760 35225920
1294.97 34937040 34724840 34531100 34356160 34215690 34077130
1297.87 33930500 33762160 33574920 33450320 33330410 33245140
1300.76 33168850 33146780 33145340 33178290 33178240 33181130
1303.65 33206990 33275700 33350910 33484380 33622680 33786020
1306.54 33971670 34189890 34340300 34524390 34783850 35063430
1309.44 35380170 35754300 36191520 36583700 36968380 37396140
1312.33 37846140 38314090 38835470 39433080 40116150 40887690
1315.22 41622860 42471220 43310400 44000720 44635760 45436330
1318.12 46253270 46947920 47698990 48610620 49664450 50792320
1321.01 51904280 52978210 53955220 54903540 55934410 57065440
1323.90 58281700 59577350 60931240 62350970 63768540 65237570
1326.79 66799500 68405610 69960440 71526060 73141110 74703240
1329.69 76208460 77748820 79159460 80479900 81774990 83008360
1332.58 84240860 85594350 87066700 88160820 88858540 89872740
1335.47 91157000 92460670 93573150 94652220 95902410 97423970
1338.36 98894920 99807590 100559200 101801000 103510000 105201400
1341.26 106934900 108674600 110244300 111521300 112271600 112079300
1344.15 111177800 110355300 111029000 114059900 118434500 121781100
1347.04 122802300 122294200 121834500 122570500 123893400 125264800
1349.94 126749900 128416500 130508100 132734200 135002000 137501200
1352.83 140308000 143540700 146813200 149775800 152483400 155075600
1355.72 157670100 160229200 162388200 164358000 166398300 168614900
1358.61 170886300 173355500 176004000 178496200 180742200 183259900
1361.51 186095800 188957500 192147200 195694100 199512000 203358600
1364.40 207328200 211558000 216153100 220993800 226186500 231850700
1367.29 237960400 244426900 251060500 257778200 265171000 273667400
1370.18 283164500 292682500 302267500 313539800 324031800 327130000
1373.08 327971900 332381400 338831600 345974200 353347200 360982800
1375.97 368446300 375325800 382113300 389128400 396460300 404710100
1378.86 414039800 423247100 429713600 434029800 438978800 445033900
1381.76 448300900 441362600 431426800 425741900 421783100 418911700
1384.65 417840800 417087000 415849700 414655300 413676300 411426000
1387.54 407664600 403741800 399935700 396155000 393446200 394599100
1390.43 399006100 402959300 404710800 405180600 405101000 403133200
1393.33 397876400 391518900 383826700 373951200 364198500 355435600
1396.22 346743300 337680600 328436700 318985400 309656600 300427400
1399.11 289928400 279544800 269666400 259032600 248533300 238779300
1402.00 229070900 219240400 209886000 201261500 193423200 186071000
1404.90 178985600 172215800 165962000 160235800 154914900 149853400
1407.79 144923200 139738100 134609400 129721000 124993800 120370200
1410.68 115932800 111704100 107683900 103862700 100150600 96616420
1413.58 93199500 89746400 86432510 83393700 80555160 77896640
1416.47 75498880 73348090 71226380 69026900 66989350 65151760
1419.36 63252710 61454060 59823660 58306460 56970350 55746000
1422.25 54618970 53626390 52802390 52063940 51402390 50820380
1425.15 50277180 49668320 48993440 48425340 47994290 47638860
1428.04 47427500 47256850 47179460 47192470 47185590 47219420
1430.93 47401800 47615950 47878680 48275250 48773610 49283240
1433.82 49660480 49978980 50456220 51026120 51703640 52436280
1436.72 52979040 53493750 54175160 54888070 55650900 56416640
1439.61 57198600 57928730 58748860 59530360 60269240 60979720
1442.50 61671700 62302860 62983810 63721260 64478680 65213140
1445.40 66002000 66784230 67643340 68417380 69305620 70219200
1448.29 71348840 72427940 73462660 74784140 75862400 76028710
1451.18 76441140 77549790 79347980 81683320 84549820 87863880
1454.07 90837080 93681050 96342220 96216020 97385500 100624600
1456.97 105153000 108925600 108692800 109891000 113804800 118236800
1459.86 122946300 127813800 132613700 138063900 144214200 149694200
1462.75 150793800 143036600 130889400 114269400 98379890 87993540
1465.64 81178260 77622840 75536540 74026140 74226850 76710830
1468.54 81184300 87617700 96024600 105551300 115696900 128552900
1471.43 141189400 148281200 161501400 170756600 152469200 127928100
1474.32 113269400 101829200 92552220 86229950 81032060 76952480
1477.21 74078480 72061160 70485470 69215870 68161380 67401800
1480.11 66798240 66365290 65895050 65431390 65026080 64745920
1483.00 64361030 63963900 63485740 63013370 62508950 61959180
1485.89 61274720 60605680 59903300 59117470 58188840 57285100
1488.79 56315340 55339300 54290090 53175160 51902630 50534720
1491.68 49220680 47993740 46659020 45217980 43672540 42084950
1494.57 40555450 39220750 38079770 36786910 35307740 34038990
1497.46 32802220 31658280 30518220 29302200 28084120 27017840
1500.36 26040770 24939630 23609840 22363580 21324680 20445740
1503.25 19533330 18659060 17904430 17331390 16758500 15958440
1506.14 15390720 14909520 14150450 13515900 13021140 12495170
1509.03 12046480 11634790 11176760 10762030 10406700 10149520
1511.93 9784638 9369162 9036052 8767280 8537146 8325860
1514.82 8057044 7808520 7665432 7536228 7373674 7154390
1517.71 6901604 6693790 6529456 6441716 6356750 6248914
1520.61 6274630 6120028 5793116 5698962 5538372 5386140
1523.50 5289818 5214146 5150760 5139390 4992236 4863986
1526.39 4823968 4798742 4698226 4645508 4556548 4492400
1529.28 4474258 4479152 4441300 4376528 4255078 4142636
1532.18 4093124 4097358 4102360 4041870 3910050 3829952
1535.07 3746732 3715530 3691276 3664396 3617796 3636868
1537.96 3736456 3939356 3824776 3735592 3769962 3584748
1540.85 3509902 3617150 3619694 3474344 3439198 3409822
1543.75 3350690 3357330 3387352 3318494 3227148 3194154
1546.64 3168570 3125816 3096860 3060384 3036212 3041608
1549.53 3009384 2955482 2900546 2873378 2841280 2849978
1552.43 2860838 2854732 2893832 2965524 2863434 2809330
1555.32 2780006 2750770 2746508 2823592 2844798 2968122
1558.21 3045220 2836428 2856298 3000104 2820388 2578854
1561.10 2536020 2532572 2543986 2498146 2454884 2463046
1564.00 2488532 2503820 2464154 2417606 2392306 2393574
1566.89 2391704 2382002 2395994 2432736 2478344 2529242
1569.78 2449130 2375540 2345488 2341644 2352842 2335116
1572.67 2332412 2300074 2287028 2265654 2276540 2396838
1575.57 2670850 2618088 2379836 2284700 2269654 2289144
1578.46 2274706 2239076 2246926 2294656 2273476 2250002
1581.35 2234436 2239054 2239502 2237768 2213728 2220416
1584.25 2208650 2178734 2161492 2167802 2163684 2148600
1587.14 2132984 2148660 2164276 2167264 2158378 2165792
1590.03 2200378 2197912 2184036 2196976 2178856 2177186
1592.92 2185306 2176090 2163624 2167330 2176428 2188640
1595.82 2168784 2137178 2129528 2118284 2111154 2117678
1598.71 2106720 2088608 2067748 2074804 2057370 2033252
1601.60 2047620 2040578 2015854 2035284 2029424 2014762
1604.49 2005408 2021606 2046822 2025006 2002210 1997064
1607.39 1981124 1967260 1989582 2011012 2035326 2030024
1610.28 2008746 2009874 1998854 1973136 1998234 2009580
1613.17 1993962 1979620 1994018 2012338 2036438 2111390
1616.07 2321596 2308658 2092036 2019306 2031358 2079474
1618.96 2099844 2068136 2032044 2070482 2071086 2050098
1621.85 2047006 2068778 2138610 2158040 2102170 2087764
1624.74 2091710 2100550 2116376 2148282 2161044 2217306
1627.64 2208208 2180550 2190786 2191336 2203342 2262912
1630.53 2283402 2335898 2375196 2386322 2370126 2405428
1633.42 2479286 2557940 2624096 2719920 2691366 2489904
1636.31 2457048 2498894 2491930 2485008 2478666 2485384
1639.21 2528886 2576600 2624484 2649474 2682486 2681724
1642.10 2697868 2718346 2763010 2813134 2868558 2934940
1644.99 3088940 3256232 3139902 3067024 3149550 3171312
1647.89 3170408 3153004 3167374 3196336 3226490 3218992
1650.78 3232522 3336100 3639410 3756806 3784598 3640246
1653.67 3509666 3553498 3482486 3440704 3428354 3440414
1656.56 3438970 3442894 3432710 3454222 3452994 3466718
1659.46 3478606 3497912 3520124 3570018 3603646 3675756
1662.35 3736586 3688390 3688784 3719840 3747280 3791274
1665.24 3813918 3779470 3754560 3763912 3771806 3801624
1668.13 3836612 3913274 3897616 3754188 3698254 3751784
1671.03 3849930 3825530 3771002 3739408 3731070 3708176
1673.92 3723918 3857704 3929500 3842308 3749934 3686272
1676.81 3681328 3646526 3622760 3652240 3692020 3719616
1679.71 3648450 3554464 3522010 3520072 3536446 3587124
1682.60 3651788 3669648 3701576 3916178 3936964 3632736
1685.49 3546720 3552302 3562258 3527380 3520298 3527748
1688.38 3538556 3516380 3513076 3481696 3453590 3409378
1691.28 3385802 3388778 3424788 3426584 3403288 3389576
1694.17 3433122 3540884 3806880 3811742 3522196 3462382
1697.06 3474372 3457498 3441054 3442512 3586358 3792268
1699.95 3779790 3677134 3491686 3415380 3420212 3421324
1702.85 3397102 3430298 3484838 3490062 3446084 3459140
1705.74 3501592 3475802 3438448 3444426 3472846 3508638
1708.63 3516484 3548266 3621556 3639418 3635614 3665780
1711.53 3681876 3661082 3648358 3687470 3735898 3739896
1714.42 3767986 3780520 3696350 3679346 3783808 3999436
1717.31 3930358 3852416 3929012 3954420 3973372 3982580
1720.20 3989616 4002602 4020532 4014750 3967482 3940040
1723.10 3956428 3958204 3985226 4022942 4029824 4051210
1725.99 4069320 4107144 4121556 4084620 4102834 4123504
1728.88 4159990 4239560 4328576 4431736 4600192 4705896
1731.77 4737440 4795094 4950396 4926358 4914862 5000688
1734.67 4859572 4760044 4741358 4732708 4720674 4771630
1737.56 4845760 4921278 4960992 5093972 5189650 5186780
1740.45 5219522 5294750 5419686 5547064 5663150 5794742
1743.34 5903710 6033306 6143624 6216418 6333818 6466378
1746.24 6574416 6701860 6843252 6965674 7054844 7186712
1749.13 7289520 7409262 7582748 7796568 7894838 7872798
1752.02 7917958 8003084 8101106 8180178 8233804 8326790
1754.92 8390044 8416602 8453692 8479458 8443318 8453030
1757.81 8489426 8516692 8508514 8494010 8511826 8513494
1760.70 8543546 8653440 8641738 8583690 8578216 8581082
1763.59 8615648 8659108 8683108 8729088 8770918 8791672
1766.49 8806576 8818448 8876818 8848420 8731264 8675010
1769.38 8723338 8791874 8707196 8581634 8631974 8879980
1772.27 8800918 8267760 7892946 7753706 7634258 7513124
1775.16 7436032 7379780 7379868 7369366 7357050 7374880
1778.06 7403152 7465438 7534080 7536360 7525136 7462544
1780.95 7319434 7207116 7096632 6931422 6756712 6591306
1783.84 6402656 6184940 5916718 5635474 5355186 5092618
1786.74 4824100 4591546 4339998 4072012 3805230 3559538
1789.63 3369094 3202720 3003344 2803080 2656052 2595060
1792.52 2419668 2190384 2066794 1980470 1885438 1790626
1795.41 1726300 1669354 1610992 1529680 1471220 1442916
1798.31 1408192 1384496 1350904 1255472 1206896 1234498
1801.20 1214024 1174680 1161978 1128172 1119428 1103074
1804.09 1108760 1133734 1166530 1153096 1150224 1159922
1806.98 1167190 1160442 1150868 1152674 1183492 1193000
1809.88 1216154 1229170 1222190 1245326 1278594 1291804
1812.77 1302094 1300662 1278872 1267976 1276186 1299642
1815.66 1331174 1344822 1351676 1335448 1327526 1339490
1818.56 1344006 1338446 1327698 1346476 1343430 1329546
1821.45 1350136 1378718 1396612 1404108 1417792 1433400
1824.34 1488272 1516254 1487746 1448364 1438796 1460488
1827.23 1454400 1441560 1479632 1517740 1553506 1589974
1830.13 1552486 1523798 1569792 1592740 1580050 1592594
1833.02 1589716 1554286 1565346 1589702 1590942 1556020
1835.91 1519432 1517116 1521332 1501408 1476432 1454856
1838.80 1445672 1465536 1464184 1446130 1449394 1435582
1841.70 1422938 1410704 1411222 1470520 1562432 1491148
1844.59 1399298 1394230 1385750 1381156 1357544 1368282
1847.48 1361928 1357024 1360952 1333096 1299906 1313574
1850.38 1333342 1358846 1350442 1348956 1372892 1405444
1853.27 1418660 1450480 1496362 1550578 1608554 1704844
1856.16 1852162 1989634 2070074 2041228 1941024 1858546
1859.05 1823094 1828932 1868300 1853442 1874264 1931962
1861.95 1962728 1982712 2017032 2035064 2039926 2025420
1864.84 2012936 2028002 2048152 2061926 2090492 2142132
1867.73 2173142 2213596 2335818 2366808 2347456 2386262
1870.62 2436516 2505270 2567846 2644418 2740570 2818422
1873.52 2891672 2951396 3003056 3039410 3048354 3083752
1876.41 3135678 3161996 3204776 3258936 3338466 3406940
1879.30 3438398 3487568 3580152 3666888 3741264 3794596
1882.20 3828160 3890726 3951676 3978052 4017094 4096160
1885.09 4168720 4226258 4305448 4368066 4445262 4526390
1887.98 4608806 4690192 4757064 4796978 4817154 4857402
1890.87 4890548 4926888 4969964 4979026 4989440 5001366
1893.77 5025020 5060094 5062392 5068742 5103612 5112898
1896.66 5107448 5098006 5103750 5151202 5171276 5188192
1899.55 5207000 5219938 5233182 5263610 5275208 5269144
1902.44 5287626 5272734 5241492 5291478 5362320 5346184
1905.34 5239656 5108252 4982012 5031690 5248562 5234878
1908.23 4933268 4689656 4567718 4448874 4332930 4238802
1911.12 4178744 4152456 4091890 4068452 4084194 4006244
1914.02 3907988 3849638 3834902 3820404 3766846 3707928
1916.91 3689440 3666134 3573818 3436796 3362010 3293086
1919.80 3188006 3046168 2939670 2865984 2770200 2631652
1922.69 2511724 2371524 2257858 2162872 2048042 1921372
1925.59 1815826 1704828 1565144 1472994 1399400 1316812
1928.48 1237658 1173464 1103488 1010588 923018 889016
1931.37 857438 825706 799842 757500 699056 644494
1934.26 608672 613564 617592 571542 556488 572672
1937.16 570408 558490 582766 587642 588158 564906
1940.05 535614 554658 560020 559680 571888 527348
1942.94 479662 476022 481216 485936 503730 520716
1945.84 528488 514416 526538 540682 544094 538752
1948.73 551642 561074 558394 567988 596558 615784
1951.62 627718 631866 656622 674282 715838 748152
1954.51 755396 778042 779270 790320 789894 784284
1957.41 800300 800536 793856 791678 787284 805418
1960.30 838210 846230 865538 873540 888754 905458
1963.19 923862 923264 929988 930098 931600 957312
1966.08 960308 972256 964144 943428 948986 966814
1968.98 967100 981508 1021672 1023882 1013688 1001666
1971.87 1022466 1046152 1075096 1098532 1146026 1155566
1974.76 1121410 1105408 1131038 1154462 1172762 1178878
1977.66 1181484 1187200 1230126 1261744 1246708 1221272
1980.55 1214848 1212338 1211626 1241452 1268506 1277908
1983.44 1278598 1275314 1286816 1271970 1250066 1214056
1986.33 1193982 1166350 1141402 1125886 1106698 1107462
1989.23 1105552 1075746 1089308 1108750 1097546 1108842
1992.12 1127978 1114824 1107382 1107340 1090694 1099702
1995.01 1131556 1156074 1133910 1133702 1155126 1150422
1997.90 1148664 1154550 1138068 1142182 1155800 1171348
2000.80 1176492 1169184 1190676 1219672 1234564 1211154
2003.69 1192190 1213024 1243170 1249408 1245344 1266604
2006.58 1319318 1366802 1383124 1383154 1371590 1375494
2009.48 1387998 1396716 1450960 1473920 1459416 1421536
2012.37 1415466 1427812 1461820 1475634 1465226 1482498
2015.26 1509304 1521028 1548020 1542064 1503342 1507366
2018.15 1531976 1545110 1578800 1570064 1594836 1616882
2021.05 1639658 1674680 1690226 1673452 1677200 1690372
2023.94 1722906 1750888 1731150 1745220 1778094 1805392
2026.83 1811036 1783054 1777244 1770626 1751790 1747818
2029.72 1793990 1831978 1804094 1778168 1773676 1734974
2032.62 1728290 1726000 1703330 1716790 1736362 1739210
2035.51 1724494 1720066 1718626 1717218 1752438 1750592
2038.40 1722580 1718086 1729998 1711308 1708360 1709486
2041.29 1719330 1707706 1695886 1694260 1657860 1646626
2044.19 1662066 1645044 1623312 1626934 1599180 1562114
2047.08 1577538 1584454 1583428 1566026 1566304 1580376
2049.97 1621554 1642972 1624614 1625176 1630800 1619908
2052.87 1657454 1681912 1690238 1719044 1763252 1780728
2055.76 1807330 1825320 1851474 1881752 1884718 1879928
2058.65 1921102 1979906 2003134 1969870 1969292 2001078
2061.54 2048198 2090064 2135784 2188448 2236030 2264440
2064.44 2247772 2265324 2279676 2271944 2336232 2390412
2067.33 2405634 2465070 2591448 2566346 2530008 2555018
2070.22 2586692 2615738 2651416 2677308 2726856 2842788
2073.11 2829584 2732248 2724994 2705832 2753172 2793814
2076.01 2832188 2877868 3015034 3010470 2916042 2902154
2078.90 2894950 2918042 2953386 2956474 2964824 3109718
2081.79 3118646 2981996 2968660 2928924 2894724 2886654
2084.69 2920314 2977844 3187938 3182724 2972508 2882534
2087.58 2870086 2857132 2808268 2773226 2834504 3042896
2090.47 2985990 2771510 2730904 2728348 2715320 2675158
2093.36 2667440 2770108 2976512 2804968 2600162 2526222
2096.26 2492200 2482940 2496346 2520318 2704470 2837380
2099.15 2521952 2369840 2342264 2295102 2256300 2282280
2102.04 2363096 2615386 2573156 2203120 2097848 2033750
2104.93 2021204 1991272 1970052 2086500 2392644 2155906
2107.83 1859106 1808060 1813192 1797084 1768952 1783920
2110.72 2071472 2223092 1860740 1711314 1668516 1664124
2113.61 1652982 1663192 1822174 2159206 1917596 1567598
2116.51 1495590 1507924 1521886 1531384 1609460 1952162
2119.40 2021940 1665342 1554800 1536956 1544134 1488836
2122.29 1526678 1776224 2020860 1723372 1550480 1519224
2125.18 1524148 1492296 1534818 1689358 1990060 1855096
2128.08 1640990 1599594 1614424 1620792 1635548 1740996
2130.97 1974194 1938068 1767092 1773294 1808594 1859142
2133.86 1922916 1992580 2196946 2270548 2201770 2230626
2136.75 2288358 2319266 2359372 2356866 2326004 2230626
2139.65 2093756 2070878 2092394 2061732 2017222 2006522
2142.54 2003748 1995048 2038730 2070296 2107826 2131678
2145.43 2177794 2240686 2341118 2373964 2334220 2364124
2148.33 2388826 2413962 2463782 2541994 2743524 2692092
2151.22 2556748 2566360 2598426 2633964 2665380 2856284
2154.11 3055484 2827186 2634156 2659688 2670636 2671196
2157.00 2749678 3098498 3228510 2932266 2827134 2824504
2159.90 2828956 2880100 3106100 3525086 3436478 3134552
2162.79 3117758 3107044 3138428 3182702 3551202 3784122
2165.68 3376214 3124556 3142800 3182048 3198256 3337714
2168.57 3762258 3597168 3151924 3060432 3040566 3065476
2171.47 3101910 3507554 3656070 3186302 3022242 3019698
2174.36 3036788 3064594 3341460 3686990 3377530 3098966
2177.25 3101394 3112140 3124178 3263954 3668154 3532522
2180.15 3247182 3257740 3328616 3353290 3473288 3876570
2183.04 3812162 3441994 3407028 3426556 3436186 3501654
2185.93 3848342 3865244 3543610 3537150 3587750 3606208
2188.82 3695318 4018824 4042878 3783328 3759018 3749600
2191.72 3795230 3881686 4131958 4094524 3863044 3806424
2194.61 3788370 3789968 3892102 4089230 3960186 3757072
2197.50 3733942 3672698 3611902 3654272 3730872 3542366
2200.39 3396148 3379028 3346824 3360692 3493224 3501422
2203.29 3325392 3262178 3205476 3146312 3128254 3189546
2206.18 3115938 2972606 2963200 2938086 2888938 2890846
2209.07 2921630 2833788 2736974 2704484 2674806 2621590
2211.97 2612478 2543556 2428446 2350406 2269350 2201612
2214.86 2173920 2117256 1996924 1928520 1907586 1812600
2217.75 1723742 1696414 1624080 1529610 1483354 1466296
2220.64 1431442 1372072 1309806 1254904 1236174 1198886
2223.54 1170432 1168096 1153416 1105700 1064788 1034420
2226.43 1037514 1028440 994746 955590 939340 939428
2229.32 937686 932306 929768 917962 905638 854826
2232.21 846776 880046 905534 900416 898780 883608
2235.11 890708 887140 894052 900808 928688 964148
2238.00 967994 891990 843620 847488 870842 877674
2240.89 883582 893586 899778 894512 889912 890736
2243.79 910804 892318 900120 912736 946662 954826
2246.68 979914 984650 971402 984102 1029768 1013762
2249.57 1011550 1023810 1040100 1047838 1069764 1083158
2252.46 1122802 1106486 1088376 1090054 1114158 1144662
2255.36 1170440 1174382 1174596 1152858 1145562 1173210
2258.25 1207518 1245882 1283338 1275028 1279182 1283300
2261.14 1321052 1348382 1397770 1458640 1550258 1592038
2264.03 1582216 1595166 1617776 1594432 1582580 1564314
2266.93 1599680 1635486 1664564 1689228 1731480 1715520
2269.82 1710420 1778036 1845918 1864660 1887670 1914532
2272.71 1935060 1966294 1990848 1997428 2030248 2036926
2275.61 2087996 2198304 2270604 2305522 2383920 2418512
2278.50 2449652 2509080 2612574 2693540 2733740 2722448
2281.39 2772074 2804674 2794356 2828182 2873080 2896384
2284.28 2957608 3028954 3118012 3140438 3165320 3230958
2287.18 3262344 3275404 3367458 3398094 3410852 3470224
2290.07 3551768 3597544 3632154 3678034 3756726 3796606
2292.96 3857816 3937978 4023912 4108756 4188898 4220292
2295.85 4279986 4358196 4415096 4436756 4493460 4580122
2298.75 4684396 4735796 4759994 4787036 4861054 4897542
2301.64 4967066 4992226 5027222 5050004 5114984 5162782
2304.53 5221338 5256848 5335696 5378600 5391012 5483266
2307.43 5562126 5551532 5539726 5587486 5732640 5779762
2310.32 5749342 5771886 5908666 5935244 5874174 5718436
2313.21 5774642 5822844 5749614 5601280 5736876 5812384
2316.10 5724654 5526458 5609382 5772278 5747254 5485358
2319.00 5548490 5751022 5733366 5471954 5535202 5807278
2321.89 5751650 5359294 5336086 5614370 5573714 5191642
2324.78 5196840 5542988 5430746 4945176 5047592 5454456
2327.67 5194532 4662482 4873732 5272022 4884816 4430108
2330.57 4822014 5144046 4623806 4383968 4962154 5021660
2333.46 4312860 4252418 4727838 4381884 3713256 3974624
2336.35 4344304 3782610 3489760 4021660 3958954 3333560
2339.24 3445516 3787154 3286034 2901550 3263096 3238868
2342.14 2703428 2790954 3011916 2669706 2538964 2776824
2345.03 2667836 2419866 2530856 2567030 2423240 2421766
2347.92 2435282 2361820 2269362 2169316 2158128 2102122
2350.82 1865586 1879438 1949708 1604216 1568564 1771812
2353.71 1440132 1394018 1645190 1218148 1175694 1559366
2356.60 1114772 1037762 1399728 920586 991966 1328916
2359.49 802976 1032978 1218676 695230 1112344 1108566
2362.39 731194 1213710 984870 887406 1262188 927570
2365.28 1189740 1228096 940930 1350964 1173838 1260708
2368.17 1441040 1258000 1509110 1375194 1470348 1557642
2371.06 1481276 1717072 1659928 1798866 1841114 1937976
2373.96 2012488 2018960 2156024 2208126 2290006 2198176
2376.85 2169696 2186306 2231658 2205360 2240790 2284402
2379.74 2312060 2331128 2366784 2353366 2346656 2341412
2382.64 2356132 2344286 2354052 2385458 2393092 2390038
2385.53 2419336 2432910 2449760 2461020 2488772 2520144
2388.42 2562092 2604604 2648902 2718482 2743562 2694200
2391.31 2672874 2691398 2756980 2768862 2732850 2709354
2394.21 2707522 2708762 2695468 2661866 2651238 2613316
2397.10 2583956 2559526 2587330 2601746 2596422 2588576
2399.99 2597210 2588552 2537210 2485984 2474210 2481850
2402.88 2502338 2519588 2510664 2502106 2482652 2482060
2405.78 2483226 2470486 2477304 2486494 2474100 2488250
2408.67 2501940 2493022 2504408 2552584 2653228 2668874
2411.56 2636350 2646760 2672098 2669658 2673460 2661880
2414.46 2649066 2717144 2820060 2845002 2820636 2831360
2417.35 2838528 2778710 2727562 2709152 2720428 2739514
2420.24 2718970 2666578 2654702 2693092 2704578 2700030
2423.13 2730904 2768660 2769540 2783290 2809274 2788628
2426.03 2814670 2851898 2842410 2844246 2875786 2870704
2428.92 2856416 2861038 2844846 2821120 2849544 2935484
2431.81 2985824 2968858 2989570 3018394 3029778 3044688
2434.70 3094794 3142902 3167600 3162550 3165982 3185128
2437.60 3164028 3107946 3128168 3121542 3057544 3006552
2440.49 3044040 3054658 3029002 3059600 3081970 3096726
2443.38 3075280 3033562 3010248 2994970 3022424 3036308
2446.28 3033474 3063224 3100452 3109006 3120062 3118024
2449.17 3115766 3130466 3117468 3100268 3086062 3038406
2452.06 3021296 3052392 3068376 3032520 3032454 3018226
2454.95 3013826 3020368 3032190 3043860 3030650 3000216
2457.85 3013414 2987564 2935584 2909168 2902086 2882822
2460.74 2857418 2834296 2812756 2773370 2715926 2681086
2463.63 2673250 2676948 2708064 2730208 2752676 2782212
2466.52 2798174 2842066 2843604 2833022 2849434 2845330
2469.42 2862930 2929738 2975144 2981144 2991580 3038920
2472.31 3108622 3109264 3091442 3095430 3145436 3185654
2475.20 3216046 3250708 3258134 3265564 3285466 3350428
2478.10 3397794 3426168 3466042 3484010 3524452 3521420
2480.99 3554346 3571406 3609634 3639562 3687986 3735998
2483.88 3764658 3758722 3788322 3828908 3855298 3878922
2486.77 3898578 3897220 3948466 3978666 4020834 4028922
2489.67 4040756 4066806 4109820 4147702 4209264 4254020
2492.56 4274152 4259582 4304612 4339830 4344810 4360900
2495.45 4391136 4410502 4437690 4494794 4494606 4462746
2498.34 4463968 4474036 4508154 4513856 4541412 4591328
2501.24 4640914 4625808 4631908 4619994 4565280 4555948
2504.13 4596668 4590640 4606682 4593420 4567920 4591462
2507.02 4616172 4576822 4541628 4559454 4610328 4647414
2509.92 4651232 4622204 4633256 4637570 4607576 4564944
2512.81 4555838 4515926 4474638 4419696 4367636 4321938
2515.70 4299816 4297786 4274646 4205324 4185542 4193586
2518.59 4153738 4094704 4073876 4042922 3992518 3953878
2521.49 3968012 3964446 3939456 3919272 3919916 3894040
2524.38 3876608 3825326 3782872 3779968 3812498 3771346
2527.27 3740166 3705322 3698386 3668586 3619436 3601910
2530.16 3572580 3527346 3588446 3640766 3644524 3578636
2533.06 3583754 3595458 3628960 3730654 3818308 3789050
2535.95 3685316 3570556 3486928 3462448 3502832 3491686
2538.84 3490694 3431372 3375432 3322576 3303738 3250454
2541.74 3225556 3194068 3150920 3139112 3188976 3199032
2544.63 3170474 3137054 3125510 3090694 3088678 3097012
2547.52 3098706 3075824 3066828 3089958 3116324 3078822
2550.41 3013732 2943810 2938986 2958104 2976274 2962702
2553.31 2941712 2905026 2899374 2903750 2919646 2877162
2556.20 2866348 2882240 2912826 2899932 2897604 2905532
2559.09 2933154 2913912 2904088 2892694 2927514 2965644
2561.98 2994966 3004096 3002802 2991090 3022316 3051036
2564.88 3049328 3023012 3050300 3081996 3128898 3184636
2567.77 3219486 3217824 3231690 3259828 3275926 3286290
2570.66 3340984 3392936 3431750 3452994 3471524 3464396
2573.56 3498628 3538962 3610420 3656090 3711424 3757830
2576.45 3808654 3839182 3917826 3976990 4012816 4034054
2579.34 4117608 4185468 4268088 4327612 4355558 4415238
2582.23 4488466 4506722 4557994 4598996 4664624 4705206
2585.13 4740046 4817822 4916380 4912814 4949024 5034022
2588.02 5104172 5170524 5271316 5306646 5371490 5439662
2590.91 5467384 5502012 5588932 5638390 5731108 5816330
2593.80 5846490 5867800 5947396 6027302 6116476 6254300
2596.70 6376692 6426786 6473650 6557922 6671802 6793634
2599.59 6888418 6932062 7052516 7234226 7377292 7456104
2602.48 7615520 7751610 7897714 8091764 8338660 8630154
2605.37 9061692 9520496 9844012 9750290 9427548 9113604
2608.27 8887538 8715032 8673992 8660674 8657896 8673314
2611.16 8749146 8883826 8961832 8977978 9045194 9133962
2614.05 9242576 9337806 9459378 9539172 9659982 9733668
2616.95 9829072 9919436 10023190 10108140 10214000 10326440
2619.84 10477610 10654580 10806860 10931880 11120890 11290830
2622.73 11464570 11587050 11740630 11942980 12181100 12403020
2625.62 12675780 12975100 13318180 13666430 14054040 14441680
2628.52 14803780 14951990 14917270 14719080 14476440 14320850
2631.41 14226720 14088920 13924490 13808210 13886460 14060390
2634.30 14316690 14639510 15029440 15449010 16035830 16727630
2637.19 17343580 17922770 18392030 18646600 18778700 18826130
2640.09 18808590 18691380 18541500 18426240 18378690 18298310
2642.98 18272920 18311680 18357820 18365460 18433190 18514340
2645.87 18575600 18604080 18610710 18569350 18596570 18638730
2648.77 18694290 18733690 18755670 18713400 18698230 18695240
2651.66 18705700 18694480 18753490 18824360 18919700 18989090
2654.55 19016080 19057340 19116720 19178020 19292860 19416910
2657.44 19601420 19798400 20029640 20205190 20220240 20014580
2660.34 19887290 19864480 19904270 20018460 20257950 20547470
2663.23 20804400 21011580 21244110 21467950 21675720 21707800
2666.12 21573070 21289190 20891090 20455370 20051780 19677210
2669.01 19352350 19024030 18771230 18502520 18219070 17858320
2671.91 17534700 17135970 16706190 16322290 16026430 15797750
2674.80 15651310 15453780 15290530 15147550 15038260 14985940
2677.69 14964220 14955080 14946370 14918650 14891790 14802070
2680.59 14694950 14566660 14432600 14292660 14172680 14001010
2683.48 13867500 13752980 13600770 13437640 13297840 13109620
2686.37 12998150 12852780 12654260 12508190 12425580 12301790
2689.26 12161960 12020180 11916520 11774740 11645300 11505690
2692.16 11450760 11396300 11280810 11138620 10974660 10847080
2695.05 10778490 10689980 10583930 10503540 10452540 10409740
2697.94 10416750 10386700 10385510 10316820 10326270 10368930
2700.83 10364980 10334380 10399460 10406940 10398490 10369140
2703.73 10372170 10324810 10332430 10317980 10346390 10427020
2706.62 10473650 10520050 10624220 10724010 10820110 10924990
2709.51 11083180 11190570 11342900 11511010 11717160 11886890
2712.41 12026650 12104750 12193090 12274710 12382840 12435980
2715.30 12516380 12564700 12620600 12715780 12809350 12875620
2718.19 12982320 13063580 13175710 13250330 13340500 13424120
2721.08 13521560 13557870 13646540 13667300 13596210 13565670
2723.98 13618190 13629510 13727560 13858830 13965990 14049840
2726.87 14195870 14328670 14503360 14648470 14801770 14924780
2729.76 15055540 15162890 15270490 15322510 15394460 15467550
2732.65 15591100 15676280 15814660 15897890 15922980 15930460
2735.55 15979810 16001690 16003910 15886150 15830400 15791660
2738.44 15767820 15732360 15728770 15720460 15697870 15656960
2741.33 15706810 15762410 15805670 15766490 15749270 15721200
2744.23 15657140 15609940 15627520 15566630 15528490 15527990
2747.12 15538850 15480860 15395800 15334970 15341180 15342590
2750.01 15374210 15405210 15428640 15424310 15482060 15514390
2752.90 15590800 15656050 15807940 15926810 15946170 15911130
2755.80 16020110 16095490 16235500 16375160 16534570 16659520
2758.69 16791840 16902900 17037300 17129560 17260960 17349680
2761.58 17455000 17557950 17727200 17879940 18024380 18149280
2764.47 18283250 18397030 18523970 18662430 18846270 18985500
2767.37 19244700 19518770 19682500 19739600 19728530 19714980
2770.26 19735300 19700410 19701520 19646630 19617300 19589230
2773.15 19610570 19589300 19650760 19707930 19708400 19728530
2776.05 19912680 20125250 20271210 20386950 20497220 20575310
2778.94 20669540 20714180 20836660 20983150 21152870 21299850
2781.83 21485190 21647610 21827370 21980690 22175410 22383030
2784.72 22607660 22807820 23032050 23174310 23297520 23379370
2787.62 23462300 23532810 23679430 23761580 23870960 24033580
2790.51 24194960 24272920 24414270 24558070 24779880 24998950
2793.40 25300390 25606410 25917150 26110410 26284030 26349370
2796.29 26369810 26342250 26413170 26500690 26596360 26621190
2799.19 26694170 26828240 26993230 27068320 27158060 27260480
2802.08 27449240 27643120 27776310 27767940 27766260 27778640
2804.97 27863360 27940390 28098540 28274830 28481650 28714860
2807.87 29053320 29303340 29556080 29801550 30157250 30584040
2810.76 31000790 31294390 31557020 31787450 32139780 32490210
2813.65 32913430 33378240 34019360 34474400 34526460 34303780
2816.54 34181010 34185010 34384740 34675070 35140960 35780550
2819.44 36587470 37290060 37783660 38073900 38324880 38467980
2822.33 38574840 38747930 39095980 39301630 39331220 39275190
2825.22 39396820 39599790 39899750 40320860 40862000 41451460
2828.11 42155600 42871060 43461180 43798080 43985950 44004710
2831.01 44019510 44014820 44143300 44291350 44446380 44707540
2833.90 45006150 45212110 45415920 45682140 46093970 46422350
2836.79 46783380 47016120 47168740 47390090 47734230 48205930
2839.69 48786260 49311050 49902880 50448120 51063800 51791480
2842.58 52729510 53762830 54906800 56075770 57477170 59056830
2845.47 60854040 62682720 64561120 66482890 68554610 70601600
2848.36 72875150 75262220 77604260 79763660 81584620 83108740
2851.26 84675940 86232090 87934340 89688100 91390940 92769040
2854.15 94090810 95499930 97265050 99290530 101743400 104447200
2857.04 107338000 110369800 113649200 116971300 120495300 124137400
2859.93 127779300 131409600 135183000 138930100 142845100 146631300
2862.83 150462000 154291200 157955100 161452800 164991400 168407400
2865.72 171805200 175253400 178744900 182150700 185634400 188941100
2868.61 192295300 195537700 198565100 201471500 204352000 207115600
2871.51 209613400 211479100 213240000 215186400 217480200 219854500
2874.40 222387700 225282400 228808300 232547500 236382700 240516400
2877.29 245446300 251278100 258624700 268148800 279667200 290491600
2880.18 299885300 310333200 323721300 339038500 353340900 361383000
2883.08 360609600 354308400 347398600 341730800 337969700 337057800
2885.97 339081900 343511800 349460800 355407900 359498800 359776600
2888.86 357570800 354944700 352385800 349169900 345266200 340425500
2891.75 335178100 330014400 325232000 320451300 316125700 312193500
2894.65 308571900 305177600 302501200 300539300 299185100 297859400
2897.54 296503400 295299000 294437800 293497000 292816500 292390300
2900.43 291872500 291005700 289960800 288988300 288120300 286668000
2903.32 285251500 283795600 282317000 280706900 279146200 277348500
2906.22 275448800 273299500 271143800 268781100 266429000 263972700
2909.11 261782200 259680200 257272200 254673700 252459800 250325600
2912.00 248436600 246660900 245317000 244387500 244101600 243832900
2914.90 243220600 241640000 239642800 237475300 235567600 233613100
2917.79 231739100 229798000 227806600 225953600 224549100 223311600
2920.68 222296200 221586700 221411200 221435600 221991400 222958200
2923.57 224422000 226258900 228401500 230494300 232756200 235210900
2926.47 237908800 240631500 243674300 246801500 250560100 254326900
2929.36 258124400 261536300 264690000 268053700 268958000 264587800
2932.25 259414700 256931200 256567700 255038700 252889700 251753200
2935.14 252299500 254205200 257487400 261634400 266098300 269671100
2938.04 272695300 274952000 275419100 273561000 272161800 272328500
2940.93 273801700 276285200 280189100 284902100 290710200 297235100
2943.82 305027200 313218700 321913500 331482400 342839000 353912300
2946.72 363847500 372034700 376040000 378750600 384117300 391317300
2949.61 399544800 408262000 417314600 426179400 435187100 444094600
2952.50 453041400 461736400 470735500 479807900 488977300 497193800
2955.39 505387700 513088900 520836300 528455000 536748400 544395000
2958.29 552294000 560047900 568283100 576728900 586608300 596955700
2961.18 606769800 615605300 624750000 634056800 644848400 657222800
2964.07 675219600 697138700 714246000 725296400 738734000 744794900
2966.96 747988900 756455900 770235400 788900700 825554600 903355800
2969.86 1024127000 1072815000 1004636000 929134500 891025200 881512800
2972.75 880638000 872667300 862547100 858737500 863191400 875918900
2975.64 895010400 919493000 945909600 971401300 1002945000 1041765000
2978.54 1084091000 1125893000 1167251000 1193512000 1208542000 1263794000
2981.43 1370206000 1313072000 1082633000 916580500 836678100 794643100
2984.32 767971100 749831400 735888600 730643300 720313200 700941600
2987.21 688806800 680140400 668749200 663233000 662186900 661313000
2990.11 654879000 647749100 637667600 625602200 615687300 609118800
2993.00 601793700 594114900 586557200 579204000 570690500 562575500
2995.89 553574700 543896100 533395300 522655400 510612000 498145000
2998.78 484471000 470460600 455527600 440434900 424590500 408568700
3001.68 392226100 375814200 359012900 342535500 325671800 309230900
3004.57 292710800 276695600 260717800 245432700 230519100 216292600
3007.46 202354300 189084000 176290600 164206400 152494500 141679200
3010.36 131203100 121442800 112284900 103878500 95770420 88356460
3013.25 81336300 75118420 69185980 63776460 58619930 54021760
3016.14 49663160 45829040 42149580 38895950 35802800 33219910
3019.03 30693760 28451750 26238520 24424040 22675480 21179710
3021.93 19568730 18269260 17044250 16074710 14987410 14101200
3024.82 13263730 12542920 11710380 11153100 10544720 10049260
3027.71 9464840 9046688 8590350 8274744 7850876 7566262
3030.60 7192684 6987514 6628454 6424500 6183286 6059616
3033.50 5778150 5653468 5460030 5363552 5098318 5043732
3036.39 4929630 4859070 4660778 4604642 4481002 4481136
3039.28 4336394 4252526 4082312 4085680 4052362 4052540
3042.18 3853246 3798482 3659052 3677666 3562590 3576534
3045.07 3447868 3419922 3360210 3369464 3263040 3261290
3047.96 3192312 3158030 3077610 3055122 2996236 3041174
3050.85 2988430 2983592 2912590 2944948 2884472 2802224
3053.75 2657478 2765986 2792742 2793628 2700644 2694056
3056.64 2634300 2653314 2616366 2694468 2639168 2601182
3059.53 2544272 2606936 2541234 2540146 2548604 2586604
3062.42 2532872 2538922 2501678 2559194 2553258 2607646
3065.32 2527292 2514138 2503910 2564552 2489632 2556070
3068.21 2554358 2572454 2518958 2540180 2518984 2552496
3071.10 2585744 2596208 2495044 2515708 2499088 2543434
3074.00 2498250 2511164 2520890 2580286 2522244 2559370
3076.89 2538992 2606456 2636302 2678452 2608850 2645414
3079.78 2585182 2596278 2610796 2656080 2611536 2740732
3082.67 2730156 2714680 2694892 2739744 2700308 2725830
3085.57 2712020 2738530 2731220 2837152 2850458 2834482
3088.46 2819630 2882718 2846362 2891650 2835732 2796370
3091.35 2732586 2804358 2837036 2843078 2850026 2934462
3094.24 2925816 2989722 2972110 2967920 2935558 2962202
3097.14 2968378 3034170 3024040 3058632 3019198 3054508
3100.03 3037382 3026846 3027806 3142458 3113740 3105692
3102.92 3106852 3105200 3049768 3065752 3128314 3189646
3105.82 3094942 3135690 3167776 3210158 3162930 3282130
3108.71 3343340 3338410 3355996 3383466 3305898 3321110
3111.60 3233430 3246112 3286776 3349402 3336962 3386816
3114.49 3378682 3406182 3402418 3457188 3437506 3493412
3117.39 3521586 3485674 3457372 3527626 3549020 3572640
3120.28 3510986 3561190 3590148 3646416 3664162 3723524
3123.17 3738516 3749296 3712970 3787414 3736380 3753368
3126.06 3705588 3713416 3742568 3795448 3835620 3870042
3128.96 3860556 3903984 3905280 3937426 3878576 3870160
3131.85 3834366 3830172 3844620 3926106 3907984 3948268
3134.74 3977594 4021022 4020596 4025314 4010160 4067792
3137.64 4090502 4113496 4095618 4130474 4187528 4228682
3140.53 4168954 4167104 4197368 4336422 4400110 4372536
3143.42 4304648 4311618 4357474 4412226 4417526 4481092
3146.31 4550074 4660864 4681412 4724876 4716358 4784492
3149.21 4849804 4885594 4919178 5009128 4995532 5057394
3152.10 5150380 5280206 5288304 5348272 5411834 5476090
3154.99 5500548 5622064 5688180 5729762 5846124 6014420
3157.88 6037854 6113018 6160896 6222068 6246068 6363624
3160.78 6464766 6578874 6663308 6855890 6952948 7015342
3163.67 7084064 7259786 7364348 7423074 7421836 7544604
3166.56 7714426 7876848 7939770 8051682 8121736 8270492
3169.46 8455360 8597776 8595108 8715732 8803232 8850508
3172.35 8902268 9057294 9223272 9437658 9551720 9686576
3175.24 9760510 9822864 9885716 10044730 10118620 10186380
3178.13 10227950 10348190 10469130 10585530 10638520 10715970
3181.03 10704270 10717200 10757580 10822290 10861900 10999370
3183.92 11146030 11215800 11194500 11197800 11245160 11355290
3186.81 11454200 11618220 11697050 11702870 11688710 11714120
3189.70 11636020 11564460 11474110 11429450 11306180 11244710
3192.60 11191280 11175910 11123400 11076230 11093670 11256780
3195.49 11398130 11547070 11715460 11925220 12005810 11983320
3198.38 11857140 11732530 11654070 11653100 11623590 11606710
3201.27 11479110 11354470 11193060 10982670 10794300 10741980
3204.17 10652640 10636170 10630450 10637570 10643860 10676800
3207.06 10593490 10597620 10712200 10661390 10407390 10192540
3209.95 10029690 9931132 9855882 9818064 9820798 9956636
3212.85 10223440 10572510 10631880 10249610 9776780 9607914
3215.74 9508414 9424642 9388132 9361626 9305260 9302378
3218.63 9224944 9183296 9210938 9167790 9041110 9015550
3221.52 9029424 9048742 8992856 9027766 9098634 9201780
3224.42 9200904 9145128 8926780 8715486 8495938 8352994
3227.31 8247876 8224476 8092878 7884352 7776166 7799928
3230.20 7802382 7782320 7708054 7666154 7589104 7565216
3233.09 7462048 7448514 7370696 7237640 7229482 7264998
3235.99 7091478 6875534 6693390 6623926 6519278 6384606
3238.88 6244516 6288674 6306148 6306566 6262858 6270958
3241.77 6344964 6292944 5930830 5589688 5359748 5252058
3244.67 5112998 4981192 4900312 4843710 4767050 4832954
3247.56 4909618 5004654 5054716 4987862 4504256 4090204
3250.45 3868246 3725098 3569464 3457194 3281210 3151154
3253.34 3091170 3059928 2925790 2886854 2783274 2681148
3256.24 2570750 2560012 2511806 2395754 2278160 2192724
3259.13 2149208 2129694 2028890 2022078 1950708 1858058
3262.02 1825102 1845114 1784428 1751170 1692764 1603652
3264.91 1535452 1556022 1456460 1307316 1242800 1248266
3267.81 1245376 1335484 1288180 1260218 1192626 1072226
3270.70 1031258 1037574 961538 922562 971012 1062184
3273.59 965080 862736 775710 750830 770936 833204
3276.49 857790 798602 661298 671156 740182 766602
3279.38 744030 694026 667144 717230 740902 693450
3282.27 628876 655142 638816 714776 770458 794462
3285.16 754760 751806 728386 750896 661782 613204
3288.06 629678 691368 691430 679500 624820 595818
3290.95 650742 741220 705854 663280 690166 707690
3293.84 682236 788700 818614 797522 723042 729876
3296.73 791260 795426 700928 699474 719790 814472
3299.63 837852 833352 813786 852434 912850 942296
3302.52 882742 909686 1004700 1116284 1030236 1004628
3305.41 1066194 1121010 1141828 1177622 1140296 1121242
3308.31 1148610 1216050 1294834 1348952 1400784 1498958
3311.20 1535224 1531348 1585824 1680130 1719638 1691990
3314.09 1684444 1773852 1817458 1920772 1980632 2043984
3316.98 2008394 2039720 2091158 2123192 2093024 2157038
3319.88 2219258 2305354 2312582 2307750 2337560 2384136
3322.77 2374594 2398248 2437658 2539464 2672820 2708842
3325.66 2675498 2728024 2808144 2983678 3027462 3086674
3328.55 3200268 3256166 3267354 3385550 3454888 3431004
3331.45 3503218 3611344 3642006 3696436 3670460 3757610
3334.34 3789794 3789890 3860962 3904794 3850490 3804582
3337.23 3834870 3929644 3991820 4055502 4021238 4046384
3340.13 4022448 4006448 4008722 4057012 4008176 4027118
3343.02 4035124 4030104 3922538 3957154 4016052 3986150
3345.91 3864456 3868300 3880396 3903130 3963844 3995446
3348.80 3946148 4015234 4001320 4018812 3993852 3906830
3351.70 3810952 3790354 3763572 3788442 3777550 3735484
3354.59 3719004 3790432 3752728 3702064 3665290 3653528
3357.48 3643154 3606092 3582924 3594172 3584376 3574650
3360.37 3546122 3543566 3441446 3405558 3457750 3425122
3363.27 3361808 3305460 3222234 3224978 3217440 3200110
3366.16 3186824 3174842 3149136 3171348 3107966 3129932
3369.05 3148458 3028940 2904520 2954114 3000282 2942560
3371.95 2801362 2861008 2875816 2880602 2864174 2917794
3374.84 2928088 2836666 2799770 2860354 2860450 2789810
3377.73 2746206 2750666 2771090 2827474 2855492 2841312
3380.62 2841710 2878074 2894834 2944034 2966770 2983082
3383.52 2968474 2925676 2861846 2862454 2941298 3063246
3386.41 3035200 3071148 3140326 3097848 3077636 3114812
3389.30 3162040 3238668 3274210 3339142 3299550 3325358
3392.19 3344486 3373258 3410256 3455672 3558360 3607842
3395.09 3585922 3650404 3672398 3681496 3710588 3726858
3397.98 3796414 3880644 3879310 3787266 3707702 3729054
3400.87 3727052 3781278 3901406 3993762 3989824 4039378
3403.77 4050904 4060906 4153972 4266194 4232270 4223164
3406.66 4203156 4212646 4217582 4147212 4111076 4190300
3409.55 4269390 4298440 4353876 4401386 4405412 4452802
3412.44 4394556 4439316 4472664 4507648 4549310 4518822
3415.34 4516062 4581048 4544978 4611988 4660440 4693438
3418.23 4681352 4746674 4854460 5010860 5171244 5350282
3421.12 5422572 5405868 5350300 5422386 5573268 5772644
3424.01 5761156 5527080 5294944 5269242 5233868 5177464
3426.91 5091862 5049132 5014090 5036986 5141870 5243028
3429.80 5268980 5320960 5361814 5361600 5315406 5296030
3432.69 5349082 5434812 5451894 5460894 5474594 5567034
3435.59 5599178 5619844 5542354 5450816 5509094 5575254
3438.48 5597938 5631124 5605434 5671248 5720588 5693980
3441.37 5641086 5616488 5562054 5563900 5539318 5577754
3444.26 5676692 5742062 5746412 5822796 5786748 5837670
3447.16 5870314 5986804 6243726 6591898 6812910 7057752
3450.05 7036038 6607032 6166274 5998118 5893524 5768346
3452.94 5692942 5679120 5562654 5491644 5482442 5559746
3455.83 5619036 5597322 5537178 5522560 5567360 5697214
3458.73 5711142 5634198 5610744 5579752 5543598 5575136
3461.62 5564578 5518132 5513130 5497886 5478592 5433170
3464.51 5352046 5311342 5232056 5096594 4986000 5033526
3467.40 5051668 5049378 5072818 5091310 4942584 4826896
3470.30 4776930 4799440 4778808 4743352 4606818 4584576
3473.19 4526028 4416224 4400518 4423178 4354958 4260630
3476.08 4209238 4226444 4181744 4129596 4026758 3952682
3478.98 3865842 3858916 3797282 3746696 3713246 3639768
3481.87 3553832 3511048 3384102 3366238 3386370 3386546
3484.76 3287306 3309148 3221886 3111312 3114642 3123562
3487.65 3029836 2930304 2858274 2822656 2733904 2729620
3490.55 2719098 2735032 2703812 2636786 2618666 2592066
3493.44 2541142 2572642 2489202 2358636 2239312 2288134
3496.33 2317470 2343384 2308682 2333406 2375526 2299884
3499.22 2209308 2219906 2234028 2186114 2049806 1957174
3502.12 1975102 2002298 1928486 1909312 1891540 1901078
3505.01 1849036 1914072 1906224 1816958 1749866 1839814
3507.90 1869878 1845628 1851258 1842794 1775024 1729440
3510.80 1656656 1665420 1692222 1692054 1632332 1634710
3513.69 1665404 1671706 1641166 1661942 1676156 1710960
3516.58 1711766 1750608 1708114 1768696 1679432 1638398
3519.47 1710872 1761956 1722716 1764776 1782928 1778052
3522.37 1762700 1820336 1811002 1846334 1829560 1908452
3525.26 1937004 2002436 1971966 1954298 1970266 2031000
3528.15 2120170 2209408 2237098 2226542 2209092 2250144
3531.04 2297444 2392678 2421828 2483408 2420418 2386946
3533.94 2368432 2381546 2395594 2404604 2387602 2471614
3536.83 2468870 2522468 2463916 2430902 2464570 2468600
3539.72 2480088 2606044 2624566 2657744 2711402 2773150
3542.62 2734852 2748086 2724232 2684444 2606200 2615232
3545.51 2537890 2564800 2551718 2503100 2518674 2480734
3548.40 2398510 2386794 2395240 2492776 2487386 2439894
3551.29 2394232 2368842 2386452 2432040 2345228 2340538
3554.19 2329114 2347980 2322288 2359302 2326192 2253788
3557.08 2183832 2270866 2228680 2231684 2190942 2173408
3559.97 2160096 2211858 2198812 2243760 2277916 2276906
3562.86 2180200 2143456 2204868 2257522 2189312 2246358
3565.76 2280660 2279610 2249958 2278990 2210600 2201684
3568.65 2205950 2219128 2178428 2135114 2090356 2111448
3571.54 2039400 2046452 2111794 2063808 1979374 2052852
3574.44 2011430 1967048 1968090 1989622 2018340 2101818
3577.33 2136242 2202752 2238920 2276148 2287896 2327128
3580.22 2319206 2305862 2262692 2302602 2321042 2350210
3583.11 2357266 2388920 2410260 2458820 2416292 2472656
3586.01 2540728 2554632 2529240 2689768 2724328 2827574
3588.90 2773036 2841182 2885298 2951282 2940210 3020916
3591.79 3047250 3059382 3122856 3272068 3259934 3366272
3594.68 3437304 3496046 3452132 3482144 3469994 3531450
3597.58 3582882 3602424 3553010 3674886 3718402 3832408
3600.47 3961182 4120550 4206910 4389146 4519836 4690088
3603.36 4843824 5088150 5311944 5641502 6006586 6519620
3606.26 6894868 7275154 7453448 7694084 7955934 8415748
3609.15 8600050 8814802 9000940 9313768 9590962 9983180
3612.04 10318720 10702220 11008180 11442790 11825760 12292780
3614.93 12598950 13068870 13481450 13950020 14388840 15004470
3617.83 15362080 15880250 16378370 16955930 17294750 17841980
3620.72 18282470 18814800 19152890 19731570 20290870 20845630
3623.61 21234030 22019540 22615420 23303380 23850260 24668710
3626.50 25267540 26189320 27354530 29433900 30412060 30107340
3629.40 29701850 30417750 31121230 32267640 33303690 35057610
3632.29 36617110 39106400 41420820 44840350 48694690 56880970
3635.18 79965810 123018000 123164400 83394980 67502840 66512910
3638.08 68734090 70497820 73614490 76877040 80559250 82884440
3640.97 83924130 84438690 86383240 88508190 91176600 93501450
3643.86 95778730 97685610 100141500 102637100 104860200 106118800
3646.75 106996500 106965400 107036200 107352600 107956600 108029500
3649.65 108082300 108006400 108101600 108149900 108396900 108763800
3652.54 109669200 110912600 113042100 115577500 118406400 120948300
3655.43 122608000 122664500 120588200 116569900 114006700 113731400
3658.32 115948300 119357800 121144000 120845900 119107700 116912000
3661.22 115171600 113628900 112635600 111551200 109449700 107295500
3664.11 105970000 105002500 104232600 103526500 102923900 102366700
3667.00 102088700 101905900 101717000 101287500 100610200 99806090
3669.90 98989140 97861700 96309220 94592320 92894740 91139270
3672.79 89151550 86875580 84528700 82143840 79658790 76955750
3675.68 74114920 70978710 68021900 65055980 62040420 59018800
3678.57 56069120 53183910 50397470 47652880 44984470 42264150
3681.47 39644970 37209670 34956330 32774190 30765590 28734630
3684.36 26897060 25151610 23582100 22136110 20744080 19404160
3687.25 18257790 17296910 16179750 14919950 13918140 13052410
3690.14 12344890 11656740 10988780 10299620 9703698 9143800
3693.04 8711106 8247598 7921388 7608726 7283252 6985110
3695.93 6730852 6463786 6277926 6109836 5914960 5688364
3698.82 5581054 5402148 5158146 4982150 4875190 4844460
3701.72 4807210 4636310 4509852 4360820 4281266 4189748
3704.61 4073354 3996728 3980118 3895092 3889166 3853846
3707.50 3783634 3756402 3831444 3862844 3807530 3761692
3710.39 3749666 3718714 3823452 3895850 3820762 3753466
3713.29 3669352 3609520 3589704 3499856 3371672 3255196
3716.18 3245688 3206834 3165166 3128582 3055780 2972090
3719.07 2965866 2895430 2823980 2825648 2847176 2871018
3721.96 2903822 2857212 2833030 2771360 2696092 2731110
3724.86 2738138 2707150 2749694 2672360 2575050 2610092
3727.75 2541562 2482470 2542570 2546652 2561864 2520516
3730.64 2498008 2569116 2657418 2598394 2515550 2478598
3733.54 2491848 2541228 2538600 2414432 2416740 2562466
3736.43 2579706 2531328 2528172 2518158 2526322 2527074
3739.32 2558998 2512622 2449998 2456002 2511306 2474178
3742.21 2377564 2384522 2537796 2734704 2904366 2732628
3745.11 2478128 2318754 2293916 2312080 2290800 2293626
3748.00 2321004 2421938 2558272 2413732 2321322 2272428
3750.89 2257368 2404184 2483510 2234056 2149974 2173254
3753.78 2180954 2117504 2085810 2133124 2249628 2276268
3756.68 2124150 2080782 2169220 2132696 2149642 2167986
3759.57 2203938 2152862 2122566 2134480 2231592 2289304
3762.46 2278182 2193206 2197764 2279464 2374718 2457748
3765.35 2559528 2493350 2434420 2472972 2515936 2541926
3768.25 2577192 2604204 2656968 2659086 2657874 2700764
3771.14 2791276 2839396 2817034 2855464 2919626 2961586
3774.03 3073096 3103258 3148626 3180854 3237154 3286538
3776.93 3278712 3333250 3442146 3515810 3625712 3651434
3779.82 3618670 3675428 3804796 3904618 3901352 3939812
3782.71 4073666 4169672 4212118 4226338 4311024 4418272
3785.60 4437274 4514158 4605656 4660810 4707190 4677222
3788.50 4661396 4694296 4695768 4696224 4782564 4762294
3791.39 4704482 4694542 4717620 4815740 4864526 4876432
3794.28 4945378 4985850 5037642 5085632 5182622 5283068
3797.17 5352846 5346318 5351258 5356884 5434328 5506966
3800.07 5529228 5647122 5729096 5442710 5344322 5403976
3802.96 5407110 5398188 5377984 5327598 5364502 5431550
3805.85 5485678 5647548 5693704 5472190 5464796 5501746
3808.75 5524372 5575434 5652322 5708108 5770170 5780464
3811.64 5799200 5721912 5717068 5700766 5683966 5736094
3814.53 5804102 5896378 6129126 6072326 5914482 5864094
3817.42 5841134 5861710 5967246 6073372 6087102 6084722
3820.32 6141878 6070994 5985504 5803198 5744094 5694302
3823.21 5628378 5678774 5716460 5711958 5718676 5733128
3826.10 5814800 5906808 5920114 5901620 5959500 5981288
3828.99 6005364 5928492 5870134 5830332 5848056 5804286
3831.89 5689142 5634958 5594326 5563358 5534310 5641824
3834.78 5681080 5636916 5564688 5530968 5597164 5778678
3837.67 5794602 5548994 5438608 5488888 5500344 5408106
3840.57 5377682 5345326 5317050 5313274 5322810 5346026
3843.46 5368060 5280474 5217214 5153900 5096926 5083090
3846.35 5127186 5175592 5225712 5174798 5097340 5081502
3849.24 5127000 5099854 5099020 5127896 5233256 5327264
3852.14 5129890 5048768 5274168 5496848 5377522 5101138
3855.03 5040326 5067806 5086466 5077376 5108384 5090278
3857.92 5040370 4923676 4892138 4891096 4896630 4832372
3860.81 4834196 4803856 4701300 4678288 4789208 4850640
3863.71 4841066 4910632 5049718 5030722 5083890 5172942
3866.60 5484270 5884994 6139466 6084794 5917302 5649204
3869.49 5438252 5210902 5040250 4913166 4808130 4767486
3872.39 4805956 4810464 4755090 4725162 4653556 4650672
3875.28 4728528 4734526 4656206 4603162 4678596 4787550
3878.17 4721752 4683686 4784292 4907148 4892382 4814364
3881.06 4808796 4796866 4773976 4829000 4919870 4854788
3883.96 4786608 4758740 4820756 4867488 4794222 4730440
3886.85 4693196 4696900 4685168 4642428 4726146 4736964
3889.74 4636750 4692012 4826600 4810940 4832830 4933012
3892.63 4975934 5070650 5214904 5310564 5459272 5511518
3895.53 5418550 5426372 5333128 5061576 4974086 5035228
3898.42 5082328 5105084 5056934 4923984 4838968 4753920
3901.31 4645030 4478760 4341382 4324734 4388060 4392628
3904.21 4281196 4217746 4172772 4122812 4109978 4101924
3907.10 4094030 4087416 4069122 4009592 4017686 4086070
3909.99 4118988 4080024 4022244 4007452 4057636 4013746
3912.88 3895154 3851470 3806186 3716982 3636920 3681994
3915.78 3719982 3716428 3763378 3732646 3592702 3484972
3918.67 3410170 3366886 3398122 3349320 3284514 3291636
3921.56 3251424 3203562 3267958 3301864 3190000 3084890
3924.45 3148258 3253804 3149420 3082590 3115496 3094630
3927.35 3026376 2988250 2964672 2990078 2988992 3002218
3930.24 2988646 2972184 2943324 2956080 3024230 3049592
3933.13 3105044 3114020 3097758 2992210 2872886 2793216
3936.03 2713510 2692140 2658200 2569514 2503800 2500304
3938.92 2501924 2488910 2485244 2545308 2512014 2429402
3941.81 2559340 2587250 2500070 2460330 2529628 2538626
3944.70 2546962 2541026 2554866 2514856 2562730 2528704
3947.60 2405782 2398408 2386806 2180674 2089312 2149854
3950.49 2135782 2077330 2019952 1999576 2053136 2037280
3953.38 2105372 2064966 1949542 1961982 2036974 2045830
3956.27 2023776 2021778 1959914 1875786 1902228 1994996
3959.17 1990330 1900190 1824242 1834160 1768380 1727200
3962.06 1751982 1790990 1772660 1729196 1759896 1755356
3964.95 1662882 1649764 1706292 1732458 1685882 1683580
3967.85 1746546 1731522 1689102 1699148 1689400 1645272
3970.74 1611156 1668162 1708932 1672132 1627568 1637490
3973.63 1633362 1582462 1594876
##END=
