##TITLE=2-Propanol
##JCAMP-DX=4.24
##DATA TYPE=INFRARED SPECTRUM
##CLASS=IUPAC A
##ORIGIN=NIST, Anayltical Chemistry Division, 301-975-3108
##OWNER=COPYRIGHT (C) 1998 by the U.S. Secretary of Commerce
##DATE=98/10/1
##$SPECTRA VERSION=1.00
##$UNCERTAINTY IN Y=2.0 % relative (B=1.0E-04,C=6.5E-10,D=2.7E-14)
##CAS NAME=2-Propanol
##CAS REGISTRY NO=67-63-0
##MOLFORM=C H3 C H( O H) C H3
##MP=-89.5 C
##BP=82.4 C
##$NIST SOURCE=QUANT-IR
##SPECTROMETER/DATA SYSTEM=IFS66V (Bruker)
##INSTRUMENT PARAMETERS=KBr Beam splitter; MCT Detector; Multipass cell
##STATE=gas
##SAMPLE DESCRIPTION=2-Propanol Primary Gas Standard
##PRESSURE=101.3 kPa
##TEMPERATURE=23 C
##SAMPLING PROCEDURE=1 L/min Flow
##RESOLUTION=1.9290
##DATA PROCESSING=NB Strong Apodization
##XUNITS=cm-1
##YUNITS=(micromol/mol)-1m-1 (base 10)
##XFACTOR=1.0
##YFACTOR=4.5474E-13
##DELTAX=0.9645
##FIRSTX=574.687
##LASTX=3974.595
##FIRSTY=2.62E-06
##MAXX=3973.63
##MINX=574.69
##MAXY=.0005776
##MINY=2.24E-07
##NPOINTS=3527
##XYDATA=(X++(Y..Y))
574.69 5779772 5874540 6121192 6305858 6638500 6482732
579.51 6229898 6377972 6577090 6440768 6437576 6568352
585.29 6670682 6765484 7011890 7069086 7118816 7041874
591.08 7048528 7361826 7791102 7839308 7635456 7623122
596.86 7763594 7908416 7860306 7775292 7859604 7877340
602.65 7816592 8060124 8325456 8239504 8162936 8223474
608.44 8499732 8530290 8498036 8393782 8351102 8341344
614.22 8369228 8568296 8727590 8809194 8867558 8854052
620.01 9065768 9101782 8838562 8799750 9101060 9320006
625.79 9442234 9240402 9095376 8986082 8840010 8835828
631.58 8976250 9066910 9025272 9023530 9058856 8984320
637.36 9101954 9196202 9166434 9069556 9134360 9131988
643.15 9112230 8999760 8982674 8986596 8903696 8666218
648.93 8578390 8504380 8490242 8412288 8316212 8203296
654.72 8086388 7964584 8016692 7940794 7809436 7682898
660.50 7707282 7566400 7460682 7437210 7517484 7370294
666.29 6823644 6634386 6988402 7100296 7180576 7166936
672.08 7087294 7012086 7029052 6975126 6952084 6803296
677.86 6613112 6581508 6644338 6627094 6544744 6359490
683.65 6404064 6325116 6318170 6296166 6196754 6226142
689.43 6294366 6175594 6031392 5842148 5742190 5694666
695.22 5804042 5846594 5804664 5848500 6028380 6061662
701.00 6017382 6036588 6056746 5945690 5880634 5856278
706.79 5785918 5639116 5553062 5531372 5569424 5436574
712.57 5285732 5144480 5025918 4921036 4978526 4948818
718.36 4892628 4882410 4933768 4838578 4784380 4682524
724.14 4618720 4524550 4475756 4341278 4269802 4203340
729.93 4152872 4017030 3908852 3718506 3611352 3533496
735.71 3526222 3427180 3387816 3281482 3168520 3020980
741.50 2988732 2992190 3013348 2907172 2868100 2774212
747.29 2678170 2588502 2564280 2463322 2449192 2477848
753.07 2526634 2468914 2416922 2335904 2339640 2342450
758.86 2377386 2296848 2242958 2225348 2283522 2246714
764.64 2318876 2384350 2437490 2363548 2359918 2443380
770.43 2533290 2507836 2593074 2717730 2909910 3089336
776.21 3341330 3497312 3774302 4143034 4554072 4893818
782.00 5473152 6215046 7166830 8117542 9171772 10414590
787.78 11901340 13526260 15411140 17488490 19911460 22439680
793.57 25158860 27924580 30765530 33638060 36706960 39562120
799.35 42254060 44771530 46964850 48677420 50159420 51258120
805.14 52164700 52804780 53489570 54415240 55671860 56926970
810.93 58227880 59324220 60690730 63387560 64846650 63188660
816.71 60829760 59456760 61357380 61559920 58249870 55759540
822.50 54912570 55011660 55673870 56565700 57190300 57233300
828.28 56594320 55252210 53269370 50599380 47400680 43617100
834.07 39710310 35714330 31941960 28288700 24894460 21901340
839.85 19271510 16921440 14957600 13169930 11776060 10524640
845.64 9464064 8527406 7818320 7176370 6675420 6160778
851.42 5797018 5472692 5252486 4959310 4688916 4423728
857.21 4254148 4077880 3988256 3807416 3701478 3574828
862.99 3535236 3488264 3483500 3391498 3396584 3374634
868.78 3423626 3365574 3386968 3331914 3353324 3292608
874.57 3302390 3263596 3281292 3271002 3300122 3307906
880.35 3416160 3463238 3546768 3591420 3693270 3721696
886.14 3859992 3954688 4137412 4284688 4486848 4632534
891.92 4887592 5045352 5306140 5525984 5859844 6139796
897.71 6528960 6828462 7240340 7641600 8213580 8717868
903.49 9393524 10022490 10780070 11537940 12479550 13461040
909.28 14641940 15807910 17199160 18726300 20597680 22603480
915.06 24926100 27498940 30679170 34304350 38198810 41939750
920.85 46531800 51926950 58171700 65119640 73102200 81893540
926.63 91891350 102984200 115264200 128221800 142492900 157646400
932.42 173822000 190401300 207574800 224695500 241184200 256082000
938.21 269530300 280931700 290675200 298141800 303955600 307817400
943.99 310614900 313193300 317175300 323136300 332586300 344049000
949.78 356509900 367073500 375134900 375801200 370511400 363727300
955.56 376390300 380514500 352424900 329151800 316480300 311050700
961.35 312150100 317531100 323031200 326670200 326318200 321538000
967.13 311685800 297879500 280065700 259230900 236015700 212013300
972.92 187812700 164538100 142864200 123245200 105547100 90108090
978.70 76744510 65476140 55884700 47947200 41374920 36056940
984.49 31615690 28012250 25025580 22744340 20875480 19388930
990.27 18015310 16900770 15928560 15117920 14422850 13917400
996.06 13438690 13052260 12677600 12419860 12163590 12034530
1001.85 11928870 11824030 11684570 11608380 11555200 11557460
1007.63 11501440 11432170 11367130 11350830 11294470 11231110
1013.42 11157990 11158310 11252510 11460160 11721840 12129120
1019.20 12575070 12941040 13281270 13733170 14234270 14761230
1024.99 15366110 16052050 16742850 17578840 18530690 19631430
1030.77 20789780 22070360 23506750 25182940 27166050 29328020
1036.56 31748920 34497430 37571120 40949990 44652260 48834510
1042.34 53720280 59375460 65721080 72392190 79295790 86539010
1048.13 94327280 102588800 111133600 120012900 129093900 138059800
1053.91 147130200 156745900 166619000 176019700 184985100 193692400
1059.70 201270000 206754200 211602800 217452600 224294000 232299100
1065.48 243446800 255813000 267101600 276368600 282624400 290660800
1071.27 297242600 297530000 288894000 281844000 278435400 278306900
1077.06 279936100 278854400 276207100 274714100 273711300 270237400
1082.84 265228600 262530500 261306300 259063300 256707400 254303200
1088.63 249815900 242189100 232663500 222782600 212770700 202720500
1094.41 193113200 183891200 175078500 166895300 159532800 153205500
1100.20 147869400 143424900 139900900 137260700 135617900 134972300
1105.98 135222200 136264400 138062500 140399700 143322900 146817800
1111.77 150837900 155431800 160552200 165583300 170460500 175796900
1117.55 181698100 187786700 193753900 199504700 205318300 211432000
1123.34 217803900 224531400 231190400 237132800 244688800 251352900
1129.12 255264000 261942500 265662700 265669600 271520000 281199700
1134.91 291241800 302331000 309268000 311887600 316435800 321441800
1140.70 326928700 334038800 342409500 350376800 358539800 367607400
1146.48 377069200 385341900 391264700 395083700 397037300 396889000
1152.27 395589900 393570000 391214600 387862600 383006900 376807600
1158.05 370082300 363515500 357715900 352322100 349529700 345076100
1163.84 333922800 321418900 313068400 307371100 299613000 287875400
1169.62 275904900 265806800 256519100 246450200 236984900 228524300
1175.41 220149000 211535000 202719900 193421600 183391400 172726100
1181.19 162071200 151681600 141250900 130890800 120862000 111292800
1186.98 102408900 94307220 86989520 80466500 74737750 69670100
1192.76 65292400 61388100 57963010 54839460 52161780 49791740
1198.55 47788020 46160360 44904720 43823240 42945050 42215460
1204.34 41844140 41766290 41728230 41869340 42443680 43224100
1210.12 44325160 45597940 46931920 48634690 51149680 53662680
1215.91 56191570 59080130 62578800 66581880 71105780 75919210
1221.69 81276090 87040360 93418080 100352800 107834700 115678800
1227.48 124160200 132904600 141716800 150242200 158764300 167165100
1233.26 175575500 183745400 191566700 198382800 203924500 207604600
1239.05 210338100 212860800 215290800 215296900 214970400 216715200
1244.83 220812000 227696700 237679200 247592400 257932200 268112500
1250.62 272131700 263194400 255225000 250641200 240003300 230962700
1256.40 224341300 219890400 216778900 215137600 213715600 213079500
1262.19 211274300 206803400 199868700 192482100 184463500 175613200
1267.98 165728500 155735200 145767600 135957200 125492900 115753900
1273.76 107574500 99900630 92228750 85227030 79041300 73686970
1279.55 68916980 64771800 61005540 57691550 54588100 51748730
1285.33 49134540 46833910 44720080 42763530 40934900 39362290
1291.12 37997050 36925370 35980510 35271870 34736960 34384400
1296.90 34061580 33767180 33455870 33269650 33158830 33176100
1302.69 33188860 33300390 33489110 33811340 34158610 34574860
1308.47 35084630 35794100 36572730 37422650 38344860 39502310
1314.26 40889900 42467280 43970220 45455240 46975820 48714240
1320.04 50784910 52927880 54947390 57135180 59619630 62370820
1325.83 65288650 68394620 71537750 74678510 77673590 80451900
1331.61 83013290 85616820 87964740 90041050 92369510 94765240
1337.40 97358350 99730700 102078600 105230700 108546700 111108400
1343.19 111624600 111408300 114854100 120360800 122243000 123029700
1348.97 125345700 128669100 132798700 137743100 143564100 149610500
1354.76 155038900 160023100 164372000 168707400 173427200 178415300
1360.54 183430700 189191000 195852200 203487000 211770000 221295100
1366.33 232136500 244610700 258222300 274332700 292923800 312419400
1372.11 325561100 333898200 346230000 360845300 375240900 389439400
1377.90 405304000 421661400 434178500 442478200 439192500 427208200
1383.68 420025200 416850900 414648300 410458300 403823600 397156000
1389.47 396625200 401672800 404486900 401140600 390453300 373827400
1395.25 355574100 337503500 319028500 299844500 279701600 259090600
1401.04 238896800 219543200 201807200 186304600 172582400 160529400
1406.83 149927300 139757000 129852700 120494100 111865900 103958300
1412.61 96699450 89838160 83558840 78070720 73393820 69111900
1418.40 65170540 61555980 58430140 55820950 53742800 52117490
1424.18 50846460 49637150 48521320 47718340 47325490 47195670
1429.97 47305780 47656530 48348040 49209470 50065380 51089620
1435.75 52358460 53565180 54925520 56412880 57966770 59495690
1441.54 60966260 62319560 63743010 65230130 66817080 68462290
1447.32 70323800 72437100 74587060 76124900 78040520 82074220
1453.11 87744140 93226190 96763260 101371000 107151900 111375400
1458.89 118504200 127871200 138405500 146317400 139209900 114723800
1464.68 90895540 78816130 75262690 78206580 88998770 106341000
1470.47 128196800 149680500 156467400 131991800 103782000 87334320
1476.25 77765660 72448430 69386900 67545460 66364570 65479220
1482.04 64705850 63926020 62987810 61892840 60576210 59042080
1487.82 57252970 55293670 53078160 50557640 47939120 45147850
1493.61 42134430 39315820 36708890 34089110 31664310 29309540
1499.39 27063520 24825710 22492780 20456070 18746610 17326030
1505.18 16051180 14804400 13596430 12529000 11628450 10802840
1510.96 10109040 9405744 8799934 8301706 7865398 7512338
1516.75 7139772 6726814 6455824 6280104 6049340 5692596
1522.53 5420172 5223108 5089866 4902564 4776414 4631864
1528.32 4524800 4452746 4352338 4175352 4100858 4000956
1534.11 3845712 3720198 3667946 3688688 3811474 3761472
1539.89 3639088 3568230 3513428 3399868 3370578 3295892
1545.68 3209748 3122858 3075264 3018296 2961566 2873332
1551.46 2861072 2869346 2900514 2818250 2779452 2814050
1557.25 2930446 2914614 2864480 2662260 2544376 2494412
1563.03 2480652 2470992 2434412 2389968 2400482 2433856
1568.82 2474242 2393448 2355260 2329006 2310652 2291520
1574.60 2445358 2503660 2348190 2271930 2264542 2263372
1580.39 2259100 2234964 2234848 2208526 2189764 2159720
1586.17 2155754 2145750 2167648 2170424 2196514 2182240
1591.96 2186822 2168948 2177590 2167004 2151764 2116260
1597.74 2115458 2084144 2071578 2042098 2040564 2022106
1603.53 2024896 2017398 2026610 1988888 1990874 2002306
1609.32 2027836 1999014 1999958 1989256 2000290 2018362
1615.10 2157158 2197954 2086112 2059618 2072992 2054262
1620.89 2064612 2081998 2127580 2095596 2112650 2139774
1626.67 2195822 2187764 2208078 2248046 2335476 2370000
1632.46 2436962 2549686 2649410 2550434 2492736 2481552
1638.24 2510184 2569868 2651288 2681260 2736718 2813778
1644.03 2981818 3125658 3140694 3147580 3173016 3188994
1649.81 3244122 3413416 3675574 3639506 3531144 3454444
1655.60 3442750 3435494 3453960 3463462 3508204 3566310
1661.38 3665904 3697110 3728926 3771930 3784474 3766862
1667.17 3815380 3854562 3797882 3767600 3803974 3746228
1672.96 3745656 3817122 3829072 3708166 3662080 3655122
1678.74 3674688 3577866 3544102 3585958 3698974 3800732
1684.53 3712360 3555756 3545484 3518712 3526636 3469118
1690.31 3430120 3394590 3420916 3420522 3595574 3662584
1696.10 3525826 3452526 3523930 3679248 3643772 3460718
1701.88 3423312 3434028 3474830 3464200 3474532 3454152
1707.67 3507320 3556036 3634118 3650932 3674582 3685580
1713.45 3750244 3734502 3763838 3871720 3922716 3937644
1719.24 3988906 3994550 4002558 3953966 3977376 4004098
1725.02 4061070 4084890 4111950 4130230 4260024 4448090
1730.81 4676038 4813098 4928904 4902494 4811438 4732296
1736.60 4799242 4907472 5083678 5188438 5332608 5536392
1742.38 5795990 6014258 6242234 6451860 6715880 6944386
1748.17 7188710 7432992 7739966 7885980 8019868 8163482
1753.95 8319672 8407386 8461742 8462452 8505508 8498944
1759.74 8541976 8592668 8610760 8590598 8662620 8718176
1765.52 8795476 8818652 8814036 8723112 8728242 8672478
1771.31 8702242 8304178 7803016 7531204 7413688 7366114
1777.09 7394088 7458412 7519972 7415392 7210378 6914600
1782.88 6583434 6148870 5642114 5090318 4591010 4067172
1788.66 3597688 3184440 2844406 2539302 2244244 1975412
1794.45 1813584 1659438 1549188 1437712 1381106 1271492
1800.24 1227352 1174520 1144214 1108550 1141448 1146854
1806.02 1165692 1152208 1172318 1188586 1229514 1244224
1811.81 1293232 1283792 1287708 1296012 1343748 1331608
1817.59 1344486 1330882 1345902 1338172 1380786 1399418
1823.38 1455396 1478162 1471316 1444306 1471666 1509320
1829.16 1563896 1549114 1584078 1576956 1581288 1568400
1834.95 1562842 1513372 1504668 1456372 1465822 1443248
1840.73 1442572 1417234 1480150 1464278 1411186 1369692
1846.52 1371346 1350122 1339510 1315830 1351604 1355146
1852.30 1407432 1452884 1566538 1725186 1954062 1987860
1858.09 1895962 1836752 1875716 1915546 1993400 2016388
1863.88 2035476 2025152 2079052 2129632 2249250 2331526
1869.66 2408912 2499052 2660686 2804718 2951004 3020444
1875.45 3099086 3161130 3278140 3383660 3516552 3650456
1881.23 3793438 3881632 3992308 4089010 4240388 4365800
1887.02 4535484 4671380 4794450 4848968 4934118 4967612
1892.80 5016402 5038930 5087060 5094394 5117794 5135130
1898.59 5195652 5213150 5263314 5265080 5280768 5290566
1904.37 5297278 5123046 5109846 5069854 4760566 4447730
1910.16 4268860 4139078 4086080 3983604 3882004 3795260
1915.94 3731532 3621198 3467434 3265898 3069286 2847504
1921.73 2639868 2376652 2162368 1921028 1704474 1478974
1927.51 1326892 1161908 1024798 889374 833980 740348
1933.30 667224 604258 591882 559204 580284 571664
1939.09 573676 545254 565802 515972 494490 483698
1944.87 521986 516114 543328 537538 564960 569132
1950.66 618670 631902 691708 728822 778788 777324
1956.44 799800 787828 802436 804072 855394 867776
1962.23 912480 915220 941090 942346 970308 947270
1968.01 970752 982168 1021714 1009234 1057480 1095504
1973.80 1141416 1118378 1159148 1167824 1212050 1228684
1979.58 1237518 1209368 1250160 1262696 1286754 1255518
1985.37 1227166 1159714 1136304 1097208 1101530 1090130
1991.15 1119334 1105844 1112334 1103900 1144450 1134632
1996.94 1157766 1139230 1157702 1156922 1190648 1200692
2002.73 1222178 1210610 1254026 1274792 1358344 1368176
2008.51 1390706 1404666 1458796 1427190 1446806 1456660
2014.30 1497354 1513076 1536788 1512588 1557272 1571770
2020.08 1627608 1654198 1689186 1690980 1741278 1748078
2025.87 1799470 1779748 1776622 1762664 1809684 1774724
2031.65 1755576 1712856 1730840 1720894 1732262 1720522
2037.44 1746234 1715654 1725214 1702054 1715454 1672950
2043.22 1667526 1632220 1624126 1575038 1587602 1565148
2049.01 1601550 1615012 1637262 1629844 1685246 1716238
2054.79 1790200 1819022 1878350 1893130 1968104 1972884
2060.58 2021564 2083228 2192744 2235994 2274456 2292764
2066.37 2387236 2473290 2559814 2556152 2627480 2684542
2072.15 2790156 2752254 2746104 2785734 2912144 2951864
2077.94 2927830 2914482 2980196 3035914 3026566 2923746
2083.72 2926046 3012988 3086516 2920870 2855096 2824744
2089.51 2929554 2824254 2738248 2693124 2794648 2749716
2095.29 2574460 2492730 2593540 2633666 2449420 2299464
2101.08 2343280 2450654 2297500 2056528 2024794 2113072
2106.86 2103572 1851108 1811930 1880640 2006988 1772702
2112.65 1686946 1736876 1912364 1674202 1538240 1580302
2118.43 1818664 1722972 1570366 1541862 1745104 1720690
2124.22 1563500 1531124 1726052 1777124 1655696 1630194
2130.01 1784474 1856120 1818218 1863026 2046104 2193062
2135.79 2259780 2307308 2336492 2209946 2107248 2045134
2141.58 2022546 2009540 2079284 2134512 2260612 2330338
2147.36 2379774 2421768 2580624 2630294 2604384 2645674
2153.15 2833302 2809826 2687130 2734844 2980492 2975788
2158.93 2854170 2987596 3285578 3237898 3138144 3314296
2164.72 3487572 3267408 3199660 3406072 3441548 3136570
2170.50 3131430 3345074 3282170 3045982 3200146 3377956
2176.29 3244372 3124850 3346892 3422706 3327384 3417752
2182.07 3660324 3558974 3449460 3591068 3711016 3590782
2187.86 3671692 3862984 3868316 3778658 3936684 3979516
2193.64 3858336 3840930 3946954 3816722 3692806 3641494
2199.43 3554048 3387710 3414118 3403618 3287030 3165654
2205.22 3136534 3015448 2941628 2887212 2831300 2703300
2211.00 2640006 2510270 2364328 2209052 2099686 1938698
2216.79 1823024 1671300 1562310 1449234 1378446 1260968
2222.57 1214346 1151500 1116324 1040022 1025074 957586
2228.36 950542 922112 921782 866028 887844 887156
2234.14 900614 882098 921140 930756 911138 852140
2239.93 885634 880760 904494 885764 911410 910518
2245.71 967322 967278 1005436 1004634 1036898 1043154
2251.50 1097170 1092010 1113762 1131234 1176306 1152210
2257.28 1191028 1230928 1284778 1289188 1369388 1458498
2263.07 1574114 1586752 1603714 1579504 1642708 1679354
2268.86 1733154 1771122 1871122 1902886 1973162 1993774
2274.64 2073242 2173236 2326080 2405120 2541576 2654880
2280.43 2752548 2777960 2846900 2903030 3040776 3128104
2286.21 3228664 3292190 3398988 3471784 3600130 3679646
2292.00 3815530 3932524 4111332 4218898 4357338 4442396
2297.78 4596078 4706994 4815416 4893568 5000610 5056888
2303.57 5173900 5259436 5380716 5464406 5559386 5616536
2309.35 5751804 5805066 5883764 5791434 5773702 5703262
2315.14 5732324 5640546 5681986 5611802 5651302 5606628
2320.92 5651050 5516664 5471286 5364086 5332852 5204554
2326.71 5153450 4993470 4925908 4802850 4783946 4728102
2332.50 4687000 4470078 4256950 4013504 3907664 3763790
2338.28 3647470 3424330 3228850 3015454 2876688 2727422
2344.07 2660908 2546032 2504438 2424138 2351848 2191212
2349.85 2057192 1873040 1736264 1579906 1494998 1349656
2355.64 1290538 1170190 1113698 1045574 1031038 978984
2361.42 1002006 993282 1048024 1080294 1147184 1179434
2367.21 1302974 1359616 1450806 1505222 1651742 1767700
2372.99 1938262 2049896 2203656 2201244 2210080 2215486
2378.78 2289078 2320410 2362186 2336826 2365410 2364690
2384.56 2413406 2420736 2480418 2514308 2620246 2679304
2390.35 2715316 2699872 2753730 2708716 2712694 2654112
2396.14 2628028 2570834 2603664 2580626 2579134 2494476
2401.92 2502822 2493988 2511772 2470942 2490734 2467468
2407.71 2501006 2492900 2583270 2629312 2667324 2655282
2413.49 2682204 2721556 2828584 2812550 2791630 2715372
2419.28 2731156 2674508 2698500 2702010 2767134 2771956
2425.06 2818964 2820476 2867604 2851024 2865944 2839140
2430.85 2930874 2965978 3024984 3049000 3140352 3151948
2436.63 3176788 3123056 3106738 3033428 3054664 3048338
2442.42 3088742 3027898 3027704 3018408 3080128 3091892
2448.20 3131138 3106120 3109580 3042144 3058276 3028344
2453.99 3035656 3011668 3042968 3000508 2986984 2906902
2459.77 2891954 2819486 2778982 2685102 2704136 2716544
2465.56 2793466 2810276 2855068 2845856 2934644 2969534
2471.35 3058666 3081954 3131876 3167422 3251100 3263876
2477.13 3358650 3413516 3499976 3518616 3592182 3634422
2482.92 3735886 3759280 3836730 3861364 3930330 3964722
2488.70 4041940 4063032 4169804 4222910 4295566 4312672
2494.49 4381240 4402416 4481412 4461558 4497274 4510478
2500.27 4599816 4611168 4617754 4565912 4605396 4576872
2506.06 4603646 4564086 4593716 4612798 4649054 4606190
2511.84 4588698 4496288 4434180 4322808 4298794 4212206
2517.63 4186570 4094710 4048650 3964096 3967376 3912372
2523.41 3904654 3816990 3806844 3753020 3728996 3647048
2529.20 3612900 3560966 3622958 3590512 3630354 3703242
2534.99 3750886 3577802 3509452 3468660 3441080 3320850
2540.77 3273518 3178230 3181636 3161114 3158522 3090428
2546.56 3107006 3069144 3101688 3043130 2991690 2942934
2552.34 2967826 2904848 2918322 2874134 2902098 2886928
2558.13 2924740 2898818 2929324 2945538 3009798 2995328
2563.91 3048468 3031462 3105980 3156820 3236690 3241136
2569.70 3321084 3369558 3461536 3467018 3567092 3641592
2575.48 3772094 3841762 3978058 4044702 4203164 4298830
2581.27 4434108 4499378 4621648 4690704 4835166 4910420
2587.05 5048430 5163752 5327110 5408378 5537690 5638714
2592.84 5803732 5879280 6053524 6228852 6435910 6562652
2598.63 6791290 6954438 7232170 7468146 7775468 8116100
2604.41 8721460 9389306 9603592 9147368 8806068 8656556
2610.20 8728436 8840498 9013720 9128504 9361346 9530674
2615.98 9755490 9906000 10134480 10331760 10661170 10939030
2621.77 11301850 11585020 11982190 12412490 13017850 13670210
2627.55 14417460 14798620 14704240 14338340 14096380 13902500
2633.34 14140950 14668060 15564100 16683140 17853980 18530040
2639.12 18788370 18650050 18476830 18312000 18337130 18373500
2644.91 18520240 18566430 18615420 18628310 18733130 18701940
2650.69 18719500 18709490 18852360 18949890 19086120 19187810
2656.48 19467930 19790620 20111950 20018100 19937840 20076930
2662.27 20550740 20998790 21453030 21567890 21226940 20452020
2668.05 19723160 19040600 18502710 17838090 17136690 16361840
2673.84 15858270 15449080 15192390 14991730 14973070 14890010
2679.62 14801540 14542210 14313870 13996240 13755670 13422980
2685.41 13153990 12812940 12557870 12271190 12051790 11757460
2691.19 11563020 11345810 11148210 10858020 10702280 10503190
2696.98 10449990 10368900 10369390 10330050 10388420 10371020
2702.76 10396090 10322580 10362760 10398450 10566670 10703910
2708.55 10965760 11188480 11547230 11840280 12121420 12259780
2714.33 12458660 12549210 12737790 12868020 13091420 13232500
2720.12 13443580 13544850 13642390 13584400 13691750 13828930
2725.91 14096690 14322370 14667260 14900040 15175180 15303930
2731.69 15509990 15667740 15884050 15922330 15996580 15880760
2737.48 15822740 15723720 15733760 15677050 15769660 15742800
2743.26 15727900 15610920 15595470 15506990 15485820 15346620
2749.05 15380330 15375590 15471120 15509080 15715010 15847060
2754.83 15992110 16100430 16404840 16632720 16930460 17114100
2760.62 17377100 17563520 17896340 18124350 18427330 18656890
2766.40 19063450 19429830 19717750 19698220 19729970 19627120
2772.19 19634930 19596640 19711630 19785710 20121140 20349580
2777.97 20599620 20722450 21022270 21286360 21676970 21972640
2783.76 22417560 22778750 23176980 23346750 23587040 23746900
2789.54 24057590 24266260 24624420 25012590 25622610 26044250
2795.33 26336720 26357770 26526930 26616010 26867620 27039170
2801.12 27331730 27569790 27783080 27786820 28010380 28268450
2806.90 28786600 29265260 29892420 30543770 31290830 31811380
2812.69 32565370 33409760 34256700 34299040 34341080 34765910
2818.47 35900230 37120980 38043580 38417000 38851160 39160520
2824.26 39389960 39644040 40433640 41482610 42811770 43639660
2830.04 44010980 44046820 44345440 44693880 45242690 45716160
2835.83 46445380 46937230 47509430 48234320 49366090 50457960
2841.61 51955810 53799570 56251890 59154250 62756260 66522290
2847.40 70760680 75193480 79578360 83049590 86348160 89589860
2853.18 92754140 95678030 99607000 104551400 110556600 117048500
2858.97 124196900 131432600 139035100 146593900 154235200 161389900
2864.76 168434900 175226900 182200600 188880300 195452500 201379500
2870.54 206936800 211327300 215432900 219951900 225704000 232624900
2876.33 241104400 252387600 269323700 289858000 312158200 337903700
2882.11 355677900 353352000 343252700 339123400 344607800 353963000
2887.90 358085100 354759200 348698300 340056400 330273400 320663300
2893.68 312494100 305588300 300992600 297814900 295534900 293586100
2899.47 292396200 290825700 289032600 286546400 283826800 280621700
2905.25 277301200 273174400 268814600 264029900 259594800 254774400
2911.04 250543700 246875600 244824700 243475600 241369400 237493500
2916.82 233719600 229706600 226291400 223403100 221999700 221688000
2922.61 223396300 226356800 230696500 235257200 240914800 247009100
2928.40 254410200 261269200 266314300 263777100 258224400 254671200
2934.18 252949200 255088800 261874500 269097400 273783900 273589700
2939.97 273396400 277127000 285738400 297896900 313759200 332301200
2945.75 353196500 369535800 380186800 392009000 408612000 426062300
2951.54 444230300 461701700 479915000 496824300 513227400 528489400
2957.32 544632300 560085900 577739900 596397700 615928200 634741500
2963.11 660936800 694297200 725010100 742808100 760740400 803886100
2968.89 919000600 1007356000 948820900 888728600 871781400 864325400
2974.68 881166000 920630100 975678600 1043831000 1123975000 1192151000
2980.46 1270269000 1219057000 969052800 809382700 753415900 728802800
2986.25 703074200 680612500 665673500 658927800 645630100 627066800
2992.04 608887900 594392600 578462300 562339400 543132400 522144400
2997.82 497244000 470129500 439836600 408546000 375484500 342600100
3003.61 309150600 277014200 245644100 216746000 189357400 164722700
3009.39 141929100 122041200 104094500 88852950 75315850 64146110
3015.18 54170140 46128860 38991750 33445700 28457060 24628220
3020.96 21106610 18460930 15991450 14244410 12457210 11254790
3026.75 9962524 9140774 8181980 7632316 6881542 6507474
3032.53 5948466 5715938 5254276 5108312 4756318 4664918
3038.32 4372078 4298770 4031680 4036124 3734878 3704060
3044.10 3479446 3477710 3281134 3297606 3094254 3107552
3049.89 2962120 3018562 2859490 2848758 2705434 2802384
3055.67 2639870 2696560 2599216 2652638 2523094 2599044
3061.46 2508712 2580064 2502926 2601312 2487158 2568024
3067.25 2499674 2589838 2494870 2594476 2515086 2557982
3073.03 2476532 2558534 2504164 2590510 2562022 2674750
3078.82 2584360 2643850 2602422 2728782 2683074 2748978
3084.60 2685506 2773466 2769992 2871394 2821882 2886134
3090.39 2770630 2830360 2817242 2938564 2930080 2991886
3096.17 2936862 3038958 3008098 3067068 3017414 3118778
3101.96 3082550 3115732 3067524 3159236 3119988 3216156
3107.74 3239222 3366690 3318136 3322876 3245698 3350456
3113.53 3343472 3427954 3411952 3506294 3467272 3541048
3119.31 3520936 3591294 3612238 3728988 3715280 3771550
3125.10 3714276 3754962 3769030 3876362 3870946 3925226
3130.89 3844656 3871702 3872940 3971926 3980460 4046172
3136.67 4038310 4121814 4122636 4207296 4181068 4322864
3142.46 4330144 4359828 4377966 4513996 4605984 4730820
3148.24 4769188 4905558 4957626 5102896 5214676 5373066
3154.03 5450736 5622952 5748878 5976210 6088776 6234314
3159.81 6351268 6595992 6801562 7043354 7214622 7422336
3165.60 7561524 7852880 8028776 8308214 8520736 8726216
3171.38 8843008 9097604 9381366 9673188 9816426 10030650
3177.17 10166720 10371900 10541820 10693670 10720480 10841110
3182.95 10990310 11180450 11214080 11381010 11560800 11701800
3188.74 11655110 11574960 11390330 11274880 11148880 11140720
3194.53 11251600 11576300 11838900 11935270 11747770 11666060
3200.31 11539380 11344880 10988160 10766550 10636440 10655310
3206.10 10623010 10651020 10535280 10243080 9941662 9874792
3211.88 10031470 10400220 10173580 9694388 9439152 9365412
3217.67 9268432 9219998 9122710 9056096 9015912 9068442
3223.45 9137994 9069098 8711394 8399804 8164600 7947616
3229.24 7794334 7766756 7648218 7554934 7412108 7303072
3235.02 7156344 6908606 6606628 6412052 6285110 6302170
3240.81 6276854 6144870 5645654 5267298 4996396 4867708
3246.59 4846978 4976442 4773014 4207120 3725550 3448754
3252.38 3181660 3036810 2856314 2699454 2535248 2401086
3258.17 2207832 2116942 1988636 1900144 1805946 1748954
3263.95 1608460 1515418 1338002 1274824 1273602 1245720
3269.74 1098274 1020546 962004 987000 866404 794880
3275.52 799536 779216 701838 744552 700906 715024
3281.31 676986 667464 702026 773102 741210 718348
3287.09 643806 675600 651500 651246 677136 701098
3292.88 694044 769722 767322 764846 746018 736688
3298.66 778980 836456 857682 915238 944338 1041080
3304.45 1042540 1113698 1139026 1158160 1215830 1358068
3310.23 1462584 1566322 1642590 1712740 1763152 1914726
3316.02 1996778 2061554 2095130 2177370 2261900 2330370
3321.80 2357022 2425188 2541826 2681784 2754966 2943252
3327.59 3097070 3249126 3356734 3475966 3573690 3682576
3333.38 3732984 3822830 3848338 3857716 3913290 4024204
3339.16 4021560 4029096 4016390 4034714 3989668 3980748
3344.95 3939718 3896266 3910770 3974170 3987032 3999552
3350.73 3897026 3809868 3767328 3759684 3741712 3715640
3356.52 3647310 3620474 3581468 3574200 3502170 3450116
3362.30 3394624 3310186 3223890 3205810 3167992 3153232
3368.09 3114116 3037384 2953566 2921334 2855104 2885128
3373.87 2884534 2869960 2826778 2808242 2760054 2822428
3379.66 2837690 2886334 2925482 2971498 2912414 2919682
3385.44 2998868 3086600 3094682 3137648 3218450 3307216
3391.23 3323954 3386834 3469404 3585234 3631842 3694932
3397.02 3744954 3837444 3786368 3745776 3808266 3957468
3402.80 4021396 4106998 4196248 4229910 4197734 4175678
3408.59 4192382 4310040 4376572 4427962 4438816 4508824
3414.37 4522946 4562142 4605062 4686862 4775304 5028322
3420.16 5281408 5399820 5472836 5657102 5516260 5295120
3425.94 5159530 5072024 5076552 5216426 5306324 5344384
3431.73 5331068 5411728 5464832 5551440 5564986 5525396
3437.51 5552334 5620966 5658764 5679988 5606790 5572668
3443.30 5603418 5722358 5782838 5855946 6069290 6550882
3449.08 6872546 6588560 6055014 5803950 5636416 5545248
3454.87 5543368 5582716 5558306 5650120 5637728 5592858
3460.66 5552388 5538504 5484234 5424888 5282938 5128334
3466.44 5030142 5063490 5007922 4877508 4777384 4714912
3472.23 4566848 4466404 4374100 4293658 4195640 4115780
3478.01 3950362 3853416 3741256 3641772 3482330 3401476
3483.80 3343022 3277250 3153598 3083010 2938518 2819638
3489.58 2733078 2718108 2646874 2596006 2514848 2384724
3495.37 2292068 2329024 2325146 2299172 2217130 2151182
3501.15 2005912 1972072 1909438 1898340 1873644 1845022
3506.94 1815528 1859208 1805376 1739502 1669662 1678658
3512.72 1641600 1667946 1656818 1711096 1717284 1726906
3518.51 1682744 1737614 1749180 1788584 1791780 1848606
3524.30 1888614 1973232 1966066 2060942 2164214 2235910
3530.08 2255140 2380688 2420024 2411462 2373884 2414412
3535.87 2437344 2490384 2448906 2494376 2559548 2679790
3541.65 2720622 2745240 2661272 2609792 2542126 2532946
3547.44 2450482 2427658 2437296 2449372 2381428 2395890
3553.22 2336494 2350820 2314278 2281292 2220490 2231766
3559.01 2170764 2211230 2224562 2250234 2178824 2231354
3564.79 2228820 2283784 2230368 2232316 2176288 2158416
3570.58 2068646 2085610 2033572 2035676 1971642 2020250
3576.36 2071230 2209696 2248062 2325480 2281458 2323240
3582.15 2323680 2409114 2411236 2502374 2530402 2680390
3587.94 2753580 2866058 2906626 3025840 3068040 3244000
3593.72 3336226 3477470 3455112 3555274 3560156 3694030
3599.51 3823062 4128736 4351916 4726978 5072518 5720752
3605.29 6437994 7218996 7696964 8348914 8779478 9365156
3611.08 9934810 10727930 11397970 12292250 13017830 14012670
3616.86 14869090 15951950 16816180 17887270 18695340 19818190
3622.65 20737520 22068030 23189060 24730890 26353850 28962530
3628.43 29909060 30734120 32220540 35315620 39107380 46003990
3634.22 66648470 100358700 91146800 70189160 71278410 76728380
3640.00 82229930 84913150 88909350 93270020 98022460 102287900
3645.79 105791800 106843000 107540400 107864200 108138600 108195700
3651.57 109152400 111382800 115793700 120215500 121238100 117272600
3657.36 115420600 118434800 119851400 117055600 113939500 111022300
3663.15 107757900 105125900 103628600 102485900 101917500 101091600
3668.93 99767180 97570250 94595230 90957090 86823940 82036250
3674.72 76851190 70998910 65058170 59037570 53269340 47666940
3680.50 42353930 37310710 32888030 28818250 25286340 22167460
3686.29 19545920 17211880 15062090 13131140 11688590 10327740
3692.07 9227282 8293134 7628426 6990398 6521276 6080214
3697.86 5748016 5355630 5050100 4818562 4654544 4373574
3703.64 4199662 4006002 3936666 3825264 3819590 3803026
3709.43 3792596 3760786 3838226 3734138 3636302 3461884
3715.21 3317360 3189854 3124800 2985686 2910350 2832170
3721.00 2878962 2839344 2787682 2715026 2733778 2651386
3726.79 2592830 2520108 2550500 2523958 2581186 2564018
3732.57 2523180 2496690 2486182 2502512 2553076 2515190
3738.36 2541752 2494392 2485378 2439630 2482978 2674188
3744.14 2672220 2390270 2313194 2308830 2421962 2399870
3749.93 2324790 2343968 2292302 2164038 2144228 2152570
3755.71 2206324 2129606 2155234 2155188 2169660 2164276
3761.50 2254432 2225278 2306664 2432996 2498462 2475652
3767.28 2553940 2598202 2668470 2711976 2819736 2862122
3773.07 2992746 3088936 3199700 3257238 3372640 3507504
3778.85 3635482 3706044 3868900 3973906 4147778 4247138
3784.64 4398020 4512572 4652494 4669868 4697308 4712160
3790.43 4748270 4715074 4808500 4884096 4999022 5098510
3796.21 5270372 5331974 5400610 5486060 5605432 5495704
3802.00 5406934 5379468 5376116 5436474 5580592 5537566
3807.78 5514004 5582646 5708274 5760542 5748908 5702778
3813.57 5764774 5920944 6009938 5889214 5915294 6020686
3819.35 6102116 6029112 5858624 5696502 5689650 5705716
3825.14 5774264 5860992 5936026 5958614 5935342 5844026
3830.92 5778956 5640926 5591438 5606166 5626918 5587866
3836.71 5691838 5590034 5488298 5416086 5358020 5318268
3842.49 5340146 5271228 5170424 5110568 5170642 5151482
3848.28 5115876 5102444 5169258 5200250 5208584 5312622
3854.07 5197322 5068748 5092644 5054820 4966774 4884168
3859.85 4856846 4771074 4750984 4816868 4939332 5047064
3865.64 5301178 5782876 5982892 5655660 5248766 4933066
3871.42 4814482 4774914 4723594 4681530 4696146 4663436
3877.21 4720546 4747294 4843870 4832764 4808050 4830364
3882.99 4845460 4798086 4816348 4742340 4698464 4681796
3888.78 4703246 4723524 4825768 4917180 5101596 5308914
3894.56 5449924 5360848 5152312 5038142 5065680 4926716
3900.35 4744038 4493960 4376940 4330024 4237422 4134814
3906.13 4108854 4071630 4049774 4062254 4073952 4024426
3911.92 3983140 3846636 3739012 3682792 3731120 3667968
3917.70 3516546 3388604 3348502 3270898 3257734 3224416
3923.49 3175372 3159264 3132480 3062712 3011798 2978254
3929.28 2997048 2964824 2989424 3046620 3090974 2972870
3935.06 2811934 2680430 2587512 2502656 2505314 2498602
3940.85 2515602 2522780 2515910 2524468 2548742 2532788
3946.63 2498116 2379888 2236106 2121932 2084878 2023728
3952.42 2062484 2025590 2006474 2017694 2000478 1926466
3958.20 1953068 1899274 1818394 1757152 1768550 1750252
3963.99 1725582 1682512 1706164 1703872 1721272 1685890
3969.77 1663134 1655714 1671568 1625910 1611958
##END=
