##TITLE=Chloroform
##JCAMP-DX=4.24
##DATA TYPE=INFRARED SPECTRUM
##CLASS=IUPAC A
##ORIGIN=NIST, Analytical Chemistry Division, 301-975-3108
##OWNER=COPYRIGHT (C) 2000 by the U.S. Secretary of Commerce
##DATE=00/02/01
##$SPECTRA VERSION=1.10
##$UNCERTAINTY IN Y=2.2 % relative (B=1.2E-04,C=3.2E-09,D=1.1E-13)
##CAS NAME=Chloroform
##CAS REGISTRY NO=67-66-3
##MOLFORM=C H Cl3
##MP=-63.5 C
##BP=61.7 C
##$NIST SOURCE=QUANT-IR
##SPECTROMETER/DATA SYSTEM=IFS66V (Bruker)
##INSTRUMENT PARAMETERS=KBr Beam Splitter; MCT Detector; Multipass cell
##STATE=gas
##SAMPLE DESCRIPTION=Chloroform Primary Gas Standard
##PRESSURE=101.3 Pa
##TEMPERATURE=23 C
##SAMPLING PROCEDURE=1 L/min Flow
##RESOLUTION=0.9640
##DATA PROCESSING=Triangular Apodization
##XUNITS=cm-1
##YUNITS=(micromol/mol)-1m-1 (base 10)
##XFACTOR=1.0
##YFACTOR=3.6379E-12
##DELTAX=0.4820
##FIRSTX=575.17
##LASTX=3974.605
##FIRSTY=-2.40E-06
##MAXX=3974.12
##MINX=575.17
##MAXY=.0027308
##MINY=-5.77E-06
##NPOINTS=7052
##XYDATA=(X++(Y..Y))
575.17-661762-403639 225990 364050-40973-327283
577.58-203330 223848 260942 157767-4737 180888
580.47 461362 80509 42100 3952-241541-281776
583.37-165543-5638-83530-217140-142636-262574
586.26-149846-43342-357329-312114-122186 102939
589.15 215984 32318 9653 28608-21171 56349
592.04-69071-201797-95414 32997 4171-37096
594.94 46060 62680 61614 10652-12634 4012
597.83-61064 123365 231159 22592 93164 109819
600.72 73284 216338 208949 237627 381649 355148
603.62 337339 255818 214198 221581 186198 185792
606.51 182568 247567 312080 249816 205620 352159
609.40 354859 405310 442452 474807 467863 411036
612.29 386456 363724 305486 359156 597106 621569
615.19 556490 603962 728999 586964 433926 387661
618.08 402609 356079 283028 417439 630674 907616
620.97 1248801 1495433 1116629 522154 355520 363249
623.86 260960 300007 472720 747721 1160644 1459673
626.76 1404002 854944 433893 539826 529077 430202
629.65 334681 294295 492568 560267 513306 576102
632.54 672970 580008 515614 536314 566556 604405
635.44 566534 577693 631861 585253 538507 545142
638.33 512156 496522 520520 478011 459609 470149
641.22 442912 383213 322515 286358 264062 260161
644.11 223160 132967 135218 195242 236358 163643
647.01 133070 207344 176828 161197 145123 155318
649.90 240453 226001 299631 391794 273431 257330
652.79 342846 418110 425117 374858 354070 471903
655.68 600941 619223 557820 604449 831282 832306
658.58 737206 831588 954648 1092824 1177917 1107881
661.47 1147183 1365422 1509585 1552971 1684077 1826930
664.36 1863516 2002694 2150564 2191166 2363705 2942888
667.26 3482976 3563762 3672345 4056639 4767917 5645189
670.15 6602681 7804792 9149825 10826542 12871506 14492634
673.04 15372602 16621544 17211898 15082503 13041530 12371704
675.93 9108027 4663924 3388090 3667391 4071460 4722901
678.83 5322398 6070140 6761568 7437403 8195236 8969704
681.72 9628470 10227471 10880551 11419251 11710065 11886898
684.61 12062956 12093180 12010504 11857525 11489297 11017373
687.50 10548948 9962755 9250136 8486590 7708421 7056707
690.40 6362959 5599197 4950351 4326324 3762849 3328630
693.29 2794743 2286768 1966703 1695706 1477131 1265095
696.18 1110250 935337 827135 766821 612507 562915
699.08 531433 452608 355041 332014 356755 266877
701.97 189817 250315 263037 231095 242515 227949
704.86 165577 192184 242009 176571 210857 234346
707.75 179644 221477 224818 230247 251316 149468
710.65 148600 236732 263576 238765 220903 255552
713.54 295996 318617 357338 326062 322973 332916
716.43 261103 284980 334678 352910 374367 394021
719.32 421306 441735 395618 396365 491948 526447
722.22 534803 554049 580538 651678 686790 682663
725.11 708510 768421 815502 871232 963037 1089100
728.00 1160989 1203653 1267301 1430038 1554126 1592473
730.90 1724469 1853566 1961720 2120252 2311295 2466546
733.79 2678690 2892576 3091806 3415351 3732800 4030776
736.68 4372847 4791791 5210845 5609105 6079749 6572556
739.57 7162385 7817824 8464593 9184269 9962870 10822395
742.47 11724384 12645412 13648739 14841085 16104582 17340157
745.36 18642058 20069503 21557791 23118634 24732370 26403886
748.25 28319996 30311270 32309676 34545797 36978252 39609778
751.14 42919110 46249328 49444759 53612554 57926848 61879403
754.04 66117326 70813639 76172812 82078212 88395457 95353562
756.93 102630819 110661411 120289457 130480264 140902284 153786478
759.82 167672212 180606536 196490183 214695887 232964626 252784249
762.72 274229803 297709148 323203074 350469468 378964906 409029817
765.61 441387024 474255229 508124392 542203157 575515217 608732464
768.50 639903562 668866604 694302246 715212726 729258897 738335149
771.39 750140023 750637959 746079051 741341446 717714642 687367126
774.29 700849998 714552625 670461595 666989597 684935198 637259839
777.18 569941299 512447818 459886001 413119384 370900360 333416831
780.07 299168399 268543003 241243648 216410046 194293703 174102232
782.96 156008416 140099656 125786298 113020471 101632570 91443697
785.86 82319050 74171607 66809303 60283959 54468922 49361499
788.75 44712719 40490781 36841940 33576750 30615451 28049481
791.64 25807377 23828182 22025075 20395091 18868681 17357287
794.54 16038151 14818603 13626042 12439616 11405414 10513032
797.43 9445872 8449029 7456331 6601820 6019706 5550688
800.32 5091402 4580552 4042002 3587900 3265721 2959811
803.21 2683782 2453041 2276690 2117993 1888793 1729114
806.11 1632782 1474696 1384419 1287596 1122152 1036960
809.00 1045264 989816 895878 880612 845056 757225
811.89 662055 608712 614886 573953 518525 528477
814.78 526147 457180 443181 421827 387994 395530
817.68 367154 355476 430367 490819 406523 363884
820.57 362187 321270 307565 256050 189873 197397
823.46 243816 291928 301314 273869 250095 314210
826.36 337741 287359 266406 258601 294635 322467
829.25 326739 338359 343686 318444 294241 261631
832.14 297578 371315 390441 377236 416873 446688
835.03 417495 426876 478778 511268 533095 567750
837.93 549169 541234 536020 551468 608064 647493
840.82 637759 610260 588978 637128 669355 682257
843.71 737838 737126 779974 850625 882431 889519
846.60 862532 892856 903357 972750 1197787 1367140
849.50 1385021 1413128 1387370 1331360 1375195 1399292
852.39 1379022 1465416 1615457 1707742 1716041 1656788
855.28 1696530 1733869 1638894 1508715 1439043 1389161
858.18 1291252 1220134 1165519 1042161 886249 746189
861.07 702807 708709 671347 623787 534084 415704
863.96 347412 308189 311778 319418 348343 413304
866.85 409736 345476 283228 243258 219495 250038
869.75 210888 158089 184190 231121 227166 186393
872.64 191216 163793 157275 173645 138020 151273
875.53 191486 176388 177526 189637 193367 189927
878.42 180873 166987 130582 110575 125804 110800
881.32 104217 138157 145745 116415 77852 80558
884.21 78891 84191 66017 46900 68694 58170
887.10 65233 73683 45220 38777 52614 33993
889.99 52629 81006 30801 21446 47536 27355
892.89 12162 11067 30020 38346 12327 19048
895.78 31964 42310 65611 48556 61455 52400
898.67 52302 85341 73303 69326 96259 110927
901.57 120888 128130 112367 106853 112625 148066
904.46 222811 241130 235241 261432 282804 308076
907.35 339924 365085 372967 409947 452268 479449
910.24 514063 552160 592080 677852 750169 726141
913.14 714930 793275 859819 883691 882292 925987
916.03 972053 977685 987926 1027786 1078947 1098941
918.92 1112577 1106062 1121589 1160552 1203900 1233286
921.81 1229426 1229845 1218252 1205499 1216539 1244866
924.71 1288590 1308617 1379633 1444188 1461310 1482317
927.60 1482012 1432251 1392532 1474899 1651886 1854725
930.49 1952373 1863761 1680186 1418315 1208148 1247444
933.39 1419024 1586688 1703340 1671360 1492839 1133095
936.28 750912 694445 755063 733544 761684 820891
939.17 841361 893204 951336 973864 1009744 1038817
942.06 1068480 1074857 1049841 1009001 993592 999046
944.96 967073 951396 916523 839520 802563 740424
947.85 680165 670742 617033 573610 545447 490612
950.74 437510 412066 358260 303867 304770 323421
953.63 275863 181854 185956 205616 191424 195360
956.53 164114 128458 133399 159587 147057 117443
959.42 100308 101784 126491 101157 70098 70242
962.31 75779 82420 112975 130235 97141 55354
965.21 54492 71059 73795 66758 60703 45814
968.10 42369 58654 78399 88925 73719 81183
970.99 72625 47447 41969 38264 39643 30244
973.88 10248 10110 8564 3291-20391-51048
976.78-36988-26709-386 6482-4589-12181
979.67-24214-26265-20385-31604-61169-38485
982.56-27019-17384-3699-11479-12758-49780
985.45-81500-61582-50415-85142-54182-23526
988.35-70173-80428-61707-63270-52116-29772
991.24-18630-23259-23784-52561-67823-35407
994.13-22068-56829-46193 2065-21646-46672
997.03-18841-13203-44363-51330-58327-37060
999.92-12423-728 15407 21227 5515-31340
1002.81-38968-19154-17202-7184-1677-19126
1005.70-4763 39471 77890 85212 67853 64301
1008.60 53465 54602 111080 115377 80697 99650
1011.49 116072 129109 149422 135430 175120 215869
1014.38 204114 241069 275865 309101 350982 365791
1017.27 358939 354500 375908 391314 419722 438871
1020.17 459765 512626 549996 575137 565761 541586
1023.06 530516 547746 531715 532856 582690 575185
1025.95 567028 561760 536104 558129 589184 586890
1028.85 577587 567818 578185 597709 600839 600799
1031.74 600292 605269 598411 573545 552507 535019
1034.63 557406 565862 538334 543962 562683 541552
1037.52 497408 464685 433694 385031 360623 356549
1040.42 333477 308418 297626 251250 191925 173554
1043.31 157359 121830 92082 70305 20439 6181
1046.20 20025-1419-24420-15482 8907 34851
1049.09 21366-6382-3848-4733-2846 369
1051.99-25009-2552-7037-37121-12446-34410
1054.88-25500-6735-19523-39161-67816-59772
1057.77-28544-5063-39248-70346-50610-37309
1060.67-32917-38360-44047-35862-15639-46928
1063.56-66748-24257-36161-89131-119577-87980
1066.45-76677-77725-67118-84748-82232-11811
1069.34 28552-42454-80461-51324-25720-25737
1072.24-46040-65045-47023-34720-68301-75940
1075.13-51912-44058-47392-55639-58364-51399
1078.02-33049-47585-79109-64491-72866-79578
1080.91-60326-49434-56583-75204-76574-87590
1083.81-87154-72278-63300-70060-91603-86004
1086.70-71368-67958-65233-77366-43591-46719
1089.59-72894-60785-60377-47289-29003-17923
1092.49-38980-66873-57563-57603-81357-63331
1095.38-49638-58691-61797-72518-91694-103490
1098.27-65366-55715-78301-50862-1636 1695
1101.16-54745-78393-96581-93195-66870-55465
1104.06-43540-38750-20303-23337-50279-63884
1106.95-68762-97021-74948-47381-92383-84951
1109.84-47769-59771-95316-95462-57775-59824
1112.73-47152-26364-54428-76288-58514-53923
1115.63-92933-84847-44497-73562-94486-68889
1118.52-46364-79874-92076-73750-60205-45385
1121.41-60928-70063-92256-87273-64991-47988
1124.31-12996-37178-80697-71087-41768-28008
1127.20-56946-72196-66828-56416-56219-33276
1130.09-34165-48626-43242-45647-44704-73219
1132.98-83722-53497-57688-65706-28415-38533
1135.88-69596-74969-55771-48132-63701-71166
1138.77-69016-46076-13833-9567-27188-76402
1141.66-96321-30752-1670-1072-20122-45906
1144.55-31760-30700-44700-48337-19998-8019
1147.45-27443-56698-71491-76443-71885-34405
1150.34-26746-47906-53399-66710-73951-67297
1153.23-42884-39242-56311-52726-49377-62436
1156.13-80686-56474 1521 17972-55254-84993
1159.02-67795-72487-71296-57732-18697 9714
1161.91-13541-32913-5534-23068-38274-44807
1164.80-50135-6614-3687-33980-40333 1866
1167.70 30000 1314 8286 23459-3427 655
1170.59-6613-7488 1356 7706 19189 16685
1173.48 27083 45902 69204 61309 46729 77865
1176.37 98066 94306 108732 112527 104638 123453
1179.27 169215 168860 164744 193769 209604 213207
1182.16 247995 288288 293599 318345 360405 387454
1185.05 426982 444075 468038 509199 546230 615457
1187.95 673844 715792 761857 790671 843794 884223
1190.84 878916 882107 908316 971062 1033004 1076444
1193.73 1139526 1223236 1350340 1463738 1553614 1682010
1196.62 1859803 2054638 2253996 2497776 2773833 3048280
1199.52 3383782 3762284 4185975 4660352 5189285 5764419
1202.41 6403945 7116784 7898596 8748540 9690708 10701460
1205.30 11760154 12901023 14141976 15511924 17064270 18908398
1208.19 21175303 23592309 25928410 28378728 31059362 33982059
1211.09 37167495 40608796 44515740 49014810 53990837 59469500
1213.98 65505952 72053477 79225431 87081948 95516772 104648183
1216.87 114959939 125508883 134845949 140832283 140783494 133611685
1219.77 133782002 139245374 132443946 120695542 110017999 99929358
1222.66 90559526 81842957 74016760 66878837 60434972 54587027
1225.55 49340830 44601021 40320186 36402381 32900314 29749347
1228.44 26886097 24309820 21971163 19843227 17969717 16281872
1231.34 14763570 13407486 12167497 10997772 9954827 9027165
1234.23 8217883 7475815 6775146 6162579 5589330 5078614
1237.12 4634078 4175503 3777987 3460245 3150839 2875701
1240.01 2653327 2395477 2151426 1937498 1743965 1587399
1242.91 1430340 1292158 1181880 1082347 981467 891911
1245.80 814358 724934 675851 626698 567224 521914
1248.69 481518 438350 395574 382517 354812 297721
1251.59 247218 224943 204570 188653 187402 164196
1254.48 141399 124755 140780 116266 63829 61867
1257.37 66732 70535 57525 52404 43128 16576
1260.26 36944 60980 54736 46612 156-33034
1263.16 3689 21811 16701-20039-21603-8812
1266.05-30892-17343-13504-18759-20549-4196
1268.94-18080-37094-24949-39517-30464-3305
1271.83 1090-32011-34831 59-5826-17556
1274.73 761-6925-10163-4655-36200-61381
1277.62-66441-67452-63160-13371 18695-5032
1280.51-35713-36846-26552-53368-55626-25143
1283.41-29896-55825-54398-55787-54437-42548
1286.30-47138-34972-43447-43231-19999-36543
1289.19-48177-33026-21514-34396-32165-33220
1292.08-53320-63747-52756-54989-66036-65016
1294.98-55492-49330-73044-74582-74411-55351
1297.87-35868-63556-77884-63802-38575-32075
1300.76-35292-35058-39779-35049-27322-56940
1303.65-72873-77273-71406-28577-30485-54005
1306.55-71864-82944-74183-74685-78978-67064
1309.44-59553-65553-57537-36573-27504-21589
1312.33-30589-60967-76617-71335-83077-77497
1315.23-53688-64815-63764-56394-71916-69726
1318.12-77662-69162-27836-20322-38203-46023
1321.01-44847-51830-63435-65655-31999-15128
1323.90-21996-26441-32515-32685-49392-33100
1326.80-20220-28800-31182-14269 1518-22821
1329.69-4063-8464-43231-16990 15054 9962
1332.58-8216-2436 1020 2161 17100 8577
1335.47 18183 5253-80 25659-21730-71342
1338.37-63162-21250-32204-90040-55576 12711
1341.26 20243 19023 37742 50100 51027 45305
1344.15 30207 35015 23751-3811-21663-50309
1347.05-41343-11720-24488-40587-24955-52774
1349.94-101509-112780-111157-145754-141066-156137
1352.83-167536-150337-95217-34307-90509-104806
1355.72-44483 21222-11508-48078-64524-57484
1358.62-23579-87859-137463-156865-195326-136830
1361.51-115527-175671-253222-219538-101381-103897
1364.40-122527-99641-97965-95564-82131-48516
1367.29-16851-56999-69947-71097-101393-95340
1370.19-71367-64881-72379-84078-88726-116458
1373.08-209083-207609-124907-108832-89684-64152
1375.97-45187-15979-28923-61029-53084-41802
1378.87-51217-55576-71803-65586-19114-13406
1381.76-36844-52621-51998-25371-44332-43215
1384.65-35244-46211-59612-92823-188765-292869
1387.54-171958-65579-23651 7826-26970-34919
1390.44-39495-50516-54045-55626-58971-45506
1393.33-94324-289023-247655-89838-160898-137614
1396.22-51996-50639-81563-54569-103187-216238
1399.11-130170-69828-71458-34849-20069-5937
1402.01-18998-20955 1444 26519-25995-157688
1404.90-101966-7474-14188-11856-17867 1039
1407.79-4556-27909-43963-39118-41370-31308
1410.69-19439-16361 22674 35955-5392-25036
1413.58-23735-11140 5017 19211 17676 38833
1416.47 13660-46884-19833-17422-237350-546714
1419.36-281042 64026 93094 168718 182906 165031
1422.26 154449 152400 151594 196141 280149 314315
1425.15 354266 404598 417486 423483 441578 474741
1428.04 516026 581825 567549 549722 668496 779470
1430.93 828546 893787 955952 988267 1039398 1133488
1433.83 1198034 1254362 1311554 1388891 1204603 943020
1436.72 1333857 1751955 1850255 1938153 2020522 2112057
1439.61 2183010 2282336 2383306 2456898 2439420 2398456
1442.51 2425973 2537217 2682345 2689364 2509235 2329118
1445.40 2315049 2444985 2535988 2398629 2048341 1852642
1448.29 1772250 1777790 1854717 1727572 1505971 1316980
1451.18 1140237 968613 866786 780128 688238 575610
1454.08 467049 356731 268773 133142-517338-756412
1456.97-167496-70830-117306 14417 27632 82131
1459.86 101464 118529 130028 116766 100754 84301
1462.75 102853 125640 72464-151779-113639 134545
1465.65 194848 223577 238574 255027 286192 316238
1468.54 329113 354275 342600 300739 310253 171022
1471.43-162733 3987 183452-107573 15218 274143
1474.33 293269 323466 214472 108912 257983 377622
1477.22 378622 403526 392655 392635 400723 390961
1480.11 374308 315735 316191 359355 376991 354332
1483.00 328477 341621 343995 368340 361341 323045
1485.90 331574 236921 100649 186735 253001 199489
1488.79 106254 14966 35794-27755 22995 134399
1491.68 113987 97683 87524 76566 74301 62214
1494.57 33705-91819-554426-512335-64704-38107
1497.47-73967-219632-277186-82151 12612 15253
1500.36 25533 10598-260 11161 33691 46867
1503.25 46236-4074-64684-509580-844000-409792
1506.15-610076-888347-322452-88842-118355 14031
1509.04 24185 42861 130314 173285 210131 89524
1511.93 45398 228765 312149 313210 318537 273670
1514.82 300875 354928 290939 210300 144431 246715
1517.72 467771 515260 547392 477884 349674 303284
1520.61-149136 39877 538802 426573 564381 782355
1523.50 822468 845025 726067 589229 810587 1001370
1526.39 969618 950288 1032789 1050202 1088348 1193697
1529.29 1227734 1258155 1278357 1284260 1282267 1325570
1532.18 1254335 1151801 1076979 1135486 1387205 1451479
1535.07 1449558 1508277 1528257 1542819 1518891 1458538
1537.97 1158158 508773 847260 1094996 920415 1443217
1540.86 1607622 1202958 1234732 1697118 1764302 1834028
1543.75 1966876 1822779 1681463 1892853 2033608 2060211
1546.64 1994999 1955489 1979017 1881326 1759031 1616117
1549.54 1495529 1420484 1370834 1304812 1214117 1172410
1552.43 1147137 1122081 865798 623392 949442 1183296
1555.32 1196864 1200448 1153056 816015 621355 257865
1558.21 162183 738836 494517 46315 504273 1009873
1561.11 1024719 999582 941141 924822 881856 819644
1564.00 696516 609280 656032 636090 572458 550227
1566.89 507263 460010 352390 241682 67479-122665
1569.79 66197 203600 192776 193367 174765 147041
1572.68 94031 69794 61508 15273-33564-393434
1575.57-1110446-755960-117339-72861-22565-11992
1578.46-9613-26820-38584-41101-28609-34094
1581.36-24896-14451 4372 11181-25277-31527
1584.25-25737-17044-3894-19052-31900-25120
1587.14 2863 5735-24373-36257-42729-49138
1590.03-49423-46082-30746-52912-57454-57996
1592.93-75829-101562-117783-83432-74276-88831
1595.82-87638-62356-54125-65018-54945-70076
1598.71-72486-70571-71464-74337-86616-79502
1601.61-70634-86609-104399-104150-88699-83209
1604.50-102026-111721-100737-81920-80992-74214
1607.39-62091-65680-98458-128137-110198-103078
1610.28-109000-94612-75029-75538-84386-101439
1613.18-101734-83532-72004-126265-164681-413545
1616.07-1069909-841139-215626-155987-118879-87728
1618.96-90012-110287-109677-108849-106159-113430
1621.85-123538-166539-395095-412794-165620-90116
1624.75-81015-74962-90247-114341-149675-243234
1627.64-200664-93970-79314-77219-73584-77958
1630.53-92359-88164-79748-93254-100713-111519
1633.43-126966-237579-461611-881544-856332-319871
1636.32-161379-248997-238412-136659-100561-104951
1639.21-113151-114365-125158-126130-111971-107401
1642.10-96751-80177-82796-82805-105611-122224
1645.00-445035-830522-460070-263139-376039-316657
1647.89-291979-196175-121075-110371-108104-172995
1650.78-193292-470831-1205328-1398062-1497353-996511
1653.67-512011-571223-248494-137995-127147-103887
1656.57-90482-109357-100794-99676-75376-72628
1659.46-78602-78281-86524-111236-126661-276544
1662.35-422869-225760-75808-87928-98633-91505
1665.25-75690-75579-57579-57453-87462-141499
1668.14-216853-529469-539171-200028-126326-213508
1671.03-269140-150823-79554-102150-100445-106601
1673.92-142877-482523-675388-302275-76122-77098
1676.82-65711-69005-62921-71284-105559-128435
1679.71-141197-145403-89539-98185-108827-209014
1682.60-411466-463434-500523-1202011-1306722-401319
1685.49-145518-139472-77934-73478-119307-164163
1688.39-124920-80059-118358-142415-85058-74610
1691.28-87199-92041-99588-111697-109068-103856
1694.17-167757-391521-1202346-1249999-392479-193736
1697.07-232630-175522-173844-223068-619806-1113616
1699.96-1104892-754686-289889-127810-120398-110414
1702.85-106875-156335-306819-253136-110172-174833
1705.74-316033-226896-92187-86010-84725-57036
1708.64-39435-88717-135420-107182-84118-80311
1711.53-81642-66110-69140-130205-206672-199931
1714.42-374966-383872-197520-149477-430833-1072812
1717.31-735900-401295-467249-202065-116829-103417
1720.21-82568-85011-94698-86504-89226-113385
1723.10-135846-104442-68310-63281-83833-106332
1725.99-112532-101313-93830-91456-88282-99177
1728.89-120811-192782-178190-109112-101374-126297
1731.78-142176-258892-758699-666590-668852-891488
1734.67-382763-138692-113048-78919-95951-105505
1737.56-72265-76012-129567-358656-436346-174940
1740.46-93336-100434-86712-124430-177948-173151
1743.35-131038-128592-121365-104356-102117-93066
1746.24-125691-170363-134979-162148-257843-222209
1749.13-149869-110114-186662-506122-519926-185503
1752.03-98680-114224-88256-76396-74698-73328
1754.92-92396-88281-180398-275832-152356-69801
1757.81-74964-81093-90891-86183-88526-78499
1760.71-154182-400701-326339-106206-92278-84759
1763.60-64898-50508-66397-65598-51085-62179
1766.49-90819-130952-331195-324665-122224-82543
1769.38-74329-86121-173168-297359-191921-428631
1772.28-718534-336327-124346-133111-88391-94519
1775.17-109319-63155-29213-46254-33189-43942
1778.06-67122-67592-48764-60884-153656-139278
1780.95-49431-35293-24932-26178-52706-52579
1783.85-74104-186057-132811-38165-46993-42819
1786.74-32937-27082-34847-51312-55491-32231
1789.63-40561-139279-188725-88779-177625-480517
1792.53-343517-60683-36348-37067-51678-53714
1795.42-52996-38886-18458-10704-6386 6068
1798.31-16283-108060-134500-38276-23487-86827
1801.20-53291-39732-42881 2540 12986 25922
1804.10 21186 13502 24004 39430 49498 37717
1806.99 23937 20068 32337 64578 65490 48623
1809.88-6733-11001 51184 76616 86325 96285
1812.77 101211 110452 107451 97921 112195 107437
1815.67 99410 126836 117091 104462 132201 135440
1818.56 131222 155869 168436 148851 148923 145821
1821.45 124293 116214 109458 123454 111005 87013
1824.35-20987-101356-9129 35706 40702 44960
1827.24 40005 68075 31012-1838-27698-81202
1830.13 70042 180464 197237 209017 200728 216497
1833.02 214955 202715 192423 177431 164424 161448
1835.92 140447 109092 97828 112101 109916 97056
1838.81 81291 65236 57518 66339 75358 42379
1841.70 40740 21288-26876-163493-425648-279744
1844.59-34087-13266 5854-16915-36874-55905
1847.49-44754-14019-14093-23288-30461-23956
1850.38-4937-15787-39460-31851-16492-24352
1853.27-35291-38842-41411-30866-17343-14318
1856.17-11984-31036-51813-45081-51143-50512
1859.06-42203-38105-46254-59444-43747-36296
1861.95-43382-46755-45136-37683-46375-61258
1864.84-56543-65303-94353-90042-99209-151639
1867.74-126181-127612-264371-234231-102700-94005
1870.63-98224-78032-56066-72562-96199-83647
1873.52-73370-76119-62799-62957-74657-71094
1876.41-69604-83199-88296-83593-81053-79265
1879.31-56356-37359-42943-55965-61310-66723
1882.20-65943-66917-78621-72677-55334-52079
1885.09-77858-66679-26795-35536-62364-76326
1887.99-72594-88589-152715-99207-36293-37108
1890.88-27383-31223-24267-27752-3476 8192
1893.77-17070-43898-55938-46661-28259-28079
1896.66-35722-39719-47398-52644-59656-43011
1899.56-36016-41198-38654-44489-59081-69627
1902.45-64627-49214-59157-61279-46182-55778
1905.34-70303-67870-67212-92543-96828-91116
1908.23-91687-71859-83682-100215-83347-74619
1911.13-81461-86591-87764-73716-60939-70391
1914.02-75576-79082-68853-59048-60194-61436
1916.91-120019-247634-185659-68080-70719-86616
1919.81-79763-85410-84393-64845-82048-116791
1922.70-128651-79218-55969-60877-60251-49063
1925.59-46420-44676-54162-80989-70542-57801
1928.48-65099-73191-75784-61032-62155-85683
1931.38-88419-72540-57035-52070-56563-51448
1934.27-54117-87353-105251-96151-100451-82658
1937.16-70914-80595-72433-75204-77197-69695
1940.05-44873-52805-72317-86390-148394-119896
1942.95-52224-50642-71369-97008-103550-91663
1945.84-89180-81369-69985-69891-66964-71180
1948.73-76958-69542-43752-44946-45558-47741
1951.63-68427-53288-37020-44496-35119-37305
1954.52-69198-85989-72052-47424-50539-56537
1957.41-42386-51338-61115-49985-41986-32781
1960.30-43339-38888-26656-27841-25183-34894
1963.20-40757-37153-34270-33861-38482-66142
1966.09-63969-60232-80041-78141-59503-40337
1968.98-46989-48488-45648-42511-38731-26793
1971.87-11954-21084-28186-10224 4948-26270
1974.77-71040-71135-44661-32794-27712-35249
1977.66-34274-27843-38796-24543-15048-12252
1980.55-6329-16548-17882-13567-10878-10143
1983.45-36658-33085-23224-34546-29558-37189
1986.34-39479-39817-41550-37732-28990-33827
1989.23-17994 3648 114-2343-42529-57318
1992.12-22174 3228-3874-40447-50734-32129
1995.02-27056-36694-51290-51064-45346-41071
1997.91-24369-28081-39999-31307-28068-30401
2000.80-41894-48231-49743-39405-15069-20365
2003.69-39487-40219-30300-34023-38300-38245
2006.59-40357-55809-43401-9594-8513-43752
2009.48-52496-40344-36869-23482-37756-43547
2012.37-38053-44825-53461-56177-53506-63770
2015.27-63847-75174-92862-62612-38116-43347
2018.16-49625-65149-63210-44478-49900-55859
2021.05-53748-59290-59659-59732-53985-52829
2023.94-68906-67392-56872-48897-48949-62028
2026.84-59679-66848-68134-61300-67325-60905
2029.73-67539-69291-64058-72919-67712-78269
2032.62-76470-69977-77140-72999-68432-57920
2035.51-69400-63634-41618-36954-48025-65050
2038.41-67149-52287-63610-89734-83837-90751
2041.30-81495-54148-54283-65322-66788-57383
2044.19-64073-87902-71177-57588-89129-101643
2047.09-74223-48761-54993-67278-73734-72519
2049.98-61101-56110-60514-62729-70978-86344
2052.87-102068-96201-72199-56358-69203-83174
2055.76-68366-67218-61232-38210-40292-58735
2058.66-67325-89982-82717-67867-72248-72261
2061.55-83581-72963-49265-52467-67710-91385
2064.44-71401-31252-35528-52978-89425-103940
2067.33-94570-81348-82282-77384-68826-68965
2070.23-73969-80476-66305-65508-59299-59008
2073.12-72232-78747-79290-59532-56427-73559
2076.01-88307-73176-70609-60050-54915-63169
2078.91-74720-97237-82828-75797-77586-89543
2081.80-85031-69589-69987-74108-80890-83948
2084.69-82248-80447-81453-76687-66332-68946
2087.58-78075-70548-76904-92407-95480-94963
2090.48-70609-53825-65407-66933-82748-93149
2093.37-81017-92141-104679-88008-68109-64566
2096.26-61007-51703-59241-84498-107669-90330
2099.15-64425-79157-70772-48769-58082-74093
2102.05-84878-100576-104962-89774-83271-83802
2104.94-86358-84089-54757-59658-90228-73016
2107.83-71441-70644-63054-75544-60975-76060
2110.73-128308-116075-56725-59974-70499-71657
2113.62-69795-55902-76206-109861-89660-52310
2116.51-43386-51022-59940-71749-75864-85722
2119.40-80488-45277-45366-53470-60174-51716
2122.30-60680-110386-135100-106379-73783-54452
2125.19-62293-64013-55632-75883-97451-66666
2128.08-43059-58927-55003-71078-88750-81310
2130.97-78612-84550-75791-66160-79345-75287
2133.87-62049-54363-85158-68157-28498-59871
2136.76-55558-45861-57725-55268-52498-59646
2139.65-63275-63677-63484-77857-66351-37624
2142.55-44383-66021-59361-55626-84474-87164
2145.44-69254-72808-79368-66210-56784-66746
2148.33-75087-64978-55006-68775-87460-69077
2151.22-54959-60029-66466-66677-57634-75549
2154.12-96235-75916-54307-51185-41699-51580
2157.01-79739-102463-97222-62332-58406-55288
2159.90-51056-55626-57682-86537-81836-51485
2162.79-42839-33445-48306-61756-91731-111306
2165.69-68618-41904-43477-48035-52224-75381
2168.58-109272-101924-78069-70430-66948-65014
2171.47-68312-83093-65260-44815-52479-45944
2174.37-35020-43477-73879-92343-48315-24101
2177.26-46722-73214-80033-65088-92960-90435
2180.15-46090-34772-42276-45845-47793-65712
2183.04-56407-26692-27132-18604-5374-19090
2185.94-71536-63021-16030-15076-4414-5741
2188.83-24291-57296-53382-34845-30845-20873
2191.72-13958-18574-21885-11793 3121 11606
2194.61-4631-7022-13066-4055 1038-15749
2197.51-20776 43 15342 30727 29696 26358
2200.40 7626-14265 4836 23726 10189 13762
2203.29 30999 37299 48025 30588 15091 21533
2206.19 41048 54038 50487 49238 60662 38417
2209.08 25935 27454 31989 32398 46275 33400
2211.97 27266 34196 41600 70869 77715 69040
2214.86 52158 33650 26526 25510 38677 31911
2217.76 9294 4855 14152 23096 12641 2208
2220.65 756 24177 21036 2498-5056-8144
2223.54-6180-19039-14937 9614 32353 25125
2226.43 2749-17400-6222 12911 27406 47037
2229.33 36819 25896 41236 51053 38238 44526
2232.22 32070 20328 37076 44451 43209 31400
2235.11 28000 35681 44676 37588 45018 65206
2238.01 65276 55304 36769 22074 30213 32717
2240.90 36675 38366 14583 10412 38211 57941
2243.79 26393 7891 4737-7552 12890 21734
2246.68-3853-26392-23270-18967-30689-37186
2249.58-34653-14523-11459-3088-3839-17672
2252.47-13130-16632-14747-19811-33469-32066
2255.36-16673-11277-23145-34862-28912-32802
2258.25-42732-37034-19416-17073-12229-23018
2261.15-58384-49549-38122-25830-23965-39129
2264.04-33639-25490-19742-11861-9591-14957
2266.93-6604-14681-27420-20814-9244 3599
2269.83-1184-36643-57685-29563-6221 4300
2272.72-2356-9104 792 65-10687-6015
2275.61 14011 23748 18777-2034 53 7410
2278.50 2077 12202 18402 25820 42613 33203
2281.40 28889 16820 19706 58273 68459 45308
2284.29 35746 52696 70240 77723 83046 80726
2287.18 77112 61424 60073 68014 67913 84759
2290.07 75794 67248 65096 61381 79704 83708
2292.97 75165 56184 42806 22836 3104 23271
2295.86 31665 17959 15846 16118 7934-6802
2298.75-12621-16093-6528-9805-18269-12297
2301.65-6892-2606-29890-43041-33335 6406
2304.54 3946-36064-39025-16586 15112-14205
2307.43-20031 2370 38664 36318-232-7795
2310.32 41818 66669 3991-28037 43132 94178
2313.22 38454 10554 72152 153058 82726-5587
2316.11 61023 184281 117212 25159 64426 206313
2319.00 177060 27541 79349 280402 264897 73745
2321.89 115939 341809 315613 82358 134475 413814
2324.79 367500 82619 176513 483925 370231 70540
2327.68 259376 589046 366859 67040 361878 637720
2330.57 313162 121840 524667 665981 230488 180419
2333.47 664494 592284 137732 328892 713823 427317
2336.36 150112 538236 678807 255145 267073 650829
2339.25 463047 134818 455807 629999 254192 250986
2342.14 570682 389483 141467 363541 404478 143336
2345.04 194893 305448 147126 112372 213129 153008
2347.93 56299 50444 73066 107938 79349 102273
2350.82 250326 203602 136061 348294 314730 178683
2353.71 475618 431899 192575 532357 541174 265173
2356.61 645742 621199 306934 717191 612458 346145
2359.50 782478 534376 400018 838394 467641 510145
2362.39 790009 377276 628142 647837 330767 688182
2365.29 457766 418685 638546 323252 520381 420365
2368.18 322405 515151 281712 405117 327713 260473
2371.07 324376 184360 272010 174132 195940 154485
2373.96 110682 152791 109080 113236 53777 77908
2376.86 85536 71563 55277 61159 57770 52934
2379.75 57241 75468 52885 14461-2178-2934
2382.64 3249 3974 15915 22487 36793 40675
2385.53 48158 75843 87029 71922 86587 123237
2388.43 125766 117356 132727 146209 160183 180600
2391.32 203504 240431 278267 299415 333114 356047
2394.21 369913 390206 425302 458681 492227 544491
2397.11 594357 655165 665709 576344 519865 515624
2400.00 479702 443439 435481 400586 387495 418688
2402.89 414043 382293 356654 353595 363552 400990
2405.78 495677 697631 1082547 1730217 2760906 4014833
2408.68 4883720 3597751 1384919 612226 421030 327379
2411.57 294148 297906 340309 391620 453627 495868
2414.46 517751 545936 589016 625607 661102 697691
2417.35 727345 749101 756388 757784 763490 743960
2420.25 740104 731460 717253 707066 689848 651617
2423.14 610762 569025 535843 512776 471705 432019
2426.03 396938 374999 357655 347487 324395 298424
2428.93 285348 282244 263609 240542 222218 191582
2431.82 169372 151565 138890 128314 106458 97506
2434.71 86516 65847 72604 85567 101878 132319
2437.60 165152 184100 214147 273836 312705 325778
2440.50 346183 348563 371820 372760 328438 305665
2443.39 266091 224360 185017 179078 170591 156731
2446.28 153594 136281 129143 133615 160897 182235
2449.17 181299 174719 173610 174264 193123 218071
2452.07 216973 196737 186700 206050 215354 226005
2454.96 237533 221655 210467 215479 226357 219681
2457.85 206075 213431 214999 184042 178915 186467
2460.75 169604 159437 144015 124421 114734 124694
2463.64 135131 120107 94442 94190 108921 86504
2466.53 69483 78340 63748 63225 75181 66197
2469.42 36553 26786 34123 5375-8873-2898
2472.32-13908-18545 4769 7350-18673-33748
2475.21-30276-17841-12548-32775-49879-45411
2478.10-50558-53084-51113-66960-72195-55840
2480.99-37308-32867-47369-61244-64494-78651
2483.89-79451-56192-60395-78708-78300-68162
2486.78-62179-53209-53379-57820-65664-66193
2489.67-68003-81848-79495-62040-54532-43795
2492.57-62701-74239-59330-64670-76432-75692
2495.46-60539-67708-70851-81076-93834-86921
2498.35-73797-73642-93117-90529-67757-49518
2501.24-38308-34616-47613-70315-67577-70868
2504.14-93145-62085-38810-52871-40338-49995
2507.03-76309-90040-97995-83793-77795-75970
2509.92-79615-89172-78869-69970-73847-73656
2512.81-74083-69208-53629-77155-95712-68291
2515.71-46205-46431-48120-42964-56835-76572
2518.60-66610-76775-87514-88366-102822-103608
2521.49-97745-64359-45598-57978-88030-86925
2524.39-67930-85705-93797-95718-102680-99528
2527.28-79772-68124-61902-64778-68840-82998
2530.17-93475-75970-62390-62858-63391-63367
2533.06-98810-99970-80180-89899-89539-92172
2535.96-93196-72692-69467-70825-60269-77931
2538.85-76977-88089-84818-64110-93010-109300
2541.74-97675-92837-94869-88277-65531-70899
2544.63-109307-104711-83957-90192-72330-90777
2547.53-104591-74734-84224-81925-86430-92292
2550.42-78740-75709-82377-94323-97710-105228
2553.31-103296-88954-75669-82012-80667-78164
2556.21-118101-111370-90345-100952-97990-112952
2559.10-95082-78750-80790-71249-80605-75215
2561.99-68552-82015-79544-92715-78241-25472
2564.88-36354-61989-61248-59887-64461-41079
2567.78-40391-63946-83383-78627-71213-91702
2570.67-110130-118986-113866-113975-128501-133877
2573.56-110855-107012-104775-75588-63679-75865
2576.45-86233-89116-68762-62118-93998-102700
2579.35-84109-82122-53970-28694-51016-48108
2582.24-34281-46988-75855-72652-43474-63126
2585.13-92479-88057-92012-74307-75601-100968
2588.03-75458-78662-90131-77667-89625-104952
2590.92-115976-136255-118076-85797-101175-82289
2593.81-53911-57201-57243-57677-62587-67166
2596.70-77061-105847-102159-70953-68334-68035
2599.60-85303-117713-107066-81638-77486-68707
2602.49-80923-93686-66239-68053-80219-93240
2605.38-93363-83737-73602-61028-70069-79274
2608.27-92431-105151-78120-70577-93757-98554
2611.17-104604-86999-83586-94196-88319-73303
2614.06-53364-67231-85744-70115-45935-65149
2616.95-80847-84351-71112-63004-83984-97065
2619.85-95043-84971-90188-97046-100273-97266
2622.74-97633-89139-85103-73369-67034-72945
2625.63-60262-78915-95129-89263-95915-85937
2628.52-56411-55159-81342-74069-63194-76279
2631.42-77727-83928-106407-104873-74873-82642
2634.31-82472-61020-67606-70993-65532-69306
2637.20-83158-63016-61435-78634-57931-66480
2640.09-68873-62304-81822-59875-51432-56849
2642.99-59881-82777-89904-92884-70858-63575
2645.88-67078-45343-52457-54031-57637-85077
2648.77-100968-83822-79619-104457-98301-77524
2651.67-84121-85269-50667-40837-74217-85904
2654.56-77143-57591-58928-71228-77252-88534
2657.45-90830-115478-112670-82715-68979-96526
2660.34-108847-83480-68672-66713-62044-65623
2663.24-50430-37556-78118-87929-73841-84208
2666.13-76708-65138-81414-89280-90317-99561
2669.02-94615-90634-84518-64631-61771-64173
2671.91-67842-77609-76436-86862-114349-104098
2674.81-86876-56089-31412-82472-118357-107784
2677.70-79070-53658-51315-55822-68249-65409
2680.59-74615-96822-73058-67344-83552-81512
2683.49-59760-65061-81422-49566-38095-44399
2686.38-62252-89120-73133-46172-66784-79694
2689.27-77806-83864-76604-59934-47975-70601
2692.16-96296-80195-82883-99114-97692-87125
2695.06-90868-133144-126873-88056-104397-130790
2697.95-132367-117703-117091-118406-89604-82479
2700.84-77255-69614-100578-131122-92029-64241
2703.73-109764-90479-50399-58728-54060-68754
2706.63-40383-10402-33845-37131-29270-18277
2709.52-24351-39648-49279-54718-66139-75098
2712.41-67293-72483-98830-93956-86532-92408
2715.31-93282-97678-73689-67628-81128-81991
2718.20-90472-65807-40910-65454-82620-100864
2721.09-101908-107335-126847-125398-119055-127188
2723.98-107209-68484-68681-87194-116396-103547
2726.88-86332-81639-68281-59830-60084-71175
2729.77-63384-77405-92418-82821-79292-78434
2732.66-63363-37306-53494-74808-75905-61744
2735.55-61487-72181-71439-51438-41136-81162
2738.45-84259-71372-99686-97072-58422-62434
2741.34-87036-70995-63811-84572-80276-87226
2744.23-89024-76609-58915-70576-98068-91976
2747.12-69579-73435-93767-73656-67585-83021
2750.02-83115-84542-104435-100636-101151-87506
2752.91-57111-52232-60490-85566-98519-121817
2755.80-126926-109922-102239-79859-79189-106467
2758.70-108221-100903-98481-91968-83507-81631
2761.59-97603-80566-49295-70740-112724-95971
2764.48-87091-108261-109111-105826-96377-86514
2767.37-82351-55880-52502-75120-102736-126442
2770.27-115760-107193-97824-88967-79263-76274
2773.16-64043-73874-89047-66397-80773-122364
2776.05-120180-119775-130573-110126-68856-45957
2778.94-84195-109765-93052-81789-76346-63359
2781.84-62229-69451-50069-63051-106608-90088
2784.73-82112-104979-96891-93527-95122-99661
2787.62-96405-75995-71917-76642-62579-77519
2790.52-93938-100479-115441-109156-99968-99196
2793.41-99223-61824-56875-82061-91417-103963
2796.30-94944-56285-31412-52293-77148-83873
2799.19-95996-102719-92117-93017-93599-100736
2802.09-113160-102754-126548-135195-92604-56748
2804.98-51175-102778-144374-114020-99298-88750
2807.87-64589-93211-83148-76270-79010-80729
2810.76-83416-76209-111952-133709-119117-110301
2813.66-141894-158135-123151-106237-121421-92627
2816.55-87771-100954-79307-90840-113068-106252
2819.44-111769-106668-93665-89634-86357-97249
2822.34-86159-83222-98637-93630-106588-95800
2825.23-54961-47007-66938-94935-94247-82145
2828.12-78873-71425-69019-66421-57221-46958
2831.01-32904-44317-56549-76103-82364-79633
2833.91-77940-103320-122403-109907-116660-105342
2836.80-103274-101116-73469-79565-89189-69701
2839.69-63351-54037-89907-107845-71486-69491
2842.58-97442-75699-76210-113592-87580-79387
2845.48-91513-101961-99279-73054-66561-62597
2848.37-85984-111253-112093-104417-82498-63242
2851.26-74680-114267-109468-87672-94719-108652
2854.16-124699-145115-145415-122114-110526-123505
2857.05-111852-88902-76450-67077-58511-63381
2859.94-97808-127431-109576-94717-75801-56580
2862.83-90110-89138-108449-128618-124343-125238
2865.73-117022-114308-128660-144857-123147-102314
2868.62-115061-132569-102656-49759-50553-92491
2871.51-116463-114186-101647-109754-95237-97889
2874.40-137077-117211-116802-102368-62312-86931
2877.30-98308-98724-97886-85381-113007-126818
2880.19-95138-88492-107896-117388-113761-93242
2883.08-85132-111236-141497-157273-149464-132323
2885.98-121465-137988-112319-85379-111821-119002
2888.87-101695-128297-140571-77695-58289-95034
2891.76-106101-87969-89778-119810-146660-150697
2894.65-136737-133493-140860-118430-74790-60638
2897.55-89240-96453-60991-59775-75719-74456
2900.44-68664-74937-98958-120109-115042-98702
2903.33-111585-121775-141101-172190-122827-51898
2906.22-84655-127904-123323-106694-83265-82466
2909.12-103654-97962-94219-91844-109221-104953
2912.01-101112-114785-104334-108709-134884-171070
2914.90-165238-131907-118039-126487-120224-118499
2917.80-106397-109990-146804-149642-168937-173839
2920.69-136765-112633-119939-127788-147033-168819
2923.58-144125-152912-168851-161823-142953-107555
2926.47-102653-136778-166832-136887-109829-139704
2929.37-157968-147131-155486-130529-133152-142720
2932.26-125924-134918-107207-98190-120284-155949
2935.15-141062-99684-125158-153374-149657-158726
2938.04-145091-130760-131910-126156-119101-135147
2940.94-129375-121325-125589-94511-100578-103848
2943.83-80480-84029-127639-144719-131084-124485
2946.72-130820-138414-124457-93316-89696-134976
2949.62-129528-122409-143981-144611-120036-96853
2952.51-114193-126758-111869-96370-87288-86095
2955.40-99575-91957-96380-129550-124101-117467
2958.29-108878-99877-137089-150100-134828-132217
2961.19-201942-175935-71793-90257-99210-87060
2964.08-123161-157217-155425-135445-154271-190049
2966.97-186211-157663-154539-160513-179639-175005
2969.86-194595-196295-133579-118039-154699-160028
2972.76-113991-116514-162826-195438-184929-164253
2975.65-157880-132674-107646-134965-156445-155970
2978.54-147770-147887-134832-114885-115408-123547
2981.44-121369-131515-174010-164116-132154-93239
2984.33-90362-119776-103010-87522-86628-85915
2987.22-71895-99853-108895-62968-73292-91860
2990.11-110756-132140-109599-63267-41538-64200
2993.01-92722-132470-106780-58791-67536-98282
2995.90-128339-102214-110328-116654-88354-87266
2998.79-78226-74807-86356-93728-98987-96696
3001.68-108461-141936-132877-118136-125279-87709
3004.58-77212-114345-123811-115141-117084-103264
3007.47-65597-50743-78643-82044-75558-84922
3010.36-60692-39532-34656-26019-10053-22390
3013.26-12303 9275 9817 28669 11848 39753
3016.15 120580 128966 96450 93694 109235 124568
3019.04 125526 119840 135231 171339 163153 166527
3021.93 173474 198217 259020 265584 238489 195762
3024.83 172121 198019 162523 123324 85518 92197
3027.72 122991 113153 166759 198663 117275 87709
3030.61 13438 127401 197666 1503563 3518023 2881204
3033.50 1534914 926488 451814 245864 130850 98263
3036.40 118917 142219 111610 121537 134859 170282
3039.29 202851 230616 247183 282982 312249 288586
3042.18 275386 271065 277678 302469 308783 304840
3045.08 296744 274621 287597 280981 217359 179436
3047.97 190311 199113 180817 134015 111912 111541
3050.86 84684 61329 57109 55415 3398-12357
3053.75 236-3391-25902-66265-80201-71962
3056.65-85819-31697 8206-45055-66633-53155
3059.54-59104-74874-78771-102564-97510-107932
3062.43-102629-94447-114949-99105-94448-88990
3065.32-81402-68200-70725-78409-99977-96286
3068.22-58000-52952-71168-87309-94009-96976
3071.11-93012-77859-58400-43681-76426-84450
3074.00-51018-82900-82731-43533-56215-57107
3076.90-54783-64728-66724-89139-93275-64600
3079.79-58853-66524-77959-94514-88069-90933
3082.68-67092-35080-37055-40062-63744-93926
3085.57-115089-101271-55401-47171-21567 10208
3088.47-35349-64370-36717-33909-62584-95037
3091.36-79621-44600-30084-19358-8758-1160
3094.25-41068-52095-48671-42182-25952-58840
3097.14-94316-98235-82623-42434-5383-13398
3100.04-21749-32666-48315-42765-60756-74752
3102.93-66564-52238-53130-37007-15376-43641
3105.82-57082-28985-20981-13578 7358-14707
3108.72-19905 5164 11117-1502-22979-2069
3111.61-11994-18900 11787 30009 9950-53677
3114.50-19480 3687-55835-53704-40615-45828
3117.39-19188 7939-8727-21226-4973-3222
3120.29 13889 10413-18879-31952-61198-73369
3123.18-49481-32500-28869-36762-17290 24820
3126.07 15895-8639 27315 54661 11681-16710
3128.96 1107 19039 58664 39636-18687 30712
3131.86 56800 29547 12629 14405 8257-35632
3134.75-32934-4925 18273 40584 18772-11534
3137.64-19987-13272 12727 13309-10628-6783
3140.54 14887 38565 32422 6208-4440-26601
3143.43-9464 3794-19406-21147-2169-8310
3146.32 8422 37722 25765 33959 35367-2234
3149.21 1004-11318-28080 11835 36592 31828
3152.11-1181 16229 31854 12393 30741 35098
3155.00 43298 49618 55253 33464-1693 19696
3157.89 31844 65007 73131 55334 50729 51268
3160.78 61351 36573 3665 5627 40557 45506
3163.68 23636 62829 98944 78683 50615 20648
3166.57 28613 21340-10679-13712 8013 5593
3169.46 2408-20293-30939-5972 4962 48434
3172.36 68249 28622 55366 70599 18560-1150
3175.25-6564 10683 16434 22921 4324 21110
3178.14 29912 10368 12308 16773 42023 13498
3181.03 33727 66274 45142 30735 33235 31562
3183.93 38867 65785 49372 26394 30243 33689
3186.82 33134 43865 39228 28821 21729 36211
3189.71 31701-18804-13160 6756-7203-15732
3192.60-15714 9316 35155 15597 358-4302
3195.50 3598 3725 23559 61644 48582 21827
3198.39-437-213 3990 18460 36010 22712
3201.28-17217 4664 38112 18985 5590 51430
3204.18 67339 12342-9220 15246 11690-18268
3207.07 20826 27554-4660 3253 7825 21873
3209.96 33509 50408 48146 42509 40971 6184
3212.85 17555 13460-12697-7179 20628 43533
3215.75 22252 26635 43371 89205 78527 17682
3218.64 30131 33490 16413 24587 36706 59969
3221.53 76469 22669 14363 5118 9283 10574
3224.42-3705 15323-15081-24911 20990 57711
3227.32 66494 32755 8147 29819 61173 85818
3230.21 87440 56968 46358 40700 12230 6220
3233.10 32113 17383 14766 39856 43062 30593
3236.00 13970 32611 21462 14554 25887 32821
3238.89 35963 56465 55577 31959 58565 81800
3241.78 76704 61411 30539 75011 72353 38197
3244.67 49778 24785 44860 45147 38744 77346
3247.57 65872 64643 25786-34501 11654 47916
3250.46 42035 46826 70921 85341 81851 51396
3253.35-17874 27733 78322 60502 32730 35325
3256.24 35828 19324 56603 42163 18437 13675
3259.14 11351 40077 27829 17595 59192 62621
3262.03 72613 81064 26121 21479 40037 9098
3264.92 18920 36793 35181 25834 15966 64023
3267.82 79046 55933 74990 80284 34904 15291
3270.71-3642-6364 39231 53263 35118 5861
3273.60 26343-676-4060 64039 47566-355
3276.49-13833-11590 4490 30766 7057-8038
3279.39 17111 21248 10465-5440-3243 13913
3282.28 19699 27299 33678 35480-5277-42320
3285.17 1958 18867 24679 45084 19957 18287
3288.06 62962 60586 17499 28058 20089-18937
3290.96-25729 14287 22810 3775 17261-10997
3293.85-4093 19008-2279 9282-6981-5146
3296.74 31170 48171 50506 52556 75540 19215
3299.64-13453 35340 40689 43859 19491-21473
3302.53-27410-48769-19884 20377 26055 18621
3305.42 17591-38556-59621 45575 48518 7934
3308.31 11088-18505-2933 3884-42551-22950
3311.21 1675-8332-26686-35677-37894-37788
3314.10-38171-64066-58631-2040 7208-58337
3316.99-63750-22585-12994-61911-82827-42626
3319.88-31099-37619-38238-47854-31370-15550
3322.78-29604-38120-44650-38532-17549-21681
3325.67-63766-73080-76783-58607-7238-3937
3328.56-2461 11402-29507-71246-30772-27050
3331.46-68258-52439-23510-30556-55749-66584
3334.35-48293-25552-14035-55615-90788-22131
3337.24-4154-32063-23802-40826-58274-41335
3340.13-45913-85630-69713 2667-1514-43837
3343.03-4344-27862-101288-75032-22472-29739
3345.92-13851-53281-95274-72858-76065-47193
3348.81-38177-34402-38141-45831-34477-34408
3351.70-32125-38592-76070-86892-83508-98840
3354.60-93908-25071-4717-41090-52516-78992
3357.49-86909-66928-64560-46400-9361-23358
3360.38-64579-41003-45153-89816-77058-68875
3363.28-40637-49554-102079-79531-34605-16002
3366.17-45193-75013-49107-55641-66191-18164
3369.06-24437-72130-69146-77046-92116-84604
3371.95-77785-82391-104470-83153-60691-65026
3374.85-87101-100396-75690-54751-31643-42352
3377.74-77242-113417-119770-80382-72564-105430
3380.63-101354-122269-133236-55345-29727-48442
3383.52-38524-40055-19858-13016-15602-4047
3386.42-35004-54997-49088-51793-23051-13240
3389.31-67570-67598-24355-32564-37844-38996
3392.20-61299-68639-101102-132410-115733-93915
3395.10-58493-69175-54602-40413-5282 59595
3397.99 11010-31318-18330-60074-87429-28152
3400.88-20058-28784-26318-51386-70822-62014
3403.77-48517-52888-52115-29988-8105-8439
3406.67-40569-76119-71277-59319-48747-68138
3409.56-83735-44790-56775-72886-69469-32653
3412.45 58442 20236-31304-64908-107915-83505
3415.34-68168-78995-41020 14850-35114-84771
3418.24-80886-60906-36990-67687-96318-51938
3421.13-69312-75964-15625-38061-31347 24845
3424.02-21544-71705-40983-24405-46751-57241
3426.92-84493-110092-62717-63262-98215-110688
3429.81-125402-89019-48116-23969-16305-29289
3432.70-46742-88395-75306-12149-12102-2165
3435.59 6475-35597-65451-69404-80303-114760
3438.49-112399-110640-131200-85548-44467-105456
3441.38-124284-69969-63770-124826-150930-78162
3444.27-23207-40175-84672-103451-68292-114532
3447.16-133016-68689-94694-103108-68762-95924
3450.06-121015-63349-24852-55987-74805-48186
3452.95-34320-71647-106315-94014-65160-51704
3455.84-61104-105765-114356-53000-23372-39983
3458.74-92711-131755-123561-79605-64380-118345
3461.63-78069-2589-1470-18462-51537-87437
3464.52-107950-84845-14602 8711-38614-98181
3467.41-96086-92904-105348-76029-52888-64617
3470.31-119252-145072-129385-156748-122613-27445
3473.20-29891-76616-91704-86303-91486-78529
3476.09-45440-31933-69770-95988-62982-71475
3478.98-102518-119605-108004-86259-107758-85570
3481.88-69586-106838-109044-78607-50630-85285
3484.77-144154-143689-130458-84483-67601-91232
3487.66-89276-131834-115406-99376-142849-139297
3490.56-130649-76864-63679-100787-104279-152549
3493.45-158922-110893-103069-108006-120357-118401
3496.34-103229-89581-77807-110653-135453-137170
3499.23-127764-144589-134806-105070-121510-103299
3502.13-104359-139343-129322-133651-171387-157827
3505.02-127950-130144-101208-94736-124227-123741
3507.91-136958-130821-154937-164330-144378-117913
3510.80-75278-126388-180540-125664-106247-129255
3513.70-108093-136012-120966-60062-66317-105575
3516.59-102896-81608-99552-133094-165658-170654
3519.48-148001-105820-91198-113794-135466-129671
3522.38-131864-99497-117034-145545-96811-110889
3525.27-144556-135702-114908-128277-144794-141060
3528.16-147671-162561-161663-144701-149262-134409
3531.05-118124-116436-139951-134698-61787-58899
3533.95-76470-58581-75940-139263-158990-116817
3536.84-93826-105839-125158-141248-163452-157000
3539.73-139106-121706-82412-79304-93781-139566
3542.62-147976-87766-96177-123819-166860-189923
3545.52-129220-111072-135326-114366-125000-133003
3548.41-92038-83745-83693-119509-160241-143395
3551.30-147634-191107-172951-103748-105857-114316
3554.20-117173-90816-76987-106467-102158-105037
3557.09-79181-96619-112633-78082-93172-92043
3559.98-77421-94152-104467-129688-151205-144329
3562.87-127832-113709-104815-96091-142693-210687
3565.77-209982-176108-140862-194820-229546-155497
3568.66-105345-105034-134993-167324-175183-151207
3571.55-138871-129193-99283-74715-82805-95685
3574.44-70719-81627-92660-90515-130477-137746
3577.34-135629-127604-70386-64691-102764-120712
3580.23-106540-92299-103864-113892-121191-104464
3583.12-97255-92274-59302-64162-75701-153332
3586.02-307223-254990-126857-155253-337737-324158
3588.91-155179-153341-125129-81641-69451-59696
3591.80-92087-140826-153316-140247-72008-53392
3594.69-147384-151226-99133-62945-28133-35266
3597.59-78918-72364-43485-31314-60367-126851
3600.48-133605-77365-17087-39992-82563-106140
3603.37-106456-67253-52905-59783-93613-140169
3606.26-208422-206086-185823-179508-222338-455581
3609.16-323103-110800-118494-98127-130125-242580
3612.05-345728-236621-134094-140508-181597-157381
3614.94-115749-114194-95913-112854-219436-232772
3617.84-152959-166269-395730-440685-175316-137396
3620.73-163344-99000-76972-84829-107021-103696
3623.62-102945-101163-86822-74399-121912-153008
3626.51-171833-180444-447300-633961-429800-681190
3629.41-580785-192757-180846-143742-103409-103266
3632.30-109566-146654-249089-191850-85683-73634
3635.19-104104-88988-50747-83567-136370-142505
3638.08-119920-109029-119744-128838-115284-135179
3640.98-150076-131974-114509-113792-80049-52333
3643.87-66659-93991-133529-128267-168504-316219
3646.76-450134-395301-260096-425995-844505-598827
3649.66-311618-432871-442870-352265-220264-174502
3652.55-131315-112008-114131-104923-138947-171253
3655.44-405781-550536-265127-113328-111265-106931
3658.33-130646-157703-127656-101841-132642-142796
3661.23-121010-84274-86541-123505-122077-151184
3664.12-156335-124018-143565-146905-129137-132931
3667.01-130008-156278-390317-417565-239210-255637
3669.90-717172-909871-370950-178404-229321-176415
3672.80-190094-222056-248166-548884-594482-777324
3675.69-879245-354366-221778-211133-149947-116413
3678.58-175943-219554-137321-79264-67510-91192
3681.48-97282-104785-124318-106991-87295-108234
3684.37-92370-83945-79246-81244-88733-113145
3687.26-295369-885734-830984-238154-114598-106246
3690.15-145670-289287-236337-51854 1314 1493
3693.05-54112-57779-21084-13373-12257 2893
3695.94 18187 19402-11509-24971 14731 27935
3698.83 11008 14673 35873 97630 52203-68233
3701.72 67178 235510 328990 391048 312612 268150
3704.62 276150 227658 74235-18103-22629-46335
3707.51-101480-117604-221705-301958-148366-65221
3710.40-135305-172255-501973-650052-220165-8172
3713.30 26075 4961-51904 480 32295 21334
3716.19 44807 20481-15482-3090-59206-112195
3719.08-65266-68973-111777-118275-128165-225831
3721.97-230171-117560-106686-104644-120930-184448
3724.87-157243-129863-292693-318312-170122-157455
3727.76-140885-120314-104827-96922-127511-172913
3730.65-145723-336824-652020-415944-166684-175007
3733.54-212820-358049-436371-368563-273137-561601
3736.44-647131-293287-217257-245228-178556-163942
3739.33-175264-178843-224828-285760-245727-233848
3742.22-209723-231407-471662-1098650-1587808-991371
3745.12-367874-269808-210155-248782-226516-209383
3748.01-264372-760185-1149325-623222-228577-271003
3750.90-354925-944285-1173880-501346-232324-229573
3753.79-170022-149717-147445-174778-244970-290355
3756.69-190455-137965-159527-184511-189737-327705
3759.58-361015-208746-168648-156000-134944-111283
3762.47-139673-185001-148727-121426-129668-267236
3765.36-329875-181669-133112-136375-126418-138453
3768.26-146041-224716-420655-374323-202895-195517
3771.15-176437-157753-166703-167801-163681-164149
3774.04-135595-101840-106927-166461-151656-131042
3776.94-126480-128190-152676-198519-343892-304228
3779.83-188737-173716-125335-93301-109759-124499
3782.72-133857-160468-176576-184774-160960-140780
3785.61-133639-105082-82020-91609-84623-92481
3788.51-157944-142002-89949-91439-90558-127086
3791.40-143083-118947-112246-110467-106571-149654
3794.29-153578-110484-165656-315405-276444-199927
3797.18-198287-130384-67689-89102-89239-141538
3800.08-231980-677880-940735-396357-140580-161121
3802.97-91955-57259-60977-37723-34946-108637
3805.86-252066-629015-539870-171687-99170-47743
3808.76-42924-40189-39062-59553-35637-45056
3811.65-57601-67964-86375-82624-91834-150295
3814.54-194926-489325-1066449-780831-222319-142941
3817.43-137508-170528-162356-212427-262250-433554
3820.33-533672-485962-590997-395955-181749-180940
3823.22-179905-159482-143519-165686-133077-195011
3826.11-310481-216935-138853-173223-147401-118479
3829.00-131225-170896-210561-230901-400263-439403
3831.90-240852-187063-184488-167166-225404-402135
3834.79-343742-195983-212317-234821-449537-1108494
3837.68-935662-290457-217540-266515-294449-291994
3840.58-361333-262665-162288-152580-195365-297888
3843.47-299112-197945-145326-127871-111043-122426
3846.36-159946-169045-152988-110900-103720-176126
3849.25-250829-224904-239785-278013-711832-971810
3852.15-514750-386834-874093-1573913-1234711-429466
3855.04-225911-208640-198456-239227-260451-211095
3857.93-154631-117465-180868-216488-177894-148332
3860.82-238542-336239-223711-164905-210379-224539
3863.72-216985-393048-538302-282324-159165-186265
3866.61-170412-187636-179275-232097-369160-485422
3869.50-794789-647688-263937-189684-159427-204463
3872.40-193765-203004-319099-370939-263351-187965
3875.29-149596-156741-160197-116779-107098-131914
3878.18-165927-174651-277175-462073-404140-277136
3881.07-208347-162507-158419-139482-124015-158856
3883.97-220156-266198-591038-661286-302082-202375
3886.86-224124-161714-111533-128869-156700-161704
3889.75-157922-279822-476104-359912-169191-141639
3892.64-140418-178187-187207-130533-127472-127234
3895.54-117278-145840-195426-203784-170467-157322
3898.43-328173-442566-242964-183765-187754-305065
3901.32-493435-349113-209332-193610-336482-482248
3904.22-284848-173900-274579-299710-210127-161034
3907.11-148919-186835-194474-151861-165164-160217
3910.00-163865-201339-165941-170159-209456-156259
3912.89-136556-128509-156950-207138-177450-171742
3915.79-183955-245390-353982-253936-152706-174706
3918.68-152903-221406-302329-201497-130801-124423
3921.57-86545-79017-123947-146848-166983-159156
3924.46-178427-190100-144232-125498-137749-174800
3927.36-159496-166024-197994-252122-251858-216723
3930.25-191011-182311-195064-224337-239295-175420
3933.14-132095-136729-147920-135804-128778-113315
3936.04-142171-177741-118221-100435-129652-125925
3938.93-80769-92440-107796-110533-139786-148195
3941.82-199540-210982-146659-135187-159083-110982
3944.71-77741-96751-102751-110577-125281-132061
3947.61-139295-151650-132154-199871-259511-207681
3950.50-145899-99119-102237-105772-136794-132142
3953.39-106632-125714-101329-68127-101248-138678
3956.28-152235-120160-138086-185333-117104-104607
3959.18-184062-183618-165448-179705-175989-183076
3962.07-202176-162435-116019-138632-141166-120244
3964.96-87740-88856-126884-125988-127052-170381
3967.86-139494-98476-138260-147978-111712-54094
3970.75-61431-124752-103176-100079-132010-160551
3973.64-156066-149827
##END=
