##TITLE=Chloroform
##JCAMP-DX=4.24
##DATA TYPE=INFRARED SPECTRUM
##CLASS=IUPAC A
##ORIGIN=NIST, Analytical Chemistry Division, 301-975-3108
##OWNER=COPYRIGHT (C) 2000 by the U.S. Secretary of Commerce
##DATE=00/02/01
##$SPECTRA VERSION=1.10
##$UNCERTAINTY IN Y=2.2 % relative (B=1.2E-04,C=3.2E-09,D=1.1E-13)
##CAS NAME=Chloroform
##CAS REGISTRY NO=67-66-3
##MOLFORM=C H Cl3
##MP=-63.5 C
##BP=61.7 C
##$NIST SOURCE=QUANT-IR
##SPECTROMETER/DATA SYSTEM=IFS66V (Bruker)
##INSTRUMENT PARAMETERS=KBr Beam Splitter; MCT Detector; Multipass cell
##STATE=gas
##SAMPLE DESCRIPTION=Chloroform Primary Gas Standard
##PRESSURE=101.3 Pa
##TEMPERATURE=23 C
##SAMPLING PROCEDURE=1 L/min Flow
##RESOLUTION=0.9640
##DATA PROCESSING=Happ Genzel Apodization
##XUNITS=cm-1
##YUNITS=(micromol/mol)-1m-1 (base 10)
##XFACTOR=1.0
##YFACTOR=3.6379E-12
##DELTAX=0.4820
##FIRSTX=575.17
##LASTX=3974.605
##FIRSTY=-2.80E-06
##MAXX=3974.12
##MINX=575.17
##MAXY=.0027817
##MINY=-6.22E-06
##NPOINTS=7052
##XYDATA=(X++(Y..Y))
575.17-770703-442209 235854 415468-59226-385041
577.58-251897 221923 282000 144675-23899 189049
580.47 466381 98823 28776-33471-275768-340493
583.37-188224-22539-96958-238265-188787-287708
586.26-167713-78691-395157-373434-155014 111542
589.15 215710 33366-14594 3485-31624 34336
592.04-101475-243109-131327 9166-14742-62393
594.94 23349 45389 43531-18500-38521-45043
597.83-84611 101099 213974 4641 59153 68920
600.72 54986 178866 191825 219872 371113 351296
603.62 323837 230941 186804 188344 154105 149523
606.51 146078 225929 281715 220986 169898 320133
609.40 331597 386114 422790 461743 448229 385912
612.29 357235 317307 260650 321004 581357 604507
615.19 545106 588495 724252 568485 399698 339060
618.08 356248 295560 217112 353015 588612 911582
620.97 1307951 1567255 1140106 484496 273043 279731
623.86 182242 215022 403933 722407 1191677 1535858
626.76 1454883 838543 379146 467695 489329 376389
629.65 267829 231804 449037 519267 486527 541136
632.54 649971 544543 477808 485673 536125 562055
635.44 535411 539405 602406 547176 505740 497058
638.33 475387 451577 482705 432668 422892 424888
641.22 407376 332552 275004 226101 215182 202985
644.11 167186 63422 71625 135560 183111 100466
647.01 73585 139839 120021 91106 73359 86496
649.90 168596 162607 243945 327935 207775 178240
652.79 270141 354433 357439 291237 269043 390920
655.68 535721 542217 472466 521980 758383 752833
658.58 651423 726540 871374 1014413 1094098 1004265
661.47 1042895 1261067 1417026 1454283 1584852 1713924
664.36 1754316 1876679 2013260 2021775 2208359 2811353
667.26 3377363 3427781 3487410 3842235 4578614 5474459
670.15 6481606 7710552 9139600 10948877 13164603 14887347
673.04 15932083 17322131 17886190 15623303 13492998 12595488
675.93 9044486 4219348 2710629 3096036 3686607 4401395
678.83 5095814 5885731 6631690 7343645 8150349 8962436
681.72 9662253 10291725 10989252 11552321 11863327 12039553
684.61 12224286 12257512 12185328 12016410 11638281 11141583
687.50 10654983 10043148 9300452 8488222 7687128 7004433
690.40 6290813 5498428 4822733 4175154 3612695 3155564
693.29 2615083 2083003 1759960 1488681 1279768 1065541
696.18 914651 737483 640356 572217 429656 374295
699.08 352604 267801 171821 149037 178923 80498
701.97 8290 62222 89487 52425 69166 40311
704.86-13329 4008 60477-9466 29532 39059
707.75-1061 21023 40042 36680 56275-62176
710.65-57094 23171 65832 21466 8484 29761
713.54 81821 97774 139111 96669 96121 85374
716.43 17579 25483 82495 93513 116421 125250
719.32 158223 159601 111191 97895 198325 225064
722.22 232780 232268 263840 321346 357116 333527
725.11 355908 398649 445469 483696 580522 692262
728.00 764653 778725 844909 988492 1114132 1128020
730.90 1254495 1355960 1465384 1594748 1784524 1913992
733.79 2121212 2300121 2500058 2791865 3110676 3374690
736.68 3713445 4100547 4516101 4876540 5333173 5788832
739.57 6375607 6993238 7636565 8311712 9085733 9906007
742.47 10798517 11667885 12664527 13818091 15083756 16270659
745.36 17561557 18931265 20415021 21910912 23500188 25102411
748.25 26999588 28909144 30879052 33011276 35392253 37971032
751.14 41269006 44514362 47719712 51820240 56143644 59995728
754.04 64125277 68690560 74014415 79821715 86135308 92956735
756.93 100167809 108113835 117765488 127843429 138380990 151275917
759.82 165206075 178167072 194162436 212509089 231127166 251030820
762.72 272814132 296621172 322718067 350497338 379732170 410530774
765.61 443864661 477750311 512839696 547984981 582712601 617058043
768.50 649732589 679783422 706582183 727987072 742385066 752012188
771.39 763912509 764647794 760338870 754120436 726904279 696562342
774.29 711793308 725425051 683030167 680812723 700352678 653392588
777.18 580028081 517349165 462414366 413717270 370294439 331850204
780.07 296936395 265817479 238134542 213108117 190773826 170482008
782.96 152306301 136397804 122116304 109434323 98104926 88041300
785.86 78996824 70981240 63703161 57312871 51597992 46638235
788.75 42076378 37992279 34423382 31291876 28413447 25971810
791.64 23819122 21968023 20248496 18733072 17262518 15845737
794.54 14570205 13440320 12277856 11163413 10162822 9336864
797.43 8291535 7325055 6321813 5515227 4954859 4564368
800.32 4134685 3667922 3132051 2715957 2407732 2149314
803.21 1887580 1699365 1543542 1419290 1202043 1074154
806.11 985908 866087 783712 710838 549436 491542
809.00 510607 484916 397443 405645 377215 307216
811.89 207413 176053 185985 165575 113321 143321
814.78 142041 93154 73240 69944 36512 58918
817.68 25879 37334 118107 199805 111051 77797
820.57 67931 48443 24788-16413-92368-70246
823.46-20477 50147 54810 35427 9047 89015
826.36 111836 70689 37841 42061 78517 119291
829.25 123941 144771 146974 128521 93164 67851
832.14 104211 193670 210385 208192 242135 282646
835.03 245089 264948 311139 361602 378271 424380
837.93 396507 396110 378752 410550 462838 519221
840.82 498590 474540 444298 503101 530948 558862
843.71 602557 615750 652038 737682 765314 776534
846.60 738258 769591 768211 860239 1095267 1291206
849.50 1309875 1336279 1294390 1242967 1276646 1305159
852.39 1281992 1379706 1543596 1653642 1654063 1598436
855.28 1638577 1684402 1582802 1445601 1367794 1320237
858.18 1220268 1153283 1094516 970371 796388 652574
861.07 608079 625608 593929 548843 448672 327144
863.96 247204 214616 216106 234736 269340 347888
866.85 342314 279339 202992 164960 141091 177394
869.75 132628 82456 107347 165459 159986 122457
872.64 119294 96463 89029 104803 69787 86684
875.53 126337 117668 115259 131480 135178 134940
878.42 124009 110166 68549 51755 62973 52966
881.32 45262 85999 92981 64175 19555 23912
884.21 23258 31147 9367-6370 11945 7140
887.10 13980 22441-6936-12791-2101-15740
889.99 4509 32545-17998-28356-3485-20509
892.89-39970-39181-18094-10144-36062-31700
895.78-16709-2812 19172 4926 14017 5233
898.67 6871 39302 27396 24038 49405 69230
901.57 78082 85487 65582 58004 60455 104770
904.46 180263 204155 193290 220172 239290 269841
907.35 298461 326821 330557 371894 411103 444147
910.24 473725 515219 555826 653061 722075 698100
913.14 678732 763222 833310 859704 853842 900704
916.03 945651 952865 959482 1002899 1056121 1079483
918.92 1088832 1080684 1094567 1137244 1184811 1215737
921.81 1211386 1208257 1192972 1177259 1186885 1217957
924.71 1261205 1286829 1361346 1431378 1451463 1472576
927.60 1465101 1405640 1356389 1446454 1647471 1881704
930.49 1990429 1899135 1682028 1385163 1152229 1197510
933.39 1396100 1602490 1736392 1715780 1508963 1104846
936.28 687520 624245 693625 690999 718812 785265
939.17 810922 869014 928870 958631 993325 1029134
942.06 1060097 1069722 1038956 997401 979747 987972
944.96 957486 944003 903176 829063 782499 721655
947.85 659022 650274 595757 555060 521667 469267
950.74 412463 386985 328471 274923 278361 302562
953.63 248861 152545 152484 178290 168919 171832
956.53 137570 100916 106917 137142 125673 92884
959.42 73725 78705 104686 78548 45331 42900
962.31 50583 60372 95823 114087 78139 31508
965.21 29991 49244 54116 47243 38855 23249
968.10 18940 38261 60775 72214 57816 64607
970.99 54810 29212 21471 19647 21676 11043
973.88-8606-10202-8669-15918-41724-74966
976.78-60912-46832-16787-9551-20113-30719
979.67-43077-44264-38357-51982-81376-60105
982.56-44440-32748-18190-24317-27843-70156
985.45-101550-82546-70792-103965-70562-41042
988.35-86264-101745-82422-82185-69268-45500
991.24-32124-36169-39887-71737-87060-51986
994.13-39760-73785-63145-12301-37299-61370
997.03-36439-26866-62031-71459-79949-54558
999.92-29692-12777 2615 10937-10335-49271
1002.81-59846-38333-34578-23212-21264-38767
1005.70-25314 24811 66985 74758 54833 47338
1008.60 33197 39122 96332 101828 64940 80524
1011.49 98825 114979 130140 119845 158373 200555
1014.38 189832 225743 262128 301184 342992 359543
1017.27 347803 342745 361061 380610 406958 428381
1020.17 449638 507579 548131 576597 561925 535701
1023.06 521672 538239 520694 525981 574599 572321
1025.95 560629 551327 525507 549001 582516 582553
1028.85 569279 559128 570042 591783 596147 595900
1031.74 596127 601889 594507 567601 542461 526493
1034.63 550937 560190 533789 540489 561845 541439
1037.52 494230 458988 424474 374780 349452 346829
1040.42 324532 302082 288783 241267 177787 159702
1043.31 142435 109200 76434 53015 83-11897
1046.20 435-18310-45221-33681-5246 24851
1049.09 8873-19134-20389-17817-15608-14215
1051.99-36896-16044-20592-48785-28686-47192
1054.88-37691-17798-29491-53996-85218-75659
1057.77-39168-14027-51632-85217-66529-48805
1060.67-44100-50397-56952-44951-27111-58534
1063.56-78600-33658-46447-104047-138646-104962
1066.45-90748-89095-82280-101800-95431-17980
1069.34 24237-51709-96020-66581-34188-34676
1072.24-57970-78131-58006-46691-80740-90645
1075.13-64605-54342-57942-68116-71017-61569
1078.02-42410-58979-90690-79528-86182-92927
1080.91-71648-59505-66476-87643-90046-102765
1083.81-100158-85258-72776-83600-104404-101677
1086.70-83198-80301-78278-88905-54312-58299
1089.59-84178-76110-72901-58524-37221-25553
1092.49-49811-78844-71042-71700-94315-76761
1095.38-60809-68967-73417-86426-108750-119031
1098.27-79526-69343-91958-61847-7163-3739
1101.16-64320-95800-115078-110446-81587-67859
1104.06-54670-48998-27895-33483-60414-77969
1106.95-85185-113094-87631-62883-105115-100259
1109.84-59243-73054-111079-112959-72705-72349
1112.73-56061-38300-65867-91401-71131-70021
1115.63-107641-100495-57941-88443-109910-83883
1118.52-59345-94708-109605-90663-72900-57826
1121.41-73714-86850-111157-105911-82706-58209
1124.31-24249-49967-98946-89228-56154-40255
1127.20-72742-89853-85900-73855-71404-48068
1130.09-48519-63884-59352-60701-61215-93722
1132.98-101819-74274-74711-82495-43479-55175
1135.88-87772-96758-73588-66924-82111-94179
1138.77-90215-64898-28306-22544-45530-102464
1141.66-121120-53277-15162-16182-38944-67192
1144.55-52627-52739-66418-71382-38588-26319
1147.45-46175-81098-97691-105397-95743-57311
1150.34-46702-70153-78335-94197-101775-94225
1153.23-67214-64106-81545-79545-76616-92652
1156.13-113176-84554-19442-4462-82478-119505
1159.02-103073-106640-105988-91603-46141-18998
1161.91-42477-64838-38599-56083-73977-85527
1164.80-86289-42844-38803-74322-81281-36283
1167.70-7097-35904-30971-18683-43669-45673
1170.59-51923-55709-45742-41167-28721-35181
1173.48-22614-5628 20786 5526-6316 19042
1176.37 44409 35796 52029 47677 42471 56594
1179.27 107033 100315 98688 119303 138567 135316
1182.16 174481 207515 217021 232892 278592 300825
1185.05 341833 350332 375911 406804 450108 512182
1187.95 576421 610716 657016 677861 733944 762287
1190.84 754952 739063 765423 816321 879730 907690
1193.73 967824 1038814 1168529 1265355 1352025 1460118
1196.62 1638516 1815755 2015450 2240012 2513835 2768148
1199.52 3099925 3458003 3881497 4335537 4863659 5417777
1202.41 6056557 6749356 7531396 8363233 9307259 10296958
1205.30 11351390 12460304 13688243 15019876 16562535 18408151
1208.19 20722643 23161468 25523669 27949785 30637930 33549834
1211.09 36747705 40179439 44133389 48672884 53762560 59335135
1213.98 65532680 72227803 79650490 87745299 96554548 106155716
1216.87 117201420 128602249 138855066 145296979 144487950 136878845
1219.77 137215442 143124023 136439261 123707165 111859814 101295421
1222.66 91362206 82375411 74204127 66927916 60274538 54357448
1225.55 48981710 44219984 39853670 35934804 32376668 29240755
1228.44 26346048 23791837 21428876 19329397 17442331 15789645
1231.34 14269812 12950024 11707016 10567079 9517565 8622781
1234.23 7816457 7105711 6407257 5819737 5247937 4765910
1237.12 4318979 3883937 3485236 3189460 2884265 2634291
1240.01 2411962 2175003 1925660 1726393 1532250 1391881
1242.91 1233561 1111545 1000415 917127 815058 739532
1245.80 657780 582929 531188 496027 434602 400898
1248.69 357582 325199 280590 280042 249210 199741
1251.59 142932 128745 106638 101548 97747 83130
1254.48 55063 49167 62451 44268-14055-10927
1257.37-6196 6155-9855-8538-24625-43352
1260.26-25431 8516 2629-4588-59080-87720
1263.16-52587-22469-33473-66069-72899-54895
1266.05-78693-60140-59618-58737-63512-41878
1268.94-60077-74335-68752-77057-69841-35397
1271.83-34932-66042-71994-31863-39270-45844
1274.73-33119-33460-40140-31241-68729-91944
1277.62-103582-99935-95987-36125-4514-25428
1280.51-64015-61181-55611-78415-83265-47465
1283.41-54641-77895-82794-79011-80068-64618
1286.30-70136-55955-67196-61757-42346-55374
1289.19-70704-51835-41723-50666-51768-50635
1292.08-74866-82356-74496-72107-87692-82265
1294.98-74778-65214-93179-93766-95401-69095
1297.87-53403-78772-99362-80590-55243-44106
1300.76-50306-48517-55519-45922-42861-69597
1303.65-93205-94971-87976-38944-42304-64652
1306.55-90454-97247-92425-88484-95811-79697
1309.44-75691-77758-72815-46358-37983-27779
1312.33-42654-72086-92792-85752-99487-88938
1315.23-68382-74071-76867-67658-85034-83257
1318.12-94141-79866-38480-26362-48136-55921
1321.01-57155-63026-79033-77312-43757-21397
1323.90-30875-34580-43519-43547-61768-42895
1326.80-30988-38022-42248-21822-8487-28731
1329.69-13583-18919-54725-26973 7517 4324
1332.58-17003-11546-8503-4174 8386 4309
1335.47 9855-954-4910 20532-31568-84861
1338.37-77071-28912-45328-103499-70310 5760
1341.26 15940 15458 32194 48597 47975 42135
1344.15 26096 31641 18866-8921-32758-60852
1347.05-50077-17962-29417-43989-29820-58779
1349.94-111079-123500-124449-155096-156720-169069
1352.83-186727-161899-102492-35959-100403-112231
1355.72-51487 26531-11755-50184-74930-55634
1358.62-28883-87949-150287-172736-209445-143397
1361.51-121703-187737-276791-234579-111427-104960
1364.40-127902-107785-104666-103477-88162-48774
1367.29-18036-57526-75164-79298-109752-103330
1370.19-77278-66987-76529-86402-92102-128446
1373.08-227541-226207-139605-114110-95594-69158
1375.97-45484-16231-31288-65740-59496-46887
1378.87-55163-63367-80826-71700-22217-13951
1381.76-40260-59970-56160-31133-45966-47591
1384.65-36053-48252-57100-102250-211190-321280
1387.54-192948-71687-14735 8767-23339-39114
1390.44-42295-55321-57012-60562-56269-41861
1393.33-109385-311264-268898-107082-164707-145264
1396.22-55777-50072-79067-58482-116847-232031
1399.11-147914-78707-72579-40342-19858-8678
1402.01-21862-25497 3680 29149-36523-173692
1404.90-119242-14481-13615-16087-22184-1444
1407.79-9363-33543-53623-48531-50728-39242
1410.69-28790-20837 20282 33835-10174-35620
1413.58-34055-20125 7 12623 18291 35169
1416.47 10472-54124-14748-25488-284003-609110
1419.36-330762 49365 110396 173066 185333 163215
1422.26 143832 137944 133806 183767 269455 310462
1425.15 350149 401703 412404 416193 429950 464646
1428.04 510255 574751 552459 534111 654224 775480
1430.93 829178 893981 954483 986110 1038293 1134523
1433.83 1205107 1261026 1334646 1394506 1168605 896352
1436.72 1301147 1764888 1890033 1964333 2044934 2137405
1439.61 2208861 2315889 2422659 2500475 2472336 2423832
1442.51 2447649 2580967 2742055 2751930 2546035 2345775
1445.40 2331345 2493773 2603224 2452901 2072772 1847354
1448.29 1768415 1799074 1889634 1765019 1530141 1320432
1451.18 1135759 956994 855849 771402 682548 568500
1454.08 458299 351332 282477 87143-608388-852089
1456.97-240222-85106-123801-10949 24004 72140
1459.86 97436 114109 126367 110580 92451 74218
1462.75 100163 126946 50443-186820-149196 117940
1465.65 200131 228594 235468 257779 284830 322653
1468.54 334550 366480 348053 319528 319613 147277
1471.43-190265-20922 153008-122309-11910 268866
1474.33 318096 329439 201407 93175 244222 383021
1477.22 391020 409768 397814 397890 404524 397401
1480.11 372289 311969 310129 360441 379906 356877
1483.00 326812 340704 346653 375545 365797 335561
1485.90 334500 229073 89700 178683 259806 206730
1488.79 97664 3788 12150-42971 13413 134027
1491.68 119530 101768 84410 82879 75366 78859
1494.57 49596-121517-611194-562312-86819-11271
1497.47-75291-244717-300270-97328 18428 25690
1500.36 27365 12722-2362 13560 38045 62293
1503.25 59586 33071-72539-558003-888500-473357
1506.15-673776-933636-375363-81326-102016 10919
1509.04 25873 44661 130469 188870 209492 77822
1511.93 29760 222130 320928 327711 316721 276016
1514.82 300758 359883 288041 190074 112971 236414
1517.72 467470 546823 564167 493565 359897 251053
1520.61-205611-8240 508709 437393 567887 788523
1523.50 861159 852159 717453 565528 806651 1006688
1526.39 988880 950157 1035771 1049555 1099127 1199467
1529.29 1247389 1270959 1295354 1293704 1303542 1335382
1532.18 1267716 1133559 1056358 1119927 1399581 1467636
1535.07 1482125 1519867 1567644 1565095 1573950 1485202
1537.97 1119306 453541 778300 1040978 930298 1456058
1540.86 1619406 1203623 1207749 1701648 1798010 1888398
1543.75 1991250 1846661 1682569 1909919 2070823 2109407
1546.64 2028797 1995801 2012855 1919641 1782320 1626747
1549.54 1499738 1420756 1375864 1303169 1216929 1167164
1552.43 1164783 1113608 834052 579246 932695 1199549
1555.32 1249299 1243673 1185077 836802 580183 186818
1558.21 132426 715721 458112 3269 455353 1042632
1561.11 1075457 1039107 958147 951780 894971 836768
1564.00 688953 613346 650028 647992 575847 559270
1566.89 513919 469937 355091 233690 24924-156011
1569.79 33570 206068 198926 202681 174097 155991
1572.68 87198 82275 58522 52029-29720-458665
1575.57-1217137-839838-148135-32993-14929-589
1578.46-7314-25268-43423-43252-34678-35759
1581.36-30755-14120 3724 12256-29224-35422
1584.25-32225-16727-7368-19895-38314-26162
1587.14 1819 8054-26378-38902-48317-52169
1590.03-54743-46055-34161-52381-61167-58705
1592.93-81385-107913-126426-86968-79095-91053
1595.82-93199-62881-56534-63105-58823-69939
1598.71-76832-71128-74811-75334-91285-79015
1601.61-74273-86342-111607-105610-93369-81937
1604.50-108213-113593-107334-80782-84368-70225
1607.39-62657-61025-104553-129210-118451-102366
1610.28-114174-90923-76856-67151-87091-94832
1613.18-103943-66404-65991-92448-150335-464772
1616.07-1157388-914231-242778-118520-102674-75253
1618.96-80500-104919-106929-104573-101772-105822
1621.85-111764-179786-422704-442176-177566-78713
1624.75-65736-69585-80725-112647-157212-257633
1627.64-209428-96365-69808-72027-68108-75100
1630.53-88453-84572-73546-85955-90798-95683
1633.43-108489-223141-505211-957025-922122-338824
1636.32-145037-232594-244918-127679-94119-91123
1639.21-112235-107143-127672-120424-113855-99534
1642.10-93547-68545-72379-66426-76536-110859
1645.00-488858-871252-505940-261991-370846-323859
1647.89-298086-177554-111291-69259-93812-113970
1650.78-162262-471743-1275286-1537571-1612782-1049284
1653.67-538702-544527-240638-113869-96803-93752
1656.57-73332-104849-91870-96977-65313-67967
1659.46-68385-72740-78015-99688-126883-300343
1662.35-447523-242970-68534-74004-93210-88066
1665.25-69905-69043-45642-46537-72840-126693
1668.14-236964-568360-575554-209998-112268-210455
1671.03-277952-148590-71334-84024-90329-78533
1673.92-150800-522133-726608-329595-65306-49091
1676.82-57588-55264-55169-61703-101747-125976
1679.71-143217-137808-81115-74744-88704-200538
1682.60-413384-446633-562609-1296474-1407454-441584
1685.49-112956-89670-67926-44192-121928-153261
1688.39-128647-66406-121170-131933-87651-57721
1691.28-83986-76398-97253-91548-95873-64793
1694.17-127275-431049-1305309-1342201-434527-150633
1697.07-190286-152454-122165-203496-647595-1206152
1699.96-1204917-804776-277458-94859-85548-91274
1702.85-85821-159169-313708-257797-104822-176469
1705.74-326424-238974-88685-75319-75800-47898
1708.64-29570-86491-135368-109487-79056-75471
1711.53-72685-55757-56186-127002-194563-217203
1714.42-382505-401600-169249-124053-466388-1137196
1717.31-803825-440893-451459-208336-96838-85117
1720.21-73127-75159-89545-79847-86771-112867
1723.10-139217-102949-64148-55056-81528-104993
1725.99-114299-99255-92157-85279-84399-90343
1728.89-124943-193443-183530-97636-91124-98417
1731.78-117057-277937-780376-727283-740067-930234
1734.67-411804-122701-74935-70225-77548-99734
1737.56-55234-59003-130549-387547-460883-190930
1740.46-79709-85104-79879-122728-182327-178225
1743.35-133113-126985-118956-102193-95232-88719
1746.24-125387-168220-134550-167166-264807-230979
1749.13-141149-89373-199341-542492-557634-201263
1752.03-84410-100322-84436-68446-68135-68373
1754.92-82749-88243-192232-290428-161329-65999
1757.81-63502-79370-85139-85222-76387-68861
1760.71-168821-427118-351588-113825-80401-77685
1763.60-60754-43307-63609-58068-46761-51134
1766.49-80920-141604-353395-345125-128768-66931
1769.38-55713-75860-176520-287095-206423-469186
1772.28-760748-372870-120002-110846-85978-89628
1775.17-108734-59450-24905-38247-29738-41210
1778.06-66743-66453-44011-65430-161065-149286
1780.95-50858-29775-16593-25226-45569-51796
1783.85-80767-198183-140750-41881-38853-42243
1786.74-28588-24527-31218-51885-51090-25835
1789.63-36200-146755-186189-87986-198693-513721
1792.53-375897-65719-17285-28676-50096-52967
1795.42-55439-37138-17948-6186-1937 14421
1798.31-18178-116818-144518-41263-25628-85840
1801.20-62258-42447-45472 2783 14305 30146
1804.10 19402 15120 21145 43578 49383 40792
1806.99 19369 18937 29825 69119 68510 48513
1809.88-16171-17070 45294 80354 87820 99186
1812.77 102903 113633 107330 100372 111105 107932
1815.67 100059 127489 116566 105775 131148 137157
1818.56 133156 159963 172197 154421 151489 148947
1821.45 125793 116620 111841 127680 120175 86362
1824.35-33537-117525-21915 33981 44045 41896
1827.24 44807 65563 33435-11319-47006-97096
1830.13 64020 187412 213424 216228 210060 223283
1833.02 222473 209731 196491 181755 167420 165684
1835.92 140747 109165 95364 114010 111194 100726
1838.81 79963 65950 55570 71684 75955 51606
1841.70 42862 35207-24942-190846-465819-310261
1844.59-42451 5880 11741-11696-39564-59459
1847.49-47596-13426-12934-23102-33073-22903
1850.38-4743-15023-41886-32730-17543-23180
1853.27-37527-40974-44576-31030-17676-10572
1856.17-11476-30662-54406-47524-54011-51355
1859.06-43511-37336-48650-60204-45583-35305
1861.95-43624-46768-45064-35967-46490-59683
1864.84-56664-65383-94828-89910-104427-151946
1867.74-127508-138400-279105-249260-109239-89333
1870.63-96927-76564-53119-72451-97444-86701
1873.52-74480-75861-62404-63133-74496-72009
1876.41-70510-85173-91137-86779-84305-81023
1879.31-56086-34801-40972-55221-63228-67372
1882.20-67811-68421-82021-73609-55992-52466
1885.09-81106-66103-26035-30699-63887-76299
1887.99-75051-96389-161692-106134-37368-32180
1890.88-26580-30005-24888-26530 144 12230
1893.77-14604-46428-59947-48391-28348-26335
1896.66-35504-39820-49011-54937-61818-43443
1899.56-36010-39392-38448-44071-61173-72342
1902.45-66068-50276-59408-61146-45847-55661
1905.34-70391-68595-68434-94885-100328-95375
1908.23-91591-73416-84658-102820-84847-75776
1911.13-81088-90241-88436-75244-58864-71136
1914.02-75255-81770-66364-58737-51679-58714
1916.91-129215-264475-197785-70933-63451-84946
1919.81-81144-85819-84009-63063-83797-122206
1922.70-135611-81111-55550-58283-60715-47564
1925.59-44784-41968-55767-81975-73141-57631
1928.48-65536-74670-77155-60405-63323-87449
1931.38-92744-73770-56845-50360-55305-48420
1934.27-54327-88619-110024-101203-103395-83656
1937.16-72275-79764-74285-75916-79552-68004
1940.05-43715-48490-71029-92405-156918-124878
1942.95-52563-44215-71398-99769-108018-95262
1945.84-91415-82420-70873-69655-67624-73123
1948.73-79719-70473-43944-42706-44478-49347
1951.63-70005-54335-37668-41770-33703-36357
1954.52-72233-90624-75625-47761-51157-55568
1957.41-44062-51654-63637-51466-42174-32664
1960.30-44064-38905-26965-25783-24956-34898
1963.20-41623-37745-33698-32139-39832-67095
1966.09-67012-63023-84288-81828-61917-39746
1968.98-47607-48938-48024-43394-40380-25290
1971.87-11472-20178-28412-6914 8134-25872
1974.77-76470-76723-48323-31490-28491-34848
1977.66-35771-29152-40403-25033-15550-9670
1980.55-6711-15251-19120-12598-9638-10236
1983.45-37748-34457-24995-33952-31256-38117
1986.34-41226-41950-43699-38862-31626-34202
1989.23-18081 6517 4482-1512-46409-61067
1992.12-23893 7894-2151-41396-54246-33237
1995.02-26775-37109-53945-53747-48309-40761
1997.91-24561-27644-40608-31852-27698-30250
2000.80-43282-51114-52782-39583-13638-19247
2003.69-39826-41855-30756-34365-38535-39106
2006.59-42767-58845-44089-6862-6303-43627
2009.48-55944-42303-36157-22701-37665-43243
2012.37-39035-44663-54922-56770-55307-63851
2015.27-66221-79558-96852-64524-37164-40368
2018.16-50837-66851-64703-44887-49550-55802
2021.05-55215-59819-61454-60200-54109-53632
2023.94-70513-69572-57618-47828-48919-61691
2026.84-61514-67992-69367-62716-67393-61974
2029.73-68360-69831-65683-72779-69974-79356
2032.62-78417-71482-78965-74486-69349-58710
2035.51-71128-63713-40830-33738-47479-66237
2038.41-67479-52228-64255-91526-88668-94394
2041.30-82705-54064-52692-65482-66839-56967
2044.19-65737-88994-72003-58237-91883-105796
2047.09-76351-46848-53331-67477-76254-73474
2049.98-61592-54963-59669-61999-71812-89293
2052.87-107017-99926-72557-55423-69565-84682
2055.76-70911-68528-59902-36424-37256-57271
2058.66-70077-92707-85597-69081-72211-74303
2061.55-86259-73218-48788-49503-71017-94057
2064.44-73481-27437-30925-50824-93670-107863
2067.33-99587-82473-84259-77297-69735-68301
2070.23-76191-80872-68509-64100-59193-57830
2073.12-73967-80515-81576-57905-56548-73704
2076.01-91402-75236-71160-58641-53528-61740
2078.91-77018-99603-85351-76308-78572-91677
2081.80-86451-69979-69200-74233-82376-85291
2084.69-84084-81608-83152-76567-66493-68547
2087.58-78058-70620-78054-94166-100370-96869
2090.48-70879-51849-62923-66898-84665-94094
2093.37-83699-94634-108309-90378-68570-63205
2096.26-59208-49160-57934-87402-112052-92973
2099.15-66042-78802-70081-47218-55434-73720
2102.05-87300-104340-108453-92310-83961-85025
2104.94-88970-83706-53669-59476-90104-76070
2107.83-71393-70179-63591-73872-59173-79872
2110.73-133660-121553-57395-57173-69614-73344
2113.62-68139-55431-78658-114469-93766-51352
2116.51-40257-48121-60678-71687-80050-88337
2119.40-82883-43486-43737-50930-60143-47587
2122.30-62526-114140-144855-111256-74905-51542
2125.19-61764-61433-56592-77833-100941-67446
2128.08-42394-54871-55419-71841-91364-83549
2130.97-81511-85310-77488-66710-81195-76240
2133.87-61766-56052-86930-68268-29016-57387
2136.76-55766-46901-56693-56048-52429-60219
2139.65-64098-64484-65913-80251-66926-36047
2142.55-43155-65156-59884-56374-86952-89419
2145.44-72111-73406-81367-66053-57280-66551
2148.33-77259-64359-55499-69581-90472-70219
2151.22-55241-58695-67915-65636-58724-77539
2154.12-100384-78340-54958-47464-39757-49440
2157.01-83323-107742-102044-63623-57712-53523
2159.90-51014-53277-60595-89113-85856-51927
2162.79-39923-30260-45957-62831-98218-116332
2165.69-71849-39533-40116-45256-51152-78209
2168.58-114520-107459-80693-70610-66767-65294
2171.47-70801-85473-66681-45237-51166-44832
2174.37-32728-42945-78510-95858-49316-20205
2177.26-45299-75212-82729-69196-98102-93695
2180.15-47930-31904-41298-45348-50983-68424
2183.04-59222-27286-25971-15448-2170-20207
2185.94-76153-67918-17990-11698-1243-3369
2188.83-25387-61261-58148-37790-31760-20509
2191.72-14827-18595-24599-11364 3472 14133
2194.61-4932-7639-15481-3089-1229-17001
2197.51-25004-1370 16049 33530 32656 27815
2200.40 5242-17489 3087 21948 10785 11325
2203.29 31883 38665 51077 28717 14370 17130
2206.19 43554 53417 54518 49512 63994 36603
2209.08 26464 22971 32645 31015 47643 31423
2211.97 26720 30101 43558 72390 83594 71919
2214.86 53803 31896 24672 24629 39643 31647
2217.76 7775 1863 13227 23129 11984-482
2220.65-119 24304 22384 1735-7275-10564
2223.54-9018-23434-17781 9023 35516 26822
2226.43 731-22098-10694 10929 29061 48784
2229.33 37192 26171 41077 52181 40189 44333
2232.22 30622 19046 35922 45638 43794 30245
2235.11 26496 34928 43967 37264 45674 67469
2238.01 68944 57264 35393 20761 27660 33366
2240.90 37464 38536 11755 9177 39351 61612
2243.79 28101 7165 236-8060 12721 23886
2246.68-4718-28474-26906-20384-34030-40615
2249.58-38048-15826-11133-1804-4251-17428
2252.47-14868-16765-15134-21457-35894-34308
2255.36-16874-10692-23796-36213-30982-34988
2258.25-45736-38831-20670-14666-11136-24354
2261.15-61960-54306-40531-25430-25576-40424
2264.04-36641-27087-20138-11767-9952-14232
2266.93-7218-15663-29830-22954-9198 6569
2269.83-1432-40261-64162-33782-6384 5815
2272.72-2893-9453-359-1264-12959-8097
2275.61 14262 25670 18867-3554-2375 4474
2278.50 823 9707 17417 26484 43105 34414
2281.40 26783 12874 18010 59311 70492 45342
2284.29 32761 51396 70690 80591 84775 83769
2287.18 76660 61660 57796 67572 68484 86600
2290.07 76475 68226 62567 62704 80226 88236
2292.97 76738 58547 40485 19917-1396 22080
2295.86 29880 19290 13449 16822 5157-7729
2298.75-18180-16905-10808-9914-22814-12322
2301.65-9173-1762-35779-47546-38353 8471
2304.54 1849-38269-47329-16865 11631-14546
2307.43-27364 2693 38019 39680-8008-8259
2310.32 38750 72136-6515-30248 35110 102105
2313.22 29234 10428 66934 166170 73015-7968
2316.11 50593 196484 111600 20911 53553 218818
2319.00 170778 21026 68184 294722 266149 68042
2321.89 107141 356303 318260 72429 126688 429376
2324.79 371868 71676 170464 498894 371907 56603
2327.68 259164 607496 368165 52475 364178 653701
2330.57 311459 111013 537313 681435 223626 173784
2333.47 679326 602757 130090 325021 727916 430269
2336.36 145873 543693 692284 255118 267229 657191
2339.25 466934 130528 459003 637569 261088 250479
2342.14 576916 395509 143262 358412 407555 144804
2345.04 188476 298231 147598 104535 208393 150024
2347.93 44702 29734 62930 92878 65675 97214
2350.82 246477 193529 140954 340746 308439 188096
2353.71 475796 423388 207212 525155 537015 286846
2356.61 644810 618010 337287 706618 615308 376277
2359.50 764940 542359 427006 815835 494307 524264
2362.39 770151 412815 623935 639446 363894 664050
2365.29 474460 431713 621184 351921 507653 420988
2368.18 337563 498518 303871 395837 331714 263967
2371.07 315039 189163 264254 173746 193527 144744
2373.96 109506 143995 109206 105594 45729 72960
2376.86 78252 70412 46895 58259 50203 50412
2379.75 53296 75828 48971 8732-12913-11810
2382.64-5876-3492 8232 16180 30658 33615
2385.53 43469 71265 82755 65404 81834 118323
2388.43 122885 111114 126316 138568 154573 172281
2391.32 198993 235494 276929 297786 333707 354305
2394.21 369463 387132 425010 457409 495690 548248
2397.11 608869 673858 683211 584146 521791 510809
2400.00 477269 436420 425843 386733 376222 404786
2402.89 402683 360969 329906 314232 318732 339023
2405.78 427628 619370 1026239 1732260 2906932 4381794
2408.68 5293664 3859361 1409169 468677 290943 250679
2411.57 221255 253136 296521 370396 432595 487809
2414.46 505026 541288 581428 626790 660687 704099
2417.35 733094 759216 764051 768800 770367 753907
2420.25 746412 740340 724774 717559 697417 660653
2423.14 613315 572751 535876 515462 469883 431308
2426.03 390875 372570 352843 346934 319716 296481
2428.93 280709 281669 260760 240098 217148 188395
2431.82 161898 146260 131815 122375 98626 90315
2434.71 75452 56136 59829 75716 92284 126706
2437.60 159033 180644 212091 277326 318090 335162
2440.50 351254 359512 381299 384521 336279 311400
2443.39 266164 222942 178879 174974 165007 154418
2446.28 147554 131528 121023 128733 157934 183055
2449.17 181162 174153 169837 172690 192634 221528
2452.07 218551 196691 184185 205120 216096 230038
2454.96 239802 224221 210224 217054 228257 221986
2457.85 207738 216638 216117 186117 178733 187810
2460.75 171148 160548 142267 122472 111428 125166
2463.64 135999 120910 92295 94252 107829 86983
2466.53 67974 76271 62352 63667 76129 67302
2469.42 35394 25974 31665 3459-12279-7056
2472.32-17703-20443 4288 8215-20249-37420
2475.21-33540-17429-12725-33495-52781-48399
2478.10-53166-54127-54525-70075-76984-57486
2480.99-36918-30678-47954-61694-68797-81675
2483.89-82731-56581-62235-80041-82972-69514
2486.78-63764-52076-53996-57354-67703-66378
2489.67-71518-83946-83383-62893-53314-42677
2492.57-63673-74965-61040-65364-78418-77025
2495.46-61414-66981-71774-83651-97230-89322
2498.35-74784-75129-96796-94167-69949-47746
2501.24-35399-31232-47576-70509-70011-74904
2504.14-95766-63378-38366-48749-38932-48393
2507.03-77579-94316-101794-86354-78598-76198
2509.92-81756-90909-80529-70746-73938-75209
2512.81-75261-68214-53789-79369-98962-70574
2515.71-44848-44122-45627-41413-56872-76424
2518.60-68517-77088-89073-91125-106702-108430
2521.49-100582-62810-41923-56333-89335-88226
2524.39-68898-85779-95504-99487-105852-102747
2527.28-80694-67157-60144-63233-68977-85294
2530.17-96103-77148-61933-60646-61111-64169
2533.06-100721-102774-82573-90109-91301-95401
2535.96-93733-74234-67967-69586-59647-77151
2538.85-78331-90030-83437-64854-93258-112535
2541.74-100738-94701-96487-87878-63165-71094
2544.63-110841-108268-86388-88036-73199-91961
2547.53-105475-76755-82989-82197-88151-92653
2550.42-79098-74559-82163-95325-100191-108320
2553.31-105678-89330-75325-80417-78724-80160
2556.21-119886-114898-92379-100648-101427-115327
2559.10-97115-79343-79291-71796-80530-74755
2561.99-69699-81101-83995-95625-78520-22057
2564.88-33101-59654-63759-60223-64167-37994
2567.78-37903-62738-85096-78627-71038-91890
2570.67-113162-122590-116097-117150-132529-138045
2573.56-114365-109793-105096-75140-60958-74891
2576.45-88036-90105-67383-61961-95498-106512
2579.35-88938-82616-52075-26403-48094-46125
2582.24-32014-45993-77573-72460-42617-61956
2585.13-93771-92673-92482-74716-76912-100814
2588.03-77032-78779-88753-78311-89112-106413
2590.92-121702-141460-121607-88921-101421-82517
2593.81-52585-53929-55184-56487-60651-66259
2596.70-78851-109849-104740-72207-64594-66586
2599.60-87033-122191-110604-84022-74458-69149
2602.49-81155-94858-65661-67180-79672-96551
2605.38-95183-85969-71680-60104-67544-80157
2608.27-95417-107110-78403-70068-93378-102637
2611.17-106275-88829-84172-96294-89826-72840
2614.06-50791-67869-86065-70542-43528-63846
2616.95-82022-86248-70101-62198-84154-99417
2619.85-97097-85572-91086-98390-102785-99485
2622.74-99504-90920-85405-72928-66506-70518
2625.63-59740-79141-96667-93238-98705-86378
2628.52-54728-53732-80723-74672-63158-75102
2631.42-77757-86442-110028-107452-77277-82716
2634.31-82484-61098-66879-70226-66015-70426
2637.20-83622-63482-62361-77209-59790-65437
2640.09-68819-64444-82009-60393-49881-54027
2642.99-60289-83943-94480-95193-72627-63646
2645.88-65474-44294-49838-51136-57667-86833
2648.77-103849-85458-81569-106694-100869-79646
2651.67-85673-85298-48290-38137-73331-89242
2654.56-77692-56944-56153-70861-77091-89696
2657.45-93234-120741-115292-83624-67495-98922
2660.34-111603-86461-67789-65490-62227-64406
2663.24-46969-36050-77580-89848-76920-84280
2666.13-76621-64869-81045-90468-93191-101441
2669.02-97788-92687-85014-63786-59911-62163
2671.91-67955-76560-76898-89489-118242-109692
2674.81-87883-50994-27627-82136-124367-114072
2677.70-80034-51500-47856-54636-67022-65643
2680.59-77041-98123-74870-67751-85021-82100
2683.49-60626-65670-82057-48836-34880-40417
2686.38-64599-90801-74480-44924-65643-80246
2689.27-80900-85175-77812-57066-45571-70049
2692.16-97149-81748-83496-100183-98662-85885
2695.06-92860-136646-129445-88959-103767-134282
2697.95-136417-121439-120040-120115-90569-81020
2700.84-73599-68808-103908-135155-93698-66593
2703.73-110267-93333-50614-55514-56065-69201
2706.63-38665-7810-30555-36587-27801-14646
2709.52-21802-37716-49232-54790-67668-75399
2712.41-67596-73826-100536-97033-88183-93741
2715.31-96325-98996-73607-66995-80073-85427
2718.20-91022-64290-37164-61845-83143-102646
2721.09-103514-110443-130089-129237-124404-130453
2723.98-108864-65700-65332-87674-120206-106964
2726.88-88681-80871-67615-57561-59210-69217
2729.77-63828-78168-94716-85101-81794-79025
2732.66-62181-34132-51922-75499-77820-61739
2735.55-61428-73333-71533-48838-39707-80750
2738.45-85114-74972-101943-99136-57933-61920
2741.34-85997-72066-63336-84276-81992-89495
2744.23-90505-76137-56978-70275-100494-93342
2747.12-70153-73124-94497-73315-67778-81059
2750.02-84264-85512-106655-104325-104481-87299
2752.91-54843-47010-57705-84354-101571-126157
2755.80-131725-113820-102128-77764-78823-106605
2758.70-111791-102623-100264-91610-83584-82041
2761.59-99360-78061-46832-68898-114310-97989
2764.48-88899-108739-113195-107995-98117-87662
2767.37-80539-52612-47637-73299-105529-131420
2770.27-120205-110266-98466-89678-78602-74378
2773.16-62142-73722-86794-65236-80752-124043
2776.05-125511-124919-135727-112346-65487-41600
2778.94-83507-112480-96889-82483-75421-62071
2781.84-61468-66256-47499-63154-107038-92826
2784.73-83655-105552-99245-94701-96339-102314
2787.62-97140-76162-70818-73906-61498-75716
2790.52-94818-103287-119102-111556-102985-101282
2793.41-99632-59441-54276-80074-95250-108084
2796.30-97222-53325-26108-47912-76322-85583
2799.19-98342-104226-93859-92346-93978-102023
2802.09-113571-106034-131320-139670-93340-50125
2804.98-45966-104866-148910-121062-99769-86694
2807.87-64098-91586-83434-75639-77511-79776
2810.76-80783-75114-114027-136222-121885-111117
2813.66-147269-162103-127603-107228-121196-92474
2816.55-88074-97793-79557-89919-114174-109450
2819.44-114022-108094-94457-88536-87134-96923
2822.34-86361-83717-98398-97382-109737-96940
2825.23-52338-42446-65331-97558-96883-84846
2828.12-78392-72562-68459-67296-55792-44657
2831.01-28593-41164-55016-77304-83183-79198
2833.91-78221-105222-125969-114374-119146-107483
2836.80-106625-100021-74747-78162-90044-68979
2839.69-60011-51875-92328-108788-73021-69078
2842.58-96056-76014-77835-113853-89880-78848
2845.48-91952-105013-100678-72766-62451-59935
2848.37-85964-114385-116605-106885-80335-59727
2851.26-73168-116111-111048-88083-92174-109278
2854.16-127646-150935-149687-124887-112094-125601
2857.05-113831-89181-74124-63433-53753-60360
2859.94-100110-130973-115346-94123-72788-53292
2862.83-86770-88900-110795-130502-128757-126621
2865.73-117641-115097-131701-148670-124876-102874
2868.62-117029-136786-102062-44657-43727-91481
2871.51-119335-117027-103704-108896-94259-100039
2874.40-138048-123188-118866-100529-60451-83804
2877.30-98330-100647-95557-86437-114220-129278
2880.19-95226-87488-107076-120845-113715-91854
2883.08-80995-111396-144379-164353-152997-134951
2885.98-123310-139817-110993-85012-109948-119122
2888.87-104036-132615-142483-76462-53689-92377
2891.76-106354-86517-87774-120883-151765-155774
2894.65-140792-137657-145216-119874-71727-57114
2897.55-88745-96208-60141-56362-73956-72830
2900.44-66494-72438-100717-122292-117381-98335
2903.33-111278-122467-149878-177891-124369-46659
2906.22-81063-128804-129632-105793-82349-79669
2909.12-103921-97646-93868-90999-109394-104737
2912.01-101945-113350-103130-107441-137475-177663
2914.90-170508-134123-117198-125620-120894-116664
2917.80-103604-108973-146555-154279-174945-178059
2920.69-137972-110200-115779-127564-149490-170990
2923.58-146902-155211-172355-166845-142846-103823
2926.47-98892-138146-170296-137684-108965-138895
2929.37-160350-152247-155586-132775-132906-143895
2932.26-127833-135148-103917-96031-119574-160794
2935.15-140538-100062-122131-156172-153926-162632
2938.04-146530-132743-131119-126187-119984-135774
2940.94-131539-123663-124884-94345-99639-100794
2943.83-77315-81235-128851-148721-134078-125730
2946.72-132766-141886-124242-90346-87825-134589
2949.62-131741-125167-146969-148269-120485-95419
2952.51-114516-128111-114229-94498-85189-84048
2955.40-98025-89583-97676-129404-128497-116850
2958.29-107260-98033-139221-151450-135898-137351
2961.19-210551-179039-72371-81119-94036-84122
2964.08-122881-159939-158258-135032-156959-193998
2966.97-191911-158780-154067-161382-181227-180146
2969.86-201391-199838-132702-116143-154174-161476
2972.76-110569-113981-163614-203452-190251-170100
2975.65-157619-131605-104002-134725-158266-160648
2978.54-150350-150695-134826-114307-113826-122259
2981.44-120725-135163-179640-172124-133583-91086
2984.33-88864-120235-104237-87900-84954-83885
2987.22-71788-101892-108656-63245-69141-92100
2990.11-115712-138632-112535-60871-34987-60070
2993.01-96484-138098-109591-56320-63640-100220
2995.90-131415-106832-113555-118246-91008-86001
2998.79-76898-74015-85613-95225-99298-97327
3001.68-112017-146475-138672-123994-126194-87583
3004.58-76706-115879-129021-121600-122197-106380
3007.47-64499-50403-78473-86431-80598-89594
3010.36-63692-42132-34856-26957-12010-24593
3013.26-14977 6282 9803 23644 6641 39375
3016.15 124135 135635 98303 91708 108300 125395
3019.04 124321 118136 135068 171538 164930 164477
3021.93 171212 201508 266454 276238 244136 194318
3024.83 172304 195316 162177 112781 73257 77853
3027.72 109447 102345 161445 183466 102164 30347
3030.61-40565-20535 136415 1645879 3805977 3180245
3033.50 1673057 881310 415922 178569 84997 54772
3036.40 95833 119207 98649 101899 124122 159383
3039.29 200461 225920 250052 285402 319610 291316
3042.18 277836 267977 281607 304035 317206 309384
3045.08 302276 278724 296211 284935 220077 175834
3047.97 190846 202707 184081 133858 110713 110093
3050.86 83101 59835 56426 53642-408-16891
3053.75-3210-2765-29746-72146-88248-82436
3056.65-89991-31090 11194-43425-68668-56926
3059.54-59018-76878-82168-106087-102756-111831
3062.43-105676-98725-118126-103040-97759-90149
3065.32-82894-67256-70487-80308-104908-98520
3068.22-58200-50075-70854-89737-98136-101265
3071.11-96730-79453-55776-43311-77035-85099
3074.00-54321-84387-83703-45295-53419-56935
3076.90-54707-64089-68755-93215-95778-66550
3079.79-56713-66531-79973-98033-93287-94617
3082.68-67245-33257-31793-37786-64105-99865
3085.57-123515-106798-58883-45205-15633 14202
3088.47-33411-65460-37819-32130-66043-100867
3091.36-85918-45676-29297-15641-4671 1995
3094.25-40981-54366-51697-39445-25390-59508
3097.14-100877-106947-88143-41417-2193-7687
3100.04-20229-32416-48781-44102-64127-78268
3102.93-70838-54809-54648-35304-15532-44596
3105.82-60030-32029-20951-10802 7567-14023
3108.72-20811 6352 13530-1433-23016-4158
3111.61-13298-19523 14493 35530 9606-54975
3114.50-20592 1705-55762-59913-45689-48159
3117.39-18580 8995-6968-22259-6112-1226
3120.29 17654 12619-16622-35982-66645-80126
3123.18-53838-34294-31042-40306-16766 26117
3126.07 17007-8412 30115 57749 13053-20830
3128.96-3767 22166 62974 39287-18713 29278
3131.86 60746 32774 13344 14564 6155-40620
3134.75-38637-8475 22651 43676 21819-14616
3137.64-24110-15954 14041 12312-11177-10963
3140.54 17267 40919 37193 5976-6891-30862
3143.43-9787 646-19700-25189-4799-10606
3146.32 9965 37477 30529 36179 36223-1765
3149.21-2374-16954-31442 9951 39980 31993
3152.11-1529 14126 30546 12662 29271 35506
3155.00 44782 52686 57535 31766-5172 13999
3157.89 32100 67806 76804 57599 51211 53041
3160.78 63750 34858-338 860 40326 42929
3163.68 24984 63797 106556 84226 52420 18758
3166.57 28982 17979-12626-18644 6771 5644
3169.46 1006-25532-35794-12612 5295 52030
3172.36 69981 33533 57808 74124 19236-5417
3175.25-11668 9149 16105 21792 3812 20370
3178.14 29766 9126 9935 16412 40515 12737
3181.03 35220 67305 48359 29913 31069 30299
3183.93 40485 68074 50907 26317 27853 33155
3186.82 33710 44952 40385 28245 22538 38215
3189.71 30838-20998-16917 4050-8130-20474
3192.60-18784 9674 36975 17311-2018-6847
3195.50-567 2270 24703 66538 52327 22917
3198.39-4754-3024 351 20742 37050 22265
3201.28-21073 3225 37098 18717 5481 54771
3204.18 71155 12603-11763 12239 8924-19237
3207.07 19577 27132-4912-1352 6024 20586
3209.96 35457 52180 51753 44993 40492 5832
3212.85 15852 10118-16500-12050 20435 43392
3215.75 22622 23174 47052 94272 82769 17677
3218.64 28140 29489 17019 19149 39668 63000
3221.53 81351 23174 12181 888 8885 6568
3224.42-2385 10475-19321-31045 19301 62222
3227.32 71067 31576 4393 25901 63798 91702
3230.21 92337 59956 46964 38798 8818 4265
3233.10 28275 16993 12380 41204 43203 31399
3236.00 11536 32186 18038 14378 21473 33125
3238.89 34832 59235 52923 33479 56447 87067
3241.78 79044 60872 30051 76007 73025 41259
3244.67 44270 25463 41322 44219 39916 78953
3247.57 71520 67858 19173-39864 3860 48066
3250.46 41870 48472 71966 92991 85821 48769
3253.35-24082 24909 79862 64903 32490 33511
3256.24 32852 20366 56486 43415 17259 8375
3259.14 10605 37668 26066 16987 57949 66681
3262.03 78798 82081 27009 19262 36192 7930
3264.92 15995 36221 35053 21978 14921 64970
3267.82 81700 60637 78987 83182 37402 9971
3270.71-9581-10598 40366 56165 36666 5708
3273.60 22759-5071-2925 65841 52281-905
3276.49-20103-15704 4573 31072 6588-9374
3279.39 15862 22700 9741-8266-5743 12403
3282.28 20605 28725 37891 36530-9409-47513
3285.17-3656 18887 27959 45183 19329 19739
3288.06 65597 64318 20131 27934 18355-23328
3290.96-29765 12455 24041 6019 14571-12439
3293.85-5178 16641-417 5573-9928-8162
3296.74 31497 50373 54463 58409 78676 17503
3299.64-15030 31652 47235 46964 21003-24500
3302.53-34564-55786-22051 20819 30954 23348
3305.42 16087-46360-62325 45081 55618 13185
3308.31 7734-18040-2840 1407-43377-25532
3311.21 2984-6541-26852-38471-39011-39321
3314.10-40510-70322-59078-65 11044-60685
3316.99-66551-22899-10508-65733-86691-46936
3319.88-29466-37291-40027-49322-30927-14702
3322.78-28033-39856-46878-38251-15058-21063
3325.67-65182-80581-83279-60757-6198 76
3328.56 4413 13631-30215-73717-32661-28855
3331.46-69301-55374-22190-29427-58060-70700
3334.35-50287-22055-12488-59904-93923-24119
3337.24-836-27680-24225-42257-58678-42799
3340.13-48892-92041-70972 4022 2756-39172
3343.03-2257-30493-105256-81344-23186-22361
3345.92-12168-53964-100045-79562-78953-47058
3348.81-37931-31382-39623-43940-35862-30893
3351.70-30344-37368-78932-89918-90479-105058
3354.60-97066-22237 752-35588-55095-82740
3357.49-91175-71449-66288-43977-5338-21541
3360.38-62402-42137-46152-92089-82666-69000
3363.28-38085-51941-105448-84700-31764-11729
3366.17-44362-75962-51830-58142-63652-16211
3369.06-20837-70987-71951-80093-94190-87372
3371.95-78099-85945-106677-85877-58585-65060
3374.85-88961-105550-77198-53125-25067-39512
3377.74-76935-121463-122989-83258-71526-106433
3380.63-106197-132481-136626-58648-25075-46184
3383.52-38813-39874-17396-11522-9637-3228
3386.42-33234-58073-52508-52566-18957-13960
3389.31-67696-71211-24030-29996-34122-39809
3392.20-58060-72506-105311-142212-123006-97983
3395.10-59743-70496-57278-42203 2991 66894
3397.99 18425-27731-22101-64351-91437-30833
3400.88-17089-24712-26245-52658-74398-65151
3403.77-50185-54785-53068-29057-2608-4394
3406.67-40207-80077-75453-60260-49064-71603
3409.56-84364-48180-56408-78788-74495-27950
3412.45 67405 31392-27899-72069-113770-89819
3415.34-73772-80228-37722 20803-31858-87878
3418.24-87613-59665-37069-69535-98036-56996
3421.13-72070-75171-18201-35784-25632 28267
3424.02-18389-73183-42578-22757-42732-59137
3426.92-89450-113040-64428-62619-99608-119543
3429.81-132282-93901-46648-18759-10934-25236
3432.70-49558-94228-78043-12700-4973 4632
3435.59 12033-33139-65379-71625-82647-118913
3438.49-116519-118824-133538-85187-42605-106818
3441.38-126478-70390-61962-131547-157933-80337
3444.27-15191-34655-85053-103690-72030-118353
3447.16-134907-73169-94232-102428-71484-99231
3450.06-124693-63358-20981-53303-74906-46226
3452.95-31147-72272-111019-98524-64540-47722
3455.84-61429-111220-118813-52563-15199-35342
3458.74-95010-141039-129062-80993-67213-122497
3461.63-79262 1231 9981-13553-50543-93995
3464.52-115732-87949-7937 17936-34389-100873
3467.41-101343-98131-107052-75696-47625-62380
3470.31-122303-150684-140432-164746-124528-22740
3473.20-22078-73938-94954-89696-94455-78477
3476.09-41244-27665-69222-96085-63549-69759
3478.98-104994-124056-110385-88992-107338-84572
3481.88-69949-107517-112136-75687-45599-84269
3484.77-148780-153451-133285-83302-63690-86459
3487.66-91941-132753-116785-102003-144719-147120
3490.56-131710-73838-58786-95430-107847-158338
3493.45-163802-114144-100239-108366-121618-120801
3496.34-102693-86080-74371-110340-138105-140306
3499.23-131583-147190-136229-106479-118997-101212
3502.13-105041-137867-131704-136839-176211-162026
3505.02-132346-127078-100094-91232-123363-124827
3507.91-138018-132634-159662-169149-149200-112796
3510.80-72187-127902-184078-130817-106131-126555
3513.70-112411-138771-120755-56383-61868-103367
3516.59-103218-78141-97937-134573-174118-177401
3519.48-152784-102353-88836-111256-138404-133058
3522.38-131495-98977-118653-144100-97758-109903
3525.27-145790-137782-114802-127982-145843-143069
3528.16-150615-166155-165449-148449-151043-135776
3531.05-117083-118412-144323-135905-59574-53409
3533.95-69272-54213-73796-143904-165046-119547
3536.84-90737-103209-125138-145894-168464-163455
3539.73-142896-120858-78664-72767-92969-143706
3542.62-149704-87366-90336-124291-175258-195674
3545.52-132869-110864-132654-117041-126654-133508
3548.41-91143-77475-79248-120879-162492-147265
3551.30-153572-198395-177982-105086-101919-115568
3554.20-116769-89760-74373-105906-103700-104789
3557.09-77790-98053-110390-80664-89813-90902
3559.98-74785-91540-103534-133544-154726-149623
3562.87-127932-113076-97655-92743-143026-219825
3565.77-218840-178373-141534-201920-236768-160507
3568.66-99271-99100-134475-172736-180792-156497
3571.55-141244-130468-96723-71782-79904-93248
3574.44-69083-78838-89124-92224-131626-143932
3577.34-141845-127798-67152-59691-101741-123119
3580.23-107749-91109-103400-115481-123262-105049
3583.12-97775-86826-54694-50507-67942-161202
3586.02-323971-265399-122962-157980-354167-343264
3588.91-165939-148559-121042-78540-58514-53927
3591.80-88998-145570-162256-142482-66364-51424
3594.69-149334-160530-103518-57737-20397-31596
3597.59-77189-73980-37948-25459-58334-134680
3600.48-140014-77796-7948-33458-80285-111968
3603.37-106206-65899-42909-53042-85828-145915
3606.26-211248-216910-181126-175540-240465-479857
3609.16-342086-112200-96460-83999-125618-254138
3612.05-365159-246556-132408-133401-183350-156541
3614.94-114500-103671-86303-110194-223813-236377
3617.84-144401-173141-418992-465801-187747-130739
3620.73-153285-97753-65155-80189-101035-103401
3623.62-97994-98196-74872-68341-108692-151217
3626.51-147105-187641-462673-660222-480370-721519
3629.41-603812-208726-153853-132501-92786-89181
3632.30-101587-151073-259340-198367-83242-64175
3635.19-100000-82599-44330-78241-138089-145929
3638.08-120417-106774-118908-126533-115978-135115
3640.98-153054-131996-116276-108073-75672-38726
3643.87-57940-83220-128008-112049-166970-321730
3646.76-475983-391526-256320-450895-886098-635760
3649.66-325094-428299-461798-362451-216382-163959
3652.55-116740-102299-97116-96124-115484-179499
3655.44-433589-587990-282264-106417-87201-104136
3658.33-123303-161445-121214-102864-126464-148064
3661.23-114777-81413-77055-121173-119710-154584
3664.12-152334-125781-137413-144730-122163-122896
3667.01-108722-160502-398079-431999-216851-267422
3669.90-761814-972684-394142-165823-189007-174119
3672.80-160602-204393-243966-553999-637927-849437
3675.69-918947-383609-201499-189663-137923-104478
3678.58-174722-223516-136328-71880-54015-87619
3681.48-89285-109041-117943-110592-79221-109802
3684.37-82246-84042-61800-75460-57617-90879
3687.26-326847-962523-896600-268187-77475-82276
3690.15-150086-302468-250788-49196 19220 12669
3693.05-52447-57431-21976-9571-10487 6396
3695.94 23030 22221-13160-26775 14083 29108
3698.83 11021 10517 41374 101660 42634-81159
3701.72 55121 248173 361638 420640 336906 289048
3704.62 295274 243579 76251-23029-29417-48709
3707.51-100327-126917-242095-318169-153122-55886
3710.40-107480-191955-549026-703152-246608 9430
3713.30 57607 8682-41412-1132 43358 29730
3716.19 56477 24388-3719-4076-56876-116115
3719.08-63403-69056-106277-118929-132613-239035
3721.97-237777-123016-95728-97856-120114-184285
3724.87-150561-136910-301918-334892-177877-152403
3727.76-133532-116008-91891-87116-118484-154557
3730.65-137919-364916-684930-446359-156120-145287
3733.54-202554-367920-448509-365896-283331-590004
3736.44-674901-311953-202533-229267-171640-149159
3739.33-161692-167874-222410-279859-243880-211406
3742.22-178087-182789-480733-1195649-1712374-1071426
3745.12-366365-212806-183662-218797-202542-160238
3748.01-259227-813807-1221294-660092-202945-193545
3750.90-371586-1007192-1254730-541075-213673-189560
3753.79-161038-124674-136509-163763-254193-292330
3756.69-193132-125358-150940-171541-197666-339358
3759.58-379300-215201-165141-146000-130426-100458
3762.47-140340-180884-150167-106008-131427-276335
3765.36-347069-186844-128714-122132-123607-123042
3768.26-139663-234833-445336-394545-213812-186629
3771.15-173431-155409-164472-168283-165496-165028
3774.04-132269-94984-104081-165140-154722-127945
3776.94-121883-120539-147402-209168-361689-321636
3779.83-198851-168496-120032-86675-102127-121985
3782.72-132699-163368-181424-191233-163630-144108
3785.61-131592-103507-77002-86839-77754-95368
3788.51-158874-147686-87035-86374-85749-130368
3791.40-141887-123132-106212-108387-101875-152495
3794.29-145671-107636-167672-329777-290416-212130
3797.18-193370-125229-53421-69051-71190-109771
3800.08-246574-742043-1008453-438622-129849-131933
3802.97-83503-40975-44584-18864-12389-87321
3805.86-281719-675188-586601-185503-78556-28848
3808.76-33398-24838-37033-46082-33980-30651
3811.65-54803-55230-83424-62072-84799-113448
3814.54-187719-537847-1151027-843155-236597-95975
3817.43-119002-148168-153638-191461-268373-442876
3820.33-561648-524284-621338-405576-180661-158253
3823.22-174836-148742-140239-151771-128686-199526
3826.11-318617-223549-137397-164242-141808-108973
3829.00-119749-165741-199711-243579-417705-462678
3831.90-245284-180054-160770-159427-222279-418831
3834.79-343358-194265-170211-208533-491877-1186274
3837.68-1005108-306871-179855-245186-294467-296582
3840.58-371681-260345-155443-130911-197886-303326
3843.47-313346-197636-139860-113044-103086-112003
3846.36-158514-165611-148301-94191-89961-165834
3849.25-243423-215843-203278-281382-749234-1014549
3852.15-512388-363134-926544-1696858-1327746-450681
3855.04-171237-171712-180836-230485-260015-205876
3857.93-142293-103394-175773-212351-172336-139037
3860.82-245963-340067-230639-153520-204092-207749
3863.72-224503-411934-567348-291577-153857-159886
3866.61-169797-164757-172220-214404-371093-524732
3869.50-851757-686257-275435-158890-144568-191967
3872.40-183069-204235-329004-388576-273111-183752
3875.29-140560-152745-153164-109988-94742-123815
3878.18-153834-169884-290812-486277-431673-286406
3881.07-202241-153861-150085-125429-113272-143883
3883.97-204487-283354-634204-700776-326494-191550
3886.86-212846-154884-99651-117184-150328-149459
3889.75-152607-296651-503739-382224-171053-124602
3892.64-134905-177751-186828-129375-120616-119663
3895.54-110343-143165-195575-205699-157578-158384
3898.43-342173-461543-253276-167751-172903-323374
3901.32-510763-369846-195529-184609-350321-502504
3904.22-293064-173590-269731-311459-211317-155419
3907.11-141669-187900-192638-154163-159913-158854
3910.00-166000-200637-168318-173281-210483-158300
3912.89-130758-122035-158304-206822-181110-165906
3915.79-182944-258819-369245-264127-153521-160848
3918.68-153189-230212-314332-211069-130256-114751
3921.57-79287-71009-119440-149324-167973-163801
3924.46-182073-194727-142489-123031-133586-176375
3927.36-157091-167214-199874-263397-259986-223929
3930.25-189620-182432-196814-234007-246254-179394
3933.14-128900-134481-146962-137648-124689-113503
3936.04-144731-181784-118815-100625-128169-126614
3938.93-77979-88274-103912-111056-137801-154147
3941.82-208664-218542-151603-137786-159118-111096
3944.71-73211-91985-100418-110855-124355-133878
3947.61-140737-149239-134575-208198-273419-219616
3950.50-147039-93858-96888-104683-139126-132893
3953.39-110419-124340-98997-63657-98100-142312
3956.28-154070-122100-142544-186318-116573-104366
3959.18-183739-191140-169645-182543-179155-191752
3962.07-206781-166607-114901-139369-142369-121364
3964.96-82002-87973-124040-128766-131388-175383
3967.86-140863-101274-138630-155071-109886-48910
3970.75-56450-123123-103568-99714-132744-164913
3973.64-159585-154035
##END=
