##TITLE=DIMETHYL SULFOXIDE
##JCAMP-DX=4.24
##DATA TYPE=INFRARED SPECTRUM
##CLASS=COBLENTZ III
##ORIGIN=WESTERN REGIONAL RES. USDA
##OWNER=COBLENTZ SOCIETY
Collection (C) 2018 copyright by the U.S. Secretary of Commerce
on behalf of the United States of America. All rights reserved.
##DATE=1965/02/02
##NAMES=(methylsulfinyl)methane
##CAS REGISTRY NO=67-68-5
##MOLFORM=C2 H6 O S
##BP=189 C
##SOURCE REFERENCE=COBLENTZ NO. 6168
##$NIST SOURCE=COBLENTZ
##$NIST IMAGE=cob6168
##SPECTROMETER/DATA SYSTEM=BECKMAN IR-7 (GRATING)
##INSTRUMENT PARAMETERS=GRATING CHANGES AT 3000, 2200, 1150 CM^-^1
##STATE=SOLUTION (10% IN CCl4 FOR 4000-1330 CM^-^1, 10% IN CS2 FOR 1330-600 CM^-^1)
##PATH LENGTH=0.010 CM, 0.010 CM
$$SPECTRAL CONTAMINATION DUE TO CCl4 AROUND 1550, AND CS2 AROUND 855 CM^-^1
##SAMPLING PROCEDURE=TRANSMISSION
##RESOLUTION=4
##DATA PROCESSING=DIGITIZED BY NIST FROM HARD COPY (FROM TWO SEGMENTS)
##XUNITS=1/CM
##YUNITS=TRANSMITTANCE
##XFACTOR=1.000000
##YFACTOR=1
##DELTAX=0.661313
##FIRSTX=603.307
##LASTX=3984.6
##FIRSTY=0.775
##MAXX=3984.6
##MINX=603.307
##MAXY=0.903
##MINY=0.034
##NPOINTS=5114
##XYDATA=(X++(Y..Y))
603.307000 0.7750 0.7780 0.7800 0.7810 0.7750
606.613565 0.7780 0.7800 0.7810 0.7810 0.7820
609.920131 0.7820 0.7830 0.7830 0.7840 0.7840
613.226696 0.7850 0.7870 0.7880 0.7900 0.7910
616.533262 0.7920 0.7930 0.7940 0.7950 0.7960
619.839827 0.7960 0.7970 0.7970 0.7980 0.7980
623.146393 0.7980 0.7980 0.7970 0.7970 0.7960
626.452958 0.7960 0.7960 0.7950 0.7940 0.7930
629.759524 0.7930 0.7920 0.7920 0.7920 0.7920
633.066089 0.7910 0.7910 0.7910 0.7900 0.7900
636.372655 0.7900 0.7880 0.7870 0.7850 0.7830
639.679220 0.7810 0.7800 0.7790 0.7770 0.7760
642.985786 0.7740 0.7690 0.7650 0.7610 0.7570
646.292351 0.7540 0.7510 0.7470 0.7440 0.7400
649.598917 0.7370 0.7330 0.7300 0.7250 0.7200
652.905482 0.7160 0.7110 0.7050 0.6980 0.6741
656.212047 0.6620 0.6600 0.6590 0.6590 0.6600
659.518613 0.6600 0.6600 0.6620 0.6620 0.6640
662.825178 0.6660 0.6660 0.6680 0.6720 0.6760
666.131744 0.6800 0.6900 0.6970 0.7030 0.7080
669.438309 0.7100 0.7130 0.7180 0.7220 0.7220
672.744875 0.7230 0.7240 0.7260 0.7290 0.7360
676.051440 0.7460 0.7480 0.7480 0.7480 0.7480
679.358006 0.7470 0.7460 0.7400 0.7380 0.7340
682.664571 0.7290 0.7240 0.7170 0.7110 0.7040
685.971137 0.6641 0.6500 0.6370 0.6250 0.6150
689.277702 0.6000 0.5790 0.5770 0.5770 0.5770
692.584268 0.5780 0.5810 0.5960 0.6040 0.6180
695.890833 0.6280 0.6370 0.6460 0.6560 0.6620
699.197399 0.6700 0.6760 0.6810 0.6910 0.7010
702.503964 0.7090 0.7170 0.7240 0.7300 0.7360
705.810529 0.7420 0.7460 0.7500 0.7540 0.7570
709.117095 0.7600 0.7630 0.7640 0.7670 0.7690
712.423660 0.7700 0.7720 0.7730 0.7750 0.7770
715.730226 0.7790 0.7810 0.7820 0.7830 0.7840
719.036791 0.7850 0.7860 0.7860 0.7870 0.7880
722.343357 0.7880 0.7890 0.7900 0.7900 0.7910
725.649922 0.7920 0.7920 0.7930 0.7930 0.7940
728.956488 0.7940 0.7940 0.7940 0.7940 0.7950
732.263053 0.7950 0.7960 0.7960 0.7960 0.7960
735.569619 0.7970 0.7980 0.7980 0.7980 0.7970
738.876184 0.7970 0.7970 0.7960 0.7960 0.7960
742.182750 0.7960 0.7950 0.7950 0.7940 0.7940
745.489315 0.7940 0.7940 0.7940 0.7950 0.7950
748.795881 0.7960 0.7960 0.7960 0.7960 0.7970
752.102446 0.7970 0.7980 0.7980 0.7980 0.7980
755.409011 0.7990 0.7990 0.8000 0.8000 0.8000
758.715577 0.8000 0.8000 0.8000 0.8010 0.8010
762.022142 0.8020 0.8020 0.8020 0.8020 0.8030
765.328708 0.8030 0.8030 0.8030 0.8030 0.8030
768.635273 0.8040 0.8040 0.8040 0.8040 0.8040
771.941839 0.8040 0.8040 0.8040 0.8040 0.8040
775.248404 0.8040 0.8040 0.8040 0.8040 0.8040
778.554970 0.8040 0.8040 0.8040 0.8030 0.8030
781.861535 0.8030 0.8020 0.8020 0.8020 0.8020
785.168101 0.8020 0.8010 0.8010 0.8010 0.8000
788.474666 0.7990 0.7980 0.7980 0.7980 0.7970
791.781232 0.7960 0.7960 0.7950 0.7950 0.7940
795.087797 0.7940 0.7940 0.7950 0.7950 0.7960
798.394363 0.7960 0.7970 0.7970 0.7970 0.7970
801.700928 0.7980 0.7980 0.7980 0.7980 0.7990
805.007493 0.8000 0.8000 0.8000 0.7990 0.7990
808.314059 0.7990 0.7990 0.7990 0.7990 0.7980
811.620624 0.7980 0.7980 0.7970 0.7970 0.7970
814.927190 0.7970 0.7970 0.7970 0.7970 0.7970
818.233755 0.7980 0.7980 0.7980 0.7980 0.7980
821.540321 0.7980 0.7990 0.8000 0.8000 0.8000
824.846886 0.8010 0.8020 0.8020 0.8020 0.8020
828.153452 0.8020 0.8020 0.8020 0.8020 0.8020
831.460017 0.8010 0.8000 0.8000 0.8000 0.7990
834.766583 0.7990 0.7980 0.7990 0.7990 0.7980
838.073148 0.7970 0.7950 0.7930 0.7910 0.7880
841.379714 0.7850 0.7820 0.7790 0.7760 0.7730
844.686279 0.7710 0.7680 0.7600 0.7530 0.7480
847.992844 0.7440 0.7400 0.7360 0.7300 0.7220
851.299410 0.7170 0.7100 0.7010 0.6950 0.6880
854.605975 0.6720 0.6650 0.6610 0.6610 0.6570
857.912541 0.6560 0.6550 0.6530 0.6530 0.6520
861.219106 0.6520 0.6530 0.6560 0.6560 0.6580
864.525672 0.6590 0.6600 0.6620 0.6640 0.6650
867.832237 0.6670 0.6690 0.6720 0.6740 0.6760
871.138803 0.6770 0.6780 0.6800 0.6800 0.6820
874.445368 0.6840 0.6880 0.6900 0.6940 0.6960
877.751934 0.6970 0.6980 0.7000 0.7020 0.7030
881.058499 0.7050 0.7070 0.7070 0.7070 0.7070
884.365065 0.7060 0.7040 0.7030 0.7010 0.7000
887.671630 0.7010 0.7010 0.7030 0.7050 0.7070
890.978196 0.7080 0.7110 0.7130 0.7180 0.7210
894.284761 0.7280 0.7330 0.7370 0.7450 0.7480
897.591326 0.7490 0.7500 0.7510 0.7570 0.7590
900.897892 0.7620 0.7650 0.7670 0.7680 0.7690
904.204457 0.7710 0.7750 0.7770 0.7790 0.7810
907.511023 0.7820 0.7820 0.7820 0.7810 0.7810
910.817588 0.7810 0.7800 0.7790 0.7780 0.7770
914.124154 0.7750 0.7720 0.7670 0.7630 0.7580
917.430719 0.7550 0.7510 0.7360 0.7240 0.7130
920.737285 0.6990 0.6470 0.6420 0.6410 0.6430
924.043850 0.6480 0.6640 0.6680 0.6720 0.6750
927.350416 0.6820 0.6890 0.6990 0.7010 0.7110
930.656981 0.7150 0.7190 0.7220 0.7250 0.7280
933.963547 0.7300 0.7330 0.7360 0.7380 0.7410
937.270112 0.7410 0.7410 0.7420 0.7410 0.7380
940.576678 0.7360 0.7320 0.7270 0.7200 0.7110
943.883243 0.6990 0.6521 0.6400 0.6270 0.6150
947.189808 0.6140 0.6140 0.6160 0.6260 0.6310
950.496374 0.6390 0.6470 0.6550 0.6620 0.6700
953.802939 0.6740 0.6770 0.6840 0.6900 0.6970
957.109505 0.6990 0.7010 0.7050 0.7090 0.7170
960.416070 0.7230 0.7290 0.7310 0.7360 0.7380
963.722636 0.7420 0.7450 0.7500 0.7530 0.7560
967.029201 0.7590 0.7620 0.7640 0.7660 0.7670
970.335767 0.7690 0.7700 0.7710 0.7720 0.7730
973.642332 0.7740 0.7740 0.7790 0.7790 0.7810
976.948898 0.7810 0.7810 0.7810 0.7810 0.7810
980.255463 0.7810 0.7810 0.7800 0.7800 0.7800
983.562029 0.7800 0.7770 0.7760 0.7750 0.7730
986.868594 0.7730 0.7730 0.7730 0.7720 0.7710
990.175160 0.7690 0.7690 0.7690 0.7680 0.7650
993.481725 0.7650 0.7620 0.7610 0.7580 0.7550
996.788290 0.7500 0.7460 0.7410 0.7370 0.7320
1000.094856 0.7270 0.7220 0.7170 0.7090 0.6980
1003.401421 0.6640 0.6430 0.6250 0.6120 0.5941
1006.707987 0.5690 0.5410 0.5270 0.5130 0.5000
1010.014552 0.4820 0.4780 0.4780 0.4810 0.4860
1013.321118 0.4970 0.5010 0.5100 0.5190 0.5230
1016.627683 0.5320 0.5390 0.5480 0.5520 0.5600
1019.934249 0.5630 0.5690 0.5750 0.5810 0.5890
1023.240814 0.5960 0.5980 0.6020 0.6080 0.6100
1026.547380 0.6160 0.6200 0.6200 0.6220 0.6230
1029.853945 0.6240 0.6240 0.6230 0.6210 0.6200
1033.160511 0.6160 0.6140 0.6120 0.6080 0.6020
1036.467076 0.5990 0.5980 0.5940 0.5910 0.5820
1039.773642 0.5790 0.5750 0.5720 0.5660 0.5580
1043.080207 0.5500 0.5460 0.5400 0.5340 0.5290
1046.386772 0.5250 0.5180 0.5110 0.5020 0.4980
1049.693338 0.4900 0.4810 0.4730 0.4411 0.4280
1052.999903 0.4080 0.3940 0.3790 0.3680 0.3470
1056.306469 0.3280 0.3041 0.2851 0.2631 0.2132
1059.613034 0.1840 0.1590 0.1380 0.1210 0.1060
1062.919600 0.0930 0.0820 0.0710 0.0620 0.0520
1066.226165 0.0440 0.0400 0.0360 0.0350 0.0340
1069.532731 0.0340 0.0340 0.0350 0.0420 0.0520
1072.839296 0.0620 0.0740 0.0870 0.1010 0.1180
1076.145862 0.1360 0.1569 0.1809 0.2029 0.2219
1079.452427 0.2310 0.2390 0.2690 0.3020 0.3390
1082.758993 0.3799 0.4029 0.4279 0.4380 0.4490
1086.065558 0.4590 0.4840 0.4990 0.5180 0.5380
1089.372124 0.5520 0.5610 0.5810 0.5910 0.6030
1092.678689 0.6180 0.6280 0.6400 0.6510 0.6570
1095.985254 0.6600 0.6680 0.6700 0.6740 0.6780
1099.291820 0.6830 0.6890 0.6930 0.6970 0.6990
1102.598385 0.7030 0.7080 0.7110 0.7170 0.7220
1105.904951 0.7260 0.7300 0.7320 0.7350 0.7370
1109.211516 0.7380 0.7400 0.7400 0.7410 0.7430
1112.518082 0.7440 0.7460 0.7510 0.7520 0.7530
1115.824647 0.7550 0.7550 0.7560 0.7580 0.7590
1119.131213 0.7610 0.7620 0.7630 0.7650 0.7650
1122.437778 0.7670 0.7680 0.7690 0.7700 0.7710
1125.744344 0.7720 0.7730 0.7740 0.7750 0.7760
1129.050909 0.7770 0.7780 0.7790 0.7810 0.7820
1132.357475 0.7820 0.7840 0.7840 0.7840 0.7850
1135.664040 0.7860 0.7860 0.7870 0.7880 0.7880
1138.970606 0.7890 0.7900 0.7900 0.7900 0.7910
1142.277171 0.7920 0.7920 0.7930 0.7940 0.7940
1145.583736 0.7950 0.7960 0.7960 0.7970 0.7970
1148.890302 0.7980 0.7980 0.7980 0.7980 0.7990
1152.196867 0.7990 0.8000 0.8000 0.8000 0.8000
1155.503433 0.8000 0.8000 0.8000 0.8000 0.8000
1158.809998 0.8010 0.8010 0.8010 0.8010 0.8020
1162.116564 0.8020 0.8020 0.8020 0.8020 0.8020
1165.423129 0.8030 0.8030 0.8030 0.8040 0.8040
1168.729695 0.8040 0.8040 0.8040 0.8040 0.8050
1172.036260 0.8050 0.8050 0.8060 0.8060 0.8060
1175.342826 0.8060 0.8060 0.8060 0.8060 0.8060
1178.649391 0.8060 0.8060 0.8070 0.8070 0.8070
1181.955957 0.8070 0.8070 0.8080 0.8080 0.8080
1185.262522 0.8080 0.8080 0.8080 0.8080 0.8080
1188.569088 0.8080 0.8080 0.8080 0.8080 0.8080
1191.875653 0.8080 0.8080 0.8080 0.8080 0.8080
1195.182218 0.8080 0.8080 0.8080 0.8080 0.8080
1198.488784 0.8080 0.8080 0.8080 0.8080 0.8070
1201.795349 0.8070 0.8070 0.8070 0.8070 0.8080
1205.101915 0.8080 0.8080 0.8080 0.8080 0.8080
1208.408480 0.8080 0.8080 0.8080 0.8080 0.8080
1211.715046 0.8060 0.8060 0.8060 0.8060 0.8060
1215.021611 0.8060 0.8060 0.8060 0.8060 0.8060
1218.328177 0.8060 0.8060 0.8050 0.8050 0.8050
1221.634742 0.8050 0.8050 0.8050 0.8040 0.8040
1224.941308 0.8040 0.8040 0.8040 0.8040 0.8040
1228.247873 0.8040 0.8040 0.8030 0.8030 0.8030
1231.554439 0.8030 0.8030 0.8020 0.8020 0.8020
1234.861004 0.8020 0.8020 0.8020 0.8020 0.8020
1238.167569 0.8020 0.8020 0.8010 0.8010 0.8010
1241.474135 0.8010 0.8000 0.8000 0.8000 0.8000
1244.780700 0.8000 0.7990 0.7990 0.7990 0.7980
1248.087266 0.7980 0.7980 0.7980 0.7980 0.7980
1251.393831 0.7970 0.7970 0.7960 0.7960 0.7960
1254.700397 0.7960 0.7960 0.7950 0.7950 0.7950
1258.006962 0.7940 0.7940 0.7940 0.7940 0.7940
1261.313528 0.7940 0.7930 0.7920 0.7920 0.7920
1264.620093 0.7910 0.7910 0.7900 0.7900 0.7900
1267.926659 0.7890 0.7880 0.7880 0.7880 0.7870
1271.233224 0.7870 0.7860 0.7860 0.7860 0.7860
1274.539790 0.7840 0.7830 0.7820 0.7810 0.7800
1277.846355 0.7790 0.7770 0.7770 0.7750 0.7740
1281.152921 0.7730 0.7730 0.7720 0.7710 0.7700
1284.459486 0.7680 0.7650 0.7630 0.7610 0.7590
1287.766051 0.7570 0.7550 0.7540 0.7530 0.7510
1291.072617 0.7500 0.7490 0.7480 0.7460 0.7440
1294.379182 0.7420 0.7400 0.7380 0.7340 0.7310
1297.685748 0.7270 0.7220 0.7160 0.7090 0.7030
1300.992313 0.6950 0.6890 0.6820 0.6700 0.6670
1304.298879 0.6660 0.6670 0.6680 0.6690 0.6720
1307.605444 0.6740 0.6760 0.6780 0.6810 0.6840
1310.912010 0.6880 0.6910 0.6930 0.6950 0.6960
1314.218575 0.6970 0.6970 0.6980 0.6990 0.6990
1317.525141 0.6990 0.7000 0.7010 0.7020 0.7030
1320.831706 0.7040 0.7040 0.7050 0.7050 0.7060
1324.138272 0.7080 0.7100 0.7120 0.7150 0.7170
1327.444837 0.7180 0.7210 0.7240 0.7260 0.7280
1330.751403 0.7300 0.7320 0.7350 0.7370 0.7390
1334.057968 0.7410 0.7420 0.7440 0.7450 0.7450
1337.364533 0.7460 0.7460 0.7460 0.7480 0.7480
1340.671099 0.7500 0.7500 0.7510 0.7520 0.7530
1343.977664 0.7540 0.7550 0.7560 0.7570 0.7570
1347.284230 0.7590 0.7590 0.7610 0.7610 0.7610
1350.590795 0.7620 0.7650 0.7670 0.7690 0.7720
1353.897361 0.7730 0.7750 0.7770 0.7780 0.7790
1357.203926 0.7800 0.7810 0.7810 0.7810 0.7820
1360.510492 0.7820 0.7810 0.7810 0.7790 0.7790
1363.817057 0.7780 0.7780 0.7760 0.7750 0.7740
1367.123623 0.7720 0.7710 0.7710 0.7710 0.7690
1370.430188 0.7690 0.7680 0.7670 0.7630 0.7590
1373.736754 0.7550 0.7520 0.7500 0.7480 0.7460
1377.043319 0.7440 0.7420 0.7400 0.7330 0.7280
1380.349885 0.7250 0.7220 0.7200 0.7150 0.7090
1383.656450 0.6990 0.6670 0.6580 0.6420 0.6380
1386.963015 0.6310 0.6310 0.6310 0.6310 0.6330
1390.269581 0.6350 0.6350 0.6350 0.6330 0.6280
1393.576146 0.6220 0.6140 0.6070 0.6000 0.5930
1396.882712 0.5860 0.5710 0.5620 0.5590 0.5420
1400.189277 0.5380 0.5180 0.4102 0.3292 0.2861
1403.495843 0.2730 0.2720 0.2730 0.2880 0.3030
1406.802408 0.3180 0.3330 0.3480 0.3630 0.3770
1410.108974 0.3930 0.4060 0.4100 0.4100 0.4090
1413.415539 0.3940 0.3731 0.3600 0.3480 0.3390
1416.722105 0.3390 0.3440 0.3560 0.3740 0.3890
1420.028670 0.4000 0.4100 0.4230 0.4409 0.4530
1423.335236 0.4660 0.4780 0.4830 0.4920 0.4940
1426.641801 0.4940 0.4950 0.4950 0.4910 0.4721
1429.948367 0.4390 0.3550 0.2151 0.2100 0.1820
1433.254932 0.1531 0.1251 0.0971 0.0970 0.1159
1436.561497 0.1350 0.1550 0.1750 0.1950 0.2150
1439.868063 0.2290 0.2440 0.2989 0.3150 0.3618
1443.174628 0.4060 0.4400 0.4550 0.4690 0.4950
1446.481194 0.5190 0.5489 0.5709 0.5979 0.6090
1449.787759 0.6240 0.6470 0.6560 0.6620 0.6710
1453.094325 0.6800 0.6970 0.7050 0.7200 0.7240
1456.400890 0.7280 0.7340 0.7390 0.7430 0.7460
1459.707456 0.7480 0.7510 0.7540 0.7570 0.7610
1463.014021 0.7660 0.7710 0.7750 0.7790 0.7820
1466.320587 0.7840 0.7870 0.7890 0.7900 0.7940
1469.627152 0.7960 0.7970 0.7970 0.7980 0.7980
1472.933718 0.8000 0.8000 0.8000 0.8000 0.8000
1476.240283 0.8010 0.8010 0.8010 0.8010 0.8010
1479.546849 0.8020 0.8020 0.8020 0.8020 0.8010
1482.853414 0.8010 0.8010 0.8000 0.7980 0.7980
1486.159979 0.7960 0.7960 0.7950 0.7940 0.7940
1489.466545 0.7930 0.7920 0.7900 0.7900 0.7880
1492.773110 0.7840 0.7810 0.7770 0.7740 0.7710
1496.079676 0.7680 0.7650 0.7630 0.7610 0.7580
1499.386241 0.7560 0.7530 0.7510 0.7490 0.7460
1502.692807 0.7390 0.7330 0.7280 0.7240 0.7200
1505.999372 0.7180 0.7150 0.7120 0.7090 0.7060
1509.305938 0.7020 0.6970 0.6910 0.6870 0.6860
1512.612503 0.6830 0.6740 0.6710 0.6670 0.6640
1515.919069 0.6610 0.6580 0.6560 0.6530 0.6510
1519.225634 0.6480 0.6450 0.6430 0.6400 0.6370
1522.532200 0.6330 0.6290 0.6240 0.6210 0.6180
1525.838765 0.6170 0.6140 0.6110 0.6080 0.6000
1529.145331 0.5980 0.5930 0.5910 0.5890 0.5830
1532.451896 0.5740 0.5680 0.5600 0.5540 0.5510
1535.758461 0.5450 0.5360 0.5300 0.5240 0.5170
1539.065027 0.5110 0.5010 0.4940 0.4900 0.4840
1542.371592 0.4800 0.4720 0.4630 0.4560 0.4460
1545.678158 0.4430 0.4400 0.4380 0.4370 0.4340
1548.984723 0.4330 0.4320 0.4310 0.4300 0.4290
1552.291289 0.4280 0.4290 0.4300 0.4320 0.4350
1555.597854 0.4380 0.4410 0.4450 0.4470 0.4490
1558.904420 0.4510 0.4520 0.4570 0.4590 0.4650
1562.210985 0.4740 0.4840 0.4890 0.4940 0.4980
1565.517551 0.5030 0.5090 0.5170 0.5210 0.5260
1568.824116 0.5290 0.5340 0.5390 0.5420 0.5440
1572.130682 0.5510 0.5570 0.5620 0.5650 0.5670
1575.437247 0.5690 0.5710 0.5720 0.5730 0.5750
1578.743813 0.5770 0.5770 0.5780 0.5790 0.5810
1582.050378 0.5820 0.5830 0.5850 0.5860 0.5880
1585.356943 0.5890 0.5910 0.5930 0.5940 0.5960
1588.663509 0.5980 0.6020 0.6050 0.6080 0.6120
1591.970074 0.6180 0.6220 0.6300 0.6350 0.6390
1595.276640 0.6410 0.6450 0.6500 0.6560 0.6610
1598.583205 0.6670 0.6720 0.6750 0.6770 0.6820
1601.889771 0.6850 0.6930 0.7010 0.7060 0.7110
1605.196336 0.7160 0.7200 0.7240 0.7280 0.7320
1608.502902 0.7370 0.7400 0.7440 0.7480 0.7510
1611.809467 0.7550 0.7590 0.7620 0.7650 0.7680
1615.116033 0.7710 0.7740 0.7770 0.7790 0.7820
1618.422598 0.7840 0.7860 0.7880 0.7900 0.7920
1621.729164 0.7940 0.7950 0.7960 0.7980 0.7990
1625.035729 0.8000 0.8000 0.8000 0.8010 0.8020
1628.342294 0.8030 0.8040 0.8040 0.8060 0.8080
1631.648860 0.8110 0.8120 0.8130 0.8140 0.8140
1634.955425 0.8140 0.8150 0.8160 0.8170 0.8170
1638.261991 0.8180 0.8190 0.8200 0.8210 0.8230
1641.568556 0.8240 0.8250 0.8250 0.8260 0.8260
1644.875122 0.8270 0.8270 0.8270 0.8280 0.8280
1648.181687 0.8280 0.8290 0.8290 0.8300 0.8310
1651.488253 0.8310 0.8310 0.8310 0.8320 0.8330
1654.794818 0.8330 0.8330 0.8330 0.8330 0.8330
1658.101384 0.8330 0.8340 0.8350 0.8350 0.8360
1661.407949 0.8370 0.8370 0.8380 0.8380 0.8380
1664.714515 0.8390 0.8390 0.8390 0.8390 0.8400
1668.021080 0.8410 0.8410 0.8420 0.8430 0.8430
1671.327646 0.8440 0.8440 0.8440 0.8450 0.8470
1674.634211 0.8480 0.8500 0.8510 0.8520 0.8530
1677.940776 0.8540 0.8540 0.8550 0.8550 0.8560
1681.247342 0.8560 0.8570 0.8580 0.8580 0.8600
1684.553907 0.8600 0.8610 0.8620 0.8620 0.8640
1687.860473 0.8640 0.8650 0.8660 0.8670 0.8680
1691.167038 0.8690 0.8700 0.8700 0.8720 0.8720
1694.473604 0.8720 0.8720 0.8730 0.8730 0.8730
1697.780169 0.8730 0.8730 0.8730 0.8730 0.8730
1701.086735 0.8740 0.8740 0.8740 0.8740 0.8740
1704.393300 0.8750 0.8760 0.8770 0.8770 0.8780
1707.699866 0.8780 0.8780 0.8790 0.8790 0.8790
1711.006431 0.8790 0.8790 0.8790 0.8790 0.8790
1714.312997 0.8790 0.8790 0.8790 0.8800 0.8800
1717.619562 0.8800 0.8800 0.8800 0.8810 0.8810
1720.926128 0.8810 0.8810 0.8810 0.8810 0.8810
1724.232693 0.8810 0.8810 0.8810 0.8810 0.8810
1727.539258 0.8810 0.8810 0.8810 0.8810 0.8810
1730.845824 0.8810 0.8810 0.8810 0.8820 0.8820
1734.152389 0.8820 0.8820 0.8820 0.8820 0.8820
1737.458955 0.8820 0.8830 0.8830 0.8830 0.8830
1740.765520 0.8830 0.8830 0.8830 0.8830 0.8830
1744.072086 0.8830 0.8840 0.8840 0.8840 0.8840
1747.378651 0.8840 0.8840 0.8840 0.8850 0.8850
1750.685217 0.8850 0.8850 0.8850 0.8850 0.8850
1753.991782 0.8850 0.8850 0.8850 0.8850 0.8850
1757.298348 0.8860 0.8860 0.8860 0.8860 0.8860
1760.604913 0.8860 0.8870 0.8870 0.8870 0.8870
1763.911479 0.8870 0.8870 0.8870 0.8870 0.8870
1767.218044 0.8870 0.8880 0.8880 0.8890 0.8890
1770.524610 0.8890 0.8890 0.8900 0.8910 0.8910
1773.831175 0.8910 0.8910 0.8910 0.8910 0.8920
1777.137740 0.8930 0.8930 0.8930 0.8930 0.8930
1780.444306 0.8930 0.8930 0.8930 0.8930 0.8930
1783.750871 0.8930 0.8930 0.8930 0.8930 0.8930
1787.057437 0.8930 0.8930 0.8930 0.8930 0.8930
1790.364002 0.8930 0.8930 0.8930 0.8930 0.8930
1793.670568 0.8930 0.8930 0.8930 0.8930 0.8930
1796.977133 0.8930 0.8920 0.8920 0.8920 0.8910
1800.283699 0.8910 0.8910 0.8910 0.8910 0.8910
1803.590264 0.8910 0.8910 0.8910 0.8920 0.8920
1806.896830 0.8920 0.8920 0.8920 0.8920 0.8920
1810.203395 0.8920 0.8910 0.8910 0.8910 0.8910
1813.509961 0.8910 0.8910 0.8910 0.8900 0.8900
1816.816526 0.8900 0.8890 0.8890 0.8890 0.8890
1820.123092 0.8890 0.8890 0.8890 0.8890 0.8890
1823.429657 0.8890 0.8890 0.8890 0.8890 0.8890
1826.736222 0.8890 0.8890 0.8890 0.8890 0.8890
1830.042788 0.8890 0.8890 0.8890 0.8890 0.8890
1833.349353 0.8890 0.8890 0.8890 0.8900 0.8900
1836.655919 0.8900 0.8900 0.8900 0.8900 0.8900
1839.962484 0.8900 0.8900 0.8900 0.8910 0.8910
1843.269050 0.8910 0.8910 0.8900 0.8900 0.8890
1846.575615 0.8890 0.8890 0.8890 0.8890 0.8890
1849.882181 0.8890 0.8890 0.8890 0.8890 0.8890
1853.188746 0.8890 0.8890 0.8890 0.8890 0.8880
1856.495312 0.8880 0.8880 0.8880 0.8870 0.8870
1859.801877 0.8870 0.8870 0.8870 0.8870 0.8870
1863.108443 0.8870 0.8870 0.8880 0.8880 0.8880
1866.415008 0.8890 0.8890 0.8890 0.8890 0.8890
1869.721574 0.8890 0.8890 0.8890 0.8900 0.8900
1873.028139 0.8900 0.8900 0.8900 0.8900 0.8900
1876.334704 0.8900 0.8910 0.8910 0.8910 0.8920
1879.641270 0.8910 0.8910 0.8910 0.8910 0.8910
1882.947835 0.8900 0.8900 0.8900 0.8890 0.8890
1886.254401 0.8890 0.8890 0.8890 0.8880 0.8880
1889.560966 0.8880 0.8870 0.8870 0.8870 0.8870
1892.867532 0.8870 0.8870 0.8860 0.8860 0.8860
1896.174097 0.8860 0.8850 0.8850 0.8850 0.8850
1899.480663 0.8860 0.8870 0.8870 0.8870 0.8870
1902.787228 0.8870 0.8870 0.8870 0.8870 0.8870
1906.093794 0.8870 0.8880 0.8890 0.8890 0.8890
1909.400359 0.8890 0.8890 0.8890 0.8890 0.8890
1912.706925 0.8890 0.8890 0.8890 0.8900 0.8900
1916.013490 0.8910 0.8920 0.8920 0.8920 0.8930
1919.320056 0.8930 0.8930 0.8930 0.8940 0.8940
1922.626621 0.8940 0.8940 0.8940 0.8950 0.8950
1925.933186 0.8950 0.8940 0.8940 0.8940 0.8940
1929.239752 0.8940 0.8940 0.8940 0.8940 0.8940
1932.546317 0.8930 0.8930 0.8930 0.8930 0.8930
1935.852883 0.8920 0.8920 0.8910 0.8910 0.8900
1939.159448 0.8880 0.8870 0.8850 0.8840 0.8830
1942.466014 0.8820 0.8810 0.8790 0.8780 0.8770
1945.772579 0.8770 0.8760 0.8750 0.8760 0.8760
1949.079145 0.8750 0.8750 0.8750 0.8750 0.8750
1952.385710 0.8750 0.8750 0.8740 0.8740 0.8740
1955.692276 0.8740 0.8740 0.8740 0.8740 0.8740
1958.998841 0.8730 0.8730 0.8730 0.8730 0.8730
1962.305407 0.8730 0.8730 0.8740 0.8740 0.8740
1965.611972 0.8740 0.8750 0.8750 0.8750 0.8750
1968.918538 0.8750 0.8740 0.8740 0.8740 0.8740
1972.225103 0.8740 0.8730 0.8730 0.8720 0.8720
1975.531668 0.8720 0.8720 0.8710 0.8710 0.8710
1978.838234 0.8700 0.8700 0.8700 0.8700 0.8690
1982.144799 0.8690 0.8680 0.8680 0.8680 0.8680
1985.451365 0.8680 0.8680 0.8680 0.8680 0.8670
1988.757930 0.8670 0.8660 0.8660 0.8660 0.8660
1992.064496 0.8660 0.8660 0.8660 0.8650 0.8650
1995.371061 0.8650 0.8640 0.8640 0.8640 0.8630
1998.677627 0.8620 0.8610 0.8600 0.8595 0.8590
2001.984192 0.8585 0.8580 0.8580 0.8580 0.8580
2005.290758 0.8580 0.8575 0.8570 0.8565 0.8560
2008.597323 0.8560 0.8560 0.8560 0.8560 0.8557
2011.903889 0.8555 0.8552 0.8550 0.8547 0.8545
2015.210454 0.8542 0.8539 0.8537 0.8534 0.8532
2018.517019 0.8529 0.8527 0.8524 0.8522 0.8519
2021.823585 0.8517 0.8514 0.8512 0.8509 0.8507
2025.130150 0.8504 0.8502 0.8500 0.8500 0.8500
2028.436716 0.8500 0.8498 0.8493 0.8488 0.8483
2031.743281 0.8480 0.8480 0.8480 0.8480 0.8477
2035.049847 0.8472 0.8467 0.8462 0.8459 0.8456
2038.356412 0.8454 0.8451 0.8450 0.8450 0.8450
2041.662978 0.8450 0.8448 0.8446 0.8443 0.8441
2044.969543 0.8440 0.8440 0.8440 0.8440 0.8440
2048.276109 0.8440 0.8440 0.8440 0.8440 0.8440
2051.582674 0.8440 0.8440 0.8442 0.8445 0.8447
2054.889240 0.8450 0.8450 0.8450 0.8450 0.8450
2058.195805 0.8452 0.8455 0.8457 0.8460 0.8460
2061.502371 0.8460 0.8460 0.8460 0.8465 0.8470
2064.808936 0.8475 0.8480 0.8482 0.8485 0.8488
2068.115501 0.8490 0.8493 0.8495 0.8498 0.8500
2071.422067 0.8505 0.8510 0.8515 0.8520 0.8523
2074.728632 0.8525 0.8528 0.8531 0.8536 0.8541
2078.035198 0.8546 0.8551 0.8553 0.8556 0.8558
2081.341763 0.8561 0.8566 0.8571 0.8576 0.8581
2084.648329 0.8586 0.8591 0.8597 0.8602 0.8607
2087.954894 0.8612 0.8617 0.8622 0.8627 0.8632
2091.261460 0.8637 0.8642 0.8647 0.8652 0.8657
2094.568025 0.8661 0.8664 0.8666 0.8669 0.8672
2097.874591 0.8677 0.8682 0.8687 0.8691 0.8694
2101.181156 0.8696 0.8699 0.8703 0.8708 0.8713
2104.487722 0.8718 0.8720 0.8720 0.8720 0.8720
2107.794287 0.8723 0.8728 0.8733 0.8738 0.8740
2111.100853 0.8740 0.8740 0.8740 0.8742 0.8744
2114.407418 0.8747 0.8749 0.8754 0.8759 0.8764
2117.713983 0.8769 0.8772 0.8775 0.8777 0.8780
2121.020549 0.8782 0.8785 0.8787 0.8790 0.8794
2124.327114 0.8799 0.8804 0.8809 0.8810 0.8810
2127.633680 0.8810 0.8810 0.8812 0.8815 0.8817
2130.940245 0.8820 0.8823 0.8825 0.8828 0.8830
2134.246811 0.8833 0.8835 0.8838 0.8840 0.8843
2137.553376 0.8845 0.8848 0.8850 0.8850 0.8850
2140.859942 0.8850 0.8850 0.8850 0.8850 0.8850
2144.166507 0.8850 0.8853 0.8856 0.8858 0.8860
2147.473073 0.8860 0.8860 0.8860 0.8861 0.8863
2150.779638 0.8866 0.8868 0.8870 0.8870 0.8870
2154.086204 0.8870 0.8870 0.8870 0.8870 0.8870
2157.392769 0.8870 0.8870 0.8870 0.8870 0.8870
2160.699335 0.8870 0.8870 0.8870 0.8871 0.8874
2164.005900 0.8876 0.8879 0.8880 0.8880 0.8880
2167.312465 0.8880 0.8880 0.8880 0.8880 0.8880
2170.619031 0.8880 0.8880 0.8880 0.8880 0.8882
2173.925596 0.8884 0.8887 0.8889 0.8890 0.8890
2177.232162 0.8890 0.8890 0.8890 0.8890 0.8890
2180.538727 0.8890 0.8892 0.8894 0.8897 0.8900
2183.845293 0.8902 0.8905 0.8907 0.8910 0.8912
2187.151858 0.8915 0.8917 0.8920 0.8922 0.8925
2190.458424 0.8927 0.8930 0.8930 0.8930 0.8930
2193.764989 0.8930 0.8930 0.8930 0.8930 0.8930
2197.071555 0.8930 0.8930 0.8930 0.8930 0.8930
2200.378120 0.8930 0.8930 0.8930 0.8925 0.8920
2203.684686 0.8915 0.8909 0.8902 0.8894 0.8887
2206.991251 0.8879 0.8871 0.8864 0.8856 0.8848
2210.297817 0.8838 0.8828 0.8818 0.8809 0.8804
2213.604382 0.8799 0.8794 0.8789 0.8787 0.8784
2216.910947 0.8782 0.8779 0.8777 0.8774 0.8772
2220.217513 0.8770 0.8770 0.8770 0.8770 0.8770
2223.524078 0.8770 0.8770 0.8770 0.8770 0.8770
2226.830644 0.8770 0.8770 0.8771 0.8774 0.8776
2230.137209 0.8779 0.8781 0.8784 0.8786 0.8789
2233.443775 0.8790 0.8790 0.8790 0.8790 0.8793
2236.750340 0.8798 0.8803 0.8808 0.8813 0.8818
2240.056906 0.8823 0.8828 0.8830 0.8830 0.8830
2243.363471 0.8830 0.8834 0.8839 0.8844 0.8849
2246.670037 0.8850 0.8850 0.8850 0.8850 0.8846
2249.976602 0.8841 0.8836 0.8831 0.8822 0.8812
2253.283168 0.8801 0.8791 0.8786 0.8781 0.8776
2256.589733 0.8771 0.8763 0.8756 0.8748 0.8740
2259.896299 0.8735 0.8730 0.8725 0.8720 0.8715
2263.202864 0.8710 0.8705 0.8700 0.8695 0.8690
2266.509429 0.8685 0.8680 0.8677 0.8675 0.8672
2269.815995 0.8670 0.8667 0.8665 0.8662 0.8660
2273.122560 0.8660 0.8660 0.8660 0.8660 0.8657
2276.429126 0.8654 0.8652 0.8649 0.8647 0.8644
2279.735691 0.8642 0.8640 0.8640 0.8640 0.8640
2283.042257 0.8639 0.8637 0.8634 0.8632 0.8630
2286.348822 0.8630 0.8630 0.8630 0.8629 0.8626
2289.655388 0.8624 0.8621 0.8620 0.8620 0.8620
2292.961953 0.8620 0.8619 0.8616 0.8614 0.8611
2296.268519 0.8609 0.8606 0.8604 0.8601 0.8597
2299.575084 0.8592 0.8587 0.8582 0.8574 0.8564
2302.881650 0.8554 0.8544 0.8534 0.8524 0.8513
2306.188215 0.8503 0.8492 0.8479 0.8466 0.8454
2309.494781 0.8445 0.8437 0.8430 0.8422 0.8416
2312.801346 0.8411 0.8406 0.8401 0.8398 0.8395
2316.107911 0.8393 0.8390 0.8386 0.8381 0.8376
2319.414477 0.8371 0.8363 0.8356 0.8348 0.8341
2322.721042 0.8340 0.8340 0.8340 0.8340 0.8333
2326.027608 0.8325 0.8318 0.8310 0.8300 0.8290
2329.334173 0.8280 0.8270 0.8260 0.8249 0.8239
2332.640739 0.8229 0.8214 0.8199 0.8184 0.8166
2335.947304 0.8125 0.8085 0.8045 0.8004 0.7960
2339.253870 0.7917 0.7874 0.7833 0.7800 0.7767
2342.560435 0.7734 0.7699 0.7659 0.7619 0.7578
2345.867001 0.7535 0.7485 0.7434 0.7384 0.7350
2349.173566 0.7350 0.7350 0.7350 0.7355 0.7367
2352.480132 0.7380 0.7392 0.7402 0.7407 0.7412
2355.786697 0.7417 0.7428 0.7445 0.7463 0.7481
2359.093263 0.7503 0.7531 0.7559 0.7586 0.7606
2362.399828 0.7619 0.7632 0.7644 0.7658 0.7674
2365.706393 0.7689 0.7704 0.7712 0.7714 0.7717
2369.012959 0.7719 0.7722 0.7724 0.7727 0.7729
2372.319524 0.7732 0.7734 0.7737 0.7739 0.7753
2375.626090 0.7771 0.7788 0.7806 0.7812 0.7814
2378.932655 0.7817 0.7820 0.7848 0.7884 0.7919
2382.239221 0.7954 0.8005 0.8057 0.8110 0.8163
2385.545786 0.8223 0.8284 0.8344 0.8405 0.8456
2388.852352 0.8506 0.8557 0.8607 0.8639 0.8670
2392.158917 0.8700 0.8731 0.8748 0.8766 0.8784
2395.465483 0.8801 0.8813 0.8826 0.8839 0.8850
2398.772048 0.8853 0.8855 0.8858 0.8860 0.8863
2402.078614 0.8865 0.8868 0.8870 0.8870 0.8870
2405.385179 0.8870 0.8871 0.8873 0.8876 0.8878
2408.691744 0.8881 0.8883 0.8886 0.8888 0.8891
2411.998310 0.8896 0.8901 0.8907 0.8910 0.8910
2415.304875 0.8910 0.8910 0.8910 0.8910 0.8910
2418.611441 0.8910 0.8911 0.8914 0.8916 0.8919
2421.918006 0.8921 0.8924 0.8926 0.8929 0.8930
2425.224572 0.8930 0.8930 0.8930 0.8931 0.8934
2428.531137 0.8936 0.8939 0.8941 0.8944 0.8946
2431.837703 0.8949 0.8950 0.8950 0.8950 0.8950
2435.144268 0.8952 0.8954 0.8957 0.8959 0.8960
2438.450834 0.8960 0.8960 0.8960 0.8962 0.8964
2441.757399 0.8967 0.8969 0.8970 0.8970 0.8970
2445.063965 0.8970 0.8970 0.8970 0.8970 0.8970
2448.370530 0.8972 0.8975 0.8977 0.8980 0.8980
2451.677096 0.8980 0.8980 0.8980 0.8978 0.8975
2454.983661 0.8973 0.8970 0.8970 0.8970 0.8970
2458.290226 0.8970 0.8970 0.8970 0.8970 0.8970
2461.596792 0.8970 0.8970 0.8970 0.8970 0.8973
2464.903357 0.8975 0.8978 0.8980 0.8980 0.8980
2468.209923 0.8980 0.8980 0.8983 0.8985 0.8988
2471.516488 0.8990 0.8990 0.8990 0.8990 0.8991
2474.823054 0.8993 0.8996 0.8998 0.9000 0.9000
2478.129619 0.9000 0.9000 0.9001 0.9003 0.9006
2481.436185 0.9008 0.9010 0.9010 0.9010 0.9010
2484.742750 0.9010 0.9010 0.9010 0.9010 0.9010
2488.049316 0.9010 0.9010 0.9010 0.9010 0.9010
2491.355881 0.9010 0.9010 0.9010 0.9010 0.9010
2494.662447 0.9010 0.9010 0.9010 0.9010 0.9010
2497.969012 0.9010 0.9010 0.9010 0.9010 0.9010
2501.275578 0.9010 0.9010 0.9010 0.9010 0.9010
2504.582143 0.9010 0.9010 0.9010 0.9010 0.9010
2507.888708 0.9010 0.9010 0.9010 0.9010 0.9010
2511.195274 0.9010 0.9010 0.9010 0.9010 0.9010
2514.501839 0.9010 0.9010 0.9010 0.9014 0.9020
2517.808405 0.9025 0.9030 0.9030 0.9030 0.9030
2521.114970 0.9030 0.9030 0.9030 0.9030 0.9030
2524.421536 0.9030 0.9030 0.9030 0.9030 0.9030
2527.728101 0.9030 0.9030 0.9030 0.9030 0.9030
2531.034667 0.9030 0.9030 0.9030 0.9030 0.9030
2534.341232 0.9030 0.9030 0.9030 0.9030 0.9030
2537.647798 0.9030 0.9030 0.9030 0.9030 0.9030
2540.954363 0.9030 0.9030 0.9030 0.9030 0.9030
2544.260929 0.9030 0.9030 0.9030 0.9030 0.9030
2547.567494 0.9030 0.9030 0.9030 0.9030 0.9030
2550.874060 0.9030 0.9030 0.9030 0.9029 0.9026
2554.180625 0.9024 0.9021 0.9020 0.9020 0.9020
2557.487190 0.9020 0.9019 0.9016 0.9014 0.9011
2560.793756 0.9010 0.9010 0.9010 0.9010 0.9010
2564.100321 0.9010 0.9010 0.9010 0.9007 0.9002
2567.406887 0.8997 0.8992 0.8988 0.8986 0.8983
2570.713452 0.8981 0.8978 0.8976 0.8973 0.8971
2574.020018 0.8966 0.8961 0.8956 0.8951 0.8946
2577.326583 0.8941 0.8936 0.8931 0.8928 0.8925
2580.633149 0.8923 0.8920 0.8918 0.8915 0.8913
2583.939714 0.8910 0.8908 0.8905 0.8903 0.8900
2587.246280 0.8898 0.8895 0.8892 0.8890 0.8893
2590.552845 0.8895 0.8898 0.8900 0.8900 0.8900
2593.859411 0.8900 0.8900 0.8903 0.8905 0.8908
2597.165976 0.8910 0.8910 0.8910 0.8910 0.8910
2600.472542 0.8910 0.8910 0.8910 0.8911 0.8916
2603.779107 0.8921 0.8926 0.8930 0.8930 0.8930
2607.085672 0.8930 0.8930 0.8930 0.8930 0.8930
2610.392238 0.8930 0.8930 0.8930 0.8930 0.8931
2613.698803 0.8934 0.8936 0.8939 0.8941 0.8944
2617.005369 0.8946 0.8949 0.8950 0.8950 0.8950
2620.311934 0.8950 0.8952 0.8958 0.8963 0.8968
2623.618500 0.8970 0.8970 0.8970 0.8970 0.8970
2626.925065 0.8970 0.8970 0.8970 0.8970 0.8970
2630.231631 0.8970 0.8970 0.8970 0.8970 0.8970
2633.538196 0.8970 0.8970 0.8970 0.8970 0.8970
2636.844762 0.8972 0.8974 0.8977 0.8979 0.8980
2640.151327 0.8980 0.8980 0.8980 0.8980 0.8980
2643.457893 0.8980 0.8980 0.8982 0.8985 0.8987
2646.764458 0.8990 0.8990 0.8990 0.8990 0.8990
2650.071024 0.8990 0.8990 0.8990 0.8990 0.8990
2653.377589 0.8990 0.8990 0.8990 0.8990 0.8990
2656.684154 0.8990 0.8990 0.8990 0.8990 0.8990
2659.990720 0.8990 0.8993 0.8995 0.8998 0.9000
2663.297285 0.9000 0.9000 0.9000 0.9000 0.9000
2666.603851 0.9000 0.9000 0.9000 0.9000 0.9000
2669.910416 0.9000 0.9000 0.9000 0.9000 0.9000
2673.216982 0.9000 0.9000 0.9000 0.9000 0.9000
2676.523547 0.9000 0.9000 0.9000 0.9000 0.9000
2679.830113 0.9000 0.9000 0.8999 0.8996 0.8994
2683.136678 0.8991 0.8988 0.8982 0.8977 0.8972
2686.443244 0.8970 0.8970 0.8970 0.8970 0.8967
2689.749809 0.8962 0.8957 0.8952 0.8950 0.8950
2693.056375 0.8950 0.8950 0.8950 0.8950 0.8950
2696.362940 0.8950 0.8948 0.8946 0.8943 0.8941
2699.669506 0.8938 0.8936 0.8933 0.8931 0.8930
2702.976071 0.8930 0.8930 0.8930 0.8930 0.8930
2706.282636 0.8930 0.8930 0.8930 0.8930 0.8930
2709.589202 0.8930 0.8930 0.8930 0.8930 0.8930
2712.895767 0.8930 0.8930 0.8930 0.8930 0.8930
2716.202333 0.8930 0.8930 0.8930 0.8930 0.8930
2719.508898 0.8930 0.8930 0.8930 0.8930 0.8930
2722.815464 0.8930 0.8930 0.8930 0.8930 0.8930
2726.122029 0.8930 0.8930 0.8930 0.8930 0.8930
2729.428595 0.8930 0.8930 0.8930 0.8930 0.8930
2732.735160 0.8930 0.8930 0.8930 0.8930 0.8930
2736.041726 0.8930 0.8930 0.8930 0.8930 0.8930
2739.348291 0.8930 0.8930 0.8930 0.8930 0.8930
2742.654857 0.8930 0.8930 0.8930 0.8930 0.8930
2745.961422 0.8930 0.8930 0.8930 0.8930 0.8930
2749.267988 0.8930 0.8930 0.8930 0.8930 0.8930
2752.574553 0.8930 0.8930 0.8930 0.8930 0.8930
2755.881118 0.8930 0.8930 0.8930 0.8930 0.8930
2759.187684 0.8930 0.8930 0.8930 0.8930 0.8930
2762.494249 0.8930 0.8930 0.8930 0.8930 0.8928
2765.800815 0.8926 0.8923 0.8921 0.8920 0.8920
2769.107380 0.8920 0.8920 0.8920 0.8920 0.8920
2772.413946 0.8920 0.8918 0.8915 0.8913 0.8910
2775.720511 0.8910 0.8910 0.8910 0.8910 0.8910
2779.027077 0.8910 0.8910 0.8910 0.8910 0.8910
2782.333642 0.8910 0.8910 0.8905 0.8900 0.8895
2785.640208 0.8890 0.8890 0.8890 0.8890 0.8890
2788.946773 0.8887 0.8885 0.8882 0.8879 0.8874
2792.253339 0.8869 0.8864 0.8858 0.8845 0.8833
2795.559904 0.8820 0.8808 0.8798 0.8788 0.8778
2798.866469 0.8766 0.8751 0.8736 0.8721 0.8707
2802.173035 0.8694 0.8681 0.8669 0.8656 0.8643
2805.479600 0.8631 0.8618 0.8608 0.8603 0.8598
2808.786166 0.8593 0.8588 0.8583 0.8578 0.8573
2812.092731 0.8569 0.8566 0.8564 0.8561 0.8560
2815.399297 0.8560 0.8560 0.8560 0.8561 0.8564
2818.705862 0.8566 0.8569 0.8570 0.8570 0.8570
2822.012428 0.8570 0.8572 0.8574 0.8577 0.8579
2825.318993 0.8580 0.8580 0.8580 0.8580 0.8580
2828.625559 0.8580 0.8580 0.8580 0.8578 0.8576
2831.932124 0.8573 0.8571 0.8566 0.8561 0.8556
2835.238690 0.8551 0.8548 0.8545 0.8543 0.8540
2838.545255 0.8533 0.8526 0.8518 0.8511 0.8508
2841.851821 0.8505 0.8503 0.8500 0.8498 0.8495
2845.158386 0.8493 0.8490 0.8488 0.8485 0.8483
2848.464951 0.8480 0.8483 0.8485 0.8488 0.8490
2851.771517 0.8493 0.8495 0.8498 0.8500 0.8500
2855.078082 0.8500 0.8500 0.8501 0.8506 0.8511
2858.384648 0.8516 0.8521 0.8526 0.8531 0.8536
2861.691213 0.8540 0.8540 0.8540 0.8540 0.8539
2864.997779 0.8537 0.8534 0.8532 0.8529 0.8527
2868.304344 0.8524 0.8522 0.8519 0.8517 0.8514
2871.610910 0.8512 0.8509 0.8507 0.8504 0.8501
2874.917475 0.8500 0.8500 0.8500 0.8500 0.8499
2878.224041 0.8496 0.8494 0.8491 0.8489 0.8486
2881.530606 0.8484 0.8481 0.8479 0.8476 0.8474
2884.837172 0.8471 0.8469 0.8466 0.8464 0.8461
2888.143737 0.8457 0.8452 0.8447 0.8442 0.8435
2891.450303 0.8427 0.8420 0.8412 0.8405 0.8397
2894.756868 0.8390 0.8382 0.8371 0.8358 0.8345
2898.063433 0.8333 0.8318 0.8303 0.8288 0.8273
2901.369999 0.8256 0.8238 0.8220 0.8203 0.8129
2904.676564 0.8046 0.7963 0.7880 0.7596 0.7286
2907.983130 0.6976 0.6666 0.6543 0.6437 0.6331
2911.289695 0.6225 0.6117 0.6008 0.5900 0.5791
2914.596261 0.5681 0.5572 0.5462 0.5352 0.5246
2917.902826 0.5140 0.5034 0.4940 0.4940 0.4940
2921.209392 0.4940 0.4976 0.5220 0.5465 0.5710
2924.515957 0.5942 0.6121 0.6301 0.6480 0.6627
2927.822523 0.6657 0.6687 0.6717 0.6748 0.6778
2931.129088 0.6808 0.6838 0.6874 0.6922 0.6970
2934.435654 0.7017 0.7073 0.7147 0.7220 0.7293
2937.742219 0.7367 0.7443 0.7518 0.7594 0.7679
2941.048785 0.7779 0.7878 0.7978 0.8040 0.8060
2944.355350 0.8080 0.8100 0.8120 0.8141 0.8161
2947.661915 0.8181 0.8193 0.8198 0.8203 0.8208
2950.968481 0.8211 0.8214 0.8217 0.8219 0.8222
2954.275046 0.8224 0.8227 0.8229 0.8230 0.8230
2957.581612 0.8230 0.8230 0.8228 0.8226 0.8223
2960.888177 0.8221 0.8207 0.8190 0.8172 0.8154
2964.194743 0.8144 0.8137 0.8129 0.8122 0.8116
2967.501308 0.8111 0.8106 0.8101 0.8093 0.8086
2970.807874 0.8078 0.8071 0.8063 0.8056 0.8048
2974.114439 0.8040 0.8030 0.8020 0.8010 0.8000
2977.421005 0.7990 0.7980 0.7970 0.7960 0.7942
2980.727570 0.7924 0.7907 0.7889 0.7869 0.7849
2984.034136 0.7828 0.7808 0.7783 0.7757 0.7732
2987.340701 0.7706 0.7676 0.7646 0.7615 0.7584
2990.647267 0.7543 0.7503 0.7462 0.7420 0.7369
2993.953832 0.7318 0.7267 0.7194 0.7068 0.6942
2997.260397 0.6816 0.6704 0.6624 0.6543 0.6462
3000.566963 0.6376 0.6280 0.6185 0.6089 0.6019
3003.873528 0.5992 0.5964 0.5936 0.5920 0.5920
3007.180094 0.5920 0.5920 0.5957 0.6038 0.6118
3010.486659 0.6199 0.6280 0.6360 0.6441 0.6522
3013.793225 0.6589 0.6645 0.6700 0.6756 0.6808
3017.099790 0.6859 0.6909 0.6960 0.7035 0.7127
3020.406356 0.7219 0.7311 0.7373 0.7421 0.7469
3023.712921 0.7517 0.7559 0.7599 0.7640 0.7680
3027.019487 0.7726 0.7774 0.7822 0.7870 0.7906
3030.326052 0.7939 0.7971 0.8004 0.8027 0.8047
3033.632618 0.8067 0.8087 0.8099 0.8109 0.8119
3036.939183 0.8129 0.8139 0.8149 0.8159 0.8169
3040.245749 0.8179 0.8189 0.8200 0.8210 0.8227
3043.552314 0.8245 0.8262 0.8280 0.8290 0.8300
3046.858879 0.8311 0.8321 0.8328 0.8336 0.8343
3050.165445 0.8351 0.8358 0.8366 0.8374 0.8380
3053.472010 0.8383 0.8385 0.8388 0.8391 0.8396
3056.778576 0.8401 0.8406 0.8411 0.8413 0.8416
3060.085141 0.8418 0.8421 0.8423 0.8426 0.8428
3063.391707 0.8431 0.8433 0.8436 0.8438 0.8441
3066.698272 0.8443 0.8446 0.8448 0.8451 0.8453
3070.004838 0.8456 0.8458 0.8462 0.8467 0.8472
3073.311403 0.8477 0.8482 0.8488 0.8493 0.8498
3076.617969 0.8501 0.8504 0.8506 0.8509 0.8511
3079.924534 0.8514 0.8516 0.8519 0.8521 0.8524
3083.231100 0.8527 0.8529 0.8532 0.8534 0.8537
3086.537665 0.8539 0.8540 0.8540 0.8540 0.8540
3089.844231 0.8542 0.8544 0.8547 0.8549 0.8550
3093.150796 0.8550 0.8550 0.8550 0.8552 0.8554
3096.457361 0.8557 0.8560 0.8564 0.8569 0.8574
3099.763927 0.8579 0.8580 0.8580 0.8580 0.8580
3103.070492 0.8582 0.8585 0.8587 0.8590 0.8592
3106.377058 0.8595 0.8597 0.8600 0.8603 0.8605
3109.683623 0.8608 0.8610 0.8613 0.8615 0.8618
3112.990189 0.8620 0.8623 0.8625 0.8628 0.8630
3116.296754 0.8633 0.8635 0.8638 0.8640 0.8640
3119.603320 0.8640 0.8640 0.8640 0.8643 0.8645
3122.909885 0.8648 0.8651 0.8653 0.8656 0.8658
3126.216451 0.8660 0.8660 0.8660 0.8660 0.8661
3129.523016 0.8663 0.8666 0.8668 0.8671 0.8673
3132.829582 0.8676 0.8678 0.8680 0.8680 0.8680
3136.136147 0.8680 0.8681 0.8684 0.8686 0.8689
3139.442713 0.8690 0.8690 0.8690 0.8690 0.8691
3142.749278 0.8694 0.8696 0.8699 0.8700 0.8700
3146.055843 0.8700 0.8700 0.8701 0.8704 0.8706
3149.362409 0.8709 0.8710 0.8710 0.8710 0.8710
3152.668974 0.8710 0.8710 0.8710 0.8710 0.8712
3155.975540 0.8714 0.8717 0.8719 0.8720 0.8720
3159.282105 0.8720 0.8720 0.8720 0.8720 0.8720
3162.588671 0.8720 0.8720 0.8720 0.8720 0.8720
3165.895236 0.8720 0.8720 0.8720 0.8720 0.8720
3169.201802 0.8720 0.8720 0.8720 0.8720 0.8720
3172.508367 0.8720 0.8720 0.8720 0.8720 0.8720
3175.814933 0.8720 0.8720 0.8720 0.8720 0.8720
3179.121498 0.8723 0.8725 0.8728 0.8730 0.8730
3182.428064 0.8730 0.8730 0.8730 0.8730 0.8730
3185.734629 0.8730 0.8729 0.8727 0.8724 0.8722
3189.041194 0.8720 0.8720 0.8720 0.8720 0.8720
3192.347760 0.8720 0.8720 0.8720 0.8720 0.8720
3195.654325 0.8720 0.8720 0.8720 0.8720 0.8720
3198.960891 0.8720 0.8720 0.8720 0.8720 0.8720
3202.267456 0.8719 0.8716 0.8714 0.8711 0.8709
3205.574022 0.8706 0.8704 0.8701 0.8697 0.8692
3208.880587 0.8687 0.8682 0.8680 0.8680 0.8680
3212.187153 0.8680 0.8680 0.8680 0.8680 0.8680
3215.493718 0.8678 0.8676 0.8673 0.8671 0.8670
3218.800284 0.8670 0.8670 0.8670 0.8670 0.8670
3222.106849 0.8670 0.8670 0.8668 0.8666 0.8663
3225.413415 0.8661 0.8660 0.8660 0.8660 0.8660
3228.719980 0.8660 0.8660 0.8660 0.8660 0.8660
3232.026546 0.8660 0.8660 0.8660 0.8658 0.8655
3235.333111 0.8653 0.8650 0.8648 0.8645 0.8643
3238.639676 0.8640 0.8637 0.8635 0.8632 0.8630
3241.946242 0.8627 0.8625 0.8622 0.8620 0.8620
3245.252807 0.8620 0.8620 0.8620 0.8617 0.8615
3248.559373 0.8612 0.8610 0.8610 0.8610 0.8610
3251.865938 0.8610 0.8613 0.8615 0.8618 0.8620
3255.172504 0.8620 0.8620 0.8620 0.8621 0.8623
3258.479069 0.8626 0.8628 0.8632 0.8637 0.8642
3261.785635 0.8647 0.8651 0.8653 0.8656 0.8659
3265.092200 0.8661 0.8664 0.8666 0.8669 0.8671
3268.398766 0.8674 0.8676 0.8679 0.8680 0.8680
3271.705331 0.8680 0.8680 0.8681 0.8684 0.8686
3275.011897 0.8689 0.8690 0.8690 0.8690 0.8690
3278.318462 0.8689 0.8686 0.8683 0.8681 0.8674
3281.625028 0.8663 0.8653 0.8643 0.8638 0.8636
3284.931593 0.8633 0.8631 0.8628 0.8626 0.8623
3288.238158 0.8621 0.8618 0.8616 0.8613 0.8610
3291.544724 0.8610 0.8610 0.8610 0.8610 0.8608
3294.851289 0.8605 0.8603 0.8600 0.8600 0.8600
3298.157855 0.8600 0.8600 0.8595 0.8590 0.8585
3301.464420 0.8580 0.8578 0.8575 0.8573 0.8570
3304.770986 0.8568 0.8565 0.8562 0.8560 0.8555
3308.077551 0.8550 0.8545 0.8540 0.8540 0.8540
3311.384117 0.8540 0.8540 0.8537 0.8535 0.8532
3314.690682 0.8530 0.8530 0.8530 0.8530 0.8530
3317.997248 0.8530 0.8530 0.8530 0.8530 0.8530
3321.303813 0.8530 0.8530 0.8530 0.8530 0.8530
3324.610379 0.8530 0.8530 0.8530 0.8530 0.8530
3327.916944 0.8530 0.8530 0.8530 0.8530 0.8530
3331.223510 0.8530 0.8530 0.8530 0.8529 0.8526
3334.530075 0.8524 0.8521 0.8520 0.8520 0.8520
3337.836640 0.8520 0.8520 0.8520 0.8520 0.8520
3341.143206 0.8520 0.8520 0.8520 0.8520 0.8520
3344.449771 0.8520 0.8520 0.8520 0.8518 0.8516
3347.756337 0.8513 0.8511 0.8510 0.8510 0.8510
3351.062902 0.8510 0.8508 0.8506 0.8503 0.8501
3354.369468 0.8500 0.8500 0.8500 0.8500 0.8498
3357.676033 0.8495 0.8493 0.8490 0.8488 0.8485
3360.982599 0.8483 0.8480 0.8478 0.8475 0.8473
3364.289164 0.8470 0.8465 0.8460 0.8455 0.8450
3367.595730 0.8443 0.8435 0.8427 0.8420 0.8420
3370.902295 0.8420 0.8420 0.8420 0.8417 0.8415
3374.208861 0.8412 0.8410 0.8405 0.8399 0.8394
3377.515426 0.8390 0.8387 0.8385 0.8382 0.8379
3380.821992 0.8374 0.8369 0.8364 0.8359 0.8354
3384.128557 0.8349 0.8344 0.8339 0.8334 0.8329
3387.435122 0.8324 0.8319 0.8317 0.8314 0.8312
3390.741688 0.8308 0.8303 0.8298 0.8293 0.8290
3394.048253 0.8290 0.8290 0.8290 0.8290 0.8290
3397.354819 0.8290 0.8290 0.8288 0.8283 0.8278
3400.661384 0.8273 0.8270 0.8270 0.8270 0.8270
3403.967950 0.8269 0.8266 0.8264 0.8261 0.8259
3407.274515 0.8256 0.8254 0.8251 0.8247 0.8242
3410.581081 0.8237 0.8232 0.8227 0.8222 0.8217
3413.887646 0.8211 0.8210 0.8210 0.8210 0.8210
3417.194212 0.8206 0.8201 0.8196 0.8191 0.8188
3420.500777 0.8185 0.8183 0.8180 0.8178 0.8175
3423.807343 0.8173 0.8170 0.8166 0.8161 0.8156
3427.113908 0.8151 0.8148 0.8145 0.8143 0.8140
3430.420474 0.8138 0.8135 0.8133 0.8130 0.8128
3433.727039 0.8125 0.8123 0.8120 0.8120 0.8120
3437.033604 0.8120 0.8120 0.8117 0.8115 0.8112
3440.340170 0.8110 0.8110 0.8110 0.8110 0.8110
3443.646735 0.8107 0.8105 0.8102 0.8100 0.8100
3446.953301 0.8100 0.8100 0.8100 0.8100 0.8100
3450.259866 0.8100 0.8100 0.8100 0.8100 0.8100
3453.566432 0.8100 0.8100 0.8100 0.8100 0.8100
3456.872997 0.8100 0.8100 0.8100 0.8100 0.8100
3460.179563 0.8100 0.8100 0.8101 0.8104 0.8106
3463.486128 0.8109 0.8110 0.8110 0.8110 0.8110
3466.792694 0.8111 0.8114 0.8116 0.8119 0.8120
3470.099259 0.8120 0.8120 0.8120 0.8121 0.8124
3473.405825 0.8127 0.8129 0.8130 0.8130 0.8130
3476.712390 0.8130 0.8130 0.8130 0.8130 0.8130
3480.018956 0.8134 0.8139 0.8144 0.8149 0.8152
3483.325521 0.8154 0.8157 0.8159 0.8162 0.8164
3486.632086 0.8167 0.8170 0.8172 0.8175 0.8177
3489.938652 0.8180 0.8182 0.8185 0.8187 0.8190
3493.245217 0.8192 0.8195 0.8197 0.8200 0.8200
3496.551783 0.8200 0.8200 0.8200 0.8203 0.8205
3499.858348 0.8208 0.8210 0.8210 0.8210 0.8210
3503.164914 0.8210 0.8213 0.8215 0.8218 0.8220
3506.471479 0.8223 0.8225 0.8228 0.8230 0.8233
3509.778045 0.8235 0.8238 0.8240 0.8243 0.8245
3513.084610 0.8248 0.8251 0.8256 0.8261 0.8266
3516.391176 0.8270 0.8270 0.8270 0.8270 0.8272
3519.697741 0.8277 0.8282 0.8287 0.8291 0.8293
3523.004307 0.8296 0.8298 0.8301 0.8304 0.8306
3526.310872 0.8309 0.8312 0.8317 0.8322 0.8327
3529.617438 0.8331 0.8334 0.8336 0.8339 0.8343
3532.924003 0.8348 0.8353 0.8358 0.8361 0.8364
3536.230568 0.8366 0.8369 0.8373 0.8378 0.8383
3539.537134 0.8388 0.8393 0.8398 0.8403 0.8408
3542.843699 0.8412 0.8414 0.8417 0.8419 0.8424
3546.150265 0.8429 0.8434 0.8439 0.8442 0.8444
3549.456830 0.8447 0.8449 0.8452 0.8455 0.8457
3552.763396 0.8460 0.8464 0.8469 0.8474 0.8479
3556.069961 0.8480 0.8480 0.8480 0.8480 0.8485
3559.376527 0.8490 0.8495 0.8500 0.8505 0.8510
3562.683092 0.8515 0.8520 0.8525 0.8530 0.8535
3565.989658 0.8540 0.8545 0.8550 0.8555 0.8560
3569.296223 0.8563 0.8565 0.8568 0.8571 0.8576
3572.602789 0.8581 0.8586 0.8590 0.8593 0.8595
3575.909354 0.8598 0.8601 0.8606 0.8611 0.8616
3579.215919 0.8620 0.8620 0.8620 0.8620 0.8621
3582.522485 0.8626 0.8631 0.8636 0.8641 0.8643
3585.829050 0.8646 0.8648 0.8651 0.8653 0.8656
3589.135616 0.8658 0.8660 0.8660 0.8660 0.8660
3592.442181 0.8661 0.8664 0.8666 0.8669 0.8671
3595.748747 0.8674 0.8676 0.8679 0.8683 0.8688
3599.055312 0.8693 0.8698 0.8706 0.8716 0.8726
3602.361878 0.8736 0.8743 0.8748 0.8753 0.8758
3605.668443 0.8763 0.8768 0.8773 0.8778 0.8782
3608.975009 0.8784 0.8787 0.8789 0.8794 0.8799
3612.281574 0.8804 0.8809 0.8810 0.8810 0.8810
3615.588140 0.8810 0.8810 0.8810 0.8810 0.8810
3618.894705 0.8814 0.8819 0.8824 0.8829 0.8830
3622.201271 0.8830 0.8830 0.8830 0.8835 0.8840
3625.507836 0.8845 0.8850 0.8852 0.8855 0.8857
3628.814401 0.8860 0.8863 0.8865 0.8868 0.8870
3632.120967 0.8875 0.8880 0.8885 0.8890 0.8893
3635.427532 0.8895 0.8898 0.8900 0.8903 0.8905
3638.734098 0.8908 0.8910 0.8913 0.8915 0.8918
3642.040663 0.8921 0.8926 0.8931 0.8936 0.8940
3645.347229 0.8940 0.8940 0.8940 0.8941 0.8943
3648.653794 0.8946 0.8948 0.8950 0.8950 0.8950
3651.960360 0.8950 0.8950 0.8950 0.8950 0.8950
3655.266925 0.8950 0.8950 0.8950 0.8950 0.8950
3658.573491 0.8950 0.8950 0.8950 0.8950 0.8950
3661.880056 0.8950 0.8950 0.8950 0.8950 0.8950
3665.186622 0.8950 0.8950 0.8950 0.8950 0.8950
3668.493187 0.8949 0.8946 0.8943 0.8941 0.8938
3671.799753 0.8936 0.8933 0.8931 0.8928 0.8926
3675.106318 0.8923 0.8921 0.8916 0.8911 0.8906
3678.412883 0.8901 0.8890 0.8878 0.8865 0.8852
3681.719449 0.8834 0.8814 0.8793 0.8773 0.8761
3685.026014 0.8751 0.8741 0.8731 0.8723 0.8716
3688.332580 0.8708 0.8701 0.8700 0.8700 0.8700
3691.639145 0.8700 0.8700 0.8700 0.8700 0.8700
3694.945711 0.8700 0.8700 0.8700 0.8700 0.8703
3698.252276 0.8705 0.8708 0.8711 0.8732 0.8752
3701.558842 0.8772 0.8792 0.8807 0.8822 0.8838
3704.865407 0.8853 0.8868 0.8883 0.8898 0.8912
3708.171973 0.8919 0.8927 0.8934 0.8942 0.8949
3711.478538 0.8957 0.8965 0.8971 0.8976 0.8982
3714.785104 0.8987 0.8990 0.8990 0.8990 0.8990
3718.091669 0.8991 0.8993 0.8996 0.8998 0.9001
3721.398235 0.9003 0.9006 0.9009 0.9010 0.9010
3724.704800 0.9010 0.9010 0.9010 0.9010 0.9010
3728.011365 0.9010 0.9011 0.9014 0.9016 0.9019
3731.317931 0.9020 0.9020 0.9020 0.9020 0.9020
3734.624496 0.9020 0.9020 0.9020 0.9022 0.9024
3737.931062 0.9027 0.9029 0.9030 0.9030 0.9030
3741.237627 0.9030 0.9030 0.9030 0.9030 0.9030
3744.544193 0.9030 0.9030 0.9030 0.9030 0.9030
3747.850758 0.9030 0.9030 0.9030 0.9030 0.9030
3751.157324 0.9030 0.9030 0.9030 0.9030 0.9030
3754.463889 0.9030 0.9030 0.9030 0.9030 0.9030
3757.770455 0.9030 0.9030 0.9030 0.9030 0.9027
3761.077020 0.9025 0.9022 0.9020 0.9020 0.9020
3764.383586 0.9020 0.9020 0.9020 0.9020 0.9020
3767.690151 0.9020 0.9020 0.9020 0.9020 0.9020
3770.996717 0.9020 0.9020 0.9020 0.9020 0.9020
3774.303282 0.9020 0.9020 0.9020 0.9020 0.9020
3777.609847 0.9020 0.9020 0.9020 0.9020 0.9020
3780.916413 0.9020 0.9020 0.9020 0.9020 0.9020
3784.222978 0.9020 0.9020 0.9020 0.9020 0.9020
3787.529544 0.9020 0.9020 0.9020 0.9020 0.9020
3790.836109 0.9020 0.9020 0.9020 0.9020 0.9020
3794.142675 0.9020 0.9020 0.9020 0.9020 0.9020
3797.449240 0.9020 0.9020 0.9020 0.9020 0.9020
3800.755806 0.9020 0.9020 0.9020 0.9020 0.9020
3804.062371 0.9020 0.9022 0.9024 0.9027 0.9029
3807.368937 0.9030 0.9030 0.9030 0.9030 0.9030
3810.675502 0.9030 0.9030 0.9030 0.9030 0.9030
3813.982068 0.9030 0.9030 0.9030 0.9030 0.9030
3817.288633 0.9030 0.9030 0.9030 0.9030 0.9030
3820.595199 0.9030 0.9030 0.9030 0.9030 0.9030
3823.901764 0.9030 0.9030 0.9030 0.9030 0.9030
3827.208329 0.9030 0.9030 0.9030 0.9030 0.9030
3830.514895 0.9030 0.9030 0.9030 0.9030 0.9030
3833.821460 0.9030 0.9030 0.9030 0.9030 0.9030
3837.128026 0.9030 0.9030 0.9030 0.9030 0.9030
3840.434591 0.9030 0.9030 0.9030 0.9030 0.9030
3843.741157 0.9030 0.9030 0.9030 0.9030 0.9030
3847.047722 0.9030 0.9030 0.9030 0.9030 0.9030
3850.354288 0.9030 0.9030 0.9030 0.9030 0.9030
3853.660853 0.9030 0.9030 0.9030 0.9030 0.9030
3856.967419 0.9030 0.9030 0.9030 0.9030 0.9030
3860.273984 0.9030 0.9030 0.9030 0.9030 0.9030
3863.580550 0.9030 0.9030 0.9030 0.9030 0.9030
3866.887115 0.9030 0.9030 0.9030 0.9030 0.9030
3870.193681 0.9030 0.9030 0.9030 0.9030 0.9030
3873.500246 0.9030 0.9030 0.9030 0.9030 0.9030
3876.806811 0.9030 0.9030 0.9030 0.9030 0.9030
3880.113377 0.9030 0.9030 0.9030 0.9030 0.9030
3883.419942 0.9030 0.9030 0.9030 0.9030 0.9030
3886.726508 0.9030 0.9030 0.9030 0.9030 0.9030
3890.033073 0.9030 0.9030 0.9030 0.9030 0.9030
3893.339639 0.9030 0.9030 0.9030 0.9030 0.9030
3896.646204 0.9030 0.9030 0.9030 0.9030 0.9030
3899.952770 0.9030 0.9030 0.9030 0.9030 0.9030
3903.259335 0.9030 0.9030 0.9030 0.9030 0.9030
3906.565901 0.9029 0.9027 0.9024 0.9022 0.9018
3909.872466 0.9010 0.9003 0.8995 0.8988 0.8983
3913.179032 0.8978 0.8973 0.8968 0.8963 0.8958
3916.485597 0.8953 0.8948 0.8943 0.8938 0.8933
3919.792163 0.8928 0.8923 0.8918 0.8913 0.8909
3923.098728 0.8906 0.8904 0.8901 0.8899 0.8896
3926.405293 0.8894 0.8891 0.8890 0.8890 0.8890
3929.711859 0.8890 0.8890 0.8890 0.8890 0.8890
3933.018424 0.8893 0.8898 0.8903 0.8908 0.8913
3936.324990 0.8919 0.8924 0.8929 0.8934 0.8939
3939.631555 0.8944 0.8949 0.8952 0.8955 0.8957
3942.938121 0.8960 0.8962 0.8965 0.8967 0.8970
3946.244686 0.8972 0.8975 0.8977 0.8980 0.8982
3949.551252 0.8985 0.8987 0.8990 0.8990 0.8990
3952.857817 0.8990 0.8990 0.8990 0.8990 0.8990
3956.164383 0.8990 0.8993 0.8995 0.8998 0.9000
3959.470948 0.9000 0.9000 0.9000 0.9000 0.9003
3962.777514 0.9005 0.9008 0.9010 0.9013 0.9015
3966.084079 0.9018 0.9021 0.9023 0.9026 0.9028
3969.390644 0.9030 0.9030 0.9030 0.9030 0.9030
3972.697210 0.9030 0.9030 0.9030 0.9030 0.9030
3976.003775 0.9030 0.9030 0.9030 0.9030 0.9030
3979.310341 0.9030 0.9030 0.9030 0.9030 0.9030
3982.616906 0.9030 0.9030 0.9030 0.9030
##END=
