##TITLE=Chloroform
##JCAMP-DX=4.24
##DATA TYPE=INFRARED SPECTRUM
##CLASS=IUPAC A
##ORIGIN=NIST, Analytical Chemistry Division, 301-975-3108
##OWNER=COPYRIGHT (C) 2000 by the U.S. Secretary of Commerce
##DATE=00/02/01
##$SPECTRA VERSION=1.10
##$UNCERTAINTY IN Y=2.2 % relative (B=1.2E-04,C=3.2E-09,D=1.1E-13)
##CAS NAME=Chloroform
##CAS REGISTRY NO=67-66-3
##MOLFORM=C H Cl3
##MP=-63.5 C
##BP=61.7 C
##$NIST SOURCE=QUANT-IR
##SPECTROMETER/DATA SYSTEM=IFS66V (Bruker)
##INSTRUMENT PARAMETERS=KBr Beam Splitter; MCT Detector; Multipass cell
##STATE=gas
##SAMPLE DESCRIPTION=Chloroform Primary Gas Standard
##PRESSURE=101.3 Pa
##TEMPERATURE=23 C
##SAMPLING PROCEDURE=1 L/min Flow
##RESOLUTION=1.9290
##DATA PROCESSING=3-Term B-H Apodization
##XUNITS=cm-1
##YUNITS=(micromol/mol)-1m-1 (base 10)
##XFACTOR=1.0
##YFACTOR=3.6379E-12
##DELTAX=0.9645
##FIRSTX=575.652
##LASTX=3974.605
##FIRSTY=-7.72E-07
##MAXX=3973.64
##MINX=575.65
##MAXY=.0027506
##MINY=-4.17E-06
##NPOINTS=3526
##XYDATA=(X++(Y..Y))
575.65-212339-33468-44133 29520 142268 178061
580.47 119775-68826-179437-162464-172821-206346
586.26-229524-188897-27974 45770 4986-55707
592.04-97702-68013-13507 9379-5395-9767
597.83 45330 75205 87478 152116 250486 295828
603.62 252791 189141 175829 204444 239503 292551
609.40 373703 415571 388183 349848 413961 534163
615.19 588829 523415 395716 337910 503479 897912
620.97 1060585 709969 354415 393878 796218 1108102
626.76 902531 542803 383701 369496 458564 535483
632.54 541265 523266 537336 550755 537715 499058
638.33 468641 441656 403975 331585 251749 180826
644.11 129754 117607 120252 109303 103920 123513
649.90 188407 233433 257868 295539 334923 404822
655.68 503290 597481 695075 800824 947763 1078961
661.47 1253396 1473233 1683862 1885364 2211581 2776254
667.25 3410576 4223538 5709883 8044551 11156245 14330345
673.04 16063699 14977345 11100259 6398478 4037144 4486160
678.83 5882133 7384988 8882202 10248578 11315892 11934007
684.61 12100680 11807179 11052103 9904573 8493555 7004093
690.40 5569796 4268990 3157386 2236580 1565228 1110755
696.18 792066 562133 398347 268841 171663 98644
701.97 66498 55593 36726 19613 21795 20883
707.75 26391 18741 512 5316 28831 50830
713.54 89066 95537 72366 60922 92681 124298
719.32 138914 155113 204074 251898 305675 350738
725.11 413814 519384 665795 810955 980987 1164073
730.89 1373086 1628358 1950895 2336771 2829600 3425685
736.68 4132384 4937092 5895085 7044886 8408411 9979153
742.47 11805149 13931119 16362247 19044558 22016184 25316970
748.25 29046246 33334719 38519905 44788730 52110620 60265100
754.04 69510294 80533288 93749825 109662576 129131076 152656801
759.82 180707492 214090217 253441409 299447393 352771059 413008483
765.61 478893035 547534325 614752832 674651986 720305503 748070320
771.39 756099725 741995740 719632722 703490601 681385940 623692295
777.18 524485792 421365524 337407122 270441141 216699825 173467797
782.96 138851496 111375390 89540751 72162507 58316538 47357696
788.75 38647802 31778427 26400741 22230971 18857863 16001486
794.53 13492248 11285217 9267791 7385989 5769607 4596305
800.32 3650827 2830713 2191857 1745995 1395005 1114428
806.11 881231 693654 545564 464167 387126 298033
811.89 207431 161629 129933 102406 65961 54783
817.68 77062 112212 89751 40944-16789-26787
823.46 8755 44069 61739 69649 70418 103648
829.25 125850 120146 116779 164361 216721 254609
835.03 289420 346890 386545 403030 430214 472638
840.82 484069 508355 561206 633447 705745 753941
846.60 798449 954444 1171806 1283424 1286250 1315025
852.39 1426908 1566956 1624860 1591944 1466812 1307831
858.17 1141529 938695 733432 610919 503041 360825
863.96 259005 258532 288845 261722 191954 147796
869.75 127546 133016 127159 107227 93291 100333
875.53 114488 126816 122653 99532 69138 61943
881.32 65800 55578 31599 18866 9510 9652
887.10 5362-1675-2656-928-12358-22566
892.89-27531-24453-20041-4178 6890 14123
898.67 23094 40279 59912 71394 78487 121914
904.46 179500 225308 269493 321010 376445 444975
910.24 528928 626844 700328 767824 839964 901248
916.03 952681 1009800 1060300 1097408 1142033 1188468
921.81 1199256 1199962 1232610 1310740 1397669 1438809
927.60 1443083 1554472 1752315 1739139 1480926 1373501
933.39 1512505 1494860 1131095 788657 714460 779318
939.17 868053 954230 1016579 1036508 1010490 973561
944.96 920404 833160 729223 638872 555219 468201
950.74 379069 310733 257713 203094 169373 151587
956.53 128210 115579 100285 85889 70640 59442
962.31 69585 77037 57779 45815 41128 35307
968.10 42522 57218 54113 37659 20821 7367
973.88-8391-27971-46672-39935-26520-30017
979.67-42876-53373-52921-37410-37374-60778
985.45-80375-78635-76235-80517-74174-53482
991.24-47342-57169-61066-52991-44652-41607
997.03-49304-58278-47869-19872-13129-30187
1002.81-38428-30382-15663 20605 49791 52819
1008.60 60983 78948 91233 111986 142105 183308
1014.38 234916 295534 337695 358423 386339 436191
1020.17 498805 542370 542581 534211 543599 556245
1025.95 553206 557840 568581 574064 583640 594105
1031.74 589381 568261 548739 545810 542439 517303
1037.52 457905 391781 341825 296989 234127 166912
1043.31 106319 48871 4217-17517-16790-4065
1049.09-7711-16363-21019-25719-33190-35331
1054.88-37779-50949-55813-50274-56536-55931
1060.67-49976-47647-51536-62991-88229-101044
1066.45-94103-76491-49015-44840-54529-53251
1072.24-58938-66236-69838-65385-62995-61481
1078.02-67728-78943-79769-74623-82439-91062
1083.81-89461-88861-90683-83629-74858-70547
1089.59-69063-56240-49846-62216-75277-74919
1095.38-75849-87785-93906-78872-53328-47815
1101.16-77608-90573-71432-49799-50836-71765
1106.95-87758-87952-85653-87451-87787-71846
1112.73-63279-71817-83174-86642-87136-86166
1118.52-88143-84344-78611-86248-86764-66932
1124.31-63366-68687-68377-73991-72694-61066
1130.09-58670-66403-79188-80140-70825-70085
1135.88-77923-80237-78627-61292-53949-68308
1141.66-59376-40459-47955-56892-54026-52227
1147.45-72000-84833-74694-72227-84901-84364
1153.23-77528-80249-84989-68111-60917-85931
1159.02-98621-76092-51331-48442-61385-68690
1164.80-63847-56484-44029-30494-33635-43132
1170.59-47335-39568-26100-7199 6627 21696
1176.37 37694 50825 70293 97277 121010 154220
1182.16 196968 247350 301555 357028 421946 512674
1187.95 606025 684536 734689 769036 827279 928372
1193.73 1072732 1266649 1512535 1847363 2282012 2831839
1199.52 3528667 4413882 5509428 6854382 8476834 10388720
1205.30 12608814 15321612 18847293 23229850 28222649 33937442
1211.09 40825523 49432713 60136545 73155211 88807043 107343855
1216.87 126341765 138238755 140037864 135317493 122103008 102387478
1222.66 83546997 67918168 55185054 44860469 36476229 29662698
1228.44 24129939 19638969 16025449 13106492 10715442 8760344
1234.23 7182736 5889762 4824594 3942904 3232141 2663490
1240.01 2181118 1755547 1407450 1133982 920932 745147
1245.80 603053 491785 403141 328697 266432 198861
1251.59 139217 102951 79085 55335 28314 2982
1257.37-5990-15275-19710-14557-26779-47650
1263.16-48710-54631-63595-63742-59039-59133
1268.94-65004-64891-55092-51893-47256-40165
1274.73-38812-53435-78827-82308-54358-41996
1280.51-55817-66270-66309-71055-75353-70818
1286.30-63466-58484-55913-53561-52056-60764
1292.08-72241-78176-78705-81311-83684-78589
1297.87-76123-70958-56562-50264-53809-68827
1303.65-76300-66364-69587-85876-89523-83109
1309.44-70925-53789-47821-66196-84183-83885
1315.23-76714-77617-79592-66526-49812-52886
1321.01-62871-58011-41282-37852-44061-43418
1326.80-35608-26490-21886-24916-19217-9482
1332.58-6928-2304 3376 1266-17024-45627
1338.37-58882-53139-20614 17508 36624 36701
1344.15 20765-9382-33914-36969-42188-72331
1349.94-113354-145401-158977-136072-96552-65298
1355.72-37206-39045-60692-101299-149341-169332
1361.51-188167-182119-137454-110345-90488-64089
1367.29-60555-80773-88088-82559-97599-144456
1373.08-165019-125181-72486-46098-47558-56348
1378.87-60994-52607-40327-43346-45211-45039
1384.65-66326-135427-177333-110208-37011-33180
1390.44-48920-60945-107742-177422-175601-119269
1396.22-82726-100670-130428-103022-50603-22764
1402.01-12660-32617-68796-55660-22278-17259
1407.79-30681-42821-34699-11587-1517-14086
1413.58-12546 5703 7054-34479-162486-247776
1419.36-89359 106547 156176 159514 210445 300737
1425.15 376536 424490 476554 536040 614901 744681
1430.93 883172 1001257 1128214 1239486 1246609 1295201
1436.72 1598732 1929789 2135929 2306951 2425004 2486963
1442.51 2576134 2590829 2490937 2434602 2284073 1995891
1448.29 1815291 1648655 1340114 1016139 772978 566138
1454.08 308376-87773-344359-226928-41299 53179
1459.86 99444 104328 92482 44069-10585 62457
1465.65 192500 263750 310216 333912 278185 126027
1471.43 15827 44156 166311 236851 244167 315226
1477.22 385244 397461 378258 350533 346940 350607
1483.00 349065 351648 318142 240248 190624 147239
1488.79 61590 28410 69944 94992 81483 2743
1494.57-196783-283250-186760-153043-106801-15214
1500.36 15201 24810 27283-108966-413265-621853
1506.15-545418-267081-40473 71221 130378 144785
1511.93 203829 284107 306774 284957 248204 315743
1517.72 447030 408116 218670 210522 456355 690853
1523.50 762849 779828 886830 992178 1072781 1173612
1529.29 1255495 1290765 1264803 1198289 1243147 1400294
1535.07 1511666 1506401 1273725 963119 990708 1241960
1540.86 1403413 1594924 1805593 1866825 1925671 2012624
1546.64 1996634 1862798 1651321 1450054 1303460 1175175
1552.43 1009135 926344 1059042 1100842 812120 479930
1558.21 382407 479382 762999 963455 927744 802238
1564.00 684588 613903 543860 413254 206122 69882
1569.79 113825 169089 138966 76940-99749-448902
1575.57-518734-216531-34254-24782-34685-30366
1581.36-15907-12475-21237-22187-20792-17071
1587.14-16746-32672-46332-47995-53002-71501
1592.93-92541-95576-85002-72211-64646-67975
1598.71-73716-78432-82677-90911-97193-99267
1604.50-99868-89766-76874-84745-104689-107471
1610.28-93046-84269-85616-91681-211013-504369
1616.07-568009-291828-113410-96820-104310-137018
1621.85-230556-261018-160080-95719-129826-165675
1627.64-131980-85215-77259-81500-88707-144430
1633.43-361524-582515-477892-255775-155382-114975
1639.21-111667-113271-99691-81869-111189-287582
1645.00-466755-425116-304504-198982-128040-241412
1650.78-699792-1146314-1005397-534211-220036-108111
1656.57-90890-83806-74665-81512-141133-232207
1662.35-216670-122260-79765-66487-83635-202735
1668.14-342337-309850-212128-153170-112155-189635
1673.92-350131-312872-133186-63566-80493-110190
1679.71-113585-130127-262466-565300-819722-609495
1685.49-218282-97505-110512-111899-100584-86409
1691.28-83794-94240-218157-583728-734729-427660
1697.07-232749-453526-783749-676365-291901-132256
1702.85-171249-208345-210612-180254-107521-68447
1708.64-81627-93677-80387-82300-142483-242020
1714.42-293624-416497-616546-545022-283134-124141
1720.21-83505-89957-102251-95540-83198-92220
1725.99-97190-94416-113308-139400-130010-174343
1731.78-399255-642667-591244-302608-111960-82662
1737.56-142649-243885-221026-131946-127354-146294
1743.35-130406-110516-114343-144551-182047-191114
1749.13-232123-323099-267997-131341-79164-84761
1754.92-132261-163759-121967-83560-88412-153374
1760.71-231281-186744-93544-60200-57013-89164
1766.49-177093-207021-137891-135867-257329-395238
1772.28-348980-176950-92873-63834-43314-46663
1778.06-62693-88923-91394-54347-39821-73605
1783.85-105042-81357-43600-34746-40076-60887
1789.63-111857-200597-260524-174381-65158-43680
1795.42-33040-14467-25740-64284-72344-58844
1801.20-41619-10360 14408 24407 33394 34207
1806.99 35230 43589 33134 28498 61312 93009
1812.77 104870 106805 109070 113863 121465 134929
1818.56 150766 153788 140780 124945 104843 44493
1824.35-11106 5191 38127 32770 15 20386
1830.13 123070 199412 215037 204954 182965 153790
1835.92 124488 107131 93106 75100 64971 47928
1841.70-30106-172254-192516-75480-24020-33935
1847.49-29389-22626-20841-22813-26864-30467
1853.27-34473-28983-22274-32038-45671-48010
1859.06-46762-47102-44699-43373-45990-55640
1864.84-73633-98891-132412-174451-175571-121750
1870.63-82429-77576-79661-73752-69508-73525
1876.41-81033-82792-69840-53827-54223-64300
1882.20-70094-68471-63118-54747-52635-72664
1887.99-96912-85756-48385-27473-16288-14817
1893.77-31717-40338-36584-41773-49078-46553
1899.56-42635-50134-59488-59624-56750-60331
1905.34-71266-85303-90446-87997-86636-84926
1911.13-82297-76446-72068-70105-69327-105128
1916.91-147749-123796-86519-80673-86762-97886
1922.70-87306-63899-51972-54091-63598-68194
1928.48-68990-71616-75753-70935-58736-61081
1934.27-81012-94559-87795-78695-73552-65152
1940.05-68719-93691-95705-79044-85425-92378
1945.84-82545-73664-70528-62187-51551-51548
1951.63-49846-44297-52789-65747-61106-53024
1957.41-52063-48863-41316-34790-30652-33082
1963.20-36254-41914-55766-68808-67485-55266
1968.98-46979-40348-28559-19106-17328-34481
1974.77-50411-42847-34067-31900-24307-15390
1980.55-13047-14689-20396-28480-32583-36959
1986.34-39872-36631-24103-11264-17867-27131
1992.12-21885-27655-36661-41663-45307-39659
1997.91-33175-32705-36887-41959-36059-30637
2003.69-33727-36923-40923-39497-30507-33616
2009.48-38771-36557-39317-47123-55127-64814
2015.27-72004-63789-52991-54626-54717-54657
2021.05-57590-58805-60397-60609-56641-58605
2026.84-64081-65864-66113-68097-71143-74654
2032.62-75233-72027-65696-56025-49947-55937
2038.41-66148-78542-80713-68984-62372-66274
2044.19-72141-78492-78622-68365-65063-66369
2049.98-62987-69131-83763-85294-74892-71021
2055.76-63297-52921-59605-74508-77299-74655
2061.55-68172-65440-64936-55700-64296-86362
2067.33-87892-78386-73746-71841-66706-67094
2073.12-70985-70023-72139-72818-65985-69687
2078.91-80448-83691-81724-77779-77134-81425
2084.69-81087-76125-73010-78096-86506-83010
2090.48-70664-73093-85293-91885-84144-68095
2096.26-64866-79352-84548-73108-65020-75399
2102.05-91640-93672-85739-76485-72036-73374
2107.83-70710-73141-88142-90800-74579-68104
2113.62-74719-80354-67140-58108-68473-73132
2119.40-60952-53817-67428-94756-96714-73366
2125.19-64908-71501-67482-61462-70782-81039
2130.97-80238-75828-71276-67346-60107-53179
2136.76-52718-55468-59599-65163-63976-56205
2142.55-56878-68378-76721-75374-69482-66902
2148.33-67144-69847-68617-64308-66845-74589
2154.12-70376-57599-64848-81241-74186-59363
2159.90-60832-67884-58399-50656-67772-77911
2165.69-60806-55845-76945-88772-78385-71085
2171.47-67765-56524-47721-55261-60251-54584
2177.26-63575-77697-70506-51899-48105-50319
2183.04-36924-24114-33055-38166-21802-20639
2188.83-37419-38751-26137-17772-8645-1980
2194.61-4552-8527-9068 1968 18877 16916
2200.40 6885 9760 21561 31724 31222 32238
2206.19 44679 49766 40859 32208 33288 34571
2211.97 41974 58995 60507 42521 30416 22426
2217.76 14511 11426 10145 10338 4297-7620
2223.54-8725 4960 9860 1973 12213 30539
2229.33 38283 40926 37889 34064 36220 35578
2235.11 36477 44917 54461 49111 35515 31001
2240.90 28402 28520 30231 17000 6341 728
2246.68-13926-27337-30140-21087-11131-11969
2252.47-17078-23300-24806-23560-28862-35002
2258.25-30949-24470-32464-41237-36388-32031
2264.04-26093-16855-13297-16553-15088-14258
2269.83-26290-26004-9866-3881-3967 2230
2275.61 10079 6940 4216 12161 25064 29089
2281.40 30478 42228 50282 57718 72763 76595
2287.18 69586 68617 72981 71195 71775 72323
2292.97 55008 29319 19419 17955 9613-4087
2298.75-12500-14113-13818-20005-25393-20690
2304.54-20787-18640-8531 5587 15584 19279
2310.32 21238 24031 39695 59706 73524 77410
2316.11 89699 100683 114773 133702 165655 191319
2321.89 211953 228679 250153 266138 282630 304252
2327.68 328650 344588 366343 391410 408508 416981
2333.47 422682 423574 431766 438717 434807 417952
2339.25 406530 402558 387777 352205 304552 252990
2345.04 204346 163512 116921 75301 82384 134501
2350.82 197868 258032 319286 371689 423617 482309
2356.61 529370 556292 570512 579915 590383 590655
2362.39 576412 551201 524647 499047 465334 426833
2368.18 393230 351805 298401 245782 198618 155504
2373.96 122692 94084 73756 63877 56275 54453
2379.75 47097 20139-1314 1747 17838 38681
2385.53 60945 81422 102750 121685 143532 181793
2391.32 237547 298094 349663 399774 466045 553124
2397.11 613116 586458 511454 448450 407775 387417
2402.89 361310 343146 440634 919744 2146423 3430274
2408.68 2981702 1309624 396851 287581 367865 465782
2414.46 546656 622364 694058 742506 760995 754089
2420.25 736210 704968 650813 578236 506043 436055
2426.03 379946 338521 303965 272038 236053 191036
2431.82 150738 117963 90134 73231 86072 128574
2437.60 191400 264197 325385 356751 351365 300752
2443.39 232251 181740 155133 139465 145013 164851
2449.17 175917 185501 200643 203436 208478 221052
2454.96 224011 220141 217903 209701 195180 177605
2460.75 156051 133328 123096 113664 100092 85858
2466.53 73679 66215 54414 31809 8669-7292
2472.32-9161-11697-21148-26412-34320-47469
2478.10-56066-61441-54715-48392-58564-70319
2483.89-71010-71965-68451-60791-60692-68853
2489.67-73013-65984-59310-63850-68989-70599
2495.46-72553-80863-84639-84203-76532-56859
2501.24-47687-60797-71487-63499-51536-61203
2507.03-80965-86519-82508-81034-77088-73078
2512.81-70937-73224-66080-52210-52350-65722
2518.60-79726-93000-92828-75635-68797-78235
2524.39-87366-95503-90630-75372-70304-77392
2530.17-75034-68600-76344-88647-91162-88687
2535.96-79124-71388-74136-80427-86172-95374
2541.74-94959-86176-86626-92669-89481-87996
2547.53-86804-85378-84189-84586-92159-98341
2553.31-90878-84652-92649-102370-102925-99118
2559.10-87679-78376-76281-79487-73389-56106
2564.88-52005-55832-53583-62173-77676-95149
2570.67-112227-122525-122072-107306-86254-78312
2576.45-78495-82042-85924-72049-50007-44289
2582.24-52502-62049-71837-83192-85000-84128
2588.03-83729-89579-106002-116307-102908-78818
2593.81-61240-60166-73081-86409-82678-83197
2599.60-94182-90282-80178-77944-78826-84620
2605.38-81266-74591-80795-87824-88483-93565
2611.17-93662-86727-75537-69366-66804-68742
2616.95-73917-79062-87284-93064-96147-97281
2622.74-89368-77346-71695-79963-87506-79502
2628.52-69512-70593-76862-88705-92230-82614
2634.31-72010-69226-70460-69949-67255-67090
2640.09-67218-63225-63235-76145-80454-68416
2645.88-56177-60133-77144-90001-92667-87077
2651.66-72006-64853-69083-68876-72192-88619
2657.45-99483-95450-90712-84129-69183-58873
2663.24-61044-73971-78374-79086-86788-93808
2669.02-87338-73464-67535-76541-91239-90413
2674.81-73636-80147-87626-70043-60555-70331
2680.59-78309-78275-73881-67037-56025-56004
2686.38-65314-68454-72991-74987-67962-72291
2692.16-84482-92214-99910-110237-114352-120437
2697.95-121777-107619-89302-89672-98093-93383
2703.73-78409-62735-48033-34020-27050-27505
2709.52-37592-55394-69225-81463-90680-92981
2715.30-86959-80426-77048-69090-71259-92821
2721.09-113044-122666-112352-92507-90898-94848
2726.88-80916-67304-67425-77372-81283-70907
2732.66-59685-63176-67269-64873-61535-69842
2738.45-82436-82048-74316-73851-78757-82372
2744.23-77989-78685-82296-80639-78048-81143
2750.02-90967-95622-80679-68338-84353-109093
2755.80-108899-96666-97319-100261-93319-85724
2761.59-78086-81777-94933-103315-101118-85916
2767.37-71053-82982-106249-107114-90288-77084
2773.16-74487-84973-106338-118029-99739-81926
2778.94-85901-83365-69297-64167-74193-89382
2784.73-95953-97578-93602-82850-74444-82585
2790.52-99488-106418-95406-79843-80692-84487
2796.30-66898-61666-80661-94530-97079-103813
2802.09-113693-106368-87011-96629-107412-93113
2807.87-81849-79956-81287-95265-115448-130358
2813.66-133506-120088-101718-93271-97402-105918
2819.44-102987-94506-90259-92388-94319-82343
2825.23-70248-79013-83090-74250-61385-48877
2831.01-50148-67332-83838-101233-112396-108442
2836.80-94742-82122-72779-74478-82155-83134
2842.58-85077-90338-92044-90862-80898-80498
2848.37-95501-95315-86102-92927-101171-114755
2854.16-131139-129511-113949-91920-72815-80671
2859.94-99137-93116-81593-95494-116227-123654
2865.73-125639-127107-120599-104479-82559-87157
2871.51-104183-107136-111636-113971-98821-89475
2877.30-94190-101918-105538-105169-105366-104726
2883.08-118763-140061-138545-122818-110323-112455
2888.87-113498-97802-88132-98327-120521-139909
2894.65-135525-109574-84686-75519-69929-71674
2900.44-85548-103812-114056-128458-128051-107110
2906.22-103687-103289-94553-95243-98967-103890
2912.01-108843-125514-145234-141284-124566-117669
2917.80-127061-149547-151373-134513-135314-151088
2923.58-158123-149028-130870-131682-137373-141404
2929.37-146544-142536-133921-123371-119753-127762
2935.15-131399-141433-147881-138973-129659-127861
2940.94-121382-107402-96405-105371-125130-132717
2946.72-124761-114008-118494-131735-129823-119003
2952.51-111316-100778-92425-99539-112426-116926
2958.29-121350-138499-153396-138603-105412-108223
2964.08-135353-156470-169501-170285-170437-179657
2969.86-169481-148164-138072-147283-168587-165961
2975.65-142264-139131-148038-142228-126770-125966
2981.44-141698-142916-118501-102568-93277-87295
2987.22-87107-86439-95923-102359-81642-78806
2993.01-93204-90928-96311-109582-104009-89815
2998.79-83966-92479-107849-124392-121656-107531
3004.58-108642-113853-95555-77325-76662-71789
3010.36-49478-29197-14715-99 21929 61088
3016.15 98853 108724 116903 132137 153170 175834
3021.93 213108 234305 211513 169232 124898 102519
3027.72 119703 113864 79772 479482 1634111 2132774
3033.50 1257462 395345 126382 99924 121038 164453
3039.29 223487 271630 287013 286294 296316 302007
3045.08 289094 255277 212033 180735 144603 103268
3050.86 68624 34190 3033-23287-55599-67844
3056.65-48277-42193-58431-76547-94501-104675
3062.43-106154-101517-89398-80027-82483-80088
3068.22-73310-82886-89991-77548-66809-70009
3074.00-70555-62528-58158-66867-77040-74940
3079.79-74863-84091-76407-54567-56776-83166
3085.57-82288-47061-27179-37399-54987-66902
3091.36-51441-24639-22631-37753-47127-65200
3097.14-75629-49098-24682-32541-51429-62880
3102.93-56428-42672-38089-31097-15587-7248
3108.72-2881-4268-8454-1857 1669-13331
3114.50-30823-41905-33328-15417-7081-946
3120.29-6828-35273-53202-43986-22562 64
3126.07 16780 19107 12579 19645 27239 28297
3131.86 26701 7502-11672-3219 11602 1631
3137.64-4727-106 8069 17910 8882-8340
3143.43-13151-11701 1345 20760 25769 9087
3149.21-4257 5649 17719 18660 24296 35859
3155.00 41989 31145 29676 48991 58958 50834
3160.78 33392 23953 37970 61034 64154 38401
3166.57 11825-1004-5116-12422-995 30752
3172.36 49378 39098 15496 7372 13638 16614
3178.14 17383 20841 31878 41181 39720 39485
3183.93 44424 38779 34749 35697 32795 21720
3189.71 4267-7964-6973 4599 9935 4604
3195.50 16053 32616 24151 9776 13473 13215
3201.28 12422 22773 32940 23385 7554 5216
3207.07 7836 9123 22733 39377 38683 21481
3212.85 6019 7049 22806 41452 55553 44925
3218.64 28959 33240 45235 34254 13409 3566
3224.42-2377 6112 31569 37999 45097 65458
3230.21 61389 35502 19858 21061 28925 28833
3236.00 23359 22681 32476 44225 54634 64016
3241.78 63451 58035 50229 41149 46692 56447
3247.57 41628 17643 28090 55510 65958 47316
3253.35 38901 45125 39337 35130 31234 22251
3259.14 24524 39132 57810 55167 34520 23519
3264.92 25897 33391 51701 66587 55022 24647
3270.71 17175 27768 22119 17072 23875 12641
3276.49 1232 6037 9498 8457 5618 11522
3282.28 22511 12698-1708 9917 27919 37752
3288.06 39613 21175 999 1423 7015 3247
3293.85 2146 2150 13381 38288 48926 34275
3299.64 27422 21488-7055-20468 570 6445
3305.42-5706 5980 14685-516-13326-16759
3311.21-18949-30696-42523-43177-32180-33132
3316.99-40520-49129-49646-41528-35612-31758
3322.78-33530-34752-43466-59111-44445-14547
3328.56-14333-35168-45389-44571-45020-47076
3334.35-42288-44240-37573-29151-38657-52903
3340.13-52996-32600-23812-44292-51954-41459
3345.92-53929-68994-55978-41368-37147-38183
3351.70-53535-78767-79360-51647-44159-65092
3357.49-66528-45582-36971-51250-66041-67099
3363.28-66294-60378-47337-51279-51636-45145
3369.06-56485-77073-85623-87368-81922-79240
3374.85-77033-61645-63752-89246-97167-102144
3380.63-104647-76966-45275-30033-18396-22923
3386.42-38523-41378-40625-43721-39746-49772
3392.20-80942-105852-94418-63826-24374 4293
3397.99-12284-43474-42759-35296-47361-57539
3403.77-49010-31793-31294-52985-64078-65093
3409.56-64756-54396-19664-10264-52849-78761
3415.34-58348-40690-53961-65000-67283-68460
3421.13-53238-29259-20260-32843-45075-63801
3426.92-80188-89248-99349-80598-42913-39872
3432.70-51810-33143-13156-32910-71014-101871
3438.49-110028-97524-90276-95545-100751-83044
3444.27-65966-83438-100494-99334-93242-89403
3450.06-71473-55302-55908-71145-78389-75710
3455.84-78726-67431-69398-97029-99049-74851
3461.63-38764-36059-65736-59767-41859-67854
3467.41-89626-82906-92178-124330-119945-79577
3473.20-68499-80437-69802-60381-70230-87461
3478.98-101293-100542-92684-90550-86615-101458
3484.77-118448-103195-93597-108721-122922-121763
3490.56-101040-102628-125738-125932-114520-107883
3496.34-99987-110992-130161-133088-121140-115474
3502.13-126364-144360-145084-125449-114017-125238
3507.91-141917-143946-127601-127156-131036-123861
3513.70-111687-93076-87667-102577-131716-146118
3519.48-126542-118004-123273-121531-119259-123250
3525.27-128450-134602-145598-155232-150661-137170
3531.05-125470-104669-76039-80472-111304-121265
3536.84-120466-139437-144058-118133-101878-112367
3542.62-117840-133991-148203-135709-123048-111617
3548.41-101428-120329-150821-158522-135045-110934
3554.20-98904-96443-96572-95194-91522-88923
3559.98-99574-124395-132833-120710-132367-171308
3565.77-186833-183195-158807-136992-149127-150810
3571.55-121834-93193-81830-86212-105872-123648
3577.34-110375-94448-99840-105968-108476-102652
3583.12-82656-94199-164928-215125-234925-235142
3588.91-167001-98556-87934-115002-116877-108681
3594.69-106020-75245-52535-53367-63461-86101
3600.48-76499-64582-78353-76134-84830-140069
3606.26-190197-242061-276711-206832-155753-210170
3612.05-220688-172854-139418-123078-145904-195756
3617.84-261538-282213-195478-114535-92011-94386
3623.62-91551-99676-155017-305060-491271-520317
3629.41-342038-165355-120984-152759-151343-104954
3635.19-80982-96137-117825-121534-122826-130976
3640.98-125014-97610-75035-92917-167855-288941
3646.76-394305-506023-538100-442397-321631-197327
3652.55-122342-138344-255881-321711-216787-129197
3658.33-124840-125450-117889-106172-113184-133397
3664.12-138487-132692-147265-228127-332600-473172
3669.90-529142-349962-208905-274259-493996-641494
3675.69-485218-243464-160565-147263-109179-88528
3681.48-99355-102241-92620-80284-98888-281084
3687.26-510069-411552-209669-169599-105192-35842
3693.05-27226-16016 2494 4776 2674 12583
3698.83 30531 37868 71990 205304 319243 297787
3704.62 182302 40819-64792-152113-186142-181008
3710.40-291446-340112-155458-14154 11613 26653
3716.19 16740-25134-65891-91575-131202-169549
3721.97-152451-128602-151293-203266-224607-175495
3727.76-122703-116165-190698-335658-353750-275225
3733.54-311648-398133-447653-375092-237617-179232
3739.33-194530-224328-244329-468859-888862-863799
3745.12-437713-231114-342321-602102-602165-515441
3750.90-670066-590738-289544-167159-188388-208856
3756.69-184298-202539-257877-236769-164836-137818
3762.47-142960-166182-211117-201702-148419-162738
3768.26-253725-290994-224280-173534-162334-147197
3774.04-129689-133410-135879-156468-222614-246466
3779.83-180336-123856-125400-154856-165799-144417
3785.61-109477-94468-108028-115989-106717-114110
3791.40-118998-118357-130332-171182-225462-213290
3797.18-136778-106239-252499-494297-449424-198423
3802.97-67865-62343-200342-361463-277572-98126
3808.76-37678-37273-44302-59806-88693-232442
3814.54-520887-560122-294561-167616-244233-400381
3820.33-483509-380916-224231-158920-161666-198457
3826.11-202579-161840-141036-182636-276910-310624
3831.90-240613-226102-271887-279235-430365-649115
3837.68-527561-317220-283760-249155-212084-230374
3843.47-204227-143450-130425-137271-135035-166345
3849.25-251731-450565-642400-822029-977039-694508
3855.04-303735-209790-190901-165851-174382-207221
3860.82-232127-220715-252427-333338-303823-204741
3866.61-189981-307040-497375-493390-292763-199954
3872.40-245320-275661-219723-155300-128220-144100
3878.18-234656-330641-295560-192935-146383-199533
3883.97-360474-431494-299728-171960-139358-184380
3889.75-281589-290517-200342-157363-142863-132061
3895.54-151231-185401-244460-286276-271653-306510
3901.32-321628-307033-317758-285385-237731-195731
3907.11-172384-168399-167789-176296-177341-162401
3912.89-154964-171604-199932-242914-237194-201156
3918.68-209750-193215-130263-109110-137138-165013
3924.46-163481-150824-157176-188250-221236-220808
3930.25-206696-206569-182254-148578-134439-135666
3936.04-136139-124223-108142-103002-122390-160443
3941.82-174804-151477-116936-101422-111914-131262
3947.61-155758-191287-184974-136199-116333-120081
3953.39-109405-103900-121563-140340-143425-150274
3959.18-168746-181813-181708-163232-136703-116563
3964.96-110068-126901-138647-134092-116724-94088
3970.75-94807-119064-145008-164967
##END=
