##TITLE=DIMETHYL SULFOXIDE
##JCAMP-DX=4.24
##DATA TYPE=INFRARED SPECTRUM
##CLASS=COBLENTZ III
##ORIGIN=WESTERN REGIONAL RES. USDA
##OWNER=COBLENTZ SOCIETY
Collection (C) 2018 copyright by the U.S. Secretary of Commerce
on behalf of the United States of America. All rights reserved.
##DATE=1965/02/01
##NAMES=(methylsulfinyl)methane
##CAS REGISTRY NO=67-68-5
##MOLFORM=C2 H6 O S
##BP=189 C
##SOURCE REFERENCE=COBLENTZ NO. 6169
##$NIST SOURCE=COBLENTZ
##$NIST IMAGE=cob6169
##SPECTROMETER/DATA SYSTEM=BECKMAN IR-7 (GRATING)
##INSTRUMENT PARAMETERS=GRATING CHANGES AT 3000, 2200, 1150 CM^-^1
##STATE=LIQUID (NEAT)
##PATH LENGTH=0.003 CM
##SAMPLING PROCEDURE=TRANSMISSION
##RESOLUTION=4
##DATA PROCESSING=DIGITIZED BY NIST FROM HARD COPY (FROM TWO SEGMENTS)
##XUNITS=1/CM
##YUNITS=TRANSMITTANCE
##XFACTOR=1.000000
##YFACTOR=1
##DELTAX=0.649051
##FIRSTX=600
##LASTX=3978.31
##FIRSTY=0.785
##MAXX=3978.31
##MINX=600
##MAXY=0.897
##MINY=0
##NPOINTS=5206
##XYDATA=(X++(Y..Y))
600.000000 0.7850 0.7860 0.7870 0.7870 0.7880
603.245254 0.7880 0.7880 0.7850 0.7860 0.7870
606.490507 0.7870 0.7880 0.7880 0.7880 0.7890
609.735761 0.7900 0.7900 0.7920 0.7940 0.7960
612.981015 0.7970 0.7990 0.7990 0.8000 0.8000
616.226269 0.8010 0.8010 0.8010 0.8010 0.8010
619.471522 0.8010 0.8010 0.8010 0.8020 0.8030
622.716776 0.8030 0.8040 0.8060 0.8070 0.8080
625.962030 0.8100 0.8110 0.8120 0.8120 0.8120
629.207283 0.8120 0.8130 0.8130 0.8130 0.8140
632.452537 0.8140 0.8140 0.8140 0.8140 0.8140
635.697791 0.8140 0.8140 0.8140 0.8140 0.8130
638.943045 0.8120 0.8120 0.8110 0.8100 0.8080
642.188298 0.8060 0.8050 0.8040 0.8030 0.8010
645.433552 0.7980 0.7970 0.7960 0.7960 0.7940
648.678806 0.7920 0.7900 0.7890 0.7870 0.7850
651.924060 0.7790 0.7700 0.7650 0.7560 0.7470
655.169313 0.7390 0.7310 0.7220 0.7130 0.7030
658.414567 0.6920 0.6790 0.6620 0.6250 0.6060
661.659821 0.5830 0.5580 0.4971 0.4591 0.3773
664.905074 0.3540 0.3370 0.3260 0.3170 0.3090
668.150328 0.3010 0.2970 0.2960 0.2950 0.2950
671.395582 0.2960 0.3320 0.3530 0.3800 0.3990
674.640836 0.4180 0.4410 0.4639 0.4819 0.4999
677.886089 0.5120 0.5240 0.5420 0.5520 0.5650
681.131343 0.5790 0.5970 0.5970 0.5990 0.5990
684.376597 0.5970 0.5730 0.5540 0.5430 0.5070
687.621850 0.4900 0.4541 0.3722 0.3421 0.3111
690.867104 0.2400 0.1050 0.0920 0.0890 0.0790
694.112358 0.0700 0.0610 0.0520 0.0510 0.0510
697.357612 0.0520 0.0520 0.0540 0.0650 0.0770
700.602865 0.0880 0.0930 0.1020 0.1219 0.1399
703.848119 0.1950 0.2370 0.2540 0.2700 0.2960
707.093373 0.3199 0.3439 0.3719 0.3860 0.3999
710.338626 0.4240 0.4380 0.4520 0.4860 0.5120
713.583880 0.5270 0.5400 0.5679 0.5909 0.6050
716.829134 0.6190 0.6370 0.6440 0.6510 0.6610
720.074388 0.6730 0.6850 0.6930 0.6990 0.7050
723.319641 0.7150 0.7280 0.7380 0.7440 0.7490
726.564895 0.7520 0.7570 0.7610 0.7670 0.7720
729.810149 0.7760 0.7850 0.7860 0.7880 0.7900
733.055402 0.7910 0.7920 0.7940 0.7970 0.8010
736.300656 0.8030 0.8060 0.8090 0.8110 0.8140
739.545910 0.8150 0.8170 0.8190 0.8200 0.8210
742.791164 0.8230 0.8230 0.8240 0.8260 0.8260
746.036417 0.8270 0.8280 0.8280 0.8290 0.8300
749.281671 0.8300 0.8300 0.8300 0.8320 0.8320
752.526925 0.8330 0.8340 0.8340 0.8340 0.8350
755.772179 0.8350 0.8350 0.8350 0.8350 0.8350
759.017432 0.8350 0.8350 0.8360 0.8360 0.8370
762.262686 0.8370 0.8370 0.8370 0.8370 0.8370
765.507940 0.8380 0.8380 0.8380 0.8390 0.8390
768.753193 0.8390 0.8400 0.8400 0.8410 0.8410
771.998447 0.8410 0.8420 0.8430 0.8440 0.8450
775.243701 0.8480 0.8490 0.8500 0.8510 0.8510
778.488955 0.8510 0.8510 0.8520 0.8520 0.8520
781.734208 0.8530 0.8530 0.8540 0.8550 0.8560
784.979462 0.8570 0.8580 0.8590 0.8600 0.8610
788.224716 0.8610 0.8610 0.8610 0.8610 0.8620
791.469969 0.8620 0.8620 0.8620 0.8620 0.8630
794.715223 0.8630 0.8640 0.8640 0.8640 0.8640
797.960477 0.8640 0.8640 0.8650 0.8650 0.8650
801.205731 0.8650 0.8650 0.8650 0.8660 0.8660
804.450984 0.8660 0.8660 0.8670 0.8680 0.8680
807.696238 0.8680 0.8680 0.8680 0.8680 0.8680
810.941492 0.8680 0.8680 0.8680 0.8680 0.8680
814.186745 0.8680 0.8680 0.8680 0.8680 0.8680
817.431999 0.8680 0.8680 0.8670 0.8670 0.8670
820.677253 0.8670 0.8670 0.8670 0.8670 0.8680
823.922507 0.8660 0.8660 0.8660 0.8660 0.8660
827.167760 0.8660 0.8660 0.8660 0.8660 0.8650
830.413014 0.8650 0.8650 0.8650 0.8640 0.8640
833.658268 0.8640 0.8640 0.8640 0.8640 0.8630
836.903522 0.8630 0.8630 0.8620 0.8620 0.8620
840.148775 0.8620 0.8610 0.8610 0.8610 0.8610
843.394029 0.8600 0.8590 0.8590 0.8590 0.8590
846.639283 0.8580 0.8570 0.8570 0.8560 0.8550
849.884536 0.8550 0.8550 0.8540 0.8530 0.8530
853.129790 0.8520 0.8510 0.8500 0.8500 0.8500
856.375044 0.8490 0.8480 0.8480 0.8470 0.8460
859.620298 0.8460 0.8460 0.8440 0.8420 0.8410
862.865551 0.8390 0.8370 0.8360 0.8350 0.8340
866.110805 0.8330 0.8320 0.8320 0.8310 0.8300
869.356059 0.8290 0.8280 0.8270 0.8260 0.8240
872.601312 0.8230 0.8220 0.8210 0.8190 0.8170
875.846566 0.8140 0.8120 0.8090 0.8060 0.8030
879.091820 0.7990 0.7950 0.7910 0.7860 0.7810
882.337074 0.7690 0.7630 0.7560 0.7480 0.7400
885.582327 0.7320 0.7230 0.7130 0.7020 0.6890
888.827581 0.6750 0.6590 0.6281 0.6121 0.5971
892.072835 0.5810 0.5640 0.5560 0.5410 0.5370
895.318088 0.5280 0.5230 0.5180 0.5160 0.5160
898.563342 0.5150 0.5160 0.5180 0.5240 0.5300
901.808596 0.5370 0.5440 0.5500 0.5570 0.5630
905.053850 0.5700 0.5770 0.5890 0.5900 0.5920
908.299103 0.5930 0.5950 0.5960 0.5960 0.5960
911.544357 0.5960 0.5950 0.5940 0.5880 0.5770
914.789611 0.5640 0.5530 0.5420 0.5111 0.4961
918.034865 0.4760 0.4570 0.4360 0.4180 0.3610
921.280118 0.3260 0.2980 0.2541 0.2380 0.2220
924.525372 0.2070 0.1920 0.1770 0.1640 0.1540
927.770626 0.1440 0.1400 0.1390 0.1400 0.1420
931.015879 0.1440 0.1470 0.1490 0.1530 0.1570
934.261133 0.1620 0.1680 0.1730 0.1780 0.1780
937.506387 0.1780 0.1800 0.1800 0.1690 0.1670
940.751641 0.1580 0.1440 0.1241 0.1100 0.0951
943.996894 0.0820 0.0690 0.0570 0.0470 0.0380
947.242148 0.0320 0.0280 0.0220 0.0180 0.0160
950.487402 0.0160 0.0150 0.0150 0.0160 0.0170
953.732655 0.0190 0.0210 0.0280 0.0330 0.0400
956.977909 0.0490 0.0600 0.0730 0.0860 0.1020
960.223163 0.1170 0.1260 0.1340 0.1510 0.1689
963.468417 0.1870 0.2040 0.2220 0.2380 0.2540
966.713670 0.2630 0.2710 0.2870 0.3030 0.3160
969.958924 0.3290 0.3410 0.3510 0.3610 0.3700
973.204178 0.3780 0.3850 0.3880 0.3910 0.3970
976.449431 0.4020 0.4060 0.4100 0.4130 0.4160
979.694685 0.4180 0.4200 0.4220 0.4260 0.4260
982.939939 0.4250 0.4240 0.4240 0.4210 0.4170
986.185193 0.4130 0.4080 0.4040 0.4000 0.3970
989.430446 0.3950 0.3770 0.3680 0.3590 0.3490
992.675700 0.3400 0.3300 0.3210 0.3110 0.3010
995.920954 0.2910 0.2810 0.2720 0.2520 0.2240
999.166207 0.2000 0.1770 0.1570 0.1221 0.1080
1002.411461 0.0940 0.0810 0.0690 0.0570 0.0460
1005.656715 0.0350 0.0230 0.0100 0.0070 0.0060
1008.901969 0.0040 0.0030 0.0000 0.0000 0.0000
1012.147222 0.0000 0.0000 0.0000 0.0000 0.0000
1015.392476 0.0000 0.0000 0.0000 0.0000 0.0000
1018.637730 0.0000 0.0000 0.0000 0.0000 0.0000
1021.882984 0.0000 0.0000 0.0000 0.0000 0.0000
1025.128237 0.0000 0.0000 0.0000 0.0000 0.0000
1028.373491 0.0000 0.0000 0.0000 0.0000 0.0000
1031.618745 0.0000 0.0000 0.0000 0.0000 0.0000
1034.863998 0.0000 0.0000 0.0000 0.0000 0.0000
1038.109252 0.0000 0.0000 0.0000 0.0000 0.0000
1041.354506 0.0000 0.0000 0.0000 0.0000 0.0000
1044.599760 0.0000 0.0000 0.0000 0.0000 0.0000
1047.845013 0.0000 0.0000 0.0000 0.0000 0.0000
1051.090267 0.0000 0.0000 0.0000 0.0000 0.0000
1054.335521 0.0000 0.0000 0.0000 0.0000 0.0000
1057.580774 0.0000 0.0000 0.0000 0.0000 0.0000
1060.826028 0.0000 0.0000 0.0000 0.0000 0.0000
1064.071282 0.0000 0.0000 0.0000 0.0000 0.0000
1067.316536 0.0000 0.0000 0.0000 0.0000 0.0000
1070.561789 0.0000 0.0000 0.0000 0.0000 0.0010
1073.807043 0.0150 0.0270 0.0370 0.0460 0.0550
1077.052297 0.0640 0.0750 0.0870 0.1020 0.1190
1080.297550 0.1250 0.1300 0.1420 0.1550 0.1690
1083.542804 0.1840 0.1990 0.2140 0.2310 0.2469
1086.788058 0.2560 0.2640 0.2800 0.2960 0.3120
1090.033312 0.3280 0.3420 0.3570 0.3700 0.3830
1093.278565 0.3890 0.3940 0.4040 0.4130 0.4200
1096.523819 0.4250 0.4290 0.4400 0.4510 0.4610
1099.769073 0.4700 0.4790 0.4870 0.4960 0.5030
1103.014327 0.5100 0.5140 0.5170 0.5230 0.5290
1106.259580 0.5350 0.5410 0.5460 0.5510 0.5550
1109.504834 0.5600 0.5640 0.5740 0.5820 0.5880
1112.750088 0.5930 0.5970 0.6020 0.6060 0.6100
1115.995341 0.6140 0.6190 0.6220 0.6260 0.6300
1119.240595 0.6340 0.6370 0.6410 0.6430 0.6440
1122.485849 0.6480 0.6510 0.6550 0.6570 0.6600
1125.731103 0.6640 0.6670 0.6690 0.6730 0.6750
1128.976356 0.6780 0.6800 0.6830 0.6860 0.6890
1132.221610 0.6910 0.6930 0.6960 0.6980 0.7010
1135.466864 0.7030 0.7050 0.7080 0.7110 0.7120
1138.712117 0.7150 0.7180 0.7200 0.7220 0.7220
1141.957371 0.7230 0.7230 0.7230 0.7230 0.7240
1145.202625 0.7250 0.7270 0.7270 0.7300 0.7340
1148.447879 0.7400 0.7440 0.7470 0.7520 0.7560
1151.693132 0.7600 0.7620 0.7660 0.7670 0.7680
1154.938386 0.7690 0.7700 0.7710 0.7720 0.7740
1158.183640 0.7750 0.7770 0.7790 0.7810 0.7820
1161.428893 0.7830 0.7850 0.7870 0.7880 0.7890
1164.674147 0.7900 0.7920 0.7920 0.7940 0.7950
1167.919401 0.7960 0.7970 0.7970 0.7980 0.7990
1171.164655 0.7990 0.7990 0.7990 0.8000 0.8010
1174.409908 0.8010 0.8010 0.8020 0.8030 0.8030
1177.655162 0.8030 0.8030 0.8040 0.8050 0.8050
1180.900416 0.8050 0.8060 0.8060 0.8070 0.8080
1184.145669 0.8080 0.8080 0.8080 0.8080 0.8080
1187.390923 0.8080 0.8090 0.8090 0.8090 0.8090
1190.636177 0.8090 0.8100 0.8100 0.8100 0.8100
1193.881431 0.8100 0.8100 0.8100 0.8100 0.8110
1197.126684 0.8110 0.8120 0.8120 0.8120 0.8120
1200.371938 0.8120 0.8120 0.8120 0.8120 0.8130
1203.617192 0.8130 0.8130 0.8130 0.8130 0.8140
1206.862446 0.8140 0.8140 0.8140 0.8140 0.8140
1210.107699 0.8140 0.8140 0.8140 0.8140 0.8140
1213.352953 0.8140 0.8140 0.8140 0.8140 0.8140
1216.598207 0.8140 0.8140 0.8140 0.8140 0.8140
1219.843460 0.8130 0.8120 0.8120 0.8120 0.8120
1223.088714 0.8120 0.8120 0.8110 0.8110 0.8100
1226.333968 0.8100 0.8100 0.8100 0.8090 0.8080
1229.579222 0.8080 0.8080 0.8080 0.8080 0.8070
1232.824475 0.8070 0.8070 0.8060 0.8060 0.8060
1236.069729 0.8060 0.8060 0.8060 0.8060 0.8060
1239.314983 0.8060 0.8060 0.8050 0.8050 0.8050
1242.560236 0.8050 0.8050 0.8040 0.8040 0.8040
1245.805490 0.8030 0.8030 0.8030 0.8030 0.8030
1249.050744 0.8020 0.8010 0.8010 0.7990 0.7990
1252.295998 0.7990 0.7990 0.7980 0.7970 0.7960
1255.541251 0.7940 0.7940 0.7930 0.7920 0.7900
1258.786505 0.7880 0.7860 0.7840 0.7820 0.7800
1262.031759 0.7780 0.7770 0.7750 0.7730 0.7700
1265.277012 0.7680 0.7670 0.7650 0.7630 0.7610
1268.522266 0.7590 0.7580 0.7560 0.7540 0.7520
1271.767520 0.7490 0.7470 0.7450 0.7410 0.7390
1275.012774 0.7360 0.7330 0.7300 0.7270 0.7230
1278.258027 0.7190 0.7150 0.7110 0.7060 0.7020
1281.503281 0.6960 0.6910 0.6690 0.6540 0.6360
1284.748535 0.6290 0.6220 0.6120 0.5970 0.5820
1287.993789 0.5660 0.5420 0.5130 0.4970 0.4850
1291.239042 0.4750 0.4650 0.4510 0.4410 0.4400
1294.484296 0.4380 0.4370 0.4360 0.4350 0.4330
1297.729550 0.4280 0.4240 0.4180 0.4100 0.3970
1300.974803 0.3570 0.3280 0.2880 0.2320 0.2120
1304.220057 0.1960 0.1840 0.1730 0.1630 0.1530
1307.465311 0.1410 0.1350 0.1340 0.1330 0.1330
1310.710565 0.1340 0.1490 0.1560 0.1610 0.1820
1313.955818 0.2030 0.2220 0.2380 0.2540 0.2630
1317.201072 0.2720 0.2920 0.2980 0.3080 0.3230
1320.446326 0.3390 0.3480 0.3610 0.3700 0.3730
1323.691579 0.3770 0.3790 0.3850 0.3860 0.3860
1326.936833 0.3860 0.3870 0.3870 0.3880 0.3880
1330.182087 0.3880 0.3890 0.3890 0.3900 0.3910
1333.427341 0.3930 0.3950 0.4000 0.4060 0.4110
1336.672594 0.4160 0.4200 0.4260 0.4320 0.4370
1339.917848 0.4480 0.4580 0.4670 0.4750 0.4820
1343.163102 0.4890 0.4950 0.5010 0.5060 0.5110
1346.408355 0.5140 0.5160 0.5200 0.5240 0.5280
1349.653609 0.5320 0.5370 0.5410 0.5450 0.5480
1352.898863 0.5510 0.5540 0.5550 0.5570 0.5590
1356.144117 0.5600 0.5610 0.5620 0.5630 0.5640
1359.389370 0.5640 0.5640 0.5650 0.5650 0.5660
1362.634624 0.5660 0.5660 0.5670 0.5670 0.5670
1365.879878 0.5670 0.5670 0.5670 0.5670 0.5660
1369.125131 0.5660 0.5650 0.5640 0.5620 0.5600
1372.370385 0.5570 0.5550 0.5520 0.5490 0.5460
1375.615639 0.5430 0.5390 0.5350 0.5300 0.5260
1378.860893 0.5210 0.5090 0.5030 0.4960 0.4890
1382.106146 0.4800 0.4720 0.4630 0.4530 0.4420
1385.351400 0.4310 0.4200 0.4110 0.4010 0.3810
1388.596654 0.3700 0.3570 0.3430 0.3230 0.3030
1391.841908 0.2890 0.2789 0.2560 0.2450 0.2280
1395.087161 0.2160 0.2020 0.1920 0.1550 0.1101
1398.332415 0.1020 0.0920 0.0820 0.0720 0.0610
1401.577669 0.0540 0.0500 0.0490 0.0480 0.0480
1404.822922 0.0490 0.0500 0.0500 0.0520 0.0540
1408.068176 0.0550 0.0590 0.0610 0.0630 0.0640
1411.313430 0.0660 0.0670 0.0680 0.0690 0.0700
1414.558684 0.0710 0.0720 0.0720 0.0740 0.0750
1417.803937 0.0760 0.0780 0.0790 0.0830 0.0850
1421.049191 0.0860 0.0870 0.0880 0.0880 0.0880
1424.294445 0.0880 0.0870 0.0840 0.0810 0.0790
1427.539698 0.0750 0.0710 0.0660 0.0590 0.0510
1430.784952 0.0400 0.0340 0.0290 0.0260 0.0230
1434.030206 0.0210 0.0200 0.0200 0.0200 0.0200
1437.275460 0.0210 0.0230 0.0310 0.0390 0.0480
1440.520713 0.0550 0.0650 0.0840 0.1010 0.1210
1443.765967 0.1320 0.1431 0.1671 0.1910 0.2140
1447.011221 0.2370 0.2470 0.2580 0.2740 0.3100
1450.256474 0.3370 0.3540 0.3750 0.3950 0.4100
1453.501728 0.4420 0.4480 0.4580 0.4720 0.4880
1456.746982 0.5000 0.5090 0.5180 0.5290 0.5430
1459.992236 0.5530 0.5630 0.5780 0.5880 0.6000
1463.237489 0.6110 0.6130 0.6190 0.6280 0.6350
1466.482743 0.6410 0.6440 0.6470 0.6520 0.6570
1469.727997 0.6620 0.6670 0.6710 0.6760 0.6800
1472.973251 0.6840 0.6880 0.6910 0.6940 0.6970
1476.218504 0.7000 0.7030 0.7060 0.7090 0.7110
1479.463758 0.7140 0.7160 0.7180 0.7210 0.7230
1482.709012 0.7260 0.7290 0.7310 0.7330 0.7360
1485.954265 0.7380 0.7400 0.7410 0.7440 0.7460
1489.199519 0.7470 0.7490 0.7510 0.7530 0.7550
1492.444773 0.7570 0.7580 0.7590 0.7600 0.7610
1495.690027 0.7630 0.7640 0.7650 0.7670 0.7680
1498.935280 0.7690 0.7710 0.7720 0.7720 0.7740
1502.180534 0.7760 0.7770 0.7790 0.7800 0.7820
1505.425788 0.7830 0.7850 0.7870 0.7880 0.7890
1508.671041 0.7900 0.7920 0.7940 0.7950 0.7960
1511.916295 0.7970 0.7970 0.7980 0.7980 0.7990
1515.161549 0.7990 0.7990 0.8000 0.8010 0.8020
1518.406803 0.8030 0.8040 0.8050 0.8060 0.8060
1521.652056 0.8070 0.8070 0.8080 0.8080 0.8080
1524.897310 0.8090 0.8100 0.8100 0.8100 0.8110
1528.142564 0.8110 0.8120 0.8120 0.8130 0.8140
1531.387817 0.8150 0.8160 0.8170 0.8180 0.8190
1534.633071 0.8190 0.8190 0.8200 0.8200 0.8210
1537.878325 0.8210 0.8210 0.8210 0.8220 0.8220
1541.123579 0.8230 0.8230 0.8230 0.8230 0.8230
1544.368832 0.8240 0.8240 0.8240 0.8240 0.8240
1547.614086 0.8240 0.8240 0.8240 0.8240 0.8250
1550.859340 0.8250 0.8260 0.8260 0.8260 0.8260
1554.104594 0.8260 0.8270 0.8270 0.8280 0.8280
1557.349847 0.8280 0.8280 0.8280 0.8290 0.8300
1560.595101 0.8300 0.8300 0.8300 0.8300 0.8300
1563.840355 0.8300 0.8300 0.8300 0.8300 0.8300
1567.085608 0.8300 0.8300 0.8300 0.8290 0.8290
1570.330862 0.8280 0.8280 0.8280 0.8270 0.8270
1573.576116 0.8260 0.8260 0.8260 0.8250 0.8240
1576.821370 0.8240 0.8240 0.8230 0.8210 0.8210
1580.066623 0.8210 0.8200 0.8190 0.8190 0.8180
1583.311877 0.8170 0.8170 0.8160 0.8150 0.8150
1586.557131 0.8140 0.8140 0.8130 0.8120 0.8110
1589.802384 0.8100 0.8100 0.8090 0.8080 0.8070
1593.047638 0.8060 0.8060 0.8050 0.8040 0.8030
1596.292892 0.8030 0.8010 0.8010 0.7990 0.7990
1599.538146 0.7970 0.7970 0.7960 0.7950 0.7940
1602.783399 0.7930 0.7920 0.7910 0.7900 0.7890
1606.028653 0.7880 0.7880 0.7870 0.7870 0.7860
1609.273907 0.7850 0.7840 0.7830 0.7820 0.7810
1612.519160 0.7800 0.7790 0.7780 0.7770 0.7760
1615.764414 0.7750 0.7740 0.7700 0.7690 0.7680
1619.009668 0.7670 0.7650 0.7640 0.7630 0.7610
1622.254922 0.7600 0.7590 0.7580 0.7570 0.7560
1625.500175 0.7560 0.7550 0.7550 0.7540 0.7540
1628.745429 0.7520 0.7520 0.7510 0.7500 0.7500
1631.990683 0.7490 0.7490 0.7490 0.7480 0.7470
1635.235936 0.7470 0.7470 0.7460 0.7460 0.7450
1638.481190 0.7450 0.7450 0.7450 0.7450 0.7450
1641.726444 0.7440 0.7440 0.7440 0.7430 0.7430
1644.971698 0.7430 0.7430 0.7420 0.7420 0.7410
1648.216951 0.7410 0.7410 0.7410 0.7410 0.7410
1651.462205 0.7410 0.7400 0.7400 0.7400 0.7400
1654.707459 0.7400 0.7400 0.7400 0.7400 0.7400
1657.952713 0.7400 0.7400 0.7400 0.7400 0.7400
1661.197966 0.7400 0.7400 0.7400 0.7400 0.7410
1664.443220 0.7410 0.7410 0.7410 0.7410 0.7410
1667.688474 0.7420 0.7430 0.7430 0.7450 0.7450
1670.933727 0.7460 0.7470 0.7480 0.7490 0.7490
1674.178981 0.7500 0.7520 0.7520 0.7540 0.7550
1677.424235 0.7560 0.7570 0.7580 0.7590 0.7610
1680.669489 0.7620 0.7630 0.7650 0.7670 0.7680
1683.914742 0.7690 0.7700 0.7710 0.7720 0.7720
1687.159996 0.7730 0.7740 0.7740 0.7750 0.7760
1690.405250 0.7760 0.7770 0.7800 0.7820 0.7840
1693.650503 0.7850 0.7850 0.7870 0.7870 0.7870
1696.895757 0.7880 0.7880 0.7890 0.7900 0.7910
1700.141011 0.7920 0.7940 0.7960 0.7970 0.7980
1703.386265 0.7990 0.8000 0.8010 0.8020 0.8030
1706.631518 0.8040 0.8050 0.8060 0.8070 0.8080
1709.876772 0.8090 0.8100 0.8110 0.8120 0.8120
1713.122026 0.8130 0.8140 0.8150 0.8150 0.8150
1716.367279 0.8160 0.8170 0.8170 0.8170 0.8170
1719.612533 0.8170 0.8170 0.8170 0.8180 0.8190
1722.857787 0.8190 0.8190 0.8190 0.8200 0.8200
1726.103041 0.8210 0.8210 0.8210 0.8210 0.8220
1729.348294 0.8220 0.8220 0.8230 0.8230 0.8230
1732.593548 0.8230 0.8240 0.8240 0.8240 0.8250
1735.838802 0.8260 0.8260 0.8270 0.8290 0.8300
1739.084056 0.8300 0.8320 0.8320 0.8320 0.8320
1742.329309 0.8330 0.8330 0.8330 0.8330 0.8330
1745.574563 0.8340 0.8350 0.8350 0.8350 0.8360
1748.819817 0.8370 0.8370 0.8370 0.8380 0.8380
1752.065070 0.8390 0.8390 0.8390 0.8410 0.8410
1755.310324 0.8420 0.8430 0.8440 0.8440 0.8440
1758.555578 0.8440 0.8450 0.8450 0.8460 0.8460
1761.800832 0.8460 0.8490 0.8510 0.8530 0.8530
1765.046085 0.8540 0.8540 0.8550 0.8550 0.8560
1768.291339 0.8570 0.8570 0.8580 0.8600 0.8610
1771.536593 0.8620 0.8640 0.8640 0.8650 0.8660
1774.781846 0.8660 0.8670 0.8680 0.8680 0.8690
1778.027100 0.8700 0.8700 0.8710 0.8710 0.8720
1781.272354 0.8720 0.8730 0.8730 0.8730 0.8730
1784.517608 0.8730 0.8730 0.8740 0.8740 0.8740
1787.762861 0.8750 0.8750 0.8750 0.8750 0.8750
1791.008115 0.8750 0.8750 0.8750 0.8750 0.8760
1794.253369 0.8760 0.8760 0.8760 0.8760 0.8760
1797.498622 0.8760 0.8760 0.8760 0.8760 0.8770
1800.743876 0.8770 0.8770 0.8770 0.8770 0.8770
1803.989130 0.8770 0.8770 0.8770 0.8770 0.8770
1807.234384 0.8770 0.8770 0.8780 0.8780 0.8780
1810.479637 0.8780 0.8780 0.8780 0.8780 0.8780
1813.724891 0.8780 0.8780 0.8780 0.8780 0.8780
1816.970145 0.8780 0.8780 0.8780 0.8780 0.8780
1820.215398 0.8780 0.8780 0.8780 0.8780 0.8780
1823.460652 0.8780 0.8780 0.8780 0.8780 0.8780
1826.705906 0.8780 0.8780 0.8780 0.8780 0.8780
1829.951160 0.8780 0.8780 0.8780 0.8780 0.8790
1833.196413 0.8790 0.8790 0.8790 0.8790 0.8790
1836.441667 0.8790 0.8790 0.8790 0.8790 0.8790
1839.686921 0.8790 0.8790 0.8800 0.8800 0.8800
1842.932175 0.8800 0.8800 0.8800 0.8800 0.8790
1846.177428 0.8790 0.8790 0.8790 0.8790 0.8790
1849.422682 0.8790 0.8790 0.8790 0.8790 0.8790
1852.667936 0.8790 0.8790 0.8790 0.8790 0.8790
1855.913189 0.8790 0.8790 0.8790 0.8790 0.8790
1859.158443 0.8790 0.8790 0.8780 0.8780 0.8780
1862.403697 0.8770 0.8770 0.8770 0.8770 0.8770
1865.648951 0.8770 0.8770 0.8770 0.8770 0.8770
1868.894204 0.8770 0.8770 0.8770 0.8770 0.8770
1872.139458 0.8770 0.8770 0.8760 0.8760 0.8760
1875.384712 0.8760 0.8760 0.8760 0.8760 0.8760
1878.629965 0.8750 0.8750 0.8750 0.8750 0.8740
1881.875219 0.8740 0.8730 0.8730 0.8730 0.8720
1885.120473 0.8720 0.8710 0.8710 0.8710 0.8700
1888.365727 0.8700 0.8700 0.8700 0.8690 0.8690
1891.610980 0.8680 0.8680 0.8680 0.8670 0.8670
1894.856234 0.8670 0.8660 0.8640 0.8630 0.8620
1898.101488 0.8610 0.8590 0.8590 0.8590 0.8580
1901.346741 0.8570 0.8570 0.8570 0.8560 0.8550
1904.591995 0.8550 0.8530 0.8520 0.8510 0.8500
1907.837249 0.8500 0.8490 0.8480 0.8470 0.8450
1911.082503 0.8440 0.8440 0.8430 0.8430 0.8430
1914.327756 0.8440 0.8440 0.8440 0.8440 0.8460
1917.573010 0.8460 0.8460 0.8470 0.8470 0.8480
1920.818264 0.8490 0.8500 0.8510 0.8520 0.8520
1924.063518 0.8530 0.8530 0.8530 0.8530 0.8540
1927.308771 0.8540 0.8550 0.8550 0.8550 0.8550
1930.554025 0.8570 0.8570 0.8580 0.8580 0.8590
1933.799279 0.8590 0.8590 0.8580 0.8580 0.8570
1937.044532 0.8570 0.8570 0.8550 0.8550 0.8540
1940.289786 0.8540 0.8530 0.8530 0.8510 0.8500
1943.535040 0.8480 0.8470 0.8450 0.8420 0.8410
1946.780294 0.8380 0.8360 0.8330 0.8310 0.8290
1950.025547 0.8260 0.8240 0.8210 0.8170 0.8130
1953.270801 0.8120 0.8090 0.8080 0.8070 0.8070
1956.516055 0.8060 0.8050 0.8030 0.8020 0.8000
1959.761308 0.7990 0.7900 0.7880 0.7790 0.7780
1963.006562 0.7810 0.7910 0.7950 0.8000 0.8010
1966.251816 0.8030 0.8030 0.8030 0.8030 0.8030
1969.497070 0.8030 0.8030 0.8030 0.8030 0.8020
1972.742323 0.8020 0.8010 0.8010 0.8000 0.7990
1975.987577 0.7980 0.7970 0.7960 0.7950 0.7940
1979.232831 0.7920 0.7910 0.7890 0.7870 0.7830
1982.478084 0.7800 0.7770 0.7740 0.7690 0.7660
1985.723338 0.7640 0.7640 0.7620 0.7610 0.7590
1988.968592 0.7580 0.7560 0.7550 0.7530 0.7520
1992.213846 0.7500 0.7500 0.7490 0.7470 0.7460
1995.459099 0.7450 0.7430 0.7430 0.7410 0.7410
1998.704353 0.7400 0.7400 0.7390 0.7390 0.7390
2001.949607 0.7390 0.7390 0.7390 0.7390 0.7390
2005.194860 0.7390 0.7390 0.7390 0.7390 0.7390
2008.440114 0.7390 0.7390 0.7390 0.7391 0.7393
2011.685368 0.7396 0.7399 0.7400 0.7400 0.7400
2014.930622 0.7400 0.7400 0.7400 0.7400 0.7400
2018.175875 0.7401 0.7404 0.7407 0.7409 0.7410
2021.421129 0.7410 0.7410 0.7410 0.7410 0.7410
2024.666383 0.7410 0.7410 0.7412 0.7415 0.7417
2027.911637 0.7420 0.7420 0.7420 0.7420 0.7420
2031.156890 0.7423 0.7425 0.7428 0.7430 0.7433
2034.402144 0.7435 0.7438 0.7441 0.7443 0.7446
2037.647398 0.7448 0.7451 0.7453 0.7456 0.7458
2040.892651 0.7462 0.7467 0.7472 0.7477 0.7482
2044.137905 0.7487 0.7492 0.7498 0.7503 0.7508
2047.383159 0.7513 0.7518 0.7522 0.7524 0.7527
2050.628413 0.7529 0.7532 0.7534 0.7537 0.7540
2053.873666 0.7548 0.7559 0.7569 0.7579 0.7585
2057.118920 0.7590 0.7595 0.7600 0.7608 0.7615
2060.364174 0.7623 0.7630 0.7635 0.7641 0.7646
2063.609427 0.7651 0.7659 0.7666 0.7674 0.7681
2066.854681 0.7686 0.7691 0.7697 0.7702 0.7707
2070.099935 0.7712 0.7717 0.7721 0.7724 0.7726
2073.345189 0.7729 0.7734 0.7742 0.7749 0.7757
2076.590442 0.7765 0.7772 0.7780 0.7788 0.7794
2079.835696 0.7799 0.7804 0.7809 0.7816 0.7824
2083.080950 0.7831 0.7839 0.7847 0.7854 0.7862
2086.326203 0.7870 0.7875 0.7880 0.7885 0.7890
2089.571457 0.7898 0.7906 0.7913 0.7921 0.7926
2092.816711 0.7931 0.7936 0.7941 0.7949 0.7957
2096.061965 0.7964 0.7971 0.7976 0.7982 0.7987
2099.307218 0.7992 0.7997 0.8002 0.8007 0.8012
2102.552472 0.8018 0.8023 0.8028 0.8037 0.8050
2105.797726 0.8063 0.8076 0.8083 0.8088 0.8094
2109.042980 0.8099 0.8102 0.8104 0.8107 0.8110
2112.288233 0.8112 0.8115 0.8117 0.8120 0.8125
2115.533487 0.8130 0.8135 0.8140 0.8143 0.8145
2118.778741 0.8148 0.8150 0.8155 0.8161 0.8166
2122.023994 0.8171 0.8176 0.8181 0.8186 0.8191
2125.269248 0.8193 0.8196 0.8198 0.8201 0.8203
2128.514502 0.8206 0.8209 0.8212 0.8217 0.8222
2131.759756 0.8228 0.8233 0.8238 0.8243 0.8248
2135.005009 0.8255 0.8262 0.8270 0.8278 0.8284
2138.250263 0.8289 0.8294 0.8299 0.8304 0.8309
2141.495517 0.8314 0.8319 0.8322 0.8325 0.8327
2144.740770 0.8330 0.8335 0.8340 0.8345 0.8350
2147.986024 0.8353 0.8355 0.8358 0.8360 0.8363
2151.231278 0.8365 0.8368 0.8371 0.8373 0.8376
2154.476532 0.8378 0.8381 0.8383 0.8386 0.8388
2157.721785 0.8391 0.8394 0.8396 0.8399 0.8401
2160.967039 0.8404 0.8406 0.8409 0.8411 0.8414
2164.212293 0.8417 0.8419 0.8420 0.8420 0.8420
2167.457546 0.8420 0.8422 0.8424 0.8427 0.8430
2170.702800 0.8432 0.8435 0.8437 0.8440 0.8440
2173.948054 0.8440 0.8440 0.8440 0.8440 0.8440
2177.193308 0.8440 0.8440 0.8440 0.8440 0.8440
2180.438561 0.8440 0.8443 0.8446 0.8448 0.8450
2183.683815 0.8450 0.8450 0.8450 0.8450 0.8450
2186.929069 0.8450 0.8450 0.8450 0.8450 0.8450
2190.174323 0.8450 0.8450 0.8450 0.8450 0.8450
2193.419576 0.8450 0.8450 0.8450 0.8450 0.8448
2196.664830 0.8446 0.8443 0.8441 0.8440 0.8440
2199.910084 0.8440 0.8440 0.8436 0.8430 0.8425
2203.155337 0.8420 0.8413 0.8405 0.8397 0.8390
2206.400591 0.8385 0.8380 0.8374 0.8369 0.8358
2209.645845 0.8348 0.8338 0.8328 0.8321 0.8313
2212.891099 0.8305 0.8297 0.8287 0.8277 0.8266
2216.136352 0.8257 0.8249 0.8242 0.8234 0.8225
2219.381606 0.8215 0.8205 0.8195 0.8184 0.8174
2222.626860 0.8164 0.8154 0.8145 0.8138 0.8130
2225.872113 0.8122 0.8113 0.8102 0.8092 0.8082
2229.117367 0.8069 0.8057 0.8044 0.8031 0.8021
2232.362621 0.8010 0.8000 0.7990 0.7982 0.7975
2235.607875 0.7967 0.7960 0.7960 0.7960 0.7960
2238.853128 0.7960 0.7957 0.7954 0.7952 0.7951
2242.098382 0.7953 0.7956 0.7958 0.7960 0.7960
2245.343636 0.7960 0.7960 0.7968 0.7989 0.8009
2248.588889 0.8030 0.8054 0.8082 0.8110 0.8138
2251.834143 0.8162 0.8183 0.8203 0.8224 0.8232
2255.079397 0.8234 0.8237 0.8239 0.8238 0.8235
2258.324651 0.8233 0.8230 0.8230 0.8230 0.8230
2261.569904 0.8230 0.8225 0.8220 0.8215 0.8210
2264.815158 0.8205 0.8200 0.8194 0.8188 0.8176
2268.060412 0.8163 0.8150 0.8137 0.8125 0.8112
2271.305665 0.8099 0.8086 0.8070 0.8055 0.8040
2274.550919 0.8024 0.8009 0.7994 0.7978 0.7964
2277.796173 0.7951 0.7938 0.7925 0.7917 0.7912
2281.041427 0.7907 0.7902 0.7900 0.7900 0.7900
2284.286680 0.7900 0.7900 0.7900 0.7900 0.7900
2287.531934 0.7902 0.7905 0.7907 0.7910 0.7926
2290.777188 0.7944 0.7962 0.7980 0.8008 0.8036
2294.022442 0.8064 0.8091 0.8104 0.8116 0.8129
2297.267695 0.8142 0.8152 0.8162 0.8172 0.8181
2300.512949 0.8183 0.8186 0.8188 0.8190 0.8190
2303.758203 0.8190 0.8190 0.8189 0.8186 0.8184
2307.003456 0.8181 0.8179 0.8176 0.8174 0.8171
2310.248710 0.8162 0.8149 0.8137 0.8124 0.8113
2313.493964 0.8103 0.8092 0.8082 0.8072 0.8062
2316.739218 0.8052 0.8041 0.8033 0.8026 0.8018
2319.984471 0.8010 0.8005 0.8000 0.7995 0.7990
2323.229725 0.7982 0.7974 0.7967 0.7959 0.7954
2326.474979 0.7949 0.7944 0.7938 0.7928 0.7917
2329.720232 0.7907 0.7896 0.7883 0.7870 0.7858
2332.965486 0.7846 0.7836 0.7825 0.7815 0.7805
2336.210740 0.7795 0.7785 0.7774 0.7766 0.7758
2339.455994 0.7750 0.7743 0.7733 0.7723 0.7713
2342.701247 0.7703 0.7696 0.7691 0.7686 0.7681
2345.946501 0.7678 0.7675 0.7673 0.7670 0.7668
2349.191755 0.7665 0.7663 0.7660 0.7658 0.7655
2352.437008 0.7652 0.7650 0.7650 0.7650 0.7650
2355.682262 0.7650 0.7650 0.7650 0.7650 0.7649
2358.927516 0.7647 0.7644 0.7642 0.7640 0.7640
2362.172770 0.7640 0.7640 0.7640 0.7640 0.7640
2365.418023 0.7640 0.7640 0.7640 0.7640 0.7640
2368.663277 0.7642 0.7644 0.7647 0.7649 0.7650
2371.908531 0.7650 0.7650 0.7650 0.7652 0.7655
2375.153785 0.7657 0.7660 0.7662 0.7665 0.7667
2378.399038 0.7670 0.7677 0.7685 0.7693 0.7701
2381.644292 0.7708 0.7716 0.7723 0.7735 0.7771
2384.889546 0.7807 0.7843 0.7880 0.7923 0.7967
2388.134799 0.8010 0.8050 0.8084 0.8117 0.8150
2391.380053 0.8174 0.8184 0.8194 0.8205 0.8217
2394.625307 0.8233 0.8248 0.8263 0.8279 0.8294
2397.870561 0.8309 0.8325 0.8340 0.8355 0.8370
2401.115814 0.8386 0.8397 0.8408 0.8418 0.8428
2404.361068 0.8440 0.8453 0.8466 0.8479 0.8487
2407.606322 0.8495 0.8502 0.8510 0.8518 0.8525
2410.851575 0.8533 0.8541 0.8546 0.8551 0.8556
2414.096829 0.8560 0.8563 0.8566 0.8568 0.8571
2417.342083 0.8573 0.8576 0.8578 0.8581 0.8583
2420.587337 0.8586 0.8589 0.8590 0.8590 0.8590
2423.832590 0.8590 0.8590 0.8590 0.8590 0.8590
2427.077844 0.8588 0.8586 0.8583 0.8581 0.8580
2430.323098 0.8580 0.8580 0.8580 0.8578 0.8575
2433.568351 0.8573 0.8570 0.8570 0.8570 0.8570
2436.813605 0.8570 0.8568 0.8565 0.8562 0.8560
2440.058859 0.8557 0.8555 0.8552 0.8550 0.8550
2443.304113 0.8550 0.8550 0.8549 0.8544 0.8539
2446.549366 0.8534 0.8529 0.8527 0.8524 0.8522
2449.794620 0.8519 0.8516 0.8514 0.8511 0.8509
2453.039874 0.8506 0.8504 0.8501 0.8500 0.8500
2456.285127 0.8500 0.8500 0.8498 0.8496 0.8493
2459.530381 0.8491 0.8490 0.8490 0.8490 0.8490
2462.775635 0.8490 0.8490 0.8490 0.8490 0.8492
2466.020889 0.8495 0.8497 0.8500 0.8500 0.8500
2469.266142 0.8500 0.8500 0.8503 0.8505 0.8508
2472.511396 0.8510 0.8513 0.8516 0.8518 0.8522
2475.756650 0.8530 0.8537 0.8545 0.8551 0.8553
2479.001904 0.8556 0.8559 0.8561 0.8564 0.8566
2482.247157 0.8569 0.8573 0.8578 0.8583 0.8588
2485.492411 0.8592 0.8594 0.8597 0.8599 0.8604
2488.737665 0.8609 0.8614 0.8619 0.8620 0.8620
2491.982918 0.8620 0.8620 0.8624 0.8630 0.8635
2495.228172 0.8640 0.8645 0.8650 0.8655 0.8660
2498.473426 0.8665 0.8670 0.8676 0.8680 0.8683
2501.718680 0.8685 0.8688 0.8691 0.8693 0.8696
2504.963933 0.8698 0.8701 0.8703 0.8706 0.8709
2508.209187 0.8712 0.8717 0.8722 0.8727 0.8730
2511.454441 0.8730 0.8730 0.8730 0.8733 0.8738
2514.699694 0.8743 0.8748 0.8750 0.8750 0.8750
2517.944948 0.8750 0.8752 0.8754 0.8757 0.8760
2521.190202 0.8762 0.8765 0.8767 0.8770 0.8770
2524.435456 0.8770 0.8770 0.8770 0.8770 0.8770
2527.680709 0.8770 0.8770 0.8770 0.8770 0.8770
2530.925963 0.8770 0.8770 0.8770 0.8770 0.8770
2534.171217 0.8770 0.8770 0.8770 0.8770 0.8770
2537.416470 0.8770 0.8770 0.8770 0.8770 0.8770
2540.661724 0.8770 0.8770 0.8770 0.8770 0.8770
2543.906978 0.8768 0.8766 0.8763 0.8761 0.8758
2547.152232 0.8756 0.8753 0.8751 0.8750 0.8750
2550.397485 0.8750 0.8750 0.8750 0.8750 0.8750
2553.642739 0.8750 0.8750 0.8750 0.8750 0.8750
2556.887993 0.8745 0.8740 0.8734 0.8730 0.8727
2560.133247 0.8724 0.8722 0.8719 0.8714 0.8709
2563.378500 0.8703 0.8697 0.8686 0.8676 0.8666
2566.623754 0.8655 0.8642 0.8629 0.8617 0.8602
2569.869008 0.8587 0.8572 0.8557 0.8543 0.8530
2573.114261 0.8517 0.8504 0.8490 0.8475 0.8459
2576.359515 0.8444 0.8429 0.8413 0.8398 0.8383
2579.604769 0.8370 0.8357 0.8344 0.8331 0.8318
2582.850023 0.8305 0.8293 0.8280 0.8272 0.8264
2586.095276 0.8257 0.8249 0.8244 0.8239 0.8234
2589.340530 0.8228 0.8218 0.8208 0.8197 0.8189
2592.585784 0.8187 0.8184 0.8182 0.8179 0.8177
2595.831037 0.8174 0.8171 0.8171 0.8174 0.8176
2599.076291 0.8179 0.8181 0.8184 0.8186 0.8189
2602.321545 0.8192 0.8194 0.8197 0.8199 0.8207
2605.566799 0.8217 0.8227 0.8238 0.8246 0.8254
2608.812052 0.8261 0.8269 0.8277 0.8285 0.8292
2612.057306 0.8300 0.8303 0.8305 0.8308 0.8310
2615.302560 0.8313 0.8315 0.8318 0.8320 0.8323
2618.547813 0.8325 0.8328 0.8330 0.8330 0.8330
2621.793067 0.8330 0.8331 0.8333 0.8336 0.8338
2625.038321 0.8341 0.8344 0.8346 0.8349 0.8351
2628.283575 0.8354 0.8356 0.8359 0.8361 0.8364
2631.528828 0.8367 0.8369 0.8373 0.8378 0.8384
2634.774082 0.8389 0.8392 0.8395 0.8397 0.8400
2638.019336 0.8404 0.8409 0.8415 0.8420 0.8422
2641.264589 0.8425 0.8428 0.8430 0.8433 0.8435
2644.509843 0.8438 0.8440 0.8440 0.8440 0.8440
2647.755097 0.8440 0.8443 0.8446 0.8448 0.8450
2651.000351 0.8450 0.8450 0.8450 0.8451 0.8453
2654.245604 0.8456 0.8459 0.8462 0.8467 0.8472
2657.490858 0.8478 0.8481 0.8484 0.8487 0.8489
2660.736112 0.8492 0.8494 0.8497 0.8499 0.8500
2663.981366 0.8500 0.8500 0.8500 0.8500 0.8500
2667.226619 0.8500 0.8500 0.8500 0.8500 0.8500
2670.471873 0.8500 0.8502 0.8505 0.8508 0.8510
2673.717127 0.8510 0.8510 0.8510 0.8510 0.8507
2676.962380 0.8505 0.8502 0.8500 0.8500 0.8500
2680.207634 0.8500 0.8498 0.8493 0.8488 0.8483
2683.452888 0.8480 0.8480 0.8480 0.8480 0.8477
2686.698142 0.8472 0.8467 0.8462 0.8455 0.8448
2689.943395 0.8440 0.8432 0.8427 0.8421 0.8416
2693.188649 0.8411 0.8406 0.8401 0.8396 0.8391
2696.433903 0.8388 0.8385 0.8383 0.8380 0.8378
2699.679156 0.8375 0.8373 0.8370 0.8367 0.8365
2702.924410 0.8362 0.8360 0.8357 0.8355 0.8352
2706.169664 0.8350 0.8350 0.8350 0.8350 0.8349
2709.414918 0.8347 0.8344 0.8342 0.8340 0.8340
2712.660171 0.8340 0.8340 0.8339 0.8336 0.8334
2715.905425 0.8331 0.8330 0.8330 0.8330 0.8330
2719.150679 0.8330 0.8330 0.8330 0.8330 0.8330
2722.395932 0.8330 0.8330 0.8330 0.8328 0.8325
2725.641186 0.8323 0.8320 0.8320 0.8320 0.8320
2728.886440 0.8320 0.8320 0.8320 0.8320 0.8320
2732.131694 0.8320 0.8320 0.8320 0.8320 0.8320
2735.376947 0.8320 0.8320 0.8319 0.8314 0.8308
2738.622201 0.8303 0.8300 0.8300 0.8300 0.8300
2741.867455 0.8299 0.8296 0.8294 0.8291 0.8289
2745.112709 0.8286 0.8284 0.8281 0.8277 0.8272
2748.357962 0.8267 0.8262 0.8260 0.8260 0.8260
2751.603216 0.8260 0.8256 0.8251 0.8246 0.8241
2754.848470 0.8238 0.8235 0.8233 0.8230 0.8225
2758.093723 0.8220 0.8215 0.8210 0.8202 0.8195
2761.338977 0.8187 0.8179 0.8171 0.8164 0.8156
2764.584231 0.8149 0.8144 0.8139 0.8134 0.8128
2767.829485 0.8120 0.8112 0.8105 0.8098 0.8093
2771.074738 0.8088 0.8083 0.8078 0.8073 0.8067
2774.319992 0.8062 0.8056 0.8048 0.8041 0.8033
2777.565246 0.8027 0.8022 0.8017 0.8012 0.8003
2780.810499 0.7993 0.7982 0.7972 0.7962 0.7952
2784.055753 0.7942 0.7931 0.7919 0.7906 0.7893
2787.301007 0.7880 0.7862 0.7844 0.7826 0.7807
2790.546261 0.7766 0.7725 0.7684 0.7645 0.7617
2793.791514 0.7589 0.7561 0.7533 0.7502 0.7471
2797.036768 0.7441 0.7408 0.7373 0.7337 0.7301
2800.282022 0.7263 0.7222 0.7182 0.7141 0.7097
2803.527275 0.7052 0.7006 0.6960 0.6909 0.6856
2806.772529 0.6802 0.6749 0.6665 0.6565 0.6466
2810.017783 0.6366 0.6330 0.6318 0.6305 0.6292
2813.263037 0.6288 0.6285 0.6283 0.6280 0.6275
2816.508290 0.6270 0.6265 0.6260 0.6255 0.6250
2819.753544 0.6245 0.6240 0.6240 0.6240 0.6240
2822.998798 0.6239 0.6237 0.6234 0.6232 0.6229
2826.244052 0.6227 0.6224 0.6222 0.6219 0.6217
2829.489305 0.6214 0.6211 0.6209 0.6206 0.6204
2832.734559 0.6201 0.6200 0.6200 0.6200 0.6200
2835.979813 0.6198 0.6196 0.6193 0.6191 0.6186
2839.225066 0.6181 0.6176 0.6171 0.6164 0.6156
2842.470320 0.6148 0.6141 0.6133 0.6125 0.6118
2845.715574 0.6110 0.6102 0.6095 0.6087 0.6079
2848.960828 0.6072 0.6064 0.6057 0.6048 0.6038
2852.206081 0.6028 0.6018 0.6007 0.5994 0.5981
2855.451335 0.5969 0.5955 0.5940 0.5925 0.5909
2858.696589 0.5894 0.5879 0.5863 0.5848 0.5831
2861.941842 0.5813 0.5795 0.5777 0.5758 0.5737
2865.187096 0.5717 0.5696 0.5676 0.5655 0.5635
2868.432350 0.5615 0.5588 0.5560 0.5532 0.5504
2871.677604 0.5476 0.5448 0.5420 0.5392 0.5330
2874.922857 0.5266 0.5202 0.5139 0.5101 0.5063
2878.168111 0.5024 0.4984 0.4925 0.4866 0.4808
2881.413365 0.4748 0.4684 0.4621 0.4557 0.4492
2884.658618 0.4426 0.4359 0.4293 0.4199 0.4055
2887.903872 0.3910 0.3765 0.3652 0.3573 0.3494
2891.149126 0.3414 0.3332 0.3248 0.3164 0.3080
2894.394380 0.2933 0.2752 0.2570 0.2389 0.2266
2897.639633 0.2164 0.2061 0.1959 0.1777 0.1575
2900.884887 0.1373 0.1172 0.1148 0.1145 0.1143
2904.130141 0.1140 0.1142 0.1145 0.1148 0.1153
2907.375394 0.1209 0.1265 0.1322 0.1378 0.1434
2910.620648 0.1490 0.1546 0.1603 0.1663 0.1722
2913.865902 0.1782 0.1849 0.1930 0.2012 0.2094
2917.111156 0.2169 0.2235 0.2302 0.2368 0.2432
2920.356409 0.2493 0.2554 0.2615 0.2736 0.2897
2923.601663 0.3058 0.3219 0.3369 0.3515 0.3660
2926.846917 0.3806 0.3879 0.3930 0.3981 0.4032
2930.092171 0.4083 0.4134 0.4185 0.4236 0.4283
2933.337424 0.4329 0.4374 0.4420 0.4472 0.4523
2936.582678 0.4574 0.4620 0.4626 0.4631 0.4636
2939.827932 0.4641 0.4646 0.4651 0.4656 0.4660
2943.073185 0.4660 0.4660 0.4660 0.4659 0.4656
2946.318439 0.4654 0.4651 0.4650 0.4650 0.4650
2949.563693 0.4650 0.4630 0.4595 0.4559 0.4523
2952.808947 0.4500 0.4485 0.4470 0.4454 0.4415
2956.054200 0.4367 0.4318 0.4270 0.4164 0.4044
2959.299454 0.3924 0.3804 0.3732 0.3665 0.3599
2962.544708 0.3533 0.3463 0.3393 0.3323 0.3253
2965.789961 0.3179 0.3105 0.3031 0.2944 0.2799
2969.035215 0.2653 0.2508 0.2381 0.2310 0.2239
2972.280469 0.2167 0.2096 0.2028 0.1959 0.1890
2975.525723 0.1823 0.1759 0.1695 0.1632 0.1545
2978.770976 0.1435 0.1325 0.1215 0.1143 0.1097
2982.016230 0.1051 0.1005 0.0964 0.0926 0.0888
2985.261484 0.0850 0.0836 0.0831 0.0826 0.0821
2988.506737 0.0818 0.0815 0.0813 0.0810 0.0812
2991.751991 0.0815 0.0818 0.0823 0.0876 0.0930
2994.997245 0.0983 0.1036 0.1085 0.1133 0.1182
2998.242499 0.1245 0.1365 0.1485 0.1605 0.1725
3001.487752 0.1845 0.1965 0.2085 0.2199 0.2304
3004.733006 0.2409 0.2513 0.2617 0.2719 0.2821
3007.978260 0.2923 0.3043 0.3178 0.3314 0.3449
3011.223514 0.3554 0.3641 0.3728 0.3814 0.3860
3014.468767 0.3888 0.3917 0.3945 0.3973 0.4002
3017.714021 0.4030 0.4058 0.4105 0.4153 0.4202
3020.959275 0.4250 0.4306 0.4362 0.4418 0.4473
3024.204528 0.4511 0.4550 0.4588 0.4626 0.4665
3027.449782 0.4703 0.4741 0.4778 0.4811 0.4845
3030.695036 0.4878 0.4912 0.4947 0.4983 0.5019
3033.940290 0.5047 0.5065 0.5083 0.5101 0.5119
3037.185543 0.5137 0.5155 0.5172 0.5196 0.5225
3040.430797 0.5253 0.5282 0.5312 0.5342 0.5373
3043.676051 0.5404 0.5432 0.5460 0.5488 0.5516
3046.921304 0.5540 0.5563 0.5586 0.5609 0.5625
3050.166558 0.5640 0.5655 0.5671 0.5686 0.5701
3053.411812 0.5716 0.5732 0.5747 0.5762 0.5778
3056.657066 0.5793 0.5805 0.5818 0.5831 0.5844
3059.902319 0.5860 0.5875 0.5890 0.5906 0.5924
3063.147573 0.5942 0.5960 0.5976 0.5989 0.6002
3066.392827 0.6015 0.6029 0.6044 0.6059 0.6075
3069.638080 0.6090 0.6105 0.6121 0.6136 0.6151
3072.883334 0.6167 0.6182 0.6197 0.6213 0.6228
3076.128588 0.6243 0.6259 0.6272 0.6284 0.6297
3079.373842 0.6310 0.6325 0.6340 0.6356 0.6371
3082.619095 0.6384 0.6396 0.6409 0.6421 0.6429
3085.864349 0.6436 0.6444 0.6452 0.6459 0.6467
3089.109603 0.6475 0.6484 0.6497 0.6510 0.6523
3092.354856 0.6536 0.6549 0.6561 0.6574 0.6585
3095.600110 0.6596 0.6606 0.6616 0.6631 0.6649
3098.845364 0.6667 0.6685 0.6701 0.6716 0.6731
3102.090618 0.6747 0.6762 0.6777 0.6793 0.6808
3105.335871 0.6819 0.6829 0.6839 0.6849 0.6864
3108.581125 0.6880 0.6895 0.6910 0.6920 0.6931
3111.826379 0.6941 0.6951 0.6964 0.6977 0.6990
3115.071633 0.7002 0.7015 0.7028 0.7041 0.7056
3118.316886 0.7074 0.7091 0.7109 0.7126 0.7141
3121.562140 0.7157 0.7172 0.7191 0.7214 0.7237
3124.807394 0.7260 0.7282 0.7302 0.7322 0.7343
3128.052647 0.7358 0.7371 0.7384 0.7397 0.7406
3131.297901 0.7413 0.7421 0.7429 0.7440 0.7453
3134.543155 0.7466 0.7479 0.7489 0.7499 0.7510
3137.788409 0.7520 0.7530 0.7540 0.7550 0.7560
3141.033662 0.7568 0.7576 0.7584 0.7592 0.7602
3144.278916 0.7612 0.7623 0.7633 0.7643 0.7653
3147.524170 0.7663 0.7672 0.7677 0.7682 0.7687
3150.769423 0.7691 0.7694 0.7696 0.7699 0.7703
3154.014677 0.7708 0.7713 0.7718 0.7723 0.7728
3157.259931 0.7733 0.7738 0.7745 0.7753 0.7761
3160.505185 0.7768 0.7778 0.7788 0.7798 0.7808
3163.750438 0.7814 0.7819 0.7825 0.7830 0.7837
3166.995692 0.7845 0.7853 0.7860 0.7863 0.7865
3170.240946 0.7868 0.7870 0.7873 0.7875 0.7878
3173.486199 0.7881 0.7883 0.7886 0.7888 0.7891
3176.731453 0.7893 0.7896 0.7898 0.7900 0.7900
3179.976707 0.7900 0.7900 0.7901 0.7904 0.7906
3183.221961 0.7909 0.7910 0.7910 0.7910 0.7910
3186.467214 0.7910 0.7910 0.7910 0.7910 0.7910
3189.712468 0.7910 0.7910 0.7910 0.7910 0.7910
3192.957722 0.7910 0.7910 0.7910 0.7910 0.7910
3196.202976 0.7910 0.7907 0.7905 0.7902 0.7900
3199.448229 0.7900 0.7900 0.7900 0.7900 0.7897
3202.693483 0.7894 0.7892 0.7889 0.7887 0.7884
3205.938737 0.7882 0.7877 0.7870 0.7862 0.7854
3209.183990 0.7846 0.7835 0.7825 0.7815 0.7807
3212.429244 0.7802 0.7797 0.7792 0.7789 0.7786
3215.674498 0.7783 0.7781 0.7778 0.7776 0.7773
3218.919752 0.7771 0.7770 0.7770 0.7770 0.7770
3222.165005 0.7770 0.7770 0.7770 0.7770 0.7770
3225.410259 0.7770 0.7770 0.7770 0.7770 0.7770
3228.655513 0.7770 0.7770 0.7770 0.7770 0.7770
3231.900766 0.7770 0.7770 0.7770 0.7770 0.7770
3235.146020 0.7770 0.7770 0.7770 0.7770 0.7770
3238.391274 0.7770 0.7770 0.7769 0.7766 0.7764
3241.636528 0.7761 0.7753 0.7740 0.7727 0.7714
3244.881781 0.7708 0.7706 0.7703 0.7701 0.7700
3248.127035 0.7700 0.7700 0.7700 0.7702 0.7705
3251.372289 0.7707 0.7710 0.7715 0.7720 0.7725
3254.617542 0.7730 0.7733 0.7735 0.7738 0.7741
3257.862796 0.7748 0.7756 0.7764 0.7772 0.7782
3261.108050 0.7792 0.7802 0.7811 0.7816 0.7821
3264.353304 0.7827 0.7834 0.7847 0.7860 0.7872
3267.598557 0.7881 0.7884 0.7886 0.7889 0.7890
3270.843811 0.7890 0.7890 0.7890 0.7888 0.7886
3274.089065 0.7883 0.7881 0.7880 0.7880 0.7880
3277.334318 0.7880 0.7874 0.7866 0.7859 0.7851
3280.579572 0.7837 0.7821 0.7806 0.7791 0.7763
3283.824826 0.7735 0.7707 0.7679 0.7664 0.7649
3287.070080 0.7633 0.7618 0.7606 0.7593 0.7580
3290.315333 0.7567 0.7555 0.7542 0.7529 0.7516
3293.560587 0.7503 0.7490 0.7478 0.7464 0.7448
3296.805841 0.7433 0.7418 0.7409 0.7406 0.7404
3300.051095 0.7401 0.7400 0.7400 0.7400 0.7400
3303.296348 0.7400 0.7400 0.7400 0.7400 0.7402
3306.541602 0.7404 0.7407 0.7410 0.7414 0.7419
3309.786856 0.7424 0.7430 0.7437 0.7445 0.7452
3313.032109 0.7460 0.7468 0.7475 0.7483 0.7490
3316.277363 0.7495 0.7501 0.7506 0.7511 0.7516
3319.522617 0.7521 0.7526 0.7532 0.7540 0.7548
3322.767871 0.7555 0.7562 0.7567 0.7572 0.7577
3326.013124 0.7583 0.7591 0.7599 0.7606 0.7613
3329.258378 0.7618 0.7623 0.7628 0.7636 0.7646
3332.503632 0.7657 0.7667 0.7674 0.7679 0.7684
3335.748885 0.7689 0.7694 0.7699 0.7704 0.7709
3338.994139 0.7712 0.7715 0.7717 0.7720 0.7730
3342.239393 0.7740 0.7750 0.7760 0.7768 0.7776
3345.484647 0.7783 0.7790 0.7790 0.7790 0.7790
3348.729900 0.7791 0.7793 0.7796 0.7798 0.7801
3351.975154 0.7803 0.7806 0.7808 0.7811 0.7814
3355.220408 0.7816 0.7819 0.7820 0.7820 0.7820
3358.465661 0.7820 0.7798 0.7760 0.7722 0.7683
3361.710915 0.7660 0.7645 0.7629 0.7614 0.7601
3364.956169 0.7588 0.7575 0.7562 0.7556 0.7551
3368.201423 0.7546 0.7541 0.7535 0.7530 0.7525
3371.446676 0.7520 0.7515 0.7510 0.7505 0.7499
3374.691930 0.7486 0.7473 0.7460 0.7449 0.7441
3377.937184 0.7433 0.7426 0.7419 0.7417 0.7414
3381.182438 0.7412 0.7409 0.7407 0.7404 0.7401
3384.427691 0.7400 0.7400 0.7400 0.7400 0.7400
3387.672945 0.7400 0.7400 0.7400 0.7400 0.7400
3390.918199 0.7400 0.7400 0.7398 0.7396 0.7393
3394.163452 0.7391 0.7388 0.7385 0.7383 0.7380
3397.408706 0.7380 0.7380 0.7380 0.7380 0.7375
3400.653960 0.7370 0.7365 0.7360 0.7360 0.7360
3403.899214 0.7360 0.7359 0.7354 0.7349 0.7344
3407.144467 0.7339 0.7334 0.7329 0.7324 0.7319
3410.389721 0.7317 0.7314 0.7312 0.7308 0.7303
3413.634975 0.7298 0.7293 0.7289 0.7286 0.7284
3416.880228 0.7281 0.7277 0.7272 0.7267 0.7262
3420.125482 0.7257 0.7252 0.7246 0.7241 0.7240
3423.370736 0.7240 0.7240 0.7240 0.7238 0.7235
3426.615990 0.7233 0.7230 0.7228 0.7225 0.7223
3429.861243 0.7220 0.7220 0.7220 0.7220 0.7220
3433.106497 0.7220 0.7220 0.7220 0.7220 0.7220
3436.351751 0.7220 0.7220 0.7220 0.7220 0.7220
3439.597004 0.7220 0.7219 0.7217 0.7214 0.7211
3442.842258 0.7210 0.7210 0.7210 0.7210 0.7210
3446.087512 0.7210 0.7210 0.7210 0.7212 0.7214
3449.332766 0.7217 0.7219 0.7220 0.7220 0.7220
3452.578019 0.7220 0.7220 0.7220 0.7220 0.7220
3455.823273 0.7220 0.7220 0.7220 0.7220 0.7222
3459.068527 0.7225 0.7228 0.7230 0.7230 0.7230
3462.313781 0.7230 0.7230 0.7230 0.7230 0.7230
3465.559034 0.7230 0.7230 0.7230 0.7230 0.7231
3468.804288 0.7233 0.7236 0.7238 0.7240 0.7240
3472.049542 0.7240 0.7240 0.7241 0.7244 0.7246
3475.294795 0.7249 0.7250 0.7250 0.7250 0.7250
3478.540049 0.7250 0.7250 0.7250 0.7250 0.7252
3481.785303 0.7254 0.7257 0.7260 0.7260 0.7260
3485.030557 0.7260 0.7260 0.7262 0.7265 0.7267
3488.275810 0.7270 0.7270 0.7270 0.7270 0.7270
3491.521064 0.7273 0.7275 0.7278 0.7280 0.7283
3494.766318 0.7286 0.7288 0.7290 0.7290 0.7290
3498.011571 0.7290 0.7291 0.7294 0.7296 0.7299
3501.256825 0.7301 0.7304 0.7306 0.7309 0.7311
3504.502079 0.7314 0.7317 0.7319 0.7323 0.7328
3507.747333 0.7333 0.7339 0.7345 0.7353 0.7361
3510.992586 0.7368 0.7376 0.7384 0.7391 0.7399
3514.237840 0.7404 0.7410 0.7415 0.7420 0.7427
3517.483094 0.7435 0.7443 0.7450 0.7461 0.7471
3520.728347 0.7481 0.7491 0.7499 0.7506 0.7514
3523.973601 0.7523 0.7533 0.7543 0.7553 0.7563
3527.218855 0.7570 0.7578 0.7586 0.7594 0.7604
3530.464109 0.7615 0.7625 0.7635 0.7645 0.7656
3533.709362 0.7666 0.7676 0.7686 0.7696 0.7707
3536.954616 0.7713 0.7718 0.7724 0.7729 0.7734
3540.199870 0.7739 0.7744 0.7749 0.7758 0.7769
3543.445123 0.7779 0.7789 0.7799 0.7809 0.7820
3546.690377 0.7830 0.7848 0.7866 0.7884 0.7902
3549.935631 0.7914 0.7927 0.7940 0.7952 0.7962
3553.180885 0.7973 0.7983 0.7992 0.8000 0.8008
3556.426138 0.8015 0.8023 0.8030 0.8038 0.8046
3559.671392 0.8056 0.8069 0.8081 0.8094 0.8107
3562.916646 0.8120 0.8132 0.8145 0.8153 0.8158
3566.161900 0.8163 0.8168 0.8174 0.8179 0.8184
3569.407153 0.8189 0.8196 0.8204 0.8211 0.8219
3572.652407 0.8224 0.8230 0.8235 0.8240 0.8245
3575.897661 0.8250 0.8255 0.8260 0.8266 0.8271
3579.142914 0.8276 0.8281 0.8289 0.8297 0.8304
3582.388168 0.8311 0.8316 0.8321 0.8327 0.8332
3585.633422 0.8340 0.8348 0.8355 0.8363 0.8371
3588.878676 0.8378 0.8386 0.8394 0.8401 0.8409
3592.123929 0.8417 0.8424 0.8432 0.8440 0.8447
3595.369183 0.8455 0.8463 0.8470 0.8478 0.8486
3598.614437 0.8493 0.8501 0.8509 0.8519 0.8529
3601.859690 0.8539 0.8549 0.8555 0.8560 0.8565
3605.104944 0.8570 0.8575 0.8580 0.8585 0.8590
3608.350198 0.8593 0.8595 0.8598 0.8601 0.8606
3611.595452 0.8611 0.8616 0.8621 0.8627 0.8632
3614.840705 0.8637 0.8642 0.8647 0.8652 0.8657
3618.085959 0.8663 0.8671 0.8679 0.8686 0.8693
3621.331213 0.8698 0.8703 0.8708 0.8713 0.8718
3624.576466 0.8723 0.8729 0.8734 0.8739 0.8744
3627.821720 0.8749 0.8754 0.8759 0.8764 0.8769
3631.066974 0.8775 0.8780 0.8785 0.8790 0.8793
3634.312228 0.8795 0.8798 0.8800 0.8805 0.8811
3637.557481 0.8816 0.8821 0.8826 0.8831 0.8836
3640.802735 0.8840 0.8840 0.8840 0.8840 0.8841
3644.047989 0.8843 0.8846 0.8848 0.8851 0.8854
3647.293243 0.8856 0.8859 0.8861 0.8864 0.8866
3650.538496 0.8869 0.8872 0.8874 0.8877 0.8879
3653.783750 0.8880 0.8880 0.8880 0.8880 0.8880
3657.029004 0.8880 0.8880 0.8880 0.8880 0.8880
3660.274257 0.8880 0.8880 0.8880 0.8880 0.8880
3663.519511 0.8880 0.8883 0.8885 0.8888 0.8890
3666.764765 0.8890 0.8890 0.8890 0.8890 0.8887
3670.010019 0.8884 0.8882 0.8880 0.8880 0.8880
3673.255272 0.8880 0.8880 0.8880 0.8880 0.8880
3676.500526 0.8880 0.8880 0.8880 0.8880 0.8879
3679.745780 0.8876 0.8873 0.8871 0.8868 0.8866
3682.991033 0.8863 0.8861 0.8860 0.8860 0.8860
3686.236287 0.8860 0.8860 0.8860 0.8860 0.8860
3689.481541 0.8858 0.8855 0.8853 0.8850 0.8848
3692.726795 0.8845 0.8842 0.8840 0.8840 0.8840
3695.972048 0.8840 0.8840 0.8840 0.8840 0.8840
3699.217302 0.8841 0.8843 0.8846 0.8848 0.8851
3702.462556 0.8853 0.8856 0.8859 0.8860 0.8860
3705.707809 0.8860 0.8860 0.8861 0.8864 0.8866
3708.953063 0.8869 0.8872 0.8874 0.8877 0.8879
3712.198317 0.8882 0.8884 0.8887 0.8889 0.8892
3715.443571 0.8894 0.8897 0.8900 0.8902 0.8905
3718.688824 0.8907 0.8910 0.8910 0.8910 0.8910
3721.934078 0.8910 0.8913 0.8915 0.8918 0.8920
3725.179332 0.8923 0.8925 0.8928 0.8930 0.8930
3728.424585 0.8930 0.8930 0.8930 0.8930 0.8930
3731.669839 0.8930 0.8931 0.8934 0.8936 0.8939
3734.915093 0.8940 0.8940 0.8940 0.8940 0.8941
3738.160347 0.8944 0.8946 0.8949 0.8950 0.8950
3741.405600 0.8950 0.8950 0.8950 0.8950 0.8950
3744.650854 0.8950 0.8950 0.8950 0.8950 0.8950
3747.896108 0.8950 0.8950 0.8950 0.8950 0.8952
3751.141362 0.8955 0.8958 0.8960 0.8960 0.8960
3754.386615 0.8960 0.8960 0.8963 0.8966 0.8968
3757.631869 0.8970 0.8970 0.8970 0.8970 0.8970
3760.877123 0.8970 0.8970 0.8970 0.8970 0.8970
3764.122376 0.8970 0.8970 0.8970 0.8970 0.8970
3767.367630 0.8970 0.8969 0.8966 0.8963 0.8961
3770.612884 0.8958 0.8956 0.8953 0.8951 0.8950
3773.858138 0.8950 0.8950 0.8950 0.8946 0.8941
3777.103391 0.8935 0.8930 0.8930 0.8930 0.8930
3780.348645 0.8930 0.8927 0.8925 0.8922 0.8920
3783.593899 0.8917 0.8915 0.8912 0.8910 0.8910
3786.839152 0.8910 0.8910 0.8909 0.8907 0.8904
3790.084406 0.8902 0.8899 0.8896 0.8894 0.8891
3793.329660 0.8890 0.8890 0.8890 0.8890 0.8889
3796.574914 0.8886 0.8884 0.8881 0.8878 0.8876
3799.820167 0.8873 0.8871 0.8865 0.8857 0.8849
3803.065421 0.8841 0.8836 0.8831 0.8826 0.8820
3806.310675 0.8818 0.8815 0.8813 0.8810 0.8807
3809.555928 0.8805 0.8802 0.8800 0.8800 0.8800
3812.801182 0.8800 0.8800 0.8800 0.8800 0.8800
3816.046436 0.8799 0.8797 0.8794 0.8792 0.8790
3819.291690 0.8790 0.8790 0.8790 0.8788 0.8783
3822.536943 0.8778 0.8773 0.8768 0.8762 0.8757
3825.782197 0.8752 0.8744 0.8734 0.8723 0.8713
3829.027451 0.8699 0.8684 0.8669 0.8653 0.8636
3832.272705 0.8618 0.8600 0.8582 0.8569 0.8556
3835.517958 0.8543 0.8531 0.8528 0.8525 0.8522
3838.763212 0.8520 0.8517 0.8515 0.8512 0.8510
3842.008466 0.8513 0.8515 0.8518 0.8521 0.8526
3845.253719 0.8531 0.8536 0.8541 0.8543 0.8546
3848.498973 0.8548 0.8552 0.8557 0.8562 0.8567
3851.744227 0.8570 0.8570 0.8570 0.8570 0.8571
3854.989481 0.8574 0.8577 0.8579 0.8580 0.8580
3858.234734 0.8580 0.8580 0.8582 0.8584 0.8587
3861.479988 0.8590 0.8590 0.8590 0.8590 0.8590
3864.725242 0.8590 0.8590 0.8590 0.8590 0.8587
3867.970495 0.8585 0.8582 0.8580 0.8580 0.8580
3871.215749 0.8580 0.8580 0.8577 0.8575 0.8572
3874.461003 0.8570 0.8570 0.8570 0.8570 0.8569
3877.706257 0.8567 0.8564 0.8561 0.8559 0.8556
3880.951510 0.8554 0.8551 0.8547 0.8542 0.8537
3884.196764 0.8532 0.8530 0.8530 0.8530 0.8530
3887.442018 0.8526 0.8521 0.8516 0.8511 0.8510
3890.687271 0.8510 0.8510 0.8510 0.8508 0.8505
3893.932525 0.8503 0.8500 0.8500 0.8500 0.8500
3897.177779 0.8500 0.8495 0.8490 0.8485 0.8479
3900.423033 0.8474 0.8469 0.8464 0.8459 0.8454
3903.668286 0.8449 0.8444 0.8438 0.8430 0.8422
3906.913540 0.8415 0.8406 0.8396 0.8386 0.8375
3910.158794 0.8364 0.8351 0.8338 0.8326 0.8310
3913.404047 0.8292 0.8274 0.8256 0.8237 0.8216
3916.649301 0.8196 0.8176 0.8157 0.8139 0.8121
3919.894555 0.8103 0.8098 0.8095 0.8093 0.8090
3923.139809 0.8081 0.8071 0.8060 0.8050 0.8048
3926.385062 0.8045 0.8042 0.8040 0.8040 0.8040
3929.630316 0.8040 0.8040 0.8043 0.8046 0.8048
3932.875570 0.8050 0.8050 0.8050 0.8050 0.8051
3936.120824 0.8053 0.8056 0.8059 0.8069 0.8089
3939.366077 0.8110 0.8130 0.8145 0.8155 0.8166
3942.611331 0.8176 0.8188 0.8200 0.8213 0.8226
3945.856585 0.8235 0.8243 0.8250 0.8258 0.8266
3949.101838 0.8273 0.8281 0.8289 0.8299 0.8309
3952.347092 0.8319 0.8329 0.8340 0.8350 0.8360
3955.592346 0.8371 0.8381 0.8391 0.8401 0.8411
3958.837600 0.8422 0.8432 0.8442 0.8452 0.8462
3962.082853 0.8473 0.8483 0.8492 0.8497 0.8502
3965.328107 0.8507 0.8512 0.8517 0.8522 0.8527
3968.573361 0.8532 0.8537 0.8543 0.8548 0.8553
3971.818614 0.8558 0.8563 0.8568 0.8572 0.8574
3975.063868 0.8577 0.8579 0.8582 0.8584 0.8587
3978.309122 0.8589
##END=
