##TITLE=2-Propanol
##JCAMP-DX=4.24
##DATA TYPE=INFRARED SPECTRUM
##CLASS=IUPAC A
##ORIGIN=NIST, Anayltical Chemistry Division, 301-975-3108
##OWNER=COPYRIGHT (C) 1998 by the U.S. Secretary of Commerce
##DATE=98/10/1
##$SPECTRA VERSION=1.00
##$UNCERTAINTY IN Y=2.0 % relative (B=1.0E-04,C=6.5E-10,D=2.7E-14)
##CAS NAME=2-Propanol
##CAS REGISTRY NO=67-63-0
##MOLFORM=C H3 C H( O H) C H3
##MP=-89.5 C
##BP=82.4 C
##$NIST SOURCE=QUANT-IR
##SPECTROMETER/DATA SYSTEM=IFS66V (Bruker)
##INSTRUMENT PARAMETERS=KBr Beam splitter; MCT Detector; Multipass cell
##STATE=gas
##SAMPLE DESCRIPTION=2-Propanol Primary Gas Standard
##PRESSURE=101.3 kPa
##TEMPERATURE=23 C
##SAMPLING PROCEDURE=1 L/min Flow
##RESOLUTION=0.9640
##DATA PROCESSING=Triangular Apodization
##XUNITS=cm-1
##YUNITS=(micromol/mol)-1m-1 (base 10)
##XFACTOR=1.0
##YFACTOR=4.5474E-13
##DELTAX=0.4820
##FIRSTX=575.169
##LASTX=3975.077
##FIRSTY=2.59E-06
##MAXX=3974.59
##MINX=575.17
##MAXY=.0006055
##MINY=2.31E-07
##NPOINTS=7053
##XYDATA=(X++(Y..Y))
575.17 5704378 5877132 6125086 6226416 6135754 6181960
577.58 6458110 6847412 6795408 6383592 6312310 6212872
580.47 6093448 6383698 6749498 6605918 6485870 6520958
583.37 6376008 6349856 6521650 6699058 6684480 6590854
586.26 6720400 6807520 6830724 7029152 7215364 7081622
589.15 6963116 7109690 7339726 7071544 6780124 7118094
592.04 7214728 7260134 7611292 7853240 7981322 7953926
594.94 7637000 7509922 7706724 7582498 7644444 7820838
597.83 7806950 7981474 7980942 7881392 7738812 7722806
600.72 7873548 7864486 7877164 8005036 7905510 7690350
603.61 7731946 8147206 8373880 8375758 8287684 8214956
606.51 8268048 8132258 8093458 8201312 8365328 8579144
609.40 8610440 8530482 8461090 8519214 8487842 8445210
612.29 8332400 8251624 8470790 8427374 8307610 8278080
615.18 8445526 8673986 8717554 8712740 8712280 8845574
618.08 8926374 8865080 8835160 8827440 8873226 9059346
620.97 9233972 9252460 8984358 8738528 8717718 8752654
623.86 8960308 9153532 9241936 9290626 9386080 9538802
626.76 9455580 9176026 9041156 9113588 9114246 9040104
629.65 8918046 8783854 8809668 8873666 8895778 8982982
632.54 9049060 9130606 9143358 8962490 8937984 9050338
635.43 9143512 9085242 9022796 8936930 8971756 9165734
638.33 9181124 9200502 9237920 9247344 9025726 9009040
641.22 9143514 9157440 9154748 9116648 9142622 9163700
644.11 9057182 8955176 9014304 8969800 8934108 9056018
647.00 9024434 8913732 8814142 8611988 8587376 8654684
649.90 8516986 8518446 8543766 8449376 8499238 8486862
652.79 8362132 8266538 8325302 8232214 8129896 8204354
655.68 7983324 7861448 8041130 8132986 7983722 7935320
658.58 7968070 7839820 7681854 7646742 7773526 7745802
661.47 7700032 7640334 7442234 7456956 7491332 7436510
664.36 7490562 7482806 7589910 7565514 7255410 6742102
667.25 6423846 6646672 6895742 7074636 7189586 7125292
670.15 7082722 7190850 7285712 7233920 7100160 7097648
673.04 7083392 6997250 7041500 7079594 7033046 6996456
675.93 6974218 6942630 7007800 6866232 6694498 6618552
678.82 6507960 6646990 6722802 6647692 6611412 6698064
681.72 6695410 6592998 6445904 6309290 6375158 6473710
684.61 6513122 6349646 6207956 6349436 6433034 6375468
687.50 6286108 6145824 6135682 6331768 6355692 6270536
690.40 6341284 6212140 6108318 6077322 5969984 5910188
693.29 5776272 5778326 5782432 5699380 5749354 5831562
696.18 5944726 5939494 5848158 5806724 5795380 5900360
699.07 5950336 6065838 6150844 6131658 6053566 5974222
701.97 6028432 6101600 6099440 6095734 6047296 5970440
704.86 5928254 5872994 5878942 5910892 5946322 5783722
707.75 5678194 5756922 5618158 5530720 5562936 5548578
710.64 5617560 5640524 5560960 5475156 5404382 5306048
713.54 5209950 5223088 5177196 5046554 4983516 4916712
716.43 5006170 5057660 5002926 5028374 4987810 4910364
719.32 4845440 4918990 5047130 4965794 4910656 4900572
722.22 4854612 4795134 4781906 4764844 4674750 4639898
725.11 4631072 4573750 4526976 4553866 4473900 4362818
728.00 4352454 4314394 4255182 4257406 4290658 4187168
730.89 4098496 4102106 4034288 3949488 3874132 3798442
733.79 3694090 3647158 3629952 3588152 3608268 3590136
736.68 3550694 3502204 3420328 3460440 3429804 3350862
739.57 3311100 3207666 3151136 3128914 3029594 3008592
742.46 3092182 3068136 3065864 3114944 3068318 2936834
745.36 2921846 2963010 2907206 2877510 2795504 2721802
748.25 2710832 2661380 2657420 2669302 2604338 2546306
751.14 2507214 2509702 2540132 2580166 2593806 2622386
754.04 2603238 2534332 2547352 2522140 2422754 2425748
756.93 2444934 2427232 2392046 2439034 2519182 2440634
759.82 2450906 2427694 2352124 2330614 2304060 2313614
762.71 2397180 2437062 2338798 2349032 2389646 2401298
765.61 2465850 2527350 2551650 2549066 2538992 2508362
768.50 2464788 2428268 2492120 2621892 2684328 2660142
771.39 2652484 2658036 2671730 2730614 2785292 2878880
774.28 3014840 3048314 3120924 3260386 3409600 3533184
777.18 3590556 3676248 3794672 3937998 4087368 4359954
780.07 4631668 4756416 4877154 5106668 5375902 5622784
782.96 6035018 6472540 6863420 7363194 7906646 8377874
785.86 8829110 9348820 9932808 10651610 11409000 12063250
788.75 12849670 13761170 14658900 15578190 16521600 17673670
791.64 18827350 20003680 21315140 22564820 23849340 25207000
794.53 26589980 28001910 29382600 30734560 32129270 33590370
797.43 35080030 36603190 38145370 39511750 40713240 42014080
800.32 43399960 44629480 45739130 46785310 47656920 48409920
803.21 49240790 49942500 50566720 51020790 51476480 52021620
806.10 52302160 52608730 52937830 53226520 53654850 54233670
809.00 54822830 55434270 56137380 56743300 57297590 57976910
811.89 58639900 59199840 59644940 59818330 60927680 63354110
814.78 64952520 64836120 63828940 62894390 61676440 60455740
817.68 59711950 58272170 58600320 61719740 63253700 61807670
820.57 59583360 57645000 56299280 55517870 54952320 54736970
823.46 54753250 54861630 55048680 55482660 55893810 56323120
826.35 56773970 56908430 56931040 56973730 56755470 56225740
829.25 55610260 54940860 54101570 52955560 51663610 50302400
832.14 48904830 47252720 45305540 43440140 41568830 39601030
835.03 37660200 35707050 33751870 31954740 30227780 28468260
837.92 26642620 24918900 23532350 22162500 20759320 19476500
840.82 18263650 17166330 16170190 15250880 14305210 13419900
843.71 12664450 12043780 11508650 10795130 10208940 9768104
846.60 9257230 8793060 8420446 8092846 7761028 7460530
849.50 7161308 6943108 6704060 6421542 6170798 6031646
852.39 5928304 5698110 5569968 5512782 5369808 5215396
855.28 5053726 4878012 4790416 4673378 4547004 4488346
858.17 4367202 4307568 4261480 4208962 4164428 4006968
861.07 3947300 3949474 3830872 3804422 3799360 3704830
863.96 3706160 3757066 3708964 3694864 3656430 3597470
866.85 3619328 3590530 3594326 3594974 3627674 3649740
869.74 3600702 3607684 3573360 3566370 3643148 3562510
872.64 3490202 3596102 3602750 3514502 3473304 3524758
875.53 3558752 3507240 3483520 3489454 3523666 3549116
878.42 3539800 3501362 3534130 3592302 3599644 3640686
881.31 3704494 3769968 3747972 3776542 3837850 3856406
884.21 3947818 3955608 3957890 4017286 4070382 4124184
887.10 4186732 4284006 4332886 4394942 4507680 4626252
889.99 4708998 4774846 4855510 4955238 5086960 5226680
892.89 5298388 5378928 5517804 5639804 5753044 5895894
895.78 6063126 6199334 6373618 6530028 6705320 6924426
898.67 7089950 7223760 7444704 7661540 7813006 8088090
901.56 8374586 8638040 8945080 9183618 9470730 9874534
904.46 10215220 10553120 10871400 11252450 11707600 12095110
907.35 12518210 13008990 13530250 14054100 14624730 15241820
910.24 15829890 16471150 17119050 17796910 18603260 19433260
913.13 20320220 21264980 22295870 23399850 24485660 25630480
916.03 26926190 28301170 29781760 31403160 33202890 35143310
918.92 37180660 39170570 40922600 42711420 44865320 47359530
921.81 50053750 52853150 55827040 59030360 62405750 65984830
924.71 69844180 73922500 78192400 82690940 87464540 92568510
927.60 97915980 103550600 109645100 115917800 121997500 128506600
930.49 135525100 142644000 150090000 157717800 165493900 173591800
933.38 181868300 190011100 198258600 206860100 215396900 223855800
936.28 232179000 240093100 247573900 254831300 261695900 268030500
939.17 273943200 279390800 284461500 289003800 293074300 296643800
942.06 299608400 302187400 304686400 306612200 307800600 308954600
944.95 310376900 312052000 313537100 315656100 318309100 321507700
947.85 325919400 330701800 336270000 342357900 348399500 354386900
950.74 359921600 364669400 368856200 373415800 375546900 373118200
953.63 370759600 370018300 366694600 355578000 353943900 375491400
956.53 391543300 384694900 365501600 346255500 334152300 327408900
959.42 321375500 315268100 311229800 309551400 309562000 310972700
962.31 313371300 316099500 318838300 321504600 323483500 324632400
965.20 324910000 324217200 322408800 319247700 314932600 309330000
968.10 302983400 295862200 287444500 278186000 268345000 257736500
970.99 246455400 234843800 223062100 211251300 199361000 187534700
973.88 175841200 164415800 153603200 143320000 133337100 123839400
976.77 114915400 106473400 98503290 91101670 84285970 77963350
979.67 72075260 66710930 61791930 57215260 53024470 49228760
982.56 45794710 42708660 39889560 37323350 34989680 32872810
985.45 30962420 29208120 27589430 26133690 24946280 23840020
988.35 22801880 21906960 21138420 20387260 19639270 18969470
991.24 18330030 17748810 17283390 16830540 16330000 15902550
994.13 15544360 15208090 14921230 14666190 14415300 14165370
997.02 13944570 13760650 13534400 13338150 13207530 13074570
999.92 12946540 12787540 12680870 12638500 12604930 12554530
1002.81 12463020 12403210 12340500 12251570 12199480 12169210
1005.70 12123120 12102230 12111910 12094710 12081850 12070850
1008.59 11988650 11947030 11926880 11900340 11884470 11869500
1011.49 11880130 11838520 11776800 11769720 11746250 11681400
1014.38 11680140 11710480 11711480 11791160 11905410 12018310
1017.27 12131050 12241960 12445670 12664220 12920260 13156610
1020.17 13342320 13497120 13644970 13832910 14034100 14315180
1023.06 14555410 14815080 15089280 15342280 15618000 15931400
1025.95 16341980 16707620 16982410 17319370 17777250 18231070
1028.84 18669820 19148240 19720270 20313810 20882360 21470670
1031.74 22074510 22741350 23501510 24232360 24966950 25870940
1034.63 26877980 27930390 28997240 30049240 31215000 32528140
1037.52 33841980 35237700 36761220 38361570 40009960 41707750
1040.41 43555450 45466970 47395660 49557220 51949710 54454200
1043.31 57145630 60030620 63165700 66458900 69708220 72996520
1046.20 76448250 79883840 83368020 87048530 90802800 94728730
1049.09 98846350 103022400 107171000 111380400 115769200 120224100
1051.99 124740500 129278500 133751600 138150200 142496900 147015000
1054.88 151678200 156542000 161560400 166449500 171175100 175702900
1057.77 180126600 184442400 188829800 193247800 197322000 201094900
1060.66 203991500 206211200 208501500 210946500 213780200 216921600
1063.56 220366800 224029800 227475000 231183700 236024800 242463100
1066.45 249591500 255121900 259892900 265650800 271466500 276046000
1069.34 278397000 279600900 282509400 291442500 293327800 292417000
1072.23 299562600 298914400 291806700 286021800 282254200 280590000
1075.13 279408500 277202800 275556000 276913100 279344200 279105500
1078.02 278931600 278757900 276130300 274418900 274363000 273613300
1080.91 273095300 273318600 272074700 269711300 266680900 263694400
1083.81 262108900 261652400 261318100 260765300 259731000 258106400
1086.70 256590800 255590400 254731400 253609000 251746200 249135200
1089.59 245851300 241547400 236659600 231929800 227173300 222304200
1092.48 217546300 212519600 207550000 202634700 197750800 193217600
1095.38 188748900 184165200 179694600 175477300 171389900 167456600
1098.27 163644400 160137600 156912700 153949400 151212000 148702400
1101.16 146388600 144278300 142469700 140849300 139397900 138205300
1104.05 137258800 136573100 136124400 135932700 135990000 136190000
1106.95 136534400 137175100 138046100 138957600 140036700 141298600
1109.84 142611900 144071000 145807200 147624200 149500700 151490700
1112.73 153690400 156066600 158496600 161171000 163815900 166175600
1115.63 168506500 170849000 173357600 176222100 179084500 181980900
1118.52 185076000 188150700 191103200 193972200 196887600 199718300
1121.41 202558900 205333800 208383100 211627400 214667100 217735800
1124.30 220989600 224449200 227983200 231460600 234265000 236550700
1127.20 239522400 244045000 249502400 252736600 252308000 253082900
1130.09 257737200 261921000 265714200 267819800 264491900 263135400
1132.98 266866200 271444600 276388100 281176400 285596000 290474700
1135.87 295117400 302215100 308113200 309296700 309052200 310153800
1138.77 313154000 315897200 318584400 320867300 323179400 325947600
1141.66 329318000 333178000 337321800 341702500 345747000 349382400
1144.55 353069700 357095200 361640800 366183800 370848600 375464000
1147.45 379892600 384003900 386928100 389337700 391447500 393169800
1150.34 394556800 395208900 395235000 394964100 394411800 393606000
1153.23 392751500 391666100 390535100 389368400 387977200 386328000
1156.12 384090000 381262000 378395100 375393400 372020800 368471200
1159.02 365184200 362082200 359154600 356527700 353786600 350534700
1161.91 347918700 347712500 348471900 345036800 338908500 333066700
1164.80 325925200 319230800 314849800 312092700 309334100 306188400
1167.69 303630900 300108900 293251200 286518600 280957800 275013400
1170.59 269717500 265151400 260820400 256568900 251387000 245763300
1173.48 240981800 236596700 232420000 228300600 224186700 219928700
1176.37 215629200 211361200 206942100 202545600 198077700 193407600
1179.26 188490000 183371700 178225400 172812100 167358800 162138800
1182.16 157122200 152100500 146813800 141628200 136490700 131412300
1185.05 126386600 121435800 116666800 112021900 107478800 103122400
1187.94 99090580 95205600 91427810 87862270 84545130 81405620
1190.84 78493950 75738340 73058020 70637580 68430080 66301900
1193.73 64267570 62376090 60643600 58971650 57367530 55829730
1196.62 54397730 53144180 51961630 50806400 49684580 48713710
1199.51 47901270 47139860 46434650 45844010 45323370 44789110
1202.41 44281700 43859860 43526050 43153360 42836550 42685450
1205.30 42716430 42781520 42710110 42602860 42585290 42754670
1208.19 43035710 43335170 43694030 44143790 44596640 45160700
1211.08 45850310 46549590 47227120 47789420 48436070 49387290
1213.98 50636530 52076820 53422050 54558210 55704410 56982720
1216.87 58374920 59898390 61562900 63358720 65275940 67359020
1219.76 69591140 71881100 74188880 76607570 79232340 81932420
1222.66 84739280 87702200 90711470 93911750 97313050 100878800
1225.55 104524900 108214800 112020300 115993400 120062000 124299700
1228.44 128703100 133041000 137374600 141717000 145961600 150143900
1231.33 154283100 158495700 162676500 166850000 170981100 175038400
1234.23 179137200 183200100 187159600 190876700 194377700 197699800
1237.12 200716800 203261400 205214800 206884900 208275000 209480900
1240.01 210563300 211933600 213572000 215022100 215600100 214854500
1242.90 214019200 214041600 214947800 216446200 218046200 220075800
1245.80 222731200 226756900 231744400 236814700 241743400 246818800
1248.69 251023000 255066200 260917300 268136900 269806800 269918800
1251.58 273694800 259912600 249041500 254637500 255152900 250554800
1254.48 244140800 238327900 233716500 229958800 226547900 223698000
1257.37 221338300 219102700 217417100 216165000 215172300 214652100
1260.26 213647500 212700300 212380400 212226200 211802500 210648700
1263.15 208736900 206166200 202531700 198766000 195326800 191665300
1266.05 187829700 183840800 179651400 175161700 170222000 165265700
1268.94 160375600 155382800 150453200 145606400 140761200 136137700
1271.83 131186800 125566300 120266500 115751800 111762000 108044500
1274.72 104288900 100381100 96485260 92716210 89130300 85721630
1277.62 82547700 79679730 76910480 74280550 71867920 69575560
1280.51 67429010 65428560 63516200 61659060 59937320 58356170
1283.40 56804200 55273890 53773690 52367980 51077950 49798740
1286.30 48575390 47451880 46408020 45408910 44371940 43388850
1289.19 42458660 41563680 40766090 40006710 39236750 38609200
1292.08 38086040 37544860 37048450 36601280 36188220 35857400
1294.97 35562930 35333540 35134170 34940620 34796370 34641110
1297.87 34495320 34320860 34139410 34010370 33894840 33801930
1300.76 33730520 33697980 33696950 33718960 33724630 33722000
1303.65 33756740 33819810 33899020 34025060 34167040 34321660
1306.54 34507900 34724150 34880510 35066850 35332570 35609690
1309.44 35925890 36292570 36726250 37114670 37502180 37932810
1312.33 38388630 38856540 39385870 39974920 40652420 41410380
1315.22 42131580 42957810 43793760 44481070 45124330 45924610
1318.12 46747760 47445910 48212680 49120420 50158820 51262480
1321.01 52356310 53422320 54407190 55363740 56406430 57533660
1323.90 58745020 60026040 61366540 62769750 64175890 65624120
1326.79 67166730 68746760 70282500 71821860 73421170 74958530
1329.69 76443860 77969500 79370310 80684900 81988060 83224890
1332.58 84459100 85780680 87244810 88352120 89086570 90129180
1335.47 91410260 92696610 93818910 94911990 96150700 97636860
1338.36 99097360 100047100 100841400 102105300 103777200 105412700
1341.26 107081700 108774200 110276700 111530600 112319500 112282400
1344.15 111633800 111055400 111774700 114590300 118620800 121727700
1347.04 122782100 122499400 122252400 123097800 124433400 125798000
1349.94 127307400 128970900 131055600 133261500 135512600 137993400
1352.83 140740300 143883400 147073200 149968700 152663200 155235700
1355.72 157817000 160371000 162558500 164570600 166664700 168912000
1358.61 171202900 173667200 176319600 178842400 181124600 183696300
1361.51 186564800 189450400 192644900 196193900 199985000 203840200
1364.40 207804800 212050400 216629900 221468400 226619300 232252100
1367.29 238268800 244677000 251238800 257932100 265204200 273530200
1370.18 282719600 292027200 301081300 311803600 322091500 325397400
1373.08 326707700 331536500 337868100 344829500 351993800 359439100
1375.97 366751400 373518400 380226700 387160000 394306500 402243100
1378.86 411051900 419877100 426036700 430289700 434828700 440372800
1381.76 443638800 437316900 428277900 423489300 419725100 416906400
1384.65 415794800 414948800 413610000 412332000 411310000 409109300
1387.54 405523600 401858800 398360700 394877500 392265100 393122400
1390.43 396969700 400283000 401633800 401777200 401481800 399426100
1393.33 394199300 388057400 380731800 371192200 361811500 353283600
1396.22 344727100 335788300 326735300 317409600 308193600 299142800
1399.11 288809800 278616800 268985700 258533700 248241500 238690800
1402.00 229143000 219507800 210337100 201844000 194069400 186774000
1404.90 179729900 173017800 166781600 161062400 155700500 150608400
1407.79 145662400 140498000 135396900 130552600 125844100 121251400
1410.68 116836800 112629300 108615000 104805400 101092200 97562520
1413.58 94160020 90728310 87438260 84419180 81585110 78923110
1416.47 76505900 74330440 72196580 69989480 67949800 66114800
1419.36 64210250 62419440 60794520 59270870 57925880 56693930
1422.25 55551820 54546330 53698900 52938500 52247940 51642550
1425.15 51076580 50466850 49790390 49232400 48795720 48430260
1428.04 48204900 48021230 47919900 47924990 47901100 47925940
1430.93 48094980 48296060 48536810 48913070 49373380 49863460
1433.82 50228480 50546620 51018520 51569340 52207380 52927800
1436.72 53450390 53968180 54636120 55336980 56068350 56826060
1439.61 57581740 58304490 59097560 59875290 60588030 61306050
1442.50 61984740 62630650 63296600 64046880 64781060 65530360
1445.40 66297460 67094620 67933940 68728420 69600760 70522710
1448.29 71615370 72712730 73677220 75003810 76092110 76359460
1451.18 76857000 78048620 79779660 82077190 84736980 87988720
1454.07 90718450 93467020 96200790 96183550 97491440 100590500
1456.97 104772200 108561600 108392200 109747800 113636800 117749400
1459.86 122175900 126814100 131203600 136252400 141557600 146408200
1462.75 147217200 139857100 128895300 113777800 99059400 89623240
1465.64 83004590 79520380 77462410 75965200 76187040 78569590
1468.54 82780020 88819580 96696610 105732700 114988700 126875400
1471.43 138980300 144469700 156273900 165465100 148106800 125744100
1474.32 113131600 102112900 93196080 87069280 81923370 77819950
1477.21 74938380 72804980 71165220 69795580 68694410 67847300
1480.11 67192110 66674920 66173740 65645730 65217110 64876160
1483.00 64467260 64023450 63539500 63024900 62516100 61934140
1485.89 61252960 60556580 59859880 59053530 58138160 57224900
1488.79 56266130 55274770 54235800 53116080 51874510 50517020
1491.68 49226430 47998120 46677510 45250640 43748220 42192850
1494.57 40701790 39358910 38229160 36934730 35480130 34229610
1497.46 33004940 31849060 30727110 29511970 28315750 27238300
1500.36 26265190 25168830 23876800 22656700 21637860 20755780
1503.25 19849300 18979540 18219060 17627230 17058050 16242220
1506.14 15675920 15198670 14435160 13811080 13326440 12783850
1509.03 12337790 11917920 11462460 11043130 10681510 10412910
1511.93 10049910 9632784 9309566 9030880 8793402 8576236
1514.82 8307792 8053534 7905824 7760844 7593590 7374392
1517.71 7127998 6924000 6756008 6659128 6571990 6435388
1520.61 6464632 6303580 5984136 5897874 5743216 5576258
1523.50 5495052 5398752 5336200 5312512 5175412 5036492
1526.39 5006346 4964802 4868274 4809334 4728940 4653054
1529.28 4637784 4626502 4589134 4519814 4410284 4295728
1532.18 4251604 4238956 4244152 4176312 4055780 3975700
1535.07 3901440 3858968 3843480 3805164 3771794 3774622
1537.96 3857744 4051354 3931072 3839936 3895980 3707144
1540.85 3631330 3737438 3729860 3586694 3558022 3532402
1543.75 3465392 3469758 3495162 3426588 3338234 3308594
1546.64 3281634 3235692 3209756 3170268 3145328 3146014
1549.53 3115892 3060172 3012550 2982824 2954526 2954156
1552.43 2972262 2951192 2990312 3054778 2958636 2904562
1555.32 2889800 2852310 2849968 2923994 2929220 3038678
1558.21 3126578 2910692 2928330 3076926 2893846 2673306
1561.10 2641722 2630184 2636804 2592498 2548796 2556072
1564.00 2574756 2587342 2549502 2505530 2483262 2481782
1566.89 2481682 2467830 2483614 2511544 2549816 2599382
1569.78 2521954 2456252 2430010 2424464 2432134 2415240
1572.67 2410256 2384498 2368176 2359632 2359728 2459238
1575.57 2717010 2665276 2440010 2368588 2350174 2364456
1578.46 2352154 2312972 2321562 2363746 2343216 2318282
1581.35 2308140 2306870 2309910 2304638 2282746 2286478
1584.25 2278510 2246196 2232894 2235722 2233386 2217190
1587.14 2203466 2216372 2231182 2232462 2225316 2228604
1590.03 2264222 2258130 2245106 2259062 2241004 2237488
1592.92 2247758 2236024 2225798 2227584 2234878 2245300
1595.82 2227388 2195662 2191670 2178274 2171278 2175788
1598.71 2165852 2147680 2127604 2134208 2118922 2091392
1601.60 2109212 2099924 2074880 2094562 2088128 2073922
1604.49 2065200 2078022 2102536 2080494 2058560 2057304
1607.39 2040780 2028128 2048288 2066616 2087622 2084808
1610.28 2061354 2067316 2055834 2031252 2054274 2067368
1613.17 2049500 2041150 2052342 2075468 2095018 2151552
1616.07 2352546 2341016 2136522 2082130 2093412 2129972
1618.96 2152800 2119562 2087146 2124276 2125706 2103446
1621.85 2106310 2118922 2187826 2203628 2152952 2140722
1624.74 2150130 2152494 2172440 2198900 2210624 2262946
1627.64 2258954 2227690 2248822 2243762 2258814 2314206
1630.53 2333838 2379944 2422414 2431880 2421938 2454464
1633.42 2525292 2597010 2649162 2742602 2723582 2532250
1636.31 2510270 2554302 2538130 2538306 2530998 2540376
1639.21 2578962 2625840 2667866 2694138 2725802 2729088
1642.10 2745536 2768796 2811476 2860570 2917424 2973356
1644.99 3111182 3280420 3164300 3102580 3189844 3205938
1647.89 3204652 3196470 3205174 3241926 3263974 3273280
1650.78 3279370 3374340 3654292 3752416 3784494 3658444
1653.67 3533898 3589922 3516998 3475986 3471902 3475306
1656.56 3479488 3478308 3472976 3490716 3493340 3503114
1659.46 3519556 3535466 3558160 3606846 3634512 3701156
1662.35 3763362 3714962 3720070 3752808 3773234 3815496
1665.24 3838232 3806098 3785558 3797068 3802706 3832058
1668.13 3855980 3930476 3917812 3787006 3736292 3786472
1671.03 3873244 3849810 3797242 3774308 3766418 3748932
1673.92 3752096 3879152 3940940 3859136 3777382 3720802
1676.81 3716928 3684260 3658444 3686304 3716180 3744246
1679.71 3677702 3592190 3566508 3564910 3577380 3622926
1682.60 3683638 3704754 3711390 3922948 3942146 3654116
1685.49 3584590 3597702 3592252 3567022 3550404 3564786
1688.38 3565980 3549492 3541200 3516998 3486314 3451836
1691.28 3424646 3431046 3459532 3466614 3441924 3436906
1694.17 3477492 3558218 3811576 3819274 3541760 3503864
1697.06 3520280 3493432 3492552 3478700 3613628 3796860
1699.95 3782724 3690588 3529346 3454448 3467906 3460070
1702.85 3439664 3464548 3518974 3521102 3480958 3491620
1705.74 3536338 3508696 3477366 3484430 3510702 3545406
1708.63 3552574 3579636 3652478 3666914 3663612 3694042
1711.53 3711914 3692750 3683542 3718326 3769110 3763438
1714.42 3797556 3809602 3740614 3720022 3814142 4020594
1717.31 3952234 3875918 3964846 3978228 3998874 4009034
1720.20 4015680 4028254 4044716 4042820 3999180 3975642
1723.10 3995094 3994136 4019984 4057624 4062174 4086456
1725.99 4101154 4139824 4156462 4123008 4145638 4170662
1728.88 4202170 4285158 4366122 4462958 4619596 4725028
1731.77 4752788 4804272 4964402 4931758 4920296 5016304
1734.67 4881156 4790654 4788838 4773998 4770742 4814174
1737.56 4890370 4960806 4997528 5124214 5222126 5218160
1740.45 5262010 5334580 5457240 5578178 5690452 5819616
1743.34 5924980 6051260 6164504 6233852 6354066 6482672
1746.24 6589864 6711470 6853392 6970942 7061218 7191846
1749.13 7296682 7409980 7573920 7776598 7876084 7857598
1752.02 7913500 7995274 8090500 8167268 8218666 8308568
1754.92 8372952 8394514 8436230 8463238 8432012 8442400
1757.81 8480122 8503538 8500720 8484494 8510240 8508286
1760.70 8532612 8639576 8627448 8572420 8577004 8576332
1763.59 8609800 8651040 8670522 8714820 8752712 8772080
1766.49 8786616 8791600 8848160 8822420 8713898 8660610
1769.38 8701394 8762736 8684372 8562640 8589220 8815152
1772.27 8740944 8236762 7900942 7779220 7651700 7534268
1775.16 7456870 7398176 7393124 7379780 7361240 7378054
1778.06 7395850 7447828 7507036 7498358 7483914 7423630
1780.95 7281604 7172212 7064944 6898704 6728992 6563520
1783.84 6377662 6162598 5904930 5630458 5361776 5103970
1786.74 4841632 4611256 4366696 4103088 3848286 3604334
1789.63 3417900 3249352 3056092 2857482 2706988 2644436
1792.52 2472122 2247750 2131480 2042918 1944794 1850588
1795.41 1783586 1725084 1665610 1585876 1525792 1498212
1798.31 1457380 1431954 1400924 1308672 1258226 1287402
1801.20 1259438 1222330 1209794 1177476 1166952 1153872
1804.09 1153282 1178050 1205172 1193582 1187882 1200504
1806.98 1203258 1200638 1189286 1192590 1220834 1228604
1809.88 1249164 1264662 1254916 1278708 1308950 1319892
1812.77 1329490 1330478 1309812 1302122 1309076 1330548
1815.66 1358806 1370566 1378226 1363604 1356356 1368276
1818.56 1372300 1367832 1356414 1376414 1373794 1360278
1821.45 1380406 1407664 1422772 1431780 1445120 1457980
1824.34 1508348 1535504 1508638 1475210 1465994 1489014
1827.23 1483120 1469660 1508000 1541038 1570812 1609766
1830.13 1574222 1546718 1593092 1613490 1597386 1612924
1833.02 1610968 1576370 1586906 1609172 1608588 1577746
1835.91 1542500 1541442 1544350 1524698 1502012 1483126
1838.80 1471548 1491888 1488252 1470810 1474672 1462612
1841.70 1449558 1443070 1437966 1488648 1578544 1507970
1844.59 1424018 1424906 1414662 1409302 1386950 1396370
1847.48 1391794 1382460 1391882 1363332 1335248 1347568
1850.38 1366524 1389386 1384664 1382050 1408692 1439226
1853.27 1453788 1485130 1531282 1584508 1640248 1729514
1856.16 1864758 1989276 2063744 2042566 1952550 1885336
1859.05 1852518 1858654 1897038 1882366 1900178 1959124
1861.95 1983938 2004560 2037240 2055468 2061336 2051720
1864.84 2040592 2058566 2078124 2093768 2119402 2174152
1867.73 2202938 2237904 2358484 2388706 2371240 2417172
1870.62 2464284 2532482 2592612 2665918 2758984 2832660
1873.52 2903894 2962610 3013240 3053718 3063120 3101532
1876.41 3153812 3180804 3224506 3277792 3353254 3422956
1879.30 3453860 3504058 3594070 3675968 3747828 3803058
1882.20 3835894 3899278 3960706 3988840 4027636 4107624
1885.09 4176478 4232968 4311454 4372888 4447428 4527012
1887.98 4604698 4683290 4748136 4789360 4809952 4852686
1890.87 4884448 4919352 4962852 4971810 4984636 4997802
1893.77 5019338 5055558 5057292 5063112 5098928 5106198
1896.66 5104344 5096754 5102146 5147804 5165834 5180482
1899.55 5200906 5212120 5224138 5252966 5264378 5255160
1902.44 5276222 5262840 5230044 5273362 5336680 5316890
1905.34 5219222 5106012 4984992 5014964 5212546 5192964
1908.23 4906056 4687340 4577122 4458186 4346556 4254550
1911.12 4191720 4166622 4100670 4072696 4086296 4008466
1914.02 3913984 3859496 3838596 3823094 3766440 3708246
1916.91 3683310 3660026 3567640 3436734 3361864 3294914
1919.80 3188892 3054538 2946218 2875410 2776298 2642068
1922.69 2526092 2390526 2276198 2184094 2069342 1944606
1925.59 1841796 1734786 1597354 1507402 1434604 1350114
1928.48 1272118 1206490 1139222 1048698 963404 929468
1931.37 895344 860070 833872 791700 735528 685146
1934.26 647252 650564 652906 607536 591022 608776
1937.16 602182 590050 612164 614616 614298 595012
1940.05 563592 585118 586000 583082 596670 555270
1942.94 509584 510182 511990 516624 530718 547808
1945.84 554070 541844 552178 567690 568918 565648
1948.73 576788 588652 583954 595442 620754 640516
1951.62 650990 656684 681166 696750 735910 767154
1954.51 771992 796560 796352 808622 809292 803114
1957.41 819982 820478 813680 815602 809280 828248
1960.30 858164 865734 883730 893428 905972 923500
1963.19 940378 940106 947902 948976 949306 975522
1966.08 975926 988634 982772 963320 969246 988676
1968.98 986058 1000618 1037622 1041396 1031250 1024186
1971.87 1041866 1066996 1091228 1113598 1156222 1169568
1974.76 1135666 1125406 1148530 1171264 1186228 1194998
1977.66 1197282 1202716 1241362 1272404 1256968 1235608
1980.55 1231264 1230642 1227448 1256832 1279558 1289190
1983.44 1288508 1286162 1295666 1282582 1261006 1228776
1986.33 1209332 1184816 1159156 1147482 1125758 1127828
1989.23 1126792 1096430 1109676 1129564 1115224 1126578
1992.12 1145928 1131282 1126018 1127644 1112118 1119270
1995.01 1149228 1172394 1150974 1150558 1174008 1166394
1997.90 1166132 1173522 1157276 1162436 1174812 1189506
2000.80 1195338 1188390 1208426 1235424 1249764 1230062
2003.69 1212398 1233944 1261676 1268818 1265668 1286422
2006.58 1334774 1379216 1393024 1397228 1385512 1393590
2009.48 1404686 1412212 1461366 1484944 1469914 1439456
2012.37 1433752 1446678 1476220 1492502 1479362 1499596
2015.26 1523528 1533320 1558638 1557930 1518038 1528578
2018.15 1548692 1561648 1593810 1586466 1609040 1633716
2021.05 1649824 1686860 1700388 1686434 1692114 1704388
2023.94 1733618 1763218 1742074 1758086 1787592 1812394
2026.83 1818608 1792550 1788334 1785130 1766752 1762540
2029.72 1803134 1840654 1810268 1788484 1787474 1748818
2032.62 1743584 1743950 1718930 1733172 1749732 1752906
2035.51 1737556 1736406 1734160 1731360 1763830 1764100
2038.40 1734032 1733760 1743608 1726370 1722484 1724124
2041.29 1732180 1721414 1708052 1710778 1673628 1663286
2044.19 1678764 1661672 1638208 1646450 1618320 1584218
2047.08 1598638 1605706 1602596 1589602 1588684 1602666
2049.97 1638298 1662142 1640600 1647172 1652666 1642634
2052.87 1678056 1704644 1708340 1739910 1780034 1798032
2055.76 1822890 1843076 1864926 1898772 1900794 1899654
2058.65 1936144 1993890 2015442 1987818 1989472 2022976
2061.54 2065764 2106664 2148846 2199436 2243062 2275306
2064.44 2256892 2280974 2296168 2289478 2349510 2408238
2067.33 2414700 2472282 2593752 2571154 2536328 2570706
2070.22 2596208 2626340 2660518 2688016 2723964 2842790
2073.11 2825178 2739550 2739038 2724624 2763280 2809752
2076.01 2838536 2878816 3008240 3006976 2914664 2914728
2078.90 2905360 2925510 2961656 2966266 2960824 3105972
2081.79 3109952 2980008 2975714 2944796 2904004 2908216
2084.69 2932888 2974770 3170678 3169036 2965804 2895992
2087.58 2884528 2868584 2827642 2792024 2834146 3036080
2090.47 2976840 2775464 2747194 2747856 2724510 2700912
2093.36 2676728 2766964 2961734 2797950 2605530 2555582
2096.26 2514660 2505070 2523542 2522606 2692306 2823576
2099.15 2518328 2384588 2375968 2315324 2286218 2308162
2102.04 2356598 2600544 2557236 2208862 2124742 2073938
2104.93 2039966 2036872 1987742 2089994 2379702 2156564
2107.83 1872286 1853982 1842494 1829876 1810532 1795634
2110.72 2068474 2211114 1863674 1736030 1716416 1687032
2113.61 1702282 1683302 1822168 2142386 1916110 1584500
2116.51 1550132 1546252 1563252 1574046 1616776 1947786
2119.40 2008364 1672926 1582278 1582558 1569088 1543624
2122.29 1540434 1786010 2004714 1732756 1565336 1573034
2125.18 1547770 1546512 1558448 1704432 1979452 1861286
2128.08 1650482 1645134 1641554 1662988 1664114 1757792
2130.97 1977454 1948122 1781268 1811552 1835902 1888580
2133.86 1948564 2005150 2198998 2272246 2199756 2240704
2136.75 2292312 2318050 2355660 2351236 2324226 2243078
2139.65 2112046 2095488 2113908 2084094 2039958 2036090
2142.54 2031254 2024774 2064394 2096816 2129358 2157136
2145.43 2198384 2257080 2350082 2387402 2344388 2386538
2148.33 2404624 2436884 2480316 2544826 2740514 2694470
2151.22 2564498 2593210 2615792 2660174 2673234 2845974
2154.11 3044800 2824492 2652790 2695250 2700548 2708008
2157.00 2757252 3088194 3213914 2926600 2853856 2859936
2159.90 2865576 2911124 3094434 3504410 3409958 3132660
2162.79 3143426 3132130 3168042 3185334 3519574 3757442
2165.68 3355362 3149002 3175094 3213220 3218450 3318148
2168.57 3734226 3572302 3155128 3102498 3079326 3108364
2171.47 3105750 3488096 3637380 3179024 3057570 3064076
2174.36 3078064 3088396 3325812 3671934 3361676 3120630
2177.25 3139830 3153638 3153066 3263758 3656488 3524526
2180.15 3255314 3292448 3358410 3377444 3460060 3856954
2183.04 3790508 3442466 3435484 3459786 3461796 3502178
2185.93 3835120 3854870 3542460 3562402 3615384 3625140
2188.82 3689474 4002814 4021032 3776010 3771894 3770362
2191.72 3802158 3872334 4106684 4075154 3851668 3818784
2194.61 3803896 3795034 3876866 4069060 3939832 3749642
2197.50 3741524 3683850 3613094 3650758 3724592 3543540
2200.39 3406026 3403306 3363370 3363400 3488142 3492238
2203.29 3321346 3269634 3219918 3156686 3133122 3191732
2206.18 3120142 2979908 2976904 2952268 2895430 2896338
2209.07 2922070 2838482 2741908 2716976 2681964 2625862
2211.97 2615246 2549364 2435218 2365872 2285552 2216226
2214.86 2186658 2133054 2013594 1946868 1928136 1832700
2217.75 1744042 1720756 1647978 1556822 1510800 1492542
2220.64 1453906 1398340 1337332 1284920 1265074 1229312
2223.54 1196182 1195464 1176750 1133008 1092708 1064286
2226.43 1063116 1055456 1020260 986116 967540 969522
2229.32 962642 959660 952848 943870 931666 886806
2232.21 874866 910210 927032 925386 921108 910570
2235.11 914122 914716 916964 927170 945862 981836
2238.00 983712 916740 870368 879076 895600 904284
2240.89 905332 919168 920456 921086 912046 917624
2243.79 933432 920500 923680 941038 967624 979368
2246.68 997758 1011018 991406 1009342 1049456 1038006
2249.57 1031700 1051486 1060156 1073962 1089640 1105336
2252.46 1140308 1130018 1109920 1118782 1136068 1168542
2255.36 1188686 1196034 1195888 1181176 1171502 1203926
2258.25 1229982 1269904 1302580 1300138 1302868 1313498
2261.14 1346220 1377912 1419964 1479994 1561308 1607474
2264.03 1591928 1613424 1632262 1615938 1604704 1593368
2266.93 1622876 1662576 1684086 1711520 1751818 1742990
2269.82 1734344 1804718 1865090 1884948 1906576 1938462
2272.71 1954332 1990542 2012522 2023214 2057240 2069196
2275.61 2111942 2224738 2287062 2324156 2399664 2439966
2278.50 2466444 2530492 2621994 2704238 2741254 2735564
2281.39 2783478 2823870 2807968 2851136 2891636 2918944
2284.28 2974770 3045562 3128216 3156222 3174540 3249800
2287.18 3275328 3291546 3380596 3416280 3423726 3490162
2290.07 3562798 3613980 3644130 3695574 3769634 3813908
2292.96 3869176 3954300 4029570 4116994 4191724 4228848
2295.85 4282456 4366386 4416890 4447382 4497584 4587234
2298.75 4678798 4738392 4755630 4793898 4858920 4901622
2301.64 4961508 4997370 5024096 5057942 5112484 5167716
2304.53 5217778 5258136 5328940 5381508 5381622 5481080
2307.43 5548592 5550352 5534670 5588168 5714396 5773518
2310.32 5729038 5766936 5877572 5918374 5849640 5721596
2313.21 5755050 5826388 5735244 5612148 5719364 5811402
2316.10 5708382 5544948 5596962 5771788 5730618 5498582
2319.00 5539208 5749378 5716000 5480820 5518754 5791774
2321.89 5728272 5366594 5332960 5608544 5560896 5201568
2324.78 5190548 5532622 5422842 4954862 5042906 5443900
2327.67 5190228 4676962 4875836 5268290 4889332 4444920
2330.57 4822896 5141082 4624786 4381782 4945010 5004466
2333.46 4304172 4250128 4724214 4388764 3729420 3990734
2336.35 4359972 3793296 3498600 4032274 3965446 3335616
2339.24 3456166 3801082 3301302 2918684 3293276 3263820
2342.14 2721218 2822430 3047618 2689846 2563290 2808952
2345.03 2689004 2440172 2561344 2589458 2435624 2442326
2347.92 2449848 2373054 2290742 2187234 2173816 2133272
2350.82 1887948 1899710 1990024 1632128 1593536 1823782
2353.71 1464376 1413574 1703256 1248410 1196230 1623116
2356.60 1136148 1061204 1475030 941146 1021712 1405458
2359.49 809398 1076444 1290700 697478 1174018 1164206
2362.39 733142 1290070 1013900 908650 1336524 930932
2365.28 1234490 1278888 951130 1417224 1192704 1288694
2368.17 1486216 1267196 1555918 1397830 1502712 1597340
2371.06 1502914 1752532 1682900 1820680 1865014 1950920
2373.96 2032074 2031204 2164500 2211994 2288340 2214342
2376.85 2179614 2212448 2244352 2229044 2253582 2306722
2379.74 2320810 2347550 2375818 2370396 2359754 2362002
2382.64 2372788 2366874 2370616 2407698 2409850 2411272
2385.53 2437736 2453938 2467912 2483018 2507508 2540356
2388.42 2577498 2621262 2656236 2725762 2748154 2706130
2391.31 2687386 2705986 2763912 2777610 2739836 2724370
2394.21 2718220 2723036 2706286 2677542 2665718 2634108
2397.10 2604132 2583340 2605624 2620934 2611330 2605706
2399.99 2610792 2605630 2556588 2511096 2501018 2506466
2402.88 2523606 2539374 2529674 2523700 2504934 2504950
2405.78 2507462 2493788 2500924 2511924 2497180 2513916
2408.67 2526586 2521138 2531122 2574110 2668114 2684216
2411.56 2650914 2667218 2690384 2687930 2693588 2688054
2414.46 2672914 2736456 2831202 2853746 2828136 2841934
2417.35 2850156 2794546 2748852 2733624 2740604 2759104
2420.24 2740556 2692650 2681408 2719676 2728774 2723698
2423.13 2752586 2790826 2787716 2803018 2830374 2809106
2426.03 2833324 2872758 2859642 2863212 2894354 2889814
2428.92 2875140 2884502 2870238 2850722 2874146 2956678
2431.81 3002034 2986152 3007328 3039004 3047236 3064022
2434.70 3108700 3155304 3176146 3174806 3173844 3197588
2437.60 3176158 3123152 3142262 3140116 3077802 3030916
2440.49 3067974 3077802 3048492 3081086 3097638 3112132
2443.38 3092338 3055174 3035916 3020676 3046276 3060950
2446.28 3054250 3084606 3118066 3124944 3135960 3135504
2449.17 3130434 3147856 3132012 3117656 3105760 3063184
2452.06 3042904 3075722 3086702 3053112 3053486 3042696
2454.95 3034392 3044072 3048942 3063576 3048158 3019086
2457.85 3031494 3008972 2956710 2935174 2926020 2907836
2460.74 2881774 2860324 2838930 2804260 2749718 2719664
2463.63 2712560 2714062 2743886 2762910 2783954 2813114
2466.52 2825118 2869718 2871288 2861380 2882386 2879148
2469.42 2893976 2959680 3000446 3009560 3018782 3064856
2472.31 3130312 3133438 3118150 3126040 3173326 3211986
2475.20 3238756 3275760 3283150 3295264 3311792 3378136
2478.10 3418632 3449722 3485626 3507426 3544334 3547092
2480.99 3575842 3599200 3630666 3666014 3705220 3757658
2483.88 3781700 3782208 3807410 3853314 3871236 3902252
2486.77 3917914 3922044 3968134 4001004 4036894 4052770
2489.67 4059554 4092886 4128772 4169406 4222144 4270324
2492.56 4287948 4277898 4320016 4358338 4359060 4379442
2495.45 4407658 4428396 4449006 4508762 4505560 4480590
2498.34 4482398 4495064 4524988 4534648 4554716 4605818
2501.24 4648746 4636066 4639482 4638320 4580166 4577638
2504.13 4613912 4606596 4620250 4613624 4582920 4609766
2507.02 4630634 4596880 4561892 4582842 4623790 4660350
2509.92 4660528 4635432 4642158 4650680 4616344 4579404
2512.81 4567924 4531852 4488826 4441460 4388408 4348822
2515.70 4320884 4320792 4295990 4230752 4207640 4218994
2518.59 4174764 4121232 4098748 4073298 4020780 3986840
2521.49 3994972 3994472 3963060 3948918 3943440 3921848
2524.38 3900282 3859682 3811090 3813174 3837050 3800580
2527.27 3766346 3738704 3725236 3704732 3648078 3642674
2530.16 3609604 3569502 3619806 3672786 3669964 3613818
2533.06 3617456 3635574 3653464 3751256 3823448 3800180
2535.95 3700106 3606152 3521328 3503222 3531902 3521624
2538.84 3512990 3464962 3404094 3362140 3337532 3291688
2541.74 3260894 3240240 3191010 3183688 3223262 3235928
2544.63 3201596 3176940 3162876 3133568 3126020 3138204
2547.52 3133800 3117650 3102094 3127194 3145250 3114808
2550.41 3051726 2992782 2982710 3004406 3012500 3005464
2553.31 2980490 2953504 2941080 2950698 2960358 2926666
2556.20 2910026 2932442 2953412 2948298 2939182 2953888
2559.09 2974098 2962598 2949940 2946122 2972776 3014230
2561.98 3034540 3050680 3046458 3041160 3066024 3099774
2564.88 3094902 3076202 3101228 3135712 3173526 3231630
2567.77 3261414 3265782 3276786 3311456 3323824 3339106
2570.66 3387592 3442540 3473272 3502352 3517752 3520126
2573.56 3549628 3595460 3657486 3709136 3755380 3810236
2576.45 3854108 3891438 3960936 4027672 4057282 4086994
2579.34 4164150 4234256 4307026 4375644 4394892 4462858
2582.23 4529770 4553904 4601724 4649022 4707208 4758220
2585.13 4783710 4866584 4959420 4963196 4994946 5089662
2588.02 5147822 5218436 5313818 5353432 5411560 5490356
2590.91 5511520 5554826 5638468 5689656 5774574 5866418
2593.80 5893678 5923858 6002560 6086084 6166248 6303848
2596.70 6419894 6475776 6523644 6614980 6720050 6845064
2599.59 6937894 6990648 7102898 7288734 7421690 7507056
2602.48 7662986 7807984 7943478 8146870 8376216 8657574
2605.37 9044592 9469092 9763468 9691732 9397870 9136776
2608.27 8930600 8778194 8736270 8730186 8721730 8744792
2611.16 8806764 8943082 9011422 9036824 9100410 9196594
2614.05 9293076 9395010 9506566 9593032 9705926 9789204
2616.95 9876466 9977612 10073780 10169250 10269710 10390890
2619.84 10529820 10713130 10855550 10987420 11168150 11342180
2622.73 11508980 11644080 11791120 12002100 12228440 12454600
2625.62 12714030 13013100 13334840 13675990 14033150 14401380
2628.52 14735520 14883710 14857970 14699360 14478230 14352570
2631.41 14265700 14153510 14007330 13916440 13997360 14174450
2634.30 14414720 14734080 15109900 15514100 16065850 16726390
2637.19 17293060 17844850 18290000 18541040 18674550 18738350
2640.09 18730030 18640200 18504260 18411340 18369710 18303080
2642.98 18273840 18320990 18358750 18371850 18430430 18515210
2645.87 18563240 18600950 18605780 18576580 18599300 18648000
2648.77 18690020 18736240 18752310 18723390 18705420 18715190
2651.66 18721510 18719460 18772070 18844830 18927780 19004480
2654.55 19024550 19078040 19132570 19200930 19307350 19432750
2657.44 19599130 19789070 19990160 20163730 20180300 20004240
2660.34 19894020 19893820 19925760 20040940 20255060 20531180
2663.23 20760590 20959380 21166890 21372730 21552480 21580040
2666.12 21442020 21186930 20806280 20407120 20016260 19665600
2669.01 19341860 19027460 18765630 18507180 18217370 17871910
2671.91 17550420 17178160 16755650 16400880 16103220 15881900
2674.80 15727330 15534730 15367240 15233870 15114570 15064680
2677.69 15027210 15015380 14992150 14962170 14925430 14840020
2680.59 14727870 14610770 14471940 14340600 14218280 14055080
2683.48 13915050 13811060 13649910 13497980 13357370 13175060
2686.37 13059120 12926290 12722320 12588050 12496490 12378960
2689.26 12233480 12101900 11992780 11860160 11729650 11596350
2692.16 11532240 11480410 11357520 11230070 11067900 10949300
2695.05 10876610 10795460 10684260 10616670 10557030 10521390
2697.94 10516610 10492710 10484760 10427740 10422780 10477930
2700.83 10458680 10438740 10491440 10507980 10487850 10474050
2703.73 10470710 10435600 10439880 10437630 10454440 10545670
2706.62 10581040 10635850 10730430 10837090 10921590 11033250
2709.51 11180560 11293760 11432800 11604440 11789610 11962720
2712.41 12088840 12179620 12259350 12351440 12450400 12512360
2715.30 12586420 12648470 12693570 12800890 12882200 12957430
2718.19 13054340 13142980 13243020 13328050 13404640 13497920
2721.08 13584290 13626930 13705130 13745030 13670200 13662040
2723.98 13712070 13732500 13817820 13958110 14049620 14144300
2726.87 14278270 14416220 14574170 14725360 14862610 14995110
2729.76 15110790 15228540 15324380 15391480 15453670 15538900
2732.65 15648520 15738510 15859010 15953540 15965650 15990230
2735.55 16025380 16057500 16054100 15955520 15897770 15876400
2738.44 15842080 15820810 15805880 15811420 15781660 15752990
2741.33 15790020 15848920 15879450 15851040 15826480 15815920
2744.23 15744320 15709520 15721640 15671190 15625860 15635330
2747.12 15635320 15592770 15506480 15462780 15461910 15472770
2750.01 15491220 15534950 15547560 15558130 15606060 15651780
2752.90 15715420 15790370 15918130 16052150 16060380 16048530
2755.80 16150730 16237310 16358300 16509240 16647690 16785660
2758.69 16901810 17026550 17147780 17252330 17372560 17476060
2761.58 17571920 17686800 17841560 18001990 18132410 18268990
2764.47 18392460 18519920 18636430 18784420 18959560 19099090
2767.37 19335640 19605450 19747450 19822360 19809350 19816480
2770.26 19833270 19813490 19811150 19777020 19742700 19733880
2773.15 19750040 19742200 19793490 19868040 19864680 19898200
2776.05 20067100 20279020 20405150 20532680 20634360 20725970
2778.94 20817460 20877770 20991950 21149630 21304100 21461230
2781.83 21633190 21805970 21973940 22139760 22319690 22536550
2784.72 22742130 22947990 23155990 23310230 23423350 23527580
2787.62 23603890 23691730 23830140 23930150 24024440 24204660
2790.51 24351180 24448780 24582150 24743880 24947860 25177520
2793.40 25449630 25757920 26039140 26241450 26399830 26490850
2796.29 26510000 26512450 26575590 26680390 26765300 26812940
2799.19 26875280 27023650 27173010 27264520 27347790 27466470
2802.08 27633760 27835370 27955440 27974090 27975810 28017550
2804.97 28097700 28196040 28341720 28538200 28727850 28972380
2807.87 29291660 29554390 29796350 30062430 30392970 30824710
2810.76 31211860 31523540 31778550 32034830 32372480 32738550
2813.65 33134330 33588520 34175940 34634710 34689160 34537140
2816.54 34450630 34502140 34699930 35009040 35444260 36065420
2819.44 36810260 37491970 37954700 38265740 38517340 38699950
2822.33 38809430 39004020 39334200 39560610 39600580 39593620
2825.22 39728700 39960610 40247640 40679860 41193460 41772400
2828.11 42428470 43124380 43677000 44027910 44223810 44288670
2831.01 44327380 44363120 44499330 44678770 44826010 45109600
2833.90 45398860 45632560 45837810 46127600 46529900 46868890
2836.79 47226590 47500200 47666680 47941400 48287240 48784410
2839.69 49355590 49903820 50498520 51087920 51710660 52479230
2842.58 53405660 54463300 55594550 56790160 58170040 59753340
2845.47 61501510 63327610 65161740 67083840 69118720 71152300
2848.36 73363470 75716020 77975130 80128800 81932750 83505900
2851.26 85091200 86692260 88375700 90154680 91850090 93300780
2854.15 94668440 96170320 97957090 100021800 102439100 105145600
2857.04 107977900 110998700 114219800 117520700 120969400 124592000
2859.93 128158700 131774700 135485000 139202700 143050100 146809700
2862.83 150563500 154380000 157985000 161483800 164989100 168416500
2865.72 171773900 175231700 178673600 182071600 185512000 188810000
2868.61 192114100 195366000 198354500 201288900 204134600 206921200
2871.51 209437600 211414100 213262800 215334600 217674200 220150600
2874.40 222726100 225697300 229222300 233023000 236885900 241128400
2877.29 246093400 251967400 259138700 268315800 279352700 289851400
2880.18 298957100 309094800 321722000 335921000 349151300 356812800
2883.08 356430700 351135600 345282700 340457300 337167000 336477300
2885.97 338335400 342375100 347692000 353061400 356775700 357065300
2888.86 355028000 352690600 350251600 347199600 343447200 338900000
2891.75 333881100 329010400 324409000 319845800 315637700 311881200
2894.65 308339800 305084600 302429000 300493400 299059500 297737200
2897.54 296327900 295144500 294240000 293298400 292536700 292091300
2900.43 291480100 290639600 289546200 288599600 287693700 286281400
2903.32 284849400 283463600 281946800 280393800 278800600 277065200
2906.22 275154500 273091800 270947700 268685000 266363100 264004600
2909.11 261804800 259796400 257404700 254930200 252755200 250720400
2912.00 248834700 247152000 245768700 244844400 244407000 244075300
2914.90 243360900 241861000 239912400 237893600 236025200 234180000
2917.79 232330100 230524400 228587400 226867400 225499900 224369800
2920.68 223372600 222754700 222578800 222658700 223176300 224166400
2923.57 225531000 227343000 229370600 231453500 233613900 236071900
2926.47 238654400 241367900 244291600 247359500 250926500 254563700
2929.36 258116300 261428600 264197500 267403800 268352200 264499300
2932.25 259837900 257771800 257448800 256123500 254150800 253340700
2935.14 253898500 255806900 258829900 262777400 266925300 270367900
2938.04 273180700 275520500 276151100 274758900 273720700 274284400
2940.93 275821200 278453400 282291400 287040800 292697000 299170700
2943.82 306725300 314828200 323261700 332560900 343466700 354105300
2946.72 363582400 371865300 376118300 379303600 384930200 392163600
2949.61 400173100 408798100 417620700 426427900 435238200 444138100
2952.50 452906400 461630500 470421600 479488300 488445300 496723200
2955.39 504786200 512661600 520292400 528063300 536227600 544030500
2958.29 551827000 559804900 567948700 576538600 586149300 596556400
2961.18 606140200 615255500 624387300 634082600 644843100 657265500
2964.07 674115000 695546100 711698000 722699100 736372300 743576900
2966.96 747402100 757625700 771863400 791608900 825556000 893330900
2969.86 1004345000 1049969000 986777300 921936000 889754100 880381900
2972.75 879482600 871600100 862740200 859970800 864586400 876950600
2975.64 894862800 918295200 943500200 968154000 997910300 1035074000
2978.54 1074097000 1113285000 1151370000 1178105000 1189435000 1231815000
2981.43 1331545000 1278976000 1063987000 917806200 845617200 801423200
2984.32 774255900 753965100 738767100 731782400 721402400 701317600
2987.21 689959200 680995900 669508100 663296800 661680700 659681800
2990.11 653000600 645603800 636140900 624057300 614581800 607674500
2993.00 600341100 592270700 584821800 577144000 568680800 560288300
2995.89 551405600 541480800 531161400 520262700 508428700 495902000
2998.78 482524700 468531100 453937100 438904600 423433300 407491900
3001.68 391538600 375228700 358802500 342456200 325962200 309651800
3004.57 293497200 277604400 261971300 246783600 232164400 217997900
3007.46 204320800 191091100 178527300 166464300 154935800 144120300
3010.36 133805900 124007500 114979900 106504500 98497420 91011740
3013.25 84067060 77743650 71862860 66337680 61233940 56517330
3016.14 52194630 48232270 44583870 41202710 38130140 35408490
3019.03 32896960 30524050 28335220 26388360 24652200 23031530
3021.93 21444570 20029200 18818710 17728710 16659780 15659160
3024.82 14844570 14018120 13206670 12550480 11960800 11365770
3027.71 10810800 10298060 9868552 9458000 9064390 8691382
3030.60 8348426 8058610 7735256 7445074 7238968 7029508
3033.50 6785560 6579450 6423004 6251146 6024264 5893008
3036.39 5814574 5667062 5511328 5385706 5296244 5223552
3039.28 5118472 4972360 4846584 4776168 4777516 4708196
3042.18 4555012 4443416 4346274 4300800 4221928 4176574
3045.07 4089000 4002132 3979484 3933044 3859034 3808004
3047.96 3772110 3688792 3644244 3575484 3544710 3541614
3050.85 3516690 3467270 3426796 3409984 3386524 3267948
3053.75 3157122 3217946 3267434 3219866 3165958 3118646
3056.64 3093302 3068866 3058294 3091858 3069104 2992718
3059.53 2967836 2991964 2955094 2913756 2952518 2947918
3062.42 2925594 2896216 2889156 2905064 2924400 2940216
3065.32 2895618 2844302 2866862 2888936 2840936 2870702
3068.21 2896488 2877628 2855690 2844270 2851420 2843968
3071.10 2904156 2882124 2811566 2804226 2812578 2821872
3074.00 2808050 2784272 2823172 2846198 2817412 2823134
3076.89 2832600 2857674 2916486 2921364 2883440 2890364
3079.78 2864782 2837240 2886344 2894852 2874010 2968820
3082.67 2985684 2936032 2950676 2962644 2951056 2946478
3085.57 2961946 2958364 2972800 3044414 3083716 3036114
3088.46 3051276 3084292 3068890 3087274 3061352 3000248
3091.35 2964728 3005184 3061968 3035446 3067610 3123400
3094.24 3132192 3169598 3177506 3147880 3145308 3143832
3097.14 3172276 3208274 3219806 3229938 3214668 3223882
3100.03 3235524 3198516 3218772 3307098 3296642 3264934
3102.92 3293328 3268238 3241182 3228372 3310564 3346316
3105.82 3275960 3293806 3349156 3365918 3338598 3428784
3108.71 3511792 3471808 3519444 3521828 3467804 3468664
3111.60 3407866 3394650 3458406 3489394 3498606 3524306
3114.49 3539346 3542756 3559992 3593682 3591220 3622064
3117.39 3674666 3616516 3613096 3658890 3696780 3701500
3120.28 3662980 3692216 3740632 3768520 3807912 3838120
3123.17 3878464 3864856 3851120 3905110 3873110 3872892
3126.06 3850952 3836138 3886622 3910964 3969290 3981530
3128.96 3990898 4014050 4031474 4045726 4008314 3984326
3131.85 3974282 3948866 3980426 4041192 4037622 4059148
3134.74 4105218 4126728 4145824 4135660 4137326 4177270
3137.64 4213332 4220994 4221608 4236890 4307194 4332260
3140.53 4293034 4282274 4321772 4435678 4509856 4470570
3143.42 4428452 4422842 4483396 4520002 4541614 4587082
3146.31 4667484 4756626 4791876 4822644 4833490 4881476
3149.21 4966956 4979782 5032380 5106680 5112500 5155038
3152.10 5262582 5369464 5395566 5437582 5522666 5568414
3154.99 5609188 5712310 5799124 5816708 5949494 6094808
3157.88 6132460 6192092 6263648 6307016 6353878 6449308
3160.78 6569416 6660274 6758974 6926948 7042622 7085876
3163.67 7175170 7325794 7446734 7491692 7516910 7618366
3166.56 7800876 7936982 8017682 8115774 8206026 8326090
3169.46 8524658 8646166 8661708 8768544 8878708 8907888
3172.35 8985022 9116868 9290648 9477890 9603160 9717714
3175.24 9815096 9860602 9941386 10080150 10168810 10221810
3178.13 10283350 10382310 10514860 10609190 10675060 10741470
3181.03 10749490 10752070 10811000 10863200 10912070 11028310
3183.92 11179740 11233530 11232960 11229920 11292060 11383770
3186.81 11483730 11623370 11712330 11700800 11704850 11717250
3189.70 11658710 11577820 11509740 11456230 11354230 11283540
3192.60 11248580 11219200 11189730 11133230 11163080 11303530
3195.49 11445100 11565740 11730990 11910780 11994750 11963090
3198.38 11865680 11738630 11679600 11661520 11637570 11606620
3201.27 11494120 11361270 11229550 11016210 10851780 10792450
3204.17 10712650 10679290 10684500 10670290 10681660 10705030
3207.06 10629560 10611100 10728460 10664460 10434530 10233610
3209.95 10092710 9989144 9928082 9882656 9892626 10000090
3212.85 10235230 10533210 10599430 10236560 9814532 9662040
3215.74 9573222 9470394 9445174 9402946 9351712 9340808
3218.63 9273610 9214950 9254988 9199036 9089524 9053366
3221.52 9076814 9078674 9036220 9050188 9124654 9194614
3224.42 9200008 9131570 8941524 8731720 8542758 8390234
3227.31 8294912 8254416 8143428 7928342 7840490 7842482
3230.20 7848512 7808210 7749502 7692542 7629034 7592502
3233.09 7498724 7470156 7413744 7258788 7261588 7276068
3235.99 7119438 6903482 6747114 6661640 6576198 6431576
3238.88 6307518 6331920 6351980 6329628 6298814 6273696
3241.77 6348556 6283168 5953728 5627916 5426646 5305594
3244.67 5182696 5033940 4972618 4899512 4833232 4871342
3247.56 4948288 4996352 5045478 4972006 4531996 4132830
3250.45 3949474 3783260 3642560 3515634 3361322 3212170
3253.34 3168000 3115704 2992540 2939558 2852648 2737746
3256.24 2641674 2612412 2576438 2446834 2351976 2252528
3259.13 2220300 2187720 2093624 2076386 2020800 1913214
3262.02 1893906 1897228 1843708 1797546 1756664 1655830
3264.91 1597534 1605878 1523566 1366102 1324880 1312348
3267.81 1309806 1384060 1340548 1301668 1257348 1124858
3270.70 1100654 1095324 1032752 979462 1030976 1104526
3273.59 1018386 915932 850546 812966 839066 879058
3276.49 911112 850366 728710 731608 802866 811222
3279.38 801822 746616 729656 764382 798466 740500
3282.27 693532 711744 703138 758574 824006 828504
3285.16 807640 791414 780778 792868 722676 663896
3288.06 693212 735462 743858 723882 688282 647664
3290.95 708114 783202 759356 706126 751276 755352
3293.84 736402 827718 865034 834334 781454 771410
3296.73 845868 835844 760826 752808 781300 856274
3299.63 890572 874468 873034 894150 965590 982726
3302.52 941762 954350 1053258 1151024 1079306 1047290
3305.41 1123416 1159118 1187270 1217712 1193236 1171438
3308.31 1208766 1263062 1346360 1390452 1444076 1534346
3311.20 1578196 1567558 1630164 1710052 1761260 1726786
3314.09 1735534 1813288 1863062 1947556 2017264 2067478
3316.98 2050308 2067088 2135422 2153154 2139284 2191046
3319.88 2259800 2329980 2351744 2336578 2380618 2417932
3322.77 2420002 2439032 2487570 2568696 2709892 2733684
3325.66 2719116 2766100 2847730 3009006 3058836 3102728
3328.55 3230194 3274402 3291796 3400800 3482110 3444104
3331.45 3531254 3623244 3659232 3709874 3690972 3769742
3334.34 3813696 3796498 3879956 3911718 3875242 3824346
3337.23 3868322 3941826 4009298 4058158 4037682 4050912
3340.13 4048108 4013874 4034450 4065090 4032702 4032832
3343.02 4058700 4040950 3952990 3968220 4041840 3996682
3345.91 3897120 3892168 3919288 3915898 3991842 4005630
3348.80 3967098 4025068 4018904 4018732 4014186 3917304
3351.70 3843480 3814438 3796396 3805850 3808830 3754886
3354.59 3746272 3806334 3774926 3718862 3695264 3672944
3357.48 3672758 3627052 3612578 3614178 3610282 3591674
3360.37 3567992 3565018 3472002 3427218 3488012 3440572
3363.27 3389712 3334074 3259000 3255096 3254672 3223700
3366.16 3223204 3199104 3181342 3197068 3139616 3145726
3369.05 3181574 3054154 2950058 2982714 3038258 2970718
3371.95 2846498 2897712 2918676 2908994 2901476 2940066
3374.84 2963358 2865980 2838976 2891308 2895458 2822822
3377.73 2791996 2792348 2812906 2859362 2892364 2871858
3380.62 2880876 2910730 2929836 2970064 2997164 3004442
3383.52 3002020 2957642 2911408 2903220 2981390 3093364
3386.41 3065990 3093748 3176148 3123032 3119536 3148192
3389.30 3200184 3262990 3302472 3361338 3330816 3352450
3392.19 3381694 3400644 3447898 3477610 3585230 3627250
3395.09 3608114 3672626 3697780 3701348 3740474 3747302
3397.98 3816472 3889220 3896712 3808640 3744820 3766790
3400.87 3770842 3809682 3932178 4010078 4011456 4056908
3403.77 4082004 4077410 4175116 4274292 4245422 4236810
3406.66 4227258 4227706 4247172 4175330 4149444 4219590
3409.55 4300904 4313852 4380166 4414948 4426690 4471232
3412.44 4422034 4459838 4503354 4518776 4580232 4535128
3415.34 4548384 4606026 4578456 4633918 4695068 4715908
3418.23 4722624 4775412 4891632 5023230 5181848 5336840
3421.12 5420296 5400102 5366578 5424332 5566380 5735030
3424.01 5740024 5514262 5315274 5288614 5260972 5196340
3426.91 5127346 5082100 5059840 5068380 5173910 5259208
3429.80 5286232 5329550 5376724 5371528 5341010 5315960
3432.69 5374802 5446250 5470332 5472596 5492562 5573194
3435.59 5605088 5622022 5564470 5467512 5538746 5587544
3438.48 5613262 5642582 5621854 5675310 5733464 5694462
3441.37 5660270 5631250 5590956 5586938 5577360 5595528
3444.26 5707406 5750294 5767698 5835508 5815262 5857642
3447.16 5912186 6000172 6252790 6558336 6752732 6964016
3450.05 6967798 6559918 6172964 6017154 5926226 5787872
3452.94 5722950 5702386 5596804 5522862 5519654 5576864
3455.83 5638236 5607524 5562210 5543630 5583270 5699160
3458.73 5714516 5632900 5623944 5590286 5554402 5582604
3461.62 5573680 5521336 5523258 5498610 5484084 5435008
3464.51 5360762 5315084 5251796 5116144 5018564 5053922
3467.40 5075898 5051142 5081888 5088410 4959014 4839362
3470.30 4806528 4806858 4794582 4750768 4626274 4597198
3473.19 4555646 4431180 4427588 4434542 4377472 4275846
3476.08 4236666 4238238 4201440 4138446 4053698 3971806
3478.98 3897216 3878078 3827686 3759980 3744972 3655166
3481.87 3586516 3536808 3426080 3390396 3422460 3403952
3484.76 3313772 3327298 3257612 3131444 3150152 3140808
3487.65 3061266 2955234 2899738 2855810 2777192 2762880
3490.55 2757384 2757652 2740180 2658760 2657938 2617506
3493.44 2573396 2592556 2526452 2393504 2294002 2328072
3496.33 2359802 2371130 2344894 2352796 2406356 2321928
3499.22 2244972 2246276 2263486 2209718 2094210 1994332
3502.12 2023392 2034200 1972332 1942208 1938858 1934786
3505.01 1891730 1939592 1948774 1850080 1798594 1873156
3507.90 1909190 1866944 1888072 1867504 1814034 1765808
3510.80 1706762 1702280 1738000 1725636 1680478 1670444
3513.69 1713606 1704080 1689702 1695098 1724816 1738116
3516.58 1755926 1777764 1747638 1797850 1731676 1670848
3519.47 1764506 1791318 1767946 1793610 1831314 1806614
3522.37 1812622 1850936 1859576 1877880 1879296 1937944
3525.26 1978456 2026734 2016684 1987868 2022900 2063440
3528.15 2159362 2228472 2270122 2249766 2252420 2278268
3531.04 2336352 2410220 2447902 2495864 2453274 2408742
3533.94 2414036 2405236 2440570 2430640 2429896 2496518
3536.83 2502876 2543036 2507050 2456508 2516668 2499370
3539.72 2523234 2630984 2660688 2672446 2742686 2783264
3542.62 2762178 2758348 2757392 2701724 2644732 2644638
3545.51 2578820 2592394 2596152 2526612 2563204 2512062
3548.40 2448812 2429010 2442022 2520870 2526500 2466062
3551.29 2446510 2401774 2433996 2462938 2393396 2374646
3554.19 2383454 2379484 2372518 2385140 2380150 2289710
3557.08 2243544 2310332 2283506 2266784 2253766 2215012
3559.97 2222818 2254402 2256156 2278694 2328130 2312538
3562.86 2242712 2189050 2267362 2300568 2246084 2286820
3565.76 2337612 2314732 2304586 2320586 2270300 2246142
3568.65 2267640 2260666 2240910 2185036 2156920 2169120
3571.54 2111730 2098488 2183888 2119472 2050538 2116874
3574.44 2088508 2032072 2056150 2059694 2100660 2167220
3577.33 2211232 2260744 2311438 2332080 2359926 2383286
3580.22 2394556 2370614 2347816 2372724 2408230 2417808
3583.11 2447330 2457790 2500180 2531270 2513916 2543146
3586.01 2643640 2627812 2633476 2763652 2819348 2895492
3588.90 2875968 2914376 2992214 3026800 3047736 3100384
3591.79 3163670 3144240 3237754 3359088 3370106 3448880
3594.68 3548480 3579364 3571704 3582700 3604668 3635740
3597.58 3723046 3720516 3705868 3809094 3882260 3965676
3600.47 4127096 4256262 4374066 4530608 4696110 4838818
3603.36 5031282 5244594 5505764 5793118 6181724 6637230
3606.26 7035564 7372402 7605752 7810190 8112590 8526172
3609.15 8754670 8937576 9184002 9455614 9778846 10122700
3612.04 10503660 10841790 11197980 11583870 12012630 12432570
3614.93 12791650 13211020 13684780 14091460 14584780 15142480
3617.83 15560260 16015420 16579570 17090710 17501450 17987820
3620.72 18503440 18974790 19399420 19903470 20553490 21035370
3623.61 21516510 22224130 22913820 23513410 24179890 24911720
3626.50 25647860 26461630 27654320 29527920 30649290 30310260
3629.40 30220580 30882600 31796640 32801210 34102660 35691720
3632.29 37574560 39864020 42668850 45905180 50621200 57827920
3635.18 76986640 117786300 118082000 80772980 68591660 68202270
3638.08 69341570 71194670 73686140 76972570 80132770 82629650
3640.97 83515180 84322550 86136020 88335780 90746820 93138290
3643.86 95229530 97215540 99453480 101952900 103960900 105288400
3646.75 106122200 106278400 106330200 106777500 107305200 107482700
3649.65 107508000 107569800 107637700 107814000 108036500 108506300
3652.54 109355900 110601500 112546600 114944100 117459400 119837600
3655.43 121260300 121417600 119605300 116035900 113792300 113567300
3658.32 115421600 118493100 119960900 119683900 118090300 116094300
3661.22 114488400 112993800 111971000 110956500 108913300 106895800
3664.11 105624700 104667500 103855000 103154800 102516700 101950600
3667.00 101608300 101378000 101107000 100652700 99933580 99117020
3669.90 98264560 97145530 95598550 93925580 92231180 90498550
3672.79 88518100 86292790 83965980 81633700 79156930 76515620
3675.68 73723840 70669170 67760220 64871180 61886410 58945180
3678.57 56028870 53208460 50444730 47753120 45111370 42456260
3681.47 39862410 37483950 35234440 33086640 31083640 29086020
3684.36 27252870 25535030 23951600 22523080 21120500 19795190
3687.25 18618080 17663170 16533630 15301650 14303450 13445170
3690.14 12704430 12021750 11327970 10656390 10041470 9491782
3693.04 9037938 8576496 8223040 7915000 7561686 7271856
3695.93 6998008 6733468 6523962 6358012 6145220 5918298
3698.82 5796406 5623472 5367988 5207332 5076742 5041824
3701.72 4984478 4817642 4685872 4545622 4450352 4370924
3704.61 4237548 4169994 4140260 4055752 4036792 4009840
3707.50 3927724 3903482 3959722 3991218 3924096 3888216
3710.39 3873554 3835010 3924214 3991982 3904840 3851532
3713.29 3764066 3706110 3679916 3597040 3469808 3361804
3716.18 3345614 3307812 3253626 3226560 3147510 3068736
3719.07 3059796 2995686 2917728 2926606 2933404 2953990
3721.96 2979892 2932544 2908910 2857510 2774366 2815314
3724.86 2813558 2774986 2820654 2746928 2644082 2693640
3727.75 2617248 2561636 2618558 2617172 2627918 2596984
3730.64 2564000 2633970 2710140 2656498 2576642 2551300
3733.54 2552478 2600768 2600444 2483618 2479062 2624476
3736.43 2626306 2584774 2581972 2576140 2577382 2579632
3739.32 2605292 2569242 2502224 2514232 2558992 2535472
3742.21 2436504 2455900 2580924 2756148 2908560 2754838
3745.11 2518194 2388188 2353656 2379472 2342374 2359828
3748.00 2366006 2461770 2586622 2451916 2362834 2341518
3750.89 2294060 2444264 2512128 2278938 2199436 2235716
3753.78 2226248 2178286 2139208 2186806 2281714 2322718
3756.68 2164090 2138332 2218734 2184476 2191350 2219264
3759.57 2242272 2208158 2170612 2192746 2269866 2333242
3762.46 2316616 2250702 2248326 2337274 2411342 2491182
3765.35 2586698 2532130 2472476 2524194 2554764 2585852
3768.25 2615216 2644788 2693376 2702510 2699022 2744478
3771.14 2825474 2880000 2851478 2901374 2958412 2999056
3774.03 3105058 3136664 3178526 3216814 3265434 3325556
3776.93 3312218 3372668 3475310 3540774 3647612 3680098
3779.82 3649596 3710078 3829848 3929866 3926236 3966984
3782.71 4096278 4186302 4230846 4246548 4328576 4437268
3785.60 4448826 4527976 4613722 4664066 4712354 4689146
3788.50 4672176 4714854 4711576 4711118 4796448 4779610
3791.39 4725244 4728366 4741412 4842182 4882666 4897492
3794.28 4963744 5007786 5053290 5106574 5189404 5291522
3797.17 5350672 5354964 5358572 5372942 5436366 5520816
3800.07 5516020 5635528 5719554 5449728 5359980 5435022
3802.96 5415014 5419012 5396964 5355730 5385464 5460734
3805.85 5484498 5650052 5692274 5485624 5485016 5534560
3808.75 5535630 5599652 5656424 5719918 5765492 5785742
3811.64 5798718 5736024 5726038 5728910 5695628 5765582
3814.53 5813272 5894396 6112666 6064398 5909014 5888686
3817.42 5856888 5881862 5967240 6076242 6072634 6077958
3820.32 6125092 6062906 5983428 5818886 5761924 5727264
3823.21 5648052 5706526 5731896 5730824 5736074 5752560
3826.10 5819816 5914246 5916834 5905996 5955604 5977514
3828.99 5995692 5929220 5872082 5835686 5849364 5810060
3831.89 5699428 5651586 5616912 5585740 5553044 5651466
3834.78 5686746 5641764 5582838 5551416 5599806 5768428
3837.67 5784132 5553658 5452530 5507952 5507438 5420822
3840.57 5391204 5366810 5330214 5334404 5331016 5354958
3843.46 5371156 5291064 5229454 5180748 5118940 5112714
3846.35 5144170 5188888 5230240 5189806 5112174 5103636
3849.24 5145756 5118256 5120236 5142092 5231686 5335132
3852.14 5145860 5069182 5274110 5479906 5363086 5112496
3855.03 5062726 5093440 5095322 5091418 5109176 5100158
3857.92 5046220 4947078 4908132 4915858 4911046 4854584
3860.81 4849196 4837076 4729838 4718770 4814212 4884358
3863.71 4857608 4938728 5064712 5057444 5107360 5202764
3866.60 5466790 5845360 6057974 6016888 5860512 5627058
3869.49 5428894 5226288 5057970 4947544 4839260 4798144
3872.39 4828376 4829048 4770490 4750208 4679848 4672406
3875.28 4746554 4748658 4679934 4627662 4696962 4802448
3878.17 4737304 4701330 4795372 4908690 4891808 4820468
3881.06 4820068 4814928 4783850 4836694 4920810 4858902
3883.96 4797796 4773572 4825496 4873046 4797418 4746338
3886.85 4708414 4715736 4705720 4658190 4740272 4758846
3889.74 4654162 4712920 4844044 4822682 4844000 4949988
3892.63 4981582 5072904 5210338 5287654 5427806 5481700
3895.53 5379696 5399894 5321118 5062854 4986522 5044306
3898.42 5069682 5090082 5041256 4915352 4834748 4754656
3901.31 4651240 4498934 4367838 4347204 4399602 4400514
3904.21 4289490 4234416 4192478 4141372 4128094 4118912
3907.10 4106166 4100368 4083874 4027236 4030576 4094054
3909.99 4118638 4083620 4028942 4010122 4058152 4014288
3912.88 3899484 3861362 3820932 3736254 3657518 3700104
3915.78 3731592 3715422 3760288 3731602 3596444 3503458
3918.67 3432800 3384766 3416032 3365968 3299054 3312006
3921.56 3272330 3218658 3279782 3309946 3208168 3103976
3924.45 3164258 3263264 3158762 3092660 3133440 3103976
3927.35 3044016 3007170 2985892 3006486 3003766 3013918
3930.24 3001302 2988274 2959678 2971286 3033384 3051520
3933.13 3099382 3105116 3088772 2992440 2879604 2811348
3936.03 2729334 2708906 2676378 2591140 2528742 2526316
3938.92 2523542 2513230 2497428 2565340 2528698 2446290
3941.81 2568738 2601390 2505380 2481912 2538428 2551772
3944.70 2547280 2551286 2557158 2518836 2557912 2536964
3947.60 2402906 2405844 2397416 2201044 2111194 2177892
3950.49 2147674 2101090 2041388 2025454 2073202 2049662
3953.38 2113268 2083126 1965618 1984480 2050776 2054190
3956.27 2029664 2032086 1977842 1894702 1919728 2000706
3959.17 1996614 1908588 1840618 1853136 1790774 1747554
3962.06 1772796 1804436 1789312 1741038 1774840 1771564
3964.95 1682880 1670788 1724118 1746920 1701784 1696440
3967.85 1760560 1741378 1701010 1712342 1704774 1663546
3970.74 1629646 1682336 1719528 1684034 1640470 1654980
3973.63 1649838 1601146 1616576
##END=
