##TITLE=2-Propanol
##JCAMP-DX=4.24
##DATA TYPE=INFRARED SPECTRUM
##CLASS=IUPAC A
##ORIGIN=NIST, Anayltical Chemistry Division, 301-975-3108
##OWNER=COPYRIGHT (C) 1998 by the U.S. Secretary of Commerce
##DATE=98/10/1
##$SPECTRA VERSION=1.00
##$UNCERTAINTY IN Y=2.0 % relative (B=1.0E-04,C=6.5E-10,D=2.7E-14)
##CAS NAME=2-Propanol
##CAS REGISTRY NO=67-63-0
##MOLFORM=C H3 C H( O H) C H3
##MP=-89.5 C
##BP=82.4 C
##$NIST SOURCE=QUANT-IR
##SPECTROMETER/DATA SYSTEM=IFS66V (Bruker)
##INSTRUMENT PARAMETERS=KBr Beam splitter; MCT Detector; Multipass cell
##STATE=gas
##SAMPLE DESCRIPTION=2-Propanol Primary Gas Standard
##PRESSURE=101.3 kPa
##TEMPERATURE=23 C
##SAMPLING PROCEDURE=1 L/min Flow
##RESOLUTION=0.9640
##DATA PROCESSING=Boxcar Apodization
##XUNITS=cm-1
##YUNITS=(micromol/mol)-1m-1 (base 10)
##XFACTOR=1.0
##YFACTOR=4.5474E-13
##DELTAX=0.4820
##FIRSTX=575.169
##LASTX=3975.077
##FIRSTY=2.46E-06
##MAXX=3974.59
##MINX=575.17
##MAXY=.0006523
##MINY=-7.75E-08
##NPOINTS=7053
##XYDATA=(X++(Y..Y))
575.17 5415456 5935384 6055018 6401478 5963746 6145260
577.58 6359354 7062362 7048916 6101830 6408186 6131556
580.47 5929968 6236220 7094748 6501440 6426912 6596880
583.37 6287654 6215016 6525386 6720220 6774142 6379522
586.26 6793260 6773250 6777408 6970500 7427936 7012354
589.15 6875696 7024216 7552826 7149332 6291254 7358128
592.04 7128958 7116220 7676948 7928308 8038868 8135080
594.94 7557072 7282746 7919842 7455338 7498636 8070834
597.83 7504756 8271484 7846130 8040158 7555882 7709030
600.72 7855224 7944984 7673940 8240808 7796440 7689682
603.61 7381582 8366086 8378600 8475584 8275098 8126150
606.51 8377348 8055870 7976738 8223914 8248486 8758340
609.40 8576048 8618080 8314818 8628468 8447642 8446362
612.29 8383320 7962056 8706874 8338324 8299390 8143042
615.18 8378398 8797154 8665038 8777468 8578766 8917134
618.08 8957592 8868996 8780722 8843888 8744036 9130988
620.97 9254606 9440934 8945494 8598922 8698592 8614144
623.86 8959252 9208934 9231764 9331980 9313104 9727612
626.76 9508678 9163292 8876558 9206600 9084034 9081458
629.65 8887092 8699324 8739148 8912276 8797118 9021682
632.54 9016894 9143546 9262824 8842692 8883438 9041146
635.43 9202768 9095178 8967478 8966742 8732216 9422344
638.33 8987656 9381798 9054564 9544278 8762486 9031222
641.22 9137178 9187606 9147492 9107414 9115772 9243212
644.11 9043530 8861874 9054652 8989996 8796336 9188802
647.00 9025988 8908950 8859828 8526262 8474026 8808838
649.90 8370698 8506202 8616660 8316276 8559850 8496516
652.79 8361638 8154466 8375190 8281918 7908544 8449392
655.68 7817376 7747978 8020234 8272782 7892386 7876126
658.58 8059966 7781228 7659700 7472016 7895044 7691264
661.47 7686770 7709876 7293258 7401222 7573022 7258478
664.36 7617304 7322434 7709876 7653232 7310116 6646262
667.25 6019236 6654368 6823058 7090776 7236436 7113022
670.15 6963270 7211018 7305768 7291394 6986768 7090376
673.04 7109466 6879882 7045016 7082534 7021260 6941312
675.93 7003446 6827860 7110986 6874990 6536206 6720342
678.82 6218088 6754426 6675084 6675898 6459876 6774648
681.72 6685010 6587656 6429220 6141522 6361720 6438610
684.61 6584614 6329210 5995852 6387062 6449848 6358396
687.50 6277798 6062230 5979996 6388776 6418360 6102430
690.40 6483702 6143856 6021610 6144624 5817506 5996264
693.29 5587484 5769252 5766074 5574590 5700826 5778146
696.18 5938260 5997236 5703738 5854106 5582416 6002532
699.07 5788012 6125984 6129954 6160570 6017558 5886842
701.97 5983622 6125398 6064684 6092210 6055488 5888508
704.86 5951200 5760020 5893488 5823626 6051374 5726750
707.75 5513764 5880558 5522326 5422012 5588618 5424568
710.64 5645306 5635474 5553156 5416736 5396754 5254842
713.54 5127288 5177614 5225110 4886232 5018896 4718108
716.43 5016694 5056518 4906278 5033638 4953678 4850440
719.32 4764882 4793482 5179652 4850456 4895678 4853146
722.22 4836162 4726092 4731796 4779058 4578168 4604448
725.11 4587366 4552720 4410588 4588002 4431856 4258244
728.00 4326540 4266566 4183584 4181944 4316298 4142666
730.89 3971892 4133114 3943620 3933500 3775254 3791940
733.79 3570050 3587712 3570228 3499002 3552700 3570030
736.68 3442222 3527616 3226894 3492930 3358890 3277500
739.57 3278438 3121618 3045816 3111798 2910492 2870958
742.46 3092938 2978428 2969750 3105944 3030100 2832776
745.36 2784178 3000206 2755288 2886852 2677392 2635144
748.25 2633212 2582576 2530260 2673818 2463792 2501352
751.14 2353202 2452438 2406754 2550202 2471488 2584734
754.04 2540692 2413146 2468824 2493874 2253904 2343314
756.93 2363880 2328492 2292646 2268082 2584546 2225408
759.82 2426696 2330248 2224182 2234224 2169880 2185704
762.71 2279042 2438838 2133230 2245480 2288506 2249110
765.61 2371168 2416080 2472220 2414140 2457036 2357572
768.50 2364534 2215662 2354694 2492432 2623246 2482156
771.39 2532712 2485008 2515572 2553552 2644718 2649412
774.28 2955892 2822296 2950574 3078492 3249984 3402650
777.18 3384362 3491608 3575036 3758074 3824908 4152078
780.07 4526436 4520058 4644798 4818996 5214174 5254094
782.96 5825506 6246334 6585956 7104472 7722894 8148630
785.86 8560472 9083388 9635906 10373210 11253380 11748420
788.75 12558380 13572650 14385150 15410790 16169050 17511160
791.64 18649680 19741810 21253750 22383590 23739560 25090910
794.53 26530770 27949000 29399120 30675580 32144810 33576800
797.43 35176880 36634920 38397840 39691700 40877040 42098120
800.32 43751660 44846750 46074770 47050920 48066660 48527890
803.21 49673380 50155200 50957090 51273000 51628460 52452670
806.10 52446410 52828240 53142480 53328690 53759840 54391890
809.00 55018200 55548980 56418480 56970860 57475120 58208430
811.89 58978470 59422690 60076000 59715870 60544680 64342190
814.78 66209310 65867420 64253550 63435030 62162110 60151080
817.68 60453110 57578480 57333830 63007500 65046720 62544070
820.57 59799290 57644810 56040880 55602500 54688400 54794340
823.46 54649950 55042310 54933900 55766860 56048260 56591000
826.35 57238920 57315610 57278690 57513120 57319870 56672020
829.25 56081030 55412450 54687830 53386440 52091820 50658480
832.14 49319830 47716250 45444420 43670010 41736560 39692590
835.03 37696120 35745260 33613640 31876670 30130910 28354900
837.92 26456460 24521360 23334790 21939970 20425550 19207800
840.82 17899480 16858550 15812600 14980470 13966700 13032660
843.71 12331100 11632880 11352770 10388780 9839830 9524162
846.60 8900412 8485132 8067968 7849978 7408684 7235118
849.50 6796866 6718818 6431154 6150900 5858114 5730394
852.39 5769000 5369904 5300108 5320146 5129614 4981018
855.28 4836022 4589104 4565314 4469682 4232740 4342408
858.17 4058842 4103346 4032302 3969058 4012014 3736032
861.07 3666100 3830624 3519052 3591568 3616584 3439840
863.96 3444854 3615460 3451520 3492402 3472818 3296100
866.85 3475642 3310010 3410502 3349022 3410184 3493592
869.74 3326184 3433226 3342318 3290952 3510816 3351118
872.64 3146654 3461126 3394592 3281702 3192456 3301288
875.53 3379050 3241590 3249442 3225518 3296428 3315140
878.42 3314632 3222014 3255500 3394396 3293910 3415908
881.31 3408462 3591542 3443844 3494562 3622852 3514308
884.21 3751122 3670274 3647788 3757082 3759070 3864316
887.10 3841456 4050088 3998832 4094552 4183224 4355508
889.99 4393716 4466202 4519850 4630684 4745170 4941216
892.89 4959838 5002522 5197598 5275928 5405272 5496240
895.78 5746772 5777540 6031426 6130042 6297646 6561378
898.67 6703824 6781716 7007332 7310028 7275100 7677826
901.56 7925838 8165050 8512614 8714322 8896238 9471140
904.46 9676846 10090220 10318640 10682000 11225720 11510440
907.35 11941690 12415040 12954990 13439080 13992020 14651800
910.24 15168120 15812890 16471710 17013680 17945220 18653850
913.13 19604900 20461640 21528760 22623230 23700290 24722680
916.03 26106130 27384990 28896130 30446190 32299810 34243240
918.92 36333770 38422120 40000160 41598510 43757990 46281680
921.81 49027170 51784650 54724960 57969000 61320850 64874730
924.71 68764670 72890330 77121420 81672750 86381880 91625540
927.60 96946760 102609300 108796600 115451500 121168900 127744400
930.49 135108800 142082200 149798000 157505800 165320900 173609800
933.38 182154800 190371100 198522700 207636100 216196100 224933600
936.28 233483200 241603000 249061700 256530200 263597900 269867600
939.17 276004800 281315200 286643300 291065400 295232400 298787900
942.06 301674000 304008900 306673400 308694200 309250900 310403900
944.95 311429100 313529200 314299600 316454600 319331400 321747600
947.85 327264900 331433500 337715500 344086000 350475700 356834900
950.74 362792500 367713700 371680700 377282800 381328500 375548900
953.63 373278500 372949800 372490300 354351800 343338300 383012100
956.53 405774500 394139300 369053100 345032300 333051100 327797900
959.42 321930700 314484400 310453200 309074500 309344000 311236400
962.31 314189000 317505300 320441200 323891500 326068300 327548500
965.20 328060400 327509800 326031800 322628500 318538900 312517100
968.10 306055100 299209900 290216300 280821700 270696100 259969600
970.99 248058000 236339300 223970000 212163800 199707900 187791500
973.88 175628600 163959400 152815400 142657200 132216500 122725500
976.77 113544500 105164200 96886420 89565960 82568060 76398510
979.67 70266320 65072840 60057620 55575000 51264940 47617200
982.56 44083740 41174830 38286230 35843100 33483240 31447020
985.45 29564000 27857930 26273830 24766240 23736730 22657870
988.35 21610270 20785660 20062270 19407030 18574390 18036000
991.24 17330190 16814750 16344780 16032740 15393670 15081070
994.13 14681450 14424330 14088410 13944840 13625720 13470800
997.02 13157730 13128650 12785320 12657030 12516350 12431870
999.92 12289040 12152310 11979770 12064210 11947140 12035740
1002.81 11796830 11873760 11725750 11706150 11568450 11665920
1005.70 11499120 11584270 11526690 11609490 11473420 11644920
1008.59 11363550 11463580 11349260 11401940 11322640 11356940
1011.49 11343740 11358160 11173850 11282710 11190110 11143780
1014.38 11069170 11227690 11063900 11263630 11317020 11479000
1017.27 11564850 11642690 11876080 12109280 12349270 12676110
1020.17 12749350 13014770 12983460 13351840 13329280 13849930
1023.06 13893830 14281730 14472490 14764780 14984090 15296780
1025.95 15733650 16161990 16304170 16649390 17122080 17610790
1028.84 17973080 18471580 19009140 19696540 20142730 20821660
1031.74 21300550 22027550 22742530 23560040 24070940 25140400
1034.63 26037100 27214270 28179120 29280900 30282680 31813350
1037.52 32931650 34431620 35865460 37568900 39129400 40854110
1040.41 42640180 44683840 46379820 48647020 51020320 53561840
1043.31 56203840 59170140 62271660 65817700 68940560 72301250
1046.20 75757530 79325550 82573660 86556480 90079430 94228660
1049.09 98267700 102699600 106684500 111032400 115371000 120044800
1051.99 124430300 129286900 133544200 138253500 142231100 147093400
1054.88 151528500 156693400 161735600 166887900 171505500 176253500
1057.77 180485400 185076500 189148100 194282800 197847500 202394000
1060.66 204774800 206859400 208809300 211320800 213848400 217360200
1063.56 220353100 224754500 227436800 231319200 235576200 243029100
1066.45 250956200 257021200 260036900 267824800 272713700 279678300
1069.34 279275600 282168200 279706500 297381000 298024400 288180000
1072.23 308350700 302292100 293993600 285970700 283068900 280636900
1075.13 281360400 277154700 275535400 276530400 282440500 279576800
1078.02 280200100 281164600 276649300 274489000 275860300 274458300
1080.91 273610100 275339100 273463200 271038100 267556600 263713900
1083.81 262328200 262315800 262233800 261780400 260970400 258906300
1086.70 257312500 256494900 255921000 255027400 253320400 250476700
1089.59 247506200 242717500 237476300 232565000 227946400 222534400
1092.48 218206800 212600200 207730700 202643600 197503500 193052800
1095.38 188554900 183812800 179125200 174994100 170677700 166836300
1098.27 162719900 159293900 155919400 153008800 150173000 147676800
1101.16 145323800 143123600 141361100 139727000 138198200 137021200
1104.05 136036800 135370200 134917100 134718700 134860500 135051000
1106.95 135369300 136007600 137071400 137858700 139023800 140312700
1109.84 141672700 143003300 144958000 146730800 148664300 150622000
1112.73 152851200 155391600 157705200 160592100 163416000 165624700
1115.63 167993800 170289400 172667700 175795200 178661300 181474700
1118.52 184809400 187862400 190956400 193645000 196804800 199445400
1121.41 202467100 205041400 208097100 211714800 214451200 217722400
1124.30 220753000 224609500 227935500 232010500 234520000 236444100
1127.20 238943400 243996100 250701700 255096400 251994200 251393600
1130.09 258473100 262823100 266066400 271789900 262871100 260936600
1132.98 266285600 271285500 276136000 282134000 284934600 291978800
1135.87 294033000 303856600 311577900 310457300 309826900 309326500
1138.77 314670100 315827400 320005100 320946300 323981600 325887900
1141.66 330024800 333472800 338231900 342477700 347166600 350053700
1144.55 354309100 357661000 363209900 367246200 372579000 377156200
1147.45 381865800 386538500 389213800 391475900 393927600 395275000
1150.34 397284300 397458300 397706600 396969900 396827300 395363500
1153.23 395097000 393390700 392694300 391209900 390201900 388277400
1156.12 386468400 382807500 380415600 376962600 373882100 369558200
1159.02 366705200 363132300 360504600 357611500 355487500 351297200
1161.91 348470000 348355200 352453800 347984200 339962100 335483900
1164.80 326460500 319264800 314709000 313130800 310290700 307225000
1167.69 304739200 303349400 293755100 286922700 281901600 275172800
1170.59 269868800 265581800 261142400 257451000 252072400 245497700
1173.48 241267700 236571500 232767400 228419200 224597900 220133600
1176.37 215881900 211659100 207166300 202760400 198417300 193617700
1179.26 188801800 183352200 178446600 172712800 167136900 161866600
1182.16 156833300 151997600 146341100 141236900 135969600 130827600
1185.05 125784400 120623400 115946900 111111200 106645300 101986200
1187.94 98196900 94109540 90425840 86644640 83517480 80171210
1190.84 77422130 74587900 71913580 69401870 67395810 65110520
1193.73 63220310 61157700 59648580 57811710 56360110 54680410
1196.62 53325670 52026650 50971590 49706490 48656980 47543930
1199.51 46948900 46026590 45475560 44734170 44456780 43703860
1202.41 43388160 42742670 42698570 42062110 41898620 41566970
1205.30 41832830 41849900 41854810 41565650 41623480 41693920
1208.19 42163640 42305820 42787920 43154420 43705700 44093640
1211.08 45052480 45534460 46487290 46725210 47460000 48242840
1213.98 49728930 51141140 52755750 53582260 54871180 55959860
1216.87 57524850 58855890 60717700 62339760 64439920 66350200
1219.76 68845080 70964790 73460080 75625350 78552370 81062010
1222.66 84023030 86936420 90023540 93117740 96727550 100199500
1225.55 104095800 107598800 111625600 115478200 119801700 123837700
1228.44 128711300 132803200 137454900 141682200 146176700 150202700
1231.33 154542800 158642800 163119400 167071600 171625000 175313400
1234.23 179917500 183682400 188174900 191574100 195473300 198582000
1237.12 202014400 204357500 206421200 207782400 209401800 210183700
1240.01 211475700 212338200 214810800 215813500 217361500 215070100
1242.90 214434700 213631200 215238200 216312600 218365600 219672400
1245.80 222825900 226228300 232941800 237078700 243440200 247589500
1248.69 253676600 254766600 263737900 270924900 277004300 265508800
1251.58 289092200 258314400 242296400 260529600 257394800 253866500
1254.48 244439600 239354900 233626000 230812800 226485200 224180900
1257.37 221524800 219487600 217385600 216893300 215074100 215871700
1260.26 213985000 213379100 212971600 213500200 213002800 212388200
1263.15 209908300 208080200 203440000 199739600 196272600 192714400
1266.05 188612300 184850400 180348500 176182400 170636400 165815000
1268.94 160708900 155738900 150515500 145887000 140628300 136345600
1271.83 131408100 125222700 119567000 115207400 111167900 107687200
1274.72 103870100 99933200 95859900 92105800 88376650 85028680
1277.62 81649270 79008990 76084530 73495670 71064860 68813040
1280.51 66607670 64700410 62744000 60922500 59122680 57693490
1283.40 56053390 54612620 53006800 51655440 50360220 49126390
1286.30 47804180 46797040 45654700 44829750 43620260 42755310
1289.19 41734050 40899770 40031060 39409940 38453070 37947040
1292.08 37410400 36912020 36343170 36000570 35466520 35269730
1294.97 34874920 34747660 34517190 34346280 34215770 34084290
1297.87 33922220 33799280 33513640 33493190 33281750 33282770
1300.76 33115740 33178590 33097860 33224160 33150580 33199460
1303.65 33164480 33313460 33294100 33520630 33585720 33812300
1306.54 33919480 34255050 34308800 34498820 34793980 35041820
1309.44 35381960 35707420 36234320 36576130 36952660 37394090
1312.33 37842240 38305750 38800690 39441570 40035130 40979220
1315.22 41520650 42503480 43343820 44052830 44536600 45441770
1318.12 46321070 46913150 47653950 48576440 49634990 50816340
1321.01 51892730 53024850 53960700 54875450 55905830 57051810
1323.90 58249110 59582480 60886600 62381900 63740250 65218640
1326.79 66770650 68445860 69948380 71503030 73154490 74752460
1329.69 76137930 77832860 79168640 80473800 81808800 83000290
1332.58 84228540 85496480 87185740 88389200 88622890 89867980
1335.47 91102280 92578330 93553750 94619680 95810570 97377730
1338.36 99156290 99837460 100404700 101602300 103629900 105127600
1341.26 106948900 108707200 110338800 111582300 112612300 112233700
1344.15 111250600 109937700 110313600 113601400 118773900 122554900
1347.04 123161600 122344700 121294100 122508800 123931400 125181800
1349.94 126790400 128197800 130530400 132748700 134898900 137482300
1352.83 140114600 143558300 146919300 149843800 152495800 155104700
1355.72 157582900 160452100 162375800 164376300 166287100 168672200
1358.61 170797200 173295800 176039000 178645400 180616800 183114900
1361.51 186221300 188768000 192121200 195549400 199590900 203279600
1364.40 207306300 211401500 216151400 220882800 226068700 231726900
1367.29 237885000 244339400 251164600 257520800 264945800 273248200
1370.18 283298600 292760100 301867800 312546700 327728100 327321200
1373.08 326323000 332240700 338545200 346057100 353175300 361027700
1375.97 368700600 375309200 382002500 389163100 396135500 404450300
1378.86 413791100 424252500 430553300 433371600 439035200 444297700
1381.76 453150400 441607000 429314000 425920400 421530100 418156100
1384.65 417937000 417255000 415885900 414348400 414147500 411995500
1387.54 407484200 403790700 399864600 396259200 392075500 393546700
1390.43 399326900 403735100 404951400 405237300 405323700 404632400
1393.33 397644900 391805400 384838800 373618700 363863800 355478800
1396.22 346894800 337680100 328489700 319086400 309216800 301292900
1399.11 289664900 279194700 270222500 258864000 248242500 238827200
1402.00 229194600 219029400 209749600 200993900 193340100 186002800
1404.90 178939800 172046700 165847300 160099500 154912400 149707600
1407.79 145136900 139645600 134559700 129667300 124995400 120305600
1410.68 115882200 111660700 107608700 103869400 100088100 96564730
1413.58 93258290 89695180 86344630 83353720 80518490 77826900
1416.47 75416140 73345220 71284670 68974410 66879000 65251680
1419.36 63187390 61402900 59826890 58223900 56968000 55710120
1422.25 54601280 53556190 52804280 52034680 51386780 50799360
1425.15 50300770 49705320 48952860 48368880 48020380 47547480
1428.04 47465000 47211400 47149350 47211240 47192120 47139660
1430.93 47424950 47604030 47831020 48254990 48757030 49331820
1433.82 49706000 49884490 50465120 50995720 51649010 52539460
1436.72 52992660 53389000 54231640 54819740 55706170 56346700
1439.61 57296360 57817440 58822760 59504140 60306620 60946480
1442.50 61735660 62247990 62998010 63678990 64545080 65119400
1445.40 66103810 66636730 67816450 68236610 69447730 70024380
1448.29 71441820 72453790 73354270 74703570 76438140 75718470
1451.18 76350530 77306430 79265640 81535420 84398480 87889240
1454.07 91303550 92653950 98596110 94831600 97083040 100436400
1456.97 104472200 111633200 107210800 109218600 113900100 118100800
1459.86 122881400 127934200 132457800 137606700 144696800 149706300
1462.75 155154700 142205000 133449000 113812600 96121140 87854090
1465.64 79797940 77525710 75524130 73520660 73576650 76267060
1468.54 80711110 87043500 95704900 105674200 115028800 127027700
1471.43 145865500 144529600 159129600 184713300 151383800 123601700
1474.32 113887900 101044700 91481900 86341020 80583940 76699570
1477.21 73805170 72029700 70347650 69244280 67991900 67459520
1480.11 66653730 66470810 65824040 65491980 64884360 64891980
1483.00 64262660 64071760 63410860 63081430 62453380 62076940
1485.89 61192780 60670330 59864320 59240680 58085760 57385770
1488.79 56245710 55415590 54254600 53258200 51910970 50537100
1491.68 49146490 48075280 46653920 45267220 43673520 42080060
1494.57 40502490 39137280 38121590 36937530 35105440 34148840
1497.46 32699820 31695700 30525170 29332180 28006950 27006700
1500.36 26045830 25076650 23524950 22341110 21233220 20514020
1503.25 19495550 18641450 17851970 17274410 16951440 15796260
1506.14 15335570 15110120 14024630 13484870 13066690 12449570
1509.03 12027070 11686220 11122400 10795620 10312400 10237350
1511.93 9784336 9338498 9019766 8765850 8514096 8362770
1514.82 8054126 7756140 7679054 7539598 7389194 7176282
1517.71 6869740 6699970 6497600 6428136 6419522 6133530
1520.61 6345738 6262232 5566184 5852542 5463260 5407298
1523.50 5251338 5263574 5055068 5265738 4930626 4866996
1526.39 4780036 4886418 4611988 4715332 4512526 4502474
1529.28 4442630 4520460 4419740 4417738 4239194 4130036
1532.18 4070012 4106184 4103374 4103374 3838218 3886330
1535.07 3684278 3753756 3652914 3722548 3536552 3704298
1537.96 3562338 4183352 3755672 3632030 3954826 3480508
1540.85 3457604 3645730 3718996 3368038 3476830 3417582
1543.75 3327366 3333398 3442884 3317044 3200182 3196436
1546.64 3181660 3110722 3105432 3062798 3008078 3074968
1549.53 2997892 2974378 2867006 2905478 2802030 2868124
1552.43 2853810 2872390 2807326 3123054 2758348 2855324
1555.32 2744944 2790444 2656758 2913190 2777462 2928966
1558.21 3260574 2667094 2800134 3168242 2825940 2466698
1561.10 2582776 2486206 2594698 2484254 2435280 2467630
1564.00 2477396 2538034 2452782 2418912 2376762 2400580
1566.89 2393852 2378326 2376672 2458228 2425238 2627932
1569.78 2406612 2373814 2343450 2319168 2393254 2290940
1572.67 2383306 2252868 2329868 2217806 2315050 2227992
1575.57 2874060 2654066 2295488 2295434 2237804 2318394
1578.46 2272978 2237650 2203672 2357328 2240344 2270944
1581.35 2207536 2261246 2216926 2273172 2174606 2246346
1584.25 2205000 2181896 2143400 2182456 2157678 2160874
1587.14 2109590 2158688 2163204 2173966 2156418 2145498
1590.03 2221836 2206934 2153250 2233382 2155124 2180548
1592.92 2189896 2180762 2151358 2174564 2164946 2206022
1595.82 2173550 2121134 2137398 2118978 2097118 2136038
1598.71 2095326 2106184 2039106 2096166 2061184 2009864
1601.60 2058250 2061740 1973220 2069226 2017074 2021040
1604.49 1996460 2008602 2077630 2015052 1996828 2000494
1607.39 1990126 1939594 2007920 1994764 2053524 2034872
1610.28 1996296 2010614 2022964 1929896 2023172 2007186
1613.17 2004906 1954022 2013376 1986460 2074360 1987256
1616.07 2436580 2400220 1980198 2040968 1995184 2106410
1618.96 2101278 2095702 1968030 2116340 2065114 2042972
1621.85 2050726 2038702 2155112 2203804 2057802 2104178
1624.74 2075492 2118298 2081586 2197686 2096258 2277874
1627.64 2197782 2165944 2195008 2206092 2150536 2324256
1630.53 2229738 2370152 2359726 2421286 2330694 2409410
1633.42 2465998 2581418 2593576 2737780 2817072 2357074
1636.31 2468410 2520388 2482526 2486932 2482336 2460198
1639.21 2545704 2556062 2657702 2614266 2726426 2647060
1642.10 2719928 2694190 2773160 2806296 2869590 2927088
1644.99 3008820 3445738 3072320 2994632 3220560 3137596
1647.89 3207630 3113954 3189990 3164162 3280768 3161022
1650.78 3296652 3136642 3840862 3669962 3896046 3646058
1653.67 3368004 3700268 3392624 3481854 3384546 3479034
1656.56 3403754 3484186 3382826 3499480 3417660 3491120
1659.46 3456436 3519424 3486448 3600194 3581560 3656576
1662.35 3818340 3628914 3698546 3721072 3738552 3792996
1665.24 3842152 3772338 3733134 3785248 3742594 3827712
1668.13 3795832 3940518 3974578 3681276 3702182 3692678
1671.03 3941058 3798442 3779722 3719444 3745112 3710598
1673.92 3660548 3878822 4010084 3801446 3775118 3633076
1676.81 3721022 3635998 3596608 3667502 3669010 3774436
1679.71 3647352 3527770 3519792 3518150 3523244 3583032
1682.60 3659306 3708340 3582854 3964280 4154004 3416108
1685.49 3616424 3495632 3626678 3477010 3547582 3495540
1688.38 3586000 3469570 3558858 3447926 3486600 3380590
1691.28 3400038 3353360 3460114 3414020 3426524 3334752
1694.17 3480742 3406904 3910638 3983174 3327084 3512242
1697.06 3466786 3458664 3446250 3408086 3506972 3951362
1699.95 3713354 3781256 3395412 3424860 3403096 3457814
1702.85 3353700 3435640 3491438 3523584 3412480 3443960
1705.74 3539624 3473988 3417944 3447984 3459534 3529646
1708.63 3509612 3517272 3658024 3642944 3614758 3675254
1711.53 3695166 3660360 3627900 3680190 3764154 3727264
1714.42 3743980 3868848 3612502 3721512 3628366 4214080
1717.31 3878134 3775404 3997326 3920804 3995256 3973136
1720.20 3993314 3996382 4026348 4033308 3962472 3911598
1723.10 3982240 3939752 3976518 4050810 4004590 4069184
1725.99 4053930 4104910 4168560 4029032 4130420 4108902
1728.88 4150460 4229768 4351450 4370010 4655276 4702950
1731.77 4772514 4682430 5082494 4915518 4795158 5195904
1734.67 4754294 4776488 4716010 4766964 4666662 4798954
1737.56 4807262 4986800 4879062 5124796 5237806 5147914
1740.45 5227108 5267264 5424258 5560680 5637852 5825882
1743.34 5877866 6042396 6168824 6187372 6330104 6487430
1746.24 6554196 6708542 6831578 7008710 6998280 7234454
1749.13 7261690 7410950 7546344 7838768 7957022 7812390
1752.02 7928774 7992050 8103152 8207460 8193250 8354800
1754.92 8395222 8416734 8436414 8534116 8395942 8463166
1757.81 8482148 8534494 8512042 8474272 8520832 8529200
1760.70 8464342 8742568 8638344 8554630 8594124 8561662
1763.59 8612192 8677088 8664226 8732920 8784886 8777196
1766.49 8834720 8767110 8922452 8884712 8696038 8656992
1769.38 8685684 8879548 8701418 8554294 8507666 8990490
1772.27 9019776 8128116 7838960 7762180 7645826 7478944
1775.16 7458926 7334750 7404464 7366142 7342342 7380726
1778.06 7391784 7449536 7577316 7520268 7536230 7508652
1780.95 7285134 7210512 7120426 6930770 6745198 6609488
1783.84 6395570 6216386 5903168 5651552 5328334 5122476
1786.74 4784558 4618322 4335244 4075128 3801266 3542440
1789.63 3353510 3230974 2986872 2816320 2580476 2670892
1792.52 2437362 2131470 2075392 1976618 1896318 1767686
1795.41 1737520 1656600 1632632 1515154 1459568 1452468
1798.31 1403560 1373966 1392382 1233566 1166638 1270076
1801.20 1220716 1144028 1200446 1088188 1150932 1074528
1804.09 1122488 1107254 1208794 1127842 1157852 1152564
1806.98 1180104 1152050 1161532 1122310 1214808 1170490
1809.88 1224694 1242164 1204064 1243196 1290536 1287126
1812.77 1304816 1311730 1271732 1262318 1275824 1289226
1815.66 1348058 1333782 1369442 1328686 1317058 1349654
1818.56 1337882 1354648 1299822 1365608 1348824 1309372
1821.45 1355652 1376458 1408590 1388676 1436736 1400264
1824.34 1506598 1534486 1487806 1442198 1420350 1477018
1827.23 1463484 1410324 1490296 1522806 1532980 1634432
1830.13 1546670 1483756 1590210 1608558 1560706 1595938
1833.02 1618016 1518054 1573876 1590094 1607268 1556100
1835.91 1504666 1514942 1534110 1499276 1474510 1457950
1838.80 1426094 1478072 1476696 1421648 1472974 1421388
1841.70 1432740 1400678 1411756 1413436 1665348 1478292
1844.59 1350894 1428558 1353806 1421036 1312958 1399228
1847.48 1349926 1353648 1371548 1345802 1264376 1335458
1850.38 1308524 1391338 1333658 1349728 1359492 1427804
1853.27 1399040 1455380 1488304 1556206 1598798 1680406
1856.16 1864830 1993896 2110430 2060014 1934012 1837216
1859.05 1829754 1787980 1924654 1817034 1867210 1944542
1861.95 1968942 1967126 2032812 2030162 2050812 2025320
1864.84 1999966 2029188 2052500 2057426 2080490 2145514
1867.73 2198022 2138618 2403310 2378282 2308128 2406214
1870.62 2413974 2520198 2560706 2631366 2757870 2809454
1873.52 2901536 2951208 3002526 3058066 3033674 3071566
1876.41 3161706 3139074 3216626 3240100 3344370 3423764
1879.30 3432606 3465206 3592212 3666242 3744594 3810610
1882.20 3807580 3892718 3969128 3972042 4000168 4098972
1885.09 4186018 4197918 4333390 4346444 4454054 4522104
1887.98 4609038 4695060 4760996 4812610 4796834 4869178
1890.87 4889892 4913144 4996778 4964968 4995612 4998590
1893.77 5012466 5080962 5060406 5048198 5124080 5111740
1896.66 5106416 5106110 5067962 5184234 5156738 5194300
1899.55 5204460 5226566 5219176 5272024 5289722 5244748
1902.44 5305480 5290672 5198096 5289030 5388298 5382052
1905.34 5226532 5132392 4930570 4936964 5345156 5350380
1908.23 4875264 4651070 4584062 4444204 4325186 4238114
1911.12 4150070 4185946 4076826 4030392 4148662 3990968
1914.02 3903732 3830724 3836650 3834990 3772926 3684568
1916.91 3695146 3680922 3608892 3386066 3381478 3289574
1919.80 3217482 3018730 2937670 2861816 2806982 2593556
1922.69 2547378 2344942 2257660 2169130 2055074 1911160
1925.59 1810118 1735180 1528570 1479190 1400096 1319000
1928.48 1227900 1178304 1107944 1020454 888486 903944
1931.37 852778 822398 806066 763882 695200 643320
1934.26 594442 604166 655844 543282 552772 575194
1937.16 588550 522420 612512 572444 600512 576484
1940.05 501472 572910 564642 536496 609996 520520
1942.94 461798 477458 485636 474430 512798 510944
1945.84 553624 487052 539090 535080 557218 522074
1948.73 558868 564038 557364 553962 610626 605886
1951.62 646018 605626 679644 652014 720720 768798
1954.51 727846 807766 757758 802386 794660 766266
1957.41 815572 798708 790776 796122 781862 789220
1960.30 866884 819914 888696 855772 901016 891558
1963.19 943718 909724 935132 938426 904464 988508
1966.08 936286 989942 967228 932266 943878 976838
1968.98 967272 955362 1056656 1006776 1034424 970086
1971.87 1042314 1026066 1098558 1067380 1171800 1166072
1974.76 1118578 1081676 1145356 1145746 1185472 1170114
1977.66 1194146 1161516 1238738 1278976 1247952 1212606
1980.55 1213500 1220038 1192100 1247578 1276016 1273204
1983.44 1292270 1250948 1316244 1253672 1273308 1191160
1986.33 1208958 1161086 1136226 1133480 1097242 1100820
1989.23 1134296 1043138 1092002 1128218 1081402 1103806
1992.12 1147664 1107670 1098878 1126978 1069736 1102766
1995.01 1119440 1190920 1112862 1125774 1171504 1147318
1997.90 1136694 1178368 1116670 1147862 1152606 1171362
2000.80 1191326 1146724 1198720 1213962 1256264 1206530
2003.69 1176802 1210906 1253312 1253490 1236748 1255304
2006.58 1320454 1381210 1381400 1391236 1366274 1363278
2009.48 1413628 1350458 1487724 1465048 1486152 1391078
2012.37 1427714 1407806 1474306 1487794 1449864 1477160
2015.26 1527016 1499868 1564972 1558598 1482316 1494804
2018.15 1560604 1500510 1636486 1520726 1620562 1606364
2021.05 1638712 1673988 1714450 1650964 1685160 1682808
2023.94 1711818 1790820 1697618 1749800 1779264 1804180
2026.83 1837070 1757942 1787924 1770456 1755268 1722968
2029.72 1795224 1863078 1800154 1754488 1811644 1703800
2032.62 1731018 1745600 1675356 1725484 1736056 1750080
2035.51 1717694 1714388 1736012 1680282 1784564 1750308
2038.40 1720292 1697762 1763612 1683602 1725030 1691756
2041.29 1736358 1707760 1678794 1724804 1638900 1634462
2044.19 1680988 1647188 1604326 1643010 1613772 1520822
2047.08 1605410 1566984 1607256 1543480 1577922 1559162
2049.97 1631490 1662116 1611998 1615924 1660316 1575408
2052.87 1682806 1679028 1689912 1699976 1792936 1757048
2055.76 1825402 1814414 1850834 1889742 1896176 1852730
2058.65 1924770 1978442 2042760 1937412 1972608 1989286
2061.54 2056702 2087010 2130444 2196834 2226334 2301378
2064.44 2217082 2265448 2313584 2213586 2364698 2390572
2067.33 2420292 2379590 2711236 2527656 2517480 2555868
2070.22 2589536 2611148 2652276 2691078 2665394 2905676
2073.11 2880864 2637902 2804012 2619996 2810186 2747764
2076.01 2890534 2772822 3111594 3037338 2853832 2937820
2078.90 2862110 2929210 2945178 3001818 2855708 3179268
2081.79 3209032 2853718 3054542 2876270 2931662 2820056
2084.69 3000026 2822496 3318122 3259618 2882758 2891164
2087.58 2851722 2894314 2776038 2799844 2693544 3197346
2090.47 3044782 2649136 2777348 2694408 2763724 2621638
2093.36 2713616 2587164 3262394 2709760 2584444 2513706
2096.26 2493774 2464406 2515520 2479758 2605552 3177376
2099.15 2288660 2418704 2316636 2330760 2186182 2346260
2102.04 2214764 2723276 2785806 1940438 2232616 1920356
2104.93 2106388 1916936 2056624 1795170 2807276 2038190
2107.83 1799518 1797394 1835472 1777880 1807848 1659146
2110.72 2033762 2591782 1569454 1817978 1579442 1732180
2113.61 1584848 1737446 1542402 2570778 1835732 1477126
2116.51 1488834 1519898 1498854 1581428 1432664 2039716
2119.40 2288658 1400848 1660700 1438354 1651608 1395890
2122.29 1541610 1596778 2450090 1457612 1632090 1427412
2125.18 1625934 1378046 1628896 1448508 2322022 1769850
2128.08 1605530 1579228 1635952 1599398 1656846 1608894
2130.97 2133564 1980764 1653416 1811426 1795758 1836208
2133.86 1977418 1875166 2279656 2331378 2128938 2239242
2136.75 2307444 2294086 2391742 2349966 2342090 2270202
2139.65 2026958 2067726 2117240 2062590 2005702 1996144
2142.54 2031816 1943484 2078446 2038194 2140066 2100208
2145.43 2197794 2204442 2367784 2420616 2273948 2387714
2148.33 2396582 2371450 2532764 2383412 2925366 2687650
2151.22 2479388 2598578 2571074 2666184 2618152 2761174
2154.11 3326522 2735536 2548376 2716908 2632486 2720670
2157.00 2578820 3165528 3479584 2725912 2868316 2814536
2159.90 2805322 2896902 2892082 3817570 3500310 2924110
2162.79 3250568 2984650 3260426 2991452 3534830 4167302
2165.68 3168874 3075492 3167414 3148424 3283214 3024164
2168.57 4127290 3674450 2910684 3178704 2911186 3216708
2171.47 2847082 3567908 4050332 2850154 3110496 2957798
2174.36 3079966 3009492 3153782 4125848 3220800 3010242
2177.25 3160330 3047908 3222542 2943508 4059678 3496526
2180.15 3111256 3295742 3303764 3429706 3203246 4145470
2183.04 3945400 3188420 3520138 3341696 3543764 3259978
2185.93 4018490 4058542 3277914 3642642 3530698 3677888
2188.82 3497344 4170186 4204372 3553150 3898380 3621466
2191.72 3909268 3684618 4317376 4158850 3736444 3856886
2194.61 3748058 3817226 3752858 4297032 3954538 3645780
2197.50 3810806 3638394 3619062 3555462 3927460 3455846
2200.39 3364106 3399852 3344964 3293206 3527666 3623348
2203.29 3198030 3326030 3169004 3174946 3048614 3267212
2206.18 3156184 2874110 3014608 2928166 2888938 2843704
2209.07 3004606 2810410 2721068 2695044 2710630 2569696
2211.97 2654382 2559582 2398752 2365784 2264662 2182982
2214.86 2179406 2154886 1970434 1897640 1956712 1805918
2217.75 1684168 1731230 1628606 1508642 1476252 1472066
2220.64 1444296 1362272 1324136 1221372 1263596 1186124
2223.54 1164346 1166692 1176564 1087446 1078690 1006886
2226.43 1053628 1030182 1001796 942808 937866 937758
2229.32 945180 919850 949450 892580 948642 818008
2232.21 846088 872586 933016 874972 929514 848988
2235.11 919772 862648 913150 878960 939282 951644
2238.00 1023154 858680 839054 833740 887252 869956
2240.89 886918 888712 912404 881496 908210 853030
2243.79 963214 844900 934370 871042 990588 917934
2246.68 1007120 977948 980416 939970 1091786 975104
2249.57 1028618 1004696 1065076 1015674 1107516 1032498
2252.46 1179658 1080508 1097008 1072988 1122078 1135438
2255.36 1190220 1159610 1195014 1142268 1134808 1171378
2258.25 1215146 1224724 1328342 1237184 1312826 1238890
2261.14 1358518 1312926 1422456 1420966 1583220 1604904
2264.03 1575014 1574688 1663980 1553264 1624290 1510604
2266.93 1629510 1615902 1690096 1651292 1779020 1702258
2269.82 1683104 1777128 1875022 1849374 1891066 1917270
2272.71 1931864 1959600 2017770 1958298 2069852 2008460
2275.61 2068384 2208916 2306494 2248964 2437736 2392296
2278.50 2463842 2469192 2646568 2675512 2789320 2661850
2281.39 2796624 2824380 2769236 2821024 2903060 2854558
2284.28 2987688 2985790 3173796 3121610 3152544 3235812
2287.18 3301280 3195846 3434976 3381020 3405054 3449632
2290.07 3582884 3582256 3650748 3635300 3806020 3762168
2292.96 3868916 3924310 4039608 4085406 4235420 4184330
2295.85 4289702 4349826 4449460 4400658 4508116 4547118
2298.75 4730576 4715112 4794452 4720434 4936924 4820548
2301.64 5042594 4934056 5082852 4985934 5168794 5114574
2304.53 5273424 5203392 5365826 5398842 5344954 5487024
2307.43 5613370 5522660 5560350 5499498 5818286 5768112
2310.32 5778328 5653976 6039880 5855470 6035704 5508964
2313.21 5888300 5763770 5915720 5338466 5896046 5753234
2316.10 5892118 5300048 5680980 5734792 5976908 5226060
2319.00 5589654 5754138 5930340 5259910 5493586 5888086
2321.89 5961274 5142226 5244660 5718386 5766994 4996744
2324.78 5047066 5723480 5651184 4642674 4909944 5753496
2327.67 5345710 4297836 4783734 5647972 4933020 4011698
2330.57 4851146 5569544 4495104 3959856 5214138 5408896
2333.46 3971872 3974660 5149278 4546668 3249338 3905372
2336.35 4857140 3637894 3030588 4368212 4234520 2941618
2339.24 3304820 4266482 3195786 2512610 3471492 3549016
2342.14 2307266 2754456 3348110 2512744 2351076 2981418
2345.03 2742534 2187940 2622878 2656960 2312402 2444434
2347.92 2473266 2343410 2298014 2125594 2136988 2248378
2350.82 1729894 1785290 2253696 1418120 1373780 2168884
2353.71 1259630 1119682 2166330 973228 824474 2189564
2356.60 846708 653632 2119426 479844 737720 2096826
2359.49 137800 1051956 1886908-170624 1517352 1450978
2362.39-96282 1940960 822112 413518 2060024 235580
2365.28 1424138 1594388 171544 2094058 774930 1202604
2368.17 1877542 650704 2078546 1014470 1530752 1778734
2371.06 1061304 2177688 1277124 2058322 1695666 1973722
2373.96 2095912 1854204 2330910 2038720 2496964 2054756
2376.85 2242782 2100810 2335356 2117686 2282256 2261938
2379.74 2342938 2288032 2422426 2315298 2376506 2304880
2382.64 2393276 2319808 2352466 2389910 2410118 2356042
2385.53 2449282 2411208 2469286 2441218 2499266 2510332
2388.42 2563728 2610032 2631732 2726956 2789456 2656548
2391.31 2687870 2647748 2796306 2776308 2728584 2698530
2394.21 2713782 2701080 2724092 2622226 2693870 2579118
2397.10 2615518 2511038 2616096 2594892 2606418 2573868
2399.99 2604582 2604590 2538148 2467554 2474384 2478212
2402.88 2496818 2540364 2494470 2520616 2465614 2484194
2405.78 2493168 2459478 2472514 2506628 2453622 2488742
2408.67 2521590 2469822 2519020 2498812 2711720 2674376
2411.56 2618070 2638074 2694822 2653820 2682484 2672926
2414.46 2614412 2700702 2855976 2860694 2801248 2823778
2417.35 2880334 2758736 2725044 2698722 2715328 2753768
2420.24 2733416 2652588 2629206 2713420 2710428 2683392
2423.13 2726122 2789414 2764630 2760172 2857158 2746532
2426.03 2817732 2874020 2837314 2822028 2901996 2869680
2428.92 2842958 2873886 2850030 2804266 2827294 2942656
2431.81 3030298 2927970 3003040 3017204 3038718 3020204
2434.70 3106358 3141376 3185802 3152864 3161712 3187810
2437.60 3206606 3040110 3166344 3125852 3073034 2949752
2440.49 3068784 3081024 2980206 3090066 3065052 3116356
2443.38 3084428 3014090 3028350 2961058 3039756 3043026
2446.28 3018344 3057246 3121794 3094750 3130836 3120500
2449.17 3099050 3150108 3116852 3086878 3116030 3015904
2452.06 3012246 3043308 3116500 2981730 3068674 2996140
2454.95 3020666 3013700 3035518 3042752 3057698 2954318
2457.85 3049942 2987628 2928058 2899052 2912658 2880790
2460.74 2858650 2830746 2818350 2783210 2706358 2669506
2463.63 2681102 2656428 2720030 2731370 2737568 2810220
2466.52 2759696 2877190 2843298 2812108 2870892 2836584
2469.42 2838752 2942768 2991202 2972994 2990442 3008594
2472.31 3159016 3093316 3100756 3064136 3161384 3188924
2475.20 3203024 3274590 3242942 3279098 3253394 3365352
2478.10 3412796 3395918 3512116 3425912 3595506 3454118
2480.99 3607852 3525558 3644592 3609388 3705952 3722870
2483.88 3800208 3723652 3798698 3826566 3866214 3857926
2486.77 3943254 3832470 4003514 3932190 4066110 4002784
2489.67 4055020 4042438 4136044 4113902 4239106 4233618
2492.56 4321688 4202370 4330490 4344720 4340666 4353856
2495.45 4396572 4416592 4408394 4527168 4508378 4432178
2498.34 4487986 4435928 4550630 4479870 4557638 4560688
2501.24 4699978 4584148 4650864 4635560 4555758 4513272
2504.13 4654680 4543532 4639370 4593294 4549052 4583162
2507.02 4653830 4564674 4528990 4543468 4625064 4642892
2509.92 4684612 4581712 4654048 4634774 4631818 4522588
2512.81 4597696 4490236 4497134 4405626 4376224 4308132
2515.70 4298534 4292410 4312626 4169384 4180086 4211892
2518.59 4167762 4063650 4092986 4038614 4005668 3912994
2521.49 3995872 3957108 3953340 3887422 3960520 3856244
2524.38 3918886 3797672 3798228 3726078 3889334 3719540
2527.27 3778948 3666308 3723690 3671598 3607890 3592264
2530.16 3620680 3437358 3641782 3610012 3720724 3500640
2533.06 3619034 3580078 3606870 3724276 3871194 3796644
2535.95 3696494 3548098 3495696 3397792 3579862 3425460
2538.84 3564290 3382640 3417088 3266098 3362146 3202678
2541.74 3252146 3184432 3160746 3090024 3230200 3191884
2544.63 3189672 3102708 3165784 3052610 3104938 3083860
2547.52 3121888 3059954 3066772 3070258 3160740 3061202
2550.41 3043102 2895038 2956210 2938240 3008562 2939196
2553.31 2974956 2864930 2929418 2859278 2985456 2825952
2556.20 2890352 2845074 2963152 2862796 2926112 2861614
2559.09 2989940 2871340 2940882 2847126 2950514 2951486
2561.98 3016196 2989038 3029836 2951794 3043322 3041852
2564.88 3084698 2973202 3076940 3061840 3134550 3181236
2567.77 3245274 3199026 3234346 3256330 3295184 3249256
2570.66 3362730 3379982 3456176 3425940 3516106 3411164
2573.56 3538060 3489052 3658274 3617930 3745898 3721824
2576.45 3857144 3779422 3961608 3951554 4057190 3967338
2579.34 4166846 4149342 4290572 4334836 4350202 4386014
2582.23 4549936 4447022 4605748 4553302 4701032 4690132
2585.13 4746646 4768988 5005936 4856670 4952276 5027994
2588.02 5132004 5112962 5345756 5255172 5389872 5442646
2590.91 5486568 5444626 5651730 5583998 5753068 5825414
2593.80 5863618 5826836 5965314 6024332 6095438 6254576
2596.70 6414084 6415828 6466550 6544650 6678162 6782646
2599.59 6939060 6876452 7052006 7222912 7448574 7364862
2602.48 7677406 7717652 7907638 8048498 8375518 8534218
2605.37 9103170 9484172 10041640 9768096 9440922 9053000
2608.27 8924088 8627000 8706386 8638846 8667268 8652428
2611.16 8723106 8903176 9003492 8926036 9073374 9093102
2614.05 9292112 9272656 9539714 9454448 9741090 9672624
2616.95 9872908 9879076 10062890 10072650 10237570 10297340
2619.84 10481680 10645340 10852710 10859610 11180340 11238910
2622.73 11527870 11541530 11753800 11902230 12227570 12348610
2625.62 12705610 12927260 13356460 13615260 14096880 14387910
2628.52 14920480 14958320 14988450 14720730 14450140 14286680
2631.41 14267640 14072130 13954510 13698120 13909070 14009000
2634.30 14328330 14588650 15067800 15373420 15995950 16784160
2637.19 17329400 17942020 18480940 18648850 18820350 18815840
2640.09 18864050 18677160 18557020 18363890 18440170 18247220
2642.98 18275070 18286160 18409820 18307050 18456840 18500120
2645.87 18608600 18574330 18674620 18496380 18634540 18602340
2648.77 18730200 18700490 18820070 18660920 18731710 18652350
2651.66 18762090 18623830 18791640 18788610 18941520 19000730
2654.55 19012670 19038470 19145780 19123990 19336290 19354660
2657.44 19642860 19745680 20078480 20200370 20361890 19918910
2660.34 19892000 19832280 19908680 19957720 20262200 20542480
2663.23 20848560 20964290 21287120 21419450 21768920 21723860
2666.12 21625850 21310110 20913670 20421380 20076070 19619780
2669.01 19413060 18937140 18838710 18442190 18315500 17768930
2671.91 17615180 17112440 16717590 16267320 16051120 15717830
2674.80 15730590 15396930 15312190 15129070 15024070 14976140
2677.69 14968020 14941930 14974080 14885260 14944610 14776350
2680.59 14724200 14544530 14463660 14245450 14234740 13954210
2683.48 13877100 13755420 13626890 13383700 13377570 13022440
2686.37 13046040 12860800 12645850 12462630 12474250 12274590
2689.26 12197620 11962400 11979520 11720990 11700200 11436480
2692.16 11470620 11416580 11279090 11152680 10965950 10813990
2695.05 10802210 10687570 10585510 10473820 10490640 10337430
2697.94 10499910 10296890 10489930 10226660 10354920 10352420
2700.83 10428360 10226050 10493930 10348650 10464180 10290170
2703.73 10463310 10237140 10394440 10278840 10332030 10443580
2706.62 10485040 10476420 10654760 10698160 10856810 10851470
2709.51 11166760 11116470 11390440 11451430 11772640 11851640
2712.41 12090390 12053090 12243910 12209660 12461450 12370160
2715.30 12568160 12539920 12620600 12697270 12856010 12810830
2718.19 13048840 12994130 13244520 13193550 13392970 13360040
2721.08 13610290 13473130 13706290 13681910 13602740 13490230
2723.98 13703270 13543200 13756830 13836770 14017350 13972710
2726.87 14263570 14255170 14568610 14595600 14856390 14878150
2729.76 15105900 15112740 15342080 15259830 15453650 15384400
2732.65 15678930 15587600 15884100 15878490 15965320 15866390
2735.55 16046890 15932440 16127960 15785830 15882420 15745910
2738.44 15810850 15686380 15762170 15690410 15753670 15571300
2741.33 15759120 15713820 15885930 15710840 15780170 15713710
2744.23 15684360 15532300 15717760 15511210 15548380 15492860
2747.12 15591870 15463490 15415160 15278230 15385600 15296460
2750.01 15408660 15368140 15493000 15335230 15566140 15426390
2752.90 15672770 15556400 15872540 15905750 16043630 15754780
2755.80 16144230 15985960 16307220 16310050 16599600 16604580
2758.69 16852420 16833790 17119340 17045250 17341260 17285390
2761.58 17513290 17482570 17779090 17847170 18061590 18113180
2764.47 18323740 18357030 18566350 18586100 18940170 18882010
2767.37 19270060 19543750 19718460 19746040 19751980 19654170
2770.26 19822490 19609630 19796130 19568580 19684970 19500560
2773.15 19704650 19495670 19693170 19702920 19741410 19631380
2776.05 19934050 20138880 20290520 20360190 20548860 20511780
2778.94 20755190 20623650 20885550 20927570 21213870 21231970
2781.83 21547170 21589690 21887480 21921450 22213670 22334740
2784.72 22668220 22735530 23121120 23120330 23361290 23323770
2787.62 23532970 23429640 23776000 23700890 23892090 23983640
2790.51 24296860 24167170 24500040 24451600 24867400 24894980
2793.40 25375000 25523210 26040310 26023580 26394480 26286830
2796.29 26461920 26233360 26477160 26434890 26683940 26552360
2799.19 26720810 26764150 27088530 26999990 27213320 27179850
2802.08 27494480 27607720 27884840 27696000 27825770 27689550
2804.97 27940930 27848900 28153980 28211170 28547650 28588080
2807.87 29179820 29219600 29631300 29709960 30182640 30534930
2810.76 31106050 31223920 31658160 31646750 32246530 32372470
2813.65 33013710 33204670 34146090 34545490 34674240 34177750
2816.54 34229200 34052260 34443310 34564770 35156780 35659280
2819.44 36681310 37298510 37901470 38003920 38420860 38423700
2822.33 38627260 38590400 39233200 39282450 39437150 39130860
2825.22 39445440 39535240 39901000 40248270 40904400 41367340
2828.11 42190730 42856840 43599820 43755340 44117140 43914670
2831.01 44112770 43898460 44186000 44282200 44417900 44668820
2833.90 45086860 45157490 45471030 45532470 46242700 46301220
2836.79 46894390 47008950 47164030 47333150 47740660 48105850
2839.69 48903460 49186790 50014800 50351040 51110700 51649980
2842.58 52794020 53641380 55016180 55902940 57531640 58898740
2845.47 60943710 62587680 64648370 66316820 68706580 70424250
2848.36 72904380 75242190 77672940 79819840 81754320 82968420
2851.26 84800520 86080300 88017750 89578710 91631060 92653750
2854.15 94195040 95263560 97342420 99049190 101780500 104320100
2857.04 107403900 110180000 113771600 116815600 120528600 124081400
2859.93 127882600 131227200 135366000 138694100 143052100 146505000
2862.83 150513700 154293000 158082000 161326500 165126500 168340500
2865.72 171853100 175147900 178906000 181958100 185857600 188785200
2868.61 192399600 195563500 198635800 201408400 204462400 207038700
2871.51 209986000 211348900 213302100 214958100 217588700 219729600
2874.40 222408600 224955100 228884800 232452200 236433600 240157200
2877.29 245388100 250780700 258217600 267218000 280129300 291071500
2880.18 299604800 309269800 323325000 338916300 355156200 364029600
2883.08 362132500 354083300 347091100 341322100 337158100 336287300
2885.97 338513200 343001600 349587300 355608500 360946000 360281800
2888.86 357649300 354709200 352801900 349119200 345738000 340365900
2891.75 335302900 329675600 325510300 320110000 316175400 311976700
2894.65 308707100 304813900 302456600 300218300 299338200 297776700
2897.54 296586500 295010200 294678700 293286900 292798800 292361300
2900.43 292061200 290964400 290069700 288682400 288642300 286348800
2903.32 285469500 283625300 282539600 280480400 279420700 277168200
2906.22 275727500 273076800 271415100 268571400 266658000 263739400
2909.11 261825600 259710500 257494800 254312900 252689900 250036000
2912.00 248641600 246325400 245451300 243935200 244355300 243646100
2914.90 243805200 241476100 239921300 237147300 235800200 233425600
2917.79 231874000 229732300 227887700 225668500 224664900 223129600
2920.68 222378600 221228200 221611200 221084400 222059100 222688200
2923.57 224461000 226020100 228605400 230292200 232857100 234953500
2926.47 238165500 240235400 244030100 246234100 250888700 254082200
2929.36 258357900 261644500 264471300 268239900 271455200 264173000
2932.25 258825200 255782800 257601800 254965000 252729100 251094800
2935.14 252194100 253614800 257505200 261221300 266737200 269516600
2938.04 273039900 275114800 276666300 272940300 271918800 271800900
2940.93 273880700 275502600 280443700 284166200 291038400 296374200
2943.82 305393500 312743600 322153000 330399200 343257900 354287500
2946.72 363769900 373797100 376460900 377403000 384029000 390838600
2949.61 399665500 407904500 417693700 425822000 435520700 443749700
2952.50 453504900 461232200 471163100 479186700 489958100 496480300
2955.39 506173000 512433400 521599200 527390600 537833600 543529300
2958.29 553042600 559248100 568952900 575662800 586943200 596687400
2961.18 607680100 614745400 625592600 632681800 645718700 654728300
2964.07 674167000 697851100 718917100 719902300 744578900 744113200
2966.96 746999000 753707800 772013100 781956700 820869500 875787500
2969.86 1048269000 1121667000 991233000 921204000 881959000 879780200
2972.75 884427700 873052300 860250400 856932500 860707600 874616300
2975.64 893603200 918253300 948207400 968083700 1002016000 1039273000
2978.54 1087196000 1121404000 1175537000 1194649000 1210166000 1213475000
2981.43 1434478000 1388449000 1027213000 905009200 824112100 794988600
2984.32 762801500 752630800 729585300 733542000 725239000 696046400
2987.21 687815600 683565100 664435700 663820000 660072200 665713800
2990.11 652428900 650102600 637651800 625489100 613593600 610610500
2993.00 601096100 594721200 585640700 580604500 569479500 563686400
2995.89 553058000 544797000 532628200 523888400 509817500 499321000
2998.78 483734500 471455100 454861100 441242800 424122200 409098000
3001.68 391761700 376493300 358253900 343349000 324874500 309895000
3004.57 291975300 277266500 260020000 245795700 229919900 216628400
3007.46 201816900 189317300 175731400 164550600 151801800 142030600
3010.36 130663500 121613900 111739300 104204100 95192040 88672460
3013.25 80706800 75448180 68694840 64065130 58127060 54315640
3016.14 49174000 46146410 41693610 39218710 35293600 33573000
3019.03 30279020 28795600 25783020 24748590 22266080 21573810
3021.93 19145060 18563120 16668070 16415090 14664810 14324120
3024.82 12988770 12861160 11333490 11448530 10257520 10329320
3027.71 9168094 9305520 8298388 8571682 7538994 7875590
3030.60 6848518 7331016 6305596 6696396 5884170 6386832
3033.50 5454610 5941298 5157512 5706422 4751802 5312160
3036.39 4687318 5133418 4376110 4866582 4201580 4763326
3039.28 4088486 4507526 3804334 4315446 3810742 4375034
3042.18 3529844 4104618 3329042 4001622 3250282 3871616
3045.07 3198610 3620978 3154326 3593920 3050096 3439838
3047.96 3044562 3301022 2928304 3211614 2804404 3237202
3050.85 2810586 3168372 2713104 3131658 2731772 3012612
3053.75 2366082 2985078 2640228 2975680 2513550 2872018
3056.64 2446470 2846164 2395696 2912210 2476872 2760356
3059.53 2338994 2815708 2379974 2652902 2424332 2743796
3062.42 2376066 2697658 2319338 2740038 2364718 2819902
3065.32 2347826 2664972 2311940 2803588 2248834 2747774
3068.21 2402766 2728814 2368750 2666956 2407476 2636362
3071.10 2493382 2762772 2305256 2676864 2336734 2710868
3074.00 2351800 2636240 2365792 2778388 2324528 2738086
3076.89 2364448 2755854 2488268 2876560 2397658 2844674
3079.78 2417794 2725966 2458148 2864746 2354626 2966084
3082.67 2592308 2831312 2553044 2896974 2552544 2856788
3085.57 2584054 2875050 2563646 2983432 2764382 2930566
3088.46 2670182 3064506 2662602 3067810 2701820 2928900
3091.35 2570198 2917042 2768404 2927200 2712684 3099168
3094.24 2764580 3138052 2861854 3073658 2819376 3074040
3097.14 2834608 3182442 2880318 3211572 2871820 3178026
3100.03 2941860 3129082 2860906 3321200 3003814 3172260
3102.92 3044198 3194154 2955966 3125638 3024334 3385014
3105.82 2895626 3276330 3032926 3387822 2963596 3405746
3108.71 3305812 3379342 3269290 3542544 3121154 3510166
3111.60 3070788 3342600 3182818 3482058 3200934 3516714
3114.49 3262180 3521032 3273262 3592634 3318840 3563262
3117.39 3501046 3536762 3345320 3639890 3441448 3720810
3120.28 3351522 3677938 3488212 3748030 3561312 3826106
3123.17 3640754 3889868 3519802 3995518 3560524 3899470
3126.06 3596640 3771228 3687206 3845694 3783174 3953722
3128.96 3757884 4011926 3791154 4073952 3760518 3965686
3131.85 3749870 3905594 3724362 4069722 3788440 4031620
3134.74 3905802 4096998 3956034 4101016 3912134 4150300
3137.64 4025988 4188162 4023594 4172600 4132158 4339312
3140.53 4066620 4242124 4080500 4425670 4383062 4426348
3143.42 4235522 4342714 4307738 4492508 4326622 4557816
3146.31 4447546 4788050 4573676 4835450 4611886 4843406
3149.21 4814054 4946388 4809270 5153784 4867570 5141344
3152.10 5038480 5428590 5173506 5422302 5341920 5571928
3154.99 5380930 5709972 5655316 5749016 5749056 6174102
3157.88 5906328 6217016 6068656 6328482 6120118 6460340
3160.78 6373076 6691654 6512648 6990466 6881440 7093962
3163.67 6956678 7372712 7295358 7529662 7297542 7603122
3166.56 7643664 7999276 7822506 8160992 8018842 8324498
3169.46 8386352 8759540 8430574 8818402 8753890 8912976
3172.35 8794634 9142310 9111292 9572286 9446584 9785358
3175.24 9692376 9903140 9757384 10170620 10034300 10273290
3178.13 10129300 10414280 10405900 10678760 10544670 10824600
3181.03 10632060 10757380 10701190 10892710 10774570 11033060
3183.92 11140960 11279860 11144910 11227050 11174450 11428900
3186.81 11357700 11707690 11669990 11760510 11597330 11835240
3189.70 11546880 11653780 11365820 11553760 11198380 11314940
3192.60 11118670 11240380 11080440 11110610 10981020 11335230
3195.49 11343730 11593120 11635740 12027460 11979550 12059690
3198.38 11812420 11763200 11572760 11734620 11537570 11721330
3201.27 11408350 11409000 11171850 11034170 10665430 10853810
3204.17 10549580 10695150 10577680 10693080 10561950 10791830
3207.06 10524050 10554400 10764270 10761120 10338320 10217650
3209.95 9979334 9957516 9816242 9846896 9745368 9964110
3212.85 10134670 10689590 10757280 10317850 9585192 9668858
3215.74 9473958 9430732 9355558 9423696 9219534 9390272
3218.63 9179076 9167282 9219078 9242364 8944344 9064464
3221.52 8962748 9156788 8879616 9095130 9007328 9321326
3224.42 9115966 9293994 8828898 8797708 8402210 8414446
3227.31 8149460 8312206 8098002 7869466 7696180 7862698
3230.20 7753280 7864466 7616966 7770346 7464602 7706350
3233.09 7329708 7530818 7374058 7208080 7159684 7415750
3235.99 7026136 6931680 6583790 6709692 6458926 6479900
3238.88 6078120 6394762 6243066 6373672 6211728 6270206
3241.77 6324608 6483386 5831358 5618878 5263722 5321242
3244.67 5075698 4994670 4848532 4929434 4632228 4917706
3247.56 4825768 5103986 4945438 5285718 4349668 4092464
3250.45 3803354 3793226 3482760 3552210 3207292 3185184
3253.34 3004228 3206220 2769960 3015370 2696860 2762372
3256.24 2467984 2618512 2513814 2407400 2250160 2212954
3259.13 2081464 2248348 1897082 2120928 1912904 1875182
3262.02 1754824 1940406 1712014 1802030 1669112 1644618
3264.91 1435794 1659370 1437792 1304506 1174516 1339716
3267.81 1099530 1497268 1191294 1313652 1203362 1050750
3270.70 985134 1118496 902300 945038 877730 1220118
3273.59 882092 913542 717436 772994 725454 874766
3276.49 843882 884398 552550 687098 744094 788382
3279.38 741974 707414 611012 754818 734990 749354
3282.27 517364 770552 515734 797420 714260 884160
3285.16 663074 844906 615284 883040 576442 644374
3288.06 566526 763884 646346 730240 593904 591716
3290.95 598362 833470 673460 657794 658844 799988
3293.84 536028 906778 761262 876578 646972 745466
3296.73 768898 897920 583096 781236 613396 909944
3299.63 790536 884356 753656 882930 874596 1039508
3302.52 783034 959592 906328 1288574 927796 1015246
3305.41 1045638 1167836 1086202 1249840 1100934 1124846
3308.31 1127644 1218762 1296950 1368452 1353574 1543064
3311.20 1543752 1511012 1562210 1713222 1723974 1722840
3314.09 1582496 1884040 1701190 2028372 1882150 2173186
3316.98 1901508 2096818 2036330 2221492 1977254 2236610
3319.88 2142504 2386698 2278714 2322236 2297662 2448204
3322.77 2320684 2428924 2399338 2532420 2693734 2772760
3325.66 2576046 2811498 2672404 3126148 2961752 3087448
3328.55 3203654 3311148 3179680 3425180 3500610 3383006
3331.45 3468340 3703978 3536874 3834774 3526388 3845678
3334.34 3779922 3761374 3861900 3960616 3823172 3805750
3337.23 3774770 4003230 3908628 4183586 3900380 4147330
3340.13 3951498 4069722 3905020 4195580 3881782 4121682
3343.02 3942578 4176238 3772462 4018974 3988158 4091310
3345.91 3737998 3931882 3842772 3919132 3920708 4116920
3348.80 3782590 4161772 3898890 4087578 3975746 3950954
3351.70 3731560 3856044 3689572 3845866 3751398 3776568
3354.59 3616240 3902506 3703114 3725798 3641472 3659714
3357.48 3650826 3610510 3549336 3633204 3546176 3628966
3360.37 3472178 3641334 3387316 3366090 3510552 3429476
3363.27 3333102 3363254 3139562 3273570 3192890 3222240
3366.16 3153166 3233216 3055434 3288814 3009850 3156872
3369.05 3184874 3066428 2782626 3019860 2965566 3077720
3371.95 2598594 2997746 2794040 2955352 2786928 2953250
3374.84 2967462 2817978 2745614 2902328 2879676 2779644
3377.73 2721820 2766738 2738552 2850808 2862778 2847036
3380.62 2804332 2923518 2843016 2989148 2937792 3015754
3383.52 2952198 2963898 2808540 2882614 2857988 3199110
3386.41 2953428 3063724 3203426 3074866 3046738 3148708
3389.30 3099240 3325570 3170116 3474262 3189448 3386720
3392.19 3311964 3380456 3416674 3422716 3569154 3673538
3395.09 3494008 3713290 3657628 3669160 3733538 3697000
3397.98 3787416 3915654 3898310 3806816 3626888 3794630
3400.87 3673826 3783176 3876678 4083178 3903364 4101530
3403.77 4028014 4056184 4095994 4391158 4147572 4277780
3406.66 4166236 4215124 4253938 4139528 4055730 4204342
3409.55 4291038 4286908 4331476 4476078 4293626 4603400
3412.44 4255442 4514336 4441140 4507306 4575144 4535542
3415.34 4418962 4726040 4400208 4706244 4595306 4775614
3418.23 4596256 4785910 4796814 5058152 5109208 5433348
3421.12 5400684 5475210 5246238 5465054 5485210 5890748
3424.01 5795730 5572204 5147856 5353276 5186436 5233102
3426.91 5035946 5082202 4981080 5019818 5125824 5303442
3429.80 5221350 5347804 5356118 5394254 5292882 5288226
3432.69 5310216 5500990 5405752 5516564 5379224 5656902
3435.59 5541730 5683234 5554534 5372724 5521512 5613634
3438.48 5540568 5721416 5507446 5718508 5721488 5728846
3441.37 5584586 5687830 5477532 5636452 5476350 5588428
3444.26 5646804 5841372 5601810 5996680 5631342 5946944
3447.16 5779422 6006110 6131432 6745450 6691384 7173900
3450.05 7170482 6615458 6024604 6031342 5883760 5782202
3452.94 5613596 5790500 5484230 5521620 5418714 5588942
3455.83 5631860 5626748 5495554 5544092 5489946 5770230
3458.73 5739350 5593262 5623154 5598478 5491260 5608996
3461.62 5581010 5484042 5534094 5491682 5477606 5470750
3464.51 5300950 5353378 5223496 5138170 4865312 5110636
3467.40 5016974 5079734 5004702 5232588 4851966 4870140
3470.30 4688744 4890716 4692162 4880560 4470440 4653274
3473.19 4535224 4381814 4371152 4485886 4332930 4280630
3476.08 4134634 4312114 4116106 4212572 3946082 4034812
3478.98 3759970 3946500 3750314 3761136 3706440 3685870
3481.87 3462276 3640434 3253418 3434624 3307592 3533122
3484.76 3118420 3440438 3191570 3079798 3095554 3194708
3487.65 2990146 2962232 2789334 2918674 2627406 2799996
3490.55 2660418 2778454 2709422 2618814 2603148 2656932
3493.44 2425450 2698510 2425252 2441828 2087328 2389078
3496.33 2244416 2425112 2249670 2329120 2426060 2311452
3499.22 2147624 2245906 2228244 2243342 2014614 1936822
3502.12 1937138 2104882 1828672 1989664 1793290 2030664
3505.01 1699126 2020274 1877886 1870764 1622128 1922874
3507.90 1861754 1842640 1833782 1903574 1710312 1802058
3510.80 1574214 1703376 1661906 1758154 1567802 1656716
3513.69 1644930 1726580 1569094 1725540 1600526 1808922
3516.58 1586086 1917496 1516106 1956534 1579378 1641028
3519.47 1678546 1861520 1613122 1841874 1731104 1852888
3522.37 1643764 1954434 1677042 1989916 1670634 2046760
3525.26 1813870 2123958 1905138 1981504 1933652 2042864
3528.15 2096728 2254186 2220156 2265306 2139362 2316274
3531.04 2198842 2514130 2297048 2630862 2323534 2443158
3533.94 2311718 2427970 2338648 2502480 2234574 2635272
3536.83 2318194 2664552 2392414 2434504 2453790 2523702
3539.72 2348480 2744772 2537026 2716520 2632598 2897564
3542.62 2621440 2842960 2647340 2795006 2455760 2775304
3545.51 2393058 2642696 2551050 2465698 2540106 2524480
3548.40 2320178 2455856 2282120 2601080 2450558 2468176
3551.29 2360482 2399704 2297350 2587568 2201876 2443834
3554.19 2227524 2459054 2202502 2470420 2253152 2364588
3557.08 1983532 2474582 2075070 2353082 2096824 2255728
3559.97 2048808 2328676 2097208 2310318 2229050 2368528
3562.86 2112472 2149836 2148038 2399640 2033772 2344626
3565.76 2221424 2365350 2131714 2416590 2101256 2264928
3568.65 2146266 2291342 2122222 2202806 1982766 2233374
3571.54 1953056 2046934 2132538 2138536 1816824 2199346
3574.44 1943866 1989072 1931554 2033564 1940032 2188030
3577.33 2058664 2270256 2185492 2337742 2219462 2401752
3580.22 2258036 2386606 2159928 2380216 2258344 2413548
3583.11 2290352 2461148 2312510 2594862 2283564 2550060
3586.01 2472036 2704848 2275212 2952958 2475256 3096988
3588.90 2539368 3005846 2743684 3107842 2785806 3138496
3591.79 2975934 3131044 2962530 3496268 3052414 3517092
3594.68 3315574 3656072 3297614 3616800 3343020 3624310
3597.58 3494862 3759714 3333836 3862212 3567366 3935470
3600.47 3844450 4268128 4044974 4529974 4395580 4808356
3603.36 4698254 5224006 5149454 5784400 5781060 6762498
3606.26 6680774 7549238 7223330 7912336 7629182 8775116
3609.15 8355922 9017782 8781446 9505136 9383740 10169100
3612.04 10135840 10908870 10773500 11665410 11574600 12589790
3614.93 12304240 13308690 13255150 14199830 14038820 15412220
3617.83 15004080 16167680 16056990 17364410 16885050 18201490
3620.72 17933270 19205470 18765430 20017750 20002460 21267930
3623.61 20677550 22513180 22178360 23773960 23296490 25246660
3626.50 24656420 26745270 26336310 30344330 30435100 30566290
3629.40 28673260 31217160 30215800 33184890 32097220 36283200
3632.29 35054960 40653160 39414690 46949800 45097140 58811740
3635.18 62136770 142438500 141318600 64063240 70013260 63000240
3638.08 71313140 68250290 75003210 75583730 81848440 82549930
3640.97 84874870 83040500 87250860 87588830 91949240 92918820
3643.86 96480040 96970600 100571800 102258600 105655000 105629600
3646.75 107818500 106458000 107338400 106848400 108564400 107642000
3649.65 108442300 107658700 108398800 107825800 108669300 108291100
3652.54 109953100 110317300 113227400 115270000 118643700 120996500
3655.43 123228500 122881500 121811400 115524100 113722900 112923400
3658.32 115432000 120104600 121639400 121211700 119317000 116540200
3661.22 115364500 113307700 112615300 112024600 109445300 106893200
3664.11 106033200 104852200 104318500 103396700 103040400 102161700
3667.00 102162500 101824300 101849100 101314500 100687200 99731330
3669.90 99107650 97992300 96344140 94559380 92917190 91181530
3672.79 89283860 86831100 84582930 82097880 79827540 76831650
3675.68 74403040 70726740 68149830 65005200 62091680 58952060
3678.57 56100050 53104160 50451160 47555290 45084380 42176170
3681.47 39647320 37087960 35048790 32591280 30927520 28546810
3684.36 26979530 25035680 23587130 22103010 20759840 19342050
3687.25 18177350 17349830 16304880 14720760 13992620 12917900
3690.14 12423410 11578410 11079000 10181690 9797692 8992114
3693.04 8846516 8102826 7986946 7578614 7305228 6931710
3695.93 6790102 6387152 6315264 6075632 5991214 5571454
3698.82 5657562 5411970 5129964 4966206 4864682 4801688
3701.72 4929446 4529144 4600268 4271856 4330780 4171498
3704.61 4095800 3916158 4087652 3789064 3952732 3837296
3707.50 3799428 3686714 3871594 3883432 3813458 3716136
3710.39 3817570 3619178 3847778 3971990 3774276 3782794
3713.29 3662204 3570840 3646660 3477326 3412754 3164052
3716.18 3308290 3177752 3176668 3124122 3095352 2891970
3719.07 3035814 2876210 2802108 2817176 2867334 2827818
3721.96 2979396 2803824 2863064 2793256 2627298 2754912
3724.86 2779830 2623586 2830636 2691514 2469224 2702688
3727.75 2535882 2393750 2632336 2477924 2628164 2490184
3730.64 2484768 2527492 2753092 2570466 2514636 2457694
3733.54 2487646 2532166 2623152 2352384 2342648 2646006
3736.43 2592470 2490230 2565124 2476454 2571310 2466852
3739.32 2626484 2495240 2443058 2413920 2565750 2486758
3742.21 2358410 2303896 2590780 2636896 3121052 2680734
3745.11 2480628 2258368 2288618 2338474 2274938 2280168
3748.00 2341838 2302364 2790606 2277920 2363016 2258250
3750.89 2211804 2349890 2736834 2035498 2197964 2134272
3753.78 2245698 2078176 2081514 2095172 2268862 2368274
3756.68 2078580 1979294 2315696 2015430 2230670 2085234
3759.57 2305512 2084594 2164546 2053338 2292658 2265324
3762.46 2352296 2118614 2205834 2248752 2426542 2375364
3765.35 2688220 2448238 2407830 2474598 2533240 2517456
3768.25 2609202 2559552 2705448 2641664 2655784 2674170
3771.14 2804994 2880198 2781678 2833740 2979188 2862402
3774.03 3178848 3034142 3195242 3150530 3237510 3324226
3776.93 3249570 3297640 3497738 3454562 3679690 3674390
3779.82 3573830 3662440 3800008 3962680 3879072 3889700
3782.71 4112072 4167844 4238364 4195202 4282196 4495038
3785.60 4376490 4521864 4630996 4631534 4763388 4654022
3788.50 4646016 4700912 4730018 4606884 4871170 4753570
3791.39 4679206 4711980 4662892 4849094 4892420 4816166
3794.28 5001242 4941114 5078734 5034232 5212394 5257952
3797.17 5418466 5296134 5395456 5298374 5452672 5526908
3800.07 5517586 5548864 6021260 5236802 5346408 5428332
3802.96 5408204 5385474 5420030 5271452 5362152 5460658
3805.85 5430470 5633632 5911846 5250844 5549480 5466240
3808.75 5542534 5535614 5701946 5650716 5853476 5691874
3811.64 5923080 5614532 5774828 5680160 5676518 5699000
3814.53 5884346 5709966 6348308 6045226 5874162 5870186
3817.42 5835338 5822276 5974126 6095940 6127652 5981096
3820.32 6288076 5959404 6128986 5671304 5785890 5714010
3823.21 5555992 5707180 5732924 5690826 5741318 5690348
3826.10 5821614 5921684 5964446 5813986 6044136 5901954
3828.99 6112368 5858478 5913886 5772386 5881862 5848216
3831.89 5627426 5674032 5545198 5634132 5408054 5727688
3834.78 5673304 5663116 5539808 5522788 5530450 5821248
3837.67 5941986 5437594 5412788 5483922 5581834 5329670
3840.57 5418934 5325052 5320690 5297802 5341790 5299982
3843.46 5462926 5216656 5251226 5134684 5102694 5040558
3846.35 5160652 5131598 5297780 5155322 5102404 5019772
3849.24 5204652 5052532 5108328 5119142 5159496 5529666
3852.14 5033334 4953472 5261126 5627078 5453824 4959238
3855.03 5070376 5037680 5140278 5007166 5181150 5037366
3857.92 5132324 4826350 4943034 4830034 4987794 4748444
3860.81 4874224 4826126 4687100 4602586 4838550 4861702
3863.71 4843476 4805708 5226086 4880710 5194410 5012912
3866.60 5517048 5865564 6316542 6015874 6033812 5544870
3869.49 5513014 5150852 5049036 4903638 4798060 4730140
3872.39 4819100 4853730 4702684 4781984 4613288 4615776
3875.28 4764152 4762174 4647540 4568296 4629046 4906440
3878.17 4675472 4647328 4764428 4967266 4918888 4759816
3881.06 4834692 4795318 4764166 4767602 5039866 4796454
3883.96 4813124 4706952 4820512 4937264 4757234 4741020
3886.85 4674160 4687396 4745044 4539750 4776448 4798080
3889.74 4560788 4643338 4933090 4766844 4792414 4988728
3892.63 4943740 5036248 5276148 5248970 5489588 5606606
3895.53 5316914 5467478 5446652 4941748 4948676 5051306
3898.42 5084144 5112034 5116884 4864846 4870174 4736440
3901.31 4683280 4466808 4300284 4302618 4393976 4466142
3904.21 4224614 4229218 4180492 4098132 4121378 4093348
3907.10 4103478 4071380 4112008 3966786 4004088 4094888
3909.99 4150460 4074548 4025186 3957454 4104608 4053750
3912.88 3833638 3878294 3803650 3745772 3558738 3704970
3915.78 3750052 3666112 3800074 3779600 3562836 3475270
3918.67 3426980 3300232 3461558 3350018 3237178 3326568
3921.56 3266126 3141288 3280316 3367620 3179876 3036262
3924.45 3089076 3400380 3084304 3053372 3140746 3121742
3927.35 2988178 3020738 2907180 3043748 2944678 3041114
3930.24 2967504 2988398 2938608 2904984 3092348 2981592
3933.13 3169960 3074600 3157462 2985016 2845932 2822370
3936.03 2668922 2707244 2679800 2562728 2473256 2512370
3938.92 2497206 2505236 2439002 2571380 2598636 2246366
3941.81 2683350 2580646 2520696 2363804 2622938 2474640
3944.70 2610730 2465004 2654980 2405984 2630646 2563212
3947.60 2352114 2366390 2523294 2096072 2031698 2206092
3950.49 2138622 2064508 2046786 1905516 2174332 1911848
3953.38 2197616 2085724 1890088 1944280 2069594 2057884
3956.27 1995986 2055168 1972896 1835516 1864524 2053220
3959.17 1994526 1927044 1738230 1921990 1723990 1720738
3962.06 1738564 1814216 1793686 1682188 1771210 1813908
3964.95 1606564 1640542 1707212 1773514 1665848 1641870
3967.85 1795928 1739296 1651446 1724770 1686356 1665732
3970.74 1552872 1688634 1735164 1674232 1604672 1630592
3973.63 1688830 1505800 1656618
##END=
