##TITLE=Chloroform
##JCAMP-DX=4.24
##DATA TYPE=INFRARED SPECTRUM
##CLASS=IUPAC A
##ORIGIN=NIST, Analytical Chemistry Division, 301-975-3108
##OWNER=COPYRIGHT (C) 2000 by the U.S. Secretary of Commerce
##DATE=00/02/01
##$SPECTRA VERSION=1.10
##$UNCERTAINTY IN Y=2.2 % relative (B=1.2E-04,C=3.2E-09,D=1.1E-13)
##CAS NAME=Chloroform
##CAS REGISTRY NO=67-66-3
##MOLFORM=C H Cl3
##MP=-63.5 C
##BP=61.7 C
##$NIST SOURCE=QUANT-IR
##SPECTROMETER/DATA SYSTEM=IFS66V (Bruker)
##INSTRUMENT PARAMETERS=KBr Beam Splitter; MCT Detector; Multipass cell
##STATE=gas
##SAMPLE DESCRIPTION=Chloroform Primary Gas Standard
##PRESSURE=101.3 Pa
##TEMPERATURE=23 C
##SAMPLING PROCEDURE=1 L/min Flow
##RESOLUTION=1.9290
##DATA PROCESSING=Boxcar Apodization
##XUNITS=cm-1
##YUNITS=(micromol/mol)-1m-1 (base 10)
##XFACTOR=1.0
##YFACTOR=3.6379E-12
##DELTAX=0.9645
##FIRSTX=575.652
##LASTX=3974.605
##FIRSTY=-1.64E-06
##MAXX=3973.64
##MINX=575.65
##MAXY=.0028039
##MINY=-6.43E-06
##NPOINTS=3526
##XYDATA=(X++(Y..Y))
575.65-453343 529477-528105 244025 123811 147623
580.47 337140-221062-240990-127082-105764-344834
586.26-28079-557202 276524-30843 60513-74489
592.04-135670-107619 66242-56632 118469-210555
597.83 209817-2043 119321 63857 335498 303532
603.62 312287 92962 219500 138301 328897 146457
609.40 524325 323842 549526 140461 488056 490980
615.19 720717 507205 407627 217104 365005 851336
620.97 1692726 431527 267034 153362 728129 1623414
626.76 895201 280528 534261 104914 662392 411096
632.54 724271 312382 719807 391895 727036 317647
638.33 630762 285559 576210 200768 356875 80160
644.11 201885-1469 267551-43668 258768-78062
649.90 355670 136935 327725 216073 435674 220951
655.68 727867 335525 998243 437073 1301576 767831
661.47 1454373 1289279 1882074 1694878 2204504 2533034
667.25 3842956 3347861 5902120 7118359 11511816 14317347
673.04 18118836 15590337 12598752 4297594 2597433 4587214
678.83 5767991 7406695 8944306 10313288 11612030 12027548
684.61 12350761 11960083 11259669 9977840 8580145 6873808
690.40 5653217 4008372 3284954 1935517 1627939 919851
696.18 903151 381427 545742 96389 321372-70146
701.97 189432-64646 179963-155610 198212-152684
707.75 188677-115634 137276-185799 250652-201310
713.54 343690-112773 298276-213691 346633-116319
719.32 410488-160580 513487-55022 609163 57025
725.11 682195 189977 997506 475977 1285712 857739
730.89 1654347 1282132 2263148 1948278 3127736 3037095
736.68 4442546 4539982 6142128 6617925 8679055 9518239
742.47 12057982 13374521 16736607 18435890 22408060 24589343
748.25 29434821 32380831 38582668 43807491 52284892 59582370
754.04 69003146 79264112 93256381 107565124 127997066 150387531
759.82 179105680 210815024 251947364 294859924 351482250 408828123
765.61 479289558 546308232 619107358 678848039 731372518 751038589
771.39 770741739 748103634 706415218 710678238 687221208 665915915
777.18 507362052 417935517 326761914 268296917 209969444 172236750
782.96 133946940 110883417 86197657 72190092 55815663 47686007
788.75 36801898 32200892 24933466 22799900 17866169 16623469
794.53 12654225 11869310 8600094 7972361 4812975 5172392
800.32 3077039 3245975 1606000 2196873 914533 1529759
806.11 435278 1115149 70631 889650-7922 703620
811.89-219219 543025-242580 475110-302998 392409
817.68-303183 522287-256829 377160-335799 203568
823.46-226361 302154-200742 362993-247560 393280
829.25-126161 398766-201692 438295-27788 508861
835.03 21290 593278 184956 614314 176837 745497
840.82 246344 694579 367307 812858 529669 978622
846.60 538991 1052919 1109665 1512465 1075768 1462198
852.39 1186009 1858014 1422780 1859896 1282424 1469288
858.17 996677 1144419 471716 778734 400830 478106
863.96 51580 380761 192683 446316-12688 327407
869.75-70461 308873-10618 239702-51190 225197
875.53-7034 252799 14648 227469-69320 172898
881.32-43029 194587-117746 160848-133449 140719
887.10-110291 110110-128071 137522-143614 103405
892.89-162586 111017-160921 124842-105297 121592
898.67-87786 145198-49271 204673-70600 223173
904.46 97979 316645 165010 429932 253604 564670
910.24 382316 776540 591161 849414 769758 984729
916.03 870346 1081006 1008106 1160540 1048348 1308262
921.81 1116718 1267096 1121391 1390620 1327857 1582586
927.60 1302781 1501946 1811548 2053752 1248278 1242923
933.39 1533207 1871829 991928 636875 667739 809985
939.17 823516 1017284 971678 1136118 934221 1041017
944.96 883474 903128 652185 698332 499902 528503
950.74 318281 336220 238311 228065 97597 244546
956.53 26593 205992 25417 145717 24676 90789
962.31 8920 173882-25513 100407-313 72142
968.10-16519 125849 6825 88597-37119 68496
973.88-71196 45815-131956 11712-58478 16857
979.67-92181-3430-123365 26084-68006-17812
985.45-145502-29225-111065-43768-133984 3191
991.24-75098-27375-106911-10864-84074 5150
997.03-86166-25371-112992 45467-41251 6618
1002.81-104846 39275-96894 73727 34977 82051
1008.60 1841 151786 16290 175387 72519 243649
1014.38 164656 359457 310985 389370 334911 472337
1020.17 452047 633307 483790 575965 481802 634815
1025.95 487535 596097 544354 598342 548762 638130
1031.74 561025 612002 484726 601115 494135 596897
1037.52 405725 429326 285750 363870 189059 198495
1043.31 72991 83271-54485 29337-91596 78489
1049.09-67941 31367-67105 21417-77229-3027
1054.88-61145-11975-128976 38786-138213 6414
1060.67-105439 10895-105592-338-133717-94563
1066.45-97060-90824-40595-1547-126471 24595
1072.24-129481 1910-144475 3393-123280-7216
1078.02-104669-46799-128966-18386-121812-65654
1083.81-122916-42017-147132-32735-124893-11031
1089.59-133396-8222-72427-28268-121961-39571
1095.38-98805-53800-150781-34266-107774 52604
1101.16-159171-58375-114572 3771-77087-35422
1106.95-146391-33520-141308-19955-170295-4010
1112.73-104876-22782-138389-37808-135725-39007
1118.52-128791-59436-95146-48840-159173 1142
1124.31-94990-56848-75758-55426-116666-10374
1130.09-99656-16766-129247-49254-103907-15844
1135.88-139720-20697-140950-25899-46615-71952
1141.66-108402 43782-117215-272-123128 32307
1147.45-132335-58992-113020-2710-158259-31712
1153.23-123221-20463-154726-29940-52619-76925
1159.02-149782-46356-62506-15507-89714-54877
1164.80-86594-24984-95355 38560-91382 15933
1170.59-119657 27716-99271 63969-54401 72191
1176.37-7315 100034 2518 172210 45176 216235
1182.16 130153 309622 234120 432256 321936 592966
1187.95 539492 764695 686483 818359 731014 1003644
1193.73 944993 1369224 1351081 1923563 2123756 2892334
1199.52 3321969 4462626 5272872 6877556 8206422 10439886
1205.30 12285639 15145849 18152784 23368283 27683734 33750497
1211.09 39823213 48818084 58919048 72463404 87137168 106497928
1216.87 128101018 147839424 136392858 142675163 125363643 99954477
1222.66 82907373 66174841 54648688 43725108 36157596 28867876
1228.44 23970723 19053111 15933908 12735153 10708564 8430653
1234.23 7235651 5648456 4890174 3752297 3273180 2530834
1240.01 2273367 1613104 1474432 1015605 995220 652985
1245.80 661940 411409 471719 246734 341988 140020
1251.59 171496 52639 130256 1451 93602-77114
1257.37 59649-64708 8545-45428 43152-142099
1263.16 32080-111751-21346-110484-13749-96553
1268.94-21939-126589 8520-104821-6575-75716
1274.73 2596-75177-53314-151518 757-53738
1280.51-37983-100739-33885-91567-66210-86071
1286.30-45364-75906-34025-80751-18758-81966
1292.08-57791-96732-65217-85542-87577-82407
1297.87-56913-110518-14447-79945-20459-85010
1303.65-89387-59452-43424-121058-69733-104406
1309.44-55535-74775-2085-92694-77677-105031
1315.23-51412-92079-71750-97109-3123-79612
1321.01-42536-100657 2555-58330-28445-69105
1326.80-10612-54115 16755-60023-4087-13144
1332.58 1286-21317 31871-25515 37541-110039
1338.37-11440-114574 8862 8866 60208 28051
1344.15 40581-15054-51183-37466-20039-70630
1349.94-120873-148910-171337-173846-34854-133837
1355.72 38632-68377-47201-67470-213321-131873
1361.51-191776-254208-63245-148063-76108-74301
1367.29-11439-126175-71323-96941-49062-166228
1373.08-215575-111806-67418-22099-53058-59180
1378.87-55839-84209 10394-83771-18302-65359
1384.65-19609-116836-302336-83246 29670-63517
1390.44-27290-90707-4508-306183-151895-134675
1396.22-36901-80139-193149-105710-24880-21926
1402.01-16905 27714-150449-46564 5986-28064
1407.79-7233-81466-15370-40577 61941-69989
1413.58 9655-16904 63888-67282 14556-627316
1419.36 40922 166217 188196 102223 205088 298574
1425.15 416125 398394 477365 549686 559895 746579
1430.93 922743 961643 1148697 1246314 1419254 885548
1436.72 1769352 1964061 2139904 2295870 2534934 2385534
1442.51 2594473 2785276 2304941 2491160 2524695 1728144
1448.29 1883185 1748113 1349704 911119 826446 502672
1454.08 455015-37680-823305-2915-96908 119282
1459.86 85288 143952 42923 171244-188710 54544
1465.65 288060 198785 379643 286551 439043 27605
1471.43-20758-26902 177897 387664 52873 414956
1477.22 380461 415218 393888 319461 346193 372814
1483.00 318055 376644 360896 216298 133635 271583
1488.79-40459 13902 60541 170982-1788 188349
1494.57-241095-588725 124433-316187-120006 75590
1500.36-27428 50397 5564 149599-599280-670891
1506.15-761649-133174 17723 23398 239962 62822
1511.93 168359 396092 224765 408539 121337 259039
1517.72 552137 565104 88828-19371 591763 682177
1523.50 946639 509673 1066938 913138 1106129 1134025
1529.29 1340318 1233904 1397044 1076345 1154000 1495475
1535.07 1504600 1599036 1497791 592969 881175 1438746
1540.86 1338020 1450987 2103650 1707444 1932085 2088368
1546.64 2027919 1918278 1642901 1388464 1338930 1126628
1552.43 1161748 536482 1279309 1196341 1022491 16103
1558.21 683502 33278 1018500 1041222 948220 812735
1564.00 627831 629617 567803 449233 259789-194319
1569.79 259134 132128 235627-55982 253313-662341
1575.57-948958 169028-111569 50535-102669 10889
1581.36-52888 43478-75300 14698-44100-10779
1587.14-3031-34501-61891-37672-52072-58895
1592.93-113315-99444-79018-83506-39322-88104
1598.71-55071-98356-62220-104409-93885-100762
1604.50-99780-108725-45566-90903-100338-143112
1610.28-55581-113923-40486-163722 70469-639613
1616.07-994262 66498-187466-16425-180298-25538
1621.85-255936-430047-44356-83163-88250-265038
1627.64-103395-63956-72686-97028-59384-127394
1633.43-122810-1043746-399988-143088-214248-26897
1639.21-165980-84117-134195-48685-82893-99124
1645.00-858824-237961-407347-138497-111862-44785
1650.78-478775-1768059-1053679-379019-160215-44864
1656.57-127208-65797-80186-65328-77469-303867
1662.35-336346 48774-196658 43736-157169 27607
1668.14-683532-176878-244551-131279-123455 23913
1673.92-593488-408914 43347-98331-46263-126894
1679.71-166617 9319-302581-311008-1331758-693196
1685.49 144426-212495-33829-192547-29051-160237
1691.28 20593-223701 104894-616862-1369663 21449
1697.07-279752-49688-1339775-768635-52010-71902
1702.85-194727-252354-154194-300197-4507-94046
1708.64-36032-168327-23397-99144-63562-303933
1714.42-363005-84358-1031906-548726-200468-72220
1720.21-74194-88636-104671-128393-25772-132245
1725.99-83406-101077-71304-199710-126178-44048
1731.78-331791-854760-763233-170418-1071-163697
1737.56 46594-453291-223048-41865-133514-191042
1743.35-102743-126382-67327-180540-136928-311065
1749.13 21965-598614-244631-51357-91798-55475
1754.92-102130-277779-62999-73667-96619-42165
1760.71-409180-171172-30420-82488-34258-61044
1766.49-141429-412871 50967-185826-124175-571898
1772.28-461746-1816-149242-38576-34603-42908
1778.06-62765-69476-171680 12739-53871-22107
1783.85-199185-45430-45591-9089-71981 3758
1789.63-163593-88695-470534-137659 35580-111121
1795.42 7871-50683 62405-153945-39305-72447
1801.20-46969-15686 43971-2673 56200 31298
1806.99 18835 60600 54794-40774 107690 74039
1812.77 133527 82797 128128 94333 138546 108995
1818.56 181007 140515 166607 88947 151812 63613
1824.35-99980 29103 53732 46959 10705-108233
1830.13 217117 193305 242179 192515 200887 141272
1835.92 134132 76484 141115 17438 118741 1114
1841.70 113902-280475-341255 74887-36725-51314
1847.49-20791-22087-22067-14726-38374-16893
1853.27-47540-34350-2149-35718-51768-54201
1859.06-32980-64937-28152-57139-27974-67023
1864.84-54190-115374-106405-188193-245194-69765
1870.63-86076-59515-104147-58110-73496-65837
1876.41-86891-87318-81939-31002-57657-63606
1882.20-76727-68679-61283-64395-26181-76098
1887.99-105432-130367 2774-51200-5379 196
1893.77-36173-64000-8117-56588-43342-62775
1899.56-18150-61738-57067-70835-41302-68863
1905.34-56957-99364-92738-82854-91110-82239
1911.13-84091-82118-55818-91591-47941-57465
1916.91-246008-102307-50141-114769-39122-147438
1922.70-75427-61668-45766-45661-73564-66578
1928.48-68899-69834-75233-90034-35653-62575
1934.27-68199-131152-64154-92089-60709-87413
1940.05-16703-132559-114148-39734-97714-107814
1945.84-71761-76062-64608-82716-21245-70913
1951.63-44982-45022-28415-105369-39568-62012
1957.41-40234-69499-18952-57282-4065-52210
1963.20-23790-45094-45877-86579-66918-58548
1968.98-31373-65754-3192-40407 11250-35447
1974.77-78058-31749-27851-41849-22163-12330
1980.55-8723-20967-4897-48933-14873-51030
1986.34-30962-51021-19972-8714 11027-84066
1992.12 33790-59490-22964-46468-48491-47048
1997.91-15413-50699-10455-74430-18229-33159
2003.69-29399-45604-24450-73527 5704-48198
2009.48-42200-30963-36459-49852-53272-62486
2015.27-80543-78360-19377-83119-36046-64541
2021.05-49466-70068-43914-84902-32806-71064
2026.84-55971-77756-52270-81118-56785-89756
2032.62-63877-86742-51535-76960-15896-81846
2038.41-42183-95933-86800-65908-51610-72129
2044.19-69451-76215-95914-56539-56841-86225
2049.98-42683-72655-79414-115904-39218-97196
2055.76-53871-53930-34013-110661-53765-93424
2061.55-61228-53644-89411-39389-38517-128227
2067.33-69538-92172-53180-95132-47646-71815
2073.12-73252-72077-58026-101351-38740-75634
2078.91-82339-89393-75997-87642-56953-102769
2084.69-66892-92115-51463-91511-73154-119045
2090.48-28406-94328-67202-117903-73940-79172
2096.26-29313-106797-82470-80970-44711-74959
2102.05-101956-100461-77705-88091-48135-98904
2107.83-52158-77631-70981-144747-17990-109312
2113.62-23981-143032-27277-69119-47168-117874
2119.40-22993-77060-21653-137005-103470-65421
2125.19-43094-95667-63029-50991-66018-100672
2130.97-66021-89991-56782-80877-53558-53075
2136.76-47125-62247-49547-75015-66014-55539
2142.55-40285-82886-70093-91857-50204-83010
2148.33-49361-84874-63091-67226-53560-87706
2154.12-79127-45385-41817-121899-60584-60020
2159.90-41186-96297-53339-31175-62629-121111
2165.69-32024-47244-72948-124661-51445-80656
2171.47-66781-65641-26975-56139-84919-26879
2177.26-65365-90805-82565-35355-40093-71302
2183.04-33640-10062-21644-82751 13303-16912
2188.83-44988-58611-2983-33869-2173 4207
2194.61-5748-11332-6594-20891 49639 13893
2200.40-3253 8179 20313 37980 40632 4157
2206.19 69126 42137 57993 3640 55251 20860
2211.97 38190 59381 92411 13807 42312 20447
2217.76 8234 16436 4407 13012 15852-21702
2223.54-10713-5781 50951-44005 27940 30301
2229.33 44909 33714 56661 4769 64542 14084
2235.11 49725 25284 77786 48892 28212 26444
2240.90 44250-3878 74292-9500 9217 10092
2246.68-16410-34762-30521-34080 13958-29428
2252.47-769-36487-22899-20286-24234-45539
2258.25-33384-14939-20560-73797-9217-50617
2264.04-18228-21660-824-23809-23092 8366
2269.83-36368-52112 22702-22247 11721-24362
2275.61 44632-15066 13482-4423 40178 32348
2281.40 14613 49058 61854 29316 101685 67730
2287.18 79132 45076 101073 51152 79040 74540
2292.97 77004-1779 29954 12918 23228-16975
2298.75-9965-18030-12481-5694-56524 7227
2304.54-34267-23648 997-16183 58398-35410
2310.32 92495-66446 129196-40268 199456-60063
2316.11 225972-35594 251394-15901 308913 61889
2321.89 341211 101510 370020 159781 379492 202816
2327.68 433110 250689 441626 324237 486021 340264
2333.47 505059 342653 499405 383476 498727 366972
2339.25 435669 378558 427109 332434 325126 236730
2345.04 213009 145323 158315 6419 94187 101259
2350.82 238898 215286 360521 348016 431824 473498
2356.61 560562 536342 600745 546251 624412 572893
2362.39 603441 532532 537324 488056 490684 395118
2368.18 420770 341534 314346 220373 224836 122463
2373.96 144416 77875 71354 65548 54436 44358
2379.75 77447 6924-14995-2128 19462 31883
2385.53 70520 72861 107815 125145 127931 181419
2391.32 223477 318915 338955 404301 440212 560264
2397.11 665186 630983 449409 503219 321682 470884
2402.89 290214 403136 209712 744903 1382888 4855042
2408.68 4032309-29493 501986 45038 525264 356804
2414.46 648970 526848 791625 678364 845420 688670
2420.25 801505 657405 722840 510904 567824 375714
2426.03 417148 297102 341467 231548 288017 143200
2431.82 186885 78623 127496 20309 105020 92815
2437.60 212876 237385 378675 325402 421099 269256
2443.39 257713 127095 199380 90162 163937 148629
2449.17 210228 133616 258357 163886 226217 207837
2454.96 253141 185447 254338 181118 228252 142511
2460.75 201766 79235 162881 86675 123553 65242
2466.53 89773 43971 91404-1292 39273-47823
2472.32 16309-20932-13004-44587 236-89276
2478.10-15243-105664-28478-58281-32131-112647
2483.89-33195-103103-50881-74489-35879-90805
2489.67-59850-92299-17933-100309-36187-107975
2495.46-28979-119059-59955-102817-73700-68723
2501.24-7341-89374-58821-95663-6801-79435
2507.03-69862-119238-42990-122020-38570-110536
2512.81-30477-108205-52856-58542-25764-90588
2518.60-56873-113751-95950-82074-31565-117910
2524.39-47611-135920-71157-94948-30149-116147
2530.17-55792-78114-47960-129455-55481-127001
2535.96-50025-89899-45323-115870-45012-135156
2541.74-72651-108822-43722-146809-41623-126044
2547.53-56912-109128-64726-99431-67054-136274
2553.31-65098-97233-65138-143980-62970-144201
2559.10-50527-104767-47050-102216-72563-58561
2564.88-20632-103204-3915-94073-51271-114658
2570.67-98310-143491-110247-135568-52897-92394
2576.45-70386-79983-94087-91242-18146-59178
2582.24-29792-93493-30154-131857-46288-117810
2588.03-53134-108833-76359-167541-71317-109813
2593.81-17706-89826-31700-139048-51124-85769
2599.60-97361-112349-42004-117759-32803-127358
2605.38-58078-86970-52184-134002-36263-142939
2611.17-54855-128577-36921-96349-44986-78746
2616.95-69240-80315-82308-107289-76626-124602
2622.74-69891-97106-40330-98262-82169-102371
2628.52-30785-105607-37577-122067-78253-102086
2634.31-46933-86606-53150-91643-44506-86807
2640.09-48469-90661-19989-110731-69526-86351
2645.88-30480-65763-67675-112625-73628-115561
2651.66-51943-62313-72071-77012-47009-105767
2657.45-100247-105300-67786-123494-28618-93635
2663.24-9321-124046-45725-102713-56568-132610
2669.02-62944-98042-27183-108432-54830-160639
2674.81-466-110452-96588-73036-27323-99235
2680.59-58283-104570-46922-98825-28126-60580
2686.38-65794-77886-48161-119723-21252-100052
2692.16-60231-124544-57439-158223-72428-152276
2697.95-105493-137843-52676-98456-102095-101975
2703.73-74090-62951-49948-30176-19975-34319
2709.52-14457-81251-48741-99075-79857-109093
2715.30-79904-79302-78530-78964-32165-126001
2721.09-89493-154009-106908-91758-61091-145868
2726.88-42714-92236-29892-111747-58987-108889
2732.66-6183-105597-34649-101316-22345-91676
2738.45-67997-114975-34404-108091-39598-129753
2744.23-36991-104049-65662-100262-55861-97251
2750.02-67376-135150-61190-65313-56610-152392
2755.80-96196-100862-74231-139961-55074-122767
2761.59-43158-95517-84193-121339-91958-109957
2767.37-33391-85543-117195-125220-73056-85814
2773.16-56206-92089-89550-160013-88230-61388
2778.94-95200-100321-47605-74424-48113-123248
2784.73-69905-124002-74532-108110-39003-99436
2790.52-84620-137938-77674-94037-37137-151936
2796.30-17835-70259-65694-129554-61651-132184
2802.09-82561-173195-8522-130565-115255-93849
2807.87-62263-102478-52778-107234-108865-141593
2813.66-135837-134021-79233-107401-69261-140505
2819.44-82746-110629-69354-108061-81395-120388
2825.23-7341-127134-59068-98876-39756-70249
2831.01-3680-111654-44493-134046-94366-139713
2836.80-65401-107429-46487-82954-79554-94898
2842.58-60559-121878-59767-127804-56443-76605
2848.37-95701-130387-32009-134459-72639-121713
2854.16-137103-144860-98947-117589-34099-83734
2859.94-110569-115748-34434-119612-103188-152710
2865.73-86935-176404-72791-168212-15563-109054
2871.51-103813-117182-84542-160664-66192-96767
2877.30-86217-107058-110364-97725-112821-102145
2883.08-88945-187584-115432-145934-80690-122028
2888.87-124665-99519-61214-116320-90650-186196
2894.65-112907-147909-26070-126867-20777-108871
2900.44-36777-157878-70682-150171-152720-77517
2906.22-100293-136584-48675-135143-60103-140761
2912.01-74824-136229-148594-169181-85908-150146
2917.80-72718-200945-139846-143235-92965-202341
2923.58-112550-218395-53966-180699-108244-156534
2929.37-139576-160195-110819-157630-61168-189987
2935.15-75642-178613-132891-162478-95617-158685
2940.94-101722-130581-65150-109499-128141-145638
2946.72-122304-112020-96537-161246-121432-121895
2952.51-105204-117263-62718-114773-100689-143083
2958.29-80275-171761-127786-211482-20002-139577
2964.08-114856-182367-147921-211716-108801-242125
2969.86-142018-161552-117141-144581-169403-212263
2975.65-87790-161952-133891-177534-86804-145723
2981.44-108804-217025-49677-148099-58878-108207
2987.22-66345-113096-41436-188682-17262-86364
2993.01-107815-92505-60402-164295-65409-128363
2998.79-28460-142077-51774-184380-90759-133057
3004.58-56114-186219-47228-102526-38176-134078
3010.36 5728-73474 31396-51131 69886-18821
3016.15 214838 6228 209349 32986 253344 71280
3021.93 295782 195675 289767 75645 243923-83368
3027.72 305627-48162 338635-573722 1995806 3621650
3033.50 448898 367323-99216 238185-1106 240488
3039.29 160430 343369 262132 294313 279660 336947
3045.08 265867 303721 154293 223733 125802 109394
3050.86 59940 47940-21911 2707-67329-104301
3056.65-24285-25673-75675-58793-111805-101152
3062.43-110932-104131-93561-64800-85341-100229
3068.22-40462-96051-100365-81557-43590-86173
3074.00-67094-69991-39958-72204-81132-86132
3079.79-43670-115582-75374-54202-13609-124013
3085.57-93291-48947 19253-76091-13275-119751
3091.36-35597-26446 13141-78661-16022-68105
3097.14-109928-48642 14490-52295-34084-91062
3102.93-48336-44563-22249-66767 23680-36105
3108.72 21800-16080-1600-26686 50457-52517
3114.50 2074-78659-26917-8948-5656-10362
3120.29 29863-56245-67473-42962-28987 10639
3126.07 10601 46383-18778 27503 43565 25
3131.86 68064-14476-5946-46073 81061-46295
3137.64 12866-8014 3203 28320 29103-45321
3143.43 16852-43261 15159 11101 57115-5163
3149.21-12153-8898 53567-17235 51279 5650
3155.00 84661 8378 16077 58419 73230 43353
3160.78 50749-16931 61596 36689 125607-9961
3166.57 48087-51664 46170-55363 1624 29409
3172.36 74340 40415 12119-17173 41405-6948
3178.14 41299-8564 53612 28513 65367-3687
3183.93 94809 1719 55493 20348 50944 13591
3189.71 14965-31161 7220-21041 59685-48107
3195.50 40175 24126 66952-59074 73675-29332
3201.28 41240-15616 81600-374 18927-21369
3207.07 43451-31372 45894 25776 75245-10733
3212.85 32260-43969 75577-18764 129984-76
3218.64 56402-16832 104674 7455 26089-19316
3224.42 29596-60754 100535 5483 40351 76662
3230.21 90926 3461 34733-6571 58817 10918
3236.00 39767-1314 45691 39010 55179 67498
3241.78 75098 37719 83486-1359 72595 35380
3247.57 105956-73027 82673 5612 143260-4531
3253.35 45005 54953 41306 14520 70433-24987
3259.14 60401-7484 107282 39748 50164-13316
3264.92 62211-9480 82093 51279 103372-22197
3270.71 19832 34332 42120-32688 78230-9932
3276.49-7549 14040 7738 11150 6451-8776
3282.28 50275 17259-28573 8658 49113 11588
3288.06 81501 270 5672-27389 53446-42991
3293.85 42413-33309 26773 18669 101303-3929
3299.64 33435 42394-7832-67352 28882 28302
3305.42-41122 4551 60090-45069 24298-66039
3311.21 41676-86781 11802-117565 42086-85555
3316.99 1794-80336-42350-41675-36350-28495
3322.78-27600-53969 2661-115569-33387-10553
3328.56 24115-80711-12950-85043 9390-113495
3334.35 22967-93982-19330-22065-36166-57657
3340.13-69490-33900 15743-65589-75046-11030
3345.92-44319-113552-30463-47835-29788-41299
3351.70-29250-104056-96314-46810 2346-109495
3357.49-61918-52436-3316-71300-58882-88951
3363.28-28341-124440 28276-105328-25793-60335
3369.06-15813-128419-45785-126439-55965-87241
3374.85-82398-72890-2697-155791-62013-109202
3380.63-123465-91216-1965-71478 23273-37091
3386.42-29242-73419 10699-106606 19952-83812
3392.20-31375-182673-54498-97380-11124 23940
3397.99 19242-100995-20658-33491-33358-92972
3403.77-24315-63522 38735-121506-17535-109024
3409.56-21236-113424 6720 38830-78508-109726
3415.34-56841-4755-68203-81369-35802-113621
3421.13-23244-62103 43766-90388 1861-87842
3426.92-82234-76961-112568-119522 10863-41981
3432.70-72550-51103 40934-50168-60930-118137
3438.49-125684-87346-83369-97710-100393-126634
3444.27 21483-150151-56167-157674-25122-162370
3450.06-19330-85316-17138-93137-88215-53970
3455.84-95393-88397 14098-193298-38056-145381
3461.63 19027-23520-83081-111356 56186-126614
3467.41-79444-102759-29453-184531-128620-71594
3473.20-15792-152500-24527-76461-46362-109686
3478.98-84026-140699-40519-143035-40926-105500
3484.77-147918-105060-46507-156113-77774-191107
3490.56-45043-104605-134544-154219-66182-166182
3496.34-37171-144646-108730-174047-85541-135503
3502.13-91420-181954-134016-148993-60891-169024
3507.91-96503-218258-58482-159577-127006-121894
3513.70-124820-83371-69775-114925-97479-227887
3519.48-60926-144156-109565-140162-94855-142532
3525.27-112238-147808-125256-184723-136708-152155
3531.05-101851-154230-18376-87287-104618-172246
3536.84-43767-201819-119689-164980-10560-199731
3542.62-48879-164421-155062-145314-90521-166611
3548.41-25135-165959-112831-231473-80824-146565
3554.20-58624-127311-69601-122603-66147-113401
3559.98-51960-168904-119474-145674-49245-262367
3565.77-133343-229046-156435-95289-167399-177438
3571.55-106919-93291-65679-94490-77813-172387
3577.34-99596-70991-115999-99449-111066-115587
3583.12-85320-23656-189495-283801-122730-414063
3588.91-47085-161868 26895-217733-76159-105617
3594.69-132988-83957 11157-131799 42542-192367
3600.48-31906-53315-89907-103356-1574-189859
3606.26-193306-180250-410184-204989 9704-335912
3612.05-228464-137866-164500-86820-122470-239349
3617.84-161888-511896-32311-196198 19338-201838
3623.62 2660-168225-34847-314960-509190-751136
3629.41-231487-143361-34531-220847-166453-91176
3635.19-48083-107200-118326-145349-76081-187037
3640.98-82047-169668 36954-181158-3748-449015
3646.76-276719-554298-692784-314427-449794-78798
3652.55-151449-49170-216921-574857-71513-118982
3658.33-134247-123231-124553-106013-71372-193932
3664.12-86453-198376-37210-259719-356706-311827
3669.90-958599-93286-215224-154246-461115-934750
3675.69-489742-81381-173996-173490-104007-36697
3681.48-150926-68242-132604-34596-124621 26560
3687.26-981872-395999 58791-387949-15924-9766
3693.05-46444-20846 17092 12494-20740 30841
3698.83-156 106903-71893 235461 435530 276486
3704.62 262643-56672-19976-164524-295697-43059
3710.40-216141-730454 105380-43033 23431 23914
3716.19 57529-48058-63834-105373-75326-263947
3721.97-124116-102241-147410-184967-316542-139193
3727.76-104919-111307-86871-399650-572118 46297
3733.54-511667-236534-633870-375602-172428-155801
3739.33-185117-238973-281328-24651-1321525-1267524
3745.12 76961-422972 66078-946096-826657 108022
3750.90-1172055-667767-51106-204673-112225-339585
3756.69-87577-184845-311082-294867-86078-147628
3762.47-151499-114980-255033-266001-60604-152623
3768.26-215200-479492-75525-244615-92171-234646
3774.04-27895-210272-89559-149020-189020-398012
3779.83-75232-160924-49443-226370-129881-203570
3785.61-48296-125400-51803-212786-1468-194710
3791.40-67366-155279-84843-178238-221777-336187
3797.18-6647-179753 80106-886609-526460-22676
3802.97-90316-6737-37113-678878-264882 31612
3808.76-75071-1071-76025-12183-147812 27211
3814.54-678147-959252 97098-269325-79586-504624
3820.33-551792-481449-38185-262363-29561-301841
3826.11-183860-182363-79176-183430-233363-505595
3831.90-90776-220611-310211-326923-19903-1262495
3837.68-359599-187620-349077-290424-72009-354759
3843.47-183660-129311-81300-220990-40288-211353
3849.25-181957-324442-1005597-238468-1756030-535849
3855.04-34703-322750-148675-160247-162711-196423
3860.82-275123-222665-125815-478483-349698-93802
3866.61-213768-149235-636037-725885-50782-237339
3872.40-162821-444654-119543-197536-73671-151896
3878.18-135708-502397-291096-146874-137884-104846
3883.97-350266-704382-137695-197801-79180-161326
3889.75-278972-483909 3380-271716-69191-172294
3895.54-82161-270782-88135-545509-20991-442491
3901.32-340510-194266-461325-197148-294139-159315
3907.11-158821-197157-122043-221495-143789-217389
3912.89-62310-261283-96315-326897-261943-128436
3918.68-233316-268649-46546-121317-108743-214389
3924.46-145308-158297-125231-202799-216784-279323
3930.25-115781-298501-135295-169374-101265-157017
3936.04-126822-145429-81105-119337-73839-206708
3941.82-172046-178255-83188-109840-81862-172004
3947.61-97364-240525-219157-99319-96428-154688
3953.39-92157-94997-112760-166349-130605-142135
3959.18-175197-188162-183169-186686-100812-154503
3964.96-48001-170572-123410-150159-119285-86030
3970.75-65468-145608-119872-200033
##END=
