##TITLE=2-Propanol
##JCAMP-DX=4.24
##DATA TYPE=INFRARED SPECTRUM
##CLASS=IUPAC A
##ORIGIN=NIST, Anayltical Chemistry Division, 301-975-3108
##OWNER=COPYRIGHT (C) 1998 by the U.S. Secretary of Commerce
##DATE=98/10/1
##$SPECTRA VERSION=1.00
##$UNCERTAINTY IN Y=2.0 % relative (B=1.0E-04,C=6.5E-10,D=2.7E-14)
##CAS NAME=2-Propanol
##CAS REGISTRY NO=67-63-0
##MOLFORM=C H3 C H( O H) C H3
##MP=-89.5 C
##BP=82.4 C
##$NIST SOURCE=QUANT-IR
##SPECTROMETER/DATA SYSTEM=IFS66V (Bruker)
##INSTRUMENT PARAMETERS=KBr Beam splitter; MCT Detector; Multipass cell
##STATE=gas
##SAMPLE DESCRIPTION=2-Propanol Primary Gas Standard
##PRESSURE=101.3 kPa
##TEMPERATURE=23 C
##SAMPLING PROCEDURE=1 L/min Flow
##RESOLUTION=1.9290
##DATA PROCESSING=3-Term B-H Apodization
##XUNITS=cm-1
##YUNITS=(micromol/mol)-1m-1 (base 10)
##XFACTOR=1.0
##YFACTOR=4.5474E-13
##DELTAX=0.9645
##FIRSTX=574.687
##LASTX=3974.595
##FIRSTY=2.65E-06
##MAXX=3973.63
##MINX=574.69
##MAXY=.0005684
##MINY=2.24E-07
##NPOINTS=3527
##XYDATA=(X++(Y..Y))
574.69 5841054 5899178 6105198 6339724 6550912 6469012
579.51 6297304 6387742 6516144 6467668 6457562 6564424
585.29 6666082 6796122 6974726 7073570 7094352 7056218
591.08 7098250 7383100 7726560 7797566 7669684 7646402
596.86 7765660 7875330 7854022 7805332 7847704 7861492
602.65 7869416 8064882 8263234 8245808 8180974 8264910
608.44 8452798 8525294 8483334 8405896 8355706 8345788
614.22 8399316 8560384 8714302 8808124 8851076 8896676
620.01 9034984 9050942 8875920 8858420 9082102 9310274
625.79 9383690 9254702 9100014 8978790 8863546 8859804
631.58 8967736 9044480 9032214 9031970 9035858 9020870
637.36 9094980 9177968 9152286 9100864 9118838 9133056
643.15 9093328 9018660 8984146 8974978 8874248 8695684
648.93 8576394 8517304 8477226 8411280 8312072 8204606
654.72 8081800 7998194 7990948 7935250 7806420 7713136
660.50 7674526 7575754 7471662 7456700 7481290 7300756
666.29 6882748 6729150 6939044 7101568 7162400 7158246
672.08 7085976 7030348 7013726 6983910 6929326 6796760
677.86 6639200 6597950 6628716 6620234 6522090 6404778
683.65 6376640 6341346 6314342 6282430 6218714 6234100
689.43 6260608 6175140 6021016 5859544 5747156 5723520
695.22 5790748 5833154 5817826 5873418 6001686 6049960
701.00 6028012 6038096 6032844 5955324 5886598 5849558
706.79 5771780 5650900 5561410 5544348 5537876 5436576
712.57 5285684 5149914 5024784 4951706 4960412 4946628
718.36 4898214 4895972 4905244 4849864 4772960 4692040
724.14 4610484 4535640 4457880 4354938 4267880 4208830
729.93 4135598 4025584 3891354 3735718 3612608 3548734
735.71 3506802 3441276 3373462 3283422 3159666 3042780
741.50 2991618 2998344 2988368 2922550 2855948 2776184
747.29 2676846 2602332 2547876 2480532 2453740 2483650
753.07 2506308 2472978 2409182 2352702 2336398 2351088
758.86 2355004 2304220 2246050 2241344 2263142 2268886
764.64 2314392 2385618 2413298 2377652 2372496 2446582
770.43 2510614 2529708 2596164 2731412 2904234 3105382
776.21 3320752 3520648 3786346 4152854 4537056 4937336
782.00 5494652 6252602 7162292 8135984 9199868 10455990
787.78 11919210 13571290 15436710 17548930 19922390 22474470
793.57 25162180 27939940 30765580 33676440 36666900 39539380
799.35 42225510 44722870 46883480 48647540 50092920 51233380
805.14 52117130 52815260 53525380 54472690 55666300 56938250
810.93 58192540 59357030 60926800 63192060 64317640 63104320
816.71 60953860 60039600 61060480 60964720 58413100 56019120
822.50 55060900 55099220 55711940 56522100 57097520 57126180
828.28 56482000 55153880 53157250 50521160 47301160 43604860
834.07 39690200 35755680 31956530 28331060 24957530 21960310
839.85 19311860 16987760 14978470 13239100 11792810 10558740
845.64 9479450 8567984 7824170 7203392 6667888 6189562
851.42 5798944 5493576 5236568 4966164 4686622 4442556
857.21 4248916 4096494 3968352 3824182 3693854 3592650
862.99 3530304 3499124 3464440 3412308 3387164 3391466
868.78 3400372 3384458 3368822 3349930 3334642 3308910
874.57 3290206 3276456 3273386 3280554 3292888 3328412
880.35 3401922 3473024 3536556 3605136 3676150 3744856
886.14 3847624 3973686 4127032 4298194 4472276 4656430
891.92 4865166 5068306 5293308 5550454 5844662 6164020
897.71 6507540 6853054 7231740 7676370 8194448 8753148
903.49 9378586 10049460 10773580 11573460 12479240 13499640
909.28 14631850 15850360 17213800 18787990 20611520 22659980
915.06 24957740 27602820 30743490 34355790 38157250 42088880
920.85 46650340 52067980 58273230 65292860 73218590 82093720
926.63 92054720 103183900 115353400 128446100 142617600 157822000
932.42 173870900 190508500 207557700 224607100 240917000 255869900
938.21 269189500 280690100 290295600 297900500 303629300 307662000
943.99 310563200 313436100 317460900 323725800 332872700 344249800
949.78 356153400 366762600 373864900 374951600 370031300 367183400
955.56 375052700 374922600 353556900 330762800 317639700 312068100
961.35 312853100 317519100 322756500 326017500 325637800 320714300
967.13 311085000 297229400 279603700 258839700 235907500 211970500
972.92 187967000 164786000 143196300 123539000 105911300 90428360
978.70 77081860 65733200 56150850 48157270 41577760 36189240
984.49 31752600 28103550 25142980 22803670 20941080 19400530
990.27 18061000 16919710 15956670 15133100 14456610 13917650
996.06 13456720 13050390 12700020 12416020 12187270 12035900
1001.85 11930630 11816310 11696880 11609990 11566320 11545960
1007.63 11500740 11431540 11376760 11342640 11294670 11228130
1013.42 11170800 11172180 11271910 11466520 11746950 12134720
1019.20 12561840 12935970 13300780 13740070 14238260 14773280
1024.99 15380380 16050060 16768330 17595170 18556250 19638440
1030.77 20810020 22094340 23544210 25233320 27191990 29369500
1036.56 31800660 34548820 37618960 41000270 44727060 48946810
1042.34 53841140 59487100 65769560 72428630 79347980 86626880
1048.13 94402610 102631300 111187600 120046500 129072000 138074700
1053.91 147220300 156790000 166538600 175950700 184950000 193518700
1059.70 200921800 206656000 211769000 217612200 224455600 232825900
1065.48 243639600 255623000 266813000 275818400 282995000 290400200
1071.27 296288000 295991200 289246100 282400800 278960600 278612200
1077.06 279463600 278605700 276406400 274809000 273297200 269973600
1082.84 265627000 262772200 261118300 259055500 256712300 253969000
1088.63 249307700 241889000 232616700 222761800 212760800 202795500
1094.41 193172000 183954700 175178200 167023700 159697700 153361900
1100.20 148008400 143571200 140038100 137419200 135774900 135113900
1105.98 135345400 136386000 138144300 140493400 143412500 146900400
1111.77 150927400 155519900 160534100 165554600 170536700 175888400
1117.55 181726600 187767100 193717100 199515300 205367100 211472200
1123.34 217859400 224531900 231045100 237423400 244559000 250836000
1129.12 255809200 261435200 264993500 266691700 272116400 281217500
1134.91 291463800 301643400 308531800 312268900 316473600 321522000
1140.70 327186700 334252700 342324400 350412300 358686700 367676900
1146.48 376879000 384963400 390933000 394797200 396693100 396717300
1152.27 395470500 393528000 391053000 387625200 382788000 376731400
1158.05 370098400 363657300 357742900 352783100 349278400 343946000
1163.84 333718200 322114500 313500000 307036300 298943900 287858700
1169.62 276211900 265943500 256369300 246558000 237149100 228533400
1175.41 220109100 211506300 202642700 193305500 183287100 172730400
1181.19 162117100 151671400 141261600 130944200 120933000 111402000
1186.98 102532200 94430980 87113860 80593770 74838780 69782740
1192.76 65362790 61467710 58005480 54914300 52206660 49851560
1198.55 47845590 46221950 44928750 43857920 42964980 42274650
1204.34 41891190 41770480 41754470 41943000 42471000 43278650
1210.12 44350340 45607230 46985060 48775730 51139150 53666850
1215.91 56246430 59180800 62654200 66669220 71144130 76011690
1221.69 81333980 87142150 93501980 100443900 107884200 115788000
1227.48 124195600 132921200 141662700 150249300 158738700 167173600
1233.26 175531500 183699500 191399200 198192600 203613700 207466200
1239.05 210295300 212878600 214866300 215253200 215305600 217088400
1244.83 221238000 228226000 237623500 247682600 257915400 267198100
1250.62 269908500 263444900 255860200 249513400 240363800 231306200
1256.40 224711800 220074500 217039200 215140600 213871600 212880800
1262.19 210854800 206394200 199822500 192372000 184341300 175435000
1267.98 165725000 155729700 145808400 135832100 125614700 116010400
1273.76 107650600 99891690 92341280 85352760 79176820 73773740
1279.55 69020820 64825770 61082270 57719820 54632900 51781160
1285.33 49187190 46860980 44746550 42780920 40978390 39391680
1291.12 38047410 36941050 36021100 35296690 34768550 34386340
1296.90 34068240 33761440 33478810 33278720 33182330 33171800
1302.69 33207180 33310220 33512850 33812780 34171130 34587480
1308.47 35119170 35802550 36585560 37431530 38384440 39536980
1314.26 40923000 42451840 43969000 45459250 47010600 48768780
1320.04 50796490 52904320 54976250 57181770 59662960 62395010
1325.83 65320790 68398290 71539340 74653940 77640620 80414160
1331.61 83025020 85574980 87916220 90089210 92373600 94803020
1337.40 97319450 99720020 102218500 105252800 108434500 110773300
1343.19 111483500 112021200 115216300 119719900 122084700 123288000
1348.97 125498300 128796900 132925200 137885400 143603100 149502500
1354.76 154977300 159913200 164374800 168768100 173474000 178408700
1360.54 183557100 189327500 196014400 203575900 211977300 221490800
1366.33 232411200 244763800 258639300 274710000 293124300 311359100
1372.11 324745700 334620100 346570000 360805300 375195200 389714400
1377.90 405419300 420996400 433595000 440586100 437732600 428095100
1383.68 420628500 417023800 414308300 410072900 403780500 398166600
1389.47 397551600 401284200 403510700 399972900 389496200 373590600
1395.25 355615600 337434400 318919400 299688100 279625300 259160800
1401.04 239025700 219797600 202167300 186580600 172845100 160765400
1406.83 149987400 139798200 129938500 120611100 111978300 104063400
1412.61 96757580 89931370 83682680 78203190 73451460 69167450
1418.40 65219360 61635100 58510390 55906070 53812980 52175840
1424.18 50853180 49651530 48570700 47785220 47365060 47234420
1429.97 47341950 47712670 48374530 49206620 50091580 51132680
1435.75 52342580 53593380 54943960 56424720 57961340 59488160
1441.54 60944620 62333550 63751120 65247920 66823480 68498530
1447.32 70362720 72448650 74480070 76177070 78392020 82332190
1453.11 87725270 92880260 96950350 101592500 106829400 111895500
1458.89 118839400 128064600 138057000 143904600 136329300 114890200
1464.68 92829620 80139560 76259460 79472910 90015690 107083400
1470.47 128147300 147490400 151156300 131571500 105728000 88384140
1476.25 78442510 72793540 69579380 67647540 66410780 65495990
1482.04 64705900 63899200 62964590 61856560 60543210 59000230
1487.82 57227840 55253210 53027840 50544580 47912160 45108920
1493.61 42168150 39351410 36702010 34124310 31672480 29328160
1499.39 27065740 24805860 22543670 20506400 18793480 17348470
1505.18 16055000 14810050 13618650 12556870 11637840 10826600
1510.96 10104440 9422724 8816876 8310840 7879488 7509034
1516.75 7131422 6751446 6470578 6272012 6026396 5708896
1522.53 5430316 5235560 5078008 4915300 4771134 4639200
1528.32 4529796 4449344 4337320 4195008 4095078 3992188
1534.11 3850202 3732766 3677750 3708566 3780166 3751228
1539.89 3647322 3572080 3501154 3416750 3360706 3295564
1545.68 3208388 3130580 3072362 3019834 2954318 2887884
1551.46 2862140 2875824 2878782 2827930 2788962 2830730
1557.25 2904836 2913708 2835512 2679312 2553710 2500816
1563.03 2480904 2466868 2432330 2400032 2402750 2437306
1568.82 2451476 2403208 2355382 2331870 2307532 2323030
1574.60 2428922 2466830 2363648 2282382 2265206 2263306
1580.39 2254990 2240134 2229318 2210936 2186742 2165206
1586.17 2153318 2152468 2162804 2176088 2188048 2187152
1591.96 2181492 2174818 2173184 2167452 2147058 2123670
1597.74 2108684 2088860 2067232 2048200 2036270 2026978
1603.53 2021760 2021868 2016952 1997166 1990874 2006282
1609.32 2016954 2005892 1996308 1994396 1998980 2040792
1615.10 2140184 2171772 2101992 2065816 2066622 2060298
1620.89 2064188 2088818 2112130 2106152 2112158 2146668
1626.67 2182990 2194378 2209474 2257788 2324562 2376860
1632.46 2443140 2550356 2613298 2560422 2498722 2488666
1638.24 2514294 2574630 2641202 2686910 2738604 2829884
1644.03 2977854 3103680 3140350 3150882 3170650 3195758
1649.81 3260998 3432930 3621918 3631386 3534928 3466374
1655.60 3441854 3440942 3451054 3470460 3508828 3574946
1661.38 3652892 3698390 3730524 3767320 3778560 3778808
1667.17 3813848 3838158 3802174 3780448 3785744 3757274
1672.96 3756986 3808486 3804896 3723312 3666118 3662112
1678.74 3652442 3590442 3555074 3597892 3697952 3769110
1684.53 3700116 3582980 3539182 3527398 3513142 3474612
1690.31 3428180 3407618 3412132 3453510 3576250 3628264
1696.10 3537686 3475216 3539162 3647202 3618152 3487746
1701.88 3428462 3440880 3464082 3470134 3466804 3468760
1707.67 3504048 3563224 3621792 3654242 3670304 3697070
1713.45 3734462 3742992 3777068 3861834 3916256 3945386
1719.24 3979440 3997326 3990630 3968352 3975610 4010896
1725.02 4053882 4087132 4108254 4150376 4267328 4456812
1730.81 4658532 4812990 4903502 4894006 4811256 4758600
1736.60 4802820 4921310 5069012 5196780 5340818 5547008
1742.38 5787200 6017784 6237130 6463106 6707696 6949104
1748.17 7186056 7447142 7709842 7886936 8019948 8167266
1753.95 8306860 8403946 8450944 8472084 8494732 8509088
1759.74 8541994 8588530 8602382 8608432 8657122 8724252
1765.52 8784280 8817328 8795756 8744358 8711744 8695390
1771.31 8625428 8290440 7840790 7555682 7423666 7378992
1777.09 7398834 7460002 7491042 7401306 7194578 6910936
1782.88 6565450 6138646 5633364 5101030 4584830 4077308
1788.66 3605608 3196908 2849298 2541304 2246990 1994696
1794.45 1812414 1668470 1546610 1449366 1369236 1285020
1800.24 1223552 1180038 1141138 1122036 1134646 1151044
1806.02 1158500 1159476 1169988 1194320 1223184 1252206
1811.81 1281414 1287904 1286616 1304672 1331432 1338160
1817.59 1337974 1337694 1339880 1348684 1374556 1407512
1823.38 1448574 1474480 1466722 1454734 1471604 1514186
1829.16 1549828 1560228 1574744 1580810 1576836 1571522
1834.95 1553368 1522780 1495216 1468744 1457826 1449402
1840.73 1435498 1435018 1464652 1459714 1412096 1378092
1846.52 1365978 1353456 1335354 1327926 1343614 1365514
1852.30 1403804 1465944 1571332 1740114 1919544 1968856
1858.09 1900684 1854320 1873512 1923958 1982276 2017898
1863.88 2028418 2038046 2075792 2143356 2241012 2332160
1869.66 2409406 2512560 2655732 2807282 2936300 3024186
1875.45 3094328 3172072 3274358 3389536 3515372 3653570
1881.23 3782550 3887428 3987796 4100280 4233564 4375424
1887.02 4527884 4671540 4780908 4856788 4923242 4972366
1892.80 5010116 5045206 5078412 5098856 5114886 5144420
1898.59 5186058 5221130 5253018 5269544 5277596 5294000
1904.37 5262414 5154066 5105140 5024042 4761134 4470658
1910.16 4274620 4153538 4075922 3985024 3883536 3800108
1915.94 3722998 3615202 3458706 3268214 3063618 2851944
1921.73 2628280 2387310 2155548 1927154 1700652 1493270
1927.51 1322422 1168342 1022706 904976 825144 745560
1933.30 667062 614430 586110 570380 573126 575588
1939.09 566256 556236 551348 523022 494080 493986
1944.87 512134 524098 535474 545346 558674 579106
1950.66 610022 642008 685750 733146 768154 783606
1956.44 791994 794264 798060 814626 846394 875644
1962.23 903214 921288 934868 949168 959306 957448
1968.01 966356 989280 1010324 1021916 1053366 1099358
1973.80 1127098 1132082 1150972 1176044 1205602 1229346
1979.58 1229148 1223302 1243022 1266904 1275640 1258244
1985.37 1218570 1169216 1131404 1106450 1096634 1099116
1991.15 1109996 1111314 1107580 1114544 1133356 1142840
1996.94 1148322 1147694 1152314 1164608 1184814 1204608
2002.73 1214358 1222324 1247178 1288402 1343104 1372942
2008.51 1386862 1414276 1441360 1438684 1442710 1463782
2014.30 1491250 1516666 1526188 1526900 1549352 1581086
2020.08 1620570 1657760 1681326 1701776 1731028 1758708
2025.87 1784760 1785242 1772104 1775882 1792968 1780298
2031.65 1749022 1725428 1723726 1726622 1726140 1729360
2037.44 1734078 1725190 1717008 1710988 1703340 1681886
2043.22 1660004 1639360 1614428 1588258 1578650 1577576
2049.01 1595364 1618626 1629926 1642840 1678332 1726122
2054.79 1779874 1827078 1867758 1906614 1953108 1982860
2060.58 2021238 2093522 2179440 2237512 2268804 2307688
2066.37 2383352 2476220 2541518 2572294 2621328 2696802
2072.15 2762432 2760774 2750978 2802516 2895830 2942662
2077.94 2928614 2928800 2977344 3026872 3008848 2943466
2083.72 2937546 3014738 3041518 2943512 2854978 2853464
2089.51 2888456 2832564 2740738 2721438 2767786 2729018
2095.29 2589384 2523790 2583696 2595122 2456218 2330870
2101.08 2355440 2405882 2282902 2092718 2042766 2099912
2106.86 2057862 1892766 1823284 1897932 1938112 1805704
2112.65 1701870 1766656 1833882 1699392 1560814 1620038
2118.43 1756012 1719090 1586402 1585496 1702700 1701180
2124.22 1582168 1571618 1699866 1748970 1671348 1661400
2130.01 1769264 1837940 1831790 1886690 2038966 2180360
2135.79 2256380 2306620 2308324 2216344 2112400 2052766
2141.58 2021912 2025472 2073750 2149110 2248768 2329244
2147.36 2375750 2444588 2559852 2619434 2613404 2673746
2153.15 2795004 2794954 2713692 2771044 2935580 2957170
2158.93 2895906 3018134 3223880 3231082 3184134 3316586
2164.72 3416970 3296396 3244842 3379192 3380376 3190592
2170.50 3167174 3298872 3249988 3115756 3201944 3325816
2176.29 3245046 3186136 3318766 3394674 3357718 3446956
2182.07 3598266 3560074 3491206 3588822 3666676 3628110
2187.86 3688866 3832546 3849734 3824754 3914388 3953034
2193.64 3874884 3864940 3903258 3821134 3703720 3637076
2199.43 3537316 3423734 3405228 3387376 3284784 3183966
2205.22 3117714 3026022 2942856 2889068 2816612 2717352
2211.00 2626408 2509726 2360900 2219048 2088308 1949054
2216.79 1814330 1680720 1559176 1458770 1367628 1275616
2222.57 1208802 1158738 1106470 1053522 1012848 970750
2228.36 944034 929686 909354 881972 881366 891786
2234.14 892952 893936 914386 927878 902138 870546
2239.93 876016 888404 894626 895960 903950 923220
2245.71 954680 976662 996226 1012714 1029908 1053882
2251.50 1084646 1098846 1110874 1138316 1161946 1165322
2257.28 1188858 1235450 1273892 1304316 1368168 1465760
2263.07 1554158 1590804 1593724 1597098 1635360 1684584
2268.86 1727848 1784522 1856394 1912688 1961782 2006090
2274.64 2073920 2184756 2310546 2417688 2535394 2654718
2280.43 2738144 2788036 2841626 2919612 3029354 3133062
2286.21 3219932 3302150 3390278 3484180 3588636 3692168
2292.00 3809002 3946232 4095958 4227624 4345040 4457050
2297.78 4586292 4708880 4808324 4900930 4989280 5069940
2303.57 5165768 5268012 5371988 5469050 5549726 5633734
2309.35 5733460 5815260 5849482 5810324 5758656 5726528
2315.14 5704658 5670568 5655576 5637446 5630002 5629204
2320.92 5613874 5538680 5454758 5382702 5310712 5223696
2326.71 5129228 5014692 4911036 4824970 4773224 4735592
2332.50 4653458 4475584 4247408 4040688 3896820 3772548
2338.28 3626080 3432538 3222604 3030826 2871262 2744640
2344.07 2648868 2561772 2494760 2428802 2334144 2199114
2349.85 2045720 1884040 1729504 1595494 1480536 1368366
2355.64 1276056 1184348 1108374 1057516 1021286 994792
2361.42 993176 1006850 1041226 1088996 1137808 1198498
2367.21 1287840 1369092 1440844 1524226 1642638 1780574
2372.99 1924428 2061764 2173592 2207024 2206502 2229604
2378.78 2279154 2325182 2348030 2348994 2357378 2375904
2384.56 2403370 2432438 2472868 2529278 2609816 2678220
2390.35 2703772 2715536 2732968 2721234 2698590 2663060
2396.14 2619104 2589600 2590464 2588244 2561220 2513854
2401.92 2496392 2501594 2498650 2484608 2479884 2480508
2407.71 2490072 2512892 2572750 2630658 2656730 2664092
2413.49 2681362 2736366 2804396 2815926 2778470 2735192
2419.28 2714316 2692076 2691064 2715876 2753444 2782524
2425.06 2807988 2831606 2853556 2859946 2854806 2863070
2430.85 2917290 2973486 3015678 3063996 3123396 3158100
2436.63 3160222 3133274 3093112 3053152 3045920 3060278
2442.42 3067746 3041894 3022516 3033492 3068408 3099900
2448.20 3117200 3114650 3093844 3060066 3046838 3037830
2453.99 3027120 3024438 3027078 3009236 2972104 2921736
2459.77 2878598 2828626 2765950 2707708 2698896 2730796
2465.56 2779848 2818702 2841998 2866396 2921330 2982490
2471.35 3044298 3089434 3126540 3178756 3235364 3281458
2477.13 3348264 3422364 3485148 3531366 3583268 3648132
2482.92 3718890 3772262 3824330 3872092 3921298 3975292
2488.70 4028708 4081208 4157186 4229638 4282996 4324868
2494.49 4369472 4416372 4460652 4474948 4489542 4526984
2500.27 4583258 4614114 4604248 4585462 4589560 4590382
2506.06 4588576 4579012 4588930 4618638 4632888 4614100
2511.84 4572886 4505094 4421990 4341602 4283878 4226674
2517.63 4171472 4106280 4038102 3982862 3953304 3924644
2523.41 3886964 3834118 3795780 3761502 3715958 3658510
2529.20 3605688 3584438 3602416 3606104 3632882 3703280
2534.99 3709380 3600308 3510272 3474146 3421830 3337368
2540.77 3261010 3198516 3173958 3167576 3143750 3108800
2546.56 3093424 3085242 3082836 3047516 2989012 2958914
2552.34 2948630 2922260 2904158 2890280 2890882 2899586
2558.13 2910376 2911632 2923496 2957196 2992508 3011178
2563.91 3032116 3050834 3098168 3165326 3220242 3257678
2569.70 3311876 3380924 3442622 3487168 3558504 3654882
2575.48 3757666 3857422 3961582 4064758 4188170 4309744
2581.27 4418354 4513104 4608456 4707604 4819322 4924692
2587.05 5040972 5175462 5309642 5420204 5529108 5653586
2592.84 5784150 5899846 6049788 6237918 6417914 6584790
2598.63 6774758 6978450 7220404 7483608 7776030 8162580
2604.41 8731182 9319166 9487802 9174590 8832370 8695780
2610.20 8730496 8854250 8999176 9153110 9345612 9544776
2615.98 9738286 9923736 10123890 10358810 10646870 10958470
2621.77 11283060 11608540 11982350 12445260 13020320 13691830
2627.55 14354750 14724670 14657330 14364880 14096210 13978450
2633.34 14180830 14730900 15595770 16697520 17768230 18468890
2639.12 18720110 18650210 18473490 18347810 18333280 18396580
2644.91 18498930 18571190 18605140 18648870 18705070 18715370
2650.69 18709510 18739810 18839700 18960670 19075220 19221810
2656.48 19469740 19797610 20036570 20026150 19968820 20136430
2662.27 20539930 21006030 21394910 21498750 21152260 20466170
2668.05 19725650 19069570 18476570 17837310 17118470 16412060
2673.84 15867600 15477710 15196130 15026530 14957040 14894660
2679.62 14768260 14553310 14293790 14014640 13735010 13438850
2685.41 13136970 12831850 12547980 12286850 12034450 11778500
2691.19 11555020 11353430 11127560 10886080 10688640 10532750
2696.98 10439760 10387050 10357690 10351240 10370730 10383390
2702.76 10374280 10346660 10356340 10425290 10555610 10729820
2708.55 10953140 11216430 11531270 11843590 12092690 12276130
2714.33 12434620 12571500 12722150 12889160 13072010 13249940
2720.12 13420130 13550520 13610180 13618040 13690360 13855610
2725.91 14083400 14348370 14642320 14913800 15144740 15322970
2731.69 15496210 15683990 15847990 15936190 15958430 15897000
2737.48 15809960 15747710 15715740 15708700 15743410 15750950
2743.26 15705260 15633910 15577170 15524730 15458920 15382360
2749.05 15366870 15398250 15454700 15543240 15696850 15854320
2754.83 15980020 16139340 16385030 16650900 16905120 17133920
2760.62 17357360 17594920 17871790 18143480 18408160 18692460
2766.40 19051250 19423730 19660190 19715690 19700120 19652780
2772.19 19619710 19629230 19695640 19837570 20094870 20360790
2777.97 20570920 20759370 21008470 21314440 21653320 22004890
2783.76 22396350 22792930 23131490 23366760 23565920 23779670
2789.54 24032460 24297920 24621260 25057140 25584110 26031340
2795.33 26284190 26391750 26504750 26650800 26846530 27065720
2801.12 27316920 27572610 27740350 27831680 28006720 28318840
2806.90 28771530 29296020 29889480 30567540 31243480 31858940
2812.69 32571310 33423660 34111090 34310070 34394470 34889140
2818.47 35906710 37079060 37945880 38437690 38824670 39152610
2824.26 39385770 39739520 40465150 41539020 42720970 43574080
2830.04 43948800 44099970 44343800 44735360 45219160 45769790
2835.83 46395300 46958450 47525460 48310110 49346560 50532470
2841.61 52001450 53904680 56312730 59277380 62768520 66608060
2847.40 70782950 75198950 79415280 83034990 86332580 89586830
2853.18 92698140 95853700 99757150 104730800 110619500 117166200
2858.97 124195700 131504100 139015500 146620800 154143300 161385500
2864.76 168381800 175270900 182139800 188878600 195334200 201340400
2870.54 206731800 211293300 215489400 220158400 225878700 232874600
2876.33 241523000 253316500 269891600 290091100 312790500 336678500
2882.11 352327600 352157700 344236500 340690200 345234100 353104700
2887.90 356856100 354384000 348261000 339893000 330287600 320912400
2893.68 312669900 305977800 301201000 297968000 295568600 293729200
2899.47 292314400 290807600 288906000 286525600 283734400 280623000
2905.25 277152900 273156900 268726300 264110900 259506700 254890100
2911.04 250610000 247154700 244926600 243367600 241056100 237543400
2916.82 233655700 229823400 226351300 223662500 222145100 222034800
2922.61 223568700 226602300 230696900 235463600 240947200 247260200
2928.40 254284000 261055300 265022200 263319200 258572200 254938500
2934.18 253559100 255864100 261914000 268722000 272948600 273616600
2939.97 274016700 277922200 286268700 298509400 314146500 332742000
2945.75 352427300 368600900 380380600 392830900 408685300 426220200
2951.54 444066900 461877200 479655600 496790600 512992100 528694400
2957.32 544449500 560502500 577845400 596598700 615698000 636002400
2963.11 662069600 693958400 722743000 742930600 764325200 816116800
2968.89 915346300 981898000 949839900 895775500 872862800 868393100
2974.68 884658500 923153900 977560000 1046149000 1121379000 1194873000
2980.46 1250076000 1184397000 986217100 825382200 758403500 728250900
2986.25 703744800 681698900 667165200 657705300 644846700 627088100
2992.04 609575400 594062000 578519800 561772000 542925100 521457500
2997.82 496956400 469568000 439737500 408212000 375565500 342459600
3003.61 309406000 277087700 246081400 216939000 189833400 164972400
3009.39 142425500 122310700 104555900 89086660 75724250 64298010
3015.18 54509620 46237360 39275370 33501880 28669090 24648550
3020.96 21270860 18462990 16131120 14211870 12574670 11216200
3026.75 10060180 9096070 8269342 7577750 6963172 6456778
3032.53 6021130 5658692 5324564 5056280 4816046 4615168
3038.32 4424322 4249984 4094186 3967370 3797094 3655520
3044.10 3531664 3430310 3331308 3246414 3144310 3067346
3049.89 3009114 2969638 2896946 2813474 2759460 2744448
3055.67 2690410 2657910 2636714 2609686 2569770 2559058
3061.46 2547436 2543406 2544532 2553222 2532164 2531022
3067.25 2538018 2546894 2539326 2553364 2546018 2527150
3073.03 2513684 2525788 2537264 2561506 2595958 2630358
3078.82 2619762 2616790 2640418 2690156 2711372 2718208
3084.60 2719488 2749562 2796120 2837358 2850654 2846326
3090.39 2809254 2809100 2847890 2908928 2949870 2964200
3096.17 2971652 3008282 3031340 3040672 3050986 3087830
3101.96 3101714 3094618 3098774 3128980 3150488 3196100
3107.74 3264576 3329826 3334818 3301398 3283978 3323586
3113.53 3366360 3403714 3438088 3476352 3493538 3518516
3119.31 3542170 3576862 3634570 3700742 3733770 3746346
3125.10 3736412 3744720 3790292 3851504 3887590 3896378
3130.89 3868644 3861538 3894570 3951344 3995486 4028380
3136.67 4059364 4101810 4143354 4181264 4216724 4293810
3142.46 4339132 4353290 4401800 4502066 4616036 4711438
3148.24 4791028 4885906 4978092 5092654 5226952 5354704
3154.03 5471568 5609708 5771264 5951900 6099052 6224866
3159.81 6376846 6584928 6811704 7027548 7225502 7405086
3165.60 7593444 7826646 8052080 8292280 8524140 8706910
3171.38 8870016 9098472 9386758 9643880 9833738 10012840
3177.17 10182370 10362660 10542700 10668940 10740100 10841890
3182.95 11001600 11148990 11241230 11379400 11558190 11667480
3188.74 11654380 11553900 11405760 11269190 11170810 11156100
3194.53 11290330 11562440 11816370 11883560 11771790 11654450
3200.31 11532600 11313540 11014960 10776950 10664680 10642120
3206.10 10637250 10625350 10507990 10239340 9982774 9905570
3211.88 10075120 10294740 10136070 9731492 9469716 9358274
3217.67 9279174 9209408 9129648 9058448 9032462 9070360
3223.45 9117980 9018546 8722532 8411022 8167760 7956118
3229.24 7817966 7747842 7655866 7544096 7419884 7296036
3235.02 7140792 6898066 6626612 6419582 6312036 6291442
3240.81 6265532 6077856 5672154 5280458 5021822 4881370
3246.59 4876554 4919622 4713746 4222002 3760970 3445956
3252.38 3205242 3027444 2862724 2695856 2543034 2387604
3258.17 2228598 2107062 1998034 1896392 1815330 1731410
3263.95 1620676 1497124 1359970 1282778 1271414 1222912
3269.74 1113356 1019934 980008 958656 877306 806158
3275.52 796736 766630 726204 725448 714596 703248
3281.31 683716 672838 710502 753054 746356 706044
3287.09 665264 662950 657448 654284 678146 693612
3292.88 710806 754000 769400 761116 747890 744850
3298.66 782204 828720 866092 907388 959396 1021084
3304.45 1057944 1103468 1139532 1162888 1231546 1349718
3310.23 1464186 1560472 1643292 1706936 1783000 1900328
3316.02 1996260 2054624 2104738 2176558 2260338 2322218
3321.80 2364978 2431838 2547558 2667348 2777626 2934404
3327.59 3099138 3239978 3360536 3470722 3577672 3670566
3333.38 3742202 3810298 3846906 3864010 3924794 4002482
3339.16 4026214 4023442 4024072 4021682 3998018 3973934
3344.95 3939910 3905078 3920038 3963804 3989798 3978266
3350.73 3901392 3816186 3773746 3756974 3741676 3707036
3356.52 3656110 3616392 3588924 3561416 3507138 3448812
3362.30 3390396 3308794 3236692 3200694 3173202 3148408
3368.09 3108704 3035034 2964160 2912604 2873948 2877534
3373.87 2884166 2863446 2833240 2800024 2781864 2811058
3379.66 2845862 2882520 2929356 2951296 2925468 2930168
3385.44 3001496 3071638 3102026 3142694 3221232 3293234
3391.23 3333654 3388096 3477008 3571404 3637058 3690232
3397.02 3755428 3810644 3790096 3761234 3824334 3940754
3402.80 4026872 4107012 4187810 4218354 4200576 4180230
3408.59 4211192 4299052 4376422 4418902 4451468 4496856
3414.37 4529274 4560798 4613310 4684790 4804956 5026736
3420.16 5260324 5389818 5497536 5598254 5506472 5308858
3425.94 5167032 5085628 5100576 5205868 5299896 5333524
3431.73 5349578 5404188 5472776 5538234 5556362 5536608
3437.51 5559546 5614704 5658038 5662406 5615034 5581434
3443.30 5619792 5710492 5785808 5876504 6115848 6525698
3449.08 6772468 6547286 6106136 5813444 5649934 5558328
3454.87 5552046 5568368 5581976 5629374 5634700 5592302
3460.66 5558310 5530210 5485494 5409752 5282182 5135718
3466.44 5054222 5046674 4996578 4882008 4785362 4698212
3472.23 4577068 4465990 4377468 4288980 4201298 4098474
3478.01 3964904 3848162 3745940 3629048 3497698 3403234
3483.80 3343590 3265288 3165556 3067906 2944960 2822816
3489.58 2747068 2706332 2652218 2590172 2507254 2389492
3495.37 2315606 2319608 2323884 2287672 2223174 2134054
3501.15 2028448 1963496 1920578 1894088 1874580 1842700
3506.94 1830616 1840118 1806078 1736292 1685686 1667354
3512.72 1655594 1658092 1671036 1700028 1721024 1714476
3518.51 1702914 1726798 1756868 1779628 1803514 1842670
3524.30 1899598 1953908 1986464 2059802 2161110 2224290
3530.08 2276534 2363330 2414692 2404402 2389512 2408372
3535.87 2445800 2470854 2466836 2494276 2571668 2663636
3541.65 2721574 2724202 2670038 2603996 2555084 2517408
3547.44 2462930 2430896 2440094 2432634 2399528 2379070
3553.22 2352866 2338986 2317886 2273472 2236346 2215112
3559.01 2191930 2202640 2230866 2229142 2204858 2216748
3564.79 2243618 2260820 2244496 2218356 2187136 2141562
3570.58 2091532 2068992 2047450 2019674 1994826 2015704
3576.36 2090482 2187912 2260310 2299810 2301278 2310960
3582.15 2343084 2389586 2431690 2485860 2556376 2662126
3587.94 2765254 2849018 2925296 3006684 3096742 3223424
3593.72 3351582 3442890 3483418 3531798 3588196 3685778
3599.51 3859322 4106706 4384692 4712772 5129930 5723614
3605.29 6457632 7157654 7739012 8300230 8815760 9351866
3611.08 9982074 10695090 11447790 12250050 13076320 13974910
3616.86 14921280 15900030 16867260 17825520 18766550 19763260
3622.65 20826810 22009170 23282220 24709530 26561840 28644300
3628.43 29923350 30809780 32517610 35367360 39622340 48035980
3634.22 69355950 92782650 89418590 74017140 71761450 76821170
3640.00 81679660 85204050 88921460 93364180 97918370 102202100
3645.79 105357100 106823500 107461400 107873900 108083300 108355600
3651.57 109334400 111756700 115789600 119690300 120380400 117640100
3657.36 116245600 118156000 119141200 117040500 113969700 110959200
3663.15 107858200 105318200 103669100 102591700 101865800 101019900
3668.93 99622820 97451300 94486940 90885480 86712710 81983700
3674.72 76733860 70995300 65037620 59084830 53289660 47717850
3680.50 42389190 37417480 32935640 28909300 25346300 22250600
3686.29 19587980 17242890 15091300 13217110 11692570 10375290
3692.07 9247846 8341930 7626088 7022678 6520692 6102316
3697.86 5733518 5373028 5059020 4833356 4630004 4396578
3703.64 4190886 4031330 3924494 3846718 3814300 3806974
3709.43 3785052 3784398 3802680 3740478 3620114 3469764
3715.21 3317338 3203312 3108682 2999988 2905524 2857114
3721.00 2860590 2840780 2780814 2734310 2712786 2659206
3726.79 2586612 2541174 2536482 2541854 2566038 2561760
3732.57 2524840 2499874 2489284 2510506 2535008 2529920
3738.36 2525888 2503876 2476832 2454556 2508472 2643454
3744.14 2621932 2430102 2319694 2332172 2396686 2391866
3749.93 2341628 2332002 2278018 2184638 2145534 2163926
3755.71 2179878 2151344 2147130 2160696 2162640 2184742
3761.50 2229500 2247270 2311960 2424724 2481130 2496078
3767.28 2544796 2605456 2660846 2726228 2804746 2880568
3773.07 2983702 3094222 3188230 3268998 3374008 3508406
3778.85 3622836 3725372 3854792 3989748 4131192 4259544
3784.64 4388536 4520634 4628846 4674832 4692682 4718778
3790.43 4732718 4740122 4801588 4893602 4993066 5114338
3796.21 5248494 5336222 5400624 5496062 5563274 5502654
3802.00 5415624 5383782 5384732 5453726 5545752 5543478
3807.78 5527768 5593230 5694866 5751462 5741770 5721644
3813.57 5779354 5912088 5971382 5917502 5925890 6018538
3819.35 6075528 6014718 5858290 5724212 5690682 5715548
3825.14 5776262 5859940 5926670 5952720 5922348 5851370
3830.92 5763702 5657970 5599860 5609486 5612514 5617908
3836.71 5652100 5594074 5491442 5419380 5359352 5330692
3842.49 5323056 5267584 5175244 5132936 5154794 5150488
3848.28 5118194 5116786 5162930 5194686 5228620 5272862
3854.07 5196212 5095708 5080328 5047776 4966566 4895246
3859.85 4844726 4783254 4763920 4826798 4935170 5070120
3865.64 5341242 5737190 5894316 5646990 5261652 4966606
3871.42 4825830 4773168 4723834 4693142 4684832 4681904
3877.21 4711518 4762708 4823094 4832286 4815132 4830436
3882.99 4832664 4812516 4797790 4749776 4701134 4689528
3888.78 4700686 4739364 4820970 4934486 5103872 5300280
3894.56 5410958 5342492 5166684 5064826 5033992 4923648
3900.35 4729656 4518188 4387320 4322448 4234910 4148858
3906.13 4105468 4074770 4054892 4063164 4062166 4028574
3911.92 3964896 3853626 3745028 3702716 3710562 3654770
3917.70 3519392 3405046 3339442 3283750 3253016 3222102
3923.49 3180948 3157816 3124554 3066948 3013140 2988788
3929.28 2986142 2976036 2993288 3046662 3062418 2967556
3935.06 2816098 2687620 2586914 2518854 2501788 2503682
3940.85 2513318 2520712 2518146 2527844 2541110 2531364
3946.63 2483254 2376892 2239562 2136722 2077368 2043836
3952.42 2046698 2030494 2010530 2014328 1988546 1946598
3958.20 1936936 1896662 1820106 1770846 1761738 1750876
3963.99 1720594 1695736 1699532 1709310 1710716 1689484
3969.77 1664328 1661272 1659300 1633214 1611214
##END=
