##TITLE=2-PROPANOL
##JCAMP-DX=4.24
##DATA TYPE=INFRARED SPECTRUM
##CLASS=COBLENTZ II
##ORIGIN=DOW CHEMICAL COMPANY
##OWNER=COBLENTZ SOCIETY
Collection (C) 2018 copyright by the U.S. Secretary of Commerce
on behalf of the United States of America. All rights reserved.
##DATE=1965/10/13
##NAMES=ISOPROPANOL
##CAS REGISTRY NO=67-63-0
##MOLFORM=C3 H8 O
##SOURCE REFERENCE=COBLENTZ NO. 10141
##$NIST SOURCE=COBLENTZ
##$NIST IMAGE=cob10141
##SPECTROMETER/DATA SYSTEM=DOW KBr FOREPRISM-GRATING
##INSTRUMENT PARAMETERS=BLAZED AT 3.5, 12.0, 20.0 MICRON, CHANGED AT 5.0, 7.5, 14.9 MICRON
##STATE=SOLUTION (10% IN CCl4 FOR 3800-1333, 10% IN CS2 FOR 1333-400 CM^-^1)
##PATH LENGTH=0.011, 0.010 CM
##SAMPLING PROCEDURE=TRANSMISSION
##RESOLUTION=4
##DATA PROCESSING=DIGITIZED BY NIST FROM HARD COPY (FROM TWO SEGMENTS)
##XUNITS=1/CM
##YUNITS=TRANSMITTANCE
##XFACTOR=1.000000
##YFACTOR=1
##DELTAX=0.870576
##FIRSTX=392.049
##LASTX=3795.13
##FIRSTY=0.742
##MAXX=3795.13
##MINX=392.049
##MAXY=0.997
##MINY=0.008
##NPOINTS=3910
##XYDATA=(X++(Y..Y))
392.049000 0.7420 0.7420 0.7420 0.7420 0.7420
396.401881 0.7440 0.7440 0.7440 0.7440 0.7440
400.754762 0.7450 0.7450 0.7450 0.7460 0.7460
405.107644 0.7460 0.7480 0.7480 0.7480 0.7480
409.460525 0.7480 0.7460 0.7450 0.7450 0.7440
413.813406 0.7440 0.7440 0.7440 0.7420 0.7420
418.166287 0.7420 0.7420 0.7420 0.7440 0.7440
422.519169 0.7450 0.7460 0.7480 0.7490 0.7520
426.872050 0.7570 0.7590 0.7600 0.7660 0.7700
431.224931 0.7740 0.7790 0.7790 0.7830 0.7860
435.577812 0.7900 0.7930 0.7940 0.7970 0.7980
439.930693 0.7980 0.8000 0.8010 0.8030 0.8030
444.283575 0.8040 0.8040 0.8050 0.8070 0.8080
448.636456 0.8080 0.8090 0.8090 0.8090 0.8090
452.989337 0.8090 0.8080 0.8080 0.8080 0.8080
457.342218 0.8070 0.8070 0.8050 0.8050 0.8040
461.695100 0.8030 0.8010 0.8000 0.7980 0.7970
466.047981 0.7940 0.7930 0.7920 0.7890 0.7870
470.400862 0.7850 0.7820 0.7780 0.7770 0.7700
474.753743 0.7670 0.7610 0.7570 0.7480 0.7410
479.106624 0.7350 0.7270 0.7090 0.6970 0.6940
483.459506 0.6820 0.6700 0.6481 0.6410 0.6400
487.812387 0.6400 0.6410 0.6450 0.6480 0.6580
492.165268 0.6640 0.6750 0.6780 0.6860 0.6989
496.518149 0.7110 0.7220 0.7270 0.7340 0.7410
500.871031 0.7450 0.7510 0.7550 0.7550 0.7570
505.223912 0.7590 0.7590 0.7600 0.7600 0.7600
509.576793 0.7600 0.7600 0.7590 0.7590 0.7590
513.929674 0.7590 0.7570 0.7560 0.7560 0.7550
518.282555 0.7550 0.7530 0.7520 0.7510 0.7480
522.635437 0.7480 0.7460 0.7450 0.7440 0.7440
526.988318 0.7420 0.7420 0.7410 0.7400 0.7350
531.341199 0.7340 0.7330 0.7310 0.7300 0.7290
535.694080 0.7290 0.7270 0.7270 0.7260 0.7230
540.046962 0.7230 0.7220 0.7190 0.7190 0.7180
544.399843 0.7180 0.7160 0.7160 0.7150 0.7140
548.752724 0.7120 0.7110 0.7090 0.7080 0.7070
553.105605 0.7040 0.7010 0.7000 0.7000 0.6990
557.458486 0.6970 0.6960 0.6960 0.6940 0.6930
561.811368 0.6920 0.6890 0.6880 0.6860 0.6850
566.164249 0.6830 0.6810 0.6790 0.6790 0.6790
570.517130 0.6780 0.6770 0.6770 0.6750 0.6740
574.870011 0.6710 0.6700 0.6680 0.6670 0.6670
579.222893 0.6640 0.6630 0.6620 0.6620 0.6600
583.575774 0.6590 0.6580 0.6560 0.6560 0.6550
587.928655 0.6530 0.6530 0.6510 0.6480 0.6470
592.281536 0.6470 0.6450 0.6450 0.6440 0.6440
596.634417 0.6420 0.6420 0.6410 0.6410 0.6400
600.987299 0.6370 0.6360 0.6340 0.6340 0.6330
605.340180 0.6320 0.6320 0.6320 0.6300 0.6300
609.693061 0.6290 0.6260 0.6250 0.6250 0.6230
614.045942 0.6230 0.6230 0.6220 0.6210 0.6190
618.398824 0.6190 0.6190 0.6180 0.6180 0.6180
622.751705 0.6160 0.6160 0.6150 0.6150 0.6140
627.104586 0.6120 0.6120 0.6120 0.6110 0.6110
631.457467 0.6100 0.6100 0.6080 0.6080 0.6080
635.810348 0.6080 0.6080 0.6080 0.6080 0.6070
640.163230 0.6070 0.6070 0.6060 0.6060 0.6060
644.516111 0.6060 0.6060 0.6060 0.6060 0.6060
648.868992 0.6070 0.6070 0.6080 0.6080 0.6100
653.221873 0.6100 0.6110 0.6110 0.6120 0.6140
657.574755 0.6150 0.6150 0.6160 0.6160 0.6180
661.927636 0.6180 0.6180 0.6180 0.6180 0.6180
666.280517 0.6180 0.6190 0.6190 0.6190 0.6190
670.633398 0.6190 0.6180 0.6180 0.6180 0.6180
674.986279 0.6160 0.6160 0.6160 0.6160 0.6180
679.339161 0.6180 0.6210 0.6220 0.6230 0.6250
683.692042 0.6250 0.6260 0.6270 0.6290 0.6300
688.044923 0.6300 0.6320 0.6330 0.6340 0.6360
692.397804 0.6380 0.6400 0.6410 0.6420 0.6450
696.750686 0.6450 0.6470 0.6470 0.6490 0.6530
701.103567 0.6560 0.6580 0.6590 0.6600 0.6600
705.456448 0.6620 0.6630 0.6640 0.6670 0.6680
709.809329 0.6710 0.6750 0.6750 0.6770 0.6780
714.162210 0.6790 0.6820 0.6830 0.6860 0.6890
718.515092 0.6930 0.6940 0.6960 0.7000 0.7010
722.867973 0.7030 0.7080 0.7080 0.7090 0.7110
727.220854 0.7140 0.7180 0.7200 0.7260 0.7290
731.573735 0.7330 0.7330 0.7340 0.7370 0.7380
735.926617 0.7420 0.7440 0.7460 0.7480 0.7490
740.279498 0.7520 0.7560 0.7590 0.7590 0.7600
744.632379 0.7630 0.7660 0.7680 0.7710 0.7750
748.985260 0.7780 0.7790 0.7820 0.7850 0.7860
753.338141 0.7890 0.7920 0.7940 0.7960 0.7970
757.691023 0.7980 0.8000 0.8030 0.8040 0.8090
762.043904 0.8120 0.8130 0.8130 0.8150 0.8160
766.396785 0.8160 0.8190 0.8200 0.8220 0.8240
770.749666 0.8260 0.8300 0.8330 0.8330 0.8340
775.102548 0.8340 0.8350 0.8380 0.8390 0.8410
779.455429 0.8440 0.8450 0.8480 0.8490 0.8500
783.808310 0.8520 0.8520 0.8530 0.8540 0.8540
788.161191 0.8560 0.8560 0.8570 0.8570 0.8560
792.514072 0.8560 0.8560 0.8540 0.8540 0.8540
796.866954 0.8540 0.8540 0.8530 0.8530 0.8530
801.219835 0.8520 0.8480 0.8460 0.8440 0.8380
805.572716 0.8330 0.8230 0.8160 0.8070 0.7931
809.925597 0.7480 0.7010 0.6710 0.6470 0.5781
814.278479 0.5511 0.5231 0.4103 0.3512 0.3211
818.631360 0.2879 0.2550 0.2240 0.2240 0.2620
822.984241 0.3329 0.3360 0.4168 0.5835 0.6328
827.337122 0.6701 0.7180 0.7420 0.7750 0.8000
831.690003 0.8200 0.8350 0.8460 0.8540 0.8610
836.042885 0.8680 0.8720 0.8820 0.8870 0.8910
840.395766 0.8960 0.9050 0.9110 0.9130 0.9130
844.748647 0.9160 0.9170 0.9200 0.9220 0.9240
849.101528 0.9240 0.9260 0.9260 0.9270 0.9270
853.454410 0.9270 0.9270 0.9260 0.9240 0.9240
857.807291 0.9240 0.9240 0.9240 0.9240 0.9240
862.160172 0.9240 0.9240 0.9240 0.9240 0.9240
866.513053 0.9260 0.9260 0.9270 0.9270 0.9270
870.865934 0.9270 0.9270 0.9270 0.9270 0.9270
875.218816 0.9280 0.9270 0.9270 0.9270 0.9270
879.571697 0.9270 0.9270 0.9270 0.9270 0.9260
883.924578 0.9260 0.9260 0.9260 0.9240 0.9240
888.277459 0.9240 0.9240 0.9230 0.9200 0.9190
892.630341 0.9170 0.9160 0.9150 0.9150 0.9130
896.983222 0.9130 0.9130 0.9120 0.9090 0.9050
901.336103 0.9010 0.8980 0.8970 0.8960 0.8930
905.688984 0.8930 0.8870 0.8860 0.8850 0.8830
910.041865 0.8760 0.8720 0.8650 0.8590 0.8540
914.394747 0.8490 0.8460 0.8340 0.8260 0.8160
918.747628 0.8120 0.8010 0.7940 0.7850 0.7790
923.100509 0.7720 0.7660 0.7600 0.7450 0.7340
927.453390 0.7230 0.7080 0.6880 0.6591 0.6411
931.806271 0.6180 0.5900 0.5630 0.5490 0.5360
936.159153 0.5080 0.4820 0.4610 0.4431 0.3503
940.512034 0.2920 0.2590 0.2350 0.2100 0.1700
944.864915 0.1351 0.1021 0.0870 0.0720 0.0571
949.217796 0.0380 0.0250 0.0160 0.0150 0.0160
953.570678 0.0170 0.0170 0.0200 0.0300 0.0360
957.923559 0.0651 0.1061 0.1540 0.2170 0.2610
962.276440 0.3549 0.4059 0.4649 0.5069 0.5668
966.629321 0.5961 0.6320 0.6490 0.6770 0.6960
970.982202 0.7160 0.7350 0.7450 0.7600 0.7710
975.335084 0.7810 0.7940 0.7980 0.8080 0.8160
979.687965 0.8240 0.8330 0.8390 0.8490 0.8520
984.040846 0.8540 0.8590 0.8630 0.8650 0.8720
988.393727 0.8720 0.8740 0.8750 0.8780 0.8800
992.746609 0.8800 0.8820 0.8830 0.8830 0.8850
997.099490 0.8850 0.8850 0.8860 0.8860 0.8860
1001.452371 0.8860 0.8860 0.8860 0.8860 0.8870
1005.805252 0.8870 0.8890 0.8890 0.8890 0.8900
1010.158133 0.8910 0.8910 0.8910 0.8910 0.8900
1014.511015 0.8890 0.8890 0.8870 0.8860 0.8860
1018.863896 0.8860 0.8850 0.8850 0.8850 0.8850
1023.216777 0.8850 0.8850 0.8830 0.8800 0.8800
1027.569658 0.8800 0.8790 0.8790 0.8780 0.8750
1031.922540 0.8740 0.8740 0.8720 0.8710 0.8680
1036.275421 0.8670 0.8650 0.8640 0.8610 0.8600
1040.628302 0.8590 0.8540 0.8530 0.8520 0.8420
1044.981183 0.8390 0.8350 0.8330 0.8260 0.8190
1049.334064 0.8160 0.8110 0.8040 0.7970 0.7870
1053.686946 0.7820 0.7770 0.7610 0.7550 0.7420
1058.039827 0.7310 0.7220 0.7000 0.6810 0.6670
1062.392708 0.6520 0.6470 0.6330 0.6180 0.6040
1066.745589 0.5920 0.5840 0.5810 0.5710 0.5630
1071.098471 0.5540 0.5490 0.5440 0.5400 0.5320
1075.451352 0.5260 0.5190 0.5140 0.5070 0.5030
1079.804233 0.5020 0.4920 0.4820 0.4740 0.4740
1084.157114 0.4670 0.4580 0.4470 0.4360 0.4191
1088.509995 0.4070 0.3990 0.3850 0.3670 0.3480
1092.862877 0.3180 0.2960 0.2800 0.2650 0.2530
1097.215758 0.2430 0.2310 0.2140 0.1900 0.1720
1101.568639 0.1610 0.1490 0.1390 0.1380 0.1380
1105.921520 0.1390 0.1390 0.1420 0.1450 0.1510
1110.274402 0.1540 0.1620 0.1690 0.1720 0.1720
1114.627283 0.1750 0.1750 0.1760 0.1750 0.1720
1118.980164 0.1660 0.1620 0.1420 0.1290 0.1200
1123.333045 0.1120 0.0990 0.0930 0.0840 0.0720
1127.685926 0.0560 0.0500 0.0490 0.0500 0.0500
1132.038808 0.0540 0.0610 0.0650 0.0710 0.0990
1136.391689 0.1060 0.1210 0.1380 0.1600 0.1750
1140.744570 0.1760 0.1900 0.1950 0.1990 0.1990
1145.097451 0.1960 0.1940 0.1910 0.1880 0.1830
1149.450333 0.1750 0.1600 0.1450 0.1280 0.1170
1153.803214 0.1130 0.1050 0.0980 0.0910 0.0820
1158.156095 0.0720 0.0670 0.0640 0.0640 0.0680
1162.508976 0.0730 0.0770 0.0830 0.1080 0.1270
1166.861857 0.1491 0.1750 0.2010 0.2400 0.2830
1171.214739 0.3180 0.3669 0.4259 0.4948 0.5508
1175.567620 0.5770 0.5900 0.6110 0.6330 0.6490
1179.920501 0.6660 0.6790 0.6880 0.6930 0.6960
1184.273382 0.7000 0.7080 0.7090 0.7140 0.7160
1188.626264 0.7230 0.7260 0.7310 0.7440 0.7550
1192.979145 0.7560 0.7660 0.7680 0.7720 0.7770
1197.332026 0.7770 0.7780 0.7780 0.7780 0.7790
1201.684907 0.7790 0.7790 0.7790 0.7790 0.7790
1206.037788 0.7790 0.7790 0.7790 0.7790 0.7780
1210.390670 0.7780 0.7770 0.7770 0.7770 0.7770
1214.743551 0.7740 0.7720 0.7710 0.7680 0.7660
1219.096432 0.7640 0.7630 0.7600 0.7590 0.7590
1223.449313 0.7510 0.7480 0.7450 0.7420 0.7410
1227.802195 0.7350 0.7330 0.7290 0.7260 0.7190
1232.155076 0.7120 0.7090 0.7030 0.6970 0.6930
1236.507957 0.6850 0.6790 0.6750 0.6660 0.6590
1240.860838 0.6510 0.6380 0.6320 0.6180 0.6110
1245.213719 0.6040 0.5890 0.5740 0.5620 0.5590
1249.566601 0.5590 0.5600 0.5600 0.5620 0.5640
1253.919482 0.5670 0.5700 0.5740 0.5750 0.5780
1258.272363 0.5780 0.5800 0.5800 0.5800 0.5780
1262.625244 0.5780 0.5770 0.5750 0.5670 0.5640
1266.978126 0.5630 0.5550 0.5510 0.5480 0.5450
1271.331007 0.5360 0.5230 0.5140 0.5070 0.5000
1275.683888 0.4950 0.4880 0.4800 0.4700 0.4670
1280.036769 0.4580 0.4470 0.4290 0.4090 0.3990
1284.389650 0.3890 0.3800 0.3650 0.3570 0.3480
1288.742532 0.3400 0.3280 0.3130 0.2980 0.2840
1293.095413 0.2740 0.2690 0.2640 0.2540 0.2480
1297.448294 0.2440 0.2430 0.2420 0.2420 0.2420
1301.801175 0.2430 0.2440 0.2440 0.2460 0.2500
1306.154057 0.2510 0.2540 0.2570 0.2660 0.2730
1310.506938 0.2790 0.2990 0.3100 0.3160 0.3210
1314.859819 0.3280 0.3350 0.3400 0.3520 0.3630
1319.212700 0.3760 0.3880 0.3990 0.4190 0.4330
1323.565581 0.4390 0.4470 0.4540 0.4560 0.4580
1327.918463 0.4580 0.4560 0.4550 0.4390 0.4240
1332.271344 0.4029 0.3689 0.3360 0.3290 0.3260
1336.624225 0.3240 0.3220 0.3220 0.3240 0.3250
1340.977106 0.3250 0.3280 0.3320 0.3370 0.3430
1345.329988 0.3520 0.3670 0.3810 0.3930 0.4020
1349.682869 0.4361 0.4620 0.4770 0.4840 0.4890
1354.035750 0.4890 0.4880 0.4840 0.4800 0.4700
1358.388631 0.4670 0.4579 0.3989 0.3350 0.3210
1362.741512 0.3110 0.2960 0.2720 0.2481 0.2061
1367.094394 0.1919 0.1680 0.1620 0.1570 0.1550
1371.447275 0.1550 0.1540 0.1540 0.1510 0.1450
1375.800156 0.1309 0.1080 0.1010 0.0870 0.0730
1380.153037 0.0500 0.0490 0.0490 0.0500 0.0530
1384.505919 0.0620 0.0770 0.1060 0.1360 0.1600
1388.858800 0.1810 0.2020 0.2250 0.2529 0.2660
1393.211681 0.2790 0.2881 0.3090 0.3170 0.3220
1397.564562 0.3240 0.3260 0.3290 0.3310 0.3310
1401.917443 0.3280 0.3250 0.3220 0.3200 0.3180
1406.270325 0.3170 0.3170 0.3170 0.3180 0.3180
1410.623206 0.3210 0.3220 0.3260 0.3310 0.3320
1414.976087 0.3370 0.3390 0.3460 0.3550 0.3590
1419.328968 0.3610 0.3700 0.3810 0.3880 0.3990
1423.681850 0.4060 0.4110 0.4180 0.4260 0.4330
1428.034731 0.4410 0.4480 0.4540 0.4590 0.4700
1432.387612 0.4780 0.4810 0.4910 0.5000 0.5030
1436.740493 0.5120 0.5150 0.5180 0.5250 0.5260
1441.093374 0.5290 0.5320 0.5330 0.5330 0.5330
1445.446256 0.5320 0.5280 0.5250 0.5170 0.5120
1449.799137 0.4990 0.4850 0.4700 0.4241 0.4170
1454.152018 0.3570 0.3500 0.3470 0.3430 0.3330
1458.504899 0.3240 0.3200 0.3060 0.2920 0.2810
1462.857781 0.2700 0.2620 0.2550 0.2460 0.2330
1467.210662 0.2250 0.2140 0.2020 0.2010 0.2020
1471.563543 0.2291 0.2571 0.2840 0.3090 0.3290
1475.916424 0.3670 0.4070 0.4240 0.4580 0.4610
1480.269305 0.4991 0.5521 0.5890 0.5950 0.6180
1484.622187 0.6320 0.6470 0.6620 0.6770 0.6810
1488.975068 0.6930 0.7080 0.7200 0.7330 0.7490
1493.327949 0.7570 0.7610 0.7740 0.7780 0.7830
1497.680830 0.7920 0.7940 0.8000 0.8040 0.8090
1502.033712 0.8150 0.8200 0.8220 0.8270 0.8330
1506.386593 0.8350 0.8420 0.8490 0.8520 0.8540
1510.739474 0.8590 0.8610 0.8640 0.8700 0.8720
1515.092355 0.8750 0.8780 0.8800 0.8830 0.8900
1519.445236 0.8910 0.8930 0.8960 0.8970 0.9040
1523.798118 0.9060 0.9060 0.9110 0.9130 0.9160
1528.150999 0.9170 0.9200 0.9220 0.9260 0.9300
1532.503880 0.9340 0.9350 0.9390 0.9420 0.9450
1536.856761 0.9480 0.9540 0.9560 0.9570 0.9580
1541.209643 0.9610 0.9640 0.9650 0.9670 0.9680
1545.562524 0.9690 0.9710 0.9710 0.9710 0.9710
1549.915405 0.9710 0.9710 0.9710 0.9710 0.9710
1554.268286 0.9710 0.9710 0.9690 0.9680 0.9670
1558.621167 0.9670 0.9670 0.9650 0.9650 0.9640
1562.974049 0.9630 0.9610 0.9610 0.9600 0.9570
1567.326930 0.9570 0.9570 0.9570 0.9570 0.9570
1571.679811 0.9570 0.9570 0.9570 0.9580 0.9580
1576.032692 0.9580 0.9570 0.9570 0.9570 0.9570
1580.385574 0.9570 0.9570 0.9570 0.9570 0.9570
1584.738455 0.9570 0.9570 0.9570 0.9570 0.9570
1589.091336 0.9570 0.9570 0.9570 0.9570 0.9570
1593.444217 0.9570 0.9570 0.9570 0.9570 0.9570
1597.797098 0.9560 0.9560 0.9540 0.9520 0.9500
1602.149980 0.9500 0.9480 0.9480 0.9480 0.9460
1606.502861 0.9460 0.9460 0.9460 0.9460 0.9460
1610.855742 0.9460 0.9460 0.9460 0.9450 0.9450
1615.208623 0.9450 0.9450 0.9430 0.9430 0.9430
1619.561505 0.9430 0.9420 0.9420 0.9420 0.9420
1623.914386 0.9410 0.9410 0.9410 0.9410 0.9410
1628.267267 0.9410 0.9410 0.9410 0.9410 0.9410
1632.620148 0.9410 0.9410 0.9420 0.9420 0.9420
1636.973029 0.9430 0.9430 0.9450 0.9450 0.9450
1641.325911 0.9460 0.9460 0.9460 0.9480 0.9480
1645.678792 0.9480 0.9490 0.9490 0.9490 0.9480
1650.031673 0.9480 0.9480 0.9480 0.9490 0.9490
1654.384554 0.9490 0.9490 0.9490 0.9490 0.9490
1658.737436 0.9490 0.9490 0.9490 0.9500 0.9500
1663.090317 0.9500 0.9520 0.9520 0.9530 0.9530
1667.443198 0.9530 0.9530 0.9530 0.9530 0.9540
1671.796079 0.9540 0.9540 0.9540 0.9540 0.9560
1676.148960 0.9560 0.9560 0.9560 0.9560 0.9540
1680.501842 0.9540 0.9560 0.9560 0.9570 0.9570
1684.854723 0.9570 0.9570 0.9570 0.9570 0.9570
1689.207604 0.9570 0.9570 0.9570 0.9570 0.9570
1693.560485 0.9570 0.9570 0.9570 0.9570 0.9570
1697.913367 0.9570 0.9560 0.9560 0.9560 0.9560
1702.266248 0.9560 0.9560 0.9540 0.9540 0.9540
1706.619129 0.9540 0.9530 0.9520 0.9520 0.9520
1710.972010 0.9500 0.9500 0.9500 0.9490 0.9490
1715.324891 0.9490 0.9490 0.9480 0.9480 0.9480
1719.677773 0.9480 0.9480 0.9480 0.9460 0.9460
1724.030654 0.9460 0.9460 0.9460 0.9460 0.9460
1728.383535 0.9460 0.9460 0.9460 0.9460 0.9460
1732.736416 0.9460 0.9460 0.9460 0.9460 0.9460
1737.089298 0.9460 0.9460 0.9450 0.9450 0.9430
1741.442179 0.9430 0.9420 0.9420 0.9410 0.9390
1745.795060 0.9390 0.9370 0.9350 0.9340 0.9320
1750.147941 0.9310 0.9310 0.9300 0.9270 0.9260
1754.500822 0.9240 0.9230 0.9200 0.9170 0.9150
1758.853704 0.9150 0.9130 0.9110 0.9110 0.9090
1763.206585 0.9090 0.9090 0.9110 0.9120 0.9120
1767.559466 0.9130 0.9150 0.9160 0.9220 0.9280
1771.912347 0.9340 0.9380 0.9390 0.9430 0.9480
1776.265229 0.9520 0.9560 0.9570 0.9570 0.9610
1780.618110 0.9610 0.9640 0.9650 0.9670 0.9680
1784.970991 0.9690 0.9710 0.9720 0.9720 0.9740
1789.323872 0.9740 0.9750 0.9760 0.9760 0.9780
1793.676753 0.9780 0.9780 0.9780 0.9780 0.9780
1798.029635 0.9780 0.9780 0.9780 0.9780 0.9780
1802.382516 0.9780 0.9790 0.9790 0.9790 0.9790
1806.735397 0.9790 0.9800 0.9800 0.9800 0.9800
1811.088278 0.9800 0.9800 0.9800 0.9820 0.9820
1815.441160 0.9800 0.9800 0.9800 0.9800 0.9800
1819.794041 0.9800 0.9820 0.9820 0.9820 0.9820
1824.146922 0.9820 0.9820 0.9820 0.9800 0.9800
1828.499803 0.9800 0.9800 0.9800 0.9820 0.9800
1832.852684 0.9800 0.9800 0.9800 0.9820 0.9830
1837.205566 0.9830 0.9830 0.9830 0.9830 0.9830
1841.558447 0.9830 0.9830 0.9830 0.9830 0.9830
1845.911328 0.9830 0.9830 0.9820 0.9820 0.9820
1850.264209 0.9820 0.9820 0.9820 0.9800 0.9800
1854.617091 0.9800 0.9800 0.9800 0.9800 0.9800
1858.969972 0.9800 0.9790 0.9790 0.9790 0.9780
1863.322853 0.9780 0.9780 0.9780 0.9780 0.9760
1867.675734 0.9750 0.9740 0.9740 0.9740 0.9740
1872.028615 0.9740 0.9720 0.9720 0.9720 0.9720
1876.381497 0.9710 0.9710 0.9710 0.9690 0.9690
1880.734378 0.9680 0.9680 0.9680 0.9680 0.9680
1885.087259 0.9680 0.9670 0.9650 0.9640 0.9630
1889.440140 0.9600 0.9600 0.9580 0.9570 0.9560
1893.793022 0.9560 0.9540 0.9520 0.9500 0.9490
1898.145903 0.9490 0.9490 0.9490 0.9490 0.9490
1902.498784 0.9490 0.9500 0.9500 0.9520 0.9520
1906.851665 0.9540 0.9560 0.9570 0.9570 0.9580
1911.204546 0.9610 0.9640 0.9650 0.9680 0.9680
1915.557428 0.9690 0.9720 0.9740 0.9750 0.9760
1919.910309 0.9760 0.9780 0.9790 0.9790 0.9790
1924.263190 0.9790 0.9800 0.9800 0.9800 0.9820
1928.616071 0.9820 0.9820 0.9820 0.9830 0.9830
1932.968953 0.9830 0.9830 0.9830 0.9830 0.9830
1937.321834 0.9830 0.9830 0.9830 0.9830 0.9830
1941.674715 0.9840 0.9840 0.9840 0.9840 0.9840
1946.027596 0.9840 0.9840 0.9840 0.9840 0.9840
1950.380477 0.9840 0.9840 0.9840 0.9840 0.9840
1954.733359 0.9840 0.9840 0.9840 0.9840 0.9840
1959.086240 0.9840 0.9840 0.9840 0.9840 0.9840
1963.439121 0.9830 0.9830 0.9840 0.9840 0.9840
1967.792002 0.9840 0.9840 0.9840 0.9840 0.9840
1972.144883 0.9840 0.9840 0.9840 0.9840 0.9840
1976.497765 0.9840 0.9840 0.9840 0.9840 0.9840
1980.850646 0.9840 0.9840 0.9840 0.9860 0.9860
1985.203527 0.9860 0.9860 0.9860 0.9860 0.9860
1989.556408 0.9860 0.9860 0.9860 0.9860 0.9870
1993.909290 0.9870 0.9870 0.9870 0.9870 0.9870
1998.262171 0.9870 0.9870 0.9870 0.9870 0.9870
2002.615052 0.9870 0.9870 0.9870 0.9870 0.9870
2006.967933 0.9870 0.9870 0.9870 0.9870 0.9870
2011.320814 0.9870 0.9870 0.9870 0.9870 0.9880
2015.673696 0.9890 0.9890 0.9890 0.9890 0.9890
2020.026577 0.9895 0.9900 0.9900 0.9900 0.9900
2024.379458 0.9900 0.9900 0.9900 0.9895 0.9890
2028.732339 0.9890 0.9890 0.9890 0.9890 0.9890
2033.085221 0.9890 0.9890 0.9890 0.9890 0.9890
2037.438102 0.9880 0.9870 0.9870 0.9870 0.9870
2041.790983 0.9870 0.9870 0.9870 0.9865 0.9860
2046.143864 0.9860 0.9860 0.9860 0.9860 0.9850
2050.496745 0.9840 0.9840 0.9840 0.9840 0.9840
2054.849627 0.9835 0.9830 0.9830 0.9830 0.9825
2059.202508 0.9820 0.9810 0.9800 0.9800 0.9800
2063.555389 0.9795 0.9790 0.9790 0.9790 0.9790
2067.908270 0.9790 0.9790 0.9790 0.9790 0.9790
2072.261152 0.9790 0.9790 0.9790 0.9790 0.9795
2076.614033 0.9800 0.9800 0.9800 0.9810 0.9820
2080.966914 0.9825 0.9830 0.9835 0.9840 0.9840
2085.319795 0.9840 0.9840 0.9840 0.9850 0.9860
2089.672676 0.9860 0.9860 0.9860 0.9860 0.9865
2094.025558 0.9870 0.9880 0.9890 0.9890 0.9890
2098.378439 0.9890 0.9890 0.9890 0.9890 0.9890
2102.731320 0.9890 0.9890 0.9890 0.9890 0.9890
2107.084201 0.9890 0.9890 0.9890 0.9890 0.9890
2111.437083 0.9890 0.9890 0.9890 0.9890 0.9890
2115.789964 0.9890 0.9890 0.9890 0.9890 0.9890
2120.142845 0.9890 0.9890 0.9890 0.9895 0.9900
2124.495726 0.9900 0.9900 0.9900 0.9900 0.9900
2128.848607 0.9900 0.9905 0.9910 0.9910 0.9910
2133.201489 0.9910 0.9910 0.9910 0.9910 0.9910
2137.554370 0.9910 0.9910 0.9910 0.9910 0.9910
2141.907251 0.9910 0.9910 0.9905 0.9900 0.9900
2146.260132 0.9900 0.9900 0.9900 0.9895 0.9890
2150.613014 0.9890 0.9890 0.9881 0.9871 0.9870
2154.965895 0.9870 0.9870 0.9870 0.9870 0.9870
2159.318776 0.9870 0.9870 0.9870 0.9870 0.9865
2163.671657 0.9860 0.9860 0.9860 0.9860 0.9860
2168.024538 0.9851 0.9841 0.9840 0.9840 0.9835
2172.377420 0.9830 0.9816 0.9801 0.9800 0.9800
2176.730301 0.9791 0.9781 0.9780 0.9780 0.9766
2181.083182 0.9751 0.9745 0.9740 0.9731 0.9721
2185.436063 0.9720 0.9720 0.9720 0.9720 0.9715
2189.788945 0.9710 0.9701 0.9691 0.9690 0.9690
2194.141826 0.9690 0.9690 0.9690 0.9690 0.9699
2198.494707 0.9709 0.9710 0.9710 0.9724 0.9739
2202.847588 0.9745 0.9750 0.9755 0.9760 0.9769
2207.200469 0.9779 0.9785 0.9790 0.9790 0.9790
2211.553351 0.9795 0.9800 0.9800 0.9800 0.9800
2215.906232 0.9800 0.9800 0.9800 0.9809 0.9819
2220.259113 0.9820 0.9820 0.9825 0.9830 0.9830
2224.611994 0.9830 0.9830 0.9830 0.9835 0.9840
2228.964876 0.9840 0.9840 0.9840 0.9840 0.9849
2233.317757 0.9859 0.9860 0.9860 0.9860 0.9860
2237.670638 0.9860 0.9860 0.9860 0.9860 0.9860
2242.023519 0.9860 0.9860 0.9860 0.9851 0.9841
2246.376400 0.9840 0.9840 0.9849 0.9859 0.9860
2250.729282 0.9860 0.9860 0.9860 0.9860 0.9860
2255.082163 0.9860 0.9860 0.9860 0.9860 0.9851
2259.435044 0.9841 0.9840 0.9840 0.9840 0.9840
2263.787925 0.9835 0.9830 0.9830 0.9830 0.9816
2268.140807 0.9801 0.9800 0.9800 0.9795 0.9790
2272.493688 0.9790 0.9790 0.9786 0.9781 0.9780
2276.846569 0.9780 0.9780 0.9780 0.9780 0.9780
2281.199450 0.9780 0.9780 0.9771 0.9761 0.9760
2285.552331 0.9760 0.9760 0.9760 0.9760 0.9760
2289.905213 0.9760 0.9760 0.9756 0.9751 0.9750
2294.258094 0.9750 0.9746 0.9740 0.9740 0.9740
2298.610975 0.9731 0.9721 0.9720 0.9720 0.9720
2302.963856 0.9720 0.9720 0.9720 0.9716 0.9711
2307.316738 0.9710 0.9710 0.9710 0.9710 0.9697
2311.669619 0.9682 0.9680 0.9680 0.9676 0.9671
2316.022500 0.9670 0.9670 0.9670 0.9670 0.9670
2320.375381 0.9670 0.9657 0.9642 0.9627 0.9612
2324.728262 0.9606 0.9601 0.9591 0.9581 0.9576
2329.081144 0.9571 0.9570 0.9570 0.9570 0.9570
2333.434025 0.9566 0.9561 0.9560 0.9560 0.9560
2337.786906 0.9560 0.9560 0.9560 0.9560 0.9560
2342.139787 0.9560 0.9560 0.9560 0.9560 0.9560
2346.492669 0.9560 0.9560 0.9560 0.9560 0.9560
2350.845550 0.9560 0.9560 0.9551 0.9541 0.9540
2355.198431 0.9540 0.9540 0.9540 0.9540 0.9540
2359.551312 0.9540 0.9540 0.9549 0.9559 0.9560
2363.904193 0.9560 0.9560 0.9560 0.9560 0.9560
2368.257075 0.9560 0.9560 0.9564 0.9569 0.9570
2372.609956 0.9570 0.9570 0.9570 0.9570 0.9570
2376.962837 0.9570 0.9570 0.9566 0.9561 0.9534
2381.315718 0.9504 0.9483 0.9462 0.9456 0.9451
2385.668600 0.9450 0.9450 0.9450 0.9450 0.9441
2390.021481 0.9431 0.9426 0.9421 0.9420 0.9420
2394.374362 0.9420 0.9420 0.9420 0.9420 0.9420
2398.727243 0.9420 0.9420 0.9420 0.9420 0.9420
2403.080124 0.9420 0.9420 0.9420 0.9420 0.9420
2407.433006 0.9420 0.9424 0.9429 0.9430 0.9430
2411.785887 0.9439 0.9449 0.9450 0.9450 0.9454
2416.138768 0.9459 0.9469 0.9479 0.9484 0.9489
2420.491649 0.9507 0.9527 0.9534 0.9539 0.9549
2424.844531 0.9559 0.9560 0.9560 0.9560 0.9560
2429.197412 0.9564 0.9569 0.9570 0.9570 0.9570
2433.550293 0.9570 0.9570 0.9570 0.9570 0.9570
2437.903174 0.9570 0.9570 0.9570 0.9570 0.9566
2442.256055 0.9561 0.9560 0.9560 0.9552 0.9542
2446.608937 0.9536 0.9531 0.9530 0.9530 0.9526
2450.961818 0.9521 0.9512 0.9501 0.9491 0.9481
2455.314699 0.9472 0.9462 0.9447 0.9432 0.9426
2459.667580 0.9421 0.9407 0.9392 0.9386 0.9381
2464.020462 0.9380 0.9380 0.9367 0.9352 0.9350
2468.373343 0.9350 0.9350 0.9350 0.9350 0.9350
2472.726224 0.9350 0.9350 0.9346 0.9341 0.9340
2477.079105 0.9340 0.9340 0.9340 0.9340 0.9340
2481.431986 0.9332 0.9322 0.9320 0.9320 0.9316
2485.784868 0.9311 0.9310 0.9310 0.9297 0.9282
2490.137749 0.9276 0.9271 0.9266 0.9261 0.9252
2494.490630 0.9242 0.9236 0.9231 0.9218 0.9203
2498.843511 0.9179 0.9154 0.9134 0.9114 0.9089
2503.196393 0.9064 0.9052 0.9042 0.9040 0.9040
2507.549274 0.9032 0.9022 0.9020 0.9020 0.9020
2511.902155 0.9020 0.9028 0.9038 0.9040 0.9040
2516.255036 0.9044 0.9049 0.9054 0.9059 0.9060
2520.607917 0.9060 0.9068 0.9078 0.9084 0.9089
2524.960799 0.9098 0.9108 0.9110 0.9110 0.9114
2529.313680 0.9119 0.9120 0.9120 0.9124 0.9129
2533.666561 0.9130 0.9130 0.9130 0.9130 0.9130
2538.019442 0.9130 0.9138 0.9148 0.9150 0.9150
2542.372324 0.9150 0.9150 0.9142 0.9132 0.9130
2546.725205 0.9130 0.9126 0.9121 0.9116 0.9111
2551.078086 0.9102 0.9092 0.9078 0.9063 0.9056
2555.430967 0.9051 0.9038 0.9023 0.9016 0.9011
2559.783848 0.8994 0.8974 0.8954 0.8934 0.8922
2564.136730 0.8912 0.8886 0.8856 0.8838 0.8823
2568.489611 0.8812 0.8802 0.8792 0.8782 0.8764
2572.842492 0.8744 0.8732 0.8722 0.8720 0.8720
2577.195373 0.8720 0.8720 0.8720 0.8720 0.8720
2581.548255 0.8720 0.8720 0.8720 0.8720 0.8720
2585.901136 0.8720 0.8720 0.8720 0.8720 0.8720
2590.254017 0.8720 0.8720 0.8720 0.8720 0.8720
2594.606898 0.8720 0.8720 0.8716 0.8711 0.8710
2598.959779 0.8710 0.8710 0.8710 0.8710 0.8710
2603.312661 0.8706 0.8701 0.8700 0.8700 0.8692
2607.665542 0.8682 0.8676 0.8671 0.8670 0.8670
2612.018423 0.8662 0.8652 0.8646 0.8641 0.8640
2616.371304 0.8640 0.8640 0.8640 0.8640 0.8640
2620.724186 0.8636 0.8631 0.8622 0.8612 0.8602
2625.077067 0.8592 0.8582 0.8572 0.8558 0.8543
2629.429948 0.8540 0.8540 0.8532 0.8522 0.8492
2633.782829 0.8457 0.8438 0.8423 0.8404 0.8384
2638.135710 0.8364 0.8344 0.8309 0.8269 0.8217
2642.488592 0.8162 0.8138 0.8123 0.8100 0.8075
2646.841473 0.8027 0.7972 0.7925 0.7880 0.7862
2651.194354 0.7852 0.7842 0.7832 0.7830 0.7830
2655.547235 0.7838 0.7848 0.7854 0.7859 0.7887
2659.900117 0.7922 0.7957 0.7992 0.8051 0.8116
2664.252998 0.8200 0.8290 0.8322 0.8337 0.8356
2668.605879 0.8375 0.8403 0.8433 0.8455 0.8475
2672.958760 0.8488 0.8498 0.8500 0.8500 0.8500
2677.311641 0.8500 0.8500 0.8500 0.8492 0.8482
2681.664523 0.8468 0.8453 0.8438 0.8423 0.8405
2686.017404 0.8385 0.8368 0.8354 0.8342 0.8332
2690.370285 0.8296 0.8251 0.8206 0.8161 0.8139
2694.723166 0.8124 0.8120 0.8120 0.8116 0.8111
2699.076048 0.8102 0.8092 0.8082 0.8072 0.8059
2703.428929 0.8044 0.8025 0.8005 0.7989 0.7974
2707.781810 0.7966 0.7961 0.7960 0.7960 0.7952
2712.134691 0.7942 0.7940 0.7940 0.7940 0.7940
2716.487572 0.7940 0.7940 0.7948 0.7958 0.7968
2720.840454 0.7978 0.7980 0.7980 0.7991 0.8006
2725.193335 0.8021 0.8036 0.8044 0.8049 0.8057
2729.546216 0.8067 0.8074 0.8079 0.8091 0.8106
2733.899097 0.8110 0.8110 0.8110 0.8110 0.8110
2738.251979 0.8110 0.8103 0.8093 0.8090 0.8090
2742.604860 0.8083 0.8073 0.8059 0.8044 0.8036
2746.957741 0.8031 0.8030 0.8030 0.8022 0.8012
2751.310622 0.7999 0.7984 0.7976 0.7971 0.7966
2755.663503 0.7961 0.7953 0.7943 0.7940 0.7940
2760.016385 0.7910 0.7870 0.7830 0.7791 0.7769
2764.369266 0.7754 0.7735 0.7715 0.7699 0.7684
2768.722147 0.7673 0.7663 0.7649 0.7634 0.7615
2773.075028 0.7595 0.7583 0.7573 0.7548 0.7518
2777.427910 0.7499 0.7484 0.7458 0.7428 0.7394
2781.780791 0.7360 0.7335 0.7315 0.7295 0.7275
2786.133672 0.7263 0.7253 0.7250 0.7250 0.7224
2790.486553 0.7189 0.7154 0.7119 0.7103 0.7093
2794.839434 0.7086 0.7081 0.7062 0.7037 0.7005
2799.192316 0.6970 0.6938 0.6908 0.6874 0.6839
2803.545197 0.6808 0.6778 0.6748 0.6718 0.6684
2807.898078 0.6649 0.6618 0.6588 0.6555 0.6520
2812.250959 0.6496 0.6476 0.6463 0.6453 0.6446
2816.603841 0.6441 0.6429 0.6414 0.6399 0.6384
2820.956722 0.6358 0.6328 0.6273 0.6208 0.6179
2825.309603 0.6164 0.6131 0.6091 0.6051 0.6011
2829.662484 0.5971 0.5931 0.5884 0.5834 0.5788
2834.015365 0.5743 0.5694 0.5644 0.5590 0.5535
2838.368247 0.5491 0.5451 0.5404 0.5354 0.5268
2842.721128 0.5168 0.5090 0.5020 0.4946 0.4872
2847.074009 0.4825 0.4790 0.4720 0.4635 0.4561
2851.426890 0.4491 0.4363 0.4212 0.4084 0.3964
2855.779772 0.3916 0.3896 0.3858 0.3813 0.3739
2860.132653 0.3655 0.3548 0.3434 0.3308 0.3178
2864.485534 0.3031 0.2876 0.2823 0.2813 0.2751
2868.838415 0.2666 0.2577 0.2486 0.2392 0.2297
2873.191296 0.2185 0.2065 0.1984 0.1919 0.1794
2877.544178 0.1644 0.1593 0.1583 0.1587 0.1597
2881.897059 0.1603 0.1608 0.1624 0.1644 0.1660
2886.249940 0.1675 0.1687 0.1697 0.1739 0.1794
2890.602821 0.1842 0.1887 0.1928 0.1968 0.1998
2894.955703 0.2022 0.2044 0.2064 0.2080 0.2095
2899.308584 0.2128 0.2168 0.2201 0.2231 0.2243
2903.661465 0.2248 0.2247 0.2241 0.2229 0.2214
2908.014346 0.2196 0.2176 0.2153 0.2128 0.2096
2912.367227 0.2061 0.2036 0.2016 0.1989 0.1959
2916.720109 0.1936 0.1916 0.1896 0.1876 0.1846
2921.072990 0.1811 0.1752 0.1681 0.1632 0.1592
2925.425871 0.1556 0.1521 0.1507 0.1502 0.1497
2929.778752 0.1492 0.1493 0.1498 0.1503 0.1508
2934.131634 0.1534 0.1569 0.1594 0.1614 0.1667
2938.484515 0.1737 0.1808 0.1878 0.2018 0.2187
2942.837396 0.2330 0.2459 0.2510 0.2525 0.2537
2947.190277 0.2547 0.2543 0.2533 0.2499 0.2454
2951.543158 0.2332 0.2172 0.2015 0.1861 0.1756
2955.896040 0.1676 0.1474 0.1212 0.1079 0.1004
2960.248921 0.0925 0.0845 0.0711 0.0551 0.0364
2964.601802 0.0165 0.0097 0.0092 0.0087 0.0082
2968.954683 0.0080 0.0080 0.0080 0.0080 0.0080
2973.307564 0.0080 0.0083 0.0088 0.0093 0.0098
2977.660446 0.0110 0.0125 0.0140 0.0155 0.0177
2982.013327 0.0202 0.0220 0.0235 0.0297 0.0382
2986.366208 0.0473 0.0568 0.0729 0.0924 0.1261
2990.719089 0.1670 0.2129 0.2613 0.2881 0.3046
2995.071971 0.3171 0.3275 0.3414 0.3569 0.3743
2999.424852 0.3928 0.4149 0.4389 0.4652 0.4927
3003.777733 0.5191 0.5451 0.5655 0.5830 0.5939
3008.130614 0.6014 0.6126 0.6257 0.6360 0.6450
3012.483495 0.6553 0.6663 0.6763 0.6858 0.6903
3016.836377 0.6923 0.6956 0.6996 0.7053 0.7118
3021.189258 0.7176 0.7231 0.7283 0.7332 0.7382
3025.542139 0.7432 0.7473 0.7508 0.7547 0.7586
3029.895020 0.7623 0.7658 0.7703 0.7753 0.7777
3034.247902 0.7787 0.7803 0.7823 0.7836 0.7846
3038.600783 0.7853 0.7858 0.7863 0.7868 0.7880
3042.953664 0.7895 0.7906 0.7917 0.7923 0.7928
3047.306545 0.7933 0.7938 0.7940 0.7940 0.7940
3051.659426 0.7940 0.7940 0.7940 0.7937 0.7932
3056.012308 0.7930 0.7930 0.7930 0.7930 0.7927
3060.365189 0.7922 0.7910 0.7895 0.7883 0.7873
3064.718070 0.7870 0.7870 0.7867 0.7862 0.7857
3069.070951 0.7852 0.7844 0.7834 0.7824 0.7814
3073.423833 0.7804 0.7794 0.7787 0.7782 0.7777
3077.776714 0.7772 0.7764 0.7754 0.7747 0.7742
3082.129595 0.7730 0.7715 0.7700 0.7685 0.7674
3086.482476 0.7664 0.7650 0.7635 0.7624 0.7614
3090.835357 0.7604 0.7594 0.7571 0.7541 0.7524
3095.188239 0.7514 0.7504 0.7494 0.7480 0.7465
3099.541120 0.7454 0.7444 0.7411 0.7366 0.7334
3103.894001 0.7309 0.7287 0.7267 0.7251 0.7236
3108.246882 0.7230 0.7230 0.7214 0.7189 0.7158
3112.599764 0.7123 0.7101 0.7086 0.7058 0.7023
3116.952645 0.7004 0.6994 0.6974 0.6949 0.6934
3121.305526 0.6924 0.6876 0.6806 0.6771 0.6756
3125.658407 0.6735 0.6710 0.6691 0.6676 0.6649
3130.011288 0.6614 0.6578 0.6543 0.6517 0.6497
3134.364170 0.6477 0.6458 0.6447 0.6442 0.6428
3138.717051 0.6408 0.6378 0.6343 0.6299 0.6249
3143.069932 0.6209 0.6174 0.6157 0.6152 0.6147
3147.422813 0.6142 0.6119 0.6083 0.6026 0.5957
3151.775695 0.5905 0.5865 0.5835 0.5810 0.5785
3156.128576 0.5760 0.5744 0.5734 0.5696 0.5642
3160.481457 0.5581 0.5516 0.5475 0.5450 0.5422
3164.834338 0.5392 0.5374 0.5364 0.5335 0.5295
3169.187219 0.5258 0.5224 0.5179 0.5129 0.5086
3173.540101 0.5046 0.5021 0.5006 0.4973 0.4928
3177.892982 0.4904 0.4894 0.4857 0.4802 0.4747
3182.245863 0.4692 0.4646 0.4606 0.4566 0.4526
3186.598744 0.4498 0.4478 0.4464 0.4454 0.4423
3190.951626 0.4378 0.4327 0.4272 0.4217 0.4162
3195.304507 0.4107 0.4052 0.4027 0.4022 0.3990
3199.657388 0.3941 0.3893 0.3848 0.3800 0.3750
3204.010269 0.3706 0.3666 0.3626 0.3586 0.3564
3208.363150 0.3554 0.3529 0.3494 0.3453 0.3408
3212.716032 0.3358 0.3303 0.3239 0.3169 0.3140
3217.068913 0.3140 0.3108 0.3052 0.2982 0.2902
3221.421794 0.2837 0.2782 0.2730 0.2680 0.2654
3225.774675 0.2644 0.2622 0.2592 0.2557 0.2517
3230.127557 0.2471 0.2421 0.2380 0.2345 0.2307
3234.480438 0.2267 0.2235 0.2210 0.2188 0.2168
3238.833319 0.2122 0.2057 0.2004 0.1959 0.1922
3243.186200 0.1892 0.1874 0.1864 0.1845 0.1821
3247.539081 0.1798 0.1778 0.1750 0.1715 0.1666
3251.891963 0.1606 0.1571 0.1556 0.1535 0.1510
3256.244844 0.1497 0.1492 0.1458 0.1403 0.1360
3260.597725 0.1325 0.1290 0.1255 0.1231 0.1216
3264.950606 0.1199 0.1179 0.1159 0.1139 0.1119
3269.303488 0.1099 0.1073 0.1043 0.1018 0.0998
3273.656369 0.0976 0.0951 0.0928 0.0908 0.0894
3278.009250 0.0884 0.0869 0.0849 0.0834 0.0824
3282.362131 0.0800 0.0765 0.0739 0.0719 0.0702
3286.715012 0.0687 0.0677 0.0672 0.0661 0.0646
3291.067894 0.0623 0.0593 0.0574 0.0564 0.0551
3295.420775 0.0536 0.0530 0.0530 0.0522 0.0507
3299.773656 0.0492 0.0477 0.0464 0.0454 0.0442
3304.126537 0.0427 0.0417 0.0412 0.0401 0.0386
3308.479419 0.0380 0.0380 0.0374 0.0364 0.0360
3312.832300 0.0360 0.0357 0.0352 0.0347 0.0342
3317.185181 0.0340 0.0340 0.0334 0.0324 0.0320
3321.538062 0.0320 0.0317 0.0312 0.0310 0.0310
3325.890943 0.0310 0.0310 0.0307 0.0302 0.0300
3330.243825 0.0300 0.0294 0.0284 0.0280 0.0280
3334.596706 0.0280 0.0280 0.0280 0.0280 0.0280
3338.949587 0.0280 0.0277 0.0272 0.0270 0.0270
3343.302468 0.0270 0.0270 0.0270 0.0270 0.0270
3347.655350 0.0270 0.0273 0.0278 0.0285 0.0295
3352.008231 0.0300 0.0300 0.0300 0.0300 0.0303
3356.361112 0.0308 0.0310 0.0310 0.0313 0.0318
3360.713993 0.0320 0.0320 0.0320 0.0320 0.0325
3365.066874 0.0335 0.0340 0.0340 0.0340 0.0340
3369.419756 0.0343 0.0348 0.0358 0.0373 0.0380
3373.772637 0.0380 0.0383 0.0388 0.0395 0.0405
3378.125518 0.0413 0.0418 0.0428 0.0443 0.0453
3382.478399 0.0458 0.0463 0.0468 0.0470 0.0470
3386.831281 0.0475 0.0485 0.0493 0.0498 0.0500
3391.184162 0.0500 0.0503 0.0508 0.0515 0.0525
3395.537043 0.0530 0.0530 0.0538 0.0553 0.0563
3399.889924 0.0568 0.0578 0.0593 0.0603 0.0608
3404.242805 0.0618 0.0633 0.0643 0.0648 0.0655
3408.595687 0.0665 0.0680 0.0701 0.0713 0.0718
3412.948568 0.0731 0.0751 0.0768 0.0783 0.0793
3417.301449 0.0798 0.0805 0.0815 0.0825 0.0835
3421.654330 0.0850 0.0870 0.0896 0.0926 0.0953
3426.007212 0.0978 0.1000 0.1021 0.1035 0.1045
3430.360093 0.1058 0.1073 0.1090 0.1110 0.1123
3434.712974 0.1128 0.1133 0.1138 0.1153 0.1178
3439.065855 0.1203 0.1228 0.1250 0.1270 0.1283
3443.418736 0.1288 0.1295 0.1305 0.1321 0.1340
3447.771618 0.1358 0.1373 0.1390 0.1410 0.1433
3452.124499 0.1458 0.1485 0.1515 0.1530 0.1530
3456.477380 0.1548 0.1583 0.1605 0.1615 0.1638
3460.830261 0.1673 0.1708 0.1743 0.1770 0.1790
3465.183143 0.1808 0.1823 0.1843 0.1868 0.1888
3469.536024 0.1903 0.1941 0.2000 0.2038 0.2053
3473.888905 0.2068 0.2083 0.2092 0.2097 0.2115
3478.241786 0.2145 0.2165 0.2175 0.2206 0.2256
3482.594667 0.2300 0.2340 0.2380 0.2420 0.2455
3486.947549 0.2485 0.2508 0.2523 0.2553 0.2597
3491.300430 0.2645 0.2695 0.2742 0.2787 0.2825
3495.653311 0.2855 0.2900 0.2960 0.3026 0.3095
3500.006192 0.3158 0.3213 0.3268 0.3323 0.3370
3504.359074 0.3410 0.3452 0.3497 0.3520 0.3520
3508.711955 0.3552 0.3617 0.3677 0.3732 0.3792
3513.064836 0.3857 0.3924 0.3995 0.4045 0.4075
3517.417717 0.4102 0.4127 0.4185 0.4275 0.4352
3521.770598 0.4417 0.4484 0.4554 0.4627 0.4702
3526.123480 0.4755 0.4785 0.4812 0.4837 0.4886
3530.476361 0.4961 0.5034 0.5104 0.5180 0.5260
3534.829242 0.5362 0.5486 0.5570 0.5610 0.5664
3539.182123 0.5734 0.5802 0.5866 0.5939 0.6019
3543.535005 0.6091 0.6156 0.6216 0.6271 0.6319
3547.887886 0.6359 0.6406 0.6462 0.6524 0.6594
3552.240767 0.6664 0.6734 0.6792 0.6837 0.6879
3556.593648 0.6919 0.6957 0.6992 0.7034 0.7084
3560.946529 0.7143 0.7213 0.7278 0.7338 0.7396
3565.299411 0.7451 0.7506 0.7561 0.7600 0.7620
3569.652292 0.7659 0.7719 0.7767 0.7802 0.7856
3574.005173 0.7931 0.8006 0.8080 0.8127 0.8142
3578.358054 0.8162 0.8187 0.8214 0.8244 0.8276
3582.710936 0.8311 0.8344 0.8374 0.8395 0.8405
3587.063817 0.8410 0.8410 0.8412 0.8417 0.8425
3591.416698 0.8435 0.8440 0.8440 0.8435 0.8425
3595.769579 0.8420 0.8420 0.8413 0.8398 0.8388
3600.122460 0.8383 0.8362 0.8321 0.8267 0.8197
3604.475342 0.8153 0.8138 0.8128 0.8123 0.8092
3608.828223 0.8032 0.7949 0.7839 0.7697 0.7517
3613.181104 0.7390 0.7325 0.7258 0.7188 0.7125
3617.533985 0.7070 0.6999 0.6908 0.6816 0.6721
3621.886867 0.6638 0.6568 0.6495 0.6420 0.6334
3626.239748 0.6234 0.6175 0.6165 0.6167 0.6182
3630.592629 0.6213 0.6263 0.6330 0.6420 0.6503
3634.945510 0.6578 0.6672 0.6788 0.6938 0.7127
3639.298391 0.7317 0.7507 0.7699 0.7894 0.8079
3643.651273 0.8254 0.8424 0.8589 0.8698 0.8738
3648.004154 0.8798 0.8883 0.8957 0.9017 0.9081
3652.357035 0.9151 0.9219 0.9284 0.9350 0.9415
3656.709916 0.9457 0.9472 0.9489 0.9509 0.9529
3661.062798 0.9549 0.9562 0.9567 0.9570 0.9570
3665.415679 0.9570 0.9570 0.9572 0.9577 0.9580
3669.768560 0.9580 0.9580 0.9580 0.9580 0.9580
3674.121441 0.9580 0.9580 0.9584 0.9594 0.9602
3678.474322 0.9607 0.9610 0.9610 0.9617 0.9632
3682.827204 0.9640 0.9640 0.9642 0.9647 0.9654
3687.180085 0.9664 0.9674 0.9684 0.9697 0.9712
3691.532966 0.9733 0.9763 0.9780 0.9780 0.9780
3695.885847 0.9780 0.9782 0.9787 0.9790 0.9790
3700.238729 0.9796 0.9811 0.9822 0.9827 0.9836
3704.591610 0.9851 0.9862 0.9867 0.9874 0.9884
3708.944491 0.9890 0.9890 0.9892 0.9897 0.9902
3713.297372 0.9907 0.9910 0.9910 0.9910 0.9910
3717.650253 0.9910 0.9910 0.9910 0.9910 0.9914
3722.003135 0.9924 0.9930 0.9930 0.9932 0.9937
3726.356016 0.9940 0.9940 0.9940 0.9940 0.9940
3730.708897 0.9940 0.9940 0.9940 0.9942 0.9947
3735.061778 0.9950 0.9950 0.9950 0.9950 0.9954
3739.414660 0.9964 0.9970 0.9970 0.9970 0.9970
3743.767541 0.9970 0.9970 0.9970 0.9970 0.9970
3748.120422 0.9970 0.9970 0.9970 0.9970 0.9970
3752.473303 0.9966 0.9956 0.9950 0.9950 0.9948
3756.826184 0.9943 0.9940 0.9940 0.9940 0.9940
3761.179066 0.9940 0.9940 0.9940 0.9940 0.9940
3765.531947 0.9940 0.9940 0.9940 0.9940 0.9940
3769.884828 0.9940 0.9940 0.9940 0.9940 0.9940
3774.237709 0.9940 0.9940 0.9940 0.9938 0.9933
3778.590591 0.9930 0.9930 0.9930 0.9930 0.9926
3782.943472 0.9916 0.9908 0.9903 0.9900 0.9900
3787.296353 0.9900 0.9900 0.9900 0.9900 0.9900
3791.649234 0.9900 0.9898 0.9893 0.9890 0.9890
##END=
