##TITLE=SULFOXIDE, DIMETHYL
##JCAMP-DX=4.24
##DATA TYPE=INFRARED SPECTRUM
##CLASS=COBLENTZ III
##ORIGIN=STANDARD OIL OF OHIO
##OWNER=COBLENTZ SOCIETY
Collection (C) 2018 copyright by the U.S. Secretary of Commerce
on behalf of the United States of America. All rights reserved.
##DATE=Not specified, most likely prior to 1970
##NAMES=dimethyl sulfoxide
(methylsulfinyl)methane
##CAS REGISTRY NO=67-68-5
##MOLFORM=C2 H6 S O
##SOURCE REFERENCE=COBLENTZ NO. 4358
##$NIST SOURCE=COBLENTZ
##$NIST IMAGE=cob4358
##SPECTROMETER/DATA SYSTEM=PERKIN-ELMER 180
##STATE=LIQUID (NEAT)
##PATH LENGTH=CAPILLARY
##SAMPLING PROCEDURE=TRANSMISSION
##RESOLUTION=4
##DATA PROCESSING=DIGITIZED BY NIST FROM HARD COPY (FROM TWO SEGMENTS)
##XUNITS=1/CM
##YUNITS=TRANSMITTANCE
##XFACTOR=1.000000
##YFACTOR=1
##DELTAX=1.351358
##FIRSTX=247.297
##LASTX=3895.96
##FIRSTY=0.779
##MAXX=3895.96
##MINX=247.297
##MAXY=0.923
##MINY=0.072
##NPOINTS=2701
##XYDATA=(X++(Y..Y))
247.297000 0.7790 0.7790 0.7790 0.7790 0.7790
254.053788 0.7790 0.7790 0.7790 0.7790 0.7790
260.810576 0.7790 0.7790 0.7810 0.7810 0.7830
267.567363 0.7840 0.7840 0.7860 0.7880 0.7910
274.324151 0.7910 0.7940 0.7980 0.8000 0.8010
281.080939 0.8010 0.8010 0.8000 0.7980 0.7930
287.837727 0.7910 0.7890 0.7880 0.7840 0.7790
294.594515 0.7710 0.7521 0.7381 0.7132 0.6882
301.351302 0.6620 0.6200 0.6150 0.6050 0.5960
308.108090 0.5940 0.5940 0.5980 0.6010 0.6030
314.864878 0.6080 0.6080 0.6010 0.5880 0.5740
321.621666 0.5222 0.4593 0.4133 0.3613 0.2835
328.378454 0.2230 0.1500 0.1280 0.1280 0.1420
335.135242 0.1550 0.1809 0.2079 0.2498 0.3493
341.892029 0.4060 0.4879 0.4890 0.5219 0.5519
348.648817 0.5789 0.5880 0.6049 0.6785 0.6810
355.405605 0.7030 0.7050 0.7100 0.7110 0.7110
362.162393 0.7100 0.7060 0.7000 0.6811 0.6611
368.919181 0.6470 0.6280 0.5381 0.4911 0.3833
375.675968 0.3760 0.3232 0.2623 0.2014 0.1881
382.432756 0.1880 0.2230 0.2550 0.3179 0.3180
389.189544 0.3977 0.4757 0.5536 0.5570 0.5928
395.946332 0.6640 0.6660 0.7399 0.7859 0.8030
402.703120 0.8150 0.8230 0.8349 0.8439 0.8500
409.459907 0.8520 0.8540 0.8570 0.8590 0.8590
416.216695 0.8570 0.8550 0.8570 0.8709 0.8760
422.973483 0.8760 0.8770 0.8790 0.8830 0.8830
429.730271 0.8840 0.8860 0.8860 0.8860 0.8860
436.487059 0.8880 0.8880 0.8890 0.8890 0.8890
443.243847 0.8910 0.8910 0.8910 0.8910 0.8910
450.000634 0.8910 0.8910 0.8890 0.8890 0.8890
456.757422 0.8890 0.8890 0.8890 0.8890 0.8890
463.514210 0.8890 0.8890 0.8890 0.8910 0.8910
470.270998 0.8910 0.8910 0.8910 0.8910 0.8930
477.027786 0.8930 0.8930 0.8930 0.8930 0.8930
483.784573 0.8930 0.8930 0.8930 0.8930 0.8930
490.541361 0.8930 0.8930 0.8930 0.8910 0.8910
497.298149 0.8910 0.8910 0.8890 0.8880 0.8880
504.054937 0.8860 0.8860 0.8860 0.8860 0.8840
510.811725 0.8840 0.8840 0.8830 0.8830 0.8830
517.568512 0.8830 0.8830 0.8830 0.8830 0.8830
524.325300 0.8810 0.8810 0.8810 0.8810 0.8810
531.082088 0.8810 0.8810 0.8810 0.8810 0.8790
537.838876 0.8790 0.8790 0.8790 0.8770 0.8770
544.595664 0.8760 0.8760 0.8740 0.8740 0.8720
551.352452 0.8720 0.8710 0.8710 0.8690 0.8690
558.109239 0.8670 0.8670 0.8660 0.8660 0.8640
564.866027 0.8640 0.8620 0.8610 0.8610 0.8590
571.622815 0.8570 0.8570 0.8550 0.8540 0.8540
578.379603 0.8520 0.8500 0.8500 0.8490 0.8470
585.136391 0.8470 0.8450 0.8440 0.8440 0.8420
591.893178 0.8400 0.8400 0.8380 0.8370 0.8350
598.649966 0.8350 0.8330 0.8320 0.8320 0.8300
605.406754 0.8280 0.8280 0.8270 0.8250 0.8250
612.163542 0.8230 0.8220 0.8220 0.8200 0.8180
618.920330 0.8180 0.8160 0.8150 0.8150 0.8130
625.677117 0.8110 0.8110 0.8100 0.8080 0.8080
632.433905 0.8060 0.8050 0.8050 0.8030 0.8010
639.190693 0.8010 0.8000 0.7960 0.7890 0.7840
645.947481 0.7760 0.7740 0.7720 0.7710 0.7690
652.704269 0.7670 0.7640 0.7550 0.7520 0.7350
659.461057 0.7280 0.7101 0.6961 0.6880 0.6721
666.217844 0.6690 0.6710 0.6880 0.7110 0.7270
672.974632 0.7300 0.7669 0.7720 0.7829 0.7880
679.731420 0.7880 0.7830 0.7760 0.7660 0.7570
686.488208 0.7301 0.7081 0.6831 0.6541 0.5496
693.244996 0.5300 0.5110 0.5100 0.5110 0.5449
700.001783 0.5789 0.6448 0.6470 0.6759 0.7048
706.758571 0.7330 0.7740 0.7930 0.8130 0.8250
713.515359 0.8350 0.8450 0.8520 0.8570 0.8640
720.272147 0.8690 0.8740 0.8760 0.8810 0.8830
727.028935 0.8840 0.8860 0.8880 0.8910 0.8930
733.785722 0.8940 0.8960 0.8980 0.9000 0.9010
740.542510 0.9030 0.9030 0.9050 0.9050 0.9050
747.299298 0.9050 0.9050 0.9060 0.9080 0.9100
754.056086 0.9100 0.9110 0.9110 0.9130 0.9130
760.812874 0.9130 0.9130 0.9110 0.9110 0.9110
767.569662 0.9130 0.9130 0.9150 0.9160 0.9160
774.326449 0.9160 0.9180 0.9180 0.9180 0.9180
781.083237 0.9180 0.9180 0.9200 0.9220 0.9220
787.840025 0.9220 0.9220 0.9230 0.9230 0.9230
794.596813 0.9230 0.9230 0.9230 0.9230 0.9230
801.353601 0.9230 0.9230 0.9230 0.9230 0.9230
808.110388 0.9230 0.9230 0.9230 0.9230 0.9230
814.867176 0.9230 0.9220 0.9220 0.9220 0.9220
821.623964 0.9220 0.9220 0.9220 0.9220 0.9220
828.380752 0.9220 0.9220 0.9220 0.9220 0.9200
835.137540 0.9200 0.9200 0.9200 0.9200 0.9200
841.894327 0.9200 0.9200 0.9180 0.9180 0.9160
848.651115 0.9160 0.9160 0.9160 0.9150 0.9150
855.407903 0.9150 0.9150 0.9150 0.9150 0.9130
862.164691 0.9110 0.9100 0.9100 0.9080 0.9080
868.921479 0.9080 0.9080 0.9060 0.9050 0.9050
875.678267 0.9030 0.9010 0.8960 0.8930 0.8880
882.435054 0.8840 0.8790 0.8710 0.8640 0.8590
889.191842 0.8470 0.8440 0.8370 0.8300 0.8280
895.948630 0.8270 0.8280 0.8330 0.8370 0.8400
902.705418 0.8440 0.8470 0.8490 0.8500 0.8500
909.462206 0.8490 0.8450 0.8420 0.8330 0.8230
916.218993 0.8150 0.8060 0.7861 0.7621 0.7501
922.975781 0.7199 0.6930 0.6770 0.6590 0.6420
929.732569 0.6400 0.6400 0.6420 0.6440 0.6540
936.489357 0.6590 0.6620 0.6660 0.6660 0.6620
943.246145 0.6540 0.6251 0.6011 0.5771 0.5283
950.002932 0.5029 0.4760 0.4500 0.4500 0.4660
956.759720 0.4840 0.5000 0.5399 0.5639 0.5879
963.516508 0.6370 0.6380 0.6740 0.7050 0.7280
970.273296 0.7500 0.7620 0.7690 0.7740 0.7770
977.030084 0.7790 0.7790 0.7790 0.7790 0.7790
983.786871 0.7770 0.7770 0.7740 0.7720 0.7640
990.543659 0.7550 0.7490 0.7400 0.7330 0.7300
997.300447 0.6961 0.6880 0.6721 0.6620 0.6351
1004.057235 0.6060 0.5889 0.5200 0.4810 0.4420
1010.814023 0.4031 0.3541 0.3281 0.3031 0.2791
1017.570811 0.2640 0.2570 0.2440 0.2400 0.2320
1024.327598 0.2270 0.2200 0.2130 0.2080 0.2030
1031.084386 0.2010 0.1890 0.1810 0.1690 0.1620
1037.841174 0.1520 0.1380 0.1101 0.0980 0.0910
1044.597962 0.0880 0.0830 0.0790 0.0770 0.0760
1051.354750 0.0740 0.0720 0.0720 0.0720 0.0720
1058.111537 0.0740 0.0760 0.0770 0.0830 0.0890
1064.868325 0.1030 0.1160 0.1280 0.1380 0.1788
1071.625113 0.2401 0.2911 0.3590 0.4110 0.4640
1078.381901 0.5059 0.5299 0.5539 0.6028 0.6279
1085.138689 0.6540 0.6720 0.6940 0.7110 0.7280
1091.895476 0.7370 0.7520 0.7610 0.7720 0.7770
1098.652264 0.7840 0.7930 0.7980 0.8030 0.8080
1105.409052 0.8100 0.8150 0.8200 0.8220 0.8250
1112.165840 0.8300 0.8330 0.8370 0.8380 0.8420
1118.922628 0.8420 0.8440 0.8450 0.8470 0.8520
1125.679416 0.8540 0.8590 0.8610 0.8640 0.8660
1132.436203 0.8670 0.8690 0.8710 0.8710 0.8710
1139.192991 0.8720 0.8720 0.8760 0.8770 0.8790
1145.949779 0.8810 0.8830 0.8840 0.8860 0.8880
1152.706567 0.8880 0.8880 0.8890 0.8890 0.8890
1159.463355 0.8910 0.8910 0.8930 0.8940 0.8940
1166.220142 0.8940 0.8940 0.8940 0.8940 0.8940
1172.976930 0.8940 0.8940 0.8940 0.8960 0.8960
1179.733718 0.8960 0.8960 0.8960 0.8960 0.8960
1186.490506 0.8960 0.8960 0.8960 0.8960 0.8960
1193.247294 0.8980 0.8980 0.8980 0.8980 0.8980
1200.004081 0.8980 0.8980 0.8980 0.8980 0.8980
1206.760869 0.8980 0.8980 0.8980 0.8980 0.8980
1213.517657 0.8980 0.8980 0.8980 0.8980 0.8960
1220.274445 0.8960 0.8960 0.8960 0.8960 0.8960
1227.031233 0.8960 0.8960 0.8960 0.8960 0.8960
1233.788021 0.8960 0.8960 0.8960 0.8960 0.8960
1240.544808 0.8960 0.8960 0.8960 0.8960 0.8960
1247.301596 0.8960 0.8940 0.8940 0.8930 0.8930
1254.058384 0.8910 0.8910 0.8910 0.8890 0.8890
1260.815172 0.8890 0.8880 0.8880 0.8860 0.8840
1267.571960 0.8840 0.8830 0.8770 0.8760 0.8740
1274.328747 0.8740 0.8720 0.8710 0.8670 0.8640
1281.085535 0.8610 0.8540 0.8520 0.8420 0.8350
1287.842323 0.8220 0.8130 0.7930 0.7910 0.7890
1294.599111 0.7880 0.7840 0.7810 0.7720 0.7640
1301.355899 0.7519 0.7319 0.7079 0.6720 0.6540
1308.112686 0.6350 0.6130 0.6130 0.6369 0.6520
1314.869474 0.6571 0.6861 0.7080 0.7270 0.7420
1321.626262 0.7540 0.7550 0.7590 0.7610 0.7620
1328.383050 0.7620 0.7620 0.7620 0.7640 0.7660
1335.139838 0.7710 0.7760 0.7840 0.7880 0.8000
1341.896626 0.8030 0.8060 0.8110 0.8130 0.8160
1348.653413 0.8220 0.8230 0.8230 0.8250 0.8250
1355.410201 0.8250 0.8270 0.8270 0.8270 0.8270
1362.166989 0.8270 0.8270 0.8270 0.8270 0.8270
1368.923777 0.8250 0.8250 0.8230 0.8220 0.8200
1375.680565 0.8160 0.8130 0.8100 0.8030 0.8010
1382.437352 0.7910 0.7830 0.7770 0.7710 0.7620
1389.194140 0.7490 0.7380 0.7350 0.7130 0.6980
1395.950928 0.6840 0.6709 0.6439 0.6200 0.5980
1402.707716 0.5760 0.5320 0.5150 0.5130 0.5150
1409.464504 0.5200 0.5250 0.5300 0.5350 0.5380
1416.221291 0.5380 0.5400 0.5440 0.5450 0.5490
1422.978079 0.5540 0.5590 0.5610 0.5610 0.5330
1429.734867 0.5160 0.5000 0.4830 0.4621 0.4421
1436.491655 0.4421 0.4590 0.4761 0.5100 0.5450
1443.248443 0.5610 0.5760 0.5830 0.6349 0.6788
1450.005231 0.7131 0.7351 0.7570 0.7770 0.7890
1456.762018 0.8030 0.8150 0.8220 0.8280 0.8330
1463.518806 0.8380 0.8400 0.8440 0.8470 0.8500
1470.275594 0.8520 0.8550 0.8610 0.8620 0.8640
1477.032382 0.8660 0.8670 0.8670 0.8690 0.8690
1483.789170 0.8690 0.8710 0.8710 0.8710 0.8720
1490.545957 0.8740 0.8760 0.8760 0.8770 0.8770
1497.302745 0.8790 0.8790 0.8810 0.8810 0.8810
1504.059533 0.8810 0.8790 0.8810 0.8810 0.8810
1510.816321 0.8830 0.8830 0.8830 0.8840 0.8840
1517.573109 0.8840 0.8840 0.8840 0.8840 0.8840
1524.329896 0.8840 0.8840 0.8840 0.8840 0.8840
1531.086684 0.8840 0.8840 0.8840 0.8840 0.8840
1537.843472 0.8840 0.8860 0.8860 0.8860 0.8860
1544.600260 0.8860 0.8860 0.8860 0.8840 0.8840
1551.357048 0.8840 0.8840 0.8840 0.8840 0.8840
1558.113836 0.8840 0.8840 0.8840 0.8840 0.8840
1564.870623 0.8840 0.8830 0.8810 0.8790 0.8790
1571.627411 0.8770 0.8760 0.8760 0.8760 0.8760
1578.384199 0.8760 0.8740 0.8740 0.8740 0.8740
1585.140987 0.8740 0.8720 0.8720 0.8720 0.8710
1591.897775 0.8710 0.8710 0.8710 0.8710 0.8710
1598.654562 0.8710 0.8710 0.8710 0.8690 0.8690
1605.411350 0.8670 0.8670 0.8660 0.8660 0.8660
1612.168138 0.8660 0.8640 0.8640 0.8640 0.8640
1618.924926 0.8640 0.8640 0.8640 0.8640 0.8620
1625.681714 0.8620 0.8620 0.8620 0.8620 0.8620
1632.438501 0.8620 0.8620 0.8620 0.8640 0.8640
1639.195289 0.8620 0.8620 0.8610 0.8610 0.8610
1645.952077 0.8610 0.8620 0.8610 0.8610 0.8610
1652.708865 0.8610 0.8620 0.8620 0.8620 0.8620
1659.465653 0.8620 0.8620 0.8620 0.8620 0.8620
1666.222440 0.8620 0.8620 0.8620 0.8640 0.8660
1672.979228 0.8670 0.8690 0.8690 0.8710 0.8710
1679.736016 0.8710 0.8710 0.8710 0.8720 0.8720
1686.492804 0.8720 0.8740 0.8740 0.8760 0.8760
1693.249592 0.8760 0.8760 0.8770 0.8770 0.8790
1700.006380 0.8790 0.8790 0.8790 0.8810 0.8810
1706.763167 0.8830 0.8830 0.8830 0.8830 0.8830
1713.519955 0.8840 0.8840 0.8840 0.8840 0.8840
1720.276743 0.8840 0.8840 0.8840 0.8840 0.8860
1727.033531 0.8860 0.8860 0.8860 0.8880 0.8880
1733.790319 0.8880 0.8880 0.8880 0.8860 0.8860
1740.547106 0.8860 0.8860 0.8860 0.8880 0.8890
1747.303894 0.8890 0.8890 0.8910 0.8910 0.8910
1754.060682 0.8910 0.8890 0.8890 0.8890 0.8890
1760.817470 0.8890 0.8910 0.8930 0.8930 0.8930
1767.574258 0.8940 0.8940 0.8930 0.8930 0.8940
1774.331045 0.8940 0.8940 0.8940 0.8940 0.8940
1781.087833 0.8940 0.8940 0.8940 0.8940 0.8940
1787.844621 0.8940 0.8940 0.8940 0.8940 0.8940
1794.601409 0.8930 0.8930 0.8930 0.8930 0.8930
1801.358197 0.8930 0.8930 0.8940 0.8940 0.8940
1808.114985 0.8940 0.8930 0.8930 0.8930 0.8930
1814.871772 0.8930 0.8930 0.8930 0.8930 0.8940
1821.628560 0.8930 0.8930 0.8930 0.8930 0.8930
1828.385348 0.8930 0.8930 0.8930 0.8930 0.8930
1835.142136 0.8930 0.8930 0.8930 0.8930 0.8930
1841.898924 0.8930 0.8930 0.8930 0.8930 0.8930
1848.655711 0.8930 0.8930 0.8930 0.8930 0.8930
1855.412499 0.8930 0.8930 0.8930 0.8930 0.8910
1862.169287 0.8910 0.8910 0.8910 0.8910 0.8910
1868.926075 0.8910 0.8910 0.8910 0.8910 0.8910
1875.682863 0.8910 0.8890 0.8890 0.8890 0.8880
1882.439650 0.8880 0.8860 0.8860 0.8860 0.8860
1889.196438 0.8860 0.8840 0.8840 0.8840 0.8840
1895.953226 0.8840 0.8840 0.8830 0.8830 0.8830
1902.710014 0.8830 0.8830 0.8830 0.8830 0.8830
1909.466802 0.8830 0.8830 0.8830 0.8830 0.8830
1916.223590 0.8830 0.8830 0.8840 0.8840 0.8840
1922.980377 0.8840 0.8840 0.8840 0.8840 0.8840
1929.737165 0.8840 0.8830 0.8830 0.8830 0.8830
1936.493953 0.8830 0.8810 0.8790 0.8790 0.8790
1943.250741 0.8770 0.8760 0.8720 0.8720 0.8710
1950.007529 0.8710 0.8690 0.8690 0.8690 0.8690
1956.764316 0.8690 0.8690 0.8690 0.8690 0.8690
1963.521104 0.8690 0.8690 0.8690 0.8690 0.8690
1970.277892 0.8690 0.8690 0.8690 0.8670 0.8670
1977.034680 0.8660 0.8660 0.8620 0.8620 0.8610
1983.791468 0.8610 0.8610 0.8610 0.8610 0.8610
1990.548255 0.8590 0.8590 0.8590 0.8590 0.8590
1997.305043 0.8590 0.8610 0.8620 0.8630 0.8640
2004.061831 0.8650 0.8660 0.8660 0.8660 0.8665
2010.818619 0.8670 0.8680 0.8690 0.8700 0.8710
2017.575407 0.8715 0.8720 0.8740 0.8760 0.8775
2024.332195 0.8790 0.8800 0.8810 0.8820 0.8830
2031.088982 0.8835 0.8840 0.8850 0.8860 0.8860
2037.845770 0.8860 0.8860 0.8860 0.8860 0.8860
2044.602558 0.8850 0.8840 0.8840 0.8840 0.8835
2051.359346 0.8830 0.8830 0.8830 0.8820 0.8810
2058.116134 0.8800 0.8790 0.8775 0.8760 0.8760
2064.872921 0.8760 0.8750 0.8740 0.8730 0.8720
2071.629709 0.8720 0.8720 0.8715 0.8710 0.8710
2078.386497 0.8710 0.8700 0.8690 0.8690 0.8690
2085.143285 0.8690 0.8690 0.8690 0.8690 0.8690
2091.900073 0.8690 0.8690 0.8690 0.8690 0.8690
2098.656860 0.8700 0.8710 0.8710 0.8710 0.8710
2105.413648 0.8710 0.8710 0.8710 0.8715 0.8720
2112.170436 0.8740 0.8760 0.8765 0.8770 0.8780
2118.927224 0.8790 0.8800 0.8810 0.8820 0.8830
2125.684012 0.8835 0.8840 0.8850 0.8860 0.8870
2132.440800 0.8880 0.8885 0.8890 0.8890 0.8890
2139.197587 0.8900 0.8910 0.8910 0.8910 0.8910
2145.954375 0.8910 0.8910 0.8910 0.8910 0.8910
2152.711163 0.8910 0.8910 0.8910 0.8910 0.8910
2159.467951 0.8910 0.8900 0.8890 0.8890 0.8890
2166.224739 0.8885 0.8880 0.8880 0.8880 0.8870
2172.981526 0.8860 0.8850 0.8840 0.8840 0.8840
2179.738314 0.8835 0.8830 0.8830 0.8830 0.8820
2186.495102 0.8810 0.8810 0.8810 0.8810 0.8810
2193.251890 0.8810 0.8810 0.8810 0.8810 0.8810
2200.008678 0.8810 0.8800 0.8790 0.8780 0.8770
2206.765465 0.8765 0.8760 0.8760 0.8760 0.8760
2213.522253 0.8760 0.8760 0.8760 0.8760 0.8760
2220.279041 0.8760 0.8760 0.8760 0.8760 0.8765
2227.035829 0.8770 0.8770 0.8770 0.8780 0.8790
2233.792617 0.8790 0.8790 0.8790 0.8790 0.8790
2240.549405 0.8790 0.8790 0.8790 0.8790 0.8790
2247.306192 0.8780 0.8770 0.8765 0.8760 0.8760
2254.062980 0.8760 0.8760 0.8760 0.8760 0.8760
2260.819768 0.8760 0.8760 0.8760 0.8760 0.8760
2267.576556 0.8760 0.8760 0.8760 0.8760 0.8760
2274.333344 0.8765 0.8770 0.8770 0.8770 0.8770
2281.090131 0.8770 0.8780 0.8790 0.8780 0.8770
2287.846919 0.8770 0.8770 0.8770 0.8770 0.8765
2294.603707 0.8760 0.8760 0.8760 0.8760 0.8760
2301.360495 0.8765 0.8770 0.8790 0.8810 0.8820
2308.117283 0.8830 0.8830 0.8830 0.8830 0.8830
2314.874070 0.8830 0.8830 0.8835 0.8840 0.8840
2321.630858 0.8840 0.8840 0.8840 0.8840 0.8840
2328.387646 0.8850 0.8860 0.8860 0.8860 0.8870
2335.144434 0.8880 0.8880 0.8880 0.8880 0.8880
2341.901222 0.8880 0.8880 0.8880 0.8880 0.8885
2348.658009 0.8890 0.8900 0.8910 0.8925 0.8940
2355.414797 0.8940 0.8940 0.8935 0.8930 0.8910
2362.171585 0.8890 0.8875 0.8860 0.8845 0.8830
2368.928373 0.8830 0.8830 0.8830 0.8830 0.8830
2375.685161 0.8830 0.8830 0.8830 0.8830 0.8830
2382.441949 0.8830 0.8830 0.8830 0.8830 0.8830
2389.198736 0.8830 0.8830 0.8830 0.8830 0.8830
2395.955524 0.8830 0.8830 0.8830 0.8830 0.8820
2402.712312 0.8810 0.8810 0.8810 0.8810 0.8810
2409.469100 0.8810 0.8810 0.8810 0.8810 0.8810
2416.225888 0.8810 0.8810 0.8810 0.8810 0.8810
2422.982675 0.8810 0.8810 0.8810 0.8810 0.8810
2429.739463 0.8810 0.8810 0.8810 0.8810 0.8810
2436.496251 0.8810 0.8810 0.8810 0.8810 0.8810
2443.253039 0.8810 0.8810 0.8810 0.8810 0.8810
2450.009827 0.8810 0.8810 0.8810 0.8810 0.8810
2456.766614 0.8810 0.8810 0.8810 0.8810 0.8810
2463.523402 0.8810 0.8810 0.8820 0.8830 0.8830
2470.280190 0.8830 0.8830 0.8830 0.8830 0.8830
2477.036978 0.8820 0.8810 0.8810 0.8810 0.8820
2483.793766 0.8830 0.8830 0.8830 0.8830 0.8830
2490.550554 0.8820 0.8810 0.8810 0.8810 0.8810
2497.307341 0.8810 0.8800 0.8790 0.8790 0.8790
2504.064129 0.8790 0.8790 0.8800 0.8810 0.8810
2510.820917 0.8810 0.8810 0.8810 0.8810 0.8810
2517.577705 0.8810 0.8810 0.8810 0.8810 0.8810
2524.334493 0.8810 0.8810 0.8810 0.8810 0.8810
2531.091280 0.8810 0.8810 0.8810 0.8810 0.8800
2537.848068 0.8790 0.8780 0.8770 0.8765 0.8760
2544.604856 0.8760 0.8760 0.8760 0.8760 0.8750
2551.361644 0.8740 0.8740 0.8740 0.8740 0.8740
2558.118432 0.8730 0.8720 0.8720 0.8720 0.8720
2564.875219 0.8720 0.8715 0.8710 0.8700 0.8690
2571.632007 0.8690 0.8690 0.8690 0.8690 0.8690
2578.388795 0.8690 0.8690 0.8690 0.8690 0.8690
2585.145583 0.8690 0.8690 0.8690 0.8690 0.8690
2591.902371 0.8690 0.8690 0.8690 0.8700 0.8710
2598.659159 0.8715 0.8720 0.8720 0.8720 0.8715
2605.415946 0.8710 0.8710 0.8710 0.8710 0.8710
2612.172734 0.8710 0.8710 0.8710 0.8710 0.8710
2618.929522 0.8710 0.8710 0.8710 0.8710 0.8710
2625.686310 0.8710 0.8710 0.8710 0.8710 0.8710
2632.443098 0.8710 0.8710 0.8710 0.8710 0.8710
2639.199885 0.8710 0.8710 0.8710 0.8710 0.8710
2645.956673 0.8710 0.8710 0.8710 0.8710 0.8710
2652.713461 0.8710 0.8710 0.8710 0.8710 0.8710
2659.470249 0.8710 0.8710 0.8710 0.8700 0.8690
2666.227037 0.8690 0.8690 0.8690 0.8690 0.8690
2672.983824 0.8690 0.8680 0.8670 0.8670 0.8670
2679.740612 0.8670 0.8670 0.8670 0.8670 0.8670
2686.497400 0.8670 0.8665 0.8660 0.8660 0.8660
2693.254188 0.8660 0.8660 0.8665 0.8670 0.8670
2700.010976 0.8670 0.8665 0.8660 0.8660 0.8660
2706.767764 0.8660 0.8660 0.8660 0.8660 0.8660
2713.524551 0.8660 0.8660 0.8660 0.8650 0.8640
2720.281339 0.8640 0.8640 0.8640 0.8640 0.8640
2727.038127 0.8640 0.8640 0.8640 0.8630 0.8620
2733.794915 0.8620 0.8620 0.8620 0.8620 0.8615
2740.551703 0.8610 0.8610 0.8610 0.8610 0.8610
2747.308490 0.8610 0.8610 0.8610 0.8610 0.8610
2754.065278 0.8610 0.8610 0.8610 0.8600 0.8590
2760.822066 0.8580 0.8570 0.8560 0.8550 0.8545
2767.578854 0.8540 0.8540 0.8540 0.8530 0.8520
2774.335642 0.8520 0.8520 0.8510 0.8500 0.8500
2781.092429 0.8500 0.8500 0.8500 0.8475 0.8450
2787.849217 0.8445 0.8440 0.8420 0.8400 0.8385
2794.606005 0.8370 0.8350 0.8330 0.8305 0.8280
2801.362793 0.8255 0.8230 0.8225 0.8220 0.8200
2808.119581 0.8180 0.8170 0.8160 0.8160 0.8160
2814.876369 0.8155 0.8150 0.8140 0.8130 0.8120
2821.633156 0.8110 0.8110 0.8110 0.8110 0.8110
2828.389944 0.8110 0.8110 0.8110 0.8110 0.8105
2835.146732 0.8100 0.8100 0.8100 0.8080 0.8060
2841.903520 0.8055 0.8050 0.8040 0.8030 0.8030
2848.660308 0.8030 0.8020 0.8010 0.8010 0.8010
2855.417095 0.8010 0.8010 0.7975 0.7940 0.7935
2862.173883 0.7930 0.7920 0.7910 0.7900 0.7890
2868.930671 0.7885 0.7880 0.7860 0.7840 0.7825
2875.687459 0.7810 0.7790 0.7770 0.7740 0.7710
2882.444247 0.7675 0.7640 0.7615 0.7590 0.7546
2889.201034 0.7501 0.7440 0.7380 0.7340 0.7299
2895.957822 0.7200 0.7100 0.6995 0.6890 0.6775
2902.714610 0.6660 0.6516 0.6371 0.6176 0.5982
2909.471398 0.5787 0.5592 0.5580 0.5570 0.5747
2916.228186 0.5927 0.6015 0.6103 0.6473 0.6841
2922.984974 0.6976 0.7110 0.7220 0.7330 0.7400
2929.741761 0.7470 0.7485 0.7500 0.7520 0.7540
2936.498549 0.7540 0.7540 0.7545 0.7550 0.7550
2943.255337 0.7550 0.7545 0.7540 0.7540 0.7540
2950.012125 0.7530 0.7520 0.7510 0.7500 0.7475
2956.768913 0.7450 0.7445 0.7440 0.7410 0.7380
2963.525700 0.7326 0.7271 0.7211 0.7151 0.7106
2970.282488 0.7061 0.6995 0.6929 0.6849 0.6769
2977.039276 0.6670 0.6570 0.6495 0.6420 0.6290
2983.796064 0.6160 0.5996 0.5831 0.5577 0.5322
2990.552852 0.5310 0.5300 0.5310 0.5320 0.5379
2997.309639 0.5439 0.5515 0.5591 0.5656 0.5721
3004.066427 0.5901 0.6081 0.6275 0.6470 0.6555
3010.823215 0.6640 0.6765 0.6889 0.6974 0.7059
3017.580003 0.7144 0.7229 0.7304 0.7379 0.7439
3024.336791 0.7499 0.7525 0.7550 0.7580 0.7610
3031.093578 0.7635 0.7660 0.7685 0.7710 0.7725
3037.850366 0.7740 0.7750 0.7760 0.7785 0.7810
3044.607154 0.7820 0.7830 0.7845 0.7860 0.7885
3051.363942 0.7910 0.7935 0.7960 0.7970 0.7980
3058.120730 0.7990 0.8000 0.8005 0.8010 0.8010
3064.877518 0.8010 0.8010 0.8010 0.8020 0.8030
3071.634305 0.8040 0.8050 0.8055 0.8060 0.8070
3078.391093 0.8080 0.8095 0.8110 0.8130 0.8150
3085.147881 0.8155 0.8160 0.8170 0.8180 0.8180
3091.904669 0.8180 0.8190 0.8200 0.8210 0.8220
3098.661457 0.8225 0.8230 0.8240 0.8250 0.8260
3105.418244 0.8270 0.8275 0.8280 0.8300 0.8320
3112.175032 0.8325 0.8330 0.8340 0.8350 0.8360
3118.931820 0.8370 0.8370 0.8370 0.8375 0.8380
3125.688608 0.8390 0.8400 0.8400 0.8400 0.8400
3132.445396 0.8400 0.8410 0.8420 0.8420 0.8420
3139.202183 0.8420 0.8420 0.8420 0.8420 0.8420
3145.958971 0.8420 0.8420 0.8420 0.8430 0.8440
3152.715759 0.8440 0.8440 0.8440 0.8440 0.8440
3159.472547 0.8440 0.8440 0.8440 0.8440 0.8440
3166.229335 0.8440 0.8440 0.8440 0.8440 0.8440
3172.986123 0.8440 0.8440 0.8440 0.8440 0.8440
3179.742910 0.8440 0.8440 0.8440 0.8440 0.8430
3186.499698 0.8420 0.8420 0.8420 0.8420 0.8420
3193.256486 0.8420 0.8420 0.8420 0.8420 0.8420
3200.013274 0.8420 0.8420 0.8420 0.8410 0.8400
3206.770062 0.8400 0.8400 0.8400 0.8400 0.8400
3213.526849 0.8400 0.8390 0.8380 0.8380 0.8380
3220.283637 0.8380 0.8380 0.8380 0.8380 0.8375
3227.040425 0.8370 0.8370 0.8370 0.8370 0.8370
3233.797213 0.8370 0.8370 0.8370 0.8370 0.8370
3240.554001 0.8370 0.8370 0.8370 0.8370 0.8370
3247.310788 0.8370 0.8370 0.8375 0.8380 0.8380
3254.067576 0.8380 0.8380 0.8380 0.8380 0.8380
3260.824364 0.8375 0.8370 0.8370 0.8370 0.8370
3267.581152 0.8370 0.8360 0.8350 0.8350 0.8350
3274.337940 0.8340 0.8330 0.8330 0.8330 0.8325
3281.094728 0.8320 0.8320 0.8320 0.8320 0.8320
3287.851515 0.8310 0.8300 0.8300 0.8300 0.8300
3294.608303 0.8300 0.8300 0.8300 0.8290 0.8280
3301.365091 0.8280 0.8280 0.8290 0.8300 0.8300
3308.121879 0.8300 0.8300 0.8300 0.8300 0.8300
3314.878667 0.8300 0.8300 0.8300 0.8300 0.8300
3321.635454 0.8300 0.8310 0.8320 0.8320 0.8320
3328.392242 0.8320 0.8320 0.8320 0.8320 0.8320
3335.149030 0.8320 0.8320 0.8320 0.8320 0.8320
3341.905818 0.8320 0.8320 0.8320 0.8320 0.8320
3348.662606 0.8320 0.8310 0.8300 0.8290 0.8280
3355.419393 0.8275 0.8270 0.8270 0.8270 0.8270
3362.176181 0.8270 0.8260 0.8250 0.8250 0.8250
3368.932969 0.8250 0.8250 0.8240 0.8230 0.8230
3375.689757 0.8230 0.8230 0.8230 0.8230 0.8230
3382.446545 0.8225 0.8220 0.8220 0.8220 0.8220
3389.203333 0.8220 0.8220 0.8220 0.8210 0.8200
3395.960120 0.8200 0.8200 0.8190 0.8180 0.8170
3402.716908 0.8160 0.8155 0.8150 0.8150 0.8150
3409.473696 0.8150 0.8150 0.8140 0.8130 0.8130
3416.230484 0.8130 0.8130 0.8130 0.8130 0.8130
3422.987272 0.8130 0.8130 0.8130 0.8130 0.8130
3429.744059 0.8130 0.8130 0.8130 0.8130 0.8130
3436.500847 0.8130 0.8130 0.8130 0.8130 0.8130
3443.257635 0.8130 0.8130 0.8130 0.8130 0.8130
3450.014423 0.8130 0.8130 0.8130 0.8130 0.8130
3456.771211 0.8130 0.8130 0.8130 0.8130 0.8130
3463.527998 0.8130 0.8130 0.8130 0.8130 0.8130
3470.284786 0.8130 0.8130 0.8130 0.8140 0.8150
3477.041574 0.8150 0.8150 0.8150 0.8150 0.8155
3483.798362 0.8160 0.8160 0.8160 0.8160 0.8160
3490.555150 0.8160 0.8160 0.8170 0.8180 0.8180
3497.311938 0.8180 0.8180 0.8180 0.8190 0.8200
3504.068725 0.8210 0.8220 0.8220 0.8220 0.8220
3510.825513 0.8220 0.8225 0.8230 0.8230 0.8230
3517.582301 0.8240 0.8250 0.8260 0.8270 0.8285
3524.339089 0.8300 0.8310 0.8320 0.8320 0.8320
3531.095877 0.8325 0.8330 0.8340 0.8350 0.8360
3537.852664 0.8370 0.8375 0.8380 0.8390 0.8400
3544.609452 0.8400 0.8400 0.8410 0.8420 0.8420
3551.366240 0.8420 0.8430 0.8440 0.8445 0.8450
3558.123028 0.8450 0.8450 0.8470 0.8490 0.8495
3564.879816 0.8500 0.8500 0.8500 0.8500 0.8500
3571.636603 0.8500 0.8500 0.8500 0.8500 0.8510
3578.393391 0.8520 0.8535 0.8550 0.8560 0.8570
3585.150179 0.8580 0.8590 0.8590 0.8590 0.8590
3591.906967 0.8590 0.8590 0.8590 0.8600 0.8610
3598.663755 0.8610 0.8610 0.8615 0.8620 0.8620
3605.420543 0.8620 0.8630 0.8640 0.8640 0.8640
3612.177330 0.8650 0.8660 0.8660 0.8660 0.8660
3618.934118 0.8660 0.8660 0.8660 0.8665 0.8670
3625.690906 0.8670 0.8670 0.8670 0.8670 0.8670
3632.447694 0.8670 0.8680 0.8690 0.8690 0.8690
3639.204482 0.8700 0.8710 0.8715 0.8720 0.8730
3645.961269 0.8740 0.8730 0.8720 0.8705 0.8690
3652.718057 0.8680 0.8670 0.8670 0.8670 0.8680
3659.474845 0.8690 0.8700 0.8710 0.8710 0.8710
3666.231633 0.8715 0.8720 0.8720 0.8720 0.8715
3672.988421 0.8710 0.8700 0.8690 0.8690 0.8690
3679.745208 0.8680 0.8670 0.8670 0.8670 0.8670
3686.501996 0.8670 0.8665 0.8660 0.8660 0.8660
3693.258784 0.8660 0.8660 0.8665 0.8670 0.8680
3700.015572 0.8690 0.8690 0.8690 0.8690 0.8690
3706.772360 0.8700 0.8710 0.8700 0.8690 0.8690
3713.529147 0.8690 0.8700 0.8710 0.8710 0.8710
3720.285935 0.8715 0.8720 0.8720 0.8720 0.8720
3727.042723 0.8720 0.8730 0.8740 0.8740 0.8740
3733.799511 0.8730 0.8720 0.8720 0.8720 0.8720
3740.556299 0.8720 0.8720 0.8720 0.8715 0.8710
3747.313087 0.8700 0.8690 0.8680 0.8670 0.8665
3754.069874 0.8660 0.8660 0.8660 0.8660 0.8660
3760.826662 0.8640 0.8620 0.8620 0.8620 0.8620
3767.583450 0.8620 0.8615 0.8610 0.8610 0.8610
3774.340238 0.8610 0.8610 0.8600 0.8590 0.8580
3781.097026 0.8570 0.8570 0.8570 0.8560 0.8550
3787.853813 0.8550 0.8550 0.8550 0.8550 0.8550
3794.610601 0.8550 0.8545 0.8540 0.8540 0.8540
3801.367389 0.8540 0.8540 0.8530 0.8520 0.8510
3808.124177 0.8500 0.8500 0.8500 0.8500 0.8500
3814.880965 0.8495 0.8490 0.8490 0.8490 0.8490
3821.637752 0.8490 0.8480 0.8470 0.8470 0.8470
3828.394540 0.8460 0.8450 0.8450 0.8450 0.8450
3835.151328 0.8450 0.8450 0.8450 0.8445 0.8440
3841.908116 0.8440 0.8440 0.8440 0.8440 0.8440
3848.664904 0.8440 0.8440 0.8440 0.8440 0.8440
3855.421692 0.8440 0.8440 0.8445 0.8450 0.8450
3862.178479 0.8450 0.8450 0.8450 0.8450 0.8450
3868.935267 0.8450 0.8450 0.8450 0.8450 0.8450
3875.692055 0.8450 0.8450 0.8450 0.8450 0.8450
3882.448843 0.8450 0.8450 0.8450 0.8450 0.8450
3889.205631 0.8450 0.8450 0.8450 0.8450 0.8450
3895.962418 0.8450
##END=
