##TITLE=Chloroform
##JCAMP-DX=4.24
##DATA TYPE=INFRARED SPECTRUM
##CLASS=IUPAC A
##ORIGIN=NIST, Analytical Chemistry Division, 301-975-3108
##OWNER=COPYRIGHT (C) 2000 by the U.S. Secretary of Commerce
##DATE=00/02/01
##$SPECTRA VERSION=1.10
##$UNCERTAINTY IN Y=2.2 % relative (B=1.2E-04,C=3.2E-09,D=1.1E-13)
##CAS NAME=Chloroform
##CAS REGISTRY NO=67-66-3
##MOLFORM=C H Cl3
##MP=-63.5 C
##BP=61.7 C
##$NIST SOURCE=QUANT-IR
##SPECTROMETER/DATA SYSTEM=IFS66V (Bruker)
##INSTRUMENT PARAMETERS=KBr Beam Splitter; MCT Detector; Multipass cell
##STATE=gas
##SAMPLE DESCRIPTION=Chloroform Primary Gas Standard
##PRESSURE=101.3 Pa
##TEMPERATURE=23 C
##SAMPLING PROCEDURE=1 L/min Flow
##RESOLUTION=0.9640
##DATA PROCESSING=3-Term B-H Apodization
##XUNITS=cm-1
##YUNITS=(micromol/mol)-1m-1 (base 10)
##XFACTOR=1.0
##YFACTOR=3.6379E-12
##DELTAX=0.4820
##FIRSTX=575.17
##LASTX=3974.605
##FIRSTY=-2.37E-06
##MAXX=3974.12
##MINX=575.17
##MAXY=.0027786
##MINY=-5.50E-06
##NPOINTS=7052
##XYDATA=(X++(Y..Y))
575.17-653168-381121 148378 296118-29013-306987
577.58-186779 143252 250687 136825 44169 204542
580.47 344080 159062 26523-64999-244007-301901
583.37-185800-65099-110438-200904-219043-246675
586.26-171739-155412-330253-341483-145257 82998
589.15 163201 58884-2844-7680-11048-3687
592.04-102007-197433-126649-20043-19693-36959
594.94 10156 42691 31680-10399-35882-52074
597.83-43778 89614 152604 56332 48103 65382
600.72 80278 158357 193893 244022 337835 352547
603.62 310375 240585 194918 181243 160413 148454
606.51 162133 220700 262017 220599 209124 291664
609.40 342272 380930 424476 451882 439454 392449
612.29 354624 315025 279690 359631 535833 592304
615.19 561239 608061 668989 568636 417639 353748
618.08 342029 291544 256646 369179 605170 923314
620.97 1286420 1442758 1100101 564466 311854 259493
623.86 206562 242328 426300 750201 1168773 1461695
626.76 1358286 866442 478942 453306 465872 378064
629.65 278574 279854 420116 502552 500815 552957
632.54 609164 553598 489817 493990 531253 553058
635.44 540170 551314 579688 550950 510790 495442
638.33 473888 462991 466421 441389 423880 422386
641.22 396186 336629 275606 233749 214005 200015
644.11 153460 84949 80206 133907 158698 110977
647.01 90611 123647 118931 93149 78129 100095
649.90 151335 178991 245111 289894 225354 199255
652.79 268954 339872 345158 298888 294868 395214
655.68 510528 529270 492467 557513 713167 736469
658.58 683193 738678 870658 1004282 1062345 1028227
661.47 1074594 1250177 1394964 1471967 1584340 1697600
664.36 1769362 1879658 1989342 2053645 2282454 2806297
667.26 3282450 3432254 3537931 3911363 4605633 5494089
670.15 6521131 7745616 9205921 11023406 13076286 14764499
673.04 15995956 17183269 17372214 15651072 13724368 12114596
675.93 8809823 4824556 3037091 3131826 3709567 4396096
678.83 5114350 5876975 6625612 7360967 8151020 8942806
681.72 9648918 10305234 10964585 11508116 11838695 12042626
684.61 12196188 12239521 12168369 11979197 11616945 11144432
687.50 10632073 10020248 9288211 8489826 7708704 6998979
690.40 6275731 5520601 4826554 4190556 3631713 3140477
693.29 2615665 2121846 1767160 1501443 1277044 1078476
696.18 908459 752536 645621 558061 446006 380052
699.08 341145 266046 184396 159421 154854 85746
701.97 30788 57559 77243 63208 60053 36559
704.86-1550 12650 35505 12308 22845 30648
707.75 9948 20910 34840 42915 29061-37938
710.65-45169 17546 49152 28269 13456 36467
713.54 73856 104081 122476 105424 93851 75017
716.43 31219 34553 73487 96550 113038 130359
719.32 152019 151252 116498 119635 183593 222902
722.22 230476 238581 267973 318096 345670 342632
725.11 358787 399998 443179 494828 582615 685835
728.00 753521 788740 857908 986630 1092018 1150636
730.90 1247805 1359110 1467207 1607487 1771504 1929938
733.79 2114576 2304685 2515815 2797496 3099523 3389458
736.68 3720529 4107340 4503993 4896171 5330382 5814326
739.57 6379293 6999066 7640866 8330642 9092329 9920550
742.47 10792390 11692131 12690674 13840052 15067014 16291658
745.36 17573122 18953915 20414265 21930736 23498328 25159033
748.25 26997953 28922528 30904852 33059131 35421402 38104645
751.14 41256037 44505365 47881383 51860553 56054490 60050607
754.04 64197088 68829480 74095762 79913655 86222723 93028363
756.93 100290484 108424992 117834401 127922208 138799093 151470718
759.82 165006893 178726032 194571933 212551163 231356036 251363315
762.72 273166834 297030944 323006424 350762048 379991582 410999047
765.61 443937613 477979036 512837032 547913153 582643044 616765001
768.50 649258657 679225281 705606498 726783954 741468008 752530901
771.39 761840766 763781997 760060489 750359975 726241387 704766969
774.29 711703354 714959211 690548617 684779843 688225007 648892739
777.18 581925058 518695866 463521001 414634334 371182320 332460007
780.07 297610792 266422154 238599072 213586513 191130558 170854433
782.96 152709782 136680036 122402228 109669309 98331642 88217125
785.86 79182660 71106468 63864574 57427383 51735811 46704427
788.75 42163291 38081251 34502989 31333289 28493872 26019810
791.64 23875188 21988458 20286988 18739106 17273110 15869584
794.54 14597718 13432298 12288569 11180614 10198169 9292656
797.43 8310406 7314480 6359418 5556881 4986742 4555446
800.32 4129901 3653786 3154891 2733926 2417534 2147411
803.21 1901994 1703608 1550920 1400732 1219538 1080386
806.11 980496 872409 786364 693562 569187 504364
809.00 503457 472522 416218 397653 370938 300929
811.89 220413 182820 181138 158953 129111 136925
814.78 133941 97990 76945 63264 48132 47323
817.68 35173 48373 120064 167226 122968 80711
820.57 66948 47067 22562-23920-73447-66779
823.46-15419 37089 51877 32669 29596 77630
826.36 101044 71910 44664 47501 79693 112261
829.25 127465 140998 143635 125279 95123 78441
832.14 114372 179847 207692 214045 244281 267353
835.03 256712 268435 313067 354134 385315 409314
837.93 403210 391501 388812 413004 464827 504145
840.82 499439 471909 461679 496324 531634 561462
843.71 597231 619398 661823 726008 763978 765953
846.60 752559 762023 785768 885136 1089205 1258097
849.50 1313104 1322955 1293161 1258024 1276081 1294981
852.39 1304393 1391045 1534134 1634232 1643754 1615905
855.28 1639840 1657515 1577013 1455880 1373710 1310101
858.18 1226773 1154555 1082945 961400 801842 670025
861.07 619587 616044 592346 538547 445099 334461
863.96 255693 220436 219469 236883 278185 331921
866.85 332965 276194 210769 166239 153204 161721
869.75 132323 95529 113555 153871 154221 128971
872.64 115462 99146 93699 94928 79651 90607
875.53 117526 118921 118686 129006 134769 132724
878.42 123906 104790 73254 56655 59256 52997
881.32 54549 79313 87243 60659 29098 22224
884.21 25415 25448 10509-36 7443 9411
887.10 14398 15381-2509-9802-6667-9669
889.99 6350 17785-10280-22112-11219-20733
892.89-36457-35555-20294-16504-30353-29892
895.78-17148-842 12016 9780 10392 7099
898.67 12752 30869 29261 29040 48490 67076
901.57 78199 80185 68195 59436 68030 110380
904.46 171067 197644 200654 218107 241914 268935
907.35 299054 321672 338010 370905 410459 443081
910.24 476383 514355 566576 647709 705680 698467
913.14 698079 759797 826213 853264 863924 899972
916.03 939043 952681 966106 1004716 1050580 1077288
918.92 1085460 1084751 1099673 1138019 1182044 1209190
921.81 1211917 1205938 1192866 1181907 1190431 1220513
924.71 1257482 1296017 1360439 1422236 1452060 1467276
927.60 1456076 1406937 1381683 1465646 1653770 1859311
930.49 1954853 1877103 1667963 1395778 1202535 1224050
933.39 1397574 1589673 1709092 1682773 1474413 1101089
936.28 752179 646838 680571 696518 726087 777275
939.17 817299 869092 923456 959652 993461 1028282
942.06 1056436 1062359 1037262 1001339 984915 980339
944.96 961178 938847 897196 834180 779984 720812
947.85 669551 641094 598984 555930 518597 468048
950.74 418637 380571 329570 284975 282237 288623
953.63 240928 170187 156940 171636 171715 164718
956.53 137405 108346 111468 129466 121960 95421
959.42 77747 82902 94918 77569 50737 44761
962.31 50744 65163 92706 104423 76173 39693
965.21 33601 46665 52013 47051 37512 25212
968.10 23281 38614 59111 67190 62053 61392
970.99 52009 32520 22381 20437 19389 9366
973.88-5282-9685-10289-19004-43508-65918
976.78-61583-43444-21205-12557-20104-31108
979.67-41007-43082-41632-55244-71791-61527
982.56-45054-32039-22256-23318-35224-67959
985.45-92702-83520-79484-91458-71376-54689
988.35-80667-95482-86138-79670-67493-47193
991.24-35457-35769-45171-68770-77912-56145
994.13-48120-65864-55482-26513-36701-52769
997.03-38931-35393-56715-72010-73350-55057
999.92-30897-13169 1515 5575-13441-44317
1002.81-53870-41888-32928-24965-24825-33205
1005.70-18729 23287 60993 69645 57311 46011
1008.60 36593 48645 86896 94057 74777 80644
1011.49 98491 115029 125201 128803 159242 190408
1014.38 198977 225202 262909 301581 338566 354445
1017.27 349013 346991 361152 381851 406202 427966
1020.17 456744 503858 546603 568400 560343 537408
1023.06 527679 531647 524866 534043 565058 570895
1025.95 561203 547970 534681 550617 576512 580273
1028.85 569783 562880 572055 588528 595471 595886
1031.74 597195 599570 590909 568133 543784 533980
1034.63 548140 553643 539912 543095 554332 536679
1037.52 496438 459162 421616 379186 353588 343144
1040.42 324574 303799 282692 238173 186289 159489
1043.31 139827 108989 78595 47137 7835-7744
1046.20-5067-19950-38069-31028-4581 16339
1049.09 6873-14342-19705-18063-15354-19101
1051.99-28561-20756-25225-39298-36524-41559
1054.88-36037-23525-31509-55537-77635-71156
1057.77-40856-25524-50820-75720-66948-50991
1060.67-46121-50412-53709-43725-36025-56769
1063.56-66315-44653-53937-100421-125893-108963
1066.45-92804-88047-87172-97201-82677-23985
1069.34 2564-45549-83014-66071-40123-38600
1072.24-57595-70761-59575-54983-76307-84140
1075.13-67633-56640-59232-66710-68951-59676
1078.02-48814-61918-82583-83096-86128-87772
1080.91-73504-62649-69344-83848-92333-99719
1083.81-98182-85520-77051-85312-100301-98632
1086.70-86404-79877-81276-80051-61712-62139
1089.59-77839-77347-70656-57465-38755-32071
1092.49-50681-72152-72536-75917-86791-77218
1095.38-65186-68096-75117-87899-106941-109757
1098.27-84961-75376-82250-57659-16035-15595
1101.16-58559-94016-110760-105977-84617-67568
1104.06-56434-45783-33001-37045-58962-75732
1106.95-89443-103180-87690-75297-96356-93729
1109.84-69327-77108-104947-104903-80521-69012
1112.73-55915-46405-65603-82974-74696-76989
1115.63-99742-93661-71720-86284-101751-83770
1118.52-70527-90716-103586-91126-72988-63811
1121.41-72700-89306-105603-102796-82666-56166
1124.31-35092-54229-88130-85451-58813-49364
1127.20-69527-86455-84137-75989-67259-52538
1130.09-51235-60031-60812-60066-67386-89105
1132.98-95507-79211-76438-73394-53232-58442
1135.88-83856-90746-76762-70717-81593-91279
1138.77-86543-62679-34030-27398-51715-95848
1141.66-105219-59075-21930-19919-40279-59035
1144.55-55745-54785-65267-64195-42624-31772
1147.45-49064-77621-96251-102361-90484-62286
1150.34-52985-67027-80077-92450-99339-90517
1153.23-71607-67823-77904-79500-79889-93663
1156.13-104253-78157-28083-21525-74784-109911
1159.02-107023-105544-103894-85739-49608-27846
1161.91-42650-55462-47138-55689-72949-83865
1164.80-77970-50199-45767-69251-71987-38957
1167.70-17851-29498-29639-25705-39117-46716
1170.59-51463-53068-47069-39271-32673-31204
1173.48-22409-3335 12808 6491 82 19413
1176.37 37701 41025 47640 48134 45216 63963
1179.27 95901 101942 102176 119555 133876 143572
1182.16 172865 203688 217689 238922 273486 305163
1185.05 335119 354117 376323 409360 453097 513065
1187.95 570365 613778 651476 685109 728289 756469
1190.84 752915 747156 769123 819335 872396 914523
1193.73 968551 1050466 1161580 1264397 1354960 1473582
1196.62 1637271 1820632 2018847 2250000 2508811 2783417
1199.52 3103130 3470867 3885600 4349919 4866922 5433989
1202.41 6064879 6766343 7538863 8384384 9314100 10309457
1205.30 11359849 12482565 13705144 15058526 16614173 18493382
1208.19 20743047 23148326 25533916 27997742 30675546 33602425
1211.09 36786384 40273817 44235137 48771831 53845055 59448752
1213.98 65616539 72360120 79764969 87876265 96686415 106420860
1216.87 117255856 128409888 138171738 144035552 143237167 138312240
1219.77 138259144 140805464 135416665 123852699 112096973 101396594
1222.66 91536999 82512991 74367635 67032538 60409121 54448673
1225.55 49094000 44286144 39935723 35995438 32454356 29280035
1228.44 26409229 23822811 21477663 19364883 17485700 15810985
1231.34 14307197 12961728 11726705 10581563 9546435 8636841
1234.23 7835026 7105892 6428895 5820622 5265312 4771034
1237.12 4321888 3889296 3504847 3186337 2895121 2638481
1240.01 2409947 2171968 1935623 1726036 1543107 1387363
1242.91 1241145 1112451 1006316 912828 820608 737771
1245.80 659456 586585 534751 490501 440469 398258
1248.69 360463 321975 289520 273698 246685 197663
1251.59 151331 126568 110220 101399 96121 80427
1254.48 59278 52363 57266 36310-2069-11655
1257.37-3949 258-6011-12165-24819-37082
1260.26-22124 737 3210-13680-54160-76383
1263.16-53509-29881-37153-61804-67755-63452
1266.05-69954-64399-58685-60571-57953-49696
1268.94-58971-70870-71290-74383-64713-41732
1271.83-40344-61901-63153-41056-38641-42617
1274.73-35245-35008-36641-40343-65412-90542
1277.62-100216-100711-85192-41772-13455-28937
1280.51-56239-60923-60594-75451-75525-55655
1283.41-57163-74822-80976-80347-76482-69122
1286.30-65833-61156-63833-59340-48165-55880
1289.19-64372-53590-45051-49333-51133-55515
1292.08-71545-79890-75168-75762-83399-82507
1294.98-73676-72757-87438-94704-89897-71228
1297.87-60657-78020-92141-79653-57559-47473
1300.76-48508-50466-52254-47228-48099-69211
1303.65-88915-94123-79587-49143-45018-65710
1306.55-86724-95483-92266-90932-91133-82298
1309.44-76420-76892-68503-50120-37129-32649
1312.33-44899-70921-87324-90051-94745-87317
1315.23-73025-73704-74305-73011-80960-86075
1318.12-89366-75106-43642-32576-45381-54934
1321.01-57846-64970-75829-71647-45642-27383
1323.90-29371-36034-41314-47506-54506-44569
1326.80-34162-37637-37809-22913-14903-21962
1329.69-17328-24736-42850-26151 1007 854
1332.58-11909-12200-8268-2527 5142 6285
1335.47 6879-51 1086 5890-31236-74322
1338.37-69526-40644-52951-86980-62538-6449
1341.26 14423 18360 32309 45319 47381 39927
1344.15 30355 28113 16248-8078-33750-53822
1347.05-46175-25911-30005-38529-37801-62866
1349.94-103957-121264-130208-149459-158823-170247
1352.83-178661-156615-99800-61073-89435-100562
1355.72-47099 4396-10565-48504-66738-54240
1358.62-44357-88684-142361-176695-189654-152377
1361.51-136651-192415-253154-219792-132954-109844
1364.40-120011-111133-104848-101012-83978-49916
1367.29-31123-53176-72757-84341-102835-100035
1370.19-79985-70641-76416-85841-97084-140353
1373.08-209239-210815-151137-114905-94279-69767
1375.97-44225-24290-34788-58308-58424-50737
1378.87-54948-65163-76175-64215-29838-20030
1381.76-38968-56023-51975-38709-43362-45108
1384.65-40710-47037-64174-112632-213203-276705
1387.54-195882-82507-20613-1379-20158-36891
1390.44-44241-53044-57612-58931-54753-55484
1393.33-134970-266698-246929-148311-149213-133357
1396.22-70687-56428-69819-72319-128322-194703
1399.11-151864-89717-67602-42790-21191-13241
1402.01-20107-19555 2891 13473-50476-138339
1404.90-110665-33586-13333-17504-16651-7169
1407.79-11798-33205-48719-50253-48017-39509
1410.69-29393-14699 15379 23332-6567-30955
1413.58-31855-19011-1344 11370 20274 28189
1416.47 2328-34245-24627-68121-299101-498251
1419.36-313991-8919 112904 162757 180017 163251
1422.26 146629 137838 143598 190257 261193 310327
1425.15 352536 394030 411557 417628 434057 466035
1428.04 514342 558759 553033 559296 654106 763222
1430.93 831530 893094 949336 989627 1046500 1129542
1433.83 1202756 1263947 1332762 1344166 1157204 1020934
1436.72 1309336 1704142 1882284 1964688 2047821 2132789
1439.61 2216032 2315109 2418335 2480909 2469198 2436365
1442.51 2467324 2585855 2715518 2712964 2547572 2378389
1445.40 2363350 2483819 2557887 2410622 2101879 1872607
1448.29 1787485 1810938 1849999 1746313 1534338 1325322
1451.18 1136037 971568 858156 771052 677743 569349
1454.08 458973 357475 262374-4721-528875-694340
1456.97-328115-116651-96376-26174 27556 67338
1459.86 96247 113372 121121 110581 91877 82696
1462.75 99698 109760 20026-136951-107496 82932
1465.65 192356 223647 239118 257823 287575 317107
1468.54 339110 356731 346724 324389 290324 114643
1471.43-97034-19791 68964-49656 17281 226366
1474.33 313238 303633 204640 140364 241441 359215
1477.22 393970 403496 400472 398884 402013 394506
1480.11 365569 322658 319460 354700 372628 355188
1483.00 335316 338501 351427 368280 362112 341166
1485.90 315970 221905 131937 176355 235854 197430
1488.79 99288 23639-1000-22197 25209 108744
1491.68 120255 100858 88137 80806 78564 71458
1494.57 27404-182426-513025-484959-161903-32694
1497.47-95791-224288-253167-114147-419 24840
1500.36 24416 12541 3344 14887 38133 57502
1503.25 55189 19884-140002-534459-747872-589883
1506.15-684119-783254-426705-136846-76183-8373
1509.04 27366 56771 124916 183187 181536 92427
1511.93 74005 203900 305268 324590 311277 287502
1514.82 307784 335245 284731 192523 149301 255762
1517.72 439728 536104 549648 479629 369525 182445
1520.61-85191 50156 397993 478935 581202 763140
1523.50 846159 831153 711521 639016 796738 969094
1526.39 984063 974126 1021137 1056953 1107965 1189986
1529.29 1243116 1271289 1290552 1295715 1307799 1317601
1532.18 1255377 1144806 1079205 1161566 1358478 1460637
1535.07 1484653 1523296 1556694 1569689 1553591 1441366
1537.97 1056916 639053 763111 970693 1050745 1387197
1540.86 1516750 1277826 1298883 1625035 1801164 1889024
1543.75 1948386 1840565 1756162 1894503 2051403 2086718
1546.64 2038103 2004971 1992490 1912542 1778599 1632169
1549.54 1507956 1427155 1370554 1300971 1223148 1176032
1552.43 1155728 1074237 834600 692984 912467 1163667
1555.32 1237384 1237660 1129463 857149 553739 244471
1558.21 253194 558840 424643 166457 479594 940361
1561.11 1067527 1027888 974389 940217 897021 818915
1564.00 702953 632854 643580 634452 587234 552680
1566.89 515557 456175 354811 218179 28230-87877
1569.79 29270 173535 202371 195377 177736 144964
1572.68 100693 76794 63809 36294-86643-525920
1575.57-1006780-787386-252386-47861-16515-3869
1578.46-9519-25224-40186-41718-36464-34706
1581.36-28521-14231 2657 2553-22136-34364
1584.25-29655-18041-11106-21149-32643-23552
1587.14-1756 358-21956-38740-47090-52096
1590.03-52712-45349-39723-50629-58956-63574
1592.93-81562-107194-115257-93364-82101-89738
1595.82-86958-67509-58723-61065-61682-69210
1598.71-74376-73167-73761-78673-85657-80856
1601.61-76819-89204-105463-105103-92836-89429
1604.50-103706-112288-102910-87035-80375-72121
1607.39-62971-69778-100623-123345-116985-108116
1610.28-107044-93400-76807-73294-83954-96193
1613.18-94378-74312-69354-99787-191744-539248
1616.07-984969-839115-343269-134841-101738-80454
1618.96-84371-100525-106409-104417-102895-106492
1621.85-121707-212427-382600-390202-209322-92415
1624.75-69542-70084-85282-113693-168699-229978
1627.64-198292-112008-74705-70881-70111-76208
1630.53-85460-83051-78141-84103-91366-96289
1633.43-127338-251573-537198-870676-821501-412166
1636.32-192828-220257-220263-144394-98039-96646
1639.21-106335-112882-121711-121405-111714-101830
1642.10-89248-74650-69641-70295-79492-172053
1645.00-492860-733211-530528-326010-339638-331193
1647.89-278100-189883-113269-83273-90597-121866
1650.78-202986-568542-1168821-1513806-1493296-1059662
1653.67-635278-482343-277701-129873-101441-88679
1656.57-84535-95048-96806-88928-72658-66643
1659.46-69756-72298-81555-99886-153132-296972
1662.35-382791-249815-100487-75945-89220-85297
1665.25-73660-64235-50748-50161-78886-134617
1668.14-278896-509811-507585-260381-145184-206540
1671.03-241073-159272-86890-82797-87277-92587
1673.92-204720-494087-615896-356635-108186-53568
1676.82-55402-55952-55970-68076-98622-124785
1679.71-139573-127952-90895-77672-106101-219094
1682.60-381229-458961-676104-1186989-1208143-564797
1685.49-160868-93002-64959-64630-111658-145047
1688.39-120080-89237-111758-123158-89250-69011
1691.28-76376-83129-90772-95352-87065-84406
1694.17-165089-538889-1153954-1170429-551966-204642
1697.07-176958-153725-141565-267566-670385-1103316
1699.96-1137345-779243-341715-123645-88911-88805
1702.85-99615-174677-275342-240397-145315-190825
1705.74-283240-227990-113769-77067-71107-49159
1708.64-43400-84932-121869-108877-83836-75597
1711.53-70127-58756-68717-126847-185391-243760
1714.42-357021-354218-206359-187073-534066-948819
1717.31-803833-508521-402426-234926-112874-85709
1720.21-75131-77876-84679-83308-89723-113497
1723.10-127445-103008-69065-61714-80646-102800
1725.99-109634-101004-91945-86509-85477-95423
1728.89-131080-179789-168984-113379-91716-102688
1731.78-138066-345174-675467-740671-776584-796056
1734.67-459579-161829-84328-70817-81788-86128
1737.56-65477-69234-165118-354914-397965-221426
1740.46-99450-83118-88568-125750-170961-170713
1743.35-140481-126367-117423-104065-95107-96424
1746.24-126867-153939-146590-179317-240628-221392
1749.13-148060-117022-242641-483534-489926-246454
1752.03-106624-94908-84227-71536-67816-71376
1754.92-80587-105877-192236-248232-168801-81908
1757.81-66981-77286-84444-83267-77135-86543
1760.71-199520-365675-322907-151592-84492-75954
1763.60-59895-50866-58213-57700-48840-56631
1766.49-84718-170569-313216-307392-158048-74428
1769.38-62184-88993-180425-250019-269095-476871
1772.28-634599-401329-161840-107952-91004-92769
1775.17-96049-62272-33697-33869-33604-43650
1778.06-62106-62562-51489-79294-141604-133432
1780.95-65635-30225-21119-26775-43687-54604
1783.85-98443-165292-134207-59013-39799-39134
1786.74-30462-26227-33955-47850-46924-31713
1789.63-54662-133925-161262-124629-237606-430507
1792.53-345799-113721-26364-31357-46073-53511
1795.42-51275-37336-18985-7837 589 5586
1798.31-29978-104505-120407-57512-39290-70334
1801.20-63133-47036-35357-4846 16058 24635
1804.10 21155 16468 24517 40193 47250 38031
1806.99 23669 20250 35712 61133 65990 39687
1809.88-4267-5952 40370 75341 88794 97519
1812.77 104469 110364 107304 103537 108702 106746
1815.67 106925 120143 116763 112341 127568 135273
1818.56 138877 157260 166778 157167 151670 144952
1821.45 128714 116907 116043 123024 116023 70833
1824.35-27781-84239-30305 26500 41661 42795
1827.24 48194 56072 30804-8530-51700-57184
1830.13 55643 170690 209321 214488 213787 220547
1833.02 220496 209558 196357 181592 170009 161201
1835.92 139862 111980 101603 109678 110274 98528
1838.81 81519 66218 60627 69372 70937 54212
1841.70 43651 24886-41738-213638-386049-291622
1844.59-82176-580 5936-12087-38374-53793
1847.49-43425-19752-14536-23278-29349-21522
1850.38-9745-18192-35176-31850-21157-24865
1853.27-35357-41281-41280-31247-18675-12065
1856.17-14580-31788-48475-50408-52019-50671
1859.06-43631-40557-48713-55447-46377-38739
1861.95-42512-46109-43512-39667-46867-56814
1864.84-58621-69406-88333-93454-110609-138869
1867.74-133245-162912-247665-229606-131450-93588
1870.63-92198-75753-60986-73376-91013-86439
1873.52-77100-72942-65114-64985-72002-72134
1876.41-73526-83498-89366-87067-84288-77040
1879.31-56760-39747-42340-54127-62505-66817
1882.20-67632-71058-77771-72262-58145-58669
1885.09-72961-61732-34003-35922-59863-74260
1887.99-78386-105368-139063-104305-48866-31637
1890.88-28640-28007-26602-21051-2657 5323
1893.77-15447-43196-55484-46870-31574-28390
1896.66-34457-40919-48155-55461-56956-45661
1899.56-37828-38625-39579-46192-60036-69347
1902.45-64188-54930-58029-57949-50550-56388
1905.34-67537-68686-73495-90872-98560-95725
1908.23-88778-78815-85987-96082-86728-78142
1911.13-81935-88104-86662-74293-64477-69117
1914.02-76247-77319-68266-58363-54645-69098
1916.91-142302-227070-187661-92431-68364-80344
1919.81-82736-84822-80182-70970-86490-118328
1922.70-122807-86925-60182-58501-57630-49707
1925.59-44558-44969-58115-75561-71977-61952
1928.48-65549-73714-73480-64066-67083-84096
1931.38-88346-74276-58552-52585-52984-50783
1934.27-59368-86441-104318-103635-99113-85298
1937.16-75721-77242-75719-76206-76900-65660
1940.05-48849-51964-70064-101147-138887-118010
1942.95-64052-50418-71594-96255-104141-97047
1945.84-90392-81944-72821-69361-69085-73229
1948.73-77045-67150-48709-43117-44895-52495
1951.63-63191-54316-41434-39493-35528-42508
1954.52-68894-84866-73117-53584-51217-52666
1957.41-47517-52563-59043-52345-41745-36777
1960.30-40827-37793-28944-25708-26998-34256
1963.20-39752-37704-34202-33612-43576-62026
1966.09-66261-67841-79697-79064-61143-45525
1968.98-46045-48823-47148-43878-38096-25542
1971.87-15498-20162-22988-8083-597-28958
1974.77-67309-71726-50412-33944-30098-34029
1977.66-34097-32835-35149-26469-15983-10255
1980.55-8737-14485-17104-13500-9878-15505
1983.45-31878-33465-28454-31576-33233-37262
1986.34-40894-42105-42559-38354-33493-30866
1989.23-16347 1345 4367-8992-40723-51892
1992.12-24878 464-7396-36683-48074-36048
1995.02-29588-38426-50759-52902-47971-39120
1997.91-28029-29529-36486-32918-28695-32273
2000.80-42239-50075-50208-37117-19460-21807
2003.69-36571-39388-33576-34294-38025-39478
2006.59-45225-53206-40068-13415-13131-39108
2009.48-51169-44018-34377-28224-35668-41623
2012.37-40764-45508-53417-56118-57212-62646
2015.27-68125-80561-87640-65638-42600-41550
2018.16-51902-63649-61373-49496-49680-54588
2021.05-56200-59238-60967-59358-54989-56937
2023.94-67143-67711-58001-49684-51168-59155
2026.84-62873-67062-67792-65007-65284-64320
2029.73-67392-68733-67931-70705-72415-77399
2032.62-77256-74325-76487-74748-67940-63262
2035.51-67281-61080-43607-37467-48352-63154
2038.41-64447-57109-67178-85761-90592-91124
2041.30-79634-59046-55150-63451-64805-60250
2044.19-68527-81598-72550-66945-88163-98148
2047.09-76248-53447-54507-66620-74147-71893
2049.98-62469-57094-59090-63447-73073-89460
2052.87-102525-96344-74359-61001-69852-79257
2055.76-73233-67303-57212-40768-40798-55680
2058.66-72186-87172-83942-72781-71720-76379
2061.55-81594-71232-53313-53143-71342-86384
2064.44-68568-36856-33178-55506-88061-104277
2067.33-97659-86222-82385-77374-70725-69995
2070.23-75680-77693-70069-63979-59679-61230
2073.12-71885-79994-76669-62343-59436-74253
2076.01-84826-77930-69282-60117-55920-62782
2078.91-78715-92571-86689-78031-80733-88273
2081.80-84439-72888-70107-74885-81357-84639
2084.69-83771-82438-81609-76002-68570-70057
2087.58-74771-73470-79538-92361-98745-92814
2090.48-72017-57490-61286-69621-83110-90449
2093.37-87634-95153-102554-89774-71498-63475
2096.26-58010-52601-61548-86654-104200-91440
2099.15-73469-74696-67569-52875-57146-72840
2102.05-87981-102062-104756-93797-85612-85485
2104.94-87493-79051-60140-64146-81682-78097
2107.83-71956-68981-67047-68902-65759-85783
2110.73-121990-111846-69442-58951-68234-71753
2113.62-66681-61897-81046-104203-89950-57046
2116.51-43511-49005-60327-71321-79862-86298
2119.40-76198-51267-44339-51824-55761-52812
2122.30-68863-110717-132952-111289-76761-57947
2125.19-59535-60775-61123-78457-90501-69098
2128.08-49262-52409-58435-72439-86291-84791
2130.97-82430-83381-76668-71650-77291-74921
2133.87-62902-63058-77865-64284-41804-51346
2136.76-54802-50195-54801-55465-54596-59371
2139.65-63619-64484-68448-75206-63707-42978
2142.55-45754-60277-60037-62811-81624-86028
2145.44-75388-74741-76982-67410-60359-66984
2148.33-72819-65276-59386-71125-82727-71483
2151.22-58362-59814-65806-64790-63300-78448
2154.12-92096-78315-57763-47374-42784-53912
2157.01-81420-102707-95762-69938-57638-53976
2159.90-51853-54033-64582-83403-80177-56272
2162.79-39840-35213-45773-66334-95266-104869
2165.69-74291-45326-40892-45351-54889-80031
2168.58-106618-104003-83774-71596-67286-66366
2171.47-72702-79280-66246-50280-48807-43834
2174.37-36711-47417-75479-84165-52572-29983
2177.26-45889-71549-78462-77387-91810-86333
2180.15-53357-36399-40283-45605-53176-63724
2183.04-54892-33192-23940-15184-7450-27382
2185.94-64464-60320-26310-10399-3850-6586
2188.83-28196-54052-55149-40496-30627-21664
2191.72-16339-19235-20856-11461 3214 8242
2194.61-1364-9165-11371-5316-4134-15901
2197.51-18987-2909 16448 29947 32213 24565
2200.40 5087-9553 2655 16579 12807 15189
2203.29 28924 40304 44251 30695 16924 21839
2206.19 40077 52400 52784 53844 55596 40529
2209.08 26925 25994 29879 35076 41046 34024
2211.97 27851 31977 46326 69241 79458 70946
2214.86 52917 34753 25660 27599 35354 28849
2217.76 11037 4859 13086 19198 11951 1559
2220.65 4460 19395 19072 3955-6472-9420
2223.54-12212-19577-14240 9208 29002 23968
2226.43 1092-15821-8960 10191 29607 42945
2229.33 37447 30733 40551 47731 43484 40865
2232.22 31031 24279 34431 43767 41541 32138
2235.11 28543 35179 40978 40051 48125 63711
2238.01 66739 55386 36669 24658 27402 32988
2240.90 37202 33192 16384 14760 38295 51208
2243.79 30731 9562-158-2713 11010 16644
2246.68-3687-24074-25847-24280-32433-39359
2249.58-34130-19378-9979-4021-6240-14411
2252.47-15893-15961-16629-22912-33039-31436
2255.36-18934-14091-23748-32919-32748-36183
2258.25-42579-36789-22906-15107-13876-29189
2261.15-53321-53692-40025-28232-28265-36962
2264.04-35712-27534-19888-12878-11176-12020
2266.93-10095-16718-25942-21904-8679 2257
2269.83-6852-37811-54142-34687-8839 1942
2272.72-2453-6604-2198-3201-10022-4884
2275.61 12164 22614 15860 862-1435 2503
2278.50 3182 9452 17544 28110 38255 34918
2281.40 25482 16213 24677 53755 64069 47563
2284.29 38421 51395 69057 79576 83864 82693
2287.18 75264 63532 60504 65519 72126 81035
2290.07 77193 68503 63612 65860 78504 84723
2292.97 75653 58445 40285 19325 7131 18832
2295.86 26858 19963 15327 13883 5171-7501
2298.75-15897-16274-11411-12870-18003-14363
2301.65-7570-10040-30973-44619-30875-1622
2304.54-3889-32744-40357-17006 1559-11989
2307.43-19655 3415 32427 30251 1152-572
2310.32 37377 50791 4535-15487 36871 75206
2313.22 40857 21906 76885 129381 77255 14981
2316.11 68692 152442 113011 40768 79556 178730
2319.00 153730 55212 101779 247749 236341 110048
2321.89 145856 303902 281171 126018 172178 364017
2324.79 328074 143607 212318 416389 337736 150199
2327.68 285877 501017 354167 166258 360161 539193
2330.57 336958 224916 486061 572464 297072 275315
2333.47 573127 531054 251346 362833 600415 432713
2336.36 270109 498353 585369 337418 335753 551757
2339.25 439683 252492 431040 536533 327968 312222
2342.14 483634 383110 228678 327816 350265 201744
2345.04 199840 250527 167622 131370 178287 142233
2347.93 60861 38105 62489 82624 75483 119736
2350.82 209098 193283 187676 298547 290581 265069
2353.71 412506 392699 306401 468832 486968 401376
2356.61 572863 570019 459748 620138 586746 495829
2359.50 648776 562434 523137 680385 561766 565554
2362.39 654129 522692 585996 583282 475476 568423
2365.29 503664 476869 530933 436860 458446 422235
2368.18 385566 427757 362279 363249 332148 287614
2371.07 278500 231105 228811 198157 178287 148259
2373.96 122449 130094 116826 93301 63392 67320
2376.86 77204 66505 54186 53825 52480 50140
2379.75 57572 66381 47000 11851-8777-10972
2382.64-6636-1621 7304 17608 28380 34953
2385.53 46635 68486 77330 71687 85326 112663
2388.43 119785 116273 125433 139500 154648 174082
2391.32 200483 236734 272772 301008 330533 353686
2394.21 369589 391050 423749 458605 498150 549722
2397.11 609567 664428 663207 591314 530747 506822
2400.00 475672 442377 420145 392155 383131 399356
2402.89 395430 363195 332295 318207 320919 351788
2405.78 444859 658520 1077371 1817247 2957872 4288253
2408.68 4872495 3675862 1686776 597164 317736 250402
2411.57 233800 253810 303010 367399 432213 480225
2414.46 509163 541388 582858 624250 662881 701086
2417.35 732997 755118 764235 768235 767054 755601
2420.25 746702 738480 726502 715057 694660 658549
2423.14 614834 572983 539360 510350 471748 430377
2426.03 395398 371707 355904 342574 320905 297368
2428.93 284151 277329 261145 239498 216246 188650
2431.82 164025 146210 133031 119446 101725 88939
2434.71 74690 60239 62042 75654 95660 126170
2437.60 157250 182154 218458 272688 313967 335068
2440.50 349773 361916 378341 374683 341327 306973
2443.39 267224 222106 186657 173400 165134 155032
2446.28 145885 132534 124224 132570 157263 178116
2449.17 180395 174552 171161 175617 194447 215603
2452.07 215427 198084 190502 202977 216834 229283
2454.96 235224 224533 213967 217809 225172 220448
2457.85 212025 214941 210733 190220 181840 182858
2460.75 172616 158893 142205 123816 116034 124519
2463.64 131481 118354 97876 96343 101605 87218
2466.53 73203 71845 65392 65519 72425 63071
2469.42 39450 28851 25306 5869-8510-10010
2472.32-16311-15414 523 2357-18099-33765
2475.21-31308-19482-17246-33330-48328-50296
2478.10-52332-54046-57257-68586-72154-57451
2480.99-39306-35033-47167-60583-69764-79795
2483.89-77490-62657-64118-77599-79791-71242
2486.78-62329-54854-53911-58916-65331-67742
2489.67-72681-81821-79534-65244-52672-48682
2492.57-61787-70373-64481-66788-75986-74244
2495.46-65498-66583-73143-83998-93296-88253
2498.35-77283-79159-92261-90433-70273-49559
2501.24-36749-34930-48776-66285-70849-78164
2504.14-85834-64859-44885-44771-42567-51930
2507.03-75174-92940-97436-87971-79406-77637
2509.92-82481-87308-80695-73084-73556-74972
2512.81-74136-66610-61198-78251-90270-71182
2515.71-49297-44508-44527-44943-57746-71242
2518.60-71692-77676-87088-93890-103851-107159
2521.49-94848-66104-48007-59807-83184-84795
2524.39-75738-84152-94674-99811-104320-99165
2527.28-82436-68129-62079-63579-70904-84420
2530.17-90602-78012-64275-61129-61216-70585
2533.06-94282-98772-87810-88670-92007-94337
2535.96-90518-76568-69605-67040-65144-73649
2538.85-80644-86625-81107-73568-91431-106969
2541.74-101879-96040-94721-84856-69014-76921
2544.63-103142-104718-91008-84576-79511-91119
2547.53-97432-83666-81181-83704-87831-89340
2550.42-80837-76597-83287-93667-100955-106297
2553.31-103302-89674-78812-79223-78981-87483
2556.21-111539-111771-98243-98772-104323-109176
2559.10-97366-82622-77653-75030-77693-74936
2561.99-72751-79396-85660-90733-70903-34792
2564.88-35357-55927-62091-62053-58235-43076
2567.78-42078-62472-79829-78417-76255-91791
2570.67-111203-119609-117564-119613-130954-132547
2573.56-118052-109706-100503-77986-66049-74589
2576.45-86245-85528-70475-69047-91395-101290
2579.35-91245-78133-52790-35243-43486-44113
2582.24-36960-49239-70993-67880-51606-64186
2585.13-87632-93197-89114-78227-81209-91665
2588.03-82097-80093-84966-82290-90179-105984
2590.92-122670-134367-119059-97506-95383-80650
2593.81-58310-53709-55312-56904-61012-67300
2596.70-82414-103252-99805-76840-66160-69793
2599.60-89936-113554-108107-87063-75188-72092
2602.49-81876-86554-71802-68618-80825-93021
2605.38-93983-84988-72149-63527-68454-80508
2608.27-95079-99562-82211-75811-90589-101947
2611.17-102273-91202-87287-92729-88272-71538
2614.06-58160-67787-80287-68116-52462-63033
2616.95-79815-82468-71564-67668-82776-96448
2619.85-95264-88846-91187-98060-101214-100309
2622.74-97754-91652-84070-73945-68617-67474
2625.63-65472-78668-92832-95033-95449-82893
2628.52-60180-58900-74597-73741-67508-73235
2631.42-78911-89122-105446-102259-83968-81593
2634.31-78505-66280-66166-69050-67350-72331
2637.20-77300-67052-65386-71036-64273-64942
2640.09-67164-68909-74433-62767-52388-54251
2642.99-63652-81311-93030-90821-75115-65797
2645.88-60903-49554-48717-52188-61695-84733
2648.77-97408-88070-86930-100976-98143-84599
2651.67-84583-78580-53129-46377-69675-84477
2654.56-76004-60482-59077-69003-78685-87508
2657.45-98132-114385-110950-86072-76336-95335
2660.34-104903-87634-70795-65147-63360-60865
2663.24-47883-45841-72019-85380-80749-81461
2666.13-75821-70046-79672-89292-94273-99228
2669.02-97554-92350-82374-67107-60838-62846
2671.91-68459-75074-78964-92674-111255-107588
2674.81-85199-53051-41989-79598-115105-109903
2677.70-80946-56058-49532-55795-64431-67886
2680.59-79083-89777-78048-72055-81382-78780
2683.49-65280-68069-72621-52803-38009-43873
2686.38-64956-83263-71865-54316-64207-77863
2689.27-81590-83082-75424-58680-51970-70703
2692.16-89208-85106-86097-96870-96751-89179
2695.06-99797-127317-123394-99120-106394-129230
2697.95-133375-123835-120528-114447-94510-81200
2700.84-74019-75970-103379-121971-96153-79765
2703.73-98962-88722-59583-54092-58916-61029
2706.63-38583-17743-27124-34274-26765-18479
2709.52-23207-37027-48062-56201-66725-72610
2712.41-70027-77706-94904-96160-90885-92952
2715.31-96699-93620-77190-70487-78537-85685
2718.20-85182-64009-46838-60737-83215-99051
2721.09-104711-112783-126313-128570-126409-125600
2723.98-104699-73780-68871-90002-111569-106383
2726.88-90489-79847-68250-59527-60903-66188
2729.77-67536-78594-89838-86492-81685-76781
2732.66-59763-42750-52620-71912-74367-64685
2735.55-63589-70846-67909-50950-49146-73791
2738.45-82580-81805-96571-92069-66260-65458
2741.34-79113-72915-69000-79620-84178-88073
2744.23-87942-75121-62824-73411-93618-90652
2747.12-74621-76818-86349-76543-70911-79408
2750.02-83632-89499-102002-105145-101262-84489
2752.91-59432-50046-60806-82367-103136-122713
2755.80-127415-115229-99563-82431-83624-102483
2758.70-109209-104009-98935-91949-84420-85830
2761.59-92115-76437-56202-73422-102774-99617
2764.48-94052-105879-111541-107201-97895-88500
2767.37-76540-56850-53107-74276-104718-124421
2770.27-120841-109629-99268-89000-80111-72653
2773.16-66545-74090-80304-72037-85818-116310
2776.05-125278-127105-129441-108347-69285-53683
2778.94-80966-104520-97205-83814-74217-64347
2781.84-62579-61806-53682-68484-96249-93899
2784.73-89426-100131-99874-95617-97225-100305
2787.62-94275-78967-72463-70841-66493-76525
2790.52-92739-104947-114567-111717-103879-101762
2793.41-92202-66077-59681-78065-94970-103868
2796.30-91281-56279-34932-49025-72812-86324
2799.19-97128-101230-95556-92865-95017-102924
2802.09-109731-112287-128217-129766-94135-56804
2804.98-57406-102222-135862-122429-101459-84338
2807.87-73901-84420-83992-77195-77526-79795
2810.76-79116-83611-110640-129964-122220-119881
2813.66-143210-153410-129919-113897-112889-97269
2816.55-90536-92579-84814-92505-108673-111470
2819.44-111951-106755-95925-89152-89378-93068
2822.34-87815-86996-95258-100084-105195-91074
2825.23-58807-48013-67248-91433-95045-85781
2828.12-78558-72757-69176-65188-56205-43335
2831.01-34166-40923-56909-74084-81642-79556
2833.91-83304-104237-119800-117859-115705-109765
2836.80-105487-96624-79883-79914-83657-71776
2839.69-59456-61142-87759-99445-78724-74867
2842.58-87267-79978-84386-102469-92702-82945
2845.48-91957-102045-96214-76250-63492-65229
2848.37-86348-109605-114694-103706-81542-65550
2851.26-78807-107165-108043-92899-94504-109371
2854.16-128711-146436-145581-126891-117056-120824
2857.05-111668-90886-74890-63601-56566-66354
2859.94-98548-122588-114396-94367-72477-63625
2862.83-80229-93107-110092-126724-128792-125294
2865.73-118855-118415-131982-141140-125357-109246
2868.62-118187-126927-98017-54738-52513-87694
2871.51-114179-114827-107352-105090-97818-106274
2874.40-127952-125573-116355-96174-72447-81653
2877.30-96428-99305-94683-93185-112025-120194
2880.19-100255-92189-106114-117041-111219-93576
2883.08-88666-111497-142412-158425-152212-135613
2885.98-128935-131210-111669-94200-107073-114575
2888.87-112086-129402-128512-84505-64641-87862
2891.76-100269-90358-93447-120465-146983-152383
2894.65-142904-139689-139255-115807-77677-65454
2897.55-84431-88215-66156-60124-70499-72019
2900.44-68542-76586-99360-117772-114544-104462
2903.33-110571-125526-150084-163391-119586-67376
2906.22-82890-120638-125143-106051-85732-84960
2909.12-97867-98670-93501-95294-104898-105189
2912.01-104653-109172-105992-111769-139592-168963
2914.90-165465-137485-121932-122979-121220-114982
2917.80-106731-115139-140654-157053-171689-170291
2920.69-140248-116156-116841-129213-149847-162242
2923.58-153232-156530-168343-163683-139975-110030
2926.47-106652-137085-158485-138461-119553-137341
2929.37-154811-154780-150474-137054-135078-138418
2932.26-132918-127351-108804-101042-123283-149419
2935.15-137027-111291-124382-149243-156486-157715
2938.04-147267-134746-130665-125719-124201-132013
2940.94-130809-125717-118577-101337-98570-96475
2943.83-82072-89272-123695-142598-135293-128387
2946.72-133274-136968-121497-95610-97180-125136
2949.62-131357-130299-143177-143224-120740-103604
2952.51-113296-123319-113103-96526-86374-87083
2955.40-93683-92664-102005-123419-126594-117499
2958.29-106733-107776-133352-147084-138195-151073
2961.19-191416-165255-93836-81270-89870-93143
2964.08-122300-153262-154102-143430-159445-187203
2966.97-186057-164314-155719-164091-177006-184452
2969.86-197469-187652-142190-125616-148994-150518
2972.76-120837-121812-162194-193635-189351-171299
2975.65-155438-130836-114997-132912-154857-158091
2978.54-152578-147578-134068-117891-115398-120492
2981.44-123348-140988-169902-166943-132732-98174
2984.33-95237-111216-104656-89965-85624-81453
2987.22-79712-97718-98923-72944-71837-92220
2990.11-115820-129665-108186-65224-44405-61589
2993.01-97937-125286-105124-67483-68365-99840
2995.90-120754-113032-113019-112335-95350-84967
2998.79-78129-76581-85223-94266-98213-100181
3001.68-115821-138680-137458-127365-118468-92701
3004.58-85765-111007-125421-123115-119295-101622
3007.47-69471-58033-74785-83803-83700-82874
3010.36-64855-44431-34989-25328-17328-20395
3013.26-12828 2740 12212 17572 15711 48880
3016.15 110773 126982 103976 95675 108505 122022
3019.04 123538 122032 138980 163320 166449 165582
3021.93 175244 208105 256205 269067 240956 199027
3024.83 180904 184651 159739 114338 81005 83139
3027.72 101673 114892 154834 164347 105107 29012
3030.61-22772 1261 373252 1776630 3292164 3034768
3033.50 1799422 938142 456442 203992 95769 67830
3036.40 92470 111236 103147 105122 126424 160538
3039.29 197472 225929 251706 285837 307654 294785
3042.18 277832 272620 282809 302740 313032 310107
3045.08 298638 286730 290703 275506 223606 186691
3047.97 189954 197543 178210 138820 114859 105071
3050.86 84067 63054 57063 43806 6856-11798
3053.75-5469-7694-32462-67570-84011-85444
3056.65-77672-33968-6639-37583-62374-59200
3059.54-62194-74054-86187-100546-105511-108880
3062.43-105383-103934-111312-105404-96868-90627
3065.32-80980-71012-71281-83254-99281-92357
3068.22-64114-55142-70498-87864-97215-99950
3071.11-94396-78429-57539-51777-72503-77656
3074.00-65892-78524-76822-54026-52272-55943
3076.90-56951-62941-72592-89182-90064-70088
3079.79-60260-66951-81140-93542-94825-89239
3082.68-66069-39247-32841-41565-65706-97740
3085.57-116461-100937-65414-42172-15315-30
3088.47-30441-54647-41962-39078-66301-91955
3091.36-81295-50269-29385-16549-4803-7586
3094.25-35070-51872-49935-38945-34182-60728
3097.14-94503-102698-83095-42695-10303-8828
3100.04-20044-33487-44556-48980-62758-74643
3102.93-69089-57913-51073-35110-24471-42100
3105.82-52099-35293-21103-9070 123-11273
3108.72-14578 2475 9947-3096-15202-9630
3111.61-12702-12113 11837 27694 1890-36500
3114.50-22992-12967-45662-56877-48842-42217
3117.39-18996 1207-6956-16293-8615 1701
3120.29 13184 8289-14660-38162-63638-72837
3123.18-55304-36975-33493-34346-13225 16753
3126.07 13926 3319 28099 44690 15044-11531
3128.96-2606 25196 51461 32603 1058 25767
3131.86 50195 34484 16846 13199-1262-31399
3134.75-33938-8251 20938 35996 19144-9574
3137.64-21319-11696 8102 8556-7022-5839
3140.54 16246 36357 31815 9951-9682-22120
3143.43-12143-4632-17274-20151-10021-5527
3146.32 11147 31179 32877 35431 28892 5516
3149.21-5208-17076-21088 7528 33556 27048
3152.11 7587 14270 23968 19462 26847 36434
3155.00 44306 52289 52159 29362 5482 13088
3157.89 35777 62788 71762 60113 52359 55038
3160.78 56297 34004 5897 7986 33507 39221
3163.68 35211 64710 94431 83227 51390 27285
3166.57 24647 14793-8539-12601 1493 5523
3169.46-3229-22564-29642-13953 10739 46970
3172.36 59825 44850 56442 60841 25415-2873
3175.25-6189 6007 16546 16928 10459 18988
3178.14 24099 13525 10192 20511 30189 22524
3181.03 36631 58139 48563 33418 30702 32083
3183.93 43961 59709 49802 30935 28566 32130
3186.82 35869 41914 39187 29276 26411 34305
3189.71 22411-10519-14109-1953-8027-18062
3192.60-14034 9671 28279 17673 400-4778
3195.50-1234 5579 28649 55942 50209 22726
3198.39 979-3242 3787 19695 31921 16573
3201.28-8422 4643 27814 19469 16944 48857
3204.18 57495 19031-3256 7525 3942-6562
3207.07 13576 19985 1822-1058 7557 20449
3209.96 35924 49116 50438 45899 34379 14538
3212.85 12597 6452-10865-7213 19026 35133
3215.75 26900 26934 51497 83899 72588 32113
3218.64 25714 27473 19267 22858 39505 63159
3221.53 66388 32924 11088 4974 6751 5287
3224.42 1914 2452-16032-19749 17640 56478
3227.32 62198 33909 13067 28775 61968 87019
3230.21 86218 63649 47797 34779 13363 9553
3233.10 21735 18141 18733 35862 41381 29186
3236.00 19711 25039 20631 15767 22754 30804
3238.89 39452 53359 50712 40987 58071 79640
3241.78 78036 57568 44877 66500 67999 47933
3244.67 39693 32197 38824 42565 48454 69736
3247.57 72993 59518 17054-21032 3649 38920
3250.46 44463 51209 71879 87477 81340 41160
3253.35-1144 25222 67623 61713 38555 33355
3256.24 30152 29892 46965 41473 20317 10122
3259.14 15382 30508 26397 26392 51662 67535
3262.03 77468 71169 35815 23788 27590 14903
3264.92 17965 32340 33166 22604 25644 58703
3267.82 74875 67949 76442 74030 40962 11322
3270.71-6642-719 33427 50523 33892 15179
3273.60 13995 381 9479 50530 45540 5135
3276.49-15886-13080 6044 21611 8238-1852
3279.39 12327 19346 8733-4561-2913 10495
3282.28 20704 28839 36144 28581-8364-32283
3285.17-8011 16596 29724 37084 24216 27909
3288.06 57216 56275 30029 24440 12697-17096
3290.96-20953 6957 18415 11468 7492-5912
3293.85-2493 9193 4350 1247-6737-1188
3296.74 27399 48168 53881 62175 63342 22914
3299.64-636 25615 44700 42487 17082-17436
3302.53-37462-45271-20875 15225 27558 23831
3305.42 5982-38483-39305 26832 46443 20239
3308.31 3452-10284-4756-7876-31589-23944
3311.21-3790-8373-25386-36346-39235-39075
3314.10-46104-62679-50728-8234-4450-48186
3316.99-58184-28112-22993-59367-75804-51062
3319.88-34037-36112-41532-44127-31374-20089
3322.78-27585-39129-44055-35647-20145-28144
3325.67-59716-78514-78956-54603-15340 72
3328.56 5296 4189-30532-57982-39759-36806
3331.46-59360-51995-29504-33141-55290-64708
3334.35-49022-25234-22642-57952-74639-33003
3337.24-9777-21842-28431-41857-52870-46633
3340.13-55828-80386-61273-9606-5003-24129
3343.03-14536-38792-87465-75082-34059-19926
3345.92-21796-54969-87375-84217-72338-51974
3348.81-37740-34445-38669-41863-36301-31888
3351.70-31281-44068-72969-88387-92779-101467
3354.60-84566-31853-9867-32205-56858-79252
3357.49-86019-74303-63143-40930-15182-26161
3360.38-51092-46549-54102-81457-82663-65386
3363.28-46209-59312-91774-79225-37550-21085
3366.17-44412-65529-57687-58033-53847-25684
3369.06-29206-61665-73652-81048-90411-87023
3371.95-81009-88511-99020-84774-64747-67891
3374.85-88078-96974-78632-51758-33174-43133
3377.74-78578-113565-115791-87989-80408-99405
3380.63-111463-128564-121626-66781-35101-40435
3383.52-41035-35062-20780-12079-8709-9866
3386.42-32356-52338-54032-46114-24177-24594
3389.31-58706-61769-34189-29111-34644-41975
3392.20-57395-75598-106550-131477-122878-94666
3395.10-69456-65413-57417-36894 6965 46076
3397.99 19280-18334-30880-61947-75042-39980
3400.88-20504-23601-30796-51789-68858-64105
3403.77-53796-53585-49125-28557-7709-10312
3406.67-41179-71802-73919-60706-55218-70023
3409.56-75167-56540-58840-73761-67727-18003
3412.45 42698 28118-25318-72016-101568-91610
3415.34-77718-71663-34238 179-31899-77996
3418.24-82733-60524-46900-69179-84879-67698
3421.13-69909-63786-32354-30488-17436 9783
3424.02-19718-57629-44801-29841-41991-61499
3426.92-88775-99412-73355-69406-96301-118710
3429.81-122797-92565-50059-22217-15032-26704
3432.70-53549-83296-68969-23533-4288 4391
3435.59 2280-30455-61003-72165-87647-111528
3438.49-117600-121161-122215-85814-62403-98342
3441.38-113011-78900-76045-123818-139221-82629
3444.27-30476-39801-79869-93931-86725-112943
3447.16-120238-88917-91400-95361-82177-98971
3450.06-108820-66939-34409-51283-65866-48644
3452.95-41294-71792-101844-94721-67683-52977
3455.84-68029-103768-105338-58054-25230-42424
3458.74-92642-130563-122893-86583-80451-104098
3461.63-72900-11715 4449-15928-51790-90015
3464.52-107229-78207-17954 4294-37220-88683
3467.41-100934-100473-99563-76502-55054-70604
3470.31-116655-143467-147158-153125-113086-41393
3473.20-31058-68531-90098-91786-90584-74750
3476.09-45355-37586-66737-85039-70906-74751
3478.98-102094-118378-108637-96698-99469-86123
3481.88-79534-101338-104994-76659-57906-89084
3484.77-137659-149540-127673-88692-71681-82530
3487.66-99175-121977-117037-112815-136753-144721
3490.56-123559-81657-68324-90334-115401-149963
3493.45-153888-120831-103938-109352-119145-117566
3496.34-103268-86477-83379-108450-133846-138077
3499.23-136230-142395-132526-114692-112922-105372
3502.13-110294-130687-133691-143328-166256-159413
3505.02-136865-123047-103132-99120-117040-127821
3507.91-133844-139130-156137-163996-146506-111524
3510.80-89788-128055-164062-136232-114510-119569
3513.70-120462-130488-112326-69173-68118-96014
3516.59-98477-86605-100451-135544-167230-172930
3519.48-147690-109381-94826-112545-131989-134505
3522.38-125235-108700-119896-130544-108924-113804
3525.27-138032-134988-121440-128758-142030-145067
3528.16-151945-163407-162260-152345-147534-135316
3531.05-120593-122753-138588-123040-72861-56963
3533.95-63713-60328-83051-135027-153103-122667
3536.84-98080-104840-124859-146355-163496-160605
3539.73-142973-116776-85594-76994-98649-135895
3542.62-136907-99771-95298-127497-170057-180361
3545.52-140489-118823-125501-121858-126304-124227
3548.41-96861-79709-86594-120948-152061-151276
3551.30-160574-186775-168203-118178-104413-113577
3554.20-111718-91507-83458-98935-105281-98843
3557.09-86926-96416-102626-88004-88229-87583
3559.98-81124-90151-107166-131717-150218-146529
3562.87-129329-112844-99536-102391-148249-205286
3565.77-212537-178251-159566-197180-216651-163559
3568.66-110007-105413-134967-167408-174944-158204
3571.55-142135-126178-98441-77505-81175-85998
3574.44-75642-78729-87631-99111-126463-141435
3577.34-140064-118940-77041-68387-98007-116613
3580.23-107409-96532-103026-115073-118279-107269
3583.12-97093-82890-59800-54382-80722-175107
3586.02-283057-251220-154085-187594-316776-312722
3588.91-196370-145190-119087-82274-61306-60850
3591.80-93106-138082-156242-132117-77061-72310
3594.69-133074-148704-105670-59015-29080-37865
3597.59-68326-68093-42378-33084-66735-121369
3600.48-128613-75742-25702-36622-77902-105213
3603.37-100041-69026-48831-56917-90784-146771
3606.26-200948-208725-187999-185403-275432-409285
3609.16-326984-151205-95544-94559-140164-252540
3612.05-322465-248768-152165-142783-168921-154268
3614.94-119993-102541-93130-127062-205175-217871
3617.84-165541-212518-384021-405645-229959-143442
3620.73-139505-101895-73709-81096-97819-101874
3623.62-99288-93693-78015-76595-109302-142497
3626.51-155225-228479-452450-586049-563597-652517
3629.41-555021-271481-157726-130088-98755-92479
3632.30-107232-163068-227788-189467-100176-74171
3635.19-90228-78816-57389-82841-128690-140070
3638.08-122541-111378-118167-123062-121480-134933
3640.98-145874-133209-117472-104000-74291-49592
3643.87-57893-88010-115711-125869-183599-323263
3646.76-431722-383875-312680-498614-758722-627307
3649.66-400131-413755-439566-352898-234487-163602
3652.55-123364-103494-97951-99829-122966-213279
3655.44-417942-502349-309020-132259-94659-103397
3658.33-127974-146210-126079-109714-126706-137584
3661.23-115500-85728-86796-111712-127397-147222
3664.12-148246-132622-136718-139116-126622-120236
3667.01-119510-195121-361171-386812-264886-345937
3669.90-714557-825625-463319-206713-183997-172281
3672.80-173781-199137-297541-508678-663150-826476
3675.69-805525-452592-228210-183902-140208-123568
3678.58-171048-198415-141488-79177-64200-80760
3681.48-93586-106141-116152-104835-92170-97349
3684.37-89530-77760-70249-67622-69119-122803
3687.26-403673-834136-795737-349577-109886-93613
3690.15-165858-265758-223462-74321 7265 1180
3693.05-40910-50632-25969-12112-7080 6159
3695.94 20133 15890-9317-16821 9272 23160
3698.83 14339 15830 46944 80653 29732-33178
3701.72 64293 233700 353094 393932 344429 298103
3704.62 285632 222047 89144-6809-31543-55009
3707.51-95042-143159-235805-273940-165930-82963
3710.40-111497-241708-514601-590161-286915-24855
3713.30 39225 9056-25552 93 31948 38290
3716.19 44851 25776 1007-13120-58944-94743
3719.08-75151-73813-102536-118143-150325-219265
3721.97-217252-139376-100507-101214-128227-166309
3724.87-153779-169702-278256-299725-203446-151859
3727.76-134828-114095-95831-93057-120040-144123
3730.65-181128-384121-582040-438934-206635-155411
3733.54-223637-351292-421039-363296-355693-549727
3736.44-592998-360059-225521-213942-178266-155363
3739.33-160288-176581-223285-262601-245005-211333
3742.22-183905-235504-553597-1164960-1500443-1063733
3745.12-465167-232727-196518-208500-198620-184141
3748.01-340657-790901-1043240-682850-282318-224314
3750.90-454824-940588-1076906-617231-263629-190206
3753.79-158433-134320-138218-175746-244815-267460
3756.69-199083-142036-149956-172035-218809-321712
3759.58-341262-237726-168958-147789-126773-113731
3762.47-140101-168205-147765-118338-152586-264202
3765.36-303827-207341-136355-124440-122472-126854
3768.26-152277-257440-397204-371626-242166-188192
3771.15-172855-160205-163541-166962-166224-158950
3774.04-131735-102819-114023-151696-152140-131805
3776.94-122190-126350-152224-227238-325882-307340
3779.83-215960-164514-123046-95261-102999-120032
3782.72-136714-160628-180499-184069-165478-145147
3785.61-128988-103457-83954-83005-82596-103785
3788.51-145493-138401-98712-85207-94876-123629
3791.40-137107-122900-110390-105741-113297-141214
3794.29-140816-124067-187682-291918-284683-222595
3797.18-184611-123981-70081-65328-78799-125641
3800.08-311157-704170-853727-490614-183080-122881
3802.97-84481-49480-39182-21826-27929-106217
3805.86-320586-587249-530307-240842-85863-40392
3808.76-29592-29526-35853-42753-34980-36430
3811.65-49332-61705-72910-71585-84201-123226
3814.54-233098-591430-980716-792708-320619-123546
3817.43-120655-143352-159845-198070-285525-434515
3820.33-530467-553114-561389-406309-216104-165282
3823.22-166860-152051-144021-145159-145308-209277
3826.11-278937-225949-157868-154768-140289-116634
3829.00-126031-163686-200901-267324-395529-413569
3831.90-275433-185786-165813-168395-249399-367247
3834.79-332280-215439-182649-248150-571534-1025772
3837.68-912785-412649-210342-244639-283414-312821
3840.58-335497-263605-168523-147815-204326-286935
3843.47-289961-209175-144467-116643-105739-119515
3846.36-150649-162106-140975-103654-103659-167025
3849.25-223368-220002-217466-351815-715748-872053
3852.15-580754-485417-969288-1488770-1238694-559490
3855.04-219105-173250-188030-227268-244441-205098
3857.93-145577-124395-168471-199255-172925-164514
3860.82-243973-302962-236781-176890-194724-210636
3863.72-253900-409135-486268-320059-177308-161629
3866.61-166023-168333-176313-237715-366295-560754
3869.50-760493-643279-329565-175013-157012-180702
3872.40-188944-222582-317950-356285-279038-191092
3875.29-150951-150400-145307-115067-102642-123938
3878.18-151257-188053-305589-440113-416461-297418
3881.07-208087-162434-145590-128349-119978-150634
3883.97-205143-334610-582902-620436-371759-218274
3886.86-198551-155404-112768-119871-144173-150169
3889.75-177145-309574-443391-367066-200853-133995
3892.64-140969-171868-174427-138721-121649-118119
3895.54-117960-146620-188125-195170-166190-190851
3898.43-332259-400228-278200-181955-199069-331260
3901.32-450340-365199-224411-215313-349961-435180
3904.22-311242-211343-260428-285140-220500-161838
3907.11-153164-180047-184858-162427-158460-160112
3910.00-171526-187983-175220-179581-193523-163671
3912.89-133454-130256-160718-193110-183314-171694
3915.79-192725-266470-329271-263906-174941-157273
3918.68-168578-232211-279638-216129-141648-111060
3921.57-83974-81529-115588-147783-163584-167891
3924.46-181496-182329-149311-127337-140528-163952
3927.36-163560-170145-206409-250601-254795-223888
3930.25-194695-186063-200928-229810-231756-182609
3933.14-138838-135702-142967-137122-124938-120851
3936.04-146515-162837-127776-108213-123468-117500
3938.93-89228-88810-102322-114932-135364-161493
3941.82-200598-204572-161351-144245-146325-113034
3944.71-83574-89709-101079-111185-123878-133054
3947.61-141613-144275-150957-206724-251660-217038
3950.50-149798-104599-96902-110143-131438-130018
3953.39-117238-117115-97022-76517-99437-136858
3956.28-145953-131493-147330-165098-127344-120936
3959.18-170422-186075-176152-179161-182323-192098
3962.07-197097-164031-129336-134698-138742-117544
3964.96-90469-93158-118562-127962-139579-160671
3967.86-140145-115255-134691-144097-107160-60774
3970.75-67809-106633-107195-105887-132806-158127
3973.64-159368-160117
##END=
