##TITLE=Chloroform
##JCAMP-DX=4.24
##DATA TYPE=INFRARED SPECTRUM
##CLASS=IUPAC A
##ORIGIN=NIST, Analytical Chemistry Division, 301-975-3108
##OWNER=COPYRIGHT (C) 2000 by the U.S. Secretary of Commerce
##DATE=00/02/01
##$SPECTRA VERSION=1.10
##$UNCERTAINTY IN Y=2.2 % relative (B=1.2E-04,C=3.2E-09,D=1.1E-13)
##CAS NAME=Chloroform
##CAS REGISTRY NO=67-66-3
##MOLFORM=C H Cl3
##MP=-63.5 C
##BP=61.7 C
##$NIST SOURCE=QUANT-IR
##SPECTROMETER/DATA SYSTEM=IFS66V (Bruker)
##INSTRUMENT PARAMETERS=KBr Beam Splitter; MCT Detector; Multipass cell
##STATE=gas
##SAMPLE DESCRIPTION=Chloroform Primary Gas Standard
##PRESSURE=101.3 Pa
##TEMPERATURE=23 C
##SAMPLING PROCEDURE=1 L/min Flow
##RESOLUTION=0.9640
##DATA PROCESSING=NB Strong Apodization
##XUNITS=cm-1
##YUNITS=(micromol/mol)-1m-1 (base 10)
##XFACTOR=1.0
##YFACTOR=3.6379E-12
##DELTAX=0.4820
##FIRSTX=575.17
##LASTX=3974.605
##FIRSTY=-2.77E-06
##MAXX=3974.12
##MINX=575.17
##MAXY=.0027813
##MINY=-6.18E-06
##NPOINTS=7052
##XYDATA=(X++(Y..Y))
575.17-761778-435154 225952 406778-60617-372717
577.58-251007 220418 273833 146978-17236 185288
580.47 463961 95423 33184-37063-273194-336216
583.37-188321-26873-96299-239016-186672-286370
586.26-170072-80407-394907-366209-155479 107980
589.15 212683 33675-13283 4575-32979 33280
592.04-102185-239285-130297 6172-14357-61954
594.94 24399 43135 43758-18355-38808-43991
597.83-81701 98166 212990 3714 61965 67892
600.72 56198 178106 192614 219542 371421 348065
603.62 324814 230724 187578 188602 153392 150988
606.51 146254 226413 278606 223477 169594 322030
609.40 328871 388079 421451 461327 447527 385894
612.29 357642 316290 264712 321130 580847 600285
615.19 549336 586657 722897 565441 403103 339548
618.08 355170 296259 219260 356561 589032 914489
620.97 1302236 1557727 1135424 491230 277035 279756
623.86 183100 218354 407042 723954 1190367 1526462
626.76 1446950 841497 386094 469606 486090 375460
629.65 271683 232833 449537 515696 489393 539747
632.54 649156 542797 480493 485759 536059 560876
635.44 536642 538912 602176 545988 507090 496178
638.33 476512 450746 483317 431670 424280 423551
641.22 407370 331824 276117 225882 216140 201225
644.11 167781 63623 74135 133821 182185 100858
647.01 74617 139461 119107 91299 74786 86070
649.90 168974 163147 243145 326374 207615 181140
652.79 269846 353036 356163 292259 271356 391150
655.68 533828 540172 476043 522653 756559 750376
658.58 654003 728288 871691 1011966 1092902 1005325
661.47 1046324 1259798 1415945 1454734 1585050 1713084
664.36 1755145 1876476 2012123 2024856 2215680 2809000
667.26 3371769 3424610 3494969 3847635 4582763 5476717
670.15 6485163 7714757 9147876 10953659 13156128 14878419
673.04 15935798 17297868 17848982 15621738 13500562 12559003
675.93 9030499 4260301 2757068 3100006 3686959 4403451
678.83 5095408 5886168 6631049 7344830 8150763 8960059
681.72 9661940 10291413 10987701 11547184 11861679 12037991
684.61 12222938 12254862 12183261 12012812 11636444 11140606
687.50 10653532 10040405 9298999 8488989 7688553 7003866
690.40 6290631 5498820 4824581 4176456 3614067 3154503
693.29 2616145 2084857 1763159 1487862 1281674 1064749
696.18 915903 738024 640628 572073 430121 375252
699.08 351682 267346 173655 148797 178036 80348
701.97 10379 61762 89168 52063 69409 39242
704.86-11204 2832 61065-10258 30574 37878
707.75-133 20698 40918 34658 56833-62509
710.65-54189 21427 65472 20782 10255 29010
713.54 82873 96202 139588 95988 96344 84744
716.43 18585 26079 82564 92687 117144 124833
719.32 158217 158227 112826 98237 198844 223354
722.22 233514 232266 264748 320334 357003 333344
725.11 357065 398064 446103 484016 581343 690998
728.00 764341 778958 847036 986752 1114613 1127133
730.90 1256517 1354254 1467549 1593669 1785975 1913040
733.79 2122391 2299729 2502159 2791574 3111127 3374477
736.68 3715896 4099198 4517621 4875444 5336049 5788793
739.57 6378033 6992427 7638459 8312114 9088244 9905480
742.47 10800192 11668481 12669132 13817937 15085241 16269827
745.36 17565507 18930852 20418256 21909078 23504954 25103100
748.25 27003849 28907488 30885029 33011643 35402626 37977264
751.14 41271709 44516271 47732147 51823869 56140933 59994176
754.04 64139401 68699561 74027666 79828901 86146744 92961018
756.93 100189607 108135255 117779421 127855783 138422876 151281393
759.82 165219117 178197848 194213077 212521063 231146716 251066378
762.72 272856021 296658240 322757466 350515219 379778727 410553924
765.61 443900733 477753040 512851422 547974689 582703168 617025012
768.50 649690149 679706121 706501323 727814550 742382841 751918982
771.39 763815909 764528057 760233886 753762684 726987620 697259450
774.29 711523155 725020891 683306264 681093746 699531792 652663311
777.18 580228960 517525054 462514224 413832478 370373949 331930634
780.07 297001015 265883057 238189290 213153828 190816510 170522530
782.96 152345239 136433938 122142294 109463824 98125307 88064805
785.86 79011697 71000489 63714815 57330805 51607387 46650004
788.75 42082796 38003966 34429257 31300082 28418163 25980556
791.64 23821797 21973499 20249773 18735792 17262534 15849397
794.54 14571235 13441946 12276462 11168714 10161172 9338781
797.43 8287447 7328820 6322537 5521750 4956234 4565638
800.32 4132091 3668631 3132587 2719098 2407690 2150566
803.21 1887486 1701586 1542132 1419878 1201882 1075659
806.11 985283 866980 782876 710928 549828 493809
809.00 508976 485326 397208 406637 375253 307709
811.89 207813 177338 184893 166033 113527 143631
814.78 140889 93890 72806 70833 35635 59814
817.68 25212 39942 116158 199283 109773 79541
820.57 67098 48913 23588-15629-92225-68173
823.46-21553 50376 52917 36990 9133 89331
826.36 110099 71017 38356 42892 78174 119304
829.25 123521 144936 146278 128405 93221 69328
832.14 104390 193312 209358 209415 241219 282778
835.03 244585 266683 310001 362549 376824 425163
837.93 395005 397515 378259 412139 461602 519305
840.82 496942 476127 444178 503925 530290 559219
843.71 602064 616548 651881 738126 763255 777653
846.60 737339 770905 768932 863264 1093662 1289796
849.50 1307919 1336375 1293795 1244464 1276214 1305318
852.39 1283119 1381390 1542542 1651493 1653550 1599616
855.28 1638436 1682513 1581551 1446993 1367738 1320219
858.18 1220144 1153624 1093337 969522 796884 654556
861.07 608653 625655 592766 548413 448084 327904
863.96 248050 215411 216098 235778 268985 347495
866.85 340368 279905 202644 166606 140558 177347
869.75 131814 84070 107655 164585 159543 122542
872.64 119398 96773 88798 104896 69974 87213
875.53 125771 117560 115505 131521 134786 135104
878.42 123489 110151 68701 52292 62578 53394
881.32 45396 86154 91645 64675 19496 24733
884.21 22678 31078 9441-6138 12037 7085
887.10 13859 22160-6796-12577-2218-15206
889.99 4108 32073-17957-27704-3875-20845
892.89-39472-38838-18509-10332-35934-31384
895.78-16450-3305 19387 4491 14231 5419
898.67 6922 39168 27142 24656 49263 69235
901.57 77641 85507 65317 58564 61104 105190
904.46 179416 203869 193245 220800 238848 270407
907.35 297762 327225 330390 372508 410532 444538
910.24 473358 515981 556116 652871 720309 698647
913.14 679633 763938 831754 859918 854009 901095
916.03 944879 952914 960076 1002977 1055868 1078866
918.92 1088839 1080895 1095105 1137447 1184277 1215443
921.81 1211030 1208239 1192986 1177549 1187584 1217692
924.71 1261597 1287112 1361401 1430796 1451007 1472315
927.60 1463917 1406392 1358276 1449067 1647636 1879513
930.49 1986952 1896442 1680499 1387165 1156220 1201066
933.39 1396165 1601037 1733572 1712270 1504833 1106264
936.28 691884 627728 692652 691302 719097 785374
939.17 810793 869305 928441 958505 993467 1029012
942.06 1059591 1069179 1038535 998175 979563 988150
944.96 957026 943817 902728 829216 782287 722196
947.85 658895 650656 595137 555638 521025 469652
950.74 412352 386990 328323 276031 278541 301221
953.63 248551 153618 153149 178117 168407 171762
956.53 137227 101854 107078 136697 125185 93003
959.42 74488 78531 104331 78103 45944 43029
962.31 50849 60583 95575 113150 78014 32138
965.21 30459 49009 53921 47119 38807 23488
968.10 19217 38560 60218 72261 57649 64619
970.99 54528 29355 21768 19583 21483 10982
973.88-8440-10064-8791-16482-41332-74861
976.78-60123-47184-16788-10032-20153-30647
979.67-42970-44052-38944-51718-81163-59685
982.56-44635-32932-18089-24903-27992-70223
985.45-100545-83036-70781-103542-70511-41927
988.35-86139-101175-82400-82265-68901-45853
991.24-32164-36566-40065-71465-86369-52304
994.13-40414-72972-63007-12835-37760-60398
997.03-36937-27050-62411-70619-79990-54133
999.92-30039-12698 2348 10486-10663-48676
1002.81-59577-38192-34785-23308-21474-38304
1005.70-24708 24786 66218 74493 54736 47380
1008.60 33787 39539 95700 101342 65268 81024
1011.49 98733 114648 130226 120353 158199 200474
1014.38 189652 226489 261838 301310 342498 359086
1017.27 347925 343030 361270 380649 406757 428803
1020.17 449635 507987 547220 576403 561205 536443
1023.06 521566 538226 521000 526297 574314 571825
1025.95 560502 551540 525901 549379 581985 582186
1028.85 569418 559491 570135 591664 595888 596036
1031.74 596127 601637 594303 567365 543003 526860
1034.63 550763 559804 534096 540769 561197 540948
1037.52 494362 458944 424393 375123 349745 346687
1040.42 324465 302121 288201 241258 178121 160112
1043.31 141905 109522 76039 53202 294-11301
1046.20-111-18287-44870-32976-5638 24374
1049.09 8528-18731-20283-17635-16103-13901
1051.99-36849-16252-20504-49011-28197-47475
1054.88-37278-18213-30056-53699-84876-74833
1057.77-39766-14765-51663-84526-66235-49208
1060.67-44223-50440-56526-45102-27789-58047
1063.56-78262-33852-47808-103104-138115-104699
1066.45-91165-89183-82502-101321-94286-18917
1069.34 22883-51766-94568-66482-34711-35231
1072.24-57696-77637-58179-47227-80490-90117
1075.13-64629-54793-57921-68115-70632-61599
1078.02-42994-58946-90511-79356-86286-92618
1080.91-71542-60141-66337-87829-89718-102847
1083.81-99718-85463-73085-83808-103930-101636
1086.70-83003-80987-77620-89049-54377-58735
1089.59-83956-75728-73026-58189-37598-26063
1092.49-49846-78366-71202-71724-94057-76574
1095.38-61140-69149-73358-86819-108130-118644
1098.27-79793-69707-91393-61184-8367-4329
1101.16-64493-95112-114737-110208-81461-68324
1104.06-54308-49248-27982-34101-60019-78244
1106.95-84879-112621-87761-63452-104765-99683
1109.84-59861-73777-110089-112853-72589-72634
1112.73-55931-39023-65750-90868-71334-70584
1115.63-106794-100463-58353-88915-108730-84337
1118.52-59814-94757-108992-90380-73420-57810
1121.41-74287-86498-110973-105523-82417-58507
1124.31-25016-50264-98315-88372-56919-40558
1127.20-72999-89090-86119-73537-71538-48209
1130.09-48714-63898-58958-61262-61244-93565
1132.98-101204-74774-74385-82544-43541-56061
1135.88-87045-96483-73642-67398-82045-93923
1138.77-89701-64940-28562-23380-45967-101533
1141.66-120207-53172-16125-16712-38613-67055
1144.55-52311-53398-65821-71223-38530-27178
1147.45-46220-81001-97396-104993-95429-57750
1150.34-47064-70351-78033-94368-101211-94158
1153.23-67487-64393-81414-79382-77076-92504
1156.13-112484-83790-20677-5502-82227-118635
1159.02-102973-106990-105340-91405-46268-20049
1161.91-42038-64816-38479-56649-73766-84991
1164.80-86067-43121-39620-73791-80400-36751
1167.70-7600-35789-30863-18865-43846-45373
1170.59-51932-55673-45423-41589-28399-35500
1173.48-21888-6136 20640 5240-5467 18681
1176.37 44515 35352 52448 47016 43562 56242
1179.27 107073 99633 99560 118779 138892 135314
1182.16 174908 206757 217589 232654 279206 300039
1185.05 342288 349832 376540 406715 450753 511727
1187.95 576665 609905 657695 677416 734213 761123
1190.84 755293 739252 766535 815711 880198 907046
1193.73 969342 1038547 1169109 1264286 1353304 1460376
1196.62 1639565 1815242 2016953 2239572 2515169 2767889
1199.52 3101973 3457852 3883431 4335569 4865547 5418055
1202.41 6058857 6749750 7533744 8363944 9309397 10297077
1205.30 11353601 12461269 13691651 15022361 16570364 18414451
1208.19 20726590 23159628 25525800 27953044 30644191 33552937
1211.09 36754877 40187080 44146098 48681518 53774470 59343495
1213.98 65546182 72237599 79667332 87753627 96578009 106172440
1216.87 117217159 128569813 138795204 145131519 144418192 136998225
1219.77 137254344 142992642 136267542 123737151 111875711 101316352
1222.66 91372762 82396894 74215694 66944948 60283792 54372103
1225.55 48989338 44231161 39859006 35944758 32381374 29248815
1228.44 26349221 23798389 21431511 19335489 17444718 15794379
1231.34 14271424 12953405 11707425 10570296 9518922 8626084
1234.23 7816461 7108088 6407119 5822088 5248034 4767645
1237.12 4318408 3885714 3485653 3190862 2884145 2635491
1240.01 2411150 2175607 1925431 1727864 1531782 1393001
1242.91 1232986 1112835 999898 917810 814654 740078
1245.80 657484 583764 530861 496463 434086 401731
1248.69 356762 326124 280186 280534 248033 200433
1251.59 142812 129432 106355 101944 97275 83172
1254.48 55231 49684 61472 44444-14138-9757
1257.37-7055 6583-10365-8310-24910-42486
1260.26-25612 8581 1669-4666-58945-86633
1263.16-52565-23182-33967-65297-73252-54379
1266.05-79303-59286-60567-57929-63991-41788
1268.94-60420-73976-68855-76736-69636-35712
1271.83-35700-65232-71891-31888-39773-45325
1274.73-33503-33149-40656-31124-69328-91033
1277.62-104010-99018-95924-35954-5873-25369
1280.51-63682-60925-56147-77870-83095-47631
1283.41-55283-77398-82894-78597-80497-64109
1286.30-70702-55643-67315-61479-42820-55343
1289.19-70349-51789-42106-50484-51972-50691
1292.08-74932-81815-74896-71954-87910-81565
1294.98-75553-64911-93678-92938-95476-69060
1297.87-54140-78627-98865-80235-55717-44113
1300.76-50580-48245-55548-45923-43404-69409
1303.65-93239-94015-88266-38882-43379-64251
1306.55-90451-96755-92758-88216-95940-79438
1309.44-76164-77238-72950-46083-38523-27798
1312.33-43265-71519-92887-85450-99508-88628
1315.23-68819-73902-77112-67420-85465-82843
1318.12-94005-79351-39014-26785-48172-55605
1321.01-57379-63076-78738-76784-44042-21629
1323.90-31295-34083-44067-43046-61862-42532
1326.80-31537-37857-41844-22185-8524-28690
1329.69-13813-18999-54261-26405 6619 4272
1332.58-16896-11331-8474-4274 8471 4120
1335.47 9677-466-5282 20135-32226-83392
1338.37-76740-29842-45805-102215-69678 5131
1341.26 15311 15943 32022 48554 47508 42412
1344.15 25998 31624 18553-9045-32537-60296
1347.05-49834-18497-29438-43876-30231-59265
1349.94-110407-123529-124394-155190-156621-168970
1352.83-186497-160315-103985-36252-101263-109554
1355.72-52621 26052-13110-49130-74438-55718
1358.62-30041-87935-150491-171343-209365-142929
1361.51-124033-187514-274706-233655-112565-105934
1364.40-127390-107674-104934-103147-87607-49416
1367.29-18565-57694-74925-79333-109529-102746
1370.19-77655-67228-76697-86115-93223-128683
1373.08-226261-224967-139890-114807-95326-69042
1375.97-45719-16806-31571-65246-59301-47099
1378.87-55422-63347-80253-71352-22594-14673
1381.76-40278-59245-56300-31238-46072-47475
1384.65-36012-48835-57103-104487-209118-319549
1387.54-191134-73516-15520 8198-23447-38810
1390.44-42278-55398-56776-60634-55751-44518
1393.33-109735-308240-267638-108377-165509-143315
1396.22-57257-50471-78691-60138-116234-230716
1399.11-146631-80077-72572-40043-20460-8810
1402.01-21790-24980 3755 26851-36308-171792
1404.90-117877-15614-14743-15210-22575-1256
1407.79-10150-33049-53642-48186-50793-39197
1410.69-28609-20549 19804 33116-10212-34957
1413.58-33846-20016-150 12592 18430 34008
1416.47 10902-53726-14601-31656-281344-602481
1419.36-327394 45501 107666 173896 183782 163749
1422.26 143654 138416 134614 184194 269070 310281
1425.15 350071 401436 411851 416740 429898 465492
1428.04 509732 573821 552715 535890 654657 774527
1430.93 828936 894052 953986 986634 1038639 1134580
1433.83 1204465 1261792 1333626 1388777 1171542 903504
1436.72 1304948 1759425 1887481 1965494 2044229 2138019
1439.61 2208557 2316714 2421229 2499370 2471451 2425448
1442.51 2449469 2581477 2738988 2748695 2545558 2349568
1445.40 2333972 2493392 2597565 2450464 2073644 1850944
1448.29 1770892 1798659 1887418 1762004 1530892 1320444
1451.18 1136704 957503 856903 770817 682477 568352
1454.08 458243 353000 277064 81749-599326-843450
1456.97-240441-92184-121725-10436 22592 72723
1459.86 96841 113992 126163 110063 93067 74339
1462.75 100918 123616 49764-183089-146109 117123
1465.65 197030 229493 234798 258686 284154 323200
1468.54 333836 366382 347511 320233 314822 148283
1471.43-184866-21303 149972-120389-7421 266369
1474.33 315005 328246 202135 96476 244784 381269
1477.22 389967 410230 397412 398199 404394 396669
1480.11 372237 312644 311031 360159 378829 357248
1483.00 326809 341486 346263 375262 365585 335514
1485.90 332619 229809 91839 179711 257447 204932
1488.79 99282 3566 13262-42131 14129 133093
1491.68 117938 102880 83755 83785 74296 80113
1494.57 43354-122144-604374-556481-89151-18045
1497.47-75007-242785-297095-97249 15889 25416
1500.36 27194 12793-2006 13917 37940 61693
1503.25 59672 30301-79341-550348-884809-476058
1506.15-675040-925053-374574-87744-102103 11574
1509.04 24886 45627 130905 186834 207855 79621
1511.93 32310 222345 318457 327252 316523 277275
1514.82 300382 359085 285985 191885 115897 237900
1517.72 465902 545070 561523 495682 353939 253007
1520.61-198845-4448 505503 434141 572743 785070
1523.50 859891 848583 720357 568509 808818 1001580
1526.39 989610 950381 1036564 1049068 1100149 1198837
1529.29 1246785 1270833 1295025 1294056 1303416 1333868
1532.18 1266922 1133409 1061337 1120135 1399693 1463927
1535.07 1484132 1518536 1568641 1562819 1575422 1473828
1537.97 1124752 460126 781959 1039098 932863 1454872
1540.86 1608737 1211426 1212111 1701257 1793135 1890212
1543.75 1985837 1849091 1685127 1912858 2065954 2108890
1546.64 2028859 1996267 2011884 1917901 1782579 1626880
1549.54 1500933 1421028 1375700 1302780 1217734 1167784
1552.43 1164065 1108208 838871 583755 936624 1192677
1555.32 1250500 1238941 1184798 833470 580261 196203
1558.21 134951 709236 452791 16976 458033 1036617
1561.11 1069219 1042123 956213 953709 892449 837186
1564.00 689119 615680 649010 647826 575182 560446
1566.89 512334 470046 353953 231970 27501-152181
1569.79 34886 203410 197413 203883 172336 157243
1572.68 86109 84079 56737 53120-41567-454443
1575.57-1206575-830290-156219-37993-13523-1596
1578.46-7262-25356-43068-43163-34748-35655
1581.36-30697-13745 2888 12288-29525-34563
1584.25-32408-16634-7891-19811-37991-25673
1587.14 1113 7847-26584-38398-48482-51993
1590.03-54537-46200-34412-52342-61167-58728
1592.93-82027-106963-126364-86659-80030-90410
1595.82-93123-62922-56849-63090-58901-69887
1598.71-76818-70896-75300-74946-91446-78615
1601.61-75034-86047-111655-104859-94108-81770
1604.50-108690-112561-107851-80357-84955-69560
1607.39-63552-61077-104791-128161-118873-102039
1610.28-114502-90195-77785-66797-87859-93713
1613.18-104377-65819-67763-91116-159958-463019
1616.07-1147681-905425-248664-124284-100898-76530
1618.96-80358-104955-106561-104662-101998-105384
1621.85-114296-181030-419188-438772-177864-82110
1624.75-65139-70496-80187-114237-156434-256361
1627.64-207861-97542-70669-71907-68265-75209
1630.53-88094-84700-73503-86377-90157-96721
1633.43-109346-227918-506052-948101-915912-341076
1636.32-152724-230115-244237-127215-96310-90237
1639.21-113072-106349-128249-119552-114495-98833
1642.10-94200-67965-73380-65373-78640-117046
1645.00-484931-864068-504360-266990-372185-319996
1647.89-299954-175657-114060-68410-95929-111555
1650.78-173273-470317-1277666-1522956-1608296-1049413
1653.67-542057-547642-237035-119873-94774-95446
1656.57-72215-106065-90338-97943-64607-68891
1659.46-67766-73404-77554-100731-129274-298281
1662.35-443853-241699-71857-74862-92324-88348
1665.25-69469-69505-45237-47950-71954-130295
1668.14-237806-563632-570839-211546-118138-208072
1671.03-276520-147945-73394-84131-89539-81332
1673.92-155207-517275-720225-327934-71215-49559
1676.82-57492-55062-55683-61834-101835-125798
1679.71-142338-137794-80983-75908-90523-201615
1682.60-410126-451403-569134-1284050-1397226-441417
1685.49-125955-86326-70431-43652-123108-150494
1688.39-129939-66363-122027-129968-88797-57439
1691.28-85023-75169-98591-89624-97902-62945
1694.17-137810-433717-1293112-1329906-437861-160857
1697.07-188357-152223-125013-210306-647010-1199882
1699.96-1193884-805897-280326-100215-85060-91452
1702.85-87655-159271-311066-256199-108248-177376
1705.74-323302-237584-90313-76430-74830-48578
1708.64-30419-86473-134289-109144-79564-75495
1711.53-72461-56170-57473-126288-195397-218093
1714.42-379620-399803-168330-137983-461290-1130745
1717.31-797215-445944-451973-206542-100774-84388
1720.21-73827-74870-89710-79619-87604-112238
1723.10-138790-102349-65065-55354-81830-104395
1725.99-114220-99041-92417-85238-84598-90993
1728.89-125297-191840-183209-97366-93314-96052
1731.78-124750-276141-777892-726447-737323-927380
1734.67-407536-131423-73953-71850-76224-100385
1737.56-54209-62358-132067-384129-457037-191014
1740.46-83058-85023-80504-123020-181208-177759
1743.35-133297-127292-118782-102179-95511-89464
1746.24-125009-167663-135452-167621-263455-229453
1749.13-141609-93742-201273-537380-552907-202480
1752.03-88505-99477-84541-68444-68620-67994
1754.92-83331-89859-190912-288450-160212-68342
1757.81-63675-79393-84789-85359-75853-72519
1760.71-168631-423604-348481-115784-82644-76451
1763.60-61587-43077-63986-57293-47770-50460
1766.49-83517-141818-350700-342261-129403-69617
1769.38-55239-78704-174003-287451-210673-466653
1772.28-754946-369946-126168-110836-86318-89556
1775.17-108072-59508-25405-38471-29693-41554
1778.06-66324-65967-45238-65930-159608-148219
1780.95-51069-31014-16291-25940-44667-53617
1783.85-80096-197128-139091-43418-39308-41930
1786.74-28609-24939-31213-51710-50453-26987
1789.63-37321-145550-184310-92375-199296-508808
1792.53-372112-68689-20299-27716-50583-52295
1795.42-55563-36761-18370-5985-2098 13637
1798.31-19270-115194-143123-42088-26737-85132
1801.20-61990-42300-45700 3401 13258 30534
1804.10 18881 15799 20989 43705 48700 41046
1806.99 19152 19897 29415 69405 67105 48699
1809.88-15629-15845 44945 79921 87599 99398
1812.77 102672 113582 107251 100625 110805 108248
1815.67 100002 127413 116384 106234 130990 137078
1818.56 133437 159820 171780 154532 151399 148942
1821.45 125540 117280 111575 127900 119038 85088
1824.35-32145-115908-21054 32367 44012 42114
1827.24 44750 64854 33553-12506-44763-96080
1830.13 65284 185014 212892 216345 210028 223339
1833.02 222090 209805 196333 182015 167264 165654
1835.92 140309 109857 95433 114191 110576 100931
1838.81 79711 66411 55703 71624 75471 51950
1841.70 42364 35329-29222-188794-461874-306743
1844.59-45481 3668 12070-12289-39140-58909
1847.49-47443-13630-13475-22858-32850-22738
1850.38-5300-15081-41576-32412-18002-23204
1853.27-37581-40665-44542-30844-17883-10673
1856.17-11943-30394-54411-47183-54265-51000
1859.06-43726-37549-48601-59880-45612-35509
1861.95-43748-46444-45200-36091-46626-59395
1864.84-57015-65362-94645-90204-104584-151012
1867.74-128808-139023-277383-247347-110374-90631
1870.63-96100-76799-53611-72622-96914-86654
1873.52-74501-75922-62444-63355-74298-72072
1876.41-70645-85161-90881-86869-84144-80788
1879.31-56121-35220-41190-55099-63181-67204
1882.20-68043-68293-81995-73121-56646-52502
1885.09-80736-65591-26770-31099-63831-75629
1887.99-76261-95810-160870-105286-38269-32763
1890.88-26168-30431-24406-26531 114 11535
1893.77-14768-46058-59501-48264-28638-26472
1896.66-35614-39647-49270-54545-61790-43335
1899.56-36308-39332-38583-44202-61152-71901
1902.45-66126-50459-59353-61036-46021-55917
1905.34-69998-68854-68526-94836-100056-95201
1908.23-91666-73722-84680-102528-84664-76243
1911.13-81000-90220-87979-75596-58812-71616
1914.02-74680-81964-65975-59202-51459-60893
1916.91-128546-262584-196065-72717-64314-84574
1919.81-81182-85541-84139-63258-84625-121113
1922.70-135217-80881-56498-57993-60766-47419
1925.59-45021-42238-55792-81588-72971-57882
1928.48-65800-74281-77100-60582-63701-87138
1931.38-92381-73658-57202-50347-55324-48571
1934.27-54819-88275-109864-100843-103456-83631
1937.16-72487-79810-74190-76055-79192-67902
1940.05-44234-48458-71905-91914-156192-123832
1942.95-53535-45045-71394-99342-107811-95186
1945.84-91455-82400-70923-69816-67621-73243
1948.73-79265-70463-44071-42912-44697-49215
1951.63-69778-54138-37933-41708-33968-36684
1954.52-72183-89815-75648-48031-51293-55392
1957.41-44304-51612-63536-51091-42629-32580
1960.30-44101-38685-27062-25971-24989-34923
1963.20-41423-37746-33671-32520-39851-66864
1966.09-66996-63107-84292-81126-62297-39794
1968.98-47938-48583-48189-43216-40298-25305
1971.87-11838-20105-28016-7013 7267-26022
1974.77-75799-76105-48477-31781-28691-34599
1977.66-36013-28889-40529-24696-15830-9683
1980.55-6899-15128-19101-12360-10165-10145
1983.45-37658-34228-25094-34123-31083-38275
1986.34-41081-41992-43544-38929-31639-33901
1989.23-18177 6553 3711-1553-46216-60107
1992.12-23925 7094-2591-40954-53802-33242
1995.02-27283-37040-53815-53565-48208-40748
1997.91-24844-27680-40518-31641-28050-30251
2000.80-43329-50939-52427-39593-13960-19628
2003.69-39450-41759-30796-34565-38325-39368
2006.59-42705-58465-43714-7488-6866-43277
2009.48-55646-41994-36596-22660-37870-42941
2012.37-39216-44740-54764-56802-55316-63884
2015.27-66470-79273-96425-64341-37700-40653
2018.16-50818-66500-64607-45022-49760-55682
2021.05-55220-59846-61355-60097-54351-53685
2023.94-70437-69252-57659-48125-48912-61748
2026.84-61412-67935-69401-62582-67596-61883
2029.73-68384-69854-65574-72994-69849-79330
2032.62-78412-71422-79158-74033-69751-58606
2035.51-71130-63313-41127-34105-47583-65874
2038.41-67309-52676-64280-91476-88345-94284
2041.30-82480-54379-53036-65256-66681-57353
2044.19-65732-88558-72087-58770-91778-104943
2047.09-76450-47274-53680-67273-76091-73283
2049.98-61741-55040-59799-61998-72069-89159
2052.87-106663-99530-72771-55963-69448-84504
2055.76-70769-68540-59713-36810-37456-57508
2058.66-69812-92476-85405-69185-72571-74093
2061.55-86063-72981-49147-49991-70939-93207
2064.44-73445-27630-31983-50554-93721-107018
2067.33-99816-82392-84449-77087-69943-68450
2070.23-76037-80768-68450-64156-59401-57828
2073.12-74218-79905-81697-57792-57321-73211
2076.01-91423-74827-71445-58590-53730-62131
2078.91-76672-99512-84961-76848-78503-91503
2081.80-86275-70113-69462-74169-82381-85130
2084.69-84156-81557-83104-76454-66793-68468
2087.58-78070-70649-78270-94063-100050-96552
2090.48-71113-52048-63243-66824-84585-93900
2093.37-83900-94660-107895-90211-68859-63202
2096.26-59232-49384-58396-87178-111356-93004
2099.15-66314-78759-69822-47610-55718-73682
2102.05-87283-104085-108207-92324-84166-85145
2104.94-88591-83571-54196-59607-89894-75777
2107.83-71538-70371-63338-74039-59496-80401
2110.73-132451-121126-57756-57961-69268-73145
2113.62-68181-55978-78712-113713-93313-51776
2116.51-40730-48158-60705-71560-80219-87647
2119.40-83007-43368-44577-50370-60293-47747
2122.30-63351-113474-144203-110626-75654-51666
2125.19-61945-61216-57166-77538-100356-67432
2128.08-42816-55089-55447-71855-91116-83413
2130.97-81738-84964-77757-66661-81354-75630
2133.87-62433-56110-86341-68291-29309-57704
2136.76-55253-47239-56586-56027-52491-60317
2139.65-63870-64726-65865-79897-66727-36527
2142.55-43472-64707-60095-56558-86825-88933
2145.44-72462-73377-81213-65962-57739-66392
2148.33-77086-64224-56121-69329-90220-69944
2151.22-55743-58715-67749-65607-59172-77397
2154.12-99929-78078-55248-47547-40109-49708
2157.01-83391-106838-101995-63589-58183-53385
2159.90-51073-53582-60682-88645-85551-51802
2162.79-40557-30181-46440-62932-97745-115623
2165.69-71722-40204-40232-45304-51573-78161
2168.58-113973-107043-80866-70866-66693-65622
2171.47-70641-85157-66598-45509-51171-44672
2174.37-33120-43457-77917-95117-49423-21040
2177.26-45688-74423-82976-69209-97927-92981
2180.15-48272-32420-41250-45427-51064-67921
2183.04-59141-27304-26257-15130-3079-20371
2185.94-75330-67385-18110-12290-1025-4097
2188.83-25239-60879-57766-37861-31908-20426
2191.72-15171-18385-24592-10925 2863 14275
2194.61-5380-7044-15674-2916-1767-16578
2197.51-24859-995 15608 33570 32289 27594
2200.40 5402-16988 3190 21469 11023 11369
2203.29 32206 38047 51168 28261 15189 17039
2206.19 43799 52700 55103 48913 64295 35974
2209.08 27355 22481 33263 30436 47898 31021
2211.97 27177 30238 43745 72135 83232 71626
2214.86 53970 31878 25137 24559 39455 31337
2217.76 8013 2268 13061 22964 11724 38
2220.65-46 24101 22018 1772-6919-10812
2223.54-8902-23398-17159 8758 35168 26236
2226.43 1046-21706-10416 11010 28774 48538
2229.33 37038 26679 40848 52167 39972 44361
2232.22 30629 19344 36062 45206 43780 30255
2235.11 26850 34769 43903 37422 45829 67285
2238.01 68544 57156 35552 21043 27716 33426
2240.90 37097 38476 11828 10036 38810 61171
2243.79 27877 7505 425-7777 12574 23351
2246.68-4812-27911-27002-20412-34285-40027
2249.58-38183-15636-11430-1881-4329-17421
2252.47-14658-16915-15189-21580-35624-34075
2255.36-17016-11073-23695-36077-31006-35118
2258.25-45435-38690-20776-14731-11704-24208
2261.15-61847-53634-40818-25620-25728-40283
2264.04-36413-27154-20117-11947-9889-14277
2266.93-7337-15727-29625-22625-9338 6222
2269.83-2041-39767-63610-33398-6949 5610
2272.72-2903-9258-463-1439-12660-7890
2275.61 14237 25126 18861-3383-2204 4426
2278.50 866 9763 17567 26286 43074 34050
2281.40 26886 13286 18370 59012 69791 45580
2284.29 33206 51539 70482 80476 84691 83623
2287.18 76539 61958 57729 67961 68114 86724
2290.07 76073 68460 62691 62905 80124 87907
2292.97 76529 58671 40171 20426-1235 22315
2295.86 29287 19540 13376 16826 4899-7488
2298.75-18150-16609-11224-9630-23099-11642
2301.65-10036-1495-36329-46267-38557 8157
2304.54 1026-37751-46497-17198 11097-14569
2307.43-26637 2999 36995 39485-7913-6649
2310.32 37374 71647-6883-27527 33589 101758
2313.22 28040 13862 65152 165478 71037-3483
2316.11 49385 195615 108811 25411 53310 217272
2319.00 167899 25408 69596 291840 262795 72456
2321.89 109453 352555 314724 77566 129699 424314
2324.79 368269 77734 173457 492379 369321 64225
2327.68 260869 599158 367291 61246 363841 644805
2330.57 313684 119522 533415 672834 229962 180577
2333.47 671928 597112 139147 327838 718651 430444
2336.36 154732 540425 684914 260434 272445 649409
2339.25 465757 138143 457810 630369 265469 254480
2342.14 571263 394013 148907 356778 404060 147398
2345.04 190142 295251 148375 106413 206967 148482
2347.93 46197 30921 62593 91990 67514 97421
2350.82 244466 194064 143127 337752 309532 190099
2353.71 472986 422522 211536 522036 536521 289950
2356.61 642175 617051 340383 704072 615463 377712
2359.50 763242 543046 427972 814506 494375 524588
2362.39 770244 412008 624409 639703 362706 665996
2365.29 473125 431178 623688 347927 510872 420235
2368.18 336292 501470 299799 399023 330286 263065
2371.07 317978 185335 268403 170101 195773 143839
2373.96 109961 144741 107237 107290 44791 74511
2376.86 76624 71309 46374 58947 49496 51264
2379.75 52797 75669 48293 9249-12580-11725
2382.64-5780-3581 8472 15984 30706 33632
2385.53 43800 70845 82566 65710 82259 117756
2388.43 122791 111196 126665 138347 154829 172251
2391.32 199420 235190 277115 297449 333931 353831
2394.21 369849 387146 425212 457372 495987 548406
2397.11 609013 672340 682103 584091 522888 510424
2400.00 477435 436313 426039 386884 376923 404268
2402.89 402153 360831 330525 314205 319620 339597
2405.78 430572 622207 1033736 1738774 2915698 4363837
2408.68 5256445 3844584 1425524 490973 290428 253016
2411.57 220722 254691 296015 371098 431595 487986
2414.46 504588 541966 581010 627103 660326 704330
2417.35 732594 759175 763854 768708 770212 753917
2420.25 746423 740354 724660 717543 696923 660682
2423.14 613115 573273 535561 515710 469327 431923
2426.03 390636 373204 352434 347165 319275 297084
2428.93 280506 281766 260405 240243 216937 188565
2431.82 161898 146562 131539 122556 98504 90420
2434.71 75365 56500 60018 75918 92384 126837
2437.60 158711 181088 212291 277209 317587 335005
2440.50 351285 359707 380609 384375 335681 311956
2443.39 265410 223692 178889 175408 164752 154501
2446.28 147471 131563 121416 129086 157806 182720
2449.17 180915 174280 169926 173108 192556 221236
2452.07 217954 197167 184360 205369 215916 229958
2454.96 239454 224194 210571 217151 227916 221983
2457.85 207964 216476 215778 186405 178837 187781
2460.75 170805 160739 142011 122854 111663 125247
2463.64 135437 120829 92702 94404 107355 87104
2466.53 68034 76431 62238 64016 75656 67029
2469.42 35745 26010 31456 3449-11956-7181
2472.32-17549-20119 3997 7741-20213-36935
2475.21-33377-17623-13179-33358-52638-48249
2478.10-53274-54112-54734-69887-76651-57295
2480.99-37355-30911-48049-61523-68945-81225
2483.89-82696-56683-62754-79569-82952-69268
2486.78-64074-51927-54393-57132-67806-66283
2489.67-71769-83531-83358-62615-53829-42803
2492.57-63675-74650-61130-65680-77995-77064
2495.46-61418-67277-71773-83626-96979-89070
2498.35-75228-75237-96605-93664-70015-47864
2501.24-35654-31556-47634-70172-70252-74687
2504.14-95367-63313-38716-48870-39001-48726
2507.03-77583-93823-101724-86196-78861-76324
2509.92-81706-90717-80467-70935-73967-75201
2512.81-74967-68435-54160-79322-98295-70451
2515.71-45308-44164-45623-41728-56763-76301
2518.60-68500-77191-89142-90949-106913-107756
2521.49-100517-62778-42782-56470-88813-88130
2524.39-69072-86070-95185-99630-105528-102642
2527.28-80588-67490-60161-63429-69115-85073
2530.17-95810-76992-62329-60480-61579-64221
2533.06-100463-102432-82699-90378-91132-95318
2535.96-93504-74457-67857-69943-59410-77571
2538.85-78002-89856-83489-65245-93357-112012
2541.74-100704-94915-96193-87767-63716-71446
2544.63-110303-108054-86277-88401-73376-91763
2547.53-105358-76540-83541-81957-88181-92467
2550.42-79085-74927-82101-95390-100038-108252
2553.31-105358-89467-75551-80276-79152-80213
2556.21-119576-114578-92470-101182-100975-115280
2559.10-96922-79495-79553-71655-80576-74719
2561.99-69810-81226-83983-94873-78528-22426
2564.88-33944-58978-63940-59807-64278-37959
2567.78-38638-62505-84722-78632-71355-92110
2570.67-112775-122468-116105-117497-132147-137878
2573.56-114378-109855-104779-75352-61371-75069
2576.45-87618-89852-67691-62463-95216-106172
2579.35-88762-82406-52339-26753-48145-45724
2582.24-32576-46187-76955-72247-43202-62175
2585.13-93533-92226-92485-75115-76772-100767
2588.03-76857-79096-88594-78426-89343-106477
2590.92-121555-140820-121697-89072-101405-82202
2593.81-52942-54181-55037-56635-60561-66624
2596.70-78844-109401-104334-72388-64960-66994
2599.60-86961-121730-110153-84275-74616-69579
2602.49-80714-94864-65428-67965-79339-96527
2605.38-94844-85940-71776-60364-67669-80341
2608.27-94994-106822-78545-70496-93489-102140
2611.17-106217-88930-84333-96258-89267-73207
2614.06-51040-68187-85229-70758-43791-64311
2616.95-81453-86051-70270-62539-84257-98916
2619.85-97154-85607-91360-98131-102872-99279
2622.74-99610-90752-85400-73110-66378-70756
2625.63-59839-79270-96432-93136-98499-86088
2628.52-55278-54005-80428-74520-63366-75192
2631.42-77775-86668-109476-107303-77482-82760
2634.31-82356-61169-67163-69901-66396-70178
2637.20-83491-63608-62406-77183-59711-65530
2640.09-69007-64153-82045-60108-50258-54260
2642.99-60259-84086-93931-95070-72780-63569
2645.88-65633-44163-50187-51102-58054-86554
2648.77-103374-85691-81849-106392-100577-80013
2651.67-85500-84876-48696-38742-73268-88582
2654.56-77611-57296-56258-71094-76679-90195
2657.45-92944-120701-114472-84246-67931-98855
2660.34-110915-86529-67987-65680-62114-64112
2663.24-47387-36430-77482-89389-77003-84208
2666.13-76623-65117-81131-90332-93160-101364
2669.02-97721-92505-85040-63819-60205-62178
2671.91-67974-76449-77246-89410-118010-109138
2674.81-87610-51662-28402-82348-123326-113574
2677.70-80231-51781-48263-54523-66955-65910
2680.59-76826-97883-74785-68241-84704-81801
2683.49-61168-65433-81883-48544-35611-40626
2686.38-64592-90038-74533-45305-65939-79890
2689.27-80893-85019-77553-57289-46207-69871
2692.16-96840-81686-83840-99943-98336-86522
2695.06-93050-136037-129009-89553-104271-133754
2697.95-136118-121706-119803-120059-90471-81278
2700.84-73716-69443-103647-134146-94092-67147
2703.73-109835-92873-50870-56242-55531-68903
2706.63-38696-8287-30811-35929-28018-14770
2709.52-22119-37541-49240-54812-67591-75163
2712.41-67924-73906-100313-96830-88285-94004
2715.31-95890-98952-73662-67342-80162-85137
2718.20-90575-64518-37552-62387-82641-102635
2721.09-103501-110565-129882-129131-124500-129908
2723.98-108835-65928-66323-87253-119956-106520
2726.88-88919-80857-67578-57919-59098-69299
2729.77-63933-78178-94504-84911-82032-78480
2732.66-62463-34423-52405-74898-77687-61867
2735.55-61667-73136-71044-49446-39993-80598
2738.45-84820-75340-101524-98710-58419-62302
2741.34-85486-72219-63429-84476-81646-89689
2744.23-90033-76235-57482-70433-100077-92878
2747.12-70828-72976-94393-73094-68334-80751
2750.02-84529-85357-106798-103928-104324-87145
2752.91-55021-47659-57664-84559-101397-125892
2755.80-131475-113559-102275-78054-79225-106347
2758.70-111539-102564-100379-91370-84062-81888
2761.59-99076-77746-47893-68896-113843-97726
2764.48-89393-108643-112914-107887-98250-87422
2767.37-80529-52820-48173-73636-105045-131219
2770.27-119765-110576-98230-89936-78388-74581
2773.16-62385-73600-86583-65644-81097-123658
2776.05-125299-124960-135353-111708-66242-42336
2778.94-83548-111729-96774-82598-75407-62294
2781.84-61366-66153-48046-63276-106557-92691
2784.73-83929-105537-98890-95031-96297-102122
2787.62-96942-76404-70795-74005-61647-75891
2790.52-94840-103010-119118-111156-103479-100741
2793.41-99604-59601-54931-80054-95024-107677
2796.30-96700-53644-26860-48100-76099-85502
2799.19-98208-104074-93854-92470-94205-101746
2802.09-113772-106127-131129-138906-93085-51159
2804.98-46839-104566-147974-120896-99686-87300
2807.87-63925-91933-82852-76000-77596-79448
2810.76-81236-75254-114194-135305-122272-111514
2813.66-147155-161162-128060-107202-121266-92366
2816.55-88350-97622-79826-90054-114066-109174
2819.44-114085-107919-94470-88858-87014-96847
2822.34-86447-83780-98555-97219-109380-96611
2825.23-52609-43347-65202-97271-96487-84990
2828.12-78373-72690-68315-67399-55413-45067
2831.01-28560-41719-54723-77346-82761-79464
2833.91-78593-104964-125881-113986-119465-107274
2836.80-106614-99832-75169-78069-90045-68439
2839.69-60851-52033-92211-107951-73521-69293
2842.58-95727-76308-77888-113641-89472-79526
2845.48-91948-104536-100589-72647-63010-60183
2848.37-86055-114061-116144-106791-80278-60604
2851.26-73243-115714-110531-88540-92418-109433
2854.16-127530-150637-149184-125251-112241-125475
2857.05-113453-89349-74222-63451-54142-60850
2859.94-99904-130320-115147-93849-73556-53165
2862.83-87342-88449-111100-130113-128593-126646
2865.73-117669-115546-131457-148257-124726-103592
2868.62-116957-135982-101682-45610-44471-91397
2871.51-118546-117128-103603-108880-94718-99993
2874.40-137966-122737-118646-100734-60718-84350
2877.30-97795-100507-95719-86850-113931-128797
2880.19-95294-88159-106914-120534-113335-92299
2883.08-81374-111834-143772-164172-152436-135616
2885.98-123101-139620-110874-85739-109764-118957
2888.87-104489-132140-141686-76815-54774-92080
2891.76-105806-86796-88339-120874-151274-155456
2894.65-141007-137702-144751-119470-72354-57810
2897.55-88318-95729-60389-56808-73760-72597
2900.44-66866-72655-100767-121610-117492-98406
2903.33-111689-122603-149721-176463-124475-47777
2906.22-81927-127785-129245-105644-83044-79597
2909.12-104077-97027-94493-90789-109434-104644
2912.01-101968-113364-103054-108194-137307-177123
2914.90-169820-134578-117399-125745-120603-116646
2917.80-104113-109020-146735-153951-174785-177397
2920.69-138084-110760-115958-127910-148970-170934
2923.58-146809-155671-171946-166340-142819-104264
2926.47-99806-137778-169462-137675-109814-138817
2929.37-160153-151833-155710-132913-132844-144184
2932.26-127167-135545-103498-97245-119272-160146
2935.15-140138-101002-122255-156047-153415-162770
2938.04-146217-133119-130924-126441-120006-135669
2940.94-131563-123306-125103-94260-99938-100297
2943.83-77918-81724-128607-148079-134081-126106
2946.72-132657-141563-123794-91278-88011-134440
2949.62-131344-125574-146790-147581-120807-95833
2952.51-114687-127526-114196-94506-85640-83913
2955.40-98025-89741-97911-129089-128240-116591
2958.29-107939-98054-139511-150288-137069-137519
2961.19-209248-178233-73274-81945-93715-84562
2964.08-123189-158992-158233-135448-157437-193137
2966.97-191708-158754-154848-161032-181449-180158
2969.86-200819-199278-133039-117388-153308-161098
2972.76-110863-115243-163096-202901-189789-170387
2975.65-157153-132109-104344-135201-157494-160751
2978.54-150175-150660-134674-114637-113995-122073
2981.44-121272-135130-179308-171146-133701-91901
2984.33-88992-120080-103673-88502-84598-84241
2987.22-72055-101483-108283-63449-69877-92099
2990.11-115428-138046-111853-61591-35491-60866
2993.01-95937-137252-109211-56957-64742-99420
2995.90-131297-106651-113717-117976-90914-86312
2998.79-76855-74273-85639-95073-99209-97766
3001.68-112015-146059-138544-123844-126033-87852
3004.58-77412-115708-128576-121646-121890-106043
3007.47-64979-50980-78268-86370-80329-89567
3010.36-63328-42651-34576-27266-12001-24499
3013.26-14862 6441 9275 23792 7284 39986
3016.15 123244 134691 98631 92311 108182 125205
3019.04 124106 118793 134907 171426 164525 164806
3021.93 171846 201588 266022 275128 243870 195115
3024.83 172395 195138 161310 113214 74169 77723
3027.72 109846 102602 160791 182588 100629 32572
3030.61-41809-14543 164964 1639846 3777822 3151232
3033.50 1686741 889431 419227 181579 86499 55669
3036.40 95691 118660 98701 102474 124331 159378
3039.29 200385 225658 250616 284674 319442 290638
3042.18 278616 267916 282116 303529 317289 308738
3045.08 302797 278670 296112 283899 220562 176563
3047.97 191166 201850 183813 134174 110960 109994
3050.86 82825 60547 55830 53550-404-16052
3053.75-3517-3251-30010-71574-88273-81909
3056.65-89406-31475 10164-43624-67680-57353
3059.54-58911-77317-81675-106425-102324-111848
3062.43-105849-98572-118315-102494-98256-89701
3065.32-83204-67147-71036-80220-104465-98084
3068.22-58535-50697-70831-89560-98021-101080
3071.11-96582-79186-56277-43822-76533-85055
3074.00-54504-84312-83245-45555-53764-56774
3076.90-54695-64384-68734-92975-95302-66760
3079.79-57036-66842-79649-98146-92856-94423
3082.68-67139-33571-32274-37933-64383-99614
3085.57-122636-106635-58962-45159-15963 13376
3088.47-33381-64615-37911-32990-65924-100064
3091.36-85590-45726-29786-15197-5475 1980
3094.25-41203-53670-51554-39666-25956-59741
3097.14-100356-106292-87739-41636-2780-7973
3100.04-20340-32112-48968-43988-64387-77652
3102.93-70930-54778-54476-35458-16091-44445
3105.82-59499-32024-20984-10993 7277-13921
3108.72-20409 6365 12708-967-23036-4073
3111.61-13351-19087 14679 34050 9932-54233
3114.50-20531 883-55586-59275-45782-47873
3117.39-18552 8285-6849-22126-5719-1495
3120.29 17471 12245-16721-35956-66302-79663
3123.18-53646-34851-31011-39839-16558 25329
3126.07 16922-7672 30003 56691 13148-20199
3128.96-3079 21942 61865 39381-17923 29688
3131.86 59634 32701 13936 13971 6162-40394
3134.75-37778-8487 22328 43012 21626-14409
3137.64-23391-15991 13794 11818-10723-10571
3140.54 17377 40112 37239 5496-6153-30877
3143.43-9488-79-19230-25204-4628-10565
3146.32 10111 37115 30588 35805 36224-1864
3149.21-2205-16786-30944 10244 38870 32035
3152.11-1094 14135 30497 12476 29786 35095
3155.00 45041 52456 56904 32061-4976 14849
3157.89 31759 67641 76339 57545 51744 52712
3160.78 63504 34443 577 1195 39924 42670
3163.68 25797 63677 105995 83271 53196 18736
3166.57 29206 17325-11901-18571 6929 4993
3169.46 1005-25304-35477-12192 5419 51422
3172.36 69625 33966 57654 73552 18842-4241
3175.25-11938 9663 15311 22138 3837 20378
3178.14 29597 8829 10924 15587 40873 12660
3181.03 35710 66536 48196 30259 31062 30687
3183.93 40347 67746 50532 26801 27893 33264
3186.82 33603 44937 40063 28509 22839 37565
3189.71 30665-20632-16382 3599-8330-20092
3192.60-18301 9415 36543 16949-1549-6781
3195.50-548 2813 24490 66254 51391 23505
3198.39-4777-2448 229 20999 36051 22448
3201.28-20558 3703 36163 18989 6218 54252
3204.18 70193 12821-10790 11580 9141-18944
3207.07 19544 26552-4776-797 5825 20834
3209.96 35310 51912 51850 44438 40847 5730
3212.85 16100 9689-16088-11353 19911 43184
3215.75 22405 24096 47094 93147 82569 17872
3218.64 28898 28775 17591 19070 40417 61739
3221.53 81531 22454 13372 503 8989 6641
3224.42-2560 10272-19121-30221 19579 61228
3227.32 70513 31647 5228 26268 63662 91020
3230.21 92043 60024 47072 38574 9254 4504
3233.10 27987 17113 12546 41358 42246 32134
3236.00 11169 32636 17429 15118 21066 33540
3238.89 34605 59108 52612 34203 56357 86964
3241.78 77945 61892 30049 76065 72434 41237
3244.67 44790 25336 41354 44523 39697 79281
3247.57 70628 67412 19371-38739 4272 47327
3250.46 41755 49059 71571 93023 84327 49576
3253.35-23368 25874 78399 64664 32972 33304
3256.24 33355 20176 56533 42724 17557 8900
3259.14 10570 37333 26249 17267 58057 66441
3262.03 78327 81710 27370 19544 36067 7941
3264.92 16470 35918 34545 22638 15265 64767
3267.82 81164 60973 78778 82619 37337 10209
3270.71-8856-10390 40517 54800 37328 5469
3273.60 22864-4649-2423 65190 51189-303
3276.49-19673-15199 4246 30625 6585-8871
3279.39 15861 22125 9788-7957-5532 12395
3282.28 20456 28857 37534 35757-8846-46836
3285.17-3353 18517 27714 44942 19556 20433
3288.06 64769 64022 20303 28098 17710-22651
3290.96-29085 11969 23937 5618 14858-12350
3293.85-5044 16615-845 5820-9781-7747
3296.74 31583 49615 55126 57681 78209 17667
3299.64-14022 31769 46539 46445 21162-24761
3302.53-33697-55657-21393 19993 30919 22846
3305.42 15434-45036-61427 44586 54365 13248
3308.31 8235-17905-3075 1212-43047-24950
3311.21 2303-6840-26604-38437-38711-39798
3314.10-40468-69936-58090-1300 10413-60392
3316.99-65156-23849-11226-65395-85741-47107
3319.88-29869-37517-39736-49146-30899-15067
3322.78-28232-39618-46632-38014-15706-21377
3325.67-65115-80110-82640-60735-6408-334
3328.56 4452 12714-29773-73014-32783-29543
3331.46-68672-54937-22786-29923-57680-70246
3334.35-49974-22584-13489-59134-93051-24217
3337.24-1705-27688-24130-42360-58185-43269
3340.13-49180-91124-70171 2755 2642-38947
3343.03-2627-31268-103821-80900-23402-23152
3345.92-12597-53779-99829-78597-79627-46474
3348.81-38693-31198-39786-43636-35988-30773
3351.70-30930-37358-78968-89392-90937-104173
3354.60-96577-22709-208-35778-54830-82496
3357.49-90857-71395-66088-43856-6223-21679
3360.38-61852-42433-46335-92045-81670-69343
3363.28-38726-52243-104705-83785-32459-12693
3366.17-44046-75591-51859-58065-63194-16862
3369.06-21343-70788-71563-80329-93896-87207
3371.95-78593-85831-106273-85670-59035-65669
3374.85-88362-105404-76509-53795-25218-40427
3377.74-76672-120921-122143-84017-71689-106712
3380.63-106051-132009-135689-59103-25747-46465
3383.52-38103-40186-17209-11727-9753-3638
3386.42-33131-57902-51990-52493-19359-14744
3389.31-66906-70772-24165-30608-33894-40046
3392.20-58053-72974-104847-142055-121865-98872
3395.10-59458-71031-56707-41559 2513 65896
3397.99 17956-27057-22603-63770-90805-30706
3400.88-17926-24656-26510-52642-73867-65085
3403.77-50393-54757-52648-29068-3039-5147
3406.67-39992-79700-74848-60655-49504-71204
3409.56-84114-48372-56833-78612-72845-28587
3412.45 66658 29951-27520-71519-113252-89520
3415.34-74222-79199-38160 19800-32566-86739
3418.24-87003-59938-37986-69042-97748-57130
3421.13-71885-74969-18435-35724-25357 27208
3424.02-18704-72068-42411-23451-42829-59495
3426.92-88711-112689-64541-63451-99654-118851
3429.81-131861-93445-47037-19252-11112-25813
3432.70-49469-93262-77581-13007-5381 4436
3435.59 11566-33353-64631-72062-82518-118799
3438.49-116362-118843-132569-85742-43589-106656
3441.38-125113-71183-63169-130791-156346-80432
3444.27-16474-35616-83901-103783-72441-117951
3447.16-134416-73409-94657-101868-72209-99045
3450.06-123634-63451-22159-53251-74094-46473
3452.95-31989-72298-110172-98109-64739-48494
3455.84-61854-110399-117898-52642-16487-35973
3458.74-94716-140155-128140-82222-67329-121754
3461.63-78298 211 9100-13759-50577-93733
3464.52-114502-87524-8469 16228-34272-100206
3467.41-101000-98128-106732-75462-48635-62959
3470.31-121759-150443-140344-163778-123997-23759
3473.20-23451-73295-94673-89539-94292-78027
3476.09-41788-28523-68793-95598-63672-70510
3478.98-104719-123289-110713-88933-107266-84602
3481.88-70513-107335-111166-76007-46740-84468
3484.77-148295-152369-133155-83846-63901-87193
3487.66-91404-132560-116761-102323-144989-145840
3490.56-131685-74366-59278-95965-107572-157971
3493.45-162967-114361-100941-108337-121349-120662
3496.34-102364-86720-74614-110687-137310-140455
3499.23-131641-146799-136329-106394-119275-101239
3502.13-105405-137499-131907-136996-175752-161607
3505.02-132524-126952-100578-91297-123817-123971
3507.91-138703-132374-159808-168558-148571-113389
3510.80-73350-127801-182804-130896-106535-126956
3513.70-112103-138443-120147-57197-62701-102565
3516.59-103094-78410-98780-134130-173943-176370
3519.48-152864-102527-89898-110856-138542-132210
3522.38-131843-99402-118470-143775-97878-110723
3525.27-144950-137646-115223-128128-145635-143067
3528.16-150863-165706-165498-148314-151124-135517
3531.05-117527-118885-143262-135622-59883-54215
3533.95-68803-54856-74416-143211-163963-119661
3536.84-91491-103426-125209-145744-168072-163265
3539.73-142475-121087-78729-73750-93214-142716
3542.62-149259-87572-91570-124393-174390-194829
3545.52-133159-111438-132610-117063-126458-133256
3548.41-90903-78374-79665-120764-161864-147449
3551.30-154079-197258-177560-105509-102848-115038
3554.20-116323-90329-74360-106436-102580-105401
3557.09-77809-98125-110039-80787-89903-90869
3559.98-74797-92091-103367-133664-154095-149461
3562.87-127883-113165-97872-93888-142947-219234
3565.77-217282-179353-142436-201664-235226-160285
3568.66-100545-99743-134542-172135-180337-156539
3571.55-141230-130276-96717-72549-79595-93261
3574.44-69061-79077-89279-92320-131592-143588
3577.34-141212-127653-67583-60719-101433-122415
3580.23-107859-91316-103789-114987-123211-104950
3583.12-97698-86713-54931-50919-70121-160647
3586.02-321798-263014-126712-159755-351096-341403
3588.91-166449-150275-119935-79169-58817-54723
3591.80-89083-145326-161022-141882-67702-52460
3594.69-148794-158932-103520-58183-21199-32014
3597.59-76558-73400-38118-26774-58364-134170
3600.48-138112-78448-8763-34543-79685-111353
3603.37-105670-66102-43514-53559-86288-145980
3606.26-209965-216953-179991-179988-238920-477228
3609.16-338959-114879-98377-83786-128242-252092
3612.05-363161-245033-135273-133573-182781-155837
3614.94-115042-103571-87612-110753-222773-234327
3617.84-147061-176104-414923-462789-188286-133895
3620.73-151812-97947-66028-80367-100665-103393
3623.62-97789-98089-75064-69173-108632-150566
3626.51-148048-192583-457201-661836-478032-721191
3629.41-598397-211866-157217-131002-93907-89012
3632.30-103327-150345-257984-196573-85104-64954
3635.19-99331-82335-45342-78748-137318-145239
3638.08-120626-107223-118734-126508-116227-135083
3640.98-152615-131828-116520-107443-76167-38790
3643.87-59284-82105-128519-112050-169928-320046
3646.76-473509-389209-264915-449413-880213-632023
3649.66-330771-429787-457591-363105-216406-165505
3652.55-116445-102889-97212-96151-117061-182799
3655.44-429449-584168-280357-111509-86819-105276
3658.33-122286-161423-120593-104212-125862-147785
3661.23-114020-82837-76673-121898-118966-154749
3664.12-151704-126337-137298-144538-122192-122575
3667.01-111136-161867-395365-428287-221024-275717
3669.90-753151-966207-392506-174630-186667-176026
3672.80-158452-209483-242282-556111-637258-844055
3675.69-915255-382492-208860-187415-139195-105717
3678.58-174097-222181-135420-73854-53797-88309
3681.48-88475-109825-116536-111734-78242-111060
3684.37-80553-85725-60307-77190-55809-99413
3687.26-327286-954124-887661-271636-84021-83176
3690.15-150602-299434-248796-49922 16236 12880
3693.05-52293-56309-22455-9673-10407 6607
3695.94 22481 21800-12714-26128 13887 28576
3698.83 11072 11476 41457 99242 43142-78610
3701.72 57300 247103 359281 419680 336248 290663
3704.62 293516 242569 76605-21058-29816-48646
3707.51-100884-127960-240563-315485-153456-57662
3710.40-110495-195158-543523-697368-244709 2540
3713.30 57019 8269-39761-1453 43465 28905
3716.19 56717 23782-3115-5227-56002-115752
3719.08-62912-70558-105156-120045-132889-237787
3721.97-236211-123552-96860-98467-120056-183156
3724.87-151434-138819-299857-333055-177687-154561
3727.76-132346-116659-91728-88321-117621-154905
3730.65-142507-363341-679240-443221-160218-148895
3733.54-202271-368170-443716-369054-286639-586954
3736.44-669633-312810-206550-228129-171713-149870
3739.33-161880-168633-221995-279033-243239-211399
3742.22-179604-187567-489773-1186703-1698793-1065942
3745.12-375377-217880-182804-219363-200969-164420
3748.01-266923-807300-1210785-656968-210987-200487
3750.90-377114-997625-1245537-539254-223794-188006
3753.79-161927-124516-137843-164147-253235-290481
3756.69-193204-127010-150871-172317-198949-337088
3759.58-377655-214640-167659-144752-131348-100819
3762.47-140668-179719-149774-107478-133572-273834
3765.36-345419-185984-131365-121383-124272-122576
3768.26-142634-234458-442583-392049-215265-188069
3771.15-172951-155893-164415-168305-165197-164811
3774.04-131884-96306-104171-164749-153997-128156
3776.94-122550-120108-149692-208502-360079-319700
3779.83-199667-169143-119874-87637-102139-122159
3782.72-132541-163708-180665-191133-163341-144431
3785.61-131163-103890-77097-87009-78188-95810
3788.51-157734-147301-86972-87724-85343-130686
3791.40-140747-123703-105744-109432-101523-152575
3794.29-144410-110500-167395-328481-288415-213228
3797.18-192603-125750-53714-70396-70276-113647
3800.08-252019-734547-1000613-436711-137872-131245
3802.97-83452-41535-44281-19673-12541-92404
3805.86-281075-669247-581832-187186-83072-27547
3808.76-34774-24192-37526-45377-34615-30265
3811.65-55689-54089-84323-61178-86438-112565
3814.54-196946-534621-1142126-834783-243399-101075
3817.43-118105-148584-153501-192774-270160-440189
3820.33-562848-520927-620782-402752-184783-159051
3823.22-174317-148973-140212-151780-130439-199004
3826.11-316679-222741-138972-164249-141166-109873
3829.00-120400-165292-200731-245091-414592-460744
3831.90-244512-183583-159101-163243-220969-417473
3834.79-339982-197362-169949-217631-491455-1176283
3837.68-996272-312131-187851-242108-296610-294222
3840.58-371761-258118-158117-132037-198847-301080
3843.47-312187-197325-141390-112726-104140-111800
3846.36-158736-164264-148463-94485-91969-164862
3849.25-243150-214116-207484-286899-742742-1007634
3852.15-512166-381326-923355-1682609-1317355-458248
3855.04-178809-171644-181504-229781-259271-204677
3857.93-144015-104011-176177-210373-173127-141019
3860.82-245284-337590-230636-155175-204263-207509
3863.72-228554-408084-564679-289560-158740-159028
3866.61-170427-163733-174984-213139-376046-521758
3869.50-847215-681215-278436-163368-143786-192379
3872.40-183078-206100-327294-386744-272098-185599
3875.29-140960-152752-152559-110291-95590-123785
3878.18-153734-172338-290347-483829-428943-287355
3881.07-203521-153900-150556-124918-115001-142716
3883.97-207960-284818-629949-695258-327502-195733
3886.86-211630-154804-100787-117590-149750-149573
3889.75-155776-295753-500109-379701-173365-126562
3892.64-135063-177010-186323-129421-121186-119571
3895.54-110950-143548-194771-204725-158709-161678
3898.43-339240-459267-251751-171685-175240-322291
3901.32-507465-367511-198828-188615-347620-499536
3904.22-292181-178079-268464-310029-210642-157418
3907.11-141814-187634-192053-154405-160138-159230
3910.00-165698-200368-168640-173194-210163-157532
3912.89-131873-122622-158170-206176-180799-166483
3915.79-184821-257630-367332-263170-155017-161779
3918.68-154229-229493-312597-210217-131668-114616
3921.57-79875-71539-119766-148546-167997-164060
3924.46-181516-194523-141960-124728-132811-176799
3927.36-156234-168816-199278-263172-258743-224320
3930.25-189855-183028-197188-233248-245362-179316
3933.14-129961-134605-146721-137389-124854-114463
3936.04-143973-181327-118479-102054-127128-126602
3938.93-78148-88849-103870-110897-138358-154161
3941.82-208002-217554-152196-138173-158430-111087
3944.71-73905-92308-100102-111132-124053-134221
3947.61-140060-149845-135340-208046-271978-218379
3950.50-148204-94003-97934-104325-138894-132647
3953.39-110608-123965-99018-64383-98771-141314
3956.28-153707-122977-142179-185516-116971-105649
3959.18-183111-190478-169828-182816-179093-191845
3962.07-205687-166972-115262-139963-141203-121635
3964.96-82413-88635-123417-129207-131165-174840
3967.86-140587-102262-138589-153899-109554-50502
3970.75-56524-122924-102861-100834-132489-164360
3973.64-159802-153907
##END=
