##TITLE=2-Propanol
##JCAMP-DX=4.24
##DATA TYPE=INFRARED SPECTRUM
##CLASS=IUPAC A
##ORIGIN=NIST, Anayltical Chemistry Division, 301-975-3108
##OWNER=COPYRIGHT (C) 1998 by the U.S. Secretary of Commerce
##DATE=98/10/1
##$SPECTRA VERSION=1.00
##$UNCERTAINTY IN Y=2.0 % relative (B=1.0E-04,C=6.5E-10,D=2.7E-14)
##CAS NAME=2-Propanol
##CAS REGISTRY NO=67-63-0
##MOLFORM=C H3 C H( O H) C H3
##MP=-89.5 C
##BP=82.4 C
##$NIST SOURCE=QUANT-IR
##SPECTROMETER/DATA SYSTEM=IFS66V (Bruker)
##INSTRUMENT PARAMETERS=KBr Beam splitter; MCT Detector; Multipass cell
##STATE=gas
##SAMPLE DESCRIPTION=2-Propanol Primary Gas Standard
##PRESSURE=101.3 kPa
##TEMPERATURE=23 C
##SAMPLING PROCEDURE=1 L/min Flow
##RESOLUTION=0.9640
##DATA PROCESSING=Happ Genzel Apodization
##XUNITS=cm-1
##YUNITS=(micromol/mol)-1m-1 (base 10)
##XFACTOR=1.0
##YFACTOR=4.5474E-13
##DELTAX=0.4820
##FIRSTX=575.169
##LASTX=3975.077
##FIRSTY=2.56E-06
##MAXX=3974.59
##MINX=575.17
##MAXY=.0006243
##MINY=2.28E-07
##NPOINTS=7053
##XYDATA=(X++(Y..Y))
575.17 5636976 5843026 6107356 6220556 6106614 6152772
577.58 6472152 6897074 6833516 6391012 6273682 6148872
580.47 6047124 6363638 6759796 6621130 6483316 6486326
583.37 6342236 6303378 6498730 6687714 6670656 6566020
586.26 6693188 6778830 6820994 7031490 7226522 7076706
589.15 6941484 7111908 7337786 7044452 6735360 7059114
592.04 7178894 7248520 7605574 7895824 8035560 7979532
594.94 7627132 7493018 7665692 7572492 7620660 7808218
597.83 7812254 7996452 7989036 7883660 7702946 7707420
600.72 7842210 7861740 7867258 8007502 7874336 7643222
603.61 7679800 8141834 8398094 8406954 8286988 8218468
606.51 8245228 8111782 8052020 8172554 8360448 8598652
609.40 8627806 8538414 8457148 8514386 8489066 8432114
612.29 8300672 8231084 8450006 8414374 8272298 8233410
615.18 8420710 8670062 8721460 8705684 8702674 8848402
618.08 8927820 8869068 8815662 8806276 8856346 9070232
620.97 9269078 9283644 8979840 8701872 8656112 8713246
623.86 8937236 9156598 9249620 9304502 9413092 9581472
626.76 9479508 9176820 9018854 9102176 9111720 9037210
629.65 8888616 8751830 8769904 8845764 8875496 8968768
632.54 9047218 9141846 9138378 8949020 8910420 9042050
635.43 9140660 9090538 8996772 8912800 8945546 9162832
638.33 9178882 9215360 9243048 9250924 9004858 8993662
641.22 9124370 9166716 9147502 9118586 9143246 9167742
644.11 9047688 8948258 8995260 8960232 8931562 9060692
647.00 9036552 8924618 8794204 8591164 8563322 8630510
649.90 8503044 8500422 8521874 8441772 8489042 8480012
652.79 8344958 8253186 8302750 8217294 8119466 8178800
655.68 7947180 7826796 8015688 8126756 7976396 7922290
658.58 7953246 7817500 7644434 7612914 7750432 7737244
661.47 7693138 7608428 7414282 7415950 7460816 7413834
664.36 7466486 7479852 7607420 7587144 7236122 6654756
667.25 6310426 6546752 6845908 7062616 7174360 7106944
670.15 7054976 7175718 7280596 7224430 7080952 7070878
673.04 7052096 6970948 7015574 7059744 7016952 6974094
675.93 6948600 6933690 6991220 6851274 6656850 6561980
678.82 6457704 6612380 6693582 6625868 6582336 6681346
681.72 6683232 6573564 6399398 6258698 6328656 6454558
684.61 6492008 6311224 6163016 6311290 6414266 6360900
687.50 6246660 6092990 6093276 6301294 6338646 6263282
690.40 6317332 6194058 6078194 6040772 5934220 5860710
693.29 5723730 5726582 5722632 5647890 5689540 5797246
696.18 5914930 5915916 5806144 5756728 5742026 5856112
699.07 5915480 6048924 6136104 6120512 6020396 5939326
701.97 5994002 6078682 6085042 6077388 6025436 5941496
704.86 5892628 5834922 5846576 5892290 5923936 5752506
707.75 5647526 5713288 5581830 5483592 5512332 5513344
710.64 5592110 5618752 5540674 5443600 5368624 5258154
713.54 5168324 5176962 5135968 4995024 4918892 4856392
716.43 4956994 5012670 4970322 4985808 4948308 4854520
719.32 4791216 4875978 5014610 4936840 4875430 4859042
722.22 4814686 4752802 4741384 4721806 4630578 4594442
725.11 4583316 4527922 4484312 4511046 4427828 4314054
728.00 4296946 4261258 4202350 4213320 4245244 4143324
730.89 4048488 4052200 3985004 3899324 3815614 3736896
733.79 3625318 3579602 3557830 3527822 3544310 3536544
736.68 3491412 3438534 3357652 3400628 3371040 3296494
739.57 3242044 3140310 3078528 3050132 2947814 2931292
742.46 3015306 3002844 3003174 3057026 3002074 2867086
745.36 2845230 2893860 2842148 2808174 2715972 2644444
748.25 2621976 2582186 2575452 2592242 2520914 2458504
751.14 2410278 2419002 2450390 2498946 2515776 2548446
754.04 2521428 2455416 2461758 2432732 2329896 2327430
756.93 2350972 2328386 2295246 2346764 2428676 2354706
759.82 2358004 2328030 2250968 2217062 2188376 2203586
762.71 2294376 2331464 2229634 2229508 2269492 2286360
765.61 2353370 2418672 2445868 2437438 2424192 2382128
768.50 2328580 2282084 2354394 2490836 2560514 2526372
771.39 2510040 2503066 2517282 2565824 2624766 2719038
774.28 2854360 2882714 2950488 3088546 3245642 3363210
777.18 3413324 3486112 3598018 3731264 3884970 4162966
780.07 4438598 4550310 4656206 4869980 5132210 5376714
782.96 5790762 6227600 6627226 7127522 7678440 8145424
785.86 8586098 9090218 9678538 10406170 11164530 11821070
788.75 12605510 13526100 14434320 15349100 16303750 17464190
791.64 18638980 19838660 21165590 22435760 23738490 25111330
794.53 26525780 27956360 29359050 30720050 32136220 33615580
797.43 35144110 36705260 38289630 39666670 40885280 42197900
800.32 43622820 44877420 46016660 47060060 47938730 48685760
803.21 49520260 50229050 50844970 51282120 51736600 52261070
806.10 52535950 52812650 53112940 53385200 53806180 54390570
809.00 54996160 55627130 56345320 56959760 57527960 58216900
811.89 58903300 59470930 59842190 59990160 61229580 63896830
814.78 65699690 65573970 64437040 63330200 61991810 60684730
817.68 59720220 58185230 58699220 62169000 63998890 62488210
820.57 59935480 57771820 56309780 55492740 54923730 54736580
823.46 54773780 54926770 55151090 55639610 56108560 56615260
826.35 57107140 57289400 57341300 57414460 57215000 56685140
829.25 56063130 55399530 54554770 53388010 52059820 50680320
832.14 49258710 47562080 45559180 43633310 41711060 39703550
835.03 37706640 35703560 33704690 31874640 30123930 28326650
837.92 26448000 24694050 23286740 21912370 20493990 19186900
840.82 17961170 16857390 15861930 14938560 13985090 13086290
843.71 12331870 11729340 11194990 10484540 9893650 9453084
846.60 8948510 8484696 8113920 7798458 7470454 7174050
849.50 6879970 6670456 6432864 6148008 5896196 5768768
852.39 5668018 5445876 5320832 5271566 5139290 4981850
855.28 4812508 4640582 4548740 4437080 4312708 4251684
858.17 4134532 4076686 4034102 3993560 3938432 3783568
861.07 3720192 3720784 3607666 3580608 3570038 3481772
863.96 3483058 3538276 3498774 3478452 3436566 3378294
866.85 3396006 3371408 3373132 3377316 3415316 3435726
869.74 3389502 3387556 3351440 3353528 3423250 3340790
872.64 3266378 3373224 3383898 3287156 3238154 3294120
875.53 3329396 3275116 3242110 3247398 3284386 3310706
878.42 3293382 3251106 3279820 3339168 3345240 3386042
881.31 3452420 3515228 3489622 3512458 3568212 3593986
884.21 3677834 3683740 3678190 3732324 3782894 3834760
887.10 3894864 3990128 4032742 4092924 4202514 4324574
889.99 4401624 4461856 4533044 4631526 4763988 4900282
892.89 4965390 5037680 5170662 5287698 5396416 5533054
895.78 5696068 5829016 5995604 6145958 6319824 6533396
898.67 6688930 6815796 7025116 7232134 7376072 7642130
901.56 7923808 8190048 8478964 8709754 8986904 9385962
904.46 9724758 10047550 10349770 10723610 11165970 11544250
907.35 11951400 12430410 12942100 13454960 14016670 14618700
910.24 15197750 15816130 16444750 17103560 17893790 18709780
913.13 19583140 20510170 21535070 22619210 23687680 24805980
916.03 26082000 27438580 28905110 30516220 32320530 34277180
918.92 36333270 38304390 40004850 41727960 43842010 46332850
921.81 49029930 51826820 54795030 57993870 61367460 64952260
924.71 68819050 72914650 77195300 81709150 86505200 91643420
927.60 97025490 102730300 108904500 115235200 121366900 127926400
930.49 135018600 142253500 149796200 157530500 165430200 173668900
933.38 182078900 190356100 198744600 207508400 216237000 224890200
936.28 233384000 241450500 249064000 256437700 263413800 269837100
939.17 275814000 281319300 286434300 291006500 295091300 298633400
942.06 301546800 304085000 306524900 308356400 309388500 310374400
944.95 311677100 313222400 314619000 316621100 319225100 322463100
947.85 326953800 331921200 337735900 344090500 350468600 356742200
950.74 362553400 367493500 372057900 376923700 379061700 376358500
953.63 373726500 372919600 368411600 355995400 355032100 379110200
956.53 397838800 391036100 369298700 347809800 334603300 327656200
959.42 321566300 315272300 311065100 309454800 309718400 311481000
962.31 314272900 317417500 320559900 323597700 325907600 327325200
965.20 327815300 327295800 325587600 322470200 318093200 312415600
968.10 305966700 298714300 290123800 280653100 270557500 259696200
970.99 248102500 236189100 224099900 212013800 199832300 187734600
973.88 175742400 164080500 153042800 142592000 132435600 122797000
976.77 113729200 105187800 97107260 89640350 82759160 76407110
979.67 70482880 65113960 60180480 55614800 51417740 47643560
982.56 44227820 41179510 38389000 35862310 33557900 31482360
985.45 29604820 27886070 26291480 24876540 23725340 22665080
988.35 21661710 20809010 20078000 19366100 18642280 17997370
991.24 17374110 16825240 16381220 15957290 15468990 15060990
994.13 14714330 14406150 14132790 13904340 13663600 13434310
997.02 13223250 13056150 12834930 12654170 12529320 12418410
999.92 12290450 12144040 12039060 12017720 11994590 11960180
1002.81 11869700 11821860 11755380 11678900 11622710 11604950
1005.70 11557250 11551340 11559080 11558990 11544380 11540440
1008.59 11451540 11414120 11387790 11371490 11348850 11345980
1011.49 11350110 11312310 11241490 11236230 11200790 11137250
1014.38 11122960 11153330 11147770 11229860 11342070 11461430
1017.27 11563000 11678580 11876040 12110850 12369310 12617600
1020.17 12793690 12946310 13075680 13261640 13454610 13739930
1023.06 13973190 14236240 14495920 14747940 15005630 15325430
1025.95 15731680 16095970 16351010 16678800 17125770 17581620
1028.84 18004510 18480590 19043710 19640890 20196430 20775510
1031.74 21357800 22024780 22766190 23489300 24199810 25100540
1034.63 26101810 27165280 28210710 29257820 30404700 31718210
1037.52 33019710 34416360 35927660 37535920 39167280 40868260
1040.41 42699610 44603620 46511600 48671500 51059130 53585020
1043.31 56278660 59201330 62374210 65720060 68995420 72323300
1046.20 75783310 79251740 82743160 86450380 90223910 94203220
1049.09 98358340 102596500 106768200 111030200 115448300 119978300
1051.99 124539000 129148600 133648500 138084700 142435200 146994800
1054.88 151696900 156665100 161761000 166764500 171535600 176134400
1057.77 180568300 184956600 189393300 193920600 198074000 201894400
1060.66 204706500 206828300 208938900 211324500 214075500 217240500
1063.56 220678100 224357900 227713700 231405600 236313500 243138500
1066.45 250526600 256317700 261137900 267155900 273192600 277978600
1069.34 280035900 280932900 284352100 293451800 295604700 295104700
1072.23 302299300 301775400 294057100 287152200 283177200 281364900
1075.13 280223100 277751400 276138500 277664400 280416300 280381300
1078.02 280278800 279900400 277192600 275303700 275220400 274586100
1080.91 274204700 274507500 273336500 270794400 267473300 264280800
1083.81 262645000 262299800 262148100 261698100 260681100 259014800
1086.70 257491600 256551100 255847200 254839700 253058100 250447400
1089.59 247086700 242613100 237552400 232632500 227763300 222784600
1092.48 217911700 212770200 207680500 202631400 197662500 193041900
1095.38 188498600 183825400 179253600 174951400 170787300 166772800
1098.27 162879200 159305800 156026400 153026000 150251400 147709800
1101.16 145359000 143224600 141390700 139751300 138279400 137065600
1104.05 136110100 135419400 134975900 134797200 134871700 135080500
1106.95 135443100 136105800 137007600 137945900 139052300 140329100
1109.84 141665900 143147300 144916000 146767900 148669900 150684700
1112.73 152923000 155339300 157837400 160577600 163274100 165661700
1115.63 167976800 170308500 172840500 175734900 178649100 181595000
1118.52 184744400 187871900 190862900 193753700 196685000 199533300
1121.41 202363800 205152400 208226800 211511500 214574600 217666900
1124.30 220943600 224487100 228108300 231649300 234385000 236576800
1127.20 239532500 244377500 250168600 253366800 252571300 253165400
1130.09 257843300 262567700 266638600 268411800 264482500 262616900
1132.98 266205000 271251000 276400700 281396300 285913600 290827500
1135.87 295825400 303371600 309538000 310570400 309856900 310674800
1138.77 313704200 316524300 319258400 321429400 323721100 326402500
1141.66 329865800 333775300 338113400 342579900 346750900 350369400
1144.55 354100600 358167800 362860900 367545300 372404700 377186700
1147.45 381857300 386077700 389118500 391519600 393672800 395427700
1150.34 396860800 397475400 397479300 397106900 396522400 395639700
1153.23 394764800 393623700 392512400 391319800 389990500 388304100
1156.12 386041100 383100200 380170800 377048500 373595200 369897600
1159.02 366539100 363350300 360443300 357788900 355010700 351611600
1161.91 349095700 349327200 350477100 347164600 340779700 334435300
1164.80 326882200 319873800 315395900 312839700 310238700 307358800
1167.69 304992100 301456600 294392300 287340500 281507600 275501500
1170.59 270103400 265546600 261315000 257061800 251796500 246038700
1173.48 241160100 236777300 232641900 228540800 224449600 220182600
1176.37 215888500 211596800 207186400 202774900 198312000 193614000
1179.26 188655600 183477700 178255500 172749200 167207400 161921300
1182.16 156878900 151808200 146468500 141199300 135998500 130850400
1185.05 125757200 120735200 115910200 111196500 106600700 102186900
1187.94 98128130 94202670 90403340 86795530 83466920 80308980
1190.84 77402470 74624800 71951090 69518530 67331380 65201670
1193.73 63180530 61285400 59572960 57900600 56307480 54755380
1196.62 53338520 52082940 50923130 49756230 48642310 47663440
1199.51 46873380 46112250 45431630 44841220 44347070 43804740
1202.41 43312070 42881420 42561900 42171240 41859820 41704820
1205.30 41775430 41847100 41786960 41645700 41626380 41786040
1208.19 42088070 42384240 42761250 43197050 43668010 44225360
1211.08 44942460 45643090 46322350 46839840 47471080 48405080
1213.98 49711880 51187840 52573920 53688950 54824980 56069750
1216.87 57470870 58978340 60662380 62450060 64396110 66485080
1219.76 68758520 71051450 73383940 75801100 78456060 81166140
1222.66 84012030 86976500 90025170 93236700 96695740 100297400
1225.55 104005000 107719600 111585400 115586800 119735300 124030900
1228.44 128531000 132932400 137357000 141743800 146068600 150275200
1231.33 154487400 158729700 162998400 167210300 171425500 175524700
1234.23 179723900 183850300 187922700 191689500 195290900 198656700
1237.12 201763100 204293000 206259100 207842000 209208600 210301400
1240.01 211376600 212709700 214471600 215939300 216475700 215452200
1242.90 214395900 214187300 215115300 216538400 218193400 220098400
1245.80 222883300 226992200 232347300 237592000 242929800 248036600
1248.69 252523700 256584900 263326200 270669500 272949400 273602000
1251.58 276550400 261719600 250198300 255599800 257304100 252505600
1254.48 245441400 239206200 234298700 230463400 226952000 224099800
1257.37 221667600 219472700 217757000 216587200 215677800 215252400
1260.26 214280500 213424800 213187600 213263500 212975800 211957900
1263.15 210058700 207431500 203656900 199793400 196251600 192588900
1266.05 188690800 184679700 180426000 175864000 170803600 165749300
1268.94 160740300 155680400 150652800 145741600 140853500 136194500
1271.83 131120200 125344900 119866000 115281200 111296800 107609600
1274.72 103842500 99901730 95933540 92111540 88464590 85021420
1277.62 81819790 78943420 76161950 73532130 71106160 68823760
1280.51 66676440 64689070 62775120 60927500 59208180 57644830
1283.40 56099380 54574540 53065500 51668390 50374380 49106000
1286.30 47876870 46765840 45727930 44741030 43699750 42719250
1289.19 41777190 40891820 40088180 39332480 38557080 37939980
1292.08 37419220 36895760 36395370 35956400 35544330 35224040
1294.97 34936640 34723850 34530930 34355600 34215540 34077240
1297.87 33931250 33761740 33574820 33449120 33330770 33243990
1300.76 33168780 33145460 33145630 33178050 33178840 33180110
1303.65 33206920 33274620 33350830 33483380 33622980 33784750
1306.54 33972170 34190030 34340240 34523080 34783060 35063120
1309.44 35378570 35753900 36191620 36584140 36967630 37395640
1312.33 37845780 38313000 38834360 39430650 40116000 40886320
1315.22 41622480 42470600 43313520 44000860 44633820 45435800
1318.12 46254810 46947460 47695870 48607830 49663320 50792120
1321.01 51905590 52979570 53955830 54902120 55932500 57063650
1323.90 58280500 59575730 60930700 62350300 63767950 65235620
1326.79 66799070 68406020 69960410 71525360 73142150 74703430
1329.69 76209330 77750000 79161580 80480680 81775690 83008780
1332.58 84237700 85593680 87073670 88165460 88856220 89865480
1335.47 91158060 92462830 93574630 94648510 95897380 97426500
1338.36 98903110 99811180 100550100 101793800 103507600 105202300
1341.26 106934400 108677900 110249200 111533000 112287300 112094200
1344.15 111174500 110327300 110985400 114036200 118452900 121822600
1347.04 122833200 122290800 121816700 122556800 123891700 125264400
1349.94 126744000 128411200 130504000 132733000 134998800 137493600
1352.83 140301800 143539200 146818600 149780900 152485800 155074600
1355.72 157673100 160234000 162393500 164355600 166396500 168612200
1358.61 170883400 173352200 176007500 178498900 180738300 183255300
1361.51 186092200 188954000 192138500 195690900 199509500 203357600
1364.40 207322100 211552600 216147100 220987600 226177600 231842200
1367.29 237953300 244424900 251056400 257767400 265148200 273651500
1370.18 283162700 292678500 302230300 313585400 324131700 327184800
1373.08 327918600 332329900 338823700 345966200 353344600 360986300
1375.97 368455100 375328700 382110300 389119600 396445200 404687000
1378.86 414049600 423292600 429749900 434028100 438942600 445126000
1381.76 448444800 441434100 431367100 425690400 421764600 418883900
1384.65 417830200 417096500 415847000 414656800 413697400 411451200
1387.54 407672900 403737000 399938600 396125800 393380100 394540800
1390.43 399010300 402998700 404736700 405191300 405144300 403179800
1393.33 397909800 391545400 383857500 373956700 364179800 355432900
1396.22 346749300 337685700 328440600 318978800 309665700 300438300
1399.11 289932000 279540300 269671900 259034000 248520800 238777000
1402.00 229071700 219233600 209870500 201248100 193413100 186066100
1404.90 178979000 172206700 165951500 160228900 154908300 149853900
1407.79 144924500 139739100 134604400 129718200 124991300 120367000
1410.68 115928800 111699800 107680800 103859700 100147600 96614780
1413.58 93199070 89744220 86427600 83389630 80551620 77891680
1416.47 75494540 73347610 71227060 69023980 66987000 65150860
1419.36 63251940 61451000 59820660 58303980 56967540 55744500
1422.25 54615980 53623830 52800200 52062760 51400730 50819860
1425.15 50278420 49669100 48991730 48423210 47991680 47637560
1428.04 47425520 47255590 47177940 47192550 47184430 47217580
1430.93 47400440 47615080 47876460 48273000 48773810 49285540
1433.82 49660860 49977270 50453580 51024020 51703720 52438580
1436.72 52979540 53491960 54172910 54888570 55649440 56418020
1439.61 57197480 57929160 58748020 59532080 60269100 60980930
1442.50 61671780 62302830 62982080 63721700 64477760 65214010
1445.40 65999640 66785960 67641210 68419100 69301340 70218360
1448.29 71348260 72428070 73457810 74792460 75871920 76030340
1451.18 76425230 77537910 79337280 81672300 84543290 87871620
1454.07 90827360 93713340 96356680 96219550 97337240 100593800
1456.97 105193200 108960800 108694300 109835400 113789200 118234600
1459.86 122944200 127812100 132602100 138054500 144216800 149807600
1462.75 150910100 143172600 130938700 114261200 98295340 87902690
1465.64 81132320 77588130 75523690 73995780 74184420 76671620
1468.54 81146740 87580800 96006620 105532400 115638800 128605500
1471.43 141211200 148206100 161663600 171121500 152663500 127770000
1474.32 113165800 101801500 92502060 86198830 81015980 76927940
1477.21 74063310 72051240 70481150 69209900 68158020 67396430
1480.11 66797440 66363790 65896650 65428400 65026310 64745020
1483.00 64363820 63963320 63487340 63012530 62511430 61959800
1485.89 61276240 60604910 59906400 59118100 58190720 57284240
1488.79 56317220 55339250 54292580 53177260 51904830 50533230
1491.68 49220180 47994500 46661920 45219460 43673580 42083730
1494.57 40551480 39217910 38082750 36788020 35307430 34035230
1497.46 32802460 31657300 30519990 29301670 28081930 27015780
1500.36 26043910 24942250 23609820 22358630 21322900 20444980
1503.25 19533470 18656360 17900860 17333150 16759440 15956490
1506.14 15389840 14911700 14150540 13512920 13020800 12494470
1509.03 12045910 11634780 11177090 10759520 10406570 10150150
1511.93 9785994 9367820 9034720 8766348 8537266 8326476
1514.82 8056584 7807102 7664664 7537072 7374774 7154680
1517.71 6901294 6692448 6528262 6442174 6355528 6248468
1520.61 6277516 6120912 5792838 5696662 5540164 5384224
1523.50 5290144 5212644 5151778 5139818 4993262 4861610
1526.39 4824644 4798558 4699146 4644698 4556998 4490984
1529.28 4474394 4479266 4442518 4377008 4255204 4141370
1532.18 4092206 4097188 4104024 4042198 3910494 3828612
1535.07 3746924 3714458 3692246 3663568 3618166 3632840
1537.96 3738366 3941406 3825818 3735026 3770924 3584654
1540.85 3506288 3619232 3621124 3474108 3438060 3410438
1543.75 3349570 3357266 3388592 3319114 3226278 3193892
1546.64 3168702 3125868 3096818 3060010 3036136 3041754
1549.53 3010250 2955030 2900654 2872734 2841146 2849572
1552.43 2861400 2853090 2895182 2966068 2864866 2807482
1555.32 2780910 2749102 2746764 2822714 2843728 2970520
1558.21 3047148 2834708 2854364 3004346 2822032 2576358
1561.10 2533714 2533518 2544186 2498436 2454042 2462420
1564.00 2489134 2504376 2464636 2417000 2391982 2393532
1566.89 2391824 2381526 2395870 2431800 2479614 2530108
1569.78 2450106 2374374 2344852 2341862 2352556 2335856
1572.67 2331902 2300728 2286248 2266098 2272526 2397132
1575.57 2674252 2622096 2378202 2282148 2269692 2289322
1578.46 2275306 2237960 2246962 2294888 2274394 2249254
1581.35 2234558 2238628 2240130 2237456 2213898 2220256
1584.25 2209210 2178344 2161292 2167728 2164132 2148304
1587.14 2132750 2148402 2164646 2167434 2157948 2165630
1590.03 2200786 2197986 2184124 2196840 2179046 2176838
1592.92 2185632 2176084 2163496 2166992 2176642 2189054
1595.82 2168948 2136978 2129396 2118184 2111140 2117666
1598.71 2107224 2088202 2067746 2074930 2057416 2032866
1601.60 2047892 2040512 2015792 2035044 2030022 2014454
1604.49 2004932 2021726 2047268 2025286 2001878 1997256
1607.39 1980860 1967016 1989122 2011356 2035664 2030276
1610.28 2008498 2010160 1998642 1972888 1997964 2010348
1613.17 1993692 1979456 1993472 2012950 2033982 2111016
1616.07 2324530 2311706 2091122 2016382 2031408 2079564
1618.96 2101176 2067532 2031702 2070304 2071824 2049868
1621.85 2046162 2068332 2139490 2158886 2102186 2086860
1624.74 2091988 2099952 2116842 2147498 2161560 2217494
1627.64 2208916 2179994 2190860 2190716 2203434 2262370
1630.53 2283940 2335350 2376336 2386182 2369756 2404304
1633.42 2479572 2557594 2624040 2722806 2692652 2488886
1636.31 2454714 2499662 2492278 2484856 2478288 2485034
1639.21 2528366 2577124 2624230 2650164 2682238 2682184
1642.10 2697178 2718348 2762584 2813254 2868254 2932678
1644.99 3090766 3258786 3140548 3064678 3149296 3172896
1647.89 3169860 3153110 3166488 3197026 3226238 3219942
1650.78 3228440 3336032 3638962 3761556 3786212 3639584
1653.67 3508810 3552634 3484190 3438814 3428796 3439866
1656.56 3439680 3442244 3433126 3453688 3453486 3466168
1659.46 3478970 3497282 3520298 3569652 3603166 3676590
1662.35 3737318 3688682 3687676 3719908 3747080 3791776
1665.24 3814706 3779400 3754202 3763384 3772074 3800718
1668.13 3836566 3914996 3899052 3753768 3695164 3752176
1671.03 3850852 3827028 3770134 3739274 3731226 3707014
1673.92 3722452 3858748 3931666 3843508 3748420 3686138
1676.81 3681116 3646528 3622052 3651494 3692986 3720794
1679.71 3649084 3553518 3521254 3519704 3535862 3586836
1682.60 3653022 3668076 3699802 3920056 3939994 3632564
1685.49 3542336 3553736 3561912 3527824 3519292 3528418
1688.38 3538268 3517032 3512662 3482442 3453218 3409536
1691.28 3384782 3388760 3424850 3427540 3402464 3389608
1694.17 3430024 3540156 3811158 3815074 3521170 3459034
1697.06 3475402 3457672 3440310 3439702 3586686 3793924
1699.95 3783934 3676570 3491226 3413042 3420744 3421168
1702.85 3396626 3429608 3485982 3490534 3445376 3458768
1705.74 3502412 3476200 3437804 3443718 3473046 3508850
1708.63 3516002 3547978 3622072 3639920 3635218 3665890
1711.53 3682542 3660902 3647452 3687496 3736272 3739630
1714.42 3768934 3780896 3696796 3674868 3784988 4001442
1717.31 3931942 3850302 3928472 3955636 3972976 3982896
1720.20 3989366 4002588 4021040 4015360 3967076 3939632
1723.10 3956140 3958036 3985176 4023006 4030156 4050762
1725.99 4069210 4107834 4121684 4084614 4102062 4123454
1728.88 4159168 4239544 4327658 4431542 4600460 4708002
1731.77 4735680 4795514 4951672 4926272 4915384 5001562
1734.67 4861300 4757410 4741720 4732066 4720326 4770348
1737.56 4846768 4920522 4960612 5094176 5190996 5186924
1740.45 5218102 5294220 5419512 5547010 5663428 5794494
1743.34 5903832 6033604 6143936 6216022 6333470 6466536
1746.24 6574402 6701318 6844060 6965438 7055176 7186250
1749.13 7289844 7407750 7582572 7798586 7896372 7872610
1752.02 7916520 8003084 8101586 8180116 8233800 8326854
1754.92 8390860 8416310 8454416 8479696 8443330 8452036
1757.81 8489846 8517236 8508508 8493728 8512022 8512306
1760.70 8543496 8654332 8643076 8583054 8577522 8580808
1763.59 8615506 8659148 8683042 8729060 8771122 8792242
1766.49 8805850 8818548 8877906 8849890 8730558 8672618
1769.38 8723792 8793726 8708574 8577478 8629814 8885858
1772.27 8807308 8267120 7887954 7753050 7634168 7512828
1775.16 7434894 7379484 7379538 7369494 7356688 7374422
1778.06 7402556 7465692 7534674 7537112 7526186 7463448
1780.95 7319486 7206944 7097454 6931712 6756702 6591444
1783.84 6403584 6185462 5917382 5635032 5355410 5092008
1786.74 4824168 4591364 4340542 4071956 3804736 3558566
1789.63 3368828 3202928 3003842 2801256 2655748 2596154
1792.52 2420668 2189104 2065540 1980880 1885168 1790404
1795.41 1725810 1669740 1611058 1529434 1470754 1442822
1798.31 1408016 1385044 1351494 1254766 1205942 1234824
1801.20 1214410 1174738 1161530 1128564 1118828 1103222
1804.09 1107908 1134196 1166692 1153444 1149708 1160138
1806.98 1167278 1160710 1150294 1152700 1183242 1193220
1809.88 1216218 1229344 1221882 1245090 1278828 1291994
1812.77 1302330 1300906 1278788 1267606 1275800 1299708
1815.66 1331190 1345304 1351812 1335406 1327260 1339418
1818.56 1344466 1338130 1327648 1346558 1343594 1329152
1821.45 1349774 1379072 1396582 1404358 1417232 1433210
1824.34 1488500 1517284 1488054 1447680 1438464 1460822
1827.23 1454342 1441038 1479346 1517652 1554038 1590778
1830.13 1552402 1522830 1569882 1593286 1579874 1592904
1833.02 1589860 1553996 1564740 1590316 1591500 1556038
1835.91 1518902 1516992 1521652 1501600 1476404 1454422
1838.80 1445434 1465764 1464314 1446190 1449230 1435910
1841.70 1422724 1410632 1409586 1471168 1564074 1492056
1844.59 1398204 1393394 1386564 1380590 1357798 1367950
1847.48 1362160 1356918 1361480 1332956 1299562 1312844
1850.38 1333846 1358924 1350674 1348272 1373000 1405408
1853.27 1418674 1449976 1496374 1550366 1607798 1704126
1856.16 1852058 1991006 2071914 2042576 1940750 1857826
1859.05 1821836 1829150 1868292 1853440 1873474 1932332
1861.95 1962894 1982700 2017046 2035538 2040166 2025352
1864.84 2012556 2027824 2048258 2061610 2090170 2142628
1867.73 2172202 2213390 2336468 2367872 2346942 2385374
1870.62 2436690 2505036 2567662 2644250 2740586 2818798
1873.52 2891750 2951588 3003500 3039624 3048044 3083620
1876.41 3135688 3162188 3204148 3258740 3338630 3407486
1879.30 3438086 3486986 3579990 3667238 3741748 3794680
1882.20 3827922 3890704 3952172 3977858 4016474 4096260
1885.09 4168682 4226428 4305146 4368260 4444926 4526460
1887.98 4608828 4690426 4757692 4797062 4817164 4857266
1890.87 4890478 4927076 4970144 4979378 4989230 5001104
1893.77 5025068 5060418 5062332 5068520 5103726 5113358
1896.66 5107574 5097378 5103588 5151066 5171748 5187978
1899.55 5207216 5219760 5233074 5263916 5275264 5269136
1902.44 5288052 5272730 5240434 5290952 5363956 5347612
1905.34 5240694 5107548 4978606 5029662 5252188 5239562
1908.23 4933154 4687332 4567254 4449012 4332556 4237890
1911.12 4178660 4152494 4091288 4068392 4084994 4007224
1914.02 3907014 3848934 3834900 3821054 3766860 3707394
1916.91 3689422 3667586 3574102 3436416 3361332 3294146
1919.80 3188260 3045882 2938870 2866666 2770392 2632142
1922.69 2511328 2371510 2257370 2163240 2048184 1921050
1925.59 1816142 1704802 1564846 1472334 1399636 1316692
1928.48 1237476 1173512 1103992 1010192 922498 888572
1931.37 857574 825640 800102 757768 699076 644012
1934.26 607962 613846 617952 571440 555754 573102
1937.16 570212 558462 582482 588164 588492 564722
1940.05 535260 554522 560056 559948 572396 527616
1942.94 478958 475732 481164 485868 503518 521220
1945.84 528418 514418 526160 541114 544002 538670
1948.73 551572 561306 558120 567820 596458 616238
1951.62 627440 632022 656192 674240 715960 748258
1954.51 755732 777790 779592 790308 789892 784192
1957.41 800306 800768 793840 791600 786850 805442
1960.30 838130 846620 865230 873808 888396 905774
1963.19 923842 923428 930030 929830 931690 957070
1966.08 960714 972322 964402 943010 948802 967026
1968.98 966730 981480 1021778 1024664 1013202 1001594
1971.87 1021900 1046540 1074640 1098664 1146388 1156438
1974.76 1121022 1104882 1130754 1154822 1172762 1179202
1977.66 1181074 1186860 1230206 1262536 1246954 1220966
1980.55 1214802 1212084 1211344 1241340 1268806 1278252
1983.44 1278338 1275546 1286744 1272638 1249824 1214218
1986.33 1193806 1166396 1141328 1125754 1106428 1107718
1989.23 1105542 1075442 1089084 1109062 1097372 1108756
1992.12 1128320 1114870 1107390 1107288 1090564 1098992
1995.01 1132086 1156420 1133850 1133346 1155374 1150446
1997.90 1148760 1154518 1138102 1141760 1155838 1171642
2000.80 1176430 1169010 1190240 1220206 1235030 1211146
2003.69 1191528 1212822 1243570 1249586 1244892 1266052
2006.58 1319440 1367236 1383626 1383208 1371340 1375586
2009.48 1387438 1396702 1450822 1475150 1459348 1421466
2012.37 1414668 1427742 1462076 1475932 1464912 1482366
2015.26 1509250 1521152 1548482 1542470 1502796 1507104
2018.15 1531558 1545746 1578406 1570468 1594252 1617104
2021.05 1639388 1675186 1690468 1673500 1676728 1690044
2023.94 1723352 1751090 1731160 1744558 1778216 1806020
2026.83 1811226 1783116 1776976 1770982 1751320 1747090
2029.72 1794208 1832906 1804136 1778210 1773576 1734960
2032.62 1728102 1726030 1703128 1716358 1736854 1739374
2035.51 1724402 1720140 1718166 1717198 1752602 1751286
2038.40 1722018 1718152 1729960 1711620 1707796 1709724
2041.29 1719470 1707674 1696092 1694370 1657696 1646220
2044.19 1662456 1645098 1623138 1627340 1599072 1561782
2047.08 1577030 1585142 1583250 1566140 1565646 1580178
2049.97 1621868 1643488 1624466 1625260 1630486 1619776
2052.87 1657156 1682412 1689722 1719102 1763210 1781098
2055.76 1807096 1825352 1851408 1882250 1884668 1879374
2058.65 1920532 1980900 2003616 1969838 1968336 2000992
2061.54 2048140 2090040 2135740 2188322 2236842 2264616
2064.44 2247688 2265396 2279408 2271520 2335804 2391462
2067.33 2404044 2465496 2592368 2567664 2528682 2554780
2070.22 2586754 2615650 2651740 2676200 2726754 2844518
2073.11 2830534 2732280 2723232 2706330 2751902 2795106
2076.01 2830436 2878138 3016304 3012136 2915546 2900976
2078.90 2895058 2917412 2954562 2955040 2964066 3111488
2081.79 3120190 2982026 2967078 2930182 2893132 2887328
2084.69 2917544 2977802 3190280 3186172 2971642 2880124
2087.58 2870648 2857200 2808820 2769824 2834302 3045918
2090.47 2988702 2769994 2728630 2729538 2714950 2675642
2093.36 2663216 2772124 2979112 2808350 2597032 2525428
2096.26 2491596 2482974 2495478 2517026 2708458 2840414
2099.15 2523702 2365148 2343446 2294144 2256470 2278988
2102.04 2362420 2620386 2576344 2202884 2093162 2035322
2104.93 2019756 1992876 1964068 2088998 2396336 2160568
2107.83 1854086 1806670 1813400 1798082 1766626 1779876
2110.72 2076080 2227178 1862656 1705602 1669716 1662946
2113.61 1654050 1657234 1824662 2163938 1922586 1562556
2116.51 1493300 1507874 1522760 1528054 1607036 1957100
2119.40 2026398 1665628 1549446 1538856 1543408 1488510
2122.29 1520710 1780926 2024244 1726848 1544606 1520440
2125.18 1522938 1493114 1529398 1691660 1993100 1859338
2128.08 1637368 1598384 1614430 1621088 1632526 1741006
2130.97 1977266 1940496 1765392 1771356 1808704 1859456
2133.86 1921248 1992076 2198268 2272742 2201090 2229528
2136.75 2288626 2319698 2359574 2357788 2327322 2230668
2139.65 2092482 2069742 2093208 2062074 2016620 2006580
2142.54 2003206 1995002 2038022 2070984 2107366 2131920
2145.43 2176812 2240594 2342288 2374590 2334032 2363514
2148.33 2388738 2414468 2461088 2542904 2745488 2694448
2151.22 2554932 2564734 2599362 2633160 2662228 2858610
2154.11 3059746 2828704 2630434 2658548 2672308 2667596
2157.00 2746904 3102626 3233250 2932646 2823050 2824818
2159.90 2828576 2874658 3106714 3530858 3440570 3132362
2162.79 3113898 3109628 3134744 3178868 3555386 3791040
2165.68 3377678 3118240 3141824 3183906 3192346 3338434
2168.57 3768314 3602720 3148726 3055146 3043396 3060940
2171.47 3098658 3512910 3662140 3187112 3015198 3021214
2174.36 3035520 3059036 3344762 3692780 3381028 3093444
2177.25 3099764 3114138 3117870 3265400 3672242 3537570
2180.15 3242702 3255028 3330972 3348398 3472874 3881934
2183.04 3816918 3439594 3402434 3429488 3431668 3500448
2185.93 3852736 3869206 3542160 3532664 3590486 3602272
2188.82 3694228 4022844 4046242 3783042 3754840 3751756
2191.72 3791034 3882434 4134818 4097974 3861684 3803990
2194.61 3789126 3786414 3893256 4092470 3962322 3755086
2197.50 3732954 3673714 3608846 3655962 3732830 3543488
2200.39 3393516 3378942 3345684 3359238 3495650 3503148
2203.29 3325686 3260268 3206604 3144426 3128194 3191164
2206.18 3116722 2971602 2962250 2939060 2887550 2891262
2209.07 2922680 2834602 2735674 2704644 2674518 2621750
2211.97 2612972 2544350 2428250 2350060 2269148 2201002
2214.86 2174574 2117988 1996194 1928062 1908294 1812618
2217.75 1723114 1696696 1624606 1528846 1482758 1466626
2220.64 1431778 1372398 1309226 1254822 1235980 1198974
2223.54 1169910 1168428 1153726 1105986 1064144 1034236
2226.43 1037434 1029042 994734 955278 938980 939496
2229.32 937624 932524 929500 918636 905568 854626
2232.21 845722 880416 905682 900948 898352 883898
2235.11 890262 887478 893610 900766 928216 965292
2238.00 968710 892098 842354 847312 870916 877860
2240.89 883418 893764 899806 894790 889314 891182
2243.79 910496 892840 899116 913234 946244 955274
2246.68 979812 985248 970514 984328 1029840 1014372
2249.57 1010752 1024146 1039746 1048262 1069018 1083758
2252.46 1122830 1107192 1087658 1089856 1113834 1144996
2255.36 1170518 1174840 1174676 1152716 1144966 1173040
2258.25 1207256 1246420 1283404 1275668 1278316 1283548
2261.14 1320398 1348716 1396842 1458744 1550788 1593008
2264.03 1581834 1595366 1617836 1595196 1581674 1564266
2266.93 1598936 1636160 1664024 1689714 1731842 1715550
2269.82 1709214 1778022 1846520 1864910 1887492 1914592
2272.71 1934896 1966622 1990628 1997756 2029950 2036450
2275.61 2086980 2199008 2270708 2305790 2383700 2419286
2278.50 2448568 2508882 2612322 2695094 2733654 2722352
2281.39 2771932 2805254 2793906 2828004 2872942 2896464
2284.28 2956534 3029604 3118380 3140788 3164616 3231708
2287.18 3261850 3275340 3367356 3399014 3409792 3470090
2290.07 3551996 3598204 3631380 3678252 3756514 3796914
2292.96 3857066 3938132 4023572 4109452 4189022 4220428
2295.85 4279260 4358942 4415214 4436710 4492320 4580448
2298.75 4684682 4736986 4759068 4787460 4860126 4898628
2301.64 4966322 4993428 5026160 5050484 5114096 5163734
2304.53 5220616 5257026 5335966 5378794 5390162 5483398
2307.43 5563292 5552284 5537612 5587086 5733160 5782048
2310.32 5747278 5771700 5908298 5939602 5872592 5718008
2313.21 5772048 5827564 5747480 5600288 5734452 5818232
2316.10 5723474 5524532 5605504 5778244 5747818 5483176
2319.00 5543710 5756848 5735010 5468498 5530684 5813962
2321.89 5755426 5354820 5330316 5620312 5578076 5186056
2324.78 5191508 5550750 5435192 4937006 5042894 5464806
2327.67 5198036 4651686 4871018 5283644 4885408 4417918
2330.57 4823218 5155926 4619498 4372712 4969700 5032434
2333.46 4304046 4245008 4739260 4386392 3699990 3973600
2336.35 4356272 3779072 3479296 4028768 3967084 3323692
2339.24 3442890 3797602 3285192 2891442 3268158 3244648
2342.14 2696918 2788244 3018424 2668172 2533798 2780882
2345.03 2669696 2416232 2530396 2569606 2422356 2420624
2347.92 2436656 2362896 2268708 2168002 2160060 2103060
2350.82 1862292 1880576 1952856 1600664 1567446 1775674
2353.71 1437114 1393442 1649600 1214166 1173730 1564816
2356.60 1111970 1036350 1402986 917604 991786 1331300
2359.49 800670 1033684 1219582 693502 1112606 1109322
2362.39 730698 1212816 985976 887652 1259236 930714
2365.28 1189204 1226842 943356 1346172 1177940 1259650
2368.17 1438780 1263172 1503628 1379080 1468850 1556000
2371.06 1484388 1712350 1665132 1794416 1843488 1937760
2373.96 2011956 2019950 2153514 2211858 2289216 2200162
2376.85 2166642 2187680 2231022 2205874 2239598 2285314
2379.74 2311582 2331708 2366702 2354136 2345858 2341800
2382.64 2355932 2344294 2353568 2385934 2392978 2390030
2385.53 2418986 2433392 2449410 2461086 2488426 2520098
2388.42 2562090 2604356 2648694 2719406 2744372 2694438
2391.31 2671386 2691278 2757418 2769912 2732660 2708984
2394.21 2707332 2709320 2695280 2662258 2650864 2613992
2397.10 2583014 2559382 2586966 2602444 2596248 2588464
2399.99 2597498 2589260 2537190 2485416 2473690 2481622
2402.88 2502572 2519730 2511092 2501894 2482590 2481978
2405.78 2483326 2470258 2477376 2486528 2473954 2488218
2408.67 2502068 2493116 2503006 2552594 2653984 2670002
2411.56 2635674 2646552 2672270 2669894 2673666 2661632
2414.46 2647818 2716618 2821242 2845892 2820160 2831628
2417.35 2839232 2779018 2726744 2708626 2720366 2740204
2420.24 2719464 2665840 2654030 2693302 2704880 2699486
2423.13 2730866 2769094 2769318 2783576 2809260 2788482
2426.03 2814292 2852566 2842254 2844004 2876090 2870970
2428.92 2856258 2861246 2844976 2820136 2848596 2936262
2431.81 2986470 2968898 2988988 3018902 3029484 3044354
2434.70 3094560 3143548 3167954 3162506 3165692 3186126
2437.60 3163856 3107646 3127878 3123010 3056776 3005656
2440.49 3044146 3054940 3028812 3058950 3082660 3097154
2443.38 3075566 3033608 3009534 2994740 3022354 3036578
2446.28 3033012 3063162 3100662 3109316 3120126 3117936
2449.17 3115778 3130656 3117608 3100520 3086204 3038160
2452.06 3020254 3053030 3068520 3032882 3031880 3018534
2454.95 3013400 3020342 3032152 3044532 3030398 3000230
2457.85 3013504 2988262 2935108 2908884 2902166 2883034
2460.74 2857320 2834324 2813102 2773586 2715586 2680684
2463.63 2672734 2676794 2707972 2730184 2752900 2781802
2466.52 2798460 2842264 2843922 2832866 2849414 2845000
2469.42 2862248 2929946 2975826 2981220 2990604 3039110
2472.31 3109154 3110192 3090590 3095022 3145302 3185822
2475.20 3216282 3250776 3258586 3264826 3285154 3350468
2478.10 3397954 3426620 3465418 3484930 3523758 3522208
2480.99 3553396 3572008 3609006 3639790 3687576 3736812
2483.88 3764702 3758630 3787812 3829286 3855154 3879524
2486.77 3898006 3897492 3947596 3979544 4020602 4029446
2489.67 4040064 4066938 4109340 4147898 4208954 4255204
2492.56 4273840 4259456 4304214 4340502 4344644 4360668
2495.45 4391336 4410082 4437688 4495430 4495132 4462634
2498.34 4463100 4474402 4507842 4514138 4540398 4592122
2501.24 4641118 4626264 4631940 4620680 4564366 4555698
2504.13 4596412 4591286 4606628 4593718 4567128 4591598
2507.02 4616956 4577012 4540562 4558954 4610352 4648406
2509.92 4651246 4622142 4632912 4638540 4607298 4565118
2512.81 4555574 4516622 4474430 4419956 4367298 4321628
2515.70 4299334 4298488 4274914 4204902 4184954 4194374
2518.59 4153924 4094438 4073672 4043558 3991888 3953496
2521.49 3967806 3965184 3939000 3919496 3919596 3894754
2524.38 3876468 3825768 3781452 3780390 3812494 3772422
2527.27 3739254 3705536 3698432 3668920 3618982 3602426
2530.16 3571828 3526816 3587286 3642886 3644404 3578732
2533.06 3582730 3595248 3627774 3731086 3820100 3790740
2535.95 3685362 3570246 3485196 3462386 3502232 3493114
2538.84 3490350 3432498 3374304 3323094 3303194 3250884
2541.74 3225110 3194592 3149892 3138682 3189020 3200216
2544.63 3170118 3137326 3125120 3090794 3088002 3097498
2547.52 3098824 3075816 3066002 3090330 3116900 3079992
2550.41 3013118 2943312 2937950 2958610 2976334 2963450
2553.31 2941320 2905194 2898356 2904572 2919544 2877610
2556.20 2865046 2882764 2912756 2900558 2896622 2906102
2559.09 2932970 2914748 2903206 2892610 2926884 2966192
2561.98 2995000 3004718 3002418 2990916 3021864 3052078
2564.88 3049088 3022860 3049522 3082100 3128544 3185240
2567.77 3219830 3217846 3231268 3260222 3275624 3286032
2570.66 3340530 3393582 3431622 3453720 3471090 3464652
2573.56 3497476 3539402 3609924 3656764 3710818 3758600
2576.45 3807992 3839388 3917256 3978248 4012086 4034098
2579.34 4116778 4185966 4268200 4328170 4354918 4415572
2582.23 4488374 4507386 4557026 4599486 4664434 4705688
2585.13 4738760 4818502 4916832 4913166 4947686 5034524
2588.02 5103614 5171064 5271148 5307148 5370970 5440606
2590.91 5466756 5502084 5588320 5638632 5730752 5817538
2593.80 5846318 5867272 5946982 6027122 6115748 6254662
2596.70 6377686 6427128 6472864 6557434 6671464 6794628
2599.59 6888528 6931400 7050932 7235546 7377196 7456284
2602.48 7614582 7752200 7896302 8091448 8336682 8628870
2605.37 9059806 9524890 9849920 9755728 9426904 9112758
2608.27 8885286 8713856 8672486 8660988 8657286 8672158
2611.16 8748342 8884778 8962478 8977900 9043932 9134466
2614.05 9241708 9338760 9458426 9540254 9659160 9734630
2616.95 9828122 9920062 10022730 10108450 10213310 10326080
2619.84 10476910 10655430 10806460 10932010 11119850 11292070
2622.73 11464350 11587350 11739070 11943040 12180430 12403050
2625.62 12674380 12975150 13317150 13666670 14052910 14443640
2628.52 14806340 14956540 14919730 14720070 14474850 14320000
2631.41 14226930 14090110 13922490 13805940 13883460 14059620
2634.30 14314710 14639130 15027760 15446530 16034170 16728100
2637.19 17344940 17925020 18395340 18649680 18779740 18828000
2640.09 18809810 18692560 18540180 18426050 18378050 18298160
2642.98 18271200 18312130 18357580 18365320 18432270 18515170
2645.87 18575660 18605380 18610360 18569380 18595230 18639270
2648.77 18693850 18734940 18755760 18713970 18697070 18695980
2651.66 18704870 18694440 18752220 18824590 18919900 18989830
2654.55 19015870 19057280 19115990 19178000 19291550 19416910
2657.44 19600090 19798740 20029820 20209520 20222420 20014900
2660.34 19884430 19863690 19902370 20016650 20256620 20548440
2663.23 20804640 21012070 21243170 21469550 21677900 21711650
2666.12 21575620 21291490 20891550 20455290 20050460 19677360
2669.01 19350950 19024230 18769930 18504450 18218630 17859560
2671.91 17534660 17137330 16704800 16321320 16024100 15797670
2674.80 15650660 15454360 15289490 15147100 15037230 14985320
2677.69 14963870 14955370 14946170 14919450 14892100 14803140
2680.59 14694780 14567330 14431970 14293320 14172490 14001140
2683.48 13866820 13753840 13600440 13438390 13297050 13109820
2686.37 12997860 12853950 12653170 12507580 12425510 12302900
2689.26 12161110 12020620 11915920 11775840 11644150 11505200
2692.16 11450280 11397330 11281640 11138760 10973970 10846330
2695.05 10778480 10690470 10583290 10503470 10451410 10410270
2697.94 10415580 10388270 10384650 10316990 10324750 10370520
2700.83 10364160 10334530 10398600 10408820 10397380 10370260
2703.73 10371180 10325610 10331480 10317780 10345490 10427410
2706.62 10473490 10519560 10623620 10724750 10818970 10925440
2709.51 11082420 11191280 11341300 11511470 11716760 11888500
2712.41 12026700 12105720 12191980 12275650 12382300 12436910
2715.30 12515960 12565050 12619670 12716200 12808960 12876170
2718.19 12981300 13064520 13174990 13251320 13339360 13425380
2721.08 13520910 13558570 13646870 13669270 13595050 13565340
2723.98 13617190 13629420 13725990 13859990 13965390 14050120
2726.87 14194520 14329420 14502520 14649540 14801240 14925680
2729.76 15054930 15164080 15270190 15323530 15392950 15468330
2732.65 15589900 15677080 15814400 15899820 15922460 15930860
2735.55 15978840 16003960 16003910 15887050 15828640 15792390
2738.44 15767150 15732580 15728130 15721570 15697000 15656710
2741.33 15705330 15763980 15805830 15767230 15748840 15722270
2744.23 15656050 15610170 15627320 15567440 15526990 15528510
2747.12 15539410 15481960 15394720 15334590 15340260 15342910
2750.01 15373430 15406300 15427790 15424910 15480620 15515480
2752.90 15589070 15656190 15807260 15929900 15945180 15911280
2755.80 16017860 16096590 16233750 16376200 16533940 16660610
2758.69 16790940 16903970 17036360 17130640 17260070 17350860
2761.58 17453620 17558070 17726380 17880930 18024020 18149860
2764.47 18282840 18397640 18522610 18663230 18845060 18984960
2767.37 19243670 19520920 19684520 19741050 19728040 19715570
2770.26 19734550 19701770 19700600 19647930 19615560 19590190
2773.15 19609340 19589450 19649850 19709550 19707140 19726590
2776.05 19911470 20126610 20271610 20387650 20496780 20576500
2778.94 20668680 20714420 20834820 20983930 21151990 21300510
2781.83 21484260 21648590 21826610 21981030 22174180 22383750
2784.72 22606810 22808960 23031980 23176100 23297040 23380690
2787.62 23460860 23533390 23678760 23762330 23869100 24034780
2790.51 24194670 24273890 24412070 24558710 24777830 24999370
2793.40 25298440 25608320 25917150 26113020 26284070 26352070
2796.29 26368790 26342340 26411160 26502110 26596120 26621580
2799.19 26691940 26828990 26993260 27069640 27156380 27260160
2802.08 27448010 27645540 27777340 27769510 27764400 27778980
2804.97 27861700 27940520 28096780 28275610 28479350 28715280
2807.87 29052470 29305410 29554460 29800860 30154860 30585420
2810.76 31001480 31296910 31555340 31787760 32137210 32491360
2813.65 32909820 33377810 34021040 34483050 34529990 34304170
2816.54 34176500 34183300 34381110 34673330 35136120 35779140
2819.44 36587910 37295230 37786000 38076480 38325320 38470010
2822.33 38571790 38747210 39096260 39306780 39330790 39274100
2825.22 39393580 39598910 39896720 40319530 40859820 41450500
2828.11 42154440 42874580 43464290 43802940 43986950 44007090
2831.01 44017620 44014250 44141860 44291320 44444480 44707380
2833.90 45006710 45213540 45412860 45682150 46092340 46424570
2836.79 46783970 47018300 47167260 47388150 47730900 48205620
2839.69 48784810 49312460 49901340 50448740 51059850 51789510
2842.58 52725570 53763070 54903580 56074110 57471280 59055130
2845.47 60851190 62683820 64557870 66483230 68551500 70600160
2848.36 72871540 75263630 77607450 79770840 81588120 83111000
2851.26 84673090 86232030 87930890 89692090 91393500 92773400
2854.15 94085970 95496660 97256560 99285550 101736200 104445700
2857.04 107332900 110368200 113645300 116969900 120491600 124138700
2859.93 127777300 131410500 135179000 138931700 142843300 146633200
2862.83 150460800 154295200 157956300 161454600 164991300 168409400
2865.72 171802800 175254800 178743100 182153600 185633300 188943600
2868.61 192295700 195542400 198566600 201473300 204352200 207124300
2871.51 209620500 211485100 213233500 215182900 217475700 219853700
2874.40 222378000 225274200 228801200 232547700 236374100 240505000
2877.29 245425400 251252300 258578300 268120300 279674900 290515700
2880.18 299865900 310282700 323679300 339065900 353456700 361544800
2883.08 360713200 354327100 347373300 341692400 337917900 337001700
2885.97 339035100 343485400 349457100 355450800 359561300 359827700
2888.86 357578300 354947500 352392300 349188800 345278700 340437200
2891.75 335172700 330012900 325225300 320448100 316114400 312191100
2894.65 308563200 305168200 302484000 300531600 299181000 297862400
2897.54 296497400 295297400 294434100 293495400 292810500 292393100
2900.43 291877400 291011100 289956000 288993200 288122400 286675100
2903.32 285246900 283800300 282315000 280711000 279145500 277355500
2906.22 275448400 273305000 271142400 268786000 266426100 263971200
2909.11 261779200 259687300 257271900 254672600 252452100 250326600
2912.00 248428900 246658100 245303200 244381900 244094700 243846400
2914.90 243231100 241654800 239640000 237476500 235563200 233615500
2917.79 231737800 229800800 227801200 225948900 224542200 223310600
2920.68 222286400 221582000 221401300 221430800 221979400 222952100
2923.57 224411700 226256900 228398100 230494800 232749000 235210900
2926.47 237902000 240633300 243663100 246799500 250551600 254331900
2929.36 258129700 261538400 264688600 268112300 269033300 264619300
2932.25 259357000 256904400 256573800 255057600 252867900 251725500
2935.14 252268200 254184600 257464900 261636600 266105900 269688200
2938.04 272705700 274994100 275448700 273564200 272127200 272307900
2940.93 273775000 276268300 280162500 284892900 290683900 297224000
2943.82 305008400 313218700 321884600 331463300 342835800 353930500
2946.72 363895600 372098300 376063700 378714300 384071300 391304000
2949.61 399529900 408262100 417310500 426184300 435181600 444101800
2952.50 453037000 461740500 470723000 479820600 488977800 497211800
2955.39 505381100 513103700 520820700 528463800 536738300 544410000
2958.29 552279400 560055400 568261800 576717300 586588700 596975500
2961.18 606774000 615617900 624725600 634054000 644789500 657134400
2964.07 675146200 697247100 714284100 725368200 738778200 744886500
2966.96 747880800 756383200 770083800 788640100 824561000 902906800
2969.86 1025406000 1074640000 1005167000 928304800 890510300 881354900
2972.75 880731100 872723200 862438500 858568900 863045400 875787700
2975.64 894909500 919476800 945882200 971326400 1002783000 1041734000
2978.54 1084031000 1126001000 1167457000 1193820000 1207349000 1263695000
2981.43 1372868000 1315716000 1082344000 914535200 836056000 794281200
2984.32 767880900 749660200 735815000 730713500 720419600 700882300
2987.21 688733900 680132400 668707000 663097200 662238500 661347200
2990.11 654957200 647766700 637718300 625550700 615649800 609103600
2993.00 601820400 594097000 586573800 579199700 570709600 562570800
2995.89 553604200 543895400 533419300 522658400 510642200 498146600
2998.78 484497500 470459600 455547600 440434700 424605800 408564400
3001.68 392238700 375807700 359023100 342525300 325680800 309216600
3004.57 292716100 276680900 260717200 245414600 230516100 216277700
3007.46 202350300 189066600 176286200 164188800 152488700 141662300
3010.36 131198200 121423600 112279100 103863300 95767080 88338800
3013.25 81331340 75103300 69184790 63763240 58617710 54008720
3016.14 49661740 45817580 42149940 38884110 35802210 33209980
3019.03 30696750 28442790 26239410 24414480 22679120 21173170
3021.93 19571150 18260150 17046920 16069630 14990030 14094630
3024.82 13267420 12538140 11712490 11147200 10548870 10044830
3027.71 9467718 9041444 8593808 8270366 7854916 7560964
3030.60 7196804 6983110 6632346 6418832 6187540 6055776
3033.50 5781980 5648174 5464992 5359530 5101336 5038710
3036.39 4934408 4855768 4663996 4599990 4484614 4478022
3039.28 4340868 4248604 4084496 4081076 4057382 4049840
3042.18 3857456 3793064 3663158 3673096 3566984 3572986
3045.07 3451334 3415862 3363416 3367026 3265488 3258718
3047.96 3194932 3155856 3079664 3052296 2998210 3038918
3050.85 2991564 2980784 2914712 2942828 2888832 2798650
3053.75 2658060 2762700 2797190 2791662 2702878 2691128
3056.64 2636870 2650014 2618796 2692600 2642720 2597732
3059.53 2546196 2605190 2543478 2537194 2550776 2585248
3062.42 2535106 2536174 2503688 2556380 2556332 2605966
3065.32 2529916 2510346 2506824 2562164 2491940 2553058
3068.21 2557594 2570514 2520626 2538286 2520152 2550562
3071.10 2588526 2595062 2496550 2512652 2501530 2541704
3074.00 2500270 2508214 2523386 2578482 2524658 2556464
3076.89 2540958 2603810 2639594 2676482 2611284 2643050
3079.78 2587386 2593070 2613750 2653242 2613392 2738772
3082.67 2733690 2711964 2696598 2738156 2702206 2723668
3085.57 2714118 2736064 2732344 2836042 2853266 2832146
3088.46 2821236 2880802 2848818 2889882 2838654 2793748
3091.35 2732978 2802724 2839338 2841068 2851346 2932804
3094.24 2927942 2988160 2974446 2966122 2936800 2960042
3097.14 2970102 3032484 3026452 3056758 3020854 3052890
3100.03 3039546 3024012 3028976 3141776 3115906 3103848
3102.92 3108344 3104602 3050068 3063116 3130924 3188888
3105.82 3096370 3132336 3170966 3208064 3163482 3280676
3108.71 3345838 3336984 3357728 3382278 3308128 3319042
3111.60 3234872 3243022 3288726 3348156 3338650 3385132
3114.49 3380628 3404144 3404112 3455780 3438402 3492514
3117.39 3523644 3484350 3457452 3526142 3551688 3571156
3120.28 3512032 3558854 3591932 3645004 3665484 3722248
3123.17 3740996 3747012 3714938 3785402 3739086 3751400
3126.06 3706790 3711560 3743160 3794702 3836948 3869188
3128.96 3861680 3902378 3907338 3936390 3880168 3868556
3131.85 3835592 3827850 3845856 3925146 3909442 3946484
3134.74 3978944 4020362 4022008 4023988 4010662 4066670
3137.64 4092086 4112776 4095942 4128890 4189286 4228604
3140.53 4170026 4164340 4197426 4336202 4402882 4372334
3143.42 4304280 4309912 4358438 4411606 4418236 4479032
3146.31 4551548 4660030 4683532 4723472 4716882 4783216
3149.21 4851360 4884218 4920390 5008264 4996770 5054444
3152.10 5152218 5279734 5289760 5346352 5413534 5474792
3154.99 5500912 5621446 5689548 5727404 5847114 6014258
3157.88 6039790 6111104 6162834 6220462 6246686 6361710
3160.78 6466714 6576852 6664188 6855070 6955630 7013252
3163.67 7084338 7258878 7367266 7422050 7421598 7541970
3166.56 7716358 7876446 7941384 8050100 8122160 8268246
3169.46 8458186 8597542 8595950 8714038 8805482 8848966
3172.35 8902152 9054938 9224810 9436926 9553748 9685744
3175.24 9762458 9820882 9886354 10043830 10120900 10184930
3178.13 10228270 10346590 10470790 10584870 10640200 10715600
3181.03 10705400 10715500 10758340 10821260 10861460 10998310
3183.92 11148110 11216680 11195000 11195960 11245290 11353770
3186.81 11454880 11618250 11699580 11701970 11689870 11713820
3189.70 11638080 11562680 11475620 11428410 11307260 11242760
3192.60 11192030 11175400 11124300 11073750 11092640 11255470
3195.49 11399310 11545410 11716290 11926030 12009090 11984150
3198.38 11858110 11730610 11654040 11651810 11625430 11606720
3201.27 11480710 11354140 11194800 10980860 10793970 10740160
3204.17 10653360 10634460 10631410 10636200 10645240 10677020
3207.06 10592830 10595820 10715130 10664310 10408030 10190510
3209.95 10029280 9929954 9855908 9816398 9819258 9952990
3212.85 10223350 10577180 10640290 10250200 9773526 9604586
3215.74 9508952 9423358 9388624 9360870 9306028 9302154
3218.63 9225082 9181950 9212502 9168232 9040814 9013280
3221.52 9030986 9048072 8993288 9025148 9100030 9201500
3224.42 9204422 9145616 8929008 8713654 8496280 8350484
3227.31 8248144 8225238 8094698 7882210 7774578 7799034
3230.20 7804180 7781710 7709458 7664418 7590918 7563676
3233.09 7463004 7448250 7371934 7235204 7229928 7266784
3235.99 7094236 6873206 6693102 6622788 6521624 6382362
3238.88 6243870 6286708 6308200 6306176 6262584 6269262
3241.77 6348694 6296324 5932770 5585956 5358932 5251320
3244.67 5113656 4979644 4900916 4842198 4766662 4830628
3247.56 4911172 5003214 5060530 4991252 4506288 4085096
3250.45 3867722 3723932 3570414 3456608 3281772 3148532
3253.34 3092582 3058966 2927232 2885264 2785462 2679336
3256.24 2570632 2559626 2513422 2395672 2277854 2191198
3259.13 2150304 2128802 2029770 2021288 1952198 1856114
3262.02 1825410 1844896 1785478 1750594 1694130 1602088
3264.91 1535556 1556666 1458166 1305264 1242622 1246186
3267.81 1246710 1334912 1290118 1259976 1193600 1070818
3270.70 1031042 1037848 962042 919646 972254 1063138
3273.59 967338 861040 775500 749206 770872 833190
3276.49 860358 798488 660154 669204 741164 767456
3279.38 744710 693146 666432 717064 742882 692514
3282.27 629302 653346 639514 713242 772648 793952
3285.16 756036 749976 730038 750528 662854 610738
3288.06 630022 691232 692822 679428 624856 593752
3290.95 651072 742312 706764 661648 691168 706524
3293.84 682464 787668 821444 796998 722670 728144
3296.73 793262 795518 701444 696796 720538 813976
3299.63 839732 832554 813636 851180 914568 942288
3302.52 882942 906564 1006808 1117148 1031210 1002078
3305.41 1066822 1120808 1142790 1177732 1140806 1119972
3308.31 1148020 1215778 1295408 1348522 1400724 1499504
3311.20 1536040 1530374 1585238 1680862 1721234 1690720
3314.09 1684446 1772282 1818864 1919150 1983034 2043360
3316.98 2009250 2037798 2093008 2122422 2093442 2155060
3319.88 2220556 2305444 2313670 2306522 2338064 2384050
3322.77 2375078 2397124 2436868 2538932 2674752 2709142
3325.66 2675754 2725082 2809180 2983534 3028682 3085256
3328.55 3201646 3256016 3266652 3385942 3456076 3429824
3331.45 3503018 3611060 3644158 3694894 3671202 3756842
3334.34 3790816 3788844 3861484 3906130 3850864 3802618
3337.23 3834626 3928692 3993892 4054808 4022696 4045172
3340.13 4023958 4004444 4010058 4056144 4009530 4025008
3343.02 4037812 4029172 3922492 3954986 4019070 3985996
3345.91 3864244 3866588 3880950 3901874 3965616 3994514
3348.80 3947208 4013638 4003076 4018242 3995830 3906054
3351.70 3810898 3788914 3764040 3788010 3779004 3733770
3354.59 3719276 3790458 3754352 3701108 3665136 3653454
3357.48 3643576 3605696 3582800 3593776 3585356 3573690
3360.37 3547378 3543702 3441024 3404314 3458520 3425946
3363.27 3362296 3304688 3222088 3224038 3218278 3199532
3366.16 3187574 3173728 3150296 3170608 3108132 3129410
3369.05 3151090 3028276 2902836 2952598 3003972 2941302
3371.95 2801224 2858656 2878258 2879276 2864158 2918156
3374.84 2929698 2835770 2798466 2860946 2861826 2789380
3377.73 2745524 2749870 2770954 2827670 2856386 2840814
3380.62 2841684 2877446 2895304 2943584 2967628 2983102
3383.52 2969562 2925354 2861474 2859840 2942372 3063726
3386.41 3035556 3070506 3141538 3098036 3076754 3113768
3389.30 3162872 3237486 3276154 3338380 3300674 3323958
3392.19 3345014 3373008 3409712 3455106 3559454 3608036
3395.09 3586020 3649856 3673132 3681352 3710256 3726290
3397.98 3796142 3882068 3881204 3786412 3707100 3728058
3400.87 3726926 3779518 3902750 3994050 3990570 4038848
3403.77 4051476 4058866 4154910 4266862 4233812 4222004
3406.66 4203252 4212800 4218590 4146590 4109350 4190056
3409.55 4270084 4298142 4354558 4400620 4407192 4451652
3412.44 4395452 4437716 4473296 4507690 4550360 4517780
3415.34 4516706 4580018 4545990 4610040 4662502 4692632
3418.23 4681394 4744668 4854594 5009636 5172214 5351028
3421.12 5425418 5405188 5349548 5419216 5574124 5775264
3424.01 5766088 5525870 5293152 5267388 5235696 5176848
3426.91 5092106 5048198 5013348 5035336 5142348 5243524
3429.80 5269464 5320546 5363000 5362068 5315196 5294372
3432.69 5349158 5435002 5453292 5459310 5474976 5566266
3435.59 5600950 5620894 5542282 5448994 5508440 5575522
3438.48 5599150 5630326 5605506 5670498 5722502 5693864
3441.37 5641690 5615490 5562716 5562848 5539146 5576034
3444.26 5678228 5741210 5748184 5821288 5788446 5835478
3447.16 5870374 5982718 6244182 6591314 6815182 7061790
3450.05 7043228 6607190 6162474 5995736 5894380 5766730
3452.94 5693310 5679024 5563518 5489248 5481730 5559568
3455.83 5620782 5597658 5537022 5520400 5567104 5698442
3458.73 5712772 5633862 5610566 5579434 5543160 5575376
3461.62 5565096 5517960 5512762 5498218 5479272 5433156
3464.51 5352222 5311316 5233778 5094902 4984862 5032426
3467.40 5053066 5047940 5074592 5092196 4943976 4824092
3470.30 4777194 4798308 4781440 4742474 4607244 4583856
3473.19 4527068 4414744 4400084 4424126 4356154 4259010
3476.08 4209266 4225944 4183586 4128832 4028038 3950930
3478.98 3866416 3858200 3798076 3746018 3714316 3639028
3481.87 3554968 3510040 3384516 3363506 3388936 3385410
3484.76 3288392 3308726 3223202 3109216 3114798 3124636
3487.65 3030904 2928780 2859066 2821634 2734426 2727974
3490.55 2719854 2735294 2704446 2636102 2619172 2591116
3493.44 2541856 2572466 2492124 2356212 2238734 2286082
3496.33 2319482 2342944 2308478 2333154 2377256 2300094
3499.22 2208096 2219154 2235804 2187088 2049438 1954838
3502.12 1975768 2002456 1929542 1907212 1893364 1899406
3505.01 1849710 1913328 1909098 1815040 1748878 1839384
3507.90 1871448 1845004 1851930 1842884 1776068 1728322
3510.80 1656582 1664006 1693682 1692030 1632234 1633480
3513.69 1666490 1671406 1641524 1660600 1677450 1709428
3516.58 1713960 1748426 1710326 1767904 1680620 1635456
3519.47 1712108 1761996 1723208 1763540 1784760 1776540
3522.37 1763690 1818758 1813228 1844066 1831076 1906248
3525.26 1939146 2001930 1973244 1952842 1969890 2030092
3528.15 2120632 2210006 2238426 2225830 2209236 2248362
3531.04 2298678 2391302 2424150 2482940 2422040 2385230
3533.94 2368866 2380538 2397058 2402870 2388832 2469670
3536.83 2471260 2521854 2464914 2429240 2465474 2467142
3539.72 2480336 2605412 2626370 2655742 2713094 2772726
3542.62 2736256 2746716 2726544 2682666 2607754 2613390
3545.51 2538844 2563956 2552504 2502554 2519336 2480948
3548.40 2398618 2384468 2395792 2492762 2489352 2439262
3551.29 2394380 2367038 2387924 2431626 2346686 2338102
3554.19 2330850 2346444 2323508 2358478 2328992 2250960
3557.08 2184740 2269114 2231388 2229816 2192612 2171324
3559.97 2161120 2210702 2199780 2242398 2279982 2277272
3562.86 2180170 2140796 2206504 2257180 2189902 2244480
3565.76 2283058 2278238 2251344 2278112 2211772 2199786
3568.65 2207116 2218850 2179834 2133444 2091352 2110880
3571.54 2039388 2045022 2114176 2062928 1979302 2052150
3574.44 2013240 1965368 1968362 1988448 2018830 2100966
3577.33 2137330 2201880 2240176 2275324 2288810 2326536
3580.22 2320860 2304644 2263050 2301272 2322272 2349314
3583.11 2358184 2387448 2411950 2457896 2416872 2470570
3586.01 2543756 2552008 2530704 2686376 2728916 2824892
3588.90 2775646 2837734 2888190 2949524 2941478 3019616
3591.79 3049230 3056374 3124554 3270722 3262028 3363388
3594.68 3440630 3494810 3453960 3479990 3471086 3529542
3597.58 3585838 3600350 3553998 3672280 3720322 3829538
3600.47 3963202 4118892 4208358 4387068 4521824 4687716
3603.36 4844958 5085504 5313150 5637132 6008266 6517208
3606.26 6900004 7273676 7457492 7688036 7958898 8414016
3609.15 8605344 8810548 9002942 9310156 9592948 9980228
3612.04 10321870 10699280 11010510 11438680 11829780 12289690
3614.93 12601870 13064590 13485460 13944720 14392840 15001190
3617.83 15366710 15873670 16384180 16952170 17299370 17835880
3620.72 18288670 18810420 19155890 19725280 20297960 20839750
3623.61 21237270 22012410 22623750 23295660 23856590 24660540
3626.50 25274540 26168960 27355370 29440560 30444470 30099250
3629.40 29696930 30399190 31131860 32248910 33313950 35034020
3632.29 36629940 39075790 41438920 44783830 48688770 56414400
3635.18 79895460 123653400 123753100 83258990 67022210 66536220
3638.08 68688530 70514970 73579100 76895180 80564900 82924530
3640.97 83915230 84435110 86357420 88516880 91166900 93516770
3643.86 95771580 97688270 100130100 102653000 104865500 106140500
3646.75 106999600 106975000 107022200 107357400 107955700 108039500
3649.65 108076900 108010300 108095800 108152600 108387400 108761800
3652.54 109653600 110904700 113027300 115577100 118408100 120968600
3655.43 122633500 122714700 120607700 116559100 113954000 113686600
3658.32 115931200 119380700 121186700 120873300 119113500 116909600
3661.22 115161200 113622500 112638800 111565800 109451600 107283600
3664.11 105959100 105001500 104229000 103527200 102919900 102364600
3667.00 102084300 101908100 101720100 101293100 100611400 99807980
3669.90 98994220 97869380 96312620 94592270 92895620 91144150
3672.79 89155800 86878300 84528270 82147420 79660140 76962530
3675.68 74115180 70980380 68018840 65058520 62039510 59018410
3678.57 56066850 53183270 50395120 47653330 44983490 42263700
3681.47 39640280 37207980 34952270 32774410 30762110 28734480
3684.36 26892650 25149950 23578920 22135530 20742620 19400440
3687.25 18255140 17299670 16180490 14918250 13912660 13051770
3690.14 12342540 11658150 10987190 10300120 9700424 9144382
3693.04 8708526 8247672 7919470 7609752 7282124 6985216
3695.93 6729804 6463532 6276560 6111444 5913844 5688166
3698.82 5581034 5403572 5157242 4980564 4873568 4845698
3701.72 4807616 4637910 4508088 4361222 4280436 4190784
3704.61 4071816 3997172 3979198 3895714 3888338 3855194
3707.50 3782158 3755372 3831670 3864560 3807148 3761992
3710.39 3748396 3717690 3823694 3897720 3821856 3753008
3713.29 3668946 3609412 3590100 3501498 3370270 3254708
3716.18 3244894 3207620 3164794 3129608 3055066 2972080
3719.07 2965804 2895938 2822678 2825272 2846644 2871906
3721.96 2903918 2857998 2833290 2771074 2695028 2731220
3724.86 2738034 2707402 2750770 2672326 2574370 2610342
3727.75 2541574 2481586 2541666 2548212 2561668 2520770
3730.64 2495872 2569684 2658910 2599722 2514378 2477742
3733.54 2491006 2542888 2539692 2412606 2414880 2563668
3736.43 2581234 2531096 2527386 2518796 2525324 2527782
3739.32 2559376 2513482 2448372 2455672 2512496 2475374
3742.21 2375442 2382660 2535228 2737960 2907766 2736156
3745.11 2475514 2316626 2293140 2312314 2290802 2293192
3748.00 2318500 2424116 2559680 2415838 2319210 2271708
3750.89 2254372 2407308 2485754 2234790 2145782 2174678
3753.78 2181340 2117596 2083894 2132094 2251726 2278506
3756.68 2122506 2079812 2168808 2134366 2147454 2169612
3759.57 2203722 2154010 2120440 2134210 2231136 2291698
3762.46 2278316 2192652 2195610 2279870 2373714 2459352
3765.35 2560674 2494284 2432554 2472724 2516068 2542266
3768.25 2576578 2604668 2657072 2659638 2656766 2700110
3771.14 2792162 2840118 2816418 2855286 2918686 2962354
3774.03 3072454 3104696 3147756 3180914 3237448 3286996
3776.93 3277884 3332716 3441612 3516464 3626528 3652414
3779.82 3617472 3673734 3805800 3905862 3900814 3938552
3782.71 4073636 4171248 4212136 4225230 4311230 4418582
3785.60 4437380 4513502 4605942 4661830 4707736 4677408
3788.50 4660528 4694964 4694894 4696266 4783064 4763546
3791.39 4703924 4693094 4717176 4816132 4864832 4876458
3794.28 4944670 4986738 5036716 5085604 5181800 5284476
3797.17 5353210 5347274 5350142 5356372 5434200 5507634
3800.07 5526950 5650638 5731290 5443074 5340016 5404790
3802.96 5407602 5398692 5377778 5326656 5363952 5430968
3805.85 5484304 5650952 5695158 5472246 5461374 5503050
3808.75 5523334 5575588 5651750 5709316 5769410 5782502
3811.64 5798550 5722702 5716002 5701164 5682542 5736578
3814.53 5801350 5897472 6131110 6075688 5912708 5863064
3817.42 5840362 5860322 5967194 6075154 6086520 6085734
3820.32 6141422 6074360 5984268 5803334 5742868 5694138
3823.21 5627328 5678240 5717272 5712188 5717908 5732392
3826.10 5814416 5908466 5919866 5901798 5958232 5983304
3828.99 6005246 5929838 5868456 5830290 5848842 5805040
3831.89 5689118 5633554 5595440 5561454 5533956 5641396
3834.78 5683502 5637018 5564330 5528482 5595772 5782016
3837.67 5797762 5548240 5434918 5490102 5501068 5408442
3840.57 5376680 5345706 5316414 5313232 5321994 5347222
3843.46 5368514 5281450 5216360 5154192 5095736 5082602
3846.35 5126240 5176642 5226572 5175982 5095546 5081490
3849.24 5126902 5100502 5097950 5125956 5235590 5329756
3852.14 5129418 5042872 5274576 5502682 5379690 5098986
3855.03 5037190 5068896 5085896 5078018 5107836 5092450
3857.92 5039822 4923864 4890040 4892504 4896174 4832684
3860.81 4834106 4805150 4699674 4676524 4789452 4852158
3863.71 4838964 4911410 5049416 5032770 5080158 5171098
3866.60 5481140 5889208 6143128 6089384 5916866 5650326
3869.49 5436806 5210918 5038980 4912826 4806746 4766334
3872.39 4806566 4810892 4755828 4724768 4652782 4649432
3875.28 4729464 4736184 4655704 4600592 4679030 4789156
3878.17 4722268 4680836 4784210 4909310 4893350 4813790
3881.06 4808334 4797216 4772144 4829624 4920894 4856460
3883.96 4784782 4757646 4821248 4868794 4795030 4729336
3886.85 4692638 4697644 4684380 4641722 4726830 4738346
3889.74 4634576 4691142 4827888 4811098 4831806 4933058
3892.63 4975462 5070254 5214530 5310754 5461074 5512774
3895.53 5418484 5427938 5334970 5059832 4970752 5035204
3898.42 5083002 5106720 5057616 4924224 4838090 4755030
3901.31 4645602 4478332 4339240 4323156 4389550 4393770
3904.21 4281398 4216914 4172732 4122496 4109548 4102152
3907.10 4093734 4088160 4069130 4008896 4016430 4086762
3909.99 4120126 4080674 4020946 4007030 4058926 4014702
3912.88 3894722 3850770 3807520 3715972 3635626 3681634
3915.78 3720286 3716384 3764444 3734316 3592642 3484330
3918.67 3408878 3366694 3398604 3349718 3283834 3292000
3921.56 3251270 3202164 3268384 3304164 3190058 3081578
3924.45 3148714 3255636 3150090 3080664 3116204 3095312
3927.35 3026506 2987026 2964888 2989382 2989784 3001882
3930.24 2989308 2972090 2942338 2955970 3023568 3050604
3933.13 3104500 3115720 3098560 2992714 2872584 2792404
3936.03 2713166 2692070 2659122 2569094 2502922 2499848
3938.92 2502558 2488102 2484824 2547130 2511074 2428456
3941.81 2558836 2590514 2498328 2459788 2528938 2540254
3944.70 2545710 2542456 2553702 2515264 2563254 2530070
3947.60 2404108 2399298 2388530 2179784 2086782 2150292
3950.49 2137088 2077520 2018280 2000130 2051754 2038338
3953.38 2105870 2066406 1947724 1960688 2037982 2046306
3956.27 2023920 2022534 1960182 1873902 1901366 1996144
3959.17 1992500 1899050 1824188 1833914 1768922 1725598
3962.06 1751904 1792026 1772698 1728448 1760524 1756222
3964.95 1662240 1648084 1707128 1733378 1685156 1682944
3967.85 1747320 1732094 1688630 1698990 1690462 1644452
3970.74 1610232 1668048 1710372 1672240 1626698 1638048
3973.63 1633166 1582822 1593618
##END=
