##TITLE=Chloroform
##JCAMP-DX=4.24
##DATA TYPE=INFRARED SPECTRUM
##CLASS=IUPAC A
##ORIGIN=NIST, Analytical Chemistry Division, 301-975-3108
##OWNER=COPYRIGHT (C) 2000 by the U.S. Secretary of Commerce
##DATE=00/02/01
##$SPECTRA VERSION=1.10
##$UNCERTAINTY IN Y=2.2 % relative (B=1.2E-04,C=3.2E-09,D=1.1E-13)
##CAS NAME=Chloroform
##CAS REGISTRY NO=67-66-3
##MOLFORM=C H Cl3
##MP=-63.5 C
##BP=61.7 C
##$NIST SOURCE=QUANT-IR
##SPECTROMETER/DATA SYSTEM=IFS66V (Bruker)
##INSTRUMENT PARAMETERS=KBr Beam Splitter; MCT Detector; Multipass cell
##STATE=gas
##SAMPLE DESCRIPTION=Chloroform Primary Gas Standard
##PRESSURE=101.3 Pa
##TEMPERATURE=23 C
##SAMPLING PROCEDURE=1 L/min Flow
##RESOLUTION=1.9290
##DATA PROCESSING=Happ Genzel Apodization
##XUNITS=cm-1
##YUNITS=(micromol/mol)-1m-1 (base 10)
##XFACTOR=1.0
##YFACTOR=3.6379E-12
##DELTAX=0.9645
##FIRSTX=575.652
##LASTX=3974.605
##FIRSTY=-9.32E-07
##MAXX=3973.64
##MINX=575.65
##MAXY=.0027684
##MINY=-4.75E-06
##NPOINTS=3526
##XYDATA=(X++(Y..Y))
575.65-256315 58709-105951 38142 157040 185855
580.47 164624-96870-210110-148445-165841-216594
586.26-223241-242764 13249 61150 8288-57457
592.04-115081-73977-2220 12116 2157-37653
597.83 63947 74838 78523 139327 265450 312927
603.62 259665 172760 171571 201009 242830 275732
609.40 390887 422167 403076 315038 408534 543310
615.19 618450 533491 386645 295186 443090 933253
620.97 1207610 684559 278761 312200 802079 1248835
626.76 921397 480888 376661 332595 475791 541330
632.54 556984 501414 550149 544874 555258 484343
638.33 478875 432263 422529 323407 257015 172088
644.11 126883 107516 133678 97914 111276 99722
649.90 205132 231420 257946 292499 335467 387447
655.68 520390 578948 715867 766005 978971 1049376
661.47 1257883 1464138 1702114 1855648 2162724 2759459
667.25 3426501 4051408 5593408 7851393 11145426 14547107
673.04 16658355 15483466 11373649 5820534 3448791 4400554
678.83 5873641 7383365 8905396 10297077 11408249 12006249
684.61 12186050 11888618 11125521 9951102 8508930 6985875
690.40 5555330 4220962 3140517 2175894 1535534 1079368
696.18 786632 539710 404157 251972 179132 80074
701.97 70921 50410 46103 3447 35619 7033
707.75 39707 12927 4385-10561 45677 28709
713.54 112631 87378 85317 33707 110542 112038
719.32 157186 126697 226799 229385 328532 328653
725.11 424391 489855 690865 783126 1000148 1140274
730.89 1384676 1594349 1964160 2293049 2834698 3382273
736.68 4140759 4887147 5882255 6983691 8397124 9910587
742.47 11775758 13846460 16352952 18960275 21994848 25204003
748.25 28996547 33131977 38357192 44557838 52012542 60072124
754.04 69196816 80124719 93329021 108977292 128448066 151846200
759.82 179794065 212986537 252354709 298018242 351642937 411846239
765.61 478486118 547632444 616085950 677176954 723788528 751046350
771.39 760972139 743706215 717015995 704282289 687716528 634229057
777.18 523280232 417516791 334297401 268322121 214716539 172105461
782.96 137458096 110508059 88660593 71643579 57717600 47050334
788.75 38251416 31585633 26117905 22153824 18717743 15994388
794.53 13388900 11296124 9209527 7388251 5624829 4606025
800.32 3599452 2828623 2120700 1764685 1352338 1135295
806.11 844655 717298 500585 493597 363331 326534
811.89 169562 185904 104259 129999 36970 71477
817.68 47756 152075 69201 66391-46862-20067
823.46-5229 64186 45350 92061 41161 125579
829.25 114794 139116 84503 183102 203561 272552
835.03 265751 367100 378225 414318 408973 499131
840.82 464926 515654 545613 644723 698588 773607
846.60 758997 947439 1189506 1318775 1265679 1309319
852.39 1404776 1602551 1624048 1625809 1458771 1317134
858.17 1139804 955125 697758 620709 505848 361869
863.96 225937 261419 294594 281896 171680 157143
869.75 108855 147640 120848 114833 79692 107849
875.53 106494 137904 118696 109892 55039 67194
881.32 61612 67703 18593 28670-2292 19549
887.10-1527 4306-11840 11380-21758-14956
892.89-38090-14850-32248 5812 148 20936
898.67 14275 46576 54187 82572 60690 126509
904.46 177314 231209 261118 328127 366056 450828
910.24 515344 642814 693516 771452 837734 908740
916.03 945340 1015583 1060094 1099485 1134200 1204101
921.81 1195606 1198784 1217125 1314023 1401109 1459258
927.60 1413289 1527427 1795996 1812029 1432882 1311135
933.39 1544358 1590688 1113021 725916 693437 780288
939.17 865100 962056 1020139 1051596 1005443 980028
944.96 924356 840696 720730 641903 552283 473402
950.74 370923 309492 258536 200327 161602 160356
956.53 118270 122939 94835 90035 67856 56647
962.31 65869 89817 49543 48116 39641 34969
968.10 36784 65540 53153 40726 16254 11899
973.88-11969-22196-57793-37628-24902-25681
979.67-46547-51578-61212-30105-34717-58853
985.45-89214-74935-76656-80109-81520-46521
991.24-46024-56736-66401-49915-46597-36504
997.03-51071-59613-56216-11100-10199-30143
1002.81-45877-25393-26111 25420 54778 52684
1008.60 54943 85929 84259 114947 135736 185941
1014.38 227826 303329 340253 358720 379183 435949
1020.17 498549 556990 539553 532973 538830 565531
1025.95 546563 559112 568748 574447 580820 599721
1031.74 590576 570876 540944 549579 542527 529080
1037.52 455277 390755 336900 305513 231568 167362
1043.31 104319 49116-3362-17903-24451 5462
1049.09-11244-14265-23961-21766-37349-33556
1054.88-36392-50314-63275-40757-64007-52760
1060.67-52791-42821-54431-55395-93910-104172
1066.45-95045-80674-43175-39379-62794-45807
1072.24-63617-62178-76584-59949-67276-56479
1078.02-68833-79108-84495-67762-84993-91822
1083.81-91040-84934-96486-80391-77360-65534
1089.59-76284-51916-47426-60073-81335-72247
1095.38-74755-86559-101523-78108-53812-33259
1101.16-87054-94596-74302-42188-48818-70638
1106.95-94746-84430-88440-82640-97243-65647
1112.73-62664-68396-88510-83605-90819-82037
1118.52-92074-83676-76224-84980-96729-58025
1124.31-64010-70010-66704-74246-78013-55497
1130.09-59932-61842-84839-80319-70979-64743
1135.88-83678-75903-86660-57223-47681-74516
1141.66-64880-28475-53089-55598-58920-41541
1147.45-77427-88379-75104-64049-93174-82022
1153.23-78400-75149-94958-63963-52995-88126
1159.02-109110-73945-47937-43472-64555-70232
1164.80-65062-55434-48222-22317-36642-40110
1170.59-54371-35584-32310-1004 2116 24640
1176.37 35795 52768 64168 103749 113952 156908
1182.16 191421 250796 297254 361089 409921 518097
1187.95 603788 694691 734954 767781 814068 927211
1193.73 1056404 1267160 1487350 1837669 2254894 2814133
1199.52 3486015 4386393 5456163 6813916 8415125 10350427
1205.30 12519685 15179689 18662314 23160581 28087746 33751805
1211.09 40497308 49073116 59713242 72723609 88217997 107014486
1216.87 127669934 140644066 140483179 137231335 123494412 101882909
1222.66 82979409 67375679 54787478 44499261 36221587 29419822
1228.44 23965960 19468012 15915537 13005584 10650572 8680498
1234.23 7145161 5839701 4802593 3904286 3212448 2642705
1240.01 2180434 1733446 1400566 1116762 920963 734012
1245.80 602072 483126 405896 320620 273413 193880
1251.59 136811 97970 82630 52430 32953-6171
1257.37-596-19115-20808-12538-20026-59171
1263.16-41291-57708-62770-67600-55172-60233
1268.94-63299-71271-48802-56004-45195-41695
1274.73-33415-52189-81016-93727-46949-37530
1280.51-56097-70835-62618-72408-76643-72097
1286.30-61803-59197-54468-55667-47644-61805
1292.08-72353-80476-77178-81322-85915-77718
1297.87-75163-75985-51724-51108-49077-71127
1303.65-81470-62661-65034-91304-89574-85131
1309.44-71250-53565-39761-68324-87452-86349
1315.23-73165-78006-82291-69574-42455-53410
1321.01-64500-63434-35305-37388-44721-46228
1326.80-34145-27727-17310-29403-19082-7725
1332.58-7257-3830 6359 2273-11056-53240
1338.37-57984-62299-19615 20711 40943 38361
1344.15 24854-10554-39683-36610-35733-70550
1349.94-115750-147616-166741-141199-89760-71207
1355.72-25849-38802-56763-96445-160878-164486
1361.51-192359-195744-126874-111892-92292-60215
1367.29-52415-87048-89889-79984-87142-150581
1373.08-180248-125506-67203-39698-47328-56997
1378.87-63155-55836-33158-46940-44264-43946
1384.65-52597-137203-208988-107743-17882-33658
1390.44-50280-56188-93999-200982-183519-116090
1396.22-69436-96237-146901-107235-42848-21449
1402.01-7769-23686-85374-58408-13994-15402
1407.79-29166-49089-36435-11108 7848-21174
1413.58-14847 7863 14984-18137-152419-325045
1419.36-84345 142379 163290 145792 202924 304126
1425.15 384912 420705 475831 535355 600612 744151
1430.93 891073 995825 1128062 1263691 1256216 1212598
1436.72 1610363 1959707 2135318 2315042 2445307 2468211
1442.51 2590288 2630429 2458730 2455932 2333175 1947697
1448.29 1816250 1687354 1340434 992774 771280 566378
1454.08 352334-105265-452762-213883-25343 61559
1459.86 106665 107108 95838 58588-49536 52297
1465.65 213585 261110 316437 343212 308932 111374
1471.43-11016 21767 179043 262022 213657 323457
1477.22 396438 402278 381637 342801 346167 354038
1483.00 344207 359493 331167 230588 184535 167760
1488.79 44078 12121 75261 105639 81942 45397
1494.57-222218-343978-141769-169263-120140 6693
1500.36 14296 22097 49139-56416-443020-675307
1506.15-595706-243361-15783 72055 149125 128042
1511.93 196552 304020 306694 299874 219372 294893
1517.72 487504 452224 173752 146595 471622 722332
1523.50 784804 739063 902880 993149 1068038 1175184
1529.29 1268170 1296095 1285412 1168254 1214870 1418794
1535.07 1524283 1553887 1312388 868227 943324 1286861
1540.86 1387324 1575506 1861652 1850686 1916314 2038362
1546.64 2016570 1880039 1647733 1435739 1301376 1183712
1552.43 1009383 852131 1088781 1175370 830407 402281
1558.21 379499 410610 796430 1014520 938419 801332
1564.00 670905 614943 554708 432880 198726 15075
1569.79 125210 185310 144468 82659-29310-517208
1575.57-624885-153657-9429-22212-41121-30025
1581.36-15939-6159-27130-19632-22846-16679
1587.14-12079-33560-49984-46582-50324-69876
1592.93-97559-97932-84766-72277-60771-69228
1598.71-72679-80032-80291-92247-97900-98949
1604.50-102070-92089-70598-82620-108030-113048
1610.28-89237-83519-85862-81256-147396-557606
1616.07-667696-236838-89409-93696-106783-114403
1621.85-242949-300888-142297-75384-127865-186954
1627.64-131590-75070-76288-82726-83760-110646
1633.43-336348-682737-489244-218780-154604-102212
1639.21-115003-114558-102912-76306-78746-270658
1645.00-540298-420288-306237-194381-102532-160394
1650.78-676112-1305769-1062843-484196-184084-90476
1656.57-94040-83286-73438-71557-126903-259125
1662.35-239997-96707-84568-58080-68185-179099
1668.14-402561-309387-202804-155607-91260-152535
1673.92-408454-347152-93688-53629-76880-117455
1679.71-116860-103235-232564-544574-948918-647269
1685.49-131182-88924-111670-118206-97040-88248
1691.28-77492-91523-137446-624025-875016-369005
1697.07-157180-400421-910350-735067-221942-95651
1702.85-179684-216411-210528-198289-93388-60003
1708.64-79940-104365-74312-73458-127231-262103
1714.42-285086-367268-701806-579855-251230-102265
1720.21-77071-89004-106445-99243-74014-96411
1725.99-98751-90131-107800-153118-124194-129387
1731.78-386063-712982-647574-268122-77665-77657
1737.56-117258-284834-234367-104814-125642-157397
1743.35-128569-107303-107073-144357-187167-194051
1749.13-198053-373761-281710-105281-74087-74620
1754.92-131892-187699-115015-76501-78760-139407
1760.71-269588-193611-74908-59347-51566-73411
1766.49-185509-243226-110683-116969-241699-443184
1772.28-381045-141947-89695-63192-37436-45573
1778.06-59732-91508-105549-45178-31174-70291
1783.85-122855-80941-37133-32021-39996-52327
1789.63-107701-194074-305633-174490-38237-49820
1795.42-33092-11081-13603-77578-73401-58922
1801.20-45629-9139 19445 21672 36871 34168
1806.99 31346 49624 34084 15529 65672 95528
1812.77 108098 104960 109872 112331 121527 132428
1818.56 155050 155877 142669 121369 116958 46217
1824.35-32453 5003 46487 40157-8371-5726
1830.13 136557 210075 219444 205905 185201 153379
1835.92 122479 104696 97668 69345 68229 54275
1841.70-3112-203507-231218-46877-14340-40906
1847.49-28133-21783-20378-21876-27962-28920
1853.27-37426-29964-17324-31676-48626-48743
1859.06-45249-49077-43327-43722-43713-55053
1864.84-71267-99188-127344-182474-191567-114004
1870.63-76185-75941-83228-72282-68179-72462
1876.41-82132-85979-71428-48904-52880-65261
1882.20-71843-68829-63707-54860-46515-71349
1887.99-104417-93896-40397-28175-14664-9481
1893.77-34202-44686-32194-42348-50881-47995
1899.56-38503-50604-61321-60845-54475-59757
1905.34-69488-88051-91986-87040-87159-84713
1911.13-83208-76505-70139-73266-60209-98768
1916.91-169352-123426-77088-82405-81566-105833
1922.70-88867-61174-49411-52123-65514-68725
1928.48-68579-70864-77402-74072-54411-57661
1934.27-81426-101169-86057-78404-74110-64938
1940.05-59748-101581-101227-70280-86667-97165
1945.84-81071-72427-71428-64355-46887-53471
1951.63-50974-41181-50001-72432-59928-51809
1957.41-52010-51085-39458-36160-27451-34545
1963.20-35262-40360-55087-72652-69523-54209
1968.98-45576-43388-26213-19903-11442-34504
1974.77-57542-41534-31980-34077-24436-13767
1980.55-12380-14435-18765-30914-31073-38058
1986.34-40220-39229-24538-6757-15467-34934
1992.12-14923-29541-36814-41512-47691-40082
1997.91-30853-33273-34501-46703-34641-28847
2003.69-34005-36985-40654-43923-25012-34377
2009.48-40991-34824-38281-47551-54609-64526
2015.27-75873-65255-47692-57552-53481-54488
2021.05-57697-59280-59405-63426-53652-58755
2026.84-64480-66850-64806-68848-70006-76178
2032.62-75123-73344-65524-57005-45201-57479
2038.41-63735-81424-84086-67429-59643-66777
2044.19-71629-79199-82284-65693-63551-69399
2049.98-59644-67299-86274-89792-70288-73823
2055.76-63880-49321-56292-79849-76042-76846
2061.55-66907-63646-69617-50729-59416-93988
2067.33-88301-77954-71855-74497-64178-66570
2073.12-72649-69106-71264-76909-61698-68669
2078.91-82420-84675-81775-77875-74604-83921
2084.69-80989-76917-70082-78036-87977-87545
2090.48-64528-72860-85158-96062-85290-66461
2096.26-58694-83307-87737-72951-60056-74209
2102.05-95382-95556-85352-76476-69067-76405
2107.83-68820-70220-89535-98482-68305-68555
2113.62-71136-88857-63637-54401-68546-79670
2119.40-57358-51802-61051-102654-102428-69048
2125.19-60375-76007-67782-57236-70546-84682
2130.97-79546-76799-70003-69015-59749-51814
2136.76-51987-55828-58353-67063-65674-54437
2142.55-53634-70106-78066-77225-67383-67677
2148.33-65318-71655-69071-63119-64591-77848
2154.12-73321-52347-61117-89276-74601-55805
2159.90-58247-73671-58137-43546-68865-87064
2165.69-56090-49663-78948-95837-75077-70715
2171.47-69719-56983-42625-56050-64888-49150
2177.26-62355-83034-73574-47341-46201-55412
2183.04-36889-18174-33070-46490-15829-16418
2188.83-41653-42633-22943-19430-8014 438
2194.61-4739-8950-10986-1319 25119 18184
2200.40 3340 8341 21589 34515 31604 27562
2206.19 47909 52022 41794 28088 35408 32793
2211.97 39081 62112 66655 38519 30690 22674
2217.76 12944 11768 9168 11682 6532-10502
2223.54-12110 6169 15953-5497 11885 33126
2229.33 38956 41591 39394 30532 39109 33949
2235.11 35863 43037 59006 50787 32575 30960
2240.90 29037 25261 36923 14150 5100 3775
2246.68-14529-29549-32320-22175-7135-12806
2252.47-15622-25111-25431-21800-28239-37819
2258.25-31933-20492-31546-46614-33669-33593
2264.04-26493-16061-10935-18340-15999-9213
2269.83-29679-31218-4929-4039-4441-118
2275.61 14940 5294 2764 9997 28081 30062
2281.40 26652 44063 51394 53520 77154 78195
2287.18 68644 65853 76635 69104 71567 76147
2292.97 58258 23719 18702 19227 11573-6082
2298.75-13443-14889-12195-18988-30088-17055
2304.54-22243-20412-8652 4988 19547 15743
2310.32 26313 15363 44958 54139 84270 65807
2316.11 99629 90968 123509 120710 176978 183327
2321.89 221462 218765 259563 258979 288038 296712
2327.68 337888 336830 370489 388648 415065 411915
2333.47 429567 416289 436492 436814 441738 413220
2339.25 406643 402936 394064 352591 306418 251652
2345.04 202865 163937 120272 61715 75569 131383
2350.82 201694 254242 324127 370237 422103 483970
2356.61 534887 556789 573313 576857 594492 591827
2362.39 580033 549998 524851 500029 468029 423085
2368.18 396570 353542 298937 243084 200187 151147
2373.96 123998 91723 71519 64324 54675 54318
2379.75 53541 18138-6969-115 17346 37932
2385.53 62146 80386 103749 121789 139629 178782
2391.32 235793 301520 349408 397510 459625 556773
2397.11 633086 596981 503717 448920 397990 394776
2402.89 357952 332456 377819 768623 2036783 3864103
2408.68 3284967 1030268 273937 261262 375599 463079
2414.46 553385 616113 704404 743038 770711 750869
2420.25 742225 705749 658845 572934 510367 429597
2426.03 379892 335035 305870 269937 241576 186691
2431.82 151828 114877 91490 64584 82660 123331
2437.60 190830 264328 333785 359772 363986 301626
2443.39 230240 173909 157504 132382 143384 166373
2449.17 178340 180072 207780 200063 207595 222530
2454.96 227070 216960 221550 208886 197595 175965
2460.75 159824 126805 126000 112766 101591 84356
2466.53 73546 65482 59073 29453 9819-12931
2472.32-7079-10511-22120-26958-30757-51542
2478.10-53186-66994-53163-45372-56741-75739
2483.89-67655-74925-68376-60134-57460-70991
2489.67-74478-67654-54097-66509-67544-73186
2495.46-67988-84639-83480-86210-79269-55709
2501.24-40430-63398-74370-66660-44061-60468
2507.03-83463-90254-78816-84532-74428-75461
2512.81-66881-77501-66938-49668-48283-67853
2518.60-77775-96521-96855-73622-63140-81769
2524.39-84205-100603-91588-74508-64941-82380
2530.17-74867-66007-73720-93585-89050-92740
2535.96-76984-70415-71884-83245-82158-99937
2541.74-95418-85457-82526-98756-85369-90616
2547.53-84910-86836-82978-83954-90494-103882
2553.31-88934-82414-90733-107099-100402-103847
2559.10-84654-78936-73094-82647-76174-53041
2564.88-48434-61245-47625-63397-75771-96262
2570.67-112506-125397-123759-110652-81084-78204
2576.45-77678-81023-90176-75034-44477-42931
2582.24-51269-64182-68232-88650-82532-86386
2588.03-80907-88490-104889-124303-102400-79681
2593.81-55597-59776-69878-93995-79403-80450
2599.60-98144-92661-75712-80679-74220-89558
2605.38-80728-72278-79087-92574-83426-98004
2611.17-92187-90421-71779-70787-64626-68764
2616.95-73988-78220-87612-94451-94769-100910
2622.74-88793-77728-66795-81183-90543-81194
2628.52-64565-72648-72767-92465-93860-83862
2634.31-68811-69734-69750-71886-65141-68202
2640.09-67049-64621-57230-80288-82915-69578
2645.88-51511-58064-77605-93257-92300-91208
2651.66-69014-62172-70960-68950-67488-90937
2657.45-102686-95479-89294-88751-65509-59182
2663.24-55244-79506-76943-78918-84759-98992
2669.02-87115-73596-62277-77319-91609-99272
2674.81-62798-81877-94352-67923-54461-73195
2680.59-78411-80590-72198-70538-51926-54295
2686.38-67380-68238-71530-80493-62152-72684
2692.16-84257-94223-96174-115175-110645-123060
2697.95-123750-110730-82888-88733-101228-95569
2703.73-77954-62521-48386-32385-25638-26427
2709.52-34450-58340-67855-83028-91036-95613
2715.30-86499-79263-78808-68066-64613-95928
2721.09-112801-128256-114279-88178-87726-102508
2726.88-77939-66426-63162-80689-82673-73679
2732.66-52816-66291-66400-67714-56561-70217
2738.45-84299-85547-69994-75287-76201-87550
2744.23-73865-79721-82502-82035-75655-80809
2750.02-89905-102449-79205-62354-80717-117327
2755.80-110238-93641-95540-105210-90277-88781
2761.59-73606-80824-95376-105990-102890-88139
2767.37-63089-80813-111744-111333-88035-76039
2773.16-71316-83225-106393-127194-98599-75382
2778.94-88580-86977-65955-62166-71519-93605
2784.73-94694-100107-93693-84418-68890-82075
2790.52-100340-111732-95353-77134-76751-94509
2796.30-60870-57111-81481-99153-93591-104462
2802.09-114921-114290-74674-98875-113849-91501
2807.87-78829-81733-76809-95046-116039-132714
2813.66-136746-121799-98373-92103-94498-110741
2819.44-102505-94673-87808-92978-96544-85309
2825.23-61062-83791-83956-76051-60432-47855
2831.01-43951-71247-80650-104229-113983-112105
2836.80-92243-83672-68961-73756-83878-83435
2842.58-82629-93400-89794-95642-77559-76359
2848.37-99298-99686-78344-96559-98225-113942
2854.16-135342-132477-113841-94025-64813-78474
2859.94-105572-95793-72847-96171-118403-126109
2865.73-122753-131856-118712-110977-72353-86275
2871.51-108106-106567-109636-121304-95043-87279
2877.30-93460-103012-106685-104124-106875-101563
2883.08-114749-148179-139117-123843-105281-113099
2888.87-118254-96483-82766-97683-118617-147242
2894.65-137892-111722-77437-79134-65579-71912
2900.44-81351-109820-109140-132419-134781-100123
2906.22-103411-107928-88907-97880-96026-106939
2912.01-104205-124915-150491-145219-119942-117461
2917.80-120167-157264-154724-130855-129798-156389
2923.58-157687-156037-121143-134742-136102-141480
2929.37-148245-144046-133011-124574-113145-133884
2935.15-125781-144306-150266-140225-125595-130992
2940.94-121523-108826-90479-103568-127877-136217
2946.72-125315-110821-115039-137131-130725-117938
2952.51-111837-101896-87313-99513-113719-118811
2958.29-115874-140507-157242-147993-91769-106285
2964.08-136136-158843-170587-173253-163306-188267
2969.86-169622-146799-133719-143977-173564-173656
2975.65-133619-138367-150434-146531-121331-123612
2981.44-142291-153445-110996-104806-90844-87168
2987.22-86790-85776-91942-115159-72755-75370
2993.01-99333-88631-91779-117510-102749-90789
2998.79-77724-95029-103204-132185-122118-105546
3004.58-103884-124133-92054-74921-75149-79695
3010.36-44801-31005-11840-4169 21498 55555
3016.15 112797 101223 121794 124517 160497 165083
3021.93 220888 240480 218656 163872 129585 81893
3027.72 134251 122705 38893 229623 1778066 2514497
3033.50 1162092 278507 86269 105130 109843 166276
3039.29 221108 282418 288300 283508 296258 307330
3045.08 291000 260511 204791 185117 144611 101770
3050.86 68581 34592-115-19131-59700-77309
3056.65-43067-36889-60243-74919-97116-105866
3062.43-107106-103261-89364-76175-84037-83005
3068.22-67077-84221-95030-77137-62174-71946
3074.00-72164-62394-54327-66824-80225-75182
3079.79-70059-89713-79766-49721-48447-91452
3085.57-90148-43443-18480-39600-52335-75769
3091.36-52902-19424-17173-43028-42491-65738
3097.14-86138-48216-15484-32685-51431-68058
3102.93-57323-40285-37669-35628-10981-8951
3108.72-299-4000-10729-3100 8899-16163
3114.50-29147-48094-34709-12335-7501 4
3120.29 715-38968-59227-45393-23069 1487
3126.07 18865 23093 6934 20531 29814 25769
3131.86 33322 6535-17172-7482 22344-3261
3137.64-5601-608 6410 22705 11751-13805
3143.43-11361-15912 744 22653 32130 7592
3149.21-9789 4762 22819 14908 24944 34407
3155.00 48831 27754 24070 52067 62919 51952
3160.78 33427 16801 37732 62951 73813 34710
3166.57 11679-6077 172-18789-5113 33365
3172.36 56146 41714 11889 3100 16733 15339
3178.14 18662 17285 33476 42807 40932 34970
3183.93 50606 35604 34978 35516 35267 22526
3189.71 4006-11663-8155 4104 16190-2868
3195.50 16103 37710 27994 630 19281 10715
3201.28 11839 19931 40256 22992 5177 2883
3207.07 11232 3718 23425 41831 43994 19023
3212.85 4753 1200 26228 37321 65656 42961
3218.64 26474 28098 54209 34184 11314 2444
3224.42-2534-2695 41391 35458 40684 71575
3230.21 67455 30856 17988 18045 32679 28625
3236.00 23632 19008 33304 44282 54291 66409
3241.78 64720 56902 53351 35279 46946 60250
3247.57 48378 4191 28970 55150 77403 40996
3253.35 35871 49509 38275 33600 35517 16728
3259.14 25037 34657 65221 57733 33115 18755
3264.92 28245 28188 53856 70407 62381 16471
3270.71 13481 32783 23063 10163 32298 10958
3276.49-3117 7605 9979 9278 4021 8361
3282.28 29033 14302-9408 9401 31121 36376
3288.06 46629 20258-3201-1110 12545-1036
3293.85 5237-1976 11041 39604 57958 28970
3299.64 26881 28738-9976-31416 6545 12418
3305.42-14566 6827 23013-4802-12549-20344
3311.21-12813-34398-40790-50882-24198-35952
3316.99-37308-52623-50958-40602-35766-30101
3322.78-33890-34819-37682-69329-47079-7822
3328.56-8068-40891-45217-46622-40749-53658
3334.35-35500-49775-37185-24687-37871-55429
3340.13-58548-30657-14475-49006-58094-33481
3345.92-52612-78408-53642-39663-36608-35863
3351.70-49289-85011-86678-46890-34799-72713
3357.49-70707-43291-30335-52750-68685-68030
3363.28-64497-67033-37783-56152-52113-42094
3369.06-52066-83373-83459-91571-79441-78908
3374.85-81321-58889-54214-98832-94537-101606
3380.63-112734-78065-38596-33579-12515-21353
3386.42-41245-43818-35773-50341-33188-47773
3392.20-78381-118192-93964-67585-22934 14766
3397.99-7415-54718-42154-30500-47143-63378
3403.77-49202-30883-21828-60547-62632-67661
3409.56-62760-64434-13591 4348-58638-90322
3415.34-57026-31412-56602-67818-64270-74815
3421.13-53062-28711-11612-38152-40119-65852
3426.92-82311-86393-105957-87834-31412-36842
3432.70-60548-34816-1319-31632-71646-106679
3438.49-115097-95274-87595-95020-105828-86406
3444.27-52290-88867-101270-103672-87371-97702
3450.06-67557-54362-50403-74467-81450-71429
3455.84-84222-66363-57400-109629-98635-82686
3461.63-28722-27446-75862-66177-24645-73555
3467.41-95706-80467-82146-135852-128362-71877
3473.20-60208-91432-66035-57535-67917-89156
3478.98-103022-104510-87285-95824-79383-100388
3484.77-128243-101439-85305-112750-121997-131259
3490.56-92485-97771-132176-129368-109566-113345
3496.34-91733-111563-132086-138557-117489-113805
3502.13-122479-150006-148532-125211-106166-127343
3507.91-141327-153303-118671-128738-133342-123749
3513.70-114581-89797-83329-100483-131592-159278
3519.48-118651-116973-124605-122650-116309-124543
3525.27-127434-134398-144180-159925-151350-136985
3531.05-125542-110801-65620-75387-116222-127000
3536.84-109876-146404-149087-118903-89834-121281
3542.62-110342-135604-154972-134922-120719-116414
3548.41-90268-121210-152462-169342-130750-111108
3554.20-94762-98149-95144-97349-90075-88323
3559.98-93117-130518-136923-117382-120665-183427
3565.77-185192-190213-159080-126034-153078-158851
3571.55-120045-90064-78697-83995-103481-133772
3577.34-109791-87975-101796-105948-109429-107561
3583.12-78076-76146-172991-224880-227109-262176
3588.91-158237-91834-73097-128628-115620-105136
3594.69-115360-73325-43770-58591-51880-101146
3600.48-73867-56818-84567-76770-68499-147213
3606.26-189499-236313-309790-202798-119571-231380
3612.05-232352-164915-140432-112968-141211-194511
3617.84-260514-320491-180774-108657-81420-103626
3623.62-83948-98025-130248-295146-520198-575419
3629.41-331048-138585-102628-165310-161634-98602
3635.19-71665-96128-121994-123133-117662-137214
3640.98-126486-101780-61040-89903-147413-306530
3646.76-380514-522206-573537-432954-332966-181157
3652.55-111089-111472-260801-376141-198598-111552
3658.33-128183-126077-119970-102298-107642-140857
3664.12-137074-135369-125732-230758-323975-471406
3669.90-609728-321066-173022-239116-499592-722798
3675.69-498197-196968-152511-157575-104509-78582
3681.48-105494-102168-95142-77979-68970-240988
3687.26-614030-426242-149212-199042-100337-19650
3693.05-32075-17999 7278 5887-1171 11788
3698.83 31696 40950 40272 210708 352675 309987
3704.62 192164 25467-61793-161438-207143-141283
3710.40-294870-418946-121707 6542 8208 31558
3716.19 25412-27337-69778-88857-125777-188166
3721.97-151331-117710-145654-206659-245266-172204
3727.76-114301-104195-164675-367276-389644-225119
3733.54-319454-391686-482608-388312-215469-166401
3739.33-190779-236319-212336-383091-1009848-969782
3745.12-348588-194794-280287-685007-638563-402973
3750.90-760363-641839-228815-147912-186011-228984
3756.69-168162-191529-278214-250436-148451-134320
3762.47-142180-155719-225250-216081-129225-145831
3768.26-261740-325310-207741-170431-160215-154073
3774.04-117675-140343-131129-144531-228010-275321
3779.83-169475-115433-115985-163288-169144-150744
3785.61-101911-90631-105925-126888-94808-120744
3791.40-117030-118745-122642-166736-238128-233758
3797.18-122618-79860-202892-580473-493319-154517
3802.97-55426-33030-178174-435290-291991-61410
3808.76-33384-35438-44002-58205-76138-175913
3814.54-580262-650672-231167-141008-221428-417442
3820.33-524678-395409-192178-156928-146094-211800
3826.11-210735-158901-127037-170898-284652-347078
3831.90-216440-211329-293393-252233-377433-767485
3837.68-528237-264552-298292-253564-187639-250046
3843.47-210596-130774-124606-147069-121448-165102
3849.25-221615-448724-671448-765597-1124374-701746
3855.04-216789-216128-191508-158146-169921-206803
3860.82-244862-212423-229529-367401-320371-180522
3866.61-171201-276441-544450-549394-249586-177104
3872.40-245038-304619-212548-150964-120297-130114
3878.18-224046-369042-306572-178076-132336-169093
3883.97-375344-491932-282309-156565-125501-169517
3889.75-299111-324198-172519-161519-139705-127711
3895.54-146475-185123-235801-318966-239258-321713
3901.32-330297-289625-338757-280477-240654-190308
3907.11-167780-170982-162319-180621-178698-164628
3912.89-143997-177314-187577-258710-246126-183437
3918.68-217270-209253-115041-101165-136018-174076
3924.46-164243-147671-150756-188129-227986-227162
3930.25-195671-218689-180813-145797-129842-137187
3936.04-138081-126295-104767-100019-114992-168055
3941.82-181476-154889-111271-97236-109115-133985
3947.61-147615-202564-196437-126301-110537-126819
3953.39-107240-98440-121026-145738-141512-147103
3959.18-170560-184019-185132-166062-133013-117543
3964.96-100853-131411-140463-136864-118735-88959
3970.75-88702-121180-144304-168557
##END=
