##TITLE=2-Propanol
##JCAMP-DX=4.24
##DATA TYPE=INFRARED SPECTRUM
##CLASS=IUPAC A
##ORIGIN=NIST, Anayltical Chemistry Division, 301-975-3108
##OWNER=COPYRIGHT (C) 1998 by the U.S. Secretary of Commerce
##DATE=98/10/1
##$SPECTRA VERSION=1.00
##$UNCERTAINTY IN Y=2.0 % relative (B=1.0E-04,C=6.5E-10,D=2.7E-14)
##CAS NAME=2-Propanol
##CAS REGISTRY NO=67-63-0
##MOLFORM=C H3 C H( O H) C H3
##MP=-89.5 C
##BP=82.4 C
##$NIST SOURCE=QUANT-IR
##SPECTROMETER/DATA SYSTEM=IFS66V (Bruker)
##INSTRUMENT PARAMETERS=KBr Beam splitter; MCT Detector; Multipass cell
##STATE=gas
##SAMPLE DESCRIPTION=2-Propanol Primary Gas Standard
##PRESSURE=101.3 kPa
##TEMPERATURE=23 C
##SAMPLING PROCEDURE=1 L/min Flow
##RESOLUTION=1.9290
##DATA PROCESSING=Triangular Apodization
##XUNITS=cm-1
##YUNITS=(micromol/mol)-1m-1 (base 10)
##XFACTOR=1.0
##YFACTOR=4.5474E-13
##DELTAX=0.9645
##FIRSTX=574.687
##LASTX=3974.595
##FIRSTY=2.64E-06
##MAXX=3973.63
##MINX=574.69
##MAXY=.0005581
##MINY=2.58E-07
##NPOINTS=3527
##XYDATA=(X++(Y..Y))
574.69 5817164 5950154 6156420 6314062 6631536 6509770
579.51 6247038 6428742 6601440 6483294 6470936 6629362
585.29 6698326 6802262 7025526 7089326 7136610 7097266
591.08 7086534 7385380 7777944 7831430 7640160 7653208
596.86 7776624 7921078 7874440 7799098 7888698 7924372
602.65 7841002 8087504 8326956 8257356 8182184 8253770
608.44 8501462 8535876 8499068 8426022 8380968 8395730
614.22 8399778 8605890 8734512 8823528 8878596 8863518
620.01 9057046 9123244 8854044 8846000 9110642 9307900
625.79 9414354 9236950 9099290 9029048 8873566 8883064
631.58 8996888 9094544 9032366 9052174 9079158 9014000
637.36 9107632 9216902 9164036 9092684 9136896 9149772
643.15 9110322 9024552 8980066 9006314 8906260 8700514
648.93 8603726 8548316 8507282 8452222 8333444 8253768
654.72 8120234 8017514 8044336 7990360 7839690 7737680
660.50 7744946 7624308 7502720 7486714 7533400 7440624
666.29 6900130 6745454 7069322 7155366 7204382 7219166
672.08 7118804 7069862 7067290 7024040 6986974 6871690
677.86 6668006 6661950 6690328 6689560 6595542 6431558
683.65 6467530 6399192 6369560 6377140 6248878 6294560
689.43 6338996 6236186 6092436 5936692 5831518 5795258
695.22 5880060 5935726 5874562 5926068 6082862 6121664
701.00 6060544 6095248 6103410 6006944 5931826 5924752
706.79 5841694 5719444 5621274 5608876 5626666 5512576
712.57 5352794 5246210 5115242 5027752 5062636 5050372
718.36 4967538 4977594 5003268 4926700 4855506 4781572
724.14 4695868 4626498 4558314 4450140 4356438 4314038
729.93 4238280 4129112 4007502 3850880 3725186 3671480
735.71 3638090 3559300 3498322 3421276 3293280 3178330
741.50 3121956 3142742 3138496 3053288 2998520 2934654
747.29 2821020 2759794 2720976 2644766 2609946 2656738
753.07 2679814 2646846 2583056 2532274 2516690 2540330
758.86 2555822 2507558 2439596 2452486 2493556 2481064
764.64 2533036 2621958 2660184 2624482 2608504 2724558
770.43 2800938 2811698 2890292 3050044 3223658 3435060
776.21 3679178 3877476 4143622 4554936 4959956 5347444
782.00 5922194 6690908 7615740 8596024 9627920 10899730
787.78 12349610 13982870 15814860 17873980 20212680 22696840
793.57 25309980 28030940 30762080 33567010 36511940 39296070
799.35 41864850 44342860 46453530 48167920 49627020 50771640
805.14 51692980 52415720 53111820 54069340 55276220 56499090
810.93 57748620 58855770 59978680 62541050 63854480 62396350
816.71 60321000 58962970 60719040 60939420 57721800 55581800
822.50 54807010 54816080 55318570 56047050 56504970 56458470
828.28 55756200 54439260 52485900 49931870 46850500 43256460
834.07 39509240 35705770 32061440 28572440 25258240 22385400
839.85 19786080 17503950 15544680 13793520 12375380 11148940
845.64 10049910 9135192 8381216 7750644 7206562 6706962
851.42 6300918 5986710 5721832 5448050 5144564 4907346
857.21 4703260 4546672 4424334 4268452 4134190 4037416
862.99 3961550 3941630 3903360 3843222 3816554 3824574
868.78 3839600 3814582 3808050 3788950 3784320 3761424
874.57 3747658 3748402 3741856 3772544 3779652 3824520
880.35 3908964 3993314 4053526 4142200 4225428 4299472
886.14 4419286 4560308 4717658 4915224 5093430 5291678
891.92 5527260 5742342 5984488 6266696 6578722 6921926
897.71 7293172 7665934 8064604 8540578 9098668 9675772
903.49 10340740 11052350 11804730 12654410 13593880 14666570
909.28 15852050 17122450 18528390 20164620 22044000 24162640
915.06 26497900 29184450 32334540 36043420 39939700 43813730
920.85 48423790 53924420 60099400 67095570 74965660 83748540
926.63 93536880 104520000 116494900 129248600 143110300 157938200
932.42 173560000 189697400 206190100 222800400 238618600 253133600
938.21 266121300 277376400 286893200 294479100 300324200 304623500
943.99 307655000 310781900 314820100 320897600 329675800 340616700
949.78 351862300 361808800 369078200 370221500 365954900 358384900
955.56 370220200 374465600 347448200 326944300 315933700 310016600
961.35 310745900 314756600 319240400 321721300 320877600 315728400
967.13 306115600 292643500 275623900 255593200 233483900 210468700
972.92 187365500 164935500 144101700 125041400 107866900 92719510
978.70 79619710 68421820 58909690 50905500 44301320 38840080
984.49 34316760 30554480 27471120 25020770 23044480 21403460
990.27 19948800 18711460 17684270 16768220 16026230 15428740
996.06 14910630 14449070 14048710 13730400 13451650 13263290
1001.85 13139560 12986490 12841160 12729290 12667810 12636860
1007.63 12581140 12491910 12435050 12404910 12361990 12298430
1013.42 12251840 12255270 12368220 12572150 12838340 13230100
1019.20 13683540 14049050 14414130 14877440 15405200 15940720
1024.99 16576940 17281740 18007680 18867480 19852190 20975550
1030.77 22172240 23490250 24972110 26677380 28695190 30881540
1036.56 33330480 36102800 39194500 42597740 46322340 50513500
1042.34 55366880 60938500 67171640 73726750 80528380 87662900
1048.13 95321460 103429500 111797500 120488200 129399700 138199700
1053.91 147088100 156473600 166098900 175250800 183980700 192498500
1059.70 200048600 205644000 210700200 216695300 223619000 231287500
1065.48 242075600 253617000 264419600 273219100 279252100 286616900
1071.27 293027400 293485400 285825700 279677400 276837100 276383500
1077.06 277946100 276702000 274161200 272662000 271709700 268392900
1082.84 263587200 260988900 259692300 257228400 254699900 252150700
1088.63 247669100 240308000 231235800 221851000 212287000 202633700
1094.41 193408900 184529900 176038600 168159500 161047800 154924200
1100.20 149739200 145412400 141980000 139404600 137781700 137129700
1105.98 137326100 138301000 140011900 142261700 145079900 148476900
1111.77 152360400 156795900 161758500 166672300 171445700 176686100
1117.55 182439200 188375200 194217100 199890500 205617500 211659400
1123.34 217875100 224450200 231059000 236711400 244152400 250775800
1129.12 254396200 261242000 265320100 265495800 271579900 280895800
1134.91 290041500 300769900 307534600 310297600 315145700 320295900
1140.70 325627300 332641200 340682800 348390600 356168700 364833800
1146.48 373711400 381552700 387108800 390828500 392760000 392743700
1152.27 391558900 389688600 387357000 384158100 379437900 373597600
1158.05 367121700 360850400 355193100 349613600 346480400 342094400
1163.84 331274100 319391500 311218100 305385900 297600100 286216200
1169.62 274647700 264876000 255714000 245801100 236431700 228065300
1175.41 219654400 211078400 202301300 193124300 183269400 172851300
1181.19 162431300 152291900 142080200 131975400 122188600 112853200
1186.98 104149800 96213450 88989950 82555420 76851530 71811510
1192.76 67410630 63506520 60047640 56925740 54215920 51851320
1198.55 49805180 48168240 46860420 45766630 44859090 44133130
1204.34 43721930 43653010 43584860 43743540 44295890 45075130
1210.12 46129360 47435980 48746880 50454800 52915440 55424420
1215.91 57915690 60846660 64285350 68267250 72694580 77467160
1221.69 82714930 88421130 94637410 101464200 108732800 116408100
1227.48 124609700 133135500 141651600 149990300 158243800 166463600
1233.26 174560200 182511600 189997100 196662700 202046800 205851800
1239.05 208595200 211255600 213807900 214199800 214146500 216282500
1244.83 220187000 226727100 235971900 245131000 254245100 263540100
1250.62 267612400 259007100 251887600 248112800 237912700 229502300
1256.40 223461700 218881300 215849700 213862400 212232100 211109900
1262.19 209179600 204576100 197911600 190683400 182984100 174319900
1267.98 164834400 155101300 145491300 135969300 125890900 116376000
1273.76 108451900 100864200 93371300 86487060 80432320 75091280
1279.55 70365190 66187500 62431260 59071900 55979710 53104070
1285.33 50504570 48165000 46062200 44075770 42268460 40671800
1291.12 39313900 38205470 37256920 36500820 35952090 35542420
1296.90 35209500 34878690 34577560 34366680 34263140 34254480
1302.69 34278500 34370410 34571440 34872280 35235220 35638530
1308.47 36163120 36853130 37641310 38477630 39415820 40548100
1314.26 41918750 43453370 44946510 46422240 47961640 49672830
1320.04 51728210 53837400 55854010 58024680 60493930 63184100
1325.83 66045970 69068550 72142760 75200450 78150710 80894680
1331.61 83433140 86035560 88401430 90492840 92859410 95231660
1337.40 97839390 100219400 102549200 105620900 108822300 111409600
1343.19 112257400 112152800 115562200 120937400 122785100 123769100
1348.97 126353600 129659700 133779200 138570000 144242900 150090500
1354.76 155426500 160383300 164831000 169208200 174054700 179083600
1360.54 184230900 190015900 196757800 204326500 212634900 222009600
1366.33 232757800 244935000 258229600 273651600 291240400 310003500
1372.11 322927600 331261700 343675600 357857100 371700000 385206200
1377.90 400179200 415522500 426832500 434989900 432415500 421578800
1383.68 415449300 412561700 410186500 406282500 400099300 393736500
1389.47 392742000 396825500 398466600 394685500 384350000 368507700
1395.25 351154700 333840300 315945700 297394200 277934600 258053000
1401.04 238593500 219888500 202644400 187506700 173956500 161974700
1406.83 151394600 141260700 131418200 122174000 113607600 105765400
1412.61 98540860 91744860 85489630 80023210 75308920 71009660
1418.40 67039710 63435880 60283200 57658240 55511300 53826000
1424.18 52476320 51233870 50075980 49256970 48808020 48636050
1429.97 48679300 48977330 49581000 50391490 51163700 52141940
1435.75 53339670 54497010 55783200 57228660 58697510 60193740
1441.54 61611810 62962730 64354440 65846900 67401940 69052160
1447.32 70865940 72948940 75120240 76752020 78677380 82575810
1453.11 87886820 93231890 96498780 101050300 106701700 110628600
1458.89 117247800 125725800 134614300 141876900 135562400 113431500
1464.68 92075060 81760140 78320860 80983860 90422930 106128500
1470.47 124785500 143995400 150512400 127978700 102490600 88356470
1476.25 78929570 73750750 70395020 68395610 66955720 65928990
1482.04 64969460 64096880 63037780 61895180 60512860 58970730
1487.82 57153780 55214260 53014190 50540710 47969650 45269590
1493.61 42315540 39581240 37020510 34442070 32051430 29728560
1499.39 27504980 25323310 23030840 21044330 19342780 17914860
1505.18 16622760 15376900 14162490 13102060 12185960 11351260
1510.96 10640060 9932796 9307162 8806252 8336766 7977022
1516.75 7584176 7169814 6872246 6687800 6431890 6084136
1522.53 5797922 5604452 5445768 5258582 5112064 4972314
1528.32 4837576 4769480 4650138 4477292 4387838 4297424
1534.11 4126490 4018194 3945402 3956498 4051296 4003716
1539.89 3864984 3811888 3741344 3634688 3591218 3526306
1545.68 3424440 3351974 3286298 3241346 3169606 3096006
1551.46 3063604 3078526 3088552 3023914 2965124 3007864
1557.25 3091644 3080354 3022320 2845448 2722154 2688762
1563.03 2652578 2654016 2602442 2570406 2563338 2599274
1568.82 2625146 2554926 2508614 2496674 2469878 2445890
1574.60 2580540 2642614 2480008 2424124 2410124 2409426
1580.39 2396922 2376834 2368936 2349548 2322438 2302122
1586.17 2287850 2285664 2294472 2303470 2316798 2310906
1591.96 2304488 2296140 2291744 2291606 2265002 2240536
1597.74 2229484 2208342 2185360 2167022 2153890 2146088
1603.53 2135766 2137960 2136328 2110320 2100318 2121054
1609.32 2133452 2115660 2107300 2109110 2111604 2127458
1615.10 2249600 2298418 2178156 2171632 2176842 2165654
1620.89 2166166 2190828 2225570 2205164 2211110 2248966
1626.67 2290308 2296324 2304246 2355446 2426416 2472000
1632.46 2517192 2633834 2720560 2637736 2581230 2589864
1638.24 2603350 2670764 2739488 2777392 2826602 2903804
1644.03 3052086 3197778 3201128 3224584 3245982 3277978
1649.81 3315446 3475198 3714912 3685642 3580056 3531748
1655.60 3510736 3516638 3523712 3544358 3576438 3637572
1661.38 3723828 3759658 3780212 3832572 3838042 3826706
1667.17 3864540 3914008 3847804 3829024 3861736 3812212
1672.96 3796858 3876606 3875292 3771980 3720808 3724214
1678.74 3734428 3652474 3612580 3660534 3741928 3852802
1684.53 3755226 3622154 3608974 3590888 3584232 3545376
1690.31 3494716 3477376 3494136 3490478 3644838 3720294
1696.10 3579362 3528536 3578170 3733782 3690222 3528058
1701.88 3493474 3513316 3536550 3539004 3538410 3533224
1707.67 3570642 3628462 3687960 3718296 3729756 3752116
1713.45 3808396 3804930 3818638 3938414 3970142 3996414
1719.24 4037010 4054828 4056196 4025330 4039218 4079762
1725.02 4120720 4162286 4180130 4216720 4325910 4515316
1730.81 4711822 4850870 4950178 4951664 4862548 4816298
1736.60 4872694 4989940 5146790 5265292 5391224 5605438
1742.38 5838638 6064060 6270936 6490302 6730848 6969490
1748.17 7187778 7434610 7717326 7872774 7989232 8148612
1753.95 8281846 8384620 8426164 8446182 8480078 8490590
1759.74 8515528 8584112 8584708 8582552 8634030 8700956
1765.52 8746538 8788856 8759242 8692160 8671706 8615734
1771.31 8632752 8277354 7790148 7568710 7430556 7386662
1777.09 7380484 7432538 7461196 7357658 7141858 6865620
1782.88 6532320 6127220 5630920 5114578 4628464 4135418
1788.66 3671992 3282732 2935942 2649782 2347852 2095126
1794.45 1921224 1777012 1648908 1547936 1475628 1377574
1800.24 1317408 1278654 1230736 1206734 1220532 1234736
1806.02 1236324 1236094 1239546 1267624 1290370 1314628
1811.81 1347666 1352338 1341244 1363064 1394162 1394752
1817.59 1394024 1396298 1397562 1403276 1431024 1459062
1823.38 1496980 1533248 1513600 1504414 1516304 1564136
1829.16 1601880 1598292 1619418 1627104 1614258 1619168
1834.95 1598306 1567134 1546034 1514790 1508414 1503130
1840.73 1487380 1473898 1519816 1519228 1453518 1433186
1846.52 1420952 1416246 1393642 1386552 1409862 1428206
1852.30 1466170 1526514 1616676 1771322 1972586 2020538
1858.09 1924396 1894912 1922106 1971534 2032014 2069842
1863.88 2078356 2087536 2130294 2192172 2294184 2389700
1869.66 2451506 2554568 2695446 2844580 2972844 3056140
1875.45 3124886 3202382 3305406 3422360 3536138 3679860
1881.23 3805176 3906576 4003762 4113334 4246822 4380448
1887.02 4527038 4671926 4775918 4844156 4915430 4964486
1892.80 4998804 5037136 5070214 5094264 5102500 5134310
1898.59 5176690 5205074 5236174 5252692 5245366 5264794
1904.37 5263414 5095532 5067338 5048570 4735006 4460538
1910.16 4285010 4161270 4095112 3999210 3884528 3805904
1915.94 3725224 3623992 3460328 3277242 3074176 2871212
1921.73 2658358 2415454 2195772 1976832 1753178 1548724
1927.51 1385444 1238930 1089188 969176 898620 819708
1933.30 730924 684282 654112 632866 633928 638442
1939.09 621780 607510 612594 580472 543786 550046
1944.87 568974 577152 587136 598000 608230 627886
1950.66 659926 686842 726892 777054 808238 822820
1956.44 830368 836940 836096 853754 887262 913160
1962.23 940156 959436 967764 986212 998278 993498
1968.01 1000152 1028410 1050432 1055064 1083460 1136678
1973.80 1163890 1157824 1183254 1207200 1230732 1264808
1979.58 1257482 1246606 1270462 1295608 1301222 1288126
1985.37 1247656 1201370 1165764 1144936 1132994 1136610
1991.15 1147964 1151390 1141222 1149362 1172314 1177556
1996.94 1184984 1184350 1186456 1203040 1217426 1245406
2002.73 1249436 1257124 1282834 1317160 1379758 1407090
2008.51 1409852 1442402 1478828 1465708 1469408 1498294
2014.30 1517084 1551356 1558166 1552780 1581124 1611382
2020.08 1645560 1690168 1704798 1725494 1756272 1778696
2025.87 1810308 1811572 1790264 1795584 1822770 1807292
2031.65 1772872 1752226 1751138 1760084 1750878 1757746
2037.44 1764434 1752626 1743958 1739874 1734706 1712818
2043.22 1689468 1676270 1651206 1623468 1619888 1616010
2049.01 1631594 1664574 1667172 1680402 1715908 1763628
2054.79 1814866 1862156 1901302 1934232 1991216 2016458
2060.58 2045176 2123610 2208342 2269900 2290808 2330762
2066.37 2400756 2502344 2566228 2583964 2634630 2706020
2072.15 2790854 2776162 2755480 2811576 2911608 2967358
2077.94 2927760 2936198 2977972 3048622 3023052 2949846
2083.72 2926820 3029382 3075442 2941420 2861082 2852368
2089.51 2928370 2849052 2747238 2720998 2795514 2771910
2095.29 2589870 2525104 2603546 2651464 2465474 2335678
2101.08 2358594 2473156 2310470 2103518 2052108 2154508
2106.86 2119292 1907900 1840574 1932286 2016664 1830922
2112.65 1710130 1793416 1922580 1734930 1570784 1645678
2118.43 1831872 1773570 1599386 1602214 1767566 1770010
2124.22 1598766 1590602 1756516 1822162 1690578 1685244
2130.01 1821380 1901752 1853188 1910034 2069906 2216064
2135.79 2259968 2318054 2340476 2236662 2133808 2098738
2141.58 2063374 2067636 2119780 2183742 2285920 2370972
2147.36 2401958 2456414 2592602 2661752 2619058 2673596
2153.15 2840570 2840670 2708896 2771046 2992724 3008304
2158.93 2871674 3015332 3287348 3255214 3136538 3327150
2164.72 3483332 3284882 3201414 3423048 3444366 3165582
2170.50 3146274 3376924 3297806 3081802 3218594 3410368
2176.29 3259648 3160998 3366438 3455530 3336286 3438860
2182.07 3662662 3578712 3454730 3617836 3718002 3610498
2187.86 3670296 3876458 3858174 3781780 3922574 3982662
2193.64 3839348 3841998 3930636 3816224 3679148 3657756
2199.43 3556808 3407768 3415374 3421030 3283544 3186198
2205.22 3143798 3039844 2947162 2911566 2835424 2724174
2211.00 2645502 2537564 2376882 2246706 2123242 1983422
2216.79 1854540 1726564 1600918 1509768 1421664 1324740
2222.57 1258640 1215750 1159290 1103414 1069918 1022446
2228.36 994030 985328 965384 928966 930764 947592
2234.14 940230 939470 955752 984718 947694 910654
2239.93 926750 939034 942284 945026 950766 968496
2245.71 1004150 1022200 1040308 1060318 1072642 1097234
2251.50 1131846 1146594 1148980 1186112 1213710 1209762
2257.28 1230376 1289532 1323688 1348456 1406088 1508360
2263.07 1598192 1631132 1634182 1634668 1678634 1736874
2268.86 1768030 1826456 1904880 1955744 2008420 2053648
2274.64 2111230 2228630 2356436 2450416 2561802 2693096
2280.43 2768646 2819238 2872116 2948268 3062440 3168214
2286.21 3245946 3333088 3418120 3512468 3618188 3719546
2292.00 3830376 3965844 4116658 4242804 4358038 4463274
2297.78 4591092 4722646 4804982 4907106 4991748 5070362
2303.57 5162626 5270082 5359958 5470388 5532658 5617396
2309.35 5713814 5793724 5837658 5788434 5738486 5713942
2315.14 5703196 5653906 5653978 5626786 5618548 5613480
2320.92 5613662 5524234 5440042 5378766 5305514 5218918
2326.71 5132588 5014290 4913576 4827210 4765440 4736548
2332.50 4658622 4482556 4251674 4049442 3915184 3797804
2338.28 3653370 3466064 3251800 3075612 2913692 2791450
2344.07 2698272 2605158 2533120 2474540 2375102 2243850
2349.85 2090728 1940704 1783412 1657706 1550746 1431920
2355.64 1351372 1259358 1178588 1138576 1098598 1071774
2361.42 1070000 1084674 1110704 1167166 1206110 1260252
2367.21 1355122 1434262 1498270 1577742 1692424 1827184
2372.99 1961590 2088294 2213672 2238212 2227746 2262632
2378.78 2308886 2362576 2381490 2382516 2390976 2414636
2384.56 2440348 2470984 2506860 2560092 2635100 2715502
2390.35 2724150 2733704 2764908 2744246 2726028 2698840
2396.14 2650186 2621670 2627092 2628744 2604668 2549434
2401.92 2533868 2550972 2541824 2528286 2524870 2527502
2407.71 2538274 2551316 2613290 2679560 2690808 2708040
2413.49 2708870 2768042 2844190 2852580 2811192 2767370
2419.28 2762496 2734364 2732456 2761658 2796404 2826302
2425.06 2845114 2872952 2892520 2905256 2897432 2897038
2430.85 2960386 3018506 3046686 3094920 3154816 3190402
2436.63 3188664 3166958 3129768 3088004 3082842 3100944
2442.42 3114530 3082882 3059114 3076410 3106974 3141582
2448.20 3151700 3153720 3134750 3095298 3087770 3084836
2453.99 3064450 3066416 3069556 3053546 3016546 2966576
2459.77 2928188 2887416 2826796 2765566 2759534 2795804
2465.56 2839878 2882438 2900974 2918302 2980284 3036932
2471.35 3097264 3148020 3170270 3233010 3290586 3327418
2477.13 3395194 3473488 3531910 3577962 3625074 3691866
2482.92 3765698 3813382 3865204 3917090 3958520 4019896
2488.70 4070956 4116064 4194210 4271080 4314652 4360022
2494.49 4400730 4446778 4499230 4507750 4517930 4557036
2500.27 4613640 4652078 4632872 4611744 4626632 4623544
2506.06 4625470 4613560 4613444 4656440 4661072 4644492
2511.84 4602594 4542492 4458986 4379470 4330944 4272620
2517.63 4220156 4160628 4088650 4034900 4008812 3980662
2523.41 3945906 3887728 3850298 3826244 3774226 3726672
2529.20 3667686 3642432 3676322 3668858 3669770 3763996
2534.99 3782496 3642958 3555122 3547062 3489882 3402866
2540.77 3335220 3270570 3244126 3251446 3219216 3180612
2546.56 3171004 3157334 3161208 3135176 3057372 3041556
2552.34 3039308 3003936 2992998 2978254 2978044 2991236
2558.13 3001026 3005952 3007414 3052438 3087060 3100964
2563.91 3130162 3142962 3187560 3266390 3315890 3351440
2569.70 3402488 3480230 3544186 3581292 3652758 3756778
2575.48 3853598 3952736 4058932 4153836 4280016 4403950
2581.27 4507552 4605116 4699216 4798468 4914838 5020196
2587.05 5127850 5271552 5404092 5516674 5618380 5750520
2592.84 5889172 5996712 6139856 6345710 6519094 6677090
2598.63 6878910 7070348 7316194 7580696 7853336 8202776
2604.41 8718858 9373924 9557716 9177492 8872758 8789742
2610.20 8829600 8972312 9108084 9252612 9450526 9650168
2615.98 9840700 10029640 10226880 10459070 10751000 11057600
2621.77 11384170 11701110 12060160 12511930 13052930 13686760
2627.55 14351660 14757180 14659500 14397420 14195380 14078070
2633.34 14298350 14837160 15627570 16689170 17737610 18399210
2639.12 18630370 18570830 18410920 18315360 18320960 18391130
2644.91 18499790 18582410 18598440 18650150 18724320 18734240
2650.69 18727510 18758800 18864950 18997320 19095820 19232110
2656.48 19455010 19784850 20061150 20018120 19921920 20094800
2662.27 20490800 20910080 21269940 21399490 21044110 20361500
2668.05 19655500 19044830 18492600 17892220 17194710 16493850
2673.84 15980630 15617910 15320050 15144120 15068680 15001750
2679.62 14866830 14644960 14388070 14114520 13845920 13557030
2685.41 13262270 12966910 12683530 12438530 12190490 11937610
2691.19 11710740 11535420 11309040 11065280 10886380 10727500
2696.98 10638950 10594200 10554160 10549580 10566990 10585870
2702.76 10578790 10551290 10561190 10637530 10764740 10934190
2708.55 11150040 11397390 11699040 12016430 12247800 12424720
2714.33 12588560 12721850 12872280 13041800 13220240 13397780
2720.12 13562310 13707060 13775520 13774320 13851150 14032020
2725.91 14247510 14503450 14792000 15055120 15281520 15453090
2731.69 15610780 15807610 15972880 16052620 16092190 16035660
2737.48 15947940 15908770 15881290 15869280 15917040 15936070
2743.26 15882450 15822570 15770580 15736720 15683810 15600930
2749.05 15600070 15645980 15700060 15782860 15940900 16119850
2754.83 16221540 16377410 16632830 16896770 17142950 17373860
2760.62 17591990 17824150 18107700 18379770 18634410 18906330
2766.40 19244570 19643200 19875490 19917490 19926110 19900430
2772.19 19877430 19912330 19988200 20115320 20393320 20669490
2777.97 20868820 21054650 21306100 21622290 21955380 22298130
2783.76 22679480 23084130 23427030 23659150 23861780 24088570
2789.54 24356250 24628220 24933000 25361370 25891760 26353440
2795.33 26599250 26698520 26843120 27002740 27212990 27447850
2801.12 27686220 27990470 28170570 28258820 28460160 28785240
2806.90 29249650 29783760 30339770 31041020 31723350 32303160
2812.69 32977020 33849860 34642010 34794520 34852250 35366320
2818.47 36389430 37607210 38444740 38891300 39311410 39735360
2824.26 39960800 40321240 41056890 42112280 43326740 44204400
2830.04 44559250 44739430 45044940 45508500 46032270 46602580
2835.83 47314740 47935860 48510660 49372270 50501790 51719390
2841.61 53207500 55163510 57548370 60485050 63955990 67704630
2847.40 71750790 76133980 80370420 83904700 87170200 90580460
2853.18 93785950 96911500 100843400 105852800 111672800 118100000
2858.97 125007100 132155400 139502500 146976700 154386500 161514800
2864.76 168391100 175194200 181995400 188676900 195097600 201080700
2870.54 206634700 211287400 215566100 220424400 226286300 233444200
2876.33 241936700 252957000 269117600 288573100 308749100 332669900
2882.11 349596000 348024500 339586700 336658900 341612500 350200800
2887.90 353616300 350496300 344987900 337223600 328077300 319323200
2893.68 311590800 305144300 300581400 297537400 295067000 293132700
2899.47 291726100 290170200 288218000 285866700 283071600 280052900
2905.25 276707500 272844500 268544400 264084400 259747000 255271600
2911.04 251123900 247691200 245445700 244157400 241923400 238345600
2916.82 234729400 231164900 227886400 225412600 224039000 223966200
2922.61 225462800 228450200 232408800 236931600 242131200 248050500
2928.40 254742800 261180600 266030100 264099300 259233900 256814400
2934.18 255366300 257662100 263951400 270858300 275502600 276047700
2939.97 276479100 280901000 289375400 301365500 316444500 334128300
2945.75 354014700 370231600 380811000 393083500 409399100 426581900
2951.54 444138500 461450400 479133800 496067600 512145400 527656200
2957.32 543664800 559390500 576761400 595590500 615028200 633928700
2963.11 659099100 691414900 721589100 740180300 760550200 796019200
2968.89 902344900 986885500 930543000 879685300 870805100 862770800
2974.68 880074100 916591600 967123800 1027594000 1102046000 1153488000
2980.46 1227384000 1184037000 951290700 809135000 761484000 730410900
2986.25 705744500 680098900 665727200 656191200 643263400 623386000
2992.04 606252700 590660700 575024100 557883800 539158100 517618100
2997.82 493579600 466466100 437379000 406452400 374722500 342347800
3003.61 310219900 278593700 248384600 219839800 193357700 168875800
3009.39 146746700 126813600 109299300 93835170 80537820 69029960
3015.18 59171960 50735740 43644750 37672010 32690530 28439270
3020.96 24923600 21879690 19416290 17301230 15527350 13990480
3026.75 12727160 11597830 10679280 9850436 9150332 8520222
3032.53 8018302 7549316 7150508 6785576 6501772 6202350
3038.32 5985538 5718510 5525816 5353800 5129772 4934196
3044.10 4791498 4627082 4510686 4376152 4253884 4123442
3049.89 4055552 3970718 3894864 3752742 3688762 3659694
3055.67 3572230 3506426 3488614 3421546 3371272 3332144
3061.46 3319096 3275796 3273984 3264074 3225108 3201160
3067.25 3206898 3194398 3170552 3172356 3165638 3114672
3073.03 3106600 3095908 3110296 3103904 3139834 3165138
3078.82 3142628 3120270 3143108 3183522 3200470 3187734
3084.60 3190686 3197036 3254106 3273798 3285036 3280580
3090.39 3229562 3219592 3263982 3306186 3355646 3347290
3096.17 3350848 3384166 3409552 3402142 3408504 3442786
3101.96 3463686 3432812 3442796 3471660 3485600 3515648
3107.74 3587102 3646972 3655276 3605404 3585982 3630436
3113.53 3672410 3695058 3729430 3766806 3777012 3796842
3119.31 3827520 3840928 3906442 3966678 3996158 4005416
3125.10 3998280 3989834 4047110 4099902 4134732 4145648
3130.89 4113568 4097684 4141896 4189498 4239582 4257876
3136.67 4294678 4330682 4374242 4416460 4427392 4526154
3142.46 4575438 4564160 4627198 4715730 4842110 4923818
3148.24 4998846 5098494 5186562 5289826 5437238 5553710
3154.03 5668220 5801394 5957338 6142740 6290406 6400582
3159.81 6554060 6755054 6989284 7184166 7391608 7560954
3165.60 7732202 7985178 8186782 8421170 8666054 8834754
3171.38 8988796 9200608 9506520 9752914 9922446 10105590
3177.17 10270530 10435550 10633570 10752940 10816430 10904800
3182.95 11079330 11234820 11292900 11420760 11618160 11716450
3188.74 11702920 11608790 11471820 11345310 11264340 11227670
3194.53 11351800 11609990 11871680 11929020 11776630 11674970
3200.31 11587090 11376570 11073700 10840600 10740730 10721530
3206.10 10698340 10686650 10608160 10305520 10061640 9963808
3211.88 10098670 10418200 10216430 9741392 9545142 9447330
3217.67 9361584 9290774 9211260 9123596 9095028 9106200
3223.45 9174960 9088892 8763400 8457244 8260264 8025628
3229.24 7888388 7836980 7725372 7611640 7484542 7349602
3235.02 7227974 6967186 6703094 6493674 6382640 6351522
3240.81 6330352 6181146 5727812 5355230 5125846 4961202
3246.59 4929974 5011084 4833740 4270642 3850356 3570930
3252.38 3319806 3153588 2991412 2808888 2668630 2513784
3258.17 2342468 2230500 2123814 2007172 1934548 1851370
3263.95 1732806 1625260 1474790 1384374 1402098 1345514
3269.74 1225080 1129524 1088164 1091530 993750 898228
3275.52 929992 882334 824386 848476 819902 813100
3281.31 799922 763910 816552 859452 846186 809736
3287.09 755794 771772 766176 743684 789782 793624
3292.88 798336 858648 867964 852824 856024 829902
3298.66 889096 926538 962632 1003410 1045086 1126218
3304.45 1140472 1196416 1243430 1246102 1320234 1440314
3310.23 1553424 1636182 1729626 1785198 1847226 1981488
3316.02 2073342 2124486 2175586 2242130 2340368 2394986
3321.80 2441310 2493986 2624268 2746782 2828054 2997266
3327.59 3157770 3286614 3408466 3507742 3618648 3710558
3333.38 3772588 3848020 3893070 3886272 3955734 4047820
3339.16 4057180 4052658 4056728 4062714 4032366 4013394
3344.95 3992624 3935274 3962688 4006078 4022714 4026180
3350.73 3941500 3849234 3823746 3799744 3792612 3754914
3356.52 3700356 3663418 3633812 3615474 3555246 3492534
3362.30 3454456 3361234 3289812 3262046 3232326 3202434
3368.09 3179502 3091416 3027414 2986726 2932636 2945918
3373.87 2959102 2925666 2904838 2873878 2842180 2888032
3379.66 2916066 2942590 2995474 3028066 2989148 2982926
3385.44 3074702 3143188 3165438 3193560 3286526 3358404
3391.23 3389652 3437616 3531480 3626600 3686792 3732944
3397.02 3794018 3874170 3845882 3796830 3874272 4002928
3402.80 4071378 4138146 4239652 4259174 4250030 4222042
3408.59 4252858 4351670 4427658 4463488 4490956 4548002
3414.37 4580362 4605280 4669370 4736572 4832866 5049682
3420.16 5307554 5393040 5469176 5642586 5524648 5309820
3425.94 5220160 5122292 5139318 5254070 5348390 5371352
3431.73 5372544 5441154 5498520 5569154 5599212 5548494
3437.51 5591536 5643046 5687248 5701768 5648908 5610914
3443.30 5653526 5756536 5828804 5886532 6079546 6496730
3449.08 6810716 6531160 6058926 5838454 5696620 5585220
3454.87 5597856 5613712 5592370 5664678 5662896 5600264
3460.66 5578222 5545832 5503706 5432894 5315194 5155724
3466.44 5070158 5084900 5039938 4894976 4814324 4741000
3472.23 4608318 4496620 4422286 4322496 4240776 4148002
3478.01 4001452 3891464 3798166 3685166 3547012 3448578
3483.80 3406676 3320908 3213872 3132008 3009250 2878388
3489.58 2808634 2775580 2715364 2647418 2590282 2448372
3495.37 2374446 2389634 2395292 2346698 2286962 2209706
3501.15 2087442 2040420 1996708 1962000 1959794 1908350
3506.94 1896284 1917908 1885572 1803342 1760716 1749748
3512.72 1733300 1737468 1746482 1774030 1803130 1791560
3518.51 1772202 1805250 1838502 1853736 1882340 1913916
3524.30 1974252 2037736 2051106 2119426 2242960 2287406
3530.08 2324906 2425798 2486056 2457766 2450772 2469096
3535.87 2512988 2545198 2529232 2551668 2634936 2720748
3541.65 2779446 2781778 2728906 2661396 2622460 2594352
3547.44 2540638 2492262 2528896 2513206 2471498 2465476
3553.22 2431992 2419388 2415352 2354852 2328750 2314716
3559.01 2284810 2292106 2337156 2330700 2294906 2315908
3564.79 2344128 2363662 2347592 2317182 2303296 2255350
3570.58 2207006 2193234 2181600 2153526 2134202 2146464
3576.36 2232588 2325810 2399712 2441942 2445104 2453452
3582.15 2500750 2547752 2596538 2650714 2723644 2830044
3587.94 2949984 3018624 3114022 3192302 3287980 3415542
3593.72 3561722 3659256 3704592 3769494 3851600 3941964
3599.51 4144392 4396380 4692680 5014252 5432864 5992148
3605.29 6761650 7448342 7998026 8584118 9116472 9625696
3611.08 10302710 10999810 11772470 12566300 13405340 14285240
3616.86 15266260 16217720 17231370 18170580 19165400 20144950
3622.65 21285530 22434970 23833970 25144560 26999780 29343480
3628.43 30769570 31381270 33662380 36277540 41298200 46603420
3634.22 64750810 97227860 88370560 68923580 72256830 76692720
3640.00 81832490 84403560 88198540 92537810 96838510 101018300
3645.79 104295900 105495300 106217300 106820400 107119500 107429900
3651.57 108330300 110466300 114329300 118439900 119488400 115905000
3657.36 114094800 117039500 118136100 115403900 112546500 109951000
3663.15 106783000 104326100 102796200 101587400 100839100 99915700
3668.93 98443630 96273630 93278940 89765950 85688230 81072080
3674.72 76018520 70405510 64640100 58870440 53241780 47855230
3680.50 42655160 37781910 33430090 29469980 25952380 22895540
3686.29 20238210 17945590 15759540 13856890 12370620 11017900
3692.07 9858480 8929730 8196076 7554254 7018702 6576390
3697.86 6185744 5803866 5443848 5221480 5006552 4738562
3703.64 4526912 4348132 4235676 4135702 4080196 4078098
3709.43 4018942 3995096 4031464 3939516 3814012 3671548
3715.21 3498930 3397474 3302780 3187294 3085916 3024308
3721.00 3035704 3014002 2932146 2881500 2871912 2811686
3726.79 2730184 2679882 2685282 2668754 2699978 2699498
3732.57 2636108 2633566 2598214 2627838 2656426 2628710
3738.36 2640448 2607572 2585894 2560052 2563028 2763630
3744.14 2742806 2489918 2416734 2418944 2504876 2497628
3749.93 2397940 2443874 2374392 2271346 2236240 2259012
3755.71 2290946 2233608 2238610 2264146 2252242 2268408
3761.50 2339188 2329142 2381258 2527416 2564654 2565790
3767.28 2625226 2690572 2736474 2801684 2887852 2948014
3773.07 3054394 3168082 3255546 3335762 3424634 3580074
3778.85 3681174 3771824 3911232 4031920 4178472 4296602
3784.64 4417642 4549398 4662490 4705654 4712734 4757944
3790.43 4776820 4769154 4841788 4937268 5022602 5136594
3796.21 5279730 5360122 5401920 5500946 5602260 5517428
3802.00 5422770 5429212 5403196 5472224 5598822 5570250
3807.78 5536208 5618850 5718736 5782168 5762294 5738146
3813.57 5777350 5937692 6011258 5906176 5921884 6031804
3819.35 6086836 6036858 5870174 5736626 5723392 5746234
3825.14 5790886 5882096 5931494 5965646 5928966 5858154
3830.92 5789030 5676620 5609386 5644338 5639636 5607338
3836.71 5695690 5609834 5496614 5453996 5377716 5351346
3842.49 5357096 5305446 5198210 5151208 5199388 5185604
3848.28 5144906 5135244 5194990 5223948 5213298 5328058
3854.07 5209308 5090104 5117020 5081884 4991808 4923048
3859.85 4896902 4824062 4800004 4870494 4981408 5084806
3865.64 5288264 5738864 5910772 5612620 5248238 4975818
3871.42 4852688 4827210 4755798 4728666 4728682 4706680
3877.21 4746720 4778252 4854674 4859070 4815050 4857590
3882.99 4854218 4819922 4829310 4773890 4719278 4723754
3888.78 4729028 4761470 4845820 4939558 5089718 5288328
3894.56 5401356 5338146 5128394 5037154 5050432 4923322
3900.35 4744730 4523020 4397688 4366822 4259338 4170274
3906.13 4134610 4105942 4066258 4086366 4079418 4037892
3911.92 3989380 3872888 3759078 3711540 3740488 3690278
3917.70 3532098 3425666 3379092 3307538 3283544 3260068
3923.49 3196550 3191544 3153656 3096652 3038566 3014116
3929.28 3022114 2996720 3003162 3060090 3088284 2986014
3935.06 2826304 2719342 2622518 2547906 2540684 2537228
3940.85 2539596 2554594 2533328 2548366 2557272 2546512
3946.63 2502690 2405538 2258542 2166478 2119776 2065878
3952.42 2090382 2064734 2025284 2053436 2019910 1957448
3958.20 1972424 1933986 1842382 1799776 1795084 1789422
3963.99 1751548 1722702 1731870 1738574 1741324 1721540
3969.77 1685064 1691860 1693760 1663644 1638520
##END=
