##TITLE=ISOPROPANOL
##JCAMP-DX=4.24
##DATA TYPE=INFRARED SPECTRUM
##CLASS=COBLENTZ
##ORIGIN=DOW CHEMICAL COMPANY
##OWNER=COBLENTZ SOCIETY
Collection (C) 2018 copyright by the U.S. Secretary of Commerce
on behalf of the United States of America. All rights reserved.
##DATE=1964
##NAMES=2-propanol
2-PROPANOL
##CAS REGISTRY NO=67-63-0
##MOLFORM=C3 H8 O
##SOURCE REFERENCE=COBLENTZ NO. 8790
##$NIST SOURCE=COBLENTZ
##$NIST IMAGE=cob-r8790
##SPECTROMETER/DATA SYSTEM=DOW KBr FOREPRISM-GRATING
##INSTRUMENT PARAMETERS=GRATING CHANGED AT 5.0, 7.5, 15.0 MICRON
$$ ABSORPTIONS DUE TO CH2Cl2 AT 764 AND 749 CM^-^1.
##STATE=GAS (40 mmHg, N2 ADDED, TOTAL PRESSURE 600 mmHg)
##PATH LENGTH=5 CM
$$ SPECTRAL CONTAMINATION DUE TO CH2Cl2 AROUND 750 CM^-^1
##SAMPLING PROCEDURE=TRANSMISSION
##RESOLUTION=2
##DATA PROCESSING=DIGITIZED BY NIST FROM HARD COPY (FROM TWO SEGMENTS)
##XUNITS=1/CM
##YUNITS=TRANSMITTANCE
##XFACTOR=1.000000
##YFACTOR=1
##DELTAX=0.935311
##FIRSTX=457.677
##LASTX=3808.9
##FIRSTY=0.891
##MAXX=3808.9
##MINX=457.677
##MAXY=1.023
##MINY=0.0817641
##NPOINTS=3584
##XYDATA=(X++(Y..Y))
457.677000 0.8910 0.8900 0.8900 0.8880 0.8870
462.353555 0.8870 0.8850 0.8850 0.8840 0.8840
467.030110 0.8820 0.8790 0.8780 0.8770 0.8750
471.706665 0.8740 0.8720 0.8720 0.8710 0.8710
476.383220 0.8690 0.8680 0.8680 0.8660 0.8660
481.059776 0.8660 0.8660 0.8680 0.8720 0.8740
485.736331 0.8750 0.8780 0.8790 0.8820 0.8850
490.412886 0.8880 0.8910 0.8940 0.9000 0.9010
495.089441 0.9010 0.9030 0.9040 0.9060 0.9100
499.765996 0.9130 0.9160 0.9190 0.9200 0.9230
504.442551 0.9260 0.9310 0.9320 0.9320 0.9340
509.119106 0.9350 0.9390 0.9440 0.9450 0.9470
513.795661 0.9480 0.9500 0.9510 0.9530 0.9540
518.472217 0.9560 0.9570 0.9590 0.9600 0.9610
523.148772 0.9630 0.9640 0.9660 0.9670 0.9670
527.825327 0.9690 0.9700 0.9720 0.9720 0.9730
532.501882 0.9750 0.9760 0.9760 0.9760 0.9760
537.178437 0.9780 0.9780 0.9780 0.9790 0.9790
541.854992 0.9790 0.9790 0.9790 0.9790 0.9790
546.531547 0.9790 0.9790 0.9790 0.9790 0.9790
551.208102 0.9800 0.9820 0.9820 0.9830 0.9830
555.884658 0.9850 0.9850 0.9860 0.9860 0.9860
560.561213 0.9880 0.9880 0.9890 0.9890 0.9890
565.237768 0.9890 0.9890 0.9890 0.9890 0.9890
569.914323 0.9890 0.9890 0.9890 0.9890 0.9890
574.590878 0.9890 0.9880 0.9890 0.9890 0.9890
579.267433 0.9890 0.9890 0.9910 0.9910 0.9910
583.943988 0.9910 0.9910 0.9920 0.9920 0.9920
588.620543 0.9920 0.9920 0.9920 0.9920 0.9920
593.297098 0.9920 0.9920 0.9920 0.9920 0.9920
597.973654 0.9920 0.9920 0.9920 0.9920 0.9920
602.650209 0.9920 0.9920 0.9940 0.9940 0.9940
607.326764 0.9940 0.9940 0.9940 0.9940 0.9940
612.003319 0.9940 0.9920 0.9920 0.9920 0.9920
616.679874 0.9920 0.9920 0.9940 0.9920 0.9920
621.356429 0.9920 0.9920 0.9920 0.9920 0.9920
626.032984 0.9920 0.9920 0.9920 0.9940 0.9950
630.709539 0.9950 0.9950 0.9970 0.9970 0.9970
635.386095 0.9970 0.9980 0.9980 0.9980 1.0000
640.062650 1.0000 1.0000 1.0000 1.0000 1.0000
644.739205 1.0000 1.0000 1.0000 1.0000 1.0000
649.415760 1.0000 0.9980 0.9980 0.9980 0.9980
654.092315 0.9980 0.9980 0.9980 0.9980 0.9980
658.768870 0.9980 0.9980 0.9980 0.9970 0.9970
663.445425 0.9970 0.9970 0.9970 0.9970 0.9980
668.121980 0.9980 1.0000 1.0000 1.0000 1.0010
672.798536 1.0010 1.0010 1.0010 1.0010 1.0010
677.475091 1.0020 1.0020 1.0020 1.0020 1.0020
682.151646 1.0020 1.0020 1.0010 1.0010 1.0010
686.828201 1.0000 1.0000 1.0000 1.0000 0.9980
691.504756 0.9980 0.9980 0.9980 0.9970 0.9970
696.181311 0.9970 0.9950 0.9950 0.9940 0.9940
700.857866 0.9940 0.9920 0.9910 0.9910 0.9910
705.534421 0.9890 0.9890 0.9880 0.9880 0.9860
710.210976 0.9860 0.9850 0.9850 0.9820 0.9800
714.887532 0.9790 0.9780 0.9750 0.9730 0.9720
719.564087 0.9690 0.9600 0.9440 0.9410 0.9410
724.240642 0.9390 0.9390 0.9370 0.9370 0.9350
728.917197 0.9340 0.9340 0.9320 0.9180 0.9150
733.593752 0.9150 0.9130 0.9100 0.9070 0.9030
738.270307 0.8940 0.8820 0.8750 0.8680 0.8550
742.946862 0.8430 0.8340 0.8280 0.8121 0.7971
747.623417 0.7860 0.7800 0.7830 0.7870 0.7950
752.299973 0.8000 0.8050 0.8080 0.8180 0.8250
756.976528 0.8280 0.8280 0.8300 0.8310 0.8380
761.653083 0.8530 0.8241 0.8210 0.8220 0.8250
766.329638 0.8310 0.8340 0.8410 0.8560 0.8969
771.006193 0.9130 0.9280 0.9410 0.9530 0.9590
775.682748 0.9670 0.9670 0.9750 0.9750 0.9760
780.359303 0.9780 0.9780 0.9780 0.9790 0.9790
785.035858 0.9790 0.9780 0.9780 0.9780 0.9780
789.712414 0.9750 0.9720 0.9700 0.9670 0.9640
794.388969 0.9600 0.9560 0.9470 0.9390 0.9370
799.065524 0.9310 0.9250 0.9150 0.9090 0.9070
803.742079 0.9060 0.9040 0.9030 0.9010 0.9000
808.418634 0.8980 0.8970 0.8960 0.8940 0.8930
813.095189 0.8910 0.8910 0.8930 0.8930 0.8960
817.771744 0.8980 0.9010 0.9040 0.9070 0.9100
822.448299 0.9070 0.9070 0.9070 0.9070 0.9090
827.124854 0.9090 0.9100 0.9150 0.9180 0.9200
831.801410 0.9250 0.9390 0.9440 0.9480 0.9570
836.477965 0.9660 0.9700 0.9790 0.9800 0.9890
841.154520 1.0010 1.0020 1.0040 1.0050 1.0080
845.831075 1.0100 1.0110 1.0130 1.0130 1.0140
850.507630 1.0170 1.0170 1.0170 1.0190 1.0190
855.184185 1.0200 1.0200 1.0200 1.0200 1.0200
859.860740 1.0200 1.0200 1.0210 1.0210 1.0210
864.537295 1.0210 1.0210 1.0210 1.0230 1.0230
869.213851 1.0230 1.0230 1.0230 1.0230 1.0230
873.890406 1.0230 1.0230 1.0230 1.0230 1.0230
878.566961 1.0230 1.0210 1.0210 1.0210 1.0200
883.243516 1.0200 1.0190 1.0190 1.0170 1.0170
887.920071 1.0160 1.0170 1.0140 1.0140 1.0130
892.596626 1.0110 1.0110 1.0100 1.0080 1.0080
897.273181 1.0070 1.0050 1.0040 1.0010 0.9970
901.949736 0.9920 0.9850 0.9800 0.9780 0.9700
906.626292 0.9640 0.9560 0.9410 0.9310 0.9190
911.302847 0.9070 0.9000 0.8960 0.8910 0.8880
915.979402 0.8840 0.8780 0.8740 0.8720 0.8650
920.655957 0.8570 0.8500 0.8460 0.8360 0.8330
925.332512 0.8300 0.8160 0.8050 0.7920 0.7550
930.009067 0.7370 0.7180 0.7150 0.6821 0.6581
934.685622 0.6379 0.5939 0.5490 0.5410 0.5320
939.362177 0.5240 0.5190 0.5160 0.5130 0.5120
944.038732 0.5060 0.5030 0.4960 0.4910 0.4890
948.715288 0.4840 0.4770 0.4690 0.4620 0.4490
953.391843 0.4460 0.4460 0.4480 0.4500 0.4580
958.068398 0.4670 0.4710 0.5119 0.5130 0.5090
962.744953 0.5060 0.5030 0.5030 0.5050 0.5080
967.421508 0.5210 0.5370 0.5440 0.6157 0.6319
972.098063 0.6510 0.6790 0.7170 0.7510 0.7840
976.774618 0.8209 0.8270 0.8808 0.9099 0.9279
981.451173 0.9380 0.9560 0.9720 0.9760 0.9800
986.127729 0.9830 0.9860 0.9910 0.9920 0.9950
990.804284 1.0010 1.0010 1.0020 1.0040 1.0050
995.480839 1.0070 1.0070 1.0080 1.0080 1.0100
1000.157394 1.0100 1.0100 1.0100 1.0100 1.0080
1004.833949 1.0080 1.0080 1.0080 1.0070 1.0070
1009.510504 1.0070 1.0080 1.0080 1.0080 1.0070
1014.187059 1.0070 1.0070 1.0040 1.0040 1.0040
1018.863614 1.0020 1.0010 1.0010 1.0000 1.0000
1023.540170 0.9980 0.9980 0.9970 0.9950 0.9950
1028.216725 0.9940 0.9920 0.9910 0.9860 0.9800
1032.893280 0.9780 0.9760 0.9720 0.9670 0.9630
1037.569835 0.9590 0.9560 0.9530 0.9350 0.9280
1042.246390 0.9220 0.9100 0.8930 0.8780 0.8740
1046.922945 0.8680 0.8520 0.8410 0.8300 0.8050
1051.599500 0.7890 0.7640 0.7460 0.7420 0.7370
1056.276055 0.7150 0.7040 0.6850 0.6720 0.6580
1060.952610 0.6470 0.6250 0.6250 0.6170 0.6060
1065.629166 0.5940 0.5840 0.5730 0.5650 0.5500
1070.305721 0.5370 0.5340 0.5350 0.5430 0.5440
1074.982276 0.5460 0.5470 0.5490 0.5500 0.5510
1079.658831 0.5570 0.5620 0.5630 0.5660 0.5710
1084.335386 0.5730 0.5760 0.5780 0.5790 0.5840
1089.011941 0.5880 0.5920 0.6169 0.6310 0.6439
1093.688496 0.6580 0.6690 0.6850 0.7010 0.7080
1098.365051 0.7140 0.7170 0.7290 0.7459 0.7520
1103.041607 0.7520 0.7520 0.7510 0.7490 0.7480
1107.718162 0.7460 0.7430 0.7390 0.7390 0.7340
1112.394717 0.7320 0.7270 0.7230 0.7200 0.7110
1117.071272 0.6990 0.6910 0.6850 0.6800 0.6760
1121.747827 0.6480 0.6420 0.6320 0.6310 0.6160
1126.424382 0.6100 0.6030 0.5950 0.5940 0.5820
1131.100937 0.5750 0.5690 0.5630 0.5600 0.5490
1135.777492 0.5370 0.5270 0.5190 0.5150 0.5080
1140.454048 0.4990 0.4910 0.4840 0.4740 0.4720
1145.130603 0.4610 0.4480 0.4460 0.4420 0.4370
1149.807158 0.4310 0.4270 0.4210 0.4180 0.4200
1154.483713 0.4230 0.4270 0.4280 0.4340 0.4370
1159.160268 0.4460 0.4480 0.4560 0.4610 0.4640
1163.836823 0.4690 0.4860 0.5020 0.5120 0.5220
1168.513378 0.5300 0.5310 0.5370 0.5490 0.5720
1173.189933 0.5780 0.6010 0.6190 0.6310 0.6360
1177.866488 0.6470 0.6540 0.6640 0.6770 0.6930
1182.543044 0.7040 0.7210 0.7579 0.7750 0.7840
1187.219599 0.8000 0.8150 0.8300 0.8360 0.8490
1191.896154 0.8850 0.8910 0.9000 0.9120 0.9180
1196.572709 0.9190 0.9230 0.9290 0.9340 0.9370
1201.249264 0.9410 0.9410 0.9440 0.9470 0.9470
1205.925819 0.9480 0.9480 0.9480 0.9480 0.9470
1210.602374 0.9470 0.9440 0.9410 0.9350 0.9340
1215.278929 0.9310 0.9200 0.9150 0.9120 0.9090
1219.955485 0.8970 0.8930 0.8810 0.8750 0.8690
1224.632040 0.8680 0.8520 0.8400 0.8280 0.8080
1229.308595 0.7970 0.7840 0.7680 0.7431 0.7320
1233.985150 0.7200 0.7170 0.7070 0.6920 0.6770
1238.661705 0.6700 0.6630 0.6550 0.6450 0.6440
1243.338260 0.6410 0.6390 0.6360 0.6320 0.6280
1248.014815 0.6220 0.6160 0.5920 0.5691 0.5650
1252.691370 0.5680 0.5710 0.5750 0.5810 0.5880
1257.367926 0.5920 0.6000 0.6010 0.6030 0.6040
1262.044481 0.6070 0.6160 0.6160 0.6220 0.6290
1266.721036 0.6320 0.6380 0.6450 0.6530 0.6759
1271.397591 0.7100 0.7100 0.7260 0.7430 0.7520
1276.074146 0.7590 0.7680 0.7780 0.7860 0.7970
1280.750701 0.8051 0.8240 0.8430 0.8570 0.8750
1285.427256 0.8910 0.8960 0.9060 0.9090 0.9100
1290.103811 0.9120 0.9180 0.9220 0.9310 0.9320
1294.780367 0.9350 0.9370 0.9380 0.9380 0.9390
1299.456922 0.9410 0.9410 0.9420 0.9420 0.9420
1304.133477 0.9420 0.9420 0.9410 0.9410 0.9390
1308.810032 0.9390 0.9380 0.9380 0.9370 0.9370
1313.486587 0.9340 0.9320 0.9320 0.9260 0.9250
1318.163142 0.9220 0.9200 0.9120 0.9100 0.9070
1322.839697 0.9040 0.9010 0.8980 0.8960 0.8910
1327.516252 0.8810 0.8750 0.8720 0.8690 0.8660
1332.192807 0.8590 0.8530 0.8490 0.8410 0.8360
1336.869363 0.8330 0.8310 0.8220 0.8180 0.8140
1341.545918 0.8090 0.8050 0.8000 0.7950 0.7930
1346.222473 0.7920 0.7840 0.7810 0.7780 0.7740
1350.899028 0.7710 0.7670 0.7640 0.7590 0.7550
1355.575583 0.7490 0.7420 0.7370 0.7270 0.7240
1360.252138 0.7150 0.7050 0.6930 0.6860 0.6740
1364.928693 0.6630 0.6570 0.6470 0.6290 0.6190
1369.605248 0.6100 0.6010 0.5750 0.5500 0.5370
1374.281804 0.4900 0.4840 0.4780 0.4580 0.4490
1378.958359 0.4420 0.4270 0.4170 0.4050 0.3821
1383.634914 0.3790 0.3800 0.3820 0.3900 0.3950
1388.311469 0.3980 0.3990 0.4020 0.4040 0.4040
1392.988024 0.4040 0.4040 0.4050 0.4080 0.4110
1397.664579 0.4210 0.4360 0.4420 0.4580 0.4929
1402.341134 0.5380 0.5431 0.5651 0.5921 0.6310
1407.017689 0.6450 0.6630 0.6790 0.6930 0.7100
1411.694245 0.7431 0.7590 0.7740 0.7800 0.7950
1416.370800 0.8060 0.8160 0.8310 0.8360 0.8460
1421.047355 0.8520 0.8570 0.8720 0.8740 0.8820
1425.723910 0.8850 0.8870 0.8880 0.8900 0.8900
1430.400465 0.8910 0.8910 0.8930 0.8930 0.8930
1435.077020 0.8910 0.8910 0.8900 0.8880 0.8880
1439.753575 0.8850 0.8820 0.8780 0.8750 0.8720
1444.430130 0.8710 0.8690 0.8660 0.8630 0.8600
1449.106685 0.8590 0.8560 0.8530 0.8490 0.8430
1453.783241 0.8370 0.8330 0.8270 0.8140 0.8030
1458.459796 0.7960 0.7950 0.7900 0.7650 0.7610
1463.136351 0.7490 0.7450 0.7390 0.7270 0.7649
1467.812906 0.7961 0.8370 0.8430 0.8430 0.8330
1472.489461 0.8150 0.7710 0.7490 0.7270 0.7200
1477.166016 0.7271 0.7641 0.8190 0.8410 0.8530
1481.842571 0.8560 0.8590 0.8600 0.8620 0.8630
1486.519126 0.8660 0.8680 0.8720 0.8740 0.8780
1491.195682 0.8820 0.8870 0.8960 0.8960 0.9030
1495.872237 0.9090 0.9150 0.9200 0.9310 0.9320
1500.548792 0.9350 0.9370 0.9420 0.9480 0.9570
1505.225347 0.9590 0.9630 0.9660 0.9730 0.9730
1509.901902 0.9750 0.9760 0.9760 0.9780 0.9790
1514.578457 0.9800 0.9800 0.9820 0.9830 0.9830
1519.255012 0.9850 0.9860 0.9860 0.9880 0.9880
1523.931567 0.9880 0.9880 0.9890 0.9890 0.9890
1528.608123 0.9890 0.9890 0.9910 0.9910 0.9910
1533.284678 0.9910 0.9910 0.9890 0.9890 0.9890
1537.961233 0.9890 0.9890 0.9890 0.9910 0.9910
1542.637788 0.9910 0.9910 0.9920 0.9920 0.9920
1547.314343 0.9920 0.9940 0.9940 0.9940 0.9940
1551.990898 0.9940 0.9950 0.9950 0.9970 0.9970
1556.667453 0.9970 0.9970 0.9970 0.9970 0.9970
1561.344008 0.9970 0.9970 0.9970 0.9970 0.9950
1566.020563 0.9950 0.9950 0.9940 0.9940 0.9940
1570.697119 0.9950 0.9950 0.9950 0.9950 0.9950
1575.373674 0.9950 0.9950 0.9950 0.9950 0.9950
1580.050229 0.9950 0.9950 0.9950 0.9950 0.9950
1584.726784 0.9940 0.9940 0.9940 0.9920 0.9920
1589.403339 0.9920 0.9920 0.9920 0.9920 0.9920
1594.079894 0.9920 0.9920 0.9920 0.9920 0.9920
1598.756449 0.9920 0.9920 0.9920 0.9920 0.9920
1603.433004 0.9920 0.9920 0.9920 0.9910 0.9910
1608.109560 0.9910 0.9890 0.9910 0.9910 0.9910
1612.786115 0.9910 0.9910 0.9910 0.9910 0.9910
1617.462670 0.9910 0.9910 0.9910 0.9910 0.9890
1622.139225 0.9890 0.9890 0.9890 0.9880 0.9880
1626.815780 0.9880 0.9860 0.9860 0.9850 0.9850
1631.492335 0.9850 0.9850 0.9830 0.9830 0.9830
1636.168890 0.9830 0.9830 0.9820 0.9780 0.9780
1640.845445 0.9780 0.9760 0.9760 0.9750 0.9760
1645.522001 0.9760 0.9780 0.9820 0.9820 0.9780
1650.198556 0.9790 0.9800 0.9820 0.9830 0.9860
1654.875111 0.9860 0.9830 0.9800 0.9790 0.9790
1659.551666 0.9790 0.9790 0.9800 0.9820 0.9830
1664.228221 0.9830 0.9820 0.9830 0.9830 0.9830
1668.904776 0.9850 0.9860 0.9860 0.9860 0.9860
1673.581331 0.9860 0.9880 0.9880 0.9890 0.9890
1678.257886 0.9880 0.9880 0.9880 0.9890 0.9920
1682.934441 0.9940 0.9950 1.0000 1.0000 0.9970
1687.610997 0.9940 0.9920 0.9910 0.9910 0.9890
1692.287552 0.9890 0.9890 0.9910 0.9920 0.9950
1696.964107 0.9970 0.9980 0.9980 0.9980 0.9980
1701.640662 0.9970 0.9950 0.9940 0.9920 0.9920
1706.317217 0.9920 0.9920 0.9910 0.9910 0.9910
1710.993772 0.9890 0.9890 0.9890 0.9910 0.9910
1715.670327 0.9920 0.9920 0.9940 0.9940 0.9920
1720.346882 0.9910 0.9910 0.9890 0.9860 0.9860
1725.023438 0.9860 0.9860 0.9860 0.9860 0.9860
1729.699993 0.9880 0.9880 0.9880 0.9880 0.9890
1734.376548 0.9910 0.9910 0.9890 0.9880 0.9880
1739.053103 0.9880 0.9880 0.9880 0.9860 0.9850
1743.729658 0.9850 0.9860 0.9860 0.9860 0.9850
1748.406213 0.9850 0.9850 0.9850 0.9820 0.9800
1753.082768 0.9790 0.9790 0.9790 0.9790 0.9790
1757.759323 0.9780 0.9780 0.9780 0.9780 0.9790
1762.435879 0.9790 0.9790 0.9780 0.9760 0.9760
1767.112434 0.9760 0.9760 0.9760 0.9780 0.9780
1771.788989 0.9780 0.9780 0.9780 0.9780 0.9780
1776.465544 0.9780 0.9780 0.9780 0.9780 0.9780
1781.142099 0.9790 0.9790 0.9790 0.9800 0.9790
1785.818654 0.9790 0.9800 0.9830 0.9850 0.9850
1790.495209 0.9860 0.9880 0.9880 0.9880 0.9890
1795.171764 0.9890 0.9890 0.9890 0.9890 0.9890
1799.848319 0.9890 0.9880 0.9880 0.9880 0.9880
1804.524875 0.9880 0.9880 0.9880 0.9880 0.9880
1809.201430 0.9890 0.9890 0.9890 0.9890 0.9890
1813.877985 0.9890 0.9890 0.9890 0.9890 0.9890
1818.554540 0.9890 0.9890 0.9890 0.9880 0.9880
1823.231095 0.9880 0.9880 0.9880 0.9880 0.9880
1827.907650 0.9860 0.9880 0.9880 0.9860 0.9860
1832.584205 0.9860 0.9860 0.9860 0.9860 0.9860
1837.260760 0.9850 0.9850 0.9850 0.9850 0.9850
1841.937316 0.9850 0.9880 0.9890 0.9910 0.9910
1846.613871 0.9890 0.9890 0.9880 0.9880 0.9860
1851.290426 0.9860 0.9850 0.9850 0.9850 0.9850
1855.966981 0.9850 0.9850 0.9850 0.9850 0.9850
1860.643536 0.9850 0.9850 0.9850 0.9850 0.9850
1865.320091 0.9850 0.9860 0.9880 0.9880 0.9880
1869.996646 0.9860 0.9850 0.9850 0.9820 0.9820
1874.673201 0.9820 0.9820 0.9820 0.9820 0.9820
1879.349757 0.9830 0.9830 0.9820 0.9800 0.9790
1884.026312 0.9780 0.9780 0.9780 0.9780 0.9780
1888.702867 0.9780 0.9780 0.9780 0.9780 0.9780
1893.379422 0.9780 0.9780 0.9780 0.9780 0.9780
1898.055977 0.9780 0.9780 0.9790 0.9790 0.9790
1902.732532 0.9790 0.9790 0.9790 0.9790 0.9790
1907.409087 0.9790 0.9790 0.9790 0.9790 0.9790
1912.085642 0.9790 0.9790 0.9790 0.9790 0.9790
1916.762197 0.9790 0.9790 0.9790 0.9790 0.9790
1921.438753 0.9790 0.9790 0.9790 0.9790 0.9790
1926.115308 0.9820 0.9820 0.9830 0.9830 0.9850
1930.791863 0.9850 0.9850 0.9850 0.9850 0.9850
1935.468418 0.9860 0.9860 0.9860 0.9860 0.9860
1940.144973 0.9860 0.9860 0.9860 0.9860 0.9860
1944.821528 0.9860 0.9860 0.9860 0.9860 0.9860
1949.498083 0.9850 0.9850 0.9850 0.9850 0.9850
1954.174638 0.9850 0.9860 0.9860 0.9860 0.9860
1958.851194 0.9860 0.9860 0.9860 0.9860 0.9860
1963.527749 0.9880 0.9880 0.9860 0.9860 0.9860
1968.204304 0.9860 0.9860 0.9850 0.9850 0.9850
1972.880859 0.9850 0.9850 0.9850 0.9850 0.9850
1977.557414 0.9850 0.9850 0.9850 0.9850 0.9830
1982.233969 0.9830 0.9830 0.9830 0.9830 0.9830
1986.910524 0.9850 0.9850 0.9850 0.9860 0.9860
1991.587079 0.9860 0.9860 0.9860 0.9860 0.9860
1996.263635 0.9860 0.9860 0.9860 0.9860 0.9850
2000.940190 0.9835 0.9820 0.9810 0.9800 0.9815
2005.616745 0.9830 0.9840 0.9850 0.9850 0.9850
2010.293300 0.9850 0.9850 0.9855 0.9860 0.9860
2014.969855 0.9860 0.9860 0.9860 0.9870 0.9880
2019.646410 0.9880 0.9880 0.9870 0.9860 0.9860
2024.322965 0.9860 0.9870 0.9880 0.9880 0.9880
2028.999520 0.9880 0.9880 0.9880 0.9880 0.9880
2033.676075 0.9880 0.9885 0.9890 0.9890 0.9890
2038.352631 0.9890 0.9890 0.9885 0.9880 0.9880
2043.029186 0.9880 0.9880 0.9880 0.9880 0.9880
2047.705741 0.9880 0.9880 0.9880 0.9880 0.9880
2052.382296 0.9880 0.9880 0.9880 0.9880 0.9879
2057.058851 0.9869 0.9861 0.9871 0.9880 0.9885
2061.735406 0.9890 0.9890 0.9890 0.9890 0.9890
2066.411961 0.9890 0.9890 0.9890 0.9890 0.9885
2071.088516 0.9880 0.9880 0.9880 0.9880 0.9880
2075.765072 0.9880 0.9880 0.9880 0.9880 0.9880
2080.441627 0.9880 0.9880 0.9880 0.9880 0.9880
2085.118182 0.9880 0.9880 0.9880 0.9879 0.9869
2089.794737 0.9860 0.9860 0.9860 0.9860 0.9860
2094.471292 0.9860 0.9860 0.9860 0.9861 0.9871
2099.147847 0.9880 0.9880 0.9880 0.9880 0.9880
2103.824402 0.9880 0.9880 0.9880 0.9880 0.9880
2108.500957 0.9880 0.9880 0.9880 0.9880 0.9880
2113.177513 0.9880 0.9880 0.9880 0.9880 0.9880
2117.854068 0.9880 0.9880 0.9880 0.9880 0.9880
2122.530623 0.9880 0.9880 0.9880 0.9880 0.9880
2127.207178 0.9880 0.9885 0.9890 0.9890 0.9890
2131.883733 0.9890 0.9890 0.9890 0.9890 0.9890
2136.560288 0.9890 0.9890 0.9890 0.9890 0.9889
2141.236843 0.9884 0.9880 0.9880 0.9879 0.9869
2145.913398 0.9860 0.9860 0.9860 0.9860 0.9860
2150.589953 0.9860 0.9861 0.9871 0.9880 0.9880
2155.266509 0.9879 0.9869 0.9860 0.9860 0.9860
2159.943064 0.9860 0.9860 0.9860 0.9860 0.9860
2164.619619 0.9860 0.9860 0.9860 0.9860 0.9860
2169.296174 0.9860 0.9860 0.9860 0.9860 0.9860
2173.972729 0.9860 0.9860 0.9860 0.9860 0.9860
2178.649284 0.9860 0.9860 0.9860 0.9860 0.9860
2183.325839 0.9860 0.9860 0.9860 0.9860 0.9860
2188.002394 0.9860 0.9860 0.9860 0.9859 0.9854
2192.678950 0.9850 0.9850 0.9850 0.9850 0.9850
2197.355505 0.9850 0.9850 0.9850 0.9850 0.9850
2202.032060 0.9851 0.9856 0.9860 0.9860 0.9860
2206.708615 0.9860 0.9860 0.9860 0.9860 0.9860
2211.385170 0.9862 0.9872 0.9880 0.9880 0.9880
2216.061725 0.9880 0.9881 0.9886 0.9890 0.9890
2220.738280 0.9890 0.9890 0.9892 0.9902 0.9910
2225.414835 0.9910 0.9910 0.9910 0.9910 0.9910
2230.091391 0.9910 0.9910 0.9910 0.9910 0.9910
2234.767946 0.9910 0.9910 0.9910 0.9910 0.9910
2239.444501 0.9910 0.9910 0.9910 0.9910 0.9910
2244.121056 0.9910 0.9910 0.9910 0.9910 0.9910
2248.797611 0.9911 0.9916 0.9920 0.9920 0.9920
2253.474166 0.9920 0.9922 0.9932 0.9940 0.9940
2258.150721 0.9940 0.9940 0.9938 0.9928 0.9920
2262.827276 0.9920 0.9920 0.9920 0.9920 0.9920
2267.503831 0.9920 0.9920 0.9920 0.9920 0.9919
2272.180387 0.9914 0.9910 0.9910 0.9910 0.9910
2276.856942 0.9910 0.9910 0.9910 0.9910 0.9908
2281.533497 0.9898 0.9892 0.9902 0.9910 0.9910
2286.210052 0.9906 0.9891 0.9880 0.9880 0.9880
2290.886607 0.9880 0.9880 0.9880 0.9878 0.9868
2295.563162 0.9860 0.9860 0.9860 0.9860 0.9860
2300.239717 0.9860 0.9860 0.9860 0.9860 0.9860
2304.916272 0.9859 0.9854 0.9850 0.9850 0.9850
2309.592828 0.9850 0.9850 0.9850 0.9851 0.9856
2314.269383 0.9860 0.9860 0.9860 0.9860 0.9860
2318.945938 0.9860 0.9860 0.9860 0.9860 0.9860
2323.622493 0.9860 0.9860 0.9860 0.9860 0.9860
2328.299048 0.9860 0.9860 0.9860 0.9863 0.9873
2332.975603 0.9881 0.9886 0.9893 0.9903 0.9911
2337.652158 0.9916 0.9923 0.9933 0.9941 0.9946
2342.328713 0.9954 0.9969 0.9980 0.9980 0.9983
2347.005269 0.9993 1.0003 1.0013 1.0023 1.0033
2351.681824 1.0041 1.0046 1.0050 1.0050 1.0055
2356.358379 1.0070 1.0083 1.0093 1.0100 1.0100
2361.034934 1.0100 1.0100 1.0100 1.0100 1.0097
2365.711489 1.0087 1.0079 1.0074 1.0067 1.0057
2370.388044 1.0049 1.0044 1.0035 1.0020 1.0008
2375.064599 1.0003 1.0000 1.0000 0.9997 0.9987
2379.741154 0.9980 0.9980 0.9978 0.9973 0.9965
2384.417709 0.9950 0.9937 0.9927 0.9920 0.9920
2389.094265 0.9920 0.9920 0.9920 0.9920 0.9920
2393.770820 0.9920 0.9920 0.9920 0.9920 0.9920
2398.447375 0.9920 0.9920 0.9918 0.9913 0.9910
2403.123930 0.9910 0.9910 0.9910 0.9910 0.9910
2407.800485 0.9910 0.9910 0.9910 0.9910 0.9910
2412.477040 0.9910 0.9910 0.9910 0.9910 0.9910
2417.153595 0.9910 0.9910 0.9912 0.9917 0.9920
2421.830150 0.9920 0.9920 0.9920 0.9920 0.9920
2426.506706 0.9920 0.9920 0.9920 0.9920 0.9920
2431.183261 0.9920 0.9920 0.9920 0.9920 0.9920
2435.859816 0.9920 0.9920 0.9920 0.9920 0.9920
2440.536371 0.9920 0.9924 0.9934 0.9936 0.9926
2445.212926 0.9920 0.9920 0.9920 0.9920 0.9920
2449.889481 0.9920 0.9918 0.9913 0.9910 0.9910
2454.566036 0.9910 0.9910 0.9910 0.9910 0.9910
2459.242591 0.9910 0.9910 0.9910 0.9910 0.9910
2463.919147 0.9910 0.9910 0.9910 0.9910 0.9912
2468.595702 0.9917 0.9918 0.9913 0.9910 0.9910
2473.272257 0.9910 0.9910 0.9910 0.9910 0.9910
2477.948812 0.9910 0.9910 0.9910 0.9910 0.9910
2482.625367 0.9910 0.9910 0.9910 0.9910 0.9906
2487.301922 0.9896 0.9890 0.9890 0.9888 0.9883
2491.978477 0.9880 0.9880 0.9880 0.9880 0.9880
2496.655032 0.9880 0.9880 0.9880 0.9880 0.9880
2501.331587 0.9876 0.9866 0.9860 0.9860 0.9860
2506.008143 0.9860 0.9860 0.9860 0.9860 0.9860
2510.684698 0.9860 0.9860 0.9860 0.9860 0.9858
2515.361253 0.9853 0.9850 0.9850 0.9852 0.9857
2520.037808 0.9860 0.9860 0.9860 0.9860 0.9860
2524.714363 0.9860 0.9860 0.9860 0.9864 0.9874
2529.390918 0.9880 0.9880 0.9880 0.9880 0.9880
2534.067473 0.9880 0.9882 0.9887 0.9890 0.9890
2538.744028 0.9890 0.9890 0.9894 0.9905 0.9910
2543.420584 0.9910 0.9910 0.9910 0.9910 0.9910
2548.097139 0.9910 0.9910 0.9910 0.9910 0.9910
2552.773694 0.9910 0.9910 0.9910 0.9910 0.9910
2557.450249 0.9910 0.9910 0.9910 0.9910 0.9910
2562.126804 0.9910 0.9910 0.9910 0.9905 0.9895
2566.803359 0.9890 0.9890 0.9895 0.9905 0.9910
2571.479914 0.9910 0.9905 0.9895 0.9890 0.9890
2576.156469 0.9888 0.9883 0.9880 0.9880 0.9880
2580.833025 0.9880 0.9880 0.9880 0.9880 0.9880
2585.509580 0.9875 0.9865 0.9858 0.9853 0.9850
2590.186135 0.9850 0.9845 0.9835 0.9830 0.9830
2594.862690 0.9830 0.9830 0.9828 0.9823 0.9820
2599.539245 0.9820 0.9815 0.9805 0.9797 0.9792
2604.215800 0.9790 0.9790 0.9787 0.9782 0.9780
2608.892355 0.9780 0.9775 0.9765 0.9760 0.9760
2613.568910 0.9760 0.9760 0.9757 0.9752 0.9750
2618.245465 0.9750 0.9750 0.9750 0.9745 0.9735
2622.922021 0.9727 0.9722 0.9712 0.9697 0.9690
2627.598576 0.9690 0.9690 0.9690 0.9685 0.9675
2632.275131 0.9670 0.9670 0.9667 0.9662 0.9655
2636.951686 0.9645 0.9637 0.9632 0.9625 0.9615
2641.628241 0.9605 0.9595 0.9590 0.9590 0.9590
2646.304796 0.9590 0.9590 0.9590 0.9585 0.9575
2650.981351 0.9570 0.9570 0.9570 0.9570 0.9570
2655.657906 0.9570 0.9576 0.9586 0.9590 0.9590
2660.334462 0.9584 0.9575 0.9567 0.9562 0.9560
2665.011017 0.9560 0.9555 0.9545 0.9537 0.9532
2669.687572 0.9530 0.9530 0.9533 0.9538 0.9549
2674.364127 0.9564 0.9581 0.9601 0.9619 0.9634
2679.040682 0.9649 0.9664 0.9670 0.9670 0.9670
2683.717237 0.9670 0.9676 0.9686 0.9690 0.9690
2688.393792 0.9693 0.9698 0.9700 0.9700 0.9700
2693.070347 0.9700 0.9706 0.9716 0.9720 0.9720
2697.746903 0.9720 0.9720 0.9720 0.9720 0.9720
2702.423458 0.9720 0.9720 0.9720 0.9720 0.9720
2707.100013 0.9714 0.9704 0.9700 0.9700 0.9697
2711.776568 0.9692 0.9684 0.9674 0.9670 0.9670
2716.453123 0.9670 0.9670 0.9670 0.9670 0.9670
2721.129678 0.9670 0.9667 0.9662 0.9660 0.9660
2725.806233 0.9654 0.9644 0.9640 0.9640 0.9637
2730.482788 0.9632 0.9624 0.9614 0.9607 0.9602
2735.159343 0.9597 0.9592 0.9590 0.9590 0.9584
2739.835899 0.9574 0.9570 0.9570 0.9570 0.9570
2744.512454 0.9570 0.9570 0.9570 0.9570 0.9567
2749.189009 0.9562 0.9560 0.9560 0.9560 0.9560
2753.865564 0.9560 0.9560 0.9560 0.9560 0.9560
2758.542119 0.9560 0.9560 0.9560 0.9560 0.9560
2763.218674 0.9554 0.9544 0.9540 0.9540 0.9537
2767.895229 0.9532 0.9530 0.9530 0.9524 0.9514
2772.571784 0.9510 0.9510 0.9507 0.9502 0.9494
2777.248340 0.9484 0.9477 0.9472 0.9470 0.9470
2781.924895 0.9464 0.9454 0.9447 0.9442 0.9433
2786.601450 0.9423 0.9420 0.9420 0.9417 0.9412
2791.278005 0.9410 0.9410 0.9403 0.9393 0.9390
2795.954560 0.9390 0.9383 0.9373 0.9363 0.9353
2800.631115 0.9347 0.9342 0.9333 0.9323 0.9317
2805.307670 0.9312 0.9303 0.9293 0.9276 0.9256
2809.984225 0.9240 0.9225 0.9213 0.9203 0.9197
2814.660781 0.9192 0.9187 0.9182 0.9173 0.9163
2819.337336 0.9160 0.9160 0.9157 0.9152 0.9143
2824.013891 0.9133 0.9120 0.9105 0.9086 0.9066
2828.690446 0.9050 0.9035 0.9013 0.8988 0.8980
2833.367001 0.8980 0.8973 0.8963 0.8960 0.8960
2838.043556 0.8960 0.8960 0.8953 0.8943 0.8929
2842.720111 0.8914 0.8896 0.8876 0.8835 0.8785
2847.396666 0.8752 0.8727 0.8716 0.8711 0.8703
2852.073222 0.8693 0.8619 0.8519 0.8381 0.8226
2856.749777 0.8127 0.8052 0.7834 0.7556 0.7447
2861.426332 0.7402 0.7357 0.7312 0.7264 0.7214
2866.102887 0.7164 0.7114 0.6955 0.6756 0.6574
2870.779442 0.6399 0.6336 0.6316 0.6292 0.6267
2875.455997 0.6256 0.6251 0.6232 0.6207 0.6189
2880.132552 0.6174 0.5970 0.5700 0.5430 0.5161
2884.809107 0.5009 0.4899 0.4785 0.4670 0.4629
2889.485662 0.4614 0.4614 0.4619 0.4653 0.4698
2894.162218 0.4765 0.4840 0.4919 0.5000 0.5096
2898.838773 0.5196 0.5239 0.5264 0.5281 0.5296
2903.515328 0.5330 0.5370 0.5388 0.5398 0.5460
2908.191883 0.5540 0.5564 0.5569 0.5611 0.5666
2912.868438 0.5778 0.5908 0.5944 0.5949 0.6023
2917.544993 0.6118 0.6140 0.6140 0.6136 0.6131
2922.221548 0.6126 0.6121 0.6097 0.6067 0.6037
2926.898103 0.6007 0.5965 0.5920 0.5883 0.5848
2931.574659 0.5805 0.5760 0.5715 0.5670 0.5648
2936.251214 0.5633 0.5630 0.5630 0.5602 0.5567
2940.927769 0.5497 0.5417 0.5349 0.5284 0.5223
2945.604324 0.5163 0.5111 0.5061 0.4932 0.4782
2950.280879 0.4632 0.4482 0.4304 0.4117 0.3875
2954.957434 0.3620 0.3474 0.3354 0.3238 0.3123
2959.633989 0.3052 0.2992 0.2880 0.2755 0.2678
2964.310544 0.2613 0.2536 0.2456 0.2376 0.2296
2968.987100 0.2168 0.2028 0.1883 0.1737 0.1530
2973.663655 0.1310 0.1270 0.1270 0.1295 0.1324
2978.340210 0.1359 0.1394 0.1429 0.1464 0.1352
2983.016765 0.1207 0.1103 0.1008 0.0913 0.0818
2987.693320 0.1044 0.1344 0.1634 0.1922 0.1978
2992.369875 0.1988 0.2123 0.2283 0.2377 0.2457
2997.046430 0.2537 0.2617 0.2684 0.2749 0.2885
3001.722985 0.3035 0.3222 0.3417 0.3637 0.3862
3006.399540 0.4083 0.4303 0.4709 0.5153 0.5339
3011.076096 0.5479 0.5912 0.6397 0.6915 0.7440
3015.752651 0.7618 0.7732 0.7835 0.7935 0.8077
3020.429206 0.8227 0.8559 0.8924 0.9094 0.9229
3025.105761 0.9347 0.9462 0.9489 0.9499 0.9517
3029.782316 0.9537 0.9562 0.9587 0.9607 0.9627
3034.458871 0.9643 0.9658 0.9664 0.9669 0.9670
3039.135426 0.9670 0.9670 0.9670 0.9679 0.9689
3043.811981 0.9690 0.9690 0.9694 0.9699 0.9700
3048.488537 0.9700 0.9700 0.9700 0.9709 0.9719
3053.165092 0.9711 0.9701 0.9700 0.9700 0.9700
3057.841647 0.9700 0.9700 0.9700 0.9700 0.9700
3062.518202 0.9700 0.9700 0.9700 0.9700 0.9700
3067.194757 0.9700 0.9700 0.9700 0.9700 0.9700
3071.871312 0.9700 0.9700 0.9700 0.9700 0.9700
3076.547867 0.9700 0.9700 0.9700 0.9700 0.9700
3081.224422 0.9700 0.9700 0.9700 0.9700 0.9700
3085.900978 0.9700 0.9700 0.9700 0.9700 0.9700
3090.577533 0.9700 0.9700 0.9700 0.9700 0.9695
3095.254088 0.9690 0.9690 0.9690 0.9690 0.9690
3099.930643 0.9690 0.9690 0.9690 0.9690 0.9690
3104.607198 0.9690 0.9690 0.9690 0.9690 0.9690
3109.283753 0.9681 0.9671 0.9670 0.9670 0.9670
3113.960308 0.9670 0.9670 0.9670 0.9670 0.9670
3118.636863 0.9670 0.9670 0.9670 0.9670 0.9665
3123.313418 0.9660 0.9660 0.9660 0.9660 0.9660
3127.989974 0.9660 0.9660 0.9660 0.9660 0.9660
3132.666529 0.9660 0.9660 0.9660 0.9660 0.9660
3137.343084 0.9660 0.9660 0.9660 0.9660 0.9660
3142.019639 0.9660 0.9660 0.9660 0.9650 0.9640
3146.696194 0.9640 0.9640 0.9640 0.9640 0.9635
3151.372749 0.9630 0.9620 0.9610 0.9605 0.9600
3156.049304 0.9600 0.9600 0.9600 0.9600 0.9595
3160.725859 0.9590 0.9580 0.9570 0.9570 0.9570
3165.402415 0.9570 0.9570 0.9570 0.9570 0.9565
3170.078970 0.9560 0.9560 0.9560 0.9560 0.9560
3174.755525 0.9550 0.9540 0.9540 0.9540 0.9540
3179.432080 0.9540 0.9535 0.9530 0.9530 0.9530
3184.108635 0.9520 0.9510 0.9510 0.9510 0.9510
3188.785190 0.9510 0.9510 0.9510 0.9510 0.9510
3193.461745 0.9510 0.9510 0.9510 0.9510 0.9510
3198.138300 0.9510 0.9520 0.9530 0.9530 0.9530
3202.814856 0.9530 0.9530 0.9535 0.9540 0.9540
3207.491411 0.9540 0.9540 0.9540 0.9540 0.9540
3212.167966 0.9540 0.9540 0.9540 0.9540 0.9540
3216.844521 0.9540 0.9540 0.9540 0.9540 0.9540
3221.521076 0.9540 0.9540 0.9550 0.9560 0.9560
3226.197631 0.9560 0.9565 0.9570 0.9580 0.9590
3230.874186 0.9590 0.9590 0.9595 0.9600 0.9605
3235.550741 0.9610 0.9610 0.9610 0.9620 0.9630
3240.227296 0.9630 0.9630 0.9630 0.9630 0.9630
3244.903852 0.9630 0.9635 0.9640 0.9650 0.9660
3249.580407 0.9660 0.9660 0.9660 0.9660 0.9665
3254.256962 0.9670 0.9670 0.9670 0.9670 0.9670
3258.933517 0.9670 0.9671 0.9681 0.9690 0.9695
3263.610072 0.9700 0.9700 0.9700 0.9700 0.9700
3268.286627 0.9700 0.9700 0.9700 0.9700 0.9700
3272.963182 0.9700 0.9700 0.9700 0.9700 0.9700
3277.639737 0.9700 0.9700 0.9700 0.9700 0.9700
3282.316293 0.9700 0.9695 0.9690 0.9690 0.9690
3286.992848 0.9690 0.9690 0.9690 0.9690 0.9690
3291.669403 0.9690 0.9690 0.9690 0.9690 0.9690
3296.345958 0.9690 0.9690 0.9690 0.9690 0.9690
3301.022513 0.9689 0.9679 0.9670 0.9670 0.9670
3305.699068 0.9670 0.9670 0.9670 0.9670 0.9665
3310.375623 0.9660 0.9660 0.9659 0.9649 0.9640
3315.052178 0.9640 0.9640 0.9640 0.9640 0.9640
3319.728734 0.9640 0.9640 0.9640 0.9635 0.9630
3324.405289 0.9630 0.9630 0.9630 0.9630 0.9630
3329.081844 0.9629 0.9619 0.9610 0.9610 0.9610
3333.758399 0.9610 0.9611 0.9621 0.9630 0.9630
3338.434954 0.9629 0.9619 0.9610 0.9610 0.9610
3343.111509 0.9610 0.9610 0.9610 0.9611 0.9621
3347.788064 0.9630 0.9630 0.9630 0.9630 0.9630
3352.464619 0.9630 0.9630 0.9630 0.9630 0.9630
3357.141174 0.9630 0.9630 0.9630 0.9630 0.9629
3361.817730 0.9619 0.9610 0.9610 0.9610 0.9610
3366.494285 0.9610 0.9610 0.9610 0.9610 0.9611
3371.170840 0.9621 0.9630 0.9630 0.9630 0.9630
3375.847395 0.9630 0.9630 0.9629 0.9619 0.9610
3380.523950 0.9610 0.9610 0.9610 0.9610 0.9610
3385.200505 0.9609 0.9604 0.9600 0.9600 0.9601
3389.877060 0.9606 0.9610 0.9610 0.9610 0.9610
3394.553615 0.9610 0.9610 0.9610 0.9610 0.9610
3399.230171 0.9610 0.9610 0.9610 0.9610 0.9610
3403.906726 0.9610 0.9610 0.9610 0.9610 0.9610
3408.583281 0.9610 0.9610 0.9610 0.9610 0.9610
3413.259836 0.9610 0.9610 0.9610 0.9610 0.9609
3417.936391 0.9604 0.9601 0.9606 0.9610 0.9610
3422.612946 0.9610 0.9610 0.9610 0.9610 0.9610
3427.289501 0.9610 0.9610 0.9610 0.9610 0.9610
3431.966056 0.9612 0.9622 0.9630 0.9630 0.9630
3436.642612 0.9630 0.9630 0.9630 0.9630 0.9630
3441.319167 0.9630 0.9630 0.9630 0.9630 0.9631
3445.995722 0.9636 0.9640 0.9640 0.9640 0.9640
3450.672277 0.9640 0.9640 0.9640 0.9640 0.9640
3455.348832 0.9640 0.9640 0.9640 0.9640 0.9640
3460.025387 0.9642 0.9652 0.9660 0.9660 0.9660
3464.701942 0.9660 0.9661 0.9666 0.9670 0.9670
3469.378497 0.9670 0.9670 0.9670 0.9670 0.9672
3474.055052 0.9682 0.9690 0.9690 0.9690 0.9690
3478.731608 0.9691 0.9696 0.9700 0.9700 0.9700
3483.408163 0.9700 0.9700 0.9700 0.9702 0.9712
3488.084718 0.9721 0.9726 0.9730 0.9730 0.9732
3492.761273 0.9742 0.9750 0.9750 0.9751 0.9756
3497.437828 0.9760 0.9760 0.9760 0.9760 0.9760
3502.114383 0.9760 0.9760 0.9760 0.9760 0.9760
3506.790938 0.9760 0.9760 0.9760 0.9760 0.9760
3511.467493 0.9760 0.9760 0.9760 0.9760 0.9760
3516.144049 0.9763 0.9773 0.9777 0.9767 0.9760
3520.820604 0.9760 0.9760 0.9760 0.9759 0.9754
3525.497159 0.9747 0.9737 0.9730 0.9730 0.9730
3530.173714 0.9730 0.9729 0.9724 0.9720 0.9720
3534.850269 0.9720 0.9720 0.9720 0.9720 0.9720
3539.526824 0.9720 0.9720 0.9720 0.9720 0.9720
3544.203379 0.9720 0.9720 0.9720 0.9720 0.9720
3548.879934 0.9720 0.9720 0.9720 0.9722 0.9727
3553.556490 0.9730 0.9730 0.9730 0.9730 0.9733
3558.233045 0.9743 0.9750 0.9750 0.9750 0.9750
3562.909600 0.9747 0.9737 0.9730 0.9730 0.9730
3567.586155 0.9730 0.9730 0.9730 0.9733 0.9743
3572.262710 0.9750 0.9750 0.9750 0.9750 0.9752
3576.939265 0.9757 0.9763 0.9773 0.9780 0.9780
3581.615820 0.9780 0.9780 0.9780 0.9780 0.9780
3586.292375 0.9780 0.9780 0.9780 0.9780 0.9780
3590.968930 0.9777 0.9767 0.9760 0.9760 0.9760
3595.645486 0.9760 0.9758 0.9753 0.9747 0.9737
3600.322041 0.9723 0.9703 0.9682 0.9657 0.9635
3604.998596 0.9620 0.9607 0.9597 0.9590 0.9590
3609.675151 0.9585 0.9570 0.9555 0.9540 0.9516
3614.351706 0.9476 0.9445 0.9430 0.9415 0.9400
3619.028261 0.9383 0.9363 0.9338 0.9303 0.9247
3623.704816 0.9152 0.9048 0.8927 0.8832 0.8782
3628.381371 0.8728 0.8668 0.8570 0.8405 0.8284
3633.057927 0.8239 0.8201 0.8176 0.8147 0.8112
3637.734482 0.8079 0.8049 0.8019 0.7989 0.7952
3642.411037 0.7902 0.7857 0.7822 0.7794 0.7779
3647.087592 0.7770 0.7770 0.7776 0.7791 0.7802
3651.764147 0.7807 0.7821 0.7851 0.7874 0.7884
3656.440702 0.7903 0.7938 0.7973 0.8008 0.8041
3661.117257 0.8071 0.8107 0.8153 0.8210 0.8285
3665.793812 0.8346 0.8386 0.8434 0.8494 0.8603
3670.470368 0.8788 0.8944 0.9054 0.9165 0.9280
3675.146923 0.9380 0.9455 0.9520 0.9570 0.9602
3679.823478 0.9607 0.9614 0.9624 0.9638 0.9658
3684.500033 0.9680 0.9705 0.9722 0.9727 0.9734
3689.176588 0.9744 0.9756 0.9771 0.9780 0.9780
3693.853143 0.9782 0.9787 0.9792 0.9797 0.9800
3698.529698 0.9800 0.9800 0.9800 0.9800 0.9800
3703.206253 0.9804 0.9814 0.9820 0.9820 0.9820
3707.882808 0.9820 0.9820 0.9820 0.9822 0.9827
3712.559364 0.9830 0.9830 0.9834 0.9844 0.9850
3717.235919 0.9850 0.9850 0.9850 0.9852 0.9857
3721.912474 0.9860 0.9860 0.9860 0.9860 0.9860
3726.589029 0.9860 0.9860 0.9860 0.9860 0.9860
3731.265584 0.9860 0.9860 0.9860 0.9860 0.9860
3735.942139 0.9860 0.9860 0.9860 0.9860 0.9860
3740.618694 0.9860 0.9860 0.9858 0.9853 0.9850
3745.295249 0.9850 0.9850 0.9850 0.9845 0.9835
3749.971805 0.9830 0.9830 0.9830 0.9830 0.9828
3754.648360 0.9823 0.9820 0.9820 0.9815 0.9805
3759.324915 0.9800 0.9800 0.9800 0.9800 0.9800
3764.001470 0.9800 0.9800 0.9800 0.9800 0.9800
3768.678025 0.9800 0.9800 0.9800 0.9800 0.9800
3773.354580 0.9800 0.9798 0.9793 0.9790 0.9790
3778.031135 0.9790 0.9790 0.9790 0.9790 0.9790
3782.707690 0.9790 0.9790 0.9790 0.9788 0.9783
3787.384246 0.9780 0.9780 0.9780 0.9780 0.9780
3792.060801 0.9780 0.9775 0.9765 0.9760 0.9760
3796.737356 0.9760 0.9760 0.9765 0.9775 0.9780
3801.413911 0.9780 0.9780 0.9780 0.9775 0.9765
3806.090466 0.9760 0.9760 0.9760 0.9760
##END=
