##TITLE=2-Propanol
##JCAMP-DX=4.24
##DATA TYPE=INFRARED SPECTRUM
##CLASS=IUPAC A
##ORIGIN=NIST, Anayltical Chemistry Division, 301-975-3108
##OWNER=COPYRIGHT (C) 1998 by the U.S. Secretary of Commerce
##DATE=98/10/1
##$SPECTRA VERSION=1.00
##$UNCERTAINTY IN Y=2.0 % relative (B=1.0E-04,C=6.5E-10,D=2.7E-14)
##CAS NAME=2-Propanol
##CAS REGISTRY NO=67-63-0
##MOLFORM=C H3 C H( O H) C H3
##MP=-89.5 C
##BP=82.4 C
##$NIST SOURCE=QUANT-IR
##SPECTROMETER/DATA SYSTEM=IFS66V (Bruker)
##INSTRUMENT PARAMETERS=KBr Beam splitter; MCT Detector; Multipass cell
##STATE=gas
##SAMPLE DESCRIPTION=2-Propanol Primary Gas Standard
##PRESSURE=101.3 kPa
##TEMPERATURE=23 C
##SAMPLING PROCEDURE=1 L/min Flow
##RESOLUTION=0.9640
##DATA PROCESSING=3-Term B-H Apodization
##XUNITS=cm-1
##YUNITS=(micromol/mol)-1m-1 (base 10)
##XFACTOR=1.0
##YFACTOR=4.5474E-13
##DELTAX=0.4820
##FIRSTX=575.169
##LASTX=3975.077
##FIRSTY=2.58E-06
##MAXX=3974.59
##MINX=575.17
##MAXY=.0006107
##MINY=2.28E-07
##NPOINTS=7053
##XYDATA=(X++(Y..Y))
575.17 5682582 5851104 6082504 6177786 6137080 6199832
577.58 6492624 6809768 6763968 6452870 6269590 6153192
580.47 6121372 6379970 6660994 6623776 6508670 6458766
583.37 6361440 6345428 6497080 6651664 6653462 6609706
586.26 6683970 6771482 6850800 7030108 7163120 7080556
589.15 6995328 7123258 7244166 7039558 6853270 7017856
592.04 7171326 7300624 7592616 7869308 8001886 7925408
594.94 7666068 7550074 7614746 7599206 7647136 7771230
597.83 7849600 7957818 7975202 7867460 7737806 7729758
600.72 7822152 7857596 7894422 7955696 7859148 7688206
603.61 7759062 8101828 8356030 8383406 8296068 8236752
606.51 8214968 8125598 8084542 8183046 8371422 8559432
609.40 8608536 8538146 8483896 8497832 8484502 8419030
612.29 8309564 8286228 8400946 8397688 8289446 8274126
615.18 8432246 8633428 8711106 8706378 8730794 8835584
618.08 8903480 8869988 8823948 8815698 8886812 9066382
620.97 9237744 9225708 8984992 8743884 8672888 8743958
623.86 8935982 9133816 9243446 9313148 9425444 9532012
626.76 9444442 9201946 9063246 9087332 9097868 9023568
629.65 8890674 8779510 8780466 8836458 8888040 8965118
632.54 9050628 9124970 9103868 8977120 8940206 9036400
635.43 9113832 9082950 8999064 8931710 8981678 9122870
638.33 9186380 9210378 9243582 9201206 9050236 9017238
641.22 9108934 9155712 9145836 9128016 9143792 9141352
644.11 9051316 8975200 8979938 8960702 8961474 9031706
647.00 9021702 8921774 8780368 8622596 8581500 8593372
649.90 8527238 8504434 8502462 8466258 8477900 8458034
652.79 8352040 8279510 8278060 8213822 8150848 8123204
655.68 7968986 7881534 8002234 8078830 7994674 7937856
658.58 7922400 7811850 7668414 7644874 7721542 7732896
661.47 7686300 7587524 7450424 7423674 7442706 7434180
664.36 7456594 7502744 7579902 7528986 7195034 6695624
667.25 6416184 6555290 6832230 7044010 7142308 7109470
670.15 7086540 7172258 7252424 7208044 7105820 7068976
673.04 7040192 6994440 7014880 7044340 7016850 6977758
675.93 6949272 6948336 6954820 6841428 6676458 6557060
678.82 6507160 6596802 6668404 6628976 6609362 6662724
681.72 6664044 6562198 6404520 6297306 6337570 6439706
684.61 6452610 6316440 6217402 6301932 6386684 6350502
687.50 6239240 6120060 6131302 6270170 6317634 6288856
690.40 6283418 6196378 6092842 6026738 5942328 5846984
693.29 5750578 5724524 5709572 5669400 5700644 5799358
696.18 5894410 5895204 5818644 5760656 5767466 5843662
699.07 5930858 6039374 6118590 6105166 6023724 5963724
701.97 5999370 6064262 6083062 6069474 6019318 5948624
704.86 5889888 5848392 5851442 5891308 5886414 5764450
707.75 5679628 5675940 5588776 5506676 5505978 5528544
710.64 5582052 5600426 5537152 5447954 5361944 5261766
713.54 5186084 5168428 5116950 5008422 4919144 4887278
716.43 4948036 4994928 4981588 4975714 4938534 4859838
719.32 4817184 4886948 4974016 4941452 4882736 4854364
722.22 4811228 4762022 4740184 4708312 4641130 4598526
725.11 4575632 4529426 4497926 4490564 4422498 4331814
728.00 4293140 4257162 4214738 4217572 4220784 4144554
730.89 4067004 4038338 3982696 3898948 3817314 3730106
733.79 3637778 3583542 3556158 3536406 3539972 3529430
736.68 3491110 3431866 3381644 3386244 3363576 3300340
739.57 3233166 3147558 3084942 3036154 2963322 2949810
742.46 2997124 3005550 3013060 3037326 2987750 2887224
745.36 2858606 2874414 2847006 2796536 2720326 2653060
748.25 2618768 2587854 2580434 2575412 2523638 2460044
751.14 2421246 2422194 2454248 2492430 2519420 2537442
754.04 2514332 2468720 2455540 2418784 2348712 2331564
756.93 2342784 2326572 2309834 2353624 2398662 2370670
759.82 2350858 2319900 2258936 2217600 2196296 2216934
762.71 2285476 2305374 2249106 2236060 2265126 2295744
765.61 2352704 2412184 2439202 2437098 2418560 2380668
768.50 2329040 2303866 2365396 2479342 2541382 2530352
771.39 2511174 2507080 2523210 2567864 2630414 2727538
774.28 2833878 2890742 2962552 3092024 3238766 3350806
777.18 3417820 3492712 3602160 3734216 3907560 4162788
780.07 4408624 4549942 4674964 4879362 5127456 5408380
782.96 5793950 6220820 6645370 7136692 7663102 8140840
785.86 8597524 9104814 9703342 10412130 11145190 11844540
788.75 12629870 13523000 14436470 15354660 16341890 17465670
791.64 18643030 19862530 21154010 22442440 23750500 25118900
794.53 26528440 27951730 29351060 30730450 32146890 33624830
797.43 35149020 36710710 38251780 39638950 40901590 42219260
800.32 43590890 44858260 45999000 47031970 47913460 48704070
803.21 49495490 50214650 50811940 51285290 51750880 52214230
806.10 52538130 52816370 53107510 53411910 53835200 54394180
809.00 55000060 55643740 56325980 56951600 57549790 58216640
811.89 58881340 59438230 59798980 60183250 61488990 63739140
814.78 65357980 65394250 64446040 63288260 61993630 60754680
817.68 59606990 58549630 59235130 61869980 63403560 62308160
820.57 60005110 57894920 56426120 55533020 54994190 54773880
823.46 54796240 54936600 55200980 55633590 56116300 56613220
826.35 57051230 57266470 57346260 57365600 57156090 56669600
829.25 56055620 55368160 54496710 53360330 52050340 50673550
832.14 49210220 47506280 45574800 43633170 41695890 39705600
835.03 37705800 35703410 33735570 31888220 30115790 28312090
837.92 26469230 24757160 23291390 21904240 20514530 19200430
840.82 17983390 16875960 15875340 14932520 13994860 13112200
843.71 12357960 11743060 11161470 10507060 9920578 9440612
846.60 8956510 8500658 8124376 7795230 7477168 7173174
849.50 6896222 6664626 6424786 6153620 5918342 5774148
852.39 5645070 5464130 5334274 5256302 5135172 4979824
855.28 4811572 4655404 4544992 4434218 4325252 4240154
858.17 4146294 4078750 4034490 3991568 3919774 3800266
861.07 3732302 3698970 3624290 3583210 3555728 3498020
863.96 3493114 3520406 3503054 3474460 3432996 3393054
866.85 3387080 3377208 3372774 3383712 3412404 3423080
869.74 3398426 3380736 3358188 3366444 3395296 3341956
872.64 3299994 3354880 3365236 3295464 3257128 3290418
875.53 3312986 3279468 3248530 3253296 3282302 3303122
878.42 3288654 3263900 3285586 3328870 3352274 3389810
881.31 3452724 3498458 3498894 3518482 3561924 3605618
884.21 3662924 3682054 3689070 3731196 3783614 3835556
887.10 3902016 3979838 4036466 4101372 4205058 4316202
889.99 4398902 4463646 4538004 4637376 4765038 4887208
892.89 4966738 5048832 5167362 5286516 5401024 5538350
895.78 5689848 5835866 5992068 6150326 6327102 6522848
898.67 6683698 6830662 7025092 7219680 7399144 7644066
901.56 7921116 8194462 8468284 8717618 9009724 9373838
904.46 9723010 10043130 10362720 10736240 11153720 11549910
907.35 11963940 12436340 12942030 13463680 14024110 14614070
910.24 15205120 15817960 16449370 17128000 17897140 18720790
913.13 19591900 20527990 21545370 22616440 23695970 24834790
916.03 26095320 27458570 28930110 30550850 32347110 34294960
918.92 36318670 38255460 40008830 41797780 43908450 46369320
921.81 49047120 51857110 54836080 58024380 61404680 65002280
924.71 68859460 72946910 77236860 81758340 86566510 91685660
927.60 97082540 102813400 108933600 115196500 121444400 128021600
930.49 135041200 142309900 149829000 157559400 165490700 173699500
933.38 182054500 190374900 198813600 207499700 216224900 224862000
936.28 233308600 241369500 249022800 256367500 263315100 269759800
939.17 275729100 281252400 286336700 290921600 294995200 298522300
942.06 301479800 304069700 306417400 308212200 309383500 310428200
944.95 311723900 313190500 314729700 316727900 319331700 322693100
947.85 327029100 332076800 337829000 344094600 350450500 356660900
950.74 362398800 367424400 372117500 376448000 378183400 376387600
953.63 374049200 372283600 366968900 357995800 359574900 378110400
956.53 393290300 388407500 369346400 349289500 335710200 327800400
959.42 321523700 315646900 311523600 309784400 309983500 311662800
962.31 314335200 317415300 320544400 323466600 325751000 327161300
965.20 327636800 327087300 325336400 322250700 317860600 312281000
968.10 305826900 298474200 289970700 280542300 270423100 259564700
970.99 248048500 236155800 224103100 211994300 199849300 187751500
973.88 175801500 164190200 153148300 142641100 132529000 122896400
976.77 113823400 105267400 97217200 89742440 82853980 76480730
979.67 70582730 65189560 60246180 55678910 51493520 47705640
982.56 44293900 41223860 38436430 35900870 33598750 31517090
985.45 29632930 27907970 26322690 24924120 23740710 22675000
988.35 21688650 20830390 20081610 19363200 18657240 18000280
991.24 17387800 16843460 16385430 15944660 15484350 15071100
994.13 14721620 14411750 14141430 13901380 13666360 13436680
997.02 13232160 13045340 12842910 12663710 12531980 12415200
999.92 12287310 12150980 12054650 12016440 11993640 11948980
1002.81 11878540 11817580 11754280 11681810 11630440 11598530
1005.70 11565630 11552990 11558410 11555450 11547700 11523670
1008.59 11462220 11415000 11390320 11369770 11352790 11346960
1011.49 11343050 11305690 11254150 11230080 11196190 11145570
1014.38 11131750 11145610 11164570 11234330 11343820 11458010
1017.27 11565370 11693380 11882450 12114940 12367980 12603980
1020.17 12790590 12940890 13087320 13260960 13473080 13728700
1023.06 13979960 14234710 14495090 14748560 15016750 15340870
1025.95 15724440 16075840 16364480 16699870 17127370 17575360
1028.84 18014300 18495720 19050280 19632580 20201590 20775100
1031.74 21373530 22037500 22763540 23485660 24235150 25116970
1034.63 26113840 27161160 28211660 29274470 30435850 31714160
1037.52 33037880 34435720 35945600 37539190 39180020 40890940
1040.41 42713320 44602630 46557600 48711100 51083670 53614300
1043.31 56319530 59244930 62406040 65705920 69005580 72346440
1046.20 75785290 79254140 82783740 86459540 90262260 94232870
1049.09 98374470 102582900 106785500 111057000 115469100 119982200
1051.99 124549700 129126900 133639700 138066400 142475400 147017200
1054.88 151746100 156686400 161745600 166722000 171506600 176103600
1057.77 180562200 184962400 189414000 193848900 198021600 201710800
1060.66 204586600 206825800 208988800 211387300 214151300 217284800
1063.56 220726400 224294000 227777200 231616100 236658000 243237500
1066.45 250243500 256136300 261366500 267145200 272987900 277474700
1069.34 279852600 281340100 285424200 292177200 295098800 296570200
1072.23 300847900 300529600 294198100 287679800 283550800 281495200
1075.13 279971100 277911300 276689900 277898500 279895600 280386500
1078.02 280233100 279474100 277344500 275630700 275112500 274632200
1080.91 274334600 274237100 273098500 270655600 267493600 264559800
1083.81 262873200 262332700 262095100 261599100 260563600 259041600
1086.70 257595300 256592900 255793600 254702900 252910300 250318100
1089.59 246886900 242510100 237578200 232642600 227740700 222808000
1092.48 217859400 212782600 207686400 202644900 197725600 193054900
1095.38 188475100 183843100 179302600 174974200 170815200 166792200
1098.27 162937500 159356500 156076600 153065200 150293000 147743200
1101.16 145396900 143278300 141424700 139780600 138325400 137110900
1104.05 136157100 135462900 135022600 134842300 134895000 135107500
1106.95 135496200 136148900 137012500 137976600 139082200 140339700
1109.84 141690600 143199600 144929400 146777300 148689400 150724400
1112.73 152955000 155352200 157881700 160569800 163218100 165650000
1115.63 167979300 170343300 172906300 175737000 178654300 181632400
1118.52 184739300 187848600 190843700 193762900 196668300 199532100
1121.41 202354500 205203800 208265600 211469200 214582200 217697400
1124.30 220993400 224497900 228098200 231503500 234288800 236710700
1127.20 239869100 244547800 249712300 252645100 252821900 253903500
1130.09 257838200 262450200 266256100 267362400 264870400 263588200
1132.98 266453600 271268100 276379800 281298800 286002100 290817900
1135.87 296300300 303124600 308614100 310273100 310120400 311082600
1138.77 313648100 316524100 319146100 321460200 323782500 326547500
1141.66 329939100 333855200 338133000 342531300 346647400 350395300
1144.55 354154000 358285900 362852100 367581600 372387800 377168200
1147.45 381779800 385865600 389006700 391478000 393599100 395375600
1150.34 396711500 397371000 397410000 397073400 396464900 395646800
1153.23 394712200 393633700 392494700 391298600 389924700 388205700
1156.12 385915800 383108300 380132600 376993500 373547300 369962900
1159.02 366564800 363403200 360485400 357771400 354894200 351769800
1161.91 349580400 349505200 349669800 346620100 340803700 334205900
1164.80 326984500 320320900 315740200 312825900 310189700 307449700
1167.69 304796700 300811300 294407800 287558500 281469700 275612700
1170.59 270252700 265601700 261314900 256879900 251706200 246200900
1173.48 241243000 236824100 232645100 228545000 224416300 220179000
1176.37 215889100 211575100 207186600 202766400 198269400 193569200
1179.26 188614800 183472700 178202800 172743900 167252800 161964300
1182.16 156875000 151758100 146483200 141210300 136008200 130860300
1185.05 125768900 120771300 115928500 111218500 106631000 102252000
1187.94 98149570 94226260 90435740 86846600 83495170 80355020
1190.84 77424180 74643420 71993260 69563090 67339900 65222210
1193.73 63201330 61319420 59578260 57916060 56313420 54780160
1196.62 53366480 52100550 50920900 49766360 48665190 47698350
1199.51 46876770 46127860 45446200 44859980 44336510 43815370
1202.41 43321130 42903390 42546840 42187120 41885860 41746430
1205.30 41774410 41824420 41771620 41668300 41657160 41812400
1208.19 42085490 42399760 42770780 43203980 43682050 44255530
1211.08 44937340 45641690 46291140 46861760 47523280 48472460
1213.98 49740560 51173380 52523600 53694780 54842680 56098890
1216.87 57488000 59011210 60679020 62479550 64419730 66519560
1219.76 68760060 71060050 73396880 75845580 78463510 81191630
1222.66 84032160 86991790 90053160 93281660 96719550 100317600
1225.55 104004300 107748100 111607800 115614300 119759200 124070100
1228.44 128510200 132939000 137348400 141734400 146046000 150277600
1231.33 154491400 158736000 162986100 167213800 171401400 175546200
1234.23 179707300 183844500 187864900 191663500 195246600 198613700
1237.12 201658900 204194900 206189900 207806100 209157600 210300800
1240.01 211418800 212791100 214414000 215782100 216189400 215454600
1242.90 214540600 214394000 215197700 216582900 218232800 220258400
1245.80 223111800 227222100 232316000 237618700 242879500 247939500
1248.69 252426500 257082900 263420900 269794900 272585400 274165000
1251.58 273236500 262358800 253268300 254862200 256185900 252088300
1254.48 245604600 239431000 234496800 230511700 227074900 224170200
1257.37 221711300 219554600 217858400 216625500 215773500 215145600
1260.26 214306600 213532000 213245900 213196100 212849900 211797600
1263.15 209936900 207220900 203646100 199849800 196230400 192545900
1266.05 188673000 184634500 180374700 175771800 170808100 165755700
1268.94 160732200 155684700 150675600 145742500 140897500 136120100
1271.83 130993900 125398300 120025700 115385800 111350500 107594200
1274.72 103812100 99896350 95960170 92141710 88501410 85062730
1277.62 81879180 78958340 76189600 73567890 71131670 68847170
1280.51 66705340 64701440 62787160 60949630 59236740 57646880
1283.40 56103880 54576460 53085940 51686360 50379080 49112310
1286.30 47898660 46777740 45738220 44729840 43711850 42725100
1289.19 41787820 40905680 40097600 39327480 38586430 37956370
1292.08 37418940 36899380 36407000 35960090 35561710 35228730
1294.97 34950740 34726760 34534240 34361850 34215840 34075770
1297.87 33927400 33757970 33586610 33449460 33337210 33245170
1300.76 33178790 33148800 33152160 33171650 33179510 33184090
1303.65 33214830 33275270 33361680 33483810 33627560 33788580
1306.54 33978500 34177060 34346500 34536830 34786280 35069640
1309.44 35388780 35765580 36182970 36582760 36975580 37399470
1312.33 37848790 38322450 38847930 39445710 40132270 40878520
1315.22 41643830 42469020 43286180 43990440 44664860 45438600
1318.12 46231730 46957750 47724820 48633120 49676500 50788980
1321.01 51899080 52961850 53950580 54917120 55950360 57078610
1323.90 58294610 59585850 60942720 62349310 63777120 65252420
1326.79 66807130 68396170 69962470 71534730 73132370 74692900
1329.69 76216780 77726110 79145560 80476690 81764370 83008240
1332.58 84259700 85617000 87004700 88091950 88915780 89914070
1335.47 91161310 92427300 93568560 94679150 95947300 97418500
1338.36 98800220 99781590 100639800 101878500 103501800 105210200
1341.26 106936000 108647800 110198000 111441100 112117900 111966600
1344.15 111185400 110593800 111410100 114279800 118266500 121402300
1347.04 122559700 122301400 122036100 122659900 123897300 125284500
1349.94 126775200 128488700 130526800 132739000 135040200 137547600
1352.83 140379400 143546000 146762000 149735400 152465700 155075600
1355.72 157668500 160160500 162360000 164368700 166428800 168620400
1358.61 170919100 173385400 175978700 178452600 180788500 183313100
1361.51 186093800 189013300 192202000 195739500 199512800 203379200
1364.40 207368100 211618200 216189200 221049800 226261300 231921300
1367.29 238016600 244454200 251067800 257887500 265345100 273832900
1370.18 283160600 292683000 302547400 313468300 322770300 326783800
1373.08 328583200 332689200 338940900 346004800 353393300 360955700
1375.97 368347800 375313300 382151600 389173000 396608900 404884300
1378.86 414034500 422794300 429359000 434151000 439158500 444651600
1381.76 446573300 440905800 432163600 425986200 421948900 419212800
1384.65 417882900 417004600 415856400 414702800 413467100 411176800
1387.54 407649800 403759500 399937600 396306100 394077900 395129500
1390.43 398921100 402597000 404511900 405104200 404811400 402582000
1393.33 397727400 391312700 383457100 373985000 364363200 355442800
1396.22 346681000 337654600 328402300 319002000 309689700 300200900
1399.11 289957200 279637300 269528300 259059000 248658700 238782500
1402.00 229046300 219319400 210000100 201388500 193498400 186112000
1404.90 179033900 172298800 166045100 160300600 154953900 149878400
1407.79 144876100 139749800 134648000 129746600 125008800 120400200
1410.68 115965700 111736700 107716300 103878200 100179600 96635930
1413.58 93191110 89768970 86477170 83424700 80582880 77938140
1416.47 75539130 73352180 71211690 69053520 67023730 65137980
1419.36 63270100 61481290 59840040 58336600 56987000 55761450
1422.25 54639700 53654170 52814910 52076290 51414950 50827050
1425.15 50266300 49656660 49011230 48447860 48004370 47663830
1428.04 47431920 47272360 47194380 47188260 47191360 47244910
1430.93 47405380 47623340 47900610 48291280 48776040 49261160
1433.82 49649800 50006660 50469500 51043370 51714340 52403190
1436.72 52974370 53523040 54177640 54897770 55649580 56421380
1439.61 57187210 57946460 58740480 59524590 60263990 60978050
1442.50 61660190 62312250 62992110 63725420 64472960 65224460
1445.40 65997580 66800910 67624270 68440820 69304260 70258960
1448.29 71337710 72418940 73512310 74750510 75701990 76077450
1451.18 76550010 77660620 79430720 81767160 84624820 87807290
1454.07 90805450 93693810 95832620 96463940 97709720 100827600
1456.97 105065500 108212500 108966900 110331100 113871300 118282800
1459.86 122972700 127796200 132718800 138185700 144108600 149039200
1462.75 149304000 142420900 130123400 114392700 99297420 88525510
1465.64 81713990 77843450 75615780 74300370 74591690 77021320
1468.54 81492110 87933930 96201720 105629100 116142500 128576400
1471.43 140150800 149392300 161029900 166045500 151585400 129623300
1474.32 113706900 102171700 93037690 86388180 81212940 77142730
1477.21 74215060 72127570 70535240 69246840 68211320 67423030
1480.11 66828820 66355810 65897970 65438420 65050010 64724800
1483.00 64362620 63948100 63489140 63006580 62503970 61934710
1485.89 61280080 60598880 59891860 59091670 58196500 57271730
1488.79 56316830 55325860 54281580 53148600 51887680 50543200
1491.68 49236720 47974460 46643220 45200710 43666030 42093690
1494.57 40586610 39253660 38054540 36752990 35347420 34039620
1497.46 32819640 31657850 30505980 29300790 28109860 27032160
1500.36 26021590 24899830 23625530 22395980 21351860 20437770
1503.25 19540170 18677550 17934120 17333350 16716080 16000400
1506.14 15406170 14858970 14174370 13538480 13013970 12508760
1509.03 12052730 11625710 11185120 10769860 10425110 10129840
1511.93 9776756 9383036 9046144 8773102 8540890 8315572
1514.82 8060140 7826542 7666912 7531062 7364552 7148514
1517.71 6909600 6699958 6542308 6442372 6350688 6274232
1520.61 6244222 6088526 5837378 5683052 5541864 5394362
1523.50 5293800 5214436 5162192 5114084 4997128 4877752
1526.39 4827442 4784136 4708684 4637516 4561650 4499228
1529.28 4478740 4471260 4438056 4366494 4256906 4152708
1532.18 4101964 4097320 4092250 4028926 3920556 3827440
1535.07 3756682 3715398 3691958 3659466 3630182 3646946
1537.96 3758780 3881658 3831540 3758926 3728946 3605352
1540.85 3540146 3599614 3593518 3495372 3438696 3404582
1543.75 3361804 3361820 3370154 3315148 3237200 3195074
1546.64 3165404 3128550 3095306 3062172 3041784 3034688
1549.53 3006436 2954772 2905898 2871420 2848832 2849768
1552.43 2858102 2861340 2901958 2933250 2874612 2811772
1555.32 2780762 2753298 2762082 2811394 2863270 2962776
1558.21 2993070 2878050 2877870 2943880 2811074 2613500
1561.10 2539976 2536370 2533446 2498966 2463492 2465458
1564.00 2487410 2494234 2463528 2420844 2396860 2392826
1566.89 2390306 2385822 2399976 2433288 2481210 2505664
1569.78 2451748 2382318 2349436 2344684 2347004 2338982
1572.67 2326156 2304592 2284364 2271668 2291926 2426844
1575.57 2613556 2588514 2405308 2296222 2275866 2282940
1578.46 2271350 2245922 2254548 2281838 2274308 2250594
1581.35 2238344 2237716 2239896 2233124 2219854 2216724
1584.25 2205896 2180642 2165698 2165698 2162168 2148088
1587.14 2138590 2148288 2162366 2165190 2160926 2170766
1590.03 2193832 2195900 2189330 2190840 2182220 2178650
1592.92 2182394 2175466 2166510 2167890 2177360 2183118
1595.82 2166816 2141496 2128606 2118882 2113762 2114370
1598.71 2106000 2087582 2073090 2070248 2056130 2040140
1601.60 2043830 2037092 2024230 2030164 2028482 2015354
1604.49 2009626 2023502 2038476 2025254 2005208 1995168
1607.39 1981104 1973760 1988752 2012058 2030194 2027366
1610.28 2012778 2007888 1995690 1982510 1995258 2005428
1613.17 1993874 1984836 1993994 2013770 2042754 2137028
1616.07 2283336 2274192 2118474 2031278 2037852 2074446
1618.96 2091688 2066570 2045810 2062978 2067934 2053146
1621.85 2050510 2077360 2130278 2144886 2110214 2090010
1624.74 2092818 2101102 2119942 2143602 2170112 2205160
1627.64 2205656 2187118 2188884 2192604 2212472 2254664
1630.53 2290194 2332834 2371336 2380938 2379322 2411188
1633.42 2480328 2555110 2630224 2700362 2660252 2520752
1636.31 2468010 2490246 2492474 2484960 2480490 2491832
1639.21 2528936 2577280 2619898 2651968 2675800 2685500
1642.10 2697764 2722812 2763468 2814142 2869844 2948874
1644.99 3094182 3205742 3149246 3093690 3137332 3169060
1647.89 3166718 3159100 3168942 3197484 3219004 3223712
1650.78 3244028 3373726 3603788 3746654 3754514 3642170
1653.67 3541722 3530280 3490060 3443986 3433340 3437116
1656.56 3440902 3439364 3439270 3449168 3456446 3465668
1659.46 3480386 3497628 3525526 3566296 3610468 3674828
1662.35 3716852 3698106 3693156 3719016 3750266 3788014
1665.24 3804136 3781282 3760544 3762842 3776114 3801392
1668.13 3844726 3898262 3875272 3770162 3714864 3760570
1671.03 3827940 3821948 3774402 3743604 3728162 3713746
1673.92 3744492 3847450 3902378 3843196 3753494 3697074
1676.81 3675208 3648482 3631838 3653228 3691138 3702590
1679.71 3645024 3564922 3526556 3522776 3542102 3589526
1682.60 3644114 3670098 3734608 3884744 3879328 3674368
1685.49 3558236 3554396 3553304 3533272 3521732 3529228
1688.38 3531934 3520918 3507260 3483334 3450040 3413390
1691.28 3389396 3395010 3418380 3423056 3404060 3399898
1694.17 3440932 3570554 3763232 3760440 3565008 3471400
1697.06 3469728 3457714 3443062 3465698 3598694 3753348
1699.95 3768692 3660998 3511622 3427540 3419862 3416118
1702.85 3407396 3433498 3476972 3481310 3456114 3464270
1705.74 3489642 3474154 3445824 3447648 3474440 3503496
1708.63 3520396 3555848 3611666 3635986 3641718 3663288
1711.53 3675706 3662318 3657044 3689148 3727894 3744342
1714.42 3766478 3762570 3709228 3696562 3806512 3947916
1717.31 3930980 3879300 3918280 3954678 3971238 3982506
1720.20 3990442 4003616 4016786 4007672 3970750 3947762
1723.10 3953086 3962752 3987192 4017160 4033000 4050008
1725.99 4072994 4103642 4111964 4095134 4102148 4126216
1728.88 4167018 4241076 4329868 4443990 4588780 4694398
1731.77 4740432 4814410 4917774 4928988 4934556 4958634
1734.67 4869778 4772154 4743292 4730980 4732048 4774282
1737.56 4847136 4913360 4978362 5087228 5172700 5193790
1740.45 5225628 5303224 5419792 5544822 5666476 5790110
1743.34 5907882 6030084 6136850 6224408 6336222 6461774
1746.24 6578094 6703884 6840652 6959102 7063460 7180526
1749.13 7292888 7417454 7590400 7777452 7874240 7885484
1752.02 7923586 8005364 8098124 8175280 8241406 8321284
1754.92 8384150 8418474 8452590 8467978 8452056 8456800
1757.81 8488218 8510676 8507396 8499812 8508746 8517258
1760.70 8558820 8631532 8634804 8593002 8578690 8586600
1763.59 8617110 8655384 8687234 8728302 8767240 8791266
1766.49 8805090 8827632 8861976 8833488 8741818 8691676
1769.38 8727808 8765312 8700836 8609450 8667334 8826236
1772.27 8723624 8297664 7930908 7755610 7633502 7520986
1775.16 7438260 7389938 7377284 7369090 7362230 7376076
1778.06 7408790 7467034 7522360 7535170 7517082 7448560
1780.95 7325598 7207394 7087318 6930140 6758616 6587188
1783.84 6398556 6176240 5915228 5635156 5358760 5090610
1786.74 4831010 4587708 4337604 4072124 3808422 3568590
1789.63 3373240 3196644 3003596 2810740 2672068 2574700
1792.52 2410692 2208846 2072014 1979072 1885098 1796056
1795.41 1727028 1669566 1606668 1533670 1476266 1441440
1798.31 1410140 1383458 1339794 1263432 1220102 1225626
1801.20 1210972 1179922 1157326 1133394 1117150 1107304
1804.09 1111312 1135824 1157960 1155610 1151970 1159730
1806.98 1164656 1160230 1152262 1158164 1179054 1195930
1809.88 1214346 1225542 1227518 1246936 1275052 1291610
1812.77 1300260 1297128 1280812 1271042 1278496 1301226
1815.66 1327856 1344238 1347510 1336964 1330960 1337984
1818.56 1342648 1337074 1333276 1342406 1341514 1335584
1821.45 1351140 1377102 1394660 1405560 1417358 1440646
1824.34 1483572 1506966 1486146 1453142 1444262 1455534
1827.23 1452980 1450540 1479118 1517216 1554540 1576972
1830.13 1554034 1536800 1565398 1586646 1584814 1590080
1833.02 1583638 1562746 1567094 1586134 1584880 1555750
1835.91 1525246 1518164 1517150 1500764 1476994 1456578
1838.80 1450872 1461768 1461192 1450336 1445926 1436236
1841.70 1422702 1412736 1420292 1477750 1533648 1488596
1844.59 1414476 1392312 1387394 1376858 1364388 1364560
1847.48 1362510 1358670 1355590 1331852 1308310 1313698
1850.38 1335074 1352526 1352034 1352900 1374600 1401654
1853.27 1422180 1452456 1497846 1550834 1614664 1713480
1856.16 1850250 1980982 2052184 2029768 1944136 1866314
1859.05 1829106 1835474 1857848 1860190 1880270 1927220
1861.95 1960920 1985520 2013996 2033270 2036606 2025700
1864.84 2017636 2028682 2046954 2064308 2094474 2138638
1867.73 2173656 2229008 2319336 2358670 2357944 2387152
1870.62 2440088 2503738 2570204 2647908 2737114 2818090
1873.52 2889294 2950236 3000810 3034484 3053006 3086702
1876.41 3130756 3165324 3206056 3263472 3336616 3400580
1879.30 3441342 3495012 3578746 3665072 3737984 3790968
1882.20 3833418 3890436 3945676 3980200 4023882 4094940
1885.09 4165800 4230624 4301878 4371042 4445572 4526694
1887.98 4608692 4687868 4752834 4793430 4821022 4855834
1890.87 4891072 4928476 4963780 4979784 4989444 5003232
1893.77 5027286 5054248 5063106 5073926 5098912 5110746
1896.66 5106842 5100012 5111416 5145774 5171298 5188362
1899.55 5206124 5219750 5236374 5260400 5271962 5273944
1902.44 5281810 5269442 5255534 5294852 5348110 5331344
1905.34 5236488 5107752 5010508 5061034 5209880 5186816
1908.23 4944764 4709676 4567218 4449420 4336450 4243968
1911.12 4184932 4145780 4098166 4075966 4067464 4003712
1914.02 3914314 3856876 3834896 3813838 3765828 3714994
1916.91 3688640 3655008 3565788 3448214 3362268 3287598
1919.80 3181386 3052520 2944870 2862636 2762422 2635942
1922.69 2507312 2376472 2260800 2159526 2045968 1925072
1925.59 1815164 1699256 1573748 1475592 1397866 1317284
1928.48 1240294 1172458 1099742 1011026 932438 888754
1931.37 857514 826806 797094 754832 699780 647290
1934.26 615442 613742 608472 577320 561488 569584
1937.16 568308 565356 578708 587574 584104 563498
1940.05 544328 551780 558992 562592 561786 527098
1942.94 487116 477182 480946 488328 503334 519632
1945.84 524254 519408 526440 539168 542314 542148
1948.73 550876 559032 560348 571360 594642 614982
1951.62 625916 635936 654652 678768 714244 743568
1954.51 758818 773688 781578 788144 788886 788312
1957.41 797300 799542 794708 791074 790960 808200
1960.30 833374 848914 863018 875216 888612 906190
1963.19 920254 924918 928756 930004 936296 952682
1966.08 962590 968602 962030 947902 951040 963642
1968.98 969302 986410 1014628 1022574 1012734 1007730
1971.87 1022218 1047562 1073440 1103386 1139390 1148432
1974.76 1124382 1112578 1130138 1153960 1170522 1178608
1977.66 1181472 1193838 1228136 1253968 1245146 1224544
1980.55 1215422 1212258 1217022 1240776 1265562 1276750
1983.44 1277552 1278462 1281784 1271540 1247138 1217308
1986.33 1192288 1166908 1143064 1124948 1110158 1107268
1989.23 1100148 1083626 1090110 1103226 1101666 1110264
1992.12 1122248 1116044 1108834 1104024 1095316 1103148
1995.01 1130846 1147648 1138076 1137372 1150410 1151068
1997.90 1150290 1150214 1141996 1143422 1156202 1169756
2000.80 1174024 1174394 1191562 1217736 1227942 1211976
2003.69 1198860 1214484 1239122 1247666 1249500 1271810
2006.58 1318458 1361554 1380786 1381074 1374212 1377148
2009.48 1386446 1405368 1444938 1468472 1454998 1427436
2012.37 1417806 1431808 1458306 1471414 1470114 1484094
2015.26 1506306 1524244 1542414 1536354 1510774 1510820
2018.15 1529190 1549862 1570224 1576952 1593542 1617230
2021.05 1641722 1671688 1684430 1677438 1678284 1693626
2023.94 1722636 1742078 1737582 1747926 1777188 1802178
2026.83 1804968 1787412 1776772 1768648 1753886 1756408
2029.72 1792742 1820694 1804708 1782360 1766948 1741062
2032.62 1728862 1722046 1709910 1717414 1733784 1736148
2035.51 1726380 1720652 1717966 1724212 1745630 1746508
2038.40 1726414 1721268 1724082 1714696 1708422 1711440
2041.29 1715420 1707710 1698146 1687734 1662414 1651222
2044.19 1656302 1644264 1628022 1621438 1597216 1571656
2047.08 1575212 1583804 1580136 1569466 1567970 1585278
2049.97 1618222 1636122 1628128 1626216 1627128 1628958
2052.87 1654540 1679402 1693508 1722030 1758088 1782992
2055.76 1805386 1826920 1852242 1877214 1883104 1887904
2058.65 1923742 1974488 1993102 1976056 1974110 2003724
2061.54 2047060 2090756 2137032 2187448 2233500 2256174
2064.44 2254272 2264760 2274934 2285118 2333720 2384086
2067.33 2412094 2478520 2563866 2566048 2540088 2555766
2070.22 2586168 2616980 2649732 2680368 2739572 2820624
2073.11 2815016 2749564 2720198 2718858 2750280 2794742
2076.01 2831306 2895866 2989882 2995744 2930914 2901692
2078.90 2900600 2919706 2948462 2955532 2990086 3086258
2081.79 3093124 3005856 2961484 2931280 2897692 2894916
2084.69 2920980 3007174 3150430 3148516 2994614 2893978
2087.58 2870362 2850428 2811114 2786960 2862498 2996606
2090.47 2959808 2802962 2734870 2727612 2709688 2681384
2093.36 2682994 2792822 2908352 2803446 2621280 2532158
2096.26 2495878 2486988 2496612 2546968 2700396 2756358
2099.15 2555758 2387524 2339266 2295376 2268270 2288042
2102.04 2395464 2566394 2515422 2253638 2099156 2044978
2104.93 2016006 1994130 1988528 2126446 2294524 2150984
2107.83 1899698 1816158 1809154 1795734 1773440 1830970
2110.72 2052054 2131052 1904392 1724056 1676598 1661136
2113.61 1657568 1683754 1860054 2055770 1904026 1614256
2116.51 1507784 1507678 1521612 1539590 1657212 1907178
2119.40 1947094 1713142 1565250 1543554 1530944 1505396
2122.29 1559418 1781868 1922532 1752236 1569916 1526958
2125.18 1515238 1506864 1548948 1720628 1911524 1846064
2128.08 1669444 1608230 1612370 1622360 1648676 1765698
2130.97 1927132 1915908 1798812 1775908 1811276 1861836
2133.86 1921626 2017754 2173958 2246432 2219778 2234588
2136.75 2283422 2321744 2351750 2353028 2315652 2222714
2139.65 2113668 2077716 2083334 2059606 2022928 2007942
2142.54 2001780 2004870 2035450 2072256 2104654 2136072
2145.43 2179616 2247856 2329844 2361122 2347310 2362278
2148.33 2388660 2418952 2465634 2566966 2698194 2679402
2151.22 2582142 2568290 2599810 2631658 2691870 2861460
2154.11 2979986 2836276 2671010 2654866 2669968 2680912
2157.00 2797864 3062672 3154080 2969752 2841224 2825374
2159.90 2836328 2906120 3144170 3436562 3401914 3186448
2162.79 3113482 3117282 3135382 3239842 3531634 3671772
2165.68 3408460 3167718 3144466 3178870 3214078 3393712
2168.57 3658598 3551714 3215566 3066614 3051184 3061152
2171.47 3168548 3466266 3546872 3246180 3043752 3023960
2174.36 3036174 3105084 3359442 3570480 3388522 3145634
2177.25 3099882 3113694 3140370 3316634 3571194 3510926
2180.15 3298180 3265100 3321494 3365078 3527356 3795050
2183.04 3760622 3503232 3411000 3427050 3440760 3554136
2185.93 3791628 3806284 3602188 3541926 3583832 3614456
2188.82 3738966 3967372 3993742 3828182 3756156 3761748
2191.72 3797514 3914198 4081356 4062464 3894958 3810238
2194.61 3792068 3804578 3912044 4031660 3949252 3789144
2197.50 3724958 3673484 3627856 3663166 3683068 3552076
2200.39 3417374 3375298 3353736 3381708 3472852 3468888
2203.29 3347586 3260914 3205928 3151676 3143452 3165988
2206.18 3103766 2996944 2958782 2934426 2897002 2897012
2209.07 2900456 2833244 2747636 2705000 2669878 2630388
2211.97 2601834 2535882 2435374 2349264 2271432 2208540
2214.86 2169296 2106024 2005944 1937000 1894252 1813818
2217.75 1734756 1688134 1620458 1537794 1488036 1463300
2220.64 1427306 1371958 1310420 1261626 1232286 1200606
2223.54 1174762 1166194 1147578 1107386 1065888 1040490
2226.43 1035106 1024570 993704 959514 941890 939122
2229.32 936912 933144 927738 918802 898168 862606
2232.21 853198 878960 899962 901858 895666 888200
2235.11 888076 889528 893378 904706 929638 959798
2238.00 953834 897408 851814 850796 867716 877786
2240.89 884166 893130 897646 894990 890180 894974
2243.79 903050 897948 899726 917358 941202 958716
2246.68 975964 981938 975208 990696 1018078 1017226
2249.57 1013300 1024930 1038002 1051042 1067182 1089006
2252.46 1112252 1107080 1091194 1093946 1114896 1144228
2255.36 1166468 1174388 1170510 1155374 1151328 1174128
2258.25 1207942 1246500 1274790 1278254 1278040 1289908
2261.14 1318138 1352864 1398672 1464708 1541558 1583594
2264.03 1586218 1597332 1609128 1597636 1580118 1574326
2266.93 1598736 1634976 1663108 1693338 1720828 1717536
2269.82 1722658 1777988 1837322 1865954 1888194 1913370
2272.71 1936920 1965444 1987164 2002884 2024706 2044592
2275.61 2097924 2191878 2263674 2314328 2375306 2418768
2278.50 2453576 2517114 2608058 2687912 2723932 2734066
2281.39 2768626 2797186 2802222 2830010 2868638 2903612
2284.28 2958116 3033216 3105830 3141432 3172294 3225278
2287.18 3258168 3290480 3355584 3395806 3418392 3474226
2290.07 3545222 3596300 3633328 3684538 3748982 3801030
2292.96 3860410 3939172 4023314 4108870 4179786 4225890
2295.85 4282622 4355114 4408528 4443318 4497572 4583908
2298.75 4674808 4732254 4759412 4796460 4852658 4905268
2301.64 4957762 4995632 5023534 5058576 5110554 5166004
2304.53 5216000 5265446 5329144 5372974 5405160 5481032
2307.43 5546642 5552274 5548150 5605498 5714700 5767978
2310.32 5756792 5793414 5887476 5924482 5854154 5758186
2313.21 5769874 5805618 5732448 5654052 5722430 5788940
2316.10 5702070 5577270 5619682 5744274 5702828 5544366
2319.00 5568948 5716566 5688930 5529278 5569414 5753738
2321.89 5692408 5423822 5386092 5561232 5514086 5258240
2324.78 5255258 5465638 5364998 5046850 5099920 5340556
2327.67 5146960 4790516 4906022 5136842 4872526 4576228
2330.57 4810174 4998090 4671816 4526178 4872882 4888766
2333.46 4425884 4345634 4585278 4325790 3874200 3993746
2336.35 4181038 3829644 3634452 3916766 3861640 3462578
2339.24 3486202 3638958 3307428 3031614 3195208 3148304
2342.14 2814756 2812786 2911902 2708476 2603096 2715192
2345.03 2643752 2484108 2515598 2535772 2449632 2423176
2347.92 2420478 2359796 2266978 2184812 2152120 2068480
2350.82 1909526 1891836 1873708 1659232 1612938 1673600
2353.71 1491442 1450628 1520088 1287004 1255100 1406900
2356.60 1182266 1120260 1241766 1022802 1042638 1165944
2359.49 945600 1025214 1083428 873798 1031646 1037756
2362.39 895722 1075912 1011458 978216 1122334 1045996
2365.28 1146386 1164044 1077282 1232530 1229260 1277564
2368.17 1368724 1347382 1428968 1423482 1467108 1524098
2371.06 1544648 1655398 1703530 1775138 1854334 1933564
2373.96 1998840 2044966 2136898 2218736 2256312 2212730
2376.85 2174418 2193322 2217088 2217822 2240766 2282464
2379.74 2309872 2335172 2357374 2355684 2345944 2345694
2382.64 2350728 2348394 2357556 2381504 2390906 2396216
2385.53 2415856 2434132 2448250 2464190 2488944 2522074
2388.42 2562104 2604592 2653576 2711396 2730574 2699844
2391.31 2678414 2700126 2747396 2761240 2735076 2712982
2394.21 2707822 2706740 2691420 2666806 2645592 2615732
2397.10 2583596 2569182 2584278 2598880 2595764 2591656
2399.99 2594386 2581416 2537222 2492664 2477050 2483928
2402.88 2502040 2514870 2511342 2499768 2486154 2482268
2405.78 2480646 2473948 2477828 2482378 2478986 2488136
2408.67 2497746 2496838 2509488 2562610 2638124 2661268
2411.56 2643802 2649276 2666976 2671284 2670768 2661090
2414.46 2662698 2723100 2806788 2836934 2826940 2831130
2417.35 2826732 2780804 2732642 2713958 2721860 2732956
2420.24 2713528 2673296 2663316 2688128 2701852 2706136
2423.13 2732140 2762146 2771826 2786026 2800284 2797356
2426.03 2816360 2843778 2844428 2849670 2869162 2869350
2428.92 2859918 2857334 2843400 2829618 2859204 2929698
2431.81 2973920 2976218 2990380 3015618 3030026 3050924
2434.70 3094104 3139372 3162456 3164188 3168736 3178760
2437.60 3157138 3122178 3122766 3112416 3059032 3022206
2440.49 3038878 3048058 3039486 3057196 3081446 3090560
2443.38 3071884 3037086 3010734 3002722 3019692 3033390
2446.28 3039106 3064548 3095270 3109990 3117670 3117888
2449.17 3119052 3125456 3116930 3101280 3079790 3043798
2452.06 3029122 3050266 3058742 3039896 3028992 3020412
2454.95 3015322 3021316 3032180 3040018 3027076 3008646
2457.85 3006132 2983484 2939878 2912438 2899816 2881952
2460.74 2857758 2834704 2809852 2770212 2719744 2685544
2463.63 2674622 2681874 2706182 2730246 2754282 2779106
2466.52 2803930 2834300 2841752 2838038 2845368 2848894
2469.42 2871400 2925932 2968556 2982078 2997324 3043446
2472.31 3096268 3107000 3094504 3103536 3143290 3184030
2475.20 3217252 3245698 3258642 3266946 3293540 3347096
2478.10 3394414 3429000 3461132 3489478 3515328 3529250
2480.99 3550100 3576134 3607196 3643342 3687440 3733438
2483.88 3758130 3765412 3789696 3826664 3854666 3878964
2486.77 3893802 3907538 3943312 3982096 4014122 4030308
2489.67 4042542 4070114 4108122 4152470 4205782 4250914
2492.56 4267172 4270800 4302212 4334896 4346768 4363324
2495.45 4389180 4411468 4443472 4484804 4489328 4468928
2498.34 4464440 4479006 4502288 4518280 4544410 4592310
2501.24 4628928 4630668 4628638 4612636 4572724 4565062
2504.13 4587326 4595796 4601094 4591378 4576270 4591926
2507.02 4604976 4577870 4550218 4564942 4607754 4642476
2509.92 4645066 4629830 4631588 4632290 4604908 4571608
2512.81 4549646 4516616 4471848 4420566 4368310 4325922
2515.70 4303032 4294714 4266156 4214238 4190098 4185448
2518.59 4150366 4101728 4071664 4039962 3993880 3963388
2521.49 3964314 3961308 3939848 3923530 3914460 3896684
2524.38 3870018 3827450 3788528 3787218 3798500 3774710
2527.27 3738330 3710922 3694058 3665356 3624944 3600228
2530.16 3568334 3546792 3585314 3634288 3631276 3592322
2533.06 3583434 3599000 3640362 3728774 3798712 3777568
2535.95 3683458 3575870 3495662 3474490 3492206 3495618
2538.84 3479350 3433480 3374610 3329658 3296400 3256446
2541.74 3223730 3192370 3155414 3150262 3181440 3193300
2544.63 3169248 3141582 3120474 3097004 3089758 3096380
2547.52 3094166 3078412 3071846 3091134 3105088 3075240
2550.41 3011988 2955382 2942036 2958532 2970406 2962370
2553.31 2938216 2911062 2899948 2907022 2908400 2883730
2556.20 2869716 2885658 2904462 2902764 2898310 2910016
2559.09 2924040 2916800 2902582 2901262 2927254 2964696
2561.98 2991280 3002982 3000266 2999020 3021290 3046592
2564.88 3044356 3032976 3049964 3084904 3130180 3181528
2567.77 3213020 3220884 3233870 3257978 3274358 3294368
2570.66 3339818 3391288 3428372 3453488 3466064 3472510
2573.56 3498192 3545362 3604850 3658812 3709010 3759644
2576.45 3803876 3848616 3913432 3974144 4009114 4045906
2579.34 4113416 4188970 4263912 4322328 4360838 4418274
2582.23 4477854 4513904 4554776 4604310 4659602 4704608
2585.13 4746608 4822726 4897462 4920900 4956572 5031612
2588.02 5102740 5177880 5258590 5313010 5371574 5433098
2590.91 5467918 5512024 5580830 5646948 5729370 5807416
2593.80 5844614 5878202 5946672 6028636 6124804 6251936
2596.70 6364294 6426728 6479664 6562758 6672892 6789854
2599.59 6878714 6945706 7062082 7228434 7364966 7471790
2602.48 7609720 7754034 7904828 8100944 8343932 8654664
2605.37 9064762 9501696 9773952 9715192 9429132 9128884
2608.27 8894096 8737996 8676906 8662788 8660266 8683094
2611.16 8759212 8874310 8950930 8987670 9047524 9138198
2614.05 9238906 9344022 9450234 9548410 9649994 9739018
2616.95 9826920 9922760 10018980 10112480 10214160 10333220
2619.84 10481560 10650920 10801120 10944220 11115910 11293190
2622.73 11454570 11593240 11747730 11949630 12176910 12412550
2625.62 12678780 12983220 13317620 13674050 14052760 14439990
2628.52 14767480 14924400 14890340 14712240 14490880 14331300
2631.41 14218570 14085200 13930590 13841510 13899860 14074220
2634.30 14326330 14651210 15032100 15477050 16053220 16713700
2637.19 17338960 17905820 18356480 18628360 18764850 18816850
2640.09 18791670 18686850 18546390 18438700 18371280 18308310
2642.98 18282780 18313450 18350020 18376700 18434490 18511630
2645.87 18569690 18601780 18601130 18582380 18597530 18641850
2648.77 18690770 18732180 18743670 18719350 18699060 18698600
2651.66 18700360 18707630 18753900 18829280 18915090 18982070
2654.55 19018570 19060640 19115940 19187970 19292640 19428140
2657.44 19601850 19805420 20019980 20181080 20181670 20030130
2660.34 19903100 19874540 19915210 20039460 20265400 20542450
2663.23 20795350 21017130 21241440 21467500 21646030 21682250
2666.12 21549140 21271220 20884860 20461400 20055380 19686580
2669.01 19349600 19038480 18766580 18502260 18204030 17867320
2671.91 17520550 17131810 16712960 16337260 16035690 15812970
2674.80 15640530 15460960 15292880 15153060 15047460 14990740
2677.69 14966010 14955530 14942580 14920050 14880420 14800370
2680.59 14690890 14566440 14430740 14297380 14162520 14008480
2683.48 13870270 13746870 13598400 13443090 13287490 13124570
2686.37 12991370 12844040 12662790 12519420 12417530 12300200
2689.26 12160570 12027980 11908520 11778430 11641740 11521060
2692.16 11450190 11386160 11277030 11134710 10980510 10857270
2695.05 10774520 10687240 10587940 10508850 10452470 10419760
2697.94 10408220 10394240 10371460 10331820 10330650 10361950
2700.83 10358830 10352880 10387370 10406360 10393290 10376750
2703.73 10361280 10336290 10326800 10325700 10355080 10420920
2706.62 10473240 10530410 10622470 10724120 10820290 10935660
2709.51 11072400 11199910 11343740 11518750 11709830 11883510
2712.41 12015210 12108060 12190450 12280970 12371710 12442500
2715.30 12509730 12566520 12626850 12715950 12803590 12884040
2718.19 12976130 13070670 13167680 13254540 13337890 13428370
2721.08 13509110 13569050 13634320 13652420 13602530 13580910
2723.98 13608590 13645700 13731770 13855570 13960750 14061980
2726.87 14191450 14337530 14496660 14651470 14795410 14927500
2729.76 15050410 15164630 15259630 15327620 15392710 15478010
2732.65 15582140 15687550 15804030 15889490 15919120 15939000
2735.55 15973500 16001130 15981270 15899200 15831320 15795250
2738.44 15764640 15738720 15727060 15719120 15693120 15673750
2741.33 15705930 15762140 15790350 15771880 15746780 15715640
2744.23 15658950 15622610 15612210 15571950 15533750 15530870
2747.12 15526580 15477230 15398950 15347060 15338800 15348660
2750.01 15373100 15405140 15422250 15436840 15475250 15523990
2752.90 15586210 15672680 15801020 15911980 15934680 15938660
2755.80 16010440 16108930 16233120 16380210 16527240 16662410
2758.69 16786690 16908760 17028090 17138460 17251740 17354280
2761.58 17452670 17570610 17722920 17879670 18020280 18151850
2764.47 18278860 18400240 18524390 18671920 18835880 19007500
2767.37 19246300 19500930 19665430 19729010 19727640 19722250
2770.26 19723830 19709120 19689760 19653070 19615320 19599710
2773.15 19600650 19605190 19648830 19699030 19710180 19756980
2776.05 19916200 20114310 20266240 20387040 20490640 20579990
2778.94 20658900 20729130 20838690 20988360 21147340 21307990
2781.83 21479610 21652170 21821290 21988920 22176170 22387090
2784.72 22601940 22814080 23016570 23173290 23289300 23381280
2787.62 23458050 23548060 23666120 23767600 23878730 24034860
2790.51 24178690 24286240 24411680 24573390 24776380 25014860
2793.40 25298700 25609920 25895180 26110620 26264080 26344630
2796.29 26359440 26360970 26413580 26504040 26582520 26630740
2799.19 26702790 26835020 26976190 27072870 27158110 27276270
2802.08 27448700 27635040 27751130 27771510 27766500 27792540
2804.97 27859370 27955730 28099460 28281230 28483450 28735320
2807.87 29035350 29306530 29552400 29821230 30167420 30583980
2810.76 30978590 31292080 31548730 31810800 32135730 32504880
2813.65 32916150 33411510 33987320 34410500 34480160 34323660
2816.54 34198490 34218830 34396020 34704880 35166630 35810100
2819.44 36568550 37257990 37749200 38070850 38305450 38463610
2822.33 38583280 38780290 39069620 39275270 39314720 39307340
2825.22 39407230 39616110 39918090 40341180 40867540 41471680
2828.11 42156470 42852560 43418360 43777380 43956100 44007370
2831.01 44013250 44039150 44144680 44292140 44463870 44714440
2833.90 44989160 45213420 45423660 45709470 46075820 46431810
2836.79 46760200 47003840 47179680 47410220 47753350 48225640
2839.69 48773490 49325590 49891850 50461710 51079140 51827850
2842.58 52741560 53783290 54906380 56116590 57502060 59094820
2845.47 60855540 62692940 64564790 66511240 68544900 70642060
2848.36 72891570 75255790 77575110 79710400 81534110 83120700
2851.26 84669890 86259220 87939780 89684190 91333350 92764340
2854.15 94100540 95561470 97300960 99362890 101779700 104478800
2857.04 107356800 110413600 113650800 117007000 120512400 124138400
2859.93 127774100 131437500 135172400 138964000 142818100 146642400
2862.83 150460900 154265500 157925800 161463900 164968100 168406600
2865.72 171811800 175263300 178726300 182169600 185599600 188954100
2868.61 192275400 195503800 198545000 201469900 204331500 207078700
2871.51 209504400 211468000 213266600 215246600 217488000 219881400
2874.40 222441200 225389200 228837100 232563400 236425200 240647800
2877.29 245581800 251519500 258966200 268484600 279542900 290248200
2880.18 300054400 310815300 324028300 338898000 352339300 359961700
2883.08 359730000 354234800 347597700 342027400 338424400 337522900
2885.97 339460900 343756700 349458100 355124200 358872500 359386300
2888.86 357511400 354965500 352272400 349068900 345109200 340366100
2891.75 335187900 330083800 325221200 320531300 316183600 312246300
2894.65 308600200 305297600 302610200 300641500 299183200 297856200
2897.54 296523900 295361200 294416100 293543300 292856600 292376900
2900.43 291813400 290979600 289969500 289015500 288012600 286685200
2903.32 285239100 283797300 282289900 280722500 279101200 277339300
2906.22 275402000 273306500 271103500 268789900 266405000 264021200
2909.11 261795400 259631300 257235700 254745100 252463400 250371800
2912.00 248446300 246736500 245374500 244500100 244096000 243787600
2914.90 243054100 241583200 239608600 237526400 235552300 233631500
2917.79 231724800 229791500 227824700 226031300 224569700 223350000
2920.68 222339400 221679300 221433000 221527200 222050500 223041200
2923.57 224476900 226312600 228386200 230526100 232782400 235255600
2926.47 237903400 240692900 243673800 246917000 250549400 254340100
2929.36 258058200 261491800 264740100 267680000 268066900 264483000
2932.25 259850400 257292100 256348800 254943900 253050600 252027900
2935.14 252505600 254430600 257617100 261696300 265940400 269594800
2938.04 272573600 274676800 275021800 273654100 272409300 272539400
2940.93 273949000 276524800 280300200 285090100 290805100 297455400
2943.82 305073400 313306800 322035700 331793400 342779300 353729200
2946.72 363595700 371335400 375829700 379206300 384394200 391484200
2949.61 399614000 408323800 417272500 426213100 435161300 444111700
2952.50 452987500 461799000 470733600 479844100 488798800 497215900
2955.39 505287900 513116700 520791700 528594600 536612000 544462300
2958.29 552247400 560146100 568290100 576982300 586669800 596880500
2961.18 606591200 615681400 624745300 634324200 645046300 658157400
2964.07 675868600 696365100 713165500 725881500 737403600 744368100
2966.96 748844800 757331400 770877100 791760300 831920300 911050700
2969.86 1012350000 1053280000 1004188000 935159000 895605000 882852400
2972.75 879386400 872325400 863585300 860035800 864513200 876907300
2975.64 895871500 919817700 945668500 972426000 1004085000 1042359000
2978.54 1083909000 1126008000 1164697000 1191599000 1214640000 1273811000
2981.43 1343029000 1283942000 1094743000 930066000 842605500 796905500
2984.32 769391000 750349200 737446000 729763100 718732200 702251600
2987.21 689361900 679575900 669794500 663897800 662278100 660312100
2990.11 654872600 647227300 637355800 625941100 616268600 608945700
2993.00 601759900 594118300 586618900 578978800 570795600 562405400
2995.89 553488200 543744800 533386900 522417200 510577100 497924000
2998.78 484446700 470288700 455527400 440294800 424579400 408504400
3001.68 392230600 375732700 359088400 342448600 325762800 309196100
3004.57 292811400 276680900 260845200 245476000 230641800 216323700
3007.46 202471900 189147700 176415000 164249400 152653000 141716800
3010.36 131327700 121527700 112415400 103911100 95893740 88404060
3013.25 81478180 75149240 69280320 63804320 58720050 54047280
3016.14 49758240 45841020 42228440 38908700 35896890 33215960
3019.03 30749980 28444110 26313900 24422880 22727120 21148310
3021.93 19630000 18270610 17095330 16044860 15028440 14101540
3024.82 13290050 12514850 11765100 11135240 10571140 10026350
3027.71 9499866 9032264 8621294 8248282 7882366 7542344
3030.60 7229904 6952318 6662728 6409986 6210958 6024484
3033.50 5812844 5633578 5484752 5326070 5142204 5025848
3036.39 4943970 4830552 4691940 4585608 4509198 4449652
3039.28 4353842 4230866 4117930 4072704 4065304 4011320
3042.18 3886266 3775314 3694140 3646316 3592842 3544840
3045.07 3471404 3408666 3377404 3344240 3286252 3245150
3047.96 3202314 3146454 3091204 3044384 3018528 3019662
3050.85 3001620 2967378 2935090 2924790 2885898 2785530
3053.75 2706252 2746016 2793596 2773528 2720054 2680056
3056.64 2652414 2638304 2641482 2666784 2647022 2593214
3059.53 2569496 2580074 2556406 2538188 2557002 2567412
3062.42 2547218 2527042 2522158 2543492 2568860 2579924
3065.32 2543412 2509874 2520996 2535570 2519562 2539280
3068.21 2562264 2556428 2535392 2529456 2530838 2550068
3071.10 2585118 2573528 2520218 2504550 2513776 2524164
3074.00 2511846 2506782 2533528 2555610 2543536 2544552
3076.89 2558094 2595990 2642942 2654780 2632388 2623832
3079.78 2601456 2592870 2620228 2635206 2647158 2711632
3082.67 2733784 2710564 2709366 2721536 2715186 2715564
3085.57 2722240 2728756 2754306 2818120 2848540 2831844
3088.46 2836488 2861250 2865244 2870324 2842596 2788204
3091.35 2758782 2794650 2834830 2840736 2866460 2914512
3094.24 2942524 2972340 2977722 2960272 2948274 2955398
3097.14 2981912 3017610 3035740 3042160 3035628 3042488
3100.03 3041208 3025338 3050996 3114226 3120616 3105262
3102.92 3108268 3094012 3063634 3071212 3131460 3158962
3105.82 3122616 3129788 3173584 3190290 3195426 3269134
3108.71 3333968 3341180 3360228 3361988 3326634 3298730
3111.60 3254146 3247390 3293292 3333528 3351136 3373632
3114.49 3387910 3397662 3415718 3441070 3453170 3487092
3117.39 3512026 3485384 3476202 3516362 3552946 3554540
3120.28 3533570 3554008 3597528 3637258 3673888 3713554
3123.17 3740902 3737490 3736614 3760968 3752878 3738538
3126.06 3717566 3714920 3747750 3792042 3836354 3860600
3128.96 3872122 3893956 3913898 3918880 3890324 3862864
3131.85 3841712 3830648 3858912 3905820 3921024 3943920
3134.74 3982008 4011934 4023442 4019752 4024620 4059672
3137.64 4092654 4104760 4105998 4132688 4186860 4209488
3140.53 4181264 4169372 4218010 4321958 4386606 4364768
3143.42 4318364 4316590 4360294 4401928 4429446 4479400
3146.31 4559894 4642770 4688648 4713148 4731592 4782270
3149.21 4846082 4883490 4931586 4988168 5011340 5059514
3152.10 5159698 5256458 5300182 5346586 5414012 5466732
3154.99 5519624 5610596 5685070 5741004 5857304 5986612
3157.88 6050434 6105530 6165812 6212816 6264572 6357930
3160.78 6469550 6570542 6685128 6836738 6949808 7013880
3163.67 7104762 7245146 7359564 7410322 7444928 7549966
3166.56 7715420 7857548 7951382 8041492 8137024 8274600
3169.46 8451002 8569964 8619948 8707286 8798326 8849296
3172.35 8921494 9056046 9234430 9417742 9558590 9674174
3175.24 9760782 9820376 9904840 10027380 10120470 10179530
3178.13 10243210 10346190 10470410 10572820 10645640 10698630
3181.03 10710420 10720250 10762980 10815870 10879870 10999810
3183.92 11134320 11199870 11199930 11203620 11256920 11350930
3186.81 11467590 11602300 11686640 11698260 11697990 11694170
3189.70 11640040 11558780 11484750 11413100 11319260 11243620
3192.60 11199420 11168120 11125310 11084900 11119680 11250550
3195.49 11400860 11548670 11724640 11902170 11991170 11965220
3198.38 11858820 11738680 11668500 11645940 11628580 11585910
3201.27 11482130 11347370 11185910 10984390 10819500 10732120
3204.17 10667180 10635910 10633880 10635740 10650880 10654710
3207.06 10609230 10616650 10684900 10627020 10416140 10199600
3209.95 10040950 9933718 9862664 9823034 9843266 9976212
3212.85 10239530 10524930 10560050 10233920 9830284 9615828
3215.74 9511406 9431936 9390512 9354910 9316584 9287748
3218.63 9231868 9194906 9199520 9152412 9059976 9019978
3221.52 9032304 9033464 9010534 9031072 9106530 9182082
3224.42 9195672 9115430 8931314 8711552 8510532 8356610
3227.31 8263840 8204946 8080562 7900476 7798890 7794390
3230.20 7800502 7771436 7716060 7657320 7601496 7548092
3233.09 7480536 7435960 7361520 7258336 7238628 7227726
3235.99 7087334 6879010 6714230 6615678 6516392 6380458
3238.88 6278458 6280788 6305522 6297630 6272276 6281732
3241.77 6326570 6239000 5937760 5605832 5381418 5244702
3244.67 5115076 4988822 4905444 4837490 4793416 4831656
3247.56 4914928 4995150 5041200 4913746 4520506 4119932
3250.45 3881696 3720814 3579060 3444136 3290466 3161034
3253.34 3098260 3039048 2945924 2872620 2786226 2677160
3256.24 2589546 2552354 2501132 2395416 2283782 2198600
3259.13 2155070 2112998 2048084 2008804 1948384 1866940
3262.02 1835500 1829358 1791222 1745816 1688544 1605580
3264.91 1552684 1533990 1449252 1320774 1255410 1243712
3267.81 1264834 1308692 1294696 1252636 1183714 1085486
3270.70 1039996 1021982 969024 935424 980798 1027814
3273.59 967314 863506 786882 756942 778798 826288
3276.49 845416 783568 687700 679630 733264 758602
3279.38 739820 697114 680866 712016 729968 689122
3282.27 646618 644396 657128 709026 767326 781904
3285.16 763444 745612 739374 729194 670762 622292
3288.06 638544 679480 691220 671298 629530 608974
3290.95 657996 718644 705816 674540 689410 697806
3293.84 707712 772920 812704 786774 737950 738022
3296.73 782980 776844 719266 699908 734740 800354
3299.63 835106 829458 824582 854954 909280 925312
3302.52 899270 918612 1010640 1079876 1043120 1017920
3305.41 1065418 1114332 1146196 1163890 1144402 1128262
3308.31 1155262 1217754 1290824 1347950 1409704 1487910
3311.20 1528636 1541170 1592716 1670702 1709008 1694210
3314.09 1702730 1762868 1830540 1910620 1984530 2024438
3316.98 2022256 2041144 2089762 2110330 2111420 2154022
3319.88 2225514 2290588 2311762 2312836 2341388 2373276
3322.77 2381538 2399498 2448350 2544862 2656944 2696180
3325.66 2692034 2729248 2827530 2958376 3032040 3095478
3328.55 3190958 3247358 3287120 3376684 3438600 3447874
3331.45 3509724 3596254 3649426 3679198 3692994 3746118
3334.34 3784872 3802226 3856670 3887842 3852648 3816330
3337.23 3846530 3922182 3994938 4036150 4034620 4035540
3340.13 4025762 4007396 4019198 4037320 4022856 4022532
3343.02 4036118 4009272 3949516 3959074 4003036 3968574
3345.91 3888182 3867288 3882874 3908864 3960572 3978878
3348.80 3970168 3997328 4009666 4010344 3984686 3904194
3351.70 3825116 3787018 3773980 3781142 3773360 3738154
3354.59 3736134 3769702 3752480 3703558 3669800 3653634
3357.48 3638618 3608168 3589312 3589622 3585616 3570022
3360.37 3552834 3524670 3453470 3420720 3442536 3420538
3363.27 3363942 3299176 3238326 3221680 3216578 3200222
3366.16 3187968 3170840 3159786 3153928 3124562 3128906
3369.05 3125580 3027028 2935422 2951470 2985196 2925166
3371.95 2839360 2849258 2876826 2874918 2877636 2910134
3374.84 2910804 2845862 2816698 2849508 2848866 2794492
3377.73 2754294 2752392 2777746 2822380 2848650 2843506
3380.62 2848454 2873412 2901618 2938472 2966780 2977440
3383.52 2964660 2921172 2873264 2873814 2950798 3035232
3386.41 3048106 3076842 3120584 3102334 3087388 3115114
3389.30 3168580 3229476 3282412 3318388 3313466 3322266
3392.19 3346896 3374348 3411058 3465902 3549678 3594548
3395.09 3602678 3641570 3670872 3685158 3707560 3736140
3397.98 3799084 3866468 3864722 3788644 3725986 3722876
3400.87 3737256 3791568 3897812 3975920 4001276 4031420
3403.77 4051066 4074142 4158870 4239376 4239260 4219648
3406.66 4208882 4212106 4204498 4152704 4130716 4189642
3409.55 4260726 4303244 4353262 4392266 4416066 4431204
3412.44 4415278 4434970 4473764 4509118 4536924 4522818
3415.34 4529800 4560260 4565868 4606042 4660072 4683798
3418.23 4695962 4751816 4863546 5009916 5176316 5331384
3421.12 5409692 5397648 5373216 5432892 5583916 5736748
3424.01 5725806 5526190 5331712 5264578 5232062 5171228
3426.91 5100288 5049044 5023778 5050254 5141690 5229358
3429.80 5274784 5318496 5355696 5353510 5320134 5307480
3432.69 5355302 5422028 5452178 5459772 5489956 5554656
3435.59 5599656 5602674 5539508 5476806 5509478 5567268
3438.48 5601670 5618812 5622970 5667266 5708680 5689094
3441.37 5647340 5609418 5573576 5557220 5550858 5586986
3444.26 5672152 5729504 5762592 5799440 5805438 5831068
3447.16 5885568 6007830 6261242 6566936 6821670 7013930
3450.05 6968904 6605528 6213072 6006218 5890088 5775718
3452.94 5705126 5659320 5572252 5500032 5497698 5556102
3455.83 5606072 5590612 5545442 5530776 5583244 5676856
3458.73 5696210 5644256 5608958 5578154 5556000 5567380
3461.62 5558436 5525868 5510712 5497600 5474644 5426394
3464.51 5360164 5304150 5223462 5098948 5014414 5026172
3467.40 5049396 5052732 5074498 5060800 4950760 4835660
3470.30 4790716 4789858 4779510 4723066 4629298 4576672
3473.19 4517364 4432198 4407332 4407042 4351632 4266696
3476.08 4222226 4214010 4182866 4119180 4033814 3947908
3478.98 3881736 3847446 3800458 3749196 3706998 3636544
3481.87 3563620 3493482 3405194 3369994 3385664 3366278
3484.76 3312086 3287804 3218976 3130356 3115930 3105394
3487.65 3030314 2933646 2866064 2811064 2750522 2726184
3490.55 2725140 2726448 2697906 2645290 2617596 2586102
3493.44 2557996 2550788 2483980 2357590 2270190 2281538
3496.33 2319344 2331284 2319858 2336574 2355420 2297310
3499.22 2227050 2219556 2224740 2170646 2057554 1975048
3502.12 1977564 1983220 1940332 1906948 1898868 1887098
3505.01 1872306 1899448 1894330 1818666 1778418 1827610
3507.90 1861606 1850782 1849566 1831700 1780714 1722664
3510.80 1671892 1667004 1688968 1680668 1644058 1638448
3513.69 1662118 1664280 1651440 1658862 1681654 1702640
3516.58 1721768 1732440 1730806 1739100 1689964 1656252
3519.47 1708214 1744696 1739088 1758624 1780826 1774152
3522.37 1777852 1805522 1822314 1833498 1849560 1896058
3525.26 1946892 1983680 1976088 1958672 1978054 2035034
3528.15 2120930 2198620 2231766 2224320 2220260 2248866
3531.04 2308026 2378478 2431256 2459306 2428232 2387532
3533.94 2374872 2380380 2396438 2397382 2408338 2452608
3536.83 2482868 2500416 2470078 2441474 2459784 2467940
3539.72 2502296 2584628 2629680 2659276 2715166 2753622
3542.62 2746708 2739448 2724128 2674992 2624754 2596246
3545.51 2558994 2556036 2545926 2514780 2509432 2472496
3548.40 2411960 2387350 2412868 2473270 2482150 2439554
3551.29 2398098 2374634 2393732 2406286 2362816 2336124
3554.19 2336928 2337480 2335974 2345076 2322242 2250616
3557.08 2214792 2243866 2240858 2221126 2197342 2171464
3559.97 2173728 2197852 2211112 2240118 2274128 2259164
3562.86 2191494 2158646 2205144 2233958 2214080 2239644
3565.76 2276894 2272630 2263052 2259236 2223408 2201742
3568.65 2209142 2208624 2179772 2132734 2104196 2092698
3571.54 2054430 2055886 2093124 2055792 2009554 2029892
3574.44 2013150 1973606 1972064 1989274 2029358 2091290
3577.33 2143810 2195946 2240778 2270302 2294418 2317516
3580.22 2320362 2298576 2278904 2296668 2324644 2344854
3583.11 2363100 2385092 2417706 2440108 2435914 2472256
3586.01 2534106 2543744 2566418 2661390 2743384 2794282
3588.90 2799690 2832228 2893074 2934310 2959522 3008806
3591.79 3046904 3065294 3141324 3239430 3285296 3356038
3594.68 3439282 3475130 3468704 3471138 3485322 3527194
3597.58 3580564 3586574 3586856 3656256 3734016 3831524
3600.47 3969462 4104408 4227088 4376540 4529804 4683712
3603.36 4862322 5080398 5333104 5642152 6036666 6490432
3606.26 6903014 7235332 7470402 7690276 7997410 8361194
3609.15 8612932 8804022 9027276 9301894 9615252 9968450
3612.04 10331890 10683550 11035530 11427580 11846920 12258060
3614.93 12633920 13052310 13496860 13937480 14427730 14950920
3617.83 15398560 15868140 16400870 16905660 17340520 17813870
3620.72 18307930 18771910 19202480 19719740 20298830 20806040
3623.61 21313780 21973840 22643440 23266620 23910000 24615690
3626.50 25335580 26207060 27530940 29236080 30213060 30079700
3629.40 29907920 30387340 31216970 32220440 33451790 34986630
3632.29 36808720 39028660 41649710 44834750 49419600 59068980
3635.18 83746850 115766500 116417700 87823740 69663630 67062920
3638.08 68577790 70774700 73592620 76983260 80313210 82697350
3640.97 83814380 84704980 86379470 88620460 91099050 93512930
3643.86 95698740 97793390 100134800 102608000 104688100 106079800
3646.75 106830800 106998100 107065000 107413200 107854700 108039800
3649.65 108051400 108043700 108084600 108190000 108405500 108860400
3652.54 109709100 111066600 113096400 115631800 118356800 120814300
3655.43 122349200 122335600 120249300 116828500 114360100 114133800
3658.32 116148500 119083400 120813400 120617900 119033000 116995500
3661.22 115193000 113724300 112623900 111377500 109442500 107436600
3664.11 106020600 105036400 104239300 103546100 102926300 102416000
3667.00 102100500 101907800 101676400 101249000 100588900 99807820
3669.90 98938450 97792660 96283870 94597020 92885760 91102710
3672.79 89103490 86866830 84521840 82130180 79620540 76939550
3675.68 74059820 71015420 68016310 65049560 62038060 59031730
3678.57 56077820 53201300 50401910 47667730 44972800 42282060
3681.47 39672940 37240790 34963620 32806650 30756020 28770290
3684.36 26907850 25181810 23600660 22144870 20750970 19435460
3687.25 18289350 17270520 16153330 14966430 13935830 13080600
3690.14 12345110 11662120 10982510 10317590 9705886 9168192
3693.04 8701354 8273466 7921234 7607326 7286916 6993456
3695.93 6726682 6478740 6279504 6106616 5907410 5710952
3698.82 5567362 5391574 5169768 4992826 4887338 4844864
3701.72 4782478 4647028 4503238 4374430 4277862 4186154
3704.61 4078924 4008592 3965688 3911006 3882570 3848720
3707.50 3789736 3774502 3823384 3848664 3809120 3768368
3710.39 3744014 3743214 3817702 3870440 3824054 3749774
3713.29 3673298 3617122 3577024 3494684 3372072 3274754
3716.18 3238858 3207290 3165858 3122966 3052774 2986920
3719.07 2953426 2895766 2836130 2828664 2846880 2873986
3721.96 2888964 2862772 2826230 2768236 2715708 2725682
3724.86 2730732 2721854 2728192 2668576 2599556 2590434
3727.75 2543200 2504030 2530584 2550866 2550948 2524154
3730.64 2513048 2573212 2631466 2595842 2522734 2486726
3733.54 2497706 2533656 2516682 2436070 2441540 2539424
3736.43 2569378 2539920 2525762 2522276 2523666 2534056
3739.32 2544672 2510564 2460914 2465046 2495258 2464354
3742.21 2394192 2409256 2542680 2734418 2844704 2722030
3745.11 2492874 2341086 2300558 2304784 2295236 2297398
3748.00 2331798 2431798 2506894 2426822 2326728 2277166
3750.89 2284492 2395720 2423964 2266752 2164934 2171704
3753.78 2167910 2123576 2098002 2145126 2235428 2245254
3756.68 2142874 2104518 2144552 2145008 2147274 2173424
3759.57 2187208 2158230 2127646 2150174 2223610 2279556
3762.46 2264364 2209410 2209354 2282166 2371202 2463798
3765.35 2529220 2496046 2450564 2473230 2512766 2544176
3768.25 2574830 2609784 2647506 2659080 2664720 2709014
3771.14 2784324 2826980 2827884 2859948 2914036 2975844
3774.03 3056868 3108026 3145066 3185562 3236248 3276150
3776.93 3289452 3342728 3434596 3523800 3610968 3641512
3779.82 3634040 3686984 3800428 3886632 3908612 3956282
3782.71 4066400 4161580 4206816 4238372 4315502 4401784
3785.60 4448492 4516130 4599144 4660750 4693488 4680204
3788.50 4669640 4688916 4694408 4712798 4762974 4756870
3791.39 4712816 4698692 4731162 4806816 4857892 4887430
3794.28 4939000 4989048 5035652 5094798 5182274 5279202
3797.17 5339028 5349852 5349772 5369874 5433060 5497940
3800.07 5545062 5645374 5661914 5479166 5368694 5393662
3802.96 5405578 5396908 5371710 5342988 5369092 5428000
3805.85 5504880 5630294 5644780 5513268 5468554 5500146
3808.75 5528422 5580526 5647510 5710974 5759588 5784902
3811.64 5780176 5736830 5713376 5700952 5695140 5739204
3814.53 5804998 5924994 6076954 6057860 5932970 5867540
3817.42 5847792 5876036 5967236 6058138 6083576 6097612
3820.32 6117288 6072806 5965652 5826770 5743984 5690620
3823.21 5649026 5675596 5709372 5714490 5718924 5744864
3826.10 5816330 5894002 5913878 5916422 5951056 5984466
3828.99 5986298 5933736 5871492 5841236 5837448 5791758
3831.89 5700766 5635704 5597198 5561050 5559748 5628380
3834.78 5668508 5631976 5571166 5546306 5617556 5751928
3837.67 5749214 5573930 5464308 5482640 5481598 5420536
3840.57 5375932 5346426 5320808 5315604 5324408 5347532
3843.46 5347942 5286576 5216134 5155236 5103372 5093226
3846.35 5126682 5177502 5207830 5171290 5106798 5092988
3849.24 5112952 5105596 5102978 5140110 5234522 5275026
3852.14 5150958 5099372 5274238 5439812 5351068 5139482
3855.03 5052548 5067022 5080490 5085968 5098546 5087206
3857.92 5027020 4940000 4895164 4894014 4882732 4845586
3860.81 4828054 4791576 4714068 4701428 4779806 4838930
3863.71 4853572 4924872 5019180 5046936 5085250 5212012
3866.60 5497218 5863240 6086692 6070530 5898284 5661630
3869.49 5433092 5221434 5046630 4916464 4818200 4780934
3872.39 4800140 4799802 4761058 4716548 4665388 4664450
3875.28 4716156 4720672 4660230 4624192 4685512 4756320
3878.17 4727614 4706394 4788352 4883884 4881898 4827638
3881.06 4806812 4794860 4786482 4836720 4891680 4856468
3883.96 4791836 4774282 4818508 4846540 4797204 4734070
3886.85 4700182 4694720 4678066 4665784 4713162 4717308
3889.74 4663640 4705904 4799334 4818460 4846454 4921794
3892.63 4985118 5079458 5204994 5321330 5443548 5485754
3895.53 5438414 5409530 5301366 5094238 4997570 5032010
3898.42 5078844 5094108 5041910 4933576 4837948 4750892
3901.31 4634886 4483410 4361170 4337744 4378784 4372244
3904.21 4290804 4220142 4171530 4129406 4110254 4102160
3907.10 4094020 4086200 4061162 4021408 4027468 4080246
3909.99 4106992 4077322 4028722 4019362 4041472 4000882
3912.88 3909050 3850316 3799308 3717274 3658922 3679884
3915.78 3712360 3726354 3750278 3714222 3598992 3490160
3918.67 3414210 3380800 3383420 3346794 3297520 3282886
3921.56 3249522 3223232 3262908 3277108 3191236 3112670
3924.45 3156788 3216142 3157664 3099254 3106004 3086534
3927.35 3032340 2989298 2974098 2984112 2992734 2996828
3930.24 2988966 2969598 2949864 2966298 3015170 3056656
3933.13 3095808 3111706 3082106 2990422 2879998 2791940
3936.03 2724070 2689720 2648892 2573322 2514372 2500580
3938.92 2499722 2489664 2497038 2529738 2501252 2468822
3941.81 2539294 2569456 2507070 2480278 2517048 2540618
3944.70 2542858 2546562 2543058 2532382 2547912 2513452
3947.60 2425992 2398962 2351730 2201402 2114800 2135958
3950.49 2129098 2077848 2024738 2014082 2038030 2054874
3953.38 2085588 2052404 1971526 1972074 2025482 2040792
3956.27 2028108 2011386 1955810 1894230 1913690 1978058
3959.17 1977042 1901656 1840502 1819248 1773580 1737654
3962.06 1754554 1781356 1767982 1742516 1754056 1739622
3964.95 1677106 1660808 1701496 1719756 1693456 1695232
3967.85 1732640 1727096 1698646 1695210 1684114 1646032
3970.74 1627228 1664958 1696042 1670928 1636926 1635418
3973.63 1624200 1594926 1590266
##END=
