##TITLE=FORMAMIDE, N,N-DIMETHYL-
##JCAMP-DX=4.24
##DATA TYPE=INFRARED SPECTRUM
##CLASS=COBLENTZ III
##ORIGIN=DOW CHEMICAL COMPANY
##OWNER=COBLENTZ SOCIETY
Collection (C) 2018 copyright by the U.S. Secretary of Commerce
on behalf of the United States of America. All rights reserved.
##DATE=1966/12/13
##NAMES=dimethylformamide
DMF
##CAS REGISTRY NO=68-12-2
##MOLFORM=C3 H7 N O
##SOURCE REFERENCE=COBLENTZ NO. 10207
##$NIST SOURCE=COBLENTZ
##$NIST IMAGE=cob10207
##SPECTROMETER/DATA SYSTEM=DOW KBr FOREPRISM-GRATING
##INSTRUMENT PARAMETERS=BLAZED AT 3.5, 12.0, 20.0 MICRON, CHANGED AT 5.0, 7.5, 14.9 MICRON
##STATE=LIQUID (NEAT)
##PATH LENGTH=CAPILLARY, KBr PLATES
$$ SPECTRAL CONTAMINATION DUE TO AN UNKNOWN AROUND 1225 CM^-^1
$$ SEE SPECTRUM NO. 8773 FOR"VAPOR" STATE
##SAMPLING PROCEDURE=TRANSMISSION
##RESOLUTION=4
##DATA PROCESSING=DIGITIZED BY NIST FROM HARD COPY (FROM TWO SEGMENTS)
##XUNITS=1/CM
##YUNITS=TRANSMITTANCE
##XFACTOR=1.000000
##YFACTOR=1
##DELTAX=0.854215
##FIRSTX=460.706
##LASTX=3746.02
##FIRSTY=0.959
##MAXX=3746.02
##MINX=460.706
##MAXY=1.034
##MINY=0.028
##NPOINTS=3847
##XYDATA=(X++(Y..Y))
460.706000 0.9590 0.9590 0.9590 0.9590 0.9590
464.977075 0.9590 0.9590 0.9610 0.9590 0.9590
469.248150 0.9580 0.9580 0.9570 0.9570 0.9570
473.519225 0.9570 0.9570 0.9570 0.9570 0.9570
477.790299 0.9570 0.9570 0.9550 0.9550 0.9540
482.061374 0.9540 0.9530 0.9530 0.9530 0.9510
486.332449 0.9510 0.9500 0.9500 0.9500 0.9500
490.603524 0.9470 0.9470 0.9470 0.9470 0.9470
494.874599 0.9460 0.9460 0.9460 0.9460 0.9460
499.145674 0.9470 0.9460 0.9450 0.9450 0.9450
503.416749 0.9450 0.9450 0.9450 0.9450 0.9450
507.687823 0.9450 0.9430 0.9450 0.9450 0.9430
511.958898 0.9430 0.9430 0.9430 0.9430 0.9420
516.229973 0.9420 0.9420 0.9420 0.9410 0.9410
520.501048 0.9410 0.9410 0.9410 0.9410 0.9390
524.772123 0.9390 0.9380 0.9380 0.9380 0.9380
529.043198 0.9380 0.9380 0.9390 0.9390 0.9390
533.314272 0.9390 0.9390 0.9410 0.9420 0.9420
537.585347 0.9430 0.9430 0.9430 0.9430 0.9450
541.856422 0.9460 0.9470 0.9470 0.9470 0.9470
546.127497 0.9470 0.9470 0.9470 0.9470 0.9490
550.398572 0.9490 0.9490 0.9490 0.9490 0.9490
554.669647 0.9490 0.9500 0.9500 0.9500 0.9500
558.940722 0.9500 0.9500 0.9500 0.9500 0.9500
563.211796 0.9500 0.9510 0.9530 0.9540 0.9540
567.482871 0.9540 0.9540 0.9540 0.9540 0.9540
571.753946 0.9540 0.9540 0.9540 0.9540 0.9540
576.025021 0.9540 0.9550 0.9550 0.9550 0.9550
580.296096 0.9550 0.9550 0.9570 0.9570 0.9570
584.567171 0.9570 0.9570 0.9570 0.9570 0.9550
588.838246 0.9550 0.9550 0.9550 0.9570 0.9570
593.109320 0.9580 0.9580 0.9590 0.9590 0.9590
597.380395 0.9590 0.9590 0.9590 0.9590 0.9590
601.651470 0.9610 0.9590 0.9590 0.9590 0.9590
605.922545 0.9610 0.9620 0.9630 0.9630 0.9630
610.193620 0.9650 0.9660 0.9670 0.9670 0.9670
614.464695 0.9690 0.9690 0.9700 0.9710 0.9710
618.735770 0.9710 0.9730 0.9740 0.9740 0.9740
623.006844 0.9750 0.9770 0.9770 0.9770 0.9770
627.277919 0.9780 0.9780 0.9780 0.9780 0.9780
631.548994 0.9770 0.9770 0.9770 0.9770 0.9750
635.820069 0.9750 0.9730 0.9710 0.9710 0.9700
640.091144 0.9670 0.9660 0.9650 0.9620 0.9610
644.362219 0.9580 0.9570 0.9490 0.9430 0.9380
648.633294 0.9340 0.9100 0.8690 0.8440 0.8171
652.904368 0.7821 0.7471 0.7131 0.6781 0.6073
657.175443 0.6040 0.6070 0.6380 0.6670 0.7099
661.446518 0.8666 0.8690 0.8919 0.9179 0.9409
665.717593 0.9540 0.9580 0.9590 0.9630 0.9630
669.988668 0.9660 0.9690 0.9700 0.9730 0.9740
674.259743 0.9750 0.9770 0.9780 0.9780 0.9790
678.530817 0.9810 0.9820 0.9820 0.9830 0.9850
682.801892 0.9860 0.9860 0.9870 0.9890 0.9900
687.072967 0.9900 0.9910 0.9930 0.9930 0.9940
691.344042 0.9940 0.9940 0.9940 0.9950 0.9950
695.615117 0.9970 0.9970 0.9970 0.9980 0.9980
699.886192 1.0000 1.0000 1.0020 1.0020 1.0020
704.157267 1.0040 1.0040 1.0040 1.0040 1.0050
708.428341 1.0050 1.0060 1.0060 1.0080 1.0080
712.699416 1.0090 1.0100 1.0100 1.0120 1.0120
716.970491 1.0120 1.0130 1.0130 1.0140 1.0140
721.241566 1.0140 1.0140 1.0140 1.0160 1.0160
725.512641 1.0160 1.0160 1.0170 1.0170 1.0180
729.783716 1.0200 1.0200 1.0210 1.0210 1.0220
734.054791 1.0240 1.0240 1.0240 1.0240 1.0250
738.325865 1.0250 1.0250 1.0250 1.0260 1.0260
742.596940 1.0260 1.0260 1.0260 1.0260 1.0260
746.868015 1.0280 1.0260 1.0280 1.0280 1.0290
751.139090 1.0290 1.0300 1.0300 1.0300 1.0300
755.410165 1.0300 1.0300 1.0300 1.0300 1.0300
759.681240 1.0320 1.0320 1.0320 1.0320 1.0320
763.952315 1.0320 1.0320 1.0320 1.0320 1.0330
768.223389 1.0330 1.0330 1.0330 1.0330 1.0330
772.494464 1.0340 1.0340 1.0340 1.0340 1.0330
776.765539 1.0330 1.0330 1.0330 1.0340 1.0330
781.036614 1.0330 1.0330 1.0330 1.0330 1.0330
785.307689 1.0330 1.0330 1.0330 1.0330 1.0330
789.578764 1.0320 1.0300 1.0300 1.0290 1.0280
793.849838 1.0280 1.0280 1.0260 1.0260 1.0260
798.120913 1.0260 1.0280 1.0280 1.0280 1.0280
802.391988 1.0290 1.0300 1.0300 1.0320 1.0320
806.663063 1.0330 1.0330 1.0330 1.0330 1.0330
810.934138 1.0330 1.0330 1.0330 1.0330 1.0330
815.205213 1.0330 1.0330 1.0330 1.0320 1.0320
819.476288 1.0320 1.0300 1.0290 1.0280 1.0260
823.747362 1.0240 1.0220 1.0220 1.0210 1.0200
828.018437 1.0180 1.0170 1.0160 1.0140 1.0140
832.289512 1.0140 1.0130 1.0130 1.0130 1.0130
836.560587 1.0120 1.0120 1.0120 1.0120 1.0130
840.831662 1.0130 1.0130 1.0130 1.0130 1.0130
845.102737 1.0120 1.0120 1.0120 1.0120 1.0100
849.373812 1.0090 1.0080 1.0060 1.0060 1.0050
853.644886 1.0050 1.0040 1.0020 1.0010 0.9980
857.915961 0.9950 0.9940 0.9850 0.9790 0.9611
862.187036 0.9460 0.9460 0.9500 0.9580 0.9700
866.458111 0.9810 0.9870 0.9930 1.0010 1.0040
870.729186 1.0050 1.0050 1.0050 1.0050 1.0060
875.000261 1.0080 1.0080 1.0080 1.0080 1.0080
879.271336 1.0090 1.0090 1.0090 1.0100 1.0100
883.542410 1.0100 1.0100 1.0100 1.0100 1.0120
887.813485 1.0120 1.0120 1.0120 1.0120 1.0120
892.084560 1.0120 1.0120 1.0120 1.0120 1.0120
896.355635 1.0120 1.0100 1.0100 1.0100 1.0100
900.626710 1.0120 1.0120 1.0120 1.0120 1.0120
904.897785 1.0130 1.0130 1.0130 1.0130 1.0130
909.168860 1.0130 1.0130 1.0130 1.0130 1.0130
913.439934 1.0130 1.0130 1.0130 1.0120 1.0120
917.711009 1.0130 1.0130 1.0120 1.0090 1.0090
921.982084 1.0090 1.0090 1.0100 1.0100 1.0090
926.253159 1.0090 1.0080 1.0080 1.0080 1.0060
930.524234 1.0050 1.0040 1.0040 1.0040 1.0020
934.795309 1.0020 1.0040 1.0040 1.0040 1.0040
939.066383 1.0050 1.0060 1.0060 1.0060 1.0060
943.337458 1.0060 1.0060 1.0060 1.0060 1.0060
947.608533 1.0080 1.0080 1.0090 1.0100 1.0100
951.879608 1.0100 1.0090 1.0090 1.0090 1.0090
956.150683 1.0090 1.0090 1.0090 1.0100 1.0100
960.421758 1.0090 1.0090 1.0080 1.0080 1.0080
964.692833 1.0080 1.0060 1.0060 1.0050 1.0050
968.963907 1.0050 1.0050 1.0040 1.0040 1.0040
973.234982 1.0020 1.0020 1.0020 1.0020 1.0020
977.506057 1.0020 1.0020 1.0020 1.0020 1.0020
981.777132 1.0020 1.0020 1.0020 1.0020 1.0040
986.048207 1.0040 1.0040 1.0040 1.0020 1.0020
990.319282 1.0020 1.0020 1.0020 1.0020 1.0010
994.590357 1.0010 1.0000 1.0000 1.0000 1.0000
998.861431 0.9980 0.9980 0.9970 0.9940 0.9930
1003.132506 0.9910 0.9910 0.9900 0.9890 0.9870
1007.403581 0.9870 0.9860 0.9850 0.9850 0.9830
1011.674656 0.9820 0.9810 0.9790 0.9780 0.9770
1015.945731 0.9750 0.9740 0.9730 0.9700 0.9690
1020.216806 0.9660 0.9630 0.9610 0.9590 0.9570
1024.487881 0.9570 0.9540 0.9530 0.9500 0.9490
1028.758955 0.9470 0.9450 0.9430 0.9420 0.9410
1033.030030 0.9410 0.9390 0.9380 0.9360 0.9350
1037.301105 0.9340 0.9320 0.9310 0.9300 0.9280
1041.572180 0.9260 0.9220 0.9190 0.9160 0.9140
1045.843255 0.9140 0.9060 0.9020 0.8990 0.8940
1050.114330 0.8880 0.8830 0.8750 0.8650 0.8560
1054.385405 0.8450 0.8330 0.8210 0.8090 0.7971
1058.656479 0.7850 0.7690 0.7520 0.7460 0.7430
1062.927554 0.7430 0.7470 0.7580 0.7640 0.7759
1067.198629 0.7800 0.7820 0.7840 0.7840 0.7820
1071.469704 0.7770 0.7700 0.7650 0.7580 0.7451
1075.740779 0.7270 0.7110 0.6940 0.6720 0.6590
1080.011854 0.6311 0.5971 0.5651 0.5331 0.5081
1084.282928 0.4790 0.4490 0.4180 0.3860 0.3570
1088.554003 0.3430 0.3290 0.3170 0.3160 0.3170
1092.825078 0.3250 0.3390 0.3550 0.3710 0.3900
1097.096153 0.4199 0.4489 0.4779 0.5089 0.5448
1101.367228 0.5880 0.6310 0.6680 0.6820 0.7020
1105.638303 0.7309 0.7609 0.7959 0.8089 0.8229
1109.909378 0.8370 0.8520 0.8630 0.8730 0.8760
1114.180452 0.8820 0.8880 0.8940 0.8990 0.9030
1118.451527 0.9100 0.9140 0.9160 0.9190 0.9220
1122.722602 0.9240 0.9270 0.9340 0.9350 0.9390
1126.993677 0.9420 0.9430 0.9430 0.9430 0.9450
1131.264752 0.9460 0.9470 0.9490 0.9490 0.9500
1135.535827 0.9510 0.9510 0.9530 0.9530 0.9510
1139.806902 0.9510 0.9500 0.9490 0.9470 0.9460
1144.077976 0.9450 0.9430 0.9420 0.9410 0.9410
1148.349051 0.9410 0.9420 0.9430 0.9450 0.9450
1152.620126 0.9460 0.9470 0.9490 0.9500 0.9530
1156.891201 0.9550 0.9570 0.9570 0.9570 0.9570
1161.162276 0.9580 0.9580 0.9580 0.9590 0.9590
1165.433351 0.9590 0.9590 0.9590 0.9610 0.9610
1169.704426 0.9620 0.9610 0.9610 0.9620 0.9620
1173.975500 0.9630 0.9630 0.9630 0.9630 0.9630
1178.246575 0.9630 0.9630 0.9630 0.9630 0.9630
1182.517650 0.9650 0.9650 0.9660 0.9660 0.9670
1186.788725 0.9670 0.9670 0.9670 0.9670 0.9670
1191.059800 0.9690 0.9690 0.9690 0.9690 0.9690
1195.330875 0.9690 0.9690 0.9690 0.9670 0.9670
1199.601949 0.9670 0.9660 0.9650 0.9630 0.9630
1203.873024 0.9620 0.9610 0.9590 0.9580 0.9570
1208.144099 0.9550 0.9540 0.9530 0.9500 0.9460
1212.415174 0.9410 0.9360 0.9340 0.9270 0.9220
1216.686249 0.9150 0.9120 0.9040 0.9020 0.8960
1220.957324 0.8920 0.8910 0.8830 0.8800 0.8790
1225.228399 0.8780 0.8780 0.8760 0.8760 0.8750
1229.499473 0.8730 0.8730 0.8720 0.8710 0.8710
1233.770548 0.8690 0.8680 0.8640 0.8610 0.8570
1238.041623 0.8550 0.8520 0.8450 0.8390 0.8310
1242.312698 0.8200 0.8150 0.8040 0.7940 0.7811
1246.583773 0.7740 0.7520 0.7300 0.7230 0.6990
1250.854848 0.6800 0.6620 0.6321 0.6210 0.6160
1255.125923 0.6080 0.6080 0.6130 0.6200 0.6380
1259.396997 0.6540 0.6720 0.6929 0.7219 0.7489
1263.668072 0.7940 0.8050 0.8170 0.8270 0.8400
1267.939147 0.8530 0.8630 0.8690 0.8760 0.8909
1272.210222 0.8950 0.8980 0.9020 0.9080 0.9120
1276.481297 0.9150 0.9180 0.9220 0.9240 0.9270
1280.752372 0.9320 0.9350 0.9360 0.9380 0.9410
1285.023447 0.9430 0.9450 0.9450 0.9470 0.9490
1289.294521 0.9500 0.9500 0.9510 0.9530 0.9530
1293.565596 0.9540 0.9550 0.9550 0.9550 0.9550
1297.836671 0.9550 0.9550 0.9540 0.9530 0.9530
1302.107746 0.9510 0.9510 0.9510 0.9510 0.9530
1306.378821 0.9550 0.9550 0.9530 0.9500 0.9470
1310.649896 0.9460 0.9460 0.9460 0.9470 0.9470
1314.920971 0.9470 0.9470 0.9470 0.9470 0.9470
1319.192045 0.9470 0.9490 0.9490 0.9490 0.9470
1323.463120 0.9470 0.9470 0.9460 0.9460 0.9460
1327.734195 0.9450 0.9430 0.9430 0.9420 0.9420
1332.005270 0.9410 0.9390 0.9380 0.9360 0.9350
1336.276345 0.9340 0.9320 0.9310 0.9300 0.9280
1340.547420 0.9270 0.9240 0.9230 0.9220 0.9200
1344.818494 0.9190 0.9180 0.9160 0.9120 0.9080
1349.089569 0.9060 0.9030 0.8990 0.8960 0.8940
1353.360644 0.8920 0.8860 0.8820 0.8790 0.8750
1357.631719 0.8710 0.8690 0.8670 0.8590 0.8450
1361.902794 0.8400 0.8330 0.8270 0.8200 0.8130
1366.173869 0.8040 0.7960 0.7840 0.7770 0.7680
1370.444944 0.7520 0.7350 0.7101 0.6970 0.6761
1374.716018 0.6550 0.6200 0.5950 0.5770 0.5630
1378.987093 0.5370 0.4871 0.4391 0.3981 0.3482
1383.258168 0.3229 0.2780 0.2450 0.2340 0.2330
1387.529243 0.2330 0.2340 0.2370 0.2539 0.2779
1391.800318 0.3120 0.3470 0.3630 0.3880 0.4070
1396.071393 0.4349 0.4809 0.5039 0.5169 0.5250
1400.342468 0.5280 0.5260 0.5200 0.5160 0.5140
1404.613542 0.5120 0.5100 0.5100 0.5120 0.5130
1408.884617 0.5220 0.5250 0.5400 0.5530 0.5929
1413.155692 0.6110 0.6300 0.6469 0.6679 0.6780
1417.426767 0.6930 0.7070 0.7140 0.7250 0.7350
1421.697842 0.7410 0.7430 0.7450 0.7460 0.7450
1425.968917 0.7430 0.7420 0.7410 0.7330 0.7300
1430.239992 0.7210 0.7090 0.6950 0.6840 0.6750
1434.511066 0.6600 0.6460 0.6310 0.6210 0.6170
1438.782141 0.6170 0.6190 0.6260 0.6350 0.6440
1443.053216 0.6540 0.6630 0.6760 0.6830 0.6930
1447.324291 0.6970 0.7060 0.7110 0.7170 0.7190
1451.595366 0.7210 0.7210 0.7220 0.7220 0.7220
1455.866441 0.7220 0.7220 0.7220 0.7220 0.7220
1460.137515 0.7230 0.7250 0.7330 0.7390 0.7410
1464.408590 0.7430 0.7490 0.7580 0.7600 0.7640
1468.679665 0.7690 0.7770 0.7810 0.7840 0.7860
1472.950740 0.7890 0.7890 0.7890 0.7890 0.7880
1477.221815 0.7860 0.7850 0.7820 0.7820 0.7780
1481.492890 0.7760 0.7650 0.7620 0.7600 0.7530
1485.763965 0.7460 0.7420 0.7370 0.7330 0.7270
1490.035039 0.7210 0.7140 0.7100 0.7070 0.7060
1494.306114 0.7030 0.6990 0.6980 0.6950 0.6930
1498.577189 0.6910 0.6890 0.6890 0.6830 0.6780
1502.848264 0.6740 0.6720 0.6710 0.6700 0.6700
1507.119339 0.6710 0.6760 0.6800 0.6860 0.6940
1511.390414 0.7050 0.7260 0.7500 0.7580 0.7720
1515.661489 0.7890 0.8020 0.8169 0.8329 0.8479
1519.932563 0.8530 0.8630 0.8710 0.8750 0.8790
1524.203638 0.8820 0.8870 0.8940 0.8990 0.9040
1528.474713 0.9120 0.9150 0.9190 0.9230 0.9310
1532.745788 0.9320 0.9320 0.9350 0.9360 0.9360
1537.016863 0.9390 0.9410 0.9420 0.9430 0.9450
1541.287938 0.9460 0.9470 0.9470 0.9490 0.9500
1545.559013 0.9500 0.9500 0.9500 0.9500 0.9500
1549.830087 0.9500 0.9510 0.9510 0.9510 0.9510
1554.101162 0.9530 0.9530 0.9530 0.9510 0.9510
1558.372237 0.9510 0.9510 0.9510 0.9510 0.9510
1562.643312 0.9510 0.9510 0.9510 0.9500 0.9500
1566.914387 0.9490 0.9490 0.9490 0.9490 0.9490
1571.185462 0.9470 0.9470 0.9460 0.9460 0.9460
1575.456537 0.9460 0.9460 0.9450 0.9450 0.9430
1579.727611 0.9430 0.9430 0.9420 0.9420 0.9420
1583.998686 0.9410 0.9410 0.9390 0.9390 0.9390
1588.269761 0.9390 0.9380 0.9380 0.9360 0.9350
1592.540836 0.9350 0.9340 0.9340 0.9320 0.9310
1596.811911 0.9310 0.9300 0.9270 0.9260 0.9240
1601.082986 0.9230 0.9220 0.9200 0.9190 0.9160
1605.354060 0.9150 0.9140 0.9120 0.9100 0.9070
1609.625135 0.9060 0.9030 0.8990 0.8960 0.8950
1613.896210 0.8940 0.8920 0.8870 0.8840 0.8800
1618.167285 0.8780 0.8730 0.8710 0.8670 0.8610
1622.438360 0.8550 0.8520 0.8440 0.8370 0.8320
1626.709435 0.8190 0.8120 0.8000 0.7960 0.7860
1630.980510 0.7760 0.7610 0.7470 0.7450 0.7300
1635.251584 0.7170 0.7090 0.6990 0.6940 0.6860
1639.522659 0.6820 0.6750 0.6680 0.6590 0.6460
1643.793734 0.6350 0.6170 0.6030 0.5891 0.5761
1648.064809 0.5610 0.5410 0.5300 0.4810 0.4301
1652.335884 0.4200 0.4070 0.3881 0.3561 0.3321
1656.606959 0.3010 0.2560 0.2290 0.2130 0.2050
1660.878034 0.1581 0.1121 0.1010 0.1010 0.0920
1665.149108 0.0830 0.0770 0.0670 0.0630 0.0530
1669.420183 0.0490 0.0480 0.0400 0.0360 0.0330
1673.691258 0.0300 0.0290 0.0290 0.0290 0.0280
1677.962333 0.0280 0.0280 0.0280 0.0290 0.0290
1682.233408 0.0300 0.0300 0.0320 0.0320 0.0340
1686.504483 0.0360 0.0380 0.0400 0.0440 0.0480
1690.775558 0.0500 0.0560 0.0630 0.0770 0.0990
1695.046632 0.1080 0.1230 0.1429 0.1619 0.1819
1699.317707 0.2070 0.2340 0.2640 0.3100 0.3639
1703.588782 0.3800 0.4069 0.4349 0.4569 0.4889
1707.859857 0.5130 0.5280 0.5520 0.5730 0.5910
1712.130932 0.6110 0.6300 0.6440 0.6540 0.6640
1716.402007 0.6760 0.6820 0.6930 0.6950 0.6980
1720.673081 0.7020 0.7090 0.7090 0.7090 0.7090
1724.944156 0.7100 0.7100 0.7110 0.7110 0.7130
1729.215231 0.7140 0.7180 0.7260 0.7330 0.7460
1733.486306 0.7490 0.7580 0.7650 0.7770 0.7780
1737.757381 0.7840 0.7880 0.7890 0.7890 0.7890
1742.028456 0.7890 0.7890 0.7890 0.7890 0.7890
1746.299531 0.7890 0.7930 0.7960 0.7970 0.8010
1750.570605 0.8090 0.8160 0.8270 0.8350 0.8370
1754.841680 0.8430 0.8520 0.8550 0.8610 0.8710
1759.112755 0.8720 0.8760 0.8840 0.8940 0.8980
1763.383830 0.9000 0.9030 0.9080 0.9140 0.9180
1767.654905 0.9220 0.9260 0.9280 0.9340 0.9350
1771.925980 0.9390 0.9430 0.9450 0.9460 0.9470
1776.197055 0.9500 0.9510 0.9530 0.9540 0.9550
1780.468129 0.9570 0.9580 0.9590 0.9590 0.9610
1784.739204 0.9620 0.9630 0.9650 0.9650 0.9660
1789.010279 0.9660 0.9670 0.9670 0.9690 0.9690
1793.281354 0.9700 0.9700 0.9710 0.9710 0.9730
1797.552429 0.9740 0.9750 0.9750 0.9770 0.9770
1801.823504 0.9770 0.9780 0.9780 0.9780 0.9780
1806.094579 0.9790 0.9790 0.9810 0.9810 0.9810
1810.365653 0.9810 0.9820 0.9830 0.9850 0.9850
1814.636728 0.9860 0.9860 0.9860 0.9860 0.9870
1818.907803 0.9870 0.9870 0.9870 0.9890 0.9890
1823.178878 0.9900 0.9900 0.9900 0.9910 0.9930
1827.449953 0.9930 0.9930 0.9930 0.9930 0.9930
1831.721028 0.9930 0.9930 0.9930 0.9930 0.9930
1835.992103 0.9930 0.9930 0.9930 0.9930 0.9930
1840.263177 0.9930 0.9930 0.9930 0.9930 0.9930
1844.534252 0.9930 0.9930 0.9930 0.9930 0.9930
1848.805327 0.9940 0.9940 0.9940 0.9940 0.9940
1853.076402 0.9940 0.9950 0.9950 0.9950 0.9950
1857.347477 0.9950 0.9950 0.9970 0.9970 0.9970
1861.618552 0.9970 0.9980 0.9980 0.9980 1.0000
1865.889626 1.0000 1.0000 1.0000 1.0000 1.0000
1870.160701 1.0000 1.0000 1.0010 1.0010 1.0010
1874.431776 1.0010 1.0010 1.0010 1.0020 1.0020
1878.702851 1.0020 1.0020 1.0020 1.0020 1.0020
1882.973926 1.0020 1.0020 1.0020 1.0020 1.0010
1887.245001 1.0010 1.0010 1.0010 1.0010 1.0010
1891.516076 1.0010 1.0010 1.0010 1.0010 1.0010
1895.787150 1.0020 1.0020 1.0020 1.0020 1.0020
1900.058225 1.0010 1.0010 1.0010 1.0010 1.0010
1904.329300 1.0010 1.0020 1.0010 1.0010 1.0010
1908.600375 1.0010 1.0010 1.0010 1.0020 1.0040
1912.871450 1.0040 1.0020 1.0020 1.0040 1.0040
1917.142525 1.0040 1.0040 1.0050 1.0060 1.0060
1921.413600 1.0060 1.0060 1.0060 1.0060 1.0050
1925.684674 1.0050 1.0040 1.0040 1.0040 1.0020
1929.955749 1.0020 1.0010 1.0010 1.0010 1.0010
1934.226824 1.0010 1.0010 1.0010 1.0020 1.0020
1938.497899 1.0020 1.0020 1.0020 1.0020 1.0020
1942.768974 1.0010 1.0010 1.0010 1.0010 1.0000
1947.040049 1.0000 1.0000 1.0000 0.9980 0.9980
1951.311124 0.9950 0.9930 0.9910 0.9900 0.9890
1955.582198 0.9890 0.9890 0.9910 1.0040 1.0080
1959.853273 1.0080 1.0010 0.9980 0.9950 0.9940
1964.124348 0.9940 0.9950 0.9950 0.9950 1.0000
1968.395423 1.0000 1.0000 1.0000 1.0010 1.0010
1972.666498 1.0010 1.0010 1.0020 1.0020 1.0020
1976.937573 1.0020 1.0020 1.0020 1.0020 1.0020
1981.208647 1.0020 1.0020 1.0020 1.0020 1.0020
1985.479722 1.0020 1.0010 1.0010 1.0010 1.0010
1989.750797 1.0010 1.0010 1.0000 1.0000 1.0000
1994.021872 1.0000 1.0000 1.0000 1.0000 1.0000
1998.292947 1.0000 1.0000 1.0010 1.0010 1.0010
2002.564022 1.0010 1.0010 0.9975 0.9940 0.9900
2006.835097 0.9860 0.9765 0.9670 0.9660 0.9650
2011.106171 0.9640 0.9630 0.9630 0.9630 0.9630
2015.377246 0.9630 0.9630 0.9630 0.9630 0.9630
2019.648321 0.9630 0.9630 0.9640 0.9650 0.9650
2023.919396 0.9650 0.9650 0.9650 0.9650 0.9650
2028.190471 0.9650 0.9650 0.9650 0.9650 0.9650
2032.461546 0.9650 0.9681 0.9710 0.9710 0.9709
2036.732621 0.9669 0.9630 0.9625 0.9620 0.9620
2041.003695 0.9620 0.9615 0.9610 0.9600 0.9590
2045.274770 0.9585 0.9580 0.9580 0.9580 0.9575
2049.545845 0.9570 0.9570 0.9570 0.9570 0.9570
2053.816920 0.9570 0.9570 0.9575 0.9580 0.9580
2058.087995 0.9580 0.9585 0.9591 0.9601 0.9610
2062.359070 0.9610 0.9610 0.9615 0.9620 0.9620
2066.630145 0.9620 0.9620 0.9620 0.9620 0.9620
2070.901219 0.9620 0.9620 0.9625 0.9631 0.9641
2075.172294 0.9650 0.9650 0.9650 0.9650 0.9650
2079.443369 0.9650 0.9650 0.9650 0.9650 0.9655
2083.714444 0.9660 0.9660 0.9660 0.9660 0.9660
2087.985519 0.9660 0.9660 0.9660 0.9660 0.9660
2092.256594 0.9660 0.9660 0.9660 0.9665 0.9670
2096.527669 0.9670 0.9670 0.9670 0.9670 0.9670
2100.798743 0.9670 0.9670 0.9669 0.9664 0.9660
2105.069818 0.9660 0.9660 0.9660 0.9660 0.9660
2109.340893 0.9659 0.9654 0.9650 0.9650 0.9650
2113.611968 0.9650 0.9649 0.9639 0.9629 0.9624
2117.883043 0.9620 0.9620 0.9619 0.9614 0.9609
2122.154118 0.9599 0.9590 0.9590 0.9589 0.9584
2126.425192 0.9580 0.9580 0.9581 0.9586 0.9590
2130.696267 0.9590 0.9591 0.9601 0.9611 0.9621
2134.967342 0.9630 0.9630 0.9631 0.9641 0.9651
2139.238417 0.9656 0.9660 0.9660 0.9660 0.9660
2143.509492 0.9661 0.9666 0.9670 0.9670 0.9670
2147.780567 0.9670 0.9670 0.9670 0.9670 0.9670
2152.051642 0.9670 0.9670 0.9669 0.9664 0.9660
2156.322716 0.9660 0.9660 0.9660 0.9660 0.9660
2160.593791 0.9660 0.9660 0.9660 0.9660 0.9659
2164.864866 0.9654 0.9650 0.9650 0.9650 0.9650
2169.135941 0.9650 0.9650 0.9650 0.9650 0.9648
2173.407016 0.9638 0.9630 0.9630 0.9630 0.9630
2177.678091 0.9630 0.9630 0.9630 0.9630 0.9630
2181.949166 0.9630 0.9630 0.9630 0.9630 0.9630
2186.220240 0.9630 0.9630 0.9630 0.9630 0.9630
2190.491315 0.9630 0.9630 0.9630 0.9630 0.9630
2194.762390 0.9630 0.9630 0.9630 0.9630 0.9630
2199.033465 0.9630 0.9630 0.9630 0.9630 0.9630
2203.304540 0.9630 0.9630 0.9630 0.9630 0.9632
2207.575615 0.9642 0.9651 0.9656 0.9660 0.9660
2211.846690 0.9661 0.9666 0.9670 0.9670 0.9670
2216.117764 0.9670 0.9670 0.9670 0.9669 0.9664
2220.388839 0.9660 0.9660 0.9660 0.9660 0.9660
2224.659914 0.9660 0.9660 0.9660 0.9660 0.9660
2228.930989 0.9660 0.9660 0.9660 0.9660 0.9660
2233.202064 0.9660 0.9660 0.9660 0.9660 0.9660
2237.473139 0.9660 0.9660 0.9659 0.9654 0.9650
2241.744214 0.9650 0.9648 0.9638 0.9630 0.9630
2246.015288 0.9630 0.9630 0.9630 0.9630 0.9630
2250.286363 0.9630 0.9630 0.9630 0.9630 0.9630
2254.557438 0.9630 0.9630 0.9629 0.9624 0.9620
2258.828513 0.9620 0.9620 0.9620 0.9620 0.9620
2263.099588 0.9620 0.9620 0.9619 0.9614 0.9607
2267.370663 0.9597 0.9589 0.9584 0.9579 0.9574
2271.641737 0.9570 0.9570 0.9570 0.9570 0.9570
2275.912812 0.9570 0.9570 0.9570 0.9570 0.9570
2280.183887 0.9571 0.9576 0.9580 0.9580 0.9584
2284.454962 0.9599 0.9611 0.9616 0.9621 0.9626
2288.726037 0.9630 0.9630 0.9630 0.9630 0.9630
2292.997112 0.9630 0.9630 0.9630 0.9630 0.9630
2297.268187 0.9630 0.9630 0.9630 0.9630 0.9630
2301.539261 0.9630 0.9633 0.9643 0.9650 0.9650
2305.810336 0.9650 0.9650 0.9650 0.9650 0.9650
2310.081411 0.9650 0.9652 0.9657 0.9660 0.9660
2314.352486 0.9660 0.9660 0.9660 0.9660 0.9662
2318.623561 0.9667 0.9670 0.9670 0.9673 0.9683
2322.894636 0.9693 0.9703 0.9713 0.9723 0.9732
2327.165711 0.9737 0.9745 0.9760 0.9770 0.9770
2331.436785 0.9772 0.9777 0.9780 0.9780 0.9782
2335.707860 0.9787 0.9790 0.9790 0.9790 0.9790
2339.978935 0.9790 0.9790 0.9790 0.9790 0.9790
2344.250010 0.9790 0.9790 0.9790 0.9790 0.9790
2348.521085 0.9790 0.9790 0.9790 0.9790 0.9790
2352.792160 0.9790 0.9793 0.9803 0.9810 0.9810
2357.063235 0.9807 0.9796 0.9790 0.9790 0.9790
2361.334309 0.9790 0.9790 0.9790 0.9788 0.9783
2365.605384 0.9780 0.9780 0.9780 0.9780 0.9780
2369.876459 0.9780 0.9780 0.9780 0.9778 0.9773
2374.147534 0.9770 0.9770 0.9770 0.9770 0.9770
2378.418609 0.9770 0.9770 0.9770 0.9766 0.9756
2382.689684 0.9750 0.9750 0.9750 0.9750 0.9750
2386.960758 0.9750 0.9750 0.9750 0.9750 0.9750
2391.231833 0.9754 0.9764 0.9772 0.9777 0.9780
2395.502908 0.9780 0.9782 0.9787 0.9790 0.9790
2399.773983 0.9790 0.9790 0.9790 0.9790 0.9790
2404.045058 0.9790 0.9790 0.9790 0.9794 0.9804
2408.316133 0.9810 0.9810 0.9810 0.9810 0.9810
2412.587208 0.9810 0.9810 0.9810 0.9812 0.9817
2416.858282 0.9820 0.9820 0.9820 0.9820 0.9820
2421.129357 0.9820 0.9820 0.9820 0.9820 0.9820
2425.400432 0.9820 0.9820 0.9820 0.9820 0.9820
2429.671507 0.9820 0.9820 0.9820 0.9820 0.9820
2433.942582 0.9820 0.9820 0.9820 0.9820 0.9820
2438.213657 0.9820 0.9820 0.9820 0.9820 0.9820
2442.484732 0.9820 0.9820 0.9820 0.9820 0.9820
2446.755806 0.9820 0.9820 0.9820 0.9818 0.9813
2451.026881 0.9810 0.9810 0.9810 0.9810 0.9810
2455.297956 0.9810 0.9810 0.9810 0.9810 0.9810
2459.569031 0.9810 0.9810 0.9810 0.9810 0.9810
2463.840106 0.9810 0.9805 0.9795 0.9790 0.9790
2468.111181 0.9790 0.9790 0.9790 0.9790 0.9790
2472.382256 0.9790 0.9790 0.9790 0.9790 0.9790
2476.653330 0.9788 0.9783 0.9780 0.9780 0.9780
2480.924405 0.9780 0.9780 0.9780 0.9780 0.9780
2485.195480 0.9778 0.9773 0.9770 0.9770 0.9765
2489.466555 0.9755 0.9748 0.9743 0.9740 0.9740
2493.737630 0.9740 0.9740 0.9740 0.9740 0.9738
2498.008705 0.9733 0.9730 0.9730 0.9730 0.9730
2502.279780 0.9730 0.9730 0.9730 0.9730 0.9730
2506.550854 0.9730 0.9730 0.9730 0.9730 0.9730
2510.821929 0.9733 0.9738 0.9740 0.9740 0.9743
2515.093004 0.9748 0.9750 0.9750 0.9750 0.9750
2519.364079 0.9755 0.9765 0.9770 0.9770 0.9770
2523.635154 0.9770 0.9770 0.9770 0.9770 0.9770
2527.906229 0.9770 0.9770 0.9773 0.9778 0.9780
2532.177303 0.9780 0.9780 0.9780 0.9780 0.9780
2536.448378 0.9783 0.9788 0.9790 0.9790 0.9790
2540.719453 0.9790 0.9790 0.9790 0.9790 0.9790
2544.990528 0.9790 0.9790 0.9790 0.9790 0.9790
2549.261603 0.9790 0.9790 0.9790 0.9795 0.9805
2553.532678 0.9810 0.9810 0.9810 0.9810 0.9810
2557.803753 0.9810 0.9810 0.9810 0.9810 0.9810
2562.074827 0.9804 0.9794 0.9790 0.9790 0.9790
2566.345902 0.9790 0.9790 0.9790 0.9790 0.9790
2570.616977 0.9790 0.9790 0.9790 0.9790 0.9790
2574.888052 0.9790 0.9790 0.9790 0.9790 0.9790
2579.159127 0.9790 0.9790 0.9790 0.9790 0.9787
2583.430202 0.9782 0.9780 0.9780 0.9780 0.9780
2587.701277 0.9780 0.9780 0.9780 0.9780 0.9783
2591.972351 0.9788 0.9790 0.9790 0.9790 0.9790
2596.243426 0.9790 0.9790 0.9790 0.9790 0.9790
2600.514501 0.9790 0.9796 0.9806 0.9804 0.9794
2604.785576 0.9790 0.9790 0.9790 0.9790 0.9790
2609.056651 0.9790 0.9796 0.9806 0.9804 0.9794
2613.327726 0.9796 0.9806 0.9810 0.9810 0.9810
2617.598801 0.9810 0.9810 0.9810 0.9810 0.9810
2621.869875 0.9810 0.9810 0.9816 0.9826 0.9830
2626.140950 0.9830 0.9830 0.9830 0.9836 0.9846
2630.412025 0.9850 0.9850 0.9850 0.9850 0.9850
2634.683100 0.9850 0.9850 0.9850 0.9850 0.9850
2638.954175 0.9850 0.9850 0.9850 0.9850 0.9844
2643.225250 0.9834 0.9827 0.9822 0.9820 0.9820
2647.496324 0.9820 0.9820 0.9820 0.9820 0.9820
2651.767399 0.9820 0.9820 0.9820 0.9820 0.9820
2656.038474 0.9820 0.9820 0.9820 0.9820 0.9817
2660.309549 0.9812 0.9810 0.9810 0.9810 0.9810
2664.580624 0.9810 0.9810 0.9803 0.9793 0.9790
2668.851699 0.9790 0.9790 0.9790 0.9797 0.9807
2673.122774 0.9810 0.9810 0.9810 0.9810 0.9810
2677.393848 0.9810 0.9810 0.9810 0.9803 0.9793
2681.664923 0.9790 0.9790 0.9790 0.9790 0.9790
2685.935998 0.9790 0.9790 0.9790 0.9790 0.9790
2690.207073 0.9790 0.9790 0.9787 0.9782 0.9780
2694.478148 0.9780 0.9780 0.9780 0.9780 0.9780
2698.749223 0.9780 0.9780 0.9776 0.9771 0.9770
2703.020298 0.9770 0.9770 0.9770 0.9770 0.9770
2707.291372 0.9770 0.9770 0.9770 0.9770 0.9770
2711.562447 0.9770 0.9770 0.9770 0.9770 0.9770
2715.833522 0.9770 0.9770 0.9763 0.9753 0.9750
2720.104597 0.9750 0.9750 0.9750 0.9746 0.9741
2724.375672 0.9736 0.9731 0.9730 0.9730 0.9730
2728.646747 0.9730 0.9723 0.9713 0.9706 0.9701
2732.917822 0.9696 0.9691 0.9683 0.9673 0.9666
2737.188896 0.9661 0.9656 0.9651 0.9643 0.9633
2741.459971 0.9623 0.9613 0.9603 0.9593 0.9583
2745.731046 0.9573 0.9563 0.9553 0.9546 0.9541
2750.002121 0.9529 0.9514 0.9487 0.9457 0.9427
2754.273196 0.9397 0.9375 0.9355 0.9346 0.9341
2758.544271 0.9329 0.9314 0.9284 0.9249 0.9217
2762.815346 0.9187 0.9169 0.9154 0.9139 0.9124
2767.086420 0.9120 0.9120 0.9116 0.9111 0.9095
2771.357495 0.9075 0.9051 0.9026 0.9008 0.8993
2775.628570 0.8986 0.8981 0.8968 0.8953 0.8950
2779.899645 0.8950 0.8950 0.8950 0.8954 0.8959
2784.170720 0.8968 0.8978 0.8984 0.8989 0.8990
2788.441795 0.8990 0.8990 0.8990 0.8986 0.8981
2792.712869 0.8968 0.8953 0.8946 0.8941 0.8932
2796.983944 0.8922 0.8904 0.8884 0.8876 0.8871
2801.255019 0.8842 0.8807 0.8780 0.8755 0.8734
2805.526094 0.8714 0.8698 0.8683 0.8676 0.8671
2809.797169 0.8662 0.8652 0.8646 0.8641 0.8636
2814.068244 0.8631 0.8622 0.8612 0.8606 0.8601
2818.339319 0.8596 0.8591 0.8582 0.8572 0.8562
2822.610393 0.8552 0.8534 0.8514 0.8485 0.8455
2826.881468 0.8429 0.8404 0.8388 0.8373 0.8345
2831.152543 0.8315 0.8269 0.8219 0.8185 0.8155
2835.423618 0.8109 0.8058 0.8016 0.7976 0.7915
2839.694693 0.7850 0.7777 0.7702 0.7627 0.7552
2843.965768 0.7506 0.7466 0.7439 0.7414 0.7381
2848.236843 0.7346 0.7311 0.7276 0.7249 0.7224
2852.507917 0.7182 0.7137 0.7104 0.7074 0.7027
2856.778992 0.6977 0.6953 0.6933 0.6921 0.6911
2861.050067 0.6910 0.6910 0.6919 0.6929 0.6934
2865.321142 0.6939 0.6953 0.6968 0.6974 0.6979
2869.592217 0.6993 0.7008 0.7014 0.7019 0.7042
2873.863292 0.7067 0.7083 0.7098 0.7104 0.7109
2878.134367 0.7123 0.7138 0.7153 0.7168 0.7179
2882.405441 0.7189 0.7203 0.7218 0.7233 0.7248
2886.676516 0.7254 0.7259 0.7264 0.7269 0.7279
2890.947591 0.7289 0.7290 0.7290 0.7294 0.7299
2895.218666 0.7300 0.7300 0.7300 0.7300 0.7296
2899.489741 0.7291 0.7281 0.7271 0.7266 0.7261
2903.760816 0.7256 0.7250 0.7232 0.7212 0.7196
2908.031890 0.7181 0.7157 0.7132 0.7098 0.7063
2912.302965 0.7006 0.6946 0.6917 0.6892 0.6858
2916.574040 0.6823 0.6793 0.6763 0.6706 0.6646
2920.845115 0.6594 0.6544 0.6503 0.6463 0.6405
2925.116190 0.6345 0.6322 0.6302 0.6249 0.6194
2929.387265 0.6176 0.6161 0.6155 0.6150 0.6150
2933.658340 0.6150 0.6155 0.6160 0.6160 0.6160
2937.929414 0.6165 0.6170 0.6184 0.6199 0.6219
2942.200489 0.6239 0.6287 0.6337 0.6382 0.6427
2946.471564 0.6444 0.6459 0.6469 0.6479 0.6532
2950.742639 0.6587 0.6623 0.6658 0.6688 0.6718
2955.013714 0.6753 0.6789 0.6814 0.6839 0.6864
2959.284789 0.6889 0.6938 0.6988 0.7047 0.7107
2963.555864 0.7182 0.7257 0.7317 0.7377 0.7404
2967.826938 0.7429 0.7473 0.7518 0.7587 0.7657
2972.098013 0.7732 0.7808 0.7869 0.7929 0.7984
2976.369088 0.8039 0.8084 0.8129 0.8150 0.8169
2980.640163 0.8238 0.8308 0.8339 0.8369 0.8404
2984.911238 0.8439 0.8474 0.8509 0.8515 0.8520
2989.182313 0.8535 0.8550 0.8555 0.8560 0.8565
2993.453388 0.8570 0.8580 0.8590 0.8595 0.8600
2997.724462 0.8605 0.8610 0.8620 0.8630 0.8640
3001.995537 0.8650 0.8670 0.8690 0.8710 0.8730
3006.266612 0.8745 0.8760 0.8775 0.8790 0.8805
3010.537687 0.8820 0.8845 0.8870 0.8890 0.8910
3014.808762 0.8930 0.8950 0.8955 0.8960 0.8975
3019.079837 0.8990 0.9010 0.9030 0.9050 0.9070
3023.350912 0.9090 0.9110 0.9125 0.9140 0.9145
3027.621986 0.9150 0.9155 0.9161 0.9181 0.9200
3031.893061 0.9210 0.9220 0.9230 0.9240 0.9250
3036.164136 0.9260 0.9270 0.9280 0.9295 0.9310
3040.435211 0.9310 0.9310 0.9315 0.9320 0.9320
3044.706286 0.9320 0.9320 0.9320 0.9330 0.9340
3048.977361 0.9340 0.9340 0.9340 0.9340 0.9340
3053.248435 0.9340 0.9340 0.9340 0.9330 0.9320
3057.519510 0.9320 0.9320 0.9320 0.9320 0.9315
3061.790585 0.9310 0.9310 0.9310 0.9310 0.9309
3066.061660 0.9294 0.9280 0.9280 0.9280 0.9275
3070.332735 0.9270 0.9270 0.9270 0.9265 0.9259
3074.603810 0.9249 0.9240 0.9240 0.9240 0.9240
3078.874885 0.9240 0.9240 0.9241 0.9251 0.9260
3083.145959 0.9265 0.9270 0.9270 0.9270 0.9270
3087.417034 0.9270 0.9275 0.9280 0.9280 0.9281
3091.688109 0.9291 0.9301 0.9311 0.9321 0.9331
3095.959184 0.9340 0.9340 0.9340 0.9345 0.9350
3100.230259 0.9355 0.9360 0.9360 0.9361 0.9371
3104.501334 0.9380 0.9385 0.9390 0.9390 0.9391
3108.772409 0.9401 0.9410 0.9410 0.9411 0.9416
3113.043483 0.9421 0.9426 0.9430 0.9430 0.9430
3117.314558 0.9430 0.9430 0.9430 0.9431 0.9441
3121.585633 0.9450 0.9450 0.9451 0.9456 0.9460
3125.856708 0.9460 0.9461 0.9466 0.9470 0.9470
3130.127783 0.9470 0.9470 0.9470 0.9470 0.9470
3134.398858 0.9470 0.9470 0.9470 0.9470 0.9470
3138.669933 0.9470 0.9470 0.9471 0.9481 0.9490
3142.941007 0.9490 0.9490 0.9490 0.9490 0.9490
3147.212082 0.9490 0.9490 0.9490 0.9490 0.9491
3151.483157 0.9496 0.9500 0.9500 0.9499 0.9494
3155.754232 0.9490 0.9490 0.9489 0.9479 0.9470
3160.025307 0.9470 0.9470 0.9470 0.9470 0.9470
3164.296382 0.9470 0.9470 0.9470 0.9470 0.9470
3168.567457 0.9470 0.9470 0.9470 0.9469 0.9464
3172.838531 0.9459 0.9454 0.9450 0.9450 0.9450
3177.109606 0.9450 0.9450 0.9450 0.9450 0.9450
3181.380681 0.9451 0.9456 0.9460 0.9460 0.9460
3185.651756 0.9460 0.9460 0.9460 0.9461 0.9466
3189.922831 0.9470 0.9470 0.9470 0.9470 0.9470
3194.193906 0.9470 0.9470 0.9470 0.9470 0.9470
3198.464980 0.9470 0.9470 0.9470 0.9470 0.9469
3202.736055 0.9464 0.9460 0.9460 0.9460 0.9460
3207.007130 0.9460 0.9460 0.9460 0.9460 0.9460
3211.278205 0.9460 0.9460 0.9460 0.9460 0.9460
3215.549280 0.9460 0.9460 0.9460 0.9460 0.9460
3219.820355 0.9460 0.9461 0.9466 0.9470 0.9470
3224.091430 0.9469 0.9464 0.9460 0.9460 0.9460
3228.362504 0.9460 0.9460 0.9460 0.9460 0.9460
3232.633579 0.9461 0.9466 0.9470 0.9470 0.9472
3236.904654 0.9482 0.9490 0.9490 0.9490 0.9490
3241.175729 0.9491 0.9496 0.9501 0.9506 0.9510
3245.446804 0.9510 0.9512 0.9522 0.9531 0.9536
3249.717879 0.9540 0.9540 0.9541 0.9546 0.9550
3253.988954 0.9550 0.9550 0.9550 0.9550 0.9550
3258.260028 0.9550 0.9550 0.9552 0.9562 0.9570
3262.531103 0.9570 0.9567 0.9557 0.9550 0.9550
3266.802178 0.9553 0.9563 0.9570 0.9570 0.9570
3271.073253 0.9570 0.9570 0.9570 0.9570 0.9570
3275.344328 0.9570 0.9570 0.9570 0.9570 0.9570
3279.615403 0.9570 0.9571 0.9576 0.9580 0.9580
3283.886478 0.9579 0.9574 0.9570 0.9570 0.9570
3288.157552 0.9570 0.9571 0.9576 0.9580 0.9580
3292.428627 0.9579 0.9574 0.9570 0.9570 0.9571
3296.699702 0.9576 0.9580 0.9580 0.9580 0.9580
3300.970777 0.9580 0.9580 0.9579 0.9574 0.9567
3305.241852 0.9557 0.9550 0.9550 0.9550 0.9550
3309.512927 0.9549 0.9544 0.9540 0.9540 0.9538
3313.784001 0.9533 0.9527 0.9517 0.9508 0.9503
3318.055076 0.9498 0.9493 0.9487 0.9477 0.9467
3322.326151 0.9457 0.9450 0.9450 0.9447 0.9437
3326.597226 0.9428 0.9423 0.9418 0.9413 0.9410
3330.868301 0.9410 0.9410 0.9410 0.9407 0.9397
3335.139376 0.9390 0.9390 0.9390 0.9390 0.9390
3339.410451 0.9390 0.9393 0.9403 0.9410 0.9410
3343.681525 0.9410 0.9410 0.9412 0.9417 0.9420
3347.952600 0.9420 0.9422 0.9427 0.9430 0.9430
3352.223675 0.9430 0.9430 0.9434 0.9444 0.9452
3356.494750 0.9457 0.9462 0.9467 0.9474 0.9484
3360.765825 0.9492 0.9497 0.9502 0.9507 0.9510
3365.036900 0.9510 0.9510 0.9510 0.9514 0.9524
3369.307975 0.9530 0.9530 0.9530 0.9530 0.9532
3373.579049 0.9537 0.9540 0.9540 0.9540 0.9540
3377.850124 0.9540 0.9540 0.9540 0.9540 0.9540
3382.121199 0.9540 0.9540 0.9540 0.9540 0.9540
3386.392274 0.9540 0.9540 0.9540 0.9540 0.9540
3390.663349 0.9540 0.9540 0.9540 0.9540 0.9540
3394.934424 0.9538 0.9533 0.9530 0.9530 0.9530
3399.205499 0.9530 0.9530 0.9530 0.9530 0.9530
3403.476573 0.9530 0.9530 0.9532 0.9537 0.9540
3407.747648 0.9540 0.9538 0.9533 0.9530 0.9530
3412.018723 0.9530 0.9530 0.9530 0.9530 0.9530
3416.289798 0.9530 0.9530 0.9530 0.9530 0.9530
3420.560873 0.9530 0.9530 0.9530 0.9530 0.9530
3424.831948 0.9530 0.9530 0.9530 0.9530 0.9530
3429.103023 0.9530 0.9530 0.9526 0.9516 0.9510
3433.374097 0.9510 0.9510 0.9510 0.9510 0.9510
3437.645172 0.9510 0.9510 0.9508 0.9503 0.9500
3441.916247 0.9500 0.9500 0.9500 0.9500 0.9500
3446.187322 0.9500 0.9500 0.9498 0.9493 0.9490
3450.458397 0.9490 0.9490 0.9490 0.9485 0.9475
3454.729472 0.9470 0.9470 0.9470 0.9470 0.9470
3459.000546 0.9470 0.9470 0.9470 0.9468 0.9463
3463.271621 0.9460 0.9460 0.9460 0.9460 0.9460
3467.542696 0.9460 0.9460 0.9460 0.9460 0.9460
3471.813771 0.9460 0.9460 0.9460 0.9460 0.9460
3476.084846 0.9460 0.9460 0.9460 0.9460 0.9460
3480.355921 0.9460 0.9460 0.9460 0.9460 0.9460
3484.626996 0.9460 0.9460 0.9460 0.9462 0.9467
3488.898070 0.9468 0.9463 0.9460 0.9460 0.9460
3493.169145 0.9460 0.9460 0.9460 0.9462 0.9467
3497.440220 0.9470 0.9470 0.9470 0.9470 0.9470
3501.711295 0.9470 0.9475 0.9485 0.9490 0.9490
3505.982370 0.9490 0.9490 0.9490 0.9490 0.9490
3510.253445 0.9490 0.9493 0.9498 0.9500 0.9500
3514.524520 0.9500 0.9500 0.9500 0.9500 0.9503
3518.795594 0.9508 0.9510 0.9510 0.9507 0.9502
3523.066669 0.9500 0.9500 0.9497 0.9492 0.9490
3527.337744 0.9490 0.9490 0.9490 0.9490 0.9490
3531.608819 0.9490 0.9490 0.9490 0.9490 0.9490
3535.879894 0.9490 0.9490 0.9490 0.9490 0.9490
3540.150969 0.9490 0.9490 0.9490 0.9490 0.9490
3544.422044 0.9490 0.9493 0.9498 0.9500 0.9500
3548.693118 0.9500 0.9500 0.9500 0.9500 0.9500
3552.964193 0.9500 0.9500 0.9500 0.9503 0.9508
3557.235268 0.9510 0.9510 0.9510 0.9510 0.9518
3561.506343 0.9533 0.9543 0.9548 0.9550 0.9550
3565.777418 0.9550 0.9550 0.9550 0.9550 0.9550
3570.048493 0.9550 0.9556 0.9566 0.9573 0.9578
3574.319567 0.9583 0.9588 0.9590 0.9590 0.9596
3578.590642 0.9606 0.9613 0.9618 0.9623 0.9628
3582.861717 0.9636 0.9646 0.9653 0.9658 0.9663
3587.132792 0.9668 0.9676 0.9686 0.9690 0.9690
3591.403867 0.9696 0.9706 0.9716 0.9726 0.9733
3595.674942 0.9738 0.9743 0.9748 0.9756 0.9766
3599.946017 0.9773 0.9778 0.9783 0.9788 0.9796
3604.217091 0.9806 0.9810 0.9810 0.9813 0.9818
3608.488166 0.9823 0.9828 0.9830 0.9830 0.9836
3612.759241 0.9846 0.9850 0.9850 0.9853 0.9858
3617.030316 0.9860 0.9860 0.9860 0.9860 0.9863
3621.301391 0.9868 0.9876 0.9886 0.9893 0.9898
3625.572466 0.9900 0.9900 0.9900 0.9900 0.9900
3629.843541 0.9900 0.9903 0.9908 0.9910 0.9910
3634.114615 0.9910 0.9910 0.9910 0.9910 0.9910
3638.385690 0.9910 0.9916 0.9926 0.9933 0.9938
3642.656765 0.9943 0.9948 0.9950 0.9950 0.9950
3646.927840 0.9950 0.9950 0.9950 0.9950 0.9950
3651.198915 0.9950 0.9950 0.9950 0.9950 0.9950
3655.469990 0.9950 0.9957 0.9967 0.9970 0.9970
3659.741065 0.9970 0.9970 0.9970 0.9970 0.9973
3664.012139 0.9978 0.9987 0.9997 1.0000 1.0000
3668.283214 1.0000 1.0000 1.0003 1.0008 1.0010
3672.554289 1.0010 1.0007 1.0002 1.0000 1.0000
3676.825364 1.0003 1.0008 1.0013 1.0018 1.0020
3681.096439 1.0020 1.0017 1.0012 1.0010 1.0010
3685.367514 1.0010 1.0010 1.0010 1.0010 1.0010
3689.638589 1.0010 1.0010 1.0010 1.0010 1.0010
3693.909663 1.0010 1.0010 1.0014 1.0019 1.0020
3698.180738 1.0020 1.0020 1.0020 1.0020 1.0020
3702.451813 1.0027 1.0037 1.0040 1.0040 1.0040
3706.722888 1.0040 1.0040 1.0040 1.0040 1.0040
3710.993963 1.0040 1.0040 1.0040 1.0040 1.0040
3715.265038 1.0040 1.0040 1.0040 1.0040 1.0040
3719.536112 1.0033 1.0023 1.0020 1.0020 1.0020
3723.807187 1.0020 1.0020 1.0020 1.0020 1.0020
3728.078262 1.0020 1.0020 1.0027 1.0037 1.0040
3732.349337 1.0040 1.0040 1.0040 1.0040 1.0040
3736.620412 1.0040 1.0040 1.0040 1.0040 1.0040
3740.891487 1.0040 1.0040 1.0040 1.0040 1.0040
3745.162562 1.0040 1.0040
##END=
