##TITLE=DIBUTYL TIN DICHLORIDE
##JCAMP-DX=4.24
##DATA TYPE=INFRARED SPECTRUM
##CLASS=COBLENTZ
##ORIGIN=WYANDOTTE CHEMICALS CORP., WYANDOTTE, MICHIGAN, USA
##OWNER=COBLENTZ SOCIETY
Collection (C) 2018 copyright by the U.S. Secretary of Commerce
on behalf of the United States of America. All rights reserved.
##DATE=Not specified, most likely prior to 1970
##NAMES=dibutyl(dichloro)stannane
##CAS REGISTRY NO=683-18-1
##MOLFORM=C8 H18 Cl2 Sn
##SOURCE REFERENCE=COBLENTZ NO. 591
##$NIST SOURCE=COBLENTZ
##$NIST IMAGE=cob591
##SPECTROMETER/DATA SYSTEM=Not specified, most likely a prism, grating, or hybrid spectrometer.
##STATE=SOLID (OIL MULL)
##SAMPLING PROCEDURE=TRANSMISSION
##RESOLUTION=4
##DATA PROCESSING=DIGITIZED BY NIST FROM HARD COPY
##XUNITS=MICROMETERS
##YUNITS=TRANSMITTANCE
##XFACTOR=1.000000
##YFACTOR=1
##DELTAX=000.006663
##FIRSTX=2.027
##LASTX=16.013
##FIRSTY=0.464
##MAXX=16.013
##MINX=2.027
##MAXY=0.974
##MINY=0.021
##NPOINTS=2100
##XYDATA=(X++(Y..Y))
2.027000 0.4640 0.4640 0.4640 0.4670 0.4690
2.060331 0.4690 0.4720 0.4750 0.4770 0.4790
2.094000 0.4800 0.4820 0.4820 0.4840 0.4850
2.127331 0.4850 0.4850 0.4850 0.4850 0.4850
2.160000 0.4850 0.4790 0.4690 0.4570 0.4520
2.193331 0.4470 0.4290 0.4240 0.4190 0.4170
2.227000 0.4170 0.4170 0.4170 0.4170 0.4170
2.260331 0.4200 0.4270 0.4320 0.4350 0.4390
2.294000 0.4420 0.4440 0.4450 0.4470 0.4470
2.327331 0.4470 0.4470 0.4470 0.4470 0.4490
2.360000 0.4490 0.4500 0.4520 0.4550 0.4590
2.393331 0.4640 0.4690 0.4740 0.4800 0.4850
2.427000 0.4890 0.4900 0.4920 0.4920 0.4920
2.460331 0.4920 0.4950 0.4950 0.5040 0.5070
2.494000 0.5090 0.5100 0.5140 0.5150 0.5190
2.527331 0.5220 0.5240 0.5270 0.5270 0.5290
2.560000 0.5300 0.5300 0.5300 0.5300 0.5300
2.593331 0.5300 0.5300 0.5340 0.5350 0.5390
2.627000 0.5440 0.5450 0.5470 0.5470 0.5490
2.660331 0.5500 0.5520 0.5520 0.5540 0.5550
2.694000 0.5570 0.5590 0.5590 0.5600 0.5600
2.727331 0.5600 0.5600 0.5600 0.5600 0.5600
2.760000 0.5600 0.5640 0.5640 0.5650 0.5650
2.793331 0.5670 0.5670 0.5690 0.5690 0.5690
2.827000 0.5690 0.5690 0.5690 0.5690 0.5690
2.860331 0.5690 0.5690 0.5690 0.5690 0.5690
2.893000 0.5690 0.5650 0.5640 0.5620 0.5600
2.926331 0.5600 0.5600 0.5600 0.5600 0.5600
2.960000 0.5600 0.5590 0.5590 0.5590 0.5590
2.993331 0.5590 0.5600 0.5600 0.5600 0.5600
3.027000 0.5600 0.5620 0.5640 0.5640 0.5640
3.060331 0.5620 0.5590 0.5550 0.5520 0.5470
3.093000 0.5450 0.5400 0.5320 0.5240 0.5150
3.126331 0.5070 0.5020 0.5000 0.4970 0.4950
3.160000 0.4920 0.4890 0.4890 0.4870 0.4870
3.193331 0.4870 0.4870 0.4870 0.4820 0.4800
3.227000 0.4750 0.4690 0.4590 0.4490 0.4350
3.260331 0.4170 0.3970 0.3720 0.3400 0.3070
3.293000 0.2670 0.2150 0.1500 0.0930 0.0550
3.326331 0.0330 0.0250 0.0210 0.0210 0.0210
3.360000 0.0230 0.0260 0.0280 0.0300 0.0300
3.393331 0.0280 0.0280 0.0310 0.0330 0.0330
3.426000 0.0330 0.0310 0.0300 0.0280 0.0280
3.459331 0.0280 0.0300 0.0300 0.0330 0.0380
3.493000 0.0430 0.0450 0.0660 0.0980 0.1330
3.526331 0.1700 0.1980 0.2480 0.2750 0.3430
3.560000 0.3780 0.4070 0.4340 0.4590 0.4840
3.593331 0.5450 0.5720 0.5820 0.5870 0.5940
3.626000 0.5990 0.5990 0.5940 0.5870 0.5700
3.659331 0.5700 0.5740 0.5800 0.5850 0.5950
3.693000 0.6020 0.6120 0.6160 0.6190 0.6190
3.726331 0.6190 0.6190 0.6210 0.6210 0.6210
3.760000 0.6220 0.6270 0.6370 0.6420 0.6470
3.793331 0.6510 0.6510 0.6540 0.6570 0.6610
3.826000 0.6640 0.6690 0.6710 0.6740 0.6770
3.859331 0.6820 0.6860 0.6890 0.6910 0.6920
3.893000 0.6960 0.7010 0.7060 0.7120 0.7190
3.926331 0.7260 0.7310 0.7340 0.7360 0.7370
3.959000 0.7390 0.7410 0.7440 0.7470 0.7510
3.992331 0.7560 0.7570 0.7610 0.7620 0.7640
4.026000 0.7640 0.7660 0.7670 0.7670 0.7690
4.059331 0.7720 0.7760 0.7770 0.7790 0.7810
4.093000 0.7820 0.7820 0.7820 0.7820 0.7790
4.126331 0.7790 0.7810 0.7810 0.7820 0.7820
4.159000 0.7820 0.7810 0.7790 0.7790 0.7770
4.192331 0.7770 0.7770 0.7810 0.7810 0.7810
4.226000 0.7760 0.7720 0.7670 0.7670 0.7640
4.259331 0.7620 0.7620 0.7670 0.7690 0.7710
4.293000 0.7710 0.7690 0.7710 0.7720 0.7740
4.326331 0.7760 0.7770 0.7790 0.7820 0.7860
4.359000 0.7870 0.7910 0.7920 0.7960 0.7970
4.392331 0.7990 0.7990 0.8010 0.8030 0.8040
4.426000 0.8040 0.8060 0.8080 0.8110 0.8140
4.459331 0.8210 0.8230 0.8240 0.8240 0.8240
4.493000 0.8240 0.8260 0.8280 0.8290 0.8310
4.526331 0.8310 0.8290 0.8260 0.8240 0.8210
4.559000 0.8180 0.8180 0.8190 0.8210 0.8230
4.592331 0.8230 0.8240 0.8240 0.8260 0.8260
4.626000 0.8260 0.8280 0.8290 0.8310 0.8340
4.659331 0.8360 0.8380 0.8390 0.8390 0.8410
4.692000 0.8410 0.8430 0.8430 0.8430 0.8410
4.725331 0.8410 0.8410 0.8410 0.8410 0.8410
4.759000 0.8390 0.8410 0.8410 0.8430 0.8440
4.792331 0.8460 0.8490 0.8510 0.8540 0.8540
4.826000 0.8560 0.8580 0.8580 0.8590 0.8630
4.859331 0.8640 0.8660 0.8660 0.8660 0.8680
4.892000 0.8680 0.8690 0.8690 0.8710 0.8710
4.925331 0.8690 0.8690 0.8680 0.8680 0.8660
4.959000 0.8690 0.8730 0.8740 0.8760 0.8780
4.992331 0.8790 0.8810 0.8810 0.8810 0.8810
5.026000 0.8810 0.8810 0.8810 0.8810 0.8810
5.059331 0.8790 0.8830 0.8830 0.8910 0.8940
5.092000 0.8960 0.8990 0.8990 0.8990 0.9010
5.125331 0.9010 0.9010 0.9010 0.9010 0.8980
5.159000 0.8960 0.8930 0.8930 0.8930 0.8930
5.192331 0.8940 0.8940 0.8980 0.8980 0.8990
5.225000 0.8990 0.8980 0.8980 0.8980 0.8980
5.258331 0.8980 0.8960 0.8960 0.8930 0.8910
5.292000 0.8910 0.8890 0.8880 0.8880 0.8860
5.325331 0.8860 0.8840 0.8840 0.8840 0.8840
5.359000 0.8840 0.8880 0.8880 0.8890 0.8930
5.392331 0.8940 0.8940 0.8940 0.8960 0.8960
5.425000 0.8980 0.8990 0.9030 0.9060 0.9090
5.458331 0.9110 0.9130 0.9090 0.9030 0.9060
5.492000 0.9080 0.9090 0.9110 0.9160 0.9140
5.525331 0.9160 0.9180 0.9190 0.9190 0.9180
5.559000 0.9140 0.9130 0.9090 0.9080 0.9080
5.592331 0.9080 0.9060 0.9060 0.9040 0.9030
5.625000 0.8990 0.8960 0.8880 0.8810 0.8760
5.658331 0.8690 0.8590 0.8560 0.8530 0.8530
5.692000 0.8510 0.8490 0.8430 0.8390 0.8360
5.725331 0.8310 0.8290 0.8280 0.8290 0.8440
5.758000 0.8490 0.8560 0.8580 0.8560 0.8560
5.791331 0.8560 0.8540 0.8530 0.8530 0.8510
5.825000 0.8390 0.8380 0.8340 0.8310 0.8310
5.858331 0.8280 0.8260 0.8240 0.8230 0.8190
5.892000 0.8160 0.8130 0.8090 0.8060 0.8040
5.925331 0.8030 0.8010 0.7970 0.7910 0.7840
5.958000 0.7740 0.7660 0.7570 0.7520 0.7490
5.991331 0.7470 0.7440 0.7420 0.7410 0.7410
6.025000 0.7390 0.7340 0.7290 0.7260 0.7220
6.058331 0.7170 0.7140 0.7090 0.7110 0.7140
6.092000 0.7160 0.7160 0.7140 0.7140 0.7110
6.125331 0.7120 0.7160 0.7240 0.7470 0.7570
6.158000 0.7660 0.7740 0.7810 0.7890 0.7940
6.191331 0.8010 0.8040 0.8090 0.8110 0.8140
6.225000 0.8180 0.8240 0.8240 0.8230 0.8230
6.258331 0.8190 0.8190 0.8190 0.8210 0.8260
6.292000 0.8260 0.8260 0.8280 0.8260 0.8240
6.325331 0.8210 0.8140 0.8080 0.8060 0.8040
6.358000 0.8060 0.8060 0.8130 0.8160 0.8180
6.391331 0.8160 0.8110 0.7990 0.7990 0.7990
6.425000 0.7990 0.7990 0.8010 0.8040 0.8060
6.458331 0.8110 0.8130 0.8130 0.8130 0.8090
6.491000 0.8060 0.8010 0.7970 0.7960 0.7970
6.524331 0.7970 0.7990 0.7970 0.7960 0.7890
6.558000 0.7810 0.7720 0.7660 0.7620 0.7560
6.591331 0.7540 0.7460 0.7360 0.7240 0.7120
6.625000 0.7010 0.6890 0.6760 0.6590 0.6420
6.658331 0.6240 0.6020 0.5770 0.5500 0.5190
6.691000 0.5000 0.4820 0.4420 0.3980 0.3480
6.724331 0.2920 0.2580 0.1850 0.1230 0.0300
6.758000 0.0260 0.0260 0.0260 0.0260 0.0300
6.791331 0.0310 0.0360 0.0400 0.0400 0.0400
6.825000 0.0360 0.0330 0.0330 0.0330 0.0330
6.858331 0.0360 0.0480 0.0460 0.0510 0.0650
6.891000 0.0850 0.1100 0.1400 0.1750 0.2130
6.924331 0.2530 0.2930 0.3350 0.3620 0.3900
6.958000 0.4150 0.4220 0.4290 0.4320 0.4320
6.991331 0.3930 0.3720 0.3520 0.3500 0.3030
7.024000 0.2600 0.2580 0.2620 0.2800 0.2950
7.057331 0.3100 0.3380 0.3580 0.3780 0.3980
7.091000 0.4170 0.4350 0.4500 0.4640 0.4740
7.124331 0.4770 0.4850 0.4890 0.4900 0.4820
7.158000 0.4420 0.3980 0.3480 0.2900 0.2320
7.191331 0.1630 0.1130 0.0900 0.0610 0.0600
7.224000 0.0600 0.0600 0.0680 0.1300 0.1780
7.257331 0.2170 0.2470 0.2720 0.2930 0.3100
7.291000 0.3220 0.3470 0.3730 0.4220 0.4470
7.324331 0.4770 0.4950 0.5150 0.5150 0.5090
7.358000 0.5040 0.4970 0.4900 0.4740 0.4570
7.391331 0.4270 0.4070 0.3850 0.3620 0.3550
7.424000 0.3620 0.3880 0.4340 0.4670 0.4950
7.457331 0.5420 0.5620 0.5800 0.5970 0.6110
7.491000 0.6210 0.6240 0.6260 0.6270 0.6310
7.524331 0.6320 0.6340 0.6360 0.6370 0.6370
7.557000 0.6370 0.6390 0.6410 0.6440 0.6470
7.590331 0.6490 0.6490 0.6460 0.6460 0.6440
7.624000 0.6420 0.6360 0.6340 0.6270 0.6210
7.657331 0.6090 0.5940 0.5750 0.5500 0.5200
7.691000 0.5070 0.4900 0.4720 0.4650 0.4520
7.724331 0.4440 0.4400 0.4400 0.4400 0.4420
7.757000 0.4570 0.4650 0.4690 0.4740 0.4770
7.790331 0.4800 0.4820 0.4820 0.4740 0.4520
7.824000 0.4370 0.4240 0.4150 0.4000 0.3920
7.857331 0.3920 0.3930 0.3950 0.3980 0.4040
7.891000 0.4070 0.4090 0.4540 0.4990 0.5840
7.924331 0.6020 0.6060 0.6070 0.6090 0.6090
7.957000 0.6110 0.6110 0.6140 0.6160 0.6310
7.990331 0.6460 0.6590 0.6710 0.6840 0.6960
8.024000 0.7060 0.7160 0.7220 0.7270 0.7320
8.057331 0.7360 0.7390 0.7420 0.7470 0.7510
8.091000 0.7540 0.7560 0.7590 0.7610 0.7620
8.124331 0.7620 0.7640 0.7660 0.7670 0.7670
8.157000 0.7660 0.7660 0.7640 0.7640 0.7610
8.190331 0.7610 0.7570 0.7520 0.7490 0.7470
8.224000 0.7440 0.7410 0.7390 0.7360 0.7290
8.257331 0.7120 0.7110 0.7020 0.6860 0.6640
8.290000 0.6310 0.5890 0.5320 0.5070 0.4800
8.323331 0.4050 0.3580 0.2920 0.2900 0.2920
8.357000 0.3050 0.3280 0.3550 0.3900 0.4040
8.390331 0.4090 0.4090 0.4050 0.3850 0.3520
8.424000 0.3170 0.2770 0.2400 0.2200 0.2170
8.457331 0.2180 0.2270 0.2420 0.2620 0.2870
8.490000 0.3150 0.3450 0.3780 0.4050 0.4240
8.523331 0.4420 0.4540 0.4570 0.4590 0.4550
8.557000 0.4320 0.4120 0.3850 0.3530 0.3200
8.590331 0.2850 0.2500 0.2200 0.1930 0.1730
8.624000 0.1600 0.1480 0.1460 0.1430 0.1480
8.657331 0.1830 0.2320 0.2600 0.2970 0.3380
8.690000 0.3830 0.4340 0.4820 0.5740 0.6140
8.723331 0.6460 0.6690 0.6810 0.6970 0.7140
8.757000 0.7270 0.7390 0.7510 0.7620 0.7710
8.790331 0.7790 0.7870 0.7940 0.8010 0.8060
8.823000 0.8130 0.8160 0.8190 0.8230 0.8290
8.856331 0.8360 0.8390 0.8410 0.8410 0.8410
8.890000 0.8430 0.8440 0.8440 0.8460 0.8480
8.923331 0.8480 0.8490 0.8510 0.8510 0.8530
8.957000 0.8530 0.8540 0.8560 0.8560 0.8560
8.990331 0.8580 0.8540 0.8510 0.8480 0.8460
9.023000 0.8440 0.8430 0.8390 0.8380 0.8290
9.056331 0.8190 0.8080 0.7940 0.7790 0.7660
9.090000 0.7520 0.7390 0.7160 0.6870 0.6570
9.123331 0.6210 0.5790 0.5340 0.5070 0.4800
9.157000 0.4200 0.3520 0.3100 0.2850 0.2620
9.190331 0.2470 0.2330 0.2220 0.2080 0.2020
9.223000 0.2020 0.2020 0.2070 0.2120 0.2520
9.256331 0.2970 0.3330 0.3670 0.3970 0.4250
9.290000 0.4500 0.4770 0.5300 0.5600 0.5720
9.323331 0.5820 0.5920 0.5950 0.5990 0.5970
9.356000 0.5940 0.5900 0.5850 0.5840 0.5820
9.389331 0.5800 0.5840 0.5900 0.6010 0.6090
9.423000 0.6170 0.6240 0.6320 0.6390 0.6460
9.456331 0.6510 0.6510 0.6510 0.6470 0.6420
9.490000 0.6360 0.6310 0.6260 0.6190 0.6140
9.523331 0.6140 0.6170 0.6240 0.6240 0.6260
9.556000 0.6260 0.6240 0.6210 0.6170 0.6110
9.589331 0.6010 0.5890 0.5720 0.5500 0.5400
9.623000 0.5220 0.5090 0.4940 0.4600 0.4240
9.656331 0.3830 0.3400 0.2980 0.2600 0.2230
9.690000 0.1910 0.1650 0.1500 0.1360 0.1310
9.723331 0.1300 0.1310 0.1310 0.1400 0.1510
9.756000 0.1600 0.1660 0.1860 0.2030 0.2120
9.789331 0.2230 0.2300 0.2720 0.3000 0.3300
9.823000 0.3600 0.3900 0.4200 0.4490 0.4750
9.856331 0.4970 0.5340 0.5440 0.5490 0.5540
9.890000 0.5570 0.5620 0.5650 0.5650 0.5620
9.923331 0.5550 0.5540 0.5500 0.5490 0.5520
9.956000 0.5570 0.5690 0.5800 0.5920 0.6060
9.989331 0.6210 0.6360 0.6490 0.6640 0.6790
10.023000 0.6820 0.6940 0.6990 0.7040 0.7210
10.056331 0.7320 0.7390 0.7440 0.7460 0.7470
10.089000 0.7490 0.7520 0.7570 0.7640 0.7670
10.122331 0.7690 0.7710 0.7720 0.7760 0.7810
10.156000 0.7870 0.7870 0.7870 0.7870 0.7890
10.189331 0.7890 0.7890 0.7870 0.7820 0.7810
10.223000 0.7790 0.7720 0.7690 0.7660 0.7620
10.256331 0.7620 0.7590 0.7590 0.7570 0.7540
10.289000 0.7470 0.7370 0.7260 0.7120 0.6970
10.322331 0.6770 0.6540 0.6220 0.5820 0.5320
10.356000 0.5150 0.4990 0.4520 0.4140 0.3970
10.389331 0.3770 0.3750 0.3780 0.3870 0.4100
10.423000 0.4390 0.4640 0.4770 0.5390 0.5690
10.456331 0.5950 0.6190 0.6420 0.6620 0.6790
10.489000 0.6940 0.7070 0.7270 0.7420 0.7540
10.522331 0.7640 0.7740 0.7810 0.7870 0.7920
10.556000 0.7990 0.8060 0.8130 0.8210 0.8260
10.589331 0.8290 0.8310 0.8340 0.8360 0.8380
10.622000 0.8410 0.8440 0.8460 0.8460 0.8480
10.655331 0.8480 0.8490 0.8490 0.8510 0.8510
10.689000 0.8530 0.8530 0.8530 0.8540 0.8560
10.722331 0.8560 0.8560 0.8580 0.8590 0.8590
10.756000 0.8590 0.8590 0.8590 0.8590 0.8630
10.789331 0.8640 0.8660 0.8680 0.8680 0.8710
10.822000 0.8730 0.8740 0.8740 0.8740 0.8740
10.855331 0.8730 0.8710 0.8690 0.8680 0.8660
10.889000 0.8640 0.8640 0.8640 0.8640 0.8640
10.922331 0.8640 0.8640 0.8640 0.8660 0.8710
10.956000 0.8710 0.8710 0.8710 0.8710 0.8710
10.989331 0.8730 0.8730 0.8710 0.8690 0.8680
11.022000 0.8660 0.8640 0.8590 0.8560 0.8510
11.055331 0.8490 0.8460 0.8410 0.8360 0.8290
11.089000 0.8210 0.8140 0.8060 0.7960 0.7920
11.122331 0.7790 0.7690 0.7570 0.7470 0.7320
11.155000 0.7160 0.7040 0.6920 0.6740 0.6410
11.188331 0.6260 0.5890 0.5490 0.5370 0.5090
11.222000 0.5040 0.4970 0.4750 0.4440 0.4090
11.255331 0.3720 0.3380 0.3070 0.2850 0.2730
11.289000 0.2350 0.1960 0.1930 0.1860 0.1810
11.322331 0.1680 0.1560 0.1480 0.1400 0.1260
11.355000 0.1210 0.1160 0.1110 0.1080 0.1080
11.388331 0.1060 0.1060 0.1080 0.1080 0.1080
11.422000 0.1100 0.1100 0.1110 0.1110 0.1130
11.455331 0.1130 0.1150 0.1180 0.1230 0.1410
11.489000 0.1700 0.2000 0.2320 0.2630 0.2970
11.522331 0.3280 0.3620 0.3950 0.4270 0.4570
11.555000 0.4850 0.5370 0.5590 0.5770 0.5920
11.588331 0.6020 0.6070 0.6260 0.6320 0.6370
11.622000 0.6440 0.6510 0.6520 0.6540 0.6540
11.655331 0.6520 0.6470 0.6370 0.6260 0.6040
11.689000 0.5900 0.5650 0.5490 0.5440 0.5340
11.722331 0.5200 0.5140 0.5100 0.5140 0.5200
11.755000 0.5320 0.5490 0.5670 0.5870 0.6090
11.788331 0.6310 0.6520 0.6720 0.6910 0.7070
11.822000 0.7120 0.7290 0.7410 0.7610 0.7670
11.855331 0.7740 0.7820 0.7920 0.8010 0.8130
11.888000 0.8230 0.8330 0.8440 0.8510 0.8560
11.921331 0.8590 0.8660 0.8740 0.8780 0.8810
11.955000 0.8860 0.8910 0.8980 0.9030 0.9040
11.988331 0.9040 0.9040 0.9080 0.9130 0.9180
12.022000 0.9190 0.9210 0.9230 0.9240 0.9240
12.055331 0.9260 0.9280 0.9330 0.9340 0.9360
12.088000 0.9380 0.9380 0.9390 0.9410 0.9410
12.121331 0.9430 0.9440 0.9440 0.9460 0.9480
12.155000 0.9490 0.9490 0.9510 0.9510 0.9530
12.188331 0.9540 0.9540 0.9560 0.9560 0.9560
12.222000 0.9580 0.9580 0.9580 0.9590 0.9590
12.255331 0.9610 0.9610 0.9630 0.9630 0.9640
12.288000 0.9640 0.9680 0.9690 0.9710 0.9710
12.321331 0.9730 0.9730 0.9730 0.9730 0.9730
12.355000 0.9730 0.9730 0.9730 0.9730 0.9730
12.388331 0.9730 0.9730 0.9730 0.9740 0.9740
12.421000 0.9740 0.9730 0.9730 0.9730 0.9730
12.454331 0.9730 0.9730 0.9730 0.9730 0.9730
12.488000 0.9730 0.9730 0.9730 0.9730 0.9710
12.521331 0.9710 0.9690 0.9690 0.9690 0.9690
12.555000 0.9690 0.9690 0.9680 0.9630 0.9610
12.588331 0.9590 0.9580 0.9560 0.9540 0.9540
12.621000 0.9530 0.9530 0.9530 0.9530 0.9510
12.654331 0.9510 0.9510 0.9490 0.9490 0.9480
12.688000 0.9480 0.9480 0.9460 0.9430 0.9430
12.721331 0.9410 0.9390 0.9360 0.9310 0.9240
12.755000 0.9140 0.9040 0.8960 0.8890 0.8830
12.788331 0.8740 0.8680 0.8610 0.8540 0.8480
12.821000 0.8380 0.8290 0.8190 0.8080 0.7920
12.854331 0.7760 0.7590 0.7390 0.7140 0.6940
12.888000 0.6770 0.6610 0.6190 0.5900 0.5740
12.921331 0.5620 0.5520 0.5350 0.5170 0.5120
12.954000 0.5100 0.5100 0.5120 0.5470 0.5700
12.987331 0.5850 0.6140 0.6440 0.6690 0.6920
13.021000 0.7120 0.7310 0.7460 0.7610 0.7720
13.054331 0.7840 0.7960 0.8040 0.8140 0.8230
13.088000 0.8310 0.8390 0.8480 0.8540 0.8590
13.121331 0.8630 0.8640 0.8660 0.8680 0.8690
13.154000 0.8690 0.8730 0.8740 0.8740 0.8780
13.187331 0.8790 0.8790 0.8790 0.8790 0.8780
13.221000 0.8740 0.8690 0.8660 0.8630 0.8610
13.254331 0.8580 0.8540 0.8490 0.8410 0.8310
13.288000 0.8160 0.8060 0.7990 0.7940 0.7860
13.321331 0.7790 0.7760 0.7720 0.7710 0.7690
13.354000 0.7710 0.7740 0.7810 0.7840 0.7890
13.387331 0.7920 0.7970 0.8010 0.8060 0.8090
13.421000 0.8160 0.8230 0.8290 0.8310 0.8330
13.454331 0.8340 0.8340 0.8340 0.8340 0.8360
13.488000 0.8360 0.8340 0.8340 0.8340 0.8330
13.521331 0.8330 0.8310 0.8290 0.8280 0.8260
13.554000 0.8240 0.8230 0.8230 0.8190 0.8160
13.587331 0.8110 0.8080 0.8040 0.8010 0.7990
13.621000 0.7970 0.7960 0.7960 0.7940 0.7920
13.654331 0.7910 0.7890 0.7890 0.7870 0.7860
13.687000 0.7820 0.7790 0.7760 0.7720 0.7690
13.720331 0.7660 0.7620 0.7590 0.7570 0.7560
13.754000 0.7520 0.7460 0.7410 0.7340 0.7310
13.787331 0.7270 0.7220 0.7110 0.7040 0.6990
13.821000 0.6940 0.6890 0.6840 0.6790 0.6760
13.854331 0.6710 0.6670 0.6620 0.6570 0.6540
13.887000 0.6490 0.6440 0.6390 0.6320 0.6290
13.920331 0.6260 0.6240 0.6190 0.6140 0.6020
13.954000 0.5970 0.5940 0.5890 0.5850 0.5820
13.987331 0.5770 0.5740 0.5670 0.5590 0.5500
14.021000 0.5470 0.5400 0.5370 0.5370 0.5340
14.054331 0.5320 0.5270 0.5220 0.5150 0.5100
14.087000 0.5070 0.5050 0.5020 0.5020 0.5000
14.120331 0.5000 0.4990 0.4970 0.4900 0.4890
14.154000 0.4870 0.4820 0.4770 0.4740 0.4720
14.187331 0.4700 0.4690 0.4670 0.4650 0.4620
14.220000 0.4570 0.4520 0.4470 0.4420 0.4370
14.253331 0.4300 0.4240 0.4170 0.4100 0.4040
14.287000 0.3980 0.3920 0.3850 0.3750 0.3670
14.320331 0.3600 0.3550 0.3500 0.3430 0.3330
14.354000 0.3220 0.3050 0.3020 0.2950 0.2870
14.387331 0.2780 0.2700 0.2600 0.2520 0.2430
14.420000 0.2350 0.2280 0.2220 0.2150 0.2080
14.453331 0.2020 0.1930 0.1830 0.1780 0.1710
14.487000 0.1680 0.1610 0.1560 0.1530 0.1510
14.520331 0.1480 0.1460 0.1410 0.1350 0.1330
14.554000 0.1300 0.1300 0.1280 0.1280 0.1260
14.587331 0.1250 0.1250 0.1250 0.1250 0.1230
14.620000 0.1250 0.1250 0.1250 0.1260 0.1260
14.653331 0.1280 0.1280 0.1300 0.1300 0.1310
14.687000 0.1330 0.1330 0.1360 0.1380 0.1400
14.720331 0.1410 0.1410 0.1430 0.1450 0.1450
14.753000 0.1460 0.1510 0.1530 0.1550 0.1560
14.786331 0.1580 0.1600 0.1630 0.1680 0.1730
14.820000 0.1800 0.1830 0.1880 0.1900 0.1930
14.853331 0.1960 0.2030 0.2100 0.2170 0.2220
14.887000 0.2280 0.2330 0.2400 0.2470 0.2520
14.920331 0.2580 0.2650 0.2700 0.2770 0.2850
14.953000 0.2920 0.2980 0.3050 0.3130 0.3220
14.986331 0.3280 0.3370 0.3480 0.3570 0.3670
15.020000 0.3750 0.3850 0.3950 0.4050 0.4120
15.053331 0.4190 0.4240 0.4300 0.4370 0.4440
15.087000 0.4500 0.4590 0.4650 0.4720 0.4800
15.120331 0.4870 0.4950 0.5100 0.5190 0.5270
15.153000 0.5340 0.5420 0.5500 0.5590 0.5650
15.186331 0.5740 0.5820 0.5900 0.5970 0.6060
15.220000 0.6120 0.6210 0.6260 0.6290 0.6320
15.253331 0.6360 0.6410 0.6470 0.6510 0.6520
15.287000 0.6520 0.6540 0.6570 0.6610 0.6640
15.320331 0.6660 0.6670 0.6690 0.6720 0.6760
15.353000 0.6790 0.6840 0.6870 0.6910 0.6940
15.386331 0.6960 0.6960 0.6970 0.6970 0.7010
15.420000 0.7010 0.7020 0.7040 0.7040 0.7060
15.453331 0.7060 0.7070 0.7070 0.7090 0.7090
15.486000 0.7120 0.7120 0.7120 0.7120 0.7120
15.519331 0.7120 0.7120 0.7120 0.7120 0.7120
15.553000 0.7120 0.7120 0.7110 0.7110 0.7110
15.586331 0.7110 0.7120 0.7120 0.7120 0.7120
15.620000 0.7120 0.7120 0.7120 0.7120 0.7120
15.653331 0.7120 0.7120 0.7110 0.7110 0.7110
15.686000 0.7110 0.7110 0.7090 0.7070 0.7070
15.719331 0.7060 0.7060 0.7040 0.7040 0.7010
15.753000 0.7010 0.6990 0.6970 0.6960 0.6940
15.786331 0.6860 0.6840 0.6820 0.6820 0.6820
15.820000 0.6820 0.6840 0.6840 0.6840 0.6840
15.853331 0.6810 0.6770 0.6760 0.6720 0.6710
15.886000 0.6710 0.6710 0.6670 0.6660 0.6620
15.919331 0.6590 0.6570 0.6560 0.6540 0.6510
15.953000 0.6490 0.6460 0.6420 0.6390 0.6390
15.986331 0.6370 0.6360 0.6340 0.6320 0.6340
##END=
