##TITLE=DIPHENYLDIMETHOXYSILANE
##JCAMP-DX=4.24
##DATA TYPE=INFRARED SPECTRUM
##CLASS=COBLENTZ III
##ORIGIN=DOW CORNING CORP.
##OWNER=COBLENTZ SOCIETY
Collection (C) 2018 copyright by the U.S. Secretary of Commerce
on behalf of the United States of America. All rights reserved.
##DATE=1965/09/15
##NAMES=dimethoxy(diphenyl)silane
##CAS REGISTRY NO=6843-66-9
##MOLFORM=C14 H16 O2 Si
##BP=171 C AT 18 mmHg
##SOURCE REFERENCE=COBLENTZ NO. 6226
##$NIST SOURCE=COBLENTZ
##$NIST IMAGE=cob6226
##SPECTROMETER/DATA SYSTEM=PERKIN-ELMER 521 (GRATING)
##INSTRUMENT PARAMETERS=FILTERS AT 3150, 2500, 2000, 1150, 700, 410. GRATING CHANGES: 2000, 630 CM^-^1
##STATE=SOLUTION (10% IN CCl4 FOR 3800-1280, 2% IN CS2 FOR 1280-600, AND 10% IN CCl4 FOR 600-250 CM^-^1) VS. SOLVENT
##PATH LENGTH=0.011 CM, 0.011 CM, AND 0.010 CM
##SAMPLING PROCEDURE=TRANSMISSION
##RESOLUTION=2
##DATA PROCESSING=DIGITIZED BY NIST FROM HARD COPY (FROM TWO SEGMENTS)
##XUNITS=1/CM
##YUNITS=TRANSMITTANCE
##XFACTOR=1.000000
##YFACTOR=1
##DELTAX=0.919543
##FIRSTX=253.793
##LASTX=3807.82
##FIRSTY=0.692
##MAXX=3807.82
##MINX=253.793
##MAXY=0.915
##MINY=0.017
##NPOINTS=3866
##XYDATA=(X++(Y..Y))
253.793000 0.6920 0.6920 0.6920 0.6930 0.6930
258.390713 0.6930 0.6930 0.6930 0.6940 0.6960
262.988425 0.6960 0.6970 0.6980 0.6980 0.6990
267.586138 0.7010 0.7010 0.7020 0.7030 0.7030
272.183850 0.7040 0.7060 0.7060 0.7080 0.7080
276.781563 0.7110 0.7130 0.7170 0.7180 0.7190
281.379275 0.7230 0.7290 0.7350 0.7420 0.7500
285.976988 0.7550 0.7580 0.7620 0.7650 0.7670
290.574700 0.7690 0.7700 0.7720 0.7730 0.7740
295.172413 0.7750 0.7770 0.7770 0.7780 0.7780
299.770125 0.7790 0.7790 0.7790 0.7790 0.7780
304.367838 0.7770 0.7740 0.7730 0.7700 0.7700
308.965550 0.7680 0.7670 0.7650 0.7650 0.7640
313.563263 0.7640 0.7630 0.7620 0.7620 0.7600
318.160976 0.7580 0.7570 0.7540 0.7530 0.7530
322.758688 0.7530 0.7530 0.7520 0.7520 0.7520
327.356401 0.7500 0.7490 0.7480 0.7480 0.7490
331.954113 0.7500 0.7520 0.7540 0.7540 0.7550
336.551826 0.7570 0.7580 0.7580 0.7590 0.7600
341.149538 0.7620 0.7620 0.7630 0.7650 0.7670
345.747251 0.7690 0.7720 0.7740 0.7780 0.7830
350.344963 0.7840 0.7850 0.7870 0.7880 0.7890
354.942676 0.7890 0.7900 0.7900 0.7920 0.7920
359.540388 0.7930 0.7930 0.7940 0.7940 0.7940
364.138101 0.7940 0.7940 0.7940 0.7940 0.7940
368.735813 0.7940 0.7940 0.7930 0.7930 0.7920
373.333526 0.7920 0.7900 0.7900 0.7890 0.7880
377.931239 0.7880 0.7870 0.7850 0.7840 0.7820
382.528951 0.7820 0.7800 0.7790 0.7790 0.7780
387.126664 0.7770 0.7730 0.7640 0.7570 0.7500
391.724376 0.7450 0.7400 0.7380 0.7370 0.7350
396.322089 0.7350 0.7340 0.7320 0.7280 0.7260
400.919801 0.7220 0.7170 0.7120 0.7070 0.7020
405.517514 0.6980 0.6940 0.6910 0.6890 0.6880
410.115226 0.6860 0.6820 0.6670 0.6630 0.6610
414.712939 0.6570 0.6560 0.6530 0.6500 0.6470
419.310651 0.6450 0.6410 0.6400 0.6370 0.6370
423.908364 0.6400 0.6420 0.6480 0.6500 0.6560
428.506076 0.6600 0.6780 0.6890 0.6960 0.7060
433.103789 0.7180 0.7210 0.7230 0.7270 0.7290
437.701502 0.7290 0.7310 0.7310 0.7310 0.7290
442.299214 0.7280 0.7240 0.7220 0.7180 0.7140
446.896927 0.7090 0.7060 0.7020 0.6990 0.6960
451.494639 0.6880 0.6790 0.6730 0.6660 0.6600
456.092352 0.6530 0.6470 0.6400 0.6320 0.6230
460.690064 0.6130 0.6020 0.6000 0.6000 0.5990
465.287777 0.5990 0.5990 0.5990 0.5990 0.5990
469.885489 0.5990 0.5990 0.5990 0.5970 0.5950
474.483202 0.5940 0.5920 0.5900 0.5860 0.5750
479.080914 0.5670 0.5610 0.5520 0.5420 0.5310
483.678627 0.5180 0.5000 0.4810 0.4590 0.4330
488.276339 0.4140 0.3931 0.3721 0.3421 0.3271
492.874052 0.3120 0.2970 0.2830 0.2820 0.2830
497.471765 0.3059 0.3389 0.3639 0.3889 0.4139
502.069477 0.4390 0.4880 0.4880 0.4850 0.4780
506.667190 0.4620 0.4530 0.4430 0.4231 0.3931
511.264902 0.3640 0.3360 0.3180 0.2820 0.2550
515.862615 0.2290 0.2021 0.1761 0.1501 0.1241
520.460327 0.0980 0.0720 0.0460 0.0190 0.0170
525.058040 0.0170 0.0210 0.0230 0.0280 0.0390
529.655752 0.0470 0.0990 0.1400 0.1580 0.2409
534.253465 0.3199 0.3609 0.4168 0.4658 0.4979
538.851177 0.5310 0.5610 0.5890 0.6120 0.6330
543.448890 0.6530 0.6690 0.6859 0.6980 0.7090
548.046603 0.7190 0.7260 0.7310 0.7340 0.7350
552.644315 0.7430 0.7520 0.7570 0.7590 0.7620
557.242028 0.7640 0.7680 0.7730 0.7740 0.7750
561.839740 0.7780 0.7800 0.7830 0.7850 0.7890
566.437453 0.7920 0.7940 0.7980 0.8000 0.8040
571.035165 0.8050 0.8060 0.8080 0.8090 0.8100
575.632878 0.8110 0.8130 0.8140 0.8150 0.8160
580.230590 0.8190 0.8190 0.8210 0.8230 0.8240
584.828303 0.8250 0.8260 0.8260 0.8260 0.8280
589.426015 0.8280 0.8280 0.8290 0.8290 0.8290
594.023728 0.8290 0.8290 0.8300 0.8300 0.8300
598.621440 0.8300 0.8300 0.8300 0.8300 0.8300
603.219153 0.8300 0.8300 0.8300 0.8300 0.8300
607.816866 0.8300 0.8300 0.8300 0.8300 0.8300
612.414578 0.8300 0.8300 0.8300 0.8300 0.8300
617.012291 0.8300 0.8300 0.8300 0.8300 0.8300
621.610003 0.8300 0.8300 0.8300 0.8300 0.8300
626.207716 0.8300 0.8300 0.8300 0.8300 0.8300
630.805428 0.8300 0.8300 0.8300 0.8300 0.8300
635.403141 0.8300 0.8300 0.8300 0.8300 0.8300
640.000853 0.8300 0.8300 0.8300 0.8300 0.8300
644.598566 0.8300 0.8300 0.8300 0.8300 0.8300
649.196278 0.8290 0.8280 0.8260 0.8240 0.8230
653.793991 0.8190 0.8130 0.8110 0.8100 0.8080
658.391703 0.8040 0.7970 0.7870 0.7770 0.7620
662.989416 0.7600 0.7620 0.7700 0.7770 0.7840
667.587129 0.8000 0.8080 0.8130 0.8140 0.8130
672.184841 0.8090 0.8040 0.8010 0.8030 0.8160
676.782554 0.8200 0.8210 0.8210 0.8230 0.8230
681.380266 0.8210 0.8210 0.8190 0.8180 0.8160
685.977979 0.8140 0.8110 0.8090 0.8030 0.7920
690.575691 0.7850 0.7680 0.7441 0.7161 0.6881
695.173404 0.6619 0.6049 0.5370 0.4800 0.3931
699.771116 0.3061 0.3060 0.3309 0.4038 0.4329
704.368829 0.5440 0.5620 0.6010 0.6520 0.6670
708.966541 0.6790 0.6820 0.6820 0.6790 0.6561
713.564254 0.6320 0.6020 0.5660 0.4950 0.4650
718.161966 0.4001 0.3531 0.3251 0.3230 0.3330
722.759679 0.3611 0.4740 0.5900 0.6320 0.6650
727.357392 0.6670 0.6670 0.6660 0.6511 0.6410
731.955104 0.6180 0.5840 0.5540 0.4840 0.3961
736.552817 0.3391 0.3210 0.2562 0.2560 0.3706
741.150529 0.4401 0.5100 0.5291 0.6300 0.7240
745.748242 0.7260 0.7270 0.7380 0.7430 0.7430
750.345954 0.7420 0.7350 0.7240 0.6960 0.6670
754.943667 0.6560 0.6350 0.6151 0.5761 0.5252
759.541379 0.5150 0.5150 0.5300 0.5410 0.5600
764.139092 0.6129 0.6250 0.6679 0.6969 0.7179
768.736804 0.7330 0.7480 0.7650 0.7790 0.7830
773.334517 0.7920 0.7940 0.7950 0.7970 0.7970
777.932229 0.7970 0.7950 0.7950 0.7940 0.7940
782.529942 0.7940 0.7930 0.7920 0.7900 0.7890
787.127655 0.7850 0.7820 0.7780 0.7720 0.7640
791.725367 0.7550 0.7470 0.7350 0.7240 0.7120
796.323080 0.6990 0.6870 0.6740 0.6610 0.6320
800.920792 0.6050 0.5771 0.5541 0.5311 0.5131
805.518505 0.4980 0.4860 0.4750 0.4630 0.4520
810.116217 0.4490 0.4520 0.4680 0.4899 0.5179
814.713930 0.5470 0.5790 0.6110 0.6410 0.6690
819.311642 0.6920 0.7080 0.7399 0.7599 0.7700
823.909355 0.7730 0.7880 0.8000 0.8090 0.8140
828.507067 0.8180 0.8190 0.8210 0.8230 0.8240
833.104780 0.8250 0.8250 0.8260 0.8260 0.8260
837.702492 0.8260 0.8260 0.8260 0.8260 0.8260
842.300205 0.8260 0.8260 0.8250 0.8250 0.8250
846.897918 0.8250 0.8250 0.8250 0.8250 0.8250
851.495630 0.8260 0.8260 0.8280 0.8280 0.8290
856.093343 0.8290 0.8290 0.8290 0.8290 0.8290
860.691055 0.8290 0.8290 0.8290 0.8290 0.8290
865.288768 0.8290 0.8290 0.8290 0.8300 0.8300
869.886480 0.8300 0.8310 0.8310 0.8310 0.8330
874.484193 0.8330 0.8330 0.8330 0.8330 0.8340
879.081905 0.8340 0.8340 0.8340 0.8340 0.8340
883.679618 0.8340 0.8340 0.8340 0.8340 0.8340
888.277330 0.8340 0.8340 0.8340 0.8340 0.8340
892.875043 0.8330 0.8330 0.8330 0.8330 0.8330
897.472755 0.8330 0.8330 0.8330 0.8330 0.8330
902.070468 0.8330 0.8310 0.8310 0.8310 0.8300
906.668181 0.8300 0.8300 0.8300 0.8290 0.8290
911.265893 0.8290 0.8290 0.8290 0.8290 0.8300
915.863606 0.8300 0.8300 0.8310 0.8310 0.8310
920.461318 0.8330 0.8330 0.8330 0.8330 0.8330
925.059031 0.8330 0.8330 0.8330 0.8330 0.8330
929.656743 0.8330 0.8330 0.8330 0.8330 0.8330
934.254456 0.8330 0.8330 0.8330 0.8330 0.8330
938.852168 0.8330 0.8330 0.8330 0.8330 0.8330
943.449881 0.8330 0.8330 0.8310 0.8310 0.8310
948.047593 0.8310 0.8310 0.8310 0.8310 0.8310
952.645306 0.8310 0.8310 0.8310 0.8310 0.8300
957.243018 0.8300 0.8290 0.8290 0.8290 0.8290
961.840731 0.8280 0.8280 0.8280 0.8280 0.8260
966.438444 0.8260 0.8260 0.8260 0.8250 0.8240
971.036156 0.8240 0.8230 0.8210 0.8210 0.8200
975.633869 0.8200 0.8190 0.8180 0.8160 0.8150
980.231581 0.8140 0.8140 0.8130 0.8110 0.8100
984.829294 0.8090 0.8080 0.8050 0.8030 0.8030
989.427006 0.8000 0.7980 0.7950 0.7890 0.7750
994.024719 0.7640 0.7540 0.7440 0.7440 0.7729
998.622431 0.7830 0.7870 0.7900 0.7920 0.7920
1003.220144 0.7890 0.7870 0.7840 0.7830 0.7800
1007.817856 0.7790 0.7770 0.7750 0.7740 0.7720
1012.415569 0.7720 0.7700 0.7690 0.7690 0.7670
1017.013281 0.7640 0.7620 0.7590 0.7570 0.7530
1021.610994 0.7530 0.7500 0.7480 0.7450 0.7380
1026.208707 0.7230 0.7210 0.7210 0.7290 0.7430
1030.806419 0.7450 0.7470 0.7450 0.7450 0.7440
1035.404132 0.7420 0.7390 0.7380 0.7350 0.7340
1040.001844 0.7330 0.7310 0.7280 0.7260 0.7240
1044.599557 0.7220 0.7190 0.7160 0.7130 0.7120
1049.197269 0.7080 0.7030 0.6940 0.6870 0.6790
1053.794982 0.6710 0.6630 0.6550 0.6460 0.6350
1058.392694 0.6230 0.6100 0.5940 0.5750 0.5590
1062.990407 0.5410 0.5250 0.5080 0.4900 0.4710
1067.588119 0.4500 0.4280 0.4031 0.3741 0.3431
1072.185832 0.3079 0.2680 0.2340 0.2160 0.1900
1076.783545 0.1810 0.1730 0.1700 0.1690 0.1680
1081.381257 0.1690 0.1700 0.1750 0.1800 0.1850
1085.978970 0.2020 0.2020 0.2090 0.2150 0.2190
1090.576682 0.2600 0.2780 0.3020 0.3230 0.3370
1095.174395 0.3380 0.3610 0.3620 0.3810 0.3980
1099.772107 0.4170 0.4340 0.4530 0.4700 0.4780
1104.369820 0.4850 0.4860 0.4850 0.4800 0.4780
1108.967532 0.4449 0.4089 0.3729 0.3370 0.3010
1113.565245 0.3010 0.3180 0.3370 0.3560 0.3740
1118.162957 0.3890 0.3889 0.3490 0.3310 0.3120
1122.760670 0.2930 0.2930 0.3160 0.3380 0.3460
1127.358382 0.4132 0.4741 0.5261 0.5700 0.6020
1131.956095 0.6230 0.6300 0.6400 0.6470 0.6550
1136.553808 0.6600 0.6650 0.6690 0.6760 0.6820
1141.151520 0.6880 0.6910 0.6930 0.6960 0.6960
1145.749233 0.6980 0.6990 0.7010 0.7010 0.7020
1150.346945 0.7030 0.7070 0.7080 0.7090 0.7090
1154.944658 0.7120 0.7130 0.7130 0.7140 0.7130
1159.542370 0.7120 0.7120 0.7070 0.7020 0.6990
1164.140083 0.6980 0.6970 0.6960 0.6930 0.6880
1168.737795 0.6820 0.6760 0.6680 0.6610 0.6550
1173.335508 0.6470 0.6420 0.6370 0.6250 0.6160
1177.933220 0.5900 0.5840 0.5720 0.5610 0.5510
1182.530933 0.5500 0.5510 0.5550 0.5550 0.5590
1187.128645 0.5620 0.5670 0.5760 0.5920 0.6149
1191.726358 0.6270 0.6380 0.6520 0.6650 0.6760
1196.324071 0.6860 0.6960 0.7020 0.7040 0.7230
1200.921783 0.7350 0.7450 0.7530 0.7590 0.7630
1205.519496 0.7680 0.7730 0.7780 0.7780 0.7790
1210.117208 0.7880 0.7930 0.7940 0.7950 0.7970
1214.714921 0.7990 0.8000 0.8030 0.8050 0.8100
1219.312633 0.8130 0.8140 0.8150 0.8160 0.8180
1223.910346 0.8190 0.8200 0.8200 0.8210 0.8210
1228.508058 0.8230 0.8240 0.8250 0.8250 0.8250
1233.105771 0.8260 0.8280 0.8290 0.8290 0.8300
1237.703483 0.8300 0.8300 0.8310 0.8310 0.8310
1242.301196 0.8310 0.8310 0.8310 0.8310 0.8310
1246.898908 0.8310 0.8300 0.8280 0.8280 0.8260
1251.496621 0.8260 0.8250 0.8250 0.8240 0.8230
1256.094334 0.8230 0.8230 0.8210 0.8210 0.8210
1260.692046 0.8210 0.8210 0.8210 0.8210 0.8210
1265.289759 0.8210 0.8210 0.8210 0.8230 0.8240
1269.887471 0.8250 0.8290 0.8350 0.8380 0.8390
1274.485184 0.8400 0.8400 0.8390 0.8390 0.8390
1279.082896 0.8390 0.8390 0.8390 0.8390 0.8390
1283.680609 0.8380 0.8380 0.8380 0.8380 0.8380
1288.278321 0.8380 0.8380 0.8380 0.8380 0.8360
1292.876034 0.8360 0.8350 0.8330 0.8290 0.8250
1297.473746 0.8200 0.8150 0.8100 0.8060 0.7940
1302.071459 0.7840 0.7840 0.7880 0.7970 0.8080
1306.669171 0.8260 0.8350 0.8400 0.8410 0.8440
1311.266884 0.8450 0.8460 0.8450 0.8430 0.8410
1315.864597 0.8390 0.8350 0.8340 0.8310 0.8300
1320.462309 0.8250 0.8160 0.8100 0.8050 0.8000
1325.060022 0.7950 0.7920 0.7900 0.7920 0.8060
1329.657734 0.8210 0.8310 0.8400 0.8500 0.8590
1334.255447 0.8660 0.8690 0.8690 0.8700 0.8700
1338.853159 0.8700 0.8700 0.8700 0.8700 0.8700
1343.450872 0.8690 0.8690 0.8690 0.8670 0.8690
1348.048584 0.8690 0.8670 0.8650 0.8630 0.8610
1352.646297 0.8600 0.8600 0.8600 0.8600 0.8590
1357.244009 0.8590 0.8590 0.8580 0.8540 0.8510
1361.841722 0.8480 0.8450 0.8430 0.8430 0.8410
1366.439434 0.8400 0.8330 0.8260 0.8180 0.8100
1371.037147 0.8060 0.8050 0.8060 0.8090 0.8110
1375.634860 0.8160 0.8280 0.8310 0.8340 0.8410
1380.232572 0.8460 0.8480 0.8490 0.8490 0.8490
1384.830285 0.8490 0.8490 0.8480 0.8480 0.8480
1389.427997 0.8480 0.8460 0.8460 0.8450 0.8450
1394.025710 0.8440 0.8430 0.8430 0.8410 0.8410
1398.623422 0.8400 0.8390 0.8390 0.8360 0.8350
1403.221135 0.8330 0.8310 0.8300 0.8300 0.8290
1407.818847 0.8280 0.8250 0.8240 0.8210 0.8140
1412.416560 0.8060 0.7980 0.7929 0.7600 0.7500
1417.014272 0.7380 0.7240 0.7180 0.6811 0.6411
1421.611985 0.4889 0.4499 0.4130 0.4079 0.3299
1426.209697 0.2589 0.0560 0.0560 0.3257 0.3869
1430.807410 0.5373 0.6401 0.7061 0.7420 0.7570
1435.405123 0.7620 0.7650 0.7680 0.7690 0.7670
1440.002835 0.7670 0.7650 0.7640 0.7630 0.7600
1444.600548 0.7550 0.7490 0.7440 0.7390 0.7350
1449.198260 0.7310 0.7210 0.7080 0.7030 0.6960
1453.795973 0.6940 0.6930 0.6920 0.6920 0.6920
1458.393685 0.6920 0.6930 0.6940 0.6960 0.6980
1462.991398 0.7020 0.7040 0.7110 0.7110 0.7130
1467.589110 0.7140 0.7170 0.7230 0.7320 0.7330
1472.186823 0.7340 0.7370 0.7380 0.7420 0.7420
1476.784535 0.7430 0.7430 0.7430 0.7420 0.7350
1481.382248 0.7280 0.7220 0.6651 0.6630 0.6780
1485.979960 0.7161 0.7421 0.7740 0.7850 0.8000
1490.577673 0.8100 0.8160 0.8190 0.8200 0.8240
1495.175386 0.8280 0.8290 0.8300 0.8310 0.8340
1499.773098 0.8350 0.8360 0.8380 0.8390 0.8400
1504.370811 0.8410 0.8430 0.8450 0.8480 0.8490
1508.968523 0.8490 0.8500 0.8500 0.8510 0.8510
1513.566236 0.8530 0.8540 0.8550 0.8560 0.8560
1518.163948 0.8560 0.8560 0.8560 0.8580 0.8580
1522.761661 0.8580 0.8580 0.8580 0.8590 0.8590
1527.359373 0.8590 0.8590 0.8590 0.8600 0.8600
1531.957086 0.8600 0.8600 0.8600 0.8610 0.8610
1536.554798 0.8630 0.8630 0.8610 0.8550 0.8500
1541.152511 0.8480 0.8450 0.8430 0.8410 0.8410
1545.750223 0.8400 0.8400 0.8400 0.8400 0.8430
1550.347936 0.8430 0.8440 0.8440 0.8450 0.8450
1554.945649 0.8440 0.8440 0.8430 0.8410 0.8390
1559.543361 0.8360 0.8340 0.8310 0.8290 0.8250
1564.141074 0.8200 0.8180 0.8180 0.8200 0.8260
1568.738786 0.8300 0.8340 0.8350 0.8340 0.8330
1573.336499 0.8310 0.8300 0.8280 0.8260 0.8240
1577.934211 0.8150 0.8090 0.8000 0.7890 0.7770
1582.531924 0.7590 0.7400 0.7170 0.6880 0.6361
1587.129636 0.5898 0.5469 0.5199 0.4880 0.4881
1591.727349 0.5600 0.5961 0.7770 0.8030 0.8200
1596.325061 0.8340 0.8440 0.8460 0.8480 0.8540
1600.922774 0.8550 0.8560 0.8580 0.8580 0.8580
1605.520487 0.8560 0.8550 0.8530 0.8500 0.8500
1610.118199 0.8490 0.8460 0.8460 0.8450 0.8450
1614.715912 0.8450 0.8460 0.8480 0.8510 0.8550
1619.313624 0.8630 0.8690 0.8700 0.8710 0.8720
1623.911337 0.8740 0.8740 0.8740 0.8750 0.8750
1628.509049 0.8760 0.8760 0.8760 0.8760 0.8760
1633.106762 0.8760 0.8750 0.8750 0.8750 0.8740
1637.704474 0.8740 0.8720 0.8720 0.8710 0.8700
1642.302187 0.8700 0.8690 0.8670 0.8650 0.8640
1646.899899 0.8630 0.8600 0.8550 0.8500 0.8460
1651.497612 0.8440 0.8400 0.8360 0.8350 0.8340
1656.095324 0.8340 0.8360 0.8390 0.8450 0.8510
1660.693037 0.8560 0.8630 0.8660 0.8690 0.8740
1665.290750 0.8740 0.8740 0.8750 0.8750 0.8750
1669.888462 0.8750 0.8750 0.8760 0.8770 0.8790
1674.486175 0.8800 0.8820 0.8840 0.8840 0.8840
1679.083887 0.8850 0.8850 0.8850 0.8850 0.8850
1683.681600 0.8850 0.8860 0.8870 0.8870 0.8870
1688.279312 0.8870 0.8870 0.8890 0.8890 0.8890
1692.877025 0.8890 0.8890 0.8890 0.8890 0.8890
1697.474737 0.8890 0.8900 0.8900 0.8900 0.8900
1702.072450 0.8900 0.8900 0.8900 0.8900 0.8900
1706.670162 0.8900 0.8900 0.8900 0.8890 0.8890
1711.267875 0.8890 0.8890 0.8890 0.8870 0.8870
1715.865587 0.8870 0.8870 0.8870 0.8860 0.8860
1720.463300 0.8860 0.8860 0.8860 0.8860 0.8860
1725.061013 0.8860 0.8870 0.8870 0.8870 0.8870
1729.658725 0.8870 0.8860 0.8860 0.8850 0.8840
1734.256438 0.8810 0.8810 0.8800 0.8800 0.8790
1738.854150 0.8790 0.8760 0.8770 0.8790 0.8800
1743.451863 0.8800 0.8800 0.8800 0.8800 0.8790
1748.049575 0.8790 0.8770 0.8770 0.8770 0.8770
1752.647288 0.8790 0.8790 0.8770 0.8770 0.8760
1757.245000 0.8750 0.8740 0.8720 0.8720 0.8710
1761.842713 0.8690 0.8660 0.8650 0.8640 0.8630
1766.440425 0.8610 0.8580 0.8580 0.8560 0.8550
1771.038138 0.8540 0.8540 0.8550 0.8580 0.8600
1775.635850 0.8640 0.8710 0.8760 0.8790 0.8810
1780.233563 0.8820 0.8840 0.8850 0.8860 0.8870
1784.831276 0.8890 0.8900 0.8910 0.8910 0.8920
1789.428988 0.8920 0.8920 0.8940 0.8940 0.8920
1794.026701 0.8920 0.8920 0.8920 0.8910 0.8910
1798.624413 0.8900 0.8900 0.8890 0.8870 0.8860
1803.222126 0.8850 0.8840 0.8820 0.8790 0.8760
1807.819838 0.8740 0.8710 0.8690 0.8630 0.8550
1812.417551 0.8480 0.8410 0.8360 0.8350 0.8240
1817.015263 0.8140 0.8040 0.7980 0.7930 0.7920
1821.612976 0.7930 0.8000 0.8040 0.8100 0.8180
1826.210688 0.8230 0.8240 0.8280 0.8290 0.8300
1830.808401 0.8300 0.8300 0.8310 0.8310 0.8310
1835.406113 0.8330 0.8330 0.8330 0.8340 0.8390
1840.003826 0.8480 0.8500 0.8530 0.8560 0.8600
1844.601539 0.8610 0.8630 0.8640 0.8650 0.8670
1849.199251 0.8690 0.8690 0.8690 0.8700 0.8700
1853.796964 0.8700 0.8700 0.8690 0.8690 0.8690
1858.394676 0.8690 0.8690 0.8690 0.8690 0.8670
1862.992389 0.8670 0.8670 0.8660 0.8660 0.8660
1867.590101 0.8660 0.8650 0.8630 0.8610 0.8600
1872.187814 0.8580 0.8550 0.8540 0.8530 0.8490
1876.785526 0.8390 0.8350 0.8290 0.8230 0.8140
1881.383239 0.8040 0.7940 0.7840 0.7750 0.7690
1885.980951 0.7680 0.7680 0.7720 0.7730 0.7790
1890.578664 0.7850 0.7930 0.7940 0.7970 0.7980
1895.176376 0.7990 0.7990 0.8000 0.8000 0.8010
1899.774089 0.8010 0.8010 0.8030 0.8040 0.8050
1904.371802 0.8090 0.8230 0.8440 0.8500 0.8530
1908.969514 0.8550 0.8560 0.8610 0.8690 0.8700
1913.567227 0.8710 0.8720 0.8740 0.8750 0.8760
1918.164939 0.8770 0.8790 0.8800 0.8810 0.8840
1922.762652 0.8850 0.8860 0.8870 0.8870 0.8870
1927.360364 0.8870 0.8890 0.8890 0.8890 0.8870
1931.958077 0.8860 0.8860 0.8860 0.8860 0.8860
1936.555789 0.8850 0.8850 0.8850 0.8820 0.8800
1941.153502 0.8770 0.8750 0.8740 0.8690 0.8660
1945.751214 0.8650 0.8630 0.8600 0.8510 0.8430
1950.348927 0.8400 0.8290 0.8160 0.8090 0.8010
1954.946639 0.7950 0.7930 0.7940 0.8080 0.8160
1959.544352 0.8290 0.8400 0.8490 0.8510 0.8510
1964.142065 0.8510 0.8500 0.8490 0.8480 0.8410
1968.739777 0.8400 0.8410 0.8500 0.8580 0.8630
1973.337490 0.8700 0.8740 0.8790 0.8800 0.8810
1977.935202 0.8840 0.8850 0.8860 0.8870 0.8890
1982.532915 0.8900 0.8900 0.8910 0.8910 0.8910
1987.130627 0.8920 0.8940 0.8950 0.8950 0.8950
1991.728340 0.8950 0.8950 0.8960 0.8960 0.8960
1996.326052 0.8960 0.8960 0.8960 0.8960 0.8960
2000.923765 0.8960 0.8960 0.8960 0.8960 0.8965
2005.521477 0.8971 0.8981 0.8990 0.8990 0.8991
2010.119190 0.8996 0.9001 0.9006 0.9010 0.9010
2014.716902 0.9011 0.9016 0.9020 0.9020 0.9020
2019.314615 0.9020 0.9020 0.9020 0.9023 0.9033
2023.912328 0.9040 0.9040 0.9040 0.9040 0.9040
2028.510040 0.9040 0.9042 0.9047 0.9050 0.9050
2033.107753 0.9050 0.9050 0.9050 0.9050 0.9050
2037.705465 0.9050 0.9050 0.9050 0.9050 0.9050
2042.303178 0.9050 0.9050 0.9050 0.9050 0.9050
2046.900890 0.9050 0.9050 0.9050 0.9050 0.9050
2051.498603 0.9050 0.9050 0.9050 0.9050 0.9050
2056.096315 0.9050 0.9050 0.9050 0.9050 0.9050
2060.694028 0.9050 0.9050 0.9050 0.9050 0.9050
2065.291740 0.9050 0.9050 0.9050 0.9050 0.9050
2069.889453 0.9050 0.9050 0.9050 0.9050 0.9050
2074.487165 0.9050 0.9050 0.9050 0.9050 0.9050
2079.084878 0.9050 0.9050 0.9050 0.9050 0.9050
2083.682591 0.9050 0.9050 0.9050 0.9050 0.9049
2088.280303 0.9044 0.9040 0.9040 0.9040 0.9040
2092.878016 0.9037 0.9027 0.9020 0.9020 0.9020
2097.475728 0.9020 0.9018 0.9013 0.9010 0.9010
2102.073441 0.9010 0.9010 0.9008 0.9003 0.9000
2106.671153 0.9000 0.9000 0.9000 0.9000 0.9000
2111.268866 0.8997 0.8992 0.8990 0.8990 0.8990
2115.866578 0.8990 0.8983 0.8973 0.8970 0.8970
2120.464291 0.8970 0.8970 0.8966 0.8961 0.8956
2125.062003 0.8951 0.8946 0.8941 0.8940 0.8940
2129.659716 0.8932 0.8921 0.8916 0.8911 0.8910
2134.257429 0.8910 0.8905 0.8900 0.8895 0.8890
2138.855141 0.8880 0.8870 0.8865 0.8860 0.8855
2143.452854 0.8850 0.8845 0.8839 0.8829 0.8820
2148.050566 0.8820 0.8820 0.8820 0.8821 0.8831
2152.648279 0.8840 0.8840 0.8840 0.8840 0.8840
2157.245991 0.8840 0.8840 0.8840 0.8841 0.8846
2161.843704 0.8850 0.8850 0.8852 0.8857 0.8862
2166.441416 0.8867 0.8870 0.8870 0.8874 0.8884
2171.039129 0.8892 0.8897 0.8900 0.8900 0.8902
2175.636841 0.8907 0.8910 0.8910 0.8913 0.8918
2180.234554 0.8920 0.8920 0.8920 0.8920 0.8926
2184.832266 0.8936 0.8940 0.8940 0.8940 0.8940
2189.429979 0.8940 0.8940 0.8940 0.8940 0.8940
2194.027692 0.8940 0.8940 0.8940 0.8940 0.8940
2198.625404 0.8940 0.8940 0.8940 0.8940 0.8940
2203.223117 0.8940 0.8931 0.8921 0.8920 0.8920
2207.820829 0.8920 0.8920 0.8920 0.8920 0.8920
2212.418542 0.8920 0.8915 0.8910 0.8910 0.8910
2217.016254 0.8910 0.8910 0.8910 0.8910 0.8910
2221.613967 0.8909 0.8904 0.8900 0.8900 0.8900
2226.211679 0.8900 0.8900 0.8900 0.8900 0.8900
2230.809392 0.8899 0.8894 0.8890 0.8890 0.8890
2235.407104 0.8890 0.8890 0.8890 0.8890 0.8890
2240.004817 0.8886 0.8876 0.8870 0.8870 0.8870
2244.602529 0.8870 0.8868 0.8863 0.8860 0.8860
2249.200242 0.8860 0.8860 0.8860 0.8860 0.8860
2253.797955 0.8860 0.8863 0.8868 0.8870 0.8870
2258.395667 0.8877 0.8887 0.8893 0.8898 0.8904
2262.993380 0.8909 0.8910 0.8910 0.8910 0.8910
2267.591092 0.8910 0.8910 0.8910 0.8910 0.8910
2272.188805 0.8910 0.8910 0.8910 0.8906 0.8900
2276.786517 0.8900 0.8900 0.8900 0.8900 0.8905
2281.384230 0.8910 0.8910 0.8910 0.8910 0.8910
2285.981942 0.8910 0.8910 0.8910 0.8910 0.8910
2290.579655 0.8910 0.8910 0.8910 0.8910 0.8911
2295.177367 0.8916 0.8920 0.8920 0.8920 0.8920
2299.775080 0.8919 0.8914 0.8909 0.8904 0.8899
2304.372792 0.8893 0.8890 0.8890 0.8890 0.8890
2308.970505 0.8890 0.8890 0.8890 0.8890 0.8890
2313.568218 0.8890 0.8892 0.8897 0.8900 0.8900
2318.165930 0.8903 0.8908 0.8910 0.8910 0.8913
2322.763643 0.8918 0.8920 0.8920 0.8926 0.8936
2327.361355 0.8940 0.8940 0.8943 0.8948 0.8950
2331.959068 0.8950 0.8950 0.8950 0.8950 0.8950
2336.556780 0.8950 0.8950 0.8950 0.8950 0.8950
2341.154493 0.8950 0.8950 0.8950 0.8950 0.8950
2345.752205 0.8950 0.8950 0.8950 0.8950 0.8950
2350.349918 0.8950 0.8950 0.8950 0.8950 0.8950
2354.947630 0.8950 0.8950 0.8950 0.8950 0.8950
2359.545343 0.8950 0.8950 0.8950 0.8950 0.8950
2364.143055 0.8950 0.8950 0.8950 0.8950 0.8950
2368.740768 0.8950 0.8950 0.8950 0.8950 0.8950
2373.338481 0.8950 0.8950 0.8950 0.8950 0.8950
2377.936193 0.8950 0.8950 0.8950 0.8950 0.8950
2382.533906 0.8950 0.8950 0.8950 0.8950 0.8950
2387.131618 0.8950 0.8950 0.8950 0.8950 0.8950
2391.729331 0.8950 0.8950 0.8950 0.8950 0.8950
2396.327043 0.8950 0.8950 0.8950 0.8950 0.8950
2400.924756 0.8950 0.8950 0.8950 0.8950 0.8950
2405.522468 0.8950 0.8950 0.8950 0.8950 0.8950
2410.120181 0.8950 0.8950 0.8950 0.8950 0.8950
2414.717893 0.8950 0.8950 0.8950 0.8950 0.8950
2419.315606 0.8950 0.8950 0.8950 0.8950 0.8950
2423.913318 0.8950 0.8950 0.8950 0.8950 0.8950
2428.511031 0.8950 0.8950 0.8950 0.8950 0.8951
2433.108744 0.8956 0.8960 0.8960 0.8960 0.8960
2437.706456 0.8960 0.8960 0.8960 0.8960 0.8961
2442.304169 0.8966 0.8970 0.8970 0.8970 0.8970
2446.901881 0.8970 0.8970 0.8970 0.8970 0.8970
2451.499594 0.8970 0.8970 0.8970 0.8970 0.8970
2456.097306 0.8970 0.8970 0.8968 0.8962 0.8960
2460.695019 0.8960 0.8960 0.8960 0.8960 0.8960
2465.292731 0.8957 0.8952 0.8947 0.8942 0.8934
2469.890444 0.8924 0.8917 0.8912 0.8914 0.8919
2474.488156 0.8920 0.8920 0.8916 0.8911 0.8910
2479.085869 0.8910 0.8906 0.8901 0.8900 0.8900
2483.683581 0.8900 0.8900 0.8900 0.8900 0.8896
2488.281294 0.8890 0.8890 0.8890 0.8890 0.8890
2492.879007 0.8890 0.8890 0.8880 0.8870 0.8870
2497.476719 0.8870 0.8870 0.8870 0.8870 0.8870
2502.074432 0.8870 0.8870 0.8870 0.8870 0.8870
2506.672144 0.8870 0.8870 0.8870 0.8870 0.8870
2511.269857 0.8870 0.8870 0.8870 0.8870 0.8870
2515.867569 0.8870 0.8870 0.8870 0.8870 0.8870
2520.465282 0.8870 0.8870 0.8870 0.8870 0.8870
2525.062994 0.8870 0.8870 0.8870 0.8870 0.8870
2529.660707 0.8870 0.8870 0.8870 0.8870 0.8870
2534.258419 0.8870 0.8870 0.8870 0.8870 0.8870
2538.856132 0.8870 0.8870 0.8870 0.8870 0.8870
2543.453844 0.8870 0.8870 0.8870 0.8870 0.8870
2548.051557 0.8870 0.8870 0.8870 0.8870 0.8870
2552.649270 0.8866 0.8861 0.8860 0.8860 0.8860
2557.246982 0.8860 0.8860 0.8860 0.8860 0.8860
2561.844695 0.8860 0.8860 0.8860 0.8860 0.8860
2566.442407 0.8860 0.8855 0.8850 0.8850 0.8850
2571.040120 0.8845 0.8839 0.8823 0.8810 0.8810
2575.637832 0.8809 0.8804 0.8799 0.8794 0.8787
2580.235545 0.8772 0.8760 0.8760 0.8760 0.8760
2584.833257 0.8759 0.8754 0.8750 0.8750 0.8750
2589.430970 0.8750 0.8750 0.8750 0.8750 0.8750
2594.028682 0.8750 0.8750 0.8750 0.8750 0.8750
2598.626395 0.8750 0.8750 0.8750 0.8750 0.8750
2603.224107 0.8750 0.8750 0.8747 0.8742 0.8740
2607.821820 0.8740 0.8740 0.8740 0.8734 0.8723
2612.419533 0.8720 0.8720 0.8720 0.8720 0.8716
2617.017245 0.8711 0.8714 0.8719 0.8728 0.8738
2621.614958 0.8744 0.8749 0.8750 0.8750 0.8754
2626.212670 0.8759 0.8760 0.8760 0.8760 0.8760
2630.810383 0.8760 0.8760 0.8765 0.8770 0.8770
2635.408095 0.8770 0.8780 0.8790 0.8790 0.8790
2640.005808 0.8790 0.8790 0.8790 0.8790 0.8790
2644.603520 0.8790 0.8790 0.8790 0.8790 0.8790
2649.201233 0.8790 0.8791 0.8796 0.8801 0.8806
2653.798945 0.8810 0.8810 0.8811 0.8817 0.8820
2658.396658 0.8820 0.8823 0.8834 0.8840 0.8840
2662.994371 0.8840 0.8840 0.8840 0.8840 0.8840
2667.592083 0.8840 0.8842 0.8847 0.8850 0.8850
2672.189796 0.8850 0.8850 0.8853 0.8858 0.8860
2676.787508 0.8860 0.8860 0.8860 0.8860 0.8860
2681.385221 0.8857 0.8852 0.8847 0.8842 0.8833
2685.982933 0.8823 0.8813 0.8803 0.8800 0.8800
2690.580646 0.8796 0.8791 0.8782 0.8772 0.8770
2695.178358 0.8770 0.8766 0.8761 0.8756 0.8751
2699.776071 0.8750 0.8750 0.8745 0.8740 0.8730
2704.373783 0.8720 0.8720 0.8720 0.8720 0.8720
2708.971496 0.8720 0.8721 0.8731 0.8740 0.8740
2713.569208 0.8741 0.8746 0.8751 0.8761 0.8772
2718.166921 0.8782 0.8791 0.8796 0.8801 0.8806
2722.764634 0.8810 0.8810 0.8810 0.8810 0.8810
2727.362346 0.8810 0.8810 0.8810 0.8810 0.8810
2731.960059 0.8808 0.8803 0.8800 0.8800 0.8800
2736.557771 0.8800 0.8798 0.8793 0.8790 0.8790
2741.155484 0.8790 0.8790 0.8790 0.8790 0.8790
2745.753196 0.8790 0.8790 0.8790 0.8790 0.8790
2750.350909 0.8790 0.8790 0.8780 0.8765 0.8760
2754.948621 0.8760 0.8760 0.8760 0.8760 0.8760
2759.546334 0.8756 0.8751 0.8750 0.8750 0.8746
2764.144046 0.8741 0.8740 0.8740 0.8740 0.8740
2768.741759 0.8740 0.8740 0.8740 0.8740 0.8740
2773.339471 0.8740 0.8740 0.8740 0.8730 0.8720
2777.937184 0.8720 0.8720 0.8715 0.8710 0.8705
2782.534897 0.8698 0.8678 0.8659 0.8654 0.8649
2787.132609 0.8638 0.8628 0.8618 0.8610 0.8610
2791.730322 0.8609 0.8604 0.8598 0.8588 0.8574
2796.328034 0.8548 0.8524 0.8504 0.8482 0.8457
2800.925747 0.8435 0.8420 0.8399 0.8368 0.8342
2805.523459 0.8322 0.8306 0.8296 0.8272 0.8232
2810.121172 0.8194 0.8158 0.8113 0.8057 0.8001
2814.718884 0.7946 0.7884 0.7818 0.7714 0.7582
2819.316597 0.7466 0.7360 0.7244 0.7122 0.6948
2823.914309 0.6746 0.6458 0.6129 0.5669 0.5153
2828.512022 0.4436 0.3641 0.3153 0.2768 0.2392
2833.109734 0.2017 0.1928 0.1912 0.1601 0.1231
2837.707447 0.1180 0.1180 0.2130 0.3202 0.3493
2842.305160 0.3706 0.4065 0.4434 0.5016 0.5608
2846.902872 0.6081 0.6551 0.6733 0.6914 0.7071
2851.500585 0.7224 0.7306 0.7382 0.7408 0.7431
2856.098297 0.7436 0.7455 0.7561 0.7653 0.7668
2860.696010 0.7681 0.7686 0.7690 0.7690 0.7689
2865.293722 0.7684 0.7679 0.7674 0.7666 0.7651
2869.891435 0.7637 0.7627 0.7611 0.7586 0.7562
2874.489147 0.7542 0.7522 0.7502 0.7481 0.7461
2879.086860 0.7439 0.7413 0.7374 0.7318 0.7262
2883.684572 0.7207 0.7149 0.7088 0.7027 0.6966
2888.282285 0.6908 0.6852 0.6787 0.6716 0.6652
2892.879997 0.6591 0.6523 0.6453 0.6375 0.6294
2897.477710 0.6181 0.6054 0.5976 0.5915 0.5786
2902.075423 0.5634 0.5506 0.5384 0.5328 0.5287
2906.673135 0.5272 0.5261 0.5260 0.5260 0.5269
2911.270848 0.5279 0.5280 0.5280 0.5285 0.5290
2915.868560 0.5285 0.5280 0.5270 0.5260 0.5204
2920.466273 0.5149 0.5119 0.5089 0.5063 0.5026
2925.063985 0.4852 0.4671 0.4433 0.4144 0.3562
2929.661698 0.3061 0.2950 0.2836 0.2715 0.2596
2934.259410 0.2484 0.2371 0.2249 0.2160 0.2160
2938.857123 0.2186 0.2277 0.2518 0.3084 0.3472
2943.454835 0.3508 0.3545 0.3586 0.3633 0.3688
2948.052548 0.3774 0.3901 0.3972 0.3977 0.3985
2952.650260 0.3995 0.4005 0.4015 0.4023 0.4028
2957.247973 0.4036 0.4046 0.4056 0.4066 0.4073
2961.845686 0.4078 0.4096 0.4121 0.4137 0.4147
2966.443398 0.4174 0.4210 0.4245 0.4281 0.4312
2971.041111 0.4343 0.4381 0.4421 0.4529 0.4655
2975.638823 0.4733 0.4799 0.4885 0.4977 0.4990
2980.236536 0.4990 0.5053 0.5124 0.5256 0.5392
2984.834248 0.5405 0.5410 0.5503 0.5599 0.5600
2989.431961 0.5600 0.5585 0.5567 0.5475 0.5383
2994.029673 0.5266 0.5150 0.5034 0.4917 0.4800
2998.627386 0.4682 0.4566 0.4470 0.4470 0.4561
3003.225098 0.5017 0.5372 0.5382 0.5385 0.5365
3007.822811 0.5345 0.5324 0.5307 0.5297 0.5290
3012.420523 0.5290 0.5330 0.5446 0.5556 0.5653
3017.018236 0.5727 0.5767 0.5790 0.5790 0.5746
3021.615949 0.5650 0.5581 0.5540 0.5520 0.5520
3026.213661 0.5565 0.5652 0.5732 0.5808 0.5925
3030.811374 0.6071 0.6130 0.6130 0.6028 0.5864
3035.409086 0.5763 0.5692 0.5597 0.5490 0.5380
3040.006799 0.5269 0.5162 0.5055 0.4945 0.4834
3044.604511 0.4727 0.4620 0.4514 0.4408 0.4301
3049.202224 0.4195 0.4180 0.4180 0.4279 0.4391
3053.799936 0.4512 0.4634 0.4755 0.4877 0.5057
3058.397649 0.5239 0.5240 0.5235 0.4987 0.4749
3062.995361 0.4724 0.4686 0.4473 0.4259 0.4032
3067.593074 0.3805 0.3582 0.3390 0.3390 0.3411
3072.190786 0.3528 0.3746 0.4358 0.4910 0.5259
3076.788499 0.5658 0.6205 0.6676 0.6949 0.7143
3081.386212 0.7153 0.7157 0.7147 0.7136 0.7126
3085.983924 0.7120 0.7120 0.7144 0.7206 0.7269
3090.581637 0.7335 0.7407 0.7488 0.7542 0.7568
3095.179349 0.7681 0.7878 0.8070 0.8257 0.8368
3099.777062 0.8419 0.8466 0.8512 0.8533 0.8538
3104.374774 0.8546 0.8556 0.8567 0.8577 0.8587
3108.972487 0.8597 0.8604 0.8609 0.8610 0.8610
3113.570199 0.8618 0.8628 0.8630 0.8630 0.8630
3118.167912 0.8630 0.8630 0.8630 0.8630 0.8630
3122.765624 0.8621 0.8611 0.8605 0.8600 0.8576
3127.363337 0.8551 0.8520 0.8490 0.8460 0.8428
3131.961049 0.8352 0.8279 0.8264 0.8250 0.8255
3136.558762 0.8272 0.8393 0.8510 0.8596 0.8677
3141.156475 0.8728 0.8773 0.8794 0.8813 0.8828
3145.754187 0.8841 0.8846 0.8851 0.8856 0.8861
3150.351900 0.8866 0.8873 0.8883 0.8890 0.8890
3154.949612 0.8892 0.8897 0.8900 0.8900 0.8900
3159.547325 0.8900 0.8900 0.8900 0.8900 0.8900
3164.145037 0.8902 0.8908 0.8910 0.8910 0.8910
3168.742750 0.8910 0.8907 0.8902 0.8900 0.8900
3173.340462 0.8900 0.8900 0.8900 0.8900 0.8900
3177.938175 0.8900 0.8900 0.8900 0.8907 0.8917
3182.535887 0.8920 0.8920 0.8920 0.8920 0.8916
3187.133600 0.8911 0.8910 0.8910 0.8910 0.8910
3191.731313 0.8914 0.8919 0.8929 0.8939 0.8940
3196.329025 0.8940 0.8940 0.8940 0.8940 0.8940
3200.926738 0.8950 0.8960 0.8960 0.8960 0.8960
3205.524450 0.8960 0.8960 0.8960 0.8960 0.8961
3210.122163 0.8966 0.8970 0.8970 0.8970 0.8970
3214.719875 0.8970 0.8970 0.8970 0.8970 0.8970
3219.317588 0.8970 0.8970 0.8970 0.8970 0.8970
3223.915300 0.8970 0.8970 0.8970 0.8970 0.8970
3228.513013 0.8970 0.8970 0.8970 0.8970 0.8970
3233.110725 0.8970 0.8970 0.8970 0.8970 0.8970
3237.708438 0.8970 0.8970 0.8970 0.8976 0.8986
3242.306150 0.8990 0.8990 0.8990 0.8990 0.8990
3246.903863 0.8990 0.8990 0.8990 0.8990 0.8990
3251.501576 0.8990 0.8990 0.8994 0.8999 0.9000
3256.099288 0.9000 0.9000 0.9000 0.9000 0.9000
3260.697001 0.9000 0.9000 0.9000 0.9000 0.9000
3265.294713 0.9000 0.9000 0.9000 0.9000 0.9000
3269.892426 0.9000 0.9000 0.9000 0.9000 0.9000
3274.490138 0.9000 0.9000 0.9000 0.9000 0.9000
3279.087851 0.9000 0.9000 0.9000 0.8999 0.8994
3283.685563 0.8990 0.8990 0.8990 0.8990 0.8990
3288.283276 0.8990 0.8990 0.8990 0.8990 0.8990
3292.880988 0.8990 0.8990 0.8990 0.8990 0.8990
3297.478701 0.8990 0.8990 0.8990 0.8990 0.8990
3302.076413 0.8990 0.8990 0.8985 0.8975 0.8970
3306.674126 0.8970 0.8970 0.8970 0.8970 0.8970
3311.271839 0.8970 0.8970 0.8970 0.8970 0.8967
3315.869551 0.8962 0.8960 0.8960 0.8960 0.8960
3320.467264 0.8956 0.8951 0.8950 0.8950 0.8950
3325.064976 0.8950 0.8950 0.8950 0.8950 0.8950
3329.662689 0.8946 0.8941 0.8940 0.8940 0.8940
3334.260401 0.8940 0.8931 0.8921 0.8920 0.8920
3338.858114 0.8920 0.8920 0.8920 0.8920 0.8920
3343.455826 0.8920 0.8920 0.8920 0.8920 0.8920
3348.053539 0.8920 0.8920 0.8920 0.8920 0.8920
3352.651251 0.8920 0.8920 0.8920 0.8920 0.8919
3357.248964 0.8914 0.8910 0.8910 0.8910 0.8910
3361.846676 0.8910 0.8910 0.8910 0.8910 0.8910
3366.444389 0.8910 0.8910 0.8910 0.8910 0.8910
3371.042102 0.8910 0.8910 0.8910 0.8910 0.8910
3375.639814 0.8910 0.8910 0.8910 0.8910 0.8910
3380.237527 0.8910 0.8910 0.8910 0.8910 0.8910
3384.835239 0.8910 0.8910 0.8910 0.8910 0.8910
3389.432952 0.8910 0.8910 0.8906 0.8901 0.8900
3394.030664 0.8900 0.8900 0.8900 0.8900 0.8900
3398.628377 0.8900 0.8900 0.8900 0.8900 0.8896
3403.226089 0.8891 0.8890 0.8890 0.8890 0.8890
3407.823802 0.8890 0.8890 0.8890 0.8890 0.8890
3412.421514 0.8890 0.8890 0.8890 0.8895 0.8900
3417.019227 0.8900 0.8900 0.8900 0.8900 0.8900
3421.616939 0.8900 0.8900 0.8900 0.8900 0.8900
3426.214652 0.8900 0.8901 0.8906 0.8910 0.8910
3430.812365 0.8910 0.8910 0.8910 0.8910 0.8910
3435.410077 0.8910 0.8910 0.8910 0.8910 0.8910
3440.007790 0.8910 0.8910 0.8910 0.8910 0.8910
3444.605502 0.8910 0.8910 0.8910 0.8910 0.8910
3449.203215 0.8910 0.8910 0.8910 0.8910 0.8910
3453.800927 0.8910 0.8910 0.8910 0.8910 0.8910
3458.398640 0.8910 0.8910 0.8910 0.8910 0.8910
3462.996352 0.8910 0.8910 0.8910 0.8910 0.8910
3467.594065 0.8910 0.8910 0.8910 0.8910 0.8910
3472.191777 0.8910 0.8910 0.8910 0.8910 0.8910
3476.789490 0.8910 0.8910 0.8910 0.8910 0.8910
3481.387202 0.8910 0.8910 0.8910 0.8910 0.8910
3485.984915 0.8910 0.8910 0.8910 0.8910 0.8910
3490.582628 0.8910 0.8910 0.8910 0.8910 0.8910
3495.180340 0.8910 0.8910 0.8910 0.8910 0.8910
3499.778053 0.8910 0.8910 0.8910 0.8910 0.8910
3504.375765 0.8910 0.8910 0.8910 0.8910 0.8910
3508.973478 0.8910 0.8910 0.8910 0.8910 0.8910
3513.571190 0.8910 0.8910 0.8910 0.8910 0.8910
3518.168903 0.8910 0.8910 0.8910 0.8910 0.8910
3522.766615 0.8910 0.8910 0.8910 0.8910 0.8910
3527.364328 0.8910 0.8910 0.8910 0.8910 0.8910
3531.962040 0.8910 0.8910 0.8910 0.8910 0.8910
3536.559753 0.8910 0.8910 0.8910 0.8910 0.8910
3541.157465 0.8910 0.8914 0.8919 0.8920 0.8920
3545.755178 0.8920 0.8920 0.8929 0.8939 0.8940
3550.352891 0.8940 0.8940 0.8940 0.8945 0.8950
3554.950603 0.8955 0.8960 0.8960 0.8960 0.8960
3559.548316 0.8960 0.8966 0.8971 0.8981 0.8990
3564.146028 0.8990 0.8991 0.8996 0.9000 0.9000
3568.743741 0.9001 0.9006 0.9010 0.9010 0.9010
3573.341453 0.9010 0.9011 0.9017 0.9026 0.9047
3577.939166 0.9060 0.9060 0.9066 0.9081 0.9086
3582.536878 0.9076 0.9068 0.9063 0.9055 0.9045
3587.134591 0.9033 0.9018 0.9007 0.9002 0.8997
3591.732303 0.8992 0.8990 0.8990 0.8990 0.8990
3596.330016 0.8990 0.8990 0.8984 0.8973 0.8970
3600.927728 0.8970 0.8970 0.8970 0.8977 0.8987
3605.525441 0.8990 0.8990 0.8994 0.8999 0.9000
3610.123154 0.9000 0.9004 0.9009 0.9010 0.9010
3614.720866 0.9010 0.9010 0.9010 0.9010 0.9015
3619.318579 0.9020 0.9020 0.9020 0.9015 0.9010
3623.916291 0.9000 0.8990 0.8975 0.8960 0.8949
3628.514004 0.8940 0.8940 0.8940 0.8940 0.8941
3633.111716 0.8946 0.8950 0.8950 0.8951 0.8956
3637.709429 0.8960 0.8960 0.8961 0.8966 0.8970
3642.307141 0.8970 0.8973 0.8983 0.8990 0.8990
3646.904854 0.8992 0.8997 0.9007 0.9027 0.9040
3651.502566 0.9040 0.9036 0.9026 0.9018 0.9013
3656.100279 0.9008 0.9003 0.8998 0.8992 0.8990
3660.697991 0.8990 0.8993 0.8998 0.9003 0.9008
3665.295704 0.9013 0.9018 0.9026 0.9036 0.9040
3669.893417 0.9040 0.9043 0.9048 0.9039 0.9024
3674.491129 0.9016 0.9011 0.9002 0.8992 0.8982
3679.088842 0.8972 0.8966 0.8961 0.8960 0.8960
3683.686554 0.8960 0.8960 0.8964 0.8969 0.8970
3688.284267 0.8970 0.8970 0.8970 0.8980 0.8990
3692.881979 0.8990 0.8990 0.8990 0.8990 0.8995
3697.479692 0.9000 0.9000 0.9000 0.9005 0.9010
3702.077404 0.9010 0.9011 0.9016 0.9020 0.9020
3706.675117 0.9020 0.9020 0.9022 0.9032 0.9040
3711.272829 0.9040 0.9040 0.9040 0.9041 0.9046
3715.870542 0.9050 0.9050 0.9052 0.9057 0.9062
3720.468255 0.9067 0.9074 0.9084 0.9092 0.9097
3725.065967 0.9100 0.9100 0.9102 0.9107 0.9112
3729.663680 0.9118 0.9120 0.9120 0.9125 0.9136
3734.261392 0.9140 0.9140 0.9143 0.9148 0.9150
3738.859105 0.9150 0.9150 0.9150 0.9150 0.9150
3743.456817 0.9150 0.9150 0.9150 0.9150 0.9146
3748.054530 0.9141 0.9140 0.9140 0.9132 0.9122
3752.652242 0.9120 0.9120 0.9116 0.9111 0.9106
3757.249955 0.9101 0.9095 0.9090 0.9081 0.9070
3761.847667 0.9060 0.9050 0.9050 0.9050 0.9050
3766.445380 0.9050 0.9045 0.9039 0.9029 0.9021
3771.043092 0.9031 0.9041 0.9046 0.9050 0.9050
3775.640805 0.9051 0.9056 0.9060 0.9060 0.9061
3780.238518 0.9066 0.9070 0.9070 0.9073 0.9083
3784.836230 0.9090 0.9090 0.9092 0.9097 0.9100
3789.433943 0.9100 0.9102 0.9107 0.9110 0.9110
3794.031655 0.9112 0.9117 0.9120 0.9120 0.9120
3798.629368 0.9120 0.9120 0.9120 0.9120 0.9120
3803.227080 0.9120 0.9120 0.9120 0.9120 0.9120
3807.824793 0.9120
##END=
